    1C
    1UUSER                                                              
    1UDATE              11.october.2022                                 
    1UTIME              17:46:11                                        
    1UHOST                                                              
    1UPGM               CalculiX                                        
    1UVERSION           Version 2.20                             
    1UCOMPILETIME       Sun Jul 31 18:08:37 CEST 2022                    
    1UDIR                                                               
    1UDBN                                                               
    1UMAT    1MESH_MATERIAL                                             
    2C                           841                                     1
 -1         1 0.00000E+00 0.00000E+00 0.00000E+00
 -1         2 1.66667E-02 0.00000E+00 0.00000E+00
 -1         3 3.33333E-02 0.00000E+00 0.00000E+00
 -1         4 5.00000E-02 0.00000E+00 0.00000E+00
 -1         5 6.66667E-02 0.00000E+00 0.00000E+00
 -1         8 0.00000E+00 6.25000E-03 0.00000E+00
 -1         9 1.66667E-02 6.25000E-03 0.00000E+00
 -1        10 3.33333E-02 6.25000E-03 0.00000E+00
 -1        11 5.00000E-02 6.25000E-03 0.00000E+00
 -1        12 6.66667E-02 6.25000E-03 0.00000E+00
 -1        15 0.00000E+00 1.25000E-02 0.00000E+00
 -1        16 1.66667E-02 1.25000E-02 0.00000E+00
 -1        17 3.33333E-02 1.25000E-02 0.00000E+00
 -1        18 5.00000E-02 1.25000E-02 0.00000E+00
 -1        19 6.66667E-02 1.25000E-02 0.00000E+00
 -1        20 8.33333E-02 1.25000E-02 0.00000E+00
 -1        21 1.00000E-01 1.25000E-02 0.00000E+00
 -1        22 0.00000E+00 1.87500E-02 0.00000E+00
 -1        23 1.66667E-02 1.87500E-02 0.00000E+00
 -1        24 3.33333E-02 1.87500E-02 0.00000E+00
 -1        25 5.00000E-02 1.87500E-02 0.00000E+00
 -1        26 6.66667E-02 1.87500E-02 0.00000E+00
 -1        27 8.33333E-02 1.87500E-02 0.00000E+00
 -1        28 1.00000E-01 1.87500E-02 0.00000E+00
 -1        29 0.00000E+00 2.50000E-02 0.00000E+00
 -1        30 1.66667E-02 2.50000E-02 0.00000E+00
 -1        31 3.33333E-02 2.50000E-02 0.00000E+00
 -1        32 5.00000E-02 2.50000E-02 0.00000E+00
 -1        33 6.66667E-02 2.50000E-02 0.00000E+00
 -1        34 8.33333E-02 2.50000E-02 0.00000E+00
 -1        35 1.00000E-01 2.50000E-02 0.00000E+00
 -1        36 1.04167E-03 0.00000E+00 0.00000E+00
 -1        37 2.08333E-03 0.00000E+00 0.00000E+00
 -1        38 3.12500E-03 0.00000E+00 0.00000E+00
 -1        39 4.16667E-03 0.00000E+00 0.00000E+00
 -1        40 5.20833E-03 0.00000E+00 0.00000E+00
 -1        41 6.25000E-03 0.00000E+00 0.00000E+00
 -1        42 7.29167E-03 0.00000E+00 0.00000E+00
 -1        43 8.33333E-03 0.00000E+00 0.00000E+00
 -1        44 9.37500E-03 0.00000E+00 0.00000E+00
 -1        45 1.04167E-02 0.00000E+00 0.00000E+00
 -1        46 1.14583E-02 0.00000E+00 0.00000E+00
 -1        47 1.25000E-02 0.00000E+00 0.00000E+00
 -1        48 1.35417E-02 0.00000E+00 0.00000E+00
 -1        49 1.45833E-02 0.00000E+00 0.00000E+00
 -1        50 1.56250E-02 0.00000E+00 0.00000E+00
 -1        51 0.00000E+00 1.04167E-03 0.00000E+00
 -1        52 0.00000E+00 2.08333E-03 0.00000E+00
 -1        53 0.00000E+00 3.12500E-03 0.00000E+00
 -1        54 0.00000E+00 4.16667E-03 0.00000E+00
 -1        55 0.00000E+00 5.20833E-03 0.00000E+00
 -1        56 1.04167E-03 3.90630E-04 0.00000E+00
 -1        57 2.08333E-03 7.81250E-04 0.00000E+00
 -1        58 3.12500E-03 1.17188E-03 0.00000E+00
 -1        59 4.16667E-03 1.56250E-03 0.00000E+00
 -1        60 5.20833E-03 1.95312E-03 0.00000E+00
 -1        61 6.25000E-03 2.34375E-03 0.00000E+00
 -1        62 7.29167E-03 2.73438E-03 0.00000E+00
 -1        63 8.33333E-03 3.12500E-03 0.00000E+00
 -1        64 9.37500E-03 3.51563E-03 0.00000E+00
 -1        65 1.04167E-02 3.90625E-03 0.00000E+00
 -1        66 1.14583E-02 4.29688E-03 0.00000E+00
 -1        67 1.25000E-02 4.68750E-03 0.00000E+00
 -1        68 1.35417E-02 5.07813E-03 0.00000E+00
 -1        69 1.45833E-02 5.46875E-03 0.00000E+00
 -1        70 1.56250E-02 5.85938E-03 0.00000E+00
 -1        71 1.77083E-02 0.00000E+00 0.00000E+00
 -1        72 1.87500E-02 0.00000E+00 0.00000E+00
 -1        73 1.97917E-02 0.00000E+00 0.00000E+00
 -1        74 2.08333E-02 0.00000E+00 0.00000E+00
 -1        75 2.18750E-02 0.00000E+00 0.00000E+00
 -1        76 2.29167E-02 0.00000E+00 0.00000E+00
 -1        77 2.39583E-02 0.00000E+00 0.00000E+00
 -1        78 2.50000E-02 0.00000E+00 0.00000E+00
 -1        79 2.60417E-02 0.00000E+00 0.00000E+00
 -1        80 2.70833E-02 0.00000E+00 0.00000E+00
 -1        81 2.81250E-02 0.00000E+00 0.00000E+00
 -1        82 2.91667E-02 0.00000E+00 0.00000E+00
 -1        83 3.02083E-02 0.00000E+00 0.00000E+00
 -1        84 3.12500E-02 0.00000E+00 0.00000E+00
 -1        85 3.22917E-02 0.00000E+00 0.00000E+00
 -1        86 1.66667E-02 1.04167E-03 0.00000E+00
 -1        87 1.66667E-02 2.08333E-03 0.00000E+00
 -1        88 1.66667E-02 3.12500E-03 0.00000E+00
 -1        89 1.66667E-02 4.16667E-03 0.00000E+00
 -1        90 1.66667E-02 5.20833E-03 0.00000E+00
 -1        91 1.77083E-02 3.90630E-04 0.00000E+00
 -1        92 1.87500E-02 7.81250E-04 0.00000E+00
 -1        93 1.97917E-02 1.17188E-03 0.00000E+00
 -1        94 2.08333E-02 1.56250E-03 0.00000E+00
 -1        95 2.18750E-02 1.95312E-03 0.00000E+00
 -1        96 2.29167E-02 2.34375E-03 0.00000E+00
 -1        97 2.39583E-02 2.73438E-03 0.00000E+00
 -1        98 2.50000E-02 3.12500E-03 0.00000E+00
 -1        99 2.60417E-02 3.51563E-03 0.00000E+00
 -1       100 2.70833E-02 3.90625E-03 0.00000E+00
 -1       101 2.81250E-02 4.29688E-03 0.00000E+00
 -1       102 2.91667E-02 4.68750E-03 0.00000E+00
 -1       103 3.02083E-02 5.07813E-03 0.00000E+00
 -1       104 3.12500E-02 5.46875E-03 0.00000E+00
 -1       105 3.22917E-02 5.85938E-03 0.00000E+00
 -1       106 3.43750E-02 0.00000E+00 0.00000E+00
 -1       107 3.54167E-02 0.00000E+00 0.00000E+00
 -1       108 3.64583E-02 0.00000E+00 0.00000E+00
 -1       109 3.75000E-02 0.00000E+00 0.00000E+00
 -1       110 3.85417E-02 0.00000E+00 0.00000E+00
 -1       111 3.95833E-02 0.00000E+00 0.00000E+00
 -1       112 4.06250E-02 0.00000E+00 0.00000E+00
 -1       113 4.16667E-02 0.00000E+00 0.00000E+00
 -1       114 4.27083E-02 0.00000E+00 0.00000E+00
 -1       115 4.37500E-02 0.00000E+00 0.00000E+00
 -1       116 4.47917E-02 0.00000E+00 0.00000E+00
 -1       117 4.58333E-02 0.00000E+00 0.00000E+00
 -1       118 4.68750E-02 0.00000E+00 0.00000E+00
 -1       119 4.79167E-02 0.00000E+00 0.00000E+00
 -1       120 4.89583E-02 0.00000E+00 0.00000E+00
 -1       121 3.33333E-02 1.04167E-03 0.00000E+00
 -1       122 3.33333E-02 2.08333E-03 0.00000E+00
 -1       123 3.33333E-02 3.12500E-03 0.00000E+00
 -1       124 3.33333E-02 4.16667E-03 0.00000E+00
 -1       125 3.33333E-02 5.20833E-03 0.00000E+00
 -1       126 3.43750E-02 3.90630E-04 0.00000E+00
 -1       127 3.54167E-02 7.81250E-04 0.00000E+00
 -1       128 3.64583E-02 1.17188E-03 0.00000E+00
 -1       129 3.75000E-02 1.56250E-03 0.00000E+00
 -1       130 3.85417E-02 1.95312E-03 0.00000E+00
 -1       131 3.95833E-02 2.34375E-03 0.00000E+00
 -1       132 4.06250E-02 2.73438E-03 0.00000E+00
 -1       133 4.16667E-02 3.12500E-03 0.00000E+00
 -1       134 4.27083E-02 3.51563E-03 0.00000E+00
 -1       135 4.37500E-02 3.90625E-03 0.00000E+00
 -1       136 4.47917E-02 4.29688E-03 0.00000E+00
 -1       137 4.58333E-02 4.68750E-03 0.00000E+00
 -1       138 4.68750E-02 5.07813E-03 0.00000E+00
 -1       139 4.79167E-02 5.46875E-03 0.00000E+00
 -1       140 4.89583E-02 5.85938E-03 0.00000E+00
 -1       141 5.10417E-02 0.00000E+00 0.00000E+00
 -1       142 5.20833E-02 0.00000E+00 0.00000E+00
 -1       143 5.31250E-02 0.00000E+00 0.00000E+00
 -1       144 5.41667E-02 0.00000E+00 0.00000E+00
 -1       145 5.52083E-02 0.00000E+00 0.00000E+00
 -1       146 5.62500E-02 0.00000E+00 0.00000E+00
 -1       147 5.72917E-02 0.00000E+00 0.00000E+00
 -1       148 5.83333E-02 0.00000E+00 0.00000E+00
 -1       149 5.93750E-02 0.00000E+00 0.00000E+00
 -1       150 6.04167E-02 0.00000E+00 0.00000E+00
 -1       151 6.14583E-02 0.00000E+00 0.00000E+00
 -1       152 6.25000E-02 0.00000E+00 0.00000E+00
 -1       153 6.35417E-02 0.00000E+00 0.00000E+00
 -1       154 6.45833E-02 0.00000E+00 0.00000E+00
 -1       155 6.56250E-02 0.00000E+00 0.00000E+00
 -1       156 5.00000E-02 1.04167E-03 0.00000E+00
 -1       157 5.00000E-02 2.08333E-03 0.00000E+00
 -1       158 5.00000E-02 3.12500E-03 0.00000E+00
 -1       159 5.00000E-02 4.16667E-03 0.00000E+00
 -1       160 5.00000E-02 5.20833E-03 0.00000E+00
 -1       161 5.10417E-02 3.90630E-04 0.00000E+00
 -1       162 5.20833E-02 7.81250E-04 0.00000E+00
 -1       163 5.31250E-02 1.17188E-03 0.00000E+00
 -1       164 5.41667E-02 1.56250E-03 0.00000E+00
 -1       165 5.52083E-02 1.95312E-03 0.00000E+00
 -1       166 5.62500E-02 2.34375E-03 0.00000E+00
 -1       167 5.72917E-02 2.73438E-03 0.00000E+00
 -1       168 5.83333E-02 3.12500E-03 0.00000E+00
 -1       169 5.93750E-02 3.51563E-03 0.00000E+00
 -1       170 6.04167E-02 3.90625E-03 0.00000E+00
 -1       171 6.14583E-02 4.29688E-03 0.00000E+00
 -1       172 6.25000E-02 4.68750E-03 0.00000E+00
 -1       173 6.35417E-02 5.07813E-03 0.00000E+00
 -1       174 6.45833E-02 5.46875E-03 0.00000E+00
 -1       175 6.56250E-02 5.85938E-03 0.00000E+00
 -1       191 6.66667E-02 1.04167E-03 0.00000E+00
 -1       192 6.66667E-02 2.08333E-03 0.00000E+00
 -1       193 6.66667E-02 3.12500E-03 0.00000E+00
 -1       194 6.66667E-02 4.16667E-03 0.00000E+00
 -1       195 6.66667E-02 5.20833E-03 0.00000E+00
 -1       251 1.04167E-03 6.25000E-03 0.00000E+00
 -1       252 2.08333E-03 6.25000E-03 0.00000E+00
 -1       253 3.12500E-03 6.25000E-03 0.00000E+00
 -1       254 4.16667E-03 6.25000E-03 0.00000E+00
 -1       255 5.20833E-03 6.25000E-03 0.00000E+00
 -1       256 6.25000E-03 6.25000E-03 0.00000E+00
 -1       257 7.29167E-03 6.25000E-03 0.00000E+00
 -1       258 8.33333E-03 6.25000E-03 0.00000E+00
 -1       259 9.37500E-03 6.25000E-03 0.00000E+00
 -1       260 1.04167E-02 6.25000E-03 0.00000E+00
 -1       261 1.14583E-02 6.25000E-03 0.00000E+00
 -1       262 1.25000E-02 6.25000E-03 0.00000E+00
 -1       263 1.35417E-02 6.25000E-03 0.00000E+00
 -1       264 1.45833E-02 6.25000E-03 0.00000E+00
 -1       265 1.56250E-02 6.25000E-03 0.00000E+00
 -1       266 0.00000E+00 7.29167E-03 0.00000E+00
 -1       267 0.00000E+00 8.33333E-03 0.00000E+00
 -1       268 0.00000E+00 9.37500E-03 0.00000E+00
 -1       269 0.00000E+00 1.04167E-02 0.00000E+00
 -1       270 0.00000E+00 1.14583E-02 0.00000E+00
 -1       271 1.04167E-03 6.64063E-03 0.00000E+00
 -1       272 2.08333E-03 7.03125E-03 0.00000E+00
 -1       273 3.12500E-03 7.42188E-03 0.00000E+00
 -1       274 4.16667E-03 7.81250E-03 0.00000E+00
 -1       275 5.20833E-03 8.20313E-03 0.00000E+00
 -1       276 6.25000E-03 8.59375E-03 0.00000E+00
 -1       277 7.29167E-03 8.98438E-03 0.00000E+00
 -1       278 8.33333E-03 9.37500E-03 0.00000E+00
 -1       279 9.37500E-03 9.76562E-03 0.00000E+00
 -1       280 1.04167E-02 1.01562E-02 0.00000E+00
 -1       281 1.14583E-02 1.05469E-02 0.00000E+00
 -1       282 1.25000E-02 1.09375E-02 0.00000E+00
 -1       283 1.35417E-02 1.13281E-02 0.00000E+00
 -1       284 1.45833E-02 1.17188E-02 0.00000E+00
 -1       285 1.56250E-02 1.21094E-02 0.00000E+00
 -1       286 1.77083E-02 6.25000E-03 0.00000E+00
 -1       287 1.87500E-02 6.25000E-03 0.00000E+00
 -1       288 1.97917E-02 6.25000E-03 0.00000E+00
 -1       289 2.08333E-02 6.25000E-03 0.00000E+00
 -1       290 2.18750E-02 6.25000E-03 0.00000E+00
 -1       291 2.29167E-02 6.25000E-03 0.00000E+00
 -1       292 2.39583E-02 6.25000E-03 0.00000E+00
 -1       293 2.50000E-02 6.25000E-03 0.00000E+00
 -1       294 2.60417E-02 6.25000E-03 0.00000E+00
 -1       295 2.70833E-02 6.25000E-03 0.00000E+00
 -1       296 2.81250E-02 6.25000E-03 0.00000E+00
 -1       297 2.91667E-02 6.25000E-03 0.00000E+00
 -1       298 3.02083E-02 6.25000E-03 0.00000E+00
 -1       299 3.12500E-02 6.25000E-03 0.00000E+00
 -1       300 3.22917E-02 6.25000E-03 0.00000E+00
 -1       301 1.66667E-02 7.29167E-03 0.00000E+00
 -1       302 1.66667E-02 8.33333E-03 0.00000E+00
 -1       303 1.66667E-02 9.37500E-03 0.00000E+00
 -1       304 1.66667E-02 1.04167E-02 0.00000E+00
 -1       305 1.66667E-02 1.14583E-02 0.00000E+00
 -1       306 1.77083E-02 6.64063E-03 0.00000E+00
 -1       307 1.87500E-02 7.03125E-03 0.00000E+00
 -1       308 1.97917E-02 7.42188E-03 0.00000E+00
 -1       309 2.08333E-02 7.81250E-03 0.00000E+00
 -1       310 2.18750E-02 8.20313E-03 0.00000E+00
 -1       311 2.29167E-02 8.59375E-03 0.00000E+00
 -1       312 2.39583E-02 8.98438E-03 0.00000E+00
 -1       313 2.50000E-02 9.37500E-03 0.00000E+00
 -1       314 2.60417E-02 9.76562E-03 0.00000E+00
 -1       315 2.70833E-02 1.01562E-02 0.00000E+00
 -1       316 2.81250E-02 1.05469E-02 0.00000E+00
 -1       317 2.91667E-02 1.09375E-02 0.00000E+00
 -1       318 3.02083E-02 1.13281E-02 0.00000E+00
 -1       319 3.12500E-02 1.17188E-02 0.00000E+00
 -1       320 3.22917E-02 1.21094E-02 0.00000E+00
 -1       321 3.43750E-02 6.25000E-03 0.00000E+00
 -1       322 3.54167E-02 6.25000E-03 0.00000E+00
 -1       323 3.64583E-02 6.25000E-03 0.00000E+00
 -1       324 3.75000E-02 6.25000E-03 0.00000E+00
 -1       325 3.85417E-02 6.25000E-03 0.00000E+00
 -1       326 3.95833E-02 6.25000E-03 0.00000E+00
 -1       327 4.06250E-02 6.25000E-03 0.00000E+00
 -1       328 4.16667E-02 6.25000E-03 0.00000E+00
 -1       329 4.27083E-02 6.25000E-03 0.00000E+00
 -1       330 4.37500E-02 6.25000E-03 0.00000E+00
 -1       331 4.47917E-02 6.25000E-03 0.00000E+00
 -1       332 4.58333E-02 6.25000E-03 0.00000E+00
 -1       333 4.68750E-02 6.25000E-03 0.00000E+00
 -1       334 4.79167E-02 6.25000E-03 0.00000E+00
 -1       335 4.89583E-02 6.25000E-03 0.00000E+00
 -1       336 3.33333E-02 7.29167E-03 0.00000E+00
 -1       337 3.33333E-02 8.33333E-03 0.00000E+00
 -1       338 3.33333E-02 9.37500E-03 0.00000E+00
 -1       339 3.33333E-02 1.04167E-02 0.00000E+00
 -1       340 3.33333E-02 1.14583E-02 0.00000E+00
 -1       341 3.43750E-02 6.64063E-03 0.00000E+00
 -1       342 3.54167E-02 7.03125E-03 0.00000E+00
 -1       343 3.64583E-02 7.42188E-03 0.00000E+00
 -1       344 3.75000E-02 7.81250E-03 0.00000E+00
 -1       345 3.85417E-02 8.20313E-03 0.00000E+00
 -1       346 3.95833E-02 8.59375E-03 0.00000E+00
 -1       347 4.06250E-02 8.98438E-03 0.00000E+00
 -1       348 4.16667E-02 9.37500E-03 0.00000E+00
 -1       349 4.27083E-02 9.76562E-03 0.00000E+00
 -1       350 4.37500E-02 1.01562E-02 0.00000E+00
 -1       351 4.47917E-02 1.05469E-02 0.00000E+00
 -1       352 4.58333E-02 1.09375E-02 0.00000E+00
 -1       353 4.68750E-02 1.13281E-02 0.00000E+00
 -1       354 4.79167E-02 1.17188E-02 0.00000E+00
 -1       355 4.89583E-02 1.21094E-02 0.00000E+00
 -1       356 5.10417E-02 6.25000E-03 0.00000E+00
 -1       357 5.20833E-02 6.25000E-03 0.00000E+00
 -1       358 5.31250E-02 6.25000E-03 0.00000E+00
 -1       359 5.41667E-02 6.25000E-03 0.00000E+00
 -1       360 5.52083E-02 6.25000E-03 0.00000E+00
 -1       361 5.62500E-02 6.25000E-03 0.00000E+00
 -1       362 5.72917E-02 6.25000E-03 0.00000E+00
 -1       363 5.83333E-02 6.25000E-03 0.00000E+00
 -1       364 5.93750E-02 6.25000E-03 0.00000E+00
 -1       365 6.04167E-02 6.25000E-03 0.00000E+00
 -1       366 6.14583E-02 6.25000E-03 0.00000E+00
 -1       367 6.25000E-02 6.25000E-03 0.00000E+00
 -1       368 6.35417E-02 6.25000E-03 0.00000E+00
 -1       369 6.45833E-02 6.25000E-03 0.00000E+00
 -1       370 6.56250E-02 6.25000E-03 0.00000E+00
 -1       371 5.00000E-02 7.29167E-03 0.00000E+00
 -1       372 5.00000E-02 8.33333E-03 0.00000E+00
 -1       373 5.00000E-02 9.37500E-03 0.00000E+00
 -1       374 5.00000E-02 1.04167E-02 0.00000E+00
 -1       375 5.00000E-02 1.14583E-02 0.00000E+00
 -1       376 5.10417E-02 6.64063E-03 0.00000E+00
 -1       377 5.20833E-02 7.03125E-03 0.00000E+00
 -1       378 5.31250E-02 7.42188E-03 0.00000E+00
 -1       379 5.41667E-02 7.81250E-03 0.00000E+00
 -1       380 5.52083E-02 8.20313E-03 0.00000E+00
 -1       381 5.62500E-02 8.59375E-03 0.00000E+00
 -1       382 5.72917E-02 8.98438E-03 0.00000E+00
 -1       383 5.83333E-02 9.37500E-03 0.00000E+00
 -1       384 5.93750E-02 9.76562E-03 0.00000E+00
 -1       385 6.04167E-02 1.01562E-02 0.00000E+00
 -1       386 6.14583E-02 1.05469E-02 0.00000E+00
 -1       387 6.25000E-02 1.09375E-02 0.00000E+00
 -1       388 6.35417E-02 1.13281E-02 0.00000E+00
 -1       389 6.45833E-02 1.17188E-02 0.00000E+00
 -1       390 6.56250E-02 1.21094E-02 0.00000E+00
 -1       406 6.66667E-02 7.29167E-03 0.00000E+00
 -1       407 6.66667E-02 8.33333E-03 0.00000E+00
 -1       408 6.66667E-02 9.37500E-03 0.00000E+00
 -1       409 6.66667E-02 1.04167E-02 0.00000E+00
 -1       410 6.66667E-02 1.14583E-02 0.00000E+00
 -1       466 1.04167E-03 1.25000E-02 0.00000E+00
 -1       467 2.08333E-03 1.25000E-02 0.00000E+00
 -1       468 3.12500E-03 1.25000E-02 0.00000E+00
 -1       469 4.16667E-03 1.25000E-02 0.00000E+00
 -1       470 5.20833E-03 1.25000E-02 0.00000E+00
 -1       471 6.25000E-03 1.25000E-02 0.00000E+00
 -1       472 7.29167E-03 1.25000E-02 0.00000E+00
 -1       473 8.33333E-03 1.25000E-02 0.00000E+00
 -1       474 9.37500E-03 1.25000E-02 0.00000E+00
 -1       475 1.04167E-02 1.25000E-02 0.00000E+00
 -1       476 1.14583E-02 1.25000E-02 0.00000E+00
 -1       477 1.25000E-02 1.25000E-02 0.00000E+00
 -1       478 1.35417E-02 1.25000E-02 0.00000E+00
 -1       479 1.45833E-02 1.25000E-02 0.00000E+00
 -1       480 1.56250E-02 1.25000E-02 0.00000E+00
 -1       481 0.00000E+00 1.35417E-02 0.00000E+00
 -1       482 0.00000E+00 1.45833E-02 0.00000E+00
 -1       483 0.00000E+00 1.56250E-02 0.00000E+00
 -1       484 0.00000E+00 1.66667E-02 0.00000E+00
 -1       485 0.00000E+00 1.77083E-02 0.00000E+00
 -1       486 1.04167E-03 1.28906E-02 0.00000E+00
 -1       487 2.08333E-03 1.32813E-02 0.00000E+00
 -1       488 3.12500E-03 1.36719E-02 0.00000E+00
 -1       489 4.16667E-03 1.40625E-02 0.00000E+00
 -1       490 5.20833E-03 1.44531E-02 0.00000E+00
 -1       491 6.25000E-03 1.48437E-02 0.00000E+00
 -1       492 7.29167E-03 1.52344E-02 0.00000E+00
 -1       493 8.33333E-03 1.56250E-02 0.00000E+00
 -1       494 9.37500E-03 1.60156E-02 0.00000E+00
 -1       495 1.04167E-02 1.64062E-02 0.00000E+00
 -1       496 1.14583E-02 1.67969E-02 0.00000E+00
 -1       497 1.25000E-02 1.71875E-02 0.00000E+00
 -1       498 1.35417E-02 1.75781E-02 0.00000E+00
 -1       499 1.45833E-02 1.79687E-02 0.00000E+00
 -1       500 1.56250E-02 1.83594E-02 0.00000E+00
 -1       501 1.77083E-02 1.25000E-02 0.00000E+00
 -1       502 1.87500E-02 1.25000E-02 0.00000E+00
 -1       503 1.97917E-02 1.25000E-02 0.00000E+00
 -1       504 2.08333E-02 1.25000E-02 0.00000E+00
 -1       505 2.18750E-02 1.25000E-02 0.00000E+00
 -1       506 2.29167E-02 1.25000E-02 0.00000E+00
 -1       507 2.39583E-02 1.25000E-02 0.00000E+00
 -1       508 2.50000E-02 1.25000E-02 0.00000E+00
 -1       509 2.60417E-02 1.25000E-02 0.00000E+00
 -1       510 2.70833E-02 1.25000E-02 0.00000E+00
 -1       511 2.81250E-02 1.25000E-02 0.00000E+00
 -1       512 2.91667E-02 1.25000E-02 0.00000E+00
 -1       513 3.02083E-02 1.25000E-02 0.00000E+00
 -1       514 3.12500E-02 1.25000E-02 0.00000E+00
 -1       515 3.22917E-02 1.25000E-02 0.00000E+00
 -1       516 1.66667E-02 1.35417E-02 0.00000E+00
 -1       517 1.66667E-02 1.45833E-02 0.00000E+00
 -1       518 1.66667E-02 1.56250E-02 0.00000E+00
 -1       519 1.66667E-02 1.66667E-02 0.00000E+00
 -1       520 1.66667E-02 1.77083E-02 0.00000E+00
 -1       521 1.77083E-02 1.28906E-02 0.00000E+00
 -1       522 1.87500E-02 1.32813E-02 0.00000E+00
 -1       523 1.97917E-02 1.36719E-02 0.00000E+00
 -1       524 2.08333E-02 1.40625E-02 0.00000E+00
 -1       525 2.18750E-02 1.44531E-02 0.00000E+00
 -1       526 2.29167E-02 1.48437E-02 0.00000E+00
 -1       527 2.39583E-02 1.52344E-02 0.00000E+00
 -1       528 2.50000E-02 1.56250E-02 0.00000E+00
 -1       529 2.60417E-02 1.60156E-02 0.00000E+00
 -1       530 2.70833E-02 1.64062E-02 0.00000E+00
 -1       531 2.81250E-02 1.67969E-02 0.00000E+00
 -1       532 2.91667E-02 1.71875E-02 0.00000E+00
 -1       533 3.02083E-02 1.75781E-02 0.00000E+00
 -1       534 3.12500E-02 1.79687E-02 0.00000E+00
 -1       535 3.22917E-02 1.83594E-02 0.00000E+00
 -1       536 3.43750E-02 1.25000E-02 0.00000E+00
 -1       537 3.54167E-02 1.25000E-02 0.00000E+00
 -1       538 3.64583E-02 1.25000E-02 0.00000E+00
 -1       539 3.75000E-02 1.25000E-02 0.00000E+00
 -1       540 3.85417E-02 1.25000E-02 0.00000E+00
 -1       541 3.95833E-02 1.25000E-02 0.00000E+00
 -1       542 4.06250E-02 1.25000E-02 0.00000E+00
 -1       543 4.16667E-02 1.25000E-02 0.00000E+00
 -1       544 4.27083E-02 1.25000E-02 0.00000E+00
 -1       545 4.37500E-02 1.25000E-02 0.00000E+00
 -1       546 4.47917E-02 1.25000E-02 0.00000E+00
 -1       547 4.58333E-02 1.25000E-02 0.00000E+00
 -1       548 4.68750E-02 1.25000E-02 0.00000E+00
 -1       549 4.79167E-02 1.25000E-02 0.00000E+00
 -1       550 4.89583E-02 1.25000E-02 0.00000E+00
 -1       551 3.33333E-02 1.35417E-02 0.00000E+00
 -1       552 3.33333E-02 1.45833E-02 0.00000E+00
 -1       553 3.33333E-02 1.56250E-02 0.00000E+00
 -1       554 3.33333E-02 1.66667E-02 0.00000E+00
 -1       555 3.33333E-02 1.77083E-02 0.00000E+00
 -1       556 3.43750E-02 1.28906E-02 0.00000E+00
 -1       557 3.54167E-02 1.32813E-02 0.00000E+00
 -1       558 3.64583E-02 1.36719E-02 0.00000E+00
 -1       559 3.75000E-02 1.40625E-02 0.00000E+00
 -1       560 3.85417E-02 1.44531E-02 0.00000E+00
 -1       561 3.95833E-02 1.48437E-02 0.00000E+00
 -1       562 4.06250E-02 1.52344E-02 0.00000E+00
 -1       563 4.16667E-02 1.56250E-02 0.00000E+00
 -1       564 4.27083E-02 1.60156E-02 0.00000E+00
 -1       565 4.37500E-02 1.64062E-02 0.00000E+00
 -1       566 4.47917E-02 1.67969E-02 0.00000E+00
 -1       567 4.58333E-02 1.71875E-02 0.00000E+00
 -1       568 4.68750E-02 1.75781E-02 0.00000E+00
 -1       569 4.79167E-02 1.79687E-02 0.00000E+00
 -1       570 4.89583E-02 1.83594E-02 0.00000E+00
 -1       571 5.10417E-02 1.25000E-02 0.00000E+00
 -1       572 5.20833E-02 1.25000E-02 0.00000E+00
 -1       573 5.31250E-02 1.25000E-02 0.00000E+00
 -1       574 5.41667E-02 1.25000E-02 0.00000E+00
 -1       575 5.52083E-02 1.25000E-02 0.00000E+00
 -1       576 5.62500E-02 1.25000E-02 0.00000E+00
 -1       577 5.72917E-02 1.25000E-02 0.00000E+00
 -1       578 5.83333E-02 1.25000E-02 0.00000E+00
 -1       579 5.93750E-02 1.25000E-02 0.00000E+00
 -1       580 6.04167E-02 1.25000E-02 0.00000E+00
 -1       581 6.14583E-02 1.25000E-02 0.00000E+00
 -1       582 6.25000E-02 1.25000E-02 0.00000E+00
 -1       583 6.35417E-02 1.25000E-02 0.00000E+00
 -1       584 6.45833E-02 1.25000E-02 0.00000E+00
 -1       585 6.56250E-02 1.25000E-02 0.00000E+00
 -1       586 5.00000E-02 1.35417E-02 0.00000E+00
 -1       587 5.00000E-02 1.45833E-02 0.00000E+00
 -1       588 5.00000E-02 1.56250E-02 0.00000E+00
 -1       589 5.00000E-02 1.66667E-02 0.00000E+00
 -1       590 5.00000E-02 1.77083E-02 0.00000E+00
 -1       591 5.10417E-02 1.28906E-02 0.00000E+00
 -1       592 5.20833E-02 1.32813E-02 0.00000E+00
 -1       593 5.31250E-02 1.36719E-02 0.00000E+00
 -1       594 5.41667E-02 1.40625E-02 0.00000E+00
 -1       595 5.52083E-02 1.44531E-02 0.00000E+00
 -1       596 5.62500E-02 1.48437E-02 0.00000E+00
 -1       597 5.72917E-02 1.52344E-02 0.00000E+00
 -1       598 5.83333E-02 1.56250E-02 0.00000E+00
 -1       599 5.93750E-02 1.60156E-02 0.00000E+00
 -1       600 6.04167E-02 1.64062E-02 0.00000E+00
 -1       601 6.14583E-02 1.67969E-02 0.00000E+00
 -1       602 6.25000E-02 1.71875E-02 0.00000E+00
 -1       603 6.35417E-02 1.75781E-02 0.00000E+00
 -1       604 6.45833E-02 1.79687E-02 0.00000E+00
 -1       605 6.56250E-02 1.83594E-02 0.00000E+00
 -1       606 6.77083E-02 1.25000E-02 0.00000E+00
 -1       607 6.87500E-02 1.25000E-02 0.00000E+00
 -1       608 6.97917E-02 1.25000E-02 0.00000E+00
 -1       609 7.08333E-02 1.25000E-02 0.00000E+00
 -1       610 7.18750E-02 1.25000E-02 0.00000E+00
 -1       611 7.29167E-02 1.25000E-02 0.00000E+00
 -1       612 7.39583E-02 1.25000E-02 0.00000E+00
 -1       613 7.50000E-02 1.25000E-02 0.00000E+00
 -1       614 7.60417E-02 1.25000E-02 0.00000E+00
 -1       615 7.70833E-02 1.25000E-02 0.00000E+00
 -1       616 7.81250E-02 1.25000E-02 0.00000E+00
 -1       617 7.91667E-02 1.25000E-02 0.00000E+00
 -1       618 8.02083E-02 1.25000E-02 0.00000E+00
 -1       619 8.12500E-02 1.25000E-02 0.00000E+00
 -1       620 8.22917E-02 1.25000E-02 0.00000E+00
 -1       621 6.66667E-02 1.35417E-02 0.00000E+00
 -1       622 6.66667E-02 1.45833E-02 0.00000E+00
 -1       623 6.66667E-02 1.56250E-02 0.00000E+00
 -1       624 6.66667E-02 1.66667E-02 0.00000E+00
 -1       625 6.66667E-02 1.77083E-02 0.00000E+00
 -1       626 6.77083E-02 1.28906E-02 0.00000E+00
 -1       627 6.87500E-02 1.32813E-02 0.00000E+00
 -1       628 6.97917E-02 1.36719E-02 0.00000E+00
 -1       629 7.08333E-02 1.40625E-02 0.00000E+00
 -1       630 7.18750E-02 1.44531E-02 0.00000E+00
 -1       631 7.29167E-02 1.48437E-02 0.00000E+00
 -1       632 7.39583E-02 1.52344E-02 0.00000E+00
 -1       633 7.50000E-02 1.56250E-02 0.00000E+00
 -1       634 7.60417E-02 1.60156E-02 0.00000E+00
 -1       635 7.70833E-02 1.64062E-02 0.00000E+00
 -1       636 7.81250E-02 1.67969E-02 0.00000E+00
 -1       637 7.91667E-02 1.71875E-02 0.00000E+00
 -1       638 8.02083E-02 1.75781E-02 0.00000E+00
 -1       639 8.12500E-02 1.79687E-02 0.00000E+00
 -1       640 8.22917E-02 1.83594E-02 0.00000E+00
 -1       641 8.43750E-02 1.25000E-02 0.00000E+00
 -1       642 8.54167E-02 1.25000E-02 0.00000E+00
 -1       643 8.64583E-02 1.25000E-02 0.00000E+00
 -1       644 8.75000E-02 1.25000E-02 0.00000E+00
 -1       645 8.85417E-02 1.25000E-02 0.00000E+00
 -1       646 8.95833E-02 1.25000E-02 0.00000E+00
 -1       647 9.06250E-02 1.25000E-02 0.00000E+00
 -1       648 9.16667E-02 1.25000E-02 0.00000E+00
 -1       649 9.27083E-02 1.25000E-02 0.00000E+00
 -1       650 9.37500E-02 1.25000E-02 0.00000E+00
 -1       651 9.47917E-02 1.25000E-02 0.00000E+00
 -1       652 9.58333E-02 1.25000E-02 0.00000E+00
 -1       653 9.68750E-02 1.25000E-02 0.00000E+00
 -1       654 9.79167E-02 1.25000E-02 0.00000E+00
 -1       655 9.89583E-02 1.25000E-02 0.00000E+00
 -1       656 8.33333E-02 1.35417E-02 0.00000E+00
 -1       657 8.33333E-02 1.45833E-02 0.00000E+00
 -1       658 8.33333E-02 1.56250E-02 0.00000E+00
 -1       659 8.33333E-02 1.66667E-02 0.00000E+00
 -1       660 8.33333E-02 1.77083E-02 0.00000E+00
 -1       661 8.43750E-02 1.28906E-02 0.00000E+00
 -1       662 8.54167E-02 1.32813E-02 0.00000E+00
 -1       663 8.64583E-02 1.36719E-02 0.00000E+00
 -1       664 8.75000E-02 1.40625E-02 0.00000E+00
 -1       665 8.85417E-02 1.44531E-02 0.00000E+00
 -1       666 8.95833E-02 1.48437E-02 0.00000E+00
 -1       667 9.06250E-02 1.52344E-02 0.00000E+00
 -1       668 9.16667E-02 1.56250E-02 0.00000E+00
 -1       669 9.27083E-02 1.60156E-02 0.00000E+00
 -1       670 9.37500E-02 1.64062E-02 0.00000E+00
 -1       671 9.47917E-02 1.67969E-02 0.00000E+00
 -1       672 9.58333E-02 1.71875E-02 0.00000E+00
 -1       673 9.68750E-02 1.75781E-02 0.00000E+00
 -1       674 9.79167E-02 1.79687E-02 0.00000E+00
 -1       675 9.89583E-02 1.83594E-02 0.00000E+00
 -1       676 1.00000E-01 1.35417E-02 0.00000E+00
 -1       677 1.00000E-01 1.45833E-02 0.00000E+00
 -1       678 1.00000E-01 1.56250E-02 0.00000E+00
 -1       679 1.00000E-01 1.66667E-02 0.00000E+00
 -1       680 1.00000E-01 1.77083E-02 0.00000E+00
 -1       681 1.04167E-03 1.87500E-02 0.00000E+00
 -1       682 2.08333E-03 1.87500E-02 0.00000E+00
 -1       683 3.12500E-03 1.87500E-02 0.00000E+00
 -1       684 4.16667E-03 1.87500E-02 0.00000E+00
 -1       685 5.20833E-03 1.87500E-02 0.00000E+00
 -1       686 6.25000E-03 1.87500E-02 0.00000E+00
 -1       687 7.29167E-03 1.87500E-02 0.00000E+00
 -1       688 8.33333E-03 1.87500E-02 0.00000E+00
 -1       689 9.37500E-03 1.87500E-02 0.00000E+00
 -1       690 1.04167E-02 1.87500E-02 0.00000E+00
 -1       691 1.14583E-02 1.87500E-02 0.00000E+00
 -1       692 1.25000E-02 1.87500E-02 0.00000E+00
 -1       693 1.35417E-02 1.87500E-02 0.00000E+00
 -1       694 1.45833E-02 1.87500E-02 0.00000E+00
 -1       695 1.56250E-02 1.87500E-02 0.00000E+00
 -1       696 0.00000E+00 1.97917E-02 0.00000E+00
 -1       697 0.00000E+00 2.08333E-02 0.00000E+00
 -1       698 0.00000E+00 2.18750E-02 0.00000E+00
 -1       699 0.00000E+00 2.29167E-02 0.00000E+00
 -1       700 0.00000E+00 2.39583E-02 0.00000E+00
 -1       701 1.04167E-03 1.91406E-02 0.00000E+00
 -1       702 2.08333E-03 1.95312E-02 0.00000E+00
 -1       703 3.12500E-03 1.99219E-02 0.00000E+00
 -1       704 4.16667E-03 2.03125E-02 0.00000E+00
 -1       705 5.20833E-03 2.07031E-02 0.00000E+00
 -1       706 6.25000E-03 2.10938E-02 0.00000E+00
 -1       707 7.29167E-03 2.14844E-02 0.00000E+00
 -1       708 8.33333E-03 2.18750E-02 0.00000E+00
 -1       709 9.37500E-03 2.22656E-02 0.00000E+00
 -1       710 1.04167E-02 2.26563E-02 0.00000E+00
 -1       711 1.14583E-02 2.30469E-02 0.00000E+00
 -1       712 1.25000E-02 2.34375E-02 0.00000E+00
 -1       713 1.35417E-02 2.38281E-02 0.00000E+00
 -1       714 1.45833E-02 2.42187E-02 0.00000E+00
 -1       715 1.56250E-02 2.46094E-02 0.00000E+00
 -1       716 1.77083E-02 1.87500E-02 0.00000E+00
 -1       717 1.87500E-02 1.87500E-02 0.00000E+00
 -1       718 1.97917E-02 1.87500E-02 0.00000E+00
 -1       719 2.08333E-02 1.87500E-02 0.00000E+00
 -1       720 2.18750E-02 1.87500E-02 0.00000E+00
 -1       721 2.29167E-02 1.87500E-02 0.00000E+00
 -1       722 2.39583E-02 1.87500E-02 0.00000E+00
 -1       723 2.50000E-02 1.87500E-02 0.00000E+00
 -1       724 2.60417E-02 1.87500E-02 0.00000E+00
 -1       725 2.70833E-02 1.87500E-02 0.00000E+00
 -1       726 2.81250E-02 1.87500E-02 0.00000E+00
 -1       727 2.91667E-02 1.87500E-02 0.00000E+00
 -1       728 3.02083E-02 1.87500E-02 0.00000E+00
 -1       729 3.12500E-02 1.87500E-02 0.00000E+00
 -1       730 3.22917E-02 1.87500E-02 0.00000E+00
 -1       731 1.66667E-02 1.97917E-02 0.00000E+00
 -1       732 1.66667E-02 2.08333E-02 0.00000E+00
 -1       733 1.66667E-02 2.18750E-02 0.00000E+00
 -1       734 1.66667E-02 2.29167E-02 0.00000E+00
 -1       735 1.66667E-02 2.39583E-02 0.00000E+00
 -1       736 1.77083E-02 1.91406E-02 0.00000E+00
 -1       737 1.87500E-02 1.95312E-02 0.00000E+00
 -1       738 1.97917E-02 1.99219E-02 0.00000E+00
 -1       739 2.08333E-02 2.03125E-02 0.00000E+00
 -1       740 2.18750E-02 2.07031E-02 0.00000E+00
 -1       741 2.29167E-02 2.10938E-02 0.00000E+00
 -1       742 2.39583E-02 2.14844E-02 0.00000E+00
 -1       743 2.50000E-02 2.18750E-02 0.00000E+00
 -1       744 2.60417E-02 2.22656E-02 0.00000E+00
 -1       745 2.70833E-02 2.26563E-02 0.00000E+00
 -1       746 2.81250E-02 2.30469E-02 0.00000E+00
 -1       747 2.91667E-02 2.34375E-02 0.00000E+00
 -1       748 3.02083E-02 2.38281E-02 0.00000E+00
 -1       749 3.12500E-02 2.42187E-02 0.00000E+00
 -1       750 3.22917E-02 2.46094E-02 0.00000E+00
 -1       751 3.43750E-02 1.87500E-02 0.00000E+00
 -1       752 3.54167E-02 1.87500E-02 0.00000E+00
 -1       753 3.64583E-02 1.87500E-02 0.00000E+00
 -1       754 3.75000E-02 1.87500E-02 0.00000E+00
 -1       755 3.85417E-02 1.87500E-02 0.00000E+00
 -1       756 3.95833E-02 1.87500E-02 0.00000E+00
 -1       757 4.06250E-02 1.87500E-02 0.00000E+00
 -1       758 4.16667E-02 1.87500E-02 0.00000E+00
 -1       759 4.27083E-02 1.87500E-02 0.00000E+00
 -1       760 4.37500E-02 1.87500E-02 0.00000E+00
 -1       761 4.47917E-02 1.87500E-02 0.00000E+00
 -1       762 4.58333E-02 1.87500E-02 0.00000E+00
 -1       763 4.68750E-02 1.87500E-02 0.00000E+00
 -1       764 4.79167E-02 1.87500E-02 0.00000E+00
 -1       765 4.89583E-02 1.87500E-02 0.00000E+00
 -1       766 3.33333E-02 1.97917E-02 0.00000E+00
 -1       767 3.33333E-02 2.08333E-02 0.00000E+00
 -1       768 3.33333E-02 2.18750E-02 0.00000E+00
 -1       769 3.33333E-02 2.29167E-02 0.00000E+00
 -1       770 3.33333E-02 2.39583E-02 0.00000E+00
 -1       771 3.43750E-02 1.91406E-02 0.00000E+00
 -1       772 3.54167E-02 1.95312E-02 0.00000E+00
 -1       773 3.64583E-02 1.99219E-02 0.00000E+00
 -1       774 3.75000E-02 2.03125E-02 0.00000E+00
 -1       775 3.85417E-02 2.07031E-02 0.00000E+00
 -1       776 3.95833E-02 2.10938E-02 0.00000E+00
 -1       777 4.06250E-02 2.14844E-02 0.00000E+00
 -1       778 4.16667E-02 2.18750E-02 0.00000E+00
 -1       779 4.27083E-02 2.22656E-02 0.00000E+00
 -1       780 4.37500E-02 2.26563E-02 0.00000E+00
 -1       781 4.47917E-02 2.30469E-02 0.00000E+00
 -1       782 4.58333E-02 2.34375E-02 0.00000E+00
 -1       783 4.68750E-02 2.38281E-02 0.00000E+00
 -1       784 4.79167E-02 2.42187E-02 0.00000E+00
 -1       785 4.89583E-02 2.46094E-02 0.00000E+00
 -1       786 5.10417E-02 1.87500E-02 0.00000E+00
 -1       787 5.20833E-02 1.87500E-02 0.00000E+00
 -1       788 5.31250E-02 1.87500E-02 0.00000E+00
 -1       789 5.41667E-02 1.87500E-02 0.00000E+00
 -1       790 5.52083E-02 1.87500E-02 0.00000E+00
 -1       791 5.62500E-02 1.87500E-02 0.00000E+00
 -1       792 5.72917E-02 1.87500E-02 0.00000E+00
 -1       793 5.83333E-02 1.87500E-02 0.00000E+00
 -1       794 5.93750E-02 1.87500E-02 0.00000E+00
 -1       795 6.04167E-02 1.87500E-02 0.00000E+00
 -1       796 6.14583E-02 1.87500E-02 0.00000E+00
 -1       797 6.25000E-02 1.87500E-02 0.00000E+00
 -1       798 6.35417E-02 1.87500E-02 0.00000E+00
 -1       799 6.45833E-02 1.87500E-02 0.00000E+00
 -1       800 6.56250E-02 1.87500E-02 0.00000E+00
 -1       801 5.00000E-02 1.97917E-02 0.00000E+00
 -1       802 5.00000E-02 2.08333E-02 0.00000E+00
 -1       803 5.00000E-02 2.18750E-02 0.00000E+00
 -1       804 5.00000E-02 2.29167E-02 0.00000E+00
 -1       805 5.00000E-02 2.39583E-02 0.00000E+00
 -1       806 5.10417E-02 1.91406E-02 0.00000E+00
 -1       807 5.20833E-02 1.95312E-02 0.00000E+00
 -1       808 5.31250E-02 1.99219E-02 0.00000E+00
 -1       809 5.41667E-02 2.03125E-02 0.00000E+00
 -1       810 5.52083E-02 2.07031E-02 0.00000E+00
 -1       811 5.62500E-02 2.10938E-02 0.00000E+00
 -1       812 5.72917E-02 2.14844E-02 0.00000E+00
 -1       813 5.83333E-02 2.18750E-02 0.00000E+00
 -1       814 5.93750E-02 2.22656E-02 0.00000E+00
 -1       815 6.04167E-02 2.26563E-02 0.00000E+00
 -1       816 6.14583E-02 2.30469E-02 0.00000E+00
 -1       817 6.25000E-02 2.34375E-02 0.00000E+00
 -1       818 6.35417E-02 2.38281E-02 0.00000E+00
 -1       819 6.45833E-02 2.42187E-02 0.00000E+00
 -1       820 6.56250E-02 2.46094E-02 0.00000E+00
 -1       821 6.77083E-02 1.87500E-02 0.00000E+00
 -1       822 6.87500E-02 1.87500E-02 0.00000E+00
 -1       823 6.97917E-02 1.87500E-02 0.00000E+00
 -1       824 7.08333E-02 1.87500E-02 0.00000E+00
 -1       825 7.18750E-02 1.87500E-02 0.00000E+00
 -1       826 7.29167E-02 1.87500E-02 0.00000E+00
 -1       827 7.39583E-02 1.87500E-02 0.00000E+00
 -1       828 7.50000E-02 1.87500E-02 0.00000E+00
 -1       829 7.60417E-02 1.87500E-02 0.00000E+00
 -1       830 7.70833E-02 1.87500E-02 0.00000E+00
 -1       831 7.81250E-02 1.87500E-02 0.00000E+00
 -1       832 7.91667E-02 1.87500E-02 0.00000E+00
 -1       833 8.02083E-02 1.87500E-02 0.00000E+00
 -1       834 8.12500E-02 1.87500E-02 0.00000E+00
 -1       835 8.22917E-02 1.87500E-02 0.00000E+00
 -1       836 6.66667E-02 1.97917E-02 0.00000E+00
 -1       837 6.66667E-02 2.08333E-02 0.00000E+00
 -1       838 6.66667E-02 2.18750E-02 0.00000E+00
 -1       839 6.66667E-02 2.29167E-02 0.00000E+00
 -1       840 6.66667E-02 2.39583E-02 0.00000E+00
 -1       841 6.77083E-02 1.91406E-02 0.00000E+00
 -1       842 6.87500E-02 1.95312E-02 0.00000E+00
 -1       843 6.97917E-02 1.99219E-02 0.00000E+00
 -1       844 7.08333E-02 2.03125E-02 0.00000E+00
 -1       845 7.18750E-02 2.07031E-02 0.00000E+00
 -1       846 7.29167E-02 2.10938E-02 0.00000E+00
 -1       847 7.39583E-02 2.14844E-02 0.00000E+00
 -1       848 7.50000E-02 2.18750E-02 0.00000E+00
 -1       849 7.60417E-02 2.22656E-02 0.00000E+00
 -1       850 7.70833E-02 2.26563E-02 0.00000E+00
 -1       851 7.81250E-02 2.30469E-02 0.00000E+00
 -1       852 7.91667E-02 2.34375E-02 0.00000E+00
 -1       853 8.02083E-02 2.38281E-02 0.00000E+00
 -1       854 8.12500E-02 2.42187E-02 0.00000E+00
 -1       855 8.22917E-02 2.46094E-02 0.00000E+00
 -1       856 8.43750E-02 1.87500E-02 0.00000E+00
 -1       857 8.54167E-02 1.87500E-02 0.00000E+00
 -1       858 8.64583E-02 1.87500E-02 0.00000E+00
 -1       859 8.75000E-02 1.87500E-02 0.00000E+00
 -1       860 8.85417E-02 1.87500E-02 0.00000E+00
 -1       861 8.95833E-02 1.87500E-02 0.00000E+00
 -1       862 9.06250E-02 1.87500E-02 0.00000E+00
 -1       863 9.16667E-02 1.87500E-02 0.00000E+00
 -1       864 9.27083E-02 1.87500E-02 0.00000E+00
 -1       865 9.37500E-02 1.87500E-02 0.00000E+00
 -1       866 9.47917E-02 1.87500E-02 0.00000E+00
 -1       867 9.58333E-02 1.87500E-02 0.00000E+00
 -1       868 9.68750E-02 1.87500E-02 0.00000E+00
 -1       869 9.79167E-02 1.87500E-02 0.00000E+00
 -1       870 9.89583E-02 1.87500E-02 0.00000E+00
 -1       871 8.33333E-02 1.97917E-02 0.00000E+00
 -1       872 8.33333E-02 2.08333E-02 0.00000E+00
 -1       873 8.33333E-02 2.18750E-02 0.00000E+00
 -1       874 8.33333E-02 2.29167E-02 0.00000E+00
 -1       875 8.33333E-02 2.39583E-02 0.00000E+00
 -1       876 8.43750E-02 1.91406E-02 0.00000E+00
 -1       877 8.54167E-02 1.95312E-02 0.00000E+00
 -1       878 8.64583E-02 1.99219E-02 0.00000E+00
 -1       879 8.75000E-02 2.03125E-02 0.00000E+00
 -1       880 8.85417E-02 2.07031E-02 0.00000E+00
 -1       881 8.95833E-02 2.10938E-02 0.00000E+00
 -1       882 9.06250E-02 2.14844E-02 0.00000E+00
 -1       883 9.16667E-02 2.18750E-02 0.00000E+00
 -1       884 9.27083E-02 2.22656E-02 0.00000E+00
 -1       885 9.37500E-02 2.26563E-02 0.00000E+00
 -1       886 9.47917E-02 2.30469E-02 0.00000E+00
 -1       887 9.58333E-02 2.34375E-02 0.00000E+00
 -1       888 9.68750E-02 2.38281E-02 0.00000E+00
 -1       889 9.79167E-02 2.42187E-02 0.00000E+00
 -1       890 9.89583E-02 2.46094E-02 0.00000E+00
 -1       891 1.00000E-01 1.97917E-02 0.00000E+00
 -1       892 1.00000E-01 2.08333E-02 0.00000E+00
 -1       893 1.00000E-01 2.18750E-02 0.00000E+00
 -1       894 1.00000E-01 2.29167E-02 0.00000E+00
 -1       895 1.00000E-01 2.39583E-02 0.00000E+00
 -1       896 1.04167E-03 2.50000E-02 0.00000E+00
 -1       897 2.08333E-03 2.50000E-02 0.00000E+00
 -1       898 3.12500E-03 2.50000E-02 0.00000E+00
 -1       899 4.16667E-03 2.50000E-02 0.00000E+00
 -1       900 5.20833E-03 2.50000E-02 0.00000E+00
 -1       901 6.25000E-03 2.50000E-02 0.00000E+00
 -1       902 7.29167E-03 2.50000E-02 0.00000E+00
 -1       903 8.33333E-03 2.50000E-02 0.00000E+00
 -1       904 9.37500E-03 2.50000E-02 0.00000E+00
 -1       905 1.04167E-02 2.50000E-02 0.00000E+00
 -1       906 1.14583E-02 2.50000E-02 0.00000E+00
 -1       907 1.25000E-02 2.50000E-02 0.00000E+00
 -1       908 1.35417E-02 2.50000E-02 0.00000E+00
 -1       909 1.45833E-02 2.50000E-02 0.00000E+00
 -1       910 1.56250E-02 2.50000E-02 0.00000E+00
 -1       911 1.77083E-02 2.50000E-02 0.00000E+00
 -1       912 1.87500E-02 2.50000E-02 0.00000E+00
 -1       913 1.97917E-02 2.50000E-02 0.00000E+00
 -1       914 2.08333E-02 2.50000E-02 0.00000E+00
 -1       915 2.18750E-02 2.50000E-02 0.00000E+00
 -1       916 2.29167E-02 2.50000E-02 0.00000E+00
 -1       917 2.39583E-02 2.50000E-02 0.00000E+00
 -1       918 2.50000E-02 2.50000E-02 0.00000E+00
 -1       919 2.60417E-02 2.50000E-02 0.00000E+00
 -1       920 2.70833E-02 2.50000E-02 0.00000E+00
 -1       921 2.81250E-02 2.50000E-02 0.00000E+00
 -1       922 2.91667E-02 2.50000E-02 0.00000E+00
 -1       923 3.02083E-02 2.50000E-02 0.00000E+00
 -1       924 3.12500E-02 2.50000E-02 0.00000E+00
 -1       925 3.22917E-02 2.50000E-02 0.00000E+00
 -1       926 3.43750E-02 2.50000E-02 0.00000E+00
 -1       927 3.54167E-02 2.50000E-02 0.00000E+00
 -1       928 3.64583E-02 2.50000E-02 0.00000E+00
 -1       929 3.75000E-02 2.50000E-02 0.00000E+00
 -1       930 3.85417E-02 2.50000E-02 0.00000E+00
 -1       931 3.95833E-02 2.50000E-02 0.00000E+00
 -1       932 4.06250E-02 2.50000E-02 0.00000E+00
 -1       933 4.16667E-02 2.50000E-02 0.00000E+00
 -1       934 4.27083E-02 2.50000E-02 0.00000E+00
 -1       935 4.37500E-02 2.50000E-02 0.00000E+00
 -1       936 4.47917E-02 2.50000E-02 0.00000E+00
 -1       937 4.58333E-02 2.50000E-02 0.00000E+00
 -1       938 4.68750E-02 2.50000E-02 0.00000E+00
 -1       939 4.79167E-02 2.50000E-02 0.00000E+00
 -1       940 4.89583E-02 2.50000E-02 0.00000E+00
 -1       941 5.10417E-02 2.50000E-02 0.00000E+00
 -1       942 5.20833E-02 2.50000E-02 0.00000E+00
 -1       943 5.31250E-02 2.50000E-02 0.00000E+00
 -1       944 5.41667E-02 2.50000E-02 0.00000E+00
 -1       945 5.52083E-02 2.50000E-02 0.00000E+00
 -1       946 5.62500E-02 2.50000E-02 0.00000E+00
 -1       947 5.72917E-02 2.50000E-02 0.00000E+00
 -1       948 5.83333E-02 2.50000E-02 0.00000E+00
 -1       949 5.93750E-02 2.50000E-02 0.00000E+00
 -1       950 6.04167E-02 2.50000E-02 0.00000E+00
 -1       951 6.14583E-02 2.50000E-02 0.00000E+00
 -1       952 6.25000E-02 2.50000E-02 0.00000E+00
 -1       953 6.35417E-02 2.50000E-02 0.00000E+00
 -1       954 6.45833E-02 2.50000E-02 0.00000E+00
 -1       955 6.56250E-02 2.50000E-02 0.00000E+00
 -1       956 6.77083E-02 2.50000E-02 0.00000E+00
 -1       957 6.87500E-02 2.50000E-02 0.00000E+00
 -1       958 6.97917E-02 2.50000E-02 0.00000E+00
 -1       959 7.08333E-02 2.50000E-02 0.00000E+00
 -1       960 7.18750E-02 2.50000E-02 0.00000E+00
 -1       961 7.29167E-02 2.50000E-02 0.00000E+00
 -1       962 7.39583E-02 2.50000E-02 0.00000E+00
 -1       963 7.50000E-02 2.50000E-02 0.00000E+00
 -1       964 7.60417E-02 2.50000E-02 0.00000E+00
 -1       965 7.70833E-02 2.50000E-02 0.00000E+00
 -1       966 7.81250E-02 2.50000E-02 0.00000E+00
 -1       967 7.91667E-02 2.50000E-02 0.00000E+00
 -1       968 8.02083E-02 2.50000E-02 0.00000E+00
 -1       969 8.12500E-02 2.50000E-02 0.00000E+00
 -1       970 8.22917E-02 2.50000E-02 0.00000E+00
 -1       971 8.43750E-02 2.50000E-02 0.00000E+00
 -1       972 8.54167E-02 2.50000E-02 0.00000E+00
 -1       973 8.64583E-02 2.50000E-02 0.00000E+00
 -1       974 8.75000E-02 2.50000E-02 0.00000E+00
 -1       975 8.85417E-02 2.50000E-02 0.00000E+00
 -1       976 8.95833E-02 2.50000E-02 0.00000E+00
 -1       977 9.06250E-02 2.50000E-02 0.00000E+00
 -1       978 9.16667E-02 2.50000E-02 0.00000E+00
 -1       979 9.27083E-02 2.50000E-02 0.00000E+00
 -1       980 9.37500E-02 2.50000E-02 0.00000E+00
 -1       981 9.47917E-02 2.50000E-02 0.00000E+00
 -1       982 9.58333E-02 2.50000E-02 0.00000E+00
 -1       983 9.68750E-02 2.50000E-02 0.00000E+00
 -1       984 9.79167E-02 2.50000E-02 0.00000E+00
 -1       985 9.89583E-02 2.50000E-02 0.00000E+00
 -3
    3C                           440                                     1
 -1         1   12    0    1
 -2         1        37        36
 -1         2   12    0    1
 -2        37        39        38
 -1         3   12    0    1
 -2        39        41        40
 -1         4   12    0    1
 -2        41        43        42
 -1         5   12    0    1
 -2        43        45        44
 -1         6   12    0    1
 -2        45        47        46
 -1         7   12    0    1
 -2        47        49        48
 -1         8   12    0    1
 -2        49         2        50
 -1         9   12    0    1
 -2         1        52        51
 -1        10   12    0    1
 -2        52        54        53
 -1        11   12    0    1
 -2        54         8        55
 -1        12   12    0    1
 -2         1        57        56
 -1        13   12    0    1
 -2        57        59        58
 -1        14   12    0    1
 -2        59        61        60
 -1        15   12    0    1
 -2        61        63        62
 -1        16   12    0    1
 -2        63        65        64
 -1        17   12    0    1
 -2        65        67        66
 -1        18   12    0    1
 -2        67        69        68
 -1        19   12    0    1
 -2        69         9        70
 -1        20   12    0    1
 -2         2        72        71
 -1        21   12    0    1
 -2        72        74        73
 -1        22   12    0    1
 -2        74        76        75
 -1        23   12    0    1
 -2        76        78        77
 -1        24   12    0    1
 -2        78        80        79
 -1        25   12    0    1
 -2        80        82        81
 -1        26   12    0    1
 -2        82        84        83
 -1        27   12    0    1
 -2        84         3        85
 -1        28   12    0    1
 -2         2        87        86
 -1        29   12    0    1
 -2        87        89        88
 -1        30   12    0    1
 -2        89         9        90
 -1        31   12    0    1
 -2         2        92        91
 -1        32   12    0    1
 -2        92        94        93
 -1        33   12    0    1
 -2        94        96        95
 -1        34   12    0    1
 -2        96        98        97
 -1        35   12    0    1
 -2        98       100        99
 -1        36   12    0    1
 -2       100       102       101
 -1        37   12    0    1
 -2       102       104       103
 -1        38   12    0    1
 -2       104        10       105
 -1        39   12    0    1
 -2         3       107       106
 -1        40   12    0    1
 -2       107       109       108
 -1        41   12    0    1
 -2       109       111       110
 -1        42   12    0    1
 -2       111       113       112
 -1        43   12    0    1
 -2       113       115       114
 -1        44   12    0    1
 -2       115       117       116
 -1        45   12    0    1
 -2       117       119       118
 -1        46   12    0    1
 -2       119         4       120
 -1        47   12    0    1
 -2         3       122       121
 -1        48   12    0    1
 -2       122       124       123
 -1        49   12    0    1
 -2       124        10       125
 -1        50   12    0    1
 -2         3       127       126
 -1        51   12    0    1
 -2       127       129       128
 -1        52   12    0    1
 -2       129       131       130
 -1        53   12    0    1
 -2       131       133       132
 -1        54   12    0    1
 -2       133       135       134
 -1        55   12    0    1
 -2       135       137       136
 -1        56   12    0    1
 -2       137       139       138
 -1        57   12    0    1
 -2       139        11       140
 -1        58   12    0    1
 -2         4       142       141
 -1        59   12    0    1
 -2       142       144       143
 -1        60   12    0    1
 -2       144       146       145
 -1        61   12    0    1
 -2       146       148       147
 -1        62   12    0    1
 -2       148       150       149
 -1        63   12    0    1
 -2       150       152       151
 -1        64   12    0    1
 -2       152       154       153
 -1        65   12    0    1
 -2       154         5       155
 -1        66   12    0    1
 -2         4       157       156
 -1        67   12    0    1
 -2       157       159       158
 -1        68   12    0    1
 -2       159        11       160
 -1        69   12    0    1
 -2         4       162       161
 -1        70   12    0    1
 -2       162       164       163
 -1        71   12    0    1
 -2       164       166       165
 -1        72   12    0    1
 -2       166       168       167
 -1        73   12    0    1
 -2       168       170       169
 -1        74   12    0    1
 -2       170       172       171
 -1        75   12    0    1
 -2       172       174       173
 -1        76   12    0    1
 -2       174        12       175
 -1        77   12    0    1
 -2         5       192       191
 -1        78   12    0    1
 -2       192       194       193
 -1        79   12    0    1
 -2       194        12       195
 -1        80   12    0    1
 -2         8       252       251
 -1        81   12    0    1
 -2       252       254       253
 -1        82   12    0    1
 -2       254       256       255
 -1        83   12    0    1
 -2       256       258       257
 -1        84   12    0    1
 -2       258       260       259
 -1        85   12    0    1
 -2       260       262       261
 -1        86   12    0    1
 -2       262       264       263
 -1        87   12    0    1
 -2       264         9       265
 -1        88   12    0    1
 -2         8       267       266
 -1        89   12    0    1
 -2       267       269       268
 -1        90   12    0    1
 -2       269        15       270
 -1        91   12    0    1
 -2         8       272       271
 -1        92   12    0    1
 -2       272       274       273
 -1        93   12    0    1
 -2       274       276       275
 -1        94   12    0    1
 -2       276       278       277
 -1        95   12    0    1
 -2       278       280       279
 -1        96   12    0    1
 -2       280       282       281
 -1        97   12    0    1
 -2       282       284       283
 -1        98   12    0    1
 -2       284        16       285
 -1        99   12    0    1
 -2         9       287       286
 -1       100   12    0    1
 -2       287       289       288
 -1       101   12    0    1
 -2       289       291       290
 -1       102   12    0    1
 -2       291       293       292
 -1       103   12    0    1
 -2       293       295       294
 -1       104   12    0    1
 -2       295       297       296
 -1       105   12    0    1
 -2       297       299       298
 -1       106   12    0    1
 -2       299        10       300
 -1       107   12    0    1
 -2         9       302       301
 -1       108   12    0    1
 -2       302       304       303
 -1       109   12    0    1
 -2       304        16       305
 -1       110   12    0    1
 -2         9       307       306
 -1       111   12    0    1
 -2       307       309       308
 -1       112   12    0    1
 -2       309       311       310
 -1       113   12    0    1
 -2       311       313       312
 -1       114   12    0    1
 -2       313       315       314
 -1       115   12    0    1
 -2       315       317       316
 -1       116   12    0    1
 -2       317       319       318
 -1       117   12    0    1
 -2       319        17       320
 -1       118   12    0    1
 -2        10       322       321
 -1       119   12    0    1
 -2       322       324       323
 -1       120   12    0    1
 -2       324       326       325
 -1       121   12    0    1
 -2       326       328       327
 -1       122   12    0    1
 -2       328       330       329
 -1       123   12    0    1
 -2       330       332       331
 -1       124   12    0    1
 -2       332       334       333
 -1       125   12    0    1
 -2       334        11       335
 -1       126   12    0    1
 -2        10       337       336
 -1       127   12    0    1
 -2       337       339       338
 -1       128   12    0    1
 -2       339        17       340
 -1       129   12    0    1
 -2        10       342       341
 -1       130   12    0    1
 -2       342       344       343
 -1       131   12    0    1
 -2       344       346       345
 -1       132   12    0    1
 -2       346       348       347
 -1       133   12    0    1
 -2       348       350       349
 -1       134   12    0    1
 -2       350       352       351
 -1       135   12    0    1
 -2       352       354       353
 -1       136   12    0    1
 -2       354        18       355
 -1       137   12    0    1
 -2        11       357       356
 -1       138   12    0    1
 -2       357       359       358
 -1       139   12    0    1
 -2       359       361       360
 -1       140   12    0    1
 -2       361       363       362
 -1       141   12    0    1
 -2       363       365       364
 -1       142   12    0    1
 -2       365       367       366
 -1       143   12    0    1
 -2       367       369       368
 -1       144   12    0    1
 -2       369        12       370
 -1       145   12    0    1
 -2        11       372       371
 -1       146   12    0    1
 -2       372       374       373
 -1       147   12    0    1
 -2       374        18       375
 -1       148   12    0    1
 -2        11       377       376
 -1       149   12    0    1
 -2       377       379       378
 -1       150   12    0    1
 -2       379       381       380
 -1       151   12    0    1
 -2       381       383       382
 -1       152   12    0    1
 -2       383       385       384
 -1       153   12    0    1
 -2       385       387       386
 -1       154   12    0    1
 -2       387       389       388
 -1       155   12    0    1
 -2       389        19       390
 -1       156   12    0    1
 -2        12       407       406
 -1       157   12    0    1
 -2       407       409       408
 -1       158   12    0    1
 -2       409        19       410
 -1       159   12    0    1
 -2        15       467       466
 -1       160   12    0    1
 -2       467       469       468
 -1       161   12    0    1
 -2       469       471       470
 -1       162   12    0    1
 -2       471       473       472
 -1       163   12    0    1
 -2       473       475       474
 -1       164   12    0    1
 -2       475       477       476
 -1       165   12    0    1
 -2       477       479       478
 -1       166   12    0    1
 -2       479        16       480
 -1       167   12    0    1
 -2        15       482       481
 -1       168   12    0    1
 -2       482       484       483
 -1       169   12    0    1
 -2       484        22       485
 -1       170   12    0    1
 -2        15       487       486
 -1       171   12    0    1
 -2       487       489       488
 -1       172   12    0    1
 -2       489       491       490
 -1       173   12    0    1
 -2       491       493       492
 -1       174   12    0    1
 -2       493       495       494
 -1       175   12    0    1
 -2       495       497       496
 -1       176   12    0    1
 -2       497       499       498
 -1       177   12    0    1
 -2       499        23       500
 -1       178   12    0    1
 -2        16       502       501
 -1       179   12    0    1
 -2       502       504       503
 -1       180   12    0    1
 -2       504       506       505
 -1       181   12    0    1
 -2       506       508       507
 -1       182   12    0    1
 -2       508       510       509
 -1       183   12    0    1
 -2       510       512       511
 -1       184   12    0    1
 -2       512       514       513
 -1       185   12    0    1
 -2       514        17       515
 -1       186   12    0    1
 -2        16       517       516
 -1       187   12    0    1
 -2       517       519       518
 -1       188   12    0    1
 -2       519        23       520
 -1       189   12    0    1
 -2        16       522       521
 -1       190   12    0    1
 -2       522       524       523
 -1       191   12    0    1
 -2       524       526       525
 -1       192   12    0    1
 -2       526       528       527
 -1       193   12    0    1
 -2       528       530       529
 -1       194   12    0    1
 -2       530       532       531
 -1       195   12    0    1
 -2       532       534       533
 -1       196   12    0    1
 -2       534        24       535
 -1       197   12    0    1
 -2        17       537       536
 -1       198   12    0    1
 -2       537       539       538
 -1       199   12    0    1
 -2       539       541       540
 -1       200   12    0    1
 -2       541       543       542
 -1       201   12    0    1
 -2       543       545       544
 -1       202   12    0    1
 -2       545       547       546
 -1       203   12    0    1
 -2       547       549       548
 -1       204   12    0    1
 -2       549        18       550
 -1       205   12    0    1
 -2        17       552       551
 -1       206   12    0    1
 -2       552       554       553
 -1       207   12    0    1
 -2       554        24       555
 -1       208   12    0    1
 -2        17       557       556
 -1       209   12    0    1
 -2       557       559       558
 -1       210   12    0    1
 -2       559       561       560
 -1       211   12    0    1
 -2       561       563       562
 -1       212   12    0    1
 -2       563       565       564
 -1       213   12    0    1
 -2       565       567       566
 -1       214   12    0    1
 -2       567       569       568
 -1       215   12    0    1
 -2       569        25       570
 -1       216   12    0    1
 -2        18       572       571
 -1       217   12    0    1
 -2       572       574       573
 -1       218   12    0    1
 -2       574       576       575
 -1       219   12    0    1
 -2       576       578       577
 -1       220   12    0    1
 -2       578       580       579
 -1       221   12    0    1
 -2       580       582       581
 -1       222   12    0    1
 -2       582       584       583
 -1       223   12    0    1
 -2       584        19       585
 -1       224   12    0    1
 -2        18       587       586
 -1       225   12    0    1
 -2       587       589       588
 -1       226   12    0    1
 -2       589        25       590
 -1       227   12    0    1
 -2        18       592       591
 -1       228   12    0    1
 -2       592       594       593
 -1       229   12    0    1
 -2       594       596       595
 -1       230   12    0    1
 -2       596       598       597
 -1       231   12    0    1
 -2       598       600       599
 -1       232   12    0    1
 -2       600       602       601
 -1       233   12    0    1
 -2       602       604       603
 -1       234   12    0    1
 -2       604        26       605
 -1       235   12    0    1
 -2        19       607       606
 -1       236   12    0    1
 -2       607       609       608
 -1       237   12    0    1
 -2       609       611       610
 -1       238   12    0    1
 -2       611       613       612
 -1       239   12    0    1
 -2       613       615       614
 -1       240   12    0    1
 -2       615       617       616
 -1       241   12    0    1
 -2       617       619       618
 -1       242   12    0    1
 -2       619        20       620
 -1       243   12    0    1
 -2        19       622       621
 -1       244   12    0    1
 -2       622       624       623
 -1       245   12    0    1
 -2       624        26       625
 -1       246   12    0    1
 -2        19       627       626
 -1       247   12    0    1
 -2       627       629       628
 -1       248   12    0    1
 -2       629       631       630
 -1       249   12    0    1
 -2       631       633       632
 -1       250   12    0    1
 -2       633       635       634
 -1       251   12    0    1
 -2       635       637       636
 -1       252   12    0    1
 -2       637       639       638
 -1       253   12    0    1
 -2       639        27       640
 -1       254   12    0    1
 -2        20       642       641
 -1       255   12    0    1
 -2       642       644       643
 -1       256   12    0    1
 -2       644       646       645
 -1       257   12    0    1
 -2       646       648       647
 -1       258   12    0    1
 -2       648       650       649
 -1       259   12    0    1
 -2       650       652       651
 -1       260   12    0    1
 -2       652       654       653
 -1       261   12    0    1
 -2       654        21       655
 -1       262   12    0    1
 -2        20       657       656
 -1       263   12    0    1
 -2       657       659       658
 -1       264   12    0    1
 -2       659        27       660
 -1       265   12    0    1
 -2        20       662       661
 -1       266   12    0    1
 -2       662       664       663
 -1       267   12    0    1
 -2       664       666       665
 -1       268   12    0    1
 -2       666       668       667
 -1       269   12    0    1
 -2       668       670       669
 -1       270   12    0    1
 -2       670       672       671
 -1       271   12    0    1
 -2       672       674       673
 -1       272   12    0    1
 -2       674        28       675
 -1       273   12    0    1
 -2        21       677       676
 -1       274   12    0    1
 -2       677       679       678
 -1       275   12    0    1
 -2       679        28       680
 -1       276   12    0    1
 -2        22       682       681
 -1       277   12    0    1
 -2       682       684       683
 -1       278   12    0    1
 -2       684       686       685
 -1       279   12    0    1
 -2       686       688       687
 -1       280   12    0    1
 -2       688       690       689
 -1       281   12    0    1
 -2       690       692       691
 -1       282   12    0    1
 -2       692       694       693
 -1       283   12    0    1
 -2       694        23       695
 -1       284   12    0    1
 -2        22       697       696
 -1       285   12    0    1
 -2       697       699       698
 -1       286   12    0    1
 -2       699        29       700
 -1       287   12    0    1
 -2        22       702       701
 -1       288   12    0    1
 -2       702       704       703
 -1       289   12    0    1
 -2       704       706       705
 -1       290   12    0    1
 -2       706       708       707
 -1       291   12    0    1
 -2       708       710       709
 -1       292   12    0    1
 -2       710       712       711
 -1       293   12    0    1
 -2       712       714       713
 -1       294   12    0    1
 -2       714        30       715
 -1       295   12    0    1
 -2        23       717       716
 -1       296   12    0    1
 -2       717       719       718
 -1       297   12    0    1
 -2       719       721       720
 -1       298   12    0    1
 -2       721       723       722
 -1       299   12    0    1
 -2       723       725       724
 -1       300   12    0    1
 -2       725       727       726
 -1       301   12    0    1
 -2       727       729       728
 -1       302   12    0    1
 -2       729        24       730
 -1       303   12    0    1
 -2        23       732       731
 -1       304   12    0    1
 -2       732       734       733
 -1       305   12    0    1
 -2       734        30       735
 -1       306   12    0    1
 -2        23       737       736
 -1       307   12    0    1
 -2       737       739       738
 -1       308   12    0    1
 -2       739       741       740
 -1       309   12    0    1
 -2       741       743       742
 -1       310   12    0    1
 -2       743       745       744
 -1       311   12    0    1
 -2       745       747       746
 -1       312   12    0    1
 -2       747       749       748
 -1       313   12    0    1
 -2       749        31       750
 -1       314   12    0    1
 -2        24       752       751
 -1       315   12    0    1
 -2       752       754       753
 -1       316   12    0    1
 -2       754       756       755
 -1       317   12    0    1
 -2       756       758       757
 -1       318   12    0    1
 -2       758       760       759
 -1       319   12    0    1
 -2       760       762       761
 -1       320   12    0    1
 -2       762       764       763
 -1       321   12    0    1
 -2       764        25       765
 -1       322   12    0    1
 -2        24       767       766
 -1       323   12    0    1
 -2       767       769       768
 -1       324   12    0    1
 -2       769        31       770
 -1       325   12    0    1
 -2        24       772       771
 -1       326   12    0    1
 -2       772       774       773
 -1       327   12    0    1
 -2       774       776       775
 -1       328   12    0    1
 -2       776       778       777
 -1       329   12    0    1
 -2       778       780       779
 -1       330   12    0    1
 -2       780       782       781
 -1       331   12    0    1
 -2       782       784       783
 -1       332   12    0    1
 -2       784        32       785
 -1       333   12    0    1
 -2        25       787       786
 -1       334   12    0    1
 -2       787       789       788
 -1       335   12    0    1
 -2       789       791       790
 -1       336   12    0    1
 -2       791       793       792
 -1       337   12    0    1
 -2       793       795       794
 -1       338   12    0    1
 -2       795       797       796
 -1       339   12    0    1
 -2       797       799       798
 -1       340   12    0    1
 -2       799        26       800
 -1       341   12    0    1
 -2        25       802       801
 -1       342   12    0    1
 -2       802       804       803
 -1       343   12    0    1
 -2       804        32       805
 -1       344   12    0    1
 -2        25       807       806
 -1       345   12    0    1
 -2       807       809       808
 -1       346   12    0    1
 -2       809       811       810
 -1       347   12    0    1
 -2       811       813       812
 -1       348   12    0    1
 -2       813       815       814
 -1       349   12    0    1
 -2       815       817       816
 -1       350   12    0    1
 -2       817       819       818
 -1       351   12    0    1
 -2       819        33       820
 -1       352   12    0    1
 -2        26       822       821
 -1       353   12    0    1
 -2       822       824       823
 -1       354   12    0    1
 -2       824       826       825
 -1       355   12    0    1
 -2       826       828       827
 -1       356   12    0    1
 -2       828       830       829
 -1       357   12    0    1
 -2       830       832       831
 -1       358   12    0    1
 -2       832       834       833
 -1       359   12    0    1
 -2       834        27       835
 -1       360   12    0    1
 -2        26       837       836
 -1       361   12    0    1
 -2       837       839       838
 -1       362   12    0    1
 -2       839        33       840
 -1       363   12    0    1
 -2        26       842       841
 -1       364   12    0    1
 -2       842       844       843
 -1       365   12    0    1
 -2       844       846       845
 -1       366   12    0    1
 -2       846       848       847
 -1       367   12    0    1
 -2       848       850       849
 -1       368   12    0    1
 -2       850       852       851
 -1       369   12    0    1
 -2       852       854       853
 -1       370   12    0    1
 -2       854        34       855
 -1       371   12    0    1
 -2        27       857       856
 -1       372   12    0    1
 -2       857       859       858
 -1       373   12    0    1
 -2       859       861       860
 -1       374   12    0    1
 -2       861       863       862
 -1       375   12    0    1
 -2       863       865       864
 -1       376   12    0    1
 -2       865       867       866
 -1       377   12    0    1
 -2       867       869       868
 -1       378   12    0    1
 -2       869        28       870
 -1       379   12    0    1
 -2        27       872       871
 -1       380   12    0    1
 -2       872       874       873
 -1       381   12    0    1
 -2       874        34       875
 -1       382   12    0    1
 -2        27       877       876
 -1       383   12    0    1
 -2       877       879       878
 -1       384   12    0    1
 -2       879       881       880
 -1       385   12    0    1
 -2       881       883       882
 -1       386   12    0    1
 -2       883       885       884
 -1       387   12    0    1
 -2       885       887       886
 -1       388   12    0    1
 -2       887       889       888
 -1       389   12    0    1
 -2       889        35       890
 -1       390   12    0    1
 -2        28       892       891
 -1       391   12    0    1
 -2       892       894       893
 -1       392   12    0    1
 -2       894        35       895
 -1       393   12    0    1
 -2        29       897       896
 -1       394   12    0    1
 -2       897       899       898
 -1       395   12    0    1
 -2       899       901       900
 -1       396   12    0    1
 -2       901       903       902
 -1       397   12    0    1
 -2       903       905       904
 -1       398   12    0    1
 -2       905       907       906
 -1       399   12    0    1
 -2       907       909       908
 -1       400   12    0    1
 -2       909        30       910
 -1       401   12    0    1
 -2        30       912       911
 -1       402   12    0    1
 -2       912       914       913
 -1       403   12    0    1
 -2       914       916       915
 -1       404   12    0    1
 -2       916       918       917
 -1       405   12    0    1
 -2       918       920       919
 -1       406   12    0    1
 -2       920       922       921
 -1       407   12    0    1
 -2       922       924       923
 -1       408   12    0    1
 -2       924        31       925
 -1       409   12    0    1
 -2        31       927       926
 -1       410   12    0    1
 -2       927       929       928
 -1       411   12    0    1
 -2       929       931       930
 -1       412   12    0    1
 -2       931       933       932
 -1       413   12    0    1
 -2       933       935       934
 -1       414   12    0    1
 -2       935       937       936
 -1       415   12    0    1
 -2       937       939       938
 -1       416   12    0    1
 -2       939        32       940
 -1       417   12    0    1
 -2        32       942       941
 -1       418   12    0    1
 -2       942       944       943
 -1       419   12    0    1
 -2       944       946       945
 -1       420   12    0    1
 -2       946       948       947
 -1       421   12    0    1
 -2       948       950       949
 -1       422   12    0    1
 -2       950       952       951
 -1       423   12    0    1
 -2       952       954       953
 -1       424   12    0    1
 -2       954        33       955
 -1       425   12    0    1
 -2        33       957       956
 -1       426   12    0    1
 -2       957       959       958
 -1       427   12    0    1
 -2       959       961       960
 -1       428   12    0    1
 -2       961       963       962
 -1       429   12    0    1
 -2       963       965       964
 -1       430   12    0    1
 -2       965       967       966
 -1       431   12    0    1
 -2       967       969       968
 -1       432   12    0    1
 -2       969        34       970
 -1       433   12    0    1
 -2        34       972       971
 -1       434   12    0    1
 -2       972       974       973
 -1       435   12    0    1
 -2       974       976       975
 -1       436   12    0    1
 -2       976       978       977
 -1       437   12    0    1
 -2       978       980       979
 -1       438   12    0    1
 -2       980       982       981
 -1       439   12    0    1
 -2       982       984       983
 -1       440   12    0    1
 -2       984        35       985
 -3
    1PSTEP                         1           1           1          
  100CL  101 6.25000E-02         841                     0    1           1
 -4  DISP        4    1
 -5  D1          1    2    1    0
 -5  D2          1    2    2    0
 -5  D3          1    2    3    0
 -5  ALL         1    2    0    0    1ALL
 -1         1 7.63880E-06 0.00000E+00 0.00000E+00
 -1         2 5.64766E-06 0.00000E+00 0.00000E+00
 -1         3 4.71573E-06 0.00000E+00 0.00000E+00
 -1         4 4.20778E-06 0.00000E+00 0.00000E+00
 -1         5 3.98052E-06 0.00000E+00 0.00000E+00
 -1         8 5.99604E-06-7.53613E-08 0.00000E+00
 -1         9 4.74799E-06 6.26442E-08 0.00000E+00
 -1        10 4.42302E-06-1.96410E-07 0.00000E+00
 -1        11 4.12600E-06-4.09005E-08 0.00000E+00
 -1        12 3.83216E-06 1.00260E-07 0.00000E+00
 -1        15 2.52751E-06-1.56020E-07 0.00000E+00
 -1        16 3.47514E-06 6.27355E-08 0.00000E+00
 -1        17 3.21970E-06-3.94500E-07 0.00000E+00
 -1        18 3.26838E-06-8.06356E-08 0.00000E+00
 -1        19 3.43663E-06 1.98646E-07 0.00000E+00
 -1        20 3.49052E-06 2.11346E-06 0.00000E+00
 -1        21 3.48947E-06 5.05690E-06 0.00000E+00
 -1        22 9.38804E-07-1.00882E-07 0.00000E+00
 -1        23 1.25439E-06 1.36658E-07 0.00000E+00
 -1        24 1.31847E-06-4.64005E-07 0.00000E+00
 -1        25 2.86312E-06-5.61513E-08 0.00000E+00
 -1        26 3.02724E-06 2.63562E-07 0.00000E+00
 -1        27 2.86484E-06 2.03896E-06 0.00000E+00
 -1        28 2.67304E-06 4.98631E-06 0.00000E+00
 -1        29 0.00000E+00 0.00000E+00 0.00000E+00
 -1        30 4.49532E-07 1.79963E-07 0.00000E+00
 -1        31 5.80210E-07-3.70115E-07 0.00000E+00
 -1        32 0.00000E+00 0.00000E+00 0.00000E+00
 -1        33 2.46659E-06 4.16853E-07 0.00000E+00
 -1        34 2.33703E-06 2.03224E-06 0.00000E+00
 -1        35 2.07157E-06 4.94875E-06 0.00000E+00
 -1        36 7.51833E-06-7.01594E-21-1.65436E-24
 -1        37 7.39390E-06-8.65050E-21-1.65436E-24
 -1        38 7.26972E-06-5.63000E-22 0.00000E+00
 -1        39 7.14478E-06 7.82766E-21-1.65436E-24
 -1        40 7.01983E-06 4.09398E-21 0.00000E+00
 -1        41 6.89472E-06 7.69247E-21-1.65436E-24
 -1        42 6.76960E-06 1.45890E-20 3.30872E-24
 -1        43 6.64445E-06 3.04340E-20 0.00000E+00
 -1        44 6.51929E-06 5.81041E-20-3.30872E-24
 -1        45 6.39415E-06 7.36798E-20-1.65436E-24
 -1        46 6.26903E-06 7.88701E-20 0.00000E+00
 -1        47 6.14399E-06 7.09146E-20 0.00000E+00
 -1        48 6.01897E-06 4.57949E-20-3.30872E-24
 -1        49 5.89445E-06 1.89641E-20-1.65436E-24
 -1        50 5.76976E-06 9.90507E-21 0.00000E+00
 -1        51 7.51476E-06-1.29411E-08 0.00000E+00
 -1        52 7.30922E-06-2.52671E-08 0.00000E+00
 -1        53 7.03798E-06-3.74586E-08 0.00000E+00
 -1        54 6.71760E-06-4.96839E-08 0.00000E+00
 -1        55 6.36471E-06-6.21181E-08 5.16988E-26
 -1        56 7.48738E-06-5.82270E-08 0.00000E+00
 -1        57 7.33106E-06-1.19908E-07 0.00000E+00
 -1        58 7.17473E-06-1.80667E-07-3.30872E-24
 -1        59 7.01634E-06-2.38735E-07 1.65436E-24
 -1        60 6.85594E-06-2.91560E-07 0.00000E+00
 -1        61 6.69258E-06-3.36990E-07 0.00000E+00
 -1        62 6.52560E-06-3.72839E-07 0.00000E+00
 -1        63 6.35421E-06-3.97011E-07-3.30872E-24
 -1        64 6.17768E-06-4.07462E-07 6.61744E-24
 -1        65 5.99528E-06-4.02193E-07 0.00000E+00
 -1        66 5.80630E-06-3.79311E-07 0.00000E+00
 -1        67 5.61018E-06-3.36934E-07-1.65436E-24
 -1        68 5.40617E-06-2.73394E-07-3.30872E-24
 -1        69 5.19450E-06-1.86729E-07 0.00000E+00
 -1        70 4.97343E-06-7.58806E-08 0.00000E+00
 -1        71 5.58919E-06-7.50573E-21 0.00000E+00
 -1        72 5.53083E-06-1.31737E-20-8.27181E-25
 -1        73 5.47246E-06-8.68457E-21 1.65436E-24
 -1        74 5.41412E-06 3.29582E-21 8.27181E-25
 -1        75 5.35577E-06 8.04247E-21-1.65436E-24
 -1        76 5.29743E-06 7.00953E-21 0.00000E+00
 -1        77 5.23910E-06 7.63087E-21-1.65436E-24
 -1        78 5.18076E-06-1.77244E-21 0.00000E+00
 -1        79 5.12242E-06-1.35604E-20 1.65436E-24
 -1        80 5.06410E-06-2.06694E-20 0.00000E+00
 -1        81 5.00578E-06-1.77180E-20-1.65436E-24
 -1        82 4.94749E-06-1.32332E-20 0.00000E+00
 -1        83 4.88921E-06 4.02217E-23 0.00000E+00
 -1        84 4.83111E-06 1.12750E-20 0.00000E+00
 -1        85 4.77295E-06 9.21766E-21 0.00000E+00
 -1        86 5.61281E-06 8.30461E-09-8.27181E-25
 -1        87 5.50921E-06 1.94687E-08-1.03398E-25
 -1        88 5.35398E-06 3.04284E-08-5.16988E-26
 -1        89 5.16422E-06 4.16145E-08 0.00000E+00
 -1        90 4.95665E-06 5.29283E-08 4.13590E-25
 -1        91 5.57935E-06-3.33493E-08 0.00000E+00
 -1        92 5.51565E-06-8.02810E-08-8.27181E-25
 -1        93 5.45568E-06-1.37052E-07 1.65436E-24
 -1        94 5.39798E-06-2.00095E-07 0.00000E+00
 -1        95 5.34105E-06-2.65220E-07 0.00000E+00
 -1        96 5.28333E-06-3.28258E-07 8.27181E-25
 -1        97 5.22340E-06-3.85422E-07 0.00000E+00
 -1        98 5.15986E-06-4.32952E-07 8.27181E-25
 -1        99 5.09152E-06-4.67673E-07 0.00000E+00
 -1       100 5.01720E-06-4.86446E-07-8.27181E-25
 -1       101 4.93621E-06-4.87387E-07-1.65436E-24
 -1       102 4.84789E-06-4.68648E-07-8.27181E-25
 -1       103 4.75207E-06-4.29916E-07 1.65436E-24
 -1       104 4.64893E-06-3.70822E-07-8.27181E-25
 -1       105 4.53855E-06-2.92751E-07 1.65436E-24
 -1       106 4.68378E-06 1.15337E-21-8.27181E-25
 -1       107 4.65196E-06 2.65326E-21-4.13590E-25
 -1       108 4.62013E-06-1.68224E-21 0.00000E+00
 -1       109 4.58833E-06-1.24501E-20 4.13590E-25
 -1       110 4.55653E-06-1.70050E-20-8.27181E-25
 -1       111 4.52473E-06-2.28998E-20-4.13590E-25
 -1       112 4.49293E-06-2.93923E-20-8.27181E-25
 -1       113 4.46114E-06-2.78050E-20 4.13590E-25
 -1       114 4.42935E-06-2.00712E-20 0.00000E+00
 -1       115 4.39756E-06-8.16192E-21-4.13590E-25
 -1       116 4.36578E-06-5.49753E-21 8.27181E-25
 -1       117 4.33401E-06-3.66815E-21 0.00000E+00
 -1       118 4.30225E-06 5.11404E-22-8.27181E-25
 -1       119 4.27060E-06 5.99264E-21-4.13590E-25
 -1       120 4.23891E-06 5.52864E-21 0.00000E+00
 -1       121 4.71289E-06-3.27972E-08 0.00000E+00
 -1       122 4.69870E-06-6.54992E-08-4.13590E-25
 -1       123 4.66787E-06-9.82055E-08 0.00000E+00
 -1       124 4.61516E-06-1.30912E-07 0.00000E+00
 -1       125 4.53528E-06-1.63615E-07-8.27181E-25
 -1       126 4.68324E-06-1.46229E-08 0.00000E+00
 -1       127 4.65241E-06-3.34401E-08 0.00000E+00
 -1       128 4.62267E-06-5.52024E-08 8.27181E-25
 -1       129 4.59358E-06-7.86220E-08 0.00000E+00
 -1       130 4.56458E-06-1.02292E-07 0.00000E+00
 -1       131 4.53514E-06-1.24798E-07 4.13590E-25
 -1       132 4.50480E-06-1.44898E-07-8.27181E-25
 -1       133 4.47310E-06-1.61347E-07-4.13590E-25
 -1       134 4.43959E-06-1.72980E-07 8.27181E-25
 -1       135 4.40384E-06-1.78639E-07 0.00000E+00
 -1       136 4.36549E-06-1.77364E-07 0.00000E+00
 -1       137 4.32421E-06-1.68200E-07 4.13590E-25
 -1       138 4.27973E-06-1.50506E-07 8.27181E-25
 -1       139 4.23192E-06-1.23605E-07 0.00000E+00
 -1       140 4.18051E-06-8.72427E-08 0.00000E+00
 -1       141 4.19328E-06 4.48041E-21 4.13590E-25
 -1       142 4.17893E-06 9.63958E-21 0.00000E+00
 -1       143 4.16457E-06 1.38192E-20-4.13590E-25
 -1       144 4.15024E-06 2.22831E-20 2.06795E-25
 -1       145 4.13590E-06 2.33716E-20 0.00000E+00
 -1       146 4.12158E-06 2.87039E-20 0.00000E+00
 -1       147 4.10725E-06 2.98006E-20-4.13590E-25
 -1       148 4.09293E-06 2.40025E-20 0.00000E+00
 -1       149 4.07861E-06 1.11239E-20 4.13590E-25
 -1       150 4.06431E-06-4.44580E-21-2.06795E-25
 -1       151 4.05000E-06-2.83807E-22 4.13590E-25
 -1       152 4.03575E-06 6.09262E-21 0.00000E+00
 -1       153 4.02150E-06 1.08062E-20 0.00000E+00
 -1       154 4.00748E-06 1.04533E-20 0.00000E+00
 -1       155 3.99339E-06 6.62502E-21 2.58494E-26
 -1       156 4.20940E-06-7.08028E-09-4.13590E-25
 -1       157 4.21390E-06-1.37247E-08 0.00000E+00
 -1       158 4.21454E-06-2.04020E-08 0.00000E+00
 -1       159 4.20456E-06-2.70914E-08 0.00000E+00
 -1       160 4.17727E-06-3.37447E-08 0.00000E+00
 -1       161 4.18929E-06-7.39146E-09 4.13590E-25
 -1       162 4.17107E-06-1.55731E-08 0.00000E+00
 -1       163 4.15292E-06-2.39381E-08 0.00000E+00
 -1       164 4.13460E-06-3.18934E-08-2.06795E-25
 -1       165 4.11590E-06-3.88190E-08 0.00000E+00
 -1       166 4.09659E-06-4.40985E-08 0.00000E+00
 -1       167 4.07645E-06-4.72012E-08-4.13590E-25
 -1       168 4.05531E-06-4.75981E-08 0.00000E+00
 -1       169 4.03296E-06-4.47938E-08 4.13590E-25
 -1       170 4.00924E-06-3.82920E-08 0.00000E+00
 -1       171 3.98398E-06-2.76765E-08-4.13590E-25
 -1       172 3.95707E-06-1.25162E-08 2.06795E-25
 -1       173 3.92835E-06 7.50220E-09-4.13590E-25
 -1       174 3.89793E-06 3.28017E-08-2.06795E-25
 -1       175 3.86539E-06 6.34633E-08 5.16988E-26
 -1       191 3.97538E-06 1.66936E-08 0.00000E+00
 -1       192 3.96215E-06 3.34145E-08 0.00000E+00
 -1       193 3.94098E-06 5.01417E-08 0.00000E+00
 -1       194 3.91210E-06 6.68673E-08 0.00000E+00
 -1       195 3.87572E-06 8.35829E-08 0.00000E+00
 -1       251 5.91985E-06 1.79848E-07 1.65436E-24
 -1       252 5.84177E-06 3.59840E-07 0.00000E+00
 -1       253 5.76382E-06 4.68588E-07-1.65436E-24
 -1       254 5.68552E-06 5.10301E-07 0.00000E+00
 -1       255 5.60720E-06 4.94096E-07 0.00000E+00
 -1       256 5.52881E-06 4.29288E-07 0.00000E+00
 -1       257 5.45041E-06 3.28750E-07 3.30872E-24
 -1       258 5.37200E-06 2.05477E-07 0.00000E+00
 -1       259 5.29358E-06 7.41256E-08-3.30872E-24
 -1       260 5.21518E-06-5.06174E-08 0.00000E+00
 -1       261 5.13679E-06-1.54548E-07 0.00000E+00
 -1       262 5.05847E-06-2.23537E-07 0.00000E+00
 -1       263 4.98016E-06-2.46010E-07 1.65436E-24
 -1       264 4.90222E-06-2.10552E-07-8.27181E-25
 -1       265 4.82415E-06-1.09985E-07-1.65436E-24
 -1       266 5.60478E-06-8.94886E-08 0.00000E+00
 -1       267 5.02128E-06-1.02959E-07 0.00000E+00
 -1       268 4.33359E-06-1.16534E-07-4.13590E-25
 -1       269 3.62985E-06-1.29897E-07 2.06795E-25
 -1       270 2.99839E-06-1.43236E-07 0.00000E+00
 -1       271 5.76937E-06 1.30701E-07-3.30872E-24
 -1       272 5.56335E-06 2.68204E-07 0.00000E+00
 -1       273 5.37933E-06 3.47397E-07 3.30872E-24
 -1       274 5.21330E-06 3.76663E-07 0.00000E+00
 -1       275 5.06255E-06 3.64948E-07 0.00000E+00
 -1       276 4.92375E-06 3.21020E-07 1.65436E-24
 -1       277 4.79369E-06 2.53738E-07 3.30872E-24
 -1       278 4.66904E-06 1.71965E-07-1.65436E-24
 -1       279 4.54649E-06 8.45856E-08 0.00000E+00
 -1       280 4.42272E-06 4.95976E-10 1.65436E-24
 -1       281 4.29442E-06-7.14238E-08 3.30872E-24
 -1       282 4.15834E-06-1.22287E-07-1.65436E-24
 -1       283 4.01113E-06-1.43268E-07 0.00000E+00
 -1       284 3.85003E-06-1.25371E-07 0.00000E+00
 -1       285 3.67104E-06-6.01106E-08-3.30872E-24
 -1       286 4.72726E-06 2.38822E-07-8.27181E-25
 -1       287 4.70698E-06 3.50169E-07 4.13590E-25
 -1       288 4.68667E-06 4.04110E-07 0.00000E+00
 -1       289 4.66645E-06 4.08122E-07 4.13590E-25
 -1       290 4.64624E-06 3.70641E-07 0.00000E+00
 -1       291 4.62604E-06 3.00142E-07 4.13590E-25
 -1       292 4.60583E-06 2.05730E-07 0.00000E+00
 -1       293 4.58563E-06 9.65329E-08 4.13590E-25
 -1       294 4.56543E-06-1.80372E-08-8.27181E-25
 -1       295 4.54523E-06-1.28563E-07 4.13590E-25
 -1       296 4.52502E-06-2.25708E-07 0.00000E+00
 -1       297 4.50479E-06-3.00143E-07 0.00000E+00
 -1       298 4.48456E-06-3.42979E-07 8.27181E-25
 -1       299 4.46422E-06-3.45351E-07-4.13590E-25
 -1       300 4.44392E-06-2.99176E-07 0.00000E+00
 -1       301 4.53557E-06 6.17836E-08 0.00000E+00
 -1       302 4.32202E-06 6.22861E-08 1.03398E-25
 -1       303 4.10828E-06 6.30240E-08-2.06795E-25
 -1       304 3.89526E-06 6.37202E-08-2.06795E-25
 -1       305 3.68392E-06 6.40898E-08 8.27181E-25
 -1       306 4.59340E-06 1.99226E-07-1.65436E-24
 -1       307 4.46128E-06 2.67821E-07 0.00000E+00
 -1       308 4.35079E-06 2.78971E-07 0.00000E+00
 -1       309 4.25785E-06 2.42136E-07 0.00000E+00
 -1       310 4.17918E-06 1.67107E-07-3.30872E-24
 -1       311 4.11113E-06 6.35781E-08 1.65436E-24
 -1       312 4.05008E-06-5.87033E-08 0.00000E+00
 -1       313 3.99241E-06-1.89993E-07 1.65436E-24
 -1       314 3.93445E-06-3.20530E-07-3.30872E-24
 -1       315 3.87256E-06-4.40554E-07 0.00000E+00
 -1       316 3.80310E-06-5.40324E-07 0.00000E+00
 -1       317 3.72249E-06-6.10097E-07 0.00000E+00
 -1       318 3.62705E-06-6.40184E-07 0.00000E+00
 -1       319 3.51357E-06-6.20776E-07 0.00000E+00
 -1       320 3.37791E-06-5.42454E-07 0.00000E+00
 -1       321 4.40375E-06-8.13752E-08-8.27181E-25
 -1       322 4.38513E-06 1.37454E-09 4.13590E-25
 -1       323 4.36648E-06 5.52784E-08 0.00000E+00
 -1       324 4.34796E-06 8.38002E-08 4.13590E-25
 -1       325 4.32943E-06 9.08493E-08-4.13590E-25
 -1       326 4.31094E-06 8.03523E-08 0.00000E+00
 -1       327 4.29244E-06 5.65441E-08 4.13590E-25
 -1       328 4.27396E-06 2.36710E-08-2.06795E-25
 -1       329 4.25547E-06-1.38614E-08 0.00000E+00
 -1       330 4.23698E-06-5.16447E-08 0.00000E+00
 -1       331 4.21849E-06-8.52650E-08 0.00000E+00
 -1       332 4.20001E-06-1.10312E-07-2.06795E-25
 -1       333 4.18152E-06-1.22526E-07-4.13590E-25
 -1       334 4.16302E-06-1.17659E-07 0.00000E+00
 -1       335 4.14453E-06-9.17610E-08 4.13590E-25
 -1       336 4.27253E-06-2.29642E-07 0.00000E+00
 -1       337 4.09179E-06-2.62788E-07 4.13590E-25
 -1       338 3.88845E-06-2.95925E-07-8.27181E-25
 -1       339 3.67020E-06-3.28968E-07 0.00000E+00
 -1       340 3.44472E-06-3.62018E-07 0.00000E+00
 -1       341 4.31729E-06-9.70604E-08 0.00000E+00
 -1       342 4.21755E-06-1.69403E-08 8.27181E-25
 -1       343 4.12498E-06 4.42655E-08 1.65436E-24
 -1       344 4.03935E-06 8.63888E-08 0.00000E+00
 -1       345 3.96039E-06 1.10714E-07 0.00000E+00
 -1       346 3.88760E-06 1.18485E-07 0.00000E+00
 -1       347 3.82014E-06 1.12032E-07 0.00000E+00
 -1       348 3.75713E-06 9.37118E-08 0.00000E+00
 -1       349 3.69735E-06 6.67644E-08 0.00000E+00
 -1       350 3.63960E-06 3.44532E-08 0.00000E+00
 -1       351 3.58259E-06 2.15955E-10 0.00000E+00
 -1       352 3.52509E-06-3.24698E-08 0.00000E+00
 -1       353 3.46575E-06-6.02206E-08 0.00000E+00
 -1       354 3.40375E-06-7.94513E-08-8.27181E-25
 -1       355 3.33738E-06-8.75494E-08 0.00000E+00
 -1       356 4.10743E-06 1.45270E-08-4.13590E-25
 -1       357 4.08891E-06 5.40224E-08 0.00000E+00
 -1       358 4.07039E-06 7.94528E-08 0.00000E+00
 -1       359 4.05187E-06 9.26958E-08 2.06795E-25
 -1       360 4.03335E-06 9.58440E-08 4.13590E-25
 -1       361 4.01484E-06 9.09980E-08 2.06795E-25
 -1       362 3.99632E-06 8.03994E-08 4.13590E-25
 -1       363 3.97781E-06 6.62943E-08 0.00000E+00
 -1       364 3.95931E-06 5.09903E-08 4.13590E-25
 -1       365 3.94081E-06 3.67962E-08-2.06795E-25
 -1       366 3.92232E-06 2.60014E-08 0.00000E+00
 -1       367 3.90388E-06 2.08921E-08-2.06795E-25
 -1       368 3.88545E-06 2.36548E-08 4.13590E-25
 -1       369 3.86728E-06 3.64695E-08-2.06795E-25
 -1       370 3.84903E-06 6.13402E-08 5.16988E-26
 -1       371 4.02930E-06-4.80959E-08-4.13590E-25
 -1       372 3.86790E-06-5.47601E-08 0.00000E+00
 -1       373 3.67644E-06-6.14591E-08 2.06795E-25
 -1       374 3.48961E-06-6.79825E-08 1.03398E-25
 -1       375 3.34204E-06-7.45204E-08 0.00000E+00
 -1       376 4.07216E-06 3.96375E-09 8.27181E-25
 -1       377 4.02256E-06 3.58684E-08 4.13590E-25
 -1       378 3.97718E-06 5.66007E-08 8.27181E-25
 -1       379 3.93531E-06 6.76893E-08 0.00000E+00
 -1       380 3.89632E-06 7.10978E-08 0.00000E+00
 -1       381 3.85946E-06 6.87549E-08 4.13590E-25
 -1       382 3.82395E-06 6.28247E-08 0.00000E+00
 -1       383 3.78897E-06 5.54698E-08 0.00000E+00
 -1       384 3.75368E-06 4.89433E-08 0.00000E+00
 -1       385 3.71725E-06 4.55014E-08 4.13590E-25
 -1       386 3.67890E-06 4.71744E-08-8.27181E-25
 -1       387 3.63794E-06 5.60071E-08 0.00000E+00
 -1       388 3.59361E-06 7.38164E-08-8.27181E-25
 -1       389 3.54555E-06 1.02545E-07 4.13590E-25
 -1       390 3.49278E-06 1.43456E-07 0.00000E+00
 -1       406 3.77912E-06 1.16745E-07 8.27181E-25
 -1       407 3.71990E-06 1.33251E-07 0.00000E+00
 -1       408 3.65525E-06 1.49750E-07 0.00000E+00
 -1       409 3.58596E-06 1.66209E-07 0.00000E+00
 -1       410 3.51281E-06 1.82582E-07 4.13590E-25
 -1       466 2.58443E-06 1.74205E-07-8.27181E-25
 -1       467 2.64389E-06 3.89434E-07-8.27181E-25
 -1       468 2.70322E-06 5.09619E-07 0.00000E+00
 -1       469 2.76302E-06 5.54462E-07-8.27181E-25
 -1       470 2.82285E-06 5.39269E-07 0.00000E+00
 -1       471 2.88276E-06 4.79189E-07 0.00000E+00
 -1       472 2.94268E-06 3.86749E-07 1.65436E-24
 -1       473 3.00261E-06 2.74393E-07-8.27181E-25
 -1       474 3.06254E-06 1.53396E-07 0.00000E+00
 -1       475 3.12245E-06 3.50146E-08 0.00000E+00
 -1       476 3.18233E-06-6.93412E-08 1.65436E-24
 -1       477 3.24207E-06-1.48229E-07 8.27181E-25
 -1       478 3.30178E-06-1.88715E-07 1.65436E-24
 -1       479 3.36074E-06-1.77767E-07 0.00000E+00
 -1       480 3.41995E-06-9.93525E-08 4.13590E-25
 -1       481 2.15922E-06-1.47248E-07 0.00000E+00
 -1       482 1.83104E-06-1.37993E-07 0.00000E+00
 -1       483 1.54385E-06-1.28757E-07-2.06795E-25
 -1       484 1.29855E-06-1.19445E-07-1.03398E-25
 -1       485 1.09644E-06-1.10111E-07 0.00000E+00
 -1       486 2.33475E-06 1.71383E-07 0.00000E+00
 -1       487 2.16793E-06 4.22011E-07 0.00000E+00
 -1       488 2.02904E-06 5.98734E-07 0.00000E+00
 -1       489 1.91667E-06 7.03379E-07 8.27181E-25
 -1       490 1.82864E-06 7.43128E-07 0.00000E+00
 -1       491 1.76216E-06 7.25143E-07-8.27181E-25
 -1       492 1.71312E-06 6.60651E-07 0.00000E+00
 -1       493 1.67725E-06 5.60975E-07 0.00000E+00
 -1       494 1.64943E-06 4.39839E-07-1.65436E-24
 -1       495 1.62449E-06 3.11030E-07 0.00000E+00
 -1       496 1.59708E-06 1.88857E-07 0.00000E+00
 -1       497 1.56189E-06 8.76342E-08 0.00000E+00
 -1       498 1.51403E-06 2.02149E-08-1.65436E-24
 -1       499 1.44909E-06-4.69303E-10-8.27181E-25
 -1       500 1.36296E-06 3.49278E-08 1.65436E-24
 -1       501 3.45818E-06 2.27842E-07-8.27181E-25
 -1       502 3.44216E-06 3.14872E-07 4.13590E-25
 -1       503 3.42609E-06 3.34209E-07 4.13590E-25
 -1       504 3.41019E-06 2.96281E-07 2.06795E-25
 -1       505 3.39430E-06 2.12383E-07 0.00000E+00
 -1       506 3.37844E-06 9.38422E-08-2.06795E-25
 -1       507 3.36258E-06-4.74908E-08 0.00000E+00
 -1       508 3.34673E-06-1.99754E-07-2.06795E-25
 -1       509 3.33088E-06-3.50915E-07 0.00000E+00
 -1       510 3.31503E-06-4.88945E-07 2.06795E-25
 -1       511 3.29918E-06-6.02015E-07 0.00000E+00
 -1       512 3.28333E-06-6.78309E-07 2.06795E-25
 -1       513 3.26749E-06-7.06567E-07 0.00000E+00
 -1       514 3.25161E-06-6.75565E-07-2.06795E-25
 -1       515 3.23574E-06-5.74971E-07-4.13590E-25
 -1       516 3.20260E-06 7.34743E-08 0.00000E+00
 -1       517 2.79748E-06 8.62428E-08-1.29247E-26
 -1       518 2.32993E-06 9.88452E-08 0.00000E+00
 -1       519 1.87008E-06 1.11665E-07-5.16988E-26
 -1       520 1.48815E-06 1.24594E-07 0.00000E+00
 -1       521 3.28721E-06 1.82879E-07 0.00000E+00
 -1       522 3.11988E-06 2.36378E-07 0.00000E+00
 -1       523 2.97357E-06 2.34174E-07 0.00000E+00
 -1       524 2.84399E-06 1.85613E-07 0.00000E+00
 -1       525 2.72804E-06 1.00518E-07 0.00000E+00
 -1       526 2.62205E-06-1.14309E-08 0.00000E+00
 -1       527 2.52245E-06-1.40484E-07 0.00000E+00
 -1       528 2.42559E-06-2.76897E-07 0.00000E+00
 -1       529 2.32783E-06-4.10910E-07 0.00000E+00
 -1       530 2.22553E-06-5.32763E-07 1.65436E-24
 -1       531 2.11504E-06-6.32723E-07 3.30872E-24
 -1       532 1.99280E-06-7.01055E-07-1.65436E-24
 -1       533 1.85514E-06-7.28102E-07-3.30872E-24
 -1       534 1.69894E-06-7.04076E-07 0.00000E+00
 -1       535 1.51998E-06-6.19652E-07 0.00000E+00
 -1       536 3.22167E-06-1.99951E-07 0.00000E+00
 -1       537 3.22462E-06-5.22534E-08 0.00000E+00
 -1       538 3.22755E-06 5.36077E-08 0.00000E+00
 -1       539 3.23064E-06 1.22689E-07 0.00000E+00
 -1       540 3.23374E-06 1.60035E-07 1.03398E-25
 -1       541 3.23688E-06 1.70693E-07 2.58494E-26
 -1       542 3.24002E-06 1.59709E-07 0.00000E+00
 -1       543 3.24317E-06 1.32128E-07 5.16988E-26
 -1       544 3.24632E-06 9.29959E-08 0.00000E+00
 -1       545 3.24947E-06 4.73566E-08-5.16988E-26
 -1       546 3.25262E-06 2.55118E-10-1.03398E-25
 -1       547 3.25577E-06-4.32637E-08 0.00000E+00
 -1       548 3.25892E-06-7.81559E-08 0.00000E+00
 -1       549 3.26207E-06-9.93774E-08 0.00000E+00
 -1       550 3.26523E-06-1.01880E-07-1.03398E-25
 -1       551 2.93565E-06-4.05985E-07 3.87741E-26
 -1       552 2.61950E-06-4.17130E-07-5.16988E-26
 -1       553 2.28536E-06-4.28254E-07-4.13590E-25
 -1       554 1.94760E-06-4.39504E-07 0.00000E+00
 -1       555 1.62059E-06-4.51047E-07-8.27181E-25
 -1       556 3.13658E-06-2.12517E-07 0.00000E+00
 -1       557 3.06950E-06-7.23108E-08 0.00000E+00
 -1       558 3.01664E-06 3.01363E-08 0.00000E+00
 -1       559 2.97634E-06 9.92306E-08 4.13590E-25
 -1       560 2.94691E-06 1.39384E-07 0.00000E+00
 -1       561 2.92667E-06 1.55044E-07 8.27181E-25
 -1       562 2.91394E-06 1.50660E-07 0.00000E+00
 -1       563 2.90707E-06 1.30683E-07 0.00000E+00
 -1       564 2.90438E-06 9.95671E-08 8.27181E-25
 -1       565 2.90419E-06 6.17651E-08-2.06795E-25
 -1       566 2.90484E-06 2.17308E-08 0.00000E+00
 -1       567 2.90467E-06-1.60815E-08 1.03398E-25
 -1       568 2.90201E-06-4.72186E-08 3.10193E-25
 -1       569 2.89523E-06-6.72314E-08-3.23117E-26
 -1       570 2.88269E-06-7.16737E-08 1.55096E-25
 -1       571 3.27847E-06-5.58209E-08 3.87741E-26
 -1       572 3.28888E-06-3.86352E-08-5.16988E-26
 -1       573 3.29938E-06-2.77196E-08 1.03398E-25
 -1       574 3.30992E-06-2.16447E-08 2.06795E-25
 -1       575 3.32048E-06-1.89758E-08 2.06795E-25
 -1       576 3.33105E-06-1.82683E-08-2.06795E-25
 -1       577 3.34162E-06-1.80774E-08 0.00000E+00
 -1       578 3.35219E-06-1.69569E-08 0.00000E+00
 -1       579 3.36276E-06-1.34605E-08 0.00000E+00
 -1       580 3.37333E-06-6.14204E-09 2.06795E-25
 -1       581 3.38390E-06 6.44446E-09 0.00000E+00
 -1       582 3.39447E-06 2.57435E-08 0.00000E+00
 -1       583 3.40504E-06 5.31982E-08 8.27181E-25
 -1       584 3.41560E-06 9.02373E-08 0.00000E+00
 -1       585 3.42614E-06 1.38282E-07 0.00000E+00
 -1       586 3.20986E-06-7.64760E-08-4.13590E-25
 -1       587 3.14289E-06-7.22781E-08 0.00000E+00
 -1       588 3.07107E-06-6.80832E-08 2.06795E-25
 -1       589 2.99806E-06-6.39294E-08-9.69352E-27
 -1       590 2.92754E-06-5.98700E-08 0.00000E+00
 -1       591 3.25110E-06-5.18579E-08 0.00000E+00
 -1       592 3.23524E-06-2.81129E-08 0.00000E+00
 -1       593 3.22082E-06-8.46450E-09 0.00000E+00
 -1       594 3.20757E-06 7.94727E-09-3.10193E-25
 -1       595 3.19520E-06 2.19820E-08 2.06795E-25
 -1       596 3.18338E-06 3.44936E-08 0.00000E+00
 -1       597 3.17182E-06 4.63353E-08 0.00000E+00
 -1       598 3.16019E-06 5.83592E-08 0.00000E+00
 -1       599 3.14816E-06 7.14180E-08 0.00000E+00
 -1       600 3.13543E-06 8.63636E-08 0.00000E+00
 -1       601 3.12168E-06 1.04048E-07 2.06795E-25
 -1       602 3.10659E-06 1.25326E-07 0.00000E+00
 -1       603 3.08985E-06 1.51049E-07-1.55096E-25
 -1       604 3.07117E-06 1.82078E-07 0.00000E+00
 -1       605 3.05028E-06 2.19272E-07 0.00000E+00
 -1       606 3.44035E-06 2.78750E-07 0.00000E+00
 -1       607 3.44382E-06 3.66497E-07 0.00000E+00
 -1       608 3.44721E-06 4.61438E-07 0.00000E+00
 -1       609 3.45057E-06 5.63062E-07 2.06795E-25
 -1       610 3.45392E-06 6.70856E-07 4.13590E-25
 -1       611 3.45726E-06 7.84294E-07 0.00000E+00
 -1       612 3.46059E-06 9.02850E-07 0.00000E+00
 -1       613 3.46393E-06 1.02600E-06 0.00000E+00
 -1       614 3.46726E-06 1.15322E-06 0.00000E+00
 -1       615 3.47059E-06 1.28398E-06 0.00000E+00
 -1       616 3.47392E-06 1.41775E-06 0.00000E+00
 -1       617 3.47725E-06 1.55402E-06 0.00000E+00
 -1       618 3.48058E-06 1.69225E-06-2.06795E-25
 -1       619 3.48391E-06 1.83191E-06 0.00000E+00
 -1       620 3.48723E-06 1.97249E-06 1.03398E-25
 -1       621 3.36094E-06 2.09495E-07 4.13590E-25
 -1       622 3.28705E-06 2.20409E-07 1.03398E-25
 -1       623 3.21587E-06 2.31327E-07 4.13590E-25
 -1       624 3.14826E-06 2.42217E-07-1.03398E-25
 -1       625 3.08510E-06 2.53043E-07-1.03398E-25
 -1       626 3.41278E-06 2.82560E-07 0.00000E+00
 -1       627 3.38580E-06 3.74449E-07 4.13590E-25
 -1       628 3.35607E-06 4.73584E-07 0.00000E+00
 -1       629 3.32391E-06 5.79136E-07 0.00000E+00
 -1       630 3.28965E-06 6.90273E-07 0.00000E+00
 -1       631 3.25362E-06 8.06147E-07 0.00000E+00
 -1       632 3.21612E-06 9.25912E-07 0.00000E+00
 -1       633 3.17748E-06 1.04872E-06 2.06795E-25
 -1       634 3.13801E-06 1.17373E-06 0.00000E+00
 -1       635 3.09804E-06 1.30008E-06-1.03398E-25
 -1       636 3.05788E-06 1.42694E-06 0.00000E+00
 -1       637 3.01785E-06 1.55344E-06 5.16988E-26
 -1       638 2.97825E-06 1.67875E-06-1.03398E-25
 -1       639 2.93939E-06 1.80201E-06-5.16988E-26
 -1       640 2.90154E-06 1.92237E-06 5.16988E-26
 -1       641 3.49062E-06 2.25972E-06 0.00000E+00
 -1       642 3.49062E-06 2.42134E-06 0.00000E+00
 -1       643 3.49061E-06 2.59609E-06 0.00000E+00
 -1       644 3.49059E-06 2.78177E-06-1.61559E-27
 -1       645 3.49056E-06 2.97616E-06 1.61559E-27
 -1       646 3.49053E-06 3.17705E-06 0.00000E+00
 -1       647 3.49050E-06 3.38224E-06 0.00000E+00
 -1       648 3.49046E-06 3.58950E-06-8.07794E-28
 -1       649 3.49042E-06 3.79663E-06-3.23117E-27
 -1       650 3.49038E-06 4.00141E-06-3.23117E-27
 -1       651 3.49034E-06 4.20163E-06 0.00000E+00
 -1       652 3.49028E-06 4.39508E-06-1.29247E-26
 -1       653 3.49023E-06 4.57954E-06 5.16988E-26
 -1       654 3.49009E-06 4.75281E-06 0.00000E+00
 -1       655 3.48999E-06 4.91266E-06-2.06795E-25
 -1       656 3.36375E-06 2.10147E-06 2.06795E-25
 -1       657 3.25402E-06 2.08885E-06-1.03398E-25
 -1       658 3.15531E-06 2.07626E-06-2.06795E-25
 -1       659 3.06157E-06 2.06366E-06-1.03398E-25
 -1       660 2.96676E-06 2.05103E-06 0.00000E+00
 -1       661 3.44980E-06 2.26398E-06 0.00000E+00
 -1       662 3.40512E-06 2.42660E-06 0.00000E+00
 -1       663 3.35659E-06 2.59940E-06 0.00000E+00
 -1       664 3.30497E-06 2.78069E-06-2.06795E-25
 -1       665 3.25083E-06 2.96871E-06 0.00000E+00
 -1       666 3.19483E-06 3.16173E-06 0.00000E+00
 -1       667 3.13760E-06 3.35803E-06 0.00000E+00
 -1       668 3.07980E-06 3.55587E-06 0.00000E+00
 -1       669 3.02206E-06 3.75353E-06 4.13590E-25
 -1       670 2.96504E-06 3.94927E-06 2.06795E-25
 -1       671 2.90938E-06 4.14138E-06 0.00000E+00
 -1       672 2.85571E-06 4.32810E-06 2.06795E-25
 -1       673 2.80470E-06 4.50773E-06 4.13590E-25
 -1       674 2.75688E-06 4.67848E-06 0.00000E+00
 -1       675 2.71304E-06 4.83868E-06 0.00000E+00
 -1       676 3.35311E-06 5.04510E-06 0.00000E+00
 -1       677 3.21684E-06 5.03324E-06 0.00000E+00
 -1       678 3.08066E-06 5.02140E-06-4.13590E-25
 -1       679 2.94461E-06 5.00960E-06-2.06795E-25
 -1       680 2.80873E-06 4.99778E-06-2.06795E-25
 -1       681 9.58064E-07 1.27239E-08 0.00000E+00
 -1       682 9.77887E-07 8.32112E-08 0.00000E+00
 -1       683 9.97676E-07 1.17514E-07 0.00000E+00
 -1       684 1.01757E-06 1.22532E-07 2.06795E-25
 -1       685 1.03747E-06 1.04606E-07-8.27181E-25
 -1       686 1.05739E-06 7.00564E-08 0.00000E+00
 -1       687 1.07731E-06 2.48840E-08 8.27181E-25
 -1       688 1.09723E-06-2.49184E-08 0.00000E+00
 -1       689 1.11715E-06-7.34486E-08 8.27181E-25
 -1       690 1.13706E-06-1.14802E-07-4.13590E-25
 -1       691 1.15697E-06-1.42935E-07 4.13590E-25
 -1       692 1.17683E-06-1.51797E-07 2.06795E-25
 -1       693 1.19668E-06-1.34963E-07-4.13590E-25
 -1       694 1.21629E-06-8.59892E-08 2.06795E-25
 -1       695 1.23598E-06 2.18672E-09 1.03398E-25
 -1       696 7.93867E-07-8.45208E-08 0.00000E+00
 -1       697 6.30327E-07-6.77170E-08 2.06795E-25
 -1       698 4.58670E-07-5.09400E-08 0.00000E+00
 -1       699 2.89379E-07-3.40363E-08-2.06795E-25
 -1       700 1.32980E-07-1.71416E-08 0.00000E+00
 -1       701 8.72736E-07 1.45304E-08 0.00000E+00
 -1       702 8.14862E-07 1.04703E-07 0.00000E+00
 -1       703 7.65628E-07 1.72074E-07-4.13590E-25
 -1       704 7.23999E-07 2.18549E-07 4.13590E-25
 -1       705 6.89242E-07 2.46698E-07 0.00000E+00
 -1       706 6.60380E-07 2.59016E-07 0.00000E+00
 -1       707 6.36363E-07 2.58402E-07-8.27181E-25
 -1       708 6.16104E-07 2.47752E-07 4.13590E-25
 -1       709 5.98437E-07 2.30189E-07 0.00000E+00
 -1       710 5.82195E-07 2.08842E-07-4.13590E-25
 -1       711 5.66170E-07 1.86924E-07 0.00000E+00
 -1       712 5.49192E-07 1.67663E-07 4.13590E-25
 -1       713 5.30037E-07 1.54208E-07 4.13590E-25
 -1       714 5.07719E-07 1.49793E-07 0.00000E+00
 -1       715 4.80862E-07 1.57255E-07-2.06795E-25
 -1       716 1.25792E-06 2.57166E-07 1.03398E-25
 -1       717 1.26209E-06 3.03674E-07-6.46235E-27
 -1       718 1.26623E-06 2.87709E-07 0.00000E+00
 -1       719 1.27049E-06 2.20788E-07 5.16988E-26
 -1       720 1.27475E-06 1.14216E-07 0.00000E+00
 -1       721 1.27902E-06-2.07057E-08-5.16988E-26
 -1       722 1.28330E-06-1.72793E-07 1.03398E-25
 -1       723 1.28758E-06-3.30868E-07 0.00000E+00
 -1       724 1.29185E-06-4.83775E-07 1.03398E-25
 -1       725 1.29612E-06-6.20354E-07 0.00000E+00
 -1       726 1.30038E-06-7.29385E-07 0.00000E+00
 -1       727 1.30457E-06-7.99638E-07-2.58494E-26
 -1       728 1.30875E-06-8.19724E-07 0.00000E+00
 -1       729 1.31256E-06-7.78247E-07 0.00000E+00
 -1       730 1.31649E-06-6.63561E-07 0.00000E+00
 -1       731 1.09274E-06 1.43205E-07-5.16988E-26
 -1       732 9.24143E-07 1.50516E-07 5.16988E-26
 -1       733 7.62023E-07 1.57780E-07 0.00000E+00
 -1       734 6.19825E-07 1.65178E-07-1.03398E-25
 -1       735 5.11131E-07 1.72592E-07 2.06795E-25
 -1       736 1.15583E-06 2.59719E-07 0.00000E+00
 -1       737 1.06895E-06 3.47198E-07 0.00000E+00
 -1       738 9.94875E-07 4.00832E-07 0.00000E+00
 -1       739 9.32784E-07 4.21700E-07 0.00000E+00
 -1       740 8.81865E-07 4.12774E-07 0.00000E+00
 -1       741 8.40967E-07 3.76971E-07 0.00000E+00
 -1       742 8.08519E-07 3.18625E-07-1.65436E-24
 -1       743 7.82879E-07 2.42095E-07 0.00000E+00
 -1       744 7.62061E-07 1.52702E-07 1.65436E-24
 -1       745 7.44069E-07 5.57950E-08 0.00000E+00
 -1       746 7.26759E-07-4.29219E-08 0.00000E+00
 -1       747 7.08030E-07-1.37718E-07 0.00000E+00
 -1       748 6.85771E-07-2.23095E-07 1.65436E-24
 -1       749 6.58163E-07-2.93473E-07 0.00000E+00
 -1       750 6.23094E-07-3.44226E-07 0.00000E+00
 -1       751 1.40930E-06-2.52874E-07-8.27181E-25
 -1       752 1.50586E-06-1.03353E-07 8.27181E-25
 -1       753 1.60206E-06-3.74531E-09 0.00000E+00
 -1       754 1.69934E-06 5.74370E-08 0.00000E+00
 -1       755 1.79666E-06 8.79858E-08 0.00000E+00
 -1       756 1.89419E-06 9.55641E-08-1.65436E-24
 -1       757 1.99175E-06 8.56220E-08 3.30872E-24
 -1       758 2.08935E-06 6.35363E-08 1.65436E-24
 -1       759 2.18694E-06 3.35133E-08 0.00000E+00
 -1       760 2.28452E-06-2.74713E-10 1.65436E-24
 -1       761 2.38208E-06-3.40176E-08 0.00000E+00
 -1       762 2.47949E-06-6.39051E-08 0.00000E+00
 -1       763 2.57687E-06-8.57563E-08-3.30872E-24
 -1       764 2.67348E-06-9.53557E-08 8.27181E-25
 -1       765 2.77034E-06-8.73102E-08-1.65436E-24
 -1       766 1.09615E-06-4.50192E-07 4.13590E-25
 -1       767 9.13795E-07-4.33992E-07 0.00000E+00
 -1       768 7.71061E-07-4.17948E-07 0.00000E+00
 -1       769 6.67659E-07-4.01679E-07 0.00000E+00
 -1       770 6.03921E-07-3.85308E-07 1.29247E-26
 -1       771 1.17622E-06-2.72611E-07 0.00000E+00
 -1       772 1.04687E-06-1.18148E-07-3.30872E-24
 -1       773 9.29961E-07 2.62730E-09 0.00000E+00
 -1       774 8.24364E-07 9.29876E-08 0.00000E+00
 -1       775 7.28914E-07 1.56208E-07 0.00000E+00
 -1       776 6.42397E-07 1.95572E-07-1.65436E-24
 -1       777 5.63589E-07 2.14361E-07 0.00000E+00
 -1       778 4.91264E-07 2.15859E-07 0.00000E+00
 -1       779 4.24193E-07 2.03351E-07 1.65436E-24
 -1       780 3.61144E-07 1.80121E-07 8.27181E-25
 -1       781 3.00889E-07 1.49457E-07 0.00000E+00
 -1       782 2.42207E-07 1.14646E-07 8.27181E-25
 -1       783 1.83877E-07 7.89784E-08 0.00000E+00
 -1       784 1.24732E-07 4.57552E-08-8.27181E-25
 -1       785 6.36138E-08 1.82793E-08 0.00000E+00
 -1       786 2.87275E-06-1.81470E-08 0.00000E+00
 -1       787 2.88299E-06 1.14698E-08-1.03398E-25
 -1       788 2.89321E-06 3.39780E-08 2.06795E-25
 -1       789 2.90352E-06 5.06623E-08-1.03398E-25
 -1       790 2.91385E-06 6.28055E-08 0.00000E+00
 -1       791 2.92419E-06 7.16911E-08 2.06795E-25
 -1       792 2.93454E-06 7.86015E-08 0.00000E+00
 -1       793 2.94489E-06 8.48193E-08-2.06795E-25
 -1       794 2.95525E-06 9.16271E-08 4.13590E-25
 -1       795 2.96560E-06 1.00307E-07 0.00000E+00
 -1       796 2.97595E-06 1.12143E-07 0.00000E+00
 -1       797 2.98629E-06 1.28416E-07 2.06795E-25
 -1       798 2.99662E-06 1.50412E-07 0.00000E+00
 -1       799 3.00692E-06 1.79411E-07 1.03398E-25
 -1       800 3.01722E-06 2.16702E-07 0.00000E+00
 -1       801 2.60815E-06-4.66065E-08 4.13590E-25
 -1       802 2.07858E-06-3.66355E-08-2.06795E-25
 -1       803 1.41356E-06-2.67971E-08-5.16988E-26
 -1       804 7.52537E-07-1.72153E-08 0.00000E+00
 -1       805 2.34968E-07-7.51609E-09-8.27181E-25
 -1       806 2.83717E-06-2.21689E-08-4.13590E-25
 -1       807 2.81218E-06 8.17014E-09 0.00000E+00
 -1       808 2.78818E-06 3.55675E-08 0.00000E+00
 -1       809 2.76500E-06 6.06735E-08 0.00000E+00
 -1       810 2.74241E-06 8.41345E-08 0.00000E+00
 -1       811 2.72020E-06 1.06592E-07 2.06795E-25
 -1       812 2.69811E-06 1.28687E-07-4.13590E-25
 -1       813 2.67592E-06 1.51059E-07 2.06795E-25
 -1       814 2.65339E-06 1.74348E-07 0.00000E+00
 -1       815 2.63027E-06 1.99194E-07 1.03398E-25
 -1       816 2.60634E-06 2.26236E-07 0.00000E+00
 -1       817 2.58134E-06 2.56115E-07 0.00000E+00
 -1       818 2.55506E-06 2.89471E-07-4.13590E-25
 -1       819 2.52727E-06 3.26946E-07-2.06795E-25
 -1       820 2.49778E-06 3.69185E-07 1.03398E-25
 -1       821 3.01770E-06 3.23348E-07 1.03398E-25
 -1       822 3.00755E-06 3.96542E-07 1.03398E-25
 -1       823 2.99742E-06 4.81744E-07-2.06795E-25
 -1       824 2.98719E-06 5.77541E-07 0.00000E+00
 -1       825 2.97695E-06 6.82522E-07 0.00000E+00
 -1       826 2.96669E-06 7.95273E-07 0.00000E+00
 -1       827 2.95643E-06 9.14380E-07 0.00000E+00
 -1       828 2.94616E-06 1.03843E-06 2.06795E-25
 -1       829 2.93589E-06 1.16601E-06 4.13590E-25
 -1       830 2.92563E-06 1.29570E-06-2.06795E-25
 -1       831 2.91536E-06 1.42609E-06 0.00000E+00
 -1       832 2.90511E-06 1.55576E-06 0.00000E+00
 -1       833 2.89488E-06 1.68329E-06 2.06795E-25
 -1       834 2.88471E-06 1.80728E-06 1.03398E-25
 -1       835 2.87454E-06 1.92631E-06-2.06795E-25
 -1       836 2.95600E-06 2.88629E-07 0.00000E+00
 -1       837 2.85985E-06 3.14589E-07 0.00000E+00
 -1       838 2.75079E-06 3.40501E-07 0.00000E+00
 -1       839 2.64088E-06 3.66354E-07-2.06795E-25
 -1       840 2.54214E-06 3.92251E-07 0.00000E+00
 -1       841 3.00361E-06 3.22867E-07 2.58494E-26
 -1       842 2.97421E-06 3.96877E-07 0.00000E+00
 -1       843 2.93991E-06 4.83998E-07 0.00000E+00
 -1       844 2.90129E-06 5.82526E-07 1.29247E-26
 -1       845 2.85901E-06 6.90775E-07 5.16988E-26
 -1       846 2.81373E-06 8.07040E-07 0.00000E+00
 -1       847 2.76608E-06 9.29606E-07 5.16988E-26
 -1       848 2.71670E-06 1.05676E-06 0.00000E+00
 -1       849 2.66625E-06 1.18678E-06-5.16988E-26
 -1       850 2.61537E-06 1.31793E-06 2.58494E-26
 -1       851 2.56471E-06 1.44851E-06 0.00000E+00
 -1       852 2.51491E-06 1.57677E-06 0.00000E+00
 -1       853 2.46663E-06 1.70100E-06-5.16988E-26
 -1       854 2.42046E-06 1.81947E-06 0.00000E+00
 -1       855 2.37711E-06 1.93048E-06 0.00000E+00
 -1       856 2.85343E-06 2.16013E-06-2.06795E-25
 -1       857 2.84146E-06 2.30314E-06-1.03398E-25
 -1       858 2.82950E-06 2.46512E-06 4.13590E-25
 -1       859 2.81745E-06 2.64320E-06-2.06795E-25
 -1       860 2.80539E-06 2.83450E-06 0.00000E+00
 -1       861 2.79331E-06 3.03614E-06 0.00000E+00
 -1       862 2.78122E-06 3.24522E-06-4.13590E-25
 -1       863 2.76913E-06 3.45887E-06 2.06795E-25
 -1       864 2.75704E-06 3.67420E-06 4.13590E-25
 -1       865 2.74496E-06 3.88833E-06 2.06795E-25
 -1       866 2.73287E-06 4.09837E-06-4.13590E-25
 -1       867 2.72080E-06 4.30143E-06-2.06795E-25
 -1       868 2.70873E-06 4.49464E-06 0.00000E+00
 -1       869 2.69672E-06 4.67511E-06-2.06795E-25
 -1       870 2.68471E-06 4.83995E-06 2.06795E-25
 -1       871 2.76805E-06 2.03801E-06 0.00000E+00
 -1       872 2.67818E-06 2.03696E-06-5.16988E-26
 -1       873 2.59270E-06 2.03589E-06 1.03398E-25
 -1       874 2.50906E-06 2.03478E-06 0.00000E+00
 -1       875 2.42469E-06 2.03361E-06-5.16988E-26
 -1       876 2.83586E-06 2.16404E-06 4.13590E-25
 -1       877 2.80056E-06 2.30796E-06-2.06795E-25
 -1       878 2.75915E-06 2.46810E-06-4.13590E-25
 -1       879 2.71264E-06 2.64213E-06 0.00000E+00
 -1       880 2.66183E-06 2.82765E-06 0.00000E+00
 -1       881 2.60762E-06 3.02229E-06-2.06795E-25
 -1       882 2.55088E-06 3.22367E-06 4.13590E-25
 -1       883 2.49250E-06 3.42944E-06 0.00000E+00
 -1       884 2.43337E-06 3.63722E-06 4.13590E-25
 -1       885 2.37436E-06 3.84464E-06 2.06795E-25
 -1       886 2.31637E-06 4.04935E-06-4.13590E-25
 -1       887 2.26027E-06 4.24896E-06 0.00000E+00
 -1       888 2.20695E-06 4.44111E-06 0.00000E+00
 -1       889 2.15721E-06 4.62340E-06-2.06795E-25
 -1       890 2.11205E-06 4.79350E-06 0.00000E+00
 -1       891 2.55525E-06 4.98009E-06 2.06795E-25
 -1       892 2.46031E-06 4.97378E-06 0.00000E+00
 -1       893 2.37635E-06 4.96747E-06 0.00000E+00
 -1       894 2.29149E-06 4.96118E-06 1.03398E-25
 -1       895 2.19385E-06 4.95488E-06-1.03398E-25
 -1       896 2.79412E-08 1.06147E-07 0.00000E+00
 -1       897 5.61192E-08 1.82846E-07-4.13590E-25
 -1       898 8.42841E-08 2.34300E-07 8.27181E-25
 -1       899 1.12494E-07 2.64683E-07 0.00000E+00
 -1       900 1.40706E-07 2.77590E-07 0.00000E+00
 -1       901 1.68926E-07 2.76600E-07 0.00000E+00
 -1       902 1.97148E-07 2.64910E-07-8.27181E-25
 -1       903 2.25368E-07 2.45705E-07 4.13590E-25
 -1       904 2.53588E-07 2.21966E-07 0.00000E+00
 -1       905 2.81801E-07 1.96667E-07 0.00000E+00
 -1       906 3.10010E-07 1.72740E-07 0.00000E+00
 -1       907 3.38184E-07 1.53120E-07-4.13590E-25
 -1       908 3.66352E-07 1.40857E-07 0.00000E+00
 -1       909 3.94346E-07 1.39011E-07 0.00000E+00
 -1       910 4.22399E-07 1.50926E-07 0.00000E+00
 -1       911 4.57683E-07 2.07214E-07 2.06795E-25
 -1       912 4.65948E-07 2.13737E-07 0.00000E+00
 -1       913 4.74207E-07 2.02336E-07 0.00000E+00
 -1       914 4.82486E-07 1.75805E-07-1.03398E-25
 -1       915 4.90766E-07 1.36823E-07-2.06795E-25
 -1       916 4.99049E-07 8.80593E-08 0.00000E+00
 -1       917 5.07331E-07 3.21102E-08 2.06795E-25
 -1       918 5.15613E-07-2.84342E-08 0.00000E+00
 -1       919 5.23894E-07-9.10182E-08 0.00000E+00
 -1       920 5.32166E-07-1.53087E-07 0.00000E+00
 -1       921 5.40435E-07-2.12083E-07-2.06795E-25
 -1       922 5.48668E-07-2.65447E-07 1.03398E-25
 -1       923 5.56896E-07-3.10574E-07 0.00000E+00
 -1       924 5.64943E-07-3.44857E-07-5.16988E-26
 -1       925 5.73052E-07-3.65603E-07 0.00000E+00
 -1       926 5.44898E-07-3.64191E-07 0.00000E+00
 -1       927 5.08735E-07-3.53790E-07 4.13590E-25
 -1       928 4.72626E-07-3.39231E-07 0.00000E+00
 -1       929 4.36355E-07-3.20842E-07 0.00000E+00
 -1       930 4.00079E-07-2.99080E-07 0.00000E+00
 -1       931 3.63770E-07-2.74410E-07 0.00000E+00
 -1       932 3.27457E-07-2.47395E-07 8.27181E-25
 -1       933 2.91137E-07-2.18603E-07-4.13590E-25
 -1       934 2.54815E-07-1.88662E-07 8.27181E-25
 -1       935 2.18488E-07-1.58202E-07 0.00000E+00
 -1       936 1.82160E-07-1.27871E-07 8.27181E-25
 -1       937 1.45819E-07-9.83187E-08 0.00000E+00
 -1       938 1.09477E-07-7.01642E-08 0.00000E+00
 -1       939 7.30752E-08-4.40271E-08 0.00000E+00
 -1       940 3.66936E-08-2.04573E-08 1.65436E-24
 -1       941 1.46204E-07 1.87484E-08 0.00000E+00
 -1       942 3.00474E-07 3.72199E-08 1.65436E-24
 -1       943 4.54233E-07 5.55759E-08 3.30872E-24
 -1       944 6.09524E-07 7.39768E-08-1.65436E-24
 -1       945 7.64860E-07 9.25901E-08 3.30872E-24
 -1       946 9.20502E-07 1.11585E-07 0.00000E+00
 -1       947 1.07618E-06 1.31191E-07 3.30872E-24
 -1       948 1.23191E-06 1.51639E-07 1.65436E-24
 -1       949 1.38764E-06 1.73297E-07 0.00000E+00
 -1       950 1.54334E-06 1.96536E-07 1.65436E-24
 -1       951 1.69900E-06 2.21978E-07 0.00000E+00
 -1       952 1.85443E-06 2.50260E-07 0.00000E+00
 -1       953 2.00981E-06 2.82462E-07-3.30872E-24
 -1       954 2.16396E-06 3.19691E-07 1.65436E-24
 -1       955 2.31853E-06 3.63841E-07 0.00000E+00
 -1       956 2.45863E-06 4.82092E-07 5.16988E-26
 -1       957 2.45056E-06 5.56524E-07 5.16988E-26
 -1       958 2.44246E-06 6.39255E-07 0.00000E+00
 -1       959 2.43434E-06 7.29330E-07-2.58494E-26
 -1       960 2.42622E-06 8.25793E-07 2.06795E-25
 -1       961 2.41809E-06 9.27676E-07 5.16988E-26
 -1       962 2.40997E-06 1.03401E-06 2.06795E-25
 -1       963 2.40184E-06 1.14384E-06-1.03398E-25
 -1       964 2.39371E-06 1.25619E-06 2.06795E-25
 -1       965 2.38558E-06 1.37010E-06 0.00000E+00
 -1       966 2.37745E-06 1.48460E-06 0.00000E+00
 -1       967 2.36933E-06 1.59873E-06 1.03398E-25
 -1       968 2.36121E-06 1.71151E-06 4.13590E-25
 -1       969 2.35310E-06 1.82200E-06 0.00000E+00
 -1       970 2.34501E-06 1.92922E-06 0.00000E+00
 -1       971 2.32088E-06 2.14314E-06 0.00000E+00
 -1       972 2.30427E-06 2.27716E-06-2.06795E-25
 -1       973 2.28767E-06 2.43142E-06 0.00000E+00
 -1       974 2.27099E-06 2.60299E-06 0.00000E+00
 -1       975 2.25430E-06 2.78896E-06 0.00000E+00
 -1       976 2.23760E-06 2.98641E-06-2.06795E-25
 -1       977 2.22089E-06 3.19241E-06 0.00000E+00
 -1       978 2.20417E-06 3.40403E-06 0.00000E+00
 -1       979 2.18746E-06 3.61837E-06 0.00000E+00
 -1       980 2.17075E-06 3.83248E-06 2.06795E-25
 -1       981 2.15405E-06 4.04344E-06 0.00000E+00
 -1       982 2.13736E-06 4.24833E-06 0.00000E+00
 -1       983 2.12069E-06 4.44423E-06-4.13590E-25
 -1       984 2.10412E-06 4.62821E-06 0.00000E+00
 -1       985 2.08754E-06 4.79735E-06 0.00000E+00
 -3
    1PSTEP                         2           1           1          
  100CL  101 6.25000E-02         841                     0    1           1
 -4  STRESS      6    1
 -5  SXX         1    4    1    1
 -5  SYY         1    4    2    2
 -5  SZZ         1    4    3    3
 -5  SXY         1    4    1    2
 -5  SYZ         1    4    2    3
 -5  SZX         1    4    3    1
 -1         1-2.58902E+05-8.30152E+04-5.30018E+04-7.36226E+04-3.48640E-11 1.09139E-11
 -1         2-1.64453E+05-9.05248E+03 2.30532E+02-1.63843E+04-1.34435E-11-2.43517E-10
 -1         3-8.52660E+04-2.96756E+04-2.96097E+03-7.06249E+03-3.60529E-11-2.07216E-10
 -1         4-4.28713E+04-8.05450E+03 6.45732E+01-4.30084E+03 2.99156E-11-2.56986E-10
 -1         5-2.17833E+04 1.27038E+04-1.10094E+04-6.56491E+02 6.00039E-10-2.48072E-10
 -1         8-1.39464E+05-5.61819E+04-2.13019E+04-5.30279E+04 2.86491E-11-1.40062E-10
 -1         9-1.48588E+05-3.36239E+04-1.86562E+04-3.43290E+04-6.44225E-11-7.12438E-11
 -1        10-7.47748E+04-4.22367E+04-3.47855E+03-1.88895E+04-3.29663E-10-4.13062E-12
 -1        11-4.29480E+04-1.24917E+04 5.16405E+01-9.61388E+03 7.93439E-11-4.80712E-11
 -1        12-2.70843E+04 1.00994E+04-1.24542E+04-4.12573E+03 7.25116E-10-7.17115E-11
 -1        15 1.58958E+03-7.03055E+03 2.66085E+02-1.27132E+04-1.35287E-11-2.82853E-10
 -1        16-8.08501E+04-1.41417E+04 3.40102E+03-3.75079E+04 1.49688E-10-5.62750E-11
 -1        17-5.03086E+04-3.37336E+04-5.54372E+03-2.77418E+04 3.09228E-11 2.61783E-10
 -1        18-2.45060E+04-1.27627E+04-9.23137E+03-1.41784E+04-1.76707E-10 2.00923E-10
 -1        19-5.25060E+03 6.55682E+03-5.05269E+03-4.31241E+03 2.72829E-10 4.55505E-11
 -1        20 8.81490E+03-6.50915E+03-1.08553E+03 4.72112E+03 5.49306E-10-5.40979E-10
 -1        21-4.28142E+01-1.32106E+04 3.29527E+03 2.63104E+01 2.18888E-09-2.06236E-10
 -1        22 2.64847E+03 1.53091E+04 1.00791E+02-3.72668E+03-2.58069E-11-8.87894E-11
 -1        23-3.16241E+04 1.31815E+02 3.30269E+02-1.49990E+04-2.63867E-10 8.06419E-11
 -1        24-1.83517E+04 2.75599E+03 2.18462E+04-3.80904E+04-7.60641E-10 2.38591E-10
 -1        25 4.74678E+04 1.61506E+04 1.48643E+04-2.42883E+04 7.96566E-11-1.11375E-10
 -1        26 2.24215E+02 1.47241E+04 7.63346E+02-2.85513E+03 1.31593E-10 2.91986E-10
 -1        27-3.43781E+03-5.55759E+03-2.39892E+03 6.36967E+03 5.98732E-10-1.82733E-10
 -1        28-1.10481E+03-1.03205E+04-5.96204E+01 4.95677E+03 8.30042E-10-2.25560E-10
 -1        29 3.86244E+04 2.60390E+04 1.07241E+02-2.37666E+02-2.46128E-11-2.14925E-10
 -1        30 1.26050E+04 3.83272E+03 1.62903E+02-3.76985E+03-2.46332E-11 3.24007E-12
 -1        31-4.53779E+04 3.68484E+03 3.78357E+02-9.54737E+03 2.67237E-11 2.84217E-10
 -1        32 6.25151E+04 3.66050E+04 4.50050E+04-3.81746E+04 8.09258E-10 2.96041E-10
 -1        33 1.08228E+05 4.60631E+04 3.38954E+04-4.09986E+03-1.37029E-09-1.28466E-11
 -1        34-1.78980E+04-2.54197E+03-7.66576E+02 3.36390E+03 5.01181E-11-2.76259E-11
 -1        35-2.85857E+03-3.43438E+03-6.15838E+01 7.35476E+03 1.13497E-09-1.80383E-10
 -1        36-3.53073E+05 1.06871E+04-2.48516E+04 7.68296E-10-2.86326E-10 1.45519E-10
 -1        37-3.63807E+05-1.23762E+04-1.75634E+04-7.01928E-09 1.50140E-10 8.43102E-10
 -1        38-3.57223E+05 1.66704E+03-6.43478E+03-4.11221E-08 7.02174E-11 6.79847E-10
 -1        39-3.58973E+05-1.92967E+03-4.03927E+03-3.40748E-08-3.43659E-10 4.91525E-10
 -1        40-3.57904E+05 2.59468E+02-1.65398E+03-4.27651E-08-1.49425E-10 7.05995E-11
 -1        41-3.58178E+05-3.03771E+02-9.84682E+02-4.55523E-08 1.40920E-10 4.79289E-10
 -1        42-3.58017E+05 4.38897E+01-4.80238E+02-1.88139E-08-9.90080E-11 2.70745E-10
 -1        43-3.58059E+05-7.60970E+01-3.75679E+02 2.36847E-08-2.80918E-10-2.91786E-10
 -1        44-3.58024E+05 3.21353E+01-3.72785E+02 3.27354E-09 1.09759E-10 1.23649E-10
 -1        45-3.58123E+05-2.02257E+02-6.74253E+02 3.15983E-08 3.75812E-11 1.69607E-10
 -1        46-3.57952E+05 1.69852E+02-1.09419E+03-4.90787E-09 5.53613E-11 3.55385E-10
 -1        47-3.58639E+05-1.25989E+03-2.64374E+03-4.18009E-09-3.56759E-10 2.18137E-10
 -1        48-3.57508E+05 1.08798E+03-4.20301E+03-1.00001E-08-1.51221E-10 2.75577E-10
 -1        49-3.61794E+05-8.07681E+03-1.14636E+04-7.85037E-09 2.87149E-11 8.81528E-10
 -1        50-3.54800E+05 6.97432E+03-1.62195E+04-7.68081E-09-2.69617E-10 1.29148E-10
 -1        51 3.00276E+03-3.43896E+04 4.80536E+03-9.02112E+04-7.27596E-12 5.31145E-10
 -1        52 1.14300E+03-3.36492E+04 2.85306E+03-9.94929E+04 1.63709E-11 1.58707E-10
 -1        53 5.65139E+02-3.42252E+04 2.25579E+03-8.99830E+04 1.40972E-11 4.11092E-10
 -1        54 1.44997E+03-3.36287E+04 3.35909E+03-9.97471E+04-2.45564E-11 1.47793E-10
 -1        55 3.91969E+03-3.46071E+04 6.06709E+03-8.99543E+04 5.45697E-12 1.20508E-10
 -1        56-3.89591E+05-4.41223E+04-3.18288E+04-1.50704E+05 2.50111E-11 5.51154E-10
 -1        57-4.04587E+05-6.99340E+04-2.13418E+04-1.46920E+05-2.64208E-10-2.81943E-10
 -1        58-3.95749E+05-5.41725E+04-7.50272E+03-1.49005E+05 6.66205E-11 4.24734E-10
 -1        59-3.97491E+05-5.81017E+04-4.44778E+03-1.48979E+05-1.51203E-11 6.05951E-11
 -1        60-3.96628E+05-5.55558E+04-1.75647E+03-1.48793E+05 2.48406E-10-5.71163E-10
 -1        61-3.96484E+05-5.64765E+04-9.94606E+02-1.49227E+05-1.56973E-10-2.24190E-10
 -1        62-3.96748E+05-5.57482E+04-4.86116E+02-1.48775E+05 4.28457E-11 2.23253E-11
 -1        63-3.96370E+05-5.62696E+04-4.08434E+02-1.49238E+05-9.28360E-11 3.29441E-10
 -1        64-3.96740E+05-5.57576E+04-4.76379E+02-1.48785E+05-3.74385E-11 3.42197E-11
 -1        65-3.96514E+05-5.64327E+04-9.65985E+02-1.49187E+05-1.17893E-10 5.76392E-11
 -1        66-3.96605E+05-5.55901E+04-1.70206E+03-1.48824E+05-1.14184E-10 8.87894E-10
 -1        67-3.97526E+05-5.79692E+04-4.30745E+03-1.48904E+05-7.33280E-11 1.31422E-10
 -1        68-3.95736E+05-5.42691E+04-7.26531E+03-1.49050E+05 2.51248E-11-1.89630E-10
 -1        69-4.04432E+05-6.93913E+04-2.06654E+04-1.46870E+05 1.46770E-10-1.09139E-11
 -1        70-3.89757E+05-4.45544E+04-3.08204E+04-1.50714E+05-1.83718E-10 1.27329E-10
 -1        71-1.67023E+05-2.96455E+02 6.89226E+02-7.22221E-09 5.27467E-11 1.26704E-10
 -1        72-1.66709E+05 3.43288E+02 4.86473E+02 2.03503E-09-5.66233E-11 8.56645E-10
 -1        73-1.66907E+05-4.62117E+01 1.76922E+02-3.24288E-09 1.59858E-10-1.95847E-10
 -1        74-1.66843E+05 5.32651E+01 1.08639E+02 1.41876E-08-8.60629E-11-7.32598E-10
 -1        75-1.66888E+05-6.96554E+00 3.92976E+01-4.34159E-10-1.17699E-10-1.07413E-10
 -1        76-1.66866E+05 6.63916E+00 1.32278E+01 1.42396E-08-2.51740E-11-6.66489E-11
 -1        77-1.66884E+05 3.37485E-01-1.31201E+01-1.10517E-08 1.28691E-10-2.91651E-10
 -1        78-1.66876E+05-9.65767E+00-4.76970E+01-9.05342E-09 7.86705E-11-1.69613E-10
 -1        79-1.66879E+05 9.31103E+00-9.51825E+01 2.87369E-09 2.81523E-12 2.05027E-10
 -1        80-1.66908E+05-7.08608E+01-2.23829E+02 9.04888E-09 1.17129E-10-7.76481E-11
 -1        81-1.66852E+05 6.14516E+01-3.88173E+02-3.63050E-09-2.22133E-11-1.90227E-10
 -1        82-1.67098E+05-4.58059E+02-9.56952E+02-2.16601E-08-1.94015E-10 4.40664E-10
 -1        83-1.66690E+05 3.95857E+02-1.52724E+03-3.78373E-11-2.98120E-11-3.10479E-10
 -1        84-1.68246E+05-2.93900E+03-4.17067E+03-2.18449E-10-1.23179E-10-3.57886E-10
 -1        85-1.65704E+05 2.53784E+03-5.90234E+03-1.36745E-08-2.16388E-10-1.59162E-12
 -1        86-8.02169E+03 3.00442E+04 1.89579E+04 1.26504E+02 3.63798E-12-2.72724E-10
 -1        87 9.99695E+03 3.84845E+04 1.46515E+04-5.39133E+02-9.54969E-12-1.55780E-09
 -1        88-1.95723E+03 3.28211E+04 7.46055E+03 1.18155E+02-4.87717E-11-2.87674E-10
 -1        89 6.79843E+03 3.70005E+04 1.04702E+04-5.27704E+02 5.91172E-12-3.44365E-10
 -1        90-4.82900E+03 3.15279E+04 1.17557E+04 1.15076E+02-6.36646E-11 6.27385E-11
 -1        91-1.78324E+05-2.40978E+04-2.46253E+03-6.72687E+04 7.14806E-10-7.05995E-11
 -1        92-1.79527E+05-2.64284E+04-1.70799E+03-6.69282E+04 1.11677E-08-4.48028E-09
 -1        93-1.78832E+05-2.49740E+04-5.78264E+02-6.70956E+04 1.77798E-06-6.66450E-07
 -1        94-1.78936E+05-2.54142E+04-3.62501E+02-6.71288E+04 3.53540E-06-1.32621E-06
 -1        95-1.78914E+05-2.51100E+04-1.39231E+02-6.70686E+04 1.77787E-06-6.66092E-07
 -1        96-1.78846E+05-2.52542E+04-9.02311E+01-6.71546E+04 1.12767E-08-3.86958E-09
 -1        97-1.78922E+05-2.51340E+04-5.56178E+01-6.70699E+04 4.51052E-10 2.23938E-10
 -1        98-1.78852E+05-2.52314E+04-7.64970E+01-6.71431E+04-2.82225E-10 7.65815E-10
 -1        99-1.78909E+05-2.51333E+04-1.16195E+02-6.70801E+04 2.10505E-10-4.22709E-10
 -1       100-1.78922E+05-2.52980E+04-2.77964E+02-6.71081E+04-5.46883E-10-1.87597E-10
 -1       101-1.78852E+05-2.50673E+04-4.76516E+02-6.71048E+04-9.47082E-11 7.44649E-12
 -1       102-1.79279E+05-2.58424E+04-1.27908E+03-6.69801E+04-2.56897E-10 2.42935E-10
 -1       103-1.78551E+05-2.45890E+04-2.05095E+03-6.72079E+04 5.85203E-11 5.84350E-11
 -1       104-1.81375E+05-2.94503E+04-6.06795E+03-6.62711E+04-1.53449E-10 3.99609E-11
 -1       105-1.76757E+05-2.14650E+04-8.75006E+03-6.78120E+04-1.92358E-10-4.53838E-10
 -1       106-9.11208E+04-3.49427E+02 8.12548E+02-1.78933E-08-1.24059E-10 5.73550E-11
 -1       107-9.07606E+04 4.04647E+02 5.73838E+02-3.04638E-08-1.43267E-11 8.31527E-10
 -1       108-9.09851E+04-5.44863E+01 2.09425E+02-2.01892E-08-3.31440E-11 1.63141E-11
 -1       109-9.09188E+04 6.29263E+01 1.29921E+02-4.56274E-09-1.07878E-11-5.30338E-10
 -1       110-9.09627E+04-8.33624E+00 4.99025E+01-6.10775E-09-2.73402E-11 8.35030E-11
 -1       111-9.09455E+04 8.79518E+00 2.32393E+01-1.93789E-08-5.05944E-11 7.37105E-10
 -1       112-9.09584E+04-4.45715E-01-1.11927E+00-1.17932E-08-4.13549E-11-6.02132E-11
 -1       113-9.09532E+04-4.99966E+00-2.46957E+01-1.67341E-08 1.23888E-11-4.61355E-11
 -1       114-9.09550E+04 5.44068E+00-5.49553E+01-1.01014E-08-8.34452E-13-2.03208E-10
 -1       115-9.09729E+04-4.20416E+01-1.32276E+02-2.16594E-08-1.12900E-11-2.04800E-10
 -1       116-9.09387E+04 3.65427E+01-2.30529E+02 4.56845E-11-4.40113E-11 3.94067E-10
 -1       117-9.10857E+04-2.72483E+02-5.69105E+02 3.60009E-09-3.61964E-11 2.64322E-10
 -1       118-9.08423E+04 2.35491E+02-9.08504E+02-1.03518E-08-8.68517E-11 2.32774E-10
 -1       119-9.17686E+04-1.74840E+03-2.48114E+03-7.50713E-09-6.31471E-11 2.33996E-10
 -1       120-9.02558E+04 1.50977E+03-3.51133E+03-2.30170E-08-7.97157E-12 3.95630E-11
 -1       121-1.42047E+02-9.35898E+04 6.37981E+02 8.55539E+02-2.30216E-12 2.24986E-10
 -1       122 2.08683E+02-9.33469E+04 4.66584E+02 3.37793E+03-1.76357E-11-1.14440E-10
 -1       123-2.80457E+01-9.35073E+04 2.99343E+02 8.58906E+02-3.10223E-11-7.12078E-10
 -1       124 1.94889E+02-9.33537E+04 4.42831E+02 3.36367E+03-3.47455E-11-2.72848E-12
 -1       125-1.31903E+02-9.35814E+04 5.92703E+02 8.69800E+02-7.33280E-11 5.61158E-10
 -1       126-8.33918E+04-1.18892E+04 4.31819E+02-3.11897E+04 1.76806E-06-6.62694E-07
 -1       127-8.31288E+04-1.15206E+04 2.99299E+02-3.12931E+04 3.50600E-06-1.31410E-06
 -1       128-8.33043E+04-1.17338E+04 1.00755E+02-3.12181E+04 1.75398E-06-6.57518E-07
 -1       129-8.32305E+04-1.17007E+04 6.20282E+01-3.12603E+04-2.75651E-08 9.62661E-09
 -1       130-8.32901E+04-1.17094E+04 2.13152E+01-3.12224E+04-2.39964E-06 8.99589E-07
 -1       131-8.32480E+04-1.17291E+04 8.60544E+00-3.12547E+04-4.75065E-06 1.78168E-06
 -1       132-8.32868E+04-1.17054E+04-3.99385E+00-3.12237E+04-2.38824E-06 8.95661E-07
 -1       133-8.32562E+04-1.17367E+04-1.95283E+01-3.12509E+04-1.55857E-08 5.52459E-09
 -1       134-8.32819E+04-1.17019E+04-3.98329E+01-3.12263E+04-1.88711E-10 4.30664E-10
 -1       135-8.32808E+04-1.17672E+04-1.02569E+02-3.12412E+04 1.18223E-10 8.92229E-11
 -1       136-8.32623E+04-1.16750E+04-1.78426E+02-3.12334E+04-4.41290E-10-2.31410E-10
 -1       137-8.34110E+04-1.19769E+04-4.80814E+02-3.11981E+04 4.11026E-10-4.55231E-10
 -1       138-8.31518E+04-1.14925E+04-7.71438E+02-3.12692E+04-1.82268E-10 2.34763E-11
 -1       139-8.41954E+04-1.33381E+04-2.28266E+03-3.09360E+04 2.92445E-10-3.52543E-10
 -1       140-8.24782E+04-1.03157E+04-3.29162E+03-3.14947E+04-1.60867E-11-1.05501E-10
 -1       141-4.11612E+04-3.90648E+02 9.08232E+02-2.19718E-08 3.18291E-11-5.99130E-11
 -1       142-4.07641E+04 4.52358E+02 6.41076E+02-1.12470E-09-1.20195E-11 2.28518E-10
 -1       143-4.10094E+04-6.08942E+01 2.33180E+02-1.92841E-08 4.98256E-11 6.20162E-11
 -1       144-4.09410E+04 7.01926E+01 1.43218E+02 9.25081E-09-4.78551E-11-5.81636E-10
 -1       145-4.09843E+04-9.18189E+00 5.18829E+01 3.46784E-09 3.90534E-11-2.17248E-10
 -1       146-4.09715E+04 8.77355E+00 1.76285E+01-1.12120E-08-3.45618E-11-1.86700E-10
 -1       147-4.09790E+04 4.22931E-01-1.69251E+01-5.62928E-09 4.58164E-12-1.83057E-10
 -1       148-4.09836E+04-1.25617E+01-6.20537E+01-5.04858E-09 8.18026E-12 4.80682E-11
 -1       149-4.09721E+04 1.21268E+01-1.23977E+02 3.05219E-08 4.65863E-12 6.28333E-11
 -1       150-4.10261E+04-9.23055E+01-2.91605E+02 1.87766E-08-1.33031E-11-2.81801E-10
 -1       151-4.09365E+04 8.00516E+01-5.05734E+02-6.46349E-09 2.08761E-11 2.10406E-10
 -1       152-4.12728E+04-5.96698E+02-1.24672E+03 1.62181E-08 1.39034E-11 3.68118E-10
 -1       153-4.07255E+04 5.15667E+02-1.98969E+03 7.48972E-09 1.58294E-10-2.29534E-10
 -1       154-4.27682E+04-3.82856E+03-5.43323E+03 2.85696E-09 6.46942E-11 8.49809E-11
 -1       155-3.94411E+04 3.30598E+03-7.68892E+03-1.76903E-08 3.64971E-10-2.56478E-10
 -1       156-1.26701E+03-1.92781E+04 3.03920E+03-4.97356E+01-6.93490E-12-4.01358E-10
 -1       157 1.68119E+03-1.78917E+04 2.53025E+03 2.10331E+02-2.03215E-11-4.71972E-10
 -1       158-4.11181E+02-1.88891E+04 1.56730E+03-4.94104E+01 1.23350E-11 9.68203E-12
 -1       159 1.84723E+03-1.78145E+04 2.74732E+03 2.08622E+02 3.23723E-11 2.63405E-10
 -1       160-1.43276E+03-1.93552E+04 3.41297E+03-4.80272E+01 1.02546E-10 1.93646E-10
 -1       161-4.67911E+04-6.50625E+03-1.81598E+02-1.75737E+04-2.35113E-07 8.75336E-08
 -1       162-4.68690E+04-6.68535E+03-1.26366E+02-1.75565E+04-4.70298E-07 1.76774E-07
 -1       163-4.68282E+04-6.57105E+03-4.37203E+01-1.75613E+04-1.37299E-06 5.14941E-07
 -1       164-4.68264E+04-6.61023E+03-2.92462E+01-1.75704E+04-2.27821E-06 8.54399E-07
 -1       165-4.68337E+04-6.58125E+03-1.52218E+01-1.75599E+04-3.26803E-06 1.22519E-06
 -1       166-4.68216E+04-6.59983E+03-1.80989E+01-1.75715E+04-4.26122E-06 1.59777E-06
 -1       167-4.68331E+04-6.58144E+03-2.58551E+01-1.75602E+04-5.21841E-06 1.95630E-06
 -1       168-4.68298E+04-6.61030E+03-5.76757E+01-1.75691E+04-6.15590E-06 2.30896E-06
 -1       169-4.68255E+04-6.57079E+03-1.03708E+02-1.75623E+04-3.08945E-06 1.15833E-06
 -1       170-4.68825E+04-6.69265E+03-2.59568E+02-1.75538E+04-1.93189E-08 7.51146E-09
 -1       171-4.67804E+04-6.49919E+03-4.49086E+02-1.75754E+04-9.67511E-10 7.72246E-10
 -1       172-4.72004E+04-7.22802E+03-1.20835E+03-1.74558E+04 1.06425E-09 2.19202E-10
 -1       173-4.65077E+04-6.03617E+03-1.93825E+03-1.76601E+04-8.30426E-10 2.14413E-10
 -1       174-4.91596E+04-1.06590E+04-5.73451E+03-1.68104E+04 1.79625E-11 1.78602E-10
 -1       175-4.48220E+04-3.07330E+03-8.26903E+03-1.82189E+04-5.63432E-10 2.48292E-10
 -1       191 1.34185E+02 4.78718E+04 2.15576E+02-1.24459E+03-2.22826E-11 1.67574E-10
 -1       192 4.99715E+01 4.79024E+04 1.28967E+02-1.33425E+03 2.61764E-11 1.34150E-11
 -1       193 2.41356E+01 4.78826E+04 1.03926E+02-1.22331E+03-6.84679E-11 1.06638E-10
 -1       194 6.51772E+01 4.79075E+04 1.57151E+02-1.37411E+03 3.27134E-11-2.38117E-10
 -1       195 1.81827E+02 4.78663E+04 2.85623E+02-1.20472E+03-1.00044E-10-1.71781E-10
 -1       251-2.21940E+05 5.14008E+03-1.19548E+04-3.87815E+01 1.36367E-10 2.12367E-10
 -1       252-2.27090E+05-5.95151E+03-8.44716E+03-1.56114E+02 1.41377E-10-2.83308E-10
 -1       253-2.23936E+05 8.02300E+02-3.09662E+03 3.38611E+01 1.11186E-10 1.30058E-10
 -1       254-2.24768E+05-9.27938E+02-1.94451E+03-2.87117E+02 2.29073E-10 8.24144E-10
 -1       255-2.24263E+05 1.24961E+02-8.00206E+02 9.22238E+01-5.47047E-11 1.12237E-10
 -1       256-2.24389E+05-1.47227E+02-4.82699E+02-3.81468E+02-2.87947E-12-3.24306E-10
 -1       257-2.24315E+05 2.23547E+01-2.48360E+02 1.28214E+02 2.78204E-11 5.77742E-11
 -1       258-2.24336E+05-4.37841E+01-2.18671E+02-4.25577E+02 2.15610E-10-1.61110E-10
 -1       259-2.24315E+05 2.26736E+01-2.48431E+02 1.36335E+02-2.05143E-10-3.78009E-12
 -1       260-2.24389E+05-1.46997E+02-4.83336E+02-4.12765E+02-2.58460E-10 2.81872E-11
 -1       261-2.24262E+05 1.25335E+02-8.01224E+02 1.15402E+02 2.61531E-10 1.66665E-10
 -1       262-2.24770E+05-9.29646E+02-1.94782E+03-3.44926E+02-1.11071E-10 1.37334E-10
 -1       263-2.23935E+05 8.02990E+02-3.10151E+03 6.84928E+01-2.21842E-10-1.88379E-10
 -1       264-2.27096E+05-5.96153E+03-8.46062E+03-2.31741E+02-2.98606E-10 1.24146E-10
 -1       265-2.21937E+05 5.14780E+03-1.19733E+04 2.21641E+00-3.54685E-10-2.98769E-10
 -1       266-1.93399E+03-3.86547E+04 4.40592E+03 6.58828E+02 1.36424E-12-3.69354E-10
 -1       267 2.06007E+03-3.67650E+04 2.78896E+03-2.71942E+03-9.09495E-12 4.55078E-10
 -1       268-1.20920E+02-3.77986E+04 4.61235E+02 6.76447E+02 6.82121E-13 6.28990E-11
 -1       269-1.01432E+03-3.81949E+04-1.23038E+03-2.72491E+03-2.75691E-12 3.41483E-10
 -1       270 1.13500E+03-3.72253E+04-2.51451E+03 6.64323E+02 2.27374E-13 4.64965E-10
 -1       271-3.35657E+05-4.21481E+04-2.60198E+04-1.29650E+05-4.13820E-11 5.65706E-10
 -1       272-3.43927E+05-6.00200E+04-1.64212E+04-1.30718E+05-3.67208E-11-2.72848E-11
 -1       273-3.40165E+05-4.80613E+04-6.14142E+03-1.28983E+05-1.20579E-11 4.91127E-11
 -1       274-3.38734E+05-5.23471E+04-3.37739E+03-1.31878E+05 5.55360E-11-5.82077E-11
 -1       275-3.40692E+05-4.86863E+04-1.42994E+03-1.28916E+05-2.96723E-11-3.23553E-10
 -1       276-3.38125E+05-5.15572E+04-7.59276E+02-1.31993E+05 2.63185E-11-6.77289E-10
 -1       277-3.40761E+05-4.87487E+04-3.90276E+02-1.28906E+05-3.87104E-11 1.35088E-10
 -1       278-3.38053E+05-5.14885E+04-3.08712E+02-1.32009E+05 1.23521E-10 1.34925E-10
 -1       279-3.40763E+05-4.87475E+04-3.71248E+02-1.28905E+05-1.92593E-11 5.10454E-11
 -1       280-3.38114E+05-5.15564E+04-7.06943E+02-1.32002E+05-1.65784E-10 4.09273E-10
 -1       281-3.40701E+05-4.86872E+04-1.32329E+03-1.28911E+05 3.55271E-11-1.52681E-10
 -1       282-3.38673E+05-5.22902E+04-3.12197E+03-1.31900E+05 2.81943E-11-5.78950E-10
 -1       283-3.40217E+05-4.81081E+04-5.67448E+03-1.28970E+05 3.50155E-11 8.41283E-12
 -1       284-3.43466E+05-5.93840E+04-1.51725E+04-1.30834E+05 9.02673E-11-2.53976E-10
 -1       285-3.36054E+05-4.26417E+04-2.40402E+04-1.29583E+05 1.13687E-12-1.34605E-10
 -1       286-5.83179E+04-1.18641E+03 2.75878E+03 4.25079E+01 1.88294E-10-2.63867E-10
 -1       287-5.71121E+04 1.37392E+03 1.95070E+03-2.36549E+02 1.52376E-10 6.64500E-11
 -1       288-5.78562E+04-1.85068E+02 7.14718E+02 5.72861E+01 5.90177E-11 3.95630E-11
 -1       289-5.76502E+04 2.14289E+02 4.49848E+02-2.62056E+02-2.17897E-11-1.53506E-10
 -1       290-5.77799E+04-2.88744E+01 1.85548E+02 6.80162E+01 3.91349E-11 2.10910E-10
 -1       291-5.77392E+04 3.42651E+01 1.13682E+02-2.78980E+02 3.21676E-11 2.42576E-10
 -1       292-5.77673E+04-5.32598E+00 6.12476E+01 7.42109E+01 7.50831E-11-1.27278E-10
 -1       293-5.77512E+04 1.20097E+01 5.91504E+01-2.86572E+02 6.56915E-11-3.19686E-10
 -1       294-5.77680E+04-6.59918E+00 7.30217E+01 7.56078E+01 2.07056E-10-2.68088E-10
 -1       295-5.77336E+04 4.53862E+01 1.47559E+02-2.84500E+02 6.34823E-11 5.69145E-11
 -1       296-5.77849E+04-3.86583E+01 2.46813E+02 7.21390E+01 1.05015E-10 1.29887E-11
 -1       297-5.76145E+04 2.87496E+02 6.02279E+02-2.72860E+02 1.25372E-10 1.29205E-10
 -1       298-5.78870E+04-2.48365E+02 9.58793E+02 6.39675E+01-8.76810E-12 1.30342E-10
 -1       299-5.68931E+04 1.84378E+03 2.61727E+03-2.52210E+02 3.45395E-11-1.43785E-10
 -1       300-5.85062E+04-1.59214E+03 3.70264E+03 5.14881E+01 4.31974E-11-1.15733E-10
 -1       301 4.59975E+03 2.48577E+03 1.00855E+04-3.13710E+03 2.65118E-10-3.52358E-11
 -1       302 1.54840E+03 4.37409E+03 6.12176E+03-3.67515E+03 2.11230E-10 1.54695E-10
 -1       303 4.26333E+02 3.16144E+03 4.81866E+03-3.13482E+03 2.72280E-10-1.07960E-10
 -1       304 1.90384E+03 4.58244E+03 7.06833E+03-3.67210E+03 1.63482E-10 2.76941E-10
 -1       305 5.75234E+03 2.27759E+03 1.23817E+04-3.13990E+03 2.67846E-10 2.67391E-10
 -1       306-2.31225E+05-2.99215E+04-1.55228E+04-8.95203E+04 3.63798E-11-3.11047E-10
 -1       307-2.34801E+05-4.19300E+04-9.79551E+03-9.17038E+04-3.95062E-12 5.82077E-11
 -1       308-2.33919E+05-3.34413E+04-3.66446E+03-8.91159E+04 3.56977E-11 6.59384E-11
 -1       309-2.31699E+05-3.73604E+04-2.01605E+03-9.24047E+04-8.51514E-11-8.83063E-11
 -1       310-2.34235E+05-3.38128E+04-8.55673E+02-8.90755E+04 7.96945E-11 6.40057E-11
 -1       311-2.31336E+05-3.68897E+04-4.58463E+02-9.24746E+04 2.96779E-10 7.18686E-10
 -1       312-2.34275E+05-3.38503E+04-2.44122E+02-8.90702E+04 9.70601E-11 1.18565E-10
 -1       313-2.31297E+05-3.68483E+04-2.08840E+02-9.24819E+04 4.00060E-10 1.67404E-10
 -1       314-2.34274E+05-3.38496E+04-2.71218E+02-8.90703E+04 1.52653E-10 1.68797E-10
 -1       315-2.31347E+05-3.68994E+04-5.33518E+02-9.24735E+04-5.88898E-11 1.37987E-10
 -1       316-2.34225E+05-3.38045E+04-1.00731E+03-8.90761E+04 4.99540E-10 1.57576E-09
 -1       317-2.31775E+05-3.74576E+04-2.38137E+03-9.23930E+04-9.30243E-11 1.13857E-10
 -1       318-2.33853E+05-3.33642E+04-4.33022E+03-8.91225E+04-9.40759E-12 2.75122E-10
 -1       319-2.35439E+05-4.28636E+04-1.15783E+04-9.15704E+04-5.76534E-11-1.32786E-10
 -1       320-2.30671E+05-2.91997E+04-1.83468E+04-8.95965E+04 2.41016E-11 2.45564E-11
 -1       321-5.37104E+04-1.77763E+03 4.13439E+03 1.84654E+01-1.32550E-10 1.41426E-10
 -1       322-5.19134E+04 2.05862E+03 2.92166E+03-1.10998E+02-2.37209E-10-1.06979E-10
 -1       323-5.30197E+04-2.77277E+02 1.06997E+03 2.51665E+01-2.86899E-11 1.38073E-10
 -1       324-5.27179E+04 3.20869E+02 6.70830E+02-1.22800E+02 7.83373E-12-9.16316E-11
 -1       325-5.29061E+04-4.30705E+01 2.72663E+02 3.02679E+01-1.81171E-11 7.39817E-11
 -1       326-5.28507E+04 4.98370E+01 1.58463E+02-1.31053E+02 1.85931E-11 6.58193E-11
 -1       327-5.28870E+04-6.69678E+00 6.97273E+01 3.34205E+01-4.49845E-11 3.37028E-10
 -1       328-5.28730E+04 8.12744E+00 4.01257E+01-1.35312E+02 4.27084E-11-1.08801E-10
 -1       329-5.28838E+04-1.40441E+00 2.13653E+01 3.45264E+01 7.93712E-12-1.47010E-10
 -1       330-5.28755E+04 4.17302E+00 1.87081E+01-1.35426E+02-8.25279E-11 2.06408E-10
 -1       331-5.28844E+04-2.74506E+00 2.07271E+01 3.35350E+01-9.29035E-12-2.75312E-10
 -1       332-5.28681E+04 1.95329E+01 4.27277E+01-1.31391E+02-2.30180E-11-1.38138E-11
 -1       333-5.28912E+04-1.67540E+01 6.55788E+01 3.04911E+01-5.03153E-12 2.17426E-12
 -1       334-5.28194E+04 1.24246E+02 1.76867E+02-1.23362E+02 1.21823E-11 5.36442E-11
 -1       335-5.29331E+04-1.07275E+02 2.49570E+02 2.55058E+01-6.06528E-11-1.10560E-11
 -1       336-9.41162E+01-9.48723E+04 2.68937E+02-1.23987E+03-1.24658E-10 1.66381E-10
 -1       337 3.25616E+01-9.47898E+04-1.96986E+02-4.89238E+03-9.49143E-11-3.97108E-10
 -1       338 7.32142E+01-9.47444E+04-7.86177E+02-1.22948E+03-1.62515E-10 1.23237E-10
 -1       339-1.09054E+03-9.54586E+04-2.19005E+03-4.90222E+03-8.82210E-11 5.86546E-10
 -1       340 8.11604E+02-9.42051E+04-3.50081E+03-1.23007E+03-1.36424E-10 4.49288E-10
 -1       341-1.52122E+05-1.89333E+04-6.33929E+03-5.81501E+04-4.24734E-10 1.29603E-10
 -1       342-1.55446E+05-2.47368E+04-4.39673E+03-5.70544E+04-4.21551E-10-4.31442E-10
 -1       343-1.53423E+05-2.11954E+04-1.48794E+03-5.77113E+04 9.73159E-11-1.86219E-10
 -1       344-1.53927E+05-2.21249E+04-9.31099E+02-5.75694E+04-2.63711E-10 1.54500E-10
 -1       345-1.53640E+05-2.15412E+04-3.54152E+02-5.76365E+04 2.36469E-11-6.55405E-10
 -1       346-1.53670E+05-2.17343E+04-2.21803E+02-5.76625E+04 1.35202E-10 9.09637E-11
 -1       347-1.53680E+05-2.15857E+04-1.23135E+02-5.76185E+04 1.28656E-10-1.36087E-10
 -1       348-1.53635E+05-2.17063E+04-1.48491E+02-5.76833E+04 4.88251E-09-2.08202E-09
 -1       349-1.53676E+05-2.15692E+04-2.10573E+02-5.76157E+04 8.03601E-07-3.01291E-07
 -1       350-1.53720E+05-2.18577E+04-4.93224E+02-5.76645E+04 1.59830E-06-5.99135E-07
 -1       351-1.53595E+05-2.14343E+04-8.41738E+02-5.76372E+04 8.03620E-07-3.01015E-07
 -1       352-1.54310E+05-2.28571E+04-2.25652E+03-5.74838E+04 4.96469E-09-2.16099E-09
 -1       353-1.53086E+05-2.05712E+04-3.61730E+03-5.77959E+04-5.82077E-11 1.41426E-10
 -1       354-1.57972E+05-2.92538E+04-1.07008E+04-5.62732E+04 1.66835E-10 8.45830E-11
 -1       355-1.49935E+05-1.50473E+04-1.54295E+04-5.88445E+04 1.92813E-10-2.39197E-10
 -1       356-5.30168E+04-1.03993E+02 2.41428E+02 1.03555E+01 4.81926E-12-6.35367E-11
 -1       357-5.29071E+04 1.20395E+02 1.69867E+02-5.98974E+01-9.00506E-11 3.77776E-10
 -1       358-5.29763E+04-1.61735E+01 6.03651E+01 1.36942E+01-5.87503E-11 3.24956E-10
 -1       359-5.29545E+04 1.84079E+01 3.45517E+01-6.56336E+01 6.39613E-11-2.18397E-10
 -1       360-5.29694E+04-2.20101E+00 6.90374E+00 1.60918E+01-5.77027E-11-6.91376E-11
 -1       361-5.29638E+04 4.65349E-01-1.00441E+01-6.94031E+01-4.12607E-10-3.37717E-10
 -1       362-5.29670E+04 1.74041E+00-3.21673E+01 1.74639E+01-5.38839E-08 1.10413E-10
 -1       363-5.29733E+04-1.56473E+01-7.73039E+01-7.10588E+01-1.07064E-07-2.88475E-10
 -1       364-5.29599E+04 1.38999E+01-1.43365E+02 1.77477E+01-5.39018E-08 2.77723E-10
 -1       365-5.30206E+04-1.04529E+02-3.31263E+02-7.05360E+01-4.01680E-10 1.73259E-10
 -1       366-5.29198E+04 9.04942E+01-5.72316E+02 1.69411E+01-2.76135E-11 2.02107E-10
 -1       367-5.32992E+04-6.74335E+02-1.40926E+03-6.78422E+01 5.13921E-11-1.32445E-11
 -1       368-5.26813E+04 5.82737E+02-2.24864E+03 1.50538E+01 1.42219E-10-1.36879E-10
 -1       369-5.49890E+04-4.32649E+03-6.13990E+03-6.29721E+01-1.74367E-11 7.46923E-11
 -1       370-5.12300E+04 3.73594E+03-8.68892E+03 1.20711E+01 4.21806E-10-2.72848E-12
 -1       371-1.38149E+03-1.94509E+04 3.13925E+03 2.56197E+02 3.23780E-10-1.60835E-10
 -1       372 1.43862E+03-1.81359E+04 1.92436E+03-1.07687E+03 5.35664E-10-3.82094E-11
 -1       373-5.43398E+01-1.88341E+04 2.07355E+02 2.58702E+02 4.96073E-10-1.15438E-10
 -1       374-9.71032E+02-1.92515E+04-1.22533E+03-1.07603E+03 4.88711E-10 8.02629E-11
 -1       375 1.02373E+03-1.83353E+04-2.28673E+03 2.55357E+02 3.09001E-10-1.52021E-11
 -1       376-8.22022E+04-1.02814E+04-3.26438E+03-3.13782E+04 4.79019E-10-2.38060E-10
 -1       377-8.38765E+04-1.33067E+04-2.26423E+03-3.08562E+04-1.05544E-10 7.21059E-11
 -1       378-8.28706E+04-1.14478E+04-7.66565E+02-3.11540E+04 2.44384E-10-6.96332E-11
 -1       379-8.30988E+04-1.19575E+04-4.80262E+02-3.11164E+04 1.86052E-08-6.70324E-09
 -1       380-8.29796E+04-1.16286E+04-1.83829E+02-3.11188E+04 2.85222E-06-1.06931E-06
 -1       381-8.29728E+04-1.17509E+04-1.17568E+02-3.11575E+04 5.66741E-06-2.12561E-06
 -1       382-8.29965E+04-1.16540E+04-6.97062E+01-3.11130E+04 2.10787E-06-7.90479E-07
 -1       383-8.29620E+04-1.17349E+04-9.15698E+01-3.11618E+04-1.46203E-06 5.47909E-07
 -1       384-8.29904E+04-1.16446E+04-1.36055E+02-3.11145E+04-7.44120E-07 2.78248E-07
 -1       385-8.30238E+04-1.18310E+04-3.23349E+02-3.11434E+04-5.08341E-09 2.09637E-09
 -1       386-8.29347E+04-1.15580E+04-5.53531E+02-3.11313E+04 4.27505E-10 8.91021E-11
 -1       387-8.34162E+04-1.24855E+04-1.48511E+03-3.10205E+04-4.17799E-10-3.18892E-11
 -1       388-8.25983E+04-1.09910E+04-2.38102E+03-3.12371E+04-8.83347E-11-1.57684E-10
 -1       389-8.58264E+04-1.66956E+04-7.04352E+03-3.02233E+04-1.10228E-09 6.65182E-10
 -1       390-8.05256E+04-7.35425E+03-1.01563E+04-3.19262E+04-5.25461E-10 2.41926E-10
 -1       406 1.46103E+02 4.72876E+04 3.02193E+02-4.31431E+03-1.50067E-10 6.41194E-11
 -1       407 8.45070E+01 4.73418E+04 3.34514E+02-4.74542E+03 2.21974E-11 2.43517E-10
 -1       408 1.23880E+02 4.72834E+04 5.24323E+02-4.29753E+03-1.78261E-10 2.92516E-10
 -1       409 5.00237E+02 4.74850E+04 1.10870E+03-4.76940E+03 2.89901E-11-1.51744E-10
 -1       410 1.45138E+03 4.71434E+04 2.22612E+03-4.29017E+03-1.99407E-10 4.20528E-10
 -1       466 1.68407E+05-6.78044E+03 1.57714E+04 2.15077E+02-1.10916E-11-3.04681E-10
 -1       467 1.75240E+05 7.85283E+03 1.11494E+04-5.97529E+02-3.00346E-11 1.32786E-10
 -1       468 1.71045E+05-1.05731E+03 4.08791E+03 1.40058E+02-3.47811E-11-1.22100E-10
 -1       469 1.72168E+05 1.22504E+03 2.57271E+03-4.76092E+02-6.38547E-11-1.50067E-10
 -1       470 1.71479E+05-1.65083E+02 1.06537E+03 9.36413E+01 6.14175E-11-3.02975E-11
 -1       471 1.71664E+05 1.96850E+02 6.58242E+02-4.04755E+02-1.81357E-11 3.69049E-10
 -1       472 1.71549E+05-3.13612E+01 3.66621E+02 6.87187E+01 1.10303E-11 4.77982E-11
 -1       473 1.71601E+05 7.59227E+01 3.74080E+02-3.73167E+02-2.75580E-12-3.67598E-10
 -1       474 1.71542E+05-4.38424E+01 4.82657E+02 6.20520E+01-3.75682E-11-3.48308E-11
 -1       475 1.71722E+05 3.06611E+02 9.93051E+02-3.77317E+02 4.27640E-11 6.11067E-11
 -1       476 1.71428E+05-2.61575E+02 1.66932E+03 7.28685E+01 6.61906E-11 2.70347E-10
 -1       477 1.72524E+05 1.94682E+03 4.07711E+03-4.17793E+02 1.32630E-10-6.17320E-11
 -1       478 1.70739E+05-1.68181E+03 6.49481E+03 1.02529E+02 3.62093E-11 5.45697E-12
 -1       479 1.77404E+05 1.24862E+04 1.77242E+04-5.01121E+02 2.12714E-10-3.69937E-10
 -1       480 1.66548E+05-1.07816E+04 2.50808E+04 1.56194E+02 3.77586E-10 5.09317E-11
 -1       481-1.28778E+03 2.62998E+04 3.01692E+03-4.10446E+00 1.56888E-11-7.31966E-11
 -1       482 1.54539E+03 2.76243E+04 2.22647E+03-3.55908E+01-1.88720E-11 4.08229E-10
 -1       483-2.54850E+02 2.67740E+04 9.71142E+02 1.10125E+00-1.62004E-12 2.11424E-10
 -1       484 6.41379E+02 2.72057E+04 1.04480E+03-4.60381E+01 1.68043E-11 3.11866E-11
 -1       485-3.85433E+02 2.67184E+04 9.81249E+02 6.34216E+00 1.36993E-11-1.16279E-10
 -1       486-1.57432E+05-1.63932E+04-1.48249E+04-6.16267E+04-7.77618E-11-3.68345E-10
 -1       487-1.65179E+05-3.00027E+04-1.02795E+04-5.91107E+04-2.62048E-11 1.50408E-10
 -1       488-1.60494E+05-2.16636E+04-3.47636E+03-6.05783E+04-1.01295E-10-1.03000E-10
 -1       489-1.61594E+05-2.39271E+04-2.16870E+03-6.03529E+04-1.49420E-10 7.56586E-11
 -1       490-1.61016E+05-2.24606E+04-8.13265E+02-6.03877E+04 4.48068E-11-3.63229E-11
 -1       491-1.60972E+05-2.30294E+04-4.83135E+02-6.05953E+04-9.85381E-11 1.84230E-10
 -1       492-1.61118E+05-2.25624E+04-2.21054E+02-6.03364E+04 8.03979E-11 5.93161E-11
 -1       493-1.60856E+05-2.29364E+04-1.86883E+02-6.06612E+04 4.69988E-11 1.80110E-10
 -1       494-1.61131E+05-2.25525E+04-1.99385E+02-6.03218E+04 4.89457E-11 6.79847E-11
 -1       495-1.60912E+05-2.30485E+04-4.17319E+02-6.06529E+04-1.87283E-10 2.64322E-12
 -1       496-1.61062E+05-2.24491E+04-6.94126E+02-6.03448E+04 5.01075E-11 7.32712E-11
 -1       497-1.61414E+05-2.38420E+04-1.84775E+03-6.04804E+04-5.00080E-11-1.73458E-10
 -1       498-1.60630E+05-2.17612E+04-2.95896E+03-6.04939E+04-1.51942E-10 1.42450E-10
 -1       499-1.64449E+05-2.90295E+04-8.74906E+03-5.94416E+04-3.00133E-11-2.27374E-11
 -1       500-1.58030E+05-1.72709E+04-1.26158E+04-6.13807E+04-7.45786E-11 2.54204E-10
 -1       501-4.64893E+04-2.53711E+03 5.89996E+03 6.72422E+01 2.17884E-10 3.66072E-11
 -1       502-4.39219E+04 2.93808E+03 4.17039E+03-3.26612E+02 8.71108E-11 1.00954E-10
 -1       503-4.55025E+04-3.95756E+02 1.52692E+03 8.07026E+01 4.79847E-11-2.86946E-10
 -1       504-4.50719E+04 4.57974E+02 9.57990E+02-3.49377E+02-2.06377E-11-1.92131E-11
 -1       505-4.53396E+04-6.14908E+01 3.89710E+02 9.00091E+01 3.84652E-11 9.89360E-11
 -1       506-4.52625E+04 7.13406E+01 2.27584E+02-3.63316E+02-1.02785E-09 1.47860E-10
 -1       507-4.53120E+04-9.69470E+00 1.02106E+02 9.46412E+01-1.69231E-07 3.44329E-11
 -1       508-4.52940E+04 1.27983E+01 6.29491E+01-3.67723E+02-3.36462E-07 2.90124E-10
 -1       509-4.53081E+04-2.99422E+00 4.07947E+01 9.44167E+01-1.69191E-07 9.85692E-11
 -1       510-4.52937E+04 1.34500E+01 5.05138E+01-3.62427E+02-1.09356E-09 3.19969E-10
 -1       511-4.53123E+04-1.03918E+01 7.03611E+01 8.93443E+01 2.48690E-11 2.07358E-10
 -1       512-4.52617E+04 7.60621E+01 1.62044E+02-3.47607E+02 7.84128E-11 1.87582E-10
 -1       513-4.53400E+04-6.55750E+01 2.53909E+02 7.95971E+01-7.53708E-11 3.87104E-11
 -1       514-4.50693E+04 4.86546E+02 6.91829E+02-3.23698E+02-1.92806E-11-4.41389E-10
 -1       515-4.55045E+04-4.20203E+02 9.76232E+02 6.54350E+01-5.78808E-11-2.59377E-10
 -1       516-5.76193E+03 3.53476E+04 1.35697E+04 5.07392E+02-3.91083E-11 3.15779E-10
 -1       517 7.08281E+03 4.13694E+04 1.03153E+04-2.20620E+03-4.54747E-12 9.21645E-10
 -1       518-1.30725E+03 3.73970E+04 4.98379E+03 4.96511E+02-1.81672E-10 4.95052E-10
 -1       519 4.14025E+03 4.00085E+04 6.46915E+03-2.20895E+03 1.07434E-10 1.26178E-10
 -1       520-2.82489E+03 3.67085E+04 6.94250E+03 5.10142E+02-1.42109E-10-1.61215E-10
 -1       521-3.20234E+05-4.08568E+04-2.24536E+04-1.23594E+05 8.86757E-11-3.71983E-10
 -1       522-3.26727E+05-5.69172E+04-1.41700E+04-1.25248E+05-4.02309E-11-2.59206E-10
 -1       523-3.24126E+05-4.59565E+04-5.29963E+03-1.23016E+05-4.14246E-12-1.78261E-10
 -1       524-3.22244E+05-5.02989E+04-2.91473E+03-1.26252E+05-1.14596E-10-1.40403E-10
 -1       525-3.24581E+05-4.64954E+04-1.23424E+03-1.22958E+05 5.47402E-11-8.62883E-11
 -1       526-3.21720E+05-4.96162E+04-6.56046E+02-1.26351E+05 2.51234E-10 4.43379E-10
 -1       527-3.24639E+05-4.65507E+04-3.38428E+02-1.22951E+05 1.15193E-10 1.45050E-10
 -1       528-3.21662E+05-4.95537E+04-2.70083E+02-1.26360E+05 5.73341E-11 2.85837E-10
 -1       529-3.24639E+05-4.65517E+04-3.27770E+02-1.22952E+05 1.68924E-10 1.82496E-10
 -1       530-3.21719E+05-4.96098E+04-6.26684E+02-1.26348E+05-1.79696E-10-1.19485E-10
 -1       531-3.24581E+05-4.65007E+04-1.17451E+03-1.22960E+05-1.48532E-10 1.25965E-10
 -1       532-3.22221E+05-5.02557E+04-2.77140E+03-1.26251E+05-6.82121E-13 6.42331E-12
 -1       533-3.24147E+05-4.59904E+04-5.03764E+03-1.23016E+05-8.60467E-11-1.61663E-10
 -1       534-3.26486E+05-5.65417E+04-1.34693E+04-1.25290E+05 1.46429E-10 5.86624E-11
 -1       535-3.20444E+05-4.11463E+04-2.13426E+04-1.23570E+05-4.27463E-11 2.70120E-10
 -1       536 7.99961E+03-1.38163E+03 5.99159E+03-8.31233E+02 8.10587E-11 1.97360E-10
 -1       537 1.01635E+04 1.87896E+03 3.83672E+03-3.22010E+03-2.70461E-10 3.65787E-10
 -1       538 8.90274E+03-1.42585E+02 1.55180E+03-8.20007E+02-1.63709E-11 6.62794E-11
 -1       539 9.15585E+03 1.84495E+02 8.65299E+02-3.23205E+03 1.26875E-10-3.93911E-10
 -1       540 9.00476E+03-1.56425E+01 3.91641E+02-8.19202E+02 1.91562E-11-2.35048E-10
 -1       541 9.03897E+03 1.78415E+01 2.06236E+02-3.23261E+03-9.22569E-11-4.02352E-10
 -1       542 9.01786E+03-1.90907E+00 9.79189E+01-8.19452E+02-5.45697E-12 7.80602E-11
 -1       543 9.02279E+03 1.85171E+00 5.04607E+01-3.23222E+03-3.14060E-12-1.71809E-11
 -1       544 9.01984E+03-2.04295E-01 2.45838E+01-8.19585E+02-1.77636E-12-1.28040E-10
 -1       545 9.02001E+03 4.62832E-01 1.28524E+01-3.23206E+03-2.43361E-11 2.82533E-10
 -1       546 9.02020E+03-4.00805E-03 6.87383E+00-8.19614E+02-1.96536E-11 1.64462E-10
 -1       547 9.01994E+03 6.04744E-01 4.86976E+00-3.23170E+03 4.22062E-11-2.21931E-10
 -1       548 9.02016E+03-3.48371E-01 4.65049E+00-8.19953E+02-8.70841E-11 2.39609E-10
 -1       549 9.02258E+03 3.86946E+00 8.68213E+00-3.22509E+03 1.13687E-13 3.10507E-10
 -1       550 9.01846E+03-3.17842E+00 1.24978E+01-8.26217E+02-3.50155E-11-2.41727E-11
 -1       551 1.27465E+03-3.14006E+04 3.01997E+03-4.83029E+04 3.62888E-10 2.58069E-10
 -1       552 4.94348E+02-3.08281E+04 2.37068E+03-5.65067E+04 3.07409E-10 3.30147E-10
 -1       553 2.74034E+02-3.12753E+04 2.75927E+03-4.82225E+04 4.12911E-10 1.63766E-10
 -1       554 1.55181E+03-3.02123E+04 5.18252E+03-5.65215E+04 3.91537E-10-2.18279E-11
 -1       555 4.70122E+03-3.20240E+04 9.84110E+03-4.82871E+04 3.20142E-10-2.69665E-10
 -1       556-2.30699E+04-1.22545E+04 1.98939E+03-2.20087E+04 9.34506E-11-3.30601E-10
 -1       557-2.12100E+04-1.42907E+04 9.76120E+02-2.34686E+04 2.00089E-11 2.30841E-10
 -1       558-2.30818E+04-1.29282E+04 4.12718E+02-2.16002E+04-8.04903E-11-1.24714E-10
 -1       559-2.13599E+04-1.46287E+04 2.01475E+02-2.35168E+04 1.06638E-10 1.99321E-10
 -1       560-2.30818E+04-1.29466E+04 9.05744E+01-2.15811E+04 2.81943E-11-1.76186E-10
 -1       561-2.13750E+04-1.46439E+04 4.20288E+01-2.35287E+04-1.18234E-11 9.69109E-11
 -1       562-2.30836E+04-1.29428E+04 1.48461E+01-2.15827E+04 2.59206E-11-2.81375E-12
 -1       563-2.13792E+04-1.46422E+04-2.30393E+00-2.35322E+04-2.91038E-11-3.88241E-10
 -1       564-2.30844E+04-1.29401E+04-2.12406E+01-2.15842E+04-2.45564E-11 2.56421E-10
 -1       565-2.13837E+04-1.46409E+04-5.34871E+01-2.35343E+04-9.83391E-12 1.18689E-10
 -1       566-2.30819E+04-1.29378E+04-1.13505E+02-2.15846E+04 4.64127E-11-4.27349E-10
 -1       567-2.14061E+04-1.46519E+04-2.50801E+02-2.35332E+04-7.92681E-11-2.86832E-10
 -1       568-2.30670E+04-1.29745E+04-5.14733E+02-2.15676E+04-6.60521E-11 5.52518E-11
 -1       569-2.16960E+04-1.49619E+04-1.21453E+03-2.34565E+04 5.91172E-11 1.70758E-10
 -1       570-2.29681E+04-1.39211E+04-2.47759E+03-2.11737E+04-4.11546E-11-1.60640E-10
 -1       571 3.00834E+04 1.49346E+03 2.28613E+03-7.79086E+03 1.85310E-11-6.44320E-11
 -1       572 3.04343E+04 5.10455E+02 1.12282E+03-8.58894E+03 1.20508E-11-3.96341E-10
 -1       573 3.02283E+04 1.14970E+02 4.99546E+02-7.76978E+03-1.97815E-11-1.38982E-10
 -1       574 3.02704E+04 3.58960E+01 2.50738E+02-8.61267E+03-9.20863E-12 4.09671E-10
 -1       575 3.02456E+04 3.19457E+00 1.18631E+02-7.76704E+03 4.88853E-12 7.58860E-11
 -1       576 3.02499E+04-1.14119E-01 6.06010E+01-8.61576E+03 5.11235E-11 4.58726E-11
 -1       577 3.02482E+04-1.85563E+00 3.03272E+01-7.76669E+03 2.43006E-11-1.29205E-10
 -1       578 3.02470E+04-1.14432E+00 1.73543E+01-8.61611E+03 3.16902E-11 1.81331E-10
 -1       579 3.02488E+04-1.17113E+00 1.22606E+01-7.76670E+03-7.42375E-11-6.92353E-11
 -1       580 3.02475E+04-6.73519E-01 1.40306E+01-8.61560E+03 5.32054E-11-1.16245E-10
 -1       581 3.02491E+04-1.93349E-01 2.21758E+01-7.76719E+03-5.50244E-11-2.36639E-10
 -1       582 3.02517E+04 5.30124E+00 4.40690E+01-8.61084E+03-7.07132E-11-2.50054E-10
 -1       583 3.02470E+04 1.86762E+01 8.63830E+01-7.77146E+03-9.61791E-11-7.90408E-11
 -1       584 3.02810E+04 8.65092E+01 1.93453E+02-8.57475E+03-2.43745E-10 2.22428E-10
 -1       585 3.02231E+04 2.55508E+02 3.93436E+02-7.80332E+03 7.27596E-11 1.56888E-11
 -1       586 2.33865E+02 1.20954E+04 4.41817E+02-1.99456E+04 5.34328E-11-4.11546E-11
 -1       587 1.19968E+02 1.21746E+04 4.22302E+02-2.20504E+04 8.12861E-11-1.16415E-10
 -1       588 1.44460E+02 1.20967E+04 6.01958E+02-1.99204E+04 4.43379E-11 1.76385E-10
 -1       589 5.56184E+02 1.23249E+04 1.23461E+03-2.20565E+04 5.96856E-11-6.74589E-11
 -1       590 1.60345E+03 1.19441E+04 2.46050E+03-1.99394E+04 4.87717E-11-1.96621E-10
 -1       591-1.39552E+04-4.83947E+03-2.62368E+03-7.27629E+03-5.08322E-11-6.98037E-11
 -1       592-1.40251E+04-4.52332E+03-1.28611E+03-8.06815E+03-6.54836E-11 4.72369E-11
 -1       593-1.40313E+04-3.86284E+03-5.45669E+02-7.72099E+03-1.73372E-11-3.74598E-11
 -1       594-1.37445E+04-4.16853E+03-2.66951E+02-8.11655E+03-7.25322E-11-1.81109E-10
 -1       595-1.40436E+04-3.82660E+03-1.22953E+02-7.74092E+03-5.22391E-11-2.83720E-11
 -1       596-1.37232E+04-4.15449E+03-6.25057E+01-8.11477E+03-5.03135E-11-2.50409E-10
 -1       597-1.40460E+04-3.82840E+03-3.43025E+01-7.74104E+03 8.36877E-11-1.56490E-10
 -1       598-1.37211E+04-4.15464E+03-2.79522E+01-8.11392E+03 4.28564E-11-2.17085E-10
 -1       599-1.40459E+04-3.82832E+03-3.60851E+01-7.74104E+03-2.93028E-11 6.53415E-11
 -1       600-1.37235E+04-4.15449E+03-6.72555E+01-8.11486E+03-6.56684E-11-1.09253E-10
 -1       601-1.40431E+04-3.82631E+03-1.32991E+02-7.74087E+03-5.07043E-11-1.90482E-10
 -1       602-1.37468E+04-4.16951E+03-2.89289E+02-8.11652E+03-2.93312E-11-2.12594E-11
 -1       603-1.40296E+04-3.86591E+03-5.91431E+02-7.71951E+03-5.53086E-11-1.16017E-10
 -1       604-1.40531E+04-4.55184E+03-1.39407E+03-8.06147E+03-1.21190E-10-3.21279E-10
 -1       605-1.39448E+04-4.92622E+03-2.84379E+03-7.23966E+03 1.47224E-11 1.05047E-10
 -1       606 9.69075E+03-1.18971E+03-1.82067E+03 2.84764E+03-5.39785E-10 2.84786E-11
 -1       607 9.40805E+03-4.06631E+02-8.94134E+02 3.11015E+03-7.91260E-11-1.85636E-10
 -1       608 9.57458E+03-9.15726E+01-3.97739E+02 2.82858E+03 3.71415E-10 2.94904E-10
 -1       609 9.53775E+03-2.83380E+01-1.99456E+02 3.13158E+03-3.40890E-10 1.38868E-10
 -1       610 9.56022E+03-2.26217E+00-9.40696E+01 2.82613E+03-6.68592E-10-3.25286E-10
 -1       611 9.55367E+03 5.39803E-01-4.74220E+01 3.13432E+03-1.17933E-09 2.14413E-10
 -1       612 9.55793E+03 1.80949E+00-2.25352E+01 2.82583E+03-4.51564E-10-8.27924E-11
 -1       613 9.55594E+03 1.29377E+00-1.05144E+01 3.13470E+03-7.40613E-10-2.68841E-10
 -1       614 9.55734E+03 1.00652E+00-3.29550E+00 2.82574E+03-1.74794E-10-1.64306E-10
 -1       615 9.55649E+03 9.85405E-01 2.17803E+00 3.13476E+03 5.04627E-10 2.58638E-10
 -1       616 9.55691E+03 1.12455E+00 8.65372E+00 2.82577E+03-3.78861E-10 1.02574E-10
 -1       617 9.55820E+03 3.95006E+00 2.06621E+01 3.13469E+03 7.82450E-11 1.42080E-10
 -1       618 9.55530E+03 1.06215E+01 4.22935E+01 2.82582E+03-1.06297E-10-4.20641E-11
 -1       619 9.57210E+03 4.44839E+01 9.57072E+01 3.13432E+03 3.68487E-11-2.75975E-11
 -1       620 9.54282E+03 1.28358E+02 1.95161E+02 2.82611E+03 1.19925E-10 8.59757E-11
 -1       621 2.37580E+02 3.13045E+04 5.83777E+02-2.94766E+03 2.53522E-10-8.22240E-11
 -1       622 8.90916E+01 3.14147E+04 4.77099E+02-3.46481E+03 5.92024E-11-6.65352E-11
 -1       623 5.15017E+01 3.13288E+04 5.80050E+02-2.95058E+03 2.43347E-10 1.87754E-10
 -1       624 3.26934E+02 3.15543E+04 1.11068E+03-3.45008E+03 1.16728E-10 2.04864E-10
 -1       625 1.00888E+03 3.11653E+04 2.12063E+03-2.96236E+03 2.16090E-10 2.58410E-10
 -1       626 1.36875E+04 4.48795E+03-8.03519E+02 9.32036E+03-2.40107E-10-1.55296E-10
 -1       627 1.33097E+04 5.06078E+03-3.81315E+02 9.49801E+03-1.41597E-10 2.31708E-11
 -1       628 1.37069E+04 4.88187E+03-1.60144E+02 9.12864E+03-4.47926E-11 3.64992E-10
 -1       629 1.33712E+04 5.22323E+03-7.69430E+01 9.48544E+03-2.27146E-10-1.29715E-10
 -1       630 1.37068E+04 4.90818E+03-3.39175E+01 9.11387E+03-1.12777E-10-3.35781E-10
 -1       631 1.33766E+04 5.23467E+03-1.52366E+01 9.48636E+03-4.46903E-10-4.12975E-10
 -1       632 1.37061E+04 4.90859E+03-4.28371E+00 9.11305E+03-3.77781E-10-3.08191E-10
 -1       633 1.33775E+04 5.23493E+03 3.65485E+00 9.48703E+03-1.53960E-10 1.00925E-10
 -1       634 1.37054E+04 4.90759E+03 1.35229E+01 9.11314E+03 2.72706E-10-1.94433E-10
 -1       635 1.33794E+04 5.23515E+03 3.22890E+01 9.48761E+03-1.83661E-10-2.52783E-10
 -1       636 1.37040E+04 4.90895E+03 6.77522E+01 9.11214E+03-4.52253E-10 1.67915E-10
 -1       637 1.33954E+04 5.25341E+03 1.51655E+02 9.48477E+03-7.84311E-10-6.04814E-11
 -1       638 1.37000E+04 4.96415E+03 3.14476E+02 9.08794E+03-3.37081E-10 4.33715E-11
 -1       639 1.35548E+04 5.53308E+03 7.48388E+02 9.41617E+03-1.01352E-09-4.33033E-10
 -1       640 1.37057E+04 5.77263E+03 1.57746E+03 8.75197E+03-2.98201E-10 6.89511E-11
 -1       641 9.52798E+01 2.95618E+02-6.87519E+02-1.62800E+01-6.46600E-10-2.23281E-10
 -1       642-2.02286E+02-3.42324E+02-4.85525E+02 6.89770E+01-7.42550E-10 6.19025E-11
 -1       643-1.95285E+01 4.60931E+01-1.77299E+02-1.62686E+01-6.95763E-10-2.78597E-10
 -1       644-6.85767E+01-5.32294E+01-1.10102E+02 6.89716E+01 4.25184E-10 4.90257E-11
 -1       645-3.84383E+01 7.06001E+00-4.25881E+01-1.62746E+01 3.89168E-10 6.63647E-12
 -1       646-4.61390E+01-7.51384E+00-2.04269E+01 6.89756E+01-3.76744E-09 3.26943E-11
 -1       647-4.19699E+01 4.56364E-01-4.90870E-01-1.62727E+01-4.11139E-07-4.75353E-11
 -1       648-3.99609E+01 3.61521E+00 1.77370E+01 6.89741E+01-8.17208E-07 3.82894E-10
 -1       649-4.46175E+01-4.05374E+00 4.07643E+01-1.62731E+01-4.10709E-07-9.67635E-11
 -1       650-2.50847E+01 3.14367E+01 9.87429E+01 6.89683E+01-1.44929E-09 2.82441E-11
 -1       651-5.68452E+01-2.73258E+01 1.72302E+02-1.62669E+01 4.12497E-10-1.59943E-10
 -1       652 5.92746E+01 2.03757E+02 4.25529E+02 6.89513E+01 7.13988E-10-1.56220E-10
 -1       653-1.28974E+02-1.76084E+02 6.79316E+02-1.62562E+01 4.85389E-10-3.32420E-10
 -1       654 5.70011E+02 1.30732E+03 1.85525E+03 6.88853E+01-7.78074E-10 2.09923E-10
 -1       655-5.67575E+02-1.12887E+03 2.62555E+03-1.62011E+01 9.17145E-10-3.22643E-10
 -1       656 9.42437E+02-3.58340E+04-4.23253E+03 9.90520E+02 1.01249E-09-5.12728E-11
 -1       657-1.38500E+03-3.73806E+04-3.08312E+03 3.86785E+03 8.15817E-10 8.02203E-11
 -1       658 1.81242E+02-3.63831E+04-1.95893E+03 9.85164E+02 8.95657E-10 7.88702E-11
 -1       659-1.26199E+03-3.73078E+04-2.86509E+03 3.87056E+03 8.84228E-10 1.46019E-10
 -1       660 8.43598E+02-3.59071E+04-3.82003E+03 9.87820E+02 7.62384E-10-1.87470E-10
 -1       661 3.53699E+04 4.48482E+03 2.89517E+03 1.37816E+04 3.22103E-10-4.59522E-10
 -1       662 3.60546E+04 6.70888E+03 1.82719E+03 1.41710E+04-1.75401E-10-5.62750E-11
 -1       663 3.58702E+04 5.14395E+03 6.83676E+02 1.37089E+04-9.10845E-11 1.08543E-10
 -1       664 3.54793E+04 5.85291E+03 3.76463E+02 1.42968E+04-1.13918E-09 4.47287E-11
 -1       665 3.59274E+04 5.21482E+03 1.60321E+02 1.37030E+04-1.12249E-09-3.65233E-10
 -1       666 3.54136E+04 5.76313E+03 8.71015E+01 1.43071E+04-7.45654E-10-3.19869E-11
 -1       667 3.59342E+04 5.22255E+03 4.86778E+01 1.37028E+04 4.74039E-10 2.83600E-10
 -1       668 3.54073E+04 5.75516E+03 4.58296E+01 1.43076E+04-1.37153E-09-2.26047E-10
 -1       669 3.59336E+04 5.22204E+03 6.43354E+01 1.37028E+04-6.55676E-10-1.53724E-09
 -1       670 3.54191E+04 5.76900E+03 1.30490E+02 1.43069E+04 1.75584E-09 2.62396E-10
 -1       671 3.59226E+04 5.20984E+03 2.48117E+02 1.37031E+04 4.48921E-10-1.97190E-10
 -1       672 3.55223E+04 5.90966E+03 5.87670E+02 1.42908E+04 3.22984E-10 7.91687E-11
 -1       673 3.58329E+04 5.09885E+03 1.06885E+03 1.37123E+04 1.40252E-10-3.90571E-10
 -1       674 3.64217E+04 7.24973E+03 2.85820E+03 1.40952E+04-6.80338E-10-5.35010E-10
 -1       675 3.50511E+04 4.06686E+03 4.52887E+03 1.38249E+04-4.59579E-10 2.33058E-10
 -1       676 9.41286E+01-3.38965E+04-4.90650E+02-5.61996E-01 1.31659E-09-5.16371E-11
 -1       677-1.85927E+02-3.40839E+04-5.32589E+02-1.53684E+01 7.61062E-10 1.43965E-10
 -1       678 5.86161E+01-3.39186E+04-6.32884E+02-5.79055E-01 1.03418E-09-1.59783E-12
 -1       679-6.68758E+02-3.43708E+04-1.38914E+03-1.53227E+01 5.67923E-10 2.15797E-10
 -1       680 4.83085E+02-3.36096E+04-2.11092E+03-6.19932E-01 1.48304E-09-1.45062E-11
 -1       681 5.63198E+04-1.50436E+03 3.49907E+03 5.88670E+01-1.22142E-11-1.22554E-10
 -1       682 5.78326E+04 1.74216E+03 2.47366E+03-2.13522E+02 3.36247E-11-4.73506E-11
 -1       683 5.69047E+04-2.34686E+02 9.07489E+02 4.94592E+01 1.17222E-11-2.84217E-11
 -1       684 5.71516E+04 2.71856E+02 5.71971E+02-1.98224E+02-1.14921E-11-1.74232E-10
 -1       685 5.70008E+04-3.67274E+01 2.38845E+02 4.35699E+01-1.86100E-11 6.02824E-11
 -1       686 5.70404E+04 4.43574E+01 1.51347E+02-1.89623E+02-1.60432E-10 8.71410E-11
 -1       687 5.70159E+04-7.56573E+00 9.13595E+01 4.08577E+01-2.54015E-08-9.31486E-11
 -1       688 5.70289E+04 2.12540E+01 1.05014E+02-1.87235E+02-5.04525E-08 3.91980E-11
 -1       689 5.70123E+04-1.36571E+01 1.47084E+02 4.11819E+01-2.53989E-08 3.17542E-11
 -1       690 5.70689E+04 9.69647E+01 3.12329E+02-1.90952E+02-1.77942E-10 1.65034E-10
 -1       691 5.69759E+04-8.31722E+01 5.29101E+02 4.45748E+01 5.14584E-11 4.68390E-11
 -1       692 5.73244E+04 6.18949E+02 1.29549E+03-2.00931E+02 1.19073E-10 5.59766E-11
 -1       693 5.67567E+04-5.34775E+02 2.06454E+03 5.11613E+01-6.33964E-11-1.06525E-10
 -1       694 5.88759E+04 3.97027E+03 5.63536E+03-2.17914E+02-1.15872E-10-2.22826E-11
 -1       695 5.54244E+04-3.42832E+03 7.97414E+03 6.15571E+01 3.76676E-11-1.16415E-10
 -1       696-1.16089E+03 4.77745E+04 2.65783E+03 7.05951E+01 1.00044E-11-8.36780E-11
 -1       697 1.25212E+03 4.88930E+04 1.70854E+03-3.35356E+02 8.07177E-12-2.89929E-11
 -1       698-8.88859E+01 4.82705E+04 3.38794E+02 6.88903E+01-2.11458E-11 1.08243E-10
 -1       699-4.89238E+02 4.80865E+04-5.67699E+02-3.36481E+02-3.19744E-11 3.28137E-10
 -1       700 5.77272E+02 4.85812E+04-1.26324E+03 7.17201E+01-1.87583E-11 9.09326E-11
 -1       701-5.17539E+04-4.71186E+03-6.55988E+03-2.05215E+04-7.44649E-11-1.56433E-10
 -1       702-5.51534E+04-1.07678E+04-4.54932E+03-1.94476E+04-7.08269E-11 9.28253E-11
 -1       703-5.30948E+04-7.05832E+03-1.53854E+03-2.00738E+04-7.92966E-12 1.24317E-10
 -1       704-5.35932E+04-8.05279E+03-9.60480E+02-1.99669E+04-1.62750E-11-1.20707E-10
 -1       705-5.33135E+04-7.42287E+03-3.60376E+02-2.00037E+04-9.43672E-11 2.16147E-11
 -1       706-5.33380E+04-7.63395E+03-2.15220E+02-2.00495E+04-7.19069E-11-5.14433E-11
 -1       707-5.33499E+04-7.47660E+03-1.00158E+02-1.99914E+04 8.62599E-11-5.58842E-12
 -1       708-5.33001E+04-7.58134E+03-8.84568E+01-2.00635E+04 4.11963E-11 3.42730E-11
 -1       709-5.33514E+04-7.47540E+03-9.86681E+01-1.99898E+04 1.50286E-09-5.47487E-10
 -1       710-5.33321E+04-7.63728E+03-2.10712E+02-2.00558E+04 2.95070E-09-1.07536E-09
 -1       711-5.33179E+04-7.42071E+03-3.52082E+02-1.99991E+04 1.39509E-09-5.46066E-10
 -1       712-5.35773E+04-8.05060E+03-9.38259E+02-1.99802E+04-5.87193E-11 1.92131E-11
 -1       713-5.31063E+04-7.06266E+03-1.50255E+03-2.00652E+04-1.59730E-11 2.38742E-11
 -1       714-5.50968E+04-1.07066E+04-4.44313E+03-1.94780E+04 2.89901E-11-4.54747E-12
 -1       715-5.17990E+04-4.76874E+03-6.40646E+03-2.04998E+04-6.41194E-11 3.09228E-11
 -1       716 1.14921E+04-1.72825E+03 4.01929E+03 8.69241E+01 8.52438E-11-1.14369E-10
 -1       717 1.32387E+04 2.00144E+03 2.84239E+03-3.59511E+02 1.13696E-11-1.84428E-10
 -1       718 1.21648E+04-2.69639E+02 1.04302E+03 8.33242E+01-7.68097E-12 8.69136E-11
 -1       719 1.24550E+04 3.12451E+02 6.58812E+02-3.53695E+02-4.91696E-11 1.88514E-10
 -1       720 1.22756E+04-4.23028E+01 2.77395E+02 8.11076E+01 1.29130E-10 2.79485E-10
 -1       721 1.23270E+04 5.18320E+01 1.80472E+02-3.50529E+02 2.27057E-10 9.11307E-11
 -1       722 1.22928E+04-9.41743E+00 1.17309E+02 8.01582E+01 1.69484E-10-4.29754E-11
 -1       723 1.23164E+04 2.99574E+01 1.47807E+02-3.49861E+02 5.34639E-11-6.40910E-12
 -1       724 1.22862E+04-2.04565E+01 2.18275E+02 8.04396E+01 1.36719E-10-4.64908E-11
 -1       725 1.23790E+04 1.47162E+02 4.72263E+02-3.51670E+02 1.14385E-10 9.12337E-11
 -1       726 1.22302E+04-1.26470E+02 8.03346E+02 8.19681E+01 8.43627E-11-4.06430E-11
 -1       727 1.27689E+04 9.41475E+02 1.97012E+03-3.56052E+02 1.44688E-10 1.93836E-10
 -1       728 1.18963E+04-8.13487E+02 3.13977E+03 8.48213E+01 6.42792E-11 2.22826E-11
 -1       729 1.51305E+04 6.03938E+03 8.57244E+03-3.63765E+02 2.44054E-11 1.04251E-10
 -1       730 9.86890E+03-5.21507E+03 1.21294E+04 8.96796E+01 1.21727E-10-8.36735E-11
 -1       731-2.07766E+03 2.04143E+04 4.84377E+03 9.51891E+01-5.38876E-11-6.18021E-11
 -1       732 2.43840E+03 2.25216E+04 3.47552E+03-4.22603E+02 1.93268E-11-5.56755E-11
 -1       733-3.56259E+02 2.12059E+04 1.35792E+03 9.59369E+01-6.19593E-11 1.15488E-10
 -1       734 6.18870E+02 2.16799E+04 1.09722E+03-4.26602E+02 1.22640E-11 1.72870E-10
 -1       735-2.61511E+02 2.12562E+04 7.46237E+02 9.91871E+01-6.59597E-11 1.24958E-10
 -1       736-1.17384E+05-1.31423E+04-8.64199E+03-4.55075E+04-9.68612E-11 2.00089E-11
 -1       737-1.21895E+05-2.10818E+04-5.99289E+03-4.40476E+04 9.42748E-11-2.03556E-10
 -1       738-1.19158E+05-1.62251E+04-2.02658E+03-4.49081E+04 8.30482E-11 6.05951E-11
 -1       739-1.19823E+05-1.75215E+04-1.26488E+03-4.47506E+04-8.63736E-11 1.47381E-10
 -1       740-1.19455E+05-1.66974E+04-4.74268E+02-4.48064E+04 6.78995E-11 1.79085E-10
 -1       741-1.19473E+05-1.69838E+04-2.82407E+02-4.48754E+04 1.34342E-10-3.29017E-11
 -1       742-1.19509E+05-1.67627E+04-1.30054E+02-4.47836E+04 6.02007E-11 3.54206E-12
 -1       743-1.19413E+05-1.69225E+04-1.11866E+02-4.49044E+04 4.49454E-10-8.10925E-11
 -1       744-1.19514E+05-1.67585E+04-1.21533E+02-4.47774E+04 8.15944E-08-3.09025E-08
 -1       745-1.19447E+05-1.69938E+04-2.56397E+02-4.49006E+04 1.62586E-07-6.13471E-08
 -1       746-1.19475E+05-1.66912E+04-4.27199E+02-4.47874E+04 8.17520E-08-3.06663E-08
 -1       747-1.19746E+05-1.74930E+04-1.13765E+03-4.48070E+04 4.35193E-10-1.40872E-10
 -1       748-1.19216E+05-1.62600E+04-1.82164E+03-4.48708E+04-1.01181E-10-9.83391E-11
 -1       749-1.21597E+05-2.07048E+04-5.38680E+03-4.41885E+04-2.41016E-11-6.09361E-11
 -1       750-1.17626E+05-1.34845E+04-7.76724E+03-4.54042E+04-5.87761E-11 6.68479E-11
 -1       751 2.72227E+05-1.53662E+04 3.57512E+04 1.55548E+02-1.97194E-09 6.18456E-11
 -1       752 2.87690E+05 1.77969E+04 2.52631E+04-3.35521E+02-6.19342E-10-1.65528E-10
 -1       753 2.78199E+05-2.39641E+03 9.25926E+03 9.05165E+01-4.27889E-11 4.22915E-11
 -1       754 2.80739E+05 2.77532E+03 5.81331E+03-2.31856E+02 1.03327E-10 6.37783E-11
 -1       755 2.79180E+05-3.72978E+02 2.38297E+03 5.18880E+01 8.28146E-11-1.43018E-10
 -1       756 2.79596E+05 4.37476E+02 1.42251E+03-1.71208E+02-1.69531E-11-4.80895E-11
 -1       757 2.79341E+05-6.36691E+01 7.01142E+02 2.98678E+01 1.33214E-10 5.11591E-11
 -1       758 2.79427E+05 1.13843E+02 5.62266E+02-1.39218E+02-2.94593E-10-8.55689E-11
 -1       759 2.79350E+05-4.97215E+01 5.75542E+02 1.98984E+01 1.91091E-09-1.12664E-10
 -1       760 2.79532E+05 3.19222E+02 1.05955E+03-1.29302E+02 3.77060E-09 1.47566E-10
 -1       761 2.79237E+05-2.68124E+02 1.72842E+03 1.99527E+01 2.01874E-09 2.03499E-10
 -1       762 2.80348E+05 1.99260E+03 4.18152E+03-1.39462E+02 4.53038E-10 2.98826E-10
 -1       763 2.78533E+05-1.72031E+03 6.64979E+03 3.00585E+01 6.57346E-10 3.95630E-10
 -1       764 2.85335E+05 1.27726E+04 1.81333E+04-1.72134E+02 3.21240E-10 3.21961E-10
 -1       765 2.74247E+05-1.10287E+04 2.56588E+04 5.26239E+01-1.85130E-10-1.63709E-10
 -1       766-6.63873E+03 4.47967E+04 1.56642E+04-1.50550E+01-4.59295E-10 4.81126E-11
 -1       767 8.21485E+03 5.17487E+04 1.20018E+04 3.43411E+00-2.39879E-11 1.02901E-10
 -1       768-1.56134E+03 4.71219E+04 5.95148E+03-5.64362E+00-3.11502E-10 2.73808E-11
 -1       769 5.18304E+03 5.03443E+04 8.03868E+03-1.47091E+01-7.13953E-11 7.55511E-11
 -1       770-3.61253E+03 4.62010E+04 8.83675E+03 3.08573E+00-1.45519E-10 3.69392E-10
 -1       771-1.51288E+05-3.05855E+04-5.40802E+03-6.54399E+04-1.39721E-10-1.11868E-10
 -1       772-1.50918E+05-3.04298E+04-2.65004E+03-6.76391E+04 2.30466E-09 7.24992E-09
 -1       773-1.51483E+05-2.85359E+04-1.12504E+03-6.63173E+04-1.67347E-10 6.38920E-11
 -1       774-1.50305E+05-2.97377E+04-5.49923E+02-6.77871E+04 1.78943E-10-2.00089E-10
 -1       775-1.51514E+05-2.84554E+04-2.53231E+02-6.63558E+04 3.72893E-11-6.02540E-11
 -1       776-1.50260E+05-2.97118E+04-1.28205E+02-6.77903E+04 9.59517E-11-2.23295E-10
 -1       777-1.51522E+05-2.84577E+04-6.95069E+01-6.63571E+04 1.02318E-11-1.67077E-10
 -1       778-1.50257E+05-2.97114E+04-5.45403E+01-6.77906E+04-5.41149E-11-1.49004E-10
 -1       779-1.51524E+05-2.84568E+04-6.85230E+01-6.63580E+04-9.77707E-12-7.65112E-11
 -1       780-1.50263E+05-2.97109E+04-1.25657E+02-6.77937E+04 3.63798E-11-1.04023E-11
 -1       781-1.51520E+05-2.84523E+04-2.47834E+02-6.63581E+04 9.20863E-11 3.60956E-11
 -1       782-1.50307E+05-2.97391E+04-5.38548E+02-6.77979E+04 1.79057E-11-1.91562E-11
 -1       783-1.51495E+05-2.85254E+04-1.10094E+03-6.63182E+04-7.91971E-11-9.24274E-11
 -1       784-1.50874E+05-3.04543E+04-2.59528E+03-6.76992E+04 3.06173E-11 1.93268E-11
 -1       785-1.51340E+05-3.04966E+04-5.29418E+03-6.54216E+04 1.37561E-11 1.81899E-12
 -1       786 2.89950E+04-8.52623E+02 3.70165E+03-2.10007E+02 1.04450E-11 1.43245E-10
 -1       787 3.03277E+04 1.16142E+03 2.37022E+03-8.19561E+02-2.55511E-11 6.44604E-11
 -1       788 2.95531E+04-8.76004E+01 9.59232E+02-2.08053E+02-2.49116E-11-1.14767E-10
 -1       789 2.97064E+04 1.14367E+02 5.35352E+02-8.21509E+02 1.41824E-11-8.35954E-11
 -1       790 2.96163E+04-9.44305E+00 2.43743E+02-2.08051E+02 2.12808E-11-1.07150E-11
 -1       791 2.96351E+04 1.11561E+01 1.30871E+02-8.21483E+02 2.95355E-11 2.45663E-10
 -1       792 2.96244E+04-1.18986E+00 6.73896E+01-2.08079E+02 3.12994E-11-9.64917E-11
 -1       793 2.96263E+04 1.51759E+00 4.53341E+01-8.21470E+02-5.40190E-11 3.13154E-10
 -1       794 2.96251E+04-6.71284E-01 4.27642E+01-2.08064E+02-2.93134E-11 2.37185E-10
 -1       795 2.96291E+04 5.16690E+00 6.59972E+01-8.21581E+02 4.38511E-11 1.25358E-10
 -1       796 2.96216E+04-4.35690E+00 1.14583E+02-2.07967E+02-3.17186E-11-7.27312E-11
 -1       797 2.96616E+04 5.23549E+01 2.46683E+02-8.21623E+02 5.37739E-11-3.37543E-11
 -1       798 2.95927E+04-4.01474E+01 4.40035E+02-2.08023E+02-1.27898E-11 6.09361E-11
 -1       799 2.99461E+04 5.31877E+02 1.08589E+03-8.19379E+02-2.02839E-10 5.07328E-11
 -1       800 2.93371E+04-3.90537E+02 1.69543E+03-2.10215E+02 1.31024E-11-1.38812E-10
 -1       801-9.06327E+02 2.89142E+04 4.36604E+03-2.27548E+04 1.02091E-10 3.90173E-10
 -1       802 1.69675E+03 3.05374E+04 4.30616E+03-8.92247E+04-5.68889E-10-1.01215E-09
 -1       803-3.91975E+02 2.91927E+04 4.58202E+03-2.26719E+04 2.61252E-10 6.84679E-10
 -1       804 4.68573E+03 3.23203E+04 9.61239E+03-8.92223E+04-8.08086E-10-1.28352E-10
 -1       805-3.31867E+03 2.71387E+04 1.44025E+04-2.27573E+04 2.71939E-10 9.45874E-11
 -1       806-2.83816E+04-7.55344E+03-2.41036E+03-1.30799E+04 1.38002E-10 8.70841E-11
 -1       807-2.83930E+04-6.94453E+03-1.14360E+03-1.38168E+04 2.31637E-11 9.78986E-11
 -1       808-2.83687E+04-6.32232E+03-4.80887E+02-1.35984E+04-9.17737E-11-8.25224E-11
 -1       809-2.81546E+04-6.51211E+03-2.32435E+02-1.39161E+04-4.42952E-11 9.20259E-11
 -1       810-2.83743E+04-6.23822E+03-1.05128E+02-1.36360E+04-9.02958E-11 2.24659E-10
 -1       811-2.81311E+04-6.48349E+03-5.27576E+01-1.39200E+04-3.31468E-11 3.21506E-10
 -1       812-2.83762E+04-6.23576E+03-2.77099E+01-1.36377E+04 8.00213E-11-2.68130E-10
 -1       813-2.81286E+04-6.48267E+03-2.06829E+01-1.39195E+04 1.36104E-11-7.59712E-11
 -1       814-2.83763E+04-6.23596E+03-2.43435E+01-1.36377E+04-2.87059E-11 1.70758E-10
 -1       815-2.81306E+04-6.48350E+03-4.38383E+01-1.39197E+04 1.33383E-10-2.60940E-10
 -1       816-2.83746E+04-6.23812E+03-8.59177E+01-1.36362E+04-1.41767E-10 7.24754E-11
 -1       817-2.81502E+04-6.50630E+03-1.89361E+02-1.39159E+04 1.15961E-11 1.27386E-10
 -1       818-2.83695E+04-6.30720E+03-3.91394E+02-1.36061E+04 1.05388E-10-2.88878E-10
 -1       819-2.83486E+04-6.85358E+03-9.30574E+02-1.38297E+04-1.33696E-10-7.39817E-11
 -1       820-2.83755E+04-7.31271E+03-1.96114E+03-1.31888E+04-5.90603E-11 1.78403E-10
 -1       821-2.87311E+04 8.54957E+02-3.71220E+03 2.30665E+02-3.16021E-10 9.54969E-11
 -1       822-3.00675E+04-1.16471E+03-2.37706E+03 8.97700E+02-1.02887E-10-1.48958E-10
 -1       823-2.92908E+04 8.78156E+01-9.62263E+02 2.26882E+02 3.32534E-10-1.66608E-10
 -1       824-2.94446E+04-1.14585E+02-5.37490E+02 9.01905E+02-1.28225E-10 7.11680E-11
 -1       825-2.93542E+04 9.48830E+00-2.45713E+02 2.26450E+02-6.33023E-10 2.92744E-11
 -1       826-2.93733E+04-1.10476E+01-1.33850E+02 9.02504E+02-1.09634E-09 1.01377E-10
 -1       827-2.93622E+04 1.28547E+00-7.27302E+01 2.26281E+02-5.85175E-10 1.80297E-10
 -1       828-2.93651E+04-1.67821E+00-5.60914E+01 9.02804E+02-7.16433E-10-1.70186E-10
 -1       829-2.93625E+04 1.10512E+00-6.35756E+01 2.26150E+02-7.48983E-11-1.90671E-10
 -1       830-2.93712E+04-8.78503E+00-1.09747E+02 9.02939E+02 4.69200E-10-1.34561E-10
 -1       831-2.93562E+04 7.63520E+00-1.97707E+02 2.26146E+02-2.88530E-10 2.26237E-11
 -1       832-2.94281E+04-9.14671E+01-4.30230E+02 9.02783E+02 6.86953E-11 2.25313E-11
 -1       833-2.93056E+04 7.02432E+01-7.69316E+02 2.26308E+02-1.39764E-11-2.75151E-10
 -1       834-2.99260E+04-9.30661E+02-1.89982E+03 9.00711E+02-6.12985E-11-3.16930E-10
 -1       835-2.88583E+04 6.83331E+02-2.96669E+03 2.28235E+02 1.25723E-10-1.11413E-10
 -1       836-1.36687E+03 7.39834E+04 6.25531E+03-1.97001E+03-1.16415E-10 1.40972E-10
 -1       837 2.09142E+03 7.62860E+04 4.86171E+03-7.70759E+03 3.35405E-10 9.85949E-11
 -1       838-3.33072E+02 7.47222E+04 3.60166E+03-1.96313E+03-1.68313E-10 1.33348E-10
 -1       839 2.77488E+03 7.66921E+04 6.07418E+03-7.70784E+03 3.56067E-10-1.91335E-10
 -1       840-1.91731E+03 7.35771E+04 8.54902E+03-1.96975E+03-1.30967E-10 8.52651E-13
 -1       841-3.38074E+03 1.86195E+01-1.28613E+03-1.49824E+03-3.23581E-10-1.84798E-10
 -1       842-4.09408E+03-1.12294E+03-8.91858E+02-1.23545E+03-2.64262E-10-2.53678E-10
 -1       843-3.64270E+03-4.42498E+02-3.01324E+02-1.41166E+03 1.62949E-10 1.18362E-10
 -1       844-3.78983E+03-5.88757E+02-1.87596E+02-1.33524E+03 3.16317E-10-1.64354E-10
 -1       845-3.68488E+03-5.14766E+02-6.91547E+01-1.39875E+03 1.40920E-10-1.74982E-10
 -1       846-3.74068E+03-5.04802E+02-3.87878E+01-1.35003E+03 6.12084E-11-6.34032E-10
 -1       847-3.69184E+03-5.26337E+02-1.30823E+01-1.39692E+03 7.16731E-08-2.73042E-08
 -1       848-3.73166E+03-4.90003E+02-1.70415E+00-1.35230E+03 1.42768E-07-5.32048E-08
 -1       849-3.69390E+03-5.29546E+02 9.28357E+00-1.39649E+03-5.22039E-08 1.94079E-08
 -1       850-3.72380E+03-4.77435E+02 3.06150E+01-1.35432E+03-2.46389E-07 9.32325E-08
 -1       851-3.69970E+03-5.38889E+02 5.55133E+01-1.39490E+03-1.24967E-07 4.67677E-08
 -1       852-3.68373E+03-4.09780E+02 1.51242E+02-1.36647E+03-1.12380E-09-1.60760E-10
 -1       853-3.73396E+03-5.97108E+02 2.43064E+02-1.38436E+03-2.03251E-11-9.24842E-11
 -1       854-3.43780E+03 2.09203E+01 7.19655E+02-1.44740E+03 2.37680E-10 5.42862E-10
 -1       855-3.94554E+03-9.68947E+02 1.03780E+03-1.31421E+03-1.84457E-10 5.80940E-11
 -1       856-3.39478E+04 7.92356E+02-3.44067E+03 4.68660E+02-4.06487E-10 2.03272E-10
 -1       857-3.51857E+04-1.07917E+03-2.20306E+03 1.83254E+03-5.50699E-10-5.26086E-11
 -1       858-3.44666E+04 8.14268E+01-8.91756E+02 4.62549E+02-7.76424E-10-2.42665E-10
 -1       859-3.46087E+04-1.05745E+02-4.97847E+02 1.83956E+03-1.21489E-10-2.65658E-10
 -1       860-3.45254E+04 8.89711E+00-2.27134E+02 4.61622E+02 3.76019E-11-3.71614E-11
 -1       861-3.45428E+04-9.69256E+00-1.22801E+02 1.84071E+03-5.76208E-10-5.05231E-11
 -1       862-3.45329E+04 1.30780E+00-6.49476E+01 4.61396E+02 6.57550E-10-8.36025E-11
 -1       863-3.45349E+04-8.26010E-01-4.69107E+01 1.84100E+03 2.15678E-09-2.64400E-10
 -1       864-3.45333E+04 9.84509E-01-4.90495E+01 4.61338E+02 1.51180E-09-5.56106E-11
 -1       865-3.45390E+04-5.79215E+00-8.09317E+01 1.84086E+03 1.13002E-09-3.17405E-10
 -1       866-3.45288E+04 5.64793E+00-1.43760E+02 4.61532E+02-2.66184E-10-2.10783E-11
 -1       867-3.45799E+04-6.56483E+01-3.11530E+02 1.84006E+03-4.39186E-10-3.81547E-10
 -1       868-3.44922E+04 5.08537E+01-5.56618E+02 4.62142E+02 8.31363E-10 4.04157E-11
 -1       869-3.49396E+04-6.72697E+02-1.37408E+03 1.83421E+03-3.34239E-10-7.00595E-11
 -1       870-3.41686E+04 4.94156E+02-2.14572E+03 4.67392E+02 6.91898E-10-2.39197E-10
 -1       871-3.05772E+02-3.01917E+03-5.72542E+02 8.64435E+03 2.49770E-10 1.55183E-11
 -1       872-9.09001E+01-3.12069E+03-1.65439E+02 1.01069E+04 5.34385E-10-1.87470E-10
 -1       873 1.38411E+01-3.08023E+03 1.73108E+02 8.62756E+03 3.97790E-10 7.80744E-11
 -1       874 2.11448E+02-2.94386E+03 6.39297E+02 1.01144E+04 5.68377E-10 2.24757E-10
 -1       875 6.74332E+02-3.19671E+03 1.37952E+03 8.63692E+03 1.00101E-10 3.90969E-10
 -1       876 4.04109E+04 5.04349E+03 3.82662E+03 1.58482E+04 1.43899E-10-4.81805E-10
 -1       877 4.12911E+04 8.00866E+03 2.41498E+03 1.63924E+04-3.18014E-10 6.74731E-11
 -1       878 4.10723E+04 5.91446E+03 9.03436E+02 1.57519E+04 1.13502E-10 8.49241E-11
 -1       879 4.05304E+04 6.87750E+03 4.97159E+02 1.65588E+04-1.36927E-09-9.26619E-11
 -1       880 4.11479E+04 6.00822E+03 2.11015E+02 1.57441E+04-1.11451E-09-3.72111E-10
 -1       881 4.04436E+04 6.75863E+03 1.13217E+02 1.65721E+04-5.69194E-10-7.57872E-10
 -1       882 4.11569E+04 6.01862E+03 6.04509E+01 1.57439E+04 5.24132E-10 3.49196E-11
 -1       883 4.04347E+04 6.74744E+03 5.20400E+01 1.65725E+04-1.05203E-09 1.80402E-11
 -1       884 4.11565E+04 6.01847E+03 6.79091E+01 1.57440E+04-1.34341E-10-3.22764E-11
 -1       885 4.04465E+04 6.76113E+03 1.33895E+02 1.65716E+04 1.93076E-09 4.08122E-10
 -1       886 4.11453E+04 6.00612E+03 2.52846E+02 1.57444E+04 3.87857E-10 1.36026E-10
 -1       887 4.05514E+04 6.90411E+03 5.97806E+02 1.65553E+04 3.95946E-10-3.08859E-10
 -1       888 4.10542E+04 5.89325E+03 1.08691E+03 1.57537E+04 1.08384E-11-2.05887E-10
 -1       889 4.14662E+04 8.26636E+03 2.90621E+03 1.63561E+04-6.74792E-10-4.38831E-11
 -1       890 4.02589E+04 4.84421E+03 4.60483E+03 1.58686E+04-2.88992E-10 4.27463E-11
 -1       891 1.49658E+02-1.80185E+04-6.96119E+02 1.93913E+03 6.12573E-10-1.89630E-10
 -1       892-2.36786E+02-1.82740E+04-5.61054E+02 7.60237E+03 1.51545E-10-4.01656E-10
 -1       893 4.11598E+01-1.80961E+04-4.47533E+02 1.93171E+03 8.14907E-10 1.46086E-10
 -1       894-3.70282E+02-1.83532E+04-7.97817E+02 7.60191E+03-1.83661E-10-2.28454E-10
 -1       895 2.57109E+02-1.79392E+04-1.14401E+03 1.93959E+03 6.97582E-10 5.55360E-11
 -1       896 8.04602E+04-6.31938E+02 1.47003E+03 4.06926E+01-6.02363E-11-2.88537E-10
 -1       897 8.10908E+04 7.31905E+02 1.03949E+03-1.26122E+02 8.89315E-11-1.51815E-10
 -1       898 8.07059E+04-9.85776E+01 3.81847E+02 3.14877E+01 1.57998E-11-1.35117E-10
 -1       899 8.08048E+04 1.14312E+02 2.41606E+02-1.10572E+02-5.81024E-11-4.27178E-11
 -1       900 8.07462E+04-1.55144E+01 1.02837E+02 2.51423E+01 7.66325E-11-2.34550E-11
 -1       901 8.07585E+04 1.93088E+01 6.89432E+01-1.00354E+02 5.21649E-11 3.33031E-11
 -1       902 8.07523E+04-3.76535E+00 4.84154E+01 2.12697E+01 1.64406E-11 5.88570E-11
 -1       903 8.07559E+04 1.34032E+01 6.61822E+01-9.48344E+01 1.47603E-09 6.69385E-11
 -1       904 8.07489E+04-9.59181E+00 1.01845E+02 1.96223E+01 2.06678E-07 8.53682E-11
 -1       905 8.07856E+04 6.97638E+01 2.23235E+02-9.36860E+01 4.10775E-07 7.99787E-11
 -1       906 8.07225E+04-6.00199E+01 3.81103E+02 2.01213E+01 2.06703E-07 2.49116E-11
 -1       907 8.09701E+04 4.47031E+02 9.35078E+02-9.68507E+01 1.55043E-09 9.58096E-11
 -1       908 8.05644E+04-3.86241E+02 1.49100E+03 2.27870E+01 3.17502E-11 4.55316E-11
 -1       909 8.20901E+04 2.86761E+03 4.07003E+03-1.04580E+02-6.65885E-11-9.15179E-11
 -1       910 7.96022E+04-2.47616E+03 5.75964E+03 2.78504E+01 9.78613E-11-1.02091E-10
 -1       911 2.35656E+04-3.07420E+02 7.15237E+02 2.15379E+01 1.33120E-11-5.12443E-11
 -1       912 2.38738E+04 3.56044E+02 5.06040E+02-8.74462E+01 1.52789E-12-3.98614E-12
 -1       913 2.36851E+04-4.79839E+01 1.86539E+02 1.96391E+01 1.46914E-11 7.09335E-11
 -1       914 2.37348E+04 5.57396E+01 1.19227E+02-8.42167E+01-3.84099E-11 1.33397E-10
 -1       915 2.37047E+04-7.66520E+00 5.32940E+01 1.83084E+01 3.13514E-11 1.41849E-10
 -1       916 2.37128E+04 1.02871E+01 4.05270E+01-8.21195E+01 4.73875E-10 1.04601E-10
 -1       917 2.37071E+04-2.60448E+00 3.66691E+01 1.75419E+01 5.03696E-08 2.29922E-10
 -1       918 2.37145E+04 1.23581E+01 6.10186E+01-8.11372E+01 1.00073E-07 1.29652E-10
 -1       919 2.37030E+04-9.73206E+00 1.01879E+02 1.73261E+01 5.03715E-08 1.86034E-10
 -1       920 2.37460E+04 7.18511E+01 2.28874E+02-8.12477E+01 4.17730E-10 1.12550E-10
 -1       921 2.36756E+04-6.20111E+01 3.92948E+02 1.76524E+01 5.70635E-11 1.40417E-10
 -1       922 2.39368E+04 4.61907E+02 9.65800E+02-8.24527E+01 8.39468E-11 6.74731E-11
 -1       923 2.35122E+04-3.99135E+02 1.54047E+03 1.85311E+01 7.30114E-11 1.24885E-10
 -1       924 2.50942E+04 2.96328E+03 4.20566E+03-8.47940E+01 5.72866E-11 5.21823E-11
 -1       925 2.25181E+04-2.55877E+03 5.95177E+03 1.99938E+01 9.26228E-11 4.72937E-11
 -1       926-1.02844E+05 2.29368E+03-5.33445E+03-2.61903E+00-4.13285E-11-4.54747E-12
 -1       927-1.05146E+05-2.65624E+03-3.76930E+03 8.79296E+00-5.26555E-09 2.09184E-11
 -1       928-1.03735E+05 3.57764E+02-1.38003E+03-4.56191E+00-7.58877E-07-9.74296E-11
 -1       929-1.04108E+05-4.13930E+02-8.64202E+02 1.23103E+01-1.51043E-06-4.01457E-11
 -1       930-1.03882E+05 5.54913E+01-3.49473E+02-6.13642E+00-1.19311E-06-1.33170E-10
 -1       931-1.03937E+05-6.36684E+01-1.99361E+02 1.49768E+01-8.69774E-07-5.67297E-11
 -1       932-1.03906E+05 8.08989E+00-8.04988E+01-7.22856E+00-5.92176E-07-1.55982E-10
 -1       933-1.03906E+05-6.26363E+00-3.09470E+01 1.66044E+01-3.16106E-07-3.85754E-11
 -1       934-1.03912E+05-1.82870E+00 1.02279E+01-7.76406E+00-1.34815E-07-6.42366E-11
 -1       935-1.03890E+05 2.20076E+01 6.27191E+01 1.70792E+01 4.55563E-08-1.19670E-10
 -1       936-1.03922E+05-2.01400E+01 1.23118E+02-7.70334E+00 1.16838E-07-6.37854E-11
 -1       937-1.03827E+05 1.51320E+02 3.13824E+02 1.63652E+01 1.87754E-07-1.53605E-10
 -1       938-1.03976E+05-1.30925E+02 5.03951E+02-7.05011E+00 1.57270E-07-1.59787E-10
 -1       939-1.03447E+05 9.72222E+02 1.37909E+03 1.45102E+01 1.26282E-07-9.66054E-11
 -1       940-1.04302E+05-8.39542E+02 1.95238E+03-5.84827E+00 6.32616E-08-7.61702E-12
 -1       941 4.35708E+05-2.17336E+04 5.05725E+04 9.45987E+00-1.83089E-08 3.63798E-10
 -1       942 4.57567E+05 2.51704E+04 3.57341E+04 2.51491E+00-3.84576E-08-4.51564E-10
 -1       943 4.44153E+05-3.39039E+03 1.30993E+04 9.04291E+00-1.02538E-08-7.45786E-11
 -1       944 4.47739E+05 3.92496E+03 8.22546E+03 2.53270E+00 1.93147E-08-3.80737E-10
 -1       945 4.45541E+05-5.27978E+02 3.37590E+03 9.44309E+00 1.25377E-07 1.76215E-10
 -1       946 4.46126E+05 6.20034E+02 2.02235E+03 9.12583E-01 2.32099E-07 7.23020E-10
 -1       947 4.45769E+05-9.11587E+01 1.01069E+03 1.06631E+01 4.16649E-07 2.44029E-10
 -1       948 4.45891E+05 1.69162E+02 8.36446E+02-2.73152E+00 5.99251E-07 3.04812E-10
 -1       949 4.45777E+05-7.78312E+01 8.88604E+02 1.30869E+01 3.00836E-07-7.78897E-10
 -1       950 4.46064E+05 5.04848E+02 1.66976E+03-9.57984E+00 2.10279E-09 5.40240E-10
 -1       951 4.45596E+05-4.26314E+02 2.74007E+03 1.75110E+01-3.96120E-11-6.96218E-10
 -1       952 4.47361E+05 3.16507E+03 6.64103E+03-2.19164E+01-7.48396E-10-3.34239E-10
 -1       953 4.44477E+05-2.73343E+03 1.05652E+04 2.54231E+01-8.41861E-10 1.77351E-10
 -1       954 4.55284E+05 2.02929E+04 2.88112E+04-4.42668E+01-2.49546E-10-2.74213E-10
 -1       955 4.37668E+05-1.75219E+04 4.07712E+04 3.98597E+01-1.90369E-09-1.47338E-10
 -1       956-2.31648E+04-4.00967E+02-8.35497E+02 3.24393E+03-4.24848E-10-9.74296E-11
 -1       957-2.33166E+04-1.28323E+02-4.21641E+02 3.76197E+03-5.29781E-11 1.50806E-10
 -1       958-2.32315E+04-1.59812E+01-1.89494E+02 3.22459E+03 3.12866E-10-2.40163E-10
 -1       959-2.32447E+04-4.03491E+00-9.64305E+01 3.78321E+03-2.41300E-10-2.76742E-10
 -1       960-2.32378E+04 1.68769E+00-4.67411E+01 3.22267E+03-6.39261E-10-2.16488E-10
 -1       961-2.32382E+04 1.31604E+00-2.46685E+01 3.78531E+03-1.01380E-09 1.45803E-10
 -1       962-2.32388E+04 1.37670E+00-1.38320E+01 3.22249E+03-3.38900E-10-7.45501E-11
 -1       963-2.32376E+04 1.24551E+00-1.06434E+01 3.78554E+03-5.67070E-10-4.06430E-11
 -1       964-2.32389E+04 1.37492E+00-1.23185E+01 3.22244E+03-2.98144E-11-3.09228E-11
 -1       965-2.32383E+04 1.38302E+00-2.08065E+01 3.78548E+03 6.65231E-10 5.96572E-11
 -1       966-2.32383E+04 1.71852E+00-3.87636E+01 3.22255E+03-2.68045E-10-6.32951E-11
 -1       967-2.32438E+04-2.92027E+00-7.96399E+01 3.78440E+03-3.11118E-10-4.03105E-10
 -1       968-2.32334E+04-1.27484E+01-1.56318E+02 3.22353E+03 6.63363E-11-1.47480E-10
 -1       969-2.33034E+04-1.05329E+02-3.47767E+02 3.77362E+03 3.11303E-10 1.90305E-10
 -1       970-2.31784E+04-3.30204E+02-6.89055E+02 3.23336E+03 2.02704E-10-1.42506E-10
 -1       971-4.72742E+04 6.57603E+02-2.85591E+03 4.73549E+02-4.30532E-10 3.12980E-10
 -1       972-4.82999E+04-8.95688E+02-1.82879E+03 1.85411E+03-5.47061E-10 1.38584E-10
 -1       973-4.77049E+04 6.75668E+01-7.40684E+02 4.66841E+02-8.12463E-10-1.16813E-11
 -1       974-4.78211E+04-8.76967E+01-4.14253E+02 1.86199E+03 2.87343E-10 4.90417E-10
 -1       975-4.77536E+04 7.40566E+00-1.90599E+02 4.65662E+02-1.49811E-10-7.04716E-11
 -1       976-4.77667E+04-7.98503E+00-1.06163E+02 1.86353E+03-6.44945E-10 1.11072E-10
 -1       977-4.77597E+04 1.19668E+00-6.22411E+01 4.65296E+02 8.63068E-10 1.90937E-10
 -1       978-4.77611E+04-1.13441E+00-5.61390E+01 1.86401E+03 1.54870E-09 3.00936E-10
 -1       979-4.77594E+04 1.47010E+00-7.41829E+01 4.65175E+02 1.15700E-09 9.11218E-11
 -1       980-4.77697E+04-1.08272E+01-1.37649E+02 1.86394E+03 1.18238E-09 3.32412E-11
 -1       981-4.77511E+04 9.93938E+00-2.53254E+02 4.65368E+02-2.42949E-10 4.74571E-11
 -1       982-4.78432E+04-1.17667E+02-5.54352E+02 1.86307E+03 2.36355E-10 4.21096E-10
 -1       983-4.76857E+04 9.07092E+01-9.92606E+02 4.66055E+02 3.81959E-10 4.86921E-10
 -1       984-4.84856E+04-1.20105E+03-2.45212E+03 1.85717E+03-2.42437E-10 3.48905E-10
 -1       985-4.71083E+04 8.82051E+02-3.82946E+03 4.71290E+02 6.55575E-10 1.96223E-10
 -3
    1PSTEP                         3           2           1          
  100CL  102 1.25000E-01         841                     0    2           1
 -4  DISP        4    1
 -5  D1          1    2    1    0
 -5  D2          1    2    2    0
 -5  D3          1    2    3    0
 -5  ALL         1    2    0    0    1ALL
 -1         1 1.52813E-05 0.00000E+00 0.00000E+00
 -1         2 1.12980E-05 0.00000E+00 0.00000E+00
 -1         3 9.43373E-06 0.00000E+00 0.00000E+00
 -1         4 8.41704E-06 0.00000E+00 0.00000E+00
 -1         5 7.96205E-06 0.00000E+00 0.00000E+00
 -1         8 1.19949E-05-1.51202E-07 0.00000E+00
 -1         9 9.49844E-06 1.26130E-07 0.00000E+00
 -1        10 8.84850E-06-3.92945E-07 0.00000E+00
 -1        11 8.25366E-06-8.11492E-08 0.00000E+00
 -1        12 7.66539E-06 2.00562E-07 0.00000E+00
 -1        15 5.05621E-06-3.13495E-07 0.00000E+00
 -1        16 6.95111E-06 1.26093E-07 0.00000E+00
 -1        17 6.44142E-06-7.89451E-07 0.00000E+00
 -1        18 6.53803E-06-1.60060E-07 0.00000E+00
 -1        19 6.87454E-06 3.97354E-07 0.00000E+00
 -1        20 6.98210E-06 4.22627E-06 0.00000E+00
 -1        21 6.97982E-06 1.01127E-05 0.00000E+00
 -1        22 1.87788E-06-2.02638E-07 0.00000E+00
 -1        23 2.50907E-06 2.73037E-07 0.00000E+00
 -1        24 2.63746E-06-9.29025E-07 0.00000E+00
 -1        25 5.72750E-06-1.11067E-07 0.00000E+00
 -1        26 6.05605E-06 5.27192E-07 0.00000E+00
 -1        27 5.73101E-06 4.07720E-06 0.00000E+00
 -1        28 5.34685E-06 9.97142E-06 0.00000E+00
 -1        29 0.00000E+00 0.00000E+00 0.00000E+00
 -1        30 8.99135E-07 3.59527E-07 0.00000E+00
 -1        31 1.16061E-06-7.41369E-07 0.00000E+00
 -1        32 0.00000E+00 0.00000E+00 0.00000E+00
 -1        33 4.93479E-06 8.33767E-07 0.00000E+00
 -1        34 4.67554E-06 4.06372E-06 0.00000E+00
 -1        35 4.14410E-06 9.89624E-06 0.00000E+00
 -1        36 1.50403E-05-2.11278E-20 3.30872E-24
 -1        37 1.47914E-05-5.55726E-20 0.00000E+00
 -1        38 1.45430E-05-5.44541E-20 0.00000E+00
 -1        39 1.42930E-05-6.22982E-20 3.30872E-24
 -1        40 1.40431E-05-1.01618E-19 0.00000E+00
 -1        41 1.37928E-05-1.34305E-19 0.00000E+00
 -1        42 1.35425E-05-1.43758E-19 0.00000E+00
 -1        43 1.32921E-05-1.25745E-19-3.30872E-24
 -1        44 1.30417E-05-9.06240E-20 0.00000E+00
 -1        45 1.27914E-05-6.65750E-20-3.30872E-24
 -1        46 1.25411E-05-3.40716E-20 6.61744E-24
 -1        47 1.22909E-05-9.50462E-21 0.00000E+00
 -1        48 1.20408E-05 1.67607E-22 0.00000E+00
 -1        49 1.17917E-05 1.84099E-20 3.30872E-24
 -1        50 1.15423E-05 1.63612E-20 0.00000E+00
 -1        51 1.50332E-05-2.59287E-08 0.00000E+00
 -1        52 1.46220E-05-5.06369E-08 0.00000E+00
 -1        53 1.40794E-05-7.50920E-08 0.00000E+00
 -1        54 1.34385E-05-9.96324E-08 0.00000E+00
 -1        55 1.27325E-05-1.24604E-07-1.24077E-24
 -1        56 1.49788E-05-1.17433E-07 0.00000E+00
 -1        57 1.46671E-05-2.43426E-07 0.00000E+00
 -1        58 1.43558E-05-3.68655E-07 0.00000E+00
 -1        59 1.40405E-05-4.89002E-07-3.30872E-24
 -1        60 1.37212E-05-5.98818E-07-6.61744E-24
 -1        61 1.33958E-05-6.93291E-07 0.00000E+00
 -1        62 1.30628E-05-7.67640E-07-1.32349E-23
 -1        63 1.27205E-05-8.17333E-07 0.00000E+00
 -1        64 1.23673E-05-8.38108E-07 1.32349E-23
 -1        65 1.20018E-05-8.25891E-07 0.00000E+00
 -1        66 1.16227E-05-7.77040E-07 0.00000E+00
 -1        67 1.12288E-05-6.88060E-07 0.00000E+00
 -1        68 1.08189E-05-5.56139E-07 0.00000E+00
 -1        69 1.03937E-05-3.78027E-07-3.30872E-24
 -1        70 9.95003E-06-1.52563E-07 6.61744E-24
 -1        71 1.11811E-05-5.19319E-21-3.30872E-24
 -1        72 1.10643E-05-9.50854E-21 1.65436E-24
 -1        73 1.09476E-05 6.35171E-21 3.30872E-24
 -1        74 1.08308E-05 3.23293E-20-1.65436E-24
 -1        75 1.07141E-05 4.99014E-20 0.00000E+00
 -1        76 1.05974E-05 6.10720E-20 0.00000E+00
 -1        77 1.04807E-05 5.21376E-20 0.00000E+00
 -1        78 1.03640E-05 2.18151E-20 1.65436E-24
 -1        79 1.02473E-05 1.66521E-20 0.00000E+00
 -1        80 1.01306E-05 1.05096E-20-1.65436E-24
 -1        81 1.00140E-05 1.56349E-20 3.30872E-24
 -1        82 9.89736E-06 1.31731E-20-1.65436E-24
 -1        83 9.78078E-06 1.51532E-20 0.00000E+00
 -1        84 9.66454E-06 5.95617E-21 1.65436E-24
 -1        85 9.54819E-06 5.40785E-21-3.30872E-24
 -1        86 1.12282E-05 1.67700E-08 0.00000E+00
 -1        87 1.10206E-05 3.92553E-08 2.06795E-25
 -1        88 1.07099E-05 6.13191E-08 0.00000E+00
 -1        89 1.03307E-05 8.38241E-08-1.03398E-25
 -1        90 9.91588E-06 1.06578E-07-8.27181E-25
 -1        91 1.11650E-05-7.62241E-08-3.30872E-24
 -1        92 1.10482E-05-1.98553E-07 0.00000E+00
 -1        93 1.09442E-05-3.54641E-07 0.00000E+00
 -1        94 1.08482E-05-5.32346E-07 1.65436E-24
 -1        95 1.07543E-05-7.16026E-07 0.00000E+00
 -1        96 1.06569E-05-8.90057E-07-1.65436E-24
 -1        97 1.05506E-05-1.04069E-06 0.00000E+00
 -1        98 1.04305E-05-1.15433E-06 0.00000E+00
 -1        99 1.02933E-05-1.22262E-06-3.30872E-24
 -1       100 1.01362E-05-1.23744E-06-1.65436E-24
 -1       101 9.95896E-06-1.19874E-06 0.00000E+00
 -1       102 9.76185E-06-1.10675E-06-1.65436E-24
 -1       103 9.54785E-06-9.69684E-07 0.00000E+00
 -1       104 9.32065E-06-7.95826E-07 1.65436E-24
 -1       105 9.08472E-06-5.99311E-07 0.00000E+00
 -1       106 9.36978E-06 5.19813E-21 0.00000E+00
 -1       107 9.30609E-06 1.28687E-20 0.00000E+00
 -1       108 9.24239E-06 5.82788E-21 0.00000E+00
 -1       109 9.17873E-06 8.24624E-21 0.00000E+00
 -1       110 9.11508E-06-6.13450E-21 0.00000E+00
 -1       111 9.05144E-06-7.68254E-21-8.27181E-25
 -1       112 8.98779E-06-4.66414E-21-1.65436E-24
 -1       113 8.92416E-06 1.96564E-21-8.27181E-25
 -1       114 8.86052E-06 1.56958E-21 0.00000E+00
 -1       115 8.79690E-06 7.05358E-21-8.27181E-25
 -1       116 8.73328E-06 2.65729E-20 0.00000E+00
 -1       117 8.66970E-06 3.19471E-20 0.00000E+00
 -1       118 8.60613E-06 2.67813E-20 1.65436E-24
 -1       119 8.54277E-06 2.66715E-20 0.00000E+00
 -1       120 8.47934E-06 2.04062E-20-1.65436E-24
 -1       121 9.42810E-06-6.56117E-08-1.65436E-24
 -1       122 9.39980E-06-1.31033E-07-8.27181E-25
 -1       123 9.33824E-06-1.96464E-07 1.65436E-24
 -1       124 9.23285E-06-2.61896E-07-8.27181E-25
 -1       125 9.07310E-06-3.27327E-07-1.65436E-24
 -1       126 9.36929E-06-3.07377E-08 0.00000E+00
 -1       127 9.30927E-06-7.28097E-08 0.00000E+00
 -1       128 9.25226E-06-1.22952E-07-1.65436E-24
 -1       129 9.19705E-06-1.77806E-07 8.27181E-25
 -1       130 9.14218E-06-2.33563E-07 1.65436E-24
 -1       131 9.08622E-06-2.86398E-07 0.00000E+00
 -1       132 9.02790E-06-3.32946E-07 0.00000E+00
 -1       133 8.96598E-06-3.69856E-07 0.00000E+00
 -1       134 8.89939E-06-3.94353E-07 0.00000E+00
 -1       135 8.82714E-06-4.03703E-07 8.27181E-25
 -1       136 8.74858E-06-3.96218E-07-1.65436E-24
 -1       137 8.66313E-06-3.70245E-07-8.27181E-25
 -1       138 8.57064E-06-3.25505E-07 0.00000E+00
 -1       139 8.47122E-06-2.61681E-07 0.00000E+00
 -1       140 8.36502E-06-1.79991E-07 0.00000E+00
 -1       141 8.38801E-06-1.73766E-20 0.00000E+00
 -1       142 8.35928E-06-2.21105E-20 0.00000E+00
 -1       143 8.33053E-06-1.52817E-20 0.00000E+00
 -1       144 8.30183E-06-3.57665E-21 0.00000E+00
 -1       145 8.27314E-06 2.85952E-21 8.27181E-25
 -1       146 8.24446E-06 9.38246E-21 0.00000E+00
 -1       147 8.21578E-06 1.85369E-20-8.27181E-25
 -1       148 8.18711E-06 3.13596E-20-4.13590E-25
 -1       149 8.15844E-06 3.96728E-20 0.00000E+00
 -1       150 8.12979E-06 2.70818E-20 0.00000E+00
 -1       151 8.10116E-06 1.16823E-20 0.00000E+00
 -1       152 8.07261E-06-8.29561E-21-4.13590E-25
 -1       153 8.04409E-06-3.14002E-21 0.00000E+00
 -1       154 8.01603E-06 3.19038E-21-2.06795E-25
 -1       155 7.98781E-06 3.35882E-21 0.00000E+00
 -1       156 8.42082E-06-1.40541E-08 0.00000E+00
 -1       157 8.43141E-06-2.72323E-08 0.00000E+00
 -1       158 8.43434E-06-4.04765E-08-4.13590E-25
 -1       159 8.41515E-06-5.37449E-08 0.00000E+00
 -1       160 8.35965E-06-6.69416E-08-8.27181E-25
 -1       161 8.38021E-06-1.52342E-08-8.27181E-25
 -1       162 8.34424E-06-3.29241E-08 4.13590E-25
 -1       163 8.30862E-06-5.15619E-08 8.27181E-25
 -1       164 8.27279E-06-6.96671E-08 4.13590E-25
 -1       165 8.23619E-06-8.57095E-08 0.00000E+00
 -1       166 8.19825E-06-9.81689E-08 4.13590E-25
 -1       167 8.15848E-06-1.05773E-07 0.00000E+00
 -1       168 8.11642E-06-1.07258E-07-4.13590E-25
 -1       169 8.07168E-06-1.01565E-07-8.27181E-25
 -1       170 8.02386E-06-8.76383E-08 0.00000E+00
 -1       171 7.97271E-06-6.47665E-08 0.00000E+00
 -1       172 7.91803E-06-3.22156E-08-4.13590E-25
 -1       173 7.85961E-06 1.03069E-08 0.00000E+00
 -1       174 7.79785E-06 6.33044E-08 4.13590E-25
 -1       175 7.73209E-06 1.26392E-07-1.03398E-25
 -1       191 7.95176E-06 3.33947E-08 0.00000E+00
 -1       192 7.92530E-06 6.68441E-08 0.00000E+00
 -1       193 7.88297E-06 1.00306E-07 0.00000E+00
 -1       194 7.82522E-06 1.33764E-07 0.00000E+00
 -1       195 7.75249E-06 1.67201E-07 0.00000E+00
 -1       251 1.18425E-05 3.75486E-07-3.30872E-24
 -1       252 1.16863E-05 7.82680E-07-1.65436E-24
 -1       253 1.15303E-05 1.05873E-06 0.00000E+00
 -1       254 1.13737E-05 1.19286E-06-1.65436E-24
 -1       255 1.12171E-05 1.19459E-06-3.30872E-24
 -1       256 1.10603E-05 1.07436E-06 0.00000E+00
 -1       257 1.09035E-05 8.60023E-07 0.00000E+00
 -1       258 1.07466E-05 5.80094E-07 0.00000E+00
 -1       259 1.05898E-05 2.72457E-07-6.61744E-24
 -1       260 1.04329E-05-2.48090E-08 3.30872E-24
 -1       261 1.02761E-05-2.75107E-07 0.00000E+00
 -1       262 1.01195E-05-4.42165E-07 0.00000E+00
 -1       263 9.96285E-06-5.01614E-07 0.00000E+00
 -1       264 9.80696E-06-4.29811E-07-1.65436E-24
 -1       265 9.65080E-06-2.21880E-07-3.30872E-24
 -1       266 1.12141E-05-1.79438E-07 1.65436E-24
 -1       267 1.00524E-05-2.06530E-07-4.13590E-25
 -1       268 8.68244E-06-2.33953E-07 0.00000E+00
 -1       269 7.27719E-06-2.60977E-07 4.13590E-25
 -1       270 6.01056E-06-2.87871E-07 0.00000E+00
 -1       271 1.15412E-05 2.61538E-07 0.00000E+00
 -1       272 1.11286E-05 5.37623E-07 0.00000E+00
 -1       273 1.07601E-05 6.97116E-07-6.61744E-24
 -1       274 1.04276E-05 7.56496E-07-3.30872E-24
 -1       275 1.01258E-05 7.33498E-07 0.00000E+00
 -1       276 9.84817E-06 6.45621E-07 0.00000E+00
 -1       277 9.58811E-06 5.10626E-07-6.61744E-24
 -1       278 9.33900E-06 3.46348E-07 0.00000E+00
 -1       279 9.09414E-06 1.70704E-07-6.61744E-24
 -1       280 8.84684E-06 1.64907E-09 0.00000E+00
 -1       281 8.59042E-06-1.42902E-07 6.61744E-24
 -1       282 8.31832E-06-2.45054E-07 0.00000E+00
 -1       283 8.02384E-06-2.87090E-07 0.00000E+00
 -1       284 7.70145E-06-2.51037E-07 3.30872E-24
 -1       285 7.34319E-06-1.20042E-07 0.00000E+00
 -1       286 9.45696E-06 4.81038E-07 0.00000E+00
 -1       287 9.41639E-06 7.10507E-07 8.27181E-25
 -1       288 9.37579E-06 8.26381E-07-1.65436E-24
 -1       289 9.33536E-06 8.40702E-07 0.00000E+00
 -1       290 9.29493E-06 7.69391E-07-1.65436E-24
 -1       291 9.25453E-06 6.28518E-07 8.27181E-25
 -1       292 9.21413E-06 4.36809E-07 0.00000E+00
 -1       293 9.17372E-06 2.13074E-07 0.00000E+00
 -1       294 9.13331E-06-2.26503E-08-1.65436E-24
 -1       295 9.09289E-06-2.50306E-07 0.00000E+00
 -1       296 9.05248E-06-4.50149E-07-1.65436E-24
 -1       297 9.01203E-06-6.02478E-07 8.27181E-25
 -1       298 8.97158E-06-6.89405E-07-1.65436E-24
 -1       299 8.93090E-06-6.93160E-07 0.00000E+00
 -1       300 8.89030E-06-5.99149E-07 0.00000E+00
 -1       301 9.07330E-06 1.24372E-07 0.00000E+00
 -1       302 8.64594E-06 1.25340E-07 0.00000E+00
 -1       303 8.21819E-06 1.26779E-07 0.00000E+00
 -1       304 7.79190E-06 1.28134E-07 0.00000E+00
 -1       305 7.36893E-06 1.28837E-07-1.65436E-24
 -1       306 9.18899E-06 3.99784E-07-3.30872E-24
 -1       307 8.92449E-06 5.37554E-07 3.30872E-24
 -1       308 8.70330E-06 5.60278E-07 0.00000E+00
 -1       309 8.51732E-06 4.86743E-07 3.30872E-24
 -1       310 8.36000E-06 3.36484E-07-6.61744E-24
 -1       311 8.22403E-06 1.28914E-07 3.30872E-24
 -1       312 8.10216E-06-1.16394E-07 0.00000E+00
 -1       313 7.98707E-06-3.79841E-07 0.00000E+00
 -1       314 7.87142E-06-6.41773E-07 0.00000E+00
 -1       315 7.74786E-06-8.82540E-07 0.00000E+00
 -1       316 7.60907E-06-1.08256E-06 0.00000E+00
 -1       317 7.44784E-06-1.22226E-06 0.00000E+00
 -1       318 7.25685E-06-1.28226E-06 6.61744E-24
 -1       319 7.02968E-06-1.24300E-06-1.65436E-24
 -1       320 6.75807E-06-1.08579E-06 3.30872E-24
 -1       321 8.80989E-06-1.61773E-07 1.65436E-24
 -1       322 8.77261E-06 6.72340E-09 0.00000E+00
 -1       323 8.73526E-06 1.18002E-07 0.00000E+00
 -1       324 8.69816E-06 1.77616E-07-8.27181E-25
 -1       325 8.66107E-06 1.92924E-07 0.00000E+00
 -1       326 8.62402E-06 1.71358E-07-4.13590E-25
 -1       327 8.58699E-06 1.21641E-07 8.27181E-25
 -1       328 8.54996E-06 5.25412E-08 0.00000E+00
 -1       329 8.51294E-06-2.64942E-08 8.27181E-25
 -1       330 8.47591E-06-1.06003E-07-4.13590E-25
 -1       331 8.43889E-06-1.76507E-07 0.00000E+00
 -1       332 8.40187E-06-2.28538E-07 0.00000E+00
 -1       333 8.36484E-06-2.53281E-07 8.27181E-25
 -1       334 8.32781E-06-2.41960E-07-4.13590E-25
 -1       335 8.29077E-06-1.87063E-07 0.00000E+00
 -1       336 8.54747E-06-4.59446E-07-1.65436E-24
 -1       337 8.18598E-06-5.25785E-07 0.00000E+00
 -1       338 7.77927E-06-5.92114E-07 0.00000E+00
 -1       339 7.34271E-06-6.58260E-07-8.27181E-25
 -1       340 6.89164E-06-7.24425E-07 0.00000E+00
 -1       341 8.63402E-06-1.86314E-07 3.30872E-24
 -1       342 8.42574E-06-2.78413E-09 0.00000E+00
 -1       343 8.22877E-06 1.51055E-07 0.00000E+00
 -1       344 8.04530E-06 2.67707E-07 0.00000E+00
 -1       345 7.87666E-06 3.44848E-07 0.00000E+00
 -1       346 7.72361E-06 3.80189E-07 0.00000E+00
 -1       347 7.58507E-06 3.76822E-07 0.00000E+00
 -1       348 7.45982E-06 3.38019E-07 0.00000E+00
 -1       349 7.34484E-06 2.71821E-07 0.00000E+00
 -1       350 7.23710E-06 1.86414E-07 0.00000E+00
 -1       351 7.13272E-06 9.21100E-08 0.00000E+00
 -1       352 7.02796E-06-6.60519E-10 0.00000E+00
 -1       353 6.91879E-06-8.16491E-08 3.30872E-24
 -1       354 6.80232E-06-1.40239E-07 0.00000E+00
 -1       355 6.67443E-06-1.69499E-07-1.65436E-24
 -1       356 8.21650E-06 3.44278E-08 8.27181E-25
 -1       357 8.17941E-06 1.18105E-07-4.13590E-25
 -1       358 8.14232E-06 1.73003E-07-8.27181E-25
 -1       359 8.10525E-06 2.02284E-07 0.00000E+00
 -1       360 8.06818E-06 2.10012E-07 8.27181E-25
 -1       361 8.03112E-06 2.00284E-07-4.13590E-25
 -1       362 7.99405E-06 1.77809E-07-8.27181E-25
 -1       363 7.95699E-06 1.47318E-07 4.13590E-25
 -1       364 7.91994E-06 1.13819E-07 8.27181E-25
 -1       365 7.88291E-06 8.23295E-08-4.13590E-25
 -1       366 7.84589E-06 5.77944E-08 0.00000E+00
 -1       367 7.80897E-06 4.51471E-08 4.13590E-25
 -1       368 7.77208E-06 4.89053E-08 8.27181E-25
 -1       369 7.73571E-06 7.35599E-08 0.00000E+00
 -1       370 7.69916E-06 1.22872E-07 0.00000E+00
 -1       371 8.05681E-06-9.54373E-08 0.00000E+00
 -1       372 7.73299E-06-1.08675E-07 2.06795E-25
 -1       373 7.35072E-06-1.21992E-07-4.13590E-25
 -1       374 6.97852E-06-1.34955E-07 0.00000E+00
 -1       375 6.68484E-06-1.47936E-07-1.03398E-25
 -1       376 8.14420E-06 1.32630E-08 1.65436E-24
 -1       377 8.04323E-06 8.16569E-08-8.27181E-25
 -1       378 7.95108E-06 1.26740E-07 0.00000E+00
 -1       379 7.86662E-06 1.50736E-07 0.00000E+00
 -1       380 7.78860E-06 1.57542E-07 1.65436E-24
 -1       381 7.71555E-06 1.51009E-07-8.27181E-25
 -1       382 7.64567E-06 1.35996E-07 0.00000E+00
 -1       383 7.57714E-06 1.17369E-07 0.00000E+00
 -1       384 7.50802E-06 1.00332E-07-1.65436E-24
 -1       385 7.43638E-06 9.00904E-08 8.27181E-25
 -1       386 7.36051E-06 9.11405E-08 0.00000E+00
 -1       387 7.27885E-06 1.07990E-07-8.27181E-25
 -1       388 7.18997E-06 1.44083E-07-1.65436E-24
 -1       389 7.09323E-06 2.03087E-07 0.00000E+00
 -1       390 6.98706E-06 2.86473E-07-8.27181E-25
 -1       406 7.55932E-06 2.33537E-07 1.65436E-24
 -1       407 7.44092E-06 2.66552E-07 0.00000E+00
 -1       408 7.31166E-06 2.99554E-07-1.65436E-24
 -1       409 7.17310E-06 3.32476E-07 0.00000E+00
 -1       410 7.02685E-06 3.65225E-07 8.27181E-25
 -1       466 5.16994E-06 3.53408E-07 1.65436E-24
 -1       467 5.28883E-06 7.69950E-07 1.65436E-24
 -1       468 5.40746E-06 9.88365E-07-3.30872E-24
 -1       469 5.52706E-06 1.05984E-06 0.00000E+00
 -1       470 5.64669E-06 1.01808E-06 3.30872E-24
 -1       471 5.76651E-06 8.96218E-07 0.00000E+00
 -1       472 5.88634E-06 7.17821E-07 0.00000E+00
 -1       473 6.00618E-06 5.06177E-07 0.00000E+00
 -1       474 6.12602E-06 2.80599E-07 0.00000E+00
 -1       475 6.24581E-06 6.03364E-08 1.65436E-24
 -1       476 6.36556E-06-1.34729E-07 3.30872E-24
 -1       477 6.48502E-06-2.84592E-07 0.00000E+00
 -1       478 6.60445E-06-3.63854E-07 3.30872E-24
 -1       479 6.72235E-06-3.46752E-07 8.27181E-25
 -1       480 6.84075E-06-1.96075E-07 8.27181E-25
 -1       481 4.30723E-06-2.95922E-07 0.00000E+00
 -1       482 3.64770E-06-2.77347E-07 2.06795E-25
 -1       483 3.07595E-06-2.58782E-07 0.00000E+00
 -1       484 2.59040E-06-2.40042E-07 2.06795E-25
 -1       485 2.19103E-06-2.21241E-07 4.13590E-25
 -1       486 4.65554E-06 3.81337E-07-1.65436E-24
 -1       487 4.29001E-06 9.67294E-07-1.65436E-24
 -1       488 3.97300E-06 1.42514E-06 3.30872E-24
 -1       489 3.71093E-06 1.73385E-06 0.00000E+00
 -1       490 3.50490E-06 1.89323E-06-3.30872E-24
 -1       491 3.35460E-06 1.90354E-06-1.65436E-24
 -1       492 3.25250E-06 1.78528E-06 3.30872E-24
 -1       493 3.19064E-06 1.55960E-06-1.65436E-24
 -1       494 3.15570E-06 1.26208E-06 3.30872E-24
 -1       495 3.13421E-06 9.28703E-07 0.00000E+00
 -1       496 3.11089E-06 6.00285E-07 3.30872E-24
 -1       497 3.07057E-06 3.17648E-07 0.00000E+00
 -1       498 3.00012E-06 1.15420E-07 0.00000E+00
 -1       499 2.88748E-06 2.81226E-08 0.00000E+00
 -1       500 2.72452E-06 7.40911E-08 0.00000E+00
 -1       501 6.91723E-06 4.57869E-07 0.00000E+00
 -1       502 6.88527E-06 6.35799E-07-8.27181E-25
 -1       503 6.85321E-06 6.78436E-07 8.27181E-25
 -1       504 6.82151E-06 6.04511E-07-4.13590E-25
 -1       505 6.78981E-06 4.36255E-07 0.00000E+00
 -1       506 6.75816E-06 1.96028E-07-4.13590E-25
 -1       507 6.72651E-06-9.16533E-08 8.27181E-25
 -1       508 6.69487E-06-4.02215E-07-4.13590E-25
 -1       509 6.66324E-06-7.10391E-07-8.27181E-25
 -1       510 6.63161E-06-9.90917E-07 4.13590E-25
 -1       511 6.59999E-06-1.21937E-06 0.00000E+00
 -1       512 6.56838E-06-1.37137E-06-4.13590E-25
 -1       513 6.53677E-06-1.42486E-06-8.27181E-25
 -1       514 6.50510E-06-1.35789E-06 0.00000E+00
 -1       515 6.47344E-06-1.15214E-06 0.00000E+00
 -1       516 6.40633E-06 1.47488E-07 8.27181E-25
 -1       517 5.59773E-06 1.72856E-07-2.58494E-26
 -1       518 4.66449E-06 1.97842E-07 0.00000E+00
 -1       519 3.74566E-06 2.23268E-07 0.00000E+00
 -1       520 2.98065E-06 2.48973E-07 2.58494E-26
 -1       521 6.57496E-06 3.66907E-07 0.00000E+00
 -1       522 6.24002E-06 4.74525E-07 0.00000E+00
 -1       523 5.94719E-06 4.70521E-07 0.00000E+00
 -1       524 5.68798E-06 3.73419E-07 0.00000E+00
 -1       525 5.45619E-06 2.02819E-07-6.61744E-24
 -1       526 5.24445E-06-2.18776E-08-3.30872E-24
 -1       527 5.04560E-06-2.81053E-07 0.00000E+00
 -1       528 4.85227E-06-5.55061E-07 0.00000E+00
 -1       529 4.65711E-06-8.24200E-07 0.00000E+00
 -1       530 4.45279E-06-1.06878E-06-3.30872E-24
 -1       531 4.23195E-06-1.26920E-06 0.00000E+00
 -1       532 3.98743E-06-1.40590E-06-3.30872E-24
 -1       533 3.71190E-06-1.45957E-06 6.61744E-24
 -1       534 3.39916E-06-1.41073E-06 0.00000E+00
 -1       535 3.04082E-06-1.24097E-06-6.61744E-24
 -1       536 6.44529E-06-4.00131E-07 0.00000E+00
 -1       537 6.45111E-06-1.04542E-07-1.03398E-25
 -1       538 6.45693E-06 1.07354E-07 0.00000E+00
 -1       539 6.46305E-06 2.45675E-07-1.29247E-26
 -1       540 6.46922E-06 3.20514E-07 1.03398E-25
 -1       541 6.47545E-06 3.41967E-07-5.16988E-26
 -1       542 6.48169E-06 3.20127E-07-1.03398E-25
 -1       543 6.48795E-06 2.65085E-07 1.03398E-25
 -1       544 6.49420E-06 1.86929E-07 2.06795E-25
 -1       545 6.50046E-06 9.57458E-08 0.00000E+00
 -1       546 6.50672E-06 1.62300E-09 0.00000E+00
 -1       547 6.51298E-06-8.53522E-08-1.03398E-25
 -1       548 6.51925E-06-1.55094E-07-2.06795E-25
 -1       549 6.52551E-06-1.97516E-07 0.00000E+00
 -1       550 6.53177E-06-2.02523E-07 0.00000E+00
 -1       551 5.87309E-06-8.12500E-07-5.16988E-25
 -1       552 5.24058E-06-8.34883E-07 3.10193E-25
 -1       553 4.57206E-06-8.57234E-07 0.00000E+00
 -1       554 3.89629E-06-8.79837E-07 0.00000E+00
 -1       555 3.24199E-06-9.03022E-07 0.00000E+00
 -1       556 6.27505E-06-4.25260E-07 0.00000E+00
 -1       557 6.14077E-06-1.44631E-07 3.30872E-24
 -1       558 6.03497E-06 6.04649E-08-3.30872E-24
 -1       559 5.95429E-06 1.98839E-07 0.00000E+00
 -1       560 5.89535E-06 2.79312E-07 0.00000E+00
 -1       561 5.85481E-06 3.10779E-07 1.65436E-24
 -1       562 5.82932E-06 3.02136E-07 1.65436E-24
 -1       563 5.81553E-06 2.62290E-07 0.00000E+00
 -1       564 5.81011E-06 2.00147E-07-8.27181E-25
 -1       565 5.80971E-06 1.24614E-07 4.13590E-25
 -1       566 5.81100E-06 4.46017E-08 8.27181E-25
 -1       567 5.81064E-06-3.09811E-08 4.13590E-25
 -1       568 5.80531E-06-9.32260E-08 2.06795E-25
 -1       569 5.79174E-06-1.33234E-07 1.29247E-25
 -1       570 5.76666E-06-1.42110E-07-1.03398E-25
 -1       571 6.55821E-06-1.10476E-07-3.10193E-25
 -1       572 6.57903E-06-7.61584E-08 5.16988E-26
 -1       573 6.60003E-06-5.43878E-08-6.20385E-25
 -1       574 6.62112E-06-4.23048E-08-2.06795E-25
 -1       575 6.64224E-06-3.70385E-08 8.27181E-25
 -1       576 6.66338E-06-3.56994E-08 4.13590E-25
 -1       577 6.68452E-06-3.53966E-08-8.27181E-25
 -1       578 6.70566E-06-3.32369E-08-4.13590E-25
 -1       579 6.72680E-06-2.63268E-08 0.00000E+00
 -1       580 6.74795E-06-1.17729E-08-4.13590E-25
 -1       581 6.76909E-06 1.33175E-08 1.65436E-24
 -1       582 6.79023E-06 5.18346E-08 0.00000E+00
 -1       583 6.81137E-06 1.06666E-07 1.65436E-24
 -1       584 6.83248E-06 1.80669E-07 0.00000E+00
 -1       585 6.85357E-06 2.76689E-07-1.65436E-24
 -1       586 6.42101E-06-1.51736E-07 0.00000E+00
 -1       587 6.28709E-06-1.43336E-07 2.06795E-25
 -1       588 6.14344E-06-1.34943E-07 2.06795E-25
 -1       589 5.99741E-06-1.26631E-07 4.52364E-26
 -1       590 5.85636E-06-1.18509E-07 0.00000E+00
 -1       591 6.50349E-06-1.02550E-07-2.06795E-25
 -1       592 6.47178E-06-5.51131E-08 0.00000E+00
 -1       593 6.44296E-06-1.58765E-08 0.00000E+00
 -1       594 6.41647E-06 1.68810E-08 0.00000E+00
 -1       595 6.39174E-06 4.48792E-08-4.13590E-25
 -1       596 6.36814E-06 6.98272E-08-2.06795E-25
 -1       597 6.34503E-06 9.34321E-08 4.13590E-25
 -1       598 6.32178E-06 1.17399E-07 0.00000E+00
 -1       599 6.29776E-06 1.43435E-07-2.06795E-25
 -1       600 6.27232E-06 1.73244E-07-1.03398E-25
 -1       601 6.24484E-06 2.08532E-07 4.13590E-25
 -1       602 6.21468E-06 2.51007E-07 1.03398E-25
 -1       603 6.18122E-06 3.02376E-07-5.16988E-26
 -1       604 6.14388E-06 3.64359E-07 7.75482E-26
 -1       605 6.10212E-06 4.38677E-07 1.03398E-25
 -1       606 6.88197E-06 5.57512E-07 0.00000E+00
 -1       607 6.88890E-06 7.32956E-07 0.00000E+00
 -1       608 6.89568E-06 9.22791E-07-8.27181E-25
 -1       609 6.90239E-06 1.12599E-06-4.13590E-25
 -1       610 6.90907E-06 1.34153E-06 0.00000E+00
 -1       611 6.91574E-06 1.56836E-06 0.00000E+00
 -1       612 6.92240E-06 1.80543E-06 8.27181E-25
 -1       613 6.92905E-06 2.05169E-06 0.00000E+00
 -1       614 6.93571E-06 2.30608E-06 0.00000E+00
 -1       615 6.94236E-06 2.56756E-06 0.00000E+00
 -1       616 6.94901E-06 2.83507E-06 4.13590E-25
 -1       617 6.95565E-06 3.10756E-06 0.00000E+00
 -1       618 6.96229E-06 3.38397E-06 0.00000E+00
 -1       619 6.96892E-06 3.66326E-06-1.03398E-25
 -1       620 6.97554E-06 3.94438E-06 2.06795E-25
 -1       621 6.72320E-06 4.19052E-07-4.13590E-25
 -1       622 6.57547E-06 4.40881E-07 2.06795E-25
 -1       623 6.43315E-06 4.62717E-07 0.00000E+00
 -1       624 6.29798E-06 4.84498E-07 0.00000E+00
 -1       625 6.17172E-06 5.06151E-07-2.06795E-25
 -1       626 6.82685E-06 5.65129E-07 0.00000E+00
 -1       627 6.77290E-06 7.48854E-07 0.00000E+00
 -1       628 6.71344E-06 9.47071E-07 0.00000E+00
 -1       629 6.64913E-06 1.15812E-06 0.00000E+00
 -1       630 6.58062E-06 1.38034E-06 0.00000E+00
 -1       631 6.50856E-06 1.61204E-06 0.00000E+00
 -1       632 6.43356E-06 1.85151E-06 0.00000E+00
 -1       633 6.35628E-06 2.09708E-06-2.06795E-25
 -1       634 6.27736E-06 2.34704E-06 0.00000E+00
 -1       635 6.19741E-06 2.59970E-06 2.06795E-25
 -1       636 6.11709E-06 2.85336E-06 0.00000E+00
 -1       637 6.03702E-06 3.10633E-06-2.06795E-25
 -1       638 5.95782E-06 3.35690E-06 0.00000E+00
 -1       639 5.88010E-06 3.60338E-06 1.55096E-25
 -1       640 5.80441E-06 3.84406E-06 1.55096E-25
 -1       641 6.98232E-06 4.51875E-06 1.03398E-25
 -1       642 6.98230E-06 4.84193E-06 2.58494E-26
 -1       643 6.98229E-06 5.19139E-06 2.58494E-26
 -1       644 6.98223E-06 5.56270E-06 0.00000E+00
 -1       645 6.98216E-06 5.95143E-06 0.00000E+00
 -1       646 6.98208E-06 6.35317E-06 0.00000E+00
 -1       647 6.98199E-06 6.76350E-06 2.01948E-28
 -1       648 6.98190E-06 7.17798E-06 0.00000E+00
 -1       649 6.98180E-06 7.59219E-06 0.00000E+00
 -1       650 6.98170E-06 8.00172E-06 0.00000E+00
 -1       651 6.98160E-06 8.40213E-06 0.00000E+00
 -1       652 6.98148E-06 8.78901E-06-2.58494E-26
 -1       653 6.98135E-06 9.15793E-06 1.03398E-25
 -1       654 6.98108E-06 9.50447E-06 0.00000E+00
 -1       655 6.98086E-06 9.82421E-06 0.00000E+00
 -1       656 6.72860E-06 4.20227E-06 0.00000E+00
 -1       657 6.50919E-06 4.17703E-06-2.06795E-25
 -1       658 6.31181E-06 4.15183E-06-4.13590E-25
 -1       659 6.12438E-06 4.12661E-06-2.06795E-25
 -1       660 5.93480E-06 4.10135E-06 0.00000E+00
 -1       661 6.90067E-06 4.52727E-06 0.00000E+00
 -1       662 6.81129E-06 4.85247E-06-4.13590E-25
 -1       663 6.71422E-06 5.19805E-06 0.00000E+00
 -1       664 6.61096E-06 5.56059E-06 0.00000E+00
 -1       665 6.50266E-06 5.93658E-06 0.00000E+00
 -1       666 6.39064E-06 6.32258E-06-4.13590E-25
 -1       667 6.27617E-06 6.71512E-06 0.00000E+00
 -1       668 6.16054E-06 7.11075E-06-4.13590E-25
 -1       669 6.04505E-06 7.50600E-06 0.00000E+00
 -1       670 5.93099E-06 7.89745E-06 4.13590E-25
 -1       671 5.81964E-06 8.28161E-06 0.00000E+00
 -1       672 5.71229E-06 8.65503E-06 0.00000E+00
 -1       673 5.61023E-06 9.01427E-06 8.27181E-25
 -1       674 5.51457E-06 9.35577E-06 4.13590E-25
 -1       675 5.42687E-06 9.67617E-06 0.00000E+00
 -1       676 6.70708E-06 1.00891E-05 0.00000E+00
 -1       677 6.43449E-06 1.00654E-05-4.13590E-25
 -1       678 6.16211E-06 1.00417E-05 0.00000E+00
 -1       679 5.88999E-06 1.00180E-05 0.00000E+00
 -1       680 5.61822E-06 9.99439E-06 0.00000E+00
 -1       681 1.91640E-06 2.30094E-08 8.27181E-25
 -1       682 1.95604E-06 1.60809E-07 0.00000E+00
 -1       683 1.99563E-06 2.26009E-07 0.00000E+00
 -1       684 2.03542E-06 2.33725E-07 0.00000E+00
 -1       685 2.07522E-06 1.96860E-07-1.65436E-24
 -1       686 2.11506E-06 1.28236E-07 8.27181E-25
 -1       687 2.15491E-06 3.94536E-08 0.00000E+00
 -1       688 2.19476E-06-5.79246E-08 0.00000E+00
 -1       689 2.23460E-06-1.52669E-07-1.65436E-24
 -1       690 2.27443E-06-2.33543E-07 0.00000E+00
 -1       691 2.31425E-06-2.88775E-07 8.27181E-25
 -1       692 2.35397E-06-3.06550E-07 0.00000E+00
 -1       693 2.39368E-06-2.73607E-07-8.27181E-25
 -1       694 2.43290E-06-1.76597E-07 4.13590E-25
 -1       695 2.47227E-06 2.98960E-10 2.06795E-25
 -1       696 1.58803E-06-1.69769E-07 0.00000E+00
 -1       697 1.25968E-06-1.36017E-07 0.00000E+00
 -1       698 9.14745E-07-1.02321E-07 8.27181E-25
 -1       699 5.75104E-07-6.83711E-08 0.00000E+00
 -1       700 2.62824E-07-3.44343E-08 1.65436E-24
 -1       701 1.74523E-06 2.95299E-08 0.00000E+00
 -1       702 1.62747E-06 2.15209E-07 0.00000E+00
 -1       703 1.52626E-06 3.57247E-07 0.00000E+00
 -1       704 1.44028E-06 4.57462E-07-8.27181E-25
 -1       705 1.36844E-06 5.19948E-07 0.00000E+00
 -1       706 1.30918E-06 5.48689E-07-8.27181E-25
 -1       707 1.26046E-06 5.49295E-07 0.00000E+00
 -1       708 1.22016E-06 5.27396E-07 0.00000E+00
 -1       709 1.18582E-06 4.89643E-07 0.00000E+00
 -1       710 1.15492E-06 4.42720E-07 0.00000E+00
 -1       711 1.12480E-06 3.93726E-07-1.65436E-24
 -1       712 1.09288E-06 3.49787E-07-8.27181E-25
 -1       713 1.05649E-06 3.17770E-07-8.27181E-25
 -1       714 1.01344E-06 3.04694E-07 0.00000E+00
 -1       715 9.60959E-07 3.16340E-07-4.13590E-25
 -1       716 2.51614E-06 5.18667E-07-2.06795E-25
 -1       717 2.52452E-06 6.14603E-07 0.00000E+00
 -1       718 2.53282E-06 5.84510E-07 1.03398E-25
 -1       719 2.54136E-06 4.52007E-07 0.00000E+00
 -1       720 2.54989E-06 2.39866E-07 2.06795E-25
 -1       721 2.55846E-06-2.91640E-08 0.00000E+00
 -1       722 2.56702E-06-3.32804E-07 2.06795E-25
 -1       723 2.57558E-06-6.48797E-07 0.00000E+00
 -1       724 2.58414E-06-9.54978E-07 0.00000E+00
 -1       725 2.59268E-06-1.22918E-06-1.03398E-25
 -1       726 2.60121E-06-1.44898E-06 0.00000E+00
 -1       727 2.60961E-06-1.59192E-06 0.00000E+00
 -1       728 2.61799E-06-1.63492E-06 0.00000E+00
 -1       729 2.62564E-06-1.55486E-06 0.00000E+00
 -1       730 2.63351E-06-1.32762E-06 1.65436E-24
 -1       731 2.18166E-06 2.86102E-07 0.00000E+00
 -1       732 1.84301E-06 3.00696E-07 0.00000E+00
 -1       733 1.51916E-06 3.15197E-07 0.00000E+00
 -1       734 1.23615E-06 3.29974E-07 0.00000E+00
 -1       735 1.02058E-06 3.44788E-07 0.00000E+00
 -1       736 2.30664E-06 5.33245E-07-1.65436E-24
 -1       737 2.12125E-06 7.39085E-07 0.00000E+00
 -1       738 1.95844E-06 8.85362E-07-3.30872E-24
 -1       739 1.81977E-06 9.65674E-07 0.00000E+00
 -1       740 1.70558E-06 9.80698E-07 0.00000E+00
 -1       741 1.61550E-06 9.31143E-07 0.00000E+00
 -1       742 1.54688E-06 8.24320E-07 3.30872E-24
 -1       743 1.49690E-06 6.67731E-07-1.65436E-24
 -1       744 1.46086E-06 4.73968E-07 3.30872E-24
 -1       745 1.43399E-06 2.55774E-07 1.65436E-24
 -1       746 1.41060E-06 2.83082E-08 0.00000E+00
 -1       747 1.38507E-06-1.93190E-07 0.00000E+00
 -1       748 1.35185E-06-3.94145E-07 0.00000E+00
 -1       749 1.30597E-06-5.59863E-07 1.65436E-24
 -1       750 1.24263E-06-6.79568E-07-1.65436E-24
 -1       751 2.81915E-06-5.14179E-07-1.65436E-24
 -1       752 3.01229E-06-2.37236E-07-1.65436E-24
 -1       753 3.20473E-06-6.50162E-08 0.00000E+00
 -1       754 3.39935E-06 3.47695E-08 0.00000E+00
 -1       755 3.59403E-06 8.00335E-08 6.61744E-24
 -1       756 3.78915E-06 8.82275E-08 3.30872E-24
 -1       757 3.98432E-06 6.94277E-08 0.00000E+00
 -1       758 4.17956E-06 3.34832E-08 0.00000E+00
 -1       759 4.37481E-06-1.31697E-08-6.61744E-24
 -1       760 4.57001E-06-6.41860E-08 0.00000E+00
 -1       761 4.76518E-06-1.14088E-07-6.61744E-24
 -1       762 4.96005E-06-1.57390E-07 3.30872E-24
 -1       763 5.15486E-06-1.87291E-07 0.00000E+00
 -1       764 5.34813E-06-1.96880E-07 0.00000E+00
 -1       765 5.54191E-06-1.75209E-07 0.00000E+00
 -1       766 2.19219E-06-9.01447E-07 8.27181E-25
 -1       767 1.82620E-06-8.69080E-07 0.00000E+00
 -1       768 1.53918E-06-8.37014E-07 0.00000E+00
 -1       769 1.33098E-06-8.04490E-07 2.06795E-25
 -1       770 1.20396E-06-7.71753E-07-2.58494E-26
 -1       771 2.35280E-06-5.45907E-07 0.00000E+00
 -1       772 2.09393E-06-2.36664E-07 0.00000E+00
 -1       773 1.85998E-06 5.16920E-09 0.00000E+00
 -1       774 1.64868E-06 1.86134E-07 0.00000E+00
 -1       775 1.45770E-06 3.12772E-07 6.61744E-24
 -1       776 1.28460E-06 3.91645E-07 0.00000E+00
 -1       777 1.12695E-06 4.29319E-07-3.30872E-24
 -1       778 9.82281E-07 4.32362E-07 0.00000E+00
 -1       779 8.48136E-07 4.07348E-07 0.00000E+00
 -1       780 7.22053E-07 3.60852E-07 0.00000E+00
 -1       781 6.01570E-07 2.99455E-07 0.00000E+00
 -1       782 4.84241E-07 2.29740E-07 1.65436E-24
 -1       783 3.67622E-07 1.58296E-07 0.00000E+00
 -1       784 2.49377E-07 9.17331E-08 0.00000E+00
 -1       785 1.27186E-07 3.66658E-08 3.30872E-24
 -1       786 5.74680E-06-3.50752E-08 0.00000E+00
 -1       787 5.76728E-06 2.41234E-08 0.00000E+00
 -1       788 5.78774E-06 6.90911E-08 0.00000E+00
 -1       789 5.80839E-06 1.02401E-07-2.06795E-25
 -1       790 5.82906E-06 1.26621E-07-8.27181E-25
 -1       791 5.84977E-06 1.44319E-07 4.13590E-25
 -1       792 5.87048E-06 1.58061E-07-8.27181E-25
 -1       793 5.89121E-06 1.70413E-07 0.00000E+00
 -1       794 5.91193E-06 1.83941E-07 0.00000E+00
 -1       795 5.93265E-06 2.01210E-07 0.00000E+00
 -1       796 5.95337E-06 2.24786E-07 0.00000E+00
 -1       797 5.97407E-06 2.57237E-07 0.00000E+00
 -1       798 5.99476E-06 3.01132E-07 0.00000E+00
 -1       799 6.01537E-06 3.59041E-07 2.06795E-25
 -1       800 6.03598E-06 4.33540E-07 0.00000E+00
 -1       801 5.21744E-06-9.20241E-08 0.00000E+00
 -1       802 4.15803E-06-7.23062E-08 0.00000E+00
 -1       803 2.82769E-06-5.29879E-08-1.03398E-25
 -1       804 1.50536E-06-3.41778E-08 0.00000E+00
 -1       805 4.69997E-07-1.49932E-08 0.00000E+00
 -1       806 5.67562E-06-4.31205E-08 0.00000E+00
 -1       807 5.62564E-06 1.75269E-08-4.13590E-25
 -1       808 5.57766E-06 7.22796E-08 0.00000E+00
 -1       809 5.53130E-06 1.22439E-07-8.27181E-25
 -1       810 5.48615E-06 1.69299E-07 0.00000E+00
 -1       811 5.44173E-06 2.14145E-07 0.00000E+00
 -1       812 5.39759E-06 2.58258E-07 0.00000E+00
 -1       813 5.35324E-06 3.02919E-07 0.00000E+00
 -1       814 5.30820E-06 3.49410E-07 8.27181E-25
 -1       815 5.26199E-06 3.99011E-07 2.06795E-25
 -1       816 5.21415E-06 4.53001E-07 8.27181E-25
 -1       817 5.16419E-06 5.12664E-07 0.00000E+00
 -1       818 5.11165E-06 5.79282E-07-4.13590E-25
 -1       819 5.05610E-06 6.54137E-07 0.00000E+00
 -1       820 4.99714E-06 7.38523E-07-2.06795E-25
 -1       821 6.03695E-06 6.46693E-07 0.00000E+00
 -1       822 6.01666E-06 7.93002E-07-2.06795E-25
 -1       823 5.99637E-06 9.63324E-07 0.00000E+00
 -1       824 5.97591E-06 1.15484E-06 2.06795E-25
 -1       825 5.95541E-06 1.36473E-06-4.13590E-25
 -1       826 5.93488E-06 1.59016E-06 0.00000E+00
 -1       827 5.91434E-06 1.82832E-06 8.27181E-25
 -1       828 5.89379E-06 2.07638E-06 0.00000E+00
 -1       829 5.87323E-06 2.33149E-06 0.00000E+00
 -1       830 5.85268E-06 2.59084E-06 0.00000E+00
 -1       831 5.83214E-06 2.85159E-06 8.27181E-25
 -1       832 5.81162E-06 3.11091E-06 0.00000E+00
 -1       833 5.79112E-06 3.36595E-06 4.13590E-25
 -1       834 5.77077E-06 3.61391E-06 2.06795E-25
 -1       835 5.75041E-06 3.85193E-06 0.00000E+00
 -1       836 5.91359E-06 5.77327E-07-8.27181E-25
 -1       837 5.72128E-06 6.29246E-07-4.13590E-25
 -1       838 5.50316E-06 6.81068E-07 1.65436E-24
 -1       839 5.28333E-06 7.32770E-07 0.00000E+00
 -1       840 5.08586E-06 7.84562E-07 8.27181E-25
 -1       841 6.00881E-06 6.45682E-07 5.16988E-26
 -1       842 5.95008E-06 7.93476E-07 0.00000E+00
 -1       843 5.88156E-06 9.67449E-07 0.00000E+00
 -1       844 5.80439E-06 1.16426E-06 0.00000E+00
 -1       845 5.71989E-06 1.38055E-06 0.00000E+00
 -1       846 5.62935E-06 1.61295E-06 0.00000E+00
 -1       847 5.53404E-06 1.85802E-06 1.03398E-25
 -1       848 5.43526E-06 2.11234E-06 5.16988E-26
 -1       849 5.33431E-06 2.37243E-06 1.03398E-25
 -1       850 5.23249E-06 2.63483E-06 5.16988E-26
 -1       851 5.13110E-06 2.89608E-06 0.00000E+00
 -1       852 5.03144E-06 3.15270E-06 5.16988E-26
 -1       853 4.93481E-06 3.40123E-06 0.00000E+00
 -1       854 4.84245E-06 3.63819E-06-1.03398E-25
 -1       855 4.75572E-06 3.86021E-06 2.06795E-25
 -1       856 5.70817E-06 4.31948E-06-4.13590E-25
 -1       857 5.68421E-06 4.60544E-06 2.06795E-25
 -1       858 5.66026E-06 4.92934E-06-8.27181E-25
 -1       859 5.63613E-06 5.28545E-06-4.13590E-25
 -1       860 5.61197E-06 5.66801E-06 0.00000E+00
 -1       861 5.58777E-06 6.07123E-06 4.13590E-25
 -1       862 5.56356E-06 6.48938E-06 0.00000E+00
 -1       863 5.53933E-06 6.91667E-06 4.13590E-25
 -1       864 5.51510E-06 7.34732E-06-8.27181E-25
 -1       865 5.49088E-06 7.77556E-06-4.13590E-25
 -1       866 5.46667E-06 8.19563E-06-8.27181E-25
 -1       867 5.44248E-06 8.60174E-06-4.13590E-25
 -1       868 5.41831E-06 8.98814E-06 0.00000E+00
 -1       869 5.39425E-06 9.34906E-06 0.00000E+00
 -1       870 5.37020E-06 9.67872E-06 0.00000E+00
 -1       871 5.53746E-06 4.07529E-06 0.00000E+00
 -1       872 5.35774E-06 4.07318E-06 0.00000E+00
 -1       873 5.18682E-06 4.07102E-06 0.00000E+00
 -1       874 5.01956E-06 4.06879E-06-5.16988E-26
 -1       875 4.85083E-06 4.06646E-06-1.03398E-25
 -1       876 5.67303E-06 4.32734E-06 0.00000E+00
 -1       877 5.60240E-06 4.61518E-06 0.00000E+00
 -1       878 5.51955E-06 4.93546E-06-8.27181E-25
 -1       879 5.42651E-06 5.28353E-06 0.00000E+00
 -1       880 5.32486E-06 5.65455E-06 0.00000E+00
 -1       881 5.21641E-06 6.04380E-06 0.00000E+00
 -1       882 5.10290E-06 6.44653E-06-8.27181E-25
 -1       883 4.98612E-06 6.85801E-06 0.00000E+00
 -1       884 4.86783E-06 7.27350E-06 0.00000E+00
 -1       885 4.74980E-06 7.68828E-06 0.00000E+00
 -1       886 4.63380E-06 8.09763E-06 0.00000E+00
 -1       887 4.52158E-06 8.49679E-06 4.13590E-25
 -1       888 4.41492E-06 8.88105E-06 0.00000E+00
 -1       889 4.31541E-06 9.24559E-06-4.13590E-25
 -1       890 4.22508E-06 9.58576E-06 0.00000E+00
 -1       891 5.11129E-06 9.95897E-06-4.13590E-25
 -1       892 4.92143E-06 9.94633E-06 0.00000E+00
 -1       893 4.75354E-06 9.93371E-06 0.00000E+00
 -1       894 4.58386E-06 9.92112E-06 1.03398E-25
 -1       895 4.38862E-06 9.90851E-06 2.06795E-25
 -1       896 5.58818E-08 2.06995E-07 0.00000E+00
 -1       897 1.12239E-07 3.53586E-07-8.27181E-25
 -1       898 1.68573E-07 4.49748E-07-1.65436E-24
 -1       899 2.24999E-07 5.05331E-07-8.27181E-25
 -1       900 2.81427E-07 5.27952E-07 1.65436E-24
 -1       901 3.37874E-07 5.25151E-07 0.00000E+00
 -1       902 3.94321E-07 5.03069E-07 0.00000E+00
 -1       903 4.50768E-07 4.67799E-07 0.00000E+00
 -1       904 5.07213E-07 4.24710E-07 1.65436E-24
 -1       905 5.63644E-07 3.79152E-07 0.00000E+00
 -1       906 6.20066E-07 3.36337E-07 0.00000E+00
 -1       907 6.76419E-07 3.01487E-07 8.27181E-25
 -1       908 7.32762E-07 2.80258E-07 0.00000E+00
 -1       909 7.88755E-07 2.78344E-07 0.00000E+00
 -1       910 8.44865E-07 3.02494E-07 0.00000E+00
 -1       911 9.15445E-07 4.12540E-07 0.00000E+00
 -1       912 9.31985E-07 4.24557E-07-2.06795E-25
 -1       913 9.48510E-07 4.01360E-07-4.13590E-25
 -1       914 9.65077E-07 3.48705E-07-2.06795E-25
 -1       915 9.81644E-07 2.71878E-07 0.00000E+00
 -1       916 9.98217E-07 1.76150E-07 0.00000E+00
 -1       917 1.01479E-06 6.64887E-08 0.00000E+00
 -1       918 1.03136E-06-5.21486E-08 2.06795E-25
 -1       919 1.04792E-06-1.74946E-07 0.00000E+00
 -1       920 1.06448E-06-2.97090E-07-2.06795E-25
 -1       921 1.08102E-06-4.13760E-07-4.13590E-25
 -1       922 1.09749E-06-5.20130E-07 2.06795E-25
 -1       923 1.11395E-06-6.11207E-07 0.00000E+00
 -1       924 1.13006E-06-6.81991E-07 0.00000E+00
 -1       925 1.14628E-06-7.27159E-07 0.00000E+00
 -1       926 1.08997E-06-7.35442E-07 0.00000E+00
 -1       927 1.01763E-06-7.20483E-07-8.27181E-25
 -1       928 9.45405E-07-6.96560E-07 0.00000E+00
 -1       929 8.72851E-07-6.63773E-07 0.00000E+00
 -1       930 8.00288E-07-6.22821E-07 0.00000E+00
 -1       931 7.27659E-07-5.74432E-07 0.00000E+00
 -1       932 6.55021E-07-5.19837E-07 1.65436E-24
 -1       933 5.82368E-07-4.60287E-07 8.27181E-25
 -1       934 5.09711E-07-3.97371E-07-1.65436E-24
 -1       935 4.37046E-07-3.32687E-07 0.00000E+00
 -1       936 3.64377E-07-2.67954E-07 0.00000E+00
 -1       937 2.91684E-07-2.04891E-07 0.00000E+00
 -1       938 2.18987E-07-1.45103E-07 0.00000E+00
 -1       939 1.46172E-07-9.01856E-08 8.27181E-25
 -1       940 7.33973E-08-4.14034E-08-3.30872E-24
 -1       941 2.92509E-07 3.81559E-08 3.30872E-24
 -1       942 6.01149E-07 7.72031E-08 0.00000E+00
 -1       943 9.08769E-07 1.16954E-07 0.00000E+00
 -1       944 1.21945E-06 1.57231E-07 3.30872E-24
 -1       945 1.53023E-06 1.98027E-07 0.00000E+00
 -1       946 1.84161E-06 2.39347E-07 0.00000E+00
 -1       947 2.15307E-06 2.81364E-07 6.61744E-24
 -1       948 2.46463E-06 3.24263E-07 0.00000E+00
 -1       949 2.77620E-06 3.68519E-07 6.61744E-24
 -1       950 3.08769E-06 4.14626E-07 3.30872E-24
 -1       951 3.39912E-06 4.63690E-07 0.00000E+00
 -1       952 3.71007E-06 5.16857E-07 3.30872E-24
 -1       953 4.02095E-06 5.76626E-07 0.00000E+00
 -1       954 4.32935E-06 6.45587E-07 0.00000E+00
 -1       955 4.63857E-06 7.29361E-07 3.30872E-24
 -1       956 4.91889E-06 9.64164E-07 0.00000E+00
 -1       957 4.90273E-06 1.11295E-06-7.75482E-26
 -1       958 4.88652E-06 1.27834E-06-1.03398E-25
 -1       959 4.87028E-06 1.45842E-06-1.55096E-25
 -1       960 4.85403E-06 1.65128E-06 4.13590E-25
 -1       961 4.83777E-06 1.85499E-06 1.03398E-25
 -1       962 4.82151E-06 2.06761E-06-4.13590E-25
 -1       963 4.80524E-06 2.28722E-06 0.00000E+00
 -1       964 4.78897E-06 2.51187E-06 0.00000E+00
 -1       965 4.77271E-06 2.73965E-06 0.00000E+00
 -1       966 4.75644E-06 2.96861E-06 0.00000E+00
 -1       967 4.74018E-06 3.19682E-06 0.00000E+00
 -1       968 4.72393E-06 3.42235E-06 0.00000E+00
 -1       969 4.70770E-06 3.64329E-06 0.00000E+00
 -1       970 4.69152E-06 3.85769E-06 0.00000E+00
 -1       971 4.64323E-06 4.28544E-06 0.00000E+00
 -1       972 4.61000E-06 4.55342E-06 0.00000E+00
 -1       973 4.57677E-06 4.86186E-06 8.27181E-25
 -1       974 4.54338E-06 5.20494E-06 0.00000E+00
 -1       975 4.50997E-06 5.57683E-06 0.00000E+00
 -1       976 4.47653E-06 5.97168E-06 4.13590E-25
 -1       977 4.44307E-06 6.38367E-06 0.00000E+00
 -1       978 4.40960E-06 6.80692E-06 4.13590E-25
 -1       979 4.37613E-06 7.23559E-06 8.27181E-25
 -1       980 4.34267E-06 7.66382E-06 4.13590E-25
 -1       981 4.30922E-06 8.08575E-06-8.27181E-25
 -1       982 4.27580E-06 8.49553E-06 0.00000E+00
 -1       983 4.24243E-06 8.88731E-06 0.00000E+00
 -1       984 4.20924E-06 9.25525E-06 0.00000E+00
 -1       985 4.17605E-06 9.59349E-06 8.27181E-25
 -3
    1PSTEP                         4           2           1          
  100CL  102 1.25000E-01         841                     0    2           1
 -4  STRESS      6    1
 -5  SXX         1    4    1    1
 -5  SYY         1    4    2    2
 -5  SZZ         1    4    3    3
 -5  SXY         1    4    1    2
 -5  SYZ         1    4    2    3
 -5  SZX         1    4    3    1
 -1         1-5.17791E+05-1.66016E+05-1.06099E+05-1.47271E+05-2.12215E-11 5.55398E-10
 -1         2-3.28886E+05-1.80178E+04 4.59068E+02-3.27865E+04-2.58638E-10 8.66294E-11
 -1         3-1.70584E+05-5.93703E+04-5.92735E+03-1.41235E+04-3.61879E-11-4.81876E-10
 -1         4-8.57913E+04-1.60486E+04 1.29550E+02-8.59906E+03-4.11937E-11 5.14625E-10
 -1         5-4.36109E+04 2.54074E+04-2.20324E+04-1.31438E+03 1.14869E-09 8.91276E-10
 -1         8-2.78886E+05-1.12222E+05-4.25869E+04-1.05807E+05 0.00000E+00 7.13953E-10
 -1         9-2.97171E+05-6.71310E+04-3.73015E+04-6.85024E+04-1.26875E-10-8.60988E-11
 -1        10-1.49619E+05-8.44384E+04-6.95851E+03-3.76929E+04-6.13473E-10 7.27596E-11
 -1        11-8.59408E+04-2.48866E+04 1.04349E+02-1.92048E+04 1.63434E-10-1.35367E-10
 -1        12-5.42119E+04 2.01995E+04-2.49216E+04-8.25068E+03 1.41519E-09-1.97004E-10
 -1        15 3.12085E+03-1.37150E+04 5.34848E+02-2.53554E+04-7.02585E-11-1.80080E-10
 -1        16-1.61678E+05-2.82553E+04 6.80315E+03-7.50053E+04 2.95737E-10 3.42311E-10
 -1        17-1.00593E+05-6.74607E+04-1.10910E+04-5.54323E+04 6.45741E-11 7.66704E-10
 -1        18-4.90257E+04-2.54744E+04-1.84569E+04-2.83584E+04-3.65768E-10-3.20748E-10
 -1        19-1.05150E+04 1.31175E+04-1.01100E+04-8.62611E+03 5.32206E-10 1.41502E-10
 -1        20 1.76441E+04-1.30117E+04-2.16796E+03 9.44710E+03 1.49163E-09-4.93856E-10
 -1        21-5.44204E+01-2.64139E+04 6.59695E+03 5.52541E+01 2.57725E-09-8.37339E-10
 -1        22 5.31971E+03 3.08510E+04 2.02632E+02-7.44899E+03-4.67253E-11-1.97815E-10
 -1        23-6.32672E+04 3.10860E+02 6.61316E+02-2.99624E+04-5.52025E-10 1.26875E-10
 -1        24-3.66409E+04 5.52995E+03 4.36932E+04-7.62189E+04-1.39047E-09 6.70601E-10
 -1        25 9.49919E+04 3.23943E+04 2.97329E+04-4.86032E+04 1.73524E-10-1.83339E-10
 -1        26 4.51672E+02 2.94539E+04 1.52699E+03-5.72035E+03 2.56080E-10 1.11716E-10
 -1        27-6.88139E+03-1.11123E+04-4.79838E+03 1.27389E+04 1.02163E-09-1.81899E-10
 -1        28-2.21253E+03-2.06364E+04-1.19525E+02 9.91553E+03 1.09995E-09-6.75792E-11
 -1        29 7.72886E+04 5.22996E+04 2.15579E+02-5.33036E+02-4.61455E-11-5.50926E-10
 -1        30 2.52223E+04 7.66717E+03 3.25630E+02-7.54222E+03-7.10653E-11-4.32010E-12
 -1        31-9.07613E+04 7.36951E+03 7.55895E+02-1.91203E+04-1.51522E-11 6.48470E-10
 -1        32 1.25169E+05 7.33451E+04 9.00191E+04-7.63649E+04 1.68905E-09 7.90351E-10
 -1        33 2.16588E+05 9.21462E+04 6.78135E+04-8.22795E+03-2.78478E-09-3.21734E-11
 -1        34-3.58012E+04-5.08566E+03-1.53513E+03 6.71845E+03 4.28932E-10 1.90084E-10
 -1        35-5.72135E+03-6.86222E+03-1.23589E+02 1.47090E+04 2.19607E-09-3.61979E-10
 -1        36-7.06156E+05 2.13910E+04-4.97298E+04 2.36035E-08-3.47975E-10 1.52795E-10
 -1        37-7.27639E+05-2.47712E+04-3.51477E+04 9.48610E-08 2.19397E-10-1.45110E-09
 -1        38-7.14461E+05 3.33661E+03-1.28749E+04-5.86039E-09-4.37293E-10-4.84761E-10
 -1        39-7.17962E+05-3.86223E+03-8.08191E+03-2.04778E-08-4.55302E-10-8.21842E-10
 -1        40-7.15824E+05 5.19321E+02-3.30872E+03-3.02713E-08-3.42855E-10-9.53378E-10
 -1        41-7.16371E+05-6.07989E+02-1.96977E+03-3.34123E-08-6.53490E-10-3.30829E-11
 -1        42-7.16048E+05 8.78431E+01-9.60487E+02-3.59348E-08-1.52117E-10-5.33021E-10
 -1        43-7.16132E+05-1.52301E+02-7.51354E+02 6.31239E-08-1.94625E-10-1.08717E-10
 -1        44-7.16062E+05 6.43140E+01-7.45530E+02 2.68724E-08-6.28590E-11 7.54525E-10
 -1        45-7.16261E+05-4.04786E+02-1.34868E+03-5.25630E-08-6.52945E-10 2.52101E-10
 -1        46-7.15919E+05 3.39934E+02-2.18873E+03-3.09052E-08 5.58617E-11 4.35080E-10
 -1        47-7.17294E+05-2.52150E+03-5.28932E+03 3.85862E-09-1.29233E-10 2.44768E-10
 -1        48-7.15031E+05 2.17745E+03-8.40900E+03-3.19423E-08-5.72418E-10 4.12456E-10
 -1        49-7.23608E+05-1.61648E+04-2.29395E+04-6.00244E-09-3.85721E-10 8.60382E-10
 -1        50-7.09613E+05 1.39585E+04-3.24554E+04-1.15666E-08-1.23887E-09 5.22050E-10
 -1        51 5.96786E+03-6.85582E+04 9.56037E+03-1.80434E+05-1.09139E-11-5.43878E-10
 -1        52 2.32290E+03-6.71609E+04 5.68953E+03-1.98998E+05 1.18234E-11-9.11314E-10
 -1        53 1.19632E+03-6.83935E+04 4.50372E+03-1.79975E+05-6.18456E-11-1.86628E-09
 -1        54 3.01708E+03-6.72634E+04 6.71917E+03-1.99506E+05-7.45786E-11-1.37061E-09
 -1        55 7.95947E+03-6.92439E+04 1.21360E+04-1.79914E+05-1.16415E-10 8.92214E-10
 -1        56-7.79066E+05-8.82061E+04-6.36715E+04-3.01358E+05-8.64020E-11-3.01952E-10
 -1        57-8.08954E+05-1.39976E+05-4.26970E+04-2.93918E+05-2.06455E-10-2.43745E-10
 -1        58-7.91384E+05-1.08318E+05-1.50063E+04-2.97956E+05 1.16188E-10-1.26056E-09
 -1        59-7.94758E+05-1.16291E+05-8.89619E+03-2.98030E+05 6.15614E-11 1.92085E-09
 -1        60-7.93135E+05-1.11093E+05-3.51228E+03-2.97540E+05 2.75691E-10 5.02496E-10
 -1        61-7.92763E+05-1.13018E+05-1.98872E+03-2.98502E+05-2.66255E-10 5.84038E-10
 -1        62-7.93361E+05-1.11492E+05-9.71761E+02-2.97519E+05 1.42450E-10 2.19814E-10
 -1        63-7.92571E+05-1.12569E+05-8.16309E+02-2.98484E+05-4.60950E-10-2.34309E-10
 -1        64-7.93325E+05-1.11531E+05-9.52167E+02-2.97562E+05 5.17559E-10 5.94952E-10
 -1        65-7.92904E+05-1.12850E+05-1.93094E+03-2.98330E+05 5.13900E-11-2.18876E-10
 -1        66-7.93030E+05-1.11222E+05-3.40267E+03-2.97669E+05 1.20508E-10 6.63476E-10
 -1        67-7.94982E+05-1.15870E+05-8.61302E+03-2.97702E+05-1.12095E-10 5.10340E-10
 -1        68-7.91264E+05-1.08608E+05-1.45276E+04-2.98155E+05-6.07088E-11 2.31012E-10
 -1        69-8.08862E+05-1.38659E+05-4.13323E+04-2.93562E+05 1.00044E-10 4.40195E-10
 -1        70-7.79273E+05-8.92052E+04-6.16378E+04-3.01524E+05-2.78305E-10 4.36557E-11
 -1        71-3.34087E+05-5.87373E+02 1.36550E+03-5.54612E-09 3.18281E-11 1.09992E-10
 -1        72-3.33465E+05 6.80162E+02 9.63777E+02 3.20463E-09 1.29087E-10-6.60478E-10
 -1        73-3.33859E+05-9.15592E+01 3.50460E+02-1.24394E-09-2.07946E-10-3.20497E-10
 -1        74-3.33731E+05 1.05530E+02 2.15157E+02-1.47169E-08 6.13707E-11-3.20401E-10
 -1        75-3.33821E+05-1.37967E+01 7.77293E+01-6.89314E-08 6.94480E-11-5.98476E-10
 -1        76-3.33777E+05 1.31227E+01 2.59583E+01-2.91010E-08-2.40764E-10-5.62883E-10
 -1        77-3.33813E+05 6.96095E-01-2.64487E+01-6.26060E-08-7.35285E-11-7.80631E-10
 -1        78-3.33796E+05-1.93424E+01-9.54960E+01-4.22274E-08-1.60736E-10 3.03849E-10
 -1        79-3.33802E+05 1.86280E+01-1.90387E+02-3.26990E-08-1.86678E-10 5.52077E-10
 -1        80-3.33861E+05-1.41746E+02-4.47647E+02 3.05438E-08-2.02492E-10-1.60327E-10
 -1        81-3.33748E+05 1.22922E+02-7.76295E+02 2.69326E-09 7.09158E-11-2.50992E-10
 -1        82-3.34240E+05-9.16257E+02-1.91391E+03 7.78238E-09-1.66153E-10 1.65699E-11
 -1        83-3.33424E+05 7.91838E+02-3.05448E+03-3.37229E-09-4.48743E-10-1.47907E-10
 -1        84-3.36536E+05-5.87892E+03-8.34204E+03-2.59068E-09-1.58860E-13-4.26553E-10
 -1        85-3.31452E+05 5.07652E+03-1.18056E+04-2.20061E-08-6.52701E-11 3.80169E-10
 -1        86-1.60594E+04 6.05632E+04 3.79558E+04 2.56942E+02 9.09495E-12-7.56181E-10
 -1        87 2.00154E+04 7.74705E+04 2.93363E+04-1.10037E+03-1.09139E-11-1.63591E-09
 -1        88-3.91963E+03 6.61248E+04 1.49410E+04 2.23367E+02-9.52696E-11-7.21769E-10
 -1        89 1.36203E+04 7.44985E+04 2.09754E+04-1.05440E+03 1.14824E-11 9.76861E-10
 -1        90-9.67592E+03 6.35337E+04 2.35554E+04 2.10980E+02-1.38243E-10 7.91844E-10
 -1        91-3.56646E+05-4.81694E+04-4.93278E+03-1.34507E+05 4.11546E-11-8.68795E-10
 -1        92-3.58962E+05-5.29280E+04-3.42097E+03-1.33928E+05 3.79430E-12-5.03690E-10
 -1        93-3.57691E+05-4.98957E+04-1.15837E+03-1.34127E+05 3.77668E-10-1.07013E-09
 -1        94-3.57747E+05-5.09307E+04-7.26235E+02-1.34369E+05 1.87386E-09-9.87590E-10
 -1        95-3.57861E+05-5.01635E+04-2.79046E+02-1.34067E+05 6.61480E-10-5.90205E-10
 -1        96-3.57582E+05-5.05935E+04-1.80768E+02-1.34401E+05 1.98241E-10-1.32339E-10
 -1        97-3.57855E+05-5.02324E+04-1.11436E+02-1.34094E+05 1.13033E-10 3.34494E-10
 -1        98-3.57653E+05-5.04866E+04-1.52715E+02-1.34308E+05-4.65721E-10 6.19183E-10
 -1        99-3.57790E+05-5.02705E+04-2.32512E+02-1.34160E+05-2.34419E-10-1.83634E-09
 -1       100-3.57876E+05-5.05371E+04-5.55411E+02-1.34143E+05 6.73435E-11-7.97414E-10
 -1       101-3.57633E+05-5.01822E+04-9.53030E+02-1.34259E+05-3.61283E-10-3.00417E-10
 -1       102-3.58665E+05-5.15527E+04-2.55759E+03-1.33803E+05 2.70020E-10-1.21076E-09
 -1       103-3.57001E+05-4.92565E+04-4.10115E+03-1.34500E+05-3.15367E-10-1.47952E-09
 -1       104-3.62893E+05-5.87329E+04-1.21342E+04-1.32345E+05-1.24999E-10-1.91676E-10
 -1       105-3.53408E+05-4.30130E+04-1.74969E+04-1.35714E+05-3.00133E-10-3.72893E-11
 -1       106-1.82372E+05-6.95719E+02 1.61776E+03-2.06293E-08-1.23608E-10-3.05818E-11
 -1       107-1.81655E+05 8.05662E+02 1.14248E+03-4.23748E-08 9.13700E-11 5.40538E-10
 -1       108-1.82102E+05-1.08483E+02 4.16926E+02-6.70327E-09 1.08987E-10-1.08287E-10
 -1       109-1.81970E+05 1.25286E+02 2.58630E+02-3.19722E-08-1.73743E-10 4.45112E-10
 -1       110-1.82057E+05-1.65960E+01 9.92988E+01-3.32953E-09-3.27912E-11-1.99485E-10
 -1       111-1.82023E+05 1.74988E+01 4.61663E+01-8.08062E-09-2.29711E-10-1.48646E-09
 -1       112-1.82049E+05-8.76489E-01-2.41269E+00 8.23257E-09-6.04733E-11-3.03523E-10
 -1       113-1.82038E+05-1.00372E+01-4.95694E+01 1.20143E-09-3.03398E-11-4.83595E-11
 -1       114-1.82042E+05 1.09042E+01-1.10140E+02-1.66515E-08 3.90156E-11-4.16570E-10
 -1       115-1.82078E+05-8.42433E+01-2.65036E+02-6.18449E-08 8.43524E-11-1.13242E-09
 -1       116-1.82009E+05 7.32225E+01-4.61873E+02-1.55581E-08-1.65182E-10-7.14238E-10
 -1       117-1.82304E+05-5.45986E+02-1.14025E+03 2.91569E-08-2.27728E-13 2.81744E-10
 -1       118-1.81816E+05 4.71865E+02-1.82026E+03-7.12164E-09-1.89142E-10 3.16163E-10
 -1       119-1.83672E+05-3.50336E+03-4.97139E+03-4.35055E-08-3.48287E-11-2.62901E-10
 -1       120-1.80641E+05 3.02521E+03-7.03552E+03-4.79338E-08-7.79074E-11 4.92037E-10
 -1       121-2.84501E+02-1.87217E+05 1.27690E+03 1.71999E+03-1.00613E-11-5.41604E-10
 -1       122 4.17217E+02-1.86730E+05 9.33825E+02 6.78373E+03-4.15525E-11-1.17973E-09
 -1       123-5.67342E+01-1.87052E+05 5.98615E+02 1.72967E+03-5.22675E-11-6.04246E-10
 -1       124 3.88493E+02-1.86741E+05 8.85750E+02 6.74743E+03-4.90559E-11-4.16662E-11
 -1       125-2.65246E+02-1.87199E+05 1.18457E+03 1.75630E+03-1.60071E-10 7.09292E-10
 -1       126-1.66825E+05-2.37808E+04 8.64042E+02-6.23898E+04 4.78693E-10-4.43492E-10
 -1       127-1.66283E+05-2.30583E+04 5.98895E+02-6.26143E+04 7.86191E-09-2.29240E-09
 -1       128-1.66653E+05-2.34669E+04 2.01580E+02-6.24434E+04 1.27131E-06-4.77086E-07
 -1       129-1.66484E+05-2.34220E+04 1.24098E+02-6.25523E+04 2.52771E-06-9.48532E-07
 -1       130-1.66625E+05-2.34177E+04 4.26290E+01-6.24516E+04 1.27132E-06-4.76748E-07
 -1       131-1.66520E+05-2.34771E+04 1.72030E+01-6.25391E+04 8.23979E-09-1.83167E-09
 -1       132-1.66616E+05-2.34118E+04-8.01092E+00-6.24566E+04 3.61982E-10-2.62501E-10
 -1       133-1.66543E+05-2.34857E+04-3.90933E+01-6.25241E+04 8.98238E-11 1.04329E-10
 -1       134-1.66602E+05-2.34091E+04-7.97587E+01-6.24667E+04 4.35364E-10-8.61995E-11
 -1       135-1.66602E+05-2.35369E+04-2.05339E+02-6.24932E+04-3.75419E-10 1.49782E-10
 -1       136-1.66557E+05-2.33608E+04-3.57268E+02-6.24874E+04 8.88249E-11 6.94300E-10
 -1       137-1.66874E+05-2.39454E+04-9.62713E+02-6.23939E+04-1.70090E-10-3.88340E-10
 -1       138-1.66330E+05-2.30012E+04-1.54468E+03-6.25658E+04-1.99151E-10-7.77789E-10
 -1       139-1.68456E+05-2.66608E+04-4.57077E+03-6.18570E+04 1.98042E-10 3.04169E-10
 -1       140-1.64976E+05-2.06495E+04-6.59110E+03-6.30229E+04 5.33191E-11 1.51886E-10
 -1       141-8.24050E+04-7.77784E+02 1.80828E+03-4.01312E-08 8.41259E-11-8.98126E-12
 -1       142-8.16142E+04 9.00649E+02 1.27636E+03-2.14162E-09 5.63650E-11 2.86562E-10
 -1       143-8.21028E+04-1.21241E+02 4.64228E+02-1.96790E-09-4.72281E-11-2.32490E-11
 -1       144-8.19665E+04 1.39751E+02 2.85096E+02 7.98700E-09 6.43480E-11 6.05286E-10
 -1       145-8.20528E+04-1.82783E+01 1.03212E+02-3.21536E-08 5.41895E-11-5.03782E-10
 -1       146-8.20272E+04 1.74460E+01 3.49230E+01-4.44077E-09-8.29994E-11 4.70379E-12
 -1       147-8.20422E+04 8.61359E-01-3.40224E+01-1.61895E-08-2.07339E-11 3.71205E-10
 -1       148-8.20515E+04-2.51565E+01-1.24261E+02-6.08550E-09 2.88322E-11 2.94211E-10
 -1       149-8.20285E+04 2.42712E+01-2.48130E+02 1.21979E-09 5.55558E-11 1.66835E-11
 -1       150-8.21365E+04-1.84730E+02-5.83564E+02-3.40682E-08-4.23609E-11 1.17168E-10
 -1       151-8.19573E+04 1.60205E+02-1.01206E+03-1.84835E-09-1.25949E-11 1.80535E-10
 -1       152-8.26302E+04-1.19415E+03-2.49492E+03-1.20060E-08 6.56529E-11 1.24487E-11
 -1       153-8.15349E+04 1.03199E+03-3.98172E+03-1.22715E-08 3.11705E-10 2.55568E-10
 -1       154-8.56230E+04-7.66197E+03-1.08731E+04-9.98853E-09 9.47603E-11-9.63269E-10
 -1       155-7.89645E+04 6.61620E+03-1.53869E+04-2.14703E-08 7.20860E-10-2.38288E-10
 -1       156-2.54614E+03-3.82417E+04 6.10731E+03-1.06748E+02-1.59162E-11 3.12152E-10
 -1       157 3.37801E+03-3.54558E+04 5.08374E+03 4.50116E+02-5.26370E-11-4.93392E-10
 -1       158-8.25841E+02-3.74600E+04 3.14783E+03-1.05468E+02 2.25668E-11-2.00847E-10
 -1       159 3.70878E+03-3.53013E+04 5.51625E+03 4.43083E+02 6.90648E-11-3.97824E-10
 -1       160-2.87635E+03-3.83961E+04 6.85166E+03-9.97142E+01 2.03727E-10-2.53713E-10
 -1       161-9.36331E+04-1.30160E+04-3.68857E+02-3.51656E+04 6.38118E-07-2.39278E-07
 -1       162-9.37854E+04-1.33857E+04-2.56655E+02-3.51373E+04 1.23864E-06-4.64625E-07
 -1       163-9.37086E+04-1.31474E+04-8.87664E+01-3.51401E+04-3.98688E-06 1.49521E-06
 -1       164-9.36990E+04-1.32330E+04-5.93193E+01-3.51655E+04-9.19390E-06 3.44839E-06
 -1       165-9.37194E+04-1.31684E+04-3.07546E+01-3.51374E+04-4.62603E-06 1.73508E-06
 -1       166-9.36903E+04-1.32107E+04-3.63804E+01-3.51665E+04-3.09062E-08 1.24956E-08
 -1       167-9.37174E+04-1.31697E+04-5.17957E+01-3.51391E+04-1.77943E-09-9.62380E-10
 -1       168-9.37088E+04-1.32294E+04-1.15422E+02-3.51591E+04-3.18465E-10-1.04599E-09
 -1       169-9.37010E+04-1.31497E+04-2.07501E+02-3.51448E+04-9.63123E-10 6.76806E-10
 -1       170-9.38170E+04-1.33914E+04-5.19323E+02-3.51253E+04 8.90818E-10 2.39240E-11
 -1       171-9.36092E+04-1.30079E+04-8.98496E+02-3.51728E+04-3.46532E-10 1.07468E-09
 -1       172-9.44564E+04-1.44594E+04-2.41761E+03-3.49255E+04 4.78735E-10 5.13921E-10
 -1       173-9.30619E+04-1.20831E+04-3.87797E+03-3.53440E+04-3.15993E-10 3.09683E-10
 -1       174-9.83797E+04-2.13212E+04-1.14737E+04-3.36305E+04-1.39244E-09 1.87765E-09
 -1       175-8.96875E+04-6.15639E+03-1.65443E+04-3.64641E+04-8.96307E-10-4.36557E-11
 -1       191 2.67710E+02 9.57715E+04 4.31097E+02-2.49176E+03-5.32054E-11-4.03361E-10
 -1       192 9.92815E+01 9.58329E+04 2.57946E+02-2.67122E+03 5.77813E-11-1.78375E-10
 -1       193 4.75918E+01 9.57928E+04 2.07829E+02-2.44923E+03-1.30143E-10 4.67026E-10
 -1       194 1.29865E+02 9.58428E+04 3.14347E+02-2.75081E+03 8.24798E-11-4.55657E-10
 -1       195 3.63320E+02 9.57600E+04 5.71293E+02-2.41210E+03-2.18279E-10 2.63753E-10
 -1       251-4.43832E+05 1.02819E+04-2.39125E+04-3.60876E+02-3.74030E-11 4.01997E-10
 -1       252-4.54126E+05-1.19070E+04-1.68958E+04 2.00364E+02-1.02975E-11 5.36602E-11
 -1       253-4.47827E+05 1.60346E+03-6.19490E+03-9.36277E+01 8.87539E-11-3.24235E-10
 -1       254-4.49475E+05-1.85661E+03-3.88725E+03-3.33498E+02 4.04427E-10-1.07178E-09
 -1       255-4.48480E+05 2.49653E+02-1.60129E+03 1.72989E+02 5.44205E-11 5.82816E-10
 -1       256-4.48720E+05-2.94402E+02-9.64042E+02-7.89449E+02-2.32028E-10 1.25226E-10
 -1       257-4.48581E+05 4.42447E+01-4.97060E+02 3.62331E+02-1.37327E-10 1.04156E-09
 -1       258-4.48621E+05-8.85002E+01-4.37408E+02-1.03448E+03-2.49391E-10-2.99954E-10
 -1       259-4.48579E+05 4.43897E+01-4.97064E+02 4.18028E+02 9.76419E-12 2.47667E-10
 -1       260-4.48726E+05-2.94840E+02-9.66491E+02-9.95755E+02 7.44613E-11 9.80535E-10
 -1       261-4.48476E+05 2.50214E+02-1.60270E+03 3.23601E+02 2.79510E-10 5.39217E-10
 -1       262-4.49482E+05-1.85933E+03-3.89390E+03-6.84582E+02-2.64080E-10-2.38060E-10
 -1       263-4.47825E+05 1.60587E+03-6.20354E+03 1.06849E+02-9.33085E-11-3.94948E-10
 -1       264-4.54133E+05-1.19242E+04-1.69198E+04-1.91126E+02-2.96653E-10-9.52696E-11
 -1       265-4.43828E+05 1.02965E+04-2.39476E+04-1.69858E+02-5.03540E-10 9.09495E-13
 -1       266-3.89081E+03-7.68480E+04 8.84577E+03 1.31495E+03-1.18234E-11 2.09567E-10
 -1       267 4.14972E+03-7.29879E+04 5.61669E+03-5.28075E+03 2.56932E-11 6.44899E-10
 -1       268-2.46030E+02-7.50944E+04 9.38444E+02 1.38491E+03-2.04636E-12-1.77405E-10
 -1       269-2.00810E+03-7.58646E+04-2.43532E+03-5.30461E+03 1.29035E-11 1.20259E-09
 -1       270 2.25669E+03-7.39732E+04-5.01079E+03 1.33880E+03 1.86446E-11 8.05329E-10
 -1       271-6.71272E+05-8.43605E+04-5.20547E+04-2.59385E+05 2.22826E-10 2.00089E-10
 -1       272-6.87942E+05-1.19991E+05-3.28524E+04-2.61364E+05-3.01554E-10 2.78760E-10
 -1       273-6.80322E+05-9.61612E+04-1.22853E+04-2.58013E+05 1.34861E-11-4.22915E-11
 -1       274-6.77501E+05-1.04689E+05-6.75513E+03-2.63750E+05 9.45874E-11-8.02856E-10
 -1       275-6.81399E+05-9.73883E+04-2.86001E+03-2.57855E+05 4.09273E-11-2.04864E-10
 -1       276-6.76251E+05-1.03142E+05-1.51814E+03-2.64024E+05 1.61435E-10-1.62447E-09
 -1       277-6.81551E+05-9.74996E+04-7.80300E+02-2.57821E+05-1.39266E-10-4.14047E-10
 -1       278-6.76094E+05-1.03020E+05-6.17087E+02-2.64073E+05 2.25000E-10 2.36192E-10
 -1       279-6.81559E+05-9.74940E+04-7.42136E+02-2.57814E+05 1.73038E-10 4.02963E-10
 -1       280-6.76217E+05-1.03153E+05-1.41349E+03-2.64055E+05-3.79600E-10 1.14994E-10
 -1       281-6.81428E+05-9.73803E+04-2.64631E+03-2.57834E+05 2.07109E-10-7.13499E-10
 -1       282-6.77356E+05-1.04599E+05-6.24404E+03-2.63824E+05-4.77769E-11-6.47219E-10
 -1       283-6.80442E+05-9.62387E+04-1.13503E+04-2.57971E+05 3.78748E-10 1.60662E-09
 -1       284-6.86987E+05-1.18753E+05-3.03528E+04-2.61640E+05-1.06473E-09-2.66937E-09
 -1       285-6.72090E+05-8.53265E+04-4.80918E+04-2.59228E+05-3.06500E-10-4.54747E-11
 -1       286-1.16612E+05-2.37347E+03 5.51738E+03 3.86137E+01 3.50170E-10 3.52202E-10
 -1       287-1.14191E+05 2.74838E+03 3.90300E+03-3.90514E+02 2.33488E-10-3.33102E-10
 -1       288-1.15688E+05-3.70321E+02 1.42899E+03 9.69554E+01 4.41354E-11 4.65775E-10
 -1       289-1.15269E+05 4.28645E+02 9.00487E+02-4.93155E+02-1.00052E-10 3.07807E-10
 -1       290-1.15534E+05-5.77854E+01 3.70860E+02 1.41257E+02 1.51140E-10 7.03650E-10
 -1       291-1.15450E+05 6.85696E+01 2.27660E+02-5.63794E+02 3.32808E-10 8.05809E-10
 -1       292-1.15508E+05-1.06665E+01 1.22464E+02 1.67596E+02 9.25464E-11 1.89399E-10
 -1       293-1.15475E+05 2.40461E+01 1.18364E+02-5.96355E+02 1.49947E-10 1.73290E-09
 -1       294-1.15509E+05-1.32348E+01 1.46125E+02 1.73819E+02 2.50044E-10 2.76557E-10
 -1       295-1.15440E+05 9.08614E+01 2.95406E+02-5.88162E+02 3.46552E-10-1.12818E-09
 -1       296-1.15543E+05-7.74057E+01 4.93875E+02 1.59403E+02 1.24890E-10-3.21592E-10
 -1       297-1.15199E+05 5.75522E+02 1.20594E+03-5.39912E+02-5.81721E-11-1.10276E-10
 -1       298-1.15749E+05-4.97214E+02 1.91873E+03 1.25568E+02 1.02737E-10 4.28827E-10
 -1       299-1.13753E+05 3.69088E+03 5.23976E+03-4.55939E+02-6.08225E-12-2.27374E-11
 -1       300-1.16989E+05-3.18723E+03 7.41076E+03 7.54268E+01 8.91305E-11 4.22915E-11
 -1       301 9.20242E+03 4.98899E+03 2.01717E+04-6.24201E+03 5.15683E-10-3.95772E-10
 -1       302 3.09978E+03 8.76494E+03 1.22438E+04-7.31475E+03 4.28770E-10-2.72918E-10
 -1       303 8.55247E+02 6.34008E+03 9.63784E+03-6.23944E+03 6.12090E-10-3.34779E-10
 -1       304 3.81086E+03 9.18187E+03 1.41376E+04-7.30856E+03 4.21551E-10 9.20863E-12
 -1       305 1.15085E+04 4.57279E+03 2.47661E+04-6.24720E+03 5.23869E-10 9.89701E-10
 -1       306-4.62452E+05-5.98677E+04-3.10560E+04-1.79074E+05 2.96950E-10 5.98448E-10
 -1       307-4.69672E+05-8.38205E+04-1.95963E+04-1.83355E+05-7.82734E-11-1.50294E-10
 -1       308-4.67865E+05-6.68875E+04-7.33110E+03-1.78241E+05-8.91305E-11-2.06001E-10
 -1       309-4.63435E+05-7.47115E+04-4.03238E+03-1.84802E+05-1.14881E-10 3.03771E-10
 -1       310-4.68510E+05-6.76151E+04-1.71166E+03-1.78144E+05 1.72008E-10 2.93312E-11
 -1       311-4.62692E+05-7.37897E+04-9.16739E+02-1.84969E+05 4.99426E-10-5.86496E-10
 -1       312-4.68599E+05-6.76825E+04-4.88106E+02-1.78126E+05 1.53193E-10-9.19727E-11
 -1       313-4.62608E+05-7.37134E+04-4.17486E+02-1.84992E+05 7.64373E-10 7.66363E-10
 -1       314-4.68597E+05-6.76814E+04-5.42278E+02-1.78126E+05 2.95017E-11 8.15362E-10
 -1       315-4.62713E+05-7.38081E+04-1.06676E+03-1.84965E+05-1.00925E-10 6.25676E-10
 -1       316-4.68491E+05-6.75995E+04-2.01483E+03-1.78146E+05-1.13801E-10 7.94216E-10
 -1       317-4.63589E+05-7.49036E+04-4.76272E+03-1.84776E+05-2.83762E-10-1.50976E-10
 -1       318-4.67732E+05-6.67348E+04-8.66217E+03-1.78255E+05-1.67574E-10 2.27374E-12
 -1       319-4.70950E+05-8.56843E+04-2.31611E+04-1.83084E+05 1.31848E-10-8.64020E-12
 -1       320-4.61344E+05-5.84261E+04-3.67022E+04-1.79229E+05-8.41283E-11 3.52884E-10
 -1       321-1.07553E+05-3.55192E+03 8.26066E+03 1.27426E+01-4.72848E-10-2.68301E-11
 -1       322-1.03960E+05 4.11335E+03 5.83791E+03-1.85763E+02-4.16935E-10 1.29148E-10
 -1       323-1.06173E+05-5.54054E+02 2.13765E+03 3.93569E+01-9.27791E-11-5.05111E-10
 -1       324-1.05568E+05 6.41116E+02 1.34049E+03-2.33414E+02-9.01590E-11-6.98293E-10
 -1       325-1.05945E+05-8.60633E+01 5.44675E+02 6.03960E+01-1.49399E-10 1.64277E-10
 -1       326-1.05834E+05 9.95695E+01 3.16646E+02-2.67816E+02-3.14606E-11 8.20556E-10
 -1       327-1.05907E+05-1.33795E+01 1.39222E+02 7.37590E+01-1.85989E-10 5.44112E-10
 -1       328-1.05879E+05 1.62007E+01 8.00341E+01-2.85901E+02-1.35270E-12-2.76144E-11
 -1       329-1.05900E+05-2.78837E+00 4.24277E+01 7.84811E+01-9.36441E-11-4.51911E-10
 -1       330-1.05884E+05 8.14442E+00 3.67990E+01-2.86335E+02-1.10789E-10-8.02168E-10
 -1       331-1.05902E+05-5.32939E+00 4.03832E+01 7.41936E+01 8.15401E-11-4.26375E-10
 -1       332-1.05869E+05 3.78445E+01 8.29684E+01-2.69084E+02-5.40887E-11-3.72766E-10
 -1       333-1.05915E+05-3.24619E+01 1.26995E+02 6.12292E+01-4.18959E-10 3.43398E-10
 -1       334-1.05774E+05 2.40682E+02 3.42779E+02-2.35434E+02-6.90882E-10-2.39208E-10
 -1       335-1.05996E+05-2.07841E+02 4.83202E+02 4.05427E+01-4.30362E-10-4.28315E-10
 -1       336-1.88529E+02-1.89776E+05 5.37443E+02-2.44131E+03-2.46246E-10 7.65112E-11
 -1       337 6.84242E+01-1.89613E+05-3.94179E+02-9.72643E+03-2.04423E-10 2.38742E-11
 -1       338 1.47311E+02-1.89521E+05-1.57334E+03-2.41646E+03-3.08660E-10 7.88020E-10
 -1       339-2.17838E+03-1.90953E+05-4.38262E+03-9.75170E+03-1.02318E-10 3.47200E-10
 -1       340 1.62539E+03-1.88442E+05-7.00564E+03-2.41621E+03-2.88310E-10 3.79154E-10
 -1       341-3.04231E+05-3.79338E+04-1.26816E+04-1.16390E+05-8.66521E-10 4.62023E-10
 -1       342-3.11043E+05-4.93815E+04-8.79576E+03-1.14011E+05-6.52733E-10-1.68711E-10
 -1       343-3.06845E+05-4.24484E+04-2.97653E+03-1.15499E+05 4.00973E-10-8.72205E-10
 -1       344-3.07969E+05-4.41900E+04-1.86243E+03-1.15080E+05 5.15548E-10-3.37621E-10
 -1       345-3.07302E+05-4.31174E+04-7.08526E+02-1.15323E+05 1.87129E-10 1.16017E-10
 -1       346-3.07407E+05-4.34564E+04-4.43397E+02-1.15321E+05 1.02329E-10 2.93824E-10
 -1       347-3.07407E+05-4.31808E+04-2.46364E+02-1.15258E+05 6.06977E-10-4.04615E-10
 -1       348-3.07291E+05-4.34456E+04-2.96844E+02-1.15414E+05 6.75797E-11-2.75747E-10
 -1       349-3.07418E+05-4.31282E+04-4.21171E+02-1.15230E+05-2.50367E-10 2.17966E-10
 -1       350-3.07435E+05-4.37755E+04-9.86534E+02-1.15408E+05-9.66480E-10 7.20561E-10
 -1       351-3.07263E+05-4.28512E+04-1.68359E+03-1.15265E+05-6.88743E-10 1.05331E-10
 -1       352-3.08617E+05-4.57749E+04-4.51365E+03-1.15047E+05-1.18320E-10-6.90306E-10
 -1       353-3.06238E+05-4.11316E+04-7.23546E+03-1.15591E+05-2.99792E-10-3.14685E-10
 -1       354-3.15968E+05-5.85455E+04-2.14061E+04-1.12594E+05 4.27463E-10-5.36602E-11
 -1       355-2.99917E+05-3.00997E+04-3.08640E+04-1.17711E+05-5.91172E-11-3.20142E-10
 -1       356-1.06134E+05-2.02383E+02 4.69664E+02 8.90716E+00-3.90958E-11-3.17414E-10
 -1       357-1.05919E+05 2.34258E+02 3.30532E+02-1.04569E+02-2.39275E-11 9.35337E-10
 -1       358-1.06055E+05-3.14803E+01 1.17288E+02 2.25847E+01-1.39793E-10 2.71747E-10
 -1       359-1.06012E+05 3.57934E+01 6.70152E+01-1.28497E+02-4.29434E-12-1.51083E-10
 -1       360-1.06042E+05-4.26590E+00 1.29145E+01 3.28358E+01-1.98297E-10 4.49392E-10
 -1       361-1.06030E+05 7.67138E-01-2.05925E+01-1.44824E+02-2.80773E-09-1.65218E-10
 -1       362-1.06037E+05 3.50352E+00-6.45962E+01 3.89119E+01-3.66138E-07 7.03178E-10
 -1       363-1.06049E+05-3.13463E+01-1.54817E+02-1.52328E+02-7.27602E-07-6.14023E-10
 -1       364-1.06022E+05 2.78173E+01-2.86948E+02 4.03400E+01-3.66223E-07 3.85882E-10
 -1       365-1.06144E+05-2.09206E+02-6.62940E+02-1.50450E+02-2.72063E-09-5.51381E-10
 -1       366-1.05942E+05 1.81105E+02-1.14533E+03 3.70331E+01-1.24694E-10-1.17836E-10
 -1       367-1.06701E+05-1.34957E+03-2.82022E+03-1.39285E+02 9.69878E-11-2.03727E-10
 -1       368-1.05465E+05 1.16625E+03-4.50005E+03 2.91753E+01 2.19125E-10 1.24373E-10
 -1       369-1.10083E+05-8.65871E+03-1.22876E+04-1.19227E+02 4.39679E-11 1.93950E-10
 -1       370-1.02561E+05 7.47689E+03-1.73885E+04 1.69754E+01 7.84228E-10 4.72937E-11
 -1       371-2.77496E+03-3.85739E+04 6.30515E+03 5.09255E+02 6.51653E-10 3.76623E-10
 -1       372 2.89318E+03-3.59249E+04 3.87227E+03-2.12061E+03 1.06292E-09-1.34799E-09
 -1       373-1.12304E+02-3.73331E+04 4.28920E+02 5.18925E+02 9.94419E-10-7.16456E-10
 -1       374-1.92450E+03-3.81539E+04-2.42477E+03-2.11702E+03 9.64519E-10 4.36412E-10
 -1       375 2.03380E+03-3.63449E+04-4.54370E+03 5.05666E+02 6.05269E-10 3.04759E-10
 -1       376-1.64461E+05-2.05805E+04-6.53988E+03-6.27985E+04-4.16094E-11 1.63709E-11
 -1       377-1.67838E+05-2.66185E+04-4.53612E+03-6.17262E+04 5.70026E-10 5.89807E-10
 -1       378-1.65807E+05-2.29104E+04-1.53568E+03-6.23414E+04-4.66912E-10 2.37378E-10
 -1       379-1.66268E+05-2.39277E+04-9.62059E+02-6.22615E+04 4.45024E-10-3.68345E-10
 -1       380-1.66031E+05-2.32673E+04-3.68241E+02-6.22646E+04-1.34129E-10 7.84155E-11
 -1       381-1.66008E+05-2.35220E+04-2.35456E+02-6.23532E+04-1.78463E-08 7.86029E-09
 -1       382-1.66068E+05-2.33154E+04-1.39553E+02-6.22499E+04-2.83284E-06 1.06119E-06
 -1       383-1.65984E+05-2.34921E+04-1.83243E+02-6.23645E+04-5.63291E-06 2.11192E-06
 -1       384-1.66055E+05-2.32971E+04-2.72204E+02-6.22533E+04-2.83293E-06 1.06144E-06
 -1       385-1.66111E+05-2.36805E+04-6.46889E+02-6.23233E+04-1.82171E-08 7.03179E-09
 -1       386-1.65940E+05-2.31273E+04-1.10740E+03-6.22910E+04-3.80012E-10 8.74991E-10
 -1       387-1.66905E+05-2.49809E+04-2.97121E+03-6.20667E+04 3.00034E-10-2.26095E-10
 -1       388-1.65261E+05-2.19986E+04-4.76368E+03-6.25093E+04-6.89170E-10 7.76254E-10
 -1       389-1.71741E+05-3.33918E+04-1.40925E+04-6.04568E+04-1.45451E-09 1.68620E-09
 -1       390-1.61107E+05-1.47290E+04-2.03200E+04-6.38966E+04-1.06411E-09 5.84805E-10
 -1       406 2.92786E+02 9.46010E+04 6.04468E+02-8.63608E+03-3.14230E-10-1.56660E-10
 -1       407 1.69854E+02 9.47091E+04 6.69242E+02-9.49853E+03 4.24052E-11-4.83396E-10
 -1       408 2.48667E+02 9.45919E+04 1.04901E+03-8.60256E+03-3.64594E-10 7.02812E-10
 -1       409 1.00196E+03 9.49949E+04 2.21821E+03-9.54637E+03 4.37126E-11-2.83478E-10
 -1       410 2.90494E+03 9.43114E+04 4.45385E+03-8.58763E+03-3.94266E-10 2.71598E-10
 -1       466 3.36813E+05-1.35512E+04 3.15164E+04 6.61911E+02 1.60625E-10-2.61934E-10
 -1       467 3.50508E+05 1.56921E+04 2.22861E+04-1.54152E+03 3.57915E-10-1.61890E-10
 -1       468 3.42098E+05-2.11355E+03 8.16912E+03 3.48922E+02-8.17124E-13-2.85581E-10
 -1       469 3.44352E+05 2.44714E+03 5.14284E+03-1.05334E+03 8.69669E-11 4.38888E-10
 -1       470 3.42970E+05-3.29862E+02 2.12930E+03 1.73743E+02 8.87113E-12-4.54747E-13
 -1       471 3.43341E+05 3.93230E+02 1.31601E+03-7.90988E+02 1.00393E-10 8.43528E-10
 -1       472 3.43111E+05-6.27887E+01 7.32971E+02 8.65651E+01-1.57071E-10 6.42032E-10
 -1       473 3.43214E+05 1.51287E+02 7.47945E+02-6.82307E+02-3.08215E-10-7.76339E-11
 -1       474 3.43096E+05-8.81851E+01 9.65263E+02 6.50600E+01 1.08651E-10 1.48077E-10
 -1       475 3.43456E+05 6.12552E+02 1.98620E+03-6.99674E+02-1.64816E-10 1.19627E-10
 -1       476 3.42868E+05-5.23379E+02 3.33900E+03 1.03933E+02 2.21748E-10 6.65068E-10
 -1       477 3.45063E+05 3.89311E+03 8.15519E+03-8.47739E+02 6.80282E-10-9.26548E-11
 -1       478 3.41488E+05-3.36329E+03 1.29905E+04 2.13128E+02 2.42153E-11-9.09495E-13
 -1       479 3.54828E+05 2.49707E+04 3.54502E+04-1.16975E+03 2.40021E-10-8.10815E-10
 -1       480 3.33101E+05-2.15616E+04 5.01639E+04 4.25930E+02 7.15623E-10-1.96451E-10
 -1       481-2.58460E+03 5.30855E+04 6.05470E+03-5.60600E+01 5.45697E-12 1.19158E-10
 -1       482 3.10257E+03 5.57509E+04 4.47137E+03 2.02101E+01-5.47971E-11 1.27598E-09
 -1       483-5.12536E+02 5.40373E+04 1.95257E+03-3.36035E+01-8.81073E-12 5.54344E-10
 -1       484 1.29509E+03 5.49133E+04 2.10858E+03-2.33536E+01 5.11733E-11-4.27818E-11
 -1       485-7.80431E+02 5.39232E+04 1.98465E+03-1.24989E+01 3.01270E-11-4.54261E-10
 -1       486-3.14590E+05-3.29807E+04-2.96669E+04-1.23473E+05 4.54747E-11-1.50976E-10
 -1       487-3.30670E+05-5.96426E+04-2.05721E+04-1.17775E+05 6.38579E-10 5.38193E-10
 -1       488-3.20785E+05-4.34707E+04-6.95862E+03-1.21307E+05-9.11768E-11-9.00400E-11
 -1       489-3.23333E+05-4.76337E+04-4.33784E+03-1.20434E+05-6.25406E-10 1.87867E-10
 -1       490-3.21923E+05-4.49715E+04-1.62911E+03-1.20820E+05-3.92419E-10-3.42936E-10
 -1       491-3.21904E+05-4.60170E+04-9.64164E+02-1.21127E+05-4.04642E-10 1.06695E-10
 -1       492-3.22213E+05-4.50844E+04-4.43166E+02-1.20614E+05 1.96036E-10 3.80282E-11
 -1       493-3.21535E+05-4.59775E+04-3.73174E+02-1.21427E+05 5.30206E-10 1.55611E-10
 -1       494-3.22291E+05-4.50104E+04-3.99388E+02-1.20521E+05 1.23492E-10 4.49973E-10
 -1       495-3.21594E+05-4.62602E+04-8.35168E+02-1.21477E+05-1.42155E-10-2.75406E-10
 -1       496-3.22154E+05-4.48019E+04-1.38860E+03-1.20564E+05-1.46798E-10-1.86276E-10
 -1       497-3.22644E+05-4.77966E+04-3.69446E+03-1.21075E+05-1.41711E-10-1.44439E-10
 -1       498-3.21242E+05-4.34765E+04-5.91779E+03-1.20922E+05-5.93332E-10 9.43601E-11
 -1       499-3.28843E+05-5.80329E+04-1.74943E+04-1.18839E+05-2.51418E-10 4.67026E-10
 -1       500-3.15959E+05-3.45816E+04-2.52298E+04-1.22795E+05-4.95675E-11 4.00178E-10
 -1       501-9.27324E+04-5.08445E+03 1.18214E+04 1.00081E+02 2.16133E-10-3.88809E-10
 -1       502-8.75732E+04 5.88780E+03 8.35841E+03-5.90466E+02 2.03848E-10-2.12822E-10
 -1       503-9.07530E+04-7.93160E+02 3.05888E+03 1.53583E+02-1.98405E-10-4.56566E-10
 -1       504-8.98822E+04 9.17774E+02 1.92047E+03-6.82077E+02-2.57785E-11-1.59730E-11
 -1       505-9.04245E+04-1.23242E+02 7.80621E+02 1.91697E+02-4.98481E-11-2.77652E-10
 -1       506-9.02676E+04 1.43015E+02 4.56285E+02-7.39426E+02-5.43487E-09 7.60394E-10
 -1       507-9.03681E+04-1.94466E+01 2.04640E+02 2.10934E+02-7.86311E-07-4.14019E-10
 -1       508-9.03320E+04 2.57318E+01 1.26299E+02-7.57695E+02-1.56223E-06-5.26580E-10
 -1       509-9.03603E+04-6.04316E+00 8.20078E+01 2.09965E+02-7.86217E-07-7.98639E-10
 -1       510-9.03298E+04 2.72283E+01 1.02197E+02-7.35616E+02-5.34492E-09 4.85505E-11
 -1       511-9.03702E+04-2.10412E+01 1.41895E+02 1.88854E+02 5.63389E-11 7.23666E-10
 -1       512-9.02615E+04 1.53904E+02 3.28637E+02-6.74608E+02 4.42911E-10 1.13790E-10
 -1       513-9.04282E+04-1.32779E+02 5.12766E+02 1.48957E+02-1.27322E-10-4.53952E-10
 -1       514-8.98679E+04 9.84487E+02 1.40112E+03-5.78545E+02-1.45759E-10-2.93710E-10
 -1       515-9.07632E+04-8.50473E+02 1.97320E+03 9.27886E+01-2.42636E-10-8.84256E-10
 -1       516-1.15249E+04 7.06512E+04 2.71341E+04 9.89959E+02-6.91216E-11 5.80755E-10
 -1       517 1.41678E+04 8.27223E+04 2.06316E+04-4.41506E+03 1.81899E-11 5.82602E-10
 -1       518-2.61371E+03 7.47666E+04 9.96633E+03 9.46529E+02-3.43107E-10 1.18786E-09
 -1       519 8.28243E+03 8.00044E+04 1.29392E+04-4.42544E+03 2.28738E-10-9.25269E-11
 -1       520-5.65089E+03 7.33692E+04 1.38765E+04 1.00034E+03-2.74213E-10-7.77888E-10
 -1       521-6.40385E+05-8.17355E+04-4.49111E+04-2.47203E+05 3.00133E-11-4.78394E-10
 -1       522-6.53455E+05-1.13773E+05-2.83423E+04-2.50402E+05 8.59472E-11-8.73115E-11
 -1       523-6.48197E+05-9.19083E+04-1.05991E+04-2.46013E+05-1.30171E-11 2.34195E-10
 -1       524-6.44445E+05-1.00578E+05-5.82849E+03-2.52469E+05-1.72861E-10 4.01201E-10
 -1       525-6.49126E+05-9.29662E+04-2.46799E+03-2.45877E+05 7.86713E-11-1.96451E-10
 -1       526-6.43372E+05-9.92392E+04-1.31148E+03-2.52700E+05 5.13410E-10 6.55973E-10
 -1       527-6.49253E+05-9.30673E+04-6.76436E+02-2.45853E+05 1.90624E-10 3.47455E-10
 -1       528-6.43249E+05-9.91215E+04-5.39777E+02-2.52727E+05-2.67057E-11-2.61196E-10
 -1       529-6.49251E+05-9.30707E+04-6.55203E+02-2.45855E+05 2.99394E-10 2.09866E-10
 -1       530-6.43375E+05-9.92216E+04-1.25283E+03-2.52688E+05-3.78037E-10-1.52909E-10
 -1       531-6.49124E+05-9.29809E+04-2.34886E+03-2.45885E+05-2.30330E-10 1.30285E-10
 -1       532-6.44407E+05-1.00482E+05-5.54221E+03-2.52453E+05 4.16094E-11-9.27685E-11
 -1       533-6.48233E+05-9.19827E+04-1.00761E+04-2.46021E+05-1.70843E-10-3.75167E-10
 -1       534-6.52988E+05-1.13008E+05-2.69425E+04-2.50468E+05 2.50481E-10-4.82487E-10
 -1       535-6.40796E+05-8.23232E+04-4.26925E+04-2.47164E+05 6.37556E-10 2.04818E-09
 -1       536 1.58869E+04-2.76351E+03 1.19708E+04-1.66103E+03 1.00499E-10 2.23281E-10
 -1       537 2.02166E+04 3.75176E+03 7.66646E+03-6.44259E+03-5.03519E-10-3.87899E-10
 -1       538 1.76907E+04-2.86538E+02 3.10001E+03-1.63929E+03-2.72848E-12-7.84439E-11
 -1       539 1.81997E+04 3.67254E+02 1.72912E+03-6.46510E+03 3.41913E-10-1.47850E-10
 -1       540 1.78940E+04-3.20360E+01 7.82210E+02-1.63822E+03-2.88765E-11-2.85411E-10
 -1       541 1.79635E+04 3.52952E+01 4.12157E+02-6.46531E+03-6.85532E-11 2.36042E-10
 -1       542 1.79198E+04-4.01859E+00 1.95505E+02-1.63908E+03-3.34239E-11 9.13190E-11
 -1       543 1.79296E+04 3.99755E+00 1.00787E+02-6.46398E+03-3.96767E-11-1.25979E-10
 -1       544 1.79235E+04-3.02503E-01 4.89533E+01-1.63955E+03 2.60343E-11-3.71671E-10
 -1       545 1.79234E+04 1.45109E+00 2.53409E+01-6.46344E+03-8.49809E-12 8.78657E-11
 -1       546 1.79242E+04 1.60672E-01 1.30463E+01-1.63963E+03-4.28457E-11-3.44201E-10
 -1       547 1.79234E+04 1.29956E+00 8.20447E+00-6.46282E+03 9.26548E-12-1.18152E-09
 -1       548 1.79245E+04-5.32735E-01 6.40592E+00-1.64016E+03-1.17666E-10 1.49925E-11
 -1       549 1.79282E+04 4.29909E+00 1.04838E+01-6.45008E+03-3.14060E-11 4.42412E-10
 -1       550 1.79230E+04-4.50277E+00 1.38002E+01-1.65237E+03-6.02540E-12-4.78195E-10
 -1       551 2.59660E+03-6.28132E+04 6.03668E+03-9.65669E+04 7.63521E-10 1.82354E-10
 -1       552 1.05837E+03-6.16929E+04 4.74207E+03-1.12971E+05 7.34872E-10 1.00317E-09
 -1       553 6.09365E+02-6.25864E+04 5.51866E+03-9.64060E+04 9.24047E-10 3.03999E-10
 -1       554 3.17608E+03-6.04676E+04 1.03651E+04-1.13001E+05 7.73980E-10-2.66937E-10
 -1       555 9.45475E+03-6.40691E+04 1.96785E+04-9.65334E+04 7.46695E-10-5.52973E-10
 -1       556-4.61055E+04-2.45249E+04 3.97353E+03-4.39990E+04 1.96451E-10-2.25555E-10
 -1       557-4.23874E+04-2.85921E+04 1.95050E+03-4.69186E+04 5.91172E-11-1.71894E-10
 -1       558-4.61405E+04-2.58659E+04 8.23694E+02-4.31883E+04-8.73115E-11-9.09495E-11
 -1       559-4.26990E+04-2.92635E+04 4.02542E+02-4.70232E+04 4.95675E-11 2.57785E-10
 -1       560-4.61493E+04-2.58979E+04 1.80472E+02-4.31558E+04 1.81899E-12-6.28688E-11
 -1       561-4.27378E+04-2.92903E+04 8.40065E+01-4.70529E+04 7.36691E-11 3.61176E-10
 -1       562-4.61592E+04-2.58868E+04 2.95052E+01-4.31629E+04 1.54614E-11 1.68200E-10
 -1       563-4.27519E+04-2.92844E+04-4.50720E+00-4.70638E+04 4.13820E-11-2.29193E-10
 -1       564-4.61641E+04-2.58794E+04-4.24394E+01-4.31682E+04 6.07088E-11 1.21076E-10
 -1       565-4.27632E+04-2.92808E+04-1.06850E+02-4.70695E+04-7.75344E-11 3.00133E-10
 -1       566-4.61600E+04-2.58744E+04-2.26999E+02-4.31694E+04 1.17211E-10-2.71257E-10
 -1       567-4.28072E+04-2.93032E+04-5.01673E+02-4.70669E+04-1.60185E-10 1.54614E-10
 -1       568-4.61282E+04-2.59491E+04-1.03000E+03-4.31341E+04-1.41881E-10-4.27917E-10
 -1       569-4.33832E+04-2.99250E+04-2.43020E+03-4.69108E+04 1.23578E-10-2.33285E-10
 -1       570-4.59260E+04-2.78452E+04-4.95826E+03-4.23429E+04 9.54969E-12-3.76247E-10
 -1       571 6.01722E+04 2.98563E+03 4.57205E+03-1.55873E+04 7.57154E-11-1.04762E-10
 -1       572 6.08734E+04 1.02000E+03 2.24561E+03-1.71838E+04 1.56433E-10-7.88987E-11
 -1       573 6.04607E+04 2.29358E+02 9.99078E+02-1.55449E+04 1.12777E-10 1.53705E-10
 -1       574 6.05445E+04 7.15126E+01 5.01511E+02-1.72313E+04 2.04295E-10 4.22119E-10
 -1       575 6.04946E+04 6.26425E+00 2.37285E+02-1.55394E+04 3.55840E-11-4.59295E-10
 -1       576 6.05029E+04-2.36225E-01 1.21238E+02-1.72375E+04-9.23706E-12-6.95877E-10
 -1       577 6.04995E+04-3.76595E+00 6.06772E+01-1.55387E+04-1.93836E-11-4.39968E-10
 -1       578 6.04975E+04-2.43029E+00 3.47374E+01-1.72382E+04 1.61435E-11 1.00272E-10
 -1       579 6.05014E+04-2.73062E+00 2.45222E+01-1.55387E+04-1.95541E-10-2.23736E-10
 -1       580 6.04993E+04-2.03475E+00 2.80684E+01-1.72372E+04 1.27670E-10 4.11433E-10
 -1       581 6.05032E+04-1.51409E+00 4.42864E+01-1.55397E+04-8.09450E-11-2.64663E-10
 -1       582 6.05095E+04 8.95679E+00 8.80565E+01-1.72277E+04-6.00267E-11-6.29029E-10
 -1       583 6.05008E+04 3.50730E+01 1.72458E+02-1.55482E+04 6.36646E-12 3.75167E-12
 -1       584 6.05705E+04 1.69967E+02 3.86339E+02-1.71556E+04-4.06317E-10-1.33355E-10
 -1       585 6.04553E+04 5.07023E+02 7.85496E+02-1.56120E+04 1.65073E-10 5.87534E-10
 -1       586 4.73292E+02 2.42147E+04 8.85754E+02-3.99082E+04 9.95897E-11-1.14369E-10
 -1       587 2.46260E+02 2.43713E+04 8.45915E+02-4.41195E+04 1.57115E-10-3.63457E-10
 -1       588 2.94495E+02 2.42147E+04 1.20456E+03-3.98578E+04 1.16415E-10 1.53250E-10
 -1       589 1.11864E+03 2.46708E+04 2.46973E+03-4.41317E+04 1.57343E-10 4.94538E-11
 -1       590 3.21181E+03 2.39109E+04 4.92119E+03-3.98957E+04 1.16188E-10 5.09317E-11
 -1       591-2.79258E+04-9.68467E+03-5.24958E+03-1.45610E+04-4.26326E-12-5.66160E-10
 -1       592-2.80655E+04-9.05222E+03-2.57331E+03-1.61455E+04-6.54836E-11 3.17158E-10
 -1       593-2.80781E+04-7.73058E+03-1.09180E+03-1.54510E+04-1.06411E-10-1.57115E-10
 -1       594-2.75044E+04-8.34225E+03-5.34117E+02-1.62425E+04-9.65201E-11-4.13147E-10
 -1       595-2.81030E+04-7.65798E+03-2.46005E+02-1.54909E+04-5.07043E-11 5.51367E-10
 -1       596-2.74617E+04-8.31412E+03-1.25055E+02-1.62390E+04 8.76241E-11-4.70209E-10
 -1       597-2.81077E+04-7.66156E+03-6.86280E+01-1.54912E+04 7.30154E-11-2.85013E-10
 -1       598-2.74576E+04-8.31444E+03-5.59210E+01-1.62373E+04-9.78559E-11-2.44285E-10
 -1       599-2.81075E+04-7.66145E+03-7.21997E+01-1.54911E+04 7.04858E-12-3.16049E-10
 -1       600-2.74622E+04-8.31418E+03-1.34565E+02-1.62391E+04-1.16017E-10 3.08887E-10
 -1       601-2.81018E+04-7.65750E+03-2.66108E+02-1.54907E+04-1.65414E-10-2.73985E-11
 -1       602-2.75087E+04-8.34433E+03-5.78832E+02-1.62422E+04-8.27640E-11-1.41279E-09
 -1       603-2.80744E+04-7.73690E+03-1.18341E+03-1.54478E+04-2.06342E-10 6.05951E-11
 -1       604-2.81211E+04-9.10947E+03-2.78941E+03-1.61319E+04-1.78204E-10-9.04038E-10
 -1       605-2.79045E+04-9.85846E+03-5.69017E+03-1.44873E+04 5.00222E-11 3.54021E-10
 -1       606 1.93868E+04-2.37953E+03-3.64203E+03 5.69807E+03-1.21463E-09 8.32188E-11
 -1       607 1.88211E+04-8.12933E+02-1.78859E+03 6.22313E+03-3.50951E-10-7.30324E-10
 -1       608 1.91539E+04-1.82724E+02-7.95655E+02 5.65986E+03 8.34916E-10-1.47054E-10
 -1       609 1.90799E+04-5.59261E+01-3.98979E+02 6.26593E+03-4.63388E-10 3.55669E-10
 -1       610 1.91246E+04-3.77334E+00-1.88195E+02 5.65494E+03-1.44678E-09-2.13959E-10
 -1       611 1.91112E+04 2.12809E+00-9.48585E+01 6.27139E+03-2.33979E-09-2.99508E-10
 -1       612 1.91196E+04 4.63186E+00-4.50930E+01 5.65436E+03-7.89669E-10 5.95492E-10
 -1       613 1.91153E+04 3.87515E+00-2.10304E+01 6.27214E+03-1.30456E-09 6.42842E-10
 -1       614 1.91181E+04 3.23368E+00-6.60039E+00 5.65419E+03-2.03045E-10-1.12607E-10
 -1       615 1.91161E+04 3.44275E+00 4.35845E+00 6.27226E+03 1.32491E-09 4.10580E-10
 -1       616 1.91170E+04 3.62399E+00 1.73051E+01 5.65424E+03-7.35440E-10-1.15392E-11
 -1       617 1.91193E+04 9.50184E+00 4.13284E+01 6.27211E+03 1.97588E-10 8.81073E-12
 -1       618 1.91136E+04 2.27190E+01 8.45893E+01 5.65434E+03 5.14433E-11 1.97986E-10
 -1       619 1.91470E+04 9.06456E+01 1.91420E+02 6.27136E+03-4.41872E-10 1.27329E-10
 -1       620 1.90885E+04 2.58242E+02 3.90327E+02 5.65489E+03 3.00801E-10-1.81615E-10
 -1       621 4.76346E+02 6.26251E+04 1.16836E+03-5.90275E+03 5.27450E-10-1.83945E-10
 -1       622 1.79217E+02 6.28456E+04 9.54716E+02-6.93761E+03 1.62572E-10-9.66793E-10
 -1       623 1.03712E+02 6.26739E+04 1.16053E+03-5.90860E+03 4.19050E-10 2.62958E-10
 -1       624 6.54766E+02 6.31252E+04 2.22201E+03-6.90817E+03 2.23054E-10 2.39652E-10
 -1       625 2.01880E+03 6.23473E+04 4.24239E+03-5.93206E+03 4.38774E-10-3.31511E-10
 -1       626 2.73707E+04 8.97803E+03-1.60844E+03 1.86430E+04-1.72804E-10-1.59616E-10
 -1       627 2.66146E+04 1.01244E+04-7.63257E+02 1.89978E+04 3.62775E-10 2.04267E-10
 -1       628 2.74090E+04 9.76672E+03-3.20581E+02 1.82589E+04-2.30921E-09 1.60662E-09
 -1       629 2.67371E+04 1.04498E+04-1.54002E+02 1.89721E+04-1.40399E-08-1.94603E-08
 -1       630 2.74081E+04 9.81966E+03-6.79022E+01 1.82290E+04-2.47132E-09 5.93410E-10
 -1       631 2.67475E+04 1.04729E+04-3.04917E+01 1.89736E+04-2.45564E-10-1.34801E-09
 -1       632 2.74063E+04 9.82068E+03-8.58070E+00 1.82271E+04-4.66116E-10-4.48523E-10
 -1       633 2.67490E+04 1.04736E+04 7.31268E+00 1.89748E+04-7.40101E-11 6.31530E-10
 -1       634 2.74047E+04 9.81877E+03 2.70481E+01 1.82271E+04 4.93060E-10-5.80144E-10
 -1       635 2.67527E+04 1.04741E+04 6.45861E+01 1.89758E+04-7.58575E-10 1.20963E-10
 -1       636 2.74019E+04 9.82153E+03 1.35510E+02 1.82251E+04-1.10921E-09 1.55751E-10
 -1       637 2.67847E+04 1.05106E+04 3.03316E+02 1.89702E+04-1.98848E-09 3.85739E-10
 -1       638 2.73940E+04 9.93186E+03 6.28946E+02 1.81768E+04-5.53769E-10-2.32831E-10
 -1       639 2.71038E+04 1.10698E+04 1.49675E+03 1.88331E+04-1.87003E-09-7.00766E-10
 -1       640 2.74058E+04 1.15485E+04 3.15483E+03 1.75048E+04-6.45230E-10 9.65201E-11
 -1       641 2.51106E+02 5.89016E+02-1.37000E+03-3.25828E+01-1.33564E-09 1.27898E-11
 -1       642-3.41305E+02-6.82051E+02-9.67384E+02 1.37971E+02-3.10019E-10 1.14213E-10
 -1       643 2.24550E+01 9.18305E+01-3.53303E+02-3.25291E+01-2.04248E-09 5.95804E-10
 -1       644-7.50767E+01-1.06015E+02-2.19346E+02 1.37921E+02 8.84111E-11 7.99041E-11
 -1       645-1.51513E+01 1.40557E+01-8.48435E+01-3.25338E+01-3.04418E-10-3.04919E-10
 -1       646-3.04796E+01-1.49159E+01-4.06414E+01 1.37920E+02-1.33381E-08 1.63882E-10
 -1       647-2.21558E+01 8.92791E-01-8.77058E-01-3.25281E+01-1.58759E-06-6.83951E-11
 -1       648-1.81832E+01 7.29894E+00 3.55659E+01 1.37915E+02-3.15454E-06 2.06608E-10
 -1       649-2.74519E+01-8.12717E+00 8.16309E+01-3.25283E+01-1.58771E-06 7.92472E-10
 -1       650 1.16326E+01 6.29831E+01 1.97693E+02 1.37900E+02-9.68314E-09-3.32413E-10
 -1       651-5.19673E+01-5.47142E+01 3.44925E+02-3.25130E+01-4.81209E-10 8.95284E-11
 -1       652 1.80629E+02 4.07944E+02 8.51889E+02 1.37843E+02-9.16671E-10 6.17149E-10
 -1       653-1.96435E+02-3.52512E+02 1.35989E+03-3.24716E+01 1.04733E-09 4.33147E-11
 -1       654 1.20326E+03 2.61714E+03 3.71406E+03 1.37585E+02-4.31724E-10 6.84850E-10
 -1       655-1.07456E+03-2.25987E+03 5.25601E+03-3.22564E+01 3.89043E-10-4.75893E-10
 -1       656 1.88439E+03-7.16710E+04-8.46600E+03 1.98880E+03 2.17324E-09-2.33058E-11
 -1       657-2.77194E+03-7.47631E+04-6.16675E+03 7.74252E+03 1.72560E-09-3.06954E-11
 -1       658 3.62147E+02-7.27695E+04-3.91806E+03 1.97730E+03 1.54076E-09 3.33927E-10
 -1       659-2.52555E+03-7.46181E+04-5.73039E+03 7.74865E+03 1.78193E-09 2.82337E-10
 -1       660 1.68690E+03-7.18176E+04-7.64027E+03 1.98271E+03 1.56479E-09-2.02078E-11
 -1       661 7.07362E+04 8.97901E+03 5.79034E+03 2.75749E+04 9.05231E-10-6.12090E-10
 -1       662 7.21038E+04 1.34294E+04 3.65441E+03 2.83557E+04 4.86438E-11 1.96849E-10
 -1       663 7.17362E+04 1.02978E+04 1.36735E+03 2.74302E+04 1.65031E-10 3.99552E-10
 -1       664 7.09538E+04 1.17166E+04 7.52956E+02 2.86061E+04-3.67947E-09-5.30136E-10
 -1       665 7.18503E+04 1.04400E+04 3.20649E+02 2.74188E+04-2.40004E-09-4.64325E-10
 -1       666 7.08228E+04 1.15365E+04 1.74218E+02 2.86260E+04-1.08207E-09-1.17961E-09
 -1       667 7.18638E+04 1.04557E+04 9.73655E+01 2.74185E+04 1.07665E-09 4.15037E-11
 -1       668 7.08103E+04 1.15204E+04 9.16712E+01 2.86268E+04-1.56987E-09-5.98423E-10
 -1       669 7.18625E+04 1.04546E+04 1.28685E+02 2.74185E+04 6.74781E-10 1.54709E-09
 -1       670 7.08337E+04 1.15483E+04 2.61007E+02 2.86255E+04 3.27006E-09-3.95275E-10
 -1       671 7.18407E+04 1.04300E+04 4.96264E+02 2.74190E+04 7.56998E-10-3.84858E-10
 -1       672 7.10397E+04 1.18302E+04 1.17542E+03 2.85942E+04-9.92486E-11 3.03942E-10
 -1       673 7.16618E+04 1.02076E+04 2.13780E+03 2.74368E+04 5.14788E-12-2.98542E-10
 -1       674 7.28378E+04 1.45112E+04 5.71662E+03 2.82041E+04-7.75401E-10-2.92403E-10
 -1       675 7.00985E+04 8.14301E+03 9.05812E+03 2.76615E+04-7.24981E-10-2.72394E-10
 -1       676 1.88411E+02-6.77926E+04-9.81941E+02 7.35339E+00 1.75791E-09-8.61730E-10
 -1       677-3.72061E+02-6.81676E+04-1.06559E+03-2.35176E+01 4.48448E-10 5.89484E-10
 -1       678 1.17255E+02-6.78369E+04-1.26594E+03 7.30866E+00 1.14636E-09 1.95967E-10
 -1       679-1.33760E+03-6.87415E+04-2.77846E+03-2.34555E+01 2.39766E-10-2.60472E-11
 -1       680 9.66240E+02-6.72188E+04-4.22198E+03 7.24256E+00 2.41266E-09 1.53718E-10
 -1       681 1.12660E+05-2.99997E+03 6.97717E+03 1.43524E+02-7.03437E-12-1.85082E-10
 -1       682 1.15681E+05 3.47408E+03 4.93332E+03-4.65345E+02-2.02993E-11-5.16138E-11
 -1       683 1.13827E+05-4.67994E+02 1.80954E+03 1.05766E+02-5.50155E-11 7.05995E-11
 -1       684 1.14321E+05 5.42073E+02 1.14081E+03-4.04700E+02-1.18071E-10-1.58721E-10
 -1       685 1.14019E+05-7.32291E+01 4.76322E+02 8.28799E+01-1.04922E-10 5.60192E-11
 -1       686 1.14099E+05 8.84548E+01 3.01962E+02-3.71501E+02-9.03883E-10 1.66057E-10
 -1       687 1.14050E+05-1.50889E+01 1.82394E+02 7.25663E+01-1.30528E-07-1.97645E-10
 -1       688 1.14076E+05 4.24639E+01 2.09858E+02-3.62534E+02-2.59082E-07 4.16016E-10
 -1       689 1.14042E+05-2.72991E+01 2.94102E+02 7.39129E+01-1.30581E-07-9.80549E-11
 -1       690 1.14156E+05 1.93901E+02 6.24704E+02-3.77035E+02-1.00620E-09 1.05167E-10
 -1       691 1.13969E+05-1.66327E+02 1.05818E+03 8.70675E+01-6.65725E-11 7.61133E-11
 -1       692 1.14668E+05 1.23782E+03 2.59126E+03-4.16242E+02 1.72732E-10-1.80137E-10
 -1       693 1.13530E+05-1.06952E+03 4.12899E+03 1.13120E+02-6.36611E-11-4.47926E-11
 -1       694 1.17773E+05 7.94042E+03 1.12714E+04-4.84692E+02-1.34122E-10 1.09139E-11
 -1       695 1.10864E+05-6.85662E+03 1.59481E+04 1.55515E+02 1.09228E-10 1.95541E-10
 -1       696-2.33126E+03 9.60380E+04 5.33815E+03 1.34909E+02 1.63709E-11-1.64166E-10
 -1       697 2.51673E+03 9.82855E+04 3.43554E+03-7.16810E+02 1.39266E-11-2.44112E-10
 -1       698-1.80637E+02 9.70332E+04 6.88489E+02 1.27895E+02-4.18368E-11 1.94825E-10
 -1       699-9.66021E+02 9.66728E+04-1.11702E+03-7.21861E+02-6.32667E-11 5.79331E-10
 -1       700 1.14510E+03 9.76511E+04-2.50436E+03 1.39958E+02-3.97904E-11 1.53815E-10
 -1       701-1.03477E+05-9.43399E+03-1.31399E+04-4.10653E+04-1.08230E-10-3.46517E-10
 -1       702-1.10335E+05-2.15152E+04-9.11264E+03-3.88567E+04-1.36595E-10-1.23350E-10
 -1       703-1.06171E+05-1.41265E+04-3.08184E+03-4.01594E+04-1.01238E-10 5.62750E-11
 -1       704-1.07195E+05-1.60915E+04-1.92375E+03-3.99140E+04 4.86011E-12-1.06638E-10
 -1       705-1.06616E+05-1.48497E+04-7.21883E+02-4.00109E+04-1.24203E-11 3.89377E-11
 -1       706-1.06672E+05-1.52650E+04-4.30959E+02-4.00939E+04-8.75868E-11-4.75701E-10
 -1       707-1.06694E+05-1.49518E+04-2.00582E+02-3.99799E+04 1.47509E-10-6.25420E-11
 -1       708-1.06587E+05-1.51684E+04-1.77005E+02-4.01320E+04 4.11895E-11 7.08180E-11
 -1       709-1.06700E+05-1.49462E+04-1.97393E+02-3.99729E+04-1.50740E-08 5.75999E-09
 -1       710-1.06648E+05-1.52840E+04-4.21449E+02-4.01210E+04-3.01308E-08 1.13706E-08
 -1       711-1.06634E+05-1.48362E+04-7.04176E+02-3.99909E+04-1.52740E-08 5.91493E-09
 -1       712-1.07140E+05-1.61090E+04-1.87656E+03-3.99678E+04-1.90916E-10 5.48539E-11
 -1       713-1.06208E+05-1.41223E+04-3.00517E+03-4.01257E+04 3.57545E-11 7.59428E-11
 -1       714-1.10186E+05-2.14143E+04-8.88665E+03-3.89554E+04 3.93925E-11-1.48134E-10
 -1       715-1.03589E+05-9.53890E+03-1.28134E+04-4.10005E+04-1.01863E-10 3.63798E-12
 -1       716 2.30572E+04-3.45946E+03 8.04301E+03 1.82968E+02 1.94902E-10-4.41105E-11
 -1       717 2.65667E+04 4.00605E+03 5.69037E+03-7.38264E+02 1.01444E-10-8.33325E-11
 -1       718 2.44066E+04-5.39728E+02 2.08699E+03 1.68255E+02-3.73959E-11 6.70752E-12
 -1       719 2.49932E+04 6.25384E+02 1.31915E+03-7.14646E+02-1.25443E-10 2.52669E-10
 -1       720 2.46302E+04-8.46618E+01 5.55023E+02 1.59352E+02 2.49912E-10 1.51800E-10
 -1       721 2.47342E+04 1.03802E+02 3.61291E+02-7.01905E+02 4.55236E-10 1.20096E-10
 -1       722 2.46652E+04-1.88306E+01 2.34739E+02 1.55514E+02 3.36364E-10 2.21474E-10
 -1       723 2.47125E+04 6.00143E+01 2.95725E+02-6.99146E+02 1.39803E-10 3.63229E-10
 -1       724 2.46519E+04-4.09093E+01 4.36618E+02 1.56593E+02 4.18686E-10 1.53562E-10
 -1       725 2.48391E+04 2.94412E+02 9.44987E+02-7.06270E+02 1.23900E-10 1.72250E-10
 -1       726 2.45388E+04-2.52993E+02 1.60674E+03 1.62639E+02-2.25022E-10 5.99698E-11
 -1       727 2.56227E+04 1.88328E+03 3.94190E+03-7.23682E+02-5.02268E-10 5.23187E-10
 -1       728 2.38686E+04-1.62736E+03 6.28002E+03 1.74005E+02-1.65599E-10-1.00044E-11
 -1       729 3.03530E+04 1.20813E+04 1.71502E+04-7.54799E+02-3.73159E-11-4.04725E-10
 -1       730 1.98097E+04-1.04325E+04 2.42627E+04 1.93748E+02 4.03169E-10-4.25644E-10
 -1       731-4.15455E+03 4.08265E+04 9.68588E+03 1.76710E+02-1.02773E-10-2.96396E-10
 -1       732 4.87597E+03 4.50403E+04 6.94966E+03-8.25970E+02 8.04903E-11 7.18625E-11
 -1       733-7.12329E+02 4.24090E+04 2.71498E+03 1.80070E+02-1.48134E-10 3.31344E-10
 -1       734 1.23725E+03 4.33592E+04 2.19373E+03-8.42416E+02-7.50333E-12 4.30905E-10
 -1       735-5.22683E+02 4.25079E+04 1.49051E+03 1.93153E+02-1.20352E-10 1.93914E-10
 -1       736-2.34720E+05-2.63533E+04-1.72883E+04-9.11011E+04-2.71029E-10-1.99179E-10
 -1       737-2.43945E+05-4.20367E+04-1.19891E+04-8.79494E+04 3.71926E-10-1.65073E-10
 -1       738-2.38292E+05-3.25003E+04-4.05442E+03-8.98779E+04 1.81956E-10 3.83352E-10
 -1       739-2.39749E+05-3.49633E+04-2.52999E+03-8.94126E+04 1.88251E-10 2.04949E-10
 -1       740-2.38914E+05-3.34159E+04-9.49028E+02-8.96414E+04-5.84350E-11 3.71188E-10
 -1       741-2.38991E+05-3.39439E+04-5.64412E+02-8.97275E+04-2.36753E-10 1.02560E-10
 -1       742-2.39049E+05-3.35182E+04-2.60319E+02-8.95635E+04 1.13804E-10-1.14213E-10
 -1       743-2.38825E+05-3.38694E+04-2.23516E+02-8.98408E+04-8.33289E-11 8.16787E-11
 -1       744-2.39080E+05-3.34902E+04-2.43192E+02-8.95281E+04-4.09454E-10-2.39318E-10
 -1       745-2.38868E+05-3.40381E+04-5.12920E+02-8.98631E+04-2.77666E-10 1.58813E-10
 -1       746-2.39007E+05-3.33495E+04-8.54572E+02-8.95412E+04-3.55456E-10 2.49088E-10
 -1       747-2.39468E+05-3.50338E+04-2.27563E+03-8.96725E+04-4.75723E-10-6.84963E-12
 -1       748-2.38480E+05-3.24960E+04-3.64376E+03-8.97184E+04-4.39741E-10-1.75305E-10
 -1       749-2.43200E+05-4.14278E+04-1.07751E+04-8.84000E+04-2.72280E-11 1.29717E-10
 -1       750-2.35278E+05-2.69652E+04-1.55369E+04-9.08105E+04-3.62888E-10 9.64064E-11
 -1       751 5.44690E+05-3.07347E+04 7.15244E+04 5.20456E+02-3.93992E-09 2.54659E-11
 -1       752 5.75630E+05 3.55953E+04 5.05379E+04-9.37853E+02-1.10840E-09-6.13909E-10
 -1       753 5.56640E+05-4.79439E+03 1.85246E+04 2.47247E+02-6.21903E-11 8.82210E-11
 -1       754 5.61722E+05 5.54992E+03 1.16305E+04-5.26865E+02 4.99405E-11 5.45697E-10
 -1       755 5.58604E+05-7.46381E+02 4.76812E+03 1.09495E+02-6.62913E-10 1.68257E-11
 -1       756 5.59438E+05 8.74910E+02 2.84648E+03-3.21182E+02-9.20295E-11-1.63141E-10
 -1       757 5.58928E+05-1.27351E+02 1.40322E+03 4.15621E+01-2.89497E-10 1.48418E-10
 -1       758 5.59099E+05 2.27478E+02 1.12522E+03-2.26318E+02-5.09512E-10 4.94413E-10
 -1       759 5.58944E+05-9.99027E+01 1.15175E+03 1.46291E+01-5.23577E-08 6.67910E-12
 -1       760 5.59309E+05 6.37815E+02 2.12008E+03-2.02181E+02-1.04688E-07 6.88061E-10
 -1       761 5.58717E+05-5.37040E+02 3.45858E+03 1.74245E+01-5.26533E-08 1.30512E-10
 -1       762 5.60941E+05 3.98523E+03 8.36642E+03-2.38731E+02 2.60235E-10 5.07612E-10
 -1       763 5.57309E+05-3.44156E+03 1.33053E+04 5.11800E+01 9.19043E-10 9.19499E-10
 -1       764 5.70916E+05 2.55492E+04 3.62773E+04-3.52673E+02-3.81828E-11 6.65750E-10
 -1       765 5.48735E+05-2.20605E+04 5.13364E+04 1.31364E+02-4.93749E-10 1.41881E-10
 -1       766-1.32758E+04 8.95910E+04 3.13269E+04-5.27903E+01-1.01500E-09-2.29608E-10
 -1       767 1.64280E+04 1.03498E+05 2.40023E+04-1.80862E+01-1.03682E-10 4.48210E-11
 -1       768-3.12249E+03 9.42405E+04 1.19023E+04-1.52679E+01-6.34827E-10 2.26485E-10
 -1       769 1.03660E+04 1.00690E+05 1.60779E+04-9.13721E+01-1.40631E-10 2.55639E-10
 -1       770-7.22521E+03 9.23983E+04 1.76738E+04 2.04851E+01-2.83762E-10 6.83670E-10
 -1       771-3.02503E+05-6.11904E+04-1.08214E+04-1.30865E+05-1.02614E-09 1.14596E-10
 -1       772-3.01766E+05-6.08731E+04-5.30206E+03-1.35260E+05 5.58430E-10 7.80346E-09
 -1       773-3.02899E+05-5.70876E+04-2.25161E+03-1.32625E+05-1.03955E-09 4.31555E-10
 -1       774-3.00547E+05-5.94869E+04-1.10024E+03-1.35563E+05 1.85537E-10-3.84830E-10
 -1       775-3.02968E+05-5.69226E+04-5.07100E+02-1.32705E+05-1.50976E-10 9.12905E-11
 -1       776-3.00462E+05-5.94335E+04-2.56511E+02-1.35575E+05 5.18412E-11-1.51545E-10
 -1       777-3.02989E+05-5.69240E+04-1.39293E+02-1.32710E+05-6.09361E-11-2.16659E-10
 -1       778-3.00459E+05-5.94317E+04-1.09073E+02-1.35579E+05-1.97133E-10-2.90882E-10
 -1       779-3.02996E+05-5.69200E+04-1.37127E+02-1.32713E+05-4.00178E-11-1.02489E-10
 -1       780-3.00473E+05-5.94300E+04-2.51288E+02-1.35588E+05 2.77396E-11 7.23048E-11
 -1       781-3.02990E+05-5.69099E+04-4.95743E+02-1.32714E+05 1.51431E-10 4.19504E-11
 -1       782-3.00562E+05-5.94862E+04-1.07733E+03-1.35597E+05-1.10276E-11 2.27374E-12
 -1       783-3.02941E+05-5.70560E+04-2.20260E+03-1.32635E+05-1.70644E-10-1.89402E-10
 -1       784-3.01697E+05-6.09172E+04-5.19266E+03-1.35400E+05 2.18279E-11-9.09495E-13
 -1       785-3.02630E+05-6.10006E+04-1.05930E+04-1.30840E+05 2.53237E-11-2.27374E-12
 -1       786 5.80448E+04-1.70596E+03 7.40630E+03-4.18975E+02 1.10902E-10 9.09495E-12
 -1       787 6.07116E+04 2.32361E+03 4.74235E+03-1.64027E+03-6.89795E-11-4.13820E-11
 -1       788 5.91615E+04-1.75313E+02 1.91924E+03-4.15465E+02-2.43006E-11-3.30260E-10
 -1       789 5.94683E+04 2.28757E+02 1.07115E+03-1.64349E+03 6.80132E-11-9.32900E-10
 -1       790 5.92879E+04-1.89112E+01 4.87693E+02-4.15718E+02 8.11440E-12-2.23451E-10
 -1       791 5.93255E+04 2.22918E+01 2.61864E+02-1.64307E+03 1.02318E-10-1.91676E-10
 -1       792 5.93040E+04-2.38564E+00 1.34854E+02-4.15885E+02-2.30322E-11 1.37042E-10
 -1       793 5.93079E+04 3.01564E+00 9.07379E+01-1.64297E+03 1.14865E-10 3.95410E-10
 -1       794 5.93054E+04-1.35289E+00 8.56191E+01-4.15823E+02-1.10177E-10 3.44791E-11
 -1       795 5.93136E+04 1.03069E+01 1.32165E+02-1.64340E+03 1.57740E-10 4.83278E-10
 -1       796 5.92984E+04-8.75529E+00 2.29467E+02-4.15451E+02-6.49152E-11-2.69125E-10
 -1       797 5.93787E+04 1.04763E+02 4.94039E+02-1.64399E+03-1.84599E-11-7.70655E-11
 -1       798 5.92406E+04-8.04691E+01 8.81238E+02-4.15239E+02-1.35202E-10-1.27898E-11
 -1       799 5.99488E+04 1.06502E+03 2.17470E+03-1.64030E+03-1.82325E-10-4.20727E-10
 -1       800 5.87288E+04-7.82230E+02 3.39537E+03-4.19159E+02 2.34763E-11-1.38698E-10
 -1       801-1.86223E+03 5.80348E+04 8.69446E+03-4.55513E+04 1.89175E-10-2.70120E-09
 -1       802 3.59971E+03 6.11860E+04 8.63815E+03-1.78534E+05-1.17689E-09-3.44971E-09
 -1       803-7.20290E+02 5.85327E+04 9.17684E+03-4.53925E+04 5.40240E-10-1.67834E-09
 -1       804 9.57267E+03 6.47622E+04 1.92490E+04-1.78529E+05-1.55524E-09-2.13186E-09
 -1       805-6.69201E+03 5.44886E+04 2.87623E+04-4.55574E+04 5.51154E-10 1.67347E-10
 -1       806-5.67670E+04-1.51148E+04-4.82413E+03-2.61670E+04 2.31466E-10-1.19599E-10
 -1       807-5.67896E+04-1.38962E+04-2.28881E+03-2.76419E+04-1.34150E-11 5.60931E-10
 -1       808-5.67411E+04-1.26508E+04-9.62437E+02-2.72049E+04-2.20894E-10 1.88805E-10
 -1       809-5.63126E+04-1.30308E+04-4.65181E+02-2.78410E+04-3.88809E-11 3.14870E-10
 -1       810-5.67525E+04-1.24825E+04-2.10392E+02-2.72803E+04-1.92529E-10 2.36241E-10
 -1       811-5.62655E+04-1.29735E+04-1.05578E+02-2.78488E+04-1.24814E-10 2.21007E-10
 -1       812-5.67563E+04-1.24775E+04-5.54495E+01-2.72837E+04 6.40625E-11-3.75508E-10
 -1       813-5.62606E+04-1.29718E+04-4.13818E+01-2.78477E+04-1.98241E-12 1.44382E-10
 -1       814-5.67564E+04-1.24780E+04-4.87057E+01-2.72836E+04-6.22435E-12-3.62718E-10
 -1       815-5.62644E+04-1.29735E+04-8.77054E+01-2.78481E+04 3.08290E-10-4.54747E-10
 -1       816-5.67528E+04-1.24824E+04-1.71904E+02-2.72806E+04-2.19416E-10-8.53788E-11
 -1       817-5.63035E+04-1.30192E+04-3.78867E+02-2.78402E+04 8.77094E-11-2.96723E-11
 -1       818-5.67425E+04-1.26207E+04-7.83116E+02-2.72203E+04 2.92971E-10 1.29717E-10
 -1       819-5.67002E+04-1.37142E+04-1.86193E+03-2.76676E+04-2.07308E-10 4.23370E-10
 -1       820-5.67543E+04-1.46326E+04-3.92396E+03-2.63849E+04-1.28466E-10 6.97582E-10
 -1       821-5.74689E+04 1.71011E+03-7.42555E+03 4.56072E+02-7.32825E-10-7.00311E-11
 -1       822-6.01418E+04-2.32963E+03-4.75482E+03 1.78666E+03-4.20073E-10 1.88322E-10
 -1       823-5.85885E+04 1.75630E+02-1.92485E+03 4.47885E+02 5.96117E-10 7.23048E-11
 -1       824-5.88961E+04-2.28925E+02-1.07511E+03 1.79618E+03-1.85224E-10-1.30939E-10
 -1       825-5.87153E+04 1.90142E+01-4.91513E+02 4.46510E+02-1.15134E-09-3.29976E-10
 -1       826-5.87538E+04-2.17293E+01-2.67722E+02 1.79824E+03-1.99064E-09-7.58718E-11
 -1       827-5.87314E+04 2.65256E+00-1.45484E+02 4.45817E+02-1.25368E-09 2.80579E-10
 -1       828-5.87374E+04-2.93171E+00-1.12186E+02 1.79940E+03-1.64712E-09 7.06009E-10
 -1       829-5.87320E+04 2.31785E+00-1.27157E+02 4.45357E+02-7.58860E-12 5.08962E-11
 -1       830-5.87497E+04-1.71231E+01-2.19502E+02 1.79990E+03 1.03085E-09-2.31168E-10
 -1       831-5.87193E+04 1.53847E+01-3.95432E+02 4.45310E+02-7.92262E-10-5.91797E-10
 -1       832-5.88635E+04-1.82513E+02-8.60511E+02 1.79952E+03-2.14001E-10-5.76236E-10
 -1       833-5.86181E+04 1.40599E+02-1.53873E+03 4.45750E+02 7.38964E-11-1.65016E-10
 -1       834-5.98592E+04-1.86110E+03-3.79993E+03 1.79506E+03 5.37739E-11-6.99174E-10
 -1       835-5.77235E+04 1.36688E+03-5.93381E+03 4.49839E+02 8.64304E-11-4.08818E-10
 -1       836-2.73397E+03 1.47996E+05 1.25124E+04-3.95651E+03-2.61025E-10-4.07340E-10
 -1       837 4.18626E+03 1.52600E+05 9.72507E+03-1.54418E+04 6.79563E-10-2.98996E-10
 -1       838-6.65294E+02 1.49473E+05 7.20458E+03-3.94448E+03-4.01883E-10 9.52660E-11
 -1       839 5.55318E+03 1.53412E+05 1.21500E+04-1.54420E+04 7.05313E-10-2.28397E-10
 -1       840-3.83461E+03 1.47183E+05 1.71001E+04-3.95627E+03-3.14685E-10 3.46745E-11
 -1       841-6.78491E+03 3.49807E+01-2.57498E+03-3.00570E+03-7.78130E-10-6.25391E-10
 -1       842-8.21094E+03-2.25208E+03-1.78551E+03-2.48134E+03-4.91745E-10 2.17796E-10
 -1       843-7.30899E+03-8.88518E+02-6.03301E+02-2.83272E+03 4.45439E-10 4.54378E-10
 -1       844-7.60251E+03-1.18207E+03-3.75549E+02-2.68053E+03 7.30971E-10 4.60023E-10
 -1       845-7.39314E+03-1.03344E+03-1.38468E+02-2.80713E+03 1.30406E-10 2.22684E-11
 -1       846-7.50460E+03-1.01359E+03-7.76484E+01-2.70971E+03-8.80297E-10 2.43090E-10
 -1       847-7.40687E+03-1.05676E+03-2.62084E+01-2.80363E+03-8.39513E-10 2.19966E-10
 -1       848-7.48684E+03-9.83746E+02-3.43981E+00-2.71401E+03-3.85764E-09 6.35064E-10
 -1       849-7.41090E+03-1.06325E+03 1.85296E+01-2.80285E+03-4.84946E-07 1.82130E-07
 -1       850-7.47121E+03-9.58574E+02 6.11511E+01-2.71798E+03-9.64157E-07 3.62928E-07
 -1       851-7.42250E+03-1.08190E+03 1.10894E+02-2.79967E+03-4.86436E-07 1.81652E-07
 -1       852-7.39100E+03-8.23536E+02 3.02140E+02-2.74240E+03-3.82500E-09 8.66436E-10
 -1       853-7.49107E+03-1.19810E+03 4.85560E+02-2.77850E+03-4.02530E-10 5.30321E-10
 -1       854-6.89931E+03 3.65735E+01 1.43768E+03-2.90441E+03 3.11765E-10 8.93266E-10
 -1       855-7.91399E+03-1.94073E+03 2.07321E+03-2.63813E+03-5.81224E-11 5.40354E-10
 -1       856-6.78984E+04 1.58453E+03-6.88171E+03 9.26259E+02-6.93035E-10 3.53339E-10
 -1       857-7.03741E+04-2.15758E+03-4.40617E+03 3.64900E+03-3.66640E-10 3.17812E-10
 -1       858-6.89362E+04 1.62904E+02-1.78365E+03 9.12872E+02-1.10305E-09-6.78710E-11
 -1       859-6.92209E+04-2.10327E+02-9.95667E+02 3.66503E+03-2.43176E-10-6.22776E-10
 -1       860-6.90539E+04 1.80373E+01-4.54308E+02 9.10153E+02 2.06455E-10-1.67262E-10
 -1       861-6.90896E+04-1.79820E+01-2.45581E+02 3.66868E+03-1.73371E-09-1.48646E-10
 -1       862-6.90690E+04 2.97061E+00-1.29893E+02 9.09211E+02 2.55955E-09-4.18581E-10
 -1       863-6.90742E+04-1.44226E-01-9.38098E+01 3.66985E+03 4.32646E-09-8.06310E-10
 -1       864-6.90699E+04 2.34955E+00-9.80929E+01 9.08985E+02 2.25070E-09-1.04144E-10
 -1       865-6.90823E+04-1.01052E+01-1.61860E+02 3.66942E+03 1.86120E-09-3.76524E-10
 -1       866-6.90608E+04 1.16158E+01-2.87555E+02 9.09641E+02-1.87725E-10-4.42348E-10
 -1       867-6.91637E+04-1.29989E+02-6.23093E+02 3.66691E+03-5.71163E-10-7.92298E-10
 -1       868-6.89874E+04 1.01889E+02-1.11341E+03 9.11506E+02 9.71454E-10-1.29660E-10
 -1       869-6.98825E+04-1.34449E+03-2.74842E+03 3.65363E+03-9.41327E-10-5.58430E-10
 -1       870-6.83401E+04 9.88361E+02-4.29208E+03 9.22979E+02 9.28480E-10 2.78533E-10
 -1       871-6.15061E+02-6.03678E+03-1.14532E+03 1.72859E+04 7.10997E-10-5.95946E-10
 -1       872-1.85313E+02-6.23990E+03-3.30940E+02 2.02105E+04 6.72230E-10-5.76620E-10
 -1       873 2.48186E+01-6.15994E+03 3.46124E+02 1.72524E+04 7.59883E-10 3.98586E-10
 -1       874 4.19615E+02-5.88682E+03 1.27842E+03 2.02257E+04 5.48425E-10 2.04821E-10
 -1       875 1.34552E+03-6.39269E+03 2.75859E+03 1.72713E+04 8.34234E-10 4.46221E-10
 -1       876 8.08127E+04 1.00962E+04 7.65324E+03 3.17072E+04 1.31212E-09-1.25510E-09
 -1       877 8.25690E+04 1.60317E+04 4.83006E+03 3.28005E+04 8.49028E-11-5.43650E-10
 -1       878 8.21347E+04 1.18393E+04 1.80685E+03 3.15156E+04-3.48760E-09-5.21754E-09
 -1       879 8.10488E+04 1.37678E+04 9.94381E+02 3.31310E+04-3.06409E-09-2.29875E-10
 -1       880 8.22850E+04 1.20277E+04 4.22023E+02 3.15009E+04-1.68532E-09-5.01586E-10
 -1       881 8.08760E+04 1.35290E+04 2.26463E+02 3.31562E+04-1.52465E-09-1.48656E-09
 -1       882 8.23025E+04 1.20489E+04 1.20909E+02 3.15010E+04 1.23315E-09 2.34230E-10
 -1       883 8.08588E+04 1.35061E+04 1.04094E+02 3.31563E+04-1.46926E-09 3.84825E-10
 -1       884 8.23016E+04 1.20488E+04 1.35832E+02 3.15013E+04-7.23062E-10 1.02972E-10
 -1       885 8.08822E+04 1.35335E+04 2.67807E+02 3.31545E+04 3.77973E-09 3.91900E-10
 -1       886 8.22794E+04 1.20239E+04 5.05700E+02 3.15019E+04 8.08328E-10-1.38414E-11
 -1       887 8.10916E+04 1.38200E+04 1.19563E+03 3.31228E+04 4.09706E-10-3.76190E-10
 -1       888 8.20976E+04 1.17976E+04 2.17378E+03 3.15199E+04 1.09655E-09-1.00238E-09
 -1       889 8.29203E+04 1.65455E+04 5.81233E+03 3.27259E+04 8.45546E-12-1.95996E-10
 -1       890 8.05078E+04 9.69886E+03 9.20949E+03 3.17489E+04-1.97929E-10-2.16460E-10
 -1       891 2.97966E+02-3.60344E+04-1.39257E+03 3.88226E+03 2.06813E-09 1.88834E-10
 -1       892-4.76199E+02-3.65430E+04-1.12198E+03 1.52100E+04-7.16227E-11 3.01299E-10
 -1       893 8.17402E+01-3.61901E+04-8.95007E+02 3.86704E+03 8.30283E-10 2.46192E-10
 -1       894-7.43276E+02-3.67013E+04-1.59551E+03 1.52091E+04 4.54804E-10-3.10820E-10
 -1       895 5.12760E+02-3.58756E+04-2.28844E+03 3.88324E+03 1.35572E-09 1.23123E-10
 -1       896 1.60947E+05-1.25508E+03 2.91913E+03 1.11660E+02-2.93099E-11-5.60021E-10
 -1       897 1.62202E+05 1.45342E+03 2.06460E+03-2.92659E+02-7.06883E-11-2.79897E-10
 -1       898 1.61436E+05-1.95810E+02 7.58277E+02 7.48741E+01-2.82796E-11-2.53721E-10
 -1       899 1.61633E+05 2.26961E+02 4.79957E+02-2.31933E+02-2.65745E-10-8.33325E-11
 -1       900 1.61516E+05-3.08124E+01 2.04304E+02 5.09340E+01 1.38903E-10-2.94236E-11
 -1       901 1.61541E+05 3.83561E+01 1.37138E+02-1.94016E+02-1.38021E-10 4.15366E-11
 -1       902 1.61528E+05-7.50110E+00 9.64954E+01 3.69564E+01 7.61080E-11 6.52687E-11
 -1       903 1.61535E+05 2.67415E+01 1.32191E+02-1.74360E+02 5.98263E-09 1.11731E-10
 -1       904 1.61521E+05-1.92094E+01 2.03627E+02 3.12773E+01 8.30645E-07 8.81855E-11
 -1       905 1.61595E+05 1.39480E+02 4.46466E+02-1.70674E+02 1.65093E-06 2.07272E-10
 -1       906 1.61469E+05-1.20072E+02 7.62265E+02 3.32705E+01 8.30581E-07 6.05951E-11
 -1       907 1.61964E+05 8.94045E+02 1.87031E+03-1.82554E+02 6.22959E-09 4.61853E-11
 -1       908 1.61152E+05-7.72500E+02 2.98223E+03 4.31583E+01 1.85981E-10-2.73985E-11
 -1       909 1.64204E+05 5.73529E+03 8.14048E+03-2.11641E+02-8.92530E-11-2.12594E-10
 -1       910 1.59228E+05-4.95237E+03 1.15199E+04 6.23571E+01 3.93923E-10-1.27784E-10
 -1       911 4.71570E+04-6.15367E+02 1.43152E+03 4.61732E+01 1.09921E-11-9.04947E-11
 -1       912 4.77748E+04 7.12677E+02 1.01300E+03-1.80545E+02 7.93232E-12 7.96945E-11
 -1       913 4.73963E+04-9.60505E+01 3.73336E+02 3.86700E+01 4.08900E-11 1.14142E-10
 -1       914 4.74962E+04 1.11573E+02 2.38695E+02-1.67882E+02 1.17422E-11 2.37293E-10
 -1       915 4.74356E+04-1.53438E+01 1.06654E+02 3.35096E+01 1.18046E-10 2.43350E-10
 -1       916 4.74519E+04 2.05956E+01 8.11232E+01-1.59750E+02 1.59057E-10 3.66637E-10
 -1       917 4.74406E+04-5.21458E+00 7.33687E+01 3.05381E+01 1.62686E-10 3.57345E-10
 -1       918 4.74552E+04 2.47307E+01 1.22080E+02-1.55895E+02 5.05036E-11 3.94282E-10
 -1       919 4.74322E+04-1.94731E+01 2.03819E+02 2.96543E+01 1.27168E-10 2.52030E-10
 -1       920 4.75183E+04 1.43745E+02 4.57877E+02-1.56174E+02 8.32192E-11 2.99764E-10
 -1       921 4.73775E+04-1.24055E+02 7.86110E+02 3.08169E+01 1.22852E-10 4.39854E-10
 -1       922 4.79000E+04 9.24048E+02 1.93213E+03-1.60593E+02 1.58104E-10 1.35174E-10
 -1       923 4.70505E+04-7.98465E+02 3.08175E+03 3.40736E+01 1.42561E-10 2.30216E-10
 -1       924 5.02157E+04 5.92801E+03 8.41351E+03-1.69406E+02 1.80655E-10 1.31763E-10
 -1       925 4.50617E+04-5.11878E+03 1.19067E+04 3.96297E+01 2.42407E-10 1.05501E-10
 -1       926-2.05706E+05 4.58832E+03-1.06705E+04-2.72776E-01 5.78074E-10 3.36513E-11
 -1       927-2.10310E+05-5.31357E+03-7.53980E+03-1.31573E+00-1.10967E-10 4.00178E-11
 -1       928-2.07488E+05 7.15668E+02-2.76037E+03-8.65779E+00 2.39705E-10-4.72937E-11
 -1       929-2.08234E+05-8.28030E+02-1.72859E+03 1.46873E+01 6.35128E-10-2.78760E-10
 -1       930-2.07781E+05 1.11003E+02-6.98998E+02-1.62761E+01 4.55060E-10-2.19529E-10
 -1       931-2.07891E+05-1.27363E+02-3.98756E+02 2.80886E+01-3.14448E-11-1.51999E-10
 -1       932-2.07831E+05 1.61832E+01-1.61036E+02-2.20594E+01-9.08829E-13-2.39631E-10
 -1       933-2.07830E+05-1.25454E+01-6.19709E+01 3.70101E+01-2.01857E-10-1.88466E-10
 -1       934-2.07843E+05-3.64916E+00 2.03147E+01-2.51977E+01-2.30895E-08-1.57335E-10
 -1       935-2.07799E+05 4.39190E+01 1.25119E+02 4.01930E+01-4.21816E-08-2.40995E-10
 -1       936-2.07862E+05-4.02047E+01 2.45687E+02-2.52424E+01 4.80588E-07-1.72136E-10
 -1       937-2.07672E+05 3.02038E+02 6.26330E+02 3.71791E+01 1.00120E-06-3.81306E-10
 -1       938-2.07969E+05-2.61333E+02 1.00580E+03-2.21837E+01 5.03993E-07-3.65731E-10
 -1       939-2.06913E+05 1.94059E+03 2.75260E+03 2.83827E+01 3.85639E-09-1.90454E-10
 -1       940-2.08620E+05-1.67575E+03 3.89691E+03-1.64460E+01 9.11045E-11-1.95541E-11
 -1       941 8.71954E+05-4.34701E+04 1.01193E+05 3.16390E+01 3.87364E-08 9.53150E-10
 -1       942 9.15680E+05 5.03467E+04 7.14914E+04 3.87252E+01 7.27720E-08-8.01265E-10
 -1       943 8.88851E+05-6.78157E+03 2.62134E+04 3.37801E+01 1.08518E-07-1.36424E-10
 -1       944 8.96025E+05 7.85091E+03 1.64599E+04 3.46052E+01 1.45568E-07-6.24823E-10
 -1       945 8.91629E+05-1.05615E+03 6.75705E+03 3.57627E+01 2.32788E-07 3.87899E-10
 -1       946 8.92799E+05 1.24021E+03 4.04797E+03 2.98375E+01 3.21539E-07 1.27528E-09
 -1       947 8.92085E+05-1.82365E+02 2.02352E+03 3.85487E+01 5.81664E-07 5.56156E-10
 -1       948 8.92329E+05 3.38391E+02 1.67471E+03 2.15977E+01 8.38602E-07 7.51395E-10
 -1       949 8.92100E+05-1.55701E+02 1.77925E+03 4.40027E+01 4.22043E-07-1.39232E-09
 -1       950 8.92675E+05 1.00995E+03 3.34264E+03 4.24118E+00 4.16075E-09 1.45121E-09
 -1       951 8.91738E+05-8.52881E+02 5.48507E+03 5.59054E+01 5.05906E-10-1.27829E-09
 -1       952 8.95270E+05 6.33168E+03 1.32909E+04-3.43951E+01-5.42002E-10-4.03816E-10
 -1       953 8.89499E+05-5.46824E+03 2.11447E+04 8.26388E+01-1.11259E-09 3.33785E-10
 -1       954 9.11116E+05 4.05954E+04 5.76480E+04-1.22992E+02-6.02189E-10-8.39464E-10
 -1       955 8.75873E+05-3.50509E+04 8.15881E+04 1.44493E+02-4.03274E-09-2.54659E-11
 -1       956-4.63236E+04-8.01787E+02-1.67128E+03 6.48404E+03-9.11768E-10-1.06411E-10
 -1       957-4.66276E+04-2.56072E+02-8.43384E+02 7.52000E+03-1.94746E-10-4.05862E-11
 -1       958-4.64578E+04-3.13926E+01-3.79079E+02 6.44528E+03 6.61885E-10-3.83011E-10
 -1       959-4.64844E+04-7.05996E+00-1.92883E+02 7.56254E+03-3.09228E-10-8.22752E-10
 -1       960-4.64709E+04 4.32534E+00-9.35163E+01 6.44141E+03-9.70431E-10-4.57419E-10
 -1       961-4.64722E+04 3.97792E+00-4.93385E+01 7.56680E+03-2.03283E-09-1.51772E-11
 -1       962-4.64733E+04 3.97239E+00-2.76714E+01 6.44102E+03-1.05581E-09-9.07789E-11
 -1       963-4.64713E+04 4.05422E+00-2.12773E+01 7.56729E+03-1.00431E-09-3.88752E-10
 -1       964-4.64738E+04 4.12142E+00-2.46273E+01 6.44092E+03-1.53193E-10-2.41982E-10
 -1       965-4.64729E+04 4.42631E+00-4.15919E+01 7.56719E+03 8.76497E-10-5.81394E-10
 -1       966-4.64727E+04 4.84457E+00-7.74991E+01 6.44112E+03-6.26486E-10-8.94715E-10
 -1       967-4.64839E+04-4.20069E+00-1.59228E+02 7.56502E+03-3.27418E-11-3.49416E-10
 -1       968-4.64626E+04-2.41596E+01-3.12556E+02 6.44309E+03 2.44938E-10-1.73998E-10
 -1       969-4.66027E+04-2.09101E+02-6.95357E+02 7.54346E+03 3.85398E-10 3.49246E-10
 -1       970-4.63525E+04-6.59066E+02-1.37780E+03 6.46283E+03-1.03455E-11-4.80441E-10
 -1       971-9.45454E+04 1.31493E+03-5.71215E+03 9.32468E+02-7.27368E-10 9.57243E-10
 -1       972-9.65964E+04-1.79067E+03-3.65754E+03 3.68587E+03-1.37521E-09 5.82077E-10
 -1       973-9.54068E+04 1.35130E+02-1.48150E+03 9.17283E+02-1.76647E-09 4.82714E-10
 -1       974-9.56398E+04-1.74280E+02-8.28456E+02 3.70466E+03 3.10621E-10 7.86940E-10
 -1       975-9.55045E+04 1.50228E+01-3.81239E+02 9.13620E+02 2.26578E-10 5.74971E-11
 -1       976-9.55315E+04-1.45883E+01-2.12295E+02 3.70982E+03-9.65059E-10 6.24709E-11
 -1       977-9.55169E+04 2.73531E+00-1.24479E+02 9.12110E+02 2.60189E-09 1.19229E-10
 -1       978-9.55206E+04-7.56209E-01-1.12257E+02 3.71182E+03 5.13676E-09 4.03112E-10
 -1       979-9.55162E+04 3.32365E+00-1.48345E+02 9.11622E+02 2.87428E-09 3.15996E-10
 -1       980-9.55379E+04-2.01477E+01-2.75271E+02 3.71163E+03 2.81032E-09 5.99160E-10
 -1       981-9.54996E+04 2.02149E+01-5.06493E+02 9.12294E+02-5.51381E-11 5.85032E-10
 -1       982-9.56845E+04-2.33974E+02-1.10866E+03 3.70879E+03 6.17604E-10 6.79847E-10
 -1       983-9.53687E+04 1.81625E+02-1.98523E+03 9.14481E+02 1.21298E-09 3.10479E-10
 -1       984-9.69687E+04-2.40106E+03-4.90420E+03 3.69499E+03 8.29914E-12 3.50838E-10
 -1       985-9.42138E+04 1.76415E+03-7.65904E+03 9.26207E+02 1.51556E-09-4.00178E-11
 -3
    1PSTEP                         5           3           1          
  100CL  103 2.18750E-01         841                     0    3           1
 -4  DISP        4    1
 -5  D1          1    2    1    0
 -5  D2          1    2    2    0
 -5  D3          1    2    3    0
 -5  ALL         1    2    0    0    1ALL
 -1         1 2.67531E-05 0.00000E+00 0.00000E+00
 -1         2 1.97815E-05 0.00000E+00 0.00000E+00
 -1         3 1.65167E-05 0.00000E+00 0.00000E+00
 -1         4 1.47346E-05 0.00000E+00 0.00000E+00
 -1         5 1.39367E-05 0.00000E+00 0.00000E+00
 -1         8 2.09998E-05-2.65852E-07 0.00000E+00
 -1         9 1.66294E-05 2.22136E-07 0.00000E+00
 -1        10 1.54914E-05-6.88011E-07 0.00000E+00
 -1        11 1.44489E-05-1.40269E-07 0.00000E+00
 -1        12 1.34176E-05 3.51100E-07 0.00000E+00
 -1        15 8.85852E-06-5.51737E-07 0.00000E+00
 -1        16 1.21678E-05 2.21451E-07 0.00000E+00
 -1        17 1.12779E-05-1.38274E-06 0.00000E+00
 -1        18 1.14451E-05-2.76946E-07 0.00000E+00
 -1        19 1.20340E-05 6.95545E-07 0.00000E+00
 -1        20 1.22217E-05 7.39443E-06 0.00000E+00
 -1        21 1.22173E-05 1.76947E-05 0.00000E+00
 -1        22 3.28337E-06-3.56526E-07 0.00000E+00
 -1        23 4.38822E-06 4.75381E-07 0.00000E+00
 -1        24 4.61706E-06-1.62847E-06 0.00000E+00
 -1        25 1.00267E-05-1.91141E-07 0.00000E+00
 -1        26 1.06024E-05 9.22778E-07 0.00000E+00
 -1        27 1.00329E-05 7.13337E-06 0.00000E+00
 -1        28 9.35919E-06 1.74471E-05 0.00000E+00
 -1        29 0.00000E+00 0.00000E+00 0.00000E+00
 -1        30 1.57267E-06 6.26261E-07 0.00000E+00
 -1        31 2.03008E-06-1.30067E-06 0.00000E+00
 -1        32 0.00000E+00 0.00000E+00 0.00000E+00
 -1        33 8.64030E-06 1.45928E-06 0.00000E+00
 -1        34 8.18624E-06 7.10964E-06 0.00000E+00
 -1        35 7.25485E-06 1.73154E-05 0.00000E+00
 -1        36 2.63313E-05-6.79835E-20 6.61744E-24
 -1        37 2.58956E-05-1.93802E-19-6.61744E-24
 -1        38 2.54608E-05-2.35302E-19 1.32349E-23
 -1        39 2.50234E-05-2.23265E-19 0.00000E+00
 -1        40 2.45859E-05-1.80903E-19-1.32349E-23
 -1        41 2.41479E-05-1.27562E-19 6.61744E-24
 -1        42 2.37098E-05-7.49541E-20 1.32349E-23
 -1        43 2.32716E-05-1.50754E-20 0.00000E+00
 -1        44 2.28334E-05 7.91823E-20-1.32349E-23
 -1        45 2.23952E-05 1.44631E-19-6.61744E-24
 -1        46 2.19571E-05 2.09362E-19 0.00000E+00
 -1        47 2.15193E-05 2.40163E-19 6.61744E-24
 -1        48 2.10816E-05 2.05778E-19-1.32349E-23
 -1        49 2.06456E-05 1.27306E-19-6.61744E-24
 -1        50 2.02090E-05 6.01029E-20 0.00000E+00
 -1        51 2.63188E-05-4.54954E-08 0.00000E+00
 -1        52 2.55990E-05-8.88809E-08 0.00000E+00
 -1        53 2.46491E-05-1.31865E-07 0.00000E+00
 -1        54 2.35271E-05-1.75044E-07 0.00000E+00
 -1        55 2.22911E-05-2.19015E-07 7.23783E-25
 -1        56 2.62246E-05-2.08286E-07 1.32349E-23
 -1        57 2.56817E-05-4.36264E-07 0.00000E+00
 -1        58 2.51407E-05-6.66006E-07-1.32349E-23
 -1        59 2.45934E-05-8.88678E-07 6.61744E-24
 -1        60 2.40389E-05-1.09281E-06-1.32349E-23
 -1        61 2.34732E-05-1.26852E-06 0.00000E+00
 -1        62 2.28931E-05-1.40623E-06 0.00000E+00
 -1        63 2.22953E-05-1.49704E-06 0.00000E+00
 -1        64 2.16769E-05-1.53299E-06-1.32349E-23
 -1        65 2.10353E-05-1.50675E-06 6.61744E-24
 -1        66 2.03682E-05-1.41241E-06-1.32349E-23
 -1        67 1.96742E-05-1.24466E-06 6.61744E-24
 -1        68 1.89515E-05-1.00011E-06 0.00000E+00
 -1        69 1.82022E-05-6.75011E-07-6.61744E-24
 -1        70 1.74216E-05-2.70009E-07 0.00000E+00
 -1        71 1.95767E-05-1.21089E-20 0.00000E+00
 -1        72 1.93722E-05 2.14136E-22 0.00000E+00
 -1        73 1.91678E-05-8.79241E-21 0.00000E+00
 -1        74 1.89634E-05-3.28403E-20 0.00000E+00
 -1        75 1.87590E-05-4.28151E-20 0.00000E+00
 -1        76 1.85546E-05-9.00993E-20 3.30872E-24
 -1        77 1.83502E-05-1.31129E-19 0.00000E+00
 -1        78 1.81459E-05-1.52683E-19 0.00000E+00
 -1        79 1.79415E-05-1.59816E-19 0.00000E+00
 -1        80 1.77372E-05-1.30659E-19 3.30872E-24
 -1        81 1.75328E-05-7.44564E-20-6.61744E-24
 -1        82 1.73287E-05-2.05158E-20-3.30872E-24
 -1        83 1.71245E-05 2.79437E-20 0.00000E+00
 -1        84 1.69209E-05 3.58602E-20 0.00000E+00
 -1        85 1.67172E-05 3.29799E-20 6.61744E-24
 -1        86 1.96588E-05 2.96409E-08 0.00000E+00
 -1        87 1.92941E-05 6.92672E-08-4.13590E-25
 -1        88 1.87492E-05 1.08123E-07-2.06795E-25
 -1        89 1.80857E-05 1.47720E-07 2.06795E-25
 -1        90 1.73603E-05 1.87738E-07 0.00000E+00
 -1        91 1.96120E-05-3.02066E-07 0.00000E+00
 -1        92 1.95968E-05-1.02034E-06 0.00000E+00
 -1        93 1.96943E-05-2.03947E-06-6.61744E-24
 -1        94 1.98598E-05-3.24154E-06 3.30872E-24
 -1        95 2.00323E-05-4.46219E-06 0.00000E+00
 -1        96 2.01502E-05-5.53694E-06 0.00000E+00
 -1        97 2.01660E-05-6.33873E-06 6.61744E-24
 -1        98 2.00331E-05-6.74354E-06-3.30872E-24
 -1        99 1.97422E-05-6.72660E-06 0.00000E+00
 -1       100 1.92854E-05-6.26773E-06 3.30872E-24
 -1       101 1.86967E-05-5.45789E-06 0.00000E+00
 -1       102 1.80118E-05-4.39172E-06 0.00000E+00
 -1       103 1.72903E-05-3.22839E-06 0.00000E+00
 -1       104 1.65935E-05-2.12762E-06 0.00000E+00
 -1       105 1.59742E-05-1.23418E-06 6.61744E-24
 -1       106 1.64047E-05-4.01886E-21 0.00000E+00
 -1       107 1.62930E-05 1.87614E-20 0.00000E+00
 -1       108 1.61814E-05 2.77484E-20 0.00000E+00
 -1       109 1.60698E-05 2.56560E-20 1.65436E-24
 -1       110 1.59582E-05 5.82079E-20 0.00000E+00
 -1       111 1.58466E-05 8.13703E-20 0.00000E+00
 -1       112 1.57351E-05 6.96431E-20 0.00000E+00
 -1       113 1.56235E-05 7.82835E-20 1.65436E-24
 -1       114 1.55120E-05 1.00642E-19-3.30872E-24
 -1       115 1.54005E-05 1.19834E-19 0.00000E+00
 -1       116 1.52889E-05 1.17292E-19-3.30872E-24
 -1       117 1.51775E-05 1.01845E-19-1.65436E-24
 -1       118 1.50661E-05 9.42680E-20 0.00000E+00
 -1       119 1.49550E-05 1.12814E-19 0.00000E+00
 -1       120 1.48438E-05 6.82455E-20-3.30872E-24
 -1       121 1.65070E-05-1.14871E-07 3.30872E-24
 -1       122 1.64577E-05-2.29408E-07 0.00000E+00
 -1       123 1.63500E-05-3.43964E-07 0.00000E+00
 -1       124 1.61655E-05-4.58527E-07-1.65436E-24
 -1       125 1.58854E-05-5.73097E-07 3.30872E-24
 -1       126 1.64062E-05-6.01671E-08 3.30872E-24
 -1       127 1.63082E-05-1.52753E-07-1.65436E-24
 -1       128 1.62189E-05-2.68817E-07 3.30872E-24
 -1       129 1.61350E-05-3.99176E-07 0.00000E+00
 -1       130 1.60524E-05-5.32695E-07 3.30872E-24
 -1       131 1.59667E-05-6.58198E-07 0.00000E+00
 -1       132 1.58744E-05-7.65931E-07 0.00000E+00
 -1       133 1.57717E-05-8.46216E-07-1.65436E-24
 -1       134 1.56564E-05-8.92556E-07 3.30872E-24
 -1       135 1.55260E-05-8.98625E-07 0.00000E+00
 -1       136 1.53799E-05-8.62985E-07-3.30872E-24
 -1       137 1.52178E-05-7.84383E-07 0.00000E+00
 -1       138 1.50411E-05-6.66928E-07 0.00000E+00
 -1       139 1.48518E-05-5.14764E-07 1.65436E-24
 -1       140 1.46526E-05-3.36592E-07-3.30872E-24
 -1       141 1.46837E-05-7.50253E-22 0.00000E+00
 -1       142 1.46333E-05 1.03240E-21 8.27181E-25
 -1       143 1.45829E-05-5.91527E-21-1.65436E-24
 -1       144 1.45326E-05-1.53221E-20 0.00000E+00
 -1       145 1.44823E-05 5.41682E-21 0.00000E+00
 -1       146 1.44320E-05 4.07490E-20 8.27181E-25
 -1       147 1.43817E-05 5.95026E-20 0.00000E+00
 -1       148 1.43314E-05 8.92970E-20 8.27181E-25
 -1       149 1.42811E-05 7.49415E-20 0.00000E+00
 -1       150 1.42309E-05 2.07006E-20-8.27181E-25
 -1       151 1.41807E-05 1.59984E-21-1.65436E-24
 -1       152 1.41306E-05 3.65857E-21-8.27181E-25
 -1       153 1.40806E-05 2.44730E-20 0.00000E+00
 -1       154 1.40314E-05 3.12350E-20-4.13590E-25
 -1       155 1.39819E-05 2.72915E-20-1.03398E-25
 -1       156 1.47432E-05-2.43107E-08-1.65436E-24
 -1       157 1.47674E-05-4.70761E-08 0.00000E+00
 -1       158 1.47784E-05-6.99580E-08 8.27181E-25
 -1       159 1.47476E-05-9.28819E-08 4.13590E-25
 -1       160 1.46470E-05-1.15682E-07 0.00000E+00
 -1       161 1.46706E-05-2.80996E-08 0.00000E+00
 -1       162 1.46092E-05-6.32809E-08-8.27181E-25
 -1       163 1.45490E-05-1.01995E-07 0.00000E+00
 -1       164 1.44889E-05-1.40735E-07 0.00000E+00
 -1       165 1.44274E-05-1.75868E-07 0.00000E+00
 -1       166 1.43632E-05-2.03784E-07 0.00000E+00
 -1       167 1.42951E-05-2.21557E-07 1.65436E-24
 -1       168 1.42222E-05-2.26291E-07 8.27181E-25
 -1       169 1.41437E-05-2.15932E-07 1.65436E-24
 -1       170 1.40588E-05-1.88454E-07 0.00000E+00
 -1       171 1.39671E-05-1.43051E-07 0.00000E+00
 -1       172 1.38686E-05-7.89044E-08 0.00000E+00
 -1       173 1.37634E-05 3.40464E-09 0.00000E+00
 -1       174 1.36524E-05 1.03640E-07-4.13590E-25
 -1       175 1.35351E-05 2.19505E-07 0.00000E+00
 -1       191 1.39187E-05 5.84618E-08 0.00000E+00
 -1       192 1.38724E-05 1.17019E-07 0.00000E+00
 -1       193 1.37983E-05 1.75597E-07 0.00000E+00
 -1       194 1.36973E-05 2.34168E-07 0.00000E+00
 -1       195 1.35700E-05 2.92702E-07-3.30872E-24
 -1       251 2.07328E-05 7.73825E-07 6.61744E-24
 -1       252 2.04591E-05 1.83473E-06 0.00000E+00
 -1       253 2.01859E-05 2.79325E-06-6.61744E-24
 -1       254 1.99117E-05 3.52695E-06 0.00000E+00
 -1       255 1.96375E-05 3.96777E-06 0.00000E+00
 -1       256 1.93632E-05 4.05113E-06 0.00000E+00
 -1       257 1.90889E-05 3.79890E-06 6.61744E-24
 -1       258 1.88143E-05 3.23690E-06 0.00000E+00
 -1       259 1.85397E-05 2.46587E-06-6.61744E-24
 -1       260 1.82650E-05 1.58900E-06 3.30872E-24
 -1       261 1.79903E-05 7.35128E-07 0.00000E+00
 -1       262 1.77161E-05 3.27536E-08 0.00000E+00
 -1       263 1.74419E-05-4.26216E-07 6.61744E-24
 -1       264 1.71692E-05-5.52753E-07 0.00000E+00
 -1       265 1.68960E-05-3.38179E-07 0.00000E+00
 -1       266 1.96679E-05-3.15074E-07 0.00000E+00
 -1       267 1.77357E-05-3.62590E-07 0.00000E+00
 -1       268 1.54446E-05-4.10968E-07-1.65436E-24
 -1       269 1.30367E-05-4.58828E-07 0.00000E+00
 -1       270 1.07591E-05-5.06475E-07 0.00000E+00
 -1       271 2.02048E-05 4.58057E-07 0.00000E+00
 -1       272 1.94813E-05 9.44061E-07 0.00000E+00
 -1       273 1.88349E-05 1.22609E-06 0.00000E+00
 -1       274 1.82520E-05 1.33224E-06 0.00000E+00
 -1       275 1.77232E-05 1.29312E-06 1.32349E-23
 -1       276 1.72371E-05 1.13925E-06 0.00000E+00
 -1       277 1.67822E-05 9.01824E-07 1.32349E-23
 -1       278 1.63467E-05 6.12338E-07-6.61744E-24
 -1       279 1.59189E-05 3.02543E-07 0.00000E+00
 -1       280 1.54867E-05 4.29491E-09 0.00000E+00
 -1       281 1.50385E-05-2.50639E-07-1.32349E-23
 -1       282 1.45625E-05-4.30620E-07 0.00000E+00
 -1       283 1.40470E-05-5.04469E-07 0.00000E+00
 -1       284 1.34823E-05-4.40778E-07-6.61744E-24
 -1       285 1.28546E-05-2.10367E-07 6.61744E-24
 -1       286 1.65567E-05 8.50439E-07 0.00000E+00
 -1       287 1.64857E-05 1.27152E-06-1.65436E-24
 -1       288 1.64146E-05 1.49761E-06 0.00000E+00
 -1       289 1.63438E-05 1.54152E-06 0.00000E+00
 -1       290 1.62731E-05 1.42812E-06 0.00000E+00
 -1       291 1.62023E-05 1.18277E-06 0.00000E+00
 -1       292 1.61316E-05 8.39567E-07-1.65436E-24
 -1       293 1.60608E-05 4.32884E-07-8.27181E-25
 -1       294 1.59901E-05 1.31238E-09 0.00000E+00
 -1       295 1.59193E-05-4.16483E-07 0.00000E+00
 -1       296 1.58485E-05-7.82759E-07 1.65436E-24
 -1       297 1.57777E-05-1.05992E-06-8.27181E-25
 -1       298 1.57069E-05-1.21627E-06 0.00000E+00
 -1       299 1.56357E-05-1.22048E-06 0.00000E+00
 -1       300 1.55646E-05-1.05130E-06 3.30872E-24
 -1       301 1.58847E-05 2.18956E-07 0.00000E+00
 -1       302 1.51362E-05 2.20546E-07 0.00000E+00
 -1       303 1.43871E-05 2.22959E-07 0.00000E+00
 -1       304 1.36404E-05 2.25227E-07 0.00000E+00
 -1       305 1.28996E-05 2.26355E-07-1.65436E-24
 -1       306 1.60872E-05 7.02244E-07 6.61744E-24
 -1       307 1.56236E-05 9.44829E-07 0.00000E+00
 -1       308 1.52359E-05 9.85714E-07-1.32349E-23
 -1       309 1.49102E-05 8.57414E-07 6.61744E-24
 -1       310 1.46349E-05 5.93981E-07-1.32349E-23
 -1       311 1.43973E-05 2.29452E-07 0.00000E+00
 -1       312 1.41846E-05-2.01725E-07-1.32349E-23
 -1       313 1.39838E-05-6.64951E-07-6.61744E-24
 -1       314 1.37821E-05-1.12550E-06 1.32349E-23
 -1       315 1.35663E-05-1.54864E-06 0.00000E+00
 -1       316 1.33237E-05-1.89982E-06-1.32349E-23
 -1       317 1.30416E-05-2.14462E-06 3.30872E-24
 -1       318 1.27070E-05-2.24908E-06 0.00000E+00
 -1       319 1.23088E-05-2.17914E-06-3.30872E-24
 -1       320 1.18327E-05-1.90247E-06 0.00000E+00
 -1       321 1.54238E-05-2.79838E-07-3.30872E-24
 -1       322 1.53584E-05 2.33670E-08 0.00000E+00
 -1       323 1.52929E-05 2.27278E-07 1.65436E-24
 -1       324 1.52279E-05 3.37854E-07-8.27181E-25
 -1       325 1.51629E-05 3.66733E-07 0.00000E+00
 -1       326 1.50980E-05 3.25781E-07 0.00000E+00
 -1       327 1.50331E-05 2.31114E-07 0.00000E+00
 -1       328 1.49682E-05 9.90003E-08 8.27181E-25
 -1       329 1.49033E-05-5.20127E-08 0.00000E+00
 -1       330 1.48384E-05-2.03329E-07 0.00000E+00
 -1       331 1.47735E-05-3.36330E-07-1.65436E-24
 -1       332 1.47086E-05-4.32447E-07 0.00000E+00
 -1       333 1.46437E-05-4.75362E-07-1.65436E-24
 -1       334 1.45788E-05-4.48900E-07-8.27181E-25
 -1       335 1.45139E-05-3.41111E-07 0.00000E+00
 -1       336 1.49639E-05-8.04484E-07 3.30872E-24
 -1       337 1.43311E-05-9.20696E-07-1.65436E-24
 -1       338 1.36194E-05-1.03691E-06 0.00000E+00
 -1       339 1.28556E-05-1.15283E-06 0.00000E+00
 -1       340 1.20662E-05-1.26878E-06 0.00000E+00
 -1       341 1.50951E-05-2.70809E-07 0.00000E+00
 -1       342 1.46692E-05 2.13605E-07-3.30872E-24
 -1       343 1.42378E-05 7.13618E-07-6.61744E-24
 -1       344 1.38199E-05 1.17561E-06 0.00000E+00
 -1       345 1.34330E-05 1.55491E-06 0.00000E+00
 -1       346 1.30936E-05 1.80733E-06-3.30872E-24
 -1       347 1.28079E-05 1.91637E-06-6.61744E-24
 -1       348 1.25818E-05 1.86686E-06 3.30872E-24
 -1       349 1.24077E-05 1.67860E-06-6.61744E-24
 -1       350 1.22777E-05 1.37268E-06 3.30872E-24
 -1       351 1.21746E-05 9.95359E-07 0.00000E+00
 -1       352 1.20809E-05 5.93644E-07 0.00000E+00
 -1       353 1.19768E-05 2.19924E-07-6.61744E-24
 -1       354 1.18442E-05-7.29159E-08 0.00000E+00
 -1       355 1.16679E-05-2.50985E-07-3.30872E-24
 -1       356 1.43837E-05 7.92253E-08 0.00000E+00
 -1       357 1.43187E-05 2.42601E-07-8.27181E-25
 -1       358 1.42537E-05 3.53344E-07 0.00000E+00
 -1       359 1.41887E-05 4.15083E-07 0.00000E+00
 -1       360 1.41237E-05 4.34435E-07-1.65436E-24
 -1       361 1.40587E-05 4.18135E-07-8.27181E-25
 -1       362 1.39938E-05 3.75092E-07 1.65436E-24
 -1       363 1.39288E-05 3.14288E-07 8.27181E-25
 -1       364 1.38639E-05 2.45787E-07 1.65436E-24
 -1       365 1.37989E-05 1.79678E-07 8.27181E-25
 -1       366 1.37340E-05 1.25901E-07 0.00000E+00
 -1       367 1.36693E-05 9.43625E-08 8.27181E-25
 -1       368 1.36047E-05 9.36141E-08-1.65436E-24
 -1       369 1.35409E-05 1.32122E-07-4.13590E-25
 -1       370 1.34768E-05 2.15967E-07-2.06795E-25
 -1       371 1.40917E-05-1.65016E-07 0.00000E+00
 -1       372 1.35213E-05-1.87954E-07-4.13590E-25
 -1       373 1.28547E-05-2.11053E-07 0.00000E+00
 -1       374 1.22088E-05-2.33527E-07 0.00000E+00
 -1       375 1.17001E-05-2.55999E-07-2.06795E-25
 -1       376 1.42506E-05 4.25281E-08-3.30872E-24
 -1       377 1.40670E-05 1.80206E-07-1.65436E-24
 -1       378 1.39000E-05 2.74270E-07 0.00000E+00
 -1       379 1.37486E-05 3.25482E-07 1.65436E-24
 -1       380 1.36109E-05 3.40135E-07 0.00000E+00
 -1       381 1.34845E-05 3.24545E-07-1.65436E-24
 -1       382 1.33656E-05 2.88825E-07-3.30872E-24
 -1       383 1.32505E-05 2.43160E-07 0.00000E+00
 -1       384 1.31347E-05 1.99089E-07-3.30872E-24
 -1       385 1.30141E-05 1.68154E-07 0.00000E+00
 -1       386 1.28850E-05 1.59904E-07 0.00000E+00
 -1       387 1.27441E-05 1.83847E-07 1.65436E-24
 -1       388 1.25889E-05 2.45662E-07-3.30872E-24
 -1       389 1.24186E-05 3.51324E-07 0.00000E+00
 -1       390 1.22315E-05 5.00478E-07 1.65436E-24
 -1       406 1.32320E-05 4.08819E-07-1.65436E-24
 -1       407 1.30249E-05 4.66608E-07 0.00000E+00
 -1       408 1.27987E-05 5.24372E-07 0.00000E+00
 -1       409 1.25563E-05 5.81995E-07 8.27181E-25
 -1       410 1.23005E-05 6.39313E-07 1.65436E-24
 -1       466 9.05661E-06 8.62991E-07-3.30872E-24
 -1       467 9.26411E-06 1.70540E-06-3.30872E-24
 -1       468 9.47131E-06 2.11776E-06 0.00000E+00
 -1       469 9.68026E-06 2.23840E-06 0.00000E+00
 -1       470 9.88926E-06 2.14319E-06 0.00000E+00
 -1       471 1.00986E-05 1.90608E-06 0.00000E+00
 -1       472 1.03079E-05 1.57057E-06-6.61744E-24
 -1       473 1.05172E-05 1.17929E-06 0.00000E+00
 -1       474 1.07265E-05 7.62864E-07 0.00000E+00
 -1       475 1.09358E-05 3.51730E-07 3.30872E-24
 -1       476 1.11449E-05-2.25576E-08-6.61744E-24
 -1       477 1.13536E-05-3.28117E-07 3.30872E-24
 -1       478 1.15622E-05-5.18326E-07-6.61744E-24
 -1       479 1.17682E-05-5.45510E-07-1.65436E-24
 -1       480 1.19751E-05-3.27175E-07-8.27181E-25
 -1       481 7.31258E-06-5.21239E-07-4.13590E-25
 -1       482 6.08344E-06-4.88665E-07 0.00000E+00
 -1       483 5.11695E-06-4.55920E-07-8.27181E-25
 -1       484 4.35938E-06-4.22773E-07 0.00000E+00
 -1       485 3.76377E-06-3.89477E-07 0.00000E+00
 -1       486 7.93307E-06 1.25960E-06 0.00000E+00
 -1       487 6.86192E-06 3.43047E-06-3.30872E-24
 -1       488 5.75188E-06 5.70610E-06 0.00000E+00
 -1       489 4.69873E-06 7.82625E-06 0.00000E+00
 -1       490 3.78847E-06 9.56747E-06-6.61744E-24
 -1       491 3.10367E-06 1.07092E-05-3.30872E-24
 -1       492 2.67569E-06 1.11678E-05-6.61744E-24
 -1       493 2.53300E-06 1.08658E-05-3.30872E-24
 -1       494 2.63915E-06 9.89925E-06 0.00000E+00
 -1       495 2.95544E-06 8.37047E-06 3.30872E-24
 -1       496 3.39554E-06 6.51013E-06 6.61744E-24
 -1       497 3.87231E-06 4.55219E-06 0.00000E+00
 -1       498 4.28992E-06 2.75287E-06 0.00000E+00
 -1       499 4.55456E-06 1.36744E-06-3.30872E-24
 -1       500 4.60412E-06 5.55675E-07-3.30872E-24
 -1       501 1.21086E-05 8.06244E-07 0.00000E+00
 -1       502 1.20528E-05 1.12818E-06-8.27181E-25
 -1       503 1.19969E-05 1.21366E-06 0.00000E+00
 -1       504 1.19416E-05 1.08964E-06-8.27181E-25
 -1       505 1.18862E-05 7.93959E-07 1.65436E-24
 -1       506 1.18310E-05 3.64874E-07 0.00000E+00
 -1       507 1.17757E-05-1.52444E-07 0.00000E+00
 -1       508 1.17204E-05-7.12628E-07 0.00000E+00
 -1       509 1.16652E-05-1.26807E-06 0.00000E+00
 -1       510 1.16099E-05-1.77119E-06 0.00000E+00
 -1       511 1.15547E-05-2.17710E-06 0.00000E+00
 -1       512 1.14996E-05-2.44116E-06-8.27181E-25
 -1       513 1.14444E-05-2.52608E-06-1.65436E-24
 -1       514 1.13892E-05-2.39500E-06-8.27181E-25
 -1       515 1.13339E-05-2.02225E-06 1.65436E-24
 -1       516 1.11928E-05 2.58532E-07 0.00000E+00
 -1       517 9.71645E-06 3.02274E-07 0.00000E+00
 -1       518 8.01801E-06 3.45197E-07 0.00000E+00
 -1       519 6.37616E-06 3.88959E-07 0.00000E+00
 -1       520 5.07223E-06 4.33458E-07-2.58494E-26
 -1       521 1.15088E-05 6.44194E-07 1.32349E-23
 -1       522 1.09218E-05 8.34135E-07-6.61744E-24
 -1       523 1.04088E-05 8.28195E-07 0.00000E+00
 -1       524 9.95497E-06 6.58350E-07 0.00000E+00
 -1       525 9.54955E-06 3.58758E-07 0.00000E+00
 -1       526 9.17960E-06-3.65056E-08-6.61744E-24
 -1       527 8.83245E-06-4.92815E-07 0.00000E+00
 -1       528 8.49507E-06-9.75366E-07-6.61744E-24
 -1       529 8.15442E-06-1.44921E-06 0.00000E+00
 -1       530 7.79750E-06-1.87945E-06 6.61744E-24
 -1       531 7.41130E-06-2.23139E-06 1.32349E-23
 -1       532 6.98321E-06-2.47061E-06 0.00000E+00
 -1       533 6.50041E-06-2.56329E-06 0.00000E+00
 -1       534 5.95211E-06-2.47566E-06-6.61744E-24
 -1       535 5.32388E-06-2.17611E-06 6.61744E-24
 -1       536 1.12845E-05-7.00844E-07 0.00000E+00
 -1       537 1.12946E-05-1.83055E-07 0.00000E+00
 -1       538 1.13046E-05 1.88218E-07 0.00000E+00
 -1       539 1.13152E-05 4.30695E-07 0.00000E+00
 -1       540 1.13259E-05 5.62049E-07 2.06795E-25
 -1       541 1.13367E-05 5.99953E-07 1.03398E-25
 -1       542 1.13475E-05 5.62071E-07-4.13590E-25
 -1       543 1.13583E-05 4.66059E-07-1.03398E-25
 -1       544 1.13692E-05 3.29570E-07 4.13590E-25
 -1       545 1.13800E-05 1.70250E-07 0.00000E+00
 -1       546 1.13909E-05 5.74484E-09 0.00000E+00
 -1       547 1.14017E-05-1.46298E-07-2.06795E-25
 -1       548 1.14126E-05-2.68236E-07-4.13590E-25
 -1       549 1.14234E-05-3.42421E-07 0.00000E+00
 -1       550 1.14343E-05-3.51189E-07 4.13590E-25
 -1       551 1.02828E-05-1.42328E-06-5.16988E-25
 -1       552 9.17531E-06-1.46270E-06 8.27181E-25
 -1       553 8.00478E-06-1.50208E-06 0.00000E+00
 -1       554 6.82151E-06-1.54191E-06 0.00000E+00
 -1       555 5.67577E-06-1.58274E-06-3.30872E-24
 -1       556 1.09865E-05-7.44814E-07 0.00000E+00
 -1       557 1.07512E-05-2.53148E-07 0.00000E+00
 -1       558 1.05658E-05 1.06299E-07 0.00000E+00
 -1       559 1.04244E-05 3.48937E-07 3.30872E-24
 -1       560 1.03211E-05 4.90200E-07 0.00000E+00
 -1       561 1.02500E-05 5.45650E-07 0.00000E+00
 -1       562 1.02052E-05 5.30858E-07 0.00000E+00
 -1       563 1.01810E-05 4.61407E-07 0.00000E+00
 -1       564 1.01714E-05 3.52888E-07 0.00000E+00
 -1       565 1.01707E-05 2.20894E-07 8.27181E-25
 -1       566 1.01729E-05 8.10184E-08-8.27181E-25
 -1       567 1.01722E-05-5.11411E-08-8.27181E-25
 -1       568 1.01628E-05-1.59991E-07 0.00000E+00
 -1       569 1.01391E-05-2.29955E-07 1.80946E-25
 -1       570 1.00952E-05-2.45466E-07 8.27181E-25
 -1       571 1.14804E-05-1.90296E-07 4.65289E-25
 -1       572 1.15169E-05-1.30384E-07 2.06795E-25
 -1       573 1.15536E-05-9.24468E-08 0.00000E+00
 -1       574 1.15905E-05-7.14789E-08-2.06795E-25
 -1       575 1.16275E-05-6.24529E-08 8.27181E-25
 -1       576 1.16645E-05-6.03099E-08 4.13590E-25
 -1       577 1.17015E-05-5.99881E-08 0.00000E+00
 -1       578 1.17385E-05-5.64219E-08 0.00000E+00
 -1       579 1.17755E-05-4.45453E-08 0.00000E+00
 -1       580 1.18125E-05-1.92921E-08-8.27181E-25
 -1       581 1.18495E-05 2.44026E-08 0.00000E+00
 -1       582 1.18865E-05 9.15996E-08 8.27181E-25
 -1       583 1.19235E-05 1.87354E-07 0.00000E+00
 -1       584 1.19605E-05 3.16673E-07 0.00000E+00
 -1       585 1.19974E-05 4.84536E-07-1.65436E-24
 -1       586 1.12404E-05-2.62368E-07 0.00000E+00
 -1       587 1.10060E-05-2.47657E-07 0.00000E+00
 -1       588 1.07546E-05-2.32957E-07 0.00000E+00
 -1       589 1.04991E-05-2.18402E-07 6.46235E-26
 -1       590 1.02522E-05-2.04177E-07 0.00000E+00
 -1       591 1.13847E-05-1.76424E-07-4.13590E-25
 -1       592 1.13292E-05-9.35506E-08 0.00000E+00
 -1       593 1.12788E-05-2.50448E-08 0.00000E+00
 -1       594 1.12325E-05 3.21070E-08-4.13590E-25
 -1       595 1.11893E-05 8.09173E-08 0.00000E+00
 -1       596 1.11480E-05 1.24379E-07 0.00000E+00
 -1       597 1.11076E-05 1.65483E-07 0.00000E+00
 -1       598 1.10670E-05 2.07216E-07 2.06795E-25
 -1       599 1.10250E-05 2.52565E-07-4.13590E-25
 -1       600 1.09806E-05 3.04518E-07-2.06795E-25
 -1       601 1.09325E-05 3.66062E-07 4.13590E-25
 -1       602 1.08798E-05 4.40187E-07 0.00000E+00
 -1       603 1.08213E-05 5.29885E-07-1.03398E-25
 -1       604 1.07560E-05 6.38165E-07-1.55096E-25
 -1       605 1.06830E-05 7.68043E-07 2.06795E-25
 -1       606 1.20470E-05 9.75702E-07 0.00000E+00
 -1       607 1.20592E-05 1.28261E-06 0.00000E+00
 -1       608 1.20710E-05 1.61471E-06 0.00000E+00
 -1       609 1.20827E-05 1.97020E-06 0.00000E+00
 -1       610 1.20944E-05 2.34729E-06 0.00000E+00
 -1       611 1.21060E-05 2.74413E-06 4.13590E-25
 -1       612 1.21176E-05 3.15889E-06-8.27181E-25
 -1       613 1.21293E-05 3.58974E-06 8.27181E-25
 -1       614 1.21409E-05 4.03482E-06 0.00000E+00
 -1       615 1.21525E-05 4.49230E-06 0.00000E+00
 -1       616 1.21640E-05 4.96034E-06-8.27181E-25
 -1       617 1.21756E-05 5.43709E-06 0.00000E+00
 -1       618 1.21872E-05 5.92072E-06 4.13590E-25
 -1       619 1.21988E-05 6.40938E-06 0.00000E+00
 -1       620 1.22103E-05 6.90123E-06 4.13590E-25
 -1       621 1.17693E-05 7.33517E-07-8.27181E-25
 -1       622 1.15109E-05 7.71719E-07 0.00000E+00
 -1       623 1.12619E-05 8.09934E-07-8.27181E-25
 -1       624 1.10255E-05 8.48054E-07 4.13590E-25
 -1       625 1.08047E-05 8.85952E-07 4.13590E-25
 -1       626 1.19506E-05 9.89024E-07 1.65436E-24
 -1       627 1.18562E-05 1.31042E-06 0.00000E+00
 -1       628 1.17522E-05 1.65717E-06 0.00000E+00
 -1       629 1.16397E-05 2.02638E-06 0.00000E+00
 -1       630 1.15198E-05 2.41513E-06 1.65436E-24
 -1       631 1.13937E-05 2.82047E-06 0.00000E+00
 -1       632 1.12624E-05 3.23943E-06 0.00000E+00
 -1       633 1.11272E-05 3.66905E-06 0.00000E+00
 -1       634 1.09891E-05 4.10636E-06 8.27181E-25
 -1       635 1.08492E-05 4.54839E-06-4.13590E-25
 -1       636 1.07086E-05 4.99218E-06-8.27181E-25
 -1       637 1.05685E-05 5.43475E-06 2.06795E-25
 -1       638 1.04299E-05 5.87314E-06 0.00000E+00
 -1       639 1.02939E-05 6.30437E-06-2.06795E-25
 -1       640 1.01614E-05 6.72547E-06 3.10193E-25
 -1       641 1.22221E-05 7.90618E-06 0.00000E+00
 -1       642 1.22221E-05 8.47163E-06 0.00000E+00
 -1       643 1.22220E-05 9.08306E-06 0.00000E+00
 -1       644 1.22219E-05 9.73273E-06 1.29247E-26
 -1       645 1.22217E-05 1.04129E-05-1.29247E-26
 -1       646 1.22216E-05 1.11158E-05 0.00000E+00
 -1       647 1.22214E-05 1.18338E-05 1.61559E-27
 -1       648 1.22211E-05 1.25590E-05 8.07794E-28
 -1       649 1.22209E-05 1.32838E-05 6.46235E-27
 -1       650 1.22207E-05 1.40004E-05 0.00000E+00
 -1       651 1.22205E-05 1.47010E-05-2.58494E-26
 -1       652 1.22202E-05 1.53780E-05 2.58494E-26
 -1       653 1.22200E-05 1.60236E-05 0.00000E+00
 -1       654 1.22195E-05 1.66301E-05-1.03398E-25
 -1       655 1.22191E-05 1.71897E-05-4.13590E-25
 -1       656 1.17782E-05 7.35240E-06 0.00000E+00
 -1       657 1.13944E-05 7.30818E-06 0.00000E+00
 -1       658 1.10490E-05 7.26406E-06-8.27181E-25
 -1       659 1.07211E-05 7.21990E-06-4.13590E-25
 -1       660 1.03895E-05 7.17566E-06-8.27181E-25
 -1       661 1.20792E-05 7.92109E-06 0.00000E+00
 -1       662 1.19228E-05 8.49013E-06 0.00000E+00
 -1       663 1.17528E-05 9.09480E-06 1.65436E-24
 -1       664 1.15721E-05 9.72915E-06-8.27181E-25
 -1       665 1.13825E-05 1.03870E-05 0.00000E+00
 -1       666 1.11864E-05 1.10624E-05 8.27181E-25
 -1       667 1.09861E-05 1.17492E-05 0.00000E+00
 -1       668 1.07837E-05 1.24414E-05 0.00000E+00
 -1       669 1.05815E-05 1.31330E-05-1.65436E-24
 -1       670 1.03818E-05 1.38179E-05 8.27181E-25
 -1       671 1.01869E-05 1.44901E-05-1.65436E-24
 -1       672 9.99897E-06 1.51435E-05-8.27181E-25
 -1       673 9.82030E-06 1.57721E-05-1.65436E-24
 -1       674 9.65283E-06 1.63697E-05 4.13590E-25
 -1       675 9.49929E-06 1.69304E-05 4.13590E-25
 -1       676 1.17399E-05 1.76533E-05 0.00000E+00
 -1       677 1.12627E-05 1.76117E-05 0.00000E+00
 -1       678 1.07860E-05 1.75702E-05-8.27181E-25
 -1       679 1.03097E-05 1.75288E-05 4.13590E-25
 -1       680 9.83410E-06 1.74874E-05 0.00000E+00
 -1       681 3.35078E-06 3.38435E-09-1.65436E-24
 -1       682 3.42017E-06 2.36671E-07 0.00000E+00
 -1       683 3.48945E-06 3.66816E-07-1.65436E-24
 -1       684 3.55911E-06 4.16983E-07 0.00000E+00
 -1       685 3.62877E-06 4.04885E-07 0.00000E+00
 -1       686 3.69851E-06 3.48048E-07 0.00000E+00
 -1       687 3.76826E-06 2.60946E-07 1.65436E-24
 -1       688 3.83801E-06 1.57960E-07-8.27181E-25
 -1       689 3.90775E-06 5.23852E-08 0.00000E+00
 -1       690 3.97747E-06-4.24873E-08 0.00000E+00
 -1       691 4.04716E-06-1.12637E-07-1.65436E-24
 -1       692 4.11669E-06-1.43973E-07-8.27181E-25
 -1       693 4.18620E-06-1.19750E-07 0.00000E+00
 -1       694 4.25485E-06-2.30608E-08 8.27181E-25
 -1       695 4.32378E-06 1.67940E-07-4.13590E-25
 -1       696 2.81154E-06-2.98664E-07 0.00000E+00
 -1       697 2.24656E-06-2.39277E-07 8.27181E-25
 -1       698 1.63570E-06-1.80006E-07 0.00000E+00
 -1       699 1.02614E-06-1.20292E-07 0.00000E+00
 -1       700 4.65114E-07-6.05887E-08 0.00000E+00
 -1       701 3.06720E-06 7.43173E-09 0.00000E+00
 -1       702 2.87251E-06 3.02260E-07 8.27181E-25
 -1       703 2.70364E-06 5.29107E-07 0.00000E+00
 -1       704 2.55968E-06 6.87400E-07-8.27181E-25
 -1       705 2.43938E-06 7.82617E-07-1.65436E-24
 -1       706 2.34058E-06 8.20130E-07-8.27181E-25
 -1       707 2.25962E-06 8.10016E-07 0.00000E+00
 -1       708 2.19268E-06 7.62456E-07 8.27181E-25
 -1       709 2.13486E-06 6.90583E-07 0.00000E+00
 -1       710 2.08122E-06 6.07611E-07-8.27181E-25
 -1       711 2.02648E-06 5.27626E-07 0.00000E+00
 -1       712 1.96547E-06 4.64749E-07 0.00000E+00
 -1       713 1.89327E-06 4.31691E-07 0.00000E+00
 -1       714 1.80585E-06 4.41370E-07 0.00000E+00
 -1       715 1.69876E-06 5.02687E-07-8.27181E-25
 -1       716 4.40089E-06 7.32422E-07-4.13590E-25
 -1       717 4.41585E-06 7.72919E-07 0.00000E+00
 -1       718 4.43065E-06 6.33933E-07-2.06795E-25
 -1       719 4.44585E-06 3.52397E-07 2.06795E-25
 -1       720 4.46103E-06-3.68534E-08 0.00000E+00
 -1       721 4.47627E-06-4.99047E-07 0.00000E+00
 -1       722 4.49149E-06-1.00049E-06 4.13590E-25
 -1       723 4.50671E-06-1.50752E-06 2.06795E-25
 -1       724 4.52195E-06-1.98656E-06 4.13590E-25
 -1       725 4.53715E-06-2.40399E-06 2.06795E-25
 -1       726 4.55236E-06-2.72531E-06 0.00000E+00
 -1       727 4.56735E-06-2.91595E-06-1.03398E-25
 -1       728 4.58231E-06-2.93940E-06 0.00000E+00
 -1       729 4.59597E-06-2.75905E-06 0.00000E+00
 -1       730 4.60998E-06-2.33532E-06 1.65436E-24
 -1       731 3.96285E-06 4.98220E-07 0.00000E+00
 -1       732 3.42327E-06 5.23681E-07 1.03398E-25
 -1       733 2.84182E-06 5.48949E-07 4.13590E-25
 -1       734 2.29083E-06 5.74695E-07 0.00000E+00
 -1       735 1.84338E-06 6.00527E-07 0.00000E+00
 -1       736 4.09218E-06 7.75789E-07-3.30872E-24
 -1       737 3.79574E-06 1.06160E-06-1.65436E-24
 -1       738 3.51558E-06 1.30511E-06 3.30872E-24
 -1       739 3.26146E-06 1.47639E-06 3.30872E-24
 -1       740 3.04073E-06 1.55866E-06 6.61744E-24
 -1       741 2.85939E-06 1.53536E-06 0.00000E+00
 -1       742 2.71696E-06 1.40829E-06-6.61744E-24
 -1       743 2.61247E-06 1.17990E-06 0.00000E+00
 -1       744 2.53845E-06 8.70228E-07 6.61744E-24
 -1       745 2.48718E-06 4.99905E-07 0.00000E+00
 -1       746 2.44703E-06 9.99283E-08 6.61744E-24
 -1       747 2.40645E-06-2.98412E-07 0.00000E+00
 -1       748 2.35368E-06-6.64210E-07 0.00000E+00
 -1       749 2.27806E-06-9.66440E-07 0.00000E+00
 -1       750 2.17095E-06-1.18564E-06 0.00000E+00
 -1       751 4.93504E-06-9.16766E-07 0.00000E+00
 -1       752 5.27314E-06-4.74735E-07 0.00000E+00
 -1       753 5.61004E-06-2.23606E-07 0.00000E+00
 -1       754 5.95075E-06-8.74782E-08 0.00000E+00
 -1       755 6.29159E-06-3.24151E-08 0.00000E+00
 -1       756 6.63318E-06-2.56843E-08-6.61744E-24
 -1       757 6.97486E-06-5.22505E-08-1.32349E-23
 -1       758 7.31667E-06-9.75710E-08 0.00000E+00
 -1       759 7.65849E-06-1.53974E-07-1.32349E-23
 -1       760 8.00024E-06-2.13952E-07 0.00000E+00
 -1       761 8.34192E-06-2.71309E-07 0.00000E+00
 -1       762 8.68307E-06-3.19806E-07 0.00000E+00
 -1       763 9.02414E-06-3.49967E-07 6.61744E-24
 -1       764 9.36248E-06-3.52037E-07 0.00000E+00
 -1       765 9.70174E-06-3.06007E-07-6.61744E-24
 -1       766 3.83710E-06-1.58038E-06 0.00000E+00
 -1       767 3.19605E-06-1.52388E-06 1.61559E-27
 -1       768 2.69262E-06-1.46786E-06 0.00000E+00
 -1       769 2.32587E-06-1.41103E-06 0.00000E+00
 -1       770 2.10263E-06-1.35380E-06 0.00000E+00
 -1       771 4.11841E-06-9.57133E-07 6.61744E-24
 -1       772 3.66496E-06-4.15122E-07 0.00000E+00
 -1       773 3.25521E-06 8.84185E-09 0.00000E+00
 -1       774 2.88513E-06 3.26177E-07 0.00000E+00
 -1       775 2.55068E-06 5.48315E-07 1.32349E-23
 -1       776 2.24760E-06 6.86731E-07-3.30872E-24
 -1       777 1.97160E-06 7.52912E-07 6.61744E-24
 -1       778 1.71837E-06 7.58361E-07 0.00000E+00
 -1       779 1.48361E-06 7.14590E-07 6.61744E-24
 -1       780 1.26300E-06 6.33123E-07-3.30872E-24
 -1       781 1.05222E-06 5.25492E-07-6.61744E-24
 -1       782 8.46986E-07 4.03242E-07-3.30872E-24
 -1       783 6.43008E-07 2.77923E-07 0.00000E+00
 -1       784 4.36191E-07 1.61128E-07 3.30872E-24
 -1       785 2.22469E-07 6.44514E-08 0.00000E+00
 -1       786 1.00605E-05-5.81969E-08 4.13590E-25
 -1       787 1.00964E-05 4.53107E-08 0.00000E+00
 -1       788 1.01322E-05 1.23878E-07 8.27181E-25
 -1       789 1.01684E-05 1.82016E-07 0.00000E+00
 -1       790 1.02046E-05 2.24226E-07-8.27181E-25
 -1       791 1.02409E-05 2.55006E-07 0.00000E+00
 -1       792 1.02772E-05 2.78849E-07 0.00000E+00
 -1       793 1.03135E-05 3.00247E-07-4.13590E-25
 -1       794 1.03498E-05 3.23690E-07-8.27181E-25
 -1       795 1.03862E-05 3.53671E-07-4.13590E-25
 -1       796 1.04225E-05 3.94683E-07-8.27181E-25
 -1       797 1.04587E-05 4.51223E-07-4.13590E-25
 -1       798 1.04950E-05 5.27793E-07 0.00000E+00
 -1       799 1.05311E-05 6.28898E-07-4.13590E-25
 -1       800 1.05672E-05 7.59060E-07 0.00000E+00
 -1       801 9.13368E-06-1.57935E-07 0.00000E+00
 -1       802 7.27900E-06-1.24015E-07 0.00000E+00
 -1       803 4.95006E-06-9.11461E-08 2.06795E-25
 -1       804 2.63517E-06-5.91540E-08-4.13590E-25
 -1       805 8.22671E-07-2.61390E-08 0.00000E+00
 -1       806 9.93585E-06-7.22799E-08 1.65436E-24
 -1       807 9.84841E-06 3.37751E-08 0.00000E+00
 -1       808 9.76447E-06 1.29484E-07 0.00000E+00
 -1       809 9.68337E-06 2.17128E-07-8.27181E-25
 -1       810 9.60440E-06 2.98974E-07-1.65436E-24
 -1       811 9.52673E-06 3.77272E-07 0.00000E+00
 -1       812 9.44954E-06 4.54270E-07-1.65436E-24
 -1       813 9.37199E-06 5.32212E-07 4.13590E-25
 -1       814 9.29324E-06 6.13344E-07 8.27181E-25
 -1       815 9.21246E-06 6.99909E-07 4.13590E-25
 -1       816 9.12880E-06 7.94150E-07-8.27181E-25
 -1       817 9.04145E-06 8.98315E-07 0.00000E+00
 -1       818 8.94958E-06 1.01465E-06 0.00000E+00
 -1       819 8.85244E-06 1.14540E-06 0.00000E+00
 -1       820 8.74934E-06 1.29283E-06-4.13590E-25
 -1       821 1.05689E-05 1.13173E-06 4.13590E-25
 -1       822 1.05334E-05 1.38757E-06 0.00000E+00
 -1       823 1.04979E-05 1.68542E-06 8.27181E-25
 -1       824 1.04621E-05 2.02037E-06-4.13590E-25
 -1       825 1.04261E-05 2.38749E-06-8.27181E-25
 -1       826 1.03902E-05 2.78185E-06 0.00000E+00
 -1       827 1.03542E-05 3.19849E-06 0.00000E+00
 -1       828 1.03182E-05 3.63248E-06 4.13590E-25
 -1       829 1.02822E-05 4.07885E-06 8.27181E-25
 -1       830 1.02461E-05 4.53263E-06 0.00000E+00
 -1       831 1.02101E-05 4.98888E-06-8.27181E-25
 -1       832 1.01742E-05 5.44263E-06 0.00000E+00
 -1       833 1.01383E-05 5.88891E-06 0.00000E+00
 -1       834 1.01026E-05 6.32276E-06 4.13590E-25
 -1       835 1.00669E-05 6.73922E-06 0.00000E+00
 -1       836 1.03531E-05 1.01052E-06 0.00000E+00
 -1       837 1.00166E-05 1.10138E-06-8.27181E-25
 -1       838 9.63483E-06 1.19206E-06 0.00000E+00
 -1       839 9.25009E-06 1.28253E-06 0.00000E+00
 -1       840 8.90454E-06 1.37316E-06 8.27181E-25
 -1       841 1.05198E-05 1.12983E-06-1.03398E-25
 -1       842 1.04172E-05 1.38788E-06 1.29247E-26
 -1       843 1.02975E-05 1.69162E-06 0.00000E+00
 -1       844 1.01626E-05 2.03538E-06-5.16988E-26
 -1       845 1.00149E-05 2.41337E-06 0.00000E+00
 -1       846 9.85652E-06 2.81972E-06 0.00000E+00
 -1       847 9.68972E-06 3.24845E-06 2.06795E-25
 -1       848 9.51677E-06 3.69352E-06 0.00000E+00
 -1       849 9.33997E-06 4.14885E-06 2.06795E-25
 -1       850 9.16161E-06 4.60831E-06 0.00000E+00
 -1       851 8.98400E-06 5.06578E-06 2.06795E-25
 -1       852 8.80942E-06 5.51511E-06 1.03398E-25
 -1       853 8.64017E-06 5.95023E-06 0.00000E+00
 -1       854 8.47844E-06 6.36502E-06 1.03398E-25
 -1       855 8.32660E-06 6.75356E-06-4.13590E-25
 -1       856 9.99293E-06 7.55724E-06 0.00000E+00
 -1       857 9.95095E-06 8.05750E-06 4.13590E-25
 -1       858 9.90897E-06 8.62418E-06 0.00000E+00
 -1       859 9.86666E-06 9.24723E-06-4.13590E-25
 -1       860 9.82428E-06 9.91659E-06 1.65436E-24
 -1       861 9.78182E-06 1.06222E-05 0.00000E+00
 -1       862 9.73933E-06 1.13539E-05-1.65436E-24
 -1       863 9.69682E-06 1.21016E-05 8.27181E-25
 -1       864 9.65430E-06 1.28552E-05 0.00000E+00
 -1       865 9.61179E-06 1.36046E-05 0.00000E+00
 -1       866 9.56930E-06 1.43397E-05-1.65436E-24
 -1       867 9.52686E-06 1.50504E-05 8.27181E-25
 -1       868 9.48447E-06 1.57265E-05 0.00000E+00
 -1       869 9.44229E-06 1.63581E-05 0.00000E+00
 -1       870 9.40012E-06 1.69349E-05-8.27181E-25
 -1       871 9.69429E-06 7.13000E-06 0.00000E+00
 -1       872 9.37985E-06 7.12629E-06 0.00000E+00
 -1       873 9.08080E-06 7.12249E-06 0.00000E+00
 -1       874 8.78816E-06 7.11857E-06 0.00000E+00
 -1       875 8.49293E-06 7.11447E-06-4.13590E-25
 -1       876 9.93145E-06 7.57108E-06 0.00000E+00
 -1       877 9.80779E-06 8.07482E-06-8.27181E-25
 -1       878 9.66272E-06 8.63534E-06 1.65436E-24
 -1       879 9.49980E-06 9.24446E-06 8.27181E-25
 -1       880 9.32183E-06 9.89372E-06 0.00000E+00
 -1       881 9.13197E-06 1.05748E-05 8.27181E-25
 -1       882 8.93326E-06 1.12795E-05-1.65436E-24
 -1       883 8.72884E-06 1.19994E-05 8.27181E-25
 -1       884 8.52176E-06 1.27264E-05 0.00000E+00
 -1       885 8.31515E-06 1.34521E-05-8.27181E-25
 -1       886 8.11210E-06 1.41683E-05 0.00000E+00
 -1       887 7.91565E-06 1.48667E-05-8.27181E-25
 -1       888 7.72894E-06 1.55390E-05 1.65436E-24
 -1       889 7.55472E-06 1.61769E-05 8.27181E-25
 -1       890 7.39659E-06 1.67721E-05 0.00000E+00
 -1       891 8.94700E-06 1.74253E-05 8.27181E-25
 -1       892 8.61481E-06 1.74032E-05 0.00000E+00
 -1       893 8.32109E-06 1.73811E-05 4.13590E-25
 -1       894 8.02425E-06 1.73590E-05 0.00000E+00
 -1       895 7.68267E-06 1.73369E-05-4.13590E-25
 -1       896 9.77290E-08 3.56840E-07 3.30872E-24
 -1       897 1.96297E-07 5.97107E-07-1.65436E-24
 -1       898 2.94832E-07 7.43581E-07 0.00000E+00
 -1       899 3.93528E-07 8.18632E-07 1.65436E-24
 -1       900 4.92230E-07 8.37671E-07-3.30872E-24
 -1       901 5.90962E-07 8.15875E-07 0.00000E+00
 -1       902 6.89695E-07 7.64433E-07-3.30872E-24
 -1       903 7.88427E-07 6.94413E-07 1.65436E-24
 -1       904 8.87155E-07 6.15067E-07-3.30872E-24
 -1       905 9.85859E-07 5.35609E-07 1.65436E-24
 -1       906 1.08455E-06 4.65243E-07 0.00000E+00
 -1       907 1.18312E-06 4.13210E-07 0.00000E+00
 -1       908 1.28167E-06 3.90540E-07 0.00000E+00
 -1       909 1.37961E-06 4.08386E-07-1.65436E-24
 -1       910 1.47775E-06 4.81847E-07 0.00000E+00
 -1       911 1.60120E-06 7.63683E-07-8.27181E-25
 -1       912 1.63014E-06 8.15936E-07 4.13590E-25
 -1       913 1.65905E-06 7.95627E-07 8.27181E-25
 -1       914 1.68804E-06 7.15275E-07 0.00000E+00
 -1       915 1.71702E-06 5.85711E-07-8.27181E-25
 -1       916 1.74602E-06 4.17713E-07 0.00000E+00
 -1       917 1.77500E-06 2.20978E-07-8.27181E-25
 -1       918 1.80399E-06 5.16482E-09 0.00000E+00
 -1       919 1.83296E-06-2.20598E-07 0.00000E+00
 -1       920 1.86191E-06-4.47194E-07 4.13590E-25
 -1       921 1.89084E-06-6.65536E-07-8.27181E-25
 -1       922 1.91965E-06-8.66521E-07 0.00000E+00
 -1       923 1.94845E-06-1.04056E-06 0.00000E+00
 -1       924 1.97662E-06-1.17804E-06 1.03398E-25
 -1       925 2.00501E-06-1.26831E-06 4.13590E-25
 -1       926 1.90653E-06-1.29762E-06 3.30872E-24
 -1       927 1.78000E-06-1.28208E-06 0.00000E+00
 -1       928 1.65366E-06-1.25198E-06 3.30872E-24
 -1       929 1.52676E-06-1.20530E-06 0.00000E+00
 -1       930 1.39983E-06-1.14198E-06 0.00000E+00
 -1       931 1.27280E-06-1.06204E-06-1.65436E-24
 -1       932 1.14574E-06-9.67459E-07 3.30872E-24
 -1       933 1.01866E-06-8.60275E-07 1.65436E-24
 -1       934 8.91571E-07-7.44014E-07 0.00000E+00
 -1       935 7.64466E-07-6.22244E-07 0.00000E+00
 -1       936 6.37355E-07-4.99182E-07 3.30872E-24
 -1       937 5.10203E-07-3.79053E-07 1.65436E-24
 -1       938 3.83043E-07-2.65732E-07 0.00000E+00
 -1       939 2.55678E-07-1.63065E-07-1.65436E-24
 -1       940 1.28383E-07-7.36465E-08 3.30872E-24
 -1       941 5.12163E-07 6.77349E-08-6.61744E-24
 -1       942 1.05256E-06 1.39298E-07-6.61744E-24
 -1       943 1.59117E-06 2.13412E-07 0.00000E+00
 -1       944 2.13514E-06 2.88861E-07 0.00000E+00
 -1       945 2.67927E-06 3.65267E-07 0.00000E+00
 -1       946 3.22448E-06 4.42273E-07 0.00000E+00
 -1       947 3.76980E-06 5.19903E-07-1.32349E-23
 -1       948 4.31531E-06 5.98193E-07 0.00000E+00
 -1       949 4.86083E-06 6.77597E-07 0.00000E+00
 -1       950 5.40622E-06 7.58594E-07 6.61744E-24
 -1       951 5.95151E-06 8.42665E-07 0.00000E+00
 -1       952 6.49594E-06 9.31368E-07 0.00000E+00
 -1       953 7.04025E-06 1.02917E-06-1.32349E-23
 -1       954 7.58023E-06 1.14076E-06-6.61744E-24
 -1       955 8.12165E-06 1.27947E-06 0.00000E+00
 -1       956 8.61245E-06 1.68726E-06 5.16988E-25
 -1       957 8.58417E-06 1.94744E-06-4.13590E-25
 -1       958 8.55579E-06 2.23669E-06-8.27181E-25
 -1       959 8.52735E-06 2.55166E-06 3.10193E-25
 -1       960 8.49889E-06 2.88901E-06-4.13590E-25
 -1       961 8.47042E-06 3.24535E-06 2.06795E-25
 -1       962 8.44193E-06 3.61731E-06-4.13590E-25
 -1       963 8.41344E-06 4.00149E-06 0.00000E+00
 -1       964 8.38494E-06 4.39453E-06 0.00000E+00
 -1       965 8.35645E-06 4.79303E-06 0.00000E+00
 -1       966 8.32795E-06 5.19361E-06 0.00000E+00
 -1       967 8.29947E-06 5.59289E-06 4.13590E-25
 -1       968 8.27100E-06 5.98749E-06 0.00000E+00
 -1       969 8.24257E-06 6.37404E-06-4.13590E-25
 -1       970 8.21423E-06 6.74918E-06-8.27181E-25
 -1       971 8.12967E-06 7.49753E-06 8.27181E-25
 -1       972 8.07147E-06 7.96629E-06 0.00000E+00
 -1       973 8.01325E-06 8.50587E-06-1.65436E-24
 -1       974 7.95476E-06 9.10609E-06-8.27181E-25
 -1       975 7.89620E-06 9.75678E-06-1.65436E-24
 -1       976 7.83757E-06 1.04477E-05 8.27181E-25
 -1       977 7.77891E-06 1.11686E-05-1.65436E-24
 -1       978 7.72023E-06 1.19093E-05-8.27181E-25
 -1       979 7.66154E-06 1.26595E-05 0.00000E+00
 -1       980 7.60287E-06 1.34090E-05 0.00000E+00
 -1       981 7.54421E-06 1.41474E-05 1.65436E-24
 -1       982 7.48564E-06 1.48645E-05-8.27181E-25
 -1       983 7.42713E-06 1.55500E-05 0.00000E+00
 -1       984 7.36898E-06 1.61939E-05 0.00000E+00
 -1       985 7.31082E-06 1.67857E-05-8.27181E-25
 -3
    1PSTEP                         6           3           1          
  100CL  103 2.18750E-01         841                     0    3           1
 -4  STRESS      6    1
 -5  SXX         1    4    1    1
 -5  SYY         1    4    2    2
 -5  SZZ         1    4    3    3
 -5  SXY         1    4    1    2
 -5  SYZ         1    4    2    3
 -5  SZX         1    4    3    1
 -1         1-9.06026E+05-2.90476E+05-1.85908E+05-2.57804E+05-5.57823E-11-4.72937E-10
 -1         2-5.75169E+05-3.15167E+04 8.05406E+02-5.75695E+04-5.28644E-11-5.32054E-10
 -1         3-2.98780E+05-1.03981E+05-1.04070E+04-2.47195E+04-7.86144E-11-1.78204E-10
 -1         4-1.50332E+05-2.79299E+04 2.27860E+02-1.50413E+04-7.29372E-11-8.93081E-10
 -1         5-7.64759E+04 4.44538E+04-3.86027E+04-2.30513E+03 2.11639E-09-5.88273E-10
 -1         8-4.87890E+05-1.95947E+05-7.44602E+04-1.83903E+05 7.09406E-11 8.02174E-10
 -1         9-5.20042E+05-1.17235E+05-6.52559E+04-1.19515E+05-3.22567E-10-6.54230E-10
 -1        10-2.62055E+05-1.47480E+05-1.21560E+04-6.55035E+04-9.24615E-10 9.00400E-10
 -1        11-1.50543E+05-4.32978E+04 1.85536E+02-3.35395E+04 3.65389E-10 6.63037E-10
 -1        12-9.50117E+04 3.53438E+04-4.36545E+04-1.44441E+04 2.47582E-09 4.27416E-10
 -1        15 4.95147E+03-2.26016E+04 9.49921E+02-4.31336E+04-4.27463E-11-5.35692E-10
 -1        16-2.83106E+05-4.94772E+04 1.18553E+04-1.31474E+05 3.84413E-10-1.13232E-10
 -1        17-1.76010E+05-1.18045E+05-1.94261E+04-9.68576E+04 1.12171E-10 3.63798E-10
 -1        18-8.57869E+04-4.44649E+04-3.22801E+04-4.96467E+04-6.17774E-10 3.36513E-10
 -1        19-1.84450E+04 2.29639E+04-1.77068E+04-1.51018E+04 9.93320E-10-8.79178E-11
 -1        20 3.09146E+04-2.27534E+04-3.78580E+03 1.65450E+04 1.92597E-09-1.12527E-09
 -1        21-1.33217E+01-4.62051E+04 1.15615E+04 1.03670E+02 2.84558E-09-1.08142E-09
 -1        22 9.42253E+03 5.45530E+04 3.56094E+02-1.26953E+04-1.15961E-10-3.80169E-10
 -1        23-1.10201E+05 4.74275E+02 1.17592E+03-5.27911E+04-9.02749E-10 2.31618E-10
 -1        24-6.38771E+04 9.72290E+03 7.64836E+04-1.33439E+05-2.52658E-09 9.16771E-10
 -1        25 1.66386E+05 5.69369E+04 5.20446E+04-8.51260E+04 2.87476E-10 7.73070E-12
 -1        26 7.99873E+02 5.15603E+04 2.67323E+03-1.00369E+04 4.19088E-10 4.82942E-10
 -1        27-1.20572E+04-1.94393E+04-8.39856E+03 2.22919E+04 2.11783E-09 1.03228E-10
 -1        28-3.87956E+03-3.61016E+04-2.09916E+02 1.73574E+04 3.72114E-09-8.57031E-10
 -1        29 1.35270E+05 9.20137E+04 3.79853E+02-1.20447E+03 7.59324E-11-7.71706E-10
 -1        30 4.41586E+04 1.34165E+04 5.68912E+02-1.34418E+04-5.00550E-11-5.25233E-11
 -1        31-1.58746E+05 1.28992E+04 1.32027E+03-3.34892E+04 2.93108E-11 9.29958E-10
 -1        32 2.19484E+05 1.28730E+05 1.57577E+05-1.33685E+05 2.65161E-09 2.07001E-09
 -1        33 3.79386E+05 1.61311E+05 1.18735E+05-1.44669E+04-4.82100E-09-5.37966E-10
 -1        34-6.26651E+04-8.90429E+03-2.69148E+03 1.17331E+04 8.37709E-10-1.20963E-10
 -1        35-1.00234E+04-1.19918E+04-2.17390E+02 2.57393E+04 3.03442E-09-1.10231E-09
 -1        36-1.23550E+06 3.74665E+04-8.70700E+04 6.23485E-08 3.46225E-10 1.54978E-09
 -1        37-1.27312E+06-4.33854E+04-6.15445E+04-1.38447E-07 3.10896E-10 5.27507E-10
 -1        38-1.25004E+06 5.84389E+03-2.25380E+04-8.61977E-08-1.04314E-09 2.50111E-10
 -1        39-1.25617E+06-6.76437E+03-1.41478E+04-1.08757E-08-4.84995E-10 4.06544E-10
 -1        40-1.25242E+06 9.09541E+02-5.79045E+03-4.61247E-09 2.16383E-10-2.97860E-10
 -1        41-1.25338E+06-1.06482E+03-3.44709E+03-6.84511E-08-6.83941E-10-7.16909E-10
 -1        42-1.25281E+06 1.53844E+02-1.68035E+03 5.21454E-08-3.31704E-10-2.43614E-09
 -1        43-1.25296E+06-2.66720E+02-1.31443E+03 3.80827E-08-1.08125E-10-2.07861E-09
 -1        44-1.25284E+06 1.12624E+02-1.30412E+03-1.81164E-08-9.05033E-10-1.16245E-10
 -1        45-1.25319E+06-7.08838E+02-2.35981E+03 1.56437E-08-8.12780E-10 2.24645E-10
 -1        46-1.25259E+06 5.95272E+02-3.82983E+03 3.69065E-08-8.54589E-10 3.88354E-10
 -1        47-1.25500E+06-4.41554E+03-9.25784E+03-7.21743E-08-5.80537E-10 1.70166E-09
 -1        48-1.25104E+06 3.81311E+03-1.47183E+04-6.06755E-08 1.13888E-10 1.29603E-09
 -1        49-1.26606E+06-2.83075E+04-4.01618E+04-2.57294E-08 4.23105E-10 1.47293E-09
 -1        50-1.24155E+06 2.44446E+04-5.68196E+04 2.59867E-08-9.81655E-10 4.07454E-10
 -1        51 1.03450E+04-1.19390E+05 1.65988E+04-3.15784E+05-9.45874E-11 1.15324E-09
 -1        52 4.16201E+03-1.17164E+05 9.91331E+03-3.48272E+05-2.54659E-11 2.37014E-09
 -1        53 2.26701E+03-1.19533E+05 7.86091E+03-3.14975E+05-3.63798E-12 1.64437E-09
 -1        54 5.58761E+03-1.17721E+05 1.17612E+04-3.49163E+05 1.78261E-10 1.39789E-09
 -1        55 1.42445E+04-1.21249E+05 2.12427E+04-3.14860E+05-1.23691E-10 1.86446E-09
 -1        56-1.36316E+06-1.54266E+05-1.11472E+05-5.27280E+05 6.54836E-11 1.60799E-09
 -1        57-1.41518E+06-2.45274E+05-7.47619E+04-5.14614E+05 1.09867E-09 2.87400E-10
 -1        58-1.38474E+06-1.89489E+05-2.62655E+04-5.21309E+05 4.54747E-11-1.12595E-09
 -1        59-1.39033E+06-2.03775E+05-1.55713E+04-5.21800E+05-9.54969E-11 9.47693E-10
 -1        60-1.38778E+06-1.94369E+05-6.14530E+03-5.20599E+05-2.32490E-10-3.34853E-09
 -1        61-1.38689E+06-1.97980E+05-3.47926E+03-5.22558E+05-1.19482E-09-1.91733E-10
 -1        62-1.38814E+06-1.95110E+05-1.69952E+03-5.20610E+05-5.40524E-10-1.31857E-09
 -1        63-1.38665E+06-1.97092E+05-1.42714E+03-5.22408E+05-1.02538E-09 2.10241E-09
 -1        64-1.38801E+06-1.95239E+05-1.66492E+03-5.20754E+05-5.29468E-10 8.83915E-10
 -1        65-1.38737E+06-1.97450E+05-3.37662E+03-5.21986E+05-5.80883E-10-1.54773E-09
 -1        66-1.38742E+06-1.94771E+05-5.95131E+03-5.21026E+05-3.81874E-10-9.60881E-10
 -1        67-1.39116E+06-2.02585E+05-1.50688E+04-5.20711E+05-5.81622E-10 1.59071E-09
 -1        68-1.38425E+06-1.90274E+05-2.54171E+04-5.21970E+05 7.00311E-11 1.77351E-10
 -1        69-1.41563E+06-2.42326E+05-7.23405E+04-5.13283E+05 7.23958E-10-1.81171E-09
 -1        70-1.36319E+06-1.56381E+05-1.07865E+05-5.27964E+05-5.20231E-10-1.32422E-09
 -1        71-5.84950E+05-1.00308E+03 2.33172E+03-9.82141E-08-7.74566E-10-1.21122E-09
 -1        72-5.83887E+05 1.16153E+03 1.64564E+03-8.79766E-09-1.00375E-10 1.14593E-09
 -1        73-5.84560E+05-1.56355E+02 5.98231E+02-1.53253E-08-1.11523E-10-7.94245E-10
 -1        74-5.84341E+05 1.80194E+02 3.67072E+02 5.92115E-08 2.01569E-10-4.14360E-09
 -1        75-5.84496E+05-2.35420E+01 1.32166E+02-3.61440E-08-2.14598E-10-3.40400E-10
 -1        76-5.84420E+05 2.22645E+01 4.31821E+01-6.49073E-08-6.14249E-10 1.28231E-09
 -1        77-5.84482E+05 1.31504E+00-4.72802E+01-1.03083E-07 8.49181E-11 7.23936E-10
 -1        78-5.84452E+05-3.39871E+01-1.67716E+02-7.59976E-08 2.27831E-11 8.52253E-10
 -1        79-5.84463E+05 3.26399E+01-3.33537E+02-2.55128E-09 4.36286E-10-3.81775E-10
 -1        80-5.84566E+05-2.48274E+02-7.83870E+02 3.99012E-08 1.35817E-10-1.22213E-11
 -1        81-5.84368E+05 2.15291E+02-1.35921E+03-2.76422E-08 2.08999E-10-1.12448E-09
 -1        82-5.85230E+05-1.60476E+03-3.35135E+03-4.83103E-09 1.65953E-10 1.68143E-10
 -1        83-5.83801E+05 1.38686E+03-5.34853E+03 4.81806E-08-7.10903E-11 3.31738E-10
 -1        84-5.89252E+05-1.02966E+04-1.46090E+04 2.25343E-08 2.33369E-10-1.18462E-09
 -1        85-5.80349E+05 8.89133E+03-2.06744E+04 1.30324E-08-5.87365E-10-2.47383E-10
 -1        86-2.81281E+04 1.06850E+05 6.64847E+04 4.61078E+02 1.45519E-11 3.85469E-10
 -1        87 3.50606E+04 1.36488E+05 5.13919E+04-1.98903E+03-3.09228E-11-1.44128E-10
 -1        88-6.86803E+03 1.16597E+05 2.61806E+04 3.57651E+02-1.75532E-10 3.14007E-10
 -1        89 2.38780E+04 1.31279E+05 3.67700E+04-1.84753E+03 2.36469E-11-5.19250E-10
 -1        90-1.69659E+04 1.12055E+05 4.13038E+04 3.19594E+02-2.32831E-10-1.28465E-09
 -1        91-6.24074E+05-8.38582E+04-8.63184E+03-2.34764E+05-1.46429E-10-2.94676E-10
 -1        92-6.26217E+05-9.38632E+04-5.95228E+03-2.35687E+05 3.57261E-11 2.37293E-09
 -1        93-6.26399E+05-8.62889E+04-2.02504E+03-2.33430E+05 3.70903E-11 4.32465E-10
 -1        94-6.23575E+05-9.09847E+04-1.26414E+03-2.37161E+05 1.26309E-09 1.61992E-09
 -1        95-6.26717E+05-8.67288E+04-4.88619E+02-2.33294E+05-1.08192E-09 1.61933E-10
 -1        96-6.23737E+05-8.98861E+04-3.00302E+02-2.36624E+05-1.62265E-09-2.51904E-09
 -1        97-6.26233E+05-8.73886E+04-2.08879E+02-2.33965E+05 1.97048E-10 1.19232E-09
 -1        98-6.25112E+05-8.83611E+04-2.34582E+02-2.34915E+05-1.30740E-10 3.27102E-10
 -1        99-6.25339E+05-8.82564E+04-4.24451E+02-2.35000E+05 1.35545E-09-3.10081E-10
 -1       100-6.26970E+05-8.70280E+04-9.47144E+02-2.33006E+05 6.11941E-10-1.07580E-09
 -1       101-6.24377E+05-8.87207E+04-1.66962E+03-2.35876E+05 4.03858E-10-5.18639E-10
 -1       102-6.29174E+05-8.80744E+04-4.46339E+03-2.31594E+05 1.31988E-09-9.48205E-10
 -1       103-6.23140E+05-8.72099E+04-7.16377E+03-2.36415E+05 9.72136E-10-4.97494E-10
 -1       104-6.36150E+05-1.00990E+05-2.11871E+04-2.29470E+05 6.30962E-11 5.49335E-10
 -1       105-6.17409E+05-7.58258E+04-3.05818E+04-2.37994E+05-1.79625E-10-3.81988E-11
 -1       106-3.19641E+05-1.20571E+03 2.80353E+03 7.58514E-08-1.35640E-10 4.72255E-10
 -1       107-3.18398E+05 1.39624E+03 1.97982E+03 4.38337E-08-2.96994E-10 8.89031E-10
 -1       108-3.19173E+05-1.88004E+02 7.22423E+02-2.53246E-08-2.91864E-10-4.27605E-10
 -1       109-3.18944E+05 2.17117E+02 4.48074E+02-2.72467E-08-1.86801E-10-1.90245E-09
 -1       110-3.19096E+05-2.87554E+01 1.71891E+02-6.32397E-08-1.99527E-10 1.35152E-10
 -1       111-3.19036E+05 3.02806E+01 7.96396E+01-1.29045E-07-8.05142E-11 1.79611E-09
 -1       112-3.19081E+05-1.47965E+00-4.84503E+00-3.09566E-09-2.28146E-10 5.13303E-10
 -1       113-3.19063E+05-1.76922E+01-8.73510E+01 3.12232E-08 1.24950E-10-5.76026E-10
 -1       114-3.19069E+05 1.91553E+01-1.93495E+02-2.09474E-08-1.02892E-10-9.40986E-10
 -1       115-3.19132E+05-1.47930E+02-4.65357E+02-6.72727E-08-1.10251E-10-1.75990E-09
 -1       116-3.19012E+05 1.28570E+02-8.10868E+02 1.76381E-08-1.12348E-11-1.52932E-09
 -1       117-3.19529E+05-9.58680E+02-2.00190E+03-1.87731E-08 3.60202E-11-2.29647E-10
 -1       118-3.18673E+05 8.28535E+02-3.19576E+03-6.96215E-08-5.15313E-10 6.17547E-10
 -1       119-3.21932E+05-6.15146E+03-8.72861E+03-3.40821E-08-4.04912E-11 1.12448E-09
 -1       120-3.16610E+05 5.31191E+03-1.23527E+04-1.55945E-08 5.11982E-11-1.01318E-09
 -1       121-4.99846E+02-3.27741E+05 2.24079E+03 3.04133E+03-2.71712E-11-1.44337E-09
 -1       122 7.30839E+02-3.26883E+05 1.63789E+03 1.19761E+04-4.66969E-11-1.38675E-09
 -1       123-1.00993E+02-3.27450E+05 1.04736E+03 3.06602E+03-8.87610E-11 1.55501E-09
 -1       124 6.75294E+02-3.26899E+05 1.54826E+03 1.18920E+04-1.52170E-10 8.59472E-10
 -1       125-4.67106E+02-3.27706E+05 2.06696E+03 3.12554E+03-2.52044E-10 2.53522E-10
 -1       126-2.92209E+05-4.16348E+04 1.50296E+03-1.09263E+05 2.83299E-09-9.18703E-10
 -1       127-2.91202E+05-4.04411E+04 1.04193E+03-1.09725E+05 5.58530E-08-1.98552E-08
 -1       128-2.91925E+05-4.10734E+04 3.50593E+02-1.09338E+05 8.91766E-06-3.34255E-06
 -1       129-2.91534E+05-4.10914E+04 2.15857E+02-1.09638E+05 1.77326E-05-6.64882E-06
 -1       130-2.91878E+05-4.09855E+04 7.40723E+01-1.09350E+05 8.91802E-06-3.34286E-06
 -1       131-2.91607E+05-4.11782E+04 2.98129E+01-1.09604E+05 5.74076E-08-2.34775E-08
 -1       132-2.91851E+05-4.09867E+04-1.42574E+01-1.09372E+05 2.00510E-09-7.30509E-11
 -1       133-2.91679E+05-4.11604E+04-6.85620E+01-1.09540E+05-8.14502E-10 6.94635E-10
 -1       134-2.91806E+05-4.10033E+04-1.40069E+02-1.09414E+05 1.50961E-09-7.67720E-10
 -1       135-2.91828E+05-4.12043E+04-3.60137E+02-1.09434E+05-2.14574E-09 1.06506E-09
 -1       136-2.91702E+05-4.09430E+04-6.27019E+02-1.09479E+05 3.48059E-10 1.04507E-10
 -1       137-2.92351E+05-4.18770E+04-1.68927E+03-1.09208E+05-4.28479E-10 2.63526E-10
 -1       138-2.91284E+05-4.03317E+04-2.71072E+03-1.09639E+05 2.24645E-10 9.81117E-11
 -1       139-2.95155E+05-4.66146E+04-8.02157E+03-1.08234E+05 6.42643E-10-2.58979E-10
 -1       140-2.88900E+05-3.62126E+04-1.15672E+04-1.10451E+05-1.06866E-10 5.81167E-10
 -1       141-1.44504E+05-1.35169E+03 3.14250E+03-2.79475E-09 1.69112E-10 1.30399E-09
 -1       142-1.43130E+05 1.56521E+03 2.21806E+03-2.74132E-08 8.19464E-12 1.07789E-09
 -1       143-1.43979E+05-2.10699E+02 8.06670E+02-2.38064E-08 1.11995E-10 7.15147E-10
 -1       144-1.43742E+05 2.42859E+02 4.95314E+02 2.11942E-08-9.35274E-11-6.90903E-10
 -1       145-1.43892E+05-3.17572E+01 1.79129E+02-6.84740E-08-6.74982E-11 1.21972E-10
 -1       146-1.43847E+05 3.02571E+01 6.02035E+01 5.68814E-08 4.90396E-11-6.34053E-11
 -1       147-1.43874E+05 1.55061E+00-6.00287E+01 2.79146E-08 5.00809E-11 1.73486E-10
 -1       148-1.43890E+05-4.41249E+01-2.17929E+02 2.60789E-08 1.87094E-11 3.09910E-10
 -1       149-1.43850E+05 4.25323E+01-4.34808E+02 1.61375E-08-1.20449E-10 4.85386E-10
 -1       150-1.44039E+05-3.23676E+02-1.02244E+03-1.04581E-08-8.34009E-11-1.17973E-09
 -1       151-1.43725E+05 2.80699E+02-1.77311E+03-9.49759E-09-2.20327E-11 1.02079E-09
 -1       152-1.44904E+05-2.09230E+03-4.37116E+03 3.82767E-08 4.88054E-11 8.50378E-10
 -1       153-1.42985E+05 1.80818E+03-6.97601E+03 3.38769E-10 6.05110E-10-4.06999E-10
 -1       154-1.50148E+05-1.34247E+04-1.90505E+04-7.70275E-08 1.43196E-10 7.84894E-10
 -1       155-1.38481E+05 1.15925E+04-2.69578E+04-3.45966E-08 1.23976E-09 4.11092E-10
 -1       156-4.49104E+03-6.60815E+04 1.07719E+04-2.12743E+02-3.59250E-11 5.07617E-10
 -1       157 5.95686E+03-6.11681E+04 8.96389E+03 8.93152E+02-1.09992E-10 6.60333E-10
 -1       158-1.45516E+03-6.47025E+04 5.54655E+03-2.08937E+02 2.41016E-11 1.27365E-09
 -1       159 6.53075E+03-6.08975E+04 9.71462E+03 8.70274E+02 1.12664E-10 1.16265E-09
 -1       160-5.06406E+03-6.63517E+04 1.20625E+04-1.89863E+02 3.84716E-10 2.75481E-10
 -1       161-1.64062E+05-2.27961E+04-6.60992E+02-6.16130E+04 6.76264E-06-2.53667E-06
 -1       162-1.64318E+05-2.34765E+04-4.59876E+02-6.15828E+04 1.34066E-05-5.02879E-06
 -1       163-1.64199E+05-2.30302E+04-1.58967E+02-6.15657E+04 6.75220E-06-2.53141E-06
 -1       164-1.64162E+05-2.32035E+04-1.06069E+02-6.16340E+04 3.91378E-08-1.43169E-08
 -1       165-1.64218E+05-2.30687E+04-5.46730E+01-6.15619E+04 1.07409E-09 4.29746E-10
 -1       166-1.64150E+05-2.31595E+04-6.41683E+01-6.16315E+04-2.19091E-09 9.58573E-10
 -1       167-1.64211E+05-2.30740E+04-9.08975E+01-6.15682E+04 1.05700E-09-5.19783E-10
 -1       168-1.64190E+05-2.31849E+04-2.02217E+02-6.16102E+04-1.60092E-09 1.41783E-09
 -1       169-1.64178E+05-2.30434E+04-3.63443E+02-6.15832E+04 7.34154E-10-2.10150E-10
 -1       170-1.64389E+05-2.34592E+04-9.09508E+02-6.15403E+04-6.69235E-10 9.09012E-10
 -1       171-1.64012E+05-2.28002E+04-1.57359E+03-6.16381E+04 1.44155E-10 1.14767E-10
 -1       172-1.65518E+05-2.53203E+04-4.23424E+03-6.11793E+04-1.13403E-11-1.18575E-09
 -1       173-1.63049E+05-2.11850E+04-6.79191E+03-6.19433E+04-5.63887E-10-5.95719E-10
 -1       174-1.72398E+05-3.73310E+04-2.00961E+04-5.89019E+04-3.05715E-09 2.31216E-09
 -1       175-1.57135E+05-1.08072E+04-2.89760E+04-6.39091E+04-1.34060E-09 8.24002E-10
 -1       191 4.66885E+02 1.67677E+05 7.54473E+02-4.36970E+03-7.68523E-11-1.77124E-09
 -1       192 1.72053E+02 1.67785E+05 4.51545E+02-4.68436E+03 1.23407E-10 3.93811E-10
 -1       193 8.15238E+01 1.67714E+05 3.63718E+02-4.29540E+03-2.33484E-10 2.08365E-09
 -1       194 2.26026E+02 1.67801E+05 5.50332E+02-4.82333E+03 7.79892E-11 2.45336E-10
 -1       195 6.35058E+02 1.67655E+05 1.00007E+03-4.23048E+03-3.97904E-10-4.92037E-10
 -1       251-7.76331E+05 1.79909E+04-4.18308E+04-1.76586E+03-7.87068E-11-1.36788E-09
 -1       252-7.94369E+05-2.08311E+04-2.95609E+04 2.95405E+03 1.41078E-10-7.34872E-10
 -1       253-7.83339E+05 2.80475E+03-1.08374E+04-1.39884E+03 4.89841E-10 1.17780E-10
 -1       254-7.86162E+05-3.24521E+03-6.78854E+03 1.55642E+03 2.74127E-10-7.68978E-10
 -1       255-7.84524E+05 4.33502E+02-2.81069E+03-3.68228E+02-2.04651E-10 7.57382E-10
 -1       256-7.84803E+05-5.11772E+02-1.66749E+03-6.53817E+02-4.45141E-10 6.04928E-10
 -1       257-7.84695E+05 7.48314E+01-8.77854E+02 8.11436E+02 6.36646E-10-3.54504E-10
 -1       258-7.84677E+05-1.52565E+02-7.55717E+02-2.56784E+03-2.24020E-10-1.55410E-09
 -1       259-7.84652E+05 7.76397E+01-8.69634E+02 1.54583E+03-5.66676E-10-1.05837E-09
 -1       260-7.84903E+05-5.14092E+02-1.68881E+03-3.22157E+03-5.99853E-10-1.91790E-09
 -1       261-7.84472E+05 4.37564E+02-2.80300E+03 1.46519E+03 2.87841E-11 7.12134E-10
 -1       262-7.86187E+05-3.24992E+03-6.80126E+03-2.28472E+03-6.64745E-10-9.31550E-10
 -1       263-7.83368E+05 2.80648E+03-1.08568E+04 6.08948E+02-5.58884E-10-8.95852E-11
 -1       264-7.94285E+05-2.08545E+04-2.95777E+04-2.19576E+02-1.82013E-10-4.29736E-10
 -1       265-7.76381E+05 1.80081E+04-4.18940E+04-5.99985E+02-1.36281E-09 1.00772E-09
 -1       266-6.87373E+03-1.32950E+05 1.56037E+04 1.90637E+03 1.81899E-12-2.67207E-09
 -1       267 7.34441E+03-1.26033E+05 9.94475E+03-7.23079E+03 3.41061E-12-1.83207E-09
 -1       268-4.46236E+02-1.29814E+05 1.69314E+03 2.11515E+03 2.68301E-11-1.24846E-09
 -1       269-3.46102E+03-1.31150E+05-4.19307E+03-7.36646E+03-1.68257E-11 3.35119E-10
 -1       270 3.91633E+03-1.27841E+05-8.68683E+03 2.04204E+03 8.27640E-11 2.07277E-09
 -1       271-1.17466E+06-1.47805E+05-9.11398E+04-4.54164E+05-2.26464E-10-6.83940E-10
 -1       272-1.20417E+06-2.09860E+05-5.75210E+04-4.57208E+05 1.95712E-10-1.71531E-09
 -1       273-1.19058E+06-1.68390E+05-2.15067E+04-4.51664E+05 1.22668E-10-5.57520E-10
 -1       274-1.18575E+06-1.83197E+05-1.18230E+04-4.61561E+05-7.42602E-10 6.55064E-10
 -1       275-1.19253E+06-1.70477E+05-5.00567E+03-4.51321E+05 1.43700E-10-1.40471E-09
 -1       276-1.18348E+06-1.80578E+05-2.65577E+03-4.62153E+05-1.18234E-11-9.13133E-10
 -1       277-1.19283E+06-1.70635E+05-1.36493E+03-4.51223E+05-5.04770E-11-3.81192E-10
 -1       278-1.18317E+06-1.80406E+05-1.07903E+03-4.62292E+05 5.34783E-10-2.69324E-10
 -1       279-1.19285E+06-1.70616E+05-1.29777E+03-4.51201E+05-1.18590E-10-3.75223E-10
 -1       280-1.18339E+06-1.80629E+05-2.47250E+03-4.62249E+05-1.30427E-10 1.06826E-09
 -1       281-1.19260E+06-1.70436E+05-4.63028E+03-4.51256E+05 1.98668E-10 9.77252E-10
 -1       282-1.18544E+06-1.83103E+05-1.09271E+04-4.61771E+05-5.67866E-10-9.65429E-10
 -1       283-1.19084E+06-1.68483E+05-1.98661E+04-4.51545E+05-2.93369E-10-1.63163E-09
 -1       284-1.20241E+06-2.07782E+05-5.31370E+04-4.57810E+05 2.27374E-11 7.00311E-11
 -1       285-1.17615E+06-1.49441E+05-8.41890E+04-4.53827E+05-2.15550E-10-6.29370E-10
 -1       286-2.04094E+05-4.15297E+03 9.65053E+03-5.94143E+01 6.13767E-10-7.11680E-10
 -1       287-1.99836E+05 4.80879E+03 6.83079E+03-4.52253E+02 5.10450E-10 1.51522E-09
 -1       288-2.02477E+05-6.48198E+02 2.49824E+03 1.15660E+02 2.43595E-10-3.21961E-10
 -1       289-2.01726E+05 7.50091E+02 1.57748E+03-7.69751E+02-6.64855E-11 4.60886E-10
 -1       290-2.02205E+05-1.01235E+02 6.47861E+02 2.58093E+02 2.08288E-10 5.04656E-10
 -1       291-2.02048E+05 1.20105E+02 3.99234E+02-1.00090E+03 2.71655E-10 5.73039E-10
 -1       292-2.02156E+05-1.86766E+01 2.14057E+02 3.46814E+02 3.14593E-10 8.98623E-11
 -1       293-2.02097E+05 4.22527E+01 2.07249E+02-1.11221E+03 1.90689E-10 1.52889E-09
 -1       294-2.02157E+05-2.31484E+01 2.55783E+02 3.69403E+02 4.75643E-10 6.03350E-10
 -1       295-2.02034E+05 1.59246E+02 5.17401E+02-1.08807E+03 3.88284E-10-8.92662E-10
 -1       296-2.02219E+05-1.35574E+02 8.64177E+02 3.22679E+02 3.69980E-10 1.82467E-11
 -1       297-2.01608E+05 1.00782E+03 2.11252E+03-9.31964E+02 4.57497E-10 1.52909E-09
 -1       298-2.02582E+05-8.70757E+02 3.35791E+03 2.13289E+02 1.39536E-10-1.40517E-10
 -1       299-1.99069E+05 6.46256E+03 9.17591E+03-6.67101E+02-1.26651E-10 9.76456E-10
 -1       300-2.04756E+05-5.58084E+03 1.29728E+04 5.78077E+01 5.09601E-11 2.46473E-10
 -1       301 1.61125E+04 8.75721E+03 3.53041E+04-1.08381E+04 8.22183E-10-1.43871E-10
 -1       302 5.43263E+03 1.53636E+04 2.14287E+04-1.27064E+04 8.33211E-10 3.79810E-10
 -1       303 1.50350E+03 1.11210E+04 1.68690E+04-1.08388E+04 9.49967E-10 2.40846E-10
 -1       304 6.67802E+03 1.60941E+04 2.47460E+04-1.26953E+04 8.39464E-10-1.38903E-09
 -1       305 2.01523E+04 8.02892E+03 4.33528E+04-1.08461E+04 8.69477E-10-3.95744E-10
 -1       306-8.09323E+05-1.04837E+05-5.43747E+04-3.13475E+05 9.52696E-10 7.34872E-10
 -1       307-8.22131E+05-1.46582E+05-3.43071E+04-3.20737E+05-2.18847E-11 2.55113E-10
 -1       308-8.18855E+05-1.17069E+05-1.28350E+04-3.11953E+05 7.46923E-11 6.65750E-10
 -1       309-8.11133E+05-1.30721E+05-7.05731E+03-3.23390E+05-7.32143E-11 1.72849E-09
 -1       310-8.20025E+05-1.18301E+05-2.99623E+03-3.11742E+05 1.33241E-10 7.53516E-10
 -1       311-8.09785E+05-1.29160E+05-1.60378E+03-3.23752E+05 6.75300E-10-1.13374E-09
 -1       312-8.20200E+05-1.18399E+05-8.53819E+02-3.11690E+05 1.27386E-10-6.68336E-11
 -1       313-8.09623E+05-1.29044E+05-7.30095E+02-3.23816E+05 1.23340E-09 1.63220E-09
 -1       314-8.20195E+05-1.18398E+05-9.48596E+02-3.11691E+05 1.58821E-10 8.76526E-10
 -1       315-8.09825E+05-1.29190E+05-1.86616E+03-3.23743E+05-1.08855E-10-9.50422E-10
 -1       316-8.19989E+05-1.18277E+05-3.52661E+03-3.11748E+05-5.79689E-10-1.38471E-10
 -1       317-8.11408E+05-1.31052E+05-8.33499E+03-3.23336E+05-1.81899E-10 3.72893E-10
 -1       318-8.18619E+05-1.16806E+05-1.51638E+04-3.11983E+05-3.32079E-10 1.26511E-09
 -1       319-8.24376E+05-1.49836E+05-4.05449E+04-3.20252E+05 3.49132E-10 1.59889E-09
 -1       320-8.07378E+05-1.02318E+05-6.42532E+04-3.13752E+05-3.29237E-10 2.47383E-10
 -1       321-1.88478E+05-6.20915E+03 1.44397E+04-4.28116E+01-6.65196E-10-1.60071E-10
 -1       322-1.82192E+05 7.19055E+03 1.02055E+04-2.27262E+02-5.85601E-10-2.18506E-10
 -1       323-1.86066E+05-9.68605E+02 3.73608E+03 3.81176E+01 6.70148E-11-3.05818E-10
 -1       324-1.85004E+05 1.12074E+03 2.34369E+03-3.76108E+02 1.51431E-10-1.14966E-09
 -1       325-1.85668E+05-1.50475E+02 9.51744E+02 1.06041E+02 3.05711E-11-3.85569E-10
 -1       326-1.85470E+05 1.74052E+02 5.53673E+02-4.88720E+02 8.98837E-11 4.46178E-10
 -1       327-1.85600E+05-2.33769E+01 2.43139E+02 1.50731E+02-2.49905E-10 6.65139E-10
 -1       328-1.85550E+05 2.82744E+01 1.39653E+02-5.49147E+02 5.51745E-11 2.78650E-10
 -1       329-1.85588E+05-4.80913E+00 7.36597E+01 1.66469E+02-3.76146E-11 6.05942E-10
 -1       330-1.85559E+05 1.38867E+01 6.32139E+01-5.49620E+02 5.85167E-11-4.61640E-10
 -1       331-1.85591E+05-9.00073E+00 6.85260E+01 1.51204E+02 1.13483E-10 1.14327E-09
 -1       332-1.85533E+05 6.38397E+01 1.40428E+02-4.90067E+02 5.32019E-12-2.81759E-10
 -1       333-1.85614E+05-5.47722E+01 2.13918E+02 1.06915E+02-4.86260E-10-3.19417E-10
 -1       334-1.85372E+05 4.05865E+02 5.78513E+02-3.78129E+02-8.29958E-10 3.51207E-10
 -1       335-1.85752E+05-3.50549E+02 8.14021E+02 3.92644E+01-6.22521E-10-1.39835E-10
 -1       336-3.30200E+02-3.32185E+05 9.37206E+02-4.14900E+03-4.20187E-10 8.93579E-11
 -1       337 1.27523E+02-3.31902E+05-6.91688E+02-1.67808E+04-3.39256E-10-1.25510E-10
 -1       338 2.60053E+02-3.31739E+05-2.75629E+03-4.09501E+03-6.25050E-10 2.15232E-09
 -1       339-3.80509E+03-3.34256E+05-7.67595E+03-1.68396E+04-3.32989E-10 1.78858E-09
 -1       340 2.84984E+03-3.29851E+05-1.22696E+04-4.09076E+03-3.52429E-10 1.17267E-09
 -1       341-5.32173E+05-6.66403E+04-2.21933E+04-2.03982E+05 8.24215E-06-3.09113E-06
 -1       342-5.44915E+05-8.58565E+04-1.53931E+04-1.98880E+05 1.63393E-05-6.14005E-06
 -1       343-5.36664E+05-7.46238E+04-5.20810E+03-2.02517E+05 8.23063E-06-3.09095E-06
 -1       344-5.39533E+05-7.67657E+04-3.25788E+03-2.00745E+05 4.81984E-08-1.83781E-08
 -1       345-5.37549E+05-7.57172E+04-1.24089E+03-2.02121E+05 2.55964E-09 1.51374E-10
 -1       346-5.38267E+05-7.57494E+04-7.72060E+02-2.01471E+05-2.19579E-09 2.20508E-09
 -1       347-5.37928E+05-7.56383E+04-4.33387E+02-2.01790E+05 1.85764E-09-7.56117E-10
 -1       348-5.37672E+05-7.61242E+04-5.15776E+02-2.02086E+05-2.05255E-09-5.08935E-10
 -1       349-5.38144E+05-7.53421E+04-7.37979E+02-2.01506E+05 5.27493E-10 5.43423E-10
 -1       350-5.37618E+05-7.70205E+04-1.72505E+03-2.02441E+05-5.46876E-10 7.59286E-10
 -1       351-5.37983E+05-7.47424E+04-2.94581E+03-2.01435E+05-5.61158E-10-8.29914E-12
 -1       352-5.39604E+05-8.06052E+04-7.89846E+03-2.01907E+05-6.25931E-10-2.48747E-09
 -1       353-5.36160E+05-7.17624E+04-1.26622E+04-2.02040E+05-1.25738E-10-1.62800E-10
 -1       354-5.52653E+05-1.02771E+05-3.74634E+04-1.97397E+05 3.12639E-10-7.13953E-11
 -1       355-5.24946E+05-5.26107E+04-5.40172E+04-2.05935E+05-6.54836E-11-5.67525E-10
 -1       356-1.86028E+05-3.39429E+02 7.87297E+02-2.08040E+01 1.45704E-10 1.34315E-09
 -1       357-1.85666E+05 3.92853E+02 5.54325E+02-1.34511E+02-1.58220E-10 1.26420E-10
 -1       358-1.85896E+05-5.28069E+01 1.96194E+02 2.30341E+01 4.30482E-11 1.72946E-10
 -1       359-1.85821E+05 5.99697E+01 1.11853E+02-2.13682E+02 1.29596E-10 1.83839E-10
 -1       360-1.85873E+05-7.11350E+00 2.02269E+01 5.83684E+01-2.80611E-11-1.03053E-09
 -1       361-1.85853E+05 9.17112E-01-3.73317E+01-2.71338E+02-7.50924E-11-2.06746E-09
 -1       362-1.85865E+05 6.19763E+00-1.13748E+02 8.06919E+01-2.23211E-10-1.00361E-09
 -1       363-1.85887E+05-5.49813E+01-2.71492E+02-3.00074E+02 2.35556E-11-7.13129E-10
 -1       364-1.85840E+05 4.87476E+01-5.02771E+02 8.71044E+01-8.38307E-12 3.73802E-10
 -1       365-1.86052E+05-3.66518E+02-1.16133E+03-2.96206E+02-2.50619E-10 5.45697E-10
 -1       366-1.85699E+05 3.17280E+02-2.00633E+03 7.68239E+01-1.34391E-10-2.90015E-10
 -1       367-1.87028E+05-2.36430E+03-4.94032E+03-2.60108E+02 1.93801E-10-3.97620E-10
 -1       368-1.84864E+05 2.04314E+03-7.88309E+03 5.10061E+01 5.29351E-10-9.64064E-11
 -1       369-1.92953E+05-1.51692E+04-2.15257E+04-1.95041E+02 4.43237E-11-1.85082E-10
 -1       370-1.79776E+05 1.30989E+04-3.04606E+04 1.17582E+01 1.50585E-09 2.18279E-11
 -1       371-4.88757E+03-6.66686E+04 1.11046E+04 8.77224E+02 1.17325E-09 9.77550E-10
 -1       372 5.10476E+03-6.19856E+04 6.83788E+03-3.59758E+03 1.84662E-09-1.41923E-09
 -1       373-2.05947E+02-6.44794E+04 7.87302E+02 9.04772E+02 1.72099E-09 1.20819E-11
 -1       374-3.32318E+03-6.58802E+04-4.17736E+03-3.58512E+03 1.68927E-09-1.08182E-09
 -1       375 3.52456E+03-6.27740E+04-7.87586E+03 8.64756E+02 1.05183E-09 2.93312E-11
 -1       376-2.87994E+05-3.60754E+04-1.14757E+04-1.10034E+05-2.76259E-10-5.36602E-10
 -1       377-2.94000E+05-4.65895E+04-7.95943E+03-1.08058E+05 1.31658E-09 6.85759E-10
 -1       378-2.90376E+05-4.01437E+04-2.69459E+03-1.09208E+05-1.15733E-09-2.44768E-10
 -1       379-2.91205E+05-4.19068E+04-1.68781E+03-1.09042E+05 2.63469E-10 7.62526E-10
 -1       380-2.90787E+05-4.07508E+04-6.46080E+02-1.09051E+05-4.09045E-10-5.89239E-10
 -1       381-2.90718E+05-4.12256E+04-4.12905E+02-1.09239E+05-3.05963E-08 1.11751E-08
 -1       382-2.90863E+05-4.08238E+04-2.44618E+02-1.09012E+05-4.77062E-06 1.78738E-06
 -1       383-2.90664E+05-4.11846E+04-3.20970E+02-1.09272E+05-9.48645E-06 3.55817E-06
 -1       384-2.90841E+05-4.07918E+04-4.76658E+02-1.09018E+05-4.77076E-06 1.78823E-06
 -1       385-2.90899E+05-4.15032E+04-1.13268E+03-1.09187E+05-3.06597E-08 9.89556E-09
 -1       386-2.90628E+05-4.05057E+04-1.93910E+03-1.09097E+05-8.46882E-10-1.32673E-10
 -1       387-2.92319E+05-4.37508E+04-5.20285E+03-1.08703E+05 4.01201E-10 5.82872E-10
 -1       388-2.89422E+05-3.85475E+04-8.34182E+03-1.09501E+05-9.97375E-10 1.30649E-09
 -1       389-3.00826E+05-5.84435E+04-2.46795E+04-1.05840E+05-2.86309E-09 9.49512E-10
 -1       390-2.82127E+05-2.58350E+04-3.55838E+04-1.11953E+05-2.17733E-09 4.16549E-10
 -1       406 5.13965E+02 1.65622E+05 1.05812E+03-1.51383E+04-4.97494E-10 1.48930E-09
 -1       407 2.99479E+02 1.65810E+05 1.17178E+03-1.66488E+04 1.44723E-10-9.02673E-11
 -1       408 4.37564E+02 1.65605E+05 1.83676E+03-1.50797E+04-6.18229E-10 1.32331E-10
 -1       409 1.75736E+03 1.66309E+05 3.88401E+03-1.67322E+04 5.91172E-11-1.60071E-10
 -1       410 5.08942E+03 1.65112E+05 7.79850E+03-1.50530E+04-7.56700E-10 2.53294E-10
 -1       466 5.88420E+05-2.36538E+04 5.49782E+04 2.08054E+03-4.28599E-11-1.66256E-09
 -1       467 6.12561E+05 2.73844E+04 3.89174E+04-4.16461E+03-1.16053E-10 1.09367E-09
 -1       468 5.97730E+05-3.68644E+03 1.42534E+04 8.92145E+02 2.14598E-10-4.75666E-10
 -1       469 6.01712E+05 4.26713E+03 8.98016E+03-2.39218E+03 9.13225E-11-1.11777E-09
 -1       470 5.99270E+05-5.74735E+02 3.71628E+03 3.08165E+02 2.19380E-10 1.08071E-09
 -1       471 5.99924E+05 6.85253E+02 2.29808E+03-1.54280E+03 1.85336E-10 1.25328E-09
 -1       472 5.99519E+05-1.09316E+02 1.28028E+03 4.27493E+01 4.71886E-10 7.40386E-11
 -1       473 5.99700E+05 2.64193E+02 1.30724E+03-1.20956E+03 5.30197E-10-1.47006E-09
 -1       474 5.99494E+05-1.53996E+02 1.68796E+03-2.50829E+01 6.22595E-11 3.10649E-10
 -1       475 6.00123E+05 1.07081E+03 3.47339E+03-1.24110E+03 5.31668E-10 8.46285E-10
 -1       476 5.99094E+05-9.14748E+02 5.83933E+03 7.42867E+01 8.38664E-10 6.49607E-10
 -1       477 6.02937E+05 6.80563E+03 1.42612E+04-1.65244E+03 9.02425E-11-8.49695E-10
 -1       478 5.96677E+05-5.87937E+03 2.27152E+04 3.86273E+02-1.60604E-10-7.91260E-11
 -1       479 6.20035E+05 4.36556E+04 6.19887E+04-2.64850E+03 6.16922E-10-1.67347E-10
 -1       480 5.81990E+05-3.76956E+04 8.77123E+04 1.07030E+03 1.32295E-09-1.02955E-09
 -1       481-4.54411E+03 9.40899E+04 1.06291E+04-5.64509E+02 4.32010E-11 4.81592E-10
 -1       482 5.45336E+03 9.88781E+04 7.87269E+03 1.59333E+03-3.94493E-11 2.15221E-09
 -1       483-9.02589E+02 9.57888E+04 3.43728E+03-4.46532E+02-1.36424E-12 1.23654E-09
 -1       484 2.29215E+03 9.73695E+04 3.73464E+03 1.40505E+03 1.45057E-11 3.00219E-10
 -1       485-1.38703E+03 9.55963E+04 3.52603E+03-3.76235E+02 3.99041E-11-4.85379E-10
 -1       486-5.48132E+05-5.89361E+04-5.18901E+04-2.17216E+05-5.34783E-10-1.20781E-09
 -1       487-5.80732E+05-1.00999E+05-3.59703E+04-2.02048E+05 8.29459E-10 2.27874E-09
 -1       488-5.58462E+05-7.77098E+04-1.21639E+04-2.13918E+05-3.15822E-10-5.40240E-10
 -1       489-5.67806E+05-7.99819E+04-7.55831E+03-2.06652E+05 1.30740E-11-1.31081E-09
 -1       490-5.61041E+05-7.99244E+04-2.87964E+03-2.12617E+05-1.43558E-10-1.59844E-09
 -1       491-5.63543E+05-7.86111E+04-1.60006E+03-2.09480E+05 1.18293E-09-4.53610E-10
 -1       492-5.62710E+05-7.90845E+04-8.30240E+02-2.11082E+05 1.06769E-09-2.67448E-11
 -1       493-5.60715E+05-8.07307E+04-5.67482E+02-2.12511E+05-1.46812E-10 4.57590E-10
 -1       494-5.63871E+05-7.78040E+04-7.28358E+02-2.09588E+05 1.51687E-10 7.70939E-11
 -1       495-5.59301E+05-8.30357E+04-1.43081E+03-2.14719E+05-6.21398E-10-2.37404E-09
 -1       496-5.64135E+05-7.67710E+04-2.42401E+03-2.08882E+05 6.61032E-10-1.19860E-09
 -1       497-5.60723E+05-8.62239E+04-6.44310E+03-2.14610E+05 4.43606E-10 9.87711E-10
 -1       498-5.62454E+05-7.46174E+04-1.03506E+04-2.09698E+05-6.68933E-10 1.08093E-09
 -1       499-5.72325E+05-1.03069E+05-3.05015E+04-2.09489E+05 2.84672E-10 1.33514E-09
 -1       500-5.52534E+05-5.99613E+04-4.41280E+04-2.13988E+05 4.56566E-10 3.27418E-10
 -1       501-1.61807E+05-8.92039E+03 2.07343E+04 8.27650E+01 6.56328E-10 1.10958E-10
 -1       502-1.52720E+05 1.03295E+04 1.46666E+04-8.62907E+02 4.29878E-10 2.34877E-10
 -1       503-1.58331E+05-1.39178E+03 5.36361E+03 2.45681E+02-2.31779E-10-5.13410E-10
 -1       504-1.56781E+05 1.61025E+03 3.37134E+03-1.14682E+03-3.47512E-10-3.42880E-10
 -1       505-1.57750E+05-2.16305E+02 1.36845E+03 3.66692E+02 2.75868E-10 4.61000E-10
 -1       506-1.57467E+05 2.51134E+02 8.01193E+02-1.33022E+03 7.98416E-10-2.27374E-13
 -1       507-1.57647E+05-3.41043E+01 3.59034E+02 4.29083E+02 1.34200E-09 1.29545E-09
 -1       508-1.57583E+05 4.54782E+01 2.21914E+02-1.38926E+03 1.60368E-09-4.79641E-10
 -1       509-1.57634E+05-1.06453E+01 1.44322E+02 4.25731E+02 1.23132E-09 1.35376E-09
 -1       510-1.57575E+05 4.84171E+01 1.81509E+02-1.31717E+03 7.09257E-10 9.02373E-10
 -1       511-1.57655E+05-3.74007E+01 2.50220E+02 3.56999E+02 3.46894E-10 8.43045E-10
 -1       512-1.57444E+05 2.72936E+02 5.84921E+02-1.12186E+03 3.07097E-10 2.81702E-10
 -1       513-1.57763E+05-2.35678E+02 9.06240E+02 2.30417E+02 3.20952E-10 8.66862E-10
 -1       514-1.56737E+05 1.74526E+03 2.48692E+03-8.24903E+02-7.14486E-11 2.64237E-10
 -1       515-1.58360E+05-1.50806E+03 3.49272E+03 6.00320E+01-6.91074E-11-3.42197E-10
 -1       516-2.01627E+04 1.23157E+05 4.74387E+04 1.94897E+03-1.40062E-10 1.53466E-09
 -1       517 2.47859E+04 1.44374E+05 3.60845E+04-8.94964E+03 1.45519E-11 1.68901E-09
 -1       518-4.56500E+03 1.30419E+05 1.74171E+04 1.81322E+03-6.68479E-10 1.51524E-09
 -1       519 1.44760E+04 1.39665E+05 2.26146E+04-9.02100E+03 3.90742E-10 2.52736E-10
 -1       520-9.87472E+03 1.27868E+05 2.41905E+04 2.02031E+03-4.92946E-10-8.15248E-10
 -1       521-1.12056E+06-1.43108E+05-7.86093E+04-4.32685E+05 2.40107E-10-1.63709E-10
 -1       522-1.14366E+06-1.98954E+05-4.96080E+04-4.37989E+05 1.82467E-11 1.11868E-10
 -1       523-1.13431E+06-1.60842E+05-1.85493E+04-4.30513E+05 6.97611E-11-2.26464E-10
 -1       524-1.12777E+06-1.75974E+05-1.01980E+04-4.41764E+05-2.70347E-10-1.02114E-09
 -1       525-1.13599E+06-1.62640E+05-4.31800E+03-4.30218E+05 2.17597E-10-1.66892E-10
 -1       526-1.12583E+06-1.73700E+05-2.29361E+03-4.42259E+05 1.06274E-09 6.99345E-10
 -1       527-1.13623E+06-1.62792E+05-1.18274E+03-4.30150E+05 4.27121E-10 5.06446E-10
 -1       528-1.12560E+06-1.73514E+05-9.43665E+02-4.42332E+05 5.34257E-11 3.76929E-10
 -1       529-1.13622E+06-1.62801E+05-1.14585E+03-4.30158E+05 4.25985E-10 1.13323E-09
 -1       530-1.12585E+06-1.73656E+05-2.19127E+03-4.42222E+05-5.55303E-10 4.33147E-10
 -1       531-1.13597E+06-1.62677E+05-4.11063E+03-4.30243E+05-1.27670E-10-6.40284E-10
 -1       532-1.12773E+06-1.75780E+05-9.69851E+03-4.41703E+05-1.88493E-10-2.28670E-09
 -1       533-1.13435E+06-1.60989E+05-1.76377E+04-4.30547E+05-4.03134E-10-2.11003E-10
 -1       534-1.14288E+06-1.97581E+05-4.71656E+04-4.38056E+05 3.56010E-10-6.51198E-10
 -1       535-1.12125E+06-1.44159E+05-7.47402E+04-4.32642E+05-6.80302E-10-1.63709E-09
 -1       536 2.75124E+04-4.83703E+03 2.09173E+04-2.90305E+03 8.95852E-11 4.67480E-10
 -1       537 3.50951E+04 6.54964E+03 1.33985E+04-1.12807E+04-9.50422E-10 5.42059E-10
 -1       538 3.06628E+04-5.05056E+02 5.41580E+03-2.86685E+03-1.40972E-11-6.88260E-10
 -1       539 3.15607E+04 6.38151E+02 3.02220E+03-1.13165E+04 5.29553E-10-1.44291E-09
 -1       540 3.10166E+04-5.80393E+01 1.36611E+03-2.86638E+03 3.02407E-11-1.93154E-10
 -1       541 3.11413E+04 6.07449E+01 7.20474E+02-1.13145E+04-2.26123E-10-4.90388E-10
 -1       542 3.10606E+04-7.56118E+00 3.41272E+02-2.86885E+03 1.64846E-11 4.15184E-10
 -1       543 3.10778E+04 7.76249E+00 1.76034E+02-1.13107E+04 7.70797E-11-3.06869E-10
 -1       544 3.10666E+04-2.52573E-01 8.51104E+01-2.87016E+03 2.52385E-11-5.87050E-10
 -1       545 3.10652E+04 3.91474E+00 4.33973E+01-1.13092E+04-2.92282E-10 9.34477E-10
 -1       546 3.10678E+04 7.23340E-01 2.09988E+01-2.87037E+03 5.61897E-11 5.98163E-10
 -1       547 3.10656E+04 2.51264E+00 1.03459E+01-1.13084E+04-4.95959E-11-3.83437E-10
 -1       548 3.10692E+04-5.02986E-01 3.64329E+00-2.87093E+03-2.50338E-10 6.43539E-10
 -1       549 3.10728E+04-1.46686E+00 3.62493E-01-1.12873E+04-1.01579E-10 5.45072E-10
 -1       550 3.10717E+04-3.03688E+00-5.11433E+00-2.89146E+03-9.70886E-11 1.19434E-09
 -1       551 4.66839E+03-1.09955E+05 1.05560E+04-1.68892E+05 1.23691E-09 8.74934E-10
 -1       552 2.03513E+03-1.08059E+05 8.30077E+03-1.97593E+05 9.34961E-10 6.82121E-10
 -1       553 1.22736E+03-1.09620E+05 9.65832E+03-1.68611E+05 1.35333E-09-2.15778E-10
 -1       554 5.74862E+03-1.05931E+05 1.81399E+04-1.97643E+05 1.12232E-09 5.12955E-10
 -1       555 1.66839E+04-1.12177E+05 3.44289E+04-1.68829E+05 1.29148E-09-7.94898E-10
 -1       556-8.05944E+04-4.29604E+04 6.94020E+03-7.69499E+04 3.98359E-10-7.03949E-10
 -1       557-7.40920E+04-5.00646E+04 3.40896E+03-8.20587E+04 2.06455E-10 7.13044E-10
 -1       558-8.06849E+04-4.52907E+04 1.43695E+03-7.55476E+04-1.96451E-10 5.07953E-10
 -1       559-7.46682E+04-5.12273E+04 7.03407E+02-8.22630E+04 7.93079E-10 1.36799E-09
 -1       560-8.07235E+04-4.53337E+04 3.14058E+02-7.55056E+04-2.42653E-09-7.08394E-09
 -1       561-7.47590E+04-5.12644E+04 1.46883E+02-8.23308E+04 2.18279E-11-6.27594E-10
 -1       562-8.07571E+04-4.53052E+04 5.11441E+01-7.55286E+04-1.17325E-10 7.58064E-10
 -1       563-7.47982E+04-5.12478E+04-7.62244E+00-8.23599E+04-1.77351E-10-5.98675E-10
 -1       564-8.07749E+04-4.52872E+04-7.41597E+01-7.55436E+04-7.82620E-10-3.18778E-10
 -1       565-7.48243E+04-5.12388E+04-1.86663E+02-8.23743E+04 1.10208E-09 8.80709E-09
 -1       566-8.07694E+04-4.52774E+04-3.97223E+02-7.55470E+04-5.15229E-10-2.89674E-10
 -1       567-7.48992E+04-5.12788E+04-8.78121E+02-8.23684E+04-1.98952E-10-1.36197E-09
 -1       568-8.07084E+04-4.54111E+04-1.80392E+03-7.54818E+04-3.67436E-10 1.79170E-10
 -1       569-7.58974E+04-5.23720E+04-4.25590E+03-8.20883E+04-5.41149E-11 1.34696E-09
 -1       570-8.03432E+04-4.87369E+04-8.68510E+03-7.40883E+04-2.66391E-09-7.30711E-09
 -1       571 1.05323E+05 5.22171E+03 8.00093E+03-2.72931E+04 8.68567E-11-3.52884E-10
 -1       572 1.06549E+05 1.78271E+03 3.92991E+03-3.00883E+04 1.99179E-10-1.00169E-09
 -1       573 1.05825E+05 3.99875E+02 1.74844E+03-2.72185E+04 1.41881E-10 5.53882E-10
 -1       574 1.05970E+05 1.24425E+02 8.77778E+02-3.01713E+04 2.47041E-10-5.66160E-10
 -1       575 1.05882E+05 1.06415E+01 4.15330E+02-2.72089E+04 6.95763E-11 1.40062E-10
 -1       576 1.05896E+05-4.26097E-01 2.12270E+02-3.01821E+04 7.89839E-11 7.16454E-10
 -1       577 1.05890E+05-6.72654E+00 1.06252E+02-2.72077E+04-1.51203E-11-6.25732E-10
 -1       578 1.05887E+05-4.61631E+00 6.08723E+01-3.01833E+04-3.17982E-10-1.81626E-09
 -1       579 1.05895E+05-5.79112E+00 4.29256E+01-2.72077E+04-3.70846E-10-8.95852E-10
 -1       580 1.05893E+05-5.35866E+00 4.91545E+01-3.01817E+04-8.00355E-11-1.05229E-09
 -1       581 1.05901E+05-5.60330E+00 7.73610E+01-2.72093E+04-1.91449E-10-7.95580E-10
 -1       582 1.05916E+05 1.13675E+01 1.53950E+02-3.01652E+04-1.73713E-10 2.92857E-10
 -1       583 1.05902E+05 5.54240E+01 3.01121E+02-2.72241E+04-1.72804E-10 3.39583E-10
 -1       584 1.06028E+05 2.89561E+02 6.74891E+02-3.00391E+04-6.73026E-10-2.17710E-10
 -1       585 1.05829E+05 8.77184E+02 1.37159E+03-2.73358E+04 1.78716E-10 7.36691E-11
 -1       586 8.42696E+02 4.24402E+04 1.55537E+03-6.98865E+04 1.88720E-10-3.51974E-10
 -1       587 4.47510E+02 4.27094E+04 1.48367E+03-7.72606E+04 2.43290E-10-6.94854E-10
 -1       588 5.30007E+02 4.24336E+04 2.10965E+03-6.97981E+04 1.71440E-10 4.52701E-10
 -1       589 1.97411E+03 4.32311E+04 4.32338E+03-7.72819E+04 1.94632E-10-7.78300E-10
 -1       590 5.63366E+03 4.19054E+04 8.61267E+03-6.98643E+04 2.08502E-10 1.08730E-09
 -1       591-4.89109E+04-1.69635E+04-9.19309E+03-2.55039E+04 7.76197E-11-1.72804E-11
 -1       592-4.91554E+04-1.58562E+04-4.50638E+03-2.82791E+04-9.54969E-12-2.78419E-10
 -1       593-4.91780E+04-1.35415E+04-1.91196E+03-2.70630E+04-1.11072E-10-2.07251E-10
 -1       594-4.81732E+04-1.46127E+04-9.35319E+02-2.84494E+04-2.79954E-10 7.23531E-10
 -1       595-4.92220E+04-1.34141E+04-4.30787E+02-2.71332E+04-3.21734E-11-2.56051E-10
 -1       596-4.80988E+04-1.45633E+04-2.18973E+02-2.84435E+04 1.67972E-10-7.79551E-10
 -1       597-4.92304E+04-1.34203E+04-1.20164E+02-2.71337E+04 1.11839E-10-7.20547E-10
 -1       598-4.80915E+04-1.45639E+04-9.79083E+01-2.84404E+04 6.07372E-11-7.04858E-12
 -1       599-4.92298E+04-1.34202E+04-1.26430E+02-2.71335E+04 1.91562E-11 1.88379E-10
 -1       600-4.80992E+04-1.45636E+04-2.35634E+02-2.84433E+04-6.68479E-11-4.27690E-10
 -1       601-4.92194E+04-1.34136E+04-4.66025E+02-2.71325E+04-3.45835E-10 5.82759E-10
 -1       602-4.81802E+04-1.46166E+04-1.01364E+03-2.84484E+04 2.46700E-11 1.08639E-09
 -1       603-4.91708E+04-1.35530E+04-2.07246E+03-2.70569E+04-3.76076E-10 1.15801E-09
 -1       604-4.92517E+04-1.59569E+04-4.88486E+03-2.82544E+04-6.91671E-10 2.36014E-10
 -1       605-4.88727E+04-1.72683E+04-9.96478E+03-2.53741E+04-1.36424E-11-3.81078E-10
 -1       606 3.39405E+04-4.16467E+03-6.37563E+03 9.97873E+03-2.13277E-09 6.93035E-10
 -1       607 3.29499E+04-1.42183E+03-3.13101E+03 1.08977E+04-8.31051E-10-3.27020E-10
 -1       608 3.35314E+04-3.18673E+02-1.39292E+03 9.91160E+03 1.34651E-09 1.30319E-09
 -1       609 3.34013E+04-9.59056E+01-6.98415E+02 1.09724E+04-7.26686E-10-9.69635E-10
 -1       610 3.34789E+04-4.63191E+00-3.29502E+02 9.90299E+03-2.30193E-09-1.40574E-09
 -1       611 3.34547E+04 6.47691E+00-1.66047E+02 1.09819E+04-4.06089E-09 1.00954E-10
 -1       612 3.34690E+04 1.07654E+01-7.89751E+01 9.90197E+03-1.54114E-09 1.49612E-10
 -1       613 3.34608E+04 1.01622E+01-3.68090E+01 1.09832E+04-2.29784E-09-3.85398E-11
 -1       614 3.34654E+04 8.86393E+00-1.15760E+01 9.90169E+03-1.49839E-10-3.27418E-10
 -1       615 3.34612E+04 9.88937E+00 7.63351E+00 1.09834E+04 1.34662E-09 6.73822E-10
 -1       616 3.34628E+04 9.95195E+00 3.02784E+01 9.90178E+03-1.39084E-09-6.51653E-10
 -1       617 3.34662E+04 2.08337E+01 7.23371E+01 1.09831E+04 3.06954E-10 1.19371E-09
 -1       618 3.34564E+04 4.36340E+01 1.48040E+02 9.90195E+03 9.48148E-11 6.40853E-10
 -1       619 3.35143E+04 1.63038E+02 3.35008E+02 1.09818E+04-3.27418E-10-1.87583E-11
 -1       620 3.34124E+04 4.55940E+02 6.83100E+02 9.90283E+03 4.28514E-10 1.86446E-10
 -1       621 8.36694E+02 1.09638E+05 2.04671E+03-1.03490E+04 9.16089E-10 5.26143E-10
 -1       622 3.16338E+02 1.10024E+05 1.67209E+03-1.21615E+04 3.47995E-10 8.61519E-10
 -1       623 1.83361E+02 1.09724E+05 2.03204E+03-1.03593E+04 8.91987E-10 1.09640E-09
 -1       624 1.14821E+03 1.10514E+05 3.89025E+03-1.21100E+04 3.57431E-10-3.50155E-10
 -1       625 3.53568E+03 1.09153E+05 7.42720E+03-1.04001E+04 8.06267E-10-5.86624E-11
 -1       626 4.78879E+04 1.57170E+04-2.81862E+03 3.26311E+04-1.08321E-09 1.13323E-09
 -1       627 4.65637E+04 1.77252E+04-1.33743E+03 3.32508E+04-8.64020E-10 6.78597E-10
 -1       628 4.79533E+04 1.70995E+04-5.61822E+02 3.19571E+04-2.94995E-09-7.73190E-09
 -1       629 4.67766E+04 1.82958E+04-2.69825E+02 3.32045E+04-2.58069E-10-1.74873E-09
 -1       630 4.79503E+04 1.71930E+04-1.19014E+02 3.19039E+04 2.76032E-09 3.18607E-09
 -1       631 4.67935E+04 1.83368E+04-5.34131E+01 3.32063E+04-9.90440E-10-6.28177E-10
 -1       632 4.79462E+04 1.71953E+04-1.50529E+01 3.19000E+04-1.12732E-09-3.61069E-10
 -1       633 4.67953E+04 1.83383E+04 1.28042E+01 3.32077E+04-3.40651E-09-6.46168E-09
 -1       634 4.79428E+04 1.71922E+04 4.73402E+01 3.18997E+04 7.25436E-10-1.39914E-09
 -1       635 4.68014E+04 1.83394E+04 1.13047E+02 3.32093E+04-3.12116E-09-8.15612E-09
 -1       636 4.79378E+04 1.71971E+04 2.37158E+02 3.18961E+04-1.94419E-09 5.92422E-10
 -1       637 4.68575E+04 1.84032E+04 5.30824E+02 3.31994E+04-3.90060E-09 9.06311E-10
 -1       638 4.79243E+04 1.73900E+04 1.10064E+03 3.18116E+04-6.66671E-09-1.03662E-08
 -1       639 4.74165E+04 1.93815E+04 2.61926E+03 3.29598E+04-4.23597E-09-5.68889E-10
 -1       640 4.79460E+04 2.02185E+04 5.52076E+03 3.06357E+04-8.76071E-10 3.04453E-10
 -1       641 5.98358E+02 1.02494E+03-2.38424E+03-5.70393E+01-2.75328E-09 4.80100E-10
 -1       642-4.31208E+02-1.18676E+03-1.68328E+03 2.41614E+02-1.22048E-09 8.82210E-11
 -1       643 2.00757E+02 1.59768E+02-6.14876E+02-5.68410E+01-3.11362E-09-1.15250E-10
 -1       644 3.15606E+01-1.84361E+02-3.81603E+02 2.41388E+02 1.09005E-09 4.63636E-10
 -1       645 1.35507E+02 2.44284E+01-1.47601E+02-5.68145E+01 3.82864E-10-7.40272E-10
 -1       646 1.08874E+02-2.58093E+01-7.05640E+01 2.41339E+02-3.53986E-08-2.96787E-10
 -1       647 1.23403E+02 1.51013E+00-1.25967E+00-5.67919E+01-4.72548E-06 2.52103E-09
 -1       648 1.30236E+02 1.29530E+01 6.24818E+01 2.41315E+02-9.39099E-06 5.99068E-09
 -1       649 1.14132E+02-1.42741E+01 1.43123E+02-5.67907E+01-4.72559E-06 2.02342E-09
 -1       650 1.82579E+02 1.10508E+02 3.46506E+02 2.41288E+02-3.24102E-08-6.93653E-10
 -1       651 7.10731E+01-9.59139E+01 6.04462E+02-5.67646E+01-4.30785E-10-5.31372E-10
 -1       652 4.79050E+02 7.15031E+02 1.49299E+03 2.41152E+02 1.39187E-09-1.75726E-09
 -1       653-1.82295E+02-6.17799E+02 2.38309E+03-5.66560E+01-1.54133E-10-1.66108E-09
 -1       654 2.27171E+03 4.58659E+03 6.50892E+03 2.40411E+02 3.44310E-10 1.28694E-09
 -1       655-1.72143E+03-3.96040E+03 9.21094E+03-5.60269E+01-9.76010E-10-5.07953E-10
 -1       656 3.29643E+03-1.25433E+05-1.48180E+04 3.50068E+03 3.21506E-09-1.08912E-10
 -1       657-4.85602E+03-1.30842E+05-1.07932E+04 1.35671E+04 2.68074E-09 1.76018E-09
 -1       658 6.32876E+02-1.27357E+05-6.85718E+03 3.47850E+03 3.58699E-09 6.30337E-10
 -1       659-4.42383E+03-1.30589E+05-1.00288E+04 1.35797E+04 3.17914E-09 7.78006E-10
 -1       660 2.95132E+03-1.25691E+05-1.33711E+04 3.48823E+03 3.01270E-09-5.07441E-10
 -1       661 1.23778E+05 1.57378E+04 1.01330E+04 4.82867E+04 1.17120E-09-1.09549E-09
 -1       662 1.26167E+05 2.35318E+04 6.39528E+03 4.96579E+04-7.11282E-10 8.60382E-10
 -1       663 1.25527E+05 1.80473E+04 2.39287E+03 4.80350E+04 8.19369E-10 2.45791E-10
 -1       664 1.24156E+05 2.05324E+04 1.31775E+03 5.00931E+04-3.57925E-09-3.63542E-10
 -1       665 1.25726E+05 1.82971E+04 5.61152E+02 4.80161E+04-4.66372E-09-1.55055E-09
 -1       666 1.23928E+05 2.02159E+04 3.04919E+02 5.01261E+04-3.42209E-09-1.15680E-09
 -1       667 1.25749E+05 1.83251E+04 1.70415E+02 4.80162E+04 1.08848E-09 3.67457E-10
 -1       668 1.23906E+05 2.01872E+04 1.60456E+02 5.01270E+04-2.42985E-09-8.60382E-10
 -1       669 1.25747E+05 1.83232E+04 2.25235E+02 4.80161E+04 2.82100E-10-2.16389E-09
 -1       670 1.23947E+05 2.02366E+04 4.56832E+02 5.01255E+04 4.07691E-09 1.50038E-10
 -1       671 1.25709E+05 1.82796E+04 8.68537E+02 4.80164E+04 7.98309E-10-4.24433E-09
 -1       672 1.24306E+05 2.07313E+04 2.05720E+03 5.00727E+04-6.33946E-11 1.57911E-10
 -1       673 1.25397E+05 1.78892E+04 3.74139E+03 4.80465E+04-4.95401E-10-7.06677E-10
 -1       674 1.27451E+05 2.54254E+04 1.00047E+04 4.93929E+04-1.52598E-09-9.46784E-10
 -1       675 1.22662E+05 1.42746E+04 1.58527E+04 4.84381E+04-2.14254E-09-1.83445E-09
 -1       676 3.30114E+02-1.18636E+05-1.72008E+03 3.51253E+01 1.44991E-09-1.56465E-09
 -1       677-6.51656E+02-1.19293E+05-1.86588E+03-2.22153E+01 2.30315E-10 3.26306E-10
 -1       678 2.05248E+02-1.18714E+05-2.21586E+03 3.50180E+01 3.50713E-09 7.87955E-10
 -1       679-2.34103E+03-1.20297E+05-4.86274E+03-2.21805E+01-2.44427E-09-1.75948E-12
 -1       680 1.69109E+03-1.17632E+05-7.38882E+03 3.49413E+01 3.54521E-09-1.05943E-09
 -1       681 1.97216E+05-5.22628E+03 1.21552E+04 2.58454E+02-7.37188E-11-4.09273E-11
 -1       682 2.02483E+05 6.05214E+03 8.59493E+03-7.00660E+02 1.84642E-10-6.06974E-10
 -1       683 1.99251E+05-8.15260E+02 3.15261E+03 1.64441E+02-2.61977E-11 5.93445E-11
 -1       684 2.00113E+05 9.44276E+02 1.98768E+03-5.50672E+02 2.70214E-10 1.16984E-10
 -1       685 1.99586E+05-1.27560E+02 8.29983E+02 1.08468E+02 3.25215E-11 1.75646E-11
 -1       686 1.99725E+05 1.54089E+02 5.26372E+02-4.67570E+02-2.56069E-09-2.26123E-10
 -1       687 1.99639E+05-2.63076E+01 3.18210E+02 8.13371E+01-3.62340E-07 3.93928E-10
 -1       688 1.99684E+05 7.41489E+01 3.66566E+02-4.38112E+02-7.20040E-07 7.11964E-12
 -1       689 1.99627E+05-4.77182E+01 5.14121E+02 7.90098E+01-3.62175E-07 6.92609E-10
 -1       690 1.99824E+05 3.38999E+02 1.09214E+03-4.57982E+02-2.31342E-09-4.86580E-11
 -1       691 1.99499E+05-2.90791E+02 1.85034E+03 1.01207E+02 1.66599E-10-4.39968E-11
 -1       692 2.00719E+05 2.16415E+03 4.53051E+03-5.30180E+02 2.83896E-10-9.73159E-11
 -1       693 1.98732E+05-1.86986E+03 7.21974E+03 1.51210E+02-8.44125E-11-2.50566E-10
 -1       694 2.06146E+05 1.38826E+04 1.97066E+04-6.67793E+02-1.36282E-10 1.00727E-10
 -1       695 1.94071E+05-1.19875E+04 2.78853E+04 2.38814E+02 3.14394E-10-4.29281E-10
 -1       696-4.09730E+03 1.69166E+05 9.38286E+03 2.75071E+02 1.63709E-11-5.38670E-10
 -1       697 4.42875E+03 1.73123E+05 6.04867E+03-1.57952E+03 6.50289E-11-1.83281E-10
 -1       698-3.22398E+02 1.70916E+05 1.22892E+03 2.40327E+02-7.48059E-11 4.07659E-10
 -1       699-1.65910E+03 1.70303E+05-1.90946E+03-1.58245E+03-1.09992E-10 9.56259E-10
 -1       700 1.97938E+03 1.71986E+05-4.32604E+03 2.78001E+02-6.79847E-11 3.02048E-10
 -1       701-1.80780E+05-1.64984E+04-2.30257E+04-7.18149E+04-3.10138E-10-5.89353E-10
 -1       702-1.92891E+05-3.75767E+04-1.59687E+04-6.78368E+04-2.04750E-10 1.73713E-10
 -1       703-1.85517E+05-2.47061E+04-5.40045E+03-7.02091E+04-8.62883E-11 2.64890E-10
 -1       704-1.87356E+05-2.81036E+04-3.37072E+03-6.97261E+04 1.43103E-11-2.00089E-11
 -1       705-1.86313E+05-2.59573E+04-1.26499E+03-6.99305E+04-6.36788E-11 1.47338E-10
 -1       706-1.86411E+05-2.66837E+04-7.54886E+02-7.00740E+04-2.48576E-10-1.64839E-10
 -1       707-1.86462E+05-2.61239E+04-3.51335E+02-6.98620E+04 9.12017E-11-2.01567E-10
 -1       708-1.86246E+05-2.65319E+04-3.09744E+02-7.01612E+04-2.31469E-09 1.04866E-09
 -1       709-1.86478E+05-2.61088E+04-3.45174E+02-6.98434E+04-3.23668E-07 1.21229E-07
 -1       710-1.86349E+05-2.67362E+04-7.36813E+02-7.01444E+04-6.42910E-07 2.41441E-07
 -1       711-1.86358E+05-2.59198E+04-1.23097E+03-6.98787E+04-3.23739E-07 1.21072E-07
 -1       712-1.87223E+05-2.81639E+04-3.28041E+03-6.98598E+04-2.08831E-09 1.07752E-09
 -1       713-1.85604E+05-2.46832E+04-5.25356E+03-7.01274E+04-2.69210E-10 1.44382E-10
 -1       714-1.92577E+05-3.74102E+04-1.55356E+04-6.80564E+04 1.94348E-10-3.16277E-10
 -1       715-1.81008E+05-1.66875E+04-2.24001E+04-7.16772E+04-1.56433E-10 2.82853E-10
 -1       716 4.11567E+04-6.07290E+03 1.41178E+04 2.91126E+02 1.67077E-10 2.81943E-11
 -1       717 4.73250E+04 7.03242E+03 9.98953E+03-1.16029E+03-7.26708E-11 1.16529E-10
 -1       718 4.35280E+04-9.47440E+02 3.66325E+03 2.53864E+02-1.23833E-10 8.64020E-11
 -1       719 4.45589E+04 1.09794E+03 2.31567E+03-1.10162E+03-7.84119E-11-3.50610E-10
 -1       720 4.39216E+04-1.48601E+02 9.74260E+02 2.32456E+02 4.15451E-10 3.15140E-10
 -1       721 4.41033E+04 1.82361E+02 6.33968E+02-1.07246E+03 7.77381E-10 3.11779E-10
 -1       722 4.39831E+04-3.30283E+01 4.11835E+02 2.24708E+02 5.34509E-10 2.77531E-10
 -1       723 4.40662E+04 1.05350E+02 5.18652E+02-1.07023E+03-9.47260E-11 5.48255E-10
 -1       724 4.39587E+04-7.16964E+01 7.65212E+02 2.30219E+02 6.47258E-10 3.31625E-10
 -1       725 4.42915E+04 5.16029E+02 1.65714E+03-1.09478E+03 4.03304E-10 3.35376E-10
 -1       726 4.37583E+04-4.43427E+02 2.81564E+03 2.49259E+02 6.95231E-10 1.78716E-10
 -1       727 4.56715E+04 3.30077E+03 6.91116E+03-1.14771E+03 1.06346E-09 4.52133E-10
 -1       728 4.25797E+04-2.85244E+03 1.10060E+04 2.83152E+02 3.89925E-10-2.76941E-10
 -1       729 5.39739E+04 2.11760E+04 3.00643E+04-1.24024E+03 8.86189E-11-5.87988E-10
 -1       730 3.54595E+04-1.82863E+04 4.25261E+04 3.41769E+02 7.57353E-10-3.03771E-10
 -1       731-7.25470E+03 7.13466E+04 1.69104E+04 5.02811E+02-1.88265E-10-2.67292E-10
 -1       732 8.51452E+03 7.87134E+04 1.21342E+04-2.30214E+03 1.36424E-11-7.99150E-11
 -1       733-1.24311E+03 7.41173E+04 4.73912E+03 4.89164E+02-2.41243E-10 4.45585E-10
 -1       734 2.15868E+03 7.57784E+04 3.82701E+03-2.32359E+03 1.15165E-10 9.02931E-10
 -1       735-9.10937E+02 7.42822E+04 2.59417E+03 5.24259E+02-1.55694E-10 6.01496E-10
 -1       736-4.10396E+05-4.61726E+04-3.02582E+04-1.59438E+05-7.68068E-10-4.36557E-11
 -1       737-4.26939E+05-7.32386E+04-2.09857E+04-1.53477E+05 4.25644E-10-7.32143E-10
 -1       738-4.16624E+05-5.69581E+04-7.09542E+03-1.57325E+05-1.67802E-10-4.50200E-11
 -1       739-4.19580E+05-6.08648E+04-4.42775E+03-1.56047E+05-4.51621E-11-5.64455E-11
 -1       740-4.17749E+05-5.85277E+04-1.66108E+03-1.56873E+05 4.03361E-10 1.16415E-10
 -1       741-4.18150E+05-5.91790E+04-9.86667E+02-1.56710E+05 8.63665E-11 2.29079E-10
 -1       742-4.18053E+05-5.86411E+04-4.56041E+02-1.56662E+05 5.67315E-11-2.57074E-10
 -1       743-4.17731E+05-5.91767E+04-3.90083E+02-1.57056E+05-2.84839E-11 3.45332E-10
 -1       744-4.18167E+05-5.85295E+04-4.25524E+02-1.56528E+05-8.43450E-10-9.60014E-10
 -1       745-4.17717E+05-5.95636E+04-8.96698E+02-1.57200E+05-5.00222E-10-6.32895E-10
 -1       746-4.18067E+05-5.82544E+04-1.49433E+03-1.56517E+05-2.92999E-10-5.90660E-10
 -1       747-4.18757E+05-6.13172E+04-3.97959E+03-1.56881E+05-3.28455E-10 2.07592E-10
 -1       748-4.17129E+05-5.67785E+04-6.37249E+03-1.56847E+05-1.01011E-09-6.72117E-10
 -1       749-4.25352E+05-7.24316E+04-1.88454E+04-1.54574E+05-4.88058E-10-5.27280E-10
 -1       750-4.11478E+05-4.71572E+04-2.71742E+04-1.58818E+05-5.15683E-10 6.36646E-11
 -1       751 9.53828E+05-5.37919E+04 1.25227E+05 1.41900E+03-6.93709E-09 2.40107E-10
 -1       752 1.00802E+06 6.23007E+04 8.84754E+04-2.22954E+03-1.58659E-09-1.22600E-09
 -1       753 9.74765E+05-8.39080E+03 3.24362E+04 5.45487E+02 2.05851E-10 1.23691E-10
 -1       754 9.83667E+05 9.71313E+03 2.03645E+04-9.96644E+02 1.82425E-09 1.54046E-09
 -1       755 9.78209E+05-1.30620E+03 8.35062E+03 1.86201E+02-7.50868E-10-2.18279E-10
 -1       756 9.79667E+05 1.53115E+03 4.98519E+03-4.90417E+02-1.34607E-09-3.06443E-10
 -1       757 9.78775E+05-2.22872E+02 2.45816E+03 3.92560E+01-4.62480E-10 2.59320E-10
 -1       758 9.79074E+05 3.98137E+02 1.97118E+03-2.94596E+02-3.09508E-09 8.48104E-10
 -1       759 9.78804E+05-1.74871E+02 2.01782E+03-9.62416E+00-4.72945E-07-1.84065E-09
 -1       760 9.79442E+05 1.11647E+03 3.71351E+03-2.57268E+02-9.40055E-07 5.42514E-10
 -1       761 9.78406E+05-9.40071E+02 6.05785E+03 1.92811E+00-4.73126E-07-3.09228E-10
 -1       762 9.82299E+05 6.97601E+03 1.46509E+04-3.49858E+02-2.58389E-09 7.57609E-10
 -1       763 9.75939E+05-6.02424E+03 2.32999E+04 8.29671E+01 6.98617E-10 5.82986E-10
 -1       764 9.99758E+05 4.47227E+04 6.35139E+04-6.47719E+02-1.71880E-10 1.24692E-09
 -1       765 9.60925E+05-3.86145E+04 8.98887E+04 2.99778E+02-7.06248E-10-3.63798E-10
 -1       766-2.32236E+04 1.56647E+05 5.48065E+04-1.64606E+02-1.82263E-09-3.70548E-11
 -1       767 2.87376E+04 1.80985E+05 4.19897E+04-4.24612E+01-1.40517E-10-2.31648E-10
 -1       768-5.46171E+03 1.64780E+05 2.08194E+04-5.02067E+01-1.08867E-09 1.01480E-10
 -1       769 1.81290E+04 1.76072E+05 2.81214E+04-2.67469E+02-1.71212E-10 7.64697E-10
 -1       770-1.26353E+04 1.61558E+05 3.09083E+04 6.03692E+01-4.40195E-10 1.10183E-09
 -1       771-5.29202E+05-1.07136E+05-1.89516E+04-2.28980E+05 6.00267E-10-6.69388E-10
 -1       772-5.27920E+05-1.06566E+05-9.28392E+03-2.36662E+05-1.90084E-09-8.03607E-09
 -1       773-5.29911E+05-9.99472E+04-3.94437E+03-2.32072E+05 3.94721E-10-3.99268E-10
 -1       774-5.25801E+05-1.04135E+05-1.92647E+03-2.37210E+05 3.79259E-10-4.11660E-10
 -1       775-5.30049E+05-9.96478E+04-8.89122E+02-2.32221E+05 2.36469E-11-8.45830E-11
 -1       776-5.25667E+05-1.04037E+05-4.49170E+02-2.37245E+05 2.11003E-10-8.97671E-10
 -1       777-5.30100E+05-9.96421E+04-2.44507E+02-2.32236E+05-5.63887E-11-4.45198E-10
 -1       778-5.25672E+05-1.04031E+05-1.90867E+02-2.37264E+05-1.61890E-10-2.93952E-10
 -1       779-5.30122E+05-9.96295E+04-2.40199E+02-2.32246E+05 1.72804E-11-1.48589E-10
 -1       780-5.25702E+05-1.04026E+05-4.39715E+02-2.37286E+05 6.04814E-11-3.20597E-11
 -1       781-5.30116E+05-9.96088E+04-8.67802E+02-2.32251E+05 2.77396E-10 7.86713E-11
 -1       782-5.25860E+05-1.04124E+05-1.88606E+03-2.37305E+05 3.06954E-11-3.97904E-11
 -1       783-5.30031E+05-9.98642E+04-3.85666E+03-2.32112E+05-3.53282E-10-3.73348E-10
 -1       784-5.27846E+05-1.06630E+05-9.09324E+03-2.36958E+05-9.52696E-11 2.36469E-11
 -1       785-5.29484E+05-1.06773E+05-1.85512E+04-2.28968E+05 5.40012E-12 1.63709E-11
 -1       786 1.01724E+05-2.98733E+03 1.29690E+04-7.30503E+02 4.99085E-11 2.91038E-11
 -1       787 1.06394E+05 4.06834E+03 8.30414E+03-2.87362E+03-1.57172E-11-3.57431E-10
 -1       788 1.03679E+05-3.07095E+02 3.36074E+03-7.25413E+02-8.62883E-11 1.04365E-10
 -1       789 1.04217E+05 4.00389E+02 1.87571E+03-2.87748E+03 4.50200E-11 5.25432E-10
 -1       790 1.03901E+05-3.31607E+01 8.54015E+02-7.26533E+02 4.02736E-11 2.20666E-10
 -1       791 1.03967E+05 3.89580E+01 4.58586E+02-2.87577E+03 2.42764E-10-3.95175E-10
 -1       792 1.03929E+05-4.19023E+00 2.36191E+02-7.27122E+02 3.73390E-11 5.79917E-10
 -1       793 1.03936E+05 5.22701E+00 1.58976E+02-2.87538E+03-7.43068E-11 1.45118E-09
 -1       794 1.03931E+05-2.39438E+00 1.50073E+02-7.26925E+02-8.90736E-11-8.62691E-10
 -1       795 1.03946E+05 1.79678E+01 2.31741E+02-2.87669E+03 1.68654E-10 1.41598E-10
 -1       796 1.03919E+05-1.54305E+01 4.02357E+02-7.25807E+02-1.02887E-10-2.82114E-10
 -1       797 1.04060E+05 1.83479E+02 8.66345E+02-2.87903E+03-1.36311E-10-1.22330E-09
 -1       798 1.03818E+05-1.41280E+02 1.54525E+03-7.24587E+02-1.67461E-10 5.81508E-11
 -1       799 1.05060E+05 1.86711E+03 3.81345E+03-2.87468E+03-6.02995E-10-8.60382E-10
 -1       800 1.02920E+05-1.37195E+03 5.95381E+03-7.30221E+02-3.68914E-11-3.60615E-10
 -1       801-3.38929E+03 1.02114E+05 1.51173E+04-7.98264E+04 4.11092E-10-2.05182E-09
 -1       802 6.84195E+03 1.07378E+05 1.51854E+04-3.12664E+05-2.01089E-09-3.68664E-09
 -1       803-1.09308E+03 1.02830E+05 1.60937E+04-7.95664E+04 9.61336E-10-4.74245E-10
 -1       804 1.72816E+04 1.13664E+05 3.37504E+04-3.12652E+05-2.74667E-09-2.87991E-09
 -1       805-1.18550E+04 9.59205E+04 5.02233E+04-7.98401E+04 9.87711E-10 3.05590E-10
 -1       806-9.93531E+04-2.64722E+04-8.45139E+03-4.58118E+04 2.32774E-10 6.19366E-10
 -1       807-9.93925E+04-2.43378E+04-4.00974E+03-4.83962E+04 1.23009E-10 1.89175E-10
 -1       808-9.93080E+04-2.21557E+04-1.68606E+03-4.76306E+04-1.69280E-10-1.12720E-10
 -1       809-9.85572E+04-2.28214E+04-8.14906E+02-4.87453E+04-1.20508E-11-5.02268E-10
 -1       810-9.93283E+04-2.18606E+04-3.68557E+02-4.77629E+04-2.29420E-10 1.48361E-11
 -1       811-9.84749E+04-2.27210E+04-1.84932E+02-4.87592E+04-2.07393E-10 6.98549E-10
 -1       812-9.93350E+04-2.18519E+04-9.71173E+01-4.77690E+04 1.69379E-10 2.42949E-10
 -1       813-9.84663E+04-2.27181E+04-7.24617E+01-4.87572E+04 2.81091E-11 4.67026E-10
 -1       814-9.93349E+04-2.18528E+04-8.52857E+01-4.77687E+04 2.33626E-11 6.26528E-10
 -1       815-9.84726E+04-2.27212E+04-1.53563E+02-4.87577E+04 4.05180E-10 8.31051E-10
 -1       816-9.93281E+04-2.18607E+04-3.01019E+02-4.77632E+04-3.89036E-10 5.95492E-10
 -1       817-9.85405E+04-2.28015E+04-6.63408E+02-4.87433E+04 1.62345E-10-4.97266E-10
 -1       818-9.93095E+04-2.21033E+04-1.37134E+03-4.76571E+04 4.90672E-10-9.04720E-10
 -1       819-9.92344E+04-2.40186E+04-3.26048E+03-4.84405E+04-3.60956E-10-2.76486E-10
 -1       820-9.93298E+04-2.56263E+04-6.87148E+03-4.61935E+04-2.91948E-10 2.12708E-10
 -1       821-1.00587E+05 2.99319E+03-1.29978E+04 7.84345E+02-1.30012E-09 1.81899E-10
 -1       822-1.05265E+05-4.07744E+03-8.32279E+03 3.10376E+03-4.29736E-10 9.30868E-10
 -1       823-1.02547E+05 3.07345E+02-3.36932E+03 7.68386E+02-1.50555E-09-1.36197E-10
 -1       824-1.03086E+05-3.99988E+02-1.88180E+03 3.12336E+03-5.72828E-09-2.84473E-10
 -1       825-1.02769E+05 3.33684E+01-8.60381E+02 7.64638E+02-4.50206E-09-1.02943E-10
 -1       826-1.02837E+05-3.70715E+01-4.68575E+02 3.12923E+03-3.54601E-09-4.88427E-11
 -1       827-1.02797E+05 4.85073E+00-2.54658E+02 7.62491E+02-2.09542E-09 2.47155E-10
 -1       828-1.02809E+05-4.02030E+00-1.96335E+02 3.13270E+03-2.35242E-09-2.32362E-10
 -1       829-1.02798E+05 4.33318E+00-2.22540E+02 7.61165E+02 3.13989E-10 4.32150E-10
 -1       830-1.02830E+05-2.87961E+01-3.84147E+02 3.13421E+03 1.44071E-09 4.42242E-11
 -1       831-1.02776E+05 2.72177E+01-6.92049E+02 7.60979E+02-1.16763E-09-5.83128E-10
 -1       832-1.03029E+05-3.18293E+02-1.50602E+03 3.13334E+03-3.52337E-10-1.12550E-10
 -1       833-1.02599E+05 2.46338E+02-2.69303E+03 7.62054E+02-4.93259E-10 2.93767E-10
 -1       834-1.04772E+05-3.25633E+03-6.65060E+03 3.12470E+03-4.10182E-10-1.38868E-09
 -1       835-1.01033E+05 2.39258E+03-1.03852E+04 7.69825E+02 1.02858E-09-4.20641E-10
 -1       836-4.78510E+03 2.59074E+05 2.19017E+04-6.96717E+03-4.43833E-10 3.24917E-10
 -1       837 7.33506E+03 2.67128E+05 1.70235E+04-2.70929E+04 1.23856E-09-2.17142E-11
 -1       838-1.16204E+03 2.61659E+05 1.26116E+04-6.95065E+03-5.82190E-10 2.42622E-10
 -1       839 9.72723E+03 2.68549E+05 2.12672E+04-2.70925E+04 1.22873E-09-4.70379E-10
 -1       840-6.71065E+03 2.57652E+05 2.99312E+04-6.96752E+03-3.92902E-10 6.53927E-10
 -1       841-1.19327E+04 5.55736E+01-4.51321E+03-5.28330E+03-1.16870E-09 3.65617E-10
 -1       842-1.44265E+04-3.95708E+03-3.12926E+03-4.36893E+03-1.04831E-09 1.34690E-10
 -1       843-1.28502E+04-1.56382E+03-1.05746E+03-4.98101E+03 6.82263E-10 2.87400E-10
 -1       844-1.33619E+04-2.08027E+03-6.58126E+02-4.71645E+03 1.34270E-09-3.74968E-10
 -1       845-1.29969E+04-1.81844E+03-2.42730E+02-4.93686E+03-3.65773E-10-1.26917E-10
 -1       846-1.31916E+04-1.78395E+03-1.36070E+02-4.76646E+03-1.49776E-09-1.10431E-09
 -1       847-1.30205E+04-1.85973E+03-4.59777E+01-4.93117E+03-2.10829E-09-1.33930E-10
 -1       848-1.31613E+04-1.73104E+03-6.09918E+00-4.77333E+03-1.11168E-08 4.26656E-09
 -1       849-1.30273E+04-1.87128E+03 3.23321E+01-4.93002E+03-1.45217E-06 5.47524E-07
 -1       850-1.31342E+04-1.68688E+03 1.06816E+02-4.78010E+03-2.88743E-06 1.08604E-06
 -1       851-1.30476E+04-1.90383E+03 1.93731E+02-4.92442E+03-1.45436E-06 5.45100E-07
 -1       852-1.29936E+04-1.45126E+03 5.27882E+02-4.82310E+03-9.80189E-09 2.06087E-09
 -1       853-1.31678E+04-2.10657E+03 8.48303E+02-4.88714E+03-3.87629E-10 4.10694E-10
 -1       854-1.21336E+04 5.06368E+01 2.51184E+03-5.10705E+03 3.81803E-10 5.56383E-10
 -1       855-1.39073E+04-3.40349E+03 3.62210E+03-4.64129E+03-6.50971E-10 5.10681E-10
 -1       856-1.18829E+05 2.77245E+03-1.20439E+04 1.59192E+03-1.87515E-09 1.26010E-09
 -1       857-1.23161E+05-3.77379E+03-7.71090E+03 6.34354E+03-2.15226E-09-4.76575E-10
 -1       858-1.20646E+05 2.85197E+02-3.12174E+03 1.56544E+03-1.64800E-09-9.68384E-10
 -1       859-1.21145E+05-3.65040E+02-1.74234E+03 6.37683E+03 3.49189E-10-2.23380E-09
 -1       860-1.20852E+05 3.21859E+01-7.95143E+02 1.55841E+03 6.87237E-10-7.71649E-10
 -1       861-1.20917E+05-2.78012E+01-4.29710E+02 6.38675E+03-1.84104E-09-5.90660E-10
 -1       862-1.20879E+05 6.11265E+00-2.27309E+02 1.55547E+03 2.80272E-09-4.28855E-10
 -1       863-1.20891E+05 3.69192E+00-1.64136E+02 6.39037E+03 7.21423E-09 1.75788E-11
 -1       864-1.20880E+05 5.09288E+00-1.71645E+02 1.55479E+03 3.76974E-09-1.60547E-10
 -1       865-1.20905E+05-1.38152E+01-2.83244E+02 6.38921E+03 4.04359E-09-6.35467E-10
 -1       866-1.20864E+05 2.11502E+01-5.03312E+02 1.55664E+03-4.85215E-10-2.46473E-10
 -1       867-1.21046E+05-2.24063E+02-1.09049E+03 6.38242E+03-1.03469E-09-7.03210E-10
 -1       868-1.20736E+05 1.78767E+02-1.94893E+03 1.56160E+03 3.06181E-09-3.52770E-10
 -1       869-1.22303E+05-2.35050E+03-4.81036E+03 6.35502E+03-6.13966E-10-3.88695E-10
 -1       870-1.19602E+05 1.72973E+03-7.51275E+03 1.58423E+03 1.22293E-09-7.99446E-10
 -1       871-1.08561E+03-1.05606E+04-2.00497E+03 3.02434E+04 1.13937E-09-3.51520E-10
 -1       872-3.33518E+02-1.09163E+04-5.79333E+02 3.53603E+04 4.58840E-10-1.29342E-09
 -1       873 3.59201E+01-1.07789E+04 6.05467E+02 3.01850E+04 1.28659E-09-2.10207E-10
 -1       874 7.25719E+02-1.02999E+04 2.23680E+03 3.53868E+04 1.43973E-09 2.59654E-10
 -1       875 2.34644E+03-1.11857E+04 4.82639E+03 3.02184E+04 1.55569E-09 8.02743E-10
 -1       876 1.41399E+05 1.76928E+04 1.33932E+04 5.55161E+04 1.10174E-09-1.71349E-09
 -1       877 1.44461E+05 2.80933E+04 8.45290E+03 5.74423E+04-4.75097E-10-1.05058E-09
 -1       878 1.43710E+05 2.07460E+04 3.16195E+03 5.51837E+04-8.29687E-10-2.24804E-09
 -1       879 1.41804E+05 2.41273E+04 1.74034E+03 5.80149E+04-4.67696E-09-1.28540E-09
 -1       880 1.43971E+05 2.10779E+04 7.38525E+02 5.51600E+04-4.47250E-09-9.69294E-10
 -1       881 1.41504E+05 2.37065E+04 3.96385E+02 5.80550E+04-3.61135E-09-2.81607E-09
 -1       882 1.44000E+05 2.11164E+04 2.11609E+02 5.51614E+04 5.98817E-10 4.26226E-10
 -1       883 1.41475E+05 2.36650E+04 1.82204E+02 5.80532E+04-3.30230E-09-3.05832E-10
 -1       884 1.43998E+05 2.11166E+04 2.37743E+02 5.51623E+04-2.10633E-10-1.69109E-11
 -1       885 1.41516E+05 2.37131E+04 4.68707E+02 5.80503E+04 6.17784E-09 5.29397E-10
 -1       886 1.43960E+05 2.10725E+04 8.84999E+02 5.51629E+04 2.08810E-09-3.83864E-10
 -1       887 1.41881E+05 2.42161E+04 2.09242E+03 5.79969E+04 2.52825E-10-9.02901E-10
 -1       888 1.43643E+05 2.06751E+04 3.80405E+03 5.51931E+04 1.57681E-09-2.82398E-10
 -1       889 1.45079E+05 2.89881E+04 1.01713E+04 5.73063E+04-3.87558E-10-3.87899E-10
 -1       890 1.40863E+05 1.70004E+04 1.61162E+04 5.55916E+04-1.35265E-09-7.91260E-11
 -1       891 5.17893E+02-6.30534E+04-2.43788E+03 6.80445E+03 6.58815E-10-5.78211E-10
 -1       892-8.40250E+02-6.39375E+04-1.96313E+03 2.66315E+04 1.24487E-10 3.00020E-10
 -1       893 1.41524E+02-6.33269E+04-1.56611E+03 6.77682E+03 3.22262E-09 6.70269E-10
 -1       894-1.30786E+03-6.42139E+04-2.79185E+03 2.66296E+04 1.87947E-09-3.86933E-10
 -1       895 8.93499E+02-6.27753E+04-4.00586E+03 6.80632E+03 3.31693E-09 6.32781E-10
 -1       896 2.81546E+05-2.17322E+03 5.05336E+03 2.84455E+02 4.12825E-11-9.52923E-10
 -1       897 2.83727E+05 2.51644E+03 3.57562E+03-6.60914E+02-8.52651E-13-4.24109E-10
 -1       898 2.82395E+05-3.38986E+02 1.31279E+03 1.64750E+02 4.64837E-11-3.76019E-10
 -1       899 2.82738E+05 3.92862E+02 8.31391E+02-4.70031E+02 4.74074E-11-6.50857E-11
 -1       900 2.82535E+05-5.33263E+01 3.53942E+02 9.35704E+01-5.85061E-11-1.58593E-11
 -1       901 2.82577E+05 6.64269E+01 2.37960E+02-3.61228E+02-6.15614E-11 1.17188E-10
 -1       902 2.82556E+05-1.30231E+01 1.67945E+02 5.59456E+01 8.46541E-11 1.84907E-10
 -1       903 2.82568E+05 4.66631E+01 2.30756E+02-3.11754E+02-2.36218E-11 1.57018E-10
 -1       904 2.82544E+05-3.35722E+01 3.55972E+02 4.40956E+01-1.99587E-11 3.19503E-10
 -1       905 2.82673E+05 2.43896E+02 7.80802E+02-3.11455E+02 1.41079E-10 1.96209E-10
 -1       906 2.82452E+05-2.09966E+02 1.33318E+03 5.56469E+01-4.26317E-11 1.03910E-10
 -1       907 2.83318E+05 1.56345E+03 3.27117E+03-3.60333E+02-2.46452E-11 1.36140E-10
 -1       908 2.81898E+05-1.35091E+03 5.21571E+03 9.29738E+01-5.51559E-11 1.50976E-10
 -1       909 2.87237E+05 1.00297E+04 1.42369E+04-4.69445E+02 2.37698E-10-4.30191E-10
 -1       910 2.78531E+05-8.66058E+03 2.01468E+04 1.64758E+02 3.15492E-10-5.02041E-10
 -1       911 8.25121E+04-1.07594E+03 2.50203E+03 1.08219E+02 3.09335E-11-3.40833E-10
 -1       912 8.35974E+04 1.24600E+03 1.77151E+03-3.92023E+02 3.39373E-12-8.75389E-11
 -1       913 8.29317E+04-1.67934E+02 6.52456E+02 8.10901E+01 8.79190E-11 4.72085E-11
 -1       914 8.31086E+04 1.95057E+02 4.17552E+02-3.46522E+02-8.97495E-11 2.68358E-10
 -1       915 8.30009E+04-2.68255E+01 1.86389E+02 6.27170E+01 6.53291E-11 2.90989E-10
 -1       916 8.30303E+04 3.60308E+01 1.41941E+02-3.17429E+02 3.40144E-10 4.48686E-10
 -1       917 8.30099E+04-9.11898E+00 1.28305E+02 5.19961E+01 6.35088E-10 6.42464E-10
 -1       918 8.30357E+04 4.32955E+01 2.13562E+02-3.03004E+02 7.22280E-10 6.85166E-10
 -1       919 8.29954E+04-3.40631E+01 3.56551E+02 4.82917E+01 2.13886E-10 5.49718E-10
 -1       920 8.31460E+04 2.51489E+02 8.00984E+02-3.02364E+02-6.22960E-10 5.75255E-10
 -1       921 8.28996E+04-2.17005E+02 1.37517E+03 5.13562E+01-9.42810E-11 5.62466E-10
 -1       922 8.38139E+04 1.61644E+03 3.37996E+03-3.15456E+02 3.57429E-10 2.75406E-10
 -1       923 8.23274E+04-1.39673E+03 5.39091E+03 6.13844E+01 2.90187E-10 2.99224E-10
 -1       924 8.78654E+04 1.03697E+04 1.47178E+04-3.43424E+02 4.30695E-10 2.87855E-10
 -1       925 7.88481E+04-8.95405E+03 2.08288E+04 7.93253E+01 5.24270E-10 2.02817E-10
 -1       926-3.59770E+05 8.02602E+03-1.86634E+04 1.83506E+01 9.59537E-10 6.18456E-11
 -1       927-3.67822E+05-9.29456E+03-1.31878E+04-7.08149E+01 3.96679E-10 1.85537E-10
 -1       928-3.62887E+05 1.25185E+03-4.82778E+03-5.47465E+00-2.13324E-10-8.23093E-11
 -1       929-3.64191E+05-1.44839E+03-3.02319E+03-1.98505E+01 1.03276E-10-6.62794E-10
 -1       930-3.63399E+05 1.94161E+02-1.22243E+03-3.26147E+01 4.28035E-10-3.13946E-10
 -1       931-3.63592E+05-2.22776E+02-6.97308E+02 3.11575E+01 8.26169E-10-2.67789E-10
 -1       932-3.63486E+05 2.82998E+01-2.81586E+02-5.64837E+01 1.13884E-10-3.67905E-10
 -1       933-3.63484E+05-2.19232E+01-1.08294E+02 6.98211E+01-5.29447E-09-2.74653E-10
 -1       934-3.63507E+05-6.39944E+00 3.56361E+01-7.12789E+01-6.67018E-07-2.52783E-10
 -1       935-3.63430E+05 7.69125E+01 2.19066E+02 8.67195E+01-1.32443E-06-2.67256E-10
 -1       936-3.63541E+05-7.03995E+01 4.30095E+02-7.33824E+01-6.66329E-07-2.76600E-10
 -1       937-3.63208E+05 5.28840E+02 1.09649E+03 7.77079E+01-4.12502E-09-5.40311E-10
 -1       938-3.63728E+05-4.57567E+02 1.76080E+03-6.22672E+01 6.88624E-10-6.58702E-10
 -1       939-3.61880E+05 3.39775E+03 4.81918E+03 4.49508E+01 1.74069E-10-3.02180E-10
 -1       940-3.64868E+05-2.93404E+03 6.82274E+03-4.06250E+01-5.03802E-10-2.04636E-11
 -1       941 1.52736E+06-7.60817E+04 1.77219E+05 9.16222E+01 2.13493E-07 3.33966E-09
 -1       942 1.60390E+06 8.81236E+04 1.25173E+05 1.48034E+02 4.18342E-07-1.07138E-09
 -1       943 1.55695E+06-1.18699E+04 4.59132E+04 1.07667E+02 4.59301E-07-4.38376E-10
 -1       944 1.56951E+06 1.37420E+04 2.88287E+04 1.25604E+02 5.02477E-07-1.06229E-09
 -1       945 1.56181E+06-1.84865E+03 1.18389E+04 1.14065E+02 5.54127E-07 6.37101E-10
 -1       946 1.56386E+06 2.17089E+03 7.09268E+03 1.14866E+02 6.05489E-07 2.28067E-09
 -1       947 1.56261E+06-3.19216E+02 3.54686E+03 1.18408E+02 1.04095E-06 1.17132E-09
 -1       948 1.56304E+06 5.92384E+02 2.93559E+03 1.02669E+02 1.47408E-06 1.41847E-09
 -1       949 1.56264E+06-2.72579E+02 3.11913E+03 1.26263E+02 7.41544E-07-2.60854E-09
 -1       950 1.56365E+06 1.76815E+03 5.85790E+03 7.30611E+01 5.83655E-09 1.95337E-09
 -1       951 1.56201E+06-1.49314E+03 9.61206E+03 1.48016E+02-1.75000E-10-2.39015E-09
 -1       952 1.56819E+06 1.10849E+04 2.32828E+04-1.34653E+01-2.42412E-09-1.02636E-09
 -1       953 1.55808E+06-9.57297E+03 3.70418E+04 2.12787E+02-4.16003E-09-5.72982E-10
 -1       954 1.59592E+06 7.10689E+04 1.00953E+05-2.77033E+02-7.30676E-10-2.91038E-09
 -1       955 1.53421E+06-6.13586E+04 1.42902E+05 4.11549E+02-6.28265E-09-5.02041E-10
 -1       956-8.10512E+04-1.40276E+03-2.92551E+03 1.13373E+04-1.39153E-09-3.31966E-11
 -1       957-8.15839E+04-4.46635E+02-1.47620E+03 1.31500E+04-2.72848E-10-1.49294E-09
 -1       958-8.12880E+04-5.34485E+01-6.63636E+02 1.12693E+04 1.48611E-09-6.03904E-10
 -1       959-8.13356E+04-9.71065E+00-3.37607E+02 1.32246E+04-4.97721E-10-1.33355E-10
 -1       960-8.13124E+04 1.00573E+01-1.63745E+02 1.12624E+04-2.08729E-09 2.92971E-10
 -1       961-8.13157E+04 1.04890E+01-8.63473E+01 1.32322E+04-3.74712E-09-1.13687E-10
 -1       962-8.13178E+04 1.01469E+01-4.84447E+01 1.12617E+04-1.42813E-09-9.10404E-10
 -1       963-8.13152E+04 1.11942E+01-3.72106E+01 1.32332E+04-1.88214E-09-5.05906E-11
 -1       964-8.13193E+04 1.08092E+01-4.30725E+01 1.12615E+04-5.92991E-10-8.19682E-10
 -1       965-8.13184E+04 1.21010E+01-7.27307E+01 1.32330E+04 2.04888E-09-3.88127E-10
 -1       966-8.13174E+04 1.21697E+01-1.35551E+02 1.12618E+04-1.15514E-09-3.74826E-10
 -1       967-8.13375E+04-3.04954E+00-2.78514E+02 1.32292E+04-2.84416E-10-1.58491E-09
 -1       968-8.12996E+04-3.87722E+01-5.46766E+02 1.12653E+04 1.63368E-10-8.06608E-11
 -1       969-8.15448E+04-3.61849E+02-1.21642E+03 1.31915E+04 6.42558E-10 2.15664E-10
 -1       970-8.11062E+04-1.14986E+03-2.41034E+03 1.13001E+04 8.90168E-11-1.23646E-09
 -1       971-1.65447E+05 2.30038E+03-9.99713E+03 1.59343E+03-1.28580E-09 7.95353E-10
 -1       972-1.69035E+05-3.13184E+03-6.40062E+03 6.39157E+03-1.00221E-09 1.14017E-09
 -1       973-1.66955E+05 2.36447E+02-2.59295E+03 1.56222E+03-2.15675E-09 6.54836E-10
 -1       974-1.67364E+05-3.02093E+02-1.44967E+03 6.43246E+03 5.41604E-10 1.50294E-09
 -1       975-1.67126E+05 2.68220E+01-6.67280E+02 1.55238E+03 7.53630E-10 2.32831E-10
 -1       976-1.67176E+05-2.19234E+01-3.71436E+02 6.44695E+03-1.16094E-09 7.70683E-10
 -1       977-1.67148E+05 5.66051E+00-2.17832E+02 1.54768E+03 3.76394E-09 2.40789E-10
 -1       978-1.67158E+05 2.63016E+00-1.96396E+02 6.45314E+03 7.17347E-09 7.00439E-10
 -1       979-1.67147E+05 6.79912E+00-2.59551E+02 1.54618E+03 2.89442E-09 5.51669E-10
 -1       980-1.67188E+05-3.13208E+01-4.81654E+02 6.45272E+03 4.53289E-09 1.26417E-09
 -1       981-1.67118E+05 3.62351E+01-8.86331E+02 1.54811E+03 1.25453E-10 1.28972E-09
 -1       982-1.67444E+05-4.05909E+02-1.94003E+03 6.44487E+03 2.06228E-10 7.48742E-10
 -1       983-1.66889E+05 3.18363E+02-3.47423E+03 1.55407E+03 2.44961E-09-1.91676E-10
 -1       984-1.69689E+05-4.19914E+03-8.58230E+03 6.41543E+03 1.39096E-09 9.60767E-10
 -1       985-1.64867E+05 3.08738E+03-1.34037E+04 1.57789E+03 3.88422E-09 4.77485E-10
 -3
    1PSTEP                         7           4           1          
  100CL  104 3.59375E-01         841                     0    4           1
 -4  DISP        4    1
 -5  D1          1    2    1    0
 -5  D2          1    2    2    0
 -5  D3          1    2    3    0
 -5  ALL         1    2    0    0    1ALL
 -1         1 4.39755E-05 0.00000E+00 0.00000E+00
 -1         2 3.25122E-05 0.00000E+00 0.00000E+00
 -1         3 2.71465E-05 0.00000E+00 0.00000E+00
 -1         4 2.42158E-05 0.00000E+00 0.00000E+00
 -1         5 2.29027E-05 0.00000E+00 0.00000E+00
 -1         8 3.45184E-05-4.39859E-07 0.00000E+00
 -1         9 2.73357E-05 3.72278E-07 0.00000E+00
 -1        10 2.54672E-05-1.13155E-06 0.00000E+00
 -1        11 2.37479E-05-2.26396E-07 0.00000E+00
 -1        12 2.20505E-05 5.77074E-07 0.00000E+00
 -1        15 1.45570E-05-9.16409E-07 0.00000E+00
 -1        16 1.99947E-05 3.69823E-07 0.00000E+00
 -1        17 1.85423E-05-2.27552E-06 0.00000E+00
 -1        18 1.88118E-05-4.47164E-07 0.00000E+00
 -1        19 1.97792E-05 1.14309E-06 0.00000E+00
 -1        20 2.00862E-05 1.21436E-05 0.00000E+00
 -1        21 2.00777E-05 2.90625E-05 0.00000E+00
 -1        22 5.40730E-06-5.91959E-07 0.00000E+00
 -1        23 7.22470E-06 7.83943E-07 0.00000E+00
 -1        24 7.58971E-06-2.68303E-06 0.00000E+00
 -1        25 1.64814E-05-3.06031E-07 0.00000E+00
 -1        26 1.74291E-05 1.51644E-06 0.00000E+00
 -1        27 1.64920E-05 1.17142E-05 0.00000E+00
 -1        28 1.53815E-05 2.86551E-05 0.00000E+00
 -1        29 0.00000E+00 0.00000E+00 0.00000E+00
 -1        30 2.58382E-06 1.03143E-06 0.00000E+00
 -1        31 3.32738E-06-2.14683E-06 0.00000E+00
 -1        32 0.00000E+00 0.00000E+00 0.00000E+00
 -1        33 1.42060E-05 2.39779E-06 0.00000E+00
 -1        34 1.34592E-05 1.16749E-05 0.00000E+00
 -1        35 1.19257E-05 2.84383E-05 0.00000E+00
 -1        36 4.32821E-05 2.08840E-19-1.32349E-23
 -1        37 4.25657E-05 1.00384E-18 0.00000E+00
 -1        38 4.18508E-05 2.04882E-18-2.64698E-23
 -1        39 4.11315E-05 2.89055E-18 1.32349E-23
 -1        40 4.04121E-05 3.19084E-18 0.00000E+00
 -1        41 3.96918E-05 2.72340E-18-1.32349E-23
 -1        42 3.89714E-05 1.63270E-18-2.64698E-23
 -1        43 3.82509E-05 1.61545E-19-1.32349E-23
 -1        44 3.75304E-05-1.19711E-18 0.00000E+00
 -1        45 3.68099E-05-2.22353E-18 0.00000E+00
 -1        46 3.60895E-05-2.73025E-18 0.00000E+00
 -1        47 3.53697E-05-2.52550E-18-1.32349E-23
 -1        48 3.46499E-05-1.83648E-18 2.64698E-23
 -1        49 3.39330E-05-9.25081E-19 0.00000E+00
 -1        50 3.32151E-05-1.96987E-19 0.00000E+00
 -1        51 4.32619E-05-7.50423E-08 0.00000E+00
 -1        52 4.20789E-05-1.46683E-07 0.00000E+00
 -1        53 4.05175E-05-2.17766E-07 0.00000E+00
 -1        54 3.86730E-05-2.89284E-07 0.00000E+00
 -1        55 3.66413E-05-3.62191E-07-4.13590E-25
 -1        56 4.31100E-05-3.49830E-07 0.00000E+00
 -1        57 4.22257E-05-7.45219E-07-1.32349E-23
 -1        58 4.13478E-05-1.15235E-06-2.64698E-23
 -1        59 4.04610E-05-1.55214E-06 1.32349E-23
 -1        60 3.95626E-05-1.92125E-06 0.00000E+00
 -1        61 3.86438E-05-2.23913E-06 0.00000E+00
 -1        62 3.76985E-05-2.48661E-06-2.64698E-23
 -1        63 3.67200E-05-2.64621E-06 0.00000E+00
 -1        64 3.57032E-05-2.70348E-06 0.00000E+00
 -1        65 3.46434E-05-2.64593E-06 0.00000E+00
 -1        66 3.35375E-05-2.46525E-06 0.00000E+00
 -1        67 3.23840E-05-2.15521E-06-1.32349E-23
 -1        68 3.11818E-05-1.71471E-06 0.00000E+00
 -1        69 2.99361E-05-1.14310E-06-1.32349E-23
 -1        70 2.86424E-05-4.48705E-07-1.32349E-23
 -1        71 3.21756E-05 3.84422E-20 0.00000E+00
 -1        72 3.18396E-05 1.89420E-19 6.61744E-24
 -1        73 3.15035E-05 4.63757E-19 0.00000E+00
 -1        74 3.11676E-05 7.78138E-19 0.00000E+00
 -1        75 3.08317E-05 1.05489E-18 0.00000E+00
 -1        76 3.04958E-05 1.24958E-18 0.00000E+00
 -1        77 3.01599E-05 1.33473E-18-1.32349E-23
 -1        78 2.98240E-05 1.29718E-18 0.00000E+00
 -1        79 2.94881E-05 1.18278E-18 1.32349E-23
 -1        80 2.91523E-05 1.04324E-18 0.00000E+00
 -1        81 2.88165E-05 8.24095E-19 1.32349E-23
 -1        82 2.84809E-05 5.75060E-19 0.00000E+00
 -1        83 2.81453E-05 3.43245E-19 0.00000E+00
 -1        84 2.78108E-05 1.09446E-19 3.30872E-24
 -1        85 2.74759E-05 2.65837E-20 6.61744E-24
 -1        86 3.23098E-05 5.00414E-08 0.00000E+00
 -1        87 3.17090E-05 1.16477E-07 0.00000E+00
 -1        88 3.08134E-05 1.81563E-07 4.13590E-25
 -1        89 2.97262E-05 2.47798E-07 2.06795E-25
 -1        90 2.85371E-05 3.14683E-07 1.65436E-24
 -1        91 3.20436E-05 1.01691E-08-1.32349E-23
 -1        92 3.14512E-05 3.42691E-07 0.00000E+00
 -1        93 3.07845E-05 8.73564E-07 0.00000E+00
 -1        94 3.00911E-05 1.47407E-06-6.61744E-24
 -1        95 2.94299E-05 1.98898E-06 1.32349E-23
 -1        96 2.88586E-05 2.26435E-06-6.61744E-24
 -1        97 2.84001E-05 2.23909E-06 1.32349E-23
 -1        98 2.80752E-05 1.85735E-06 6.61744E-24
 -1        99 2.78521E-05 1.20396E-06 0.00000E+00
 -1       100 2.76972E-05 3.68596E-07 0.00000E+00
 -1       101 2.75502E-05-4.87848E-07 0.00000E+00
 -1       102 2.73511E-05-1.20395E-06 0.00000E+00
 -1       103 2.70596E-05-1.67354E-06-1.32349E-23
 -1       104 2.66390E-05-1.79416E-06-6.61744E-24
 -1       105 2.61002E-05-1.60125E-06-1.32349E-23
 -1       106 2.69622E-05-2.44921E-20 6.61744E-24
 -1       107 2.67786E-05-4.98071E-20 3.30872E-24
 -1       108 2.65949E-05-8.96042E-20-6.61744E-24
 -1       109 2.64114E-05-1.56318E-19 0.00000E+00
 -1       110 2.62279E-05-2.17395E-19-6.61744E-24
 -1       111 2.60445E-05-2.73589E-19-3.30872E-24
 -1       112 2.58610E-05-2.82137E-19 0.00000E+00
 -1       113 2.56776E-05-2.56086E-19-3.30872E-24
 -1       114 2.54941E-05-2.10776E-19 0.00000E+00
 -1       115 2.53107E-05-1.32711E-19 0.00000E+00
 -1       116 2.51273E-05-7.07393E-20 0.00000E+00
 -1       117 2.49441E-05-2.40963E-20 3.30872E-24
 -1       118 2.47608E-05 4.57899E-20 0.00000E+00
 -1       119 2.45782E-05 1.27069E-19-3.30872E-24
 -1       120 2.43954E-05 9.01971E-20 0.00000E+00
 -1       121 2.71306E-05-1.88899E-07 6.61744E-24
 -1       122 2.70498E-05-3.77252E-07 3.30872E-24
 -1       123 2.68734E-05-5.65641E-07 0.00000E+00
 -1       124 2.65710E-05-7.54053E-07-3.30872E-24
 -1       125 2.61123E-05-9.42502E-07-6.61744E-24
 -1       126 2.69830E-05-1.46800E-07-6.61744E-24
 -1       127 2.68757E-05-4.42252E-07 0.00000E+00
 -1       128 2.68094E-05-8.47114E-07-6.61744E-24
 -1       129 2.67690E-05-1.32104E-06 0.00000E+00
 -1       130 2.67342E-05-1.80979E-06-6.61744E-24
 -1       131 2.66846E-05-2.25897E-06 0.00000E+00
 -1       132 2.66030E-05-2.62267E-06-6.61744E-24
 -1       133 2.64724E-05-2.85563E-06 0.00000E+00
 -1       134 2.62853E-05-2.93799E-06-6.61744E-24
 -1       135 2.60348E-05-2.85112E-06-3.30872E-24
 -1       136 2.57262E-05-2.60952E-06 0.00000E+00
 -1       137 2.53656E-05-2.22894E-06 0.00000E+00
 -1       138 2.49689E-05-1.75252E-06-6.61744E-24
 -1       139 2.45534E-05-1.22396E-06 0.00000E+00
 -1       140 2.41385E-05-6.97660E-07 3.30872E-24
 -1       141 2.41320E-05 2.67138E-21-3.30872E-24
 -1       142 2.40491E-05-2.40653E-20 0.00000E+00
 -1       143 2.39661E-05-5.03406E-20 0.00000E+00
 -1       144 2.38833E-05-6.70863E-20 1.65436E-24
 -1       145 2.38005E-05-7.27216E-20 0.00000E+00
 -1       146 2.37177E-05-6.75471E-20-1.65436E-24
 -1       147 2.36350E-05-5.26138E-20 0.00000E+00
 -1       148 2.35522E-05-1.80713E-20 1.65436E-24
 -1       149 2.34695E-05-1.40921E-20 0.00000E+00
 -1       150 2.33868E-05-2.48502E-20-1.65436E-24
 -1       151 2.33042E-05-2.93008E-21 0.00000E+00
 -1       152 2.32218E-05 1.83708E-20 0.00000E+00
 -1       153 2.31395E-05 4.73894E-20-1.65436E-24
 -1       154 2.30585E-05 6.52418E-20-8.27181E-25
 -1       155 2.29770E-05 4.64244E-20-1.03398E-25
 -1       156 2.42415E-05-3.92711E-08-1.65436E-24
 -1       157 2.43153E-05-7.59810E-08-8.27181E-25
 -1       158 2.43694E-05-1.12883E-07 1.65436E-24
 -1       159 2.43360E-05-1.49853E-07-8.27181E-25
 -1       160 2.41503E-05-1.86627E-07 0.00000E+00
 -1       161 2.41124E-05-5.10218E-08 3.30872E-24
 -1       162 2.40167E-05-1.23240E-07-1.65436E-24
 -1       163 2.39257E-05-2.07820E-07 3.30872E-24
 -1       164 2.38360E-05-2.95959E-07 0.00000E+00
 -1       165 2.37440E-05-3.78245E-07 3.30872E-24
 -1       166 2.36464E-05-4.45319E-07-1.65436E-24
 -1       167 2.35403E-05-4.89836E-07-3.30872E-24
 -1       168 2.34231E-05-5.04558E-07 0.00000E+00
 -1       169 2.32932E-05-4.85519E-07 0.00000E+00
 -1       170 2.31493E-05-4.28885E-07 1.65436E-24
 -1       171 2.29914E-05-3.35128E-07 3.30872E-24
 -1       172 2.28202E-05-2.04784E-07 0.00000E+00
 -1       173 2.26370E-05-4.26891E-08 3.30872E-24
 -1       174 2.24453E-05 1.46827E-07-8.27181E-25
 -1       175 2.22459E-05 3.55021E-07-4.13590E-25
 -1       191 2.28731E-05 9.60932E-08-3.30872E-24
 -1       192 2.27971E-05 1.92342E-07 0.00000E+00
 -1       193 2.26755E-05 2.88624E-07 0.00000E+00
 -1       194 2.25096E-05 3.84892E-07 1.65436E-24
 -1       195 2.23007E-05 4.81097E-07 0.00000E+00
 -1       251 3.40797E-05 1.18437E-06-1.32349E-23
 -1       252 3.36302E-05 2.66404E-06 0.00000E+00
 -1       253 3.31820E-05 3.68072E-06 0.00000E+00
 -1       254 3.27321E-05 3.92490E-06-6.61744E-24
 -1       255 3.22820E-05 3.37898E-06-1.32349E-23
 -1       256 3.18308E-05 2.04068E-06 6.61744E-24
 -1       257 3.13789E-05 2.07136E-07 1.32349E-23
 -1       258 3.09265E-05-1.81494E-06 6.61744E-24
 -1       259 3.04745E-05-3.64764E-06 1.32349E-23
 -1       260 3.00233E-05-4.91666E-06 0.00000E+00
 -1       261 2.95729E-05-5.46070E-06-1.32349E-23
 -1       262 2.91229E-05-5.13255E-06 6.61744E-24
 -1       263 2.86726E-05-4.11453E-06 0.00000E+00
 -1       264 2.82237E-05-2.60234E-06 0.00000E+00
 -1       265 2.77740E-05-9.78514E-07 1.32349E-23
 -1       266 3.22494E-05-5.20782E-07 0.00000E+00
 -1       267 2.88416E-05-6.00417E-07 0.00000E+00
 -1       268 2.48299E-05-6.82396E-07-3.30872E-24
 -1       269 2.07511E-05-7.63345E-07 0.00000E+00
 -1       270 1.71468E-05-8.42712E-07-1.65436E-24
 -1       271 3.32097E-05 7.53497E-07 0.00000E+00
 -1       272 3.20176E-05 1.55920E-06 1.32349E-23
 -1       273 3.09522E-05 2.03005E-06 0.00000E+00
 -1       274 2.99917E-05 2.21029E-06 0.00000E+00
 -1       275 2.91212E-05 2.14914E-06 0.00000E+00
 -1       276 2.83220E-05 1.89645E-06 0.00000E+00
 -1       277 2.75750E-05 1.50372E-06 0.00000E+00
 -1       278 2.68608E-05 1.02343E-06 0.00000E+00
 -1       279 2.61595E-05 5.08714E-07-2.64698E-23
 -1       280 2.54511E-05 1.30085E-08 0.00000E+00
 -1       281 2.47158E-05-4.10459E-07 0.00000E+00
 -1       282 2.39344E-05-7.08903E-07-1.32349E-23
 -1       283 2.30870E-05-8.30659E-07 0.00000E+00
 -1       284 2.21581E-05-7.24254E-07 0.00000E+00
 -1       285 2.11250E-05-3.42539E-07 1.32349E-23
 -1       286 2.72162E-05 1.42624E-06-3.30872E-24
 -1       287 2.70995E-05 2.17687E-06 0.00000E+00
 -1       288 2.69828E-05 2.62030E-06 0.00000E+00
 -1       289 2.68666E-05 2.75417E-06 0.00000E+00
 -1       290 2.67505E-05 2.60930E-06 0.00000E+00
 -1       291 2.66345E-05 2.21791E-06 1.65436E-24
 -1       292 2.65183E-05 1.63862E-06 0.00000E+00
 -1       293 2.64021E-05 9.30966E-07 1.65436E-24
 -1       294 2.62858E-05 1.68252E-07-3.30872E-24
 -1       295 2.61695E-05-5.75941E-07-1.65436E-24
 -1       296 2.60533E-05-1.23004E-06-3.30872E-24
 -1       297 2.59371E-05-1.72289E-06-1.65436E-24
 -1       298 2.58208E-05-2.00063E-06-3.30872E-24
 -1       299 2.57040E-05-2.01046E-06 1.65436E-24
 -1       300 2.55874E-05-1.72832E-06 0.00000E+00
 -1       301 2.61102E-05 3.66833E-07 3.30872E-24
 -1       302 2.48786E-05 3.69219E-07-8.27181E-25
 -1       303 2.36460E-05 3.72959E-07 1.65436E-24
 -1       304 2.24177E-05 3.76462E-07 0.00000E+00
 -1       305 2.11989E-05 3.78095E-07 3.30872E-24
 -1       306 2.64431E-05 1.16444E-06 1.32349E-23
 -1       307 2.56796E-05 1.56687E-06 6.61744E-24
 -1       308 2.50414E-05 1.63682E-06 1.32349E-23
 -1       309 2.45056E-05 1.42683E-06 0.00000E+00
 -1       310 2.40537E-05 9.92536E-07 0.00000E+00
 -1       311 2.36643E-05 3.90031E-07 6.61744E-24
 -1       312 2.33164E-05-3.23565E-07-1.32349E-23
 -1       313 2.29885E-05-1.09064E-06 6.61744E-24
 -1       314 2.26590E-05-1.85327E-06 0.00000E+00
 -1       315 2.23061E-05-2.55354E-06 0.00000E+00
 -1       316 2.19085E-05-3.13392E-06 1.32349E-23
 -1       317 2.14451E-05-3.53741E-06 6.61744E-24
 -1       318 2.08948E-05-3.70809E-06 0.00000E+00
 -1       319 2.02393E-05-3.59040E-06 0.00000E+00
 -1       320 1.94554E-05-3.13221E-06 0.00000E+00
 -1       321 2.53555E-05-4.60792E-07 0.00000E+00
 -1       322 2.52477E-05 4.26787E-08 0.00000E+00
 -1       323 2.51398E-05 3.79494E-07 0.00000E+00
 -1       324 2.50325E-05 5.51062E-07-1.65436E-24
 -1       325 2.49254E-05 5.75168E-07 3.30872E-24
 -1       326 2.48183E-05 4.70275E-07 0.00000E+00
 -1       327 2.47113E-05 2.67623E-07 3.30872E-24
 -1       328 2.46043E-05-1.09265E-09 0.00000E+00
 -1       329 2.44972E-05-2.97630E-07-3.30872E-24
 -1       330 2.43902E-05-5.83630E-07 1.65436E-24
 -1       331 2.42832E-05-8.21766E-07 3.30872E-24
 -1       332 2.41762E-05-9.74936E-07-1.65436E-24
 -1       333 2.40693E-05-1.01446E-06-3.30872E-24
 -1       334 2.39622E-05-9.12162E-07-1.65436E-24
 -1       335 2.38552E-05-6.53942E-07 3.30872E-24
 -1       336 2.46026E-05-1.32323E-06 0.00000E+00
 -1       337 2.35636E-05-1.51454E-06-3.30872E-24
 -1       338 2.23939E-05-1.70591E-06 6.61744E-24
 -1       339 2.11376E-05-1.89682E-06 0.00000E+00
 -1       340 1.98390E-05-2.08781E-06 0.00000E+00
 -1       341 2.49048E-05-6.83046E-07 0.00000E+00
 -1       342 2.44693E-05-5.91571E-07 0.00000E+00
 -1       343 2.41618E-05-8.40097E-07-1.32349E-23
 -1       344 2.39733E-05-1.40946E-06-6.61744E-24
 -1       345 2.38561E-05-2.16930E-06 0.00000E+00
 -1       346 2.37602E-05-2.98685E-06 0.00000E+00
 -1       347 2.36289E-05-3.70956E-06 1.32349E-23
 -1       348 2.34054E-05-4.18637E-06-6.61744E-24
 -1       349 2.30646E-05-4.35019E-06 0.00000E+00
 -1       350 2.25831E-05-4.13872E-06-6.61744E-24
 -1       351 2.19861E-05-3.61949E-06 0.00000E+00
 -1       352 2.13011E-05-2.86451E-06 6.61744E-24
 -1       353 2.05849E-05-2.02664E-06 1.32349E-23
 -1       354 1.98983E-05-1.25881E-06-3.30872E-24
 -1       355 1.92860E-05-6.92145E-07-6.61744E-24
 -1       356 2.36406E-05 2.37315E-07 0.00000E+00
 -1       357 2.35336E-05 6.03401E-07 0.00000E+00
 -1       358 2.34266E-05 8.69449E-07 0.00000E+00
 -1       359 2.33196E-05 1.03350E-06 1.65436E-24
 -1       360 2.32127E-05 1.10369E-06 0.00000E+00
 -1       361 2.31057E-05 1.08860E-06-1.65436E-24
 -1       362 2.29988E-05 1.00524E-06-3.30872E-24
 -1       363 2.28919E-05 8.70964E-07 0.00000E+00
 -1       364 2.27850E-05 7.08132E-07 0.00000E+00
 -1       365 2.26781E-05 5.39256E-07 0.00000E+00
 -1       366 2.25713E-05 3.87447E-07-3.30872E-24
 -1       367 2.24648E-05 2.75729E-07 0.00000E+00
 -1       368 2.23584E-05 2.23165E-07 0.00000E+00
 -1       369 2.22534E-05 2.48543E-07 8.27181E-25
 -1       370 2.21480E-05 3.62955E-07 0.00000E+00
 -1       371 2.30842E-05-2.66413E-07 0.00000E+00
 -1       372 2.21264E-05-3.03506E-07 8.27181E-25
 -1       373 2.10478E-05-3.40889E-07 8.27181E-25
 -1       374 2.00215E-05-3.77215E-07 4.13590E-25
 -1       375 1.92192E-05-4.13466E-07-4.13590E-25
 -1       376 2.33788E-05 1.88932E-07 0.00000E+00
 -1       377 2.30271E-05 5.48196E-07-3.30872E-24
 -1       378 2.27035E-05 8.33177E-07 0.00000E+00
 -1       379 2.24143E-05 1.02467E-06-3.30872E-24
 -1       380 2.21604E-05 1.12226E-06-6.61744E-24
 -1       381 2.19416E-05 1.12603E-06 0.00000E+00
 -1       382 2.17509E-05 1.05459E-06-6.61744E-24
 -1       383 2.15812E-05 9.27163E-07-3.30872E-24
 -1       384 2.14212E-05 7.74112E-07 0.00000E+00
 -1       385 2.12593E-05 6.26061E-07 3.30872E-24
 -1       386 2.10847E-05 5.12025E-07-6.61744E-24
 -1       387 2.08869E-05 4.60858E-07 0.00000E+00
 -1       388 2.06593E-05 4.89278E-07 0.00000E+00
 -1       389 2.03976E-05 6.14141E-07 0.00000E+00
 -1       390 2.01002E-05 8.31882E-07 0.00000E+00
 -1       406 2.17458E-05 6.71931E-07 3.30872E-24
 -1       407 2.14058E-05 7.66899E-07 1.65436E-24
 -1       408 2.10345E-05 8.61821E-07 0.00000E+00
 -1       409 2.06366E-05 9.56510E-07 0.00000E+00
 -1       410 2.02165E-05 1.05069E-06 0.00000E+00
 -1       466 1.48827E-05 7.61330E-07 0.00000E+00
 -1       467 1.52238E-05 1.67290E-06 3.30872E-24
 -1       468 1.55643E-05 2.04343E-06 0.00000E+00
 -1       469 1.59076E-05 2.08982E-06 0.00000E+00
 -1       470 1.62510E-05 1.90974E-06 1.32349E-23
 -1       471 1.65949E-05 1.59746E-06 0.00000E+00
 -1       472 1.69388E-05 1.19847E-06 0.00000E+00
 -1       473 1.72828E-05 7.56996E-07 6.61744E-24
 -1       474 1.76268E-05 3.01540E-07 1.32349E-23
 -1       475 1.79706E-05-1.39579E-07 0.00000E+00
 -1       476 1.83143E-05-5.32754E-07 1.32349E-23
 -1       477 1.86572E-05-8.43675E-07 0.00000E+00
 -1       478 1.90000E-05-1.00769E-06-6.61744E-24
 -1       479 1.93384E-05-9.57930E-07 0.00000E+00
 -1       480 1.96782E-05-5.49042E-07 0.00000E+00
 -1       481 1.25691E-05-8.65317E-07-8.27181E-25
 -1       482 1.07450E-05-8.11189E-07 0.00000E+00
 -1       483 9.09838E-06-7.56946E-07 0.00000E+00
 -1       484 7.64336E-06-7.02043E-07 8.27181E-25
 -1       485 6.40462E-06-6.46789E-07-1.65436E-24
 -1       486 1.35337E-05 7.37509E-07 0.00000E+00
 -1       487 1.27140E-05 1.80677E-06 3.30872E-24
 -1       488 1.21737E-05 2.13592E-06-1.32349E-23
 -1       489 1.19645E-05 1.57412E-06-6.61744E-24
 -1       490 1.20253E-05 2.90602E-07 1.32349E-23
 -1       491 1.22879E-05-1.53493E-06 0.00000E+00
 -1       492 1.26133E-05-3.52857E-06-1.32349E-23
 -1       493 1.28608E-05-5.31386E-06 6.61744E-24
 -1       494 1.29178E-05-6.58902E-06 1.32349E-23
 -1       495 1.26741E-05-7.06050E-06 0.00000E+00
 -1       496 1.21266E-05-6.72202E-06-1.32349E-23
 -1       497 1.12776E-05-5.58008E-06-6.61744E-24
 -1       498 1.02365E-05-3.92816E-06 1.32349E-23
 -1       499 9.11896E-06-2.06676E-06 0.00000E+00
 -1       500 8.06374E-06-3.73218E-07 0.00000E+00
 -1       501 1.98979E-05 1.34151E-06-6.61744E-24
 -1       502 1.98069E-05 1.89782E-06-1.65436E-24
 -1       503 1.97157E-05 2.06639E-06 3.30872E-24
 -1       504 1.96255E-05 1.87631E-06-1.65436E-24
 -1       505 1.95353E-05 1.38674E-06 0.00000E+00
 -1       506 1.94451E-05 6.57986E-07 0.00000E+00
 -1       507 1.93548E-05-2.29629E-07-3.30872E-24
 -1       508 1.92645E-05-1.19519E-06 0.00000E+00
 -1       509 1.91742E-05-2.15124E-06-3.30872E-24
 -1       510 1.90841E-05-3.01037E-06 1.65436E-24
 -1       511 1.89940E-05-3.69327E-06 0.00000E+00
 -1       512 1.89040E-05-4.12133E-06 1.65436E-24
 -1       513 1.88141E-05-4.23721E-06 0.00000E+00
 -1       514 1.87240E-05-3.98482E-06-1.65436E-24
 -1       515 1.86338E-05-3.33885E-06 0.00000E+00
 -1       516 1.84355E-05 4.30658E-07 1.65436E-24
 -1       517 1.61388E-05 5.02052E-07 1.03398E-25
 -1       518 1.34872E-05 5.71819E-07-8.27181E-25
 -1       519 1.08618E-05 6.42883E-07 0.00000E+00
 -1       520 8.64602E-06 7.15325E-07-5.16988E-26
 -1       521 1.89103E-05 1.06780E-06 0.00000E+00
 -1       522 1.79441E-05 1.38389E-06 0.00000E+00
 -1       523 1.71000E-05 1.37669E-06 0.00000E+00
 -1       524 1.63542E-05 1.09762E-06 0.00000E+00
 -1       525 1.56890E-05 6.02475E-07-2.64698E-23
 -1       526 1.50830E-05-5.24533E-08 1.32349E-23
 -1       527 1.45152E-05-8.09508E-07 0.00000E+00
 -1       528 1.39636E-05-1.61043E-06 0.00000E+00
 -1       529 1.34066E-05-2.39659E-06 2.64698E-23
 -1       530 1.28221E-05-3.10950E-06 1.32349E-23
 -1       531 1.21887E-05-3.69121E-06 2.64698E-23
 -1       532 1.14853E-05-4.08462E-06 0.00000E+00
 -1       533 1.06908E-05-4.23416E-06 0.00000E+00
 -1       534 9.78782E-06-4.08506E-06 0.00000E+00
 -1       535 8.75306E-06-3.58696E-06-1.32349E-23
 -1       536 1.85526E-05-1.15374E-06 0.00000E+00
 -1       537 1.85687E-05-3.01747E-07 0.00000E+00
 -1       538 1.85848E-05 3.09405E-07 0.00000E+00
 -1       539 1.86019E-05 7.08863E-07 1.03398E-25
 -1       540 1.86191E-05 9.25682E-07 0.00000E+00
 -1       541 1.86366E-05 9.88908E-07 2.06795E-25
 -1       542 1.86541E-05 9.27567E-07-4.13590E-25
 -1       543 1.86716E-05 7.70661E-07 0.00000E+00
 -1       544 1.86891E-05 5.47182E-07 0.00000E+00
 -1       545 1.87066E-05 2.86108E-07 2.06795E-25
 -1       546 1.87241E-05 1.64144E-08 4.13590E-25
 -1       547 1.87416E-05-2.32923E-07 0.00000E+00
 -1       548 1.87592E-05-4.32932E-07 0.00000E+00
 -1       549 1.87767E-05-5.54633E-07 0.00000E+00
 -1       550 1.87943E-05-5.69012E-07 0.00000E+00
 -1       551 1.69060E-05-2.34267E-06-4.13590E-25
 -1       552 1.50850E-05-2.40805E-06-6.20385E-25
 -1       553 1.31605E-05-2.47343E-06 3.30872E-24
 -1       554 1.12149E-05-2.53956E-06-1.65436E-24
 -1       555 9.33089E-06-2.60731E-06 0.00000E+00
 -1       556 1.80626E-05-1.22596E-06 0.00000E+00
 -1       557 1.76753E-05-4.16742E-07 3.30872E-24
 -1       558 1.73701E-05 1.75166E-07 0.00000E+00
 -1       559 1.71372E-05 5.75064E-07 0.00000E+00
 -1       560 1.69670E-05 8.08292E-07 0.00000E+00
 -1       561 1.68498E-05 9.00412E-07 0.00000E+00
 -1       562 1.67760E-05 8.76999E-07-3.30872E-24
 -1       563 1.67359E-05 7.63662E-07-1.65436E-24
 -1       564 1.67199E-05 5.86018E-07 0.00000E+00
 -1       565 1.67185E-05 3.69690E-07 0.00000E+00
 -1       566 1.67219E-05 1.40308E-07-1.65436E-24
 -1       567 1.67207E-05-7.64950E-08-8.27181E-25
 -1       568 1.67052E-05-2.55091E-07-1.65436E-24
 -1       569 1.66661E-05-3.69881E-07 2.58494E-25
 -1       570 1.65940E-05-3.95285E-07-4.13590E-25
 -1       571 1.88698E-05-3.05072E-07 8.27181E-25
 -1       572 1.89297E-05-2.06961E-07-2.06795E-25
 -1       573 1.89901E-05-1.45004E-07-8.27181E-25
 -1       574 1.90507E-05-1.10967E-07 8.27181E-25
 -1       575 1.91114E-05-9.65869E-08 0.00000E+00
 -1       576 1.91722E-05-9.35453E-08 0.00000E+00
 -1       577 1.92330E-05-9.35211E-08-1.65436E-24
 -1       578 1.92938E-05-8.81861E-08 0.00000E+00
 -1       579 1.93545E-05-6.92113E-08 0.00000E+00
 -1       580 1.94153E-05-2.82678E-08 0.00000E+00
 -1       581 1.94761E-05 4.29720E-08 0.00000E+00
 -1       582 1.95369E-05 1.52829E-07 0.00000E+00
 -1       583 1.95976E-05 3.09616E-07-3.30872E-24
 -1       584 1.96583E-05 5.21564E-07 0.00000E+00
 -1       585 1.97189E-05 7.96865E-07 0.00000E+00
 -1       586 1.84755E-05-4.23185E-07 0.00000E+00
 -1       587 1.80905E-05-3.98988E-07-8.27181E-25
 -1       588 1.76775E-05-3.74813E-07 0.00000E+00
 -1       589 1.72576E-05-3.50875E-07-1.80946E-25
 -1       590 1.68519E-05-3.27476E-07 0.00000E+00
 -1       591 1.87126E-05-2.82283E-07 0.00000E+00
 -1       592 1.86215E-05-1.46450E-07 0.00000E+00
 -1       593 1.85388E-05-3.42719E-08 0.00000E+00
 -1       594 1.84628E-05 5.92090E-08 0.00000E+00
 -1       595 1.83919E-05 1.38948E-07-1.65436E-24
 -1       596 1.83243E-05 2.09869E-07 0.00000E+00
 -1       597 1.82580E-05 2.76892E-07 0.00000E+00
 -1       598 1.81914E-05 3.44929E-07-4.13590E-25
 -1       599 1.81226E-05 4.18898E-07 0.00000E+00
 -1       600 1.80497E-05 5.03710E-07-4.13590E-25
 -1       601 1.79709E-05 6.04280E-07 4.13590E-25
 -1       602 1.78845E-05 7.25527E-07 0.00000E+00
 -1       603 1.77885E-05 8.72374E-07 2.06795E-25
 -1       604 1.76813E-05 1.04977E-06-3.61892E-25
 -1       605 1.75614E-05 1.26267E-06 0.00000E+00
 -1       606 1.98005E-05 1.60299E-06 1.65436E-24
 -1       607 1.98203E-05 2.10686E-06 0.00000E+00
 -1       608 1.98398E-05 2.65211E-06 1.65436E-24
 -1       609 1.98590E-05 3.23581E-06 8.27181E-25
 -1       610 1.98781E-05 3.85500E-06 0.00000E+00
 -1       611 1.98971E-05 4.50665E-06 0.00000E+00
 -1       612 1.99161E-05 5.18774E-06 1.65436E-24
 -1       613 1.99351E-05 5.89526E-06 0.00000E+00
 -1       614 1.99541E-05 6.62618E-06 0.00000E+00
 -1       615 1.99731E-05 7.37746E-06-8.27181E-25
 -1       616 1.99920E-05 8.14610E-06 0.00000E+00
 -1       617 2.00109E-05 8.92906E-06 0.00000E+00
 -1       618 2.00298E-05 9.72330E-06 8.27181E-25
 -1       619 2.00487E-05 1.05258E-05 0.00000E+00
 -1       620 2.00676E-05 1.13336E-05 0.00000E+00
 -1       621 1.93446E-05 1.20547E-06 0.00000E+00
 -1       622 1.89204E-05 1.26823E-06-8.27181E-25
 -1       623 1.85117E-05 1.33102E-06 1.65436E-24
 -1       624 1.81236E-05 1.39365E-06 0.00000E+00
 -1       625 1.77611E-05 1.45592E-06-8.27181E-25
 -1       626 1.96422E-05 1.62486E-06 0.00000E+00
 -1       627 1.94872E-05 2.15249E-06 0.00000E+00
 -1       628 1.93163E-05 2.72178E-06 0.00000E+00
 -1       629 1.91315E-05 3.32798E-06 0.00000E+00
 -1       630 1.89346E-05 3.96629E-06 0.00000E+00
 -1       631 1.87275E-05 4.63185E-06-1.65436E-24
 -1       632 1.85119E-05 5.31979E-06 0.00000E+00
 -1       633 1.82898E-05 6.02525E-06 0.00000E+00
 -1       634 1.80628E-05 6.74334E-06 0.00000E+00
 -1       635 1.78330E-05 7.46920E-06 0.00000E+00
 -1       636 1.76021E-05 8.19796E-06 8.27181E-25
 -1       637 1.73719E-05 8.92474E-06-4.13590E-25
 -1       638 1.71442E-05 9.64465E-06 0.00000E+00
 -1       639 1.69207E-05 1.03528E-05 2.06795E-25
 -1       640 1.67031E-05 1.10443E-05-6.20385E-25
 -1       641 2.00868E-05 1.29840E-05 0.00000E+00
 -1       642 2.00868E-05 1.39127E-05-5.16988E-26
 -1       643 2.00866E-05 1.49169E-05-5.16988E-26
 -1       644 2.00863E-05 1.59839E-05 1.29247E-26
 -1       645 2.00860E-05 1.71010E-05 2.58494E-26
 -1       646 2.00856E-05 1.82554E-05 0.00000E+00
 -1       647 2.00851E-05 1.94346E-05 6.46235E-27
 -1       648 2.00846E-05 2.06257E-05 0.00000E+00
 -1       649 2.00842E-05 2.18161E-05 6.46235E-27
 -1       650 2.00837E-05 2.29932E-05-1.29247E-26
 -1       651 2.00832E-05 2.41441E-05 0.00000E+00
 -1       652 2.00827E-05 2.52562E-05 0.00000E+00
 -1       653 2.00822E-05 2.63168E-05 0.00000E+00
 -1       654 2.00813E-05 2.73132E-05 2.06795E-25
 -1       655 2.00807E-05 2.82327E-05 0.00000E+00
 -1       656 1.93579E-05 1.20744E-05 0.00000E+00
 -1       657 1.87275E-05 1.20017E-05 0.00000E+00
 -1       658 1.81605E-05 1.19291E-05 0.00000E+00
 -1       659 1.76221E-05 1.18565E-05-8.27181E-25
 -1       660 1.70775E-05 1.17838E-05-8.27181E-25
 -1       661 1.98520E-05 1.30086E-05 1.65436E-24
 -1       662 1.95949E-05 1.39432E-05-8.27181E-25
 -1       663 1.93157E-05 1.49364E-05 0.00000E+00
 -1       664 1.90186E-05 1.59783E-05 1.65436E-24
 -1       665 1.87070E-05 1.70588E-05 3.30872E-24
 -1       666 1.83848E-05 1.81679E-05 1.65436E-24
 -1       667 1.80555E-05 1.92959E-05 0.00000E+00
 -1       668 1.77229E-05 2.04327E-05 0.00000E+00
 -1       669 1.73906E-05 2.15685E-05 0.00000E+00
 -1       670 1.70625E-05 2.26934E-05 0.00000E+00
 -1       671 1.67421E-05 2.37975E-05 0.00000E+00
 -1       672 1.64332E-05 2.48708E-05 8.27181E-25
 -1       673 1.61395E-05 2.59034E-05-1.65436E-24
 -1       674 1.58642E-05 2.68851E-05-8.27181E-25
 -1       675 1.56118E-05 2.78063E-05 8.27181E-25
 -1       676 1.92932E-05 2.89944E-05-1.65436E-24
 -1       677 1.85091E-05 2.89259E-05 8.27181E-25
 -1       678 1.77257E-05 2.88576E-05 1.65436E-24
 -1       679 1.69432E-05 2.87895E-05-8.27181E-25
 -1       680 1.61617E-05 2.87213E-05 0.00000E+00
 -1       681 5.51809E-06 1.31471E-07-1.65436E-24
 -1       682 5.63223E-06 5.54411E-07-1.65436E-24
 -1       683 5.74624E-06 7.40820E-07 0.00000E+00
 -1       684 5.86087E-06 7.53467E-07 0.00000E+00
 -1       685 5.97550E-06 6.35350E-07 0.00000E+00
 -1       686 6.09025E-06 4.28816E-07 1.65436E-24
 -1       687 6.20499E-06 1.66141E-07-3.30872E-24
 -1       688 6.31973E-06-1.20677E-07 0.00000E+00
 -1       689 6.43448E-06-4.02400E-07-3.30872E-24
 -1       690 6.54918E-06-6.49755E-07-1.65436E-24
 -1       691 6.66385E-06-8.29556E-07 0.00000E+00
 -1       692 6.77827E-06-9.08285E-07-1.65436E-24
 -1       693 6.89264E-06-8.40909E-07 0.00000E+00
 -1       694 7.00559E-06-5.81669E-07 0.00000E+00
 -1       695 7.11891E-06-6.30055E-08 0.00000E+00
 -1       696 4.49562E-06-4.95948E-07 1.65436E-24
 -1       697 3.51512E-06-3.97388E-07-1.65436E-24
 -1       698 2.51978E-06-2.98993E-07 3.30872E-24
 -1       699 1.56354E-06-1.99835E-07 0.00000E+00
 -1       700 7.04223E-07-1.00652E-07-3.30872E-24
 -1       701 4.97365E-06 2.13359E-07 0.00000E+00
 -1       702 4.55449E-06 9.60471E-07 0.00000E+00
 -1       703 4.16876E-06 1.61994E-06 3.30872E-24
 -1       704 3.82672E-06 2.15957E-06-1.65436E-24
 -1       705 3.53560E-06 2.56359E-06 0.00000E+00
 -1       706 3.30099E-06 2.81643E-06-1.65436E-24
 -1       707 3.12153E-06 2.92222E-06 0.00000E+00
 -1       708 2.99541E-06 2.88574E-06-1.65436E-24
 -1       709 2.91395E-06 2.73010E-06 0.00000E+00
 -1       710 2.86830E-06 2.47904E-06 1.65436E-24
 -1       711 2.84494E-06 2.16859E-06 0.00000E+00
 -1       712 2.83042E-06 1.83515E-06 0.00000E+00
 -1       713 2.80979E-06 1.51803E-06 0.00000E+00
 -1       714 2.76948E-06 1.25693E-06 0.00000E+00
 -1       715 2.69587E-06 1.08335E-06 1.65436E-24
 -1       716 7.24471E-06 1.56668E-06 0.00000E+00
 -1       717 7.26865E-06 1.89257E-06 0.00000E+00
 -1       718 7.29240E-06 1.83750E-06-4.13590E-25
 -1       719 7.31680E-06 1.47691E-06 0.00000E+00
 -1       720 7.34110E-06 8.79024E-07 8.27181E-25
 -1       721 7.36543E-06 1.11818E-07 0.00000E+00
 -1       722 7.38969E-06-7.60748E-07 8.27181E-25
 -1       723 7.41392E-06-1.67485E-06 0.00000E+00
 -1       724 7.43816E-06-2.56764E-06 0.00000E+00
 -1       725 7.46239E-06-3.37623E-06-4.13590E-25
 -1       726 7.48666E-06-4.03576E-06-4.13590E-25
 -1       727 7.51063E-06-4.48119E-06 0.00000E+00
 -1       728 7.53461E-06-4.64241E-06-2.06795E-25
 -1       729 7.55648E-06-4.44901E-06 0.00000E+00
 -1       730 7.57887E-06-3.82228E-06 0.00000E+00
 -1       731 6.20091E-06 8.21193E-07 4.13590E-25
 -1       732 5.16068E-06 8.62818E-07 0.00000E+00
 -1       733 4.19005E-06 9.04228E-07 0.00000E+00
 -1       734 3.37517E-06 9.46527E-07 0.00000E+00
 -1       735 2.80873E-06 9.89049E-07 8.27181E-25
 -1       736 6.81244E-06 1.08210E-06 6.61744E-24
 -1       737 6.85374E-06 1.44308E-07 0.00000E+00
 -1       738 7.28486E-06-1.83525E-06 0.00000E+00
 -1       739 8.02676E-06-4.65388E-06-3.30872E-24
 -1       740 8.91983E-06-7.87894E-06 0.00000E+00
 -1       741 9.80116E-06-1.10734E-05 3.30872E-24
 -1       742 1.05116E-05-1.38085E-05 6.61744E-24
 -1       743 1.08932E-05-1.56611E-05 0.00000E+00
 -1       744 1.08770E-05-1.64492E-05-6.61744E-24
 -1       745 1.03983E-05-1.60035E-05-3.30872E-24
 -1       746 9.51834E-06-1.44912E-05-6.61744E-24
 -1       747 8.30422E-06-1.20923E-05 3.30872E-24
 -1       748 6.91430E-06-9.22819E-06 0.00000E+00
 -1       749 5.51130E-06-6.32528E-06 0.00000E+00
 -1       750 4.25859E-06-3.82160E-06 6.61744E-24
 -1       751 8.11217E-06-1.53845E-06 0.00000E+00
 -1       752 8.66786E-06-8.85988E-07-6.61744E-24
 -1       753 9.22163E-06-5.56588E-07-1.32349E-23
 -1       754 9.78167E-06-3.89222E-07-6.61744E-24
 -1       755 1.03419E-05-3.28042E-07 1.32349E-23
 -1       756 1.09034E-05-3.19794E-07 6.61744E-24
 -1       757 1.14650E-05-3.45744E-07 0.00000E+00
 -1       758 1.20269E-05-3.87988E-07 0.00000E+00
 -1       759 1.25887E-05-4.39260E-07 0.00000E+00
 -1       760 1.31505E-05-4.92511E-07 0.00000E+00
 -1       761 1.37121E-05-5.41986E-07 0.00000E+00
 -1       762 1.42729E-05-5.81837E-07 0.00000E+00
 -1       763 1.48335E-05-5.99940E-07-1.32349E-23
 -1       764 1.53897E-05-5.83639E-07 0.00000E+00
 -1       765 1.59473E-05-4.97916E-07 0.00000E+00
 -1       766 6.44933E-06-2.60446E-06 0.00000E+00
 -1       767 5.80995E-06-2.51181E-06 0.00000E+00
 -1       768 5.42418E-06-2.41995E-06 0.00000E+00
 -1       769 5.04578E-06-2.32682E-06 0.00000E+00
 -1       770 4.42908E-06-2.23325E-06 1.03398E-25
 -1       771 6.76929E-06-1.57797E-06-1.32349E-23
 -1       772 6.02327E-06-6.85448E-07 0.00000E+00
 -1       773 5.34917E-06 1.29584E-08 1.32349E-23
 -1       774 4.74042E-06 5.35946E-07 0.00000E+00
 -1       775 4.19035E-06 9.02245E-07 0.00000E+00
 -1       776 3.69196E-06 1.13069E-06-6.61744E-24
 -1       777 3.23819E-06 1.24014E-06 0.00000E+00
 -1       778 2.82198E-06 1.24950E-06 0.00000E+00
 -1       779 2.43622E-06 1.17770E-06 0.00000E+00
 -1       780 2.07380E-06 1.04373E-06 6.61744E-24
 -1       781 1.72761E-06 8.66552E-07-1.32349E-23
 -1       782 1.39059E-06 6.65194E-07 6.61744E-24
 -1       783 1.05569E-06 4.58678E-07 0.00000E+00
 -1       784 7.16143E-07 2.66101E-07 6.61744E-24
 -1       785 3.65259E-07 1.06564E-07-6.61744E-24
 -1       786 1.65370E-05-8.77174E-08 8.27181E-25
 -1       787 1.65961E-05 8.21160E-08 0.00000E+00
 -1       788 1.66551E-05 2.10887E-07-1.65436E-24
 -1       789 1.67147E-05 3.06027E-07 0.00000E+00
 -1       790 1.67743E-05 3.74947E-07 1.65436E-24
 -1       791 1.68341E-05 4.25046E-07-8.27181E-25
 -1       792 1.68938E-05 4.63712E-07-1.65436E-24
 -1       793 1.69536E-05 4.98328E-07 8.27181E-25
 -1       794 1.70134E-05 5.36275E-07 0.00000E+00
 -1       795 1.70732E-05 5.84936E-07 0.00000E+00
 -1       796 1.71330E-05 6.51697E-07 1.65436E-24
 -1       797 1.71927E-05 7.43958E-07 0.00000E+00
 -1       798 1.72524E-05 8.69128E-07-1.65436E-24
 -1       799 1.73118E-05 1.03463E-06-8.27181E-25
 -1       800 1.73713E-05 1.24792E-06-1.65436E-24
 -1       801 1.50134E-05-2.51776E-07 0.00000E+00
 -1       802 1.19646E-05-1.97500E-07 0.00000E+00
 -1       803 8.13635E-06-1.45822E-07 0.00000E+00
 -1       804 4.33126E-06-9.55518E-08 0.00000E+00
 -1       805 1.35200E-06-4.26944E-08 0.00000E+00
 -1       806 1.63322E-05-1.10863E-07 0.00000E+00
 -1       807 1.61886E-05 6.31827E-08 0.00000E+00
 -1       808 1.60507E-05 2.20156E-07-3.30872E-24
 -1       809 1.59176E-05 3.63810E-07 0.00000E+00
 -1       810 1.57880E-05 4.97877E-07 0.00000E+00
 -1       811 1.56605E-05 6.26063E-07 0.00000E+00
 -1       812 1.55338E-05 7.52065E-07-1.65436E-24
 -1       813 1.54066E-05 8.79579E-07-8.27181E-25
 -1       814 1.52774E-05 1.01230E-06 1.65436E-24
 -1       815 1.51449E-05 1.15392E-06 0.00000E+00
 -1       816 1.50076E-05 1.30814E-06 0.00000E+00
 -1       817 1.48643E-05 1.47865E-06-8.27181E-25
 -1       818 1.47136E-05 1.66915E-06 0.00000E+00
 -1       819 1.45542E-05 1.88334E-06 0.00000E+00
 -1       820 1.43850E-05 2.12494E-06 1.65436E-24
 -1       821 1.73742E-05 1.85925E-06 0.00000E+00
 -1       822 1.73157E-05 2.27902E-06 4.13590E-25
 -1       823 1.72573E-05 2.76780E-06 1.65436E-24
 -1       824 1.71984E-05 3.31754E-06 0.00000E+00
 -1       825 1.71393E-05 3.92018E-06-1.65436E-24
 -1       826 1.70801E-05 4.56761E-06-8.27181E-25
 -1       827 1.70208E-05 5.25172E-06 1.65436E-24
 -1       828 1.69616E-05 5.96439E-06 0.00000E+00
 -1       829 1.69023E-05 6.69745E-06-1.65436E-24
 -1       830 1.68430E-05 7.44274E-06-8.27181E-25
 -1       831 1.67837E-05 8.19211E-06-1.65436E-24
 -1       832 1.67245E-05 8.93737E-06-8.27181E-25
 -1       833 1.66654E-05 9.67036E-06 0.00000E+00
 -1       834 1.66067E-05 1.03829E-05 0.00000E+00
 -1       835 1.65480E-05 1.10669E-05 0.00000E+00
 -1       836 1.70198E-05 1.66060E-06-3.30872E-24
 -1       837 1.64669E-05 1.80986E-06-1.65436E-24
 -1       838 1.58396E-05 1.95881E-06 0.00000E+00
 -1       839 1.52075E-05 2.10742E-06 1.65436E-24
 -1       840 1.46398E-05 2.25630E-06 0.00000E+00
 -1       841 1.72937E-05 1.85580E-06 0.00000E+00
 -1       842 1.71256E-05 2.27820E-06 2.58494E-26
 -1       843 1.69295E-05 2.77539E-06 0.00000E+00
 -1       844 1.67084E-05 3.33844E-06-1.03398E-25
 -1       845 1.64661E-05 3.95804E-06 0.00000E+00
 -1       846 1.62060E-05 4.62472E-06 0.00000E+00
 -1       847 1.59320E-05 5.32862E-06 0.00000E+00
 -1       848 1.56476E-05 6.05986E-06-1.03398E-25
 -1       849 1.53568E-05 6.80828E-06-2.06795E-25
 -1       850 1.50634E-05 7.56372E-06 0.00000E+00
 -1       851 1.47711E-05 8.31597E-06-2.06795E-25
 -1       852 1.44839E-05 9.05480E-06 0.00000E+00
 -1       853 1.42055E-05 9.77011E-06 4.13590E-25
 -1       854 1.39395E-05 1.04518E-05 0.00000E+00
 -1       855 1.36899E-05 1.10901E-05 0.00000E+00
 -1       856 1.64262E-05 1.24103E-05 0.00000E+00
 -1       857 1.63571E-05 1.32317E-05-8.27181E-25
 -1       858 1.62879E-05 1.41623E-05 1.65436E-24
 -1       859 1.62182E-05 1.51855E-05-8.27181E-25
 -1       860 1.61484E-05 1.62848E-05 0.00000E+00
 -1       861 1.60784E-05 1.74437E-05 0.00000E+00
 -1       862 1.60083E-05 1.86457E-05-1.65436E-24
 -1       863 1.59381E-05 1.98740E-05-8.27181E-25
 -1       864 1.58680E-05 2.11120E-05-1.65436E-24
 -1       865 1.57979E-05 2.23431E-05-8.27181E-25
 -1       866 1.57278E-05 2.35507E-05 1.65436E-24
 -1       867 1.56578E-05 2.47182E-05-8.27181E-25
 -1       868 1.55879E-05 2.58289E-05-1.65436E-24
 -1       869 1.55184E-05 2.68662E-05 0.00000E+00
 -1       870 1.54489E-05 2.78138E-05 0.00000E+00
 -1       871 1.59359E-05 1.17086E-05 0.00000E+00
 -1       872 1.54195E-05 1.17025E-05 0.00000E+00
 -1       873 1.49283E-05 1.16962E-05-4.13590E-25
 -1       874 1.44477E-05 1.16897E-05 2.06795E-25
 -1       875 1.39629E-05 1.16829E-05 0.00000E+00
 -1       876 1.63252E-05 1.24332E-05 0.00000E+00
 -1       877 1.61219E-05 1.32608E-05 0.00000E+00
 -1       878 1.58834E-05 1.41817E-05 3.30872E-24
 -1       879 1.56156E-05 1.51824E-05 1.65436E-24
 -1       880 1.53230E-05 1.62489E-05 0.00000E+00
 -1       881 1.50109E-05 1.73677E-05-1.65436E-24
 -1       882 1.46843E-05 1.85251E-05 0.00000E+00
 -1       883 1.43483E-05 1.97075E-05-1.65436E-24
 -1       884 1.40079E-05 2.09013E-05 3.30872E-24
 -1       885 1.36684E-05 2.20931E-05 0.00000E+00
 -1       886 1.33347E-05 2.32693E-05 0.00000E+00
 -1       887 1.30118E-05 2.44163E-05 1.65436E-24
 -1       888 1.27049E-05 2.55206E-05 3.30872E-24
 -1       889 1.24186E-05 2.65683E-05 8.27181E-25
 -1       890 1.21586E-05 2.75460E-05 0.00000E+00
 -1       891 1.47045E-05 2.86191E-05 0.00000E+00
 -1       892 1.41589E-05 2.85827E-05 0.00000E+00
 -1       893 1.36766E-05 2.85464E-05 0.00000E+00
 -1       894 1.31892E-05 2.85101E-05-4.13590E-25
 -1       895 1.26283E-05 2.84737E-05 4.13590E-25
 -1       896 1.60554E-07 5.39674E-07 3.30872E-24
 -1       897 3.22481E-07 9.11368E-07 1.65436E-24
 -1       898 4.84366E-07 1.15281E-06 6.61744E-24
 -1       899 6.46515E-07 1.30081E-06 0.00000E+00
 -1       900 8.08677E-07 1.37691E-06 0.00000E+00
 -1       901 9.70891E-07 1.40212E-06 0.00000E+00
 -1       902 1.13311E-06 1.38917E-06 0.00000E+00
 -1       903 1.29532E-06 1.35049E-06 0.00000E+00
 -1       904 1.45754E-06 1.29433E-06 6.61744E-24
 -1       905 1.61971E-06 1.22878E-06-3.30872E-24
 -1       906 1.78185E-06 1.16044E-06 6.61744E-24
 -1       907 1.94379E-06 1.09586E-06 0.00000E+00
 -1       908 2.10571E-06 1.04221E-06 0.00000E+00
 -1       909 2.26662E-06 1.00674E-06 1.65436E-24
 -1       910 2.42786E-06 9.99674E-07 3.30872E-24
 -1       911 2.63035E-06 9.77754E-07 0.00000E+00
 -1       912 2.67749E-06 7.16261E-07-8.27181E-25
 -1       913 2.72455E-06 2.90906E-07 1.65436E-24
 -1       914 2.77166E-06-2.54690E-07 0.00000E+00
 -1       915 2.81874E-06-8.82443E-07 1.65436E-24
 -1       916 2.86581E-06-1.55442E-06 0.00000E+00
 -1       917 2.91287E-06-2.23471E-06 1.65436E-24
 -1       918 2.95995E-06-2.88746E-06 0.00000E+00
 -1       919 3.00706E-06-3.47550E-06-1.65436E-24
 -1       920 3.05418E-06-3.96156E-06 0.00000E+00
 -1       921 3.10133E-06-4.30367E-06 0.00000E+00
 -1       922 3.14832E-06-4.45959E-06 8.27181E-25
 -1       923 3.19528E-06-4.37849E-06 0.00000E+00
 -1       924 3.24115E-06-4.00910E-06 0.00000E+00
 -1       925 3.28717E-06-3.28695E-06 0.00000E+00
 -1       926 3.12433E-06-7.59854E-07 3.30872E-24
 -1       927 2.91631E-06 6.93233E-07 0.00000E+00
 -1       928 2.70868E-06 2.09269E-06 0.00000E+00
 -1       929 2.50033E-06 3.31928E-06 3.30872E-24
 -1       930 2.29223E-06 4.28605E-06-6.61744E-24
 -1       931 2.08421E-06 4.90837E-06 0.00000E+00
 -1       932 1.87631E-06 5.16597E-06 0.00000E+00
 -1       933 1.66840E-06 5.04185E-06 0.00000E+00
 -1       934 1.46038E-06 4.59031E-06 0.00000E+00
 -1       935 1.25219E-06 3.86857E-06 0.00000E+00
 -1       936 1.04387E-06 2.98436E-06-6.61744E-24
 -1       937 8.35435E-07 2.04685E-06-3.30872E-24
 -1       938 6.27039E-07 1.17514E-06 0.00000E+00
 -1       939 4.18436E-07 4.87775E-07 0.00000E+00
 -1       940 2.10088E-07 6.88381E-08 6.61744E-24
 -1       941 8.42106E-07 1.12545E-07 0.00000E+00
 -1       942 1.73060E-06 2.34742E-07-6.61744E-24
 -1       943 2.61616E-06 3.62784E-07 0.00000E+00
 -1       944 3.51054E-06 4.93100E-07-1.32349E-23
 -1       945 4.40517E-06 6.24816E-07-2.64698E-23
 -1       946 5.30157E-06 7.57114E-07 0.00000E+00
 -1       947 6.19817E-06 8.89869E-07 0.00000E+00
 -1       948 7.09507E-06 1.02297E-06 1.32349E-23
 -1       949 7.99199E-06 1.15673E-06 0.00000E+00
 -1       950 8.88869E-06 1.29149E-06-1.32349E-23
 -1       951 9.78523E-06 1.42875E-06 0.00000E+00
 -1       952 1.06804E-05 1.57015E-06-1.32349E-23
 -1       953 1.15753E-05 1.72223E-06 0.00000E+00
 -1       954 1.24631E-05 1.89195E-06 0.00000E+00
 -1       955 1.33533E-05 2.10723E-06-1.32349E-23
 -1       956 1.41602E-05 2.77180E-06-1.24077E-24
 -1       957 1.41138E-05 3.19872E-06 5.16988E-25
 -1       958 1.40671E-05 3.67343E-06 4.13590E-25
 -1       959 1.40203E-05 4.19043E-06 4.13590E-25
 -1       960 1.39735E-05 4.74422E-06 0.00000E+00
 -1       961 1.39267E-05 5.32924E-06-4.13590E-25
 -1       962 1.38798E-05 5.93994E-06 8.27181E-25
 -1       963 1.38330E-05 6.57076E-06 4.13590E-25
 -1       964 1.37861E-05 7.21614E-06-1.65436E-24
 -1       965 1.37392E-05 7.87051E-06 0.00000E+00
 -1       966 1.36923E-05 8.52833E-06 1.65436E-24
 -1       967 1.36455E-05 9.18404E-06 0.00000E+00
 -1       968 1.35986E-05 9.83206E-06 0.00000E+00
 -1       969 1.35519E-05 1.04669E-05-8.27181E-25
 -1       970 1.35052E-05 1.10829E-05 0.00000E+00
 -1       971 1.33662E-05 1.23118E-05 0.00000E+00
 -1       972 1.32705E-05 1.30814E-05 1.65436E-24
 -1       973 1.31747E-05 1.39674E-05 0.00000E+00
 -1       974 1.30784E-05 1.49530E-05 1.65436E-24
 -1       975 1.29820E-05 1.60217E-05-3.30872E-24
 -1       976 1.28854E-05 1.71565E-05 0.00000E+00
 -1       977 1.27888E-05 1.83408E-05-3.30872E-24
 -1       978 1.26921E-05 1.95576E-05 1.65436E-24
 -1       979 1.25954E-05 2.07901E-05 3.30872E-24
 -1       980 1.24987E-05 2.20214E-05 0.00000E+00
 -1       981 1.24021E-05 2.32345E-05-3.30872E-24
 -1       982 1.23056E-05 2.44126E-05 0.00000E+00
 -1       983 1.22092E-05 2.55388E-05 0.00000E+00
 -1       984 1.21135E-05 2.65963E-05 0.00000E+00
 -1       985 1.20178E-05 2.75683E-05 0.00000E+00
 -3
    1PSTEP                         8           4           1          
  100CL  104 3.59375E-01         841                     0    4           1
 -4  STRESS      6    1
 -5  SXX         1    4    1    1
 -5  SYY         1    4    2    2
 -5  SZZ         1    4    3    3
 -5  SXY         1    4    1    2
 -5  SYZ         1    4    2    3
 -5  SZX         1    4    3    1
 -1         1-1.48856E+06-4.77175E+05-3.06086E+05-4.23714E+05 1.94026E-11-1.14475E-09
 -1         2-9.45853E+05-5.03210E+04 1.30148E+03-9.38998E+04-4.94651E-10 2.21826E-09
 -1         3-4.90886E+05-1.70949E+05-1.70608E+04-4.06632E+04 5.24949E-11-3.53680E-10
 -1         4-2.47124E+05-4.54956E+04 3.76705E+02-2.45729E+04-6.92992E-11-2.95785E-10
 -1         5-1.25845E+05 7.30499E+04-6.34876E+04-3.79348E+03 3.37604E-09-8.73399E-11
 -1         8-8.01002E+05-3.20886E+05-1.22149E+05-3.01536E+05 2.31012E-10-5.49335E-10
 -1         9-8.54110E+05-1.91618E+05-1.07065E+05-1.94342E+05-3.81381E-10 1.20053E-10
 -1        10-4.30535E+05-2.42679E+05-1.99733E+04-1.07791E+05-1.71705E-09 5.34025E-10
 -1        11-2.47613E+05-7.03950E+04 3.10912E+02-5.46383E+04 7.00102E-10 2.50958E-10
 -1        12-1.56299E+05 5.80967E+04-7.17842E+04-2.37178E+04 4.11103E-09 7.81764E-10
 -1        15 8.71572E+03-3.59029E+04 1.59054E+03-7.29447E+04-3.36513E-11 4.83851E-10
 -1        16-4.64807E+05-8.08766E+04 1.95440E+04-2.15386E+05 7.24564E-10 4.33677E-10
 -1        17-2.88967E+05-1.93920E+05-3.19253E+04-1.58838E+05 2.31012E-10 9.93168E-10
 -1        18-1.41283E+05-7.24251E+04-5.29850E+04-8.11727E+04-9.81042E-10 5.44484E-10
 -1        19-3.03625E+04 3.77594E+04-2.91112E+04-2.48124E+04 1.57434E-09-1.35818E-10
 -1        20 5.08819E+04-3.73369E+04-6.19929E+03 2.72134E+04 3.18721E-09-2.26464E-09
 -1        21 1.80248E+02-7.58611E+04 1.90353E+04 1.87820E+02 6.42626E-09-9.99406E-10
 -1        22 1.54054E+04 9.11358E+04 5.94369E+02-2.16806E+04-1.48020E-10-4.96584E-10
 -1        23-1.81617E+05 1.99970E+03 1.96114E+03-8.52466E+04-1.61617E-09 5.39937E-10
 -1        24-1.04943E+05 1.58965E+04 1.25558E+05-2.18106E+05-4.60386E-09 1.44428E-09
 -1        25 2.73697E+05 9.41429E+04 8.55267E+04-1.40017E+05 4.80516E-10-1.85870E-09
 -1        26 1.33251E+03 8.47421E+04 4.39306E+03-1.65568E+04 5.94241E-10 6.81212E-10
 -1        27-1.98474E+04-3.19174E+04-1.38012E+04 3.66190E+04 4.21687E-09-3.40151E-10
 -1        28-6.39242E+03-5.92798E+04-3.46705E+02 2.85287E+04 4.54929E-09-3.49586E-10
 -1        29 2.22471E+05 1.52726E+05 6.32454E+02-1.77404E+03-1.11344E-10-1.32331E-09
 -1        30 7.21143E+04 2.19851E+04 9.36850E+02-2.21338E+04-2.82313E-10 1.71894E-10
 -1        31-2.61178E+05 2.26424E+04 2.21042E+03-5.06411E+04-1.33396E-09-2.48292E-10
 -1        32 3.62217E+05 2.12552E+05 2.59122E+05-2.20119E+05 5.28825E-09 1.90630E-09
 -1        33 6.24173E+05 2.65149E+05 1.95221E+05-2.39223E+04-7.60501E-09 3.85398E-10
 -1        34-1.02985E+05-1.46409E+04-4.43567E+03 1.92133E+04 1.01135E-09 1.22782E-11
 -1        35-1.64942E+04-1.96584E+04-3.59865E+02 4.22822E+04 6.02029E-09-6.26945E-10
 -1        36-2.03048E+06 6.16861E+04-1.43275E+05-8.49352E-08-5.45529E-10-4.80213E-10
 -1        37-2.09240E+06-7.14271E+04-1.01286E+05-2.65484E-08 5.03012E-10-2.47383E-09
 -1        38-2.05439E+06 9.62103E+03-3.70763E+04-1.27204E-07-4.89772E-10 5.47516E-10
 -1        39-2.06448E+06-1.11362E+04-2.32742E+04-6.79947E-08-1.57995E-09 3.51520E-09
 -1        40-2.05831E+06 1.49736E+03-9.52172E+03-1.92839E-07-1.44100E-09 1.40244E-09
 -1        41-2.05989E+06-1.75298E+03-5.66805E+03-1.62268E-07 7.47614E-10-3.18221E-09
 -1        42-2.05895E+06 2.53263E+02-2.76182E+03-8.64518E-08 2.33018E-09-2.05864E-09
 -1        43-2.05920E+06-4.39076E+02-2.16035E+03-1.76775E-08 7.82662E-10-9.01316E-10
 -1        44-2.05899E+06 1.85398E+02-2.14326E+03-1.86435E-07-2.65980E-09 1.05950E-09
 -1        45-2.05957E+06-1.16687E+03-3.87990E+03-1.82592E-07-7.59899E-10-2.81756E-09
 -1        46-2.05859E+06 9.79932E+02-6.29731E+03 6.60400E-09-1.82214E-09-7.58291E-10
 -1        47-2.06255E+06-7.26892E+03-1.52290E+04 5.53744E-08-4.03822E-09-2.39174E-09
 -1        48-2.05603E+06 6.27730E+03-2.42116E+04-2.02129E-07-1.85091E-09-1.03137E-09
 -1        49-2.08076E+06-4.66014E+04-6.60929E+04 6.71117E-08-1.40214E-09 4.07817E-09
 -1        50-2.04043E+06 4.02435E+04-9.35003E+04-3.06610E-08-3.58536E-09 1.79352E-09
 -1        51 1.67506E+04-1.94702E+05 2.69431E+04-5.18859E+05-6.54836E-11-2.10275E-09
 -1        52 7.07616E+03-1.91585E+05 1.61785E+04-5.72233E+05 2.25555E-10-7.05768E-10
 -1        53 4.15198E+03-1.96002E+05 1.28629E+04-5.17511E+05 1.23691E-10 7.05768E-10
 -1        54 9.93853E+03-1.93432E+05 1.93275E+04-5.73697E+05-2.76486E-10-1.72440E-09
 -1        55 2.41791E+04-1.99383E+05 3.49087E+04-5.17299E+05-2.61934E-10 1.62618E-09
 -1        56-2.23866E+06-2.53149E+05-1.83212E+05-8.65851E+05 2.32831E-10-2.19006E-09
 -1        57-2.32332E+06-4.03723E+05-1.22904E+05-8.46009E+05 7.73070E-10 1.20781E-09
 -1        58-2.27416E+06-3.11048E+05-4.31533E+04-8.55970E+05-4.82032E-11 5.43878E-10
 -1        59-2.28243E+06-3.35456E+05-2.55841E+04-8.57818E+05 3.32761E-10-2.45745E-09
 -1        60-2.27911E+06-3.19121E+05-1.00910E+04-8.54852E+05 8.00810E-10 1.50658E-09
 -1        61-2.27694E+06-3.25754E+05-5.71227E+03-8.58868E+05-6.29370E-10-2.14931E-09
 -1        62-2.27957E+06-3.20463E+05-2.78916E+03-8.55011E+05-2.43517E-10 4.01940E-09
 -1        63-2.27685E+06-3.23989E+05-2.34053E+03-8.58270E+05-4.49290E-10 4.58959E-09
 -1        64-2.27918E+06-3.20858E+05-2.73178E+03-8.55455E+05 7.19581E-10 4.85215E-09
 -1        65-2.27842E+06-3.24185E+05-5.54018E+03-8.57126E+05 5.70211E-10 5.94014E-10
 -1        66-2.27800E+06-3.20298E+05-9.76796E+03-8.56144E+05 4.36557E-10-1.45428E-09
 -1        67-2.28508E+06-3.32210E+05-2.47434E+04-8.54555E+05-3.30147E-10-3.97904E-10
 -1        68-2.27260E+06-3.13113E+05-4.17365E+04-8.57935E+05-2.88310E-10-4.49290E-10
 -1        69-2.32568E+06-3.97162E+05-1.18854E+05-8.41917E+05 6.96218E-10 9.54969E-10
 -1        70-2.23783E+06-2.57566E+05-1.77185E+05-8.67998E+05-1.02955E-09-8.29459E-10
 -1        71-9.61142E+05-1.62147E+03 3.76876E+03-1.63991E-07-7.25631E-10 1.25078E-09
 -1        72-9.59423E+05 1.87761E+03 2.65968E+03-8.60834E-08-2.72561E-10 1.35074E-09
 -1        73-9.60512E+05-2.52742E+02 9.66586E+02-7.05683E-08-1.51180E-10 2.04608E-09
 -1        74-9.60157E+05 2.91258E+02 5.92885E+02 6.67091E-08-3.55406E-10 7.55676E-10
 -1        75-9.60408E+05-3.80349E+01 2.12990E+02 1.90403E-08-8.28613E-10-2.59239E-09
 -1        76-9.60284E+05 3.58373E+01 6.85970E+01 1.23593E-07-2.66742E-10 4.28230E-10
 -1        77-9.60386E+05 2.25825E+00-7.85940E+01 9.98816E-08 1.80299E-10 8.51458E-10
 -1        78-9.60337E+05-5.59418E+01-2.75850E+02 1.30957E-07 1.37518E-09 1.80409E-09
 -1        79-9.60356E+05 5.36306E+01-5.47747E+02-1.21092E-07 4.54021E-10 1.77963E-09
 -1        80-9.60524E+05-4.07846E+02-1.28707E+03-1.22918E-07-4.76343E-10 9.92856E-10
 -1        81-9.60199E+05 3.53652E+02-2.23161E+03-9.75955E-08 2.68800E-10 6.97696E-10
 -1        82-9.61615E+05-2.63610E+03-5.50332E+03-6.56493E-08-1.23091E-09-7.20888E-10
 -1        83-9.59268E+05 2.27816E+03-8.78293E+03-1.65333E-07-7.11787E-10-1.92904E-09
 -1        84-9.68224E+05-1.69141E+04-2.39942E+04-7.38399E-08-1.04846E-09 5.00222E-11
 -1        85-9.53601E+05 1.46059E+04-3.39556E+04-9.80795E-08-1.42323E-09 5.94810E-10
 -1        86-4.63549E+04 1.79517E+05 1.09580E+05 7.81400E+02 7.27596E-12 1.04214E-09
 -1        87 5.77907E+04 2.28425E+05 8.47215E+04-3.40932E+03-4.72937E-11-2.59393E-09
 -1        88-1.13276E+04 1.95595E+05 4.31826E+04 4.97851E+02-2.66937E-10-4.98204E-10
 -1        89 3.94230E+04 2.19838E+05 6.07000E+04-3.02092E+03 3.00133E-11-2.03059E-09
 -1        90-2.80207E+04 1.88092E+05 6.82192E+04 3.93062E+02-3.67436E-10-1.31818E-09
 -1        91-1.02440E+06-1.39110E+05-1.42662E+04-3.87405E+05-1.35287E-10-1.19144E-10
 -1        92-1.03399E+06-1.49879E+05-9.87816E+03-3.82305E+05-2.89901E-10 8.96421E-10
 -1        93-1.02657E+06-1.44900E+05-3.34621E+03-3.87220E+05 1.12823E-09-1.97565E-09
 -1        94-1.03102E+06-1.43578E+05-2.09366E+03-3.82975E+05 9.36708E-11 9.19044E-10
 -1        95-1.02736E+06-1.45402E+05-8.10445E+02-3.86738E+05-7.63475E-10 1.19434E-09
 -1        96-1.02908E+06-1.43997E+05-5.03520E+02-3.84656E+05-9.25610E-10-3.28569E-10
 -1        97-1.02850E+06-1.44481E+05-3.34120E+02-3.85536E+05-4.70180E-10-5.21624E-10
 -1        98-1.02707E+06-1.45920E+05-4.23292E+02-3.86948E+05-3.57943E-10-8.23933E-10
 -1        99-1.02937E+06-1.43478E+05-6.69452E+02-3.84447E+05-1.98455E-09-1.98972E-09
 -1       100-1.02640E+06-1.47437E+05-1.59148E+03-3.88055E+05-2.14288E-09-4.04850E-09
 -1       101-1.02917E+06-1.42963E+05-2.73553E+03-3.84431E+05-1.66580E-09-1.91335E-09
 -1       102-1.02907E+06-1.49908E+05-7.33127E+03-3.86559E+05-3.02038E-10 6.50630E-10
 -1       103-1.02671E+06-1.41014E+05-1.17852E+04-3.85942E+05-1.06934E-09-1.74077E-09
 -1       104-1.04291E+06-1.68813E+05-3.48322E+04-3.80393E+05-9.19727E-11-2.61025E-09
 -1       105-1.01535E+06-1.24092E+05-5.02567E+04-3.90591E+05-1.17689E-09-2.41926E-10
 -1       106-5.25584E+05-1.97751E+03 4.59787E+03 7.38189E-08-7.21054E-10-1.10822E-09
 -1       107-5.23545E+05 2.29002E+03 3.24687E+03 7.60907E-08-2.37384E-10 1.76396E-09
 -1       108-5.24816E+05-3.08348E+02 1.18463E+03 2.10811E-09-1.08060E-10-2.98149E-09
 -1       109-5.24440E+05 3.56094E+02 7.34710E+02-4.32934E-08 4.58176E-10-2.23909E-09
 -1       110-5.24689E+05-4.71584E+01 2.81744E+02 4.71419E-08 3.93528E-10 1.02753E-09
 -1       111-5.24591E+05 4.96358E+01 1.30371E+02 6.66384E-08-1.09922E-11-4.85443E-11
 -1       112-5.24665E+05-2.40262E+00-8.34466E+00-2.82173E-08-3.74714E-10-1.07728E-09
 -1       113-5.24635E+05-2.92000E+01-1.44109E+02-1.07328E-08-2.34841E-11-2.62393E-09
 -1       114-5.24645E+05 3.15752E+01-3.18868E+02-5.69998E-09 8.52557E-11 1.45870E-09
 -1       115-5.24750E+05-2.43810E+02-7.66782E+02-1.08476E-07-5.34656E-10-2.97956E-09
 -1       116-5.24551E+05 2.11897E+02-1.33603E+03 2.17559E-08-1.93421E-10-1.07184E-09
 -1       117-5.25404E+05-1.58001E+03-3.29875E+03 1.08860E-07-2.12657E-10-1.93990E-09
 -1       118-5.23992E+05 1.36552E+03-5.26599E+03-4.45972E-08-5.69624E-10-2.55523E-09
 -1       119-5.29365E+05-1.01384E+04-1.43845E+04-2.89468E-08-8.67487E-11 3.19392E-09
 -1       120-5.20593E+05 8.75474E+03-2.03566E+04-5.35131E-08-3.16529E-10-8.40373E-10
 -1       121-8.20509E+02-5.38882E+05 3.67311E+03 5.00146E+03-1.13687E-11 2.58774E-09
 -1       122 1.19526E+03-5.37467E+05 2.68600E+03 1.96483E+04-1.20792E-10 1.77465E-09
 -1       123-1.69720E+02-5.38403E+05 1.71666E+03 5.06108E+03-1.39011E-10 8.29914E-10
 -1       124 1.10091E+03-5.37479E+05 2.54242E+03 1.94601E+04-1.24146E-10 4.12911E-10
 -1       125-7.76638E+02-5.38821E+05 3.39008E+03 5.18977E+03-3.54476E-10-5.28871E-10
 -1       126-4.79935E+05-6.82884E+04 2.52127E+03-1.79292E+05 6.87692E-10-5.26597E-10
 -1       127-4.77769E+05-6.67351E+04 1.75218E+03-1.80584E+05 3.64196E-10 2.38902E-09
 -1       128-4.79588E+05-6.72051E+04 5.88183E+02-1.79257E+05-2.80053E-10-1.16844E-09
 -1       129-4.78177E+05-6.79863E+04 3.63028E+02-1.80621E+05-3.44336E-10-2.32138E-09
 -1       130-4.79527E+05-6.70384E+04 1.24499E+02-1.79255E+05-1.13504E-09-7.23873E-10
 -1       131-4.78386E+05-6.80410E+04 5.20631E+01-1.80459E+05-5.46088E-10-2.50180E-09
 -1       132-4.79379E+05-6.71509E+04-2.41459E+01-1.79419E+05 4.17224E-10-1.94763E-09
 -1       133-4.78795E+05-6.77116E+04-1.08714E+02-1.80008E+05 1.37322E-09 1.10261E-09
 -1       134-4.79118E+05-6.73682E+04-2.32373E+02-1.79706E+05 1.85064E-10 1.33802E-09
 -1       135-4.79412E+05-6.74110E+04-5.88117E+02-1.79405E+05-8.26482E-10 3.43601E-09
 -1       136-4.78762E+05-6.74518E+04-1.03204E+03-1.80021E+05 2.80224E-10 1.11095E-09
 -1       137-4.80557E+05-6.82425E+04-2.77540E+03-1.78723E+05 3.44812E-10 7.68978E-10
 -1       138-4.77975E+05-6.65381E+04-4.45589E+03-1.80389E+05-1.03188E-09-1.12050E-09
 -1       139-4.85220E+05-7.59855E+04-1.31870E+04-1.77070E+05 4.43606E-10-1.75487E-09
 -1       140-4.74104E+05-5.97206E+04-1.90167E+04-1.81672E+05 2.82853E-10 2.38833E-09
 -1       141-2.37776E+05-2.19765E+03 5.10914E+03 1.21044E-08 6.33308E-11 7.92397E-10
 -1       142-2.35541E+05 2.54481E+03 3.60605E+03 9.20943E-08-6.42391E-11 3.80055E-09
 -1       143-2.36922E+05-3.42563E+02 1.31130E+03 5.10625E-08 5.17391E-11 1.96474E-09
 -1       144-2.36537E+05 3.94833E+02 8.04972E+02 4.89393E-08-7.50881E-11 1.28436E-09
 -1       145-2.36781E+05-5.16139E+01 2.90679E+02-5.82473E-08 2.75922E-10-1.36365E-09
 -1       146-2.36708E+05 4.90507E+01 9.67528E+01 1.06872E-08 2.40250E-10-8.85251E-10
 -1       147-2.36751E+05 2.64532E+00-9.96846E+01 7.10673E-09-8.31105E-11-8.15234E-10
 -1       148-2.36778E+05-7.26808E+01-3.58898E+02 1.54405E-07-2.95352E-10 1.35707E-10
 -1       149-2.36712E+05 6.99664E+01-7.15240E+02 5.79405E-08-1.73753E-10 1.73270E-09
 -1       150-2.37023E+05-5.32360E+02-1.68150E+03-1.77398E-08 5.69609E-11 5.37455E-11
 -1       151-2.36506E+05 4.61664E+02-2.91588E+03 7.52337E-08-1.06690E-11 3.42652E-10
 -1       152-2.38446E+05-3.44117E+03-7.18860E+03 6.02783E-08-1.58110E-11 2.34809E-09
 -1       153-2.35290E+05 2.97390E+03-1.14722E+04 2.74144E-09 8.45734E-10 1.08639E-09
 -1       154-2.47070E+05-2.20795E+04-3.13307E+04-2.61133E-08 3.85479E-10-1.18962E-09
 -1       155-2.27883E+05 1.90664E+04-4.43326E+04-8.87883E-08 1.99594E-09 8.47649E-10
 -1       156-7.44753E+03-1.06594E+05 1.78622E+04-5.02821E+02-1.21872E-10-1.13208E-09
 -1       157 9.87581E+03-9.84444E+04 1.48601E+04 2.09696E+03-3.13776E-10 2.75228E-10
 -1       158-2.41050E+03-1.04308E+05 9.18819E+03-4.93460E+02-4.07283E-11-1.83130E-09
 -1       159 1.08129E+04-9.79878E+04 1.60877E+04 2.02055E+03 1.27329E-10 3.19659E-10
 -1       160-8.38374E+03-1.07050E+05 1.99641E+04-4.26403E+02 7.23958E-10-4.33005E-10
 -1       161-2.69715E+05-3.74478E+04-1.12202E+03-1.01277E+05-6.31246E-10 1.06553E-09
 -1       162-2.70092E+05-3.86597E+04-7.80456E+02-1.01291E+05 4.68784E-10 9.03448E-10
 -1       163-2.69955E+05-3.78371E+04-2.69597E+02-1.01187E+05 3.19062E-10 1.12020E-09
 -1       164-2.69822E+05-3.82022E+04-1.79499E+02-1.01385E+05 4.21058E-10 4.69187E-10
 -1       165-2.69984E+05-3.79045E+04-9.17926E+01-1.01183E+05 6.48095E-10 1.87194E-09
 -1       166-2.69814E+05-3.81143E+04-1.06509E+02-1.01366E+05 1.79002E-10 3.37604E-09
 -1       167-2.69963E+05-3.79250E+04-1.49876E+02-1.01206E+05 6.76543E-11 1.50962E-09
 -1       168-2.69907E+05-3.81271E+04-3.32477E+02-1.01298E+05-4.52545E-11-2.66976E-10
 -1       169-2.69891E+05-3.78917E+04-5.97517E+02-1.01251E+05-1.77408E-10-1.45621E-09
 -1       170-2.70269E+05-3.85432E+04-1.49486E+03-1.01143E+05-2.23956E-10 4.97380E-11
 -1       171-2.69601E+05-3.75095E+04-2.58655E+03-1.01361E+05-4.05066E-10 3.20370E-09
 -1       172-2.72156E+05-4.15728E+04-6.96013E+03-1.00516E+05-8.03766E-11-5.63887E-10
 -1       173-2.68006E+05-3.48666E+04-1.11643E+04-1.01877E+05-6.51653E-10 1.98634E-09
 -1       174-2.83484E+05-6.13024E+04-3.30358E+04-9.67534E+04-4.86136E-09 5.34556E-09
 -1       175-2.58280E+05-1.78089E+04-4.76299E+04-1.05113E+05-1.66801E-09 2.12458E-09
 -1       191 7.62541E+02 2.75649E+05 1.23877E+03-7.19071E+03-1.40062E-10 9.48512E-09
 -1       192 2.78313E+02 2.75827E+05 7.41673E+02-7.70811E+03 2.19188E-10 1.87883E-08
 -1       193 1.29519E+02 2.75708E+05 5.97215E+02-7.06900E+03-3.66754E-10 8.16908E-09
 -1       194 3.68078E+02 2.75852E+05 9.04153E+02-7.93562E+03 2.55795E-10-3.45790E-09
 -1       195 1.04088E+03 2.75610E+05 1.64283E+03-6.96257E+03-6.42103E-10 3.54839E-09
 -1       251-1.27406E+06 2.95331E+04-6.86488E+04-4.84276E+03 2.11707E-10-7.82165E-10
 -1       252-1.30341E+06-3.41786E+04-4.84641E+04 7.72745E+03-5.48397E-10 2.58296E-09
 -1       253-1.28580E+06 4.58683E+03-1.78337E+04-2.15489E+03-7.06905E-10-2.13549E-09
 -1       254-1.28973E+06-5.30737E+03-1.10471E+04 4.86104E+02-1.48505E-09-4.72755E-09
 -1       255-1.28769E+06 6.95868E+02-4.65232E+03 2.39868E+03-4.44828E-10-8.72888E-10
 -1       256-1.28784E+06-8.26576E+02-2.71110E+03-6.91879E+03 9.67113E-10 1.18905E-09
 -1       257-1.28770E+06 1.29186E+02-1.42342E+03 5.25015E+03 7.32847E-10 1.74111E-10
 -1       258-1.28770E+06-2.38962E+02-1.22831E+03-8.68000E+03 9.19538E-10 1.79902E-09
 -1       259-1.28784E+06 1.17789E+02-1.45452E+03 4.15994E+03-9.43885E-10 3.13287E-09
 -1       260-1.28762E+06-8.22731E+02-2.66984E+03-3.41616E+03-1.55833E-09-4.70578E-10
 -1       261-1.28776E+06 6.91860E+02-4.67128E+03-1.38258E+01-5.98959E-10-2.03022E-09
 -1       262-1.28985E+06-5.31713E+03-1.10820E+04 4.73417E+03 3.09115E-10-9.99535E-10
 -1       263-1.28562E+06 4.60674E+03-1.78151E+04-3.99051E+03-1.33801E-09 4.92946E-10
 -1       264-1.30359E+06-3.42162E+04-4.85462E+04 9.36008E+03-3.34397E-09 2.44108E-09
 -1       265-1.27407E+06 2.95587E+04-6.87289E+04-4.63980E+03-2.53917E-09 6.94854E-10
 -1       266-1.14540E+04-2.15647E+05 2.58174E+04 4.30119E+03 2.91038E-11-2.35917E-09
 -1       267 1.22766E+04-2.03572E+05 1.66014E+04-1.58098E+04 3.52429E-11-1.17667E-09
 -1       268-7.56041E+02-2.10092E+05 2.88739E+03 4.86698E+03-4.04725E-11-2.19192E-10
 -1       269-5.51982E+03-2.11952E+05-6.67721E+03-1.59333E+04 4.02451E-11 3.66929E-09
 -1       270 6.31521E+03-2.07278E+05-1.42058E+04 4.42464E+03 1.33696E-10 2.64572E-09
 -1       271-1.92952E+06-2.43241E+05-1.49828E+05-7.46685E+05 1.80080E-09 2.01544E-09
 -1       272-1.97887E+06-3.44435E+05-9.45650E+04-7.50638E+05-6.77574E-10-1.23782E-09
 -1       273-1.95590E+06-2.76896E+05-3.53489E+04-7.42333E+05-8.29743E-10-7.18501E-10
 -1       274-1.94825E+06-3.00923E+05-1.94258E+04-7.58225E+05-3.78350E-10 2.09184E-09
 -1       275-1.95925E+06-2.80171E+05-8.22485E+03-7.41601E+05-5.52973E-10 4.89763E-10
 -1       276-1.94430E+06-2.96843E+05-4.36036E+03-7.59486E+05 1.93586E-09 1.29694E-09
 -1       277-1.95983E+06-2.80339E+05-2.24085E+03-7.41342E+05 1.18462E-10-1.39624E-09
 -1       278-1.94369E+06-2.96664E+05-1.77050E+03-7.59848E+05-5.78211E-10-3.45437E-10
 -1       279-1.95989E+06-2.80285E+05-2.12977E+03-7.41281E+05-1.84563E-10-1.12664E-09
 -1       280-1.94408E+06-2.97009E+05-4.05949E+03-7.59748E+05-5.16820E-10 1.45201E-09
 -1       281-1.95944E+06-2.80036E+05-7.60564E+03-7.41422E+05-7.69660E-11-6.13454E-10
 -1       282-1.94759E+06-3.00931E+05-1.79531E+04-7.58775E+05-3.85967E-11-7.62611E-10
 -1       283-1.95642E+06-2.76938E+05-3.26475E+04-7.42021E+05 4.49177E-10-1.84082E-09
 -1       284-1.97574E+06-3.41253E+05-8.73518E+04-7.51923E+05 2.56705E-10 7.85803E-10
 -1       285-1.93211E+06-2.45790E+05-1.38391E+05-7.45974E+05 9.27685E-11 1.92813E-09
 -1       286-3.34896E+05-6.83119E+03 1.58689E+04-4.34913E+02 1.12054E-09-2.62207E-09
 -1       287-3.27854E+05 7.91024E+03 1.12395E+04-1.01271E+02 9.79753E-10 1.94552E-09
 -1       288-3.32248E+05-1.06720E+03 4.10408E+03 1.72268E+01 2.40860E-10 3.82443E-10
 -1       289-3.30958E+05 1.23457E+03 2.60109E+03-9.67392E+02-2.11458E-11 1.36367E-09
 -1       290-3.31796E+05-1.67219E+02 1.06219E+03 4.31231E+02 1.08869E-10-1.00766E-09
 -1       291-3.31504E+05 1.98198E+02 6.60427E+02-1.66081E+03 7.82638E-10-2.63775E-10
 -1       292-3.31704E+05-3.08991E+01 3.51314E+02 7.10658E+02 6.43581E-10-2.18289E-09
 -1       293-3.31601E+05 7.01910E+01 3.41918E+02-2.02216E+03 1.89949E-10 7.71671E-10
 -1       294-3.31701E+05-3.81224E+01 4.21625E+02 7.92586E+02 7.49874E-10-5.08464E-11
 -1       295-3.31495E+05 2.63218E+02 8.53897E+02-1.97007E+03 5.17364E-10-3.84948E-09
 -1       296-3.31809E+05-2.23837E+02 1.42353E+03 6.58569E+02 4.54641E-10 1.94183E-09
 -1       297-3.30775E+05 1.66275E+03 3.48748E+03-1.51656E+03 4.59224E-10-1.64107E-10
 -1       298-3.32418E+05-1.43680E+03 5.53328E+03 3.39062E+02 1.44084E-10-5.24096E-10
 -1       299-3.26575E+05 1.06587E+04 1.51374E+04-7.67676E+02 2.49720E-11-2.75213E-09
 -1       300-3.36004E+05-9.20466E+03 2.13882E+04-9.03311E+01-1.09537E-10-7.39419E-10
 -1       301 2.64867E+04 1.45492E+04 5.80000E+04-1.75579E+04 1.45155E-09-2.40141E-09
 -1       302 8.94301E+03 2.53973E+04 3.52035E+04-2.05989E+04 1.10253E-09-7.61148E-10
 -1       303 2.48604E+03 1.84305E+04 2.77149E+04-1.75720E+04 1.53682E-09 1.44007E-09
 -1       304 1.09905E+04 2.65991E+04 4.06585E+04-2.05801E+04 1.22600E-09 1.78534E-09
 -1       305 3.31302E+04 1.33536E+04 7.12370E+04-1.75684E+04 1.60799E-09 3.07000E-09
 -1       306-1.32959E+06-1.72390E+05-8.94028E+04-5.15205E+05-3.84716E-10-3.33966E-09
 -1       307-1.35107E+06-2.40553E+05-5.63996E+04-5.26573E+05 2.38288E-10-8.25821E-10
 -1       308-1.34541E+06-1.92357E+05-2.11018E+04-5.12544E+05 4.34284E-11-7.99446E-10
 -1       309-1.33278E+06-2.14694E+05-1.15966E+04-5.31228E+05-2.05546E-10 6.19593E-10
 -1       310-1.34743E+06-1.94280E+05-4.92490E+03-5.12093E+05 3.13321E-10 2.52680E-09
 -1       311-1.33045E+06-2.12261E+05-2.63365E+03-5.32003E+05 1.26147E-09 1.83832E-09
 -1       312-1.34776E+06-1.94388E+05-1.40185E+03-5.11955E+05 3.90742E-10-6.02256E-10
 -1       313-1.33015E+06-2.12113E+05-1.19814E+03-5.32164E+05 5.58160E-10-3.45381E-10
 -1       314-1.34775E+06-1.94389E+05-1.55732E+03-5.11960E+05-1.56092E-10-9.69862E-10
 -1       315-1.33053E+06-2.12303E+05-3.06382E+03-5.31978E+05-1.19360E-09 3.24803E-10
 -1       316-1.34736E+06-1.94246E+05-5.79484E+03-5.12109E+05-8.21274E-10-9.81800E-10
 -1       317-1.33325E+06-2.15222E+05-1.36922E+04-5.31122E+05-2.25555E-10-2.11594E-09
 -1       318-1.34501E+06-1.91935E+05-2.49219E+04-5.12604E+05-5.21368E-10 1.20053E-10
 -1       319-1.35477E+06-2.45873E+05-6.66342E+04-5.25749E+05 3.30090E-10 1.62618E-09
 -1       320-1.32639E+06-1.68269E+05-1.05607E+05-5.15674E+05-2.26464E-10 4.36557E-10
 -1       321-3.10712E+05-1.01790E+04 2.36697E+04-2.25341E+02-1.39517E-09-1.16415E-09
 -1       322-3.00392E+05 1.17879E+04 1.67311E+04-1.60847E+02-1.29529E-09-1.67165E-09
 -1       323-3.06760E+05-1.58816E+03 6.12255E+03-1.29360E+00-1.68249E-10-2.12935E-09
 -1       324-3.05002E+05 1.83742E+03 3.84352E+03-5.86873E+02 5.81508E-11-7.82393E-10
 -1       325-3.06106E+05-2.46822E+02 1.55894E+03 2.00702E+02 6.37357E-11 1.06951E-09
 -1       326-3.05773E+05 2.85385E+02 9.08139E+02-9.22932E+02 1.43809E-10 3.58745E-09
 -1       327-3.05991E+05-3.82756E+01 3.97774E+02 3.34771E+02-3.88017E-10 7.01505E-10
 -1       328-3.05908E+05 4.61789E+01 2.27811E+02-1.09518E+03-2.82752E-10 2.20455E-09
 -1       329-3.05971E+05-7.61412E+00 1.18611E+02 3.72958E+02 1.24587E-10 5.19300E-11
 -1       330-3.05923E+05 2.12888E+01 9.90987E+01-1.06766E+03-2.23452E-10-1.32681E-09
 -1       331-3.05977E+05-1.34684E+01 1.03390E+02 3.07242E+02-5.22604E-12 1.26572E-09
 -1       332-3.05878E+05 9.48527E+01 2.10967E+02-8.46021E+02 3.43327E-10 7.09086E-10
 -1       333-3.06015E+05-8.14703E+01 3.16211E+02 1.51319E+02-7.55556E-10 1.47168E-09
 -1       334-3.05633E+05 6.02065E+02 8.60261E+02-4.76329E+02-3.88315E-10-1.52517E-09
 -1       335-3.06221E+05-5.20205E+02 1.20448E+03-6.24565E+01-1.12643E-09-7.33280E-10
 -1       336-5.43984E+02-5.46186E+05 1.53260E+03-6.64976E+03-8.09905E-10 1.39607E-10
 -1       337 2.29158E+02-5.45732E+05-1.14223E+03-2.75132E+04-8.67047E-10-1.23282E-09
 -1       338 4.33173E+02-5.45458E+05-4.54006E+03-6.53370E+03-8.98808E-10-5.07725E-10
 -1       339-6.23940E+03-5.49622E+05-1.26388E+04-2.76468E+04-3.89264E-10 2.29807E-09
 -1       340 4.69993E+03-5.42350E+05-2.02015E+04-6.51744E+03-7.18501E-10 2.81432E-09
 -1       341-8.74744E+05-1.09323E+05-3.64639E+04-3.34980E+05-1.50339E-09 1.60253E-09
 -1       342-8.93825E+05-1.42550E+05-2.52591E+04-3.28480E+05-7.13044E-10 3.02794E-09
 -1       343-8.83178E+05-1.21365E+05-8.56288E+03-3.31344E+05-1.17564E-09 6.65750E-10
 -1       344-8.83661E+05-1.29020E+05-5.34259E+03-3.33161E+05-1.72611E-09 5.55076E-10
 -1       345-8.84896E+05-1.22827E+05-2.03418E+03-3.30305E+05-3.65134E-10-5.70822E-10
 -1       346-8.82017E+05-1.26967E+05-1.27032E+03-3.33922E+05 3.66192E-10-5.48553E-10
 -1       347-8.84820E+05-1.23414E+05-7.12101E+02-3.30584E+05-1.57299E-09-1.65506E-09
 -1       348-8.83035E+05-1.25507E+05-8.34117E+02-3.32542E+05-8.61178E-11-4.45198E-10
 -1       349-8.83874E+05-1.24289E+05-1.22442E+03-3.31683E+05 6.48562E-10 6.67910E-10
 -1       350-8.85414E+05-1.24490E+05-2.81675E+03-3.30271E+05 2.52953E-12 3.71537E-09
 -1       351-8.82442E+05-1.24432E+05-4.84387E+03-3.32855E+05-1.06354E-10-4.16321E-10
 -1       352-8.90040E+05-1.29092E+05-1.29742E+04-3.27925E+05-9.27059E-10-5.64341E-10
 -1       353-8.79259E+05-1.19694E+05-2.08038E+04-3.34031E+05-2.02363E-10-1.18780E-09
 -1       354-9.10685E+05-1.66310E+05-6.15601E+04-3.21414E+05 2.86582E-09-1.06957E-09
 -1       355-8.61824E+05-8.72689E+04-8.87717E+04-3.39354E+05 3.83807E-10-3.20870E-09
 -1       356-3.06132E+05-5.22289E+02 1.21011E+03-1.76737E+02 4.50058E-11 1.35208E-09
 -1       357-3.05565E+05 6.04450E+02 8.53168E+02-2.56991E+01-4.24555E-10-1.09571E-09
 -1       358-3.05929E+05-8.13738E+01 3.00207E+02-3.96585E+01-4.81954E-10-1.68839E-09
 -1       359-3.05804E+05 9.21924E+01 1.71389E+02-2.91493E+02 5.02112E-10-1.60557E-09
 -1       360-3.05893E+05-1.09171E+01 2.72083E+01 8.90613E+01-8.24230E-12-1.16783E-09
 -1       361-3.05855E+05 5.28712E-01-6.39352E+01-5.13908E+02-2.89321E-10-8.24286E-10
 -1       362-3.05878E+05 1.03151E+01-1.88642E+02 1.82761E+02-7.69109E-11-1.39123E-09
 -1       363-3.05913E+05-9.05714E+01-4.47083E+02-6.46762E+02 6.96990E-10-7.66867E-10
 -1       364-3.05836E+05 8.02336E+01-8.27162E+02 2.21917E+02 6.88904E-10-8.51799E-10
 -1       365-3.06186E+05-6.02883E+02-1.91011E+03-6.62520E+02-2.30390E-10-5.63205E-10
 -1       366-3.05606E+05 5.21908E+02-3.29982E+03 1.98519E+02 3.03721E-11-1.20167E-09
 -1       367-3.07790E+05-3.88903E+03-8.12517E+03-5.57620E+02 5.35234E-10 1.61890E-10
 -1       368-3.04233E+05 3.36075E+03-1.29658E+04 1.17015E+02 1.07079E-09-5.63887E-11
 -1       369-3.17533E+05-2.49520E+04-3.54051E+04-3.49831E+02 4.50768E-11 2.04773E-09
 -1       370-2.95865E+05 2.15469E+04-5.00998E+04-9.26609E+00 2.50185E-09 2.46655E-09
 -1       371-8.10285E+03-1.07326E+05 1.84156E+04 1.32961E+03 2.07001E-09 1.98520E-09
 -1       372 8.48566E+03-9.95453E+04 1.13802E+04-5.27391E+03 2.97587E-09-7.88681E-10
 -1       373-3.62508E+02-1.03703E+05 1.38542E+03 1.38577E+03 2.78806E-09 7.87892E-10
 -1       374-5.34459E+03-1.05917E+05-6.69321E+03-5.22528E+03 2.62298E-09 3.75344E-10
 -1       375 5.70065E+03-1.00953E+05-1.27384E+04 1.28096E+03 1.68347E-09 1.69081E-09
 -1       376-4.73230E+05-5.94686E+04-1.89182E+04-1.81103E+05 8.06267E-10-2.69301E-09
 -1       377-4.83600E+05-7.63320E+04-1.31212E+04-1.77306E+05 1.89033E-09-9.67930E-10
 -1       378-4.77209E+05-6.61265E+04-4.44228E+03-1.79686E+05 1.30228E-10-1.80762E-10
 -1       379-4.78845E+05-6.87540E+04-2.78072E+03-1.79091E+05 2.19231E-10-2.91465E-10
 -1       380-4.77981E+05-6.70348E+04-1.06555E+03-1.79321E+05 8.49496E-10-1.31536E-10
 -1       381-4.77861E+05-6.78130E+04-6.79161E+02-1.79623E+05 5.52610E-10-7.79778E-10
 -1       382-4.78192E+05-6.70656E+04-4.02948E+02-1.79154E+05 4.18465E-11-1.69102E-09
 -1       383-4.77643E+05-6.78789E+04-5.27594E+02-1.79832E+05 5.94708E-10-2.19936E-09
 -1       384-4.78198E+05-6.69685E+04-7.83353E+02-1.79113E+05-2.16190E-10-1.76308E-09
 -1       385-4.78004E+05-6.84285E+04-1.86153E+03-1.79722E+05-7.15069E-10-2.75190E-09
 -1       386-4.77832E+05-6.65168E+04-3.18708E+03-1.79264E+05-2.08047E-10-2.78192E-09
 -1       387-4.80422E+05-7.20372E+04-8.55113E+03-1.78827E+05 5.60249E-10-2.98633E-09
 -1       388-4.75783E+05-6.33656E+04-1.37117E+04-1.80006E+05-1.07752E-09 7.77618E-10
 -1       389-4.94557E+05-9.60425E+04-4.05689E+04-1.73949E+05-5.40876E-09 2.50793E-09
 -1       390-4.63708E+05-4.25476E+04-5.84910E+04-1.84132E+05-2.95950E-09-2.25555E-10
 -1       406 8.47979E+02 2.72262E+05 1.73864E+03-2.49047E+04-8.31278E-10 2.27692E-09
 -1       407 4.97404E+02 2.72569E+05 1.92638E+03-2.73863E+04 1.87356E-10-1.81149E-09
 -1       408 7.24753E+02 2.72229E+05 3.01997E+03-2.48087E+04-1.08298E-09 1.88220E-09
 -1       409 2.89686E+03 2.73385E+05 6.38633E+03-2.75226E+04 1.17325E-10 5.02951E-10
 -1       410 8.37570E+03 2.71415E+05 1.28227E+04-2.47635E+04-1.20872E-09 5.45924E-10
 -1       466 9.67038E+05-3.88018E+04 9.02050E+04 3.69535E+03-2.24986E-10-2.07365E-09
 -1       467 1.00668E+06 4.49211E+04 6.38525E+04-6.65768E+03-3.29472E-10-9.57698E-10
 -1       468 9.82358E+05-6.04509E+03 2.33937E+04 1.23466E+03-3.68118E-10-9.33142E-10
 -1       469 9.88848E+05 6.99831E+03 1.47313E+04-3.18853E+03-1.86173E-10-5.60249E-10
 -1       470 9.84875E+05-9.42509E+02 6.10138E+03 2.26352E+02-5.65862E-10 1.70803E-09
 -1       471 9.85933E+05 1.12407E+03 3.77078E+03-1.79537E+03-3.66709E-10 2.11259E-09
 -1       472 9.85278E+05-1.79398E+02 2.10301E+03-1.58528E+02-4.84649E-10 1.44126E-09
 -1       473 9.85573E+05 4.33650E+02 2.14777E+03-1.34842E+03-3.49966E-10-1.26720E-09
 -1       474 9.85235E+05-2.52913E+02 2.77449E+03-2.20600E+02-4.37123E-10 8.60382E-10
 -1       475 9.86269E+05 1.75854E+03 5.70882E+03-1.49914E+03 3.53181E-10-6.74390E-10
 -1       476 9.84579E+05-1.50236E+03 9.59802E+03-7.80615E+00 7.35174E-10-3.74712E-10
 -1       477 9.90890E+05 1.11783E+04 2.34357E+04-2.36629E+03-5.47928E-10-6.06633E-10
 -1       478 9.80603E+05-9.65695E+03 3.73301E+04 6.46562E+02 2.88452E-10-1.03682E-09
 -1       479 1.01902E+06 7.17156E+04 1.01858E+05-4.67246E+03 1.94611E-10-1.91176E-09
 -1       480 9.56434E+05-6.19240E+04 1.44133E+05 2.29820E+03 2.02397E-09 7.71252E-10
 -1       481-7.51072E+03 1.57537E+05 1.76013E+04-2.36860E+02 5.72982E-11-3.73689E-10
 -1       482 9.02905E+03 1.65297E+05 1.30195E+04-6.95390E+02-1.57229E-10 2.26889E-09
 -1       483-1.50062E+03 1.60293E+05 5.71490E+03-1.00966E+02-7.57154E-11 3.56586E-10
 -1       484 3.84990E+03 1.62913E+05 6.24995E+03-9.88356E+02-7.98224E-11-2.09567E-09
 -1       485-2.34175E+03 1.59923E+05 5.92996E+03 5.60840E+01 9.25411E-11-1.85537E-09
 -1       486-9.01239E+05-9.60263E+04-8.53946E+04-3.56052E+05-2.80124E-10-1.16415E-09
 -1       487-9.49885E+05-1.69734E+05-5.91022E+04-3.36094E+05-8.70841E-11 8.44921E-10
 -1       488-9.21188E+05-1.24327E+05-2.00923E+04-3.47662E+05-2.49202E-10 8.27640E-11
 -1       489-9.25072E+05-1.38899E+05-1.23870E+04-3.48023E+05-1.07923E-09 1.58411E-09
 -1       490-9.26025E+05-1.26808E+05-4.70542E+03-3.44134E+05-4.41673E-10 1.73100E-09
 -1       491-9.19389E+05-1.36215E+05-2.75752E+03-3.52330E+05-1.46066E-09-4.70322E-10
 -1       492-9.26879E+05-1.26990E+05-1.27010E+03-3.43368E+05-9.28537E-11-2.91635E-10
 -1       493-9.19843E+05-1.34371E+05-1.01568E+03-3.51181E+05 9.46130E-10-2.44876E-10
 -1       494-9.25562E+05-1.28657E+05-1.20819E+03-3.45277E+05 5.95591E-10 2.94676E-10
 -1       495-9.24062E+05-1.30796E+05-2.27587E+03-3.46253E+05 1.97156E-10 6.26386E-10
 -1       496-9.22649E+05-1.30576E+05-4.04723E+03-3.48286E+05 9.65741E-10 3.16959E-10
 -1       497-9.31229E+05-1.31394E+05-1.05506E+04-3.40777E+05 3.17243E-10-1.31331E-09
 -1       498-9.18413E+05-1.28056E+05-1.69882E+04-3.50763E+05-5.92536E-10-9.22228E-10
 -1       499-9.49608E+05-1.60425E+05-5.02261E+04-3.33968E+05-9.55652E-10-1.46611E-09
 -1       500-9.04303E+05-1.01585E+05-7.24818E+04-3.55091E+05-1.75896E-09 2.26646E-09
 -1       501-2.63865E+05-1.47313E+04 3.42293E+04-9.76538E+01 5.66843E-10-1.80080E-10
 -1       502-2.48779E+05 1.70579E+04 2.42266E+04-9.79778E+02 1.55183E-10 8.83119E-10
 -1       503-2.58126E+05-2.29938E+03 8.84971E+03 3.37454E+02-2.52783E-10 6.80302E-10
 -1       504-2.55500E+05 2.65982E+03 5.57393E+03-1.75895E+03 7.45359E-12-9.51218E-10
 -1       505-2.57152E+05-3.57680E+02 2.25665E+03 6.81552E+02 7.11935E-10-2.02476E-10
 -1       506-2.56660E+05 4.15550E+02 1.32559E+03-2.28609E+03 1.04470E-09 4.95305E-10
 -1       507-2.56971E+05-5.63544E+01 5.93180E+02 8.64597E+02 1.09126E-09 5.21879E-10
 -1       508-2.56864E+05 7.62311E+01 3.68032E+02-2.45817E+03 6.71294E-10-2.12494E-09
 -1       509-2.56950E+05-1.78597E+01 2.40420E+02 8.53641E+02 1.18130E-09-4.62055E-10
 -1       510-2.56834E+05 8.26050E+01 3.08550E+02-2.24416E+03 7.40641E-10 1.15289E-10
 -1       511-2.56999E+05-6.39323E+01 4.19961E+02 6.50582E+02 3.26779E-10 7.88631E-10
 -1       512-2.56585E+05 4.63466E+02 9.98633E+02-1.68161E+03-8.79510E-11-1.30757E-09
 -1       513-2.57195E+05-4.00713E+02 1.52932E+03 2.91075E+02-1.24174E-10-4.13820E-10
 -1       514-2.55376E+05 2.95944E+03 4.22381E+03-8.70265E+02-6.97277E-10-1.21270E-09
 -1       515-2.58204E+05-2.55759E+03 5.91136E+03-1.60772E+02-1.16074E-10-2.77623E-10
 -1       516-3.31684E+04 2.03279E+05 7.80152E+04 2.53739E+03-2.18279E-10 2.25904E-09
 -1       517 4.07812E+04 2.38280E+05 5.93611E+04-1.25369E+04-2.00089E-11 4.61983E-09
 -1       518-7.50834E+03 2.15286E+05 2.86502E+04 2.18146E+03-1.02636E-09 2.89617E-09
 -1       519 2.38255E+04 2.30470E+05 3.71998E+04-1.25934E+04 5.11591E-10-6.55689E-11
 -1       520-1.62471E+04 2.11088E+05 3.97976E+04 2.59387E+03-8.47649E-10-1.76496E-09
 -1       521-1.84031E+06-2.35240E+05-1.29168E+05-7.10914E+05-2.36469E-11-2.06637E-09
 -1       522-1.87882E+06-3.26437E+05-8.15134E+04-7.18903E+05-2.09184E-11-1.76533E-09
 -1       523-1.86308E+06-2.64200E+05-3.04731E+04-7.07125E+05 3.16049E-11-8.27640E-10
 -1       524-1.85242E+06-2.88963E+05-1.67475E+04-7.25494E+05-4.49063E-10 4.49290E-10
 -1       525-1.86597E+06-2.67021E+05-7.09086E+03-7.06497E+05 5.54337E-10 1.30103E-09
 -1       526-1.84906E+06-2.85404E+05-3.76401E+03-7.26539E+05 1.83945E-09 2.19745E-09
 -1       527-1.86643E+06-2.67205E+05-1.94028E+03-7.06317E+05 7.15659E-10 4.40338E-10
 -1       528-1.84864E+06-2.85147E+05-1.54762E+03-7.26722E+05-1.25318E-09-2.56711E-09
 -1       529-1.86641E+06-2.67231E+05-1.88011E+03-7.06341E+05 1.16006E-09 5.82759E-10
 -1       530-1.84912E+06-2.85298E+05-3.59591E+03-7.26434E+05-7.22139E-10 1.42450E-10
 -1       531-1.86592E+06-2.67110E+05-6.75155E+03-7.06568E+05-2.31239E-10-2.81943E-11
 -1       532-1.85241E+06-2.88577E+05-1.59273E+04-7.25310E+05-3.01725E-10-2.98178E-09
 -1       533-1.86311E+06-2.64489E+05-2.89782E+04-7.07227E+05 3.52088E-10 1.63527E-09
 -1       534-1.87763E+06-3.24082E+05-7.75017E+04-7.18891E+05 6.58474E-10-9.27685E-11
 -1       535-1.84139E+06-2.37027E+05-1.22818E+05-7.10907E+05-1.18598E-09-7.34872E-10
 -1       536 4.43986E+04-7.94788E+03 3.42823E+04-4.76033E+03 3.63798E-10-8.85848E-10
 -1       537 5.68685E+04 1.07196E+04 2.19654E+04-1.85474E+04-1.69894E-09 4.29281E-10
 -1       538 4.95581E+04-8.38575E+02 8.87365E+03-4.70530E+03 9.91349E-11 1.64709E-09
 -1       539 5.10508E+04 1.03704E+03 4.95521E+03-1.85976E+04 5.31145E-10 1.55114E-09
 -1       540 5.01343E+04-1.00224E+02 2.23724E+03-4.70786E+03-2.41016E-11 7.34417E-11
 -1       541 5.03466E+04 9.72390E+01 1.18152E+03-1.85887E+04-1.73827E-10-3.59569E-09
 -1       542 5.02038E+04-1.37328E+01 5.58448E+02-4.71420E+03 7.09406E-11-1.04399E-09
 -1       543 5.02321E+04 1.46167E+01 2.88266E+02-1.85790E+04-2.03556E-10 6.74163E-10
 -1       544 5.02124E+04 2.62650E-01 1.38330E+02-4.71758E+03-8.75389E-12 5.43025E-10
 -1       545 5.02073E+04 9.78420E+00 6.87321E+01-1.85752E+04-1.80577E-10 2.19057E-09
 -1       546 5.02144E+04 2.29232E+00 2.95693E+01-4.71808E+03 7.11680E-11 1.06985E-09
 -1       547 5.02085E+04 4.51365E+00 6.20220E+00-1.85746E+04-1.88720E-11 6.86015E-10
 -1       548 5.02189E+04 3.85673E-01-1.42837E+01-4.71810E+03-2.89447E-10 1.04478E-10
 -1       549 5.02162E+04-2.65285E+01-4.77387E+01-1.85429E+04-3.07182E-10-3.73689E-10
 -1       550 5.02365E+04 8.40358E+00-8.67806E+01-4.74985E+03-1.77806E-10 1.12192E-09
 -1       551 7.97492E+03-1.80784E+05 1.73195E+04-2.77202E+05 2.21553E-09 8.82210E-10
 -1       552 3.79408E+03-1.77830E+05 1.36412E+04-3.24330E+05 1.83718E-09 3.63798E-12
 -1       553 2.41309E+03-1.80388E+05 1.58685E+04-2.76739E+05 2.42289E-09 1.19599E-10
 -1       554 9.91381E+03-1.74374E+05 2.98037E+04-3.24411E+05 2.12458E-09-7.68523E-11
 -1       555 2.77500E+04-1.84495E+05 5.65416E+04-2.77086E+05 2.06273E-09-1.39698E-09
 -1       556-1.32200E+05-7.06811E+04 1.13712E+04-1.26303E+05 5.99357E-09 9.10222E-09
 -1       557-1.21527E+05-8.23196E+04 5.59085E+03-1.34695E+05 6.40284E-10 2.59888E-10
 -1       558-1.32420E+05-7.44700E+04 2.35012E+03-1.24040E+05-1.82627E-09 1.60981E-10
 -1       559-1.22550E+05-8.42001E+04 1.15329E+03-1.35083E+05-5.23869E-10 1.51908E-09
 -1       560-1.32541E+05-7.45084E+04 5.11705E+02-1.24008E+05-2.83217E-09-8.29255E-09
 -1       561-1.22756E+05-8.42368E+04 2.41045E+02-1.35233E+05-5.54792E-11 1.60782E-10
 -1       562-1.32636E+05-7.44393E+04 8.28302E+01-1.24071E+05-1.09139E-10 1.00476E-09
 -1       563-1.22856E+05-8.41940E+04-1.18646E+01-1.35306E+05-2.68301E-11-1.84787E-09
 -1       564-1.32688E+05-7.43971E+04-1.21576E+02-1.24110E+05 3.31875E-09 7.24322E-09
 -1       565-1.22915E+05-8.41726E+04-3.05888E+02-1.35340E+05-1.24146E-09-7.48241E-09
 -1       566-1.32684E+05-7.43785E+04-6.52581E+02-1.24119E+05 9.94930E-10-2.09184E-11
 -1       567-1.23033E+05-8.42404E+04-1.44324E+03-1.35327E+05-3.27191E-10-2.70120E-09
 -1       568-1.32570E+05-7.46055E+04-2.96737E+03-1.24003E+05-1.59162E-10 3.41970E-10
 -1       569-1.24648E+05-8.60489E+04-7.00003E+03-1.34850E+05 2.95586E-10 3.40151E-10
 -1       570-1.31942E+05-8.00889E+04-1.42899E+04-1.21692E+05-2.60570E-09-8.62406E-09
 -1       571 1.73043E+05 8.56921E+03 1.31416E+04-4.48752E+04 2.34650E-10-8.53106E-10
 -1       572 1.75054E+05 2.92254E+03 6.45530E+03-4.94702E+04-7.86713E-11-9.63155E-10
 -1       573 1.73859E+05 6.53119E+02 2.87203E+03-4.47515E+04-2.13277E-10 1.65119E-09
 -1       574 1.74095E+05 2.02615E+02 1.44213E+03-4.96064E+04 3.49246E-10 2.86718E-09
 -1       575 1.73948E+05 1.67094E+01 6.82401E+02-4.47358E+04 4.28599E-10 6.89397E-10
 -1       576 1.73970E+05-7.01333E-01 3.48919E+02-4.96240E+04 1.96792E-10-2.18233E-09
 -1       577 1.73960E+05-1.13542E+01 1.74679E+02-4.47338E+04-1.48816E-10-4.82032E-10
 -1       578 1.73957E+05-8.44245E+00 1.00169E+02-4.96261E+04-4.05521E-10 9.14952E-10
 -1       579 1.73972E+05-1.19751E+01 7.04977E+01-4.47337E+04-4.36557E-10 5.54792E-10
 -1       580 1.73973E+05-1.32009E+01 8.07444E+01-4.96236E+04-3.86535E-11 1.38516E-09
 -1       581 1.73990E+05-1.64636E+01 1.26565E+02-4.47363E+04-2.31012E-10 2.69665E-10
 -1       582 1.74021E+05 8.02951E+00 2.52166E+02-4.95970E+04-1.32786E-10-2.69665E-10
 -1       583 1.74004E+05 7.62166E+01 4.92256E+02-4.47604E+04-2.21917E-10-1.03910E-09
 -1       584 1.74222E+05 4.55508E+02 1.10406E+03-4.93902E+04-1.06184E-09-4.84420E-10
 -1       585 1.73898E+05 1.41388E+03 2.24235E+03-4.49441E+04 3.19233E-10-7.85803E-10
 -1       586 1.42152E+03 6.98845E+04 2.57064E+03-1.14912E+05 2.71029E-10-4.93401E-10
 -1       587 7.76555E+02 7.03150E+04 2.44684E+03-1.27035E+05 4.36557E-10-1.43859E-09
 -1       588 9.07002E+02 6.98572E+04 3.47060E+03-1.14766E+05 2.50111E-10 2.92403E-10
 -1       589 3.28408E+03 7.11659E+04 7.10657E+03-1.27070E+05 3.79259E-10-8.83574E-10
 -1       590 9.28780E+03 6.89982E+04 1.41516E+04-1.14874E+05 3.11047E-10 1.82808E-10
 -1       591-8.04545E+04-2.79066E+04-1.51168E+04-4.19553E+04-4.71232E-11-1.05319E-09
 -1       592-8.08556E+04-2.60868E+04-7.41011E+03-4.65201E+04 2.15437E-10-1.19326E-09
 -1       593-8.08945E+04-2.22795E+04-3.14394E+03-4.45204E+04-2.81034E-09-5.47175E-09
 -1       594-7.92418E+04-2.40415E+04-1.53793E+03-4.68012E+04-7.52152E-10 5.49065E-10
 -1       595-8.09677E+04-2.20696E+04-7.08329E+02-4.46364E+04-3.80624E-10 1.37447E-10
 -1       596-7.91201E+04-2.39601E+04-3.60011E+02-4.67919E+04-4.44970E-10 5.72300E-10
 -1       597-8.09819E+04-2.20796E+04-1.97555E+02-4.46374E+04-1.39551E-11-1.06445E-09
 -1       598-7.91081E+04-2.39610E+04-1.60954E+02-4.67869E+04 1.49612E-10 7.03494E-10
 -1       599-8.09805E+04-2.20797E+04-2.07898E+02-4.46369E+04 5.78666E-11 2.76259E-10
 -1       600-7.91200E+04-2.39608E+04-3.87466E+02-4.67910E+04-1.45064E-10 6.32099E-11
 -1       601-8.09624E+04-2.20694E+04-7.66431E+02-4.46346E+04-3.71301E-10-1.66551E-09
 -1       602-7.92515E+04-2.40487E+04-1.66694E+03-4.67981E+04-3.27645E-10-1.62379E-09
 -1       603-8.08806E+04-2.22996E+04-3.40836E+03-4.45093E+04-7.87622E-10-9.65429E-10
 -1       604-8.10115E+04-2.62536E+04-8.03344E+03-4.64776E+04-7.18501E-10-2.80420E-09
 -1       605-8.03891E+04-2.84096E+04-1.63877E+04-4.17396E+04-2.50111E-12-3.10592E-10
 -1       606 5.57940E+04-6.84247E+03-1.04783E+04 1.64127E+04-3.60615E-09 1.64255E-09
 -1       607 5.41651E+04-2.33363E+03-5.14569E+03 1.79227E+04-9.73159E-10 1.22640E-09
 -1       608 5.51184E+04-5.20788E+02-2.28942E+03 1.63018E+04 2.12003E-09-1.61094E-10
 -1       609 5.49029E+04-1.52701E+02-1.14778E+03 1.80451E+04-1.57934E-09-9.63610E-10
 -1       610 5.50288E+04-2.74935E+00-5.41663E+02 1.62876E+04-4.13183E-09-4.40878E-10
 -1       611 5.49872E+04 1.74255E+01-2.72875E+02 1.80606E+04-7.26504E-09-6.33236E-10
 -1       612 5.50097E+04 2.42415E+01-1.29885E+02 1.62859E+04-3.26008E-09 6.07656E-10
 -1       613 5.49944E+04 2.50281E+01-6.04799E+01 1.80626E+04-5.44151E-09-1.71110E-09
 -1       614 5.50016E+04 2.24633E+01-1.90778E+01 1.62855E+04-2.18915E-09 2.74326E-10
 -1       615 5.49930E+04 2.57736E+01 1.25554E+01 1.80628E+04 2.46473E-09 1.58536E-09
 -1       616 5.49956E+04 2.52496E+01 4.97255E+01 1.62857E+04-1.03801E-08-3.11502E-11
 -1       617 5.49997E+04 4.45930E+01 1.18860E+02 1.80623E+04-1.58874E-08 1.30149E-09
 -1       618 5.49840E+04 8.12356E+01 2.43210E+02 1.62859E+04-8.15112E-09 8.84484E-10
 -1       619 5.50777E+04 2.78695E+02 5.50379E+02 1.80601E+04-6.11635E-11-3.02407E-10
 -1       620 5.49112E+04 7.58887E+02 1.12221E+03 1.62872E+04 5.10283E-10-9.97261E-10
 -1       621 1.38254E+03 1.80226E+05 3.36828E+03-1.70527E+04 1.56695E-09 1.04592E-11
 -1       622 5.26496E+02 1.80861E+05 2.75067E+03-2.00343E+04 5.92536E-10 1.07138E-09
 -1       623 3.05858E+02 1.80369E+05 3.34128E+03-1.70697E+04 1.37425E-09 8.59927E-10
 -1       624 1.89220E+03 1.81669E+05 6.39552E+03-1.99499E+04 7.09406E-10 1.26761E-09
 -1       625 5.81551E+03 1.79433E+05 1.22094E+04-1.71361E+04 1.10595E-09-4.97494E-10
 -1       626 7.86433E+04 2.58347E+04-4.63946E+03 5.36227E+04-7.63066E-10-4.86580E-10
 -1       627 7.64652E+04 2.91387E+04-2.20118E+03 5.46378E+04-2.09184E-10 1.46667E-09
 -1       628 7.87469E+04 2.81115E+04-9.24852E+02 5.25111E+04 2.42835E-09 8.40600E-09
 -1       629 7.68114E+04 3.00792E+04-4.44017E+02 5.45584E+04-1.70530E-09 2.19502E-09
 -1       630 7.87386E+04 2.82670E+04-1.95950E+02 5.24213E+04-1.10972E-08-2.40122E-08
 -1       631 7.68360E+04 3.01480E+04-8.78664E+01 5.45590E+04-2.27737E-09-3.52719E-09
 -1       632 7.87294E+04 2.82721E+04-2.48141E+01 5.24133E+04-1.33741E-09-1.75635E-09
 -1       633 7.68370E+04 3.01513E+04 2.10552E+01 5.45599E+04-7.86258E-10 4.35591E-10
 -1       634 7.87224E+04 2.82678E+04 7.77878E+01 5.24120E+04 1.75896E-09-2.24054E-09
 -1       635 7.68460E+04 3.01534E+04 1.85771E+02 5.45619E+04-1.39141E-09-4.89081E-10
 -1       636 7.87138E+04 2.82760E+04 3.89648E+02 5.24058E+04-3.55635E-09-5.60476E-10
 -1       637 7.69384E+04 3.02582E+04 8.72106E+02 5.45458E+04-4.32425E-09-7.72047E-10
 -1       638 7.86924E+04 2.85925E+04 1.80815E+03 5.22675E+04-1.12914E-09-4.75893E-10
 -1       639 7.78583E+04 3.18647E+04 4.30288E+03 5.41530E+04-5.58896E-09 6.36646E-12
 -1       640 7.87306E+04 3.32376E+04 9.06920E+03 5.03357E+04-2.09070E-09-1.25510E-09
 -1       641 1.37524E+03 1.66949E+03-3.88443E+03-9.36088E+01-3.60275E-09-1.13050E-09
 -1       642-2.98611E+02-1.93291E+03-2.74172E+03 3.97804E+02 1.06867E-10 1.90218E-09
 -1       643 7.28281E+02 2.60181E+02-1.00179E+03-9.29398E+01-5.63273E-09 2.93994E-10
 -1       644 4.53960E+02-3.00014E+02-6.21386E+02 3.96945E+02 4.29178E-09 1.58360E-09
 -1       645 6.22459E+02 3.97177E+01-2.40340E+02-9.27519E+01-1.02466E-09-6.64556E-10
 -1       646 5.79179E+02-4.16790E+01-1.14555E+02 3.96659E+02-9.34544E-08-2.51143E-09
 -1       647 6.02952E+02 2.35302E+00-1.39323E+00-9.26547E+01-1.21922E-05 1.16717E-08
 -1       648 6.13887E+02 2.17226E+01 1.03243E+02 3.96557E+02-2.42305E-05 2.86170E-08
 -1       649 5.87717E+02-2.35769E+01 2.35793E+02-9.26496E+01-1.21931E-05 1.37067E-08
 -1       650 7.00286E+02 1.82258E+02 5.70599E+02 3.96541E+02-8.12742E-08-2.81275E-10
 -1       651 5.16591E+02-1.57977E+02 9.95125E+02-9.26390E+01-1.99277E-09-1.44871E-09
 -1       652 1.18913E+03 1.17748E+03 2.45815E+03 3.96321E+02 1.31876E-09-5.88756E-10
 -1       653 9.89890E+01-1.01718E+03 3.92318E+03-9.24317E+01-4.70067E-10 8.64020E-11
 -1       654 4.14175E+03 7.55137E+03 1.07162E+04 3.94537E+02 1.12259E-09-8.52310E-10
 -1       655-2.43554E+03-6.52024E+03 1.51641E+04-9.08632E+01 1.35064E-09-6.97582E-10
 -1       656 5.41236E+03-2.06086E+05-2.43497E+04 5.80153E+03 5.89898E-09-3.27645E-10
 -1       657-7.99028E+03-2.14963E+05-1.77348E+04 2.23340E+04 4.81225E-09-4.42299E-10
 -1       658 1.03752E+03-2.09248E+05-1.12665E+04 5.75999E+03 4.34791E-09 3.41856E-10
 -1       659-7.27770E+03-2.14551E+05-1.64770E+04 2.23593E+04 3.68073E-09 9.19883E-10
 -1       660 4.84658E+03-2.06510E+05-2.19678E+04 5.77663E+03 3.76349E-09-7.02357E-10
 -1       661 2.03329E+05 2.59160E+04 1.66472E+04 7.94048E+04 3.19187E-09-7.48514E-10
 -1       662 2.07240E+05 3.87349E+04 1.05068E+04 8.16697E+04 1.08616E-09-2.38742E-10
 -1       663 2.06198E+05 2.97138E+04 3.93120E+03 7.89953E+04 2.57003E-09 1.58070E-09
 -1       664 2.03941E+05 3.38020E+04 2.16508E+03 8.23773E+04-7.90320E-09-4.46838E-09
 -1       665 2.06522E+05 3.01269E+04 9.21944E+02 7.89669E+04-8.46239E-09-2.47019E-09
 -1       666 2.03570E+05 3.32787E+04 5.01037E+02 8.24269E+04-1.31331E-09-1.27412E-09
 -1       667 2.06559E+05 3.01742E+04 2.80033E+02 7.89682E+04 4.71128E-09 1.33671E-10
 -1       668 2.03535E+05 3.32306E+04 2.63685E+02 8.24269E+04-2.26197E-09-2.79211E-09
 -1       669 2.06555E+05 3.01711E+04 3.70125E+02 7.89680E+04 2.22349E-09-8.89258E-10
 -1       670 2.03601E+05 3.33129E+04 7.50693E+02 8.24261E+04 9.97862E-09-3.12809E-10
 -1       671 2.06495E+05 3.00979E+04 1.42709E+03 7.89671E+04 7.60878E-10-2.78692E-09
 -1       672 2.04188E+05 3.41294E+04 3.38023E+03 8.23444E+04 2.76705E-09 1.11731E-09
 -1       673 2.05985E+05 2.94536E+04 6.14724E+03 7.90137E+04-3.01731E-09-1.04046E-09
 -1       674 2.09350E+05 4.18467E+04 1.64379E+04 8.12348E+04-4.68586E-09-2.62162E-10
 -1       675 2.01496E+05 2.35116E+04 2.60465E+04 7.96533E+04-1.13687E-11-6.33008E-10
 -1       676 5.43282E+02-1.94899E+05-2.82999E+03 1.12603E+02 4.61233E-09 1.69886E-10
 -1       677-1.07195E+03-1.95980E+05-3.06808E+03 1.03037E+01 1.99158E-09 1.12870E-09
 -1       678 3.37297E+02-1.95028E+05-3.64149E+03 1.12352E+02 5.42923E-09-1.50090E-10
 -1       679-3.84658E+03-1.97629E+05-7.98990E+03 1.01908E+01 1.95803E-09-1.50377E-09
 -1       680 2.77864E+03-1.93251E+05-1.21397E+04 1.12314E+02 6.47515E-09-2.23913E-10
 -1       681 3.24548E+05-8.55703E+03 1.98895E+04 7.61458E+02 1.09537E-10-7.27596E-12
 -1       682 3.33242E+05 9.90747E+03 1.40770E+04-1.91488E+03 2.07368E-10-2.87628E-10
 -1       683 3.27902E+05-1.33428E+03 5.15886E+03 4.06831E+02-1.27081E-10 3.00133E-11
 -1       684 3.29333E+05 1.54507E+03 3.25587E+03-1.36677E+03-9.33724E-11-1.44610E-10
 -1       685 3.28458E+05-2.08588E+02 1.35855E+03 2.13352E+02 1.77501E-10 3.34694E-10
 -1       686 3.28688E+05 2.52099E+02 8.62384E+02-1.09041E+03 5.04770E-10-9.19300E-11
 -1       687 3.28546E+05-4.29741E+01 5.21736E+02 1.30472E+02-1.91118E-11-2.64087E-10
 -1       688 3.28620E+05 1.21655E+02 6.01731E+02-1.01505E+03-3.29161E-10 1.30729E-10
 -1       689 3.28525E+05-7.82402E+01 8.44599E+02 1.37991E+02-1.31193E-10 4.00689E-10
 -1       690 3.28854E+05 5.56680E+02 1.79528E+03-1.12241E+03 7.76819E-11 3.98472E-10
 -1       691 3.28313E+05-4.77529E+02 3.04013E+03 2.37830E+02 4.05471E-10 1.19940E-10
 -1       692 3.30337E+05 3.55512E+03 7.44798E+03-1.43883E+03 5.21183E-10-2.08047E-11
 -1       693 3.27042E+05-3.07221E+03 1.18616E+04 4.54413E+02-1.00997E-10-4.54747E-11
 -1       694 3.39295E+05 2.28122E+04 3.23932E+04-2.05235E+03-2.49727E-10-8.87667E-10
 -1       695 3.19354E+05-1.97001E+04 4.58144E+04 8.51322E+02 2.64279E-10-5.18412E-10
 -1       696-6.81121E+03 2.81368E+05 1.56085E+04 1.47795E+02-1.82445E-09-2.14583E-06
 -1       697 7.37940E+03 2.87946E+05 1.00901E+04-1.97074E+03-4.06612E-09-4.24731E-06
 -1       698-5.52275E+02 2.84264E+05 2.10521E+03 1.31213E+02-2.16073E-09-2.14054E-06
 -1       699-2.63402E+03 2.83317E+05-2.99916E+03-2.07905E+03-2.01453E-10-1.27652E-08
 -1       700 3.18347E+03 2.85999E+05-6.94513E+03 2.56087E+02-1.10504E-10-7.93371E-10
 -1       701-2.97855E+05-2.74125E+04-3.80529E+04-1.18713E+05-3.58341E-10-5.02041E-10
 -1       702-3.18576E+05-6.15518E+04-2.63921E+04-1.11337E+05-5.80258E-10 1.03682E-10
 -1       703-3.05712E+05-4.09573E+04-8.92542E+03-1.16034E+05-5.52291E-10 3.57431E-10
 -1       704-3.09317E+05-4.59909E+04-5.56809E+03-1.14568E+05-6.63988E-10 8.54925E-11
 -1       705-3.07108E+05-4.29503E+04-2.09209E+03-1.15489E+05-1.99719E-10 3.00247E-10
 -1       706-3.07570E+05-4.38228E+04-1.24363E+03-1.15346E+05-3.27329E-10-6.37613E-10
 -1       707-3.07458E+05-4.31220E+04-5.81920E+02-1.15257E+05 1.02033E-10 3.01696E-11
 -1       708-3.07098E+05-4.37748E+04-5.08042E+02-1.15724E+05 4.09912E-11 6.57995E-10
 -1       709-3.07580E+05-4.29977E+04-5.69413E+02-1.15112E+05-2.03826E-10-3.28953E-10
 -1       710-3.07112E+05-4.42760E+04-1.21180E+03-1.15887E+05-6.08296E-10 9.05658E-11
 -1       711-3.07444E+05-4.26209E+04-2.02597E+03-1.15094E+05-5.49022E-10 6.63590E-10
 -1       712-3.08476E+05-4.67059E+04-5.39900E+03-1.15511E+05 4.70664E-11 6.30394E-11
 -1       713-3.06217E+05-4.05711E+04-8.64635E+03-1.15487E+05-1.46201E-10-1.41881E-10
 -1       714-3.17309E+05-6.19017E+04-2.55699E+04-1.12515E+05 2.60343E-11-3.16504E-10
 -1       715-2.98617E+05-2.74481E+04-3.68684E+04-1.18082E+05-2.21007E-10 3.65617E-10
 -1       716 6.59212E+04-9.90267E+03 2.29928E+04 6.39019E+02 5.70566E-10-4.91127E-11
 -1       717 7.61335E+04 1.14644E+04 1.62982E+04-2.36724E+03 7.18572E-11-6.96218E-10
 -1       718 6.98216E+04-1.54461E+03 5.96402E+03 5.10750E+02-1.56447E-10 6.94399E-10
 -1       719 7.15675E+04 1.78933E+03 3.78103E+03-2.16316E+03-1.39835E-10 6.93262E-10
 -1       720 7.04822E+04-2.42075E+02 1.58633E+03 4.34956E+02 7.44443E-10 5.40865E-10
 -1       721 7.07957E+04 2.97691E+02 1.03568E+03-2.05394E+03 1.21129E-09 3.93328E-10
 -1       722 7.05910E+04-5.37437E+01 6.72815E+02 4.01525E+02 1.03019E-09 7.19385E-10
 -1       723 7.07262E+04 1.73115E+02 8.48853E+02-2.02724E+03 1.33941E-10 7.10408E-10
 -1       724 7.05512E+04-1.17304E+02 1.25386E+03 4.08262E+02 9.15787E-10 5.08294E-10
 -1       725 7.11036E+04 8.46240E+02 2.71749E+03-2.08133E+03 6.97785E-10 5.30747E-10
 -1       726 7.02147E+04-7.26720E+02 4.61380E+03 4.55614E+02 1.02656E-09-2.28283E-10
 -1       727 7.33940E+04 5.41066E+03 1.13355E+04-2.22097E+03 9.72307E-10 4.20869E-10
 -1       728 6.82639E+04-4.67621E+03 1.80361E+04 5.47901E+02 3.35021E-10-4.00178E-11
 -1       729 8.70622E+04 3.47155E+04 4.93003E+04-2.48047E+03 3.24690E-10-2.01908E-10
 -1       730 5.65578E+04-2.99800E+04 6.97022E+04 7.15055E+02 1.23308E-09-6.83940E-10
 -1       731-1.19094E+04 1.17473E+05 2.77698E+04 4.98665E+02-2.49202E-10-1.99870E-10
 -1       732 1.39838E+04 1.29559E+05 1.99320E+04-2.81069E+03 2.08274E-10 1.99984E-10
 -1       733-2.04605E+03 1.21999E+05 7.79607E+03 5.41987E+02-3.91992E-10 6.58417E-10
 -1       734 3.58163E+03 1.24798E+05 6.34073E+03-2.99262E+03 1.34548E-10 1.50165E-09
 -1       735-1.52875E+03 1.22237E+05 4.32095E+03 6.80570E+02-3.28498E-10 6.46494E-10
 -1       736-6.73386E+05-7.51800E+04-4.97092E+04-2.60644E+05-2.46018E-09 3.45608E-11
 -1       737-6.94799E+05-1.23172E+05-3.41385E+04-2.54959E+05-1.37993E-09-2.24190E-10
 -1       738-6.85530E+05-9.04033E+04-1.16842E+04-2.54385E+05-6.99401E-10-2.26510E-09
 -1       739-6.80418E+05-1.06127E+05-7.19570E+03-2.62940E+05 3.03069E-09-2.80011E-10
 -1       740-6.87784E+05-9.21704E+04-2.71045E+03-2.52695E+05 2.14607E-09 2.17290E-09
 -1       741-6.78633E+05-1.02798E+05-1.55932E+03-2.63365E+05 3.23965E-10 5.44954E-09
 -1       742-6.87311E+05-9.37287E+04-8.16033E+02-2.53959E+05 1.26096E-09-1.42339E-09
 -1       743-6.81204E+05-9.87207E+04-4.25418E+02-2.59137E+05-1.11379E-09 1.22527E-09
 -1       744-6.85181E+05-9.62711E+04-8.45523E+02-2.56900E+05-1.72270E-09 2.95529E-10
 -1       745-6.86361E+05-9.41547E+04-1.25141E+03-2.53411E+05 2.87068E-09 1.24436E-09
 -1       746-6.82154E+05-9.82955E+04-2.52029E+03-2.59684E+05 7.28363E-10-2.81079E-09
 -1       747-6.92305E+05-9.35902E+04-6.45530E+03-2.49078E+05 1.78983E-09-1.33014E-09
 -1       748-6.79272E+05-9.68160E+04-1.04308E+04-2.61257E+05 2.92857E-09 2.65845E-09
 -1       749-7.03018E+05-1.11890E+05-3.08066E+04-2.45454E+05 4.72937E-10 5.24642E-09
 -1       750-6.71456E+05-8.00221E+04-4.45840E+04-2.63302E+05 9.64064E-11 2.95040E-09
 -1       751 1.56842E+06-8.83869E+04 2.05870E+05 3.48565E+03-1.09887E-08-4.07454E-10
 -1       752 1.65761E+06 1.02372E+05 1.45437E+05-4.86355E+03-1.88319E-09-7.36691E-10
 -1       753 1.60289E+06-1.37855E+04 5.33327E+04 1.04827E+03 5.50692E-10 5.09317E-11
 -1       754 1.61753E+06 1.59584E+04 3.34823E+04-1.64999E+03 1.25420E-09 1.53159E-09
 -1       755 1.60856E+06-2.14594E+03 1.37346E+04 2.72466E+02 3.10344E-10-5.17502E-10
 -1       756 1.61096E+06 2.51557E+03 8.19924E+03-6.25487E+02 8.66851E-10-6.94854E-10
 -1       757 1.60949E+06-3.66178E+02 4.04456E+03 2.37591E+01-1.44007E-10-8.36053E-10
 -1       758 1.60998E+06 6.54201E+02 3.24332E+03-3.11174E+02 1.01486E-09-4.55245E-11
 -1       759 1.60954E+06-2.87383E+02 3.32037E+03-4.18525E+01 1.26869E-09 3.99098E-10
 -1       760 1.61059E+06 1.83483E+03 6.10873E+03-2.72994E+02 2.06117E-09 1.51351E-09
 -1       761 1.60888E+06-1.54493E+03 9.96475E+03-1.44210E+01 3.29878E-10 1.90994E-11
 -1       762 1.61528E+06 1.14644E+04 2.40916E+04-4.58896E+02 5.71013E-10 2.26737E-09
 -1       763 1.60482E+06-9.90007E+03 3.83146E+04 1.44052E+02 3.10247E-09 3.94721E-10
 -1       764 1.64397E+06 7.34968E+04 1.04409E+05-1.13431E+03 1.16483E-09 1.83172E-09
 -1       765 1.58014E+06-6.34552E+04 1.47789E+05 6.60952E+02-8.72390E-10-9.89530E-10
 -1       766-3.81227E+04 2.56423E+05 8.99372E+04-2.20930E+03-2.20825E-09-5.76961E-11
 -1       767 4.71521E+04 2.96572E+05 6.89212E+04 7.70161E+03 1.25510E-10-5.57108E-10
 -1       768-8.94789E+03 2.69898E+05 3.41516E+04-1.85824E+03-9.37234E-10 1.67713E-10
 -1       769 2.96967E+04 2.88479E+05 4.60999E+04 7.66279E+03 2.25100E-11 9.93246E-10
 -1       770-2.07010E+04 2.64512E+05 5.06089E+04-2.17053E+03-2.72485E-09 2.36321E-09
 -1       771-8.69033E+05-1.76142E+05-3.11694E+04-3.76113E+05-2.02817E-10-4.47471E-10
 -1       772-8.66945E+05-1.75166E+05-1.52651E+04-3.88708E+05-1.19508E-09-1.18234E-09
 -1       773-8.70236E+05-1.64309E+05-6.49001E+03-3.81224E+05-5.45697E-10 3.63798E-11
 -1       774-8.63504E+05-1.71159E+05-3.16750E+03-3.89652E+05 6.90306E-10-4.61114E-10
 -1       775-8.70506E+05-1.63791E+05-1.46491E+03-3.81489E+05-9.64064E-11-1.36424E-11
 -1       776-8.63315E+05-1.70989E+05-7.38621E+02-3.89747E+05 3.25599E-10-1.26659E-09
 -1       777-8.70623E+05-1.63761E+05-4.03562E+02-3.81530E+05 1.27329E-11-5.57066E-10
 -1       778-8.63348E+05-1.70972E+05-3.13578E+02-3.89805E+05-4.19277E-10-5.57648E-10
 -1       779-8.70682E+05-1.63726E+05-3.95249E+02-3.81558E+05 9.09495E-13-4.33261E-10
 -1       780-8.63412E+05-1.70959E+05-7.22428E+02-3.89858E+05-1.18234E-11-6.63931E-11
 -1       781-8.70685E+05-1.63685E+05-1.42658E+03-3.81571E+05 5.44787E-10 1.40062E-10
 -1       782-8.63679E+05-1.71118E+05-3.10096E+03-3.89896E+05 1.25851E-10-9.00400E-11
 -1       783-8.70546E+05-1.64104E+05-6.34244E+03-3.81343E+05-4.88512E-10-5.82077E-10
 -1       784-8.66944E+05-1.75242E+05-1.49569E+04-3.89321E+05 6.04530E-11-1.36424E-11
 -1       785-8.69642E+05-1.75471E+05-3.05160E+04-3.76169E+05 5.93445E-11 3.09228E-11
 -1       786 1.67479E+05-4.91254E+03 2.13262E+04-1.19339E+03 1.61435E-11-7.58519E-10
 -1       787 1.75160E+05 6.68887E+03 1.36553E+04-4.72852E+03-8.99831E-11 8.58563E-10
 -1       788 1.70694E+05-5.05257E+02 5.52645E+03-1.18764E+03-1.23919E-10 2.50111E-10
 -1       789 1.71579E+05 6.57957E+02 3.08454E+03-4.73045E+03 1.80620E-10-2.33854E-10
 -1       790 1.71058E+05-5.46422E+01 1.40442E+03-1.19116E+03 1.72065E-10-8.59472E-11
 -1       791 1.71167E+05 6.38770E+01 7.54210E+02-4.72523E+03 9.90354E-11-1.04360E-09
 -1       792 1.71105E+05-6.92126E+00 3.88525E+02-1.19286E+03 2.12736E-11-1.22853E-09
 -1       793 1.71116E+05 8.46664E+00 2.61637E+02-4.72406E+03 5.41650E-10 6.82405E-11
 -1       794 1.71109E+05-3.99875E+00 2.47150E+02-1.19233E+03-4.16975E-10-2.15032E-09
 -1       795 1.71133E+05 2.93523E+01 3.81846E+02-4.72759E+03 5.05565E-10-7.51350E-11
 -1       796 1.71089E+05-2.56179E+01 6.62994E+02-1.18934E+03-3.29237E-10-5.26455E-10
 -1       797 1.71322E+05 3.01800E+02 1.42772E+03-4.73469E+03 1.69052E-10 5.97311E-10
 -1       798 1.70922E+05-2.33244E+02 2.54634E+03-1.18523E+03-1.69166E-10-3.95062E-10
 -1       799 1.72971E+05 3.07574E+03 6.28426E+03-4.73274E+03-8.46057E-10-6.52165E-10
 -1       800 1.69443E+05-2.26154E+03 9.81104E+03-1.19145E+03 9.02673E-11-1.30694E-09
 -1       801-5.88956E+03 1.69112E+05 2.45931E+04-1.31423E+05 6.27551E-10 3.95084E-09
 -1       802 1.25802E+04 1.77143E+05 2.51165E+04-5.14239E+05-3.34148E-09 4.17185E-09
 -1       803-1.38178E+03 1.69905E+05 2.65238E+04-1.31040E+05 1.56433E-09 6.11959E-09
 -1       804 2.96988E+04 1.87537E+05 5.56063E+04-5.14213E+05-4.62387E-09-2.63572E-09
 -1       805-1.98312E+04 1.58969E+05 8.22355E+04-1.31453E+05 1.51340E-09 1.32422E-09
 -1       806-1.63248E+05-4.35417E+04-1.39064E+04-7.53097E+04 7.04404E-10-3.63798E-12
 -1       807-1.63312E+05-4.00304E+04-6.59779E+03-7.95632E+04 6.36192E-10 1.08776E-09
 -1       808-1.63174E+05-3.64393E+04-2.77423E+03-7.83038E+04-2.51475E-10-2.89447E-10
 -1       809-1.61938E+05-3.75352E+04-1.34078E+03-8.01386E+04-3.88809E-10-5.95719E-10
 -1       810-1.63208E+05-3.59534E+04-6.06373E+02-7.85219E+04-7.13953E-10 1.80307E-10
 -1       811-1.61803E+05-3.73697E+04-3.04224E+02-8.01619E+04-1.73259E-10 2.72280E-10
 -1       812-1.63219E+05-3.59389E+04-1.59742E+02-7.85321E+04 4.19789E-10-1.00158E-09
 -1       813-1.61789E+05-3.73651E+04-1.19149E+02-8.01585E+04 1.48475E-10-8.69704E-11
 -1       814-1.63219E+05-3.59406E+04-1.40236E+02-7.85312E+04-2.78533E-10 8.99490E-10
 -1       815-1.61798E+05-3.73705E+04-2.52476E+02-8.01586E+04 4.72482E-10-5.68662E-10
 -1       816-1.63206E+05-3.59542E+04-4.94992E+02-7.85216E+04-1.41563E-09 7.14408E-10
 -1       817-1.61909E+05-3.75030E+04-1.09085E+03-8.01340E+04-3.60228E-09-7.33235E-09
 -1       818-1.63174E+05-3.63539E+04-2.25511E+03-7.83462E+04 2.20552E-10-9.93623E-10
 -1       819-1.63048E+05-3.95051E+04-5.36172E+03-7.96344E+04-6.30052E-10 1.34423E-09
 -1       820-1.63206E+05-4.21473E+04-1.13001E+04-7.59374E+04-2.91493E-10 1.45224E-09
 -1       821-1.65298E+05 4.91873E+03-2.13614E+04 1.25456E+03-1.65460E-09 4.77485E-10
 -1       822-1.72986E+05-6.70026E+03-1.36780E+04 5.04232E+03-6.34373E-10-1.32968E-09
 -1       823-1.68520E+05 5.04901E+02-5.53750E+03 1.22432E+03 4.13422E-09-7.92397E-10
 -1       824-1.69405E+05-6.55606E+02-3.09247E+03 5.08172E+03 5.24301E-09-8.03311E-10
 -1       825-1.68885E+05 5.50319E+01-1.41409E+03 1.21485E+03-1.35594E-09 1.81501E-10
 -1       826-1.68998E+05-5.85744E+01-7.69967E+02 5.09697E+03-6.54268E-09 7.73639E-11
 -1       827-1.68931E+05 8.46312E+00-4.18529E+02 1.20901E+03-2.76970E-09 5.95293E-10
 -1       828-1.68952E+05-3.88749E+00-3.22581E+02 5.10626E+03-4.01599E-09-1.08628E-09
 -1       829-1.68933E+05 7.78082E+00-3.65649E+02 1.20554E+03-6.07287E-10-7.99307E-10
 -1       830-1.68988E+05-4.44437E+01-6.31165E+02 5.11030E+03 2.11875E-09 1.23837E-10
 -1       831-1.68897E+05 4.54216E+01-1.13708E+03 1.20498E+03-2.85144E-09 2.97632E-10
 -1       832-1.69315E+05-5.20222E+02-2.47456E+03 5.10840E+03-3.87828E-10 2.22235E-09
 -1       833-1.68606E+05 4.05406E+02-4.42504E+03 1.20750E+03-1.74509E-10 1.16211E-09
 -1       834-1.72178E+05-5.34842E+03-1.09281E+04 5.09215E+03 1.69024E-10-2.26532E-09
 -1       835-1.66033E+05 3.93212E+03-1.70647E+04 1.22178E+03 6.29825E-10-1.66438E-10
 -1       836-7.86267E+03 4.25811E+05 3.59928E+04-1.15538E+04-5.69344E-10 1.25874E-09
 -1       837 1.20727E+04 4.39036E+05 2.79778E+04-4.46856E+04 1.95450E-09-1.10441E-09
 -1       838-1.90348E+03 4.30056E+05 2.07272E+04-1.15378E+04-1.00681E-09 1.89621E-09
 -1       839 1.60027E+04 4.41367E+05 3.49496E+04-4.46829E+04 1.94996E-09-5.52006E-10
 -1       840-1.10245E+04 4.23474E+05 4.91859E+04-1.15562E+04-8.07631E-10 5.95492E-10
 -1       841-1.97696E+04 7.52747E+01-7.43353E+03-8.74496E+03-1.99702E-09 9.09495E-11
 -1       842-2.38627E+04-6.54417E+03-5.15351E+03-7.25081E+03-9.21546E-10-9.74239E-10
 -1       843-2.12783E+04-2.59386E+03-1.74181E+03-8.24935E+03 1.21426E-09 3.03544E-10
 -1       844-2.21139E+04-3.44948E+03-1.08371E+03-7.81919E+03 2.47289E-09 1.96607E-10
 -1       845-2.15179E+04-3.01480E+03-3.99879E+02-8.17837E+03-6.80842E-11 1.95669E-09
 -1       846-2.18368E+04-2.95878E+03-2.24051E+02-7.89867E+03-1.79989E-09-1.56216E-09
 -1       847-2.15553E+04-3.08385E+03-7.58428E+01-8.17017E+03-2.83094E-09 1.38299E-09
 -1       848-2.17889E+04-2.87013E+03-1.02414E+01-7.90829E+03-2.59437E-08 8.61721E-09
 -1       849-2.15658E+04-3.10333E+03 5.28504E+01-8.16882E+03-3.76966E-06 1.41999E-06
 -1       850-2.17449E+04-2.79731E+03 1.74922E+02-7.91895E+03-7.49689E-06 2.81857E-06
 -1       851-2.15993E+04-3.15657E+03 3.17327E+02-8.15954E+03-3.77494E-06 1.41716E-06
 -1       852-2.15137E+04-2.41211E+03 8.64781E+02-7.99025E+03-2.65651E-08 6.41435E-09
 -1       853-2.17970E+04-3.48801E+03 1.38960E+03-8.09770E+03-1.64303E-09 5.40069E-10
 -1       854-2.01021E+04 4.62114E+01 4.11494E+03-8.45768E+03-3.12653E-10 6.91841E-10
 -1       855-2.30102E+04-5.61122E+03 5.93350E+03-7.69342E+03-1.26465E-09 1.58070E-09
 -1       856-1.95240E+05 4.55358E+03-1.97890E+04 2.54378E+03-2.70575E-09 1.08957E-09
 -1       857-2.02356E+05-6.19507E+03-1.26683E+04 1.03174E+04-2.80613E-09-3.41743E-10
 -1       858-1.98226E+05 4.68773E+02-5.12951E+03 2.49273E+03-3.24439E-09 6.60293E-10
 -1       859-1.99050E+05-5.92319E+02-2.86227E+03 1.03850E+04 4.42014E-10-9.84130E-10
 -1       860-1.98566E+05 5.43429E+01-1.30658E+03 2.47558E+03 2.25123E-09 6.33122E-10
 -1       861-1.98679E+05-3.66972E+01-7.05823E+02 1.04100E+04-5.55548E-09-1.96894E-09
 -1       862-1.98610E+05 1.22289E+01-3.73429E+02 2.46756E+03 5.05912E-09-4.08420E-11
 -1       863-1.98637E+05 1.57337E+01-2.69581E+02 1.04199E+04 1.46486E-08-1.62430E-09
 -1       864-1.98613E+05 1.07191E+01-2.81954E+02 2.46571E+03 6.04521E-09-9.73003E-10
 -1       865-1.98660E+05-1.32163E+01-4.65316E+02 1.04170E+04 5.39353E-09-3.49474E-09
 -1       866-1.98586E+05 3.67104E+01-8.27118E+02 2.47049E+03-1.47315E-09-3.58966E-11
 -1       867-1.98890E+05-3.59757E+02-1.79177E+03 1.03999E+04-2.68750E-09-2.48670E-09
 -1       868-1.98374E+05 2.94773E+02-3.20302E+03 2.48282E+03 2.91379E-09-2.11105E-09
 -1       869-2.00950E+05-3.85592E+03-7.90453E+03 1.03446E+04-2.83717E-09-6.67910E-10
 -1       870-1.96511E+05 2.84200E+03-1.23467E+04 2.52630E+03 7.19410E-10 1.10504E-09
 -1       871-1.80609E+03-1.73384E+04-3.29517E+03 4.96654E+04 2.28420E-09-9.74069E-10
 -1       872-5.70563E+02-1.79233E+04-9.52066E+02 5.80684E+04 1.14187E-09-1.22509E-09
 -1       873 4.05278E+01-1.77038E+04 9.94128E+02 4.95701E+04 1.77329E-09 1.28989E-09
 -1       874 1.17105E+03-1.69143E+04 3.67361E+03 5.81121E+04 2.14573E-09 1.14420E-09
 -1       875 3.83455E+03-1.83707E+04 7.92613E+03 4.96259E+04 1.74532E-09 9.60767E-10
 -1       876 2.32238E+05 2.91263E+04 2.20029E+04 9.12739E+04 6.14591E-10-3.72165E-09
 -1       877 2.37241E+05 4.62459E+04 1.38875E+04 9.44704E+04 1.41313E-10 1.63914E-09
 -1       878 2.36028E+05 3.41495E+04 5.19447E+03 9.07348E+04 8.89713E-10-2.67823E-09
 -1       879 2.32884E+05 3.97202E+04 2.85952E+03 9.53966E+04-8.39776E-09-1.72554E-09
 -1       880 2.36451E+05 3.47002E+04 1.21324E+03 9.07011E+04-4.70766E-09-5.86738E-10
 -1       881 2.32397E+05 3.90218E+04 6.51382E+02 9.54526E+04-5.62625E-09-6.70937E-09
 -1       882 2.36497E+05 3.47667E+04 3.47686E+02 9.07064E+04 2.99701E-09 6.20844E-10
 -1       883 2.32352E+05 3.89503E+04 2.99425E+02 9.54450E+04-3.83019E-09-2.21925E-09
 -1       884 2.36492E+05 3.47679E+04 3.90662E+02 9.07088E+04-1.80990E-09 1.91488E-09
 -1       885 2.32419E+05 3.90295E+04 7.70120E+02 9.54405E+04 7.81291E-09-3.05363E-10
 -1       886 2.36431E+05 3.46941E+04 1.45396E+03 9.07085E+04 2.09047E-09 6.43581E-10
 -1       887 2.33015E+05 3.98597E+04 3.43764E+03 9.53583E+04 2.68145E-09-4.36785E-10
 -1       888 2.35913E+05 3.40379E+04 6.24926E+03 9.07547E+04-2.50591E-10 1.50976E-09
 -1       889 2.38263E+05 4.77054E+04 1.67093E+04 9.42336E+04-6.10089E-09-1.06115E-09
 -1       890 2.31351E+05 2.79965E+04 2.64752E+04 9.14043E+04-1.11231E-09-4.29281E-10
 -1       891 8.42046E+02-1.03570E+05-4.00717E+03 1.12045E+04 2.11162E-09-5.70026E-10
 -1       892-1.39739E+03-1.05007E+05-3.22424E+03 4.37860E+04 6.80075E-10 8.12520E-10
 -1       893 2.28744E+02-1.04022E+05-2.57247E+03 1.11567E+04 1.98395E-09 1.81615E-10
 -1       894-2.16614E+03-1.05460E+05-4.58578E+03 4.37824E+04-3.00986E-09-1.50976E-10
 -1       895 1.45842E+03-1.03112E+05-6.58366E+03 1.12080E+04 4.15548E-09 2.19188E-10
 -1       896 4.62651E+05-3.50607E+03 8.15215E+03 5.63994E+02-1.80030E-10-1.43564E-09
 -1       897 4.66175E+05 4.05953E+03 5.76950E+03-1.05093E+03 4.92212E-10-7.05654E-10
 -1       898 4.64023E+05-5.46755E+02 2.11832E+03 2.90620E+02 3.91665E-10-6.92125E-10
 -1       899 4.64577E+05 6.33624E+02 1.34181E+03-6.27307E+02 4.47482E-11-2.63142E-10
 -1       900 4.64249E+05-8.60084E+01 5.71834E+02 1.40368E+02 5.20957E-10-1.97019E-10
 -1       901 4.64318E+05 1.07271E+02 3.85426E+02-3.97392E+02 2.67349E-10-5.28750E-11
 -1       902 4.64283E+05-2.11626E+01 2.73720E+02 6.07011E+01 5.03597E-13 9.05995E-11
 -1       903 4.64303E+05 7.64480E+01 3.78325E+02-2.81199E+02 2.92773E-10 2.53078E-10
 -1       904 4.64263E+05-5.52053E+01 5.85174E+02 2.41719E+01 6.89697E-10 2.14385E-10
 -1       905 4.64475E+05 4.01228E+02 1.28455E+03-2.38820E+02 1.22668E-10 1.54714E-10
 -1       906 4.64111E+05-3.45454E+02 2.19382E+03 1.83218E+01-7.59299E-11 2.11685E-10
 -1       907 4.65536E+05 2.57225E+03 5.38234E+03-2.55796E+02 1.60329E-10 2.02476E-10
 -1       908 4.63201E+05-2.22253E+03 8.58260E+03 4.11487E+01 8.27391E-11 8.41283E-11
 -1       909 4.71980E+05 1.65008E+04 2.34237E+04-3.38681E+02 4.45759E-10-4.87489E-10
 -1       910 4.57663E+05-1.42479E+04 3.31501E+04 1.01206E+02 5.91061E-10-1.34605E-10
 -1       911 1.34507E+05-1.74920E+03 4.06000E+03 3.32680E+02-1.37518E-10 6.03450E-10
 -1       912 1.36304E+05 2.02565E+03 2.88105E+03-1.41823E+03-1.79270E-10 9.26264E-10
 -1       913 1.35200E+05-2.72911E+02 1.05889E+03 2.32927E+02-2.51966E-10 1.57729E-09
 -1       914 1.35493E+05 3.17622E+02 6.78879E+02-1.26852E+03-2.46416E-10 1.90185E-09
 -1       915 1.35317E+05-4.35341E+01 3.03059E+02 1.82964E+02 8.67468E-10 2.05895E-09
 -1       916 1.35362E+05 5.93134E+01 2.30831E+02-1.21351E+03 1.39006E-09 2.07701E-09
 -1       917 1.35331E+05-1.47868E+01 2.09395E+02 1.77922E+02 1.04157E-09 2.30169E-09
 -1       918 1.35376E+05 7.11758E+01 3.49679E+02-1.24776E+03 1.13840E-10 1.83088E-09
 -1       919 1.35303E+05-5.55620E+01 5.81987E+02 2.17209E+02 3.53836E-10 1.82069E-09
 -1       920 1.35573E+05 4.10893E+02 1.31336E+03-1.37463E+03-3.51012E-10 1.28216E-09
 -1       921 1.35135E+05-3.54653E+02 2.24531E+03 3.04799E+02 6.28830E-11 9.53037E-10
 -1       922 1.36701E+05 2.64191E+03 5.53660E+03-1.60739E+03 1.64263E-10 1.20622E-10
 -1       923 1.34177E+05-2.28418E+03 8.80649E+03 4.49969E+02-3.79117E-10-7.08042E-10
 -1       924 1.43395E+05 1.69582E+04 2.40882E+04-1.98000E+03-1.25554E-09-2.04454E-09
 -1       925 1.28444E+05-1.46469E+04 3.40379E+04 6.77391E+02-4.09273E-11-2.95586E-09
 -1       926-5.88512E+05 1.31196E+04-3.05108E+04-1.70748E+03 1.85136E-09-4.41105E-09
 -1       927-6.01671E+05-1.51895E+04-2.15571E+04 2.82416E+03-2.54937E-09-3.88536E-09
 -1       928-5.93619E+05 2.04475E+03-7.89408E+03-1.55798E+03 4.42526E-11-4.11455E-09
 -1       929-5.95674E+05-2.36311E+03-4.92810E+03 1.98078E+03 2.06725E-09-3.49746E-09
 -1       930-5.94500E+05 3.13841E+02-2.00934E+03-8.64095E+02 1.79540E-10-2.62003E-09
 -1       931-5.94632E+05-3.60116E+02-1.11394E+03 3.15092E+02 1.86503E-10-1.20286E-09
 -1       932-5.94656E+05 4.24620E+01-4.73577E+02 1.07736E+02 3.56039E-10-4.75069E-10
 -1       933-5.94479E+05-3.23775E+01-1.54124E+02-1.52899E+03-3.79288E-10 1.02031E-09
 -1       934-5.94654E+05-1.23899E+01 5.53434E+01 9.80011E+02 4.93529E-10 1.82476E-09
 -1       935-5.94462E+05 1.30889E+02 3.73549E+02-2.83417E+03 7.53850E-11 2.25531E-09
 -1       936-5.94676E+05-1.17311E+02 7.19217E+02 1.41294E+03-3.07013E-10 2.84771E-09
 -1       937-5.94112E+05 8.86133E+02 1.83415E+03-3.09166E+03-1.65461E-09 2.27772E-09
 -1       938-5.95005E+05-7.65464E+02 2.93800E+03 1.23752E+03-1.25146E-09 1.95928E-09
 -1       939-5.91829E+05 5.68342E+03 8.06563E+03-2.20275E+03-9.98465E-10 1.41188E-09
 -1       940-5.96953E+05-4.90852E+03 1.13840E+04 5.24009E+02 6.37783E-11 1.24555E-09
 -1       941 2.51286E+06-1.25016E+05 2.91473E+05 2.44700E+02 1.22679E-08 2.44472E-09
 -1       942 2.63866E+06 1.44819E+05 2.05801E+05 4.29591E+02 1.38327E-08-6.73026E-10
 -1       943 2.56150E+06-1.95063E+04 7.55286E+04 3.07908E+02 6.84120E-07 1.79716E-09
 -1       944 2.58216E+06 2.25839E+04 4.74217E+04 3.51108E+02 1.35242E-06-1.72167E-09
 -1       945 2.56952E+06-3.03812E+03 1.94847E+04 3.23225E+02 1.15813E-06 4.04725E-10
 -1       946 2.57289E+06 3.56783E+03 1.16741E+04 3.30641E+02 9.57893E-07 4.21164E-09
 -1       947 2.57084E+06-5.24619E+02 5.84120E+03 3.28388E+02 1.47831E-06 2.31171E-09
 -1       948 2.57154E+06 9.73732E+02 4.83483E+03 3.17820E+02 1.99494E-06 1.46031E-09
 -1       949 2.57088E+06-4.48061E+02 5.13783E+03 3.36048E+02 1.00401E-06-3.68664E-09
 -1       950 2.57254E+06 2.90670E+03 9.64438E+03 2.80750E+02 9.52933E-09 3.55249E-09
 -1       951 2.56984E+06-2.45453E+03 1.58242E+04 3.65457E+02-6.99882E-10-3.47427E-09
 -1       952 2.58000E+06 1.82222E+04 3.83097E+04 1.25571E+02-1.27111E-09-6.98492E-10
 -1       953 2.56337E+06-1.57362E+04 6.09508E+04 4.91217E+02-5.30282E-09 1.08412E-09
 -1       954 2.62557E+06 1.16825E+05 1.66027E+05-5.51784E+02-5.65023E-10-2.12458E-09
 -1       955 2.52411E+06-1.00854E+05 2.35076E+05 1.04269E+03-1.01880E-08 3.05590E-10
 -1       956-1.33113E+05-2.30356E+03-4.80789E+03 1.86000E+04-2.65436E-09-3.14230E-10
 -1       957-1.33990E+05-7.30080E+02-2.42578E+03 2.15771E+04-9.81800E-10-1.73213E-09
 -1       958-1.33507E+05-8.41630E+01-1.09082E+03 1.84878E+04 1.58070E-09-1.23043E-09
 -1       959-1.33588E+05-9.46282E+00-5.54767E+02 2.17001E+04-1.39153E-09-5.42400E-10
 -1       960-1.33551E+05 2.26295E+01-2.69224E+02 1.84763E+04-3.20415E-09-1.28830E-09
 -1       961-1.33559E+05 2.59017E+01-1.41863E+02 2.17129E+04-5.58794E-09-3.08773E-10
 -1       962-1.33562E+05 2.45231E+01-7.96333E+01 1.84749E+04-2.34877E-09-3.56067E-10
 -1       963-1.33560E+05 2.84726E+01-6.10681E+01 2.17147E+04-4.05612E-09-4.01315E-10
 -1       964-1.33566E+05 2.66033E+01-7.06964E+01 1.84745E+04-1.17757E-09-1.41199E-09
 -1       965-1.33567E+05 3.05953E+01-1.19344E+02 2.17146E+04 2.70074E-09-2.83762E-10
 -1       966-1.33564E+05 2.90748E+01-2.22500E+02 1.84750E+04-2.09806E-09-7.20775E-10
 -1       967-1.33598E+05 5.57697E+00-4.57205E+02 2.17083E+04 1.38698E-10-6.20389E-10
 -1       968-1.33534E+05-5.50644E+01-8.97701E+02 1.84808E+04 1.56206E-10 6.92353E-11
 -1       969-1.33937E+05-5.84397E+02-1.99718E+03 2.16462E+04 6.78483E-10-8.59018E-10
 -1       970-1.33214E+05-1.88031E+03-3.95767E+03 1.85384E+04 7.65795E-10-1.97451E-09
 -1       971-2.71784E+05 3.77732E+03-1.64259E+04 2.52322E+03-2.20552E-09 1.12323E-09
 -1       972-2.77676E+05-5.14075E+03-1.05151E+04 1.03558E+04-2.50975E-09-8.05358E-10
 -1       973-2.74262E+05 3.88301E+02-4.26067E+03 2.46052E+03-2.86514E-09 9.22910E-10
 -1       974-2.74936E+05-4.89256E+02-2.38127E+03 1.04427E+04 2.17801E-09 1.46991E-09
 -1       975-2.74544E+05 4.52903E+01-1.09652E+03 2.43588E+03-1.41085E-10 4.95675E-10
 -1       976-2.74632E+05-2.72095E+01-6.10015E+02 1.04800E+04-5.06992E-09 2.68392E-09
 -1       977-2.74581E+05 1.13640E+01-3.57848E+02 2.42311E+03 4.51638E-09 1.42427E-09
 -1       978-2.74604E+05 1.40000E+01-3.22514E+02 1.04968E+04 1.20502E-08 1.34790E-09
 -1       979-2.74579E+05 1.35032E+01-4.26269E+02 2.41903E+03 5.91458E-09 5.88912E-10
 -1       980-2.74653E+05-4.18145E+01-7.91106E+02 1.04959E+04 6.80794E-09 3.46466E-10
 -1       981-2.74531E+05 6.15577E+01-1.45601E+03 2.42406E+03-2.49486E-09-3.52770E-10
 -1       982-2.75071E+05-6.58182E+02-3.18686E+03 1.04759E+04-5.00438E-09 1.58420E-09
 -1       983-2.74154E+05 5.24216E+02-5.70776E+03 2.43913E+03-3.25144E-11-8.62656E-10
 -1       984-2.78756E+05-6.89191E+03-1.40992E+04 1.04145E+04-1.74907E-09 8.88349E-10
 -1       985-2.70832E+05 5.07228E+03-2.20208E+04 2.48641E+03 4.77371E-09 3.53793E-10
 -3
    1PSTEP                         9           5           1          
  100CL  105 4.12109E-01         841                     0    5           1
 -4  DISP        4    1
 -5  D1          1    2    1    0
 -5  D2          1    2    2    0
 -5  D3          1    2    3    0
 -5  ALL         1    2    0    0    1ALL
 -1         1 5.04400E-05 0.00000E+00 0.00000E+00
 -1         2 3.72916E-05 0.00000E+00 0.00000E+00
 -1         3 3.11380E-05 0.00000E+00 0.00000E+00
 -1         4 2.77741E-05 0.00000E+00 0.00000E+00
 -1         5 2.62660E-05 0.00000E+00 0.00000E+00
 -1         8 3.95934E-05-5.05734E-07 0.00000E+00
 -1         9 3.13536E-05 4.27699E-07 0.00000E+00
 -1        10 2.92109E-05-1.29765E-06 0.00000E+00
 -1        11 2.72368E-05-2.57891E-07 0.00000E+00
 -1        12 2.52888E-05 6.61866E-07 0.00000E+00
 -1        15 1.66997E-05-1.05407E-06 0.00000E+00
 -1        16 2.29323E-05 4.24172E-07 0.00000E+00
 -1        17 2.12682E-05-2.61008E-06 0.00000E+00
 -1        18 2.15753E-05-5.09359E-07 0.00000E+00
 -1        19 2.26846E-05 1.31098E-06 0.00000E+00
 -1        20 2.30362E-05 1.39237E-05 0.00000E+00
 -1        21 2.30259E-05 3.33239E-05 0.00000E+00
 -1        22 6.19516E-06-6.80763E-07 0.00000E+00
 -1        23 8.27614E-06 8.94337E-07 0.00000E+00
 -1        24 8.70434E-06-3.07884E-06 0.00000E+00
 -1        25 1.89029E-05-3.47453E-07 0.00000E+00
 -1        26 1.99906E-05 1.73913E-06 0.00000E+00
 -1        27 1.89153E-05 1.34311E-05 0.00000E+00
 -1        28 1.76403E-05 3.28564E-05 0.00000E+00
 -1        29 0.00000E+00 0.00000E+00 0.00000E+00
 -1        30 2.96306E-06 1.17701E-06 0.00000E+00
 -1        31 3.82275E-06-2.46293E-06 0.00000E+00
 -1        32 0.00000E+00 0.00000E+00 0.00000E+00
 -1        33 1.62947E-05 2.74979E-06 0.00000E+00
 -1        34 1.54379E-05 1.33859E-05 0.00000E+00
 -1        35 1.36779E-05 3.26077E-05 0.00000E+00
 -1        36 4.96446E-05 5.45902E-20 0.00000E+00
 -1        37 4.88229E-05 2.65446E-20 0.00000E+00
 -1        38 4.80029E-05 2.27756E-20 2.64698E-23
 -1        39 4.71779E-05 6.01398E-20 0.00000E+00
 -1        40 4.63528E-05 5.24639E-21 0.00000E+00
 -1        41 4.55266E-05-1.25492E-20 0.00000E+00
 -1        42 4.47003E-05 5.15168E-21-2.64698E-23
 -1        43 4.38739E-05 1.27370E-19 1.32349E-23
 -1        44 4.30474E-05 3.67828E-19 0.00000E+00
 -1        45 4.22211E-05 5.70980E-19 1.32349E-23
 -1        46 4.13948E-05 7.44307E-19 0.00000E+00
 -1        47 4.05691E-05 7.47774E-19 0.00000E+00
 -1        48 3.97436E-05 6.09032E-19-2.64698E-23
 -1        49 3.89212E-05 3.98505E-19 1.32349E-23
 -1        50 3.80978E-05 1.45511E-19-1.32349E-23
 -1        51 4.96216E-05-8.61826E-08 0.00000E+00
 -1        52 4.82648E-05-1.68492E-07 0.00000E+00
 -1        53 4.64740E-05-2.50205E-07 0.00000E+00
 -1        54 4.43586E-05-3.32467E-07 0.00000E+00
 -1        55 4.20282E-05-4.16360E-07 2.06795E-25
 -1        56 4.94486E-05-4.04851E-07 0.00000E+00
 -1        57 4.84381E-05-8.68306E-07 1.32349E-23
 -1        58 4.74364E-05-1.34953E-06-2.64698E-23
 -1        59 4.64255E-05-1.82449E-06 0.00000E+00
 -1        60 4.54011E-05-2.26418E-06 0.00000E+00
 -1        61 4.43526E-05-2.64294E-06 0.00000E+00
 -1        62 4.32722E-05-2.93707E-06 0.00000E+00
 -1        63 4.21518E-05-3.12515E-06 0.00000E+00
 -1        64 4.09851E-05-3.18995E-06 2.64698E-23
 -1        65 3.97669E-05-3.11697E-06 0.00000E+00
 -1        66 3.84938E-05-2.89741E-06 0.00000E+00
 -1        67 3.71647E-05-2.52542E-06 0.00000E+00
 -1        68 3.57788E-05-2.00193E-06-2.64698E-23
 -1        69 3.43434E-05-1.32887E-06 0.00000E+00
 -1        70 3.28545E-05-5.19213E-07 2.64698E-23
 -1        71 3.69056E-05-1.85444E-20-1.32349E-23
 -1        72 3.65202E-05 1.96118E-20 0.00000E+00
 -1        73 3.61348E-05 1.85638E-19 0.00000E+00
 -1        74 3.57496E-05 3.42625E-19-6.61744E-24
 -1        75 3.53643E-05 4.16365E-19 0.00000E+00
 -1        76 3.49791E-05 4.00142E-19 6.61744E-24
 -1        77 3.45939E-05 3.20159E-19 0.00000E+00
 -1        78 3.42087E-05 2.22777E-19 6.61744E-24
 -1        79 3.38235E-05 2.01188E-19 0.00000E+00
 -1        80 3.34384E-05 1.38565E-19 0.00000E+00
 -1        81 3.30532E-05 1.10716E-19 1.32349E-23
 -1        82 3.26684E-05 1.09629E-19 0.00000E+00
 -1        83 3.22835E-05 1.06190E-19-1.32349E-23
 -1        84 3.18999E-05 7.59056E-20-6.61744E-24
 -1        85 3.15158E-05 6.59149E-20 0.00000E+00
 -1        86 3.70590E-05 5.75778E-08 0.00000E+00
 -1        87 3.63687E-05 1.33937E-07 0.00000E+00
 -1        88 3.53408E-05 2.08713E-07 0.00000E+00
 -1        89 3.40944E-05 2.84778E-07 0.00000E+00
 -1        90 3.27315E-05 3.61571E-07 0.00000E+00
 -1        91 3.67537E-05 1.26590E-08 0.00000E+00
 -1        92 3.60736E-05 3.95937E-07-6.61744E-24
 -1        93 3.53192E-05 9.77455E-07-1.32349E-23
 -1        94 3.45565E-05 1.57943E-06-6.61744E-24
 -1        95 3.38559E-05 2.01595E-06 0.00000E+00
 -1        96 3.32861E-05 2.10421E-06 6.61744E-24
 -1        97 3.28582E-05 1.81390E-06 0.00000E+00
 -1        98 3.25806E-05 1.12237E-06 0.00000E+00
 -1        99 3.23951E-05 1.85078E-07-1.32349E-23
 -1       100 3.22415E-05-8.37452E-07-6.61744E-24
 -1       101 3.20457E-05-1.74728E-06 0.00000E+00
 -1       102 3.17349E-05-2.34859E-06 0.00000E+00
 -1       103 3.12862E-05-2.58207E-06 1.32349E-23
 -1       104 3.06818E-05-2.39513E-06 0.00000E+00
 -1       105 2.99691E-05-1.92195E-06 1.32349E-23
 -1       106 3.09265E-05-2.56809E-20 6.61744E-24
 -1       107 3.07157E-05-3.03250E-20 0.00000E+00
 -1       108 3.05050E-05-1.12148E-19 6.61744E-24
 -1       109 3.02943E-05-1.54500E-19 0.00000E+00
 -1       110 3.00837E-05-2.14356E-19 0.00000E+00
 -1       111 2.98731E-05-2.55751E-19-3.30872E-24
 -1       112 2.96626E-05-2.81040E-19 0.00000E+00
 -1       113 2.94520E-05-2.85522E-19-3.30872E-24
 -1       114 2.92415E-05-2.10985E-19 6.61744E-24
 -1       115 2.90309E-05-1.28213E-19 0.00000E+00
 -1       116 2.88204E-05-1.35763E-19 6.61744E-24
 -1       117 2.86101E-05-9.56585E-20-3.30872E-24
 -1       118 2.83997E-05 1.02714E-20 6.61744E-24
 -1       119 2.81901E-05 7.68839E-20 3.30872E-24
 -1       120 2.79802E-05 7.15322E-20 0.00000E+00
 -1       121 3.11199E-05-2.16616E-07-6.61744E-24
 -1       122 3.10274E-05-4.32606E-07 0.00000E+00
 -1       123 3.08251E-05-6.48640E-07 0.00000E+00
 -1       124 3.04781E-05-8.64706E-07-3.30872E-24
 -1       125 2.99515E-05-1.08082E-06-6.61744E-24
 -1       126 3.09840E-05-2.57370E-07 0.00000E+00
 -1       127 3.09607E-05-8.62312E-07 0.00000E+00
 -1       128 3.10334E-05-1.72383E-06-6.61744E-24
 -1       129 3.11671E-05-2.74825E-06-3.30872E-24
 -1       130 3.13130E-05-3.80519E-06-6.61744E-24
 -1       131 3.14222E-05-4.76390E-06 0.00000E+00
 -1       132 3.14543E-05-5.51637E-06 6.61744E-24
 -1       133 3.13693E-05-5.95650E-06 0.00000E+00
 -1       134 3.11536E-05-6.04750E-06-6.61744E-24
 -1       135 3.07943E-05-5.75592E-06 0.00000E+00
 -1       136 3.03107E-05-5.13346E-06 0.00000E+00
 -1       137 2.97236E-05-4.23491E-06 0.00000E+00
 -1       138 2.90763E-05-3.17671E-06 0.00000E+00
 -1       139 2.84141E-05-2.07653E-06 0.00000E+00
 -1       140 2.77837E-05-1.06195E-06 6.61744E-24
 -1       141 2.76779E-05-2.40518E-21 3.30872E-24
 -1       142 2.75827E-05 7.65292E-21 0.00000E+00
 -1       143 2.74874E-05 1.68605E-21 0.00000E+00
 -1       144 2.73923E-05 2.50801E-20-1.65436E-24
 -1       145 2.72972E-05 1.17866E-19-3.30872E-24
 -1       146 2.72021E-05 2.03123E-19-1.65436E-24
 -1       147 2.71070E-05 2.35397E-19 0.00000E+00
 -1       148 2.70120E-05 2.47028E-19 1.65436E-24
 -1       149 2.69170E-05 2.40216E-19 3.30872E-24
 -1       150 2.68220E-05 2.09660E-19 1.65436E-24
 -1       151 2.67271E-05 1.43293E-19 0.00000E+00
 -1       152 2.66325E-05 7.54824E-20 1.65436E-24
 -1       153 2.65379E-05 3.47827E-20 1.65436E-24
 -1       154 2.64449E-05-1.45541E-20 0.00000E+00
 -1       155 2.63514E-05-1.36797E-20 0.00000E+00
 -1       156 2.78242E-05-4.47382E-08-3.30872E-24
 -1       157 2.79685E-05-8.65315E-08 8.27181E-25
 -1       158 2.80935E-05-1.28546E-07 0.00000E+00
 -1       159 2.80854E-05-1.70629E-07 0.00000E+00
 -1       160 2.78358E-05-2.12502E-07 0.00000E+00
 -1       161 2.76565E-05-6.13932E-08 3.30872E-24
 -1       162 2.75498E-05-1.52722E-07-1.65436E-24
 -1       163 2.74500E-05-2.62131E-07 3.30872E-24
 -1       164 2.73524E-05-3.77772E-07-1.65436E-24
 -1       165 2.72523E-05-4.86756E-07 3.30872E-24
 -1       166 2.71450E-05-5.76254E-07-1.65436E-24
 -1       167 2.70265E-05-6.36297E-07 3.30872E-24
 -1       168 2.68934E-05-6.57072E-07-1.65436E-24
 -1       169 2.67438E-05-6.33732E-07-3.30872E-24
 -1       170 2.65759E-05-5.61637E-07 0.00000E+00
 -1       171 2.63904E-05-4.42512E-07 0.00000E+00
 -1       172 2.61883E-05-2.78207E-07 1.65436E-24
 -1       173 2.59722E-05-7.65980E-08 0.00000E+00
 -1       174 2.57468E-05 1.54994E-07-8.27181E-25
 -1       175 2.55142E-05 4.03875E-07 0.00000E+00
 -1       191 2.62320E-05 1.10214E-07 0.00000E+00
 -1       192 2.61449E-05 2.20607E-07 0.00000E+00
 -1       193 2.60054E-05 3.31037E-07 0.00000E+00
 -1       194 2.58152E-05 4.41450E-07 0.00000E+00
 -1       195 2.55757E-05 5.51789E-07 3.30872E-24
 -1       251 3.90904E-05 1.55092E-06 0.00000E+00
 -1       252 3.85744E-05 3.81882E-06 0.00000E+00
 -1       253 3.80599E-05 5.67742E-06-1.32349E-23
 -1       254 3.75444E-05 6.51508E-06-6.61744E-24
 -1       255 3.70291E-05 6.15441E-06 0.00000E+00
 -1       256 3.65120E-05 4.44454E-06-6.61744E-24
 -1       257 3.59929E-05 1.80814E-06 0.00000E+00
 -1       258 3.54725E-05-1.31159E-06 0.00000E+00
 -1       259 3.49525E-05-4.26604E-06 0.00000E+00
 -1       260 3.44345E-05-6.41018E-06 0.00000E+00
 -1       261 3.39183E-05-7.44346E-06 0.00000E+00
 -1       262 3.34030E-05-7.09002E-06-6.61744E-24
 -1       263 3.28869E-05-5.66342E-06-1.32349E-23
 -1       264 3.23719E-05-3.50102E-06-6.61744E-24
 -1       265 3.18559E-05-1.25324E-06-1.32349E-23
 -1       266 3.70292E-05-5.98290E-07 3.30872E-24
 -1       267 3.32321E-05-6.89554E-07-1.65436E-24
 -1       268 2.87480E-05-7.83769E-07 3.30872E-24
 -1       269 2.41252E-05-8.77111E-07 0.00000E+00
 -1       270 1.99232E-05-9.68851E-07 1.65436E-24
 -1       271 3.80915E-05 8.64430E-07 0.00000E+00
 -1       272 3.67229E-05 1.79146E-06 0.00000E+00
 -1       273 3.54995E-05 2.33462E-06 0.00000E+00
 -1       274 3.43967E-05 2.54380E-06 0.00000E+00
 -1       275 3.33978E-05 2.47498E-06 2.64698E-23
 -1       276 3.24809E-05 2.18516E-06 0.00000E+00
 -1       277 3.16245E-05 1.73354E-06 0.00000E+00
 -1       278 3.08060E-05 1.18059E-06 0.00000E+00
 -1       279 3.00025E-05 5.87677E-07-2.64698E-23
 -1       280 2.91909E-05 1.65548E-08-1.32349E-23
 -1       281 2.83482E-05-4.71283E-07 0.00000E+00
 -1       282 2.74523E-05-8.14950E-07 0.00000E+00
 -1       283 2.64805E-05-9.55010E-07 0.00000E+00
 -1       284 2.54147E-05-8.32494E-07 0.00000E+00
 -1       285 2.42292E-05-3.93680E-07 0.00000E+00
 -1       286 3.12165E-05 1.64682E-06 0.00000E+00
 -1       287 3.10826E-05 2.53688E-06 1.65436E-24
 -1       288 3.09488E-05 3.08190E-06-3.30872E-24
 -1       289 3.08157E-05 3.26785E-06 1.65436E-24
 -1       290 3.06825E-05 3.12458E-06 3.30872E-24
 -1       291 3.05495E-05 2.68384E-06 0.00000E+00
 -1       292 3.04163E-05 2.01371E-06 3.30872E-24
 -1       293 3.02830E-05 1.18357E-06 0.00000E+00
 -1       294 3.01496E-05 2.82361E-07 3.30872E-24
 -1       295 3.00163E-05-6.00566E-07 0.00000E+00
 -1       296 2.98830E-05-1.37812E-06 3.30872E-24
 -1       297 2.97496E-05-1.96379E-06 0.00000E+00
 -1       298 2.96164E-05-2.29450E-06 0.00000E+00
 -1       299 2.94825E-05-2.30867E-06 0.00000E+00
 -1       300 2.93488E-05-1.98337E-06-6.61744E-24
 -1       301 2.99477E-05 4.21336E-07 0.00000E+00
 -1       302 2.85348E-05 4.23953E-07 0.00000E+00
 -1       303 2.71209E-05 4.28122E-07-1.65436E-24
 -1       304 2.57119E-05 4.32020E-07 0.00000E+00
 -1       305 2.43137E-05 4.33775E-07 3.30872E-24
 -1       306 3.03294E-05 1.33739E-06-1.32349E-23
 -1       307 2.94531E-05 1.80049E-06-6.61744E-24
 -1       308 2.87206E-05 1.88197E-06 1.32349E-23
 -1       309 2.81059E-05 1.64167E-06 6.61744E-24
 -1       310 2.75877E-05 1.14324E-06 0.00000E+00
 -1       311 2.71415E-05 4.51062E-07 0.00000E+00
 -1       312 2.67432E-05-3.69156E-07 1.32349E-23
 -1       313 2.63678E-05-1.25104E-06 6.61744E-24
 -1       314 2.59906E-05-2.12778E-06 0.00000E+00
 -1       315 2.55865E-05-2.93261E-06 0.00000E+00
 -1       316 2.51309E-05-3.59927E-06 0.00000E+00
 -1       317 2.45994E-05-4.06219E-06 6.61744E-24
 -1       318 2.39680E-05-4.25722E-06 0.00000E+00
 -1       319 2.32156E-05-4.12083E-06 6.61744E-24
 -1       320 2.23159E-05-3.59371E-06 0.00000E+00
 -1       321 2.90827E-05-5.38216E-07 0.00000E+00
 -1       322 2.89589E-05 7.75909E-09 0.00000E+00
 -1       323 2.88350E-05 3.41998E-07 0.00000E+00
 -1       324 2.87119E-05 4.67349E-07-1.65436E-24
 -1       325 2.85889E-05 4.10314E-07 0.00000E+00
 -1       326 2.84660E-05 1.98361E-07-1.65436E-24
 -1       327 2.83431E-05-1.23512E-07 0.00000E+00
 -1       328 2.82202E-05-5.09719E-07 0.00000E+00
 -1       329 2.80973E-05-9.07388E-07 0.00000E+00
 -1       330 2.79744E-05-1.26360E-06 1.65436E-24
 -1       331 2.78516E-05-1.53012E-06 3.30872E-24
 -1       332 2.77287E-05-1.65919E-06 1.65436E-24
 -1       333 2.76059E-05-1.61860E-06 0.00000E+00
 -1       334 2.74830E-05-1.37704E-06 1.65436E-24
 -1       335 2.73601E-05-9.25959E-07-3.30872E-24
 -1       336 2.82188E-05-1.51750E-06 0.00000E+00
 -1       337 2.70270E-05-1.73696E-06 3.30872E-24
 -1       338 2.56856E-05-1.95651E-06 0.00000E+00
 -1       339 2.42449E-05-2.17555E-06 0.00000E+00
 -1       340 2.27556E-05-2.39470E-06 0.00000E+00
 -1       341 2.85320E-05-6.93533E-07 1.32349E-23
 -1       342 2.79328E-05-3.23384E-07 0.00000E+00
 -1       343 2.74425E-05-2.41530E-07 1.32349E-23
 -1       344 2.70785E-05-5.00782E-07 6.61744E-24
 -1       345 2.68123E-05-1.02063E-06 0.00000E+00
 -1       346 2.66117E-05-1.71653E-06 0.00000E+00
 -1       347 2.64198E-05-2.43576E-06 1.32349E-23
 -1       348 2.61793E-05-3.02522E-06 6.61744E-24
 -1       349 2.58514E-05-3.38154E-06 1.32349E-23
 -1       350 2.53990E-05-3.40544E-06-6.61744E-24
 -1       351 2.48335E-05-3.12757E-06 0.00000E+00
 -1       352 2.41686E-05-2.58361E-06 0.00000E+00
 -1       353 2.34559E-05-1.91229E-06 0.00000E+00
 -1       354 2.27514E-05-1.25312E-06 0.00000E+00
 -1       355 2.21017E-05-7.43453E-07 6.61744E-24
 -1       356 2.71136E-05 4.54986E-07 0.00000E+00
 -1       357 2.69907E-05 1.03976E-06 1.65436E-24
 -1       358 2.68679E-05 1.48430E-06-3.30872E-24
 -1       359 2.67451E-05 1.77723E-06-1.65436E-24
 -1       360 2.66224E-05 1.92430E-06 3.30872E-24
 -1       361 2.64997E-05 1.93203E-06 0.00000E+00
 -1       362 2.63770E-05 1.82272E-06 0.00000E+00
 -1       363 2.62543E-05 1.61926E-06 0.00000E+00
 -1       364 2.61316E-05 1.35520E-06 0.00000E+00
 -1       365 2.60090E-05 1.06441E-06 0.00000E+00
 -1       366 2.58864E-05 7.83788E-07-3.30872E-24
 -1       367 2.57642E-05 5.50158E-07 0.00000E+00
 -1       368 2.56420E-05 3.95052E-07 0.00000E+00
 -1       369 2.55216E-05 3.49584E-07 0.00000E+00
 -1       370 2.54007E-05 4.32502E-07 0.00000E+00
 -1       371 2.63381E-05-3.03591E-07 0.00000E+00
 -1       372 2.52032E-05-3.45895E-07 0.00000E+00
 -1       373 2.39965E-05-3.88481E-07-1.65436E-24
 -1       374 2.28824E-05-4.29812E-07 0.00000E+00
 -1       375 2.20218E-05-4.71041E-07 4.13590E-25
 -1       376 2.67288E-05 4.43827E-07 0.00000E+00
 -1       377 2.62138E-05 1.15283E-06-3.30872E-24
 -1       378 2.57203E-05 1.80552E-06 0.00000E+00
 -1       379 2.52715E-05 2.33699E-06 0.00000E+00
 -1       380 2.48823E-05 2.70985E-06 6.61744E-24
 -1       381 2.45661E-05 2.88792E-06-3.30872E-24
 -1       382 2.43203E-05 2.87850E-06 6.61744E-24
 -1       383 2.41413E-05 2.69064E-06-3.30872E-24
 -1       384 2.40109E-05 2.37334E-06 0.00000E+00
 -1       385 2.39102E-05 1.97685E-06-3.30872E-24
 -1       386 2.38140E-05 1.56835E-06 0.00000E+00
 -1       387 2.36976E-05 1.21526E-06 0.00000E+00
 -1       388 2.35396E-05 9.72876E-07-6.61744E-24
 -1       389 2.33219E-05 8.96357E-07 0.00000E+00
 -1       390 2.30348E-05 1.00225E-06 0.00000E+00
 -1       406 2.49395E-05 7.70653E-07-3.30872E-24
 -1       407 2.45495E-05 8.79568E-07-1.65436E-24
 -1       408 2.41238E-05 9.88428E-07 0.00000E+00
 -1       409 2.36676E-05 1.09702E-06 0.00000E+00
 -1       410 2.31861E-05 1.20503E-06 0.00000E+00
 -1       466 1.70724E-05 1.14185E-06 0.00000E+00
 -1       467 1.74632E-05 2.31292E-06-3.30872E-24
 -1       468 1.78535E-05 2.77390E-06 0.00000E+00
 -1       469 1.82471E-05 2.82724E-06 0.00000E+00
 -1       470 1.86408E-05 2.60038E-06 0.00000E+00
 -1       471 1.90350E-05 2.21594E-06 0.00000E+00
 -1       472 1.94293E-05 1.72872E-06 0.00000E+00
 -1       473 1.98236E-05 1.19176E-06 6.61744E-24
 -1       474 2.02179E-05 6.36630E-07 0.00000E+00
 -1       475 2.06120E-05 9.46402E-08 6.61744E-24
 -1       476 2.10060E-05-3.97263E-07 0.00000E+00
 -1       477 2.13991E-05-8.01287E-07 0.00000E+00
 -1       478 2.17920E-05-1.04180E-06-1.32349E-23
 -1       479 2.21800E-05-1.04037E-06 3.30872E-24
 -1       480 2.25695E-05-6.14890E-07 1.65436E-24
 -1       481 1.41602E-05-9.95948E-07 0.00000E+00
 -1       482 1.19809E-05-9.33867E-07 0.00000E+00
 -1       483 1.01241E-05-8.71365E-07 0.00000E+00
 -1       484 8.55309E-06-8.07962E-07 0.00000E+00
 -1       485 7.24940E-06-7.44107E-07 0.00000E+00
 -1       486 1.52974E-05 1.44863E-06 6.61744E-24
 -1       487 1.39387E-05 3.78548E-06 0.00000E+00
 -1       488 1.28451E-05 5.42288E-06 0.00000E+00
 -1       489 1.22105E-05 5.83135E-06 0.00000E+00
 -1       490 1.20490E-05 4.97812E-06 0.00000E+00
 -1       491 1.23622E-05 2.85216E-06 0.00000E+00
 -1       492 1.29624E-05-4.44246E-08-1.32349E-23
 -1       493 1.36571E-05-3.19528E-06 0.00000E+00
 -1       494 1.42163E-05-5.98175E-06 0.00000E+00
 -1       495 1.44116E-05-7.79195E-06-6.61744E-24
 -1       496 1.41604E-05-8.40751E-06 0.00000E+00
 -1       497 1.33877E-05-7.63200E-06 0.00000E+00
 -1       498 1.22281E-05-5.82895E-06 0.00000E+00
 -1       499 1.08274E-05-3.37919E-06 0.00000E+00
 -1       500 9.42423E-06-9.26011E-07-6.61744E-24
 -1       501 2.28214E-05 1.54314E-06 0.00000E+00
 -1       502 2.27171E-05 2.19344E-06 1.65436E-24
 -1       503 2.26126E-05 2.39956E-06 3.30872E-24
 -1       504 2.25094E-05 2.18791E-06-1.65436E-24
 -1       505 2.24060E-05 1.62484E-06-3.30872E-24
 -1       506 2.23027E-05 7.78233E-07 0.00000E+00
 -1       507 2.21992E-05-2.56938E-07 3.30872E-24
 -1       508 2.20957E-05-1.38491E-06-1.65436E-24
 -1       509 2.19922E-05-2.50103E-06 3.30872E-24
 -1       510 2.18888E-05-3.50071E-06-1.65436E-24
 -1       511 2.17856E-05-4.29049E-06 0.00000E+00
 -1       512 2.16826E-05-4.77780E-06-1.65436E-24
 -1       513 2.15796E-05-4.89895E-06-3.30872E-24
 -1       514 2.14764E-05-4.59186E-06 1.65436E-24
 -1       515 2.13731E-05-3.83531E-06 0.00000E+00
 -1       516 2.11933E-05 4.93381E-07 3.30872E-24
 -1       517 1.87035E-05 5.74723E-07-1.03398E-25
 -1       518 1.58163E-05 6.54138E-07-8.27181E-25
 -1       519 1.28837E-05 7.34838E-07-4.13590E-25
 -1       520 1.02538E-05 8.16846E-07 0.00000E+00
 -1       521 2.16880E-05 1.22583E-06 0.00000E+00
 -1       522 2.05793E-05 1.58996E-06 1.32349E-23
 -1       523 1.96107E-05 1.58284E-06 2.64698E-23
 -1       524 1.87552E-05 1.26296E-06 0.00000E+00
 -1       525 1.79925E-05 6.94117E-07 2.64698E-23
 -1       526 1.72982E-05-5.90158E-08 1.32349E-23
 -1       527 1.66479E-05-9.30003E-07 0.00000E+00
 -1       528 1.60164E-05-1.85158E-06-1.32349E-23
 -1       529 1.53784E-05-2.75601E-06 0.00000E+00
 -1       530 1.47089E-05-3.57573E-06 1.32349E-23
 -1       531 1.39827E-05-4.24389E-06-2.64698E-23
 -1       532 1.31758E-05-4.69479E-06-1.32349E-23
 -1       533 1.22640E-05-4.86474E-06 0.00000E+00
 -1       534 1.12273E-05-4.69126E-06 0.00000E+00
 -1       535 1.00394E-05-4.11729E-06 0.00000E+00
 -1       536 2.12797E-05-1.32309E-06-1.65436E-24
 -1       537 2.12980E-05-3.45568E-07 0.00000E+00
 -1       538 2.13164E-05 3.55715E-07 0.00000E+00
 -1       539 2.13358E-05 8.14194E-07 1.03398E-25
 -1       540 2.13555E-05 1.06320E-06 2.06795E-25
 -1       541 2.13754E-05 1.13605E-06 0.00000E+00
 -1       542 2.13954E-05 1.06602E-06 4.13590E-25
 -1       543 2.14153E-05 8.86376E-07 2.06795E-25
 -1       544 2.14353E-05 6.30363E-07-8.27181E-25
 -1       545 2.14553E-05 3.31201E-07 0.00000E+00
 -1       546 2.14753E-05 2.21152E-08 0.00000E+00
 -1       547 2.14953E-05-2.63674E-07 4.13590E-25
 -1       548 2.15153E-05-4.92948E-07-8.27181E-25
 -1       549 2.15353E-05-6.32479E-07 4.13590E-25
 -1       550 2.15553E-05-6.48999E-07 8.27181E-25
 -1       551 1.93911E-05-2.68727E-06-2.22305E-24
 -1       552 1.73024E-05-2.76249E-06-1.44757E-24
 -1       553 1.50948E-05-2.83774E-06-3.30872E-24
 -1       554 1.28630E-05-2.91385E-06 0.00000E+00
 -1       555 1.07018E-05-2.99179E-06 6.61744E-24
 -1       556 2.07176E-05-1.40590E-06 0.00000E+00
 -1       557 2.02732E-05-4.77374E-07-3.30872E-24
 -1       558 1.99230E-05 2.01916E-07-6.61744E-24
 -1       559 1.96558E-05 6.60971E-07-3.30872E-24
 -1       560 1.94605E-05 9.28846E-07 0.00000E+00
 -1       561 1.93259E-05 1.03485E-06 0.00000E+00
 -1       562 1.92411E-05 1.00831E-06 0.00000E+00
 -1       563 1.91951E-05 8.78599E-07 0.00000E+00
 -1       564 1.91767E-05 6.75093E-07 3.30872E-24
 -1       565 1.91749E-05 4.27180E-07 0.00000E+00
 -1       566 1.91788E-05 1.64256E-07 1.65436E-24
 -1       567 1.91774E-05-8.42795E-08 0.00000E+00
 -1       568 1.91596E-05-2.89034E-07-8.27181E-25
 -1       569 1.91148E-05-4.20646E-07 7.75482E-25
 -1       570 1.90321E-05-4.49780E-07-1.65436E-24
 -1       571 2.16418E-05-3.46558E-07 5.16988E-25
 -1       572 2.17105E-05-2.34213E-07 8.27181E-25
 -1       573 2.17797E-05-1.63343E-07-8.27181E-25
 -1       574 2.18493E-05-1.24507E-07-4.13590E-25
 -1       575 2.19189E-05-1.08224E-07 0.00000E+00
 -1       576 2.19886E-05-1.04953E-07 0.00000E+00
 -1       577 2.20583E-05-1.05150E-07 0.00000E+00
 -1       578 2.21280E-05-9.92621E-08 0.00000E+00
 -1       579 2.21977E-05-7.77355E-08 0.00000E+00
 -1       580 2.22674E-05-3.10167E-08 0.00000E+00
 -1       581 2.23371E-05 5.04467E-08 3.30872E-24
 -1       582 2.24068E-05 1.76199E-07 0.00000E+00
 -1       583 2.24765E-05 3.55776E-07 0.00000E+00
 -1       584 2.25461E-05 5.98621E-07 0.00000E+00
 -1       585 2.26155E-05 9.14129E-07-3.30872E-24
 -1       586 2.11897E-05-4.81850E-07 0.00000E+00
 -1       587 2.07483E-05-4.54092E-07-1.65436E-24
 -1       588 2.02746E-05-4.26359E-07 0.00000E+00
 -1       589 1.97931E-05-3.98899E-07-1.29247E-25
 -1       590 1.93279E-05-3.72057E-07 0.00000E+00
 -1       591 2.14615E-05-3.20423E-07 0.00000E+00
 -1       592 2.13572E-05-1.64818E-07 0.00000E+00
 -1       593 2.12624E-05-3.63560E-08 0.00000E+00
 -1       594 2.11753E-05 7.06506E-08 0.00000E+00
 -1       595 2.10940E-05 1.61886E-07 1.65436E-24
 -1       596 2.10165E-05 2.43000E-07 0.00000E+00
 -1       597 2.09406E-05 3.19635E-07 0.00000E+00
 -1       598 2.08643E-05 3.97429E-07 4.13590E-25
 -1       599 2.07854E-05 4.82022E-07 1.65436E-24
 -1       600 2.07019E-05 5.79050E-07 0.00000E+00
 -1       601 2.06116E-05 6.94150E-07 0.00000E+00
 -1       602 2.05125E-05 8.32966E-07-2.06795E-25
 -1       603 2.04025E-05 1.00114E-06-2.06795E-25
 -1       604 2.02797E-05 1.20436E-06-3.61892E-25
 -1       605 2.01422E-05 1.44831E-06-4.13590E-25
 -1       606 2.27091E-05 1.83824E-06-3.30872E-24
 -1       607 2.27318E-05 2.41591E-06 0.00000E+00
 -1       608 2.27541E-05 3.04104E-06 0.00000E+00
 -1       609 2.27760E-05 3.71026E-06 0.00000E+00
 -1       610 2.27979E-05 4.42018E-06 0.00000E+00
 -1       611 2.28197E-05 5.16732E-06-8.27181E-25
 -1       612 2.28415E-05 5.94823E-06-1.65436E-24
 -1       613 2.28633E-05 6.75945E-06 0.00000E+00
 -1       614 2.28850E-05 7.59750E-06 1.65436E-24
 -1       615 2.29067E-05 8.45890E-06 0.00000E+00
 -1       616 2.29283E-05 9.34020E-06 0.00000E+00
 -1       617 2.29500E-05 1.02379E-05 0.00000E+00
 -1       618 2.29717E-05 1.11486E-05 8.27181E-25
 -1       619 2.29933E-05 1.20688E-05 0.00000E+00
 -1       620 2.30148E-05 1.29950E-05 0.00000E+00
 -1       621 2.21864E-05 1.38252E-06-1.65436E-24
 -1       622 2.17001E-05 1.45449E-06-8.27181E-25
 -1       623 2.12316E-05 1.52649E-06 0.00000E+00
 -1       624 2.07866E-05 1.59832E-06-8.27181E-25
 -1       625 2.03711E-05 1.66973E-06-8.27181E-25
 -1       626 2.25276E-05 1.86330E-06 0.00000E+00
 -1       627 2.23499E-05 2.46821E-06 0.00000E+00
 -1       628 2.21540E-05 3.12090E-06 0.00000E+00
 -1       629 2.19421E-05 3.81590E-06-3.30872E-24
 -1       630 2.17163E-05 4.54773E-06 0.00000E+00
 -1       631 2.14787E-05 5.31081E-06 8.27181E-25
 -1       632 2.12315E-05 6.09955E-06 0.00000E+00
 -1       633 2.09768E-05 6.90838E-06-8.27181E-25
 -1       634 2.07166E-05 7.73170E-06-1.65436E-24
 -1       635 2.04531E-05 8.56393E-06 8.27181E-25
 -1       636 2.01882E-05 9.39949E-06 1.65436E-24
 -1       637 1.99242E-05 1.02328E-05 0.00000E+00
 -1       638 1.96631E-05 1.10582E-05 8.27181E-25
 -1       639 1.94069E-05 1.18702E-05 0.00000E+00
 -1       640 1.91573E-05 1.26630E-05-2.06795E-25
 -1       641 2.30369E-05 1.48873E-05 0.00000E+00
 -1       642 2.30368E-05 1.59522E-05 0.00000E+00
 -1       643 2.30366E-05 1.71036E-05 0.00000E+00
 -1       644 2.30362E-05 1.83270E-05 2.58494E-26
 -1       645 2.30358E-05 1.96079E-05 0.00000E+00
 -1       646 2.30353E-05 2.09316E-05 6.46235E-27
 -1       647 2.30347E-05 2.22836E-05 0.00000E+00
 -1       648 2.30341E-05 2.36494E-05-1.61559E-27
 -1       649 2.30335E-05 2.50143E-05-6.46235E-27
 -1       650 2.30329E-05 2.63640E-05 1.29247E-26
 -1       651 2.30323E-05 2.76837E-05 5.16988E-26
 -1       652 2.30317E-05 2.89589E-05 0.00000E+00
 -1       653 2.30311E-05 3.01752E-05 0.00000E+00
 -1       654 2.30301E-05 3.13178E-05-2.06795E-25
 -1       655 2.30293E-05 3.23722E-05 0.00000E+00
 -1       656 2.22011E-05 1.38443E-05 8.27181E-25
 -1       657 2.14783E-05 1.37609E-05 8.27181E-25
 -1       658 2.08283E-05 1.36776E-05-1.65436E-24
 -1       659 2.02110E-05 1.35944E-05 0.00000E+00
 -1       660 1.95866E-05 1.35109E-05 8.27181E-25
 -1       661 2.27676E-05 1.49155E-05 0.00000E+00
 -1       662 2.24727E-05 1.59872E-05 0.00000E+00
 -1       663 2.21524E-05 1.71260E-05 0.00000E+00
 -1       664 2.18117E-05 1.83206E-05 0.00000E+00
 -1       665 2.14544E-05 1.95595E-05 0.00000E+00
 -1       666 2.10848E-05 2.08313E-05-1.65436E-24
 -1       667 2.07072E-05 2.21247E-05 0.00000E+00
 -1       668 2.03257E-05 2.34281E-05-1.65436E-24
 -1       669 1.99446E-05 2.47304E-05 0.00000E+00
 -1       670 1.95683E-05 2.60203E-05-1.65436E-24
 -1       671 1.92008E-05 2.72862E-05-3.30872E-24
 -1       672 1.88465E-05 2.85169E-05 1.65436E-24
 -1       673 1.85097E-05 2.97010E-05 0.00000E+00
 -1       674 1.81939E-05 3.08268E-05 0.00000E+00
 -1       675 1.79044E-05 3.18831E-05 0.00000E+00
 -1       676 2.21262E-05 3.32457E-05-1.65436E-24
 -1       677 2.12270E-05 3.31672E-05 0.00000E+00
 -1       678 2.03285E-05 3.30888E-05 0.00000E+00
 -1       679 1.94311E-05 3.30106E-05 8.27181E-25
 -1       680 1.85349E-05 3.29324E-05 0.00000E+00
 -1       681 6.32212E-06 6.39004E-08 3.30872E-24
 -1       682 6.45290E-06 4.43875E-07 0.00000E+00
 -1       683 6.58352E-06 5.41259E-07 3.30872E-24
 -1       684 6.71482E-06 4.36526E-07-1.65436E-24
 -1       685 6.84612E-06 1.83664E-07-3.30872E-24
 -1       686 6.97753E-06-1.64189E-07-1.65436E-24
 -1       687 7.10894E-06-5.66353E-07 0.00000E+00
 -1       688 7.24035E-06-9.82455E-07 0.00000E+00
 -1       689 7.37176E-06-1.37397E-06 0.00000E+00
 -1       690 7.50313E-06-1.70220E-06 0.00000E+00
 -1       691 7.63450E-06-1.92018E-06 3.30872E-24
 -1       692 7.76556E-06-1.98029E-06-1.65436E-24
 -1       693 7.89657E-06-1.81422E-06 3.30872E-24
 -1       694 8.02589E-06-1.35236E-06 1.65436E-24
 -1       695 8.15548E-06-4.86383E-07 8.27181E-25
 -1       696 5.20646E-06-5.70290E-07 0.00000E+00
 -1       697 4.10389E-06-4.56932E-07 1.65436E-24
 -1       698 2.95911E-06-3.43792E-07 0.00000E+00
 -1       699 1.84358E-06-2.29787E-07 0.00000E+00
 -1       700 8.32118E-07-1.15745E-07 0.00000E+00
 -1       701 5.71577E-06 1.95766E-07 0.00000E+00
 -1       702 5.23250E-06 1.06010E-06-1.65436E-24
 -1       703 4.77175E-06 1.86603E-06-3.30872E-24
 -1       704 4.35005E-06 2.56398E-06-1.65436E-24
 -1       705 3.98115E-06 3.12137E-06-3.30872E-24
 -1       706 3.67691E-06 3.50585E-06 0.00000E+00
 -1       707 3.44010E-06 3.71064E-06 0.00000E+00
 -1       708 3.27283E-06 3.72997E-06-1.65436E-24
 -1       709 3.16709E-06 3.58518E-06 0.00000E+00
 -1       710 3.11453E-06 3.29866E-06 0.00000E+00
 -1       711 3.09893E-06 2.91354E-06 0.00000E+00
 -1       712 3.10413E-06 2.47364E-06 0.00000E+00
 -1       713 3.11047E-06 2.03072E-06 0.00000E+00
 -1       714 3.09981E-06 1.63715E-06 0.00000E+00
 -1       715 3.05363E-06 1.33692E-06 1.65436E-24
 -1       716 8.29927E-06 2.21152E-06 8.27181E-25
 -1       717 8.32726E-06 2.88562E-06-5.16988E-26
 -1       718 8.35520E-06 3.02113E-06 0.00000E+00
 -1       719 8.38391E-06 2.72184E-06 0.00000E+00
 -1       720 8.41249E-06 2.07943E-06 0.00000E+00
 -1       721 8.44104E-06 1.18514E-06 4.13590E-25
 -1       722 8.46946E-06 1.23208E-07 0.00000E+00
 -1       723 8.49779E-06-1.02240E-06 4.13590E-25
 -1       724 8.52611E-06-2.17003E-06 0.00000E+00
 -1       725 8.55442E-06-3.23802E-06 0.00000E+00
 -1       726 8.58282E-06-4.14251E-06 0.00000E+00
 -1       727 8.61092E-06-4.79940E-06-1.03398E-25
 -1       728 8.63911E-06-5.11770E-06 4.13590E-25
 -1       729 8.66490E-06-5.00599E-06-8.27181E-25
 -1       730 8.69131E-06-4.36104E-06 0.00000E+00
 -1       731 6.74478E-06 9.36422E-07 0.00000E+00
 -1       732 5.43520E-06 9.83845E-07 0.00000E+00
 -1       733 4.37191E-06 1.03123E-06 0.00000E+00
 -1       734 3.58001E-06 1.07972E-06 4.13590E-25
 -1       735 3.09750E-06 1.12846E-06 0.00000E+00
 -1       736 7.49968E-06 2.04209E-06-6.61744E-24
 -1       737 7.00262E-06 2.41726E-06 0.00000E+00
 -1       738 6.81279E-06 1.97535E-06 6.61744E-24
 -1       739 6.94094E-06 6.78207E-07 3.30872E-24
 -1       740 7.30346E-06-1.24655E-06 0.00000E+00
 -1       741 7.81173E-06-3.56334E-06 0.00000E+00
 -1       742 8.33299E-06-5.91497E-06 0.00000E+00
 -1       743 8.73390E-06-7.94396E-06 0.00000E+00
 -1       744 8.91818E-06-9.39258E-06-1.32349E-23
 -1       745 8.79208E-06-1.00111E-05-6.61744E-24
 -1       746 8.35760E-06-9.80709E-06 0.00000E+00
 -1       747 7.62130E-06-8.79896E-06 0.00000E+00
 -1       748 6.68295E-06-7.25417E-06 0.00000E+00
 -1       749 5.64737E-06-5.44659E-06-3.30872E-24
 -1       750 4.64637E-06-3.73259E-06 0.00000E+00
 -1       751 9.30351E-06-1.77461E-06 0.00000E+00
 -1       752 9.94086E-06-1.05134E-06 0.00000E+00
 -1       753 1.05760E-05-7.00809E-07 1.32349E-23
 -1       754 1.12184E-05-5.25493E-07-6.61744E-24
 -1       755 1.18610E-05-4.62450E-07-1.32349E-23
 -1       756 1.25050E-05-4.51894E-07 1.32349E-23
 -1       757 1.31492E-05-4.74567E-07 0.00000E+00
 -1       758 1.37937E-05-5.12142E-07 0.00000E+00
 -1       759 1.44381E-05-5.57805E-07 0.00000E+00
 -1       760 1.50824E-05-6.04971E-07-1.32349E-23
 -1       761 1.57266E-05-6.48217E-07-2.64698E-23
 -1       762 1.63698E-05-6.82008E-07 6.61744E-24
 -1       763 1.70128E-05-6.93510E-07 0.00000E+00
 -1       764 1.76507E-05-6.69261E-07-6.61744E-24
 -1       765 1.82904E-05-5.68293E-07-1.32349E-23
 -1       766 7.35520E-06-2.98871E-06 0.00000E+00
 -1       767 6.50319E-06-2.88237E-06 0.00000E+00
 -1       768 5.93395E-06-2.77691E-06 0.00000E+00
 -1       769 5.43455E-06-2.66996E-06 0.00000E+00
 -1       770 4.79954E-06-2.56243E-06-1.03398E-25
 -1       771 7.76305E-06-1.81070E-06 0.00000E+00
 -1       772 6.90714E-06-7.86345E-07 0.00000E+00
 -1       773 6.13378E-06 1.53218E-08 1.32349E-23
 -1       774 5.43542E-06 6.15710E-07 0.00000E+00
 -1       775 4.80442E-06 1.03628E-06 0.00000E+00
 -1       776 4.23276E-06 1.29862E-06-6.61744E-24
 -1       777 3.71234E-06 1.42435E-06 0.00000E+00
 -1       778 3.23504E-06 1.43517E-06 0.00000E+00
 -1       779 2.79271E-06 1.35280E-06 0.00000E+00
 -1       780 2.37718E-06 1.19900E-06 0.00000E+00
 -1       781 1.98031E-06 9.95575E-07 0.00000E+00
 -1       782 1.59399E-06 7.64345E-07 0.00000E+00
 -1       783 1.21010E-06 5.27151E-07 0.00000E+00
 -1       784 8.20897E-07 3.05919E-07-6.61744E-24
 -1       785 4.18693E-07 1.22575E-07 1.32349E-23
 -1       786 1.89668E-05-9.71654E-08 8.27181E-25
 -1       787 1.90346E-05 9.74797E-08-8.27181E-25
 -1       788 1.91024E-05 2.45001E-07 0.00000E+00
 -1       789 1.91707E-05 3.53931E-07-8.27181E-25
 -1       790 1.92391E-05 4.32772E-07 0.00000E+00
 -1       791 1.93077E-05 4.90015E-07 8.27181E-25
 -1       792 1.93763E-05 5.34133E-07-1.65436E-24
 -1       793 1.94449E-05 5.73595E-07 0.00000E+00
 -1       794 1.95135E-05 6.16865E-07-1.65436E-24
 -1       795 1.95821E-05 6.72411E-07 0.00000E+00
 -1       796 1.96507E-05 7.48706E-07 0.00000E+00
 -1       797 1.97192E-05 8.54238E-07 8.27181E-25
 -1       798 1.97877E-05 9.97511E-07 0.00000E+00
 -1       799 1.98559E-05 1.18705E-06 0.00000E+00
 -1       800 1.99242E-05 1.43141E-06-1.65436E-24
 -1       801 1.72192E-05-2.85373E-07 3.30872E-24
 -1       802 1.37224E-05-2.23765E-07 0.00000E+00
 -1       803 9.33160E-06-1.65510E-07-4.13590E-25
 -1       804 4.96744E-06-1.08856E-07 0.00000E+00
 -1       805 1.55048E-06-4.88451E-08 0.00000E+00
 -1       806 1.87319E-05-1.23711E-07 0.00000E+00
 -1       807 1.85672E-05 7.57768E-08 0.00000E+00
 -1       808 1.84092E-05 2.55657E-07-3.30872E-24
 -1       809 1.82565E-05 4.20236E-07-1.65436E-24
 -1       810 1.81079E-05 5.73797E-07 0.00000E+00
 -1       811 1.79618E-05 7.20592E-07-1.65436E-24
 -1       812 1.78166E-05 8.64866E-07 3.30872E-24
 -1       813 1.76708E-05 1.01086E-06 0.00000E+00
 -1       814 1.75227E-05 1.16281E-06 1.65436E-24
 -1       815 1.73708E-05 1.32496E-06 1.65436E-24
 -1       816 1.72135E-05 1.50155E-06-3.30872E-24
 -1       817 1.70493E-05 1.69681E-06 8.27181E-25
 -1       818 1.68765E-05 1.91500E-06-1.65436E-24
 -1       819 1.66938E-05 2.16036E-06-4.13590E-25
 -1       820 1.64999E-05 2.43716E-06-1.65436E-24
 -1       821 1.99275E-05 2.13205E-06 4.13590E-25
 -1       822 1.98605E-05 2.61320E-06-8.27181E-25
 -1       823 1.97935E-05 3.17347E-06 0.00000E+00
 -1       824 1.97258E-05 3.80365E-06 8.27181E-25
 -1       825 1.96580E-05 4.49451E-06 0.00000E+00
 -1       826 1.95901E-05 5.23677E-06 8.27181E-25
 -1       827 1.95221E-05 6.02112E-06-1.65436E-24
 -1       828 1.94541E-05 6.83823E-06 8.27181E-25
 -1       829 1.93861E-05 7.67876E-06 0.00000E+00
 -1       830 1.93180E-05 8.53332E-06 0.00000E+00
 -1       831 1.92500E-05 9.39257E-06 0.00000E+00
 -1       832 1.91821E-05 1.02471E-05 0.00000E+00
 -1       833 1.91142E-05 1.10876E-05-1.65436E-24
 -1       834 1.90469E-05 1.19047E-05-8.27181E-25
 -1       835 1.89795E-05 1.26889E-05 0.00000E+00
 -1       836 1.95212E-05 1.90446E-06 0.00000E+00
 -1       837 1.88872E-05 2.07561E-06-1.65436E-24
 -1       838 1.81678E-05 2.24641E-06 3.30872E-24
 -1       839 1.74429E-05 2.41681E-06 0.00000E+00
 -1       840 1.67920E-05 2.58754E-06 0.00000E+00
 -1       841 1.98353E-05 2.12795E-06-2.06795E-25
 -1       842 1.96427E-05 2.61167E-06 2.58494E-26
 -1       843 1.94181E-05 3.18103E-06 0.00000E+00
 -1       844 1.91648E-05 3.82596E-06 0.00000E+00
 -1       845 1.88871E-05 4.53588E-06 2.06795E-25
 -1       846 1.85890E-05 5.30001E-06 0.00000E+00
 -1       847 1.82747E-05 6.10702E-06 0.00000E+00
 -1       848 1.79485E-05 6.94558E-06 0.00000E+00
 -1       849 1.76149E-05 7.80399E-06 0.00000E+00
 -1       850 1.72782E-05 8.67056E-06-2.06795E-25
 -1       851 1.69429E-05 9.53352E-06-4.13590E-25
 -1       852 1.66133E-05 1.03810E-05-2.06795E-25
 -1       853 1.62939E-05 1.12015E-05 4.13590E-25
 -1       854 1.59888E-05 1.19833E-05 0.00000E+00
 -1       855 1.57025E-05 1.27153E-05 0.00000E+00
 -1       856 1.88398E-05 1.42291E-05-8.27181E-25
 -1       857 1.87605E-05 1.51709E-05 0.00000E+00
 -1       858 1.86811E-05 1.62379E-05 1.65436E-24
 -1       859 1.86011E-05 1.74110E-05 0.00000E+00
 -1       860 1.85208E-05 1.86716E-05-1.65436E-24
 -1       861 1.84404E-05 2.00005E-05-1.65436E-24
 -1       862 1.83599E-05 2.13787E-05 3.30872E-24
 -1       863 1.82794E-05 2.27872E-05-1.65436E-24
 -1       864 1.81988E-05 2.42068E-05 0.00000E+00
 -1       865 1.81183E-05 2.56186E-05 1.65436E-24
 -1       866 1.80378E-05 2.70034E-05 3.30872E-24
 -1       867 1.79574E-05 2.83421E-05 0.00000E+00
 -1       868 1.78772E-05 2.96157E-05 1.65436E-24
 -1       869 1.77974E-05 3.08052E-05 0.00000E+00
 -1       870 1.77176E-05 3.18917E-05 0.00000E+00
 -1       871 1.82776E-05 1.34246E-05 0.00000E+00
 -1       872 1.76855E-05 1.34176E-05 0.00000E+00
 -1       873 1.71224E-05 1.34103E-05 4.13590E-25
 -1       874 1.65713E-05 1.34029E-05 2.06795E-25
 -1       875 1.60154E-05 1.33951E-05-4.13590E-25
 -1       876 1.87240E-05 1.42556E-05 1.65436E-24
 -1       877 1.84908E-05 1.52046E-05 0.00000E+00
 -1       878 1.82172E-05 1.62606E-05 0.00000E+00
 -1       879 1.79099E-05 1.74081E-05-1.65436E-24
 -1       880 1.75744E-05 1.86311E-05 0.00000E+00
 -1       881 1.72164E-05 1.99140E-05 1.65436E-24
 -1       882 1.68418E-05 2.12410E-05 3.30872E-24
 -1       883 1.64564E-05 2.25968E-05 0.00000E+00
 -1       884 1.60661E-05 2.39656E-05 0.00000E+00
 -1       885 1.56766E-05 2.53322E-05-1.65436E-24
 -1       886 1.52939E-05 2.66808E-05 0.00000E+00
 -1       887 1.49236E-05 2.79959E-05 0.00000E+00
 -1       888 1.45716E-05 2.92621E-05 0.00000E+00
 -1       889 1.42432E-05 3.04634E-05 0.00000E+00
 -1       890 1.39451E-05 3.15845E-05 0.00000E+00
 -1       891 1.68639E-05 3.28152E-05 0.00000E+00
 -1       892 1.62384E-05 3.27734E-05 4.13590E-25
 -1       893 1.56854E-05 3.27317E-05 0.00000E+00
 -1       894 1.51266E-05 3.26901E-05-4.13590E-25
 -1       895 1.44835E-05 3.26483E-05-8.27181E-25
 -1       896 1.84095E-07 6.39748E-07 0.00000E+00
 -1       897 3.69775E-07 1.08180E-06-3.30872E-24
 -1       898 5.55417E-07 1.37253E-06-6.61744E-24
 -1       899 7.41365E-07 1.55709E-06 0.00000E+00
 -1       900 9.27330E-07 1.66056E-06 0.00000E+00
 -1       901 1.11335E-06 1.70741E-06 0.00000E+00
 -1       902 1.29938E-06 1.71135E-06-6.61744E-24
 -1       903 1.48541E-06 1.68578E-06 0.00000E+00
 -1       904 1.67144E-06 1.63850E-06-6.61744E-24
 -1       905 1.85741E-06 1.57716E-06 3.30872E-24
 -1       906 2.04336E-06 1.50672E-06 6.61744E-24
 -1       907 2.22907E-06 1.43209E-06 0.00000E+00
 -1       908 2.41476E-06 1.35739E-06 0.00000E+00
 -1       909 2.59928E-06 1.28671E-06-1.65436E-24
 -1       910 2.78420E-06 1.22494E-06-3.30872E-24
 -1       911 3.01679E-06 1.04773E-06 0.00000E+00
 -1       912 3.07125E-06 7.43812E-07 8.27181E-25
 -1       913 3.12561E-06 3.03141E-07-1.65436E-24
 -1       914 3.18006E-06-2.36704E-07 0.00000E+00
 -1       915 3.23448E-06-8.43437E-07 1.65436E-24
 -1       916 3.28891E-06-1.48491E-06 0.00000E+00
 -1       917 3.34333E-06-2.13083E-06 0.00000E+00
 -1       918 3.39776E-06-2.75092E-06 0.00000E+00
 -1       919 3.45222E-06-3.31353E-06 1.65436E-24
 -1       920 3.50667E-06-3.78685E-06 0.00000E+00
 -1       921 3.56114E-06-4.13436E-06 1.65436E-24
 -1       922 3.61542E-06-4.31921E-06-8.27181E-25
 -1       923 3.66967E-06-4.29592E-06 0.00000E+00
 -1       924 3.72270E-06-4.01852E-06 0.00000E+00
 -1       925 3.77600E-06-3.42758E-06 0.00000E+00
 -1       926 3.58978E-06-1.20900E-06 0.00000E+00
 -1       927 3.35095E-06 2.39778E-07 0.00000E+00
 -1       928 3.11241E-06 1.73693E-06 0.00000E+00
 -1       929 2.87295E-06 3.13549E-06 0.00000E+00
 -1       930 2.63372E-06 4.30946E-06-6.61744E-24
 -1       931 2.39462E-06 5.13518E-06 0.00000E+00
 -1       932 2.15572E-06 5.56305E-06-6.61744E-24
 -1       933 1.91686E-06 5.54756E-06-3.30872E-24
 -1       934 1.67792E-06 5.13751E-06-6.61744E-24
 -1       935 1.43875E-06 4.38574E-06 0.00000E+00
 -1       936 1.19940E-06 3.41779E-06 6.61744E-24
 -1       937 9.59881E-07 2.36143E-06 0.00000E+00
 -1       938 7.20406E-07 1.36318E-06 0.00000E+00
 -1       939 4.80713E-07 5.69035E-07 0.00000E+00
 -1       940 2.41336E-07 8.15160E-08-6.61744E-24
 -1       941 9.65931E-07 1.29346E-07-1.32349E-23
 -1       942 1.98505E-06 2.70859E-07 1.32349E-23
 -1       943 3.00082E-06 4.19548E-07-2.64698E-23
 -1       944 4.02670E-06 5.70761E-07 0.00000E+00
 -1       945 5.05287E-06 7.23475E-07-2.64698E-23
 -1       946 6.08106E-06 8.76743E-07 0.00000E+00
 -1       947 7.10948E-06 1.03041E-06 0.00000E+00
 -1       948 8.13825E-06 1.18434E-06-1.32349E-23
 -1       949 9.16704E-06 1.33880E-06 0.00000E+00
 -1       950 1.01956E-05 1.49406E-06 1.32349E-23
 -1       951 1.12239E-05 1.65155E-06-2.64698E-23
 -1       952 1.22507E-05 1.81284E-06 1.32349E-23
 -1       953 1.32772E-05 1.98494E-06 0.00000E+00
 -1       954 1.42955E-05 2.17539E-06-1.32349E-23
 -1       955 1.53166E-05 2.41821E-06 0.00000E+00
 -1       956 1.62422E-05 3.17845E-06 2.06795E-25
 -1       957 1.61889E-05 3.66780E-06-4.13590E-25
 -1       958 1.61354E-05 4.21197E-06-1.24077E-24
 -1       959 1.60817E-05 4.80465E-06 6.20385E-25
 -1       960 1.60280E-05 5.43952E-06 8.27181E-25
 -1       961 1.59743E-05 6.11023E-06-4.13590E-25
 -1       962 1.59206E-05 6.81038E-06-8.27181E-25
 -1       963 1.58668E-05 7.53362E-06 0.00000E+00
 -1       964 1.58130E-05 8.27358E-06 0.00000E+00
 -1       965 1.57592E-05 9.02385E-06 0.00000E+00
 -1       966 1.57054E-05 9.77808E-06 1.65436E-24
 -1       967 1.56516E-05 1.05299E-05 8.27181E-25
 -1       968 1.55979E-05 1.12729E-05 0.00000E+00
 -1       969 1.55442E-05 1.20008E-05 0.00000E+00
 -1       970 1.54907E-05 1.27071E-05 3.30872E-24
 -1       971 1.53312E-05 1.41161E-05-1.65436E-24
 -1       972 1.52214E-05 1.49984E-05-1.65436E-24
 -1       973 1.51115E-05 1.60141E-05 0.00000E+00
 -1       974 1.50010E-05 1.71442E-05 0.00000E+00
 -1       975 1.48903E-05 1.83695E-05 0.00000E+00
 -1       976 1.47795E-05 1.96708E-05 0.00000E+00
 -1       977 1.46686E-05 2.10288E-05 0.00000E+00
 -1       978 1.45576E-05 2.24242E-05-1.65436E-24
 -1       979 1.44466E-05 2.38376E-05 0.00000E+00
 -1       980 1.43356E-05 2.52495E-05-1.65436E-24
 -1       981 1.42247E-05 2.66407E-05-3.30872E-24
 -1       982 1.41139E-05 2.79916E-05 1.65436E-24
 -1       983 1.40033E-05 2.92830E-05 0.00000E+00
 -1       984 1.38934E-05 3.04956E-05-1.65436E-24
 -1       985 1.37836E-05 3.16102E-05 0.00000E+00
 -3
    1PSTEP                        10           5           1          
  100CL  105 4.12109E-01         841                     0    5           1
 -4  STRESS      6    1
 -5  SXX         1    4    1    1
 -5  SYY         1    4    2    2
 -5  SZZ         1    4    3    3
 -5  SXY         1    4    1    2
 -5  SYZ         1    4    2    3
 -5  SZX         1    4    3    1
 -1         1-1.70704E+06-5.47199E+05-3.51291E+05-4.85988E+05 4.85064E-11 1.94996E-09
 -1         2-1.08476E+06-5.74905E+04 1.48611E+03-1.07588E+05-5.75255E-10-5.47061E-10
 -1         3-5.62892E+05-1.96136E+05-1.95808E+04-4.67023E+04-2.79186E-10-1.65846E-09
 -1         4-2.83640E+05-5.20152E+04 4.33238E+02-2.79316E+04 3.89520E-11 1.57968E-09
 -1         5-1.44530E+05 8.37447E+04-7.28646E+04-4.35708E+03 4.04270E-09 3.01105E-09
 -1         8-9.17924E+05-3.67408E+05-1.39896E+05-3.43631E+05 2.91038E-10-8.18545E-10
 -1         9-9.79114E+05-2.19443E+05-1.22685E+05-2.21776E+05-6.18456E-10-1.85052E-09
 -1        10-4.94201E+05-2.77980E+05-2.29439E+04-1.23157E+05-2.18400E-09 1.98240E-09
 -1        11-2.84192E+05-8.02258E+04 3.61220E+02-6.19456E+04 1.21908E-09-1.39307E-10
 -1        12-1.79370E+05 6.66167E+04-8.23582E+04-2.72418E+04 4.78542E-09-3.23517E-10
 -1        15 8.89708E+03-3.92740E+04 1.81178E+03-8.19447E+04-1.00954E-10 4.45652E-10
 -1        16-5.33149E+05-9.29312E+04 2.23445E+04-2.46555E+05 1.01409E-09 7.78527E-10
 -1        17-3.31346E+05-2.22336E+05-3.66315E+04-1.81986E+05 3.13472E-10 1.25510E-09
 -1        18-1.62099E+05-8.29236E+04-6.07560E+04-9.29299E+04-1.11322E-09 8.06722E-10
 -1        19-3.47951E+04 4.32908E+04-3.33877E+04-2.84850E+04 1.68393E-09-2.23523E-09
 -1        20 5.83877E+04-4.27977E+04-7.10036E+03 3.12200E+04 4.11114E-09-5.06589E-10
 -1        21 2.93489E+02-8.69726E+04 2.18463E+04 2.22958E+02 1.11379E-08 1.51315E-09
 -1        22 1.77654E+04 1.05131E+05 6.83485E+02-2.45978E+04-1.25965E-10-6.45741E-10
 -1        23-2.09541E+05 3.13304E+03 2.20830E+03-9.59316E+04-1.81960E-09 4.58992E-10
 -1        24-1.19834E+05 1.84514E+04 1.44074E+05-2.50599E+05-4.94826E-09 1.92692E-09
 -1        25 3.14016E+05 1.08215E+05 9.80885E+04-1.60633E+05 5.29781E-10 1.15203E-10
 -1        26 1.53755E+03 9.71925E+04 5.03867E+03-1.90133E+04 7.19827E-10-2.27828E-10
 -1        27-2.27751E+04-3.65932E+04-1.58279E+04 4.19914E+04 3.51338E-09 7.39419E-10
 -1        28-7.33852E+03-6.79658E+04-3.98372E+02 3.27204E+04 4.65207E-09-1.19928E-10
 -1        29 2.55206E+05 1.75644E+05 7.27707E+02-2.26467E+03 8.37819E-12-1.53523E-09
 -1        30 8.31470E+04 2.51797E+04 1.07119E+03-2.46641E+04-2.49410E-10 2.06910E-10
 -1        31-2.99767E+05 2.56139E+04 2.49582E+03-5.91428E+04-1.09691E-09 7.84894E-10
 -1        32 4.15448E+05 2.44039E+05 2.97092E+05-2.52457E+05 5.65276E-09 2.27374E-09
 -1        33 7.16114E+05 3.04107E+05 2.23927E+05-2.74948E+04-8.87358E-09-1.03546E-09
 -1        34-1.18110E+05-1.67936E+04-5.09155E+03 2.20073E+04 1.11227E-09-1.46429E-10
 -1        35-1.89263E+04-2.25250E+04-4.13847E+02 4.84852E+04 7.51705E-09-8.01568E-10
 -1        36-2.32849E+06 7.07853E+04-1.64374E+05-6.31103E-08-5.36260E-10-2.69210E-09
 -1        37-2.39954E+06-8.19614E+04-1.16209E+05-2.69922E-08 9.61642E-10-1.02045E-09
 -1        38-2.35593E+06 1.10400E+04-4.25320E+04-9.45428E-08-1.54886E-09-1.34423E-09
 -1        39-2.36750E+06-1.27785E+04-2.66991E+04-7.41573E-08 2.24721E-09-5.99357E-10
 -1        40-2.36042E+06 1.71817E+03-1.09211E+04 7.45186E-09 2.06477E-09 1.23964E-09
 -1        41-2.36223E+06-2.01147E+03-6.50093E+03 8.93938E-09-1.62476E-09 1.23237E-09
 -1        42-2.36116E+06 2.90603E+02-3.16707E+03-5.11407E-08-1.34261E-09-3.52918E-09
 -1        43-2.36144E+06-5.03781E+02-2.47723E+03-6.83138E-08-7.45817E-10 1.95143E-10
 -1        44-2.36121E+06 2.12702E+02-2.45742E+03-9.03424E-08 5.00741E-10 1.41461E-09
 -1        45-2.36187E+06-1.33869E+03-4.44917E+03 9.14580E-08 1.06825E-09-2.16232E-10
 -1        46-2.36074E+06 1.12422E+03-7.22141E+03-1.32615E-07 1.05289E-09 9.46329E-10
 -1        47-2.36529E+06-8.33924E+03-1.74666E+04-6.58887E-08-2.33149E-09-6.53699E-10
 -1        48-2.35781E+06 7.20165E+03-2.77690E+04-6.51489E-08-7.99010E-10 1.46429E-09
 -1        49-2.38618E+06-5.34637E+04-7.58154E+04 2.49626E-07-2.89712E-09 5.19231E-09
 -1        50-2.33992E+06 4.61702E+04-1.07252E+05 1.20886E-07-3.69767E-09 1.70985E-09
 -1        51 1.91048E+04-2.22650E+05 3.07589E+04-5.94991E+05-7.27596E-11 3.06318E-09
 -1        52 8.21753E+03-2.19308E+05 1.85073E+04-6.56195E+05 5.09317E-11-1.88084E-09
 -1        53 4.94511E+03-2.24599E+05 1.47286E+04-5.93438E+05-1.78261E-10-3.60160E-09
 -1        54 1.17231E+04-2.21828E+05 2.21657E+04-6.57874E+05-1.45519E-10 1.43518E-09
 -1        55 2.80608E+04-2.28718E+05 4.00344E+04-5.93186E+05 5.82077E-11-3.74712E-10
 -1        56-2.56711E+06-2.90196E+05-2.10158E+05-9.92842E+05 2.91038E-11 2.27010E-09
 -1        57-2.66383E+06-4.63376E+05-1.40992E+05-9.70537E+05 7.83075E-10-4.50382E-09
 -1        58-2.60785E+06-3.56604E+05-4.94932E+04-9.81467E+05 4.87489E-10-2.00453E-09
 -1        59-2.61690E+06-3.85053E+05-2.93432E+04-9.84093E+05-4.46789E-11 1.28193E-09
 -1        60-2.61351E+06-3.65887E+05-1.15712E+04-9.80206E+05 1.30512E-10 3.18823E-09
 -1        61-2.61068E+06-3.73838E+05-6.54971E+03-9.85203E+05-1.29830E-10-3.79060E-09
 -1        62-2.61397E+06-3.67490E+05-3.19769E+03-9.80459E+05-7.20775E-11-1.21992E-09
 -1        63-2.61073E+06-3.71659E+05-2.68246E+03-9.84340E+05-3.19517E-10 8.06764E-10
 -1        64-2.61344E+06-3.68034E+05-3.13168E+03-9.81074E+05 2.75463E-10 2.89742E-09
 -1        65-2.61273E+06-3.71690E+05-6.35073E+03-9.82805E+05-7.29912E-10 6.09930E-09
 -1        66-2.61199E+06-3.67495E+05-1.11988E+04-9.81982E+05-2.45791E-10 6.54836E-11
 -1        67-2.62056E+06-3.80701E+05-2.83721E+04-9.79634E+05-5.37398E-10 4.44288E-10
 -1        68-2.60570E+06-3.59345E+05-4.78580E+04-9.84143E+05 4.77485E-10-6.65750E-10
 -1        69-2.66730E+06-4.55053E+05-1.36315E+05-9.64960E+05 8.17636E-10-1.79716E-09
 -1        70-2.56576E+06-2.95687E+05-2.03200E+05-9.95766E+05-5.09317E-10 8.94943E-10
 -1        71-1.10217E+06-1.85664E+03 4.31516E+03-1.39511E-07-5.89441E-10 2.03067E-09
 -1        72-1.10020E+06 2.14992E+03 3.04524E+03-1.00639E-07-4.70301E-10 8.59131E-10
 -1        73-1.10145E+06-2.89396E+02 1.10662E+03-4.86719E-08-5.70482E-10 1.43172E-09
 -1        74-1.10104E+06 3.33496E+02 6.78756E+02 5.16445E-08-7.59496E-10-3.53246E-09
 -1        75-1.10133E+06-4.35487E+01 2.43776E+02-3.95510E-08-1.12345E-11 3.25301E-10
 -1        76-1.10118E+06 4.10171E+01 7.84047E+01 7.29326E-08 1.23021E-09 3.52682E-09
 -1        77-1.10130E+06 2.60104E+00-9.02152E+01-5.08336E-08-1.42495E-10 1.78829E-09
 -1        78-1.10124E+06-6.41704E+01-3.16337E+02 1.68104E-07 4.47048E-11 6.72060E-10
 -1        79-1.10127E+06 6.15087E+01-6.28052E+02-8.67462E-08 1.38401E-10 3.50553E-09
 -1        80-1.10146E+06-4.67746E+02-1.47582E+03-1.46761E-07-3.32581E-11 1.27537E-09
 -1        81-1.10109E+06 4.05592E+02-2.55886E+03 1.97293E-08-1.69354E-09-2.43358E-09
 -1        82-1.10271E+06-3.02327E+03-6.31078E+03 1.27997E-07 6.19425E-10 3.16504E-10
 -1        83-1.10002E+06 2.61276E+03-1.00716E+04 2.14262E-08-9.22302E-10-1.45292E-09
 -1        84-1.11029E+06-1.93984E+04-2.75166E+04-3.66362E-09-4.23063E-10 3.99723E-10
 -1        85-1.09352E+06 1.67512E+04-3.89402E+04-1.09919E-07-1.42497E-09 1.60071E-10
 -1        86-5.31800E+04 2.06438E+05 1.25719E+05 9.07685E+02 2.18279E-11-1.84518E-09
 -1        87 6.63015E+04 2.62573E+05 9.72014E+04-3.97667E+03-4.72937E-11 2.20463E-09
 -1        88-1.29964E+04 2.24891E+05 4.95457E+04 5.34208E+02-3.27418E-10 2.29399E-10
 -1        89 4.52369E+04 2.52712E+05 6.96510E+04-3.46519E+03 1.86446E-11-1.65634E-09
 -1        90-3.21538E+04 2.16283E+05 7.82848E+04 3.96301E+02-4.40195E-10-5.17097E-10
 -1        91-1.17465E+06-1.59681E+05-1.63790E+04-4.44461E+05-2.29647E-10 5.73891E-10
 -1        92-1.18622E+06-1.71467E+05-1.13385E+04-4.37945E+05 1.31354E-09-3.28055E-09
 -1        93-1.17713E+06-1.66323E+05-3.84021E+03-4.44243E+05 5.45128E-10 3.04294E-09
 -1        94-1.18248E+06-1.64549E+05-2.39847E+03-4.39072E+05 9.01942E-10 3.57034E-09
 -1        95-1.17838E+06-1.66587E+05-9.35679E+02-4.43335E+05 5.75293E-10-6.70980E-10
 -1        96-1.17961E+06-1.65655E+05-5.70977E+02-4.41717E+05 1.09388E-09-2.92638E-09
 -1        97-1.17999E+06-1.65219E+05-3.84706E+02-4.41595E+05 3.03046E-10 7.79373E-10
 -1        98-1.17714E+06-1.68073E+05-4.87816E+02-4.44596E+05-2.74083E-09 1.00115E-09
 -1        99-1.18086E+06-1.64166E+05-7.64033E+02-4.40458E+05-2.45532E-09-2.83958E-09
 -1       100-1.17699E+06-1.69172E+05-1.82168E+03-4.45127E+05-2.90831E-09-9.46898E-10
 -1       101-1.18014E+06-1.64120E+05-3.14425E+03-4.41066E+05-1.41648E-09-3.59614E-09
 -1       102-1.18103E+06-1.70984E+05-8.39740E+03-4.42234E+05 5.56128E-10-4.73426E-09
 -1       103-1.17681E+06-1.62364E+05-1.35200E+04-4.43347E+05-1.17461E-09-1.21963E-09
 -1       104-1.19734E+06-1.92308E+05-3.99556E+04-4.34757E+05-7.23503E-10 1.68075E-09
 -1       105-1.16386E+06-1.42832E+05-5.76367E+04-4.48540E+05-1.84627E-09 2.18279E-11
 -1       106-6.03239E+05-2.24747E+03 5.22543E+03 3.23045E-08-3.17804E-10-3.12593E-09
 -1       107-6.00921E+05 2.60264E+03 3.68997E+03 9.22170E-08 5.43057E-11 1.38016E-09
 -1       108-6.02366E+05-3.50441E+02 1.34620E+03-8.35439E-08-3.13854E-10-1.48481E-09
 -1       109-6.01939E+05 4.04696E+02 8.34817E+02-8.14071E-08 1.59252E-10-3.30793E-09
 -1       110-6.02223E+05-5.35870E+01 3.19916E+02-1.98792E-08-5.76705E-11-8.69704E-12
 -1       111-6.02111E+05 5.63417E+01 1.47605E+02-1.14138E-07-4.32721E-10 5.12742E-10
 -1       112-6.02195E+05-2.66975E+00-1.05124E+01-6.45119E-08-4.31815E-10 5.48667E-10
 -1       113-6.02161E+05-3.36467E+01-1.66029E+02-6.13128E-08-3.09666E-10-1.76969E-09
 -1       114-6.02172E+05 3.62848E+01-3.66471E+02 4.56177E-08 3.09154E-10-8.30738E-10
 -1       115-6.02293E+05-2.80085E+02-8.80847E+02-2.61188E-08-1.69050E-10-5.84350E-11
 -1       116-6.02064E+05 2.43414E+02-1.53463E+03 1.19411E-07-2.14350E-10-1.19951E-09
 -1       117-6.03044E+05-1.81500E+03-3.78912E+03 6.13434E-09-2.36616E-10-1.50993E-09
 -1       118-6.01423E+05 1.56861E+03-6.04876E+03-6.99679E-08 1.39938E-10-7.37828E-10
 -1       119-6.07594E+05-1.16462E+04-1.65233E+04 4.21054E-08 2.58609E-10 1.15756E-09
 -1       120-5.97518E+05 1.00568E+04-2.33833E+04 2.99228E-08 1.95281E-11 5.09317E-11
 -1       121-9.42358E+02-6.17920E+05 4.21627E+03 5.76220E+03-4.38831E-11-1.13891E-09
 -1       122 1.37076E+03-6.16292E+05 3.08342E+03 2.26173E+04-1.18007E-10 8.33666E-10
 -1       123-1.96594E+02-6.17369E+05 1.96980E+03 5.83883E+03-1.61776E-10 1.46747E-09
 -1       124 1.26021E+03-6.16298E+05 2.91870E+03 2.23796E+04-1.74168E-10 7.31598E-09
 -1       125-8.95719E+02-6.17847E+05 3.88960E+03 6.00010E+03-5.43423E-10-7.45786E-11
 -1       126-5.50444E+05-7.81132E+04 2.89613E+03-2.05336E+05 6.39488E-10-1.46474E-09
 -1       127-5.46999E+05-7.71546E+04 2.03199E+03-2.07775E+05 1.15108E-09 2.78027E-09
 -1       128-5.50283E+05-7.65829E+04 6.76072E+02-2.04974E+05-1.44202E-09-1.14835E-09
 -1       129-5.47207E+05-7.89115E+04 4.20601E+02-2.08182E+05-1.19357E-09-1.56177E-09
 -1       130-5.50239E+05-7.63565E+04 1.43122E+02-2.04932E+05-7.79033E-10 4.92996E-10
 -1       131-5.47616E+05-7.87800E+04 6.75171E+01-2.07768E+05-9.46397E-10 1.14783E-09
 -1       132-5.49873E+05-7.67157E+04-3.47734E+01-2.05386E+05 1.24345E-10 1.27243E-09
 -1       133-5.48632E+05-7.78015E+04-1.06973E+02-2.06553E+05 1.24583E-09 1.88165E-09
 -1       134-5.49220E+05-7.73372E+04-2.77255E+02-2.06144E+05 1.04804E-09-1.34833E-10
 -1       135-5.50047E+05-7.67612E+04-6.59151E+02-2.05067E+05-9.74596E-10-2.53402E-09
 -1       136-5.48459E+05-7.77560E+04-1.18866E+03-2.06873E+05 6.05183E-10-2.02198E-09
 -1       137-5.51858E+05-7.72762E+04-3.17919E+03-2.03792E+05 8.47137E-10 3.47427E-09
 -1       138-5.47414E+05-7.68222E+04-5.11033E+03-2.07422E+05-4.53724E-10 2.81102E-09
 -1       139-5.57173E+05-8.61927E+04-1.51219E+04-2.01939E+05 1.75214E-09 3.38196E-09
 -1       140-5.43150E+05-6.88529E+04-2.18174E+04-2.08722E+05 6.52562E-10 1.85992E-09
 -1       141-2.73081E+05-2.50828E+03 5.83124E+03-1.97275E-08 2.84400E-10 7.57609E-10
 -1       142-2.70531E+05 2.90451E+03 4.11566E+03 6.29531E-08 1.43585E-10 1.12959E-09
 -1       143-2.72107E+05-3.90981E+02 1.49653E+03 9.95249E-08-1.02201E-10 1.27892E-09
 -1       144-2.71667E+05 4.50629E+02 9.18572E+02 8.24342E-08-5.81130E-11-3.08751E-09
 -1       145-2.71946E+05-5.88990E+01 3.31459E+02-2.27716E-08 5.54262E-11-1.68203E-09
 -1       146-2.71863E+05 5.59043E+01 1.09801E+02-4.63782E-08 5.08416E-11-1.38283E-09
 -1       147-2.71912E+05 3.08829E+00-1.14937E+02 8.33474E-09-1.30825E-10-1.42867E-09
 -1       148-2.71942E+05-8.34765E+01-4.12179E+02 4.48876E-08-3.01957E-11 2.58353E-11
 -1       149-2.71866E+05 8.03089E+01-8.20967E+02 7.81217E-08-6.50373E-12 1.42677E-09
 -1       150-2.72223E+05-6.11003E+02-1.92984E+03 7.62513E-09-1.80824E-11-5.73067E-10
 -1       151-2.71631E+05 5.29857E+02-3.34645E+03-1.62755E-07-1.76010E-10-7.91033E-10
 -1       152-2.73856E+05-3.94947E+03-8.25017E+03-6.31184E-08-3.82449E-12-3.22757E-10
 -1       153-2.70234E+05 3.41319E+03-1.31663E+04 3.09414E-08 9.88567E-10 1.22600E-09
 -1       154-2.83755E+05-2.53409E+04-3.59580E+04 4.08224E-08 2.27680E-10-3.66981E-10
 -1       155-2.61733E+05 2.18829E+04-5.08790E+04-1.80266E-08 2.42395E-09 1.05865E-09
 -1       156-8.57950E+03-1.21358E+05 2.05751E+04-8.44054E+02-2.37378E-10 6.34152E-10
 -1       157 1.13739E+04-1.11962E+05 1.71139E+04 3.51062E+03-6.16751E-10-2.43162E-10
 -1       158-2.77361E+03-1.18724E+05 1.05737E+04-8.33272E+02-1.71127E-10 1.97559E-10
 -1       159 1.24382E+04-1.11412E+05 1.85120E+04 3.37877E+03 1.06184E-10 4.97134E-09
 -1       160-9.64414E+03-1.21905E+05 2.29507E+04-7.12191E+02 1.05683E-09-1.02034E-11
 -1       161-3.09591E+05-4.29688E+04-1.30620E+03-1.16242E+05-1.10845E-12-1.58764E-10
 -1       162-3.09999E+05-4.44106E+04-9.08445E+02-1.16294E+05 2.43929E-10-6.82277E-10
 -1       163-3.09876E+05-4.34161E+04-3.13724E+02-1.16131E+05 1.65670E-10 1.34789E-09
 -1       164-3.09680E+05-4.38831E+04-2.08676E+02-1.16409E+05 5.30370E-10 1.65416E-09
 -1       165-3.09910E+05-4.34954E+04-1.06344E+02-1.16127E+05 2.97533E-10 2.26152E-09
 -1       166-3.09678E+05-4.37728E+04-1.22735E+02-1.16378E+05 5.97390E-10 1.55155E-09
 -1       167-3.09878E+05-4.35263E+04-1.72234E+02-1.16162E+05-3.30862E-10 9.02610E-10
 -1       168-3.09802E+05-4.37692E+04-3.81490E+02-1.16280E+05-9.29665E-11-6.58559E-10
 -1       169-3.09785E+05-4.34991E+04-6.85680E+02-1.16225E+05 1.88948E-10-1.20724E-09
 -1       170-3.10239E+05-4.42254E+04-1.71510E+03-1.16078E+05-3.98245E-10-4.82086E-09
 -1       171-3.09442E+05-4.30709E+04-2.96781E+03-1.16364E+05-1.92017E-10 9.64064E-11
 -1       172-3.12421E+05-4.76853E+04-7.98610E+03-1.15339E+05 6.28461E-10 1.58252E-10
 -1       173-3.07605E+05-4.00442E+04-1.28100E+04-1.16963E+05-1.22691E-09-3.57886E-10
 -1       174-3.25424E+05-7.03197E+04-3.79065E+04-1.11017E+05-5.59521E-09 4.23097E-09
 -1       175-2.96446E+05-2.04697E+04-5.46510E+04-1.20675E+05-2.16642E-09 2.43745E-09
 -1       191 8.72884E+02 3.16173E+05 1.42082E+03-8.25859E+03-1.59162E-10 1.16270E-08
 -1       192 3.17421E+02 3.16378E+05 8.50763E+02-8.85287E+03 1.60128E-10 1.89752E-08
 -1       193 1.46680E+02 3.16241E+05 6.84920E+02-8.11914E+03-4.22745E-10-1.08321E-09
 -1       194 4.20794E+02 3.16406E+05 1.03710E+03-9.11346E+03 2.96041E-10-2.35746E-08
 -1       195 1.19284E+03 3.16127E+05 1.88425E+03-7.99717E+03-7.13044E-10-8.59291E-09
 -1       251-1.45880E+06 3.37881E+04-7.85455E+04-7.99451E+03 5.18810E-10-6.33008E-10
 -1       252-1.49225E+06-3.90806E+04-5.54200E+04 1.50787E+04-6.72365E-10-4.32919E-10
 -1       253-1.47239E+06 5.24129E+03-2.04362E+04-5.28023E+03 3.17357E-10-5.68434E-10
 -1       254-1.47603E+06-6.04092E+03-1.24975E+04 4.46135E+03 3.24945E-10-4.50564E-09
 -1       255-1.47493E+06 7.53645E+02-5.43448E+03 2.62296E+03 3.34865E-10 1.51658E-10
 -1       256-1.47397E+06-9.11894E+02-2.97920E+03-9.54581E+03 1.24646E-09-8.56573E-10
 -1       257-1.47447E+06 1.44791E+02-1.64218E+03 8.72713E+03 5.03661E-10-1.51999E-10
 -1       258-1.47424E+06-2.49438E+02-1.36909E+03-1.45611E+04-1.65791E-09-7.61418E-11
 -1       259-1.47469E+06 1.26702E+02-1.68862E+03 7.63844E+03-2.54894E-09 2.84479E-09
 -1       260-1.47368E+06-9.07284E+02-2.92593E+03-6.15457E+03 1.03469E-09-4.19845E-10
 -1       261-1.47498E+06 7.51548E+02-5.45030E+03 3.20319E+02 1.33014E-10 2.93471E-09
 -1       262-1.47624E+06-6.05494E+03-1.25514E+04 8.24165E+03 6.22080E-10 1.74396E-09
 -1       263-1.47214E+06 5.26922E+03-2.04015E+04-6.75792E+03-2.48349E-09 2.89674E-09
 -1       264-1.49239E+06-3.91160E+04-5.54939E+04 1.58829E+04-5.52503E-09 2.00816E-09
 -1       265-1.45892E+06 3.38018E+04-7.86503E+04-7.32105E+03-4.05899E-09 6.51198E-10
 -1       266-1.31968E+04-2.45637E+05 2.97430E+04 4.48593E+03-3.63798E-12-8.12406E-10
 -1       267 1.41558E+04-2.31686E+05 1.91513E+04-1.59353E+04 3.27418E-11 2.65800E-10
 -1       268-8.86094E+02-2.39238E+05 3.36316E+03 5.21971E+03-4.09273E-11-1.83422E-09
 -1       269-6.28547E+03-2.41442E+05-7.60390E+03-1.62256E+04 2.72848E-11 2.90915E-09
 -1       270 7.21856E+03-2.35902E+05-1.61833E+04 4.77625E+03-7.27596E-12 4.14843E-09
 -1       271-2.21267E+06-2.79130E+05-1.71871E+05-8.56548E+05 1.27511E-09 4.56203E-09
 -1       272-2.26964E+06-3.94853E+05-1.08479E+05-8.60623E+05 2.09297E-10-9.07676E-10
 -1       273-2.24303E+06-3.17657E+05-4.05466E+04-8.51451E+05-2.37654E-09 2.67391E-10
 -1       274-2.23437E+06-3.45078E+05-2.22793E+04-8.69511E+05-2.61934E-10 3.34512E-09
 -1       275-2.24693E+06-3.21347E+05-9.43318E+03-8.50538E+05-6.75755E-10-5.80258E-10
 -1       276-2.22975E+06-3.40496E+05-4.99944E+03-8.71084E+05-7.36691E-11-2.65129E-09
 -1       277-2.24764E+06-3.21498E+05-2.56923E+03-8.50197E+05-7.84894E-10 2.84501E-09
 -1       278-2.22900E+06-3.40338E+05-2.02945E+03-8.71558E+05 1.23185E-09 5.55200E-09
 -1       279-2.24772E+06-3.21426E+05-2.44135E+03-8.50117E+05-4.32181E-10 1.03910E-09
 -1       280-2.22946E+06-3.40725E+05-4.65417E+03-8.71432E+05-2.91323E-10 1.54046E-09
 -1       281-2.24718E+06-3.21161E+05-8.72125E+03-8.50301E+05 5.96970E-10-6.07088E-10
 -1       282-2.23354E+06-3.45160E+05-2.05883E+04-8.70233E+05-3.59023E-10-1.09139E-11
 -1       283-2.24367E+06-3.17658E+05-3.74430E+04-8.51042E+05 1.48702E-10-3.58341E-10
 -1       284-2.26596E+06-3.91302E+05-1.00194E+05-8.62226E+05-6.71207E-10-3.80169E-09
 -1       285-2.21571E+06-2.81996E+05-1.58734E+05-8.55663E+05-3.58341E-10-1.36060E-09
 -1       286-3.83920E+05-7.83703E+03 1.82046E+04-6.53848E+02 9.68967E-10-4.88399E-10
 -1       287-3.75830E+05 9.07538E+03 1.28958E+04 1.89317E+02 3.49196E-10 3.96517E-09
 -1       288-3.80890E+05-1.22491E+03 4.70614E+03-7.18497E+01 1.10873E-10 8.11269E-10
 -1       289-3.79383E+05 1.41691E+03 2.98750E+03-9.53135E+02 6.14762E-11-2.51100E-09
 -1       290-3.80371E+05-1.92325E+02 1.21661E+03 4.88634E+02 5.01231E-10 3.94095E-10
 -1       291-3.80016E+05 2.27806E+02 7.59974E+02-1.90459E+03 9.56280E-10 4.39357E-10
 -1       292-3.80260E+05-3.55973E+01 4.02389E+02 8.79622E+02 7.01604E-10-8.99320E-10
 -1       293-3.80137E+05 8.08779E+01 3.92710E+02-2.41677E+03 9.00760E-10-3.01300E-10
 -1       294-3.80253E+05-4.37234E+01 4.83770E+02 1.00082E+03 5.57410E-10 2.88736E-10
 -1       295-3.80015E+05 3.02369E+02 9.80140E+02-2.35832E+03-6.13220E-10-3.32066E-09
 -1       296-3.80381E+05-2.56995E+02 1.63250E+03 8.21169E+02-1.12706E-10-2.84956E-10
 -1       297-3.79179E+05 1.90824E+03 4.00348E+03-1.74462E+03 4.12683E-10 1.56695E-09
 -1       298-3.81085E+05-1.64903E+03 6.34648E+03 3.87117E+02-1.43075E-10 4.61569E-10
 -1       299-3.74356E+05 1.22301E+04 1.73707E+04-7.38363E+02 1.80634E-10 5.77302E-10
 -1       300-3.85198E+05-1.05616E+04 2.45377E+04-1.85117E+02-8.00497E-11 1.58980E-09
 -1       301 3.03799E+04 1.66892E+04 6.65108E+04-2.00281E+04 1.81535E-09-1.11748E-09
 -1       302 1.02628E+04 2.91268E+04 4.03695E+04-2.35033E+04 1.62095E-09 1.41819E-09
 -1       303 2.85775E+03 2.11390E+04 3.17841E+04-2.00499E+04 1.85469E-09-1.23129E-09
 -1       304 1.26127E+04 3.05063E+04 4.66305E+04-2.34814E+04 1.24919E-09 8.12975E-10
 -1       305 3.80053E+04 1.53176E+04 8.17046E+04-2.00391E+04 1.77533E-09 3.84011E-09
 -1       306-1.52466E+06-1.97749E+05-1.02544E+05-5.90880E+05-3.65617E-10-6.14091E-09
 -1       307-1.54947E+06-2.75724E+05-6.46863E+04-6.03666E+05-6.42956E-10 1.19962E-09
 -1       308-1.54285E+06-2.20590E+05-2.42030E+04-5.87760E+05-1.25738E-10 1.13505E-09
 -1       309-1.52841E+06-2.46158E+05-1.32982E+04-6.09133E+05-3.23780E-10 1.65164E-09
 -1       310-1.54521E+06-2.22751E+05-5.64820E+03-5.87197E+05 2.10548E-10 1.73713E-09
 -1       311-1.52569E+06-2.43426E+05-3.01937E+03-6.10100E+05 1.63300E-09-7.09861E-10
 -1       312-1.54562E+06-2.22852E+05-1.60708E+03-5.87016E+05 5.43764E-10 1.87877E-09
 -1       313-1.52533E+06-2.43274E+05-1.37333E+03-6.10310E+05 7.70925E-10 2.25100E-09
 -1       314-1.54561E+06-2.22853E+05-1.78536E+03-5.87023E+05 2.37151E-10-8.10815E-10
 -1       315-1.52577E+06-2.43470E+05-3.51255E+03-6.10066E+05-1.57763E-09-5.55360E-09
 -1       316-1.54514E+06-2.22714E+05-6.64575E+03-5.87218E+05-8.02174E-10-8.72205E-10
 -1       317-1.52895E+06-2.46758E+05-1.57011E+04-6.09003E+05-2.48519E-10 1.00545E-09
 -1       318-1.54239E+06-2.20110E+05-2.85835E+04-5.87832E+05-8.72319E-10 3.29237E-10
 -1       319-1.55373E+06-2.81817E+05-7.64235E+04-6.02709E+05 1.77124E-10 2.25282E-09
 -1       320-1.52098E+06-1.93028E+05-1.21126E+05-5.91424E+05-5.13865E-10 5.52973E-10
 -1       321-3.56698E+05-1.16593E+04 2.71090E+04-2.92081E+02-1.70242E-09 1.50976E-10
 -1       322-3.44859E+05 1.35021E+04 1.91654E+04-2.26721E+02-9.39934E-10 6.42785E-10
 -1       323-3.52172E+05-1.81933E+03 7.01104E+03 3.51392E+01-2.18392E-10 2.16005E-10
 -1       324-3.50144E+05 2.10473E+03 4.40364E+03-8.40723E+02-3.38758E-10 8.94431E-10
 -1       325-3.51419E+05-2.82768E+02 1.78491E+03 3.21944E+02 3.95701E-11-7.48059E-10
 -1       326-3.51033E+05 3.26970E+02 1.04026E+03-1.30056E+03 2.82743E-11-2.70973E-10
 -1       327-3.51284E+05-4.37463E+01 4.55463E+02 4.94987E+02-2.02878E-10-1.54174E-09
 -1       328-3.51190E+05 5.28778E+01 2.60370E+02-1.49168E+03 2.33042E-10-1.95300E-10
 -1       329-3.51263E+05-8.59777E+00 1.34839E+02 5.13065E+02 1.39256E-10 9.89964E-10
 -1       330-3.51201E+05 2.38388E+01 1.12546E+02-1.36842E+03 1.40226E-10 2.91802E-10
 -1       331-3.51273E+05-1.50502E+01 1.13869E+02 3.71720E+02 8.06466E-12-8.44835E-11
 -1       332-3.51143E+05 1.04735E+02 2.35641E+02-9.59904E+02 2.69811E-10-4.04152E-09
 -1       333-3.51319E+05-9.01781E+01 3.46645E+02 1.04545E+02 9.90354E-11-2.90422E-09
 -1       334-3.50871E+05 6.63766E+02 9.50741E+02-3.63009E+02 1.61968E-11-3.55548E-09
 -1       335-3.51544E+05-5.73660E+02 1.32476E+03-2.25185E+02-1.37024E-09-2.53840E-09
 -1       336-6.26047E+02-6.26268E+05 1.76229E+03-7.50520E+03-7.74889E-10-3.35604E-10
 -1       337 2.73564E+02-6.25749E+05-1.30551E+03-3.13363E+04-5.72214E-10-1.23543E-09
 -1       338 4.98542E+02-6.25434E+05-5.20490E+03-7.36089E+03-1.07411E-09 2.49725E-09
 -1       339-7.14435E+03-6.30217E+05-1.44928E+04-3.15051E+04-3.90855E-10-1.40972E-10
 -1       340 5.39290E+03-6.21870E+05-2.31661E+04-7.33816E+03-8.05812E-10 1.40512E-09
 -1       341-1.00302E+06-1.25807E+05-4.18443E+04-3.84745E+05-2.75304E-09 2.31012E-10
 -1       342-1.02645E+06-1.62518E+05-2.90033E+04-3.75651E+05-1.59491E-09-2.09002E-09
 -1       343-1.01256E+06-1.39820E+05-9.82795E+03-3.80789E+05-7.18956E-10-2.05091E-10
 -1       344-1.01467E+06-1.47036E+05-6.12863E+03-3.81074E+05-9.57357E-10 3.48473E-09
 -1       345-1.01478E+06-1.41260E+05-2.33762E+03-3.79327E+05-1.22472E-09-1.13766E-09
 -1       346-1.01216E+06-1.45329E+05-1.45950E+03-3.82695E+05 1.23961E-10-1.30223E-09
 -1       347-1.01507E+06-1.41521E+05-8.11946E+02-3.79170E+05-4.52673E-10-3.21585E-10
 -1       348-1.01268E+06-1.44340E+05-9.66917E+02-3.81904E+05 7.39412E-10 3.99319E-09
 -1       349-1.01426E+06-1.42251E+05-1.39916E+03-3.80116E+05 3.80396E-10 8.92499E-10
 -1       350-1.01509E+06-1.43464E+05-3.23497E+03-3.79628E+05 2.24190E-10 1.51613E-09
 -1       351-1.01266E+06-1.42399E+05-5.55699E+03-3.81445E+05-3.74826E-10 1.57706E-09
 -1       352-1.02051E+06-1.48610E+05-1.48823E+04-3.76778E+05-1.37516E-09-1.46451E-09
 -1       353-1.00885E+06-1.37114E+05-2.38636E+04-3.82967E+05-1.04865E-09 1.63709E-11
 -1       354-1.04455E+06-1.90984E+05-7.06275E+04-3.68937E+05 1.83718E-09-9.21318E-10
 -1       355-9.88652E+05-1.00088E+05-1.01830E+05-3.89275E+05 4.58385E-10-2.42289E-09
 -1       356-3.51235E+05-5.83533E+02 1.35041E+03-3.66124E+02 1.86589E-11 2.09752E-11
 -1       357-3.50590E+05 6.75383E+02 9.54001E+02 1.87223E+02-6.57344E-10 1.13641E-09
 -1       358-3.51012E+05-9.11728E+01 3.33656E+02-1.45701E+02-4.77485E-10-1.36993E-10
 -1       359-3.50854E+05 1.03114E+02 1.92678E+02-2.62677E+02-3.73177E-10-1.56296E-09
 -1       360-3.50971E+05-1.23696E+01 2.76759E+01 8.37837E+01-7.66178E-11 1.13628E-09
 -1       361-3.50915E+05 2.83425E-01-7.31675E+01-6.76453E+02-3.94303E-10-5.69685E-10
 -1       362-3.50952E+05 1.18032E+01-2.17565E+02 2.68082E+02-2.76010E-11 1.40972E-11
 -1       363-3.50986E+05-1.03879E+02-5.12624E+02-9.56094E+02 1.55477E-10-6.83201E-10
 -1       364-3.50901E+05 9.20762E+01-9.49025E+02 3.63430E+02 6.60103E-10 7.80005E-10
 -1       365-3.51302E+05-6.91534E+02-2.19119E+03-1.03549E+03-4.71966E-10-5.57947E-10
 -1       366-3.50636E+05 5.98754E+02-3.78535E+03 3.47476E+02 3.43757E-10-1.67120E-10
 -1       367-3.53140E+05-4.46133E+03-9.32034E+03-8.95527E+02 7.15646E-10-3.53566E-11
 -1       368-3.49064E+05 3.85533E+03-1.48742E+04 2.23466E+02 1.36377E-09-7.14863E-10
 -1       369-3.64312E+05-2.86244E+04-4.06143E+04-5.63394E+02 7.82769E-11-1.95314E-09
 -1       370-3.39467E+05 2.47182E+04-5.74729E+04 1.53462E+01 2.72774E-09-1.81899E-11
 -1       371-9.31931E+03-1.22078E+05 2.11949E+04 1.30233E+03 2.64572E-09 2.35484E-09
 -1       372 9.76945E+03-1.13162E+05 1.31074E+04-4.96539E+03 3.32807E-09-9.69496E-11
 -1       373-4.26821E+02-1.17939E+05 1.62740E+03 1.34181E+03 3.04181E-09 1.33064E-09
 -1       374-6.08111E+03-1.20447E+05-7.60378E+03-4.87018E+03 2.78396E-09 1.66891E-09
 -1       375 6.49984E+03-1.14792E+05-1.45165E+04 1.20709E+03 1.80171E-09 1.60659E-09
 -1       376-5.42421E+05-6.84879E+04-2.17192E+04-2.08040E+05 1.82263E-09 1.56615E-09
 -1       377-5.55231E+05-8.69494E+04-1.50644E+04-2.02652E+05 1.14255E-09-7.73070E-11
 -1       378-5.46961E+05-7.61657E+04-5.10029E+03-2.06451E+05-8.79595E-10-1.07184E-09
 -1       379-5.49668E+05-7.83337E+04-3.18913E+03-2.04795E+05-1.09637E-09-2.89157E-09
 -1       380-5.47978E+05-7.70904E+04-1.22612E+03-2.05899E+05 4.47159E-10 2.32490E-11
 -1       381-5.48199E+05-7.75802E+04-7.73812E+02-2.05778E+05 9.27409E-11 1.28393E-09
 -1       382-5.48429E+05-7.69173E+04-4.65259E+02-2.05468E+05 2.08850E-10 9.62217E-11
 -1       383-5.47559E+05-7.80589E+04-6.01977E+02-2.06481E+05 1.71781E-10-1.55998E-09
 -1       384-5.48618E+05-7.66110E+04-8.98744E+02-2.05196E+05-1.02862E-09-1.35472E-09
 -1       385-5.47708E+05-7.89699E+04-2.13473E+03-2.06679E+05-9.69479E-10 6.72571E-10
 -1       386-5.48281E+05-7.60068E+04-3.65469E+03-2.05271E+05 1.76840E-10 2.35559E-10
 -1       387-5.50449E+05-8.31356E+04-9.80549E+03-2.05683E+05 6.10498E-10 1.27204E-09
 -1       388-5.45881E+05-7.24520E+04-1.57266E+04-2.06191E+05 7.87622E-10 1.82536E-09
 -1       389-5.66874E+05-1.10439E+05-4.65234E+04-1.99824E+05-5.40058E-09 3.04044E-09
 -1       390-5.31869E+05-4.87454E+04-6.70835E+04-2.11118E+05-3.36331E-09 4.83851E-10
 -1       406 9.74019E+02 3.12281E+05 1.99394E+03-2.85875E+04-9.46784E-10-1.92404E-09
 -1       407 5.72737E+02 3.12633E+05 2.20958E+03-3.14347E+04 2.28738E-10-2.47155E-09
 -1       408 8.33623E+02 3.12242E+05 3.46402E+03-2.84775E+04-1.25056E-09-9.18590E-11
 -1       409 3.32599E+03 3.13567E+05 7.32545E+03-3.15906E+04 9.16316E-11 9.22910E-10
 -1       410 9.61052E+03 3.11307E+05 1.47083E+04-2.84250E+04-1.36970E-09-6.28006E-10
 -1       466 1.10855E+06-4.44660E+04 1.03308E+05 5.37737E+03-8.98126E-12-2.31375E-09
 -1       467 1.15437E+06 5.14670E+04 7.31964E+04-9.32760E+03-1.53477E-11-2.08820E-09
 -1       468 1.12627E+06-6.92123E+03 2.68000E+04 1.67236E+03-2.30216E-12-1.37334E-09
 -1       469 1.13375E+06 8.01150E+03 1.68813E+04-4.19129E+03-1.09819E-09 1.07320E-10
 -1       470 1.12918E+06-1.07832E+03 6.99119E+03 2.41295E+02-2.71427E-10 2.76941E-10
 -1       471 1.13039E+06 1.28628E+03 4.32097E+03-2.23687E+03 5.45715E-11 1.21167E-09
 -1       472 1.12964E+06-2.05176E+02 2.41054E+03-2.82093E+02 2.59543E-10 1.20872E-09
 -1       473 1.12998E+06 4.96866E+02 2.46237E+03-1.62101E+03 5.88066E-10-2.50888E-09
 -1       474 1.12959E+06-2.89779E+02 3.18175E+03-3.74576E+02 1.05550E-10-5.16366E-10
 -1       475 1.13078E+06 2.01615E+03 6.54667E+03-1.78347E+03 8.32394E-10-8.61860E-10
 -1       476 1.12884E+06-1.72224E+03 1.10071E+04-1.19629E+02 1.28283E-09-3.79259E-10
 -1       477 1.13608E+06 1.28159E+04 2.68745E+04-2.87364E+03 8.24173E-10 2.14141E-09
 -1       478 1.12428E+06-1.10715E+04 4.28077E+04 7.15621E+02-2.30287E-11 9.14952E-10
 -1       479 1.16836E+06 8.22292E+04 1.16805E+05-5.94570E+03 8.15085E-10-3.78350E-09
 -1       480 1.09653E+06-7.10026E+04 1.65273E+05 2.95219E+03 2.23994E-09-3.20142E-10
 -1       481-8.63559E+03 1.81931E+05 2.02210E+04-7.88777E+02 4.82032E-11 1.57408E-09
 -1       482 1.03785E+04 1.90976E+05 1.49839E+04 8.23911E+02-1.18007E-10 2.90527E-09
 -1       483-1.72684E+03 1.85128E+05 6.57525E+03-5.06879E+02 1.22782E-11 2.18708E-09
 -1       484 4.44109E+03 1.88190E+05 7.21599E+03 3.17802E+02 1.06219E-10 5.73266E-10
 -1       485-2.70788E+03 1.84717E+05 6.85843E+03-2.82690E+02 5.00222E-12-6.87834E-10
 -1       486-1.03058E+06-1.12169E+05-9.79031E+04-4.10532E+05-5.29326E-10-1.18598E-09
 -1       487-1.09371E+06-1.89517E+05-6.77751E+04-3.79422E+05 8.54925E-11 7.97627E-10
 -1       488-1.05373E+06-1.44872E+05-2.31026E+04-4.01227E+05-1.28694E-10 2.44654E-10
 -1       489-1.06270E+06-1.55805E+05-1.40202E+04-3.94870E+05-6.41421E-10 2.75941E-09
 -1       490-1.06152E+06-1.45851E+05-5.52722E+03-3.95067E+05-4.00235E-10-5.13865E-10
 -1       491-1.05237E+06-1.56865E+05-3.03892E+03-4.04597E+05-2.31589E-09-4.21778E-10
 -1       492-1.06409E+06-1.43776E+05-1.45202E+03-3.91525E+05-6.92353E-11-4.02508E-10
 -1       493-1.05072E+06-1.57517E+05-1.15556E+03-4.06533E+05-6.70582E-10 1.26270E-09
 -1       494-1.06319E+06-1.45184E+05-1.40085E+03-3.93143E+05 4.90331E-10 1.32036E-09
 -1       495-1.05585E+06-1.52474E+05-2.47480E+03-3.99711E+05 5.25802E-10-2.29113E-09
 -1       496-1.05891E+06-1.48854E+05-4.75624E+03-3.98315E+05-1.63283E-10 2.99679E-10
 -1       497-1.06722E+06-1.49918E+05-1.19389E+04-3.89705E+05-2.54659E-11-1.43018E-10
 -1       498-1.05183E+06-1.47739E+05-1.94965E+04-4.03158E+05-4.72482E-10-1.50703E-09
 -1       499-1.09127E+06-1.80786E+05-5.75129E+04-3.79258E+05-8.82437E-10-2.51475E-09
 -1       500-1.03493E+06-1.18010E+05-8.30540E+04-4.08779E+05-1.97906E-09 2.30284E-09
 -1       501-3.02215E+05-1.69127E+04 3.92938E+04-2.16325E+02 1.22867E-10-1.77170E-09
 -1       502-2.84864E+05 1.95839E+04 2.78168E+04-9.25132E+02 8.56701E-11-1.74123E-09
 -1       503-2.95631E+05-2.64045E+03 1.01566E+04 3.54433E+02-1.29859E-10-1.87447E-09
 -1       504-2.92583E+05 3.05414E+03 6.40268E+03-1.95822E+03-5.93978E-10-3.10001E-09
 -1       505-2.94507E+05-4.10957E+02 2.58913E+03 8.16801E+02 7.60437E-10 9.69749E-11
 -1       506-2.93928E+05 4.77538E+02 1.52316E+03-2.66937E+03 1.67572E-09 1.33332E-09
 -1       507-2.94292E+05-6.47240E+01 6.80941E+02 1.06560E+03 1.24536E-09 1.83695E-09
 -1       508-2.94169E+05 8.80033E+01 4.22874E+02-2.90253E+03 3.75540E-10-9.26661E-10
 -1       509-2.94268E+05-2.05852E+01 2.76150E+02 1.04997E+03 1.59408E-09 8.41624E-10
 -1       510-2.94126E+05 9.55696E+01 3.56756E+02-2.60994E+03 1.40416E-09-1.07102E-09
 -1       511-2.94332E+05-7.40082E+01 4.81882E+02 7.72997E+02 5.79718E-10 2.61025E-10
 -1       512-2.93827E+05 5.34395E+02 1.15417E+03-1.85009E+03 2.66915E-10 1.71326E-09
 -1       513-2.94563E+05-4.62250E+02 1.75846E+03 2.90100E+02-5.94582E-11 3.44698E-10
 -1       514-2.92433E+05 3.40945E+03 4.86886E+03-7.76405E+02-5.98739E-10 1.11311E-09
 -1       515-2.95721E+05-2.94647E+03 6.80587E+03-3.00699E+02-5.91626E-10-4.47471E-10
 -1       516-3.79834E+04 2.31838E+05 8.93611E+04 2.24761E+03-2.47383E-10 1.09600E-09
 -1       517 4.66996E+04 2.71877E+05 6.79771E+04-1.17532E+04 3.81988E-11 5.03942E-09
 -1       518-8.59957E+03 2.45558E+05 3.28019E+04 1.79614E+03-1.04046E-09 4.20095E-09
 -1       519 2.72519E+04 2.62800E+05 4.25450E+04-1.16456E+04 5.79348E-10 2.14925E-10
 -1       520-1.85710E+04 2.40907E+05 4.55696E+04 2.13994E+03-8.54925E-10-2.13529E-09
 -1       521-2.11025E+06-2.69837E+05-1.48136E+05-8.15326E+05-4.31100E-10-3.48518E-09
 -1       522-2.15467E+06-3.74174E+05-9.34833E+04-8.24165E+05 1.35515E-09 2.53021E-09
 -1       523-2.13646E+06-3.02973E+05-3.49454E+04-8.10884E+05 3.43164E-10 1.44610E-09
 -1       524-2.12427E+06-3.31321E+05-1.92028E+04-8.31892E+05 1.36424E-11-1.87083E-09
 -1       525-2.13982E+06-3.06150E+05-8.13034E+03-8.10102E+05 2.24645E-10-3.15185E-09
 -1       526-2.12034E+06-3.27318E+05-4.31472E+03-8.33191E+05 2.09320E-09 2.26009E-09
 -1       527-2.14038E+06-3.06333E+05-2.22391E+03-8.09867E+05 3.05772E-09 6.45855E-10
 -1       528-2.11983E+06-3.27044E+05-1.77373E+03-8.33429E+05 6.55797E-09-2.08956E-10
 -1       529-2.14035E+06-3.06366E+05-2.15531E+03-8.09899E+05 4.60352E-09-2.94654E-09
 -1       530-2.12042E+06-3.27181E+05-4.12253E+03-8.33051E+05 1.49453E-09-2.86320E-09
 -1       531-2.13975E+06-3.06265E+05-7.74300E+03-8.10196E+05 2.08775E-09-1.08503E-09
 -1       532-2.12428E+06-3.30850E+05-1.82651E+04-8.31643E+05 1.23464E-10-3.34694E-09
 -1       533-2.13647E+06-3.03324E+05-3.32373E+04-8.11023E+05-1.25931E-09-3.79623E-09
 -1       534-2.15334E+06-3.71438E+05-8.88968E+04-8.24098E+05 4.50996E-10-9.33142E-10
 -1       535-2.11146E+06-2.71908E+05-1.40878E+05-8.15345E+05-9.45874E-11 9.45874E-10
 -1       536 5.06278E+04-9.11470E+03 3.92775E+04-5.45514E+03 3.19233E-10 1.80080E-10
 -1       537 6.49329E+04 1.22751E+04 2.51685E+04-2.12757E+04-1.85014E-09 4.42378E-09
 -1       538 5.65375E+04-9.65431E+02 1.01655E+04-5.39392E+03-1.87811E-10 1.53796E-09
 -1       539 5.82568E+04 1.18432E+03 5.67808E+03-2.13296E+04 9.17680E-10-2.77623E-09
 -1       540 5.71960E+04-1.17029E+02 2.56249E+03-5.39828E+03 5.09317E-11 1.81763E-09
 -1       541 5.74426E+04 1.10402E+02 1.35399E+03-2.13170E+04-7.52607E-11 2.23736E-10
 -1       542 5.72746E+04-1.63142E+01 6.39459E+02-5.40651E+03-1.90994E-10-1.58951E-09
 -1       543 5.73070E+04 1.75597E+01 3.30204E+02-2.13045E+04 3.25031E-10 1.63141E-10
 -1       544 5.72838E+04 5.89674E-01 1.58064E+02-5.41090E+03-1.46542E-10-2.84047E-10
 -1       545 5.72767E+04 1.26732E+01 7.78829E+01-2.12994E+04-4.22574E-10 1.91352E-09
 -1       546 5.72861E+04 3.09105E+00 3.21078E+01-5.41154E+03 1.15506E-10-5.00393E-10
 -1       547 5.72786E+04 5.49223E+00 3.17450E+00-2.12991E+04-1.43245E-11-1.16597E-09
 -1       548 5.72921E+04 8.50189E-01-2.38310E+01-5.41119E+03-5.90489E-10 1.42526E-09
 -1       549 5.72865E+04-3.92590E+01-7.24051E+01-2.12639E+04 3.01725E-10-1.53159E-09
 -1       550 5.73174E+04 1.42765E+01-1.28338E+02-5.44676E+03-3.81988E-10-2.49355E-09
 -1       551 9.27768E+03-2.07291E+05 1.98537E+04-3.17768E+05 2.22644E-09 1.18234E-10
 -1       552 4.54498E+03-2.03972E+05 1.56457E+04-3.71804E+05 1.70257E-09 1.51613E-09
 -1       553 2.93783E+03-2.06903E+05 1.81977E+04-3.17237E+05 2.68483E-09 1.49930E-09
 -1       554 1.15703E+04-2.00026E+05 3.41773E+04-3.71895E+05 2.34286E-09 1.20053E-10
 -1       555 3.19677E+04-2.11571E+05 6.48279E+04-3.17630E+05 2.57933E-09-1.66801E-09
 -1       556-1.51501E+05-8.10996E+04 1.30216E+04-1.44786E+05 1.07684E-09 1.41517E-09
 -1       557-1.39267E+05-9.44310E+04 6.40465E+03-1.54409E+05 5.52973E-10 3.42789E-09
 -1       558-1.51785E+05-8.54257E+04 2.68936E+03-1.42208E+05-8.65839E-10 1.93177E-09
 -1       559-1.40473E+05-9.65740E+04 1.32102E+03-1.54876E+05 9.38599E-10 5.85828E-10
 -1       560-1.51948E+05-8.54559E+04 5.84727E+02-1.42187E+05 2.90311E-09 7.83962E-09
 -1       561-1.40733E+05-9.66057E+04 2.76188E+02-1.55066E+05 8.73115E-11 1.88007E-09
 -1       562-1.52075E+05-8.53669E+04 9.44183E+01-1.42271E+05 1.30967E-10 1.49862E-09
 -1       563-1.40864E+05-9.65499E+04-1.33444E+01-1.55160E+05-1.09139E-11-7.37600E-10
 -1       564-1.52144E+05-8.53132E+04-1.39308E+02-1.42322E+05 2.45745E-09 6.57474E-09
 -1       565-1.40937E+05-9.65224E+04-3.50427E+02-1.55204E+05-5.21140E-10-1.24783E-09
 -1       566-1.52141E+05-8.52907E+04-7.48302E+02-1.42334E+05 1.13528E-09-7.61247E-10
 -1       567-1.41071E+05-9.66011E+04-1.65520E+03-1.55187E+05 2.25828E-09 1.23327E-09
 -1       568-1.52005E+05-8.55542E+04-3.40424E+03-1.42197E+05 1.95541E-10 1.09139E-10
 -1       569-1.42913E+05-9.86802E+04-8.03030E+03-1.54633E+05-5.01495E-09-1.00099E-08
 -1       570-1.51273E+05-9.18503E+04-1.63951E+04-1.39538E+05 2.28647E-09 6.92353E-09
 -1       571 1.98455E+05 9.82331E+03 1.50698E+04-5.14752E+04 8.36735E-11-1.40972E-09
 -1       572 2.00760E+05 3.34896E+03 7.40263E+03-5.67457E+04 1.58707E-10 1.37061E-09
 -1       573 1.99387E+05 7.47374E+02 3.29351E+03-5.13329E+04 9.00400E-11 1.87811E-10
 -1       574 1.99657E+05 2.31599E+02 1.65388E+03-5.69018E+04-3.75167E-10-1.81899E-12
 -1       575 1.99487E+05 1.88400E+01 7.82621E+02-5.13149E+04 8.41283E-11-1.75351E-09
 -1       576 1.99512E+05-7.93201E-01 4.00229E+02-5.69220E+04 2.72593E-10-1.33468E-09
 -1       577 1.99501E+05-1.31413E+01 2.00381E+02-5.13126E+04-2.80693E-10-1.74487E-09
 -1       578 1.99498E+05-1.00396E+01 1.14953E+02-5.69245E+04-8.18545E-11 8.89031E-10
 -1       579 1.99516E+05-1.47823E+01 8.08526E+01-5.13125E+04-2.03272E-10-6.23004E-11
 -1       580 1.99519E+05-1.70196E+01 9.26250E+01-5.69217E+04 3.18323E-10 1.88766E-09
 -1       581 1.99540E+05-2.19927E+01 1.44978E+02-5.13154E+04-3.91083E-10-2.74031E-09
 -1       582 1.99579E+05 4.65522E+00 2.88989E+02-5.68912E+04-3.00133E-10-2.32876E-09
 -1       583 1.99561E+05 8.10865E+01 5.63725E+02-5.13429E+04 2.58296E-10 1.84446E-09
 -1       584 1.99815E+05 5.13953E+02 1.26470E+03-5.66543E+04-9.42237E-10 7.57154E-10
 -1       585 1.99446E+05 1.61051E+03 2.56799E+03-5.15536E+04 1.18234E-11-1.43336E-09
 -1       586 1.64537E+03 8.02041E+04 2.95341E+03-1.31824E+05 3.29237E-10-6.68933E-10
 -1       587 9.08069E+02 8.06925E+04 2.80936E+03-1.45731E+05 5.01132E-10-2.17960E-09
 -1       588 1.05564E+03 8.01657E+04 3.98159E+03-1.31657E+05 3.02862E-10 5.04315E-10
 -1       589 3.78348E+03 8.16656E+04 8.15071E+03-1.45771E+05 4.64752E-10 1.33195E-09
 -1       590 1.06644E+04 7.91844E+04 1.62286E+04-1.31781E+05 4.61114E-10-8.64020E-12
 -1       591-9.23019E+04-3.20169E+04-1.73412E+04-4.81342E+04-8.74252E-11-1.11868E-09
 -1       592-9.27618E+04-2.99296E+04-8.50049E+03-5.33711E+04-1.05501E-10-8.01379E-10
 -1       593-9.28071E+04-2.55618E+04-3.60655E+03-5.10773E+04 7.17296E-09 2.13149E-08
 -1       594-9.09112E+04-2.75832E+04-1.76420E+03-5.36939E+04-6.30848E-10-1.06665E-09
 -1       595-9.28915E+04-2.53208E+04-8.12540E+02-5.12106E+04-9.20863E-11 4.41446E-10
 -1       596-9.07718E+04-2.74896E+04-4.12959E+02-5.36835E+04 1.07889E-10-1.37720E-09
 -1       597-9.29078E+04-2.53323E+04-2.26607E+02-5.12118E+04 3.64366E-11-4.20187E-10
 -1       598-9.07580E+04-2.74907E+04-1.84617E+02-5.36777E+04-3.34893E-10-1.58434E-09
 -1       599-9.29061E+04-2.53324E+04-2.38485E+02-5.12111E+04-2.64890E-11-1.18916E-10
 -1       600-9.07713E+04-2.74906E+04-4.44466E+02-5.36822E+04-2.84672E-10-7.63293E-10
 -1       601-9.28848E+04-2.53209E+04-8.79233E+02-5.12082E+04-1.31990E-09 6.07088E-10
 -1       602-9.09216E+04-2.75917E+04-1.91223E+03-5.36898E+04-3.78145E-09-7.36782E-09
 -1       603-9.27903E+04-2.55854E+04-3.90999E+03-5.10640E+04-1.49248E-09 6.12545E-10
 -1       604-9.29396E+04-3.01215E+04-9.21568E+03-5.33214E+04-1.03296E-09 1.85696E-09
 -1       605-9.22259E+04-3.25945E+04-1.87995E+04-4.78858E+04-7.41238E-11 1.77442E-09
 -1       606 6.39955E+04-7.84695E+03-1.20179E+04 1.88285E+04-3.93447E-09 2.44518E-09
 -1       607 6.21268E+04-2.67518E+03-5.90172E+03 2.05601E+04-1.05683E-09 1.73202E-09
 -1       608 6.32192E+04-5.96043E+02-2.62589E+03 1.87010E+04 2.50475E-09 9.25866E-10
 -1       609 6.29713E+04-1.73023E+02-1.31640E+03 2.07003E+04-1.01318E-09 4.78622E-10
 -1       610 6.31150E+04-1.06299E+00-6.21308E+02 1.86847E+04-4.08727E-09-1.43086E-09
 -1       611 6.30665E+04 2.29002E+01-3.12960E+02 2.07180E+04-7.56700E-09-1.57456E-09
 -1       612 6.30918E+04 3.06182E+01-1.49009E+02 1.86828E+04-2.74940E-09-3.26963E-10
 -1       613 6.30735E+04 3.22842E+01-6.93598E+01 2.07203E+04-4.63137E-09 3.91537E-10
 -1       614 6.30816E+04 2.91575E+01-2.19035E+01 1.86824E+04-4.32919E-10 5.54110E-10
 -1       615 6.30710E+04 3.36523E+01 1.44049E+01 2.07206E+04 5.04633E-09 1.53454E-09
 -1       616 6.30740E+04 3.27822E+01 5.70168E+01 1.86826E+04 8.94852E-09 6.05496E-10
 -1       617 6.30780E+04 5.55948E+01 1.36316E+02 2.07199E+04 2.10342E-08-9.30413E-10
 -1       618 6.30603E+04 9.72658E+01 2.78910E+02 1.86829E+04 9.35165E-09 4.98176E-10
 -1       619 6.31671E+04 3.24265E+02 6.31168E+02 2.07173E+04-1.06706E-09-1.36879E-09
 -1       620 6.29766E+04 8.74510E+02 1.28692E+03 1.86842E+04 6.09930E-10-8.47194E-10
 -1       621 1.58858E+03 2.06715E+05 3.86450E+03-1.95742E+04 1.78500E-09-1.19644E-09
 -1       622 6.06595E+02 2.07444E+05 3.15558E+03-2.29946E+04 4.48608E-10 6.49152E-10
 -1       623 3.52713E+02 2.06880E+05 3.83266E+03-1.95937E+04 1.53454E-09 6.71207E-10
 -1       624 2.17234E+03 2.08371E+05 7.33570E+03-2.28979E+04 6.93944E-10 2.71029E-09
 -1       625 6.67173E+03 2.05807E+05 1.40040E+04-1.96696E+04 1.38652E-09-1.02864E-09
 -1       626 9.01724E+04 2.96316E+04-5.32413E+03 6.14976E+04-2.12458E-09 2.58296E-09
 -1       627 8.76736E+04 3.34225E+04-2.52591E+03 6.26604E+04-1.89038E-09 4.49336E-09
 -1       628 9.02895E+04 3.22448E+04-1.06138E+03 6.02211E+04-7.53971E-10 2.15118E-09
 -1       629 8.80690E+04 3.45023E+04-5.09493E+02 6.25679E+04 4.72937E-11-2.06559E-09
 -1       630 9.02785E+04 3.24240E+04-2.24890E+02 6.01171E+04 5.40240E-09 3.44477E-09
 -1       631 8.80959E+04 3.45818E+04-1.00811E+02 6.25676E+04-5.03860E-10-4.61239E-09
 -1       632 9.02669E+04 3.24304E+04-2.84922E+01 6.01073E+04-2.43654E-09-3.12218E-09
 -1       633 8.80961E+04 3.45860E+04 2.41533E+01 6.25680E+04-1.60344E-09-1.43700E-10
 -1       634 9.02583E+04 3.24258E+04 8.92092E+01 6.01054E+04 1.09094E-09-1.61435E-10
 -1       635 8.81061E+04 3.45885E+04 2.13055E+02 6.25700E+04-1.21071E-09 9.80890E-10
 -1       636 9.02482E+04 3.24352E+04 4.46841E+02 6.00982E+04-3.10467E-09-1.01477E-09
 -1       637 8.82122E+04 3.47086E+04 1.00010E+03 6.25517E+04-5.69318E-09-3.18596E-09
 -1       638 9.02240E+04 3.27980E+04 2.07346E+03 5.99397E+04-1.26340E-09-3.81988E-11
 -1       639 8.92676E+04 3.65505E+04 4.93423E+03 6.21015E+04-8.56232E-09-2.12049E-09
 -1       640 9.02689E+04 3.81240E+04 1.03998E+04 5.77245E+04-3.02339E-09 1.32786E-10
 -1       641 1.74545E+03 1.90827E+03-4.44035E+03-1.07249E+02-4.10975E-09-3.24690E-10
 -1       642-1.66440E+02-2.20929E+03-3.13381E+03 4.56708E+02-1.09452E-10-1.27551E-09
 -1       643 1.00624E+03 2.97367E+02-1.14518E+03-1.06304E+02-7.88759E-09-2.01675E-09
 -1       644 6.93241E+02-3.42800E+02-7.10177E+02 4.55461E+02 4.17058E-09 1.13275E-10
 -1       645 8.85487E+02 4.53671E+01-2.74679E+02-1.06006E+02-9.42565E-10 1.45862E-09
 -1       646 8.36061E+02-4.74837E+01-1.30773E+02 4.55014E+02-1.22250E-07-1.89942E-10
 -1       647 8.63280E+02 2.64354E+00-1.30572E+00-1.05858E+02-1.57566E-05 2.03025E-08
 -1       648 8.75695E+02 2.51006E+01 1.18649E+02 4.54860E+02-3.13113E-05 4.00311E-08
 -1       649 8.45807E+02-2.70905E+01 2.70678E+02-1.05852E+02-1.57586E-05 1.95144E-08
 -1       650 9.74945E+02 2.09307E+02 6.54904E+02 4.54865E+02-1.12974E-07-5.46549E-10
 -1       651 7.64080E+02-1.81332E+02 1.14204E+03-1.05864E+02-3.80828E-09-2.85189E-09
 -1       652 1.53630E+03 1.35146E+03 2.82116E+03 4.54646E+02 3.34384E-09 1.13567E-09
 -1       653 2.84618E+02-1.16740E+03 4.50235E+03-1.05635E+02-2.69452E-09-1.15938E-09
 -1       654 4.92540E+03 8.66643E+03 1.22986E+04 4.52408E+02 3.02178E-09-2.00976E-09
 -1       655-2.62439E+03-7.48297E+03 1.74030E+04-1.03637E+02 2.93920E-10-1.10595E-09
 -1       656 6.20522E+03-2.36336E+05-2.79255E+04 6.67428E+03 7.37964E-09 1.66187E-09
 -1       657-9.16821E+03-2.46514E+05-2.03387E+04 2.56299E+04 5.39671E-09 3.05027E-09
 -1       658 1.18882E+03-2.39963E+05-1.29204E+04 6.62446E+03 5.21062E-09 2.61048E-09
 -1       659-8.35003E+03-2.46043E+05-1.88955E+04 2.56608E+04 5.72891E-09 9.96820E-10
 -1       660 5.55697E+03-2.36824E+05-2.51921E+04 6.64382E+03 5.50062E-09-5.77188E-10
 -1       661 2.33155E+05 2.97449E+04 1.90899E+04 9.10888E+04-3.31056E-10-4.16458E-09
 -1       662 2.37634E+05 4.44509E+04 1.20486E+04 9.36912E+04-3.85330E-09 1.98133E-09
 -1       663 2.36443E+05 3.41015E+04 4.50806E+03 9.06208E+04-1.91363E-09 1.28171E-09
 -1       664 2.33853E+05 3.87920E+04 2.48286E+03 9.44995E+04-9.03762E-09 2.03318E-09
 -1       665 2.36813E+05 3.45764E+04 1.05724E+03 9.05894E+04-1.04869E-08-1.64300E-09
 -1       666 2.33428E+05 3.81904E+04 5.74598E+02 9.45544E+04-4.41077E-09-2.60127E-09
 -1       667 2.36855E+05 3.46312E+04 3.21152E+02 9.05915E+04 2.14763E-09-2.11561E-09
 -1       668 2.33388E+05 3.81348E+04 3.02410E+02 9.45537E+04-6.20889E-09-1.97488E-09
 -1       669 2.36851E+05 3.46277E+04 4.24475E+02 9.05912E+04 1.62235E-09-5.90092E-10
 -1       670 2.33463E+05 3.82298E+04 8.60923E+02 9.45536E+04 1.26893E-08 6.97071E-10
 -1       671 2.36782E+05 3.45430E+04 1.63657E+03 9.05896E+04 2.25651E-09-2.45325E-09
 -1       672 2.34135E+05 3.91677E+04 3.87646E+03 9.44620E+04 3.64901E-09-3.85398E-10
 -1       673 2.36198E+05 3.38030E+04 7.04952E+03 9.06418E+04 1.47390E-09-4.06499E-09
 -1       674 2.40054E+05 4.80198E+04 1.88505E+04 9.31927E+04-4.12456E-09 1.25510E-10
 -1       675 2.31052E+05 2.69874E+04 2.98695E+04 9.13736E+04-1.10958E-09-7.82165E-11
 -1       676 6.23402E+02-2.23497E+05-3.24705E+03 1.52722E+02 6.22146E-09 2.61379E-10
 -1       677-1.22984E+03-2.24737E+05-3.51945E+03 3.18664E+01 7.93513E-10 9.73680E-10
 -1       678 3.86827E+02-2.23645E+05-4.17633E+03 1.52399E+02 5.60954E-09 1.99561E-10
 -1       679-4.41127E+03-2.26628E+05-9.16279E+03 3.16685E+01 1.15153E-09-1.84558E-09
 -1       680 3.18653E+03-2.21607E+05-1.39214E+04 1.52392E+02 5.47698E-09 5.12809E-10
 -1       681 3.71798E+05-9.77248E+03 2.27084E+04 9.58320E+02-1.24928E-10-3.64707E-10
 -1       682 3.81758E+05 1.13141E+04 1.60779E+04-2.49879E+03-1.34612E-11 1.75078E-11
 -1       683 3.75639E+05-1.52350E+03 5.89045E+03 4.73352E+02-3.13563E-11 1.04592E-10
 -1       684 3.77278E+05 1.76430E+03 3.71850E+03-1.76277E+03-4.26610E-11 5.56497E-11
 -1       685 3.76277E+05-2.38077E+02 1.55163E+03 2.22298E+02 2.87610E-10-1.67120E-11
 -1       686 3.76539E+05 2.88019E+02 9.85127E+02-1.41986E+03-7.56009E-11 1.92244E-10
 -1       687 3.76378E+05-4.90182E+01 5.96765E+02 1.30435E+02 5.29594E-11-4.37844E-10
 -1       688 3.76463E+05 1.39259E+02 6.89151E+02-1.36961E+03-4.60076E-12-6.00728E-11
 -1       689 3.76352E+05-8.94762E+01 9.67811E+02 1.72052E+02 1.09850E-10-1.53676E-10
 -1       690 3.76738E+05 6.37532E+02 2.05932E+03-1.59793E+03 4.52905E-10 7.07360E-10
 -1       691 3.76104E+05-5.47002E+02 3.48438E+03 3.58758E+02 2.23913E-10 2.68301E-10
 -1       692 3.78458E+05 4.07417E+03 8.54406E+03-2.16890E+03 8.47862E-10-2.31921E-10
 -1       693 3.74632E+05-3.52174E+03 1.35952E+04 7.43030E+02-3.72836E-10-6.44832E-10
 -1       694 3.88796E+05 2.61558E+04 3.71568E+04-3.26228E+03-8.47763E-10-1.26738E-09
 -1       695 3.65769E+05-2.25912E+04 5.25111E+04 1.45209E+03 2.32774E-11-1.39335E-09
 -1       696-7.82749E+03 3.23775E+05 1.79375E+04 2.22418E+02 4.63842E-11-1.70040E-10
 -1       697 8.48558E+03 3.31342E+05 1.16049E+04-2.61328E+03 7.82165E-11 2.29437E-10
 -1       698-6.38967E+02 3.27105E+05 2.43614E+03 1.62973E+02-1.57797E-10 1.35305E-09
 -1       699-2.99220E+03 3.26035E+05-3.39891E+03-2.70825E+03-2.07592E-10 1.85454E-09
 -1       700 3.62886E+03 3.29085E+05-7.91418E+03 3.17375E+02-1.36879E-10 7.37906E-10
 -1       701-3.40819E+05-3.14082E+04-4.36307E+04-1.35955E+05-4.76575E-10-6.14818E-10
 -1       702-3.64838E+05-7.03013E+04-3.02625E+04-1.27210E+05-3.48336E-10-4.57931E-10
 -1       703-3.49792E+05-4.69744E+04-1.02331E+04-1.32924E+05-2.17824E-10 5.66615E-10
 -1       704-3.54248E+05-5.24286E+04-6.38447E+03-1.30880E+05-7.37799E-10-4.44743E-10
 -1       705-3.51403E+05-4.92548E+04-2.39902E+03-1.32293E+05 4.06430E-12 4.14957E-11
 -1       706-3.52192E+05-4.99857E+04-1.42439E+03-1.31820E+05-4.34852E-12-5.04656E-10
 -1       707-3.51846E+05-4.94136E+04-6.68240E+02-1.31984E+05-5.05240E-12 1.93808E-10
 -1       708-3.51556E+05-5.00222E+04-5.80234E+02-1.32357E+05 4.48726E-10 1.47582E-10
 -1       709-3.52038E+05-4.92176E+04-6.53542E+02-1.31757E+05 1.49939E-10-7.81128E-10
 -1       710-3.51476E+05-5.06973E+04-1.38742E+03-1.32660E+05 1.15670E-09 7.82734E-11
 -1       711-3.51927E+05-4.87385E+04-2.32187E+03-1.31682E+05 3.27589E-10 6.98719E-10
 -1       712-3.52975E+05-5.35526E+04-6.18687E+03-1.32311E+05-6.07827E-10 6.50516E-10
 -1       713-3.50542E+05-4.63659E+04-9.90812E+03-1.32105E+05-5.58884E-10-1.30967E-10
 -1       714-3.63081E+05-7.09836E+04-2.93025E+04-1.28897E+05 1.18803E-10-3.71529E-10
 -1       715-3.41828E+05-3.13338E+04-4.22499E+04-1.35087E+05-2.06455E-10 1.34605E-10
 -1       716 7.75208E+04-1.14514E+04 2.65519E+04 9.20963E+02 1.20960E-09-4.89308E-10
 -1       717 8.95333E+04 1.32532E+04 1.88591E+04-3.24431E+03 3.56479E-11 6.36192E-10
 -1       718 8.20741E+04-1.78568E+03 6.88402E+03 7.06923E+02 1.76868E-10 4.54747E-10
 -1       719 8.41826E+04 2.06720E+03 4.37907E+03-2.90129E+03-3.62938E-10-3.27134E-10
 -1       720 8.28617E+04-2.79565E+02 1.82993E+03 5.77961E+02 1.37213E-09 5.84578E-10
 -1       721 8.32526E+04 3.43877E+02 1.19869E+03-2.70975E+03 1.28977E-08 1.51999E-10
 -1       722 8.29993E+04-6.17776E+01 7.75295E+02 5.15380E+02 1.54764E-06 2.99422E-09
 -1       723 8.31559E+04 1.99786E+02 9.76781E+02-2.64640E+03 3.07142E-06 4.29541E-09
 -1       724 8.29568E+04-1.34623E+02 1.44182E+03 5.14606E+02 1.54744E-06 3.04226E-09
 -1       725 8.35912E+04 9.73068E+02 3.12348E+03-2.70665E+03 1.16612E-08 1.30063E-09
 -1       726 8.25654E+04-8.34952E+02 5.30152E+03 5.75634E+02 4.91511E-10 2.92403E-10
 -1       727 8.62444E+04 6.21809E+03 1.30307E+04-2.89665E+03 9.39728E-10 3.12866E-10
 -1       728 8.03085E+04-5.37411E+03 2.07229E+04 7.04611E+02 1.29197E-09-5.75710E-10
 -1       729 1.02001E+05 3.98974E+04 5.66687E+04-3.26512E+03 9.90532E-10-4.87489E-10
 -1       730 6.68252E+04-3.44566E+04 8.00912E+04 9.44025E+02 1.70400E-09-7.93079E-10
 -1       731-1.36582E+04 1.34458E+05 3.18387E+04-6.65983E+01-5.87534E-10-2.87145E-10
 -1       732 1.60308E+04 1.48391E+05 2.28585E+04-9.22343E+02 1.67574E-10-9.03704E-11
 -1       733-2.34334E+03 1.39652E+05 8.92100E+03 1.01174E+02-4.59295E-10 4.55998E-10
 -1       734 4.07527E+03 1.42888E+05 7.23337E+03-1.28776E+03 1.54614E-10 1.02478E-09
 -1       735-1.72621E+03 1.39963E+05 4.89833E+03 2.98782E+02-2.80011E-10 2.99337E-10
 -1       736-7.71880E+05-8.78101E+04-5.70309E+04-3.01171E+05-1.28966E-09 4.03816E-10
 -1       737-8.02959E+05-1.37839E+05-3.93799E+04-2.88779E+05 6.73708E-10 5.68434E-11
 -1       738-7.85735E+05-1.06041E+05-1.34287E+04-2.94823E+05-7.59428E-11-9.41327E-10
 -1       739-7.85806E+05-1.18098E+05-8.25389E+03-2.97725E+05 1.55509E-09-7.27596E-10
 -1       740-7.89023E+05-1.07506E+05-3.13609E+03-2.92239E+05 1.65107E-09 1.30763E-09
 -1       741-7.82168E+05-1.16226E+05-1.84477E+03-3.00516E+05 3.81874E-10 3.94570E-09
 -1       742-7.89383E+05-1.07898E+05-8.61772E+02-2.92043E+05 5.49875E-10-8.62997E-10
 -1       743-7.83079E+05-1.14236E+05-6.66616E+02-2.98846E+05-1.48776E-09 1.05823E-09
 -1       744-7.88103E+05-1.09506E+05-8.67080E+02-2.93900E+05-2.80784E-09-1.55461E-09
 -1       745-7.86822E+05-1.10891E+05-1.56196E+03-2.94405E+05-2.01858E-10 6.71889E-10
 -1       746-7.85628E+05-1.11252E+05-2.87512E+03-2.96476E+05-1.08055E-09-2.06057E-09
 -1       747-7.92676E+05-1.10626E+05-7.43060E+03-2.89763E+05 1.57172E-09-1.07661E-09
 -1       748-7.82262E+05-1.09763E+05-1.20018E+04-2.98551E+05 1.50612E-09 1.68347E-09
 -1       749-8.06176E+05-1.30711E+05-3.54738E+04-2.84495E+05 7.37600E-10 3.55249E-09
 -1       750-7.72155E+05-9.11927E+04-5.11982E+04-3.01744E+05 8.82210E-11 2.72848E-09
 -1       751 1.79922E+06-1.01361E+05 2.36134E+05 4.46952E+03-1.32565E-08 7.85803E-10
 -1       752 1.90156E+06 1.17400E+05 1.66811E+05-6.03582E+03-2.98911E-09-1.26602E-09
 -1       753 1.83879E+06-1.58082E+04 6.11768E+04 1.23992E+03 2.27921E-10-4.07454E-10
 -1       754 1.85557E+06 1.83000E+04 3.84058E+04-1.86384E+03 1.46754E-09 2.29966E-09
 -1       755 1.84529E+06-2.46079E+03 1.57564E+04 2.98055E+02-7.07853E-10-6.27551E-10
 -1       756 1.84804E+06 2.88469E+03 9.40621E+03-6.44507E+02-4.89404E-11-9.64064E-11
 -1       757 1.84636E+06-4.19920E+02 4.64063E+03 2.05907E+01-6.91323E-10-2.48519E-10
 -1       758 1.84692E+06 7.50249E+02 3.72137E+03-2.99549E+02-2.94941E-10 1.05733E-09
 -1       759 1.84641E+06-3.29600E+02 3.80996E+03-4.69090E+01-6.31859E-10-2.04295E-10
 -1       760 1.84762E+06 2.10439E+03 7.00870E+03-2.64755E+02-5.20246E-10 3.58909E-10
 -1       761 1.84566E+06-1.77191E+03 1.14326E+04-1.42041E+01 1.31620E-09-6.35737E-10
 -1       762 1.85300E+06 1.31487E+04 2.76370E+04-4.83973E+02 2.61625E-09-2.18279E-11
 -1       763 1.84100E+06-1.13544E+04 4.39536E+04 1.72312E+02 2.99125E-09 1.28603E-09
 -1       764 1.88590E+06 8.42940E+04 1.19760E+05-1.32688E+03 2.71150E-10 1.31695E-09
 -1       765 1.81268E+06-7.27757E+04 1.69529E+05 8.28638E+02-1.30712E-09-3.12866E-09
 -1       766-4.37311E+04 2.94653E+05 1.03187E+05-2.09962E+03-2.82307E-09-2.71484E-10
 -1       767 5.40976E+04 3.40676E+05 7.90733E+04 6.59918E+03-6.23004E-10 4.38060E-10
 -1       768-1.02724E+04 3.10085E+05 3.91956E+04-1.65151E+03-1.40562E-09-2.71495E-10
 -1       769 3.40988E+04 3.31347E+05 5.29192E+04 6.35899E+03 2.72394E-10 6.18721E-10
 -1       770-2.37693E+04 3.03974E+05 5.81447E+04-1.85950E+03-2.44836E-09 2.32011E-09
 -1       771-9.96311E+05-2.02039E+05-3.57592E+04-4.31248E+05-1.63709E-10-1.96451E-10
 -1       772-9.93924E+05-2.00902E+05-1.75112E+04-4.45680E+05-1.42609E-09-6.68024E-10
 -1       773-9.97706E+05-1.88459E+05-7.44687E+03-4.37122E+05-6.36646E-10-3.74712E-10
 -1       774-9.89994E+05-1.96302E+05-3.63353E+03-4.46783E+05 7.83984E-10-1.55160E-09
 -1       775-9.98034E+05-1.87854E+05-1.68174E+03-4.37435E+05-3.81988E-11-3.01952E-10
 -1       776-9.89792E+05-1.96103E+05-8.47326E+02-4.46907E+05 7.08496E-10-1.44655E-09
 -1       777-9.98183E+05-1.87811E+05-4.63587E+02-4.37489E+05 4.72937E-11-8.47422E-10
 -1       778-9.89839E+05-1.96080E+05-3.59564E+02-4.46985E+05-6.25732E-10-7.12191E-10
 -1       779-9.98261E+05-1.87765E+05-4.53444E+02-4.37526E+05-6.00267E-11-2.17369E-10
 -1       780-9.89920E+05-1.96063E+05-8.28275E+02-4.47053E+05 8.41283E-11 1.19599E-10
 -1       781-9.98269E+05-1.87714E+05-1.63594E+03-4.37543E+05 5.25688E-10 1.49612E-10
 -1       782-9.90228E+05-1.96245E+05-3.55623E+03-4.47100E+05-6.18456E-11 2.86491E-11
 -1       783-9.98112E+05-1.88194E+05-7.27426E+03-4.37282E+05-5.95492E-10-6.53017E-10
 -1       784-9.93972E+05-2.00976E+05-1.71555E+04-4.46439E+05 5.09317E-11-4.18368E-11
 -1       785-9.97072E+05-2.01233E+05-3.50028E+04-4.31346E+05 6.85532E-11 8.18545E-11
 -1       786 1.92202E+05-5.63528E+03 2.44635E+04-1.36559E+03 2.23736E-10-7.43057E-10
 -1       787 2.01012E+05 7.67237E+03 1.56640E+04-5.42553E+03-4.53383E-10 1.14369E-10
 -1       788 1.95889E+05-5.79700E+02 6.33944E+03-1.36013E+03 4.34284E-11 2.00998E-10
 -1       789 1.96904E+05 7.54556E+02 3.53834E+03-5.42584E+03 2.15095E-10-6.44206E-10
 -1       790 1.96307E+05-6.27286E+01 1.61105E+03-1.36489E+03-3.80851E-12 8.65839E-10
 -1       791 1.96431E+05 7.31949E+01 8.65206E+02-5.41880E+03 5.33305E-10 2.25064E-09
 -1       792 1.96360E+05-7.95237E+00 4.45735E+02-1.36716E+03-5.37170E-11 4.00263E-10
 -1       793 1.96373E+05 9.65790E+00 3.00215E+02-5.41724E+03 5.55076E-11 1.19087E-11
 -1       794 1.96365E+05-4.61289E+00 2.83659E+02-1.36646E+03-7.11111E-11-7.91893E-10
 -1       795 1.96393E+05 3.35868E+01 4.38335E+02-5.42186E+03 2.90584E-10 2.62782E-10
 -1       796 1.96342E+05-2.94898E+01 7.61081E+02-1.36253E+03-2.63185E-10-1.27639E-09
 -1       797 1.96610E+05 3.46222E+02 1.63902E+03-5.43141E+03-7.31006E-11-2.03187E-10
 -1       798 1.96150E+05-2.67942E+02 2.92311E+03-1.35691E+03-3.38673E-10 1.58138E-09
 -1       799 1.98504E+05 3.53043E+03 7.21422E+03-5.43142E+03-9.67873E-10 4.21778E-10
 -1       800 1.94453E+05-2.59649E+03 1.12627E+04-1.36273E+03 1.13573E-10-7.62157E-10
 -1       801-6.89154E+03 1.94488E+05 2.80952E+04-1.50826E+05 7.27596E-10-8.36735E-11
 -1       802 1.50026E+04 2.03430E+05 2.88731E+04-5.89931E+05-3.83807E-09-3.89991E-09
 -1       803-1.40598E+03 1.95231E+05 3.04508E+04-1.50405E+05 1.52977E-09 1.04870E-09
 -1       804 3.46189E+04 2.15378E+05 6.38322E+04-5.89899E+05-5.31509E-09-4.91946E-09
 -1       805-2.28934E+04 1.82870E+05 9.41814E+04-1.50864E+05 1.79352E-09 1.01500E-09
 -1       806-1.87212E+05-4.99524E+04-1.59563E+04-8.63799E+04 5.48766E-10 9.00400E-10
 -1       807-1.87286E+05-4.59239E+04-7.57031E+03-9.12609E+04-6.83258E-11-1.13232E-09
 -1       808-1.87128E+05-4.18031E+04-3.18312E+03-8.98159E+04-2.19643E-10 3.41970E-10
 -1       809-1.85710E+05-4.30607E+04-1.53837E+03-9.19214E+04 5.07612E-10 1.03535E-09
 -1       810-1.87167E+05-4.12454E+04-6.95724E+02-9.00664E+04 6.50516E-10-1.40290E-09
 -1       811-1.85555E+05-4.28708E+04-3.49035E+02-9.19483E+04 1.28358E-09 3.14458E-10
 -1       812-1.87180E+05-4.12288E+04-1.83262E+02-9.00781E+04 2.09496E-09 5.74346E-10
 -1       813-1.85539E+05-4.28655E+04-1.36674E+02-9.19444E+04 1.63254E-09 1.64846E-10
 -1       814-1.87179E+05-4.12308E+04-1.60863E+02-9.00770E+04 9.70442E-09-4.43515E-09
 -1       815-1.85549E+05-4.28718E+04-2.89599E+02-9.19443E+04 1.76842E-08-9.87575E-09
 -1       816-1.87165E+05-4.12467E+04-5.67809E+02-9.00657E+04 1.59678E-08-4.58249E-09
 -1       817-1.85675E+05-4.30240E+04-1.25131E+03-9.19156E+04 1.53987E-08-1.02395E-08
 -1       818-1.87127E+05-4.17056E+04-2.58689E+03-8.98641E+04 1.00254E-08-5.00495E-09
 -1       819-1.86982E+05-4.53210E+04-6.15056E+03-9.13419E+04 9.12678E-10-5.60249E-10
 -1       820-1.87164E+05-4.83513E+04-1.29628E+04-8.71001E+04 9.65883E-10-1.53591E-10
 -1       821-1.89571E+05 5.64098E+03-2.44989E+04 1.42408E+03-2.42198E-09 2.53749E-10
 -1       822-1.98386E+05-7.68401E+03-1.56869E+04 5.75797E+03-1.93097E-09 2.60115E-10
 -1       823-1.93265E+05 5.78964E+02-6.35090E+03 1.38767E+03-7.37145E-10 3.35604E-10
 -1       824-1.94281E+05-7.51153E+02-3.54659E+03 5.80626E+03-3.71142E-09-8.59416E-10
 -1       825-1.93684E+05 6.31906E+01-1.62182E+03 1.37538E+03-6.50641E-09 6.46310E-10
 -1       826-1.93814E+05-6.61745E+01-8.83007E+02 5.82615E+03-7.53835E-09-1.38375E-09
 -1       827-1.93738E+05 9.91014E+00-4.80005E+02 1.36769E+03-3.84910E-09-1.88550E-10
 -1       828-1.93762E+05-3.29527E+00-3.69923E+02 5.83836E+03-4.33712E-09 5.05338E-10
 -1       829-1.93740E+05 9.19996E+00-4.19318E+02 1.36315E+03-9.19329E-10-4.80433E-11
 -1       830-1.93803E+05-4.97379E+01-7.23799E+02 5.84366E+03 2.35737E-09-1.34129E-09
 -1       831-1.93698E+05 5.23827E+01-1.30398E+03 1.36239E+03-2.88671E-09-1.09026E-10
 -1       832-1.94179E+05-5.95399E+02-2.83780E+03 5.84128E+03-1.36394E-09-1.61987E-09
 -1       833-1.93364E+05 4.65185E+02-5.07462E+03 1.36561E+03-1.12493E-10-2.92630E-09
 -1       834-1.97461E+05-6.13260E+03-1.25325E+04 5.82176E+03 4.42469E-10-2.83762E-09
 -1       835-1.90414E+05 4.50967E+03-1.95699E+04 1.38264E+03 1.75942E-09-1.57888E-09
 -1       836-9.01698E+03 4.88372E+05 4.12790E+04-1.32945E+04-7.09406E-10-4.23825E-10
 -1       837 1.38538E+04 5.03534E+05 3.20877E+04-5.13147E+04 2.26566E-09 9.68612E-10
 -1       838-2.18036E+03 4.93240E+05 2.37721E+04-1.32810E+04-1.03978E-09 1.90045E-09
 -1       839 1.83605E+04 5.06207E+05 4.00825E+04-5.13108E+04 2.33604E-09-2.55454E-10
 -1       840-1.26421E+04 4.85692E+05 5.64090E+04-1.32981E+04-7.42148E-10 3.44244E-10
 -1       841-2.27294E+04 8.07110E+01-8.53120E+03-1.00513E+04-2.20894E-09 1.06547E-09
 -1       842-2.74207E+04-7.52067E+03-5.91427E+03-8.34164E+03-1.03404E-09-8.50434E-10
 -1       843-2.44597E+04-2.98339E+03-1.99906E+03-9.48350E+03 1.59395E-09 1.50396E-09
 -1       844-2.54156E+04-3.96749E+03-1.24362E+03-8.99223E+03 2.96319E-09-2.10719E-10
 -1       845-2.47338E+04-3.46716E+03-4.58965E+02-9.40279E+03-5.17858E-10 1.52869E-09
 -1       846-2.50991E+04-3.40319E+03-2.57103E+02-9.08218E+03-3.25314E-09-2.52401E-09
 -1       847-2.47762E+04-3.54687E+03-8.70850E+01-9.39389E+03-3.98033E-09 6.76962E-10
 -1       848-2.50450E+04-3.30077E+03-1.18207E+01-9.09246E+03-3.40232E-08 9.59196E-09
 -1       849-2.47880E+04-3.56943E+03 6.05118E+01-9.39259E+03-4.88561E-06 1.84055E-06
 -1       850-2.49948E+04-3.21714E+03 2.00394E+02-9.10449E+03-9.71697E-06 3.65621E-06
 -1       851-2.48263E+04-3.63039E+03 3.63560E+02-9.38192E+03-4.89027E-06 1.83840E-06
 -1       852-2.47294E+04-2.77613E+03 9.90826E+02-9.18655E+03-3.33995E-08 8.47103E-09
 -1       853-2.50532E+04-4.00983E+03 1.59209E+03-9.31073E+03-4.34284E-10 3.06045E-10
 -1       854-2.31110E+04 3.95750E+01 4.71471E+03-9.72310E+03 1.88163E-09 2.51725E-09
 -1       855-2.64440E+04-6.44190E+03 6.79821E+03-8.84686E+03-5.69571E-10 1.42836E-09
 -1       856-2.23896E+05 5.22122E+03-2.26938E+04 2.88631E+03-2.48974E-09 2.81034E-10
 -1       857-2.32056E+05-7.10209E+03-1.45273E+04 1.17867E+04-2.58444E-09-2.40789E-10
 -1       858-2.27321E+05 5.37638E+02-5.88258E+03 2.82453E+03-2.22190E-09 2.36696E-10
 -1       859-2.28267E+05-6.76079E+02-3.28220E+03 1.18697E+04 5.50790E-09-3.95062E-09
 -1       860-2.27710E+05 6.29245E+01-1.49841E+03 2.80245E+03 2.44586E-09-1.09492E-09
 -1       861-2.27843E+05-3.82431E+01-8.09334E+02 1.19022E+04-3.22302E-09-2.34536E-09
 -1       862-2.27761E+05 1.49403E+01-4.28220E+02 2.79188E+03 6.49305E-09-9.27088E-10
 -1       863-2.27796E+05 2.21822E+01-3.09105E+02 1.19152E+04 1.47631E-08-3.15057E-09
 -1       864-2.27765E+05 1.32802E+01-3.23308E+02 2.78944E+03 8.39067E-09-2.27078E-09
 -1       865-2.27821E+05-1.10969E+01-5.33582E+02 1.19114E+04 5.39487E-09-3.40488E-09
 -1       866-2.27734E+05 4.29183E+01-9.48580E+02 2.79568E+03-3.79862E-09 2.35559E-10
 -1       867-2.28084E+05-4.08974E+02-2.05476E+03 1.18893E+04-5.10408E-09-1.65116E-10
 -1       868-2.27491E+05 3.38468E+02-3.67350E+03 2.81161E+03 4.41787E-10 1.04342E-09
 -1       869-2.30445E+05-4.41927E+03-9.06505E+03 1.18215E+04-1.34378E-10-1.70098E-09
 -1       870-2.25354E+05 3.25910E+03-1.41601E+04 2.86417E+03 3.87308E-09-1.56160E-09
 -1       871-2.08091E+03-1.98786E+04-3.77944E+03 5.69464E+04 3.11957E-09-7.28960E-10
 -1       872-6.64040E+02-2.05496E+04-1.09198E+03 6.65813E+04 2.38697E-09 4.10182E-10
 -1       873 3.85320E+01-2.03005E+04 1.13974E+03 5.68374E+04 1.95428E-09 1.95814E-09
 -1       874 1.33380E+03-1.93941E+04 4.21222E+03 6.66314E+04 3.12639E-09 1.20508E-11
 -1       875 4.38854E+03-2.10647E+04 9.08803E+03 5.69018E+04 2.32876E-09 1.10322E-09
 -1       876 2.66292E+05 3.34262E+04 2.52316E+04 1.04698E+05 4.12251E-09 5.27507E-10
 -1       877 2.72018E+05 5.30722E+04 1.59256E+04 1.08377E+05 5.37540E-10 2.32831E-10
 -1       878 2.70635E+05 3.91896E+04 5.95667E+03 1.04083E+05-1.82695E-10-1.59707E-09
 -1       879 2.67025E+05 4.55845E+04 3.27931E+03 1.09433E+05-9.12337E-09-4.14616E-09
 -1       880 2.71119E+05 3.98234E+04 1.39126E+03 1.04046E+05-5.77666E-09-2.74861E-09
 -1       881 2.66469E+05 4.47806E+04 7.47045E+02 1.09493E+05-6.60361E-09-4.19961E-09
 -1       882 2.71170E+05 3.99011E+04 3.98726E+02 1.04054E+05 2.49543E-09-5.63304E-10
 -1       883 2.66418E+05 4.46971E+04 3.43403E+02 1.09482E+05-4.77941E-09 1.09060E-09
 -1       884 2.71164E+05 3.99029E+04 4.48027E+02 1.04057E+05-3.72953E-09-1.08255E-09
 -1       885 2.66495E+05 4.47881E+04 8.83176E+02 1.09477E+05 6.53846E-09-1.13783E-09
 -1       886 2.71094E+05 3.98177E+04 1.66735E+03 1.04056E+05 4.50254E-09 3.91196E-10
 -1       887 2.67178E+05 4.57417E+04 3.94214E+03 1.09385E+05 7.49054E-10-2.66959E-09
 -1       888 2.70502E+05 3.90637E+04 7.16622E+03 1.04107E+05 1.42391E-09-1.15506E-09
 -1       889 2.73193E+05 5.47414E+04 1.91610E+04 1.08100E+05-4.42947E-09-1.11390E-09
 -1       890 2.65273E+05 3.21338E+04 3.03598E+04 1.04850E+05-1.13687E-09-1.16052E-09
 -1       891 9.61839E+02-1.18760E+05-4.59613E+03 1.28598E+04 6.31758E-09-2.68301E-11
 -1       892-1.60977E+03-1.20402E+05-3.69701E+03 5.02259E+04-2.52373E-09 9.43828E-10
 -1       893 2.60695E+02-1.19280E+05-2.94980E+03 1.28038E+04 3.38014E-09 1.14882E-09
 -1       894-2.49155E+03-1.20921E+05-5.25839E+03 5.02216E+04 2.27374E-10-8.36962E-10
 -1       895 1.66836E+03-1.18236E+05-7.55091E+03 1.28639E+04 6.68479E-09-3.45153E-10
 -1       896 5.30594E+05-4.00007E+03 9.29976E+03 7.29334E+02-8.87752E-11-1.71985E-09
 -1       897 5.34622E+05 4.63127E+03 6.58308E+03-1.27551E+03 7.19536E-10-8.59018E-10
 -1       898 5.32163E+05-6.23679E+02 2.41673E+03 3.64994E+02 5.27763E-10-7.65567E-10
 -1       899 5.32796E+05 7.22723E+02 1.53109E+03-7.16839E+02 3.76049E-10-2.31239E-10
 -1       900 5.32421E+05-9.80916E+01 6.52584E+02 1.70657E+02 2.82316E-10-2.41130E-10
 -1       901 5.32499E+05 1.22368E+02 4.40135E+02-4.19777E+02-4.44774E-10-2.88125E-11
 -1       902 5.32460E+05-2.41738E+01 3.12972E+02 6.79272E+01-4.20963E-10 1.54469E-10
 -1       903 5.32483E+05 8.74938E+01 4.33147E+02-2.65055E+02-4.33895E-10 7.01661E-12
 -1       904 5.32437E+05-6.32375E+01 6.70323E+02 1.59322E+01-4.00859E-10 2.15977E-10
 -1       905 5.32679E+05 4.59656E+02 1.47172E+03-1.91271E+02-7.18672E-09 1.54358E-10
 -1       906 5.32263E+05-3.95773E+02 2.51356E+03-5.85848E+00-9.00063E-07 2.67164E-11
 -1       907 5.33894E+05 2.94691E+03 6.16662E+03-1.69228E+02-1.78815E-06 8.18545E-12
 -1       908 5.31220E+05-2.54624E+03 9.83332E+03-6.11022E+00-9.00119E-07 3.80624E-10
 -1       909 5.41276E+05 1.89041E+04 2.68360E+04-1.90184E+02-6.16124E-09-1.18689E-10
 -1       910 5.24875E+05-1.63230E+04 3.79802E+04 1.50994E+01 5.48567E-10-1.38243E-10
 -1       911 1.55381E+05-2.03174E+03 4.72045E+03 2.75038E+02-1.91349E-10 6.01858E-10
 -1       912 1.57446E+05 2.35312E+03 3.34550E+03-1.24061E+03-2.92108E-10 9.91804E-10
 -1       913 1.56180E+05-3.17029E+02 1.23118E+03 1.78913E+02-1.76001E-10 1.33906E-09
 -1       914 1.56515E+05 3.68883E+02 7.88095E+02-1.09751E+03-9.98703E-11 1.87903E-09
 -1       915 1.56313E+05-5.05694E+01 3.51892E+02 1.31939E+02 1.05937E-09 1.94416E-09
 -1       916 1.56365E+05 6.86235E+01 2.67397E+02-1.04743E+03 1.77942E-09 1.71628E-09
 -1       917 1.56329E+05-1.71034E+01 2.41747E+02 1.28833E+02 1.15026E-09 1.86393E-09
 -1       918 1.56380E+05 8.18834E+01 4.02575E+02-1.08466E+03-8.41673E-11 1.53520E-09
 -1       919 1.56298E+05-6.39917E+01 6.70319E+02 1.69163E+02 5.92067E-10 1.59594E-09
 -1       920 1.56600E+05 4.72999E+02 1.51009E+03-1.21342E+03 1.16241E-10 5.49448E-10
 -1       921 1.56109E+05-4.08175E+02 2.58528E+03 2.57597E+02-2.81659E-11 6.94854E-10
 -1       922 1.57884E+05 3.04065E+03 6.36767E+03-1.44907E+03 3.59588E-10 2.83308E-10
 -1       923 1.55015E+05-2.62833E+03 1.01378E+04 4.04817E+02 3.70903E-11-6.78938E-10
 -1       924 1.65563E+05 1.95140E+04 2.77119E+04-1.82953E+03-8.39961E-10-1.17871E-09
 -1       925 1.48433E+05-1.68526E+04 3.91788E+04 6.38034E+02 5.08606E-11-2.12458E-09
 -1       926-6.76096E+05 1.50751E+04-3.50634E+04-1.88555E+03-3.31946E-07-2.24645E-09
 -1       927-6.91197E+05-1.74526E+04-2.47702E+04 3.47948E+03-6.64407E-07-3.36149E-09
 -1       928-6.81935E+05 2.35097E+03-9.06792E+03-2.02875E+03-3.32402E-07-3.73029E-09
 -1       929-6.84332E+05-2.71437E+03-5.66678E+03 2.93376E+03 5.07782E-10-4.19789E-09
 -1       930-6.82952E+05 3.61058E+02-2.30718E+03-1.33985E+03-1.84912E-10-3.32886E-09
 -1       931-6.83106E+05-4.12613E+02-1.27894E+03 1.02738E+03-3.36769E-10-1.47625E-09
 -1       932-6.83154E+05 4.76458E+01-5.47732E+02-1.22331E+02-4.88527E-10-1.11791E-09
 -1       933-6.82905E+05-3.62097E+01-1.72328E+02-1.39731E+03-7.40528E-10 7.93307E-10
 -1       934-6.83152E+05-1.47999E+01 5.78260E+01 1.08488E+03-9.14113E-10 1.72639E-09
 -1       935-6.82900E+05 1.49653E+02 4.27028E+02-3.26603E+03-2.30525E-10 2.51467E-09
 -1       936-6.83163E+05-1.32658E+02 8.16182E+02 1.74641E+03 6.34120E-10 3.15652E-09
 -1       937-6.82518E+05 1.00742E+03 2.08330E+03-3.74955E+03-1.00642E-09 2.66482E-09
 -1       938-6.83536E+05-8.69008E+02 3.33629E+03 1.56842E+03-9.90774E-10 2.24782E-09
 -1       939-6.79914E+05 6.45640E+03 9.16270E+03-2.63554E+03-4.02189E-10 1.63902E-09
 -1       940-6.85759E+05-5.57607E+03 1.29258E+04 6.32380E+02 1.31877E-10 1.46429E-09
 -1       941 2.88302E+06-1.43366E+05 3.34372E+05 3.21723E+02 1.39875E-08 2.75031E-09
 -1       942 3.02730E+06 1.66083E+05 2.36061E+05 5.71316E+02 1.91851E-08-1.67347E-10
 -1       943 2.93882E+06-2.23702E+04 8.66513E+04 4.11520E+02 8.84753E-07 2.65572E-09
 -1       944 2.96252E+06 2.59002E+04 5.44042E+04 4.62794E+02 1.75092E-06-1.82627E-09
 -1       945 2.94802E+06-3.48424E+03 2.23582E+04 4.30303E+02 1.41865E-06 3.99268E-10
 -1       946 2.95189E+06 4.09181E+03 1.33960E+04 4.38874E+02 1.07836E-06 4.30532E-09
 -1       947 2.94954E+06-6.01656E+02 6.70419E+03 4.35458E+02 1.58988E-06 1.68461E-09
 -1       948 2.95034E+06 1.11680E+03 5.54927E+03 4.26741E+02 2.10289E-06 6.36504E-10
 -1       949 2.94959E+06-5.13892E+02 5.89735E+03 4.42439E+02 1.05339E-06-4.91320E-09
 -1       950 2.95148E+06 3.33391E+03 1.10680E+04 3.89575E+02 5.96992E-09 3.22814E-09
 -1       951 2.94838E+06-2.81524E+03 1.81596E+04 4.72622E+02-3.24731E-10-5.01950E-09
 -1       952 2.96004E+06 2.09000E+04 4.39550E+04 2.12816E+02-1.12100E-09-1.77533E-09
 -1       953 2.94096E+06-1.80484E+04 6.99333E+04 6.19183E+02-8.29806E-09 5.05679E-10
 -1       954 3.01230E+06 1.33992E+05 1.90457E+05-6.62226E+02-4.37659E-09-2.84126E-09
 -1       955 2.89592E+06-1.15670E+05 2.69692E+05 1.34748E+03-1.33425E-08-1.16415E-09
 -1       956-1.52631E+05-2.64122E+03-5.51423E+03 2.13189E+04-2.97860E-09-2.60570E-10
 -1       957-1.53638E+05-8.35655E+02-2.78204E+03 2.47326E+04-1.09139E-11-1.68484E-10
 -1       958-1.53084E+05-9.49561E+01-1.25116E+03 2.11901E+04 2.25828E-09-1.12800E-09
 -1       959-1.53178E+05-8.06906E+00-6.36240E+02 2.48738E+04-2.10684E-09-1.36856E-09
 -1       960-1.53136E+05 2.85691E+01-3.08828E+02 2.11767E+04-3.51019E-09 2.61025E-10
 -1       961-1.53147E+05 3.34242E+01-1.62685E+02 2.48887E+04-7.22684E-09-1.26647E-10
 -1       962-1.53151E+05 3.14929E+01-9.13403E+01 2.11751E+04-2.91720E-09-9.64974E-10
 -1       963-1.53150E+05 3.69812E+01-7.00035E+01 2.48908E+04-3.67834E-09 1.13096E-09
 -1       964-1.53156E+05 3.43062E+01-8.10444E+01 2.11746E+04-3.91083E-10-4.34056E-10
 -1       965-1.53158E+05 3.96886E+01-1.36800E+02 2.48907E+04 4.41898E-09-1.84627E-10
 -1       966-1.53153E+05 3.72427E+01-2.55075E+02 2.11752E+04-1.70891E-09-9.46329E-10
 -1       967-1.53193E+05 1.09435E+01-5.24158E+02 2.48835E+04 7.10486E-10-1.21986E-09
 -1       968-1.53118E+05-5.94388E+01-1.02922E+03 2.11818E+04 7.51470E-10 1.97360E-10
 -1       969-1.53581E+05-6.65846E+02-2.28978E+03 2.48123E+04 9.63496E-10-2.24418E-10
 -1       970-1.52752E+05-2.15254E+03-4.53762E+03 2.12481E+04 1.29080E-09-3.25463E-09
 -1       971-3.11658E+05 4.33080E+03-1.88372E+04 2.85284E+03-3.38559E-09-1.21872E-10
 -1       972-3.18413E+05-5.89326E+03-1.20580E+04 1.18132E+04-2.82546E-09 1.41176E-09
 -1       973-3.14500E+05 4.45191E+02-4.88624E+03 2.77603E+03-3.44448E-09 5.50699E-10
 -1       974-3.15274E+05-5.58059E+02-2.73055E+03 1.19213E+04 2.66027E-09 2.63549E-09
 -1       975-3.14824E+05 5.24329E+01-1.25754E+03 2.74413E+03-1.03819E-09 8.87667E-10
 -1       976-3.14927E+05-2.74428E+01-6.99444E+02 1.19699E+04-5.98607E-09 3.20136E-09
 -1       977-3.14866E+05 1.38880E+01-4.10352E+02 2.72729E+03 6.16797E-09 1.05581E-09
 -1       978-3.14896E+05 2.01940E+01-3.69782E+02 1.19921E+04 1.38865E-08 1.02537E-09
 -1       979-3.14864E+05 1.64567E+01-4.88764E+02 2.72192E+03 9.75758E-09 1.48772E-09
 -1       980-3.14952E+05-4.38274E+01-9.07121E+02 1.19909E+04 9.80043E-09 1.40927E-09
 -1       981-3.14809E+05 7.14325E+01-1.66964E+03 2.72848E+03 3.36320E-09 1.03387E-09
 -1       982-3.15431E+05-7.51069E+02-3.65438E+03 1.19649E+04 4.65332E-09 3.21643E-09
 -1       983-3.14376E+05 6.01627E+02-6.54540E+03 2.74804E+03 5.25597E-09 2.15095E-10
 -1       984-3.19655E+05-7.90045E+03-1.61680E+04 1.18889E+04-1.61242E-09 1.38061E-09
 -1       985-3.10567E+05 5.81667E+03-2.52526E+04 2.80576E+03 4.04680E-09 6.29370E-10
 -3
    1PSTEP                        11           6           1          
  100CL  106 4.25293E-01         841                     0    6           1
 -4  DISP        4    1
 -5  D1          1    2    1    0
 -5  D2          1    2    2    0
 -5  D3          1    2    3    0
 -5  ALL         1    2    0    0    1ALL
 -1         1 5.20573E-05 0.00000E+00 0.00000E+00
 -1         2 3.84878E-05 0.00000E+00 0.00000E+00
 -1         3 3.21378E-05 0.00000E+00 0.00000E+00
 -1         4 2.86648E-05 0.00000E+00 0.00000E+00
 -1         5 2.71072E-05 0.00000E+00 0.00000E+00
 -1         8 4.08633E-05-5.22248E-07 0.00000E+00
 -1         9 3.23585E-05 4.41606E-07 0.00000E+00
 -1        10 3.01477E-05-1.33926E-06 0.00000E+00
 -1        11 2.81094E-05-2.65770E-07 0.00000E+00
 -1        12 2.60988E-05 6.83068E-07 0.00000E+00
 -1        15 1.72393E-05-1.08828E-06 0.00000E+00
 -1        16 2.36675E-05 4.37777E-07 0.00000E+00
 -1        17 2.19501E-05-2.69391E-06 0.00000E+00
 -1        18 2.22665E-05-5.24789E-07 0.00000E+00
 -1        19 2.34113E-05 1.35296E-06 0.00000E+00
 -1        20 2.37740E-05 1.43687E-05 0.00000E+00
 -1        21 2.37632E-05 3.43892E-05 0.00000E+00
 -1        22 6.39231E-06-7.02942E-07 0.00000E+00
 -1        23 8.53961E-06 9.21889E-07 0.00000E+00
 -1        24 8.98329E-06-3.17807E-06 0.00000E+00
 -1        25 1.95086E-05-3.57684E-07 0.00000E+00
 -1        26 2.06313E-05 1.79481E-06 0.00000E+00
 -1        27 1.95214E-05 1.38603E-05 0.00000E+00
 -1        28 1.82052E-05 3.39067E-05 0.00000E+00
 -1        29 0.00000E+00 0.00000E+00 0.00000E+00
 -1        30 3.05750E-06 1.21329E-06 0.00000E+00
 -1        31 3.94518E-06-2.54279E-06 0.00000E+00
 -1        32 0.00000E+00 0.00000E+00 0.00000E+00
 -1        33 1.68172E-05 2.83780E-06 0.00000E+00
 -1        34 1.59329E-05 1.38136E-05 0.00000E+00
 -1        35 1.41162E-05 3.36499E-05 0.00000E+00
 -1        36 5.12364E-05 5.73972E-20-1.32349E-23
 -1        37 5.03885E-05 1.16516E-19 1.32349E-23
 -1        38 4.95422E-05 1.60498E-19 0.00000E+00
 -1        39 4.86907E-05 1.80899E-19 0.00000E+00
 -1        40 4.78392E-05 1.23546E-19 0.00000E+00
 -1        41 4.69866E-05 4.27499E-20 0.00000E+00
 -1        42 4.61338E-05-7.66077E-20 2.64698E-23
 -1        43 4.52809E-05-7.94668E-20 1.32349E-23
 -1        44 4.44280E-05 3.84184E-20-2.64698E-23
 -1        45 4.35752E-05 1.77086E-19 0.00000E+00
 -1        46 4.27224E-05 3.29679E-19 0.00000E+00
 -1        47 4.18703E-05 3.43410E-19 0.00000E+00
 -1        48 4.10183E-05 2.93073E-19 0.00000E+00
 -1        49 4.01697E-05 1.86560E-19 0.00000E+00
 -1        50 3.93199E-05 9.19659E-20 2.64698E-23
 -1        51 5.12127E-05-8.89717E-08 0.00000E+00
 -1        52 4.98125E-05-1.73953E-07 0.00000E+00
 -1        53 4.79644E-05-2.58331E-07 0.00000E+00
 -1        54 4.57812E-05-3.43287E-07 0.00000E+00
 -1        55 4.33762E-05-4.29937E-07 2.06795E-25
 -1        56 5.10344E-05-4.18794E-07 0.00000E+00
 -1        57 4.99925E-05-8.99763E-07 0.00000E+00
 -1        58 4.89602E-05-1.40023E-06 0.00000E+00
 -1        59 4.79185E-05-1.89479E-06 0.00000E+00
 -1        60 4.68629E-05-2.35293E-06 0.00000E+00
 -1        61 4.57821E-05-2.74761E-06-1.32349E-23
 -1        62 4.46681E-05-3.05390E-06 0.00000E+00
 -1        63 4.35123E-05-3.24932E-06 1.32349E-23
 -1        64 4.23081E-05-3.31592E-06 0.00000E+00
 -1        65 4.10501E-05-3.23869E-06-1.32349E-23
 -1        66 3.97349E-05-3.00876E-06 0.00000E+00
 -1        67 3.83614E-05-2.62044E-06 0.00000E+00
 -1        68 3.69293E-05-2.07530E-06 2.64698E-23
 -1        69 3.54461E-05-1.37605E-06-1.32349E-23
 -1        70 3.39081E-05-5.36977E-07-2.64698E-23
 -1        71 3.80895E-05 4.31813E-20 0.00000E+00
 -1        72 3.76918E-05 1.72988E-19 0.00000E+00
 -1        73 3.72941E-05 3.42111E-19 0.00000E+00
 -1        74 3.68966E-05 5.57839E-19 0.00000E+00
 -1        75 3.64990E-05 7.29089E-19 1.32349E-23
 -1        76 3.61015E-05 9.10760E-19-6.61744E-24
 -1        77 3.57040E-05 1.06429E-18 0.00000E+00
 -1        78 3.53065E-05 1.06605E-18-6.61744E-24
 -1        79 3.49090E-05 9.57509E-19 0.00000E+00
 -1        80 3.45116E-05 7.96468E-19 0.00000E+00
 -1        81 3.41141E-05 6.67937E-19 1.32349E-23
 -1        82 3.37170E-05 5.36455E-19 6.61744E-24
 -1        83 3.33199E-05 3.95755E-19 0.00000E+00
 -1        84 3.29240E-05 2.81519E-19-6.61744E-24
 -1        85 3.25277E-05 1.39873E-19 1.32349E-23
 -1        86 3.82476E-05 5.94734E-08 6.61744E-24
 -1        87 3.75347E-05 1.38324E-07 8.27181E-25
 -1        88 3.64734E-05 2.15531E-07 0.00000E+00
 -1        89 3.51871E-05 2.94061E-07-2.06795E-25
 -1        90 3.37806E-05 3.73338E-07-1.65436E-24
 -1        91 3.79290E-05 2.30690E-08 0.00000E+00
 -1        92 3.72160E-05 4.48054E-07 0.00000E+00
 -1        93 3.64259E-05 1.07864E-06 1.32349E-23
 -1        94 3.56339E-05 1.71279E-06 0.00000E+00
 -1        95 3.49168E-05 2.14777E-06 0.00000E+00
 -1        96 3.43489E-05 2.18475E-06-6.61744E-24
 -1        97 3.39377E-05 1.80415E-06 0.00000E+00
 -1        98 3.36869E-05 9.95080E-07 6.61744E-24
 -1        99 3.35275E-05-5.79920E-08 1.32349E-23
 -1       100 3.33884E-05-1.16540E-06 0.00000E+00
 -1       101 3.31897E-05-2.11307E-06 0.00000E+00
 -1       102 3.28525E-05-2.69012E-06 0.00000E+00
 -1       103 3.23606E-05-2.85408E-06 0.00000E+00
 -1       104 3.17027E-05-2.57036E-06 0.00000E+00
 -1       105 3.09396E-05-2.00861E-06 0.00000E+00
 -1       106 3.19193E-05-2.14774E-20 0.00000E+00
 -1       107 3.17018E-05 1.81195E-20 3.30872E-24
 -1       108 3.14842E-05 9.72141E-20 0.00000E+00
 -1       109 3.12667E-05 1.59249E-19 3.30872E-24
 -1       110 3.10493E-05 2.86025E-19 0.00000E+00
 -1       111 3.08319E-05 3.85310E-19-3.30872E-24
 -1       112 3.06145E-05 4.48133E-19 0.00000E+00
 -1       113 3.03971E-05 4.91694E-19-3.30872E-24
 -1       114 3.01797E-05 4.84412E-19 0.00000E+00
 -1       115 2.99624E-05 5.09607E-19 3.30872E-24
 -1       116 2.97450E-05 5.09002E-19 0.00000E+00
 -1       117 2.95278E-05 4.59044E-19 0.00000E+00
 -1       118 2.93107E-05 3.38836E-19-6.61744E-24
 -1       119 2.90943E-05 2.25358E-19-3.30872E-24
 -1       120 2.88776E-05 1.17747E-19-6.61744E-24
 -1       121 3.21190E-05-2.23559E-07 0.00000E+00
 -1       122 3.20234E-05-4.46472E-07 0.00000E+00
 -1       123 3.18145E-05-6.69432E-07 6.61744E-24
 -1       124 3.14562E-05-8.92425E-07 0.00000E+00
 -1       125 3.09123E-05-1.11547E-06 0.00000E+00
 -1       126 3.20010E-05-3.24499E-07 0.00000E+00
 -1       127 3.20430E-05-1.12492E-06 0.00000E+00
 -1       128 3.22165E-05-2.27694E-06 0.00000E+00
 -1       129 3.24736E-05-3.65251E-06-3.30872E-24
 -1       130 3.27471E-05-5.07188E-06 0.00000E+00
 -1       131 3.29696E-05-6.35483E-06 0.00000E+00
 -1       132 3.30858E-05-7.35327E-06 0.00000E+00
 -1       133 3.30412E-05-7.92189E-06 0.00000E+00
 -1       134 3.28178E-05-8.01369E-06 0.00000E+00
 -1       135 3.23997E-05-7.58632E-06-3.30872E-24
 -1       136 3.18153E-05-6.71642E-06 0.00000E+00
 -1       137 3.10949E-05-5.48489E-06 3.30872E-24
 -1       138 3.03002E-05-4.05564E-06 0.00000E+00
 -1       139 2.94941E-05-2.59423E-06-3.30872E-24
 -1       140 2.87409E-05-1.27420E-06 0.00000E+00
 -1       141 2.85655E-05 2.13366E-21-3.30872E-24
 -1       142 2.84671E-05 2.61014E-20 1.65436E-24
 -1       143 2.83687E-05 4.33830E-20-3.30872E-24
 -1       144 2.82705E-05 1.04245E-19 0.00000E+00
 -1       145 2.81722E-05 1.47711E-19 3.30872E-24
 -1       146 2.80740E-05 1.55080E-19 0.00000E+00
 -1       147 2.79759E-05 1.45497E-19 0.00000E+00
 -1       148 2.78777E-05 1.17064E-19 0.00000E+00
 -1       149 2.77796E-05 1.18134E-19-3.30872E-24
 -1       150 2.76815E-05 8.02252E-20 1.65436E-24
 -1       151 2.75835E-05 9.21811E-20-3.30872E-24
 -1       152 2.74858E-05 1.07348E-19-1.65436E-24
 -1       153 2.73881E-05 1.01774E-19 1.65436E-24
 -1       154 2.72920E-05 1.05013E-19 8.27181E-25
 -1       155 2.71954E-05 5.85749E-20-2.06795E-25
 -1       156 2.87306E-05-4.60967E-08 0.00000E+00
 -1       157 2.89208E-05-8.91557E-08 0.00000E+00
 -1       158 2.90932E-05-1.32443E-07 0.00000E+00
 -1       159 2.91058E-05-1.75793E-07-8.27181E-25
 -1       160 2.88229E-05-2.18937E-07 0.00000E+00
 -1       161 2.85436E-05-6.42152E-08 0.00000E+00
 -1       162 2.84344E-05-1.60976E-07 0.00000E+00
 -1       163 2.83327E-05-2.77547E-07 0.00000E+00
 -1       164 2.82335E-05-4.01187E-07-1.65436E-24
 -1       165 2.81318E-05-5.17970E-07-3.30872E-24
 -1       166 2.80223E-05-6.14036E-07-1.65436E-24
 -1       167 2.79010E-05-6.78635E-07-3.30872E-24
 -1       168 2.77640E-05-7.01195E-07 1.65436E-24
 -1       169 2.76093E-05-6.76629E-07-3.30872E-24
 -1       170 2.74352E-05-6.00084E-07 0.00000E+00
 -1       171 2.72424E-05-4.73701E-07 0.00000E+00
 -1       172 2.70321E-05-2.99766E-07 1.65436E-24
 -1       173 2.68073E-05-8.70934E-08 3.30872E-24
 -1       174 2.65731E-05 1.56064E-07 0.00000E+00
 -1       175 2.63318E-05 4.15850E-07-4.13590E-25
 -1       191 2.70722E-05 1.13745E-07 0.00000E+00
 -1       192 2.69822E-05 2.27675E-07 0.00000E+00
 -1       193 2.68383E-05 3.41643E-07-6.61744E-24
 -1       194 2.66420E-05 4.55593E-07 0.00000E+00
 -1       195 2.63948E-05 5.69466E-07 0.00000E+00
 -1       251 4.03443E-05 1.66628E-06 0.00000E+00
 -1       252 3.98117E-05 4.20125E-06 6.61744E-24
 -1       253 3.92806E-05 6.35165E-06-1.32349E-23
 -1       254 3.87488E-05 7.39503E-06 0.00000E+00
 -1       255 3.82173E-05 7.09251E-06 0.00000E+00
 -1       256 3.76837E-05 5.23592E-06-6.61744E-24
 -1       257 3.71477E-05 2.29548E-06 0.00000E+00
 -1       258 3.66098E-05-1.23387E-06 6.61744E-24
 -1       259 3.60724E-05-4.60014E-06 1.32349E-23
 -1       260 3.55376E-05-7.05497E-06 6.61744E-24
 -1       261 3.50050E-05-8.24793E-06-1.32349E-23
 -1       262 3.44735E-05-7.85744E-06 0.00000E+00
 -1       263 3.39410E-05-6.25309E-06 0.00000E+00
 -1       264 3.34093E-05-3.83218E-06-6.61744E-24
 -1       265 3.28768E-05-1.34881E-06-1.32349E-23
 -1       266 3.82289E-05-6.17643E-07 0.00000E+00
 -1       267 3.43450E-05-7.11722E-07 0.00000E+00
 -1       268 2.97538E-05-8.08908E-07 0.00000E+00
 -1       269 2.50005E-05-9.05292E-07-8.27181E-25
 -1       270 2.06434E-05-1.00013E-06 0.00000E+00
 -1       271 3.93131E-05 8.92175E-07-1.32349E-23
 -1       272 3.79003E-05 1.84966E-06 0.00000E+00
 -1       273 3.66374E-05 2.41104E-06 0.00000E+00
 -1       274 3.54990E-05 2.62758E-06 1.32349E-23
 -1       275 3.44678E-05 2.55693E-06-2.64698E-23
 -1       276 3.35215E-05 2.25786E-06 0.00000E+00
 -1       277 3.26378E-05 1.79149E-06 0.00000E+00
 -1       278 3.17932E-05 1.22032E-06 0.00000E+00
 -1       279 3.09641E-05 6.07769E-07-2.64698E-23
 -1       280 3.01267E-05 1.76988E-08 1.32349E-23
 -1       281 2.92572E-05-4.86316E-07 0.00000E+00
 -1       282 2.83326E-05-8.41353E-07-1.32349E-23
 -1       283 2.73297E-05-9.86026E-07 0.00000E+00
 -1       284 2.62297E-05-8.59496E-07 0.00000E+00
 -1       285 2.50061E-05-4.06415E-07 0.00000E+00
 -1       286 3.22170E-05 1.70251E-06-6.61744E-24
 -1       287 3.20789E-05 2.62898E-06 0.00000E+00
 -1       288 3.19408E-05 3.20141E-06 0.00000E+00
 -1       289 3.18035E-05 3.40227E-06 0.00000E+00
 -1       290 3.16661E-05 3.26086E-06 0.00000E+00
 -1       291 3.15288E-05 2.80847E-06-1.65436E-24
 -1       292 3.13914E-05 2.11553E-06-3.30872E-24
 -1       293 3.12539E-05 1.25391E-06 0.00000E+00
 -1       294 3.11163E-05 3.16691E-07 0.00000E+00
 -1       295 3.09786E-05-6.02576E-07 1.65436E-24
 -1       296 3.08411E-05-1.41263E-06 3.30872E-24
 -1       297 3.07035E-05-2.02283E-06 0.00000E+00
 -1       298 3.05661E-05-2.36771E-06 0.00000E+00
 -1       299 3.04279E-05-2.38335E-06 3.30872E-24
 -1       300 3.02899E-05-2.04732E-06 0.00000E+00
 -1       301 3.09076E-05 4.35008E-07 0.00000E+00
 -1       302 2.94494E-05 4.37677E-07 8.27181E-25
 -1       303 2.79902E-05 4.41947E-07-1.65436E-24
 -1       304 2.65361E-05 4.45938E-07 8.27181E-25
 -1       305 2.50932E-05 4.47718E-07-3.30872E-24
 -1       306 3.13014E-05 1.38066E-06 1.32349E-23
 -1       307 3.03969E-05 1.85895E-06 6.61744E-24
 -1       308 2.96408E-05 1.94332E-06 0.00000E+00
 -1       309 2.90064E-05 1.69544E-06 0.00000E+00
 -1       310 2.84716E-05 1.18093E-06-2.64698E-23
 -1       311 2.80113E-05 4.66266E-07 1.32349E-23
 -1       312 2.76003E-05-3.80695E-07 2.64698E-23
 -1       313 2.72132E-05-1.29137E-06-1.32349E-23
 -1       314 2.68240E-05-2.19673E-06 0.00000E+00
 -1       315 2.64072E-05-3.02777E-06 0.00000E+00
 -1       316 2.59370E-05-3.71604E-06 1.32349E-23
 -1       317 2.53886E-05-4.19382E-06 0.00000E+00
 -1       318 2.47368E-05-4.39489E-06 0.00000E+00
 -1       319 2.39602E-05-4.25377E-06-6.61744E-24
 -1       320 2.30315E-05-3.70933E-06 0.00000E+00
 -1       321 3.00153E-05-5.65072E-07 0.00000E+00
 -1       322 2.98876E-05-3.09336E-08 0.00000E+00
 -1       323 2.97596E-05 2.68212E-07 3.30872E-24
 -1       324 2.96326E-05 3.38707E-07 0.00000E+00
 -1       325 2.95055E-05 2.13600E-07-3.30872E-24
 -1       326 2.93786E-05-7.29978E-08 1.65436E-24
 -1       327 2.92517E-05-4.68129E-07-3.30872E-24
 -1       328 2.91248E-05-9.18236E-07 0.00000E+00
 -1       329 2.89979E-05-1.36334E-06-3.30872E-24
 -1       330 2.88711E-05-1.74351E-06 0.00000E+00
 -1       331 2.87443E-05-2.00638E-06 0.00000E+00
 -1       332 2.86175E-05-2.10021E-06 0.00000E+00
 -1       333 2.84907E-05-1.99302E-06 0.00000E+00
 -1       334 2.83638E-05-1.65388E-06 0.00000E+00
 -1       335 2.82368E-05-1.07899E-06 0.00000E+00
 -1       336 2.91235E-05-1.56617E-06 6.61744E-24
 -1       337 2.78935E-05-1.79269E-06 0.00000E+00
 -1       338 2.65091E-05-2.01930E-06 0.00000E+00
 -1       339 2.50222E-05-2.24539E-06 0.00000E+00
 -1       340 2.34852E-05-2.47159E-06 0.00000E+00
 -1       341 2.94406E-05-6.98895E-07 0.00000E+00
 -1       342 2.88037E-05-2.67433E-07-6.61744E-24
 -1       343 2.82731E-05-1.17862E-07 0.00000E+00
 -1       344 2.78736E-05-3.21727E-07 0.00000E+00
 -1       345 2.75802E-05-8.08614E-07 0.00000E+00
 -1       346 2.73644E-05-1.50356E-06 6.61744E-24
 -1       347 2.71674E-05-2.24873E-06-1.32349E-23
 -1       348 2.69298E-05-2.88546E-06 0.00000E+00
 -1       349 2.66080E-05-3.29765E-06 0.00000E+00
 -1       350 2.61603E-05-3.37333E-06 6.61744E-24
 -1       351 2.55950E-05-3.13568E-06 0.00000E+00
 -1       352 2.49234E-05-2.61329E-06 6.61744E-24
 -1       353 2.41983E-05-1.94812E-06 1.32349E-23
 -1       354 2.34769E-05-1.28321E-06-6.61744E-24
 -1       355 2.28089E-05-7.64107E-07 0.00000E+00
 -1       356 2.79822E-05 5.94639E-07 3.30872E-24
 -1       357 2.78553E-05 1.31034E-06-1.65436E-24
 -1       358 2.77284E-05 1.86328E-06 3.30872E-24
 -1       359 2.76017E-05 2.23626E-06 0.00000E+00
 -1       360 2.74751E-05 2.43309E-06-3.30872E-24
 -1       361 2.73485E-05 2.45853E-06 0.00000E+00
 -1       362 2.72218E-05 2.33730E-06 0.00000E+00
 -1       363 2.70952E-05 2.09494E-06 0.00000E+00
 -1       364 2.69686E-05 1.77110E-06 0.00000E+00
 -1       365 2.68420E-05 1.40587E-06 1.65436E-24
 -1       366 2.67155E-05 1.04419E-06 0.00000E+00
 -1       367 2.65894E-05 7.30935E-07 0.00000E+00
 -1       368 2.64633E-05 5.05377E-07 0.00000E+00
 -1       369 2.63390E-05 4.06297E-07 8.27181E-25
 -1       370 2.62142E-05 4.57780E-07 0.00000E+00
 -1       371 2.70867E-05-3.12935E-07 3.30872E-24
 -1       372 2.58903E-05-3.56542E-07 0.00000E+00
 -1       373 2.46660E-05-4.00389E-07 0.00000E+00
 -1       374 2.35599E-05-4.42918E-07 0.00000E+00
 -1       375 2.27131E-05-4.85343E-07 4.13590E-25
 -1       376 2.75240E-05 6.21275E-07 0.00000E+00
 -1       377 2.69076E-05 1.57888E-06 0.00000E+00
 -1       378 2.63019E-05 2.50907E-06 6.61744E-24
 -1       379 2.57431E-05 3.31223E-06 0.00000E+00
 -1       380 2.52584E-05 3.91841E-06 6.61744E-24
 -1       381 2.48732E-05 4.25925E-06 0.00000E+00
 -1       382 2.45903E-05 4.32733E-06 6.61744E-24
 -1       383 2.44115E-05 4.11784E-06 0.00000E+00
 -1       384 2.43147E-05 3.68979E-06 0.00000E+00
 -1       385 2.42768E-05 3.10440E-06 3.30872E-24
 -1       386 2.42618E-05 2.45817E-06 6.61744E-24
 -1       387 2.42336E-05 1.84835E-06 0.00000E+00
 -1       388 2.41584E-05 1.36409E-06 0.00000E+00
 -1       389 2.40053E-05 1.09422E-06 3.30872E-24
 -1       390 2.37567E-05 1.07674E-06 3.30872E-24
 -1       406 2.57383E-05 7.95339E-07 0.00000E+00
 -1       407 2.53358E-05 9.07740E-07-1.65436E-24
 -1       408 2.48965E-05 1.02009E-06 0.00000E+00
 -1       409 2.44257E-05 1.13215E-06 1.65436E-24
 -1       410 2.39288E-05 1.24362E-06 0.00000E+00
 -1       466 1.76234E-05 1.26129E-06 0.00000E+00
 -1       467 1.80264E-05 2.50867E-06 0.00000E+00
 -1       468 1.84291E-05 2.99578E-06 1.32349E-23
 -1       469 1.88350E-05 3.05094E-06-6.61744E-24
 -1       470 1.92411E-05 2.81035E-06 1.32349E-23
 -1       471 1.96477E-05 2.40495E-06 0.00000E+00
 -1       472 2.00544E-05 1.89221E-06-1.32349E-23
 -1       473 2.04611E-05 1.32768E-06-6.61744E-24
 -1       474 2.08678E-05 7.43811E-07 1.32349E-23
 -1       475 2.12743E-05 1.72697E-07 0.00000E+00
 -1       476 2.16807E-05-3.47855E-07 0.00000E+00
 -1       477 2.20861E-05-7.79169E-07 6.61744E-24
 -1       478 2.24914E-05-1.04276E-06 0.00000E+00
 -1       479 2.28916E-05-1.05717E-06 0.00000E+00
 -1       480 2.32934E-05-6.30335E-07 0.00000E+00
 -1       481 1.45391E-05-1.02852E-06 8.27181E-25
 -1       482 1.22636E-05-9.64496E-07 8.27181E-25
 -1       483 1.03572E-05-8.99942E-07 1.65436E-24
 -1       484 8.76553E-06-8.34415E-07 8.27181E-25
 -1       485 7.45491E-06-7.68410E-07 0.00000E+00
 -1       486 1.57236E-05 1.67603E-06-6.61744E-24
 -1       487 1.41978E-05 4.41507E-06 6.61744E-24
 -1       488 1.29358E-05 6.45923E-06 0.00000E+00
 -1       489 1.21827E-05 7.14291E-06 6.61744E-24
 -1       490 1.19778E-05 6.36506E-06-1.32349E-23
 -1       491 1.23460E-05 4.05072E-06-6.61744E-24
 -1       492 1.30773E-05 7.61116E-07 0.00000E+00
 -1       493 1.39552E-05-2.92385E-06 0.00000E+00
 -1       494 1.47039E-05-6.26074E-06 0.00000E+00
 -1       495 1.50489E-05-8.51277E-06-6.61744E-24
 -1       496 1.48814E-05-9.39243E-06 0.00000E+00
 -1       497 1.41016E-05-8.63833E-06 0.00000E+00
 -1       498 1.28625E-05-6.66454E-06 0.00000E+00
 -1       499 1.13301E-05-3.90650E-06 0.00000E+00
 -1       500 9.78814E-06-1.12606E-06 0.00000E+00
 -1       501 2.35530E-05 1.59370E-06 0.00000E+00
 -1       502 2.34454E-05 2.26801E-06 0.00000E+00
 -1       503 2.33376E-05 2.48405E-06-3.30872E-24
 -1       504 2.32311E-05 2.26725E-06 0.00000E+00
 -1       505 2.31244E-05 1.68566E-06 3.30872E-24
 -1       506 2.30177E-05 8.09017E-07-1.65436E-24
 -1       507 2.29109E-05-2.63917E-07-3.30872E-24
 -1       508 2.28041E-05-1.43351E-06 0.00000E+00
 -1       509 2.26973E-05-2.59061E-06 0.00000E+00
 -1       510 2.25906E-05-3.62610E-06 0.00000E+00
 -1       511 2.24841E-05-4.44286E-06-3.30872E-24
 -1       512 2.23777E-05-4.94474E-06 1.65436E-24
 -1       513 2.22715E-05-5.06657E-06 0.00000E+00
 -1       514 2.21650E-05-4.74489E-06 0.00000E+00
 -1       515 2.20583E-05-3.95991E-06 0.00000E+00
 -1       516 2.18860E-05 5.09082E-07 0.00000E+00
 -1       517 1.93548E-05 5.92927E-07 0.00000E+00
 -1       518 1.64161E-05 6.74772E-07 0.00000E+00
 -1       519 1.34105E-05 7.57882E-07 0.00000E+00
 -1       520 1.06730E-05 8.42251E-07 5.16988E-26
 -1       521 2.23833E-05 1.26532E-06 0.00000E+00
 -1       522 2.12388E-05 1.64147E-06 1.32349E-23
 -1       523 2.02391E-05 1.63437E-06-2.64698E-23
 -1       524 1.93561E-05 1.30426E-06 1.32349E-23
 -1       525 1.85691E-05 7.16921E-07-2.64698E-23
 -1       526 1.78527E-05-6.08636E-08 0.00000E+00
 -1       527 1.71817E-05-9.60456E-07-2.64698E-23
 -1       528 1.65302E-05-1.91232E-06-1.32349E-23
 -1       529 1.58721E-05-2.84644E-06-2.64698E-23
 -1       530 1.51812E-05-3.69294E-06-1.32349E-23
 -1       531 1.44319E-05-4.38274E-06 0.00000E+00
 -1       532 1.35990E-05-4.84799E-06 0.00000E+00
 -1       533 1.26578E-05-5.02296E-06 0.00000E+00
 -1       534 1.15876E-05-4.84327E-06-1.32349E-23
 -1       535 1.03614E-05-4.25023E-06 0.00000E+00
 -1       536 2.19620E-05-1.36559E-06 0.00000E+00
 -1       537 2.19808E-05-3.56658E-07-8.27181E-25
 -1       538 2.19997E-05 3.67184E-07 0.00000E+00
 -1       539 2.20197E-05 8.40446E-07-1.03398E-25
 -1       540 2.20400E-05 1.09752E-06 0.00000E+00
 -1       541 2.20605E-05 1.17280E-06 2.06795E-25
 -1       542 2.20811E-05 1.10063E-06 0.00000E+00
 -1       543 2.21017E-05 9.15326E-07 2.06795E-25
 -1       544 2.21222E-05 6.51202E-07-4.13590E-25
 -1       545 2.21428E-05 3.42540E-07 0.00000E+00
 -1       546 2.21634E-05 2.36241E-08-8.27181E-25
 -1       547 2.21840E-05-2.71263E-07 0.00000E+00
 -1       548 2.22046E-05-5.07842E-07 0.00000E+00
 -1       549 2.22252E-05-6.51823E-07 0.00000E+00
 -1       550 2.22459E-05-6.68874E-07 0.00000E+00
 -1       551 2.00128E-05-2.77363E-06-1.80946E-24
 -1       552 1.78571E-05-2.85132E-06-6.20385E-25
 -1       553 1.55788E-05-2.92904E-06 3.30872E-24
 -1       554 1.32754E-05-3.00766E-06 3.30872E-24
 -1       555 1.10449E-05-3.08817E-06-6.61744E-24
 -1       556 2.13819E-05-1.45105E-06 6.61744E-24
 -1       557 2.09232E-05-4.92665E-07 0.00000E+00
 -1       558 2.05617E-05 2.08500E-07 6.61744E-24
 -1       559 2.02858E-05 6.82373E-07 6.61744E-24
 -1       560 2.00842E-05 9.58936E-07 0.00000E+00
 -1       561 1.99453E-05 1.06844E-06 0.00000E+00
 -1       562 1.98578E-05 1.04114E-06 0.00000E+00
 -1       563 1.98102E-05 9.07358E-07 0.00000E+00
 -1       564 1.97912E-05 6.97407E-07 3.30872E-24
 -1       565 1.97894E-05 4.41616E-07-1.65436E-24
 -1       566 1.97934E-05 1.70322E-07-1.65436E-24
 -1       567 1.97919E-05-8.61326E-08 8.27181E-25
 -1       568 1.97736E-05-2.97415E-07-8.27181E-25
 -1       569 1.97273E-05-4.33224E-07-3.10193E-25
 -1       570 1.96419E-05-4.63284E-07-1.24077E-24
 -1       571 2.23352E-05-3.56816E-07 5.16988E-25
 -1       572 2.24060E-05-2.40919E-07 0.00000E+00
 -1       573 2.24774E-05-1.67828E-07-1.65436E-24
 -1       574 2.25492E-05-1.27800E-07-4.13590E-25
 -1       575 2.26211E-05-1.11050E-07 1.65436E-24
 -1       576 2.26930E-05-1.07731E-07 8.27181E-25
 -1       577 2.27649E-05-1.07992E-07 0.00000E+00
 -1       578 2.28369E-05-1.01975E-07 0.00000E+00
 -1       579 2.29088E-05-7.98189E-08 3.30872E-24
 -1       580 2.29807E-05-3.16646E-08 0.00000E+00
 -1       581 2.30527E-05 5.23468E-08 0.00000E+00
 -1       582 2.31246E-05 1.82066E-07 0.00000E+00
 -1       583 2.31965E-05 3.67334E-07 0.00000E+00
 -1       584 2.32683E-05 6.17898E-07 3.30872E-24
 -1       585 2.33400E-05 9.43453E-07 0.00000E+00
 -1       586 2.18686E-05-4.96396E-07 0.00000E+00
 -1       587 2.14130E-05-4.67747E-07 0.00000E+00
 -1       588 2.09242E-05-4.39124E-07 0.00000E+00
 -1       589 2.04273E-05-4.10782E-07-2.58494E-26
 -1       590 1.99472E-05-3.83079E-07 0.00000E+00
 -1       591 2.21491E-05-3.29845E-07 0.00000E+00
 -1       592 2.20414E-05-1.69302E-07 0.00000E+00
 -1       593 2.19435E-05-3.67756E-08 0.00000E+00
 -1       594 2.18537E-05 7.36055E-08 0.00000E+00
 -1       595 2.17698E-05 1.67708E-07 1.65436E-24
 -1       596 2.16898E-05 2.51363E-07 0.00000E+00
 -1       597 2.16115E-05 3.30393E-07 0.00000E+00
 -1       598 2.15328E-05 4.10619E-07 4.13590E-25
 -1       599 2.14514E-05 4.97860E-07 8.27181E-25
 -1       600 2.13653E-05 5.97934E-07-8.27181E-25
 -1       601 2.12721E-05 7.16659E-07-1.65436E-24
 -1       602 2.11698E-05 8.59860E-07 2.06795E-25
 -1       603 2.10563E-05 1.03336E-06 6.20385E-25
 -1       604 2.09296E-05 1.24303E-06 1.55096E-25
 -1       605 2.07878E-05 1.49473E-06 4.13590E-25
 -1       606 2.34365E-05 1.89705E-06 0.00000E+00
 -1       607 2.34600E-05 2.49317E-06 0.00000E+00
 -1       608 2.34829E-05 3.13827E-06 0.00000E+00
 -1       609 2.35056E-05 3.82887E-06 0.00000E+00
 -1       610 2.35282E-05 4.56147E-06 0.00000E+00
 -1       611 2.35507E-05 5.33249E-06 0.00000E+00
 -1       612 2.35732E-05 6.13835E-06 0.00000E+00
 -1       613 2.35956E-05 6.97549E-06 0.00000E+00
 -1       614 2.36180E-05 7.84031E-06 0.00000E+00
 -1       615 2.36404E-05 8.72924E-06 0.00000E+00
 -1       616 2.36627E-05 9.63871E-06 0.00000E+00
 -1       617 2.36851E-05 1.05651E-05 0.00000E+00
 -1       618 2.37074E-05 1.15049E-05 0.00000E+00
 -1       619 2.37297E-05 1.24545E-05 4.13590E-25
 -1       620 2.37519E-05 1.34103E-05 8.27181E-25
 -1       621 2.28972E-05 1.42679E-06-1.65436E-24
 -1       622 2.23953E-05 1.50106E-06 0.00000E+00
 -1       623 2.19119E-05 1.57537E-06 1.65436E-24
 -1       624 2.14527E-05 1.64949E-06-8.27181E-25
 -1       625 2.10240E-05 1.72319E-06 1.65436E-24
 -1       626 2.32492E-05 1.92292E-06-3.30872E-24
 -1       627 2.30658E-05 2.54715E-06 0.00000E+00
 -1       628 2.28637E-05 3.22068E-06 0.00000E+00
 -1       629 2.26450E-05 3.93788E-06 0.00000E+00
 -1       630 2.24120E-05 4.69309E-06 0.00000E+00
 -1       631 2.21669E-05 5.48054E-06 3.30872E-24
 -1       632 2.19118E-05 6.29447E-06 1.65436E-24
 -1       633 2.16489E-05 7.12914E-06 0.00000E+00
 -1       634 2.13803E-05 7.97877E-06 3.30872E-24
 -1       635 2.11084E-05 8.83759E-06-8.27181E-25
 -1       636 2.08351E-05 9.69984E-06 1.65436E-24
 -1       637 2.05626E-05 1.05598E-05 0.00000E+00
 -1       638 2.02932E-05 1.14116E-05 0.00000E+00
 -1       639 2.00287E-05 1.22495E-05 2.06795E-25
 -1       640 1.97712E-05 1.30677E-05 0.00000E+00
 -1       641 2.37747E-05 1.53631E-05 2.06795E-25
 -1       642 2.37746E-05 1.64620E-05 0.00000E+00
 -1       643 2.37744E-05 1.76502E-05-1.03398E-25
 -1       644 2.37740E-05 1.89127E-05-2.58494E-26
 -1       645 2.37735E-05 2.02345E-05-2.58494E-26
 -1       646 2.37730E-05 2.16005E-05 6.46235E-27
 -1       647 2.37724E-05 2.29958E-05 0.00000E+00
 -1       648 2.37717E-05 2.44052E-05 1.61559E-27
 -1       649 2.37711E-05 2.58138E-05-6.46235E-27
 -1       650 2.37705E-05 2.72066E-05-1.29247E-26
 -1       651 2.37698E-05 2.85685E-05 0.00000E+00
 -1       652 2.37692E-05 2.98846E-05 5.16988E-26
 -1       653 2.37686E-05 3.11397E-05 2.06795E-25
 -1       654 2.37675E-05 3.23189E-05-2.06795E-25
 -1       655 2.37667E-05 3.34071E-05 8.27181E-25
 -1       656 2.29121E-05 1.42868E-05-8.27181E-25
 -1       657 2.21663E-05 1.42006E-05-8.27181E-25
 -1       658 2.14955E-05 1.41147E-05 1.65436E-24
 -1       659 2.08585E-05 1.40288E-05 0.00000E+00
 -1       660 2.02142E-05 1.39426E-05 0.00000E+00
 -1       661 2.34968E-05 1.53922E-05 0.00000E+00
 -1       662 2.31924E-05 1.64981E-05 0.00000E+00
 -1       663 2.28619E-05 1.76733E-05 0.00000E+00
 -1       664 2.25103E-05 1.89062E-05 0.00000E+00
 -1       665 2.21415E-05 2.01847E-05 3.30872E-24
 -1       666 2.17601E-05 2.14971E-05 1.65436E-24
 -1       667 2.13703E-05 2.28318E-05 0.00000E+00
 -1       668 2.09766E-05 2.41769E-05 1.65436E-24
 -1       669 2.05834E-05 2.55209E-05 3.30872E-24
 -1       670 2.01950E-05 2.68519E-05 0.00000E+00
 -1       671 1.98158E-05 2.81583E-05 3.30872E-24
 -1       672 1.94501E-05 2.94284E-05 0.00000E+00
 -1       673 1.91025E-05 3.06503E-05 3.30872E-24
 -1       674 1.87766E-05 3.18121E-05 0.00000E+00
 -1       675 1.84778E-05 3.29022E-05 0.00000E+00
 -1       676 2.28347E-05 3.43085E-05-1.65436E-24
 -1       677 2.19067E-05 3.42275E-05 8.27181E-25
 -1       678 2.09795E-05 3.41465E-05 0.00000E+00
 -1       679 2.00533E-05 3.40658E-05 0.00000E+00
 -1       680 1.91285E-05 3.39851E-05 1.65436E-24
 -1       681 6.52335E-06 4.28072E-08 3.30872E-24
 -1       682 6.65832E-06 4.07493E-07 1.65436E-24
 -1       683 6.79313E-06 4.77976E-07-3.30872E-24
 -1       684 6.92864E-06 3.39370E-07-1.65436E-24
 -1       685 7.06414E-06 4.84734E-08-3.30872E-24
 -1       686 7.19974E-06-3.38816E-07 1.65436E-24
 -1       687 7.33534E-06-7.79666E-07 0.00000E+00
 -1       688 7.47095E-06-1.23156E-06 0.00000E+00
 -1       689 7.60656E-06-1.65348E-06 0.00000E+00
 -1       690 7.74214E-06-2.00424E-06 0.00000E+00
 -1       691 7.87771E-06-2.23298E-06 3.30872E-24
 -1       692 8.01297E-06-2.28816E-06-1.65436E-24
 -1       693 8.14817E-06-2.09467E-06 3.30872E-24
 -1       694 8.28161E-06-1.57597E-06-1.65436E-24
 -1       695 8.41527E-06-6.11508E-07-8.27181E-25
 -1       696 5.38750E-06-5.88852E-07 0.00000E+00
 -1       697 4.25578E-06-4.71796E-07 0.00000E+00
 -1       698 3.07366E-06-3.54974E-07-3.30872E-24
 -1       699 1.91737E-06-2.37264E-07 0.00000E+00
 -1       700 8.66212E-07-1.19513E-07 0.00000E+00
 -1       701 5.90183E-06 1.90395E-07-1.65436E-24
 -1       702 5.40058E-06 1.08914E-06 0.00000E+00
 -1       703 4.91729E-06 1.94165E-06 0.00000E+00
 -1       704 4.47054E-06 2.69275E-06 1.65436E-24
 -1       705 4.07643E-06 3.30376E-06 0.00000E+00
 -1       706 3.74908E-06 3.73624E-06 1.65436E-24
 -1       707 3.49295E-06 3.97897E-06 3.30872E-24
 -1       708 3.31178E-06 4.02178E-06 1.65436E-24
 -1       709 3.19809E-06 3.88466E-06 0.00000E+00
 -1       710 3.14396E-06 3.58875E-06 1.65436E-24
 -1       711 3.13245E-06 3.17916E-06 0.00000E+00
 -1       712 3.14662E-06 2.70177E-06 1.65436E-24
 -1       713 3.16519E-06 2.21264E-06 0.00000E+00
 -1       714 3.16846E-06 1.76849E-06 0.00000E+00
 -1       715 3.13603E-06 1.41810E-06-1.65436E-24
 -1       716 8.56344E-06 2.39271E-06-8.27181E-25
 -1       717 8.59241E-06 3.16780E-06 0.00000E+00
 -1       718 8.62138E-06 3.35983E-06-4.13590E-25
 -1       719 8.65117E-06 3.08071E-06 0.00000E+00
 -1       720 8.68081E-06 2.42868E-06 8.27181E-25
 -1       721 8.71041E-06 1.50156E-06 4.13590E-25
 -1       722 8.73985E-06 3.89165E-07 0.00000E+00
 -1       723 8.76919E-06-8.18972E-07-4.13590E-25
 -1       724 8.79850E-06-2.03605E-06-8.27181E-25
 -1       725 8.82781E-06-3.17530E-06 4.13590E-25
 -1       726 8.85722E-06-4.14770E-06 0.00000E+00
 -1       727 8.88634E-06-4.86400E-06 0.00000E+00
 -1       728 8.91556E-06-5.22752E-06 4.13590E-25
 -1       729 8.94233E-06-5.14114E-06 8.27181E-25
 -1       730 8.96973E-06-4.49492E-06-3.30872E-24
 -1       731 6.86275E-06 9.65119E-07 0.00000E+00
 -1       732 5.47613E-06 1.01397E-06 0.00000E+00
 -1       733 4.38761E-06 1.06284E-06 8.27181E-25
 -1       734 3.60577E-06 1.11288E-06 0.00000E+00
 -1       735 3.15427E-06 1.16320E-06-1.65436E-24
 -1       736 7.67598E-06 2.27213E-06 6.61744E-24
 -1       737 7.07296E-06 2.89932E-06 3.30872E-24
 -1       738 6.77871E-06 2.70594E-06 0.00000E+00
 -1       739 6.82367E-06 1.60103E-06 0.00000E+00
 -1       740 7.13436E-06-2.15167E-07-1.32349E-23
 -1       741 7.63169E-06-2.53302E-06-6.61744E-24
 -1       742 8.17822E-06-4.98293E-06 1.32349E-23
 -1       743 8.63552E-06-7.19357E-06 0.00000E+00
 -1       744 8.89342E-06-8.86968E-06 1.32349E-23
 -1       745 8.84408E-06-9.72361E-06 6.61744E-24
 -1       746 8.47711E-06-9.72970E-06 0.00000E+00
 -1       747 7.78683E-06-8.87409E-06 0.00000E+00
 -1       748 6.87026E-06-7.41721E-06 0.00000E+00
 -1       749 5.82997E-06-5.62704E-06 0.00000E+00
 -1       750 4.80478E-06-3.87885E-06-6.61744E-24
 -1       751 9.60164E-06-1.83411E-06 6.61744E-24
 -1       752 1.02594E-05-1.09367E-06-6.61744E-24
 -1       753 1.09149E-05-7.38386E-07 0.00000E+00
 -1       754 1.15779E-05-5.61267E-07 0.00000E+00
 -1       755 1.22411E-05-4.97710E-07 0.00000E+00
 -1       756 1.29057E-05-4.86407E-07 1.32349E-23
 -1       757 1.35706E-05-5.08025E-07 0.00000E+00
 -1       758 1.42357E-05-5.44186E-07 1.32349E-23
 -1       759 1.49008E-05-5.88203E-07-2.64698E-23
 -1       760 1.55657E-05-6.33618E-07 0.00000E+00
 -1       761 1.62306E-05-6.75094E-07 0.00000E+00
 -1       762 1.68943E-05-7.07183E-07-1.32349E-23
 -1       763 1.75580E-05-7.16892E-07-1.32349E-23
 -1       764 1.82163E-05-6.90580E-07 6.61744E-24
 -1       765 1.88764E-05-5.85772E-07 0.00000E+00
 -1       766 7.59592E-06-3.08512E-06 0.00000E+00
 -1       767 6.73138E-06-2.97543E-06 0.00000E+00
 -1       768 6.15972E-06-2.86663E-06 8.27181E-25
 -1       769 5.65249E-06-2.75630E-06 0.00000E+00
 -1       770 4.98836E-06-2.64539E-06 0.00000E+00
 -1       771 8.01176E-06-1.86912E-06 0.00000E+00
 -1       772 7.12835E-06-8.11770E-07 6.61744E-24
 -1       773 6.33014E-06 1.57516E-08 0.00000E+00
 -1       774 5.60935E-06 6.35527E-07 6.61744E-24
 -1       775 4.95810E-06 1.06970E-06-1.32349E-23
 -1       776 4.36810E-06 1.34054E-06 6.61744E-24
 -1       777 3.83099E-06 1.47037E-06 1.32349E-23
 -1       778 3.33840E-06 1.48158E-06 0.00000E+00
 -1       779 2.88191E-06 1.39658E-06 0.00000E+00
 -1       780 2.45309E-06 1.23784E-06 0.00000E+00
 -1       781 2.04354E-06 1.02785E-06 1.32349E-23
 -1       782 1.64487E-06 7.89156E-07-6.61744E-24
 -1       783 1.24872E-06 5.44292E-07 0.00000E+00
 -1       784 8.47101E-07 3.15891E-07 6.61744E-24
 -1       785 4.32059E-07 1.26588E-07 0.00000E+00
 -1       786 1.95746E-05-9.94022E-08-8.27181E-25
 -1       787 1.96445E-05 1.01444E-07 8.27181E-25
 -1       788 1.97145E-05 2.53649E-07 0.00000E+00
 -1       789 1.97850E-05 3.66021E-07-8.27181E-25
 -1       790 1.98557E-05 4.47337E-07 0.00000E+00
 -1       791 1.99264E-05 5.06357E-07 0.00000E+00
 -1       792 1.99972E-05 5.51831E-07-1.65436E-24
 -1       793 2.00680E-05 5.92494E-07 0.00000E+00
 -1       794 2.01388E-05 6.37086E-07-1.65436E-24
 -1       795 2.02097E-05 6.94343E-07 0.00000E+00
 -1       796 2.02804E-05 7.73011E-07 0.00000E+00
 -1       797 2.03512E-05 8.81851E-07-8.27181E-25
 -1       798 2.04219E-05 1.02964E-06 1.65436E-24
 -1       799 2.04923E-05 1.22517E-06 0.00000E+00
 -1       800 2.05627E-05 1.47729E-06 0.00000E+00
 -1       801 1.77710E-05-2.93650E-07 3.30872E-24
 -1       802 1.41621E-05-2.30232E-07 0.00000E+00
 -1       803 9.63057E-06-1.70371E-07-4.13590E-25
 -1       804 5.12656E-06-1.12159E-07 0.00000E+00
 -1       805 1.60012E-06-5.03807E-08 0.00000E+00
 -1       806 1.93321E-05-1.26798E-07 1.65436E-24
 -1       807 1.91622E-05 7.90490E-08 0.00000E+00
 -1       808 1.89991E-05 2.64653E-07-3.30872E-24
 -1       809 1.88416E-05 4.34459E-07 0.00000E+00
 -1       810 1.86882E-05 5.92889E-07 0.00000E+00
 -1       811 1.85375E-05 7.44330E-07 1.65436E-24
 -1       812 1.83877E-05 8.93163E-07-3.30872E-24
 -1       813 1.82372E-05 1.04377E-06 0.00000E+00
 -1       814 1.80844E-05 1.20052E-06-3.30872E-24
 -1       815 1.79277E-05 1.36779E-06-1.65436E-24
 -1       816 1.77653E-05 1.54996E-06 0.00000E+00
 -1       817 1.75958E-05 1.75140E-06-1.65436E-24
 -1       818 1.74176E-05 1.97650E-06 3.30872E-24
 -1       819 1.72290E-05 2.22964E-06 0.00000E+00
 -1       820 1.70289E-05 2.51523E-06 0.00000E+00
 -1       821 2.05662E-05 2.20026E-06-4.13590E-25
 -1       822 2.04970E-05 2.69674E-06 0.00000E+00
 -1       823 2.04278E-05 3.27488E-06-1.65436E-24
 -1       824 2.03580E-05 3.92516E-06-8.27181E-25
 -1       825 2.02881E-05 4.63807E-06-1.65436E-24
 -1       826 2.02180E-05 5.40403E-06 8.27181E-25
 -1       827 2.01478E-05 6.21343E-06 0.00000E+00
 -1       828 2.00776E-05 7.05665E-06 8.27181E-25
 -1       829 2.00073E-05 7.92404E-06-1.65436E-24
 -1       830 1.99371E-05 8.80593E-06 0.00000E+00
 -1       831 1.98669E-05 9.69265E-06 0.00000E+00
 -1       832 1.97968E-05 1.05745E-05-8.27181E-25
 -1       833 1.97268E-05 1.14419E-05 0.00000E+00
 -1       834 1.96572E-05 1.22850E-05 0.00000E+00
 -1       835 1.95877E-05 1.30944E-05 8.27181E-25
 -1       836 2.01469E-05 1.96543E-06-3.30872E-24
 -1       837 1.94926E-05 2.14206E-06 1.65436E-24
 -1       838 1.87502E-05 2.31832E-06-3.30872E-24
 -1       839 1.80021E-05 2.49417E-06-1.65436E-24
 -1       840 1.73304E-05 2.67036E-06-1.65436E-24
 -1       841 2.04710E-05 2.19598E-06-2.06795E-25
 -1       842 2.02724E-05 2.69501E-06 0.00000E+00
 -1       843 2.00406E-05 3.28238E-06 0.00000E+00
 -1       844 1.97793E-05 3.94776E-06 1.03398E-25
 -1       845 1.94927E-05 4.68023E-06-2.06795E-25
 -1       846 1.91851E-05 5.46870E-06-2.06795E-25
 -1       847 1.88607E-05 6.30148E-06 0.00000E+00
 -1       848 1.85241E-05 7.16688E-06 2.06795E-25
 -1       849 1.81798E-05 8.05281E-06 0.00000E+00
 -1       850 1.78323E-05 8.94717E-06 0.00000E+00
 -1       851 1.74862E-05 9.83782E-06 0.00000E+00
 -1       852 1.71460E-05 1.07125E-05-2.06795E-25
 -1       853 1.68163E-05 1.15593E-05-4.13590E-25
 -1       854 1.65014E-05 1.23662E-05-2.06795E-25
 -1       855 1.62059E-05 1.31216E-05 0.00000E+00
 -1       856 1.94434E-05 1.46838E-05-8.27181E-25
 -1       857 1.93616E-05 1.56557E-05 8.27181E-25
 -1       858 1.92797E-05 1.67567E-05 1.65436E-24
 -1       859 1.91971E-05 1.79674E-05 0.00000E+00
 -1       860 1.91142E-05 1.92682E-05-1.65436E-24
 -1       861 1.90312E-05 2.06396E-05 0.00000E+00
 -1       862 1.89481E-05 2.20619E-05 0.00000E+00
 -1       863 1.88650E-05 2.35154E-05 0.00000E+00
 -1       864 1.87818E-05 2.49805E-05 0.00000E+00
 -1       865 1.86986E-05 2.64374E-05 1.65436E-24
 -1       866 1.86155E-05 2.78665E-05 3.30872E-24
 -1       867 1.85326E-05 2.92480E-05 1.65436E-24
 -1       868 1.84497E-05 3.05623E-05 3.30872E-24
 -1       869 1.83673E-05 3.17899E-05 0.00000E+00
 -1       870 1.82850E-05 3.29111E-05-1.65436E-24
 -1       871 1.88634E-05 1.38536E-05 0.00000E+00
 -1       872 1.82523E-05 1.38463E-05 0.00000E+00
 -1       873 1.76712E-05 1.38388E-05 0.00000E+00
 -1       874 1.71025E-05 1.38311E-05 0.00000E+00
 -1       875 1.65289E-05 1.38231E-05 0.00000E+00
 -1       876 1.93240E-05 1.47111E-05 0.00000E+00
 -1       877 1.90833E-05 1.56905E-05 0.00000E+00
 -1       878 1.88009E-05 1.67803E-05 0.00000E+00
 -1       879 1.84838E-05 1.79645E-05 0.00000E+00
 -1       880 1.81375E-05 1.92266E-05 0.00000E+00
 -1       881 1.77680E-05 2.05505E-05 1.65436E-24
 -1       882 1.73814E-05 2.19200E-05 3.30872E-24
 -1       883 1.69837E-05 2.33191E-05 0.00000E+00
 -1       884 1.65809E-05 2.47317E-05 3.30872E-24
 -1       885 1.61790E-05 2.61418E-05 0.00000E+00
 -1       886 1.57840E-05 2.75336E-05 0.00000E+00
 -1       887 1.54018E-05 2.88908E-05-1.65436E-24
 -1       888 1.50386E-05 3.01974E-05 0.00000E+00
 -1       889 1.46996E-05 3.14371E-05 1.65436E-24
 -1       890 1.43920E-05 3.25941E-05-1.65436E-24
 -1       891 1.74040E-05 3.38641E-05 1.65436E-24
 -1       892 1.67585E-05 3.38210E-05 0.00000E+00
 -1       893 1.61879E-05 3.37779E-05 0.00000E+00
 -1       894 1.56112E-05 3.37350E-05 4.13590E-25
 -1       895 1.49476E-05 3.36919E-05-8.27181E-25
 -1       896 1.89956E-07 6.67256E-07-6.61744E-24
 -1       897 3.81550E-07 1.12967E-06-3.30872E-24
 -1       898 5.73108E-07 1.43575E-06 0.00000E+00
 -1       899 7.64982E-07 1.63272E-06-3.30872E-24
 -1       900 9.56876E-07 1.74645E-06-6.61744E-24
 -1       901 1.14883E-06 1.80216E-06 0.00000E+00
 -1       902 1.34079E-06 1.81372E-06 0.00000E+00
 -1       903 1.53275E-06 1.79460E-06 3.30872E-24
 -1       904 1.72471E-06 1.75232E-06 0.00000E+00
 -1       905 1.91661E-06 1.69419E-06 0.00000E+00
 -1       906 2.10848E-06 1.62442E-06-6.61744E-24
 -1       907 2.30012E-06 1.54711E-06 3.30872E-24
 -1       908 2.49172E-06 1.46492E-06 0.00000E+00
 -1       909 2.68214E-06 1.38045E-06 0.00000E+00
 -1       910 2.87294E-06 1.29586E-06 0.00000E+00
 -1       911 3.11299E-06 1.04359E-06 0.00000E+00
 -1       912 3.16922E-06 6.99745E-07 8.27181E-25
 -1       913 3.22534E-06 2.20336E-07 0.00000E+00
 -1       914 3.28156E-06-3.56378E-07 0.00000E+00
 -1       915 3.33775E-06-9.97503E-07-1.65436E-24
 -1       916 3.39395E-06-1.67028E-06 8.27181E-25
 -1       917 3.45014E-06-2.34370E-06 0.00000E+00
 -1       918 3.50635E-06-2.98675E-06-8.27181E-25
 -1       919 3.56259E-06-3.56676E-06-1.65436E-24
 -1       920 3.61882E-06-4.05089E-06 8.27181E-25
 -1       921 3.67508E-06-4.40105E-06 0.00000E+00
 -1       922 3.73113E-06-4.57880E-06 0.00000E+00
 -1       923 3.78716E-06-4.53624E-06 0.00000E+00
 -1       924 3.84192E-06-4.22495E-06 0.00000E+00
 -1       925 3.89694E-06-3.58179E-06 0.00000E+00
 -1       926 3.70476E-06-1.16893E-06 0.00000E+00
 -1       927 3.45818E-06 4.67578E-07 3.30872E-24
 -1       928 3.21184E-06 2.19125E-06 6.61744E-24
 -1       929 2.96454E-06 3.82571E-06 0.00000E+00
 -1       930 2.71756E-06 5.21412E-06 0.00000E+00
 -1       931 2.47082E-06 6.20224E-06 0.00000E+00
 -1       932 2.22438E-06 6.72350E-06 0.00000E+00
 -1       933 1.97802E-06 6.71623E-06 0.00000E+00
 -1       934 1.73154E-06 6.23449E-06 6.61744E-24
 -1       935 1.48476E-06 5.33734E-06-3.30872E-24
 -1       936 1.23771E-06 4.17478E-06 6.61744E-24
 -1       937 9.90442E-07 2.89965E-06 3.30872E-24
 -1       938 7.43237E-07 1.68939E-06 0.00000E+00
 -1       939 4.95879E-07 7.20769E-07 0.00000E+00
 -1       940 2.48926E-07 1.17650E-07 0.00000E+00
 -1       941 9.96908E-07 1.33551E-07 0.00000E+00
 -1       942 2.04871E-06 2.79918E-07 0.00000E+00
 -1       943 3.09705E-06 4.33798E-07-2.64698E-23
 -1       944 4.15582E-06 5.90254E-07-1.32349E-23
 -1       945 5.21489E-06 7.48230E-07 0.00000E+00
 -1       946 6.27605E-06 9.06751E-07 0.00000E+00
 -1       947 7.33746E-06 1.06566E-06 2.64698E-23
 -1       948 8.39921E-06 1.22481E-06 0.00000E+00
 -1       949 9.46099E-06 1.38446E-06 0.00000E+00
 -1       950 1.05225E-05 1.54487E-06 0.00000E+00
 -1       951 1.15838E-05 1.70745E-06-2.64698E-23
 -1       952 1.26435E-05 1.87372E-06-1.32349E-23
 -1       953 1.37029E-05 2.05082E-06-2.64698E-23
 -1       954 1.47539E-05 2.24638E-06-1.32349E-23
 -1       955 1.58077E-05 2.49600E-06 1.32349E-23
 -1       956 1.67630E-05 3.28012E-06-1.03398E-24
 -1       957 1.67080E-05 3.78507E-06-7.23783E-25
 -1       958 1.66528E-05 4.34660E-06 1.24077E-24
 -1       959 1.65974E-05 4.95819E-06 0.00000E+00
 -1       960 1.65420E-05 5.61333E-06-8.27181E-25
 -1       961 1.64865E-05 6.30545E-06 0.00000E+00
 -1       962 1.64311E-05 7.02796E-06 1.65436E-24
 -1       963 1.63755E-05 7.77431E-06 0.00000E+00
 -1       964 1.63200E-05 8.53790E-06 0.00000E+00
 -1       965 1.62645E-05 9.31215E-06 0.00000E+00
 -1       966 1.62090E-05 1.00905E-05 0.00000E+00
 -1       967 1.61535E-05 1.08663E-05 0.00000E+00
 -1       968 1.60980E-05 1.16331E-05-1.65436E-24
 -1       969 1.60426E-05 1.23842E-05 8.27181E-25
 -1       970 1.59874E-05 1.31131E-05 1.65436E-24
 -1       971 1.58228E-05 1.45671E-05 0.00000E+00
 -1       972 1.57094E-05 1.54776E-05 1.65436E-24
 -1       973 1.55960E-05 1.65258E-05 0.00000E+00
 -1       974 1.54820E-05 1.76919E-05 1.65436E-24
 -1       975 1.53677E-05 1.89564E-05-3.30872E-24
 -1       976 1.52533E-05 2.02993E-05 1.65436E-24
 -1       977 1.51388E-05 2.17008E-05-3.30872E-24
 -1       978 1.50243E-05 2.31408E-05 0.00000E+00
 -1       979 1.49097E-05 2.45994E-05 0.00000E+00
 -1       980 1.47951E-05 2.60565E-05-1.65436E-24
 -1       981 1.46806E-05 2.74921E-05 3.30872E-24
 -1       982 1.45662E-05 2.88863E-05 1.65436E-24
 -1       983 1.44521E-05 3.02190E-05 0.00000E+00
 -1       984 1.43387E-05 3.14704E-05-1.65436E-24
 -1       985 1.42253E-05 3.26205E-05 0.00000E+00
 -3
    1PSTEP                        12           6           1          
  100CL  106 4.25293E-01         841                     0    6           1
 -4  STRESS      6    1
 -5  SXX         1    4    1    1
 -5  SYY         1    4    2    2
 -5  SZZ         1    4    3    3
 -5  SXY         1    4    1    2
 -5  SYZ         1    4    2    3
 -5  SZX         1    4    3    1
 -1         1-1.76166E+06-5.64709E+05-3.62604E+05-5.01565E+05 1.38243E-10 1.21266E-10
 -1         2-1.11950E+06-5.92399E+04 1.53280E+03-1.10973E+05-2.85581E-10-1.81171E-09
 -1         3-5.80776E+05-2.02455E+05-2.01914E+04-4.82417E+04 1.06240E-10-2.60985E-09
 -1         4-2.92851E+05-5.36462E+04 4.47473E+02-2.86500E+04 2.64393E-10-3.21506E-10
 -1         5-1.49262E+05 8.64046E+04-7.52240E+04-4.49994E+03 4.04907E-09-3.12639E-12
 -1         8-9.46999E+05-3.78950E+05-1.44288E+05-3.53913E+05 2.18279E-11-2.44472E-09
 -1         9-1.01026E+06-2.26366E+05-1.26565E+05-2.28501E+05-4.33526E-10 4.79001E-10
 -1        10-5.10147E+05-2.86787E+05-2.36826E+04-1.26980E+05-2.24910E-09 7.00614E-10
 -1        11-2.93360E+05-8.25462E+04 3.76513E+02-6.34344E+04 1.52704E-09 1.88653E-10
 -1        12-1.85151E+05 6.87417E+04-8.50057E+04-2.81490E+04 4.89024E-09 2.80906E-10
 -1        15 8.81655E+03-3.99028E+04 1.87057E+03-8.39561E+04-1.39153E-10-2.54477E-09
 -1        16-5.50352E+05-9.59686E+04 2.30217E+04-2.54333E+05 1.00135E-09 6.08149E-10
 -1        17-3.41957E+05-2.29450E+05-3.78123E+04-1.87765E+05 1.46429E-10 1.74259E-09
 -1        18-1.67319E+05-8.55294E+04-6.26981E+04-9.57705E+04-1.25632E-09 8.68567E-10
 -1        19-3.58456E+04 4.46654E+04-3.44475E+04-2.94195E+04 1.58290E-09 1.00620E-09
 -1        20 6.02657E+04-4.41623E+04-7.32530E+03 3.22222E+04 2.94176E-09-3.00133E-10
 -1        21 3.25264E+02-8.97497E+04 2.25498E+04 2.32051E+02 9.26809E-09 1.29037E-09
 -1        22 1.83593E+04 1.08624E+05 7.05718E+02-2.53026E+04-2.14641E-10-5.84805E-10
 -1        23-2.16404E+05 3.59636E+03 2.27959E+03-9.83795E+04-2.02878E-09 7.59125E-10
 -1        24-1.23582E+05 1.90486E+04 1.48694E+05-2.58602E+05-4.78030E-09 1.50855E-09
 -1        25 3.24100E+05 1.11744E+05 1.01229E+05-1.65790E+05 5.19625E-10 7.69736E-10
 -1        26 1.58900E+03 1.00306E+05 5.20014E+03-1.96284E+04 7.65491E-10 1.91600E-10
 -1        27-2.35076E+04-3.77619E+04-1.63346E+04 4.33344E+04 3.78759E-09-5.85108E-11
 -1        28-7.57537E+03-7.01369E+04-4.11321E+02 3.37685E+04 5.11079E-09-3.13802E-10
 -1        29 2.63363E+05 1.81369E+05 7.51532E+02-2.39138E+03-1.97266E-10-1.41017E-09
 -1        30 8.58517E+04 2.59677E+04 1.10463E+03-2.53112E+04-3.25877E-10 2.36014E-10
 -1        31-3.09242E+05 2.64984E+04 2.57582E+03-6.07530E+04-8.30865E-10 4.01087E-10
 -1        32 4.28966E+05 2.51977E+05 3.06636E+05-2.60610E+05 5.72158E-09 2.29556E-09
 -1        33 7.39122E+05 3.13851E+05 2.31107E+05-2.83903E+04-9.29272E-09-3.75167E-10
 -1        34-1.21892E+05-1.73320E+04-5.25569E+03 2.27049E+04 1.32591E-09 1.03137E-09
 -1        35-1.95348E+04-2.32409E+04-4.27389E+02 5.00359E+04 5.19072E-09-1.22600E-09
 -1        36-2.40294E+06 7.30596E+04-1.69647E+05 3.48678E-08 2.55829E-10-3.49246E-09
 -1        37-2.47627E+06-8.45944E+04-1.19938E+05 2.06762E-08-2.55229E-09-5.92263E-09
 -1        38-2.43126E+06 1.13946E+04-4.38951E+04-1.79279E-07-2.34284E-09-2.21553E-09
 -1        39-2.44320E+06-1.31889E+04-2.75548E+04-1.73819E-08 1.26406E-09-1.47611E-09
 -1        40-2.43590E+06 1.77336E+03-1.12707E+04-2.81342E-07-8.62614E-10-6.76255E-09
 -1        41-2.43776E+06-2.07608E+03-6.70898E+03-1.14601E-07 2.52845E-10-2.12981E-09
 -1        42-2.43666E+06 2.99936E+02-3.26829E+03 8.11465E-09 3.16352E-10-2.52840E-09
 -1        43-2.43695E+06-5.19954E+02-2.55638E+03-1.68788E-07 6.88386E-10-4.64382E-09
 -1        44-2.43670E+06 2.19527E+02-2.53589E+03-1.47103E-07-4.19463E-10 6.47731E-10
 -1        45-2.43739E+06-1.38164E+03-4.59139E+03 2.56222E-08-3.59272E-09-1.65073E-09
 -1        46-2.43622E+06 1.16029E+03-7.45228E+03-4.66739E-08-2.21301E-09-1.19144E-10
 -1        47-2.44092E+06-8.60679E+03-1.80257E+04 1.01835E-10-1.96820E-09-3.60160E-10
 -1        48-2.43320E+06 7.43272E+03-2.86579E+04-1.56305E-07-5.11475E-10-1.24601E-09
 -1        49-2.46249E+06-5.51791E+04-7.82453E+04-9.01855E-08-1.02322E-09 9.65883E-10
 -1        50-2.41474E+06 4.76518E+04-1.10689E+05-3.61638E-09-1.99863E-09 1.16415E-09
 -1        51 1.96896E+04-2.29609E+05 3.17080E+04-6.14016E+05-4.36557E-11-7.63976E-10
 -1        52 8.50709E+03-2.26220E+05 1.90880E+04-6.77176E+05 3.34694E-10-3.05590E-10
 -1        53 5.15071E+03-2.31738E+05 1.51942E+04-6.12412E+05-7.27596E-11-1.24128E-08
 -1        54 1.21821E+04-2.28923E+05 2.28751E+04-6.78909E+05-1.45519E-10-2.44254E-08
 -1        55 2.90441E+04-2.36051E+05 4.13154E+04-6.12148E+05 4.36557E-11-1.07593E-08
 -1        56-2.64929E+06-2.99460E+05-2.16904E+05-1.02461E+06 2.61934E-10 3.24508E-09
 -1        57-2.74901E+06-4.78321E+05-1.45520E+05-1.00171E+06 5.49335E-10-8.44011E-10
 -1        58-2.69135E+06-3.67998E+05-5.10801E+04-1.01286E+06 6.63931E-11-2.72485E-09
 -1        59-2.70057E+06-3.97480E+05-3.02841E+04-1.01571E+06-1.23873E-09 6.84850E-09
 -1        60-2.69718E+06-3.77584E+05-1.19416E+04-1.01157E+06 3.52429E-11 4.59386E-09
 -1        61-2.69417E+06-3.85882E+05-6.75924E+03-1.01683E+06-1.38402E-09 2.38771E-09
 -1        62-2.69764E+06-3.79256E+05-3.29990E+03-1.01185E+06 1.11334E-09 5.26705E-09
 -1        63-2.69427E+06-3.83592E+05-2.76795E+03-1.01589E+06-1.00800E-09 3.93092E-09
 -1        64-2.69707E+06-3.79843E+05-3.23174E+03-1.01251E+06 8.81641E-11 1.41551E-09
 -1        65-2.69637E+06-3.83571E+05-6.55347E+03-1.01424E+06-4.98744E-10-6.52619E-09
 -1        66-2.69554E+06-3.79314E+05-1.15568E+04-1.01348E+06-2.54772E-10 5.78439E-10
 -1        67-2.70451E+06-3.92820E+05-2.92802E+04-1.01091E+06-1.32195E-09 3.91992E-09
 -1        68-2.68903E+06-3.70926E+05-4.93898E+04-1.01574E+06-3.31966E-10-1.02409E-09
 -1        69-2.75280E+06-4.69520E+05-1.40686E+05-9.95723E+05 1.14915E-09 1.21508E-09
 -1        70-2.64779E+06-3.05238E+05-2.09711E+05-1.02775E+06-6.11180E-10 4.27826E-09
 -1        71-1.13734E+06-1.91734E+03 4.45621E+03-9.57842E-08-3.89196E-10 4.16094E-11
 -1        72-1.13530E+06 2.22022E+03 3.14476E+03-8.97689E-08-1.46493E-09 1.04194E-09
 -1        73-1.13659E+06-2.98858E+02 1.14278E+03-1.80862E-07-5.90701E-10 2.17995E-10
 -1        74-1.13617E+06 3.44401E+02 7.00946E+02-1.37767E-07-1.05124E-09-5.03815E-09
 -1        75-1.13647E+06-4.49737E+01 2.51771E+02-8.03819E-08-2.20560E-10-1.00445E-09
 -1        76-1.13632E+06 4.23677E+01 8.10433E+01 1.44562E-07-7.70241E-10 1.56271E-09
 -1        77-1.13644E+06 2.67770E+00-9.30133E+01-1.08597E-07 2.67924E-10 2.88676E-09
 -1        78-1.13639E+06-6.62050E+01-3.26344E+02 9.08054E-08 5.44072E-10 4.48745E-09
 -1        79-1.13641E+06 6.34647E+01-6.47975E+02-1.07178E-07-9.56569E-11-1.48208E-09
 -1        80-1.13661E+06-4.82627E+02-1.52269E+03-1.66802E-07-1.40069E-09 3.23200E-09
 -1        81-1.13622E+06 4.18496E+02-2.64014E+03-4.68187E-08 7.47578E-11-3.61524E-10
 -1        82-1.13790E+06-3.11946E+03-6.51136E+03-1.26664E-07 4.07608E-10 8.68567E-11
 -1        83-1.13512E+06 2.69590E+03-1.03917E+04-1.91875E-07-5.04767E-11-2.01726E-09
 -1        84-1.14572E+06-2.00156E+04-2.83917E+04-7.13721E-08 5.87310E-11 6.54836E-10
 -1        85-1.12842E+06 1.72842E+04-4.01786E+04 5.28060E-08-1.44082E-09 1.42609E-09
 -1        86-5.48864E+04 2.13201E+05 1.29754E+05 9.40191E+02 3.63798E-11 3.18778E-10
 -1        87 6.84295E+04 2.71144E+05 1.00322E+05-4.12333E+03-8.09450E-11-1.70701E-10
 -1        88-1.34138E+04 2.32248E+05 5.11372E+04 5.42197E+02-3.13776E-10-3.61581E-10
 -1        89 4.66918E+04 2.60964E+05 7.18908E+04-3.57842E+03 9.27685E-11 1.15562E-09
 -1        90-3.31883E+04 2.23364E+05 8.08041E+04 3.95378E+02-4.72937E-10 2.67175E-10
 -1        91-1.21218E+06-1.64882E+05-1.69143E+04-4.58801E+05 9.58153E-10-2.47201E-09
 -1        92-1.22446E+06-1.76701E+05-1.17059E+04-4.51670E+05 1.34355E-09-1.42222E-10
 -1        93-1.21471E+06-1.71768E+05-3.96495E+03-4.58606E+05 7.16796E-10 1.91380E-09
 -1        94-1.22049E+06-1.69666E+05-2.47352E+03-4.52956E+05-1.70993E-09 2.36435E-09
 -1        95-1.21615E+06-1.71906E+05-9.69351E+02-4.57515E+05-1.31521E-09-2.10053E-09
 -1        96-1.21722E+06-1.71104E+05-5.84624E+02-4.56025E+05 8.16122E-10-3.01932E-09
 -1        97-1.21796E+06-1.70332E+05-3.98811E+02-4.55534E+05-6.70411E-10-1.14353E-09
 -1        98-1.21453E+06-1.73756E+05-5.02606E+02-4.59177E+05-4.37507E-09 1.24234E-09
 -1        99-1.21884E+06-1.69251E+05-7.87749E+02-4.54365E+05-3.97374E-09-2.49059E-09
 -1       100-1.21457E+06-1.74687E+05-1.87694E+03-4.59492E+05-2.95574E-09-4.02247E-09
 -1       101-1.21793E+06-1.69400E+05-3.24872E+03-4.55221E+05-4.88853E-10-4.59761E-09
 -1       102-1.21911E+06-1.76175E+05-8.66077E+03-4.56068E+05 7.69433E-10-3.69585E-09
 -1       103-1.21430E+06-1.67773E+05-1.39546E+04-4.57786E+05-2.21098E-09-1.83809E-09
 -1       104-1.23612E+06-1.98035E+05-4.12354E+04-4.48186E+05-8.38554E-10 1.49657E-09
 -1       105-1.20096E+06-1.47577E+05-5.94819E+04-4.63101E+05-9.04947E-10-1.89175E-10
 -1       106-6.22785E+05-2.31001E+03 5.37079E+03 7.64736E-08-6.65793E-10-1.19599E-10
 -1       107-6.20402E+05 2.67505E+03 3.79260E+03 1.09442E-07-2.54501E-10 6.77346E-10
 -1       108-6.21888E+05-3.60191E+02 1.38360E+03-1.43954E-07-3.56592E-10 1.11078E-09
 -1       109-6.21448E+05 4.15951E+02 8.57970E+02-6.90613E-08-6.15793E-10-3.97587E-09
 -1       110-6.21740E+05-5.50738E+01 3.28694E+02-1.23651E-09 1.03478E-10-1.08618E-09
 -1       111-6.21625E+05 5.78780E+01 1.51463E+02-6.68458E-08-1.10131E-10 8.68610E-10
 -1       112-6.21712E+05-2.71688E+00-1.12646E+01-1.90374E-07 7.34014E-10 1.74460E-09
 -1       113-6.21676E+05-3.47882E+01-1.71655E+02-1.44668E-07 5.02966E-10 1.38075E-09
 -1       114-6.21688E+05 3.74725E+01-3.78494E+02-9.38906E-08 3.83813E-10-3.57005E-10
 -1       115-6.21812E+05-2.89213E+02-9.09561E+02 2.14106E-08 6.29793E-10-2.81374E-09
 -1       116-6.21576E+05 2.51341E+02-1.58458E+03-7.38991E-09 3.55362E-10-1.95075E-09
 -1       117-6.22588E+05-1.87411E+03-3.91245E+03-9.90598E-08-9.22345E-10-2.20075E-09
 -1       118-6.20914E+05 1.61969E+03-6.24564E+03-6.92225E-08-5.47398E-10-1.59821E-09
 -1       119-6.27286E+05-1.20255E+04-1.70613E+04-4.72205E-08-4.69000E-10 7.96945E-10
 -1       120-6.16883E+05 1.03844E+04-2.41446E+04-8.60415E-08 2.34839E-10 3.31056E-10
 -1       121-9.72108E+02-6.37717E+05 4.34881E+03 5.94857E+03-6.57110E-11-1.70280E-09
 -1       122 1.41355E+03-6.36037E+05 3.18064E+03 2.33437E+04-5.94582E-11 2.05557E-09
 -1       123-2.03296E+02-6.37148E+05 2.03205E+03 6.02984E+03-1.17382E-10 3.97358E-09
 -1       124 1.29958E+03-6.36042E+05 3.01189E+03 2.30926E+04-7.95808E-11 5.57270E-09
 -1       125-9.25480E+02-6.37642E+05 4.01354E+03 6.19980E+03-4.87262E-10 3.16140E-09
 -1       126-5.67937E+05-8.04677E+04 3.00648E+03-2.11662E+05 1.77801E-09-1.19087E-09
 -1       127-5.63700E+05-7.99960E+04 2.12961E+03-2.14803E+05 1.63021E-09-2.87912E-11
 -1       128-5.67910E+05-7.86866E+04 7.02367E+02-2.11070E+05-1.25445E-09-2.29761E-09
 -1       129-5.63763E+05-8.20343E+04 4.40401E+02-2.15468E+05-1.21137E-09-1.26760E-09
 -1       130-5.67879E+05-7.84282E+04 1.48791E+02-2.10999E+05-1.95822E-09 9.73614E-10
 -1       131-5.64287E+05-8.17684E+04 7.86299E+01-2.14884E+05-4.84874E-11 1.38432E-09
 -1       132-5.67384E+05-7.89549E+04-4.34440E+01-2.11652E+05 5.17872E-10 3.04492E-09
 -1       133-5.65682E+05-8.03564E+04-9.11650E+01-2.13160E+05 6.04537E-10-7.42865E-10
 -1       134-5.66480E+05-7.98440E+04-2.97266E+02-2.12719E+05 5.81196E-10 1.01267E-10
 -1       135-5.67615E+05-7.88261E+04-6.63910E+02-2.11107E+05-5.15438E-10 9.14909E-10
 -1       136-5.65452E+05-8.04847E+04-1.23061E+03-2.13706E+05 1.28328E-09-1.49333E-09
 -1       137-5.69824E+05-7.90777E+04-3.27465E+03-2.09481E+05 2.54971E-10 2.99679E-10
 -1       138-5.64278E+05-7.95906E+04-5.26969E+03-2.14348E+05-6.81325E-10-2.28624E-09
 -1       139-5.75269E+05-8.83045E+04-1.55900E+04-2.07610E+05 3.02208E-09-1.65028E-09
 -1       140-5.60014E+05-7.12717E+04-2.25058E+04-2.15575E+05 3.56977E-10 1.03864E-09
 -1       141-2.82026E+05-2.58457E+03 6.00859E+03-1.77683E-07 6.79985E-11-2.26464E-10
 -1       142-2.79398E+05 2.99285E+03 4.24082E+03-1.31636E-07 1.83706E-11-3.99211E-10
 -1       143-2.81022E+05-4.02873E+02 1.54201E+03-4.87987E-08 2.16053E-10-1.48930E-10
 -1       144-2.80569E+05 4.64332E+02 9.46451E+02 1.05100E-07-3.31285E-10-1.81436E-09
 -1       145-2.80856E+05-6.06868E+01 3.41434E+02-1.89988E-07-1.13273E-10 1.16651E-09
 -1       146-2.80770E+05 5.75766E+01 1.12919E+02-9.76243E-08 1.15634E-10 1.98784E-09
 -1       147-2.80820E+05 3.20671E+00-1.18847E+02-7.97270E-08-8.00075E-11-1.24369E-09
 -1       148-2.80852E+05-8.62009E+01-4.25623E+02-8.08028E-08-1.11711E-10 1.93189E-09
 -1       149-2.80774E+05 8.29123E+01-8.47585E+02-5.82061E-08-2.05379E-11 1.19439E-09
 -1       150-2.81142E+05-6.30792E+02-1.99233E+03 8.83362E-09 1.38438E-10-1.83832E-09
 -1       151-2.80531E+05 5.47015E+02-3.45478E+03-3.46901E-08-9.10523E-11 4.82714E-10
 -1       152-2.82828E+05-4.07736E+03-8.51727E+03-1.11143E-07 4.43366E-10 7.75799E-10
 -1       153-2.79089E+05 3.52372E+03-1.35925E+04 1.93056E-08 9.72791E-10 9.50422E-10
 -1       154-2.93048E+05-2.61615E+04-3.71222E+04 2.95761E-08 4.78611E-10 2.31012E-10
 -1       155-2.70313E+05 2.25916E+04-5.25260E+04-7.83901E-08 2.37471E-09 3.63798E-11
 -1       156-8.86700E+03-1.25022E+05 2.12627E+04-1.05533E+03-3.22871E-10-3.72495E-10
 -1       157 1.17530E+04-1.15303E+05 1.76844E+04 4.38620E+03-8.21728E-10-1.74908E-09
 -1       158-2.86427E+03-1.22299E+05 1.09207E+04-1.04489E+03-2.62020E-10 2.14249E-09
 -1       159 1.28437E+04-1.14712E+05 1.91205E+04 4.22313E+03 5.63887E-11 1.00007E-09
 -1       160-9.95912E+03-1.25608E+05 2.36871E+04-8.92247E+02 1.23146E-09-2.12310E-09
 -1       161-3.19659E+05-4.43613E+04-1.35474E+03-1.20020E+05-6.52136E-10 3.10251E-10
 -1       162-3.20073E+05-4.58653E+04-9.42163E+02-1.20084E+05 2.98247E-10-1.49595E-09
 -1       163-3.19956E+05-4.48235E+04-3.25341E+02-1.19903E+05-4.65391E-10 1.02953E-09
 -1       164-3.19741E+05-4.53198E+04-2.16336E+02-1.20205E+05 3.96852E-10 2.15579E-09
 -1       165-3.19991E+05-4.49059E+04-1.10124E+02-1.19899E+05 3.59627E-10 1.85753E-09
 -1       166-3.19741E+05-4.52032E+04-1.26877E+02-1.20170E+05-9.52616E-11 1.32194E-09
 -1       167-3.19956E+05-4.49400E+04-1.77887E+02-1.19938E+05-4.61822E-10-2.46704E-09
 -1       168-3.19874E+05-4.51939E+04-3.93811E+02-1.20062E+05 6.57874E-11 5.69173E-10
 -1       169-3.19857E+05-4.49153E+04-7.07852E+02-1.20007E+05 2.39126E-10-1.58960E-09
 -1       170-3.20331E+05-4.56585E+04-1.77045E+03-1.19847E+05 1.70786E-10-1.93498E-09
 -1       171-3.19499E+05-4.44762E+04-3.06364E+03-1.20153E+05-2.71768E-10-8.83915E-10
 -1       172-3.22589E+05-4.92256E+04-8.24398E+03-1.19079E+05 4.32635E-10 2.19200E-09
 -1       173-3.17601E+05-4.13534E+04-1.32236E+04-1.20773E+05-1.35879E-09 2.58387E-09
 -1       174-3.36013E+05-7.25902E+04-3.91308E+04-1.14616E+05-5.28507E-09 6.38147E-09
 -1       175-3.06083E+05-2.11459E+04-5.64158E+04-1.24604E+05-2.34922E-09 2.30284E-09
 -1       191 9.00558E+02 3.26308E+05 1.46658E+03-8.52912E+03-1.76442E-10-7.69887E-09
 -1       192 3.27182E+02 3.26520E+05 8.78171E+02-9.14297E+03 2.21803E-10-1.82663E-08
 -1       193 1.50914E+02 3.26377E+05 7.06924E+02-8.38523E+03-4.50200E-10 3.06409E-09
 -1       194 4.33952E+02 3.26548E+05 1.07042E+03-9.41183E+03 2.37605E-10 1.99784E-08
 -1       195 1.23088E+03 3.26260E+05 1.94474E+03-8.25938E+03-7.93079E-10 1.12959E-08
 -1       251-1.50449E+06 3.48274E+04-8.09811E+04-9.08366E+03-3.67351E-10 6.40284E-10
 -1       252-1.53886E+06-4.02747E+04-5.71141E+04 1.77581E+04-2.86107E-10 2.73576E-09
 -1       253-1.51854E+06 5.40161E+03-2.10810E+04-6.45627E+03-2.39595E-10-2.36469E-11
 -1       254-1.52189E+06-6.21283E+03-1.28174E+04 5.97792E+03-5.59368E-10-1.30876E-09
 -1       255-1.52134E+06 7.56037E+02-5.65722E+03 2.69672E+03-7.47377E-10-9.70658E-10
 -1       256-1.51980E+06-9.23270E+02-3.01034E+03-1.05379E+04 6.03293E-10-7.00311E-10
 -1       257-1.52065E+06 1.47330E+02-1.70089E+03 1.00597E+04-8.13401E-10 9.24331E-10
 -1       258-1.52029E+06-2.44841E+02-1.39163E+03-1.67930E+04 8.52829E-11-7.85501E-10
 -1       259-1.52090E+06 1.26374E+02-1.75393E+03 8.95214E+03-9.55197E-10 1.00022E-09
 -1       260-1.51948E+06-9.18328E+02-2.95159E+03-7.11379E+03-1.38812E-10 1.54432E-09
 -1       261-1.52139E+06 7.54706E+02-5.67185E+03 3.80143E+02 4.12342E-10 3.19960E-09
 -1       262-1.52214E+06-6.22837E+03-1.28785E+04 9.71370E+03-5.43167E-10-6.29370E-10
 -1       263-1.51826E+06 5.43254E+03-2.10398E+04-7.87549E+03-1.72756E-09-4.45652E-11
 -1       264-1.53898E+06-4.03087E+04-5.71845E+04 1.83907E+04-5.58330E-09 2.09184E-09
 -1       265-1.50466E+06 3.48360E+04-8.10939E+04-8.29705E+03-3.78623E-09-3.10320E-09
 -1       266-1.36391E+04-2.52915E+05 3.07443E+04 4.48723E+03 3.45608E-11-1.40119E-10
 -1       267 1.46337E+04-2.38497E+05 1.98022E+04-1.57753E+04 4.72937E-11-2.16821E-09
 -1       268-9.21115E+02-2.46311E+05 3.48943E+03 5.26516E+03-7.18501E-11-6.10456E-10
 -1       269-6.47114E+03-2.48607E+05-7.82650E+03-1.61245E+04-6.04814E-11-4.14666E-10
 -1       270 7.44055E+03-2.42829E+05-1.66604E+04 4.83648E+03-4.54747E-12 2.15169E-09
 -1       271-2.28348E+06-2.88113E+05-1.77387E+05-8.84034E+05 1.10049E-09 1.54978E-09
 -1       272-2.34238E+06-4.07456E+05-1.11962E+05-8.88120E+05-1.50317E-09-6.32463E-09
 -1       273-2.31483E+06-3.27856E+05-4.18472E+04-8.78746E+05-1.11308E-09-2.51384E-09
 -1       274-2.30593E+06-3.56119E+05-2.29932E+04-8.97341E+05 8.09450E-10-7.20775E-10
 -1       275-2.31888E+06-3.31647E+05-9.73550E+03-8.77785E+05-2.76941E-10-1.16052E-09
 -1       276-2.30114E+06-3.51416E+05-5.15927E+03-8.98997E+05 6.89397E-10-3.14276E-09
 -1       277-2.31962E+06-3.31792E+05-2.65134E+03-8.77422E+05-4.49973E-10 5.48539E-10
 -1       278-2.30036E+06-3.51265E+05-2.09417E+03-8.99502E+05 3.87445E-10 5.30447E-09
 -1       279-2.31970E+06-3.31714E+05-2.51922E+03-8.77337E+05 5.27812E-10-6.46537E-10
 -1       280-2.30083E+06-3.51662E+05-4.80280E+03-8.99368E+05-9.78275E-10-5.96629E-10
 -1       281-2.31914E+06-3.31447E+05-9.00014E+03-8.77532E+05 6.53358E-10 1.69757E-09
 -1       282-2.30506E+06-3.56222E+05-2.12471E+04-8.98110E+05-1.93722E-10-1.30149E-09
 -1       283-2.31551E+06-3.27844E+05-3.86421E+04-8.78311E+05 3.16049E-10 8.84029E-10
 -1       284-2.33855E+06-4.03815E+05-1.03406E+05-8.89809E+05-6.62340E-10-1.85537E-09
 -1       285-2.28664E+06-2.91056E+05-1.63822E+05-8.83103E+05-3.96540E-10-7.71252E-10
 -1       286-3.96104E+05-8.09114E+03 1.87948E+04-7.15581E+02 9.03825E-10 1.80808E-09
 -1       287-3.87750E+05 9.36979E+03 1.33143E+04 2.76872E+02 7.15595E-10-9.95897E-10
 -1       288-3.92978E+05-1.26479E+03 4.85817E+03-9.95124E+01 4.88157E-10 1.28171E-09
 -1       289-3.91415E+05 1.46302E+03 3.08532E+03-9.40363E+02 2.99984E-10 2.79442E-10
 -1       290-3.92443E+05-1.98706E+02 1.25551E+03 5.01685E+02 1.47779E-10 2.61815E-09
 -1       291-3.92070E+05 2.35319E+02 7.85294E+02-1.96453E+03 1.29887E-09 1.36328E-09
 -1       292-3.92327E+05-3.67995E+01 4.15244E+02 9.24670E+02 7.02663E-10 4.49020E-10
 -1       293-3.92198E+05 8.36027E+01 4.05591E+02-2.52051E+03 2.12859E-10 1.96389E-09
 -1       294-3.92318E+05-4.51394E+01 4.99490E+02 1.05767E+03 1.28547E-09-2.47005E-09
 -1       295-3.92072E+05 3.12295E+02 1.01209E+03-2.46141E+03 9.00540E-10-6.19806E-10
 -1       296-3.92452E+05-2.65394E+02 1.68532E+03 8.65573E+02 6.06725E-10 1.48532E-09
 -1       297-3.91207E+05 1.97037E+03 4.13411E+03-1.80329E+03 1.24496E-09 8.52197E-10
 -1       298-3.93180E+05-1.70274E+03 6.55206E+03 3.99536E+02 3.38474E-10-1.48157E-09
 -1       299-3.86225E+05 1.26275E+04 1.79357E+04-7.25662E+02-4.52843E-10 1.06365E-09
 -1       300-3.97426E+05-1.09049E+04 2.53342E+04-2.12077E+02 6.16964E-10 2.92675E-09
 -1       301 3.13532E+04 1.72218E+04 6.86382E+04-2.06385E+04 1.89902E-09-1.78386E-09
 -1       302 1.05930E+04 3.00567E+04 4.16611E+04-2.42212E+04 1.66847E-09 4.30789E-10
 -1       303 2.95097E+03 2.18136E+04 3.28020E+04-2.06625E+04 1.90335E-09-1.11231E-09
 -1       304 1.30189E+04 3.14809E+04 4.81250E+04-2.41985E+04 1.53113E-09 1.04592E-10
 -1       305 3.92258E+04 1.58059E+04 8.43247E+04-2.06496E+04 1.93540E-09 2.21303E-09
 -1       306-1.57343E+06-2.04092E+05-1.05831E+05-6.09803E+05 2.82853E-10 1.71713E-09
 -1       307-1.59908E+06-2.84512E+05-6.67587E+04-6.22933E+05 3.36513E-11-2.32194E-09
 -1       308-1.59222E+06-2.27649E+05-2.49786E+04-6.06565E+05 3.13548E-10 3.41970E-10
 -1       309-1.57733E+06-2.54022E+05-1.37237E+04-6.28608E+05-1.07889E-09-1.74077E-09
 -1       310-1.59467E+06-2.29867E+05-5.82908E+03-6.05972E+05 7.81711E-10 1.57070E-09
 -1       311-1.57450E+06-2.51218E+05-3.11578E+03-6.29626E+05 1.66995E-09 4.84420E-10
 -1       312-1.59509E+06-2.29966E+05-1.65838E+03-6.05780E+05 3.31511E-10 1.56768E-09
 -1       313-1.57412E+06-2.51066E+05-1.41711E+03-6.29850E+05 3.15924E-09 6.49766E-09
 -1       314-1.59508E+06-2.29967E+05-1.84235E+03-6.05787E+05-4.42128E-10 3.61524E-10
 -1       315-1.57459E+06-2.51263E+05-3.62468E+03-6.29590E+05-7.35895E-10 1.31786E-09
 -1       316-1.59459E+06-2.29830E+05-6.85847E+03-6.05995E+05-1.09321E-09-4.99313E-10
 -1       317-1.57788E+06-2.54640E+05-1.62033E+04-6.28472E+05-1.44314E-09-2.43745E-10
 -1       318-1.59174E+06-2.27155E+05-2.94990E+04-6.06641E+05-1.08798E-09-2.06273E-09
 -1       319-1.60348E+06-2.90797E+05-7.88709E+04-6.21943E+05 1.61435E-10-2.82671E-09
 -1       320-1.56963E+06-1.99221E+05-1.25006E+05-6.10366E+05-3.94721E-10 5.31145E-10
 -1       321-3.68248E+05-1.20291E+04 2.79664E+04-2.88432E+02-1.03020E-09 1.67529E-09
 -1       322-3.56020E+05 1.39302E+04 1.97740E+04-3.28861E+02-1.55690E-09-2.54886E-10
 -1       323-3.63576E+05-1.87712E+03 7.23228E+03 8.67996E+01-4.83183E-10-2.17960E-09
 -1       324-3.61477E+05 2.17152E+03 4.54384E+03-1.02164E+03-6.26645E-10-3.60728E-10
 -1       325-3.62797E+05-2.91719E+02 1.84128E+03 4.04368E+02-3.53644E-10-1.01022E-09
 -1       326-3.62399E+05 3.37394E+02 1.07307E+03-1.51559E+03-2.16879E-10-1.40079E-09
 -1       327-3.62657E+05-4.50588E+01 4.69928E+02 5.80755E+02-5.78156E-10-2.84217E-13
 -1       328-3.62561E+05 5.45726E+01 2.68422E+02-1.68387E+03-3.65006E-10 3.40737E-10
 -1       329-3.62636E+05-8.83976E+00 1.38477E+02 5.72657E+02-1.89715E-10-4.78195E-12
 -1       330-3.62567E+05 2.43757E+01 1.16218E+02-1.48495E+03-2.80995E-10-1.55237E-09
 -1       331-3.62650E+05-1.54391E+01 1.14949E+02 3.81825E+02-3.14422E-10-2.12747E-10
 -1       332-3.62503E+05 1.06299E+02 2.41096E+02-9.67305E+02-1.23208E-11 6.53841E-10
 -1       333-3.62698E+05-9.16822E+01 3.49987E+02 5.50078E+01 5.74886E-10 1.91802E-09
 -1       334-3.62227E+05 6.72894E+02 9.65278E+02-2.57479E+02 1.54069E-09 1.47685E-09
 -1       335-3.62925E+05-5.81601E+02 1.34101E+03-3.28012E+02-7.77860E-10-2.54857E-09
 -1       336-6.46468E+02-6.46325E+05 1.81902E+03-7.71365E+03-9.39508E-10-1.14096E-09
 -1       337 2.84764E+02-6.45789E+05-1.34699E+03-3.22816E+04-7.07757E-10-2.20007E-09
 -1       338 5.15029E+02-6.45464E+05-5.37190E+03-7.56186E+03-1.02909E-09 1.65369E-09
 -1       339-7.37102E+03-6.50403E+05-1.49581E+04-3.24597E+04-5.36375E-10 4.32692E-10
 -1       340 5.56687E+03-6.41787E+05-2.39098E+04-7.53736E+03-7.65795E-10 2.43450E-09
 -1       341-1.03510E+06-1.29941E+05-4.31897E+04-3.97206E+05-2.53931E-09 0.00000E+00
 -1       342-1.05964E+06-1.67502E+05-2.99378E+04-3.87440E+05-2.05182E-09 4.07454E-10
 -1       343-1.04493E+06-1.44431E+05-1.01446E+04-3.93152E+05-5.38876E-11-7.65795E-10
 -1       344-1.04740E+06-1.51576E+05-6.32410E+03-3.93097E+05-7.48258E-10 1.84809E-09
 -1       345-1.04731E+06-1.45839E+05-2.41396E+03-3.91553E+05-2.00342E-09 1.75646E-10
 -1       346-1.04464E+06-1.49989E+05-1.50579E+03-3.94972E+05-1.21950E-10 2.40888E-10
 -1       347-1.04769E+06-1.46011E+05-8.37423E+02-3.91279E+05-8.21650E-10 1.95449E-09
 -1       348-1.04506E+06-1.49095E+05-9.98612E+02-3.94302E+05 3.29411E-10 1.54768E-09
 -1       349-1.04689E+06-1.46735E+05-1.44389E+03-3.92221E+05-1.18072E-09 1.15449E-09
 -1       350-1.04755E+06-1.48180E+05-3.33798E+03-3.91939E+05-2.83734E-10-2.16835E-09
 -1       351-1.04521E+06-1.46928E+05-5.73596E+03-3.93641E+05-1.78716E-10 1.52795E-10
 -1       352-1.05324E+06-1.53395E+05-1.53590E+04-3.88888E+05-3.15936E-10-1.01500E-09
 -1       353-1.04121E+06-1.41528E+05-2.46291E+04-3.95274E+05-6.96218E-10-5.91172E-11
 -1       354-1.07813E+06-1.97063E+05-7.28949E+04-3.80719E+05 2.64390E-09 8.76753E-10
 -1       355-1.02035E+06-1.03326E+05-1.05098E+05-4.01799E+05 6.03904E-10 1.09867E-09
 -1       356-3.62463E+05-5.97055E+02 1.38055E+03-4.76092E+02 8.37730E-11 3.45665E-10
 -1       357-3.61796E+05 6.91106E+02 9.76787E+02 3.19784E+02-1.49916E-09 1.89011E-09
 -1       358-3.62237E+05-9.34944E+01 3.40201E+02-2.12073E+02-2.43617E-10-1.00262E-09
 -1       359-3.62063E+05 1.05639E+02 1.98501E+02-2.30221E+02-2.60194E-10 1.90167E-09
 -1       360-3.62196E+05-1.28353E+01 2.68107E+01 7.39235E+01 8.30489E-10 5.23258E-10
 -1       361-3.62126E+05 2.57650E-01-7.45920E+01-7.54511E+02-2.05514E-10-2.65529E-09
 -1       362-3.62174E+05 1.21068E+01-2.25264E+02 3.12225E+02-3.46745E-12-1.52106E-09
 -1       363-3.62204E+05-1.07134E+02-5.28564E+02-1.12511E+03 2.19277E-08-2.96438E-10
 -1       364-3.62119E+05 9.50311E+01-9.79504E+02 4.44525E+02 3.04471E-06-2.25685E-09
 -1       365-3.62533E+05-7.13572E+02-2.26128E+03-1.25172E+03 6.05350E-06 3.98836E-09
 -1       366-3.61846E+05 6.17935E+02-3.90644E+03 4.38838E+02 3.04388E-06-1.40699E-09
 -1       367-3.64428E+05-4.60398E+03-9.61826E+03-1.10318E+03 2.31844E-08-2.05250E-09
 -1       368-3.60225E+05 3.97863E+03-1.53504E+04 2.95985E+02 1.82970E-09-2.42017E-09
 -1       369-3.75954E+05-2.95402E+04-4.19129E+04-7.08890E+02 8.25651E-11 2.26191E-09
 -1       370-3.50323E+05 2.55090E+04-5.93126E+04 4.45481E+01 3.68460E-09 2.13913E-09
 -1       371-9.62107E+03-1.25688E+05 2.18892E+04 1.18660E+03 2.86127E-09-1.65777E-10
 -1       372 1.00881E+04-1.16504E+05 1.35368E+04-4.38146E+03 3.33148E-09 1.78521E-09
 -1       373-4.43468E+02-1.21431E+05 1.68822E+03 1.20447E+03 3.07136E-09 1.50759E-09
 -1       374-6.26377E+03-1.24013E+05-7.82862E+03-4.25766E+03 2.75418E-09 1.43057E-10
 -1       375 6.69813E+03-1.18177E+05-1.49535E+04 1.06278E+03 1.79807E-09 7.34417E-10
 -1       376-5.59412E+05-7.08654E+04-2.24124E+04-2.14873E+05 2.60025E-09 5.27507E-11
 -1       377-5.73296E+05-8.92465E+04-1.55446E+04-2.08549E+05 1.26010E-09 1.90857E-09
 -1       378-5.64039E+05-7.88426E+04-5.26284E+03-2.13297E+05-1.11686E-09 3.79714E-11
 -1       379-5.67525E+05-8.03728E+04-3.28781E+03-2.10777E+05-1.16832E-09-1.73259E-10
 -1       380-5.65176E+05-7.97259E+04-1.26837E+03-2.12648E+05 9.27869E-10 1.34150E-10
 -1       381-5.65751E+05-7.98292E+04-7.90956E+02-2.12055E+05 4.25118E-10-8.94318E-10
 -1       382-5.65810E+05-7.93850E+04-4.84533E+02-2.12018E+05-5.89253E-11-1.61226E-09
 -1       383-5.64764E+05-8.06585E+04-6.15210E+02-2.13166E+05 7.48173E-10-2.25434E-09
 -1       384-5.66164E+05-7.88957E+04-9.28862E+02-2.11538E+05-1.73665E-09-3.67442E-09
 -1       385-5.64674E+05-8.18662E+04-2.20139E+03-2.13681E+05-1.31263E-09-9.99989E-10
 -1       386-5.65902E+05-7.81771E+04-3.77045E+03-2.11505E+05 1.25692E-09 1.21895E-09
 -1       387-5.67437E+05-8.62294E+04-1.01158E+04-2.12728E+05 1.58849E-09-5.02496E-10
 -1       388-5.63405E+05-7.45394E+04-1.62278E+04-2.12489E+05 1.93722E-09 1.92358E-09
 -1       389-5.84528E+05-1.14232E+05-4.79960E+04-2.06488E+05-4.80395E-09 3.29555E-09
 -1       390-5.48824E+05-5.02178E+04-6.92193E+04-2.17732E+05-3.43607E-09 1.28784E-09
 -1       406 1.00558E+03 3.22288E+05 2.05774E+03-2.95135E+04-1.00135E-09 2.49747E-09
 -1       407 5.91662E+02 3.22651E+05 2.28037E+03-3.24526E+04 1.60981E-10-2.15186E-09
 -1       408 8.60936E+02 3.22246E+05 3.57502E+03-2.94000E+04-1.15188E-09 6.58474E-10
 -1       409 3.43340E+03 3.23614E+05 7.56021E+03-3.26134E+04 3.11047E-10 2.12640E-09
 -1       410 9.91933E+03 3.21281E+05 1.51796E+04-2.93457E+04-1.24419E-09 1.86901E-09
 -1       466 1.14339E+06-4.58613E+04 1.06526E+05 5.89491E+03-3.15367E-10-2.36469E-09
 -1       467 1.19078E+06 5.30779E+04 7.55006E+04-1.01384E+04 5.61613E-11 1.81899E-12
 -1       468 1.16173E+06-7.13618E+03 2.76376E+04 1.80255E+03 3.18437E-10-2.69210E-10
 -1       469 1.16945E+06 8.25994E+03 1.74106E+04-4.48752E+03 1.27267E-09-1.22782E-10
 -1       470 1.16473E+06-1.11154E+03 7.21015E+03 2.44286E+02-2.25619E-10-5.77529E-11
 -1       471 1.16598E+06 1.32600E+03 4.45641E+03-2.36539E+03 3.99147E-11 1.05911E-09
 -1       472 1.16521E+06-2.11480E+02 2.48639E+03-3.19612E+02 6.98376E-10 1.83360E-09
 -1       473 1.16556E+06 5.12469E+02 2.54015E+03-1.69984E+03 4.76602E-10-2.50238E-09
 -1       474 1.16516E+06-2.98893E+02 3.28265E+03-4.21274E+02 6.74238E-10 1.13664E-09
 -1       475 1.16638E+06 2.08001E+03 6.75437E+03-1.86365E+03 1.00899E-09 1.79261E-09
 -1       476 1.16438E+06-1.77672E+03 1.13566E+04-1.55793E+02 1.08277E-09 2.23781E-09
 -1       477 1.17185E+06 1.32219E+04 2.77272E+04-3.01292E+03 1.51088E-09-1.28239E-09
 -1       478 1.15967E+06-1.14221E+04 4.41659E+04 7.28016E+02-6.64031E-10 3.67436E-10
 -1       479 1.20517E+06 8.48358E+04 1.20511E+05-6.29764E+03 9.87399E-10-9.36780E-10
 -1       480 1.13103E+06-7.32535E+04 1.70514E+05 3.12867E+03 2.49764E-09-2.69210E-10
 -1       481-8.91399E+03 1.87987E+05 2.08642E+04-9.74770E+02 4.54747E-11 3.52401E-10
 -1       482 1.07113E+04 1.97379E+05 1.54715E+04 1.36023E+03-1.60071E-10 4.44352E-09
 -1       483-1.78243E+03 1.91302E+05 6.78684E+03-6.42030E+02-1.07548E-10 2.37641E-09
 -1       484 4.58612E+03 1.94479E+05 7.45460E+03 7.83913E+02-4.91696E-12 5.65649E-10
 -1       485-2.79788E+03 1.90885E+05 7.08768E+03-3.98471E+02 1.06866E-10-7.03579E-10
 -1       486-1.06218E+06-1.16403E+05-1.00991E+05-4.24241E+05-8.31278E-10-1.60071E-09
 -1       487-1.12964E+06-1.93762E+05-6.98940E+04-3.89368E+05-2.36241E-10 3.01225E-09
 -1       488-1.08618E+06-1.50184E+05-2.38599E+04-4.14714E+05-4.27917E-10-1.32786E-09
 -1       489-1.09660E+06-1.59652E+05-1.43671E+04-4.06006E+05 4.03816E-10 4.34511E-10
 -1       490-1.09513E+06-1.50495E+05-5.77145E+03-4.07572E+05 4.16492E-10 1.11118E-09
 -1       491-1.08455E+06-1.62254E+05-3.06143E+03-4.17787E+05-3.01050E-09 2.50361E-09
 -1       492-1.09826E+06-1.47540E+05-1.50347E+03-4.02963E+05 5.38144E-10-3.89491E-10
 -1       493-1.08227E+06-1.63783E+05-1.17202E+03-4.20802E+05-7.22139E-10-2.32587E-09
 -1       494-1.09744E+06-1.48942E+05-1.46146E+03-4.04577E+05-8.52651E-12 1.69143E-09
 -1       495-1.08789E+06-1.57941E+05-2.47100E+03-4.12986E+05 4.68702E-10 3.11729E-10
 -1       496-1.09258E+06-1.53430E+05-4.97297E+03-4.10734E+05 4.76348E-11-8.92669E-10
 -1       497-1.10098E+06-1.53940E+05-1.22332E+04-4.01101E+05-1.30802E-09-2.39493E-09
 -1       498-1.08436E+06-1.52941E+05-2.01255E+04-4.16473E+05-8.91305E-10-2.17187E-09
 -1       499-1.12681E+06-1.85035E+05-5.92955E+04-3.89524E+05-7.29415E-10-3.37332E-09
 -1       500-1.06684E+06-1.22350E+05-8.56793E+04-4.22340E+05-3.07045E-09 3.33603E-09
 -1       501-3.11863E+05-1.74570E+04 4.05574E+04-2.50651E+02 1.59082E-09-1.01318E-09
 -1       502-2.93945E+05 2.02142E+04 2.87127E+04-9.02346E+02 8.83183E-10-2.26282E-09
 -1       503-3.05068E+05-2.72560E+03 1.04825E+04 3.56980E+02-4.71289E-10-4.27463E-10
 -1       504-3.01913E+05 3.15256E+03 6.60967E+03-2.00518E+03-3.35788E-10-2.12481E-10
 -1       505-3.03906E+05-4.24275E+02 2.67199E+03 8.52226E+02 6.83173E-10 1.44610E-10
 -1       506-3.03305E+05 4.93033E+02 1.57253E+03-2.76766E+03 1.96233E-09-9.79014E-10
 -1       507-3.03682E+05-6.68142E+01 7.02814E+02 1.11947E+03 1.24205E-09 1.34290E-09
 -1       508-3.03555E+05 9.09595E+01 4.36533E+02-3.01788E+03 6.85007E-10-5.03519E-10
 -1       509-3.03658E+05-2.12637E+01 2.84981E+02 1.10245E+03 1.29570E-09 4.71463E-10
 -1       510-3.03509E+05 9.87860E+01 3.68736E+02-2.70306E+03 1.25627E-09 7.97922E-10
 -1       511-3.03726E+05-7.65083E+01 4.96956E+02 8.04638E+02 5.56426E-10 1.58749E-09
 -1       512-3.03196E+05 5.51815E+02 1.19254E+03-1.88805E+03 7.60828E-10 1.86091E-10
 -1       513-3.03965E+05-4.77372E+02 1.81443E+03 2.87435E+02 1.72648E-10 7.95580E-10
 -1       514-3.01758E+05 3.51973E+03 5.02705E+03-7.42453E+02-3.35184E-10 3.40322E-10
 -1       515-3.05160E+05-3.04175E+03 7.02489E+03-3.40980E+02-7.02727E-10 1.00226E-09
 -1       516-3.91881E+04 2.38993E+05 9.22014E+04 2.14488E+03-3.20142E-10 1.03103E-09
 -1       517 4.81786E+04 2.80288E+05 7.01303E+04-1.14316E+04-1.13687E-10 1.96454E-09
 -1       518-8.87134E+03 2.53138E+05 3.38353E+04 1.66851E+03-1.07229E-09 2.82921E-09
 -1       519 2.80972E+04 2.70888E+05 4.38665E+04-1.12673E+04 5.81167E-10-8.76781E-10
 -1       520-1.91423E+04 2.48383E+05 4.69930E+04 1.98060E+03-9.53150E-10-2.97632E-09
 -1       521-2.17780E+06-2.78498E+05-1.52883E+05-8.41458E+05-3.49246E-10-2.83762E-09
 -1       522-2.22371E+06-3.86112E+05-9.64789E+04-8.50496E+05 1.04137E-10 2.06637E-09
 -1       523-2.20486E+06-3.12676E+05-3.60646E+04-8.36850E+05-3.17300E-10-9.82254E-10
 -1       524-2.19230E+06-3.41918E+05-1.98171E+04-8.58514E+05-1.05911E-09 4.14730E-10
 -1       525-2.20835E+06-3.15940E+05-8.39041E+03-8.36026E+05 5.95492E-10 2.12231E-09
 -1       526-2.18823E+06-3.37806E+05-4.45245E+03-8.59881E+05 1.89868E-09 2.63753E-11
 -1       527-2.20894E+06-3.16121E+05-2.29484E+03-8.35775E+05 3.01873E-09 8.02260E-10
 -1       528-2.18770E+06-3.37530E+05-1.83027E+03-8.60133E+05 5.29370E-09 4.18402E-09
 -1       529-2.20891E+06-3.16156E+05-2.22414E+03-8.35809E+05 3.64480E-10-4.39513E-10
 -1       530-2.18831E+06-3.37661E+05-4.25426E+03-8.59731E+05-4.88228E-09 1.22327E-09
 -1       531-2.20827E+06-3.16061E+05-7.99112E+03-8.36127E+05-3.19596E-09-1.54705E-09
 -1       532-2.19232E+06-3.41424E+05-1.88501E+04-8.58247E+05-3.63798E-12 1.89175E-10
 -1       533-2.20487E+06-3.13043E+05-3.43033E+04-8.36998E+05-1.15563E-09-2.36651E-09
 -1       534-2.22235E+06-3.83278E+05-9.17490E+04-8.50412E+05 7.12134E-10-9.60426E-10
 -1       535-2.17904E+06-2.80641E+05-1.45399E+05-8.41485E+05-1.74623E-10 5.67525E-10
 -1       536 5.21620E+04-9.40642E+03 4.05248E+04-5.62865E+03 5.66615E-10-5.52973E-10
 -1       537 6.69261E+04 1.26632E+04 2.59684E+04-2.19578E+04-1.60526E-09-1.40608E-09
 -1       538 5.82589E+04-9.97296E+02 1.04881E+04-5.56595E+03-1.86446E-10-8.62656E-10
 -1       539 6.00352E+04 1.22094E+03 5.85862E+03-2.20125E+04 6.00039E-10-9.09495E-11
 -1       540 5.89380E+04-1.21315E+02 2.64367E+03-5.57081E+03 7.32143E-11 3.32648E-10
 -1       541 5.91933E+04 1.13647E+02 1.39706E+03-2.19989E+04-2.55795E-10-1.98850E-09
 -1       542 5.90188E+04-1.69825E+01 6.59669E+02-5.57955E+03-8.07177E-11-1.66438E-09
 -1       543 5.90522E+04 1.83258E+01 3.40665E+02-2.19856E+04-1.18234E-10-2.08689E-09
 -1       544 5.90281E+04 6.82922E-01 1.62958E+02-5.58422E+03 2.05887E-10-1.18638E-09
 -1       545 5.90205E+04 1.34494E+01 8.00974E+01-2.19802E+04-2.84217E-10-2.51578E-09
 -1       546 5.90305E+04 3.31171E+00 3.26027E+01-5.58490E+03-6.14477E-11-1.83064E-09
 -1       547 5.90225E+04 5.71697E+00 2.11058E+00-2.19800E+04 3.13719E-10-3.75536E-09
 -1       548 5.90369E+04 1.00738E+00-2.67837E+01-5.58443E+03-7.11680E-10-5.93786E-10
 -1       549 5.90302E+04-4.31197E+01-7.99406E+01-2.19440E+04 2.08615E-10 1.22782E-09
 -1       550 5.90645E+04 1.61695E+01-1.40914E+02-5.62092E+03-2.63753E-10-2.33740E-09
 -1       551 9.60861E+03-2.13929E+05 2.04870E+04-3.27904E+05 2.66664E-09 1.64800E-09
 -1       552 4.74046E+03-2.10521E+05 1.61471E+04-3.83665E+05 2.03363E-09 3.13048E-09
 -1       553 3.07586E+03-2.13545E+05 1.87805E+04-3.27356E+05 2.95768E-09 5.82986E-10
 -1       554 1.19928E+04-2.06454E+05 3.52717E+04-3.83759E+05 2.19734E-09 1.39607E-10
 -1       555 3.30289E+04-2.18353E+05 6.69011E+04-3.27760E+05 2.56478E-09-1.55342E-09
 -1       556-1.56325E+05-8.37055E+04 1.34343E+04-1.49405E+05 7.89441E-10-6.80302E-10
 -1       557-1.43701E+05-9.74597E+04 6.60824E+03-1.59336E+05 3.45608E-10 3.95175E-10
 -1       558-1.56626E+05-8.81655E+04 2.77412E+03-1.46749E+05-4.58385E-10-5.21140E-10
 -1       559-1.44954E+05-9.96680E+04 1.36298E+03-1.59824E+05 6.33008E-10-6.25278E-10
 -1       560-1.56801E+05-8.81931E+04 6.02938E+02-1.46732E+05 2.51384E-09 5.54530E-09
 -1       561-1.45228E+05-9.96980E+04 2.84982E+02-1.60024E+05-2.31921E-10-6.17860E-10
 -1       562-1.56936E+05-8.80989E+04 9.73006E+01-1.46821E+05 2.43745E-10-1.04637E-09
 -1       563-1.45367E+05-9.96386E+04-1.37009E+01-1.60123E+05 1.67347E-10 1.86446E-10
 -1       564-1.57009E+05-8.80420E+04-1.43737E+02-1.46876E+05-5.45697E-11 7.92625E-10
 -1       565-1.45445E+05-9.96095E+04-3.61551E+02-1.60170E+05 3.98359E-10 1.80080E-10
 -1       566-1.57007E+05-8.80185E+04-7.72240E+02-1.46888E+05-2.80431E-09-6.59657E-09
 -1       567-1.45582E+05-9.96910E+04-1.70822E+03-1.60153E+05-3.09319E-09-4.91127E-09
 -1       568-1.56865E+05-8.82913E+04-3.51356E+03-1.46746E+05-4.73210E-09 8.39464E-10
 -1       569-1.47480E+05-1.01838E+05-8.28809E+03-1.59578E+05-1.09212E-08-1.73532E-09
 -1       570-1.56107E+05-9.47909E+04-1.69219E+04-1.43999E+05-4.57840E-09 4.06999E-11
 -1       571 2.04809E+05 1.01367E+04 1.55518E+04-5.31261E+04 3.43789E-10 2.71734E-09
 -1       572 2.07186E+05 3.45547E+03 7.63946E+03-5.85655E+04-3.49246E-10-2.47610E-09
 -1       573 2.05769E+05 7.70874E+02 3.39889E+03-5.29791E+04-3.67436E-10-7.98991E-10
 -1       574 2.06047E+05 2.38816E+02 1.70683E+03-5.87266E+04-2.09184E-11 1.77124E-09
 -1       575 2.05871E+05 1.93605E+01 8.07679E+02-5.29605E+04 4.07681E-10-8.80391E-10
 -1       576 2.05897E+05-8.14721E-01 4.13061E+02-5.87474E+04 4.66827E-10-1.84173E-10
 -1       577 2.05886E+05-1.35919E+01 2.06809E+02-5.29581E+04 7.90124E-11-7.75799E-10
 -1       578 2.05883E+05-1.04522E+01 1.18652E+02-5.87500E+04-4.71118E-10 2.18097E-09
 -1       579 2.05902E+05-1.55253E+01 8.34401E+01-5.29580E+04-5.53882E-10 1.16779E-09
 -1       580 2.05905E+05-1.80490E+01 9.55928E+01-5.87471E+04 1.99634E-10 1.39380E-09
 -1       581 2.05928E+05-2.34995E+01 1.49568E+02-5.29610E+04-4.28372E-10-5.87534E-10
 -1       582 2.05968E+05 3.62734E+00 2.98173E+02-5.87157E+04-7.09406E-11-1.40471E-09
 -1       583 2.05951E+05 8.20439E+01 5.81532E+02-5.29894E+04 1.21872E-10-1.87129E-10
 -1       584 2.06214E+05 5.28197E+02 1.30474E+03-5.84712E+04-1.77624E-09 4.32919E-10
 -1       585 2.05834E+05 1.65914E+03 2.64912E+03-5.32069E+04 3.21961E-10-2.05546E-10
 -1       586 1.70207E+03 8.27880E+04 3.04951E+03-1.36053E+05 3.05590E-10-1.60799E-09
 -1       587 9.41695E+02 8.32907E+04 2.90024E+03-1.50407E+05 4.17458E-10 1.68052E-09
 -1       588 1.09344E+03 8.27464E+04 4.10948E+03-1.35881E+05 3.22871E-10 1.14301E-09
 -1       589 3.90907E+03 8.42942E+04 8.41191E+03-1.50448E+05 4.47471E-10-6.37897E-10
 -1       590 1.10092E+04 8.17347E+04 1.67481E+04-1.36009E+05 3.77440E-10 8.91760E-10
 -1       591-9.52661E+04-3.30452E+04-1.78975E+04-4.96800E+04-5.99698E-11-1.51977E-09
 -1       592-9.57408E+04-3.08909E+04-8.77322E+03-5.50850E+04-2.48292E-10-1.26192E-10
 -1       593-9.57877E+04-2.63830E+04-3.72227E+03-5.27177E+04-2.68415E-09-6.17729E-09
 -1       594-9.38309E+04-2.84692E+04-1.82080E+03-5.54183E+04-7.74889E-10 6.64834E-10
 -1       595-9.58748E+04-2.61342E+04-8.38605E+02-5.28553E+04-5.73209E-10-2.72911E-09
 -1       596-9.36871E+04-2.83726E+04-4.26202E+02-5.54076E+04-3.57545E-10-1.48032E-09
 -1       597-9.58917E+04-2.61460E+04-2.33873E+02-5.28566E+04-7.97513E-11-1.10310E-09
 -1       598-9.36729E+04-2.83738E+04-1.90535E+02-5.54016E+04 1.45320E-10 6.45059E-10
 -1       599-9.58899E+04-2.61462E+04-2.46136E+02-5.28558E+04 1.86219E-10 8.04448E-10
 -1       600-9.36865E+04-2.83737E+04-4.58725E+02-5.54062E+04 9.00400E-11-2.13720E-09
 -1       601-9.58678E+04-2.61343E+04-9.07452E+02-5.28527E+04 7.25322E-11-3.12639E-09
 -1       602-9.38414E+04-2.84780E+04-1.97359E+03-5.54139E+04 1.30603E-09-3.36195E-09
 -1       603-9.57701E+04-2.64075E+04-4.03548E+03-5.27038E+04-6.04359E-10-5.17048E-10
 -1       604-9.59240E+04-3.10891E+04-9.51142E+03-5.50335E+04-5.43810E-09-9.57539E-09
 -1       605-9.51874E+04-3.36414E+04-1.94028E+04-4.94234E+04-6.25732E-10-1.71440E-10
 -1       606 6.60464E+04-8.09815E+03-1.24030E+04 1.94326E+04-4.12911E-09 3.53339E-10
 -1       607 6.41177E+04-2.76056E+03-6.09082E+03 2.12196E+04-1.06365E-09-3.33432E-09
 -1       608 6.52448E+04-6.14814E+02-2.71005E+03 1.93010E+04 2.21553E-09-3.07455E-09
 -1       609 6.49888E+04-1.78022E+02-1.35857E+03 2.13643E+04-1.80080E-09-9.95215E-10
 -1       610 6.51369E+04-5.57887E-01-6.41231E+02 1.92842E+04-4.89854E-09-3.45017E-09
 -1       611 6.50867E+04 2.43856E+01-3.22985E+02 2.13825E+04-9.62973E-09-9.24501E-10
 -1       612 6.51127E+04 3.23252E+01-1.53793E+02 1.92822E+04-4.07363E-09 2.13140E-09
 -1       613 6.50936E+04 3.42416E+01-7.15806E+01 2.13849E+04-6.78551E-09-6.22549E-10
 -1       614 6.51019E+04 3.09670E+01-2.26112E+01 1.92818E+04-2.42562E-09 1.01886E-09
 -1       615 6.50908E+04 3.57858E+01 1.48675E+01 2.13851E+04 6.12522E-09 2.19620E-09
 -1       616 6.50939E+04 3.48184E+01 5.88397E+01 1.92820E+04-7.05995E-09 6.95763E-11
 -1       617 6.50978E+04 5.85236E+01 1.40681E+02 2.13845E+04-1.66423E-08 1.50044E-09
 -1       618 6.50796E+04 1.01438E+02 2.87837E+02 1.92823E+04-9.47875E-09-2.22826E-11
 -1       619 6.51897E+04 3.35846E+02 6.51370E+02 2.13818E+04-2.98519E-09-1.44723E-09
 -1       620 6.49931E+04 9.03591E+02 1.32811E+03 1.92836E+04-6.65125E-10-1.46315E-09
 -1       621 1.64022E+03 2.13340E+05 3.98865E+03-2.02046E+04 1.80125E-09-1.23873E-09
 -1       622 6.26736E+02 2.14092E+05 3.25688E+03-2.37347E+04 6.51198E-10-2.72394E-10
 -1       623 3.64508E+02 2.13510E+05 3.95557E+03-2.02248E+04 1.57820E-09-1.60071E-10
 -1       624 2.24249E+03 2.15050E+05 7.57086E+03-2.36348E+04 7.76708E-10 3.33102E-10
 -1       625 6.88593E+03 2.12403E+05 1.44528E+04-2.03030E+04 1.50885E-09-3.32420E-10
 -1       626 9.30546E+04 3.05810E+04-5.49551E+03 6.34667E+04-1.00863E-09-8.27640E-11
 -1       627 9.04755E+04 3.44937E+04-2.60719E+03 6.46662E+04-1.24192E-09-2.11116E-10
 -1       628 9.31750E+04 3.32784E+04-1.09555E+03 6.21488E+04-5.09317E-10 1.18609E-09
 -1       629 9.08832E+04 3.56084E+04-5.25879E+02 6.45705E+04-1.42609E-09-5.59396E-10
 -1       630 9.31632E+04 3.34637E+04-2.32135E+02 6.20413E+04-4.10182E-10-4.74074E-10
 -1       631 9.09106E+04 3.56906E+04-1.04050E+02 6.45700E+04-2.46632E-09-2.17011E-09
 -1       632 9.31510E+04 3.34703E+04-2.94136E+01 6.20310E+04-2.44836E-09-2.62412E-09
 -1       633 9.09106E+04 3.56950E+04 2.49281E+01 6.45702E+04-1.15824E-09 9.07221E-11
 -1       634 9.31420E+04 3.34656E+04 9.20650E+01 6.20289E+04 4.58613E-10-1.65551E-09
 -1       635 9.09208E+04 3.56977E+04 2.19877E+02 6.45722E+04-1.65460E-09-1.57570E-09
 -1       636 9.31315E+04 3.34754E+04 4.61142E+02 6.20215E+04-2.95762E-09-1.31968E-09
 -1       637 9.10303E+04 3.58216E+04 1.03210E+03 6.45533E+04-4.59340E-09 1.18871E-09
 -1       638 9.31067E+04 3.38497E+04 2.13980E+03 6.18579E+04-1.55285E-09-3.50610E-10
 -1       639 9.21197E+04 3.77224E+04 5.09208E+03 6.40888E+04-8.37190E-09 3.45153E-10
 -1       640 9.31532E+04 3.93460E+04 1.07325E+04 5.95718E+04-2.21098E-09-3.30147E-10
 -1       641 1.84472E+03 1.96771E+03-4.57877E+03-1.10651E+02-5.68833E-09-1.42973E-09
 -1       642-1.26370E+02-2.27810E+03-3.23142E+03 4.71468E+02-2.57224E-10 9.60029E-10
 -1       643 1.08256E+03 3.06623E+02-1.18088E+03-1.09627E+02-6.73188E-09 2.24708E-09
 -1       644 7.59954E+02-3.53446E+02-7.32277E+02 4.70110E+02 2.07889E-09 2.19100E-09
 -1       645 9.58096E+02 4.67722E+01-2.83226E+02-1.09296E+02-2.28383E-09-2.16289E-11
 -1       646 9.07142E+02-4.89223E+01-1.34803E+02 4.69616E+02-1.31988E-07-2.41215E-09
 -1       647 9.35222E+02 2.71400E+00-1.27203E+00-1.09134E+02-1.67091E-05 2.13481E-08
 -1       648 9.48002E+02 2.59527E+01 1.22510E+02 4.69446E+02-3.32033E-05 4.26665E-08
 -1       649 9.17189E+02-2.79711E+01 2.79410E+02-1.09126E+02-1.67081E-05 2.12485E-08
 -1       650 1.05047E+03 2.16081E+02 6.76003E+02 4.69458E+02-1.16945E-07-1.85977E-09
 -1       651 8.32805E+02-1.87177E+02 1.17881E+03-1.09146E+02-3.05971E-09-8.45262E-10
 -1       652 1.62998E+03 1.39500E+03 2.91201E+03 4.69244E+02 4.73504E-09 1.50277E-09
 -1       653 3.37854E+02-1.20499E+03 4.64728E+03-1.08914E+02-2.85252E-09-2.05205E-09
 -1       654 5.12834E+03 8.94548E+03 1.26946E+04 4.66889E+02 2.30524E-09 3.38559E-10
 -1       655-2.66488E+03-7.72389E+03 1.79633E+04-1.06804E+02 3.28928E-10-2.38288E-09
 -1       656 6.40339E+03-2.43900E+05-2.88195E+04 6.89331E+03 6.23913E-09 1.14733E-09
 -1       657-9.46292E+03-2.54402E+05-2.09897E+04 2.64545E+04 6.07986E-09 7.40329E-10
 -1       658 1.22660E+03-2.47643E+05-1.33339E+04 6.84133E+03 5.84882E-09 3.00975E-09
 -1       659-8.61830E+03-2.53916E+05-1.95002E+04 2.64869E+04 5.08089E-09 1.39801E-10
 -1       660 5.73454E+03-2.44404E+05-2.59982E+04 6.86137E+03 6.64841E-09-1.90084E-10
 -1       661 2.40610E+05 3.07031E+04 1.97006E+04 9.40110E+04 2.40584E-09-3.80169E-10
 -1       662 2.45231E+05 4.58812E+04 1.24341E+04 9.66980E+04-1.23788E-09 2.59979E-09
 -1       663 2.44004E+05 3.51995E+04 4.65227E+03 9.35285E+04-4.44857E-10 1.60912E-09
 -1       664 2.41330E+05 4.00407E+04 2.56231E+03 9.75313E+04-1.20776E-08-3.46529E-09
 -1       665 2.44385E+05 3.56899E+04 1.09107E+03 9.34963E+04-1.21382E-08-6.29780E-09
 -1       666 2.40892E+05 3.94194E+04 5.92989E+02 9.75875E+04-5.59157E-09-5.76148E-09
 -1       667 2.44428E+05 3.57466E+04 3.31432E+02 9.34987E+04 3.00096E-09-1.77016E-09
 -1       668 2.40851E+05 3.93620E+04 3.12092E+02 9.75866E+04-9.61675E-09-2.81165E-09
 -1       669 2.44424E+05 3.57430E+04 4.38064E+02 9.34984E+04-4.23509E-09 3.24451E-09
 -1       670 2.40928E+05 3.94602E+04 8.88483E+02 9.75867E+04 1.16076E-08 5.09476E-09
 -1       671 2.44353E+05 3.56554E+04 1.68895E+03 9.34965E+04-3.53396E-10 7.38737E-10
 -1       672 2.41621E+05 4.04284E+04 4.00052E+03 9.74927E+04 1.62379E-09-2.69438E-11
 -1       673 2.43751E+05 3.48914E+04 7.27510E+03 9.35501E+04 7.09655E-10-2.88537E-09
 -1       674 2.47729E+05 4.95643E+04 1.94537E+04 9.61836E+04-1.70360E-09-1.15051E-09
 -1       675 2.38440E+05 2.78573E+04 3.08253E+04 9.43049E+04-9.57698E-10 8.53106E-10
 -1       676 6.43447E+02-2.30647E+05-3.35138E+03 1.63695E+02 6.20003E-09-4.12825E-10
 -1       677-1.26934E+03-2.31927E+05-3.63234E+03 3.80543E+01 1.72534E-09-1.47912E-09
 -1       678 3.99209E+02-2.30799E+05-4.31006E+03 1.63353E+02 5.25120E-09 1.08028E-09
 -1       679-4.55246E+03-2.33878E+05-9.45603E+03 3.78328E+01 1.37243E-09 1.54822E-09
 -1       680 3.28851E+03-2.28696E+05-1.43669E+04 1.63354E+02 5.65069E-09 1.36343E-09
 -1       681 3.83708E+05-1.00803E+04 2.34221E+04 1.00857E+03 1.82325E-11-7.33962E-10
 -1       682 3.93990E+05 1.16704E+04 1.65848E+04-2.65480E+03 1.05583E-10-3.57431E-10
 -1       683 3.87674E+05-1.57141E+03 6.07568E+03 4.87591E+02 9.47651E-11-5.07043E-11
 -1       684 3.89365E+05 1.81982E+03 3.83563E+03-1.86745E+03 6.55085E-11-2.41016E-11
 -1       685 3.88332E+05-2.45539E+02 1.60050E+03 2.21222E+02 1.60476E-11 2.93028E-10
 -1       686 3.88602E+05 2.97118E+02 1.01612E+03-1.50759E+03 3.15382E-10 2.34309E-10
 -1       687 3.88437E+05-5.05326E+01 6.15620E+02 1.27724E+02 6.01390E-11 3.50298E-11
 -1       688 3.88524E+05 1.43640E+02 7.10992E+02-1.46644E+03-8.39693E-11 1.25411E-10
 -1       689 3.88410E+05-9.22416E+01 9.98412E+02 1.80067E+02-8.72902E-12 8.71864E-10
 -1       690 3.88810E+05 6.57494E+02 2.12500E+03-1.73201E+03 1.46656E-11 1.91221E-10
 -1       691 3.88152E+05-5.64166E+02 3.59447E+03 3.93303E+02 2.87997E-10-6.15273E-10
 -1       692 3.90593E+05 4.20267E+03 8.81658E+03-2.38127E+03 6.32795E-10-4.89308E-10
 -1       693 3.86628E+05-3.63317E+03 1.40247E+04 8.29338E+02 4.26610E-11-5.97538E-10
 -1       694 4.01282E+05 2.69856E+04 3.83410E+04-3.62469E+03-8.29715E-10-1.09503E-09
 -1       695 3.77466E+05-2.33092E+04 5.41702E+04 1.63666E+03-1.40147E-10-1.62981E-09
 -1       696-8.08165E+03 3.34374E+05 1.85198E+04 2.44799E+02 2.27374E-11-5.06752E-10
 -1       697 8.76243E+03 3.42189E+05 1.19841E+04-2.78876E+03 1.11868E-10-6.84933E-10
 -1       698-6.60810E+02 3.37813E+05 2.51956E+03 1.70893E+02-1.49157E-10 1.30353E-09
 -1       699-3.08035E+03 3.36713E+05-3.49697E+03-2.87602E+03-2.51930E-10 1.76651E-09
 -1       700 3.73904E+03 3.39854E+05-8.15377E+03 3.32039E+02-1.49157E-10 4.93891E-10
 -1       701-3.51622E+05-3.24185E+04-4.50314E+04-1.40296E+05 1.12777E-10-8.51287E-10
 -1       702-3.76491E+05-7.24827E+04-3.12344E+04-1.31182E+05 1.85196E-10-5.32964E-10
 -1       703-3.60867E+05-4.84996E+04-1.05614E+04-1.37185E+05 2.98314E-10 3.79259E-10
 -1       704-3.65576E+05-5.40201E+04-6.58954E+03-1.34951E+05-2.46416E-11-3.25713E-10
 -1       705-3.62530E+05-5.08541E+04-2.47611E+03-1.36535E+05 2.89361E-10 2.52271E-10
 -1       706-3.63439E+05-5.15101E+04-1.46956E+03-1.35934E+05-2.07336E-10-8.39066E-10
 -1       707-3.63001E+05-5.10059E+04-6.90101E+02-1.36203E+05 1.99204E-10 1.20906E-10
 -1       708-3.62750E+05-5.15793E+04-5.97892E+02-1.36524E+05 9.08095E-10 3.07805E-10
 -1       709-3.63219E+05-5.07842E+04-6.74846E+02-1.35946E+05 3.37053E-10 9.05374E-11
 -1       710-3.62631E+05-5.23141E+04-1.43103E+03-1.36881E+05 2.28326E-10-2.74795E-10
 -1       711-3.63121E+05-5.02711E+04-2.39601E+03-1.35847E+05 1.15620E-10 2.16801E-10
 -1       712-3.64150E+05-5.52901E+04-6.38392E+03-1.36555E+05-3.12184E-10 7.96717E-10
 -1       713-3.61702E+05-4.78120E+04-1.02238E+04-1.36271E+05-1.83945E-10 2.35559E-10
 -1       714-3.74568E+05-7.32872E+04-3.02363E+04-1.33044E+05 8.94715E-11-7.86258E-10
 -1       715-3.52710E+05-3.23011E+04-4.35964E+04-1.39349E+05-1.47338E-10 1.45519E-10
 -1       716 8.03951E+04-1.18293E+04 2.74159E+04 1.00378E+03 1.22898E-09 1.61890E-10
 -1       717 9.28711E+04 1.36890E+04 1.94854E+04-3.49421E+03 3.76026E-10-1.08321E-09
 -1       718 8.51129E+04-1.84443E+03 7.10701E+03 7.63311E+02-1.83888E-10 4.67935E-10
 -1       719 8.73207E+04 2.13473E+03 4.52586E+03-3.10836E+03 2.40043E-10 6.02824E-10
 -1       720 8.59342E+04-2.88668E+02 1.88895E+03 6.17940E+02 8.65896E-10-1.50067E-11
 -1       721 8.63477E+04 3.55106E+02 1.23890E+03-2.89125E+03 1.67076E-09-4.23199E-11
 -1       722 8.60802E+04-6.37267E+01 8.00454E+02 5.46204E+02 1.66482E-09 8.59487E-10
 -1       723 8.62426E+04 2.06449E+02 1.00859E+03-2.81603E+03 9.55614E-10 2.05969E-09
 -1       724 8.60375E+04-1.38931E+02 1.48874E+03 5.42723E+02 1.55677E-09 4.75211E-11
 -1       725 8.66922E+04 1.00482E+03 3.22494E+03-2.87713E+03 8.06835E-10 1.12050E-09
 -1       726 8.56320E+04-8.62001E+02 5.47343E+03 6.07300E+02 1.09823E-09 1.11072E-09
 -1       727 8.94375E+04 6.42003E+03 1.34549E+04-3.08100E+03 8.57533E-10 1.09912E-09
 -1       728 8.32975E+04-5.54864E+03 2.13944E+04 7.46597E+02 5.93488E-10 1.91903E-10
 -1       729 1.05720E+05 4.11934E+04 5.85121E+04-3.48049E+03 5.79149E-10-1.77351E-10
 -1       730 6.93674E+04-3.55763E+04 8.26881E+04 1.00671E+03 1.41438E-09-1.04774E-09
 -1       731-1.40873E+04 1.38704E+05 3.28324E+04-2.24587E+02-5.49335E-10-1.16923E-09
 -1       732 1.65330E+04 1.53116E+05 2.35791E+04-4.11812E+02 3.74712E-10 2.14015E-11
 -1       733-2.41664E+03 1.44068E+05 9.19761E+03-1.58173E+01-3.60615E-10 7.57638E-10
 -1       734 4.20006E+03 1.47423E+05 7.45865E+03-8.38286E+02 1.80535E-10 1.04363E-09
 -1       735-1.77811E+03 1.44398E+05 5.04743E+03 2.01849E+02-2.58865E-10 4.46192E-10
 -1       736-7.95938E+05-9.09225E+04-5.88383E+04-3.11094E+05-1.29967E-09-1.85537E-10
 -1       737-8.29149E+05-1.41472E+05-4.06381E+04-2.97077E+05 3.27418E-11-7.67614E-10
 -1       738-8.10321E+05-1.09743E+05-1.38649E+04-3.04559E+05 6.79847E-11-1.03955E-09
 -1       739-8.11123E+05-1.21326E+05-8.50009E+03-3.06552E+05 2.20246E-09 9.68612E-11
 -1       740-8.13951E+05-1.11027E+05-3.24618E+03-3.01632E+05 1.63297E-09 1.89686E-09
 -1       741-8.06930E+05-1.19899E+05-1.89959E+03-3.10022E+05 1.67641E-09 3.70824E-09
 -1       742-8.14525E+05-1.11151E+05-8.84146E+02-3.01101E+05 8.84484E-10-1.49006E-09
 -1       743-8.07535E+05-1.18248E+05-6.96870E+02-3.08771E+05 5.15776E-10 1.98822E-09
 -1       744-8.13336E+05-1.12685E+05-8.90947E+02-3.02875E+05-3.33350E-09-9.23677E-10
 -1       745-8.11283E+05-1.14845E+05-1.60792E+03-3.04233E+05-2.16382E-09 1.70729E-10
 -1       746-8.10764E+05-1.14566E+05-2.97468E+03-3.05628E+05-6.40199E-11-1.98781E-09
 -1       747-8.17537E+05-1.14322E+05-7.65625E+03-2.99150E+05 1.43191E-09-1.08219E-09
 -1       748-8.07098E+05-1.13204E+05-1.23881E+04-3.07968E+05 2.18961E-09 1.63027E-09
 -1       749-8.31837E+05-1.34735E+05-3.66037E+04-2.93366E+05 7.63976E-10 3.88263E-09
 -1       750-7.96494E+05-9.41770E+04-5.28240E+04-3.11415E+05-4.98403E-10 2.15732E-09
 -1       751 1.85693E+06-1.04605E+05 2.43703E+05 4.73263E+03-1.34183E-08 5.52973E-10
 -1       752 1.96257E+06 1.21158E+05 1.72157E+05-6.34319E+03-3.25812E-09-1.35151E-09
 -1       753 1.89777E+06-1.63139E+04 6.31389E+04 1.28758E+03 9.96572E-10 7.85803E-10
 -1       754 1.91510E+06 1.88855E+04 3.96373E+04-1.91409E+03 1.46690E-09 2.32785E-09
 -1       755 1.90449E+06-2.53952E+03 1.62622E+04 3.04103E+02-8.98789E-10 1.11868E-10
 -1       756 1.90732E+06 2.97698E+03 9.70816E+03-6.46836E+02-1.55566E-09 1.17427E-09
 -1       757 1.90559E+06-4.33358E+02 4.78977E+03 2.03256E+01-5.13301E-10 1.90084E-10
 -1       758 1.90617E+06 7.74264E+02 3.84097E+03-2.95389E+02 1.67456E-09 7.33280E-11
 -1       759 1.90565E+06-3.40154E+02 3.93244E+03-4.73499E+01 3.80381E-10 4.42924E-10
 -1       760 1.90689E+06 2.17178E+03 7.23378E+03-2.61627E+02-2.05311E-09 8.99831E-10
 -1       761 1.90487E+06-1.82865E+03 1.17998E+04-1.34375E+01-6.66086E-10-1.23237E-09
 -1       762 1.91244E+06 1.35697E+04 2.85236E+04-4.88865E+02 1.61845E-09 9.25866E-10
 -1       763 1.90006E+06-1.17180E+04 4.53637E+04 1.79892E+02 3.22066E-09 6.34827E-10
 -1       764 1.94639E+06 8.69931E+04 1.23598E+05-1.37561E+03 3.99659E-10 1.20781E-09
 -1       765 1.87083E+06-7.51057E+04 1.74964E+05 8.73232E+02-1.08125E-09-1.15688E-09
 -1       766-4.51252E+04 3.03948E+05 1.06475E+05-2.24714E+03-2.61207E-09 8.34177E-11
 -1       767 5.58198E+04 3.51455E+05 8.15924E+04 7.08931E+03-2.18279E-11 5.89822E-10
 -1       768-1.05977E+04 3.19882E+05 4.04402E+04-1.76812E+03-1.28239E-09 1.11264E-10
 -1       769 3.51753E+04 3.41827E+05 5.45939E+04 6.85749E+03 2.33285E-10 3.76268E-11
 -1       770-2.45191E+04 3.13567E+05 5.99755E+04-2.01539E+03-2.73576E-09 2.37426E-09
 -1       771-1.02815E+06-2.08518E+05-3.69072E+04-4.45038E+05-4.30191E-10-9.31323E-10
 -1       772-1.02569E+06-2.07340E+05-1.80729E+04-4.59930E+05-1.65892E-09-6.33008E-10
 -1       773-1.02959E+06-1.94501E+05-7.68626E+03-4.51104E+05-7.16682E-10-4.36557E-11
 -1       774-1.02164E+06-2.02592E+05-3.75008E+03-4.61072E+05 7.85803E-10-1.17507E-09
 -1       775-1.02994E+06-1.93873E+05-1.73602E+03-4.51429E+05-1.01863E-10 1.00954E-10
 -1       776-1.02143E+06-2.02385E+05-8.74518E+02-4.61204E+05 7.83075E-10-1.23111E-09
 -1       777-1.03009E+06-1.93827E+05-4.78632E+02-4.51486E+05 7.45786E-11-5.86965E-10
 -1       778-1.02148E+06-2.02360E+05-3.71073E+02-4.61288E+05-4.00178E-10-8.53959E-10
 -1       779-1.03018E+06-1.93778E+05-4.68028E+02-4.51525E+05-5.82077E-11-5.26370E-10
 -1       780-1.02157E+06-2.02343E+05-8.54787E+02-4.61360E+05 8.77662E-11-4.35534E-10
 -1       781-1.03019E+06-1.93724E+05-1.68840E+03-4.51544E+05 5.80258E-10 1.34605E-10
 -1       782-1.02189E+06-2.02530E+05-3.67032E+03-4.61409E+05 1.31877E-11-3.45608E-11
 -1       783-1.03002E+06-1.94220E+05-7.50779E+03-4.51275E+05-6.70298E-10-6.90306E-10
 -1       784-1.02575E+06-2.07413E+05-1.77066E+04-4.60727E+05 4.09273E-12-2.04636E-11
 -1       785-1.02895E+06-2.07678E+05-3.61274E+04-4.45148E+05 7.19638E-11 3.63798E-11
 -1       786 1.98387E+05-5.81603E+03 2.52481E+04-1.40854E+03 2.61252E-10-1.48248E-09
 -1       787 2.07481E+05 7.91830E+03 1.61663E+04-5.59995E+03-5.67013E-10 9.45647E-10
 -1       788 2.02193E+05-5.98322E+02 6.54276E+03-1.40319E+03-1.72577E-10-9.62245E-10
 -1       789 2.03241E+05 7.78707E+02 3.65184E+03-5.59978E+03 3.87075E-10 1.17666E-09
 -1       790 2.02624E+05-6.47528E+01 1.66273E+03-1.40829E+03 8.87326E-11 6.42899E-10
 -1       791 2.02753E+05 7.55221E+01 8.92965E+02-5.59225E+03 3.23055E-10-2.47128E-09
 -1       792 2.02679E+05-8.21073E+00 4.60044E+02-1.41071E+03 2.78391E-11-2.49224E-09
 -1       793 2.02692E+05 9.95372E+00 3.09866E+02-5.59057E+03 7.17897E-11 4.16591E-10
 -1       794 2.02684E+05-4.76745E+00 2.92794E+02-1.40997E+03-1.99066E-10-4.21622E-10
 -1       795 2.02713E+05 3.46424E+01 4.52472E+02-5.59550E+03 3.80595E-10 1.25915E-10
 -1       796 2.02660E+05-3.04620E+01 7.85628E+02-1.40579E+03-3.50440E-10-5.38023E-11
 -1       797 2.02937E+05 3.57330E+02 1.69191E+03-5.60571E+03-9.72022E-12-8.12662E-10
 -1       798 2.02462E+05-2.76633E+02 3.01740E+03-1.39976E+03-1.19371E-10-2.42153E-11
 -1       799 2.04892E+05 3.64420E+03 7.44696E+03-5.60631E+03-1.22856E-09 1.82581E-10
 -1       800 2.00710E+05-2.68033E+03 1.16261E+04-1.40542E+03 2.70461E-10-3.91083E-10
 -1       801-7.14775E+03 2.00862E+05 2.89673E+04-1.55683E+05 7.56700E-10-1.63709E-10
 -1       802 1.56316E+04 2.10022E+05 2.98157E+04-6.08869E+05-3.89082E-09-3.81533E-09
 -1       803-1.40487E+03 2.01587E+05 3.14345E+04-1.55253E+05 1.90812E-09 2.47030E-09
 -1       804 3.58719E+04 2.22359E+05 6.58922E+04-6.08835E+05-5.40604E-09-5.30326E-09
 -1       805-2.36654E+04 1.88876E+05 9.71642E+04-1.55722E+05 1.85537E-09 8.62201E-10
 -1       806-1.93205E+05-5.15562E+04-1.64692E+04-8.91487E+04 6.83599E-10-4.27463E-10
 -1       807-1.93280E+05-4.73983E+04-7.81366E+03-9.41867E+04 2.71484E-10-1.00658E-09
 -1       808-1.93118E+05-4.31450E+04-3.28544E+03-9.26954E+04-4.69754E-10-1.85491E-09
 -1       809-1.91654E+05-4.44431E+04-1.58781E+03-9.48686E+04-1.41426E-10-6.07258E-10
 -1       810-1.93158E+05-4.25693E+04-7.18081E+02-9.29540E+04-5.43650E-10 2.60002E-10
 -1       811-1.91495E+05-4.42470E+04-3.60247E+02-9.48964E+04 4.28940E-10 1.09605E-09
 -1       812-1.93172E+05-4.25522E+04-1.89147E+02-9.29660E+04 1.45468E-09-6.84167E-10
 -1       813-1.91477E+05-4.42416E+04-1.41059E+02-9.48924E+04 2.14141E-09-2.76486E-10
 -1       814-1.93171E+05-4.25543E+04-1.66024E+02-9.29649E+04 3.22359E-09-1.53295E-09
 -1       815-1.91488E+05-4.42481E+04-2.98885E+02-9.48922E+04 4.16367E-09-9.65315E-10
 -1       816-1.93156E+05-4.25708E+04-5.86025E+02-9.29531E+04 2.30034E-09-1.24960E-08
 -1       817-1.91618E+05-4.44053E+04-1.29144E+03-9.48624E+04 8.19364E-09-2.03422E-08
 -1       818-1.93117E+05-4.30444E+04-2.66989E+03-9.27449E+04 6.18456E-09-1.04815E-08
 -1       819-1.92966E+05-4.67760E+04-6.34791E+03-9.42701E+04 1.11504E-09 1.12777E-10
 -1       820-1.93154E+05-4.99034E+04-1.33787E+04-8.98920E+04 9.68157E-10-1.97360E-10
 -1       821-1.95640E+05 5.82158E+03-2.52835E+04 1.46588E+03-1.51022E-09-8.45830E-10
 -1       822-2.04738E+05-7.93000E+03-1.61893E+04 5.93594E+03-1.85264E-09-1.44450E-09
 -1       823-1.99453E+05 5.97480E+02-6.55431E+03 1.42786E+03-1.93336E-09-3.52884E-10
 -1       824-2.00501E+05-7.75017E+02-3.66015E+03 5.98657E+03-3.86558E-09 1.82575E-09
 -1       825-1.99885E+05 6.52333E+01-1.67377E+03 1.41481E+03-6.04086E-09 2.20098E-10
 -1       826-2.00019E+05-6.80356E+01-9.11272E+02 6.00772E+03-8.08296E-09 3.07523E-10
 -1       827-1.99941E+05 1.02795E+01-4.95378E+02 1.40661E+03-3.66157E-09 8.41794E-10
 -1       828-1.99966E+05-3.10123E+00-3.81760E+02 6.02073E+03-4.03952E-09-1.11790E-09
 -1       829-1.99943E+05 9.56524E+00-4.32738E+02 1.40179E+03 6.11067E-12 7.43292E-10
 -1       830-2.00009E+05-5.10129E+01-7.46961E+02 6.02637E+03 3.08438E-09-3.31223E-10
 -1       831-1.99900E+05 5.41344E+01-1.34571E+03 1.40098E+03-1.33188E-09-4.07226E-10
 -1       832-2.00396E+05-6.14150E+02-2.92863E+03 6.02386E+03 4.95149E-10-3.05226E-09
 -1       833-1.99555E+05 4.80142E+02-5.23704E+03 1.40438E+03-4.92435E-10-7.66022E-10
 -1       834-2.03784E+05-6.32865E+03-1.29336E+04 6.00348E+03-1.54910E-09-1.78238E-09
 -1       835-1.96510E+05 4.65409E+03-2.01963E+04 1.42213E+03 1.27898E-09 7.87622E-10
 -1       836-9.30563E+03 5.04018E+05 4.26009E+04-1.37316E+04-6.29370E-10 3.62434E-10
 -1       837 1.42995E+04 5.19665E+05 3.31155E+04-5.29750E+04 2.20643E-09 1.93415E-09
 -1       838-2.24950E+03 5.09041E+05 2.45336E+04-1.37189E+04-1.23600E-09-4.03617E-10
 -1       839 1.89504E+04 5.22423E+05 4.13661E+04-5.29708E+04 2.25691E-09-3.52202E-10
 -1       840-1.30466E+04 5.01253E+05 5.82153E+04-1.37355E+04-1.10958E-09 9.78162E-10
 -1       841-2.34713E+04 8.18834E+01-8.80588E+03-1.03787E+04-2.31853E-09-6.59384E-10
 -1       842-2.83121E+04-7.76540E+03-6.10463E+03-8.61532E+03-1.37948E-09-2.42085E-09
 -1       843-2.52571E+04-3.08108E+03-2.06344E+03-9.79287E+03 1.58190E-09 3.54248E-10
 -1       844-2.62430E+04-4.09743E+03-1.28363E+03-9.28641E+03 2.30278E-09 1.40915E-10
 -1       845-2.55398E+04-3.58061E+03-4.73753E+02-9.70976E+03 5.65748E-10-5.77046E-10
 -1       846-2.59167E+04-3.51466E+03-2.65373E+02-9.37892E+03-4.52773E-09-6.67022E-11
 -1       847-2.55834E+04-3.66301E+03-8.98999E+01-9.70071E+03-3.63654E-09 1.29842E-09
 -1       848-2.58610E+04-3.40877E+03-1.22181E+01-9.38934E+03-3.21634E-09-1.49193E-09
 -1       849-2.55955E+04-3.68634E+03 6.24241E+01-9.69942E+03 3.68775E-09 4.56403E-10
 -1       850-2.58094E+04-3.32242E+03 2.06755E+02-9.40170E+03 6.52506E-09 1.55480E-09
 -1       851-2.56351E+04-3.74924E+03 3.75107E+02-9.68841E+03-2.56222E-09-1.57789E-09
 -1       852-2.55354E+04-2.86750E+03 1.02231E+03-9.48646E+03-2.29441E-09-1.85452E-09
 -1       853-2.58693E+04-4.14065E+03 1.64267E+03-9.61487E+03-1.68939E-10 1.35174E-10
 -1       854-2.38653E+04 3.74395E+01 4.86451E+03-1.00403E+04 8.53049E-10 1.99373E-09
 -1       855-2.73045E+04-6.64984E+03 7.01419E+03-9.13609E+03 8.55721E-10 1.60435E-09
 -1       856-2.31060E+05 5.38811E+03-2.34200E+04 2.97071E+03-3.21461E-09 4.32919E-10
 -1       857-2.39481E+05-7.32876E+03-1.49921E+04 1.21522E+04-1.94632E-09-7.64658E-10
 -1       858-2.34594E+05 5.54855E+02-6.07086E+03 2.90612E+03-2.41243E-09-2.18506E-10
 -1       859-2.35571E+05-6.96895E+02-3.38717E+03 1.22393E+04 5.84532E-09-1.30171E-09
 -1       860-2.34997E+05 6.50922E+01-1.54638E+03 2.88271E+03 2.70234E-09-6.41876E-10
 -1       861-2.35134E+05-3.84779E+01-8.35209E+02 1.22738E+04-6.51789E-09-2.68409E-09
 -1       862-2.35049E+05 1.56527E+01-4.41918E+02 2.87145E+03 6.81302E-09 1.99634E-10
 -1       863-2.35086E+05 2.39583E+01-3.18984E+02 1.22876E+04 1.35797E-08-1.75419E-10
 -1       864-2.35053E+05 1.39580E+01-3.33645E+02 2.86885E+03 5.95219E-09-4.83098E-10
 -1       865-2.35112E+05-1.04063E+01-5.50647E+02 1.22836E+04 6.99924E-09-3.66370E-09
 -1       866-2.35021E+05 4.45011E+01-9.78949E+02 2.87548E+03 2.22474E-09-1.20818E-09
 -1       867-2.35383E+05-4.21137E+02-2.12051E+03 1.22602E+04 3.24485E-09-2.99619E-09
 -1       868-2.34770E+05 3.49407E+02-3.79113E+03 2.89239E+03 2.50157E-09-1.77624E-09
 -1       869-2.37818E+05-4.56001E+03-9.35520E+03 1.21890E+04 8.22752E-10-2.03954E-09
 -1       870-2.32565E+05 3.36337E+03-1.46135E+04 2.94733E+03 5.44401E-09 2.37378E-10
 -1       871-2.15001E+03-2.05135E+04-3.90055E+03 5.87665E+04 3.04271E-09-8.59927E-10
 -1       872-6.87802E+02-2.12061E+04-1.12698E+03 6.87094E+04 2.44154E-09-4.48745E-09
 -1       873 3.77156E+01-2.09498E+04 1.17613E+03 5.86541E+04 2.83922E-09 1.39084E-09
 -1       874 1.37412E+03-2.00141E+04 4.34686E+03 6.87611E+04 3.64435E-09 8.06651E-10
 -1       875 4.52670E+03-2.17382E+04 9.37846E+03 5.87207E+04 1.16188E-09 3.23507E-09
 -1       876 2.74805E+05 3.45022E+04 2.60387E+04 1.08055E+05 9.55879E-10-3.74712E-10
 -1       877 2.80711E+05 5.47804E+04 1.64352E+04 1.11855E+05-1.62277E-09 1.33878E-09
 -1       878 2.79286E+05 4.04508E+04 6.14722E+03 1.07421E+05 6.98265E-10-9.19954E-10
 -1       879 2.75559E+05 4.70521E+04 3.38427E+03 1.12944E+05-6.77164E-09-5.78075E-09
 -1       880 2.79785E+05 4.11055E+04 1.43576E+03 1.07384E+05-7.28051E-09-1.12880E-09
 -1       881 2.74986E+05 4.62216E+04 7.70964E+02 1.13004E+05-5.06407E-09-1.56035E-09
 -1       882 2.79837E+05 4.11860E+04 4.11487E+02 1.07392E+05 2.34985E-09 6.60037E-10
 -1       883 2.74934E+05 4.61351E+04 3.54400E+02 1.12993E+05-4.17363E-09 1.90690E-09
 -1       884 2.79831E+05 4.11880E+04 4.62370E+02 1.07395E+05-8.93642E-10 2.55514E-09
 -1       885 2.75013E+05 4.62290E+04 9.11442E+02 1.12988E+05 1.52589E-08-1.86446E-09
 -1       886 2.79759E+05 4.10999E+04 1.72069E+03 1.07394E+05 2.03772E-09-3.80203E-09
 -1       887 2.75717E+05 4.72135E+04 4.06828E+03 1.12893E+05 5.69347E-09-1.10913E-09
 -1       888 2.79149E+05 4.03214E+04 7.39546E+03 1.07447E+05 7.57128E-09-2.47564E-09
 -1       889 2.81924E+05 5.65018E+04 1.97739E+04 1.11568E+05-4.25561E-09-6.49720E-09
 -1       890 2.73752E+05 3.31694E+04 3.13310E+04 1.08213E+05-2.36105E-09 8.18545E-10
 -1       891 9.91637E+02-1.22558E+05-4.74342E+03 1.32741E+04 5.52564E-09 6.83031E-10
 -1       892-1.66316E+03-1.24251E+05-3.81520E+03 5.18365E+04 4.57362E-10 7.05541E-10
 -1       893 2.68618E+02-1.23094E+05-3.04412E+03 1.32160E+04 4.30532E-09-1.16790E-09
 -1       894-2.57321E+03-1.24786E+05-5.42653E+03 5.18320E+04 1.30569E-09-1.00044E-09
 -1       895 1.72069E+03-1.22016E+05-7.79278E+03 1.32784E+04 4.48563E-09 1.34651E-09
 -1       896 5.47518E+05-4.12241E+03 9.58397E+03 7.74045E+02-8.38440E-13-1.81080E-09
 -1       897 5.51671E+05 4.77285E+03 6.78459E+03-1.32836E+03 1.57033E-10-9.10404E-10
 -1       898 5.49136E+05-6.42723E+02 2.49064E+03 3.85610E+02 3.23134E-10-8.65271E-10
 -1       899 5.49788E+05 7.44780E+02 1.57797E+03-7.34062E+02-1.22071E-10-3.26963E-10
 -1       900 5.49402E+05-1.01082E+02 6.72597E+02 1.79746E+02 3.50475E-11-3.22018E-10
 -1       901 5.49482E+05 1.26107E+02 4.53713E+02-4.19080E+02 3.40710E-10-1.43459E-10
 -1       902 5.49442E+05-2.49220E+01 3.22741E+02 7.06220E+01-3.17554E-10 5.18696E-12
 -1       903 5.49466E+05 9.02483E+01 4.46834E+02-2.52693E+02-4.33326E-10 5.62075E-11
 -1       904 5.49418E+05-6.52448E+01 6.91601E+02 1.33566E+01-1.93350E-10 1.98554E-10
 -1       905 5.49668E+05 4.74260E+02 1.51852E+03-1.66635E+02 6.37491E-10-5.67297E-11
 -1       906 5.49239E+05-4.08353E+02 2.59350E+03-1.54374E+01-2.78918E-10 3.06954E-12
 -1       907 5.50922E+05 3.04057E+03 6.36273E+03-1.25674E+02-6.71944E-09 2.84899E-10
 -1       908 5.48162E+05-2.62717E+03 1.01460E+04-2.76047E+01-1.14928E-06 5.04315E-10
 -1       909 5.58538E+05 1.95049E+04 2.76891E+04-1.12623E+02-2.28073E-06-4.92491E-10
 -1       910 5.41616E+05-1.68418E+04 3.91878E+04-2.84860E+01-1.15121E-06-7.71252E-10
 -1       911 1.60470E+05-2.10007E+03 4.87943E+03 2.73545E+02-3.46525E-10 7.60110E-10
 -1       912 1.62603E+05 2.43232E+03 3.45788E+03-1.27032E+03-2.09589E-10 1.45570E-09
 -1       913 1.61295E+05-3.27713E+02 1.27266E+03 1.75162E+02-2.69083E-10 1.55524E-09
 -1       914 1.61640E+05 3.81318E+02 8.14480E+02-1.12523E+03-4.14240E-09 1.88858E-09
 -1       915 1.61432E+05-5.22980E+01 3.63675E+02 1.28452E+02-5.07201E-07 1.36941E-09
 -1       916 1.61487E+05 7.09178E+01 2.76224E+02-1.07807E+03-1.00789E-06 9.33515E-10
 -1       917 1.61449E+05-1.76854E+01 2.49563E+02 1.28008E+02-5.07096E-07 1.65587E-09
 -1       918 1.61502E+05 8.44935E+01 4.15575E+02-1.12331E+03-3.48875E-09 1.92327E-09
 -1       919 1.61417E+05-6.60344E+01 6.91629E+02 1.73688E+02 7.34929E-10 1.31365E-09
 -1       920 1.61731E+05 4.88017E+02 1.55853E+03-1.26624E+03 5.02055E-10 5.92308E-10
 -1       921 1.61221E+05-4.21162E+02 2.66747E+03 2.70944E+02 5.60405E-11 8.03993E-10
 -1       922 1.63057E+05 3.13742E+03 6.57132E+03-1.52444E+03 7.68821E-10 2.71598E-10
 -1       923 1.60091E+05-2.71213E+03 1.04604E+04 4.31890E+02 2.20794E-10-7.33053E-10
 -1       924 1.70986E+05 2.01361E+04 2.85968E+04-1.94050E+03 4.29537E-10-1.23509E-09
 -1       925 1.53296E+05-1.73903E+04 4.04260E+04 6.86972E+02 4.65690E-10-2.12640E-09
 -1       926-6.97325E+05 1.55452E+04-3.61674E+04-2.18549E+03 2.42198E-09-4.34557E-09
 -1       927-7.12878E+05-1.79976E+04-2.55455E+04 4.18721E+03-3.43510E-09-4.82987E-09
 -1       928-7.03331E+05 2.42384E+03-9.35221E+03-2.45589E+03-3.33152E-10-5.29917E-09
 -1       929-7.05794E+05-2.79793E+03-5.84217E+03 3.67922E+03 3.23054E-09-4.91536E-09
 -1       930-7.04398E+05 3.70938E+02-2.38296E+03-1.67751E+03 2.29477E-10-4.00973E-09
 -1       931-7.04488E+05-4.23347E+02-1.30837E+03 1.42740E+03-1.19962E-09-2.00589E-09
 -1       932-7.04626E+05 4.68590E+01-5.72386E+02-2.04028E+02 7.68779E-10-1.24612E-09
 -1       933-7.04272E+05-3.51981E+01-1.65028E+02-1.54323E+03 4.71005E-10 9.57044E-10
 -1       934-7.04613E+05-1.69490E+01 5.51367E+01 1.29317E+03 1.78972E-10 2.02763E-09
 -1       935-7.04304E+05 1.55916E+02 4.46758E+02-3.87794E+03-8.21863E-10 3.04741E-09
 -1       936-7.04601E+05-1.37726E+02 8.44096E+02 2.13073E+03 4.64190E-10 3.76519E-09
 -1       937-7.03928E+05 1.04315E+03 2.15630E+03-4.51061E+03-2.14113E-09 3.20901E-09
 -1       938-7.04992E+05-8.99996E+02 3.44995E+03 1.92586E+03-1.38135E-09 2.81307E-09
 -1       939-7.01201E+05 6.68310E+03 9.48700E+03-3.15506E+03-1.06431E-09 2.07365E-09
 -1       940-7.07317E+05-5.77254E+03 1.33650E+04 7.75147E+02 3.39355E-10 1.76442E-09
 -1       941 2.97565E+06-1.47955E+05 3.45105E+05 3.42702E+02 1.49031E-08 2.73576E-09
 -1       942 3.12455E+06 1.71401E+05 2.43630E+05 6.09773E+02 1.86543E-08 2.51021E-10
 -1       943 3.03324E+06-2.30865E+04 8.94344E+04 4.39902E+02 9.35574E-07 2.97950E-09
 -1       944 3.05770E+06 2.67296E+04 5.61513E+04 4.93013E+02 1.85256E-06-1.98543E-09
 -1       945 3.04274E+06-3.59581E+03 2.30773E+04 4.59523E+02 1.48357E-06 1.11868E-10
 -1       946 3.04673E+06 4.22286E+03 1.38270E+04 4.68281E+02 1.10751E-06 4.25848E-09
 -1       947 3.04430E+06-6.20923E+02 6.92024E+03 4.64654E+02 1.62047E-06 1.97315E-09
 -1       948 3.04513E+06 1.15259E+03 5.72814E+03 4.56368E+02 2.13132E-06 1.48891E-09
 -1       949 3.04435E+06-5.30357E+02 6.08751E+03 4.71440E+02 1.06805E-06-5.50870E-09
 -1       950 3.04631E+06 3.44077E+03 1.14244E+04 4.19355E+02 8.94294E-09 3.20188E-09
 -1       951 3.04311E+06-2.90546E+03 1.87442E+04 5.01665E+02 1.05124E-09-4.48745E-09
 -1       952 3.05514E+06 2.15699E+04 4.53677E+04 2.37661E+02 6.44499E-10-2.33467E-09
 -1       953 3.03545E+06-1.86268E+04 7.21811E+04 6.53116E+02-6.84692E-09-3.92902E-10
 -1       954 3.10907E+06 1.38286E+05 1.96569E+05-6.90238E+02-1.61793E-09-3.61251E-09
 -1       955 2.98896E+06-1.19376E+05 2.78353E+05 1.42937E+03-1.21999E-08 1.30967E-10
 -1       956-1.57510E+05-2.72563E+03-5.69086E+03 2.19983E+04-2.81671E-09-1.95996E-10
 -1       957-1.58549E+05-8.61988E+02-2.87112E+03 2.55211E+04-6.87123E-10-5.95719E-11
 -1       958-1.57978E+05-9.75929E+01-1.29125E+03 2.18653E+04 2.30830E-09-2.98542E-10
 -1       959-1.58075E+05-7.61001E+00-6.56612E+02 2.56669E+04-2.12958E-09-4.96811E-10
 -1       960-1.58033E+05 3.01582E+01-3.18733E+02 2.18515E+04-4.29645E-09-2.02795E-09
 -1       961-1.58044E+05 3.54533E+01-1.67891E+02 2.56823E+04-6.82121E-09-1.33014E-09
 -1       962-1.58048E+05 3.33698E+01-9.42680E+01 2.18498E+04-3.17550E-09-1.19326E-09
 -1       963-1.58047E+05 3.92813E+01-7.22364E+01 2.56845E+04-4.11183E-09-1.38925E-10
 -1       964-1.58053E+05 3.63836E+01-8.36305E+01 2.18492E+04-3.85853E-10-3.68118E-10
 -1       965-1.58055E+05 4.21458E+01-1.41162E+02 2.56844E+04 4.78735E-09 4.85215E-10
 -1       966-1.58050E+05 3.94406E+01-2.63216E+02 2.18499E+04-6.31360E-10 2.22826E-11
 -1       967-1.58092E+05 1.24669E+01-5.40892E+02 2.56770E+04 3.97449E-10-1.54068E-09
 -1       968-1.58014E+05-6.03845E+01-1.06209E+03 2.18568E+04 1.25647E-09 4.39741E-10
 -1       969-1.58491E+05-6.86037E+02-2.36292E+03 2.56035E+04 2.04784E-09-8.71637E-10
 -1       970-1.57636E+05-2.22046E+03-4.68258E+03 2.19252E+04-1.90994E-11-1.78989E-09
 -1       971-3.21626E+05 4.46913E+03-1.94400E+04 2.93362E+03-4.19186E-09 6.94854E-10
 -1       972-3.28598E+05-6.08132E+03-1.24437E+04 1.21751E+04-2.55886E-09 2.66209E-09
 -1       973-3.24559E+05 4.59408E+02-5.04265E+03 2.85308E+03-3.30488E-09 2.97314E-09
 -1       974-3.25358E+05-5.75144E+02-2.81787E+03 1.22888E+04 2.16653E-09 1.06616E-09
 -1       975-3.24894E+05 5.42358E+01-1.29780E+03 2.81922E+03 1.50908E-09 4.02906E-10
 -1       976-3.25000E+05-2.73533E+01-7.21798E+02 1.23404E+04-5.65933E-09 1.55120E-09
 -1       977-3.24937E+05 1.45505E+01-4.23478E+02 2.80128E+03 4.51246E-09 1.02071E-09
 -1       978-3.24969E+05 2.19060E+01-3.81597E+02 1.23641E+04 1.66713E-08 6.59412E-10
 -1       979-3.24936E+05 1.72311E+01-5.04385E+02 2.79556E+03 6.53034E-09 8.29914E-11
 -1       980-3.25027E+05-4.41677E+01-9.36122E+02 1.23628E+04 7.10838E-09 4.76295E-10
 -1       981-3.24878E+05 7.39322E+01-1.72304E+03 2.80254E+03 1.30888E-09 1.56541E-09
 -1       982-3.25521E+05-7.74146E+02-3.77125E+03 1.23353E+04 4.39780E-09 1.80563E-09
 -1       983-3.24432E+05 6.20997E+02-6.75482E+03 2.82331E+03 5.04519E-09 5.01814E-10
 -1       984-3.29879E+05-8.15248E+03-1.66853E+04 1.22553E+04-1.52636E-09 1.09048E-09
 -1       985-3.20501E+05 6.00277E+03-2.60605E+04 2.88378E+03 5.88011E-09-1.16415E-10
 -3
    1PSTEP                        13           7           1          
  100CL  107 4.38477E-01         841                     0    7           1
 -4  DISP        4    1
 -5  D1          1    2    1    0
 -5  D2          1    2    2    0
 -5  D3          1    2    3    0
 -5  ALL         1    2    0    0    1ALL
 -1         1 5.36755E-05 0.00000E+00 0.00000E+00
 -1         2 3.96859E-05 0.00000E+00 0.00000E+00
 -1         3 3.31408E-05 0.00000E+00 0.00000E+00
 -1         4 2.95571E-05 0.00000E+00 0.00000E+00
 -1         5 2.79488E-05 0.00000E+00 0.00000E+00
 -1         8 4.21342E-05-5.38780E-07 0.00000E+00
 -1         9 3.33638E-05 4.55332E-07 0.00000E+00
 -1        10 3.10855E-05-1.38089E-06 0.00000E+00
 -1        11 2.89823E-05-2.73723E-07 0.00000E+00
 -1        12 2.69090E-05 7.04265E-07 0.00000E+00
 -1        15 1.77818E-05-1.12228E-06 0.00000E+00
 -1        16 2.44035E-05 4.51176E-07 0.00000E+00
 -1        17 2.26321E-05-2.77778E-06 0.00000E+00
 -1        18 2.29577E-05-5.40167E-07 0.00000E+00
 -1        19 2.41380E-05 1.39492E-06 0.00000E+00
 -1        20 2.45117E-05 1.48136E-05 0.00000E+00
 -1        21 2.45005E-05 3.54543E-05 0.00000E+00
 -1        22 6.58924E-06-7.25045E-07 0.00000E+00
 -1        23 8.80279E-06 9.49036E-07 0.00000E+00
 -1        24 9.26239E-06-3.27737E-06 0.00000E+00
 -1        25 2.01144E-05-3.67861E-07 0.00000E+00
 -1        26 2.12720E-05 1.85047E-06 0.00000E+00
 -1        27 2.01276E-05 1.42894E-05 0.00000E+00
 -1        28 1.87702E-05 3.49568E-05 0.00000E+00
 -1        29 0.00000E+00 0.00000E+00 0.00000E+00
 -1        30 3.15198E-06 1.24905E-06 0.00000E+00
 -1        31 4.06769E-06-2.62300E-06 0.00000E+00
 -1        32 0.00000E+00 0.00000E+00 0.00000E+00
 -1        33 1.73398E-05 2.92580E-06 0.00000E+00
 -1        34 1.64280E-05 1.42412E-05 0.00000E+00
 -1        35 1.45546E-05 3.46920E-05 0.00000E+00
 -1        36 5.28292E-05 1.06458E-21 1.32349E-23
 -1        37 5.19550E-05 5.79552E-20 1.32349E-23
 -1        38 5.10825E-05 1.23489E-19-2.64698E-23
 -1        39 5.02047E-05 2.01942E-19 0.00000E+00
 -1        40 4.93268E-05 1.50020E-19 0.00000E+00
 -1        41 4.84478E-05 5.02140E-20 0.00000E+00
 -1        42 4.75686E-05 1.74998E-20 2.64698E-23
 -1        43 4.66893E-05-5.83431E-20 0.00000E+00
 -1        44 4.58100E-05-1.18519E-19 0.00000E+00
 -1        45 4.49308E-05-1.39371E-19-1.32349E-23
 -1        46 4.40516E-05-1.10594E-21 0.00000E+00
 -1        47 4.31731E-05 1.00534E-19-1.32349E-23
 -1        48 4.22947E-05 1.19998E-19-2.64698E-23
 -1        49 4.14198E-05 9.19767E-20-1.32349E-23
 -1        50 4.05437E-05 7.95731E-20 2.64698E-23
 -1        51 5.28047E-05-9.17622E-08 0.00000E+00
 -1        52 5.13611E-05-1.79417E-07 0.00000E+00
 -1        53 4.94556E-05-2.66462E-07 0.00000E+00
 -1        54 4.72047E-05-3.54116E-07 0.00000E+00
 -1        55 4.47251E-05-4.43526E-07-1.86116E-24
 -1        56 5.26212E-05-4.32821E-07 0.00000E+00
 -1        57 5.15479E-05-9.31517E-07-1.32349E-23
 -1        58 5.04850E-05-1.45152E-06 0.00000E+00
 -1        59 4.94126E-05-1.96604E-06 1.32349E-23
 -1        60 4.83258E-05-2.44299E-06 0.00000E+00
 -1        61 4.72129E-05-2.85388E-06 0.00000E+00
 -1        62 4.60653E-05-3.17254E-06 0.00000E+00
 -1        63 4.48740E-05-3.37540E-06-1.32349E-23
 -1        64 4.36323E-05-3.44377E-06-2.64698E-23
 -1        65 4.23344E-05-3.36213E-06 1.32349E-23
 -1        66 4.09770E-05-3.12158E-06-2.64698E-23
 -1        67 3.95591E-05-2.71660E-06 1.32349E-23
 -1        68 3.80805E-05-2.14944E-06 0.00000E+00
 -1        69 3.65493E-05-1.42368E-06 0.00000E+00
 -1        70 3.49621E-05-5.54970E-07 0.00000E+00
 -1        71 3.92753E-05-4.93196E-20-1.32349E-23
 -1        72 3.88654E-05-7.93272E-20 6.61744E-24
 -1        73 3.84555E-05-4.36311E-20 1.32349E-23
 -1        74 3.80458E-05 5.44574E-21 0.00000E+00
 -1        75 3.76360E-05-3.37467E-20-1.32349E-23
 -1        76 3.72263E-05-8.57019E-20-6.61744E-24
 -1        77 3.68165E-05-8.84252E-20 0.00000E+00
 -1        78 3.64068E-05-1.06296E-19 0.00000E+00
 -1        79 3.59971E-05-1.52440E-19 0.00000E+00
 -1        80 3.55875E-05-2.27529E-19 6.61744E-24
 -1        81 3.51779E-05-2.18197E-19 0.00000E+00
 -1        82 3.47685E-05-1.96080E-19 0.00000E+00
 -1        83 3.43592E-05-1.45138E-19 0.00000E+00
 -1        84 3.39511E-05-6.81214E-20 0.00000E+00
 -1        85 3.35426E-05 1.94855E-20 0.00000E+00
 -1        86 3.94380E-05 6.13416E-08 0.00000E+00
 -1        87 3.87021E-05 1.42653E-07 0.00000E+00
 -1        88 3.76071E-05 2.22261E-07 4.13590E-25
 -1        89 3.62804E-05 3.03225E-07 0.00000E+00
 -1        90 3.48301E-05 3.84954E-07 0.00000E+00
 -1        91 3.91037E-05 3.96560E-08 0.00000E+00
 -1        92 3.83509E-05 5.24652E-07 0.00000E+00
 -1        93 3.75168E-05 1.22657E-06 0.00000E+00
 -1        94 3.66887E-05 1.91086E-06-6.61744E-24
 -1        95 3.59520E-05 2.35211E-06-1.32349E-23
 -1        96 3.53891E-05 2.32990E-06 6.61744E-24
 -1        97 3.50023E-05 1.83823E-06 1.32349E-23
 -1        98 3.47896E-05 8.81235E-07 6.61744E-24
 -1        99 3.46681E-05-3.19289E-07 0.00000E+00
 -1       100 3.45527E-05-1.53618E-06-6.61744E-24
 -1       101 3.43558E-05-2.53491E-06 0.00000E+00
 -1       102 3.39916E-05-3.08553E-06 0.00000E+00
 -1       103 3.34515E-05-3.16703E-06 0.00000E+00
 -1       104 3.27331E-05-2.76775E-06 0.00000E+00
 -1       105 3.19133E-05-2.10106E-06 0.00000E+00
 -1       106 3.29154E-05-3.16696E-21 0.00000E+00
 -1       107 3.26909E-05 7.32167E-20 0.00000E+00
 -1       108 3.24664E-05 1.83347E-19 6.61744E-24
 -1       109 3.22420E-05 3.10556E-19 0.00000E+00
 -1       110 3.20176E-05 4.88387E-19-6.61744E-24
 -1       111 3.17933E-05 6.26530E-19 0.00000E+00
 -1       112 3.15689E-05 7.56513E-19-6.61744E-24
 -1       113 3.13446E-05 8.34084E-19-3.30872E-24
 -1       114 3.11203E-05 8.51833E-19 6.61744E-24
 -1       115 3.08960E-05 8.63224E-19-3.30872E-24
 -1       116 3.06718E-05 7.78700E-19 0.00000E+00
 -1       117 3.04477E-05 6.41134E-19-3.30872E-24
 -1       118 3.02236E-05 4.41083E-19-6.61744E-24
 -1       119 3.00003E-05 2.29752E-19 0.00000E+00
 -1       120 2.97767E-05 8.82471E-20 0.00000E+00
 -1       121 3.31213E-05-2.30504E-07 6.61744E-24
 -1       122 3.30223E-05-4.60344E-07 0.00000E+00
 -1       123 3.28063E-05-6.90233E-07-6.61744E-24
 -1       124 3.24361E-05-9.20158E-07 0.00000E+00
 -1       125 3.18746E-05-1.15014E-06 0.00000E+00
 -1       126 3.30439E-05-4.51370E-07-6.61744E-24
 -1       127 3.32183E-05-1.62606E-06 3.30872E-24
 -1       128 3.35925E-05-3.33566E-06 0.00000E+00
 -1       129 3.40939E-05-5.38605E-06 0.00000E+00
 -1       130 3.46199E-05-7.50233E-06 0.00000E+00
 -1       131 3.50677E-05-9.40884E-06-3.30872E-24
 -1       132 3.53531E-05-1.08803E-05 0.00000E+00
 -1       133 3.53933E-05-1.16958E-05 0.00000E+00
 -1       134 3.51628E-05-1.17888E-05 0.00000E+00
 -1       135 3.46388E-05-1.10999E-05 0.00000E+00
 -1       136 3.38676E-05-9.75389E-06 0.00000E+00
 -1       137 3.28985E-05-7.88207E-06 0.00000E+00
 -1       138 3.18272E-05-5.73955E-06 6.61744E-24
 -1       139 3.07518E-05-3.58388E-06 3.30872E-24
 -1       140 2.97697E-05-1.67633E-06-6.61744E-24
 -1       141 2.94545E-05-6.39238E-20 0.00000E+00
 -1       142 2.93530E-05-1.73484E-19 0.00000E+00
 -1       143 2.92514E-05-2.25763E-19-3.30872E-24
 -1       144 2.91499E-05-2.92330E-19 0.00000E+00
 -1       145 2.90485E-05-3.10829E-19 3.30872E-24
 -1       146 2.89471E-05-3.11795E-19 0.00000E+00
 -1       147 2.88457E-05-2.76626E-19 0.00000E+00
 -1       148 2.87444E-05-2.42765E-19-1.65436E-24
 -1       149 2.86431E-05-1.99320E-19-3.30872E-24
 -1       150 2.85418E-05-1.56777E-19 0.00000E+00
 -1       151 2.84406E-05-9.01509E-20 3.30872E-24
 -1       152 2.83397E-05-2.76235E-20-1.65436E-24
 -1       153 2.82389E-05-2.85789E-20 0.00000E+00
 -1       154 2.81397E-05-4.59417E-20-8.27181E-25
 -1       155 2.80399E-05-6.71619E-21 2.06795E-25
 -1       156 2.96541E-05-4.74484E-08-3.30872E-24
 -1       157 2.99350E-05-9.17746E-08 0.00000E+00
 -1       158 3.02023E-05-1.36336E-07 1.65436E-24
 -1       159 3.02583E-05-1.80943E-07 0.00000E+00
 -1       160 2.99144E-05-2.25358E-07-3.30872E-24
 -1       161 2.94324E-05-6.71805E-08 3.30872E-24
 -1       162 2.93207E-05-1.69745E-07-1.65436E-24
 -1       163 2.92172E-05-2.94005E-07 0.00000E+00
 -1       164 2.91166E-05-4.26258E-07 0.00000E+00
 -1       165 2.90133E-05-5.51453E-07 3.30872E-24
 -1       166 2.89018E-05-6.54606E-07 1.65436E-24
 -1       167 2.87777E-05-7.24125E-07-3.30872E-24
 -1       168 2.86367E-05-7.48608E-07-1.65436E-24
 -1       169 2.84768E-05-7.22725E-07 0.00000E+00
 -1       170 2.82962E-05-6.41405E-07 1.65436E-24
 -1       171 2.80959E-05-5.07260E-07-3.30872E-24
 -1       172 2.78771E-05-3.23072E-07 0.00000E+00
 -1       173 2.76433E-05-9.86914E-08-3.30872E-24
 -1       174 2.73999E-05 1.56599E-07-8.27181E-25
 -1       175 2.71498E-05 4.27685E-07 0.00000E+00
 -1       191 2.79127E-05 1.17275E-07 6.61744E-24
 -1       192 2.78199E-05 2.34741E-07 0.00000E+00
 -1       193 2.76715E-05 3.52245E-07 0.00000E+00
 -1       194 2.74691E-05 4.69732E-07 0.00000E+00
 -1       195 2.72142E-05 5.87138E-07 0.00000E+00
 -1       251 4.15993E-05 1.79724E-06 0.00000E+00
 -1       252 4.10499E-05 4.64536E-06 6.61744E-24
 -1       253 4.05021E-05 7.14184E-06 0.00000E+00
 -1       254 3.99540E-05 8.43094E-06 0.00000E+00
 -1       255 3.94065E-05 8.19794E-06-1.32349E-23
 -1       256 3.88566E-05 6.16393E-06 0.00000E+00
 -1       257 3.83034E-05 2.85634E-06 0.00000E+00
 -1       258 3.77477E-05-1.16745E-06 6.61744E-24
 -1       259 3.71925E-05-5.02942E-06-1.32349E-23
 -1       260 3.66408E-05-7.85523E-06 6.61744E-24
 -1       261 3.60919E-05-9.23457E-06 0.00000E+00
 -1       262 3.55443E-05-8.79117E-06 6.61744E-24
 -1       263 3.49955E-05-6.96484E-06-1.32349E-23
 -1       264 3.44471E-05-4.22790E-06 0.00000E+00
 -1       265 3.38979E-05-1.46082E-06 1.32349E-23
 -1       266 3.94331E-05-6.36958E-07 0.00000E+00
 -1       267 3.54722E-05-7.33770E-07 0.00000E+00
 -1       268 3.07847E-05-8.33836E-07-3.30872E-24
 -1       269 2.59061E-05-9.33203E-07 1.65436E-24
 -1       270 2.13885E-05-1.03112E-06-1.65436E-24
 -1       271 4.05356E-05 9.19919E-07-2.64698E-23
 -1       272 3.90786E-05 1.90791E-06 1.32349E-23
 -1       273 3.77761E-05 2.48757E-06 0.00000E+00
 -1       274 3.66020E-05 2.71152E-06 0.00000E+00
 -1       275 3.55386E-05 2.63906E-06 0.00000E+00
 -1       276 3.45629E-05 2.33075E-06 1.32349E-23
 -1       277 3.36517E-05 1.84962E-06 0.00000E+00
 -1       278 3.27811E-05 1.26018E-06 0.00000E+00
 -1       279 3.19264E-05 6.27953E-07 0.00000E+00
 -1       280 3.10632E-05 1.88829E-08 0.00000E+00
 -1       281 3.01669E-05-5.01361E-07-2.64698E-23
 -1       282 2.92137E-05-8.67812E-07 1.32349E-23
 -1       283 2.81796E-05-1.01714E-06 0.00000E+00
 -1       284 2.70454E-05-8.86624E-07 0.00000E+00
 -1       285 2.57837E-05-4.19308E-07 0.00000E+00
 -1       286 3.32180E-05 1.75817E-06 6.61744E-24
 -1       287 3.30756E-05 2.72155E-06 0.00000E+00
 -1       288 3.29334E-05 3.32204E-06 3.30872E-24
 -1       289 3.27918E-05 3.53845E-06 1.65436E-24
 -1       290 3.26503E-05 3.39935E-06-3.30872E-24
 -1       291 3.25088E-05 2.93546E-06 1.65436E-24
 -1       292 3.23672E-05 2.21960E-06 3.30872E-24
 -1       293 3.22254E-05 1.32609E-06 1.65436E-24
 -1       294 3.20836E-05 3.52292E-07 0.00000E+00
 -1       295 3.19418E-05-6.03950E-07-1.65436E-24
 -1       296 3.18000E-05-1.44709E-06 0.00000E+00
 -1       297 3.16583E-05-2.08225E-06-1.65436E-24
 -1       298 3.15166E-05-2.44149E-06-3.30872E-24
 -1       299 3.13742E-05-2.45858E-06 0.00000E+00
 -1       300 3.12320E-05-2.11161E-06-6.61744E-24
 -1       301 3.18679E-05 4.48495E-07-3.30872E-24
 -1       302 3.03645E-05 4.51213E-07 0.00000E+00
 -1       303 2.88601E-05 4.55580E-07-1.65436E-24
 -1       304 2.73609E-05 4.59660E-07 1.65436E-24
 -1       305 2.58733E-05 4.61461E-07-3.30872E-24
 -1       306 3.22738E-05 1.42373E-06-1.32349E-23
 -1       307 3.13411E-05 1.91720E-06 6.61744E-24
 -1       308 3.05614E-05 2.00446E-06-2.64698E-23
 -1       309 2.99073E-05 1.74899E-06 1.32349E-23
 -1       310 2.93559E-05 1.21841E-06 2.64698E-23
 -1       311 2.88813E-05 4.81253E-07 0.00000E+00
 -1       312 2.84578E-05-3.92460E-07 2.64698E-23
 -1       313 2.80588E-05-1.33194E-06 0.00000E+00
 -1       314 2.76578E-05-2.26592E-06 2.64698E-23
 -1       315 2.72282E-05-3.12317E-06-1.32349E-23
 -1       316 2.67435E-05-3.83302E-06 0.00000E+00
 -1       317 2.61780E-05-4.32563E-06 1.32349E-23
 -1       318 2.55059E-05-4.53272E-06 0.00000E+00
 -1       319 2.47050E-05-4.38681E-06 0.00000E+00
 -1       320 2.37473E-05-3.82502E-06 0.00000E+00
 -1       321 3.09489E-05-6.04104E-07 0.00000E+00
 -1       322 3.08172E-05-1.18799E-07-3.30872E-24
 -1       323 3.06852E-05 8.86877E-08 0.00000E+00
 -1       324 3.05542E-05 3.35809E-08-1.65436E-24
 -1       325 3.04231E-05-2.37292E-07-3.30872E-24
 -1       326 3.02922E-05-6.75890E-07 0.00000E+00
 -1       327 3.01612E-05-1.21401E-06 0.00000E+00
 -1       328 3.00303E-05-1.78289E-06 0.00000E+00
 -1       329 2.98993E-05-2.31003E-06 0.00000E+00
 -1       330 2.97685E-05-2.72324E-06 1.65436E-24
 -1       331 2.96377E-05-2.96396E-06 3.30872E-24
 -1       332 2.95069E-05-2.97464E-06 0.00000E+00
 -1       333 2.93761E-05-2.72536E-06-3.30872E-24
 -1       334 2.92451E-05-2.18770E-06 0.00000E+00
 -1       335 2.91140E-05-1.36788E-06-3.30872E-24
 -1       336 3.00290E-05-1.61487E-06-6.61744E-24
 -1       337 2.87604E-05-1.84844E-06 0.00000E+00
 -1       338 2.73329E-05-2.08212E-06-6.61744E-24
 -1       339 2.57998E-05-2.31527E-06 0.00000E+00
 -1       340 2.42150E-05-2.54853E-06 0.00000E+00
 -1       341 3.03499E-05-7.03445E-07 0.00000E+00
 -1       342 2.96744E-05-2.08915E-07-6.61744E-24
 -1       343 2.91032E-05 9.34536E-09-1.32349E-23
 -1       344 2.86687E-05-1.40642E-07 0.00000E+00
 -1       345 2.83497E-05-5.98992E-07 0.00000E+00
 -1       346 2.81215E-05-1.30066E-06 6.61744E-24
 -1       347 2.79229E-05-2.08107E-06 1.32349E-23
 -1       348 2.76915E-05-2.77421E-06 0.00000E+00
 -1       349 2.73784E-05-3.24918E-06 0.00000E+00
 -1       350 2.69361E-05-3.37916E-06 0.00000E+00
 -1       351 2.63703E-05-3.17963E-06 0.00000E+00
 -1       352 2.56894E-05-2.67197E-06 0.00000E+00
 -1       353 2.49482E-05-2.00353E-06-1.32349E-23
 -1       354 2.42063E-05-1.32314E-06 0.00000E+00
 -1       355 2.35172E-05-7.87188E-07 6.61744E-24
 -1       356 2.88509E-05 8.70085E-07 0.00000E+00
 -1       357 2.87199E-05 1.83805E-06-1.65436E-24
 -1       358 2.85891E-05 2.60072E-06 0.00000E+00
 -1       359 2.84584E-05 3.12975E-06-1.65436E-24
 -1       360 2.83278E-05 3.42486E-06 3.30872E-24
 -1       361 2.81973E-05 3.48707E-06 1.65436E-24
 -1       362 2.80668E-05 3.34538E-06 3.30872E-24
 -1       363 2.79363E-05 3.02990E-06 0.00000E+00
 -1       364 2.78057E-05 2.59159E-06 0.00000E+00
 -1       365 2.76752E-05 2.08212E-06 0.00000E+00
 -1       366 2.75447E-05 1.56172E-06 0.00000E+00
 -1       367 2.74146E-05 1.09063E-06 0.00000E+00
 -1       368 2.72847E-05 7.23206E-07 3.30872E-24
 -1       369 2.71566E-05 5.13232E-07-8.27181E-25
 -1       370 2.70279E-05 4.95641E-07-4.13590E-25
 -1       371 2.77316E-05-3.22456E-07 0.00000E+00
 -1       372 2.64461E-05-3.67372E-07 8.27181E-25
 -1       373 2.52273E-05-4.12425E-07 0.00000E+00
 -1       374 2.41767E-05-4.56072E-07 4.13590E-25
 -1       375 2.33889E-05-4.99630E-07-4.13590E-25
 -1       376 2.82499E-05 9.83907E-07-6.61744E-24
 -1       377 2.74313E-05 2.45865E-06 0.00000E+00
 -1       378 2.65955E-05 3.97946E-06 0.00000E+00
 -1       379 2.58070E-05 5.37285E-06 0.00000E+00
 -1       380 2.51202E-05 6.49590E-06-6.61744E-24
 -1       381 2.45879E-05 7.20807E-06 0.00000E+00
 -1       382 2.42262E-05 7.46564E-06 0.00000E+00
 -1       383 2.40498E-05 7.22939E-06 0.00000E+00
 -1       384 2.40294E-05 6.57658E-06-6.61744E-24
 -1       385 2.41346E-05 5.58871E-06 0.00000E+00
 -1       386 2.43053E-05 4.42544E-06 0.00000E+00
 -1       387 2.44817E-05 3.24833E-06 3.30872E-24
 -1       388 2.46015E-05 2.22245E-06 0.00000E+00
 -1       389 2.46058E-05 1.51232E-06-3.30872E-24
 -1       390 2.44577E-05 1.20638E-06 3.30872E-24
 -1       406 2.65372E-05 8.20017E-07 0.00000E+00
 -1       407 2.61223E-05 9.35903E-07 0.00000E+00
 -1       408 2.56693E-05 1.05173E-06-3.30872E-24
 -1       409 2.51838E-05 1.16727E-06 0.00000E+00
 -1       410 2.46715E-05 1.28219E-06 0.00000E+00
 -1       466 1.81772E-05 1.40501E-06 0.00000E+00
 -1       467 1.85923E-05 2.74108E-06-6.61744E-24
 -1       468 1.90071E-05 3.25903E-06 0.00000E+00
 -1       469 1.94253E-05 3.31688E-06 0.00000E+00
 -1       470 1.98436E-05 3.06087E-06 1.32349E-23
 -1       471 2.02625E-05 2.63156E-06-6.61744E-24
 -1       472 2.06814E-05 2.08950E-06 0.00000E+00
 -1       473 2.11003E-05 1.49319E-06-6.61744E-24
 -1       474 2.15193E-05 8.76085E-07 0.00000E+00
 -1       475 2.19380E-05 2.71260E-07 6.61744E-24
 -1       476 2.23567E-05-2.82534E-07 0.00000E+00
 -1       477 2.27743E-05-7.45636E-07 0.00000E+00
 -1       478 2.31919E-05-1.03652E-06 1.32349E-23
 -1       479 2.36041E-05-1.07054E-06 3.30872E-24
 -1       480 2.40180E-05-6.45034E-07 0.00000E+00
 -1       481 1.48984E-05-1.06097E-06 0.00000E+00
 -1       482 1.25188E-05-9.95040E-07 8.27181E-25
 -1       483 1.05652E-05-9.28442E-07 1.65436E-24
 -1       484 8.96092E-06-8.60790E-07-8.27181E-25
 -1       485 7.65297E-06-7.92633E-07 1.65436E-24
 -1       486 1.61341E-05 1.95319E-06 0.00000E+00
 -1       487 1.44082E-05 5.18166E-06 0.00000E+00
 -1       488 1.29437E-05 7.72254E-06-1.32349E-23
 -1       489 1.20504E-05 8.73907E-06-6.61744E-24
 -1       490 1.17999E-05 8.04311E-06 1.32349E-23
 -1       491 1.22465E-05 5.47811E-06 6.61744E-24
 -1       492 1.31511E-05 1.68128E-06-1.32349E-23
 -1       493 1.42670E-05-2.68570E-06-6.61744E-24
 -1       494 1.52592E-05-6.71905E-06-1.32349E-23
 -1       495 1.57943E-05-9.52159E-06 6.61744E-24
 -1       496 1.57307E-05-1.07192E-05 1.32349E-23
 -1       497 1.49375E-05-9.96936E-06 6.61744E-24
 -1       498 1.35928E-05-7.75555E-06 0.00000E+00
 -1       499 1.18905E-05-4.58783E-06 0.00000E+00
 -1       500 1.01730E-05-1.38300E-06 0.00000E+00
 -1       501 2.42854E-05 1.64410E-06 6.61744E-24
 -1       502 2.41744E-05 2.34262E-06 0.00000E+00
 -1       503 2.40632E-05 2.56882E-06-3.30872E-24
 -1       504 2.39533E-05 2.34697E-06 1.65436E-24
 -1       505 2.38433E-05 1.74682E-06 3.30872E-24
 -1       506 2.37333E-05 8.39891E-07-1.65436E-24
 -1       507 2.36232E-05-2.71180E-07 3.30872E-24
 -1       508 2.35130E-05-1.48284E-06 0.00000E+00
 -1       509 2.34028E-05-2.68131E-06 0.00000E+00
 -1       510 2.32927E-05-3.75287E-06 1.65436E-24
 -1       511 2.31829E-05-4.59670E-06-3.30872E-24
 -1       512 2.30732E-05-5.11300E-06 0.00000E+00
 -1       513 2.29637E-05-5.23518E-06 0.00000E+00
 -1       514 2.28538E-05-4.89849E-06-1.65436E-24
 -1       515 2.27438E-05-4.08469E-06 0.00000E+00
 -1       516 2.25831E-05 5.24556E-07 0.00000E+00
 -1       517 2.00209E-05 6.10901E-07 0.00000E+00
 -1       518 1.70420E-05 6.95176E-07 0.00000E+00
 -1       519 1.39693E-05 7.80682E-07 4.13590E-25
 -1       520 1.11177E-05 8.67355E-07 0.00000E+00
 -1       521 2.30792E-05 1.30457E-06 0.00000E+00
 -1       522 2.18990E-05 1.69272E-06 0.00000E+00
 -1       523 2.08680E-05 1.68563E-06 0.00000E+00
 -1       524 1.99576E-05 1.34528E-06-1.32349E-23
 -1       525 1.91462E-05 7.39443E-07 0.00000E+00
 -1       526 1.84077E-05-6.30096E-08 1.32349E-23
 -1       527 1.77161E-05-9.91227E-07 0.00000E+00
 -1       528 1.70446E-05-1.97340E-06 0.00000E+00
 -1       529 1.63662E-05-2.93721E-06 0.00000E+00
 -1       530 1.56540E-05-3.81048E-06 0.00000E+00
 -1       531 1.48814E-05-4.52191E-06 0.00000E+00
 -1       532 1.40226E-05-5.00146E-06 0.00000E+00
 -1       533 1.30519E-05-5.18140E-06 2.64698E-23
 -1       534 1.19482E-05-4.99544E-06 0.00000E+00
 -1       535 1.06835E-05-4.38326E-06 0.00000E+00
 -1       536 2.26443E-05-1.40813E-06 0.00000E+00
 -1       537 2.26637E-05-3.67778E-07 0.00000E+00
 -1       538 2.26831E-05 3.78635E-07 0.00000E+00
 -1       539 2.27038E-05 8.66689E-07 5.16988E-26
 -1       540 2.27246E-05 1.13185E-06-2.06795E-25
 -1       541 2.27457E-05 1.20957E-06-2.06795E-25
 -1       542 2.27669E-05 1.13526E-06 0.00000E+00
 -1       543 2.27881E-05 9.44310E-07 2.06795E-25
 -1       544 2.28093E-05 6.72084E-07 0.00000E+00
 -1       545 2.28304E-05 3.53929E-07 0.00000E+00
 -1       546 2.28516E-05 2.51903E-08 0.00000E+00
 -1       547 2.28728E-05-2.78790E-07 4.13590E-25
 -1       548 2.28940E-05-5.22672E-07 0.00000E+00
 -1       549 2.29152E-05-6.71104E-07 0.00000E+00
 -1       550 2.29365E-05-6.88691E-07 0.00000E+00
 -1       551 2.06347E-05-2.86004E-06-1.96455E-24
 -1       552 1.84120E-05-2.94020E-06-4.13590E-25
 -1       553 1.60629E-05-3.02042E-06 0.00000E+00
 -1       554 1.36880E-05-3.10155E-06-3.30872E-24
 -1       555 1.13881E-05-3.18462E-06 0.00000E+00
 -1       556 2.20462E-05-1.49624E-06 0.00000E+00
 -1       557 2.15732E-05-5.07986E-07 0.00000E+00
 -1       558 2.12004E-05 2.15064E-07 0.00000E+00
 -1       559 2.09160E-05 7.03765E-07 3.30872E-24
 -1       560 2.07081E-05 9.89028E-07 0.00000E+00
 -1       561 2.05648E-05 1.10203E-06 0.00000E+00
 -1       562 2.04745E-05 1.07399E-06 0.00000E+00
 -1       563 2.04254E-05 9.36147E-07-1.65436E-24
 -1       564 2.04058E-05 7.19758E-07 0.00000E+00
 -1       565 2.04039E-05 4.56096E-07 0.00000E+00
 -1       566 2.04080E-05 1.76438E-07 0.00000E+00
 -1       567 2.04065E-05-8.79317E-08 0.00000E+00
 -1       568 2.03876E-05-3.05739E-07-1.65436E-24
 -1       569 2.03398E-05-4.45743E-07-3.61892E-25
 -1       570 2.02518E-05-4.76730E-07 1.24077E-24
 -1       571 2.30285E-05-3.67032E-07 0.00000E+00
 -1       572 2.31015E-05-2.47592E-07 2.06795E-25
 -1       573 2.31752E-05-1.72290E-07-1.65436E-24
 -1       574 2.32492E-05-1.31078E-07 0.00000E+00
 -1       575 2.33233E-05-1.13868E-07 0.00000E+00
 -1       576 2.33974E-05-1.10507E-07 0.00000E+00
 -1       577 2.34716E-05-1.10839E-07 3.30872E-24
 -1       578 2.35458E-05-1.04697E-07 0.00000E+00
 -1       579 2.36199E-05-8.19170E-08 0.00000E+00
 -1       580 2.36941E-05-3.23310E-08 0.00000E+00
 -1       581 2.37683E-05 5.42256E-08 0.00000E+00
 -1       582 2.38424E-05 1.87909E-07 3.30872E-24
 -1       583 2.39165E-05 3.78868E-07 0.00000E+00
 -1       584 2.39906E-05 6.37151E-07 0.00000E+00
 -1       585 2.40645E-05 9.72756E-07 3.30872E-24
 -1       586 2.25475E-05-5.10891E-07-1.65436E-24
 -1       587 2.20778E-05-4.81350E-07 0.00000E+00
 -1       588 2.15739E-05-4.51836E-07-8.27181E-25
 -1       589 2.10615E-05-4.22612E-07-7.75482E-26
 -1       590 2.05666E-05-3.94046E-07 0.00000E+00
 -1       591 2.28367E-05-3.39223E-07 0.00000E+00
 -1       592 2.27256E-05-1.73751E-07 0.00000E+00
 -1       593 2.26248E-05-3.71653E-08 1.65436E-24
 -1       594 2.25322E-05 7.65852E-08-8.27181E-25
 -1       595 2.24457E-05 1.73550E-07 0.00000E+00
 -1       596 2.23633E-05 2.59742E-07 0.00000E+00
 -1       597 2.22826E-05 3.41165E-07-1.65436E-24
 -1       598 2.22014E-05 4.23819E-07 0.00000E+00
 -1       599 2.21175E-05 5.13706E-07-1.65436E-24
 -1       600 2.20287E-05 6.16823E-07-8.27181E-25
 -1       601 2.19327E-05 7.39170E-07 8.27181E-25
 -1       602 2.18272E-05 8.86754E-07-8.27181E-25
 -1       603 2.17102E-05 1.06558E-06 2.06795E-25
 -1       604 2.15796E-05 1.28169E-06 3.61892E-25
 -1       605 2.14333E-05 1.54114E-06 0.00000E+00
 -1       606 2.41640E-05 1.95585E-06-3.30872E-24
 -1       607 2.41882E-05 2.57043E-06 0.00000E+00
 -1       608 2.42118E-05 3.23550E-06-3.30872E-24
 -1       609 2.42352E-05 3.94747E-06 0.00000E+00
 -1       610 2.42585E-05 4.70275E-06 0.00000E+00
 -1       611 2.42817E-05 5.49764E-06-8.27181E-25
 -1       612 2.43048E-05 6.32845E-06 1.65436E-24
 -1       613 2.43279E-05 7.19150E-06-8.27181E-25
 -1       614 2.43510E-05 8.08311E-06 0.00000E+00
 -1       615 2.43741E-05 8.99956E-06 0.00000E+00
 -1       616 2.43971E-05 9.93719E-06 0.00000E+00
 -1       617 2.44202E-05 1.08923E-05 0.00000E+00
 -1       618 2.44432E-05 1.18612E-05 0.00000E+00
 -1       619 2.44661E-05 1.28401E-05 0.00000E+00
 -1       620 2.44890E-05 1.38255E-05 8.27181E-25
 -1       621 2.36080E-05 1.47104E-06 0.00000E+00
 -1       622 2.30906E-05 1.54761E-06 0.00000E+00
 -1       623 2.25922E-05 1.62422E-06 1.65436E-24
 -1       624 2.21189E-05 1.70065E-06 8.27181E-25
 -1       625 2.16768E-05 1.77663E-06-8.27181E-25
 -1       626 2.39709E-05 1.98252E-06 0.00000E+00
 -1       627 2.37818E-05 2.62607E-06 0.00000E+00
 -1       628 2.35734E-05 3.32045E-06 0.00000E+00
 -1       629 2.33479E-05 4.05985E-06 0.00000E+00
 -1       630 2.31077E-05 4.83843E-06 0.00000E+00
 -1       631 2.28550E-05 5.65026E-06 0.00000E+00
 -1       632 2.25920E-05 6.48939E-06-1.65436E-24
 -1       633 2.23210E-05 7.34989E-06 0.00000E+00
 -1       634 2.20441E-05 8.22582E-06 1.65436E-24
 -1       635 2.17637E-05 9.11122E-06 0.00000E+00
 -1       636 2.14819E-05 1.00002E-05 0.00000E+00
 -1       637 2.12011E-05 1.08867E-05-4.13590E-25
 -1       638 2.09232E-05 1.17649E-05 1.65436E-24
 -1       639 2.06506E-05 1.26287E-05 0.00000E+00
 -1       640 2.03851E-05 1.34723E-05 8.27181E-25
 -1       641 2.45125E-05 1.58388E-05 0.00000E+00
 -1       642 2.45124E-05 1.69717E-05 1.03398E-25
 -1       643 2.45122E-05 1.81968E-05-1.03398E-25
 -1       644 2.45118E-05 1.94984E-05 0.00000E+00
 -1       645 2.45113E-05 2.08611E-05 0.00000E+00
 -1       646 2.45107E-05 2.22694E-05-6.46235E-27
 -1       647 2.45100E-05 2.37079E-05 0.00000E+00
 -1       648 2.45094E-05 2.51610E-05 0.00000E+00
 -1       649 2.45087E-05 2.66132E-05 0.00000E+00
 -1       650 2.45080E-05 2.80491E-05-1.29247E-26
 -1       651 2.45074E-05 2.94532E-05 0.00000E+00
 -1       652 2.45067E-05 3.08100E-05 5.16988E-26
 -1       653 2.45061E-05 3.21041E-05 2.06795E-25
 -1       654 2.45050E-05 3.33198E-05 0.00000E+00
 -1       655 2.45041E-05 3.44417E-05-8.27181E-25
 -1       656 2.36232E-05 1.47291E-05 0.00000E+00
 -1       657 2.28543E-05 1.46403E-05 8.27181E-25
 -1       658 2.21627E-05 1.45518E-05-1.65436E-24
 -1       659 2.15060E-05 1.44631E-05-8.27181E-25
 -1       660 2.08418E-05 1.43743E-05 8.27181E-25
 -1       661 2.42259E-05 1.58688E-05 0.00000E+00
 -1       662 2.39122E-05 1.70090E-05 1.65436E-24
 -1       663 2.35714E-05 1.82206E-05 0.00000E+00
 -1       664 2.32089E-05 1.94916E-05 1.65436E-24
 -1       665 2.28287E-05 2.08098E-05 0.00000E+00
 -1       666 2.24354E-05 2.21628E-05 0.00000E+00
 -1       667 2.20335E-05 2.35388E-05 0.00000E+00
 -1       668 2.16276E-05 2.49256E-05-1.65436E-24
 -1       669 2.12222E-05 2.63112E-05 0.00000E+00
 -1       670 2.08217E-05 2.76834E-05 0.00000E+00
 -1       671 2.04307E-05 2.90303E-05 0.00000E+00
 -1       672 2.00537E-05 3.03397E-05-1.65436E-24
 -1       673 1.96953E-05 3.15995E-05-3.30872E-24
 -1       674 1.93593E-05 3.27973E-05 0.00000E+00
 -1       675 1.90512E-05 3.39212E-05 8.27181E-25
 -1       676 2.35432E-05 3.53712E-05-1.65436E-24
 -1       677 2.25864E-05 3.52876E-05-8.27181E-25
 -1       678 2.16304E-05 3.52041E-05 0.00000E+00
 -1       679 2.06756E-05 3.51209E-05 0.00000E+00
 -1       680 1.97221E-05 3.50377E-05-1.65436E-24
 -1       681 6.72436E-06 1.54079E-08 0.00000E+00
 -1       682 6.86354E-06 3.57514E-07 0.00000E+00
 -1       683 7.00254E-06 3.93239E-07 0.00000E+00
 -1       684 7.14225E-06 2.12679E-07 1.65436E-24
 -1       685 7.28194E-06-1.24315E-07-3.30872E-24
 -1       686 7.42174E-06-5.58845E-07-1.65436E-24
 -1       687 7.56154E-06-1.04566E-06 0.00000E+00
 -1       688 7.70134E-06-1.53983E-06-1.65436E-24
 -1       689 7.84115E-06-1.99747E-06-3.30872E-24
 -1       690 7.98094E-06-2.37444E-06 0.00000E+00
 -1       691 8.12071E-06-2.61534E-06-3.30872E-24
 -1       692 8.26018E-06-2.66392E-06 1.65436E-24
 -1       693 8.39957E-06-2.43703E-06 0.00000E+00
 -1       694 8.53713E-06-1.84983E-06-1.65436E-24
 -1       695 8.67484E-06-7.67202E-07 8.27181E-25
 -1       696 5.57288E-06-6.07346E-07 0.00000E+00
 -1       697 4.41395E-06-4.86602E-07-1.65436E-24
 -1       698 3.19443E-06-3.66111E-07-3.30872E-24
 -1       699 1.99600E-06-2.44710E-07 0.00000E+00
 -1       700 9.02924E-07-1.23266E-07-3.30872E-24
 -1       701 6.08905E-06 1.81444E-07 1.65436E-24
 -1       702 5.56950E-06 1.11544E-06 1.65436E-24
 -1       703 5.06191E-06 2.01924E-06 0.00000E+00
 -1       704 4.58715E-06 2.83138E-06 0.00000E+00
 -1       705 4.16411E-06 3.50587E-06 3.30872E-24
 -1       706 3.80968E-06 3.99695E-06 1.65436E-24
 -1       707 3.53047E-06 4.28763E-06 0.00000E+00
 -1       708 3.33237E-06 4.36206E-06 0.00000E+00
 -1       709 3.20870E-06 4.23801E-06 3.30872E-24
 -1       710 3.15235E-06 3.93449E-06 0.00000E+00
 -1       711 3.14568E-06 3.49842E-06-3.30872E-24
 -1       712 3.17102E-06 2.97767E-06-1.65436E-24
 -1       713 3.20527E-06 2.43317E-06 0.00000E+00
 -1       714 3.22688E-06 1.92663E-06 0.00000E+00
 -1       715 3.21323E-06 1.51266E-06-1.65436E-24
 -1       716 8.82729E-06 2.60446E-06-8.27181E-25
 -1       717 8.85725E-06 3.50255E-06 0.00000E+00
 -1       718 8.88729E-06 3.76551E-06 0.00000E+00
 -1       719 8.91818E-06 3.51465E-06 0.00000E+00
 -1       720 8.94893E-06 2.85586E-06 0.00000E+00
 -1       721 8.97961E-06 1.89452E-06 0.00000E+00
 -1       722 9.01010E-06 7.26883E-07 8.27181E-25
 -1       723 9.04047E-06-5.51113E-07 0.00000E+00
 -1       724 9.07081E-06-1.84681E-06-8.27181E-25
 -1       725 9.10113E-06-3.06759E-06 0.00000E+00
 -1       726 9.13158E-06-4.11859E-06 0.00000E+00
 -1       727 9.16174E-06-4.90470E-06 0.00000E+00
 -1       728 9.19202E-06-5.32287E-06-4.13590E-25
 -1       729 9.21981E-06-5.26952E-06-8.27181E-25
 -1       730 9.24825E-06-4.62715E-06 0.00000E+00
 -1       731 6.95328E-06 9.93339E-07 4.13590E-25
 -1       732 5.47886E-06 1.04359E-06-2.06795E-25
 -1       733 4.36651E-06 1.09395E-06 0.00000E+00
 -1       734 3.60406E-06 1.14555E-06 0.00000E+00
 -1       735 3.19709E-06 1.19742E-06 0.00000E+00
 -1       736 7.83884E-06 2.53686E-06 0.00000E+00
 -1       737 7.11717E-06 3.44994E-06 0.00000E+00
 -1       738 6.70996E-06 3.52802E-06 0.00000E+00
 -1       739 6.67093E-06 2.61775E-06 0.00000E+00
 -1       740 6.93741E-06 8.89985E-07 0.00000E+00
 -1       741 7.44044E-06-1.47325E-06 6.61744E-24
 -1       742 8.03486E-06-4.08181E-06 0.00000E+00
 -1       743 8.57399E-06-6.54215E-06-6.61744E-24
 -1       744 8.92917E-06-8.50901E-06 1.32349E-23
 -1       745 8.97390E-06-9.64440E-06 0.00000E+00
 -1       746 8.68272E-06-9.88252E-06-1.32349E-23
 -1       747 8.03521E-06-9.17045E-06 0.00000E+00
 -1       748 7.12716E-06-7.76594E-06-6.61744E-24
 -1       749 6.06065E-06-5.93583E-06 0.00000E+00
 -1       750 4.98644E-06-4.08726E-06-6.61744E-24
 -1       751 9.89991E-06-1.89375E-06 6.61744E-24
 -1       752 1.05781E-05-1.13635E-06 0.00000E+00
 -1       753 1.12540E-05-7.76506E-07-1.32349E-23
 -1       754 1.19375E-05-5.97645E-07 0.00000E+00
 -1       755 1.26213E-05-5.33551E-07-2.64698E-23
 -1       756 1.33066E-05-5.21434E-07 0.00000E+00
 -1       757 1.39920E-05-5.41910E-07 2.64698E-23
 -1       758 1.46778E-05-5.76569E-07 0.00000E+00
 -1       759 1.53635E-05-6.18854E-07 0.00000E+00
 -1       760 1.60491E-05-6.62435E-07 0.00000E+00
 -1       761 1.67346E-05-7.02067E-07 0.00000E+00
 -1       762 1.74190E-05-7.32387E-07-1.32349E-23
 -1       763 1.81032E-05-7.40253E-07 0.00000E+00
 -1       764 1.87820E-05-7.11853E-07-6.61744E-24
 -1       765 1.94626E-05-6.03196E-07 0.00000E+00
 -1       766 7.84292E-06-3.18164E-06 3.30872E-24
 -1       767 6.98375E-06-3.06862E-06 6.46235E-27
 -1       768 6.42885E-06-2.95652E-06 0.00000E+00
 -1       769 5.92388E-06-2.84285E-06-4.13590E-25
 -1       770 5.22009E-06-2.72860E-06 0.00000E+00
 -1       771 8.26060E-06-1.92761E-06 1.32349E-23
 -1       772 7.34967E-06-8.37248E-07 0.00000E+00
 -1       773 6.52660E-06 1.61401E-08 0.00000E+00
 -1       774 5.78338E-06 6.55317E-07 6.61744E-24
 -1       775 5.11186E-06 1.10310E-06 1.32349E-23
 -1       776 4.50350E-06 1.38246E-06 6.61744E-24
 -1       777 3.94970E-06 1.51640E-06 0.00000E+00
 -1       778 3.44180E-06 1.52800E-06-6.61744E-24
 -1       779 2.97114E-06 1.44037E-06 0.00000E+00
 -1       780 2.52903E-06 1.27669E-06 0.00000E+00
 -1       781 2.10678E-06 1.06015E-06 0.00000E+00
 -1       782 1.69577E-06 8.13992E-07-6.61744E-24
 -1       783 1.28736E-06 5.61454E-07 1.32349E-23
 -1       784 8.73311E-07 3.25880E-07-6.61744E-24
 -1       785 4.45427E-07 1.30611E-07 0.00000E+00
 -1       786 2.01824E-05-1.01588E-07 0.00000E+00
 -1       787 2.02546E-05 1.05455E-07 8.27181E-25
 -1       788 2.03267E-05 2.62340E-07 0.00000E+00
 -1       789 2.03994E-05 3.78150E-07 0.00000E+00
 -1       790 2.04723E-05 4.61936E-07 0.00000E+00
 -1       791 2.05452E-05 5.22731E-07 8.27181E-25
 -1       792 2.06182E-05 5.69556E-07 1.65436E-24
 -1       793 2.06912E-05 6.11418E-07 8.27181E-25
 -1       794 2.07642E-05 6.57326E-07 0.00000E+00
 -1       795 2.08373E-05 7.16290E-07 0.00000E+00
 -1       796 2.09103E-05 7.97327E-07 1.65436E-24
 -1       797 2.09832E-05 9.09469E-07 0.00000E+00
 -1       798 2.10561E-05 1.06177E-06-1.65436E-24
 -1       799 2.11287E-05 1.26329E-06 0.00000E+00
 -1       800 2.12013E-05 1.52316E-06-1.65436E-24
 -1       801 1.83228E-05-3.01876E-07 0.00000E+00
 -1       802 1.46018E-05-2.36657E-07 0.00000E+00
 -1       803 9.92956E-06-1.75205E-07 4.13590E-25
 -1       804 5.28570E-06-1.15450E-07 0.00000E+00
 -1       805 1.64976E-06-5.19147E-08 0.00000E+00
 -1       806 1.99324E-05-1.29835E-07 0.00000E+00
 -1       807 1.97572E-05 8.23674E-08 0.00000E+00
 -1       808 1.95891E-05 2.73691E-07 3.30872E-24
 -1       809 1.94267E-05 4.48720E-07-1.65436E-24
 -1       810 1.92686E-05 6.12013E-07 3.30872E-24
 -1       811 1.91132E-05 7.68096E-07 0.00000E+00
 -1       812 1.89588E-05 9.21485E-07-3.30872E-24
 -1       813 1.88036E-05 1.07669E-06-8.27181E-25
 -1       814 1.86461E-05 1.23824E-06 0.00000E+00
 -1       815 1.84846E-05 1.41063E-06 0.00000E+00
 -1       816 1.83172E-05 1.59838E-06 3.30872E-24
 -1       817 1.81425E-05 1.80600E-06-1.65436E-24
 -1       818 1.79587E-05 2.03800E-06 1.65436E-24
 -1       819 1.77644E-05 2.29892E-06 0.00000E+00
 -1       820 1.75580E-05 2.59330E-06 0.00000E+00
 -1       821 2.12049E-05 2.26844E-06-8.27181E-25
 -1       822 2.11336E-05 2.78025E-06-8.27181E-25
 -1       823 2.10622E-05 3.37625E-06 0.00000E+00
 -1       824 2.09903E-05 4.04663E-06 8.27181E-25
 -1       825 2.09181E-05 4.78159E-06-1.65436E-24
 -1       826 2.08458E-05 5.57125E-06 8.27181E-25
 -1       827 2.07735E-05 6.40570E-06 0.00000E+00
 -1       828 2.07011E-05 7.27504E-06 0.00000E+00
 -1       829 2.06287E-05 8.16929E-06 0.00000E+00
 -1       830 2.05562E-05 9.07849E-06-8.27181E-25
 -1       831 2.04838E-05 9.99268E-06 0.00000E+00
 -1       832 2.04115E-05 1.09019E-05 0.00000E+00
 -1       833 2.03393E-05 1.17961E-05 0.00000E+00
 -1       834 2.02676E-05 1.26654E-05 0.00000E+00
 -1       835 2.01959E-05 1.34998E-05-8.27181E-25
 -1       836 2.07727E-05 2.02638E-06 0.00000E+00
 -1       837 2.00980E-05 2.20849E-06 0.00000E+00
 -1       838 1.93327E-05 2.39021E-06-3.30872E-24
 -1       839 1.85614E-05 2.57151E-06-1.65436E-24
 -1       840 1.78689E-05 2.75316E-06 0.00000E+00
 -1       841 2.11068E-05 2.26399E-06 2.06795E-25
 -1       842 2.09021E-05 2.77831E-06 2.58494E-26
 -1       843 2.06632E-05 3.38368E-06-2.06795E-25
 -1       844 2.03938E-05 4.06949E-06 0.00000E+00
 -1       845 2.00984E-05 4.82451E-06 0.00000E+00
 -1       846 1.97813E-05 5.63732E-06 0.00000E+00
 -1       847 1.94469E-05 6.49587E-06-4.13590E-25
 -1       848 1.90998E-05 7.38810E-06 2.06795E-25
 -1       849 1.87448E-05 8.30154E-06 4.13590E-25
 -1       850 1.83864E-05 9.22371E-06-2.06795E-25
 -1       851 1.80295E-05 1.01421E-05 0.00000E+00
 -1       852 1.76788E-05 1.10440E-05 0.00000E+00
 -1       853 1.73388E-05 1.19171E-05 4.13590E-25
 -1       854 1.70142E-05 1.27489E-05 2.06795E-25
 -1       855 1.67095E-05 1.35278E-05 8.27181E-25
 -1       856 2.00472E-05 1.51384E-05 1.65436E-24
 -1       857 1.99628E-05 1.61404E-05 0.00000E+00
 -1       858 1.98783E-05 1.72754E-05 0.00000E+00
 -1       859 1.97931E-05 1.85236E-05-8.27181E-25
 -1       860 1.97077E-05 1.98647E-05 0.00000E+00
 -1       861 1.96221E-05 2.12786E-05-1.65436E-24
 -1       862 1.95364E-05 2.27449E-05 0.00000E+00
 -1       863 1.94506E-05 2.42435E-05 1.65436E-24
 -1       864 1.93648E-05 2.57540E-05 0.00000E+00
 -1       865 1.92790E-05 2.72561E-05-1.65436E-24
 -1       866 1.91933E-05 2.87294E-05 3.30872E-24
 -1       867 1.91077E-05 3.01538E-05 0.00000E+00
 -1       868 1.90223E-05 3.15088E-05 0.00000E+00
 -1       869 1.89374E-05 3.27744E-05 0.00000E+00
 -1       870 1.88525E-05 3.39304E-05-1.65436E-24
 -1       871 1.94491E-05 1.42825E-05 0.00000E+00
 -1       872 1.88192E-05 1.42750E-05 0.00000E+00
 -1       873 1.82201E-05 1.42673E-05 0.00000E+00
 -1       874 1.76338E-05 1.42593E-05 0.00000E+00
 -1       875 1.70424E-05 1.42510E-05 4.13590E-25
 -1       876 1.99240E-05 1.51666E-05 1.65436E-24
 -1       877 1.96758E-05 1.61763E-05 1.65436E-24
 -1       878 1.93847E-05 1.72999E-05-3.30872E-24
 -1       879 1.90578E-05 1.85208E-05 0.00000E+00
 -1       880 1.87007E-05 1.98221E-05 0.00000E+00
 -1       881 1.83197E-05 2.11869E-05 0.00000E+00
 -1       882 1.79211E-05 2.25988E-05 0.00000E+00
 -1       883 1.75111E-05 2.40412E-05 1.65436E-24
 -1       884 1.70958E-05 2.54976E-05 3.30872E-24
 -1       885 1.66814E-05 2.69514E-05 0.00000E+00
 -1       886 1.62741E-05 2.83862E-05-3.30872E-24
 -1       887 1.58801E-05 2.97855E-05-1.65436E-24
 -1       888 1.55055E-05 3.11326E-05 0.00000E+00
 -1       889 1.51561E-05 3.24107E-05-1.65436E-24
 -1       890 1.48389E-05 3.36035E-05 0.00000E+00
 -1       891 1.79442E-05 3.49129E-05 1.65436E-24
 -1       892 1.72787E-05 3.48684E-05 0.00000E+00
 -1       893 1.66904E-05 3.48240E-05-8.27181E-25
 -1       894 1.60959E-05 3.47797E-05-4.13590E-25
 -1       895 1.54117E-05 3.47353E-05-8.27181E-25
 -1       896 1.95816E-07 6.97569E-07 0.00000E+00
 -1       897 3.93325E-07 1.18316E-06-3.30872E-24
 -1       898 5.90801E-07 1.50741E-06-6.61744E-24
 -1       899 7.88603E-07 1.71961E-06-3.30872E-24
 -1       900 9.86427E-07 1.84640E-06 0.00000E+00
 -1       901 1.18431E-06 1.91369E-06 0.00000E+00
 -1       902 1.38221E-06 1.93542E-06 6.61744E-24
 -1       903 1.58010E-06 1.92509E-06-3.30872E-24
 -1       904 1.77799E-06 1.88976E-06 0.00000E+00
 -1       905 1.97583E-06 1.83627E-06 0.00000E+00
 -1       906 2.17363E-06 1.76779E-06 0.00000E+00
 -1       907 2.37119E-06 1.68737E-06 3.30872E-24
 -1       908 2.56872E-06 1.59563E-06 0.00000E+00
 -1       909 2.76501E-06 1.49310E-06 3.30872E-24
 -1       910 2.96172E-06 1.37816E-06 0.00000E+00
 -1       911 3.20923E-06 1.02399E-06 0.00000E+00
 -1       912 3.26724E-06 6.23679E-07 0.00000E+00
 -1       913 3.32513E-06 8.80683E-08 0.00000E+00
 -1       914 3.38312E-06-5.43244E-07 8.27181E-25
 -1       915 3.44108E-06-1.23610E-06 1.65436E-24
 -1       916 3.49905E-06-1.95648E-06-8.27181E-25
 -1       917 3.55702E-06-2.67193E-06-1.65436E-24
 -1       918 3.61501E-06-3.34999E-06-8.27181E-25
 -1       919 3.67304E-06-3.95607E-06 1.65436E-24
 -1       920 3.73107E-06-4.45540E-06 8.27181E-25
 -1       921 3.78913E-06-4.80715E-06-1.65436E-24
 -1       922 3.84698E-06-4.97013E-06 0.00000E+00
 -1       923 3.90480E-06-4.89243E-06 0.00000E+00
 -1       924 3.96129E-06-4.52154E-06 0.00000E+00
 -1       925 4.01801E-06-3.78840E-06 0.00000E+00
 -1       926 3.81984E-06-1.05226E-06-6.61744E-24
 -1       927 3.56543E-06 8.83630E-07 3.30872E-24
 -1       928 3.31112E-06 2.96424E-06 0.00000E+00
 -1       929 3.05584E-06 4.96758E-06 0.00000E+00
 -1       930 2.80101E-06 6.68908E-06 0.00000E+00
 -1       931 2.54665E-06 7.92722E-06 3.30872E-24
 -1       932 2.29277E-06 8.58927E-06 6.61744E-24
 -1       933 2.03905E-06 8.58875E-06 0.00000E+00
 -1       934 1.78515E-06 7.98823E-06-6.61744E-24
 -1       935 1.53078E-06 6.85683E-06 0.00000E+00
 -1       936 1.27598E-06 5.38310E-06-6.61744E-24
 -1       937 1.02088E-06 3.75935E-06 0.00000E+00
 -1       938 7.65865E-07 2.21156E-06-6.61744E-24
 -1       939 5.10837E-07 9.64965E-07-3.30872E-24
 -1       940 2.56387E-07 1.76977E-07 6.61744E-24
 -1       941 1.02789E-06 1.37753E-07 0.00000E+00
 -1       942 2.11238E-06 2.88980E-07 0.00000E+00
 -1       943 3.19329E-06 4.48060E-07-2.64698E-23
 -1       944 4.28496E-06 6.09764E-07 1.32349E-23
 -1       945 5.37695E-06 7.73006E-07 0.00000E+00
 -1       946 6.47108E-06 9.36784E-07 1.32349E-23
 -1       947 7.56547E-06 1.10094E-06-2.64698E-23
 -1       948 8.66022E-06 1.26532E-06 0.00000E+00
 -1       949 9.75500E-06 1.43016E-06-2.64698E-23
 -1       950 1.08495E-05 1.59572E-06 0.00000E+00
 -1       951 1.19438E-05 1.76339E-06 0.00000E+00
 -1       952 1.30364E-05 1.93465E-06 0.00000E+00
 -1       953 1.41288E-05 2.11674E-06 2.64698E-23
 -1       954 1.52124E-05 2.31740E-06 0.00000E+00
 -1       955 1.62989E-05 2.57380E-06 1.32349E-23
 -1       956 1.72839E-05 3.38177E-06-8.27181E-25
 -1       957 1.72272E-05 3.90232E-06-2.06795E-25
 -1       958 1.71703E-05 4.48120E-06 1.24077E-24
 -1       959 1.71132E-05 5.11170E-06 4.13590E-25
 -1       960 1.70560E-05 5.78711E-06 0.00000E+00
 -1       961 1.69989E-05 6.50064E-06-8.27181E-25
 -1       962 1.69416E-05 7.24551E-06 0.00000E+00
 -1       963 1.68844E-05 8.01496E-06 0.00000E+00
 -1       964 1.68272E-05 8.80219E-06 0.00000E+00
 -1       965 1.67699E-05 9.60040E-06 0.00000E+00
 -1       966 1.67127E-05 1.04028E-05-1.65436E-24
 -1       967 1.66554E-05 1.12027E-05-8.27181E-25
 -1       968 1.65982E-05 1.19932E-05 0.00000E+00
 -1       969 1.65411E-05 1.27676E-05 0.00000E+00
 -1       970 1.64842E-05 1.35191E-05-1.65436E-24
 -1       971 1.63145E-05 1.50180E-05-1.65436E-24
 -1       972 1.61976E-05 1.59567E-05 1.65436E-24
 -1       973 1.60806E-05 1.70373E-05 0.00000E+00
 -1       974 1.59630E-05 1.82396E-05 1.65436E-24
 -1       975 1.58452E-05 1.95432E-05-3.30872E-24
 -1       976 1.57272E-05 2.09277E-05-1.65436E-24
 -1       977 1.56091E-05 2.23726E-05-3.30872E-24
 -1       978 1.54910E-05 2.38572E-05 0.00000E+00
 -1       979 1.53728E-05 2.53610E-05-3.30872E-24
 -1       980 1.52547E-05 2.68633E-05 1.65436E-24
 -1       981 1.51366E-05 2.83435E-05 3.30872E-24
 -1       982 1.50187E-05 2.97808E-05-1.65436E-24
 -1       983 1.49009E-05 3.11548E-05 3.30872E-24
 -1       984 1.47840E-05 3.24450E-05-1.65436E-24
 -1       985 1.46670E-05 3.36308E-05-1.65436E-24
 -3
    1PSTEP                        14           7           1          
  100CL  107 4.38477E-01         841                     0    7           1
 -4  STRESS      6    1
 -5  SXX         1    4    1    1
 -5  SYY         1    4    2    2
 -5  SZZ         1    4    3    3
 -5  SXY         1    4    1    2
 -5  SYZ         1    4    2    3
 -5  SZX         1    4    3    1
 -1         1-1.81626E+06-5.82212E+05-3.73913E+05-5.17149E+05-2.49808E-10 1.35818E-09
 -1         2-1.15417E+06-6.09789E+04 1.57997E+03-1.14335E+05-7.86031E-10 9.50422E-11
 -1         3-5.98391E+05-2.08775E+05-2.07606E+04-4.98048E+04 2.18506E-10-1.83275E-09
 -1         4-3.02228E+05-5.52846E+04 4.61857E+02-2.91782E+04-2.15067E-10-2.24816E-10
 -1         5-1.54113E+05 8.90346E+04-7.76114E+04-4.64657E+03 4.22733E-09 2.40107E-09
 -1         8-9.75955E+05-3.90430E+05-1.48647E+05-3.64032E+05 3.16504E-10-5.49335E-10
 -1         9-1.04133E+06-2.33281E+05-1.30425E+05-2.35149E+05-3.77137E-10 5.73588E-10
 -1        10-5.26130E+05-2.95582E+05-2.44240E+04-1.30811E+05-2.48716E-09 3.26145E-09
 -1        11-3.02465E+05-8.46248E+04 3.99802E+02-6.43571E+04 2.20954E-09-2.90856E-10
 -1        12-1.90958E+05 7.08526E+04-8.76602E+04-2.91033E+04 5.02911E-09 2.60702E-10
 -1        15 8.63576E+03-4.03663E+04 1.93264E+03-8.57673E+04 3.54703E-11-6.85759E-10
 -1        16-5.67657E+05-9.90432E+04 2.36771E+04-2.62085E+05 1.05865E-09 1.51946E-09
 -1        17-3.52591E+05-2.36569E+05-3.89979E+04-1.93541E+05 1.35212E-10 4.98403E-10
 -1        18-1.72565E+05-8.81274E+04-6.46435E+04-9.84724E+04-1.21054E-09-3.14685E-10
 -1        19-3.67455E+04 4.60419E+04-3.54771E+04-3.03699E+04 1.46899E-09-2.21310E-11
 -1        20 6.21438E+04-4.55270E+04-7.55016E+03 3.32242E+04 4.22619E-09-2.67801E-09
 -1        21 3.58357E+02-9.25264E+04 2.32535E+04 2.41250E+02 1.06303E-08 1.31113E-09
 -1        22 1.89568E+04 1.12104E+05 7.27815E+02-2.59844E+04-1.93268E-10 4.91127E-11
 -1        23-2.23241E+05 4.19126E+03 2.35459E+03-1.00618E+05-2.23190E-09 9.76191E-11
 -1        24-1.27327E+05 1.96301E+04 1.53314E+05-2.66558E+05-5.38481E-09 1.93055E-09
 -1        25 3.34180E+05 1.15276E+05 1.04369E+05-1.70949E+05 5.85715E-10-1.47854E-09
 -1        26 1.63972E+03 1.03421E+05 5.36168E+03-2.02430E+04 7.78148E-10 1.07669E-09
 -1        27-2.42402E+04-3.89308E+04-1.68415E+04 4.46777E+04 3.40894E-09-5.04770E-10
 -1        28-7.81234E+03-7.23078E+04-4.24282E+02 3.48167E+04 7.27289E-09-1.53470E-09
 -1        29 2.71520E+05 1.87080E+05 7.75269E+02-2.52508E+03-2.09289E-10-1.55387E-09
 -1        30 8.85762E+04 2.67493E+04 1.13782E+03-2.59288E+04-2.90657E-10 5.50244E-10
 -1        31-3.18589E+05 2.74464E+04 2.65956E+03-6.21098E+04-1.15061E-09 2.47383E-10
 -1        32 4.42611E+05 2.59951E+05 3.16210E+05-2.68808E+05 6.57505E-09 2.27737E-09
 -1        33 7.62135E+05 3.23597E+05 2.38290E+05-2.92865E+04-9.76245E-09 6.06178E-10
 -1        34-1.25674E+05-1.78701E+04-5.41962E+03 2.34027E+04 9.38208E-10 1.32877E-09
 -1        35-2.01435E+04-2.39567E+04-4.40953E+02 5.15867E+04 7.86235E-09-1.47702E-09
 -1        36-2.47722E+06 7.53280E+04-1.74905E+05 4.34829E-09 1.89391E-10-1.89175E-10
 -1        37-2.55282E+06-8.72204E+04-1.23657E+05-1.97212E-07-1.01341E-09-4.63842E-10
 -1        38-2.50641E+06 1.17483E+04-4.52544E+04-2.24217E-07 3.94293E-10 3.27600E-09
 -1        39-2.51872E+06-1.35983E+04-2.84081E+04-2.15987E-07 2.37098E-09 2.89219E-09
 -1        40-2.51119E+06 1.82840E+03-1.16193E+04-3.45120E-07 1.70953E-11 3.88536E-09
 -1        41-2.51312E+06-2.14051E+03-6.91643E+03-5.03682E-08-7.95531E-10 2.85218E-09
 -1        42-2.51198E+06 3.09244E+02-3.36920E+03-7.12625E-08-1.28217E-09 8.35712E-10
 -1        43-2.51228E+06-5.36083E+02-2.63528E+03-5.85246E-08 2.21606E-09-1.30564E-09
 -1        44-2.51203E+06 2.26334E+02-2.61412E+03-2.19022E-07-1.91499E-09 1.12550E-11
 -1        45-2.51273E+06-1.42447E+03-4.73320E+03-5.06285E-08-1.89999E-09-1.22674E-09
 -1        46-2.51153E+06 1.19626E+03-7.68248E+03-5.57457E-08 2.32607E-10 6.06633E-10
 -1        47-2.51637E+06-8.87363E+03-1.85832E+04-2.18895E-07-1.92323E-09-1.44792E-09
 -1        48-2.50842E+06 7.66317E+03-2.95444E+04-4.77673E-08-2.34434E-09 9.98625E-10
 -1        49-2.53861E+06-5.68900E+04-8.06687E+04 1.28210E-07-7.15120E-10 2.54659E-09
 -1        50-2.48938E+06 4.91294E+04-1.14116E+05-7.21595E-08-3.14300E-09 3.47063E-09
 -1        51 2.02730E+04-2.36556E+05 3.26552E+04-6.33036E+05-7.27596E-11-2.54659E-10
 -1        52 8.79836E+03-2.33123E+05 1.96681E+04-6.98152E+05 1.92813E-10-5.82440E-09
 -1        53 5.35922E+03-2.38873E+05 1.56594E+04-6.31380E+05-1.41881E-10 6.53381E-09
 -1        54 1.26462E+04-2.36017E+05 2.35844E+04-6.99939E+05-3.63798E-10 2.11003E-08
 -1        55 3.00325E+04-2.43384E+05 4.25960E+04-6.31106E+05-8.73115E-11 1.11850E-08
 -1        56-2.73154E+06-3.08731E+05-2.23657E+05-1.05641E+06 1.35333E-09 5.10772E-09
 -1        57-2.83425E+06-4.93286E+05-1.50054E+05-1.03292E+06-1.85537E-10 8.36735E-11
 -1        58-2.77492E+06-3.79399E+05-5.26686E+04-1.04428E+06 7.63066E-10 2.54113E-09
 -1        59-2.78430E+06-4.09925E+05-3.12260E+04-1.04736E+06-4.63842E-11 1.58252E-09
 -1        60-2.78093E+06-3.89290E+05-1.23124E+04-1.04295E+06-4.37467E-10-5.68434E-11
 -1        61-2.77773E+06-3.97942E+05-6.96896E+03-1.04849E+06-1.49765E-09-2.83461E-09
 -1        62-2.78138E+06-3.91031E+05-3.40220E+03-1.04326E+06-2.22565E-09 4.10012E-10
 -1        63-2.77787E+06-3.95536E+05-2.85350E+03-1.04747E+06-5.03650E-09 2.21462E-10
 -1        64-2.78077E+06-3.91663E+05-3.33188E+03-1.04397E+06-1.67898E-09 4.85898E-09
 -1        65-2.78009E+06-3.95460E+05-6.75636E+03-1.04571E+06-3.11218E-11 2.46371E-09
 -1        66-2.77916E+06-3.91146E+05-1.19151E+04-1.04501E+06-1.03034E-09 6.78938E-10
 -1        67-2.78854E+06-4.04943E+05-3.01891E+04-1.04221E+06-8.54016E-10-1.14778E-09
 -1        68-2.77242E+06-3.82522E+05-5.09231E+04-1.04736E+06-5.23869E-10 1.38425E-09
 -1        69-2.83837E+06-4.83992E+05-1.45061E+05-1.02650E+06 1.69530E-09 1.51340E-09
 -1        70-2.72989E+06-3.14804E+05-2.16229E+05-1.05977E+06-1.12050E-09-1.19326E-09
 -1        71-1.17225E+06-1.98539E+03 4.61433E+03-9.05345E-08 1.67442E-10-1.13914E-09
 -1        72-1.17015E+06 2.29902E+03 3.25636E+03 8.26382E-08 1.33669E-10-2.32319E-10
 -1        73-1.17148E+06-3.09467E+02 1.18336E+03 1.87430E-07 1.78774E-10-3.37582E-09
 -1        74-1.17105E+06 3.56633E+02 7.25913E+02 1.65475E-07-1.13084E-09-5.19348E-09
 -1        75-1.17135E+06-4.65774E+01 2.60908E+02 1.31861E-08-2.76406E-10 6.48868E-11
 -1        76-1.17120E+06 4.39290E+01 8.43719E+01-4.41249E-09 1.56492E-10-1.27385E-09
 -1        77-1.17133E+06 2.72265E+00-9.54550E+01 5.01737E-08-5.62141E-10 5.42300E-10
 -1        78-1.17127E+06-6.81756E+01-3.36034E+02 8.19334E-08-7.83543E-11 4.11691E-09
 -1        79-1.17129E+06 6.53885E+01-6.67535E+02-7.68535E-08 2.92719E-10 2.30210E-09
 -1        80-1.17150E+06-4.97293E+02-1.56885E+03-2.80620E-08-9.22194E-11 3.19369E-09
 -1        81-1.17110E+06 4.31218E+02-2.72025E+03 3.95427E-08-4.76712E-10 8.67544E-10
 -1        82-1.17283E+06-3.21430E+03-6.70909E+03 3.82921E-08 2.80517E-11 6.73367E-10
 -1        83-1.16997E+06 2.77786E+03-1.07073E+04-1.01188E-07-6.07484E-10-5.12500E-10
 -1        84-1.18089E+06-2.06241E+04-2.92545E+04-1.16016E-08-4.77702E-11-1.14414E-09
 -1        85-1.16306E+06 1.78097E+04-4.13994E+04-7.88174E-09-7.99332E-10 8.54925E-10
 -1        86-5.65870E+04 2.19882E+05 1.33776E+05 9.73573E+02 2.18279E-11 1.88493E-10
 -1        87 7.05504E+04 2.79628E+05 1.03432E+05-4.27407E+03-1.03682E-10 1.96749E-10
 -1        88-1.38299E+04 2.39521E+05 5.27236E+04 5.50317E+02-3.28328E-10 6.88495E-10
 -1        89 4.81422E+04 2.69130E+05 7.41235E+04-3.69487E+03 4.36557E-11 3.22914E-09
 -1        90-3.42196E+04 2.30361E+05 8.33158E+04 3.94486E+02-4.36557E-10-8.16627E-10
 -1        91-1.24976E+06-1.70128E+05-1.74637E+04-4.73215E+05-7.27596E-11-1.85537E-09
 -1        92-1.26289E+06-1.81837E+05-1.20809E+04-4.65289E+05 1.36697E-09-8.96648E-10
 -1        93-1.25230E+06-1.77279E+05-4.09264E+03-4.73064E+05 7.29528E-10-2.75350E-10
 -1        94-1.25864E+06-1.74711E+05-2.54862E+03-4.66771E+05 1.16274E-09-1.16665E-09
 -1        95-1.25400E+06-1.77242E+05-1.00563E+03-4.71733E+05 9.42318E-10-1.74686E-09
 -1        96-1.25486E+06-1.76596E+05-5.95839E+02-4.70395E+05 1.18050E-09-3.97128E-09
 -1        97-1.25608E+06-1.75398E+05-4.14088E+02-4.69436E+05 6.60748E-10 8.45674E-10
 -1        98-1.25190E+06-1.79551E+05-5.16562E+02-4.73904E+05-2.61744E-09 3.53228E-09
 -1        99-1.25697E+06-1.74282E+05-8.11608E+02-4.68228E+05-3.52823E-09-5.81167E-10
 -1       100-1.25217E+06-1.80259E+05-1.93033E+03-4.73937E+05-1.69987E-09-2.12424E-09
 -1       101-1.25581E+06-1.74690E+05-3.35564E+03-4.69404E+05-7.97172E-10-1.97201E-09
 -1       102-1.25732E+06-1.81307E+05-8.92235E+03-4.69847E+05 1.85992E-10 1.79580E-09
 -1       103-1.25181E+06-1.73245E+05-1.43912E+04-4.72315E+05 7.71706E-10-2.40652E-09
 -1       104-1.27508E+06-2.03662E+05-4.25186E+04-4.61511E+05 4.88399E-10-2.13504E-09
 -1       105-1.23809E+06-1.52371E+05-6.13336E+04-4.77739E+05-1.14505E-09 1.81899E-11
 -1       106-6.42618E+05-2.35903E+03 5.48471E+03 3.63210E-08-6.17068E-10 3.27645E-10
 -1       107-6.40184E+05 2.73182E+03 3.87301E+03-1.91981E-07-4.84154E-10 2.84382E-09
 -1       108-6.41702E+05-3.67832E+02 1.41287E+03-1.22053E-07 1.86342E-10-1.00965E-09
 -1       109-6.41253E+05 4.24766E+02 8.76020E+02 7.59093E-09-7.30978E-11-2.81543E-09
 -1       110-6.41551E+05-5.62330E+01 3.35391E+02 2.81552E-08-2.23171E-10 1.70395E-09
 -1       111-6.41433E+05 5.90331E+01 1.54098E+02 4.45444E-08 4.81193E-10 4.19135E-10
 -1       112-6.41522E+05-2.71096E+00-1.25821E+01 6.60973E-08-2.52275E-10-2.35536E-09
 -1       113-6.41486E+05-3.60076E+01-1.77665E+02 4.53155E-08-1.40421E-10-1.44591E-09
 -1       114-6.41498E+05 3.86847E+01-3.90821E+02-1.93199E-07-6.32125E-10-4.81691E-10
 -1       115-6.41626E+05-2.98476E+02-9.38745E+02-2.31283E-07 6.04084E-11-7.88560E-10
 -1       116-6.41383E+05 2.59379E+02-1.63526E+03-7.39790E-09-4.75506E-10 4.55771E-10
 -1       117-6.42427E+05-1.93403E+03-4.03751E+03 7.84387E-09-6.04919E-10 4.41992E-09
 -1       118-6.40699E+05 1.67148E+03-6.44523E+03-3.31858E-08-2.81832E-11 1.65164E-09
 -1       119-6.47275E+05-1.24100E+04-1.76067E+04-1.28404E-07-1.06721E-10-3.52884E-10
 -1       120-6.36539E+05 1.07164E+04-2.49164E+04-1.71445E-07-4.22381E-10 7.03949E-10
 -1       121-1.00037E+03-6.57524E+05 4.47479E+03 6.12526E+03-7.27596E-11-1.09412E-09
 -1       122 1.45425E+03-6.55794E+05 3.27370E+03 2.40313E+04-1.05729E-10 1.01181E-11
 -1       123-2.09888E+02-6.56939E+05 2.09267E+03 6.21145E+03-2.10946E-10 1.46883E-10
 -1       124 1.33877E+03-6.55796E+05 3.10433E+03 2.37664E+04-2.77907E-10-4.05112E-09
 -1       125-9.55319E+02-6.57447E+05 4.13735E+03 6.39028E+03-5.59339E-10-2.17779E-09
 -1       126-5.84999E+05-8.26477E+04 3.15418E+03-2.17617E+05 2.22190E-09-1.82581E-10
 -1       127-5.79183E+05-8.31392E+04 2.29096E+03-2.22067E+05 1.65346E-09 1.99202E-09
 -1       128-5.85211E+05-8.03930E+04 7.38429E+02-2.16567E+05-2.59757E-09-3.70420E-09
 -1       129-5.78992E+05-8.57080E+04 4.72600E+02-2.23253E+05-2.77923E-09-3.22922E-09
 -1       130-5.85202E+05-8.00738E+04 1.56787E+02-2.16439E+05-3.37134E-09 8.98197E-10
 -1       131-5.79711E+05-8.51754E+04 1.06871E+02-2.22331E+05-1.95746E-09 1.74889E-09
 -1       132-5.84486E+05-8.09307E+04-6.64393E+01-2.17483E+05 1.69752E-09-1.82288E-09
 -1       133-5.81790E+05-8.29183E+04-3.90512E+01-2.19610E+05 1.79182E-09-1.95996E-10
 -1       134-5.83111E+05-8.23396E+04-3.37910E+02-2.19152E+05-6.88857E-10-9.21460E-10
 -1       135-5.84734E+05-8.04402E+04-6.38390E+02-2.16470E+05-2.14357E-10 4.05714E-09
 -1       136-5.81546E+05-8.34069E+04-1.27871E+03-2.20625E+05 1.50688E-09-9.83448E-10
 -1       137-5.87726E+05-8.01524E+04-3.35716E+03-2.14202E+05 1.31712E-09-1.61543E-09
 -1       138-5.80132E+05-8.26204E+04-5.41871E+03-2.21429E+05-5.21595E-10-1.18030E-09
 -1       139-5.93247E+05-8.97005E+04-1.60196E+04-2.12351E+05 3.91628E-09 1.80285E-09
 -1       140-5.76032E+05-7.38732E+04-2.31647E+04-2.22472E+05 2.35559E-10 1.86446E-09
 -1       141-2.91198E+05-2.65884E+03 6.18122E+03-3.88807E-08 1.64409E-10-9.82709E-10
 -1       142-2.88494E+05 3.07885E+03 4.36265E+03 1.17847E-07 1.90279E-10 6.78710E-10
 -1       143-2.90166E+05-4.14449E+02 1.58627E+03-2.33169E-08-6.81136E-11 5.11818E-10
 -1       144-2.89699E+05 4.77667E+02 9.73553E+02-5.33263E-08-1.66577E-10 1.86549E-09
 -1       145-2.89995E+05-6.24248E+01 3.51077E+02 1.14942E-08-5.00927E-11 2.09494E-09
 -1       146-2.89907E+05 5.91865E+01 1.15813E+02-1.51509E-07 1.95976E-10-1.49078E-09
 -1       147-2.89958E+05 3.33751E+00-1.22916E+02 1.76754E-09-2.56720E-10 7.17733E-10
 -1       148-2.89991E+05-8.89704E+01-4.39290E+02 8.37144E-08-2.52222E-12-1.15472E-09
 -1       149-2.89910E+05 8.55484E+01-8.74548E+02-1.10292E-07-3.69020E-10 1.18138E-09
 -1       150-2.90291E+05-6.50819E+02-2.05558E+03-1.19682E-07-3.49783E-10 1.94308E-09
 -1       151-2.89659E+05 5.64379E+02-3.56441E+03-2.84553E-08-1.39647E-10-9.75433E-11
 -1       152-2.92030E+05-4.20678E+03-8.78754E+03-2.37589E-08 2.53087E-10-1.83024E-09
 -1       153-2.88172E+05 3.63556E+03-1.40238E+04 1.40901E-08 1.20557E-09 1.00408E-09
 -1       154-3.02574E+05-2.69919E+04-3.83003E+04 1.23734E-07 2.97522E-10 2.08092E-09
 -1       155-2.79117E+05 2.33087E+04-5.41927E+04-7.47070E-08 2.62518E-09 2.88128E-09
 -1       156-9.16284E+03-1.28658E+05 2.19668E+04-1.46739E+03-4.54747E-10-1.06875E-09
 -1       157 1.21399E+04-1.18595E+05 1.82669E+04 6.09419E+03-1.19371E-09-8.14299E-10
 -1       158-2.95397E+03-1.25842E+05 1.12666E+04-1.45849E+03-4.67452E-10 3.45278E-09
 -1       159 1.32437E+04-1.17926E+05 1.97286E+04 5.87260E+03-1.18234E-11 2.69296E-12
 -1       160-1.02709E+04-1.29318E+05 2.43940E+04-1.24578E+03 1.56251E-09 1.31303E-09
 -1       161-3.29921E+05-4.57793E+04-1.40724E+03-1.23871E+05 1.21076E-11-3.90799E-10
 -1       162-3.30342E+05-4.73504E+04-9.78616E+02-1.23947E+05-5.84340E-10 1.75606E-09
 -1       163-3.30231E+05-4.62574E+04-3.37885E+02-1.23747E+05 8.44480E-11-3.82911E-10
 -1       164-3.29995E+05-4.67856E+04-2.24577E+02-1.24076E+05 2.27240E-11 2.27862E-09
 -1       165-3.30267E+05-4.63432E+04-1.14131E+02-1.23743E+05 6.24564E-10-4.76760E-10
 -1       166-3.29998E+05-4.66620E+04-1.31166E+02-1.24037E+05 5.65976E-10 2.56029E-09
 -1       167-3.30229E+05-4.63810E+04-1.83644E+02-1.23786E+05 2.33035E-10-4.80043E-10
 -1       168-3.30142E+05-4.66462E+04-4.06275E+02-1.23918E+05-1.30107E-10-1.98582E-10
 -1       169-3.30123E+05-4.63591E+04-7.30266E+02-1.23861E+05 1.39323E-10-1.09324E-09
 -1       170-3.30620E+05-4.71184E+04-1.82637E+03-1.23688E+05-7.18728E-10-8.84967E-10
 -1       171-3.29751E+05-4.59096E+04-3.16046E+03-1.24016E+05-4.29338E-10-1.18462E-10
 -1       172-3.32954E+05-5.07933E+04-8.50452E+03-1.22890E+05 3.70108E-10-1.60526E-09
 -1       173-3.27792E+05-4.26896E+04-1.36415E+04-1.24658E+05-9.14497E-10 2.27465E-09
 -1       174-3.46803E+05-7.48959E+04-4.03678E+04-1.18285E+05-5.98197E-09 6.79256E-09
 -1       175-3.15910E+05-2.18423E+04-5.81987E+04-1.28609E+05-2.88492E-09 2.41562E-09
 -1       191 9.28530E+02 3.36440E+05 1.51285E+03-8.80651E+03-1.81899E-10-2.20361E-08
 -1       192 3.37029E+02 3.36658E+05 9.05856E+02-9.44062E+03 2.00771E-10-3.82329E-08
 -1       193 1.55157E+02 3.36512E+05 7.29096E+02-8.65816E+03-5.01757E-10-9.23592E-09
 -1       194 4.47161E+02 3.36687E+05 1.10394E+03-9.71776E+03 2.45564E-10 1.68980E-08
 -1       195 1.26909E+03 3.36390E+05 2.00554E+03-8.52843E+03-7.98536E-10 8.33279E-09
 -1       251-1.54981E+06 3.58472E+04-8.33883E+04-1.03603E+04-7.02244E-10 3.08864E-09
 -1       252-1.58501E+06-4.14442E+04-5.87730E+04 2.09733E+04-5.22611E-10 1.10958E-10
 -1       253-1.56430E+06 5.55983E+03-2.17207E+04-7.88923E+03-3.67265E-10 5.77529E-10
 -1       254-1.56721E+06-6.37596E+03-1.31047E+04 7.84127E+03-1.64135E-09-1.04842E-09
 -1       255-1.56746E+06 7.48928E+02-5.90145E+03 2.77197E+03-5.86738E-10 9.81572E-10
 -1       256-1.56508E+06-9.26825E+02-3.01293E+03-1.17305E+04-6.64954E-10 1.76419E-09
 -1       257-1.56645E+06 1.48678E+02-1.76308E+03 1.16827E+04-3.98728E-10 5.16707E-11
 -1       258-1.56588E+06-2.34509E+02-1.40408E+03-1.95089E+04-1.26499E-09 6.90967E-10
 -1       259-1.56673E+06 1.24105E+02-1.82444E+03 1.05508E+04-2.54619E-09 1.65414E-10
 -1       260-1.56474E+06-9.21479E+02-2.94730E+03-8.25733E+03-1.30817E-09-1.55643E-09
 -1       261-1.56750E+06 7.48594E+02-5.91449E+03 4.30620E+02 1.11106E-09 6.70298E-10
 -1       262-1.56751E+06-6.39327E+03-1.31743E+04 1.15497E+04 9.32005E-10-2.44768E-09
 -1       263-1.56398E+06 5.59432E+03-2.16713E+04-9.25636E+03-2.44140E-09 1.47156E-09
 -1       264-1.58511E+06-4.14760E+04-5.88382E+04 2.14401E+04-5.52551E-09 1.14960E-09
 -1       265-1.55003E+06 3.58492E+04-8.35100E+04-9.45990E+03-3.91941E-09-8.69477E-10
 -1       266-1.40857E+04-2.60038E+05 3.17604E+04 4.44400E+03 4.36557E-11-3.05516E-09
 -1       267 1.51168E+04-2.45159E+05 2.04623E+04-1.54324E+04 7.27596E-12-2.22082E-09
 -1       268-9.57932E+02-2.53237E+05 3.62073E+03 5.26631E+03 1.81899E-12 2.57365E-09
 -1       269-6.65348E+03-2.55631E+05-8.04330E+03-1.58551E+04-5.93445E-11-5.18305E-11
 -1       270 7.66034E+03-2.49594E+05-1.71248E+04 4.86670E+03 4.18368E-11 4.31191E-09
 -1       271-2.35432E+06-2.97102E+05-1.82907E+05-9.11535E+05-1.00954E-09-5.93718E-09
 -1       272-2.41515E+06-4.20061E+05-1.15446E+05-9.15624E+05-1.16324E-09-3.09046E-09
 -1       273-2.38667E+06-3.38061E+05-4.31488E+04-9.06056E+05 4.60432E-11-4.40741E-09
 -1       274-2.37753E+06-3.67163E+05-2.37076E+04-9.25182E+05 1.09867E-09 4.09955E-09
 -1       275-2.39086E+06-3.41951E+05-1.00380E+04-9.05045E+05-1.85992E-10 1.66665E-09
 -1       276-2.37256E+06-3.62341E+05-5.31918E+03-9.26923E+05 1.30740E-10-1.94689E-09
 -1       277-2.39164E+06-3.42090E+05-2.73349E+03-9.04659E+05-6.03677E-10-1.20724E-09
 -1       278-2.37175E+06-3.62197E+05-2.15890E+03-9.27459E+05 7.41238E-10 8.58620E-11
 -1       279-2.39173E+06-3.42007E+05-2.59708E+03-9.04568E+05-1.04339E-09 3.17891E-09
 -1       280-2.37224E+06-3.62604E+05-4.95143E+03-9.27319E+05 2.24190E-10-3.35604E-10
 -1       281-2.39114E+06-3.41737E+05-9.27904E+03-9.04776E+05-4.88853E-11-5.32964E-10
 -1       282-2.37662E+06-3.67289E+05-2.19060E+04-9.25999E+05-6.77687E-10-4.11092E-10
 -1       283-2.38739E+06-3.38036E+05-3.98413E+04-9.05593E+05 2.52385E-11-2.84854E-09
 -1       284-2.41117E+06-4.16332E+05-1.06618E+05-9.17400E+05 1.18234E-10-2.91038E-10
 -1       285-2.35760E+06-3.00123E+05-1.68910E+05-9.10557E+05-2.05546E-10 1.40426E-09
 -1       286-4.08174E+05-8.34990E+03 1.93959E+04-7.79786E+02 5.98078E-10 3.35604E-10
 -1       287-3.99551E+05 9.66960E+03 1.37404E+04 3.69718E+02 2.25313E-11 1.99066E-09
 -1       288-4.04950E+05-1.30540E+03 5.01297E+03-1.29165E+02-3.76886E-10-1.30285E-10
 -1       289-4.03330E+05 1.50999E+03 3.18499E+03-9.24312E+02-8.08313E-11-5.60874E-10
 -1       290-4.04399E+05-2.05217E+02 1.29506E+03 5.14277E+02 5.58032E-10 5.61556E-10
 -1       291-4.04007E+05 2.42980E+02 8.11128E+02-2.02431E+03 9.84642E-10 4.18959E-09
 -1       292-4.04277E+05-3.80287E+01 4.28302E+02 9.70846E+02 8.61398E-10 2.57089E-10
 -1       293-4.04142E+05 8.63796E+01 4.18696E+02-2.62642E+03-2.64746E-10-1.19713E-10
 -1       294-4.04267E+05-4.65761E+01 5.15447E+02 1.11640E+03 1.12185E-09 3.39004E-09
 -1       295-4.04013E+05 3.22374E+02 1.04452E+03-2.56699E+03 1.34925E-09 6.90804E-10
 -1       296-4.04406E+05-2.73919E+02 1.73888E+03 9.11416E+02 3.23467E-10-1.48816E-09
 -1       297-4.03117E+05 2.03340E+03 4.26667E+03-1.86264E+03 4.69015E-10-4.19050E-10
 -1       298-4.05159E+05-1.75724E+03 6.76055E+03 4.12041E+02 4.33232E-10-1.00135E-09
 -1       299-3.97975E+05 1.30308E+04 1.85089E+04-7.10875E+02-1.59460E-10-1.66347E-09
 -1       300-4.09540E+05-1.12531E+04 2.61421E+04-2.40379E+02-2.65828E-10 6.87578E-10
 -1       301 3.23267E+04 1.77486E+04 7.07657E+04-2.12454E+04 2.02635E-09 8.18147E-10
 -1       302 1.09233E+04 3.09807E+04 4.29530E+04-2.49351E+04 1.54250E-09-3.77226E-09
 -1       303 3.04434E+03 2.24824E+04 3.38205E+04-2.12716E+04 1.86537E-09-3.42993E-10
 -1       304 1.34258E+04 3.24500E+04 4.96209E+04-2.49116E+04 1.34241E-09-5.83896E-10
 -1       305 4.04477E+04 1.62883E+04 8.69474E+04-2.12565E+04 1.72076E-09 3.73007E-09
 -1       306-1.62221E+06-2.10438E+05-1.09119E+05-6.28733E+05 1.63891E-09-5.09317E-10
 -1       307-1.64871E+06-2.93299E+05-6.88319E+04-6.42202E+05-1.02546E-10-1.26238E-09
 -1       308-1.64160E+06-2.34709E+05-2.57545E+04-6.25376E+05-7.11680E-10 3.27054E-09
 -1       309-1.62626E+06-2.61887E+05-1.41492E+04-6.48087E+05-1.09981E-09-1.60026E-09
 -1       310-1.64414E+06-2.36985E+05-6.01002E+03-6.24753E+05 4.12456E-10 1.44701E-09
 -1       311-1.62333E+06-2.59012E+05-3.21221E+03-6.49158E+05 8.43897E-10 6.40398E-10
 -1       312-1.64458E+06-2.37081E+05-1.70967E+03-6.24548E+05 6.94172E-10 2.33149E-09
 -1       313-1.62294E+06-2.58860E+05-1.46088E+03-6.49395E+05 1.41786E-09-3.38855E-09
 -1       314-1.64457E+06-2.37082E+05-1.89934E+03-6.24556E+05-7.34303E-10-2.38788E-09
 -1       315-1.62342E+06-2.59057E+05-3.73682E+03-6.49120E+05-1.35401E-09 8.07063E-10
 -1       316-1.64405E+06-2.36947E+05-7.07125E+03-6.24777E+05-1.40949E-09-5.27507E-10
 -1       317-1.62683E+06-2.62523E+05-1.67055E+04-6.47945E+05-1.58957E-09-4.36557E-11
 -1       318-1.64111E+06-2.34201E+05-3.04147E+04-6.25456E+05-1.85969E-09 4.27463E-10
 -1       319-1.65324E+06-2.99776E+05-8.13190E+04-6.41178E+05-3.92220E-10 1.54068E-09
 -1       320-1.61829E+06-2.05417E+05-1.28887E+05-6.29315E+05-4.69299E-10 1.05501E-09
 -1       321-3.79844E+05-1.23986E+04 2.88198E+04-2.47567E+02-9.81828E-10 1.41881E-09
 -1       322-3.67210E+05 1.43578E+04 2.03834E+04-5.77346E+02-1.37321E-09-2.31671E-09
 -1       323-3.75025E+05-1.93494E+03 7.45212E+03 2.10651E+02 1.62359E-10-1.22736E-09
 -1       324-3.72847E+05 2.23831E+03 4.68434E+03-1.39692E+03 2.64652E-10-5.83441E-10
 -1       325-3.74215E+05-3.00601E+02 1.89750E+03 5.72036E+02 7.51271E-10 5.43196E-10
 -1       326-3.73806E+05 3.47913E+02 1.10552E+03-1.92513E+03-8.24159E-11-1.42416E-09
 -1       327-3.74069E+05-4.62934E+01 4.84382E+02 7.38867E+02-7.05928E-10-2.33450E-09
 -1       328-3.73969E+05 5.63397E+01 2.76621E+02-2.02204E+03-4.02559E-10 1.07828E-09
 -1       329-3.74053E+05-9.12681E+00 1.41070E+02 6.68947E+02-3.84830E-11-1.51870E-09
 -1       330-3.73962E+05 2.47450E+01 1.20821E+02-1.66271E+03 1.09090E-10-7.25142E-10
 -1       331-3.74074E+05-1.58496E+01 1.12823E+02 3.79535E+02-1.07491E-10 1.96000E-09
 -1       332-3.73888E+05 1.06075E+02 2.45134E+02-9.37427E+02 4.82778E-10-7.81728E-10
 -1       333-3.74124E+05-9.18226E+01 3.44823E+02-5.63518E+01 5.46819E-10-2.47285E-09
 -1       334-3.73618E+05 6.69352E+02 9.63289E+02-2.87722E+01 9.24047E-10-2.67565E-09
 -1       335-3.74344E+05-5.78572E+02 1.32961E+03-5.29134E+02-1.11642E-09-3.02532E-09
 -1       336-6.67032E+02-6.66387E+05 1.87638E+03-7.91810E+03-8.60382E-10-5.92536E-10
 -1       337 2.96299E+02-6.65836E+05-1.38805E+03-3.32158E+04-6.26642E-10-1.47338E-09
 -1       338 5.31529E+02-6.65500E+05-5.53874E+03-7.75871E+03-1.23805E-09 6.31417E-10
 -1       339-7.59751E+03-6.70595E+05-1.54232E+04-3.34035E+04-5.97311E-10-1.08844E-09
 -1       340 5.74086E+03-6.61709E+05-2.46535E+04-7.73241E+03-8.93124E-10 2.12651E-09
 -1       341-1.06728E+06-1.34098E+05-4.45452E+04-4.09723E+05-2.67755E-09-1.73895E-09
 -1       342-1.09296E+06-1.72483E+05-3.08790E+04-3.99243E+05-2.14141E-09-5.90262E-09
 -1       343-1.07741E+06-1.49066E+05-1.04638E+04-4.05568E+05-3.56977E-11 2.24827E-09
 -1       344-1.08026E+06-1.56126E+05-6.52045E+03-4.05155E+05-2.62116E-09 3.06363E-09
 -1       345-1.07996E+06-1.50427E+05-2.49119E+03-4.03814E+05-1.29052E-09-1.20372E-09
 -1       346-1.07722E+06-1.54687E+05-1.55198E+03-4.07315E+05 3.96117E-10-9.59218E-10
 -1       347-1.08045E+06-1.50498E+05-8.63120E+02-4.03410E+05-5.04706E-10 7.33451E-10
 -1       348-1.07753E+06-1.53892E+05-1.03009E+03-4.06773E+05 1.45844E-09 3.93872E-09
 -1       349-1.07965E+06-1.51222E+05-1.48908E+03-4.04356E+05 4.36842E-10 1.85020E-09
 -1       350-1.08012E+06-1.52912E+05-3.44071E+03-4.04292E+05-7.68523E-10 9.59858E-10
 -1       351-1.07786E+06-1.51482E+05-5.91586E+03-4.05889E+05 1.85537E-10 1.80239E-09
 -1       352-1.08611E+06-1.58166E+05-1.58370E+04-4.01004E+05-9.44453E-10 2.93221E-09
 -1       353-1.07367E+06-1.45977E+05-2.53970E+04-4.07646E+05 7.75344E-10-5.31145E-10
 -1       354-1.11185E+06-2.03127E+05-7.51694E+04-3.92500E+05 3.44517E-09-3.85626E-09
 -1       355-1.05216E+06-1.06587E+05-1.08377E+05-4.14381E+05 4.05635E-10-1.52068E-09
 -1       356-3.73601E+05-6.04437E+02 1.39488E+03-6.84077E+02 1.36069E-10-8.26731E-10
 -1       357-3.72906E+05 6.99874E+02 9.90517E+02 5.75659E+02-1.26487E-09-1.49151E-09
 -1       358-3.73378E+05-9.51719E+01 3.41540E+02-3.40839E+02-6.60435E-10 9.81927E-10
 -1       359-3.73168E+05 1.07322E+02 2.04483E+02-1.59007E+02 1.46379E-10 1.25313E-09
 -1       360-3.73338E+05-1.34703E+01 2.34860E+01 5.06030E+01 3.08646E-10 2.49329E-10
 -1       361-3.73236E+05 2.57546E-01-7.42600E+01-8.91930E+02-3.31241E-10 7.58604E-10
 -1       362-3.73311E+05 1.22536E+01-2.34119E+02 3.92095E+02-6.83670E-10-2.30686E-09
 -1       363-3.73327E+05-1.10231E+02-5.43485E+02-1.43896E+03-6.85141E-11-2.47542E-09
 -1       364-3.73249E+05 9.79554E+01-1.01010E+03 5.97642E+02 5.29958E-10 6.01688E-10
 -1       365-3.73673E+05-7.35330E+02-2.33096E+03-1.66292E+03-1.93827E-09-9.47040E-10
 -1       366-3.72966E+05 6.37052E+02-4.02694E+03 6.16060E+02 6.29132E-11-2.71712E-10
 -1       367-3.75625E+05-4.74574E+03-9.91443E+03-1.50741E+03 8.96778E-10-1.53420E-09
 -1       368-3.71299E+05 4.10124E+03-1.58250E+04 4.42122E+02 1.34238E-09-7.51243E-10
 -1       369-3.87495E+05-3.04511E+04-4.32038E+04-1.00311E+03 5.26128E-10-2.37969E-09
 -1       370-3.61097E+05 2.62955E+04-6.11452E+04 1.11758E+02 3.28839E-09 2.52112E-09
 -1       371-9.91554E+03-1.29209E+05 2.25685E+04 8.96863E+02 3.32329E-09 7.50437E-10
 -1       372 1.03979E+04-1.19760E+05 1.39569E+04-2.99020E+03 3.30328E-09 1.27088E-10
 -1       373-4.59887E+02-1.24844E+05 1.74595E+03 8.64762E+02 2.99269E-09-1.32661E-09
 -1       374-6.44599E+03-1.27499E+05-8.05176E+03-2.81102E+03 2.38242E-09 1.36372E-09
 -1       375 6.89492E+03-1.21469E+05-1.53812E+04 7.17647E+02 1.64709E-09 1.88464E-10
 -1       376-5.75658E+05-7.34189E+04-2.30804E+04-2.21776E+05 3.41333E-09-2.47383E-10
 -1       377-5.91361E+05-9.08961E+04-1.60015E+04-2.13615E+05 3.69937E-09 1.42404E-09
 -1       378-5.80257E+05-8.17712E+04-5.41801E+03-2.20314E+05-2.38651E-09 2.93767E-10
 -1       379-5.85393E+05-8.17583E+04-3.37669E+03-2.15898E+05-1.64154E-09 7.90351E-10
 -1       380-5.81616E+05-8.25439E+04-1.31547E+03-2.19495E+05-2.81617E-10 1.16898E-09
 -1       381-5.82986E+05-8.16911E+04-7.88905E+02-2.17763E+05-1.04027E-10 1.00188E-09
 -1       382-5.82658E+05-8.18396E+04-5.15454E+02-2.18445E+05-3.33884E-10 1.71333E-09
 -1       383-5.81226E+05-8.32964E+04-6.09746E+02-2.19768E+05 9.65855E-10-4.11893E-10
 -1       384-5.83377E+05-8.09376E+04-9.64695E+02-2.17491E+05-2.74554E-09-1.02798E-09
 -1       385-5.80594E+05-8.51694E+04-2.26071E+03-2.21033E+05-2.28435E-09-4.22756E-09
 -1       386-5.83296E+05-7.99639E+04-3.88308E+03-2.17185E+05 1.58241E-09 1.64164E-09
 -1       387-5.83279E+05-8.98413E+04-1.04162E+04-2.20258E+05 2.29164E-09-5.16593E-10
 -1       388-5.80697E+05-7.62722E+04-1.67203E+04-2.18264E+05 4.01542E-09-5.23869E-10
 -1       389-6.01166E+05-1.18318E+05-4.94188E+04-2.13401E+05-2.69461E-09 1.20235E-09
 -1       390-5.65420E+05-5.15342E+04-7.13159E+04-2.24026E+05-3.33057E-09 3.94721E-09
 -1       406 1.03717E+03 3.32289E+05 2.12149E+03-3.04499E+04-1.05319E-09 2.81807E-09
 -1       407 6.10621E+02 3.32663E+05 2.35108E+03-3.34820E+04 3.75621E-10 7.05768E-10
 -1       408 8.88262E+02 3.32246E+05 3.68586E+03-3.03328E+04-1.24919E-09 1.64982E-09
 -1       409 3.54071E+03 3.33656E+05 7.79461E+03-3.36477E+04 8.09450E-11 2.85354E-10
 -1       410 1.02277E+04 3.31251E+05 1.56503E+04-3.02768E+04-1.57343E-09-9.41327E-11
 -1       466 1.17784E+06-4.72417E+04 1.09701E+05 6.48977E+03-5.70139E-11-1.79716E-09
 -1       467 1.22683E+06 5.46703E+04 7.77822E+04-1.10689E+04-1.06454E-10-4.97494E-10
 -1       468 1.19680E+06-7.34814E+03 2.84650E+04 1.95241E+03 1.87995E-10-8.73115E-11
 -1       469 1.20477E+06 8.50479E+03 1.79339E+04-4.82749E+03-4.12740E-10 2.10093E-10
 -1       470 1.19989E+06-1.14421E+03 7.42656E+03 2.48686E+02 5.92692E-10-1.57752E-09
 -1       471 1.20119E+06 1.36508E+03 4.59032E+03-2.51355E+03 1.26778E-09-5.63887E-11
 -1       472 1.20039E+06-2.17676E+02 2.56148E+03-3.61568E+02 7.42428E-10 2.83364E-10
 -1       473 1.20075E+06 5.27924E+02 2.61728E+03-1.79071E+03-7.33836E-10-2.29770E-09
 -1       474 1.20033E+06-3.07930E+02 3.38287E+03-4.74167E+02 6.40923E-11 6.28802E-10
 -1       475 1.20159E+06 2.14348E+03 6.96080E+03-1.95416E+03 1.63829E-09 4.89308E-10
 -1       476 1.19953E+06-1.83086E+03 1.17039E+04-1.98116E+02 4.92534E-10-2.41016E-11
 -1       477 1.20723E+06 1.36253E+04 2.85748E+04-3.16508E+03 8.78337E-10-2.07319E-09
 -1       478 1.19468E+06-1.17706E+04 4.55159E+04 7.36786E+02 4.17373E-11 2.88492E-09
 -1       479 1.24158E+06 8.74269E+04 1.24195E+05-6.67588E+03 2.73324E-10-3.81988E-10
 -1       480 1.16516E+06-7.54911E+04 1.75723E+05 3.31240E+03 2.27726E-09 4.07454E-10
 -1       481-9.19035E+03 1.94002E+05 2.14979E+04-1.20265E+03 5.45697E-11 5.60533E-10
 -1       482 1.10407E+04 2.03762E+05 1.59568E+04 2.03894E+03-1.51203E-10 6.32744E-09
 -1       483-1.83726E+03 1.97442E+05 6.99561E+03-8.07181E+02-2.56932E-11 2.62197E-09
 -1       484 4.72894E+03 2.00737E+05 7.69098E+03 1.37835E+03 3.18181E-11-4.36557E-10
 -1       485-2.88668E+03 1.97022E+05 7.31467E+03-5.42079E+02 1.77124E-10-1.93158E-09
 -1       486-1.09321E+06-1.20804E+05-1.04051E+05-4.38040E+05-1.37516E-09-1.54978E-09
 -1       487-1.16561E+06-1.97425E+05-7.19741E+04-3.98586E+05-1.06775E-09 4.75939E-09
 -1       488-1.11808E+06-1.55668E+05-2.46216E+04-4.28321E+05-3.52429E-10 1.28239E-10
 -1       489-1.13016E+06-1.63133E+05-1.46588E+04-4.16611E+05-5.33873E-10 2.11844E-09
 -1       490-1.12854E+06-1.55099E+05-6.05339E+03-4.19963E+05-1.04612E-09 1.91676E-09
 -1       491-1.11594E+06-1.67763E+05-3.03879E+03-4.31004E+05-2.66898E-09-2.76486E-10
 -1       492-1.13234E+06-1.50989E+05-1.56032E+03-4.13964E+05 7.90081E-10-6.87237E-11
 -1       493-1.11292E+06-1.70429E+05-1.17387E+03-4.35420E+05-9.66928E-10 1.06474E-09
 -1       494-1.13160E+06-1.52393E+05-1.53137E+03-4.15583E+05-4.39314E-10 1.00323E-09
 -1       495-1.11913E+06-1.63513E+05-2.41897E+03-4.26272E+05 1.72338E-09-9.83846E-10
 -1       496-1.12605E+06-1.57973E+05-5.22727E+03-4.23049E+05 5.80030E-10-1.13096E-09
 -1       497-1.13444E+06-1.57582E+05-1.24777E+04-4.11952E+05 6.49720E-11-4.50882E-10
 -1       498-1.11632E+06-1.58321E+05-2.07570E+04-4.29914E+05-1.47384E-09-3.04954E-09
 -1       499-1.16240E+06-1.88685E+05-6.10441E+04-3.99038E+05-1.69530E-09-3.56522E-09
 -1       500-1.09819E+06-1.26869E+05-8.82887E+04-4.36009E+05-3.15777E-09 2.26646E-09
 -1       501-3.21602E+05-1.79990E+04 4.18155E+04-2.87079E+02 5.07384E-10-7.03949E-10
 -1       502-3.03119E+05 2.08418E+04 2.96049E+04-8.75418E+02-5.65635E-10 1.36788E-09
 -1       503-3.14597E+05-2.81040E+03 1.08070E+04 3.58747E+02-7.19780E-10-1.11095E-09
 -1       504-3.11335E+05 3.25059E+03 6.81586E+03-2.05083E+03 3.92930E-11-2.55147E-09
 -1       505-3.13398E+05-4.37547E+02 2.75445E+03 8.88373E+02 6.86697E-10 3.12411E-10
 -1       506-3.12774E+05 5.08475E+02 1.62171E+03-2.86704E+03 1.41136E-09-2.34263E-09
 -1       507-3.13165E+05-6.88952E+01 7.24563E+02 1.17498E+03 8.18392E-10 1.69413E-09
 -1       508-3.13034E+05 9.39033E+01 4.50080E+02-3.13513E+03 5.71780E-10 2.56676E-09
 -1       509-3.13141E+05-2.19313E+01 2.93657E+02 1.15646E+03 1.59553E-09 2.29629E-09
 -1       510-3.12984E+05 1.01924E+02 3.80465E+02-2.79687E+03 9.28459E-10 1.61378E-09
 -1       511-3.13212E+05-7.89427E+01 5.11479E+02 8.36710E+02 6.04444E-10 1.51050E-09
 -1       512-3.12658E+05 5.68666E+02 1.22978E+03-1.92405E+03 8.81890E-10 6.66546E-10
 -1       513-3.13460E+05-4.92005E+02 1.86837E+03 2.83626E+02-3.25059E-10 4.62819E-10
 -1       514-3.11176E+05 3.62625E+03 5.17995E+03-7.03678E+02-1.20841E-09-3.54476E-10
 -1       515-3.14690E+05-3.13377E+03 7.23632E+03-3.83678E+02-4.86580E-10 8.78117E-10
 -1       516-4.03898E+04 2.46073E+05 9.50374E+04 1.99682E+03-2.76486E-10 2.34166E-09
 -1       517 4.96526E+04 2.88613E+05 7.22766E+04-1.09116E+04-2.54659E-11 5.41274E-09
 -1       518-9.14168E+03 2.60637E+05 3.48623E+04 1.49612E+03-1.12777E-09 4.15719E-09
 -1       519 2.89310E+04 2.78885E+05 4.51723E+04-1.06734E+04 4.08136E-10-1.39821E-09
 -1       520-1.97039E+04 2.55789E+05 4.83985E+04 1.75857E+03-9.60426E-10-1.65761E-09
 -1       521-2.24541E+06-2.87168E+05-1.57634E+05-8.67614E+05 2.52840E-10 6.69388E-10
 -1       522-2.29281E+06-3.98056E+05-9.94768E+04-8.76845E+05-1.83832E-10-8.42192E-10
 -1       523-2.27334E+06-3.22387E+05-3.71845E+04-8.62837E+05 2.74213E-10 1.26420E-09
 -1       524-2.26039E+06-3.52522E+05-2.04318E+04-8.85157E+05 6.36646E-12 4.32692E-09
 -1       525-2.27694E+06-3.25737E+05-8.65066E+03-8.61972E+05 1.30058E-10 8.00355E-11
 -1       526-2.25618E+06-3.48303E+05-4.59027E+03-8.86593E+05 3.11320E-09 6.95366E-10
 -1       527-2.27756E+06-3.25915E+05-2.36580E+03-8.61705E+05 2.87855E-09 5.02155E-10
 -1       528-2.25562E+06-3.48024E+05-1.88684E+03-8.86861E+05 2.61259E-09-1.79080E-09
 -1       529-2.27752E+06-3.25954E+05-2.29303E+03-8.61742E+05 3.09694E-09 1.88152E-09
 -1       530-2.25627E+06-3.48149E+05-4.38610E+03-8.86434E+05-2.76032E-10-1.27443E-09
 -1       531-2.27686E+06-3.25865E+05-8.23951E+03-8.62079E+05-4.23142E-10 1.34423E-09
 -1       532-2.26042E+06-3.52005E+05-1.94357E+04-8.84871E+05-2.66482E-10 5.87534E-10
 -1       533-2.27334E+06-3.22771E+05-3.53706E+04-8.62996E+05-5.63773E-10-2.84308E-09
 -1       534-2.29142E+06-3.95125E+05-9.46045E+04-8.76743E+05 1.33605E-09-6.73026E-10
 -1       535-2.24668E+06-2.89383E+05-1.49924E+05-8.67650E+05-8.18545E-11 6.11180E-10
 -1       536 5.36755E+04-9.69795E+03 4.17708E+04-5.80206E+03 6.23913E-10-9.93168E-10
 -1       537 6.88984E+04 1.30508E+04 2.67675E+04-2.26398E+04-2.29807E-09 1.08093E-09
 -1       538 5.99595E+04-1.02920E+03 1.08102E+04-5.73790E+03 1.20053E-10-2.42835E-10
 -1       539 6.17928E+04 1.25745E+03 6.03897E+03-2.26952E+04 6.83940E-10-2.49565E-09
 -1       540 6.06590E+04-1.25632E+02 2.72475E+03-5.74329E+03 5.86624E-11-7.21911E-10
 -1       541 6.09231E+04 1.16871E+02 1.44009E+03-2.26806E+04-6.56655E-10-3.22598E-09
 -1       542 6.07420E+04-1.76598E+01 6.79845E+02-5.75255E+03 1.17325E-10-9.61279E-10
 -1       543 6.07765E+04 1.91035E+01 3.51103E+02-2.26665E+04-1.76215E-10 3.88440E-10
 -1       544 6.07514E+04 7.80986E-01 1.67819E+02-5.75749E+03 2.43176E-10-1.05092E-09
 -1       545 6.07432E+04 1.42446E+01 8.22521E+01-2.26608E+04-3.07864E-10 6.85532E-10
 -1       546 6.07539E+04 3.54292E+00 3.29859E+01-5.75821E+03-1.35287E-10-1.56120E-09
 -1       547 6.07454E+04 5.90778E+00 8.01907E-01-2.26607E+04-9.09495E-12-1.39761E-09
 -1       548 6.07608E+04 1.20105E+00-3.01810E+01-5.75764E+03-5.66388E-10-2.63299E-10
 -1       549 6.07527E+04-4.75155E+01-8.85629E+01-2.26238E+04 4.47471E-10 1.11640E-10
 -1       550 6.07909E+04 1.84266E+01-1.55207E+02-5.79504E+03-3.78350E-10-5.47402E-11
 -1       551 9.94190E+03-2.20569E+05 2.11207E+04-3.38035E+05 2.73940E-09 7.16682E-10
 -1       552 4.93911E+03-2.17073E+05 1.66490E+04-3.95522E+05 1.72804E-09 1.70985E-09
 -1       553 3.21665E+03-2.20191E+05 1.93637E+04-3.37470E+05 2.75395E-09 1.54705E-09
 -1       554 1.24187E+04-2.12885E+05 3.63669E+04-3.95618E+05 2.83035E-09 5.22050E-10
 -1       555 3.40932E+04-2.25137E+05 6.89755E+04-3.37885E+05 2.81216E-09-9.40418E-10
 -1       556-1.61153E+05-8.63124E+04 1.38469E+04-1.54024E+05 1.03864E-09-2.68119E-09
 -1       557-1.48139E+05-1.00489E+05 6.81183E+03-1.64263E+05 5.51154E-10 1.84082E-09
 -1       558-1.61471E+05-9.09060E+04 2.85883E+03-1.51291E+05-8.76753E-10 1.09139E-09
 -1       559-1.49439E+05-1.02762E+05 1.40493E+03-1.64772E+05 7.07587E-10 3.52361E-09
 -1       560-1.61658E+05-9.09308E+04 6.21125E+02-1.51277E+05-2.32467E-09-7.84848E-09
 -1       561-1.49728E+05-1.02791E+05 2.93778E+02-1.64982E+05-6.54836E-11-2.44199E-10
 -1       562-1.61802E+05-9.08311E+04 1.00175E+02-1.51373E+05-5.49335E-10 1.27102E-09
 -1       563-1.49876E+05-1.02728E+05-1.40538E+01-1.65088E+05-6.63022E-10 8.68567E-10
 -1       564-1.61880E+05-9.07710E+04-1.48168E+02-1.51430E+05-1.20781E-09 1.57161E-09
 -1       565-1.49958E+05-1.02697E+05-3.72678E+02-1.65138E+05-1.84309E-09 5.17502E-10
 -1       566-1.61878E+05-9.07465E+04-7.96192E+02-1.51443E+05-2.96063E-09 2.34650E-10
 -1       567-1.50099E+05-1.02781E+05-1.76127E+03-1.65119E+05-4.03861E-09 9.39053E-09
 -1       568-1.61731E+05-9.10286E+04-3.62297E+03-1.51296E+05-9.18590E-11 2.79670E-09
 -1       569-1.52053E+05-1.04996E+05-8.54610E+03-1.64525E+05 4.20550E-09-3.97995E-09
 -1       570-1.60945E+05-9.77320E+04-1.74493E+04-1.48461E+05 2.91220E-09-1.61072E-09
 -1       571 2.11159E+05 1.04500E+04 1.60337E+04-5.47774E+04 1.79170E-10-1.55273E-09
 -1       572 2.13610E+05 3.56191E+03 7.87624E+03-6.03858E+04 2.00089E-11-2.76304E-09
 -1       573 2.12148E+05 7.94344E+02 3.50423E+03-5.46257E+04-6.36646E-12-8.40373E-10
 -1       574 2.12434E+05 2.46020E+02 1.75976E+03-6.05518E+04 2.01908E-10-1.45383E-09
 -1       575 2.12253E+05 1.98768E+01 8.32731E+02-5.46065E+04-1.56888E-11-1.21872E-09
 -1       576 2.12280E+05-8.35120E-01 4.25890E+02-6.05733E+04-4.02537E-10-1.04137E-10
 -1       577 2.12268E+05-1.40437E+01 2.13235E+02-5.46041E+04-2.35218E-10-1.20281E-09
 -1       578 2.12265E+05-1.08699E+01 1.22348E+02-6.05759E+04 3.21279E-10-3.85262E-09
 -1       579 2.12284E+05-1.62845E+01 8.60207E+01-5.46040E+04-8.13998E-11-2.19643E-10
 -1       580 2.12289E+05-1.91085E+01 9.85475E+01-6.05730E+04 3.37877E-10 1.41063E-09
 -1       581 2.12312E+05-2.50574E+01 1.54129E+02-5.46070E+04-1.14414E-09 5.55247E-10
 -1       582 2.12355E+05 2.51765E+00 3.07298E+02-6.05407E+04-1.44155E-09-5.24324E-10
 -1       583 2.12337E+05 8.28730E+01 5.99214E+02-5.46363E+04-7.85803E-10-7.34417E-10
 -1       584 2.12610E+05 5.42190E+02 1.34451E+03-6.02887E+04-8.90395E-10 1.37129E-09
 -1       585 2.12219E+05 1.70726E+03 2.72969E+03-5.48605E+04 1.00044E-09 1.04592E-09
 -1       586 1.75925E+03 8.53737E+04 3.14608E+03-1.40282E+05 3.23780E-10-5.07498E-10
 -1       587 9.75685E+02 8.58907E+04 2.99138E+03-1.55082E+05 4.68390E-10 2.00771E-10
 -1       588 1.13152E+03 8.53290E+04 4.23754E+03-1.40104E+05 2.85581E-10 2.84786E-09
 -1       589 4.03502E+03 8.69246E+04 8.67330E+03-1.55124E+05 4.83851E-10 1.08571E-09
 -1       590 1.13544E+04 8.42869E+04 1.72679E+04-1.40236E+05 4.40195E-10-6.68479E-10
 -1       591-9.82321E+04-3.40734E+04-1.84538E+04-5.12261E+04-2.19188E-10-3.23780E-10
 -1       592-9.87215E+04-3.18522E+04-9.04592E+03-5.67991E+04-3.77440E-11-3.70051E-10
 -1       593-9.87700E+04-2.72041E+04-3.83797E+03-5.43583E+04-5.02496E-10 2.61048E-09
 -1       594-9.67524E+04-2.93551E+04-1.87738E+03-5.71429E+04-1.79057E-10 2.32298E-10
 -1       595-9.88599E+04-2.69475E+04-8.64667E+02-5.45003E+04-1.68257E-11-3.83750E-10
 -1       596-9.66043E+04-2.92555E+04-4.39443E+02-5.71319E+04-3.12298E-10-1.08207E-09
 -1       597-9.88774E+04-2.69597E+04-2.41138E+02-5.45016E+04 6.10498E-11-2.69097E-10
 -1       598-9.65896E+04-2.92567E+04-1.96453E+02-5.71258E+04 3.44130E-10-5.30008E-10
 -1       599-9.88754E+04-2.69599E+04-2.53787E+02-5.45008E+04-1.83604E-10 3.53793E-10
 -1       600-9.66035E+04-2.92566E+04-4.72985E+02-5.71304E+04-4.67480E-10 2.88628E-09
 -1       601-9.88525E+04-2.69477E+04-9.35676E+02-5.44975E+04-9.67930E-10 1.04819E-09
 -1       602-9.67631E+04-2.93643E+04-2.03497E+03-5.71382E+04 3.39242E-10-1.56888E-09
 -1       603-9.87516E+04-2.72295E+04-4.16099E+03-5.43439E+04-9.07676E-10 6.93035E-10
 -1       604-9.89101E+04-3.20567E+04-9.80722E+03-5.67458E+04-4.69117E-09-7.24390E-09
 -1       605-9.81506E+04-3.46884E+04-2.00062E+04-5.09612E+04-4.27917E-10-8.42192E-10
 -1       606 6.80972E+04-8.34946E+03-1.27883E+04 2.00364E+04-4.18004E-09 4.26553E-10
 -1       607 6.61085E+04-2.84595E+03-6.28000E+03 2.18788E+04-8.96762E-10-7.55335E-10
 -1       608 6.72704E+04-6.33575E+02-2.79425E+03 1.99007E+04 2.14914E-09 1.44712E-09
 -1       609 6.70062E+04-1.82990E+02-1.40077E+03 2.20279E+04-2.92130E-09 5.66160E-10
 -1       610 6.71588E+04-1.96874E-02-6.61164E+02 1.98833E+04-4.77030E-09 1.33241E-10
 -1       611 6.71067E+04 2.59173E+01-3.33015E+02 2.20467E+04-8.22320E-09-6.07088E-10
 -1       612 6.71335E+04 3.40771E+01-1.58581E+02 1.98813E+04-3.74712E-09 8.30596E-10
 -1       613 6.71136E+04 3.62557E+01-7.38023E+01 2.20491E+04-5.06952E-09 2.05773E-10
 -1       614 6.71221E+04 3.28302E+01-2.33195E+01 1.98808E+04-2.12003E-09 1.29762E-09
 -1       615 6.71104E+04 3.79840E+01 1.53307E+01 2.20494E+04 3.17323E-09 3.23348E-09
 -1       616 6.71136E+04 3.69151E+01 6.06637E+01 1.98810E+04-1.27184E-08 1.04114E-09
 -1       617 6.71175E+04 6.15232E+01 1.45050E+02 2.20487E+04-1.75669E-08 4.87262E-10
 -1       618 6.70988E+04 1.05676E+02 2.96769E+02 1.98814E+04-8.71569E-09 3.65617E-10
 -1       619 6.72121E+04 3.47507E+02 6.71585E+02 2.20459E+04-4.66684E-10 1.86674E-10
 -1       620 6.70096E+04 9.32756E+02 1.36932E+03 1.98827E+04-1.30740E-10-8.28550E-10
 -1       621 1.69188E+03 2.19966E+05 4.11277E+03-2.08323E+04 1.82922E-09 1.27102E-09
 -1       622 6.46909E+02 2.20742E+05 3.35818E+03-2.44715E+04 5.15911E-10-1.06354E-09
 -1       623 3.76331E+02 2.20142E+05 4.07851E+03-2.08531E+04 1.52318E-09 3.06136E-09
 -1       624 2.31269E+03 2.21729E+05 7.80610E+03-2.43686E+04 7.29415E-10-4.19504E-10
 -1       625 7.10024E+03 2.19000E+05 1.49018E+04-2.09337E+04 1.50067E-09-2.12822E-10
 -1       626 9.59381E+04 3.15305E+04-5.66691E+03 6.54361E+04-1.72622E-09-9.81345E-10
 -1       627 9.32788E+04 3.55651E+04-2.68848E+03 6.66725E+04-1.33514E-09-7.24640E-10
 -1       628 9.60618E+04 3.43122E+04-1.12973E+03 6.40769E+04-5.18412E-10 3.48746E-09
 -1       629 9.36987E+04 3.67146E+04-5.42268E+02 6.65734E+04-1.37879E-09-1.80776E-09
 -1       630 9.60493E+04 3.45034E+04-2.39381E+02 6.39657E+04-3.64707E-10-1.65358E-09
 -1       631 9.37266E+04 3.67995E+04-1.07290E+02 6.65725E+04-3.13526E-09-3.44272E-09
 -1       632 9.60363E+04 3.45104E+04-3.03350E+01 6.39549E+04-2.14004E-09-8.21956E-10
 -1       633 9.37264E+04 3.68042E+04 2.57037E+01 6.65726E+04-1.90903E-09 6.43354E-10
 -1       634 9.60269E+04 3.45057E+04 9.49220E+01 6.39528E+04 9.99535E-10-9.25183E-10
 -1       635 9.37368E+04 3.68070E+04 2.26702E+02 6.65746E+04-1.23759E-09-6.27097E-10
 -1       636 9.60161E+04 3.45158E+04 4.75446E+02 6.39450E+04-3.31067E-09 1.32877E-09
 -1       637 9.38497E+04 3.69348E+04 1.06412E+03 6.65551E+04-5.66388E-09-3.63798E-11
 -1       638 9.59906E+04 3.49016E+04 2.20615E+03 6.37765E+04-2.28761E-09-1.16779E-09
 -1       639 9.49730E+04 3.88944E+04 5.24998E+03 6.60763E+04-8.66351E-09-9.07039E-09
 -1       640 9.60388E+04 4.05681E+04 1.10653E+04 6.14195E+04-2.77078E-09 6.80302E-10
 -1       641 1.94654E+03 2.02704E+03-4.71692E+03-1.14049E+02-3.80192E-09-2.36741E-09
 -1       642-8.36166E+01-2.34676E+03-3.32883E+03 4.86242E+02 5.95481E-10-1.51766E-09
 -1       643 1.16148E+03 3.15862E+02-1.21652E+03-1.12942E+02-8.86718E-09 2.29250E-10
 -1       644 8.29290E+02-3.64070E+02-7.54334E+02 4.84766E+02 2.27367E-09 1.04278E-09
 -1       645 1.03331E+03 4.81741E+01-2.91756E+02-1.12576E+02-2.18131E-09-2.18078E-09
 -1       646 9.80834E+02-5.03555E+01-1.38822E+02 4.84221E+02-1.38271E-07 1.32587E-11
 -1       647 1.00977E+03 2.78355E+00-1.23312E+00-1.12398E+02-1.76794E-05 2.33704E-08
 -1       648 1.02292E+03 2.68079E+01 1.26376E+02 4.84034E+02-3.51322E-05 4.69050E-08
 -1       649 9.91181E+02-2.88525E+01 2.88148E+02-1.12390E+02-1.76807E-05 2.37541E-08
 -1       650 1.12861E+03 2.22861E+02 6.97111E+02 4.84055E+02-1.26005E-07 1.34024E-09
 -1       651 9.04136E+02-1.93025E+02 1.21559E+03-1.12419E+02-3.29976E-09-1.73435E-09
 -1       652 1.72628E+03 1.43856E+03 3.00289E+03 4.83847E+02 5.78590E-09 1.88163E-09
 -1       653 3.93689E+02-1.24260E+03 4.79227E+03-1.12184E+02-3.39171E-09-3.52884E-10
 -1       654 5.33395E+03 9.22463E+03 1.30907E+04 4.81375E+02-3.94164E-09-9.65656E-10
 -1       655-2.70280E+03-7.96490E+03 1.85237E+04-1.09959E+02-1.64438E-09-2.88401E-09
 -1       656 6.60156E+03-2.51465E+05-2.97137E+04 7.11257E+03 7.01766E-09-3.11729E-10
 -1       657-9.75775E+03-2.62292E+05-2.16409E+04 2.72790E+04 6.33486E-09 2.51111E-09
 -1       658 1.26438E+03-2.55324E+05-1.37475E+04 7.05840E+03 6.32011E-09 2.74542E-09
 -1       659-8.88670E+03-2.61791E+05-2.01050E+04 2.73129E+04 5.40217E-09 5.13756E-10
 -1       660 5.91214E+03-2.51984E+05-2.68046E+04 7.07914E+03 7.41329E-09-1.62572E-10
 -1       661 2.48065E+05 3.16617E+04 2.03112E+04 9.69334E+04 2.13367E-09-1.32786E-09
 -1       662 2.52828E+05 4.73118E+04 1.28195E+04 9.97050E+04-1.68598E-10 2.01590E-09
 -1       663 2.51563E+05 3.62978E+04 4.79647E+03 9.64363E+04-1.98645E-09-1.30694E-09
 -1       664 2.48806E+05 4.12897E+04 2.64175E+03 1.00563E+05-9.02889E-09-2.32711E-09
 -1       665 2.51956E+05 3.68038E+04 1.12489E+03 9.64035E+04-5.07288E-09 9.40076E-10
 -1       666 2.48354E+05 4.06488E+04 6.11380E+02 1.00621E+05-6.77696E-09-8.10218E-10
 -1       667 2.52000E+05 3.68624E+04 3.41712E+02 9.64061E+04 4.00141E-09 2.14282E-09
 -1       668 2.48313E+05 4.05894E+04 3.21774E+02 1.00620E+05-4.55111E-09-1.86868E-09
 -1       669 2.51996E+05 3.68586E+04 4.51652E+02 9.64057E+04 3.83153E-10 3.60436E-09
 -1       670 2.48392E+05 4.06908E+04 9.16041E+02 1.00620E+05 7.86758E-09-1.75154E-09
 -1       671 2.51923E+05 3.67682E+04 1.74132E+03 9.64037E+04-1.73526E-09 1.46690E-09
 -1       672 2.49106E+05 4.16895E+04 4.12458E+03 1.00524E+05-4.69586E-09-1.77465E-10
 -1       673 2.51303E+05 3.59801E+04 7.50066E+03 9.64585E+04-2.43480E-09-1.24146E-10
 -1       674 2.55402E+05 5.11092E+04 2.00569E+04 9.91748E+04-4.34255E-10 8.48331E-10
 -1       675 2.45828E+05 2.87276E+04 3.17810E+04 9.72364E+04-2.66891E-09 1.85537E-10
 -1       676 6.63498E+02-2.37796E+05-3.45574E+03 1.75036E+02 7.23742E-09-2.87321E-10
 -1       677-1.30885E+03-2.39116E+05-3.74524E+03 4.45272E+01 3.10311E-09 1.63683E-09
 -1       678 4.11592E+02-2.37953E+05-4.44379E+03 1.74674E+02 4.62251E-09 8.10019E-13
 -1       679-4.69365E+03-2.41128E+05-9.74927E+03 4.42814E+01-1.60719E-09 4.47702E-09
 -1       680 3.39049E+03-2.35785E+05-1.48123E+04 1.74684E+02 6.83485E-09 1.04508E-09
 -1       681 3.95629E+05-1.03890E+04 2.41374E+04 1.05930E+03-1.36140E-10-5.36602E-10
 -1       682 4.06236E+05 1.20276E+04 1.70930E+04-2.82522E+03 8.57057E-11-1.54614E-11
 -1       683 3.99720E+05-1.61944E+03 6.26135E+03 5.00030E+02 1.80719E-10-1.24373E-10
 -1       684 4.01465E+05 1.87551E+03 3.95305E+03-1.98384E+03-1.37518E-10 2.04182E-10
 -1       685 4.00399E+05-2.53011E+02 1.64947E+03 2.17922E+02-6.69758E-11 5.53143E-10
 -1       686 4.00677E+05 3.06254E+02 1.04715E+03-1.60763E+03-9.30811E-11 2.80110E-10
 -1       687 4.00507E+05-5.20359E+01 6.34462E+02 1.23810E+02 1.01629E-10 6.18847E-10
 -1       688 4.00598E+05 1.47996E+02 7.32767E+02-1.57932E+03 1.12516E-10 2.38803E-10
 -1       689 4.00479E+05-9.49633E+01 1.02881E+03 1.89613E+02 8.26397E-11 5.46720E-10
 -1       690 4.00895E+05 6.77227E+02 2.19040E+03-1.89033E+03-4.53568E-10 2.83421E-10
 -1       691 4.00211E+05-5.81148E+02 3.70369E+03 4.34832E+02 8.54428E-11-5.70253E-10
 -1       692 4.02741E+05 4.33007E+03 9.08791E+03-2.63364E+03 5.80741E-10-3.68004E-10
 -1       693 3.98633E+05-3.74377E+03 1.44508E+04 9.32929E+02-9.28395E-11-5.66615E-10
 -1       694 4.13789E+05 2.78100E+04 3.95198E+04-4.05713E+03-9.94049E-10-5.77074E-10
 -1       695 3.89168E+05-2.40232E+04 5.58161E+04 1.85827E+03-2.13134E-10-1.86992E-09
 -1       696-8.33490E+03 3.44940E+05 1.90996E+04 2.73998E+02 1.08230E-10-5.47459E-10
 -1       697 9.03812E+03 3.53003E+05 1.23615E+04-2.98569E+03 8.79936E-11-1.02373E-10
 -1       698-6.82376E+02 3.48488E+05 2.60196E+03 1.81708E+02-1.75532E-10 9.85505E-10
 -1       699-3.16953E+03 3.47357E+05-3.59667E+03-3.06006E+03-2.38288E-10 1.80982E-09
 -1       700 3.85003E+03 3.50590E+05-8.39528E+03 3.48353E+02-1.36424E-10 4.57817E-10
 -1       701-3.62409E+05-3.34287E+04-4.64301E+04-1.44633E+05-3.91992E-10-1.65710E-09
 -1       702-3.88138E+05-7.46509E+04-3.22049E+04-1.35137E+05-3.53680E-10-5.09772E-10
 -1       703-3.71919E+05-5.00297E+04-1.08892E+04-1.41449E+05-1.22782E-10 5.04770E-11
 -1       704-3.76907E+05-5.55910E+04-6.79439E+03-1.38996E+05-6.42871E-10-1.19508E-09
 -1       705-3.73632E+05-5.24607E+04-2.55304E+03-1.40783E+05-2.97945E-10 3.15026E-10
 -1       706-3.74690E+05-5.30128E+04-1.51458E+03-1.40020E+05-5.16138E-11-9.54998E-10
 -1       707-3.74133E+05-5.26042E+04-7.12057E+02-1.40425E+05 5.48894E-13-1.31877E-10
 -1       708-3.73940E+05-5.31207E+04-6.15228E+02-1.40670E+05 1.02997E-10 2.01313E-10
 -1       709-3.74382E+05-5.23522E+04-6.96330E+02-1.40133E+05 2.68770E-10-6.37499E-10
 -1       710-3.73771E+05-5.39258E+04-1.47434E+03-1.41092E+05 6.78504E-10-2.31111E-10
 -1       711-3.74303E+05-5.17990E+04-2.47023E+03-1.40003E+05-1.82524E-10-1.00613E-10
 -1       712-3.75301E+05-5.70334E+04-6.58085E+03-1.40803E+05 1.18348E-10 7.72616E-10
 -1       713-3.72854E+05-4.92484E+04-1.05394E+04-1.40422E+05 1.40972E-11-2.48292E-10
 -1       714-3.86025E+05-7.56035E+04-3.11701E+04-1.37203E+05 5.35465E-11-8.45830E-10
 -1       715-3.63587E+05-3.32568E+04-4.49426E+04-1.43594E+05 9.18590E-11 2.23736E-10
 -1       716 8.33721E+04-1.22071E+04 2.82754E+04 1.10131E+03 1.60014E-09-1.65528E-10
 -1       717 9.63340E+04 1.41242E+04 2.01128E+04-3.78420E+03 3.20213E-10-8.14680E-10
 -1       718 8.82590E+04-1.90309E+03 7.32851E+03 8.29477E+02-7.09122E-11 1.09139E-10
 -1       719 9.05761E+04 2.20198E+03 4.67341E+03-3.34742E+03 9.15179E-12 2.06285E-10
 -1       720 8.91165E+04-2.97727E+02 1.94748E+03 6.64533E+02 7.78655E-10 8.57426E-10
 -1       721 8.95562E+04 3.66273E+02 1.27941E+03-3.09963E+03 1.41959E-09 8.78444E-10
 -1       722 8.92721E+04-6.56517E+01 8.25552E+02 5.81688E+02 8.68194E-10 1.25809E-10
 -1       723 8.94408E+04 2.13169E+02 1.04050E+03-3.00966E+03-3.84588E-10 1.29728E-09
 -1       724 8.92296E+04-1.43236E+02 1.53586E+03 5.74565E+02 1.10079E-09 5.76563E-10
 -1       725 8.99045E+04 1.03678E+03 3.32680E+03-3.07067E+03 1.54177E-09-7.03153E-11
 -1       726 8.88099E+04-8.89148E+02 5.64604E+03 6.42699E+02 8.68440E-10 1.58707E-10
 -1       727 9.27435E+04 6.62288E+03 1.38810E+04-3.28939E+03 1.17554E-09 5.54564E-10
 -1       728 8.63964E+04-5.72394E+03 2.20686E+04 7.93290E+02 6.15330E-10-5.20231E-10
 -1       729 1.09558E+05 4.24953E+04 6.03643E+04-3.72315E+03 9.37206E-11-8.60382E-10
 -1       730 7.20153E+04-3.67011E+04 8.52955E+04 1.07637E+03 3.68800E-10-1.65528E-09
 -1       731-1.45115E+04 1.42925E+05 3.38101E+04-4.21283E+02-6.91216E-10-7.31859E-10
 -1       732 1.70286E+04 1.57837E+05 2.42927E+04 2.31838E+02 3.20142E-10-9.65557E-11
 -1       733-2.48886E+03 1.48464E+05 9.46928E+03-1.60781E+02-3.90628E-10 6.05027E-10
 -1       734 4.32222E+03 1.51945E+05 7.68066E+03-2.70092E+02 2.36412E-10 8.89600E-10
 -1       735-1.82862E+03 1.48817E+05 5.19314E+03 8.06061E+01-2.38799E-10 1.34705E-10
 -1       736-8.19634E+05-9.40771E+04-6.06299E+04-3.20994E+05-1.11413E-09 3.81988E-10
 -1       737-8.55159E+05-1.44913E+05-4.18796E+04-3.05103E+05 5.13410E-10-3.85626E-10
 -1       738-8.34589E+05-1.13453E+05-1.43013E+04-3.14243E+05 4.68617E-10-3.13776E-10
 -1       739-8.36132E+05-1.24473E+05-8.73351E+03-3.15220E+05 1.93791E-09-7.41238E-10
 -1       740-8.38641E+05-1.14479E+05-3.36022E+03-3.10885E+05 2.04514E-09 1.66688E-09
 -1       741-8.31264E+05-1.23635E+05-1.94747E+03-3.19534E+05 1.29084E-09 4.31291E-09
 -1       742-8.39472E+05-1.14269E+05-9.06959E+02-3.09945E+05 9.89289E-10-2.59141E-09
 -1       743-8.31521E+05-1.22382E+05-7.23736E+02-3.18772E+05 2.34039E-10 1.45975E-09
 -1       744-8.38377E+05-1.15736E+05-9.17141E+02-3.11643E+05-4.00058E-09-3.75067E-09
 -1       745-8.35325E+05-1.18839E+05-1.64456E+03-3.14040E+05 6.21114E-10-1.40773E-09
 -1       746-8.35650E+05-1.17827E+05-3.07944E+03-3.14661E+05 5.93843E-10-1.37766E-09
 -1       747-8.42134E+05-1.17898E+05-7.87057E+03-3.08335E+05 7.33053E-10-1.75987E-09
 -1       748-8.31584E+05-1.16674E+05-1.27731E+04-3.17357E+05 1.09117E-09 1.96769E-09
 -1       749-8.57377E+05-1.38519E+05-3.77207E+04-3.01908E+05-1.33468E-10 3.68800E-09
 -1       750-8.20441E+05-9.72287E+04-5.44367E+04-3.21094E+05-5.82077E-10 2.70302E-09
 -1       751 1.91464E+06-1.07850E+05 2.51273E+05 5.00250E+03-1.40699E-08 5.82077E-11
 -1       752 2.02357E+06 1.24916E+05 1.77504E+05-6.65607E+03-3.06462E-09-1.55887E-09
 -1       753 1.95676E+06-1.68196E+04 6.51013E+04 1.33507E+03 8.24016E-11-2.54659E-10
 -1       754 1.97462E+06 1.94710E+04 4.08690E+04-1.96301E+03 2.34266E-11 1.73532E-09
 -1       755 1.96368E+06-2.61825E+03 1.67682E+04 3.10044E+02-1.87899E-10 5.70253E-10
 -1       756 1.96660E+06 3.06928E+03 1.00102E+04-6.48240E+02-1.10262E-10-7.41238E-10
 -1       757 1.96481E+06-4.46796E+02 4.93894E+03 2.03029E+01 7.18957E-10 5.29326E-10
 -1       758 1.96541E+06 7.98277E+02 3.96059E+03-2.90760E+02 2.63189E-09 2.19515E-10
 -1       759 1.96487E+06-3.50707E+02 4.05494E+03-4.74423E+01 1.73098E-09-2.38765E-09
 -1       760 1.96615E+06 2.23916E+03 7.45888E+03-2.58086E+02-6.38935E-10-1.04421E-09
 -1       761 1.96407E+06-1.88538E+03 1.21669E+04-1.23713E+01-1.94384E-09-9.17680E-10
 -1       762 1.97188E+06 1.39907E+04 2.94101E+04-4.93204E+02 1.91710E-09 1.67711E-09
 -1       763 1.95911E+06-1.20815E+04 4.67737E+04 1.87679E+02 5.56096E-09 1.10595E-09
 -1       764 2.00688E+06 8.96918E+04 1.27436E+05-1.42452E+03 7.47441E-10 2.09184E-10
 -1       765 1.92898E+06-7.74352E+04 1.80400E+05 9.18870E+02-1.15111E-09-2.03727E-09
 -1       766-4.65158E+04 3.13118E+05 1.09750E+05-2.47074E+03-2.77942E-09 9.98170E-11
 -1       767 5.75350E+04 3.62117E+05 8.41021E+04 7.91617E+03-1.50067E-10 6.22713E-10
 -1       768-1.09198E+04 3.29561E+05 4.16761E+04-1.95751E+03-1.66801E-09 6.37712E-12
 -1       769 3.62383E+04 3.52196E+05 5.62519E+04 7.72372E+03 4.72028E-10 2.78973E-10
 -1       770-2.52592E+04 3.23031E+05 6.17768E+04-2.27837E+03-2.83399E-09 2.59752E-09
 -1       771-1.06000E+06-2.14999E+05-3.80555E+04-4.58832E+05-3.63798E-10-7.13044E-10
 -1       772-1.05746E+06-2.13780E+05-1.86348E+04-4.74182E+05-1.45519E-09-1.12732E-09
 -1       773-1.06149E+06-2.00544E+05-7.92573E+03-4.65090E+05-3.23416E-09-7.37782E-09
 -1       774-1.05329E+06-2.08883E+05-3.86665E+03-4.75365E+05 9.60426E-10-8.50605E-10
 -1       775-1.06185E+06-1.99894E+05-1.79034E+03-4.65427E+05-7.89441E-10-6.54836E-11
 -1       776-1.05308E+06-2.08669E+05-9.01718E+02-4.75506E+05-3.55794E-09-8.00480E-09
 -1       777-1.06202E+06-1.99844E+05-4.93695E+02-4.65488E+05-8.87667E-10-8.51969E-10
 -1       778-1.05314E+06-2.08642E+05-3.82588E+02-4.75595E+05-7.08496E-10-8.80078E-10
 -1       779-1.06210E+06-1.99792E+05-4.82629E+02-4.65530E+05-1.87356E-10-4.28372E-10
 -1       780-1.05323E+06-2.08623E+05-8.81329E+02-4.75672E+05 1.09139E-11-8.00355E-11
 -1       781-1.06212E+06-1.99736E+05-1.74092E+03-4.65550E+05 5.54792E-10 1.35060E-10
 -1       782-1.05356E+06-2.08816E+05-3.78455E+03-4.75723E+05 1.90994E-10-4.00178E-10
 -1       783-1.06195E+06-2.00247E+05-7.74163E+03-4.65272E+05-6.52449E-10-7.66704E-10
 -1       784-1.05754E+06-2.13852E+05-1.82584E+04-4.75019E+05 6.63931E-11-1.22782E-11
 -1       785-1.06084E+06-2.14125E+05-3.72535E+04-4.58954E+05 3.37650E-11 2.72848E-11
 -1       786 2.04568E+05-5.99669E+03 2.60322E+04-1.45142E+03 1.57229E-10-1.75351E-09
 -1       787 2.13944E+05 8.16411E+03 1.66684E+04-5.77437E+03-2.35559E-10 1.55342E-09
 -1       788 2.08492E+05-6.16936E+02 6.74597E+03-1.44620E+03-1.29489E-10 1.49157E-09
 -1       789 2.09572E+05 8.02842E+02 3.76527E+03-5.77368E+03 1.19826E-10-1.64368E-09
 -1       790 2.08936E+05-6.67768E+01 1.71438E+03-1.45166E+03 2.46132E-10 1.28694E-10
 -1       791 2.09069E+05 7.78468E+01 9.20711E+02-5.76564E+03-7.98650E-11 1.48134E-09
 -1       792 2.08993E+05-8.46914E+00 4.74345E+02-1.45424E+03-6.91927E-11 5.90063E-10
 -1       793 2.09007E+05 1.02485E+01 3.19510E+02-5.76385E+03 1.75067E-10 1.38391E-09
 -1       794 2.08998E+05-4.92222E+00 3.01921E+02-1.45345E+03-5.63887E-11 6.61835E-10
 -1       795 2.09028E+05 3.56949E+01 4.66594E+02-5.76908E+03 5.35465E-11 1.23041E-09
 -1       796 2.08973E+05-3.14344E+01 8.10147E+02-1.44901E+03 3.12639E-11-7.17137E-10
 -1       797 2.09259E+05 3.68420E+02 1.74473E+03-5.77999E+03-4.00348E-10-6.06178E-10
 -1       798 2.08769E+05-2.85317E+02 3.11158E+03-1.44255E+03-2.24873E-10 5.49107E-11
 -1       799 2.11275E+05 3.75783E+03 7.67943E+03-5.78120E+03-1.05496E-09-7.69091E-10
 -1       800 2.06962E+05-2.76408E+03 1.19889E+04-1.44804E+03 1.07320E-10-1.38971E-09
 -1       801-7.40622E+03 2.07246E+05 2.98379E+04-1.60542E+05 8.45830E-10 3.83807E-09
 -1       802 1.62701E+04 2.16619E+05 3.07597E+04-6.27812E+05-3.96722E-09 2.10275E-09
 -1       803-1.40088E+03 2.07949E+05 3.24188E+04-1.60104E+05 1.95359E-09 5.59112E-09
 -1       804 3.71341E+04 2.29347E+05 6.79535E+04-6.27777E+05-5.64978E-09-3.13230E-09
 -1       805-2.44398E+04 1.94892E+05 1.00145E+05-1.60584E+05 1.86628E-09 1.47338E-09
 -1       806-1.99199E+05-5.31605E+04-1.69822E+04-9.19182E+04 7.43967E-10-9.11314E-10
 -1       807-1.99277E+05-4.88731E+04-8.05706E+03-9.71132E+04 2.67050E-10-4.92264E-11
 -1       808-1.99109E+05-4.44872E+04-3.38777E+03-9.55755E+04-6.02768E-10-2.54545E-10
 -1       809-1.97600E+05-4.58258E+04-1.63726E+03-9.78165E+04-4.37012E-10 7.20632E-10
 -1       810-1.99151E+05-4.38936E+04-7.40442E+02-9.58422E+04-8.42647E-10 6.66205E-11
 -1       811-1.97435E+05-4.56236E+04-3.71461E+02-9.78452E+04-8.87667E-10 3.23098E-09
 -1       812-1.99165E+05-4.38759E+04-1.95032E+02-9.58547E+04-4.44658E-10-8.84256E-10
 -1       813-1.97418E+05-4.56180E+04-1.45443E+02-9.78410E+04-7.46667E-10-2.73371E-09
 -1       814-1.99164E+05-4.38781E+04-1.71185E+02-9.58534E+04-9.95783E-10-5.91172E-11
 -1       815-1.97429E+05-4.56247E+04-3.08173E+02-9.78407E+04 1.20178E-09 8.10132E-10
 -1       816-1.99148E+05-4.38951E+04-6.04246E+02-9.58413E+04-2.77350E-09 1.40162E-08
 -1       817-1.97563E+05-4.57869E+04-1.33159E+03-9.78100E+04-2.09784E-08-1.39876E-08
 -1       818-1.99108E+05-4.43836E+04-2.75292E+03-9.56265E+04-7.11179E-09 2.26146E-09
 -1       819-1.98952E+05-4.82314E+04-6.54531E+03-9.71991E+04-1.96837E-09 7.01220E-10
 -1       820-1.99146E+05-5.14559E+04-1.37948E+04-9.26846E+04-1.83218E-09 1.74737E-09
 -1       821-2.01711E+05 6.00220E+03-2.60682E+04 1.50748E+03-3.26804E-09 6.47560E-10
 -1       822-2.11091E+05-8.17602E+03-1.66917E+04 6.11363E+03-1.99975E-10-3.27645E-10
 -1       823-2.05642E+05 6.15997E+02-6.75774E+03 1.46782E+03 6.21571E-09-5.34328E-10
 -1       824-2.06723E+05-7.98872E+02-3.77372E+03 6.16665E+03 2.61900E-09 1.35276E-09
 -1       825-2.06088E+05 6.72772E+01-1.72572E+03 1.45399E+03-2.04727E-09-8.19341E-10
 -1       826-2.06227E+05-6.98811E+01-9.39541E+02 6.18910E+03-6.68774E-09-5.57066E-11
 -1       827-2.06145E+05 1.06519E+01-5.10754E+02 1.44527E+03-3.70699E-09 1.53463E-09
 -1       828-2.06172E+05-2.88872E+00-3.93599E+02 6.20293E+03-4.17245E-09 6.52321E-10
 -1       829-2.06147E+05 9.93476E+00-4.46160E+02 1.44015E+03-5.78240E-10 2.69438E-11
 -1       830-2.06216E+05-5.22689E+01-7.70128E+02 6.20891E+03 3.79961E-09-2.00657E-11
 -1       831-2.06103E+05 5.58910E+01-1.38745E+03 1.43928E+03-3.14571E-09-1.56888E-10
 -1       832-2.06615E+05-6.32887E+02-3.01948E+03 6.20628E+03-1.78898E-09-3.07864E-10
 -1       833-2.05748E+05 4.95108E+02-5.39951E+03 1.44287E+03-1.03341E-10-4.74756E-10
 -1       834-2.10108E+05-6.52473E+03-1.33349E+04 6.18503E+03-8.81130E-10-3.47040E-09
 -1       835-2.02608E+05 4.79857E+03-2.08229E+04 1.46135E+03 5.59794E-10-2.82398E-09
 -1       836-9.59435E+03 5.19668E+05 4.39233E+04-1.41691E+04-7.94898E-10 1.28784E-09
 -1       837 1.47455E+04 5.35798E+05 3.41436E+04-5.46354E+04 2.59865E-09-6.53017E-10
 -1       838-2.31860E+03 5.24846E+05 2.52953E+04-1.41573E+04-1.03114E-09 1.16927E-09
 -1       839 1.95406E+04 5.38642E+05 4.26500E+04-5.46308E+04 2.35832E-09 1.30058E-10
 -1       840-1.34511E+04 5.16816E+05 6.00219E+04-1.41733E+04-9.89530E-10 2.49292E-09
 -1       841-2.42106E+04 8.33177E+01-9.08025E+03-1.07050E+04-2.27510E-09-1.96087E-09
 -1       842-2.92006E+04-8.00965E+03-6.29477E+03-8.88805E+03-1.52215E-09-2.45893E-09
 -1       843-2.60517E+04-3.17842E+03-2.12775E+03-1.01012E+04 2.21132E-09 1.67017E-09
 -1       844-2.70676E+04-4.22699E+03-1.32360E+03-9.57958E+03 3.05741E-09-3.05278E-10
 -1       845-2.63430E+04-3.69369E+03-4.88523E+02-1.00157E+04 1.12171E-09-6.06235E-11
 -1       846-2.67314E+04-3.62576E+03-2.73631E+02-9.67464E+03-3.52347E-09 8.94218E-10
 -1       847-2.63878E+04-3.77878E+03-9.27103E+01-1.00065E+04-3.51077E-09 7.61347E-11
 -1       848-2.66743E+04-3.51638E+03-1.26111E+01-9.68519E+03-1.29511E-09-1.72724E-09
 -1       849-2.64002E+04-3.80290E+03 6.43411E+01-1.00053E+04 3.74725E-09-1.85580E-10
 -1       850-2.66211E+04-3.42732E+03 2.13127E+02-9.69787E+03 5.98217E-09 1.02148E-09
 -1       851-2.64410E+04-3.86772E+03 3.86672E+02-9.99388E+03-2.36360E-09-1.36571E-09
 -1       852-2.63386E+04-2.95846E+03 1.05384E+03-9.78535E+03-3.08746E-09-3.26789E-09
 -1       853-2.66826E+04-4.27113E+03 1.69332E+03-9.91799E+03-1.47907E-10 2.61593E-10
 -1       854-2.46166E+04 3.58292E+01 5.01455E+03-1.03565E+04 2.11958E-09 3.40930E-09
 -1       855-2.81622E+04-6.85754E+03 7.23049E+03-9.42427E+03 1.07809E-09 1.72804E-09
 -1       856-2.38224E+05 5.55497E+03-2.41462E+04 3.05463E+03-3.44562E-09-3.32875E-10
 -1       857-2.46905E+05-7.55538E+03-1.54568E+04 1.25170E+04-3.60126E-09 7.56700E-10
 -1       858-2.41867E+05 5.72072E+02-6.25913E+03 2.98717E+03-7.11952E-09-8.88576E-10
 -1       859-2.42875E+05-7.17660E+02-3.49214E+03 1.26083E+04-3.66322E-09-2.76850E-09
 -1       860-2.42282E+05 6.72685E+01-1.59434E+03 2.96239E+03-3.31102E-09 3.70051E-10
 -1       861-2.42424E+05-3.86520E+01-8.61080E+02 1.26449E+04-6.27068E-09-1.79728E-09
 -1       862-2.42336E+05 1.63788E+01-4.55614E+02 2.95042E+03 7.16528E-09-8.46853E-10
 -1       863-2.42375E+05 2.57999E+01-3.28862E+02 1.26596E+04 1.53214E-08-2.37765E-09
 -1       864-2.42340E+05 1.46505E+01-3.43980E+02 2.94765E+03 8.93684E-09-1.67191E-09
 -1       865-2.42402E+05-9.65120E+00-5.67709E+02 1.26553E+04 7.70888E-09-2.70447E-09
 -1       866-2.42307E+05 4.60958E+01-1.00931E+03 2.95469E+03-1.63254E-10-2.47053E-09
 -1       867-2.42681E+05-4.33240E+02-2.18625E+03 1.26305E+04 1.01068E-10-5.70481E-09
 -1       868-2.42048E+05 3.60349E+02-3.90874E+03 2.97260E+03 3.01111E-09-1.93245E-09
 -1       869-2.45191E+05-4.70067E+03-9.64528E+03 1.25560E+04-1.98804E-09-1.48611E-09
 -1       870-2.39774E+05 3.46761E+03-1.50669E+04 3.02997E+03 6.11226E-09-8.49468E-10
 -1       871-2.21931E+03-2.11487E+04-4.02174E+03 6.05872E+04 1.98770E-09-8.82665E-10
 -1       872-7.11730E+02-2.18628E+04-1.16201E+03 7.08382E+04 1.91358E-09-2.45791E-10
 -1       873 3.67719E+01-2.15992E+04 1.21252E+03 6.04714E+04 1.84991E-09 7.49196E-10
 -1       874 1.41431E+03-2.06343E+04 4.48150E+03 7.08915E+04 2.29693E-09-5.25063E-10
 -1       875 4.66474E+03-2.24120E+04 9.66892E+03 6.05402E+04 1.94041E-09 2.11708E-09
 -1       876 2.83318E+05 3.55788E+04 2.68460E+04 1.11413E+05 5.03928E-09-5.34965E-09
 -1       877 2.89404E+05 5.64894E+04 1.69448E+04 1.15335E+05 5.35510E-09-3.00861E-09
 -1       878 2.87938E+05 4.17126E+04 6.33778E+03 1.10760E+05 3.71381E-09-4.76348E-09
 -1       879 2.84094E+05 4.85203E+04 3.48923E+03 1.16455E+05-7.52073E-09-6.24578E-09
 -1       880 2.88451E+05 4.23882E+04 1.48027E+03 1.10723E+05-5.36340E-09-2.47280E-09
 -1       881 2.83503E+05 4.76633E+04 7.94886E+02 1.16517E+05-6.13863E-09-5.33558E-09
 -1       882 2.88505E+05 4.24716E+04 4.24249E+02 1.10731E+05 2.23662E-09-2.88594E-10
 -1       883 2.83450E+05 4.75737E+04 3.65398E+02 1.16504E+05-5.66712E-09-1.24996E-09
 -1       884 2.88499E+05 4.24737E+04 4.76715E+02 1.10735E+05-3.72277E-09 1.55694E-09
 -1       885 2.83531E+05 4.76705E+04 9.39713E+02 1.16499E+05 1.00632E-08 6.43305E-09
 -1       886 2.88424E+05 4.23828E+04 1.77405E+03 1.10733E+05 2.62742E-09 5.14444E-09
 -1       887 2.84257E+05 4.86861E+04 4.19442E+03 1.16402E+05-2.64970E-09-1.17507E-09
 -1       888 2.87795E+05 4.15798E+04 7.62472E+03 1.10787E+05-5.76907E-10 1.76624E-09
 -1       889 2.90656E+05 5.82630E+04 2.03869E+04 1.15037E+05-3.49507E-09-1.02636E-09
 -1       890 2.82232E+05 3.42055E+04 3.23022E+04 1.11576E+05-2.10184E-09-1.89175E-09
 -1       891 1.02138E+03-1.26355E+05-4.89074E+03 1.36885E+04 5.74846E-09 3.76076E-10
 -1       892-1.71667E+03-1.28099E+05-3.93339E+03 5.34474E+04 1.65426E-09-4.47642E-10
 -1       893 2.76516E+02-1.26909E+05-3.13846E+03 1.36284E+04 2.38447E-09 1.19013E-09
 -1       894-2.65500E+03-1.28651E+05-5.59469E+03 5.34427E+04-2.85945E-09-5.84805E-10
 -1       895 1.77295E+03-1.25797E+05-8.03469E+03 1.36930E+04 2.20825E-09 1.40381E-09
 -1       896 5.64449E+05-4.24551E+03 9.86993E+03 8.21323E+02-9.50848E-11-1.88584E-09
 -1       897 5.68728E+05 4.91531E+03 6.98737E+03-1.37919E+03-2.74110E-10-8.73683E-10
 -1       898 5.66116E+05-6.61882E+02 2.56501E+03 4.08031E+02-5.16664E-10-9.19158E-10
 -1       899 5.66788E+05 7.66968E+02 1.62515E+03-7.48091E+02-1.26274E-10-3.25144E-10
 -1       900 5.66390E+05-1.04090E+02 6.92725E+02 1.90220E+02-1.83629E-10-3.39924E-10
 -1       901 5.66473E+05 1.29864E+02 4.67361E+02-4.14179E+02-3.19048E-10-4.70948E-11
 -1       902 5.66431E+05-2.56723E+01 3.32536E+02 7.41137E+01-1.54635E-10 1.01063E-10
 -1       903 5.66456E+05 9.30027E+01 4.60536E+02-2.34358E+02-2.09237E-10-9.40652E-11
 -1       904 5.66407E+05-6.72510E+01 7.12874E+02 1.03956E+01 8.58735E-11 2.55113E-10
 -1       905 5.66665E+05 4.88853E+02 1.56530E+03-1.32422E+02 5.25542E-10 1.85651E-10
 -1       906 5.66222E+05-4.20924E+02 2.67340E+03-2.78241E+01-3.91740E-11 1.15961E-11
 -1       907 5.67957E+05 3.13418E+03 6.55874E+03-6.52349E+01-9.00521E-10 1.68598E-10
 -1       908 5.65112E+05-2.70805E+03 1.04586E+04-5.67925E+01-3.62805E-10 2.43290E-10
 -1       909 5.75808E+05 2.01054E+04 2.85419E+04-3.38931E+00 6.75856E-10-6.18456E-11
 -1       910 5.58364E+05-1.73603E+04 4.03947E+04-8.96655E+01 9.38194E-10 4.65661E-10
 -1       911 1.65603E+05-2.16960E+03 5.04105E+03 2.74230E+02-1.94547E-10 8.23547E-10
 -1       912 1.67806E+05 2.51296E+03 3.57224E+03-1.32398E+03-2.74806E-10 1.03205E-09
 -1       913 1.66456E+05-3.38563E+02 1.31484E+03 1.72935E+02-2.08441E-10 1.67245E-09
 -1       914 1.66811E+05 3.94040E+02 8.41306E+02-1.17664E+03-2.65963E-10 2.13902E-09
 -1       915 1.66597E+05-5.40240E+01 3.75644E+02 1.26885E+02 6.80083E-10 2.03276E-09
 -1       916 1.66653E+05 7.33103E+01 2.85150E+02-1.13430E+03 1.11744E-09 1.47877E-09
 -1       917 1.66614E+05-1.82393E+01 2.57370E+02 1.30601E+02 9.08381E-10 1.85686E-09
 -1       918 1.66670E+05 8.71178E+01 4.28601E+02-1.19185E+03 1.64775E-11 1.79340E-09
 -1       919 1.66580E+05-6.80388E+01 7.12680E+02 1.84428E+02 8.36835E-10 1.70391E-09
 -1       920 1.66908E+05 5.02855E+02 1.60685E+03-1.35623E+03 6.91443E-10 1.02835E-09
 -1       921 1.66378E+05-4.34014E+02 2.74867E+03 2.94989E+02-1.68576E-10 1.13221E-09
 -1       922 1.68280E+05 3.23322E+03 6.77393E+03-1.64827E+03 1.43014E-10 1.96337E-10
 -1       923 1.65210E+05-2.79517E+03 1.07794E+04 4.76476E+02-1.14184E-10-5.93900E-10
 -1       924 1.76462E+05 2.07528E+04 2.94757E+04-2.11737E+03-4.76604E-10-2.04500E-09
 -1       925 1.58199E+05-1.79236E+04 4.16607E+04 7.64054E+02 4.97096E-10-2.67028E-09
 -1       926-7.18157E+05 1.60039E+04-3.72532E+04-2.64995E+03 2.28508E-09-5.16047E-09
 -1       927-7.34124E+05-1.85272E+04-2.63021E+04 5.28663E+03-2.93226E-09-5.49426E-09
 -1       928-7.24308E+05 2.49559E+03-9.63038E+03-3.11575E+03 3.90113E-10-6.54018E-09
 -1       929-7.26827E+05-2.87717E+03-6.01112E+03 4.83429E+03 3.79342E-09-6.16274E-09
 -1       930-7.25443E+05 3.79766E+02-2.46042E+03-2.19762E+03-5.59908E-10-4.94231E-09
 -1       931-7.25400E+05-4.31466E+02-1.32631E+03 2.04387E+03-9.37916E-12-2.49065E-09
 -1       932-7.25719E+05 4.37589E+01-6.04195E+02-3.25277E+02 4.55600E-10-1.46738E-09
 -1       933-7.25159E+05-3.18354E+01-1.44668E+02-1.77810E+03 1.22782E-11 1.21497E-09
 -1       934-7.25683E+05-2.04319E+01 4.80060E+01 1.62439E+03-5.98192E-10 2.55798E-09
 -1       935-7.25266E+05 1.64692E+02 4.73243E+02-4.84014E+03-7.86997E-10 3.91214E-09
 -1       936-7.25623E+05-1.42664E+02 8.74478E+02 2.73682E+03 3.78130E-10 4.66599E-09
 -1       937-7.24914E+05 1.08398E+03 2.23683E+03-5.70542E+03-2.21266E-09 4.17015E-09
 -1       938-7.26039E+05-9.33651E+02 3.57195E+03 2.48971E+03-1.56074E-09 3.66595E-09
 -1       939-7.22024E+05 6.93254E+03 9.84568E+03-3.97151E+03-1.78333E-09 2.73656E-09
 -1       940-7.28499E+05-5.98874E+03 1.38340E+04 1.00286E+03 7.10543E-13 2.22190E-09
 -1       941 3.06831E+06-1.52545E+05 3.55841E+05 3.64345E+02 1.50366E-08 2.89583E-09
 -1       942 3.22183E+06 1.76720E+05 2.51201E+05 6.49462E+02 2.07606E-08 3.78350E-10
 -1       943 3.12769E+06-2.38028E+04 9.22183E+04 4.69274E+02 9.89906E-07 3.28146E-09
 -1       944 3.15291E+06 2.75591E+04 5.78989E+04 5.24153E+02 1.95851E-06-2.12003E-09
 -1       945 3.13748E+06-3.70740E+03 2.37967E+04 4.89721E+02 1.54879E-06 6.45741E-10
 -1       946 3.14160E+06 4.35393E+03 1.42581E+04 4.98629E+02 1.13729E-06 4.45471E-09
 -1       947 3.13909E+06-6.40191E+02 7.13640E+03 4.94820E+02 1.64011E-06 2.25850E-09
 -1       948 3.13995E+06 1.18838E+03 5.90709E+03 4.86950E+02 2.14335E-06 2.25101E-09
 -1       949 3.13915E+06-5.46825E+02 6.27777E+03 5.01404E+02 1.07747E-06-4.69254E-09
 -1       950 3.14116E+06 3.54765E+03 1.17809E+04 4.50152E+02 8.45685E-09 3.29123E-09
 -1       951 3.13786E+06-2.99570E+03 1.93290E+04 5.31615E+02 4.70670E-10-5.16229E-09
 -1       952 3.15027E+06 2.22398E+04 4.67809E+04 2.63720E+02-4.91284E-10-2.76850E-09
 -1       953 3.12996E+06-1.92052E+04 7.44297E+04 6.87817E+02-4.74127E-09 1.17507E-09
 -1       954 3.20587E+06 1.42581E+05 2.02682E+05-7.18385E+02-1.59929E-09-2.28465E-09
 -1       955 3.08203E+06-1.23082E+05 2.87017E+05 1.51351E+03-1.38848E-08-3.49246E-10
 -1       956-1.62390E+05-2.81004E+03-5.86753E+03 2.26777E+04-3.15504E-09-8.54925E-11
 -1       957-1.63462E+05-8.88302E+02-2.96023E+03 2.63097E+04-8.94943E-10 5.69798E-10
 -1       958-1.62873E+05-1.00206E+02-1.33136E+03 2.25405E+04 1.98179E-09-8.11497E-10
 -1       959-1.62974E+05-7.10667E+00-6.76989E+02 2.64601E+04-1.92267E-09-2.60729E-09
 -1       960-1.62930E+05 3.17893E+01-3.28642E+02 2.25263E+04-3.82170E-09-8.95398E-10
 -1       961-1.62941E+05 3.75419E+01-1.73099E+02 2.64760E+04-6.81644E-09-2.57637E-09
 -1       962-1.62946E+05 3.53007E+01-9.71967E+01 2.25245E+04-3.05272E-09-2.25327E-09
 -1       963-1.62945E+05 4.16507E+01-7.44696E+01 2.64783E+04-4.03998E-09 9.51104E-10
 -1       964-1.62952E+05 3.85219E+01-8.62171E+01 2.25239E+04-6.26642E-10-1.14528E-09
 -1       965-1.62954E+05 4.46769E+01-1.45524E+02 2.64782E+04 4.93512E-09-1.80648E-09
 -1       966-1.62949E+05 4.17009E+01-2.71359E+02 2.25246E+04-2.07842E-09-8.69932E-10
 -1       967-1.62992E+05 1.40627E+01-5.57630E+02 2.64705E+04 5.36659E-10-7.06677E-10
 -1       968-1.62912E+05-6.12721E+01-1.09498E+03 2.25317E+04 6.61430E-10-2.06603E-09
 -1       969-1.63403E+05-7.06169E+02-2.43608E+03 2.63948E+04 7.66249E-10-2.60570E-10
 -1       970-1.62521E+05-2.28834E+03-4.82759E+03 2.26023E+04 6.20730E-10-8.96762E-10
 -1       971-3.31595E+05 4.60746E+03-2.00429E+04 3.01376E+03-3.08728E-09 2.45291E-09
 -1       972-3.38783E+05-6.26935E+03-1.28295E+04 1.25359E+04-1.80989E-09 1.00772E-09
 -1       973-3.34620E+05 4.73623E+02-5.19907E+03 2.92941E+03-4.19482E-09 1.06434E-09
 -1       974-3.35444E+05-5.92183E+02-2.90519E+03 1.26555E+04-7.00084E-10 3.67584E-09
 -1       975-3.34965E+05 5.60454E+01-1.33807E+03 2.89353E+03-3.08319E-10 1.07912E-09
 -1       976-3.35075E+05-2.72049E+01-7.44151E+02 1.27103E+04-6.76022E-09-5.24096E-11
 -1       977-3.35009E+05 1.52254E+01-4.36604E+02 2.87445E+03 6.79654E-09 1.56365E-09
 -1       978-3.35043E+05 2.36833E+01-3.93412E+02 1.27354E+04 1.58265E-08 3.35200E-09
 -1       979-3.35008E+05 1.80199E+01-5.20008E+02 2.86836E+03 2.68698E-09 1.16847E-09
 -1       980-3.35103E+05-4.44434E+01-9.65125E+02 1.27341E+04 8.13594E-09 5.11472E-10
 -1       981-3.34949E+05 7.64442E+01-1.77645E+03 2.87578E+03-1.43132E-10 4.35875E-10
 -1       982-3.35612E+05-7.97167E+02-3.88814E+03 1.27048E+04 8.31733E-10 2.32473E-09
 -1       983-3.34489E+05 6.40375E+02-6.96426E+03 2.89780E+03 2.57160E-09 1.40290E-10
 -1       984-3.40105E+05-8.40449E+03-1.72025E+04 1.26209E+04 8.41737E-10 1.43018E-09
 -1       985-3.30435E+05 6.18889E+03-2.68686E+04 2.96108E+03 4.94379E-09-7.63976E-10
 -3
    1PSTEP                        15           8           1          
  100CL  108 4.58252E-01         841                     0    8           1
 -4  DISP        4    1
 -5  D1          1    2    1    0
 -5  D2          1    2    2    0
 -5  D3          1    2    3    0
 -5  ALL         1    2    0    0    1ALL
 -1         1 5.61074E-05 0.00000E+00 0.00000E+00
 -1         2 4.14989E-05 0.00000E+00 0.00000E+00
 -1         3 3.46772E-05 0.00000E+00 0.00000E+00
 -1         4 3.09094E-05 0.00000E+00 0.00000E+00
 -1         5 2.92135E-05 0.00000E+00 0.00000E+00
 -1         8 4.40448E-05-5.63624E-07 0.00000E+00
 -1         9 3.48741E-05 4.74711E-07 0.00000E+00
 -1        10 3.25015E-05-1.44336E-06 0.00000E+00
 -1        11 3.02972E-05-2.85902E-07 0.00000E+00
 -1        12 2.81250E-05 7.35944E-07 0.00000E+00
 -1        15 1.86068E-05-1.17243E-06 0.00000E+00
 -1        16 2.55105E-05 4.70006E-07 0.00000E+00
 -1        17 2.36553E-05-2.90358E-06 0.00000E+00
 -1        18 2.39936E-05-5.63089E-07 0.00000E+00
 -1        19 2.52268E-05 1.45759E-06 0.00000E+00
 -1        20 2.56171E-05 1.54804E-05 0.00000E+00
 -1        21 2.56051E-05 3.70502E-05 0.00000E+00
 -1        22 6.88460E-06-7.57891E-07 0.00000E+00
 -1        23 9.19717E-06 9.87937E-07 0.00000E+00
 -1        24 9.68148E-06-3.42636E-06 0.00000E+00
 -1        25 2.10227E-05-3.82972E-07 0.00000E+00
 -1        26 2.22322E-05 1.93370E-06 0.00000E+00
 -1        27 2.10358E-05 1.49324E-05 0.00000E+00
 -1        28 1.96166E-05 3.65301E-05 0.00000E+00
 -1        29 0.00000E+00 0.00000E+00 0.00000E+00
 -1        30 3.29477E-06 1.30049E-06 0.00000E+00
 -1        31 4.25371E-06-2.74439E-06 0.00000E+00
 -1        32 0.00000E+00 0.00000E+00 0.00000E+00
 -1        33 1.81234E-05 3.05757E-06 0.00000E+00
 -1        34 1.71702E-05 1.48820E-05 0.00000E+00
 -1        35 1.52116E-05 3.62534E-05 0.00000E+00
 -1        36 5.52236E-05 2.64185E-20 0.00000E+00
 -1        37 5.43107E-05 8.67042E-20 0.00000E+00
 -1        38 5.33997E-05 1.96426E-19 2.64698E-23
 -1        39 5.24830E-05 3.65863E-19 0.00000E+00
 -1        40 5.15663E-05 4.61140E-19 0.00000E+00
 -1        41 5.06484E-05 4.05221E-19 0.00000E+00
 -1        42 4.97304E-05 3.32408E-19 0.00000E+00
 -1        43 4.88122E-05 1.50656E-19 0.00000E+00
 -1        44 4.78939E-05 5.98920E-21 0.00000E+00
 -1        45 4.69758E-05-1.42137E-19-1.32349E-23
 -1        46 4.60578E-05-1.61165E-19 0.00000E+00
 -1        47 4.51404E-05-8.72465E-20 0.00000E+00
 -1        48 4.42232E-05 4.87912E-21 0.00000E+00
 -1        49 4.33096E-05 7.55030E-20 0.00000E+00
 -1        50 4.23947E-05 8.99212E-20-2.64698E-23
 -1        51 5.51973E-05-9.59529E-08 0.00000E+00
 -1        52 5.36885E-05-1.87625E-07 0.00000E+00
 -1        53 5.16970E-05-2.78677E-07 0.00000E+00
 -1        54 4.93444E-05-3.70386E-07 0.00000E+00
 -1        55 4.67527E-05-4.63947E-07-2.06795E-24
 -1        56 5.50058E-05-4.54058E-07 2.64698E-23
 -1        57 5.38855E-05-9.79807E-07 1.32349E-23
 -1        58 5.27767E-05-1.52976E-06 0.00000E+00
 -1        59 5.16583E-05-2.07495E-06-1.32349E-23
 -1        60 5.05250E-05-2.58083E-06 0.00000E+00
 -1        61 4.93640E-05-3.01669E-06 0.00000E+00
 -1        62 4.81660E-05-3.35439E-06 0.00000E+00
 -1        63 4.69215E-05-3.56866E-06 1.32349E-23
 -1        64 4.56232E-05-3.63969E-06-2.64698E-23
 -1        65 4.42652E-05-3.55121E-06 0.00000E+00
 -1        66 4.28442E-05-3.29426E-06-2.64698E-23
 -1        67 4.13592E-05-2.86369E-06-1.32349E-23
 -1        68 3.98104E-05-2.26287E-06 0.00000E+00
 -1        69 3.82070E-05-1.49675E-06 1.32349E-23
 -1        70 3.65456E-05-5.83209E-07 0.00000E+00
 -1        71 4.10710E-05 7.74572E-20 0.00000E+00
 -1        72 4.06438E-05 3.67781E-19-6.61744E-24
 -1        73 4.02165E-05 7.91240E-19 1.32349E-23
 -1        74 3.97895E-05 1.20001E-18 6.61744E-24
 -1        75 3.93624E-05 1.41792E-18 0.00000E+00
 -1        76 3.89353E-05 1.49786E-18 6.61744E-24
 -1        77 3.85083E-05 1.40158E-18 1.32349E-23
 -1        78 3.80813E-05 1.14141E-18 6.61744E-24
 -1        79 3.76543E-05 9.63996E-19-1.32349E-23
 -1        80 3.72273E-05 8.15694E-19 0.00000E+00
 -1        81 3.68004E-05 6.88368E-19 0.00000E+00
 -1        82 3.63737E-05 5.01571E-19 0.00000E+00
 -1        83 3.59471E-05 2.83245E-19 0.00000E+00
 -1        84 3.55218E-05 1.15494E-19-6.61744E-24
 -1        85 3.50961E-05 7.13199E-20 0.00000E+00
 -1        86 4.12385E-05 6.39631E-08 6.61744E-24
 -1        87 4.04657E-05 1.48763E-07 0.00000E+00
 -1        88 3.93167E-05 2.31767E-07 0.00000E+00
 -1        89 3.79261E-05 3.16172E-07 0.00000E+00
 -1        90 3.64075E-05 4.01370E-07-3.30872E-24
 -1        91 4.08742E-05 8.37182E-08 0.00000E+00
 -1        92 4.00400E-05 7.15676E-07 0.00000E+00
 -1        93 3.91137E-05 1.59330E-06-1.32349E-23
 -1        94 3.82107E-05 2.40694E-06-6.61744E-24
 -1        95 3.74362E-05 2.87889E-06-1.32349E-23
 -1        96 3.68914E-05 2.73883E-06 6.61744E-24
 -1        97 3.65668E-05 2.01099E-06 0.00000E+00
 -1        98 3.64480E-05 7.32871E-07 6.61744E-24
 -1        99 3.64210E-05-7.90796E-07 1.32349E-23
 -1       100 3.63699E-05-2.24963E-06 0.00000E+00
 -1       101 3.61904E-05-3.36489E-06 0.00000E+00
 -1       102 3.57812E-05-3.86551E-06 6.61744E-24
 -1       103 3.51515E-05-3.77800E-06-1.32349E-23
 -1       104 3.43178E-05-3.14129E-06 0.00000E+00
 -1       105 3.33917E-05-2.26115E-06 1.32349E-23
 -1       106 3.44403E-05 1.01974E-20 0.00000E+00
 -1       107 3.42043E-05 1.14670E-20 0.00000E+00
 -1       108 3.39683E-05-4.52333E-20-6.61744E-24
 -1       109 3.37324E-05-4.97515E-20-3.30872E-24
 -1       110 3.34964E-05 3.20243E-21 0.00000E+00
 -1       111 3.32606E-05-2.34779E-20 3.30872E-24
 -1       112 3.30247E-05-5.47256E-20 0.00000E+00
 -1       113 3.27889E-05-4.30620E-20-3.30872E-24
 -1       114 3.25530E-05 2.21646E-20-6.61744E-24
 -1       115 3.23172E-05 7.06934E-20-3.30872E-24
 -1       116 3.20814E-05 9.09925E-20 0.00000E+00
 -1       117 3.18458E-05 8.98540E-20 0.00000E+00
 -1       118 3.16102E-05 1.17135E-19-6.61744E-24
 -1       119 3.13754E-05 1.45051E-19-3.30872E-24
 -1       120 3.11403E-05 9.33974E-20 6.61744E-24
 -1       121 3.46554E-05-2.40912E-07 0.00000E+00
 -1       122 3.45483E-05-4.81144E-07-3.30872E-24
 -1       123 3.43175E-05-7.21428E-07 0.00000E+00
 -1       124 3.39246E-05-9.61755E-07-3.30872E-24
 -1       125 3.33317E-05-1.20215E-06 6.61744E-24
 -1       126 3.47591E-05-9.51582E-07-6.61744E-24
 -1       127 3.54810E-05-3.61635E-06 0.00000E+00
 -1       128 3.66748E-05-7.55089E-06 0.00000E+00
 -1       129 3.81695E-05-1.22978E-05 3.30872E-24
 -1       130 3.97223E-05-1.72019E-05 0.00000E+00
 -1       131 4.10903E-05-2.16063E-05 0.00000E+00
 -1       132 4.20746E-05-2.49762E-05-6.61744E-24
 -1       133 4.24789E-05-2.67883E-05 3.30872E-24
 -1       134 4.22459E-05-2.68965E-05 0.00000E+00
 -1       135 4.13242E-05-2.51729E-05-3.30872E-24
 -1       136 3.98296E-05-2.19329E-05 0.00000E+00
 -1       137 3.78854E-05-1.75069E-05 0.00000E+00
 -1       138 3.57250E-05-1.25123E-05 0.00000E+00
 -1       139 3.35861E-05-7.57181E-06-3.30872E-24
 -1       140 3.16993E-05-3.29579E-06 0.00000E+00
 -1       141 3.08013E-05 6.34778E-20-3.30872E-24
 -1       142 3.06943E-05 8.28691E-20 0.00000E+00
 -1       143 3.05871E-05 1.79156E-20 3.30872E-24
 -1       144 3.04801E-05-2.98263E-20 0.00000E+00
 -1       145 3.03732E-05-5.42949E-20 0.00000E+00
 -1       146 3.02663E-05-8.20003E-20 0.00000E+00
 -1       147 3.01594E-05-1.25236E-19 0.00000E+00
 -1       148 3.00525E-05-1.62958E-19-1.65436E-24
 -1       149 2.99457E-05-1.27715E-19 0.00000E+00
 -1       150 2.98389E-05-9.42727E-20 0.00000E+00
 -1       151 2.97322E-05-8.09043E-20 0.00000E+00
 -1       152 2.96258E-05-9.12865E-20 0.00000E+00
 -1       153 2.95194E-05-7.37865E-20 0.00000E+00
 -1       154 2.94148E-05-4.61517E-20 0.00000E+00
 -1       155 2.93096E-05-2.20444E-22 0.00000E+00
 -1       156 3.11371E-05-4.93390E-08 0.00000E+00
 -1       157 3.17979E-05-9.55177E-08 0.00000E+00
 -1       158 3.24644E-05-1.41953E-07 0.00000E+00
 -1       159 3.27091E-05-1.88267E-07 8.27181E-25
 -1       160 3.21227E-05-2.34509E-07 0.00000E+00
 -1       161 3.07789E-05-7.22920E-08 3.30872E-24
 -1       162 3.06632E-05-1.85009E-07-1.65436E-24
 -1       163 3.05568E-05-3.22783E-07 0.00000E+00
 -1       164 3.04541E-05-4.70214E-07-1.65436E-24
 -1       165 3.03486E-05-6.10243E-07 0.00000E+00
 -1       166 3.02339E-05-7.25887E-07 1.65436E-24
 -1       167 3.01052E-05-8.04061E-07 0.00000E+00
 -1       168 2.99577E-05-8.31903E-07-1.65436E-24
 -1       169 2.97891E-05-8.03692E-07 0.00000E+00
 -1       170 2.95975E-05-7.14015E-07 0.00000E+00
 -1       171 2.93843E-05-5.66394E-07 3.30872E-24
 -1       172 2.91511E-05-3.64562E-07 0.00000E+00
 -1       173 2.89020E-05-1.20277E-07-3.30872E-24
 -1       174 2.86433E-05 1.55290E-07 0.00000E+00
 -1       175 2.83785E-05 4.44792E-07 0.00000E+00
 -1       191 2.91756E-05 1.22551E-07 0.00000E+00
 -1       192 2.90785E-05 2.45301E-07 0.00000E+00
 -1       193 2.89231E-05 3.68092E-07 0.00000E+00
 -1       194 2.87112E-05 4.90863E-07-3.30872E-24
 -1       195 2.84445E-05 6.13550E-07-6.61744E-24
 -1       251 4.34863E-05 2.03422E-06 1.32349E-23
 -1       252 4.29116E-05 5.47171E-06 0.00000E+00
 -1       253 4.23385E-05 8.62876E-06 1.32349E-23
 -1       254 4.17661E-05 1.03918E-05 0.00000E+00
 -1       255 4.11950E-05 1.02949E-05 1.32349E-23
 -1       256 4.06206E-05 7.91781E-06 0.00000E+00
 -1       257 4.00413E-05 3.89831E-06-1.32349E-23
 -1       258 3.94578E-05-1.08542E-06 6.61744E-24
 -1       259 3.88750E-05-5.90772E-06 1.32349E-23
 -1       260 3.82974E-05-9.44675E-06 6.61744E-24
 -1       261 3.77243E-05-1.11764E-05-1.32349E-23
 -1       262 3.71530E-05-1.06149E-05 0.00000E+00
 -1       263 3.65797E-05-8.34388E-06 1.32349E-23
 -1       264 3.60060E-05-4.98668E-06 0.00000E+00
 -1       265 3.54316E-05-1.67150E-06-1.32349E-23
 -1       266 4.12540E-05-6.65793E-07 0.00000E+00
 -1       267 3.72083E-05-7.66422E-07 1.65436E-24
 -1       268 3.24085E-05-8.70508E-07 0.00000E+00
 -1       269 2.73583E-05-9.74130E-07 1.65436E-24
 -1       270 2.25830E-05-1.07663E-06 0.00000E+00
 -1       271 4.23735E-05 9.61564E-07 0.00000E+00
 -1       272 4.08499E-05 1.99543E-06-1.32349E-23
 -1       273 3.94879E-05 2.60260E-06 0.00000E+00
 -1       274 3.82602E-05 2.83773E-06 0.00000E+00
 -1       275 3.71484E-05 2.76256E-06 0.00000E+00
 -1       276 3.61284E-05 2.44034E-06 0.00000E+00
 -1       277 3.51761E-05 1.93698E-06-2.64698E-23
 -1       278 3.42663E-05 1.32001E-06 1.32349E-23
 -1       279 3.33733E-05 6.58086E-07 2.64698E-23
 -1       280 3.24713E-05 2.03287E-08 1.32349E-23
 -1       281 3.15347E-05-5.24445E-07 0.00000E+00
 -1       282 3.05386E-05-9.08195E-07 1.32349E-23
 -1       283 2.94578E-05-1.06465E-06-2.64698E-23
 -1       284 2.82722E-05-9.28306E-07-1.32349E-23
 -1       285 2.69533E-05-4.39772E-07 2.64698E-23
 -1       286 3.47222E-05 1.84016E-06 0.00000E+00
 -1       287 3.45739E-05 2.85821E-06-3.30872E-24
 -1       288 3.44258E-05 3.49979E-06-6.61744E-24
 -1       289 3.42784E-05 3.73818E-06 0.00000E+00
 -1       290 3.41310E-05 3.60099E-06-3.30872E-24
 -1       291 3.39837E-05 3.11821E-06 0.00000E+00
 -1       292 3.38362E-05 2.36635E-06 3.30872E-24
 -1       293 3.36886E-05 1.42362E-06 0.00000E+00
 -1       294 3.35409E-05 3.93936E-07 0.00000E+00
 -1       295 3.33932E-05-6.18223E-07-1.65436E-24
 -1       296 3.32456E-05-1.51077E-06 3.30872E-24
 -1       297 3.30980E-05-2.18236E-06 1.65436E-24
 -1       298 3.29505E-05-2.56137E-06 0.00000E+00
 -1       299 3.28022E-05-2.57809E-06 0.00000E+00
 -1       300 3.26542E-05-2.21159E-06 0.00000E+00
 -1       301 3.33107E-05 4.67506E-07 0.00000E+00
 -1       302 3.17397E-05 4.70286E-07 0.00000E+00
 -1       303 3.01676E-05 4.74791E-07 0.00000E+00
 -1       304 2.86009E-05 4.78995E-07 0.00000E+00
 -1       305 2.70464E-05 4.80817E-07 0.00000E+00
 -1       306 3.37346E-05 1.48704E-06-1.32349E-23
 -1       307 3.27594E-05 2.00327E-06-6.61744E-24
 -1       308 3.19443E-05 2.09492E-06 0.00000E+00
 -1       309 3.12604E-05 1.82814E-06 0.00000E+00
 -1       310 3.06840E-05 1.27353E-06 0.00000E+00
 -1       311 3.01881E-05 5.02722E-07-1.32349E-23
 -1       312 2.97455E-05-4.11024E-07 2.64698E-23
 -1       313 2.93286E-05-1.39361E-06-1.32349E-23
 -1       314 2.89096E-05-2.37041E-06 0.00000E+00
 -1       315 2.84606E-05-3.26686E-06 1.32349E-23
 -1       316 2.79539E-05-4.00897E-06 0.00000E+00
 -1       317 2.73628E-05-4.52368E-06 0.00000E+00
 -1       318 2.66600E-05-4.73965E-06 0.00000E+00
 -1       319 2.58226E-05-4.58644E-06 0.00000E+00
 -1       320 2.48212E-05-3.99854E-06 0.00000E+00
 -1       321 3.23589E-05-7.28770E-07-6.61744E-24
 -1       322 3.22213E-05-5.21485E-07 0.00000E+00
 -1       323 3.20833E-05-7.65272E-07 3.30872E-24
 -1       324 3.19462E-05-1.40127E-06-1.65436E-24
 -1       325 3.18088E-05-2.32136E-06-3.30872E-24
 -1       326 3.16715E-05-3.41574E-06-1.65436E-24
 -1       327 3.15341E-05-4.55278E-06 3.30872E-24
 -1       328 3.13969E-05-5.60053E-06 0.00000E+00
 -1       329 3.12599E-05-6.43830E-06 0.00000E+00
 -1       330 3.11231E-05-6.94660E-06 1.65436E-24
 -1       331 3.09864E-05-7.04729E-06 0.00000E+00
 -1       332 3.08496E-05-6.66462E-06-1.65436E-24
 -1       333 3.07125E-05-5.78343E-06 3.30872E-24
 -1       334 3.05749E-05-4.39155E-06 0.00000E+00
 -1       335 3.04365E-05-2.54086E-06-3.30872E-24
 -1       336 3.13932E-05-1.68792E-06 0.00000E+00
 -1       337 3.00645E-05-1.93207E-06 0.00000E+00
 -1       338 2.85705E-05-2.17635E-06-6.61744E-24
 -1       339 2.69669E-05-2.42007E-06 0.00000E+00
 -1       340 2.53099E-05-2.66392E-06 0.00000E+00
 -1       341 3.17202E-05-7.04140E-07 0.00000E+00
 -1       342 3.09821E-05-1.03914E-07 0.00000E+00
 -1       343 3.03456E-05 2.27571E-07-1.32349E-23
 -1       344 2.98565E-05 1.61836E-07 0.00000E+00
 -1       345 2.95007E-05-2.59295E-07 0.00000E+00
 -1       346 2.92596E-05-9.87689E-07 6.61744E-24
 -1       347 2.90666E-05-1.84445E-06 0.00000E+00
 -1       348 2.88537E-05-2.64821E-06 0.00000E+00
 -1       349 2.85612E-05-3.23952E-06-1.32349E-23
 -1       350 2.81311E-05-3.46312E-06 6.61744E-24
 -1       351 2.75640E-05-3.32142E-06 0.00000E+00
 -1       352 2.68640E-05-2.82373E-06 0.00000E+00
 -1       353 2.60906E-05-2.13075E-06 0.00000E+00
 -1       354 2.53091E-05-1.40542E-06 6.61744E-24
 -1       355 2.45813E-05-8.27207E-07 6.61744E-24
 -1       356 3.01582E-05 2.02256E-06 3.30872E-24
 -1       357 3.00199E-05 4.03291E-06 1.65436E-24
 -1       358 2.98823E-05 5.66748E-06 0.00000E+00
 -1       359 2.97454E-05 6.85074E-06-1.65436E-24
 -1       360 2.96089E-05 7.56360E-06 0.00000E+00
 -1       361 2.94726E-05 7.78978E-06 1.65436E-24
 -1       362 2.93363E-05 7.57382E-06 0.00000E+00
 -1       363 2.91999E-05 6.96289E-06-1.65436E-24
 -1       364 2.90633E-05 6.05349E-06 3.30872E-24
 -1       365 2.89266E-05 4.94395E-06 0.00000E+00
 -1       366 2.87899E-05 3.75758E-06-3.30872E-24
 -1       367 2.86536E-05 2.61816E-06 1.65436E-24
 -1       368 2.85175E-05 1.64359E-06 3.30872E-24
 -1       369 2.83836E-05 9.50854E-07 0.00000E+00
 -1       370 2.82492E-05 6.21755E-07-4.13590E-25
 -1       371 2.81389E-05-3.37869E-07 3.30872E-24
 -1       372 2.65693E-05-3.84785E-07 8.27181E-25
 -1       373 2.54827E-05-4.31300E-07 0.00000E+00
 -1       374 2.47730E-05-4.76223E-07-4.13590E-25
 -1       375 2.43177E-05-5.21141E-07 0.00000E+00
 -1       376 2.89633E-05 2.54390E-06 0.00000E+00
 -1       377 2.72807E-05 6.28248E-06 3.30872E-24
 -1       378 2.54417E-05 1.04341E-05 0.00000E+00
 -1       379 2.36357E-05 1.44966E-05 0.00000E+00
 -1       380 2.20454E-05 1.79901E-05-6.61744E-24
 -1       381 2.08497E-05 2.04405E-05 0.00000E+00
 -1       382 2.01311E-05 2.16254E-05 6.61744E-24
 -1       383 1.99663E-05 2.13357E-05-3.30872E-24
 -1       384 2.02977E-05 1.97194E-05 0.00000E+00
 -1       385 2.10634E-05 1.69384E-05 3.30872E-24
 -1       386 2.20972E-05 1.34363E-05-6.61744E-24
 -1       387 2.32315E-05 9.66462E-06 0.00000E+00
 -1       388 2.42739E-05 6.14057E-06 0.00000E+00
 -1       389 2.50353E-05 3.37969E-06-3.30872E-24
 -1       390 2.53886E-05 1.71092E-06-3.30872E-24
 -1       406 2.77360E-05 8.56890E-07 0.00000E+00
 -1       407 2.73019E-05 9.77975E-07 0.00000E+00
 -1       408 2.68280E-05 1.09900E-06 6.61744E-24
 -1       409 2.63203E-05 1.21972E-06 0.00000E+00
 -1       410 2.57845E-05 1.33979E-06 0.00000E+00
 -1       466 1.90183E-05 1.69441E-06 0.00000E+00
 -1       467 1.94510E-05 3.20158E-06 0.00000E+00
 -1       468 1.98835E-05 3.78068E-06 0.00000E+00
 -1       469 2.03196E-05 3.84548E-06-6.61744E-24
 -1       470 2.07557E-05 3.56136E-06-1.32349E-23
 -1       471 2.11925E-05 3.08704E-06-6.61744E-24
 -1       472 2.16293E-05 2.48915E-06 0.00000E+00
 -1       473 2.20662E-05 1.83194E-06 0.00000E+00
 -1       474 2.25030E-05 1.15092E-06 0.00000E+00
 -1       475 2.29397E-05 4.81157E-07 6.61744E-24
 -1       476 2.33762E-05-1.36823E-07-1.32349E-23
 -1       477 2.38117E-05-6.61537E-07 6.61744E-24
 -1       478 2.42471E-05-1.00631E-06 0.00000E+00
 -1       479 2.46770E-05-1.08106E-06 0.00000E+00
 -1       480 2.51086E-05-6.65542E-07-1.65436E-24
 -1       481 1.53800E-05-1.10912E-06 0.00000E+00
 -1       482 1.28203E-05-1.04047E-06 0.00000E+00
 -1       483 1.08024E-05-9.70840E-07-1.65436E-24
 -1       484 9.20288E-06-9.00012E-07 0.00000E+00
 -1       485 7.92790E-06-8.28637E-07 0.00000E+00
 -1       486 1.67044E-05 2.51995E-06 0.00000E+00
 -1       487 1.45780E-05 6.74731E-06 0.00000E+00
 -1       488 1.27052E-05 1.03092E-05 0.00000E+00
 -1       489 1.15329E-05 1.20084E-05 6.61744E-24
 -1       490 1.12020E-05 1.14683E-05-1.32349E-23
 -1       491 1.18304E-05 8.35585E-06-6.61744E-24
 -1       492 1.31168E-05 3.46961E-06-1.32349E-23
 -1       493 1.47495E-05-2.35463E-06-6.61744E-24
 -1       494 1.62673E-05-7.86781E-06-1.32349E-23
 -1       495 1.72103E-05-1.18274E-05-6.61744E-24
 -1       496 1.73678E-05-1.36755E-05-1.32349E-23
 -1       497 1.65422E-05-1.28982E-05 6.61744E-24
 -1       498 1.49682E-05-1.01353E-05 0.00000E+00
 -1       499 1.29018E-05-6.06469E-06-6.61744E-24
 -1       500 1.08141E-05-1.94105E-06 0.00000E+00
 -1       501 2.53868E-05 1.71853E-06 0.00000E+00
 -1       502 2.52706E-05 2.45393E-06 3.30872E-24
 -1       503 2.51541E-05 2.69599E-06-3.30872E-24
 -1       504 2.50391E-05 2.46690E-06 0.00000E+00
 -1       505 2.49238E-05 1.83885E-06-3.30872E-24
 -1       506 2.48086E-05 8.85982E-07 0.00000E+00
 -1       507 2.46933E-05-2.83117E-07-3.30872E-24
 -1       508 2.45778E-05-1.55884E-06 0.00000E+00
 -1       509 2.44624E-05-2.82026E-06 0.00000E+00
 -1       510 2.43471E-05-3.94650E-06-1.65436E-24
 -1       511 2.42321E-05-4.83105E-06 0.00000E+00
 -1       512 2.41173E-05-5.36855E-06 0.00000E+00
 -1       513 2.40025E-05-5.49041E-06-3.30872E-24
 -1       514 2.38875E-05-5.13009E-06-1.65436E-24
 -1       515 2.37723E-05-4.27215E-06 0.00000E+00
 -1       516 2.36434E-05 5.46440E-07 0.00000E+00
 -1       517 2.10685E-05 6.36539E-07 0.00000E+00
 -1       518 1.80650E-05 7.24483E-07-8.27181E-25
 -1       519 1.49099E-05 8.13552E-07-4.13590E-25
 -1       520 1.18662E-05 9.03523E-07-5.16988E-26
 -1       521 2.41260E-05 1.36206E-06 2.64698E-23
 -1       522 2.28921E-05 1.76819E-06-1.32349E-23
 -1       523 2.18143E-05 1.76116E-06 0.00000E+00
 -1       524 2.08625E-05 1.40551E-06 0.00000E+00
 -1       525 2.00143E-05 7.71994E-07 2.64698E-23
 -1       526 1.92425E-05-6.73814E-08 0.00000E+00
 -1       527 1.85197E-05-1.03845E-06-2.64698E-23
 -1       528 1.78180E-05-2.06600E-06 0.00000E+00
 -1       529 1.71091E-05-3.07423E-06-2.64698E-23
 -1       530 1.63648E-05-3.98754E-06 1.32349E-23
 -1       531 1.55571E-05-4.73125E-06 0.00000E+00
 -1       532 1.46591E-05-5.23211E-06 0.00000E+00
 -1       533 1.36440E-05-5.41933E-06 0.00000E+00
 -1       534 1.24898E-05-5.22382E-06-1.32349E-23
 -1       535 1.11673E-05-4.58284E-06 0.00000E+00
 -1       536 2.36679E-05-1.47192E-06 0.00000E+00
 -1       537 2.36880E-05-3.84417E-07 4.13590E-25
 -1       538 2.37082E-05 3.95874E-07 0.00000E+00
 -1       539 2.37296E-05 9.06148E-07-1.03398E-25
 -1       540 2.37513E-05 1.18347E-06 0.00000E+00
 -1       541 2.37733E-05 1.26489E-06-2.06795E-25
 -1       542 2.37953E-05 1.18742E-06 0.00000E+00
 -1       543 2.38173E-05 9.88030E-07-2.06795E-25
 -1       544 2.38393E-05 7.03683E-07-8.27181E-25
 -1       545 2.38613E-05 3.71312E-07 0.00000E+00
 -1       546 2.38833E-05 2.78518E-08 0.00000E+00
 -1       547 2.39054E-05-2.89767E-07 4.13590E-25
 -1       548 2.39274E-05-5.44617E-07 8.27181E-25
 -1       549 2.39495E-05-6.99756E-07-4.13590E-25
 -1       550 2.39716E-05-7.18198E-07 8.27181E-25
 -1       551 2.15676E-05-2.98963E-06 1.91286E-24
 -1       552 1.92445E-05-3.07352E-06-1.24077E-24
 -1       553 1.67893E-05-3.15747E-06-3.30872E-24
 -1       554 1.43071E-05-3.24238E-06 3.30872E-24
 -1       555 1.19033E-05-3.32932E-06 6.61744E-24
 -1       556 2.30428E-05-1.56400E-06-6.61744E-24
 -1       557 2.25483E-05-5.30938E-07-3.30872E-24
 -1       558 2.21586E-05 2.24955E-07-6.61744E-24
 -1       559 2.18612E-05 7.35922E-07 0.00000E+00
 -1       560 2.16438E-05 1.03426E-06 0.00000E+00
 -1       561 2.14940E-05 1.15256E-06 0.00000E+00
 -1       562 2.13995E-05 1.12343E-06 0.00000E+00
 -1       563 2.13481E-05 9.79518E-07 0.00000E+00
 -1       564 2.13275E-05 7.53500E-07-3.30872E-24
 -1       565 2.13255E-05 4.78052E-07 0.00000E+00
 -1       566 2.13297E-05 1.85863E-07 3.30872E-24
 -1       567 2.13281E-05-9.03741E-08 0.00000E+00
 -1       568 2.13083E-05-3.17975E-07-2.48154E-24
 -1       569 2.12583E-05-4.64289E-07 1.49926E-24
 -1       570 2.11663E-05-4.96698E-07-1.24077E-24
 -1       571 2.40676E-05-3.82299E-07 2.06795E-25
 -1       572 2.41439E-05-2.57628E-07 0.00000E+00
 -1       573 2.42209E-05-1.79087E-07 0.00000E+00
 -1       574 2.42982E-05-1.36172E-07 0.00000E+00
 -1       575 2.43756E-05-1.18339E-07-1.65436E-24
 -1       576 2.44530E-05-1.14975E-07 0.00000E+00
 -1       577 2.45305E-05-1.15463E-07 0.00000E+00
 -1       578 2.46080E-05-1.09176E-07 1.65436E-24
 -1       579 2.46855E-05-8.54895E-08 0.00000E+00
 -1       580 2.47630E-05-3.37755E-08 0.00000E+00
 -1       581 2.48405E-05 5.65913E-08-3.30872E-24
 -1       582 2.49180E-05 1.96228E-07 0.00000E+00
 -1       583 2.49954E-05 3.95741E-07 6.61744E-24
 -1       584 2.50728E-05 6.65636E-07 0.00000E+00
 -1       585 2.51500E-05 1.01636E-06 0.00000E+00
 -1       586 2.35651E-05-5.32486E-07 0.00000E+00
 -1       587 2.30743E-05-5.01606E-07 0.00000E+00
 -1       588 2.25478E-05-4.70755E-07 8.27181E-25
 -1       589 2.20124E-05-4.40206E-07 5.16988E-26
 -1       590 2.14952E-05-4.10345E-07 0.00000E+00
 -1       591 2.38672E-05-3.53220E-07 0.00000E+00
 -1       592 2.37512E-05-1.80410E-07 0.00000E+00
 -1       593 2.36458E-05-3.77803E-08 0.00000E+00
 -1       594 2.35490E-05 8.09929E-08 0.00000E+00
 -1       595 2.34587E-05 1.82230E-07 0.00000E+00
 -1       596 2.33725E-05 2.72214E-07 0.00000E+00
 -1       597 2.32882E-05 3.57217E-07 1.65436E-24
 -1       598 2.32034E-05 4.43510E-07 0.00000E+00
 -1       599 2.31157E-05 5.37362E-07 0.00000E+00
 -1       600 2.30229E-05 6.45041E-07 8.27181E-25
 -1       601 2.29226E-05 7.72815E-07 0.00000E+00
 -1       602 2.28124E-05 9.26961E-07 6.20385E-25
 -1       603 2.26901E-05 1.11375E-06-2.06795E-25
 -1       604 2.25536E-05 1.33951E-06 5.16988E-26
 -1       605 2.24008E-05 1.61054E-06-4.13590E-25
 -1       606 2.52539E-05 2.04384E-06 0.00000E+00
 -1       607 2.52792E-05 2.68614E-06 0.00000E+00
 -1       608 2.53039E-05 3.38119E-06-3.30872E-24
 -1       609 2.53283E-05 4.12525E-06 0.00000E+00
 -1       610 2.53526E-05 4.91456E-06 3.30872E-24
 -1       611 2.53768E-05 5.74524E-06 0.00000E+00
 -1       612 2.54010E-05 6.61346E-06-1.65436E-24
 -1       613 2.54252E-05 7.51537E-06 8.27181E-25
 -1       614 2.54493E-05 8.44710E-06 0.00000E+00
 -1       615 2.54734E-05 9.40479E-06 0.00000E+00
 -1       616 2.54974E-05 1.03846E-05 0.00000E+00
 -1       617 2.55215E-05 1.13827E-05 1.65436E-24
 -1       618 2.55455E-05 1.23951E-05 0.00000E+00
 -1       619 2.55695E-05 1.34182E-05-4.13590E-25
 -1       620 2.55934E-05 1.44479E-05 8.27181E-25
 -1       621 2.46728E-05 1.53713E-06 0.00000E+00
 -1       622 2.41322E-05 1.61717E-06-8.27181E-25
 -1       623 2.36115E-05 1.69724E-06 1.65436E-24
 -1       624 2.31169E-05 1.77711E-06-8.27181E-25
 -1       625 2.26552E-05 1.85652E-06 1.65436E-24
 -1       626 2.50521E-05 2.07171E-06 3.30872E-24
 -1       627 2.48545E-05 2.74429E-06 0.00000E+00
 -1       628 2.46367E-05 3.46998E-06 0.00000E+00
 -1       629 2.44011E-05 4.24270E-06 0.00000E+00
 -1       630 2.41500E-05 5.05636E-06-3.30872E-24
 -1       631 2.38859E-05 5.90474E-06 0.00000E+00
 -1       632 2.36111E-05 6.78165E-06 0.00000E+00
 -1       633 2.33278E-05 7.68088E-06 2.48154E-24
 -1       634 2.30385E-05 8.59622E-06 0.00000E+00
 -1       635 2.27455E-05 9.52145E-06 0.00000E+00
 -1       636 2.24510E-05 1.04504E-05 0.00000E+00
 -1       637 2.21575E-05 1.13768E-05 4.13590E-25
 -1       638 2.18672E-05 1.22944E-05 0.00000E+00
 -1       639 2.15823E-05 1.31971E-05 6.20385E-25
 -1       640 2.13048E-05 1.40786E-05-2.06795E-25
 -1       641 2.56179E-05 1.65518E-05-4.13590E-25
 -1       642 2.56177E-05 1.77356E-05 0.00000E+00
 -1       643 2.56175E-05 1.90158E-05 0.00000E+00
 -1       644 2.56171E-05 2.03760E-05 2.58494E-26
 -1       645 2.56166E-05 2.18000E-05 0.00000E+00
 -1       646 2.56159E-05 2.32717E-05 0.00000E+00
 -1       647 2.56152E-05 2.47749E-05 1.29247E-26
 -1       648 2.56145E-05 2.62933E-05 0.00000E+00
 -1       649 2.56138E-05 2.78109E-05 6.46235E-27
 -1       650 2.56131E-05 2.93115E-05-1.29247E-26
 -1       651 2.56124E-05 3.07788E-05 5.16988E-26
 -1       652 2.56116E-05 3.21967E-05 5.16988E-26
 -1       653 2.56109E-05 3.35490E-05 0.00000E+00
 -1       654 2.56098E-05 3.48195E-05-2.06795E-25
 -1       655 2.56089E-05 3.59920E-05 0.00000E+00
 -1       656 2.46886E-05 1.53921E-05 1.65436E-24
 -1       657 2.38851E-05 1.52993E-05 0.00000E+00
 -1       658 2.31624E-05 1.52067E-05 0.00000E+00
 -1       659 2.24762E-05 1.51140E-05 8.27181E-25
 -1       660 2.17821E-05 1.50212E-05 0.00000E+00
 -1       661 2.53184E-05 1.65831E-05-1.65436E-24
 -1       662 2.49905E-05 1.77746E-05 0.00000E+00
 -1       663 2.46344E-05 1.90407E-05-3.30872E-24
 -1       664 2.42555E-05 2.03690E-05 0.00000E+00
 -1       665 2.38581E-05 2.17464E-05 3.30872E-24
 -1       666 2.34471E-05 2.31604E-05 0.00000E+00
 -1       667 2.30272E-05 2.45983E-05 0.00000E+00
 -1       668 2.26029E-05 2.60474E-05 0.00000E+00
 -1       669 2.21792E-05 2.74953E-05 0.00000E+00
 -1       670 2.17607E-05 2.89293E-05 0.00000E+00
 -1       671 2.13521E-05 3.03368E-05-3.30872E-24
 -1       672 2.09581E-05 3.17052E-05-1.65436E-24
 -1       673 2.05835E-05 3.30217E-05 0.00000E+00
 -1       674 2.02323E-05 3.42734E-05-8.27181E-25
 -1       675 1.99103E-05 3.54479E-05-1.65436E-24
 -1       676 2.46046E-05 3.69633E-05-3.30872E-24
 -1       677 2.36047E-05 3.68759E-05 1.65436E-24
 -1       678 2.26057E-05 3.67887E-05-3.30872E-24
 -1       679 2.16078E-05 3.67017E-05 0.00000E+00
 -1       680 2.06113E-05 3.66147E-05-1.65436E-24
 -1       681 7.02586E-06-4.53539E-08 0.00000E+00
 -1       682 7.17136E-06 2.39878E-07 1.65436E-24
 -1       683 7.31664E-06 1.98517E-07-3.30872E-24
 -1       684 7.46266E-06-7.08106E-08 0.00000E+00
 -1       685 7.60864E-06-5.02863E-07 0.00000E+00
 -1       686 7.75472E-06-1.03344E-06 0.00000E+00
 -1       687 7.90080E-06-1.61278E-06 0.00000E+00
 -1       688 8.04689E-06-2.19142E-06-1.65436E-24
 -1       689 8.19300E-06-2.71983E-06 0.00000E+00
 -1       690 8.33909E-06-3.14812E-06-1.65436E-24
 -1       691 8.48519E-06-3.41175E-06 0.00000E+00
 -1       692 8.63097E-06-3.44512E-06-1.65436E-24
 -1       693 8.77664E-06-3.14888E-06-3.30872E-24
 -1       694 8.92034E-06-2.42158E-06 0.00000E+00
 -1       695 9.06403E-06-1.09873E-06 0.00000E+00
 -1       696 5.86513E-06-6.34812E-07 3.30872E-24
 -1       697 4.67128E-06-5.08582E-07 0.00000E+00
 -1       698 3.39538E-06-3.82640E-07 3.30872E-24
 -1       699 2.12932E-06-2.55761E-07 0.00000E+00
 -1       700 9.66296E-07-1.28838E-07-3.30872E-24
 -1       701 6.37433E-06 1.56471E-07 0.00000E+00
 -1       702 5.82689E-06 1.14457E-06-1.65436E-24
 -1       703 5.27811E-06 2.13796E-06 0.00000E+00
 -1       704 4.75294E-06 3.06402E-06 0.00000E+00
 -1       705 4.27580E-06 3.86230E-06 3.30872E-24
 -1       706 3.86900E-06 4.47258E-06-1.65436E-24
 -1       707 3.54389E-06 4.86531E-06 0.00000E+00
 -1       708 3.31098E-06 5.01230E-06 0.00000E+00
 -1       709 3.16590E-06 4.92510E-06 0.00000E+00
 -1       710 3.10372E-06 4.61688E-06 0.00000E+00
 -1       711 3.10603E-06 4.13659E-06 3.30872E-24
 -1       712 3.15428E-06 3.53443E-06 0.00000E+00
 -1       713 3.22202E-06 2.88027E-06 0.00000E+00
 -1       714 3.28435E-06 2.24496E-06 0.00000E+00
 -1       715 3.31409E-06 1.69506E-06 0.00000E+00
 -1       716 9.22252E-06 3.01895E-06-8.27181E-25
 -1       717 9.25394E-06 4.17179E-06 5.16988E-26
 -1       718 9.28564E-06 4.58714E-06 4.13590E-25
 -1       719 9.31831E-06 4.40459E-06 4.13590E-25
 -1       720 9.35081E-06 3.74480E-06 8.27181E-25
 -1       721 9.38320E-06 2.72772E-06 4.13590E-25
 -1       722 9.41534E-06 1.46199E-06 0.00000E+00
 -1       723 9.44731E-06 5.58052E-08 4.13590E-25
 -1       724 9.47922E-06-1.38705E-06-8.27181E-25
 -1       725 9.51111E-06-2.76286E-06 4.13590E-25
 -1       726 9.54314E-06-3.96579E-06 8.27181E-25
 -1       727 9.57492E-06-4.88976E-06-2.06795E-25
 -1       728 9.60688E-06-5.41978E-06 4.13590E-25
 -1       729 9.63628E-06-5.44036E-06 0.00000E+00
 -1       730 9.66638E-06-4.82004E-06 0.00000E+00
 -1       731 7.00232E-06 1.03360E-06-4.13590E-25
 -1       732 5.36245E-06 1.08587E-06-4.13590E-25
 -1       733 4.21933E-06 1.13845E-06 8.27181E-25
 -1       734 3.51598E-06 1.19237E-06 0.00000E+00
 -1       735 3.21871E-06 1.24658E-06 0.00000E+00
 -1       736 8.03650E-06 3.05566E-06 6.61744E-24
 -1       737 7.08342E-06 4.54036E-06 0.00000E+00
 -1       738 6.45994E-06 5.15120E-06 0.00000E+00
 -1       739 6.26833E-06 4.60495E-06 6.61744E-24
 -1       740 6.46813E-06 3.01216E-06-1.32349E-23
 -1       741 7.01089E-06 4.98443E-07 0.00000E+00
 -1       742 7.73320E-06-2.49762E-06 0.00000E+00
 -1       743 8.46898E-06-5.53019E-06 6.61744E-24
 -1       744 9.04776E-06-8.14082E-06 1.32349E-23
 -1       745 9.30083E-06-9.87756E-06-6.61744E-24
 -1       746 9.16934E-06-1.05855E-05-1.32349E-23
 -1       747 8.60015E-06-1.01253E-05 6.61744E-24
 -1       748 7.68832E-06-8.75402E-06 0.00000E+00
 -1       749 6.53676E-06-6.74150E-06-3.30872E-24
 -1       750 5.32682E-06-4.57630E-06 6.61744E-24
 -1       751 1.03477E-05-1.98340E-06 0.00000E+00
 -1       752 1.10564E-05-1.20093E-06 0.00000E+00
 -1       753 1.17628E-05-8.34575E-07-1.32349E-23
 -1       754 1.24771E-05-6.53198E-07 0.00000E+00
 -1       755 1.31917E-05-5.88240E-07 0.00000E+00
 -1       756 1.39079E-05-5.74774E-07 0.00000E+00
 -1       757 1.46243E-05-5.93377E-07 0.00000E+00
 -1       758 1.53409E-05-6.25623E-07 0.00000E+00
 -1       759 1.60576E-05-6.65154E-07 0.00000E+00
 -1       760 1.67741E-05-7.05841E-07-1.32349E-23
 -1       761 1.74905E-05-7.42575E-07 2.64698E-23
 -1       762 1.82058E-05-7.70124E-07-1.32349E-23
 -1       763 1.89208E-05-7.75139E-07 2.64698E-23
 -1       764 1.96302E-05-7.43565E-07 0.00000E+00
 -1       765 2.03415E-05-6.29140E-07 1.32349E-23
 -1       766 8.23256E-06-3.32658E-06-3.30872E-24
 -1       767 7.43571E-06-3.20868E-06 0.00000E+00
 -1       768 6.96435E-06-3.09175E-06 0.00000E+00
 -1       769 6.49374E-06-2.97321E-06 0.00000E+00
 -1       770 5.69906E-06-2.85416E-06 1.03398E-25
 -1       771 8.63427E-06-2.01540E-06 0.00000E+00
 -1       772 7.68204E-06-8.75532E-07-6.61744E-24
 -1       773 6.82166E-06 1.66569E-08 0.00000E+00
 -1       774 6.04474E-06 6.84942E-07 0.00000E+00
 -1       775 5.34279E-06 1.15316E-06 0.00000E+00
 -1       776 4.70687E-06 1.44531E-06 0.00000E+00
 -1       777 4.12799E-06 1.58543E-06 0.00000E+00
 -1       778 3.59711E-06 1.59764E-06 6.61744E-24
 -1       779 3.10517E-06 1.50610E-06 0.00000E+00
 -1       780 2.64307E-06 1.33502E-06 6.61744E-24
 -1       781 2.20176E-06 1.10866E-06 0.00000E+00
 -1       782 1.77220E-06 8.51301E-07-6.61744E-24
 -1       783 1.34537E-06 5.87252E-07 1.32349E-23
 -1       784 9.12658E-07 3.40909E-07 6.61744E-24
 -1       785 4.65494E-07 1.36672E-07 0.00000E+00
 -1       786 2.10937E-05-1.04762E-07-8.27181E-25
 -1       787 2.11691E-05 1.11539E-07 0.00000E+00
 -1       788 2.12445E-05 2.75414E-07 0.00000E+00
 -1       789 2.13205E-05 3.96358E-07-8.27181E-25
 -1       790 2.13966E-05 4.83831E-07 1.65436E-24
 -1       791 2.14728E-05 5.47274E-07 0.00000E+00
 -1       792 2.15491E-05 5.96114E-07 1.65436E-24
 -1       793 2.16254E-05 6.39763E-07-8.27181E-25
 -1       794 2.17017E-05 6.87637E-07 0.00000E+00
 -1       795 2.17780E-05 7.49148E-07 0.00000E+00
 -1       796 2.18543E-05 8.33721E-07 1.65436E-24
 -1       797 2.19305E-05 9.50795E-07 0.00000E+00
 -1       798 2.20067E-05 1.10983E-06 0.00000E+00
 -1       799 2.20825E-05 1.32031E-06 8.27181E-25
 -1       800 2.21584E-05 1.59176E-06 1.65436E-24
 -1       801 1.91502E-05-3.14072E-07 0.00000E+00
 -1       802 1.52611E-05-2.46180E-07 8.27181E-25
 -1       803 1.03779E-05-1.82381E-07 4.13590E-25
 -1       804 5.52431E-06-1.20349E-07 1.65436E-24
 -1       805 1.72419E-06-5.42041E-08-6.61744E-24
 -1       806 2.08325E-05-1.34288E-07-3.30872E-24
 -1       807 2.06494E-05 8.74013E-08 0.00000E+00
 -1       808 2.04738E-05 2.87263E-07-3.30872E-24
 -1       809 2.03041E-05 4.70090E-07 0.00000E+00
 -1       810 2.01389E-05 6.40647E-07 0.00000E+00
 -1       811 1.99765E-05 8.03663E-07 1.65436E-24
 -1       812 1.98151E-05 9.63862E-07-3.30872E-24
 -1       813 1.96530E-05 1.12596E-06 0.00000E+00
 -1       814 1.94884E-05 1.29468E-06-3.30872E-24
 -1       815 1.93196E-05 1.47473E-06-8.27181E-25
 -1       816 1.91448E-05 1.67083E-06 3.30872E-24
 -1       817 1.89622E-05 1.88770E-06-8.27181E-25
 -1       818 1.87701E-05 2.13006E-06 1.65436E-24
 -1       819 1.85670E-05 2.40263E-06 8.27181E-25
 -1       820 1.83514E-05 2.71017E-06 0.00000E+00
 -1       821 2.21621E-05 2.37038E-06-8.27181E-25
 -1       822 2.20875E-05 2.90515E-06-8.27181E-25
 -1       823 2.20130E-05 3.52791E-06 0.00000E+00
 -1       824 2.19377E-05 4.22843E-06 0.00000E+00
 -1       825 2.18623E-05 4.99645E-06 1.65436E-24
 -1       826 2.17867E-05 5.82166E-06-8.27181E-25
 -1       827 2.17111E-05 6.69369E-06-1.65436E-24
 -1       828 2.16354E-05 7.60219E-06 8.27181E-25
 -1       829 2.15597E-05 8.53674E-06 1.65436E-24
 -1       830 2.14839E-05 9.48691E-06 0.00000E+00
 -1       831 2.14082E-05 1.04423E-05-1.65436E-24
 -1       832 2.13326E-05 1.13925E-05 0.00000E+00
 -1       833 2.12571E-05 1.23269E-05-1.65436E-24
 -1       834 2.11822E-05 1.32354E-05-8.27181E-25
 -1       835 2.11072E-05 1.41073E-05 0.00000E+00
 -1       836 2.17105E-05 2.11756E-06 0.00000E+00
 -1       837 2.10056E-05 2.30788E-06 1.65436E-24
 -1       838 2.02058E-05 2.49780E-06 0.00000E+00
 -1       839 1.93999E-05 2.68728E-06 0.00000E+00
 -1       840 1.86762E-05 2.87713E-06 0.00000E+00
 -1       841 2.20597E-05 2.36568E-06 0.00000E+00
 -1       842 2.18458E-05 2.90290E-06 2.58494E-26
 -1       843 2.15963E-05 3.53522E-06 0.00000E+00
 -1       844 2.13149E-05 4.25166E-06 0.00000E+00
 -1       845 2.10063E-05 5.04048E-06 4.13590E-25
 -1       846 2.06749E-05 5.88979E-06 0.00000E+00
 -1       847 2.03254E-05 6.78699E-06 0.00000E+00
 -1       848 1.99627E-05 7.71948E-06 0.00000E+00
 -1       849 1.95916E-05 8.67419E-06 0.00000E+00
 -1       850 1.92171E-05 9.63805E-06 0.00000E+00
 -1       851 1.88440E-05 1.05979E-05-4.13590E-25
 -1       852 1.84774E-05 1.15406E-05 0.00000E+00
 -1       853 1.81221E-05 1.24532E-05 0.00000E+00
 -1       854 1.77827E-05 1.33226E-05 0.00000E+00
 -1       855 1.74643E-05 1.41365E-05 0.00000E+00
 -1       856 2.09517E-05 1.58195E-05 0.00000E+00
 -1       857 2.08635E-05 1.68665E-05-8.27181E-25
 -1       858 2.07752E-05 1.80527E-05 0.00000E+00
 -1       859 2.06861E-05 1.93570E-05 0.00000E+00
 -1       860 2.05968E-05 2.07584E-05 3.30872E-24
 -1       861 2.05073E-05 2.22359E-05 1.65436E-24
 -1       862 2.04177E-05 2.37683E-05 0.00000E+00
 -1       863 2.03280E-05 2.53344E-05-1.65436E-24
 -1       864 2.02383E-05 2.69129E-05-3.30872E-24
 -1       865 2.01486E-05 2.84827E-05 0.00000E+00
 -1       866 2.00590E-05 3.00224E-05-3.30872E-24
 -1       867 1.99695E-05 3.15109E-05-1.65436E-24
 -1       868 1.98802E-05 3.29270E-05 3.30872E-24
 -1       869 1.97914E-05 3.42495E-05 0.00000E+00
 -1       870 1.97027E-05 3.54575E-05 1.65436E-24
 -1       871 2.03269E-05 1.49252E-05 0.00000E+00
 -1       872 1.96687E-05 1.49173E-05 0.00000E+00
 -1       873 1.90427E-05 1.49092E-05 0.00000E+00
 -1       874 1.84301E-05 1.49009E-05 0.00000E+00
 -1       875 1.78122E-05 1.48922E-05-4.13590E-25
 -1       876 2.08231E-05 1.58490E-05 1.65436E-24
 -1       877 2.05637E-05 1.69042E-05 0.00000E+00
 -1       878 2.02595E-05 1.80784E-05 0.00000E+00
 -1       879 1.99178E-05 1.93543E-05 0.00000E+00
 -1       880 1.95446E-05 2.07142E-05 3.30872E-24
 -1       881 1.91465E-05 2.21405E-05 0.00000E+00
 -1       882 1.87299E-05 2.36159E-05 0.00000E+00
 -1       883 1.83013E-05 2.51232E-05 0.00000E+00
 -1       884 1.78673E-05 2.66451E-05 3.30872E-24
 -1       885 1.74342E-05 2.81644E-05 0.00000E+00
 -1       886 1.70086E-05 2.96638E-05 3.30872E-24
 -1       887 1.65968E-05 3.11259E-05-1.65436E-24
 -1       888 1.62054E-05 3.25337E-05-3.30872E-24
 -1       889 1.58402E-05 3.38693E-05 0.00000E+00
 -1       890 1.55087E-05 3.51158E-05-1.65436E-24
 -1       891 1.87534E-05 3.64842E-05 0.00000E+00
 -1       892 1.80580E-05 3.64377E-05 0.00000E+00
 -1       893 1.74433E-05 3.63913E-05 0.00000E+00
 -1       894 1.68221E-05 3.63450E-05 0.00000E+00
 -1       895 1.61072E-05 3.62986E-05 0.00000E+00
 -1       896 2.04666E-07 7.51911E-07 0.00000E+00
 -1       897 4.11113E-07 1.28112E-06 0.00000E+00
 -1       898 6.17530E-07 1.64148E-06-6.61744E-24
 -1       899 8.24294E-07 1.88531E-06 0.00000E+00
 -1       900 1.03108E-06 2.04029E-06-6.61744E-24
 -1       901 1.23794E-06 2.13330E-06 0.00000E+00
 -1       902 1.44480E-06 2.17810E-06 6.61744E-24
 -1       903 1.65167E-06 2.18803E-06 3.30872E-24
 -1       904 1.85853E-06 2.16902E-06-6.61744E-24
 -1       905 2.06533E-06 2.12678E-06 0.00000E+00
 -1       906 2.27210E-06 2.06207E-06 0.00000E+00
 -1       907 2.47862E-06 1.97546E-06 3.30872E-24
 -1       908 2.68510E-06 1.86289E-06 6.61744E-24
 -1       909 2.89029E-06 1.72006E-06 0.00000E+00
 -1       910 3.09590E-06 1.53628E-06 0.00000E+00
 -1       911 3.35476E-06 9.46393E-07 1.65436E-24
 -1       912 3.41553E-06 4.11054E-07 8.27181E-25
 -1       913 3.47616E-06-2.61628E-07 0.00000E+00
 -1       914 3.53688E-06-1.02812E-06-8.27181E-25
 -1       915 3.59757E-06-1.85049E-06 0.00000E+00
 -1       916 3.65827E-06-2.69095E-06-8.27181E-25
 -1       917 3.71899E-06-3.51275E-06 1.65436E-24
 -1       918 3.77975E-06-4.27915E-06-8.27181E-25
 -1       919 3.84056E-06-4.95007E-06 0.00000E+00
 -1       920 3.90139E-06-5.48518E-06 0.00000E+00
 -1       921 3.96227E-06-5.83609E-06 1.65436E-24
 -1       922 4.02294E-06-5.95388E-06-8.27181E-25
 -1       923 4.08355E-06-5.77580E-06 0.00000E+00
 -1       924 4.14272E-06-5.23829E-06 0.00000E+00
 -1       925 4.20201E-06-4.25651E-06-8.27181E-25
 -1       926 3.99476E-06-6.35677E-07-6.61744E-24
 -1       927 3.72811E-06 2.11718E-06-3.30872E-24
 -1       928 3.46104E-06 5.17178E-06 0.00000E+00
 -1       929 3.19292E-06 8.18232E-06-3.30872E-24
 -1       930 2.92576E-06 1.08133E-05-6.61744E-24
 -1       931 2.65993E-06 1.27337E-05 0.00000E+00
 -1       932 2.39528E-06 1.37781E-05 0.00000E+00
 -1       933 2.13111E-06 1.37915E-05-3.30872E-24
 -1       934 1.86652E-06 1.28594E-05 6.61744E-24
 -1       935 1.60078E-06 1.10778E-05-3.30872E-24
 -1       936 1.33397E-06 8.74157E-06 0.00000E+00
 -1       937 1.06647E-06 6.15144E-06 0.00000E+00
 -1       938 7.99206E-07 3.66755E-06 0.00000E+00
 -1       939 5.32498E-07 1.64886E-06-3.30872E-24
 -1       940 2.67052E-07 3.45636E-07 0.00000E+00
 -1       941 1.07434E-06 1.44038E-07-1.32349E-23
 -1       942 2.20784E-06 3.02553E-07 1.32349E-23
 -1       943 3.33760E-06 4.69433E-07 0.00000E+00
 -1       944 4.47860E-06 6.39004E-07-1.32349E-23
 -1       945 5.61994E-06 8.10138E-07 0.00000E+00
 -1       946 6.76352E-06 9.81792E-07 0.00000E+00
 -1       947 7.90736E-06 1.15380E-06 0.00000E+00
 -1       948 9.05158E-06 1.32602E-06 0.00000E+00
 -1       949 1.01958E-05 1.49865E-06 0.00000E+00
 -1       950 1.13398E-05 1.67195E-06 1.32349E-23
 -1       951 1.24836E-05 1.84724E-06 2.64698E-23
 -1       952 1.36255E-05 2.02600E-06 0.00000E+00
 -1       953 1.47672E-05 2.21555E-06 0.00000E+00
 -1       954 1.58999E-05 2.42379E-06 0.00000E+00
 -1       955 1.70355E-05 2.69028E-06-1.32349E-23
 -1       956 1.80650E-05 3.53401E-06-4.13590E-25
 -1       957 1.80057E-05 4.07795E-06-2.06795E-25
 -1       958 1.79462E-05 4.68286E-06 0.00000E+00
 -1       959 1.78865E-05 5.34172E-06 2.06795E-25
 -1       960 1.78268E-05 6.04751E-06-1.65436E-24
 -1       961 1.77670E-05 6.79315E-06-4.13590E-25
 -1       962 1.77072E-05 7.57155E-06-8.27181E-25
 -1       963 1.76473E-05 8.37563E-06 0.00000E+00
 -1       964 1.75875E-05 9.19829E-06 0.00000E+00
 -1       965 1.75276E-05 1.00324E-05 0.00000E+00
 -1       966 1.74678E-05 1.08710E-05 0.00000E+00
 -1       967 1.74080E-05 1.17068E-05 0.00000E+00
 -1       968 1.73482E-05 1.25329E-05 0.00000E+00
 -1       969 1.72885E-05 1.33421E-05 8.27181E-25
 -1       970 1.72290E-05 1.41274E-05 0.00000E+00
 -1       971 1.70515E-05 1.56937E-05 3.30872E-24
 -1       972 1.69293E-05 1.66745E-05 1.65436E-24
 -1       973 1.68070E-05 1.78037E-05 0.00000E+00
 -1       974 1.66841E-05 1.90600E-05 0.00000E+00
 -1       975 1.65610E-05 2.04223E-05 0.00000E+00
 -1       976 1.64376E-05 2.18691E-05 0.00000E+00
 -1       977 1.63142E-05 2.33791E-05 0.00000E+00
 -1       978 1.61906E-05 2.49306E-05-1.65436E-24
 -1       979 1.60670E-05 2.65022E-05 0.00000E+00
 -1       980 1.59435E-05 2.80722E-05 0.00000E+00
 -1       981 1.58200E-05 2.96190E-05 0.00000E+00
 -1       982 1.56968E-05 3.11211E-05 0.00000E+00
 -1       983 1.55737E-05 3.25570E-05 3.30872E-24
 -1       984 1.54514E-05 3.39052E-05 0.00000E+00
 -1       985 1.53292E-05 3.51443E-05 0.00000E+00
 -3
    1PSTEP                        16           8           1          
  100CL  108 4.58252E-01         841                     0    8           1
 -4  STRESS      6    1
 -5  SXX         1    4    1    1
 -5  SYY         1    4    2    2
 -5  SZZ         1    4    3    3
 -5  SXY         1    4    1    2
 -5  SYZ         1    4    2    3
 -5  SZX         1    4    3    1
 -1         1-1.89756E+06-6.08338E+05-3.90744E+05-5.40568E+05-2.49808E-10 4.08909E-09
 -1         2-1.20529E+06-6.35862E+04 1.65364E+03-1.19334E+05-2.38856E-10-9.69976E-10
 -1         3-6.22298E+05-2.17883E+05-2.11867E+04-5.19810E+04 3.74428E-10-1.61174E-09
 -1         4-3.17951E+05-5.77649E+04 4.84901E+02-2.90064E+04 1.39408E-11 6.65068E-12
 -1         5-1.62463E+05 9.26954E+04-8.14451E+04-4.90086E+03 4.51291E-09-3.12298E-10
 -1         8-1.01906E+06-4.07464E+05-1.55081E+05-3.78790E+05-2.34650E-10-1.14596E-09
 -1         9-1.08759E+06-2.43667E+05-1.36142E+05-2.44950E+05-3.64404E-10 1.72198E-09
 -1        10-5.50267E+05-3.08769E+05-2.55618E+04-1.36737E+05-2.78783E-09 3.06197E-11
 -1        11-3.14350E+05-8.58975E+04 5.41539E+02-6.22175E+04 4.47123E-09 2.62574E-10
 -1        12-2.00045E+05 7.38398E+04-9.17367E+04-3.08703E+04 5.22152E-09-1.98854E-09
 -1        15 8.08784E+03-4.05560E+04 2.04069E+03-8.78694E+04-7.45786E-11-7.85803E-10
 -1        16-5.94028E+05-1.03791E+05 2.45771E+04-2.73643E+05 8.90092E-10 1.52962E-09
 -1        17-3.68710E+05-2.47279E+05-4.08042E+04-2.02199E+05 1.43397E-10 1.62618E-09
 -1        18-1.80711E+05-9.20168E+04-6.76073E+04-1.01825E+05-1.17901E-09 4.50806E-10
 -1        19-3.64024E+04 4.84239E+04-3.66235E+04-3.16630E+04 9.91956E-10 1.13384E-09
 -1        20 6.49568E+04-4.75792E+04-7.88798E+03 3.47236E+04 4.86170E-09-3.38287E-09
 -1        21 4.09648E+02-9.66912E+04 2.43095E+04 2.55029E+02 1.28764E-08 1.20480E-11
 -1        22 1.98627E+04 1.17269E+05 7.60352E+02-2.69393E+04-1.77806E-10-5.00222E-10
 -1        23-2.33358E+05 5.50720E+03 2.48031E+03-1.03309E+05-2.25615E-09 7.11831E-10
 -1        24-1.32993E+05 2.04280E+04 1.60231E+05-2.78348E+05-5.26112E-09 1.60677E-09
 -1        25 3.49252E+05 1.20569E+05 1.09071E+05-1.78687E+05 5.49790E-10-4.84154E-10
 -1        26 1.70321E+03 1.08097E+05 5.60471E+03-2.11525E+04 8.43064E-10 2.45367E-09
 -1        27-2.53367E+04-4.06880E+04-1.76035E+04 4.66950E+04 4.62205E-09 1.35333E-09
 -1        28-8.16787E+03-7.55653E+04-4.43743E+02 3.63881E+04 4.29327E-09-2.32719E-09
 -1        29 2.83839E+05 1.95592E+05 8.10511E+02-2.74614E+03-2.17390E-10-1.90221E-09
 -1        30 9.28163E+04 2.79070E+04 1.18679E+03-2.67546E+04-1.48310E-10 5.91626E-10
 -1        31-3.31981E+05 2.90666E+04 2.80160E+03-6.33413E+04-1.35599E-09 8.91305E-11
 -1        32 4.63583E+05 2.72042E+05 3.30698E+05-2.81258E+05 6.93712E-09 2.36832E-09
 -1        33 7.96641E+05 3.38217E+05 2.49062E+05-3.06292E+04-9.90886E-09-1.27329E-11
 -1        34-1.31341E+05-1.86734E+04-5.66181E+03 2.44556E+04 1.83694E-09-3.37877E-10
 -1        35-2.10575E+04-2.50307E+04-4.61354E+02 5.39143E+04 9.00383E-09-9.90743E-10
 -1        36-2.58662E+06 7.86534E+04-1.82612E+05-2.14307E-07 5.69801E-10-7.56700E-10
 -1        37-2.66556E+06-9.10701E+04-1.29108E+05-9.12109E-08 1.05337E-09-5.36602E-10
 -1        38-2.61710E+06 1.22669E+04-4.72467E+04-1.48360E-07-6.43167E-10-1.93722E-09
 -1        39-2.62995E+06-1.41985E+04-2.96588E+04-2.27586E-07-8.61739E-10-5.75574E-09
 -1        40-2.62209E+06 1.90909E+03-1.21301E+04-2.89065E-07-1.58838E-09 4.33829E-10
 -1        41-2.62410E+06-2.23498E+03-7.22049E+03-1.19825E-07-1.57326E-09 3.73268E-09
 -1        42-2.62291E+06 3.22892E+02-3.51714E+03-2.14518E-07-1.98900E-09-1.07252E-09
 -1        43-2.62322E+06-5.59752E+02-2.75103E+03-1.06155E-08-9.79897E-10-4.64233E-10
 -1        44-2.62296E+06 2.36332E+02-2.72897E+03 9.80516E-08-8.02475E-10 1.73884E-09
 -1        45-2.62369E+06-1.48742E+03-4.94150E+03 7.48972E-08-5.15809E-10-1.28369E-09
 -1        46-2.62244E+06 1.24912E+03-8.02069E+03-3.25018E-08-1.02292E-09 1.75214E-09
 -1        47-2.62749E+06-9.26578E+03-1.94025E+04 2.33349E-08 3.53354E-10-4.04225E-09
 -1        48-2.61918E+06 8.00184E+03-3.08469E+04-1.93209E-07-3.67424E-09-2.63026E-09
 -1        49-2.65071E+06-5.94043E+04-8.42298E+04 1.21213E-08-2.18388E-09 6.64659E-09
 -1        50-2.59932E+06 5.13010E+04-1.19153E+05 7.89362E-08-3.39360E-09 7.56700E-10
 -1        51 2.11445E+04-2.46960E+05 3.40713E+04-6.61579E+05-5.82077E-11 3.56522E-10
 -1        52 9.23826E+03-2.43469E+05 2.05366E+04-7.29630E+05 1.16415E-10-1.51340E-09
 -1        53 5.67755E+03-2.49572E+05 1.63565E+04-6.59845E+05-4.00178E-11 1.45519E-11
 -1        54 1.33523E+04-2.46662E+05 2.46485E+04-7.31497E+05-1.38243E-10-2.18279E-09
 -1        55 3.15254E+04-2.54388E+05 4.45174E+04-6.59555E+05-2.91038E-10 3.30328E-09
 -1        56-2.85526E+06-3.22669E+05-2.33823E+05-1.10424E+06-6.14818E-10 2.41562E-09
 -1        57-2.96247E+06-5.15813E+05-1.56880E+05-1.07988E+06 1.94268E-09 2.98314E-10
 -1        58-2.90062E+06-3.96543E+05-5.50598E+04-1.09154E+06 2.25555E-10 7.60338E-10
 -1        59-2.91023E+06-4.28660E+05-3.26438E+04-1.09498E+06 2.86491E-10 7.62111E-09
 -1        60-2.90689E+06-4.06893E+05-1.28704E+04-1.09015E+06 4.69299E-10-8.92669E-10
 -1        61-2.90339E+06-4.16093E+05-7.28457E+03-1.09612E+06-8.40828E-10-1.38243E-09
 -1        62-2.90734E+06-4.08743E+05-3.55616E+03-1.09051E+06-7.80460E-10 1.20679E-10
 -1        63-2.90361E+06-4.13506E+05-2.98218E+03-1.09497E+06-6.09305E-10 4.60977E-09
 -1        64-2.90666E+06-4.09446E+05-3.48255E+03-1.09131E+06-1.97531E-10 6.88487E-10
 -1        65-2.90603E+06-4.13337E+05-7.06154E+03-1.09303E+06-1.63152E-09-2.78783E-09
 -1        66-2.90493E+06-4.08953E+05-1.24541E+04-1.09244E+06-1.00715E-09 3.22098E-09
 -1        67-2.91494E+06-4.23166E+05-3.15566E+04-1.08927E+06 4.25075E-10 7.71252E-10
 -1        68-2.89785E+06-3.99976E+05-5.32299E+04-1.09495E+06 1.54614E-10 3.44153E-09
 -1        69-2.96711E+06-5.05746E+05-1.51645E+05-1.07278E+06 1.43336E-09 6.07542E-10
 -1        70-2.85336E+06-3.29201E+05-2.26035E+05-1.10795E+06-7.13044E-10-7.56700E-10
 -1        71-1.22178E+06-2.16406E+03 5.02960E+03-1.45337E-07-3.08871E-10-2.12367E-10
 -1        72-1.21949E+06 2.50592E+03 3.54958E+03 1.58178E-08-6.27886E-10 5.18884E-09
 -1        73-1.22094E+06-3.37326E+02 1.29032E+03 3.55238E-08-6.82615E-10-2.41982E-10
 -1        74-1.22047E+06 3.88813E+02 7.92327E+02 2.08655E-07-4.87336E-10-4.06924E-09
 -1        75-1.22080E+06-5.08449E+01 2.86529E+02 5.67763E-08-3.14292E-10 5.17716E-10
 -1        76-1.22064E+06 4.84685E+01 9.65753E+01-1.36520E-07 5.22696E-10 1.42420E-09
 -1        77-1.22077E+06 2.45751E+00-9.53756E+01-2.85220E-08 2.30146E-10 2.33202E-09
 -1        78-1.22071E+06-7.04496E+01-3.47209E+02-1.06354E-07-9.14045E-10 3.34566E-09
 -1        79-1.22073E+06 6.79254E+01-6.92985E+02-1.82359E-08-9.16771E-10 1.64712E-09
 -1        80-1.22095E+06-5.16955E+02-1.63046E+03-6.89725E-09-4.38594E-10 1.31013E-09
 -1        81-1.22053E+06 4.48316E+02-2.82772E+03 2.13200E-08-4.46272E-10-5.74687E-10
 -1        82-1.22233E+06-3.34180E+03-6.97481E+03-1.48946E-07 7.24191E-10 1.60207E-09
 -1        83-1.21935E+06 2.88806E+03-1.11315E+04-1.14935E-07-6.82938E-11 2.83353E-09
 -1        84-1.23071E+06-2.14423E+04-3.04144E+04 1.22204E-07-1.23367E-09 1.13278E-09
 -1        85-1.21217E+06 1.85163E+04-4.30408E+04-1.18985E-09-1.33849E-09 8.76753E-10
 -1        86-5.90823E+04 2.29341E+05 1.39677E+05 1.03011E+03 2.18279E-11 1.09949E-09
 -1        87 7.36643E+04 2.91736E+05 1.08000E+05-4.52871E+03-5.72982E-11-4.45354E-09
 -1        88-1.44422E+04 2.49851E+05 5.50584E+04 5.67454E+02-3.56522E-10 2.34286E-09
 -1        89 5.02847E+04 2.80776E+05 7.74199E+04-3.89752E+03 7.32143E-11 1.51745E-09
 -1        90-3.57452E+04 2.40281E+05 8.70301E+04 3.99032E+02-4.51109E-10-1.89374E-10
 -1        91-1.30674E+06-1.78171E+05-1.84382E+04-4.95281E+05 5.27962E-10 4.34829E-09
 -1        92-1.32169E+06-1.89347E+05-1.27398E+04-4.85563E+05 1.01295E-09 6.03109E-10
 -1        93-1.30927E+06-1.85825E+05-4.31821E+03-4.95246E+05 5.29553E-10 3.00315E-09
 -1        94-1.31687E+06-1.82135E+05-2.67537E+03-4.87471E+05 1.50010E-10 1.52880E-10
 -1        95-1.31155E+06-1.85373E+05-1.07544E+03-4.93372E+05-8.62507E-10 2.74486E-09
 -1        96-1.31191E+06-1.85049E+05-6.06604E+02-4.92352E+05 4.10637E-10 5.07805E-09
 -1        97-1.31421E+06-1.82914E+05-4.42526E+02-4.90358E+05-3.74001E-10 3.24569E-09
 -1        98-1.30835E+06-1.88683E+05-5.35401E+02-4.96657E+05-3.42635E-09-7.43853E-10
 -1        99-1.31512E+06-1.81731E+05-8.48997E+02-4.89074E+05-4.47456E-09-2.92482E-09
 -1       100-1.30914E+06-1.88869E+05-2.00459E+03-4.96050E+05-3.36750E-09-1.88606E-09
 -1       101-1.31343E+06-1.82730E+05-3.52807E+03-4.90964E+05-1.84093E-09-3.84716E-10
 -1       102-1.31559E+06-1.88880E+05-9.31495E+03-4.90521E+05-7.13953E-11-3.04772E-09
 -1       103-1.30867E+06-1.81733E+05-1.50647E+04-4.94599E+05-1.28671E-09 5.84805E-10
 -1       104-1.33466E+06-2.11868E+05-4.44887E+04-4.81347E+05 1.34150E-11 6.64841E-10
 -1       105-1.29439E+06-1.59776E+05-6.41826E+04-5.00141E+05-1.05865E-09-1.20053E-09
 -1       106-6.75545E+05-2.28101E+03 5.30317E+03 6.17441E-08 3.00389E-10-7.38510E-10
 -1       107-6.73187E+05 2.64146E+03 3.74461E+03 1.20776E-08-3.62035E-10 1.46110E-09
 -1       108-6.74660E+05-3.55656E+02 1.36557E+03 3.00497E-08-4.63099E-10-1.10828E-09
 -1       109-6.74220E+05 4.10630E+02 8.45880E+02 1.10717E-07-6.10947E-10-4.40856E-09
 -1       110-6.74513E+05-5.42956E+01 3.22086E+02 5.51322E-08-4.90672E-10-1.16202E-09
 -1       111-6.74395E+05 5.64839E+01 1.44297E+02-2.10941E-07-1.52484E-10 4.85763E-11
 -1       112-6.74485E+05-2.10220E+00-2.09812E+01-6.80114E-08-1.74268E-10-2.39017E-09
 -1       113-6.74448E+05-3.87453E+01-1.91161E+02 2.20086E-08-2.17441E-11-2.19719E-09
 -1       114-6.74460E+05 4.08111E+01-4.13065E+02-9.37415E-08-5.70986E-11-3.14265E-09
 -1       115-6.74595E+05-3.14133E+02-9.88561E+02-1.01776E-07 1.85768E-10 1.58654E-09
 -1       116-6.74339E+05 2.72888E+02-1.72073E+03 1.60445E-09-3.91410E-10 2.57160E-10
 -1       117-6.75437E+05-2.03465E+03-4.24764E+03-7.86312E-08-9.45088E-10-1.70439E-09
 -1       118-6.73620E+05 1.75843E+03-6.78040E+03-1.06492E-07-3.38847E-10-3.68345E-11
 -1       119-6.80538E+05-1.30555E+04-1.85223E+04 1.32498E-07-2.97564E-10 1.85992E-09
 -1       120-6.69244E+05 1.12738E+04-2.62120E+04 1.17566E-07 9.46127E-11 6.91216E-10
 -1       121-1.02724E+03-6.87231E+05 4.59558E+03 6.29657E+03-6.86668E-11-3.74257E-10
 -1       122 1.49375E+03-6.85450E+05 3.37000E+03 2.46901E+04-1.39153E-10-7.78641E-10
 -1       123-2.18374E+02-6.86631E+05 2.16661E+03 6.39169E+03-1.95541E-10-1.72713E-09
 -1       124 1.39607E+03-6.85436E+05 3.23494E+03 2.44028E+04-3.04908E-10-6.08111E-09
 -1       125-1.00028E+03-6.87164E+05 4.32173E+03 6.58406E+03-5.37966E-10-2.99906E-09
 -1       126-6.05174E+05-8.47344E+04 3.78564E+03-2.23364E+05 5.16275E-09-6.29802E-09
 -1       127-5.91805E+05-8.86047E+04 3.21048E+03-2.32680E+05 3.63372E-09 3.12426E-09
 -1       128-6.05851E+05-8.03873E+04 9.10351E+02-2.20353E+05-4.97732E-09-1.53000E-09
 -1       129-5.91141E+05-9.34623E+04 6.67996E+02-2.36118E+05-5.58241E-09-2.01361E-09
 -1       130-6.05842E+05-7.97854E+04 2.08334E+02-2.19967E+05-4.68387E-09 1.37173E-09
 -1       131-5.92312E+05-9.18536E+04 3.37124E+02-2.33737E+05-3.88607E-09 3.09204E-09
 -1       132-6.04678E+05-8.20579E+04-2.44361E+02-2.22706E+05 1.10197E-09-5.99243E-10
 -1       133-5.96555E+05-8.61618E+04 4.13599E+02-2.26828E+05 1.74191E-09-2.75827E-09
 -1       134-6.01595E+05-8.55840E+04-6.10122E+02-2.26828E+05-3.67606E-10 3.93254E-09
 -1       135-6.03720E+05-7.99053E+04-2.86564E+02-2.19438E+05-2.30887E-09 6.19151E-09
 -1       136-5.97510E+05-8.82754E+04-1.40215E+03-2.30111E+05 5.10519E-09 1.09384E-09
 -1       137-6.10367E+05-7.73978E+04-3.33287E+03-2.14856E+05 6.15967E-09 5.07202E-09
 -1       138-5.94950E+05-8.79747E+04-5.52031E+03-2.31463E+05-3.95517E-10 4.29054E-10
 -1       139-6.15636E+05-8.73358E+04-1.62493E+04-2.13209E+05 7.53664E-09 5.83714E-09
 -1       140-5.92251E+05-7.83624E+04-2.38440E+04-2.31751E+05 1.37652E-09-6.76664E-10
 -1       141-3.07040E+05-2.75499E+03 6.40469E+03 7.96532E-08 1.94454E-11 3.07728E-09
 -1       142-3.04237E+05 3.19018E+03 4.52029E+03 6.08091E-08 4.67058E-10 1.29859E-09
 -1       143-3.05970E+05-4.29432E+02 1.64343E+03-1.12747E-08-1.70920E-11 1.20644E-09
 -1       144-3.05486E+05 4.94911E+02 1.00836E+03 1.64677E-07 1.47392E-10 1.39420E-09
 -1       145-3.05792E+05-6.46559E+01 3.63021E+02 1.04000E-07-2.47441E-11-2.12438E-09
 -1       146-3.05701E+05 6.11249E+01 1.18409E+02-6.41852E-08-4.91903E-11-3.80545E-10
 -1       147-3.05755E+05 3.63384E+00-1.30341E+02 1.14655E-08-3.53371E-10 4.92832E-11
 -1       148-3.05789E+05-9.35170E+01-4.61724E+02 5.10960E-08-2.20456E-10-6.57323E-10
 -1       149-3.05704E+05 8.97943E+01-9.18062E+02 3.94918E-08-2.40205E-10 3.39077E-09
 -1       150-3.06103E+05-6.82991E+02-2.15726E+03-1.93670E-08 1.83715E-10 7.75714E-10
 -1       151-3.05441E+05 5.92261E+02-3.74049E+03 3.80348E-08-4.36097E-10-3.10138E-10
 -1       152-3.07928E+05-4.41459E+03-9.22155E+03-6.20632E-08 1.04980E-10 4.86580E-10
 -1       153-3.03880E+05 3.81516E+03-1.47164E+04 2.96457E-08 1.12295E-09 5.71163E-10
 -1       154-3.18993E+05-2.83253E+04-4.01921E+04-3.72842E-08 5.60745E-10 6.95309E-10
 -1       155-2.94378E+05 2.44602E+04-5.68688E+04 1.75504E-09 2.68960E-09-7.27596E-11
 -1       156-9.69555E+03-1.33644E+05 2.31989E+04-3.17562E+03-1.06866E-09 1.07292E-09
 -1       157 1.28058E+04-1.22829E+05 1.92665E+04 1.31745E+04-2.71177E-09 2.47260E-09
 -1       158-3.07783E+03-1.30631E+05 1.17730E+04-3.17561E+03-1.26184E-09 2.83997E-09
 -1       159 1.37793E+04-1.21700E+05 2.06223E+04 1.27150E+04-3.99268E-10-5.74504E-09
 -1       160-1.06946E+04-1.34734E+05 2.51428E+04-2.71613E+03 2.93494E-09 5.44844E-10
 -1       161-3.47119E+05-4.81466E+04-1.51772E+03-1.30328E+05-5.50500E-10-2.48929E-09
 -1       162-3.47563E+05-4.98524E+04-1.05530E+03-1.30424E+05 3.18312E-10 1.98459E-09
 -1       163-3.47458E+05-4.86589E+04-3.64162E+02-1.30191E+05 3.13776E-11 9.83732E-10
 -1       164-3.47186E+05-4.92463E+04-2.41626E+02-1.30566E+05 2.24205E-10-8.26120E-10
 -1       165-3.47496E+05-4.87517E+04-1.21972E+02-1.30187E+05 3.83434E-10 1.27593E-09
 -1       166-3.47192E+05-4.91088E+04-1.38831E+02-1.30520E+05 4.78265E-10 1.21041E-11
 -1       167-3.47452E+05-4.87963E+04-1.93157E+02-1.30237E+05 3.26921E-11 1.40831E-09
 -1       168-3.47354E+05-4.90803E+04-4.26298E+02-1.30382E+05-3.38402E-10 3.76062E-10
 -1       169-3.47334E+05-4.87803E+04-7.66061E+02-1.30324E+05-1.84343E-10-3.14600E-10
 -1       170-3.47869E+05-4.95624E+04-1.91548E+03-1.30126E+05-2.53912E-10 1.86992E-09
 -1       171-3.46938E+05-4.83151E+04-3.31474E+03-1.30494E+05-8.00128E-10 3.25747E-09
 -1       172-3.50326E+05-5.34077E+04-8.91961E+03-1.29278E+05 1.46940E-10 1.71667E-09
 -1       173-3.44879E+05-4.49407E+04-1.43073E+04-1.31170E+05-8.51742E-10 5.09317E-11
 -1       174-3.64852E+05-7.86864E+04-4.23385E+04-1.24448E+05-6.61817E-09 3.96949E-09
 -1       175-3.32420E+05-2.30733E+04-6.10393E+04-1.35312E+05-2.81761E-09 5.71163E-10
 -1       191 9.73415E+02 3.51584E+05 1.58698E+03-9.28519E+03-1.63709E-10-2.81761E-09
 -1       192 3.52803E+02 3.51814E+05 9.49960E+02-9.95602E+03 2.66425E-10 1.60708E-09
 -1       193 1.61843E+02 3.51659E+05 7.64011E+02-9.12996E+03-4.60375E-10-5.06589E-10
 -1       194 4.67713E+02 3.51844E+05 1.15622E+03-1.02458E+04 2.36469E-10-2.96131E-09
 -1       195 1.32844E+03 3.51532E+05 2.10002E+03-8.99433E+03-7.56700E-10 6.35737E-10
 -1       251-1.61674E+06 3.73171E+04-8.69192E+04-1.27529E+04-5.74005E-10-6.08634E-09
 -1       252-1.65288E+06-4.31250E+04-6.11548E+04 2.71747E+04-1.80535E-10-5.68434E-10
 -1       253-1.63182E+06 5.79179E+03-2.26642E+04-1.07052E+04 1.39948E-10-1.09139E-09
 -1       254-1.63361E+06-6.59451E+03-1.34380E+04 1.15411E+04-1.12726E-09-4.70914E-09
 -1       255-1.63581E+06 7.09315E+02-6.33367E+03 2.88102E+03-4.50314E-10-3.17004E-09
 -1       256-1.63143E+06-9.08346E+02-2.92927E+03-1.40281E+04 4.11973E-10 2.03863E-09
 -1       257-1.63403E+06 1.46818E+02-1.86772E+03 1.48640E+04-3.94721E-10 9.38030E-10
 -1       258-1.63296E+06-2.01367E+02-1.39153E+03-2.48331E+04 4.76064E-11-1.09491E-10
 -1       259-1.63439E+06 1.14859E+02-1.94598E+03 1.36868E+04-2.82324E-09 1.84036E-09
 -1       260-1.63101E+06-9.02202E+02-2.84966E+03-1.04549E+04-1.71940E-09 4.73619E-10
 -1       261-1.63584E+06 7.11103E+02-6.34304E+03 4.84942E+02-7.31575E-10 2.07638E-09
 -1       262-1.63399E+06-6.61500E+03-1.35238E+04 1.52352E+04 7.26288E-10-6.53017E-10
 -1       263-1.63144E+06 5.83289E+03-2.25980E+04-1.20032E+04-2.94932E-09-1.10958E-10
 -1       264-1.65294E+06-4.31507E+04-6.12070E+04 2.73994E+04-5.95350E-09 1.92813E-09
 -1       265-1.61707E+06 3.73044E+04-8.70545E+04-1.16796E+04-4.63598E-09-7.45786E-10
 -1       266-1.47705E+04-2.70219E+05 3.33348E+04 4.24306E+03-1.27329E-11 2.49202E-10
 -1       267 1.58593E+04-2.54665E+05 2.14838E+04-1.43666E+04-3.91083E-11-1.72614E-09
 -1       268-1.01893E+03-2.63147E+05 3.83476E+03 5.13075E+03-6.91216E-11 1.11299E-09
 -1       269-6.91523E+03-2.65695E+05-8.34713E+03-1.49422E+04-1.07775E-10 3.04768E-09
 -1       270 7.98176E+03-2.59223E+05-1.77814E+04 4.81877E+03 7.18501E-11 3.34376E-09
 -1       271-2.46078E+06-3.10614E+05-1.91208E+05-9.52871E+05-1.31331E-09-5.18776E-09
 -1       272-2.52452E+06-4.38998E+05-1.20687E+05-9.56948E+05-8.26049E-10-7.73070E-09
 -1       273-2.49463E+06-3.53399E+05-4.51059E+04-9.47100E+05-3.06699E-10-3.05590E-10
 -1       274-2.48513E+06-3.83758E+05-2.47817E+04-9.67017E+05 7.63976E-11 1.56615E-09
 -1       275-2.49904E+06-3.57438E+05-1.04929E+04-9.46012E+05-6.13909E-11-8.10360E-10
 -1       276-2.47990E+06-3.78758E+05-5.55955E+03-9.68889E+05 1.04592E-10 5.82077E-11
 -1       277-2.49986E+06-3.57566E+05-2.85696E+03-9.45590E+05-4.67253E-10 4.84420E-10
 -1       278-2.47903E+06-3.78628E+05-2.25613E+03-9.69475E+05 1.16762E-09 6.58090E-10
 -1       279-2.49996E+06-3.57474E+05-2.71400E+03-9.45491E+05-2.62943E-10 1.25897E-09
 -1       280-2.47955E+06-3.79049E+05-5.17457E+03-9.69324E+05-8.31733E-10 1.58559E-09
 -1       281-2.49934E+06-3.57200E+05-9.69780E+03-9.45716E+05-2.98996E-10-4.85215E-10
 -1       282-2.48415E+06-3.83920E+05-2.28953E+04-9.67910E+05 3.01043E-10-3.14321E-09
 -1       283-2.49540E+06-3.53352E+05-4.16420E+04-9.46594E+05 1.38471E-10 2.17915E-09
 -1       284-2.52032E+06-4.35136E+05-1.11442E+05-9.58861E+05 4.69299E-10-3.65981E-09
 -1       285-2.46423E+06-3.13752E+05-1.76551E+05-9.51818E+05 2.18279E-10 1.08412E-09
 -1       286-4.25022E+05-8.78884E+03 2.04155E+04-8.75756E+02 1.59307E-09-2.96041E-09
 -1       287-4.15944E+05 1.01782E+04 1.44632E+04 5.07370E+02 1.56393E-09 2.38720E-09
 -1       288-4.21633E+05-1.37427E+03 5.27567E+03-1.73114E+02 2.58296E-10 1.45360E-09
 -1       289-4.19917E+05 1.58964E+03 3.35385E+03-9.02934E+02-2.39652E-10 3.56522E-10
 -1       290-4.21053E+05-2.16240E+02 1.36222E+03 5.34583E+02 5.70338E-10 1.89351E-09
 -1       291-4.20632E+05 2.55951E+02 8.54737E+02-2.11822E+03 9.62586E-10 1.76750E-09
 -1       292-4.20922E+05-4.00962E+01 4.50314E+02 1.04219E+03 1.14098E-09 3.49809E-09
 -1       293-4.20778E+05 9.09964E+01 4.40506E+02-2.78992E+03 5.96033E-10 2.17976E-09
 -1       294-4.20910E+05-4.89449E+01 5.41802E+02 1.20630E+03 8.99900E-10 1.42219E-09
 -1       295-4.20642E+05 3.38938E+02 1.09790E+03-2.72834E+03 4.29822E-10 1.68131E-09
 -1       296-4.21058E+05-2.87932E+02 1.82693E+03 9.80602E+02 1.40022E-09 2.88696E-09
 -1       297-4.19696E+05 2.13698E+03 4.48455E+03-1.95138E+03 7.94302E-10 1.24987E-09
 -1       298-4.21851E+05-1.84679E+03 7.10320E+03 4.29328E+02 8.83489E-11 1.80944E-09
 -1       299-4.14291E+05 1.36934E+04 1.94509E+04-6.85189E+02 1.04833E-10 2.96336E-09
 -1       300-4.26454E+05-1.18253E+04 2.74700E+04-2.85618E+02 1.61350E-10 2.05182E-09
 -1       301 3.37889E+04 1.85216E+04 7.39616E+04-2.21475E+04 1.98270E-09 1.84900E-09
 -1       302 1.14197E+04 3.23504E+04 4.48942E+04-2.59967E+04 1.61322E-09-4.07382E-10
 -1       303 3.18488E+03 2.34687E+04 3.53519E+04-2.21773E+04 2.16278E-09-9.12564E-10
 -1       304 1.40381E+04 3.38880E+04 5.18715E+04-2.59720E+04 1.70257E-09 1.83149E-10
 -1       305 4.22869E+04 1.69939E+04 9.08944E+04-2.21587E+04 1.89175E-09 3.90855E-10
 -1       306-1.69561E+06-2.19985E+05-1.14070E+05-6.57218E+05 2.76486E-10-2.61934E-09
 -1       307-1.72340E+06-3.06512E+05-7.19536E+04-6.71185E+05 1.28239E-10-2.50293E-09
 -1       308-1.71591E+06-2.45333E+05-2.69228E+04-6.53681E+05-1.66210E-10 1.92813E-10
 -1       309-1.69990E+06-2.73715E+05-1.47900E+04-6.77389E+05 1.99634E-10 1.78647E-09
 -1       310-1.71858E+06-2.47693E+05-6.28247E+03-6.53010E+05 9.28594E-10 4.85534E-09
 -1       311-1.69682E+06-2.70733E+05-3.35737E+03-6.78542E+05 1.74850E-09 1.70030E-09
 -1       312-1.71905E+06-2.47783E+05-1.78689E+03-6.52787E+05 1.72918E-09-8.24343E-10
 -1       313-1.69640E+06-2.70582E+05-1.52674E+03-6.78799E+05 1.57197E-09-1.21895E-09
 -1       314-1.71904E+06-2.47786E+05-1.98508E+03-6.52795E+05 6.99174E-10 4.72937E-10
 -1       315-1.69691E+06-2.70779E+05-3.90553E+03-6.78500E+05-4.17344E-10-2.96700E-09
 -1       316-1.71849E+06-2.47655E+05-7.39142E+03-6.53037E+05-4.66571E-10 4.80213E-10
 -1       317-1.70050E+06-2.74376E+05-1.74612E+04-6.77237E+05-4.69299E-10 4.81577E-10
 -1       318-1.71540E+06-2.44804E+05-3.17926E+04-6.53766E+05-6.24595E-10 1.87356E-10
 -1       319-1.72814E+06-3.13277E+05-8.50028E+04-6.70109E+05 2.72280E-10 3.89264E-10
 -1       320-1.69152E+06-2.14741E+05-1.34727E+05-6.57829E+05-6.38465E-10 9.67702E-10
 -1       321-3.97070E+05-1.29699E+04 3.01098E+04 2.53094E+01-2.00271E-09 9.53150E-10
 -1       322-3.83656E+05 1.50186E+04 2.13338E+04-1.76983E+03-5.95399E-10 7.11225E-10
 -1       323-3.91986E+05-2.02328E+03 7.78278E+03 8.05462E+02-8.56630E-11-1.84036E-09
 -1       324-3.89636E+05 2.34495E+03 4.90473E+03-3.04751E+03-1.43719E-09-5.26654E-10
 -1       325-3.91099E+05-3.11595E+02 1.98454E+03 1.30302E+03 7.09427E-10 2.40948E-09
 -1       326-3.90678E+05 3.67865E+02 1.15533E+03-3.61977E+03 4.39021E-10-2.04760E-09
 -1       327-3.90950E+05-4.65329E+01 5.05405E+02 1.37774E+03-1.45388E-09 2.46959E-09
 -1       328-3.90802E+05 6.10172E+01 2.95240E+02-3.32659E+03-4.83681E-10 4.91099E-10
 -1       329-3.90977E+05-1.04430E+01 1.33076E+02 1.00984E+03-7.18416E-10 8.83055E-10
 -1       330-3.90709E+05 2.42118E+01 1.39526E+02-2.24391E+03-6.96964E-10-8.63672E-10
 -1       331-3.91038E+05-1.65683E+01 7.91904E+01 2.95031E+02-7.12049E-10-8.72550E-10
 -1       332-3.90601E+05 9.09864E+01 2.37637E+02-6.55469E+02 1.77486E-09 1.60438E-09
 -1       333-3.91076E+05-7.60981E+01 2.60380E+02-5.78613E+02 6.66972E-10-2.62992E-09
 -1       334-3.90428E+05 5.50563E+02 8.03963E+02 1.02170E+03 1.43345E-09 1.63708E-09
 -1       335-3.91204E+05-4.64392E+02 1.05866E+03-1.38215E+03-2.54521E-09-1.01778E-09
 -1       336-6.99108E+02-6.96447E+05 1.96897E+03-8.20407E+03-1.04819E-09-7.36691E-11
 -1       337 3.16063E+02-6.95869E+05-1.44457E+03-3.45494E+04-6.46594E-10 1.44610E-10
 -1       338 5.56016E+02-6.95519E+05-5.78511E+03-8.03364E+03-1.13596E-09 2.81352E-09
 -1       339-7.93403E+03-7.00846E+05-1.61143E+04-3.47507E+04-6.68706E-10 3.43289E-09
 -1       340 5.99978E+03-6.91557E+05-2.57598E+04-8.00494E+03-8.31278E-10 2.46088E-09
 -1       341-1.11688E+06-1.40509E+05-4.67088E+04-4.29070E+05-3.14685E-09 2.18279E-10
 -1       342-1.14444E+06-1.80133E+05-3.23804E+04-4.17363E+05-3.08250E-09 1.82990E-09
 -1       343-1.12749E+06-1.56239E+05-1.09737E+04-4.24753E+05-4.13365E-10 1.77351E-11
 -1       344-1.13095E+06-1.63123E+05-6.83232E+03-4.23721E+05-2.32581E-09-6.12999E-10
 -1       345-1.13035E+06-1.57490E+05-2.61532E+03-4.22713E+05-1.33770E-09 1.30740E-10
 -1       346-1.12741E+06-1.61981E+05-1.62437E+03-4.26410E+05-1.73837E-09-6.48058E-10
 -1       347-1.13103E+06-1.57372E+05-9.03720E+02-4.22067E+05-2.20070E-09 1.98932E-09
 -1       348-1.12754E+06-1.61362E+05-1.07831E+03-4.26088E+05-1.41168E-09 2.16911E-09
 -1       349-1.13022E+06-1.58110E+05-1.55955E+03-4.23035E+05 3.09342E-10 2.86531E-09
 -1       350-1.13035E+06-1.60219E+05-3.59725E+03-4.23355E+05-9.54699E-10-1.46792E-09
 -1       351-1.12822E+06-1.58520E+05-6.19384E+03-4.24798E+05 1.08969E-09-8.11724E-10
 -1       352-1.13689E+06-1.65451E+05-1.65717E+04-4.19608E+05-5.06475E-11-4.40195E-10
 -1       353-1.12369E+06-1.52887E+05-2.65792E+04-4.26784E+05-6.00267E-10 1.54432E-09
 -1       354-1.16396E+06-2.12387E+05-7.86701E+04-4.10572E+05 3.22325E-09-1.26602E-09
 -1       355-1.10119E+06-1.11652E+05-1.13425E+05-4.33823E+05 6.98492E-10-3.63070E-09
 -1       356-3.89971E+05-5.07553E+02 1.16964E+03-1.54536E+03 7.63691E-11 3.74280E-09
 -1       357-3.89255E+05 6.02199E+02 8.54920E+02 1.66529E+03-3.03811E-09 4.34454E-10
 -1       358-3.89834E+05-8.17922E+01 2.70041E+02-8.89452E+02-9.39806E-10 1.15674E-09
 -1       359-3.89412E+05 9.58406E+01 1.99092E+02 1.87666E+02 1.73469E-09 2.77943E-10
 -1       360-3.89820E+05-1.47196E+01-1.16889E+01-6.77116E+01 6.58815E-11 1.71966E-10
 -1       361-3.89485E+05-4.54299E-01-5.96553E+01-1.40702E+03-1.15486E-09-3.16120E-10
 -1       362-3.89766E+05 1.10462E+01-2.61185E+02 7.05250E+02-9.91093E-10-4.98233E-10
 -1       363-3.89651E+05-1.12550E+02-5.55471E+02-2.70136E+03 1.45491E-10 1.84588E-09
 -1       364-3.89657E+05 1.03409E+02-1.05846E+03 1.22664E+03 1.64810E-09 2.34320E-09
 -1       365-3.90076E+05-7.63343E+02-2.43196E+03-3.35723E+03-2.51903E-09 4.59437E-10
 -1       366-3.89343E+05 6.67817E+02-4.20436E+03 1.36113E+03 1.75127E-09-6.85304E-10
 -1       367-3.92104E+05-4.95079E+03-1.03492E+04-3.20349E+03 2.44434E-09-1.02227E-09
 -1       368-3.87630E+05 4.28318E+03-1.65314E+04 1.07290E+03 1.65444E-09-4.93856E-10
 -1       369-4.04427E+05-3.17930E+04-4.51003E+04-2.26624E+03 1.99122E-09-4.03816E-10
 -1       370-3.77022E+05 2.74545E+04-6.38724E+04 4.23864E+02 3.29399E-09-5.05679E-10
 -1       371-1.02804E+04-1.34051E+05 2.33302E+04-4.79094E+02 5.02223E-09-1.52616E-09
 -1       372 1.07627E+04-1.23856E+05 1.44901E+04 3.46854E+03 2.85218E-09 6.78682E-10
 -1       373-4.70950E+02-1.29416E+05 1.78249E+03-7.43242E+02 2.46246E-09-7.67670E-10
 -1       374-6.71808E+03-1.32117E+05-8.37936E+03 3.87837E+03 1.03682E-09 8.57735E-10
 -1       375 7.17498E+03-1.25801E+05-1.59710E+04-8.88942E+02 1.07229E-09 3.31342E-09
 -1       376-5.92095E+05-7.77930E+04-2.37346E+04-2.31030E+05 9.58153E-09 2.44654E-10
 -1       377-6.14110E+05-8.89661E+04-1.63173E+04-2.15030E+05 7.51243E-09 5.05179E-09
 -1       378-5.95677E+05-8.69779E+04-5.52902E+03-2.30274E+05-9.04140E-09 2.15141E-09
 -1       379-6.08071E+05-7.94848E+04-3.36908E+03-2.17181E+05-7.65525E-09-4.24484E-09
 -1       380-5.98111E+05-8.72523E+04-1.42563E+03-2.28879E+05 4.98076E-10 1.07269E-09
 -1       381-6.02473E+05-8.15825E+04-5.32346E+02-2.21364E+05 2.37372E-09-1.75781E-09
 -1       382-6.01305E+05-8.49864E+04-7.20652E+02-2.26058E+05-7.99957E-10-1.77675E-09
 -1       383-5.97029E+05-8.67378E+04-3.27124E+02-2.27395E+05 2.81409E-09-8.66269E-10
 -1       384-6.03577E+05-8.21292E+04-1.11046E+03-2.22844E+05-6.95593E-09 1.59960E-09
 -1       385-5.94240E+05-9.17415E+04-2.21428E+03-2.32402E+05-8.60564E-09-8.33552E-10
 -1       386-6.04072E+05-7.98855E+04-4.00092E+03-2.21083E+05 4.49484E-09 1.60821E-09
 -1       387-5.96426E+05-9.75195E+04-1.07180E+04-2.32777E+05 6.17592E-09-3.17414E-10
 -1       388-6.01372E+05-7.63068E+04-1.73237E+04-2.22480E+05 1.49178E-08 4.01178E-09
 -1       389-6.15779E+05-1.25228E+05-5.08884E+04-2.23577E+05 8.07267E-09 3.67299E-09
 -1       390-5.84755E+05-5.23107E+04-7.39465E+04-2.30241E+05-2.12458E-09 8.94943E-10
 -1       406 1.08502E+03 3.47213E+05 2.21724E+03-3.19658E+04-1.00772E-09 6.01631E-10
 -1       407 6.39230E+02 3.47604E+05 2.45639E+03-3.51493E+04 4.41673E-10 1.04683E-09
 -1       408 9.28998E+02 3.47167E+05 3.85014E+03-3.18435E+04-1.27511E-09-1.03682E-10
 -1       409 3.69977E+03 3.48639E+05 8.14150E+03-3.53221E+04 1.42791E-10-8.84938E-10
 -1       410 1.06842E+04 3.46127E+05 1.63465E+04-3.17849E+04-1.49885E-09 1.32786E-09
 -1       466 1.22810E+06-4.92597E+04 1.14317E+05 7.60506E+03-2.81602E-10-3.15777E-09
 -1       467 1.27956E+06 5.69938E+04 8.11238E+04-1.28143E+04-1.43154E-09 1.37152E-09
 -1       468 1.24803E+06-7.65576E+03 2.96701E+04 2.23649E+03-5.91143E-10 2.91038E-11
 -1       469 1.25638E+06 8.85974E+03 1.86981E+04-5.46979E+03-6.44519E-10-2.58296E-10
 -1       470 1.25127E+06-1.19137E+03 7.74213E+03 2.60858E+02 1.20281E-10 6.49834E-10
 -1       471 1.25262E+06 1.42158E+03 4.78582E+03-2.79656E+03 5.31884E-10 8.20137E-10
 -1       472 1.25179E+06-2.26609E+02 2.67144E+03-4.36782E+02 1.80140E-11 1.12522E-09
 -1       473 1.25216E+06 5.50602E+02 2.73074E+03-1.96450E+03 2.06315E-11-2.41376E-09
 -1       474 1.25173E+06-3.21228E+02 3.53085E+03-5.71221E+02 7.13331E-10 1.27193E-09
 -1       475 1.25305E+06 2.23735E+03 7.26598E+03-2.12216E+03 1.97057E-09 8.47763E-10
 -1       476 1.25090E+06-1.91087E+03 1.22176E+04-2.79107E+02 1.13305E-09 3.20597E-10
 -1       477 1.25893E+06 1.42220E+04 2.98285E+04-3.43292E+03-4.08843E-10 2.30284E-09
 -1       478 1.24583E+06-1.22859E+04 4.75128E+04 7.39563E+02-6.95167E-10 1.13869E-09
 -1       479 1.29482E+06 9.12598E+04 1.29646E+05-7.31740E+03 1.51214E-09-1.68075E-09
 -1       480 1.21499E+06-7.88012E+04 1.83428E+05 3.60506E+03 2.62128E-09-1.49885E-09
 -1       481-9.59763E+03 2.02855E+05 2.24144E+04-1.66816E+03 2.63753E-11 1.16805E-09
 -1       482 1.15223E+04 2.13250E+05 1.66758E+04 3.48172E+03-1.61890E-10 3.54527E-09
 -1       483-1.91674E+03 2.06511E+05 7.29866E+03-1.14360E+03-8.93579E-11 1.53220E-09
 -1       484 4.93535E+03 2.09998E+05 8.03724E+03 2.65349E+03-1.01892E-11-6.78000E-10
 -1       485-3.01548E+03 2.06097E+05 7.64640E+03-8.39928E+02 1.25738E-10-1.54283E-09
 -1       486-1.13795E+06-1.27885E+05-1.08548E+05-4.58929E+05-1.48975E-09-3.31784E-09
 -1       487-1.21940E+06-2.01144E+05-7.49547E+04-4.10164E+05 2.56932E-10 3.79441E-09
 -1       488-1.16412E+06-1.64384E+05-2.57764E+04-4.49026E+05-5.80712E-10 4.19277E-10
 -1       489-1.17919E+06-1.67187E+05-1.49005E+04-4.30791E+05-3.09910E-10 1.26215E-09
 -1       490-1.17797E+06-1.61898E+05-6.61368E+03-4.38196E+05-4.44782E-11 1.00476E-09
 -1       491-1.16038E+06-1.76288E+05-2.83845E+03-4.50750E+05-2.93868E-09 2.33194E-09
 -1       492-1.18297E+06-1.55222E+05-1.66749E+03-4.29115E+05 6.64485E-10-1.51124E-09
 -1       493-1.15602E+06-1.81477E+05-1.12379E+03-4.58281E+05-2.81140E-10-7.70420E-10
 -1       494-1.18243E+06-1.56624E+05-1.66767E+03-4.30741E+05-4.19504E-11 1.61037E-09
 -1       495-1.16327E+06-1.72161E+05-2.16801E+03-4.46145E+05 1.73728E-10-1.15438E-09
 -1       496-1.17558E+06-1.64657E+05-5.74576E+03-4.41141E+05-4.35804E-10-8.95852E-11
 -1       497-1.18333E+06-1.61913E+05-1.26635E+04-4.26544E+05-7.16000E-10-2.67937E-09
 -1       498-1.16240E+06-1.66868E+05-2.17144E+04-4.50355E+05-4.20641E-10-2.94585E-09
 -1       499-1.21566E+06-1.92367E+05-6.35449E+04-4.11022E+05-1.66870E-09-4.42196E-09
 -1       500-1.14340E+06-1.34155E+05-9.21489E+04-4.56754E+05-3.73439E-09 3.68163E-09
 -1       501-3.36744E+05-1.87967E+04 4.36672E+04-3.46956E+02 3.60075E-10-2.91038E-11
 -1       502-3.17429E+05 2.17656E+04 3.09182E+04-8.24749E+02-1.97538E-10 2.15005E-09
 -1       503-3.29431E+05-2.93525E+03 1.12844E+04 3.59456E+02-5.36147E-10-6.96673E-10
 -1       504-3.26009E+05 3.39491E+03 7.11953E+03-2.11599E+03-3.77128E-10 4.68049E-10
 -1       505-3.28176E+05-4.57109E+02 2.87566E+03 9.44328E+02 9.07448E-10-1.77249E-09
 -1       506-3.27518E+05 5.31227E+02 1.69410E+03-3.01872E+03 1.81856E-09-1.90207E-09
 -1       507-3.27930E+05-7.19526E+01 7.56413E+02 1.26220E+03 1.71548E-09-9.80634E-10
 -1       508-3.27792E+05 9.81989E+01 4.69703E+02-3.31555E+03 5.70190E-10-5.77195E-10
 -1       509-3.27905E+05-2.28619E+01 3.05805E+02 1.24117E+03 1.65864E-09-1.54526E-09
 -1       510-3.27736E+05 1.06141E+02 3.96473E+02-2.93920E+03 1.17182E-09-6.25860E-10
 -1       511-3.27983E+05-8.21830E+01 5.30346E+02 8.85841E+02 3.48152E-10 1.81760E-09
 -1       512-3.27392E+05 5.90704E+02 1.27897E+03-1.97313E+03 6.66915E-10-4.35136E-10
 -1       513-3.28243E+05-5.11161E+02 1.93823E+03 2.75084E+02 3.62377E-11-1.59423E-09
 -1       514-3.25854E+05 3.76503E+03 5.37955E+03-6.33598E+02-6.92623E-10-7.63464E-10
 -1       515-3.29516E+05-3.25364E+03 7.51125E+03-4.53712E+02-1.65613E-10 1.07275E-09
 -1       516-4.21860E+04 2.56484E+05 9.92841E+04 1.63118E+03-3.96540E-10 4.17302E-09
 -1       517 5.18506E+04 3.00864E+05 7.54787E+04-9.49866E+03-1.14596E-10 5.57237E-09
 -1       518-9.54279E+03 2.71657E+05 3.63837E+04 1.09695E+03-1.11504E-09 3.01589E-09
 -1       519 3.01446E+04 2.90632E+05 4.70826E+04-9.09508E+03 3.54703E-10 6.81864E-10
 -1       520-2.05159E+04 2.66701E+05 5.04464E+04 1.22762E+03-9.76797E-10-3.47903E-09
 -1       521-2.34711E+06-3.00210E+05-1.64777E+05-9.06960E+05 5.42059E-10-1.70257E-09
 -1       522-2.39677E+06-4.16010E+05-1.03985E+05-9.16465E+05 3.49360E-10 1.35333E-09
 -1       523-2.37633E+06-3.36994E+05-3.88685E+04-9.01927E+05-6.96730E-10 3.34694E-10
 -1       524-2.36282E+06-3.68464E+05-2.13560E+04-9.25223E+05-1.06661E-09 1.71121E-09
 -1       525-2.38013E+06-3.40471E+05-9.04193E+03-9.00996E+05 3.34012E-10 1.29012E-09
 -1       526-2.35839E+06-3.64087E+05-4.79745E+03-9.26767E+05 2.03636E-09-1.67614E-09
 -1       527-2.38078E+06-3.40645E+05-2.47249E+03-9.00705E+05-1.30967E-09 1.56507E-09
 -1       528-2.35780E+06-3.63803E+05-1.97191E+03-9.27059E+05-4.69662E-09 3.09740E-09
 -1       529-2.38074E+06-3.40687E+05-2.39668E+03-9.00745E+05-3.53714E-09 2.53817E-09
 -1       530-2.35849E+06-3.63919E+05-4.58449E+03-9.26592E+05-7.46422E-09-1.60071E-10
 -1       531-2.38004E+06-3.40610E+05-8.61336E+03-9.01114E+05-3.14958E-09 1.47793E-09
 -1       532-2.36287E+06-3.67911E+05-2.03171E+04-9.24908E+05 2.79670E-11 1.61526E-09
 -1       533-2.37633E+06-3.37403E+05-3.69770E+04-9.02103E+05-7.05654E-10-1.34787E-09
 -1       534-2.39534E+06-4.12933E+05-9.89029E+04-9.16335E+05 7.20320E-10-5.49335E-10
 -1       535-2.34842E+06-3.02532E+05-1.56737E+05-9.07010E+05-2.07365E-10 1.86265E-09
 -1       536 5.57694E+04-1.01331E+04 4.36290E+04-6.06176E+03 3.80169E-10-2.92857E-10
 -1       537 7.16771E+04 1.36287E+04 2.79595E+04-2.36613E+04-2.15005E-09 1.21372E-09
 -1       538 6.23322E+04-1.07695E+03 1.12907E+04-5.99543E+03-9.09495E-11 2.06001E-09
 -1       539 6.42509E+04 1.31179E+03 6.30798E+03-2.37177E+04 1.27579E-09 1.19496E-09
 -1       540 6.30622E+04-1.32146E+02 2.84564E+03-6.00160E+03-5.32054E-11 3.31738E-10
 -1       541 6.33395E+04 1.21644E+02 1.50426E+03-2.37016E+04-1.20053E-10 7.81256E-10
 -1       542 6.31484E+04-1.86903E+01 7.09878E+02-6.01164E+03-2.69438E-10-2.45177E-09
 -1       543 6.31844E+04 2.02853E+01 3.66569E+02-2.36862E+04-1.42791E-10-2.63481E-09
 -1       544 6.31581E+04 9.39648E-01 1.74863E+02-6.01701E+03 1.97588E-10-1.41824E-09
 -1       545 6.31489E+04 1.54434E+01 8.50337E+01-2.36801E+04-3.41345E-11 4.57567E-09
 -1       546 6.31606E+04 3.93335E+00 3.27325E+01-6.01778E+03-6.76437E-11 2.18006E-09
 -1       547 6.31510E+04 5.84212E+00-2.97274E+00-2.36801E+04-4.74529E-10-2.10537E-09
 -1       548 6.31685E+04 1.78232E+00-3.85306E+01-6.01704E+03-4.03816E-10-2.09985E-09
 -1       549 6.31558E+04-5.80400E+01-1.09514E+02-2.36420E+04-8.10587E-11 1.30672E-09
 -1       550 6.32043E+04 2.46498E+01-1.89202E+02-6.05581E+03-1.22327E-10-1.18462E-10
 -1       551 1.04488E+04-2.30531E+05 2.20778E+04-3.53207E+05 2.89765E-09-3.29237E-10
 -1       552 5.24379E+03-2.26904E+05 1.74059E+04-4.13278E+05 2.60843E-09-1.72804E-11
 -1       553 3.43306E+03-2.30162E+05 2.02415E+04-3.52616E+05 2.75759E-09 2.27237E-09
 -1       554 1.30646E+04-2.22534E+05 3.80139E+04-4.13378E+05 2.21917E-09 9.32232E-10
 -1       555 3.56971E+04-2.35316E+05 7.20940E+04-3.53048E+05 2.90856E-09-1.48793E-09
 -1       556-1.68449E+05-9.02277E+04 1.44656E+04-1.60968E+05 1.18052E-09 2.04818E-09
 -1       557-1.54850E+05-1.05037E+05 7.11720E+03-1.71667E+05 2.89219E-10 1.49885E-09
 -1       558-1.68794E+05-9.50214E+04 2.98581E+03-1.58118E+05-5.82077E-10 9.18590E-11
 -1       559-1.56223E+05-1.07407E+05 1.46785E+03-1.72208E+05 3.21961E-10 2.06614E-09
 -1       560-1.69000E+05-9.50416E+04 6.48359E+02-1.58111E+05 2.73940E-09 5.72936E-09
 -1       561-1.56536E+05-1.07433E+05 3.06968E+02-1.72435E+05 3.67436E-10-6.71463E-10
 -1       562-1.69157E+05-9.49333E+04 1.04465E+02-1.58215E+05-4.78394E-10-8.89031E-10
 -1       563-1.56696E+05-1.07364E+05-1.45925E+01-1.72550E+05 2.19370E-09 5.26711E-09
 -1       564-1.69244E+05-9.48683E+04-1.54848E+02-1.58278E+05 3.27418E-11 3.74939E-09
 -1       565-1.56785E+05-1.07331E+05-3.89437E+02-1.72604E+05 1.26875E-10-4.94765E-10
 -1       566-1.69242E+05-9.48421E+04-8.32284E+02-1.58292E+05-3.04465E-09 2.11912E-09
 -1       567-1.56931E+05-1.07419E+05-1.84122E+03-1.72584E+05-1.09869E-08-3.97085E-09
 -1       568-1.69086E+05-9.51384E+04-3.78787E+03-1.58137E+05 6.87578E-10 1.15688E-09
 -1       569-1.58970E+05-1.09737E+05-8.93495E+03-1.71960E+05 1.04269E-08 4.37285E-09
 -1       570-1.68260E+05-1.02149E+05-1.82440E+04-1.55169E+05 1.06775E-09-3.16140E-09
 -1       571 2.20620E+05 1.09181E+04 1.67541E+04-5.72590E+04 4.42924E-10-4.16094E-11
 -1       572 2.23180E+05 3.72096E+03 8.23019E+03-6.31214E+04 1.54159E-10-1.19599E-09
 -1       573 2.21652E+05 8.29387E+02 3.66171E+03-5.71002E+04-5.63887E-10 1.72076E-09
 -1       574 2.21950E+05 2.56776E+02 1.83889E+03-6.32949E+04-7.05768E-10 1.37470E-09
 -1       575 2.21760E+05 2.06470E+01 8.70178E+02-5.70803E+04-6.45741E-11-1.39153E-10
 -1       576 2.21788E+05-8.56908E-01 4.45059E+02-6.33173E+04 6.81553E-11 2.02044E-09
 -1       577 2.21776E+05-1.47165E+01 2.22818E+02-5.70777E+04-1.36993E-10 7.28051E-10
 -1       578 2.21773E+05-1.15008E+01 1.27825E+02-6.33201E+04 1.49794E-09-1.09139E-10
 -1       579 2.21794E+05-1.74500E+01 8.97788E+01-5.70776E+04 1.81399E-09-4.60659E-10
 -1       580 2.21799E+05-2.07588E+01 1.02760E+02-6.33170E+04 1.92813E-09 2.69074E-09
 -1       581 2.21824E+05-2.75092E+01 1.60535E+02-5.70807E+04 7.61247E-10 1.92767E-09
 -1       582 2.21870E+05 5.72303E-01 3.20072E+02-6.32833E+04-6.78483E-10-3.53157E-09
 -1       583 2.21853E+05 8.34912E+01 6.23907E+02-5.71113E+04-1.45337E-09-2.66255E-10
 -1       584 2.22139E+05 5.61057E+02 1.40005E+03-6.30199E+04-2.69938E-09-1.88606E-09
 -1       585 2.21732E+05 1.77368E+03 2.84216E+03-5.73457E+04-5.18412E-11-9.16771E-10
 -1       586 1.84868E+03 8.92585E+04 3.29620E+03-1.46610E+05 3.96540E-10 9.84983E-10
 -1       587 1.02831E+03 8.97975E+04 3.13096E+03-1.62077E+05 4.62933E-10-4.34284E-11
 -1       588 1.18948E+03 8.92091E+04 4.43144E+03-1.46424E+05 3.48336E-10 2.00134E-09
 -1       589 4.22521E+03 9.08768E+04 9.06752E+03-1.62121E+05 5.98448E-10-4.54747E-11
 -1       590 1.18747E+04 8.81213E+04 1.80509E+04-1.46562E+05 3.83807E-10-5.38876E-10
 -1       591-1.02701E+05-3.56131E+04-1.92860E+04-5.35470E+04-3.59830E-09 1.93540E-09
 -1       592-1.03213E+05-3.32912E+04-9.45385E+03-5.93708E+04-5.30645E-09 7.96786E-09
 -1       593-1.03264E+05-2.84340E+04-4.01104E+03-5.68208E+04-4.30805E-09 1.51090E-09
 -1       594-1.01156E+05-3.06814E+04-1.96203E+03-5.97303E+04-1.64528E-09-6.72884E-11
 -1       595-1.03358E+05-2.81658E+04-9.03654E+02-5.69692E+04-9.19044E-10-1.43558E-09
 -1       596-1.01001E+05-3.05773E+04-4.59254E+02-5.97189E+04-2.98769E-10-2.12981E-09
 -1       597-1.03376E+05-2.81784E+04-2.52014E+02-5.69707E+04-3.64196E-10-2.92448E-09
 -1       598-1.00986E+05-3.05785E+04-2.05321E+02-5.97125E+04-1.32786E-10-2.98041E-09
 -1       599-1.03374E+05-2.81787E+04-2.65267E+02-5.69698E+04-2.60343E-11-2.66323E-09
 -1       600-1.01000E+05-3.05786E+04-4.94388E+02-5.97172E+04-1.81899E-10-1.18689E-10
 -1       601-1.03350E+05-2.81661E+04-9.78043E+02-5.69662E+04 1.09571E-09 6.47287E-09
 -1       602-1.01167E+05-3.06912E+04-2.12709E+03-5.97252E+04-4.32192E-09-6.94035E-09
 -1       603-1.03244E+05-2.84608E+04-4.34940E+03-5.68055E+04-1.51931E-09 9.99535E-10
 -1       604-1.03410E+05-3.35057E+04-1.02513E+04-5.93147E+04-1.16142E-09-2.46291E-09
 -1       605-1.02616E+05-3.62574E+04-2.09120E+04-5.32692E+04 1.20508E-10 2.07365E-10
 -1       606 7.11701E+04-8.72754E+03-1.33679E+04 2.09363E+04-4.52019E-09-4.09273E-12
 -1       607 6.90911E+04-2.97439E+03-6.56465E+03 2.28612E+04-1.65301E-09-1.37697E-09
 -1       608 7.03053E+04-6.61765E+02-2.92094E+03 2.07943E+04 2.56750E-09-8.21160E-10
 -1       609 7.00288E+04-1.90408E+02-1.46425E+03 2.30168E+04-2.00453E-09-1.24601E-09
 -1       610 7.01880E+04 8.45609E-01-6.91157E+02 2.07762E+04-4.44106E-09-8.36962E-10
 -1       611 7.01333E+04 2.82965E+01-3.48106E+02 2.30365E+04-8.88940E-09-4.12228E-10
 -1       612 7.01611E+04 3.67843E+01-1.65784E+02 2.07741E+04-5.18776E-09 1.87470E-09
 -1       613 7.01399E+04 3.93753E+01-7.71437E+01 2.30390E+04-7.28187E-09 2.55113E-10
 -1       614 7.01487E+04 3.57176E+01-2.43833E+01 2.07736E+04-2.02044E-09 2.23508E-09
 -1       615 7.01362E+04 4.13919E+01 1.60326E+01 2.30392E+04 5.52768E-09 4.94947E-09
 -1       616 7.01396E+04 4.01636E+01 6.34173E+01 2.07738E+04-1.15347E-08 1.99589E-09
 -1       617 7.01434E+04 6.61475E+01 1.51642E+02 2.30385E+04-1.82290E-08 1.17643E-09
 -1       618 7.01239E+04 1.12162E+02 3.10249E+02 2.07742E+04-9.85551E-09 1.32763E-09
 -1       619 7.02422E+04 3.65204E+02 7.02089E+02 2.30356E+04 2.20155E-10 4.72255E-10
 -1       620 7.00305E+04 9.76857E+02 1.43151E+03 2.07755E+04 4.61569E-11-1.07639E-09
 -1       621 1.76910E+03 2.29912E+05 4.29843E+03-2.17324E+04 1.89607E-09-3.31283E-10
 -1       622 6.77103E+02 2.30723E+05 3.51003E+03-2.55283E+04 4.15412E-10-2.58069E-09
 -1       623 3.94100E+02 2.30097E+05 4.26322E+03-2.17543E+04 1.72190E-09-2.28738E-10
 -1       624 2.41830E+03 2.31756E+05 8.15988E+03-2.54207E+04 1.04274E-09-9.04492E-10
 -1       625 7.42265E+03 2.28904E+05 1.55773E+04-2.18383E+04 1.38971E-09 8.82210E-10
 -1       626 1.00284E+05 3.29554E+04-5.92323E+03 6.83941E+04-1.23964E-09 1.24328E-09
 -1       627 9.75046E+04 3.71722E+04-2.81004E+03 6.96855E+04-1.02318E-09 6.41251E-10
 -1       628 1.00412E+05 3.58631E+04-1.18085E+03 6.69730E+04-5.66615E-10 1.39903E-09
 -1       629 9.79428E+04 3.83739E+04-5.66775E+02 6.95813E+04-2.47564E-09-1.10076E-09
 -1       630 1.00399E+05 3.60633E+04-2.50216E+02 6.68565E+04-2.06455E-10-3.40918E-10
 -1       631 9.79714E+04 3.84629E+04-1.12130E+02 6.95801E+04-2.13640E-09-1.27591E-09
 -1       632 1.00385E+05 3.60708E+04-3.17064E+01 6.68449E+04-1.87947E-09-1.54500E-10
 -1       633 9.79708E+04 3.84679E+04 2.68783E+01 6.95799E+04-8.54016E-10-7.01277E-10
 -1       634 1.00375E+05 3.60660E+04 9.92237E+01 6.68425E+04-1.53523E-09-8.98171E-09
 -1       635 9.79815E+04 3.84709E+04 2.36971E+02 6.95819E+04-1.60480E-09 1.67597E-09
 -1       636 1.00363E+05 3.60766E+04 4.96967E+02 6.68344E+04-4.09597E-09 1.83331E-09
 -1       637 9.80996E+04 3.86044E+04 1.11228E+03 6.95615E+04-6.46872E-09-2.80806E-10
 -1       638 1.00337E+05 3.64798E+04 2.30597E+03 6.66582E+04-1.92222E-09 6.36192E-10
 -1       639 9.92740E+04 4.06526E+04 5.48751E+03 6.90611E+04-1.22150E-08-6.55382E-09
 -1       640 1.00388E+05 4.24024E+04 1.15659E+04 6.41946E+04-4.62319E-09 1.66665E-10
 -1       641 2.10231E+03 2.11564E+03-4.92324E+03-1.19133E+02-5.71270E-09-1.62640E-09
 -1       642-1.60017E+01-2.44931E+03-3.47432E+03 5.08403E+02-2.46212E-09 1.93495E-09
 -1       643 1.28306E+03 3.29657E+02-1.26973E+03-1.17895E+02-7.15614E-09-3.20028E-11
 -1       644 9.36588E+02-3.79932E+02-7.87270E+02 5.06739E+02 5.42821E-09-1.23316E-09
 -1       645 1.14938E+03 5.02667E+01-3.04491E+02-1.17473E+02-1.55165E-09-1.59467E-09
 -1       646 1.09463E+03-5.24904E+01-1.44816E+02 5.06113E+02-1.44506E-07 4.72866E-11
 -1       647 1.12485E+03 2.88557E+00-1.15869E+00-1.17269E+02-1.91777E-05 2.54739E-08
 -1       648 1.13853E+03 2.80969E+01 1.32186E+02 5.05900E+02-3.81074E-05 5.36716E-08
 -1       649 1.10542E+03-3.01760E+01 3.01262E+02-1.17261E+02-1.91739E-05 2.75017E-08
 -1       650 1.24906E+03 2.33037E+02 7.28786E+02 5.05934E+02-1.33137E-07 2.64811E-09
 -1       651 1.01438E+03-2.01801E+02 1.27077E+03-1.17304E+02-1.67386E-09 7.51470E-11
 -1       652 1.87401E+03 1.50392E+03 3.13926E+03 5.05738E+02 2.67804E-09 1.01392E-09
 -1       653 4.80674E+02-1.29902E+03 5.00981E+03-1.17067E+02-5.17838E-09-3.79032E-10
 -1       654 5.64569E+03 9.64349E+03 1.36851E+04 5.03087E+02-3.57062E-09-3.92902E-10
 -1       655-2.75651E+03-8.32653E+03 1.93647E+04-1.14666E+02 1.23186E-09-2.43290E-09
 -1       656 6.89907E+03-2.62834E+05-3.10565E+04 7.44083E+03 7.26504E-09 1.82740E-09
 -1       657-1.02006E+04-2.74148E+05-2.26188E+04 2.85112E+04 6.96957E-09 3.46517E-10
 -1       658 1.32112E+03-2.66868E+05-1.43689E+04 7.38330E+03 7.67962E-09 2.06524E-09
 -1       659-9.29026E+03-2.73626E+05-2.10141E+04 2.85475E+04 6.01221E-09 2.51150E-10
 -1       660 6.17912E+03-2.63377E+05-2.80167E+04 7.40508E+03 5.89262E-09-9.11086E-10
 -1       661 2.59234E+05 3.30985E+04 2.12265E+04 1.01313E+05 2.57819E-09-3.25872E-09
 -1       662 2.64209E+05 4.94565E+04 1.33972E+04 1.04212E+05-1.45255E-09-8.13998E-10
 -1       663 2.62889E+05 3.79442E+04 5.01263E+03 1.00794E+05 9.04947E-11-2.02363E-10
 -1       664 2.60007E+05 4.31621E+04 2.76083E+03 1.05107E+05-8.43579E-09-1.01039E-09
 -1       665 2.63300E+05 3.84735E+04 1.17559E+03 1.00760E+05-7.48855E-09 8.76526E-11
 -1       666 2.59536E+05 4.24917E+04 6.38948E+02 1.05167E+05-5.11011E-09-1.41877E-09
 -1       667 2.63345E+05 3.85350E+04 3.57122E+02 1.00763E+05 3.30022E-09 4.59728E-09
 -1       668 2.59492E+05 4.24295E+04 3.36288E+02 1.05165E+05-8.10377E-09-1.98722E-09
 -1       669 2.63341E+05 3.85310E+04 4.72020E+02 1.00763E+05-5.46926E-09 3.12099E-09
 -1       670 2.59575E+05 4.25357E+04 9.57349E+02 1.05166E+05 2.47550E-09 7.36281E-09
 -1       671 2.63265E+05 3.84363E+04 1.81982E+03 1.00761E+05-6.07946E-09-1.44041E-10
 -1       672 2.60321E+05 4.35800E+04 4.31052E+03 1.05066E+05 4.13957E-09-7.10543E-11
 -1       673 2.62617E+05 3.76122E+04 7.83874E+03 1.00817E+05 4.03911E-09-4.72937E-10
 -1       674 2.66900E+05 5.34251E+04 2.09609E+04 1.03658E+05-2.91882E-09-3.79441E-09
 -1       675 2.56896E+05 3.00322E+04 3.32135E+04 1.01630E+05-2.70620E-09-3.96540E-10
 -1       676 6.93580E+02-2.48520E+05-3.61231E+03 1.92624E+02 7.22878E-09-3.75412E-10
 -1       677-1.36811E+03-2.49900E+05-3.91460E+03 5.43565E+01-9.09438E-10-7.03628E-10
 -1       678 4.30164E+02-2.48685E+05-4.64437E+03 1.92231E+02 4.13706E-09-9.80052E-11
 -1       679-4.90539E+03-2.52002E+05-1.01891E+04 5.40746E+01-1.59855E-09 1.90276E-09
 -1       680 3.54344E+03-2.46419E+05-1.54804E+04 1.92253E+02 8.92396E-09 1.21290E-11
 -1       681 4.13528E+05-1.08547E+04 2.52154E+04 1.13606E+03-5.58487E-11-6.91216E-11
 -1       682 4.24626E+05 1.25665E+04 1.78597E+04-3.12606E+03 1.86503E-10 2.92857E-10
 -1       683 4.17808E+05-1.69186E+03 6.54123E+03 5.13216E+02 1.35771E-10 4.36557E-10
 -1       684 4.19633E+05 1.95956E+03 4.13009E+03-2.19650E+03-2.18392E-10 5.29724E-10
 -1       685 4.18519E+05-2.64259E+02 1.72328E+03 2.06513E+02-4.34746E-11 5.13978E-10
 -1       686 4.18809E+05 3.20076E+02 1.09378E+03-1.79807E+03 1.72925E-10 6.64798E-10
 -1       687 4.18632E+05-5.42560E+01 6.62649E+02 1.14777E+02-5.63151E-10 1.42527E-09
 -1       688 4.18727E+05 1.54428E+02 7.65176E+02-1.80092E+03-8.81652E-10 8.34802E-10
 -1       689 4.18601E+05-9.88932E+01 1.07362E+03 2.09358E+02-3.83736E-10 6.68763E-10
 -1       690 4.19044E+05 7.06000E+02 2.28744E+03-2.20567E+03-2.42480E-10 1.47384E-09
 -1       691 4.18316E+05-6.05963E+02 3.86428E+03 5.19543E+02 1.55893E-10 3.47654E-10
 -1       692 4.20995E+05 4.51711E+03 9.49029E+03-3.13888E+03 5.30363E-10-9.61791E-11
 -1       693 4.16653E+05-3.90663E+03 1.50772E+04 1.14258E+03-2.01396E-10-4.24734E-10
 -1       694 4.32604E+05 2.90271E+04 4.12669E+04-4.92485E+03-1.14727E-09-6.02085E-10
 -1       695 4.06716E+05-2.50790E+04 5.82360E+04 2.30544E+03-4.32919E-10-1.61890E-09
 -1       696-8.71109E+03 3.60645E+05 1.99593E+04 3.39993E+02 7.00311E-11-6.05411E-10
 -1       697 9.44637E+03 3.69079E+05 1.29195E+04-3.34746E+03 7.91260E-11-7.87374E-10
 -1       698-7.13084E+02 3.64358E+05 2.71937E+03 2.08050E+02-1.84173E-10 6.97090E-10
 -1       699-3.31153E+03 3.63174E+05-3.75851E+03-3.38605E+03-2.11003E-10 2.00697E-09
 -1       700 4.02321E+03 3.66554E+05-8.77334E+03 3.78559E+02-1.28239E-10 6.08580E-10
 -1       701-3.78532E+05-3.49407E+04-4.85191E+04-1.51117E+05-4.41105E-10-1.51340E-09
 -1       702-4.05571E+05-7.78637E+04-3.36537E+04-1.41018E+05-2.72053E-10-5.10681E-10
 -1       703-3.88419E+05-5.23355E+04-1.13784E+04-1.47842E+05 4.65661E-10-2.65572E-10
 -1       704-3.93898E+05-5.78859E+04-7.10054E+03-1.44982E+05 3.16021E-10-1.03989E-09
 -1       705-3.90197E+05-5.48894E+04-2.66783E+03-1.47162E+05 5.66558E-10-1.11413E-11
 -1       706-3.91564E+05-5.52000E+04-1.58160E+03-1.46060E+05-7.23702E-10-1.59849E-09
 -1       707-3.90749E+05-5.50176E+04-7.45229E+02-1.46764E+05-3.75150E-10-7.71649E-11
 -1       708-3.90703E+05-5.53815E+04-6.40264E+02-1.46816E+05-6.14978E-10 1.33457E-09
 -1       709-3.91057E+05-5.47074E+04-7.29231E+02-1.46406E+05-6.02142E-10-4.17472E-10
 -1       710-3.90429E+05-5.63227E+04-1.53847E+03-1.47372E+05 4.71289E-10-9.84812E-12
 -1       711-3.91025E+05-5.40764E+04-2.58229E+03-1.46209E+05-8.03766E-11 3.94834E-10
 -1       712-3.91946E+05-5.96614E+04-6.87680E+03-1.47175E+05-5.85629E-10 1.12607E-09
 -1       713-3.89543E+05-5.13724E+04-1.10141E+04-1.46602E+05-2.50338E-10-5.02496E-10
 -1       714-4.03108E+05-7.91169E+04-3.25752E+04-1.43469E+05-4.31100E-10-6.82576E-10
 -1       715-3.79870E+05-3.46500E+04-4.69680E+04-1.49905E+05-1.48248E-10 7.82165E-11
 -1       716 8.80768E+04-1.27680E+04 2.95380E+04 1.29351E+03 1.73748E-09-3.65617E-10
 -1       717 1.01837E+05 1.47688E+04 2.10492E+04-4.34513E+03 4.49631E-10-4.94765E-10
 -1       718 9.32307E+04-1.98999E+03 7.65268E+03 9.59704E+02-9.59801E-11 6.95309E-10
 -1       719 9.57455E+04 2.30096E+03 4.89535E+03-3.80738E+03-3.19702E-10-1.26249E-10
 -1       720 9.41508E+04-3.11043E+02 2.03288E+03 7.55766E+02 9.60696E-10 1.02921E-09
 -1       721 9.46421E+04 3.82660E+02 1.34076E+03-3.49792E+03 1.89868E-09 3.40009E-10
 -1       722 9.43250E+04-6.84427E+01 8.62741E+02 6.50237E+02 1.54232E-09 9.65770E-10
 -1       723 9.45051E+04 2.23385E+02 1.08859E+03-3.37682E+03 3.51896E-10 1.57053E-09
 -1       724 9.42844E+04-1.49676E+02 1.60702E+03 6.34672E+02 1.66854E-09 1.09208E-09
 -1       725 9.49890E+04 1.08524E+03 3.48061E+03-3.43453E+03 1.60031E-09 1.19735E-09
 -1       726 9.38426E+04-9.30131E+02 5.90684E+03 7.07946E+02 9.99322E-10 4.27463E-11
 -1       727 9.79734E+04 6.92963E+03 1.45257E+04-3.67796E+03 1.30755E-09 1.07889E-09
 -1       728 9.13069E+04-5.98895E+03 2.30868E+04 8.78108E+02 2.32461E-10 2.07365E-10
 -1       729 1.15602E+05 4.44636E+04 6.31662E+04-4.17207E+03 4.91127E-10-9.45874E-11
 -1       730 7.62372E+04-3.84021E+04 8.92336E+04 1.20196E+03 9.85551E-10-8.58563E-10
 -1       731-1.51308E+04 1.49173E+05 3.52186E+04-8.40435E+02-7.85803E-10-1.54196E-09
 -1       732 1.77486E+04 1.64909E+05 2.53375E+04 1.62902E+03 4.26553E-10-4.68617E-10
 -1       733-2.59282E+03 1.54994E+05 9.85737E+03-4.68883E+02-4.48381E-10 7.69717E-10
 -1       734 4.49230E+03 1.58681E+05 7.99653E+03 9.69532E+02 2.96836E-10 1.05686E-09
 -1       735-1.89602E+03 1.55395E+05 5.39199E+03-1.80988E+02-2.32149E-10 1.47196E-10
 -1       736-8.53802E+05-9.89378E+04-6.32494E+04-3.35713E+05-6.37556E-10-1.96451E-10
 -1       737-8.93503E+05-1.49353E+05-4.36847E+04-3.16115E+05 1.67711E-09-6.43922E-10
 -1       738-8.69724E+05-1.19085E+05-1.49546E+04-3.28605E+05-3.52202E-10-6.20275E-10
 -1       739-8.72599E+05-1.28770E+05-9.03897E+03-3.27483E+05 8.35229E-10 3.10479E-10
 -1       740-8.74674E+05-1.19490E+05-3.54932E+03-3.24344E+05 1.71127E-09 2.94767E-09
 -1       741-8.66305E+05-1.29295E+05-1.99396E+03-3.33616E+05 2.72338E-09 5.15334E-09
 -1       742-8.76040E+05-1.18530E+05-9.42509E+02-3.22495E+05 5.59290E-10-1.91102E-09
 -1       743-8.65844E+05-1.28929E+05-7.57852E+02-3.33929E+05-1.63862E-09 2.46821E-09
 -1       744-8.75137E+05-1.19854E+05-9.59612E+02-3.24033E+05-5.92740E-09-3.28691E-09
 -1       745-8.69782E+05-1.25024E+05-1.67288E+03-3.28720E+05-1.86291E-09-8.00242E-10
 -1       746-8.72074E+05-1.22458E+05-3.25602E+03-3.27681E+05-7.82286E-10-1.45496E-09
 -1       747-8.77834E+05-1.23001E+05-8.15228E+03-3.21555E+05 1.43490E-09-5.72868E-10
 -1       748-8.67097E+05-1.21878E+05-1.33520E+04-3.31203E+05 2.16323E-09 2.41562E-09
 -1       749-8.94999E+05-1.43513E+05-3.93543E+04-3.13729E+05 7.46695E-10 3.60069E-09
 -1       750-8.54955E+05-1.01960E+05-5.68095E+04-3.35521E+05-1.10049E-10 2.88128E-09
 -1       751 2.00106E+06-1.12713E+05 2.62623E+05 5.41944E+03-1.36611E-08-3.20142E-10
 -1       752 2.11493E+06 1.30550E+05 1.85519E+05-7.13511E+03-2.75733E-09-1.42245E-09
 -1       753 2.04509E+06-1.75777E+04 6.80435E+04 1.40589E+03-6.12467E-10 1.20417E-09
 -1       754 2.06376E+06 2.03486E+04 4.27155E+04-2.03378E+03 2.38958E-09 3.24053E-09
 -1       755 2.05233E+06-2.73626E+03 1.75267E+04 3.18801E+02 1.77337E-10 1.31877E-10
 -1       756 2.05538E+06 3.20762E+03 1.04630E+04-6.48657E+02-6.53138E-10 6.19366E-10
 -1       757 2.05352E+06-4.66937E+02 5.16260E+03 2.07684E+01-1.20321E-09-1.30808E-09
 -1       758 2.05414E+06 8.34262E+02 4.13991E+03-2.82963E+02 2.58176E-11-1.11817E-09
 -1       759 2.05358E+06-3.66518E+02 4.23852E+03-4.68998E+01-4.81884E-10-5.83782E-10
 -1       760 2.05491E+06 2.34009E+03 7.79617E+03-2.52000E+02-5.64711E-10 1.85707E-09
 -1       761 2.05274E+06-1.97036E+03 1.27170E+04-1.01942E+01 3.82190E-09-8.82210E-11
 -1       762 2.06090E+06 1.46213E+04 3.07383E+04-4.98617E+02 1.59721E-09 4.43833E-10
 -1       763 2.04756E+06-1.26260E+04 4.88861E+04 1.99720E+02 4.11855E-09 2.49565E-09
 -1       764 2.09748E+06 9.37345E+04 1.33185E+05-1.49798E+03 7.52356E-10 2.01544E-09
 -1       765 2.01606E+06-8.09248E+04 1.88543E+05 9.89085E+02-9.67660E-10-9.38599E-10
 -1       766-4.85880E+04 3.26398E+05 1.14618E+05-3.03429E+03-2.38651E-09 6.13340E-11
 -1       767 6.00817E+04 3.77666E+05 8.78304E+04 1.01759E+04-8.27640E-11 4.41375E-10
 -1       768-1.13908E+04 3.43627E+05 4.34949E+04-2.46031E+03-1.36879E-09 8.54112E-11
 -1       769 3.77795E+04 3.67335E+05 5.86726E+04 1.01419E+04 1.91903E-10 1.86115E-09
 -1       770-2.63301E+04 3.36723E+05 6.43566E+04-3.00043E+03-3.73620E-09 3.39568E-09
 -1       771-1.10782E+06-2.24726E+05-3.97783E+04-4.79539E+05-4.49290E-10-5.23869E-10
 -1       772-1.10518E+06-2.23444E+05-1.94777E+04-4.95576E+05-1.51522E-09-1.04137E-09
 -1       773-1.10939E+06-2.09616E+05-8.28502E+03-4.86085E+05-3.20142E-09-7.24503E-09
 -1       774-1.10083E+06-2.18324E+05-4.04154E+03-4.96820E+05 8.58563E-10-7.31234E-10
 -1       775-1.10977E+06-2.08932E+05-1.87186E+03-4.86441E+05 2.25555E-10-1.76442E-10
 -1       776-1.10062E+06-2.18098E+05-9.42529E+02-4.96974E+05 4.38013E-09 5.26586E-09
 -1       777-1.10995E+06-2.08876E+05-5.16322E+02-4.86507E+05 4.72937E-10-1.07570E-09
 -1       778-1.10068E+06-2.18070E+05-3.99885E+02-4.97072E+05-3.02862E-10-7.55676E-10
 -1       779-1.11005E+06-2.08819E+05-5.04590E+02-4.86553E+05 3.63798E-11-4.22460E-10
 -1       780-1.10077E+06-2.18049E+05-9.21248E+02-4.97155E+05 6.54836E-11-3.20142E-10
 -1       781-1.11007E+06-2.08759E+05-1.81993E+03-4.86575E+05 5.97538E-10 2.53294E-10
 -1       782-1.10112E+06-2.18250E+05-3.95640E+03-4.97210E+05 2.07365E-10-1.95541E-10
 -1       783-1.10989E+06-2.09293E+05-8.09344E+03-4.86285E+05-6.36987E-10-8.19455E-10
 -1       784-1.10528E+06-2.23515E+05-1.90886E+04-4.96474E+05 1.18234E-11 4.45652E-11
 -1       785-1.10873E+06-2.23802E+05-3.89479E+04-4.79679E+05 1.03569E-10 5.45697E-12
 -1       786 2.13747E+05-6.26622E+03 2.72022E+04-1.51541E+03 1.54841E-10 9.36780E-10
 -1       787 2.23545E+05 8.53081E+03 1.74175E+04-6.03505E+03-5.47118E-10 1.42973E-09
 -1       788 2.17847E+05-6.44710E+02 7.04915E+03-1.51043E+03 4.21778E-11 4.18822E-10
 -1       789 2.18976E+05 8.38844E+02 3.93450E+03-6.03355E+03 3.41970E-10-1.58207E-09
 -1       790 2.18311E+05-6.97978E+01 1.79143E+03-1.51643E+03-1.38698E-10-6.64386E-10
 -1       791 2.18450E+05 8.13127E+01 9.62097E+02-6.02471E+03 4.18652E-10 5.57066E-10
 -1       792 2.18371E+05-8.85485E+00 4.95664E+02-1.51926E+03-2.01510E-11-9.08045E-10
 -1       793 2.18385E+05 1.06852E+01 3.33861E+02-6.02275E+03 2.02974E-10 2.32097E-09
 -1       794 2.18376E+05-5.15249E+00 3.15464E+02-1.51840E+03-1.31649E-10 9.18483E-10
 -1       795 2.18407E+05 3.72484E+01 4.87509E+02-6.02846E+03 4.22745E-10 2.53881E-09
 -1       796 2.18350E+05-3.28763E+01 8.46434E+02-1.51355E+03-3.10592E-10-1.25411E-09
 -1       797 2.18650E+05 3.84821E+02 1.82289E+03-6.04044E+03 1.59105E-10-8.70386E-10
 -1       798 2.18137E+05-2.98172E+02 3.25093E+03-1.50643E+03-4.04725E-10-3.20824E-10
 -1       799 2.20756E+05 3.92594E+03 8.02338E+03-6.04263E+03-1.04365E-09-8.52310E-10
 -1       800 2.16249E+05-2.88800E+03 1.25258E+04-1.51162E+03 2.81943E-11-1.63982E-09
 -1       801-7.79809E+03 2.16815E+05 3.11406E+04-1.67832E+05 8.84029E-10 3.99086E-09
 -1       802 1.72450E+04 2.26500E+05 3.21778E+04-6.56226E+05-4.13638E-09 1.98906E-09
 -1       803-1.38955E+03 2.17481E+05 3.38962E+04-1.67382E+05 1.98088E-09 7.19479E-09
 -1       804 3.90440E+04 2.39813E+05 7.10469E+04-6.56188E+05-5.92263E-09-2.86036E-09
 -1       805-2.56059E+04 2.03909E+05 1.04613E+05-1.67877E+05 1.94632E-09 1.29876E-09
 -1       806-2.08202E+05-5.55669E+04-1.77508E+04-9.60759E+04 9.24388E-10 8.89486E-10
 -1       807-2.08284E+05-5.10856E+04-8.42167E+03-1.01506E+05 4.26553E-10 1.61890E-09
 -1       808-2.08109E+05-4.65012E+04-3.54107E+03-9.98989E+04-4.66798E-10 8.49013E-10
 -1       809-2.06531E+05-4.79003E+04-1.71133E+03-1.02241E+05-9.36780E-11-1.26875E-10
 -1       810-2.08153E+05-4.58806E+04-7.73939E+02-1.00178E+05-6.19593E-10-8.88349E-10
 -1       811-2.06359E+05-4.76890E+04-3.88260E+02-1.02271E+05-1.73145E-10-9.86802E-11
 -1       812-2.08167E+05-4.58621E+04-2.03850E+02-1.00191E+05 6.40284E-10-1.26170E-09
 -1       813-2.06341E+05-4.76831E+04-1.52016E+02-1.02267E+05 3.92504E-10-2.28079E-09
 -1       814-2.08166E+05-4.58645E+04-1.78925E+02-1.00189E+05-2.31466E-10-7.98991E-10
 -1       815-2.06352E+05-4.76902E+04-3.22107E+02-1.02267E+05-1.64698E-09 6.50289E-10
 -1       816-2.08150E+05-4.58824E+04-6.31584E+02-1.00177E+05-3.11309E-08-4.00719E-08
 -1       817-2.06492E+05-4.78598E+04-1.39183E+03-1.02234E+05-2.19454E-08-3.22325E-09
 -1       818-2.08107E+05-4.63931E+04-2.87749E+03-9.99520E+04-1.35060E-09 1.30922E-08
 -1       819-2.07944E+05-5.04150E+04-6.84148E+03-1.01595E+05 6.25505E-10-1.13687E-09
 -1       820-2.08147E+05-5.37854E+04-1.44191E+04-9.68766E+04-1.17734E-09 2.66937E-10
 -1       821-2.10840E+05 6.27335E+03-2.72462E+04 1.56981E+03-3.24576E-09 2.91038E-10
 -1       822-2.20644E+05-8.54534E+03-1.74459E+04 6.38089E+03-5.58089E-10 6.00949E-10
 -1       823-2.14949E+05 6.43792E+02-7.06315E+03 1.52763E+03 6.19025E-09-4.93401E-10
 -1       824-2.16078E+05-8.34663E+02-3.94422E+03 6.43761E+03 2.22099E-09-1.68905E-09
 -1       825-2.15415E+05 7.03475E+01-1.80372E+03 1.51258E+03-2.19154E-09-7.53289E-10
 -1       826-2.15560E+05-7.26207E+01-9.81982E+02 6.46209E+03-5.79388E-09 8.00156E-10
 -1       827-2.15475E+05 1.12171E+01-5.33845E+02 1.50305E+03-3.68800E-09 2.63526E-10
 -1       828-2.15503E+05-2.53388E+00-4.11388E+02 6.47719E+03-5.43773E-09-1.39728E-09
 -1       829-2.15477E+05 1.04983E+01-4.66341E+02 1.49746E+03-1.15099E-09-1.08838E-09
 -1       830-2.15549E+05-5.41217E+01-8.04973E+02 6.48372E+03 2.92541E-09-1.38758E-09
 -1       831-2.15431E+05 5.85415E+01-1.45024E+03 1.49651E+03-2.32458E-09-1.70155E-09
 -1       832-2.15966E+05-6.61037E+02-3.15614E+03 6.48088E+03-1.05506E-09-1.50379E-09
 -1       833-2.15059E+05 5.17627E+02-5.64390E+03 1.50040E+03 9.40759E-11 8.75389E-11
 -1       834-2.19617E+05-6.81967E+03-1.39385E+04 6.45829E+03 2.63526E-10-1.74782E-09
 -1       835-2.11778E+05 5.01589E+03-2.17654E+04 1.52000E+03 1.83115E-09-7.30324E-10
 -1       836-1.00281E+04 5.43162E+05 4.59098E+04-1.48234E+04-8.62201E-10 1.25692E-09
 -1       837 1.54156E+04 5.60020E+05 3.56881E+04-5.71153E+04 2.38288E-09 2.95529E-09
 -1       838-2.42233E+03 5.48574E+05 2.64394E+04-1.48131E+04-1.18962E-09 2.46304E-09
 -1       839 2.04271E+04 5.62992E+05 4.45781E+04-5.71102E+04 2.59570E-09 1.09259E-09
 -1       840-1.40586E+04 5.40182E+05 6.27350E+04-1.48281E+04-1.10231E-09 1.87447E-09
 -1       841-2.52745E+04 8.96760E+01-9.48640E+03-1.11767E+04-2.13845E-09-4.62933E-10
 -1       842-3.04854E+04-8.36688E+03-6.57623E+03-9.28030E+03-1.53059E-09-6.41307E-10
 -1       843-2.71975E+04-3.31829E+03-2.22294E+03-1.05463E+04 2.12640E-09 2.76589E-09
 -1       844-2.82578E+04-4.41441E+03-1.38275E+03-1.00021E+04 2.28633E-09-1.05808E-09
 -1       845-2.75015E+04-3.85689E+03-5.10384E+02-1.04573E+04 1.26818E-10-5.82872E-10
 -1       846-2.79072E+04-3.78581E+03-2.85840E+02-1.01009E+04-3.38922E-09-8.94474E-10
 -1       847-2.75481E+04-3.94597E+03-9.68437E+01-1.04479E+04-3.08647E-09-1.17673E-10
 -1       848-2.78479E+04-3.67125E+03-1.31276E+01-1.01116E+04-2.28457E-09 9.71969E-11
 -1       849-2.75609E+04-3.97127E+03 6.72973E+01-1.04467E+04 3.31937E-09 6.36916E-10
 -1       850-2.77923E+04-3.57806E+03 2.22857E+02-1.01247E+04 7.46577E-09 2.33586E-09
 -1       851-2.76036E+04-4.03903E+03 4.04307E+02-1.04348E+04-1.44240E-09-3.05963E-09
 -1       852-2.74968E+04-3.08796E+03 1.10190E+03-1.02164E+04-2.18405E-09-2.77504E-09
 -1       853-2.78563E+04-4.46071E+03 1.77052E+03-1.03553E+04-1.70132E-10-1.30171E-10
 -1       854-2.56958E+04 4.25000E+01 5.24322E+03-1.08140E+04 2.36912E-09 2.35372E-09
 -1       855-2.94037E+04-7.16482E+03 7.56017E+03-9.83877E+03-2.94563E-10 1.84309E-09
 -1       856-2.48955E+05 5.80509E+03-2.52349E+04 3.17967E+03-2.54067E-09 6.68479E-10
 -1       857-2.58027E+05-7.89505E+03-1.61535E+04 1.30631E+04-2.45018E-09-2.47383E-10
 -1       858-2.52763E+05 5.97881E+02-6.54137E+03 3.10781E+03-5.74278E-09 1.12914E-09
 -1       859-2.53816E+05-7.48696E+02-3.64949E+03 1.31608E+04-6.20571E-09-2.77441E-09
 -1       860-2.53196E+05 7.05470E+01-1.66624E+03 3.08091E+03-9.06311E-10-7.66704E-10
 -1       861-2.53346E+05-3.87992E+01-8.99860E+02 1.32006E+04-8.25048E-09-2.39424E-09
 -1       862-2.53253E+05 1.74929E+01-4.76141E+02 3.06782E+03 5.95401E-09-2.91448E-09
 -1       863-2.53295E+05 2.86843E+01-3.43660E+02 1.32167E+04 1.36815E-08-3.96437E-09
 -1       864-2.53257E+05 1.57163E+01-3.59457E+02 3.06480E+03 8.09973E-09-3.35675E-10
 -1       865-2.53323E+05-8.39537E+00-5.93250E+02 1.32120E+04 8.76594E-09-2.29062E-09
 -1       866-2.53223E+05 4.85067E+01-1.05476E+03 3.07247E+03-1.57002E-10-8.85706E-10
 -1       867-2.53614E+05-4.51247E+02-2.28465E+03 1.31850E+04-2.58467E-09-1.68984E-09
 -1       868-2.52952E+05 3.76741E+02-4.08481E+03 3.09194E+03 3.81783E-09 4.59295E-10
 -1       869-2.56237E+05-4.91116E+03-1.00795E+04 1.31053E+04-2.74872E-09-8.31278E-10
 -1       870-2.50576E+05 3.62365E+03-1.57455E+04 3.15302E+03-2.56932E-11-4.59295E-10
 -1       871-2.32404E+03-2.21044E+04-4.20455E+03 6.33285E+04 1.73895E-09 4.78849E-10
 -1       872-7.48069E+02-2.28511E+04-1.21500E+03 7.40434E+04 2.64208E-09-2.02681E-09
 -1       873 3.51116E+01-2.25766E+04 1.26700E+03 6.32076E+04 2.10684E-09-1.32786E-10
 -1       874 1.47441E+03-2.15676E+04 4.68368E+03 7.40991E+04 3.50519E-09 2.00728E-09
 -1       875 4.87185E+03-2.34259E+04 1.01052E+04 6.32796E+04 2.55159E-09 1.50271E-09
 -1       876 2.96100E+05 3.71960E+04 2.80575E+04 1.16456E+05 4.12683E-10-2.90856E-09
 -1       877 3.02456E+05 5.90562E+04 1.77096E+04 1.20560E+05 1.11226E-09 3.90310E-09
 -1       878 3.00926E+05 4.36079E+04 6.62378E+03 1.15775E+05 2.29261E-09 2.78624E-09
 -1       879 2.96907E+05 5.07256E+04 3.64677E+03 1.21728E+05-1.12700E-08-4.70095E-10
 -1       880 3.01462E+05 4.43150E+04 1.54706E+03 1.15736E+05-8.00708E-09 9.47239E-10
 -1       881 2.96290E+05 4.98287E+04 8.30792E+02 1.21791E+05-6.04678E-09-3.73305E-09
 -1       882 3.01518E+05 4.44027E+04 4.43405E+02 1.15746E+05 1.71485E-09 2.09590E-09
 -1       883 2.96235E+05 4.97344E+04 3.81909E+02 1.21777E+05-7.79829E-09 1.52929E-09
 -1       884 3.01511E+05 4.44051E+04 4.98253E+02 1.15750E+05-2.11511E-09 2.04926E-09
 -1       885 2.96321E+05 4.98357E+04 9.82158E+02 1.21772E+05 1.74199E-08 8.71569E-09
 -1       886 3.01434E+05 4.43099E+04 1.85415E+03 1.15748E+05-2.51885E-09 3.35001E-09
 -1       887 2.97078E+05 5.08977E+04 4.38382E+03 1.21672E+05-1.16961E-09 1.43416E-09
 -1       888 3.00777E+05 4.34699E+04 7.96893E+03 1.15804E+05-1.72854E-09-5.13410E-10
 -1       889 3.03765E+05 6.09082E+04 2.13073E+04 1.20246E+05-1.18825E-08-1.12323E-09
 -1       890 2.94964E+05 3.57619E+04 3.37604E+04 1.16628E+05-2.88128E-09 4.26007E-09
 -1       891 1.06596E+03-1.32057E+05-5.11211E+03 1.43107E+04 4.75052E-09-3.65162E-10
 -1       892-1.79727E+03-1.33877E+05-4.11094E+03 5.58647E+04 2.55568E-10 2.00021E-09
 -1       893 2.88333E+02-1.32636E+05-3.28014E+03 1.42474E+04 2.26828E-09-6.87066E-10
 -1       894-2.77801E+03-1.34453E+05-5.84717E+03 5.58597E+04 2.13868E-09-5.21140E-09
 -1       895 1.85131E+03-1.31473E+05-8.39794E+03 1.43154E+04 6.72935E-09-1.86628E-09
 -1       896 5.90046E+05-4.43667E+03 1.03141E+04 8.99462E+02 6.95479E-11-2.04045E-09
 -1       897 5.94520E+05 5.13652E+03 7.30231E+03-1.44868E+03-2.67971E-10-9.87711E-10
 -1       898 5.91788E+05-6.91628E+02 2.68050E+03 4.47193E+02 9.32587E-11-1.00920E-09
 -1       899 5.92491E+05 8.01412E+02 1.69839E+03-7.59523E+02 1.04031E-10-4.44658E-10
 -1       900 5.92075E+05-1.08756E+02 7.23923E+02 2.10303E+02 3.28111E-10-3.69965E-10
 -1       901 5.92162E+05 1.35675E+02 4.88435E+02-3.94239E+02-1.35694E-10-1.99279E-10
 -1       902 5.92118E+05-2.68219E+01 3.47498E+02 8.19032E+01-1.25041E-10-5.46434E-11
 -1       903 5.92144E+05 9.71654E+01 4.81291E+02-1.88763E+02-1.19558E-11 2.55795E-12
 -1       904 5.92093E+05-7.02697E+01 7.44930E+02 4.82279E+00 3.64233E-11 1.99265E-10
 -1       905 5.92362E+05 5.10793E+02 1.63574E+03-5.18001E+01-3.28146E-11 6.30962E-12
 -1       906 5.91899E+05-4.39827E+02 2.79359E+03-5.50616E+01 2.26338E-10-1.33582E-10
 -1       907 5.93713E+05 3.27495E+03 6.85371E+03 7.74751E+01-2.74614E-10 3.14685E-10
 -1       908 5.90740E+05-2.82971E+03 1.09287E+04-1.24454E+02 9.40101E-11 3.41515E-10
 -1       909 6.01917E+05 2.10088E+04 2.98250E+04 2.58782E+02 9.04300E-10-1.30058E-10
 -1       910 5.83687E+05-1.81404E+04 4.22102E+04-2.36361E+02 1.14997E-09 3.65617E-10
 -1       911 1.73637E+05-2.28146E+03 5.30061E+03 2.80805E+02-3.93136E-10 1.61640E-09
 -1       912 1.75953E+05 2.64281E+03 3.75616E+03-1.47454E+03-4.32239E-10 2.11656E-09
 -1       913 1.74534E+05-3.56011E+02 1.38257E+03 1.73098E+02-4.59025E-10 2.18256E-09
 -1       914 1.74907E+05 4.14636E+02 8.84315E+02-1.32302E+03-5.95741E-10 2.22838E-09
 -1       915 1.74683E+05-5.67864E+01 3.94714E+02 1.29280E+02 9.41450E-10 2.28391E-09
 -1       916 1.74741E+05 7.72244E+01 2.99171E+02-1.29387E+03 2.33238E-09 2.63145E-09
 -1       917 1.74700E+05-1.90731E+01 2.69142E+02 1.43950E+02 1.70368E-09 2.29398E-09
 -1       918 1.74762E+05 9.10405E+01 4.48350E+02-1.38341E+03 2.06505E-10 2.13373E-09
 -1       919 1.74662E+05-7.09527E+01 7.43408E+02 2.18824E+02 1.14655E-09 1.98690E-09
 -1       920 1.75018E+05 5.24484E+02 1.67917E+03-1.60300E+03 1.03023E-09 1.58522E-09
 -1       921 1.74446E+05-4.52850E+02 2.86725E+03 3.63544E+02 2.63206E-10 7.87509E-10
 -1       922 1.76466E+05 3.37373E+03 7.07500E+03-1.98173E+03 1.32621E-09-2.73758E-10
 -1       923 1.73216E+05-2.91745E+03 1.12467E+04 5.97562E+02 1.82226E-10-1.11913E-09
 -1       924 1.85043E+05 2.16613E+04 3.07761E+04-2.58618E+03-1.10361E-09-1.86901E-09
 -1       925 1.65875E+05-1.87104E+04 4.34719E+04 9.67949E+02 4.05436E-10-3.70892E-09
 -1       926-7.47790E+05 1.66401E+04-3.88151E+04-3.89443E+03 2.66090E-09-6.74663E-09
 -1       927-7.64182E+05-1.92592E+04-2.73584E+04 8.27593E+03-4.85642E-09-8.49832E-09
 -1       928-7.54049E+05 2.59610E+03-1.00236E+04-4.91127E+03 2.62870E-10-9.34688E-09
 -1       929-7.56598E+05-2.97895E+03-6.23797E+03 8.00595E+03 5.58472E-09-8.54743E-09
 -1       930-7.55362E+05 3.87088E+02-2.58585E+03-3.62449E+03-9.79981E-10-7.28744E-09
 -1       931-7.54791E+05-4.31351E+02-1.29785E+03 3.75598E+03-3.19307E-09-3.86498E-09
 -1       932-7.55822E+05 2.75036E+01-6.88205E+02-6.61164E+02-9.01878E-10-2.02232E-09
 -1       933-7.54450E+05-1.51493E+01-4.85209E+01-2.40623E+03-4.85826E-10 1.56695E-09
 -1       934-7.55696E+05-3.36679E+01 1.32234E+01 2.53775E+03 3.44244E-10 4.01938E-09
 -1       935-7.54858E+05 1.88189E+02 5.45706E+02-7.48147E+03 2.02775E-10 6.37665E-09
 -1       936-7.55443E+05-1.51776E+02 9.29124E+02 4.41416E+03 1.42543E-09 7.56819E-09
 -1       937-7.54642E+05 1.16567E+03 2.38927E+03-8.99805E+03-3.75328E-09 6.93808E-09
 -1       938-7.55926E+05-9.97466E+02 3.78792E+03 4.05442E+03-3.18255E-09 6.43149E-09
 -1       939-7.51309E+05 7.40408E+03 1.05335E+04-6.22380E+03-2.70076E-09 4.51985E-09
 -1       940-7.58746E+05-6.39900E+03 1.46546E+04 1.63979E+03 5.14547E-10 3.43789E-09
 -1       941 3.20726E+06-1.59427E+05 3.71943E+05 3.98014E+02 1.48452E-08 2.99769E-09
 -1       942 3.36771E+06 1.84695E+05 2.62555E+05 7.11230E+02 2.03898E-08 6.40284E-10
 -1       943 3.26932E+06-2.48770E+04 9.63939E+04 5.15133E+02 1.07182E-06 3.46336E-09
 -1       944 3.29568E+06 2.88030E+04 6.05201E+04 5.72528E+02 2.12360E-06-2.25555E-09
 -1       945 3.27956E+06-3.87473E+03 2.48759E+04 5.36789E+02 1.65370E-06 2.37378E-10
 -1       946 3.28386E+06 4.55047E+03 1.49049E+04 5.45860E+02 1.17984E-06 5.09613E-09
 -1       947 3.28124E+06-6.69085E+02 7.46069E+03 5.41826E+02 1.67578E-06 1.95723E-09
 -1       948 3.28214E+06 1.24206E+03 6.17557E+03 5.34555E+02 2.17038E-06 1.41749E-09
 -1       949 3.28130E+06-5.71519E+02 6.56322E+03 5.48098E+02 1.09402E-06-4.49063E-09
 -1       950 3.28341E+06 3.70792E+03 1.23157E+04 4.98186E+02 1.12564E-08 4.03816E-09
 -1       951 3.27996E+06-3.13102E+03 2.02063E+04 5.78192E+02 2.13655E-09-5.15593E-09
 -1       952 3.29292E+06 2.32444E+04 4.89004E+04 3.05011E+02-2.83272E-09-2.02544E-09
 -1       953 3.27170E+06-2.00726E+04 7.78023E+04 7.41252E+02-7.19605E-09 1.37879E-09
 -1       954 3.35104E+06 1.49021E+05 2.11851E+05-7.60929E+02-2.79754E-09-1.99361E-09
 -1       955 3.22159E+06-1.28640E+05 3.00011E+05 1.64389E+03-1.47786E-08-6.11180E-10
 -1       956-1.69727E+05-2.93689E+03-6.13306E+03 2.36989E+04-3.62706E-09 6.10271E-10
 -1       957-1.70847E+05-9.27799E+02-3.09414E+03 2.74950E+04-8.53106E-10-2.20507E-09
 -1       958-1.70233E+05-1.04085E+02-1.39164E+03 2.35554E+04 2.55841E-09-1.32468E-09
 -1       959-1.70338E+05-6.26727E+00-7.07612E+02 2.76523E+04-1.48566E-09-1.99861E-10
 -1       960-1.70292E+05 3.43185E+01-3.43535E+02 2.35405E+04-4.21460E-09-1.83695E-09
 -1       961-1.70305E+05 4.07910E+01-1.80925E+02 2.76689E+04-7.46877E-09-3.79941E-10
 -1       962-1.70309E+05 3.83023E+01-1.01600E+02 2.35386E+04-3.36240E-09-1.24783E-09
 -1       963-1.70309E+05 4.53390E+01-7.78273E+01 2.76714E+04-4.87421E-09-2.77396E-11
 -1       964-1.70316E+05 4.18470E+01-9.01084E+01 2.35380E+04-1.80444E-09-1.01500E-09
 -1       965-1.70318E+05 4.86150E+01-1.52089E+02 2.76713E+04 3.99109E-09-1.38016E-09
 -1       966-1.70313E+05 4.52113E+01-2.83615E+02 2.35387E+04-2.40851E-09-1.60344E-09
 -1       967-1.70358E+05 1.65899E+01-5.82823E+02 2.76633E+04 2.88082E-10 8.24684E-10
 -1       968-1.70274E+05-6.25076E+01-1.14447E+03 2.35461E+04 9.06539E-10-6.18570E-10
 -1       969-1.70788E+05-7.36357E+02-2.54619E+03 2.75841E+04 1.85150E-09 5.57179E-10
 -1       970-1.69865E+05-2.39043E+03-5.04586E+03 2.36200E+04 5.34783E-10-4.20187E-10
 -1       971-3.46563E+05 4.81501E+03-2.09477E+04 3.13278E+03-3.21052E-09 7.39419E-10
 -1       972-3.54074E+05-6.55148E+03-1.34083E+04 1.30755E+04-3.95448E-09 1.20713E-09
 -1       973-3.49724E+05 4.94948E+02-5.43381E+03 3.04258E+03-5.56747E-09-3.49473E-10
 -1       974-3.50585E+05-6.17667E+02-3.03622E+03 1.32040E+04 6.50743E-10 2.69591E-09
 -1       975-3.50084E+05 5.87726E+01-1.39850E+03 3.00356E+03 9.99535E-10 1.68200E-09
 -1       976-3.50201E+05-2.68746E+01-7.77694E+02 1.32636E+04-7.69023E-09 1.66256E-09
 -1       977-3.50131E+05 1.62606E+01-4.56305E+02 2.98270E+03 5.20026E-09 1.39437E-09
 -1       978-3.50167E+05 2.64696E+01-4.11145E+02 1.32911E+04 1.66077E-08 1.07138E-09
 -1       979-3.50129E+05 1.92295E+01-5.43459E+02 2.97605E+03 6.07880E-09 1.69897E-09
 -1       980-3.50230E+05-4.47399E+01-1.00867E+03 1.32897E+04 1.10031E-08 1.28720E-09
 -1       981-3.50068E+05 8.02374E+01-1.85664E+03 2.98413E+03-7.10543E-10 4.70664E-10
 -1       982-3.50761E+05-8.31627E+02-4.06363E+03 1.32579E+04 3.24007E-10 2.62980E-09
 -1       983-3.49587E+05 6.69480E+02-7.27871E+03 3.00809E+03 7.88236E-09 5.62977E-10
 -1       984-3.55457E+05-8.78279E+03-1.79792E+04 1.31678E+04 1.15506E-10 1.95064E-09
 -1       985-3.45350E+05 6.46832E+03-2.80818E+04 3.07569E+03 3.62752E-09 1.16233E-09
 -3
    1PSTEP                        17           9           1          
  100CL  109 4.87915E-01         841                     0    9           1
 -4  DISP        4    1
 -5  D1          1    2    1    0
 -5  D2          1    2    2    0
 -5  D3          1    2    3    0
 -5  ALL         1    2    0    0    1ALL
 -1         1 5.97734E-05 0.00000E+00 0.00000E+00
 -1         2 4.42720E-05 0.00000E+00 0.00000E+00
 -1         3 3.70816E-05 0.00000E+00 0.00000E+00
 -1         4 3.29788E-05 0.00000E+00 0.00000E+00
 -1         5 3.11195E-05 0.00000E+00 0.00000E+00
 -1         8 4.69288E-05-6.00918E-07 0.00000E+00
 -1         9 3.71494E-05 4.97766E-07 0.00000E+00
 -1        10 3.46584E-05-1.53771E-06 0.00000E+00
 -1        11 3.22956E-05-3.03381E-07 0.00000E+00
 -1        12 2.99537E-05 7.83083E-07 0.00000E+00
 -1        15 1.99101E-05-1.24229E-06 0.00000E+00
 -1        16 2.71864E-05 4.91932E-07 0.00000E+00
 -1        17 2.51926E-05-3.09336E-06 0.00000E+00
 -1        18 2.55468E-05-5.97210E-07 0.00000E+00
 -1        19 2.68578E-05 1.55070E-06 0.00000E+00
 -1        20 2.72729E-05 1.64792E-05 0.00000E+00
 -1        21 2.72598E-05 3.94393E-05 0.00000E+00
 -1        22 7.33555E-06-8.04912E-07 0.00000E+00
 -1        23 9.79292E-06 1.03766E-06 0.00000E+00
 -1        24 1.03132E-05-3.65122E-06 0.00000E+00
 -1        25 2.23858E-05-4.05335E-07 0.00000E+00
 -1        26 2.36717E-05 2.05774E-06 0.00000E+00
 -1        27 2.23967E-05 1.58954E-05 0.00000E+00
 -1        28 2.08850E-05 3.88853E-05 0.00000E+00
 -1        29 0.00000E+00 0.00000E+00 0.00000E+00
 -1        30 3.52410E-06 1.36689E-06 0.00000E+00
 -1        31 4.56328E-06-2.93546E-06 0.00000E+00
 -1        32 0.00000E+00 0.00000E+00 0.00000E+00
 -1        33 1.92994E-05 3.25460E-06 0.00000E+00
 -1        34 1.82838E-05 1.58416E-05 0.00000E+00
 -1        35 1.61971E-05 3.85904E-05 0.00000E+00
 -1        36 5.88357E-05-1.69407E-21 0.00000E+00
 -1        37 5.78669E-05 1.58921E-19 0.00000E+00
 -1        38 5.69002E-05 4.21850E-19 2.64698E-23
 -1        39 5.59275E-05 5.89612E-19-1.32349E-23
 -1        40 5.49547E-05 6.18274E-19-2.64698E-23
 -1        41 5.39807E-05 3.86671E-19-1.32349E-23
 -1        42 5.30066E-05 1.63003E-19 2.64698E-23
 -1        43 5.20323E-05-1.54469E-19 1.32349E-23
 -1        44 5.10579E-05-2.86510E-19-2.64698E-23
 -1        45 5.00837E-05-3.20706E-19 0.00000E+00
 -1        46 4.91095E-05-2.47136E-19 0.00000E+00
 -1        47 4.81361E-05-1.37816E-19 0.00000E+00
 -1        48 4.71628E-05-8.97197E-20-2.64698E-23
 -1        49 4.61933E-05-9.69621E-21 0.00000E+00
 -1        50 4.52226E-05 5.45137E-20 2.64698E-23
 -1        51 5.88044E-05-1.02238E-07 0.00000E+00
 -1        52 5.71978E-05-1.99935E-07 0.00000E+00
 -1        53 5.50772E-05-2.97002E-07 0.00000E+00
 -1        54 5.25721E-05-3.94800E-07 0.00000E+00
 -1        55 4.98124E-05-4.94596E-07 6.61744E-24
 -1        56 5.86006E-05-4.86446E-07-2.64698E-23
 -1        57 5.74094E-05-1.05390E-06 0.00000E+00
 -1        58 5.62317E-05-1.65031E-06 0.00000E+00
 -1        59 5.50445E-05-2.24324E-06-1.32349E-23
 -1        60 5.38413E-05-2.79428E-06 0.00000E+00
 -1        61 5.26080E-05-3.26912E-06-1.32349E-23
 -1        62 5.13342E-05-3.63654E-06 2.64698E-23
 -1        63 5.00094E-05-3.86861E-06-1.32349E-23
 -1        64 4.86257E-05-3.94377E-06 2.64698E-23
 -1        65 4.71768E-05-3.84463E-06 0.00000E+00
 -1        66 4.56592E-05-3.56225E-06-2.64698E-23
 -1        67 4.40725E-05-3.09219E-06 1.32349E-23
 -1        68 4.24175E-05-2.43974E-06 0.00000E+00
 -1        69 4.07046E-05-1.61217E-06-1.32349E-23
 -1        70 3.89313E-05-6.31050E-07-2.64698E-23
 -1        71 4.38208E-05 2.18475E-20 1.32349E-23
 -1        72 4.33705E-05 1.87704E-19 6.61744E-24
 -1        73 4.29202E-05 4.54622E-19 0.00000E+00
 -1        74 4.24700E-05 7.31650E-19 0.00000E+00
 -1        75 4.20199E-05 9.05076E-19-1.32349E-23
 -1        76 4.15698E-05 9.87028E-19 0.00000E+00
 -1        77 4.11197E-05 9.99943E-19 0.00000E+00
 -1        78 4.06696E-05 9.01204E-19 0.00000E+00
 -1        79 4.02195E-05 6.86876E-19 0.00000E+00
 -1        80 3.97695E-05 4.46252E-19-6.61744E-24
 -1        81 3.93196E-05 2.61377E-19 1.32349E-23
 -1        82 3.88699E-05 9.37580E-20 6.61744E-24
 -1        83 3.84202E-05 9.55600E-21 1.32349E-23
 -1        84 3.79719E-05-1.76611E-20 6.61744E-24
 -1        85 3.75232E-05 1.29239E-20-1.32349E-23
 -1        86 4.39900E-05 6.69630E-08 0.00000E+00
 -1        87 4.31534E-05 1.55980E-07 0.00000E+00
 -1        88 4.19122E-05 2.43060E-07-4.13590E-25
 -1        89 4.04147E-05 3.31596E-07 4.13590E-25
 -1        90 3.87857E-05 4.20967E-07 3.30872E-24
 -1        91 4.35445E-05 2.51702E-07 0.00000E+00
 -1        92 4.24737E-05 1.40588E-06 6.61744E-24
 -1        93 4.12721E-05 2.90817E-06 0.00000E+00
 -1        94 4.01513E-05 4.19420E-06 6.61744E-24
 -1        95 3.92821E-05 4.81110E-06 0.00000E+00
 -1        96 3.88281E-05 4.32158E-06-6.61744E-24
 -1        97 3.87409E-05 2.85184E-06 0.00000E+00
 -1        98 3.89634E-05 5.51748E-07 6.61744E-24
 -1        99 3.92811E-05-2.00334E-06 0.00000E+00
 -1       100 3.94771E-05-4.23178E-06 0.00000E+00
 -1       101 3.93966E-05-5.71921E-06 0.00000E+00
 -1       102 3.88908E-05-6.06924E-06 0.00000E+00
 -1       103 3.80276E-05-5.46670E-06 0.00000E+00
 -1       104 3.68861E-05-4.11835E-06 6.61744E-24
 -1       105 3.56846E-05-2.61311E-06 1.32349E-23
 -1       106 3.68240E-05-2.54240E-20 0.00000E+00
 -1       107 3.65670E-05 3.70432E-21 3.30872E-24
 -1       108 3.63100E-05 1.83055E-21 0.00000E+00
 -1       109 3.60531E-05 4.59273E-20-3.30872E-24
 -1       110 3.57962E-05 1.48947E-19 0.00000E+00
 -1       111 3.55393E-05 2.45970E-19 0.00000E+00
 -1       112 3.52825E-05 3.01304E-19-6.61744E-24
 -1       113 3.50256E-05 3.55619E-19 3.30872E-24
 -1       114 3.47688E-05 3.48639E-19-6.61744E-24
 -1       115 3.45119E-05 3.36372E-19-3.30872E-24
 -1       116 3.42552E-05 3.01542E-19 0.00000E+00
 -1       117 3.39985E-05 2.53609E-19 0.00000E+00
 -1       118 3.37419E-05 2.42840E-19 6.61744E-24
 -1       119 3.34862E-05 2.53914E-19 0.00000E+00
 -1       120 3.32302E-05 1.25270E-19 0.00000E+00
 -1       121 3.70529E-05-2.56599E-07 6.61744E-24
 -1       122 3.69252E-05-5.12527E-07-3.30872E-24
 -1       123 3.66598E-05-7.68514E-07 6.61744E-24
 -1       124 3.62187E-05-1.02456E-06 3.30872E-24
 -1       125 3.55639E-05-1.28070E-06 0.00000E+00
 -1       126 3.74984E-05-1.85792E-06 6.61744E-24
 -1       127 3.92213E-05-7.23136E-06 0.00000E+00
 -1       128 4.19049E-05-1.52153E-05 0.00000E+00
 -1       129 4.52010E-05-2.48747E-05 3.30872E-24
 -1       130 4.86168E-05-3.48623E-05 0.00000E+00
 -1       131 5.16595E-05-4.38267E-05-3.30872E-24
 -1       132 5.39241E-05-5.06692E-05 0.00000E+00
 -1       133 5.50080E-05-5.43154E-05 3.30872E-24
 -1       134 5.47906E-05-5.44733E-05 6.61744E-24
 -1       135 5.31623E-05-5.08886E-05 0.00000E+00
 -1       136 5.03601E-05-4.42195E-05 0.00000E+00
 -1       137 4.66387E-05-3.51546E-05 0.00000E+00
 -1       138 4.24838E-05-2.49652E-05 6.61744E-24
 -1       139 3.83906E-05-1.49332E-05 3.30872E-24
 -1       140 3.48368E-05-6.30292E-06 0.00000E+00
 -1       141 3.28603E-05 5.11828E-20-3.30872E-24
 -1       142 3.27430E-05 5.05746E-20 0.00000E+00
 -1       143 3.26255E-05 7.35110E-21-3.30872E-24
 -1       144 3.25083E-05-3.79565E-20 0.00000E+00
 -1       145 3.23910E-05-4.78094E-20 0.00000E+00
 -1       146 3.22739E-05-4.76616E-20 1.65436E-24
 -1       147 3.21567E-05-3.22984E-20 0.00000E+00
 -1       148 3.20395E-05 1.94667E-20-1.65436E-24
 -1       149 3.19224E-05 5.44249E-20 3.30872E-24
 -1       150 3.18053E-05 5.74507E-20 0.00000E+00
 -1       151 3.16883E-05 4.76033E-20 3.30872E-24
 -1       152 3.15717E-05 1.95237E-20 0.00000E+00
 -1       153 3.14551E-05 1.94479E-20 0.00000E+00
 -1       154 3.13404E-05 4.27771E-20-8.27181E-25
 -1       155 3.12250E-05 4.18563E-20-1.03398E-25
 -1       156 3.34519E-05-5.15535E-08-3.30872E-24
 -1       157 3.48267E-05-1.00166E-07 8.27181E-25
 -1       158 3.62435E-05-1.49112E-07 0.00000E+00
 -1       159 3.68424E-05-1.97262E-07-8.27181E-25
 -1       160 3.57998E-05-2.45730E-07-3.30872E-24
 -1       161 3.28379E-05-8.20342E-08 0.00000E+00
 -1       162 3.27156E-05-2.14697E-07-1.65436E-24
 -1       163 3.26053E-05-3.79267E-07 0.00000E+00
 -1       164 3.24999E-05-5.56951E-07-1.65436E-24
 -1       165 3.23915E-05-7.26612E-07-3.30872E-24
 -1       166 3.22722E-05-8.67200E-07 0.00000E+00
 -1       167 3.21359E-05-9.62629E-07-3.30872E-24
 -1       168 3.19768E-05-9.97106E-07 0.00000E+00
 -1       169 3.17924E-05-9.64247E-07 0.00000E+00
 -1       170 3.15807E-05-8.58078E-07 1.65436E-24
 -1       171 3.13435E-05-6.84172E-07 3.30872E-24
 -1       172 3.10836E-05-4.48397E-07 0.00000E+00
 -1       173 3.08064E-05-1.66520E-07-3.30872E-24
 -1       174 3.05199E-05 1.46296E-07 0.00000E+00
 -1       175 3.02290E-05 4.68264E-07-8.27181E-25
 -1       191 3.10787E-05 1.30399E-07 6.61744E-24
 -1       192 3.09745E-05 2.61013E-07 3.30872E-24
 -1       193 3.08080E-05 3.91671E-07 0.00000E+00
 -1       194 3.05810E-05 5.22307E-07 3.30872E-24
 -1       195 3.02955E-05 6.52853E-07 0.00000E+00
 -1       251 4.63362E-05 2.53273E-06-1.32349E-23
 -1       252 4.57228E-05 7.27639E-06 6.61744E-24
 -1       253 4.51107E-05 1.19249E-05 1.32349E-23
 -1       254 4.45023E-05 1.47751E-05 0.00000E+00
 -1       255 4.38974E-05 1.50007E-05 0.00000E+00
 -1       256 4.32871E-05 1.18437E-05 0.00000E+00
 -1       257 4.26667E-05 6.19305E-06-1.32349E-23
 -1       258 4.20366E-05-9.97648E-07 0.00000E+00
 -1       259 4.14076E-05-8.02461E-06-1.32349E-23
 -1       260 4.07897E-05-1.31881E-05-6.61744E-24
 -1       261 4.01812E-05-1.56962E-05-1.32349E-23
 -1       262 3.95759E-05-1.48260E-05 0.00000E+00
 -1       263 3.89661E-05-1.14996E-05 0.00000E+00
 -1       264 3.83534E-05-6.70243E-06 6.61744E-24
 -1       265 3.77408E-05-2.13774E-06 1.32349E-23
 -1       266 4.40465E-05-7.08032E-07 0.00000E+00
 -1       267 3.99991E-05-8.12932E-07 0.00000E+00
 -1       268 3.51653E-05-9.21480E-07 3.30872E-24
 -1       269 2.99271E-05-1.03023E-06 1.65436E-24
 -1       270 2.47027E-05-1.13906E-06-1.65436E-24
 -1       271 4.51482E-05 1.02406E-06 0.00000E+00
 -1       272 4.35245E-05 2.12688E-06 0.00000E+00
 -1       273 4.20728E-05 2.77550E-06 0.00000E+00
 -1       274 4.07643E-05 3.02749E-06-1.32349E-23
 -1       275 3.95796E-05 2.94825E-06 0.00000E+00
 -1       276 3.84929E-05 2.60501E-06-1.32349E-23
 -1       277 3.74787E-05 2.06798E-06-2.64698E-23
 -1       278 3.65099E-05 1.40928E-06 0.00000E+00
 -1       279 3.55593E-05 7.02266E-07 0.00000E+00
 -1       280 3.45991E-05 2.08534E-08-1.32349E-23
 -1       281 3.36021E-05-5.61394E-07 0.00000E+00
 -1       282 3.25415E-05-9.71802E-07 1.32349E-23
 -1       283 3.13905E-05-1.13969E-06 2.64698E-23
 -1       284 3.01277E-05-9.95369E-07-1.32349E-23
 -1       285 2.87230E-05-4.75838E-07 0.00000E+00
 -1       286 3.69897E-05 1.95495E-06 0.00000E+00
 -1       287 3.68341E-05 3.05023E-06 0.00000E+00
 -1       288 3.66785E-05 3.74687E-06 0.00000E+00
 -1       289 3.65238E-05 4.01079E-06 0.00000E+00
 -1       290 3.63692E-05 3.86894E-06-6.61744E-24
 -1       291 3.62145E-05 3.35097E-06 0.00000E+00
 -1       292 3.60597E-05 2.53957E-06 0.00000E+00
 -1       293 3.59047E-05 1.51937E-06 0.00000E+00
 -1       294 3.57497E-05 4.04427E-07 6.61744E-24
 -1       295 3.55946E-05-6.90537E-07 0.00000E+00
 -1       296 3.54396E-05-1.65366E-06 6.61744E-24
 -1       297 3.52847E-05-2.37393E-06-3.30872E-24
 -1       298 3.51299E-05-2.77457E-06 6.61744E-24
 -1       299 3.49742E-05-2.78097E-06 0.00000E+00
 -1       300 3.48188E-05-2.37410E-06-6.61744E-24
 -1       301 3.54858E-05 4.89959E-07 0.00000E+00
 -1       302 3.38141E-05 4.92785E-07 0.00000E+00
 -1       303 3.21414E-05 4.97447E-07-1.65436E-24
 -1       304 3.04745E-05 5.01788E-07 1.65436E-24
 -1       305 2.88206E-05 5.03591E-07 0.00000E+00
 -1       306 3.59357E-05 1.57527E-06 0.00000E+00
 -1       307 3.48966E-05 2.12527E-06 0.00000E+00
 -1       308 3.40280E-05 2.22340E-06 0.00000E+00
 -1       309 3.32990E-05 1.93976E-06 1.32349E-23
 -1       310 3.26847E-05 1.34936E-06 0.00000E+00
 -1       311 3.21561E-05 5.28454E-07 1.32349E-23
 -1       312 3.16845E-05-4.44873E-07 0.00000E+00
 -1       313 3.12402E-05-1.49157E-06-1.32349E-23
 -1       314 3.07936E-05-2.53200E-06 0.00000E+00
 -1       315 3.03149E-05-3.48657E-06 0.00000E+00
 -1       316 2.97748E-05-4.27638E-06 2.64698E-23
 -1       317 2.91444E-05-4.82357E-06 1.32349E-23
 -1       318 2.83951E-05-5.05221E-06-2.64698E-23
 -1       319 2.75023E-05-4.88750E-06 0.00000E+00
 -1       320 2.64349E-05-4.26005E-06 0.00000E+00
 -1       321 3.45073E-05-9.58724E-07 0.00000E+00
 -1       322 3.43615E-05-1.31924E-06-3.30872E-24
 -1       323 3.42148E-05-2.47635E-06 0.00000E+00
 -1       324 3.40682E-05-4.28224E-06 1.65436E-24
 -1       325 3.39208E-05-6.50298E-06-3.30872E-24
 -1       326 3.37732E-05-8.90202E-06-1.65436E-24
 -1       327 3.36258E-05-1.12193E-05 3.30872E-24
 -1       328 3.34791E-05-1.31950E-05-1.65436E-24
 -1       329 3.33334E-05-1.46149E-05 0.00000E+00
 -1       330 3.31884E-05-1.52681E-05-1.65436E-24
 -1       331 3.30436E-05-1.50451E-05 3.30872E-24
 -1       332 3.28981E-05-1.38421E-05 0.00000E+00
 -1       333 3.27511E-05-1.16852E-05-3.30872E-24
 -1       334 3.26018E-05-8.60617E-06 0.00000E+00
 -1       335 3.24499E-05-4.75930E-06-3.30872E-24
 -1       336 3.34617E-05-1.79824E-06-6.61744E-24
 -1       337 3.20346E-05-2.05833E-06 3.30872E-24
 -1       338 3.04353E-05-2.31857E-06 0.00000E+00
 -1       339 2.87225E-05-2.57823E-06-3.30872E-24
 -1       340 2.69553E-05-2.83802E-06 0.00000E+00
 -1       341 3.37972E-05-6.80754E-07-1.32349E-23
 -1       342 3.29439E-05 1.29119E-07-6.61744E-24
 -1       343 3.21873E-05 6.83537E-07 0.00000E+00
 -1       344 3.16028E-05 7.75164E-07 6.61744E-24
 -1       345 3.11907E-05 4.06856E-07-1.32349E-23
 -1       346 3.09461E-05-4.09605E-07 0.00000E+00
 -1       347 3.07892E-05-1.46017E-06 1.32349E-23
 -1       348 3.06378E-05-2.52590E-06-6.61744E-24
 -1       349 3.04075E-05-3.38032E-06-1.32349E-23
 -1       350 3.00149E-05-3.80142E-06-6.61744E-24
 -1       351 2.94506E-05-3.76406E-06 0.00000E+00
 -1       352 2.87089E-05-3.25239E-06 0.00000E+00
 -1       353 2.78634E-05-2.46452E-06-1.32349E-23
 -1       354 2.69944E-05-1.60262E-06 6.61744E-24
 -1       355 2.61857E-05-9.05250E-07 0.00000E+00
 -1       356 3.21409E-05 4.21517E-06 0.00000E+00
 -1       357 3.19882E-05 8.24894E-06 1.65436E-24
 -1       358 3.18378E-05 1.16114E-05 0.00000E+00
 -1       359 3.16898E-05 1.41199E-05 0.00000E+00
 -1       360 3.15437E-05 1.57054E-05-3.30872E-24
 -1       361 3.13986E-05 1.63044E-05 1.65436E-24
 -1       362 3.12536E-05 1.59843E-05 0.00000E+00
 -1       363 3.11080E-05 1.48184E-05 0.00000E+00
 -1       364 3.09616E-05 1.29919E-05 3.30872E-24
 -1       365 3.08142E-05 1.06943E-05 0.00000E+00
 -1       366 3.06665E-05 8.17769E-06 0.00000E+00
 -1       367 3.05192E-05 5.69535E-06 0.00000E+00
 -1       368 3.03726E-05 3.49614E-06-3.30872E-24
 -1       369 3.02291E-05 1.82713E-06 0.00000E+00
 -1       370 3.00858E-05 8.65292E-07 4.13590E-25
 -1       371 2.84366E-05-3.62360E-07-3.30872E-24
 -1       372 2.63459E-05-4.12191E-07-8.27181E-25
 -1       373 2.55257E-05-4.60358E-07 0.00000E+00
 -1       374 2.54757E-05-5.06904E-07 4.13590E-25
 -1       375 2.56612E-05-5.53587E-07 4.13590E-25
 -1       376 2.98435E-05 5.46504E-06 0.00000E+00
 -1       377 2.65558E-05 1.34055E-05 0.00000E+00
 -1       378 2.28537E-05 2.24252E-05 0.00000E+00
 -1       379 1.91608E-05 3.14191E-05 3.30872E-24
 -1       380 1.58995E-05 3.92893E-05 0.00000E+00
 -1       381 1.34841E-05 4.49481E-05-3.30872E-24
 -1       382 1.21174E-05 4.78447E-05-6.61744E-24
 -1       383 1.19876E-05 4.74557E-05 0.00000E+00
 -1       384 1.29807E-05 4.40574E-05 0.00000E+00
 -1       385 1.49729E-05 3.79580E-05-3.30872E-24
 -1       386 1.76026E-05 3.01251E-05 0.00000E+00
 -1       387 2.05061E-05 2.15457E-05 0.00000E+00
 -1       388 2.32544E-05 1.33902E-05 0.00000E+00
 -1       389 2.54216E-05 6.82496E-06 0.00000E+00
 -1       390 2.67136E-05 2.62652E-06 0.00000E+00
 -1       406 2.95375E-05 9.11733E-07 0.00000E+00
 -1       407 2.90733E-05 1.04053E-06 3.30872E-24
 -1       408 2.85669E-05 1.16926E-06 0.00000E+00
 -1       409 2.80246E-05 1.29768E-06 0.00000E+00
 -1       410 2.74527E-05 1.42540E-06-3.30872E-24
 -1       466 2.03417E-05 2.42590E-06 0.00000E+00
 -1       467 2.07973E-05 4.34353E-06 0.00000E+00
 -1       468 2.12533E-05 5.07576E-06 0.00000E+00
 -1       469 2.17132E-05 5.16369E-06 0.00000E+00
 -1       470 2.21732E-05 4.81745E-06 1.32349E-23
 -1       471 2.26337E-05 4.23847E-06-6.61744E-24
 -1       472 2.30943E-05 3.50827E-06 0.00000E+00
 -1       473 2.35549E-05 2.70534E-06 0.00000E+00
 -1       474 2.40155E-05 1.87062E-06 0.00000E+00
 -1       475 2.44758E-05 1.04447E-06 0.00000E+00
 -1       476 2.49361E-05 2.71661E-07 0.00000E+00
 -1       477 2.53952E-05-4.02014E-07 6.61744E-24
 -1       478 2.58543E-05-8.79652E-07 0.00000E+00
 -1       479 2.63076E-05-1.06042E-06-3.30872E-24
 -1       480 2.67628E-05-6.91320E-07 0.00000E+00
 -1       481 1.58945E-05-1.17753E-06 0.00000E+00
 -1       482 1.29661E-05-1.10546E-06 8.27181E-25
 -1       483 1.08749E-05-1.03157E-06 0.00000E+00
 -1       484 9.37425E-06-9.56165E-07 0.00000E+00
 -1       485 8.26152E-06-8.80161E-07 0.00000E+00
 -1       486 1.74000E-05 3.97587E-06 0.00000E+00
 -1       487 1.42696E-05 1.07608E-05 0.00000E+00
 -1       488 1.13629E-05 1.69636E-05 0.00000E+00
 -1       489 9.49107E-06 2.04364E-05 0.00000E+00
 -1       490 8.98408E-06 2.02873E-05 1.32349E-23
 -1       491 1.01310E-05 1.56975E-05-6.61744E-24
 -1       492 1.24640E-05 7.89049E-06 0.00000E+00
 -1       493 1.54994E-05-1.83791E-06 0.00000E+00
 -1       494 1.84393E-05-1.13046E-05 0.00000E+00
 -1       495 2.04861E-05-1.83322E-05 0.00000E+00
 -1       496 2.12429E-05-2.18699E-05 1.32349E-23
 -1       497 2.03321E-05-2.09446E-05-6.61744E-24
 -1       498 1.81424E-05-1.66342E-05-1.32349E-23
 -1       499 1.51023E-05-1.00841E-05-6.61744E-24
 -1       500 1.20368E-05-3.47049E-06 0.00000E+00
 -1       501 2.70536E-05 1.82370E-06 0.00000E+00
 -1       502 2.69287E-05 2.61570E-06 0.00000E+00
 -1       503 2.68036E-05 2.88315E-06 0.00000E+00
 -1       504 2.66799E-05 2.64400E-06 1.65436E-24
 -1       505 2.65561E-05 1.97381E-06 0.00000E+00
 -1       506 2.64323E-05 9.50428E-07 0.00000E+00
 -1       507 2.63082E-05-3.08175E-07 0.00000E+00
 -1       508 2.61841E-05-1.68282E-06 0.00000E+00
 -1       509 2.60600E-05-3.04112E-06 0.00000E+00
 -1       510 2.59361E-05-4.25078E-06-1.65436E-24
 -1       511 2.58124E-05-5.19640E-06 3.30872E-24
 -1       512 2.56890E-05-5.76395E-06 1.65436E-24
 -1       513 2.55657E-05-5.88233E-06 3.30872E-24
 -1       514 2.54422E-05-5.48283E-06 0.00000E+00
 -1       515 2.53183E-05-4.55555E-06 0.00000E+00
 -1       516 2.52972E-05 5.72737E-07-3.30872E-24
 -1       517 2.28409E-05 6.68506E-07 0.00000E+00
 -1       518 1.99472E-05 7.62068E-07 8.27181E-25
 -1       519 1.67437E-05 8.56414E-07 0.00000E+00
 -1       520 1.33271E-05 9.50692E-07 0.00000E+00
 -1       521 2.57115E-05 1.44110E-06-2.64698E-23
 -1       522 2.43965E-05 1.87373E-06-1.32349E-23
 -1       523 2.32477E-05 1.86663E-06 0.00000E+00
 -1       524 2.22331E-05 1.48811E-06-1.32349E-23
 -1       525 2.13291E-05 8.13321E-07 0.00000E+00
 -1       526 2.05064E-05-8.10614E-08 0.00000E+00
 -1       527 1.97362E-05-1.11592E-06 0.00000E+00
 -1       528 1.89883E-05-2.21095E-06 0.00000E+00
 -1       529 1.82326E-05-3.28515E-06-2.64698E-23
 -1       530 1.74391E-05-4.25780E-06 0.00000E+00
 -1       531 1.65778E-05-5.04916E-06-2.64698E-23
 -1       532 1.56202E-05-5.58120E-06-1.32349E-23
 -1       533 1.45376E-05-5.77862E-06 0.00000E+00
 -1       534 1.33067E-05-5.56817E-06-1.32349E-23
 -1       535 1.18967E-05-4.88361E-06-2.64698E-23
 -1       536 2.52056E-05-1.56860E-06 0.00000E+00
 -1       537 2.52265E-05-4.10269E-07 0.00000E+00
 -1       538 2.52477E-05 4.20984E-07 0.00000E+00
 -1       539 2.52701E-05 9.64751E-07 1.03398E-25
 -1       540 2.52929E-05 1.26049E-06 0.00000E+00
 -1       541 2.53159E-05 1.34765E-06-2.06795E-25
 -1       542 2.53389E-05 1.26560E-06 8.27181E-25
 -1       543 2.53620E-05 1.05372E-06 4.13590E-25
 -1       544 2.53851E-05 7.51344E-07-8.27181E-25
 -1       545 2.54081E-05 3.97776E-07 4.13590E-25
 -1       546 2.54312E-05 3.23297E-08 0.00000E+00
 -1       547 2.54543E-05-3.05689E-07 4.13590E-25
 -1       548 2.54774E-05-5.76976E-07 0.00000E+00
 -1       549 2.55005E-05-7.42214E-07 0.00000E+00
 -1       550 2.55237E-05-7.62034E-07 0.00000E+00
 -1       551 2.29695E-05-3.18516E-06 6.20385E-25
 -1       552 2.04959E-05-3.27469E-06 1.24077E-24
 -1       553 1.78816E-05-3.36429E-06 0.00000E+00
 -1       554 1.52387E-05-3.45492E-06 0.00000E+00
 -1       555 1.26791E-05-3.54770E-06 0.00000E+00
 -1       556 2.45401E-05-1.66667E-06-1.32349E-23
 -1       557 2.40133E-05-5.66297E-07 6.61744E-24
 -1       558 2.35980E-05 2.38986E-07 0.00000E+00
 -1       559 2.32810E-05 7.83494E-07 0.00000E+00
 -1       560 2.30492E-05 1.10160E-06 0.00000E+00
 -1       561 2.28894E-05 1.22800E-06-6.61744E-24
 -1       562 2.27886E-05 1.19739E-06 0.00000E+00
 -1       563 2.27336E-05 1.04454E-06 0.00000E+00
 -1       564 2.27114E-05 8.04224E-07 0.00000E+00
 -1       565 2.27090E-05 5.11224E-07 0.00000E+00
 -1       566 2.27133E-05 2.00340E-07 3.30872E-24
 -1       567 2.27114E-05-9.36244E-08 8.27181E-25
 -1       568 2.26901E-05-3.35875E-07-2.48154E-24
 -1       569 2.26368E-05-4.91658E-07 1.34417E-24
 -1       570 2.25388E-05-5.26247E-07 1.65436E-24
 -1       571 2.56254E-05-4.05159E-07 5.16988E-25
 -1       572 2.57066E-05-2.72867E-07 6.20385E-25
 -1       573 2.57884E-05-1.89689E-07-8.27181E-25
 -1       574 2.58706E-05-1.44435E-07 0.00000E+00
 -1       575 2.59529E-05-1.25868E-07 1.65436E-24
 -1       576 2.60352E-05-1.22683E-07-1.65436E-24
 -1       577 2.61176E-05-1.23567E-07 3.30872E-24
 -1       578 2.62000E-05-1.17199E-07 1.65436E-24
 -1       579 2.62824E-05-9.22582E-08 0.00000E+00
 -1       580 2.63648E-05-3.74214E-08 3.30872E-24
 -1       581 2.64471E-05 5.86320E-08 0.00000E+00
 -1       582 2.65295E-05 2.07214E-07 0.00000E+00
 -1       583 2.66118E-05 4.19626E-07 6.61744E-24
 -1       584 2.66941E-05 7.07060E-07 6.61744E-24
 -1       585 2.67762E-05 1.08065E-06-6.61744E-24
 -1       586 2.50909E-05-5.64612E-07-1.65436E-24
 -1       587 2.45689E-05-5.31716E-07-8.27181E-25
 -1       588 2.40086E-05-4.98851E-07-8.27181E-25
 -1       589 2.34390E-05-4.66307E-07 0.00000E+00
 -1       590 2.28886E-05-4.34496E-07 0.00000E+00
 -1       591 2.54123E-05-3.74123E-07 0.00000E+00
 -1       592 2.52888E-05-1.90437E-07 8.27181E-25
 -1       593 2.51766E-05-3.88350E-08-1.65436E-24
 -1       594 2.50736E-05 8.74089E-08 8.27181E-25
 -1       595 2.49774E-05 1.95016E-07 0.00000E+00
 -1       596 2.48857E-05 2.90666E-07 8.27181E-25
 -1       597 2.47959E-05 3.81031E-07 0.00000E+00
 -1       598 2.47056E-05 4.72779E-07 0.00000E+00
 -1       599 2.46123E-05 5.72576E-07-8.27181E-25
 -1       600 2.45134E-05 6.87090E-07 4.13590E-25
 -1       601 2.44066E-05 8.22984E-07 8.27181E-25
 -1       602 2.42893E-05 9.86932E-07-2.06795E-25
 -1       603 2.41591E-05 1.18561E-06-1.03398E-24
 -1       604 2.40138E-05 1.42573E-06-3.10193E-25
 -1       605 2.38511E-05 1.71402E-06 0.00000E+00
 -1       606 2.68867E-05 2.17519E-06 0.00000E+00
 -1       607 2.69136E-05 2.85927E-06 3.30872E-24
 -1       608 2.69399E-05 3.59945E-06 0.00000E+00
 -1       609 2.69659E-05 4.39174E-06-1.65436E-24
 -1       610 2.69917E-05 5.23214E-06 0.00000E+00
 -1       611 2.70175E-05 6.11653E-06-3.30872E-24
 -1       612 2.70432E-05 7.04084E-06 0.00000E+00
 -1       613 2.70689E-05 8.00096E-06 0.00000E+00
 -1       614 2.70945E-05 8.99280E-06 0.00000E+00
 -1       615 2.71201E-05 1.00122E-05 0.00000E+00
 -1       616 2.71457E-05 1.10552E-05 0.00000E+00
 -1       617 2.71713E-05 1.21176E-05 0.00000E+00
 -1       618 2.71968E-05 1.31953E-05 0.00000E+00
 -1       619 2.72223E-05 1.42842E-05 0.00000E+00
 -1       620 2.72477E-05 1.53802E-05 0.00000E+00
 -1       621 2.62680E-05 1.63541E-06 0.00000E+00
 -1       622 2.56926E-05 1.72065E-06 1.65436E-24
 -1       623 2.51385E-05 1.80591E-06 0.00000E+00
 -1       624 2.46125E-05 1.89098E-06-8.27181E-25
 -1       625 2.41214E-05 1.97555E-06 8.27181E-25
 -1       626 2.66718E-05 2.20488E-06 0.00000E+00
 -1       627 2.64613E-05 2.92122E-06 0.00000E+00
 -1       628 2.62294E-05 3.69404E-06 0.00000E+00
 -1       629 2.59785E-05 4.51685E-06 0.00000E+00
 -1       630 2.57112E-05 5.38318E-06 0.00000E+00
 -1       631 2.54300E-05 6.28642E-06 0.00000E+00
 -1       632 2.51374E-05 7.21997E-06 0.00000E+00
 -1       633 2.48359E-05 8.17724E-06 8.27181E-25
 -1       634 2.45280E-05 9.15161E-06 1.65436E-24
 -1       635 2.42161E-05 1.01365E-05-8.27181E-25
 -1       636 2.39027E-05 1.11252E-05 1.65436E-24
 -1       637 2.35904E-05 1.21112E-05-4.13590E-25
 -1       638 2.32814E-05 1.30879E-05-8.27181E-25
 -1       639 2.29782E-05 1.40486E-05 0.00000E+00
 -1       640 2.26830E-05 1.49867E-05 0.00000E+00
 -1       641 2.72738E-05 1.76196E-05 0.00000E+00
 -1       642 2.72736E-05 1.88797E-05 0.00000E+00
 -1       643 2.72734E-05 2.02423E-05 0.00000E+00
 -1       644 2.72729E-05 2.16901E-05-2.58494E-26
 -1       645 2.72723E-05 2.32059E-05 0.00000E+00
 -1       646 2.72716E-05 2.47724E-05 0.00000E+00
 -1       647 2.72708E-05 2.63724E-05 0.00000E+00
 -1       648 2.72700E-05 2.79887E-05 3.23117E-27
 -1       649 2.72692E-05 2.96041E-05 0.00000E+00
 -1       650 2.72684E-05 3.12013E-05 1.29247E-26
 -1       651 2.72676E-05 3.27632E-05 0.00000E+00
 -1       652 2.72668E-05 3.42726E-05 5.16988E-26
 -1       653 2.72660E-05 3.57121E-05 0.00000E+00
 -1       654 2.72648E-05 3.70646E-05-4.13590E-25
 -1       655 2.72639E-05 3.83127E-05-1.65436E-24
 -1       656 2.62847E-05 1.63851E-05 0.00000E+00
 -1       657 2.54294E-05 1.62862E-05 0.00000E+00
 -1       658 2.46601E-05 1.61875E-05-1.65436E-24
 -1       659 2.39296E-05 1.60888E-05 8.27181E-25
 -1       660 2.31909E-05 1.59899E-05 1.65436E-24
 -1       661 2.69550E-05 1.76529E-05 1.65436E-24
 -1       662 2.66059E-05 1.89212E-05 0.00000E+00
 -1       663 2.62268E-05 2.02689E-05 3.30872E-24
 -1       664 2.58234E-05 2.16828E-05 0.00000E+00
 -1       665 2.54004E-05 2.31490E-05-3.30872E-24
 -1       666 2.49629E-05 2.46540E-05 0.00000E+00
 -1       667 2.45158E-05 2.61846E-05 3.30872E-24
 -1       668 2.40642E-05 2.77271E-05 0.00000E+00
 -1       669 2.36131E-05 2.92683E-05-3.30872E-24
 -1       670 2.31675E-05 3.07947E-05 1.65436E-24
 -1       671 2.27325E-05 3.22929E-05 0.00000E+00
 -1       672 2.23131E-05 3.37494E-05 0.00000E+00
 -1       673 2.19143E-05 3.51508E-05 3.30872E-24
 -1       674 2.15404E-05 3.64832E-05 0.00000E+00
 -1       675 2.11977E-05 3.77333E-05 0.00000E+00
 -1       676 2.61947E-05 3.93466E-05 0.00000E+00
 -1       677 2.51303E-05 3.92536E-05 0.00000E+00
 -1       678 2.40668E-05 3.91606E-05 3.30872E-24
 -1       679 2.30045E-05 3.90680E-05 8.27181E-25
 -1       680 2.19438E-05 3.89753E-05 0.00000E+00
 -1       681 7.48600E-06-2.13190E-07 0.00000E+00
 -1       682 7.64090E-06-1.05028E-07 0.00000E+00
 -1       683 7.79551E-06-3.62242E-07 3.30872E-24
 -1       684 7.95084E-06-8.69129E-07 0.00000E+00
 -1       685 8.10610E-06-1.54902E-06 0.00000E+00
 -1       686 8.26145E-06-2.32643E-06-1.65436E-24
 -1       687 8.41679E-06-3.14114E-06 0.00000E+00
 -1       688 8.57216E-06-3.93315E-06 0.00000E+00
 -1       689 8.72758E-06-4.63895E-06-3.30872E-24
 -1       690 8.88302E-06-5.19443E-06-1.65436E-24
 -1       691 9.03852E-06-5.51193E-06-3.30872E-24
 -1       692 9.19369E-06-5.50220E-06 0.00000E+00
 -1       693 9.34868E-06-5.02477E-06-3.30872E-24
 -1       694 9.50134E-06-3.93600E-06 0.00000E+00
 -1       695 9.65336E-06-1.99681E-06 8.27181E-25
 -1       696 6.36684E-06-6.74077E-07-3.30872E-24
 -1       697 5.14268E-06-5.39967E-07-1.65436E-24
 -1       698 3.77949E-06-4.06230E-07 3.30872E-24
 -1       699 2.39289E-06-2.71535E-07 0.00000E+00
 -1       700 1.09541E-06-1.36809E-07-3.30872E-24
 -1       701 6.82788E-06 7.47018E-08 0.00000E+00
 -1       702 6.23702E-06 1.14883E-06 0.00000E+00
 -1       703 5.60772E-06 2.32692E-06 3.30872E-24
 -1       704 4.97349E-06 3.51329E-06-1.65436E-24
 -1       705 4.37214E-06 4.61222E-06 0.00000E+00
 -1       706 3.83939E-06 5.52791E-06 3.30872E-24
 -1       707 3.39959E-06 6.19626E-06-6.61744E-24
 -1       708 3.07612E-06 6.55479E-06-3.30872E-24
 -1       709 2.87244E-06 6.59413E-06 0.00000E+00
 -1       710 2.79113E-06 6.30721E-06-3.30872E-24
 -1       711 2.81376E-06 5.74291E-06 0.00000E+00
 -1       712 2.92145E-06 4.95222E-06 1.65436E-24
 -1       713 3.08028E-06 4.02488E-06 0.00000E+00
 -1       714 3.25780E-06 3.05234E-06-1.65436E-24
 -1       715 3.41496E-06 2.13244E-06 0.00000E+00
 -1       716 9.81839E-06 4.03472E-06-8.27181E-25
 -1       717 9.85158E-06 5.85609E-06 0.00000E+00
 -1       718 9.88574E-06 6.68736E-06 0.00000E+00
 -1       719 9.92119E-06 6.71251E-06 0.00000E+00
 -1       720 9.95649E-06 6.08784E-06-8.27181E-25
 -1       721 9.99156E-06 4.96860E-06 4.13590E-25
 -1       722 1.00262E-05 3.49299E-06-8.27181E-25
 -1       723 1.00605E-05 1.79860E-06 0.00000E+00
 -1       724 1.00947E-05 1.54846E-08 0.00000E+00
 -1       725 1.01288E-05-1.72643E-06-4.13590E-25
 -1       726 1.01632E-05-3.29584E-06-8.27181E-25
 -1       727 1.01973E-05-4.56113E-06 0.00000E+00
 -1       728 1.02318E-05-5.38022E-06 0.00000E+00
 -1       729 1.02638E-05-5.61032E-06 8.27181E-25
 -1       730 1.02965E-05-5.08868E-06-3.30872E-24
 -1       731 6.72803E-06 1.08410E-06 0.00000E+00
 -1       732 4.70314E-06 1.13895E-06 4.13590E-25
 -1       733 3.53547E-06 1.19477E-06-8.27181E-25
 -1       734 3.04450E-06 1.25214E-06 0.00000E+00
 -1       735 3.08775E-06 1.30972E-06 0.00000E+00
 -1       736 8.14220E-06 4.34832E-06 0.00000E+00
 -1       737 6.60319E-06 7.32978E-06 3.30872E-24
 -1       738 5.43346E-06 9.33592E-06-1.32349E-23
 -1       739 4.86832E-06 9.72988E-06 0.00000E+00
 -1       740 4.93097E-06 8.44814E-06 1.32349E-23
 -1       741 5.63200E-06 5.45282E-06 6.61744E-24
 -1       742 6.75728E-06 1.31516E-06 0.00000E+00
 -1       743 8.08707E-06-3.37511E-06 0.00000E+00
 -1       744 9.33023E-06-7.83133E-06-1.32349E-23
 -1       745 1.01964E-05-1.12707E-05 0.00000E+00
 -1       746 1.05273E-05-1.32724E-05 0.00000E+00
 -1       747 1.01724E-05-1.34390E-05 0.00000E+00
 -1       748 9.22346E-06-1.20246E-05-1.32349E-23
 -1       749 7.78499E-06-9.30764E-06 3.30872E-24
 -1       750 6.13346E-06-6.02959E-06-6.61744E-24
 -1       751 1.10223E-05-2.11953E-06 0.00000E+00
 -1       752 1.17768E-05-1.30015E-06 0.00000E+00
 -1       753 1.25287E-05-9.24632E-07 0.00000E+00
 -1       754 1.32891E-05-7.39570E-07-1.32349E-23
 -1       755 1.40498E-05-6.73079E-07 0.00000E+00
 -1       756 1.48122E-05-6.57219E-07-1.32349E-23
 -1       757 1.55747E-05-6.72578E-07-2.64698E-23
 -1       758 1.63376E-05-7.00781E-07 0.00000E+00
 -1       759 1.71005E-05-7.35776E-07-2.64698E-23
 -1       760 1.78632E-05-7.71736E-07 1.32349E-23
 -1       761 1.86258E-05-8.03763E-07 0.00000E+00
 -1       762 1.93872E-05-8.26826E-07 0.00000E+00
 -1       763 2.01484E-05-8.27300E-07 0.00000E+00
 -1       764 2.09035E-05-7.90810E-07 6.61744E-24
 -1       765 2.16607E-05-6.67686E-07 0.00000E+00
 -1       766 8.89874E-06-3.54634E-06 0.00000E+00
 -1       767 8.42400E-06-3.42212E-06-2.58494E-26
 -1       768 8.32491E-06-3.29901E-06 0.00000E+00
 -1       769 8.03968E-06-3.17420E-06 0.00000E+00
 -1       770 6.98255E-06-3.04920E-06 1.03398E-25
 -1       771 9.19771E-06-2.14848E-06 0.00000E+00
 -1       772 8.18336E-06-9.34326E-07 0.00000E+00
 -1       773 7.26681E-06 1.61304E-08 0.00000E+00
 -1       774 6.43916E-06 7.28177E-07-1.32349E-23
 -1       775 5.69135E-06 1.22717E-06-2.64698E-23
 -1       776 5.01388E-06 1.53864E-06 0.00000E+00
 -1       777 4.39717E-06 1.68818E-06 0.00000E+00
 -1       778 3.83159E-06 1.70145E-06 0.00000E+00
 -1       779 3.30750E-06 1.60418E-06-1.32349E-23
 -1       780 2.81522E-06 1.42215E-06 0.00000E+00
 -1       781 2.34510E-06 1.18117E-06 0.00000E+00
 -1       782 1.88752E-06 9.07131E-07-6.61744E-24
 -1       783 1.43288E-06 6.25895E-07 0.00000E+00
 -1       784 9.71989E-07 3.63450E-07-6.61744E-24
 -1       785 4.95738E-07 1.45780E-07 0.00000E+00
 -1       786 2.24613E-05-1.09321E-07 0.00000E+00
 -1       787 2.25415E-05 1.20787E-07 0.00000E+00
 -1       788 2.26216E-05 2.95087E-07 0.00000E+00
 -1       789 2.27024E-05 4.23689E-07-8.27181E-25
 -1       790 2.27833E-05 5.16661E-07-1.65436E-24
 -1       791 2.28644E-05 5.84053E-07 0.00000E+00
 -1       792 2.29455E-05 6.35895E-07 3.30872E-24
 -1       793 2.30266E-05 6.82204E-07 1.65436E-24
 -1       794 2.31077E-05 7.32997E-07-3.30872E-24
 -1       795 2.31888E-05 7.98293E-07 0.00000E+00
 -1       796 2.32699E-05 8.88118E-07 0.00000E+00
 -1       797 2.33509E-05 1.01252E-06 0.00000E+00
 -1       798 2.34319E-05 1.18157E-06-1.65436E-24
 -1       799 2.35126E-05 1.40536E-06-8.27181E-25
 -1       800 2.35932E-05 1.69404E-06 0.00000E+00
 -1       801 2.03920E-05-3.32084E-07 0.00000E+00
 -1       802 1.62507E-05-2.60235E-07 0.00000E+00
 -1       803 1.10508E-05-1.92995E-07 0.00000E+00
 -1       804 5.88246E-06-1.27628E-07-1.65436E-24
 -1       805 1.83590E-06-5.76197E-08 6.61744E-24
 -1       806 2.21834E-05-1.40778E-07 0.00000E+00
 -1       807 2.19885E-05 9.50363E-08 1.65436E-24
 -1       808 2.18015E-05 3.07611E-07 3.30872E-24
 -1       809 2.16209E-05 5.02049E-07-1.65436E-24
 -1       810 2.14450E-05 6.83423E-07 3.30872E-24
 -1       811 2.12721E-05 8.56771E-07 1.65436E-24
 -1       812 2.11004E-05 1.02712E-06 0.00000E+00
 -1       813 2.09278E-05 1.19950E-06-1.65436E-24
 -1       814 2.07526E-05 1.37893E-06 0.00000E+00
 -1       815 2.05729E-05 1.57042E-06 8.27181E-25
 -1       816 2.03868E-05 1.77902E-06-3.30872E-24
 -1       817 2.01924E-05 2.00973E-06 0.00000E+00
 -1       818 1.99880E-05 2.26758E-06 0.00000E+00
 -1       819 1.97718E-05 2.55762E-06 0.00000E+00
 -1       820 1.95422E-05 2.88489E-06 0.00000E+00
 -1       821 2.35970E-05 2.52233E-06 0.00000E+00
 -1       822 2.35175E-05 3.09142E-06 0.00000E+00
 -1       823 2.34381E-05 3.75425E-06-1.65436E-24
 -1       824 2.33579E-05 4.49994E-06 0.00000E+00
 -1       825 2.32775E-05 5.31755E-06-1.65436E-24
 -1       826 2.31970E-05 6.19609E-06 0.00000E+00
 -1       827 2.31164E-05 7.12453E-06 0.00000E+00
 -1       828 2.30357E-05 8.09182E-06 0.00000E+00
 -1       829 2.29550E-05 9.08685E-06 3.30872E-24
 -1       830 2.28743E-05 1.00985E-05-1.65436E-24
 -1       831 2.27936E-05 1.11157E-05 0.00000E+00
 -1       832 2.27130E-05 1.21273E-05 8.27181E-25
 -1       833 2.26326E-05 1.31221E-05 0.00000E+00
 -1       834 2.25527E-05 1.40892E-05 0.00000E+00
 -1       835 2.24728E-05 1.50172E-05 0.00000E+00
 -1       836 2.31167E-05 2.25355E-06 3.30872E-24
 -1       837 2.23666E-05 2.45623E-06 0.00000E+00
 -1       838 2.15156E-05 2.65848E-06 0.00000E+00
 -1       839 2.06579E-05 2.86026E-06 0.00000E+00
 -1       840 1.98878E-05 3.06244E-06 1.65436E-24
 -1       841 2.34883E-05 2.51726E-06 0.00000E+00
 -1       842 2.32608E-05 3.08870E-06-2.58494E-26
 -1       843 2.29954E-05 3.76138E-06 0.00000E+00
 -1       844 2.26960E-05 4.52370E-06-1.03398E-25
 -1       845 2.23676E-05 5.36321E-06 4.13590E-25
 -1       846 2.20149E-05 6.26727E-06 2.06795E-25
 -1       847 2.16429E-05 7.22247E-06 4.13590E-25
 -1       848 2.12567E-05 8.21536E-06 0.00000E+00
 -1       849 2.08616E-05 9.23200E-06 0.00000E+00
 -1       850 2.04628E-05 1.02584E-05 2.06795E-25
 -1       851 2.00656E-05 1.12806E-05 4.13590E-25
 -1       852 1.96752E-05 1.22845E-05 0.00000E+00
 -1       853 1.92969E-05 1.32561E-05-4.13590E-25
 -1       854 1.89357E-05 1.41817E-05 2.06795E-25
 -1       855 1.85968E-05 1.50481E-05-8.27181E-25
 -1       856 2.23072E-05 1.68395E-05 0.00000E+00
 -1       857 2.22132E-05 1.79538E-05-8.27181E-25
 -1       858 2.21192E-05 1.92162E-05 1.65436E-24
 -1       859 2.20243E-05 2.06045E-05 0.00000E+00
 -1       860 2.19292E-05 2.20963E-05 3.30872E-24
 -1       861 2.18338E-05 2.36691E-05-1.65436E-24
 -1       862 2.17383E-05 2.53003E-05 3.30872E-24
 -1       863 2.16428E-05 2.69674E-05 1.65436E-24
 -1       864 2.15472E-05 2.86478E-05 3.30872E-24
 -1       865 2.14517E-05 3.03189E-05 1.65436E-24
 -1       866 2.13562E-05 3.19579E-05-3.30872E-24
 -1       867 2.12609E-05 3.35425E-05 0.00000E+00
 -1       868 2.11657E-05 3.50499E-05 3.30872E-24
 -1       869 2.10711E-05 3.64577E-05 0.00000E+00
 -1       870 2.09766E-05 3.77436E-05 0.00000E+00
 -1       871 2.16424E-05 1.58877E-05 0.00000E+00
 -1       872 2.09421E-05 1.58793E-05 0.00000E+00
 -1       873 2.02761E-05 1.58706E-05 8.27181E-25
 -1       874 1.96244E-05 1.58617E-05 0.00000E+00
 -1       875 1.89669E-05 1.58525E-05-8.27181E-25
 -1       876 2.21703E-05 1.68710E-05-1.65436E-24
 -1       877 2.18943E-05 1.79941E-05-1.65436E-24
 -1       878 2.15705E-05 1.92440E-05-3.30872E-24
 -1       879 2.12067E-05 2.06021E-05 0.00000E+00
 -1       880 2.08095E-05 2.20496E-05 0.00000E+00
 -1       881 2.03857E-05 2.35679E-05 0.00000E+00
 -1       882 1.99422E-05 2.51385E-05-3.30872E-24
 -1       883 1.94861E-05 2.67429E-05 0.00000E+00
 -1       884 1.90240E-05 2.83629E-05 0.00000E+00
 -1       885 1.85630E-05 2.99801E-05-1.65436E-24
 -1       886 1.81099E-05 3.15761E-05-3.30872E-24
 -1       887 1.76716E-05 3.31326E-05-1.65436E-24
 -1       888 1.72550E-05 3.46311E-05 0.00000E+00
 -1       889 1.68662E-05 3.60528E-05 1.65436E-24
 -1       890 1.65133E-05 3.73796E-05-1.65436E-24
 -1       891 1.99663E-05 3.88364E-05 1.65436E-24
 -1       892 1.92262E-05 3.87868E-05-8.27181E-25
 -1       893 1.85721E-05 3.87374E-05 1.65436E-24
 -1       894 1.79111E-05 3.86881E-05 4.13590E-25
 -1       895 1.71504E-05 3.86387E-05 0.00000E+00
 -1       896 2.18841E-07 8.69439E-07 0.00000E+00
 -1       897 4.39631E-07 1.49978E-06 0.00000E+00
 -1       898 6.60406E-07 1.94966E-06 0.00000E+00
 -1       899 8.81564E-07 2.27598E-06 0.00000E+00
 -1       900 1.10276E-06 2.50754E-06 0.00000E+00
 -1       901 1.32403E-06 2.67225E-06 0.00000E+00
 -1       902 1.54531E-06 2.78279E-06 0.00000E+00
 -1       903 1.76660E-06 2.85132E-06-3.30872E-24
 -1       904 1.98788E-06 2.88046E-06-6.61744E-24
 -1       905 2.20910E-06 2.87244E-06-3.30872E-24
 -1       906 2.43029E-06 2.82103E-06-6.61744E-24
 -1       907 2.65121E-06 2.71961E-06 0.00000E+00
 -1       908 2.87207E-06 2.55015E-06-6.61744E-24
 -1       909 3.09155E-06 2.29398E-06 3.30872E-24
 -1       910 3.31145E-06 1.91275E-06 3.30872E-24
 -1       911 3.58929E-06 6.31880E-07 1.65436E-24
 -1       912 3.65524E-06-3.10618E-07-8.27181E-25
 -1       913 3.72100E-06-1.40312E-06 0.00000E+00
 -1       914 3.78683E-06-2.58858E-06 0.00000E+00
 -1       915 3.85261E-06-3.81602E-06 1.65436E-24
 -1       916 3.91844E-06-5.03456E-06-8.27181E-25
 -1       917 3.98434E-06-6.19272E-06 1.65436E-24
 -1       918 4.05035E-06-7.23889E-06 0.00000E+00
 -1       919 4.11650E-06-8.11416E-06 0.00000E+00
 -1       920 4.18277E-06-8.75910E-06 0.00000E+00
 -1       921 4.24914E-06-9.09934E-06 1.65436E-24
 -1       922 4.31529E-06-9.05961E-06 8.27181E-25
 -1       923 4.38126E-06-8.53996E-06 0.00000E+00
 -1       924 4.44538E-06-7.43904E-06 0.00000E+00
 -1       925 4.50894E-06-5.61790E-06-8.27181E-25
 -1       926 4.28804E-06 1.00715E-06 6.61744E-24
 -1       927 3.99896E-06 6.57163E-06-3.30872E-24
 -1       928 3.70547E-06 1.29946E-05 0.00000E+00
 -1       929 3.41022E-06 1.95025E-05 3.30872E-24
 -1       930 3.11901E-06 2.53014E-05 6.61744E-24
 -1       931 2.83483E-06 2.96056E-05 0.00000E+00
 -1       932 2.55662E-06 3.19924E-05 0.00000E+00
 -1       933 2.28109E-06 3.20614E-05 0.00000E+00
 -1       934 2.00352E-06 2.99746E-05 0.00000E+00
 -1       935 1.72011E-06 2.59194E-05-3.30872E-24
 -1       936 1.43096E-06 2.05607E-05 0.00000E+00
 -1       937 1.13830E-06 1.45790E-05 3.30872E-24
 -1       938 8.46765E-07 8.80562E-06 0.00000E+00
 -1       939 5.59951E-07 4.06972E-06 0.00000E+00
 -1       940 2.79240E-07 9.48504E-07 0.00000E+00
 -1       941 1.14407E-06 1.53468E-07 1.32349E-23
 -1       942 2.35111E-06 3.22923E-07 0.00000E+00
 -1       943 3.55419E-06 5.01503E-07-2.64698E-23
 -1       944 4.76923E-06 6.82854E-07 0.00000E+00
 -1       945 5.98463E-06 8.65791E-07-2.64698E-23
 -1       946 7.20241E-06 1.04922E-06 1.32349E-23
 -1       947 8.42048E-06 1.23298E-06 2.64698E-23
 -1       948 9.63895E-06 1.41692E-06 0.00000E+00
 -1       949 1.08575E-05 1.60122E-06 0.00000E+00
 -1       950 1.20757E-05 1.78609E-06 1.32349E-23
 -1       951 1.32936E-05 1.97282E-06-2.64698E-23
 -1       952 1.45097E-05 2.16279E-06 1.32349E-23
 -1       953 1.57255E-05 2.36348E-06-2.64698E-23
 -1       954 1.69316E-05 2.58295E-06 1.32349E-23
 -1       955 1.81410E-05 2.86446E-06 1.32349E-23
 -1       956 1.92372E-05 3.76174E-06 4.13590E-25
 -1       957 1.91741E-05 4.34076E-06-2.06795E-25
 -1       958 1.91106E-05 4.98471E-06 1.65436E-24
 -1       959 1.90471E-05 5.68611E-06-6.20385E-25
 -1       960 1.89834E-05 6.43748E-06-8.27181E-25
 -1       961 1.89197E-05 7.23128E-06 0.00000E+00
 -1       962 1.88560E-05 8.05995E-06 0.00000E+00
 -1       963 1.87922E-05 8.91595E-06-8.27181E-25
 -1       964 1.87285E-05 9.79172E-06-1.65436E-24
 -1       965 1.86647E-05 1.06797E-05-8.27181E-25
 -1       966 1.86009E-05 1.15723E-05 0.00000E+00
 -1       967 1.85372E-05 1.24621E-05-8.27181E-25
 -1       968 1.84735E-05 1.33414E-05 0.00000E+00
 -1       969 1.84099E-05 1.42027E-05 1.65436E-24
 -1       970 1.83464E-05 1.50385E-05-1.65436E-24
 -1       971 1.81574E-05 1.67053E-05 3.30872E-24
 -1       972 1.80273E-05 1.77492E-05 1.65436E-24
 -1       973 1.78970E-05 1.89510E-05 0.00000E+00
 -1       974 1.77660E-05 2.02882E-05 0.00000E+00
 -1       975 1.76348E-05 2.17383E-05-3.30872E-24
 -1       976 1.75034E-05 2.32784E-05 0.00000E+00
 -1       977 1.73719E-05 2.48858E-05 3.30872E-24
 -1       978 1.72402E-05 2.65374E-05 0.00000E+00
 -1       979 1.71086E-05 2.82104E-05 0.00000E+00
 -1       980 1.69769E-05 2.98817E-05-1.65436E-24
 -1       981 1.68454E-05 3.15284E-05 3.30872E-24
 -1       982 1.67140E-05 3.31274E-05 0.00000E+00
 -1       983 1.65828E-05 3.46559E-05 0.00000E+00
 -1       984 1.64526E-05 3.60910E-05 0.00000E+00
 -1       985 1.63224E-05 3.74100E-05 3.30872E-24
 -3
    1PSTEP                        18           9           1          
  100CL  109 4.87915E-01         841                     0    9           1
 -4  STRESS      6    1
 -5  SXX         1    4    1    1
 -5  SYY         1    4    2    2
 -5  SZZ         1    4    3    3
 -5  SXY         1    4    1    2
 -5  SYZ         1    4    2    3
 -5  SZX         1    4    3    1
 -1         1-2.01783E+06-6.47161E+05-4.15599E+05-5.75838E+05-2.30405E-10 1.08654E-09
 -1         2-1.27942E+06-6.75155E+04 1.78109E+03-1.26439E+05-6.90761E-10-1.20735E-09
 -1         3-6.51766E+05-2.29685E+05-2.05602E+04-5.37518E+04 2.01794E-11 6.07770E-10
 -1         4-3.46454E+05-6.14031E+04 5.24473E+02-2.85345E+04 2.52868E-10-1.66526E-09
 -1         5-1.77929E+05 9.73974E+04-8.78829E+04-5.37631E+03 4.80213E-09 8.48843E-10
 -1         8-1.08205E+06-4.31983E+05-1.64212E+05-3.99375E+05-2.09184E-10-1.97542E-09
 -1         9-1.15563E+06-2.59400E+05-1.44432E+05-2.59075E+05-1.81293E-10 1.41396E-09
 -1        10-5.86735E+05-3.28372E+05-2.72446E+04-1.45727E+05-2.52726E-09 8.63110E-10
 -1        11-3.24232E+05-8.41010E+04 1.10224E+03-5.46916E+04 9.17386E-09 1.51061E-09
 -1        12-2.14962E+05 7.77567E+04-9.81694E+04-3.41330E+04 5.72606E-09 1.91843E-10
 -1        15 6.36825E+03-3.85175E+04 2.31755E+03-8.82981E+04-1.22782E-10-2.24645E-09
 -1        16-6.35837E+05-1.11594E+05 2.54716E+04-2.90700E+05 1.27936E-09-2.74667E-10
 -1        17-3.93535E+05-2.63519E+05-4.36269E+04-2.15164E+05-4.24431E-12 7.61550E-10
 -1        18-1.93838E+05-9.78312E+04-7.22001E+04-1.06573E+05-1.12292E-09 1.20114E-09
 -1        19-3.08332E+04 5.36976E+04-3.70054E+04-3.24305E+04-2.04030E-10 3.54703E-10
 -1        20 6.91611E+04-5.06758E+04-8.39677E+03 3.69603E+04 5.02246E-09-2.96541E-09
 -1        21 4.89481E+02-1.02938E+05 2.58941E+04 2.75434E+02 1.45849E-08 1.59277E-09
 -1        22 2.12364E+04 1.24597E+05 8.03965E+02-2.80929E+04-2.13731E-10-8.82210E-11
 -1        23-2.47002E+05 9.48971E+03 2.75628E+03-1.04288E+05-2.39334E-09-3.69861E-11
 -1        24-1.41882E+05 2.10708E+04 1.70496E+05-2.95454E+05-5.98933E-09 1.70742E-09
 -1        25 3.71707E+05 1.28494E+05 1.16101E+05-1.90302E+05 6.43922E-10-1.30664E-10
 -1        26 1.75334E+03 1.15132E+05 5.97194E+03-2.24790E+04 9.85059E-10-1.23994E-10
 -1        27-2.69772E+04-4.33380E+04-1.87526E+04 4.97292E+04 3.73499E-09-1.13081E-09
 -1        28-8.70122E+03-8.04557E+04-4.72976E+02 3.87428E+04 4.68822E-09-2.30681E-09
 -1        29 3.03487E+05 2.08035E+05 8.60887E+02-3.15984E+03-4.73239E-11-2.02272E-09
 -1        30 1.00845E+05 2.96345E+04 1.25599E+03-2.75383E+04-3.37985E-10 1.35879E-09
 -1        31-3.46601E+05 3.25111E+04 3.16128E+03-6.15338E+04-1.96577E-09-1.36606E-09
 -1        32 4.99050E+05 2.91182E+05 3.53421E+05-3.00632E+05 7.72295E-09 2.23736E-09
 -1        33 8.48425E+05 3.60178E+05 2.65238E+05-3.26398E+04-1.04402E-08-1.34469E-09
 -1        34-1.39828E+05-1.98679E+04-6.01439E+03 2.60548E+04 2.49804E-09 9.12678E-10
 -1        35-2.24309E+04-2.66436E+04-4.92107E+02 5.74101E+04 6.58466E-09-3.04378E-10
 -1        36-2.74447E+06 8.34021E+04-1.93616E+05-3.07500E-08-6.61035E-10 1.16415E-10
 -1        37-2.82817E+06-9.65674E+04-1.36892E+05-2.33467E-07-8.57659E-10 5.18048E-09
 -1        38-2.77678E+06 1.30073E+04-5.00910E+04-2.03600E-07 7.93745E-10-3.16686E-09
 -1        39-2.79041E+06-1.50555E+04-3.14444E+04 1.32293E-07-1.26002E-09 2.59979E-09
 -1        40-2.78208E+06 2.02432E+03-1.28593E+04-9.36641E-08-7.48599E-10-1.23100E-09
 -1        41-2.78421E+06-2.36987E+03-7.65452E+03-2.38226E-07-1.77330E-09-6.01972E-09
 -1        42-2.78294E+06 3.42385E+02-3.72833E+03-5.78776E-08 9.59766E-11 1.37879E-09
 -1        43-2.78327E+06-5.93586E+02-2.91638E+03 5.14980E-08 1.61838E-09 4.95220E-10
 -1        44-2.78300E+06 2.50640E+02-2.89317E+03-1.72966E-07 1.29226E-10 1.33298E-09
 -1        45-2.78378E+06-1.57753E+03-5.23952E+03-1.06900E-07-2.29545E-09-3.48518E-09
 -1        46-2.78245E+06 1.32480E+03-8.50466E+03-1.18945E-07 8.64081E-10-1.35196E-09
 -1        47-2.78781E+06-9.82724E+03-2.05751E+04-7.90178E-08 7.40988E-10-7.08292E-09
 -1        48-2.77900E+06 8.48674E+03-3.27112E+04 1.83376E-08-2.42670E-09-3.04135E-09
 -1        49-2.81244E+06-6.30042E+04-8.93278E+04 1.83207E-07-2.19919E-09 4.83396E-09
 -1        50-2.75793E+06 5.44103E+04-1.26363E+05 5.90827E-08-2.65361E-09-9.89530E-10
 -1        51 2.24461E+04-2.62494E+05 3.61882E+04-7.04386E+05-2.76486E-10 6.63567E-09
 -1        52 9.90540E+03-2.58932E+05 2.18371E+04-7.76839E+05 6.58474E-10-2.54659E-11
 -1        53 6.16735E+03-2.65581E+05 1.74004E+04-7.02535E+05-1.96451E-10-4.73665E-09
 -1        54 1.44328E+04-2.62599E+05 2.62434E+04-7.78827E+05-3.49246E-10-6.73390E-09
 -1        55 3.37852E+04-2.70869E+05 4.73965E+04-7.02219E+05-6.54836E-11-2.33922E-09
 -1        56-3.04223E+06-3.43717E+05-2.49216E+05-1.17651E+06-1.09139E-10-1.60071E-10
 -1        57-3.15622E+06-5.49897E+05-1.67215E+05-1.15087E+06 1.84900E-09-1.56433E-09
 -1        58-3.09060E+06-4.22443E+05-5.86796E+04-1.16294E+06-6.35737E-10-1.19690E-09
 -1        59-3.10052E+06-4.57002E+05-3.47902E+04-1.16698E+06 8.29687E-10 8.69477E-10
 -1        60-3.09727E+06-4.33490E+05-1.37149E+04-1.16148E+06 2.07365E-10-3.07091E-09
 -1        61-3.09329E+06-4.43545E+05-7.76220E+03-1.16812E+06-2.68619E-09-3.49462E-09
 -1        62-3.09770E+06-4.35510E+05-3.78913E+03-1.16192E+06-1.33923E-10-8.85564E-10
 -1        63-3.09364E+06-4.40669E+05-3.17671E+03-1.16676E+06 7.35781E-10 2.57984E-10
 -1        64-3.09690E+06-4.36330E+05-3.71038E+03-1.16285E+06-7.79266E-10-2.58126E-09
 -1        65-3.09636E+06-4.40342E+05-7.52282E+03-1.16453E+06 1.65167E-09-5.11955E-09
 -1        66-3.09499E+06-4.35881E+05-1.32690E+04-1.16414E+06-1.18189E-09 3.81988E-10
 -1        67-3.10600E+06-4.50678E+05-3.36240E+04-1.16037E+06 7.45786E-11 7.23958E-10
 -1        68-3.08737E+06-4.26376E+05-5.67177E+04-1.16689E+06-1.06411E-10 2.17915E-09
 -1        69-3.16171E+06-5.38592E+05-1.61600E+05-1.14268E+06 2.14368E-09-2.57023E-09
 -1        70-3.03993E+06-3.50979E+05-2.40864E+05-1.18079E+06-9.78616E-10 1.20781E-09
 -1        71-1.28786E+06-2.65538E+03 6.17179E+03 5.19562E-08-3.82292E-10-8.77662E-11
 -1        72-1.28507E+06 3.07490E+03 4.35634E+03-6.84665E-08-1.05938E-09 8.50605E-10
 -1        73-1.28683E+06-4.13952E+02 1.58518E+03-5.27675E-08-5.58540E-10-5.40297E-09
 -1        74-1.28627E+06 4.77416E+02 9.76405E+02 1.48611E-07-1.05517E-09-8.40313E-09
 -1        75-1.28666E+06-6.26767E+01 3.59713E+02 3.41216E-08-1.10750E-09 7.10429E-10
 -1        76-1.28648E+06 6.16904E+01 1.35936E+02-5.93919E-08-2.69028E-10 2.41869E-09
 -1        77-1.28662E+06 1.08637E+00-8.42863E+01-4.79890E-08-3.82388E-10 3.37107E-09
 -1        78-1.28655E+06-7.18442E+01-3.54036E+02 2.34839E-07 2.98426E-09 1.79460E-09
 -1        79-1.28658E+06 7.06899E+01-7.19575E+02 6.60497E-08 5.32998E-10-9.57243E-11
 -1        80-1.28680E+06-5.39452E+02-1.70003E+03 8.08789E-08-6.49261E-10 1.91699E-09
 -1        81-1.28637E+06 4.68017E+02-2.95097E+03-7.48398E-08 4.60175E-10 1.56376E-09
 -1        82-1.28825E+06-3.48887E+03-7.28092E+03-8.94469E-08 4.40440E-10-5.88898E-10
 -1        83-1.28514E+06 3.01519E+03-1.16206E+04-5.05493E-08 1.53030E-10-2.55568E-10
 -1        84-1.29700E+06-2.23863E+04-3.17523E+04-2.72711E-08 6.44299E-11-3.75030E-09
 -1        85-1.27765E+06 1.93315E+04-4.49343E+04 6.74465E-08-1.58019E-09 1.83536E-09
 -1        86-6.26196E+04 2.40701E+05 1.48041E+05 1.13548E+03 1.45519E-11-8.57739E-10
 -1        87 7.80815E+04 3.06862E+05 1.14482E+05-5.00009E+03-7.82165E-11-3.16821E-09
 -1        88-1.53130E+04 2.62446E+05 5.83790E+04 6.12190E+02-3.87445E-10-1.47311E-09
 -1        89 5.33445E+04 2.95251E+05 8.21241E+04-4.29410E+03 3.54703E-11-3.78932E-09
 -1        90-3.79273E+04 2.52289E+05 9.23405E+04 4.29628E+02-4.91127E-10 3.40312E-09
 -1        91-1.39337E+06-1.91033E+05-2.03118E+04-5.29886E+05 1.07184E-09-2.72030E-09
 -1        92-1.41357E+06-1.99034E+05-1.39508E+04-5.14291E+05 2.79920E-09-1.07048E-09
 -1        93-1.39549E+06-1.99835E+05-4.74485E+03-5.30304E+05 2.08291E-09 7.25322E-11
 -1        94-1.40708E+06-1.92144E+05-2.86063E+03-5.17531E+05 7.43228E-10 2.26373E-09
 -1        95-1.39984E+06-1.97918E+05-1.26147E+03-5.26638E+05-4.71516E-11-1.04279E-09
 -1        96-1.39822E+06-1.98590E+05-5.51975E+02-5.26593E+05 2.08695E-09 1.17016E-09
 -1        97-1.40434E+06-1.93401E+05-5.14161E+02-5.21229E+05-2.15152E-10 1.13953E-09
 -1        98-1.39285E+06-2.04417E+05-5.39363E+02-5.33486E+05-4.20425E-09 1.98849E-10
 -1        99-1.40523E+06-1.92067E+05-9.14174E+02-5.19768E+05-5.49048E-09-7.17063E-09
 -1       100-1.39528E+06-2.02741E+05-2.05205E+03-5.30650E+05-3.55540E-09-1.50337E-09
 -1       101-1.40189E+06-1.95090E+05-3.86034E+03-5.24054E+05-2.66994E-09 1.97974E-09
 -1       102-1.40571E+06-1.99150E+05-9.85060E+03-5.20596E+05-1.02273E-09-2.11924E-09
 -1       103-1.39480E+06-1.95675E+05-1.61226E+04-5.29813E+05 4.70664E-10 4.72937E-10
 -1       104-1.42772E+06-2.22467E+05-4.75193E+04-5.09417E+05-7.38510E-10 4.04498E-09
 -1       105-1.37995E+06-1.71794E+05-6.86264E+04-5.35251E+05-2.32831E-10 1.36788E-09
 -1       106-7.35326E+05-1.68826E+03 3.92454E+03-1.34618E-08-5.31748E-10 2.55113E-10
 -1       107-7.33560E+05 1.95500E+03 2.77031E+03-5.92737E-08 1.64818E-10-5.26086E-11
 -1       108-7.34671E+05-2.63186E+02 1.00830E+03-3.44235E-08 1.44560E-10-3.71165E-09
 -1       109-7.34325E+05 3.03535E+02 6.21033E+02-1.08881E-07-8.96482E-10-2.72608E-09
 -1       110-7.34562E+05-3.98472E+01 2.28760E+02-9.13911E-08-3.12529E-11 6.50985E-10
 -1       111-7.34456E+05 3.91978E+01 8.62602E+01-4.93249E-08-3.96234E-10 3.53573E-10
 -1       112-7.34540E+05 7.12477E-01-5.40521E+01-1.86267E-07-2.51827E-10-1.73060E-09
 -1       113-7.34504E+05-4.58446E+01-2.26160E+02-1.44988E-07-6.38579E-10-2.60169E-09
 -1       114-7.34514E+05 4.50891E+01-4.59463E+02-6.98418E-08-4.34843E-11 4.08392E-10
 -1       115-7.34663E+05-3.44056E+02-1.08513E+03-1.12798E-07 2.95266E-10-1.76613E-10
 -1       116-7.34382E+05 2.98493E+02-1.88353E+03-1.04807E-07-3.50643E-10 1.55114E-09
 -1       117-7.35584E+05-2.22513E+03-4.64589E+03 2.85183E-07-2.77440E-10 1.71531E-09
 -1       118-7.33596E+05 1.92299E+03-7.41498E+03-2.17094E-08-1.53316E-09-7.77163E-10
 -1       119-7.41162E+05-1.42773E+04-2.02553E+04-6.69204E-08-3.30087E-10-6.96673E-10
 -1       120-7.28810E+05 1.23289E+04-2.86642E+04-3.16185E-08 2.34390E-10-4.43833E-10
 -1       121-1.02143E+03-7.32079E+05 4.57321E+03 6.30525E+03-6.43468E-11 1.53659E-09
 -1       122 1.48847E+03-7.30294E+05 3.38358E+03 2.46895E+04-1.24658E-10 2.55329E-09
 -1       123-2.26584E+02-7.31488E+05 2.22287E+03 6.41853E+03-2.35389E-10 2.82762E-09
 -1       124 1.47257E+03-7.30225E+05 3.39662E+03 2.43629E+04-1.22924E-10 3.83716E-09
 -1       125-1.06461E+03-7.32060E+05 4.57802E+03 6.63202E+03-5.15229E-10 3.15640E-09
 -1       126-6.17466E+05-8.59795E+04 5.99600E+03-2.24268E+05 9.96033E-09 1.79989E-09
 -1       127-5.84788E+05-9.33958E+04 6.58796E+03-2.41157E+05 9.39394E-09 5.18668E-09
 -1       128-6.16951E+05-7.68702E+04 1.46508E+03-2.17247E+05-1.10778E-08-5.99488E-09
 -1       129-5.85912E+05-1.03617E+05 1.31000E+03-2.49304E+05-1.56041E-08-4.31226E-09
 -1       130-6.16578E+05-7.55886E+04 3.31807E+02-2.16295E+05-9.06402E-09 5.33404E-09
 -1       131-5.86526E+05-9.99459E+04 1.17814E+03-2.43779E+05 2.40289E-09-2.34830E-09
 -1       132-6.16184E+05-8.06570E+04-9.57581E+02-2.22658E+05 9.09756E-09-1.31246E-09
 -1       133-5.92190E+05-8.75899E+04 2.19641E+03-2.28396E+05 6.94627E-09 1.99407E-10
 -1       134-6.10650E+05-8.81432E+04-1.64536E+03-2.31475E+05 9.53378E-10 2.35286E-09
 -1       135-6.07902E+05-7.46069E+04 1.13927E+03-2.13588E+05-7.05523E-09 2.85971E-09
 -1       136-6.00564E+05-9.35711E+04-1.79102E+03-2.37533E+05 5.41496E-09 1.90175E-09
 -1       137-6.23842E+05-6.84376E+04-2.95509E+03-2.05757E+05 9.17702E-09 3.85535E-09
 -1       138-5.94995E+05-9.41026E+04-5.40702E+03-2.39527E+05-2.01226E-10 3.77167E-09
 -1       139-6.28039E+05-7.82706E+04-1.54723E+04-2.04443E+05 1.52377E-08 1.00667E-08
 -1       140-5.96350E+05-8.37704E+04-2.40250E+04-2.38825E+05 1.99998E-09-8.39736E-09
 -1       141-3.36506E+05-2.86675E+03 6.66435E+03-2.06172E-07 7.78407E-10 8.19909E-10
 -1       142-3.33588E+05 3.31959E+03 4.70334E+03 5.22464E-08 2.07968E-10 1.62561E-09
 -1       143-3.35392E+05-4.46841E+02 1.70950E+03-1.17114E-08 1.87935E-10-6.06178E-10
 -1       144-3.34887E+05 5.14896E+02 1.04806E+03-7.74488E-08 4.57595E-11 8.19455E-10
 -1       145-3.35208E+05-6.71987E+01 3.75462E+02-1.35841E-07 2.09854E-10-6.49806E-10
 -1       146-3.35112E+05 6.29884E+01 1.18356E+02-1.49219E-07 6.66327E-11-4.15824E-09
 -1       147-3.35168E+05 4.31712E+00-1.44727E+02-4.30343E-08-3.01703E-12-1.43304E-09
 -1       148-3.35206E+05-1.01366E+02-5.00449E+02-3.94418E-08-2.87341E-10 1.32133E-10
 -1       149-3.35114E+05 9.69528E+01-9.91605E+02-5.50195E-08 5.62579E-12-7.32314E-10
 -1       150-3.35544E+05-7.37050E+02-2.32824E+03-1.39383E-07-2.71152E-11-4.79361E-10
 -1       151-3.34830E+05 6.39088E+02-4.03626E+03 3.93796E-08 9.38030E-12 1.43177E-09
 -1       152-3.37514E+05-4.76358E+03-9.95038E+03 5.21733E-08 2.67271E-10 1.86810E-09
 -1       153-3.33146E+05 4.11676E+03-1.58793E+04-1.25876E-08 1.25205E-09 2.16733E-09
 -1       154-3.49453E+05-3.05644E+04-4.33687E+04-2.04285E-07 4.47389E-10-2.25009E-09
 -1       155-3.22892E+05 2.63939E+04-6.13626E+04 4.99912E-08 3.03317E-09-1.46974E-09
 -1       156-1.07814E+04-1.39099E+05 2.56103E+04-6.38983E+03-2.21553E-09-1.88197E-09
 -1       157 1.40746E+04-1.26440E+05 2.11672E+04 2.64825E+04-5.65888E-09-2.20058E-09
 -1       158-3.23707E+03-1.35601E+05 1.25050E+04-6.40706E+03-2.79655E-09-1.32894E-09
 -1       159 1.43896E+04-1.23650E+05 2.18989E+04 2.55544E+04-1.09526E-09 2.91530E-09
 -1       160-1.12025E+04-1.41742E+05 2.53376E+04-5.46196E+03 5.52518E-09 5.97311E-10
 -1       161-3.77917E+05-5.23687E+04-1.75501E+03-1.41896E+05 3.04681E-11-1.56683E-09
 -1       162-3.78415E+05-5.43580E+04-1.21991E+03-1.42026E+05 3.12994E-11-5.42741E-10
 -1       163-3.78315E+05-5.29543E+04-4.20402E+02-1.41729E+05-5.49036E-11-1.04548E-09
 -1       164-3.77973E+05-5.36636E+04-2.77787E+02-1.42198E+05 2.07876E-10-4.75598E-10
 -1       165-3.78360E+05-5.30619E+04-1.37918E+02-1.41725E+05 7.22482E-10 4.67070E-10
 -1       166-3.77985E+05-5.34964E+04-1.53208E+02-1.42137E+05 8.27276E-10 1.51215E-09
 -1       167-3.78302E+05-5.31215E+04-2.09657E+02-1.41791E+05 3.22685E-10 1.69532E-09
 -1       168-3.78184E+05-5.34388E+04-4.59845E+02-1.41960E+05-5.75611E-11 5.24565E-10
 -1       169-3.78161E+05-5.31196E+04-8.25692E+02-1.41902E+05 7.35568E-10-1.89672E-09
 -1       170-3.78767E+05-5.39294E+04-2.06349E+03-1.41650E+05-4.21565E-10 1.56592E-09
 -1       171-3.77720E+05-5.26317E+04-3.57098E+03-1.42100E+05-2.84217E-13 3.61365E-09
 -1       172-3.81434E+05-5.80535E+04-9.60898E+03-1.40716E+05 3.78122E-10 2.64527E-09
 -1       173-3.75497E+05-4.90017E+04-1.54131E+04-1.42835E+05-1.38539E-09 2.29647E-09
 -1       174-3.97083E+05-8.52875E+04-4.56115E+04-1.35513E+05-6.80006E-09 2.74940E-09
 -1       175-3.62080E+05-2.54375E+04-6.57570E+04-1.47290E+05-3.09865E-09 4.14730E-10
 -1       191 1.04872E+03 3.74125E+05 1.71106E+03-1.01746E+04-1.76442E-10-1.06411E-09
 -1       192 3.79216E+02 3.74373E+05 1.02323E+03-1.09177E+04 2.87855E-10-1.30558E-09
 -1       193 1.72801E+02 3.74206E+05 8.21094E+02-1.00084E+04-5.37000E-10 2.49565E-09
 -1       194 5.00766E+02 3.74403E+05 1.24053E+03-1.12274E+04 2.63071E-10-3.33876E-09
 -1       195 1.42361E+03 3.74068E+05 2.25161E+03-9.86373E+03-9.13133E-10 6.78483E-10
 -1       251-1.71243E+06 3.92414E+04-9.18736E+04-1.79977E+04 6.67569E-10-4.36557E-11
 -1       252-1.74845E+06-4.53087E+04-6.42326E+04 4.13101E+04 3.11672E-10-7.44876E-10
 -1       253-1.72796E+06 6.12026E+03-2.39995E+04-1.72856E+04-9.61791E-11-2.06364E-09
 -1       254-1.72599E+06-6.80396E+03-1.34948E+04 2.03055E+04-2.37378E-10-3.31784E-09
 -1       255-1.73453E+06 5.15707E+02-7.28845E+03 3.00757E+03-4.85102E-10 2.57205E-09
 -1       256-1.72363E+06-7.70229E+02-2.39399E+03-1.92436E+04-1.17143E-09 5.80371E-09
 -1       257-1.73033E+06 1.24413E+02-2.08176E+03 2.22628E+04-2.34252E-09 7.74691E-09
 -1       258-1.72755E+06-6.86213E+01-1.22433E+03-3.72341E+04-8.27633E-10 2.49124E-09
 -1       259-1.73089E+06 7.42293E+01-2.20127E+03 2.10001E+04-2.76168E-09 1.80381E-09
 -1       260-1.72304E+06-7.62134E+02-2.28025E+03-1.54676E+04-1.50931E-09-1.67529E-09
 -1       261-1.73452E+06 5.23001E+02-7.28679E+03 4.94187E+02 3.94721E-10 1.95951E-09
 -1       262-1.72657E+06-6.83030E+03-1.36157E+04 2.40306E+04-6.55632E-10 2.35559E-10
 -1       263-1.72742E+06 6.17507E+03-2.38898E+04-1.84973E+04-1.91471E-09-1.40881E-09
 -1       264-1.74842E+06-4.53102E+04-6.42397E+04 4.11851E+04-8.70528E-09-3.47791E-09
 -1       265-1.71299E+06 3.91857E+04-9.20211E+04-1.66608E+04-5.33657E-09-6.73026E-10
 -1       266-1.58858E+04-2.82666E+05 3.59659E+04 3.38493E+03 7.27596E-12-2.39959E-09
 -1       267 1.70801E+04-2.66125E+05 2.31980E+04-1.05454E+04 1.32786E-10-4.15487E-09
 -1       268-1.14003E+03-2.75281E+05 4.25308E+03 4.35631E+03-2.54659E-11 7.39306E-10
 -1       269-7.22641E+03-2.77989E+05-8.65450E+03-1.15175E+04-1.05729E-10 5.34587E-09
 -1       270 8.40053E+03-2.70843E+05-1.85646E+04 4.35713E+03 9.09495E-12 6.47890E-09
 -1       271-2.62109E+06-3.30969E+05-2.03733E+05-1.01514E+06 1.53159E-09 1.58616E-09
 -1       272-2.68927E+06-4.67504E+05-1.28593E+05-1.01916E+06-4.93628E-10 3.20142E-10
 -1       273-2.65722E+06-3.76504E+05-4.80586E+04-1.00892E+06-2.21064E-10-1.69348E-09
 -1       274-2.64721E+06-4.08738E+05-2.64020E+04-1.03001E+06 7.80801E-10 7.06223E-10
 -1       275-2.66196E+06-3.80762E+05-1.11791E+04-1.00771E+06-7.85349E-10-5.90126E-09
 -1       276-2.64157E+06-4.03477E+05-5.92199E+03-1.03209E+06 1.41881E-10-2.44017E-09
 -1       277-2.66287E+06-3.80870E+05-3.04301E+03-1.00723E+06 7.63976E-11 2.48860E-09
 -1       278-2.64061E+06-4.03371E+05-2.40238E+03-1.03275E+06-3.36740E-10-1.51182E-09
 -1       279-2.66298E+06-3.80765E+05-2.88958E+03-1.00712E+06 2.99750E-10 2.92289E-09
 -1       280-2.64116E+06-4.03814E+05-5.50951E+03-1.03258E+06-1.83650E-09 2.04329E-09
 -1       281-2.66231E+06-3.80487E+05-1.03263E+04-1.00737E+06 2.36469E-10-1.36060E-09
 -1       282-2.64611E+06-4.08958E+05-2.43804E+04-1.03102E+06 2.66368E-10-4.67480E-09
 -1       283-2.65807E+06-3.76423E+05-4.43452E+04-1.00834E+06 7.52607E-11 3.00133E-10
 -1       284-2.68470E+06-4.63431E+05-1.18684E+05-1.02129E+06-2.30898E-09-7.63976E-09
 -1       285-2.62484E+06-3.34293E+05-1.88022E+05-1.01397E+06 2.43745E-10 1.06957E-09
 -1       286-4.46226E+05-9.61388E+03 2.23321E+04-1.01007E+03 1.99296E-09 1.03682E-09
 -1       287-4.36295E+05 1.11340E+04 1.58215E+04 6.89857E+02 1.38482E-09 4.67026E-09
 -1       288-4.42525E+05-1.50360E+03 5.76982E+03-2.29709E+02 4.86608E-10 3.59250E-10
 -1       289-4.40635E+05 1.73924E+03 3.67048E+03-8.92776E+02 5.61400E-11 3.01270E-10
 -1       290-4.41891E+05-2.36849E+02 1.48877E+03 5.72604E+02 4.98318E-10 2.10093E-10
 -1       291-4.41420E+05 2.80215E+02 9.35865E+02-2.27595E+03 3.88020E-10 2.84949E-09
 -1       292-4.41744E+05-4.39077E+01 4.91389E+02 1.15349E+03 7.40933E-10 8.52111E-10
 -1       293-4.41586E+05 9.93842E+01 4.80264E+02-3.04444E+03 7.54492E-10 1.89139E-09
 -1       294-4.41729E+05-5.32072E+01 5.89344E+02 1.34111E+03 1.09166E-09 4.43634E-10
 -1       295-4.41438E+05 3.68565E+02 1.19371E+03-2.97101E+03 8.64024E-10-2.45471E-09
 -1       296-4.41892E+05-3.13017E+02 1.98461E+03 1.08005E+03 8.36891E-10 8.75616E-10
 -1       297-4.40403E+05 2.32232E+03 4.87453E+03-2.07800E+03 9.95328E-10 2.43762E-09
 -1       298-4.42758E+05-2.00705E+03 7.71671E+03 4.48079E+02 1.49498E-11 2.09138E-09
 -1       299-4.34528E+05 1.48793E+04 2.11367E+04-6.37347E+02-1.05125E-10 6.84167E-10
 -1       300-4.47757E+05-1.28493E+04 2.98471E+04-3.60629E+02 4.30305E-11 1.80444E-09
 -1       301 3.59885E+04 1.95643E+04 7.87700E+04-2.34731E+04 2.18643E-09-1.26533E-09
 -1       302 1.21668E+04 3.42910E+04 4.78183E+04-2.75572E+04 1.88311E-09-2.32533E-09
 -1       303 3.39737E+03 2.48318E+04 3.76646E+04-2.35086E+04 2.02499E-09-4.57703E-10
 -1       304 1.49659E+04 3.59348E+04 5.52773E+04-2.75306E+04 1.55524E-09-1.59685E-09
 -1       305 4.50734E+04 1.79317E+04 9.68726E+04-2.34844E+04 2.08092E-09 2.12594E-10
 -1       306-1.80645E+06-2.34399E+05-1.21551E+05-7.00226E+05 9.36780E-10-1.57161E-09
 -1       307-1.83622E+06-3.26430E+05-7.66705E+04-7.14906E+05-8.14339E-10-6.81757E-09
 -1       308-1.82812E+06-2.61369E+05-2.86881E+04-6.96412E+05 1.93268E-11 2.56478E-09
 -1       309-1.81111E+06-2.91544E+05-1.57580E+04-7.21600E+05-1.31718E-09 3.69778E-09
 -1       310-1.83099E+06-2.63854E+05-6.69407E+03-6.95668E+05 6.46196E-10 2.66573E-09
 -1       311-1.80780E+06-2.88406E+05-3.57660E+03-7.22880E+05 1.82479E-09 4.79076E-10
 -1       312-1.83151E+06-2.63935E+05-1.90346E+03-6.95415E+05 2.70575E-10-2.05455E-09
 -1       313-1.80734E+06-2.88257E+05-1.62613E+03-7.23171E+05 2.94690E-09-3.15299E-09
 -1       314-1.83149E+06-2.63938E+05-2.11444E+03-6.95424E+05-4.35534E-10-4.97539E-09
 -1       315-1.80790E+06-2.88452E+05-4.16000E+03-7.22832E+05-1.10776E-09 1.29148E-10
 -1       316-1.83089E+06-2.63815E+05-7.87446E+03-6.95698E+05-1.42791E-10 1.35378E-09
 -1       317-1.81176E+06-2.92243E+05-1.86011E+04-7.21431E+05-1.28466E-09-1.97088E-09
 -1       318-1.82757E+06-2.60809E+05-3.38716E+04-6.96507E+05-4.98176E-10 2.69210E-09
 -1       319-1.84127E+06-3.33625E+05-9.05608E+04-7.13750E+05 8.72205E-10 9.02219E-10
 -1       320-1.80209E+06-2.28821E+05-1.43539E+05-7.00882E+05-3.32875E-10 6.76664E-10
 -1       321-4.20878E+05-1.39418E+04 3.22236E+04 5.93197E+02-1.60384E-09 4.60204E-10
 -1       322-4.05781E+05 1.61376E+04 2.29637E+04-4.16900E+03 2.87059E-11-9.45874E-11
 -1       323-4.15250E+05-2.17887E+03 8.32013E+03 2.05549E+03-8.34433E-10 2.84217E-10
 -1       324-4.12518E+05 2.52475E+03 5.27877E+03-6.40091E+03-3.53049E-09 1.38908E-09
 -1       325-4.14172E+05-3.35831E+02 2.12796E+03 2.82517E+03 1.38932E-10-8.62769E-10
 -1       326-4.13714E+05 4.01256E+02 1.24063E+03-7.01892E+03-9.63668E-10-8.82096E-10
 -1       327-4.14065E+05-5.23694E+01 5.27712E+02 2.67353E+03-3.87405E-09 4.91582E-10
 -1       328-4.13601E+05 7.16335E+01 3.57709E+02-5.83608E+03 1.64732E-10 2.91895E-09
 -1       329-4.14269E+05-1.88447E+01 7.79119E+01 1.64227E+03 1.25416E-09 2.04040E-09
 -1       330-4.13198E+05 2.34063E+01 2.17530E+02-3.17752E+03-1.84495E-09-1.19906E-09
 -1       331-4.14444E+05-2.25974E+01-6.06719E+01 1.49405E+01-1.72577E-09-3.61285E-09
 -1       332-4.13074E+05 2.42453E+01 1.89918E+02 2.20831E+02 4.52226E-09-2.28172E-09
 -1       333-4.14385E+05-2.53451E+01-7.48351E+01-1.75603E+03 2.79078E-09 1.13580E-09
 -1       334-4.13387E+05 4.35342E+01 1.21567E+02 3.41661E+03 5.07339E-09 5.36898E-09
 -1       335-4.14149E+05-2.89237E+01-3.38923E+01-3.18088E+03-4.21366E-09 2.69206E-09
 -1       336-7.47600E+02-7.41697E+05 2.11311E+03-8.56353E+03-1.08412E-09-1.64664E-09
 -1       337 3.48042E+02-7.41080E+05-1.52526E+03-3.63164E+04-7.10685E-10-4.82487E-09
 -1       338 5.92665E+02-7.40708E+05-6.15101E+03-8.37823E+03-1.27375E-09 3.01475E-09
 -1       339-8.43556E+03-7.46380E+05-1.71444E+04-3.65352E+04-6.24368E-10 9.59744E-10
 -1       340 6.38599E+03-7.36492E+05-2.74095E+04-8.34719E+03-1.08957E-09 6.78284E-10
 -1       341-1.19551E+06-1.50717E+05-5.03644E+04-4.59956E+05-2.79942E-09 1.50976E-10
 -1       342-1.22658E+06-1.92103E+05-3.49146E+04-4.45795E+05-3.05681E-09-1.78261E-10
 -1       343-1.20691E+06-1.67748E+05-1.18367E+04-4.55383E+05 6.60293E-10 1.33696E-09
 -1       344-1.21162E+06-1.74105E+05-7.35259E+03-4.53037E+05 7.35554E-11 1.55762E-09
 -1       345-1.21044E+06-1.68686E+05-2.82941E+03-4.52713E+05-6.78824E-10-1.82808E-10
 -1       346-1.20698E+06-1.73723E+05-1.74095E+03-4.56913E+05 2.94705E-10 2.22400E-10
 -1       347-1.21156E+06-1.68120E+05-9.71061E+02-4.51511E+05-1.92257E-09 1.72956E-09
 -1       348-1.20670E+06-1.73498E+05-1.15354E+03-4.57078E+05 1.55621E-09 1.19066E-09
 -1       349-1.21071E+06-1.68910E+05-1.67426E+03-4.52548E+05 9.02496E-10 2.60883E-09
 -1       350-1.21005E+06-1.71890E+05-3.83806E+03-4.53707E+05-7.80247E-10 6.13454E-10
 -1       351-1.20821E+06-1.69734E+05-6.63845E+03-4.54879E+05 1.60185E-10 5.47971E-11
 -1       352-1.21778E+06-1.76781E+05-1.77295E+04-4.48887E+05-2.02022E-10 2.12140E-09
 -1       353-1.20299E+06-1.64028E+05-2.84493E+04-4.57372E+05-4.19277E-10-5.54792E-10
 -1       354-1.24703E+06-2.26769E+05-8.42053E+04-4.38926E+05 3.52702E-09 5.92991E-10
 -1       355-1.17900E+06-1.19820E+05-1.21415E+05-4.64829E+05 6.98492E-10-8.73115E-11
 -1       356-4.14544E+05-6.01988E+00-6.62235E+01-3.38247E+03-2.57501E-10 1.92945E-09
 -1       357-4.14004E+05 2.10862E+01 5.33974E+01 4.17973E+03-6.82142E-09-1.46107E-09
 -1       358-4.14795E+05-2.00097E+01-9.88781E+01-2.13549E+03-3.35152E-09-2.00728E-09
 -1       359-4.13609E+05 1.85925E+01 1.18222E+02 1.21751E+03 1.19977E-09 2.60532E-09
 -1       360-4.14918E+05-1.96916E+01-1.68796E+02-4.20160E+02 1.05183E-09-1.97226E-09
 -1       361-4.13620E+05-3.45592E+00 7.60569E+00-2.20704E+03 1.08382E-09-1.87343E-09
 -1       362-4.14785E+05 2.27731E+00-3.52854E+02 1.28902E+03-1.85088E-09-4.33516E-10
 -1       363-4.14070E+05-1.12540E+02-5.36310E+02-5.14343E+03 2.07223E-10 2.20126E-11
 -1       364-4.14490E+05 1.05666E+02-1.14771E+03 2.51624E+03 5.11619E-09 1.06098E-09
 -1       365-4.14806E+05-8.03835E+02-2.57821E+03-6.77807E+03-7.50833E-09 1.29512E-09
 -1       366-4.14069E+05 7.08180E+02-4.47167E+03 2.92372E+03 4.68451E-09 2.72667E-09
 -1       367-4.16953E+05-5.25414E+03-1.09939E+04-6.66003E+03 5.33747E-09-1.30876E-09
 -1       368-4.12344E+05 4.54726E+03-1.76016E+04 2.39818E+03 2.24313E-09-3.59250E-10
 -1       369-4.29757E+05-3.37814E+04-4.78913E+04-4.79558E+03 4.22409E-09 5.77529E-10
 -1       370-4.01247E+05 2.91678E+04-6.79927E+04 1.05920E+03 4.15798E-09-1.38243E-10
 -1       371-1.06333E+04-1.40857E+05 2.34904E+04-3.07374E+03 8.15999E-09 4.98403E-10
 -1       372 1.10173E+04-1.27472E+05 1.50438E+04 1.57028E+04 1.79898E-09-8.05500E-10
 -1       373-4.28036E+02-1.34954E+05 1.66156E+03-3.80725E+03 1.33332E-09 2.79528E-10
 -1       374-7.12034E+03-1.37402E+05-8.84692E+03 1.65731E+04-1.65051E-09 1.14755E-09
 -1       375 7.53286E+03-1.31014E+05-1.67770E+04-3.94384E+03-1.54614E-10 2.69110E-09
 -1       376-5.94076E+05-8.27244E+04-2.36011E+04-2.37105E+05 1.91098E-08-2.61389E-09
 -1       377-6.24970E+05-8.02149E+04-1.55822E+04-2.06357E+05 1.63818E-08 1.21167E-09
 -1       378-5.94392E+05-9.25952E+04-5.38522E+03-2.37385E+05-1.50561E-08 3.98586E-09
 -1       379-6.19415E+05-7.09299E+04-3.00410E+03-2.08178E+05-1.60480E-08-3.26690E-09
 -1       380-5.99620E+05-9.19976E+04-1.76753E+03-2.35284E+05-6.82917E-10 5.74346E-10
 -1       381-6.05593E+05-7.66585E+04 6.61307E+02-2.15736E+05 9.73768E-09 1.58462E-09
 -1       382-6.07993E+05-8.70284E+04-1.57277E+03-2.29658E+05 4.08170E-09-1.80319E-09
 -1       383-5.92631E+05-8.82357E+04 1.05877E+03-2.28938E+05 6.04331E-09 1.84423E-09
 -1       384-6.12533E+05-8.04576E+04-1.70130E+03-2.22047E+05-1.40769E-08 2.05959E-09
 -1       385-5.88087E+05-9.94276E+04-1.71459E+03-2.41664E+05-1.79925E-08 1.51658E-10
 -1       386-6.12747E+05-7.56806E+04-4.10794E+03-2.17091E+05 1.21755E-08 7.48514E-09
 -1       387-5.90442E+05-1.07288E+05-1.07865E+04-2.44659E+05 1.57327E-08 2.53044E-09
 -1       388-6.10282E+05-7.25304E+04-1.78410E+04-2.19124E+05 3.49130E-08 3.39242E-09
 -1       389-6.09687E+05-1.31817E+05-5.09219E+04-2.30739E+05 2.88530E-08 1.85901E-09
 -1       390-5.93329E+05-5.13385E+04-7.61870E+04-2.30858E+05-3.80169E-10 4.47471E-10
 -1       406 1.15896E+03 3.69360E+05 2.36233E+03-3.45753E+04-1.07957E-09-3.91083E-11
 -1       407 6.82902E+02 3.69775E+05 2.61253E+03-3.80220E+04 2.62162E-10-2.02090E-09
 -1       408 9.89351E+02 3.69310E+05 4.09060E+03-3.44450E+04-1.51113E-09 2.09275E-09
 -1       409 3.93241E+03 3.70873E+05 8.64729E+03-3.82048E+04 2.27374E-11-4.87034E-10
 -1       410 1.13499E+04 3.68204E+05 1.73606E+04-3.43833E+04-1.57888E-09 2.04091E-09
 -1       466 1.29462E+06-5.19464E+04 1.20332E+05 1.01318E+04-3.06954E-12-2.16096E-09
 -1       467 1.35005E+06 6.00665E+04 8.56027E+04-1.67882E+04-4.24663E-10-7.09406E-10
 -1       468 1.31612E+06-8.05451E+03 3.12529E+04 2.89888E+03-5.27280E-10-4.42014E-10
 -1       469 1.32504E+06 9.31777E+03 1.97113E+04-6.96179E+03-3.83501E-10-1.15779E-09
 -1       470 1.31959E+06-1.25114E+03 8.15851E+03 3.05776E+02-2.43269E-10-1.20190E-09
 -1       471 1.32103E+06 1.49367E+03 5.04510E+03-3.46820E+03-3.92731E-10 1.96860E-09
 -1       472 1.32014E+06-2.37917E+02 2.81930E+03-5.94758E+02-4.37019E-11 1.34611E-09
 -1       473 1.32054E+06 5.81478E+02 2.88646E+03-2.37843E+03 1.18924E-10-4.04960E-09
 -1       474 1.32008E+06-3.39590E+02 3.73741E+03-7.84021E+02 3.65947E-11-1.03512E-09
 -1       475 1.32147E+06 2.36940E+03 7.69445E+03-2.50642E+03 1.69214E-09-3.33205E-09
 -1       476 1.31920E+06-2.02319E+03 1.29400E+04-4.66757E+02 1.13986E-09 1.99179E-10
 -1       477 1.32771E+06 1.50615E+04 3.15929E+04-3.99387E+03 1.55181E-09-1.58616E-09
 -1       478 1.31383E+06-1.30106E+04 5.03224E+04 7.03467E+02 7.51101E-10-2.00089E-10
 -1       479 1.36577E+06 9.66553E+04 1.37322E+05-8.55246E+03 9.18334E-10 1.55524E-09
 -1       480 1.28111E+06-8.34616E+04 1.94265E+05 4.09146E+03 2.54937E-09-1.01863E-10
 -1       481-1.01623E+04 2.15016E+05 2.35832E+04-2.85133E+03-2.54659E-11-1.19394E-09
 -1       482 1.21711E+04 2.26798E+05 1.76927E+04 7.32253E+03-2.41243E-10 4.84393E-09
 -1       483-2.01933E+03 2.19150E+05 7.69293E+03-1.99514E+03-2.50111E-11 1.92864E-09
 -1       484 5.20066E+03 2.22984E+05 8.50472E+03 6.08112E+03-1.34150E-11-3.20853E-10
 -1       485-3.18327E+03 2.18799E+05 8.08936E+03-1.60984E+03 6.75300E-11-8.20201E-10
 -1       486-1.19516E+06-1.40159E+05-1.14732E+05-4.89914E+05-8.27640E-10-3.43425E-09
 -1       487-1.29573E+06-1.98969E+05-7.85524E+04-4.17307E+05 1.52568E-09 7.04858E-09
 -1       488-1.22303E+06-1.79026E+05-2.75343E+04-4.80175E+05 1.83718E-10 1.09139E-10
 -1       489-1.24306E+06-1.67874E+05-1.41342E+04-4.43488E+05-8.61291E-10-9.04038E-10
 -1       490-1.24739E+06-1.71531E+05-8.26142E+03-4.63420E+05 1.16529E-11 1.01772E-09
 -1       491-1.21200E+06-1.89346E+05-1.53472E+03-4.78297E+05-1.30194E-09 5.82332E-09
 -1       492-1.25417E+06-1.57467E+05-1.97696E+03-4.45439E+05 5.22789E-10-6.14250E-10
 -1       493-1.20561E+06-2.01794E+05-7.29758E+02-4.94966E+05-7.15382E-10-3.82059E-11
 -1       494-1.25408E+06-1.58800E+05-2.04338E+03-4.47005E+05-2.44654E-10 3.93800E-09
 -1       495-1.21414E+06-1.85647E+05-7.81097E+02-4.74147E+05 9.32431E-10-7.17046E-09
 -1       496-1.24527E+06-1.73946E+05-7.33323E+03-4.65957E+05 1.12425E-09-4.13638E-09
 -1       497-1.24690E+06-1.63271E+05-1.18669E+04-4.40150E+05 1.00040E-09-4.02360E-09
 -1       498-1.22136E+06-1.81166E+05-2.32022E+04-4.81018E+05-1.64528E-09-5.83805E-09
 -1       499-1.29130E+06-1.90144E+05-6.65452E+04-4.18654E+05-2.98860E-09-6.80757E-09
 -1       500-1.20126E+06-1.46823E+05-9.75942E+04-4.87734E+05-6.53563E-09 6.07906E-09
 -1       501-3.61741E+05-1.99304E+04 4.62986E+04-4.52769E+02 1.25502E-09-6.18456E-11
 -1       502-3.41240E+05 2.30786E+04 3.27850E+04-7.17197E+02 1.20373E-10 2.26646E-09
 -1       503-3.53992E+05-3.11284E+03 1.19622E+04 3.54660E+02 4.13991E-10-1.69939E-09
 -1       504-3.50337E+05 3.60015E+03 7.55173E+03-2.20359E+03-9.14973E-10-6.31303E-10
 -1       505-3.52658E+05-4.84996E+02 3.04744E+03 1.03367E+03 8.57995E-10-1.31945E-09
 -1       506-3.51947E+05 5.63625E+02 1.79692E+03-3.25413E+03 1.88842E-09-1.26306E-09
 -1       507-3.52391E+05-7.62693E+01 8.00992E+02 1.40522E+03 1.54042E-09-5.15712E-10
 -1       508-3.52244E+05 1.04100E+02 4.96186E+02-3.59985E+03 9.67069E-10 2.03613E-10
 -1       509-3.52364E+05-2.39492E+01 3.20361E+02 1.37941E+03 1.72446E-09 2.16945E-09
 -1       510-3.52178E+05 1.10327E+02 4.13544E+02-3.15695E+03 1.68237E-09 1.84883E-10
 -1       511-3.52452E+05-8.52365E+01 5.46275E+02 9.62303E+02 8.03098E-10-4.44771E-10
 -1       512-3.51810E+05 6.09795E+02 1.32382E+03-2.03064E+03-1.17282E-10-1.34321E-09
 -1       513-3.52725E+05-5.27840E+02 1.99577E+03 2.53073E+02-6.69303E-10-2.35787E-10
 -1       514-3.50225E+05 3.88297E+03 5.55095E+03-4.90738E+02-7.18551E-10-8.64475E-10
 -1       515-3.54032E+05-3.35544E+03 7.74240E+03-5.77617E+02-9.65400E-10-1.05729E-09
 -1       516-4.48595E+04 2.71286E+05 1.05631E+05 4.99295E+02-3.78350E-10 1.74057E-09
 -1       517 5.50931E+04 3.18344E+05 8.02095E+04-4.78732E+03-2.70120E-10 5.36210E-09
 -1       518-1.01189E+04 2.87302E+05 3.85666E+04-6.96386E+01-1.12959E-09 2.97489E-09
 -1       519 3.17765E+04 3.07396E+05 4.97142E+04-3.91071E+03 9.75433E-11-7.22867E-10
 -1       520-2.15831E+04 2.82219E+05 5.31576E+04-3.77260E+02-1.00408E-09-3.22659E-09
 -1       521-2.50105E+06-3.19952E+05-1.75576E+05-9.66513E+05 9.00400E-10 1.60071E-10
 -1       522-2.55416E+06-4.43138E+05-1.10800E+05-9.76385E+05 6.41194E-10 2.54659E-09
 -1       523-2.53224E+06-3.59097E+05-4.14140E+04-9.61088E+05-3.89946E-11 1.12777E-09
 -1       524-2.51791E+06-3.92558E+05-2.27530E+04-9.85828E+05 1.27329E-11 2.13549E-09
 -1       525-2.53632E+06-3.62763E+05-9.63331E+03-9.60054E+05-5.50244E-11 1.19007E-09
 -1       526-2.51314E+06-3.87946E+05-5.11055E+03-9.87540E+05 1.67984E-09 4.52422E-09
 -1       527-2.53703E+06-3.62930E+05-2.63375E+03-9.59724E+05-1.28068E-09 2.29363E-09
 -1       528-2.51250E+06-3.87658E+05-2.10059E+03-9.87869E+05-4.21164E-09 1.41580E-09
 -1       529-2.53699E+06-3.62978E+05-2.55361E+03-9.59770E+05 1.49885E-09-1.47793E-11
 -1       530-2.51326E+06-3.87756E+05-4.88500E+03-9.87339E+05 1.40415E-09-5.40376E-09
 -1       531-2.53621E+06-3.62921E+05-9.17986E+03-9.60189E+05 1.62163E-09-2.72394E-09
 -1       532-2.51798E+06-3.91949E+05-2.16527E+04-9.85465E+05 8.43784E-10-7.57154E-10
 -1       533-2.53222E+06-3.59547E+05-3.94114E+04-9.61290E+05-8.58336E-11-1.14051E-09
 -1       534-2.55268E+06-4.39845E+05-1.05417E+05-9.76206E+05 1.33059E-09 6.27551E-10
 -1       535-2.50242E+06-3.22433E+05-1.67062E+05-9.66588E+05-7.09406E-11 2.01544E-09
 -1       536 5.83412E+04-1.07797E+04 4.63878E+04-6.45026E+03 3.95630E-10-7.34872E-10
 -1       537 7.52673E+04 1.44862E+04 2.97292E+04-2.51887E+04-1.72122E-09 3.85444E-09
 -1       538 6.53179E+04-1.14820E+03 1.20039E+04-6.38062E+03-2.65572E-10 1.74441E-09
 -1       539 6.73642E+04 1.39214E+03 6.70740E+03-2.52468E+04 9.41100E-10-2.02817E-10
 -1       540 6.60930E+04-1.41993E+02 3.02502E+03-6.38791E+03 1.43700E-10-6.28916E-10
 -1       541 6.63902E+04 1.28639E+02 1.59947E+03-2.52285E+04 2.11458E-10 1.99975E-10
 -1       542 6.61840E+04-2.02690E+01 7.54284E+02-6.39910E+03-2.24873E-10 7.73639E-10
 -1       543 6.62223E+04 2.20823E+01 3.89219E+02-2.52114E+04 5.15115E-10-2.38629E-10
 -1       544 6.61938E+04 1.20511E+00 1.84689E+02-6.40507E+03-2.06001E-10-1.79955E-09
 -1       545 6.61832E+04 1.72204E+01 8.78363E+01-2.52045E+04-2.66084E-10 2.04005E-09
 -1       546 6.61967E+04 4.64211E+00 2.98252E+01-6.40594E+03 3.01270E-11 1.15608E-09
 -1       547 6.61845E+04 4.63804E+00-1.41689E+01-2.52046E+04-1.91847E-10-4.37086E-09
 -1       548 6.62067E+04 3.54817E+00-6.09873E+01-6.40496E+03-6.47560E-10-7.10202E-10
 -1       549 6.61792E+04-8.58329E+01-1.65436E+02-2.51648E+04-2.16005E-12-1.08923E-09
 -1       550 6.62568E+04 4.26947E+01-2.78519E+02-6.44579E+03-4.57931E-10-1.08702E-09
 -1       551 1.12272E+04-2.45555E+05 2.35340E+04-3.75892E+05 3.07773E-09 6.94854E-10
 -1       552 5.71660E+03-2.41733E+05 1.85550E+04-4.39828E+05 2.36469E-09 9.02219E-10
 -1       553 3.76978E+03-2.45204E+05 2.15703E+04-3.75263E+05 3.02316E-09 2.77259E-09
 -1       554 1.40519E+04-2.37090E+05 4.05040E+04-4.39934E+05 2.83035E-09 6.33008E-10
 -1       555 3.81291E+04-2.50669E+05 7.68068E+04-3.75719E+05 2.73758E-09-1.08230E-09
 -1       556-1.79578E+05-9.61151E+04 1.53987E+04-1.71435E+05 4.11092E-10 3.41970E-10
 -1       557-1.65105E+05-1.11871E+05 7.57781E+03-1.82821E+05-2.34286E-09-4.09682E-09
 -1       558-1.79967E+05-1.01210E+05 3.17718E+03-1.68411E+05-6.18456E-10 1.40972E-10
 -1       559-1.66589E+05-1.14388E+05 1.56274E+03-1.83412E+05 1.37334E-09 5.78439E-10
 -1       560-1.80202E+05-1.01222E+05 6.89347E+02-1.68414E+05 2.94676E-09 6.27688E-09
 -1       561-1.66938E+05-1.14408E+05 3.26860E+02-1.83665E+05-5.62068E-10 1.04791E-10
 -1       562-1.80381E+05-1.01101E+05 1.10893E+02-1.68532E+05-2.96495E-10-8.79709E-10
 -1       563-1.67119E+05-1.14330E+05-1.54168E+01-1.83795E+05-7.88532E-10-9.17680E-10
 -1       564-1.80479E+05-1.01028E+05-1.64977E+02-1.68603E+05-3.54703E-10 1.84309E-09
 -1       565-1.67218E+05-1.14293E+05-4.14827E+02-1.83855E+05-3.57431E-10 2.18279E-10
 -1       566-1.80479E+05-1.00999E+05-8.86987E+02-1.68619E+05-2.36173E-09 1.55342E-09
 -1       567-1.67373E+05-1.14387E+05-1.96240E+03-1.83833E+05-9.51559E-10 1.52054E-08
 -1       568-1.80309E+05-1.01317E+05-4.03787E+03-1.68451E+05-3.02589E-09 1.05865E-09
 -1       569-1.69538E+05-1.16861E+05-9.52446E+03-1.83164E+05-6.81212E-10-2.27374E-09
 -1       570-1.79421E+05-1.08793E+05-1.94491E+04-1.65282E+05-4.74756E-10-1.24919E-09
 -1       571 2.34562E+05 1.16136E+04 1.78246E+04-6.10068E+04 3.18323E-10 7.46013E-10
 -1       572 2.37285E+05 3.95716E+03 8.75618E+03-6.72528E+04-2.57842E-10 3.14776E-09
 -1       573 2.35657E+05 8.81368E+02 3.89573E+03-6.08374E+04-3.09228E-11-4.97948E-10
 -1       574 2.35975E+05 2.72733E+02 1.95648E+03-6.74375E+04 6.39830E-10-1.65437E-09
 -1       575 2.35772E+05 2.17956E+01 9.25811E+02-6.08162E+04 3.95175E-10 3.33785E-10
 -1       576 2.35801E+05-8.58853E-01 4.73507E+02-6.74614E+04 5.64796E-10 2.30875E-09
 -1       577 2.35788E+05-1.57021E+01 2.36971E+02-6.08134E+04 1.63482E-10 9.04947E-10
 -1       578 2.35785E+05-1.24468E+01 1.35778E+02-6.74643E+04-1.52818E-09-9.83164E-10
 -1       579 2.35808E+05-1.92501E+01 9.49848E+01-6.08133E+04-2.11276E-09 1.52340E-10
 -1       580 2.35815E+05-2.33796E+01 1.08241E+02-6.74612E+04-5.53428E-10-3.73348E-10
 -1       581 2.35843E+05-3.14821E+01 1.68497E+02-6.08166E+04-2.81034E-10 8.09450E-11
 -1       582 2.35894E+05-3.20736E+00 3.35774E+02-6.74253E+04-3.31966E-10-8.44921E-10
 -1       583 2.35877E+05 8.23245E+01 6.54022E+02-6.08491E+04-1.15870E-09 4.78622E-10
 -1       584 2.36181E+05 5.81666E+02 1.46783E+03-6.71448E+04-2.25555E-09-1.60935E-09
 -1       585 2.35756E+05 1.85193E+03 2.97921E+03-6.10990E+04 1.12232E-09 1.74441E-09
 -1       586 1.99631E+03 9.51108E+04 3.54134E+03-1.56054E+05 3.77440E-10 8.18545E-12
 -1       587 1.11275E+03 9.56857E+04 3.35108E+03-1.72516E+05 6.10271E-10-6.77801E-10
 -1       588 1.27885E+03 9.50551E+04 4.72888E+03-1.55856E+05 3.05590E-10 1.18121E-09
 -1       589 4.51427E+03 9.68322E+04 9.66621E+03-1.72563E+05 6.51198E-10-1.02955E-09
 -1       590 1.26631E+04 9.38985E+04 1.92371E+04-1.56002E+05 5.82077E-10-1.87492E-09
 -1       591-1.09494E+05-3.79193E+04-2.05275E+04-5.70451E+04 3.48666E-09-2.18097E-09
 -1       592-1.10041E+05-3.54459E+04-1.00624E+04-6.32415E+04 6.23368E-09-7.24356E-09
 -1       593-1.10092E+05-3.02781E+04-4.26924E+03-6.05301E+04 7.02721E-09 4.77030E-10
 -1       594-1.07851E+05-3.26679E+04-2.08832E+03-6.36243E+04 1.16597E-09-2.11129E-09
 -1       595-1.10193E+05-2.99925E+04-9.61822E+02-6.06882E+04-1.26192E-10-1.61589E-09
 -1       596-1.07686E+05-3.25570E+04-4.88820E+02-6.36124E+04-3.31852E-10-1.89573E-09
 -1       597-1.10212E+05-3.00059E+04-2.68266E+02-6.06898E+04 5.58771E-11-3.90787E-09
 -1       598-1.07670E+05-3.25583E+04-2.18613E+02-6.36055E+04 1.93467E-10 1.12641E-09
 -1       599-1.10210E+05-3.00063E+04-2.82519E+02-6.06888E+04-6.69161E-10-1.86014E-09
 -1       600-1.07685E+05-3.25584E+04-5.26591E+02-6.36103E+04-7.85462E-10-5.51836E-10
 -1       601-1.10184E+05-2.99930E+04-1.04181E+03-6.06848E+04-5.71617E-10-4.18368E-10
 -1       602-1.07862E+05-3.26786E+04-2.26576E+03-6.36185E+04 4.48040E-09 8.32642E-09
 -1       603-1.10071E+05-3.03072E+04-4.63301E+03-6.05133E+04-9.79071E-10-7.00311E-10
 -1       604-1.10252E+05-3.56769E+04-1.09196E+04-6.31810E+04-2.79442E-10 6.93763E-09
 -1       605-1.09401E+05-3.86120E+04-2.22755E+04-5.67457E+04-5.70253E-10-5.00222E-11
 -1       606 7.57684E+04-9.29852E+03-1.42434E+04 2.22661E+04-4.27463E-09 1.13096E-09
 -1       607 7.35531E+04-3.16830E+03-6.99457E+03 2.43129E+04-8.21728E-10-1.63618E-09
 -1       608 7.48461E+04-7.04257E+02-3.11229E+03 2.21151E+04 3.25781E-09-9.53605E-10
 -1       609 7.45510E+04-2.01490E+02-1.56013E+03 2.44783E+04-1.88402E-09 6.29143E-10
 -1       610 7.47202E+04 2.26916E+00-7.36458E+02 2.20957E+04-5.10590E-09 1.18416E-09
 -1       611 7.46614E+04 3.20419E+01-3.70898E+02 2.44991E+04-9.02264E-09-1.69689E-09
 -1       612 7.46908E+04 4.10173E+01-1.76664E+02 2.20935E+04-3.56249E-09 7.52379E-10
 -1       613 7.46677E+04 4.42641E+01-8.21863E+01 2.45018E+04-5.35874E-09 3.04544E-09
 -1       614 7.46770E+04 4.02445E+01-2.59834E+01 2.20930E+04-1.51022E-09 1.52340E-10
 -1       615 7.46632E+04 4.67358E+01 1.71083E+01 2.45020E+04 3.84352E-09 2.16642E-09
 -1       616 7.46668E+04 4.52534E+01 6.76063E+01 2.20933E+04-1.46138E-08 2.07137E-09
 -1       617 7.46704E+04 7.33516E+01 1.61663E+02 2.45013E+04-1.97424E-08 4.19050E-10
 -1       618 7.46498E+04 1.22181E+02 3.30735E+02 2.20936E+04-7.71502E-09 6.55064E-10
 -1       619 7.47755E+04 3.92282E+02 7.48448E+02 2.44981E+04 9.48035E-10-1.08207E-09
 -1       620 7.45501E+04 1.04405E+03 1.52602E+03 2.20950E+04 1.52386E-09-2.12594E-10
 -1       621 1.88481E+03 2.44875E+05 4.57712E+03-2.29393E+04 1.97724E-09 1.85992E-10
 -1       622 7.22367E+02 2.45739E+05 3.73864E+03-2.69462E+04 6.09361E-10-1.02500E-09
 -1       623 4.20854E+02 2.45072E+05 4.54214E+03-2.29632E+04 1.76624E-09 1.20053E-10
 -1       624 2.57794E+03 2.46840E+05 8.69479E+03-2.68311E+04 8.25821E-10 8.58563E-10
 -1       625 7.91027E+03 2.43801E+05 1.65989E+04-2.30524E+04 1.83354E-09 7.27596E-10
 -1       626 1.06874E+05 3.50944E+04-6.30504E+03 7.28439E+04-1.13914E-09 1.15415E-09
 -1       627 1.03916E+05 3.95827E+04-2.99111E+03 7.42172E+04-1.34332E-09 9.12280E-10
 -1       628 1.07010E+05 3.81900E+04-1.25698E+03 7.13306E+04-1.13778E-09 1.97610E-09
 -1       629 1.04381E+05 4.08622E+04-6.03272E+02 7.41054E+04-1.73486E-09 1.55350E-09
 -1       630 1.06994E+05 3.84035E+04-2.66351E+02 7.12060E+04 3.60160E-10-3.96909E-10
 -1       631 1.04411E+05 4.09572E+04-1.19326E+02 7.41034E+04-1.87674E-09-7.78186E-10
 -1       632 1.06979E+05 3.84119E+04-3.37259E+01 7.11933E+04-1.95996E-09-2.26328E-09
 -1       633 1.04410E+05 4.09628E+04 2.86790E+01 7.41028E+04-1.63709E-09 7.22480E-11
 -1       634 1.06967E+05 3.84069E+04 1.05733E+02 7.11904E+04 9.84642E-09-8.29232E-10
 -1       635 1.04421E+05 4.09661E+04 2.52487E+02 7.41048E+04 2.07074E-08 6.83895E-09
 -1       636 1.06955E+05 3.84183E+04 5.29472E+02 7.11818E+04 3.77435E-09-1.76578E-09
 -1       637 1.04547E+05 4.11084E+04 1.18501E+03 7.40832E+04-6.79952E-09 1.17780E-09
 -1       638 1.06927E+05 3.88477E+04 2.45672E+03 7.09942E+04-1.04433E-09-1.64027E-09
 -1       639 1.05798E+05 4.32902E+04 5.84623E+03 7.35503E+04-8.45694E-09-1.03182E-08
 -1       640 1.06982E+05 4.51571E+04 1.23219E+04 6.83695E+04-1.29990E-09-4.69754E-10
 -1       641 2.34110E+03 2.24745E+03-5.23020E+03-1.26728E+02-6.30858E-09-1.93882E-09
 -1       642 9.17310E+01-2.60186E+03-3.69073E+03 5.41622E+02 1.38084E-09 7.09861E-10
 -1       643 1.47101E+03 3.50178E+02-1.34891E+03-1.25278E+02-9.89421E-09-1.49157E-09
 -1       644 1.10331E+03-4.03518E+02-8.36257E+02 5.39653E+02 8.31285E-10 3.14330E-09
 -1       645 1.32913E+03 5.33773E+01-3.23428E+02-1.24765E+02-2.59906E-09-1.90113E-09
 -1       646 1.27099E+03-5.56534E+01-1.53707E+02 5.38893E+02-1.65897E-07 2.04949E-09
 -1       647 1.30313E+03 3.03267E+00-1.00299E+00-1.24519E+02-2.15028E-05 3.04992E-08
 -1       648 1.31762E+03 3.00448E+01 1.40928E+02 5.38637E+02-4.27243E-05 6.46807E-08
 -1       649 1.28244E+03-3.21643E+01 3.20951E+02-1.24509E+02-2.15016E-05 3.22914E-08
 -1       650 1.43541E+03 2.48316E+02 7.76323E+02 5.38694E+02-1.48794E-07 7.00084E-10
 -1       651 1.18540E+03-2.14972E+02 1.35358E+03-1.24576E+02-5.70473E-09-2.18279E-11
 -1       652 2.10129E+03 1.60202E+03 3.34389E+03 5.38521E+02 2.68479E-09 1.48373E-09
 -1       653 6.16782E+02-1.38370E+03 5.33624E+03-1.24340E+02-1.90328E-09-1.08298E-09
 -1       654 6.11914E+03 1.02720E+04 1.45770E+04 5.35596E+02-6.18776E-10 2.96700E-09
 -1       655-2.83154E+03-8.86918E+03 2.06266E+04-1.21666E+02 3.61378E-10-1.30694E-09
 -1       656 7.34630E+03-2.79959E+05-3.30757E+04 7.93047E+03 8.88394E-09 3.35831E-10
 -1       657-1.08669E+04-2.92006E+05-2.40898E+04 3.03444E+04 7.24958E-09-1.81899E-10
 -1       658 1.40646E+03-2.84255E+05-1.53043E+04 7.86778E+03 7.84820E-09 3.04090E-09
 -1       659-9.89869E+03-2.91452E+05-2.23837E+04 3.03843E+04 6.46673E-09 3.12802E-09
 -1       660 6.58151E+03-2.80537E+05-2.98437E+04 7.89112E+03 7.09952E-09 3.32022E-09
 -1       661 2.75947E+05 3.52503E+04 2.25975E+04 1.07869E+05 4.62728E-09-1.43064E-09
 -1       662 2.81240E+05 5.26690E+04 1.42626E+04 1.10959E+05-5.24125E-10 1.57570E-10
 -1       663 2.79837E+05 4.04100E+04 5.33641E+03 1.07318E+05 2.05807E-09 1.04524E-09
 -1       664 2.76768E+05 4.59665E+04 2.93922E+03 1.11910E+05-8.60587E-09-4.06772E-10
 -1       665 2.80274E+05 4.09742E+04 1.25154E+03 1.07283E+05-7.28539E-09-2.06165E-09
 -1       666 2.76267E+05 4.52518E+04 6.80245E+02 1.11972E+05-6.45551E-09-2.29227E-09
 -1       667 2.80322E+05 4.10401E+04 3.80205E+02 1.07286E+05 2.76953E-09-1.73094E-09
 -1       668 2.76221E+05 4.51852E+04 3.58026E+02 1.11970E+05-5.30789E-09 2.14499E-10
 -1       669 2.80317E+05 4.10358E+04 5.02524E+02 1.07286E+05 4.60044E-09-6.29086E-10
 -1       670 2.76308E+05 4.52987E+04 1.01921E+03 1.11971E+05 1.88069E-08-2.46132E-10
 -1       671 2.80237E+05 4.09345E+04 1.93737E+03 1.07283E+05 4.64962E-09-3.30385E-09
 -1       672 2.77102E+05 4.64115E+04 4.58898E+03 1.11866E+05-5.15249E-09-2.42244E-09
 -1       673 2.79548E+05 4.00564E+04 8.34504E+03 1.07343E+05-3.38672E-09-1.88220E-09
 -1       674 2.84104E+05 5.68939E+04 2.23146E+04 1.10369E+05-4.71488E-09-8.54016E-10
 -1       675 2.73458E+05 3.19859E+04 3.53587E+04 1.08206E+05-1.10094E-09-1.81353E-09
 -1       676 7.38712E+02-2.64607E+05-3.84719E+03 2.20188E+02 4.71130E-09 2.59062E-10
 -1       677-1.45702E+03-2.66076E+05-4.16862E+03 6.89540E+01 7.32712E-10 4.53800E-10
 -1       678 4.58011E+02-2.64782E+05-4.94514E+03 2.19744E+02 8.25003E-09-1.42780E-10
 -1       679-5.22289E+03-2.68314E+05-1.08485E+04 6.86216E+01 2.82125E-09-2.43526E-09
 -1       680 3.77277E+03-2.62369E+05-1.64821E+04 2.19780E+02 1.02691E-08-3.26807E-09
 -1       681 4.40148E+05-1.15603E+04 2.68450E+04 1.25091E+03 2.02391E-10-4.62023E-10
 -1       682 4.52006E+05 1.33833E+04 1.90215E+04-3.76043E+03-3.98472E-11-1.74623E-10
 -1       683 4.44722E+05-1.80147E+03 6.96444E+03 5.10102E+02 4.37552E-10 1.80080E-10
 -1       684 4.46669E+05 2.08720E+03 4.39790E+03-2.67264E+03-4.15088E-10-2.58524E-10
 -1       685 4.45482E+05-2.81183E+02 1.83471E+03 1.63123E+02-2.49219E-10 7.38623E-10
 -1       686 4.45788E+05 3.41208E+02 1.16352E+03-2.25101E+03 7.31148E-11 4.81961E-10
 -1       687 4.45602E+05-5.73657E+01 7.03947E+02 8.84712E+01-2.35980E-10-2.58567E-11
 -1       688 4.45707E+05 1.63362E+02 8.11703E+02-2.34915E+03 5.21471E-10 5.82439E-10
 -1       689 4.45564E+05-1.03869E+02 1.13549E+03 2.61257E+02-1.66011E-10 6.08281E-10
 -1       690 4.46066E+05 7.43920E+02 2.42465E+03-2.99912E+03 4.83169E-12 1.97872E-09
 -1       691 4.45245E+05-6.38970E+02 4.08341E+03 7.38460E+02-3.86535E-11 3.63798E-11
 -1       692 4.48211E+05 4.77072E+03 1.00578E+04-4.41742E+03 1.01058E-09-8.13998E-11
 -1       693 4.43426E+05-4.13004E+03 1.59318E+04 1.67958E+03-2.45620E-10-7.39419E-10
 -1       694 4.60770E+05 3.07133E+04 4.37264E+04-7.12612E+03-2.29167E-09-1.10776E-09
 -1       695 4.32710E+05-2.65517E+04 6.15372E+04 3.44710E+03-1.11788E-09-2.44108E-09
 -1       696-9.24865E+03 3.83130E+05 2.11767E+04 5.32035E+02 5.45697E-11-8.97558E-11
 -1       697 1.00165E+04 3.92106E+05 1.36889E+04-4.15846E+03 1.39153E-10-1.04605E-09
 -1       698-7.43549E+02 3.87093E+05 2.83624E+03 2.91660E+02-1.71894E-10 6.81590E-10
 -1       699-3.61372E+03 3.85781E+05-4.13120E+03-4.07525E+03-2.57387E-10 2.42138E-09
 -1       700 4.35696E+03 3.89459E+05-9.51389E+03 4.48794E+02-1.55524E-10 8.06594E-10
 -1       701-4.02237E+05-3.71721E+04-5.15745E+04-1.60645E+05-5.61158E-10-1.34241E-09
 -1       702-4.31270E+05-8.24731E+04-3.57685E+04-1.49541E+05-7.19410E-10-7.05768E-10
 -1       703-4.12587E+05-5.57985E+04-1.20934E+04-1.57320E+05 1.01636E-10-3.08319E-10
 -1       704-4.19076E+05-6.10437E+04-7.54861E+03-1.53534E+05 1.45860E-10-2.01908E-10
 -1       705-4.14421E+05-5.85699E+04-2.83511E+03-1.56662E+05 2.68301E-11 3.88923E-10
 -1       706-4.16593E+05-5.81714E+04-1.67891E+03-1.54656E+05-8.19430E-10-1.60787E-09
 -1       707-4.15066E+05-5.86673E+04-7.95702E+02-1.56197E+05 3.64643E-10 3.50326E-10
 -1       708-4.15490E+05-5.85222E+04-6.73254E+02-1.55634E+05 4.22347E-11 1.68173E-10
 -1       709-4.15523E+05-5.82196E+04-7.82775E+02-1.55683E+05 8.53788E-11-3.46603E-11
 -1       710-4.14929E+05-5.97919E+04-1.63173E+03-1.56531E+05 3.59265E-10 6.28276E-10
 -1       711-4.15628E+05-5.73975E+04-2.75783E+03-1.55301E+05-7.68637E-10 1.21770E-09
 -1       712-4.16304E+05-6.36235E+04-7.33136E+03-1.56636E+05-1.39036E-09 1.38300E-09
 -1       713-4.14152E+05-5.43912E+04-1.17481E+04-1.55579E+05-9.20409E-10-5.90717E-10
 -1       714-4.28061E+05-8.45463E+04-3.47464E+04-1.52883E+05-4.04498E-10-8.46285E-10
 -1       715-4.03881E+05-3.65052E+04-5.00976E+04-1.59045E+05 1.88265E-10 2.23736E-10
 -1       716 9.54398E+04-1.35225E+04 3.11620E+04 1.76890E+03 2.80335E-09-1.19690E-09
 -1       717 1.10686E+05 1.56262E+04 2.23335E+04-5.69947E+03 2.15010E-11-1.38425E-09
 -1       718 1.01037E+05-2.10569E+03 8.06319E+03 1.28250E+03 6.84139E-10-5.12046E-10
 -1       719 1.04007E+05 2.42925E+03 5.20937E+03-4.91187E+03 5.41675E-10-5.05452E-10
 -1       720 1.02087E+05-3.28232E+02 2.13973E+03 9.81257E+02 1.65420E-09 1.11356E-09
 -1       721 1.02718E+05 4.03627E+02 1.43059E+03-4.44654E+03 1.71253E-09 2.04409E-10
 -1       722 1.02310E+05-7.19226E+01 9.13498E+02 8.17162E+02 1.61359E-09 6.97021E-10
 -1       723 1.02518E+05 2.38905E+02 1.16017E+03-4.24161E+03 3.32207E-10 1.52596E-09
 -1       724 1.02280E+05-1.59121E+02 1.71425E+03 7.76337E+02 2.00065E-09 1.30791E-09
 -1       725 1.03027E+05 1.15966E+03 3.71334E+03-4.28001E+03 1.54745E-09 1.54353E-09
 -1       726 1.01803E+05-9.92163E+02 6.30242E+03 8.55565E+02 1.43812E-09 5.69344E-10
 -1       727 1.06248E+05 7.39636E+03 1.55072E+04-4.56782E+03 1.49927E-09 1.12254E-09
 -1       728 9.90683E+04-6.39174E+03 2.46298E+04 1.06414E+03 5.10681E-10-9.27685E-11
 -1       729 1.25159E+05 4.74568E+04 6.74331E+04-5.18437E+03 5.16934E-10 3.67436E-10
 -1       730 8.29225E+04-4.09898E+04 9.52035E+04 1.47202E+03 1.72918E-09-3.63798E-10
 -1       731-1.59539E+04 1.58018E+05 3.69651E+04-1.97778E+03-1.24601E-09-1.76567E-09
 -1       732 1.86789E+04 1.75455E+05 2.67338E+04 5.49840E+03 6.53017E-10-1.31382E-09
 -1       733-2.71633E+03 1.64401E+05 1.03025E+04-1.30168E+03-5.56611E-10 1.27699E-10
 -1       734 4.63214E+03 1.68478E+05 8.31221E+03 4.42048E+03 2.46416E-10 3.46859E-10
 -1       735-1.91566E+03 1.64970E+05 5.49817E+03-8.99858E+02-1.03512E-10-2.27857E-10
 -1       736-8.96147E+05-1.06417E+05-6.66737E+04-3.56026E+05 9.25866E-10-5.89353E-10
 -1       737-9.45024E+05-1.52325E+05-4.59916E+04-3.27038E+05 1.67415E-09-1.44973E-09
 -1       738-9.13884E+05-1.27475E+05-1.58875E+04-3.48391E+05-9.95897E-11 1.39062E-09
 -1       739-9.19655E+05-1.32714E+05-9.21714E+03-3.41238E+05 6.66205E-11 6.69502E-10
 -1       740-9.21431E+05-1.26035E+05-3.94858E+03-3.41787E+05 5.13907E-10 2.47633E-09
 -1       741-9.09442E+05-1.37331E+05-1.88159E+03-3.52436E+05 1.99415E-09 6.01696E-09
 -1       742-9.24140E+05-1.22812E+05-1.01703E+03-3.37231E+05 6.75058E-10-2.46141E-09
 -1       743-9.07179E+05-1.39718E+05-7.71203E+02-3.56087E+05-1.01582E-09 4.29358E-09
 -1       744-9.23734E+05-1.23614E+05-1.02778E+03-3.38167E+05-1.04952E-08-4.33369E-09
 -1       745-9.11256E+05-1.34801E+05-1.57158E+03-3.49550E+05-6.47064E-09-6.16524E-10
 -1       746-9.19998E+05-1.27782E+05-3.63547E+03-3.43717E+05-3.22565E-09-3.52202E-10
 -1       747-9.22608E+05-1.29263E+05-8.31763E+03-3.37990E+05 5.68988E-10-1.56979E-09
 -1       748-9.12374E+05-1.29170E+05-1.42475E+04-3.49716E+05 1.26238E-09 3.23871E-09
 -1       749-9.45028E+05-1.47762E+05-4.15316E+04-3.26212E+05-7.71706E-10 4.80941E-09
 -1       750-8.97670E+05-1.09263E+05-6.00885E+04-3.55544E+05-5.59339E-10 4.12911E-09
 -1       751 2.13027E+06-1.20006E+05 2.79646E+05 6.07167E+03-1.49723E-08 7.71252E-10
 -1       752 2.25156E+06 1.38998E+05 1.97542E+05-7.87440E+03-1.74629E-09-1.28057E-09
 -1       753 2.17718E+06-1.87144E+04 7.24568E+04 1.51122E+03 1.86365E-09-6.54836E-11
 -1       754 2.19705E+06 2.16647E+04 4.54852E+04-2.13380E+03-1.83704E-10 2.56841E-09
 -1       755 2.18488E+06-2.91322E+03 1.86646E+04 3.31895E+02-1.06946E-09 5.55701E-10
 -1       756 2.18814E+06 3.41508E+03 1.11422E+04-6.45451E+02 1.25610E-09 1.12709E-09
 -1       757 2.18615E+06-4.97135E+02 5.49804E+03 2.28689E+01 2.68582E-09 8.24684E-10
 -1       758 2.18682E+06 8.88173E+02 4.40867E+03-2.69244E+02-6.61215E-10 7.80133E-10
 -1       759 2.18621E+06-3.90181E+02 4.51347E+03-4.43195E+01-2.27026E-10 9.28821E-11
 -1       760 2.18764E+06 2.49110E+03 8.30102E+03-2.40962E+02-1.87213E-10 4.98403E-10
 -1       761 2.18532E+06-2.09751E+03 1.35402E+04-5.41260E+00 3.06872E-10-9.82254E-11
 -1       762 2.19400E+06 1.55648E+04 3.27257E+04-5.04009E+02 1.54164E-09 2.26282E-09
 -1       763 2.17980E+06-1.34406E+04 5.20471E+04 2.18730E+02 3.48237E-09 1.22964E-09
 -1       764 2.23294E+06 9.97823E+04 1.41787E+05-1.60769E+03 5.46040E-10 1.10595E-09
 -1       765 2.14627E+06-8.61451E+04 2.00727E+05 1.09817E+03-1.19982E-09-1.61526E-09
 -1       766-5.15967E+04 3.43039E+05 1.21604E+05-4.82575E+03-1.82627E-09-9.46443E-10
 -1       767 6.37155E+04 3.97863E+05 9.31568E+04 1.78337E+04 1.67347E-10-1.16934E-10
 -1       768-1.20102E+04 3.61560E+05 4.59603E+04-4.12281E+03-5.54792E-10 7.50852E-10
 -1       769 3.97045E+04 3.87233E+05 6.18249E+04 1.84707E+04 5.88670E-10 3.12332E-09
 -1       770-2.76513E+04 3.53688E+05 6.73088E+04-5.46282E+03-5.52609E-09 4.04941E-09
 -1       771-1.17992E+06-2.39358E+05-4.23624E+04-5.10716E+05 6.36646E-11-1.09139E-09
 -1       772-1.17711E+06-2.37978E+05-2.07419E+04-5.27779E+05-2.30102E-09-9.09495E-10
 -1       773-1.18160E+06-2.23263E+05-8.82404E+03-5.17694E+05-4.26371E-09-5.80258E-09
 -1       774-1.17249E+06-2.32523E+05-4.30384E+03-5.29116E+05 3.32875E-10-1.18462E-09
 -1       775-1.18202E+06-2.22528E+05-1.99424E+03-5.18079E+05-1.16779E-09-3.00133E-11
 -1       776-1.17227E+06-2.32280E+05-1.00379E+03-5.29290E+05-1.54432E-09-1.19394E-09
 -1       777-1.18222E+06-2.22462E+05-5.50398E+02-5.18154E+05-3.27418E-11-1.29523E-09
 -1       778-1.17234E+06-2.32247E+05-4.26021E+02-5.29402E+05 6.50289E-10-5.47988E-09
 -1       779-1.18233E+06-2.22397E+05-5.37945E+02-5.18206E+05 5.71163E-10-6.36646E-10
 -1       780-1.17245E+06-2.32224E+05-9.81983E+02-5.29495E+05-8.59018E-10 3.15140E-10
 -1       781-1.18235E+06-2.22332E+05-1.94024E+03-5.18231E+05 1.36424E-10 4.47471E-10
 -1       782-1.17282E+06-2.32438E+05-4.21810E+03-5.29556E+05-2.13277E-10 7.82165E-11
 -1       783-1.18216E+06-2.22900E+05-8.62925E+03-5.17922E+05-9.60426E-10-7.85803E-10
 -1       784-1.17726E+06-2.38052E+05-2.03531E+04-5.28770E+05-3.21052E-10 1.52795E-10
 -1       785-1.18092E+06-2.38372E+05-4.15287E+04-5.10877E+05-1.08002E-11 9.45874E-11
 -1       786 2.27245E+05-6.66633E+03 2.89388E+04-1.61055E+03 2.26578E-10 1.27329E-11
 -1       787 2.37669E+05 9.07512E+03 1.85295E+04-6.42345E+03 1.17495E-10 1.03319E-09
 -1       788 2.31607E+05-6.85947E+02 7.49919E+03-1.60598E+03-4.00632E-10 1.25283E-09
 -1       789 2.32808E+05 8.92272E+02 4.18572E+03-6.42062E+03 4.18765E-10 6.23913E-10
 -1       790 2.32101E+05-7.42858E+01 1.90580E+03-1.61283E+03 1.19883E-10 1.18462E-10
 -1       791 2.32249E+05 8.64516E+01 1.02351E+03-6.41054E+03 1.43132E-10 1.34321E-09
 -1       792 2.32164E+05-9.42775E+00 5.27257E+02-1.61605E+03 8.77662E-11-1.21727E-09
 -1       793 2.32180E+05 1.13259E+01 3.55055E+02-6.40830E+03 1.51090E-10-3.58682E-11
 -1       794 2.32170E+05-5.49188E+00 3.35354E+02-1.61507E+03-4.39684E-10-1.11800E-09
 -1       795 2.32203E+05 3.95074E+01 5.18104E+02-6.41476E+03 8.20791E-10 2.47839E-09
 -1       796 2.32142E+05-3.49886E+01 8.99436E+02-1.60959E+03-5.62295E-10 2.80778E-10
 -1       797 2.32461E+05 4.08743E+02 1.93701E+03-6.42840E+03 5.70708E-11 3.89832E-10
 -1       798 2.31916E+05-3.16956E+02 3.45435E+03-1.60143E+03-1.68711E-10-1.14733E-09
 -1       799 2.34699E+05 4.17131E+03 8.52550E+03-6.43219E+03-1.35606E-09-2.19268E-09
 -1       800 2.29910E+05-3.06893E+03 1.33096E+04-1.60611E+03 2.90811E-10-4.82032E-10
 -1       801-8.39640E+03 2.31174E+05 3.30917E+04-1.78782E+05 8.67658E-10-5.63887E-10
 -1       802 1.87481E+04 2.41310E+05 3.43123E+04-6.98886E+05-4.38013E-09-2.64845E-09
 -1       803-1.36035E+03 2.31773E+05 3.61154E+04-1.78315E+05 2.01726E-09 2.89742E-09
 -1       804 4.19469E+04 2.55503E+05 7.56912E+04-6.98844E+05-6.35919E-09-4.89945E-09
 -1       805-2.73650E+04 2.17443E+05 1.11304E+05-1.78832E+05 2.11730E-09 1.25874E-09
 -1       806-2.21755E+05-5.91801E+04-1.89013E+04-1.02328E+05 5.88443E-10 3.00133E-10
 -1       807-2.21841E+05-5.44085E+04-8.96750E+03-1.08110E+05-1.87356E-10-2.32581E-09
 -1       808-2.21655E+05-4.95269E+04-3.77055E+03-1.06399E+05-7.99218E-10-2.34434E-09
 -1       809-2.19975E+05-5.10167E+04-1.82222E+03-1.08893E+05-7.35781E-10-9.57243E-11
 -1       810-2.21702E+05-4.88660E+04-8.24083E+02-1.06696E+05-9.58153E-10 1.66324E-09
 -1       811-2.19793E+05-5.07916E+04-4.13409E+02-1.08926E+05-3.47256E-10 7.67614E-10
 -1       812-2.21718E+05-4.88462E+04-2.17057E+02-1.06710E+05-2.67192E-10-4.09727E-10
 -1       813-2.19773E+05-5.07854E+04-1.61869E+02-1.08921E+05-6.11834E-10 1.47361E-09
 -1       814-2.21717E+05-4.88488E+04-1.90545E+02-1.06709E+05-1.04251E-09 9.03356E-10
 -1       815-2.19785E+05-5.07930E+04-3.43036E+02-1.08920E+05-4.19277E-10-1.73895E-09
 -1       816-2.21699E+05-4.88680E+04-6.72655E+02-1.06695E+05-9.47921E-09 2.33194E-09
 -1       817-2.19933E+05-5.09738E+04-1.48233E+03-1.08886E+05-2.12331E-08-4.69413E-09
 -1       818-2.21653E+05-4.94122E+04-3.06465E+03-1.06455E+05-1.32550E-08-7.50015E-09
 -1       819-2.21479E+05-5.36954E+04-7.28648E+03-1.08205E+05-2.10116E-09-5.84805E-10
 -1       820-2.21695E+05-5.72853E+04-1.53570E+04-1.03179E+05-1.24419E-09 3.14230E-10
 -1       821-2.24627E+05 6.68125E+03-2.90184E+04 1.66363E+03-1.61617E-09 1.02409E-09
 -1       822-2.35068E+05-9.10092E+03-1.85806E+04 6.78531E+03-1.29012E-09 5.62750E-10
 -1       823-2.29004E+05 6.85598E+02-7.52260E+03 1.61753E+03 1.20417E-09-9.20863E-10
 -1       824-2.30206E+05-8.88453E+02-4.20071E+03 6.84783E+03-5.12614E-10-2.39146E-09
 -1       825-2.29500E+05 7.49708E+01-1.92108E+03 1.60053E+03-4.26712E-09-3.03430E-09
 -1       826-2.29655E+05-7.66701E+01-1.04584E+03 6.87553E+03-8.09769E-09-2.20666E-09
 -1       827-2.29563E+05 1.20816E+01-5.68609E+02 1.58970E+03-4.30339E-09-2.07876E-10
 -1       828-2.29594E+05-1.91771E+00-4.38200E+02 6.89265E+03-5.32589E-09 4.67296E-10
 -1       829-2.29566E+05 1.13673E+01-4.96804E+02 1.58338E+03-3.58199E-10-1.63396E-10
 -1       830-2.29643E+05-5.68396E+01-8.57612E+02 6.90006E+03 3.46118E-09 2.15199E-09
 -1       831-2.29517E+05 6.25649E+01-1.54511E+03 1.58230E+03-3.02684E-09 3.11786E-10
 -1       832-2.30088E+05-7.03500E+02-3.36265E+03 6.89688E+03-4.86182E-10-4.18413E-09
 -1       833-2.29121E+05 5.51673E+02-6.01323E+03 1.58668E+03-7.74207E-10-8.29914E-10
 -1       834-2.33977E+05-7.26531E+03-1.48507E+04 6.87217E+03-9.20750E-10-1.10958E-10
 -1       835-2.25624E+05 5.34434E+03-2.31898E+04 1.60802E+03 8.01833E-10-4.62933E-10
 -1       836-1.06815E+04 5.78494E+05 4.89022E+04-1.57998E+04-9.04038E-10-2.27328E-09
 -1       837 1.64254E+04 5.96448E+05 3.80141E+04-6.08084E+04 2.51271E-09 2.40880E-09
 -1       838-2.57833E+03 5.84259E+05 2.81616E+04-1.57921E+04-1.45155E-09 2.14463E-09
 -1       839 2.17613E+04 5.99612E+05 4.74796E+04-6.08023E+04 2.87082E-09 5.94810E-10
 -1       840-1.49724E+04 5.75321E+05 6.68171E+04-1.58054E+04-1.01863E-09 1.61890E-10
 -1       841-2.67415E+04 1.11082E+02-1.00797E+04-1.18333E+04-2.26146E-09 8.23093E-10
 -1       842-3.22754E+04-8.87617E+03-6.98736E+03-9.82030E+03-1.05931E-09 6.18456E-10
 -1       843-2.87841E+04-3.51053E+03-2.36199E+03-1.11640E+04 2.06222E-09 1.50942E-09
 -1       844-2.99097E+04-4.67557E+03-1.46914E+03-1.05861E+04 2.40018E-09-2.08433E-09
 -1       845-2.91066E+04-4.08324E+03-5.42302E+02-1.10699E+04 2.37435E-10 1.72420E-09
 -1       846-2.95381E+04-4.00693E+03-3.03627E+02-1.06903E+04-4.94186E-09 1.58353E-09
 -1       847-2.91557E+04-4.17820E+03-1.02803E+02-1.10602E+04-4.05356E-09 3.92859E-11
 -1       848-2.94756E+04-3.88471E+03-1.36891E+01-1.07012E+04-2.10868E-09 3.75920E-10
 -1       849-2.91692E+04-4.20526E+03 7.19669E+01-1.10591E+04 3.72895E-09 1.50298E-09
 -1       850-2.94165E+04-3.78521E+03 2.37953E+02-1.07152E+04 7.08440E-09 3.10770E-09
 -1       851-2.92148E+04-4.27756E+03 4.31594E+02-1.10464E+04-2.49560E-09-2.11060E-09
 -1       852-2.91008E+04-3.26227E+03 1.17622E+03-1.08132E+04-2.11529E-09-2.46298E-09
 -1       853-2.94848E+04-4.72750E+03 1.88989E+03-1.09613E+04-1.13988E-09 1.01852E-09
 -1       854-2.71777E+04 7.87384E+01 5.59679E+03-1.14517E+04 4.21437E-10 1.06456E-09
 -1       855-3.11369E+04-7.61359E+03 8.06989E+03-1.04096E+04 9.64292E-10 1.75760E-09
 -1       856-2.65008E+05 6.17973E+03-2.68657E+04 3.36541E+03-4.69436E-09-2.16460E-10
 -1       857-2.74666E+05-8.40374E+03-1.71971E+04 1.38799E+04-2.27408E-09-1.34878E-09
 -1       858-2.69062E+05 6.36542E+02-6.96420E+03 3.28675E+03-4.48608E-09 9.67702E-10
 -1       859-2.70185E+05-7.94980E+02-3.88519E+03 1.39876E+04-1.94370E-09-1.20821E-09
 -1       860-2.69524E+05 7.54942E+01-1.77395E+03 3.25650E+03 1.10776E-09-3.51906E-09
 -1       861-2.69685E+05-3.87628E+01-9.57942E+02 1.40325E+04-5.90171E-09-1.86685E-09
 -1       862-2.69585E+05 1.92193E+01-5.06877E+02 3.24164E+03 6.23186E-09-2.42392E-09
 -1       863-2.69631E+05 3.32846E+01-3.65798E+02 1.40507E+04 1.55010E-08-3.24371E-09
 -1       864-2.69589E+05 1.73746E+01-3.82587E+02 3.23822E+03 8.61993E-09-3.28640E-09
 -1       865-2.69661E+05-6.23147E+00-6.31403E+02 1.40455E+04 1.00152E-08-3.20062E-09
 -1       866-2.69552E+05 5.21615E+01-1.12266E+03 3.24688E+03-1.61708E-09-6.67740E-10
 -1       867-2.69970E+05-4.77885E+02-2.43160E+03 1.40151E+04-4.20641E-09-3.77915E-09
 -1       868-2.69264E+05 4.01247E+02-4.34777E+03 3.26880E+03 2.97882E-09-7.98536E-10
 -1       869-2.72760E+05-5.22532E+03-1.07281E+04 1.39273E+04-2.98598E-09-2.35377E-09
 -1       870-2.66734E+05 3.85668E+03-1.67590E+04 3.33564E+03 5.89625E-09-2.86127E-09
 -1       871-2.48340E+03-2.35483E+04-4.48203E+03 6.74729E+04 2.99497E-09-1.51567E-09
 -1       872-8.03735E+02-2.43443E+04-1.29595E+03 7.88890E+04 2.33695E-09-2.65413E-09
 -1       873 3.20592E+01-2.40534E+04 1.34842E+03 6.73442E+04 2.97541E-09-1.55660E-09
 -1       874 1.56424E+03-2.29781E+04 4.98758E+03 7.89484E+04 4.48017E-09 2.37567E-09
 -1       875 5.18291E+03-2.49575E+04 1.07614E+04 6.74213E+04 4.88990E-09 2.83649E-09
 -1       876 3.15310E+05 3.96286E+04 2.98769E+04 1.24037E+05 3.84375E-09-6.17365E-09
 -1       877 3.22070E+05 6.29156E+04 1.88582E+04 1.28416E+05 1.04515E-09 3.64935E-10
 -1       878 3.20447E+05 4.64584E+04 7.05326E+03 1.23314E+05 3.93322E-09-5.22959E-11
 -1       879 3.16164E+05 5.40419E+04 3.88336E+03 1.29656E+05-1.08096E-08-2.31165E-09
 -1       880 3.21016E+05 4.72129E+04 1.64737E+03 1.23274E+05-1.00206E-08-1.87981E-09
 -1       881 3.15509E+05 5.30848E+04 8.84721E+02 1.29720E+05-7.35702E-09-4.32487E-09
 -1       882 3.21074E+05 4.73073E+04 4.72178E+02 1.23285E+05 3.61598E-09 6.38707E-10
 -1       883 3.15451E+05 5.29834E+04 4.06717E+02 1.29704E+05-4.80314E-09-1.08393E-11
 -1       884 3.21068E+05 4.73100E+04 5.30621E+02 1.23289E+05 3.73613E-09-1.24410E-09
 -1       885 3.15542E+05 5.30913E+04 1.04595E+03 1.29698E+05 2.21750E-08 1.35199E-09
 -1       886 3.20985E+05 4.72082E+04 1.97455E+03 1.23287E+05 4.04549E-09-9.05629E-10
 -1       887 3.16348E+05 5.42234E+04 4.66847E+03 1.29593E+05 2.83848E-10-1.84900E-09
 -1       888 3.20287E+05 4.63128E+04 8.48626E+03 1.23346E+05 8.96030E-10-2.61980E-09
 -1       889 3.23467E+05 6.48855E+04 2.26904E+04 1.28078E+05-3.81559E-09-2.37151E-09
 -1       890 3.14098E+05 3.81030E+04 3.59520E+04 1.24222E+05-3.83488E-09 6.58474E-10
 -1       891 1.13283E+03-1.40624E+05-5.44537E+03 1.52451E+04 4.77712E-09-5.71617E-10
 -1       892-1.91901E+03-1.42559E+05-4.37808E+03 5.94934E+04-3.52748E-09-4.82942E-10
 -1       893 3.06006E+02-1.41242E+05-3.49319E+03 1.51770E+04 5.41536E-09-2.87972E-09
 -1       894-2.96339E+03-1.43172E+05-6.22672E+03 5.94880E+04 3.72529E-09-4.64570E-09
 -1       895 1.96882E+03-1.40003E+05-8.94404E+03 1.52502E+04 5.33510E-09-1.66619E-09
 -1       896 6.31177E+05-4.79608E+03 1.11494E+04 1.04705E+03-4.05009E-12-2.38970E-09
 -1       897 6.36018E+05 5.55246E+03 7.89438E+03-1.52689E+03-6.75975E-11-1.21054E-09
 -1       898 6.33062E+05-7.47543E+02 2.89757E+03 5.29735E+02-9.50948E-10-1.19792E-09
 -1       899 6.33824E+05 8.66149E+02 1.83580E+03-7.39270E+02-3.08555E-10-5.40723E-10
 -1       900 6.33372E+05-1.17500E+02 7.81968E+02 2.59427E+02-2.27800E-11-5.82901E-10
 -1       901 6.33467E+05 1.46429E+02 5.26768E+02-3.14597E+02 2.45982E-10-3.47839E-10
 -1       902 6.33419E+05-2.88295E+01 3.73140E+02 1.05055E+02-2.39654E-10-2.36673E-10
 -1       903 6.33448E+05 1.03861E+02 5.14920E+02-4.79300E+01-1.90038E-10-1.38250E-10
 -1       904 6.33392E+05-7.49681E+01 7.95286E+02-7.24477E+00 9.62110E-11 1.71099E-11
 -1       905 6.33681E+05 5.44779E+02 1.74563E+03 1.88075E+02 4.84240E-10-3.12355E-11
 -1       906 6.33185E+05-4.69110E+02 2.98032E+03-1.30954E+02 4.40536E-10-1.76556E-10
 -1       907 6.35125E+05 3.49326E+03 7.31247E+03 5.06220E+02-3.73973E-10 3.65958E-10
 -1       908 6.31946E+05-3.01852E+03 1.16584E+04-3.25395E+02 1.56174E-10 4.87944E-10
 -1       909 6.43889E+05 2.24120E+04 3.18204E+04 1.06497E+03 1.17652E-09-2.58296E-10
 -1       910 6.24413E+05-1.93526E+04 4.50275E+04-6.89682E+02 9.03285E-10 9.13133E-10
 -1       911 1.89262E+05-2.52327E+03 5.85998E+03 3.08506E+02-7.90152E-10 2.65936E-09
 -1       912 1.91827E+05 2.92409E+03 4.15342E+03-1.98562E+03-6.57955E-10 3.06227E-09
 -1       913 1.90258E+05-3.93687E+02 1.52832E+03 1.80599E+02-5.42730E-10 3.56863E-09
 -1       914 1.90666E+05 4.59743E+02 9.76402E+02-1.82192E+03-6.25430E-10 3.32444E-09
 -1       915 1.90422E+05-6.26573E+01 4.34396E+02 1.44801E+02 6.82163E-10 3.96636E-09
 -1       916 1.90488E+05 8.57721E+01 3.26807E+02-1.83785E+03 1.55046E-09 3.31997E-09
 -1       917 1.90437E+05-2.04371E+01 2.88283E+02 1.96528E+02 1.42321E-09 3.23780E-09
 -1       918 1.90525E+05 9.68693E+01 4.80336E+02-2.03571E+03-1.87939E-11 2.89329E-09
 -1       919 1.90386E+05-7.47766E+01 7.84975E+02 3.42658E+02 7.95829E-10 1.98162E-09
 -1       920 1.90833E+05 5.53214E+02 1.78821E+03-2.44281E+03 1.99918E-10 9.96693E-10
 -1       921 1.90132E+05-4.78611E+02 3.02735E+03 6.03642E+02-3.04453E-10 6.13454E-10
 -1       922 1.92450E+05 3.56695E+03 7.51482E+03-3.11769E+03-5.47118E-10-7.24867E-10
 -1       923 1.88776E+05-3.08876E+03 1.18855E+04 1.01755E+03-1.58309E-10-2.24190E-09
 -1       924 2.01716E+05 2.29378E+04 3.26410E+04-4.18683E+03-1.09792E-09-4.19459E-09
 -1       925 1.80882E+05-1.98242E+04 4.59679E+04 1.67274E+03-2.03897E-10-6.83576E-09
 -1       926-7.80389E+05 1.71896E+04-4.07219E+04-8.12377E+03 2.10730E-09-1.40153E-08
 -1       927-7.95576E+05-1.98715E+04-2.83249E+04 1.86148E+04-1.00407E-08-1.79734E-08
 -1       928-7.85787E+05 2.69557E+03-1.04386E+04-1.11457E+04 1.39789E-09-1.97001E-08
 -1       929-7.87966E+05-2.99381E+03-6.37414E+03 1.91348E+04 1.55154E-08-1.82470E-08
 -1       930-7.88000E+05 3.52478E+02-2.85372E+03-8.64396E+03 1.17416E-09-1.60704E-08
 -1       931-7.83836E+05-3.25683E+02-7.84869E+02 9.87172E+03-3.53216E-09-8.77662E-09
 -1       932-7.89755E+05-9.87214E+01-1.13551E+03-1.88166E+03 2.33160E-09-5.01311E-09
 -1       933-7.82728E+05 1.13765E+02 6.75700E+02-4.49779E+03 1.51977E-09 4.27318E-09
 -1       934-7.89059E+05-1.26654E+02-2.62049E+02 5.72491E+03 7.68523E-11 9.17856E-09
 -1       935-7.85220E+05 3.15324E+02 9.43324E+02-1.66955E+04 9.14042E-10 1.44604E-08
 -1       936-7.87410E+05-1.78706E+02 1.07512E+03 1.03162E+04 2.73857E-09 1.72391E-08
 -1       937-7.86127E+05 1.45495E+03 2.86315E+03-2.05517E+04-1.04099E-08 1.68423E-08
 -1       938-7.88234E+05-1.19601E+03 4.34837E+03 9.58175E+03-8.60223E-09 1.56833E-08
 -1       939-7.80433E+05 8.86543E+03 1.27352E+04-1.41418E+04-5.76105E-09 1.07498E-08
 -1       940-7.92969E+05-7.68105E+03 1.67012E+04 3.90542E+03 6.46082E-10 7.76981E-09
 -1       941 3.41585E+06-1.69753E+05 3.96112E+05 4.51542E+02 1.56096E-08 2.91038E-09
 -1       942 3.58670E+06 1.96663E+05 2.79595E+05 8.08486E+02 2.57683E-08 1.30967E-09
 -1       943 3.48194E+06-2.64889E+04 1.02662E+05 5.88025E+02 1.19418E-06 4.70754E-09
 -1       944 3.51001E+06 3.06696E+04 6.44547E+04 6.48745E+02 2.36589E-06-2.22371E-09
 -1       945 3.49285E+06-4.12583E+03 2.64962E+04 6.11367E+02 1.80360E-06 1.49157E-10
 -1       946 3.49743E+06 4.84541E+03 1.58759E+04 6.20525E+02 1.23576E-06 4.81305E-09
 -1       947 3.49464E+06-7.12443E+02 7.94770E+03 6.16275E+02 1.72427E-06 1.88652E-09
 -1       948 3.49560E+06 1.32261E+03 6.57878E+03 6.09835E+02 2.20999E-06 1.68430E-09
 -1       949 3.49471E+06-6.08580E+02 6.99195E+03 6.22062E+02 1.10923E-06-5.39580E-09
 -1       950 3.49695E+06 3.94848E+03 1.31189E+04 5.74328E+02 8.50213E-09 4.54929E-09
 -1       951 3.49328E+06-3.33412E+03 2.15238E+04 6.51778E+02 1.39893E-09-4.79395E-09
 -1       952 3.50708E+06 2.47523E+04 5.20828E+04 3.71878E+02-3.21095E-09-1.49157E-09
 -1       953 3.48448E+06-2.13746E+04 8.28663E+04 8.24487E+02-8.04748E-09 8.51287E-10
 -1       954 3.56896E+06 1.58687E+05 2.25614E+05-8.25588E+02-2.01135E-09-3.59796E-09
 -1       955 3.43111E+06-1.36981E+05 3.19520E+05 1.84896E+03-1.43956E-08-1.04774E-09
 -1       956-1.80784E+05-3.12790E+03-6.53301E+03 2.52382E+04-3.24599E-09 9.05402E-10
 -1       957-1.81977E+05-9.87177E+02-3.29584E+03 2.92819E+04-7.38055E-10-1.15404E-09
 -1       958-1.81324E+05-1.09819E+02-1.48244E+03 2.50852E+04 2.98769E-09-1.01636E-10
 -1       959-1.81437E+05-4.81435E+00-7.53738E+02 2.94495E+04-4.82032E-10-1.13891E-09
 -1       960-1.81389E+05 3.83055E+01-3.65973E+02 2.50693E+04-3.95448E-09-7.32143E-10
 -1       961-1.81403E+05 4.59342E+01-1.92713E+02 2.94673E+04-8.29641E-09-1.00499E-10
 -1       962-1.81408E+05 4.30487E+01-1.08235E+02 2.50672E+04-3.47154E-09-9.06766E-10
 -1       963-1.81408E+05 5.11816E+01-8.28895E+01 2.94700E+04-4.26371E-09-1.81444E-10
 -1       964-1.81415E+05 4.71063E+01-9.59813E+01 2.50665E+04-2.05773E-10-2.81716E-10
 -1       965-1.81418E+05 5.48485E+01-1.62001E+02 2.94699E+04 4.89644E-09-2.21235E-09
 -1       966-1.81412E+05 5.07528E+01-3.02126E+02 2.50673E+04-1.66756E-09-9.83391E-10
 -1       967-1.81460E+05 2.06831E+01-6.20876E+02 2.94614E+04-6.87805E-11-1.89607E-09
 -1       968-1.81370E+05-6.41544E+01-1.21924E+03 2.50752E+04 5.30463E-10-1.81353E-09
 -1       969-1.81918E+05-7.81714E+02-2.71254E+03 2.93769E+04 1.01295E-09-5.72754E-10
 -1       970-1.80934E+05-2.54446E+03-5.37557E+03 2.51541E+04 1.19280E-09-1.41245E-09
 -1       971-3.69056E+05 5.12654E+03-2.23060E+04 3.30869E+03-4.14184E-09 1.46974E-09
 -1       972-3.77053E+05-6.97491E+03-1.42773E+04 1.38810E+04-3.68777E-09 1.67347E-10
 -1       973-3.72422E+05 5.26951E+02-5.78624E+03 3.20937E+03-4.99017E-09 3.11957E-10
 -1       974-3.73340E+05-6.55741E+02-3.23292E+03 1.40234E+04 5.95492E-10 4.17089E-09
 -1       975-3.72806E+05 6.28921E+01-1.48922E+03 3.16537E+03 1.20508E-11 1.29853E-09
 -1       976-3.72932E+05-2.61399E+01-8.28049E+02 1.40909E+04-6.30325E-09 2.39959E-09
 -1       977-3.72856E+05 1.78637E+01-4.85888E+02 3.14170E+03 9.89269E-09 1.21412E-09
 -1       978-3.72897E+05 3.09176E+01-4.37780E+02 1.41220E+04 1.65262E-08 2.08581E-09
 -1       979-3.72854E+05 2.11029E+01-5.78695E+02 3.13415E+03 7.20273E-09 1.66054E-10
 -1       980-3.72964E+05-4.49265E+01-1.07410E+03 1.41205E+04 7.94421E-09 3.35258E-09
 -1       981-3.72789E+05 8.59852E+01-1.97715E+03 3.14329E+03 2.59888E-10 2.90026E-09
 -1       982-3.73529E+05-8.83187E+02-4.32736E+03 1.40845E+04 2.14641E-09 3.20119E-09
 -1       983-3.72276E+05 7.13248E+02-7.75131E+03 3.17033E+03 6.30371E-09-7.45786E-11
 -1       984-3.78528E+05-9.35116E+03-1.91464E+04 1.39849E+04-1.67449E-09 2.10389E-09
 -1       985-3.67765E+05 6.88829E+03-2.99052E+04 3.24465E+03 3.32784E-09 1.60617E-09
 -3
    1PSTEP                        19          10           1          
  100CL  110 5.32410E-01         841                     0   10           1
 -4  DISP        4    1
 -5  D1          1    2    1    0
 -5  D2          1    2    2    0
 -5  D3          1    2    3    0
 -5  ALL         1    2    0    0    1ALL
 -1         1 6.53305E-05 0.00000E+00 0.00000E+00
 -1         2 4.85799E-05 0.00000E+00 0.00000E+00
 -1         3 4.07864E-05 0.00000E+00 0.00000E+00
 -1         4 3.61236E-05 0.00000E+00 0.00000E+00
 -1         5 3.39921E-05 0.00000E+00 0.00000E+00
 -1         8 5.13204E-05-6.56560E-07 0.00000E+00
 -1         9 4.05744E-05 5.19926E-07 0.00000E+00
 -1        10 3.78902E-05-1.68373E-06 0.00000E+00
 -1        11 3.53045E-05-3.28942E-07 0.00000E+00
 -1        12 3.27070E-05 8.53809E-07 0.00000E+00
 -1        15 2.21562E-05-1.32315E-06 0.00000E+00
 -1        16 2.97559E-05 5.10905E-07 0.00000E+00
 -1        17 2.75067E-05-3.38408E-06 0.00000E+00
 -1        18 2.78825E-05-6.49247E-07 0.00000E+00
 -1        19 2.93101E-05 1.69030E-06 0.00000E+00
 -1        20 2.97623E-05 1.79800E-05 0.00000E+00
 -1        21 2.97473E-05 4.30267E-05 0.00000E+00
 -1        22 8.00969E-06-8.64898E-07 0.00000E+00
 -1        23 1.06617E-05 1.08202E-06 0.00000E+00
 -1        24 1.12723E-05-3.99535E-06 0.00000E+00
 -1        25 2.44361E-05-4.39545E-07 0.00000E+00
 -1        26 2.58361E-05 2.24386E-06 0.00000E+00
 -1        27 2.44429E-05 1.73423E-05 0.00000E+00
 -1        28 2.27923E-05 4.24218E-05 0.00000E+00
 -1        29 0.00000E+00 0.00000E+00 0.00000E+00
 -1        30 3.89926E-06 1.42793E-06 0.00000E+00
 -1        31 5.09740E-06-3.25726E-06 0.00000E+00
 -1        32 0.00000E+00 0.00000E+00 0.00000E+00
 -1        33 2.10683E-05 3.55048E-06 0.00000E+00
 -1        34 1.99589E-05 1.72834E-05 0.00000E+00
 -1        35 1.76797E-05 4.20999E-05 0.00000E+00
 -1        36 6.43171E-05-3.65424E-20 0.00000E+00
 -1        37 6.32703E-05 5.89263E-20 0.00000E+00
 -1        38 6.22256E-05 2.73438E-19 0.00000E+00
 -1        39 6.11746E-05 5.30994E-19 0.00000E+00
 -1        40 6.01234E-05 6.75831E-19 2.64698E-23
 -1        41 5.90709E-05 4.70280E-19 1.32349E-23
 -1        42 5.80183E-05 2.07835E-19 0.00000E+00
 -1        43 5.69655E-05-1.18702E-19-1.32349E-23
 -1        44 5.59126E-05-3.02799E-19 0.00000E+00
 -1        45 5.48599E-05-3.74067E-19 0.00000E+00
 -1        46 5.38072E-05-3.56255E-19-2.64698E-23
 -1        47 5.27554E-05-3.34042E-19 0.00000E+00
 -1        48 5.17036E-05-2.38712E-19 0.00000E+00
 -1        49 5.06561E-05-1.33583E-19 1.32349E-23
 -1        50 4.96071E-05 2.91829E-21 2.64698E-23
 -1        51 6.42737E-05-1.11611E-07 0.00000E+00
 -1        52 6.25214E-05-2.18290E-07 0.00000E+00
 -1        53 6.02085E-05-3.24327E-07 0.00000E+00
 -1        54 5.74760E-05-4.31213E-07 0.00000E+00
 -1        55 5.44658E-05-5.40318E-07-2.89513E-24
 -1        56 6.40482E-05-5.36400E-07 2.64698E-23
 -1        57 6.27484E-05-1.16846E-06 1.32349E-23
 -1        58 6.14651E-05-1.83697E-06 0.00000E+00
 -1        59 6.01723E-05-2.50396E-06 2.64698E-23
 -1        60 5.88618E-05-3.12480E-06 0.00000E+00
 -1        61 5.75174E-05-3.65956E-06 0.00000E+00
 -1        62 5.61270E-05-4.07212E-06 0.00000E+00
 -1        63 5.46784E-05-4.33045E-06-2.64698E-23
 -1        64 5.31630E-05-4.41046E-06-5.29396E-23
 -1        65 5.15736E-05-4.29324E-06 0.00000E+00
 -1        66 4.99072E-05-3.97037E-06 0.00000E+00
 -1        67 4.81640E-05-3.43894E-06-2.64698E-23
 -1        68 4.63459E-05-2.70785E-06-2.64698E-23
 -1        69 4.44658E-05-1.78861E-06-1.32349E-23
 -1        70 4.25224E-05-7.09075E-07 2.64698E-23
 -1        71 4.80909E-05 8.88744E-21 0.00000E+00
 -1        72 4.76029E-05 7.46555E-20 0.00000E+00
 -1        73 4.71148E-05 2.36636E-20 0.00000E+00
 -1        74 4.66269E-05-2.90316E-20 0.00000E+00
 -1        75 4.61389E-05 9.67801E-23 0.00000E+00
 -1        76 4.56511E-05 3.16562E-21-6.61744E-24
 -1        77 4.51632E-05-4.28631E-20 1.32349E-23
 -1        78 4.46754E-05-1.57444E-19-6.61744E-24
 -1        79 4.41876E-05-2.41315E-19 0.00000E+00
 -1        80 4.36998E-05-2.79741E-19 6.61744E-24
 -1        81 4.32121E-05-2.07537E-19 0.00000E+00
 -1        82 4.27247E-05-1.22443E-19-6.61744E-24
 -1        83 4.22373E-05-1.12838E-19-1.32349E-23
 -1        84 4.17514E-05-1.56438E-19 0.00000E+00
 -1        85 4.12650E-05-4.48650E-20-1.32349E-23
 -1        86 4.82563E-05 6.95892E-08-6.61744E-24
 -1        87 4.72965E-05 1.62836E-07-8.27181E-25
 -1        88 4.58809E-05 2.53915E-07 0.00000E+00
 -1        89 4.41878E-05 3.46496E-07 4.13590E-25
 -1        90 4.23686E-05 4.39980E-07 0.00000E+00
 -1        91 4.72098E-05 1.82726E-06 1.32349E-23
 -1        92 4.43122E-05 7.66926E-06-6.61744E-24
 -1        93 4.09389E-05 1.47577E-05 1.32349E-23
 -1        94 3.81585E-05 2.02931E-05-6.61744E-24
 -1        95 3.67084E-05 2.23184E-05 0.00000E+00
 -1        96 3.72740E-05 1.89613E-05 6.61744E-24
 -1        97 3.94424E-05 1.12659E-05 0.00000E+00
 -1        98 4.27706E-05 3.93510E-07 0.00000E+00
 -1        99 4.62017E-05-1.07613E-05 0.00000E+00
 -1       100 4.86777E-05-1.92958E-05 0.00000E+00
 -1       101 4.96455E-05-2.37369E-05 1.32349E-23
 -1       102 4.85772E-05-2.27233E-05 0.00000E+00
 -1       103 4.60502E-05-1.78523E-05 0.00000E+00
 -1       104 4.26987E-05-1.08147E-05-6.61744E-24
 -1       105 3.96136E-05-4.47736E-06-1.32349E-23
 -1       106 4.04942E-05-5.69549E-20-6.61744E-24
 -1       107 4.02021E-05-2.87381E-19-3.30872E-24
 -1       108 3.99101E-05-7.18935E-19 0.00000E+00
 -1       109 3.96181E-05-1.18593E-18-3.30872E-24
 -1       110 3.93261E-05-1.61972E-18-6.61744E-24
 -1       111 3.90341E-05-2.03226E-18 3.30872E-24
 -1       112 3.87422E-05-2.27660E-18 0.00000E+00
 -1       113 3.84502E-05-2.32918E-18 3.30872E-24
 -1       114 3.81582E-05-2.18600E-18 0.00000E+00
 -1       115 3.78663E-05-1.87176E-18 0.00000E+00
 -1       116 3.75744E-05-1.50724E-18 6.61744E-24
 -1       117 3.72827E-05-1.04849E-18-3.30872E-24
 -1       118 3.69911E-05-5.92623E-19 0.00000E+00
 -1       119 3.67004E-05-1.84065E-19 3.30872E-24
 -1       120 3.64094E-05 1.95746E-20-6.61744E-24
 -1       121 4.07420E-05-2.80882E-07 0.00000E+00
 -1       122 4.05699E-05-5.61101E-07 3.30872E-24
 -1       123 4.02340E-05-8.41396E-07 0.00000E+00
 -1       124 3.96987E-05-1.12178E-06 0.00000E+00
 -1       125 3.89289E-05-1.40228E-06 6.61744E-24
 -1       126 4.15673E-05-2.84346E-06 6.61744E-24
 -1       127 4.43723E-05-1.11647E-05 3.30872E-24
 -1       128 4.86601E-05-2.35587E-05 0.00000E+00
 -1       129 5.38914E-05-3.85714E-05 3.30872E-24
 -1       130 5.93080E-05-5.41004E-05-6.61744E-24
 -1       131 6.41530E-05-6.80367E-05 0.00000E+00
 -1       132 6.78008E-05-7.86668E-05-6.61744E-24
 -1       133 6.96248E-05-8.43166E-05-3.30872E-24
 -1       134 6.94288E-05-8.45363E-05-6.61744E-24
 -1       135 6.70325E-05-7.89354E-05-3.30872E-24
 -1       136 6.27980E-05-6.85438E-05-6.61744E-24
 -1       137 5.71198E-05-5.44370E-05 0.00000E+00
 -1       138 5.07626E-05-3.85945E-05 0.00000E+00
 -1       139 4.45079E-05-2.30108E-05-3.30872E-24
 -1       140 3.91089E-05-9.61859E-06 0.00000E+00
 -1       141 3.59880E-05-2.46014E-20 3.30872E-24
 -1       142 3.58535E-05-7.34343E-20-1.65436E-24
 -1       143 3.57189E-05-9.63249E-20 0.00000E+00
 -1       144 3.55845E-05-1.11363E-19-1.65436E-24
 -1       145 3.54501E-05-2.20242E-19-3.30872E-24
 -1       146 3.53158E-05-3.26959E-19 1.65436E-24
 -1       147 3.51815E-05-3.66978E-19-3.30872E-24
 -1       148 3.50472E-05-4.21263E-19-1.65436E-24
 -1       149 3.49129E-05-4.44118E-19-3.30872E-24
 -1       150 3.47787E-05-4.33173E-19-1.65436E-24
 -1       151 3.46446E-05-2.91745E-19 3.30872E-24
 -1       152 3.45109E-05-1.94640E-19 1.65436E-24
 -1       153 3.43773E-05-1.30029E-19 0.00000E+00
 -1       154 3.42457E-05-7.30231E-20-8.27181E-25
 -1       155 3.41134E-05 1.53132E-21 0.00000E+00
 -1       156 3.68653E-05-5.44904E-08 0.00000E+00
 -1       157 3.90212E-05-1.06520E-07 1.65436E-24
 -1       158 4.12553E-05-1.59035E-07 0.00000E+00
 -1       159 4.22315E-05-2.09473E-07 0.00000E+00
 -1       160 4.06721E-05-2.60924E-07 0.00000E+00
 -1       161 3.59669E-05-1.00790E-07 0.00000E+00
 -1       162 3.58371E-05-2.74495E-07 0.00000E+00
 -1       163 3.57249E-05-4.95269E-07 0.00000E+00
 -1       164 3.56206E-05-7.37083E-07 0.00000E+00
 -1       165 3.55129E-05-9.69866E-07 0.00000E+00
 -1       166 3.53905E-05-1.16366E-06 0.00000E+00
 -1       167 3.52451E-05-1.29583E-06 6.61744E-24
 -1       168 3.50682E-05-1.34422E-06 0.00000E+00
 -1       169 3.48571E-05-1.30129E-06 0.00000E+00
 -1       170 3.46093E-05-1.16014E-06-3.30872E-24
 -1       171 3.43286E-05-9.31281E-07 0.00000E+00
 -1       172 3.40195E-05-6.25693E-07-3.30872E-24
 -1       173 3.36910E-05-2.68129E-07 0.00000E+00
 -1       174 3.33546E-05 1.17281E-07 0.00000E+00
 -1       175 3.30184E-05 4.99530E-07 0.00000E+00
 -1       191 3.39468E-05 1.42174E-07 0.00000E+00
 -1       192 3.38315E-05 2.84587E-07 0.00000E+00
 -1       193 3.36478E-05 4.27049E-07-6.61744E-24
 -1       194 3.33976E-05 5.69486E-07 0.00000E+00
 -1       195 3.30831E-05 7.11822E-07 0.00000E+00
 -1       251 5.06839E-05 3.79718E-06-1.32349E-23
 -1       252 5.00092E-05 1.20270E-05 0.00000E+00
 -1       253 4.93318E-05 2.07278E-05 0.00000E+00
 -1       254 4.86715E-05 2.65804E-05 0.00000E+00
 -1       255 4.80253E-05 2.77314E-05 0.00000E+00
 -1       256 4.73659E-05 2.24575E-05 1.32349E-23
 -1       257 4.66720E-05 1.23294E-05 2.64698E-23
 -1       258 4.59425E-05-9.47993E-07-1.32349E-23
 -1       259 4.52151E-05-1.40518E-05 0.00000E+00
 -1       260 4.45259E-05-2.36636E-05 1.32349E-23
 -1       261 4.38697E-05-2.82590E-05 0.00000E+00
 -1       262 4.32227E-05-2.64526E-05 0.00000E+00
 -1       263 4.25598E-05-2.01411E-05 1.32349E-23
 -1       264 4.18817E-05-1.13458E-05 6.61744E-24
 -1       265 4.12088E-05-3.36659E-06-1.32349E-23
 -1       266 4.84033E-05-7.66645E-07 0.00000E+00
 -1       267 4.46502E-05-8.72511E-07 1.65436E-24
 -1       268 4.00890E-05-9.81999E-07 0.00000E+00
 -1       269 3.47511E-05-1.09324E-06 0.00000E+00
 -1       270 2.87385E-05-1.20831E-06 0.00000E+00
 -1       271 4.93751E-05 1.11733E-06-2.64698E-23
 -1       272 4.76001E-05 2.32392E-06 1.32349E-23
 -1       273 4.60125E-05 3.03574E-06-2.64698E-23
 -1       274 4.45813E-05 3.31444E-06 1.32349E-23
 -1       275 4.32857E-05 3.23065E-06 2.64698E-23
 -1       276 4.20975E-05 2.85732E-06 0.00000E+00
 -1       277 4.09890E-05 2.27099E-06 0.00000E+00
 -1       278 3.99307E-05 1.55049E-06-1.32349E-23
 -1       279 3.88925E-05 7.76127E-07 2.64698E-23
 -1       280 3.78443E-05 2.89011E-08-1.32349E-23
 -1       281 3.67559E-05-6.10591E-07-2.64698E-23
 -1       282 3.55983E-05-1.06283E-06-1.32349E-23
 -1       283 3.43422E-05-1.25064E-06 0.00000E+00
 -1       284 3.29643E-05-1.09819E-06-1.32349E-23
 -1       285 3.14317E-05-5.37261E-07 2.64698E-23
 -1       286 4.04021E-05 2.10880E-06 6.61744E-24
 -1       287 4.02343E-05 3.31588E-06 0.00000E+00
 -1       288 4.00667E-05 4.09132E-06 0.00000E+00
 -1       289 3.99001E-05 4.38835E-06 0.00000E+00
 -1       290 3.97335E-05 4.23264E-06 6.61744E-24
 -1       291 3.95670E-05 3.65306E-06 0.00000E+00
 -1       292 3.94002E-05 2.74265E-06 0.00000E+00
 -1       293 3.92332E-05 1.59678E-06 3.30872E-24
 -1       294 3.90661E-05 3.46497E-07 0.00000E+00
 -1       295 3.88990E-05-8.76440E-07-3.30872E-24
 -1       296 3.87320E-05-1.94443E-06-6.61744E-24
 -1       297 3.85651E-05-2.73093E-06 3.30872E-24
 -1       298 3.83984E-05-3.15203E-06 6.61744E-24
 -1       299 3.82307E-05-3.12642E-06 0.00000E+00
 -1       300 3.80633E-05-2.64045E-06 6.61744E-24
 -1       301 3.87675E-05 5.10977E-07 3.30872E-24
 -1       302 3.69521E-05 5.13633E-07 8.27181E-25
 -1       303 3.51358E-05 5.18291E-07-1.65436E-24
 -1       304 3.33259E-05 5.22595E-07 0.00000E+00
 -1       305 3.15302E-05 5.24120E-07 0.00000E+00
 -1       306 3.92514E-05 1.68926E-06 1.32349E-23
 -1       307 3.81180E-05 2.28577E-06-1.32349E-23
 -1       308 3.71699E-05 2.39097E-06 0.00000E+00
 -1       309 3.63739E-05 2.08068E-06-1.32349E-23
 -1       310 3.57026E-05 1.43632E-06 0.00000E+00
 -1       311 3.51248E-05 5.40904E-07 0.00000E+00
 -1       312 3.46089E-05-5.20418E-07 2.64698E-23
 -1       313 3.41227E-05-1.66131E-06 0.00000E+00
 -1       314 3.36337E-05-2.79477E-06 2.64698E-23
 -1       315 3.31096E-05-3.83382E-06 1.32349E-23
 -1       316 3.25180E-05-4.69234E-06 2.64698E-23
 -1       317 3.18277E-05-5.28545E-06-1.32349E-23
 -1       318 3.10075E-05-5.53056E-06 2.64698E-23
 -1       319 3.00308E-05-5.34657E-06 1.32349E-23
 -1       320 2.88638E-05-4.65853E-06-1.32349E-23
 -1       321 3.77285E-05-1.23320E-06 0.00000E+00
 -1       322 3.75721E-05-2.25722E-06 3.30872E-24
 -1       323 3.74134E-05-4.50788E-06 0.00000E+00
 -1       324 3.72533E-05-7.72927E-06 0.00000E+00
 -1       325 3.70913E-05-1.15280E-05 6.61744E-24
 -1       326 3.69289E-05-1.55070E-05-3.30872E-24
 -1       327 3.67673E-05-1.92436E-05 0.00000E+00
 -1       328 3.66080E-05-2.23168E-05-3.30872E-24
 -1       329 3.64511E-05-2.43993E-05-3.30872E-24
 -1       330 3.62960E-05-2.51703E-05-1.65436E-24
 -1       331 3.61410E-05-2.44945E-05 0.00000E+00
 -1       332 3.59837E-05-2.22459E-05-1.65436E-24
 -1       333 3.58222E-05-1.85208E-05-3.30872E-24
 -1       334 3.56550E-05-1.34253E-05 0.00000E+00
 -1       335 3.54821E-05-7.25913E-06-3.30872E-24
 -1       336 3.65498E-05-1.96845E-06 0.00000E+00
 -1       337 3.49737E-05-2.25274E-06 0.00000E+00
 -1       338 3.32213E-05-2.53719E-06 6.61744E-24
 -1       339 3.13525E-05-2.82101E-06 0.00000E+00
 -1       340 2.94276E-05-3.10498E-06 0.00000E+00
 -1       341 3.68775E-05-5.63647E-07 1.32349E-23
 -1       342 3.57695E-05 7.80740E-07 6.61744E-24
 -1       343 3.47398E-05 1.91900E-06-1.32349E-23
 -1       344 3.39476E-05 2.42062E-06-6.61744E-24
 -1       345 3.34387E-05 2.16738E-06 0.00000E+00
 -1       346 3.32503E-05 1.05752E-06 6.61744E-24
 -1       347 3.32636E-05-5.92368E-07-1.32349E-23
 -1       348 3.33557E-05-2.45319E-06 6.61744E-24
 -1       349 3.33649E-05-4.09201E-06-1.32349E-23
 -1       350 3.31313E-05-5.08111E-06-6.61744E-24
 -1       351 3.26137E-05-5.31152E-06 0.00000E+00
 -1       352 3.17777E-05-4.69145E-06-6.61744E-24
 -1       353 3.07434E-05-3.54425E-06 1.32349E-23
 -1       354 2.96409E-05-2.20334E-06 0.00000E+00
 -1       355 2.86261E-05-1.10014E-06 0.00000E+00
 -1       356 3.51246E-05 6.68875E-06 0.00000E+00
 -1       357 3.49482E-05 1.31158E-05 0.00000E+00
 -1       358 3.47771E-05 1.86027E-05 0.00000E+00
 -1       359 3.46120E-05 2.28057E-05 3.30872E-24
 -1       360 3.44516E-05 2.55649E-05-6.61744E-24
 -1       361 3.42942E-05 2.67300E-05-3.30872E-24
 -1       362 3.41375E-05 2.63786E-05 0.00000E+00
 -1       363 3.39793E-05 2.45981E-05 3.30872E-24
 -1       364 3.38186E-05 2.16806E-05 0.00000E+00
 -1       365 3.36553E-05 1.79255E-05 0.00000E+00
 -1       366 3.34905E-05 1.37521E-05 0.00000E+00
 -1       367 3.33262E-05 9.58226E-06-1.65436E-24
 -1       368 3.31635E-05 5.83769E-06 0.00000E+00
 -1       369 3.30058E-05 2.93706E-06 0.00000E+00
 -1       370 3.28498E-05 1.17889E-06 0.00000E+00
 -1       371 2.95506E-05-3.99618E-07 0.00000E+00
 -1       372 2.68499E-05-4.53709E-07 8.27181E-25
 -1       373 2.62812E-05-5.04323E-07 1.65436E-24
 -1       374 2.69189E-05-5.53645E-07-4.13590E-25
 -1       375 2.77804E-05-6.03237E-07-4.13590E-25
 -1       376 3.16530E-05 8.57181E-06 0.00000E+00
 -1       377 2.67095E-05 2.08027E-05 3.30872E-24
 -1       378 2.11236E-05 3.46847E-05 6.61744E-24
 -1       379 1.55546E-05 4.85220E-05 0.00000E+00
 -1       380 1.06580E-05 6.06305E-05 0.00000E+00
 -1       381 7.07489E-06 6.93412E-05 0.00000E+00
 -1       382 5.11498E-06 7.38043E-05 6.61744E-24
 -1       383 5.06254E-06 7.32109E-05 3.30872E-24
 -1       384 6.73724E-06 6.79747E-05-6.61744E-24
 -1       385 9.94595E-06 5.85601E-05 3.30872E-24
 -1       386 1.41360E-05 4.64475E-05 6.61744E-24
 -1       387 1.87549E-05 3.31488E-05 3.30872E-24
 -1       388 2.31510E-05 2.04669E-05 6.61744E-24
 -1       389 2.66748E-05 1.01981E-05 0.00000E+00
 -1       390 2.88724E-05 3.54906E-06 3.30872E-24
 -1       406 3.22492E-05 9.94004E-07 0.00000E+00
 -1       407 3.17390E-05 1.13436E-06 0.00000E+00
 -1       408 3.11829E-05 1.27464E-06 0.00000E+00
 -1       409 3.05880E-05 1.41457E-06-3.30872E-24
 -1       410 2.99613E-05 1.55375E-06-3.30872E-24
 -1       466 2.26000E-05 4.18694E-06 0.00000E+00
 -1       467 2.30744E-05 7.05976E-06 0.00000E+00
 -1       468 2.35512E-05 8.15894E-06 0.00000E+00
 -1       469 2.40324E-05 8.31042E-06-6.61744E-24
 -1       470 2.45136E-05 7.82690E-06 1.32349E-23
 -1       471 2.49954E-05 7.00780E-06-6.61744E-24
 -1       472 2.54771E-05 5.97013E-06 0.00000E+00
 -1       473 2.59587E-05 4.82637E-06 6.61744E-24
 -1       474 2.64403E-05 3.63125E-06-1.32349E-23
 -1       475 2.69217E-05 2.43848E-06 6.61744E-24
 -1       476 2.74029E-05 1.30301E-06-1.32349E-23
 -1       477 2.78831E-05 2.80980E-07 0.00000E+00
 -1       478 2.83632E-05-5.09819E-07-1.32349E-23
 -1       479 2.88373E-05-9.46741E-07 3.30872E-24
 -1       480 2.93135E-05-7.15913E-07 1.65436E-24
 -1       481 1.63506E-05-1.26190E-06 8.27181E-25
 -1       482 1.26299E-05-1.18724E-06 0.00000E+00
 -1       483 1.04459E-05-1.10832E-06 0.00000E+00
 -1       484 9.25601E-06-1.02728E-06 0.00000E+00
 -1       485 8.59752E-06-9.45612E-07 0.00000E+00
 -1       486 1.82434E-05 7.49270E-06-6.61744E-24
 -1       487 1.27186E-05 2.04122E-05 0.00000E+00
 -1       488 7.33633E-06 3.29682E-05 1.32349E-23
 -1       489 3.81857E-06 4.06883E-05 0.00000E+00
 -1       490 2.95799E-06 4.14046E-05 1.32349E-23
 -1       491 5.44721E-06 3.30911E-05 6.61744E-24
 -1       492 1.03888E-05 1.80216E-05 1.32349E-23
 -1       493 1.68688E-05-1.36411E-06 0.00000E+00
 -1       494 2.32766E-05-2.05463E-05 0.00000E+00
 -1       495 2.80002E-05-3.50099E-05 6.61744E-24
 -1       496 3.01926E-05-4.25135E-05 0.00000E+00
 -1       497 2.90263E-05-4.09856E-05 0.00000E+00
 -1       498 2.52733E-05-3.26530E-05 0.00000E+00
 -1       499 1.98058E-05-1.98794E-05 0.00000E+00
 -1       500 1.43521E-05-7.14454E-06-1.32349E-23
 -1       501 2.96065E-05 1.96305E-06 0.00000E+00
 -1       502 2.94656E-05 2.84055E-06 0.00000E+00
 -1       503 2.93246E-05 3.14809E-06-6.61744E-24
 -1       504 2.91850E-05 2.89373E-06 1.65436E-24
 -1       505 2.90453E-05 2.15725E-06 0.00000E+00
 -1       506 2.89056E-05 1.02132E-06 0.00000E+00
 -1       507 2.87656E-05-3.80415E-07 3.30872E-24
 -1       508 2.86254E-05-1.91279E-06 0.00000E+00
 -1       509 2.84853E-05-3.42394E-06 0.00000E+00
 -1       510 2.83454E-05-4.76213E-06-1.65436E-24
 -1       511 2.82059E-05-5.79768E-06 0.00000E+00
 -1       512 2.80666E-05-6.40273E-06 1.65436E-24
 -1       513 2.79275E-05-6.50428E-06 0.00000E+00
 -1       514 2.77881E-05-6.03236E-06 0.00000E+00
 -1       515 2.76484E-05-4.99011E-06-3.30872E-24
 -1       516 2.79177E-05 5.96293E-07 0.00000E+00
 -1       517 2.58698E-05 6.98863E-07 2.06795E-25
 -1       518 2.33819E-05 7.99266E-07 0.00000E+00
 -1       519 2.02215E-05 8.99762E-07 0.00000E+00
 -1       520 1.60844E-05 9.97417E-07 3.23117E-27
 -1       521 2.81453E-05 1.53898E-06 0.00000E+00
 -1       522 2.67079E-05 2.00662E-06 0.00000E+00
 -1       523 2.54511E-05 1.99640E-06 0.00000E+00
 -1       524 2.43404E-05 1.58201E-06 1.32349E-23
 -1       525 2.33501E-05 8.44946E-07 0.00000E+00
 -1       526 2.24484E-05-1.31283E-07 0.00000E+00
 -1       527 2.16037E-05-1.26033E-06 0.00000E+00
 -1       528 2.07831E-05-2.45436E-06 0.00000E+00
 -1       529 1.99537E-05-3.62479E-06-2.64698E-23
 -1       530 1.90826E-05-4.68332E-06 0.00000E+00
 -1       531 1.81372E-05-5.54287E-06 0.00000E+00
 -1       532 1.70863E-05-6.11840E-06 1.32349E-23
 -1       533 1.58987E-05-6.32814E-06 0.00000E+00
 -1       534 1.45493E-05-6.09291E-06 1.32349E-23
 -1       535 1.30049E-05-5.34160E-06 2.64698E-23
 -1       536 2.75202E-05-1.72007E-06 0.00000E+00
 -1       537 2.75423E-05-4.55650E-07-8.27181E-25
 -1       538 2.75647E-05 4.52066E-07 0.00000E+00
 -1       539 2.75885E-05 1.04626E-06 2.06795E-25
 -1       540 2.76126E-05 1.36995E-06 0.00000E+00
 -1       541 2.76371E-05 1.46613E-06-4.13590E-25
 -1       542 2.76616E-05 1.37775E-06 4.13590E-25
 -1       543 2.76861E-05 1.14771E-06-4.13590E-25
 -1       544 2.77106E-05 8.18898E-07 0.00000E+00
 -1       545 2.77351E-05 4.34156E-07 0.00000E+00
 -1       546 2.77596E-05 3.63344E-08 0.00000E+00
 -1       547 2.77842E-05-3.31723E-07 0.00000E+00
 -1       548 2.78087E-05-6.27174E-07 0.00000E+00
 -1       549 2.78333E-05-8.07163E-07 4.13590E-25
 -1       550 2.78579E-05-8.28774E-07-8.27181E-25
 -1       551 2.50813E-05-3.48463E-06 2.17135E-24
 -1       552 2.23825E-05-3.58273E-06 4.13590E-25
 -1       553 1.95303E-05-3.68094E-06 0.00000E+00
 -1       554 1.66467E-05-3.78029E-06 3.30872E-24
 -1       555 1.38540E-05-3.88196E-06 0.00000E+00
 -1       556 2.67943E-05-1.82708E-06 0.00000E+00
 -1       557 2.62189E-05-6.25911E-07 0.00000E+00
 -1       558 2.57653E-05 2.53466E-07 0.00000E+00
 -1       559 2.54189E-05 8.48445E-07 6.61744E-24
 -1       560 2.51653E-05 1.19650E-06 0.00000E+00
 -1       561 2.49904E-05 1.33543E-06 0.00000E+00
 -1       562 2.48797E-05 1.30309E-06 0.00000E+00
 -1       563 2.48191E-05 1.13737E-06 0.00000E+00
 -1       564 2.47943E-05 8.76177E-07 0.00000E+00
 -1       565 2.47911E-05 5.57448E-07 0.00000E+00
 -1       566 2.47953E-05 2.19123E-07 3.30872E-24
 -1       567 2.47927E-05-1.00853E-07 8.27181E-25
 -1       568 2.47690E-05-3.64543E-07 8.27181E-25
 -1       569 2.47105E-05-5.34053E-07 5.16988E-25
 -1       570 2.46032E-05-5.71522E-07 4.13590E-25
 -1       571 2.79681E-05-4.40301E-07 1.24077E-24
 -1       572 2.80565E-05-2.96593E-07-6.20385E-25
 -1       573 2.81456E-05-2.06489E-07-2.48154E-24
 -1       574 2.82351E-05-1.57763E-07-8.27181E-25
 -1       575 2.83247E-05-1.38139E-07-3.30872E-24
 -1       576 2.84144E-05-1.35262E-07 0.00000E+00
 -1       577 2.85041E-05-1.36773E-07 3.30872E-24
 -1       578 2.85938E-05-1.30302E-07-4.96308E-24
 -1       579 2.86835E-05-1.03480E-07 3.30872E-24
 -1       580 2.87732E-05-4.39343E-08 0.00000E+00
 -1       581 2.88629E-05 6.07036E-08 0.00000E+00
 -1       582 2.89526E-05 2.22794E-07-6.61744E-24
 -1       583 2.90423E-05 4.54685E-07 0.00000E+00
 -1       584 2.91318E-05 7.68608E-07 0.00000E+00
 -1       585 2.92212E-05 1.17673E-06 0.00000E+00
 -1       586 2.73857E-05-6.13626E-07 0.00000E+00
 -1       587 2.68166E-05-5.77675E-07-8.27181E-25
 -1       588 2.62058E-05-5.41755E-07 0.00000E+00
 -1       589 2.55846E-05-5.06187E-07 1.03398E-25
 -1       590 2.49845E-05-4.71418E-07 0.00000E+00
 -1       591 2.77358E-05-4.06295E-07-1.65436E-24
 -1       592 2.76010E-05-2.06248E-07 0.00000E+00
 -1       593 2.74787E-05-4.11346E-08 1.65436E-24
 -1       594 2.73662E-05 9.63712E-08 8.27181E-25
 -1       595 2.72613E-05 2.13592E-07 0.00000E+00
 -1       596 2.71611E-05 3.17804E-07-8.27181E-25
 -1       597 2.70631E-05 4.16276E-07 0.00000E+00
 -1       598 2.69645E-05 5.16271E-07 8.27181E-25
 -1       599 2.68626E-05 6.25053E-07 0.00000E+00
 -1       600 2.67546E-05 7.49882E-07-4.13590E-25
 -1       601 2.66380E-05 8.98020E-07 8.27181E-25
 -1       602 2.65100E-05 1.07674E-06-6.20385E-25
 -1       603 2.63679E-05 1.29330E-06-1.03398E-24
 -1       604 2.62093E-05 1.55503E-06-1.55096E-25
 -1       605 2.60319E-05 1.86924E-06 0.00000E+00
 -1       606 2.93416E-05 2.37247E-06 0.00000E+00
 -1       607 2.93709E-05 3.11952E-06 0.00000E+00
 -1       608 2.93996E-05 3.92766E-06 0.00000E+00
 -1       609 2.94279E-05 4.79253E-06 0.00000E+00
 -1       610 2.94561E-05 5.70977E-06-3.30872E-24
 -1       611 2.94841E-05 6.67493E-06 0.00000E+00
 -1       612 2.95121E-05 7.68353E-06-3.30872E-24
 -1       613 2.95401E-05 8.73114E-06 0.00000E+00
 -1       614 2.95680E-05 9.81327E-06 0.00000E+00
 -1       615 2.95959E-05 1.09255E-05 0.00000E+00
 -1       616 2.96238E-05 1.20633E-05 0.00000E+00
 -1       617 2.96516E-05 1.32222E-05 0.00000E+00
 -1       618 2.96794E-05 1.43978E-05 0.00000E+00
 -1       619 2.97072E-05 1.55856E-05 0.00000E+00
 -1       620 2.97349E-05 1.67812E-05 0.00000E+00
 -1       621 2.86662E-05 1.78278E-06-1.65436E-24
 -1       622 2.80385E-05 1.87583E-06-8.27181E-25
 -1       623 2.74344E-05 1.96893E-06 3.30872E-24
 -1       624 2.68611E-05 2.06179E-06 8.27181E-25
 -1       625 2.63260E-05 2.15413E-06 0.00000E+00
 -1       626 2.91069E-05 2.40490E-06 3.30872E-24
 -1       627 2.88770E-05 3.18718E-06 0.00000E+00
 -1       628 2.86238E-05 4.03095E-06-3.30872E-24
 -1       629 2.83499E-05 4.92915E-06 1.65436E-24
 -1       630 2.80582E-05 5.87470E-06 0.00000E+00
 -1       631 2.77514E-05 6.86043E-06 1.65436E-24
 -1       632 2.74321E-05 7.87911E-06 0.00000E+00
 -1       633 2.71032E-05 8.92359E-06 0.00000E+00
 -1       634 2.67673E-05 9.98663E-06 0.00000E+00
 -1       635 2.64270E-05 1.10610E-05 0.00000E+00
 -1       636 2.60852E-05 1.21396E-05 1.65436E-24
 -1       637 2.57446E-05 1.32151E-05 0.00000E+00
 -1       638 2.54076E-05 1.42804E-05 0.00000E+00
 -1       639 2.50770E-05 1.53282E-05 2.06795E-25
 -1       640 2.47550E-05 1.63513E-05 4.13590E-25
 -1       641 2.97632E-05 1.92240E-05 4.13590E-25
 -1       642 2.97630E-05 2.05986E-05 0.00000E+00
 -1       643 2.97627E-05 2.20850E-05-1.03398E-25
 -1       644 2.97621E-05 2.36643E-05 0.00000E+00
 -1       645 2.97614E-05 2.53178E-05 2.58494E-26
 -1       646 2.97606E-05 2.70266E-05-1.29247E-26
 -1       647 2.97597E-05 2.87719E-05 0.00000E+00
 -1       648 2.97588E-05 3.05350E-05 0.00000E+00
 -1       649 2.97578E-05 3.22971E-05 0.00000E+00
 -1       650 2.97569E-05 3.40395E-05 0.00000E+00
 -1       651 2.97560E-05 3.57433E-05 0.00000E+00
 -1       652 2.97550E-05 3.73898E-05 0.00000E+00
 -1       653 2.97542E-05 3.89603E-05-4.13590E-25
 -1       654 2.97528E-05 4.04358E-05-4.13590E-25
 -1       655 2.97518E-05 4.17975E-05-1.65436E-24
 -1       656 2.86842E-05 1.78772E-05 0.00000E+00
 -1       657 2.77511E-05 1.77692E-05 0.00000E+00
 -1       658 2.69118E-05 1.76614E-05 3.30872E-24
 -1       659 2.61149E-05 1.75536E-05 0.00000E+00
 -1       660 2.53091E-05 1.74456E-05-1.65436E-24
 -1       661 2.94154E-05 1.92604E-05 3.30872E-24
 -1       662 2.90345E-05 2.06439E-05 1.65436E-24
 -1       663 2.86208E-05 2.21141E-05-3.30872E-24
 -1       664 2.81807E-05 2.36564E-05 0.00000E+00
 -1       665 2.77191E-05 2.52558E-05-3.30872E-24
 -1       666 2.72417E-05 2.68976E-05-1.65436E-24
 -1       667 2.67539E-05 2.85672E-05-3.30872E-24
 -1       668 2.62612E-05 3.02498E-05-1.65436E-24
 -1       669 2.57690E-05 3.19309E-05-3.30872E-24
 -1       670 2.52828E-05 3.35960E-05-1.65436E-24
 -1       671 2.48082E-05 3.52303E-05 0.00000E+00
 -1       672 2.43505E-05 3.68192E-05-1.65436E-24
 -1       673 2.39154E-05 3.83479E-05 0.00000E+00
 -1       674 2.35074E-05 3.98014E-05 0.00000E+00
 -1       675 2.31335E-05 4.11652E-05-1.65436E-24
 -1       676 2.85852E-05 4.29256E-05 0.00000E+00
 -1       677 2.74238E-05 4.28240E-05 1.65436E-24
 -1       678 2.62635E-05 4.27225E-05 0.00000E+00
 -1       679 2.51045E-05 4.26214E-05 0.00000E+00
 -1       680 2.39474E-05 4.25202E-05 0.00000E+00
 -1       681 8.17311E-06-5.97928E-07 3.30872E-24
 -1       682 8.34120E-06-9.15027E-07-1.65436E-24
 -1       683 8.50878E-06-1.66593E-06-3.30872E-24
 -1       684 8.67700E-06-2.70355E-06 3.30872E-24
 -1       685 8.84504E-06-3.92967E-06 0.00000E+00
 -1       686 9.01314E-06-5.24749E-06 0.00000E+00
 -1       687 9.18125E-06-6.57584E-06 0.00000E+00
 -1       688 9.34947E-06-7.83359E-06 3.30872E-24
 -1       689 9.51785E-06-8.92763E-06 0.00000E+00
 -1       690 9.68641E-06-9.76360E-06-3.30872E-24
 -1       691 9.85514E-06-1.02031E-05 0.00000E+00
 -1       692 1.00236E-05-1.01048E-05 0.00000E+00
 -1       693 1.01916E-05-9.23562E-06-3.30872E-24
 -1       694 1.03562E-05-7.35687E-06 0.00000E+00
 -1       695 1.05179E-05-4.05800E-06 1.65436E-24
 -1       696 7.22028E-06-7.24063E-07 3.30872E-24
 -1       697 5.99087E-06-5.79839E-07 1.65436E-24
 -1       698 4.49157E-06-4.36179E-07 0.00000E+00
 -1       699 2.89081E-06-2.91579E-07 1.65436E-24
 -1       700 1.34229E-06-1.46999E-07-6.61744E-24
 -1       701 7.54003E-06-1.24998E-07-1.65436E-24
 -1       702 6.88268E-06 1.08512E-06 1.65436E-24
 -1       703 6.09921E-06 2.63209E-06-3.30872E-24
 -1       704 5.23989E-06 4.37514E-06-3.30872E-24
 -1       705 4.37272E-06 6.13891E-06 0.00000E+00
 -1       706 3.56384E-06 7.74715E-06 0.00000E+00
 -1       707 2.86897E-06 9.05255E-06 6.61744E-24
 -1       708 2.34260E-06 9.91001E-06 0.00000E+00
 -1       709 2.00798E-06 1.02571E-05 6.61744E-24
 -1       710 1.88683E-06 1.00353E-05 3.30872E-24
 -1       711 1.96136E-06 9.29113E-06 6.61744E-24
 -1       712 2.21262E-06 8.07540E-06 3.30872E-24
 -1       713 2.58859E-06 6.52587E-06 0.00000E+00
 -1       714 3.03839E-06 4.78375E-06 1.65436E-24
 -1       715 3.49390E-06 3.02439E-06-1.65436E-24
 -1       716 1.06855E-05 6.22878E-06-8.27181E-25
 -1       717 1.07222E-05 9.53659E-06 2.06795E-25
 -1       718 1.07623E-05 1.12968E-05 0.00000E+00
 -1       719 1.08048E-05 1.17977E-05 0.00000E+00
 -1       720 1.08474E-05 1.12755E-05 0.00000E+00
 -1       721 1.08894E-05 9.96441E-06 0.00000E+00
 -1       722 1.09306E-05 8.06585E-06 1.65436E-24
 -1       723 1.09711E-05 5.78006E-06 0.00000E+00
 -1       724 1.10110E-05 3.29117E-06-1.65436E-24
 -1       725 1.10508E-05 7.82966E-07 4.13590E-25
 -1       726 1.10909E-05-1.56167E-06 0.00000E+00
 -1       727 1.11311E-05-3.55947E-06-2.06795E-25
 -1       728 1.11720E-05-5.01277E-06 0.00000E+00
 -1       729 1.12106E-05-5.72291E-06-8.27181E-25
 -1       730 1.12503E-05-5.46081E-06 0.00000E+00
 -1       731 5.68081E-06 1.12519E-06-4.13590E-25
 -1       732 2.85964E-06 1.18258E-06 0.00000E+00
 -1       733 1.71750E-06 1.24292E-06 0.00000E+00
 -1       734 1.77838E-06 1.30495E-06-8.27181E-25
 -1       735 2.63924E-06 1.36676E-06 0.00000E+00
 -1       736 7.99165E-06 7.02762E-06-6.61744E-24
 -1       737 5.32356E-06 1.29325E-05-6.61744E-24
 -1       738 3.18742E-06 1.74418E-05 1.32349E-23
 -1       739 2.08430E-06 1.92163E-05 0.00000E+00
 -1       740 2.13218E-06 1.79244E-05 1.32349E-23
 -1       741 3.42510E-06 1.32834E-05 0.00000E+00
 -1       742 5.60213E-06 6.24644E-06 1.32349E-23
 -1       743 8.29283E-06-2.19174E-06 0.00000E+00
 -1       744 1.09424E-05-1.05174E-05-1.32349E-23
 -1       745 1.29959E-05-1.72187E-05 0.00000E+00
 -1       746 1.41132E-05-2.13855E-05-1.32349E-23
 -1       747 1.39643E-05-2.21515E-05 0.00000E+00
 -1       748 1.26829E-05-1.99046E-05 0.00000E+00
 -1       749 1.04270E-05-1.50809E-05 6.61744E-24
 -1       750 7.71654E-06-9.06570E-06-6.61744E-24
 -1       751 1.20454E-05-2.33118E-06 6.61744E-24
 -1       752 1.28680E-05-1.45782E-06-6.61744E-24
 -1       753 1.36879E-05-1.06966E-06 0.00000E+00
 -1       754 1.45170E-05-8.79053E-07 0.00000E+00
 -1       755 1.53465E-05-8.09573E-07 0.00000E+00
 -1       756 1.61778E-05-7.89176E-07 1.32349E-23
 -1       757 1.70093E-05-7.98620E-07-2.64698E-23
 -1       758 1.78411E-05-8.19742E-07 1.32349E-23
 -1       759 1.86730E-05-8.46955E-07 0.00000E+00
 -1       760 1.95046E-05-8.74892E-07 0.00000E+00
 -1       761 2.03362E-05-8.98967E-07 2.64698E-23
 -1       762 2.11664E-05-9.14452E-07 1.32349E-23
 -1       763 2.19964E-05-9.07380E-07 2.64698E-23
 -1       764 2.28198E-05-8.62963E-07 0.00000E+00
 -1       765 2.36454E-05-7.26413E-07 0.00000E+00
 -1       766 9.98437E-06-3.88667E-06-3.30872E-24
 -1       767 1.02102E-05-3.75720E-06 0.00000E+00
 -1       768 1.09064E-05-3.62923E-06 0.00000E+00
 -1       769 1.10324E-05-3.49902E-06 0.00000E+00
 -1       770 9.47164E-06-3.36954E-06 0.00000E+00
 -1       771 1.00539E-05-2.35514E-06 0.00000E+00
 -1       772 8.94579E-06-1.02961E-06 0.00000E+00
 -1       773 7.94440E-06 8.32619E-09 0.00000E+00
 -1       774 7.04001E-06 7.86205E-07 0.00000E+00
 -1       775 6.22274E-06 1.33165E-06 0.00000E+00
 -1       776 5.48223E-06 1.67248E-06 0.00000E+00
 -1       777 4.80804E-06 1.83658E-06 0.00000E+00
 -1       778 4.18968E-06 1.85195E-06 0.00000E+00
 -1       779 3.61660E-06 1.74664E-06 0.00000E+00
 -1       780 3.07827E-06 1.54878E-06 0.00000E+00
 -1       781 2.56414E-06 1.28653E-06 0.00000E+00
 -1       782 2.06373E-06 9.88117E-07 0.00000E+00
 -1       783 1.56654E-06 6.81780E-07-1.32349E-23
 -1       784 1.06258E-06 3.95873E-07 0.00000E+00
 -1       785 5.41889E-07 1.58748E-07 0.00000E+00
 -1       786 2.45183E-05-1.16659E-07-8.27181E-25
 -1       787 2.46056E-05 1.34292E-07 0.00000E+00
 -1       788 2.46928E-05 3.24336E-07 0.00000E+00
 -1       789 2.47808E-05 4.64505E-07-1.65436E-24
 -1       790 2.48689E-05 5.65787E-07-3.30872E-24
 -1       791 2.49571E-05 6.39146E-07 0.00000E+00
 -1       792 2.50454E-05 6.95520E-07 0.00000E+00
 -1       793 2.51337E-05 7.45836E-07 0.00000E+00
 -1       794 2.52220E-05 8.01019E-07 0.00000E+00
 -1       795 2.53103E-05 8.71994E-07 1.65436E-24
 -1       796 2.53986E-05 9.69699E-07 3.30872E-24
 -1       797 2.54869E-05 1.10510E-06 0.00000E+00
 -1       798 2.55750E-05 1.28917E-06 0.00000E+00
 -1       799 2.56629E-05 1.53294E-06-8.27181E-25
 -1       800 2.57507E-05 1.84748E-06-1.65436E-24
 -1       801 2.22598E-05-3.59590E-07 0.00000E+00
 -1       802 1.77394E-05-2.81702E-07 0.00000E+00
 -1       803 1.20635E-05-2.09253E-07 0.00000E+00
 -1       804 6.42181E-06-1.38833E-07 0.00000E+00
 -1       805 2.00446E-06-6.29212E-08 0.00000E+00
 -1       806 2.42152E-05-1.51023E-07 0.00000E+00
 -1       807 2.40025E-05 1.06111E-07 1.65436E-24
 -1       808 2.37984E-05 3.37867E-07 0.00000E+00
 -1       809 2.36013E-05 5.49814E-07 1.65436E-24
 -1       810 2.34095E-05 7.47492E-07-3.30872E-24
 -1       811 2.32208E-05 9.36402E-07-1.65436E-24
 -1       812 2.30334E-05 1.12203E-06 0.00000E+00
 -1       813 2.28451E-05 1.30987E-06 0.00000E+00
 -1       814 2.26540E-05 1.50539E-06 3.30872E-24
 -1       815 2.24579E-05 1.71410E-06-8.27181E-25
 -1       816 2.22548E-05 1.94145E-06 1.65436E-24
 -1       817 2.20427E-05 2.19296E-06 1.65436E-24
 -1       818 2.18196E-05 2.47409E-06-1.65436E-24
 -1       819 2.15837E-05 2.79034E-06-1.65436E-24
 -1       820 2.13333E-05 3.14724E-06-8.27181E-25
 -1       821 2.57545E-05 2.75038E-06 0.00000E+00
 -1       822 2.56677E-05 3.37102E-06 0.00000E+00
 -1       823 2.55809E-05 4.09409E-06 1.65436E-24
 -1       824 2.54933E-05 4.90766E-06 1.65436E-24
 -1       825 2.54055E-05 5.79982E-06 0.00000E+00
 -1       826 2.53175E-05 6.75855E-06 0.00000E+00
 -1       827 2.52294E-05 7.77180E-06 3.30872E-24
 -1       828 2.51412E-05 8.82747E-06 1.65436E-24
 -1       829 2.50530E-05 9.91344E-06-3.30872E-24
 -1       830 2.49648E-05 1.10175E-05 0.00000E+00
 -1       831 2.48767E-05 1.21276E-05 0.00000E+00
 -1       832 2.47886E-05 1.32315E-05-1.65436E-24
 -1       833 2.47007E-05 1.43171E-05 0.00000E+00
 -1       834 2.46134E-05 1.53721E-05 8.27181E-25
 -1       835 2.45260E-05 1.63846E-05 0.00000E+00
 -1       836 2.52310E-05 2.45763E-06-3.30872E-24
 -1       837 2.44132E-05 2.67890E-06 0.00000E+00
 -1       838 2.34852E-05 2.89969E-06 6.61744E-24
 -1       839 2.25500E-05 3.11997E-06 0.00000E+00
 -1       840 2.17101E-05 3.34069E-06 0.00000E+00
 -1       841 2.56363E-05 2.74473E-06-2.06795E-25
 -1       842 2.53885E-05 3.36755E-06-2.58494E-26
 -1       843 2.50993E-05 4.10082E-06 2.06795E-25
 -1       844 2.47730E-05 4.93203E-06 0.00000E+00
 -1       845 2.44148E-05 5.84767E-06 0.00000E+00
 -1       846 2.40301E-05 6.83400E-06 2.06795E-25
 -1       847 2.36242E-05 7.87637E-06-4.13590E-25
 -1       848 2.32028E-05 8.96008E-06-2.06795E-25
 -1       849 2.27716E-05 1.00698E-05 4.13590E-25
 -1       850 2.23363E-05 1.11904E-05 0.00000E+00
 -1       851 2.19028E-05 1.23063E-05 4.13590E-25
 -1       852 2.14767E-05 1.34021E-05 0.00000E+00
 -1       853 2.10640E-05 1.44626E-05-4.13590E-25
 -1       854 2.06699E-05 1.54726E-05 0.00000E+00
 -1       855 2.03002E-05 1.64179E-05 8.27181E-25
 -1       856 2.43452E-05 1.83719E-05 1.65436E-24
 -1       857 2.42427E-05 1.95872E-05 8.27181E-25
 -1       858 2.41400E-05 2.09642E-05 0.00000E+00
 -1       859 2.40364E-05 2.24786E-05 1.65436E-24
 -1       860 2.39325E-05 2.41059E-05 0.00000E+00
 -1       861 2.38284E-05 2.58216E-05-1.65436E-24
 -1       862 2.37241E-05 2.76012E-05 3.30872E-24
 -1       863 2.36198E-05 2.94200E-05 0.00000E+00
 -1       864 2.35154E-05 3.12533E-05 0.00000E+00
 -1       865 2.34110E-05 3.30764E-05-1.65436E-24
 -1       866 2.33067E-05 3.48646E-05 0.00000E+00
 -1       867 2.32026E-05 3.65933E-05 0.00000E+00
 -1       868 2.30987E-05 3.82378E-05-3.30872E-24
 -1       869 2.29955E-05 3.97737E-05 0.00000E+00
 -1       870 2.28923E-05 4.11764E-05 0.00000E+00
 -1       871 2.36204E-05 1.73339E-05 0.00000E+00
 -1       872 2.28570E-05 1.73246E-05 0.00000E+00
 -1       873 2.21309E-05 1.73152E-05-8.27181E-25
 -1       874 2.14205E-05 1.73055E-05 0.00000E+00
 -1       875 2.07037E-05 1.72953E-05 8.27181E-25
 -1       876 2.41960E-05 1.84064E-05 0.00000E+00
 -1       877 2.38950E-05 1.96316E-05 1.65436E-24
 -1       878 2.35417E-05 2.09951E-05-3.30872E-24
 -1       879 2.31449E-05 2.24767E-05-1.65436E-24
 -1       880 2.27115E-05 2.40558E-05-3.30872E-24
 -1       881 2.22492E-05 2.57121E-05 0.00000E+00
 -1       882 2.17654E-05 2.74254E-05-3.30872E-24
 -1       883 2.12677E-05 2.91757E-05-1.65436E-24
 -1       884 2.07636E-05 3.09429E-05 0.00000E+00
 -1       885 2.02607E-05 3.27070E-05 1.65436E-24
 -1       886 1.97664E-05 3.44481E-05-3.30872E-24
 -1       887 1.92882E-05 3.61460E-05 1.65436E-24
 -1       888 1.88336E-05 3.77807E-05-3.30872E-24
 -1       889 1.84095E-05 3.93317E-05 1.65436E-24
 -1       890 1.80246E-05 4.07790E-05 0.00000E+00
 -1       891 2.17902E-05 4.23684E-05-1.65436E-24
 -1       892 2.09831E-05 4.23144E-05-8.27181E-25
 -1       893 2.02698E-05 4.22604E-05 1.65436E-24
 -1       894 1.95491E-05 4.22065E-05 0.00000E+00
 -1       895 1.87194E-05 4.21526E-05-8.27181E-25
 -1       896 2.41953E-07 1.09841E-06 0.00000E+00
 -1       897 4.86208E-07 1.92883E-06-3.30872E-24
 -1       898 7.30477E-07 2.55849E-06 0.00000E+00
 -1       899 9.75208E-07 3.05247E-06 3.30872E-24
 -1       900 1.21999E-06 3.44142E-06 0.00000E+00
 -1       901 1.46488E-06 3.75488E-06 0.00000E+00
 -1       902 1.70979E-06 4.00324E-06 6.61744E-24
 -1       903 1.95472E-06 4.19618E-06 0.00000E+00
 -1       904 2.19964E-06 4.32933E-06 0.00000E+00
 -1       905 2.44451E-06 4.39767E-06 0.00000E+00
 -1       906 2.68935E-06 4.37974E-06 6.61744E-24
 -1       907 2.93388E-06 4.25316E-06 3.30872E-24
 -1       908 3.17833E-06 3.96797E-06 0.00000E+00
 -1       909 3.42121E-06 3.47254E-06-3.30872E-24
 -1       910 3.66438E-06 2.66195E-06 3.30872E-24
 -1       911 3.97483E-06-1.35212E-07 0.00000E+00
 -1       912 4.05119E-06-1.92091E-06 0.00000E+00
 -1       913 4.12721E-06-3.85295E-06-1.65436E-24
 -1       914 4.20331E-06-5.85563E-06 8.27181E-25
 -1       915 4.27942E-06-7.85871E-06 0.00000E+00
 -1       916 4.35571E-06-9.79190E-06 0.00000E+00
 -1       917 4.43225E-06-1.15795E-05-1.65436E-24
 -1       918 4.50914E-06-1.31455E-05 0.00000E+00
 -1       919 4.58644E-06-1.43967E-05 0.00000E+00
 -1       920 4.66410E-06-1.52390E-05 0.00000E+00
 -1       921 4.74199E-06-1.55468E-05-1.65436E-24
 -1       922 4.81958E-06-1.51929E-05-8.27181E-25
 -1       923 4.89647E-06-1.39993E-05 0.00000E+00
 -1       924 4.97021E-06-1.17853E-05-4.13590E-25
 -1       925 5.04088E-06-8.29228E-06 0.00000E+00
 -1       926 4.79982E-06 4.24696E-06 0.00000E+00
 -1       927 4.46650E-06 1.50746E-05 3.30872E-24
 -1       928 4.11388E-06 2.76973E-05-6.61744E-24
 -1       929 3.75703E-06 4.05649E-05 0.00000E+00
 -1       930 3.41568E-06 5.20680E-05 0.00000E+00
 -1       931 3.10261E-06 6.06131E-05 0.00000E+00
 -1       932 2.81326E-06 6.53310E-05-6.61744E-24
 -1       933 2.53455E-06 6.53981E-05-3.30872E-24
 -1       934 2.24736E-06 6.11271E-05 0.00000E+00
 -1       935 1.93618E-06 5.28829E-05 3.30872E-24
 -1       936 1.60147E-06 4.20017E-05 0.00000E+00
 -1       937 1.25253E-06 2.98515E-05-3.30872E-24
 -1       938 9.08133E-07 1.81104E-05 6.61744E-24
 -1       939 5.84427E-07 8.45249E-06 3.30872E-24
 -1       940 2.85349E-07 2.04087E-06-1.32349E-23
 -1       941 1.24894E-06 1.68284E-07-1.32349E-23
 -1       942 2.56662E-06 3.54483E-07 0.00000E+00
 -1       943 3.87996E-06 5.50733E-07-2.64698E-23
 -1       944 5.20637E-06 7.49779E-07 1.32349E-23
 -1       945 6.53316E-06 9.50394E-07 0.00000E+00
 -1       946 7.86256E-06 1.15146E-06 0.00000E+00
 -1       947 9.19227E-06 1.35280E-06 0.00000E+00
 -1       948 1.05224E-05 1.55428E-06 0.00000E+00
 -1       949 1.18526E-05 1.75605E-06 0.00000E+00
 -1       950 1.31825E-05 1.95828E-06 0.00000E+00
 -1       951 1.45121E-05 2.16215E-06 0.00000E+00
 -1       952 1.58396E-05 2.36893E-06 2.64698E-23
 -1       953 1.71668E-05 2.58625E-06 2.64698E-23
 -1       954 1.84835E-05 2.82234E-06 1.32349E-23
 -1       955 1.98037E-05 3.12611E-06-2.64698E-23
 -1       956 2.10004E-05 4.10375E-06-8.27181E-25
 -1       957 2.09314E-05 4.73551E-06-4.13590E-25
 -1       958 2.08621E-05 5.43813E-06-4.13590E-25
 -1       959 2.07927E-05 6.20346E-06 4.13590E-25
 -1       960 2.07232E-05 7.02334E-06 0.00000E+00
 -1       961 2.06536E-05 7.88952E-06-4.13590E-25
 -1       962 2.05840E-05 8.79375E-06 0.00000E+00
 -1       963 2.05143E-05 9.72779E-06 0.00000E+00
 -1       964 2.04447E-05 1.06834E-05-1.65436E-24
 -1       965 2.03750E-05 1.16523E-05 0.00000E+00
 -1       966 2.03053E-05 1.26262E-05 1.65436E-24
 -1       967 2.02357E-05 1.35969E-05 0.00000E+00
 -1       968 2.01661E-05 1.45562E-05 0.00000E+00
 -1       969 2.00966E-05 1.54958E-05 0.00000E+00
 -1       970 2.00273E-05 1.64075E-05 0.00000E+00
 -1       971 1.98209E-05 1.82254E-05-3.30872E-24
 -1       972 1.96788E-05 1.93638E-05 1.65436E-24
 -1       973 1.95365E-05 2.06746E-05-3.30872E-24
 -1       974 1.93935E-05 2.21333E-05 0.00000E+00
 -1       975 1.92502E-05 2.37151E-05 3.30872E-24
 -1       976 1.91066E-05 2.53952E-05-1.65436E-24
 -1       977 1.89629E-05 2.71488E-05 3.30872E-24
 -1       978 1.88191E-05 2.89507E-05-1.65436E-24
 -1       979 1.86753E-05 3.07759E-05 3.30872E-24
 -1       980 1.85314E-05 3.25994E-05 0.00000E+00
 -1       981 1.83877E-05 3.43959E-05 0.00000E+00
 -1       982 1.82442E-05 3.61404E-05-1.65436E-24
 -1       983 1.81010E-05 3.78079E-05 0.00000E+00
 -1       984 1.79586E-05 3.93735E-05 0.00000E+00
 -1       985 1.78164E-05 4.08123E-05 0.00000E+00
 -3
    1PSTEP                        20          10           1          
  100CL  110 5.32410E-01         841                     0   10           1
 -4  STRESS      6    1
 -5  SXX         1    4    1    1
 -5  SYY         1    4    2    2
 -5  SZZ         1    4    3    3
 -5  SXY         1    4    1    2
 -5  SYZ         1    4    2    3
 -5  SZX         1    4    3    1
 -1         1-2.19505E+06-7.04812E+05-4.52135E+05-6.29254E+05-3.44395E-10-1.11565E-09
 -1         2-1.38560E+06-6.69204E+04 2.63799E+03-1.28082E+05-2.08593E-09-3.51611E-09
 -1         3-6.98658E+05-2.47329E+05-1.96571E+04-5.56844E+04 2.21121E-10-2.30784E-10
 -1         4-3.93690E+05-6.69231E+04 5.88479E+02-2.95482E+04 4.39215E-10 2.39766E-10
 -1         5-2.03640E+05 1.03838E+05-9.81469E+04-6.16976E+03 5.39694E-09-3.49058E-09
 -1         8-1.16612E+06-4.63243E+05-1.74869E+05-4.25285E+05 4.03816E-10-3.56522E-09
 -1         9-1.25267E+06-2.82848E+05-1.55705E+05-2.78132E+05-4.40802E-10 4.36557E-11
 -1        10-6.38313E+05-3.51882E+05-2.81120E+04-1.52774E+05-3.23181E-09 4.39589E-10
 -1        11-3.33527E+05-8.07423E+04 2.14631E+03-4.54341E+04 1.38377E-08 1.41690E-09
 -1        12-2.37423E+05 8.34716E+04-1.07864E+05-3.92643E+04 6.27261E-09 1.04201E-11
 -1        15 3.48737E+03-2.75635E+04 3.45970E+03-8.09570E+04 1.32786E-10-2.05546E-09
 -1        16-7.08492E+05-1.26635E+05 2.47161E+04-3.16000E+05 1.54917E-09-1.01863E-10
 -1        17-4.32376E+05-2.88365E+05-4.82178E+04-2.34185E+05 2.07365E-10 3.32996E-09
 -1        18-2.13350E+05-1.06032E+05-7.89518E+04-1.14224E+05-1.06259E-09 2.43684E-09
 -1        19-2.09494E+04 6.26206E+04-3.70811E+04-3.27378E+04-1.27299E-09 2.71029E-10
 -1        20 7.54646E+04-5.53285E+04-9.16009E+03 4.03102E+04 5.71026E-09-4.96902E-09
 -1        21 6.21187E+02-1.12304E+05 2.82734E+04 3.06887E+02 1.07026E-08-1.82261E-09
 -1        22 2.32046E+04 1.33670E+05 8.51734E+02-2.91256E+04-1.80535E-10 4.53838E-10
 -1        23-2.56708E+05 2.08925E+04 3.69106E+03-9.77440E+04-3.19020E-09 2.09790E-10
 -1        24-1.55414E+05 2.02448E+04 1.85772E+05-3.20880E+05-6.56049E-09 2.01544E-09
 -1        25 4.05203E+05 1.40483E+05 1.26617E+05-2.07734E+05 6.29370E-10-2.37439E-09
 -1        26 1.81890E+03 1.25716E+05 6.52605E+03-2.44577E+04 9.39281E-10-9.22228E-10
 -1        27-2.94369E+04-4.73203E+04-2.04792E+04 5.42841E+04 5.33403E-09-9.56182E-10
 -1        28-9.50224E+03-8.77918E+04-5.16940E+02 4.22742E+04 7.49947E-09-1.85662E-09
 -1        29 3.35242E+05 2.24774E+05 9.25890E+02-3.97828E+03-8.40066E-11-2.51521E-09
 -1        30 1.17225E+05 3.21708E+04 1.33708E+03-2.75531E+04-5.40645E-10 2.48156E-09
 -1        31-3.49761E+05 3.96789E+04 4.15794E+03-5.36010E+04-3.14824E-09-4.40559E-09
 -1        32 5.64951E+05 3.23204E+05 3.90676E+05-3.30168E+05 9.74450E-09 1.96087E-09
 -1        33 9.26344E+05 3.93208E+05 2.89569E+05-3.56669E+04-1.16243E-08-1.49475E-09
 -1        34-1.52554E+05-2.16558E+04-6.53847E+03 2.84613E+04 1.40227E-09-4.62933E-10
 -1        35-2.44937E+04-2.90617E+04-5.38450E+02 6.26558E+04 5.86786E-09-2.49323E-09
 -1        36-2.96528E+06 8.99040E+04-2.08678E+05-1.67693E-07 1.55169E-10-3.68163E-09
 -1        37-3.05550E+06-1.04094E+05-1.47547E+05-3.43859E-07 1.89445E-10-1.61344E-09
 -1        38-3.00010E+06 1.40212E+04-5.39836E+04-1.64547E-08-3.02269E-09 3.44880E-09
 -1        39-3.01479E+06-1.62288E+04-3.38881E+04-1.46957E-07-3.70428E-10-3.50201E-09
 -1        40-3.00580E+06 2.18209E+03-1.38573E+04-1.65902E-07-5.73812E-10-6.85759E-10
 -1        41-3.00810E+06-2.55463E+03-8.24886E+03 1.43327E-07-2.64758E-09 1.11595E-09
 -1        42-3.00674E+06 3.69128E+02-4.01813E+03-1.36006E-07-2.53434E-10 4.65889E-10
 -1        43-3.00709E+06-6.40318E+02-3.14459E+03-1.34642E-07-3.51787E-10 6.57518E-09
 -1        44-3.00680E+06 2.70585E+02-3.12144E+03 3.06932E-09-2.12601E-09 2.16289E-10
 -1        45-3.00764E+06-1.70356E+03-5.65569E+03-8.65770E-08-4.66677E-11-1.40153E-09
 -1        46-3.00620E+06 1.43073E+03-9.18138E+03 3.55143E-08 4.45584E-10 5.72982E-11
 -1        47-3.01199E+06-1.06131E+04-2.22157E+04 8.54174E-08 6.54752E-10 1.94041E-09
 -1        48-3.00248E+06 9.16549E+03-3.53199E+04-1.53090E-07-3.07546E-09-8.62201E-10
 -1        49-3.03860E+06-6.80433E+04-9.64626E+04-6.40634E-08-1.64439E-09 2.95040E-09
 -1        50-2.97973E+06 5.87626E+04-1.36454E+05-3.29794E-09-3.04572E-09-3.25963E-09
 -1        51 2.44106E+04-2.85484E+05 3.93836E+04-7.68130E+05-7.27596E-11 5.31145E-10
 -1        52 1.09283E+04-2.81840E+05 2.37969E+04-8.47136E+05 2.11003E-10 1.62254E-09
 -1        53 6.92675E+03-2.89342E+05 1.89624E+04-7.66102E+05-1.16415E-10 7.27596E-10
 -1        54 1.60887E+04-2.86281E+05 2.86182E+04-8.49303E+05-4.14730E-10 1.52795E-09
 -1        55 3.71912E+04-2.95369E+05 5.16721E+04-7.65746E+05-3.27418E-10 1.80080E-09
 -1        56-3.32941E+06-3.76000E+05-2.72966E+05-1.28754E+06 7.09406E-10 2.48838E-09
 -1        57-3.45385E+06-6.02327E+05-1.83163E+05-1.25995E+06 1.57888E-09-1.03319E-09
 -1        58-3.38244E+06-4.62208E+05-6.42640E+04-1.27261E+06-2.54659E-11 1.45519E-11
 -1        59-3.39280E+06-5.00573E+05-3.81015E+04-1.27761E+06 5.53200E-10 2.34468E-09
 -1        60-3.38972E+06-4.74334E+05-1.50175E+04-1.27104E+06 1.04592E-11 3.22052E-09
 -1        61-3.38498E+06-4.85723E+05-8.49869E+03-1.27874E+06-2.13674E-09 6.87146E-09
 -1        62-3.39011E+06-4.76631E+05-4.14831E+03-1.27161E+06-1.48395E-09 3.65122E-09
 -1        63-3.38556E+06-4.82368E+05-3.47632E+03-1.27701E+06 1.87640E-10-2.36923E-09
 -1        64-3.38911E+06-4.77651E+05-4.06139E+03-1.27277E+06 2.10866E-09 3.87149E-09
 -1        65-3.38880E+06-4.81763E+05-8.23319E+03-1.27428E+06 2.57575E-09-6.36692E-09
 -1        66-3.38689E+06-4.77285E+05-1.45241E+04-1.27433E+06 1.15074E-09 1.14596E-10
 -1        67-3.39958E+06-4.92857E+05-3.68093E+04-1.26947E+06 2.16005E-12 1.01363E-09
 -1        68-3.37846E+06-4.66974E+05-6.20910E+04-1.27745E+06-7.23958E-10 3.60160E-10
 -1        69-3.46073E+06-5.88996E+05-1.76944E+05-1.24995E+06 2.15368E-09 6.52471E-09
 -1        70-3.32647E+06-3.84443E+05-2.63714E+05-1.29272E+06-6.98492E-10-6.83940E-10
 -1        71-1.39573E+06-2.74015E+03 6.36850E+03 7.93725E-08-8.85766E-10-3.45290E-09
 -1        72-1.39285E+06 3.17304E+03 4.49494E+03 6.75245E-08 4.65333E-10 9.22910E-09
 -1        73-1.39467E+06-4.27154E+02 1.63513E+03 1.23529E-07-6.53900E-10-3.05931E-10
 -1        74-1.39409E+06 4.92571E+02 1.00640E+03 8.45865E-08-7.57854E-10-1.76071E-09
 -1        75-1.39449E+06-6.46042E+01 3.69084E+02-5.11541E-08-3.50963E-10 5.47118E-11
 -1        76-1.39430E+06 6.30986E+01 1.35858E+02 1.19237E-07 1.19859E-09 2.77623E-09
 -1        77-1.39446E+06 1.60869E+00-9.52165E+01 7.60051E-08 3.76711E-10 1.40217E-09
 -1        78-1.39438E+06-7.78277E+01-3.83440E+02 1.51689E-07 1.16851E-09 4.74020E-09
 -1        79-1.39441E+06 7.61454E+01-7.75405E+02-2.05401E-08 1.36786E-09-3.98200E-09
 -1        80-1.39465E+06-5.80651E+02-1.82995E+03-2.44494E-07 1.66938E-10-4.94515E-09
 -1        81-1.39419E+06 5.03704E+02-3.17573E+03-3.40855E-07-6.32792E-11 1.52352E-09
 -1        82-1.39620E+06-3.75485E+03-7.83534E+03-2.66592E-07-2.25842E-10-2.67812E-09
 -1        83-1.39287E+06 3.24506E+03-1.25054E+04-1.04793E-07-9.32967E-10-2.83535E-09
 -1        84-1.40562E+06-2.40929E+04-3.41714E+04-9.54157E-08-4.96227E-10-3.19778E-09
 -1        85-1.38480E+06 2.08054E+04-4.83576E+04-1.14139E-07-5.65687E-10 3.39787E-09
 -1        86-6.73877E+04 2.51953E+05 1.59316E+05 1.36350E+03 1.45519E-11-4.76388E-09
 -1        87 8.40540E+04 3.23233E+05 1.23257E+05-6.01314E+03-5.82077E-11 2.98093E-09
 -1        88-1.65045E+04 2.75371E+05 6.29229E+04 7.42811E+02-4.42014E-10 2.12778E-09
 -1        89 5.76077E+04 3.10782E+05 8.86592E+04-5.20600E+03 7.18501E-11 1.92169E-09
 -1        90-4.09883E+04 2.64376E+05 9.97759E+04 5.56532E+02-5.71163E-10-1.24176E-09
 -1        91-1.49654E+06-2.17991E+05-2.29621E+04-5.84516E+05 1.82581E-09 1.73350E-09
 -1        92-1.54555E+06-1.81875E+05-1.30365E+04-5.16622E+05 5.37318E-09-2.13117E-09
 -1        93-1.48817E+06-2.30024E+05-5.09016E+03-5.88465E+05 5.58268E-09-1.63323E-09
 -1        94-1.52329E+06-1.84022E+05-2.16061E+02-5.29254E+05-5.31026E-09-2.09980E-09
 -1        95-1.51848E+06-2.16131E+05-4.11083E+03-5.71617E+05-1.47770E-09-2.11344E-10
 -1        96-1.47913E+06-2.21903E+05 2.93086E+03-5.74114E+05 3.02737E-09 3.22018E-11
 -1        97-1.53214E+06-1.92322E+05-1.36742E+03-5.43450E+05 2.13481E-09 4.97465E-09
 -1        98-1.46611E+06-2.47031E+05 6.92789E+02-6.04855E+05-1.34283E-08 3.69818E-09
 -1        99-1.53203E+06-1.90477E+05-1.50861E+03-5.41332E+05-2.69645E-08-5.41763E-09
 -1       100-1.47661E+06-2.26822E+05 1.11590E+03-5.79173E+05-1.54709E-08-4.96220E-09
 -1       101-1.52116E+06-2.13000E+05-6.95939E+03-5.68728E+05-2.79078E-09-4.00200E-09
 -1       102-1.52067E+06-1.91332E+05-7.42642E+03-5.32172E+05 4.52648E-09 3.64184E-09
 -1       103-1.48803E+06-2.25923E+05-1.74220E+04-5.88374E+05 3.23666E-09-1.13596E-09
 -1       104-1.56167E+06-2.06499E+05-4.90046E+04-5.11013E+05-2.91584E-09 7.04858E-11
 -1       105-1.48062E+06-1.97479E+05-7.42623E+04-5.90240E+05 3.12684E-09-3.63798E-11
 -1       106-8.35141E+05-5.01960E+02 1.16566E+03 8.94986E-08-7.19289E-10-2.45683E-09
 -1       107-8.34560E+05 5.81138E+02 8.20622E+02 1.58817E-08-8.37386E-10-1.09412E-09
 -1       108-8.34946E+05-7.81250E+01 2.93579E+02-6.86402E-08-6.82870E-10-4.79875E-09
 -1       109-8.34788E+05 8.92328E+01 1.71505E+02-8.70190E-08 5.72357E-11-3.61599E-09
 -1       110-8.34913E+05-1.09576E+01 4.27840E+01-6.12265E-08-7.85498E-10-1.25667E-10
 -1       111-8.34832E+05 4.80634E+00-2.82574E+01-1.72023E-07 6.43704E-10 7.53239E-10
 -1       112-8.34903E+05 6.16836E+00-1.17210E+02-8.54556E-08-2.53988E-11 1.25695E-09
 -1       113-8.34869E+05-5.87115E+01-2.89577E+02-8.43875E-08-1.06640E-09 2.54431E-09
 -1       114-8.34876E+05 5.24879E+01-5.40297E+02-1.08445E-07-6.04614E-10-9.03526E-11
 -1       115-8.35048E+05-3.95228E+02-1.25077E+03-9.38402E-09 1.52792E-10-3.15504E-09
 -1       116-8.34724E+05 3.42197E+02-2.16169E+03 5.08452E-08-9.40089E-10 2.26783E-09
 -1       117-8.36102E+05-2.55016E+03-5.32554E+03-4.84952E-08-3.97955E-10 1.23055E-09
 -1       118-8.33824E+05 2.20379E+03-8.49771E+03 1.76967E-08-8.73555E-10 1.76897E-09
 -1       119-8.42496E+05-1.63619E+04-2.32122E+04 7.83885E-08-1.58534E-10 3.84762E-09
 -1       120-8.28340E+05 1.41291E+04-3.28480E+04 3.35428E-08-9.28945E-11 9.62245E-10
 -1       121-1.02103E+03-8.01481E+05 4.55825E+03 5.92337E+03-9.04947E-11 4.07135E-09
 -1       122 1.48198E+03-7.99680E+05 3.38945E+03 2.31078E+04-1.60242E-10 3.75621E-09
 -1       123-2.34472E+02-8.00894E+05 2.24921E+03 6.07286E+03-2.65175E-10 1.60708E-09
 -1       124 1.50806E+03-7.99582E+05 3.47902E+03 2.27112E+04-2.47525E-10-2.40220E-09
 -1       125-1.10110E+03-8.01487E+05 4.70676E+03 6.32014E+03-7.07132E-10-1.38925E-09
 -1       126-6.30010E+05-8.84029E+04 9.81110E+03-2.24369E+05 1.67588E-08 3.99723E-10
 -1       127-5.68129E+05-9.60012E+04 1.26888E+04-2.47668E+05 1.37917E-08 7.90715E-09
 -1       128-6.25122E+05-7.26430E+04 2.44788E+03-2.12329E+05-1.54969E-08-3.43300E-09
 -1       129-5.74926E+05-1.13614E+05 2.49299E+03-2.61826E+05-1.92815E-08-4.78474E-09
 -1       130-6.23786E+05-7.03747E+04 5.72383E+02-2.10629E+05-1.10113E-08 2.12646E-09
 -1       131-5.73015E+05-1.07594E+05 2.75884E+03-2.52146E+05-1.35219E-09-3.57534E-09
 -1       132-6.26661E+05-7.89427E+04-2.28687E+03-2.21735E+05 2.59206E-09 2.53476E-09
 -1       133-5.76721E+05-8.74715E+04 5.52946E+03-2.26245E+05 1.34446E-08-4.01522E-09
 -1       134-6.19437E+05-9.09770E+04-3.58044E+03-2.36040E+05 4.18640E-09 2.69404E-09
 -1       135-6.02980E+05-6.73025E+04 3.81666E+03-2.03764E+05-1.76374E-08 6.91006E-09
 -1       136-6.00631E+05-9.89404E+04-2.49697E+03-2.44375E+05 7.68875E-09 3.33432E-09
 -1       137-6.32793E+05-5.76746E+04-2.20686E+03-1.93808E+05 1.76777E-08 6.19150E-09
 -1       138-5.90313E+05-1.00097E+05-5.14858E+03-2.46531E+05 5.65319E-09 4.88808E-09
 -1       139-6.35319E+05-6.69555E+04-1.39419E+04-1.92744E+05 2.64440E-08 1.93475E-08
 -1       140-5.98050E+05-8.97180E+04-2.42717E+04-2.45387E+05 4.50291E-09-7.54790E-09
 -1       141-3.85580E+05-3.02268E+03 7.02656E+03 3.50903E-09 2.51272E-10-8.35826E-10
 -1       142-3.82502E+05 3.50013E+03 4.95858E+03 3.81449E-08 2.54465E-10-8.91077E-10
 -1       143-3.84406E+05-4.71125E+02 1.80143E+03-1.61509E-07 1.88824E-10-2.24236E-09
 -1       144-3.83871E+05 5.42742E+02 1.10294E+03 6.67326E-08 3.38620E-10-3.12497E-11
 -1       145-3.84212E+05-7.07135E+01 3.91885E+02-1.41736E-07 2.53860E-10 1.26420E-09
 -1       146-3.84108E+05 6.53362E+01 1.16296E+02-2.10967E-07 2.67445E-10-7.87821E-10
 -1       147-3.84169E+05 5.48966E+00-1.68518E+02 2.31764E-09-1.94074E-10-1.71150E-09
 -1       148-3.84211E+05-1.13976E+02-5.62652E+02-1.05110E-07 8.60006E-11-2.82796E-12
 -1       149-3.84109E+05 1.08379E+02-1.10905E+03-8.30705E-08-2.15576E-10 4.47130E-10
 -1       150-3.84589E+05-8.23254E+02-2.60092E+03 3.95348E-08-3.11331E-10-3.97864E-09
 -1       151-3.83792E+05 7.13749E+02-4.50781E+03-4.53647E-08-1.43173E-10 2.31921E-11
 -1       152-3.86789E+05-5.31998E+03-1.11123E+04 2.08592E-07-2.01244E-10 1.81626E-09
 -1       153-3.81911E+05 4.59761E+03-1.77333E+04 3.23789E-08 1.42370E-09-2.75304E-09
 -1       154-4.00123E+05-3.41344E+04-4.84332E+04-8.30723E-08 5.57363E-10-2.04818E-09
 -1       155-3.70461E+05 2.94769E+04-6.85267E+04-5.58198E-08 3.06696E-09-1.46247E-09
 -1       156-1.26503E+04-1.45979E+05 2.97260E+04-9.93563E+03-3.48155E-09-1.49282E-09
 -1       157 1.62294E+04-1.30038E+05 2.43850E+04 4.11308E+04-8.87121E-09-3.05852E-09
 -1       158-3.47442E+03-1.41608E+05 1.36474E+04-9.96935E+03-4.43606E-09 5.69230E-10
 -1       159 1.52412E+04-1.24194E+05 2.38561E+04 3.96309E+04-1.86174E-09 3.11380E-09
 -1       160-1.19188E+04-1.51473E+05 2.51609E+04-8.43665E+03 8.39191E-09 1.60753E-09
 -1       161-4.28318E+05-5.92758E+04-2.12931E+03-1.60814E+05-2.06967E-10 9.49285E-11
 -1       162-4.28865E+05-6.17465E+04-1.47930E+03-1.61038E+05 3.21734E-10 3.74371E-10
 -1       163-4.28818E+05-5.99674E+04-5.09091E+02-1.60590E+05 1.10325E-09-1.15091E-09
 -1       164-4.28310E+05-6.09222E+04-3.34779E+02-1.61267E+05 7.11600E-10 2.59837E-09
 -1       165-4.28872E+05-6.00987E+04-1.63104E+02-1.60585E+05 4.24794E-10-7.06347E-10
 -1       166-4.28343E+05-6.06977E+04-1.75777E+02-1.61170E+05 9.18731E-10 1.42078E-09
 -1       167-4.28785E+05-6.01918E+04-2.35905E+02-1.60687E+05-7.44633E-10-2.63285E-10
 -1       168-4.28624E+05-6.05701E+04-5.12694E+02-1.60902E+05-2.88353E-10 5.63510E-10
 -1       169-4.28591E+05-6.02266E+04-9.20327E+02-1.60853E+05 3.89136E-10 1.99083E-09
 -1       170-4.29341E+05-6.10490E+04-2.29780E+03-1.60481E+05 5.76250E-11 2.73539E-09
 -1       171-4.28068E+05-5.97138E+04-3.97704E+03-1.61108E+05-1.08315E-09 8.27640E-11
 -1       172-4.32353E+05-6.56018E+04-1.07013E+04-1.59395E+05-3.76758E-10-3.37423E-10
 -1       173-4.25582E+05-5.56805E+04-1.71651E+04-1.61937E+05-2.09002E-09 5.70981E-09
 -1       174-4.49775E+05-9.59414E+04-5.07981E+04-1.53609E+05-7.93989E-09 7.53971E-09
 -1       175-4.10658E+05-2.94185E+04-7.32325E+04-1.66880E+05-3.45972E-09 2.08456E-09
 -1       191 1.16843E+03 4.07951E+05 1.90822E+03-1.16549E+04-2.05546E-10-3.26872E-09
 -1       192 4.20981E+02 4.08229E+05 1.13890E+03-1.25212E+04 2.66482E-10 1.71894E-10
 -1       193 1.89650E+02 4.08040E+05 9.09872E+02-1.14719E+04-5.93843E-10 1.28057E-09
 -1       194 5.51204E+02 4.08259E+05 1.36999E+03-1.28612E+04 2.51475E-10-8.73115E-10
 -1       195 1.56882E+03 4.07887E+05 2.48321E+03-1.13135E+04-1.03864E-09-3.12230E-09
 -1       251-1.82903E+06 4.03939E+04-9.74931E+04-3.17744E+04 7.65340E-10-2.43381E-09
 -1       252-1.85456E+06-4.65600E+04-6.58286E+04 7.99551E+04-9.27812E-10 7.29415E-10
 -1       253-1.84168E+06 6.53910E+03-2.54921E+04-3.57300E+04 1.07025E-09-3.51611E-09
 -1       254-1.82179E+06-6.41314E+03-1.09251E+04 4.51831E+04 1.52522E-09-1.11686E-09
 -1       255-1.86079E+06-6.02808E+02-1.06289E+04 2.99980E+03 2.55454E-09 6.66205E-11
 -1       256-1.81816E+06 1.18911E+02 9.71284E+02-3.34651E+04 2.86627E-09 6.87123E-10
 -1       257-1.84524E+06-4.41080E+01-2.79434E+03 4.29093E+04-1.00931E-09 3.07091E-09
 -1       258-1.83358E+06 6.55600E+02-2.54544E+01-7.19438E+04-3.40773E-10 4.44986E-09
 -1       259-1.84639E+06-1.50479E+02-3.03943E+03 4.14900E+04-2.74281E-09 3.85955E-09
 -1       260-1.81707E+06 1.33070E+02 1.18899E+03-2.92798E+04 1.01068E-09-1.41767E-09
 -1       261-1.86065E+06-5.77698E+02-1.05865E+04 2.33671E+02 1.55069E-09 2.06887E-09
 -1       262-1.82297E+06-6.45110E+03-1.11384E+04 4.90884E+04 5.33430E-09 2.07274E-09
 -1       263-1.84071E+06 6.62787E+03-2.52407E+04-3.68689E+04-4.81566E-09-5.98448E-10
 -1       264-1.85422E+06-4.64571E+04-6.56537E+04 7.93804E+04-1.85090E-08-7.71252E-10
 -1       265-1.83032E+06 4.01833E+04-9.76083E+04-3.00607E+04-8.90645E-09-2.11367E-09
 -1       266-1.79789E+04-2.88949E+05 4.10278E+04 8.11092E+02 2.72848E-11-2.17048E-09
 -1       267 1.94250E+04-2.70587E+05 2.66099E+04 2.10445E+02 1.68257E-11 2.62911E-09
 -1       268-1.43517E+03-2.81249E+05 5.31077E+03 1.83980E+03-7.27596E-11 1.72690E-10
 -1       269-7.25399E+03-2.83161E+05-8.30705E+03-1.70022E+03-1.33468E-10 5.31302E-09
 -1       270 8.65865E+03-2.76394E+05-1.90158E+04 2.72167E+03 1.63709E-10 6.45835E-09
 -1       271-2.86350E+06-3.61730E+05-2.22780E+05-1.10932E+06-1.46611E-09-3.68163E-09
 -1       272-2.93857E+06-5.10534E+05-1.40618E+05-1.11309E+06-7.17364E-10-5.06225E-09
 -1       273-2.90310E+06-4.11440E+05-5.25484E+04-1.10241E+06-3.81078E-10-7.08678E-09
 -1       274-2.89240E+06-4.46422E+05-2.88653E+04-1.12515E+06 6.70525E-10-4.53838E-10
 -1       275-2.90836E+06-4.16023E+05-1.22221E+04-1.10101E+06-3.18323E-12-5.38239E-09
 -1       276-2.88613E+06-4.40780E+05-6.47244E+03-1.12757E+06-1.10595E-09-7.19638E-10
 -1       277-2.90939E+06-4.16094E+05-3.32502E+03-1.10043E+06 3.01270E-10 6.29791E-09
 -1       278-2.88503E+06-4.40719E+05-2.62287E+03-1.12836E+06 1.14142E-09-2.27854E-09
 -1       279-2.90953E+06-4.15966E+05-3.15292E+03-1.10029E+06-3.17726E-10 9.84755E-10
 -1       280-2.88565E+06-4.41195E+05-6.01082E+03-1.12817E+06-2.73303E-10 3.82988E-09
 -1       281-2.90878E+06-4.15684E+05-1.12666E+04-1.10059E+06 9.70886E-10-1.84173E-09
 -1       282-2.89110E+06-4.46742E+05-2.66021E+04-1.12638E+06-1.09139E-11-4.24006E-09
 -1       283-2.90410E+06-4.11301E+05-4.83896E+04-1.10171E+06 4.70209E-10-5.26779E-09
 -1       284-2.93335E+06-5.06074E+05-1.29522E+05-1.11560E+06 5.92718E-09 9.45874E-10
 -1       285-2.86776E+06-3.65394E+05-2.05187E+05-1.10794E+06 2.32831E-09-3.36149E-09
 -1       286-4.80754E+05-1.07739E+04 2.50267E+04-1.23422E+03 2.15114E-09 1.16415E-10
 -1       287-4.69619E+05 1.24780E+04 1.77319E+04 1.00664E+03 1.49149E-09 1.94154E-09
 -1       288-4.76616E+05-1.68567E+03 6.46380E+03-3.24767E+02 7.67187E-10 3.41242E-09
 -1       289-4.74471E+05 1.94985E+03 4.11692E+03-8.66729E+02 4.21785E-10-1.15381E-09
 -1       290-4.75906E+05-2.66044E+02 1.66586E+03 6.39195E+02 5.49548E-10-3.48109E-10
 -1       291-4.75358E+05 3.14534E+02 1.05057E+03-2.53590E+03 8.84398E-10-9.79981E-11
 -1       292-4.75735E+05-4.92971E+01 5.48646E+02 1.34442E+03 6.40085E-10 1.85054E-10
 -1       293-4.75555E+05 1.11193E+02 5.35522E+02-3.46380E+03 5.38991E-10 7.81442E-10
 -1       294-4.75714E+05-5.90636E+01 6.54858E+02 1.56712E+03 1.64342E-09 3.31312E-10
 -1       295-4.75387E+05 4.09429E+02 1.32586E+03-3.35612E+03 6.41208E-10 4.19178E-10
 -1       296-4.75902E+05-3.47607E+02 2.20040E+03 1.23674E+03 9.48035E-10 1.52852E-09
 -1       297-4.74225E+05 2.57694E+03 5.41129E+03-2.24780E+03 9.22007E-10 2.75497E-09
 -1       298-4.76869E+05-2.22729E+03 8.55742E+03 4.58778E+02 2.38686E-10 2.32285E-09
 -1       299-4.67706E+05 1.65070E+04 2.34514E+04-5.00198E+02-2.36277E-10 1.24419E-09
 -1       300-4.82409E+05-1.42548E+04 3.31083E+04-5.10899E+02 5.66729E-11-4.56566E-10
 -1       301 3.92908E+04 2.04653E+04 8.59980E+04-2.53218E+04 2.23008E-09 6.29484E-10
 -1       302 1.32897E+04 3.65419E+04 5.22315E+04-2.97355E+04 1.80580E-09-2.28904E-09
 -1       303 3.72074E+03 2.62120E+04 4.11847E+04-2.53668E+04 2.35923E-09-3.71301E-10
 -1       304 1.63920E+04 3.83641E+04 6.04990E+04-2.97058E+04 1.44428E-09-2.33854E-10
 -1       305 4.93608E+04 1.86565E+04 1.06064E+05-2.53331E+04 2.40470E-09 3.56567E-09
 -1       306-1.97288E+06-2.56041E+05-1.32727E+05-7.64782E+05-2.91038E-11 1.04774E-09
 -1       307-2.00567E+06-3.56226E+05-8.37171E+04-7.80442E+05-6.53017E-10 4.04270E-09
 -1       308-1.99660E+06-2.85427E+05-3.13251E+04-7.60546E+05-7.45786E-11 7.49424E-10
 -1       309-1.97817E+06-3.18230E+05-1.72038E+04-7.87883E+05 5.65706E-10-4.04202E-09
 -1       310-1.99978E+06-2.88094E+05-7.30884E+03-7.59685E+05 8.91305E-10 3.55021E-09
 -1       311-1.97449E+06-3.14864E+05-3.90401E+03-7.89361E+05 1.99634E-09 2.82034E-09
 -1       312-2.00037E+06-2.88159E+05-2.07761E+03-7.59386E+05-1.20053E-10-1.48822E-09
 -1       313-1.97398E+06-3.14720E+05-1.77475E+03-7.89704E+05 2.09599E-09 5.43309E-10
 -1       314-2.00035E+06-2.88165E+05-2.30811E+03-7.59398E+05 9.67361E-10-1.80489E-09
 -1       315-1.97461E+06-3.14907E+05-4.54112E+03-7.89299E+05-5.82418E-10-6.71662E-09
 -1       316-1.99967E+06-2.88058E+05-8.59831E+03-7.59725E+05-1.36970E-09-6.38465E-10
 -1       317-1.97888E+06-3.18980E+05-2.03092E+04-7.87680E+05-1.55273E-09 2.83035E-09
 -1       318-1.99599E+06-2.84826E+05-3.69873E+04-7.60659E+05-4.95902E-10 1.56979E-09
 -1       319-2.01121E+06-3.64065E+05-9.88909E+04-7.79153E+05 4.77939E-10 9.85892E-10
 -1       320-1.96810E+06-2.49959E+05-1.56745E+05-7.65512E+05-1.80080E-10 1.20781E-09
 -1       321-4.50818E+05-1.56237E+04 3.58307E+04 1.25600E+03-1.34048E-09-3.00133E-09
 -1       322-4.32595E+05 1.80762E+04 2.57918E+04-7.03983E+03 1.15517E-09-3.18551E-09
 -1       323-4.44175E+05-2.44652E+03 9.23842E+03 3.66450E+03-1.56064E-09-1.36879E-10
 -1       324-4.40747E+05 2.84471E+03 5.92678E+03-1.05929E+04-7.00554E-09 3.85398E-10
 -1       325-4.42736E+05-3.73754E+02 2.37742E+03 4.80928E+03 8.18979E-10 4.75040E-09
 -1       326-4.42168E+05 4.68414E+02 1.40017E+03-1.12577E+04 3.86713E-10 1.71241E-10
 -1       327-4.42769E+05-6.32572E+01 5.55437E+02 4.32934E+03-4.76243E-09 3.05999E-09
 -1       328-4.41492E+05 9.86728E+01 5.10463E+02-8.81335E+03 2.19960E-09 3.54586E-09
 -1       329-4.43364E+05-4.15695E+01-4.21102E+01 2.36471E+03 3.34637E-10-4.63565E-10
 -1       330-4.40487E+05 3.46303E+01 4.18731E+02-3.97439E+03-2.82597E-10-2.73496E-09
 -1       331-4.43715E+05-4.39114E+01-3.06433E+02-5.09576E+02-1.48975E-09-2.12455E-09
 -1       332-4.40477E+05-5.32355E+01 1.85762E+02 1.83124E+03 5.01603E-09 1.52950E-09
 -1       333-4.43370E+05 4.26613E+01-5.68868E+02-3.44061E+03 7.71888E-09-6.80302E-10
 -1       334-4.41771E+05-6.54251E+02-8.41983E+02 6.88659E+03 7.65830E-09-2.18824E-09
 -1       335-4.42476E+05 5.97432E+02-1.57904E+03-5.56512E+03-6.99464E-09-6.24482E-10
 -1       336-7.89384E+02-8.10273E+05 2.20021E+03-8.54566E+03-1.21918E-09 6.23913E-10
 -1       337 3.49392E+02-8.09642E+05-1.73376E+03-3.68432E+04-1.03859E-09 1.15642E-09
 -1       338 6.50156E+02-8.09209E+05-6.74201E+03-8.34450E+03-1.43018E-09-1.37084E-09
 -1       339-9.21037E+03-8.15408E+05-1.87308E+04-3.70836E+04-7.66704E-10-2.78533E-09
 -1       340 6.97241E+03-8.04608E+05-2.99274E+04-8.30818E+03-9.05857E-10 1.81365E-09
 -1       341-1.31079E+06-1.66327E+05-5.57032E+04-5.06071E+05-5.16138E-09 9.24047E-10
 -1       342-1.34893E+06-2.08204E+05-3.85945E+04-4.85951E+05-5.43264E-09 2.84444E-09
 -1       343-1.32322E+06-1.85404E+05-1.31052E+04-5.01301E+05-2.28965E-10 1.84355E-09
 -1       344-1.33110E+06-1.89340E+05-8.06437E+03-4.95110E+05-6.27097E-10 5.18980E-10
 -1       345-1.32857E+06-1.85170E+05-3.17997E+03-4.96902E+05-1.85486E-09-1.24510E-09
 -1       346-1.32335E+06-1.91596E+05-1.87106E+03-5.02476E+05-1.43684E-09-3.14969E-09
 -1       347-1.33096E+06-1.83134E+05-1.07257E+03-4.93942E+05-2.22828E-09-4.98986E-10
 -1       348-1.32186E+06-1.92693E+05-1.24770E+03-5.04226E+05 5.08335E-10 1.40111E-09
 -1       349-1.33007E+06-1.84066E+05-1.85770E+03-4.95158E+05 4.54834E-10 5.69571E-10
 -1       350-1.32672E+06-1.89501E+05-4.14416E+03-4.98858E+05-7.99751E-10 1.15318E-09
 -1       351-1.32609E+06-1.86343E+05-7.32889E+03-4.99297E+05 8.29914E-12 2.72667E-09
 -1       352-1.33777E+06-1.92409E+05-1.94011E+04-4.90768E+05 1.12254E-09-8.94943E-10
 -1       353-1.31905E+06-1.81164E+05-3.12059E+04-5.03257E+05-9.32687E-10-1.08412E-09
 -1       354-1.37074E+06-2.46465E+05-9.23426E+04-4.78972E+05 3.04408E-09-8.26731E-10
 -1       355-1.29318E+06-1.32363E+05-1.33211E+05-5.11087E+05 7.16682E-10 1.67347E-10
 -1       356-4.47671E+05 8.09941E+02-2.03825E+03-5.91663E+03-4.40707E-10-1.07673E-09
 -1       357-4.47541E+05-8.90786E+02-1.24140E+03 8.04178E+03-1.10443E-08 2.26493E-10
 -1       358-4.48646E+05 7.86591E+01-6.96996E+02-4.02791E+03-6.63437E-09 6.84395E-11
 -1       359-4.46002E+05-8.88812E+01 3.20535E+01 3.25283E+03 5.19094E-09-1.23274E-09
 -1       360-4.49147E+05-3.86179E+01-4.58526E+02-1.12737E+03 4.39633E-09 1.10316E-09
 -1       361-4.45728E+05 4.07446E+00 1.95272E+02-2.69787E+03 3.24519E-09 3.33259E-09
 -1       362-4.48908E+05-2.27398E+01-5.39204E+02 1.92253E+03-1.63391E-09 2.96905E-09
 -1       363-4.46733E+05-1.00177E+02-4.40274E+02-8.03123E+03 1.21520E-09-2.11766E-09
 -1       364-4.48196E+05 1.05953E+02-1.29521E+03 4.20586E+03 5.29101E-09-1.00448E-09
 -1       365-4.48188E+05-8.47814E+02-2.76803E+03-1.11546E+04-1.14661E-08-2.98365E-09
 -1       366-4.47513E+05 7.68678E+02-4.84834E+03 5.04618E+03 7.10172E-09 1.90971E-09
 -1       367-4.50541E+05-5.66891E+03-1.18982E+04-1.11431E+04 9.72885E-09 2.87923E-09
 -1       368-4.45845E+05 4.91880E+03-1.91343E+04 4.19431E+03 4.45533E-09 1.01954E-09
 -1       369-4.63784E+05-3.65749E+04-5.17938E+04-7.95585E+03 6.92211E-09 1.08321E-09
 -1       370-4.34216E+05 3.15747E+04-7.38935E+04 1.85863E+03 5.09749E-09 3.20142E-10
 -1       371-1.11002E+04-1.51345E+05 2.31190E+04-5.81974E+03 1.17452E-08 2.10730E-09
 -1       372 1.12764E+04-1.31271E+05 1.58245E+04 2.89048E+04 8.87894E-10 1.55666E-09
 -1       373-3.20099E+02-1.42692E+05 1.38152E+03-7.13276E+03 1.94632E-10 2.06603E-09
 -1       374-7.71063E+03-1.44470E+05-9.52292E+03 3.03512E+04-4.49427E-09 2.82093E-10
 -1       375 8.03037E+03-1.38394E+05-1.79896E+04-7.26517E+03-1.39516E-09 1.28318E-09
 -1       376-5.90054E+05-8.73244E+04-2.30135E+04-2.40845E+05 3.26650E-08-3.49883E-09
 -1       377-6.27453E+05-6.98416E+04-1.41015E+04-1.94984E+05 2.63544E-08 4.89149E-09
 -1       378-5.86006E+05-9.70426E+04-5.03683E+03-2.41584E+05-2.74932E-08 6.63499E-09
 -1       379-6.22146E+05-6.14369E+04-2.28345E+03-1.96667E+05-2.80554E-08-6.21776E-09
 -1       380-5.95346E+05-9.57229E+04-2.33214E+03-2.39158E+05-1.59196E-09 3.84841E-09
 -1       381-5.97344E+05-7.04356E+04 2.74131E+03-2.06534E+05 1.21107E-08 2.55957E-09
 -1       382-6.10287E+05-8.84270E+04-3.02344E+03-2.31314E+05 8.92260E-09-1.24913E-09
 -1       383-5.76504E+05-8.81465E+04 3.44065E+03-2.26435E+05 5.85538E-09 2.26464E-10
 -1       384-6.16064E+05-7.81042E+04-2.68782E+03-2.19174E+05-2.08076E-08 1.79261E-09
 -1       385-5.73154E+05-1.05618E+05-8.02594E+02-2.47509E+05-2.51674E-08 8.96847E-10
 -1       386-6.14134E+05-7.05884E+04-4.20248E+03-2.10616E+05 1.97630E-08 1.12532E-08
 -1       387-5.77130E+05-1.15546E+05-1.07050E+04-2.53411E+05 2.25064E-08 5.03962E-09
 -1       388-6.12334E+05-6.80034E+04-1.84264E+04-2.13448E+05 5.58628E-08 5.26779E-09
 -1       389-5.93758E+05-1.36429E+05-5.01679E+04-2.34069E+05 4.87842E-08 4.36012E-09
 -1       390-5.97077E+05-5.00815E+04-7.88486E+04-2.29617E+05 1.76351E-09-4.03816E-10
 -1       406 1.26953E+03 4.02545E+05 2.57818E+03-3.86609E+04-1.34514E-09 3.35876E-09
 -1       407 7.48754E+02 4.02997E+05 2.84515E+03-4.25205E+04 2.31466E-10 2.11367E-09
 -1       408 1.08016E+03 4.02490E+05 4.44907E+03-3.85186E+04-1.54705E-09 8.27640E-11
 -1       409 4.28033E+03 4.04187E+05 9.40141E+03-4.27180E+04 2.35559E-10 3.70619E-10
 -1       410 1.23434E+04 4.01286E+05 1.88728E+04-3.84524E+04-1.75532E-09-3.50155E-10
 -1       466 1.35289E+06-5.43496E+04 1.25144E+05 1.57295E+04 6.30735E-10-3.81260E-09
 -1       467 1.41478E+06 6.27237E+04 8.97385E+04-2.56475E+04 1.29819E-09 4.78030E-09
 -1       468 1.37699E+06-8.36394E+03 3.25736E+04 4.40832E+03 8.11156E-11-1.30603E-09
 -1       469 1.38674E+06 9.66394E+03 2.05989E+04-1.03569E+04 2.91848E-10 4.65661E-10
 -1       470 1.38080E+06-1.29155E+03 8.51495E+03 4.39111E+02 9.86503E-10 1.36333E-09
 -1       471 1.38233E+06 1.54465E+03 5.27388E+03-5.02560E+03 1.79852E-09-1.25380E-09
 -1       472 1.38139E+06-2.45656E+02 2.96043E+03-9.23085E+02 1.70693E-09 9.42237E-10
 -1       473 1.38181E+06 6.13191E+02 3.05170E+03-3.34331E+03-1.95094E-10-1.13067E-09
 -1       474 1.38132E+06-3.59899E+02 3.97389E+03-1.24322E+03 2.57539E-10 1.18155E-09
 -1       475 1.38281E+06 2.52585E+03 8.19784E+03-3.37972E+03 2.29087E-09 1.31558E-09
 -1       476 1.38038E+06-2.15543E+03 1.37948E+04-8.86662E+02 1.02269E-09 2.36196E-09
 -1       477 1.38947E+06 1.60572E+04 3.36860E+04-5.17973E+03 5.42393E-11-2.43290E-10
 -1       478 1.37464E+06-1.38692E+04 5.36535E+04 5.56847E+02-5.81579E-10-3.49246E-10
 -1       479 1.43019E+06 1.03064E+05 1.46447E+05-1.09251E+04 1.97889E-09-2.40834E-09
 -1       480 1.33963E+06-8.89999E+04 2.07107E+05 4.85830E+03 3.24252E-09-2.22644E-09
 -1       481-1.08097E+04 2.28371E+05 2.44128E+04-5.65390E+03-1.90994E-11-2.10423E-09
 -1       482 1.28315E+04 2.44185E+05 1.89481E+04 1.65707E+04-1.56433E-10 5.11884E-09
 -1       483-2.10086E+03 2.33953E+05 8.02771E+03-3.98624E+03-1.90994E-11 1.20400E-09
 -1       484 5.42992E+03 2.38555E+05 8.99672E+03 1.43399E+04 6.41336E-11 3.55399E-10
 -1       485-3.34071E+03 2.33884E+05 8.53733E+03-3.42248E+03 1.26875E-10-2.62227E-10
 -1       486-1.24192E+06-1.60905E+05-1.21711E+05-5.28684E+05-3.68163E-09-5.64614E-09
 -1       487-1.37484E+06-1.73551E+05-7.96517E+04-3.96323E+05 3.43334E-10 1.33878E-08
 -1       488-1.27022E+06-2.01871E+05-3.02154E+04-5.20032E+05-2.88310E-10-1.47156E-09
 -1       489-1.28471E+06-1.51898E+05-7.52524E+03-4.31763E+05 1.92959E-09-8.25821E-10
 -1       490-1.33053E+06-1.83824E+05-1.47818E+04-4.92018E+05-1.32241E-09 1.90676E-09
 -1       491-1.22285E+06-2.04609E+05 5.49996E+03-5.03343E+05-5.69696E-09 8.14345E-09
 -1       492-1.33217E+06-1.49057E+05-3.26273E+03-4.48567E+05 2.41721E-09-2.85854E-09
 -1       493-1.22189E+06-2.36861E+05 1.52552E+03-5.46393E+05 7.22668E-10 7.56870E-10
 -1       494-1.33287E+06-1.50313E+05-3.46352E+03-4.50080E+05 2.65391E-09 4.78201E-09
 -1       495-1.22388E+06-2.01490E+05 6.36948E+03-4.99781E+05 2.18029E-09-1.14767E-08
 -1       496-1.32871E+06-1.85764E+05-1.37947E+04-4.93997E+05-1.10049E-10-2.66436E-09
 -1       497-1.28850E+06-1.48187E+05-5.36742E+03-4.29597E+05-1.01375E-09-1.64914E-09
 -1       498-1.26833E+06-2.03564E+05-2.56419E+04-5.20286E+05-6.58929E-10-8.52015E-09
 -1       499-1.36990E+06-1.64724E+05-6.73029E+04-3.97957E+05-4.16730E-09-1.28821E-08
 -1       500-1.24876E+06-1.68024E+05-1.04302E+05-5.26800E+05-1.32623E-08 9.73887E-09
 -1       501-4.07644E+05-2.14142E+04 4.97417E+04-6.61465E+02 1.77434E-09-2.25555E-10
 -1       502-3.85581E+05 2.47973E+04 3.52292E+04-4.54797E+02 1.16268E-09 1.02818E-09
 -1       503-3.99331E+05-3.34572E+03 1.28475E+04 3.29702E+02 2.96893E-10-2.41835E-09
 -1       504-3.95352E+05 3.86920E+03 8.11907E+03-2.30283E+03-4.45539E-10-1.98361E-09
 -1       505-3.97890E+05-5.21771E+02 3.27050E+03 1.18663E+03 1.02624E-09-1.68825E-09
 -1       506-3.97102E+05 6.06195E+02 1.93083E+03-3.63339E+03 2.29955E-09 3.66754E-10
 -1       507-3.97592E+05-8.17881E+01 8.56445E+02 1.66028E+03 1.25099E-09 1.00636E-09
 -1       508-3.97431E+05 1.10868E+02 5.24817E+02-4.06921E+03 9.50099E-10 2.98400E-10
 -1       509-3.97565E+05-2.43645E+01 3.27880E+02 1.62246E+03 1.84362E-09 1.27765E-09
 -1       510-3.97351E+05 1.08001E+02 4.11379E+02-3.49210E+03 2.09863E-09 1.56547E-10
 -1       511-3.97668E+05-8.25456E+01 5.21042E+02 1.08316E+03 1.27575E-09 1.40804E-09
 -1       512-3.96968E+05 5.82531E+02 1.27487E+03-2.05585E+03 1.07544E-09 1.02354E-09
 -1       513-3.97939E+05-5.04564E+02 1.89374E+03 1.86186E+02 7.65908E-10-3.96085E-10
 -1       514-3.95461E+05 3.69919E+03 5.29604E+03-1.45602E+02-1.94773E-09-3.54117E-09
 -1       515-3.99170E+05-3.19633E+03 7.36521E+03-8.27118E+02-1.20460E-09-2.38242E-09
 -1       516-4.87127E+04 2.87315E+05 1.14764E+05-2.17129E+03-4.36557E-10 1.76887E-09
 -1       517 5.96340E+04 3.38300E+05 8.68390E+04 6.68473E+03-4.83851E-10 3.10445E-09
 -1       518-1.08266E+04 3.04479E+05 4.12994E+04-2.75894E+03-8.84938E-10 1.99356E-09
 -1       519 3.33553E+04 3.26956E+05 5.25964E+04 8.70548E+03-4.84533E-10-1.27142E-09
 -1       520-2.25156E+04 2.98694E+05 5.52690E+04-4.19221E+03-1.00590E-09-5.82389E-09
 -1       521-2.73754E+06-3.50267E+05-1.92092E+05-1.05796E+06 7.91260E-10 1.17871E-09
 -1       522-2.79607E+06-4.84624E+05-1.21223E+05-1.06824E+06 6.82462E-10 2.39561E-09
 -1       523-2.77175E+06-3.93017E+05-4.53064E+04-1.05192E+06 4.46562E-10-1.89357E-09
 -1       524-2.75627E+06-4.29414E+05-2.48891E+04-1.07875E+06-1.04660E-09-3.53748E-09
 -1       525-2.77627E+06-3.96967E+05-1.05375E+04-1.05073E+06 4.51109E-10 2.45564E-11
 -1       526-2.75098E+06-4.24448E+05-5.58934E+03-1.08072E+06 1.17814E-09 2.43710E-09
 -1       527-2.77708E+06-3.97121E+05-2.88056E+03-1.05033E+06-1.65187E-10 2.12049E-09
 -1       528-2.75026E+06-4.24153E+05-2.29805E+03-1.08111E+06-5.38418E-09-9.59744E-10
 -1       529-2.77703E+06-3.97180E+05-2.79517E+03-1.05039E+06 5.45469E-10 4.32692E-09
 -1       530-2.75113E+06-4.24218E+05-5.34812E+03-1.08047E+06-7.38737E-10-1.34014E-09
 -1       531-2.77614E+06-3.97159E+05-1.00534E+04-1.05089E+06-3.39242E-10 1.22782E-10
 -1       532-2.75639E+06-4.28709E+05-2.37125E+04-1.07829E+06 8.47194E-10-4.56566E-10
 -1       533-2.77169E+06-3.93533E+05-4.31664E+04-1.05218E+06 7.40215E-10 6.63931E-10
 -1       534-2.79456E+06-4.81026E+05-1.15468E+05-1.06796E+06 7.59201E-10-3.41242E-09
 -1       535-2.73896E+06-3.52967E+05-1.82990E+05-1.05809E+06-3.27418E-11-2.54659E-10
 -1       536 6.18038E+04-1.17492E+04 5.05186E+04-7.02860E+03 3.26509E-10 8.34916E-10
 -1       537 8.02571E+04 1.57692E+04 3.23794E+04-2.74636E+04-1.91130E-09 2.63572E-09
 -1       538 6.94000E+04-1.25555E+03 1.30716E+04-6.95412E+03-1.16415E-10 1.87538E-09
 -1       539 7.16386E+04 1.51190E+03 7.30557E+03-2.75241E+04 1.28239E-09-2.56819E-10
 -1       540 7.02424E+04-1.57056E+02 3.29347E+03-6.96316E+03-2.28738E-10-8.88804E-10
 -1       541 7.05700E+04 1.38940E+02 1.74200E+03-2.75023E+04-1.36424E-12-2.40016E-09
 -1       542 7.03403E+04-2.27232E+01 8.20588E+02-6.97610E+03-5.01132E-10-4.15321E-09
 -1       543 7.03822E+04 2.48476E+01 4.22843E+02-2.74825E+04 3.66072E-10-3.26071E-09
 -1       544 7.03504E+04 1.64438E+00 1.98795E+02-6.98301E+03-2.74360E-09-5.73891E-10
 -1       545 7.03372E+04 1.99602E+01 9.07647E+01-2.74746E+04-5.20258E-09 3.25406E-09
 -1       546 7.03538E+04 5.84848E+00 2.30453E+01-6.98401E+03-2.59229E-09 2.87184E-09
 -1       547 7.03369E+04 1.83177E+00-3.62967E+01-2.74750E+04-6.84395E-11-2.19143E-09
 -1       548 7.03675E+04 7.03922E+00-1.04288E+02-6.98267E+03-9.38599E-10-1.18132E-09
 -1       549 7.03107E+04-1.39155E+02-2.72988E+02-2.74324E+04-1.20053E-10-1.22509E-09
 -1       550 7.04450E+04 7.80512E+01-4.49624E+02-7.02652E+03-1.83718E-10-2.10997E-09
 -1       551 1.24173E+04-2.68344E+05 2.57299E+04-4.09772E+05 3.21961E-09 1.43336E-09
 -1       552 6.45543E+03-2.64236E+05 2.02960E+04-4.79481E+05 2.71393E-09 4.71391E-09
 -1       553 4.30188E+03-2.68030E+05 2.35925E+04-4.09085E+05 3.77258E-09 1.59935E-09
 -1       554 1.55806E+04-2.59176E+05 4.43010E+04-4.79596E+05 3.36149E-09 9.20409E-10
 -1       555 4.18565E+04-2.73964E+05 8.39960E+04-4.09578E+05 3.30328E-09-2.25918E-09
 -1       556-1.96377E+05-1.04913E+05 1.68196E+04-1.87114E+05-2.87400E-09 7.60338E-10
 -1       557-1.80597E+05-1.22086E+05 8.27948E+03-1.99518E+05-4.63479E-09 8.31665E-09
 -1       558-1.96833E+05-1.10466E+05 3.46840E+03-1.83828E+05-4.65661E-09-1.44973E-09
 -1       559-1.82254E+05-1.24822E+05 1.70729E+03-2.00186E+05-4.87489E-10 2.73258E-09
 -1       560-1.97115E+05-1.10465E+05 7.51637E+02-1.83848E+05 3.17596E-09-1.67643E-09
 -1       561-1.82662E+05-1.24833E+05 3.57189E+02-2.00480E+05 1.25438E-08-3.44306E-09
 -1       562-1.97329E+05-1.10322E+05 1.20682E+02-1.83989E+05 1.10485E-08 4.53019E-09
 -1       563-1.82876E+05-1.24741E+05-1.65472E+01-2.00633E+05 2.85036E-09-4.29873E-09
 -1       564-1.97447E+05-1.10237E+05-1.80202E+02-1.84073E+05 1.70894E-09 3.47427E-10
 -1       565-1.82991E+05-1.24697E+05-4.53053E+02-2.00704E+05 2.32467E-09 9.43783E-09
 -1       566-1.97449E+05-1.10204E+05-9.69469E+02-1.84091E+05 2.04418E-08 4.88399E-10
 -1       567-1.83158E+05-1.24802E+05-2.14517E+03-2.00679E+05 3.09903E-08-2.36087E-08
 -1       568-1.97257E+05-1.10555E+05-4.41507E+03-1.83905E+05 1.76005E-08-3.77258E-09
 -1       569-1.85513E+05-1.27512E+05-1.04139E+04-1.99941E+05 1.84855E-09 1.90994E-09
 -1       570-1.96275E+05-1.18734E+05-2.12674E+04-1.80430E+05 2.29375E-09-3.61410E-09
 -1       571 2.55436E+05 1.26530E+04 1.94252E+04-6.66588E+04 4.98403E-10-2.91539E-09
 -1       572 2.58403E+05 4.30993E+03 9.54267E+03-7.34835E+04-1.11413E-10-3.09046E-09
 -1       573 2.56626E+05 9.58846E+02 4.24565E+03-6.64734E+04-1.52795E-09-1.32331E-10
 -1       574 2.56971E+05 2.96490E+02 2.13232E+03-7.36851E+04-3.24462E-10-2.87400E-10
 -1       575 2.56748E+05 2.34771E+01 1.00900E+03-6.64503E+04 1.36424E-10 7.60338E-10
 -1       576 2.56780E+05-8.43774E-01 5.16048E+02-7.37111E+04 1.62004E-11 2.41016E-11
 -1       577 2.56766E+05-1.71859E+01 2.58116E+02-6.64473E+04 5.16138E-11-3.25417E-09
 -1       578 2.56763E+05-1.39160E+01 1.47629E+02-7.37143E+04 5.54564E-10-1.46883E-10
 -1       579 2.56790E+05-2.21192E+01 1.02659E+02-6.64471E+04-4.05635E-10-1.82354E-10
 -1       580 2.56799E+05-2.76304E+01 1.16213E+02-7.37110E+04 6.18456E-11 3.10092E-09
 -1       581 2.56832E+05-3.79866E+01 1.79923E+02-6.64506E+04-7.01220E-10 1.54569E-09
 -1       582 2.56890E+05-9.80117E+00 3.58266E+02-7.36719E+04-9.24047E-10-2.81943E-10
 -1       583 2.56876E+05 7.90254E+01 6.97014E+02-6.64861E+04-7.38510E-10 3.48973E-09
 -1       584 2.57206E+05 6.09056E+02 1.56467E+03-7.33654E+04-1.59980E-09 2.94722E-09
 -1       585 2.56756E+05 1.96133E+03 3.17483E+03-6.67592E+04 7.07587E-10 3.37059E-09
 -1       586 2.22585E+03 1.03988E+05 3.91917E+03-1.70184E+05 3.78350E-10-9.78616E-10
 -1       587 1.24411E+03 1.04617E+05 3.68702E+03-1.88136E+05 6.33008E-10-4.49290E-10
 -1       588 1.41608E+03 1.03922E+05 5.17902E+03-1.69968E+05 4.30191E-10-1.67324E-09
 -1       589 4.95248E+03 1.05864E+05 1.05695E+04-1.88188E+05 5.69344E-10 1.24362E-09
 -1       590 1.38533E+04 1.02662E+05 2.10253E+04-1.70127E+05 4.61569E-10-1.89129E-09
 -1       591-1.19738E+05-4.13875E+04-2.23966E+04-6.23097E+04-7.16147E-09-7.20684E-09
 -1       592-1.20338E+05-3.86850E+04-1.09786E+04-6.90659E+04-8.45466E-09 5.72902E-09
 -1       593-1.20391E+05-3.30508E+04-4.65795E+03-6.61128E+04-4.87034E-09 2.20120E-09
 -1       594-1.17950E+05-3.56537E+04-2.27844E+03-6.94838E+04-2.14504E-09-1.02044E-09
 -1       595-1.20501E+05-3.27389E+04-1.04939E+03-6.62855E+04-1.25351E-09-1.56484E-09
 -1       596-1.17771E+05-3.55325E+04-5.33327E+02-6.94710E+04-7.98764E-10-1.87197E-09
 -1       597-1.20523E+05-3.27535E+04-2.92728E+02-6.62873E+04-2.55579E-09-7.99150E-09
 -1       598-1.17753E+05-3.55340E+04-2.38614E+02-6.94634E+04 3.01611E-10-3.64639E-09
 -1       599-1.20520E+05-3.27540E+04-3.08482E+02-6.62862E+04-2.54431E-10-6.31417E-10
 -1       600-1.17769E+05-3.55343E+04-5.75050E+02-6.94684E+04 6.05496E-10 6.83485E-10
 -1       601-1.20491E+05-3.27398E+04-1.13778E+03-6.62815E+04 2.18915E-09 3.70483E-09
 -1       602-1.17962E+05-3.56658E+04-2.47444E+03-6.94769E+04 2.28988E-09 4.88762E-09
 -1       603-1.20367E+05-3.30833E+04-5.05980E+03-6.60937E+04-1.16597E-09 1.73759E-09
 -1       604-1.20570E+05-3.89409E+04-1.19255E+04-6.89986E+04-1.91767E-09 4.83851E-10
 -1       605-1.19635E+05-4.21528E+04-2.43274E+04-6.19779E+04-3.21461E-09-7.89896E-09
 -1       606 8.26621E+04-1.01586E+04-1.55626E+04 2.42508E+04-4.84943E-09 1.38425E-09
 -1       607 8.02412E+04-3.46023E+03-7.64231E+03 2.64793E+04-6.28006E-10 1.10458E-09
 -1       608 8.16529E+04-7.68078E+02-3.40060E+03 2.40860E+04 3.97358E-09-1.64391E-09
 -1       609 8.13298E+04-2.17876E+02-1.70460E+03 2.66592E+04-1.70257E-09-1.33673E-09
 -1       610 8.15139E+04 4.71664E+00-8.04720E+02 2.40649E+04-4.22915E-09-9.98170E-11
 -1       611 8.14489E+04 3.80950E+01-4.05236E+02 2.66818E+04-7.59974E-09 2.56478E-10
 -1       612 8.14805E+04 4.77881E+01-1.93061E+02 2.40626E+04-2.49838E-09-2.36105E-09
 -1       613 8.14546E+04 5.21227E+01-8.97827E+01 2.66847E+04-6.15910E-09-1.30763E-09
 -1       614 8.14645E+04 4.75302E+01-2.83962E+01 2.40620E+04-1.53068E-09 5.00222E-12
 -1       615 8.14487E+04 5.53441E+01 1.87314E+01 2.66849E+04 5.71617E-09-3.93356E-11
 -1       616 8.14527E+04 5.34409E+01 7.39194E+01 2.40623E+04 6.05405E-09 1.73395E-09
 -1       617 8.14559E+04 8.48083E+01 1.76768E+02 2.66841E+04 1.77033E-08 1.40403E-09
 -1       618 8.14336E+04 1.37831E+02 3.61612E+02 2.40627E+04 7.51720E-09-1.28807E-09
 -1       619 8.15705E+04 4.33719E+02 8.18320E+02 2.66806E+04-2.34661E-09 1.73827E-09
 -1       620 8.13244E+04 1.14588E+03 1.66847E+03 2.40640E+04 3.80010E-09 1.04433E-09
 -1       621 2.05936E+03 2.67384E+05 4.99701E+03-2.46874E+04 2.14072E-09-1.55660E-09
 -1       622 7.90766E+02 2.68327E+05 4.08305E+03-2.90001E+04 6.81666E-10-9.31095E-10
 -1       623 4.61283E+02 2.67600E+05 4.96228E+03-2.47146E+04 1.87379E-09-6.16546E-09
 -1       624 2.81853E+03 2.69532E+05 9.50046E+03-2.88737E+04 8.55152E-10-1.42129E-08
 -1       625 8.64480E+03 2.66212E+05 1.81376E+04-2.48116E+04 1.81626E-09-8.93806E-09
 -1       626 1.16793E+05 3.83021E+04-6.87944E+03 7.95248E+04-1.36652E-09 5.74801E-10
 -1       627 1.13567E+05 4.31978E+04-3.26349E+03 8.10201E+04-1.66119E-09 1.55796E-09
 -1       628 1.16939E+05 4.16804E+04-1.37153E+03 7.78729E+04-5.63887E-10 3.07296E-09
 -1       629 1.14073E+05 4.45942E+04-6.58173E+02 8.08965E+04-2.18961E-09 1.85537E-10
 -1       630 1.16920E+05 4.19141E+04-2.90628E+02 7.77360E+04-1.20963E-09 2.16460E-10
 -1       631 1.14104E+05 4.46985E+04-1.30148E+02 8.08933E+04-3.17141E-09-3.53708E-10
 -1       632 1.16902E+05 4.19238E+04-3.67656E+01 7.77214E+04-2.45336E-09-1.99134E-09
 -1       633 1.14101E+05 4.47049E+04 3.13882E+01 8.08920E+04-1.42995E-09 9.56788E-10
 -1       634 1.16890E+05 4.19187E+04 1.15521E+02 7.77180E+04 2.52658E-09-1.79080E-09
 -1       635 1.14113E+05 4.47087E+04 2.75817E+02 8.08939E+04-6.85077E-10-8.15112E-09
 -1       636 1.16876E+05 4.19311E+04 5.78344E+02 7.77084E+04-4.99330E-09 5.90262E-10
 -1       637 1.14251E+05 4.48640E+04 1.29436E+03 8.08703E+04-6.98586E-09 9.78389E-09
 -1       638 1.16846E+05 4.24000E+04 2.68337E+03 7.75037E+04-2.94585E-09-1.12141E-09
 -1       639 1.15619E+05 4.72468E+04 6.38554E+03 8.02887E+04-9.46682E-09 3.86081E-10
 -1       640 1.16907E+05 4.92907E+04 1.34585E+04 7.46369E+04-3.42129E-09-5.73891E-10
 -1       641 2.72222E+03 2.44383E+03-5.68761E+03-1.38073E+02-4.18094E-09-1.18780E-09
 -1       642 2.77815E+02-2.82913E+03-4.01317E+03 5.91574E+02-4.38959E-10 2.56273E-09
 -1       643 1.77642E+03 3.80748E+02-1.46689E+03-1.36263E+02-9.93326E-09 2.46132E-10
 -1       644 1.37721E+03-4.38641E+02-9.09229E+02 5.89084E+02 5.43456E-09 3.34168E-09
 -1       645 1.62237E+03 5.80070E+01-3.51634E+02-1.35590E+02-3.06078E-09-1.09965E-09
 -1       646 1.55921E+03-6.03399E+01-1.66920E+02 5.88090E+02-1.93917E-07-4.00337E-09
 -1       647 1.59419E+03 3.24389E+00-7.10990E-01-1.35270E+02-2.51609E-05 4.32535E-08
 -1       648 1.60988E+03 3.29967E+01 1.54087E+02 5.87759E+02-5.00021E-05 8.26135E-08
 -1       649 1.57162E+03-3.51547E+01 3.50528E+02-1.35259E+02-2.51617E-05 4.21653E-08
 -1       650 1.73859E+03 2.71279E+02 8.47710E+02 5.87859E+02-1.74810E-07 5.37374E-09
 -1       651 1.46556E+03-2.34752E+02 1.47792E+03-1.35371E+02-3.28171E-09-6.15614E-10
 -1       652 2.46599E+03 1.74932E+03 3.65116E+03 5.87743E+02 2.34379E-09-1.25328E-09
 -1       653 8.44489E+02-1.51085E+03 5.82637E+03-1.35147E+02-5.73741E-09-2.44040E-09
 -1       654 6.85352E+03 1.12158E+04 1.59163E+04 5.84401E+02-1.12081E-10-1.57343E-09
 -1       655-2.92089E+03-9.68398E+03 2.25214E+04-1.32047E+02-1.34818E-10-7.64885E-10
 -1       656 8.01755E+03-3.05688E+05-3.61077E+04 8.66588E+03 8.90213E-09-1.14142E-10
 -1       657-1.18681E+04-3.18836E+05-2.62988E+04 3.30875E+04 7.31370E-09 4.45880E-09
 -1       658 1.53451E+03-3.10379E+05-1.67093E+04 8.59511E+03 7.01431E-09 6.88829E-10
 -1       659-1.08135E+04-3.18235E+05-2.44416E+04 3.31333E+04 7.23321E-09 2.03936E-09
 -1       660 7.18603E+03-3.06318E+05-3.25890E+04 8.62079E+03 6.41376E-09-4.66446E-09
 -1       661 3.00995E+05 3.84791E+04 2.46532E+04 1.17701E+05 3.27236E-09-4.55111E-09
 -1       662 3.06763E+05 5.74891E+04 1.55602E+04 1.21077E+05-1.20878E-09-8.33097E-10
 -1       663 3.05238E+05 4.41099E+04 5.82186E+03 1.17102E+05 5.62807E-10 3.25804E-09
 -1       664 3.01887E+05 5.01745E+04 3.20668E+03 1.22112E+05-1.03942E-08-2.22946E-09
 -1       665 3.05712E+05 4.47268E+04 1.36541E+03 1.17064E+05-9.67179E-09-2.20166E-09
 -1       666 3.01341E+05 4.93932E+04 7.42167E+02 1.22177E+05-8.97160E-09-3.13344E-09
 -1       667 3.05764E+05 4.47992E+04 4.14817E+02 1.17069E+05 4.09466E-09 3.62070E-09
 -1       668 3.01292E+05 4.93201E+04 3.90621E+02 1.22174E+05-5.23053E-09-1.67999E-09
 -1       669 3.05759E+05 4.47945E+04 5.48261E+02 1.17068E+05 5.73749E-10-5.80542E-10
 -1       670 3.01387E+05 4.94444E+04 1.11197E+03 1.22176E+05 1.64846E-08 8.59018E-10
 -1       671 3.05672E+05 4.46833E+04 2.11361E+03 1.17064E+05 4.19288E-09-2.62457E-09
 -1       672 3.02251E+05 5.06601E+04 5.00647E+03 1.22064E+05 1.42828E-09 8.00355E-10
 -1       673 3.04922E+05 4.37241E+04 9.10408E+03 1.17128E+05 1.79985E-09-1.22873E-09
 -1       674 3.09888E+05 6.20982E+04 2.43443E+04 1.20434E+05-4.81009E-09-1.37152E-09
 -1       675 2.98280E+05 3.49180E+04 3.85748E+04 1.18068E+05-2.91493E-09 2.34468E-09
 -1       676 8.06460E+02-2.88736E+05-4.19974E+03 2.64968E+02 6.89795E-09-1.68653E-09
 -1       677-1.59045E+03-2.90340E+05-4.54977E+03 9.32372E+01 2.64737E-09 3.55026E-09
 -1       678 4.99777E+02-2.88927E+05-5.39632E+03 2.64440E+02 5.88602E-09-1.64214E-10
 -1       679-5.69912E+03-2.92782E+05-1.18376E+04 9.28253E+01 2.57273E-10-2.71226E-09
 -1       680 4.11674E+03-2.86295E+05-1.79845E+04 2.64499E+02 1.01954E-08 2.21910E-10
 -1       681 4.77702E+05-1.26041E+04 2.92468E+04 1.39213E+03 2.46899E-10 5.69344E-10
 -1       682 4.90712E+05 1.45924E+04 2.07398E+04-4.99320E+03-1.59730E-11 1.34378E-10
 -1       683 4.82722E+05-1.96323E+03 7.58839E+03 4.39474E+02 1.70132E-10 4.67480E-10
 -1       684 4.84851E+05 2.27707E+03 4.79259E+03-3.63044E+03-7.37373E-10 2.17426E-10
 -1       685 4.83558E+05-3.05818E+02 1.99796E+03 2.93764E+01-2.92236E-10 7.99332E-10
 -1       686 4.83886E+05 3.72960E+02 1.26341E+03-3.19759E+03-5.02020E-10 1.27329E-09
 -1       687 4.83686E+05-6.10288E+01 7.59202E+02 6.61436E+00-1.90781E-12 1.25641E-09
 -1       688 4.83816E+05 1.73203E+02 8.70015E+02-3.53107E+03-2.77147E-10 6.56790E-10
 -1       689 4.83630E+05-1.07427E+02 1.20289E+03 3.62861E+02-7.68864E-10 5.45526E-10
 -1       690 4.84276E+05 7.77406E+02 2.58598E+03-4.75038E+03-2.75833E-10 7.40556E-10
 -1       691 4.83233E+05-6.69386E+02 4.31118E+03 1.22594E+03 8.78032E-10 2.30102E-10
 -1       692 4.86835E+05 5.02585E+03 1.07204E+04-7.29691E+03 1.32161E-09 4.67026E-10
 -1       693 4.81094E+05-4.36548E+03 1.68172E+04 2.90946E+03 4.97380E-11-1.94541E-09
 -1       694 5.01161E+05 3.25656E+04 4.65886E+04-1.21797E+04-2.02439E-09-2.00816E-09
 -1       695 4.68983E+05-2.82117E+04 6.49505E+04 6.10895E+03-1.55489E-09-3.47791E-09
 -1       696-9.93681E+03 4.11835E+05 2.26954E+04 1.01698E+03 9.09495E-12 2.50083E-10
 -1       697 1.07023E+04 4.21563E+05 1.45837E+04-5.92172E+03 2.54659E-11 1.60938E-10
 -1       698-7.38361E+02 4.16175E+05 2.81784E+03 5.10870E+02-1.75532E-10 1.16003E-09
 -1       699-4.32664E+03 4.14528E+05-5.07165E+03-5.51609E+03-2.16460E-10 2.92451E-09
 -1       700 5.06721E+03 4.18871E+05-1.11196E+04 6.11331E+02-1.62800E-10 1.58117E-09
 -1       701-4.35128E+05-4.02966E+04-5.57384E+04-1.73830E+05-6.38465E-10-1.01500E-09
 -1       702-4.66918E+05-8.86060E+04-3.86219E+04-1.61100E+05-5.15683E-10-5.63432E-10
 -1       703-4.45885E+05-6.07644E+04-1.30684E+04-1.70629E+05-5.65251E-10 1.09594E-10
 -1       704-4.54360E+05-6.49472E+04-8.15489E+03-1.64843E+05-8.21046E-10-1.05103E-09
 -1       705-4.47680E+05-6.39187E+04-3.06135E+03-1.70100E+05 3.19346E-10 8.54357E-10
 -1       706-4.51730E+05-6.17608E+04-1.80826E+03-1.65954E+05-4.49713E-10-1.75680E-09
 -1       707-4.48509E+05-6.39479E+04-8.71064E+02-1.69517E+05 2.37392E-11-8.94687E-10
 -1       708-4.50058E+05-6.25023E+04-7.03161E+02-1.67405E+05-4.59011E-11-3.83608E-10
 -1       709-4.49345E+05-6.31808E+04-8.76017E+02-1.68645E+05-6.22151E-11-1.35714E-10
 -1       710-4.48758E+05-6.45420E+04-1.74996E+03-1.69122E+05 2.31921E-11 4.14147E-10
 -1       711-4.49810E+05-6.19091E+04-3.03761E+03-1.67799E+05 2.80806E-11 1.12868E-09
 -1       712-4.49679E+05-6.94181E+04-8.01302E+03-1.70029E+05 6.74390E-10 1.67893E-09
 -1       713-4.48432E+05-5.83058E+04-1.28742E+04-1.67741E+05-9.69067E-10-1.36288E-09
 -1       714-4.62226E+05-9.27631E+04-3.80668E+04-1.66418E+05-9.15861E-10-1.68029E-09
 -1       715-4.37277E+05-3.85951E+04-5.48876E+04-1.71404E+05 8.15817E-10 4.51109E-10
 -1       716 1.14764E+05-1.45223E+04 3.30610E+04 2.94950E+03 4.73017E-09-1.98452E-09
 -1       717 1.33387E+05 1.67288E+04 2.41205E+04-8.85742E+03 1.72270E-09-2.04909E-09
 -1       718 1.21254E+05-2.25378E+03 8.52254E+03 2.04173E+03 1.27977E-09-3.02407E-10
 -1       719 1.25447E+05 2.58103E+03 5.67528E+03-7.38054E+03 6.15501E-10-1.04819E-10
 -1       720 1.22628E+05-3.48029E+02 2.25474E+03 1.47224E+03 1.73713E-09 1.12516E-09
 -1       721 1.23675E+05 4.26579E+02 1.57319E+03-6.48582E+03 1.98908E-09-6.08452E-10
 -1       722 1.22988E+05-7.54622E+01 9.81289E+02 1.14695E+03 1.66420E-09 1.61082E-09
 -1       723 1.23286E+05 2.63995E+02 1.27617E+03-6.04810E+03 5.16614E-10 1.83182E-09
 -1       724 1.23000E+05-1.73802E+02 1.88843E+03 1.03455E+03 3.37739E-09-6.30166E-10
 -1       725 1.23810E+05 1.28454E+03 4.09534E+03-6.02581E+03 2.49799E-09 1.62100E-09
 -1       726 1.22463E+05-1.09391E+03 6.95434E+03 1.12467E+03 2.35916E-09 8.15362E-10
 -1       727 1.27451E+05 8.16883E+03 1.71312E+04-6.42063E+03 3.05944E-09 1.08503E-09
 -1       728 1.19373E+05-7.05682E+03 2.71694E+04 1.42936E+03 1.29367E-09-4.91127E-10
 -1       729 1.48585E+05 5.24051E+04 7.44988E+04-7.34504E+03-6.70752E-11 8.06722E-10
 -1       730 1.01377E+05-4.52700E+04 1.05029E+05 2.04895E+03 1.91170E-09-9.24047E-10
 -1       731-1.67450E+04 1.69092E+05 3.79966E+04-4.68349E+03-1.93722E-09-1.37572E-09
 -1       732 1.94600E+04 1.91204E+05 2.81378E+04 1.47785E+04 1.12232E-09 1.23237E-10
 -1       733-2.77513E+03 1.77029E+05 1.04563E+04-3.26737E+03-5.60703E-10 3.44471E-11
 -1       734 4.48112E+03 1.81990E+05 8.27793E+03 1.27141E+04 1.57797E-10-1.09407E-09
 -1       735-1.70874E+03 1.78184E+05 5.09725E+03-2.61872E+03 6.34941E-11-9.83448E-10
 -1       736-9.29848E+05-1.15803E+05-7.02072E+04-3.77296E+05 3.67436E-09-2.04091E-09
 -1       737-9.94382E+05-1.49120E+05-4.80367E+04-3.29489E+05 5.61158E-09-2.61025E-09
 -1       738-9.51991E+05-1.37036E+05-1.71976E+04-3.68461E+05 1.77806E-10 3.04772E-09
 -1       739-9.58076E+05-1.33700E+05-8.46260E+03-3.49727E+05 3.05597E-10 7.90237E-10
 -1       740-9.65887E+05-1.31377E+05-4.97161E+03-3.56874E+05 2.37731E-09 4.40718E-09
 -1       741-9.40321E+05-1.47292E+05-1.07057E+03-3.71795E+05 4.63911E-09 9.80873E-09
 -1       742-9.69858E+05-1.23339E+05-1.20127E+03-3.46489E+05 3.03174E-09-5.69332E-09
 -1       743-9.36615E+05-1.54743E+05-6.00572E+02-3.81817E+05-1.58464E-10 5.64155E-09
 -1       744-9.69778E+05-1.23772E+05-1.20544E+03-3.46998E+05-1.99420E-08-6.89101E-09
 -1       745-9.41043E+05-1.45972E+05-7.87754E+02-3.70310E+05-1.26296E-08-1.31422E-10
 -1       746-9.65222E+05-1.32281E+05-4.65387E+03-3.57833E+05-2.31938E-09-8.17408E-10
 -1       747-9.59548E+05-1.31809E+05-7.59923E+03-3.48259E+05 1.53405E-09-1.41415E-09
 -1       748-9.51194E+05-1.38012E+05-1.55992E+04-3.68978E+05 1.52272E-09 4.88217E-09
 -1       749-9.93576E+05-1.45419E+05-4.36782E+04-3.29529E+05 1.04865E-09 8.46831E-09
 -1       750-9.31465E+05-1.18509E+05-6.38029E+04-3.76753E+05-4.18368E-10 7.67250E-09
 -1       751 2.32304E+06-1.30958E+05 3.05215E+05 7.10862E+03-1.62106E-08 9.31323E-10
 -1       752 2.45548E+06 1.51685E+05 2.15598E+05-9.02665E+03-3.31403E-09-3.31056E-10
 -1       753 2.37427E+06-2.04211E+04 7.90862E+04 1.66696E+03-6.81155E-10 2.14641E-10
 -1       754 2.39597E+06 2.36407E+04 4.96454E+04-2.26917E+03 2.57671E-10 2.40834E-09
 -1       755 2.38268E+06-3.17892E+03 2.03740E+04 3.52172E+02-8.28280E-11-1.34605E-10
 -1       756 2.38624E+06 3.72654E+03 1.21623E+04-6.32030E+02 8.13181E-10-1.27329E-11
 -1       757 2.38407E+06-5.42451E+02 6.00159E+03 2.98229E+01-5.89577E-11 1.82263E-09
 -1       758 2.38480E+06 9.68907E+02 4.81144E+03-2.43936E+02 5.82765E-09 2.01022E-09
 -1       759 2.38414E+06-4.25526E+02 4.92466E+03-3.59286E+01 1.02849E-09-8.41851E-10
 -1       760 2.38569E+06 2.71646E+03 9.05502E+03-2.19879E+02-8.14848E-10 5.42627E-10
 -1       761 2.38316E+06-2.28721E+03 1.47692E+04 5.76568E+00-1.67628E-10-1.27693E-09
 -1       762 2.39263E+06 1.69724E+04 3.56919E+04-5.05891E+02 9.12358E-10-1.40972E-11
 -1       763 2.37715E+06-1.46560E+04 5.67649E+04 2.50086E+02 4.50403E-09 1.21145E-09
 -1       764 2.43509E+06 1.08806E+05 1.54623E+05-1.77155E+03-1.00115E-10-2.29193E-10
 -1       765 2.34058E+06-9.39336E+04 2.18909E+05 1.27130E+03-1.31300E-09-2.95404E-09
 -1       766-5.57313E+04 3.56227E+05 1.30976E+05-8.38392E+03-6.76664E-10 7.83075E-10
 -1       767 6.85115E+04 4.16644E+05 1.00181E+05 3.33453E+04 4.88399E-10 2.67335E-10
 -1       768-1.26501E+04 3.76872E+05 4.87430E+04-7.45238E+03 3.57431E-10-5.10738E-10
 -1       769 4.13113E+04 4.06884E+05 6.49637E+04 3.54469E+04 5.03860E-10 2.06182E-09
 -1       770-2.86877E+04 3.66129E+05 6.86202E+04-1.04859E+04-9.95351E-09 4.11103E-09
 -1       771-1.28928E+06-2.61463E+05-4.62394E+04-5.57910E+05-4.34738E-10-7.78527E-10
 -1       772-1.28623E+06-2.59931E+05-2.26383E+04-5.76506E+05-1.99543E-09-3.73802E-10
 -1       773-1.29113E+06-2.43892E+05-9.63292E+03-5.65538E+05 1.53159E-09 7.94716E-09
 -1       774-1.28120E+06-2.53973E+05-4.69736E+03-5.77985E+05 1.17689E-09-7.56700E-10
 -1       775-1.29160E+06-2.43077E+05-2.17808E+03-5.65968E+05 1.74623E-10 1.95541E-11
 -1       776-1.28098E+06-2.53703E+05-1.09585E+03-5.78192E+05 9.51331E-10-1.67734E-09
 -1       777-1.29184E+06-2.42996E+05-6.01940E+02-5.66057E+05 4.49290E-10-1.12334E-09
 -1       778-1.28107E+06-2.53664E+05-4.65920E+02-5.78327E+05-1.38243E-10-1.05885E-09
 -1       779-1.29197E+06-2.42919E+05-5.89450E+02-5.66119E+05 4.25462E-09-2.27828E-09
 -1       780-1.28120E+06-2.53636E+05-1.07618E+03-5.78437E+05 1.06702E-08 1.80694E-09
 -1       781-1.29200E+06-2.42844E+05-2.12709E+03-5.66149E+05 4.73483E-09-1.30649E-09
 -1       782-1.28161E+06-2.53870E+05-4.62472E+03-5.78506E+05-3.27418E-11-9.54969E-11
 -1       783-1.29179E+06-2.43467E+05-9.46187E+03-5.65811E+05-4.32237E-10-1.08594E-09
 -1       784-1.28647E+06-2.60028E+05-2.23183E+04-5.77645E+05 5.30918E-10-2.11912E-10
 -1       785-1.29044E+06-2.60432E+05-4.55395E+04-5.58083E+05 3.54589E-10-2.54659E-11
 -1       786 2.47429E+05-7.26472E+03 3.15361E+04-1.75322E+03 3.71074E-10-1.20053E-10
 -1       787 2.58789E+05 9.88908E+03 2.01924E+04-7.00814E+03-4.31555E-10-5.94127E-10
 -1       788 2.52183E+05-7.47639E+02 8.17225E+03-1.74943E+03-2.41016E-11-3.25690E-09
 -1       789 2.53492E+05 9.72145E+02 4.56142E+03-7.00303E+03-7.82734E-11-3.58000E-10
 -1       790 2.52721E+05-8.10058E+01 2.07684E+03-1.75768E+03 1.21531E-10-3.71074E-10
 -1       791 2.52882E+05 9.41238E+01 1.11534E+03-6.99093E+03 3.08773E-10-1.87299E-09
 -1       792 2.52789E+05-1.02865E+01 5.74497E+02-1.76153E+03 9.98455E-11-6.65665E-10
 -1       793 2.52806E+05 1.22743E+01 3.86729E+02-6.98824E+03-8.76099E-12 6.86384E-12
 -1       794 2.52796E+05-6.00209E+00 3.65054E+02-1.76037E+03 1.72008E-10 7.64970E-10
 -1       795 2.52832E+05 4.28602E+01 5.63763E+02-6.99589E+03 3.66072E-11 4.04338E-09
 -1       796 2.52766E+05-3.81530E+01 9.78513E+02-1.75388E+03-1.23578E-10 1.57002E-10
 -1       797 2.53113E+05 4.44392E+02 2.10727E+03-7.01225E+03 2.61309E-10-2.19725E-09
 -1       798 2.52520E+05-3.45009E+02 3.75784E+03-1.74402E+03-1.27341E-09-1.11595E-09
 -1       799 2.55548E+05 4.53730E+03 9.27461E+03-7.01874E+03-1.49998E-09 1.55660E-09
 -1       800 2.50338E+05-3.33891E+03 1.44789E+04-1.74774E+03 6.42103E-10-2.94676E-10
 -1       801-9.32778E+03 2.53385E+05 3.60578E+04-1.95243E+05 9.74978E-10 6.26460E-09
 -1       802 2.11110E+04 2.64176E+05 3.75667E+04-7.62978E+05-4.83851E-09 3.93902E-09
 -1       803-1.29111E+03 2.53865E+05 3.94771E+04-1.94754E+05 2.43381E-09 6.97776E-09
 -1       804 4.64080E+04 2.79693E+05 8.27097E+04-7.62930E+05-6.87578E-09-3.99359E-09
 -1       805-3.00391E+04 2.38417E+05 1.21379E+05-1.95301E+05 2.37196E-09 1.61526E-09
 -1       806-2.42125E+05-6.46185E+04-2.06347E+04-1.11731E+05 1.60867E-09-1.17325E-09
 -1       807-2.42219E+05-5.94097E+04-9.78990E+03-1.18044E+05 4.75711E-09 5.61181E-09
 -1       808-2.42016E+05-5.40801E+04-4.11631E+03-1.16176E+05 1.25510E-10-5.66843E-10
 -1       809-2.40182E+05-5.57066E+04-1.98929E+03-1.18899E+05-1.75532E-10-1.79989E-09
 -1       810-2.42068E+05-5.33584E+04-8.99630E+02-1.16501E+05-7.28051E-10-1.69393E-10
 -1       811-2.39983E+05-5.54608E+04-4.51294E+02-1.18935E+05-2.72792E-10 3.82602E-09
 -1       812-2.42085E+05-5.33368E+04-2.36948E+02-1.16516E+05-4.22403E-10-1.62299E-09
 -1       813-2.39962E+05-5.54541E+04-1.76702E+02-1.18930E+05-8.48729E-10-1.01295E-09
 -1       814-2.42084E+05-5.33397E+04-2.08031E+02-1.16514E+05 2.00293E-09 9.97125E-09
 -1       815-2.39974E+05-5.54625E+04-3.74523E+02-1.18929E+05 1.32081E-09 1.38607E-09
 -1       816-2.42064E+05-5.33610E+04-7.34446E+02-1.16499E+05 2.87446E-09 8.64020E-12
 -1       817-2.40136E+05-5.56601E+04-1.61849E+03-1.18890E+05 1.09912E-09-1.02586E-08
 -1       818-2.42013E+05-5.39555E+04-3.34623E+03-1.16237E+05-3.66435E-09-1.56629E-08
 -1       819-2.41823E+05-5.86321E+04-7.95597E+03-1.18146E+05-1.28784E-09 4.55202E-10
 -1       820-2.42059E+05-6.25520E+04-1.67681E+04-1.12659E+05-8.69022E-10 5.47516E-10
 -1       821-2.45351E+05 7.29410E+03-3.16812E+04 1.80285E+03-1.79830E-09-4.72937E-10
 -1       822-2.56750E+05-9.93566E+03-2.02856E+04 7.39108E+03-1.61981E-09-1.69803E-09
 -1       823-2.50130E+05 7.48395E+02-8.21297E+03 1.75056E+03 1.56456E-09-6.04814E-11
 -1       824-2.51443E+05-9.69161E+02-4.58609E+03 7.46283E+03-1.15017E-09 6.19366E-10
 -1       825-2.50671E+05 8.19265E+01-2.09742E+03 1.73042E+03-4.23108E-09 1.27795E-09
 -1       826-2.50841E+05-8.25984E+01-1.14178E+03 7.49575E+03-9.03214E-09 1.85543E-09
 -1       827-2.50741E+05 1.34098E+01-6.20850E+02 1.71749E+03-4.63660E-09 2.11230E-09
 -1       828-2.50775E+05-8.09936E-01-4.78493E+02 7.51616E+03-5.82253E-09 1.70701E-10
 -1       829-2.50744E+05 1.27137E+01-5.42593E+02 1.70998E+03-7.01277E-10 3.20803E-10
 -1       830-2.50829E+05-6.07341E+01-9.36740E+02 7.52496E+03 4.83714E-09 3.74413E-10
 -1       831-2.50690E+05 6.86558E+01-1.68773E+03 1.70869E+03-4.00046E-09 7.42659E-10
 -1       832-2.51315E+05-7.67153E+02-3.67312E+03 7.52123E+03-1.23600E-09-1.71821E-09
 -1       833-2.50258E+05 6.02893E+02-6.56846E+03 1.71385E+03-9.29163E-10-2.93767E-10
 -1       834-2.55563E+05-7.93514E+03-1.62220E+04 7.49319E+03-1.07138E-09-1.36060E-09
 -1       835-2.46438E+05 5.83815E+03-2.53311E+04 1.73794E+03 1.23896E-09 8.31278E-10
 -1       836-1.16645E+04 6.31641E+05 5.34046E+04-1.72703E+04-1.22236E-09-7.90806E-10
 -1       837 1.79459E+04 6.51242E+05 4.15135E+04-6.63549E+04 3.03771E-09 2.45348E-09
 -1       838-2.81258E+03 6.37935E+05 3.07523E+04-1.72672E+04-1.63936E-09 1.89330E-09
 -1       839 2.37689E+04 6.54694E+05 5.18431E+04-6.63474E+04 2.80852E-09-2.32183E-09
 -1       840-1.63463E+04 6.28178E+05 7.29559E+04-1.72774E+04-1.12414E-09 1.04592E-11
 -1       841-2.88864E+04 1.49027E+02-1.09646E+04-1.27964E+04-2.92857E-09-3.43698E-09
 -1       842-3.49015E+04-9.63006E+03-7.60053E+03-1.06099E+04-1.01414E-09 4.49631E-10
 -1       843-3.11073E+04-3.79135E+03-2.56941E+03-1.20693E+04 2.54454E-09 3.75780E-09
 -1       844-3.23301E+04-5.05919E+03-1.59796E+03-1.14413E+04 1.98304E-09 2.23309E-10
 -1       845-3.14572E+04-4.41502E+03-5.89908E+02-1.19677E+04 8.80888E-10 1.62026E-09
 -1       846-3.19274E+04-4.33067E+03-3.30131E+02-1.15533E+04-3.82343E-09-8.93770E-10
 -1       847-3.15099E+04-4.51879E+03-1.11661E+02-1.19577E+04-4.71355E-09 3.91903E-09
 -1       848-3.18602E+04-4.19693E+03-1.44485E+01-1.15645E+04-3.51032E-09 3.40466E-09
 -1       849-3.15244E+04-4.54854E+03 7.90707E+01-1.19567E+04 3.16206E-09 1.46694E-09
 -1       850-3.17958E+04-4.08787E+03 2.60818E+02-1.15796E+04 6.72920E-09 1.67619E-09
 -1       851-3.15744E+04-4.62770E+03 4.72899E+02-1.19427E+04-3.67961E-09-2.38185E-09
 -1       852-3.14495E+04-3.51528E+03 1.28871E+03-1.16873E+04-2.02301E-09-3.94905E-10
 -1       853-3.18706E+04-5.12036E+03 2.07054E+03-1.18492E+04-1.90360E-09 1.89345E-09
 -1       854-2.93415E+04 1.44281E+02 6.13189E+03-1.23878E+04-3.07409E-10 3.78532E-09
 -1       855-3.36813E+04-8.28181E+03 8.84130E+03-1.12441E+04 6.15273E-10 2.55659E-09
 -1       856-2.89066E+05 6.74132E+03-2.93109E+04 3.63949E+03-3.74575E-09 7.80346E-10
 -1       857-2.99602E+05-9.16610E+03-1.87617E+04 1.50987E+04-5.10249E-09-2.20189E-09
 -1       858-2.93489E+05 6.94504E+02-7.59818E+03 3.55012E+03-4.07090E-09 1.14096E-09
 -1       859-2.94716E+05-8.63902E+02-4.23856E+03 1.52223E+04 3.15765E-09-8.79027E-10
 -1       860-2.93994E+05 8.29916E+01-1.93545E+03 3.51448E+03 2.67619E-10-1.06411E-09
 -1       861-2.94173E+05-3.81307E+01-1.04501E+03 1.52753E+04-6.70445E-09-1.82911E-09
 -1       862-2.94060E+05 2.19354E+01-5.52952E+02 3.49677E+03 6.06462E-09-1.88533E-09
 -1       863-2.94114E+05 4.08078E+01-3.98971E+02 1.52971E+04 1.72456E-08-3.90676E-09
 -1       864-2.94065E+05 1.99994E+01-4.17239E+02 3.49269E+03 7.33729E-09-1.64181E-09
 -1       865-2.94147E+05-2.36955E+00-6.88549E+02 1.52909E+04 1.01422E-08-1.97872E-09
 -1       866-2.94025E+05 5.77510E+01-1.22436E+03 3.50296E+03 1.30183E-09-3.73180E-09
 -1       867-2.94483E+05-5.17240E+02-2.65172E+03 1.52550E+04 1.09821E-09-3.99467E-09
 -1       868-2.93710E+05 4.38007E+02-4.74171E+03 3.52883E+03 3.74257E-10-1.49885E-09
 -1       869-2.97523E+05-5.69549E+03-1.16995E+04 1.51543E+04-7.33417E-09-4.03634E-09
 -1       870-2.90951E+05 4.20571E+03-1.82773E+04 3.60471E+03 6.19821E-10-6.74845E-10
 -1       871-2.72485E+03-2.57222E+04-4.90019E+03 7.37051E+04 4.06362E-09-2.19961E-09
 -1       872-8.89027E+02-2.65928E+04-1.41824E+03 8.61758E+04 4.12911E-09-3.26213E-09
 -1       873 2.62284E+01-2.62774E+04 1.47029E+03 7.35649E+04 9.80435E-10 1.09821E-10
 -1       874 1.69770E+03-2.51025E+04 5.44357E+03 8.62406E+04 2.02454E-09 1.67528E-09
 -1       875 5.64853E+03-2.72638E+04 1.17463E+04 7.36496E+04 3.08819E-09 3.10592E-09
 -1       876 3.44140E+05 4.32840E+04 3.26071E+04 1.35420E+05 3.09456E-09-2.45564E-09
 -1       877 3.51505E+05 6.87142E+04 2.05818E+04 1.40215E+05-1.52448E-09 1.25146E-09
 -1       878 3.49744E+05 5.07414E+04 7.69776E+03 1.34634E+05 1.98543E-09 2.44427E-09
 -1       879 3.45063E+05 5.90248E+04 4.23844E+03 1.41561E+05-1.15004E-08-2.60115E-09
 -1       880 3.50363E+05 5.15673E+04 1.79790E+03 1.34594E+05-7.67886E-09-4.98858E-10
 -1       881 3.44351E+05 5.79769E+04 9.65662E+02 1.41626E+05-1.11218E-08-6.83747E-09
 -1       882 3.50425E+05 5.16718E+04 5.15362E+02 1.34607E+05 7.12271E-09 2.36514E-09
 -1       883 3.44289E+05 5.78646E+04 4.43955E+02 1.41606E+05-6.28901E-09 3.25691E-09
 -1       884 3.50417E+05 5.16753E+04 5.79209E+02 1.34612E+05-3.96389E-09-1.70354E-09
 -1       885 3.44388E+05 5.79826E+04 1.14171E+03 1.41600E+05 1.84953E-08 8.49212E-10
 -1       886 3.50328E+05 5.15636E+04 2.15526E+03 1.34610E+05 7.53539E-09 1.20610E-09
 -1       887 3.45267E+05 5.92200E+04 5.09574E+03 1.41488E+05 4.09705E-09 1.03455E-11
 -1       888 3.49567E+05 5.05846E+04 9.26275E+03 1.34672E+05-1.02469E-09-5.31236E-09
 -1       889 3.53035E+05 7.08607E+04 2.47666E+04 1.39839E+05-5.34419E-09-8.52197E-10
 -1       890 3.42813E+05 4.16215E+04 3.92414E+04 1.35625E+05-3.22507E-09-4.51109E-10
 -1       891 1.23269E+03-1.53483E+05-5.94595E+03 1.66486E+04 8.42533E-09-3.86535E-11
 -1       892-2.10293E+03-1.55587E+05-4.77914E+03 6.49397E+04 3.63207E-09-1.24601E-10
 -1       893 3.32294E+02-1.54158E+05-3.81302E+03 1.65732E+04 2.02988E-09-1.15932E-10
 -1       894-3.24280E+03-1.56256E+05-6.79640E+03 6.49336E+04 4.33783E-09-8.07813E-09
 -1       895 2.14460E+03-1.52804E+05-9.76392E+03 1.66544E+04 7.99218E-09-2.61480E-09
 -1       896 6.98561E+05-5.53919E+03 1.28770E+04 1.34147E+03 1.25539E-10-3.06136E-09
 -1       897 7.04163E+05 6.41253E+03 9.11849E+03-1.64021E+03 3.64295E-10-1.75123E-09
 -1       898 7.00741E+05-8.63122E+02 3.34613E+03 7.03777E+02 2.90385E-10-1.88879E-09
 -1       899 7.01625E+05 9.99976E+02 2.11912E+03-6.70731E+02-3.87461E-10-1.18121E-09
 -1       900 7.01100E+05-1.35499E+02 9.00476E+02 3.71989E+02 3.48045E-10-1.05928E-09
 -1       901 7.01213E+05 1.68260E+02 6.02747E+02-1.33521E+02-1.02554E-10-6.15159E-10
 -1       902 7.01154E+05-3.25774E+01 4.19989E+02 1.66558E+02 8.91234E-11-6.47752E-10
 -1       903 7.01189E+05 1.14867E+02 5.70973E+02 2.60624E+02 3.63103E-10-4.64127E-10
 -1       904 7.01124E+05-8.21873E+01 8.74747E+02-2.21635E+01 1.15574E-09-2.70376E-10
 -1       905 7.01448E+05 5.96726E+02 1.91673E+03 7.21707E+02 1.16236E-09-9.69465E-11
 -1       906 7.00895E+05-5.13874E+02 3.26854E+03-2.94533E+02 2.80828E-10-1.79170E-10
 -1       907 7.03047E+05 3.82851E+03 8.02345E+03 1.49582E+03 2.92648E-10 5.36375E-10
 -1       908 6.99523E+05-3.30912E+03 1.27826E+04-7.96286E+02 7.90244E-10 1.13141E-09
 -1       909 7.12732E+05 2.45793E+04 3.49146E+04 3.01264E+03 1.97695E-09 1.20826E-09
 -1       910 6.91204E+05-2.12283E+04 4.93639E+04-1.81131E+03 2.14408E-09 2.83399E-09
 -1       911 2.22023E+05-3.07623E+03 7.14316E+03 2.46598E+02-1.83779E-09 5.21550E-09
 -1       912 2.25139E+05 3.56852E+03 5.06111E+03-2.78751E+03-1.34282E-09 5.59407E-09
 -1       913 2.23238E+05-4.79814E+02 1.86183E+03 1.01198E+02-1.40583E-09 6.01653E-09
 -1       914 2.23728E+05 5.63490E+02 1.18600E+03-2.64207E+03-5.91504E-10 6.15675E-09
 -1       915 2.23433E+05-7.59104E+01 5.21889E+02 1.01151E+02 1.62927E-09 6.33085E-09
 -1       916 2.23528E+05 1.04699E+02 3.85568E+02-2.78834E+03 1.40977E-09 4.71971E-09
 -1       917 2.23439E+05-2.26432E+01 3.19102E+02 2.47464E+02 1.54322E-09 5.22422E-09
 -1       918 2.23613E+05 1.04012E+02 5.31971E+02-3.25054E+03 1.85310E-10 4.46822E-09
 -1       919 2.23352E+05-7.83059E+01 8.30452E+02 5.63353E+02 2.33086E-10 3.24567E-09
 -1       920 2.24062E+05 5.81429E+02 1.94086E+03-4.10351E+03-1.13231E-09 1.24419E-09
 -1       921 2.23001E+05-5.06658E+02 3.20122E+03 1.10045E+03-5.07072E-10 1.65983E-10
 -1       922 2.26071E+05 3.78413E+03 8.09436E+03-5.48956E+03-2.97973E-10-2.14527E-09
 -1       923 2.21366E+05-3.29195E+03 1.26010E+04 1.94949E+03-9.99250E-10-4.56566E-09
 -1       924 2.36632E+05 2.44734E+04 3.50099E+04-7.69700E+03-2.55471E-09-8.26185E-09
 -1       925 2.12492E+05-2.11933E+04 4.88151E+04 3.30804E+03-1.78795E-09-1.26420E-08
 -1       926-7.91221E+05 1.67720E+04-4.21401E+04-1.59966E+04 2.17801E-09-2.74740E-08
 -1       927-7.99282E+05-1.93085E+04-2.78774E+04 3.74375E+04-1.84991E-08-3.55030E-08
 -1       928-7.92395E+05 2.68084E+03-1.05142E+04-2.23445E+04 1.64928E-09-3.89537E-08
 -1       929-7.92740E+05-2.61277E+03-5.95147E+03 3.89537E+04 1.96944E-08-3.60828E-08
 -1       930-7.97822E+05 1.61520E+02-3.48642E+03-1.75141E+04-4.10978E-10-3.16606E-08
 -1       931-7.80045E+05 1.36578E+02 1.36520E+03 2.05018E+04-1.28972E-08-1.78088E-08
 -1       932-8.04438E+05-5.83348E+02-2.73572E+03-3.88615E+03 9.84073E-10-9.28645E-09
 -1       933-7.76064E+05 6.09071E+02 3.44476E+03-8.62182E+03-1.07229E-09 8.65967E-09
 -1       934-8.01590E+05-4.79747E+02-1.31123E+03 1.16028E+04-2.20666E-09 1.84376E-08
 -1       935-7.86445E+05 7.76206E+02 2.38178E+03-3.34564E+04-3.53077E-09 2.96899E-08
 -1       936-7.94658E+05-2.68181E+02 1.50126E+03 2.09485E+04 1.15068E-09 3.49259E-08
 -1       937-7.91656E+05 2.39665E+03 4.33594E+03-4.13494E+04-1.90021E-08 3.48705E-08
 -1       938-7.96722E+05-1.82174E+03 5.95407E+03 1.95006E+04-1.75315E-08 3.26336E-08
 -1       939-7.77415E+05 1.34062E+04 1.96615E+04-2.84168E+04-1.29825E-08 2.22708E-08
 -1       940-8.08365E+05-1.16786E+04 2.24595E+04 8.00955E+03 1.40062E-10 1.56178E-08
 -1       941 3.72970E+06-1.85272E+05 4.32452E+05 5.42962E+02 1.87932E-08 3.52156E-09
 -1       942 3.91619E+06 2.14649E+05 3.05212E+05 9.60176E+02 2.78671E-08 2.00816E-09
 -1       943 3.80185E+06-2.89114E+04 1.12087E+05 7.07430E+02 1.35726E-06 5.25324E-09
 -1       944 3.83250E+06 3.34750E+04 7.03712E+04 7.70784E+02 2.68234E-06-3.01770E-09
 -1       945 3.81376E+06-4.50321E+03 2.89332E+04 7.32459E+02 1.99886E-06-2.72848E-10
 -1       946 3.81877E+06 5.28871E+03 1.73366E+04 7.41235E+02 1.29959E-06 5.41877E-09
 -1       947 3.81573E+06-7.77610E+02 8.68052E+03 7.37017E+02 1.77810E-06 2.60798E-09
 -1       948 3.81677E+06 1.44372E+03 7.18562E+03 7.31650E+02 2.25253E-06 2.17557E-09
 -1       949 3.81579E+06-6.64309E+02 7.63735E+03 7.42052E+02 1.13047E-06-5.78621E-09
 -1       950 3.81824E+06 4.31028E+03 1.43277E+04 6.97869E+02 6.28850E-09 4.88944E-09
 -1       951 3.81423E+06-3.63958E+03 2.35066E+04 7.70793E+02-2.64458E-09-6.37101E-09
 -1       952 3.82930E+06 2.70200E+04 5.68714E+04 4.83438E+02-2.04686E-09-2.63117E-09
 -1       953 3.80462E+06-2.33325E+04 9.04859E+04 9.56450E+02-8.60352E-09 5.27507E-10
 -1       954 3.89684E+06 1.73224E+05 2.46319E+05-9.24683E+02-4.05808E-09-3.15413E-09
 -1       955 3.74635E+06-1.49526E+05 3.48870E+05 2.17855E+03-1.68178E-08-1.60071E-09
 -1       956-1.97394E+05-3.41488E+03-7.13415E+03 2.75531E+04-4.28554E-09 2.13186E-09
 -1       957-1.98698E+05-1.07616E+03-3.59898E+03 3.19695E+04-1.23327E-09-2.02840E-09
 -1       958-1.97986E+05-1.18194E+02-1.61893E+03 2.73859E+04 2.73303E-09-1.63345E-09
 -1       959-1.98110E+05-2.19814E+00-8.23062E+02 3.21526E+04-9.71340E-10-1.88879E-09
 -1       960-1.98058E+05 4.47044E+01-3.99705E+02 2.73684E+04-1.78989E-09-1.61776E-09
 -1       961-1.98075E+05 5.42415E+01-2.10428E+02 3.21722E+04-6.84304E-09-1.47270E-09
 -1       962-1.98080E+05 5.07050E+01-1.18210E+02 2.73661E+04-3.38514E-09-9.14042E-11
 -1       963-1.98082E+05 6.06336E+01-9.04933E+01 3.21752E+04-4.19254E-09-1.55933E-09
 -1       964-1.98089E+05 5.55984E+01-1.04804E+02 2.73653E+04-3.51747E-10-6.54381E-10
 -1       965-1.98093E+05 6.49281E+01-1.76892E+02 3.21752E+04 5.15257E-09-1.36924E-09
 -1       966-1.98086E+05 5.96823E+01-3.29939E+02 2.73661E+04 2.37605E-10 3.49246E-10
 -1       967-1.98139E+05 2.75338E+01-6.78054E+02 3.21659E+04-2.83353E-09-9.74751E-10
 -1       968-1.98040E+05-6.60638E+01-1.33159E+03 2.73748E+04 5.58452E-09-1.45292E-09
 -1       969-1.98638E+05-8.49235E+02-2.96250E+03 3.20735E+04 2.03081E-08-1.20690E-09
 -1       970-1.97563E+05-2.77542E+03-5.87106E+03 2.74613E+04 1.05551E-08-3.66481E-09
 -1       971-4.02815E+05 5.59380E+03-2.43440E+04 3.56636E+03-2.44790E-09 3.73802E-09
 -1       972-4.11542E+05-7.60994E+03-1.55811E+04 1.50797E+04-4.42810E-09 2.65209E-09
 -1       973-4.06489E+05 5.74936E+02-6.31505E+03 3.45260E+03-5.20231E-09 3.09228E-11
 -1       974-4.07493E+05-7.12430E+02-3.52801E+03 1.52444E+04 2.28010E-09 4.08522E-09
 -1       975-4.06909E+05 6.91312E+01-1.62536E+03 3.40059E+03 3.18551E-10 3.24690E-10
 -1       976-4.07049E+05-2.44821E+01-9.03588E+02 1.53244E+04-6.38818E-09 4.51996E-09
 -1       977-4.06964E+05 2.03816E+01-5.30276E+02 3.37236E+03 7.16614E-09 1.17632E-09
 -1       978-4.07012E+05 3.82069E+01-4.77743E+02 1.53616E+04 1.45676E-08 4.22887E-10
 -1       979-4.06962E+05 2.40441E+01-6.31570E+02 3.36335E+03 9.59559E-09 1.25524E-10
 -1       980-4.07085E+05-4.45963E+01-1.17229E+03 1.53598E+04 1.61608E-08 2.06542E-09
 -1       981-4.06890E+05 9.47225E+01-2.15803E+03 3.37421E+03 1.66096E-09 1.93631E-09
 -1       982-4.07701E+05-9.60035E+02-4.72320E+03 1.53172E+04 1.00044E-11 1.30694E-09
 -1       983-4.06331E+05 7.78998E+02-8.46068E+03 3.40620E+03 4.21119E-09 1.25510E-10
 -1       984-4.13155E+05-1.02039E+04-2.08983E+04 1.52023E+04 3.23371E-09 2.81193E-09
 -1       985-4.01406E+05 7.51865E+03-3.26421E+04 3.49115E+03 7.10497E-09 1.50976E-09
 -3
    1PSTEP                        21          11           1          
  100CL  111 5.76904E-01         841                     0   11           1
 -4  DISP        4    1
 -5  D1          1    2    1    0
 -5  D2          1    2    2    0
 -5  D3          1    2    3    0
 -5  ALL         1    2    0    0    1ALL
 -1         1 7.09752E-05 0.00000E+00 0.00000E+00
 -1         2 5.32594E-05 0.00000E+00 0.00000E+00
 -1         3 4.46341E-05 0.00000E+00 0.00000E+00
 -1         4 3.93128E-05 0.00000E+00 0.00000E+00
 -1         5 3.68586E-05 0.00000E+00 0.00000E+00
 -1         8 5.58068E-05-7.12621E-07 0.00000E+00
 -1         9 4.39748E-05 5.61513E-07 0.00000E+00
 -1        10 4.10084E-05-1.83401E-06 0.00000E+00
 -1        11 3.82639E-05-3.54459E-07 0.00000E+00
 -1        12 3.54488E-05 9.24555E-07 0.00000E+00
 -1        15 2.46587E-05-1.38543E-06 0.00000E+00
 -1        16 3.23769E-05 5.47957E-07 0.00000E+00
 -1        17 2.98035E-05-3.67519E-06 0.00000E+00
 -1        18 3.01994E-05-7.03874E-07 0.00000E+00
 -1        19 3.17447E-05 1.82974E-06 0.00000E+00
 -1        20 3.22338E-05 1.94835E-05 0.00000E+00
 -1        21 3.22168E-05 4.66168E-05 0.00000E+00
 -1        22 8.62701E-06-9.16550E-07 0.00000E+00
 -1        23 1.14483E-05 1.12193E-06 0.00000E+00
 -1        24 1.22375E-05-4.33936E-06 0.00000E+00
 -1        25 2.64695E-05-4.75952E-07 0.00000E+00
 -1        26 2.79816E-05 2.42971E-06 0.00000E+00
 -1        27 2.64705E-05 1.87918E-05 0.00000E+00
 -1        28 2.46811E-05 4.59610E-05 0.00000E+00
 -1        29 0.00000E+00 0.00000E+00 0.00000E+00
 -1        30 4.23793E-06 1.47742E-06 0.00000E+00
 -1        31 5.57271E-06-3.59302E-06 0.00000E+00
 -1        32 0.00000E+00 0.00000E+00 0.00000E+00
 -1        33 2.28198E-05 3.84602E-06 0.00000E+00
 -1        34 2.16161E-05 1.87277E-05 0.00000E+00
 -1        35 1.91438E-05 4.56118E-05 0.00000E+00
 -1        36 6.99032E-05 2.92300E-19-2.64698E-23
 -1        37 6.87960E-05 1.33591E-18 0.00000E+00
 -1        38 6.76911E-05 2.56418E-18 0.00000E+00
 -1        39 6.65795E-05 3.42626E-18 0.00000E+00
 -1        40 6.54677E-05 3.46519E-18-2.64698E-23
 -1        41 6.43546E-05 2.62092E-18 1.32349E-23
 -1        42 6.32414E-05 1.71485E-18-2.64698E-23
 -1        43 6.21279E-05 1.37311E-18-1.32349E-23
 -1        44 6.10144E-05 1.62390E-18 2.64698E-23
 -1        45 5.99010E-05 2.37760E-18-1.32349E-23
 -1        46 5.87877E-05 3.13537E-18-2.64698E-23
 -1        47 5.76752E-05 3.07620E-18-1.32349E-23
 -1        48 5.65629E-05 2.42075E-18-2.64698E-23
 -1        49 5.54550E-05 1.33737E-18 0.00000E+00
 -1        50 5.43456E-05 3.93986E-19 0.00000E+00
 -1        51 6.98312E-05-1.21048E-07 0.00000E+00
 -1        52 6.79343E-05-2.36771E-07 0.00000E+00
 -1        53 6.54302E-05-3.51845E-07 0.00000E+00
 -1        54 6.24718E-05-4.67892E-07-3.30872E-24
 -1        55 5.92125E-05-5.86384E-07 2.06795E-24
 -1        56 6.95779E-05-5.88318E-07-2.64698E-23
 -1        57 6.81636E-05-1.28672E-06-1.32349E-23
 -1        58 6.67686E-05-2.02839E-06 0.00000E+00
 -1        59 6.53636E-05-2.76953E-06-2.64698E-23
 -1        60 6.39388E-05-3.45903E-06 5.29396E-23
 -1        61 6.24757E-05-4.05103E-06-2.64698E-23
 -1        62 6.09605E-05-4.50455E-06 0.00000E+00
 -1        63 5.93795E-05-4.78354E-06 2.64698E-23
 -1        64 5.77231E-05-4.86179E-06 0.00000E+00
 -1        65 5.59841E-05-4.71944E-06-2.64698E-23
 -1        66 5.41598E-05-4.34940E-06-5.29396E-23
 -1        67 5.22513E-05-3.75132E-06 0.00000E+00
 -1        68 5.02626E-05-2.93877E-06 0.00000E+00
 -1        69 4.82090E-05-1.92870E-06-1.32349E-23
 -1        70 4.60911E-05-7.56362E-07 2.64698E-23
 -1        71 5.27193E-05 5.42134E-20 1.32349E-23
 -1        72 5.21793E-05 3.72685E-19 0.00000E+00
 -1        73 5.16392E-05 8.03277E-19 1.32349E-23
 -1        74 5.10992E-05 1.22985E-18 0.00000E+00
 -1        75 5.05591E-05 1.41217E-18 1.32349E-23
 -1        76 5.00190E-05 1.34913E-18 0.00000E+00
 -1        77 4.94790E-05 1.09227E-18 0.00000E+00
 -1        78 4.89390E-05 7.01572E-19 0.00000E+00
 -1        79 4.83989E-05 3.71435E-19 0.00000E+00
 -1        80 4.78590E-05 1.30941E-19 0.00000E+00
 -1        81 4.73191E-05 5.02678E-20 1.32349E-23
 -1        82 4.67795E-05 6.13363E-20 0.00000E+00
 -1        83 4.62400E-05 1.20511E-19 0.00000E+00
 -1        84 4.57021E-05 8.51225E-20-6.61744E-24
 -1        85 4.51637E-05 5.51399E-20 0.00000E+00
 -1        86 5.28674E-05 7.58939E-08 6.61744E-24
 -1        87 5.17058E-05 1.76633E-07 0.00000E+00
 -1        88 5.00129E-05 2.74907E-07-8.27181E-25
 -1        89 4.80238E-05 3.74607E-07 4.13590E-25
 -1        90 4.59431E-05 4.75332E-07 0.00000E+00
 -1        91 5.09162E-05 4.36022E-06 0.00000E+00
 -1        92 4.51192E-05 1.76850E-05 0.00000E+00
 -1        93 3.82791E-05 3.36831E-05 0.00000E+00
 -1        94 3.28747E-05 4.60076E-05 0.00000E+00
 -1        95 3.05423E-05 5.03218E-05 0.00000E+00
 -1        96 3.27521E-05 4.24693E-05-6.61744E-24
 -1        97 3.84686E-05 2.49292E-05-1.32349E-23
 -1        98 4.66269E-05 4.60856E-07 0.00000E+00
 -1        99 5.48988E-05-2.43312E-05 0.00000E+00
 -1       100 6.09574E-05-4.28318E-05 0.00000E+00
 -1       101 6.36196E-05-5.19204E-05 1.32349E-23
 -1       102 6.17219E-05-4.87511E-05-6.61744E-24
 -1       103 5.66057E-05-3.71682E-05 1.32349E-23
 -1       104 4.97822E-05-2.12069E-05-6.61744E-24
 -1       105 4.37603E-05-7.30057E-06 0.00000E+00
 -1       106 4.43013E-05 9.52860E-20 1.32349E-23
 -1       107 4.39680E-05 4.54551E-19 0.00000E+00
 -1       108 4.36348E-05 1.05519E-18-1.32349E-23
 -1       109 4.33016E-05 1.83290E-18 6.61744E-24
 -1       110 4.29683E-05 2.69173E-18 0.00000E+00
 -1       111 4.26350E-05 3.45963E-18 0.00000E+00
 -1       112 4.23017E-05 4.04192E-18 1.32349E-23
 -1       113 4.19685E-05 4.37404E-18 0.00000E+00
 -1       114 4.16352E-05 4.36108E-18 1.32349E-23
 -1       115 4.13020E-05 4.02849E-18 6.61744E-24
 -1       116 4.09688E-05 3.31407E-18 0.00000E+00
 -1       117 4.06358E-05 2.41133E-18-6.61744E-24
 -1       118 4.03029E-05 1.53011E-18 1.32349E-23
 -1       119 3.99711E-05 7.56014E-19 0.00000E+00
 -1       120 3.96390E-05 2.21133E-19-6.61744E-24
 -1       121 4.45577E-05-3.05940E-07 1.32349E-23
 -1       122 4.43019E-05-6.11164E-07-3.30872E-24
 -1       123 4.38424E-05-9.16490E-07 0.00000E+00
 -1       124 4.31556E-05-1.22192E-06-3.30872E-24
 -1       125 4.22183E-05-1.52752E-06-6.61744E-24
 -1       126 4.57425E-05-3.73489E-06 6.61744E-24
 -1       127 4.95173E-05-1.47233E-05 0.00000E+00
 -1       128 5.52373E-05-3.11058E-05-6.61744E-24
 -1       129 6.21900E-05-5.09557E-05 0.00000E+00
 -1       130 6.93817E-05-7.14809E-05 0.00000E+00
 -1       131 7.58214E-05-8.98803E-05 0.00000E+00
 -1       132 8.06876E-05-1.03885E-04 0.00000E+00
 -1       133 8.31518E-05-1.11280E-04 0.00000E+00
 -1       134 8.29476E-05-1.11484E-04 0.00000E+00
 -1       135 7.98272E-05-1.03996E-04 0.00000E+00
 -1       136 7.42664E-05-9.01935E-05-6.61744E-24
 -1       137 6.67892E-05-7.15157E-05-3.30872E-24
 -1       138 5.84203E-05-5.05888E-05-6.61744E-24
 -1       139 5.02099E-05-3.00578E-05 0.00000E+00
 -1       140 4.31643E-05-1.24720E-05-6.61744E-24
 -1       141 3.91568E-05-4.13858E-20 0.00000E+00
 -1       142 3.90020E-05-7.81483E-20 0.00000E+00
 -1       143 3.88471E-05-7.47559E-20 0.00000E+00
 -1       144 3.86924E-05-1.05216E-19 0.00000E+00
 -1       145 3.85377E-05-8.65484E-20 0.00000E+00
 -1       146 3.83831E-05-6.32971E-20 0.00000E+00
 -1       147 3.82284E-05-9.19171E-20 3.30872E-24
 -1       148 3.80739E-05-1.02654E-19 0.00000E+00
 -1       149 3.79193E-05-1.39857E-19 0.00000E+00
 -1       150 3.77648E-05-1.97708E-19 0.00000E+00
 -1       151 3.76104E-05-1.56935E-19 0.00000E+00
 -1       152 3.74565E-05-7.99129E-20 1.65436E-24
 -1       153 3.73026E-05-4.11156E-20-3.30872E-24
 -1       154 3.71510E-05-2.05658E-21 0.00000E+00
 -1       155 3.69987E-05 3.82519E-21 1.03398E-25
 -1       156 4.02730E-05-5.72432E-08 0.00000E+00
 -1       157 4.30642E-05-1.12528E-07 0.00000E+00
 -1       158 4.59568E-05-1.68461E-07 0.00000E+00
 -1       159 4.72207E-05-2.20834E-07 1.65436E-24
 -1       160 4.52045E-05-2.75086E-07-3.30872E-24
 -1       161 3.91404E-05-1.29264E-07-6.61744E-24
 -1       162 3.90096E-05-3.70752E-07 0.00000E+00
 -1       163 3.89065E-05-6.86438E-07 6.61744E-24
 -1       164 3.88168E-05-1.03786E-06 3.30872E-24
 -1       165 3.87233E-05-1.37909E-06 0.00000E+00
 -1       166 3.86088E-05-1.66431E-06 3.30872E-24
 -1       167 3.84605E-05-1.85938E-06 6.61744E-24
 -1       168 3.82658E-05-1.93090E-06 0.00000E+00
 -1       169 3.80215E-05-1.86990E-06 6.61744E-24
 -1       170 3.77246E-05-1.66845E-06 0.00000E+00
 -1       171 3.73826E-05-1.34668E-06-6.61744E-24
 -1       172 3.70038E-05-9.25504E-07 0.00000E+00
 -1       173 3.66030E-05-4.45872E-07 6.61744E-24
 -1       174 3.61984E-05 5.18991E-08 0.00000E+00
 -1       175 3.58031E-05 5.21705E-07 8.27181E-25
 -1       191 3.68083E-05 1.53949E-07-6.61744E-24
 -1       192 3.66814E-05 3.08166E-07 0.00000E+00
 -1       193 3.64795E-05 4.62436E-07 0.00000E+00
 -1       194 3.62051E-05 6.16678E-07-3.30872E-24
 -1       195 3.58605E-05 7.70808E-07 0.00000E+00
 -1       251 5.51403E-05 5.45045E-06 0.00000E+00
 -1       252 5.43977E-05 1.83176E-05 6.61744E-24
 -1       253 5.36409E-05 3.24402E-05 1.32349E-23
 -1       254 5.29302E-05 4.23316E-05 0.00000E+00
 -1       255 5.22592E-05 4.47423E-05 2.64698E-23
 -1       256 5.15589E-05 3.66364E-05-1.32349E-23
 -1       257 5.07688E-05 2.04933E-05-2.64698E-23
 -1       258 4.98822E-05-9.78334E-07 0.00000E+00
 -1       259 4.89992E-05-2.22600E-05 0.00000E+00
 -1       260 4.82175E-05-3.78379E-05 0.00000E+00
 -1       261 4.75227E-05-4.52057E-05-2.64698E-23
 -1       262 4.68499E-05-4.20917E-05-1.32349E-23
 -1       263 4.61347E-05-3.17213E-05 0.00000E+00
 -1       264 4.53770E-05-1.75272E-05 0.00000E+00
 -1       265 4.46379E-05-4.96390E-06 1.32349E-23
 -1       266 5.28635E-05-8.22066E-07 6.61744E-24
 -1       267 4.94285E-05-9.25169E-07 1.65436E-24
 -1       268 4.51735E-05-1.03181E-06 3.30872E-24
 -1       269 3.97742E-05-1.14163E-06-1.65436E-24
 -1       270 3.30082E-05-1.25964E-06 0.00000E+00
 -1       271 5.36946E-05 1.20997E-06-2.64698E-23
 -1       272 5.17652E-05 2.52260E-06 0.00000E+00
 -1       273 5.00379E-05 3.30173E-06 0.00000E+00
 -1       274 4.84798E-05 3.61248E-06 1.32349E-23
 -1       275 4.70686E-05 3.53019E-06-5.29396E-23
 -1       276 4.57744E-05 3.13305E-06 0.00000E+00
 -1       277 4.45671E-05 2.50349E-06 0.00000E+00
 -1       278 4.34148E-05 1.72666E-06 0.00000E+00
 -1       279 4.22850E-05 8.89492E-07 5.29396E-23
 -1       280 4.11452E-05 7.97411E-08 0.00000E+00
 -1       281 3.99626E-05-6.15277E-07 5.29396E-23
 -1       282 3.87059E-05-1.10951E-06-1.32349E-23
 -1       283 3.73432E-05-1.31961E-06 0.00000E+00
 -1       284 3.58496E-05-1.16394E-06 1.32349E-23
 -1       285 3.41899E-05-5.69457E-07-2.64698E-23
 -1       286 4.37845E-05 2.27491E-06 0.00000E+00
 -1       287 4.35991E-05 3.59654E-06 0.00000E+00
 -1       288 4.34138E-05 4.45647E-06 6.61744E-24
 -1       289 4.32297E-05 4.78841E-06 3.30872E-24
 -1       290 4.30456E-05 4.61393E-06 0.00000E+00
 -1       291 4.28615E-05 3.95860E-06-3.30872E-24
 -1       292 4.26771E-05 2.92802E-06 0.00000E+00
 -1       293 4.24925E-05 1.63071E-06 0.00000E+00
 -1       294 4.23076E-05 2.19587E-07-6.61744E-24
 -1       295 4.21229E-05-1.15152E-06 0.00000E+00
 -1       296 4.19383E-05-2.33549E-06-6.61744E-24
 -1       297 4.17538E-05-3.18662E-06-3.30872E-24
 -1       298 4.15695E-05-3.61462E-06 0.00000E+00
 -1       299 4.13843E-05-3.53253E-06-3.30872E-24
 -1       300 4.11993E-05-2.93833E-06 0.00000E+00
 -1       301 4.20372E-05 5.51209E-07-3.30872E-24
 -1       302 4.00908E-05 5.53484E-07 1.65436E-24
 -1       303 3.81436E-05 5.57928E-07-1.65436E-24
 -1       304 3.62035E-05 5.61978E-07 0.00000E+00
 -1       305 3.42787E-05 5.62998E-07-6.61744E-24
 -1       306 4.25465E-05 1.81191E-06 0.00000E+00
 -1       307 4.13218E-05 2.44689E-06 0.00000E+00
 -1       308 4.02964E-05 2.55348E-06 0.00000E+00
 -1       309 3.94346E-05 2.21289E-06 1.32349E-23
 -1       310 3.87072E-05 1.51261E-06 0.00000E+00
 -1       311 3.80803E-05 5.42147E-07 0.00000E+00
 -1       312 3.75200E-05-6.06557E-07-2.64698E-23
 -1       313 3.69913E-05-1.84016E-06-1.32349E-23
 -1       314 3.64591E-05-3.06452E-06-2.64698E-23
 -1       315 3.58885E-05-4.18560E-06 0.00000E+00
 -1       316 3.52445E-05-5.11031E-06-2.64698E-23
 -1       317 3.44935E-05-5.74707E-06 0.00000E+00
 -1       318 3.36018E-05-6.00697E-06 2.64698E-23
 -1       319 3.25408E-05-5.80296E-06 0.00000E+00
 -1       320 3.12745E-05-5.05496E-06 1.32349E-23
 -1       321 4.08407E-05-1.45235E-06-6.61744E-24
 -1       322 4.06783E-05-3.01390E-06 3.30872E-24
 -1       323 4.05121E-05-6.18060E-06-6.61744E-24
 -1       324 4.03424E-05-1.06036E-05 0.00000E+00
 -1       325 4.01696E-05-1.57507E-05 0.00000E+00
 -1       326 3.99961E-05-2.10845E-05 0.00000E+00
 -1       327 3.98244E-05-2.60408E-05-6.61744E-24
 -1       328 3.96568E-05-3.00577E-05-3.30872E-24
 -1       329 3.94935E-05-3.27101E-05-6.61744E-24
 -1       330 3.93332E-05-3.35824E-05 0.00000E+00
 -1       331 3.91727E-05-3.25182E-05 0.00000E+00
 -1       332 3.90080E-05-2.93744E-05-3.30872E-24
 -1       333 3.88358E-05-2.43106E-05 0.00000E+00
 -1       334 3.86538E-05-1.74996E-05 3.30872E-24
 -1       335 3.84623E-05-9.36885E-06 0.00000E+00
 -1       336 3.95135E-05-2.14225E-06 6.61744E-24
 -1       337 3.77999E-05-2.45009E-06 0.00000E+00
 -1       338 3.59194E-05-2.75808E-06 0.00000E+00
 -1       339 3.39245E-05-3.06541E-06 3.30872E-24
 -1       340 3.18683E-05-3.37291E-06 0.00000E+00
 -1       341 3.97484E-05-1.76740E-07-1.32349E-23
 -1       342 3.81086E-05 2.45593E-06 0.00000E+00
 -1       343 3.64809E-05 5.05825E-06 0.00000E+00
 -1       344 3.52441E-05 6.62000E-06 0.00000E+00
 -1       345 3.45748E-05 6.67228E-06-1.32349E-23
 -1       346 3.46320E-05 4.78192E-06 6.61744E-24
 -1       347 3.51988E-05 1.52396E-06 0.00000E+00
 -1       348 3.60470E-05-2.49213E-06 6.61744E-24
 -1       349 3.68037E-05-6.26193E-06 0.00000E+00
 -1       350 3.70981E-05-8.78743E-06 0.00000E+00
 -1       351 3.67971E-05-9.71859E-06-1.32349E-23
 -1       352 3.57823E-05-8.74485E-06 6.61744E-24
 -1       353 3.43050E-05-6.54377E-06-1.32349E-23
 -1       354 3.26354E-05-3.82044E-06 6.61744E-24
 -1       355 3.11369E-05-1.55496E-06 0.00000E+00
 -1       356 3.80597E-05 8.79245E-06 6.61744E-24
 -1       357 3.78603E-05 1.73179E-05 0.00000E+00
 -1       358 3.76694E-05 2.47120E-05 6.61744E-24
 -1       359 3.74888E-05 3.04726E-05 0.00000E+00
 -1       360 3.73168E-05 3.43421E-05 0.00000E+00
 -1       361 3.71505E-05 3.60769E-05-3.30872E-24
 -1       362 3.69857E-05 3.57527E-05 0.00000E+00
 -1       363 3.68184E-05 3.34600E-05 3.30872E-24
 -1       364 3.66466E-05 2.95842E-05 0.00000E+00
 -1       365 3.64698E-05 2.45217E-05 0.00000E+00
 -1       366 3.62899E-05 1.88472E-05 0.00000E+00
 -1       367 3.61103E-05 1.31392E-05-1.65436E-24
 -1       368 3.59336E-05 7.98158E-06 3.30872E-24
 -1       369 3.57643E-05 3.95440E-06 1.65436E-24
 -1       370 3.55989E-05 1.46873E-06 0.00000E+00
 -1       371 3.09130E-05-4.38210E-07-3.30872E-24
 -1       372 2.76851E-05-4.96797E-07 0.00000E+00
 -1       373 2.73088E-05-5.50011E-07 0.00000E+00
 -1       374 2.85068E-05-6.02499E-07 0.00000E+00
 -1       375 2.99225E-05-6.55355E-07 0.00000E+00
 -1       376 3.36489E-05 1.10457E-05-6.61744E-24
 -1       377 2.74535E-05 2.64893E-05 3.30872E-24
 -1       378 2.04913E-05 4.38853E-05 0.00000E+00
 -1       379 1.35904E-05 6.11245E-05-3.30872E-24
 -1       380 7.56371E-06 7.61356E-05 6.61744E-24
 -1       381 3.20344E-06 8.68666E-05-3.30872E-24
 -1       382 8.81168E-07 9.22868E-05 0.00000E+00
 -1       383 9.34539E-07 9.14155E-05 0.00000E+00
 -1       384 3.12744E-06 8.47792E-05-6.61744E-24
 -1       385 7.20978E-06 7.29671E-05-3.30872E-24
 -1       386 1.24964E-05 5.78179E-05 0.00000E+00
 -1       387 1.83052E-05 4.12101E-05-3.30872E-24
 -1       388 2.38365E-05 2.53780E-05 6.61744E-24
 -1       389 2.82915E-05 1.25471E-05 0.00000E+00
 -1       390 3.11089E-05 4.21439E-06 0.00000E+00
 -1       406 3.49483E-05 1.07627E-06 0.00000E+00
 -1       407 3.43909E-05 1.22815E-06 0.00000E+00
 -1       408 3.37840E-05 1.37995E-06 0.00000E+00
 -1       409 3.31354E-05 1.53137E-06 0.00000E+00
 -1       410 3.24529E-05 1.68198E-06 0.00000E+00
 -1       466 2.50994E-05 5.95521E-06 0.00000E+00
 -1       467 2.55792E-05 9.78130E-06 6.61744E-24
 -1       468 2.60643E-05 1.12502E-05 1.32349E-23
 -1       469 2.65542E-05 1.14681E-05 0.00000E+00
 -1       470 2.70441E-05 1.08499E-05 0.00000E+00
 -1       471 2.75345E-05 9.79215E-06 6.61744E-24
 -1       472 2.80246E-05 8.44775E-06 0.00000E+00
 -1       473 2.85146E-05 6.96343E-06 6.61744E-24
 -1       474 2.90044E-05 5.40811E-06-1.32349E-23
 -1       475 2.94941E-05 3.84927E-06 6.61744E-24
 -1       476 2.99836E-05 2.35243E-06-1.32349E-23
 -1       477 3.04721E-05 9.84378E-07 6.61744E-24
 -1       478 3.09606E-05-1.16574E-07-1.32349E-23
 -1       479 3.14429E-05-8.06411E-07 0.00000E+00
 -1       480 3.19276E-05-7.14249E-07 0.00000E+00
 -1       481 1.70630E-05-1.33172E-06 0.00000E+00
 -1       482 1.25177E-05-1.25623E-06 8.27181E-25
 -1       483 1.01844E-05-1.17337E-06-1.65436E-24
 -1       484 9.23312E-06-1.08781E-06 0.00000E+00
 -1       485 8.95081E-06-1.00165E-06 0.00000E+00
 -1       486 1.93549E-05 1.09970E-05 0.00000E+00
 -1       487 1.14361E-05 2.99819E-05 6.61744E-24
 -1       488 3.58264E-06 4.88041E-05 1.32349E-23
 -1       489-1.55355E-06 6.06881E-05 0.00000E+00
 -1       490-2.73238E-06 6.22092E-05 1.32349E-23
 -1       491 1.10659E-06 5.01469E-05-6.61744E-24
 -1       492 8.61479E-06 2.78148E-05 0.00000E+00
 -1       493 1.84466E-05-1.20637E-06 0.00000E+00
 -1       494 2.82160E-05-3.00463E-05 0.00000E+00
 -1       495 3.55342E-05-5.18388E-05 6.61744E-24
 -1       496 3.91128E-05-6.31826E-05 1.32349E-23
 -1       497 3.76644E-05-6.09471E-05 0.00000E+00
 -1       498 3.23214E-05-4.85309E-05-1.32349E-23
 -1       499 2.43975E-05-2.95319E-05 0.00000E+00
 -1       500 1.65488E-05-1.07265E-05 0.00000E+00
 -1       501 3.22067E-05 2.11205E-06 0.00000E+00
 -1       502 3.20455E-05 3.07399E-06 0.00000E+00
 -1       503 3.18843E-05 3.42223E-06 0.00000E+00
 -1       504 3.17246E-05 3.14941E-06 0.00000E+00
 -1       505 3.15647E-05 2.33833E-06-6.61744E-24
 -1       506 3.14046E-05 1.07553E-06 3.30872E-24
 -1       507 3.12443E-05-4.86919E-07-6.61744E-24
 -1       508 3.10837E-05-2.19494E-06 0.00000E+00
 -1       509 3.09232E-05-3.87329E-06 0.00000E+00
 -1       510 3.07630E-05-5.34693E-06-3.30872E-24
 -1       511 3.06033E-05-6.47055E-06 0.00000E+00
 -1       512 3.04439E-05-7.10122E-06 0.00000E+00
 -1       513 3.02847E-05-7.16748E-06 0.00000E+00
 -1       514 3.01252E-05-6.60180E-06-3.30872E-24
 -1       515 2.99652E-05-5.42827E-06 0.00000E+00
 -1       516 3.05770E-05 6.34862E-07 3.30872E-24
 -1       517 2.88766E-05 7.40875E-07 0.00000E+00
 -1       518 2.67185E-05 8.44713E-07 0.00000E+00
 -1       519 2.35433E-05 9.48131E-07-4.13590E-25
 -1       520 1.86798E-05 1.04547E-06 0.00000E+00
 -1       521 3.06317E-05 1.64332E-06 2.64698E-23
 -1       522 2.90720E-05 2.13731E-06 1.32349E-23
 -1       523 2.77062E-05 2.11784E-06 2.64698E-23
 -1       524 2.64976E-05 1.66360E-06 1.32349E-23
 -1       525 2.54185E-05 8.62125E-07-2.64698E-23
 -1       526 2.44347E-05-1.96560E-07 1.32349E-23
 -1       527 2.35120E-05-1.41912E-06-2.64698E-23
 -1       528 2.26149E-05-2.71049E-06 0.00000E+00
 -1       529 2.17076E-05-3.97473E-06 2.64698E-23
 -1       530 2.07546E-05-5.11623E-06-1.32349E-23
 -1       531 1.97205E-05-6.04086E-06 0.00000E+00
 -1       532 1.85719E-05-6.65692E-06-1.32349E-23
 -1       533 1.72751E-05-6.87658E-06 0.00000E+00
 -1       534 1.58035E-05-6.61517E-06 0.00000E+00
 -1       535 1.41215E-05-5.79723E-06 2.64698E-23
 -1       536 2.98173E-05-1.87504E-06 0.00000E+00
 -1       537 2.98405E-05-5.06906E-07-4.13590E-25
 -1       538 2.98640E-05 4.75597E-07 0.00000E+00
 -1       539 2.98891E-05 1.11915E-06 0.00000E+00
 -1       540 2.99146E-05 1.47025E-06-4.13590E-25
 -1       541 2.99403E-05 1.57538E-06 0.00000E+00
 -1       542 2.99662E-05 1.48096E-06 4.13590E-25
 -1       543 2.99921E-05 1.23335E-06-4.13590E-25
 -1       544 3.00179E-05 8.78905E-07 8.27181E-25
 -1       545 3.00438E-05 4.63928E-07 0.00000E+00
 -1       546 3.00696E-05 3.47255E-08 0.00000E+00
 -1       547 3.00955E-05-3.62400E-07 0.00000E+00
 -1       548 3.01214E-05-6.81149E-07-8.27181E-25
 -1       549 3.01474E-05-8.75204E-07 4.13590E-25
 -1       550 3.01733E-05-8.98185E-07-8.27181E-25
 -1       551 2.71797E-05-3.78439E-06 2.68834E-24
 -1       552 2.42601E-05-3.89097E-06-8.27181E-25
 -1       553 2.11741E-05-3.99771E-06 0.00000E+00
 -1       554 1.80539E-05-4.10568E-06 6.61744E-24
 -1       555 1.50317E-05-4.21617E-06 0.00000E+00
 -1       556 2.90322E-05-1.99088E-06 0.00000E+00
 -1       557 2.84092E-05-6.91205E-07 0.00000E+00
 -1       558 2.79178E-05 2.60612E-07 0.00000E+00
 -1       559 2.75423E-05 9.04980E-07 0.00000E+00
 -1       560 2.72673E-05 1.28240E-06 0.00000E+00
 -1       561 2.70772E-05 1.43372E-06 3.30872E-24
 -1       562 2.69567E-05 1.39986E-06 0.00000E+00
 -1       563 2.68903E-05 1.22177E-06 0.00000E+00
 -1       564 2.68626E-05 9.40440E-07-6.61744E-24
 -1       565 2.68582E-05 5.96866E-07 0.00000E+00
 -1       566 2.68619E-05 2.32064E-07 0.00000E+00
 -1       567 2.68582E-05-1.12945E-07-1.65436E-24
 -1       568 2.68318E-05-3.97151E-07 0.00000E+00
 -1       569 2.67677E-05-5.79590E-07 1.80946E-25
 -1       570 2.66509E-05-6.19336E-07 0.00000E+00
 -1       571 3.02920E-05-4.78157E-07-1.03398E-25
 -1       572 3.03876E-05-3.23124E-07 0.00000E+00
 -1       573 3.04841E-05-2.26154E-07-8.27181E-25
 -1       574 3.05810E-05-1.73982E-07 8.27181E-25
 -1       575 3.06780E-05-1.53290E-07 1.65436E-24
 -1       576 3.07751E-05-1.50675E-07-1.65436E-24
 -1       577 3.08722E-05-1.52731E-07 3.30872E-24
 -1       578 3.09693E-05-1.46036E-07-1.65436E-24
 -1       579 3.10664E-05-1.17172E-07 3.30872E-24
 -1       580 3.11635E-05-5.27171E-08-3.30872E-24
 -1       581 3.12606E-05 6.07474E-08 0.00000E+00
 -1       582 3.13577E-05 2.36631E-07 0.00000E+00
 -1       583 3.14548E-05 4.88330E-07 0.00000E+00
 -1       584 3.15517E-05 8.29114E-07 0.00000E+00
 -1       585 3.16485E-05 1.27218E-06 0.00000E+00
 -1       586 2.96619E-05-6.65162E-07 3.30872E-24
 -1       587 2.90461E-05-6.26089E-07 0.00000E+00
 -1       588 2.83852E-05-5.87050E-07 0.00000E+00
 -1       589 2.77129E-05-5.48393E-07 1.55096E-25
 -1       590 2.70632E-05-5.10602E-07 0.00000E+00
 -1       591 3.00405E-05-4.41134E-07 0.00000E+00
 -1       592 2.98946E-05-2.24755E-07 0.00000E+00
 -1       593 2.97620E-05-4.61126E-08 3.30872E-24
 -1       594 2.96402E-05 1.02715E-07-8.27181E-25
 -1       595 2.95264E-05 2.29647E-07 0.00000E+00
 -1       596 2.94179E-05 3.42552E-07 8.27181E-25
 -1       597 2.93116E-05 4.49290E-07 0.00000E+00
 -1       598 2.92046E-05 5.57716E-07-8.27181E-25
 -1       599 2.90941E-05 6.75684E-07 1.65436E-24
 -1       600 2.89771E-05 8.11046E-07-4.13590E-25
 -1       601 2.88506E-05 9.71654E-07-1.65436E-24
 -1       602 2.87118E-05 1.16537E-06-4.13590E-25
 -1       603 2.85578E-05 1.40005E-06 1.24077E-24
 -1       604 2.83859E-05 1.68362E-06 2.06795E-25
 -1       605 2.81936E-05 2.02398E-06 0.00000E+00
 -1       606 3.17788E-05 2.57005E-06 3.30872E-24
 -1       607 3.18105E-05 3.38047E-06 0.00000E+00
 -1       608 3.18416E-05 4.25691E-06-3.30872E-24
 -1       609 3.18722E-05 5.19466E-06 0.00000E+00
 -1       610 3.19027E-05 6.18902E-06 0.00000E+00
 -1       611 3.19330E-05 7.23515E-06 0.00000E+00
 -1       612 3.19633E-05 8.32825E-06 0.00000E+00
 -1       613 3.19936E-05 9.46349E-06 0.00000E+00
 -1       614 3.20238E-05 1.06360E-05 0.00000E+00
 -1       615 3.20539E-05 1.18411E-05 0.00000E+00
 -1       616 3.20840E-05 1.30738E-05-1.65436E-24
 -1       617 3.21141E-05 1.43294E-05 0.00000E+00
 -1       618 3.21442E-05 1.56029E-05 0.00000E+00
 -1       619 3.21742E-05 1.68897E-05 0.00000E+00
 -1       620 3.22041E-05 1.81848E-05 0.00000E+00
 -1       621 3.10464E-05 1.92998E-06 0.00000E+00
 -1       622 3.03660E-05 2.03083E-06-1.65436E-24
 -1       623 2.97116E-05 2.13172E-06 0.00000E+00
 -1       624 2.90909E-05 2.23237E-06 8.27181E-25
 -1       625 2.85118E-05 2.33245E-06 0.00000E+00
 -1       626 3.15241E-05 2.60523E-06 0.00000E+00
 -1       627 3.12747E-05 3.45387E-06 0.00000E+00
 -1       628 3.10000E-05 4.36896E-06 0.00000E+00
 -1       629 3.07031E-05 5.34286E-06 0.00000E+00
 -1       630 3.03869E-05 6.36792E-06 0.00000E+00
 -1       631 3.00543E-05 7.43636E-06 0.00000E+00
 -1       632 2.97083E-05 8.54039E-06 0.00000E+00
 -1       633 2.93519E-05 9.67222E-06 0.00000E+00
 -1       634 2.89879E-05 1.08241E-05-1.65436E-24
 -1       635 2.86194E-05 1.19881E-05 0.00000E+00
 -1       636 2.82491E-05 1.31566E-05 1.65436E-24
 -1       637 2.78801E-05 1.43217E-05 8.27181E-25
 -1       638 2.75152E-05 1.54756E-05 1.65436E-24
 -1       639 2.71571E-05 1.66105E-05 0.00000E+00
 -1       640 2.68085E-05 1.77186E-05-4.13590E-25
 -1       641 3.22347E-05 2.08311E-05 4.13590E-25
 -1       642 3.22345E-05 2.23203E-05-1.03398E-25
 -1       643 3.22342E-05 2.39304E-05 0.00000E+00
 -1       644 3.22335E-05 2.56413E-05 0.00000E+00
 -1       645 3.22327E-05 2.74324E-05 0.00000E+00
 -1       646 3.22317E-05 2.92834E-05 0.00000E+00
 -1       647 3.22307E-05 3.11740E-05 0.00000E+00
 -1       648 3.22296E-05 3.30838E-05 0.00000E+00
 -1       649 3.22285E-05 3.49926E-05-8.07794E-28
 -1       650 3.22274E-05 3.68801E-05 0.00000E+00
 -1       651 3.22263E-05 3.87258E-05 5.16988E-26
 -1       652 3.22253E-05 4.05095E-05-1.03398E-25
 -1       653 3.22243E-05 4.22109E-05 0.00000E+00
 -1       654 3.22228E-05 4.38095E-05-4.13590E-25
 -1       655 3.22216E-05 4.52849E-05 0.00000E+00
 -1       656 3.10657E-05 1.93720E-05 0.00000E+00
 -1       657 3.00546E-05 1.92548E-05 0.00000E+00
 -1       658 2.91451E-05 1.91379E-05-3.30872E-24
 -1       659 2.82817E-05 1.90210E-05 0.00000E+00
 -1       660 2.74087E-05 1.89038E-05-1.65436E-24
 -1       661 3.18578E-05 2.08706E-05 3.30872E-24
 -1       662 3.14451E-05 2.23694E-05 0.00000E+00
 -1       663 3.09968E-05 2.39621E-05 0.00000E+00
 -1       664 3.05199E-05 2.56329E-05 0.00000E+00
 -1       665 3.00197E-05 2.73655E-05 0.00000E+00
 -1       666 2.95024E-05 2.91440E-05 1.65436E-24
 -1       667 2.89739E-05 3.09525E-05 3.30872E-24
 -1       668 2.84400E-05 3.27752E-05 0.00000E+00
 -1       669 2.79066E-05 3.45963E-05-3.30872E-24
 -1       670 2.73799E-05 3.64000E-05 1.65436E-24
 -1       671 2.68656E-05 3.81704E-05-3.30872E-24
 -1       672 2.63696E-05 3.98916E-05 1.65436E-24
 -1       673 2.58981E-05 4.15476E-05 0.00000E+00
 -1       674 2.54560E-05 4.31223E-05-1.65436E-24
 -1       675 2.50508E-05 4.45997E-05 0.00000E+00
 -1       676 3.09576E-05 4.65071E-05 0.00000E+00
 -1       677 2.96992E-05 4.63970E-05 0.00000E+00
 -1       678 2.84419E-05 4.62870E-05 3.30872E-24
 -1       679 2.71862E-05 4.61774E-05-1.65436E-24
 -1       680 2.59324E-05 4.60676E-05 0.00000E+00
 -1       681 8.80217E-06-9.05178E-07 0.00000E+00
 -1       682 8.98213E-06-1.58369E-06 0.00000E+00
 -1       683 9.16134E-06-2.76916E-06-6.61744E-24
 -1       684 9.34108E-06-4.28261E-06 0.00000E+00
 -1       685 9.52052E-06-6.00524E-06 0.00000E+00
 -1       686 9.70000E-06-7.81994E-06-3.30872E-24
 -1       687 9.87951E-06-9.62643E-06 6.61744E-24
 -1       688 1.00592E-05-1.13244E-05-3.30872E-24
 -1       689 1.02393E-05-1.27936E-05 6.61744E-24
 -1       690 1.04197E-05-1.39120E-05 0.00000E+00
 -1       691 1.06004E-05-1.44930E-05 0.00000E+00
 -1       692 1.07810E-05-1.43461E-05 0.00000E+00
 -1       693 1.09607E-05-1.31467E-05 0.00000E+00
 -1       694 1.11358E-05-1.05624E-05 1.65436E-24
 -1       695 1.13047E-05-6.00673E-06-1.65436E-24
 -1       696 7.96432E-06-7.67123E-07 0.00000E+00
 -1       697 6.71499E-06-6.14182E-07 0.00000E+00
 -1       698 5.09270E-06-4.61971E-07-3.30872E-24
 -1       699 3.30862E-06-3.08844E-07 0.00000E+00
 -1       700 1.54896E-06-1.55786E-07-6.61744E-24
 -1       701 8.16168E-06-2.23364E-07 1.65436E-24
 -1       702 7.38863E-06 1.25694E-06 0.00000E+00
 -1       703 6.39167E-06 3.33327E-06-6.61744E-24
 -1       704 5.24351E-06 5.80451E-06 3.30872E-24
 -1       705 4.05073E-06 8.39376E-06-6.61744E-24
 -1       706 2.91825E-06 1.08224E-05 0.00000E+00
 -1       707 1.93950E-06 1.28437E-05 6.61744E-24
 -1       708 1.20611E-06 1.42140E-05 3.30872E-24
 -1       709 7.61138E-07 1.48174E-05 6.61744E-24
 -1       710 6.45094E-07 1.45445E-05 0.00000E+00
 -1       711 8.33673E-07 1.34579E-05 6.61744E-24
 -1       712 1.30049E-06 1.16273E-05 0.00000E+00
 -1       713 1.96422E-06 9.26866E-06-6.61744E-24
 -1       714 2.74428E-06 6.60317E-06 0.00000E+00
 -1       715 3.53350E-06 3.91098E-06-1.65436E-24
 -1       716 1.14728E-05 8.29010E-06-4.13590E-25
 -1       717 1.15174E-05 1.29483E-05 0.00000E+00
 -1       718 1.15690E-05 1.55139E-05-8.27181E-25
 -1       719 1.16244E-05 1.63989E-05 0.00000E+00
 -1       720 1.16803E-05 1.59237E-05-1.65436E-24
 -1       721 1.17353E-05 1.44055E-05 8.27181E-25
 -1       722 1.17890E-05 1.21044E-05-1.65436E-24
 -1       723 1.18414E-05 9.27826E-06-8.27181E-25
 -1       724 1.18929E-05 6.15650E-06 0.00000E+00
 -1       725 1.19441E-05 2.96771E-06 0.00000E+00
 -1       726 1.19957E-05-6.32686E-08 1.65436E-24
 -1       727 1.20476E-05-2.71113E-06 0.00000E+00
 -1       728 1.21008E-05-4.72964E-06 0.00000E+00
 -1       729 1.21518E-05-5.87107E-06 0.00000E+00
 -1       730 1.22045E-05-5.84038E-06-6.61744E-24
 -1       731 4.64853E-06 1.15865E-06 0.00000E+00
 -1       732 1.07582E-06 1.21766E-06 0.00000E+00
 -1       733-3.65369E-08 1.28216E-06 1.65436E-24
 -1       734 5.52076E-07 1.34815E-06 8.27181E-25
 -1       735 2.19231E-06 1.41324E-06 1.65436E-24
 -1       736 7.83601E-06 9.49859E-06 0.00000E+00
 -1       737 4.17572E-06 1.79634E-05-6.61744E-24
 -1       738 1.24845E-06 2.45165E-05 0.00000E+00
 -1       739-2.02652E-07 2.71807E-05 6.61744E-24
 -1       740-7.06211E-10 2.54434E-05 0.00000E+00
 -1       741 1.99521E-06 1.88641E-05 6.61744E-24
 -1       742 5.25687E-06 8.83048E-06 0.00000E+00
 -1       743 9.24589E-06-3.20682E-06-6.61744E-24
 -1       744 1.31595E-05-1.50360E-05 0.00000E+00
 -1       745 1.61948E-05-2.44490E-05 0.00000E+00
 -1       746 1.78691E-05-3.01556E-05 1.32349E-23
 -1       747 1.77119E-05-3.09322E-05 0.00000E+00
 -1       748 1.59382E-05-2.74158E-05 1.32349E-23
 -1       749 1.28004E-05-2.03128E-05 6.61744E-24
 -1       750 9.07533E-06-1.16804E-05 0.00000E+00
 -1       751 1.30731E-05-2.54530E-06 6.61744E-24
 -1       752 1.39625E-05-1.62038E-06 6.61744E-24
 -1       753 1.48489E-05-1.22117E-06 0.00000E+00
 -1       754 1.57453E-05-1.02536E-06 0.00000E+00
 -1       755 1.66421E-05-9.52509E-07 0.00000E+00
 -1       756 1.75409E-05-9.26995E-07 1.32349E-23
 -1       757 1.84399E-05-9.29887E-07 0.00000E+00
 -1       758 1.93392E-05-9.43365E-07 0.00000E+00
 -1       759 2.02386E-05-9.62292E-07 0.00000E+00
 -1       760 2.11378E-05-9.81746E-07 0.00000E+00
 -1       761 2.20368E-05-9.97440E-07 0.00000E+00
 -1       762 2.29344E-05-1.00494E-06-1.32349E-23
 -1       763 2.38318E-05-9.89978E-07-2.64698E-23
 -1       764 2.47220E-05-9.37434E-07 0.00000E+00
 -1       765 2.56146E-05-7.87366E-07 0.00000E+00
 -1       766 1.10121E-05-4.22892E-06 0.00000E+00
 -1       767 1.17473E-05-4.09656E-06 2.06795E-25
 -1       768 1.30297E-05-3.96606E-06 0.00000E+00
 -1       769 1.34491E-05-3.83257E-06-8.27181E-25
 -1       770 1.14777E-05-3.70073E-06 1.93870E-26
 -1       771 1.09166E-05-2.56402E-06-2.64698E-23
 -1       772 9.71508E-06-1.12897E-06 0.00000E+00
 -1       773 8.62899E-06-4.96518E-09-2.64698E-23
 -1       774 7.64784E-06 8.37741E-07 0.00000E+00
 -1       775 6.76096E-06 1.42900E-06-2.64698E-23
 -1       776 5.95716E-06 1.79887E-06 0.00000E+00
 -1       777 5.22512E-06 1.97752E-06-2.64698E-23
 -1       778 4.55349E-06 1.99523E-06-1.32349E-23
 -1       779 3.93088E-06 1.88235E-06 0.00000E+00
 -1       780 3.34587E-06 1.66931E-06 0.00000E+00
 -1       781 2.78705E-06 1.38659E-06 0.00000E+00
 -1       782 2.24306E-06 1.06474E-06-6.61744E-24
 -1       783 1.70258E-06 7.34334E-07 0.00000E+00
 -1       784 1.15475E-06 4.26054E-07 0.00000E+00
 -1       785 5.88825E-07 1.70595E-07-1.32349E-23
 -1       786 2.65583E-05-1.26178E-07 0.00000E+00
 -1       787 2.66525E-05 1.45654E-07 0.00000E+00
 -1       788 2.67467E-05 3.51497E-07 0.00000E+00
 -1       789 2.68417E-05 5.03309E-07 0.00000E+00
 -1       790 2.69369E-05 6.12992E-07 0.00000E+00
 -1       791 2.70322E-05 6.92424E-07 1.65436E-24
 -1       792 2.71276E-05 7.53451E-07 0.00000E+00
 -1       793 2.72229E-05 8.07907E-07 1.65436E-24
 -1       794 2.73183E-05 8.67622E-07-3.30872E-24
 -1       795 2.74137E-05 9.44427E-07-1.65436E-24
 -1       796 2.75091E-05 1.05017E-06-3.30872E-24
 -1       797 2.76044E-05 1.19672E-06 1.65436E-24
 -1       798 2.76996E-05 1.39598E-06 3.30872E-24
 -1       799 2.77944E-05 1.65989E-06 0.00000E+00
 -1       800 2.78893E-05 2.00047E-06 0.00000E+00
 -1       801 2.41123E-05-3.88866E-07 0.00000E+00
 -1       802 1.92163E-05-3.04571E-07 1.65436E-24
 -1       803 1.30685E-05-2.26609E-07 0.00000E+00
 -1       804 6.95773E-06-1.50831E-07 0.00000E+00
 -1       805 2.17246E-06-6.86467E-08 0.00000E+00
 -1       806 2.62301E-05-1.63444E-07 0.00000E+00
 -1       807 2.59996E-05 1.15049E-07 1.65436E-24
 -1       808 2.57785E-05 3.66039E-07 0.00000E+00
 -1       809 2.55649E-05 5.95565E-07 1.65436E-24
 -1       810 2.53570E-05 8.09629E-07 0.00000E+00
 -1       811 2.51526E-05 1.01420E-06 0.00000E+00
 -1       812 2.49495E-05 1.21521E-06-3.30872E-24
 -1       813 2.47455E-05 1.41863E-06 1.65436E-24
 -1       814 2.45383E-05 1.63038E-06 0.00000E+00
 -1       815 2.43258E-05 1.85643E-06-1.65436E-24
 -1       816 2.41058E-05 2.10270E-06-1.65436E-24
 -1       817 2.38759E-05 2.37515E-06 0.00000E+00
 -1       818 2.36342E-05 2.67972E-06 0.00000E+00
 -1       819 2.33785E-05 3.02237E-06 0.00000E+00
 -1       820 2.31070E-05 3.40909E-06 0.00000E+00
 -1       821 2.78930E-05 2.97833E-06-8.27181E-25
 -1       822 2.77989E-05 3.65074E-06 8.27181E-25
 -1       823 2.77048E-05 4.43424E-06 3.30872E-24
 -1       824 2.76098E-05 5.31594E-06-1.65436E-24
 -1       825 2.75146E-05 6.28288E-06 0.00000E+00
 -1       826 2.74191E-05 7.32205E-06 0.00000E+00
 -1       827 2.73236E-05 8.42035E-06 3.30872E-24
 -1       828 2.72280E-05 9.56465E-06 0.00000E+00
 -1       829 2.71323E-05 1.07418E-05 0.00000E+00
 -1       830 2.70366E-05 1.19385E-05 0.00000E+00
 -1       831 2.69410E-05 1.31417E-05 0.00000E+00
 -1       832 2.68455E-05 1.43381E-05-1.65436E-24
 -1       833 2.67501E-05 1.55145E-05 0.00000E+00
 -1       834 2.66554E-05 1.66577E-05 0.00000E+00
 -1       835 2.65607E-05 1.77545E-05 0.00000E+00
 -1       836 2.73264E-05 2.66143E-06 3.30872E-24
 -1       837 2.64411E-05 2.90128E-06 0.00000E+00
 -1       838 2.54367E-05 3.14060E-06 0.00000E+00
 -1       839 2.44243E-05 3.37936E-06 0.00000E+00
 -1       840 2.35150E-05 3.61861E-06 0.00000E+00
 -1       841 2.77653E-05 2.97215E-06 4.13590E-25
 -1       842 2.74973E-05 3.64656E-06 0.00000E+00
 -1       843 2.71843E-05 4.44062E-06-2.06795E-25
 -1       844 2.68311E-05 5.34094E-06 0.00000E+00
 -1       845 2.64433E-05 6.33294E-06-4.13590E-25
 -1       846 2.60266E-05 7.40176E-06 0.00000E+00
 -1       847 2.55870E-05 8.53152E-06-4.13590E-25
 -1       848 2.51304E-05 9.70625E-06 0.00000E+00
 -1       849 2.46631E-05 1.09093E-05 0.00000E+00
 -1       850 2.41914E-05 1.21242E-05-2.06795E-25
 -1       851 2.37216E-05 1.33339E-05 0.00000E+00
 -1       852 2.32600E-05 1.45218E-05 2.06795E-25
 -1       853 2.28128E-05 1.56713E-05 0.00000E+00
 -1       854 2.23859E-05 1.67659E-05 0.00000E+00
 -1       855 2.19857E-05 1.77901E-05 0.00000E+00
 -1       856 2.63647E-05 1.99068E-05 0.00000E+00
 -1       857 2.62536E-05 2.12231E-05 8.27181E-25
 -1       858 2.61423E-05 2.27146E-05 0.00000E+00
 -1       859 2.60300E-05 2.43550E-05-1.65436E-24
 -1       860 2.59174E-05 2.61178E-05 3.30872E-24
 -1       861 2.58045E-05 2.79765E-05-1.65436E-24
 -1       862 2.56914E-05 2.99045E-05 3.30872E-24
 -1       863 2.55782E-05 3.18750E-05-1.65436E-24
 -1       864 2.54650E-05 3.38612E-05 3.30872E-24
 -1       865 2.53519E-05 3.58364E-05 1.65436E-24
 -1       866 2.52388E-05 3.77738E-05-3.30872E-24
 -1       867 2.51259E-05 3.96467E-05 0.00000E+00
 -1       868 2.50133E-05 4.14283E-05 0.00000E+00
 -1       869 2.49013E-05 4.30922E-05 0.00000E+00
 -1       870 2.47895E-05 4.46119E-05 3.30872E-24
 -1       871 2.55801E-05 1.87826E-05 0.00000E+00
 -1       872 2.47535E-05 1.87726E-05 0.00000E+00
 -1       873 2.39676E-05 1.87623E-05 0.00000E+00
 -1       874 2.31985E-05 1.87517E-05-2.06795E-25
 -1       875 2.24225E-05 1.87407E-05-4.13590E-25
 -1       876 2.62032E-05 1.99443E-05 0.00000E+00
 -1       877 2.58772E-05 2.12715E-05 0.00000E+00
 -1       878 2.54945E-05 2.27486E-05 3.30872E-24
 -1       879 2.50646E-05 2.43537E-05 1.65436E-24
 -1       880 2.45951E-05 2.60644E-05 3.30872E-24
 -1       881 2.40942E-05 2.78587E-05 1.65436E-24
 -1       882 2.35700E-05 2.97148E-05 0.00000E+00
 -1       883 2.30309E-05 3.16109E-05 1.65436E-24
 -1       884 2.24848E-05 3.35253E-05-3.30872E-24
 -1       885 2.19399E-05 3.54364E-05 0.00000E+00
 -1       886 2.14044E-05 3.73225E-05-3.30872E-24
 -1       887 2.08863E-05 3.91619E-05 0.00000E+00
 -1       888 2.03939E-05 4.09328E-05 3.30872E-24
 -1       889 1.99344E-05 4.26130E-05 1.65436E-24
 -1       890 1.95174E-05 4.41810E-05-1.65436E-24
 -1       891 2.35956E-05 4.59031E-05 0.00000E+00
 -1       892 2.27214E-05 4.58444E-05 8.27181E-25
 -1       893 2.19490E-05 4.57859E-05 1.65436E-24
 -1       894 2.11685E-05 4.57275E-05 8.27181E-25
 -1       895 2.02699E-05 4.56690E-05 8.27181E-25
 -1       896 2.62835E-07 1.29044E-06 6.61744E-24
 -1       897 5.28300E-07 2.29037E-06 0.00000E+00
 -1       898 7.93808E-07 3.07440E-06 6.61744E-24
 -1       899 1.05985E-06 3.71459E-06-3.30872E-24
 -1       900 1.32597E-06 4.24306E-06 6.61744E-24
 -1       901 1.59221E-06 4.69064E-06-3.30872E-24
 -1       902 1.85849E-06 5.06567E-06-6.61744E-24
 -1       903 2.12479E-06 5.37563E-06-3.30872E-24
 -1       904 2.39111E-06 5.60993E-06 6.61744E-24
 -1       905 2.65737E-06 5.75711E-06 0.00000E+00
 -1       906 2.92360E-06 5.78146E-06-6.61744E-24
 -1       907 3.18950E-06 5.64588E-06 3.30872E-24
 -1       908 3.45529E-06 5.26880E-06 6.61744E-24
 -1       909 3.71930E-06 4.56586E-06 0.00000E+00
 -1       910 3.98337E-06 3.36227E-06 6.61744E-24
 -1       911 4.32226E-06-8.48028E-07 0.00000E+00
 -1       912 4.40750E-06-3.35560E-06-1.65436E-24
 -1       913 4.49240E-06-5.96630E-06 3.30872E-24
 -1       914 4.57750E-06-8.60152E-06-1.65436E-24
 -1       915 4.66272E-06-1.11849E-05 3.30872E-24
 -1       916 4.74831E-06-1.36397E-05-1.65436E-24
 -1       917 4.83438E-06-1.58781E-05 0.00000E+00
 -1       918 4.92106E-06-1.78115E-05 0.00000E+00
 -1       919 5.00841E-06-1.93247E-05 0.00000E+00
 -1       920 5.09634E-06-2.03007E-05 1.65436E-24
 -1       921 5.18463E-06-2.05759E-05 0.00000E+00
 -1       922 5.27249E-06-1.99842E-05-8.27181E-25
 -1       923 5.35902E-06-1.82836E-05 1.65436E-24
 -1       924 5.44091E-06-1.52283E-05 0.00000E+00
 -1       925 5.51676E-06-1.04548E-05 0.00000E+00
 -1       926 5.25416E-06 6.52444E-06-6.61744E-24
 -1       927 4.87820E-06 2.09658E-05 0.00000E+00
 -1       928 4.46907E-06 3.77057E-05 6.61744E-24
 -1       929 4.05474E-06 5.46913E-05-3.30872E-24
 -1       930 3.66838E-06 6.98104E-05 0.00000E+00
 -1       931 3.33181E-06 8.09728E-05 0.00000E+00
 -1       932 3.03620E-06 8.70525E-05 6.61744E-24
 -1       933 2.75830E-06 8.69837E-05 3.30872E-24
 -1       934 2.46482E-06 8.11943E-05 0.00000E+00
 -1       935 2.12902E-06 7.01804E-05 0.00000E+00
 -1       936 1.75209E-06 5.57091E-05 0.00000E+00
 -1       937 1.35066E-06 3.95884E-05 0.00000E+00
 -1       938 9.57511E-07 2.40283E-05 0.00000E+00
 -1       939 6.01053E-07 1.12329E-05 0.00000E+00
 -1       940 2.87668E-07 2.73080E-06-1.32349E-23
 -1       941 1.35277E-06 1.83972E-07-1.32349E-23
 -1       942 2.77999E-06 3.87263E-07 1.32349E-23
 -1       943 4.20252E-06 6.01218E-07 0.00000E+00
 -1       944 5.63920E-06 8.17888E-07 0.00000E+00
 -1       945 7.07630E-06 1.03606E-06 5.29396E-23
 -1       946 8.51622E-06 1.25461E-06 0.00000E+00
 -1       947 9.95647E-06 1.47341E-06 5.29396E-23
 -1       948 1.13972E-05 1.69230E-06 0.00000E+00
 -1       949 1.28380E-05 1.91143E-06-5.29396E-23
 -1       950 1.42784E-05 2.13092E-06 0.00000E+00
 -1       951 1.57185E-05 2.35185E-06-5.29396E-23
 -1       952 1.71565E-05 2.57538E-06 0.00000E+00
 -1       953 1.85940E-05 2.80919E-06-5.29396E-23
 -1       954 2.00201E-05 3.06162E-06 1.32349E-23
 -1       955 2.14501E-05 3.38741E-06 0.00000E+00
 -1       956 2.27462E-05 4.44564E-06-8.27181E-25
 -1       957 2.26713E-05 5.13033E-06 5.16988E-25
 -1       958 2.25962E-05 5.89185E-06 0.00000E+00
 -1       959 2.25208E-05 6.72136E-06-8.27181E-25
 -1       960 2.24454E-05 7.60998E-06 8.27181E-25
 -1       961 2.23699E-05 8.54878E-06 0.00000E+00
 -1       962 2.22944E-05 9.52880E-06 0.00000E+00
 -1       963 2.22188E-05 1.05411E-05 0.00000E+00
 -1       964 2.21432E-05 1.15767E-05-1.65436E-24
 -1       965 2.20676E-05 1.26267E-05-8.27181E-25
 -1       966 2.19920E-05 1.36821E-05 0.00000E+00
 -1       967 2.19164E-05 1.47340E-05 1.65436E-24
 -1       968 2.18409E-05 1.57734E-05-3.30872E-24
 -1       969 2.17655E-05 1.67913E-05 0.00000E+00
 -1       970 2.16903E-05 1.77790E-05 3.30872E-24
 -1       971 2.14665E-05 1.97479E-05 0.00000E+00
 -1       972 2.13124E-05 2.09809E-05 0.00000E+00
 -1       973 2.11581E-05 2.24007E-05 0.00000E+00
 -1       974 2.10030E-05 2.39807E-05 1.65436E-24
 -1       975 2.08475E-05 2.56942E-05 0.00000E+00
 -1       976 2.06918E-05 2.75143E-05-1.65436E-24
 -1       977 2.05359E-05 2.94141E-05 0.00000E+00
 -1       978 2.03798E-05 3.13664E-05 1.65436E-24
 -1       979 2.02238E-05 3.33439E-05 0.00000E+00
 -1       980 2.00677E-05 3.53195E-05 0.00000E+00
 -1       981 1.99118E-05 3.72659E-05 3.30872E-24
 -1       982 1.97561E-05 3.91559E-05 0.00000E+00
 -1       983 1.96007E-05 4.09624E-05 0.00000E+00
 -1       984 1.94463E-05 4.26584E-05 0.00000E+00
 -1       985 1.92921E-05 4.42171E-05 3.30872E-24
 -3
    1PSTEP                        22          11           1          
  100CL  111 5.76904E-01         841                     0   11           1
 -4  STRESS      6    1
 -5  SXX         1    4    1    1
 -5  SYY         1    4    2    2
 -5  SZZ         1    4    3    3
 -5  SXY         1    4    1    2
 -5  SYZ         1    4    2    3
 -5  SZX         1    4    3    1
 -1         1-2.35976E+06-7.59932E+05-4.85605E+05-6.83913E+05-3.63798E-10 1.83354E-09
 -1         2-1.46153E+06-5.25985E+04 5.80114E+03-1.15410E+05-2.64345E-09 9.42691E-10
 -1         3-7.59527E+05-2.67611E+05-2.07576E+04-5.88820E+04 3.75053E-10-1.53386E-09
 -1         4-4.48970E+05-7.29642E+04 6.53205E+02-3.19246E+04 5.20231E-10-2.20683E-09
 -1         5-2.34017E+05 1.09139E+05-1.09537E+05-7.11239E+03 5.84441E-09 1.72469E-09
 -1         8-1.23171E+06-4.87396E+05-1.80515E+05-4.48543E+05 1.21872E-10 6.11180E-10
 -1         9-1.34169E+06-3.03024E+05-1.64576E+05-2.96041E+05-3.41364E-10 1.27329E-09
 -1        10-6.68510E+05-3.63552E+05-2.36249E+04-1.48828E+05-3.27403E-09-2.57448E-09
 -1        11-3.37980E+05-7.67416E+04 3.36280E+03-3.73687E+04 1.79934E-08 2.17464E-09
 -1        12-2.59097E+05 8.91248E+04-1.17412E+05-4.50062E+04 6.65216E-09 8.87269E-10
 -1        15 3.57127E+03-1.17721E+04 5.42406E+03-7.03422E+04 2.26464E-10-2.91038E-09
 -1        16-7.91671E+05-1.45517E+05 2.17947E+04-3.41963E+05 1.75108E-09-1.65225E-10
 -1        17-4.73369E+05-3.13352E+05-5.32980E+04-2.52083E+05 1.60677E-10 1.10352E-09
 -1        18-2.30239E+05-1.12300E+05-8.48536E+04-1.20498E+05-1.02924E-09 1.40669E-09
 -1        19-1.09242E+04 7.18189E+04-3.70807E+04-3.27825E+04-2.15626E-09 6.70601E-10
 -1        20 8.17532E+04-5.99963E+04-9.92431E+03 4.36467E+04 5.05315E-09-4.81668E-09
 -1        21 7.64790E+02-1.21668E+05 3.06552E+04 3.38692E+02 9.86768E-09 1.20622E-09
 -1        22 2.49560E+04 1.41374E+05 8.98840E+02-2.99224E+04-2.54204E-10 4.49290E-10
 -1        23-2.54758E+05 3.40543E+04 5.18463E+03-8.87057E+04-3.84640E-09 1.01136E-09
 -1        24-1.68211E+05 1.87455E+04 2.01251E+05-3.47197E+05-6.64234E-09 2.40834E-09
 -1        25 4.37958E+05 1.52593E+05 1.36980E+05-2.24990E+05 6.89245E-10-1.18416E-09
 -1        26 1.90342E+03 1.36306E+05 7.08474E+03-2.63877E+04 1.19098E-09 1.07821E-09
 -1        27-3.18604E+04-5.13075E+04-2.22044E+04 5.88482E+04 5.45939E-09-3.58341E-10
 -1        28-1.03041E+04-9.51320E+04-5.61031E+02 4.58027E+04 1.59105E-09-1.77057E-09
 -1        29 3.63914E+05 2.39388E+05 9.82388E+02-4.63551E+03 2.89395E-10-2.97678E-09
 -1        30 1.32133E+05 3.43547E+04 1.39827E+03-2.73909E+04-5.11215E-10 3.94448E-09
 -1        31-3.47677E+05 4.66297E+04 5.19612E+03-4.68898E+04-5.25439E-09-6.85213E-09
 -1        32 6.32856E+05 3.56149E+05 4.28560E+05-3.58829E+05 1.17223E-08 1.89175E-09
 -1        33 1.00347E+06 4.26038E+05 3.13707E+05-3.86746E+04-1.26668E-08-4.01087E-10
 -1        34-1.65228E+05-2.34164E+04-7.03799E+03 3.09036E+04 1.74665E-09 5.63887E-11
 -1        35-2.65609E+04-3.14807E+04-5.85103E+02 6.79074E+04 1.02402E-08-3.19415E-09
 -1        36-3.13607E+06 9.44468E+04-2.19198E+05-2.11684E-07-1.03691E-09 1.00408E-09
 -1        37-3.23084E+06-1.09353E+05-1.54989E+05-2.97147E-07 2.05377E-09-5.06407E-09
 -1        38-3.17265E+06 1.47295E+04-5.67018E+04-1.37935E-07 1.99802E-09 2.33558E-09
 -1        39-3.18807E+06-1.70487E+04-3.55951E+04 1.34018E-07-6.32145E-10 1.72076E-09
 -1        40-3.17863E+06 2.29236E+03-1.45552E+04-2.10339E-07-1.91095E-09-5.38785E-09
 -1        41-3.18104E+06-2.68409E+03-8.66668E+03-5.55099E-09-1.33709E-09 1.50158E-09
 -1        42-3.17961E+06 3.88149E+02-4.22600E+03-1.07432E-07 2.14484E-09 3.31238E-09
 -1        43-3.17999E+06-6.75516E+02-3.31631E+03 4.00477E-07 4.14852E-09-1.96349E-09
 -1        44-3.17967E+06 2.86730E+02-3.30342E+03-1.49558E-07-2.26385E-09 2.03909E-09
 -1        45-3.18056E+06-1.80819E+03-5.99847E+03-1.42384E-07-8.43646E-10 8.23093E-10
 -1        46-3.17904E+06 1.51908E+03-9.74401E+03 8.37820E-08 3.52780E-10-7.63521E-10
 -1        47-3.18519E+06-1.12691E+04-2.35839E+04-5.53387E-08 6.72604E-10 9.44056E-10
 -1        48-3.17509E+06 9.73206E+03-3.74966E+04 7.89618E-08-1.28089E-09 1.15688E-09
 -1        49-3.21344E+06-7.22496E+04-1.02418E+05 4.11806E-08-3.46346E-09-9.09495E-11
 -1        50-3.15094E+06 6.23958E+04-1.44876E+05-6.98615E-08-3.02477E-09-1.35333E-09
 -1        51 2.63860E+04-3.08468E+05 4.25983E+04-8.31408E+05-1.01863E-10 5.08589E-09
 -1        52 1.19766E+04-3.04775E+05 2.57658E+04-9.16920E+05 1.67347E-10-4.87489E-10
 -1        53 7.71573E+03-3.13169E+05 2.05199E+04-8.29204E+05-9.45874E-11 8.58563E-10
 -1        54 1.77880E+04-3.10062E+05 3.09745E+04-9.19266E+05-5.02041E-10 3.13958E-09
 -1        55 4.06210E+04-3.19973E+05 5.59024E+04-8.28806E+05 3.63798E-11 4.82760E-09
 -1        56-3.63063E+06-4.09784E+05-2.98073E+05-1.40401E+06-2.69210E-10-3.92902E-09
 -1        57-3.76612E+06-6.57416E+05-2.00026E+05-1.37435E+06 4.81123E-10-2.42289E-09
 -1        58-3.68858E+06-5.03906E+05-7.01659E+04-1.38765E+06-4.27463E-11 5.67525E-10
 -1        59-3.69942E+06-5.46281E+05-4.16011E+04-1.39365E+06-1.20508E-09 8.39009E-10
 -1        60-3.69650E+06-5.17184E+05-1.63936E+04-1.38597E+06 2.95586E-11 4.37467E-10
 -1        61-3.69101E+06-5.29928E+05-9.27668E+03-1.39473E+06-6.05723E-10-1.77909E-09
 -1        62-3.69682E+06-5.19793E+05-4.52780E+03-1.38671E+06 1.74600E-09 3.83125E-09
 -1        63-3.69188E+06-5.26028E+05-3.79269E+03-1.39257E+06-1.13778E-09 2.44609E-09
 -1        64-3.69559E+06-5.21044E+05-4.43237E+03-1.38813E+06-1.05501E-10 2.77510E-09
 -1        65-3.69568E+06-5.25095E+05-8.98405E+03-1.38928E+06-3.88809E-10-9.80435E-09
 -1        66-3.69304E+06-5.20779E+05-1.58510E+04-1.38998E+06-6.63022E-10 1.22054E-09
 -1        67-3.70769E+06-5.36984E+05-4.01780E+04-1.38378E+06 7.52266E-10 1.26374E-09
 -1        68-3.68374E+06-5.09609E+05-6.77731E+04-1.39350E+06 4.74756E-10 3.42698E-09
 -1        69-3.77458E+06-6.41857E+05-1.93175E+05-1.36234E+06 1.34787E-09-3.34694E-10
 -1        70-3.62697E+06-4.19504E+05-2.87884E+05-1.41020E+06-1.76078E-09-3.78350E-10
 -1        71-1.54358E+06-2.94623E+01 6.59308E+01-1.91937E-07 4.64592E-10 8.06725E-10
 -1        72-1.54341E+06 3.38363E+01 4.16063E+01 1.16803E-07-3.39826E-10 5.93950E-10
 -1        73-1.54356E+06-4.31131E+00 3.80179E+00 5.46003E-08 1.00052E-09-2.74605E-09
 -1        74-1.54342E+06 3.02913E+00-1.84352E+01 4.33300E-08 1.63153E-10-5.85846E-09
 -1        75-1.54356E+06 1.29319E+00-5.22582E+01-2.52611E-08-2.40784E-10-1.48057E-09
 -1        76-1.54343E+06-1.46187E+01-1.18732E+02-2.20952E-07-1.51266E-09 7.66160E-09
 -1        77-1.54355E+06 1.33231E+01-2.26572E+02-1.03478E-07-3.36084E-10 2.05947E-09
 -1        78-1.54349E+06-1.01539E+02-5.00114E+02-1.50503E-07 2.27168E-10 3.09512E-09
 -1        79-1.54351E+06 8.81202E+01-9.08960E+02-1.80982E-07 2.94644E-10 1.41750E-09
 -1        80-1.54378E+06-6.60618E+02-2.09101E+03 1.05147E-07-6.52329E-10 1.18030E-09
 -1        81-1.54326E+06 5.71589E+02-3.60873E+03-3.01938E-08-1.74623E-10-2.33604E-09
 -1        82-1.54555E+06-4.25925E+03-8.88991E+03-3.24865E-08-1.79675E-09-3.75758E-09
 -1        83-1.54176E+06 3.68077E+03-1.41842E+04-9.78980E-08-1.33464E-09-1.25328E-09
 -1        84-1.55623E+06-2.73276E+04-3.87575E+04-1.04134E-07-1.34335E-09 3.64707E-09
 -1        85-1.53260E+06 2.35988E+04-5.48461E+04-1.07488E-07-1.74997E-09 1.20053E-10
 -1        86-7.13080E+04 2.73045E+05 1.68621E+05 1.79310E+03-1.45519E-11-6.08082E-10
 -1        87 8.91047E+04 3.48697E+05 1.30769E+05-7.93702E+03-1.20053E-10-2.51859E-09
 -1        88-1.76224E+04 2.97821E+05 6.71896E+04 1.00975E+03-5.30235E-10 3.57855E-09
 -1        89 6.21769E+04 3.35936E+05 9.55316E+04-7.00106E+03 6.00267E-11 4.75069E-10
 -1        90-4.44252E+04 2.85773E+05 1.08025E+05 8.57336E+02-6.69388E-10 1.82059E-09
 -1        91-1.52819E+06-2.47050E+05-2.50796E+04-6.20174E+05 4.67207E-09-7.88532E-10
 -1        92-1.58460E+06-1.25222E+05-2.75731E+03-4.57738E+05 1.16615E-08 2.42778E-09
 -1        93-1.48666E+06-2.57013E+05-4.52126E+03-6.25458E+05 6.45747E-09 4.06317E-10
 -1        94-1.52304E+06-1.43170E+05 1.25942E+04-4.79179E+05-6.73253E-09-2.68221E-09
 -1        95-1.58816E+06-2.30736E+05-1.58403E+04-5.97317E+05-4.03634E-09-7.07132E-10
 -1        96-1.41603E+06-2.30400E+05 1.79042E+04-5.79221E+05 1.25087E-08-1.77923E-09
 -1        97-1.59276E+06-1.70569E+05-4.51490E+03-5.24759E+05 9.32141E-09-3.49814E-10
 -1        98-1.41624E+06-2.90383E+05 6.29202E+03-6.57144E+05-3.49227E-08 1.11356E-09
 -1        99-1.59049E+06-1.67980E+05-4.10557E+03-5.21638E+05-5.47232E-08-4.27372E-09
 -1       100-1.41476E+06-2.36266E+05 1.56365E+04-5.85685E+05-2.73940E-08-3.07625E-09
 -1       101-1.59186E+06-2.27311E+05-1.88915E+04-5.94106E+05-6.16137E-09-2.52248E-09
 -1       102-1.51779E+06-1.50668E+05 5.72083E+03-4.81888E+05 3.94886E-09 4.24416E-09
 -1       103-1.48804E+06-2.53133E+05-1.74748E+04-6.25801E+05 8.67590E-09 4.26280E-09
 -1       104-1.60220E+06-1.50395E+05-3.97267E+04-4.52139E+05-9.23137E-10 7.86304E-09
 -1       105-1.50934E+06-2.25718E+05-7.69234E+04-6.25504E+05 8.40191E-09 3.25235E-09
 -1       106-9.52446E+05 1.10466E+03-2.57028E+03-1.05616E-07-1.90720E-10-7.08860E-09
 -1       107-9.53473E+05-1.27947E+03-1.81950E+03-9.45640E-08-3.74563E-10-2.76003E-10
 -1       108-9.52874E+05 1.72499E+02-6.73990E+02 6.70399E-08-2.18731E-10 1.38755E-10
 -1       109-9.52974E+05-2.00967E+02-4.36797E+02-4.74572E-08 2.02539E-10-4.07685E-09
 -1       110-9.52944E+05 2.81426E+01-2.08303E+02-2.69102E-08 2.97614E-10-9.16600E-11
 -1       111-9.52898E+05-4.15795E+01-1.81802E+02-1.08042E-07-4.27078E-11 2.17968E-09
 -1       112-9.52950E+05 1.33919E+01-1.99904E+02-1.88576E-07-4.44013E-10-2.60042E-09
 -1       113-9.52920E+05-7.48861E+01-3.69266E+02 2.73468E-08-1.18555E-09-4.86970E-09
 -1       114-9.52922E+05 6.14237E+01-6.38541E+02-2.65125E-07-9.49634E-10-9.07789E-11
 -1       115-9.53123E+05-4.56402E+02-1.44930E+03-5.31948E-08-8.32203E-10-1.00897E-09
 -1       116-9.52748E+05 3.94352E+02-2.49390E+03 5.89277E-08 2.69830E-10-1.11379E-09
 -1       117-9.54337E+05-2.93794E+03-6.13646E+03 1.27340E-07 5.23347E-11-2.86639E-09
 -1       118-9.51711E+05 2.53879E+03-9.78929E+03-6.37606E-09-7.95191E-10-5.22959E-10
 -1       119-9.61702E+05-1.88490E+04-2.67396E+04-9.31147E-08-9.22684E-10 1.26238E-09
 -1       120-9.45395E+05 1.62769E+04-3.78389E+04 4.07866E-08 1.53180E-10-2.11003E-09
 -1       121-1.12286E+03-8.72918E+05 4.93264E+03 4.06639E+03-1.19599E-10 1.56797E-09
 -1       122 1.58783E+03-8.70958E+05 3.56708E+03 1.56476E+04-3.00133E-10-1.13278E-09
 -1       123-2.35161E+02-8.72261E+05 2.19178E+03 4.27412E+03-4.16890E-10-7.13953E-10
 -1       124 1.32766E+03-8.71051E+05 3.13789E+03 1.51646E+04-2.43631E-10-4.41742E-09
 -1       125-9.57800E+02-8.72756E+05 4.10498E+03 4.54953E+03-7.66704E-10-3.44744E-09
 -1       126-6.45618E+05-9.18568E+04 1.35757E+04-2.25660E+05 2.20025E-08-3.15595E-10
 -1       127-5.50422E+05-9.73104E+04 1.97101E+04-2.53080E+05 1.63081E-08 1.85560E-09
 -1       128-6.34240E+05-6.91000E+04 3.44828E+03-2.08396E+05-1.33773E-08-8.53629E-09
 -1       129-5.65460E+05-1.22623E+05 3.84378E+03-2.73528E+05-2.18492E-08-9.93805E-09
 -1       130-6.31588E+05-6.58104E+04 8.13219E+02-2.05939E+05-2.47570E-08 2.18415E-09
 -1       131-5.59467E+05-1.14212E+05 4.76958E+03-2.59314E+05-7.72116E-09 2.89592E-09
 -1       132-6.39575E+05-7.80067E+04-4.02191E+03-2.22131E+05 1.54384E-08 5.89898E-09
 -1       133-5.58432E+05-8.64449E+04 9.79185E+03-2.22607E+05 1.00902E-08 3.08791E-09
 -1       134-6.31498E+05-9.44163E+04-6.06006E+03-2.41790E+05-1.18462E-10 4.85431E-09
 -1       135-5.95666E+05-5.98621E+04 7.18012E+03-1.93525E+05-1.73944E-08-2.25782E-10
 -1       136-6.02756E+05-1.04276E+05-3.40868E+03-2.51493E+05-4.99449E-09 1.58059E-09
 -1       137-6.41319E+05-4.77296E+04-1.37968E+03-1.82981E+05 1.78869E-08 1.35269E-08
 -1       138-5.87043E+05-1.05663E+05-4.98696E+03-2.53275E+05 8.30255E-10 4.42810E-09
 -1       139-6.41511E+05-5.65652E+04-1.24242E+04-1.82090E+05 3.52566E-08 2.92637E-08
 -1       140-6.02447E+05-9.55442E+04-2.53400E+04-2.52282E+05 5.27871E-09-7.96445E-09
 -1       141-4.43708E+05-3.16007E+03 7.34559E+03-7.62296E-08 3.83960E-10 4.37467E-10
 -1       142-4.40486E+05 3.65920E+03 5.18325E+03-1.64676E-08 4.71927E-10 5.24278E-09
 -1       143-4.42481E+05-4.92514E+02 1.88199E+03 9.83478E-09 1.60614E-10 2.03090E-09
 -1       144-4.41918E+05 5.67209E+02 1.15041E+03-6.54014E-08 4.85849E-11-1.91173E-09
 -1       145-4.42278E+05-7.37505E+01 4.04648E+02-7.93542E-08 1.68563E-10-2.99255E-09
 -1       146-4.42167E+05 6.69436E+01 1.10849E+02-1.17216E-07 1.64303E-10 6.19828E-10
 -1       147-4.42233E+05 6.92404E+00-1.96288E+02 1.11630E-07-1.96706E-10 1.92659E-09
 -1       148-4.42279E+05-1.28124E+02-6.32421E+02-2.52372E-08 3.44255E-12 2.86248E-09
 -1       149-4.42166E+05 1.21079E+02-1.23970E+03-9.44428E-08-3.43751E-10 4.25189E-11
 -1       150-4.42700E+05-9.18942E+02-2.90364E+03-1.15983E-07 1.18921E-10-5.00950E-09
 -1       151-4.41812E+05 7.96607E+02-5.03110E+03-2.06557E-07-7.39470E-11-1.90676E-09
 -1       152-4.45155E+05-5.93746E+03-1.24016E+04-5.18858E-08-1.22573E-10 5.36693E-09
 -1       153-4.39714E+05 5.13124E+03-1.97904E+04 1.57543E-08 1.45869E-09 9.19499E-10
 -1       154-4.60038E+05-3.80962E+04-5.40532E+04 8.47584E-08 3.96674E-10 1.33878E-09
 -1       155-4.26934E+05 3.28985E+04-7.64763E+04-1.97415E-08 3.52709E-09 1.53887E-09
 -1       156-1.48904E+04-1.52028E+05 3.46636E+04-1.28722E+04-4.49836E-09 6.76323E-10
 -1       157 1.87874E+04-1.32234E+05 2.81831E+04 5.32356E+04-1.14576E-08 6.44690E-10
 -1       158-3.73653E+03-1.46620E+05 1.49168E+04-1.29137E+04-5.77631E-09-2.19734E-09
 -1       159 1.60444E+04-1.22971E+05 2.58732E+04 5.12108E+04-2.41357E-09-1.86589E-09
 -1       160-1.25793E+04-1.60706E+05 2.45757E+04-1.08494E+04 1.08066E-08-5.03405E-10
 -1       161-4.86405E+05-6.72341E+04-2.51861E+03-1.82585E+05-9.82595E-10-3.53270E-09
 -1       162-4.86909E+05-7.02940E+04-1.74826E+03-1.83008E+05-5.73593E-10-2.14328E-10
 -1       163-4.87036E+05-6.80099E+04-6.01323E+02-1.82271E+05 1.75561E-10 8.78799E-10
 -1       164-4.86215E+05-6.93597E+04-3.94016E+02-1.83326E+05 6.28660E-10-6.05098E-11
 -1       165-4.87099E+05-6.81666E+04-1.89624E+02-1.82267E+05 1.04445E-09 1.22894E-09
 -1       166-4.86295E+05-6.90485E+04-1.99370E+02-1.83159E+05 3.30099E-10 2.20104E-09
 -1       167-4.86956E+05-6.83211E+04-2.64873E+02-1.82437E+05-4.38781E-10-3.18138E-10
 -1       168-4.86723E+05-6.87843E+04-5.69633E+02-1.82723E+05 6.13904E-10 5.05629E-10
 -1       169-4.86670E+05-6.84312E+04-1.02464E+03-1.82703E+05 3.41245E-10 5.89353E-10
 -1       170-4.87650E+05-6.91891E+04-2.55435E+03-1.82109E+05 6.55518E-10-9.88621E-10
 -1       171-4.86030E+05-6.79173E+04-4.42290E+03-1.83052E+05-9.84016E-10-4.38376E-10
 -1       172-4.91074E+05-7.41835E+04-1.19003E+04-1.80823E+05-5.34101E-10 4.68015E-09
 -1       173-4.83251E+05-6.34441E+04-1.90884E+04-1.83988E+05-2.66755E-09 1.47520E-09
 -1       174-5.10420E+05-1.07954E+05-5.64920E+04-1.74421E+05-9.37916E-09 4.36739E-09
 -1       175-4.66697E+05-3.41962E+04-8.14398E+04-1.89438E+05-3.72347E-09 2.52840E-09
 -1       191 1.30087E+03 4.41795E+05 2.12573E+03-1.34066E+04-2.32831E-10 1.55251E-09
 -1       192 4.66883E+02 4.42106E+05 1.26480E+03-1.44237E+04 2.91493E-10-2.56568E-09
 -1       193 2.07283E+02 4.41893E+05 1.00360E+03-1.32061E+04-6.08679E-10-2.93221E-09
 -1       194 6.02467E+02 4.42134E+05 1.50294E+03-1.47949E+04 3.86081E-10-2.09548E-09
 -1       195 1.71592E+03 4.41724E+05 2.71840E+03-1.30337E+04-1.01500E-09 2.76486E-09
 -1       251-1.89926E+06 3.82333E+04-1.00159E+05-5.00256E+04 3.63798E-11-3.89264E-10
 -1       252-1.89290E+06-4.40318E+04-6.17011E+04 1.31895E+05 2.22934E-09-5.19776E-09
 -1       253-1.90084E+06 6.88753E+03-2.59990E+04-6.07619E+04 3.29806E-09-2.58024E-09
 -1       254-1.84020E+06-4.70968E+03-3.37465E+03 7.90383E+04-2.70450E-09 1.11663E-09
 -1       255-1.94955E+06-3.31175E+03-1.76708E+04 2.83977E+03 4.07454E-09 3.16868E-09
 -1       256-1.83260E+06 2.32209E+03 9.31909E+03-5.27402E+04 5.28644E-10 4.87489E-10
 -1       257-1.90804E+06-4.98150E+02-4.32679E+03 7.09740E+04-7.91943E-10 5.69003E-09
 -1       258-1.87481E+06 2.42232E+03 3.05826E+03-1.19242E+05-7.40222E-10 4.43904E-09
 -1       259-1.91014E+06-6.93881E+02-4.77097E+03 6.93887E+04-6.45832E-09 4.69686E-09
 -1       260-1.83073E+06 2.34577E+03 9.70041E+03-4.80576E+04-2.39470E-09 2.60565E-09
 -1       261-1.94920E+06-3.25763E+03-1.75626E+04-2.57873E+02-1.11550E-09 2.40152E-09
 -1       262-1.84231E+06-4.76486E+03-3.73080E+03 8.32954E+04 6.43172E-09-1.83081E-09
 -1       263-1.89922E+06 7.02758E+03-2.55276E+04-6.19206E+04-5.52154E-09-3.34967E-09
 -1       264-1.89209E+06-4.37641E+04-6.12392E+04 1.31029E+05-2.69095E-08 3.36149E-09
 -1       265-1.90165E+06 3.77799E+04-1.00215E+05-4.79993E+04-1.06970E-08-3.57613E-09
 -1       266-2.04783E+04-2.84719E+05 4.70232E+04-1.82646E+03-7.27596E-12-3.54643E-09
 -1       267 2.22666E+04-2.63808E+05 3.08064E+04 1.10775E+04 1.20053E-10-4.88996E-09
 -1       268-1.81503E+03-2.76589E+05 6.74591E+03-7.89196E+02-4.82032E-11 2.98826E-10
 -1       269-6.83896E+03-2.76190E+05-7.13358E+03 8.29800E+03-1.36424E-10 3.64673E-09
 -1       270 8.52560E+03-2.72283E+05-1.90012E+04 9.52147E+02 1.83718E-10 3.59125E-09
 -1       271-3.11071E+06-3.93056E+05-2.42347E+05-1.20537E+06-8.80391E-10-3.63798E-09
 -1       272-3.19307E+06-5.54242E+05-1.52974E+05-1.20862E+06 4.33374E-10-4.16730E-09
 -1       273-3.15388E+06-4.47051E+05-5.71602E+04-1.19773E+06 7.43000E-10-3.60887E-09
 -1       274-3.14268E+06-4.84652E+05-3.13955E+04-1.22195E+06 1.15506E-09-3.60023E-09
 -1       275-3.15967E+06-4.51958E+05-1.32932E+04-1.19612E+06-7.73980E-10 7.07587E-10
 -1       276-3.13575E+06-4.78632E+05-7.03721E+03-1.22472E+06 8.88576E-10 3.79737E-09
 -1       277-3.16085E+06-4.51986E+05-3.61379E+03-1.19545E+06 3.26963E-10-3.04487E-09
 -1       278-3.13450E+06-4.78626E+05-2.84742E+03-1.22567E+06 5.23187E-10-7.10770E-10
 -1       279-3.16101E+06-4.51830E+05-3.41966E+03-1.19528E+06-9.31308E-10 4.48381E-10
 -1       280-3.13516E+06-4.79142E+05-6.51752E+03-1.22546E+06 3.71074E-10 5.53882E-09
 -1       281-3.16018E+06-4.51543E+05-1.22164E+04-1.19562E+06-1.04365E-10-9.69521E-10
 -1       282-3.14114E+06-4.85094E+05-2.88468E+04-1.22343E+06 5.28416E-10-5.08226E-09
 -1       283-3.15506E+06-4.46841E+05-5.24756E+04-1.19689E+06 3.06977E-09-7.23958E-10
 -1       284-3.18709E+06-5.49331E+05-1.40475E+05-1.21158E+06 5.77916E-09-1.89175E-10
 -1       285-3.11557E+06-3.97119E+05-2.22533E+05-1.20374E+06 1.36060E-09-1.94996E-09
 -1       286-5.31054E+05-1.13553E+04 2.63765E+04-1.54814E+03 2.21326E-09-1.09867E-09
 -1       287-5.19301E+05 1.31525E+04 1.86913E+04 1.50699E+03 2.08564E-09 6.11726E-09
 -1       288-5.26712E+05-1.77786E+03 6.80827E+03-4.72503E+02 3.37621E-10 5.33510E-09
 -1       289-5.24393E+05 2.05653E+03 4.34621E+03-7.60138E+02-1.74474E-10 3.90946E-09
 -1       290-5.25966E+05-2.81635E+02 1.75090E+03 7.19040E+02 1.91648E-10 2.48679E-09
 -1       291-5.25341E+05 3.32579E+02 1.11115E+03-2.83558E+03 1.85213E-09-1.79026E-09
 -1       292-5.25771E+05-5.21817E+01 5.74993E+02 1.60297E+03 1.16752E-09 9.90880E-10
 -1       293-5.25571E+05 1.17179E+02 5.60684E+02-3.98766E+03 4.96200E-10-2.15762E-09
 -1       294-5.25743E+05-6.14269E+01 6.82003E+02 1.87115E+03 2.18959E-09-9.51530E-10
 -1       295-5.25389E+05 4.26521E+02 1.38069E+03-3.81496E+03 1.38806E-09 2.40925E-09
 -1       296-5.25952E+05-3.61942E+02 2.28364E+03 1.43026E+03 8.99107E-10 3.48564E-09
 -1       297-5.24155E+05 2.67887E+03 5.62993E+03-2.37858E+03 7.81114E-10 3.60217E-09
 -1       298-5.26968E+05-2.31574E+03 8.88533E+03 4.34736E+02 3.64366E-11 1.76715E-09
 -1       299-5.17380E+05 1.71525E+04 2.43731E+04-1.90328E+02 5.52518E-11-1.97815E-10
 -1       300-5.32713E+05-1.48119E+04 3.43953E+04-7.58032E+02 4.67764E-10-2.75759E-09
 -1       301 4.26044E+04 2.07593E+04 9.32636E+04-2.69599E+04 2.42653E-09 9.61677E-10
 -1       302 1.44177E+04 3.81935E+04 5.66903E+04-3.16680E+04 2.13277E-09 3.08924E-09
 -1       303 4.05021E+03 2.69848E+04 4.47789E+04-2.70150E+04 2.12685E-09 1.34708E-09
 -1       304 1.78651E+04 4.02187E+04 6.58780E+04-3.16351E+04 1.83809E-09 1.24942E-10
 -1       305 5.37957E+04 1.87501E+04 1.15564E+05-2.69708E+04 2.71393E-09 2.48133E-09
 -1       306-2.13933E+06-2.77673E+05-1.43830E+05-8.29299E+05 8.94943E-10-2.05182E-09
 -1       307-2.17522E+06-3.85858E+05-9.07179E+04-8.45816E+05-1.32673E-09-2.74122E-09
 -1       308-2.16510E+06-3.09454E+05-3.39445E+04-8.24636E+05 4.02906E-10 2.44654E-09
 -1       309-2.14532E+06-3.44784E+05-1.86399E+04-8.54014E+05 1.78034E-10 3.45699E-09
 -1       310-2.16859E+06-3.12297E+05-7.91943E+03-8.23654E+05-1.73259E-10-7.32143E-10
 -1       311-2.14128E+06-3.41198E+05-4.22924E+03-8.55697E+05 1.91380E-09 1.03768E-09
 -1       312-2.16925E+06-3.12344E+05-2.25073E+03-8.23306E+05-2.52612E-10-1.90798E-09
 -1       313-2.14071E+06-3.41059E+05-1.92286E+03-8.56091E+05 2.65982E-09-7.52493E-10
 -1       314-2.16922E+06-3.12354E+05-2.50163E+03-8.23323E+05 5.70822E-10-3.59387E-09
 -1       315-2.14142E+06-3.41234E+05-4.92223E+03-8.55615E+05-8.44693E-10-2.81580E-09
 -1       316-2.16846E+06-3.12267E+05-9.32266E+03-8.23707E+05-5.13410E-10-1.86265E-09
 -1       317-2.14612E+06-3.45578E+05-2.20184E+04-8.53764E+05-1.42586E-09-1.15506E-09
 -1       318-2.16442E+06-3.08815E+05-4.01055E+04-8.24775E+05-1.56751E-09 1.92813E-09
 -1       319-2.18128E+06-3.94357E+05-1.07228E+05-8.44372E+05-5.66388E-10-1.48611E-09
 -1       320-2.13411E+06-2.71075E+05-1.69963E+05-8.30116E+05-8.73115E-11 3.52884E-09
 -1       321-4.66868E+05-1.76246E+04 4.01060E+04 1.81361E+03-1.09276E-09 3.18141E-09
 -1       322-4.44861E+05 2.03825E+04 2.91580E+04-9.50643E+03 2.63586E-09 2.56478E-09
 -1       323-4.58992E+05-2.76523E+03 1.03275E+04 5.06627E+03-1.45275E-09-2.61343E-09
 -1       324-4.54730E+05 3.22702E+03 6.69784E+03-1.42400E+04-8.53402E-09 2.17130E-09
 -1       325-4.57118E+05-4.18914E+02 2.67502E+03 6.54757E+03-4.92228E-10-1.49385E-09
 -1       326-4.56399E+05 5.50560E+02 1.59722E+03-1.49499E+04 1.03006E-09 3.19045E-09
 -1       327-4.57345E+05-7.80348E+01 5.87458E+02 5.77634E+03-5.43554E-09 4.54239E-09
 -1       328-4.54997E+05 1.35564E+02 7.17905E+02-1.13857E+04-3.05315E-09 1.24403E-09
 -1       329-4.58430E+05-7.35259E+01-1.76322E+02 2.98281E+03-3.25997E-10 8.44594E-10
 -1       330-4.53273E+05 6.49497E+01 7.16485E+02-4.61746E+03-2.31091E-09-2.80664E-13
 -1       331-4.58970E+05-8.33106E+01-5.29023E+02-9.91614E+02-1.54057E-09 1.46182E-09
 -1       332-4.53440E+05-5.39805E+01 3.65161E+02 3.29419E+03 8.25602E-09-4.58694E-09
 -1       333-4.58266E+05 4.77281E+01-8.57256E+02-4.92810E+03 6.56092E-09-2.53152E-10
 -1       334-4.55736E+05-9.15558E+02-1.19564E+03 9.93283E+03 1.09117E-08 1.02773E-10
 -1       335-4.56776E+05 8.54666E+02-2.27412E+03-7.63075E+03-8.99038E-09-2.08092E-09
 -1       336-7.35822E+02-8.76986E+05 1.88854E+03-7.12616E+03-1.12959E-09-1.04501E-09
 -1       337 2.07977E+02-8.76477E+05-2.18381E+03-3.19125E+04-8.55493E-10 1.98997E-09
 -1       338 7.08585E+02-8.75907E+05-7.39867E+03-6.92676E+03-1.64255E-09 2.64413E-09
 -1       339-9.97334E+03-8.82601E+05-2.02765E+04-3.21642E+04-5.84805E-10 1.67552E-09
 -1       340 7.51894E+03-8.70952E+05-3.23139E+04-6.87797E+03-1.05683E-09 1.86277E-09
 -1       341-1.40739E+06-1.81776E+05-5.99724E+04-5.47586E+05-5.45333E-09 2.56478E-09
 -1       342-1.45780E+06-2.16185E+05-4.13501E+04-5.13790E+05-8.75480E-09 1.51431E-09
 -1       343-1.41976E+06-2.03072E+05-1.41414E+04-5.43416E+05-3.69937E-10 1.96542E-09
 -1       344-1.43490E+06-1.98560E+05-8.32158E+03-5.26466E+05 6.24766E-10 2.94858E-09
 -1       345-1.43020E+06-1.99423E+05-3.72048E+03-5.34855E+05-2.83080E-11-1.68461E-09
 -1       346-1.41902E+06-2.08620E+05-1.68003E+03-5.43155E+05-1.78983E-09-6.04103E-10
 -1       347-1.43565E+06-1.92993E+05-1.19197E+03-5.26736E+05-4.73185E-09 3.57221E-09
 -1       348-1.41445E+06-2.13823E+05-1.21414E+03-5.49794E+05 3.99445E-09 6.23901E-09
 -1       349-1.43482E+06-1.94170E+05-2.09736E+03-5.28261E+05 2.40220E-09 8.48786E-10
 -1       350-1.42272E+06-2.06065E+05-4.08316E+03-5.38880E+05-5.09967E-09-2.41403E-09
 -1       351-1.42730E+06-2.00823E+05-8.17050E+03-5.37590E+05-1.71326E-09 1.00044E-09
 -1       352-1.44240E+06-2.01866E+05-2.05888E+04-5.21829E+05-1.47338E-10 1.17416E-09
 -1       353-1.41519E+06-1.98355E+05-3.35820E+04-5.45339E+05 2.24190E-10-6.54836E-10
 -1       354-1.48074E+06-2.57794E+05-9.91896E+04-5.06734E+05 6.91216E-09-1.46520E-09
 -1       355-1.38907E+06-1.44948E+05-1.43489E+05-5.52706E+05 1.22600E-09-2.08820E-09
 -1       356-4.70235E+05 1.39195E+03-3.46874E+03-8.30380E+03-2.04281E-09-1.59616E-09
 -1       357-4.70359E+05-1.51708E+03-2.16035E+03 1.18741E+04-1.45241E-08-7.39249E-10
 -1       358-4.71932E+05 1.35227E+02-1.16585E+03-5.91558E+03-6.34924E-09-3.23234E-09
 -1       359-4.67503E+05-1.38339E+02 8.39858E+01 5.49362E+03 3.26344E-09 1.58042E-09
 -1       360-4.72969E+05-7.63988E+01-7.56498E+02-1.92243E+03 4.28076E-09-1.12294E-09
 -1       361-4.66749E+05 3.25472E+01 4.97061E+02-2.85509E+03 6.81098E-09-1.54568E-09
 -1       362-4.72651E+05-6.19628E+01-7.62959E+02 2.43248E+03-7.12851E-09 1.33372E-09
 -1       363-4.68427E+05-7.35166E+01-2.61711E+02-1.05522E+04-1.69848E-10 4.99222E-09
 -1       364-4.71383E+05 9.91849E+01-1.44619E+03 5.77416E+03 8.96171E-09 9.07448E-10
 -1       365-4.70858E+05-8.70337E+02-2.90264E+03-1.51844E+04-1.36844E-08 6.07997E-10
 -1       366-4.70332E+05 8.19315E+02-5.16086E+03 7.06525E+03 1.02324E-08 3.85376E-09
 -1       367-4.73436E+05-5.99860E+03-1.26402E+04-1.53181E+04 1.21324E-08 1.32968E-09
 -1       368-4.68813E+05 5.22181E+03-2.04360E+04 5.90782E+03 4.43498E-09-1.63163E-09
 -1       369-4.86700E+05-3.88722E+04-5.49743E+04-1.08495E+04 1.02439E-08-5.02041E-10
 -1       370-4.56963E+05 3.35516E+04-7.89006E+04 2.59609E+03 5.90239E-09 3.23780E-10
 -1       371-1.14636E+04-1.62716E+05 2.21589E+04-8.03598E+03 1.47375E-08 3.69641E-09
 -1       372 1.13687E+04-1.34602E+05 1.64624E+04 3.98235E+04 1.38698E-10-2.31199E-09
 -1       373-1.66605E+02-1.50725E+05 9.69283E+02-9.90680E+03-7.17137E-10 8.71069E-10
 -1       374-8.35137E+03-1.51645E+05-1.02659E+04 4.18284E+04-6.81462E-09 4.59988E-09
 -1       375 8.54132E+03-1.46117E+05-1.92953E+04-1.00387E+04-2.37196E-09 1.11021E-09
 -1       376-5.84186E+05-9.04594E+04-2.24771E+04-2.42494E+05 4.10328E-08-1.38334E-09
 -1       377-6.25681E+05-6.18214E+04-1.28463E+04-1.85742E+05 3.48373E-08 5.08180E-09
 -1       378-5.76896E+05-9.96274E+04-4.73318E+03-2.43178E+05-2.82190E-08 8.52788E-09
 -1       379-6.19671E+05-5.44387E+04-1.56119E+03-1.87475E+05-2.80918E-08-8.82892E-09
 -1       380-5.90150E+05-9.78594E+04-2.92316E+03-2.40732E+05-4.79315E-09 3.36229E-09
 -1       381-5.85424E+05-6.55797E+04 4.76076E+03-1.98434E+05 1.17642E-08 3.87450E-09
 -1       382-6.10339E+05-8.90785E+04-4.39974E+03-2.31593E+05 1.00076E-08-6.15955E-10
 -1       383-5.59185E+05-8.74663E+04 5.66621E+03-2.22873E+05 1.09558E-08-1.37251E-09
 -1       384-6.16212E+05-7.61066E+04-3.58837E+03-2.16179E+05-2.36050E-08 3.32275E-09
 -1       385-5.58553E+05-1.09343E+05 2.57138E+01-2.50106E+05-2.20543E-08 1.99793E-09
 -1       386-6.11741E+05-6.66318E+04-4.27560E+03-2.04943E+05 2.10691E-08 1.45853E-08
 -1       387-5.64438E+05-1.20641E+05-1.06078E+04-2.58073E+05 2.71776E-08 6.81359E-09
 -1       388-6.10700E+05-6.45408E+04-1.89527E+04-2.08480E+05 6.89752E-08 7.47332E-09
 -1       389-5.77789E+05-1.38772E+05-4.93529E+04-2.34473E+05 6.09407E-08 1.75169E-09
 -1       390-5.97720E+05-4.90571E+04-8.12150E+04-2.28025E+05 2.97405E-09 3.52884E-10
 -1       406 1.37618E+03 4.35655E+05 2.78637E+03-4.29447E+04-1.25601E-09 1.31240E-09
 -1       407 8.13865E+02 4.36141E+05 3.07299E+03-4.72383E+04 3.87445E-10-3.06500E-09
 -1       408 1.17103E+03 4.35592E+05 4.80335E+03-4.27904E+04-1.72759E-09-1.28057E-09
 -1       409 4.62666E+03 4.37422E+05 1.01488E+04-4.74500E+04-3.72893E-11-4.64206E-09
 -1       410 1.33301E+04 4.34290E+05 2.03724E+04-4.27202E+04-2.02090E-09-3.43789E-10
 -1       466 1.37502E+06-5.53106E+04 1.26289E+05 2.12142E+04-1.23646E-09-8.62201E-09
 -1       467 1.44348E+06 6.36613E+04 9.15700E+04-3.43525E+04-8.28777E-11-1.17780E-09
 -1       468 1.40183E+06-8.42280E+03 3.29721E+04 5.90501E+03-1.27557E-10-1.03864E-09
 -1       469 1.41231E+06 9.71519E+03 2.09281E+04-1.37213E+04-9.45690E-10-1.53022E-10
 -1       470 1.40594E+06-1.28984E+03 8.63617E+03 5.82455E+02 7.38666E-10 9.18590E-10
 -1       471 1.40755E+06 1.54663E+03 5.36209E+03-6.57952E+03 1.15207E-09 1.69371E-09
 -1       472 1.40656E+06-2.45645E+02 3.03113E+03-1.23691E+03 1.04912E-10 2.28869E-09
 -1       473 1.40700E+06 6.32392E+02 3.15801E+03-4.30955E+03 7.43370E-11-6.40580E-09
 -1       474 1.40649E+06-3.74191E+02 4.14776E+03-1.68756E+03-6.24901E-10 2.69608E-09
 -1       475 1.40805E+06 2.64708E+03 8.58319E+03-4.25145E+03 5.01489E-10 1.90357E-09
 -1       476 1.40550E+06-2.25722E+03 1.44560E+04-1.29499E+03 1.10138E-09-1.40972E-10
 -1       477 1.41505E+06 1.68305E+04 3.53108E+04-6.34093E+03 5.48816E-10-1.87219E-09
 -1       478 1.39947E+06-1.45350E+04 5.62383E+04 4.01994E+02 6.82903E-10 4.32919E-10
 -1       479 1.45790E+06 1.08048E+05 1.53546E+05-1.31663E+04 2.16684E-09 3.82715E-09
 -1       480 1.36264E+06-9.33084E+04 2.17068E+05 5.52986E+03 3.41839E-09-2.43017E-09
 -1       481-1.13060E+04 2.38201E+05 2.44871E+04-8.42766E+03 1.81899E-11-1.55751E-11
 -1       482 1.32535E+04 2.59734E+05 2.00047E+04 2.55478E+04-2.66482E-10 8.87712E-09
 -1       483-2.12529E+03 2.45898E+05 8.17053E+03-5.91545E+03-5.18412E-11 2.69284E-09
 -1       484 5.55149E+03 2.51456E+05 9.35204E+03 2.22908E+04 5.97993E-11 3.39924E-11
 -1       485-3.44463E+03 2.46228E+05 8.85323E+03-5.16900E+03 1.31649E-10 4.66052E-10
 -1       486-1.26064E+06-1.79558E+05-1.27029E+05-5.56135E+05-5.47880E-09-8.98581E-09
 -1       487-1.41108E+06-1.39755E+05-7.67497E+04-3.60230E+05-1.98816E-09 2.00080E-08
 -1       488-1.28680E+06-2.20547E+05-3.29482E+04-5.48391E+05-2.18870E-09-2.85763E-09
 -1       489-1.27121E+06-1.27271E+05 4.24646E+03-4.00066E+05 3.66987E-09-2.34604E-09
 -1       490-1.39725E+06-1.94919E+05-2.52583E+04-5.13591E+05 1.11095E-09 2.45063E-09
 -1       491-1.17788E+06-2.11405E+05 1.75117E+04-5.08561E+05-6.07770E-09 1.34361E-08
 -1       492-1.38017E+06-1.36360E+05-5.40812E+03-4.40052E+05 3.34239E-11-5.92070E-09
 -1       493-1.19680E+06-2.65753E+05 5.46822E+03-5.83058E+05-6.51170E-10 2.42650E-09
 -1       494-1.38150E+06-1.37643E+05-5.73773E+03-4.41630E+05 2.34877E-10 4.33204E-09
 -1       495-1.17821E+06-2.08481E+05 1.84731E+04-5.05141E+05 2.11230E-09-2.08884E-08
 -1       496-1.39547E+06-1.96662E+05-2.42481E+04-5.15339E+05-5.99130E-09-4.73756E-09
 -1       497-1.27541E+06-1.23997E+05 6.22303E+03-3.98482E+05-1.64420E-09-2.21985E-09
 -1       498-1.28449E+06-2.21974E+05-2.82783E+04-5.48317E+05-2.70870E-09-1.46201E-08
 -1       499-1.40602E+06-1.31034E+05-6.44741E+04-3.61898E+05-4.42378E-09-1.65883E-08
 -1       500-1.26800E+06-1.86841E+05-1.09912E+05-5.54543E+05-1.81208E-08 1.74114E-08
 -1       501-4.65723E+05-2.25640E+04 5.24089E+04-9.46177E+02 2.17031E-09-5.09317E-11
 -1       502-4.42435E+05 2.61298E+04 3.71251E+04-3.49925E+01 1.52909E-09 3.72893E-10
 -1       503-4.56983E+05-3.52701E+03 1.35304E+04 2.78082E+02 2.12310E-11-2.37924E-09
 -1       504-4.52719E+05 4.07855E+03 8.56188E+03-2.35440E+03-6.72657E-10-2.16994E-09
 -1       505-4.55456E+05-5.50812E+02 3.44025E+03 1.37329E+03 1.29717E-09-8.70841E-10
 -1       506-4.54590E+05 6.39549E+02 2.03353E+03-4.06068E+03 2.59696E-09 8.68567E-10
 -1       507-4.55126E+05-8.58457E+01 8.94404E+02 1.98439E+03 2.23881E-09 2.79090E-09
 -1       508-4.54952E+05 1.14500E+02 5.36553E+02-4.61125E+03 3.61096E-10 3.05696E-09
 -1       509-4.55099E+05-2.29698E+01 3.13477E+02 1.92388E+03 2.96457E-09 2.98357E-11
 -1       510-4.54854E+05 9.26506E+01 3.67225E+02-3.83687E+03 1.63657E-09-1.38334E-09
 -1       511-4.55217E+05-6.88783E+01 4.20787E+02 1.20999E+03 7.64487E-10 1.82450E-09
 -1       512-4.54488E+05 4.70199E+02 1.04909E+03-1.97208E+03 9.18078E-10-1.09371E-09
 -1       513-4.55455E+05-4.07733E+02 1.50503E+03 5.90597E+01 1.11385E-10-7.98366E-10
 -1       514-4.53289E+05 2.96609E+03 4.26097E+03 4.16162E+02-7.23446E-10-9.94987E-10
 -1       515-4.56413E+05-2.56221E+03 5.88617E+03-1.17828E+03-1.36828E-09 2.35582E-09
 -1       516-5.23559E+04 2.94409E+05 1.23315E+05-4.58476E+03-5.45697E-10 2.63324E-09
 -1       517 6.38015E+04 3.49355E+05 9.29069E+04 1.71288E+04-6.53927E-10 3.62579E-09
 -1       518-1.13635E+04 3.12711E+05 4.34585E+04-5.19469E+03-7.93989E-10 2.34360E-09
 -1       519 3.41078E+04 3.38452E+05 5.44516E+04 2.02634E+04-9.64064E-10-2.86224E-09
 -1       520-2.28240E+04 3.05454E+05 5.53903E+04-7.72036E+03-1.04774E-09-6.28006E-09
 -1       521-2.98106E+06-3.81452E+05-2.09004E+05-1.15205E+06 4.62023E-10-1.93540E-09
 -1       522-3.04531E+06-5.27090E+05-1.31898E+05-1.16256E+06 4.92037E-10 2.12458E-09
 -1       523-3.01837E+06-4.27890E+05-4.92914E+04-1.14538E+06-7.35554E-11 7.31234E-10
 -1       524-3.00186E+06-4.67147E+05-2.70760E+04-1.17417E+06-1.58138E-09-1.87038E-09
 -1       525-3.02335E+06-4.32127E+05-1.14629E+04-1.14401E+06 3.67436E-10-1.15051E-09
 -1       526-2.99602E+06-4.61825E+05-6.07966E+03-1.17642E+06 2.13504E-09-7.39306E-10
 -1       527-3.02425E+06-4.32266E+05-3.13369E+03-1.14355E+06 3.75371E-09-2.68426E-09
 -1       528-2.99523E+06-4.61521E+05-2.50151E+03-1.17686E+06 2.23157E-09-3.30078E-09
 -1       529-3.02419E+06-4.32339E+05-3.04529E+03-1.14362E+06 3.51451E-09-1.39403E-09
 -1       530-2.99622E+06-4.61544E+05-5.82863E+03-1.17611E+06-1.18416E-09-1.31445E-09
 -1       531-3.02317E+06-4.32360E+05-1.09606E+04-1.14422E+06-7.78527E-10-2.25918E-09
 -1       532-3.00206E+06-4.66333E+05-2.58520E+04-1.17359E+06 1.54773E-09 8.74934E-10
 -1       533-3.01826E+06-4.28482E+05-4.70670E+04-1.14570E+06-1.14346E-09-3.14321E-09
 -1       534-3.04384E+06-5.23228E+05-1.25910E+05-1.16212E+06 8.91532E-10-1.65892E-09
 -1       535-2.98247E+06-3.84333E+05-1.99538E+05-1.15225E+06-1.85537E-10 1.40426E-09
 -1       536 6.50008E+04-1.27111E+04 5.46117E+04-7.59364E+03 3.10138E-10-5.92991E-10
 -1       537 8.49701E+04 1.70394E+04 3.50057E+04-2.96883E+04-2.15823E-09 2.17369E-10
 -1       538 7.32106E+04-1.36258E+03 1.41293E+04-7.51462E+03 1.51886E-10 2.53749E-10
 -1       539 7.56411E+04 1.63000E+03 7.89836E+03-2.97507E+04 4.48381E-10 7.94898E-10
 -1       540 7.41195E+04-1.72297E+02 3.55930E+03-7.52548E+03-1.53250E-10 2.60525E-09
 -1       541 7.44776E+04 1.48989E+02 1.88317E+03-2.97253E+04 5.72754E-10-4.05078E-09
 -1       542 7.42240E+04-2.52380E+01 8.86030E+02-7.54021E+03-5.02496E-10-2.76486E-09
 -1       543 7.42695E+04 2.76743E+01 4.55729E+02-2.97028E+04 2.58865E-10-1.55910E-09
 -1       544 7.42344E+04 2.13253E+00 2.11894E+02-7.54809E+03-2.83251E-09-3.55044E-09
 -1       545 7.42184E+04 2.27159E+01 9.18186E+01-2.96938E+04-5.38179E-09 1.79665E-09
 -1       546 7.42383E+04 7.23272E+00 1.27976E+01-7.54923E+03-2.29619E-09 4.00803E-10
 -1       547 7.42154E+04-2.47141E+00-6.60196E+01-2.96944E+04-5.96401E-10 2.15664E-10
 -1       548 7.42569E+04 1.17352E+01-1.61240E+02-7.54749E+03-5.82986E-10 1.11174E-09
 -1       549 7.41600E+04-2.09002E+02-4.14171E+02-2.96494E+04-8.07631E-10 7.20433E-10
 -1       550 7.43697E+04 1.25280E+02-6.73406E+02-7.59423E+03 4.95675E-11 1.35287E-10
 -1       551 1.36367E+04-2.90772E+05 2.79543E+04-4.43169E+05 3.33239E-09-6.51198E-10
 -1       552 7.22607E+03-2.86382E+05 2.20647E+04-5.18571E+05 2.74667E-09 8.65839E-10
 -1       553 4.86161E+03-2.90504E+05 2.56516E+04-4.42426E+05 3.77258E-09 2.08138E-09
 -1       554 1.71605E+04-2.80899E+05 4.81718E+04-5.18695E+05 2.72848E-09 1.71212E-09
 -1       555 4.56734E+04-2.96915E+05 9.13263E+04-4.42952E+05 3.49974E-09-2.09548E-09
 -1       556-2.13315E+05-1.13589E+05 1.82237E+04-2.02636E+05-2.86309E-09 3.49246E-10
 -1       557-1.96255E+05-1.32149E+05 8.97321E+03-2.16031E+05-1.07739E-08-4.08909E-09
 -1       558-2.13841E+05-1.19594E+05 3.75591E+03-1.99093E+05-5.07134E-09-5.34783E-10
 -1       559-1.98090E+05-1.35100E+05 1.85017E+03-2.16779E+05 4.83851E-10 8.02856E-10
 -1       560-2.14174E+05-1.19578E+05 8.12996E+02-1.99132E+05-3.63798E-11 8.25366E-11
 -1       561-1.98558E+05-1.35101E+05 3.87152E+02-2.17116E+05-4.54747E-11-1.95757E-09
 -1       562-2.14426E+05-1.19412E+05 1.30228E+02-1.99298E+05-9.78616E-10 1.91585E-09
 -1       563-1.98808E+05-1.34994E+05-1.77729E+01-2.17294E+05-4.17458E-10-2.65936E-09
 -1       564-2.14564E+05-1.19314E+05-1.95554E+02-1.99396E+05-4.54747E-11 2.98587E-09
 -1       565-1.98940E+05-1.34943E+05-4.91487E+02-2.17375E+05 1.51158E-09 5.46061E-09
 -1       566-2.14568E+05-1.19277E+05-1.05244E+03-1.99417E+05 2.80545E-09 6.75846E-09
 -1       567-1.99119E+05-1.35057E+05-2.32903E+03-2.17347E+05 1.25669E-09-9.13133E-10
 -1       568-2.14354E+05-1.19661E+05-4.79462E+03-1.99210E+05 4.54747E-11 1.44064E-09
 -1       569-2.01663E+05-1.38007E+05-1.13088E+04-2.16539E+05-1.10322E-09 2.49747E-09
 -1       570-2.13276E+05-1.28549E+05-2.30973E+04-1.95427E+05-9.42237E-10-7.83530E-10
 -1       571 2.76525E+05 1.36855E+04 2.10162E+04-7.23168E+04 8.45830E-10 9.59517E-10
 -1       572 2.79732E+05 4.66016E+03 1.03245E+04-7.97209E+04-9.04947E-11 7.33962E-10
 -1       573 2.77807E+05 1.03559E+03 4.59349E+03-7.21154E+04-1.58252E-09 1.66438E-10
 -1       574 2.78179E+05 3.19988E+02 2.30714E+03-7.99392E+04-1.70439E-09 1.68711E-09
 -1       575 2.77937E+05 2.51021E+01 1.09172E+03-7.20903E+04-2.69210E-10 2.27374E-11
 -1       576 2.77971E+05-8.24652E-01 5.58387E+02-7.99674E+04 8.89202E-10 1.10322E-09
 -1       577 2.77956E+05-1.87024E+01 2.79212E+02-7.20871E+04 7.93989E-10 1.99725E-09
 -1       578 2.77954E+05-1.54845E+01 1.59556E+02-7.99709E+04 5.44787E-10 9.65883E-10
 -1       579 2.77983E+05-2.52419E+01 1.10544E+02-7.20868E+04-1.26420E-10-6.44832E-10
 -1       580 2.77996E+05-3.22975E+01 1.24670E+02-7.99673E+04 1.07320E-09-2.95404E-09
 -1       581 2.78034E+05-4.51291E+01 1.92285E+02-7.20906E+04 1.12777E-10-2.73394E-09
 -1       582 2.78100E+05-1.70541E+01 3.82785E+02-7.99251E+04 2.81943E-10 1.31877E-11
 -1       583 2.78088E+05 7.53714E+01 7.43972E+02-7.21290E+04 3.56522E-10 2.78123E-09
 -1       584 2.78447E+05 6.38943E+02 1.67050E+03-7.95926E+04-1.97906E-09 1.66278E-09
 -1       585 2.77969E+05 2.08086E+03 3.38863E+03-7.24255E+04-3.61979E-10-5.80258E-10
 -1       586 2.44949E+03 1.13058E+05 4.28568E+03-1.84116E+05 5.37511E-10 2.13095E-09
 -1       587 1.37548E+03 1.13739E+05 4.01839E+03-2.03537E+05 5.98448E-10-2.16505E-09
 -1       588 1.55558E+03 1.12980E+05 5.62895E+03-1.83882E+05 4.43833E-10 2.28897E-09
 -1       589 5.39550E+03 1.15087E+05 1.14767E+04-2.03593E+05 7.91260E-10-9.60654E-11
 -1       590 1.50524E+04 1.11616E+05 2.28234E+04-1.84053E+05 5.12955E-10-2.23099E-09
 -1       591-1.29888E+05-4.48398E+04-2.42837E+04-6.75229E+04 7.41238E-11-6.14818E-10
 -1       592-1.30547E+05-4.19023E+04-1.19037E+04-7.48401E+04-5.09317E-10 1.93540E-09
 -1       593-1.30597E+05-3.58009E+04-5.05042E+03-7.16473E+04-1.67211E-09 1.83627E-09
 -1       594-1.27958E+05-3.86151E+04-2.47038E+03-7.52934E+04-2.40175E-09 1.97517E-09
 -1       595-1.30716E+05-3.54625E+04-1.13778E+03-7.18349E+04-2.46723E-09-1.54273E-09
 -1       596-1.27764E+05-3.84836E+04-5.78225E+02-7.52797E+04-1.31809E-09 1.27443E-10
 -1       597-1.30740E+05-3.54783E+04-3.17351E+02-7.18370E+04-1.71234E-08 5.30281E-09
 -1       598-1.27745E+05-3.84852E+04-2.58648E+02-7.52715E+04-3.96439E-08 1.18757E-09
 -1       599-1.30737E+05-3.54789E+04-3.34370E+02-7.18356E+04-1.68684E-08 6.70593E-09
 -1       600-1.27762E+05-3.84857E+04-6.23274E+02-7.52766E+04-1.02136E-09 3.51156E-09
 -1       601-1.30705E+05-3.54638E+04-1.23323E+03-7.18302E+04-6.09361E-11 6.94035E-09
 -1       602-1.27970E+05-3.86285E+04-2.68197E+03-7.52852E+04-1.86446E-10-2.95313E-09
 -1       603-1.30569E+05-3.58366E+04-5.48427E+03-7.16261E+04-7.39419E-10-2.96950E-10
 -1       604-1.30796E+05-4.21789E+04-1.29258E+04-7.47662E+04-1.61072E-09-2.85718E-09
 -1       605-1.29776E+05-4.56667E+04-2.63681E+04-6.71639E+04-2.86900E-09-6.57201E-09
 -1       606 8.95421E+04-1.10223E+04-1.68874E+04 2.62170E+04-5.15683E-09-1.93995E-09
 -1       607 8.69146E+04-3.75317E+03-8.29286E+03 2.86254E+04-1.38971E-09-1.26045E-09
 -1       608 8.84454E+04-8.31928E+02-3.69017E+03 2.60385E+04 3.85626E-09 5.78211E-10
 -1       609 8.80939E+04-2.33960E+02-1.84968E+03 2.88196E+04-1.35196E-09-3.43516E-09
 -1       610 8.82931E+04 7.53842E+00-8.73285E+02 2.60158E+04-5.19049E-09-3.62365E-09
 -1       611 8.82216E+04 4.46613E+01-4.39721E+02 2.88440E+04-1.06247E-08-3.50155E-11
 -1       612 8.82555E+04 5.50537E+01-2.09532E+02 2.60132E+04-3.76622E-09 2.10707E-09
 -1       613 8.82265E+04 6.05957E+01-9.74070E+01 2.88470E+04-9.96806E-09-6.49379E-10
 -1       614 8.82371E+04 5.53942E+01-3.08145E+01 2.60126E+04-6.38465E-09-1.12323E-10
 -1       615 8.82192E+04 6.46423E+01 2.03788E+01 2.88472E+04 2.92744E-09 1.86219E-10
 -1       616 8.82235E+04 6.22723E+01 8.02904E+01 2.60129E+04-3.43198E-09-9.07221E-11
 -1       617 8.82263E+04 9.70276E+01 1.92007E+02 2.88463E+04 2.08797E-09 3.07159E-09
 -1       618 8.82023E+04 1.54228E+02 3.92755E+02 2.60133E+04-6.98606E-09-2.89447E-10
 -1       619 8.83503E+04 4.76203E+02 8.88793E+02 2.88425E+04-1.91953E-08-2.80966E-09
 -1       620 8.80835E+04 1.24921E+03 1.81213E+03 2.60147E+04-8.14100E-09-4.35125E-09
 -1       621 2.22961E+03 2.89841E+05 5.40719E+03-2.63706E+04 2.25236E-09-1.69985E-09
 -1       622 8.57932E+02 2.90862E+05 4.42209E+03-3.09779E+04 9.42237E-10-4.31169E-09
 -1       623 5.01583E+02 2.90075E+05 5.37903E+03-2.64012E+04 2.22599E-09-8.82210E-11
 -1       624 3.05838E+03 2.92171E+05 1.03023E+04-3.08400E+04 7.69433E-10 1.82195E-09
 -1       625 9.37674E+03 2.88570E+05 1.96703E+04-2.65059E+04 2.08206E-09-1.33923E-09
 -1       626 1.26755E+05 4.15099E+04-7.45351E+03 8.62129E+04-2.21644E-09 9.46784E-10
 -1       627 1.23261E+05 4.68123E+04-3.53570E+03 8.78294E+04-8.84484E-10-1.24601E-09
 -1       628 1.26911E+05 4.51708E+04-1.48602E+03 8.44224E+04-3.88354E-10 8.69932E-10
 -1       629 1.23808E+05 4.83256E+04-7.13035E+02 8.76936E+04-2.08138E-09-1.30053E-09
 -1       630 1.26889E+05 4.54249E+04-3.14892E+02 8.42730E+04 5.77529E-10 7.56586E-11
 -1       631 1.23840E+05 4.84391E+04-1.40955E+02 8.76890E+04 1.11186E-09 4.42969E-09
 -1       632 1.26868E+05 4.54360E+04-3.97971E+01 8.42565E+04-1.82354E-09-1.10344E-09
 -1       633 1.23836E+05 4.84465E+04 3.41131E+01 8.76869E+04-1.63527E-09 1.52795E-09
 -1       634 1.26854E+05 4.54308E+04 1.25333E+02 8.42524E+04 6.82121E-10-5.74346E-10
 -1       635 1.23849E+05 4.84508E+04 2.99195E+02 8.76887E+04-3.83261E-09-1.43586E-09
 -1       636 1.26839E+05 4.54443E+04 6.27305E+02 8.42419E+04-5.01007E-09 4.19732E-10
 -1       637 1.23998E+05 4.86191E+04 1.40392E+03 8.76633E+04-5.19265E-09 3.68482E-09
 -1       638 1.26807E+05 4.59526E+04 2.91041E+03 8.40201E+04-1.52340E-09-3.19233E-10
 -1       639 1.25482E+05 5.12032E+04 6.92579E+03 8.70328E+04-1.02319E-08-4.36262E-09
 -1       640 1.26874E+05 5.34255E+04 1.45970E+04 8.09107E+04-4.13047E-09-5.32054E-11
 -1       641 3.12584E+03 2.63832E+03-6.14068E+03-1.49345E+02-5.09446E-09 3.19233E-10
 -1       642 4.88534E+02-3.05420E+03-4.33249E+03 6.41617E+02-5.99831E-10 3.47001E-09
 -1       643 2.10512E+03 4.11019E+02-1.58375E+03-1.47125E+02-1.39830E-08 1.13516E-09
 -1       644 1.67480E+03-4.73400E+02-9.81478E+02 6.38529E+02 6.45437E-09-2.57053E-09
 -1       645 1.93904E+03 6.25861E+01-3.79554E+02-1.46265E+02-4.70887E-09-3.82374E-09
 -1       646 1.87091E+03-6.49490E+01-1.79959E+02 6.37261E+02-2.24449E-07-1.28745E-09
 -1       647 1.90872E+03 3.44291E+00-3.38784E-01-1.45860E+02-2.90093E-05 5.40538E-08
 -1       648 1.92559E+03 3.59850E+01 1.67303E+02 6.36842E+02-5.76425E-05 1.08133E-07
 -1       649 1.88427E+03-3.81539E+01 3.80155E+02-1.45846E+02-2.90059E-05 5.32164E-08
 -1       650 2.06525E+03 2.94290E+02 9.19183E+02 6.36996E+02-2.04698E-07 2.64565E-09
 -1       651 1.76917E+03-2.54557E+02 1.60239E+03-1.46014E+02-1.94026E-09 9.79981E-10
 -1       652 2.85428E+03 1.89680E+03 3.95876E+03 6.36962E+02 8.23875E-09 2.26902E-09
 -1       653 1.09555E+03-1.63813E+03 6.31698E+03-1.45815E+02-5.49285E-09-2.64390E-09
 -1       654 7.61197E+03 1.21605E+04 1.72569E+04 6.33198E+02-9.04244E-10 5.40240E-10
 -1       655-2.98724E+03-1.04996E+04 2.44181E+04-1.42271E+02-6.89958E-10-1.59707E-09
 -1       656 8.68935E+03-3.31483E+05-3.91438E+04 9.39955E+03 8.88031E-09 1.74850E-09
 -1       657-1.28716E+04-3.45731E+05-2.85112E+04 3.58115E+04 8.54993E-09-5.24096E-11
 -1       658 1.66266E+03-3.36569E+05-1.81173E+04 9.32034E+03 8.73689E-09-1.17666E-10
 -1       659-1.17317E+04-3.45084E+05-2.65052E+04 3.58636E+04 7.01311E-09 1.37753E-09
 -1       660 7.79229E+03-3.32164E+05-3.53425E+04 9.34837E+03 7.28505E-09 5.41149E-10
 -1       661 3.25988E+05 4.17057E+04 2.67059E+04 1.27518E+05 2.40379E-09-4.28372E-09
 -1       662 3.32230E+05 6.23058E+04 1.68559E+04 1.31181E+05 7.96746E-10 1.52136E-09
 -1       663 3.30582E+05 4.78072E+04 6.30663E+03 1.26870E+05 3.23212E-10 1.52204E-09
 -1       664 3.26949E+05 5.43796E+04 3.47378E+03 1.32298E+05-1.45411E-08-2.12049E-09
 -1       665 3.31095E+05 4.84767E+04 1.47912E+03 1.26831E+05-9.25087E-09-2.55523E-09
 -1       666 3.26360E+05 5.35316E+04 8.04009E+02 1.32366E+05-5.28271E-09-3.68530E-09
 -1       667 3.31150E+05 4.85559E+04 4.49384E+02 1.26837E+05 2.81690E-09 3.16547E-11
 -1       668 3.26307E+05 5.34518E+04 4.23174E+02 1.32363E+05-9.31972E-09-3.19437E-09
 -1       669 3.31145E+05 4.85508E+04 5.93937E+02 1.26836E+05 2.20288E-09 1.54665E-09
 -1       670 3.26409E+05 5.35871E+04 1.20459E+03 1.32366E+05 1.80851E-08 3.38071E-09
 -1       671 3.31052E+05 4.84296E+04 2.28961E+03 1.26831E+05 5.12341E-09-3.07932E-09
 -1       672 3.27343E+05 5.49059E+04 5.42337E+03 1.32247E+05 3.57210E-09 2.86593E-09
 -1       673 3.30240E+05 4.73891E+04 9.86204E+03 1.26899E+05-2.37998E-09-5.97083E-10
 -1       674 3.35614E+05 6.72987E+04 2.63709E+04 1.30485E+05-7.27869E-09-1.96405E-09
 -1       675 3.23047E+05 3.78481E+04 4.17862E+04 1.27916E+05-5.66160E-09 2.02272E-09
 -1       676 8.74253E+02-3.12865E+05-4.55250E+03 3.13543E+02 4.59920E-09 1.72052E-09
 -1       677-1.72394E+03-3.14603E+05-4.93100E+03 1.19119E+02 1.40562E-09 9.92415E-10
 -1       678 5.41528E+02-3.13072E+05-5.84742E+03 3.12920E+02 9.73341E-09 8.08374E-10
 -1       679-6.17522E+03-3.17249E+05-1.28265E+04 1.18631E+02 5.26597E-09 1.73265E-09
 -1       680 4.46061E+03-3.10220E+05-1.94864E+04 3.12997E+02 8.80846E-09-2.51795E-10
 -1       681 5.11899E+05-1.35816E+04 3.14873E+04 1.55333E+03 6.03961E-11 1.63709E-10
 -1       682 5.26021E+05 1.57249E+04 2.23494E+04-6.24604E+03 3.24292E-10 3.56522E-10
 -1       683 5.17350E+05-2.11421E+03 8.17058E+03 3.61577E+02 2.78888E-10 1.44155E-09
 -1       684 5.19654E+05 2.45530E+03 5.16140E+03-4.56676E+03 3.33319E-10 1.48248E-09
 -1       685 5.18259E+05-3.28463E+02 2.14944E+03-1.25955E+02 1.09310E-10 2.21712E-09
 -1       686 5.18608E+05 4.02910E+02 1.35462E+03-4.09854E+03-7.23750E-10 1.52488E-09
 -1       687 5.18394E+05-6.36618E+01 8.06579E+02-1.06643E+02-1.29174E-09 1.40417E-10
 -1       688 5.18553E+05 1.79714E+02 9.16330E+02-4.65144E+03-5.81508E-10 1.48659E-09
 -1       689 5.18317E+05-1.07660E+02 1.24834E+03 4.26938E+02-3.74754E-10-1.02318E-11
 -1       690 5.19134E+05 7.90861E+02 2.70460E+03-6.43867E+03 1.61458E-09 1.00633E-09
 -1       691 5.17826E+05-6.83049E+02 4.45317E+03 1.68062E+03 7.35042E-10-7.54198E-10
 -1       692 5.22185E+05 5.17135E+03 1.12086E+04-1.01548E+04 1.67594E-09-5.52973E-10
 -1       693 5.15311E+05-4.51226E+03 1.73616E+04 4.14319E+03 9.40190E-11-1.46429E-09
 -1       694 5.38557E+05 3.38228E+04 4.87128E+04-1.73654E+04-5.86545E-09-8.15817E-10
 -1       695 5.01610E+05-2.93871E+04 6.70227E+04 8.89210E+03-3.89389E-09-5.43878E-09
 -1       696-1.05367E+04 4.36611E+05 2.40072E+04 1.41247E+03 1.07320E-10-9.11626E-10
 -1       697 1.12921E+04 4.47030E+05 1.53497E+04-7.36554E+03 9.43601E-11-3.53140E-10
 -1       698-7.26171E+02 4.41297E+05 2.77256E+03 6.68995E+02-2.41016E-10 1.09920E-09
 -1       699-5.00281E+03 4.39335E+05-5.96862E+03-6.67390E+03-2.71029E-10 2.65083E-09
 -1       700 5.73364E+03 4.44304E+05-1.26291E+04 7.20806E+02-1.70985E-10 1.15725E-09
 -1       701-4.65097E+05-4.32682E+04-5.95008E+04-1.85951E+05-4.85670E-10-1.85537E-10
 -1       702-4.99476E+05-9.38711E+04-4.11515E+04-1.71281E+05-7.56700E-10-8.19000E-10
 -1       703-4.76019E+05-6.54998E+04-1.39513E+04-1.82988E+05-6.01403E-10 1.11504E-09
 -1       704-4.86848E+05-6.80823E+04-8.69209E+03-1.74664E+05-1.45633E-09-9.32232E-10
 -1       705-4.77725E+05-6.90121E+04-3.26456E+03-1.82588E+05 1.06274E-09 6.17547E-10
 -1       706-4.83985E+05-6.46905E+04-1.91285E+03-1.75846E+05 3.49974E-10-2.50296E-09
 -1       707-4.78875E+05-6.88898E+04-9.51182E+02-1.81803E+05-4.35065E-10-3.44471E-10
 -1       708-4.81416E+05-6.60428E+04-6.94319E+02-1.77998E+05 9.87441E-10 2.60805E-10
 -1       709-4.80278E+05-6.76699E+04-9.85068E+02-1.80425E+05 9.36836E-10-9.82396E-11
 -1       710-4.79089E+05-6.91124E+04-1.81678E+03-1.80836E+05-9.98085E-10 3.24576E-10
 -1       711-4.81200E+05-6.58228E+04-3.30896E+03-1.78963E+05-7.07246E-10 1.86992E-09
 -1       712-4.79475E+05-7.51777E+04-8.61465E+03-1.82768E+05-5.03405E-10 2.75872E-09
 -1       713-4.79909E+05-6.16004E+04-1.38996E+04-1.78502E+05-6.57110E-10-1.95178E-09
 -1       714-4.92813E+05-1.00720E+05-4.10803E+04-1.79298E+05-2.17756E-09-2.59615E-09
 -1       715-4.67882E+05-4.03094E+04-5.92454E+04-1.82430E+05 6.39375E-10 2.36469E-10
 -1       716 1.50835E+05-1.58210E+04 3.54630E+04 4.50778E+03 6.40364E-09-1.98088E-09
 -1       717 1.74173E+05 1.81489E+04 2.64552E+04-1.25623E+04 1.93108E-09-3.73257E-09
 -1       718 1.58632E+05-2.44005E+03 9.10972E+03 2.92043E+03 5.31486E-10-6.00721E-10
 -1       719 1.64418E+05 2.76928E+03 6.27302E+03-9.98695E+03 5.64853E-10-1.32582E-09
 -1       720 1.60448E+05-3.71001E+02 2.40364E+03 1.93135E+03 6.88260E-10 1.36765E-09
 -1       721 1.62005E+05 4.52778E+02 1.75074E+03-8.43055E+03 3.02686E-09 6.99160E-10
 -1       722 1.60976E+05-7.90151E+01 1.06399E+03 1.36387E+03 2.29667E-09 1.10727E-09
 -1       723 1.61387E+05 2.92767E+02 1.41443E+03-7.64874E+03 2.62445E-09 8.93792E-10
 -1       724 1.61036E+05-1.90659E+02 2.09170E+03 1.14960E+03 4.62428E-09 1.61788E-09
 -1       725 1.61922E+05 1.42986E+03 4.54056E+03-7.54811E+03 2.68795E-09 3.08449E-09
 -1       726 1.60437E+05-1.21195E+03 7.71400E+03 1.26328E+03 3.23416E-09 1.33105E-09
 -1       727 1.66037E+05 9.06766E+03 1.90186E+04-8.12129E+03 4.31032E-09 2.09911E-09
 -1       728 1.56941E+05-7.82982E+03 3.01276E+04 1.72275E+03 1.04583E-09 7.27596E-11
 -1       729 1.89763E+05 5.81644E+04 8.27202E+04-9.53448E+03-5.13651E-10 1.20326E-09
 -1       730 1.36779E+05-5.02515E+04 1.16464E+05 2.67628E+03 2.81477E-09-1.06229E-09
 -1       731-1.72050E+04 1.78180E+05 3.77693E+04-7.32322E+03-2.83580E-09-1.96928E-09
 -1       732 1.98026E+04 2.06904E+05 2.90901E+04 2.36813E+04 1.22236E-09-3.91111E-10
 -1       733-2.76118E+03 1.88354E+05 1.03207E+04-5.12792E+03-6.56200E-10-2.87571E-10
 -1       734 4.27194E+03 1.94536E+05 8.15758E+03 2.05783E+04 1.51658E-10-2.39947E-09
 -1       735-1.50960E+03 1.90269E+05 4.70048E+03-4.21885E+03 3.95062E-10-1.85804E-09
 -1       736-9.49603E+05-1.23100E+05-7.32537E+04-3.92809E+05 5.73527E-09-2.56478E-09
 -1       737-1.02724E+06-1.44278E+05-4.94770E+04-3.27231E+05 1.06465E-08-4.70754E-09
 -1       738-9.77553E+05-1.44209E+05-1.86647E+04-3.82821E+05 3.23394E-09 3.87809E-09
 -1       739-9.78049E+05-1.33319E+05-6.98702E+03-3.53215E+05 1.90829E-09 8.13998E-11
 -1       740-9.98264E+05-1.34431E+05-6.35816E+03-3.66429E+05 2.29306E-09 5.33259E-09
 -1       741-9.54426E+05-1.55599E+05 1.48492E+02-3.85984E+05 5.23715E-09 1.41477E-08
 -1       742-1.00141E+06-1.21724E+05-1.39211E+03-3.50249E+05 3.85938E-09-6.78574E-09
 -1       743-9.51569E+05-1.67121E+05-2.78456E+02-4.01415E+05-1.78344E-10 9.33156E-09
 -1       744-1.00150E+06-1.22590E+05-1.51109E+03-3.51296E+05-2.81289E-08-9.30453E-09
 -1       745-9.55442E+05-1.53108E+05 6.08631E+02-3.83032E+05-1.60725E-08-1.19888E-09
 -1       746-9.97093E+05-1.36104E+05-6.07343E+03-3.68287E+05-4.96959E-09-1.02432E-09
 -1       747-9.81210E+05-1.30236E+05-6.18164E+03-3.50477E+05 2.41791E-09-1.20565E-09
 -1       748-9.75592E+05-1.45593E+05-1.68405E+04-3.83725E+05 1.92017E-09 7.58882E-09
 -1       749-1.02734E+06-1.40064E+05-4.50239E+04-3.26995E+05 9.49285E-10 1.19726E-08
 -1       750-9.51506E+05-1.25891E+05-6.65689E+04-3.92176E+05 3.80169E-10 1.03137E-08
 -1       751 2.51178E+06-1.41790E+05 3.30510E+05 8.19849E+03-1.84876E-08 7.27596E-10
 -1       752 2.65525E+06 1.64232E+05 2.33461E+05-1.02138E+04-4.54050E-09-1.19326E-09
 -1       753 2.56729E+06-2.21088E+04 8.56453E+04 1.81690E+03-2.02228E-10 2.18279E-10
 -1       754 2.59078E+06 2.55948E+04 5.37612E+04-2.38662E+03 1.87363E-09 3.91537E-09
 -1       755 2.57640E+06-3.44167E+03 2.20653E+04 3.72642E+02 1.27138E-09 1.29148E-10
 -1       756 2.58025E+06 4.03450E+03 1.31714E+04-6.10311E+02-1.39426E-09-2.36514E-09
 -1       757 2.57790E+06-5.87222E+02 6.49925E+03 4.06000E+01-2.76779E-10-2.62162E-10
 -1       758 2.57869E+06 1.04843E+03 5.20847E+03-2.14621E+02 1.73774E-10 1.33643E-09
 -1       759 2.57797E+06-4.60203E+02 5.32873E+03-2.30546E+01 1.65560E-10-1.47566E-10
 -1       760 2.57965E+06 2.93724E+03 9.79447E+03-1.94906E+02 7.31291E-11-6.49834E-10
 -1       761 2.57692E+06-2.47301E+03 1.59739E+04 2.08854E+01 9.00294E-10-2.56932E-09
 -1       762 2.58716E+06 1.83510E+04 3.85982E+04-5.02033E+02 2.24387E-09 9.64064E-10
 -1       763 2.57041E+06-1.58463E+04 6.13872E+04 2.84073E+02 6.33476E-09 7.38510E-10
 -1       764 2.63306E+06 1.17643E+05 1.67197E+05-1.93560E+03 1.52015E-09 4.65661E-10
 -1       765 2.53087E+06-1.01561E+05 2.36722E+05 1.45429E+03-1.74727E-09 3.05590E-10
 -1       766-5.96798E+04 3.63612E+05 1.39859E+05-1.11472E+04 2.83762E-10 2.67278E-10
 -1       767 7.30235E+04 4.29569E+05 1.06779E+05 4.53404E+04 1.05501E-10 1.15202E-09
 -1       768-1.31835E+04 3.86351E+05 5.11691E+04-1.00223E+04 1.16506E-09-2.26012E-09
 -1       769 4.24668E+04 4.21283E+05 6.75391E+04 4.86082E+04 1.85628E-09 2.71564E-09
 -1       770-2.93951E+04 3.72198E+05 6.88104E+04-1.44161E+04-1.28057E-08 4.64638E-09
 -1       771-1.39950E+06-2.83624E+05-5.01144E+04-6.05333E+05-4.16549E-10-7.20320E-10
 -1       772-1.39623E+06-2.81925E+05-2.45336E+04-6.25446E+05-1.96997E-09-3.16504E-10
 -1       773-1.40152E+06-2.64577E+05-1.04415E+04-6.13614E+05-3.58705E-09-6.86668E-09
 -1       774-1.39080E+06-2.75463E+05-5.09063E+03-6.27068E+05 1.03319E-09-1.37015E-09
 -1       775-1.40206E+06-2.63682E+05-2.36200E+03-6.14089E+05-2.97223E-09-6.94126E-09
 -1       776-1.39058E+06-2.75166E+05-1.18792E+03-6.27310E+05-5.63887E-11-1.46451E-09
 -1       777-1.40233E+06-2.63584E+05-6.53689E+02-6.14194E+05-7.20320E-10-7.37941E-10
 -1       778-1.39069E+06-2.75120E+05-5.06113E+02-6.27470E+05-4.03816E-10-1.32297E-09
 -1       779-1.40249E+06-2.63493E+05-6.41626E+02-6.14266E+05-3.98177E-09 3.07409E-10
 -1       780-1.39083E+06-2.75088E+05-1.17177E+03-6.27597E+05-1.10722E-08-2.08138E-09
 -1       781-1.40252E+06-2.63408E+05-2.31687E+03-6.14301E+05-6.55018E-09-3.22780E-09
 -1       782-1.39128E+06-2.75342E+05-5.03783E+03-6.27676E+05-6.94399E-10-9.45874E-11
 -1       783-1.40230E+06-2.64086E+05-1.03079E+04-6.13933E+05-1.21156E-09-9.97716E-10
 -1       784-1.39658E+06-2.82053E+05-2.43154E+04-6.26737E+05-1.57172E-10 2.38288E-10
 -1       785-1.40082E+06-2.82569E+05-4.96156E+04-6.05511E+05 5.15001E-11 1.03682E-10
 -1       786 2.67226E+05-7.85277E+03 3.40884E+04-1.89508E+03 3.54703E-10-1.94450E-09
 -1       787 2.79505E+05 1.06889E+04 2.18266E+04-7.59190E+03-4.44800E-10 4.57931E-10
 -1       788 2.72364E+05-8.08288E+02 8.83364E+03-1.89225E+03-1.73827E-10-1.21508E-09
 -1       789 2.73779E+05 1.05060E+03 4.93061E+03-7.58423E+03 1.77124E-10-1.15119E-09
 -1       790 2.72945E+05-8.76198E+01 2.24491E+03-1.90199E+03 1.78716E-10-8.17295E-10
 -1       791 2.73120E+05 1.01645E+02 1.20556E+03-7.56995E+03 3.86166E-10-1.02386E-09
 -1       792 2.73020E+05-1.11328E+01 6.20857E+02-1.90652E+03 2.67164E-12-2.05441E-09
 -1       793 2.73038E+05 1.31878E+01 4.17722E+02-7.56678E+03 4.27391E-11-1.07187E-09
 -1       794 2.73026E+05-6.50418E+00 3.93979E+02-1.90517E+03-2.29477E-10 1.77906E-10
 -1       795 2.73066E+05 4.60812E+01 6.08082E+02-7.57572E+03 5.68889E-10 3.75480E-09
 -1       796 2.72994E+05-4.12397E+01 1.05517E+03-1.89758E+03-4.08704E-10-2.37193E-09
 -1       797 2.73369E+05 4.78874E+02 2.27226E+03-7.59500E+03 8.35598E-12-3.96335E-09
 -1       798 2.72729E+05-3.72235E+02 4.05189E+03-1.88589E+03-5.81281E-10-9.84073E-10
 -1       799 2.75996E+05 4.89180E+03 1.00004E+04-7.60455E+03-1.58911E-09-6.20730E-10
 -1       800 2.70376E+05-3.60057E+03 1.56118E+04-1.88845E+03 5.66388E-10-1.77351E-10
 -1       801-1.03083E+04 2.77021E+05 3.91307E+04-2.11553E+05 9.14952E-10-1.33878E-09
 -1       802 2.36075E+04 2.88472E+05 4.09276E+04-8.26419E+05-5.29326E-09-5.44605E-09
 -1       803-1.19943E+03 2.77371E+05 4.29130E+04-2.11047E+05 2.68119E-09 2.70313E-09
 -1       804 5.10114E+04 3.05320E+05 8.98520E+04-8.26364E+05-7.55244E-09-6.11544E-09
 -1       805-3.27715E+04 2.60813E+05 1.31594E+05-2.11619E+05 2.46655E-09 9.24047E-10
 -1       806-2.62473E+05-7.00558E+04-2.23752E+04-1.21121E+05-2.90504E-09-6.62476E-09
 -1       807-2.62576E+05-6.44071E+04-1.06156E+04-1.27966E+05 1.28239E-09 5.30690E-09
 -1       808-2.62356E+05-5.86287E+04-4.46346E+03-1.25942E+05-1.49748E-09-1.53091E-09
 -1       809-2.60368E+05-6.03915E+04-2.15702E+03-1.28894E+05-1.10958E-10-3.17755E-10
 -1       810-2.62413E+05-5.78459E+04-9.75470E+02-1.26294E+05 2.06933E-09 8.80686E-09
 -1       811-2.60152E+05-6.01248E+04-4.89314E+02-1.28933E+05-2.62617E-11 2.08752E-09
 -1       812-2.62431E+05-5.78225E+04-2.56887E+02-1.26311E+05-1.77579E-10-3.06090E-09
 -1       813-2.60129E+05-6.01176E+04-1.91528E+02-1.28927E+05-8.47933E-10 8.29687E-10
 -1       814-2.62429E+05-5.78258E+04-2.25455E+02-1.26309E+05-6.23686E-09-7.70569E-09
 -1       815-2.60143E+05-6.01269E+04-4.05851E+02-1.28926E+05-3.30147E-10 2.85172E-09
 -1       816-2.62407E+05-5.78491E+04-7.95907E+02-1.26292E+05 4.48927E-09 1.15278E-08
 -1       817-2.60317E+05-6.03413E+04-1.75389E+03-1.28883E+05 6.47469E-09 7.41784E-09
 -1       818-2.62351E+05-5.84938E+04-3.62628E+03-1.26007E+05 2.19370E-09-4.80759E-09
 -1       819-2.62144E+05-6.35622E+04-8.62182E+03-1.28076E+05-2.92630E-10 2.19188E-10
 -1       820-2.62400E+05-6.78097E+04-1.81716E+04-1.22129E+05-1.42518E-09 2.48588E-09
 -1       821-2.65978E+05 7.90485E+03-3.43351E+04 1.94029E+03-2.97678E-09 4.05635E-10
 -1       822-2.78331E+05-1.07675E+04-2.19847E+04 7.99590E+03-1.74532E-09-1.37516E-09
 -1       823-2.71157E+05 8.10959E+02-8.90104E+03 1.88150E+03 2.35900E-09 6.93035E-10
 -1       824-2.72580E+05-1.04945E+03-4.97015E+03 8.07744E+03-3.07637E-10 1.52716E-09
 -1       825-2.71744E+05 8.88711E+01-2.27317E+03 1.85795E+03-5.20708E-09-2.09752E-10
 -1       826-2.71929E+05-8.83061E+01-1.23739E+03 8.11602E+03-1.01718E-08 2.44728E-09
 -1       827-2.71820E+05 1.47713E+01-6.72918E+02 1.84274E+03-4.59386E-09-5.84777E-10
 -1       828-2.71858E+05 5.27549E-01-5.18648E+02 8.13999E+03-6.27972E-09 1.30721E-09
 -1       829-2.71823E+05 1.41073E+01-5.88228E+02 1.83394E+03-5.27109E-10 1.05298E-09
 -1       830-2.71916E+05-6.43699E+01-1.01561E+03 8.15030E+03 4.44498E-09 1.56683E-09
 -1       831-2.71765E+05 7.47807E+01-1.82989E+03 1.83243E+03-4.47223E-09-4.42242E-10
 -1       832-2.72443E+05-8.30362E+02-3.98256E+03 8.14596E+03-1.34332E-09-4.06590E-09
 -1       833-2.71296E+05 6.53993E+02-7.12187E+03 1.83844E+03-4.62762E-10-1.03591E-09
 -1       834-2.77049E+05-8.60258E+03-1.75889E+04 8.11438E+03-2.65345E-10-2.68733E-09
 -1       835-2.67154E+05 6.33040E+03-2.74655E+04 1.86543E+03 1.18882E-09-3.05408E-09
 -1       836-1.26470E+04 6.84776E+05 5.79058E+04-1.87245E+04-1.10049E-09 2.33194E-09
 -1       837 1.94673E+04 7.06024E+05 4.50127E+04-7.18184E+04 3.23803E-09 3.63343E-09
 -1       838-3.04646E+03 6.91600E+05 3.33436E+04-1.87269E+04-1.73713E-09 4.20656E-09
 -1       839 2.57788E+04 7.09764E+05 5.62088E+04-7.18091E+04 3.23234E-09 1.34605E-10
 -1       840-1.77208E+04 6.81023E+05 7.90982E+04-1.87331E+04-1.41154E-09 8.44466E-10
 -1       841-3.07224E+04 2.18607E+02-1.18194E+04-1.36385E+04-2.63935E-09-1.40881E-09
 -1       842-3.72026E+04-1.03247E+04-8.19275E+03-1.12837E+04-1.44234E-09-3.41527E-09
 -1       843-3.31153E+04-4.02973E+03-2.76976E+03-1.28557E+04 2.90942E-09 2.94904E-09
 -1       844-3.44327E+04-5.39602E+03-1.72235E+03-1.21782E+04 2.80544E-09 5.37966E-10
 -1       845-3.34916E+04-4.70269E+03-6.35862E+02-1.27470E+04 5.62579E-10 1.25411E-09
 -1       846-3.40002E+04-4.60954E+03-3.55630E+02-1.22978E+04-4.27896E-09-1.08938E-09
 -1       847-3.35479E+04-4.81503E+03-1.20048E+02-1.27367E+04-4.29262E-09-5.00805E-10
 -1       848-3.39286E+04-4.46452E+03-1.47689E+01-1.23091E+04-3.21118E-09-7.53531E-11
 -1       849-3.35633E+04-4.84748E+03 8.66834E+01-1.27358E+04 3.83343E-09 1.17467E-10
 -1       850-3.38586E+04-4.34560E+03 2.84792E+02-1.23254E+04 8.50099E-09-1.06134E-10
 -1       851-3.36178E+04-4.93379E+03 5.16062E+02-1.27205E+04-2.10991E-09-2.20587E-09
 -1       852-3.34803E+04-3.72118E+03 1.40616E+03-1.24432E+04-2.87251E-09-5.06418E-10
 -1       853-3.39414E+04-5.47106E+03 2.25913E+03-1.26182E+04-9.85750E-10-6.06178E-10
 -1       854-3.11793E+04 2.70947E+02 6.69049E+03-1.32083E+04 2.81477E-09 3.22427E-09
 -1       855-3.59177E+04-8.91996E+03 9.64658E+03-1.19574E+04-2.00089E-10 1.97633E-09
 -1       856-3.13066E+05 7.30202E+03-3.17529E+04 3.90827E+03-1.42427E-09 3.47427E-10
 -1       857-3.24479E+05-9.92706E+03-2.03242E+04 1.63101E+04-2.32239E-09 1.43700E-09
 -1       858-3.17859E+05 7.52385E+02-8.23136E+03 3.80761E+03-6.94899E-09 2.19779E-09
 -1       859-3.19189E+05-9.32166E+02-4.59142E+03 1.64505E+04-1.95439E-09-4.70573E-09
 -1       860-3.18405E+05 9.05735E+01-2.09674E+03 3.76615E+03 4.42014E-10-1.08730E-09
 -1       861-3.18602E+05-3.68036E+01-1.13194E+03 1.65125E+04-5.49483E-09-1.51596E-09
 -1       862-3.18478E+05 2.47998E+01-5.98947E+02 3.74534E+03 8.26196E-09 4.23768E-10
 -1       863-3.18540E+05 4.90767E+01-4.32060E+02 1.65380E+04 1.86287E-08-3.64003E-09
 -1       864-3.18483E+05 2.27853E+01-4.51775E+02 3.74054E+03 8.32847E-09 3.43960E-10
 -1       865-3.18575E+05 2.23890E+00-7.45479E+02 1.65308E+04 1.67947E-08-3.13459E-09
 -1       866-3.18439E+05 6.34582E+01-1.32568E+03 3.75254E+03 2.91607E-09-2.49173E-09
 -1       867-3.18937E+05-5.55771E+02-2.87098E+03 1.64889E+04-6.14625E-09-2.26788E-09
 -1       868-3.18098E+05 4.74690E+02-5.13417E+03 3.78269E+03 1.16779E-09-7.44421E-10
 -1       869-3.22227E+05-6.16333E+03-1.26672E+04 1.63747E+04-2.29102E-09-4.66116E-11
 -1       870-3.15110E+05 4.55334E+03-1.97899E+04 3.86810E+03 1.03000E-09-1.91812E-09
 -1       871-2.97028E+03-2.79138E+04-5.32278E+03 7.99819E+04 3.89900E-09-1.29148E-10
 -1       872-9.76823E+02-2.88596E+04-1.54251E+03 9.35149E+04-3.91083E-11-3.99336E-09
 -1       873 1.88650E+01-2.85199E+04 1.59171E+03 7.98301E+04 1.62345E-09 1.12527E-09
 -1       874 1.82981E+03-2.72449E+04 5.90032E+03 9.35850E+04 4.31191E-09 1.20690E-09
 -1       875 6.11376E+03-2.95886E+04 1.27334E+04 7.99226E+04 2.65118E-09 2.39993E-09
 -1       876 3.73018E+05 4.69509E+04 3.53405E+04 1.46830E+05 3.97404E-09-1.01500E-09
 -1       877 3.80988E+05 7.45292E+04 2.23076E+04 1.52041E+05 4.93060E-10-2.19052E-09
 -1       878 3.79089E+05 5.50372E+04 8.34300E+03 1.45981E+05 8.83688E-10-2.02817E-09
 -1       879 3.74010E+05 6.40222E+04 4.59396E+03 1.53493E+05-1.17820E-08-1.44678E-09
 -1       880 3.79757E+05 5.59351E+04 1.94860E+03 1.45940E+05-9.60119E-09-3.75405E-09
 -1       881 3.73241E+05 6.28829E+04 1.04671E+03 1.53559E+05-1.01174E-08-5.71012E-09
 -1       882 3.79822E+05 5.60500E+04 5.58606E+02 1.45956E+05 3.60455E-09 1.33255E-09
 -1       883 3.73175E+05 6.27594E+04 4.81257E+02 1.53535E+05-6.08452E-09 1.89031E-09
 -1       884 3.79813E+05 5.60543E+04 6.27884E+02 1.45962E+05-3.70948E-09 1.80211E-09
 -1       885 3.73283E+05 6.28874E+04 1.23765E+03 1.53528E+05 1.58445E-08 2.19677E-09
 -1       886 3.79717E+05 5.59325E+04 2.33629E+03 1.45958E+05 4.84278E-09 2.06842E-09
 -1       887 3.74233E+05 6.42308E+04 5.52377E+03 1.53410E+05-1.76962E-09-3.60069E-09
 -1       888 3.78894E+05 5.48696E+04 1.00406E+04 1.46024E+05-7.72189E-10-2.47746E-09
 -1       889 3.82650E+05 7.68522E+04 2.68462E+04 1.51627E+05 1.57402E-09-5.85715E-10
 -1       890 3.71576E+05 4.51513E+04 4.25366E+04 1.47055E+05 9.86802E-11 1.49157E-10
 -1       891 1.33218E+03-1.66361E+05-6.44822E+03 1.80549E+04 4.36216E-09-3.27873E-10
 -1       892-2.28868E+03-1.68636E+05-5.18125E+03 7.03912E+04-8.22411E-10 1.32195E-09
 -1       893 3.58355E+02-1.67095E+05-4.13355E+03 1.79719E+04 3.22098E-09 2.31955E-09
 -1       894-3.52407E+03-1.69360E+05-7.36714E+03 7.03844E+04-5.56156E-10 5.56952E-09
 -1       895 2.31996E+03-1.65626E+05-1.05855E+04 1.80614E+04 1.19562E-08 3.65253E-09
 -1       896 7.59536E+05-6.23393E+03 1.44928E+04 1.61958E+03 1.77977E-10-3.59796E-09
 -1       897 7.65848E+05 7.21673E+03 1.02630E+04-1.71740E+03 3.70548E-11-2.12958E-09
 -1       898 7.61993E+05-9.71140E+02 3.76566E+03 8.73155E+02-2.66382E-11-2.27601E-09
 -1       899 7.62990E+05 1.12514E+03 2.38392E+03-5.87064E+02 2.53280E-10-1.37035E-09
 -1       900 7.62397E+05-1.52286E+02 1.01121E+03 4.89238E+02 9.73976E-11-1.52363E-09
 -1       901 7.62526E+05 1.88661E+02 6.73465E+02 4.58734E+01-4.52653E-10-1.13278E-09
 -1       902 7.62457E+05-3.59950E+01 4.63264E+02 2.40208E+02 1.09349E-10-9.99340E-10
 -1       903 7.62498E+05 1.24793E+02 6.22169E+02 5.54613E+02 1.79547E-10-8.66301E-10
 -1       904 7.62425E+05-8.85618E+01 9.46807E+02-1.95109E+01-6.54765E-11-6.39943E-10
 -1       905 7.62782E+05 6.42985E+02 2.07193E+03 1.23606E+03-6.06704E-10-3.97449E-10
 -1       906 7.62173E+05-5.53781E+02 3.52893E+03-4.41251E+02-9.22284E-12-2.05546E-10
 -1       907 7.64536E+05 4.12948E+03 8.66909E+03 2.48868E+03-4.95277E-10 8.08200E-10
 -1       908 7.60670E+05-3.57074E+03 1.37969E+04-1.27216E+03 1.55524E-10 1.86992E-09
 -1       909 7.75128E+05 2.65414E+04 3.77308E+04 5.07252E+03 1.70782E-09 1.66801E-09
 -1       910 7.51580E+05-2.29306E+04 5.32700E+04-3.02502E+03 2.37887E-09 3.94721E-09
 -1       911 2.51580E+05-3.56957E+03 8.29476E+03 3.02245E+01-2.20903E-09 7.42648E-09
 -1       912 2.55168E+05 4.14427E+03 5.87157E+03-3.10130E+03-1.30433E-09 6.86748E-09
 -1       913 2.52981E+05-5.56529E+02 2.16052E+03-8.40808E+01-9.01643E-10 8.26651E-09
 -1       914 2.53547E+05 6.56146E+02 1.37415E+03-3.04667E+03-5.29358E-10 7.88600E-09
 -1       915 2.53201E+05-8.75429E+01 5.99140E+02-2.44183E+01 3.22337E-09 8.21456E-09
 -1       916 2.53334E+05 1.21203E+02 4.38976E+02-3.35286E+03 4.40082E-09 6.53368E-09
 -1       917 2.53198E+05-2.42278E+01 3.44054E+02 2.22099E+02 2.80799E-09 6.59536E-09
 -1       918 2.53467E+05 1.08556E+02 5.76997E+02-4.07745E+03-6.06228E-10 4.59019E-09
 -1       919 2.53075E+05-8.00596E+01 8.62991E+02 7.00168E+02 4.75097E-10 4.09148E-09
 -1       920 2.54058E+05 5.98336E+02 2.06786E+03-5.35349E+03 2.00589E-09 2.09252E-09
 -1       921 2.52625E+05-5.25629E+02 3.32647E+03 1.49817E+03-5.06390E-10-1.48930E-10
 -1       922 2.56477E+05 3.94015E+03 8.56737E+03-7.42069E+03-8.05443E-10-3.00929E-09
 -1       923 2.50697E+05-3.44499E+03 1.31240E+04 2.76754E+03-1.52670E-09-6.72662E-09
 -1       924 2.68368E+05 2.56583E+04 3.69200E+04-1.07470E+04-4.55279E-09-1.07466E-08
 -1       925 2.40830E+05-2.22697E+04 5.09130E+04 4.82511E+03-2.53829E-09-1.70585E-08
 -1       926-7.90378E+05 1.61417E+04-4.28912E+04-2.13857E+04 3.99746E-09-3.64653E-08
 -1       927-7.91864E+05-1.84670E+04-2.70998E+04 4.96798E+04-2.57899E-08-4.64534E-08
 -1       928-7.87586E+05 2.63574E+03-1.04307E+04-2.94259E+04 5.67942E-09-5.10881E-08
 -1       929-7.85882E+05-2.17497E+03-5.39200E+03 5.11836E+04 2.89687E-08-4.75839E-08
 -1       930-7.96435E+05-4.21528E+01-4.11874E+03-2.28916E+04 5.94582E-10-4.16566E-08
 -1       931-7.64667E+05 6.06745E+02 3.57442E+03 2.66458E+04-1.17971E-08-2.32205E-08
 -1       932-8.07677E+05-1.06279E+03-4.31303E+03-4.87400E+03-1.04842E-09-1.16287E-08
 -1       933-7.58240E+05 1.09671E+03 6.17944E+03-1.17614E+04-3.33910E-09 1.17191E-08
 -1       934-8.02519E+05-8.19116E+02-2.29841E+03 1.54992E+04 3.50860E-09 2.45898E-08
 -1       935-7.76511E+05 1.24984E+03 3.81292E+03-4.42864E+04-7.55858E-09 3.97868E-08
 -1       936-7.90448E+05-3.59384E+02 2.00974E+03 2.76509E+04 6.29490E-09 4.63181E-08
 -1       937-7.85752E+05 3.42867E+03 5.97701E+03-5.44650E+04-3.08386E-08 4.63456E-08
 -1       938-7.93856E+05-2.51221E+03 7.82513E+03 2.56887E+04-2.44239E-08 4.32951E-08
 -1       939-7.62806E+05 1.84580E+04 2.73074E+04-3.74357E+04-1.59075E-08 2.92825E-08
 -1       940-8.12473E+05-1.61082E+04 2.92726E+04 1.06072E+04 7.31916E-10 2.06364E-08
 -1       941 4.04059E+06-2.00680E+05 4.68553E+05 6.48891E+02 1.95290E-08 3.81260E-09
 -1       942 4.24260E+06 2.32508E+05 3.30655E+05 1.11522E+03 2.69404E-08 2.75031E-09
 -1       943 4.11875E+06-3.13167E+04 1.21452E+05 8.37802E+02 1.47923E-06 6.70843E-09
 -1       944 4.15196E+06 3.62605E+04 7.62493E+04 9.00867E+02 2.93065E-06-2.72485E-09
 -1       945 4.13166E+06-4.87792E+03 3.13552E+04 8.63373E+02 2.13929E-06-3.49246E-10
 -1       946 4.13709E+06 5.72887E+03 1.87881E+04 8.71285E+02 1.33626E-06 5.77074E-09
 -1       947 4.13379E+06-8.42295E+02 9.40879E+03 8.67431E+02 1.81141E-06 2.45791E-09
 -1       948 4.13492E+06 1.56386E+03 7.78830E+03 8.62936E+02 2.28255E-06 1.85567E-09
 -1       949 4.13387E+06-7.19530E+02 8.27787E+03 8.71731E+02 1.14787E-06-5.15047E-09
 -1       950 4.13652E+06 4.66871E+03 1.55265E+04 8.31215E+02 1.25966E-08 5.37375E-09
 -1       951 4.13217E+06-3.94216E+03 2.54727E+04 8.99146E+02 5.97739E-10-4.51928E-09
 -1       952 4.14849E+06 2.92665E+04 6.16177E+04 6.07008E+02-2.23475E-09 8.00355E-11
 -1       953 4.12176E+06-2.52720E+04 9.80386E+04 1.09590E+03-6.45778E-09 2.10639E-09
 -1       954 4.22164E+06 1.87623E+05 2.66834E+05-1.02717E+03-6.31086E-09-2.02635E-09
 -1       955 4.05863E+06-1.61951E+05 3.77957E+05 2.53287E+03-1.71811E-08-1.17871E-09
 -1       956-2.14080E+05-3.70310E+03-7.73820E+03 2.98790E+04-4.70664E-09-4.61114E-10
 -1       957-2.15495E+05-1.16526E+03-3.90357E+03 3.46702E+04-1.19144E-09-9.62132E-10
 -1       958-2.14724E+05-1.26307E+02-1.75610E+03 2.96976E+04 2.95313E-09-9.36552E-10
 -1       959-2.14861E+05 9.55768E-01-8.92716E+02 3.48690E+04 6.63931E-11-3.24712E-09
 -1       960-2.14805E+05 5.16268E+01-4.33610E+02 2.96785E+04-2.56568E-09-3.38991E-09
 -1       961-2.14824E+05 6.32832E+01-2.28228E+02 3.48904E+04-8.43602E-09-2.42153E-09
 -1       962-2.14830E+05 5.90258E+01-1.28238E+02 2.96759E+04-4.40377E-09 5.92081E-10
 -1       963-2.14833E+05 7.09329E+01-9.81365E+01 3.48938E+04-5.97902E-09-1.06843E-09
 -1       964-2.14841E+05 6.48325E+01-1.13681E+02 2.96750E+04-7.61929E-10-2.16619E-09
 -1       965-2.14846E+05 7.59018E+01-1.91879E+02 3.48938E+04 5.19753E-09-1.39971E-09
 -1       966-2.14837E+05 6.93677E+01-3.57944E+02 2.96758E+04-3.22518E-09-4.32010E-10
 -1       967-2.14895E+05 3.52355E+01-7.35631E+02 3.48836E+04-5.41604E-10-7.37600E-10
 -1       968-2.14787E+05-6.73423E+01-1.44474E+03 2.96853E+04 6.73936E-10-3.48564E-10
 -1       969-2.15436E+05-9.16510E+02-3.21423E+03 3.47832E+04 2.30193E-09-1.21480E-09
 -1       970-2.14268E+05-3.00747E+03-6.37007E+03 2.97795E+04 1.40972E-09-2.80852E-09
 -1       971-4.36632E+05 6.06119E+03-2.63835E+04 3.81669E+03-2.21371E-09 1.21145E-09
 -1       972-4.46087E+05-8.24506E+03-1.68857E+04 1.62675E+04-3.12184E-09 4.14366E-09
 -1       973-4.40614E+05 6.22915E+02-6.84425E+03 3.68757E+03-8.25958E-09 1.01227E-09
 -1       974-4.41702E+05-7.68640E+02-3.82327E+03 1.64560E+04-1.86071E-09 4.73051E-10
 -1       975-4.41069E+05 7.54400E+01-1.76161E+03 3.62686E+03-3.20688E-09 1.88095E-09
 -1       976-4.41224E+05-2.21643E+01-9.79163E+02 1.65496E+04-9.98125E-09 5.39762E-09
 -1       977-4.41129E+05 2.30318E+01-5.74703E+02 3.59366E+03 6.88294E-09 2.16033E-09
 -1       978-4.41184E+05 4.62326E+01-5.17745E+02 1.65934E+04 1.79732E-08 4.21309E-09
 -1       979-4.41127E+05 2.71397E+01-6.84518E+02 3.58307E+03 1.23247E-08 1.39852E-09
 -1       980-4.41264E+05-4.35453E+01-1.27064E+03 1.65913E+04 1.51197E-08 1.54863E-09
 -1       981-4.41049E+05 1.03601E+02-2.33922E+03 3.59578E+03-4.90900E-10 1.89499E-09
 -1       982-4.41930E+05-1.03638E+03-5.11971E+03 1.65415E+04-5.16593E-09 2.86400E-09
 -1       983-4.40442E+05 8.44927E+02-9.17130E+03 3.63316E+03 3.40424E-09 1.42609E-09
 -1       984-4.47840E+05-1.10576E+04-2.26533E+04 1.64103E+04-1.04774E-09 2.66255E-09
 -1       985-4.35103E+05 8.15010E+03-3.53838E+04 3.72939E+03 5.80576E-09 2.36469E-11
 -3
    1PSTEP                        23          12           1          
  100CL  112 6.21399E-01         841                     0   12           1
 -4  DISP        4    1
 -5  D1          1    2    1    0
 -5  D2          1    2    2    0
 -5  D3          1    2    3    0
 -5  ALL         1    2    0    0    1ALL
 -1         1 7.66546E-05 0.00000E+00 0.00000E+00
 -1         2 5.80320E-05 0.00000E+00 0.00000E+00
 -1         3 4.85507E-05 0.00000E+00 0.00000E+00
 -1         4 4.25241E-05 0.00000E+00 0.00000E+00
 -1         5 3.97232E-05 0.00000E+00 0.00000E+00
 -1         8 6.03341E-05-7.69134E-07 0.00000E+00
 -1         9 4.73703E-05 6.09681E-07 0.00000E+00
 -1        10 4.41782E-05-1.98110E-06 0.00000E+00
 -1        11 4.12404E-05-3.82445E-07 0.00000E+00
 -1        12 3.81853E-05 9.95184E-07 0.00000E+00
 -1        15 2.72528E-05-1.44262E-06 0.00000E+00
 -1        16 3.50194E-05 5.91136E-07 0.00000E+00
 -1        17 3.20932E-05-3.96274E-06 0.00000E+00
 -1        18 3.25033E-05-7.60761E-07 0.00000E+00
 -1        19 3.41683E-05 1.96886E-06 0.00000E+00
 -1        20 3.46940E-05 2.09881E-05 0.00000E+00
 -1        21 3.46750E-05 5.02059E-05 0.00000E+00
 -1        22 9.22443E-06-9.65883E-07 0.00000E+00
 -1        23 1.22045E-05 1.16012E-06 0.00000E+00
 -1        24 1.32035E-05-4.67972E-06 0.00000E+00
 -1        25 2.84945E-05-5.13829E-07 0.00000E+00
 -1        26 3.01149E-05 2.61499E-06 0.00000E+00
 -1        27 2.84868E-05 2.02422E-05 0.00000E+00
 -1        28 2.65588E-05 4.94992E-05 0.00000E+00
 -1        29 0.00000E+00 0.00000E+00 0.00000E+00
 -1        30 4.54912E-06 1.52208E-06 0.00000E+00
 -1        31 5.99752E-06-3.92956E-06 0.00000E+00
 -1        32 0.00000E+00 0.00000E+00 0.00000E+00
 -1        33 2.45624E-05 4.14088E-06 0.00000E+00
 -1        34 2.32637E-05 2.01728E-05 0.00000E+00
 -1        35 2.05976E-05 4.91227E-05 0.00000E+00
 -1        36 7.55274E-05 1.74866E-20 0.00000E+00
 -1        37 7.43635E-05 2.48156E-19 0.00000E+00
 -1        38 7.32020E-05 6.81940E-19-2.64698E-23
 -1        39 7.20335E-05 9.43091E-19 0.00000E+00
 -1        40 7.08648E-05 9.41638E-19 2.64698E-23
 -1        41 6.96947E-05 7.38772E-19 0.00000E+00
 -1        42 6.85245E-05 2.95102E-19 2.64698E-23
 -1        43 6.73541E-05-5.63186E-20-1.32349E-23
 -1        44 6.61836E-05-2.08871E-20-2.64698E-23
 -1        45 6.50132E-05 1.21208E-19-1.32349E-23
 -1        46 6.38429E-05 4.31006E-19 0.00000E+00
 -1        47 6.26736E-05 6.84103E-19-1.32349E-23
 -1        48 6.15044E-05 7.70906E-19 0.00000E+00
 -1        49 6.03398E-05 5.20028E-19 0.00000E+00
 -1        50 5.91737E-05 1.95955E-19 0.00000E+00
 -1        51 7.54239E-05-1.30551E-07 0.00000E+00
 -1        52 7.33830E-05-2.55385E-07 0.00000E+00
 -1        53 7.06888E-05-3.79568E-07 0.00000E+00
 -1        54 6.75057E-05-5.04855E-07 3.30872E-24
 -1        55 6.39989E-05-6.32818E-07-4.54949E-24
 -1        56 7.51406E-05-6.41748E-07 2.64698E-23
 -1        57 7.36105E-05-1.40937E-06 2.64698E-23
 -1        58 7.21029E-05-2.22789E-06 0.00000E+00
 -1        59 7.05848E-05-3.04701E-06 2.64698E-23
 -1        60 6.90447E-05-3.80848E-06 5.29396E-23
 -1        61 6.74614E-05-4.45994E-06 0.00000E+00
 -1        62 6.58192E-05-4.95511E-06-5.29396E-23
 -1        63 6.41030E-05-5.25364E-06 2.64698E-23
 -1        64 6.23024E-05-5.32726E-06-5.29396E-23
 -1        65 6.04097E-05-5.15539E-06 0.00000E+00
 -1        66 5.84231E-05-4.73283E-06 0.00000E+00
 -1        67 5.63451E-05-4.06250E-06-2.64698E-23
 -1        68 5.41814E-05-3.16362E-06 5.29396E-23
 -1        69 5.19508E-05-2.05954E-06-2.64698E-23
 -1        70 4.96560E-05-7.93944E-07 0.00000E+00
 -1        71 5.74396E-05 2.54879E-20 0.00000E+00
 -1        72 5.68460E-05 3.63042E-19-6.61744E-24
 -1        73 5.62524E-05 7.38707E-19 0.00000E+00
 -1        74 5.56587E-05 1.09126E-18 0.00000E+00
 -1        75 5.50650E-05 1.39066E-18 0.00000E+00
 -1        76 5.44712E-05 1.34595E-18 0.00000E+00
 -1        77 5.38774E-05 1.01740E-18-1.32349E-23
 -1        78 5.32836E-05 4.38032E-19-6.61744E-24
 -1        79 5.26899E-05-1.11851E-19 0.00000E+00
 -1        80 5.20962E-05-5.48402E-19 0.00000E+00
 -1        81 5.15026E-05-7.69933E-19 1.32349E-23
 -1        82 5.09093E-05-7.22232E-19 0.00000E+00
 -1        83 5.03161E-05-5.23370E-19 1.32349E-23
 -1        84 4.97248E-05-2.77355E-19-6.61744E-24
 -1        85 4.91328E-05-4.80658E-20 0.00000E+00
 -1        86 5.75647E-05 8.34185E-08 6.61744E-24
 -1        87 5.61814E-05 1.92766E-07-8.27181E-25
 -1        88 5.41851E-05 2.99296E-07 4.13590E-25
 -1        89 5.18752E-05 4.07145E-07 0.00000E+00
 -1        90 4.95157E-05 5.16177E-07 0.00000E+00
 -1        91 5.50347E-05 6.05512E-06 1.32349E-23
 -1        92 4.72681E-05 2.43778E-05 0.00000E+00
 -1        93 3.80666E-05 4.63252E-05 0.00000E+00
 -1        94 3.08825E-05 6.31881E-05 0.00000E+00
 -1        95 2.79506E-05 6.90507E-05 1.32349E-23
 -1        96 3.12337E-05 5.82317E-05 6.61744E-24
 -1        97 3.92577E-05 3.41356E-05 0.00000E+00
 -1        98 5.05410E-05 5.66225E-07 6.61744E-24
 -1        99 6.19500E-05-3.33707E-05 0.00000E+00
 -1       100 7.03544E-05-5.85565E-05 6.61744E-24
 -1       101 7.41454E-05-7.07761E-05 0.00000E+00
 -1       102 7.17073E-05-6.62085E-05-6.61744E-24
 -1       103 6.48520E-05-5.01817E-05 0.00000E+00
 -1       104 5.56673E-05-2.82710E-05 0.00000E+00
 -1       105 4.76411E-05-9.28711E-06 0.00000E+00
 -1       106 4.81745E-05-3.40004E-20 0.00000E+00
 -1       107 4.77972E-05-1.03482E-19 0.00000E+00
 -1       108 4.74199E-05-2.99289E-19 0.00000E+00
 -1       109 4.70424E-05-4.85718E-19 0.00000E+00
 -1       110 4.66649E-05-6.86431E-19-1.32349E-23
 -1       111 4.62874E-05-9.38670E-19 0.00000E+00
 -1       112 4.59098E-05-1.16821E-18 0.00000E+00
 -1       113 4.55323E-05-1.24452E-18 0.00000E+00
 -1       114 4.51548E-05-1.21499E-18-1.32349E-23
 -1       115 4.47773E-05-1.05466E-18 0.00000E+00
 -1       116 4.43999E-05-9.14837E-19 0.00000E+00
 -1       117 4.40227E-05-7.52027E-19 0.00000E+00
 -1       118 4.36456E-05-4.36589E-19-1.32349E-23
 -1       119 4.32697E-05-1.57408E-19 6.61744E-24
 -1       120 4.28935E-05-1.19590E-20-6.61744E-24
 -1       121 4.84425E-05-3.30477E-07 0.00000E+00
 -1       122 4.81030E-05-6.60167E-07-6.61744E-24
 -1       123 4.75188E-05-9.89996E-07 1.32349E-23
 -1       124 4.66777E-05-1.31995E-06 6.61744E-24
 -1       125 4.55677E-05-1.65012E-06 0.00000E+00
 -1       126 4.99375E-05-4.49375E-06 0.00000E+00
 -1       127 5.45329E-05-1.77538E-05 0.00000E+00
 -1       128 6.14614E-05-3.75379E-05 6.61744E-24
 -1       129 6.98655E-05-6.15195E-05 0.00000E+00
 -1       130 7.85556E-05-8.63200E-05 6.61744E-24
 -1       131 8.63474E-05-1.08549E-04 0.00000E+00
 -1       132 9.22551E-05-1.25464E-04 6.61744E-24
 -1       133 9.52783E-05-1.34388E-04 0.00000E+00
 -1       134 9.50845E-05-1.34624E-04 0.00000E+00
 -1       135 9.13615E-05-1.25571E-04-3.30872E-24
 -1       136 8.46743E-05-1.08897E-04 0.00000E+00
 -1       137 7.56518E-05-8.63379E-05-3.30872E-24
 -1       138 6.55410E-05-6.10647E-05 0.00000E+00
 -1       139 5.56234E-05-3.62687E-05 0.00000E+00
 -1       140 4.71266E-05-1.50258E-05 6.61744E-24
 -1       141 4.23462E-05-4.65629E-20 6.61744E-24
 -1       142 4.21696E-05-6.79815E-20 0.00000E+00
 -1       143 4.19928E-05-2.59835E-20-6.61744E-24
 -1       144 4.18163E-05 2.52305E-20-3.30872E-24
 -1       145 4.16398E-05 7.19166E-20 0.00000E+00
 -1       146 4.14634E-05 1.36901E-19 0.00000E+00
 -1       147 4.12869E-05 1.18048E-19 0.00000E+00
 -1       148 4.11105E-05 7.94787E-20 0.00000E+00
 -1       149 4.09342E-05-4.54465E-20 6.61744E-24
 -1       150 4.07579E-05-1.36261E-19 0.00000E+00
 -1       151 4.05817E-05-1.52236E-19 6.61744E-24
 -1       152 4.04060E-05-1.23973E-19 0.00000E+00
 -1       153 4.02304E-05-6.93782E-20 3.30872E-24
 -1       154 4.00574E-05-3.24163E-20-1.65436E-24
 -1       155 3.98835E-05 5.95156E-21 2.06795E-25
 -1       156 4.36829E-05-6.01548E-08-3.30872E-24
 -1       157 4.70513E-05-1.18968E-07-1.65436E-24
 -1       158 5.05404E-05-1.78604E-07 0.00000E+00
 -1       159 5.20608E-05-2.33011E-07 0.00000E+00
 -1       160 4.96215E-05-2.90300E-07 3.30872E-24
 -1       161 4.23414E-05-1.76728E-07 0.00000E+00
 -1       162 4.22287E-05-5.41625E-07-3.30872E-24
 -1       163 4.21637E-05-1.03383E-06 6.61744E-24
 -1       164 4.21231E-05-1.59151E-06 0.00000E+00
 -1       165 4.20783E-05-2.13781E-06 0.00000E+00
 -1       166 4.20005E-05-2.59608E-06 0.00000E+00
 -1       167 4.18685E-05-2.90980E-06 0.00000E+00
 -1       168 4.16617E-05-3.02386E-06-3.30872E-24
 -1       169 4.13759E-05-2.92734E-06 6.61744E-24
 -1       170 4.10079E-05-2.61131E-06 3.30872E-24
 -1       171 4.05725E-05-2.11574E-06 0.00000E+00
 -1       172 4.00858E-05-1.48207E-06 0.00000E+00
 -1       173 3.95744E-05-7.82745E-07 0.00000E+00
 -1       174 3.90686E-05-8.95812E-08 0.00000E+00
 -1       175 3.85912E-05 5.24563E-07 0.00000E+00
 -1       191 3.96678E-05 1.65704E-07 6.61744E-24
 -1       192 3.95288E-05 3.31705E-07 0.00000E+00
 -1       193 3.93083E-05 4.97764E-07 0.00000E+00
 -1       194 3.90089E-05 6.63793E-07 0.00000E+00
 -1       195 3.86334E-05 8.29698E-07 0.00000E+00
 -1       251 5.96462E-05 6.93337E-06-1.32349E-23
 -1       252 5.88339E-05 2.39383E-05-6.61744E-24
 -1       253 5.79913E-05 4.28874E-05 0.00000E+00
 -1       254 5.72314E-05 5.63637E-05 0.00000E+00
 -1       255 5.65446E-05 5.98814E-05 2.64698E-23
 -1       256 5.58089E-05 4.92438E-05 0.00000E+00
 -1       257 5.49123E-05 2.77351E-05 0.00000E+00
 -1       258 5.38396E-05-1.04547E-06 0.00000E+00
 -1       259 5.27724E-05-2.96175E-05 0.00000E+00
 -1       260 5.18881E-05-5.05057E-05 0.00000E+00
 -1       261 5.11604E-05-6.03348E-05 0.00000E+00
 -1       262 5.04709E-05-5.60508E-05-1.32349E-23
 -1       263 4.97044E-05-4.20586E-05-2.64698E-23
 -1       264 4.88607E-05-2.30448E-05 6.61744E-24
 -1       265 4.80537E-05-6.38626E-06-1.32349E-23
 -1       266 5.73298E-05-8.76853E-07 6.61744E-24
 -1       267 5.41087E-05-9.76370E-07 1.65436E-24
 -1       268 5.00536E-05-1.07943E-06 0.00000E+00
 -1       269 4.45504E-05-1.18681E-06 1.65436E-24
 -1       270 3.71105E-05-1.30653E-06 1.65436E-24
 -1       271 5.80544E-05 1.30155E-06 2.64698E-23
 -1       272 5.59691E-05 2.72085E-06-1.32349E-23
 -1       273 5.41005E-05 3.56882E-06-5.29396E-23
 -1       274 5.24137E-05 3.91368E-06 2.64698E-23
 -1       275 5.08850E-05 3.83516E-06 0.00000E+00
 -1       276 4.94828E-05 3.41651E-06-2.64698E-23
 -1       277 4.81747E-05 2.74587E-06 5.29396E-23
 -1       278 4.69267E-05 1.91459E-06 2.64698E-23
 -1       279 4.57039E-05 1.01613E-06-5.29396E-23
 -1       280 4.44709E-05 1.44916E-07 2.64698E-23
 -1       281 4.31929E-05-6.05086E-07-5.29396E-23
 -1       282 4.18359E-05-1.14136E-06 2.64698E-23
 -1       283 4.03659E-05-1.37450E-06 0.00000E+00
 -1       284 3.87562E-05-1.21720E-06 1.32349E-23
 -1       285 3.69692E-05-5.91727E-07 2.64698E-23
 -1       286 4.71655E-05 2.44052E-06 0.00000E+00
 -1       287 4.69659E-05 3.86431E-06 0.00000E+00
 -1       288 4.67666E-05 4.79296E-06 0.00000E+00
 -1       289 4.65685E-05 5.14260E-06 3.30872E-24
 -1       290 4.63705E-05 4.93257E-06-6.61744E-24
 -1       291 4.61724E-05 4.18700E-06-3.30872E-24
 -1       292 4.59739E-05 3.02547E-06-6.61744E-24
 -1       293 4.57751E-05 1.57104E-06 3.30872E-24
 -1       294 4.55762E-05-9.69727E-10 0.00000E+00
 -1       295 4.53772E-05-1.51424E-06 0.00000E+00
 -1       296 4.51786E-05-2.80298E-06 6.61744E-24
 -1       297 4.49801E-05-3.70323E-06 3.30872E-24
 -1       298 4.47820E-05-4.12034E-06 0.00000E+00
 -1       299 4.45827E-05-3.96372E-06 0.00000E+00
 -1       300 4.43836E-05-3.24514E-06 0.00000E+00
 -1       301 4.53065E-05 5.97959E-07 3.30872E-24
 -1       302 4.32336E-05 5.99785E-07-1.65436E-24
 -1       303 4.11599E-05 6.03942E-07 0.00000E+00
 -1       304 3.90940E-05 6.07664E-07-1.65436E-24
 -1       305 3.70444E-05 6.08101E-07 0.00000E+00
 -1       306 4.58380E-05 1.93734E-06-2.64698E-23
 -1       307 4.45228E-05 2.60803E-06 0.00000E+00
 -1       308 4.34206E-05 2.71411E-06-2.64698E-23
 -1       309 4.24934E-05 2.34198E-06 0.00000E+00
 -1       310 4.17098E-05 1.58513E-06-2.64698E-23
 -1       311 4.10337E-05 5.39426E-07 0.00000E+00
 -1       312 4.04286E-05-6.96453E-07 0.00000E+00
 -1       313 3.98570E-05-2.02221E-06 1.32349E-23
 -1       314 3.92811E-05-3.33666E-06 2.64698E-23
 -1       315 3.86634E-05-4.53871E-06-1.32349E-23
 -1       316 3.79664E-05-5.52840E-06 2.64698E-23
 -1       317 3.71540E-05-6.20756E-06-1.32349E-23
 -1       318 3.61901E-05-6.48106E-06 2.64698E-23
 -1       319 3.50443E-05-6.25608E-06 0.00000E+00
 -1       320 3.36782E-05-5.44762E-06 1.32349E-23
 -1       321 4.40037E-05-1.65946E-06-6.61744E-24
 -1       322 4.38343E-05-3.75228E-06 3.30872E-24
 -1       323 4.36586E-05-7.83173E-06 0.00000E+00
 -1       324 4.34771E-05-1.34561E-05 0.00000E+00
 -1       325 4.32907E-05-1.99501E-05 0.00000E+00
 -1       326 4.31034E-05-2.66321E-05 3.30872E-24
 -1       327 4.29192E-05-3.27923E-05 0.00000E+00
 -1       328 4.27417E-05-3.77244E-05-3.30872E-24
 -1       329 4.25708E-05-4.09075E-05-6.61744E-24
 -1       330 4.24044E-05-4.18332E-05 0.00000E+00
 -1       331 4.22373E-05-4.03335E-05 0.00000E+00
 -1       332 4.20632E-05-3.62578E-05 0.00000E+00
 -1       333 4.18776E-05-2.98435E-05 6.61744E-24
 -1       334 4.16771E-05-2.13453E-05-3.30872E-24
 -1       335 4.14632E-05-1.13318E-05-6.61744E-24
 -1       336 4.25175E-05-2.31276E-06 1.32349E-23
 -1       337 4.06532E-05-2.64409E-06 0.00000E+00
 -1       338 3.86318E-05-2.97558E-06 1.32349E-23
 -1       339 3.64998E-05-3.30637E-06 3.30872E-24
 -1       340 3.43046E-05-3.63734E-06 0.00000E+00
 -1       341 4.23221E-05 1.17055E-06-1.32349E-23
 -1       342 3.90955E-05 7.89138E-06 0.00000E+00
 -1       343 3.56136E-05 1.52816E-05 0.00000E+00
 -1       344 3.29900E-05 2.04205E-05-6.61744E-24
 -1       345 3.18640E-05 2.16009E-05 1.32349E-23
 -1       346 3.28181E-05 1.72111E-05 6.61744E-24
 -1       347 3.53128E-05 8.64041E-06 0.00000E+00
 -1       348 3.87831E-05-2.60783E-06 0.00000E+00
 -1       349 4.21524E-05-1.35782E-05-1.32349E-23
 -1       350 4.43447E-05-2.13236E-05 6.61744E-24
 -1       351 4.49027E-05-2.46451E-05-1.32349E-23
 -1       352 4.33997E-05-2.24626E-05 6.61744E-24
 -1       353 4.05240E-05-1.66601E-05-1.32349E-23
 -1       354 3.70221E-05-9.20682E-06-6.61744E-24
 -1       355 3.39818E-05-2.96659E-06 6.61744E-24
 -1       356 4.10094E-05 1.07498E-05 6.61744E-24
 -1       357 4.07836E-05 2.13079E-05-3.30872E-24
 -1       358 4.05697E-05 3.06054E-05 0.00000E+00
 -1       359 4.03712E-05 3.79651E-05 0.00000E+00
 -1       360 4.01862E-05 4.30130E-05 0.00000E+00
 -1       361 4.00108E-05 4.53927E-05 0.00000E+00
 -1       362 3.98381E-05 4.51651E-05-6.61744E-24
 -1       363 3.96618E-05 4.24106E-05-3.30872E-24
 -1       364 3.94783E-05 3.76050E-05 0.00000E+00
 -1       365 3.92864E-05 3.12394E-05 0.00000E+00
 -1       366 3.90894E-05 2.40494E-05 0.00000E+00
 -1       367 3.88924E-05 1.67763E-05 0.00000E+00
 -1       368 3.86997E-05 1.01748E-05 3.30872E-24
 -1       369 3.85177E-05 4.99474E-06 1.65436E-24
 -1       370 3.83425E-05 1.76383E-06-2.06795E-25
 -1       371 3.24237E-05-4.80296E-07 0.00000E+00
 -1       372 2.86974E-05-5.43213E-07 8.27181E-25
 -1       373 2.84760E-05-5.98693E-07 0.00000E+00
 -1       374 3.01660E-05-6.54158E-07 0.00000E+00
 -1       375 3.20732E-05-7.10080E-07 4.13590E-25
 -1       376 3.57538E-05 1.32629E-05 0.00000E+00
 -1       377 2.84498E-05 3.15268E-05 0.00000E+00
 -1       378 2.02843E-05 5.19663E-05 0.00000E+00
 -1       379 1.22323E-05 7.21190E-05 3.30872E-24
 -1       380 5.23990E-06 8.95914E-05 0.00000E+00
 -1       381 2.26192E-07 1.02012E-04-3.30872E-24
 -1       382-2.38934E-06 1.08204E-04-6.61744E-24
 -1       383-2.22909E-06 1.07050E-04 0.00000E+00
 -1       384 4.19074E-07 9.91786E-05 0.00000E+00
 -1       385 5.25299E-06 8.52896E-05-3.30872E-24
 -1       386 1.14747E-05 6.75286E-05 6.61744E-24
 -1       387 1.82928E-05 4.80875E-05 0.00000E+00
 -1       388 2.47846E-05 2.95664E-05 6.61744E-24
 -1       389 3.00266E-05 1.45546E-05-3.30872E-24
 -1       390 3.33670E-05 4.79369E-06-3.30872E-24
 -1       406 3.76409E-05 1.15837E-06-6.61744E-24
 -1       407 3.70353E-05 1.32175E-06-3.30872E-24
 -1       408 3.63766E-05 1.48503E-06-6.61744E-24
 -1       409 3.56733E-05 1.64791E-06-3.30872E-24
 -1       410 3.49343E-05 1.80991E-06 0.00000E+00
 -1       466 2.76854E-05 7.44778E-06 6.61744E-24
 -1       467 2.81662E-05 1.20808E-05 0.00000E+00
 -1       468 2.86552E-05 1.38622E-05 0.00000E+00
 -1       469 2.91495E-05 1.41355E-05 0.00000E+00
 -1       470 2.96438E-05 1.34018E-05-1.32349E-23
 -1       471 3.01383E-05 1.21404E-05 0.00000E+00
 -1       472 3.06325E-05 1.05346E-05-1.32349E-23
 -1       473 3.11265E-05 8.76013E-06 0.00000E+00
 -1       474 3.16203E-05 6.89826E-06 1.32349E-23
 -1       475 3.21139E-05 5.02827E-06 0.00000E+00
 -1       476 3.26074E-05 3.22496E-06 0.00000E+00
 -1       477 3.30997E-05 1.56447E-06-6.61744E-24
 -1       478 3.35923E-05 2.03098E-07 0.00000E+00
 -1       479 3.40786E-05-6.96376E-07-3.30872E-24
 -1       480 3.45674E-05-7.13654E-07-1.65436E-24
 -1       481 1.81305E-05-1.39742E-06 0.00000E+00
 -1       482 1.28542E-05-1.32153E-06 0.00000E+00
 -1       483 1.03389E-05-1.23504E-06 1.65436E-24
 -1       484 9.51114E-06-1.14534E-06 0.00000E+00
 -1       485 9.44666E-06-1.05506E-06-1.65436E-24
 -1       486 2.07717E-05 1.39376E-05 0.00000E+00
 -1       487 1.08238E-05 3.79914E-05 0.00000E+00
 -1       488 8.79086E-07 6.20392E-05 0.00000E+00
 -1       489-5.61532E-06 7.73881E-05 6.61744E-24
 -1       490-7.05632E-06 7.95756E-05 1.32349E-23
 -1       491-2.10270E-06 6.43906E-05 0.00000E+00
 -1       492 7.50756E-06 3.59970E-05 0.00000E+00
 -1       493 2.00700E-05-1.08282E-06-6.61744E-24
 -1       494 3.25785E-05-3.80019E-05 1.32349E-23
 -1       495 4.20231E-05-6.59167E-05 6.61744E-24
 -1       496 4.67485E-05-8.04655E-05 0.00000E+00
 -1       497 4.50692E-05-7.76478E-05 6.61744E-24
 -1       498 3.83916E-05-6.18322E-05 1.32349E-23
 -1       499 2.83861E-05-3.76339E-05-6.61744E-24
 -1       500 1.85031E-05-1.37442E-05 1.32349E-23
 -1       501 3.48266E-05 2.26506E-06 0.00000E+00
 -1       502 3.46435E-05 3.31311E-06-3.30872E-24
 -1       503 3.44602E-05 3.70306E-06 6.61744E-24
 -1       504 3.42786E-05 3.40774E-06-3.30872E-24
 -1       505 3.40967E-05 2.51246E-06 0.00000E+00
 -1       506 3.39145E-05 1.10721E-06 0.00000E+00
 -1       507 3.37320E-05-6.34400E-07 6.61744E-24
 -1       508 3.35492E-05-2.53616E-06-3.30872E-24
 -1       509 3.33665E-05-4.39556E-06 6.61744E-24
 -1       510 3.31842E-05-6.01044E-06 0.00000E+00
 -1       511 3.30025E-05-7.21876E-06 0.00000E+00
 -1       512 3.28212E-05-7.86158E-06 0.00000E+00
 -1       513 3.26401E-05-7.87272E-06 0.00000E+00
 -1       514 3.24587E-05-7.19091E-06 3.30872E-24
 -1       515 3.22768E-05-5.86847E-06 0.00000E+00
 -1       516 3.32209E-05 6.78545E-07 3.30872E-24
 -1       517 3.17527E-05 7.86765E-07 4.13590E-25
 -1       518 2.97968E-05 8.92739E-07 0.00000E+00
 -1       519 2.65332E-05 9.97907E-07 0.00000E+00
 -1       520 2.09951E-05 1.09371E-06 0.00000E+00
 -1       521 3.31398E-05 1.74988E-06 0.00000E+00
 -1       522 3.14573E-05 2.26747E-06-1.32349E-23
 -1       523 2.99820E-05 2.23691E-06-2.64698E-23
 -1       524 2.86745E-05 1.74166E-06-2.64698E-23
 -1       525 2.75055E-05 8.75184E-07 0.00000E+00
 -1       526 2.64383E-05-2.66084E-07 0.00000E+00
 -1       527 2.54362E-05-1.58190E-06-5.29396E-23
 -1       528 2.44609E-05-2.96998E-06 0.00000E+00
 -1       529 2.34740E-05-4.32707E-06 0.00000E+00
 -1       530 2.24372E-05-5.55033E-06 2.64698E-23
 -1       531 2.13127E-05-6.53867E-06 5.29396E-23
 -1       532 2.00644E-05-7.19382E-06 0.00000E+00
 -1       533 1.86567E-05-7.42206E-06-2.64698E-23
 -1       534 1.70611E-05-7.13347E-06 1.32349E-23
 -1       535 1.52400E-05-6.24856E-06-2.64698E-23
 -1       536 3.21069E-05-2.02707E-06 3.30872E-24
 -1       537 3.21309E-05-5.55763E-07 0.00000E+00
 -1       538 3.21552E-05 5.01031E-07 0.00000E+00
 -1       539 3.21812E-05 1.19349E-06 1.80946E-25
 -1       540 3.22076E-05 1.57159E-06 4.13590E-25
 -1       541 3.22343E-05 1.68529E-06 0.00000E+00
 -1       542 3.22612E-05 1.58447E-06 0.00000E+00
 -1       543 3.22880E-05 1.31896E-06 0.00000E+00
 -1       544 3.23149E-05 9.38577E-07-8.27181E-25
 -1       545 3.23417E-05 4.93072E-07 0.00000E+00
 -1       546 3.23685E-05 3.22082E-08 0.00000E+00
 -1       547 3.23954E-05-3.94257E-07 0.00000E+00
 -1       548 3.24223E-05-7.36570E-07 0.00000E+00
 -1       549 3.24492E-05-9.44958E-07 4.13590E-25
 -1       550 3.24762E-05-9.69578E-07 8.27181E-25
 -1       551 2.92722E-05-4.08058E-06 3.61892E-25
 -1       552 2.61328E-05-4.19563E-06 0.00000E+00
 -1       553 2.28145E-05-4.31087E-06-3.30872E-24
 -1       554 1.94592E-05-4.42745E-06 0.00000E+00
 -1       555 1.62089E-05-4.54675E-06 0.00000E+00
 -1       556 3.12631E-05-2.15175E-06 0.00000E+00
 -1       557 3.05924E-05-7.54082E-07 0.00000E+00
 -1       558 3.00631E-05 2.69746E-07 1.32349E-23
 -1       559 2.96586E-05 9.63150E-07 0.00000E+00
 -1       560 2.93619E-05 1.36964E-06 0.00000E+00
 -1       561 2.91567E-05 1.53311E-06 0.00000E+00
 -1       562 2.90261E-05 1.49751E-06 0.00000E+00
 -1       563 2.89537E-05 1.30687E-06 0.00000E+00
 -1       564 2.89230E-05 1.00521E-06 6.61744E-24
 -1       565 2.89174E-05 6.36609E-07 0.00000E+00
 -1       566 2.89203E-05 2.45134E-07 0.00000E+00
 -1       567 2.89155E-05-1.25130E-07-1.65436E-24
 -1       568 2.88862E-05-4.30111E-07 2.48154E-24
 -1       569 2.88165E-05-6.25788E-07-2.32645E-25
 -1       570 2.86902E-05-6.68180E-07 3.30872E-24
 -1       571 3.26032E-05-5.18518E-07 2.06795E-25
 -1       572 3.27062E-05-3.52349E-07-8.27181E-25
 -1       573 3.28101E-05-2.48646E-07-2.48154E-24
 -1       574 3.29145E-05-1.93107E-07 8.27181E-25
 -1       575 3.30190E-05-1.71374E-07-1.65436E-24
 -1       576 3.31236E-05-1.68998E-07 0.00000E+00
 -1       577 3.32282E-05-1.71525E-07-3.30872E-24
 -1       578 3.33329E-05-1.64488E-07-1.65436E-24
 -1       579 3.34375E-05-1.33419E-07 0.00000E+00
 -1       580 3.35422E-05-6.38500E-08-6.61744E-24
 -1       581 3.36468E-05 5.86872E-08 0.00000E+00
 -1       582 3.37514E-05 2.48648E-07 0.00000E+00
 -1       583 3.38560E-05 5.20477E-07 0.00000E+00
 -1       584 3.39604E-05 8.88479E-07 0.00000E+00
 -1       585 3.40647E-05 1.36689E-06 0.00000E+00
 -1       586 3.19258E-05-7.18821E-07 0.00000E+00
 -1       587 3.12641E-05-6.76492E-07 0.00000E+00
 -1       588 3.05538E-05-6.34201E-07-1.65436E-24
 -1       589 2.98312E-05-5.92322E-07 1.55096E-25
 -1       590 2.91328E-05-5.51380E-07 0.00000E+00
 -1       591 3.23325E-05-4.78432E-07 1.65436E-24
 -1       592 3.21756E-05-2.45852E-07 8.27181E-25
 -1       593 3.20329E-05-5.37479E-08 0.00000E+00
 -1       594 3.19018E-05 1.06391E-07 0.00000E+00
 -1       595 3.17793E-05 2.43075E-07 0.00000E+00
 -1       596 3.16624E-05 3.64758E-07 0.00000E+00
 -1       597 3.15479E-05 4.79887E-07-1.65436E-24
 -1       598 3.14327E-05 5.96900E-07-8.27181E-25
 -1       599 3.13136E-05 7.24238E-07 1.65436E-24
 -1       600 3.11875E-05 8.70337E-07 0.00000E+00
 -1       601 3.10512E-05 1.04363E-06 0.00000E+00
 -1       602 3.09016E-05 1.25258E-06-4.13590E-25
 -1       603 3.07356E-05 1.50561E-06-1.24077E-24
 -1       604 3.05505E-05 1.81124E-06 8.27181E-25
 -1       605 3.03433E-05 2.17796E-06 0.00000E+00
 -1       606 3.42050E-05 2.76767E-06 0.00000E+00
 -1       607 3.42392E-05 3.64180E-06 0.00000E+00
 -1       608 3.42725E-05 4.58681E-06 0.00000E+00
 -1       609 3.43055E-05 5.59767E-06 0.00000E+00
 -1       610 3.43382E-05 6.66932E-06 0.00000E+00
 -1       611 3.43709E-05 7.79657E-06 0.00000E+00
 -1       612 3.44034E-05 8.97425E-06 0.00000E+00
 -1       613 3.44359E-05 1.01972E-05 0.00000E+00
 -1       614 3.44684E-05 1.14602E-05 0.00000E+00
 -1       615 3.45008E-05 1.27581E-05 0.00000E+00
 -1       616 3.45332E-05 1.40857E-05 0.00000E+00
 -1       617 3.45655E-05 1.54379E-05 0.00000E+00
 -1       618 3.45978E-05 1.68094E-05 1.65436E-24
 -1       619 3.46300E-05 1.81950E-05 0.00000E+00
 -1       620 3.46621E-05 1.95897E-05 8.27181E-25
 -1       621 3.34152E-05 2.07681E-06 0.00000E+00
 -1       622 3.26820E-05 2.18541E-06 1.65436E-24
 -1       623 3.19771E-05 2.29407E-06 3.30872E-24
 -1       624 3.13089E-05 2.40247E-06 8.27181E-25
 -1       625 3.06855E-05 2.51024E-06 0.00000E+00
 -1       626 3.39302E-05 2.80563E-06-3.30872E-24
 -1       627 3.36612E-05 3.72098E-06 0.00000E+00
 -1       628 3.33650E-05 4.70768E-06-3.30872E-24
 -1       629 3.30449E-05 5.75754E-06 0.00000E+00
 -1       630 3.27041E-05 6.86232E-06-3.30872E-24
 -1       631 3.23457E-05 8.01364E-06 3.30872E-24
 -1       632 3.19730E-05 9.20311E-06 0.00000E+00
 -1       633 3.15890E-05 1.04224E-05 0.00000E+00
 -1       634 3.11970E-05 1.16631E-05 0.00000E+00
 -1       635 3.08001E-05 1.29168E-05-8.27181E-25
 -1       636 3.04015E-05 1.41751E-05-1.65436E-24
 -1       637 3.00042E-05 1.54297E-05 8.27181E-25
 -1       638 2.96113E-05 1.66721E-05-8.27181E-25
 -1       639 2.92259E-05 1.78940E-05 0.00000E+00
 -1       640 2.88506E-05 1.90869E-05-4.13590E-25
 -1       641 3.46950E-05 2.24393E-05 0.00000E+00
 -1       642 3.46948E-05 2.40429E-05 0.00000E+00
 -1       643 3.46944E-05 2.57767E-05 0.00000E+00
 -1       644 3.46936E-05 2.76189E-05 2.58494E-26
 -1       645 3.46927E-05 2.95475E-05 0.00000E+00
 -1       646 3.46916E-05 3.15406E-05 1.29247E-26
 -1       647 3.46904E-05 3.35762E-05 2.58494E-26
 -1       648 3.46891E-05 3.56327E-05 6.46235E-27
 -1       649 3.46878E-05 3.76879E-05 0.00000E+00
 -1       650 3.46866E-05 3.97203E-05 1.29247E-26
 -1       651 3.46854E-05 4.17078E-05-5.16988E-26
 -1       652 3.46842E-05 4.36286E-05 1.03398E-25
 -1       653 3.46831E-05 4.54607E-05-4.13590E-25
 -1       654 3.46814E-05 4.71824E-05 0.00000E+00
 -1       655 3.46802E-05 4.87714E-05 0.00000E+00
 -1       656 3.34360E-05 2.08679E-05-1.65436E-24
 -1       657 3.23469E-05 2.07415E-05 0.00000E+00
 -1       658 3.13672E-05 2.06155E-05 3.30872E-24
 -1       659 3.04371E-05 2.04894E-05-1.65436E-24
 -1       660 2.94969E-05 2.03630E-05 1.65436E-24
 -1       661 3.42891E-05 2.24818E-05 0.00000E+00
 -1       662 3.38444E-05 2.40959E-05 1.65436E-24
 -1       663 3.33615E-05 2.58110E-05 0.00000E+00
 -1       664 3.28478E-05 2.76101E-05 0.00000E+00
 -1       665 3.23091E-05 2.94757E-05 0.00000E+00
 -1       666 3.17519E-05 3.13908E-05-1.65436E-24
 -1       667 3.11826E-05 3.33382E-05 0.00000E+00
 -1       668 3.06075E-05 3.53008E-05-1.65436E-24
 -1       669 3.00331E-05 3.72617E-05 3.30872E-24
 -1       670 2.94657E-05 3.92038E-05 0.00000E+00
 -1       671 2.89118E-05 4.11101E-05 0.00000E+00
 -1       672 2.83776E-05 4.29635E-05 1.65436E-24
 -1       673 2.78697E-05 4.47468E-05 3.30872E-24
 -1       674 2.73935E-05 4.64423E-05 1.65436E-24
 -1       675 2.69570E-05 4.80333E-05 0.00000E+00
 -1       676 3.33186E-05 5.00878E-05-3.30872E-24
 -1       677 3.19631E-05 4.99691E-05-1.65436E-24
 -1       678 3.06089E-05 4.98505E-05-3.30872E-24
 -1       679 2.92565E-05 4.97324E-05 1.65436E-24
 -1       680 2.79063E-05 4.96141E-05 0.00000E+00
 -1       681 9.41074E-06-1.05633E-06-3.30872E-24
 -1       682 9.60203E-06-1.96170E-06 3.30872E-24
 -1       683 9.79232E-06-3.46265E-06 0.00000E+00
 -1       684 9.98300E-06-5.34476E-06-3.30872E-24
 -1       685 1.01733E-05-7.46830E-06 0.00000E+00
 -1       686 1.03635E-05-9.69559E-06-3.30872E-24
 -1       687 1.05538E-05-1.19093E-05 0.00000E+00
 -1       688 1.07444E-05-1.39918E-05-3.30872E-24
 -1       689 1.09355E-05-1.58001E-05 0.00000E+00
 -1       690 1.11271E-05-1.71885E-05 3.30872E-24
 -1       691 1.13193E-05-1.79293E-05 0.00000E+00
 -1       692 1.15114E-05-1.77892E-05-3.30872E-24
 -1       693 1.17023E-05-1.63622E-05-6.61744E-24
 -1       694 1.18875E-05-1.32316E-05-1.65436E-24
 -1       695 1.20627E-05-7.64759E-06 0.00000E+00
 -1       696 8.56559E-06-8.08329E-07 0.00000E+00
 -1       697 7.25340E-06-6.47114E-07 1.65436E-24
 -1       698 5.52194E-06-4.86736E-07-6.61744E-24
 -1       699 3.60230E-06-3.25422E-07 3.30872E-24
 -1       700 1.69486E-06-1.64210E-07-6.61744E-24
 -1       701 8.68576E-06-1.11598E-07-3.30872E-24
 -1       702 7.68618E-06 1.93385E-06 0.00000E+00
 -1       703 6.34544E-06 4.88458E-06-6.61744E-24
 -1       704 4.77299E-06 8.44142E-06-3.30872E-24
 -1       705 3.13108E-06 1.21814E-05 6.61744E-24
 -1       706 1.58063E-06 1.56791E-05-3.30872E-24
 -1       707 2.63636E-07 1.85598E-05 0.00000E+00
 -1       708-6.80721E-07 2.04539E-05-3.30872E-24
 -1       709-1.19156E-06 2.11964E-05 6.61744E-24
 -1       710-1.21221E-06 2.06326E-05 3.30872E-24
 -1       711-7.88100E-07 1.88793E-05 6.61744E-24
 -1       712 3.21213E-08 1.60638E-05-3.30872E-24
 -1       713 1.11761E-06 1.25347E-05-6.61744E-24
 -1       714 2.33801E-06 8.64799E-06-1.65436E-24
 -1       715 3.53114E-06 4.83259E-06 0.00000E+00
 -1       716 1.22305E-05 1.00274E-05 2.06795E-25
 -1       717 1.22848E-05 1.57709E-05 0.00000E+00
 -1       718 1.23499E-05 1.89409E-05-1.65436E-24
 -1       719 1.24204E-05 2.00795E-05 0.00000E+00
 -1       720 1.24915E-05 1.95874E-05-1.65436E-24
 -1       721 1.25615E-05 1.78599E-05 0.00000E+00
 -1       722 1.26297E-05 1.52059E-05-1.65436E-24
 -1       723 1.26961E-05 1.19314E-05 0.00000E+00
 -1       724 1.27614E-05 8.29894E-06 0.00000E+00
 -1       725 1.28261E-05 4.56998E-06 0.00000E+00
 -1       726 1.28913E-05 9.99059E-07 1.65436E-24
 -1       727 1.29570E-05-2.15867E-06-8.27181E-25
 -1       728 1.30245E-05-4.61918E-06 0.00000E+00
 -1       729 1.30899E-05-6.09635E-06 0.00000E+00
 -1       730 1.31576E-05-6.23608E-06 6.61744E-24
 -1       731 3.84422E-06 1.18920E-06 2.06795E-25
 -1       732-4.02691E-07 1.24945E-06 0.00000E+00
 -1       733-1.53035E-06 1.31792E-06 0.00000E+00
 -1       734-5.23071E-07 1.38757E-06-8.27181E-25
 -1       735 1.78134E-06 1.45546E-06 0.00000E+00
 -1       736 7.77147E-06 1.16419E-05 0.00000E+00
 -1       737 3.21999E-06 2.23923E-05 0.00000E+00
 -1       738-4.29583E-07 3.08032E-05 1.32349E-23
 -1       739-2.20398E-06 3.42949E-05 6.61744E-24
 -1       740-1.86897E-06 3.21731E-05 1.32349E-23
 -1       741 7.61325E-07 2.38370E-05 0.00000E+00
 -1       742 5.00284E-06 1.10756E-05 0.00000E+00
 -1       743 1.01627E-05-4.23839E-06 0.00000E+00
 -1       744 1.52112E-05-1.92420E-05-1.32349E-23
 -1       745 1.91178E-05-3.10787E-05 0.00000E+00
 -1       746 2.12729E-05-3.81191E-05 0.00000E+00
 -1       747 2.10783E-05-3.88238E-05 0.00000E+00
 -1       748 1.88316E-05-3.40879E-05-1.32349E-23
 -1       749 1.48812E-05-2.48953E-05 0.00000E+00
 -1       750 1.02493E-05-1.39384E-05 0.00000E+00
 -1       751 1.41011E-05-2.75714E-06-6.61744E-24
 -1       752 1.50566E-05-1.78264E-06-6.61744E-24
 -1       753 1.60090E-05-1.37403E-06 0.00000E+00
 -1       754 1.69721E-05-1.17354E-06-1.32349E-23
 -1       755 1.79357E-05-1.09722E-06 0.00000E+00
 -1       756 1.89013E-05-1.06635E-06-1.32349E-23
 -1       757 1.98672E-05-1.06241E-06 0.00000E+00
 -1       758 2.08335E-05-1.06803E-06 1.32349E-23
 -1       759 2.17998E-05-1.07850E-06 2.64698E-23
 -1       760 2.27659E-05-1.08935E-06-1.32349E-23
 -1       761 2.37318E-05-1.09657E-06 0.00000E+00
 -1       762 2.46962E-05-1.09600E-06 0.00000E+00
 -1       763 2.56604E-05-1.07316E-06 0.00000E+00
 -1       764 2.66169E-05-1.01266E-06 1.32349E-23
 -1       765 2.75759E-05-8.49380E-07-1.32349E-23
 -1       766 1.19976E-05-4.56820E-06 0.00000E+00
 -1       767 1.31154E-05-4.43369E-06 0.00000E+00
 -1       768 1.48449E-05-4.30139E-06 1.65436E-24
 -1       769 1.54786E-05-4.16528E-06 0.00000E+00
 -1       770 1.31558E-05-4.03177E-06-2.58494E-26
 -1       771 1.17803E-05-2.77013E-06 0.00000E+00
 -1       772 1.04855E-05-1.22629E-06 0.00000E+00
 -1       773 9.31474E-06-1.68135E-08 0.00000E+00
 -1       774 8.25688E-06 8.90235E-07-1.32349E-23
 -1       775 7.30041E-06 1.52691E-06 0.00000E+00
 -1       776 6.43328E-06 1.92554E-06 0.00000E+00
 -1       777 5.64334E-06 2.11852E-06 0.00000E+00
 -1       778 4.91838E-06 2.13841E-06 1.32349E-23
 -1       779 4.24614E-06 2.01785E-06-2.64698E-23
 -1       780 3.61433E-06 1.78957E-06 0.00000E+00
 -1       781 3.01070E-06 1.48637E-06 0.00000E+00
 -1       782 2.42301E-06 1.14111E-06-1.32349E-23
 -1       783 1.83908E-06 7.86673E-07 0.00000E+00
 -1       784 1.24724E-06 4.56083E-07 0.00000E+00
 -1       785 6.35915E-07 1.82364E-07 0.00000E+00
 -1       786 2.85896E-05-1.37557E-07-8.27181E-25
 -1       787 2.86906E-05 1.54870E-07 0.00000E+00
 -1       788 2.87915E-05 3.76323E-07-3.30872E-24
 -1       789 2.88934E-05 5.39673E-07 0.00000E+00
 -1       790 2.89953E-05 6.57732E-07 0.00000E+00
 -1       791 2.90975E-05 7.43277E-07-1.65436E-24
 -1       792 2.91997E-05 8.09055E-07 0.00000E+00
 -1       793 2.93019E-05 8.67795E-07 0.00000E+00
 -1       794 2.94041E-05 9.32221E-07-3.30872E-24
 -1       795 2.95064E-05 1.01506E-06 0.00000E+00
 -1       796 2.96086E-05 1.12906E-06 0.00000E+00
 -1       797 2.97107E-05 1.28699E-06 0.00000E+00
 -1       798 2.98127E-05 1.50167E-06-3.30872E-24
 -1       799 2.99144E-05 1.78593E-06 1.65436E-24
 -1       800 3.00160E-05 2.15273E-06 0.00000E+00
 -1       801 2.59573E-05-4.19300E-07-3.30872E-24
 -1       802 2.06873E-05-3.28355E-07 3.30872E-24
 -1       803 1.40698E-05-2.44701E-07-8.27181E-25
 -1       804 7.49172E-06-1.63386E-07 0.00000E+00
 -1       805 2.33994E-06-7.46849E-08 0.00000E+00
 -1       806 2.82367E-05-1.77715E-07 0.00000E+00
 -1       807 2.79885E-05 1.21842E-07 0.00000E+00
 -1       808 2.77504E-05 3.91853E-07 0.00000E+00
 -1       809 2.75204E-05 6.38818E-07 1.65436E-24
 -1       810 2.72964E-05 8.69199E-07 3.30872E-24
 -1       811 2.70762E-05 1.08941E-06 0.00000E+00
 -1       812 2.68574E-05 1.30587E-06 0.00000E+00
 -1       813 2.66376E-05 1.52495E-06-1.65436E-24
 -1       814 2.64144E-05 1.75308E-06-3.30872E-24
 -1       815 2.61854E-05 1.99664E-06-1.65436E-24
 -1       816 2.59482E-05 2.26204E-06-3.30872E-24
 -1       817 2.57005E-05 2.55566E-06 0.00000E+00
 -1       818 2.54400E-05 2.88392E-06-3.30872E-24
 -1       819 2.51644E-05 3.25321E-06 1.65436E-24
 -1       820 2.48719E-05 3.66999E-06 1.65436E-24
 -1       821 3.00196E-05 3.20586E-06 8.27181E-25
 -1       822 2.99182E-05 3.93019E-06 0.00000E+00
 -1       823 2.98168E-05 4.77431E-06 0.00000E+00
 -1       824 2.97145E-05 5.72430E-06 1.65436E-24
 -1       825 2.96119E-05 6.76622E-06 0.00000E+00
 -1       826 2.95090E-05 7.88600E-06 0.00000E+00
 -1       827 2.94061E-05 9.06952E-06 0.00000E+00
 -1       828 2.93030E-05 1.03026E-05 1.65436E-24
 -1       829 2.92000E-05 1.15711E-05 3.30872E-24
 -1       830 2.90969E-05 1.28606E-05 0.00000E+00
 -1       831 2.89938E-05 1.41570E-05 0.00000E+00
 -1       832 2.88909E-05 1.54459E-05-1.65436E-24
 -1       833 2.87881E-05 1.67131E-05-3.30872E-24
 -1       834 2.86861E-05 1.79444E-05 0.00000E+00
 -1       835 2.85840E-05 1.91255E-05 0.00000E+00
 -1       836 2.94099E-05 2.86465E-06 3.30872E-24
 -1       837 2.84578E-05 3.12306E-06 3.30872E-24
 -1       838 2.73777E-05 3.38089E-06 0.00000E+00
 -1       839 2.62890E-05 3.63812E-06 0.00000E+00
 -1       840 2.53108E-05 3.89587E-06 0.00000E+00
 -1       841 2.98825E-05 3.19921E-06 0.00000E+00
 -1       842 2.95942E-05 3.92544E-06 0.00000E+00
 -1       843 2.92576E-05 4.78053E-06-2.06795E-25
 -1       844 2.88776E-05 5.75019E-06 2.06795E-25
 -1       845 2.84603E-05 6.81874E-06 0.00000E+00
 -1       846 2.80118E-05 7.97023E-06 0.00000E+00
 -1       847 2.75384E-05 9.18751E-06 4.13590E-25
 -1       848 2.70468E-05 1.04534E-05 2.06795E-25
 -1       849 2.65436E-05 1.17499E-05-4.13590E-25
 -1       850 2.60357E-05 1.30591E-05 0.00000E+00
 -1       851 2.55298E-05 1.43627E-05 4.13590E-25
 -1       852 2.50328E-05 1.56427E-05 0.00000E+00
 -1       853 2.45513E-05 1.68812E-05 4.13590E-25
 -1       854 2.40919E-05 1.80603E-05 0.00000E+00
 -1       855 2.36612E-05 1.91634E-05 0.00000E+00
 -1       856 2.83729E-05 2.14425E-05-1.65436E-24
 -1       857 2.82532E-05 2.28596E-05 0.00000E+00
 -1       858 2.81333E-05 2.44654E-05 3.30872E-24
 -1       859 2.80123E-05 2.62317E-05 1.65436E-24
 -1       860 2.78910E-05 2.81299E-05 0.00000E+00
 -1       861 2.77693E-05 3.01315E-05-1.65436E-24
 -1       862 2.76475E-05 3.22077E-05 0.00000E+00
 -1       863 2.75255E-05 3.43297E-05 1.65436E-24
 -1       864 2.74035E-05 3.64688E-05 3.30872E-24
 -1       865 2.72815E-05 3.85960E-05-1.65436E-24
 -1       866 2.71596E-05 4.06825E-05 0.00000E+00
 -1       867 2.70380E-05 4.26994E-05 1.65436E-24
 -1       868 2.69166E-05 4.46182E-05 0.00000E+00
 -1       869 2.67959E-05 4.64100E-05 1.65436E-24
 -1       870 2.66755E-05 4.80464E-05 0.00000E+00
 -1       871 2.75286E-05 2.02323E-05 0.00000E+00
 -1       872 2.66393E-05 2.02214E-05 0.00000E+00
 -1       873 2.57938E-05 2.02103E-05 0.00000E+00
 -1       874 2.49664E-05 2.01988E-05-2.06795E-25
 -1       875 2.41315E-05 2.01869E-05-4.13590E-25
 -1       876 2.81992E-05 2.14831E-05 0.00000E+00
 -1       877 2.78482E-05 2.29121E-05 0.00000E+00
 -1       878 2.74361E-05 2.45027E-05 3.30872E-24
 -1       879 2.69733E-05 2.62312E-05 0.00000E+00
 -1       880 2.64677E-05 2.80734E-05 6.61744E-24
 -1       881 2.59283E-05 3.00056E-05-3.30872E-24
 -1       882 2.53639E-05 3.20043E-05 0.00000E+00
 -1       883 2.47833E-05 3.40460E-05 0.00000E+00
 -1       884 2.41952E-05 3.61075E-05 0.00000E+00
 -1       885 2.36084E-05 3.81655E-05 3.30872E-24
 -1       886 2.30318E-05 4.01965E-05 6.61744E-24
 -1       887 2.24739E-05 4.21772E-05 0.00000E+00
 -1       888 2.19436E-05 4.40842E-05 0.00000E+00
 -1       889 2.14488E-05 4.58936E-05-1.65436E-24
 -1       890 2.09999E-05 4.75820E-05 0.00000E+00
 -1       891 2.53899E-05 4.94367E-05 0.00000E+00
 -1       892 2.44489E-05 4.93735E-05-8.27181E-25
 -1       893 2.36175E-05 4.93104E-05 0.00000E+00
 -1       894 2.27773E-05 4.92475E-05-8.27181E-25
 -1       895 2.18100E-05 4.91844E-05 8.27181E-25
 -1       896 2.82090E-07 1.43085E-06 0.00000E+00
 -1       897 5.67089E-07 2.56318E-06-3.30872E-24
 -1       898 8.52148E-07 3.47524E-06 0.00000E+00
 -1       899 1.13781E-06 4.24254E-06 3.30872E-24
 -1       900 1.42355E-06 4.89710E-06 0.00000E+00
 -1       901 1.70944E-06 5.46953E-06-3.30872E-24
 -1       902 1.99538E-06 5.96576E-06 0.00000E+00
 -1       903 2.28135E-06 6.39077E-06 0.00000E+00
 -1       904 2.56735E-06 6.72813E-06 0.00000E+00
 -1       905 2.85330E-06 6.96032E-06 0.00000E+00
 -1       906 3.13923E-06 7.03821E-06-6.61744E-24
 -1       907 3.42482E-06 6.91074E-06 3.30872E-24
 -1       908 3.71025E-06 6.46516E-06 6.61744E-24
 -1       909 3.99368E-06 5.58473E-06 0.00000E+00
 -1       910 4.27687E-06 4.02227E-06 0.00000E+00
 -1       911 4.64047E-06-1.51348E-06 0.00000E+00
 -1       912 4.73298E-06-4.65892E-06-1.65436E-24
 -1       913 4.82527E-06-7.84228E-06 3.30872E-24
 -1       914 4.91795E-06-1.09918E-05 0.00000E+00
 -1       915 5.01096E-06-1.40324E-05 3.30872E-24
 -1       916 5.10454E-06-1.68886E-05-1.65436E-24
 -1       917 5.19885E-06-1.94672E-05 0.00000E+00
 -1       918 5.29400E-06-2.16738E-05 0.00000E+00
 -1       919 5.39008E-06-2.33782E-05 3.30872E-24
 -1       920 5.48693E-06-2.44479E-05 1.65436E-24
 -1       921 5.58424E-06-2.46897E-05 3.30872E-24
 -1       922 5.68096E-06-2.39065E-05 1.65436E-24
 -1       923 5.77573E-06-2.18030E-05 0.00000E+00
 -1       924 5.86435E-06-1.80780E-05-8.27181E-25
 -1       925 5.94385E-06-1.22753E-05-2.06795E-25
 -1       926 5.65831E-06 8.24431E-06 0.00000E+00
 -1       927 5.24236E-06 2.54117E-05 0.00000E+00
 -1       928 4.78168E-06 4.51870E-05-6.61744E-24
 -1       929 4.31613E-06 6.51541E-05 3.30872E-24
 -1       930 3.89052E-06 8.28506E-05 0.00000E+00
 -1       931 3.53416E-06 9.58409E-05 0.00000E+00
 -1       932 3.23387E-06 1.02830E-04 0.00000E+00
 -1       933 2.95698E-06 1.02594E-04 3.30872E-24
 -1       934 2.65770E-06 9.56527E-05 6.61744E-24
 -1       935 2.29961E-06 8.26061E-05-3.30872E-24
 -1       936 1.88486E-06 6.55307E-05 6.61744E-24
 -1       937 1.43680E-06 4.65506E-05 0.00000E+00
 -1       938 1.00057E-06 2.82517E-05-6.61744E-24
 -1       939 6.15346E-07 1.32128E-05 6.61744E-24
 -1       940 2.89594E-07 3.21992E-06 0.00000E+00
 -1       941 1.45606E-06 1.99730E-07-1.32349E-23
 -1       942 2.99226E-06 4.20120E-07 0.00000E+00
 -1       943 4.52341E-06 6.51745E-07 5.29396E-23
 -1       944 6.06979E-06 8.85980E-07 2.64698E-23
 -1       945 7.61663E-06 1.12163E-06-5.29396E-23
 -1       946 9.16650E-06 1.35762E-06 2.64698E-23
 -1       947 1.07167E-05 1.59381E-06 0.00000E+00
 -1       948 1.22675E-05 1.83007E-06-2.64698E-23
 -1       949 1.38183E-05 2.06651E-06 0.00000E+00
 -1       950 1.53687E-05 2.30325E-06-2.64698E-23
 -1       951 1.69188E-05 2.54123E-06-5.29396E-23
 -1       952 1.84665E-05 2.78151E-06 0.00000E+00
 -1       953 2.00138E-05 3.03176E-06 5.29396E-23
 -1       954 2.15489E-05 3.30032E-06 1.32349E-23
 -1       955 2.30880E-05 3.64796E-06 0.00000E+00
 -1       956 2.44829E-05 4.78707E-06 4.13590E-25
 -1       957 2.44021E-05 5.52493E-06 4.13590E-25
 -1       958 2.43211E-05 6.34558E-06 8.27181E-25
 -1       959 2.42398E-05 7.23947E-06 8.27181E-25
 -1       960 2.41584E-05 8.19704E-06-1.65436E-24
 -1       961 2.40770E-05 9.20864E-06-8.27181E-25
 -1       962 2.39955E-05 1.02646E-05-1.65436E-24
 -1       963 2.39139E-05 1.13553E-05 8.27181E-25
 -1       964 2.38324E-05 1.24711E-05 1.65436E-24
 -1       965 2.37508E-05 1.36023E-05-8.27181E-25
 -1       966 2.36692E-05 1.47392E-05 0.00000E+00
 -1       967 2.35877E-05 1.58723E-05-1.65436E-24
 -1       968 2.35062E-05 1.69917E-05-3.30872E-24
 -1       969 2.34248E-05 1.80880E-05 0.00000E+00
 -1       970 2.33437E-05 1.91515E-05 0.00000E+00
 -1       971 2.31024E-05 2.12711E-05 0.00000E+00
 -1       972 2.29363E-05 2.25985E-05 0.00000E+00
 -1       973 2.27699E-05 2.41271E-05 0.00000E+00
 -1       974 2.26026E-05 2.58283E-05 1.65436E-24
 -1       975 2.24350E-05 2.76734E-05 6.61744E-24
 -1       976 2.22671E-05 2.96334E-05-3.30872E-24
 -1       977 2.20989E-05 3.16793E-05 0.00000E+00
 -1       978 2.19306E-05 3.37818E-05 3.30872E-24
 -1       979 2.17623E-05 3.59115E-05-6.61744E-24
 -1       980 2.15939E-05 3.80391E-05 3.30872E-24
 -1       981 2.14258E-05 4.01353E-05-6.61744E-24
 -1       982 2.12578E-05 4.21708E-05-3.30872E-24
 -1       983 2.10902E-05 4.41162E-05 3.30872E-24
 -1       984 2.09238E-05 4.59426E-05 0.00000E+00
 -1       985 2.07575E-05 4.76209E-05 0.00000E+00
 -3
    1PSTEP                        24          12           1          
  100CL  112 6.21399E-01         841                     0   12           1
 -4  STRESS      6    1
 -5  SXX         1    4    1    1
 -5  SYY         1    4    2    2
 -5  SZZ         1    4    3    3
 -5  SXY         1    4    1    2
 -5  SYZ         1    4    2    3
 -5  SZX         1    4    3    1
 -1         1-2.52257E+06-8.14792E+05-5.18611E+05-7.38951E+05 6.79089E-11-2.79397E-09
 -1         2-1.52788E+06-3.97716E+04 9.26150E+03-1.05198E+05-3.45733E-09-1.28853E-09
 -1         3-8.22835E+05-2.87888E+05-2.24038E+04-6.15540E+04 3.86081E-10-5.24687E-09
 -1         4-5.08087E+05-7.93899E+04 7.25482E+02-3.49391E+04 5.02411E-10 1.71303E-09
 -1         5-2.66604E+05 1.13877E+05-1.21455E+05-8.12561E+03 6.53563E-09 2.34161E-09
 -1         8-1.28689E+06-5.08130E+05-1.83458E+05-4.73469E+05 2.29193E-10 1.53523E-09
 -1         9-1.42259E+06-3.20784E+05-1.71397E+05-3.14952E+05-3.15292E-11-4.78758E-09
 -1        10-6.87369E+05-3.70825E+05-1.67793E+04-1.41519E+05-3.38211E-09 6.96976E-10
 -1        11-3.42228E+05-7.24051E+04 4.67206E+03-2.98045E+04 2.21289E-08-1.28618E-10
 -1        12-2.81474E+05 9.44822E+04-1.27140E+05-5.10797E+04 7.34042E-09 6.73126E-10
 -1        15 6.03816E+03 4.58275E+03 7.72081E+03-6.02850E+04 3.31966E-10-2.67391E-09
 -1        16-8.78773E+05-1.65727E+05 1.80973E+04-3.68418E+05 1.24843E-09 4.12304E-11
 -1        17-5.15534E+05-3.38525E+05-5.85991E+04-2.70074E+05 3.72893E-10 3.89628E-09
 -1        18-2.42217E+05-1.12918E+05-8.87625E+04-1.21818E+05-9.78010E-10 1.26480E-09
 -1        19-1.04876E+03 8.09965E+04-3.71225E+04-3.28287E+04-2.76486E-09 1.41275E-10
 -1        20 8.80222E+04-6.46800E+04-1.06896E+04 4.69676E+04 7.96035E-09-2.64663E-09
 -1        21 9.18859E+02-1.31030E+05 3.30392E+04 3.70478E+02 1.46528E-08-6.31070E-10
 -1        22 2.65668E+04 1.48821E+05 9.63924E+02-3.06404E+04-1.70985E-10-4.32919E-10
 -1        23-2.47942E+05 4.69652E+04 6.89839E+03-8.04942E+04-4.28599E-09 7.14863E-10
 -1        24-1.80882E+05 1.70089E+04 2.16777E+05-3.73978E+05-7.67189E-09 2.25797E-09
 -1        25 4.70292E+05 1.64857E+05 1.47278E+05-2.42175E+05 7.60641E-10-1.11140E-09
 -1        26 2.00684E+03 1.46893E+05 7.64504E+03-2.82501E+04 1.32642E-09 1.77958E-09
 -1        27-3.42335E+04-5.52963E+04-2.39261E+04 6.34242E+04 5.06376E-09-2.31618E-10
 -1        28-1.11065E+04-1.02478E+05-6.05246E+02 4.93271E+04 7.08178E-09-2.19271E-09
 -1        29 3.90362E+05 2.53232E+05 1.03583E+03-4.93497E+03-2.09681E-11-3.32329E-09
 -1        30 1.45411E+05 3.62735E+04 1.46428E+03-2.76311E+04-6.66006E-10 5.39103E-09
 -1        31-3.45445E+05 5.31656E+04 6.19368E+03-4.13621E+04-5.88582E-09-8.30732E-09
 -1        32 7.00059E+05 3.89229E+05 4.66333E+05-3.87073E+05 1.25603E-08 1.76806E-09
 -1        33 1.08016E+06 4.58761E+05 3.37750E+05-4.16507E+04-1.35059E-08-2.87082E-09
 -1        34-1.77828E+05-2.51390E+04-7.50514E+03 3.33914E+04 9.46539E-10-4.03816E-10
 -1        35-2.86331E+04-3.39016E+04-6.32092E+02 7.31665E+04 6.55278E-09-9.05857E-10
 -1        36-3.29652E+06 9.85783E+04-2.28763E+05-3.19079E-07-2.20542E-09-5.03496E-09
 -1        37-3.39543E+06-1.14135E+05-1.61755E+05 7.49124E-08 7.15253E-10 3.68163E-09
 -1        38-3.33469E+06 1.53737E+04-5.91728E+04-1.38325E-07 1.28151E-09-4.11092E-10
 -1        39-3.35079E+06-1.77943E+04-3.71470E+04-2.05431E-07-7.09373E-10-8.75070E-09
 -1        40-3.34094E+06 2.39266E+03-1.51899E+04-3.31777E-07-6.21206E-10-9.90258E-09
 -1        41-3.34345E+06-2.80194E+03-9.04730E+03-1.00611E-07-4.51598E-10-3.08489E-09
 -1        42-3.34196E+06 4.05548E+02-4.41657E+03 1.60291E-07 3.84547E-09-3.04317E-09
 -1        43-3.34235E+06-7.08293E+02-3.47609E+03 1.98961E-07-5.13951E-10 4.43762E-10
 -1        44-3.34202E+06 3.02077E+02-3.47559E+03-6.32179E-08-2.24735E-09-2.61764E-10
 -1        45-3.34297E+06-1.90832E+03-6.32571E+03-2.74534E-07 4.89465E-10 4.42594E-09
 -1        46-3.34136E+06 1.60373E+03-1.02825E+04 2.69782E-08 1.70453E-09-1.83854E-09
 -1        47-3.34785E+06-1.18977E+04-2.48945E+04-1.33990E-07-2.08143E-09-3.30101E-09
 -1        48-3.33719E+06 1.02751E+04-3.95820E+04-1.21966E-08-2.33192E-09-5.47334E-09
 -1        49-3.37768E+06-7.62809E+04-1.08124E+05 1.16384E-07 2.52122E-09 7.18501E-10
 -1        50-3.31169E+06 6.58778E+04-1.52946E+05-3.85360E-08-2.29055E-09 1.75351E-09
 -1        51 2.83629E+04-3.31463E+05 4.58179E+04-8.94315E+05-1.01863E-10 2.09548E-09
 -1        52 1.30473E+04-3.27754E+05 2.77381E+04-9.86293E+05 2.69210E-10-3.38332E-09
 -1        53 8.53436E+03-3.37081E+05 2.20732E+04-8.91934E+05 8.73115E-11 6.54836E-11
 -1        54 1.95338E+04-3.33958E+05 3.33186E+04-9.88816E+05-1.16415E-10-2.81943E-09
 -1        55 4.40846E+04-3.44699E+05 6.01027E+04-8.91492E+05-4.65661E-10-4.54747E-10
 -1        56-3.93671E+06-4.44073E+05-3.23637E+05-1.52235E+06 0.00000E+00 3.55067E-09
 -1        57-4.08335E+06-7.13501E+05-2.17198E+05-1.49068E+06 2.27101E-09-3.20142E-10
 -1        58-3.99967E+06-5.46245E+05-7.61739E+04-1.50452E+06 1.13687E-09-5.78075E-09
 -1        59-4.01090E+06-5.92813E+05-4.51637E+04-1.51166E+06 4.59522E-10-1.39335E-09
 -1        60-4.00823E+06-5.60707E+05-1.77941E+04-1.50273E+06 7.73980E-10-5.00677E-09
 -1        61-4.00192E+06-5.74894E+05-1.00683E+04-1.51264E+06-1.98372E-09-4.77485E-09
 -1        62-4.00846E+06-5.63658E+05-4.91417E+03-1.50367E+06 6.55291E-10 3.03896E-09
 -1        63-4.00313E+06-5.70381E+05-4.11465E+03-1.50998E+06-5.41320E-10 9.82126E-09
 -1        64-4.00696E+06-5.65177E+05-4.81070E+03-1.50539E+06 4.84192E-10 5.54792E-11
 -1        65-4.00757E+06-5.69056E+05-9.74969E+03-1.50605E+06-6.93689E-10-6.41660E-09
 -1        66-4.00404E+06-5.65041E+05-1.72045E+04-1.50758E+06 3.71415E-10 2.92403E-09
 -1        67-4.02086E+06-5.81722E+05-4.36157E+04-1.49980E+06-8.62087E-10-1.07457E-09
 -1        68-3.99385E+06-5.53003E+05-7.35714E+04-1.51151E+06-1.74532E-09-3.49246E-10
 -1        69-4.09360E+06-6.95523E+05-2.09746E+05-1.47643E+06 8.04903E-10-5.23869E-10
 -1        70-3.93223E+06-4.55144E+05-3.12554E+05-1.52965E+06-1.25146E-09-9.02219E-10
 -1        71-1.69557E+06 3.09722E+03-7.20261E+03 4.17799E-09 3.76090E-10-8.73115E-11
 -1        72-1.69854E+06-3.58708E+03-5.09434E+03-9.84246E-08-1.21851E-09 3.20165E-09
 -1        73-1.69677E+06 4.83413E+02-1.87717E+03-1.24550E-07-6.50571E-10-3.41151E-09
 -1        74-1.69714E+06-5.61604E+02-1.19988E+03 1.75801E-07-1.36119E-09-1.74585E-09
 -1        75-1.69697E+06 7.72801E+01-5.37436E+02-1.43302E-07 3.65359E-10 2.11887E-09
 -1        76-1.69692E+06-1.04095E+02-4.10964E+02-3.33494E-07-1.05985E-09 1.57202E-09
 -1        77-1.69699E+06 2.66916E+01-3.75571E+02-2.02444E-07-5.30224E-10 1.33397E-09
 -1        78-1.69694E+06-1.27805E+02-6.29286E+02 1.09868E-07 2.28684E-09 1.52909E-10
 -1        79-1.69695E+06 1.00992E+02-1.05325E+03-1.53269E-07-6.98631E-10 4.99199E-10
 -1        80-1.69726E+06-7.45807E+02-2.36974E+03-7.42041E-08-6.17443E-10 2.17361E-09
 -1        81-1.69667E+06 6.43792E+02-4.06956E+03 3.59788E-08-5.91948E-10 1.66438E-09
 -1        82-1.69925E+06-4.79561E+03-1.00113E+04 1.37463E-07-1.31499E-09-1.35981E-09
 -1        83-1.69498E+06 4.14407E+03-1.59690E+04-9.53988E-08-1.65006E-09-1.42336E-09
 -1        84-1.71127E+06-3.07672E+04-4.36336E+04-4.02340E-07-1.59485E-09 2.05819E-09
 -1        85-1.68468E+06 2.65692E+04-6.17447E+04-4.61183E-08-2.32468E-09 2.04818E-09
 -1        86-7.51133E+04 2.97534E+05 1.77653E+05 2.27586E+03 2.18279E-11 2.08274E-09
 -1        87 9.40406E+04 3.77502E+05 1.38132E+05-1.01170E+04-6.73026E-11-1.40846E-08
 -1        88-1.87393E+04 3.23642E+05 7.14560E+04 1.29417E+03-6.18456E-10 1.64755E-09
 -1        89 6.68659E+04 3.64521E+05 1.02559E+05-9.03517E+03 2.18279E-10-2.57010E-09
 -1        90-4.79808E+04 3.10475E+05 1.16537E+05 1.19426E+03-8.07631E-10-4.51742E-09
 -1        91-1.55454E+06-2.69845E+05-2.71104E+04-6.45360E+05 4.19277E-09 4.97494E-10
 -1        92-1.59087E+06-8.17427E+04 8.71976E+03-4.11317E+05 1.50333E-08 3.22080E-09
 -1        93-1.48002E+06-2.74211E+05-3.88039E+03-6.48404E+05 9.69806E-09 8.55835E-10
 -1        94-1.49307E+06-1.10452E+05 2.66654E+04-4.34771E+05-5.14683E-09-3.79714E-10
 -1        95-1.64928E+06-2.44168E+05-2.86499E+04-6.19215E+05 1.09503E-09 9.02673E-10
 -1        96-1.33906E+06-2.30264E+05 3.42447E+04-5.70657E+05 9.80617E-09-2.30784E-11
 -1        97-1.63243E+06-1.55963E+05-7.98822E+03-5.11345E+05 1.30385E-08-3.70733E-10
 -1        98-1.36516E+06-3.16756E+05 1.24109E+04-6.86726E+05-4.59739E-08 5.96424E-09
 -1        99-1.62822E+06-1.52695E+05-7.08243E+03-5.07310E+05-7.72761E-08-1.98042E-09
 -1       100-1.33884E+06-2.37072E+05 3.15685E+04-5.78491E+05-4.66698E-08-2.05546E-10
 -1       101-1.65395E+06-2.40399E+05-3.18734E+04-6.15619E+05-7.82939E-09 5.05679E-09
 -1       102-1.48530E+06-1.18221E+05 2.01167E+04-4.37420E+05 1.01782E-08 9.91895E-09
 -1       103-1.48283E+06-2.70506E+05-1.73750E+04-6.49102E+05 1.44824E-08 8.14271E-09
 -1       104-1.60972E+06-1.07361E+05-2.90658E+04-4.05743E+05-1.14301E-09 6.96082E-09
 -1       105-1.53304E+06-2.47846E+05-7.93292E+04-6.50350E+05 1.20035E-08 1.11831E-08
 -1       106-1.07802E+06 3.04277E+03-7.07646E+03-9.32043E-08-1.09719E-10-9.40418E-10
 -1       107-1.08099E+06-3.52395E+03-5.00389E+03-3.69730E-08-2.12699E-11-1.90539E-09
 -1       108-1.07920E+06 4.74826E+02-1.84076E+03-1.33600E-07 2.42391E-10-2.85229E-09
 -1       109-1.07961E+06-5.51009E+02-1.17008E+03-8.28897E-09-1.63400E-09-2.93413E-09
 -1       110-1.07939E+06 7.52849E+01-5.10404E+02 9.96392E-08-6.20337E-11-3.45219E-09
 -1       111-1.07939E+06-9.73485E+01-3.65497E+02-9.34569E-09 5.02321E-10 7.11671E-09
 -1       112-1.07942E+06 2.19438E+01-2.96872E+02 4.37010E-08-6.46655E-10 2.07395E-09
 -1       113-1.07939E+06-9.31736E+01-4.59327E+02 9.03361E-08-2.44707E-11-3.86373E-09
 -1       114-1.07939E+06 7.11418E+01-7.46060E+02-2.61568E-07-3.08160E-10 7.78925E-10
 -1       115-1.07962E+06-5.22243E+02-1.66355E+03-2.48677E-07-1.10088E-09-2.56563E-10
 -1       116-1.07919E+06 4.50387E+02-2.85110E+03-1.20733E-07-6.24481E-10 1.29376E-09
 -1       117-1.08101E+06-3.35445E+03-7.00749E+03 6.70999E-08 2.90019E-10-1.86867E-09
 -1       118-1.07801E+06 2.89859E+03-1.11763E+04 2.04898E-08-1.31132E-09-1.74941E-09
 -1       119-1.08942E+06-2.15202E+04-3.05279E+04 6.08785E-08-2.19578E-10 2.21917E-10
 -1       120-1.07080E+06 1.85836E+04-4.31987E+04-6.91876E-08 5.32847E-11-1.45519E-10
 -1       121-1.25425E+03-9.42804E+05 5.41377E+03 2.33220E+03-1.62800E-10 4.48790E-09
 -1       122 1.72613E+03-9.40643E+05 3.79226E+03 8.64294E+03-2.86292E-10 1.43336E-09
 -1       123-2.34048E+02-9.42055E+05 2.11033E+03 2.60411E+03-5.01188E-10 6.25005E-09
 -1       124 1.08794E+03-9.40987E+05 2.67856E+03 8.06286E+03-2.00487E-10 5.81167E-09
 -1       125-7.66123E+02-9.42420E+05 3.29782E+03 2.91238E+03-9.01309E-10 2.16005E-09
 -1       126-6.59553E+05-9.55306E+04 1.73563E+04-2.26665E+05 2.63699E-08-8.18545E-10
 -1       127-5.30676E+05-9.70575E+04 2.70556E+04-2.56323E+05 2.11548E-08 7.65726E-09
 -1       128-6.40672E+05-6.60079E+04 4.45601E+03-2.04517E+05-2.13404E-08-1.68427E-08
 -1       129-5.55184E+05-1.29815E+05 5.25345E+03-2.82733E+05-3.13609E-08-3.82261E-09
 -1       130-6.36518E+05-6.16957E+04 1.06158E+03-2.01309E+05-2.50431E-08 8.29993E-09
 -1       131-5.44391E+05-1.19325E+05 6.89999E+03-2.64247E+05-1.33921E-08-2.68255E-09
 -1       132-6.50501E+05-7.72245E+04-5.87164E+03-2.22310E+05 1.45158E-08 2.48474E-09
 -1       133-5.36875E+05-8.47254E+04 1.43495E+04-2.17510E+05 1.68360E-08 2.29687E-09
 -1       134-6.42394E+05-9.75191E+04-8.71879E+03-2.46795E+05 8.11679E-09 6.32724E-09
 -1       135-5.84203E+05-5.27487E+04 1.08155E+04-1.83027E+05-1.52044E-08 6.58702E-10
 -1       136-6.03784E+05-1.08738E+05-4.39957E+03-2.57194E+05 1.62379E-08-4.60659E-10
 -1       137-6.45947E+05-3.88259E+04-4.47348E+02-1.72902E+05 2.39506E-08 1.85223E-08
 -1       138-5.82393E+05-1.10152E+05-4.77047E+03-2.58300E+05 4.28645E-09 9.91213E-09
 -1       139-6.44088E+05-4.69124E+04-1.07125E+04-1.72020E+05 3.77613E-08 3.68318E-08
 -1       140-6.05470E+05-1.00795E+05-2.62770E+04-2.57928E+05 7.98354E-09-5.91717E-09
 -1       141-5.06131E+05-3.29624E+03 7.66175E+03 4.00630E-09 6.80518E-10-7.09406E-11
 -1       142-5.02767E+05 3.81685E+03 5.40584E+03 1.42711E-08-1.41067E-10 1.93245E-09
 -1       143-5.04851E+05-5.13710E+02 1.96170E+03-1.25962E-07-3.26147E-10 5.86510E-10
 -1       144-5.04261E+05 5.91440E+02 1.19720E+03 9.57385E-08 4.33468E-10-2.48960E-10
 -1       145-5.04639E+05-7.67444E+01 4.16838E+02-1.55425E-08 2.58378E-10 3.67976E-10
 -1       146-5.04521E+05 6.84132E+01 1.04481E+02-1.93592E-07 2.97583E-10-1.87813E-09
 -1       147-5.04591E+05 8.45314E+00-2.25626E+02-3.95917E-08-2.64670E-10-1.48816E-09
 -1       148-5.04643E+05-1.42960E+02-7.05562E+02-4.87595E-08 9.92427E-11 5.68491E-10
 -1       149-5.04518E+05 1.34371E+02-1.37643E+03 1.58848E-07 3.11188E-11 3.37479E-10
 -1       150-5.05109E+05-1.01906E+03-3.22036E+03 3.09997E-09-5.64174E-10-4.03730E-09
 -1       151-5.04126E+05 8.83302E+02-5.57853E+03-4.99873E-08-6.93761E-10 1.35742E-09
 -1       152-5.07832E+05-6.58352E+03-1.37505E+04 9.28910E-08 9.06151E-10 7.98764E-10
 -1       153-5.01799E+05 5.68959E+03-2.19425E+04 1.27904E-08 1.68230E-09 2.84945E-09
 -1       154-5.24334E+05-4.22415E+04-5.99330E+04-1.76199E-07 5.27363E-10-1.59071E-09
 -1       155-4.87629E+05 3.64785E+04-8.47930E+04-1.28671E-09 3.97542E-09-3.81988E-10
 -1       156-1.72943E+04-1.58393E+05 3.99455E+04-1.55576E+04-5.42968E-09 5.55826E-09
 -1       157 2.15274E+04-1.34368E+05 3.22610E+04 6.42763E+04-1.39221E-08 7.91204E-10
 -1       158-4.01001E+03-1.51869E+05 1.62627E+04-1.56038E+04-6.96673E-09 2.29750E-09
 -1       159 1.69077E+04-1.21173E+05 2.80798E+04 6.17224E+04-2.86695E-09 5.50585E-10
 -1       160-1.33053E+04-1.70736E+05 2.38494E+04-1.30073E+04 1.30694E-08 2.48292E-09
 -1       161-5.48238E+05-7.56704E+04-2.90541E+03-2.05690E+05-9.78559E-10 4.56907E-10
 -1       162-5.48483E+05-7.95107E+04-2.01250E+03-2.06536E+05-2.98371E-10 3.46540E-09
 -1       163-5.49052E+05-7.64670E+04-6.92789E+02-2.05217E+05 3.19083E-10 2.79374E-09
 -1       164-5.47597E+05-7.85293E+04-4.52388E+02-2.07013E+05 2.35675E-09 2.71001E-10
 -1       165-5.49124E+05-7.66495E+04-2.16371E+02-2.05214E+05 1.48553E-09-7.99361E-12
 -1       166-5.47779E+05-7.80694E+04-2.21609E+02-2.06705E+05 1.20654E-09-8.31333E-10
 -1       167-5.48870E+05-7.69271E+04-2.96318E+02-2.05524E+05-7.16547E-11 2.28795E-09
 -1       168-5.48496E+05-7.75206E+04-6.25634E+02-2.05928E+05-5.34817E-10-4.20028E-09
 -1       169-5.48406E+05-7.71990E+04-1.13496E+03-2.05990E+05 6.23288E-10-4.90655E-09
 -1       170-5.49792E+05-7.77045E+04-2.81952E+03-2.04949E+05-2.53877E-10-2.02189E-09
 -1       171-5.47576E+05-7.67442E+04-4.88777E+03-2.06504E+05-2.21735E-09 2.65572E-10
 -1       172-5.53717E+05-8.30952E+04-1.31492E+04-2.03384E+05-4.05180E-10-7.14863E-10
 -1       173-5.44487E+05-7.18162E+04-2.10921E+04-2.07555E+05-3.50519E-09-1.25146E-09
 -1       174-5.75009E+05-1.20493E+05-6.24232E+04-1.96402E+05-1.12886E-08 5.85624E-09
 -1       175-5.26299E+05-3.94003E+04-8.99920E+04-2.13469E+05-4.51473E-09 7.53062E-10
 -1       191 1.43894E+03 4.75591E+05 2.35286E+03-1.52872E+04-2.23736E-10-3.07045E-09
 -1       192 5.14522E+02 4.75936E+05 1.39596E+03-1.64679E+04 3.57090E-10 2.00089E-09
 -1       193 2.25273E+02 4.75699E+05 1.10064E+03-1.50686E+04-6.45514E-10 3.65071E-09
 -1       194 6.55042E+02 4.75961E+05 1.63985E+03-1.68708E+04 3.21506E-10-7.41784E-09
 -1       195 1.86697E+03 4.75513E+05 2.96004E+03-1.48822E+04-1.14233E-09-4.59477E-09
 -1       251-1.94367E+06 3.42068E+04-1.01201E+05-6.64586E+04-1.19144E-09-4.04907E-09
 -1       252-1.89336E+06-3.94078E+04-5.43824E+04 1.78444E+05-1.10455E-09-3.42425E-09
 -1       253-1.92924E+06 7.20440E+03-2.59083E+04-8.31575E+04-3.75235E-09-8.83847E-09
 -1       254-1.81631E+06-2.32142E+03 6.75509E+03 1.09209E+05-4.19459E-09-3.86922E-09
 -1       255-2.01653E+06-6.84170E+03-2.66162E+04 2.79462E+03-4.13820E-10 7.84894E-10
 -1       256-1.80304E+06 5.21394E+03 2.02904E+04-7.03042E+04 2.82330E-09-1.31450E-09
 -1       257-1.94167E+06-1.12372E+03-6.31670E+03 9.62494E+04-9.14042E-11 4.00004E-09
 -1       258-1.87989E+06 4.77016E+03 7.17306E+03-1.61906E+05-6.60734E-10 4.59974E-09
 -1       259-1.94479E+06-1.41657E+03-6.97730E+03 9.45094E+04-1.12373E-08 7.37259E-09
 -1       260-1.80030E+06 5.24809E+03 2.08494E+04-6.51097E+04 5.19867E-09 1.28239E-10
 -1       261-2.01597E+06-6.75623E+03-2.64393E+04-6.60168E+02 5.91808E-09-1.15347E-09
 -1       262-1.81943E+06-2.39697E+03 6.24068E+03 1.13891E+05 1.24019E-08-9.50195E-10
 -1       263-1.92690E+06 7.40179E+03-2.52047E+04-8.43829E+04-6.71184E-09 1.13869E-09
 -1       264-1.89205E+06-3.89753E+04-5.36303E+04 1.77383E+05-3.73136E-08-1.49885E-09
 -1       265-1.94724E+06 3.35024E+04-1.01214E+05-6.41715E+04-1.62258E-08-3.35058E-09
 -1       266-2.31234E+04-2.77078E+05 5.33013E+04-3.97446E+03 3.27418E-11 1.84553E-10
 -1       267 2.52866E+04-2.53216E+05 3.52750E+04 1.99235E+04-9.68612E-11-3.61354E-09
 -1       268-2.21703E+03-2.68376E+05 8.30694E+03-2.93911E+03-1.26420E-10-1.84377E-09
 -1       269-6.25349E+03-2.64958E+05-5.64227E+03 1.64938E+04-1.11413E-10 4.72130E-09
 -1       270 8.23627E+03-2.65184E+05-1.88869E+04-5.46962E+02 1.94632E-10 6.14125E-09
 -1       271-3.36009E+06-4.24660E+05-2.62158E+05-1.30230E+06 1.33150E-09 5.36966E-09
 -1       272-3.44998E+06-5.98252E+05-1.65484E+05-1.30487E+06-5.53200E-10 2.21735E-09
 -1       273-3.40689E+06-4.82983E+05-6.18290E+04-1.29392E+06-2.76430E-10 2.41926E-09
 -1       274-3.39528E+06-5.23136E+05-3.39566E+04-1.31950E+06 9.58607E-10 2.00816E-09
 -1       275-3.41323E+06-4.88210E+05-1.43773E+04-1.29208E+06 2.63753E-11-4.53201E-09
 -1       276-3.38766E+06-5.16750E+05-7.60846E+03-1.32266E+06 5.70253E-10-5.60590E-09
 -1       277-3.41456E+06-4.88185E+05-3.90567E+03-1.29129E+06 1.39607E-10-4.43833E-10
 -1       278-3.38624E+06-5.16811E+05-3.07384E+03-1.32377E+06 1.21463E-09 1.90656E-09
 -1       279-3.41476E+06-4.87997E+05-3.68808E+03-1.29109E+06 1.26076E-09 1.16302E-09
 -1       280-3.38696E+06-5.17368E+05-7.02712E+03-1.32354E+06-1.38573E-09-1.73713E-10
 -1       281-3.41384E+06-4.87706E+05-1.31716E+04-1.29148E+06 8.30823E-10-2.49020E-09
 -1       282-3.39347E+06-5.23720E+05-3.11046E+04-1.32128E+06-9.97375E-10-5.23869E-10
 -1       283-3.40827E+06-4.82690E+05-5.65857E+04-1.29291E+06 2.00498E-09-5.35147E-09
 -1       284-3.44316E+06-5.92880E+05-1.51496E+05-1.30834E+06 2.37787E-09-5.45151E-09
 -1       285-3.36560E+06-4.29137E+05-2.39985E+05-1.30040E+06 1.60799E-09-1.17871E-09
 -1       286-5.71308E+05-1.23174E+04 2.86111E+04-1.83711E+03 2.21746E-09 6.36646E-11
 -1       287-5.58547E+05 1.42681E+04 2.02773E+04 1.95570E+03 5.31372E-10 5.35510E-09
 -1       288-5.66615E+05-1.92959E+03 7.38125E+03-5.96354E+02 8.80704E-10 1.49612E-10
 -1       289-5.64052E+05 2.23213E+03 4.72036E+03-7.01351E+02 2.10065E-10 1.95337E-09
 -1       290-5.65808E+05-3.06601E+02 1.89443E+03 8.20005E+02 1.35631E-09 4.69117E-09
 -1       291-5.65093E+05 3.61608E+02 1.20700E+03-3.17156E+03 1.62913E-09 4.09409E-09
 -1       292-5.65582E+05-5.66018E+01 6.18520E+02 1.87389E+03 1.07168E-09 2.46176E-09
 -1       293-5.65362E+05 1.25979E+02 5.98998E+02-4.52339E+03 6.53371E-10 6.14569E-09
 -1       294-5.65548E+05-6.49252E+01 7.22108E+02 2.17187E+03 1.59488E-09-7.90465E-10
 -1       295-5.65158E+05 4.50815E+02 1.45986E+03-4.25245E+03 1.05414E-09-1.71389E-09
 -1       296-5.65784E+05-3.82418E+02 2.40401E+03 1.60294E+03 1.19670E-10 3.92220E-10
 -1       297-5.63830E+05 2.82474E+03 5.94195E+03-2.46089E+03 1.47082E-09 6.86668E-10
 -1       298-5.66865E+05-2.44218E+03 9.35822E+03 3.80274E+02 8.08768E-10-2.23872E-09
 -1       299-5.56696E+05 1.80783E+04 2.56930E+04 1.69724E+02-2.51113E-10-1.63027E-09
 -1       300-5.72903E+05-1.56108E+04 3.62452E+04-1.02773E+03 5.12415E-10 3.81988E-11
 -1       301 4.58984E+04 2.08748E+04 1.00493E+05-2.85324E+04 2.83399E-09-2.51623E-09
 -1       302 1.55403E+04 3.96600E+04 6.11417E+04-3.35246E+04 2.17915E-09-8.23551E-09
 -1       303 4.38167E+03 2.75748E+04 4.83921E+04-2.85984E+04 2.41744E-09-2.88060E-09
 -1       304 1.93578E+04 4.19027E+04 7.13161E+04-3.34885E+04 1.91812E-09 3.27600E-09
 -1       305 5.82919E+04 1.86507E+04 1.25189E+05-2.85424E+04 2.56478E-09 5.18503E-09
 -1       306-2.30618E+06-2.99344E+05-1.54995E+05-8.93968E+05 8.69477E-10-2.73576E-09
 -1       307-2.34526E+06-4.15507E+05-9.77580E+04-9.11268E+05-1.03728E-09 7.45786E-10
 -1       308-2.33401E+06-3.33526E+05-3.65784E+04-8.88868E+05 4.96584E-10 2.49929E-09
 -1       309-2.31293E+06-3.71349E+05-2.00837E+04-9.20242E+05-5.62977E-10 9.24501E-10
 -1       310-2.33782E+06-3.36539E+05-8.53324E+03-8.87758E+05 2.71939E-10-3.26781E-09
 -1       311-2.30853E+06-3.67549E+05-4.55604E+03-9.22142E+05 2.90311E-09-3.31693E-09
 -1       312-2.33856E+06-3.36566E+05-2.42452E+03-8.87358E+05 1.05047E-09-3.56272E-09
 -1       313-2.30790E+06-3.67417E+05-2.07132E+03-9.22590E+05 2.98400E-09-1.81672E-10
 -1       314-2.33852E+06-3.36581E+05-2.69546E+03-8.87381E+05 3.57886E-10 1.43291E-09
 -1       315-2.30869E+06-3.67574E+05-5.30371E+03-9.22034E+05-1.39084E-09-1.01409E-09
 -1       316-2.33767E+06-3.36520E+05-1.00480E+04-8.87827E+05-2.96677E-09-2.97405E-10
 -1       317-2.31382E+06-3.72178E+05-2.37296E+04-9.19936E+05-1.36060E-09-3.68345E-10
 -1       318-2.33326E+06-3.32856E+05-4.32282E+04-8.89038E+05-1.21372E-09-1.65528E-09
 -1       319-2.35183E+06-4.24640E+05-1.15578E+05-9.09656E+05-4.04725E-11-1.63891E-09
 -1       320-2.30052E+06-2.92247E+05-1.83200E+05-8.94878E+05-4.96584E-10-7.13044E-10
 -1       321-4.85800E+05-1.93983E+04 4.37453E+04 2.35444E+03-1.80648E-09-1.10958E-09
 -1       322-4.59745E+05 2.24231E+04 3.21718E+04-1.19385E+04 3.87882E-09-6.25732E-10
 -1       323-4.76646E+05-3.05081E+03 1.12480E+04 6.53009E+03-3.07608E-09-1.45064E-10
 -1       324-4.71459E+05 3.57518E+03 7.38645E+03-1.79577E+04-1.27384E-08-5.15774E-09
 -1       325-4.74265E+05-4.57686E+02 2.93570E+03 8.37436E+03 2.99960E-09-2.46962E-09
 -1       326-4.73351E+05 6.34765E+02 1.78465E+03-1.86970E+04 4.51566E-09 8.68710E-10
 -1       327-4.74781E+05-9.59958E+01 5.91797E+02 7.26964E+03-6.28751E-09 1.89286E-09
 -1       328-4.70969E+05 1.81864E+02 9.79578E+02-1.38780E+04-2.19541E-09 1.06337E-09
 -1       329-4.76500E+05-1.17365E+02-3.64462E+02 3.55443E+03-1.95666E-09-4.45212E-10
 -1       330-4.68383E+05 1.06120E+02 1.09357E+03-4.99349E+03-6.32554E-10-4.78195E-11
 -1       331-4.77219E+05-1.33795E+02-8.14411E+02-1.61426E+03 4.70664E-11-3.08754E-09
 -1       332-4.68926E+05-5.77383E+01 5.57566E+02 5.15209E+03 1.38928E-08-5.00475E-09
 -1       333-4.75980E+05 6.28122E+01-1.22128E+03-6.58976E+03 1.07119E-08-1.69905E-09
 -1       334-4.72567E+05-1.28305E+03-1.72892E+03 1.33437E+04 1.11533E-08 1.45201E-09
 -1       335-4.73745E+05 1.21660E+03-3.20914E+03-9.80698E+03-1.08729E-08-1.95791E-09
 -1       336-6.06090E+02-9.43398E+05 1.24661E+03-5.93850E+03-1.24874E-09 3.32875E-10
 -1       337-3.43349E+01-9.43131E+05-2.83951E+03-2.79785E+04-8.43954E-10-4.34238E-09
 -1       338 7.74499E+02-9.42356E+05-8.12784E+03-5.74172E+03-1.82899E-09-1.24351E-09
 -1       339-1.07293E+04-9.49551E+05-2.18373E+04-2.82368E+04-6.55291E-10 1.23396E-09
 -1       340 8.05577E+03-9.37058E+05-3.46696E+04-5.68420E+03-1.40972E-09 1.75942E-09
 -1       341-1.47099E+06-2.01419E+05-6.26401E+04-5.85614E+05-1.05538E-08 1.09139E-11
 -1       342-1.54699E+06-1.98417E+05-4.08961E+04-5.06881E+05-1.93031E-08-1.48430E-09
 -1       343-1.47639E+06-2.25521E+05-1.47598E+04-5.84379E+05 3.32648E-09 7.18501E-10
 -1       344-1.50759E+06-1.88547E+05-5.58606E+03-5.27530E+05 8.69316E-09 1.06297E-09
 -1       345-1.50992E+06-2.11673E+05-6.55568E+03-5.64589E+05-1.06752E-09-6.44150E-10
 -1       346-1.46340E+06-2.25487E+05 1.45921E+03-5.75138E+05-5.96748E-09-4.70163E-09
 -1       347-1.52053E+06-1.88624E+05-1.76319E+03-5.36731E+05-1.35432E-08 8.43886E-09
 -1       348-1.45332E+06-2.46438E+05-5.86202E+01-6.01323E+05 9.64569E-09 1.13494E-08
 -1       349-1.52049E+06-1.90232E+05-2.96190E+03-5.38828E+05 6.28609E-09 2.70711E-09
 -1       350-1.46695E+06-2.22312E+05-9.42408E+02-5.69921E+05-8.16544E-09 4.48324E-09
 -1       351-1.50635E+06-2.13300E+05-1.12397E+04-5.67659E+05-1.23816E-09 6.68661E-09
 -1       352-1.51678E+06-1.92112E+05-1.89174E+04-5.22754E+05-2.65982E-09 1.68120E-09
 -1       353-1.47087E+06-2.20269E+05-3.53541E+04-5.86150E+05 1.00272E-09-2.05546E-10
 -1       354-1.57061E+06-2.43150E+05-1.02548E+05-4.99630E+05 1.48957E-08 5.57338E-09
 -1       355-1.45292E+06-1.62030E+05-1.52096E+05-5.91062E+05 3.42698E-09-4.09636E-09
 -1       356-4.92140E+05 1.94623E+03-4.84035E+03-1.08125E+04-1.66895E-09-5.68889E-10
 -1       357-4.92618E+05-2.09283E+03-3.05184E+03 1.61305E+04-2.10122E-08 3.48217E-09
 -1       358-4.94629E+05 1.82058E+02-1.62695E+03-8.02766E+03-5.37045E-09 5.50870E-10
 -1       359-4.88121E+05-1.62405E+02 2.00128E+02 8.23531E+03 8.34513E-09-4.06902E-09
 -1       360-4.96439E+05-1.31484E+02-1.10511E+03-2.91554E+03 4.90434E-09-3.49446E-09
 -1       361-4.86567E+05 8.11300E+01 9.18404E+02-2.65826E+03 8.42311E-09-1.33073E-09
 -1       362-4.96106E+05-1.19426E+02-1.05284E+03 2.86471E+03-1.30740E-09 4.89479E-10
 -1       363-4.89036E+05-3.06706E+01 1.20580E+01-1.29746E+04 4.26877E-09-1.21403E-10
 -1       364-4.94107E+05 8.43950E+01-1.62611E+03 7.39965E+03 1.01227E-08 1.80478E-10
 -1       365-4.92796E+05-8.78806E+02-3.00866E+03-1.93276E+04-2.23603E-08-1.03148E-09
 -1       366-4.92532E+05 8.69245E+02-5.46703E+03 9.21877E+03 1.00188E-08 1.43223E-09
 -1       367-4.95668E+05-6.30758E+03-1.33593E+04-1.96699E+04 1.64888E-08-5.11136E-10
 -1       368-4.91250E+05 5.51335E+03-2.17375E+04 7.74194E+03 7.34849E-09 2.18279E-11
 -1       369-5.08635E+05-4.11017E+04-5.80338E+04-1.38092E+04 1.27513E-08-3.44698E-10
 -1       370-4.79395E+05 3.54675E+04-8.39058E+04 3.35684E+03 6.78347E-09-4.69299E-10
 -1       371-1.19341E+04-1.73607E+05 2.11614E+04-9.98866E+03 1.75187E-08-1.57570E-09
 -1       372 1.15506E+04-1.36112E+05 1.73139E+04 4.96264E+04-4.98403E-10 1.16870E-10
 -1       373-1.18422E+01-1.57722E+05 5.82190E+02-1.24130E+04-1.52568E-09 2.22087E-09
 -1       374-8.95828E+03-1.57566E+05-1.09337E+04 5.21885E+04-8.84870E-09-1.30740E-10
 -1       375 9.02317E+03-1.52822E+05-2.05631E+04-1.25469E+04-3.25781E-09-2.95358E-09
 -1       376-5.79550E+05-9.33318E+04-2.20171E+04-2.44104E+05 4.82437E-08-3.76804E-09
 -1       377-6.24254E+05-5.48555E+04-1.16898E+04-1.77899E+05 4.18453E-08 8.43318E-09
 -1       378-5.69337E+05-1.01849E+05-4.45690E+03-2.44582E+05-3.21226E-08 1.05267E-08
 -1       379-6.17136E+05-4.84554E+04-8.07921E+02-1.79630E+05-3.11816E-08-9.49262E-09
 -1       380-5.86578E+05-9.97833E+04-3.56491E+03-2.42308E+05-2.33285E-10 2.09036E-09
 -1       381-5.73702E+05-6.12969E+04 6.85616E+03-1.91150E+05 7.82563E-09 4.37922E-09
 -1       382-6.11678E+05-8.98113E+04-5.81371E+03-2.32210E+05-1.21418E-10-1.54932E-09
 -1       383-5.42887E+05-8.67375E+04 7.93081E+03-2.19445E+05 4.83112E-09 1.12129E-09
 -1       384-6.17168E+05-7.45132E+04-4.49630E+03-2.13875E+05-2.23038E-08 4.43595E-09
 -1       385-5.45728E+05-1.12473E+05 8.51364E+02-2.52247E+05-2.88252E-08 1.86913E-09
 -1       386-6.09888E+05-6.32973E+04-4.35053E+03-2.00202E+05 2.19947E-08 1.59887E-08
 -1       387-5.53695E+05-1.24952E+05-1.05195E+04-2.62052E+05 3.41124E-08 1.05873E-08
 -1       388-6.09702E+05-6.16730E+04-1.95139E+04-2.04428E+05 8.02513E-08 1.04819E-08
 -1       389-5.63339E+05-1.40650E+05-4.85686E+04-2.34487E+05 7.31216E-08 4.44470E-09
 -1       390-5.99325E+05-4.83409E+04-8.37138E+04-2.27071E+05 4.38558E-09-2.34286E-09
 -1       406 1.48455E+03 4.68670E+05 2.99530E+03-4.74567E+04-1.68802E-09 3.11775E-09
 -1       407 8.80217E+02 4.69191E+05 3.30005E+03-5.22085E+04 2.12594E-10-4.67116E-09
 -1       408 1.26242E+03 4.68600E+05 5.15490E+03-4.72904E+04-1.88038E-09 1.74896E-09
 -1       409 4.97130E+03 4.70562E+05 1.08894E+04-5.24341E+04 3.27418E-11-7.93079E-10
 -1       410 1.43089E+04 4.67201E+05 2.18579E+04-4.72164E+04-1.96269E-09 4.12820E-09
 -1       466 1.38479E+06-5.57687E+04 1.26186E+05 2.58429E+04-2.50111E-11-7.97445E-09
 -1       467 1.45970E+06 6.40040E+04 9.25909E+04-4.17110E+04-1.15040E-09-3.60524E-09
 -1       468 1.41425E+06-8.39666E+03 3.30543E+04 7.17124E+03-5.09829E-10-3.63980E-09
 -1       469 1.42543E+06 9.66688E+03 2.10633E+04-1.65737E+04-5.30008E-10-2.27374E-11
 -1       470 1.41866E+06-1.27416E+03 8.67645E+03 7.03896E+02-3.96412E-10 1.15688E-09
 -1       471 1.42034E+06 1.53231E+03 5.40182E+03-7.90041E+03 1.39072E-09 3.21734E-10
 -1       472 1.41931E+06-2.43114E+02 3.07760E+03-1.50223E+03 1.56619E-09-5.82247E-10
 -1       473 1.41975E+06 6.47366E+02 3.24417E+03-5.13424E+03 6.00485E-10-3.89798E-09
 -1       474 1.41924E+06-3.86495E+02 4.30029E+03-2.06232E+03 1.90912E-10 5.48084E-10
 -1       475 1.42086E+06 2.75633E+03 8.92847E+03-4.99992E+03-1.19682E-10 8.78345E-10
 -1       476 1.41820E+06-2.34874E+03 1.50514E+04-1.63654E+03 8.19092E-10 4.16730E-09
 -1       477 1.42816E+06 1.75284E+04 3.67766E+04-7.34274E+03-4.91355E-10 2.73803E-09
 -1       478 1.41191E+06-1.51355E+04 5.85700E+04 2.80591E+02-7.92582E-10-6.22094E-10
 -1       479 1.47296E+06 1.12548E+05 1.59957E+05-1.50993E+04 2.82402E-09-1.74441E-09
 -1       480 1.37340E+06-9.71989E+04 2.26054E+05 6.11941E+03 3.69704E-09-1.41154E-09
 -1       481-1.17562E+04 2.47142E+05 2.43365E+04-1.08279E+04 3.09228E-11-2.08615E-09
 -1       482 1.36027E+04 2.74857E+05 2.09960E+04 3.31439E+04-1.30058E-10 9.09813E-09
 -1       483-2.13010E+03 2.57181E+05 8.26698E+03-7.56021E+03 3.50155E-11 2.09110E-09
 -1       484 5.64720E+03 2.63700E+05 9.67251E+03 2.89882E+04 2.10150E-10-1.45485E-09
 -1       485-3.54065E+03 2.57901E+05 9.14310E+03-6.66907E+03 1.29376E-10 2.96296E-11
 -1       486-1.27234E+06-1.95519E+05-1.31881E+05-5.77503E+05-3.45972E-09-1.14014E-08
 -1       487-1.42737E+06-1.08238E+05-7.24231E+04-3.24899E+05 3.67072E-09 2.64017E-08
 -1       488-1.29529E+06-2.35525E+05-3.56864E+04-5.70247E+05 3.40401E-09-4.75484E-09
 -1       489-1.23611E+06-1.02670E+05 1.77705E+04-3.64985E+05 2.35059E-09-3.58568E-09
 -1       490-1.45839E+06-2.05791E+05-3.70972E+04-5.33028E+05 2.21007E-10 1.84991E-09
 -1       491-1.11575E+06-2.13221E+05 3.12889E+04-5.04607E+05-9.68339E-09 1.65128E-08
 -1       492-1.41557E+06-1.25021E+05-7.90595E+03-4.30824E+05 5.19185E-09-6.98128E-09
 -1       493-1.16211E+06-2.87868E+05 1.00466E+04-6.09403E+05-3.51989E-09 4.09688E-09
 -1       494-1.41728E+06-1.26274E+05-8.30504E+03-4.32382E+05 5.75528E-09 7.95808E-09
 -1       495-1.11564E+06-2.10527E+05 3.22833E+04-5.01411E+05 1.23819E-08-2.65345E-08
 -1       496-1.45667E+06-2.07348E+05-3.60816E+04-5.34561E+05 4.61114E-10-1.58375E-08
 -1       497-1.24047E+06-9.97622E+04 1.96054E+04-3.63847E+05-1.76476E-09-7.41647E-09
 -1       498-1.29278E+06-2.36755E+05-3.10230E+04-5.69957E+05-4.83578E-09-1.57288E-08
 -1       499-1.42233E+06-9.96808E+04-6.03613E+04-3.26544E+05-4.96584E-09-2.93448E-08
 -1       500-1.27988E+06-2.02837E+05-1.15174E+05-5.76148E+05-2.30575E-08 1.83209E-08
 -1       501-5.28808E+05-2.35737E+04 5.47508E+04-1.29020E+03 1.88979E-09-2.90311E-09
 -1       502-5.04432E+05 2.73006E+04 3.87917E+04 5.05958E+02 5.26853E-10 8.03993E-10
 -1       503-5.19705E+05-3.68701E+03 1.41275E+04 2.06249E+02 7.03437E-11 1.60344E-09
 -1       504-5.15160E+05 4.26326E+03 8.95409E+03-2.37922E+03-7.41295E-10-4.34261E-09
 -1       505-5.18100E+05-5.76893E+02 3.58692E+03 1.59504E+03 1.33386E-09 1.68325E-09
 -1       506-5.17148E+05 6.69370E+02 2.12388E+03-4.54811E+03 2.46791E-09 3.64560E-09
 -1       507-5.17732E+05-8.93190E+01 9.25225E+02 2.37518E+03 2.16784E-09 2.43620E-09
 -1       508-5.17545E+05 1.17157E+02 5.41845E+02-5.22999E+03 1.16002E-09-2.05523E-09
 -1       509-5.17709E+05-2.10154E+01 2.90134E+02 2.27694E+03 2.14116E-09 2.07133E-09
 -1       510-5.17422E+05 7.26730E+01 3.08521E+02-4.18866E+03 7.71628E-10 1.05791E-09
 -1       511-5.17847E+05-5.14444E+01 2.90283E+02 1.33381E+03-1.10182E-09 2.32612E-09
 -1       512-5.17083E+05 3.25530E+02 7.57149E+02-1.78029E+03 1.07843E-09 3.53360E-10
 -1       513-5.18035E+05-2.82831E+02 1.00528E+03-1.31471E+02-2.13447E-11 4.16151E-10
 -1       514-5.16292E+05 2.02149E+03 2.92512E+03 1.16963E+03-3.23482E-10 1.32727E-09
 -1       515-5.18637E+05-1.74474E+03 3.98369E+03-1.61613E+03-7.95779E-10-1.21463E-09
 -1       516-5.59487E+04 2.98704E+05 1.31705E+05-6.51446E+03-5.23869E-10 4.77183E-09
 -1       517 6.78698E+04 3.57688E+05 9.88229E+04 2.54526E+04-7.66704E-10 4.60591E-09
 -1       518-1.18453E+04 3.18164E+05 4.54404E+04-7.16130E+03-6.43922E-10 1.60884E-09
 -1       519 3.46108E+04 3.47601E+05 5.60120E+04 2.95434E+04-1.42700E-09-1.13619E-09
 -1       520-2.29482E+04 3.09062E+05 5.48452E+04-1.06075E+04-1.07320E-09-7.46809E-09
 -1       521-3.22743E+06-4.12998E+05-2.26084E+05-1.24722E+06-2.51021E-10-5.99539E-09
 -1       522-3.29753E+06-5.69942E+05-1.42680E+05-1.25786E+06 5.26597E-10 2.52294E-09
 -1       523-3.26787E+06-4.63152E+05-5.33153E+04-1.23990E+06-6.84395E-11-4.47471E-10
 -1       524-3.25039E+06-5.05236E+05-2.92842E+04-1.27060E+06-1.27784E-09-3.35194E-09
 -1       525-3.27332E+06-4.67670E+05-1.23972E+04-1.23835E+06 7.02130E-10 1.30512E-09
 -1       526-3.24399E+06-4.99565E+05-6.57463E+03-1.27315E+06 2.55295E-09 2.88560E-09
 -1       527-3.27433E+06-4.67791E+05-3.38932E+03-1.23782E+06 3.78759E-09 1.66324E-09
 -1       528-3.24311E+06-4.99253E+05-2.70732E+03-1.27365E+06 6.28268E-09 4.35546E-09
 -1       529-3.27425E+06-4.67880E+05-3.29885E+03-1.23791E+06 3.22007E-09 1.31740E-09
 -1       530-3.24424E+06-4.99225E+05-6.31613E+03-1.27276E+06-1.14164E-09 5.54792E-10
 -1       531-3.27310E+06-4.67952E+05-1.18816E+04-1.23861E+06-7.79437E-10-9.58607E-10
 -1       532-3.25069E+06-5.04299E+05-2.80242E+04-1.26989E+06-3.56522E-10-4.54747E-12
 -1       533-3.26769E+06-4.63827E+05-5.10278E+04-1.24030E+06 5.45242E-10 1.17871E-09
 -1       534-3.29616E+06-5.65824E+05-1.36516E+05-1.25724E+06 2.13822E-09-1.36424E-10
 -1       535-3.22880E+06-4.16050E+05-2.16343E+05-1.24753E+06-5.02041E-10-2.91038E-11
 -1       536 6.71678E+04-1.36581E+04 5.86337E+04-8.15836E+03 7.33962E-10-1.45155E-09
 -1       537 8.86306E+04 1.82864E+04 3.75870E+04-3.19095E+04-2.85218E-09 5.89353E-10
 -1       538 7.59802E+04-1.46871E+03 1.51685E+04-8.07461E+03-3.31966E-10 8.39464E-10
 -1       539 7.86012E+04 1.74528E+03 8.48096E+03-3.19741E+04 2.12049E-09-1.30240E-09
 -1       540 7.69541E+04-1.87718E+02 3.82022E+03-8.08716E+03-2.85581E-10 5.19094E-10
 -1       541 7.73431E+04 1.58667E+02 2.02165E+03-3.19454E+04 4.35421E-10 1.02307E-09
 -1       542 7.70650E+04-2.78185E+01 9.49678E+02-8.10358E+03-3.55158E-10-2.35195E-09
 -1       543 7.71139E+04 3.05894E+01 4.86828E+02-3.19203E+04 9.89417E-10-1.52903E-09
 -1       544 7.70755E+04 2.71725E+00 2.22339E+02-8.11236E+03 3.17129E-09 1.65358E-10
 -1       545 7.70560E+04 2.53040E+01 8.77493E+01-3.19103E+04 3.15434E-09 2.18722E-09
 -1       546 7.70803E+04 9.05540E+00-6.99886E+00-8.11363E+03 2.39197E-09-1.44416E-09
 -1       547 7.70478E+04-1.10478E+01-1.16710E+02-3.19111E+04 8.45262E-10-2.03170E-09
 -1       548 7.71062E+04 1.98247E+01-2.55827E+02-8.11154E+03-7.10770E-10 4.31783E-10
 -1       549 7.69395E+04-3.24370E+02-6.48218E+02-3.18635E+04 3.06500E-10-1.13096E-09
 -1       550 7.72763E+04 2.05628E+02-1.04242E+03-8.16124E+03-3.73348E-10 1.07451E-09
 -1       551 1.48995E+04-3.13027E+05 3.02274E+04-4.76263E+05 3.91447E-09 3.38332E-09
 -1       552 8.03457E+03-3.08358E+05 2.38640E+04-5.57306E+05 2.64481E-09 3.00861E-09
 -1       553 5.44997E+03-3.12813E+05 2.77345E+04-4.75463E+05 3.91810E-09 3.34694E-09
 -1       554 1.87811E+04-3.02454E+05 5.20771E+04-5.57439E+05 3.20142E-09-7.62611E-10
 -1       555 4.95411E+04-3.19699E+05 9.87153E+04-4.76021E+05 3.66344E-09-3.93266E-09
 -1       556-2.30710E+05-1.22321E+05 1.96024E+04-2.18285E+05 5.47516E-09 7.67614E-10
 -1       557-2.12378E+05-1.42255E+05 9.65483E+03-2.32671E+05 5.83532E-09-3.51429E-09
 -1       558-2.31312E+05-1.28766E+05 4.03783E+03-2.14493E+05 1.93177E-09-3.07955E-09
 -1       559-2.14394E+05-1.45416E+05 1.99050E+03-2.33502E+05-2.27556E-09-6.09248E-09
 -1       560-2.31700E+05-1.28733E+05 8.72946E+02-2.14554E+05 2.18279E-11-4.59295E-10
 -1       561-2.14927E+05-1.45404E+05 4.16510E+02-2.33885E+05 1.01863E-10-3.39372E-09
 -1       562-2.31991E+05-1.28542E+05 1.39323E+02-2.14746E+05-2.78669E-09-7.62907E-09
 -1       563-2.15214E+05-1.45280E+05-1.93278E+01-2.34089E+05 5.09317E-10 8.38554E-10
 -1       564-2.32151E+05-1.28430E+05-2.11466E+02-2.14859E+05 3.07591E-09 3.64980E-09
 -1       565-2.15365E+05-1.45222E+05-5.31015E+02-2.34183E+05-3.69073E-09-1.01463E-08
 -1       566-2.32158E+05-1.28389E+05-1.13771E+03-2.14883E+05 1.93324E-09 1.02664E-08
 -1       567-2.15556E+05-1.45347E+05-2.51797E+03-2.34150E+05-8.87667E-10 1.00044E-09
 -1       568-2.31921E+05-1.28807E+05-5.18476E+03-2.14655E+05-8.82210E-10 2.00635E-09
 -1       569-2.18292E+05-1.48543E+05-1.22287E+04-2.33271E+05 4.61114E-10-4.23825E-10
 -1       570-2.30744E+05-1.38422E+05-2.49783E+04-2.10553E+05 2.36469E-11-1.96724E-09
 -1       571 2.97961E+05 1.47039E+04 2.25863E+04-7.79644E+04 8.09450E-11 2.04273E-09
 -1       572 3.01407E+05 5.00537E+03 1.10960E+04-8.59471E+04 3.18323E-10-1.60435E-09
 -1       573 2.99335E+05 1.11105E+03 4.93678E+03-7.77470E+04 1.01863E-09-1.00681E-09
 -1       574 2.99733E+05 3.43069E+02 2.47972E+03-8.61819E+04 1.61162E-09-1.72804E-10
 -1       575 2.99472E+05 2.66630E+01 1.17341E+03-7.77200E+04 6.50743E-10-3.35240E-09
 -1       576 2.99507E+05-8.01848E-01 6.00253E+02-8.62122E+04 1.30171E-10-7.37600E-10
 -1       577 2.99492E+05-2.02515E+01 3.00159E+02-7.77166E+04-2.40789E-10 6.73936E-10
 -1       578 2.99490E+05-1.71626E+01 1.71578E+02-8.62160E+04-2.57387E-10 3.52884E-10
 -1       579 2.99524E+05-2.86359E+01 1.18784E+02-7.77163E+04-6.63931E-10 3.26509E-10
 -1       580 2.99539E+05-3.73913E+01 1.33970E+02-8.62123E+04 6.41194E-10-1.61526E-09
 -1       581 2.99582E+05-5.28971E+01 2.06316E+02-7.77203E+04 1.63709E-10-1.14051E-09
 -1       582 2.99658E+05-2.47452E+01 4.10904E+02-8.61669E+04 1.86446E-10 9.04947E-10
 -1       583 2.99648E+05 7.20885E+01 7.98038E+02-7.77616E+04 8.54925E-11 2.80352E-10
 -1       584 3.00040E+05 6.74550E+02 1.79239E+03-8.58084E+04-2.48019E-09 1.23123E-09
 -1       585 2.99529E+05 2.21994E+03 3.63502E+03-7.80816E+04-3.63798E-10-5.40240E-10
 -1       586 2.66393E+03 1.22514E+05 4.63719E+03-1.97789E+05 4.41105E-10 2.09457E-09
 -1       587 1.50595E+03 1.23244E+05 4.34593E+03-2.18651E+05 6.53017E-10 1.16415E-10
 -1       588 1.69831E+03 1.22422E+05 6.08410E+03-1.97538E+05 3.96540E-10 1.30740E-10
 -1       589 5.84963E+03 1.24698E+05 1.24022E+04-2.18712E+05 7.69433E-10-1.03910E-09
 -1       590 1.62798E+04 1.20953E+05 2.46614E+04-1.97721E+05 5.84805E-10 1.93268E-10
 -1       591-1.39844E+05-4.82632E+04-2.62009E+04-7.26403E+04 1.79739E-09-6.16637E-10
 -1       592-1.40568E+05-4.50815E+04-1.28435E+04-8.05211E+04 1.32604E-09-1.52454E-09
 -1       593-1.40609E+05-3.85111E+04-5.44913E+03-7.70915E+04-1.16233E-09-7.24526E-09
 -1       594-1.37776E+05-4.15340E+04-2.66536E+03-8.10102E+04-5.66615E-10-1.16696E-08
 -1       595-1.40738E+05-3.81458E+04-1.22755E+03-7.72942E+04-3.81465E-09-6.02699E-09
 -1       596-1.37567E+05-4.13920E+04-6.23771E+02-8.09956E+04-4.08727E-09 7.60292E-09
 -1       597-1.40764E+05-3.81627E+04-3.42233E+02-7.72965E+04-1.02699E-09 1.86651E-09
 -1       598-1.37546E+05-4.13937E+04-2.78718E+02-8.09867E+04 9.45107E-10-4.46335E-10
 -1       599-1.40760E+05-3.81636E+04-3.60096E+02-7.72948E+04 1.09139E-11 2.06455E-09
 -1       600-1.37564E+05-4.13944E+04-6.71030E+02-8.09918E+04-1.91108E-10 1.71894E-10
 -1       601-1.40725E+05-3.81477E+04-1.32768E+03-7.72888E+04-1.13096E-09-6.94854E-10
 -1       602-1.37787E+05-4.15485E+04-2.88726E+03-8.10005E+04 3.72893E-10-3.71892E-09
 -1       603-1.40578E+05-3.85494E+04-5.90415E+03-7.70685E+04-2.52112E-09-6.08452E-10
 -1       604-1.40828E+05-4.53712E+04-1.39153E+04-8.04410E+04-3.61797E-09 4.57067E-09
 -1       605-1.39724E+05-4.91318E+04-2.83866E+04-7.22634E+04-3.81760E-09-7.44330E-09
 -1       606 9.64043E+04-1.18897E+04-1.82183E+04 2.81634E+04-5.72800E-09 1.25510E-09
 -1       607 9.35693E+04-4.04718E+03-8.94637E+03 3.07498E+04-1.08594E-09 2.74963E-09
 -1       608 9.52196E+04-8.95823E+02-3.98108E+03 2.79714E+04 4.07454E-09-1.42609E-09
 -1       609 9.48396E+04-2.49749E+02-1.99542E+03 3.09581E+04-2.73212E-09 8.90850E-10
 -1       610 9.50536E+04 1.07292E+01-9.42171E+02 2.79469E+04-7.17137E-09 1.00590E-09
 -1       611 9.49757E+04 5.17315E+01-4.74361E+02 3.09842E+04-1.21122E-08-6.49379E-10
 -1       612 9.50118E+04 6.28049E+01-2.26082E+02 2.79442E+04-4.81123E-09 4.32010E-10
 -1       613 9.49796E+04 6.96693E+01-1.05061E+02 3.09874E+04-6.49652E-09-1.24373E-09
 -1       614 9.49908E+04 6.38230E+01-3.32382E+01 2.79435E+04 7.09406E-11 3.42993E-09
 -1       615 9.49706E+04 7.46134E+01 2.20524E+01 3.09876E+04 7.20502E-09 7.02130E-10
 -1       616 9.49754E+04 7.17313E+01 8.67242E+01 2.79439E+04-4.31146E-09-5.27962E-10
 -1       617 9.49776E+04 1.09991E+02 2.07389E+02 3.09866E+04 2.05364E-09 1.18030E-09
 -1       618 9.49519E+04 1.71356E+02 4.24187E+02 2.79443E+04 1.95905E-09 8.25821E-10
 -1       619 9.51111E+04 5.19736E+02 9.59916E+02 3.09825E+04-3.42197E-11-5.51790E-09
 -1       620 9.48233E+04 1.35409E+03 1.95712E+03 2.79456E+04 6.12317E-10-2.99133E-09
 -1       621 2.39285E+03 3.12192E+05 5.80181E+03-2.79952E+04 2.43858E-09-1.29444E-09
 -1       622 9.22951E+02 3.13287E+05 4.75225E+03-3.28869E+04 7.53971E-10-1.11118E-09
 -1       623 5.41507E+02 3.12443E+05 5.78975E+03-2.80294E+04 2.38197E-09 1.58661E-09
 -1       624 3.29647E+03 3.14701E+05 1.10965E+04-3.27372E+04 1.06547E-09 6.58474E-10
 -1       625 1.01031E+04 3.10823E+05 2.11905E+04-2.81418E+04 2.15186E-09 1.51795E-09
 -1       626 1.36761E+05 4.47195E+04-8.02688E+03 9.29105E+04-2.60570E-09 1.96633E-09
 -1       627 1.33001E+05 5.04280E+04-3.80756E+03 9.46475E+04-5.82077E-10-2.56205E-09
 -1       628 1.36927E+05 4.86628E+04-1.60038E+03 9.09814E+04-9.73159E-11 2.69074E-09
 -1       629 1.33587E+05 5.20579E+04-7.67820E+02 9.44992E+04-3.21234E-09 1.80293E-10
 -1       630 1.36902E+05 4.89373E+04-3.39126E+02 9.08194E+04-1.41699E-09-3.31545E-09
 -1       631 1.33620E+05 5.21809E+04-1.51740E+02 9.44931E+04-7.16727E-09-1.00972E-08
 -1       632 1.36878E+05 4.89499E+04-4.28176E+01 9.08009E+04-4.82396E-09-3.10354E-09
 -1       633 1.33616E+05 5.21892E+04 3.68533E+01 9.44902E+04-2.79942E-09 5.96697E-09
 -1       634 1.36862E+05 4.89447E+04 1.35164E+02 9.07960E+04 2.07046E-09 8.20819E-11
 -1       635 1.33629E+05 5.21940E+04 3.22610E+02 9.44918E+04-3.14412E-09 4.73847E-10
 -1       636 1.36846E+05 4.89593E+04 6.76335E+02 9.07847E+04-6.22009E-09 2.35741E-09
 -1       637 1.33790E+05 5.23754E+04 1.51362E+03 9.44646E+04-5.00512E-09 4.93537E-09
 -1       638 1.36812E+05 4.95071E+04 3.13775E+03 9.05458E+04-3.15140E-09-6.32099E-11
 -1       639 1.35391E+05 5.51609E+04 7.46675E+03 9.37852E+04-9.76434E-09 2.08047E-10
 -1       640 1.36886E+05 5.75628E+04 1.57371E+04 8.71935E+04-3.44608E-09 4.15184E-10
 -1       641 3.54905E+03 2.83084E+03-6.58922E+03-1.60532E+02-7.57840E-09-1.42700E-09
 -1       642 7.21065E+02-3.27697E+03-4.64857E+03 6.91719E+02-6.04231E-10-3.92038E-09
 -1       643 2.45422E+03 4.40978E+02-1.69945E+03-1.57853E+02-1.34361E-08-2.50384E-09
 -1       644 1.99321E+03-5.07783E+02-1.05298E+03 6.87955E+02 6.26554E-09-2.57131E-10
 -1       645 2.27628E+03 6.71129E+01-4.07176E+02-1.56777E+02-5.37550E-09-6.79620E-10
 -1       646 2.20325E+03-6.94788E+01-1.92817E+02 6.86373E+02-2.50833E-07-3.08631E-09
 -1       647 2.24387E+03 3.62963E+00 1.15726E-01-1.56273E+02-3.30316E-05 6.02465E-08
 -1       648 2.26190E+03 3.90091E+01 1.80576E+02 6.85853E+02-6.56360E-05 1.25227E-07
 -1       649 2.21753E+03-4.11615E+01 4.09828E+02-1.56257E+02-3.30313E-05 6.40260E-08
 -1       650 2.41252E+03 3.17347E+02 9.90733E+02 6.86072E+02-2.31429E-07-3.40719E-10
 -1       651 2.09336E+03-2.74384E+02 1.72696E+03-1.56492E+02-1.08000E-08-1.49305E-09
 -1       652 3.26329E+03 2.04443E+03 4.26664E+03 6.86144E+02 3.27873E-09 2.74508E-09
 -1       653 1.36712E+03-1.76553E+03 6.80801E+03-1.56334E+02-4.50324E-10-2.29375E-09
 -1       654 8.39156E+03 1.31061E+04 1.85988E+04 6.81956E+02-2.11674E-09-1.80353E-09
 -1       655-3.03342E+03-1.13160E+04 2.63164E+04-1.52328E+02-7.00290E-10-3.96722E-09
 -1       656 9.36161E+03-3.57342E+05-4.21837E+04 1.01306E+04 1.08121E-08-4.32010E-10
 -1       657-1.38771E+04-3.72693E+05-3.07269E+04 3.85130E+04 9.96988E-09 5.15411E-09
 -1       658 1.79091E+03-3.62823E+05-1.95283E+04 1.00426E+04 9.54461E-09 2.26225E-09
 -1       659-1.26534E+04-3.72000E+05-2.85748E+04 3.85717E+04 7.21025E-09 1.28409E-09
 -1       660 8.40044E+03-3.58074E+05-3.81051E+04 1.00730E+04 7.33780E-09-5.86624E-11
 -1       661 3.50911E+05 4.49281E+04 2.87547E+04 1.37315E+05 3.77304E-09-8.54925E-11
 -1       662 3.57626E+05 6.71166E+04 1.81491E+04 1.41266E+05-2.20848E-09-1.25328E-09
 -1       663 3.55856E+05 5.14997E+04 6.79048E+03 1.36620E+05-3.75223E-10-1.33195E-09
 -1       664 3.51942E+05 5.85795E+04 3.74039E+03 1.42465E+05-1.60973E-08-2.98030E-09
 -1       665 3.56407E+05 5.22221E+04 1.59262E+03 1.36579E+05-1.55212E-08-4.38001E-09
 -1       666 3.51309E+05 5.76646E+04 8.65741E+02 1.42535E+05-1.38419E-08 2.00430E-09
 -1       667 3.56466E+05 5.23080E+04 4.83890E+02 1.36586E+05 1.39337E-09 4.57524E-09
 -1       668 3.51252E+05 5.75781E+04 4.55671E+02 1.42531E+05-4.27448E-09-4.43322E-10
 -1       669 3.56460E+05 5.23024E+04 6.39533E+02 1.36585E+05-1.15404E-09 8.12634E-10
 -1       670 3.51362E+05 5.77245E+04 1.29706E+03 1.42535E+05 1.73961E-08 6.39773E-10
 -1       671 3.56361E+05 5.21712E+04 2.46528E+03 1.36579E+05 5.37159E-09-6.02313E-09
 -1       672 3.52366E+05 5.91464E+04 5.83953E+03 1.42410E+05 2.79448E-09-8.20251E-10
 -1       673 3.55488E+05 5.10493E+04 1.06186E+04 1.36650E+05 4.52943E-10-5.59294E-09
 -1       674 3.61269E+05 7.24925E+04 2.83939E+04 1.40517E+05-4.89428E-09-3.62479E-09
 -1       675 3.47745E+05 4.07747E+04 4.49918E+04 1.37743E+05-6.01995E-09-3.98722E-09
 -1       676 9.42083E+02-3.36993E+05-4.90542E+03 3.65709E+02 1.23672E-08-1.30570E-09
 -1       677-1.85748E+03-3.38867E+05-5.31227E+03 1.45885E+02 1.03699E-09 1.50835E-09
 -1       678 5.83262E+02-3.37217E+05-6.29841E+03 3.64982E+02 9.14633E-09-2.11863E-10
 -1       679-6.65114E+03-3.41716E+05-1.38149E+04 1.45329E+02 6.49811E-09 6.69196E-10
 -1       680 4.80434E+03-3.34146E+05-2.09876E+04 3.65067E+02 1.10849E-08 9.58217E-10
 -1       681 5.44511E+05-1.45204E+04 3.36258E+04 1.81760E+03-1.59673E-10 2.41926E-10
 -1       682 5.59761E+05 1.68115E+04 2.38975E+04-7.57730E+03-3.22188E-10 1.39244E-09
 -1       683 5.50396E+05-2.25852E+03 8.72665E+03 3.28386E+02 7.32996E-11 1.00317E-09
 -1       684 5.52880E+05 2.62592E+03 5.51552E+03-5.48946E+03-2.28098E-10 1.15733E-09
 -1       685 5.51381E+05-3.49818E+02 2.29395E+03-2.70239E+02-1.66040E-10 1.11754E-09
 -1       686 5.51750E+05 4.31641E+02 1.44112E+03-4.92489E+03 1.41029E-09 1.77806E-09
 -1       687 5.51524E+05-6.57637E+01 8.50658E+02-2.36189E+02 4.78977E-10 7.16639E-10
 -1       688 5.51708E+05 1.85022E+02 9.56990E+02-5.63972E+03-1.78375E-10-7.86429E-11
 -1       689 5.51428E+05-1.06509E+02 1.28640E+03 4.44591E+02-2.18709E-09 3.33387E-10
 -1       690 5.52408E+05 7.96692E+02 2.80516E+03-7.92831E+03 1.51010E-09 1.65670E-09
 -1       691 5.50842E+05-6.89830E+02 4.56563E+03 2.05242E+03 4.83453E-10-5.70253E-10
 -1       692 5.55980E+05 5.27456E+03 1.16302E+04-1.27386E+04 2.46931E-09 9.58380E-10
 -1       693 5.47925E+05-4.62439E+03 1.77832E+04 5.25513E+03-8.33779E-10-1.75442E-09
 -1       694 5.74592E+05 3.48665E+04 5.05846E+04-2.22121E+04-5.93872E-09-1.10595E-09
 -1       695 5.32476E+05-3.03934E+04 6.85898E+04 1.15278E+04-4.84101E-09-5.97356E-09
 -1       696-1.11099E+04 4.60306E+05 2.52783E+04 1.57209E+03 5.63887E-11-2.53493E-10
 -1       697 1.18627E+04 4.71331E+05 1.60939E+04-8.08682E+03 6.91216E-11 1.39728E-10
 -1       698-7.21459E+02 4.65295E+05 2.75525E+03 6.90466E+02-2.44654E-10 1.12062E-09
 -1       699-5.60271E+03 4.63053E+05-6.75899E+03-7.23480E+03-2.83762E-10 3.16660E-09
 -1       700 6.33026E+03 4.68580E+05-1.39774E+04 7.20047E+02-1.67347E-10 7.85505E-10
 -1       701-4.93926E+05-4.63979E+04-6.31556E+04-1.97929E+05-7.57609E-10-2.13913E-09
 -1       702-5.31165E+05-9.83313E+04-4.35274E+04-1.80385E+05-9.10632E-10-1.23691E-10
 -1       703-5.04704E+05-7.04408E+04-1.48072E+04-1.95328E+05-1.18234E-11 1.36242E-09
 -1       704-5.18780E+05-7.04117E+04-9.19905E+03-1.83340E+05-1.80131E-09-1.80808E-09
 -1       705-5.06326E+05-7.42593E+04-3.46087E+03-1.95007E+05 1.55285E-09 1.28716E-09
 -1       706-5.15344E+05-6.70473E+04-1.98079E+03-1.84825E+05-4.04121E-12-3.53711E-09
 -1       707-5.08125E+05-7.38081E+04-1.06038E+03-1.93834E+05 1.31260E-09-3.77668E-10
 -1       708-5.11193E+05-6.94514E+04-6.03742E+02-1.88141E+05-2.11912E-10 6.92808E-10
 -1       709-5.10443E+05-7.18786E+04-1.13928E+03-1.91666E+05-2.23508E-10-4.21423E-10
 -1       710-5.07402E+05-7.40286E+04-1.80455E+03-1.92657E+05 1.79614E-09 2.17426E-10
 -1       711-5.11914E+05-6.92339E+04-3.58868E+03-1.89316E+05-9.02901E-10 3.09012E-09
 -1       712-5.07254E+05-8.15267E+04-9.15909E+03-1.95964E+05 3.46802E-10 4.05987E-09
 -1       713-5.10625E+05-6.43633E+04-1.48576E+04-1.88383E+05-2.55341E-10-3.50701E-09
 -1       714-5.21525E+05-1.08990E+05-4.38963E+04-1.92487E+05-8.16271E-10-4.24188E-09
 -1       715-4.97673E+05-4.17967E+04-6.33485E+04-1.92794E+05 1.83263E-09 5.38421E-10
 -1       716 1.92476E+05-1.72341E+04 3.80199E+04 6.28293E+03 8.34234E-09-2.55022E-09
 -1       717 2.21202E+05 1.96829E+04 2.90018E+04-1.64334E+04 3.46898E-09-4.93083E-09
 -1       718 2.01856E+05-2.63524E+03 9.74728E+03 3.82191E+03 1.49078E-09 1.36470E-09
 -1       719 2.09293E+05 2.96549E+03 6.90644E+03-1.24674E+04-1.20889E-09 7.80346E-10
 -1       720 2.04162E+05-3.92959E+02 2.57047E+03 2.31476E+03-5.21254E-11 2.72451E-09
 -1       721 2.06194E+05 4.78520E+02 1.93258E+03-1.01061E+04 4.66876E-09-6.15273E-10
 -1       722 2.04853E+05-8.20281E+01 1.15421E+03 1.46029E+03 2.85047E-09 6.63412E-10
 -1       723 2.05363E+05 3.22055E+02 1.55825E+03-8.92124E+03-2.18954E-10 2.84591E-09
 -1       724 2.04953E+05-2.08186E+02 2.30492E+03 1.13003E+03 3.86557E-09 2.02670E-09
 -1       725 2.05920E+05 1.58135E+03 5.00743E+03-8.73576E+03 3.93077E-09 3.51326E-09
 -1       726 2.04289E+05-1.33538E+03 8.51059E+03 1.27485E+03 3.74199E-09 2.98269E-09
 -1       727 2.10515E+05 1.00085E+04 2.09937E+04-9.52724E+03 5.09908E-09 3.00111E-09
 -1       728 2.00382E+05-8.63876E+03 3.32312E+04 1.92147E+03 1.97375E-09 1.09685E-09
 -1       729 2.36942E+05 6.41982E+04 9.13303E+04-1.15361E+04 1.23077E-09 1.02773E-10
 -1       730 1.77951E+05-5.54701E+04 1.28452E+05 3.28344E+03 2.91413E-09-8.14907E-10
 -1       731-1.75574E+04 1.86572E+05 3.71261E+04-9.50347E+03-3.64889E-09-2.51657E-09
 -1       732 2.00121E+04 2.22623E+05 2.99207E+04 3.07373E+04 1.77533E-09 9.36780E-11
 -1       733-2.73335E+03 1.99192E+05 1.01122E+04-6.57451E+03-7.46695E-10-8.93465E-10
 -1       734 4.10579E+03 2.06825E+05 8.10265E+03 2.66226E+04 1.53477E-10-3.96005E-09
 -1       735-1.36579E+03 2.01917E+05 4.41799E+03-5.38592E+03 6.00124E-10-2.78710E-09
 -1       736-9.65271E+05-1.29452E+05-7.61624E+04-4.06182E+05 7.16864E-09-2.20825E-09
 -1       737-1.05451E+06-1.39100E+05-5.06885E+04-3.23700E+05 9.28662E-09-3.97267E-09
 -1       738-9.99339E+05-1.50749E+05-2.02380E+04-3.95560E+05 5.67593E-09 5.40331E-09
 -1       739-9.91671E+05-1.31949E+05-5.06994E+03-3.54352E+05-3.76048E-10 1.76215E-10
 -1       740-1.02725E+06-1.37251E+05-8.02912E+03-3.74870E+05 1.99771E-09 7.59292E-09
 -1       741-9.63126E+05-1.62556E+05 1.68307E+03-3.97491E+05 9.64292E-09 1.79954E-08
 -1       742-1.02826E+06-1.19817E+05-1.60870E+03-3.52737E+05 2.80113E-09-9.42657E-09
 -1       743-9.62259E+05-1.78082E+05 1.50942E+02-4.18408E+05 1.90835E-09 1.03034E-08
 -1       744-1.02874E+06-1.21200E+05-1.89677E+03-3.54440E+05-3.65748E-08-1.24410E-08
 -1       745-9.64202E+05-1.58736E+05 2.40381E+03-3.92840E+05-2.44186E-08-3.47063E-09
 -1       746-1.02558E+06-1.39779E+05-7.77956E+03-3.77731E+05-5.79143E-09 1.26829E-09
 -1       747-9.96827E+05-1.27598E+05-4.33057E+03-3.50319E+05 6.33244E-09-4.40195E-10
 -1       748-9.95911E+05-1.52519E+05-1.80495E+04-3.96780E+05 5.91626E-09 1.15961E-08
 -1       749-1.05557E+06-1.34271E+05-4.59710E+04-3.23298E+05 2.08183E-09 1.56110E-08
 -1       750-9.67712E+05-1.32443E+05-6.89339E+04-4.05426E+05 1.02591E-09 1.37043E-08
 -1       751 2.69890E+06-1.52571E+05 3.55694E+05 9.34985E+03-2.00130E-08 5.67525E-10
 -1       752 2.85337E+06 1.76721E+05 2.51246E+05-1.14469E+04-2.16986E-09-1.01500E-09
 -1       753 2.75868E+06-2.37884E+04 9.21765E+04 1.96152E+03-2.63867E-10 6.47560E-10
 -1       754 2.78396E+06 2.75395E+04 5.78591E+04-2.48862E+03 2.38313E-09 1.09503E-09
 -1       755 2.76849E+06-3.70316E+03 2.37497E+04 3.93110E+02 1.12125E-10-1.22782E-10
 -1       756 2.77263E+06 4.34098E+03 1.41763E+04-5.81658E+02-2.83056E-09 7.94898E-10
 -1       757 2.77010E+06-6.31765E+02 6.99470E+03 5.45770E+01 2.29082E-09 2.63071E-10
 -1       758 2.77095E+06 1.12745E+03 5.60335E+03-1.82072E+02-1.72610E-10-2.56190E-09
 -1       759 2.77018E+06-4.94611E+02 5.73012E+03-6.48181E+00 1.53469E-09-1.47554E-09
 -1       760 2.77199E+06 3.15620E+03 1.05283E+04-1.66642E+02-1.09706E-09 5.66160E-10
 -1       761 2.76905E+06-2.65725E+03 1.71692E+04 3.91468E+01-3.00239E-09-2.09366E-09
 -1       762 2.78005E+06 1.97180E+04 4.14811E+04-4.92928E+02 2.90572E-09 4.55657E-10
 -1       763 2.76205E+06-1.70266E+04 6.59724E+04 3.19804E+02 5.37324E-09 1.26602E-09
 -1       764 2.82937E+06 1.26406E+05 1.79667E+05-2.10043E+03 2.50670E-09 1.37152E-09
 -1       765 2.71956E+06-1.09124E+05 2.54389E+05 1.64645E+03-1.95492E-09 2.91038E-11
 -1       766-6.35706E+04 3.69185E+05 1.48604E+05-1.33929E+04 1.34605E-09 1.05865E-09
 -1       767 7.74576E+04 4.40632E+05 1.13263E+05 5.50191E+04 2.87400E-10 3.39500E-10
 -1       768-1.36947E+04 3.93986E+05 5.35193E+04-1.20957E+04 2.10912E-09-3.16891E-09
 -1       769 4.35457E+04 4.33996E+05 7.00233E+04 5.92464E+04 2.46655E-09 1.14687E-09
 -1       770-3.00523E+04 3.76289E+05 6.87994E+04-1.76224E+04-1.53450E-08 3.48427E-09
 -1       771-1.51001E+06-3.05811E+05-5.39867E+04-6.52833E+05-6.67569E-10-1.17871E-09
 -1       772-1.50651E+06-3.03940E+05-2.64273E+04-6.74456E+05-1.85719E-09-1.05501E-10
 -1       773-1.51220E+06-2.85288E+05-1.12498E+04-6.61768E+05-3.49610E-09-6.57747E-09
 -1       774-1.50069E+06-2.96974E+05-5.48357E+03-6.76225E+05 1.08412E-09-1.18871E-09
 -1       775-1.51280E+06-2.84311E+05-2.54598E+03-6.62291E+05 2.20825E-09 7.14772E-09
 -1       776-1.50046E+06-2.96649E+05-1.27995E+03-6.76504E+05 3.65617E-10-2.55523E-09
 -1       777-1.51311E+06-2.84195E+05-7.05562E+02-6.62411E+05 2.52476E-09 5.52416E-09
 -1       778-1.50059E+06-2.96596E+05-5.46385E+02-6.76691E+05-9.45874E-11-2.20783E-09
 -1       779-1.51329E+06-2.84090E+05-6.94046E+02-6.62494E+05-2.52840E-10-6.28006E-10
 -1       780-1.50076E+06-2.96559E+05-1.26782E+03-6.76836E+05-1.95723E-09 1.25578E-09
 -1       781-1.51333E+06-2.83993E+05-2.50766E+03-6.62536E+05-3.05590E-09-4.39923E-09
 -1       782-1.50124E+06-2.96834E+05-5.45319E+03-6.76925E+05-5.92081E-10 2.68301E-10
 -1       783-1.51309E+06-2.84727E+05-1.11587E+04-6.62138E+05-8.80505E-10-1.23691E-09
 -1       784-1.50698E+06-3.04100E+05-2.63239E+04-6.75908E+05 2.90356E-10-1.21872E-10
 -1       785-1.51149E+06-3.04738E+05-5.37152E+04-6.53018E+05 2.55795E-10-4.18368E-11
 -1       786 2.86392E+05-8.42719E+03 3.65814E+04-2.03485E+03 4.12228E-10-1.29876E-09
 -1       787 2.99570E+05 1.14700E+04 2.34228E+04-8.16929E+03-6.85645E-10 1.74441E-09
 -1       788 2.91906E+05-8.67551E+02 9.47967E+03-2.03312E+03-1.34833E-10-1.99816E-09
 -1       789 2.93425E+05 1.12719E+03 5.29122E+03-8.15881E+03 3.92504E-10-2.49304E-09
 -1       790 2.92529E+05-9.40888E+01 2.40904E+03-2.04445E+03-8.70841E-11-3.55385E-10
 -1       791 2.92717E+05 1.08972E+02 1.29362E+03-8.14226E+03 1.26192E-09 2.22784E-09
 -1       792 2.92609E+05-1.19611E+01 6.66009E+02-2.04967E+03-1.48745E-10 4.33829E-10
 -1       793 2.92629E+05 1.40555E+01 4.47721E+02-8.13860E+03 2.09184E-11-6.69132E-10
 -1       794 2.92616E+05-6.99113E+00 4.21692E+02-2.04811E+03-2.28852E-10-3.76787E-10
 -1       795 2.92659E+05 4.91002E+01 6.50238E+02-8.14892E+03 4.60773E-10 3.06986E-10
 -1       796 2.92582E+05-4.41903E+01 1.12788E+03-2.03936E+03-2.38060E-10-1.36214E-09
 -1       797 2.92983E+05 5.11478E+02 2.42866E+03-8.17131E+03 1.09139E-11 1.24589E-09
 -1       798 2.92299E+05-3.98091E+02 4.33053E+03-2.02572E+03-4.10864E-10-6.34827E-10
 -1       799 2.95791E+05 5.22760E+03 1.06883E+04-8.18422E+03-1.83979E-09-2.11321E-09
 -1       800 2.89784E+05-3.84862E+03 1.66853E+04-2.02693E+03 6.63476E-10-7.99446E-10
 -1       801-1.13339E+04 3.01746E+05 4.22832E+04-2.27822E+05 1.03864E-09 2.69938E-09
 -1       802 2.62338E+04 3.13846E+05 4.43737E+04-8.89637E+05-5.78439E-09 2.70666E-09
 -1       803-1.08186E+03 3.01950E+05 4.64048E+04-2.27304E+05 2.61934E-09 8.29141E-09
 -1       804 5.57456E+04 3.32031E+05 9.70837E+04-8.89575E+05-8.26549E-09-4.64206E-09
 -1       805-3.55527E+04 2.84297E+05 1.41895E+05-2.27897E+05 2.55386E-09 2.19734E-09
 -1       806-2.82873E+05-7.54801E+04-2.41199E+04-1.30500E+05 1.20497E-09-1.20053E-10
 -1       807-2.82987E+05-6.93880E+04-1.14433E+04-1.37875E+05 3.59046E-09 6.71139E-09
 -1       808-2.82746E+05-6.31624E+04-4.81144E+03-1.35697E+05 5.34419E-09 1.24546E-08
 -1       809-2.80607E+05-6.50589E+04-2.32515E+03-1.38875E+05 7.23048E-10-1.09992E-10
 -1       810-2.82808E+05-6.23185E+04-1.05149E+03-1.36077E+05 5.98220E-10 2.97632E-10
 -1       811-2.80375E+05-6.47714E+04-5.27414E+02-1.38917E+05 1.12823E-09 9.39281E-10
 -1       812-2.82828E+05-6.22931E+04-2.76856E+02-1.36095E+05 4.50154E-09 5.96765E-09
 -1       813-2.80350E+05-6.47636E+04-2.06352E+02-1.38911E+05-7.67017E-10 2.82353E-09
 -1       814-2.82825E+05-6.22968E+04-2.42849E+02-1.36093E+05 3.49928E-09-8.16181E-09
 -1       815-2.80364E+05-6.47738E+04-4.37095E+02-1.38909E+05 1.55514E-08-1.17666E-08
 -1       816-2.82801E+05-6.23223E+04-8.57196E+02-1.36074E+05 6.40466E-09-6.61566E-09
 -1       817-2.80550E+05-6.50049E+04-1.88891E+03-1.38863E+05 6.70525E-10-8.13088E-09
 -1       818-2.82740E+05-6.30171E+04-3.90554E+03-1.35767E+05 4.35102E-09-3.61570E-09
 -1       819-2.82518E+05-6.84742E+04-9.28576E+03-1.37993E+05 2.87400E-10-4.66252E-09
 -1       820-2.82792E+05-7.30504E+04-1.95711E+04-1.31589E+05-4.47471E-10-4.27463E-10
 -1       821-2.86452E+05 8.51242E+03-3.69754E+04 2.07602E+03-3.91287E-09 7.02130E-10
 -1       822-2.99754E+05-1.15950E+04-2.36752E+04 8.59985E+03-1.60492E-09-3.92902E-10
 -1       823-2.92029E+05 8.73180E+02-9.58559E+03 2.01041E+03 4.55498E-09-1.03910E-09
 -1       824-2.93562E+05-1.12918E+03-5.35224E+03 8.69175E+03-7.98195E-10 9.76911E-10
 -1       825-2.92662E+05 9.57928E+01-2.44803E+03 1.98320E+03-6.24846E-09-2.04682E-09
 -1       826-2.92861E+05-9.37781E+01-1.33251E+03 8.73641E+03-9.91014E-09-1.47398E-09
 -1       827-2.92743E+05 1.61644E+01-7.24718E+02 1.96553E+03-5.72538E-09-8.70841E-11
 -1       828-2.92785E+05 2.09815E+00-5.58587E+02 8.76421E+03-6.88686E-09-1.69294E-09
 -1       829-2.92747E+05 1.55464E+01-6.33618E+02 1.95536E+03 4.66116E-11-1.16668E-09
 -1       830-2.92849E+05-6.77331E+01-1.09404E+03 8.77613E+03 5.13245E-09 1.04278E-09
 -1       831-2.92684E+05 8.09273E+01-1.97127E+03 1.95361E+03-4.14209E-09-8.20819E-10
 -1       832-2.93416E+05-8.92990E+02-4.29033E+03 8.77112E+03-2.34604E-09-2.99110E-09
 -1       833-2.92179E+05 7.04864E+02-7.67231E+03 1.96055E+03-1.70837E-09 1.96860E-09
 -1       834-2.98377E+05-9.26626E+03-1.89485E+04 8.73579E+03-1.78744E-09-5.26143E-09
 -1       835-2.87717E+05 6.82006E+03-2.95885E+04 1.99059E+03 8.69818E-10-2.40470E-09
 -1       836-1.36284E+04 7.37870E+05 6.24024E+04-2.01499E+04-1.21872E-09 6.52108E-10
 -1       837 2.09882E+04 7.60762E+05 4.85094E+04-7.71512E+04 3.50542E-09 3.58625E-09
 -1       838-3.27993E+03 7.45222E+05 3.59347E+04-2.01587E+04-1.94314E-09 1.94976E-09
 -1       839 2.77904E+04 7.64792E+05 6.05757E+04-7.71401E+04 3.20688E-09-3.72006E-09
 -1       840-1.90957E+04 7.33825E+05 8.52432E+04-2.01603E+04-1.45883E-09 1.77670E-09
 -1       841-3.21445E+04 3.30766E+02-1.26343E+04-1.43187E+04-3.15390E-09 8.83574E-10
 -1       842-3.90690E+04-1.09397E+04-8.75726E+03-1.18018E+04-1.62186E-09-2.39618E-09
 -1       843-3.47014E+04-4.21116E+03-2.96077E+03-1.34828E+04 2.57648E-09 1.05854E-09
 -1       844-3.61100E+04-5.66994E+03-1.84087E+03-1.27565E+04 2.92692E-09-3.71060E-09
 -1       845-3.51027E+04-4.93111E+03-6.79627E+02-1.33671E+04 7.64473E-10-1.98148E-09
 -1       846-3.56491E+04-4.82818E+03-3.79802E+02-1.28833E+04-4.43939E-09-1.07985E-09
 -1       847-3.51623E+04-5.05166E+03-1.27812E+02-1.33566E+04-5.78802E-09-1.46779E-09
 -1       848-3.55732E+04-4.67225E+03-1.45095E+01-1.28948E+04-1.71448E-09 5.50550E-10
 -1       849-3.51787E+04-5.08678E+03 9.49688E+01-1.33558E+04 4.03077E-09 1.53021E-09
 -1       850-3.54975E+04-4.54311E+03 3.10229E+02-1.29123E+04 9.20739E-09 3.53891E-09
 -1       851-3.52380E+04-5.18062E+03 5.61682E+02-1.33391E+04-3.92848E-09-1.83172E-09
 -1       852-3.50856E+04-3.86395E+03 1.53017E+03-1.30408E+04-2.60709E-09-1.98884E-09
 -1       853-3.55904E+04-5.76503E+03 2.45822E+03-1.32276E+04-1.84298E-09 2.99792E-10
 -1       854-3.25809E+04 4.79364E+02 7.28017E+03-1.38740E+04 2.24063E-09 4.07681E-09
 -1       855-3.77414E+04-9.51746E+03 1.04966E+04-1.25082E+04-5.87079E-10 4.84897E-09
 -1       856-3.36993E+05 7.86170E+03-3.41912E+04 4.17184E+03-4.97903E-09 1.12232E-09
 -1       857-3.49281E+05-1.06864E+04-2.18841E+04 1.75142E+04-4.08181E-09-2.62253E-09
 -1       858-3.42154E+05 8.10166E+02-8.86358E+03 4.05932E+03-7.13908E-09-7.03494E-10
 -1       859-3.43588E+05-9.99758E+02-4.94370E+03 1.76726E+04-7.13953E-10-2.37651E-09
 -1       860-3.42743E+05 9.82344E+01-2.25779E+03 4.01159E+03 8.00355E-10-1.45451E-09
 -1       861-3.42958E+05-3.47858E+01-1.21870E+03 1.77440E+04-7.62248E-09-2.45947E-09
 -1       862-3.42821E+05 2.78087E+01-6.44846E+02 3.98742E+03 7.15659E-09-8.51742E-10
 -1       863-3.42892E+05 5.80862E+01-4.65045E+02 1.77737E+04 1.86788E-08-3.51957E-09
 -1       864-3.42827E+05 2.57284E+01-4.86167E+02 3.98185E+03 5.22419E-09-5.01643E-11
 -1       865-3.42929E+05 7.59293E+00-8.02137E+02 1.77654E+04 9.62018E-09-2.06484E-09
 -1       866-3.42780E+05 6.92757E+01-1.42652E+03 3.99573E+03-2.01771E-09-1.26778E-09
 -1       867-3.43318E+05-5.93437E+02-3.08916E+03 1.77171E+04-2.41528E-09-8.00128E-10
 -1       868-3.42412E+05 5.11254E+02-5.52475E+03 4.03047E+03 7.15181E-09-5.03860E-10
 -1       869-3.46855E+05-6.62837E+03-1.36302E+04 1.75885E+04 1.00067E-09-1.84446E-09
 -1       870-3.39197E+05 4.89921E+03-2.12952E+04 4.12588E+03 7.95399E-09-1.73259E-09
 -1       871-3.22002E+03-3.01208E+04-5.75042E+03 8.63132E+04 2.52930E-09-2.12458E-09
 -1       872-1.06722E+03-3.11430E+04-1.66896E+03 1.00918E+05 2.58933E-09-4.28099E-09
 -1       873 9.97510E+00-3.07790E+04 1.71276E+03 8.61498E+04 4.79122E-09-9.30640E-10
 -1       874 1.96074E+03-2.94034E+04 6.35827E+03 1.00993E+05 4.02451E-09 7.20320E-10
 -1       875 6.57908E+03-3.19303E+04 1.37237E+04 8.62503E+04 2.15550E-09 1.91244E-09
 -1       876 4.01958E+05 5.06311E+04 3.80778E+04 1.58270E+05 4.30646E-09-3.95084E-09
 -1       877 4.10531E+05 8.03625E+04 2.40358E+04 1.63901E+05 3.28862E-09 1.15324E-09
 -1       878 4.08495E+05 5.93476E+04 8.98915E+03 1.57360E+05 2.68403E-09 5.10681E-10
 -1       879 4.03017E+05 6.90361E+04 4.95002E+03 1.65458E+05-1.47812E-08-2.40834E-09
 -1       880 4.09212E+05 6.03182E+04 2.09952E+03 1.57318E+05-7.95228E-09 1.08844E-09
 -1       881 4.02192E+05 6.78046E+04 1.12790E+03 1.65523E+05-8.95511E-09-6.40375E-09
 -1       882 4.09281E+05 6.04437E+04 6.01922E+02 1.57337E+05 8.22638E-09 3.86160E-09
 -1       883 4.02122E+05 6.76698E+04 5.18635E+02 1.65494E+05-4.62683E-09 1.39036E-09
 -1       884 4.09271E+05 6.04488E+04 6.76668E+02 1.57344E+05-1.48346E-09-1.01579E-09
 -1       885 4.02238E+05 6.78078E+04 1.33380E+03 1.65488E+05 2.19872E-08 5.20117E-09
 -1       886 4.09168E+05 6.03169E+04 2.51773E+03 1.57339E+05 3.26776E-09-7.48105E-09
 -1       887 4.03260E+05 6.92576E+04 5.95276E+03 1.65363E+05 5.27555E-09-5.00347E-09
 -1       888 4.08283E+05 5.91695E+04 1.08201E+04 1.57409E+05 3.41336E-09-4.94083E-09
 -1       889 4.12328E+05 8.28624E+04 2.89305E+04 1.63448E+05-9.37757E-09-1.31695E-09
 -1       890 4.00399E+05 4.86942E+04 4.58389E+04 1.58517E+05-8.55380E-09-1.76442E-09
 -1       891 1.43141E+03-1.79266E+05-6.95259E+03 1.94640E+04 8.71842E-09-8.87667E-10
 -1       892-2.47637E+03-1.81710E+05-5.58471E+03 7.58487E+04 1.27125E-09-2.65970E-09
 -1       893 3.84212E+02-1.80058E+05-4.45499E+03 1.93732E+04 5.38353E-09-1.05683E-09
 -1       894-3.80733E+03-1.82488E+05-7.93923E+03 7.58411E+04 2.86764E-09 3.53702E-09
 -1       895 2.49501E+03-1.78474E+05-1.14093E+04 1.94711E+04 8.92442E-09 6.23322E-09
 -1       896 8.15698E+05-6.85722E+03 1.59439E+04 1.83945E+03-2.46175E-10-4.03998E-09
 -1       897 8.22640E+05 7.93854E+03 1.12897E+04-1.68833E+03-1.19357E-10-2.59263E-09
 -1       898 8.18400E+05-1.06810E+03 4.14249E+03 1.02094E+03 4.75090E-10-2.65641E-09
 -1       899 8.19497E+05 1.23765E+03 2.62153E+03-4.53534E+02 1.29567E-09-1.80049E-09
 -1       900 8.18844E+05-1.67347E+02 1.11082E+03 6.04660E+02-2.96897E-10-1.93052E-09
 -1       901 8.18987E+05 2.07086E+02 7.37204E+02 2.43692E+02 7.56739E-10-1.41777E-09
 -1       902 8.18911E+05-3.90476E+01 5.02746E+02 3.23701E+02 3.74765E-10-1.15810E-09
 -1       903 8.18956E+05 1.33872E+02 6.69408E+02 8.47860E+02 3.24064E-10-1.05044E-09
 -1       904 8.18876E+05-9.43463E+01 1.01390E+03 4.80857E-01 4.84413E-10-7.97627E-10
 -1       905 8.19266E+05 6.85505E+02 2.21693E+03 1.74024E+03-9.37320E-10-6.28972E-10
 -1       906 8.18601E+05-5.90483E+02 3.77194E+03-5.68693E+02 2.38757E-10-3.68118E-10
 -1       907 8.21176E+05 4.40841E+03 9.27430E+03 3.48511E+03-5.94156E-10 1.23907E-09
 -1       908 8.16966E+05-3.81382E+03 1.47424E+04-1.74442E+03 6.24937E-10 1.96997E-09
 -1       909 8.32692E+05 2.83764E+04 4.03793E+04 7.22517E+03 1.67681E-09 2.31239E-09
 -1       910 8.07092E+05-2.45269E+04 5.69034E+04-4.30868E+03 2.85172E-09 5.96992E-09
 -1       911 2.77221E+05-3.98452E+03 9.26726E+03-2.83192E+02-3.22166E-09 9.31459E-09
 -1       912 2.81205E+05 4.62856E+03 6.55504E+03-3.10864E+03-1.46200E-09 8.85666E-09
 -1       913 2.78775E+05-6.20884E+02 2.41212E+03-3.25884E+02-1.14056E-09 1.00915E-08
 -1       914 2.79414E+05 7.33630E+02 1.53403E+03-3.20344E+03-1.34195E-09 9.04924E-09
 -1       915 2.79014E+05-9.71993E+01 6.63575E+02-1.88419E+02 1.74457E-09 9.18669E-09
 -1       916 2.79190E+05 1.34551E+02 4.85469E+02-3.68947E+03 3.00631E-09 7.31664E-09
 -1       917 2.79003E+05-2.53840E+01 3.64400E+02 1.60139E+02 1.80418E-09 7.06436E-09
 -1       918 2.79365E+05 1.11385E+02 6.16684E+02-4.66771E+03 2.33393E-09 5.91267E-09
 -1       919 2.78848E+05-8.09500E+01 8.89740E+02 7.89816E+02 9.15549E-10 5.03491E-09
 -1       920 2.80088E+05 6.09812E+02 2.17899E+03-6.33638E+03 2.10234E-09 1.65926E-09
 -1       921 2.78304E+05-5.40005E+02 3.43044E+03 1.82884E+03-1.87345E-09-6.03222E-10
 -1       922 2.82909E+05 4.06636E+03 8.98227E+03-9.03962E+03-3.06497E-09-4.35091E-09
 -1       923 2.76086E+05-3.57288E+03 1.35582E+04 3.49335E+03 1.24749E-09-8.68476E-09
 -1       924 2.96137E+05 2.66716E+04 3.85992E+04-1.34335E+04-5.31855E-09-1.26665E-08
 -1       925 2.65221E+05-2.32029E+04 5.26532E+04 6.22391E+03-2.59229E-09-2.05982E-08
 -1       926-7.88478E+05 1.55797E+04-4.34538E+04-2.54391E+04 2.32899E-09-4.39977E-08
 -1       927-7.84699E+05-1.77179E+04-2.64420E+04 5.85582E+04-3.31268E-08-5.66974E-08
 -1       928-7.82434E+05 2.57546E+03-1.03481E+04-3.44590E+04 4.68725E-09-6.05969E-08
 -1       929-7.78743E+05-1.79523E+03-4.85855E+03 5.97136E+04 3.77490E-08-5.55506E-08
 -1       930-7.94508E+05-2.47769E+02-4.71878E+03-2.65969E+04-4.87444E-09-4.83752E-08
 -1       931-7.49918E+05 1.01969E+03 5.57866E+03 3.07068E+04-9.00900E-09-2.65584E-08
 -1       932-8.09688E+05-1.48860E+03-5.71300E+03-5.42966E+03-9.19499E-10-1.29850E-08
 -1       933-7.41627E+05 1.52588E+03 8.59618E+03-1.42843E+04-1.14607E-08 1.40525E-08
 -1       934-8.02343E+05-1.11678E+03-3.13513E+03 1.83671E+04-6.70070E-10 2.94157E-08
 -1       935-7.66968E+05 1.66860E+03 5.08525E+03-5.21170E+04-6.81234E-09 4.66914E-08
 -1       936-7.85806E+05-4.63591E+02 2.52726E+03 3.24034E+04 1.59196E-09 5.42911E-08
 -1       937-7.79610E+05 4.40325E+03 7.58382E+03-6.37775E+04-2.52009E-08 5.43851E-08
 -1       938-7.90498E+05-3.20625E+03 9.72767E+03 3.00450E+04-2.62519E-08 5.09986E-08
 -1       939-7.48723E+05 2.34189E+04 3.47828E+04-4.38601E+04-1.83417E-08 3.45094E-08
 -1       940-8.15408E+05-2.04593E+04 3.63021E+04 1.24626E+04 5.39330E-10 2.41344E-08
 -1       941 4.34999E+06-2.16027E+05 5.04531E+05 7.64617E+02 2.10159E-08 3.98722E-09
 -1       942 4.56747E+06 2.50298E+05 3.56006E+05 1.28006E+03 2.95321E-08 3.67800E-09
 -1       943 4.43415E+06-3.37125E+04 1.30785E+05 9.78657E+02 1.59838E-06 7.96717E-09
 -1       944 4.46990E+06 3.90352E+04 8.21077E+04 1.04048E+03 3.16295E-06-2.98041E-09
 -1       945 4.44806E+06-5.25115E+03 3.37699E+04 1.00435E+03 2.27230E-06-6.91216E-10
 -1       946 4.45390E+06 6.16732E+03 2.02352E+04 1.01130E+03 1.37119E-06 5.42332E-09
 -1       947 4.45035E+06-9.06716E+02 1.01350E+04 1.00790E+03 1.84041E-06 4.05498E-09
 -1       948 4.45157E+06 1.68350E+03 8.38914E+03 1.00415E+03 2.31781E-06 3.42969E-09
 -1       949 4.45043E+06-7.74487E+02 8.91627E+03 1.01151E+03 1.16578E-06-6.57769E-09
 -1       950 4.45329E+06 5.02544E+03 1.67208E+04 9.74735E+02 9.25580E-09 4.88058E-09
 -1       951 4.44861E+06-4.24327E+03 2.74312E+04 1.03730E+03 7.60771E-10-7.66886E-09
 -1       952 4.46617E+06 3.15021E+04 6.63439E+04 7.43077E+02-3.65923E-09-2.36105E-09
 -1       953 4.43739E+06-2.72021E+04 1.05559E+05 1.24312E+03-7.08581E-09 4.58385E-10
 -1       954 4.54489E+06 2.01954E+05 2.87256E+05-1.13276E+03-5.31669E-09-4.65661E-09
 -1       955 4.36942E+06-1.74316E+05 4.06916E+05 2.91259E+03-2.08410E-08-2.32831E-09
 -1       956-2.30862E+05-3.99224E+03-8.34454E+03 3.22126E+04-4.10910E-09 4.99313E-10
 -1       957-2.32389E+05-1.25435E+03-4.20929E+03 3.73803E+04-1.62254E-09-5.20686E-10
 -1       958-2.31559E+05-1.34135E+02-1.89379E+03 3.20168E+04 2.78669E-09-6.66432E-10
 -1       959-2.31708E+05 4.65944E+00-9.62629E+02 3.75946E+04-1.24419E-09-7.11680E-10
 -1       960-2.31648E+05 5.90787E+01-4.67653E+02 3.19961E+04-5.22778E-09-1.69757E-09
 -1       961-2.31670E+05 7.30626E+01-2.46096E+02 3.76179E+04-9.66065E-09-8.69022E-10
 -1       962-2.31677E+05 6.80128E+01-1.38315E+02 3.19932E+04-3.29646E-09-1.66006E-09
 -1       963-2.31682E+05 8.20783E+01-1.05823E+02 3.76217E+04-6.00176E-09-7.43057E-10
 -1       964-2.31689E+05 7.48067E+01-1.22627E+02 3.19922E+04-2.05546E-10-6.96218E-10
 -1       965-2.31696E+05 8.77642E+01-2.06996E+02 3.76217E+04 5.96339E-09-1.91903E-09
 -1       966-2.31686E+05 7.98033E+01-3.86206E+02 3.19931E+04-3.14424E-09-5.81167E-10
 -1       967-2.31749E+05 4.37709E+01-7.93747E+02 3.76107E+04 1.11140E-09-2.88992E-10
 -1       968-2.31631E+05-6.80256E+01-1.55896E+03 3.20034E+04 1.70712E-09-1.93722E-09
 -1       969-2.32332E+05-9.83743E+02-3.46835E+03 3.75022E+04 1.18507E-09-3.11201E-09
 -1       970-2.31070E+05-3.24119E+03-6.87385E+03 3.21055E+04 1.47566E-09-4.63479E-09
 -1       971-4.70519E+05 6.52886E+03-2.84251E+04 4.05977E+03-4.67207E-09 2.02635E-09
 -1       972-4.80704E+05-8.88050E+03-1.81915E+04 1.74445E+04-4.50655E-09 2.04955E-09
 -1       973-4.74809E+05 6.70896E+02-7.37404E+03 3.91439E+03-5.26097E-09 2.07365E-09
 -1       974-4.75983E+05-8.24402E+02-4.11878E+03 1.76586E+04 4.37785E-09 2.82557E-09
 -1       975-4.75300E+05 8.18155E+01-1.89802E+03 3.84429E+03 2.49429E-09-8.93579E-11
 -1       976-4.75470E+05-1.91945E+01-1.05480E+03 1.77669E+04-5.66388E-09 5.74744E-10
 -1       977-4.75365E+05 2.58099E+01-6.19185E+02 3.80570E+03 7.20706E-09 1.84502E-09
 -1       978-4.75429E+05 5.49891E+01-5.57803E+02 1.78177E+04 2.15207E-08 2.73675E-09
 -1       979-4.75363E+05 3.03858E+01-7.37561E+02 3.79339E+03 1.07147E-08 1.90261E-09
 -1       980-4.75514E+05-4.17821E+01-1.36919E+03 1.78153E+04 1.46064E-08 2.59760E-09
 -1       981-4.75279E+05 1.12620E+02-2.52079E+03 3.80811E+03-8.52424E-10 1.95416E-09
 -1       982-4.76231E+05-1.11226E+03-5.51706E+03 1.77578E+04-7.46581E-10 2.56927E-09
 -1       983-4.74625E+05 9.11059E+02-9.88348E+03 3.85131E+03 6.02813E-09 1.49066E-09
 -1       984-4.82598E+05-1.19127E+04-2.44121E+04 1.76093E+04-2.62423E-09 4.53474E-09
 -1       985-4.68871E+05 8.78293E+03-3.81316E+04 3.95947E+03 4.77576E-09 1.34241E-09
 -3
    1PSTEP                        25          13           1          
  100CL  113 6.88141E-01         841                     0   13           1
 -4  DISP        4    1
 -5  D1          1    2    1    0
 -5  D2          1    2    2    0
 -5  D3          1    2    3    0
 -5  ALL         1    2    0    0    1ALL
 -1         1 8.52146E-05 0.00000E+00 0.00000E+00
 -1         2 6.52888E-05 0.00000E+00 0.00000E+00
 -1         3 5.45553E-05 0.00000E+00 0.00000E+00
 -1         4 4.73910E-05 0.00000E+00 0.00000E+00
 -1         5 4.40242E-05 0.00000E+00 0.00000E+00
 -1         8 6.71656E-05-8.54720E-07 0.00000E+00
 -1         9 5.24933E-05 6.67201E-07 0.00000E+00
 -1        10 4.91492E-05-2.19401E-06 0.00000E+00
 -1        11 4.58082E-05-4.28102E-07 0.00000E+00
 -1        12 4.22868E-05 1.10066E-06 0.00000E+00
 -1        15 3.12155E-05-1.52606E-06 0.00000E+00
 -1        16 3.90110E-05 6.40794E-07 0.00000E+00
 -1        17 3.55270E-05-4.38778E-06 0.00000E+00
 -1        18 3.59393E-05-8.49379E-07 0.00000E+00
 -1        19 3.77883E-05 2.17644E-06 0.00000E+00
 -1        20 3.83685E-05 2.32449E-05 0.00000E+00
 -1        21 3.83460E-05 5.55816E-05 0.00000E+00
 -1        22 1.01518E-05-1.03729E-06 0.00000E+00
 -1        23 1.33456E-05 1.19593E-06 0.00000E+00
 -1        24 1.46531E-05-5.18436E-06 0.00000E+00
 -1        25 3.15242E-05-5.72247E-07 0.00000E+00
 -1        26 3.32981E-05 2.89126E-06 0.00000E+00
 -1        27 3.14962E-05 2.24173E-05 0.00000E+00
 -1        28 2.93606E-05 5.47984E-05 0.00000E+00
 -1        29 0.00000E+00 0.00000E+00 0.00000E+00
 -1        30 4.97451E-06 1.56031E-06 0.00000E+00
 -1        31 6.56652E-06-4.43331E-06 0.00000E+00
 -1        32 0.00000E+00 0.00000E+00 0.00000E+00
 -1        33 2.71675E-05 4.58138E-06 0.00000E+00
 -1        34 2.57249E-05 2.23399E-05 0.00000E+00
 -1        35 2.27667E-05 5.43807E-05 0.00000E+00
 -1        36 8.40081E-05-1.57379E-20 0.00000E+00
 -1        37 8.27627E-05 2.17482E-19 0.00000E+00
 -1        38 8.15198E-05 5.39971E-19 0.00000E+00
 -1        39 8.02696E-05 6.66600E-19 0.00000E+00
 -1        40 7.90191E-05 6.37738E-19-2.64698E-23
 -1        41 7.77672E-05 5.58574E-19 0.00000E+00
 -1        42 7.65151E-05 3.00622E-19 5.29396E-23
 -1        43 7.52628E-05 9.58198E-20 2.64698E-23
 -1        44 7.40104E-05 7.82347E-21 0.00000E+00
 -1        45 7.27581E-05 9.05432E-21-1.32349E-23
 -1        46 7.15060E-05 1.52899E-19 0.00000E+00
 -1        47 7.02549E-05 2.71740E-19 1.32349E-23
 -1        48 6.90039E-05 3.73880E-19-2.64698E-23
 -1        49 6.77579E-05 3.30568E-19 0.00000E+00
 -1        50 6.65102E-05 1.91081E-19-2.64698E-23
 -1        51 8.38539E-05-1.44911E-07 0.00000E+00
 -1        52 8.15971E-05-2.83525E-07 0.00000E+00
 -1        53 7.86176E-05-4.21501E-07 0.00000E+00
 -1        54 7.50974E-05-5.60794E-07 0.00000E+00
 -1        55 7.12189E-05-7.03122E-07 8.27181E-25
 -1        56 8.35258E-05-7.24895E-07 2.64698E-23
 -1        57 8.18239E-05-1.60423E-06 2.64698E-23
 -1        58 8.01505E-05-2.54929E-06-5.29396E-23
 -1        59 7.84667E-05-3.49845E-06 2.64698E-23
 -1        60 7.67574E-05-4.38095E-06-5.29396E-23
 -1        61 7.49971E-05-5.13297E-06 0.00000E+00
 -1        62 7.31667E-05-5.69890E-06 0.00000E+00
 -1        63 7.12482E-05-6.03090E-06-2.64698E-23
 -1        64 6.92299E-05-6.09720E-06 5.29396E-23
 -1        65 6.71040E-05-5.87621E-06 0.00000E+00
 -1        66 6.48697E-05-5.36638E-06 0.00000E+00
 -1        67 6.25320E-05-4.57669E-06 0.00000E+00
 -1        68 6.01005E-05-3.53656E-06 0.00000E+00
 -1        69 5.75994E-05-2.28083E-06-2.64698E-23
 -1        70 5.50351E-05-8.67754E-07 2.64698E-23
 -1        71 6.46198E-05 2.05415E-19 0.00000E+00
 -1        72 6.39479E-05 5.81804E-19 1.32349E-23
 -1        73 6.32761E-05 1.10624E-18 0.00000E+00
 -1        74 6.26039E-05 1.58386E-18 0.00000E+00
 -1        75 6.19316E-05 1.75333E-18-2.64698E-23
 -1        76 6.12592E-05 1.56478E-18-1.32349E-23
 -1        77 6.05868E-05 1.02545E-18 0.00000E+00
 -1        78 5.99144E-05 2.28000E-19 1.32349E-23
 -1        79 5.92421E-05-4.96377E-19 2.64698E-23
 -1        80 5.85698E-05-1.08248E-18 1.32349E-23
 -1        81 5.78975E-05-1.35070E-18 0.00000E+00
 -1        82 5.72257E-05-1.24145E-18-1.32349E-23
 -1        83 5.65540E-05-8.89735E-19 0.00000E+00
 -1        84 5.58844E-05-4.33831E-19 0.00000E+00
 -1        85 5.52142E-05-5.75846E-20 0.00000E+00
 -1        86 6.47043E-05 9.24681E-08 6.61744E-24
 -1        87 6.29758E-05 2.12257E-07 0.00000E+00
 -1        88 6.05076E-05 3.28618E-07 0.00000E+00
 -1        89 5.76996E-05 4.46102E-07 0.00000E+00
 -1        90 5.49090E-05 5.65054E-07 3.30872E-24
 -1        91 6.15742E-05 7.90097E-06 0.00000E+00
 -1        92 5.16329E-05 3.16595E-05 0.00000E+00
 -1        93 3.98190E-05 6.00752E-05-1.32349E-23
 -1        94 3.06729E-05 8.18755E-05 0.00000E+00
 -1        95 2.70770E-05 8.94411E-05 2.64698E-23
 -1        96 3.14998E-05 7.54377E-05 0.00000E+00
 -1        97 4.19722E-05 4.42369E-05-1.32349E-23
 -1        98 5.65613E-05 7.49087E-07 0.00000E+00
 -1        99 7.12952E-05-4.31752E-05 0.00000E+00
 -1       100 8.22093E-05-7.56692E-05 6.61744E-24
 -1       101 8.72283E-05-9.13332E-05 0.00000E+00
 -1       102 8.42198E-05-8.53018E-05 6.61744E-24
 -1       103 7.54677E-05-6.44902E-05-1.32349E-23
 -1       104 6.36724E-05-3.61152E-05 0.00000E+00
 -1       105 5.34187E-05-1.15729E-05 0.00000E+00
 -1       106 5.41093E-05-7.79272E-20 1.32349E-23
 -1       107 5.36608E-05-2.00851E-19 0.00000E+00
 -1       108 5.32124E-05-3.38086E-19 0.00000E+00
 -1       109 5.27636E-05-5.11626E-19-6.61744E-24
 -1       110 5.23148E-05-6.50541E-19 1.32349E-23
 -1       111 5.18659E-05-6.70508E-19 0.00000E+00
 -1       112 5.14169E-05-7.73197E-19 0.00000E+00
 -1       113 5.09680E-05-7.65280E-19-6.61744E-24
 -1       114 5.05191E-05-6.48345E-19 0.00000E+00
 -1       115 5.00702E-05-5.25368E-19-6.61744E-24
 -1       116 4.96214E-05-2.25193E-19 0.00000E+00
 -1       117 4.91729E-05 1.51095E-20 6.61744E-24
 -1       118 4.87244E-05 1.43334E-19-1.32349E-23
 -1       119 4.82776E-05 2.08552E-19 0.00000E+00
 -1       120 4.78301E-05 1.62257E-19 0.00000E+00
 -1       121 5.44086E-05-3.66007E-07 0.00000E+00
 -1       122 5.39635E-05-7.31105E-07 0.00000E+00
 -1       123 5.32168E-05-1.09640E-06 0.00000E+00
 -1       124 5.21662E-05-1.46184E-06-6.61744E-24
 -1       125 5.08104E-05-1.82760E-06 0.00000E+00
 -1       126 5.62909E-05-5.44525E-06 0.00000E+00
 -1       127 6.19092E-05-2.15556E-05 3.30872E-24
 -1       128 7.03419E-05-4.56192E-05-6.61744E-24
 -1       129 8.05539E-05-7.48184E-05 0.00000E+00
 -1       130 9.11196E-05-1.05046E-04 0.00000E+00
 -1       131 1.00622E-04-1.32182E-04 0.00000E+00
 -1       132 1.07872E-04-1.52881E-04 0.00000E+00
 -1       133 1.11653E-04-1.63888E-04 0.00000E+00
 -1       134 1.11539E-04-1.64337E-04 6.61744E-24
 -1       135 1.07119E-04-1.53482E-04 0.00000E+00
 -1       136 9.90528E-05-1.33320E-04 0.00000E+00
 -1       137 8.80839E-05-1.05928E-04 3.30872E-24
 -1       138 7.57324E-05-7.51364E-05 6.61744E-24
 -1       139 6.35674E-05-4.47985E-05 0.00000E+00
 -1       140 5.31050E-05-1.86582E-05 0.00000E+00
 -1       141 4.71775E-05 4.42420E-20-6.61744E-24
 -1       142 4.69652E-05 1.03073E-19-3.30872E-24
 -1       143 4.67529E-05 1.16912E-19 6.61744E-24
 -1       144 4.65408E-05 1.39887E-19 0.00000E+00
 -1       145 4.63287E-05 3.01361E-19 0.00000E+00
 -1       146 4.61166E-05 4.58144E-19 3.30872E-24
 -1       147 4.59046E-05 5.18289E-19-6.61744E-24
 -1       148 4.56926E-05 5.60972E-19 0.00000E+00
 -1       149 4.54807E-05 4.84866E-19-6.61744E-24
 -1       150 4.52688E-05 3.44686E-19-3.30872E-24
 -1       151 4.50571E-05 3.30307E-19 0.00000E+00
 -1       152 4.48459E-05 3.01174E-19 0.00000E+00
 -1       153 4.46348E-05 2.30079E-19 0.00000E+00
 -1       154 4.44268E-05 1.49679E-19 1.65436E-24
 -1       155 4.42177E-05 6.80933E-20-4.13590E-25
 -1       156 4.88508E-05-6.43438E-08 3.30872E-24
 -1       157 5.30943E-05-1.28710E-07 0.00000E+00
 -1       158 5.74902E-05-1.94224E-07-3.30872E-24
 -1       159 5.94070E-05-2.51426E-07 0.00000E+00
 -1       160 5.63430E-05-3.13327E-07 0.00000E+00
 -1       161 4.72530E-05-4.15124E-07 0.00000E+00
 -1       162 4.73512E-05-1.46304E-06-3.30872E-24
 -1       163 4.76147E-05-2.95318E-06-6.61744E-24
 -1       164 4.79702E-05-4.69021E-06 0.00000E+00
 -1       165 4.83209E-05-6.41425E-06-6.61744E-24
 -1       166 4.85698E-05-7.86569E-06 3.30872E-24
 -1       167 4.86464E-05-8.85626E-06 0.00000E+00
 -1       168 4.84820E-05-9.20291E-06 0.00000E+00
 -1       169 4.80699E-05-8.88929E-06 0.00000E+00
 -1       170 4.74065E-05-7.90640E-06 3.30872E-24
 -1       171 4.65531E-05-6.41869E-06 0.00000E+00
 -1       172 4.55740E-05-4.59590E-06 0.00000E+00
 -1       173 4.45655E-05-2.69487E-06-6.61744E-24
 -1       174 4.36278E-05-9.71869E-07 3.30872E-24
 -1       175 4.28361E-05 3.59975E-07 0.00000E+00
 -1       191 4.39607E-05 1.83258E-07 6.61744E-24
 -1       192 4.38029E-05 3.66858E-07 0.00000E+00
 -1       193 4.35532E-05 5.50524E-07 0.00000E+00
 -1       194 4.32150E-05 7.34155E-07-3.30872E-24
 -1       195 4.27915E-05 9.17644E-07 0.00000E+00
 -1       251 6.64506E-05 8.77352E-06 1.32349E-23
 -1       252 6.55337E-05 3.08524E-05 0.00000E+00
 -1       253 6.45598E-05 5.56907E-05 0.00000E+00
 -1       254 6.37275E-05 7.35141E-05 0.00000E+00
 -1       255 6.30225E-05 7.83483E-05 2.64698E-23
 -1       256 6.22376E-05 6.46020E-05-1.32349E-23
 -1       257 6.11767E-05 3.65344E-05 2.64698E-23
 -1       258 5.98108E-05-1.17413E-06 0.00000E+00
 -1       259 5.84530E-05-3.86457E-05 0.00000E+00
 -1       260 5.74105E-05-6.60077E-05 0.00000E+00
 -1       261 5.66374E-05-7.88360E-05-2.64698E-23
 -1       262 5.59281E-05-7.31342E-05-1.32349E-23
 -1       263 5.50860E-05-5.47312E-05 0.00000E+00
 -1       264 5.41109E-05-2.98295E-05-6.61744E-24
 -1       265 5.32019E-05-8.15364E-06 0.00000E+00
 -1       266 6.40155E-05-9.59246E-07 0.00000E+00
 -1       267 6.09583E-05-1.05311E-06 0.00000E+00
 -1       268 5.70402E-05-1.15064E-06 0.00000E+00
 -1       269 5.13106E-05-1.25394E-06 1.65436E-24
 -1       270 4.29667E-05-1.37541E-06 0.00000E+00
 -1       271 6.46332E-05 1.43826E-06-2.64698E-23
 -1       272 6.23130E-05 3.01820E-06 0.00000E+00
 -1       273 6.02310E-05 3.96998E-06-5.29396E-23
 -1       274 5.83498E-05 4.36621E-06-2.64698E-23
 -1       275 5.66440E-05 4.29300E-06 0.00000E+00
 -1       276 5.50790E-05 3.84111E-06 0.00000E+00
 -1       277 5.36193E-05 3.10730E-06 5.29396E-23
 -1       278 5.22274E-05 2.19234E-06 2.64698E-23
 -1       279 5.08645E-05 1.19966E-06-5.29396E-23
 -1       280 4.94917E-05 2.33919E-07-2.64698E-23
 -1       281 4.80701E-05-6.00720E-07-5.29396E-23
 -1       282 4.65623E-05-1.20187E-06 0.00000E+00
 -1       283 4.49307E-05-1.47089E-06 5.29396E-23
 -1       284 4.31461E-05-1.31191E-06-2.64698E-23
 -1       285 4.11672E-05-6.40264E-07 0.00000E+00
 -1       286 5.22779E-05 2.65973E-06 0.00000E+00
 -1       287 5.20688E-05 4.19344E-06 0.00000E+00
 -1       288 5.18601E-05 5.16696E-06 6.61744E-24
 -1       289 5.16528E-05 5.48390E-06-3.30872E-24
 -1       290 5.14455E-05 5.16999E-06 0.00000E+00
 -1       291 5.12381E-05 4.25661E-06 0.00000E+00
 -1       292 5.10303E-05 2.88662E-06-6.61744E-24
 -1       293 5.08220E-05 1.20691E-06 0.00000E+00
 -1       294 5.06135E-05-5.78002E-07 6.61744E-24
 -1       295 5.04052E-05-2.26265E-06 3.30872E-24
 -1       296 5.01972E-05-3.66026E-06 6.61744E-24
 -1       297 4.99895E-05-4.58657E-06 0.00000E+00
 -1       298 4.97822E-05-4.94500E-06 6.61744E-24
 -1       299 4.95736E-05-4.64400E-06-3.30872E-24
 -1       300 4.93650E-05-3.71476E-06 6.61744E-24
 -1       301 5.02399E-05 6.53297E-07 6.61744E-24
 -1       302 4.79769E-05 6.54390E-07-1.65436E-24
 -1       303 4.57133E-05 6.58058E-07 3.30872E-24
 -1       304 4.34583E-05 6.61226E-07 1.65436E-24
 -1       305 4.12212E-05 6.60725E-07-6.61744E-24
 -1       306 5.08036E-05 2.11099E-06 0.00000E+00
 -1       307 4.93509E-05 2.83602E-06-1.32349E-23
 -1       308 4.81317E-05 2.94235E-06 0.00000E+00
 -1       309 4.71044E-05 2.52404E-06 0.00000E+00
 -1       310 4.62349E-05 1.68345E-06 0.00000E+00
 -1       311 4.54831E-05 5.25979E-07 1.32349E-23
 -1       312 4.48090E-05-8.39574E-07 0.00000E+00
 -1       313 4.41711E-05-2.30242E-06 0.00000E+00
 -1       314 4.35279E-05-3.75072E-06 0.00000E+00
 -1       315 4.28375E-05-5.07277E-06 0.00000E+00
 -1       316 4.20589E-05-6.15826E-06 0.00000E+00
 -1       317 4.11522E-05-6.89910E-06-1.32349E-23
 -1       318 4.00778E-05-7.19096E-06 0.00000E+00
 -1       319 3.88027E-05-6.93249E-06 0.00000E+00
 -1       320 3.72849E-05-6.03154E-06 0.00000E+00
 -1       321 4.89616E-05-2.00933E-06-6.61744E-24
 -1       322 4.87775E-05-5.06714E-06 0.00000E+00
 -1       323 4.85820E-05-1.07795E-05 0.00000E+00
 -1       324 4.83746E-05-1.85385E-05 0.00000E+00
 -1       325 4.81587E-05-2.74057E-05 6.61744E-24
 -1       326 4.79417E-05-3.64337E-05 0.00000E+00
 -1       327 4.77313E-05-4.46499E-05 6.61744E-24
 -1       328 4.75335E-05-5.10871E-05 3.30872E-24
 -1       329 4.73477E-05-5.50653E-05-6.61744E-24
 -1       330 4.71692E-05-5.59233E-05 3.30872E-24
 -1       331 4.69882E-05-5.35026E-05 0.00000E+00
 -1       332 4.67936E-05-4.76698E-05 3.30872E-24
 -1       333 4.65782E-05-3.88407E-05 0.00000E+00
 -1       334 4.63381E-05-2.74545E-05 3.30872E-24
 -1       335 4.60782E-05-1.43623E-05 0.00000E+00
 -1       336 4.72130E-05-2.56091E-06-1.32349E-23
 -1       337 4.50806E-05-2.92774E-06 6.61744E-24
 -1       338 4.27985E-05-3.29474E-06 1.32349E-23
 -1       339 4.04139E-05-3.66100E-06 0.00000E+00
 -1       340 3.79742E-05-4.02746E-06-6.61744E-24
 -1       341 4.63108E-05 3.50334E-06 0.00000E+00
 -1       342 4.03756E-05 1.71986E-05 6.61744E-24
 -1       343 3.37132E-05 3.27582E-05 0.00000E+00
 -1       344 2.87313E-05 4.40057E-05 6.61744E-24
 -1       345 2.68615E-05 4.71136E-05-1.32349E-23
 -1       346 2.93766E-05 3.84398E-05 0.00000E+00
 -1       347 3.51538E-05 2.07429E-05-1.32349E-23
 -1       348 4.30485E-05-2.95677E-06-6.61744E-24
 -1       349 5.08259E-05-2.63223E-05-1.32349E-23
 -1       350 5.62496E-05-4.30285E-05 0.00000E+00
 -1       351 5.82971E-05-5.04252E-05 0.00000E+00
 -1       352 5.59777E-05-4.61292E-05-6.61744E-24
 -1       353 5.06960E-05-3.41067E-05-1.32349E-23
 -1       354 4.40187E-05-1.84963E-05-6.61744E-24
 -1       355 3.83191E-05-5.39936E-06 6.61744E-24
 -1       356 4.55273E-05 1.37739E-05-6.61744E-24
 -1       357 4.52495E-05 2.76635E-05 0.00000E+00
 -1       358 4.49884E-05 4.02170E-05-6.61744E-24
 -1       359 4.47528E-05 5.04212E-05 0.00000E+00
 -1       360 4.45417E-05 5.76569E-05-6.61744E-24
 -1       361 4.43493E-05 6.13289E-05 0.00000E+00
 -1       362 4.41634E-05 6.14394E-05 0.00000E+00
 -1       363 4.39718E-05 5.80188E-05 3.30872E-24
 -1       364 4.37670E-05 5.16897E-05 0.00000E+00
 -1       365 4.35461E-05 4.30978E-05 0.00000E+00
 -1       366 4.33145E-05 3.32688E-05-6.61744E-24
 -1       367 4.30816E-05 2.32377E-05 0.00000E+00
 -1       368 4.28566E-05 1.40741E-05 3.30872E-24
 -1       369 4.26495E-05 6.84054E-06 1.65436E-24
 -1       370 4.24563E-05 2.27673E-06 0.00000E+00
 -1       371 3.47883E-05-5.50209E-07 0.00000E+00
 -1       372 3.02917E-05-6.19294E-07 0.00000E+00
 -1       373 3.02705E-05-6.77216E-07-1.65436E-24
 -1       374 3.26662E-05-7.36510E-07 0.00000E+00
 -1       375 3.52866E-05-7.96397E-07 0.00000E+00
 -1       376 3.90228E-05 1.65353E-05-6.61744E-24
 -1       377 3.00916E-05 3.88970E-05 3.30872E-24
 -1       378 2.01770E-05 6.37135E-05-6.61744E-24
 -1       379 1.04668E-05 8.80212E-05 3.30872E-24
 -1       380 2.09552E-06 1.08977E-04-6.61744E-24
 -1       381-3.83900E-06 1.23763E-04-3.30872E-24
 -1       382-6.85535E-06 1.31007E-04 6.61744E-24
 -1       383-6.52610E-06 1.29405E-04 3.30872E-24
 -1       384-3.21802E-06 1.19733E-04-6.61744E-24
 -1       385 2.68842E-06 1.02856E-04 0.00000E+00
 -1       386 1.02356E-05 8.13560E-05-6.61744E-24
 -1       387 1.84789E-05 5.78717E-05 0.00000E+00
 -1       388 2.63246E-05 3.55211E-05-6.61744E-24
 -1       389 3.26762E-05 1.74090E-05 3.30872E-24
 -1       390 3.67544E-05 5.62206E-06 0.00000E+00
 -1       406 4.16745E-05 1.28096E-06-6.61744E-24
 -1       407 4.09942E-05 1.46147E-06-3.30872E-24
 -1       408 4.02555E-05 1.64187E-06 0.00000E+00
 -1       409 3.94682E-05 1.82182E-06 3.30872E-24
 -1       410 3.86424E-05 2.00081E-06 0.00000E+00
 -1       466 3.16335E-05 9.28546E-06-6.61744E-24
 -1       467 3.21129E-05 1.49165E-05-6.61744E-24
 -1       468 3.26050E-05 1.70815E-05 0.00000E+00
 -1       469 3.31032E-05 1.74191E-05 0.00000E+00
 -1       470 3.36013E-05 1.65376E-05 1.32349E-23
 -1       471 3.40994E-05 1.50189E-05 6.61744E-24
 -1       472 3.45969E-05 1.30842E-05 0.00000E+00
 -1       473 3.50942E-05 1.09456E-05-6.61744E-24
 -1       474 3.55911E-05 8.69953E-06-1.32349E-23
 -1       475 3.60878E-05 6.44028E-06-6.61744E-24
 -1       476 3.65845E-05 4.25459E-06 0.00000E+00
 -1       477 3.70800E-05 2.23075E-06 0.00000E+00
 -1       478 3.75759E-05 5.48692E-07-1.32349E-23
 -1       479 3.80653E-05-6.04172E-07 0.00000E+00
 -1       480 3.85577E-05-7.42745E-07 0.00000E+00
 -1       481 2.02058E-05-1.49346E-06 1.65436E-24
 -1       482 1.40378E-05-1.41672E-06 8.27181E-25
 -1       483 1.12848E-05-1.32473E-06 3.30872E-24
 -1       484 1.05341E-05-1.22890E-06 0.00000E+00
 -1       485 1.05630E-05-1.13247E-06 0.00000E+00
 -1       486 2.32634E-05 1.75677E-05 6.61744E-24
 -1       487 1.07656E-05 4.78941E-05-6.61744E-24
 -1       488-1.80941E-06 7.84116E-05 0.00000E+00
 -1       489-1.00072E-05 9.80622E-05 6.61744E-24
 -1       490-1.17868E-05 1.01110E-04 0.00000E+00
 -1       491-5.49060E-06 8.21230E-05-6.61744E-24
 -1       492 6.65164E-06 4.62776E-05 0.00000E+00
 -1       493 2.24986E-05-7.71185E-07 6.61744E-24
 -1       494 3.83117E-05-4.77159E-05-1.32349E-23
 -1       495 5.03488E-05-8.32506E-05 0.00000E+00
 -1       496 5.64989E-05-1.01825E-04 0.00000E+00
 -1       497 5.45649E-05-9.83702E-05 0.00000E+00
 -1       498 4.62479E-05-7.84194E-05 0.00000E+00
 -1       499 3.36339E-05-4.78075E-05 0.00000E+00
 -1       500 2.11792E-05-1.75891E-05-1.32349E-23
 -1       501 3.87828E-05 2.48098E-06 0.00000E+00
 -1       502 3.85647E-05 3.66143E-06 0.00000E+00
 -1       503 3.83467E-05 4.11123E-06 0.00000E+00
 -1       504 3.81304E-05 3.76614E-06 0.00000E+00
 -1       505 3.79138E-05 2.71576E-06 0.00000E+00
 -1       506 3.76967E-05 1.05619E-06-3.30872E-24
 -1       507 3.74789E-05-9.98661E-07 0.00000E+00
 -1       508 3.72609E-05-3.23127E-06-3.30872E-24
 -1       509 3.70430E-05-5.38969E-06 0.00000E+00
 -1       510 3.68258E-05-7.22268E-06 0.00000E+00
 -1       511 3.66093E-05-8.54195E-06-6.61744E-24
 -1       512 3.63935E-05-9.16391E-06 0.00000E+00
 -1       513 3.61779E-05-9.03978E-06 6.61744E-24
 -1       514 3.59618E-05-8.12770E-06 0.00000E+00
 -1       515 3.57450E-05-6.53812E-06 0.00000E+00
 -1       516 3.71715E-05 7.28269E-07 0.00000E+00
 -1       517 3.59267E-05 8.38945E-07-4.13590E-25
 -1       518 3.41398E-05 9.47210E-07 8.27181E-25
 -1       519 3.06712E-05 1.05414E-06 0.00000E+00
 -1       520 2.41889E-05 1.14659E-06 0.00000E+00
 -1       521 3.69284E-05 1.89518E-06-2.64698E-23
 -1       522 3.50601E-05 2.44932E-06 0.00000E+00
 -1       523 3.34187E-05 2.40353E-06 0.00000E+00
 -1       524 3.19612E-05 1.84823E-06 2.64698E-23
 -1       525 3.06556E-05 8.85598E-07 5.29396E-23
 -1       526 2.94616E-05-3.78315E-07-2.64698E-23
 -1       527 2.83387E-05-1.83285E-06 0.00000E+00
 -1       528 2.72445E-05-3.36483E-06-2.64698E-23
 -1       529 2.61365E-05-4.85993E-06-5.29396E-23
 -1       530 2.49723E-05-6.20437E-06-2.64698E-23
 -1       531 2.37102E-05-7.28654E-06 0.00000E+00
 -1       532 2.23106E-05-7.99842E-06 2.64698E-23
 -1       533 2.07344E-05-8.23756E-06-5.29396E-23
 -1       534 1.89509E-05-7.90640E-06-1.32349E-23
 -1       535 1.69195E-05-6.91979E-06 0.00000E+00
 -1       536 3.55394E-05-2.24778E-06 0.00000E+00
 -1       537 3.55632E-05-6.21018E-07 0.00000E+00
 -1       538 3.55875E-05 5.47596E-07 0.00000E+00
 -1       539 3.56137E-05 1.31350E-06 6.46235E-26
 -1       540 3.56403E-05 1.73191E-06 2.06795E-25
 -1       541 3.56673E-05 1.85803E-06-2.06795E-25
 -1       542 3.56944E-05 1.74696E-06 8.27181E-25
 -1       543 3.57215E-05 1.45376E-06 4.13590E-25
 -1       544 3.57487E-05 1.03346E-06-8.27181E-25
 -1       545 3.57758E-05 5.41038E-07-4.13590E-25
 -1       546 3.58029E-05 3.14645E-08 0.00000E+00
 -1       547 3.58300E-05-4.40288E-07 0.00000E+00
 -1       548 3.58572E-05-8.19249E-07 0.00000E+00
 -1       549 3.58845E-05-1.05043E-06 0.00000E+00
 -1       550 3.59117E-05-1.07877E-06 0.00000E+00
 -1       551 3.24094E-05-4.51864E-06 1.80946E-24
 -1       552 2.89405E-05-4.64645E-06 2.06795E-24
 -1       553 2.52739E-05-4.77451E-06 3.30872E-24
 -1       554 2.15663E-05-4.90408E-06 0.00000E+00
 -1       555 1.79746E-05-5.03664E-06 0.00000E+00
 -1       556 3.46077E-05-2.38588E-06 0.00000E+00
 -1       557 3.38645E-05-8.40578E-07 0.00000E+00
 -1       558 3.32777E-05 2.91709E-07-1.32349E-23
 -1       559 3.28288E-05 1.05890E-06 0.00000E+00
 -1       560 3.24991E-05 1.50902E-06 0.00000E+00
 -1       561 3.22704E-05 1.69055E-06 0.00000E+00
 -1       562 3.21244E-05 1.65202E-06-6.61744E-24
 -1       563 3.20427E-05 1.44202E-06 0.00000E+00
 -1       564 3.20070E-05 1.10921E-06 0.00000E+00
 -1       565 3.19992E-05 7.02228E-07 0.00000E+00
 -1       566 3.20009E-05 2.69768E-07 3.30872E-24
 -1       567 3.19941E-05-1.39487E-07-1.65436E-24
 -1       568 3.19605E-05-4.76860E-07-1.65436E-24
 -1       569 3.18822E-05-6.93732E-07 1.04690E-24
 -1       570 3.17414E-05-7.41531E-07 8.27181E-25
 -1       571 3.60502E-05-5.83339E-07 2.89513E-24
 -1       572 3.61646E-05-4.01258E-07-1.03398E-24
 -1       573 3.62801E-05-2.88058E-07-1.65436E-24
 -1       574 3.63960E-05-2.27892E-07-1.65436E-24
 -1       575 3.65121E-05-2.04854E-07-3.30872E-24
 -1       576 3.66282E-05-2.02935E-07-1.65436E-24
 -1       577 3.67444E-05-2.06120E-07-3.30872E-24
 -1       578 3.68606E-05-1.98384E-07 0.00000E+00
 -1       579 3.69768E-05-1.63696E-07 0.00000E+00
 -1       580 3.70930E-05-8.60278E-08 0.00000E+00
 -1       581 3.72092E-05 5.06496E-08 6.61744E-24
 -1       582 3.73254E-05 2.62353E-07 0.00000E+00
 -1       583 3.74415E-05 5.65084E-07-6.61744E-24
 -1       584 3.75575E-05 9.74695E-07 0.00000E+00
 -1       585 3.76732E-05 1.50696E-06 0.00000E+00
 -1       586 3.53035E-05-8.02304E-07 0.00000E+00
 -1       587 3.45749E-05-7.54804E-07-1.65436E-24
 -1       588 3.37927E-05-7.07351E-07-1.65436E-24
 -1       589 3.29969E-05-6.60359E-07-3.10193E-25
 -1       590 3.22276E-05-6.14411E-07 0.00000E+00
 -1       591 3.57511E-05-5.38553E-07 0.00000E+00
 -1       592 3.55781E-05-2.82333E-07 0.00000E+00
 -1       593 3.54208E-05-7.04910E-08 0.00000E+00
 -1       594 3.52761E-05 1.06349E-07-1.65436E-24
 -1       595 3.51408E-05 2.57562E-07-3.30872E-24
 -1       596 3.50116E-05 3.92461E-07 8.27181E-25
 -1       597 3.48849E-05 5.20349E-07-1.65436E-24
 -1       598 3.47574E-05 6.50523E-07-8.27181E-25
 -1       599 3.46255E-05 7.92280E-07 0.00000E+00
 -1       600 3.44858E-05 9.54912E-07-8.27181E-25
 -1       601 3.43348E-05 1.14771E-06 1.65436E-24
 -1       602 3.41691E-05 1.37998E-06 8.27181E-25
 -1       603 3.39853E-05 1.66103E-06 1.24077E-24
 -1       604 3.37803E-05 2.00022E-06 3.10193E-25
 -1       605 3.35510E-05 2.40691E-06 0.00000E+00
 -1       606 3.78289E-05 3.06379E-06 0.00000E+00
 -1       607 3.78666E-05 4.03408E-06-1.65436E-24
 -1       608 3.79034E-05 5.08245E-06-3.30872E-24
 -1       609 3.79398E-05 6.20335E-06 0.00000E+00
 -1       610 3.79760E-05 7.39120E-06-3.30872E-24
 -1       611 3.80120E-05 8.64029E-06 1.65436E-24
 -1       612 3.80480E-05 9.94492E-06 0.00000E+00
 -1       613 3.80838E-05 1.12994E-05 0.00000E+00
 -1       614 3.81196E-05 1.26980E-05 3.30872E-24
 -1       615 3.81554E-05 1.41351E-05 0.00000E+00
 -1       616 3.81911E-05 1.56049E-05 0.00000E+00
 -1       617 3.82267E-05 1.71017E-05 0.00000E+00
 -1       618 3.82624E-05 1.86197E-05-1.65436E-24
 -1       619 3.82979E-05 2.01535E-05 0.00000E+00
 -1       620 3.83333E-05 2.16971E-05-1.65436E-24
 -1       621 3.69524E-05 2.29587E-06-3.30872E-24
 -1       622 3.61395E-05 2.41601E-06 0.00000E+00
 -1       623 3.53588E-05 2.53622E-06-1.65436E-24
 -1       624 3.46191E-05 2.65614E-06 1.65436E-24
 -1       625 3.39293E-05 2.77537E-06 3.30872E-24
 -1       626 3.75236E-05 3.10594E-06 0.00000E+00
 -1       627 3.72249E-05 4.12203E-06 0.00000E+00
 -1       628 3.68963E-05 5.21673E-06 0.00000E+00
 -1       629 3.65413E-05 6.38097E-06 0.00000E+00
 -1       630 3.61635E-05 7.60565E-06-3.30872E-24
 -1       631 3.57664E-05 8.88151E-06 0.00000E+00
 -1       632 3.53535E-05 1.01993E-05 0.00000E+00
 -1       633 3.49284E-05 1.15498E-05 0.00000E+00
 -1       634 3.44944E-05 1.29236E-05 0.00000E+00
 -1       635 3.40550E-05 1.43116E-05-1.65436E-24
 -1       636 3.36138E-05 1.57046E-05 0.00000E+00
 -1       637 3.31742E-05 1.70931E-05-8.27181E-25
 -1       638 3.27397E-05 1.84679E-05 0.00000E+00
 -1       639 3.23134E-05 1.98198E-05 0.00000E+00
 -1       640 3.18984E-05 2.11394E-05 1.24077E-24
 -1       641 3.83696E-05 2.48511E-05 0.00000E+00
 -1       642 3.83693E-05 2.66259E-05 1.03398E-25
 -1       643 3.83688E-05 2.85448E-05-1.03398E-25
 -1       644 3.83678E-05 3.05835E-05 5.16988E-26
 -1       645 3.83666E-05 3.27178E-05 0.00000E+00
 -1       646 3.83653E-05 3.49233E-05 0.00000E+00
 -1       647 3.83638E-05 3.71760E-05 0.00000E+00
 -1       648 3.83623E-05 3.94516E-05-1.29247E-26
 -1       649 3.83608E-05 4.17260E-05 3.23117E-27
 -1       650 3.83593E-05 4.39751E-05 0.00000E+00
 -1       651 3.83578E-05 4.61746E-05 0.00000E+00
 -1       652 3.83564E-05 4.83005E-05 1.03398E-25
 -1       653 3.83551E-05 5.03284E-05 4.13590E-25
 -1       654 3.83532E-05 5.22341E-05 4.13590E-25
 -1       655 3.83518E-05 5.39933E-05 0.00000E+00
 -1       656 3.69757E-05 2.31114E-05 0.00000E+00
 -1       657 3.57696E-05 2.29712E-05 0.00000E+00
 -1       658 3.46845E-05 2.28314E-05-3.30872E-24
 -1       659 3.36545E-05 2.26915E-05-1.65436E-24
 -1       660 3.26137E-05 2.25513E-05 0.00000E+00
 -1       661 3.79200E-05 2.48982E-05-3.30872E-24
 -1       662 3.74276E-05 2.66847E-05 0.00000E+00
 -1       663 3.68929E-05 2.85829E-05 3.30872E-24
 -1       664 3.63240E-05 3.05741E-05 1.65436E-24
 -1       665 3.57275E-05 3.26389E-05-6.61744E-24
 -1       666 3.51106E-05 3.47582E-05 3.30872E-24
 -1       667 3.44802E-05 3.69133E-05 0.00000E+00
 -1       668 3.38435E-05 3.90853E-05 0.00000E+00
 -1       669 3.32075E-05 4.12552E-05 6.61744E-24
 -1       670 3.25793E-05 4.34045E-05 1.65436E-24
 -1       671 3.19660E-05 4.55141E-05 0.00000E+00
 -1       672 3.13746E-05 4.75652E-05-1.65436E-24
 -1       673 3.08122E-05 4.95387E-05-3.30872E-24
 -1       674 3.02849E-05 5.14152E-05 1.65436E-24
 -1       675 2.98016E-05 5.31760E-05 1.65436E-24
 -1       676 3.68441E-05 5.54506E-05 3.30872E-24
 -1       677 3.53433E-05 5.53191E-05 0.00000E+00
 -1       678 3.38439E-05 5.51877E-05 3.30872E-24
 -1       679 3.23467E-05 5.50567E-05-1.65436E-24
 -1       680 3.08521E-05 5.49257E-05 3.30872E-24
 -1       681 1.03535E-05-9.31884E-07 0.00000E+00
 -1       682 1.05605E-05-1.91994E-06-3.30872E-24
 -1       683 1.07662E-05-3.70529E-06 0.00000E+00
 -1       684 1.09719E-05-5.99900E-06 3.30872E-24
 -1       685 1.11769E-05-8.62049E-06 6.61744E-24
 -1       686 1.13818E-05-1.13922E-05 0.00000E+00
 -1       687 1.15866E-05-1.41686E-05-6.61744E-24
 -1       688 1.17919E-05-1.68042E-05 3.30872E-24
 -1       689 1.19979E-05-1.91233E-05-6.61744E-24
 -1       690 1.22048E-05-2.09477E-05-3.30872E-24
 -1       691 1.24126E-05-2.19932E-05 6.61744E-24
 -1       692 1.26206E-05-2.19687E-05 0.00000E+00
 -1       693 1.28271E-05-2.03547E-05 0.00000E+00
 -1       694 1.30259E-05-1.66175E-05 1.65436E-24
 -1       695 1.32092E-05-9.77180E-06 0.00000E+00
 -1       696 9.20173E-06-8.68206E-07 0.00000E+00
 -1       697 7.69006E-06-6.95185E-07 0.00000E+00
 -1       698 5.82220E-06-5.22987E-07 0.00000E+00
 -1       699 3.80080E-06-3.49694E-07 0.00000E+00
 -1       700 1.80150E-06-1.76499E-07 0.00000E+00
 -1       701 9.27197E-06 6.75961E-07 3.30872E-24
 -1       702 7.53309E-06 4.62573E-06 3.30872E-24
 -1       703 5.16690E-06 1.02277E-05 0.00000E+00
 -1       704 2.39867E-06 1.68763E-05 0.00000E+00
 -1       705-4.50196E-07 2.37357E-05 6.61744E-24
 -1       706-3.05932E-06 2.99670E-05 0.00000E+00
 -1       707-5.16303E-06 3.48717E-05 0.00000E+00
 -1       708-6.50289E-06 3.77629E-05 0.00000E+00
 -1       709-6.99402E-06 3.84026E-05 0.00000E+00
 -1       710-6.56084E-06 3.65739E-05 0.00000E+00
 -1       711-5.33388E-06 3.26117E-05 0.00000E+00
 -1       712-3.44915E-06 2.68717E-05-3.30872E-24
 -1       713-1.18729E-06 2.01082E-05-6.61744E-24
 -1       714 1.17170E-06 1.30871E-05-1.65436E-24
 -1       715 3.32213E-06 6.63038E-06 0.00000E+00
 -1       716 1.33723E-05 1.22481E-05 0.00000E+00
 -1       717 1.34407E-05 1.93243E-05 8.27181E-25
 -1       718 1.35259E-05 2.31811E-05 0.00000E+00
 -1       719 1.36186E-05 2.45613E-05-1.65436E-24
 -1       720 1.37123E-05 2.39793E-05 0.00000E+00
 -1       721 1.38045E-05 2.19410E-05 0.00000E+00
 -1       722 1.38940E-05 1.88172E-05 0.00000E+00
 -1       723 1.39811E-05 1.49743E-05-1.65436E-24
 -1       724 1.40666E-05 1.07118E-05 0.00000E+00
 -1       725 1.41514E-05 6.32763E-06 0.00000E+00
 -1       726 1.42368E-05 2.10807E-06 0.00000E+00
 -1       727 1.43230E-05-1.65966E-06 0.00000E+00
 -1       728 1.44116E-05-4.64650E-06 0.00000E+00
 -1       729 1.44983E-05-6.52025E-06 0.00000E+00
 -1       730 1.45880E-05-6.84660E-06 0.00000E+00
 -1       731 2.91078E-06 1.21144E-06-2.58494E-26
 -1       732-2.33827E-06 1.27230E-06 4.13590E-25
 -1       733-3.62666E-06 1.34608E-06 0.00000E+00
 -1       734-2.16622E-06 1.42067E-06 0.00000E+00
 -1       735 1.03493E-06 1.49181E-06 0.00000E+00
 -1       736 7.80514E-06 1.44998E-05 0.00000E+00
 -1       737 1.98993E-06 2.84687E-05 0.00000E+00
 -1       738-2.71853E-06 3.95892E-05 0.00000E+00
 -1       739-5.00026E-06 4.43821E-05 6.61744E-24
 -1       740-4.52546E-06 4.18478E-05 0.00000E+00
 -1       741-1.03341E-06 3.11111E-05-6.61744E-24
 -1       742 4.57005E-06 1.45232E-05 1.32349E-23
 -1       743 1.13752E-05-5.44779E-06-6.61744E-24
 -1       744 1.80271E-05-2.49862E-05 0.00000E+00
 -1       745 2.31690E-05-4.02856E-05 6.61744E-24
 -1       746 2.60063E-05-4.92258E-05 0.00000E+00
 -1       747 2.57533E-05-4.98119E-05 6.61744E-24
 -1       748 2.28283E-05-4.33314E-05 0.00000E+00
 -1       749 1.77232E-05-3.11883E-05 0.00000E+00
 -1       750 1.18244E-05-1.70067E-05 0.00000E+00
 -1       751 1.56431E-05-3.07031E-06 6.61744E-24
 -1       752 1.66973E-05-2.02437E-06 0.00000E+00
 -1       753 1.77481E-05-1.60425E-06 0.00000E+00
 -1       754 1.88108E-05-1.39751E-06 0.00000E+00
 -1       755 1.98739E-05-1.31574E-06-2.64698E-23
 -1       756 2.09394E-05-1.27637E-06-1.32349E-23
 -1       757 2.20052E-05-1.26168E-06 0.00000E+00
 -1       758 2.30713E-05-1.25514E-06 0.00000E+00
 -1       759 2.41376E-05-1.25267E-06 2.64698E-23
 -1       760 2.52035E-05-1.25039E-06 0.00000E+00
 -1       761 2.62693E-05-1.24472E-06 0.00000E+00
 -1       762 2.73334E-05-1.23191E-06 1.32349E-23
 -1       763 2.83973E-05-1.19730E-06 2.64698E-23
 -1       764 2.94526E-05-1.12520E-06-1.32349E-23
 -1       765 3.05108E-05-9.42848E-07 0.00000E+00
 -1       766 1.34364E-05-5.07188E-06 0.00000E+00
 -1       767 1.50111E-05-4.93485E-06 0.00000E+00
 -1       768 1.72825E-05-4.80055E-06 0.00000E+00
 -1       769 1.81616E-05-4.66117E-06-8.27181E-25
 -1       770 1.53602E-05-4.52591E-06 0.00000E+00
 -1       771 1.30763E-05-3.07368E-06 0.00000E+00
 -1       772 1.16414E-05-1.36693E-06-1.32349E-23
 -1       773 1.03436E-05-2.95230E-08-2.64698E-23
 -1       774 9.17062E-06 9.73757E-07 0.00000E+00
 -1       775 8.10969E-06 1.67827E-06 2.64698E-23
 -1       776 7.14753E-06 2.11969E-06 1.32349E-23
 -1       777 6.27071E-06 2.33382E-06 0.00000E+00
 -1       778 5.46572E-06 2.35661E-06 1.32349E-23
 -1       779 4.71902E-06 2.22414E-06 0.00000E+00
 -1       780 4.01702E-06 1.97259E-06 1.32349E-23
 -1       781 3.34616E-06 1.63823E-06-2.64698E-23
 -1       782 2.69292E-06 1.25740E-06 1.32349E-23
 -1       783 2.04382E-06 8.66479E-07 0.00000E+00
 -1       784 1.38596E-06 5.01981E-07-6.61744E-24
 -1       785 7.06549E-07 2.00435E-07-1.32349E-23
 -1       786 3.16283E-05-1.57420E-07 0.00000E+00
 -1       787 3.17389E-05 1.64989E-07-8.27181E-25
 -1       788 3.18494E-05 4.09204E-07 3.30872E-24
 -1       789 3.19609E-05 5.89441E-07-1.65436E-24
 -1       790 3.20725E-05 7.19845E-07 3.30872E-24
 -1       791 3.21843E-05 8.14520E-07-1.65436E-24
 -1       792 3.22962E-05 8.87533E-07 3.30872E-24
 -1       793 3.24081E-05 9.52929E-07 0.00000E+00
 -1       794 3.25200E-05 1.02475E-06 0.00000E+00
 -1       795 3.26319E-05 1.11704E-06 0.00000E+00
 -1       796 3.27438E-05 1.24386E-06 0.00000E+00
 -1       797 3.28556E-05 1.41931E-06 0.00000E+00
 -1       798 3.29673E-05 1.65754E-06 0.00000E+00
 -1       799 3.30786E-05 1.97275E-06 0.00000E+00
 -1       800 3.31898E-05 2.37922E-06 0.00000E+00
 -1       801 2.87186E-05-4.66153E-07 0.00000E+00
 -1       802 2.28892E-05-3.64976E-07 0.00000E+00
 -1       803 1.55686E-05-2.72649E-07 8.27181E-25
 -1       804 8.29104E-06-1.82890E-07 0.00000E+00
 -1       805 2.59054E-06-8.41469E-08 0.00000E+00
 -1       806 3.12393E-05-2.01897E-07 0.00000E+00
 -1       807 3.09649E-05 1.28320E-07-1.65436E-24
 -1       808 3.07015E-05 4.26147E-07 0.00000E+00
 -1       809 3.04469E-05 6.98760E-07-1.65436E-24
 -1       810 3.01990E-05 9.53288E-07 3.30872E-24
 -1       811 2.99551E-05 1.19682E-06-1.65436E-24
 -1       812 2.97127E-05 1.43641E-06 0.00000E+00
 -1       813 2.94690E-05 1.67913E-06 0.00000E+00
 -1       814 2.92216E-05 1.93205E-06 3.30872E-24
 -1       815 2.89677E-05 2.20222E-06-1.65436E-24
 -1       816 2.87046E-05 2.49670E-06 0.00000E+00
 -1       817 2.84299E-05 2.82255E-06 0.00000E+00
 -1       818 2.81409E-05 3.18683E-06-3.30872E-24
 -1       819 2.78352E-05 3.59663E-06-8.27181E-25
 -1       820 2.75108E-05 4.05904E-06 1.65436E-24
 -1       821 3.31927E-05 3.54572E-06 0.00000E+00
 -1       822 3.30805E-05 4.34818E-06 0.00000E+00
 -1       823 3.29683E-05 5.28348E-06 0.00000E+00
 -1       824 3.28550E-05 6.33619E-06 0.00000E+00
 -1       825 3.27415E-05 7.49085E-06 0.00000E+00
 -1       826 3.26277E-05 8.73184E-06 0.00000E+00
 -1       827 3.25138E-05 1.00435E-05 0.00000E+00
 -1       828 3.23997E-05 1.14100E-05-1.65436E-24
 -1       829 3.22856E-05 1.28156E-05 0.00000E+00
 -1       830 3.21715E-05 1.42444E-05 0.00000E+00
 -1       831 3.20574E-05 1.56806E-05 0.00000E+00
 -1       832 3.19435E-05 1.71083E-05 1.65436E-24
 -1       833 3.18297E-05 1.85116E-05 3.30872E-24
 -1       834 3.17168E-05 1.98748E-05 0.00000E+00
 -1       835 3.16038E-05 2.11819E-05 0.00000E+00
 -1       836 3.25189E-05 3.16781E-06 0.00000E+00
 -1       837 3.14681E-05 3.45403E-06 0.00000E+00
 -1       838 3.02767E-05 3.73959E-06 6.61744E-24
 -1       839 2.90755E-05 4.02449E-06 0.00000E+00
 -1       840 2.79954E-05 4.30999E-06 0.00000E+00
 -1       841 3.30416E-05 3.53855E-06 0.00000E+00
 -1       842 3.27233E-05 4.34301E-06-2.58494E-26
 -1       843 3.23515E-05 5.29019E-06 0.00000E+00
 -1       844 3.19315E-05 6.36434E-06 0.00000E+00
 -1       845 3.14703E-05 7.54814E-06 0.00000E+00
 -1       846 3.09743E-05 8.82395E-06-2.06795E-25
 -1       847 3.04508E-05 1.01727E-05 0.00000E+00
 -1       848 2.99070E-05 1.15754E-05-2.06795E-25
 -1       849 2.93505E-05 1.30120E-05 0.00000E+00
 -1       850 2.87887E-05 1.44626E-05 2.06795E-25
 -1       851 2.82292E-05 1.59069E-05 4.13590E-25
 -1       852 2.76796E-05 1.73248E-05 2.06795E-25
 -1       853 2.71473E-05 1.86965E-05 0.00000E+00
 -1       854 2.66396E-05 2.00020E-05 0.00000E+00
 -1       855 2.61638E-05 2.12230E-05 0.00000E+00
 -1       856 3.13701E-05 2.37449E-05-1.65436E-24
 -1       857 3.12376E-05 2.53125E-05 0.00000E+00
 -1       858 3.11049E-05 2.70893E-05 0.00000E+00
 -1       859 3.09709E-05 2.90438E-05 0.00000E+00
 -1       860 3.08365E-05 3.11446E-05 0.00000E+00
 -1       861 3.07017E-05 3.33600E-05 0.00000E+00
 -1       862 3.05667E-05 3.56581E-05 3.30872E-24
 -1       863 3.04315E-05 3.80071E-05 0.00000E+00
 -1       864 3.02963E-05 4.03750E-05-3.30872E-24
 -1       865 3.01612E-05 4.27297E-05 1.65436E-24
 -1       866 3.00261E-05 4.50394E-05 3.30872E-24
 -1       867 2.98913E-05 4.72721E-05 0.00000E+00
 -1       868 2.97569E-05 4.93960E-05 0.00000E+00
 -1       869 2.96233E-05 5.13793E-05 0.00000E+00
 -1       870 2.94899E-05 5.31905E-05 3.30872E-24
 -1       871 3.04371E-05 2.24062E-05 0.00000E+00
 -1       872 2.94545E-05 2.23940E-05 0.00000E+00
 -1       873 2.85204E-05 2.23817E-05 0.00000E+00
 -1       874 2.76065E-05 2.23689E-05 4.13590E-25
 -1       875 2.66840E-05 2.23556E-05-8.27181E-25
 -1       876 3.11783E-05 2.37900E-05-3.30872E-24
 -1       877 3.07901E-05 2.53714E-05-1.65436E-24
 -1       878 3.03343E-05 2.71318E-05 0.00000E+00
 -1       879 2.98221E-05 2.90448E-05 0.00000E+00
 -1       880 2.92626E-05 3.10837E-05 6.61744E-24
 -1       881 2.86657E-05 3.32222E-05 3.30872E-24
 -1       882 2.80411E-05 3.54344E-05 0.00000E+00
 -1       883 2.73986E-05 3.76942E-05 0.00000E+00
 -1       884 2.67478E-05 3.99758E-05 0.00000E+00
 -1       885 2.60984E-05 4.22535E-05 0.00000E+00
 -1       886 2.54602E-05 4.45014E-05 0.00000E+00
 -1       887 2.48428E-05 4.66937E-05 0.00000E+00
 -1       888 2.42560E-05 4.88043E-05-6.61744E-24
 -1       889 2.37085E-05 5.08069E-05 0.00000E+00
 -1       890 2.32117E-05 5.26756E-05 0.00000E+00
 -1       891 2.80673E-05 5.47290E-05-1.65436E-24
 -1       892 2.70264E-05 5.46589E-05 0.00000E+00
 -1       893 2.61070E-05 5.45889E-05 1.65436E-24
 -1       894 2.51779E-05 5.45191E-05 8.27181E-25
 -1       895 2.41081E-05 5.44491E-05-1.65436E-24
 -1       896 3.08628E-07 1.56124E-06 0.00000E+00
 -1       897 6.20469E-07 2.85493E-06 0.00000E+00
 -1       898 9.32360E-07 3.95246E-06 0.00000E+00
 -1       899 1.24492E-06 4.92254E-06 0.00000E+00
 -1       900 1.55758E-06 5.79155E-06 0.00000E+00
 -1       901 1.87041E-06 6.58455E-06 0.00000E+00
 -1       902 2.18330E-06 7.30129E-06 1.32349E-23
 -1       903 2.49624E-06 7.94050E-06 0.00000E+00
 -1       904 2.80924E-06 8.47517E-06 0.00000E+00
 -1       905 3.12222E-06 8.87685E-06-3.30872E-24
 -1       906 3.43520E-06 9.07292E-06 0.00000E+00
 -1       907 3.74783E-06 8.98797E-06 0.00000E+00
 -1       908 4.06025E-06 8.45328E-06 0.00000E+00
 -1       909 4.37029E-06 7.29400E-06 0.00000E+00
 -1       910 4.67928E-06 5.12822E-06 6.61744E-24
 -1       911 5.07354E-06-2.67841E-06-3.30872E-24
 -1       912 5.17463E-06-6.82479E-06-1.65436E-24
 -1       913 5.27612E-06-1.08402E-05 0.00000E+00
 -1       914 5.37857E-06-1.46855E-05 0.00000E+00
 -1       915 5.48185E-06-1.83029E-05 0.00000E+00
 -1       916 5.58614E-06-2.16338E-05-1.65436E-24
 -1       917 5.69156E-06-2.45883E-05 0.00000E+00
 -1       918 5.79821E-06-2.70746E-05 0.00000E+00
 -1       919 5.90610E-06-2.89503E-05-3.30872E-24
 -1       920 6.01502E-06-3.00699E-05 0.00000E+00
 -1       921 6.12444E-06-3.02059E-05 3.30872E-24
 -1       922 6.23299E-06-2.91260E-05 1.65436E-24
 -1       923 6.33852E-06-2.64661E-05-3.30872E-24
 -1       924 6.43558E-06-2.18545E-05 8.27181E-25
 -1       925 6.51863E-06-1.47085E-05-6.46235E-27
 -1       926 6.19614E-06 1.03190E-05 0.00000E+00
 -1       927 5.72349E-06 3.07508E-05 0.00000E+00
 -1       928 5.19212E-06 5.40658E-05-6.61744E-24
 -1       929 4.65837E-06 7.74344E-05 3.30872E-24
 -1       930 4.18188E-06 9.80146E-05-6.61744E-24
 -1       931 3.80096E-06 1.12997E-04 3.30872E-24
 -1       932 3.49571E-06 1.20917E-04-6.61744E-24
 -1       933 3.22043E-06 1.20393E-04 0.00000E+00
 -1       934 2.91298E-06 1.12064E-04-6.61744E-24
 -1       935 2.52462E-06 9.66587E-05 3.30872E-24
 -1       936 2.05926E-06 7.66039E-05-6.61744E-24
 -1       937 1.54942E-06 5.43802E-05 3.30872E-24
 -1       938 1.05654E-06 3.29905E-05 6.61744E-24
 -1       939 6.33719E-07 1.54287E-05 6.61744E-24
 -1       940 2.92050E-07 3.76471E-06 0.00000E+00
 -1       941 1.61048E-06 2.23091E-07 0.00000E+00
 -1       942 3.30960E-06 4.68970E-07 1.32349E-23
 -1       943 5.00315E-06 7.26986E-07-5.29396E-23
 -1       944 6.71354E-06 9.87450E-07-2.64698E-23
 -1       945 8.42444E-06 1.24921E-06 5.29396E-23
 -1       946 1.01387E-05 1.51124E-06-2.64698E-23
 -1       947 1.18534E-05 1.77342E-06-5.29396E-23
 -1       948 1.35686E-05 2.03565E-06 2.64698E-23
 -1       949 1.52839E-05 2.29800E-06 0.00000E+00
 -1       950 1.69987E-05 2.56055E-06-2.64698E-23
 -1       951 1.87133E-05 2.82409E-06 0.00000E+00
 -1       952 2.04251E-05 3.08951E-06-2.64698E-23
 -1       953 2.21366E-05 3.36432E-06 0.00000E+00
 -1       954 2.38344E-05 3.65673E-06 0.00000E+00
 -1       955 2.55368E-05 4.03682E-06 0.00000E+00
 -1       956 2.70793E-05 5.29787E-06-8.27181E-25
 -1       957 2.69896E-05 6.11593E-06-6.20385E-25
 -1       958 2.68996E-05 7.02567E-06-2.89513E-24
 -1       959 2.68093E-05 8.01650E-06 4.13590E-25
 -1       960 2.67189E-05 9.07782E-06 0.00000E+00
 -1       961 2.66284E-05 1.01989E-05 8.27181E-25
 -1       962 2.65379E-05 1.13690E-05-3.30872E-24
 -1       963 2.64473E-05 1.25775E-05-8.27181E-25
 -1       964 2.63567E-05 1.38137E-05 0.00000E+00
 -1       965 2.62661E-05 1.50667E-05 0.00000E+00
 -1       966 2.61755E-05 1.63259E-05 0.00000E+00
 -1       967 2.60849E-05 1.75805E-05 0.00000E+00
 -1       968 2.59943E-05 1.88198E-05-3.30872E-24
 -1       969 2.59039E-05 2.00333E-05 1.65436E-24
 -1       970 2.58139E-05 2.12101E-05-3.30872E-24
 -1       971 2.55461E-05 2.35545E-05 0.00000E+00
 -1       972 2.53618E-05 2.50229E-05 0.00000E+00
 -1       973 2.51774E-05 2.67141E-05-6.61744E-24
 -1       974 2.49918E-05 2.85966E-05 3.30872E-24
 -1       975 2.48058E-05 3.06386E-05 6.61744E-24
 -1       976 2.46194E-05 3.28080E-05 0.00000E+00
 -1       977 2.44327E-05 3.50726E-05-6.61744E-24
 -1       978 2.42460E-05 3.74000E-05 0.00000E+00
 -1       979 2.40591E-05 3.97576E-05 0.00000E+00
 -1       980 2.38723E-05 4.21129E-05 0.00000E+00
 -1       981 2.36856E-05 4.44334E-05 6.61744E-24
 -1       982 2.34993E-05 4.66866E-05 0.00000E+00
 -1       983 2.33133E-05 4.88400E-05 0.00000E+00
 -1       984 2.31286E-05 5.08614E-05-1.65436E-24
 -1       985 2.29441E-05 5.27189E-05 0.00000E+00
 -3
    1PSTEP                        26          13           1          
  100CL  113 6.88141E-01         841                     0   13           1
 -4  STRESS      6    1
 -5  SXX         1    4    1    1
 -5  SYY         1    4    2    2
 -5  SZZ         1    4    3    3
 -5  SXY         1    4    1    2
 -5  SYZ         1    4    2    3
 -5  SZX         1    4    3    1
 -1         1-2.76393E+06-8.96523E+05-5.67495E+05-8.21784E+05 1.16415E-10-4.36557E-09
 -1         2-1.62106E+06-2.46003E+04 1.42593E+04-9.30104E+04-4.37916E-09 2.94870E-09
 -1         3-9.19210E+05-3.17791E+05-2.55270E+04-6.39589E+04 2.04818E-09-3.97449E-10
 -1         4-6.03041E+05-8.94343E+04 8.77274E+02-4.01881E+04 1.71383E-11-2.71723E-09
 -1         5-3.19716E+05 1.19866E+05-1.40326E+05-9.78050E+03 7.71070E-09 7.97564E-09
 -1         8-1.36384E+06-5.37256E+05-1.86309E+05-5.14336E+05 3.45608E-11 1.48430E-09
 -1         9-1.53523E+06-3.46446E+05-1.79721E+05-3.45315E+05-3.03165E-11-3.15292E-11
 -1        10-6.91492E+05-3.75072E+05-1.90012E+03-1.26567E+05-3.47728E-09 4.89005E-10
 -1        11-3.49883E+05-6.44171E+04 6.82965E+03-1.81768E+04 2.70844E-08 1.20303E-09
 -1        12-3.17160E+05 1.01967E+05-1.42201E+05-6.06709E+04 8.60689E-09 2.69217E-09
 -1        15 1.21563E+04 2.87481E+04 1.14058E+04-4.64949E+04 4.54747E-10-4.38013E-09
 -1        16-1.01247E+06-1.97007E+05 1.19757E+04-4.08570E+05 1.72804E-09 2.80185E-09
 -1        17-5.80890E+05-3.76792E+05-6.68447E+04-2.98069E+05 2.92251E-10 4.97797E-09
 -1        18-2.41907E+05-1.05205E+05-8.95183E+04-1.17342E+05-8.06115E-10-7.49424E-10
 -1        19 1.40265E+04 9.47743E+04-3.71497E+04-3.28879E+04-3.55840E-09-8.80997E-10
 -1        20 9.73734E+04-7.17459E+04-1.18411E+04 5.19097E+04 6.57451E-09-5.46606E-09
 -1        21 1.16623E+03-1.45068E+05 3.66187E+04 4.17253E+02 1.77422E-08-1.03752E-09
 -1        22 2.89811E+04 1.60378E+05 1.18490E+03-3.06392E+04-2.68756E-10-2.32831E-10
 -1        23-2.35087E+05 6.53962E+04 9.61240E+03-6.99791E+04-5.14016E-09 4.68693E-10
 -1        24-2.00833E+05 1.39128E+04 2.39865E+05-4.14549E+05-8.27034E-09 1.63709E-09
 -1        25 5.18116E+05 1.83503E+05 1.62655E+05-2.67911E+05 8.41889E-10-4.05635E-10
 -1        26 2.18456E+03 1.62773E+05 8.48729E+03-3.08699E+04 1.43761E-09-1.72046E-09
 -1        27-3.76725E+04-6.12842E+04-2.65013E+04 7.03175E+04 4.28433E-09-8.91305E-11
 -1        28-1.23108E+04-1.13513E+05-6.71785E+02 5.46033E+04 5.80883E-09-1.60001E-09
 -1        29 4.26788E+05 2.73011E+05 1.10939E+03-4.39596E+03 1.30299E-10-3.25508E-09
 -1        30 1.64361E+05 3.85940E+04 1.65593E+03-2.86044E+04-9.89138E-10 8.08814E-09
 -1        31-3.42194E+05 6.27134E+04 7.65438E+03-3.40445E+04-7.74016E-09-1.12304E-08
 -1        32 7.99985E+05 4.39060E+05 5.22848E+05-4.29100E+05 1.41545E-08 2.00089E-09
 -1        33 1.19475E+06 5.07752E+05 3.73739E+05-4.60358E+04-1.46927E-08-8.13998E-11
 -1        34-1.96550E+05-2.76312E+04-8.12797E+03 3.72339E+04 1.57733E-09 2.73303E-10
 -1        35-3.17524E+04-3.75398E+04-7.03275E+02 8.10734E+04 9.20503E-09-2.86915E-09
 -1        36-3.52712E+06 1.04387E+05-2.42207E+05-2.20654E-07-2.55187E-10-9.19681E-09
 -1        37-3.63184E+06-1.20859E+05-1.71267E+05 8.94738E-08-2.14657E-11-7.95990E-09
 -1        38-3.56753E+06 1.62793E+04-6.26453E+04-2.99172E-08 1.05669E-10-3.45608E-09
 -1        39-3.58456E+06-1.88425E+04-3.93279E+04-2.52690E-07 6.27928E-10-1.09503E-09
 -1        40-3.57414E+06 2.53368E+03-1.60818E+04-4.40124E-07 8.87122E-11 2.90584E-09
 -1        41-3.57679E+06-2.96767E+03-9.58233E+03-1.99198E-07-9.86535E-10 8.77685E-09
 -1        42-3.57522E+06 4.30043E+02-4.68482E+03-8.90800E-08-9.78808E-10 3.57977E-09
 -1        43-3.57563E+06-7.54637E+02-3.70182E+03 9.74765E-08-1.99014E-09 7.59537E-09
 -1        44-3.57528E+06 3.23883E+02-3.71977E+03-2.19290E-08 7.16740E-10 9.50422E-11
 -1        45-3.57630E+06-2.05082E+03-6.79089E+03-2.66891E-07-2.95295E-09-1.79625E-09
 -1        46-3.57456E+06 1.72424E+03-1.10484E+04-3.15884E-07 1.49078E-09-9.22682E-10
 -1        47-3.58155E+06-1.27926E+04-2.67596E+04-4.99383E-07 1.57021E-09-1.88675E-09
 -1        48-3.57008E+06 1.10481E+04-4.25498E+04 2.18211E-08 1.15371E-09-4.29645E-09
 -1        49-3.61362E+06-8.20201E+04-1.16247E+05 1.76712E-07 1.25561E-09-3.21961E-10
 -1        50-3.54268E+06 7.08352E+04-1.64433E+05 3.32202E-07-4.31006E-09-1.04774E-09
 -1        51 3.12922E+04-3.65930E+05 5.05996E+04-9.88703E+05-1.16415E-10 3.88536E-09
 -1        52 1.46866E+04-3.62274E+05 3.06802E+04-1.09038E+06 4.36557E-10-6.25005E-09
 -1        53 9.82250E+03-3.73073E+05 2.43947E+04-9.86053E+05 3.85626E-10 1.44064E-09
 -1        54 2.22593E+04-3.69987E+05 3.68334E+04-1.09317E+06-2.54659E-10 3.91447E-09
 -1        55 4.93876E+04-3.81992E+05 6.64002E+04-9.85542E+05-2.03727E-10 4.92582E-09
 -1        56-4.39780E+06-4.95661E+05-3.62188E+05-1.70057E+06 7.13044E-10 3.40515E-09
 -1        57-4.56102E+06-7.98248E+05-2.43098E+05-1.66618E+06 7.93079E-10-1.40026E-08
 -1        58-4.46838E+06-6.09940E+05-8.52308E+04-1.68047E+06 4.18368E-11-3.02316E-09
 -1        59-4.47984E+06-6.63173E+05-5.05345E+04-1.68972E+06-2.40652E-09 6.96309E-09
 -1        60-4.47788E+06-6.26198E+05-1.99044E+04-1.67854E+06-6.06633E-10-4.82760E-09
 -1        61-4.47007E+06-6.42825E+05-1.12606E+04-1.69049E+06-8.02061E-10-5.25688E-09
 -1        62-4.47792E+06-6.29723E+05-5.49656E+03-1.67984E+06-3.41061E-11 9.68498E-10
 -1        63-4.47194E+06-6.37251E+05-4.59895E+03-1.68691E+06-2.81943E-10-3.41038E-09
 -1        64-4.47595E+06-6.31726E+05-5.38127E+03-1.68212E+06-6.35055E-10-1.49976E-09
 -1        65-4.47749E+06-6.35184E+05-1.09030E+04-1.68184E+06 2.05705E-09-2.42676E-09
 -1        66-4.47239E+06-6.31855E+05-1.92449E+04-1.68489E+06-1.78375E-10 3.07955E-09
 -1        67-4.49283E+06-6.48921E+05-4.87994E+04-1.67435E+06-1.56820E-09 6.85395E-09
 -1        68-4.46083E+06-6.18538E+05-8.23147E+04-1.68947E+06-3.14685E-10-2.04818E-09
 -1        69-4.57442E+06-7.76189E+05-2.34747E+05-1.64804E+06 1.26875E-09-4.11455E-09
 -1        70-4.39190E+06-5.08952E+05-3.49767E+05-1.70976E+06-1.35333E-09-4.49654E-09
 -1        71-1.91788E+06 7.69532E+03-1.78894E+04-2.02376E-07-1.42428E-09 7.69433E-10
 -1        72-1.92545E+06-8.91190E+03-1.26459E+04-7.09900E-08-1.15917E-09 4.80713E-09
 -1        73-1.92086E+06 1.20064E+03-4.64226E+03 4.89934E-09-2.45216E-09-1.67574E-09
 -1        74-1.92197E+06-1.39192E+03-2.93662E+03-7.10256E-08-3.37994E-09-5.40200E-09
 -1        75-1.92135E+06 1.89019E+02-1.25043E+03-1.97189E-08-1.88237E-09-5.99357E-10
 -1        76-1.92141E+06-2.35649E+02-8.40256E+02 1.81156E-08-3.09597E-11 2.89788E-10
 -1        77-1.92142E+06 4.63277E+01-5.94130E+02-2.38292E-07 1.88123E-09-2.06256E-09
 -1        78-1.92138E+06-1.66257E+02-8.18255E+02 1.10150E-07 2.37436E-09-2.24752E-10
 -1        79-1.92138E+06 1.19772E+02-1.26374E+03-1.36543E-07 4.70532E-11 3.16771E-09
 -1        80-1.92175E+06-8.69968E+02-2.77587E+03-1.20654E-07-7.38267E-10-3.94311E-09
 -1        81-1.92105E+06 7.49007E+02-4.74079E+03-2.64151E-07-7.67395E-10-1.42109E-09
 -1        82-1.92406E+06-5.57719E+03-1.16448E+04 2.20672E-07 5.28862E-10 4.01724E-09
 -1        83-1.91909E+06 4.81919E+03-1.85688E+04 1.85742E-08-2.25930E-09 1.19144E-10
 -1        84-1.93804E+06-3.57793E+04-5.07378E+04-9.52161E-09-2.45321E-09 3.64344E-09
 -1        85-1.90711E+06 3.08977E+04-7.17952E+04 3.90964E-08-1.31622E-09 3.36513E-09
 -1        86-8.04383E+04 3.27562E+05 1.90266E+05 3.03030E+03 2.18279E-11 2.03670E-10
 -1        87 1.00961E+05 4.13687E+05 1.48462E+05-1.35390E+04-9.09495E-11-4.31820E-09
 -1        88-2.03130E+04 3.55586E+05 7.74724E+04 1.72822E+03-7.82165E-10-4.76152E-09
 -1        89 7.35325E+04 4.00402E+05 1.12536E+05-1.22416E+04 2.88310E-10-3.63855E-09
 -1        90-5.30465E+04 3.40796E+05 1.28645E+05 1.73325E+03-9.02219E-10 9.90688E-10
 -1        91-1.59298E+06-2.98638E+05-2.96466E+04-6.76032E+05 6.00812E-09 3.91515E-09
 -1        92-1.58468E+06-2.95537E+04 2.56330E+04-3.56076E+05 1.76303E-08 5.75568E-09
 -1        93-1.47263E+06-2.92886E+05-2.86364E+03-6.73719E+05 1.49314E-08 5.05304E-09
 -1        94-1.43887E+06-7.05953E+04 4.69404E+04-3.78475E+05-4.99108E-09-3.72097E-09
 -1        95-1.73368E+06-2.62723E+05-4.69938E+04-6.49101E+05-1.22236E-08-1.75942E-09
 -1        96-1.22867E+06-2.25627E+05 5.77891E+04-5.52575E+05 1.23218E-08-1.04842E-09
 -1        97-1.68013E+06-1.40502E+05-1.30079E+04-4.97734E+05 1.44264E-08 2.23622E-09
 -1        98-1.29776E+06-3.43700E+05 2.13970E+04-7.16251E+05-5.65425E-08 5.68212E-09
 -1        99-1.67302E+06-1.36220E+05-1.13645E+04-4.92335E+05-9.81418E-08-5.97970E-09
 -1       100-1.22999E+06-2.33904E+05 5.44860E+04-5.62529E+05-4.61366E-08-3.13321E-09
 -1       101-1.73983E+06-2.58376E+05-5.04881E+04-6.44858E+05-1.47656E-08-2.34922E-09
 -1       102-1.42728E+06-7.88644E+04 4.08259E+04-3.81105E+05 1.98827E-08 3.86422E-09
 -1       103-1.47764E+06-2.89417E+05-1.72651E+04-6.74949E+05 2.16736E-08 9.88348E-09
 -1       104-1.60549E+06-5.60001E+04-1.36223E+04-3.50484E+05-5.35738E-09 6.44786E-09
 -1       105-1.56740E+06-2.75507E+05-8.27958E+04-6.80571E+05 1.61308E-08 6.55928E-09
 -1       106-1.28036E+06 6.58411E+03-1.53088E+04-1.08829E-07 7.50910E-10 4.88035E-09
 -1       107-1.28687E+06-7.62504E+03-1.08215E+04 2.97449E-08 7.90774E-10-3.28976E-09
 -1       108-1.28291E+06 1.02723E+03-3.97178E+03 5.13083E-08-3.37922E-11-5.74187E-09
 -1       109-1.28389E+06-1.19055E+03-2.50895E+03-1.02251E-07-1.21289E-09 2.85101E-09
 -1       110-1.28333E+06 1.61382E+02-1.06101E+03-1.74968E-07-2.05568E-11 2.66232E-09
 -1       111-1.28341E+06-1.98938E+02-6.98555E+02 3.50414E-08-4.67733E-11 1.70412E-09
 -1       112-1.28339E+06 3.73003E+01-4.69378E+02-6.01333E-08-5.69683E-10-2.34046E-10
 -1       113-1.28338E+06-1.24550E+02-6.13756E+02 6.54977E-08-6.81097E-11-2.69000E-09
 -1       114-1.28336E+06 8.71317E+01-9.24187E+02 5.29612E-09-9.28064E-11-2.73269E-09
 -1       115-1.28364E+06-6.29304E+02-2.01295E+03-1.44669E-07-1.30998E-09 1.39556E-09
 -1       116-1.28313E+06 5.41313E+02-3.43118E+03-1.62357E-07 2.22740E-10-1.81899E-11
 -1       117-1.28531E+06-4.03011E+03-8.42046E+03 6.89289E-08-9.63976E-10 2.13777E-09
 -1       118-1.28171E+06 3.48223E+03-1.34258E+04-1.31447E-07-8.51763E-10-3.37695E-09
 -1       119-1.29541E+06-2.58532E+04-3.66720E+04-2.79255E-07 9.78443E-10 5.31827E-09
 -1       120-1.27305E+06 2.23256E+04-5.18915E+04-2.21064E-07-4.43404E-10 1.55705E-09
 -1       121-1.48127E+03-1.04393E+06 6.24272E+03 8.20161E+02-2.78305E-10 3.30238E-09
 -1       122 1.96130E+03-1.04142E+06 4.16185E+03 2.41119E+03-3.80680E-10 1.11550E-09
 -1       123-2.29286E+02-1.04302E+06 1.92725E+03 1.18952E+03-5.56952E-10-4.88399E-09
 -1       124 6.15756E+02-1.04222E+06 1.77721E+03 1.66709E+03-4.36671E-10-6.54836E-09
 -1       125-4.01823E+02-1.04313E+06 1.73023E+03 1.56421E+03-1.10708E-09-6.07270E-09
 -1       126-6.76999E+05-1.01080E+05 2.30969E+04-2.27454E+05 3.33202E-08 5.32418E-09
 -1       127-4.98829E+05-9.46508E+04 3.82357E+04-2.58214E+05 2.68572E-08 9.51604E-09
 -1       128-6.46119E+05-6.19975E+04 5.96395E+03-1.98713E+05-2.68697E-08-8.50878E-09
 -1       129-5.38570E+05-1.37991E+05 7.39473E+03-2.92879E+05-3.02152E-08 4.40559E-09
 -1       130-6.39450E+05-5.61317E+04 1.46238E+03-1.94341E+05-3.27063E-08 1.13480E-08
 -1       131-5.20229E+05-1.25041E+05 1.00519E+04-2.68760E+05-7.95433E-09-6.79435E-09
 -1       132-6.63047E+05-7.60162E+04-8.61854E+03-2.21829E+05 5.07225E-09 3.62024E-09
 -1       133-5.01034E+05-8.16082E+04 2.12453E+04-2.08495E+05 1.30142E-08 2.98485E-10
 -1       134-6.56208E+05-1.01382E+05-1.27856E+04-2.52749E+05-7.13817E-09 5.93741E-09
 -1       135-5.61252E+05-4.28915E+04 1.65086E+04-1.67338E+05-9.76149E-09 1.56548E-08
 -1       136-6.03705E+05-1.14065E+05-6.01215E+03-2.63537E+05 1.96526E-08 2.52646E-09
 -1       137-6.46827E+05-2.70587E+04 1.13732E+03-1.58871E+05 1.78983E-08 1.47037E-08
 -1       138-5.73210E+05-1.15308E+05-4.34116E+03-2.63273E+05 3.33762E-09 1.27429E-08
 -1       139-6.43647E+05-3.35465E+04-8.04474E+03-1.57898E+05 4.77532E-08 4.08614E-08
 -1       140-6.06684E+05-1.07738E+05-2.71538E+04-2.64337E+05 9.27594E-09-1.64155E-08
 -1       141-6.07967E+05-3.45070E+03 8.02011E+03-2.37759E-08-2.20448E-10-1.06866E-09
 -1       142-6.04438E+05 3.99566E+03 5.65777E+03-9.40644E-08 2.18947E-10 5.24130E-09
 -1       143-6.06627E+05-5.37734E+02 2.05111E+03-5.52368E-08-1.01101E-11-5.07271E-10
 -1       144-6.06002E+05 6.18769E+02 1.24822E+03-2.09104E-07 1.11078E-09-1.54390E-09
 -1       145-6.06404E+05-8.00035E+01 4.26772E+02-1.88336E-07-3.01512E-10 8.82807E-10
 -1       146-6.06277E+05 6.90276E+01 8.89752E+01-1.27819E-07-1.88237E-10 1.11971E-09
 -1       147-6.06354E+05 1.11030E+01-2.74423E+02 7.26224E-08-1.99396E-10-9.05089E-10
 -1       148-6.06412E+05-1.66715E+02-8.22640E+02 7.07039E-08 2.62719E-11 9.03867E-10
 -1       149-6.06269E+05 1.55454E+02-1.59346E+03-1.47510E-07-6.31702E-10-1.32377E-09
 -1       150-6.06951E+05-1.17765E+03-3.72208E+03-1.76439E-07-4.00333E-10-2.45177E-09
 -1       151-6.05817E+05 1.02059E+03-6.44532E+03 7.94800E-08-3.93153E-10-9.64064E-10
 -1       152-6.10096E+05-7.60660E+03-1.58862E+04-5.19805E-08 2.17937E-10-7.90124E-10
 -1       153-6.03129E+05 6.57375E+03-2.53499E+04-9.98244E-08 2.01122E-09-1.41699E-09
 -1       154-6.29164E+05-4.88058E+04-6.92433E+04-8.54243E-09 9.92859E-10-3.06954E-09
 -1       155-5.86758E+05 4.21477E+04-9.79609E+04-7.90383E-08 4.68648E-09 1.68075E-09
 -1       156-2.12367E+04-1.67147E+05 4.85386E+04-1.96163E+04-6.84304E-09-5.61954E-10
 -1       157 2.60201E+04-1.35767E+05 3.89942E+04 8.09329E+04-1.74732E-08-4.26866E-10
 -1       158-4.44408E+03-1.58742E+05 1.84803E+04-1.96674E+04-8.75093E-09 9.75774E-10
 -1       159 1.84746E+04-1.15032E+05 3.20672E+04 7.75306E+04-3.63229E-09 8.03027E-10
 -1       160-1.46903E+04-1.86535E+05 2.25539E+04-1.62212E+04 1.64100E-08 4.45607E-09
 -1       161-6.47223E+05-8.87756E+04-3.48450E+03-2.42064E+05-1.26616E-09-1.17575E-09
 -1       162-6.44982E+05-9.54477E+04-2.34497E+03-2.45479E+05 2.06009E-09 2.78732E-10
 -1       163-6.48738E+05-8.89955E+04-8.25654E+02-2.40669E+05 4.52475E-09-1.04677E-09
 -1       164-6.43388E+05-9.50011E+04-5.27319E+02-2.46877E+05 4.72438E-09-2.05830E-09
 -1       165-6.48822E+05-8.92149E+04-2.59355E+02-2.40672E+05 5.00256E-09 6.78588E-10
 -1       166-6.44157E+05-9.37391E+04-2.18654E+02-2.45665E+05 3.18576E-09-8.21103E-11
 -1       167-6.47961E+05-9.02627E+04-3.77243E+02-2.41876E+05-2.06342E-11-2.79820E-09
 -1       168-6.46531E+05-9.13848E+04-6.46907E+02-2.42774E+05-1.31837E-09 9.06311E-10
 -1       169-6.46440E+05-9.15751E+04-1.34133E+03-2.43557E+05 3.85249E-10-1.07968E-09
 -1       170-6.49869E+05-8.98946E+04-3.19382E+03-2.39726E+05-1.66343E-09-2.75924E-09
 -1       171-6.44631E+05-9.17498E+04-5.61892E+03-2.44930E+05-5.81849E-09-2.61707E-10
 -1       172-6.55294E+05-9.53536E+04-1.50905E+04-2.37121E+05-3.81755E-09-2.28283E-10
 -1       173-6.41029E+05-8.61195E+04-2.42199E+04-2.46166E+05-9.06039E-09 5.39967E-09
 -1       174-6.78957E+05-1.38937E+05-7.16421E+04-2.29827E+05-1.83559E-08 9.40418E-09
 -1       175-6.20984E+05-4.82321E+04-1.03367E+05-2.52201E+05-5.98266E-09 5.44242E-09
 -1       191 1.65657E+03 5.26076E+05 2.71176E+03-1.83547E+04-2.98314E-10 1.44246E-09
 -1       192 5.89222E+02 5.26475E+05 1.60286E+03-1.98051E+04 3.28441E-10-3.40606E-09
 -1       193 2.52994E+02 5.26199E+05 1.25298E+03-1.81081E+04-7.77504E-10 7.33053E-10
 -1       194 7.36918E+02 5.26495E+05 1.85391E+03-2.02571E+04 3.29692E-10 1.42973E-09
 -1       195 2.10258E+03 5.25985E+05 3.33712E+03-1.79001E+04-1.19690E-09 1.36697E-09
 -1       251-1.99507E+06 2.70826E+04-1.01769E+05-8.69624E+04-7.72161E-10-7.07223E-09
 -1       252-1.87205E+06-3.12452E+04-4.15569E+04 2.35827E+05 1.61805E-09 1.69803E-09
 -1       253-1.95382E+06 7.64319E+03-2.54116E+04-1.10597E+05-2.93721E-09-6.69206E-09
 -1       254-1.75668E+06 1.61510E+03 2.32776E+04 1.45919E+05-6.46287E-09-1.30694E-09
 -1       255-2.10345E+06-1.25378E+04-4.09652E+04 2.98717E+03-2.53658E-09 6.52813E-09
 -1       256-1.73389E+06 9.91070E+03 3.80977E+04-9.24480E+04-6.27119E-09 1.71008E-09
 -1       257-1.97501E+06-2.18185E+03-9.56019E+03 1.27524E+05-4.02770E-09 4.62165E-09
 -1       258-1.86649E+06 8.66229E+03 1.39340E+04-2.14777E+05-1.53874E-09 4.15525E-09
 -1       259-1.97969E+06-2.62336E+03-1.05519E+04 1.25570E+05-1.26020E-08 4.83908E-09
 -1       260-1.72982E+06 9.96153E+03 3.89298E+04-8.64891E+04 7.03494E-09 1.50408E-10
 -1       261-2.10256E+06-1.24053E+04-4.06871E+04-1.01814E+03 6.86305E-09 5.28303E-09
 -1       262-1.76134E+06 1.50675E+03 2.25178E+04 1.51274E+05 1.00254E-08-9.64178E-09
 -1       263-1.95036E+06 7.93085E+03-2.43568E+04-1.11945E+05-1.18118E-08-5.80530E-09
 -1       264-1.87002E+06-3.05747E+04-4.03834E+04 2.34537E+05-4.55524E-08 5.92081E-10
 -1       265-2.00043E+06 2.60067E+04-1.01738E+05-8.43224E+04-2.14750E-08-4.75848E-09
 -1       266-2.72028E+04-2.63409E+05 6.29171E+04-6.47381E+03 1.23691E-10 1.90833E-09
 -1       267 2.99541E+04-2.34803E+05 4.21752E+04 3.02400E+04 8.00355E-11-3.14640E-09
 -1       268-2.83480E+03-2.53690E+05 1.07421E+04-5.44553E+03-4.00178E-11 7.47093E-10
 -1       269-5.25632E+03-2.45335E+05-3.19867E+03 2.61497E+04-1.05956E-10 9.09486E-09
 -1       270 7.69896E+03-2.52562E+05-1.86482E+04-2.38806E+03 2.83762E-10 9.84573E-09
 -1       271-3.73631E+06-4.72397E+05-2.92098E+05-1.44863E+06 2.40107E-10-9.89530E-10
 -1       272-3.83771E+06-6.64600E+05-1.84393E+05-1.44999E+06-2.87855E-10-2.76486E-09
 -1       273-3.78862E+06-5.37239E+05-6.88835E+04-1.43909E+06-2.20746E-09-7.66522E-09
 -1       274-3.77646E+06-5.81177E+05-3.78255E+04-1.46666E+06-5.58430E-10 1.06138E-09
 -1       275-3.79582E+06-5.42923E+05-1.60150E+04-1.43689E+06-2.42835E-10-2.84490E-09
 -1       276-3.76775E+06-5.74277E+05-8.47082E+03-1.47045E+06-6.90306E-10-3.53612E-09
 -1       277-3.79739E+06-5.42803E+05-4.34621E+03-1.43591E+06-1.66892E-10 6.59384E-12
 -1       278-3.76607E+06-5.74461E+05-3.41509E+03-1.47183E+06-5.93445E-11 2.18088E-09
 -1       279-3.79764E+06-5.42560E+05-4.09237E+03-1.43565E+06-2.78163E-10 2.87719E-09
 -1       280-3.76686E+06-5.75080E+05-7.79470E+03-1.47158E+06-8.33950E-10 2.38470E-09
 -1       281-3.79659E+06-5.42270E+05-1.46106E+04-1.43612E+06-5.28189E-10-2.65209E-09
 -1       282-3.77420E+06-5.82017E+05-3.45069E+04-1.46892E+06-6.96218E-10-3.39787E-09
 -1       283-3.79032E+06-5.36794E+05-6.27801E+04-1.43781E+06-2.44836E-09 2.43745E-09
 -1       284-3.82956E+06-6.58564E+05-1.68111E+05-1.45429E+06-5.91172E-10 3.05772E-09
 -1       285-3.74284E+06-4.77486E+05-2.66293E+05-1.44628E+06-2.12822E-09 4.08909E-09
 -1       286-5.98737E+05-1.50351E+04 3.49231E+04-2.10597E+03 2.20714E-09-1.96269E-09
 -1       287-5.83152E+05 1.74167E+04 2.47534E+04 2.26445E+03 1.79149E-09 4.49563E-09
 -1       288-5.93016E+05-2.35603E+03 9.00660E+03-6.39745E+02 1.33292E-09-1.30285E-09
 -1       289-5.89870E+05 2.72530E+03 5.76312E+03-8.71625E+02-2.09226E-10-7.34644E-10
 -1       290-5.92024E+05-3.74558E+02 2.30835E+03 1.03017E+03-1.38812E-10 1.19519E-09
 -1       291-5.91159E+05 4.41198E+02 1.46659E+03-3.75170E+03 2.07686E-09-1.41046E-09
 -1       292-5.91740E+05-6.81719E+01 7.43764E+02 2.24037E+03 1.46217E-09-4.28287E-10
 -1       293-5.91492E+05 1.48801E+02 7.03740E+02-5.24074E+03 6.16318E-10 2.47477E-09
 -1       294-5.91702E+05-7.46523E+01 8.32276E+02 2.51925E+03 2.44582E-09-1.13201E-09
 -1       295-5.91235E+05 5.15668E+02 1.67424E+03-4.75886E+03 2.24216E-09-3.50755E-09
 -1       296-5.91992E+05-4.37356E+02 2.73757E+03 1.75847E+03 9.14923E-10 3.75826E-09
 -1       297-5.89692E+05 3.22153E+03 6.78473E+03-2.49492E+03 1.38868E-09 5.92229E-09
 -1       298-5.93230E+05-2.78559E+03 1.06615E+04 2.55269E+02 3.38218E-11 1.98361E-09
 -1       299-5.81581E+05 2.06085E+04 2.92932E+04 6.52686E+02-5.61059E-10-7.22684E-09
 -1       300-6.00087E+05-1.77946E+04 4.13141E+04-1.38920E+03-1.76044E-10-3.35604E-09
 -1       301 5.08327E+04 2.09654E+04 1.11325E+05-3.08722E+04 2.77214E-09 2.90152E-09
 -1       302 1.72238E+04 4.17746E+04 6.78225E+04-3.62888E+04 2.37378E-09-2.36039E-09
 -1       303 4.88212E+03 2.83746E+04 5.38334E+04-3.09559E+04 2.90947E-09-4.37399E-09
 -1       304 2.16157E+04 4.43552E+04 7.95284E+04-3.62481E+04 2.15095E-09-1.60719E-09
 -1       305 6.50927E+04 1.84081E+04 1.39741E+05-3.08801E+04 2.47383E-09 6.38465E-10
 -1       306-2.55941E+06-3.32212E+05-1.72055E+05-9.92137E+05 7.03949E-10-4.80213E-09
 -1       307-2.60348E+06-4.60450E+05-1.08515E+05-1.01049E+06-2.20325E-10 2.09184E-09
 -1       308-2.59042E+06-3.70049E+05-4.06026E+04-9.86349E+05-8.41737E-10 4.03998E-09
 -1       309-2.56743E+06-4.11603E+05-2.22890E+04-1.02068E+06 2.91038E-10 5.02678E-09
 -1       310-2.59472E+06-3.73312E+05-9.47075E+03-9.85031E+05 1.60708E-09 1.02682E-09
 -1       311-2.56244E+06-4.07492E+05-5.05476E+03-1.02293E+06 2.80852E-09 2.83080E-10
 -1       312-2.59558E+06-3.73302E+05-2.68933E+03-9.84547E+05 7.96945E-10 1.38704E-09
 -1       313-2.56172E+06-4.07373E+05-2.29688E+03-1.02347E+06 3.20787E-09-6.02654E-10
 -1       314-2.59554E+06-3.73325E+05-2.98931E+03-9.84580E+05 1.13369E-09-1.04569E-09
 -1       315-2.56265E+06-4.07493E+05-5.88148E+03-1.02278E+06-2.65322E-09-5.37534E-09
 -1       316-2.59453E+06-3.73312E+05-1.11471E+04-9.85129E+05-9.89075E-10-5.63705E-09
 -1       317-2.56846E+06-4.12471E+05-2.63216E+04-1.02028E+06-1.43973E-09-4.66889E-09
 -1       318-2.58956E+06-3.69342E+05-4.79597E+04-9.86572E+05-8.49013E-10-3.52156E-09
 -1       319-2.61082E+06-4.70483E+05-1.28230E+05-1.00862E+06 2.57387E-10-1.54614E-10
 -1       320-2.55310E+06-3.24405E+05-2.03257E+05-9.93192E+05 7.27596E-11 2.47383E-10
 -1       321-5.23156E+05-2.15374E+04 4.76077E+04 3.31336E+03-7.53403E-10 1.57161E-09
 -1       322-4.89815E+05 2.48707E+04 3.59066E+04-1.61974E+04 5.20538E-09 5.67979E-10
 -1       323-5.11806E+05-3.40561E+03 1.22040E+04 9.29639E+03-3.12002E-09 3.76258E-09
 -1       324-5.04886E+05 4.02800E+03 8.23120E+03-2.46931E+04-1.72232E-08 2.43062E-10
 -1       325-5.08403E+05-4.99892E+02 3.24003E+03 1.18110E+04 1.31631E-09 5.61658E-09
 -1       326-5.07006E+05 7.77296E+02 2.06369E+03-2.53683E+04 1.67186E-09 4.22563E-09
 -1       327-5.09719E+05-1.37643E+02 5.04949E+02 9.97193E+03-9.35358E-09 3.18670E-09
 -1       328-5.02227E+05 2.88460E+02 1.58490E+03-1.79303E+04-9.11086E-10-5.79313E-10
 -1       329-5.12900E+05-2.28434E+02-8.37264E+02 4.37077E+03-3.88104E-09-7.61275E-10
 -1       330-4.97921E+05 2.10909E+02 1.94664E+03-4.82410E+03-8.69994E-09 2.83621E-09
 -1       331-5.13779E+05-2.49413E+02-1.44114E+03-3.13222E+03-5.77313E-09 2.11796E-09
 -1       332-4.99833E+05-5.82308E+01 9.02729E+02 9.51650E+03 1.79198E-08-1.54951E-09
 -1       333-5.11082E+05 1.11519E+02-1.96450E+03-9.96686E+03 1.14646E-08-4.14104E-10
 -1       334-5.06591E+05-2.10392E+03-3.02446E+03 2.02247E+04 1.69802E-08 1.95774E-09
 -1       335-5.07339E+05 2.03637E+03-5.25541E+03-1.38436E+04-1.36435E-08 3.95107E-09
 -1       336-2.39904E+02-1.04332E+06-4.55307E+02-5.54171E+03-1.47429E-09 4.40014E-09
 -1       337-6.06504E+02-1.04369E+06-4.28594E+03-2.77325E+04-1.01949E-09-1.82172E-09
 -1       338 8.95358E+02-1.04244E+06-9.39237E+03-5.33926E+03-1.79944E-09-1.94314E-09
 -1       339-1.18393E+04-1.05043E+06-2.42345E+04-2.79939E+04-6.76664E-10-5.03496E-09
 -1       340 8.85297E+03-1.03666E+06-3.81700E+04-5.28501E+03-1.67711E-09-7.14820E-10
 -1       341-1.50083E+06-2.28436E+05-6.31888E+04-6.19193E+05-2.07801E-08 5.42423E-09
 -1       342-1.58892E+06-1.47247E+05-3.15193E+04-4.55262E+05-3.92929E-08-1.21327E-09
 -1       343-1.48127E+06-2.51129E+05-1.44963E+04-6.20161E+05 1.27133E-08 4.34284E-09
 -1       344-1.50972E+06-1.52336E+05 6.50586E+03-4.83903E+05 2.28973E-08 9.84073E-10
 -1       345-1.57822E+06-2.25070E+05-1.71605E+04-5.88994E+05 9.60426E-10-2.83512E-09
 -1       346-1.41245E+06-2.35160E+05 1.44686E+04-5.83400E+05-1.98438E-08-3.45381E-09
 -1       347-1.57809E+06-1.68726E+05-4.07925E+03-5.20354E+05-2.79535E-08 1.33223E-08
 -1       348-1.41298E+06-2.86825E+05 4.84702E+03-6.50825E+05 2.38240E-08 2.68936E-08
 -1       349-1.58001E+06-1.71118E+05-5.88878E+03-5.23512E+05 1.56144E-08 8.32188E-09
 -1       350-1.41520E+06-2.30943E+05 1.22159E+04-5.76540E+05-2.72217E-08-3.52202E-09
 -1       351-1.57339E+06-2.27045E+05-2.21223E+04-5.92567E+05-5.60931E-09 2.97405E-10
 -1       352-1.52230E+06-1.56192E+05-8.50876E+03-4.78964E+05-7.68310E-09 6.39329E-09
 -1       353-1.47372E+06-2.45127E+05-3.65770E+04-6.21691E+05-1.01772E-09 4.56203E-09
 -1       354-1.61332E+06-1.96067E+05-9.84369E+04-4.47339E+05 3.06572E-08 4.23461E-09
 -1       355-1.48396E+06-1.85767E+05-1.61223E+05-6.25509E+05 8.16362E-09-2.60479E-09
 -1       356-5.28599E+05 2.85945E+03-7.14350E+03-1.53357E+04-8.32713E-10 6.31644E-10
 -1       357-5.30001E+05-2.99485E+03-4.58853E+03 2.43400E+04-2.45930E-08 1.52795E-10
 -1       358-5.32449E+05 2.52014E+02-2.39320E+03-1.21680E+04-1.27563E-08-1.94132E-09
 -1       359-5.22012E+05-1.47556E+02 5.01562E+02 1.41232E+04 5.67343E-09-3.65287E-09
 -1       360-5.36219E+05-2.65275E+02-1.81669E+03-5.11412E+03 1.33616E-09-2.64271E-09
 -1       361-5.18101E+05 2.17590E+02 1.92929E+03-1.43873E+03 1.31147E-08-2.47973E-09
 -1       362-5.36157E+05-2.68362E+02-1.72354E+03 3.39161E+03-4.35125E-09 1.91446E-09
 -1       363-5.22060E+05 8.87161E+01 7.46097E+02-1.68679E+04 7.23298E-09 3.26604E-09
 -1       364-5.32481E+05 3.36093E+01-2.01135E+03 1.03115E+04 1.04245E-08 4.84073E-09
 -1       365-5.29016E+05-8.49286E+02-3.08396E+03-2.67137E+04-3.03445E-08 2.82319E-09
 -1       366-5.29565E+05 9.47193E+02-5.94005E+03 1.32399E+04 1.27959E-08 3.25599E-10
 -1       367-5.32629E+05-6.74081E+03-1.44447E+04-2.75971E+04 2.39287E-08 5.74801E-10
 -1       368-5.28913E+05 5.94673E+03-2.38224E+04 1.11954E+04 7.25208E-09 5.48880E-09
 -1       369-5.44159E+05-4.44724E+04-6.25782E+04-1.90984E+04 1.91596E-08 5.22141E-09
 -1       370-5.17707E+05 3.83561E+04-9.19265E+04 4.73814E+03 8.29596E-09 4.98403E-09
 -1       371-1.29593E+04-1.88665E+05 1.96552E+04-1.28270E+04 2.16623E-08-2.15232E-09
 -1       372 1.21007E+04-1.33503E+05 1.92225E+04 6.40404E+04-1.34105E-09 1.89266E-09
 -1       373 2.15808E+02-1.65471E+05 9.25540E+01-1.61102E+04-2.61298E-09 1.53511E-09
 -1       374-9.76986E+03-1.63120E+05-1.17146E+04 6.74712E+04-1.19799E-08-4.97593E-10
 -1       375 9.66510E+03-1.60138E+05-2.23332E+04-1.62500E+04-4.55657E-09-3.40685E-09
 -1       376-5.73883E+05-9.77261E+04-2.13988E+04-2.46811E+05 6.12713E-08-5.23141E-09
 -1       377-6.22718E+05-4.48375E+04-9.94252E+03-1.66954E+05 5.27016E-08 6.49766E-09
 -1       378-5.59274E+05-1.05089E+05-4.05046E+03-2.46797E+05-4.51516E-08 1.43928E-08
 -1       379-6.13220E+05-3.99169E+04 4.83405E+02-1.68526E+05-4.25312E-08-1.33792E-08
 -1       380-5.83196E+05-1.02769E+05-4.70304E+03-2.45096E+05-8.64861E-09 5.27450E-09
 -1       381-5.54970E+05-5.49536E+04 1.04306E+04-1.80234E+05 1.29081E-08 6.61970E-09
 -1       382-6.15946E+05-9.12134E+04-8.20423E+03-2.33853E+05 7.89578E-09 1.31536E-09
 -1       383-5.17698E+05-8.54688E+04 1.17306E+04-2.14032E+05 1.19621E-08 8.77094E-11
 -1       384-6.20175E+05-7.24790E+04-6.00474E+03-2.11133E+05-4.25446E-08 5.23636E-09
 -1       385-5.27262E+05-1.16891E+05 2.21956E+03-2.55300E+05-5.18769E-08 2.38225E-09
 -1       386-6.07909E+05-5.86607E+04-4.46505E+03-1.93737E+05 2.19781E-08 1.94848E-08
 -1       387-5.38864E+05-1.31078E+05-1.03537E+04-2.67873E+05 3.61274E-08 1.03137E-08
 -1       388-6.09284E+05-5.77729E+04-2.04401E+04-1.99065E+05 9.57724E-08 1.01545E-08
 -1       389-5.41738E+05-1.43099E+05-4.71642E+04-2.34165E+05 8.99099E-08 3.70619E-09
 -1       390-6.03693E+05-4.76963E+04-8.78141E+04-2.26448E+05 6.29097E-09-2.28101E-09
 -1       406 1.65335E+03 5.17912E+05 3.31376E+03-5.47651E+04-1.62618E-09-2.86855E-09
 -1       407 9.83253E+02 5.18484E+05 3.63993E+03-6.02613E+04 4.53838E-10-7.79391E-09
 -1       408 1.40049E+03 5.17831E+05 5.67532E+03-5.45805E+04-1.84400E-09-2.92039E-09
 -1       409 5.48285E+03 5.19985E+05 1.19821E+04-6.05068E+04 4.46562E-10-2.34650E-09
 -1       410 1.57547E+04 5.16288E+05 2.40477E+04-5.45016E+04-2.30102E-09 7.92625E-10
 -1       466 1.39167E+06-5.61278E+04 1.25256E+05 3.15815E+04-9.06539E-10-1.16343E-08
 -1       467 1.47599E+06 6.41363E+04 9.35840E+04-5.08539E+04-1.88470E-09 1.18234E-09
 -1       468 1.42503E+06-8.30515E+03 3.29782E+04 8.73929E+03-5.35749E-10-2.59206E-09
 -1       469 1.43720E+06 9.53388E+03 2.11406E+04-2.01253E+04-3.79714E-11-1.07570E-09
 -1       470 1.42986E+06-1.24243E+03 8.68552E+03 8.48908E+02-4.44572E-10 1.69530E-09
 -1       471 1.43162E+06 1.50125E+03 5.43053E+03-9.54929E+03 1.13943E-10 4.81174E-09
 -1       472 1.43054E+06-2.37900E+02 3.13201E+03-1.83696E+03-9.34413E-10 4.75370E-09
 -1       473 1.43100E+06 6.67294E+02 3.36088E+03-6.16983E+03-1.79777E-09-4.95200E-09
 -1       474 1.43046E+06-4.03787E+02 4.51595E+03-2.53059E+03-2.19742E-09 2.48565E-09
 -1       475 1.43217E+06 2.91286E+03 9.42195E+03-5.94948E+03 4.84164E-10 2.57069E-09
 -1       476 1.42937E+06-2.47981E+03 1.59045E+04-2.05730E+03 1.01788E-09 4.44379E-09
 -1       477 1.43992E+06 1.85292E+04 3.88786E+04-8.63001E+03-5.80883E-10-1.49157E-10
 -1       478 1.42269E+06-1.59964E+04 6.19137E+04 1.50047E+02-7.17506E-11 3.07045E-09
 -1       479 1.48751E+06 1.19003E+05 1.69155E+05-1.76103E+04 2.57661E-09 2.50475E-09
 -1       480 1.38178E+06-1.02780E+05 2.38940E+05 6.92227E+03 4.00098E-09 2.03727E-09
 -1       481-1.24225E+04 2.60382E+05 2.39960E+04-1.41577E+04-1.14596E-10-2.41243E-10
 -1       482 1.40896E+04 2.97653E+05 2.24557E+04 4.37033E+04-3.82670E-10 9.66816E-09
 -1       483-2.11305E+03 2.74256E+05 8.42764E+03-9.87113E+03-3.88809E-11 3.29533E-09
 -1       484 5.78377E+03 2.82043E+05 1.01470E+04 3.84529E+04 1.57527E-10 4.80838E-10
 -1       485-3.70089E+03 2.75364E+05 9.58426E+03-8.90144E+03 2.77396E-11 5.51154E-10
 -1       486-1.28754E+06-2.16393E+05-1.38965E+05-6.04235E+05-5.10045E-09-1.19035E-08
 -1       487-1.43590E+06-6.60236E+04-6.50382E+04-2.76636E+05 7.39965E-09 3.43716E-08
 -1       488-1.30458E+06-2.54128E+05-3.97574E+04-5.97200E+05 5.13967E-09-5.26234E-09
 -1       489-1.16906E+06-6.79517E+04 3.89622E+04-3.12896E+05 3.98188E-09-3.77167E-09
 -1       490-1.54614E+06-2.22026E+05-5.55697E+04-5.60957E+05 8.62565E-09 3.07045E-09
 -1       491-1.01381E+06-2.11403E+05 5.30149E+04-4.91388E+05-5.11773E-09 2.12827E-08
 -1       492-1.45952E+06-1.10955E+05-1.19688E+04-4.18968E+05-1.54614E-10-9.47193E-09
 -1       493-1.10749E+06-3.13582E+05 1.73393E+04-6.38933E+05-4.35060E-09 4.00206E-09
 -1       494-1.46102E+06-1.11856E+05-1.22640E+04-4.20086E+05 7.69251E-09 1.37670E-08
 -1       495-1.01354E+06-2.09555E+05 5.38622E+04-4.89255E+05 1.44189E-08-3.00998E-08
 -1       496-1.54481E+06-2.23067E+05-5.45588E+04-5.61886E+05-2.24099E-09-1.06302E-08
 -1       497-1.17237E+06-6.57682E+04 4.07983E+04-3.12492E+05 5.35817E-09-9.00445E-09
 -1       498-1.30271E+06-2.55169E+05-3.53092E+04-5.96761E+05-4.34511E-10-2.79470E-08
 -1       499-1.43100E+06-5.77122E+04-5.33252E+04-2.78224E+05-1.20326E-09-3.35522E-08
 -1       500-1.29430E+06-2.23656E+05-1.22663E+05-6.03086E+05-2.79251E-08 2.33049E-08
 -1       501-6.28356E+05-2.49429E+04 5.79256E+04-1.91048E+03 1.69305E-09 1.93540E-09
 -1       502-6.02480E+05 2.88896E+04 4.10561E+04 1.51943E+03 1.01068E-09 2.62298E-09
 -1       503-6.18783E+05-3.90568E+03 1.49317E+04 7.33728E+01 1.01750E-11-2.70029E-09
 -1       504-6.13793E+05 4.51565E+03 9.49351E+03-2.40887E+03-4.28770E-10-4.61853E-09
 -1       505-6.17065E+05-6.13539E+02 3.78160E+03 2.01788E+03 1.28856E-09-3.31511E-09
 -1       506-6.15967E+05 7.11180E+02 2.24794E+03-5.44491E+03 2.26663E-09 1.30328E-09
 -1       507-6.16630E+05-9.39301E+01 9.64724E+02 3.10947E+03 2.35988E-09 2.47218E-09
 -1       508-6.16419E+05 1.20954E+02 5.44953E+02-6.33159E+03 1.53711E-09-2.14853E-09
 -1       509-6.16621E+05-1.80967E+01 2.46330E+02 2.90459E+03 2.80161E-09 6.54126E-10
 -1       510-6.16231E+05 4.00826E+01 2.13668E+02-4.70784E+03 1.48875E-09-2.70191E-10
 -1       511-6.16805E+05-2.35726E+01 6.67885E+01 1.48566E+03 2.11088E-10 2.19872E-09
 -1       512-6.15944E+05 8.38915E+01 2.71393E+02-1.22794E+03 1.49403E-09 1.05011E-09
 -1       513-6.16893E+05-7.36294E+01 1.66471E+02-5.75351E+02 1.66165E-09-1.51584E-09
 -1       514-6.15874E+05 4.37033E+02 6.81424E+02 2.70474E+03 3.35021E-10 3.86983E-10
 -1       515-6.16880E+05-3.72120E+02 7.96359E+02-2.44706E+03-1.23725E-09-1.67802E-10
 -1       516-6.13169E+04 3.03346E+05 1.44217E+05-8.88957E+03-5.89353E-10 1.69860E-09
 -1       517 7.39268E+04 3.68483E+05 1.07639E+05 3.56357E+04-9.09495E-10 4.20779E-09
 -1       518-1.25389E+04 3.24545E+05 4.83317E+04-9.60540E+03-5.52973E-10 4.60665E-09
 -1       519 3.52715E+04 3.60045E+05 5.82855E+04 4.09789E+04-1.89732E-09-2.70956E-09
 -1       520-2.30812E+04 3.12272E+05 5.36801E+04-1.42376E+04-1.09139E-09-1.07236E-08
 -1       521-3.59942E+06-4.60648E+05-2.51857E+05-1.39095E+06 1.01136E-09-1.33878E-09
 -1       522-3.67847E+06-6.34544E+05-1.58950E+05-1.40164E+06-1.12948E-09-1.10231E-09
 -1       523-3.64461E+06-5.16389E+05-5.93859E+04-1.38261E+06 4.38490E-10-3.78350E-10
 -1       524-3.62570E+06-5.62687E+05-3.26149E+04-1.41614E+06-1.58389E-09-2.54659E-11
 -1       525-3.65079E+06-5.21313E+05-1.38061E+04-1.38076E+06 7.03494E-10-8.66748E-10
 -1       526-3.61844E+06-5.56513E+05-7.32087E+03-1.41917E+06 2.40698E-09 3.75678E-09
 -1       527-3.65195E+06-5.21398E+05-3.77472E+03-1.38013E+06-1.68484E-10 3.90787E-09
 -1       528-3.61743E+06-5.56195E+05-3.01779E+03-1.41976E+06-3.00088E-09 4.07169E-09
 -1       529-3.65185E+06-5.21516E+05-3.68184E+03-1.38024E+06-8.04448E-10 3.24189E-09
 -1       530-3.61877E+06-5.56073E+05-7.05274E+03-1.41865E+06-2.61207E-09 2.07729E-09
 -1       531-3.65049E+06-5.21678E+05-1.32742E+04-1.38111E+06 3.54703E-11 1.19417E-09
 -1       532-3.62617E+06-5.61545E+05-3.13086E+04-1.41519E+06-4.10864E-10-1.58252E-10
 -1       533-3.64431E+06-5.17202E+05-5.70184E+04-1.38314E+06-1.87083E-09-3.31056E-09
 -1       534-3.67727E+06-6.30031E+05-1.52561E+05-1.40070E+06 1.58798E-09-1.04046E-09
 -1       535-3.60069E+06-4.63960E+05-2.41765E+05-1.39142E+06 1.81899E-10 3.05590E-10
 -1       536 6.70208E+04-1.50339E+04 6.44593E+04-9.01269E+03 8.64929E-10 2.47383E-10
 -1       537 9.06556E+04 2.00897E+04 4.13271E+04-3.52565E+04-3.09274E-09 3.79077E-09
 -1       538 7.67053E+04-1.62463E+03 1.66730E+04-8.92062E+03-6.09361E-11-6.63931E-10
 -1       539 7.96068E+04 1.91051E+03 9.32501E+03-3.53265E+04 1.73941E-09-5.22914E-09
 -1       540 7.77727E+04-2.11094E+02 4.19735E+03-8.93479E+03 3.34694E-10 3.45381E-10
 -1       541 7.82081E+04 1.72219E+02 2.22148E+03-3.52943E+04-5.21595E-10-3.03839E-09
 -1       542 7.78923E+04-3.18173E+01 1.03992E+03-8.95315E+03 1.55978E-10-1.77886E-09
 -1       543 7.79462E+04 3.50919E+01 5.28197E+02-3.52663E+04-2.54659E-11-2.62162E-09
 -1       544 7.79029E+04 3.83159E+00 2.30177E+02-8.96296E+03 2.31989E-09-2.20143E-09
 -1       545 7.78765E+04 2.84735E+01 6.65298E+01-3.52550E+04 5.42485E-09 2.55267E-09
 -1       546 7.79099E+04 1.30321E+01-6.48532E+01-8.96439E+03 2.57864E-09 2.49213E-09
 -1       547 7.78525E+04-3.66566E+01-2.54585E+02-3.52560E+04-6.95763E-10 1.35037E-09
 -1       548 7.79542E+04 4.20255E+01-5.08635E+02-8.96202E+03-2.59206E-10-8.55607E-10
 -1       549 7.75941E+04-6.31585E+02-1.27314E+03-3.52036E+04-2.13504E-10-1.77613E-09
 -1       550 7.82751E+04 4.24116E+02-2.02402E+03-9.01671E+03-3.20142E-10-1.31024E-10
 -1       551 1.68990E+04-3.46347E+05 3.37701E+04-5.25493E+05 3.82352E-09-1.65528E-09
 -1       552 9.32756E+03-3.41252E+05 2.66369E+04-6.14933E+05 3.14685E-09 2.81580E-09
 -1       553 6.38817E+03-3.46221E+05 3.09021E+04-5.24609E+05 4.04907E-09 2.06455E-09
 -1       554 2.12830E+04-3.34727E+05 5.79801E+04-6.15078E+05 3.83079E-09-5.69344E-10
 -1       555 5.54159E+04-3.53810E+05 1.09862E+05-5.25214E+05 3.68527E-09-1.82081E-09
 -1       556-2.58088E+05-1.35650E+05 2.16329E+04-2.42257E+05 4.34738E-09 1.54978E-09
 -1       557-2.37852E+05-1.57636E+05 1.06596E+04-2.58137E+05 7.89805E-09 3.98768E-09
 -1       558-2.58814E+05-1.42738E+05 4.45224E+03-2.38102E+05-1.21508E-09-7.52243E-09
 -1       559-2.40146E+05-1.61103E+05 2.19726E+03-2.59101E+05 3.85626E-10 7.59655E-10
 -1       560-2.59293E+05-1.42673E+05 9.60620E+02-2.38201E+05-4.22006E-10-1.53750E-09
 -1       561-2.40783E+05-1.61069E+05 4.59592E+02-2.59558E+05-4.00178E-10 1.98850E-09
 -1       562-2.59650E+05-1.42444E+05 1.52106E+02-2.38436E+05-1.11322E-09 7.39192E-10
 -1       563-2.41132E+05-1.60919E+05-2.24141E+01-2.59806E+05 5.60249E-10-1.26943E-09
 -1       564-2.59846E+05-1.42308E+05-2.36764E+02-2.38573E+05 3.89264E-10-2.55477E-09
 -1       565-2.41313E+05-1.60849E+05-5.93192E+02-2.59919E+05 2.06455E-09 6.26278E-09
 -1       566-2.59858E+05-1.42260E+05-1.27170E+03-2.38603E+05-2.73951E-09-4.54929E-09
 -1       567-2.41523E+05-1.60991E+05-2.81476E+03-2.59881E+05-5.41149E-10-1.86265E-09
 -1       568-2.59584E+05-1.42733E+05-5.79770E+03-2.38342E+05-8.38554E-10 2.52658E-09
 -1       569-2.44558E+05-1.64577E+05-1.36738E+04-2.58891E+05-3.34694E-10-1.47338E-10
 -1       570-2.58252E+05-1.53489E+05-2.79338E+04-2.33735E+05-1.45519E-10-3.04499E-09
 -1       571 3.30925E+05 1.62006E+04 2.48953E+04-8.63783E+04 2.31012E-10 1.82854E-09
 -1       572 3.34720E+05 5.51240E+03 1.22308E+04-9.52238E+04 9.74978E-10-1.64437E-09
 -1       573 3.32432E+05 1.22166E+03 5.44169E+03-8.61374E+04 1.51886E-09 3.26690E-09
 -1       574 3.32867E+05 3.76894E+02 2.73361E+03-9.54829E+04 7.02585E-10 3.22416E-09
 -1       575 3.32578E+05 2.89292E+01 1.29365E+03-8.61077E+04-6.57565E-10 2.29193E-09
 -1       576 3.32616E+05-7.41359E-01 6.62005E+02-9.55163E+04-8.93806E-10 2.51021E-10
 -1       577 3.32600E+05-2.26418E+01 3.31263E+02-8.61039E+04-1.95087E-10 1.46429E-09
 -1       578 3.32600E+05-1.99182E+01 1.89843E+02-9.55206E+04-2.11458E-11 3.08319E-10
 -1       579 3.32639E+05-3.42889E+01 1.31982E+02-8.61035E+04 1.79170E-10 9.01309E-10
 -1       580 3.32660E+05-4.58867E+01 1.49891E+02-9.55166E+04 1.06229E-09 6.77574E-10
 -1       581 3.32712E+05-6.57561E+01 2.31282E+02-8.61078E+04-2.49202E-10-1.91267E-09
 -1       582 3.32803E+05-3.69173E+01 4.61511E+02-9.54666E+04 2.40107E-10 7.93989E-10
 -1       583 3.32796E+05 6.85878E+01 8.95815E+02-8.61535E+04 9.18590E-10 1.78625E-09
 -1       584 3.33246E+05 7.42081E+02 2.01287E+03-9.50690E+04-2.54568E-09 1.34423E-09
 -1       585 3.32674E+05 2.47525E+03 4.08103E+03-8.65088E+04-4.34738E-10-6.65750E-10
 -1       586 2.95921E+03 1.37523E+05 5.12436E+03-2.17731E+05 4.81123E-10-7.23048E-10
 -1       587 1.69674E+03 1.38319E+05 4.82660E+03-2.40694E+05 7.56700E-10-4.28190E-09
 -1       588 1.91858E+03 1.37403E+05 6.78011E+03-2.17453E+05 5.20231E-10-9.17453E-10
 -1       589 6.55718E+03 1.39941E+05 1.38376E+04-2.40761E+05 7.93079E-10-3.14731E-09
 -1       590 1.81925E+04 1.35769E+05 2.75220E+04-2.17654E+05 6.72117E-10-7.06677E-10
 -1       591-1.54312E+05-5.33119E+04-2.91409E+04-8.00696E+04-6.26187E-09 2.15550E-09
 -1       592-1.55148E+05-4.97414E+04-1.42847E+04-8.87985E+04-1.13685E-08-2.53635E-09
 -1       593-1.55162E+05-4.24666E+04-6.06055E+03-8.50226E+04-1.51354E-08-3.37377E-09
 -1       594-1.52045E+05-4.57943E+04-2.96434E+03-8.93418E+04-1.47772E-08 1.47948E-08
 -1       595-1.55306E+05-4.20601E+04-1.36514E+03-8.52485E+04-1.48082E-08 5.71822E-09
 -1       596-1.51813E+05-4.56361E+04-6.93472E+02-8.93258E+04-1.24560E-08-5.45765E-09
 -1       597-1.55335E+05-4.20789E+04-3.80096E+02-8.52511E+04-4.89501E-09 2.76259E-09
 -1       598-1.51790E+05-4.56381E+04-3.08866E+02-8.93157E+04-3.59250E-10 3.66913E-09
 -1       599-1.55330E+05-4.20802E+04-3.98261E+02-8.52490E+04-7.77163E-10 2.40425E-09
 -1       600-1.51809E+05-4.56392E+04-7.41489E+02-8.93208E+04-1.11959E-09 3.89900E-09
 -1       601-1.55291E+05-4.20632E+04-1.46684E+03-8.52418E+04-1.37152E-09 4.68663E-09
 -1       602-1.52054E+05-4.58099E+04-3.18961E+03-8.93294E+04-5.97083E-10-7.94898E-10
 -1       603-1.55127E+05-4.25078E+04-6.52249E+03-8.49975E+04 2.46655E-09-8.43102E-10
 -1       604-1.55411E+05-5.00337E+04-1.53724E+04-8.87100E+04 9.70977E-09 6.75254E-09
 -1       605-1.54182E+05-5.41982E+04-3.13591E+04-7.96874E+04 8.19000E-10-9.12041E-09
 -1       606 1.06653E+05-1.31994E+04-2.02285E+04 3.10346E+04-6.67569E-09 1.20144E-09
 -1       607 1.03504E+05-4.49076E+03-9.93343E+03 3.38831E+04-1.74896E-09-4.55293E-09
 -1       608 1.05335E+05-9.91869E+02-4.42049E+03 3.08224E+04 5.04224E-09-1.65755E-10
 -1       609 1.04912E+05-2.72931E+02-2.21555E+03 3.41122E+04-2.76486E-09 2.24645E-09
 -1       610 1.05148E+05 1.61903E+01-1.04623E+03 3.07954E+04-7.07587E-09 2.16596E-09
 -1       611 1.05060E+05 6.32506E+01-5.26677E+02 3.41408E+04-1.26111E-08 2.06433E-09
 -1       612 1.05100E+05 7.53104E+01-2.51081E+02 3.07924E+04-5.35692E-09 4.46016E-09
 -1       613 1.05062E+05 8.43576E+01-1.16609E+02 3.41443E+04-8.26731E-09 3.56022E-09
 -1       614 1.05075E+05 7.74763E+01-3.68819E+01 3.07917E+04-1.26329E-09-1.03660E-09
 -1       615 1.05051E+05 9.07686E+01 2.46263E+01 3.41444E+04 8.39464E-09 2.30375E-09
 -1       616 1.05056E+05 8.70373E+01 9.65277E+01 3.07921E+04-1.71121E-09 3.05590E-10
 -1       617 1.05057E+05 1.30771E+02 2.30810E+02 3.41433E+04 1.37766E-09 3.81556E-09
 -1       618 1.05029E+05 1.98388E+02 4.72030E+02 3.07926E+04 1.93131E-09 1.65983E-09
 -1       619 1.05205E+05 5.87082E+02 1.06817E+03 3.41387E+04 3.52543E-10-4.27303E-09
 -1       620 1.04886E+05 1.51472E+03 2.17779E+03 3.07938E+04-1.40699E-09-1.57661E-09
 -1       621 2.62075E+03 3.45458E+05 6.35658E+03-3.02646E+04 2.78055E-09-1.04887E-09
 -1       622 1.01506E+03 3.46659E+05 5.22630E+03-3.55544E+04 9.67475E-10-2.13890E-09
 -1       623 6.00271E+02 3.45732E+05 6.39140E+03-3.03048E+04 2.63299E-09 2.17824E-09
 -1       624 3.64915E+03 3.48230E+05 1.22694E+04-3.53867E+04 1.30376E-09 4.45471E-09
 -1       625 1.11790E+04 3.43941E+05 2.34405E+04-3.04285E+04 2.69529E-09-7.36691E-10
 -1       626 1.51886E+05 4.95395E+04-8.88350E+03 1.02981E+05-2.53749E-10 1.06775E-08
 -1       627 1.47726E+05 5.58549E+04-4.21370E+03 1.04898E+05-2.47292E-09 4.12535E-09
 -1       628 1.52065E+05 5.39050E+04-1.77123E+03 1.00845E+05-4.49290E-10-2.23054E-10
 -1       629 1.48372E+05 5.76592E+04-8.49652E+02 1.04731E+05-6.45196E-09-8.45027E-09
 -1       630 1.52035E+05 5.42104E+04-3.75330E+02 1.00664E+05-1.51886E-10-1.24533E-09
 -1       631 1.48406E+05 5.77963E+04-1.67832E+02 1.04722E+05-4.55657E-09-1.07493E-08
 -1       632 1.52007E+05 5.42253E+04-4.73041E+01 1.00642E+05-6.37738E-09-7.64373E-09
 -1       633 1.48400E+05 5.78062E+04 4.10081E+01 1.04718E+05-3.09410E-09 3.61877E-09
 -1       634 1.51988E+05 5.42200E+04 1.49964E+02 1.00636E+05 2.32376E-09-8.11724E-11
 -1       635 1.48413E+05 5.78117E+04 3.57830E+02 1.04719E+05-2.52840E-09 5.54337E-10
 -1       636 1.51970E+05 5.42363E+04 7.50064E+02 1.00624E+05-1.25316E-08-5.82077E-09
 -1       637 1.48593E+05 5.80128E+04 1.67858E+03 1.04689E+05-1.13594E-08 7.22139E-10
 -1       638 1.51932E+05 5.48433E+04 3.47957E+03 1.00359E+05-2.75259E-09-2.80170E-09
 -1       639 1.50370E+05 6.11008E+04 8.28012E+03 1.03936E+05-1.15306E-08-2.34741E-09
 -1       640 1.52017E+05 6.37753E+04 1.74512E+04 9.66418E+04-3.78122E-09 1.00135E-09
 -1       641 4.21369E+03 3.11549E+03-7.25254E+03-1.77134E+02-6.21721E-09-3.66526E-10
 -1       642 1.10427E+03-3.60632E+03-5.11588E+03 7.66905E+02 2.04891E-09-2.00714E-10
 -1       643 3.00940E+03 4.85266E+02-1.87054E+03-1.73669E+02-1.42650E-08-2.18847E-10
 -1       644 2.50321E+03-5.58573E+02-1.15865E+03 7.61979E+02 8.89794E-09 3.94618E-09
 -1       645 2.81399E+03 7.37947E+01-4.47984E+02-1.72218E+02-9.97264E-10 3.82443E-10
 -1       646 2.73372E+03-7.61140E+01-2.11728E+02 7.59848E+02-2.97893E-07 2.33541E-10
 -1       647 2.77850E+03 3.88553E+00 9.66425E-01-1.71541E+02-3.93600E-05 8.40944E-08
 -1       648 2.79824E+03 4.36125E+01 2.00597E+02 7.59151E+02-7.82173E-05 1.68332E-07
 -1       649 2.74935E+03-4.56876E+01 4.54421E+02-1.71522E+02-3.93598E-05 9.00907E-08
 -1       650 2.96535E+03 3.52009E+02 1.09819E+03 7.59489E+02-2.76487E-07 2.51548E-09
 -1       651 2.61152E+03-3.04161E+02 1.91400E+03-1.71879E+02-6.11818E-09-3.14378E-09
 -1       652 3.90892E+03 2.26611E+03 4.72891E+03 7.59771E+02 3.23297E-09 2.68392E-09
 -1       653 1.80623E+03-1.95681E+03 7.54522E+03-1.71809E+02-7.22804E-09-3.16686E-09
 -1       654 9.59374E+03 1.45259E+04 2.06134E+04 7.54942E+02-3.77986E-09-1.84150E-09
 -1       655-3.07146E+03-1.25416E+04 2.91665E+04-1.67079E+02-4.39704E-09-4.42924E-09
 -1       656 1.03712E+04-3.96287E+05-4.67521E+04 1.12191E+04 9.26048E-09 1.05501E-09
 -1       657-1.53898E+04-4.13292E+05-3.40582E+04 4.25098E+04 9.20841E-09 6.78938E-09
 -1       658 1.98366E+03-4.02362E+05-2.16523E+04 1.11170E+04 9.34378E-09 8.68533E-09
 -1       659-1.40443E+04-4.12534E+05-3.16941E+04 4.25792E+04 6.52108E-09 8.78731E-09
 -1       660 9.31739E+03-3.97092E+05-4.22707E+04 1.11509E+04 6.65932E-09 2.18711E-09
 -1       661 3.88130E+05 4.97489E+04 3.18185E+04 1.51958E+05-1.18507E-09-4.31100E-10
 -1       662 3.95548E+05 7.43149E+04 2.00831E+04 1.56341E+05-7.15727E-09 2.40652E-09
 -1       663 3.93599E+05 5.70239E+04 7.51403E+03 1.51192E+05-1.61884E-09 1.06638E-09
 -1       664 3.89263E+05 6.48634E+04 4.13911E+03 1.57661E+05-1.11199E-08-2.32365E-09
 -1       665 3.94206E+05 5.78257E+04 1.76236E+03 1.51150E+05-1.23352E-08-2.14209E-09
 -1       666 3.88566E+05 6.38480E+04 9.58068E+02 1.57735E+05-6.02006E-09-6.45997E-10
 -1       667 3.94271E+05 5.79220E+04 5.35500E+02 1.51158E+05 2.11060E-09 4.09763E-10
 -1       668 3.88503E+05 6.37514E+04 5.04278E+02 1.57729E+05-1.00306E-08-2.97206E-09
 -1       669 3.94264E+05 5.79158E+04 7.07730E+02 1.51157E+05-2.18702E-09-2.68574E-09
 -1       670 3.88624E+05 6.39146E+04 1.43536E+03 1.57735E+05 2.13646E-08-1.13914E-10
 -1       671 3.94155E+05 5.77692E+04 2.72801E+03 1.51149E+05 8.48155E-09-6.27529E-09
 -1       672 3.89732E+05 6.54911E+04 6.46192E+03 1.57601E+05 6.79384E-09-3.93004E-09
 -1       673 3.93192E+05 5.65253E+04 1.17501E+04 1.51226E+05 3.02066E-10-2.07001E-09
 -1       674 3.99579E+05 8.02637E+04 3.14192E+04 1.55513E+05-8.64321E-09 1.38152E-09
 -1       675 3.84627E+05 4.51529E+04 4.97858E+04 1.52431E+05-3.37513E-09 3.06136E-09
 -1       676 1.04388E+03-3.73186E+05-5.43503E+03 4.50218E+02 6.67774E-09-2.58375E-10
 -1       677-2.05782E+03-3.75262E+05-5.88415E+03 1.86021E+02 2.38094E-09-3.82528E-10
 -1       678 6.45815E+02-3.73434E+05-6.97455E+03 4.49307E+02 7.76754E-09-1.06624E-10
 -1       679-7.36457E+03-3.78416E+05-1.52967E+04 1.85394E+02-4.75666E-10 1.09660E-09
 -1       680 5.31960E+03-3.70034E+05-2.32380E+04 4.49377E+02 1.11950E-08-4.81819E-10
 -1       681 5.89254E+05-1.57948E+04 3.64649E+04 2.60591E+03-5.39490E-09 6.76664E-10
 -1       682 6.06325E+05 1.82803E+04 2.60090E+04-1.01786E+04 2.73195E-09 1.71167E-09
 -1       683 5.95830E+05-2.45135E+03 9.46709E+03 4.45551E+02-4.54952E-09 1.22782E-09
 -1       684 5.98614E+05 2.85438E+03 5.99607E+03-7.13790E+03-1.84039E-07 2.50509E-09
 -1       685 5.96941E+05-3.77405E+02 2.48714E+03-4.34769E+02-2.51073E-05-6.34286E-08
 -1       686 5.97339E+05 4.70685E+02 1.55657E+03-6.24536E+03-4.98854E-05-1.32999E-07
 -1       687 5.97102E+05-6.76240E+01 9.09847E+02-4.46998E+02-2.51087E-05-6.56702E-08
 -1       688 5.97307E+05 1.91818E+02 1.00872E+03-7.08342E+03-1.83936E-07 1.70241E-09
 -1       689 5.96978E+05-1.02862E+02 1.33590E+03 4.03286E+02-4.90091E-09 1.16796E-09
 -1       690 5.98187E+05 7.97198E+02 2.93544E+03-1.00274E+04 6.15923E-09 1.71264E-09
 -1       691 5.96251E+05-6.91652E+02 4.70538E+03 2.49695E+03-4.20124E-09-8.51969E-10
 -1       692 6.02590E+05 5.38282E+03 1.21976E+04-1.64012E+04 5.71609E-09 1.51249E-09
 -1       693 5.92684E+05-4.75452E+03 1.82894E+04 6.77750E+03-4.32749E-09-3.40333E-09
 -1       694 6.24970E+05 3.62276E+04 5.31843E+04-2.92509E+04-4.50086E-09-2.85308E-09
 -1       695 5.74279E+05-3.17521E+04 7.03915E+04 1.53508E+04-5.69366E-09-8.13452E-09
 -1       696-1.19171E+04 4.94663E+05 2.71284E+04 1.18413E+03 5.45697E-11-2.05489E-10
 -1       697 1.26780E+04 5.06326E+05 1.71559E+04-7.31571E+03 1.20053E-10-7.89043E-10
 -1       698-7.26074E+02 4.99978E+05 2.77197E+03 3.81463E+02-1.78716E-10 1.25990E-09
 -1       699-6.38659E+03 4.97361E+05-7.78158E+03-6.56795E+03-3.90401E-10 4.35584E-09
 -1       700 7.11735E+03 5.03629E+05-1.57493E+04 4.36341E+02-2.12822E-10 1.53696E-09
 -1       701-5.34006E+05-5.18455E+04-6.85379E+04-2.15844E+05-5.82077E-10-2.35741E-09
 -1       702-5.76206E+05-1.01833E+05-4.65659E+04-1.89842E+05-6.52562E-10-1.23828E-09
 -1       703-5.42959E+05-7.88768E+04-1.60409E+04-2.14244E+05-1.66438E-10 2.23463E-09
 -1       704-5.65796E+05-7.05660E+04-9.86545E+03-1.91866E+05-4.10125E-09-3.00679E-09
 -1       705-5.44495E+05-8.30027E+04-3.75375E+03-2.13904E+05 3.04624E-09 2.28101E-09
 -1       706-5.59750E+05-6.80594E+04-1.84219E+03-1.94536E+05 1.78960E-09-5.84927E-09
 -1       707-5.48942E+05-8.14211E+04-1.43909E+03-2.11529E+05 5.44787E-10-1.28932E-09
 -1       708-5.50078E+05-7.37612E+04 4.19461E+01-2.01335E+05-7.02784E-10 5.41959E-10
 -1       709-5.54051E+05-7.73850E+04-1.65778E+03-2.07017E+05-1.25169E-10-5.21119E-10
 -1       710-5.42655E+05-8.26105E+04-1.37796E+03-2.10776E+05 3.12116E-09 1.25681E-10
 -1       711-5.56383E+05-7.25592E+04-4.08896E+03-2.02103E+05 8.23206E-10 6.09782E-09
 -1       712-5.42165E+05-9.33861E+04-9.82482E+03-2.17756E+05 3.32307E-10 7.89203E-09
 -1       713-5.54667E+05-6.65253E+04-1.61558E+04-2.00128E+05-2.07615E-09-6.15182E-09
 -1       714-5.58161E+05-1.22876E+05-4.76556E+04-2.13637E+05-3.13776E-09-8.09450E-09
 -1       715-5.40428E+05-4.30930E+04-6.91488E+04-2.06228E+05 2.86127E-09 1.08048E-09
 -1       716 2.53542E+05-1.93162E+04 4.15905E+04 9.19236E+03 1.12138E-08-2.64845E-09
 -1       717 2.91184E+05 2.19103E+04 3.27934E+04-2.23986E+04 4.54020E-09-7.44240E-09
 -1       718 2.65677E+05-2.90623E+03 1.06562E+04 5.17678E+03 1.47725E-09-5.53428E-10
 -1       719 2.75589E+05 3.23215E+03 7.82339E+03-1.60029E+04 1.91989E-10-3.32648E-10
 -1       720 2.68768E+05-4.18877E+02 2.81642E+03 2.79219E+03 1.57917E-09 1.41426E-09
 -1       721 2.71431E+05 5.10396E+02 2.18831E+03-1.23008E+04 4.49131E-09-5.33902E-10
 -1       722 2.69685E+05-8.47860E+01 1.28968E+03 1.47419E+03 4.27130E-09 2.29069E-09
 -1       723 2.70314E+05 3.64331E+02 1.76890E+03-1.04729E+04 2.00296E-09 2.84058E-09
 -1       724 2.69829E+05-2.33939E+02 2.62333E+03 9.64405E+02 4.32076E-09 2.57501E-09
 -1       725 2.70918E+05 1.80703E+03 5.70556E+03-1.01616E+04 3.56079E-09 3.83886E-09
 -1       726 2.69070E+05-1.51949E+03 9.70251E+03 1.16302E+03 4.37129E-09 2.12776E-09
 -1       727 2.76221E+05 1.14145E+04 2.39463E+04-1.13125E+04 6.15576E-09 4.07454E-09
 -1       728 2.64558E+05-9.84745E+03 3.78774E+04 2.11518E+03 2.31569E-09 2.25373E-09
 -1       729 3.06691E+05 7.32252E+04 1.04211E+05-1.43117E+04 4.99284E-10 3.26145E-09
 -1       730 2.38718E+05-6.32780E+04 1.46390E+05 4.16184E+03 2.83171E-09-6.33008E-10
 -1       731-1.80049E+04 1.97756E+05 3.59397E+04-1.19378E+04-4.41469E-09-3.92492E-09
 -1       732 2.02436E+04 2.45169E+05 3.11032E+04 3.78324E+04 2.14459E-09-1.26818E-10
 -1       733-2.69937E+03 2.13872E+05 9.71181E+03-7.96612E+03-9.51786E-10-1.06502E-09
 -1       734 3.88609E+03 2.24297E+05 8.10518E+03 3.21471E+04 3.86081E-10-4.49904E-09
 -1       735-1.18279E+03 2.17914E+05 4.01670E+03-6.24676E+03 7.57666E-10-3.47347E-09
 -1       736-9.84842E+05-1.38286E+05-8.02108E+04-4.24300E+05 1.07666E-08-4.36194E-09
 -1       737-1.09002E+06-1.30373E+05-5.20540E+04-3.16591E+05 1.18962E-08-5.77711E-09
 -1       738-1.02845E+06-1.60287E+05-2.27311E+04-4.13533E+05 3.52441E-09 6.43377E-09
 -1       739-1.00477E+06-1.28170E+05-1.36425E+03-3.52689E+05 5.51199E-09-2.08502E-10
 -1       740-1.06860E+06-1.41661E+05-1.11042E+04-3.87045E+05 5.62159E-09 1.03259E-08
 -1       741-9.69481E+05-1.71315E+05 4.65087E+03-4.11529E+05 1.07816E-08 2.39954E-08
 -1       742-1.06435E+06-1.16615E+05-2.01550E+03-3.55213E+05 4.84454E-09-1.23316E-08
 -1       743-9.73464E+05-1.93326E+05 1.00298E+03-4.41557E+05 2.29051E-09 1.37186E-08
 -1       744-1.06571E+06-1.18728E+05-2.60489E+03-3.57860E+05-4.34528E-08-1.73359E-08
 -1       745-9.70126E+05-1.65758E+05 5.81606E+03-4.04587E+05-2.47546E-08-3.81772E-09
 -1       746-1.06640E+06-1.45272E+05-1.09037E+04-3.91184E+05 1.02773E-09 2.66027E-10
 -1       747-1.01276E+06-1.22347E+05-7.64540E+02-3.47246E+05 5.50222E-09-1.70257E-09
 -1       748-1.02279E+06-1.62396E+05-1.99183E+04-4.14929E+05 6.16308E-09 1.29057E-08
 -1       749-1.09226E+06-1.24796E+05-4.68734E+04-3.16210E+05 2.45609E-09 2.31539E-08
 -1       750-9.88382E+05-1.41643E+05-7.21291E+04-4.23390E+05 2.41380E-09 1.62872E-08
 -1       751 2.97820E+06-1.68702E+05 3.93391E+05 1.11984E+04-2.09573E-08-9.31323E-10
 -1       752 3.14916E+06 1.95409E+05 2.77866E+05-1.33895E+04-2.16426E-09-2.16096E-09
 -1       753 3.04439E+06-2.63010E+04 1.01954E+05 2.16877E+03-1.44661E-09-8.58563E-10
 -1       754 3.07234E+06 3.04489E+04 6.39935E+04-2.61374E+03 1.64960E-09 1.51067E-09
 -1       755 3.05524E+06-4.09439E+03 2.62718E+04 4.24696E+02-1.32699E-09-8.95852E-10
 -1       756 3.05982E+06 4.79951E+03 1.56808E+04-5.26765E+02 3.15242E-09 1.57343E-10
 -1       757 3.05702E+06-6.98396E+02 7.73656E+03 8.18269E+01 2.21274E-09 1.10344E-09
 -1       758 3.05796E+06 1.24560E+03 6.19430E+03-1.27390E+02-1.60333E-09 1.27625E-09
 -1       759 3.05711E+06-5.46012E+02 6.33047E+03 2.53148E+01-5.69552E-10-3.13776E-10
 -1       760 3.05911E+06 3.48320E+03 1.16253E+04-1.17974E+02-1.35999E-09 3.33739E-09
 -1       761 3.05587E+06-2.93240E+03 1.89555E+04 7.24101E+01-6.67193E-10-2.98314E-09
 -1       762 3.06800E+06 2.17594E+04 4.57884E+04-4.68853E+02 3.77387E-09 2.69029E-09
 -1       763 3.04814E+06-1.87892E+04 7.28229E+04 3.76192E+02 5.48848E-09 1.30240E-09
 -1       764 3.12242E+06 1.39492E+05 1.98293E+05-2.34618E+03 3.17933E-09 1.83354E-09
 -1       765 3.00123E+06-1.20418E+05 2.80782E+05 1.94948E+03-2.51036E-09-1.54250E-09
 -1       766-6.93557E+04 3.75717E+05 1.61591E+05-1.62958E+04 1.83354E-09-2.78987E-10
 -1       767 8.40345E+04 4.55414E+05 1.22891E+05 6.74427E+04 8.53106E-10 5.70996E-10
 -1       768-1.44361E+04 4.03601E+05 5.69741E+04-1.47582E+04 3.53339E-09-2.11816E-09
 -1       769 4.50997E+04 4.51563E+05 7.37007E+04 7.29250E+04 3.04294E-09 2.76191E-09
 -1       770-3.10073E+04 3.80304E+05 6.85604E+04-2.17823E+04-1.90339E-08 5.58657E-09
 -1       771-1.67605E+06-3.39152E+05-5.97907E+04-7.24203E+05-9.93168E-10-7.78527E-10
 -1       772-1.67223E+06-3.37019E+05-2.92651E+04-7.48083E+05-2.92493E-09-9.76797E-10
 -1       773-1.67851E+06-3.16417E+05-1.24616E+04-7.34121E+05-3.95084E-09-6.88487E-09
 -1       774-1.66581E+06-3.29297E+05-6.07240E+03-7.50078E+05 1.50612E-09-2.12913E-09
 -1       775-1.67921E+06-3.15312E+05-2.82214E+03-7.34716E+05-3.19415E-09-7.01311E-09
 -1       776-1.66559E+06-3.28929E+05-1.41792E+03-7.50419E+05 3.51065E-10-1.95359E-09
 -1       777-1.67958E+06-3.15166E+05-7.83603E+02-7.34863E+05-3.04135E-09-8.86234E-09
 -1       778-1.66576E+06-3.28864E+05-6.06882E+02-7.50649E+05-1.10595E-09-1.39735E-09
 -1       779-1.67980E+06-3.15038E+05-7.73019E+02-7.34965E+05-4.62023E-10-6.97128E-10
 -1       780-1.66595E+06-3.28820E+05-1.41249E+03-7.50825E+05 5.12955E-10-2.77623E-10
 -1       781-1.67986E+06-3.14924E+05-2.79519E+03-7.35015E+05 4.06089E-09 5.12591E-09
 -1       782-1.66650E+06-3.29124E+05-6.07926E+03-7.50929E+05 3.91310E-10 1.63709E-11
 -1       783-1.67959E+06-3.15741E+05-1.24413E+04-7.34572E+05-1.53295E-09-1.04956E-09
 -1       784-1.67289E+06-3.37229E+05-2.93522E+04-7.49795E+05-4.89536E-10 4.07454E-10
 -1       785-1.67780E+06-3.38055E+05-5.98967E+04-7.24399E+05-2.05546E-10 1.56433E-10
 -1       786 3.13496E+05-9.25712E+03 4.01831E+04-2.23951E+03 2.79670E-10 9.65883E-10
 -1       787 3.27973E+05 1.25983E+04 2.57289E+04-9.01812E+03 1.46429E-10 3.09228E-10
 -1       788 3.19553E+05-9.53209E+02 1.04130E+04-2.23967E+03-3.61524E-10 5.58884E-10
 -1       789 3.21222E+05 1.23777E+03 5.81217E+03-9.00313E+03 4.80213E-10 6.15046E-11
 -1       790 3.20238E+05-1.03449E+02 2.64609E+03-2.25344E+03-3.02180E-10-1.10663E-09
 -1       791 3.20444E+05 1.19525E+02 1.42066E+03-8.98305E+03 4.07766E-10 3.22956E-10
 -1       792 3.20326E+05-1.31592E+01 7.30863E+02-2.25974E+03 2.53351E-10-1.87384E-09
 -1       793 3.20348E+05 1.52521E+01 4.90272E+02-8.97870E+03-5.28900E-10-1.47082E-10
 -1       794 3.20334E+05-7.67996E+00 4.60187E+02-2.25780E+03 7.31575E-11 6.64954E-10
 -1       795 3.20380E+05 5.31211E+01 7.07895E+02-8.99124E+03 5.89978E-10 4.19660E-09
 -1       796 3.20297E+05-4.82530E+01 1.22673E+03-2.24719E+03-6.60179E-10-1.76718E-09
 -1       797 3.20733E+05 5.55548E+02 2.64096E+03-9.01860E+03 1.74452E-10-6.69814E-10
 -1       798 3.19989E+05-4.33294E+02 4.70858E+03-2.23044E+03-4.47244E-10 3.90855E-10
 -1       799 3.23788E+05 5.68287E+03 1.16214E+04-9.03700E+03-2.48679E-09 2.12094E-09
 -1       800 3.17255E+05-4.18537E+03 1.81416E+04-2.22937E+03 3.46517E-10-2.08274E-10
 -1       801-1.29513E+04 3.40337E+05 4.71227E+04-2.52243E+05 1.27693E-09 1.07684E-09
 -1       802 3.04100E+04 3.53378E+05 4.96740E+04-9.84425E+05-6.03541E-09-5.61522E-09
 -1       803-8.52872E+02 3.40283E+05 5.17240E+04-2.51715E+05 2.87037E-09 2.96677E-09
 -1       804 6.30786E+04 3.73572E+05 1.08058E+05-9.84351E+05-9.12405E-09-6.36282E-09
 -1       805-3.98046E+04 3.21030E+05 1.57450E+05-2.52332E+05 2.85218E-09 1.62254E-09
 -1       806-3.13668E+05-8.35814E+04-2.67367E+04-1.44557E+05 2.39720E-09-2.14641E-10
 -1       807-3.13805E+05-7.68182E+04-1.26848E+04-1.52720E+05-7.55108E-10-6.64863E-09
 -1       808-3.13527E+05-6.99282E+04-5.33335E+03-1.50320E+05 3.30056E-09 8.95147E-09
 -1       809-3.11169E+05-7.20185E+04-2.57731E+03-1.53829E+05-2.01453E-10 1.88726E-09
 -1       810-3.13596E+05-6.89926E+04-1.16549E+03-1.50742E+05-5.35465E-10 2.04955E-09
 -1       811-3.10911E+05-7.16995E+04-5.84549E+02-1.53876E+05-2.29988E-10 1.98725E-09
 -1       812-3.13618E+05-6.89645E+04-3.06795E+02-1.50762E+05 6.20162E-11-3.46290E-10
 -1       813-3.10883E+05-7.16910E+04-2.28566E+02-1.53868E+05 1.10845E-10 2.20552E-09
 -1       814-3.13615E+05-6.89688E+04-2.68907E+02-1.50759E+05 1.85355E-09 7.33189E-09
 -1       815-3.10898E+05-7.17026E+04-4.83894E+02-1.53866E+05 1.05774E-09-1.71713E-09
 -1       816-3.13587E+05-6.89975E+04-9.49000E+02-1.50737E+05-4.22733E-09-8.50832E-09
 -1       817-3.11103E+05-7.19590E+04-2.09114E+03-1.53814E+05-2.93176E-09-5.93514E-09
 -1       818-3.13518E+05-6.97675E+04-4.32383E+03-1.50397E+05 7.72161E-10 1.35515E-10
 -1       819-3.13280E+05-7.58003E+04-1.02803E+04-1.52849E+05-1.69757E-09-7.18501E-10
 -1       820-3.13575E+05-8.08753E+04-2.16675E+04-1.45770E+05-1.82899E-09 7.43739E-10
 -1       821-3.16816E+05 9.41651E+03-4.09047E+04 2.27697E+03-3.92447E-09 1.00226E-09
 -1       822-3.31530E+05-1.28264E+04-2.61909E+04 9.50607E+03-1.15108E-09 1.48430E-09
 -1       823-3.22986E+05 9.65734E+02-1.06044E+04 2.20054E+03 3.48859E-09 1.00135E-09
 -1       824-3.24682E+05-1.24753E+03-5.92082E+03 9.61451E+03-8.22638E-10 1.04239E-09
 -1       825-3.23686E+05 1.06119E+02-2.70827E+03 2.16738E+03-7.15318E-09-2.20837E-09
 -1       826-3.23908E+05-1.01520E+02-1.47404E+03 9.66909E+03-1.14896E-08-1.36015E-09
 -1       827-3.23776E+05 1.83129E+01-8.01811E+02 2.14572E+03-8.90191E-09-2.04665E-09
 -1       828-3.23825E+05 4.90104E+00-6.18014E+02 9.70310E+03-1.30055E-08-2.79181E-09
 -1       829-3.23780E+05 1.77898E+01-7.01160E+02 2.13331E+03-3.21484E-09-1.37810E-09
 -1       830-3.23895E+05-7.22492E+01-1.21076E+03 9.71761E+03 6.99173E-09 5.42457E-10
 -1       831-3.23711E+05 9.01784E+01-2.18166E+03 2.13121E+03-4.67784E-09 4.26144E-09
 -1       832-3.24523E+05-9.85723E+02-4.74834E+03 9.71143E+03-1.84957E-09 4.25644E-10
 -1       833-3.23152E+05 7.80654E+02-8.49145E+03 2.13970E+03-8.49582E-10-1.29103E-09
 -1       834-3.30014E+05-1.02535E+04-2.09718E+04 9.67006E+03-5.03860E-10-6.51471E-09
 -1       835-3.18214E+05 7.54883E+03-3.27478E+04 2.17461E+03 1.48134E-09-1.76078E-09
 -1       836-1.50987E+04 8.17466E+05 6.91424E+04-2.22127E+04-1.26238E-09 6.23913E-10
 -1       837 2.32697E+04 8.42821E+05 5.37527E+04-8.48221E+04 3.22507E-09 1.01147E-09
 -1       838-3.62975E+03 8.25609E+05 3.98234E+04-2.22325E+04-2.01680E-09 4.04685E-09
 -1       839 3.08131E+04 8.47289E+05 6.71337E+04-8.48078E+04 4.22733E-09 1.45519E-11
 -1       840-2.11603E+04 8.12979E+05 9.44738E+04-2.22260E+04-1.49157E-09 1.34196E-09
 -1       841-3.32794E+04 6.01496E+02-1.37600E+04-1.49482E+04-3.58136E-09 2.40925E-09
 -1       842-4.08208E+04-1.16692E+04-9.53687E+03-1.22027E+04-2.09008E-09 1.31877E-10
 -1       843-3.60627E+04-4.34582E+03-3.22462E+03-1.40388E+04 2.26589E-09 2.50975E-09
 -1       844-3.76007E+04-5.92855E+03-2.00445E+03-1.32408E+04 3.52310E-09-4.12683E-11
 -1       845-3.64987E+04-5.13061E+03-7.39964E+02-1.39135E+04 6.41720E-10-4.83794E-10
 -1       846-3.71006E+04-5.01053E+03-4.12852E+02-1.33777E+04-6.11771E-09 7.68551E-10
 -1       847-3.65629E+04-5.26244E+03-1.37946E+02-1.39025E+04-4.05606E-09 7.94955E-10
 -1       848-3.70187E+04-4.83932E+03-1.27211E+01-1.33897E+04-1.85919E-09-1.64805E-09
 -1       849-3.65808E+04-5.30152E+03 1.09020E+02-1.39017E+04 5.61782E-09 4.91319E-10
 -1       850-3.69337E+04-4.69397E+03 3.51915E+02-1.34094E+04 9.59893E-09 4.12424E-09
 -1       851-3.66479E+04-5.40759E+03 6.36033E+02-1.38829E+04-4.29918E-09-8.90225E-10
 -1       852-3.64672E+04-3.92564E+03 1.73199E+03-1.35549E+04-2.85348E-09-1.97150E-09
 -1       853-3.70469E+04-6.06883E+03 2.78215E+03-1.37565E+04-3.17470E-09 7.03039E-10
 -1       854-3.36316E+04 9.89475E+02 8.23954E+03-1.44984E+04 3.77582E-09 3.93084E-09
 -1       855-3.94820E+04-1.03154E+04 1.18796E+04-1.29420E+04-1.40972E-10 4.67571E-09
 -1       856-3.72704E+05 8.69878E+03-3.78393E+04 4.55775E+03-6.85941E-09-5.03860E-10
 -1       857-3.86301E+05-1.18219E+04-2.42180E+04 1.93074E+04-5.05133E-09-1.63027E-09
 -1       858-3.78416E+05 8.96590E+02-9.80957E+03 4.42634E+03-9.63519E-09 3.60615E-10
 -1       859-3.80006E+05-1.09984E+03-5.47069E+03 1.94944E+04-2.40402E-09-7.46695E-09
 -1       860-3.79069E+05 1.09860E+02-2.49877E+03 4.36842E+03 5.91626E-10-2.26828E-09
 -1       861-3.79313E+05-3.04717E+01-1.34846E+03 1.95814E+04-1.14960E-08-1.86856E-09
 -1       862-3.79156E+05 3.25844E+01-7.13462E+02 4.33876E+03 5.97004E-09-1.33252E-09
 -1       863-3.79241E+05 7.29784E+01-5.14276E+02 1.96178E+04 2.16458E-08-4.68049E-09
 -1       864-3.79162E+05 3.04289E+01-5.37408E+02 4.33191E+03 1.12004E-08-2.09613E-09
 -1       865-3.79282E+05 1.70225E+01-8.86464E+02 1.96078E+04 1.65828E-08-3.06824E-09
 -1       866-3.79110E+05 7.81908E+01-1.57659E+03 4.34883E+03 7.27141E-10 5.14547E-10
 -1       867-3.79709E+05-6.48195E+02-3.41377E+03 1.95490E+04-3.80055E-10-4.31334E-09
 -1       868-3.78703E+05 5.65771E+02-6.10599E+03 4.39107E+03 4.92219E-09-4.12456E-10
 -1       869-3.83614E+05-7.31935E+03-1.50630E+04 1.93973E+04-2.08456E-09-3.09569E-09
 -1       870-3.75149E+05 5.41375E+03-2.35352E+04 4.50239E+03 7.40192E-09 6.18456E-10
 -1       871-3.60398E+03-3.34656E+04-6.40384E+03 9.59421E+04 3.51156E-09 1.08594E-09
 -1       872-1.20810E+03-3.46046E+04-1.86381E+03 1.12176E+05 4.39059E-09-4.34420E-09
 -1       873-6.23882E+00-3.42041E+04 1.89357E+03 9.57612E+04 4.03361E-09-1.79170E-10
 -1       874 2.15523E+03-3.26765E+04 7.04825E+03 1.12260E+05 5.15456E-09-2.47542E-09
 -1       875 7.27825E+03-3.54796E+04 1.52172E+04 9.58740E+04 3.71801E-09 1.83104E-09
 -1       876 4.45521E+05 5.61810E+04 4.21930E+04 1.75502E+05 5.03906E-09-3.91992E-09
 -1       877 4.54998E+05 8.91533E+04 2.66340E+04 1.81768E+05 4.15622E-09-1.27329E-10
 -1       878 4.52758E+05 6.58462E+04 9.96055E+03 1.74500E+05 7.94307E-09 2.08092E-09
 -1       879 4.46679E+05 7.65933E+04 5.48537E+03 1.83479E+05-1.22212E-08-2.91470E-09
 -1       880 4.53548E+05 6.69267E+04 2.32640E+03 1.74458E+05-1.08880E-08 1.18462E-10
 -1       881 4.45770E+05 7.52223E+04 1.24999E+03 1.83543E+05-1.57886E-08-7.36884E-09
 -1       882 4.53622E+05 6.70687E+04 6.67068E+02 1.74482E+05 2.92641E-09 3.99902E-09
 -1       883 4.45696E+05 7.50697E+04 5.74882E+02 1.83507E+05-8.94201E-09 3.16385E-09
 -1       884 4.53610E+05 6.70752E+04 7.50104E+02 1.74490E+05-2.64664E-09-1.22782E-10
 -1       885 4.45823E+05 7.52230E+04 1.47855E+03 1.83500E+05 2.22079E-08 2.37105E-09
 -1       886 4.53497E+05 6.69278E+04 2.79087E+03 1.74484E+05 6.33560E-09 1.65596E-09
 -1       887 4.46954E+05 7.68335E+04 6.59856E+03 1.83367E+05 2.01840E-09-3.89707E-09
 -1       888 4.52518E+05 6.56529E+04 1.19936E+04 1.74558E+05 3.34396E-09-5.41058E-09
 -1       889 4.57000E+05 9.19196E+04 3.20680E+04 1.81252E+05-1.95541E-09-4.89308E-10
 -1       890 4.43784E+05 5.40372E+04 5.08099E+04 1.75782E+05-1.15779E-09-4.11092E-10
 -1       891 1.58000E+03-1.98686E+05-7.71415E+03 2.15833E+04 6.35055E-09-1.23055E-09
 -1       892-2.76188E+03-2.01384E+05-6.19323E+03 8.40475E+04 5.64114E-10-1.90619E-09
 -1       893 4.22674E+02-1.99568E+05-4.93935E+03 2.14805E+04 5.06111E-09-2.81105E-09
 -1       894-4.23625E+03-2.02245E+05-8.80071E+03 8.40387E+04 9.04038E-10-5.75801E-09
 -1       895 2.75723E+03-1.97808E+05-1.26499E+04 2.15916E+04 1.02118E-08-5.40240E-10
 -1       896 8.92902E+05-7.68082E+03 1.78664E+04 2.00542E+03-1.00233E-09-4.41651E-09
 -1       897 9.00650E+05 8.89353E+03 1.26451E+04-1.25109E+03-1.02312E-09-3.02384E-09
 -1       898 8.95919E+05-1.19647E+03 4.64160E+03 1.20609E+03-7.53495E-10-3.27759E-09
 -1       899 8.97142E+05 1.38714E+03 2.93554E+03-4.30321E+01 1.79692E-09-2.30534E-09
 -1       900 8.96414E+05-1.87249E+02 1.24294E+03 7.97371E+02-7.34595E-11-2.42352E-09
 -1       901 8.96574E+05 2.31808E+02 8.21854E+02 6.73590E+02-6.59858E-10-2.00482E-09
 -1       902 8.96488E+05-4.29609E+01 5.55867E+02 4.89459E+02 1.24938E-10-1.90106E-09
 -1       903 8.96540E+05 1.45955E+02 7.33706E+02 1.40364E+03-1.17731E-09-1.47204E-09
 -1       904 8.96448E+05-1.01755E+02 1.10594E+03 6.73050E+01-2.72841E-10-1.43672E-09
 -1       905 8.96890E+05 7.41743E+02 2.41711E+03 2.65622E+03 2.74184E-10-1.32053E-09
 -1       906 8.96138E+05-6.39065E+02 4.10577E+03-7.63144E+02-3.29592E-10-4.67708E-10
 -1       907 8.99056E+05 4.78497E+03 1.01151E+04 5.30661E+03 1.67745E-10 1.33389E-09
 -1       908 8.94288E+05-4.14411E+03 1.60376E+04-2.58313E+03 9.86034E-10 2.69483E-09
 -1       909 9.12110E+05 3.09117E+04 4.40884E+04 1.12680E+04 2.91283E-09 3.69846E-09
 -1       910 8.83116E+05-2.67469E+04 6.18530E+04-6.72448E+03 3.19665E-09 8.58563E-09
 -1       911 3.11665E+05-4.52794E+03 1.05431E+04-1.03473E+03-3.83422E-09 1.29830E-08
 -1       912 3.16213E+05 5.26069E+03 7.45847E+03-2.44606E+03-3.15995E-09 1.10704E-08
 -1       913 3.13418E+05-7.04217E+02 2.74023E+03-8.41368E+02-1.74766E-09 1.19328E-08
 -1       914 3.14197E+05 8.32446E+02 1.74909E+03-2.96218E+03-2.93931E-09 9.95306E-09
 -1       915 3.13684E+05-1.09247E+02 7.45916E+02-5.18651E+02 1.30829E-09 1.08050E-08
 -1       916 3.13955E+05 1.50044E+02 5.50840E+02-3.81631E+03 3.35544E-09 8.22951E-09
 -1       917 3.13666E+05-2.64967E+01 3.89282E+02 1.27517E+01 2.87750E-09 8.27103E-09
 -1       918 3.14181E+05 1.12960E+02 6.72403E+02-5.20863E+03 1.40332E-09 6.34353E-09
 -1       919 3.13471E+05-8.12817E+01 9.23677E+02 8.73653E+02 2.00498E-09 4.90434E-09
 -1       920 3.15083E+05 6.20445E+02 2.32983E+03-7.45714E+03 7.20178E-10 1.42018E-09
 -1       921 3.12797E+05-5.56433E+02 3.56582E+03 2.26132E+03-1.95081E-09-5.31145E-10
 -1       922 3.18493E+05 4.22356E+03 9.54517E+03-1.10818E+04-2.37327E-09-4.59477E-09
 -1       923 3.10148E+05-3.73783E+03 1.41225E+04 4.49878E+03-1.82172E-09-1.04101E-08
 -1       924 3.33760E+05 2.80188E+04 4.08925E+04-1.70432E+04-7.17574E-09-1.58361E-08
 -1       925 2.97752E+05-2.44597E+04 5.49036E+04 8.22519E+03-5.98834E-09-2.56114E-08
 -1       926-7.84499E+05 1.48596E+04-4.40495E+04-3.02602E+04 2.76123E-09-5.23014E-08
 -1       927-7.74700E+05-1.67103E+04-2.56341E+04 6.86861E+04-3.76101E-08-6.53054E-08
 -1       928-7.74608E+05 2.49863E+03-1.02228E+04-4.00646E+04 3.44355E-09-7.12030E-08
 -1       929-7.67965E+05-1.26824E+03-4.07646E+03 6.89847E+04 4.71980E-08-6.51398E-08
 -1       930-7.91252E+05-5.33228E+02-5.56797E+03-3.05601E+04-5.74119E-09-5.61723E-08
 -1       931-7.29062E+05 1.57277E+03 8.30239E+03 3.47951E+04-1.72012E-08-3.05550E-08
 -1       932-8.11367E+05-2.04822E+03-7.56080E+03-5.84018E+03 2.86036E-09-1.45669E-08
 -1       933-7.18840E+05 2.08655E+03 1.17686E+04-1.75072E+04 5.19765E-09 1.70480E-08
 -1       934-8.00910E+05-1.49573E+03-4.17343E+03 2.16979E+04 3.27191E-10 3.48066E-08
 -1       935-7.53598E+05 2.24182E+03 6.77545E+03-6.10317E+04-5.57884E-09 5.52533E-08
 -1       936-7.78608E+05-6.05409E+02 3.32651E+03 3.76857E+04 7.82416E-09 6.38918E-08
 -1       937-7.70427E+05 5.82174E+03 9.95576E+03-7.41506E+04-4.18811E-08 6.33709E-08
 -1       938-7.85140E+05-4.21966E+03 1.26275E+04 3.48440E+04-2.98305E-08 5.96247E-08
 -1       939-7.28738E+05 3.07305E+04 4.57337E+04-5.10463E+04-2.07933E-08 4.01542E-08
 -1       940-8.18543E+05-2.68523E+04 4.71151E+04 1.45441E+04 1.21054E-09 2.81289E-08
 -1       941 4.81280E+06-2.38985E+05 5.58391E+05 9.53665E+02 2.43573E-08 4.16185E-09
 -1       942 5.05341E+06 2.76912E+05 3.93947E+05 1.54927E+03 3.45718E-08 4.51109E-09
 -1       943 4.90593E+06-3.72969E+04 1.44761E+05 1.20935E+03 1.77821E-06 9.71340E-09
 -1       944 4.94549E+06 4.31866E+04 9.08791E+04 1.26837E+03 3.51806E-06-2.85399E-09
 -1       945 4.92133E+06-5.80956E+03 3.73866E+04 1.23478E+03 2.47443E-06-1.00044E-10
 -1       946 4.92779E+06 6.82332E+03 2.24029E+04 1.24022E+03 1.41932E-06 6.56109E-09
 -1       947 4.92387E+06-1.00309E+03 1.12233E+04 1.23757E+03 1.89157E-06 4.08590E-09
 -1       948 4.92522E+06 1.86248E+03 9.28937E+03 1.23474E+03 2.36443E-06 2.40389E-09
 -1       949 4.92395E+06-8.56679E+02 9.87273E+03 1.24027E+03 1.18909E-06-7.84257E-09
 -1       950 4.92711E+06 5.55901E+03 1.85092E+04 1.20910E+03 1.13814E-08 6.03973E-09
 -1       951 4.92193E+06-4.69364E+03 3.03637E+04 1.26321E+03 4.70928E-09-6.48652E-09
 -1       952 4.94136E+06 3.48459E+04 7.34179E+04 9.70823E+02 6.75095E-10-3.01316E-09
 -1       953 4.90951E+06-3.00888E+04 1.16816E+05 1.47848E+03-8.01148E-09-4.00178E-10
 -1       954 5.02842E+06 2.23387E+05 3.17811E+05-1.29729E+03-6.09393E-09-4.97676E-09
 -1       955 4.83430E+06-1.92807E+05 4.50252E+05 3.53058E+03-2.23031E-08-8.14907E-10
 -1       956-2.56268E+05-4.42784E+03-9.25871E+03 3.57291E+04-3.82715E-09-1.35788E-09
 -1       957-2.57964E+05-1.38801E+03-4.67018E+03 4.14649E+04-2.11003E-10 4.09273E-12
 -1       958-2.57046E+05-1.45318E+02-2.10142E+03 3.55118E+04 1.37788E-08-1.80944E-09
 -1       959-2.57213E+05 1.12748E+01-1.06803E+03 4.17028E+04 1.62399E-08-3.94539E-09
 -1       960-2.57148E+05 7.12772E+01-5.18998E+02 3.54886E+04 3.07045E-09-2.76441E-09
 -1       961-2.57175E+05 8.91412E+01-2.73041E+02 4.17288E+04-1.02445E-08-2.83217E-09
 -1       962-2.57182E+05 8.27641E+01-1.53534E+02 3.54853E+04-4.32101E-09-3.98677E-09
 -1       963-2.57189E+05 1.00403E+02-1.17456E+02 4.17332E+04-6.40557E-09-9.63610E-10
 -1       964-2.57197E+05 9.11702E+01-1.36213E+02 3.54841E+04-1.16802E-09-2.63208E-09
 -1       965-2.57207E+05 1.07235E+02-2.29995E+02 4.17334E+04 4.72619E-09-3.06227E-09
 -1       966-2.57193E+05 9.68687E+01-4.29239E+02 3.54851E+04-2.03272E-09-5.88216E-10
 -1       967-2.57265E+05 5.81178E+01-8.82251E+02 4.17211E+04 2.01453E-09-3.98200E-09
 -1       968-2.57131E+05-6.80007E+01-1.73294E+03 3.54966E+04-1.63709E-11-3.50110E-09
 -1       969-2.57911E+05-1.08496E+03-3.85542E+03 4.16001E+04 2.04659E-09-2.32239E-09
 -1       970-2.56507E+05-3.59630E+03-7.64121E+03 3.56108E+04 3.71483E-09-3.34421E-09
 -1       971-5.21524E+05 7.23121E+03-3.14928E+04 4.41105E+03-6.06951E-09 4.03452E-09
 -1       972-5.32805E+05-9.83469E+03-2.01533E+04 1.91907E+04-5.11659E-09 3.02543E-09
 -1       973-5.26278E+05 7.42897E+02-8.17013E+03 4.23951E+03-5.79121E-09 4.79395E-09
 -1       974-5.27581E+05-9.07264E+02-4.56273E+03 1.94460E+04-3.22871E-11 7.14635E-09
 -1       975-5.26823E+05 9.14961E+01-2.10301E+03 4.15402E+03 9.64292E-10 1.18416E-09
 -1       976-5.27016E+05-1.35368E+01-1.16843E+03 1.95785E+04-8.70534E-09 4.07209E-09
 -1       977-5.26895E+05 3.02071E+01-6.86048E+02 4.10655E+03 9.61711E-09 1.73736E-09
 -1       978-5.26972E+05 6.94806E+01-6.18034E+02 1.96410E+04 2.23325E-08 3.48047E-09
 -1       979-5.26893E+05 3.55280E+01-8.17365E+02 4.09141E+03 1.19194E-08 2.14084E-09
 -1       980-5.27067E+05-3.78240E+01-1.51749E+03 1.96381E+04 2.11962E-08-5.52735E-10
 -1       981-5.26800E+05 1.26411E+02-2.79410E+03 4.10943E+03-8.30937E-10 1.28830E-09
 -1       982-5.27860E+05-1.22533E+03-6.11515E+03 1.95679E+04 1.87993E-09 5.42371E-09
 -1       983-5.26074E+05 1.01071E+03-1.09556E+04 4.16216E+03 7.63589E-09 2.99087E-09
 -1       984-5.34914E+05-1.31991E+04-2.70597E+04 1.93913E+04-2.20916E-09 4.07317E-09
 -1       985-5.19696E+05 9.73551E+03-4.22680E+04 4.28949E+03 6.36555E-09 1.39153E-09
 -3
    1PSTEP                        27          14           1          
  100CL  114 7.13169E-01         841                     0   14           1
 -4  DISP        4    1
 -5  D1          1    2    1    0
 -5  D2          1    2    2    0
 -5  D3          1    2    3    0
 -5  ALL         1    2    0    0    1ALL
 -1         1 8.84314E-05 0.00000E+00 0.00000E+00
 -1         2 6.80255E-05 0.00000E+00 0.00000E+00
 -1         3 5.68290E-05 0.00000E+00 0.00000E+00
 -1         4 4.92386E-05 0.00000E+00 0.00000E+00
 -1         5 4.56366E-05 0.00000E+00 0.00000E+00
 -1         8 6.97339E-05-8.86990E-07 0.00000E+00
 -1         9 5.44198E-05 6.85133E-07 0.00000E+00
 -1        10 5.10382E-05-2.27365E-06 0.00000E+00
 -1        11 4.75349E-05-4.45212E-07 0.00000E+00
 -1        12 4.38230E-05 1.14002E-06 0.00000E+00
 -1        15 3.27140E-05-1.55650E-06 0.00000E+00
 -1        16 4.05132E-05 6.55605E-07 0.00000E+00
 -1        17 3.68160E-05-4.54736E-06 0.00000E+00
 -1        18 3.72264E-05-8.82255E-07 0.00000E+00
 -1        19 3.91442E-05 2.25401E-06 0.00000E+00
 -1        20 3.97448E-05 2.40890E-05 0.00000E+00
 -1        21 3.97209E-05 5.75929E-05 0.00000E+00
 -1        22 1.05349E-05-1.06208E-06 0.00000E+00
 -1        23 1.37893E-05 1.20202E-06 0.00000E+00
 -1        24 1.51978E-05-5.37400E-06 0.00000E+00
 -1        25 3.26605E-05-5.93712E-07 0.00000E+00
 -1        26 3.44910E-05 2.99451E-06 0.00000E+00
 -1        27 3.26239E-05 2.32307E-05 0.00000E+00
 -1        28 3.04104E-05 5.67809E-05 0.00000E+00
 -1        29 0.00000E+00 0.00000E+00 0.00000E+00
 -1        30 5.11526E-06 1.56263E-06 0.00000E+00
 -1        31 6.75800E-06-4.62357E-06 0.00000E+00
 -1        32 0.00000E+00 0.00000E+00 0.00000E+00
 -1        33 2.81448E-05 4.74615E-06 0.00000E+00
 -1        34 2.66481E-05 2.31504E-05 0.00000E+00
 -1        35 2.35801E-05 5.63478E-05 0.00000E+00
 -1        36 8.71955E-05 9.43482E-21 0.00000E+00
 -1        37 8.59202E-05 1.83179E-20 0.00000E+00
 -1        38 8.46473E-05 1.25348E-19-2.64698E-23
 -1        39 8.33670E-05 3.94948E-19 1.32349E-23
 -1        40 8.20864E-05 5.65438E-19 5.29396E-23
 -1        41 8.08043E-05 5.64592E-19 0.00000E+00
 -1        42 7.95221E-05 4.41542E-19 5.29396E-23
 -1        43 7.82396E-05 2.38227E-19 0.00000E+00
 -1        44 7.69570E-05 1.77033E-19 0.00000E+00
 -1        45 7.56747E-05 7.51403E-20-2.64698E-23
 -1        46 7.43924E-05-4.97756E-20 0.00000E+00
 -1        47 7.31111E-05-4.63817E-20-1.32349E-23
 -1        48 7.18300E-05 1.09310E-19 2.64698E-23
 -1        49 7.05540E-05 2.68232E-19 1.32349E-23
 -1        50 6.92763E-05 2.36764E-19 0.00000E+00
 -1        51 8.70218E-05-1.50315E-07 0.00000E+00
 -1        52 8.46840E-05-2.94119E-07 0.00000E+00
 -1        53 8.15976E-05-4.37294E-07 0.00000E+00
 -1        54 7.79508E-05-5.81872E-07 0.00000E+00
 -1        55 7.39329E-05-7.29622E-07-4.96308E-24
 -1        56 8.66771E-05-7.57030E-07 0.00000E+00
 -1        57 8.49117E-05-1.68085E-06 2.64698E-23
 -1        58 8.31774E-05-2.67713E-06 0.00000E+00
 -1        59 8.14329E-05-3.67942E-06 0.00000E+00
 -1        60 7.96616E-05-4.61167E-06 0.00000E+00
 -1        61 7.78361E-05-5.40518E-06-2.64698E-23
 -1        62 7.59360E-05-6.00035E-06 5.29396E-23
 -1        63 7.39420E-05-6.34619E-06 2.64698E-23
 -1        64 7.18418E-05-6.40948E-06 0.00000E+00
 -1        65 6.96275E-05-6.16827E-06 0.00000E+00
 -1        66 6.72990E-05-5.62267E-06 0.00000E+00
 -1        67 6.48624E-05-4.78437E-06 0.00000E+00
 -1        68 6.23287E-05-3.68718E-06 0.00000E+00
 -1        69 5.97245E-05-2.37092E-06 0.00000E+00
 -1        70 5.70581E-05-8.99962E-07-2.64698E-23
 -1        71 6.73282E-05-2.71673E-17 0.00000E+00
 -1        72 6.66273E-05-1.07381E-16-1.32349E-23
 -1        73 6.59267E-05-2.02918E-16 0.00000E+00
 -1        74 6.52254E-05-2.75360E-16-1.32349E-23
 -1        75 6.45240E-05-2.99090E-16 0.00000E+00
 -1        76 6.38226E-05-2.50106E-16-1.32349E-23
 -1        77 6.31212E-05-1.44345E-16 0.00000E+00
 -1        78 6.24197E-05 4.72594E-19 0.00000E+00
 -1        79 6.17182E-05 1.45350E-16 0.00000E+00
 -1        80 6.10169E-05 2.50939E-16 0.00000E+00
 -1        81 6.03156E-05 2.99781E-16 0.00000E+00
 -1        82 5.96147E-05 2.75822E-16-1.32349E-23
 -1        83 5.89140E-05 2.03087E-16 0.00000E+00
 -1        84 5.82155E-05 1.07456E-16-1.32349E-23
 -1        85 5.75162E-05 2.72291E-17 0.00000E+00
 -1        86 6.73964E-05 9.53096E-08 0.00000E+00
 -1        87 6.55366E-05 2.18405E-07 1.65436E-24
 -1        88 6.28890E-05 3.37819E-07 0.00000E+00
 -1        89 5.98916E-05 4.58274E-07 0.00000E+00
 -1        90 5.69374E-05 5.80319E-07-3.30872E-24
 -1        91 6.40813E-05 8.48874E-06-1.32349E-23
 -1        92 5.34409E-05 3.39766E-05 0.00000E+00
 -1        93 4.07862E-05 6.44493E-05 0.00000E+00
 -1        94 3.10105E-05 8.78195E-05 0.00000E+00
 -1        95 2.72010E-05 9.59298E-05-2.64698E-23
 -1        96 3.19803E-05 8.09224E-05 6.61744E-24
 -1        97 4.32182E-05 4.74673E-05 1.32349E-23
 -1        98 5.88385E-05 8.19864E-07 0.00000E+00
 -1        99 7.46108E-05-4.62902E-05 0.00000E+00
 -1       100 8.63135E-05-8.11157E-05-6.61744E-24
 -1       101 9.17225E-05-9.78826E-05-1.32349E-23
 -1       102 8.85362E-05-9.13976E-05 0.00000E+00
 -1       103 7.91794E-05-6.90743E-05 1.32349E-23
 -1       104 6.65442E-05-3.86442E-05-6.61744E-24
 -1       105 5.55712E-05-1.23264E-05 0.00000E+00
 -1       106 5.63568E-05-3.84724E-20 0.00000E+00
 -1       107 5.58817E-05-3.54567E-20-6.61744E-24
 -1       108 5.54067E-05-5.04361E-20 0.00000E+00
 -1       109 5.49311E-05-3.01255E-20 0.00000E+00
 -1       110 5.44556E-05 5.69390E-21-1.32349E-23
 -1       111 5.39799E-05-5.36044E-20 0.00000E+00
 -1       112 5.35043E-05-5.46121E-20-1.32349E-23
 -1       113 5.30286E-05-9.09961E-20 6.61744E-24
 -1       114 5.25529E-05-1.56940E-19 0.00000E+00
 -1       115 5.20773E-05-9.92702E-20 6.61744E-24
 -1       116 5.16018E-05 5.41700E-21-1.32349E-23
 -1       117 5.11265E-05 9.12715E-20-6.61744E-24
 -1       118 5.06514E-05 1.39522E-19-1.32349E-23
 -1       119 5.01779E-05 2.21819E-19 0.00000E+00
 -1       120 4.97038E-05 1.29626E-19 0.00000E+00
 -1       121 5.66682E-05-3.79289E-07 0.00000E+00
 -1       122 5.61845E-05-7.57625E-07 0.00000E+00
 -1       123 5.53778E-05-1.13618E-06 0.00000E+00
 -1       124 5.42495E-05-1.51490E-06 0.00000E+00
 -1       125 5.28018E-05-1.89398E-06 0.00000E+00
 -1       126 5.86806E-05-5.76215E-06-1.32349E-23
 -1       127 6.46377E-05-2.28221E-05 3.30872E-24
 -1       128 7.35681E-05-4.83138E-05-6.61744E-24
 -1       129 8.43783E-05-7.92578E-05-3.30872E-24
 -1       130 9.55663E-05-1.11306E-04-6.61744E-24
 -1       131 1.05639E-04-1.40095E-04 0.00000E+00
 -1       132 1.13342E-04-1.62080E-04 0.00000E+00
 -1       133 1.17386E-04-1.73811E-04 3.30872E-24
 -1       134 1.17309E-04-1.74362E-04 0.00000E+00
 -1       135 1.12669E-04-1.62937E-04 3.30872E-24
 -1       136 1.04149E-04-1.41635E-04 6.61744E-24
 -1       137 9.25288E-05-1.12640E-04 3.30872E-24
 -1       138 7.94185E-05-7.99986E-05-6.61744E-24
 -1       139 6.64827E-05-4.77791E-05 0.00000E+00
 -1       140 5.53360E-05-1.99492E-05 6.61744E-24
 -1       141 4.90103E-05-9.62724E-21-6.61744E-24
 -1       142 4.87832E-05-8.89546E-20 0.00000E+00
 -1       143 4.85561E-05-1.60355E-19 6.61744E-24
 -1       144 4.83292E-05-1.46242E-19 3.30872E-24
 -1       145 4.81023E-05-9.54791E-20 0.00000E+00
 -1       146 4.78755E-05 1.21231E-20 3.30872E-24
 -1       147 4.76487E-05 3.98549E-20 0.00000E+00
 -1       148 4.74219E-05 6.65994E-21 0.00000E+00
 -1       149 4.71951E-05 4.31550E-21 6.61744E-24
 -1       150 4.69685E-05 1.25220E-20 0.00000E+00
 -1       151 4.67420E-05 8.65253E-20 0.00000E+00
 -1       152 4.65161E-05 1.01013E-19 0.00000E+00
 -1       153 4.62903E-05 8.78535E-20 0.00000E+00
 -1       154 4.60676E-05 5.29798E-20-1.65436E-24
 -1       155 4.58439E-05 3.70691E-20 0.00000E+00
 -1       156 5.08071E-05-6.57050E-08 0.00000E+00
 -1       157 5.53670E-05-1.32059E-07 0.00000E+00
 -1       158 6.00901E-05-1.99692E-07 3.30872E-24
 -1       159 6.21482E-05-2.57731E-07 1.65436E-24
 -1       160 5.88545E-05-3.21247E-07 3.30872E-24
 -1       161 4.92422E-05-8.33849E-07 0.00000E+00
 -1       162 4.97887E-05-3.12330E-06 3.30872E-24
 -1       163 5.07177E-05-6.44027E-06 0.00000E+00
 -1       164 5.18644E-05-1.03443E-05 0.00000E+00
 -1       165 5.30061E-05-1.42348E-05 0.00000E+00
 -1       166 5.39200E-05-1.75112E-05 0.00000E+00
 -1       167 5.44442E-05-1.97411E-05-6.61744E-24
 -1       168 5.44208E-05-2.05043E-05 0.00000E+00
 -1       169 5.38389E-05-1.97790E-05-6.61744E-24
 -1       170 5.26948E-05-1.75606E-05 0.00000E+00
 -1       171 5.11375E-05-1.42492E-05 0.00000E+00
 -1       172 4.93230E-05-1.02573E-05 0.00000E+00
 -1       173 4.74768E-05-6.18215E-06 6.61744E-24
 -1       174 4.58292E-05-2.62026E-06 0.00000E+00
 -1       175 4.45488E-05-3.26878E-08 0.00000E+00
 -1       191 4.55699E-05 1.89808E-07 0.00000E+00
 -1       192 4.54048E-05 3.79975E-07-3.30872E-24
 -1       193 4.51440E-05 5.70213E-07 6.61744E-24
 -1       194 4.47909E-05 7.60413E-07 0.00000E+00
 -1       195 4.43491E-05 9.50465E-07-6.61744E-24
 -1       251 6.90094E-05 9.38106E-06 0.00000E+00
 -1       252 6.80532E-05 3.31192E-05 0.00000E+00
 -1       253 6.70297E-05 5.98757E-05 0.00000E+00
 -1       254 6.61705E-05 7.91073E-05-1.32349E-23
 -1       255 6.54594E-05 8.43609E-05 0.00000E+00
 -1       256 6.46565E-05 6.95972E-05-1.32349E-23
 -1       257 6.35336E-05 3.93911E-05 0.00000E+00
 -1       258 6.20558E-05-1.22691E-06 0.00000E+00
 -1       259 6.05873E-05-4.15971E-05-2.64698E-23
 -1       260 5.94850E-05-7.10656E-05 0.00000E+00
 -1       261 5.86953E-05-8.48696E-05-2.64698E-23
 -1       262 5.79793E-05-7.87095E-05 0.00000E+00
 -1       263 5.71092E-05-5.88731E-05-2.64698E-23
 -1       264 5.60844E-05-3.20527E-05 0.00000E+00
 -1       265 5.51371E-05-8.73796E-06 1.32349E-23
 -1       266 6.65151E-05-9.90170E-07-6.61744E-24
 -1       267 6.34788E-05-1.08183E-06 0.00000E+00
 -1       268 5.95700E-05-1.17724E-06 0.00000E+00
 -1       269 5.37369E-05-1.27893E-06 1.65436E-24
 -1       270 4.50810E-05-1.40083E-06 1.65436E-24
 -1       271 6.71066E-05 1.48948E-06 2.64698E-23
 -1       272 6.46979E-05 3.12993E-06-2.64698E-23
 -1       273 6.25357E-05 4.12091E-06 0.00000E+00
 -1       274 6.05813E-05 4.53656E-06 2.64698E-23
 -1       275 5.88090E-05 4.46532E-06 0.00000E+00
 -1       276 5.71828E-05 4.00076E-06 2.64698E-23
 -1       277 5.56663E-05 3.24286E-06-5.29396E-23
 -1       278 5.42204E-05 2.29597E-06 0.00000E+00
 -1       279 5.28052E-05 1.26732E-06 5.29396E-23
 -1       280 5.13800E-05 2.65463E-07 0.00000E+00
 -1       281 4.99047E-05-6.01545E-07 0.00000E+00
 -1       282 4.83404E-05-1.22757E-06 2.64698E-23
 -1       283 4.66482E-05-1.51044E-06-5.29396E-23
 -1       284 4.47979E-05-1.35108E-06-2.64698E-23
 -1       285 4.27469E-05-6.62237E-07 2.64698E-23
 -1       286 5.42016E-05 2.73654E-06 6.61744E-24
 -1       287 5.39902E-05 4.30630E-06 3.30872E-24
 -1       288 5.37791E-05 5.28962E-06 0.00000E+00
 -1       289 5.35696E-05 5.58698E-06-3.30872E-24
 -1       290 5.33601E-05 5.22772E-06 6.61744E-24
 -1       291 5.31504E-05 4.24712E-06-3.30872E-24
 -1       292 5.29403E-05 2.79715E-06 0.00000E+00
 -1       293 5.27296E-05 1.03397E-06 0.00000E+00
 -1       294 5.25189E-05-8.27394E-07 0.00000E+00
 -1       295 5.23082E-05-2.57103E-06 3.30872E-24
 -1       296 5.20980E-05-4.00320E-06 0.00000E+00
 -1       297 5.18881E-05-4.93290E-06-3.30872E-24
 -1       298 5.16786E-05-5.26352E-06-6.61744E-24
 -1       299 5.14677E-05-4.90387E-06 3.30872E-24
 -1       300 5.12568E-05-3.89246E-06 0.00000E+00
 -1       301 5.20953E-05 6.70383E-07 0.00000E+00
 -1       302 4.97610E-05 6.71173E-07-1.65436E-24
 -1       303 4.74261E-05 6.74630E-07 0.00000E+00
 -1       304 4.51002E-05 6.77562E-07-1.65436E-24
 -1       305 4.27928E-05 6.76680E-07 6.61744E-24
 -1       306 5.26708E-05 2.17252E-06-2.64698E-23
 -1       307 5.11664E-05 2.91806E-06-1.32349E-23
 -1       308 4.99031E-05 3.02467E-06 0.00000E+00
 -1       309 4.88380E-05 2.58920E-06 0.00000E+00
 -1       310 4.79360E-05 1.71735E-06 2.64698E-23
 -1       311 4.71556E-05 5.18067E-07 0.00000E+00
 -1       312 4.64555E-05-8.96032E-07 2.64698E-23
 -1       313 4.57926E-05-2.41020E-06 0.00000E+00
 -1       314 4.51238E-05-3.90857E-06 0.00000E+00
 -1       315 4.44060E-05-5.27544E-06 0.00000E+00
 -1       316 4.35965E-05-6.39658E-06-2.64698E-23
 -1       317 4.26542E-05-7.16021E-06-1.32349E-23
 -1       318 4.15381E-05-7.45853E-06 0.00000E+00
 -1       319 4.02141E-05-7.18704E-06 0.00000E+00
 -1       320 3.86391E-05-6.25099E-06-2.64698E-23
 -1       321 5.08462E-05-2.14744E-06-6.61744E-24
 -1       322 5.06567E-05-5.59064E-06 3.30872E-24
 -1       323 5.04533E-05-1.19513E-05 6.61744E-24
 -1       324 5.02353E-05-2.05550E-05 0.00000E+00
 -1       325 5.00070E-05-3.03572E-05 0.00000E+00
 -1       326 4.97776E-05-4.03038E-05 3.30872E-24
 -1       327 4.95565E-05-4.93171E-05 0.00000E+00
 -1       328 4.93510E-05-5.63265E-05 3.30872E-24
 -1       329 4.91599E-05-6.05913E-05-6.61744E-24
 -1       330 4.89774E-05-6.13928E-05 0.00000E+00
 -1       331 4.87912E-05-5.85817E-05 0.00000E+00
 -1       332 4.85883E-05-5.20370E-05 3.30872E-24
 -1       333 4.83603E-05-4.22518E-05-6.61744E-24
 -1       334 4.81034E-05-2.97448E-05 0.00000E+00
 -1       335 4.78241E-05-1.54826E-05 6.61744E-24
 -1       336 4.89961E-05-2.65381E-06 0.00000E+00
 -1       337 4.67587E-05-3.03403E-06 6.61744E-24
 -1       338 4.43735E-05-3.41442E-06 0.00000E+00
 -1       339 4.18889E-05-3.79404E-06-6.61744E-24
 -1       340 3.93535E-05-4.17388E-06 0.00000E+00
 -1       341 4.79060E-05 4.18444E-06 0.00000E+00
 -1       342 4.11705E-05 1.99170E-05 0.00000E+00
 -1       343 3.35717E-05 3.78503E-05 1.32349E-23
 -1       344 2.79020E-05 5.08630E-05-6.61744E-24
 -1       345 2.58207E-05 5.45188E-05-1.32349E-23
 -1       346 2.87902E-05 4.45903E-05-6.61744E-24
 -1       347 3.55097E-05 2.42304E-05 0.00000E+00
 -1       348 4.46646E-05-3.10019E-06 6.61744E-24
 -1       349 5.36960E-05-3.00749E-05-1.32349E-23
 -1       350 6.00420E-05-4.93800E-05-6.61744E-24
 -1       351 6.25157E-05-5.79496E-05 0.00000E+00
 -1       352 5.99557E-05-5.30311E-05 6.61744E-24
 -1       353 5.39664E-05-3.91960E-05 0.00000E+00
 -1       354 4.63524E-05-2.12113E-05 6.61744E-24
 -1       355 3.98698E-05-6.11771E-06 0.00000E+00
 -1       356 4.72337E-05 1.48950E-05 0.00000E+00
 -1       357 4.69339E-05 3.00591E-05 0.00000E+00
 -1       358 4.66524E-05 4.38859E-05 0.00000E+00
 -1       359 4.64008E-05 5.52246E-05 0.00000E+00
 -1       360 4.61788E-05 6.33513E-05 6.61744E-24
 -1       361 4.59799E-05 6.75683E-05 3.30872E-24
 -1       362 4.57895E-05 6.78475E-05 6.61744E-24
 -1       363 4.55928E-05 6.41931E-05 0.00000E+00
 -1       364 4.53800E-05 5.72825E-05 0.00000E+00
 -1       365 4.51472E-05 4.78204E-05 3.30872E-24
 -1       366 4.49010E-05 3.69488E-05 6.61744E-24
 -1       367 4.46527E-05 2.58208E-05-3.30872E-24
 -1       368 4.44139E-05 1.56342E-05 0.00000E+00
 -1       369 4.41966E-05 7.57881E-06 1.65436E-24
 -1       370 4.39966E-05 2.48042E-06 0.00000E+00
 -1       371 3.57113E-05-5.77113E-07 0.00000E+00
 -1       372 3.09290E-05-6.48390E-07 8.27181E-25
 -1       373 3.09739E-05-7.06953E-07-1.65436E-24
 -1       374 3.36197E-05-7.67490E-07 0.00000E+00
 -1       375 3.64945E-05-8.28671E-07 0.00000E+00
 -1       376 4.02802E-05 1.77093E-05 0.00000E+00
 -1       377 3.07713E-05 4.15146E-05 0.00000E+00
 -1       378 2.02427E-05 6.78549E-05 6.61744E-24
 -1       379 9.95638E-06 9.35949E-05-3.30872E-24
 -1       380 1.11115E-06 1.15740E-04 6.61744E-24
 -1       381-5.13507E-06 1.31323E-04 3.30872E-24
 -1       382-8.28181E-06 1.38908E-04-6.61744E-24
 -1       383-7.88706E-06 1.37132E-04 0.00000E+00
 -1       384-4.34646E-06 1.26823E-04 0.00000E+00
 -1       385 1.93120E-06 1.08906E-04 0.00000E+00
 -1       386 9.93362E-06 8.61123E-05-6.61744E-24
 -1       387 1.86643E-05 6.12339E-05 0.00000E+00
 -1       388 2.69719E-05 3.75665E-05 0.00000E+00
 -1       389 3.37019E-05 1.83906E-05 0.00000E+00
 -1       390 3.80315E-05 5.91026E-06 0.00000E+00
 -1       406 4.31851E-05 1.32673E-06 0.00000E+00
 -1       407 4.24769E-05 1.51365E-06 0.00000E+00
 -1       408 4.17082E-05 1.70045E-06-1.32349E-23
 -1       409 4.08895E-05 1.88679E-06 3.30872E-24
 -1       410 4.00313E-05 2.07214E-06 6.61744E-24
 -1       466 3.31263E-05 9.87228E-06 0.00000E+00
 -1       467 3.36048E-05 1.58234E-05 0.00000E+00
 -1       468 3.40977E-05 1.81107E-05 0.00000E+00
 -1       469 3.45968E-05 1.84677E-05-6.61744E-24
 -1       470 3.50958E-05 1.75373E-05 0.00000E+00
 -1       471 3.55948E-05 1.59345E-05 0.00000E+00
 -1       472 3.60932E-05 1.38927E-05 1.32349E-23
 -1       473 3.65911E-05 1.16356E-05 0.00000E+00
 -1       474 3.70888E-05 9.26484E-06 0.00000E+00
 -1       475 3.75862E-05 6.87937E-06-6.61744E-24
 -1       476 3.80835E-05 4.57000E-06 0.00000E+00
 -1       477 3.85798E-05 2.42906E-06 6.61744E-24
 -1       478 3.90765E-05 6.44502E-07 1.32349E-23
 -1       479 3.95666E-05-5.87915E-07 0.00000E+00
 -1       480 4.00598E-05-7.61158E-07 8.27181E-25
 -1       481 2.11075E-05-1.52819E-06 0.00000E+00
 -1       482 1.46812E-05-1.45076E-06 8.27181E-25
 -1       483 1.18746E-05-1.35654E-06 0.00000E+00
 -1       484 1.11432E-05-1.25832E-06 1.65436E-24
 -1       485 1.11434E-05-1.15951E-06 3.30872E-24
 -1       486 2.42819E-05 1.87411E-05 0.00000E+00
 -1       487 1.09427E-05 5.11138E-05 0.00000E+00
 -1       488-2.50400E-06 8.37505E-05 0.00000E+00
 -1       489-1.12692E-05 1.04823E-04 0.00000E+00
 -1       490-1.31703E-05 1.08179E-04 0.00000E+00
 -1       491-6.45172E-06 8.79867E-05 0.00000E+00
 -1       492 6.49563E-06 4.97353E-05 0.00000E+00
 -1       493 2.33910E-05-5.63661E-07-6.61744E-24
 -1       494 4.02653E-05-5.07964E-05 1.32349E-23
 -1       495 5.31458E-05-8.88494E-05 0.00000E+00
 -1       496 5.97716E-05-1.08779E-04 0.00000E+00
 -1       497 5.77719E-05-1.05163E-04 6.61744E-24
 -1       498 4.89303E-05-8.38987E-05 0.00000E+00
 -1       499 3.54587E-05-5.12025E-05 0.00000E+00
 -1       500 2.21470E-05-1.88988E-05 0.00000E+00
 -1       501 4.02714E-05 2.55713E-06 0.00000E+00
 -1       502 4.00401E-05 3.78403E-06 0.00000E+00
 -1       503 3.98088E-05 4.24917E-06 0.00000E+00
 -1       504 3.95793E-05 3.87285E-06 3.30872E-24
 -1       505 3.93494E-05 2.74744E-06 6.61744E-24
 -1       506 3.91189E-05 9.72722E-07-3.30872E-24
 -1       507 3.88877E-05-1.21884E-06 0.00000E+00
 -1       508 3.86561E-05-3.59070E-06 0.00000E+00
 -1       509 3.84248E-05-5.86945E-06-6.61744E-24
 -1       510 3.81942E-05-7.78255E-06 3.30872E-24
 -1       511 3.79645E-05-9.13226E-06 0.00000E+00
 -1       512 3.77355E-05-9.72633E-06-3.30872E-24
 -1       513 3.75067E-05-9.52692E-06 6.61744E-24
 -1       514 3.72774E-05-8.50399E-06 3.30872E-24
 -1       515 3.70472E-05-6.79581E-06 0.00000E+00
 -1       516 3.86524E-05 7.42653E-07 6.61744E-24
 -1       517 3.74746E-05 8.53763E-07 0.00000E+00
 -1       518 3.57333E-05 9.62394E-07 0.00000E+00
 -1       519 3.21796E-05 1.06949E-06 0.00000E+00
 -1       520 2.53563E-05 1.16007E-06-2.06795E-25
 -1       521 3.83542E-05 1.94592E-06 2.64698E-23
 -1       522 3.64161E-05 2.51397E-06 2.64698E-23
 -1       523 3.47121E-05 2.46268E-06 5.29396E-23
 -1       524 3.31981E-05 1.88502E-06 0.00000E+00
 -1       525 3.18411E-05 8.86440E-07 5.29396E-23
 -1       526 3.05993E-05-4.23420E-07 0.00000E+00
 -1       527 2.94309E-05-1.92996E-06 0.00000E+00
 -1       528 2.82919E-05-3.51588E-06 0.00000E+00
 -1       529 2.71383E-05-5.06265E-06 0.00000E+00
 -1       530 2.59261E-05-6.45237E-06-2.64698E-23
 -1       531 2.46121E-05-7.56944E-06-5.29396E-23
 -1       532 2.31554E-05-8.30220E-06 0.00000E+00
 -1       533 2.15156E-05-8.54492E-06 0.00000E+00
 -1       534 1.96613E-05-8.19728E-06 0.00000E+00
 -1       535 1.75507E-05-7.17211E-06 0.00000E+00
 -1       536 3.68278E-05-2.33052E-06 3.30872E-24
 -1       537 3.68514E-05-6.45263E-07 8.27181E-25
 -1       538 3.68754E-05 5.65460E-07 0.00000E+00
 -1       539 3.69015E-05 1.35905E-06 1.80946E-25
 -1       540 3.69280E-05 1.79271E-06-2.06795E-25
 -1       541 3.69550E-05 1.92358E-06-2.06795E-25
 -1       542 3.69820E-05 1.80875E-06 0.00000E+00
 -1       543 3.70091E-05 1.50521E-06 0.00000E+00
 -1       544 3.70361E-05 1.06997E-06 0.00000E+00
 -1       545 3.70632E-05 5.59942E-07-4.13590E-25
 -1       546 3.70902E-05 3.20705E-08 0.00000E+00
 -1       547 3.71173E-05-4.56721E-07 0.00000E+00
 -1       548 3.71444E-05-8.49507E-07 8.27181E-25
 -1       549 3.71716E-05-1.08934E-06 0.00000E+00
 -1       550 3.71988E-05-1.11920E-06 0.00000E+00
 -1       551 3.35871E-05-4.68313E-06-4.39440E-24
 -1       552 2.99945E-05-4.81576E-06 2.89513E-24
 -1       553 2.61973E-05-4.94867E-06 6.61744E-24
 -1       554 2.23577E-05-5.08315E-06 3.30872E-24
 -1       555 1.86379E-05-5.22072E-06-1.32349E-23
 -1       556 3.58631E-05-2.47367E-06 0.00000E+00
 -1       557 3.50927E-05-8.72820E-07 0.00000E+00
 -1       558 3.44842E-05 3.00308E-07 1.32349E-23
 -1       559 3.40184E-05 1.09532E-06 0.00000E+00
 -1       560 3.36763E-05 1.56194E-06 0.00000E+00
 -1       561 3.34387E-05 1.75035E-06 0.00000E+00
 -1       562 3.32868E-05 1.71080E-06 0.00000E+00
 -1       563 3.32014E-05 1.49361E-06 0.00000E+00
 -1       564 3.31639E-05 1.14914E-06-6.61744E-24
 -1       565 3.31552E-05 7.27781E-07-3.30872E-24
 -1       566 3.31564E-05 2.79936E-07 3.30872E-24
 -1       567 3.31488E-05-1.43982E-07 0.00000E+00
 -1       568 3.31134E-05-4.93572E-07-1.65436E-24
 -1       569 3.30319E-05-7.18489E-07 9.04729E-25
 -1       570 3.28858E-05-7.68440E-07 1.65436E-24
 -1       571 3.73415E-05-6.07428E-07 2.48154E-24
 -1       572 3.74602E-05-4.19491E-07 4.13590E-25
 -1       573 3.75799E-05-3.02814E-07 1.65436E-24
 -1       574 3.77001E-05-2.40977E-07 8.27181E-25
 -1       575 3.78205E-05-2.17493E-07 3.30872E-24
 -1       576 3.79410E-05-2.15775E-07 1.65436E-24
 -1       577 3.80615E-05-2.19225E-07 3.30872E-24
 -1       578 3.81821E-05-2.11234E-07-3.30872E-24
 -1       579 3.83026E-05-1.75193E-07 0.00000E+00
 -1       580 3.84231E-05-9.44882E-08 0.00000E+00
 -1       581 3.85437E-05 4.74901E-08 0.00000E+00
 -1       582 3.86641E-05 2.67340E-07 0.00000E+00
 -1       583 3.87846E-05 5.81648E-07-6.61744E-24
 -1       584 3.89048E-05 1.00684E-06 3.30872E-24
 -1       585 3.90249E-05 1.55926E-06 0.00000E+00
 -1       586 3.65690E-05-8.33239E-07 0.00000E+00
 -1       587 3.58156E-05-7.83785E-07 0.00000E+00
 -1       588 3.50067E-05-7.34381E-07 0.00000E+00
 -1       589 3.41837E-05-6.85458E-07-4.13590E-25
 -1       590 3.33880E-05-6.37619E-07 0.00000E+00
 -1       591 3.70318E-05-5.60881E-07 1.65436E-24
 -1       592 3.68529E-05-2.95907E-07 0.00000E+00
 -1       593 3.66901E-05-7.67500E-08 0.00000E+00
 -1       594 3.65403E-05 1.06288E-07 1.65436E-24
 -1       595 3.64003E-05 2.62902E-07 0.00000E+00
 -1       596 3.62664E-05 4.02724E-07-8.27181E-25
 -1       597 3.61352E-05 5.35376E-07 0.00000E+00
 -1       598 3.60031E-05 6.70473E-07 8.27181E-25
 -1       599 3.58664E-05 8.17629E-07-1.65436E-24
 -1       600 3.57217E-05 9.86455E-07 0.00000E+00
 -1       601 3.55652E-05 1.18656E-06-8.27181E-25
 -1       602 3.53935E-05 1.42757E-06-8.27181E-25
 -1       603 3.52030E-05 1.71911E-06-1.24077E-24
 -1       604 3.49905E-05 2.07085E-06 5.68687E-25
 -1       605 3.47529E-05 2.49248E-06 0.00000E+00
 -1       606 3.91863E-05 3.17447E-06 0.00000E+00
 -1       607 3.92253E-05 4.18073E-06 0.00000E+00
 -1       608 3.92635E-05 5.26777E-06 0.00000E+00
 -1       609 3.93011E-05 6.42983E-06 0.00000E+00
 -1       610 3.93386E-05 7.66115E-06 3.30872E-24
 -1       611 3.93759E-05 8.95582E-06 0.00000E+00
 -1       612 3.94131E-05 1.03079E-05 3.30872E-24
 -1       613 3.94502E-05 1.17116E-05 0.00000E+00
 -1       614 3.94873E-05 1.31610E-05 3.30872E-24
 -1       615 3.95243E-05 1.46501E-05 0.00000E+00
 -1       616 3.95612E-05 1.61731E-05 0.00000E+00
 -1       617 3.95981E-05 1.77240E-05 0.00000E+00
 -1       618 3.96350E-05 1.92969E-05 0.00000E+00
 -1       619 3.96718E-05 2.08860E-05 8.27181E-25
 -1       620 3.97084E-05 2.24853E-05 1.65436E-24
 -1       621 3.82774E-05 2.37772E-06-3.30872E-24
 -1       622 3.74348E-05 2.50219E-06 1.65436E-24
 -1       623 3.66257E-05 2.62671E-06 3.30872E-24
 -1       624 3.58593E-05 2.75094E-06 1.65436E-24
 -1       625 3.51448E-05 2.87446E-06-3.30872E-24
 -1       626 3.88697E-05 3.21820E-06 0.00000E+00
 -1       627 3.85599E-05 4.27199E-06 0.00000E+00
 -1       628 3.82191E-05 5.40709E-06 0.00000E+00
 -1       629 3.78510E-05 6.61413E-06 0.00000E+00
 -1       630 3.74594E-05 7.88367E-06 0.00000E+00
 -1       631 3.70479E-05 9.20613E-06 0.00000E+00
 -1       632 3.66200E-05 1.05719E-05 3.30872E-24
 -1       633 3.61794E-05 1.19715E-05 0.00000E+00
 -1       634 3.57296E-05 1.33952E-05 0.00000E+00
 -1       635 3.52745E-05 1.48334E-05 1.65436E-24
 -1       636 3.48174E-05 1.62766E-05 1.65436E-24
 -1       637 3.43620E-05 1.77152E-05 0.00000E+00
 -1       638 3.39118E-05 1.91396E-05 1.65436E-24
 -1       639 3.34702E-05 2.05401E-05 4.13590E-25
 -1       640 3.30405E-05 2.19071E-05 1.24077E-24
 -1       641 3.97459E-05 2.57533E-05 4.13590E-25
 -1       642 3.97456E-05 2.75921E-05 0.00000E+00
 -1       643 3.97450E-05 2.95803E-05 0.00000E+00
 -1       644 3.97440E-05 3.16925E-05-5.16988E-26
 -1       645 3.97428E-05 3.39037E-05 0.00000E+00
 -1       646 3.97413E-05 3.61888E-05 0.00000E+00
 -1       647 3.97398E-05 3.85226E-05 0.00000E+00
 -1       648 3.97381E-05 4.08803E-05 0.00000E+00
 -1       649 3.97365E-05 4.32367E-05 0.00000E+00
 -1       650 3.97349E-05 4.55669E-05 0.00000E+00
 -1       651 3.97333E-05 4.78458E-05 0.00000E+00
 -1       652 3.97318E-05 5.00484E-05 0.00000E+00
 -1       653 3.97304E-05 5.21496E-05-4.13590E-25
 -1       654 3.97284E-05 5.41242E-05 0.00000E+00
 -1       655 3.97269E-05 5.59471E-05 0.00000E+00
 -1       656 3.83016E-05 2.39506E-05-1.65436E-24
 -1       657 3.70517E-05 2.38051E-05-1.65436E-24
 -1       658 3.59272E-05 2.36602E-05 0.00000E+00
 -1       659 3.48599E-05 2.35151E-05-1.65436E-24
 -1       660 3.37815E-05 2.33698E-05 1.65436E-24
 -1       661 3.92801E-05 2.58020E-05-3.30872E-24
 -1       662 3.87698E-05 2.76530E-05 1.65436E-24
 -1       663 3.82156E-05 2.96198E-05 0.00000E+00
 -1       664 3.76261E-05 3.16829E-05 0.00000E+00
 -1       665 3.70080E-05 3.38222E-05 6.61744E-24
 -1       666 3.63687E-05 3.60180E-05 0.00000E+00
 -1       667 3.57155E-05 3.82508E-05 6.61744E-24
 -1       668 3.50557E-05 4.05011E-05 3.30872E-24
 -1       669 3.43967E-05 4.27493E-05 0.00000E+00
 -1       670 3.37457E-05 4.49760E-05 0.00000E+00
 -1       671 3.31102E-05 4.71617E-05 0.00000E+00
 -1       672 3.24973E-05 4.92868E-05-1.65436E-24
 -1       673 3.19145E-05 5.13316E-05-3.30872E-24
 -1       674 3.13682E-05 5.32758E-05-1.65436E-24
 -1       675 3.08673E-05 5.51001E-05 1.65436E-24
 -1       676 3.81646E-05 5.74572E-05 0.00000E+00
 -1       677 3.66094E-05 5.73208E-05 0.00000E+00
 -1       678 3.50557E-05 5.71846E-05 3.30872E-24
 -1       679 3.35043E-05 5.70488E-05 0.00000E+00
 -1       680 3.19557E-05 5.69130E-05 3.30872E-24
 -1       681 1.07411E-05-7.48573E-07 0.00000E+00
 -1       682 1.09529E-05-1.67934E-06-3.30872E-24
 -1       683 1.11633E-05-3.51774E-06 0.00000E+00
 -1       684 1.13735E-05-5.93558E-06 0.00000E+00
 -1       685 1.15829E-05-8.73121E-06-6.61744E-24
 -1       686 1.17919E-05-1.17065E-05 0.00000E+00
 -1       687 1.20010E-05-1.47027E-05 0.00000E+00
 -1       688 1.22105E-05-1.75610E-05-3.30872E-24
 -1       689 1.24207E-05-2.00927E-05 6.61744E-24
 -1       690 1.26321E-05-2.21060E-05 0.00000E+00
 -1       691 1.28446E-05-2.32956E-05 0.00000E+00
 -1       692 1.30573E-05-2.33486E-05 0.00000E+00
 -1       693 1.32685E-05-2.17038E-05 6.61744E-24
 -1       694 1.34715E-05-1.77839E-05-1.65436E-24
 -1       695 1.36565E-05-1.05165E-05 0.00000E+00
 -1       696 9.35610E-06-8.89130E-07 0.00000E+00
 -1       697 7.72627E-06-7.12086E-07 0.00000E+00
 -1       698 5.81570E-06-5.35776E-07 0.00000E+00
 -1       699 3.79254E-06-3.58258E-07 0.00000E+00
 -1       700 1.80463E-06-1.80818E-07 6.61744E-24
 -1       701 9.42581E-06 1.24420E-06 0.00000E+00
 -1       702 7.22237E-06 6.40109E-06 0.00000E+00
 -1       703 4.22669E-06 1.36356E-05 0.00000E+00
 -1       704 7.37597E-07 2.21497E-05 0.00000E+00
 -1       705-2.82593E-06 3.08570E-05 0.00000E+00
 -1       706-6.04584E-06 3.86691E-05-3.30872E-24
 -1       707-8.58493E-06 4.47011E-05 0.00000E+00
 -1       708-1.01166E-05 4.80836E-05 0.00000E+00
 -1       709-1.05486E-05 4.85504E-05 0.00000E+00
 -1       710-9.80108E-06 4.58627E-05 0.00000E+00
 -1       711-8.06220E-06 4.05015E-05 6.61744E-24
 -1       712-5.52611E-06 3.29754E-05-3.30872E-24
 -1       713-2.56456E-06 2.42885E-05-6.61744E-24
 -1       714 4.51716E-07 1.54585E-05-3.30872E-24
 -1       715 3.13528E-06 7.53478E-06 0.00000E+00
 -1       716 1.38149E-05 1.30164E-05 0.00000E+00
 -1       717 1.38875E-05 2.05474E-05-8.27181E-25
 -1       718 1.39794E-05 2.46291E-05 3.30872E-24
 -1       719 1.40796E-05 2.60803E-05 1.65436E-24
 -1       720 1.41809E-05 2.54563E-05-3.30872E-24
 -1       721 1.42804E-05 2.33030E-05-1.65436E-24
 -1       722 1.43771E-05 2.00128E-05 0.00000E+00
 -1       723 1.44711E-05 1.59727E-05 1.65436E-24
 -1       724 1.45633E-05 1.14943E-05 0.00000E+00
 -1       725 1.46548E-05 6.88739E-06 0.00000E+00
 -1       726 1.47469E-05 2.44853E-06 3.30872E-24
 -1       727 1.48399E-05-1.52477E-06 0.00000E+00
 -1       728 1.49355E-05-4.68826E-06 0.00000E+00
 -1       729 1.50294E-05-6.69418E-06 0.00000E+00
 -1       730 1.51265E-05-7.07964E-06-6.61744E-24
 -1       731 2.60695E-06 1.21128E-06 2.58494E-26
 -1       732-3.05060E-06 1.27151E-06 0.00000E+00
 -1       733-4.45885E-06 1.34676E-06 0.00000E+00
 -1       734-2.87870E-06 1.42280E-06-8.27181E-25
 -1       735 6.55284E-07 1.49453E-06 0.00000E+00
 -1       736 7.84775E-06 1.55224E-05 0.00000E+00
 -1       737 1.55556E-06 3.06990E-05 6.61744E-24
 -1       738-3.56315E-06 4.28644E-05 0.00000E+00
 -1       739-6.05131E-06 4.81869E-05 0.00000E+00
 -1       740-5.53875E-06 4.55375E-05 1.32349E-23
 -1       741-1.73313E-06 3.39228E-05 0.00000E+00
 -1       742 4.37577E-06 1.59040E-05 0.00000E+00
 -1       743 1.17971E-05-5.82766E-06 0.00000E+00
 -1       744 1.90523E-05-2.70878E-05 0.00000E+00
 -1       745 2.46602E-05-4.37025E-05 0.00000E+00
 -1       746 2.77553E-05-5.33628E-05 0.00000E+00
 -1       747 2.74787E-05-5.38996E-05 0.00000E+00
 -1       748 2.42950E-05-4.67556E-05 0.00000E+00
 -1       749 1.87528E-05-3.35013E-05 0.00000E+00
 -1       750 1.23802E-05-1.81212E-05 0.00000E+00
 -1       751 1.62224E-05-3.18840E-06 0.00000E+00
 -1       752 1.73136E-05-2.11636E-06-1.32349E-23
 -1       753 1.84012E-05-1.69250E-06 2.64698E-23
 -1       754 1.95012E-05-1.48344E-06 0.00000E+00
 -1       755 2.06016E-05-1.39935E-06 2.64698E-23
 -1       756 2.17044E-05-1.35646E-06-1.32349E-23
 -1       757 2.28076E-05-1.33742E-06-2.64698E-23
 -1       758 2.39112E-05-1.32603E-06-1.32349E-23
 -1       759 2.50148E-05-1.31844E-06 2.64698E-23
 -1       760 2.61181E-05-1.31099E-06 0.00000E+00
 -1       761 2.72213E-05-1.30025E-06 0.00000E+00
 -1       762 2.83227E-05-1.28263E-06 1.32349E-23
 -1       763 2.94239E-05-1.24341E-06-2.64698E-23
 -1       764 3.05162E-05-1.16686E-06-1.32349E-23
 -1       765 3.16115E-05-9.77352E-07 1.32349E-23
 -1       766 1.39703E-05-5.26125E-06 0.00000E+00
 -1       767 1.56965E-05-5.12337E-06 4.13590E-25
 -1       768 1.81490E-05-4.98843E-06 8.27181E-25
 -1       769 1.91058E-05-4.84790E-06-8.27181E-25
 -1       770 1.61297E-05-4.71212E-06 0.00000E+00
 -1       771 1.35634E-05-3.18787E-06 0.00000E+00
 -1       772 1.20758E-05-1.41998E-06 0.00000E+00
 -1       773 1.07303E-05-3.45443E-08-2.64698E-23
 -1       774 9.51408E-06 1.00487E-06 1.32349E-23
 -1       775 8.41390E-06 1.73487E-06 2.64698E-23
 -1       776 7.41603E-06 2.19237E-06-1.32349E-23
 -1       777 6.50656E-06 2.41445E-06 0.00000E+00
 -1       778 5.67149E-06 2.43835E-06-3.97047E-23
 -1       779 4.89680E-06 2.30143E-06 0.00000E+00
 -1       780 4.16841E-06 2.04116E-06 1.32349E-23
 -1       781 3.47228E-06 1.69513E-06 0.00000E+00
 -1       782 2.79440E-06 1.30096E-06 0.00000E+00
 -1       783 2.12079E-06 8.96361E-07 0.00000E+00
 -1       784 1.43811E-06 5.19156E-07 0.00000E+00
 -1       785 7.33104E-07 2.07190E-07 1.32349E-23
 -1       786 3.27679E-05-1.64564E-07 0.00000E+00
 -1       787 3.28820E-05 1.68978E-07-8.27181E-25
 -1       788 3.29960E-05 4.21642E-07 0.00000E+00
 -1       789 3.31110E-05 6.08146E-07-1.65436E-24
 -1       790 3.32262E-05 7.43132E-07-3.30872E-24
 -1       791 3.33416E-05 8.41197E-07 0.00000E+00
 -1       792 3.34571E-05 9.16899E-07 0.00000E+00
 -1       793 3.35726E-05 9.84775E-07 1.65436E-24
 -1       794 3.36880E-05 1.05936E-06 0.00000E+00
 -1       795 3.38035E-05 1.15517E-06 0.00000E+00
 -1       796 3.39190E-05 1.28679E-06-3.30872E-24
 -1       797 3.40343E-05 1.46879E-06 0.00000E+00
 -1       798 3.41496E-05 1.71583E-06 0.00000E+00
 -1       799 3.42644E-05 2.04259E-06 0.00000E+00
 -1       800 3.43792E-05 2.46388E-06 0.00000E+00
 -1       801 2.97543E-05-4.83308E-07 0.00000E+00
 -1       802 2.37151E-05-3.78372E-07-3.30872E-24
 -1       803 1.61309E-05-2.82910E-07 0.00000E+00
 -1       804 8.59094E-06-1.90101E-07 0.00000E+00
 -1       805 2.68459E-06-8.76682E-08 6.61744E-24
 -1       806 3.23655E-05-2.10660E-07-3.30872E-24
 -1       807 3.20812E-05 1.30937E-07 0.00000E+00
 -1       808 3.18083E-05 4.39096E-07-6.61744E-24
 -1       809 3.15446E-05 7.21243E-07-3.30872E-24
 -1       810 3.12877E-05 9.84757E-07-3.30872E-24
 -1       811 3.10350E-05 1.23697E-06-1.65436E-24
 -1       812 3.07837E-05 1.48520E-06 0.00000E+00
 -1       813 3.05311E-05 1.73674E-06 0.00000E+00
 -1       814 3.02746E-05 1.99893E-06 3.30872E-24
 -1       815 3.00113E-05 2.27905E-06 0.00000E+00
 -1       816 2.97386E-05 2.58441E-06 3.30872E-24
 -1       817 2.94537E-05 2.92232E-06 0.00000E+00
 -1       818 2.91540E-05 3.30010E-06 3.30872E-24
 -1       819 2.88371E-05 3.72506E-06 8.27181E-25
 -1       820 2.85007E-05 4.20455E-06 0.00000E+00
 -1       821 3.43817E-05 3.67273E-06-8.27181E-25
 -1       822 3.42655E-05 4.50439E-06 0.00000E+00
 -1       823 3.41493E-05 5.47378E-06-3.30872E-24
 -1       824 3.40319E-05 6.56492E-06-1.65436E-24
 -1       825 3.39143E-05 7.76175E-06-3.30872E-24
 -1       826 3.37964E-05 9.04808E-06 1.65436E-24
 -1       827 3.36783E-05 1.04076E-05 0.00000E+00
 -1       828 3.35601E-05 1.18241E-05 1.65436E-24
 -1       829 3.34419E-05 1.32810E-05-3.30872E-24
 -1       830 3.33236E-05 1.47619E-05-1.65436E-24
 -1       831 3.32054E-05 1.62505E-05-3.30872E-24
 -1       832 3.30873E-05 1.77301E-05-1.65436E-24
 -1       833 3.29694E-05 1.91843E-05 3.30872E-24
 -1       834 3.28524E-05 2.05968E-05 0.00000E+00
 -1       835 3.27354E-05 2.19510E-05 0.00000E+00
 -1       836 3.36841E-05 3.28113E-06 0.00000E+00
 -1       837 3.25965E-05 3.57777E-06 0.00000E+00
 -1       838 3.13635E-05 3.87373E-06 0.00000E+00
 -1       839 3.01204E-05 4.16900E-06-3.30872E-24
 -1       840 2.90024E-05 4.46488E-06 3.30872E-24
 -1       841 3.42255E-05 3.66537E-06 4.13590E-25
 -1       842 3.38960E-05 4.49909E-06 0.00000E+00
 -1       843 3.35111E-05 5.48070E-06 2.06795E-25
 -1       844 3.30761E-05 6.59394E-06 2.06795E-25
 -1       845 3.25984E-05 7.82086E-06 4.13590E-25
 -1       846 3.20847E-05 9.14319E-06 0.00000E+00
 -1       847 3.15425E-05 1.05412E-05-4.13590E-25
 -1       848 3.09793E-05 1.19951E-05 0.00000E+00
 -1       849 3.04027E-05 1.34841E-05-4.13590E-25
 -1       850 2.98208E-05 1.49876E-05 0.00000E+00
 -1       851 2.92412E-05 1.64845E-05 0.00000E+00
 -1       852 2.86720E-05 1.79540E-05 0.00000E+00
 -1       853 2.81208E-05 1.93754E-05 8.27181E-25
 -1       854 2.75950E-05 2.07283E-05 0.00000E+00
 -1       855 2.71025E-05 2.19933E-05 1.65436E-24
 -1       856 3.24933E-05 2.46059E-05 0.00000E+00
 -1       857 3.23560E-05 2.62299E-05 0.00000E+00
 -1       858 3.22184E-05 2.80705E-05 0.00000E+00
 -1       859 3.20796E-05 3.00955E-05-1.65436E-24
 -1       860 3.19402E-05 3.22721E-05 0.00000E+00
 -1       861 3.18005E-05 3.45675E-05 0.00000E+00
 -1       862 3.16606E-05 3.69487E-05 0.00000E+00
 -1       863 3.15204E-05 3.93827E-05 1.65436E-24
 -1       864 3.13803E-05 4.18362E-05-3.30872E-24
 -1       865 3.12401E-05 4.42762E-05 0.00000E+00
 -1       866 3.11001E-05 4.66694E-05 3.30872E-24
 -1       867 3.09604E-05 4.89829E-05 1.65436E-24
 -1       868 3.08211E-05 5.11835E-05 3.30872E-24
 -1       869 3.06826E-05 5.32385E-05-1.65436E-24
 -1       870 3.05443E-05 5.51151E-05 3.30872E-24
 -1       871 3.15271E-05 2.32192E-05 0.00000E+00
 -1       872 3.05097E-05 2.32066E-05 0.00000E+00
 -1       873 2.95426E-05 2.31937E-05 8.27181E-25
 -1       874 2.85963E-05 2.31805E-05 0.00000E+00
 -1       875 2.76412E-05 2.31666E-05 0.00000E+00
 -1       876 3.22947E-05 2.46528E-05-3.30872E-24
 -1       877 3.18926E-05 2.62912E-05 0.00000E+00
 -1       878 3.14204E-05 2.81150E-05-6.61744E-24
 -1       879 3.08898E-05 3.00971E-05-3.30872E-24
 -1       880 3.03102E-05 3.22096E-05 6.61744E-24
 -1       881 2.96918E-05 3.44254E-05-3.30872E-24
 -1       882 2.90446E-05 3.67174E-05 0.00000E+00
 -1       883 2.83789E-05 3.90589E-05 0.00000E+00
 -1       884 2.77046E-05 4.14229E-05 0.00000E+00
 -1       885 2.70318E-05 4.37828E-05 0.00000E+00
 -1       886 2.63706E-05 4.61119E-05 6.61744E-24
 -1       887 2.57309E-05 4.83833E-05 3.30872E-24
 -1       888 2.51230E-05 5.05702E-05 6.61744E-24
 -1       889 2.45558E-05 5.26451E-05 1.65436E-24
 -1       890 2.40411E-05 5.45812E-05 0.00000E+00
 -1       891 2.90706E-05 5.67090E-05-1.65436E-24
 -1       892 2.79923E-05 5.66363E-05-8.27181E-25
 -1       893 2.70401E-05 5.65638E-05-1.65436E-24
 -1       894 2.60779E-05 5.64914E-05 0.00000E+00
 -1       895 2.49697E-05 5.64188E-05 0.00000E+00
 -1       896 3.17520E-07 1.58759E-06 0.00000E+00
 -1       897 6.38322E-07 2.93747E-06-3.30872E-24
 -1       898 9.59153E-07 4.11293E-06-1.32349E-23
 -1       899 1.28066E-06 5.17478E-06 0.00000E+00
 -1       900 1.60228E-06 6.14489E-06 0.00000E+00
 -1       901 1.92407E-06 7.04389E-06 0.00000E+00
 -1       902 2.24593E-06 7.86797E-06-1.32349E-23
 -1       903 2.56785E-06 8.61230E-06 0.00000E+00
 -1       904 2.88984E-06 9.24473E-06-1.32349E-23
 -1       905 3.21183E-06 9.73150E-06 0.00000E+00
 -1       906 3.53384E-06 9.98892E-06 1.32349E-23
 -1       907 3.85551E-06 9.93014E-06 3.30872E-24
 -1       908 4.17694E-06 9.35987E-06 0.00000E+00
 -1       909 4.49581E-06 8.07569E-06-3.30872E-24
 -1       910 4.81316E-06 5.63094E-06 0.00000E+00
 -1       911 5.21631E-06-3.22907E-06-3.30872E-24
 -1       912 5.32007E-06-7.80840E-06 0.00000E+00
 -1       913 5.42471E-06-1.21594E-05 0.00000E+00
 -1       914 5.53067E-06-1.62650E-05 0.00000E+00
 -1       915 5.63774E-06-2.00805E-05 3.30872E-24
 -1       916 5.74605E-06-2.35596E-05 1.65436E-24
 -1       917 5.85568E-06-2.66179E-05 0.00000E+00
 -1       918 5.96668E-06-2.91690E-05-1.65436E-24
 -1       919 6.07903E-06-3.10690E-05 3.30872E-24
 -1       920 6.19247E-06-3.21709E-05-1.65436E-24
 -1       921 6.30640E-06-3.22371E-05 0.00000E+00
 -1       922 6.41929E-06-3.10249E-05-1.65436E-24
 -1       923 6.52873E-06-2.81473E-05-3.30872E-24
 -1       924 6.62874E-06-2.32086E-05-8.27181E-25
 -1       925 6.71279E-06-1.55811E-05 5.16988E-26
 -1       926 6.37576E-06 1.10064E-05 0.00000E+00
 -1       927 5.88278E-06 3.24968E-05 0.00000E+00
 -1       928 5.32693E-06 5.69258E-05 6.61744E-24
 -1       929 4.77032E-06 8.13374E-05-3.30872E-24
 -1       930 4.27733E-06 1.02781E-04 6.61744E-24
 -1       931 3.88889E-06 1.18338E-04 0.00000E+00
 -1       932 3.58253E-06 1.26504E-04 0.00000E+00
 -1       933 3.30796E-06 1.25855E-04 0.00000E+00
 -1       934 2.99767E-06 1.17072E-04-6.61744E-24
 -1       935 2.59898E-06 1.00928E-04 3.30872E-24
 -1       936 2.11658E-06 7.99553E-05 0.00000E+00
 -1       937 1.58618E-06 5.67427E-05 3.30872E-24
 -1       938 1.07459E-06 3.44166E-05 0.00000E+00
 -1       939 6.39484E-07 1.60936E-05 0.00000E+00
 -1       940 2.92752E-07 3.92735E-06 1.32349E-23
 -1       941 1.66840E-06 2.31890E-07 0.00000E+00
 -1       942 3.42864E-06 4.87339E-07 1.32349E-23
 -1       943 5.18311E-06 7.55245E-07 0.00000E+00
 -1       944 6.95503E-06 1.02553E-06 0.00000E+00
 -1       945 8.72747E-06 1.29706E-06 0.00000E+00
 -1       946 1.05034E-05 1.56884E-06 0.00000E+00
 -1       947 1.22797E-05 1.84075E-06-5.29396E-23
 -1       948 1.40567E-05 2.11269E-06-2.64698E-23
 -1       949 1.58336E-05 2.38475E-06-5.29396E-23
 -1       950 1.76102E-05 2.65697E-06-2.64698E-23
 -1       951 1.93864E-05 2.93011E-06 5.29396E-23
 -1       952 2.11598E-05 3.20497E-06 0.00000E+00
 -1       953 2.29329E-05 3.48896E-06 0.00000E+00
 -1       954 2.46918E-05 3.79019E-06 0.00000E+00
 -1       955 2.64553E-05 4.18231E-06 0.00000E+00
 -1       956 2.80532E-05 5.48897E-06 2.06795E-24
 -1       957 2.79602E-05 6.33704E-06 6.20385E-25
 -1       958 2.78668E-05 7.28012E-06 2.89513E-24
 -1       959 2.77732E-05 8.30723E-06 1.65436E-24
 -1       960 2.76794E-05 9.40736E-06 2.48154E-24
 -1       961 2.75855E-05 1.05694E-05 8.27181E-25
 -1       962 2.74916E-05 1.17823E-05-1.65436E-24
 -1       963 2.73976E-05 1.30348E-05 8.27181E-25
 -1       964 2.73036E-05 1.43159E-05-3.30872E-24
 -1       965 2.72096E-05 1.56145E-05 0.00000E+00
 -1       966 2.71155E-05 1.69194E-05-3.30872E-24
 -1       967 2.70215E-05 1.82195E-05-1.65436E-24
 -1       968 2.69276E-05 1.95037E-05-3.30872E-24
 -1       969 2.68338E-05 2.07609E-05 1.65436E-24
 -1       970 2.67404E-05 2.19800E-05 0.00000E+00
 -1       971 2.64627E-05 2.44085E-05 0.00000E+00
 -1       972 2.62716E-05 2.59295E-05-3.30872E-24
 -1       973 2.60803E-05 2.76816E-05-6.61744E-24
 -1       974 2.58878E-05 2.96319E-05-3.30872E-24
 -1       975 2.56949E-05 3.17475E-05-6.61744E-24
 -1       976 2.55016E-05 3.39953E-05 3.30872E-24
 -1       977 2.53081E-05 3.63418E-05-6.61744E-24
 -1       978 2.51143E-05 3.87534E-05 0.00000E+00
 -1       979 2.49205E-05 4.11963E-05-6.61744E-24
 -1       980 2.47267E-05 4.36369E-05 3.30872E-24
 -1       981 2.45331E-05 4.60413E-05-6.61744E-24
 -1       982 2.43398E-05 4.83760E-05-3.30872E-24
 -1       983 2.41469E-05 5.06072E-05-6.61744E-24
 -1       984 2.39554E-05 5.27017E-05 0.00000E+00
 -1       985 2.37641E-05 5.46261E-05 0.00000E+00
 -3
    1PSTEP                        28          14           1          
  100CL  114 7.13169E-01         841                     0   14           1
 -4  STRESS      6    1
 -5  SXX         1    4    1    1
 -5  SYY         1    4    2    2
 -5  SZZ         1    4    3    3
 -5  SXY         1    4    1    2
 -5  SYZ         1    4    2    3
 -5  SZX         1    4    3    1
 -1         1-2.85399E+06-9.27086E+05-5.85744E+05-8.52899E+05 3.49246E-10-7.37297E-10
 -1         2-1.65499E+06-1.96222E+04 1.61195E+04-8.88985E+04-5.48701E-09 2.69210E-09
 -1         3-9.55008E+05-3.28872E+05-2.66510E+04-6.47371E+04 1.80671E-09-6.02995E-10
 -1         4-6.37858E+05-9.31968E+04 1.01211E+03-4.22652E+04 2.46473E-10 2.17989E-09
 -1         5-3.41755E+05 1.21556E+05-1.47904E+05-1.04691E+04 7.80346E-09 5.87738E-09
 -1         8-1.39197E+06-5.47855E+05-1.87170E+05-5.30414E+05 3.98359E-10-1.67347E-10
 -1         9-1.57653E+06-3.56105E+05-1.82657E+05-3.57091E+05 2.54659E-10-3.51914E-09
 -1        10-6.90000E+05-3.76805E+05 4.13663E+03-1.21552E+05-3.28843E-09 4.04937E-09
 -1        11-3.52206E+05-6.09571E+04 7.67904E+03-1.38992E+04 2.96505E-08 1.29345E-09
 -1        12-3.28916E+05 1.05814E+05-1.47320E+05-6.34712E+04 1.01121E-08-3.10412E-09
 -1        15 1.49233E+04 3.77135E+04 1.28219E+04-4.15776E+04 1.90084E-10-5.49335E-09
 -1        16-1.06310E+06-2.09058E+05 9.55535E+03-4.23670E+05 1.66801E-09-1.04289E-10
 -1        17-6.05670E+05-3.91218E+05-6.99779E+04-3.08654E+05 4.57173E-10 2.05425E-09
 -1        18-2.39934E+05-1.02169E+05-8.94129E+04-1.15894E+05-6.33918E-10-5.20837E-10
 -1        19 1.96685E+04 9.99482E+04-3.71575E+04-3.28743E+04-4.02542E-09-1.49157E-09
 -1        20 1.00880E+05-7.43960E+04-1.22723E+04 5.37620E+04 6.48538E-09-3.88536E-09
 -1        21 1.26706E+03-1.50330E+05 3.79627E+04 4.35374E+02 1.30813E-08-6.55387E-10
 -1        22 3.00420E+04 1.65005E+05 1.36354E+03-2.98784E+04-1.91449E-10-1.33514E-09
 -1        23-2.30722E+05 7.17368E+04 1.06369E+04-6.65349E+04-5.45545E-09-8.85241E-10
 -1        24-2.08848E+05 1.25969E+04 2.48412E+05-4.29828E+05-8.68992E-09 3.18687E-09
 -1        25 5.35972E+05 1.90504E+05 1.68408E+05-2.77562E+05 9.30110E-10-4.50503E-10
 -1        26 2.23864E+03 1.68721E+05 8.80121E+03-3.18391E+04 1.48202E-09 3.93356E-10
 -1        27-3.89572E+04-6.35287E+04-2.74672E+04 7.29046E+04 7.00796E-09-6.97279E-10
 -1        28-1.27631E+04-1.17652E+05-6.96817E+02 5.65817E+04 3.94300E-09 6.22297E-10
 -1        29 4.38978E+05 2.79825E+05 1.13274E+03-3.77755E+03-6.15726E-10-3.63798E-09
 -1        30 1.71945E+05 3.92433E+04 1.80867E+03-2.89660E+04-9.92237E-10 9.12405E-09
 -1        31-3.40935E+05 6.63718E+04 8.19927E+03-3.14308E+04-8.44157E-09-1.27875E-08
 -1        32 8.37366E+05 4.57761E+05 5.44038E+05-4.44799E+05 1.43157E-08 1.91358E-09
 -1        33 1.23775E+06 5.26123E+05 3.87239E+05-4.76780E+04-1.56873E-08-1.36333E-09
 -1        34-2.03562E+05-2.85601E+04-8.35743E+03 3.86786E+04 1.02883E-09 6.56200E-10
 -1        35-3.29237E+04-3.89030E+04-7.30114E+02 8.40395E+04 1.14157E-08 2.77699E-10
 -1        36-3.61203E+06 1.06507E+05-2.47114E+05-2.93152E-07 1.13500E-09-6.63567E-09
 -1        37-3.71888E+06-1.23313E+05-1.74738E+05-6.67319E-09-5.23596E-10-6.75027E-09
 -1        38-3.65326E+06 1.66099E+04-6.39124E+04-7.51766E-09-1.02232E-09 1.59343E-09
 -1        39-3.67064E+06-1.92251E+04-4.01237E+04 2.87096E-08-1.42725E-09 1.94768E-09
 -1        40-3.66000E+06 2.58515E+03-1.64072E+04-1.59913E-07 1.82014E-09-1.54614E-11
 -1        41-3.66271E+06-3.02816E+03-9.77754E+03-2.63425E-07-3.17374E-09-8.36008E-09
 -1        42-3.66111E+06 4.38986E+02-4.78269E+03 9.57012E-08-3.64328E-09-4.02679E-10
 -1        43-3.66153E+06-7.71569E+02-3.78423E+03-3.05979E-08-6.18937E-10 4.80017E-09
 -1        44-3.66117E+06 3.31855E+02-3.80897E+03-1.91787E-07-4.41303E-09 1.98213E-09
 -1        45-3.66221E+06-2.10293E+03-6.96091E+03-1.41191E-07-2.05530E-09 3.44698E-10
 -1        46-3.66043E+06 1.76831E+03-1.13284E+04-1.48449E-07 6.87203E-11 3.03589E-09
 -1        47-3.66760E+06-1.31199E+04-2.74414E+04-1.67892E-07-1.51981E-09-4.81850E-09
 -1        48-3.65584E+06 1.13308E+04-4.36348E+04-1.06983E-07-3.19106E-09-4.73847E-09
 -1        49-3.70050E+06-8.41191E+04-1.19217E+05 1.11089E-07-3.33015E-09 9.74978E-10
 -1        50-3.62774E+06 7.26483E+04-1.68633E+05-1.67532E-07-2.91118E-09 2.38651E-09
 -1        51 3.23796E+04-3.78809E+05 5.23781E+04-1.02411E+06-5.82077E-11 2.18279E-09
 -1        52 1.53116E+04-3.75197E+05 3.17786E+04-1.12942E+06 5.02041E-10-3.40515E-09
 -1        53 1.03242E+04-3.86572E+05 2.52628E+04-1.02135E+06-3.49246E-10 3.65253E-09
 -1        54 2.33145E+04-3.83517E+05 3.81512E+04-1.13231E+06-2.98314E-10 4.22006E-10
 -1        55 5.14100E+04-3.96004E+05 6.87614E+04-1.02082E+06 2.91038E-10 2.54659E-11
 -1        56-4.57100E+06-5.15016E+05-3.76678E+05-1.76750E+06-1.06229E-09 5.70435E-09
 -1        57-4.74035E+06-8.30165E+05-2.52835E+05-1.73219E+06-3.41970E-10-5.20959E-09
 -1        58-4.64445E+06-6.33834E+05-8.86340E+04-1.74652E+06 4.65661E-10-4.51109E-10
 -1        59-4.65589E+06-6.89691E+05-5.25526E+04-1.75670E+06 1.05797E-09 2.05728E-09
 -1        60-4.65431E+06-6.50770E+05-2.06971E+04-1.74455E+06 4.45198E-10-2.65845E-09
 -1        61-4.64583E+06-6.68406E+05-1.17083E+04-1.75736E+06-1.39721E-10-2.06637E-09
 -1        62-4.65426E+06-6.54532E+05-5.71539E+03-1.74601E+06 9.30413E-10-1.23919E-10
 -1        63-4.64800E+06-6.62385E+05-4.78049E+03-1.75338E+06-1.29978E-09-3.05715E-09
 -1        64-4.65208E+06-6.56744E+05-5.59567E+03-1.74852E+06 2.29306E-10-1.23282E-09
 -1        65-4.65403E+06-6.59986E+05-1.13358E+04-1.74783E+06 4.53042E-11-3.55590E-09
 -1        66-4.64826E+06-6.56997E+05-2.00111E+04-1.75154E+06-6.01517E-10 2.91493E-09
 -1        67-4.67017E+06-6.74090E+05-5.07464E+04-1.73982E+06-2.34877E-10 4.49745E-09
 -1        68-4.63617E+06-6.43210E+05-8.55985E+04-1.75638E+06-5.38421E-10 3.80896E-09
 -1        69-4.75509E+06-8.06419E+05-2.44141E+05-1.71241E+06 3.36968E-09 1.65892E-09
 -1        70-4.56450E+06-5.29206E+05-3.63747E+05-1.77746E+06-2.98314E-10-6.97037E-09
 -1        71-2.00007E+06 9.38867E+03-2.18243E+04 7.94072E-08-9.43210E-10 1.66256E-09
 -1        72-2.00934E+06-1.08729E+04-1.54265E+04-1.39910E-06 4.37006E-09 7.25618E-09
 -1        73-2.00371E+06 1.46478E+03-5.66025E+03 2.69077E-07 1.18003E-10 2.33808E-09
 -1        74-2.00509E+06-1.69770E+03-3.57600E+03-7.51249E-07-1.84607E-09-3.57090E-09
 -1        75-2.00430E+06 2.30168E+02-1.51287E+03-3.20262E-07 3.61989E-10 3.32756E-09
 -1        76-2.00440E+06-2.84090E+02-9.98240E+02 3.22359E-07-1.48252E-09 6.65324E-09
 -1        77-2.00439E+06 5.35549E+01-6.74500E+02-5.48506E-07-1.39620E-09-6.73399E-10
 -1        78-2.00436E+06-1.80388E+02-8.87657E+02 1.20045E-06 1.51587E-09 2.29894E-09
 -1        79-2.00435E+06 1.26662E+02-1.34094E+03-5.14247E-07 5.70335E-10 5.59442E-09
 -1        80-2.00475E+06-9.15501E+02-2.92476E+03 4.28224E-07-7.76457E-10 3.51980E-09
 -1        81-2.00400E+06 7.87589E+02-4.98682E+03-1.96884E-07-1.13187E-09 1.65278E-09
 -1        82-2.00717E+06-5.86378E+03-1.22436E+04-4.04818E-07 6.05304E-10 7.63976E-11
 -1        83-2.00194E+06 5.06675E+03-1.95219E+04 4.39696E-07-5.54469E-10-1.08594E-09
 -1        84-2.02187E+06-3.76172E+04-5.33425E+04-7.64206E-07-1.55402E-09-1.51522E-09
 -1        85-1.98935E+06 3.24850E+04-7.54800E+04 2.26501E-07-1.47735E-09 2.81216E-09
 -1        86-8.23589E+04 3.37183E+05 1.94806E+05 3.31783E+03 1.45519E-11 1.50959E-09
 -1        87 1.03458E+05 4.25561E+05 1.52191E+05-1.48469E+04-1.01863E-10-4.61289E-09
 -1        88-2.08813E+04 3.65913E+05 7.96466E+04 1.89017E+03-8.35826E-10-5.06762E-09
 -1        89 7.59494E+04 4.12161E+05 1.16151E+05-1.34694E+04 4.13820E-10 3.56087E-09
 -1        90-5.48842E+04 3.50526E+05 1.33033E+05 1.94068E+03-9.74978E-10-4.32853E-09
 -1        91-1.60761E+06-3.08722E+05-3.05719E+04-6.86641E+05 5.80076E-09-1.12436E-09
 -1        92-1.58020E+06-1.19198E+04 3.19495E+04-3.37526E+05 1.99099E-08-7.96035E-10
 -1        93-1.47054E+06-2.98885E+05-2.48728E+03-6.81969E+05 1.23337E-08 4.54179E-10
 -1        94-1.41728E+06-5.70379E+04 5.44529E+04-3.58938E+05-4.05271E-09-5.35692E-09
 -1        95-1.76467E+06-2.69505E+05-5.37794E+04-6.60012E+05-7.69523E-09 5.49335E-10
 -1        96-1.18803E+06-2.23259E+05 6.65264E+04-5.45059E+05 9.47989E-09-3.83579E-10
 -1        97-1.69666E+06-1.35732E+05-1.48974E+04-4.93704E+05 1.11818E-08-2.17869E-09
 -1        98-1.27399E+06-3.52002E+05 2.47554E+04-7.25213E+05-6.15200E-08 1.02634E-08
 -1        99-1.68843E+06-1.31062E+05-1.29663E+04-4.87782E+05-9.94037E-08-6.97946E-09
 -1       100-1.18996E+06-2.32102E+05 6.29774E+04-5.55832E+05-4.87453E-08-1.66731E-08
 -1       101-1.77138E+06-2.64931E+05-5.73772E+04-6.55515E+05-7.55699E-09-9.28048E-09
 -1       102-1.40418E+06-6.54974E+04 4.85094E+04-3.61554E+05 1.20252E-08 3.96153E-09
 -1       103-1.47641E+06-2.95513E+05-1.72434E+04-6.83413E+05 1.54971E-08 7.84257E-09
 -1       104-1.60176E+06-3.86838E+04-7.87213E+03-3.31925E+05-5.88898E-10 5.49880E-09
 -1       105-1.58044E+06-2.85150E+05-8.40779E+04-6.90999E+05 2.05418E-08 8.47649E-09
 -1       106-1.35614E+06 7.91793E+03-1.84090E+04-9.38849E-09 8.70207E-10-1.95996E-09
 -1       107-1.36399E+06-9.16967E+03-1.30124E+04 4.72130E-08-5.42685E-10 1.50249E-09
 -1       108-1.35921E+06 1.23528E+03-4.77420E+03-1.61872E-07-2.70488E-10 7.56472E-10
 -1       109-1.36041E+06-1.43143E+03-3.01309E+03 6.43135E-08 6.66193E-11-5.75915E-09
 -1       110-1.35971E+06 1.93809E+02-1.26832E+03-1.18749E-07 9.06278E-11-5.55531E-09
 -1       111-1.35983E+06-2.37204E+02-8.23971E+02-1.75741E-07-2.73540E-10 2.46001E-09
 -1       112-1.35979E+06 4.30873E+01-5.34367E+02-1.93025E-09-9.87533E-10 1.25008E-09
 -1       113-1.35978E+06-1.36391E+02-6.72008E+02-1.41050E-08-4.61734E-10 2.26845E-09
 -1       114-1.35976E+06 9.31753E+01-9.91458E+02-1.34569E-07-1.17377E-09 4.26013E-09
 -1       115-1.36006E+06-6.69785E+02-2.14500E+03 2.61925E-08-5.05649E-10-2.71285E-10
 -1       116-1.35951E+06 5.75697E+02-3.65045E+03-9.50795E-09-3.45166E-10 6.56428E-10
 -1       117-1.36183E+06-4.28561E+03-8.95464E+03 2.20358E-07-2.18470E-10-4.89354E-09
 -1       118-1.35800E+06 3.70294E+03-1.42762E+04-2.35817E-08-6.31711E-10-4.42924E-10
 -1       119-1.37257E+06-2.74918E+04-3.89952E+04 3.30015E-08 6.02485E-10-3.87445E-10
 -1       120-1.34879E+06 2.37406E+04-5.51783E+04-2.44365E-08-1.32323E-09 8.33097E-10
 -1       121-1.56491E+03-1.08173E+06 6.54038E+03 3.12308E+02-2.04636E-10 4.48381E-10
 -1       122 2.04498E+03-1.07910E+06 4.28793E+03 2.95526E+02-3.54248E-10 1.33477E-08
 -1       123-2.26671E+02-1.08075E+06 1.84443E+03 7.20692E+02-6.42046E-10 1.93540E-09
 -1       124 4.25204E+02-1.08007E+06 1.40986E+03-5.15139E+02-4.56964E-10-4.46562E-09
 -1       125-2.55297E+02-1.08076E+06 1.09777E+03 1.12286E+03-1.35742E-09-1.57615E-09
 -1       126-6.83268E+05-1.03217E+05 2.52463E+04-2.27770E+05 3.51120E-08-5.49335E-10
 -1       127-4.86927E+05-9.34137E+04 4.24389E+04-2.58492E+05 2.98417E-08 8.83665E-09
 -1       128-6.47760E+05-6.06870E+04 6.52344E+03-1.96714E+05-3.25913E-08-1.50758E-08
 -1       129-5.32570E+05-1.40581E+05 8.19892E+03-2.96097E+05-4.20046E-08-2.12674E-08
 -1       130-6.40088E+05-5.42403E+04 1.61781E+03-1.91903E+05-4.66487E-08 6.37351E-09
 -1       131-5.11359E+05-1.26838E+05 1.12176E+04-2.70026E+05-2.45037E-08 7.91258E-09
 -1       132-6.67392E+05-7.56248E+04-9.63753E+03-2.21670E+05 1.06866E-08 2.79874E-09
 -1       133-4.87412E+05-8.03804E+04 2.38310E+04-2.04999E+05 2.24472E-08-1.49447E-09
 -1       134-6.61297E+05-1.02741E+05-1.43229E+04-2.54843E+05 1.69453E-08-2.66050E-09
 -1       135-5.51966E+05-3.94090E+04 1.86854E+04-1.61619E+05-1.76829E-08 7.90214E-09
 -1       136-6.03806E+05-1.15857E+05-6.65180E+03-2.65648E+05 1.94982E-08-2.04352E-09
 -1       137-6.46371E+05-2.30420E+04 1.75461E+03-1.53996E+05 3.23316E-08 2.23658E-08
 -1       138-5.69783E+05-1.16968E+05-4.18901E+03-2.64779E+05 7.36281E-09 2.31989E-09
 -1       139-6.43103E+05-2.89230E+04-7.11816E+03-1.53007E+05 5.40771E-08 4.11197E-08
 -1       140-6.06876E+05-1.10132E+05-2.74910E+04-2.66467E+05 8.98399E-09-1.03428E-08
 -1       141-6.50200E+05-3.33673E+03 7.75470E+03-1.80160E-07 1.05296E-10-7.15772E-10
 -1       142-6.46782E+05 3.86365E+03 5.46975E+03 6.64140E-08-3.68314E-10-3.37695E-09
 -1       143-6.48905E+05-5.19929E+02 1.98112E+03-1.74815E-07-3.05110E-10 1.13437E-09
 -1       144-6.48295E+05 5.97976E+02 1.20235E+03 1.21919E-07-2.51738E-10 4.15814E-09
 -1       145-6.48689E+05-7.70490E+01 4.03810E+02-2.73896E-07 5.09313E-10-4.43038E-09
 -1       146-6.48562E+05 6.43468E+01 6.71345E+01 3.17603E-08 4.91282E-10-5.92694E-09
 -1       147-6.48639E+05 1.28245E+01-3.00804E+02 2.12448E-07-2.55350E-10-3.97364E-10
 -1       148-6.48701E+05-1.77013E+02-8.73382E+02 1.02373E-07 2.49849E-10-5.18426E-10
 -1       149-6.48550E+05 1.64021E+02-1.68230E+03 3.39990E-08 2.88439E-10-3.29419E-09
 -1       150-6.49268E+05-1.24145E+03-3.92442E+03 2.27572E-07-3.58888E-10-6.71662E-09
 -1       151-6.48074E+05 1.07574E+03-6.79374E+03 1.26352E-08-3.20331E-10 2.22644E-09
 -1       152-6.52583E+05-8.01746E+03-1.67440E+04-1.92393E-07-2.05102E-10-6.52108E-10
 -1       153-6.45240E+05 6.92882E+03-2.67182E+04-1.96346E-07 1.62105E-09-2.73940E-09
 -1       154-6.72681E+05-5.14419E+04-7.29818E+04-1.82534E-07 8.98503E-10-5.25597E-09
 -1       155-6.27985E+05 4.44243E+04-1.03248E+05-4.94343E-08 4.55617E-09-2.33558E-09
 -1       156-2.27313E+04-1.69813E+05 5.17738E+04-2.10905E+04-7.35599E-09 5.94059E-09
 -1       157 2.77187E+04-1.35509E+05 4.15542E+04 8.69798E+04-1.87956E-08-3.25433E-09
 -1       158-4.59959E+03-1.60684E+05 1.93082E+04-2.11415E+04-9.41191E-09-3.69880E-09
 -1       159 1.90881E+04-1.11545E+05 3.36617E+04 8.32597E+04-3.89230E-09-3.59159E-09
 -1       160-1.52544E+04-1.92223E+05 2.19612E+04-1.73794E+04 1.75796E-08-2.90720E-09
 -1       161-6.81907E+05-9.26518E+04-3.51627E+03-2.53493E+05-2.07733E-09-1.18325E-09
 -1       162-6.73567E+05-1.03178E+05-2.02932E+03-2.61473E+05 3.91387E-09 1.14380E-09
 -1       163-6.84093E+05-9.12065E+04-7.93712E+02-2.50299E+05 1.07071E-08-3.82045E-09
 -1       164-6.71257E+05-1.04309E+05-4.41042E+02-2.64685E+05 1.52009E-08 6.03177E-09
 -1       165-6.84174E+05-9.14156E+04-2.56257E+02-2.50310E+05 1.25981E-08 1.04119E-09
 -1       166-6.72812E+05-1.01587E+05-2.24206E+01-2.61620E+05 5.51252E-09-2.35188E-09
 -1       167-6.82578E+05-9.40328E+04-5.54060E+02-2.53334E+05-5.53371E-10-6.18141E-09
 -1       168-6.77937E+05-9.57824E+04-3.41871E+02-2.54607E+05-2.58069E-09 2.47233E-09
 -1       169-6.79090E+05-9.73262E+04-1.56877E+03-2.57293E+05 1.12567E-09 2.09093E-09
 -1       170-6.85303E+05-9.10091E+04-3.13104E+03-2.47892E+05 2.36407E-09 2.28920E-09
 -1       171-6.75172E+05-9.87030E+04-5.87549E+03-2.60075E+05-1.32862E-08-2.67391E-10
 -1       172-6.93012E+05-9.54049E+04-1.57005E+04-2.43847E+05-1.20511E-08-3.89900E-09
 -1       173-6.71352E+05-9.28316E+04-2.52991E+04-2.61367E+05-1.79343E-08 2.23372E-09
 -1       174-7.15774E+05-1.42185E+05-7.46444E+04-2.37570E+05-2.75904E-08 1.26884E-08
 -1       175-6.52475E+05-5.20898E+04-1.08161E+05-2.66310E+05-6.89943E-09 6.78847E-09
 -1       191 1.74362E+03 5.44921E+05 2.85472E+03-1.96284E+04-3.00133E-10 1.69712E-09
 -1       192 6.18816E+02 5.45342E+05 1.68370E+03-2.11928E+04 3.69710E-10-2.64845E-09
 -1       193 2.63137E+02 5.45049E+05 1.30974E+03-1.93711E+04-8.82096E-10 1.00954E-09
 -1       194 7.65425E+02 5.45358E+05 1.92999E+03-2.16633E+04 2.46928E-10 1.73804E-09
 -1       195 2.18422E+03 5.44826E+05 3.46844E+03-1.91551E+04-1.30603E-09-4.19277E-10
 -1       251-2.01246E+06 2.42766E+04-1.01859E+05-9.37747E+04 1.82990E-09-2.40107E-10
 -1       252-1.86133E+06-2.80256E+04-3.65152E+04 2.54691E+05 3.92563E-09 4.04543E-09
 -1       253-1.96083E+06 7.79866E+03-2.51860E+04-1.19568E+05 1.84764E-09-3.58432E-09
 -1       254-1.73141E+06 3.13140E+03 2.96289E+04 1.57845E+05 3.06045E-10-2.06296E-09
 -1       255-2.13431E+06-1.47157E+04-4.64476E+04 3.12204E+03 5.30690E-09 5.43378E-09
 -1       256-1.70495E+06 1.17154E+04 4.49315E+04-9.98631E+04-2.69370E-09 5.24892E-09
 -1       257-1.98540E+06-2.59940E+03-1.08111E+04 1.37833E+05-2.60025E-09 6.06141E-09
 -1       258-1.85884E+06 1.01846E+04 1.65514E+04-2.32226E+05-4.76561E-10 6.41609E-09
 -1       259-1.99069E+06-3.09813E+03-1.19300E+04 1.35802E+05-8.85348E-09 1.10166E-08
 -1       260-1.70037E+06 1.17729E+04 4.58693E+04-9.36166E+04 8.77935E-09-5.47675E-09
 -1       261-2.13330E+06-1.45654E+04-4.61314E+04-1.09445E+03 5.06498E-09 5.97993E-10
 -1       262-1.73666E+06 3.01053E+03 2.87750E+04 1.63461E+05 4.87921E-09-1.14323E-09
 -1       263-1.95694E+06 8.12132E+03-2.39954E+04-1.20963E+05-8.60132E-09-3.72074E-09
 -1       264-1.85903E+06-2.72638E+04-3.51807E+04 2.53323E+05-4.77011E-08 6.64841E-10
 -1       265-2.01850E+06 2.30581E+04-1.01810E+05-9.10074E+04-2.08884E-08-1.24055E-09
 -1       266-2.87586E+04-2.57718E+05 6.65729E+04-7.22574E+03 0.00000E+00-8.61854E-09
 -1       267 3.17376E+04-2.27287E+05 4.48066E+04 3.33482E+04 2.63753E-11-2.59837E-09
 -1       268-3.07165E+03-2.47579E+05 1.16801E+04-6.20158E+03-4.54747E-11 7.61702E-12
 -1       269-4.85845E+03-2.37388E+05-2.25219E+03 2.90933E+04-9.45874E-11 8.55147E-09
 -1       270 7.48179E+03-2.47243E+05-1.85215E+04-2.97641E+03 3.41970E-10 5.25665E-09
 -1       271-3.87764E+06-4.90351E+05-3.03356E+05-1.50364E+06 2.51384E-09 2.63390E-09
 -1       272-3.98342E+06-6.89510E+05-1.91503E+05-1.50449E+06 9.32005E-10-3.77804E-09
 -1       273-3.93203E+06-5.57638E+05-7.15358E+04-1.49365E+06 2.41869E-09-9.05857E-09
 -1       274-3.91968E+06-6.02980E+05-3.92798E+04-1.52195E+06 4.14025E-09 4.11092E-10
 -1       275-3.93956E+06-5.63486E+05-1.66307E+04-1.49130E+06 2.05455E-09-2.75577E-10
 -1       276-3.91056E+06-5.95898E+05-8.79479E+03-1.52599E+06 1.10094E-09-3.96813E-09
 -1       277-3.94123E+06-5.63324E+05-4.51170E+03-1.49025E+06-1.74668E-09-9.84301E-10
 -1       278-3.90877E+06-5.96135E+05-3.54315E+03-1.52748E+06 2.36889E-09 1.62311E-09
 -1       279-3.94150E+06-5.63059E+05-4.24404E+03-1.48997E+06 9.02673E-11 4.77030E-09
 -1       280-3.90959E+06-5.96778E+05-8.08268E+03-1.52722E+06-6.11863E-10 5.24051E-09
 -1       281-3.94040E+06-5.62771E+05-1.51506E+04-1.49047E+06 9.40872E-10-6.58474E-10
 -1       282-3.91724E+06-6.03928E+05-3.57840E+04-1.52440E+06-8.57654E-10-3.42880E-09
 -1       283-3.93387E+06-5.57128E+05-6.51055E+04-1.49226E+06 3.65594E-09-5.01313E-09
 -1       284-3.97474E+06-6.83237E+05-1.74350E+05-1.50912E+06 3.67800E-09-1.75169E-09
 -1       285-3.88457E+06-4.95665E+05-2.76171E+05-1.50111E+06 2.07365E-09-1.39698E-09
 -1       286-6.05544E+05-1.61911E+04 3.76077E+04-2.18881E+03 2.75620E-09 8.62201E-10
 -1       287-5.88756E+05 1.87559E+04 2.66573E+04 2.33924E+03 7.40329E-10 6.21003E-09
 -1       288-5.99384E+05-2.53734E+03 9.69807E+03-6.38797E+02 5.26626E-10 3.75076E-09
 -1       289-5.95994E+05 2.93498E+03 6.20612E+03-9.67057E+02-4.07965E-10 4.00564E-09
 -1       290-5.98312E+05-4.03326E+02 2.48484E+03 1.11756E+03-5.20117E-12 6.70752E-11
 -1       291-5.97388E+05 4.74954E+02 1.57641E+03-3.98050E+03 1.93081E-09 1.19749E-09
 -1       292-5.98003E+05-7.30296E+01 7.97271E+02 2.37469E+03 1.58009E-09-4.00513E-09
 -1       293-5.97745E+05 1.58457E+02 7.48260E+02-5.50061E+03 5.62913E-10 6.32000E-09
 -1       294-5.97966E+05-7.88191E+01 8.79116E+02 2.63772E+03 1.87863E-09-5.06930E-10
 -1       295-5.97464E+05 5.43279E+02 1.76578E+03-4.92941E+03 1.79106E-09-2.23849E-09
 -1       296-5.98279E+05-4.60771E+02 2.87980E+03 1.80346E+03 3.16703E-10-1.24032E-09
 -1       297-5.95833E+05 3.39065E+03 7.14380E+03-2.49282E+03 4.14531E-10-1.00169E-09
 -1       298-5.99581E+05-2.93191E+03 1.12176E+04 2.01085E+02-6.80814E-10-4.77121E-09
 -1       299-5.87307E+05 2.16873E+04 3.08277E+04 8.32371E+02-3.98870E-10-6.05723E-09
 -1       300-6.06788E+05-1.87257E+04 4.34760E+04-1.52179E+03 5.58487E-11-1.90630E-09
 -1       301 5.26832E+04 2.09446E+04 1.15387E+05-3.17427E+04 3.08501E-09-1.19900E-09
 -1       302 1.78556E+04 4.25127E+04 7.03292E+04-3.73178E+04 2.12731E-09-3.34158E-09
 -1       303 5.07051E+03 2.86196E+04 5.58774E+04-3.18336E+04 2.79078E-09-5.65967E-09
 -1       304 2.24654E+04 4.52214E+04 8.26162E+04-3.72754E+04 2.10002E-09-4.04441E-09
 -1       305 6.76514E+04 1.82610E+04 1.45215E+05-3.17496E+04 2.80124E-09 2.07137E-09
 -1       306-2.65470E+06-3.44582E+05-1.78483E+05-1.02908E+06 4.45652E-10-2.61934E-10
 -1       307-2.70067E+06-4.77344E+05-1.12568E+05-1.04781E+06-1.27329E-10-2.63753E-10
 -1       308-2.68691E+06-3.83791E+05-4.21188E+04-1.02303E+06-6.68479E-10 1.56979E-09
 -1       309-2.66321E+06-4.26739E+05-2.31196E+04-1.05847E+06-2.89219E-10 4.63842E-10
 -1       310-2.69140E+06-3.87144E+05-9.82391E+03-1.02163E+06 6.92580E-10 2.71393E-09
 -1       311-2.65800E+06-4.22516E+05-5.24252E+03-1.06086E+06 2.60025E-09 4.07226E-10
 -1       312-2.69230E+06-3.87117E+05-2.78898E+03-1.02111E+06 1.03819E-09 3.98273E-10
 -1       313-2.65723E+06-4.22404E+05-2.38168E+03-1.06142E+06 4.50324E-09 9.50092E-09
 -1       314-2.69226E+06-3.87145E+05-3.09978E+03-1.02115E+06 4.87489E-10 7.57382E-10
 -1       315-2.65822E+06-4.22508E+05-6.09861E+03-1.06068E+06-7.28505E-10 1.15142E-09
 -1       316-2.69120E+06-3.87152E+05-1.15603E+04-1.02174E+06-9.77707E-10-2.18824E-09
 -1       317-2.66429E+06-4.27619E+05-2.72961E+04-1.05802E+06-1.15324E-09-3.45290E-09
 -1       318-2.68600E+06-3.83072E+05-4.97390E+04-1.02327E+06-5.36375E-10 8.98581E-10
 -1       319-2.70830E+06-4.87708E+05-1.32988E+05-1.04583E+06-1.02216E-09-5.52973E-10
 -1       320-2.64815E+06-3.36512E+05-2.10800E+05-1.03019E+06-7.40329E-10 1.70257E-09
 -1       321-5.36044E+05-2.23955E+04 4.90739E+04 3.70021E+03-7.98536E-10-2.14641E-10
 -1       322-4.99407E+05 2.58510E+04 3.74195E+04-1.78908E+04 6.70735E-09 2.48656E-09
 -1       323-5.23702E+05-3.54907E+03 1.25645E+04 1.04241E+04-2.57546E-09 2.34741E-09
 -1       324-5.16004E+05 4.21592E+03 8.57144E+03-2.73905E+04-1.73885E-08 4.12570E-10
 -1       325-5.19830E+05-5.15434E+02 3.36116E+03 1.32025E+04 2.13151E-09-1.67529E-09
 -1       326-5.18178E+05 8.42267E+02 2.18913E+03-2.80091E+04 4.43553E-09 1.09617E-09
 -1       327-5.21561E+05-1.58786E+02 4.52217E+02 1.10431E+04-1.04329E-08 2.14300E-09
 -1       328-5.12228E+05 3.41310E+02 1.88387E+03-1.94594E+04 5.77359E-10 1.33038E-09
 -1       329-5.25434E+05-2.84403E+02-1.06513E+03 4.64985E+03 6.82428E-09-1.43061E-09
 -1       330-5.07178E+05 2.66193E+02 2.35894E+03-4.60376E+03 1.50294E-10-1.94509E-09
 -1       331-5.26321E+05-3.05880E+02-1.71406E+03-3.80968E+03-5.89489E-09 2.68128E-09
 -1       332-5.09851E+05-3.75485E+01 1.08314E+03 1.14169E+04 1.89845E-08-2.63083E-09
 -1       333-5.22894E+05 1.22867E+02-2.23314E+03-1.13671E+04 1.16279E-08-5.46612E-09
 -1       334-5.18010E+05-2.36553E+03-3.47787E+03 2.30445E+04 1.64159E-08-8.50434E-10
 -1       335-5.18550E+05 2.31674E+03-5.96781E+03-1.54418E+04-1.52346E-08-4.09955E-09
 -1       336-8.70287E+01-1.08090E+06-1.16000E+03-5.54096E+03-1.49612E-09 9.39053E-10
 -1       337-8.38792E+02-1.08154E+06-4.87032E+03-2.82731E+04-1.15637E-09-2.39095E-09
 -1       338 9.42971E+02-1.08010E+06-9.88281E+03-5.33526E+03-2.02635E-09-8.18727E-09
 -1       339-1.22535E+04-1.08838E+06-2.51408E+04-2.85345E+04-9.02673E-10 5.99300E-10
 -1       340 9.15229E+03-1.07413E+06-3.94834E+04-5.28447E+03-1.27147E-09 1.69578E-10
 -1       341-1.50924E+06-2.37070E+05-6.32295E+04-6.28704E+05-2.12040E-08 6.32645E-09
 -1       342-1.59398E+06-1.30407E+05-2.73308E+04-4.37758E+05-4.30673E-08-4.52519E-09
 -1       343-1.47971E+06-2.58102E+05-1.43047E+04-6.29517E+05 1.14764E-08 4.69663E-09
 -1       344-1.50014E+06-1.40066E+05 1.16582E+04-4.67600E+05 1.97477E-08-7.17364E-10
 -1       345-1.60075E+06-2.29748E+05-2.16400E+04-5.96806E+05-2.44745E-09-1.00317E-09
 -1       346-1.38638E+06-2.36160E+05 2.00251E+04-5.81994E+05-1.60160E-08-4.82072E-09
 -1       347-1.59278E+06-1.62537E+05-5.04340E+03-5.14698E+05-3.01322E-08 1.84085E-08
 -1       348-1.39457E+06-2.97407E+05 7.01997E+03-6.63139E+05 2.58498E-08 2.91624E-08
 -1       349-1.59545E+06-1.65220E+05-7.08236E+03-5.18248E+05 2.13570E-08 6.14978E-09
 -1       350-1.38882E+06-2.31547E+05 1.78319E+04-5.74511E+05-1.96551E-08-9.33710E-10
 -1       351-1.59546E+06-2.31864E+05-2.67062E+04-6.00580E+05 8.09632E-09 5.64205E-09
 -1       352-1.51400E+06-1.44008E+05-3.97790E+03-4.62580E+05 2.00964E-09 2.54386E-09
 -1       353-1.47138E+06-2.51826E+05-3.69305E+04-6.30963E+05-1.61162E-09 2.70120E-09
 -1       354-1.61869E+06-1.80712E+05-9.61915E+04-4.29563E+05 3.08692E-08 7.45786E-09
 -1       355-1.49281E+06-1.93203E+05-1.64433E+05-6.35357E+05 1.01136E-08-4.32192E-09
 -1       356-5.40532E+05 3.15370E+03-7.92499E+03-1.71263E+04-1.88589E-09-1.23191E-09
 -1       357-5.42280E+05-3.26092E+03-5.10568E+03 2.76986E+04-2.95374E-08 3.56067E-10
 -1       358-5.44870E+05 2.69112E+02-2.65714E+03-1.38864E+04-1.11196E-08 7.44080E-10
 -1       359-5.32752E+05-1.13661E+02 6.73185E+02 1.66610E+04 1.97601E-08-3.99467E-10
 -1       360-5.49613E+05-3.31581E+02-2.12612E+03-6.08210E+03 7.86576E-09 5.02610E-10
 -1       361-5.27584E+05 2.90784E+02 2.42891E+03-7.73932E+02 6.13079E-09 5.06380E-09
 -1       362-5.49768E+05-3.44597E+02-2.04518E+03 3.54578E+03-5.44924E-09 5.33461E-09
 -1       363-5.32160E+05 1.52165E+02 1.12896E+03-1.83342E+04-2.77015E-09 2.11600E-09
 -1       364-5.45293E+05 4.49381E+00-2.18949E+03 1.14732E+04 1.46586E-08 4.47517E-09
 -1       365-5.40688E+05-8.21285E+02-3.07314E+03-2.96677E+04-2.65578E-08 1.57667E-09
 -1       366-5.41691E+05 9.75200E+02-6.10538E+03 1.48826E+04 2.12575E-08 3.04499E-09
 -1       367-5.44679E+05-6.87400E+03-1.48135E+04-3.08101E+04 2.57852E-08-4.31010E-09
 -1       368-5.41364E+05 6.09181E+03-2.45803E+04 1.26163E+04 9.14031E-09 2.61662E-09
 -1       369-5.55315E+05-4.56205E+04-6.40931E+04-2.12324E+04 2.10195E-08 6.66478E-09
 -1       370-5.30651E+05 3.93369E+04-9.48455E+04 5.30066E+03 8.89008E-09 4.97312E-09
 -1       371-1.33874E+04-1.93875E+05 1.90114E+04-1.38425E+04 2.33722E-08 1.67665E-09
 -1       372 1.23374E+04-1.31251E+05 2.00406E+04 6.92326E+04-1.61845E-09-1.30717E-09
 -1       373 3.03138E+02-1.67599E+05-8.07554E+01-1.74440E+04-2.94949E-09 8.89600E-10
 -1       374-1.00401E+04-1.64282E+05-1.19432E+04 7.29863E+04-1.29621E-08-3.25815E-09
 -1       375 9.87307E+03-1.62112E+05-2.29364E+04-1.75865E+04-5.05497E-09-7.98423E-09
 -1       376-5.71906E+05-9.92664E+04-2.12339E+04-2.47770E+05 6.38811E-08 6.91216E-11
 -1       377-6.22153E+05-4.13622E+04-9.35545E+03-1.63176E+05 5.19085E-08 1.11422E-08
 -1       378-5.55791E+05-1.06188E+05-3.91975E+03-2.47532E+05-4.61811E-08 1.39194E-08
 -1       379-6.11519E+05-3.69561E+04 9.88628E+02-1.64646E+05-4.34642E-08-1.29092E-08
 -1       380-5.82312E+05-1.03828E+05-5.16462E+03-2.46120E+05 3.28669E-09 4.98301E-09
 -1       381-5.47704E+05-5.26910E+04 1.18254E+04-1.76261E+05 1.89441E-08 3.81715E-09
 -1       382-6.17843E+05-9.17522E+04-9.12921E+03-2.34533E+05 2.10021E-08-2.48519E-10
 -1       383-5.08281E+05-8.49578E+04 1.31886E+04-2.11968E+05 1.88168E-08-2.22121E-09
 -1       384-6.21420E+05-7.18043E+04-6.57793E+03-2.10243E+05-3.79771E-08 5.05077E-09
 -1       385-5.20656E+05-1.18374E+05 2.73657E+03-2.56281E+05-4.69686E-08 2.25160E-09
 -1       386-6.07178E+05-5.70671E+04-4.50622E+03-1.91511E+05 3.42118E-08 2.01583E-08
 -1       387-5.33675E+05-1.33146E+05-1.02880E+04-2.69828E+05 4.37850E-08 1.08876E-08
 -1       388-6.09191E+05-5.64545E+04-2.07982E+04-1.97255E+05 1.05842E-07 1.07493E-08
 -1       389-5.33816E+05-1.43854E+05-4.66147E+04-2.33872E+05 9.36739E-08 4.61296E-09
 -1       390-6.05531E+05-4.75387E+04-8.93884E+04-2.26354E+05 5.78621E-09-3.07045E-09
 -1       406 1.71367E+03 5.36340E+05 3.42797E+03-5.74498E+04-1.84809E-09 1.52431E-09
 -1       407 1.02118E+03 5.36930E+05 3.76465E+03-6.32192E+04 3.66526E-10 2.49020E-09
 -1       408 1.45236E+03 5.36253E+05 5.86890E+03-5.72584E+04-2.20143E-09 1.09776E-09
 -1       409 5.67466E+03 5.38480E+05 1.23902E+04-6.34720E+04 5.92991E-10-2.20916E-09
 -1       410 1.62960E+04 5.34657E+05 2.48665E+04-5.71777E+04-2.13549E-09 3.67299E-09
 -1       466 1.39297E+06-5.61989E+04 1.24779E+05 3.34241E+04-1.00999E-09-9.78616E-09
 -1       467 1.48065E+06 6.41157E+04 9.38473E+04-5.37961E+04-4.42242E-11-3.72893E-10
 -1       468 1.42772E+06-8.26258E+03 3.29148E+04 9.24250E+03 8.32870E-10-1.41699E-09
 -1       469 1.44023E+06 9.47481E+03 2.11462E+04-2.12711E+04 1.01093E-09 1.85537E-10
 -1       470 1.43269E+06-1.22945E+03 8.67975E+03 8.93972E+02 2.60110E-09-1.34150E-10
 -1       471 1.43449E+06 1.48833E+03 5.43575E+03-1.00826E+04-1.28374E-09 2.01504E-09
 -1       472 1.43339E+06-2.35781E+02 3.14968E+03-1.94615E+03 1.13138E-09 4.44783E-09
 -1       473 1.43386E+06 6.74389E+02 3.40246E+03-6.50661E+03 1.46112E-09-6.29207E-09
 -1       474 1.43331E+06-4.10093E+02 4.59455E+03-2.68209E+03-7.79963E-10 2.35423E-09
 -1       475 1.43505E+06 2.97028E+03 9.60280E+03-6.26114E+03 1.75821E-09 1.49385E-09
 -1       476 1.43219E+06-2.52790E+03 1.62175E+04-2.19160E+03 2.66848E-09 4.97494E-09
 -1       477 1.44297E+06 1.88966E+04 3.96502E+04-9.05761E+03 3.26587E-10 1.67802E-10
 -1       478 1.42538E+06-1.63125E+04 6.31412E+04 1.14481E+02 4.52616E-10 3.67072E-09
 -1       479 1.49159E+06 1.21373E+05 1.72532E+05-1.84535E+04 2.81571E-09-1.27329E-11
 -1       480 1.38359E+06-1.04829E+05 2.43671E+05 7.20352E+03 4.24791E-09-1.45519E-09
 -1       481-1.26819E+04 2.65523E+05 2.38582E+04-1.54275E+04-2.58296E-10-2.57432E-09
 -1       482 1.42729E+04 3.06461E+05 2.30109E+04 4.78409E+04-2.24418E-10 7.34281E-09
 -1       483-2.09761E+03 2.80977E+05 8.51124E+03-1.07822E+04-3.86535E-11 2.66880E-09
 -1       484 5.84327E+03 2.89169E+05 1.03410E+04 4.22713E+04-5.51381E-11-1.33127E-09
 -1       485-3.77800E+03 2.82101E+05 9.76362E+03-9.85092E+03 1.76442E-10 2.40163E-11
 -1       486-1.29310E+06-2.23525E+05-1.41600E+05-6.13185E+05-7.63248E-09-1.39626E-08
 -1       487-1.43626E+06-5.15103E+04-6.21665E+04-2.59896E+05 3.24144E-09 3.59132E-08
 -1       488-1.30755E+06-2.60270E+05-4.12390E+04-6.06104E+05 5.96617E-09-5.75710E-09
 -1       489-1.14210E+06-5.56115E+04 4.69018E+04-2.93924E+05-1.73168E-09-6.45787E-09
 -1       490-1.57790E+06-2.28059E+05-6.24983E+04-5.71153E+05-1.68893E-09 3.71256E-09
 -1       491-9.74826E+05-2.09822E+05 6.12461E+04-4.85122E+05-1.83463E-08 2.28340E-08
 -1       492-1.47439E+06-1.06447E+05-1.35649E+04-4.15181E+05 2.84808E-09-1.02650E-08
 -1       493-1.08715E+06-3.21638E+05 2.01149E+04-6.48002E+05-4.01822E-09 5.73817E-09
 -1       494-1.47539E+06-1.07044E+05-1.37055E+04-4.15900E+05-3.10592E-10 1.20526E-08
 -1       495-9.74771E+05-2.08598E+05 6.19297E+04-4.83826E+05 1.06113E-08-3.32899E-08
 -1       496-1.57689E+06-2.28752E+05-6.14876E+04-5.71671E+05 4.88035E-09-9.24274E-09
 -1       497-1.14428E+06-5.38221E+04 4.88704E+04-2.93878E+05 6.84213E-09-9.08040E-09
 -1       498-1.30645E+06-2.61295E+05-3.69587E+04-6.05690E+05 3.48911E-09-2.83162E-08
 -1       499-1.43143E+06-4.32435E+04-5.05199E+04-2.61470E+05-2.57705E-09-3.16213E-08
 -1       500-1.29902E+06-2.30760E+05-1.25225E+05-6.12025E+05-3.02498E-08 2.37778E-08
 -1       501-6.66324E+05-2.54400E+04 5.90774E+04-2.16933E+03 2.48320E-09-3.09956E-09
 -1       502-6.39891E+05 2.94670E+04 4.18799E+04 1.94449E+03 2.26146E-09-2.96950E-10
 -1       503-6.56586E+05-3.98567E+03 1.52217E+04 2.73112E+01 1.30598E-10-2.16642E-09
 -1       504-6.51413E+05 4.60794E+03 9.69188E+03-2.44360E+03-4.08079E-10-1.71383E-09
 -1       505-6.54824E+05-6.27246E+02 3.85115E+03 2.21883E+03 1.71252E-09 1.73486E-10
 -1       506-6.53665E+05 7.26871E+02 2.29347E+03-5.85645E+03 2.75978E-09-2.92968E-09
 -1       507-6.54358E+05-9.55583E+01 9.78946E+02 3.44023E+03 2.79682E-09 6.60350E-10
 -1       508-6.54137E+05 1.22674E+02 5.46084E+02-6.80493E+03 1.33008E-09 8.85279E-10
 -1       509-6.54361E+05-1.72650E+01 2.28018E+02 3.16734E+03 1.79786E-09 4.02085E-09
 -1       510-6.53912E+05 2.79812E+01 1.79552E+02-4.88097E+03 2.28574E-09 3.11809E-09
 -1       511-6.54568E+05-1.34471E+01-2.21941E+01 1.51620E+03 2.83251E-10 2.45001E-09
 -1       512-6.53649E+05-9.51915E+00 8.48020E+01-9.03974E+02 8.98822E-10-4.34276E-09
 -1       513-6.54608E+05 7.57450E+00-1.59759E+02-8.09713E+02 1.95286E-10-3.06302E-09
 -1       514-6.53876E+05-1.78669E+02-1.91720E+02 3.43136E+03-2.52986E-09-3.10500E-09
 -1       515-6.54349E+05 1.61865E+02-4.41001E+02-2.81917E+03-1.07900E-09-2.03156E-09
 -1       516-6.32882E+04 3.03785E+05 1.48810E+05-9.70512E+03-5.96629E-10 2.09178E-09
 -1       517 7.61459E+04 3.71221E+05 1.10877E+05 3.91263E+04-9.67702E-10 5.75042E-10
 -1       518-1.27880E+04 3.25613E+05 4.93829E+04-1.04452E+04-4.91127E-10 4.90263E-09
 -1       519 3.55091E+04 3.63571E+05 5.91439E+04 4.48934E+04-2.27578E-09-6.79961E-10
 -1       520-2.31370E+04 3.12012E+05 5.31825E+04-1.54783E+04-1.26965E-09-9.00741E-09
 -1       521-3.73923E+06-4.78567E+05-2.61539E+05-1.44498E+06-7.27596E-12-2.53203E-09
 -1       522-3.82169E+06-6.58804E+05-1.65063E+05-1.45566E+06 5.14547E-10 3.37059E-09
 -1       523-3.78623E+06-5.36399E+05-6.16662E+04-1.43625E+06-3.68118E-10 3.78350E-10
 -1       524-3.76679E+06-5.84273E+05-3.38657E+04-1.47084E+06-3.00133E-11-2.91038E-11
 -1       525-3.79268E+06-5.41470E+05-1.43352E+04-1.43429E+06-9.32232E-11-3.02134E-09
 -1       526-3.75919E+06-5.77918E+05-7.60101E+03-1.47405E+06 2.94858E-09 2.69870E-09
 -1       527-3.79391E+06-5.41540E+05-3.91935E+03-1.43361E+06-1.14255E-09 1.19178E-09
 -1       528-3.75814E+06-5.77598E+05-3.13431E+03-1.47468E+06-5.64209E-09-9.92941E-10
 -1       529-3.79379E+06-5.41669E+05-3.82567E+03-1.43374E+06 4.49973E-10 4.83988E-09
 -1       530-3.75956E+06-5.77435E+05-7.32939E+03-1.47348E+06-1.52636E-09-2.01203E-09
 -1       531-3.79235E+06-5.41870E+05-1.37976E+04-1.43467E+06-1.99179E-10-1.21145E-09
 -1       532-3.76732E+06-5.83047E+05-3.25429E+04-1.46978E+06 1.55160E-09 9.37689E-10
 -1       533-3.78588E+06-5.37270E+05-5.92702E+04-1.43684E+06-5.86397E-10-6.30826E-09
 -1       534-3.82056E+06-6.54134E+05-1.58593E+05-1.45458E+06 2.78646E-09 3.12866E-10
 -1       535-3.74046E+06-4.81980E+05-2.51322E+05-1.44552E+06 1.09139E-10-3.20142E-10
 -1       536 6.64795E+04-1.55436E+04 6.66126E+04-9.33343E+03 3.83807E-10 1.61890E-09
 -1       537 9.09194E+04 2.07555E+04 4.27098E+04-3.65109E+04-2.74258E-09 4.27826E-09
 -1       538 7.64861E+04-1.68284E+03 1.72290E+04-9.23804E+03 1.56433E-10-1.17143E-09
 -1       539 7.94925E+04 1.97110E+03 9.63706E+03-3.65832E+04 1.46792E-09-2.42221E-09
 -1       540 7.75878E+04-2.20011E+02 4.33659E+03-9.25268E+03-7.09406E-11 2.47883E-09
 -1       541 7.80408E+04 1.77093E+02 2.29527E+03-3.65500E+04 4.52474E-11 4.57624E-09
 -1       542 7.77105E+04-3.33710E+01 1.07303E+03-9.27165E+03-2.19188E-10-9.51218E-10
 -1       543 7.77663E+04 3.68327E+01 5.43051E+02-3.65210E+04 1.77442E-09-3.46790E-09
 -1       544 7.77211E+04 4.29054E+00 2.32189E+02-9.28180E+03 2.12253E-09-4.46221E-09
 -1       545 7.76918E+04 2.96687E+01 5.68297E+01-3.65094E+04 3.39389E-09-3.29646E-09
 -1       546 7.77290E+04 1.46898E+01-8.97807E+01-9.28328E+03 2.57023E-09 2.73735E-09
 -1       547 7.76611E+04-4.76491E+01-3.13376E+02-3.65104E+04 8.54698E-10 2.56284E-09
 -1       548 7.77811E+04 5.14935E+01-6.16168E+02-9.28085E+03-5.95264E-10 3.12980E-09
 -1       549 7.73386E+04-7.62172E+02-1.53887E+03-3.64561E+04-2.63071E-10-1.00954E-09
 -1       550 7.81661E+04 5.17181E+02-2.44125E+03-9.33749E+03-2.06455E-10-4.59050E-09
 -1       551 1.76684E+04-3.58868E+05 3.51124E+04-5.43888E+05 4.47471E-09 2.11730E-09
 -1       552 9.83338E+03-3.53616E+05 2.76855E+04-6.36467E+05 3.27054E-09 4.14002E-09
 -1       553 6.75695E+03-3.58779E+05 3.20963E+04-5.42973E+05 4.54020E-09 4.68390E-09
 -1       554 2.22428E+04-3.46860E+05 6.02023E+04-6.36616E+05 4.16185E-09-5.42968E-10
 -1       555 5.76397E+04-3.66629E+05 1.14056E+05-5.43595E+05 3.90355E-09-3.35058E-09
 -1       556-2.68486E+05-1.40671E+05 2.23925E+04-2.51291E+05 7.96717E-10-4.12547E-09
 -1       557-2.47538E+05-1.63424E+05 1.10358E+04-2.67731E+05 1.13505E-09 1.22582E-08
 -1       558-2.69262E+05-1.47998E+05 4.60707E+03-2.47002E+05-2.54659E-09-4.26553E-10
 -1       559-2.49938E+05-1.67005E+05 2.27463E+03-2.68747E+05 1.06593E-09 3.22416E-09
 -1       560-2.69778E+05-1.47920E+05 9.93276E+02-2.47117E+05 5.45697E-11-1.90767E-09
 -1       561-2.50618E+05-1.66961E+05 4.75707E+02-2.69233E+05 4.51109E-10-2.11008E-09
 -1       562-2.70161E+05-1.47674E+05 1.56809E+02-2.47369E+05-2.40107E-10-2.02203E-09
 -1       563-2.50991E+05-1.66801E+05-2.36062E+01-2.69498E+05 4.07454E-10-2.47019E-09
 -1       564-2.70372E+05-1.47530E+05-2.46363E+02-2.47516E+05 3.71074E-09 6.97491E-09
 -1       565-2.51184E+05-1.66726E+05-6.16731E+02-2.69620E+05 3.44653E-09 9.90713E-09
 -1       566-2.70386E+05-1.47479E+05-1.32246E+03-2.47548E+05 1.20667E-09-4.91127E-11
 -1       567-2.51401E+05-1.66874E+05-2.92722E+03-2.69580E+05-9.05857E-10 1.90266E-09
 -1       568-2.70097E+05-1.47973E+05-6.03006E+03-2.47274E+05 2.21917E-10 2.09729E-09
 -1       569-2.54548E+05-1.70608E+05-1.42216E+04-2.68547E+05 1.77351E-10-1.82081E-09
 -1       570-2.68705E+05-1.59162E+05-2.90543E+04-2.42476E+05-4.27463E-10-3.78577E-09
 -1       571 3.43258E+05 1.67564E+04 2.57533E+04-8.95162E+04 2.74667E-10 2.32194E-09
 -1       572 3.47182E+05 5.70060E+03 1.26524E+04-9.86835E+04 9.41327E-10 2.17733E-09
 -1       573 3.44813E+05 1.26263E+03 5.62932E+03-8.92666E+04 1.21236E-09 1.45428E-09
 -1       574 3.45263E+05 3.89416E+02 2.82796E+03-9.89517E+04 1.00863E-09 2.61025E-09
 -1       575 3.44963E+05 2.97582E+01 1.33834E+03-8.92358E+04-1.63709E-11 2.74667E-10
 -1       576 3.45002E+05-7.05962E-01 6.84964E+02-9.89862E+04-4.33147E-10-5.16866E-09
 -1       577 3.44985E+05-2.35449E+01 3.42829E+02-8.92318E+04 6.13909E-11 2.72848E-12
 -1       578 3.44986E+05-2.09953E+01 1.96642E+02-9.89906E+04-3.41743E-10-4.92037E-10
 -1       579 3.45027E+05-3.65327E+01 1.36892E+02-8.92314E+04-1.25692E-09 8.30369E-10
 -1       580 3.45051E+05-4.92916E+01 1.55821E+02-9.89866E+04-6.36646E-12 3.23871E-09
 -1       581 3.45106E+05-7.09321E+01 2.40558E+02-8.92358E+04-1.13323E-09 1.54432E-09
 -1       582 3.45203E+05-4.20060E+01 4.80337E+02-9.89348E+04-5.29326E-10-6.81121E-09
 -1       583 3.45197E+05 6.65258E+01 9.32141E+02-8.92831E+04-6.53017E-10-2.77078E-09
 -1       584 3.45670E+05 7.66236E+02 2.09483E+03-9.85226E+04-2.06091E-09-2.34354E-09
 -1       585 3.45075E+05 2.56906E+03 4.24675E+03-8.96517E+04 1.79352E-09 1.40062E-09
 -1       586 3.07097E+03 1.43196E+05 5.30757E+03-2.25148E+05 5.26597E-10-8.23093E-10
 -1       587 1.76975E+03 1.44017E+05 5.00790E+03-2.48893E+05 7.38510E-10-3.20506E-09
 -1       588 2.00283E+03 1.43066E+05 7.04307E+03-2.24861E+05 4.38376E-10 1.50840E-09
 -1       589 6.82586E+03 1.45702E+05 1.43802E+04-2.48963E+05 8.09450E-10-2.00521E-09
 -1       590 1.89165E+04 1.41369E+05 2.86034E+04-2.25069E+05 6.38465E-10-1.31877E-09
 -1       591-1.59705E+05-5.51936E+04-3.02433E+04-8.28341E+04-7.03631E-09-4.78758E-09
 -1       592-1.60585E+05-5.14762E+04-1.48251E+04-9.18797E+04-1.19317E-08-1.81899E-10
 -1       593-1.60587E+05-4.39385E+04-6.28981E+03-8.79753E+04-1.19599E-08-7.27118E-09
 -1       594-1.57365E+05-4.73793E+04-3.07645E+03-9.24433E+04-3.49064E-09 8.13898E-10
 -1       595-1.60737E+05-4.35165E+04-1.41673E+03-8.82100E+04-5.84464E-09 2.25509E-09
 -1       596-1.57124E+05-4.72150E+04-7.19600E+02-9.24268E+04-1.17755E-08-5.51768E-09
 -1       597-1.60766E+05-4.35360E+04-3.94279E+02-8.82127E+04-4.17305E-09 3.64730E-09
 -1       598-1.57100E+05-4.72171E+04-3.20142E+02-9.24162E+04-7.63009E-10 1.75373E-09
 -1       599-1.60762E+05-4.35374E+04-4.12517E+02-8.82104E+04-7.34417E-10 2.35877E-09
 -1       600-1.57120E+05-4.72183E+04-7.67792E+02-9.24213E+04-8.13088E-10 1.18916E-09
 -1       601-1.60720E+05-4.35200E+04-1.51879E+03-8.82027E+04-1.32604E-09 1.54478E-09
 -1       602-1.57373E+05-4.73953E+04-3.30245E+03-9.24298E+04-9.16771E-10-4.60773E-09
 -1       603-1.60550E+05-4.39808E+04-6.75328E+03-8.79495E+04-1.55887E-09-3.40151E-10
 -1       604-1.60848E+05-5.17688E+04-1.59162E+04-9.17880E+04-6.40648E-09-7.04676E-09
 -1       605-1.59571E+05-5.60846E+04-3.24685E+04-8.24507E+04 2.13458E-09 8.77208E-09
 -1       606 1.10495E+05-1.36893E+04-2.09806E+04 3.21095E+04-6.93581E-09-1.92449E-09
 -1       607 1.07229E+05-4.65658E+03-1.03028E+04 3.50561E+04-2.06273E-09-1.43950E-09
 -1       608 1.09126E+05-1.02766E+03-4.58491E+03 3.18897E+04 3.98541E-09-3.14367E-09
 -1       609 1.08687E+05-2.81382E+02-2.29791E+03 3.52929E+04-3.06318E-09 1.22100E-09
 -1       610 1.08932E+05 1.84522E+01-1.08517E+03 3.18617E+04-7.06314E-09-1.57183E-09
 -1       611 1.08840E+05 6.78577E+01-5.46251E+02 3.53225E+04-1.27347E-08-2.99997E-09
 -1       612 1.08880E+05 8.02747E+01-2.60438E+02 3.18586E+04-5.82077E-09-1.45542E-09
 -1       613 1.08841E+05 9.02115E+01-1.20927E+02 3.53260E+04-8.02675E-09-3.16732E-09
 -1       614 1.08854E+05 8.29232E+01-3.82427E+01 3.18579E+04-1.38971E-09-2.93562E-09
 -1       615 1.08829E+05 9.72187E+01 2.55995E+01 3.53262E+04 8.48740E-09-3.31215E-09
 -1       616 1.08834E+05 9.31427E+01 1.00214E+02 3.18583E+04-1.37197E-09-1.65619E-09
 -1       617 1.08835E+05 1.38991E+02 2.39613E+02 3.53249E+04 2.20734E-09 2.64640E-09
 -1       618 1.08806E+05 2.08924E+02 4.90009E+02 3.18588E+04 6.57110E-10 1.96223E-09
 -1       619 1.08988E+05 6.12818E+02 1.10885E+03 3.53202E+04-7.56359E-10 7.27596E-10
 -1       620 1.08657E+05 1.57546E+03 2.26072E+03 3.18600E+04 1.56501E-09 5.59339E-11
 -1       621 2.70568E+03 3.57902E+05 6.56315E+03-3.10959E+04 2.93221E-09 7.66249E-10
 -1       622 1.04950E+03 3.59142E+05 5.40314E+03-3.65314E+04 1.04251E-09-1.25488E-09
 -1       623 6.22318E+02 3.58185E+05 6.61621E+03-3.11383E+04 2.66573E-09 7.69433E-10
 -1       624 3.78114E+03 3.60772E+05 1.27080E+04-3.63569E+04 1.30444E-09-3.47882E-10
 -1       625 1.15814E+04 3.56329E+05 2.42820E+04-3.12662E+04 2.37924E-09-1.05138E-09
 -1       626 1.57565E+05 5.13503E+04-9.20206E+03 1.06761E+05-5.10590E-09-5.01677E-09
 -1       627 1.53256E+05 5.78924E+04-4.36471E+03 1.08745E+05-2.28010E-09 9.53378E-10
 -1       628 1.57750E+05 5.58728E+04-1.83477E+03 1.04547E+05-2.29193E-10 7.11452E-10
 -1       629 1.53925E+05 5.97616E+04-8.80077E+02 1.08571E+05-1.04046E-09 2.46781E-09
 -1       630 1.57717E+05 5.61896E+04-3.88791E+02 1.04359E+05-5.69344E-10 4.13678E-09
 -1       631 1.53959E+05 5.99040E+04-1.73806E+02 1.08561E+05-6.08588E-09-6.68950E-09
 -1       632 1.57687E+05 5.62055E+04-4.89593E+01 1.04336E+05-2.31285E-09-1.00454E-09
 -1       633 1.53951E+05 5.99145E+04 4.25833E+01 1.08556E+05-7.77800E-09-9.18681E-09
 -1       634 1.57667E+05 5.62002E+04 1.55526E+02 1.04330E+05 1.03091E-09-2.97905E-09
 -1       635 1.53965E+05 5.99203E+04 3.71051E+02 1.08557E+05-2.50020E-09 2.30466E-09
 -1       636 1.57649E+05 5.62172E+04 7.77732E+02 1.04316E+05-4.15167E-09 3.01679E-09
 -1       637 1.54151E+05 6.01287E+04 1.74048E+03 1.08526E+05-9.59363E-09-2.39879E-10
 -1       638 1.57610E+05 5.68464E+04 3.60783E+03 1.04042E+05-2.91948E-10 9.14315E-09
 -1       639 1.55994E+05 6.33303E+04 8.58530E+03 1.07746E+05-1.22072E-08-2.19097E-09
 -1       640 1.57698E+05 6.61071E+04 1.80943E+04 1.00188E+05-6.45969E-09 1.61435E-09
 -1       641 4.47848E+03 3.22148E+03-7.49958E+03-1.83314E+02-8.11927E-09-3.86490E-09
 -1       642 1.26441E+03-3.72895E+03-5.28989E+03 7.95216E+02 2.13406E-09-4.89717E-09
 -1       643 3.23347E+03 5.01755E+02-1.93426E+03-1.79519E+02-1.40175E-08-1.80000E-09
 -1       644 2.71051E+03-5.77472E+02-1.19799E+03 7.89800E+02 9.70006E-09-1.58090E-09
 -1       645 3.03157E+03 7.62797E+01-4.63175E+02-1.77908E+02-8.18017E-09 1.37049E-10
 -1       646 2.94861E+03-7.85673E+01-2.18749E+02 7.87434E+02-3.18754E-07 3.38851E-10
 -1       647 2.99494E+03 3.97593E+00 1.31915E+00-1.77157E+02-4.18283E-05 9.21456E-08
 -1       648 3.01531E+03 4.53584E+01 2.08132E+02 7.86662E+02-8.31183E-05 1.86487E-07
 -1       649 2.96473E+03-4.73898E+01 4.71171E+02-1.77137E+02-4.18263E-05 9.77793E-08
 -1       650 3.18862E+03 3.65038E+02 1.13853E+03 7.87052E+02-2.95245E-07 2.22553E-09
 -1       651 2.82178E+03-3.15344E+02 1.98422E+03-1.77548E+02-3.57352E-09-2.56989E-09
 -1       652 4.16707E+03 2.34936E+03 4.90248E+03 7.87433E+02 1.15387E-08 1.29506E-09
 -1       653 1.98677E+03-2.02863E+03 7.82199E+03-1.77524E+02-6.11461E-09-6.53017E-10
 -1       654 1.00609E+04 1.50589E+04 2.13699E+04 7.82373E+02 2.78159E-09 8.57426E-10
 -1       655-3.07008E+03-1.30018E+04 3.02366E+04-1.72519E+02 1.13748E-09-2.58296E-10
 -1       656 1.07497E+04-4.10899E+05-4.84658E+04 1.16287E+04 1.19289E-08-1.21463E-09
 -1       657-1.59577E+04-4.28524E+05-3.53078E+04 4.40075E+04 9.83346E-09-8.27299E-10
 -1       658 2.05588E+03-4.17196E+05-2.24492E+04 1.15212E+04 1.17097E-08 3.92492E-09
 -1       659-1.45666E+04-4.27743E+05-3.28646E+04 4.40812E+04 9.85483E-09 5.03400E-09
 -1       660 9.66146E+03-4.11731E+05-4.38342E+04 1.15564E+04 1.01973E-08 2.32876E-09
 -1       661 4.02076E+05 5.15579E+04 3.29667E+04 1.57448E+05 5.72527E-10 6.65750E-10
 -1       662 4.09757E+05 7.70156E+04 2.08080E+04 1.61994E+05-4.14525E-09 1.53341E-09
 -1       663 4.07740E+05 5.90968E+04 7.78521E+03 1.56656E+05 5.67809E-10-3.27509E-09
 -1       664 4.03247E+05 6.72213E+04 4.28855E+03 1.63359E+05-1.26800E-08-2.79812E-09
 -1       665 4.08369E+05 5.99285E+04 1.82597E+03 1.56613E+05-1.28096E-08 1.67256E-09
 -1       666 4.02525E+05 6.61680E+04 9.92675E+02 1.63434E+05-1.14512E-08 3.02794E-09
 -1       667 4.08435E+05 6.00287E+04 5.54846E+02 1.56622E+05 7.70169E-09 4.67340E-09
 -1       668 4.02461E+05 6.60675E+04 5.22500E+02 1.63427E+05-6.23812E-09-5.42684E-10
 -1       669 4.08429E+05 6.00222E+04 7.33295E+02 1.56621E+05 1.54105E-09-5.20913E-09
 -1       670 4.02585E+05 6.62371E+04 1.48720E+03 1.63434E+05 1.86049E-08 1.73566E-09
 -1       671 4.08316E+05 5.98699E+04 2.82649E+03 1.56612E+05 9.84630E-09-2.91402E-09
 -1       672 4.03733E+05 6.78718E+04 6.69522E+03 1.63296E+05 7.52431E-09 3.33660E-09
 -1       673 4.07319E+05 5.85801E+04 1.21742E+04 1.56691E+05 4.31673E-09-5.04406E-09
 -1       674 4.13934E+05 8.31792E+04 3.25532E+04 1.61136E+05-2.90606E-09-4.17685E-09
 -1       675 3.98447E+05 4.67961E+04 5.15827E+04 1.57938E+05-6.32690E-09-3.71801E-09
 -1       676 1.08208E+03-3.86758E+05-5.63379E+03 4.84232E+02 1.08802E-08-7.73680E-10
 -1       677-2.13300E+03-3.88910E+05-6.09870E+03 2.02669E+02 2.10622E-09 5.23599E-09
 -1       678 6.69269E+02-3.87016E+05-7.22812E+03 4.83246E+02 7.96422E-09 1.83498E-10
 -1       679-7.63209E+03-3.92178E+05-1.58523E+04 2.02018E+02-7.38510E-10 1.81247E-09
 -1       680 5.51281E+03-3.83492E+05-2.40818E+04 4.83308E+02 1.08676E-08-5.13985E-10
 -1       681 6.02664E+05-1.61548E+04 3.72207E+04 3.08890E+03-1.73998E-10-3.98359E-10
 -1       682 6.20458E+05 1.86909E+04 2.66131E+04-1.14831E+04-6.60094E-11 1.31286E-09
 -1       683 6.09509E+05-2.50364E+03 9.66588E+03 5.71620E+02 3.53737E-10 2.90129E-10
 -1       684 6.12417E+05 2.91673E+03 6.13186E+03-7.92750E+03 1.51102E-09-1.81899E-11
 -1       685 6.10672E+05-3.84207E+02 2.53974E+03-4.66633E+02-7.88269E-10 7.16909E-10
 -1       686 6.11079E+05 4.81849E+02 1.58823E+03-6.83233E+03-1.80392E-09 2.97618E-09
 -1       687 6.10841E+05-6.74725E+01 9.26583E+02-5.23547E+02-2.53181E-10 1.89992E-09
 -1       688 6.11050E+05 1.93722E+02 1.02299E+03-7.67348E+03 1.23379E-09 1.81335E-09
 -1       689 6.10707E+05-1.00626E+02 1.35017E+03 3.74502E+02-5.78012E-10 1.17825E-09
 -1       690 6.12000E+05 7.94082E+02 2.97590E+03-1.08367E+04-1.91967E-09 2.38288E-09
 -1       691 6.09923E+05-6.88986E+02 4.74367E+03 2.63964E+03-1.38238E-09 6.53472E-10
 -1       692 6.16740E+05 5.40414E+03 1.23828E+04-1.77784E+04 1.36166E-09 4.22688E-10
 -1       693 6.06093E+05-4.78761E+03 1.84212E+04 7.31668E+03-9.32118E-10-2.16369E-09
 -1       694 6.40672E+05 3.66455E+04 5.40581E+04-3.18827E+04-6.57218E-09-2.33285E-09
 -1       695 5.86469E+05-3.21908E+04 7.08277E+04 1.67492E+04-6.49447E-09-8.00719E-09
 -1       696-1.21814E+04 5.06643E+05 2.77541E+04 7.75188E+02 7.27596E-11-1.03554E-09
 -1       697 1.29463E+04 5.18446E+05 1.75047E+04-6.26625E+03 1.02318E-10 4.83734E-10
 -1       698-7.29110E+02 5.12032E+05 2.78293E+03 1.29702E+02-2.26009E-10 1.76991E-09
 -1       699-6.64014E+03 5.09292E+05-8.10953E+03-5.70769E+03-3.47200E-10 4.21333E-09
 -1       700 7.37195E+03 5.15801E+05-1.63203E+04 2.16570E+02-1.82808E-10 1.54351E-09
 -1       701-5.46409E+05-5.41797E+04-7.04463E+04-2.22089E+05-9.22228E-10-3.50701E-09
 -1       702-5.90188E+05-1.01237E+05-4.72903E+04-1.90727E+05 1.70303E-10-2.51839E-09
 -1       703-5.53603E+05-8.23497E+04-1.64502E+04-2.21022E+05-5.24778E-10 1.50067E-09
 -1       704-5.81565E+05-6.87410E+04-1.00335E+04-1.92324E+05-8.13361E-09-3.39151E-09
 -1       705-5.55156E+05-8.65151E+04-3.86391E+03-2.20619E+05 5.94855E-09 2.66164E-09
 -1       706-5.73404E+05-6.69222E+04-1.58850E+03-1.95682E+05 4.07756E-09-6.54580E-09
 -1       707-5.61666E+05-8.42567E+04-1.75362E+03-2.17581E+05 2.68869E-10-1.73884E-09
 -1       708-5.59853E+05-7.46575E+04 6.75388E+02-2.04525E+05-1.97565E-09-1.15300E-09
 -1       709-5.68533E+05-7.89281E+04-2.06511E+03-2.11635E+05 9.30527E-10-3.64821E-10
 -1       710-5.50614E+05-8.61115E+04-9.27057E+02-2.17062E+05 2.30557E-09 1.43362E-09
 -1       711-5.70941E+05-7.27570E+04-4.32531E+03-2.05082E+05 3.93038E-09 8.64736E-09
 -1       712-5.50560E+05-9.86888E+04-9.97283E+03-2.26310E+05-3.14299E-09 1.10613E-08
 -1       713-5.68779E+05-6.61925E+04-1.65565E+04-2.02537E+05 2.14186E-10-8.07631E-09
 -1       714-5.67160E+05-1.28451E+05-4.87309E+04-2.21585E+05-3.70619E-09-9.97534E-09
 -1       715-5.54383E+05-4.30341E+04-7.11473E+04-2.09808E+05 2.65391E-09 1.28057E-09
 -1       716 2.73843E+05-2.00545E+04 4.27745E+04 1.03174E+04 1.11543E-08-3.33239E-09
 -1       717 3.15069E+05 2.26873E+04 3.41574E+04-2.46460E+04 5.06083E-09-6.77892E-09
 -1       718 2.87112E+05-2.99679E+03 1.09618E+04 5.67898E+03 1.52318E-09 1.03319E-09
 -1       719 2.97970E+05 3.31835E+03 8.14819E+03-1.72881E+04-1.48270E-09-2.42380E-10
 -1       720 2.90511E+05-4.25947E+02 2.90095E+03 2.95396E+03 2.14538E-09 2.41107E-09
 -1       721 2.93401E+05 5.19502E+02 2.27757E+03-1.30713E+04 2.67482E-09 6.60634E-10
 -1       722 2.91511E+05-8.51815E+01 1.33800E+03 1.46156E+03 5.08601E-09 1.99103E-09
 -1       723 2.92180E+05 3.79345E+02 1.84434E+03-1.10030E+04 2.38668E-09 3.43152E-09
 -1       724 2.91670E+05-2.43091E+02 2.73879E+03 8.85915E+02 5.30044E-09 1.73270E-09
 -1       725 2.92804E+05 1.88906E+03 5.95916E+03-1.06465E+04 4.90921E-09 3.97756E-09
 -1       726 2.90876E+05-1.58622E+03 1.01357E+04 1.10507E+03 4.64014E-09 2.84399E-09
 -1       727 2.98364E+05 1.19255E+04 2.50197E+04-1.19328E+04 6.65364E-09 3.20551E-09
 -1       728 2.86143E+05-1.02865E+04 3.95663E+04 2.17212E+03 2.49690E-09-2.23736E-10
 -1       729 3.30318E+05 7.65078E+04 1.08896E+05-1.53104E+04 1.67461E-10 1.73895E-09
 -1       730 2.59053E+05-6.61176E+04 1.52909E+05 4.48228E+03 3.11297E-09-1.67347E-10
 -1       731-1.81569E+04 2.00778E+05 3.54878E+04-1.25736E+04-4.70936E-09-3.66026E-09
 -1       732 2.03157E+04 2.52455E+05 3.15346E+04 3.93375E+04 2.35377E-09-2.39652E-10
 -1       733-2.68990E+03 2.18030E+05 9.50794E+03-8.23445E+03-9.95442E-10-8.47649E-10
 -1       734 3.76623E+03 2.29818E+05 8.08194E+03 3.30347E+04 4.39513E-10-5.17483E-09
 -1       735-1.08135E+03 2.22610E+05 3.75149E+03-6.26365E+03 8.52822E-10-3.64957E-09
 -1       736-9.91745E+05-1.41656E+05-8.16080E+04-4.30973E+05 1.19089E-08-4.92946E-09
 -1       737-1.10269E+06-1.26647E+05-5.23851E+04-3.13392E+05 1.75989E-08-6.73026E-09
 -1       738-1.03912E+06-1.64000E+05-2.37147E+04-4.20370E+05 6.43854E-09 7.34144E-09
 -1       739-1.00807E+06-1.26214E+05 3.51400E+02-3.51165E+05 4.37012E-10-1.60071E-10
 -1       740-1.08459E+06-1.43499E+05-1.24835E+04-3.91815E+05 7.05450E-09 9.62609E-09
 -1       741-9.70248E+05-1.74307E+05 6.03069E+03-4.16208E+05 1.46102E-08 2.48693E-08
 -1       742-1.07765E+06-1.15298E+05-2.20324E+03-3.55933E+05 7.09792E-09-1.31636E-08
 -1       743-9.76722E+05-1.99023E+05 1.40434E+03-4.50100E+05 1.18916E-10 1.69800E-08
 -1       744-1.07942E+06-1.17676E+05-2.92115E+03-3.58929E+05-4.88183E-08-1.86700E-08
 -1       745-9.70606E+05-1.68155E+05 7.37353E+03-4.08459E+05-2.55002E-08-7.06336E-09
 -1       746-1.08223E+06-1.47470E+05-1.23059E+04-3.96382E+05-8.65884E-09 3.36513E-11
 -1       747-1.01712E+06-1.19948E+05 8.66998E+02-3.45318E+05 6.10368E-09-3.76531E-10
 -1       748-1.03258E+06-1.66170E+05-2.06751E+04-4.21761E+05 2.74076E-09 1.61644E-08
 -1       749-1.10535E+06-1.20886E+05-4.70973E+04-3.13065E+05 1.84809E-09 2.36987E-08
 -1       750-9.95760E+05-1.45120E+05-7.33254E+04-4.30029E+05 3.26690E-09 1.79680E-08
 -1       751 3.08277E+06-1.74749E+05 4.07527E+05 1.19296E+04-2.17927E-08 1.13505E-09
 -1       752 3.25993E+06 2.02414E+05 2.87848E+05-1.41457E+04-2.76873E-09-1.78989E-09
 -1       753 3.15137E+06-2.72428E+04 1.05621E+05 2.24378E+03-1.41084E-09 2.32831E-10
 -1       754 3.18032E+06 3.15393E+04 6.62938E+04-2.65132E+03 1.18298E-09 4.59022E-09
 -1       755 3.16260E+06-4.24103E+03 2.72178E+04 4.37542E+02-1.42628E-09 1.69348E-09
 -1       756 3.16735E+06 4.97137E+03 1.62451E+04-5.02125E+02-4.50476E-09 1.58116E-09
 -1       757 3.16446E+06-7.23368E+02 8.01484E+03 9.46131E+01 1.29117E-09 3.29237E-10
 -1       758 3.16543E+06 1.28986E+03 6.41591E+03-1.04548E+02 3.28754E-09 2.52911E-09
 -1       759 3.16455E+06-5.65264E+02 6.55552E+03 3.99589E+01 2.65850E-09-1.04205E-09
 -1       760 3.16661E+06 3.60566E+03 1.20363E+04-9.72422E+01-1.80141E-09 9.16771E-10
 -1       761 3.16326E+06-3.03543E+03 1.96248E+04 8.73065E+01-2.04519E-09 8.18545E-10
 -1       762 3.17582E+06 2.25239E+04 4.74019E+04-4.56115E+02 3.32711E-09 3.17686E-09
 -1       763 3.15526E+06-1.94492E+04 7.53892E+04 3.98829E+02 5.06498E-09 4.58022E-09
 -1       764 3.23215E+06 1.44392E+05 2.05269E+05-2.43748E+03 1.97987E-09 3.11047E-09
 -1       765 3.10670E+06-1.24647E+05 2.90668E+05 2.06838E+03-3.05332E-09-1.60071E-09
 -1       766-7.15229E+04 3.77921E+05 1.66449E+05-1.73106E+04 2.65572E-09 3.59705E-10
 -1       767 8.64929E+04 4.60748E+05 1.26496E+05 7.17672E+04 6.05723E-10 1.49226E-09
 -1       768-1.47077E+04 4.06968E+05 5.82585E+04-1.56854E+04 3.27600E-09-2.60792E-09
 -1       769 4.56734E+04 4.58074E+05 7.50886E+04 7.76956E+04 3.13116E-09 4.27951E-09
 -1       770-3.13668E+04 3.81437E+05 6.84063E+04-2.32441E+04-2.02308E-08 6.26369E-09
 -1       771-1.73843E+06-3.51678E+05-6.19684E+04-7.51011E+05-7.18501E-10 2.54659E-10
 -1       772-1.73448E+06-3.49446E+05-3.03297E+04-7.75737E+05-2.58660E-09-6.28461E-10
 -1       773-1.74099E+06-3.28113E+05-1.29164E+04-7.61299E+05-3.78350E-09-6.58838E-09
 -1       774-1.72785E+06-3.41439E+05-6.29329E+03-7.77818E+05 1.38789E-09-2.79761E-09
 -1       775-1.74173E+06-3.26960E+05-2.92587E+03-7.61923E+05-2.68483E-09-8.11997E-09
 -1       776-1.72763E+06-3.41055E+05-1.46969E+03-7.78184E+05 8.80391E-10-1.80808E-09
 -1       777-1.74213E+06-3.26801E+05-8.12955E+02-7.62081E+05 2.25191E-09 5.77938E-09
 -1       778-1.72781E+06-3.40986E+05-6.29581E+02-7.78431E+05-7.93079E-10-1.07551E-09
 -1       779-1.74236E+06-3.26663E+05-8.02688E+02-7.62189E+05-1.03682E-10-9.43601E-11
 -1       780-1.72801E+06-3.40938E+05-1.46679E+03-7.78620E+05 6.54836E-10 5.18185E-10
 -1       781-1.74242E+06-3.26543E+05-2.90317E+03-7.62244E+05 4.43561E-09 5.20777E-09
 -1       782-1.72859E+06-3.41254E+05-6.31440E+03-7.78730E+05 6.76664E-10-3.81988E-10
 -1       783-1.74215E+06-3.27391E+05-1.29231E+04-7.61784E+05-1.47702E-09-1.09867E-09
 -1       784-1.73523E+06-3.49674E+05-3.04900E+04-7.77552E+05-2.26692E-10 1.83718E-10
 -1       785-1.74029E+06-3.50570E+05-6.22192E+04-7.51215E+05-1.06411E-10 5.82077E-11
 -1       786 3.23494E+05-9.56557E+03 4.15217E+04-2.31546E+03 1.88720E-10 3.44880E-09
 -1       787 3.38454E+05 1.30176E+04 2.65859E+04-9.33432E+03-5.19776E-10 2.81943E-09
 -1       788 3.29753E+05-9.85054E+02 1.07598E+04-2.31640E+03 4.92264E-11-9.73159E-10
 -1       789 3.31478E+05 1.27885E+03 6.00578E+03-9.31750E+03 2.81602E-10-1.44530E-09
 -1       790 3.30461E+05-1.06932E+02 2.73417E+03-2.33114E+03 8.90168E-11-1.00238E-09
 -1       791 3.30674E+05 1.23438E+02 1.46785E+03-9.29604E+03 9.61506E-11-3.76380E-09
 -1       792 3.30551E+05-1.36054E+01 7.54928E+02-2.33786E+03 3.14600E-10-3.63536E-09
 -1       793 3.30574E+05 1.56876E+01 5.06006E+02-9.29141E+03-4.67963E-11 2.99443E-09
 -1       794 3.30559E+05-7.93589E+00 4.74336E+02-2.33577E+03-2.19757E-10-1.16762E-09
 -1       795 3.30607E+05 5.45740E+01 7.28992E+02-9.30484E+03 1.05103E-10 7.87477E-10
 -1       796 3.30522E+05-4.97474E+01 1.26283E+03-2.32442E+03 1.78829E-10-2.43006E-10
 -1       797 3.30971E+05 5.71602E+02 2.71847E+03-9.33418E+03-1.35151E-09 2.25339E-09
 -1       798 3.30205E+05-4.46168E+02 4.84657E+03-2.30644E+03-4.04270E-10 3.73916E-09
 -1       799 3.34116E+05 5.84899E+03 1.19621E+04-9.35481E+03-1.52124E-09-2.00544E-10
 -1       800 3.27391E+05-4.30832E+03 1.86731E+04-2.30441E+03 3.61979E-10-1.25510E-09
 -1       801-1.35723E+04 3.54828E+05 4.89272E+04-2.61414E+05 1.15506E-09 4.26371E-09
 -1       802 3.20360E+04 3.68196E+05 5.16703E+04-1.02000E+06-6.65750E-09-1.38971E-09
 -1       803-7.48547E+02 3.54661E+05 5.37244E+04-2.60886E+05 2.84126E-09 9.12394E-09
 -1       804 6.58894E+04 3.89146E+05 1.12185E+05-1.01992E+06-9.37871E-09 5.89353E-10
 -1       805-4.14161E+04 3.34825E+05 1.63279E+05-2.61509E+05 2.85218E-09 4.80213E-09
 -1       806-3.25234E+05-8.66148E+04-2.77158E+04-1.49827E+05 1.74555E-09-9.24047E-10
 -1       807-3.25379E+05-7.96001E+04-1.31493E+04-1.58286E+05 3.58796E-09 4.93696E-09
 -1       808-3.25088E+05-7.24620E+04-5.52862E+03-1.55802E+05-2.01544E-09-5.76711E-09
 -1       809-3.22647E+05-7.46243E+04-2.67165E+03-1.59435E+05 1.73713E-10 8.67658E-10
 -1       810-3.25159E+05-7.14920E+04-1.20814E+03-1.56240E+05-1.61208E-10 2.74440E-09
 -1       811-3.22381E+05-7.42936E+04-6.05925E+02-1.59483E+05 3.41743E-10 3.30829E-09
 -1       812-3.25182E+05-7.14629E+04-3.17999E+02-1.56260E+05 5.13313E-09 1.20840E-08
 -1       813-3.22351E+05-7.42847E+04-2.36884E+02-1.59476E+05-3.81078E-10 1.46656E-09
 -1       814-3.25179E+05-7.14675E+04-2.78674E+02-1.56257E+05 2.04091E-09 9.72204E-09
 -1       815-3.22367E+05-7.42968E+04-5.01442E+02-1.59473E+05 1.02045E-09 1.89516E-09
 -1       816-3.25149E+05-7.14974E+04-9.83432E+02-1.56235E+05 8.77208E-10 1.00104E-08
 -1       817-3.22579E+05-7.45627E+04-2.16699E+03-1.59418E+05 9.32232E-10 1.79807E-09
 -1       818-3.25077E+05-7.22957E+04-4.48072E+03-1.55882E+05 1.82717E-09-1.32786E-10
 -1       819-3.24834E+05-7.85436E+04-1.06533E+04-1.58418E+05-1.17643E-09-1.14778E-09
 -1       820-3.25136E+05-8.38065E+04-2.24538E+04-1.51086E+05-4.26098E-09-3.68641E-09
 -1       821-3.28193E+05 9.75509E+03-4.23764E+04 2.35088E+03-3.37923E-09-5.94810E-10
 -1       822-3.43436E+05-1.32876E+04-2.71331E+04 9.84362E+03-2.02999E-09-2.60570E-10
 -1       823-3.34585E+05 1.00038E+03-1.09860E+04 2.27023E+03 2.90652E-09-1.94996E-09
 -1       824-3.36341E+05-1.29177E+03-6.13376E+03 9.95860E+03-1.34310E-09 1.22543E-09
 -1       825-3.35310E+05 1.09991E+02-2.80575E+03 2.23468E+03-6.86555E-09 8.90850E-10
 -1       826-3.35540E+05-1.04312E+02-1.52704E+03 1.00171E+04-1.11394E-08 1.37666E-09
 -1       827-3.35404E+05 1.91365E+01-8.30690E+02 2.21141E+03-3.69948E-09 1.44269E-10
 -1       828-3.35454E+05 6.07729E+00-6.40277E+02 1.00536E+04-1.84878E-09-5.33944E-10
 -1       829-3.35408E+05 1.86569E+01-7.26471E+02 2.19811E+03 3.80066E-09-1.21333E-09
 -1       830-3.35528E+05-7.38098E+01-1.25451E+03 1.00692E+04 6.23486E-09-3.62806E-09
 -1       831-3.35336E+05 9.36737E+01-2.26053E+03 2.19588E+03-2.52930E-09 4.17913E-10
 -1       832-3.36178E+05-1.02036E+03-4.92003E+03 1.00625E+04 4.34625E-10 1.65664E-09
 -1       833-3.34757E+05 8.09089E+02-8.79851E+03 2.20499E+03 1.45519E-11 1.84446E-09
 -1       834-3.41867E+05-1.06235E+04-2.17302E+04 1.00188E+04-2.99178E-09-5.63728E-09
 -1       835-3.29640E+05 7.82205E+03-3.39321E+04 2.24180E+03 2.02908E-09-1.34605E-09
 -1       836-1.56498E+04 8.47294E+05 7.16687E+04-2.29832E+04-1.02955E-09 1.73986E-09
 -1       837 2.41255E+04 8.73572E+05 5.57181E+04-8.76767E+04 4.13820E-09 2.89924E-09
 -1       838-3.76066E+03 8.55733E+05 4.12812E+04-2.30077E+04-1.63891E-09 2.03880E-09
 -1       839 3.19470E+04 8.78204E+05 6.95924E+04-8.76612E+04 4.17367E-09-5.67059E-09
 -1       840-2.19342E+04 8.42641E+05 9.79345E+04-2.29978E+04-1.66619E-09 4.44743E-10
 -1       841-3.36501E+04 7.08299E+02-1.41759E+04-1.51626E+04-4.09409E-09-5.91172E-10
 -1       842-4.14195E+04-1.19318E+04-9.82490E+03-1.23325E+04-2.65180E-09 7.20775E-10
 -1       843-3.65170E+04-4.38880E+03-3.32211E+03-1.42260E+04 3.16902E-09 1.55842E-09
 -1       844-3.81030E+04-6.01711E+03-2.06487E+03-1.34014E+04 4.18481E-09 1.60989E-09
 -1       845-3.69658E+04-5.19756E+03-7.62253E+02-1.40973E+04 5.49505E-10 2.78263E-09
 -1       846-3.75884E+04-5.07090E+03-4.25037E+02-1.35420E+04-6.46843E-09-3.88646E-10
 -1       847-3.70317E+04-5.33357E+03-1.41653E+02-1.40861E+04-3.92942E-09-5.82062E-10
 -1       848-3.75043E+04-4.89401E+03-1.19668E+01-1.35541E+04-1.87242E-09-1.17189E-09
 -1       849-3.70501E+04-5.37414E+03 1.14380E+02-1.40853E+04 5.59201E-09 2.44520E-09
 -1       850-3.74158E+04-4.74253E+03 3.67742E+02-1.35747E+04 1.13623E-08 4.03443E-09
 -1       851-3.71202E+04-5.48484E+03 6.64238E+02-1.40656E+04-3.25838E-09-4.79395E-09
 -1       852-3.69286E+04-3.94038E+03 1.80854E+03-1.37267E+04-3.29224E-09-1.79494E-09
 -1       853-3.75370E+04-6.17522E+03 2.90501E+03-1.39337E+04-1.00954E-10 1.22816E-09
 -1       854-3.39675E+04 1.19159E+03 8.60341E+03-1.47119E+04 2.30955E-09 3.36968E-09
 -1       855-4.00797E+04-1.06092E+04 1.24042E+04-1.30830E+04 9.94078E-10 2.43017E-09
 -1       856-3.86085E+05 9.01250E+03-3.92070E+04 4.69938E+03-2.94222E-09 2.05364E-09
 -1       857-4.00173E+05-1.22473E+04-2.50929E+04 1.99753E+04-4.41332E-09-2.40152E-09
 -1       858-3.92003E+05 9.28980E+02-1.01642E+04 4.56056E+03-5.72436E-09 2.90538E-09
 -1       859-3.93652E+05-1.13705E+03-5.66823E+03 2.01736E+04-3.77668E-10-4.06362E-09
 -1       860-3.92680E+05 1.14266E+02-2.58911E+03 4.49856E+03-7.70569E-10-4.25007E-09
 -1       861-3.92935E+05-2.84672E+01-1.39709E+03 2.02669E+04-6.35873E-09-4.76234E-10
 -1       862-3.92770E+05 3.44551E+01-7.39180E+02 4.46669E+03 9.43146E-09 1.11061E-09
 -1       863-3.92861E+05 7.89831E+01-5.32720E+02 2.03060E+04 1.67920E-08-3.42177E-09
 -1       864-3.92777E+05 3.22789E+01-5.56601E+02 4.45933E+03 1.16265E-08 7.11282E-10
 -1       865-3.92903E+05 2.09731E+01-9.18043E+02 2.02953E+04 1.14915E-08-1.81183E-09
 -1       866-3.92723E+05 8.16014E+01-1.63280E+03 4.47748E+03-2.38379E-09 8.05301E-10
 -1       867-3.93345E+05-6.68335E+02-3.53534E+03 2.02323E+04-3.46222E-09-2.13493E-09
 -1       868-3.92301E+05 5.86218E+02-6.32370E+03 4.52271E+03 7.27141E-09-5.40467E-10
 -1       869-3.97387E+05-7.57786E+03-1.55996E+04 2.00715E+04-6.34714E-09-3.80965E-09
 -1       870-3.88621E+05 5.60643E+03-2.43742E+04 4.64027E+03 7.07996E-09-3.70710E-09
 -1       871-3.74930E+03-3.47189E+04-6.64953E+03 9.95602E+04 3.14049E-09-2.07183E-09
 -1       872-1.26204E+03-3.59018E+04-1.93712E+03 1.16407E+05 3.61979E-09-4.00360E-09
 -1       873-1.31492E+01-3.54878E+04 1.96137E+03 9.93728E+04 3.59796E-09 3.81533E-10
 -1       874 2.22732E+03-3.39030E+04 7.30724E+03 1.16494E+05 4.93537E-09 2.18310E-09
 -1       875 7.53986E+03-3.68100E+04 1.57778E+04 9.94902E+04 2.09002E-09 3.19619E-09
 -1       876 4.61865E+05 5.82663E+04 4.37366E+04 1.81971E+05 9.33778E-09-1.92995E-09
 -1       877 4.71680E+05 9.24557E+04 2.76087E+04 1.88477E+05 3.39674E-09-2.88946E-09
 -1       878 4.69364E+05 6.82877E+04 1.03249E+04 1.80935E+05 3.78941E-09-1.26147E-09
 -1       879 4.63059E+05 7.94325E+04 5.68621E+03 1.90245E+05-1.60190E-08-6.91944E-09
 -1       880 4.70181E+05 6.94096E+04 2.41151E+03 1.80894E+05-1.13032E-08 8.36735E-11
 -1       881 4.62119E+05 7.80088E+04 1.29580E+03 1.90308E+05-9.14451E-09-7.60971E-09
 -1       882 4.70257E+05 6.95580E+04 6.91509E+02 1.80919E+05 6.97582E-09 2.46280E-09
 -1       883 4.62043E+05 7.78495E+04 5.95989E+02 1.90269E+05-8.35200E-09 7.26370E-09
 -1       884 4.70244E+05 6.95651E+04 7.77662E+02 1.80928E+05 4.69257E-10-7.37600E-10
 -1       885 4.62175E+05 7.80085E+04 1.53287E+03 1.90262E+05 2.50451E-08 2.01499E-09
 -1       886 4.70127E+05 6.94118E+04 2.89336E+03 1.80922E+05 3.71114E-09-4.43151E-10
 -1       887 4.63346E+05 7.96795E+04 6.84089E+03 1.90126E+05-7.80631E-10-4.12626E-09
 -1       888 4.69114E+05 6.80888E+04 1.24339E+04 1.80997E+05 1.69742E-09-2.98405E-09
 -1       889 4.73759E+05 9.53217E+04 3.32452E+04 1.87937E+05-6.70002E-09-1.30694E-09
 -1       890 4.60061E+05 5.60451E+04 5.26752E+04 1.82264E+05-5.84760E-09 2.67755E-09
 -1       891 1.63539E+03-2.05972E+05-8.00013E+03 2.23793E+04 4.94583E-09-2.18461E-09
 -1       892-2.86979E+03-2.08764E+05-6.42161E+03 8.71241E+04 1.79080E-09 2.25555E-10
 -1       893 4.36948E+02-2.06888E+05-5.12112E+03 2.22718E+04 2.61207E-09 2.69301E-09
 -1       894-4.39797E+03-2.09657E+05-9.12395E+03 8.71148E+04-2.74576E-09-8.18545E-12
 -1       895 2.85521E+03-2.05062E+05-1.31156E+04 2.23880E+04 1.28512E-08 2.96041E-09
 -1       896 9.18705E+05-7.94683E+03 1.84892E+04 1.99704E+03 1.44667E-10-4.60386E-09
 -1       897 9.26702E+05 9.20255E+03 1.30823E+04-9.04821E+02 1.14755E-09-3.20324E-09
 -1       898 9.21819E+05-1.23803E+03 4.80318E+03 1.26492E+03 7.96021E-10-3.52998E-09
 -1       899 9.23081E+05 1.43585E+03 3.03693E+03 2.09170E+02 6.68342E-10-2.61298E-09
 -1       900 9.22330E+05-1.93633E+02 1.28571E+03 8.83060E+02 4.75541E-10-2.75645E-09
 -1       901 9.22495E+05 2.39978E+02 8.49184E+02 9.02278E+02-2.75882E-10-2.46566E-09
 -1       902 9.22407E+05-4.40942E+01 5.73049E+02 5.71806E+02-1.91867E-09-2.41209E-09
 -1       903 9.22461E+05 1.49695E+02 7.54464E+02 1.67854E+03-1.06366E-09-2.07648E-09
 -1       904 9.22365E+05-1.03789E+02 1.13559E+03 1.06784E+02-5.33589E-10-1.65267E-09
 -1       905 9.22829E+05 7.58456E+02 2.48212E+03 3.09668E+03 7.90337E-10-9.87825E-10
 -1       906 9.22040E+05-6.53509E+02 4.21287E+03-8.46360E+02 6.76835E-10-7.91715E-10
 -1       907 9.25102E+05 4.90167E+03 1.03908E+04 6.17952E+03-6.88431E-10 8.34802E-10
 -1       908 9.20099E+05-4.24784E+03 1.64508E+04-2.97611E+03 9.99080E-10 2.71666E-09
 -1       909 9.38815E+05 3.17341E+04 4.53223E+04 1.32218E+04 3.25633E-09 3.74712E-09
 -1       910 9.08375E+05-2.74758E+04 6.34150E+04-7.88865E+03 3.14446E-09 9.21500E-09
 -1       911 3.24451E+05-4.73368E+03 1.10221E+04-1.45431E+03-5.30169E-09 1.42236E-08
 -1       912 3.29265E+05 5.49825E+03 7.80632E+03-1.90629E+03-4.18507E-09 1.22808E-08
 -1       913 3.26289E+05-7.35153E+02 2.86246E+03-1.10838E+03-2.49196E-09 1.27192E-08
 -1       914 3.27150E+05 8.67936E+02 1.83354E+03-2.67999E+03-2.29964E-09 1.05961E-08
 -1       915 3.26569E+05-1.13508E+02 7.75845E+02-6.80651E+02 2.25802E-09 1.10217E-08
 -1       916 3.26894E+05 1.54704E+02 5.77364E+02-3.72610E+03 1.85155E-09 8.15777E-09
 -1       917 3.26550E+05-2.68064E+01 3.97857E+02-6.22871E+01 1.77855E-09 8.04971E-09
 -1       918 3.27133E+05 1.12716E+02 6.94045E+02-5.30015E+03-1.45076E-09 5.44573E-09
 -1       919 3.26344E+05-8.12303E+01 9.35880E+02 8.93394E+02 8.47450E-10 5.12807E-09
 -1       920 3.28096E+05 6.23202E+02 2.38525E+03-7.77688E+03-8.99547E-11 1.52841E-09
 -1       921 3.25624E+05-5.61818E+02 3.61572E+03 2.41452E+03-4.35745E-09-1.11800E-09
 -1       922 3.31722E+05 4.27876E+03 9.75168E+03-1.17522E+04-4.20280E-09-5.10408E-09
 -1       923 3.22813E+05-3.79680E+03 1.43292E+04 4.86934E+03-3.63593E-09-1.11977E-08
 -1       924 3.47780E+05 2.85119E+04 4.17421E+04-1.83135E+04-7.12225E-09-1.65255E-08
 -1       925 3.09819E+05-2.49226E+04 5.57208E+04 8.97884E+03-3.60933E-09-2.73540E-08
 -1       926-7.82391E+05 1.46245E+04-4.41875E+04-3.18063E+04 3.83397E-09-5.51699E-08
 -1       927-7.70935E+05-1.63684E+04-2.53850E+04 7.17852E+04-3.67606E-08-6.90252E-08
 -1       928-7.71395E+05 2.46937E+03-1.01761E+04-4.17316E+04 1.02881E-08-7.50874E-08
 -1       929-7.63633E+05-1.08733E+03-3.78626E+03 7.16529E+04 4.69183E-08-6.77901E-08
 -1       930-7.89675E+05-6.36648E+02-5.87361E+03-3.16741E+04-6.75664E-09-5.85723E-08
 -1       931-7.21365E+05 1.75819E+03 9.23866E+03 3.58417E+04-1.88131E-08-3.14677E-08
 -1       932-8.11329E+05-2.23387E+03-8.17602E+03-5.88138E+03 1.31149E-08-1.46766E-08
 -1       933-7.10701E+05 2.27094E+03 1.28180E+04-1.86213E+04-4.23643E-09 1.83146E-08
 -1       934-7.99751E+05-1.61743E+03-4.49462E+03 2.27381E+04-1.00599E-08 3.67525E-08
 -1       935-7.48629E+05 2.43742E+03 7.34072E+03-6.37544E+04 7.00936E-09 5.77923E-08
 -1       936-7.75581E+05-6.57798E+02 3.63418E+03 3.92538E+04 3.24064E-09 6.67676E-08
 -1       937-7.66739E+05 6.33806E+03 1.08365E+04-7.72375E+04-4.27535E-08 6.65090E-08
 -1       938-7.82781E+05-4.59635E+03 1.37353E+04 3.62518E+04-3.23682E-08 6.22740E-08
 -1       939-7.21332E+05 3.34452E+04 4.97801E+04-5.31920E+04-1.84482E-08 4.18518E-08
 -1       940-8.19078E+05-2.92218E+04 5.12825E+04 1.51659E+04 5.20686E-10 2.93403E-08
 -1       941 4.98647E+06-2.47598E+05 5.78611E+05 1.03032E+03 2.48352E-08 4.65661E-09
 -1       942 5.23577E+06 2.86898E+05 4.08187E+05 1.65624E+03 3.69381E-08 5.91535E-09
 -1       943 5.08297E+06-3.86418E+04 1.50008E+05 1.30212E+03 1.83856E-06 1.12268E-08
 -1       944 5.12397E+06 4.47443E+04 9.41723E+04 1.35959E+03 3.64591E-06-3.33603E-09
 -1       945 5.09893E+06-6.01909E+03 3.87450E+04 1.32721E+03 2.54717E-06-9.40418E-10
 -1       946 5.10563E+06 7.06948E+03 2.32171E+04 1.33207E+03 1.43635E-06 6.63476E-09
 -1       947 5.10156E+06-1.03924E+03 1.16321E+04 1.32973E+03 1.91163E-06 3.72165E-09
 -1       948 5.10297E+06 1.92964E+03 9.62756E+03 1.32718E+03 2.39132E-06 4.03236E-09
 -1       949 5.10166E+06-8.87509E+02 1.02320E+04 1.33211E+03 1.19757E-06-7.03017E-09
 -1       950 5.10493E+06 5.75917E+03 1.91807E+04 1.30303E+03 5.09944E-09 4.70413E-09
 -1       951 5.09956E+06-4.86257E+03 3.14648E+04 1.35387E+03 3.39352E-09-9.44783E-09
 -1       952 5.11969E+06 3.61001E+04 7.60731E+04 1.06386E+03-3.74146E-09-4.12547E-09
 -1       953 5.08669E+06-3.11716E+04 1.21042E+05 1.57121E+03-1.23656E-08 1.83354E-09
 -1       954 5.20987E+06 2.31426E+05 3.29275E+05-1.35957E+03-2.74572E-09-5.13319E-09
 -1       955 5.00876E+06-1.99743E+05 4.66516E+05 3.77648E+03-1.98603E-08-4.39468E-09
 -1       956-2.65808E+05-4.59115E+03-9.60163E+03 3.70452E+04-3.99814E-09-9.07676E-10
 -1       957-2.67567E+05-1.43796E+03-4.84306E+03 4.29939E+04 1.40881E-09 3.81988E-11
 -1       958-2.66616E+05-1.49336E+02-2.17931E+03 3.68198E+04 1.43336E-08-1.94404E-10
 -1       959-2.66790E+05 1.40601E+01-1.10756E+03 4.32405E+04 1.37898E-08-1.51249E-09
 -1       960-2.66723E+05 7.61376E+01-5.38263E+02 3.67957E+04 5.06589E-10-3.59250E-11
 -1       961-2.66752E+05 9.55725E+01-2.83147E+02 4.32677E+04-1.18539E-08-4.92037E-10
 -1       962-2.66760E+05 8.86585E+01-1.59246E+02 3.67922E+04-4.32829E-09-2.61798E-09
 -1       963-2.66768E+05 1.07737E+02-1.21821E+02 4.32723E+04-5.05383E-09-2.02272E-09
 -1       964-2.66776E+05 9.77104E+01-1.41316E+02 3.67909E+04-1.74396E-10-3.68163E-09
 -1       965-2.66786E+05 1.15022E+02-2.38637E+02 4.32724E+04 6.19633E-09-4.28599E-09
 -1       966-2.66772E+05 1.03677E+02-4.45415E+02 3.67920E+04-3.17232E-09-1.04137E-10
 -1       967-2.66847E+05 6.39660E+01-9.15523E+02 4.32597E+04 2.83535E-10-2.83535E-10
 -1       968-2.66707E+05-6.76280E+01-1.79835E+03 3.68040E+04 1.53477E-09-1.30967E-10
 -1       969-2.67516E+05-1.12261E+03-4.00095E+03 4.31340E+04 2.40107E-09-2.06546E-09
 -1       970-2.66058E+05-3.72949E+03-7.92973E+03 3.69227E+04 1.94814E-09-4.25644E-09
 -1       971-5.40662E+05 7.49460E+03-3.26437E+04 4.53860E+03-5.85806E-09 1.50976E-09
 -1       972-5.52354E+05-1.01925E+04-2.08893E+04 1.98392E+04-3.87399E-09 3.62070E-09
 -1       973-5.45589E+05 7.69878E+02-8.46883E+03 4.35671E+03-5.15047E-09 2.79942E-09
 -1       974-5.46941E+05-9.38066E+02-4.72926E+03 2.01108E+04-2.84126E-09 1.75476E-09
 -1       975-5.46154E+05 9.51575E+01-2.17993E+03 4.26506E+03-2.43631E-09 8.04903E-10
 -1       976-5.46357E+05-1.10442E+01-1.21105E+03 2.02530E+04-8.06631E-09 3.26781E-09
 -1       977-5.46229E+05 3.19239E+01-7.11133E+02 4.21402E+03 1.37259E-08 2.87781E-09
 -1       978-5.46312E+05 7.53316E+01-6.40626E+02 2.03202E+04 2.87741E-08 1.68859E-09
 -1       979-5.46227E+05 3.75368E+01-8.47303E+02 4.19773E+03 1.07495E-08 1.61984E-09
 -1       980-5.46411E+05-3.59272E+01-1.57313E+03 2.03172E+04 1.41749E-08 3.81597E-09
 -1       981-5.46130E+05 1.31651E+02-2.89665E+03 4.21708E+03-7.46923E-10 1.14960E-09
 -1       982-5.47231E+05-1.26740E+03-6.33956E+03 2.02418E+04 1.13846E-09 2.41118E-09
 -1       983-5.45378E+05 1.04813E+03-1.13579E+04 4.27364E+03 2.18233E-09 3.01770E-09
 -1       984-5.54543E+05-1.36816E+04-2.80531E+04 2.00541E+04 3.26986E-09 4.30964E-09
 -1       985-5.38766E+05 1.00929E+04-4.38202E+04 4.40853E+03 9.50104E-09 1.18598E-09
 -3
    1PSTEP                        29          15           1          
  100CL  115 7.38197E-01         841                     0   15           1
 -4  DISP        4    1
 -5  D1          1    2    1    0
 -5  D2          1    2    2    0
 -5  D3          1    2    3    0
 -5  ALL         1    2    0    0    1ALL
 -1         1 9.16547E-05 0.00000E+00 0.00000E+00
 -1         2 7.07891E-05 0.00000E+00 0.00000E+00
 -1         3 5.91490E-05 0.00000E+00 0.00000E+00
 -1         4 5.11597E-05 0.00000E+00 0.00000E+00
 -1         5 4.72497E-05 0.00000E+00 0.00000E+00
 -1         8 7.23078E-05-9.19382E-07 0.00000E+00
 -1         9 5.63512E-05 6.99610E-07 0.00000E+00
 -1        10 5.29464E-05-2.35319E-06 0.00000E+00
 -1        11 4.92725E-05-4.61939E-07 0.00000E+00
 -1        12 4.53555E-05 1.17887E-06 0.00000E+00
 -1        15 3.42197E-05-1.58622E-06 0.00000E+00
 -1        16 4.20197E-05 6.66844E-07 0.00000E+00
 -1        17 3.81053E-05-4.70686E-06 0.00000E+00
 -1        18 3.85115E-05-9.14576E-07 0.00000E+00
 -1        19 4.04973E-05 2.33098E-06 0.00000E+00
 -1        20 4.11182E-05 2.49295E-05 0.00000E+00
 -1        21 4.10929E-05 5.95971E-05 0.00000E+00
 -1        22 1.09497E-05-1.08514E-06 0.00000E+00
 -1        23 1.42477E-05 1.20160E-06 0.00000E+00
 -1        24 1.57434E-05-5.56368E-06 0.00000E+00
 -1        25 3.37961E-05-6.14637E-07 0.00000E+00
 -1        26 3.56823E-05 3.09710E-06 0.00000E+00
 -1        27 3.37499E-05 2.40405E-05 0.00000E+00
 -1        28 3.14584E-05 5.87564E-05 0.00000E+00
 -1        29 0.00000E+00 0.00000E+00 0.00000E+00
 -1        30 5.24140E-06 1.55475E-06 0.00000E+00
 -1        31 6.93495E-06-4.81421E-06 0.00000E+00
 -1        32 0.00000E+00 0.00000E+00 0.00000E+00
 -1        33 2.91217E-05 4.91019E-06 0.00000E+00
 -1        34 2.75709E-05 2.39572E-05 0.00000E+00
 -1        35 2.43931E-05 5.83078E-05 0.00000E+00
 -1        36 9.03909E-05 5.16765E-20 2.64698E-23
 -1        37 8.90868E-05 5.47128E-19 1.32349E-23
 -1        38 8.77852E-05 1.05762E-18 0.00000E+00
 -1        39 8.64760E-05 1.40133E-18 0.00000E+00
 -1        40 8.51666E-05 1.31923E-18 0.00000E+00
 -1        41 8.38557E-05 8.91994E-19 0.00000E+00
 -1        42 8.25445E-05 4.69927E-19 0.00000E+00
 -1        43 8.12331E-05 2.09107E-19 0.00000E+00
 -1        44 7.99217E-05 3.31596E-19 0.00000E+00
 -1        45 7.86104E-05 6.47700E-19 0.00000E+00
 -1        46 7.72993E-05 8.98382E-19 0.00000E+00
 -1        47 7.59891E-05 9.67067E-19 2.64698E-23
 -1        48 7.46792E-05 9.25254E-19-2.64698E-23
 -1        49 7.33744E-05 6.20056E-19-1.32349E-23
 -1        50 7.20679E-05 2.52532E-19 0.00000E+00
 -1        51 9.01963E-05-1.55733E-07 0.00000E+00
 -1        52 8.77774E-05-3.04744E-07 0.00000E+00
 -1        53 8.45837E-05-4.53137E-07 0.00000E+00
 -1        54 8.08103E-05-6.03021E-07 0.00000E+00
 -1        55 7.66528E-05-7.56218E-07-4.54949E-24
 -1        56 8.98352E-05-7.89785E-07 0.00000E+00
 -1        57 8.80066E-05-1.75974E-06 0.00000E+00
 -1        58 8.62121E-05-2.80963E-06 0.00000E+00
 -1        59 8.44077E-05-3.86785E-06 0.00000E+00
 -1        60 8.25754E-05-4.85267E-06-5.29396E-23
 -1        61 8.06855E-05-5.69012E-06 0.00000E+00
 -1        62 7.87161E-05-6.31636E-06 5.29396E-23
 -1        63 7.66467E-05-6.67696E-06 0.00000E+00
 -1        64 7.44645E-05-6.73721E-06 0.00000E+00
 -1        65 7.21613E-05-6.47478E-06 2.64698E-23
 -1        66 6.97377E-05-5.89165E-06 0.00000E+00
 -1        67 6.72011E-05-5.00241E-06 0.00000E+00
 -1        68 6.45641E-05-3.84570E-06 5.29396E-23
 -1        69 6.18559E-05-2.46667E-06 0.00000E+00
 -1        70 5.90864E-05-9.36235E-07 0.00000E+00
 -1        71 7.00646E-05-1.49960E-19-2.64698E-23
 -1        72 6.93360E-05-4.16809E-19 0.00000E+00
 -1        73 6.86076E-05-7.18034E-19 0.00000E+00
 -1        74 6.78785E-05-8.52089E-19 0.00000E+00
 -1        75 6.71494E-05-8.53819E-19 0.00000E+00
 -1        76 6.64201E-05-5.60826E-19-1.32349E-23
 -1        77 6.56908E-05-3.26579E-20 0.00000E+00
 -1        78 6.49615E-05 5.09523E-19 0.00000E+00
 -1        79 6.42322E-05 9.94110E-19 0.00000E+00
 -1        80 6.35030E-05 1.32151E-18 1.32349E-23
 -1        81 6.27739E-05 1.44184E-18 0.00000E+00
 -1        82 6.20452E-05 1.25422E-18-1.32349E-23
 -1        83 6.13166E-05 9.79431E-19 0.00000E+00
 -1        84 6.05904E-05 5.78459E-19 1.32349E-23
 -1        85 5.98634E-05 2.06408E-19 1.32349E-23
 -1        86 7.01141E-05 9.76337E-08 0.00000E+00
 -1        87 6.81189E-05 2.23455E-07 0.00000E+00
 -1        88 6.52865E-05 3.45324E-07 0.00000E+00
 -1        89 6.20943E-05 4.68142E-07 0.00000E+00
 -1        90 5.89723E-05 5.92682E-07-3.30872E-24
 -1        91 6.66271E-05 9.04477E-06-2.64698E-23
 -1        92 5.53224E-05 3.61678E-05 0.00000E+00
 -1        93 4.18685E-05 6.85851E-05 0.00000E+00
 -1        94 3.14948E-05 9.34398E-05 0.00000E+00
 -1        95 2.74820E-05 1.02067E-04 0.00000E+00
 -1        96 3.25953E-05 8.61158E-05 0.00000E+00
 -1        97 4.45508E-05 5.05329E-05 1.32349E-23
 -1        98 6.11368E-05 8.96552E-07 6.61744E-24
 -1        99 7.78825E-05-4.92299E-05 1.32349E-23
 -1       100 9.03270E-05-8.62642E-05 0.00000E+00
 -1       101 9.61051E-05-1.04079E-04-1.32349E-23
 -1       102 9.27530E-05-9.71725E-05 0.00000E+00
 -1       103 8.28247E-05-7.34262E-05 0.00000E+00
 -1       104 6.93910E-05-4.10535E-05 0.00000E+00
 -1       105 5.77327E-05-1.30521E-05 0.00000E+00
 -1       106 5.86523E-05-3.69799E-20 0.00000E+00
 -1       107 5.81522E-05-1.27189E-20 0.00000E+00
 -1       108 5.76523E-05-1.96240E-20 0.00000E+00
 -1       109 5.71517E-05 1.42717E-19 0.00000E+00
 -1       110 5.66512E-05 4.62338E-19 1.32349E-23
 -1       111 5.61505E-05 6.49717E-19-6.61744E-24
 -1       112 5.56498E-05 7.38993E-19 0.00000E+00
 -1       113 5.51491E-05 8.08713E-19 0.00000E+00
 -1       114 5.46484E-05 8.86014E-19 0.00000E+00
 -1       115 5.41478E-05 9.15000E-19-6.61744E-24
 -1       116 5.36472E-05 9.21966E-19-1.32349E-23
 -1       117 5.31470E-05 7.81184E-19 6.61744E-24
 -1       118 5.26468E-05 6.17930E-19 0.00000E+00
 -1       119 5.21484E-05 4.78418E-19-6.61744E-24
 -1       120 5.16494E-05 2.38561E-19 1.32349E-23
 -1       121 5.89728E-05-3.92536E-07-1.32349E-23
 -1       122 5.84471E-05-7.84091E-07 6.61744E-24
 -1       123 5.75756E-05-1.17590E-06 0.00000E+00
 -1       124 5.63639E-05-1.56788E-06 0.00000E+00
 -1       125 5.48182E-05-1.96027E-06 0.00000E+00
 -1       126 6.11164E-05-6.07911E-06 1.32349E-23
 -1       127 6.74115E-05-2.40890E-05-3.30872E-24
 -1       128 7.68378E-05-5.10100E-05 0.00000E+00
 -1       129 8.82439E-05-8.37015E-05 3.30872E-24
 -1       130 1.00052E-04-1.17574E-04 0.00000E+00
 -1       131 1.10695E-04-1.48021E-04-3.30872E-24
 -1       132 1.18850E-04-1.71298E-04 0.00000E+00
 -1       133 1.23159E-04-1.83760E-04 0.00000E+00
 -1       134 1.23123E-04-1.84421E-04 6.61744E-24
 -1       135 1.18263E-04-1.72433E-04 0.00000E+00
 -1       136 1.09291E-04-1.49995E-04 0.00000E+00
 -1       137 9.70168E-05-1.19399E-04-3.30872E-24
 -1       138 8.31425E-05-8.49045E-05 0.00000E+00
 -1       139 6.94280E-05-5.07942E-05 3.30872E-24
 -1       140 5.75878E-05-2.12600E-05 0.00000E+00
 -1       141 5.09123E-05-8.46590E-20 6.61744E-24
 -1       142 5.06659E-05-2.43107E-19-3.30872E-24
 -1       143 5.04195E-05-5.32674E-19 0.00000E+00
 -1       144 5.01732E-05-8.18275E-19-3.30872E-24
 -1       145 4.99269E-05-1.09934E-18 0.00000E+00
 -1       146 4.96807E-05-1.31043E-18 3.30872E-24
 -1       147 4.94345E-05-1.35003E-18 0.00000E+00
 -1       148 4.91883E-05-1.29711E-18 0.00000E+00
 -1       149 4.89422E-05-1.18887E-18 0.00000E+00
 -1       150 4.86962E-05-1.05789E-18 3.30872E-24
 -1       151 4.84503E-05-8.79687E-19-6.61744E-24
 -1       152 4.82050E-05-6.34528E-19 0.00000E+00
 -1       153 4.79599E-05-3.58880E-19 6.61744E-24
 -1       154 4.77181E-05-1.71436E-19 1.65436E-24
 -1       155 4.74752E-05-1.59908E-20 0.00000E+00
 -1       156 5.28356E-05-6.67885E-08 6.61744E-24
 -1       157 5.77073E-05-1.34954E-07 0.00000E+00
 -1       158 6.27497E-05-2.04518E-07 3.30872E-24
 -1       159 6.49373E-05-2.63142E-07-1.65436E-24
 -1       160 6.13978E-05-3.28160E-07 0.00000E+00
 -1       161 5.14763E-05-1.69276E-06-6.61744E-24
 -1       162 5.29664E-05-6.54503E-06-3.30872E-24
 -1       163 5.52831E-05-1.36382E-05 6.61744E-24
 -1       164 5.80737E-05-2.20245E-05-3.30872E-24
 -1       165 6.08590E-05-3.03960E-05 6.61744E-24
 -1       166 6.31593E-05-3.74452E-05 0.00000E+00
 -1       167 6.46256E-05-4.22329E-05-6.61744E-24
 -1       168 6.49134E-05-4.38494E-05 0.00000E+00
 -1       169 6.40003E-05-4.22642E-05 0.00000E+00
 -1       170 6.18782E-05-3.74853E-05 0.00000E+00
 -1       171 5.88776E-05-3.04035E-05 0.00000E+00
 -1       172 5.53459E-05-2.19350E-05 3.30872E-24
 -1       173 5.17805E-05-1.33791E-05 0.00000E+00
 -1       174 4.86841E-05-6.03447E-06 0.00000E+00
 -1       175 4.64186E-05-8.70221E-07 0.00000E+00
 -1       191 4.71793E-05 1.96265E-07 6.61744E-24
 -1       192 4.70063E-05 3.92912E-07 0.00000E+00
 -1       193 4.67335E-05 5.89633E-07 0.00000E+00
 -1       194 4.63647E-05 7.86317E-07 0.00000E+00
 -1       195 4.59038E-05 9.82848E-07 0.00000E+00
 -1       251 7.15739E-05 9.95559E-06-1.32349E-23
 -1       252 7.05783E-05 3.52556E-05 0.00000E+00
 -1       253 6.95052E-05 6.38135E-05 0.00000E+00
 -1       254 6.86192E-05 8.43639E-05 1.32349E-23
 -1       255 6.79022E-05 9.00068E-05-2.64698E-23
 -1       256 6.70813E-05 7.42852E-05 1.32349E-23
 -1       257 6.58962E-05 4.20693E-05 2.64698E-23
 -1       258 6.43061E-05-1.28239E-06-1.32349E-23
 -1       259 6.27262E-05-4.43754E-05 0.00000E+00
 -1       260 6.15640E-05-7.58214E-05 0.00000E+00
 -1       261 6.07580E-05-9.05414E-05 2.64698E-23
 -1       262 6.00354E-05-8.39527E-05 1.32349E-23
 -1       263 5.91372E-05-6.27721E-05 0.00000E+00
 -1       264 5.80627E-05-3.41492E-05 6.61744E-24
 -1       265 5.70771E-05-9.29286E-06 0.00000E+00
 -1       266 6.90138E-05-1.02110E-06 0.00000E+00
 -1       267 6.59798E-05-1.11047E-06 1.65436E-24
 -1       268 6.20611E-05-1.20369E-06 0.00000E+00
 -1       269 5.61161E-05-1.30367E-06 0.00000E+00
 -1       270 4.71602E-05-1.42583E-06-1.65436E-24
 -1       271 6.95852E-05 1.54077E-06 0.00000E+00
 -1       272 6.70879E-05 3.24193E-06 2.64698E-23
 -1       273 6.48452E-05 4.27226E-06 0.00000E+00
 -1       274 6.28176E-05 4.70735E-06 0.00000E+00
 -1       275 6.09785E-05 4.63797E-06 5.29396E-23
 -1       276 5.92912E-05 4.16047E-06-2.64698E-23
 -1       277 5.77178E-05 3.37808E-06 5.29396E-23
 -1       278 5.62181E-05 2.39877E-06 0.00000E+00
 -1       279 5.47504E-05 1.33358E-06-5.29396E-23
 -1       280 5.32730E-05 2.95047E-07-2.64698E-23
 -1       281 5.17440E-05-6.04864E-07 0.00000E+00
 -1       282 5.01232E-05-1.25620E-06 0.00000E+00
 -1       283 4.83703E-05-1.55327E-06 0.00000E+00
 -1       284 4.64543E-05-1.39375E-06 0.00000E+00
 -1       285 4.43312E-05-6.87802E-07-2.64698E-23
 -1       286 5.61310E-05 2.80804E-06 6.61744E-24
 -1       287 5.59182E-05 4.40813E-06 0.00000E+00
 -1       288 5.57057E-05 5.39332E-06 6.61744E-24
 -1       289 5.54949E-05 5.66256E-06 3.30872E-24
 -1       290 5.52841E-05 5.25014E-06 6.61744E-24
 -1       291 5.50730E-05 4.19650E-06 3.30872E-24
 -1       292 5.48615E-05 2.66323E-06 0.00000E+00
 -1       293 5.46494E-05 8.16221E-07 3.30872E-24
 -1       294 5.44372E-05-1.11933E-06-6.61744E-24
 -1       295 5.42252E-05-2.91744E-06-3.30872E-24
 -1       296 5.40136E-05-4.37810E-06 0.00000E+00
 -1       297 5.38024E-05-5.30433E-06 3.30872E-24
 -1       298 5.35915E-05-5.60015E-06-6.61744E-24
 -1       299 5.33792E-05-5.17526E-06 0.00000E+00
 -1       300 5.31669E-05-4.07560E-06-6.61744E-24
 -1       301 5.39555E-05 6.83994E-07 6.61744E-24
 -1       302 5.15498E-05 6.84462E-07-1.65436E-24
 -1       303 4.91436E-05 6.87688E-07 0.00000E+00
 -1       304 4.67467E-05 6.90366E-07-1.65436E-24
 -1       305 4.43689E-05 6.89083E-07-6.61744E-24
 -1       306 5.45428E-05 2.23070E-06-2.64698E-23
 -1       307 5.29863E-05 2.99696E-06 1.32349E-23
 -1       308 5.16785E-05 3.10409E-06 0.00000E+00
 -1       309 5.05755E-05 2.65173E-06 0.00000E+00
 -1       310 4.96406E-05 1.74886E-06 0.00000E+00
 -1       311 4.88314E-05 5.07996E-07 0.00000E+00
 -1       312 4.81049E-05-9.54429E-07 0.00000E+00
 -1       313 4.74167E-05-2.51971E-06 0.00000E+00
 -1       314 4.67221E-05-4.06792E-06 2.64698E-23
 -1       315 4.59766E-05-5.47937E-06-1.32349E-23
 -1       316 4.51359E-05-6.63591E-06 2.64698E-23
 -1       317 4.41576E-05-7.42204E-06 0.00000E+00
 -1       318 4.29994E-05-7.72654E-06 0.00000E+00
 -1       319 4.16263E-05-7.44179E-06 0.00000E+00
 -1       320 3.99937E-05-6.47043E-06 2.64698E-23
 -1       321 5.27503E-05-2.28799E-06 0.00000E+00
 -1       322 5.25555E-05-6.13466E-06 3.30872E-24
 -1       323 5.23440E-05-1.31739E-05 0.00000E+00
 -1       324 5.21145E-05-2.26614E-05 0.00000E+00
 -1       325 5.18729E-05-3.34408E-05 0.00000E+00
 -1       326 5.16302E-05-4.43456E-05-3.30872E-24
 -1       327 5.13979E-05-5.41883E-05-6.61744E-24
 -1       328 5.11845E-05-6.17895E-05 0.00000E+00
 -1       329 5.09884E-05-6.63463E-05 0.00000E+00
 -1       330 5.08021E-05-6.70801E-05 0.00000E+00
 -1       331 5.06109E-05-6.38533E-05-6.61744E-24
 -1       332 5.03993E-05-5.65599E-05 3.30872E-24
 -1       333 5.01577E-05-4.57753E-05-6.61744E-24
 -1       334 4.98824E-05-3.21031E-05 3.30872E-24
 -1       335 4.95822E-05-1.66313E-05-6.61744E-24
 -1       336 5.07934E-05-2.74663E-06-1.32349E-23
 -1       337 4.84464E-05-3.14023E-06-6.61744E-24
 -1       338 4.59543E-05-3.53401E-06 1.32349E-23
 -1       339 4.33668E-05-3.92702E-06-6.61744E-24
 -1       340 4.07338E-05-4.32023E-06-1.32349E-23
 -1       341 4.95391E-05 4.81586E-06 1.32349E-23
 -1       342 4.20614E-05 2.24276E-05 0.00000E+00
 -1       343 3.35959E-05 4.25433E-05-1.32349E-23
 -1       344 2.72933E-05 5.71732E-05 0.00000E+00
 -1       345 2.50200E-05 6.13251E-05 1.32349E-23
 -1       346 2.84077E-05 5.02372E-05-6.61744E-24
 -1       347 3.59888E-05 2.74235E-05 1.32349E-23
 -1       348 4.62918E-05-3.25046E-06 0.00000E+00
 -1       349 5.64646E-05-3.35455E-05 1.32349E-23
 -1       350 6.36509E-05-5.52362E-05 6.61744E-24
 -1       351 6.65128E-05-6.48783E-05-1.32349E-23
 -1       352 6.37296E-05-5.93835E-05 0.00000E+00
 -1       353 5.70860E-05-4.38803E-05 0.00000E+00
 -1       354 4.86049E-05-2.37118E-05 0.00000E+00
 -1       355 4.13982E-05-6.78151E-06 0.00000E+00
 -1       356 4.89496E-05 1.60498E-05-6.61744E-24
 -1       357 4.86256E-05 3.25412E-05 3.30872E-24
 -1       358 4.83215E-05 4.77048E-05-6.61744E-24
 -1       359 4.80522E-05 6.02438E-05-3.30872E-24
 -1       360 4.78182E-05 6.93203E-05 6.61744E-24
 -1       361 4.76127E-05 7.41257E-05 0.00000E+00
 -1       362 4.74181E-05 7.45972E-05-6.61744E-24
 -1       363 4.72163E-05 7.07081E-05 0.00000E+00
 -1       364 4.69953E-05 6.31930E-05 0.00000E+00
 -1       365 4.67497E-05 5.28171E-05 3.30872E-24
 -1       366 4.64875E-05 4.08459E-05 0.00000E+00
 -1       367 4.62222E-05 2.85579E-05-3.30872E-24
 -1       368 4.59682E-05 1.72874E-05 3.30872E-24
 -1       369 4.57399E-05 8.36046E-06 0.00000E+00
 -1       370 4.55329E-05 2.69441E-06 1.03398E-25
 -1       371 3.66274E-05-6.04276E-07 3.30872E-24
 -1       372 3.15527E-05-6.77659E-07 0.00000E+00
 -1       373 3.16641E-05-7.36641E-07-1.65436E-24
 -1       374 3.45644E-05-7.98269E-07-8.27181E-25
 -1       375 3.76987E-05-8.60596E-07 0.00000E+00
 -1       376 4.15413E-05 1.88979E-05-6.61744E-24
 -1       377 3.14539E-05 4.41434E-05 3.30872E-24
 -1       378 2.03156E-05 7.19907E-05 0.00000E+00
 -1       379 9.46181E-06 9.91359E-05 0.00000E+00
 -1       380 1.53476E-07 1.22440E-04 0.00000E+00
 -1       381-6.39362E-06 1.38791E-04 0.00000E+00
 -1       382-9.66208E-06 1.46694E-04-6.61744E-24
 -1       383-9.19733E-06 1.44732E-04 0.00000E+00
 -1       384-5.42438E-06 1.33785E-04 6.61744E-24
 -1       385 1.21937E-06 1.14839E-04 0.00000E+00
 -1       386 9.66828E-06 9.07714E-05 0.00000E+00
 -1       387 1.88752E-05 6.45249E-05 3.30872E-24
 -1       388 2.76337E-05 3.95674E-05 0.00000E+00
 -1       389 3.47328E-05 1.93506E-05 1.65436E-24
 -1       390 3.93077E-05 6.19269E-06 0.00000E+00
 -1       406 4.46919E-05 1.37197E-06 0.00000E+00
 -1       407 4.39557E-05 1.56528E-06 0.00000E+00
 -1       408 4.31572E-05 1.75848E-06-1.32349E-23
 -1       409 4.23073E-05 1.95119E-06 6.61744E-24
 -1       410 4.14169E-05 2.14288E-06 0.00000E+00
 -1       466 3.46262E-05 1.04136E-05 6.61744E-24
 -1       467 3.51036E-05 1.66604E-05-6.61744E-24
 -1       468 3.55971E-05 1.90603E-05-1.32349E-23
 -1       469 3.60970E-05 1.94345E-05-6.61744E-24
 -1       470 3.65968E-05 1.84581E-05-1.32349E-23
 -1       471 3.70965E-05 1.67766E-05 6.61744E-24
 -1       472 3.75954E-05 1.46347E-05 1.32349E-23
 -1       473 3.80939E-05 1.22671E-05 0.00000E+00
 -1       474 3.85921E-05 9.78000E-06 1.32349E-23
 -1       475 3.90900E-05 7.27692E-06 0.00000E+00
 -1       476 3.95879E-05 4.85245E-06 1.32349E-23
 -1       477 4.00847E-05 2.60277E-06 0.00000E+00
 -1       478 4.05820E-05 7.23483E-07 0.00000E+00
 -1       479 4.10726E-05-5.81704E-07 0.00000E+00
 -1       480 4.15665E-05-7.84839E-07 0.00000E+00
 -1       481 2.20675E-05-1.56184E-06 1.65436E-24
 -1       482 1.54211E-05-1.48346E-06 0.00000E+00
 -1       483 1.25824E-05-1.38684E-06 0.00000E+00
 -1       484 1.18703E-05-1.28613E-06 1.65436E-24
 -1       485 1.18150E-05-1.18483E-06-3.30872E-24
 -1       486 2.53389E-05 1.98328E-05 6.61744E-24
 -1       487 1.12079E-05 5.41210E-05 0.00000E+00
 -1       488-3.06206E-06 8.87480E-05 0.00000E+00
 -1       489-1.23659E-05 1.11166E-04 0.00000E+00
 -1       490-1.43881E-05 1.14830E-04-1.32349E-23
 -1       491-7.28361E-06 9.35308E-05 6.61744E-24
 -1       492 6.40647E-06 5.30436E-05-1.32349E-23
 -1       493 2.42729E-05-2.96146E-07 6.61744E-24
 -1       494 4.21340E-05-5.36185E-05-1.32349E-23
 -1       495 5.58059E-05-9.40523E-05 0.00000E+00
 -1       496 6.28856E-05-1.15280E-04 0.00000E+00
 -1       497 6.08367E-05-1.11546E-04 6.61744E-24
 -1       498 5.15120E-05-8.90766E-05 0.00000E+00
 -1       499 3.72354E-05-5.44348E-05 6.61744E-24
 -1       500 2.31113E-05-2.01650E-05 1.32349E-23
 -1       501 4.17642E-05 2.62798E-06 0.00000E+00
 -1       502 4.15193E-05 3.89586E-06-3.30872E-24
 -1       503 4.12745E-05 4.36664E-06 0.00000E+00
 -1       504 4.10316E-05 3.94477E-06 0.00000E+00
 -1       505 4.07881E-05 2.72716E-06 0.00000E+00
 -1       506 4.05439E-05 8.19042E-07 0.00000E+00
 -1       507 4.02989E-05-1.52551E-06-6.61744E-24
 -1       508 4.00536E-05-4.04794E-06 0.00000E+00
 -1       509 3.98085E-05-6.45129E-06 6.61744E-24
 -1       510 3.95644E-05-8.43985E-06 0.00000E+00
 -1       511 3.93212E-05-9.80735E-06 0.00000E+00
 -1       512 3.90788E-05-1.03539E-05 3.30872E-24
 -1       513 3.88365E-05-1.00566E-05 0.00000E+00
 -1       514 3.85937E-05-8.90133E-06 0.00000E+00
 -1       515 3.83499E-05-7.05877E-06-6.61744E-24
 -1       516 4.01370E-05 7.53068E-07-6.61744E-24
 -1       517 3.90239E-05 8.64198E-07-8.27181E-25
 -1       518 3.73264E-05 9.72783E-07-8.27181E-25
 -1       519 3.36875E-05 1.07962E-06 0.00000E+00
 -1       520 2.65273E-05 1.16784E-06 0.00000E+00
 -1       521 3.97842E-05 1.99324E-06 0.00000E+00
 -1       522 3.77759E-05 2.57542E-06 0.00000E+00
 -1       523 3.60092E-05 2.51889E-06-5.29396E-23
 -1       524 3.44385E-05 1.91914E-06 0.00000E+00
 -1       525 3.30298E-05 8.84824E-07-5.29396E-23
 -1       526 3.17400E-05-4.70782E-07 2.64698E-23
 -1       527 3.05259E-05-2.02914E-06-5.29396E-23
 -1       528 2.93419E-05-3.66883E-06 0.00000E+00
 -1       529 2.81425E-05-5.26708E-06 0.00000E+00
 -1       530 2.68821E-05-6.70184E-06 0.00000E+00
 -1       531 2.55160E-05-7.85355E-06 5.29396E-23
 -1       532 2.40019E-05-8.60686E-06 2.64698E-23
 -1       533 2.22984E-05-8.85285E-06-5.29396E-23
 -1       534 2.03730E-05-8.48843E-06-2.64698E-23
 -1       535 1.81829E-05-7.42448E-06 2.64698E-23
 -1       536 3.81163E-05-2.41313E-06 0.00000E+00
 -1       537 3.81395E-05-6.69303E-07-8.27181E-25
 -1       538 3.81632E-05 5.83614E-07 8.27181E-25
 -1       539 3.81890E-05 1.40499E-06 1.55096E-25
 -1       540 3.82153E-05 1.85399E-06 0.00000E+00
 -1       541 3.82420E-05 1.98971E-06 4.13590E-25
 -1       542 3.82689E-05 1.87118E-06-4.13590E-25
 -1       543 3.82957E-05 1.55738E-06 0.00000E+00
 -1       544 3.83225E-05 1.10725E-06 0.00000E+00
 -1       545 3.83494E-05 5.79668E-07 0.00000E+00
 -1       546 3.83762E-05 3.35219E-08 8.27181E-25
 -1       547 3.84030E-05-4.72308E-07-4.13590E-25
 -1       548 3.84299E-05-8.78945E-07 0.00000E+00
 -1       549 3.84570E-05-1.12749E-06 4.13590E-25
 -1       550 3.84840E-05-1.15896E-06 0.00000E+00
 -1       551 3.47651E-05-4.84757E-06 5.99706E-24
 -1       552 3.10489E-05-4.98504E-06 1.24077E-24
 -1       553 2.71212E-05-5.12282E-06 0.00000E+00
 -1       554 2.31496E-05-5.26222E-06 0.00000E+00
 -1       555 1.93019E-05-5.40481E-06-1.32349E-23
 -1       556 3.71187E-05-2.56134E-06 0.00000E+00
 -1       557 3.63209E-05-9.04876E-07 0.00000E+00
 -1       558 3.56906E-05 3.09170E-07 0.00000E+00
 -1       559 3.52080E-05 1.13209E-06 0.00000E+00
 -1       560 3.48533E-05 1.61529E-06 0.00000E+00
 -1       561 3.46068E-05 1.81067E-06 0.00000E+00
 -1       562 3.44488E-05 1.77018E-06 0.00000E+00
 -1       563 3.43598E-05 1.54587E-06 0.00000E+00
 -1       564 3.43203E-05 1.18982E-06 6.61744E-24
 -1       565 3.43106E-05 7.54128E-07 0.00000E+00
 -1       566 3.43113E-05 2.90926E-07-3.30872E-24
 -1       567 3.43028E-05-1.47651E-07 0.00000E+00
 -1       568 3.42657E-05-5.09479E-07 0.00000E+00
 -1       569 3.41810E-05-7.42494E-07 6.38965E-25
 -1       570 3.40294E-05-7.94686E-07 0.00000E+00
 -1       571 3.86306E-05-6.31079E-07-2.06795E-24
 -1       572 3.87535E-05-4.37381E-07 8.27181E-25
 -1       573 3.88775E-05-3.17306E-07 1.65436E-24
 -1       574 3.90020E-05-2.53861E-07 0.00000E+00
 -1       575 3.91266E-05-2.29984E-07 3.30872E-24
 -1       576 3.92514E-05-2.28509E-07 0.00000E+00
 -1       577 3.93762E-05-2.32262E-07 0.00000E+00
 -1       578 3.95010E-05-2.24055E-07 0.00000E+00
 -1       579 3.96258E-05-1.86698E-07 0.00000E+00
 -1       580 3.97506E-05-1.03000E-07-3.30872E-24
 -1       581 3.98754E-05 4.42274E-08 0.00000E+00
 -1       582 4.00002E-05 2.72162E-07-6.61744E-24
 -1       583 4.01249E-05 5.97968E-07 0.00000E+00
 -1       584 4.02494E-05 1.03864E-06 0.00000E+00
 -1       585 4.03737E-05 1.61110E-06 0.00000E+00
 -1       586 3.78327E-05-8.63623E-07 0.00000E+00
 -1       587 3.70547E-05-8.12217E-07 0.00000E+00
 -1       588 3.62193E-05-7.60865E-07 0.00000E+00
 -1       589 3.53693E-05-7.10011E-07-2.06795E-25
 -1       590 3.45475E-05-6.60284E-07 0.00000E+00
 -1       591 3.83104E-05-5.82776E-07 0.00000E+00
 -1       592 3.81256E-05-3.09147E-07 3.30872E-24
 -1       593 3.79574E-05-8.27565E-08-3.30872E-24
 -1       594 3.78026E-05 1.06413E-07 0.00000E+00
 -1       595 3.76578E-05 2.68374E-07 3.30872E-24
 -1       596 3.75194E-05 4.13074E-07-1.65436E-24
 -1       597 3.73837E-05 5.50450E-07 1.65436E-24
 -1       598 3.72470E-05 6.90430E-07 0.00000E+00
 -1       599 3.71056E-05 8.42945E-07-1.65436E-24
 -1       600 3.69557E-05 1.01792E-06 8.27181E-25
 -1       601 3.67938E-05 1.22528E-06-8.27181E-25
 -1       602 3.66161E-05 1.47496E-06 4.13590E-25
 -1       603 3.64190E-05 1.77690E-06 1.24077E-24
 -1       604 3.61991E-05 2.14109E-06-3.10193E-25
 -1       605 3.59533E-05 2.57755E-06 0.00000E+00
 -1       606 4.05408E-05 3.28438E-06 0.00000E+00
 -1       607 4.05812E-05 4.32645E-06 0.00000E+00
 -1       608 4.06206E-05 5.45197E-06-3.30872E-24
 -1       609 4.06595E-05 6.65501E-06 0.00000E+00
 -1       610 4.06983E-05 7.92961E-06-3.30872E-24
 -1       611 4.07368E-05 9.26968E-06 0.00000E+00
 -1       612 4.07753E-05 1.06691E-05 0.00000E+00
 -1       613 4.08137E-05 1.21218E-05 0.00000E+00
 -1       614 4.08520E-05 1.36217E-05 0.00000E+00
 -1       615 4.08902E-05 1.51627E-05-1.65436E-24
 -1       616 4.09284E-05 1.67386E-05 0.00000E+00
 -1       617 4.09666E-05 1.83434E-05 8.27181E-25
 -1       618 4.10047E-05 1.99710E-05 1.65436E-24
 -1       619 4.10427E-05 2.16153E-05-8.27181E-25
 -1       620 4.10806E-05 2.32701E-05 0.00000E+00
 -1       621 3.95997E-05 2.45898E-06 3.30872E-24
 -1       622 3.87276E-05 2.58774E-06 0.00000E+00
 -1       623 3.78904E-05 2.71657E-06-3.30872E-24
 -1       624 3.70975E-05 2.84510E-06 1.65436E-24
 -1       625 3.63585E-05 2.97290E-06 0.00000E+00
 -1       626 4.02129E-05 3.32970E-06 0.00000E+00
 -1       627 3.98920E-05 4.42100E-06 6.61744E-24
 -1       628 3.95392E-05 5.59634E-06-6.61744E-24
 -1       629 3.91582E-05 6.84599E-06-6.61744E-24
 -1       630 3.87528E-05 8.16021E-06 3.30872E-24
 -1       631 3.83268E-05 9.52908E-06 0.00000E+00
 -1       632 3.78840E-05 1.09427E-05 0.00000E+00
 -1       633 3.74280E-05 1.23911E-05-1.65436E-24
 -1       634 3.69627E-05 1.38644E-05 3.30872E-24
 -1       635 3.64917E-05 1.53527E-05 1.65436E-24
 -1       636 3.60188E-05 1.68461E-05 0.00000E+00
 -1       637 3.55477E-05 1.83346E-05-8.27181E-25
 -1       638 3.50820E-05 1.98082E-05 0.00000E+00
 -1       639 3.46252E-05 2.12571E-05 4.13590E-25
 -1       640 3.41807E-05 2.26713E-05-8.27181E-25
 -1       641 4.11193E-05 2.66516E-05 0.00000E+00
 -1       642 4.11189E-05 2.85543E-05 0.00000E+00
 -1       643 4.11183E-05 3.06114E-05-2.06795E-25
 -1       644 4.11172E-05 3.27970E-05-5.16988E-26
 -1       645 4.11159E-05 3.50850E-05-5.16988E-26
 -1       646 4.11144E-05 3.74493E-05 0.00000E+00
 -1       647 4.11127E-05 3.98642E-05 0.00000E+00
 -1       648 4.11110E-05 4.23036E-05 0.00000E+00
 -1       649 4.11092E-05 4.47418E-05 0.00000E+00
 -1       650 4.11075E-05 4.71529E-05 0.00000E+00
 -1       651 4.11059E-05 4.95109E-05 0.00000E+00
 -1       652 4.11042E-05 5.17901E-05 0.00000E+00
 -1       653 4.11028E-05 5.39643E-05 4.13590E-25
 -1       654 4.11006E-05 5.60076E-05 0.00000E+00
 -1       655 4.10991E-05 5.78939E-05-1.65436E-24
 -1       656 3.96248E-05 2.47861E-05 1.65436E-24
 -1       657 3.83313E-05 2.46355E-05-1.65436E-24
 -1       658 3.71676E-05 2.44853E-05 0.00000E+00
 -1       659 3.60632E-05 2.43350E-05 1.65436E-24
 -1       660 3.49474E-05 2.41845E-05 1.65436E-24
 -1       661 4.06372E-05 2.67020E-05-3.30872E-24
 -1       662 4.01091E-05 2.86173E-05 0.00000E+00
 -1       663 3.95356E-05 3.06525E-05 6.61744E-24
 -1       664 3.89256E-05 3.27872E-05 3.30872E-24
 -1       665 3.82859E-05 3.50008E-05 0.00000E+00
 -1       666 3.76243E-05 3.72728E-05 0.00000E+00
 -1       667 3.69484E-05 3.95831E-05 0.00000E+00
 -1       668 3.62656E-05 4.19115E-05-3.30872E-24
 -1       669 3.55836E-05 4.42378E-05 6.61744E-24
 -1       670 3.49100E-05 4.65418E-05 0.00000E+00
 -1       671 3.42523E-05 4.88034E-05 6.61744E-24
 -1       672 3.36180E-05 5.10022E-05-3.30872E-24
 -1       673 3.30149E-05 5.31179E-05 0.00000E+00
 -1       674 3.24496E-05 5.51296E-05-1.65436E-24
 -1       675 3.19312E-05 5.70172E-05 0.00000E+00
 -1       676 3.94824E-05 5.94566E-05-3.30872E-24
 -1       677 3.78729E-05 5.93154E-05 0.00000E+00
 -1       678 3.62652E-05 5.91743E-05-3.30872E-24
 -1       679 3.46598E-05 5.90337E-05-1.65436E-24
 -1       680 3.30573E-05 5.88931E-05-3.30872E-24
 -1       681 1.11595E-05-5.00004E-07 0.00000E+00
 -1       682 1.13752E-05-1.33440E-06 0.00000E+00
 -1       683 1.15892E-05-3.20508E-06 0.00000E+00
 -1       684 1.18029E-05-5.73855E-06-3.30872E-24
 -1       685 1.20156E-05-8.70885E-06 0.00000E+00
 -1       686 1.22278E-05-1.18942E-05-3.30872E-24
 -1       687 1.24399E-05-1.51207E-05 6.61744E-24
 -1       688 1.26525E-05-1.82147E-05-3.30872E-24
 -1       689 1.28660E-05-2.09732E-05-6.61744E-24
 -1       690 1.30807E-05-2.31902E-05-3.30872E-24
 -1       691 1.32968E-05-2.45384E-05 6.61744E-24
 -1       692 1.35133E-05-2.46829E-05 0.00000E+00
 -1       693 1.37282E-05-2.30203E-05 6.61744E-24
 -1       694 1.39342E-05-1.89303E-05 1.65436E-24
 -1       695 1.41200E-05-1.12539E-05 0.00000E+00
 -1       696 9.48438E-06-9.08720E-07 0.00000E+00
 -1       697 7.71383E-06-7.27975E-07-3.30872E-24
 -1       698 5.76195E-06-5.47820E-07-6.61744E-24
 -1       699 3.75122E-06-3.66323E-07 0.00000E+00
 -1       700 1.79325E-06-1.84876E-07 0.00000E+00
 -1       701 9.56194E-06 1.94692E-06 0.00000E+00
 -1       702 6.80013E-06 8.55516E-06 0.00000E+00
 -1       703 3.05123E-06 1.77392E-05 0.00000E+00
 -1       704-1.29678E-06 2.84687E-05-3.30872E-24
 -1       705-5.70752E-06 3.93601E-05 0.00000E+00
 -1       706-9.64561E-06 4.90275E-05-3.30872E-24
 -1       707-1.26897E-05 5.63677E-05-6.61744E-24
 -1       708-1.44336E-05 6.02981E-05 3.30872E-24
 -1       709-1.47796E-05 6.05234E-05 6.61744E-24
 -1       710-1.36462E-05 5.67843E-05 0.00000E+00
 -1       711-1.12920E-05 4.97404E-05 6.61744E-24
 -1       712-7.98215E-06 4.00864E-05 0.00000E+00
 -1       713-4.19610E-06 2.91248E-05 0.00000E+00
 -1       714-4.11484E-07 1.81741E-05 3.30872E-24
 -1       715 2.88957E-06 8.54878E-06-3.30872E-24
 -1       716 1.42709E-05 1.37660E-05 0.00000E+00
 -1       717 1.43469E-05 2.17437E-05 8.27181E-25
 -1       718 1.44446E-05 2.60459E-05 0.00000E+00
 -1       719 1.45515E-05 2.75662E-05-1.65436E-24
 -1       720 1.46596E-05 2.69004E-05 0.00000E+00
 -1       721 1.47656E-05 2.46337E-05 0.00000E+00
 -1       722 1.48686E-05 2.11795E-05 0.00000E+00
 -1       723 1.49686E-05 1.69451E-05 1.65436E-24
 -1       724 1.50667E-05 1.22543E-05 0.00000E+00
 -1       725 1.51640E-05 7.42841E-06-1.65436E-24
 -1       726 1.52619E-05 2.77422E-06-3.30872E-24
 -1       727 1.53609E-05-1.40057E-06-8.27181E-25
 -1       728 1.54627E-05-4.73680E-06 0.00000E+00
 -1       729 1.55628E-05-6.87139E-06 0.00000E+00
 -1       730 1.56665E-05-7.31350E-06 0.00000E+00
 -1       731 2.31988E-06 1.20371E-06 5.16988E-26
 -1       732-3.76824E-06 1.26267E-06-8.27181E-25
 -1       733-5.32652E-06 1.33893E-06-1.65436E-24
 -1       734-3.64904E-06 1.41605E-06 0.00000E+00
 -1       735 2.19345E-07 1.48788E-06-1.65436E-24
 -1       736 7.90461E-06 1.65366E-05 6.61744E-24
 -1       737 1.12451E-06 3.29446E-05 6.61744E-24
 -1       738-4.41908E-06 4.61893E-05 0.00000E+00
 -1       739-7.12555E-06 5.20716E-05 0.00000E+00
 -1       740-6.58123E-06 4.93229E-05-1.32349E-23
 -1       741-2.45998E-06 3.68221E-05-6.61744E-24
 -1       742 4.16213E-06 1.73441E-05 1.32349E-23
 -1       743 1.22114E-05-6.19143E-06 6.61744E-24
 -1       744 2.00823E-05-2.92178E-05 1.32349E-23
 -1       745 2.61658E-05-4.71798E-05 0.00000E+00
 -1       746 2.95231E-05-5.75745E-05 0.00000E+00
 -1       747 2.92196E-05-5.80534E-05 0.00000E+00
 -1       748 2.57682E-05-5.02236E-05 0.00000E+00
 -1       749 1.97766E-05-3.58305E-05-6.61744E-24
 -1       750 1.29213E-05-1.92330E-05 0.00000E+00
 -1       751 1.68025E-05-3.30669E-06 0.00000E+00
 -1       752 1.79305E-05-2.20891E-06 0.00000E+00
 -1       753 1.90549E-05-1.78157E-06-2.64698E-23
 -1       754 2.01920E-05-1.57015E-06 1.32349E-23
 -1       755 2.13296E-05-1.48358E-06 0.00000E+00
 -1       756 2.24697E-05-1.43699E-06 0.00000E+00
 -1       757 2.36101E-05-1.41341E-06-2.64698E-23
 -1       758 2.47510E-05-1.39701E-06 1.32349E-23
 -1       759 2.58919E-05-1.38416E-06 0.00000E+00
 -1       760 2.70326E-05-1.37141E-06 0.00000E+00
 -1       761 2.81730E-05-1.35546E-06 2.64698E-23
 -1       762 2.93117E-05-1.33288E-06 0.00000E+00
 -1       763 3.04500E-05-1.28895E-06 2.64698E-23
 -1       764 3.15793E-05-1.20788E-06 0.00000E+00
 -1       765 3.27116E-05-1.01122E-06 0.00000E+00
 -1       766 1.45026E-05-5.45067E-06-6.61744E-24
 -1       767 1.63731E-05-5.31197E-06 0.00000E+00
 -1       768 1.89980E-05-5.17640E-06 0.00000E+00
 -1       769 2.00263E-05-5.03473E-06-8.27181E-25
 -1       770 1.68753E-05-4.89847E-06 0.00000E+00
 -1       771 1.40513E-05-3.30215E-06 0.00000E+00
 -1       772 1.25110E-05-1.47315E-06 1.32349E-23
 -1       773 1.11178E-05-3.97183E-08 0.00000E+00
 -1       774 9.85820E-06 1.03582E-06 0.00000E+00
 -1       775 8.71872E-06 1.79129E-06-2.64698E-23
 -1       776 7.68509E-06 2.26488E-06 0.00000E+00
 -1       777 6.74291E-06 2.49492E-06-2.64698E-23
 -1       778 5.87771E-06 2.51994E-06-1.32349E-23
 -1       779 5.07497E-06 2.37857E-06-2.64698E-23
 -1       780 4.32015E-06 2.10961E-06-1.32349E-23
 -1       781 3.59869E-06 1.75191E-06 2.64698E-23
 -1       782 2.89611E-06 1.34443E-06 0.00000E+00
 -1       783 2.19794E-06 9.26170E-07-2.64698E-23
 -1       784 1.49038E-06 5.36281E-07-1.32349E-23
 -1       785 7.59718E-07 2.13918E-07 1.32349E-23
 -1       786 3.39067E-05-1.71293E-07 0.00000E+00
 -1       787 3.40243E-05 1.73281E-07-8.27181E-25
 -1       788 3.41418E-05 4.34314E-07 3.30872E-24
 -1       789 3.42603E-05 6.27022E-07 0.00000E+00
 -1       790 3.43790E-05 7.66538E-07-3.30872E-24
 -1       791 3.44979E-05 8.67953E-07 1.65436E-24
 -1       792 3.46169E-05 9.46310E-07 0.00000E+00
 -1       793 3.47359E-05 1.01663E-06 0.00000E+00
 -1       794 3.48549E-05 1.09394E-06 0.00000E+00
 -1       795 3.49739E-05 1.19325E-06 1.65436E-24
 -1       796 3.50928E-05 1.32960E-06-3.30872E-24
 -1       797 3.52117E-05 1.51809E-06 0.00000E+00
 -1       798 3.53305E-05 1.77385E-06 0.00000E+00
 -1       799 3.54488E-05 2.11206E-06-1.65436E-24
 -1       800 3.55671E-05 2.54805E-06 0.00000E+00
 -1       801 3.07894E-05-4.99987E-07 0.00000E+00
 -1       802 2.45407E-05-3.91384E-07-3.30872E-24
 -1       803 1.66929E-05-2.92901E-07-8.27181E-25
 -1       804 8.89074E-06-1.97155E-07 1.65436E-24
 -1       805 2.77863E-06-9.11253E-08 0.00000E+00
 -1       806 3.34909E-05-2.19010E-07 0.00000E+00
 -1       807 3.31969E-05 1.33854E-07 0.00000E+00
 -1       808 3.29146E-05 4.52243E-07 0.00000E+00
 -1       809 3.26417E-05 7.43832E-07 0.00000E+00
 -1       810 3.23759E-05 1.01625E-06 0.00000E+00
 -1       811 3.21143E-05 1.27707E-06-1.65436E-24
 -1       812 3.18542E-05 1.53386E-06-3.30872E-24
 -1       813 3.15927E-05 1.79417E-06 0.00000E+00
 -1       814 3.13271E-05 2.06555E-06 0.00000E+00
 -1       815 3.10545E-05 2.35556E-06 1.65436E-24
 -1       816 3.07721E-05 2.67175E-06 0.00000E+00
 -1       817 3.04771E-05 3.02166E-06-1.65436E-24
 -1       818 3.01668E-05 3.41286E-06 3.30872E-24
 -1       819 2.98386E-05 3.85291E-06 0.00000E+00
 -1       820 2.94902E-05 4.34941E-06 0.00000E+00
 -1       821 3.55692E-05 3.79891E-06-8.27181E-25
 -1       822 3.54490E-05 4.65960E-06 1.65436E-24
 -1       823 3.53287E-05 5.66290E-06-3.30872E-24
 -1       824 3.52072E-05 6.79228E-06 0.00000E+00
 -1       825 3.50855E-05 8.03110E-06 0.00000E+00
 -1       826 3.49634E-05 9.36259E-06 0.00000E+00
 -1       827 3.48412E-05 1.07699E-05 3.30872E-24
 -1       828 3.47189E-05 1.22361E-05 0.00000E+00
 -1       829 3.45965E-05 1.37441E-05 0.00000E+00
 -1       830 3.44741E-05 1.52770E-05-1.65436E-24
 -1       831 3.43518E-05 1.68177E-05 0.00000E+00
 -1       832 3.42296E-05 1.83490E-05-1.65436E-24
 -1       833 3.41075E-05 1.98540E-05 0.00000E+00
 -1       834 3.39864E-05 2.13155E-05 1.65436E-24
 -1       835 3.38653E-05 2.27167E-05-1.65436E-24
 -1       836 3.48480E-05 3.39379E-06-6.61744E-24
 -1       837 3.37238E-05 3.70083E-06 0.00000E+00
 -1       838 3.24496E-05 4.00717E-06 0.00000E+00
 -1       839 3.11647E-05 4.31279E-06 0.00000E+00
 -1       840 3.00089E-05 4.61905E-06 3.30872E-24
 -1       841 3.54079E-05 3.79136E-06 0.00000E+00
 -1       842 3.50673E-05 4.65416E-06 0.00000E+00
 -1       843 3.46693E-05 5.67003E-06-2.06795E-25
 -1       844 3.42195E-05 6.82219E-06 2.06795E-25
 -1       845 3.37254E-05 8.09205E-06 0.00000E+00
 -1       846 3.31941E-05 9.46072E-06-2.06795E-25
 -1       847 3.26332E-05 1.09077E-05 0.00000E+00
 -1       848 3.20505E-05 1.24126E-05 0.00000E+00
 -1       849 3.14541E-05 1.39539E-05-4.13590E-25
 -1       850 3.08521E-05 1.55101E-05-2.06795E-25
 -1       851 3.02526E-05 1.70595E-05 0.00000E+00
 -1       852 2.96637E-05 1.85803E-05 2.06795E-25
 -1       853 2.90937E-05 2.00514E-05 0.00000E+00
 -1       854 2.85499E-05 2.14513E-05 4.13590E-25
 -1       855 2.80406E-05 2.27602E-05 0.00000E+00
 -1       856 3.36147E-05 2.54631E-05-1.65436E-24
 -1       857 3.34726E-05 2.71431E-05 0.00000E+00
 -1       858 3.33302E-05 2.90475E-05 0.00000E+00
 -1       859 3.31865E-05 3.11427E-05 0.00000E+00
 -1       860 3.30423E-05 3.33949E-05 3.30872E-24
 -1       861 3.28976E-05 3.57701E-05 1.65436E-24
 -1       862 3.27527E-05 3.82341E-05 0.00000E+00
 -1       863 3.26076E-05 4.07528E-05-1.65436E-24
 -1       864 3.24625E-05 4.32918E-05-3.30872E-24
 -1       865 3.23174E-05 4.58168E-05 0.00000E+00
 -1       866 3.21724E-05 4.82934E-05 3.30872E-24
 -1       867 3.20278E-05 5.06874E-05 0.00000E+00
 -1       868 3.18835E-05 5.29646E-05 0.00000E+00
 -1       869 3.17401E-05 5.50910E-05-1.65436E-24
 -1       870 3.15971E-05 5.70327E-05 0.00000E+00
 -1       871 3.26157E-05 2.40285E-05 0.00000E+00
 -1       872 3.15636E-05 2.40155E-05 0.00000E+00
 -1       873 3.05638E-05 2.40021E-05 0.00000E+00
 -1       874 2.95854E-05 2.39884E-05 4.13590E-25
 -1       875 2.85979E-05 2.39740E-05-1.65436E-24
 -1       876 3.34095E-05 2.55117E-05 0.00000E+00
 -1       877 3.29936E-05 2.72068E-05 3.30872E-24
 -1       878 3.25051E-05 2.90940E-05 0.00000E+00
 -1       879 3.19561E-05 3.11449E-05 3.30872E-24
 -1       880 3.13564E-05 3.33308E-05 0.00000E+00
 -1       881 3.07165E-05 3.56236E-05 0.00000E+00
 -1       882 3.00470E-05 3.79953E-05 6.61744E-24
 -1       883 2.93581E-05 4.04182E-05 3.30872E-24
 -1       884 2.86604E-05 4.28643E-05 0.00000E+00
 -1       885 2.79643E-05 4.53063E-05 0.00000E+00
 -1       886 2.72802E-05 4.77164E-05 0.00000E+00
 -1       887 2.66183E-05 5.00667E-05 0.00000E+00
 -1       888 2.59893E-05 5.23296E-05 0.00000E+00
 -1       889 2.54024E-05 5.44766E-05 0.00000E+00
 -1       890 2.48700E-05 5.64800E-05 0.00000E+00
 -1       891 3.00723E-05 5.86819E-05-1.65436E-24
 -1       892 2.89570E-05 5.86066E-05 0.00000E+00
 -1       893 2.79721E-05 5.85315E-05 0.00000E+00
 -1       894 2.69769E-05 5.84565E-05-8.27181E-25
 -1       895 2.58307E-05 5.83813E-05-1.65436E-24
 -1       896 3.25571E-07 1.60577E-06 6.61744E-24
 -1       897 6.54464E-07 3.01169E-06 0.00000E+00
 -1       898 9.83357E-07 4.27036E-06 0.00000E+00
 -1       899 1.31294E-06 5.43221E-06 0.00000E+00
 -1       900 1.64262E-06 6.51355E-06 1.32349E-23
 -1       901 1.97248E-06 7.52958E-06 0.00000E+00
 -1       902 2.30242E-06 8.47244E-06 0.00000E+00
 -1       903 2.63243E-06 9.33320E-06 0.00000E+00
 -1       904 2.96253E-06 1.00740E-05 0.00000E+00
 -1       905 3.29265E-06 1.06554E-05-6.61744E-24
 -1       906 3.62282E-06 1.09814E-05-1.32349E-23
 -1       907 3.95265E-06 1.09526E-05 0.00000E+00
 -1       908 4.28222E-06 1.03446E-05 0.00000E+00
 -1       909 4.60904E-06 8.92444E-06 0.00000E+00
 -1       910 4.93372E-06 6.17373E-06 6.61744E-24
 -1       911 5.34401E-06-3.84078E-06 0.00000E+00
 -1       912 5.45025E-06-8.88154E-06 1.65436E-24
 -1       913 5.55797E-06-1.35797E-05 3.30872E-24
 -1       914 5.66748E-06-1.79457E-05 0.00000E+00
 -1       915 5.77845E-06-2.19508E-05 0.00000E+00
 -1       916 5.89092E-06-2.55644E-05 1.65436E-24
 -1       917 6.00490E-06-2.87098E-05 3.30872E-24
 -1       918 6.12040E-06-3.13077E-05 0.00000E+00
 -1       919 6.23735E-06-3.32143E-05 3.30872E-24
 -1       920 6.35544E-06-3.42823E-05 0.00000E+00
 -1       921 6.47398E-06-3.42653E-05 0.00000E+00
 -1       922 6.59130E-06-3.29114E-05 0.00000E+00
 -1       923 6.70468E-06-2.98111E-05 3.30872E-24
 -1       924 6.80765E-06-2.45457E-05 0.00000E+00
 -1       925 6.89265E-06-1.64426E-05 0.00000E+00
 -1       926 6.54077E-06 1.16590E-05-6.61744E-24
 -1       927 6.02809E-06 3.41340E-05 0.00000E+00
 -1       928 5.44911E-06 5.95769E-05 0.00000E+00
 -1       929 4.87143E-06 8.49194E-05-3.30872E-24
 -1       930 4.36361E-06 1.07118E-04 0.00000E+00
 -1       931 3.96878E-06 1.23166E-04-3.30872E-24
 -1       932 3.66179E-06 1.31522E-04 6.61744E-24
 -1       933 3.38802E-06 1.30738E-04 0.00000E+00
 -1       934 3.07507E-06 1.21530E-04 0.00000E+00
 -1       935 2.66674E-06 1.04714E-04 0.00000E+00
 -1       936 2.16859E-06 8.29188E-05 6.61744E-24
 -1       937 1.61932E-06 5.88269E-05 3.30872E-24
 -1       938 1.09070E-06 3.56721E-05 0.00000E+00
 -1       939 6.44478E-07 1.66778E-05 0.00000E+00
 -1       940 2.93289E-07 4.06970E-06 0.00000E+00
 -1       941 1.72631E-06 2.40713E-07-2.64698E-23
 -1       942 3.54765E-06 5.05720E-07 0.00000E+00
 -1       943 5.36301E-06 7.83479E-07 5.29396E-23
 -1       944 7.19644E-06 1.06354E-06 0.00000E+00
 -1       945 9.03041E-06 1.34479E-06 0.00000E+00
 -1       946 1.08680E-05 1.62627E-06 0.00000E+00
 -1       947 1.27060E-05 1.90787E-06-5.29396E-23
 -1       948 1.45446E-05 2.18950E-06 2.64698E-23
 -1       949 1.63833E-05 2.47122E-06 0.00000E+00
 -1       950 1.82215E-05 2.75308E-06 2.64698E-23
 -1       951 2.00593E-05 3.03578E-06-5.29396E-23
 -1       952 2.18944E-05 3.32005E-06 2.64698E-23
 -1       953 2.37289E-05 3.61317E-06-5.29396E-23
 -1       954 2.55489E-05 3.92315E-06 0.00000E+00
 -1       955 2.73737E-05 4.32718E-06 0.00000E+00
 -1       956 2.90269E-05 5.67922E-06-1.65436E-24
 -1       957 2.89305E-05 6.55718E-06 1.44757E-24
 -1       958 2.88337E-05 7.53347E-06-8.27181E-25
 -1       959 2.87367E-05 8.59671E-06 1.24077E-24
 -1       960 2.86396E-05 9.73550E-06-3.30872E-24
 -1       961 2.85423E-05 1.09383E-05 0.00000E+00
 -1       962 2.84450E-05 1.21937E-05 1.65436E-24
 -1       963 2.83476E-05 1.34901E-05 8.27181E-25
 -1       964 2.82502E-05 1.48161E-05-3.30872E-24
 -1       965 2.81527E-05 1.61600E-05 0.00000E+00
 -1       966 2.80553E-05 1.75104E-05 3.30872E-24
 -1       967 2.79579E-05 1.88557E-05 0.00000E+00
 -1       968 2.78605E-05 2.01845E-05 3.30872E-24
 -1       969 2.77634E-05 2.14852E-05 0.00000E+00
 -1       970 2.76665E-05 2.27465E-05 0.00000E+00
 -1       971 2.73789E-05 2.52585E-05 3.30872E-24
 -1       972 2.71811E-05 2.68320E-05 0.00000E+00
 -1       973 2.69829E-05 2.86446E-05 6.61744E-24
 -1       974 2.67836E-05 3.06625E-05 0.00000E+00
 -1       975 2.65838E-05 3.28516E-05 6.61744E-24
 -1       976 2.63835E-05 3.51776E-05 3.30872E-24
 -1       977 2.61830E-05 3.76057E-05-6.61744E-24
 -1       978 2.59823E-05 4.01013E-05 3.30872E-24
 -1       979 2.57815E-05 4.26293E-05-6.61744E-24
 -1       980 2.55808E-05 4.51549E-05-3.30872E-24
 -1       981 2.53802E-05 4.76432E-05 0.00000E+00
 -1       982 2.51800E-05 5.00591E-05 3.30872E-24
 -1       983 2.49802E-05 5.23680E-05-6.61744E-24
 -1       984 2.47818E-05 5.45352E-05 0.00000E+00
 -1       985 2.45836E-05 5.65265E-05 3.30872E-24
 -3
    1PSTEP                        30          15           1          
  100CL  115 7.38197E-01         841                     0   15           1
 -4  STRESS      6    1
 -5  SXX         1    4    1    1
 -5  SYY         1    4    2    2
 -5  SZZ         1    4    3    3
 -5  SXY         1    4    1    2
 -5  SYZ         1    4    2    3
 -5  SZX         1    4    3    1
 -1         1-2.94293E+06-9.57398E+05-6.03737E+05-8.84081E+05-2.37681E-10-4.85064E-09
 -1         2-1.68709E+06-1.49497E+04 1.79987E+04-8.48731E+04-3.85897E-09 9.25951E-10
 -1         3-9.88528E+05-3.39492E+05-2.73928E+04-6.55485E+04 1.70212E-09-7.31234E-10
 -1         4-6.68621E+05-9.62501E+04 1.43340E+03-4.32782E+04-5.22931E-10 1.82069E-10
 -1         5-3.70566E+05 1.21487E+05-1.57086E+05-1.13749E+04 8.35280E-09-4.29634E-09
 -1         8-1.41991E+06-5.58316E+05-1.87963E+05-5.46828E+05 5.16593E-10 1.99361E-09
 -1         9-1.61745E+06-3.65926E+05-1.85526E+05-3.69057E+05 2.98314E-10-3.37119E-10
 -1        10-6.87345E+05-3.78498E+05 1.03575E+04-1.16777E+05-3.63485E-09 2.00741E-09
 -1        11-3.54159E+05-5.70156E+04 8.57950E+03-9.52036E+03 3.16049E-08-1.18515E-09
 -1        12-3.34984E+05 1.12404E+05-1.50780E+05-6.41430E+04 1.22305E-08 3.38598E-09
 -1        15 1.78819E+04 4.66997E+04 1.42482E+04-3.67563E+04-6.91216E-11-7.23230E-09
 -1        16-1.11409E+06-2.21376E+05 7.04469E+03-4.38787E+05 1.45822E-09-1.39410E-09
 -1        17-6.30726E+05-4.05698E+05-7.31527E+04-3.19249E+05-9.51938E-11 2.34528E-09
 -1        18-2.37599E+05-9.90566E+04-8.92090E+04-1.14497E+05-6.38768E-10 2.99769E-09
 -1        19 2.53446E+04 1.05137E+05-3.71481E+04-3.28017E+04-4.13987E-09 9.90743E-10
 -1        20 1.04387E+05-7.70465E+04-1.27033E+04 5.56140E+04 6.54563E-09-3.85899E-09
 -1        21 1.37205E+03-1.55592E+05 3.93075E+04 4.53784E+02 1.79894E-08-3.96874E-09
 -1        22 3.13186E+04 1.69863E+05 1.62746E+03-2.86015E+04-5.36602E-11-1.76624E-09
 -1        23-2.27099E+05 7.76441E+04 1.16572E+04-6.32977E+04-5.43787E-09 7.19107E-10
 -1        24-2.17369E+05 1.11636E+04 2.56856E+05-4.45134E+05-9.18711E-09 4.26614E-09
 -1        25 5.53733E+05 1.97473E+05 1.74143E+05-2.87204E+05 7.20017E-10 9.78616E-10
 -1        26 2.26714E+03 1.74659E+05 9.11218E+03-3.27978E+04 1.37629E-09 1.66892E-10
 -1        27-4.02430E+04-6.57734E+04-2.84342E+04 7.54930E+04 5.43241E-09-2.12155E-09
 -1        28-1.32157E+04-1.21790E+05-7.21892E+02 5.85598E+04 1.25549E-08-2.08566E-09
 -1        29 4.50017E+05 2.86154E+05 1.15312E+03-2.96689E+03 5.32925E-11-4.07272E-09
 -1        30 1.80052E+05 3.97966E+04 2.03669E+03-2.91716E+04-9.28686E-10 1.09239E-08
 -1        31-3.39622E+05 7.01287E+04 8.74560E+03-2.88492E+04-9.42303E-09-1.34596E-08
 -1        32 8.74672E+05 4.76436E+05 5.65226E+05-4.60465E+05 1.51502E-08 2.13186E-09
 -1        33 1.28073E+06 5.44483E+05 4.00736E+05-4.93182E+04-1.63349E-08-1.72804E-09
 -1        34-2.10572E+05-2.94869E+04-8.58587E+03 4.01235E+04 1.31443E-10 2.33103E-09
 -1        35-3.40959E+04-4.02658E+04-7.57032E+02 8.70062E+04 1.44786E-08-2.86794E-09
 -1        36-3.69339E+06 1.08491E+05-2.51704E+05-2.15441E-07-3.58162E-10-7.52334E-09
 -1        37-3.80222E+06-1.25610E+05-1.77986E+05-2.58321E-07-2.05317E-09 5.49153E-09
 -1        38-3.73538E+06 1.69192E+04-6.50978E+04-5.35303E-07-3.25355E-09-5.23505E-09
 -1        39-3.75308E+06-1.95831E+04-4.08682E+04-8.08902E-08-2.64248E-09 2.98451E-09
 -1        40-3.74225E+06 2.63332E+03-1.67116E+04-3.14361E-07-2.18065E-09-4.45652E-09
 -1        41-3.74501E+06-3.08479E+03-9.96029E+03-3.47856E-07-1.65819E-11 4.45118E-09
 -1        42-3.74337E+06 4.47372E+02-4.87454E+03-1.95485E-07 1.04418E-09-9.42691E-10
 -1        43-3.74380E+06-7.87553E+02-3.86199E+03-6.66515E-08-1.21118E-09 2.16217E-09
 -1        44-3.74343E+06 3.39438E+02-3.89366E+03-1.54952E-07-3.69406E-09 8.86189E-10
 -1        45-3.74450E+06-2.15261E+03-7.12284E+03 1.81297E-07-1.81033E-09 7.08667E-09
 -1        46-3.74268E+06 1.81034E+03-1.15953E+04-2.36790E-07-2.02227E-09-2.32512E-09
 -1        47-3.75002E+06-1.34321E+04-2.80917E+04 7.92874E-08-7.75163E-09-8.51651E-09
 -1        48-3.73798E+06 1.16005E+04-4.46695E+04-2.59964E-07-3.65667E-09 1.63345E-09
 -1        49-3.78370E+06-8.61213E+04-1.22050E+05-1.54534E-07-2.58626E-09 6.62840E-09
 -1        50-3.70921E+06 7.43777E+04-1.72639E+05-1.81088E-07-4.57226E-09 1.03319E-09
 -1        51 3.34584E+04-3.91673E+05 5.41448E+04-1.05957E+06-1.01863E-10-8.14907E-10
 -1        52 1.59418E+04-3.88118E+05 3.28727E+04-1.16853E+06 3.27418E-10 4.33647E-09
 -1        53 1.08366E+04-4.00082E+05 2.61294E+04-1.05671E+06-3.63798E-10-6.83940E-09
 -1        54 2.43894E+04-3.97068E+05 3.94703E+04-1.17152E+06-1.24419E-09-6.77028E-09
 -1        55 5.34538E+04-4.10041E+05 7.11257E+04-1.05615E+06-6.83940E-10 4.80577E-09
 -1        56-4.74456E+06-5.34395E+05-3.91208E+05-1.83455E+06-5.45697E-10-7.30506E-09
 -1        57-4.92000E+06-8.62199E+05-2.62599E+05-1.79838E+06-3.60160E-10-7.23230E-09
 -1        58-4.82090E+06-6.57755E+05-9.20462E+04-1.81268E+06-1.31149E-09-6.44286E-09
 -1        59-4.83223E+06-7.16317E+05-5.45761E+04-1.82388E+06 1.12937E-09 3.01952E-10
 -1        60-4.83111E+06-6.75375E+05-2.14917E+04-1.81066E+06 2.35195E-09 9.96806E-10
 -1        61-4.82191E+06-6.94078E+05-1.21569E+04-1.82441E+06-1.48020E-09 1.64175E-09
 -1        62-4.83095E+06-6.79385E+05-5.93480E+03-1.81230E+06-1.30672E-09 5.75403E-09
 -1        63-4.82441E+06-6.87580E+05-4.96219E+03-1.82000E+06-2.27692E-09 2.94688E-09
 -1        64-4.82855E+06-6.81826E+05-5.81055E+03-1.81507E+06 7.62839E-10-4.91127E-09
 -1        65-4.83094E+06-6.84816E+05-1.17691E+04-1.81392E+06 6.53301E-10-8.12861E-09
 -1        66-4.82445E+06-6.82219E+05-2.07785E+04-1.81836E+06-2.18029E-09 2.04636E-10
 -1        67-4.84791E+06-6.99267E+05-5.26966E+04-1.80539E+06-2.87378E-09-2.28738E-09
 -1        68-4.81183E+06-6.67966E+05-8.88879E+04-1.82346E+06 3.67436E-10 5.28962E-09
 -1        69-4.93616E+06-8.36668E+05-2.53553E+05-1.77687E+06 2.42017E-09 3.60887E-09
 -1        70-4.73742E+06-5.49528E+05-3.77754E+05-1.84534E+06-1.93540E-09-2.24099E-09
 -1        71-2.07879E+06 1.10032E+04-2.55759E+04-2.70499E-08-3.22224E-10 3.61251E-09
 -1        72-2.08968E+06-1.27426E+04-1.80775E+04 3.00954E-08-6.98298E-10 8.80959E-09
 -1        73-2.08305E+06 1.71662E+03-6.63071E+03-7.31947E-08-1.50396E-09 3.76031E-09
 -1        74-2.08470E+06-1.98924E+03-4.18550E+03 1.14218E-07-1.58288E-09-6.77642E-09
 -1        75-2.08375E+06 2.69399E+02-1.76297E+03-1.16762E-07-1.19090E-09-1.12760E-09
 -1        76-2.08389E+06-3.30258E+02-1.14869E+03-6.48539E-09-1.31231E-09-3.20392E-09
 -1        77-2.08385E+06 6.04297E+01-7.50832E+02-1.49156E-07-1.64579E-11-1.99098E-10
 -1        78-2.08383E+06-1.93740E+02-9.53208E+02-3.67466E-07-6.17024E-10 5.02470E-09
 -1        79-2.08381E+06 1.33127E+02-1.41344E+03-1.51993E-07-1.77415E-09-6.28745E-10
 -1        80-2.08423E+06-9.58125E+02-3.06419E+03-1.72043E-07-7.86480E-11 2.62230E-09
 -1        81-2.08345E+06 8.23691E+02-5.21704E+03-1.28278E-07-2.22499E-09 3.01702E-09
 -1        82-2.08676E+06-6.13195E+03-1.28038E+04-1.47829E-07-7.97560E-10-4.25212E-09
 -1        83-2.08130E+06 5.29839E+03-2.04135E+04-3.46852E-07-3.03841E-09-9.05220E-09
 -1        84-2.10214E+06-3.93369E+04-5.57794E+04-4.94774E-08-1.38865E-09 5.27507E-10
 -1        85-2.06813E+06 3.39702E+04-7.89275E+04-3.42663E-09-2.49407E-09 2.60115E-09
 -1        86-8.41639E+04 3.45232E+05 1.99069E+05 3.61477E+03 1.45519E-11 2.63583E-09
 -1        87 1.05813E+05 4.35761E+05 1.55712E+05-1.61966E+04-6.00267E-11 1.79021E-09
 -1        88-2.14224E+04 3.74638E+05 8.17185E+04 2.06025E+03-9.29504E-10-4.39599E-10
 -1        89 7.82811E+04 4.22266E+05 1.19632E+05-1.47422E+04 3.77440E-10-6.93191E-09
 -1        90-5.66633E+04 3.58664E+05 1.37274E+05 2.16073E+03-1.05501E-09-3.19369E-09
 -1        91-1.62246E+06-3.18607E+05-3.16483E+04-6.97063E+05 8.37190E-09-5.22596E-09
 -1        92-1.57488E+06 5.15720E+03 3.82384E+04-3.19529E+05 2.09019E-08-6.41580E-09
 -1        93-1.46864E+06-3.04570E+05-2.14087E+03-6.89857E+05 2.35484E-08-8.15135E-11
 -1        94-1.39495E+06-4.38388E+04 6.19996E+04-3.39742E+05 3.26713E-09-3.91560E-09
 -1        95-1.79576E+06-2.76297E+05-6.06174E+04-6.70939E+05-4.70573E-09 1.07229E-09
 -1        96-1.14713E+06-2.20624E+05 7.53367E+04-5.37172E+05 8.39191E-09 7.92625E-10
 -1        97-1.71291E+06-1.31279E+05-1.68168E+04-4.90023E+05 1.36606E-08 1.35537E-09
 -1        98-1.25044E+06-3.59716E+05 2.81620E+04-7.33504E+05-6.41192E-08 7.34553E-09
 -1        99-1.70347E+06-1.26202E+05-1.45810E+04-4.83553E+05-1.09426E-07-7.34485E-09
 -1       100-1.14972E+06-2.30062E+05 7.15313E+04-5.48810E+05-5.34310E-08-6.18866E-09
 -1       101-1.80307E+06-2.71484E+05-6.43163E+04-6.66173E+05-3.12684E-09-5.45424E-09
 -1       102-1.38028E+06-5.24893E+04 5.62561E+04-3.42347E+05 2.18304E-08 1.06379E-08
 -1       103-1.47544E+06-3.01312E+05-1.72412E+04-6.91527E+05 2.42042E-08 1.63800E-08
 -1       104-1.59718E+06-2.18746E+04-2.08724E+03-3.13929E+05-5.46265E-09 1.10199E-08
 -1       105-1.59365E+06-2.94626E+05-8.53976E+04-7.01219E+05 2.00380E-08 4.53110E-09
 -1       106-1.42709E+06 9.09646E+03-2.11480E+04 1.25177E-07 6.84913E-10-1.24328E-09
 -1       107-1.43612E+06-1.05344E+04-1.49480E+04-5.85257E-08-7.17911E-10 4.97175E-09
 -1       108-1.43062E+06 1.41912E+03-5.48313E+03 3.46527E-08-1.09422E-09-2.75008E-09
 -1       109-1.43200E+06-1.64427E+03-3.45859E+03-1.03861E-07-4.10392E-10 1.06843E-09
 -1       110-1.43119E+06 2.22469E+02-1.45170E+03-9.90582E-08-7.93255E-10 1.07985E-09
 -1       111-1.43133E+06-2.71081E+02-9.35286E+02-1.94860E-07-5.74301E-10-9.43459E-11
 -1       112-1.43128E+06 4.82591E+01-5.92764E+02-2.81358E-07 9.91514E-10-1.07433E-09
 -1       113-1.43128E+06-1.47299E+02-7.25647E+02 3.16402E-08-2.96390E-10 3.26089E-10
 -1       114-1.43125E+06 9.89007E+01-1.05485E+03-3.33784E-07 5.43150E-11 2.75736E-09
 -1       115-1.43157E+06-7.08444E+02-2.27079E+03 9.19317E-08-7.86767E-10-3.18369E-09
 -1       116-1.43099E+06 6.08579E+02-3.85991E+03-4.76128E-08 6.29684E-11-3.74803E-09
 -1       117-1.43344E+06-4.53000E+03-9.46543E+03-2.52430E-07-8.06367E-10-3.23939E-09
 -1       118-1.42939E+06 3.91406E+03-1.50895E+04-2.32631E-07-1.36773E-09 3.93266E-09
 -1       119-1.44480E+06-2.90591E+04-4.12173E+04 1.13845E-07 1.06399E-10 5.85987E-09
 -1       120-1.41966E+06 2.50942E+04-5.83221E+04-1.23608E-07-6.39124E-10 3.47427E-09
 -1       121-1.63376E+03-1.11945E+06 6.76655E+03-2.84694E+02-2.50566E-10-4.56566E-10
 -1       122 2.10654E+03-1.11672E+06 4.36691E+03-2.18498E+03-3.91992E-10 1.26875E-10
 -1       123-2.22237E+02-1.11843E+06 1.73847E+03 1.66366E+02-6.64045E-10 3.21870E-09
 -1       124 2.27831E+02-1.11786E+06 1.02043E+03-3.06702E+03-5.42173E-10-2.94358E-09
 -1       125-1.03531E+02-1.11833E+06 4.42132E+02 5.97155E+02-1.49043E-09-8.74024E-10
 -1       126-6.89884E+05-1.05406E+05 2.72423E+04-2.28199E+05 3.69073E-08-4.09636E-09
 -1       127-4.74631E+05-9.21250E+04 4.66933E+04-2.58646E+05 2.98096E-08 9.25866E-09
 -1       128-6.49490E+05-5.93901E+04 7.04830E+03-1.94745E+05-3.42602E-08-1.33464E-08
 -1       129-5.26524E+05-1.43158E+05 9.00906E+03-2.99308E+05-4.42340E-08-1.98610E-08
 -1       130-6.40744E+05-5.23502E+04 1.76854E+03-1.89472E+05-4.15733E-08 3.17141E-09
 -1       131-5.02252E+05-1.28606E+05 1.24353E+04-2.71234E+05-6.88260E-09 8.57744E-09
 -1       132-6.72008E+05-7.52696E+04-1.07144E+04-2.21586E+05 2.16237E-08 8.77867E-09
 -1       133-4.73140E+05-7.90665E+04 2.65602E+04-2.01304E+05-4.85807E-09-3.91287E-09
 -1       134-6.66798E+05-1.04171E+05-1.59522E+04-2.57072E+05 7.76663E-09 5.33805E-09
 -1       135-5.42083E+05-3.58298E+04 2.09971E+04-1.55698E+05-1.12468E-08 5.71379E-09
 -1       136-6.04129E+05-1.17692E+05-7.34286E+03-2.67837E+05 1.86010E-08 6.41649E-09
 -1       137-6.45751E+05-1.89912E+04 2.40689E+03-1.49072E+05 2.64561E-08 1.83328E-08
 -1       138-5.66354E+05-1.18626E+05-4.04543E+03-2.66283E+05 2.74053E-09 7.05609E-09
 -1       139-6.42526E+05-2.42673E+04-6.20324E+03-1.48085E+05 5.39976E-08 3.96716E-08
 -1       140-6.07163E+05-1.12566E+05-2.79078E+04-2.68660E+05 8.29550E-09-1.18644E-08
 -1       141-7.05302E+05-2.59684E+03 6.03362E+03-2.42311E-07 1.00185E-11-6.48924E-10
 -1       142-7.02625E+05 3.00676E+03 4.25313E+03-3.48573E-07 8.44614E-10 2.97769E-09
 -1       143-7.04294E+05-4.04486E+02 1.53429E+03-7.69075E-08-4.67040E-10-3.45494E-09
 -1       144-7.03803E+05 4.64155E+02 9.19870E+02 2.01312E-07-8.19420E-10-6.63775E-10
 -1       145-7.04126E+05-5.88912E+01 2.83845E+02-9.08675E-08-9.03193E-10 1.32758E-10
 -1       146-7.04016E+05 4.18267E+01-1.27190E+01 6.39050E-08 7.62661E-11-2.73849E-09
 -1       147-7.04082E+05 1.71584E+01-3.55983E+02 9.89771E-08-9.42415E-11-8.46853E-10
 -1       148-7.04152E+05-1.92083E+02-9.47631E+02-2.87691E-08-1.05195E-09 4.77439E-09
 -1       149-7.03990E+05 1.74743E+02-1.79570E+03 3.97306E-08-2.02948E-10 1.34878E-09
 -1       150-7.04752E+05-1.31914E+03-4.17260E+03 2.01017E-07 4.64437E-10 3.13742E-09
 -1       151-7.03484E+05 1.14261E+03-7.21723E+03 1.38060E-07-3.93306E-10-2.93676E-09
 -1       152-7.08273E+05-8.51531E+03-1.77838E+04-9.01196E-08 2.92202E-10 8.13088E-10
 -1       153-7.00476E+05 7.35902E+03-2.83759E+04-6.04399E-08 2.61241E-09-3.53430E-09
 -1       154-7.29619E+05-5.46357E+04-7.75112E+04 1.70578E-07 1.15614E-09-6.95672E-09
 -1       155-6.82150E+05 4.71828E+04-1.09653E+05-2.58019E-08 4.90945E-09-4.36557E-11
 -1       156-2.41301E+04-1.71756E+05 5.47749E+04-2.25676E+04-7.87622E-09 6.19821E-10
 -1       157 2.93033E+04-1.34531E+05 4.39673E+04 9.30455E+04-2.01185E-08 2.52788E-09
 -1       158-4.73469E+03-1.61950E+05 2.00738E+04-2.26154E+04-1.00217E-08 3.93823E-09
 -1       159 1.97109E+04-1.06960E+05 3.53089E+04 8.90086E+04-4.12899E-09-3.67072E-09
 -1       160-1.58584E+04-1.97547E+05 2.12933E+04-1.85417E+04 1.88938E-08 2.82716E-09
 -1       161-7.03726E+05-9.43445E+04-2.85700E+03-2.58091E+05-3.61285E-09 2.85434E-09
 -1       162-6.78250E+05-1.10840E+05-8.76882E+01-2.74430E+05 8.52788E-09 3.24530E-09
 -1       163-7.05557E+05-8.87092E+04-5.64101E+02-2.50721E+05 1.97011E-08-3.40228E-09
 -1       164-6.76543E+05-1.16221E+05-6.98828E+01-2.81888E+05 2.88054E-08 5.95868E-09
 -1       165-7.05588E+05-8.88123E+04-2.93717E+02-2.50763E+05 2.85570E-08 6.21316E-09
 -1       166-6.78030E+05-1.10202E+05 8.51114E+02-2.74371E+05 9.05456E-09 2.25536E-09
 -1       167-7.03912E+05-9.48811E+04-1.32075E+03-2.58107E+05 1.70041E-09-6.69729E-09
 -1       168-6.87129E+05-9.68518E+04 1.17283E+03-2.58185E+05-3.19687E-09 5.37406E-09
 -1       169-6.96329E+05-1.02312E+05-2.38893E+03-2.66814E+05 2.68415E-09-2.75588E-09
 -1       170-7.04555E+05-8.55764E+04-2.37280E+03-2.44477E+05 1.96361E-09-9.38189E-09
 -1       171-6.86640E+05-1.06014E+05-6.16291E+03-2.71944E+05-2.98383E-08-4.94219E-09
 -1       172-7.18435E+05-8.77465E+04-1.59880E+04-2.38186E+05-2.26452E-08 2.29193E-10
 -1       173-6.82617E+05-9.99981E+04-2.61121E+04-2.73244E+05-3.76949E-08 2.08365E-09
 -1       174-7.35923E+05-1.37973E+05-7.58448E+04-2.34000E+05-4.75793E-08 9.77889E-09
 -1       175-6.69033E+05-5.59931E+04-1.11994E+05-2.75984E+05-8.72024E-09 3.33966E-09
 -1       191 1.84897E+03 5.63518E+05 3.02473E+03-2.12957E+04-2.96495E-10-2.10093E-09
 -1       192 6.54152E+02 5.63964E+05 1.77480E+03-2.30154E+04 3.38559E-10 2.92857E-09
 -1       193 2.72988E+02 5.63653E+05 1.36494E+03-2.10272E+04-9.02219E-10-6.73026E-11
 -1       194 7.86734E+02 5.63971E+05 1.99152E+03-2.35047E+04 5.43423E-10-3.59432E-09
 -1       195 2.24302E+03 5.63422E+05 3.56517E+03-2.08034E+04-1.35879E-09-3.29237E-09
 -1       251-2.02930E+06 2.14294E+04-1.01909E+05-1.00242E+05-2.09184E-10-6.94854E-10
 -1       252-1.84981E+06-2.47557E+04-3.14020E+04 2.72499E+05 2.77328E-09-5.43241E-09
 -1       253-1.96721E+06 7.94803E+03-2.49515E+04-1.28010E+05-3.63798E-10-6.95400E-09
 -1       254-1.70531E+06 4.65813E+03 3.60249E+04 1.69034E+05-5.22073E-09-2.11594E-09
 -1       255-2.16464E+06-1.69033E+04-5.19557E+04 3.28551E+03-1.07684E-09 5.04315E-10
 -1       256-1.67515E+06 1.35324E+04 5.18081E+04-1.06930E+05 6.26642E-09 7.32371E-09
 -1       257-1.99519E+06-3.02817E+03-1.20742E+04 1.47578E+05-1.14278E-09 1.26444E-08
 -1       258-1.85041E+06 1.17275E+04 1.91948E+04-2.48731E+05-2.28835E-09-4.28940E-09
 -1       259-2.00109E+06-3.58516E+03-1.33226E+04 1.45472E+05-1.74077E-08 5.89495E-09
 -1       260-1.67004E+06 1.35969E+04 5.28541E+04-1.00395E+05 3.26327E-09-5.41473E-09
 -1       261-2.16352E+06-1.67352E+04-5.16007E+04-1.14503E+03 4.16730E-09 2.67437E-09
 -1       262-1.71116E+06 4.52480E+03 3.50758E+04 1.74913E+05 8.05903E-09-4.23711E-09
 -1       263-1.96289E+06 8.30616E+03-2.36213E+04-1.29455E+05-7.72843E-09-1.18598E-09
 -1       264-1.84723E+06-2.38996E+04-2.99016E+04 2.71054E+05-5.05356E-08-8.11269E-10
 -1       265-2.03604E+06 2.00643E+04-1.01837E+05-9.73485E+04-2.01899E-08-5.00950E-09
 -1       266-3.03334E+04-2.51617E+05 7.02698E+04-7.89442E+03 3.63798E-12 1.01466E-11
 -1       267 3.35452E+04-2.19343E+05 4.74699E+04 3.61113E+04 2.09184E-11 1.12845E-08
 -1       268-3.31308E+03-2.41038E+05 1.26362E+04-6.87592E+03 4.63842E-11 4.73483E-09
 -1       269-4.44662E+03-2.29050E+05-1.29075E+03 3.17332E+04-9.27685E-11 6.93308E-09
 -1       270 7.25722E+03-2.41478E+05-1.83636E+04-3.52290E+03 1.96451E-10 5.73073E-09
 -1       271-4.01926E+06-5.08354E+05-3.14642E+05-1.55877E+06 8.87667E-10 4.80213E-09
 -1       272-4.12945E+06-7.14465E+05-1.98632E+05-1.55910E+06-9.72477E-10-9.22591E-09
 -1       273-4.07574E+06-5.78086E+05-7.41945E+04-1.54833E+06-3.35609E-09 3.30692E-09
 -1       274-4.06321E+06-6.24827E+05-4.07375E+04-1.57735E+06-5.30827E-09-4.42014E-09
 -1       275-4.08361E+06-5.84096E+05-1.72478E+04-1.54584E+06-4.56566E-09-3.52247E-09
 -1       276-4.05366E+06-6.17571E+05-9.11940E+03-1.58165E+06-1.71349E-09-7.72184E-09
 -1       277-4.08537E+06-5.83889E+05-4.67752E+03-1.54470E+06-1.59343E-09-6.88510E-09
 -1       278-4.05176E+06-6.17864E+05-3.67140E+03-1.58325E+06 6.99401E-10 1.05399E-09
 -1       279-4.08567E+06-5.83601E+05-4.39588E+03-1.54439E+06 2.18478E-10 4.51109E-10
 -1       280-4.05261E+06-6.18531E+05-8.37103E+03-1.58299E+06-5.06702E-10-3.29601E-09
 -1       281-4.08452E+06-5.83315E+05-1.56913E+04-1.54493E+06 3.11275E-10-2.12731E-09
 -1       282-4.06058E+06-6.25891E+05-3.70630E+04-1.58001E+06 2.58296E-10-2.17187E-09
 -1       283-4.07771E+06-5.77508E+05-6.74345E+04-1.54682E+06 1.08071E-09-1.83354E-09
 -1       284-4.12024E+06-7.07962E+05-1.80600E+05-1.56407E+06 7.82165E-11 2.68847E-09
 -1       285-4.02660E+06-5.13889E+05-2.86065E+05-1.55606E+06-2.47383E-10-7.27596E-11
 -1       286-6.09827E+05-1.74497E+04 4.05298E+04-2.25376E+03 2.44481E-09-2.49020E-09
 -1       287-5.91727E+05 2.02137E+04 2.87303E+04 2.37129E+03 1.38834E-09 7.18956E-10
 -1       288-6.03187E+05-2.73470E+03 1.04509E+04-6.19845E+02 3.01753E-10-2.34195E-10
 -1       289-5.99535E+05 3.16310E+03 6.68789E+03-1.09698E+03-4.40366E-10-3.68527E-09
 -1       290-6.02027E+05-4.34528E+02 2.67739E+03 1.21459E+03 5.93957E-10-1.01954E-09
 -1       291-6.01044E+05 5.11607E+02 1.69539E+03-4.22388E+03 2.86232E-09-2.42267E-10
 -1       292-6.01692E+05-7.82590E+01 8.55769E+02 2.50709E+03 1.70847E-09-1.50305E-09
 -1       293-6.01426E+05 1.68923E+02 7.96742E+02-5.75500E+03 5.76525E-10 7.27582E-10
 -1       294-6.01657E+05-8.34110E+01 9.30190E+02 2.74576E+03 1.15786E-09-9.79838E-10
 -1       295-6.01117E+05 5.73396E+02 1.86600E+03-5.08435E+03 8.31818E-10-2.51998E-09
 -1       296-6.01995E+05-4.86390E+02 3.03537E+03 1.83641E+03-8.63452E-11 1.53432E-09
 -1       297-5.99391E+05 3.57554E+03 7.53633E+03-2.47858E+03 1.44183E-09 1.80012E-09
 -1       298-6.03366E+05-3.09188E+03 1.18261E+04 1.39942E+02 8.56375E-10 2.09639E-09
 -1       299-5.90412E+05 2.28672E+04 3.25059E+04 1.01106E+03 4.74785E-11-5.31509E-09
 -1       300-6.10956E+05-1.97441E+04 4.58412E+04-1.65328E+03 7.12731E-10-4.08909E-09
 -1       301 5.45378E+04 2.08843E+04 1.19458E+05-3.26084E+04 3.03771E-09-1.62606E-09
 -1       302 1.84890E+04 4.32129E+04 7.28415E+04-3.83416E+04 2.23918E-09-2.74785E-09
 -1       303 5.25956E+03 2.88255E+04 5.79264E+04-3.27067E+04 3.10729E-09-1.77954E-09
 -1       304 2.33175E+04 4.60503E+04 8.57120E+04-3.82974E+04 2.49202E-09 3.61069E-10
 -1       305 7.02172E+04 1.80739E+04 1.50703E+05-3.26142E+04 3.20870E-09 3.41379E-09
 -1       306-2.75042E+06-3.57008E+05-1.84947E+05-1.06620E+06 1.56615E-09-4.11092E-09
 -1       307-2.79833E+06-4.94303E+05-1.16644E+05-1.08527E+06-6.70752E-10-2.20643E-09
 -1       308-2.78384E+06-3.97595E+05-4.36432E+04-1.05988E+06 2.82853E-10-6.16637E-10
 -1       309-2.75944E+06-4.41934E+05-2.39548E+04-1.09641E+06 4.41105E-11-3.72529E-09
 -1       310-2.78853E+06-4.01036E+05-1.01790E+04-1.05839E+06 1.05047E-09-2.02272E-09
 -1       311-2.75400E+06-4.37601E+05-5.43124E+03-1.09894E+06 1.54228E-09 3.78748E-09
 -1       312-2.78948E+06-4.00992E+05-2.88912E+03-1.05784E+06 7.73070E-10-1.56263E-10
 -1       313-2.75320E+06-4.37496E+05-2.46686E+03-1.09955E+06 4.51577E-09 3.86297E-09
 -1       314-2.78943E+06-4.01024E+05-3.21073E+03-1.05788E+06 6.64841E-10-1.64346E-09
 -1       315-2.75424E+06-4.37582E+05-6.31666E+03-1.09875E+06-1.31490E-09-3.09046E-09
 -1       316-2.78831E+06-4.01054E+05-1.19754E+04-1.05851E+06-1.84764E-09 2.97405E-10
 -1       317-2.76058E+06-4.42823E+05-2.82748E+04-1.09593E+06-1.55705E-09 2.93585E-09
 -1       318-2.78289E+06-3.96866E+05-5.15262E+04-1.06014E+06-9.80208E-10 7.16682E-10
 -1       319-2.80625E+06-5.04994E+05-1.37767E+05-1.08319E+06 5.70026E-10 2.42289E-09
 -1       320-2.74363E+06-3.48679E+05-2.18377E+05-1.06737E+06-1.44610E-09-3.18687E-09
 -1       321-5.48155E+05-2.32985E+04 5.05640E+04 4.10895E+03-1.47315E-09 5.23869E-10
 -1       322-5.07816E+05 2.68806E+04 3.90202E+04-1.96713E+04 7.02835E-09-2.91038E-11
 -1       323-5.34703E+05-3.70195E+03 1.29288E+04 1.16156E+04-4.51587E-09 4.19823E-09
 -1       324-5.26131E+05 4.41552E+03 8.92969E+03-3.02269E+04-2.13086E-08-3.46506E-09
 -1       325-5.30301E+05-5.32708E+02 3.48717E+03 1.46681E+04 1.05751E-09 3.19937E-09
 -1       326-5.28344E+05 9.13817E+02 2.32864E+03-3.07746E+04 1.50726E-09 1.13704E-09
 -1       327-5.32522E+05-1.84495E+02 3.85621E+02 1.21636E+04-1.03402E-08 1.88010E-09
 -1       328-5.21032E+05 4.02783E+02 2.23234E+03-2.10372E+04 3.99803E-09 2.47735E-09
 -1       329-5.37187E+05-3.50108E+02-1.32791E+03 4.92687E+03 2.92016E-09 1.22672E-09
 -1       330-5.15164E+05 3.32052E+02 2.83608E+03-4.32684E+03-8.69477E-09-3.87153E-10
 -1       331-5.38055E+05-3.72369E+02-2.01487E+03-4.54278E+03 1.11186E-10-3.75593E-09
 -1       332-5.18756E+05-4.51990E+00 1.30159E+03 1.34525E+04 2.16710E-08-4.44642E-09
 -1       333-5.33779E+05 1.26728E+02-2.49907E+03-1.28479E+04 1.50144E-08-3.30238E-09
 -1       334-5.28471E+05-2.59793E+03-3.90601E+03 2.60086E+04 1.58327E-08-1.68870E-09
 -1       335-5.28809E+05 2.57649E+03-6.64760E+03-1.71050E+04-1.62665E-08-2.92630E-09
 -1       336 7.11582E+01-1.11844E+06-1.88571E+03-5.55415E+03-1.84195E-09-5.40695E-10
 -1       337-1.07648E+03-1.11935E+06-5.46656E+03-2.89056E+04-1.23634E-09 1.15062E-09
 -1       338 9.90982E+02-1.11772E+06-1.03748E+04-5.34622E+03-2.10775E-09-1.87720E-09
 -1       339-1.26627E+04-1.12630E+06-2.60402E+04-2.91645E+04-8.75389E-10-4.87580E-09
 -1       340 9.44821E+03-1.11157E+06-4.07824E+04-5.30057E+03-1.25328E-09 1.78774E-09
 -1       341-1.51785E+06-2.45452E+05-6.33551E+04-6.37748E+05-2.31921E-08 3.79805E-09
 -1       342-1.59701E+06-1.14461E+05-2.30402E+04-4.21019E+05-4.99349E-08-8.80391E-09
 -1       343-1.47820E+06-2.64557E+05-1.41532E+04-6.38094E+05 8.50605E-09 4.31828E-09
 -1       344-1.48833E+06-1.28297E+05 1.70135E+04-4.51551E+05 2.51656E-08 5.23778E-09
 -1       345-1.62355E+06-2.34490E+05-2.63200E+04-6.04639E+05 1.93768E-09-1.83491E-09
 -1       346-1.35902E+06-2.36610E+05 2.57993E+04-5.79599E+05-2.80397E-08-6.87703E-09
 -1       347-1.60670E+06-1.57024E+05-6.12932E+03-5.09503E+05-3.19981E-08 1.87241E-08
 -1       348-1.37636E+06-3.07215E+05 9.16348E+03-6.74028E+05 2.98423E-08 3.18016E-08
 -1       349-1.61015E+06-1.60008E+05-8.40634E+03-5.13464E+05 2.19661E-08 1.36029E-08
 -1       350-1.36113E+06-2.31572E+05 2.36761E+04-5.71456E+05-2.31873E-08-2.55386E-09
 -1       351-1.61778E+06-2.36761E+05-3.14874E+04-6.08631E+05 3.60160E-10-7.93079E-10
 -1       352-1.50352E+06-1.32313E+05 7.49860E+02-4.46440E+05-6.27324E-10-4.99858E-09
 -1       353-1.46907E+06-2.58011E+05-3.73123E+04-6.39452E+05-1.56297E-09-1.60617E-09
 -1       354-1.62200E+06-1.66243E+05-9.38235E+04-4.12552E+05 3.92592E-08 1.08412E-08
 -1       355-1.50191E+06-2.00406E+05-1.67710E+05-6.44744E+05 1.01754E-08-2.95404E-09
 -1       356-5.51673E+05 3.42835E+03-8.69111E+03-1.90079E+04-3.24120E-09-4.13365E-09
 -1       357-5.53751E+05-3.49615E+03-5.60581E+03 3.12729E+04-3.38536E-08 3.85717E-09
 -1       358-5.56487E+05 2.80308E+02-2.91758E+03-1.57280E+04-1.49251E-08-5.08714E-09
 -1       359-5.42516E+05-6.34924E+01 8.83279E+02 1.94183E+04 5.40854E-09-4.10080E-09
 -1       360-5.62373E+05-4.09917E+02-2.47072E+03-7.14437E+03 1.29955E-08 8.60865E-10
 -1       361-5.35823E+05 3.79344E+02 3.01622E+03 2.89646E+00 1.60655E-08 2.66782E-09
 -1       362-5.62826E+05-4.35665E+02-2.41945E+03 3.68411E+03-8.43556E-09-1.38499E-09
 -1       363-5.41062E+05 2.29029E+02 1.59030E+03-1.98497E+04 6.85088E-09 2.05983E-09
 -1       364-5.57429E+05-3.25139E+01-2.39376E+03 1.27014E+04 1.69613E-08 4.26911E-09
 -1       365-5.51437E+05-7.82410E+02-3.03584E+03-3.27975E+04-2.60525E-08-3.59063E-09
 -1       366-5.53005E+05 1.00158E+03-6.26574E+03 1.66362E+04 2.66472E-08 1.79216E-09
 -1       367-5.55882E+05-6.99077E+03-1.51628E+04-3.42341E+04 2.58387E-08 2.73144E-09
 -1       368-5.53066E+05 6.22645E+03-2.53342E+04 1.41392E+04 1.19990E-08 3.08410E-09
 -1       369-5.65370E+05-4.67084E+04-6.55037E+04-2.35066E+04 2.27429E-08 4.57749E-09
 -1       370-5.43023E+05 4.02632E+04-9.77499E+04 5.90294E+03 9.35233E-09 3.45608E-09
 -1       371-1.38564E+04-1.98772E+05 1.83020E+04-1.48828E+04 2.48401E-08 3.18323E-10
 -1       372 1.26035E+04-1.27942E+05 2.09531E+04 7.45337E+04-1.87856E-09-1.88822E-09
 -1       373 3.91883E+02-1.69110E+05-2.42962E+02-1.88040E+04-3.36877E-09 3.04976E-09
 -1       374-1.02790E+04-1.64701E+05-1.21130E+04 7.86118E+04-1.41777E-08-5.15499E-10
 -1       375 1.00510E+04-1.63477E+05-2.34835E+04-1.89489E+04-5.51699E-09 4.79986E-10
 -1       376-5.69787E+05-1.00766E+05-2.11010E+04-2.48671E+05 6.75036E-08-6.11726E-09
 -1       377-6.21484E+05-3.79387E+04-8.80262E+03-1.59427E+05 4.96618E-08 1.38435E-08
 -1       378-5.52250E+05-1.07237E+05-3.80123E+03-2.48189E+05-5.52573E-08 1.43853E-08
 -1       379-6.09507E+05-3.40376E+04 1.51767E+03-1.60771E+05-4.47412E-08-1.46078E-08
 -1       380-5.81486E+05-1.04860E+05-5.65758E+03-2.47104E+05 3.87968E-09 5.25415E-09
 -1       381-5.40011E+05-5.04308E+04 1.32778E+04-1.72224E+05 3.97513E-08 3.81834E-09
 -1       382-6.19790E+05-9.22821E+04-1.00860E+04-2.35198E+05 6.81939E-09 4.87375E-10
 -1       383-4.98558E+05-8.44158E+04 1.46881E+04-2.09815E+05-3.89491E-09 6.83968E-10
 -1       384-6.22604E+05-7.11336E+04-7.16297E+03-2.09342E+05-5.78675E-08 6.53210E-09
 -1       385-5.13949E+05-1.19795E+05 3.26260E+03-2.57164E+05-5.69793E-08 2.51748E-09
 -1       386-6.06303E+05-5.54934E+04-4.54564E+03-1.89283E+05 2.28052E-08 2.26260E-08
 -1       387-5.28425E+05-1.35128E+05-1.02153E+04-2.71665E+05 4.21382E-08 1.22227E-08
 -1       388-6.08997E+05-5.51644E+04-2.11618E+04-1.95455E+05 1.09713E-07 1.31276E-08
 -1       389-5.25679E+05-1.44514E+05-4.60209E+04-2.33447E+05 9.58480E-08 3.20142E-09
 -1       390-6.07373E+05-4.74119E+04-9.09772E+04-2.26269E+05 6.11544E-09-3.93266E-09
 -1       406 1.76538E+03 5.54731E+05 3.52887E+03-5.99638E+04-1.77897E-09 4.48472E-09
 -1       407 1.05622E+03 5.55338E+05 3.88287E+03-6.59888E+04 5.45015E-10-4.44925E-09
 -1       408 1.50361E+03 5.54639E+05 6.05965E+03-5.97662E+04-2.19779E-09-1.77351E-10
 -1       409 5.86633E+03 5.56938E+05 1.27970E+04-6.62485E+04 3.89264E-10-1.85537E-09
 -1       410 1.68373E+04 5.52989E+05 2.56849E+04-5.96836E+04-2.29738E-09 3.72438E-09
 -1       466 1.39377E+06-5.62404E+04 1.24248E+05 3.51262E+04 1.97815E-10-9.95351E-09
 -1       467 1.48470E+06 6.40630E+04 9.40578E+04-5.65190E+04-1.74850E-10 1.50885E-09
 -1       468 1.42987E+06-8.21667E+03 3.28359E+04 9.70749E+03 6.14477E-10-2.55022E-09
 -1       469 1.44272E+06 9.41210E+03 2.11410E+04-2.23337E+04-1.25536E-09 4.46039E-09
 -1       470 1.43498E+06-1.21611E+03 8.66986E+03 9.34841E+02-1.12760E-09 4.12001E-09
 -1       471 1.43681E+06 1.47496E+03 5.43850E+03-1.05784E+04 7.93150E-10 4.78013E-09
 -1       472 1.43570E+06-2.33647E+02 3.16616E+03-2.04807E+03-1.15949E-09 6.25772E-09
 -1       473 1.43617E+06 6.81321E+02 3.44317E+03-6.82069E+03-2.28925E-09-4.53372E-09
 -1       474 1.43561E+06-4.16386E+02 4.67232E+03-2.82287E+03-4.68072E-10 4.80532E-09
 -1       475 1.43739E+06 3.02725E+03 9.78226E+03-6.55333E+03 1.47871E-09 2.00089E-09
 -1       476 1.43447E+06-2.57569E+03 1.65283E+04-2.31541E+03 1.42199E-09 3.96813E-09
 -1       477 1.44546E+06 1.92614E+04 4.04165E+04-9.46110E+03-6.17206E-10 3.23689E-09
 -1       478 1.42752E+06-1.66264E+04 6.43602E+04 8.50186E+01 4.23995E-10 3.82352E-09
 -1       479 1.49510E+06 1.23727E+05 1.75886E+05-1.92537E+04 3.68084E-09 1.31877E-09
 -1       480 1.38485E+06-1.06864E+05 2.48370E+05 7.47635E+03 4.16526E-09 7.13044E-10
 -1       481-1.29516E+04 2.70914E+05 2.37240E+04-1.67227E+04-5.27507E-11-4.66571E-10
 -1       482 1.44617E+04 3.15575E+05 2.35787E+04 5.21167E+04-2.19188E-10 8.10269E-09
 -1       483-2.07779E+03 2.88034E+05 8.61345E+03-1.17244E+04 6.66205E-11 2.66357E-09
 -1       484 5.91478E+03 2.96614E+05 1.05575E+04 4.62711E+04 5.99698E-11-1.03603E-09
 -1       485-3.87211E+03 2.89075E+05 9.95714E+03-1.08690E+04 1.81899E-12-9.26548E-11
 -1       486-1.29864E+06-2.30357E+05-1.44234E+05-6.21686E+05-7.05404E-09-1.46902E-08
 -1       487-1.43556E+06-3.76009E+04-5.92817E+04-2.43786E+05 2.67391E-09 3.63843E-08
 -1       488-1.31027E+06-2.66057E+05-4.26883E+04-6.14491E+05-5.93104E-10-6.31189E-09
 -1       489-1.11471E+06-4.36033E+04 5.47731E+04-2.75289E+05-1.65483E-09-4.24188E-09
 -1       490-1.60901E+06-2.34047E+05-6.93806E+04-5.81200E+05-8.89486E-10 2.41562E-09
 -1       491-9.35772E+05-2.07882E+05 6.94718E+04-4.78351E+05-1.86010E-08 2.35916E-08
 -1       492-1.48865E+06-1.02303E+05-1.52035E+04-4.11711E+05 1.71622E-09-1.08462E-08
 -1       493-1.06703E+06-3.29055E+05 2.28838E+04-6.56259E+05-4.70325E-09 4.23722E-09
 -1       494-1.48884E+06-1.02475E+05-1.51050E+04-4.11871E+05 3.08319E-09 9.68362E-09
 -1       495-9.36134E+05-2.07486E+05 6.99154E+04-4.78194E+05-9.62245E-10-3.96064E-08
 -1       496-1.60844E+06-2.34288E+05-6.83662E+04-5.81181E+05-6.15728E-10-1.60662E-08
 -1       497-1.11524E+06-4.22854E+04 5.69727E+04-2.75650E+05 1.38371E-08-1.50740E-08
 -1       498-1.31034E+06-2.67111E+05-3.86314E+04-6.14166E+05 2.03678E-09-3.11666E-08
 -1       499-1.43078E+06-2.93286E+04-4.76308E+04-2.45354E+05-5.02769E-09-3.57695E-08
 -1       500-1.30335E+06-2.37565E+05-1.27588E+05-6.20444E+05-3.11666E-08 2.65209E-08
 -1       501-7.04973E+05-2.59178E+04 6.01831E+04-2.44062E+03 2.31748E-09-4.08909E-09
 -1       502-6.77991E+05 3.00222E+04 4.26734E+04 2.38306E+03 1.16904E-09 2.17779E-09
 -1       503-6.95082E+05-4.06306E+03 1.54987E+04-5.27032E+00-1.01664E-10-3.25144E-09
 -1       504-6.89714E+05 4.69719E+03 9.88449E+03-2.51685E+03-5.59169E-10-6.95775E-09
 -1       505-6.93272E+05-6.40690E+02 3.91721E+03 2.45936E+03 1.28193E-09 2.53408E-09
 -1       506-6.92050E+05 7.42350E+02 2.33728E+03-6.33512E+03 3.99805E-09 2.25845E-09
 -1       507-6.92773E+05-9.70488E+01 9.92464E+02 3.81308E+03 2.30992E-09 3.64446E-09
 -1       508-6.92538E+05 1.24572E+02 5.47073E+02-7.31942E+03 1.80071E-09 9.45043E-10
 -1       509-6.92794E+05-1.66843E+01 2.07660E+02 3.44370E+03 3.12643E-09 5.55104E-10
 -1       510-6.92266E+05 1.57975E+01 1.46267E+02-5.02331E+03 1.56911E-09-1.38067E-09
 -1       511-6.93027E+05-3.43387E+00-1.16330E+02 1.51688E+03 6.11806E-10 3.60323E-09
 -1       512-6.92034E+05-1.06360E+02-1.07998E+02-4.77892E+02-2.66738E-11-7.76282E-10
 -1       513-6.93010E+05 9.20781E+01-4.98822E+02-1.10177E+03 1.15193E-10 5.99584E-10
 -1       514-6.92583E+05-8.18889E+02-1.10088E+03 4.27478E+03-8.24429E-10-1.31735E-10
 -1       515-6.92491E+05 7.17498E+02-1.72677E+03-3.23583E+03-2.04022E-09-3.71074E-10
 -1       516-6.52216E+04 3.03063E+05 1.53312E+05-1.05084E+04-6.33008E-10-3.37928E-09
 -1       517 7.83189E+04 3.72783E+05 1.14056E+05 4.25675E+04-1.04956E-09 2.94108E-10
 -1       518-1.30288E+04 3.25500E+05 5.04091E+04-1.12693E+04-4.32919E-10 5.65387E-09
 -1       519 3.57447E+04 3.66048E+05 6.00132E+04 4.87304E+04-2.27828E-09-2.80335E-09
 -1       520-2.32026E+04 3.10471E+05 5.26554E+04-1.66788E+04-1.20599E-09-9.27480E-09
 -1       521-3.87932E+06-4.96524E+05-2.71235E+05-1.49912E+06 4.00178E-10-2.31375E-09
 -1       522-3.96518E+06-6.83094E+05-1.71184E+05-1.50976E+06 6.61657E-10 2.60479E-09
 -1       523-3.92811E+06-5.56447E+05-6.39493E+04-1.49000E+06-3.06557E-10-8.73115E-11
 -1       524-3.90815E+06-6.05891E+05-3.51181E+04-1.52563E+06-9.27685E-10-2.55022E-09
 -1       525-3.93484E+06-5.61662E+05-1.48649E+04-1.48791E+06 3.44244E-10 1.48975E-09
 -1       526-3.90021E+06-5.99359E+05-7.88139E+03-1.52903E+06 3.86899E-09 6.60282E-09
 -1       527-3.93614E+06-5.61714E+05-4.06411E+03-1.48718E+06 3.38082E-09 6.37954E-10
 -1       528-3.89911E+06-5.99039E+05-3.25093E+03-1.52970E+06 4.38936E-09-1.98145E-09
 -1       529-3.93601E+06-5.61856E+05-3.96969E+03-1.48732E+06 4.18436E-09 2.35741E-09
 -1       530-3.90062E+06-5.98832E+05-7.60643E+03-1.52841E+06-9.52696E-10 5.12955E-10
 -1       531-3.93448E+06-5.62098E+05-1.43219E+04-1.48833E+06-7.33053E-10-1.47884E-09
 -1       532-3.90875E+06-6.04577E+05-3.37793E+04-1.52447E+06 2.11458E-10-4.69299E-10
 -1       533-3.92771E+06-5.57377E+05-6.15260E+04-1.49064E+06-2.10753E-09-2.40470E-09
 -1       534-3.96414E+06-6.78263E+05-1.64636E+05-1.50855E+06 1.95269E-09-1.49703E-09
 -1       535-3.88050E+06-5.00040E+05-2.60897E+05-1.49974E+06 4.40195E-10 7.56700E-10
 -1       536 6.55269E+04-1.60476E+04 6.87394E+04-9.65396E+03 4.31100E-10-2.69938E-09
 -1       537 9.07634E+04 2.14126E+04 4.40758E+04-3.77622E+04-3.84534E-09 2.46655E-09
 -1       538 7.58515E+04-1.74068E+03 1.77780E+04-9.55506E+03 1.96451E-10-6.33008E-10
 -1       539 7.89622E+04 2.03067E+03 9.94532E+03-3.78373E+04 1.29330E-09-1.62959E-09
 -1       540 7.69871E+04-2.28985E+02 4.47404E+03-9.57001E+03-1.30058E-10 2.51907E-09
 -1       541 7.74579E+04 1.81822E+02 2.36810E+03-3.78033E+04 1.63709E-10 2.41312E-09
 -1       542 7.71128E+04-3.49521E+01 1.10555E+03-9.58950E+03-7.80346E-10 2.33683E-09
 -1       543 7.71705E+04 3.85924E+01 5.57419E+02-3.77735E+04 2.40107E-10-1.48850E-09
 -1       544 7.71233E+04 4.77214E+00 2.33561E+02-9.59993E+03-2.54931E-09-3.94721E-10
 -1       545 7.70911E+04 3.08444E+01 4.59572E+01-3.77616E+04-5.48363E-09 2.30602E-09
 -1       546 7.71322E+04 1.64524E+01-1.16865E+02-9.60146E+03-2.71962E-09 3.13014E-09
 -1       547 7.70529E+04-5.95833E+01-3.76887E+02-3.77625E+04 2.13277E-10 3.52100E-09
 -1       548 7.71927E+04 6.17264E+01-7.32169E+02-9.59900E+03-1.45610E-09-1.43359E-10
 -1       549 7.66610E+04-9.02991E+02-1.82549E+03-3.77062E+04 2.95131E-10-3.93811E-09
 -1       550 7.76466E+04 6.17681E+02-2.89115E+03-9.65767E+03-2.09184E-10-5.71617E-10
 -1       551 1.84507E+04-3.71399E+05 3.64675E+04-5.62228E+05 4.34375E-09 2.16096E-09
 -1       552 1.03511E+04-3.65992E+05 2.87420E+04-6.57937E+05 4.32556E-09-4.14730E-10
 -1       553 7.13485E+03-3.71350E+05 3.32960E+04-5.61281E+05 4.24916E-09 8.91305E-10
 -1       554 2.32147E+04-3.59006E+05 6.24319E+04-6.58090E+05 4.11819E-09 1.20781E-09
 -1       555 5.98767E+04-3.79460E+05 1.18262E+05-5.61920E+05 4.46744E-09-8.29459E-10
 -1       556-2.78993E+05-1.45701E+05 2.31522E+04-2.60354E+05 1.37879E-09-2.74304E-09
 -1       557-2.57334E+05-1.69220E+05 1.14120E+04-2.77352E+05-2.08456E-09-3.44562E-09
 -1       558-2.79822E+05-1.53266E+05 4.76181E+03-2.55931E+05-2.12458E-09 1.53250E-09
 -1       559-2.59844E+05-1.72913E+05 2.35202E+03-2.78421E+05 4.94765E-10 2.99133E-09
 -1       560-2.80374E+05-1.53175E+05 1.02586E+03-2.56063E+05 1.38243E-10-2.10002E-09
 -1       561-2.60566E+05-1.72860E+05 4.91822E+02-2.78938E+05 2.00089E-11-3.08353E-09
 -1       562-2.80785E+05-1.52913E+05 1.61472E+02-2.56333E+05 2.40107E-10-3.55658E-09
 -1       563-2.60965E+05-1.72689E+05-2.48165E+01-2.79221E+05 5.04770E-10-2.38697E-09
 -1       564-2.81011E+05-1.52759E+05-2.56029E+02-2.56490E+05-3.82715E-09-1.18898E-08
 -1       565-2.61170E+05-1.72608E+05-6.40406E+02-2.79350E+05 3.67982E-09 6.96855E-09
 -1       566-2.81028E+05-1.52705E+05-1.37354E+03-2.56525E+05 1.38925E-09 8.18545E-10
 -1       567-2.61394E+05-1.72763E+05-3.04039E+03-2.79308E+05-8.11042E-10 3.56977E-09
 -1       568-2.80724E+05-1.53220E+05-6.26390E+03-2.56237E+05-3.54703E-10 3.35604E-09
 -1       569-2.64654E+05-1.76647E+05-1.47729E+04-2.78233E+05 9.60426E-10 1.56433E-09
 -1       570-2.79272E+05-1.64845E+05-3.01821E+04-2.51245E+05-1.56433E-10-2.59206E-09
 -1       571 3.55446E+05 1.73062E+04 2.66021E+04-9.26365E+04 4.08363E-10-5.48425E-10
 -1       572 3.59498E+05 5.88666E+03 1.30696E+04-1.02124E+05-1.04137E-09-3.22871E-10
 -1       573 3.57049E+05 1.30309E+03 5.81495E+03-9.23782E+04-1.68347E-09 1.37425E-09
 -1       574 3.57513E+05 4.01780E+02 2.92132E+03-1.02401E+05-7.82165E-10 9.21318E-10
 -1       575 3.57202E+05 3.05760E+01 1.38255E+03-9.23464E+04 2.53749E-10 2.39561E-09
 -1       576 3.57243E+05-6.56317E-01 7.07670E+02-1.02437E+05 8.38099E-10-1.18143E-09
 -1       577 3.57225E+05-2.44385E+01 3.54246E+02-9.23423E+04 7.01220E-10-4.01451E-09
 -1       578 3.57226E+05-2.20812E+01 2.03313E+02-1.02441E+05 5.38421E-10-1.12777E-09
 -1       579 3.57270E+05-3.88224E+01 1.41627E+02-9.23418E+04-2.49202E-10-6.82121E-11
 -1       580 3.57297E+05-5.27973E+01 1.61439E+02-1.02437E+05-3.52884E-10-8.24912E-10
 -1       581 3.57354E+05-7.62917E+01 2.49232E+02-9.23463E+04-1.24237E-09-1.27420E-09
 -1       582 3.57459E+05-4.75162E+01 4.97907E+02-1.02384E+05-1.57161E-09 1.88993E-09
 -1       583 3.57454E+05 6.35577E+01 9.65948E+02-9.23952E+04-1.29148E-09 6.86214E-10
 -1       584 3.57948E+05 7.87417E+02 2.17115E+03-1.01957E+05-2.21098E-09 3.79782E-09
 -1       585 3.57333E+05 2.65490E+03 4.40095E+03-9.27770E+04 1.58434E-09-7.16682E-10
 -1       586 3.18704E+03 1.48865E+05 5.49692E+03-2.32506E+05 5.71163E-10-1.70257E-09
 -1       587 1.84474E+03 1.49711E+05 5.19264E+03-2.57026E+05 8.45830E-10-3.97858E-09
 -1       588 2.08818E+03 1.48724E+05 7.30837E+03-2.32210E+05 5.74801E-10-1.42222E-09
 -1       589 7.09634E+03 1.51460E+05 1.49259E+04-2.57098E+05 7.65795E-10-3.80101E-09
 -1       590 1.96443E+04 1.46965E+05 2.96900E+04-2.32423E+05 5.73891E-10-1.79170E-10
 -1       591-1.65093E+05-5.70646E+04-3.13386E+04-8.55881E+04 2.73621E-09-1.12341E-08
 -1       592-1.66017E+05-5.32007E+04-1.53620E+04-9.49477E+04 1.05410E-08-8.35826E-10
 -1       593-1.66006E+05-4.54022E+04-6.51757E+03-9.09163E+04 1.23555E-09-8.92510E-09
 -1       594-1.62681E+05-4.89549E+04-3.18782E+03-9.55316E+04-5.34783E-10 4.61277E-10
 -1       595-1.66162E+05-4.49648E+04-1.46798E+03-9.11597E+04 7.72525E-09-3.83909E-09
 -1       596-1.62432E+05-4.87845E+04-7.45560E+02-9.55145E+04 1.22614E-08-1.57452E-08
 -1       597-1.66193E+05-4.49851E+04-4.08378E+02-9.11625E+04 1.08843E-08 4.09614E-09
 -1       598-1.62406E+05-4.87867E+04-3.31363E+02-9.55035E+04 9.86233E-10 9.39053E-10
 -1       599-1.66188E+05-4.49867E+04-4.26720E+02-9.11601E+04 5.72982E-11-8.30732E-09
 -1       600-1.62426E+05-4.87881E+04-7.94007E+02-9.55085E+04 3.88900E-09 4.91127E-11
 -1       601-1.66145E+05-4.49689E+04-1.57057E+03-9.11519E+04-1.27284E-09-9.27139E-09
 -1       602-1.62688E+05-4.89713E+04-3.41495E+03-9.55169E+04-5.12728E-10-3.05408E-09
 -1       603-1.65968E+05-4.54456E+04-6.98336E+03-9.08897E+04 1.22782E-10-1.26420E-09
 -1       604-1.66281E+05-5.34941E+04-1.64584E+04-9.48528E+04-3.15777E-09-9.94169E-09
 -1       605-1.64956E+05-5.79616E+04-3.35745E+04-8.52028E+04-1.69939E-09-7.48696E-09
 -1       606 1.14335E+05-1.41766E+04-2.17287E+04 3.31833E+04-5.97083E-09-1.84627E-10
 -1       607 1.10952E+05-4.82144E+03-1.06701E+04 3.62279E+04-1.98634E-09-3.10001E-09
 -1       608 1.12917E+05-1.06319E+03-4.74845E+03 3.29560E+04 3.19960E-09 1.23032E-09
 -1       609 1.12461E+05-2.89661E+02-2.37983E+03 3.64723E+04-4.81123E-09 1.12755E-09
 -1       610 1.12714E+05 2.08265E+01-1.12390E+03 3.29270E+04-8.24730E-09-5.44787E-10
 -1       611 1.12619E+05 7.26115E+01-5.65719E+02 3.65029E+04-1.33250E-08-6.06906E-09
 -1       612 1.12660E+05 8.53775E+01-2.69745E+02 3.29238E+04-5.89353E-09-1.63209E-09
 -1       613 1.12619E+05 9.62426E+01-1.25218E+02 3.65065E+04-7.72934E-09 1.68257E-10
 -1       614 1.12632E+05 8.85382E+01-3.95904E+01 3.29231E+04-1.48339E-09 2.13504E-10
 -1       615 1.12606E+05 1.03872E+02 2.65823E+01 3.65067E+04 2.28692E-09 1.06638E-10
 -1       616 1.12611E+05 9.94381E+01 1.03908E+02 3.29235E+04-9.74205E-09 2.62435E-09
 -1       617 1.12612E+05 1.47432E+02 2.48429E+02 3.65054E+04-4.42287E-09 1.05501E-09
 -1       618 1.12582E+05 2.19669E+02 5.08010E+02 3.29241E+04-1.78625E-09 1.22554E-09
 -1       619 1.12770E+05 6.38806E+02 1.14958E+03 3.65004E+04 1.77624E-09-2.64663E-10
 -1       620 1.12427E+05 1.63648E+03 2.34374E+03 3.29252E+04 3.26531E-09-1.32650E-09
 -1       621 2.79126E+03 3.70321E+05 6.77106E+03-3.18974E+04 3.35831E-09 3.86535E-11
 -1       622 1.08416E+03 3.71600E+05 5.58062E+03-3.74735E+04 1.06775E-09-1.16665E-09
 -1       623 6.44383E+02 3.70612E+05 6.84124E+03-3.19421E+04 3.03089E-09 1.66619E-09
 -1       624 3.91308E+03 3.73289E+05 1.31466E+04-3.72923E+04 1.53250E-09-4.38649E-09
 -1       625 1.19837E+04 3.68692E+05 2.51232E+04-3.20742E+04 2.81398E-09 1.84627E-09
 -1       626 1.63255E+05 5.31655E+04-9.51558E+03 1.10543E+05-1.00044E-10 8.30914E-09
 -1       627 1.58797E+05 5.99326E+04-4.51334E+03 1.12596E+05-2.00089E-09 2.49361E-09
 -1       628 1.63444E+05 5.78425E+04-1.89731E+03 1.08253E+05-7.16682E-10 3.81033E-09
 -1       629 1.59486E+05 6.18658E+04-9.10014E+02 1.12415E+05-3.29419E-09-2.01473E-09
 -1       630 1.63409E+05 5.81707E+04-4.02036E+02 1.08058E+05-2.08820E-09-2.60371E-09
 -1       631 1.59520E+05 6.20135E+04-1.79672E+02 1.12404E+05-6.57747E-09-3.18084E-09
 -1       632 1.63377E+05 5.81875E+04-5.05638E+01 1.08034E+05-1.83500E-08-1.27275E-08
 -1       633 1.59512E+05 6.20246E+04 4.41870E+01 1.12398E+05-1.50694E-08 1.96759E-08
 -1       634 1.63356E+05 5.81823E+04 1.61106E+02 1.08027E+05-4.90036E-09-1.55774E-09
 -1       635 1.59526E+05 6.20308E+04 3.84294E+02 1.12399E+05-2.06410E-09-9.21318E-10
 -1       636 1.63337E+05 5.81998E+04 8.05432E+02 1.08013E+05 1.31649E-10 1.87838E-08
 -1       637 1.59719E+05 6.22465E+04 1.80244E+03 1.12367E+05-9.78667E-09 1.64255E-09
 -1       638 1.63297E+05 5.88513E+04 3.73622E+03 1.07729E+05-4.67935E-09-5.40285E-09
 -1       639 1.61628E+05 6.55617E+04 8.89080E+03 1.11560E+05-1.02561E-08-4.43833E-10
 -1       640 1.63390E+05 6.84410E+04 1.87381E+04 1.03738E+05-6.65659E-09 3.40060E-09
 -1       641 4.75129E+03 3.32709E+03-7.74575E+03-1.89467E+02-1.07588E-08-2.13322E-09
 -1       642 1.43304E+03-3.85113E+03-5.46326E+03 8.23591E+02 3.86343E-09-2.87656E-09
 -1       643 3.46571E+03 5.18182E+02-1.99776E+03-1.85324E+02-1.66136E-08 1.68336E-09
 -1       644 2.92609E+03-5.96295E+02-1.23718E+03 8.17653E+02 4.55665E-09-2.65571E-09
 -1       645 3.25737E+03 7.87541E+01-4.78308E+02-1.83542E+02-7.02318E-09-3.15254E-10
 -1       646 3.17174E+03-8.10024E+01-2.25734E+02 8.15036E+02-3.36401E-07 9.98170E-10
 -1       647 3.21961E+03 4.06345E+00 1.68932E+00-1.82711E+02-4.43522E-05 9.96723E-08
 -1       648 3.24061E+03 4.71145E+01 2.15682E+02 8.14183E+02-8.81346E-05 2.05318E-07
 -1       649 3.18835E+03-4.90946E+01 4.87936E+02-1.82689E+02-4.43502E-05 1.02873E-07
 -1       650 3.42013E+03 3.78081E+02 1.17891E+03 8.14631E+02-3.10862E-07 1.02348E-09
 -1       651 3.04025E+03-3.26534E+02 2.05449E+03-1.83159E+02-5.12268E-09-1.23691E-09
 -1       652 4.43348E+03 2.43266E+03 5.07616E+03 8.15123E+02 5.83153E-09 4.22915E-09
 -1       653 2.17552E+03-2.10049E+03 8.09894E+03-1.83188E+02-7.77431E-09 1.32286E-09
 -1       654 1.05365E+04 1.55923E+04 2.21267E+04 8.09838E+02 2.22895E-09 1.52249E-09
 -1       655-3.06063E+03-1.34623E+04 3.13073E+04-1.77907E+02-2.92029E-09-1.17143E-09
 -1       656 1.11282E+04-4.25516E+05-5.01799E+04 1.20394E+04 1.20344E-08-2.21735E-09
 -1       657-1.65260E+04-4.43761E+05-3.65578E+04 4.55055E+04 9.51286E-09-1.08821E-09
 -1       658 2.12807E+03-4.32036E+05-2.32464E+04 1.19263E+04 1.01216E-08 1.63971E-09
 -1       659-1.50895E+04-4.42956E+05-3.40358E+04 4.55835E+04 8.35098E-09 9.34172E-10
 -1       660 1.00057E+04-4.26375E+05-4.53984E+04 1.19628E+04 9.18953E-09 4.23825E-10
 -1       661 4.16016E+05 5.33677E+04 3.41147E+04 1.62938E+05 5.46197E-09-4.11274E-09
 -1       662 4.23960E+05 7.97171E+04 2.15326E+04 1.67646E+05 5.02590E-09-2.92857E-09
 -1       663 4.21876E+05 6.11704E+04 8.05631E+03 1.62120E+05 4.03054E-09 2.30693E-09
 -1       664 4.17225E+05 6.95798E+04 4.43795E+03 1.69056E+05-1.43054E-08-4.59715E-09
 -1       665 4.22525E+05 6.20320E+04 1.88957E+03 1.62076E+05-1.15433E-08-1.83002E-09
 -1       666 4.16478E+05 6.84887E+04 1.02727E+03 1.69133E+05-5.27987E-09 3.80885E-09
 -1       667 4.22594E+05 6.21362E+04 5.74188E+02 1.62086E+05 6.15813E-09 1.51647E-09
 -1       668 4.16412E+05 6.83843E+04 5.40718E+02 1.69125E+05-1.07676E-08-6.34390E-09
 -1       669 4.22587E+05 6.21295E+04 7.58855E+02 1.62085E+05 2.08971E-09-3.60524E-09
 -1       670 4.16541E+05 6.85603E+04 1.53904E+03 1.69133E+05 2.17290E-08 1.57684E-09
 -1       671 4.22471E+05 6.19713E+04 2.92495E+03 1.62076E+05 5.64148E-09-5.53132E-09
 -1       672 4.17727E+05 7.02532E+04 6.92846E+03 1.68992E+05-3.19505E-09-1.13630E-09
 -1       673 4.21440E+05 6.06355E+04 1.25981E+04 1.62156E+05 3.98246E-09-1.87447E-09
 -1       674 4.28282E+05 8.60955E+04 3.36869E+04 1.66759E+05-7.30466E-09-2.19370E-09
 -1       675 4.12260E+05 4.84400E+04 5.33791E+04 1.63445E+05-6.68661E-09 2.85218E-09
 -1       676 1.12030E+03-4.00330E+05-5.83264E+03 5.19456E+02 1.29560E-08-1.19522E-09
 -1       677-2.20821E+03-4.02558E+05-6.31329E+03 2.20122E+02-7.38140E-10-4.64395E-09
 -1       678 6.92719E+02-4.00597E+05-7.48170E+03 5.18391E+02 6.79506E-09-1.90908E-09
 -1       679-7.89961E+03-4.05940E+05-1.64079E+04 2.19449E+02 3.03339E-09-5.00762E-09
 -1       680 5.70601E+03-3.96950E+05-2.49256E+04 5.18443E+02 1.71804E-08-4.83622E-09
 -1       681 6.13151E+05-1.64099E+04 3.77055E+04 3.66854E+03-2.37264E-10 1.41881E-10
 -1       682 6.31685E+05 1.89764E+04 2.70486E+04-1.29620E+04-2.16673E-10 1.00772E-09
 -1       683 6.20266E+05-2.53830E+03 9.79531E+03 7.42151E+02 3.32250E-11 3.03726E-09
 -1       684 6.23306E+05 2.95847E+03 6.22799E+03-8.81346E+03-2.45933E-10 1.86810E-09
 -1       685 6.21485E+05-3.87942E+02 2.57483E+03-4.79968E+02 2.35566E-10 2.62196E-09
 -1       686 6.21901E+05 4.89883E+02 1.60973E+03-7.47670E+03 6.32573E-10 1.09813E-09
 -1       687 6.21663E+05-6.66538E+01 9.38478E+02-5.94605E+02-1.05317E-09 2.13228E-09
 -1       688 6.21874E+05 1.95002E+02 1.03325E+03-8.30086E+03-3.24718E-10 2.16670E-09
 -1       689 6.21519E+05-9.78080E+01 1.36076E+03 3.44181E+02-2.41127E-09 1.52255E-09
 -1       690 6.22899E+05 7.88523E+02 3.01045E+03-1.16708E+04-5.85018E-10 2.89083E-09
 -1       691 6.20674E+05-6.84053E+02 4.77062E+03 2.77533E+03 1.91727E-09-6.38465E-10
 -1       692 6.27995E+05 5.41152E+03 1.25474E+04-1.91664E+04 1.78352E-09 1.30717E-09
 -1       693 6.16566E+05-4.80947E+03 1.85082E+04 7.84036E+03-1.76215E-09-2.74031E-09
 -1       694 6.53550E+05 3.69913E+04 5.48476E+04-3.44961E+04-8.03885E-09-2.29284E-09
 -1       695 5.95672E+05-3.25723E+04 7.10863E+04 1.81115E+04-7.23617E-09-7.66158E-09
 -1       696-1.24163E+04 5.17859E+05 2.83140E+04 2.37491E+02 1.12777E-10-1.24287E-09
 -1       697 1.31843E+04 5.29779E+05 1.78163E+04-4.85992E+03 8.36735E-11-3.25009E-10
 -1       698-7.32310E+02 5.23310E+05 2.79505E+03-1.84573E+02-2.46473E-10 1.69890E-09
 -1       699-6.86302E+03 5.20463E+05-8.39544E+03-4.56831E+03-2.61025E-10 3.55514E-09
 -1       700 7.59532E+03 5.27182E+05-1.68201E+04-5.41829E+01-2.27374E-10 8.71211E-10
 -1       701-5.56630E+05-5.66272E+04-7.22615E+04-2.27745E+05-1.18416E-09-5.49699E-09
 -1       702-6.01234E+05-9.93894E+04-4.76637E+04-1.89739E+05-1.58616E-09-2.38606E-09
 -1       703-5.61258E+05-8.58464E+04-1.68200E+04-2.27207E+05 4.63842E-10 2.65391E-09
 -1       704-5.95194E+05-6.57974E+04-1.01396E+04-1.90950E+05-3.56204E-09-5.06577E-09
 -1       705-5.62880E+05-9.00043E+04-3.98691E+03-2.26723E+05 2.75344E-09 4.15571E-09
 -1       706-5.84027E+05-6.48031E+04-1.15257E+03-1.95010E+05 3.07000E-09-7.71814E-09
 -1       707-5.72240E+05-8.69781E+04-2.22707E+03-2.23004E+05-4.36216E-09-1.11322E-09
 -1       708-5.65379E+05-7.49186E+04 1.65438E+03-2.06165E+05 9.86347E-10-4.55657E-10
 -1       709-5.81244E+05-8.01067E+04-2.65679E+03-2.15349E+05 2.66459E-09-1.97460E-09
 -1       710-5.54356E+05-8.95258E+04-2.37858E+02-2.22511E+05-1.08372E-09 1.78225E-09
 -1       711-5.83355E+05-7.22951E+04-4.60524E+03-2.06736E+05-1.69280E-09 1.09791E-08
 -1       712-5.55393E+05-1.04236E+05-1.00483E+04-2.34584E+05 1.83627E-09 1.35384E-08
 -1       713-5.80528E+05-6.51582E+04-1.68988E+04-2.03515E+05-1.41517E-09-9.54515E-09
 -1       714-5.72368E+05-1.33916E+05-4.95118E+04-2.29006E+05-5.56497E-09-1.27052E-08
 -1       715-5.66397E+05-4.26646E+04-7.30200E+04-2.12301E+05 3.78077E-09 1.05138E-09
 -1       716 2.91733E+05-2.07536E+04 4.38363E+04 1.14348E+04 1.13694E-08-4.01815E-09
 -1       717 3.36662E+05 2.34141E+04 3.54646E+04-2.68686E+04 3.71659E-09-6.87760E-09
 -1       718 3.06175E+05-3.07927E+03 1.12369E+04 6.17371E+03 7.91829E-10 1.75532E-10
 -1       719 3.18007E+05 3.39434E+03 8.45867E+03-1.85529E+04 1.70161E-09 5.41149E-10
 -1       720 3.09893E+05-4.31342E+02 2.97780E+03 3.11221E+03 1.22787E-09 2.53726E-09
 -1       721 3.13013E+05 5.26634E+02 2.36274E+03-1.38290E+04 5.16110E-09 3.73007E-10
 -1       722 3.10978E+05-8.51708E+01 1.38368E+03 1.44919E+03 6.36905E-09 1.86594E-09
 -1       723 3.11686E+05 3.93743E+02 1.91700E+03-1.15261E+04 3.17300E-10 2.85729E-09
 -1       724 3.11152E+05-2.51820E+02 2.85053E+03 8.09468E+02 6.27550E-09 2.30034E-09
 -1       725 3.12329E+05 1.96874E+03 6.20495E+03-1.11251E+04 5.38623E-09 4.06794E-09
 -1       726 3.10324E+05-1.65081E+03 1.05557E+04 1.04831E+03 4.85562E-09 3.04090E-09
 -1       727 3.18142E+05 1.24211E+04 2.60612E+04-1.25426E+04 7.20706E-09 4.28236E-09
 -1       728 3.05375E+05-1.07123E+04 4.12037E+04 2.22684E+03 2.27089E-09 1.43700E-09
 -1       729 3.51547E+05 7.96924E+04 1.13443E+05-1.62905E+04 1.41404E-09 8.84029E-10
 -1       730 2.77061E+05-6.88728E+04 1.59228E+05 4.79579E+03 2.83751E-09-1.17871E-09
 -1       731-1.83061E+04 2.02738E+05 3.50431E+04-1.30809E+04-5.08953E-09-4.31010E-09
 -1       732 2.03831E+04 2.58704E+05 3.19653E+04 4.03324E+04 2.61753E-09 1.95087E-10
 -1       733-2.68050E+03 2.21023E+05 9.26324E+03-8.39443E+03-8.83119E-10-5.19663E-10
 -1       734 3.60500E+03 2.34393E+05 8.02254E+03 3.34100E+04 5.48425E-10-5.40172E-09
 -1       735-9.44400E+02 2.26160E+05 3.36997E+03-6.14985E+03 9.59403E-10-3.94522E-09
 -1       736-9.98640E+05-1.45158E+05-8.29197E+04-4.37736E+05 1.07320E-08-3.43061E-09
 -1       737-1.11529E+06-1.22583E+05-5.25855E+04-3.09867E+05 1.07639E-08-5.99084E-09
 -1       738-1.04992E+06-1.67870E+05-2.47319E+04-4.27416E+05 6.00090E-09 7.91169E-09
 -1       739-1.01058E+06-1.23935E+05 2.29454E+03-3.49142E+05 2.77623E-09 8.39464E-10
 -1       740-1.10127E+06-1.45487E+05-1.40201E+04-3.96821E+05 8.52287E-09 1.05324E-08
 -1       741-9.70153E+05-1.77210E+05 7.59589E+03-4.20681E+05 1.39935E-08 2.80339E-08
 -1       742-1.09116E+06-1.13898E+05-2.41529E+03-3.56575E+05 6.27313E-09-1.51956E-08
 -1       743-9.79569E+05-2.04832E+05 1.86290E+03-4.58758E+05 2.44744E-09 1.86109E-08
 -1       744-1.09340E+06-1.16549E+05-3.27496E+03-3.59934E+05-5.45840E-08-1.69700E-08
 -1       745-9.70160E+05-1.70465E+05 9.12526E+03-4.12114E+05-3.13057E-08-6.12857E-09
 -1       746-1.09875E+06-1.49812E+05-1.38716E+04-4.01812E+05-3.81397E-09-2.99769E-09
 -1       747-1.02072E+06-1.17260E+05 2.69727E+03-3.42927E+05 4.14190E-09-3.60706E-09
 -1       748-1.04247E+06-1.70071E+05-2.14774E+04-4.28772E+05 3.76269E-09 1.74687E-08
 -1       749-1.11837E+06-1.16707E+05-4.72659E+04-3.09605E+05-1.31877E-09 2.48374E-08
 -1       750-1.00316E+06-1.48690E+05-7.45584E+04-4.36778E+05 2.25555E-09 1.79061E-08
 -1       751 3.18708E+06-1.80790E+05 4.21650E+05 1.26804E+04-2.25191E-08 1.89175E-09
 -1       752 3.37042E+06 2.09412E+05 2.97821E+05-1.49155E+04-4.21994E-09-2.09548E-09
 -1       753 3.25808E+06-2.81834E+04 1.09285E+05 2.31724E+03 5.45910E-11-1.52795E-09
 -1       754 3.28804E+06 3.26285E+04 6.85922E+04-2.68370E+03-1.12520E-09 1.79080E-09
 -1       755 3.26971E+06-4.38750E+03 2.81631E+04 4.51112E+02-1.16074E-09 1.36788E-09
 -1       756 3.27462E+06 5.14303E+03 1.68089E+04-4.75339E+02 1.04682E-09 1.94723E-09
 -1       757 3.27162E+06-7.48310E+02 8.29290E+03 1.08907E+02 1.81988E-09 1.63391E-09
 -1       758 3.27263E+06 1.33406E+03 6.63728E+03-8.03961E+01-1.34924E-09-3.67947E-10
 -1       759 3.27172E+06-5.84478E+02 6.78027E+03 5.61636E+01-4.61685E-10 8.02629E-11
 -1       760 3.27385E+06 3.72787E+03 1.24467E+04-7.50954E+01-2.68070E-09 2.02522E-09
 -1       761 3.27038E+06-3.13825E+03 2.02930E+04 1.03606E+02-8.34693E-10 8.63110E-10
 -1       762 3.28337E+06 2.32867E+04 4.90124E+04-4.41241E+02 5.31104E-09 1.21145E-09
 -1       763 3.26211E+06-2.01078E+04 7.79506E+04 4.22306E+02 6.74767E-09 1.22600E-09
 -1       764 3.34161E+06 1.49282E+05 2.12231E+05-2.52767E+03 1.87793E-09 9.13133E-10
 -1       765 3.21190E+06-1.28867E+05 3.00535E+05 2.18972E+03-1.11083E-09-2.86673E-09
 -1       766-7.36942E+04 3.80085E+05 1.71312E+05-1.83007E+04 2.43017E-09 1.92460E-09
 -1       767 8.89530E+04 4.66074E+05 1.30107E+05 7.59790E+04 1.02045E-09 1.69007E-09
 -1       768-1.49764E+04 4.10305E+05 5.95406E+04-1.65889E+04 3.59250E-09-1.24624E-09
 -1       769 4.62451E+04 4.64661E+05 7.64883E+04 8.23485E+04 3.16618E-09 3.55521E-09
 -1       770-3.17297E+04 3.82452E+05 6.82170E+04-2.46763E+04-2.16569E-08 5.08635E-09
 -1       771-1.80091E+06-3.64220E+05-6.41468E+04-7.77855E+05-8.44011E-10-7.85803E-10
 -1       772-1.79684E+06-3.61887E+05-3.13945E+04-8.03425E+05-3.18687E-09 3.20142E-10
 -1       773-1.80357E+06-3.39824E+05-1.33713E+04-7.88514E+05-4.21278E-09-6.24459E-09
 -1       774-1.78998E+06-3.53595E+05-6.51423E+03-8.05594E+05 1.21327E-09-2.28010E-09
 -1       775-1.80435E+06-3.38622E+05-3.02969E+03-7.89167E+05-2.80488E-09-7.96899E-09
 -1       776-1.78977E+06-3.53195E+05-1.52147E+03-8.05985E+05 1.11322E-09-1.79693E-09
 -1       777-1.80477E+06-3.38451E+05-8.42348E+02-7.89335E+05-2.88128E-09-8.46967E-09
 -1       778-1.78997E+06-3.53120E+05-6.52279E+02-8.06251E+05-3.31056E-10-1.76436E-09
 -1       779-1.80502E+06-3.38303E+05-8.32369E+02-7.89451E+05-3.88536E-09 6.25278E-10
 -1       780-1.79018E+06-3.53070E+05-1.52110E+03-8.06452E+05-1.09903E-08-1.83695E-09
 -1       781-1.80509E+06-3.38175E+05-3.01117E+03-7.89510E+05-6.40011E-09-2.77669E-09
 -1       782-1.79078E+06-3.53397E+05-6.54959E+03-8.06569E+05-3.26963E-10-5.54792E-11
 -1       783-1.80481E+06-3.39055E+05-1.34050E+04-7.89033E+05-1.19940E-09-1.31149E-09
 -1       784-1.79766E+06-3.62132E+05-3.16281E+04-8.05346E+05 1.08059E-10 8.54925E-11
 -1       785-1.80288E+06-3.63100E+05-6.45424E+04-7.78068E+05 6.59384E-11 1.81899E-11
 -1       786 3.33346E+05-9.87193E+03 4.28512E+04-2.39068E+03 6.50516E-10 2.34832E-09
 -1       787 3.48785E+05 1.34340E+04 2.74371E+04-9.64810E+03-4.62251E-10 1.35924E-09
 -1       788 3.39805E+05-1.01669E+03 1.11043E+04-2.39245E+03-2.22371E-10 8.96307E-10
 -1       789 3.41585E+05 1.31965E+03 6.19807E+03-9.62939E+03 6.20730E-10-2.84490E-09
 -1       790 3.40535E+05-1.10394E+02 2.82166E+03-2.40817E+03 1.58138E-10-6.46878E-10
 -1       791 3.40755E+05 1.27321E+02 1.51471E+03-9.60651E+03 5.45981E-11 1.35392E-09
 -1       792 3.40629E+05-1.40488E+01 7.78799E+02-2.41532E+03 3.05377E-10-5.84862E-10
 -1       793 3.40652E+05 1.61149E+01 5.21568E+02-9.60161E+03 3.67294E-10 4.38646E-10
 -1       794 3.40637E+05-8.18900E+00 4.88260E+02-2.41308E+03-2.40618E-10-1.59417E-09
 -1       795 3.40686E+05 5.59874E+01 7.49674E+02-9.61595E+03 6.34827E-10 1.32004E-09
 -1       796 3.40598E+05-5.12160E+01 1.29817E+03-2.40098E+03-6.73936E-10 2.46715E-09
 -1       797 3.41061E+05 5.87289E+02 2.79431E+03-9.64729E+03-4.23825E-10 1.54296E-09
 -1       798 3.40273E+05-4.58778E+02 4.98157E+03-2.38174E+03-5.27507E-11 1.28966E-09
 -1       799 3.44293E+05 6.01147E+03 1.22953E+04-9.67024E+03-1.87413E-09 1.27693E-09
 -1       800 3.37380E+05-4.42864E+03 1.91932E+04-2.37869E+03 3.54703E-11-4.98403E-10
 -1       801-1.41988E+04 3.69185E+05 5.07149E+04-2.70587E+05 1.22236E-09 3.07773E-09
 -1       802 3.36905E+04 3.82860E+05 5.36633E+04-1.05556E+06-6.99583E-09-1.74805E-09
 -1       803-6.33891E+02 3.68894E+05 5.57231E+04-2.70058E+05 3.04863E-09 1.01334E-08
 -1       804 6.87299E+04 4.04569E+05 1.16312E+05-1.05547E+06-9.64064E-09 3.87445E-10
 -1       805-4.30349E+04 3.48485E+05 1.69096E+05-2.70688E+05 3.31784E-09 4.95493E-09
 -1       806-3.36807E+05-8.96415E+04-2.86903E+04-1.55094E+05 1.74055E-09-3.83807E-10
 -1       807-3.36962E+05-8.23765E+04-1.36116E+04-1.63846E+05 1.09139E-11-1.14164E-09
 -1       808-3.36656E+05-7.49915E+04-5.72296E+03-1.61281E+05-1.49612E-10-6.67796E-10
 -1       809-3.34134E+05-7.72253E+04-2.76555E+03-1.65036E+05-1.25942E-09 2.46939E-09
 -1       810-3.36730E+05-7.39873E+04-1.25059E+03-1.61733E+05-9.77707E-10 5.53337E-09
 -1       811-3.33858E+05-7.68829E+04-6.27202E+02-1.65085E+05 1.05342E-09 7.35099E-10
 -1       812-3.36754E+05-7.39572E+04-3.29157E+02-1.61755E+05-2.14641E-10-1.38698E-10
 -1       813-3.33828E+05-7.68738E+04-2.45178E+02-1.65078E+05 2.53067E-10 1.20508E-09
 -1       814-3.36750E+05-7.39621E+04-2.88427E+02-1.61751E+05-3.42425E-10-1.56706E-09
 -1       815-3.33843E+05-7.68864E+04-5.18976E+02-1.65075E+05 1.47588E-09 1.61981E-09
 -1       816-3.36719E+05-7.39933E+04-1.01784E+03-1.61728E+05-2.96768E-09-7.49560E-09
 -1       817-3.34062E+05-7.71618E+04-2.24279E+03-1.65018E+05-1.28694E-10-9.29049E-09
 -1       818-3.36644E+05-7.48197E+04-4.63754E+03-1.61362E+05 2.77760E-09-2.29193E-09
 -1       819-3.36395E+05-8.12823E+04-1.10262E+04-1.63982E+05-5.89807E-10-2.63844E-09
 -1       820-3.36704E+05-8.67333E+04-2.32397E+04-1.56398E+05 2.02817E-09 8.48581E-09
 -1       821-3.39591E+05 1.00937E+04-4.38480E+04 2.42405E+03-5.32236E-09 7.76708E-10
 -1       822-3.55363E+05-1.37487E+04-2.80753E+04 1.01800E+04-1.18769E-09 2.01908E-10
 -1       823-3.46205E+05 1.03503E+03-1.13675E+04 2.33906E+03 4.15253E-09-3.69755E-09
 -1       824-3.48022E+05-1.33598E+03-6.34670E+03 1.03017E+04-2.08672E-09-2.90515E-09
 -1       825-3.46955E+05 1.13866E+02-2.90322E+03 2.30104E+03-7.41647E-09-3.62763E-09
 -1       826-3.47194E+05-1.07048E+02-1.58004E+03 1.03643E+04-1.22145E-08-1.45454E-09
 -1       827-3.47052E+05 1.99696E+01-8.59578E+02 2.27611E+03-6.39875E-09 2.08939E-09
 -1       828-3.47106E+05 7.31810E+00-6.62558E+02 1.04034E+04-8.22774E-09-1.89971E-10
 -1       829-3.47057E+05 1.95382E+01-7.51821E+02 2.26189E+03-1.28392E-09-2.28711E-09
 -1       830-3.47182E+05-7.53085E+01-1.29834E+03 1.04200E+04 5.09354E-09-1.39039E-09
 -1       831-3.46982E+05 9.71890E+01-2.33954E+03 2.25951E+03-3.42345E-09 1.10708E-09
 -1       832-3.47854E+05-1.05500E+03-5.09206E+03 1.04129E+04-1.43734E-09-5.61386E-10
 -1       833-3.46383E+05 8.37591E+02-9.10619E+03 2.26926E+03 9.62928E-10 3.04635E-09
 -1       834-3.53743E+05-1.09942E+04-2.24902E+04 1.03667E+04-2.60138E-09-1.07184E-09
 -1       835-3.41087E+05 8.09583E+03-3.51188E+04 2.30803E+03 1.67415E-09-4.03998E-09
 -1       836-1.62005E+04 8.77085E+05 7.41935E+04-2.37517E+04-1.16779E-09-7.24867E-10
 -1       837 2.49811E+04 9.04286E+05 5.76824E+04-9.05178E+04 4.31100E-09 3.03544E-09
 -1       838-3.89137E+03 8.85821E+05 4.27381E+04-2.37810E+04-1.95496E-09 3.22677E-09
 -1       839 3.30803E+04 9.09081E+05 7.20491E+04-9.05009E+04 4.20914E-09-7.53744E-11
 -1       840-2.27074E+04 8.72268E+05 1.01392E+05-2.37675E+04-2.04091E-09 6.13909E-10
 -1       841-3.40056E+04 8.15925E+02-1.45885E+04-1.53707E+04-3.89991E-09 8.17636E-10
 -1       842-4.20010E+04-1.21905E+04-1.01106E+04-1.24565E+04-2.83262E-09-3.52429E-10
 -1       843-3.69554E+04-4.42976E+03-3.41881E+03-1.44072E+04 3.12616E-09 2.12776E-09
 -1       844-3.85889E+04-6.10315E+03-2.12479E+03-1.35559E+04 4.00701E-09 2.18495E-09
 -1       845-3.74168E+04-5.26229E+03-7.84358E+02-1.42750E+04 1.20778E-09 4.85639E-09
 -1       846-3.80600E+04-5.12895E+03-4.37110E+02-1.37002E+04-5.02382E-09-4.14371E-09
 -1       847-3.74843E+04-5.40246E+03-1.45314E+02-1.42636E+04-5.12680E-09-1.25257E-09
 -1       848-3.79737E+04-4.94641E+03-1.11770E+01-1.37125E+04-3.53913E-09 1.07125E-10
 -1       849-3.75033E+04-5.44450E+03 1.19771E+02-1.42629E+04 4.75848E-09 2.31220E-09
 -1       850-3.78817E+04-4.78879E+03 3.83627E+02-1.37339E+04 1.19633E-08 7.01112E-09
 -1       851-3.75764E+04-5.55985E+03 6.92537E+02-1.42423E+04-2.50452E-10-3.09751E-09
 -1       852-3.73738E+04-3.95272E+03 1.88534E+03-1.38924E+04-2.24315E-09-2.02351E-09
 -1       853-3.80109E+04-6.27946E+03 3.02826E+03-1.41047E+04 2.47837E-11 2.55648E-09
 -1       854-3.42867E+04 1.39679E+03 8.96845E+03-1.49196E+04 2.35013E-09 3.91356E-09
 -1       855-4.06617E+04-1.09014E+04 1.29304E+04-1.32179E+04-6.33690E-10 4.42105E-09
 -1       856-3.99460E+05 9.32616E+03-4.05746E+04 4.83939E+03-4.94265E-09 6.91216E-10
 -1       857-4.14038E+05-1.26726E+04-2.59677E+04 2.06408E+04-5.30963E-09-2.75986E-09
 -1       858-4.05585E+05 9.61361E+02-1.05189E+04 4.69296E+03-7.80483E-09-1.63345E-09
 -1       859-4.07292E+05-1.17409E+03-5.86575E+03 2.08507E+04 9.40418E-10-5.99493E-09
 -1       860-4.06286E+05 1.18695E+02-2.67946E+03 4.62675E+03 3.47336E-09-2.17847E-09
 -1       861-4.06552E+05-2.62588E+01-1.44572E+03 2.09505E+04-5.70708E-09-5.62977E-10
 -1       862-4.06379E+05 3.63673E+01-7.64893E+02 4.59259E+03 6.65580E-09-2.06728E-09
 -1       863-4.06476E+05 8.52104E+01-5.51156E+02 2.09924E+04 2.24591E-08-3.88735E-09
 -1       864-4.06386E+05 3.41746E+01-5.75781E+02 4.58470E+03 9.45428E-09-3.01466E-09
 -1       865-4.06519E+05 2.51431E+01-9.49601E+02 2.09809E+04 1.61173E-08-2.81094E-09
 -1       866-4.06330E+05 8.50469E+01-1.68897E+03 4.60411E+03 5.45197E-09 2.58126E-10
 -1       867-4.06975E+05-6.88269E+02-3.65683E+03 2.09136E+04 2.22644E-09-4.93225E-09
 -1       868-4.05894E+05 6.06666E+02-6.54128E+03 4.65244E+03 7.71388E-09-1.76192E-09
 -1       869-4.11155E+05-7.83606E+03-1.61359E+04 2.07435E+04-9.00786E-09-3.48336E-09
 -1       870-4.02086E+05 5.79895E+03-2.52127E+04 4.77640E+03 6.54700E-09-5.92991E-10
 -1       871-3.89526E+03-3.59688E+04-6.89543E+03 1.03182E+05 3.83170E-09-2.39197E-10
 -1       872-1.31654E+03-3.71957E+04-2.01049E+03 1.20641E+05 1.83354E-09 1.45974E-10
 -1       873-2.04781E+01-3.67684E+04 2.02922E+03 1.02988E+05 3.61524E-09 2.05091E-09
 -1       874 2.29900E+03-3.51264E+04 7.56644E+03 1.20731E+05 6.07133E-09 2.03548E-09
 -1       875 7.80125E+03-3.81372E+04 1.63389E+04 1.03110E+05 5.34237E-09 1.86446E-09
 -1       876 4.78213E+05 6.03537E+04 4.52804E+04 1.88444E+05 4.25234E-09-1.92449E-09
 -1       877 4.88365E+05 9.57612E+04 2.85835E+04 1.95190E+05-2.48360E-09 6.63931E-10
 -1       878 4.85975E+05 7.07316E+04 1.06893E+04 1.87374E+05-1.54284E-09-4.95584E-09
 -1       879 4.79443E+05 8.22745E+04 5.88708E+03 1.97016E+05-1.43938E-08-1.25829E-09
 -1       880 4.86819E+05 7.18951E+04 2.49663E+03 1.87333E+05-1.25585E-08-1.46201E-09
 -1       881 4.78472E+05 8.07980E+04 1.34161E+03 1.97077E+05-7.07320E-09-9.36637E-09
 -1       882 4.86896E+05 7.20499E+04 7.15955E+02 1.87361E+05 5.59646E-09-1.79540E-10
 -1       883 4.78394E+05 8.06317E+04 6.17103E+02 1.97035E+05-1.09437E-08 4.53042E-10
 -1       884 4.86882E+05 7.20576E+04 8.05231E+02 1.87370E+05-1.87367E-09 1.10873E-09
 -1       885 4.78531E+05 8.07965E+04 1.58721E+03 1.97028E+05 2.41931E-08 5.21754E-09
 -1       886 4.86762E+05 7.18984E+04 2.99588E+03 1.87363E+05 5.99630E-09 8.48104E-11
 -1       887 4.79742E+05 8.25281E+04 7.08330E+03 1.96888E+05 3.49792E-09-5.18776E-09
 -1       888 4.85714E+05 7.05273E+04 1.28744E+04 1.87440E+05 5.82995E-09-1.75078E-09
 -1       889 4.90522E+05 9.87267E+04 3.44228E+04 1.94626E+05 8.92896E-10 1.71349E-09
 -1       890 4.76342E+05 5.80552E+04 5.45410E+04 1.88749E+05-6.68024E-10 2.65936E-09
 -1       891 1.69060E+03-2.13260E+05-8.28633E+03 2.31760E+04 1.35710E-08-1.46929E-09
 -1       892-2.97813E+03-2.16147E+05-6.65009E+03 9.02016E+04 2.94131E-09-5.38876E-10
 -1       893 4.51145E+02-2.14209E+05-5.30295E+03 2.30638E+04 9.71318E-09 3.79714E-10
 -1       894-4.56012E+03-2.17070E+05-9.44729E+03 9.01919E+04-2.25486E-09-4.05237E-09
 -1       895 2.95299E+03-2.12318E+05-1.35815E+04 2.31851E+04 1.25810E-08-1.00044E-11
 -1       896 9.42037E+05-8.17999E+03 1.90356E+04 1.95476E+03-2.45606E-10-4.70936E-09
 -1       897 9.50249E+05 9.47374E+03 1.34653E+04-4.73083E+02-8.00981E-10-3.39014E-09
 -1       898 9.45236E+05-1.27448E+03 4.94492E+03 1.31993E+03-5.93335E-10-3.79737E-09
 -1       899 9.46531E+05 1.47875E+03 3.12576E+03 5.05522E+02 7.69525E-10-2.89583E-09
 -1       900 9.45761E+05-1.99212E+02 1.32320E+03 9.76173E+02-9.49903E-10-3.25696E-09
 -1       901 9.45929E+05 2.47214E+02 8.73060E+02 1.16109E+03-8.77336E-10-2.72389E-09
 -1       902 9.45839E+05-4.50160E+01 5.88018E+02 6.64354E+02-3.65262E-10-2.45291E-09
 -1       903 9.45895E+05 1.52753E+02 7.72450E+02 1.98393E+03-6.97753E-10-2.20848E-09
 -1       904 9.45795E+05-1.05277E+02 1.16116E+03 1.53317E+02 3.66363E-10-2.03306E-09
 -1       905 9.46281E+05 7.71636E+02 2.53862E+03 3.58308E+03 3.27084E-10-1.35850E-09
 -1       906 9.45455E+05-6.64932E+02 4.30485E+03-9.34817E+02-5.06247E-10-9.24729E-10
 -1       907 9.48669E+05 4.99833E+03 1.06327E+04 7.14452E+03 1.29425E-09 5.64228E-10
 -1       908 9.43418E+05-4.33497E+03 1.68035E+04-3.40820E+03 1.34699E-09 2.67664E-09
 -1       909 9.63093E+05 3.24482E+04 4.64202E+04 1.53918E+04 3.56115E-09 4.15002E-09
 -1       910 9.31099E+05-2.81167E+04 6.47339E+04-9.18215E+03 4.76871E-09 1.03246E-08
 -1       911 3.37521E+05-4.95114E+03 1.15204E+04-1.95233E+03-5.55619E-09 1.65655E-08
 -1       912 3.42668E+05 5.74689E+03 8.17743E+03-1.21237E+03-4.35210E-09 1.23823E-08
 -1       913 3.39461E+05-7.67320E+02 2.98911E+03-1.41592E+03-3.30246E-09 1.39977E-08
 -1       914 3.40429E+05 9.03869E+02 1.92438E+03-2.30209E+03-2.35833E-09 1.15559E-08
 -1       915 3.39762E+05-1.17757E+02 8.06546E+02-8.62652E+02 1.95004E-09 1.17435E-08
 -1       916 3.40151E+05 1.58841E+02 6.06003E+02-3.57135E+03 5.23355E-09 9.53486E-09
 -1       917 3.39745E+05-2.70677E+01 4.06486E+02-1.46671E+02 7.64572E-10 9.42617E-09
 -1       918 3.40399E+05 1.12030E+02 7.16473E+02-5.34310E+03-6.78583E-10 6.00558E-09
 -1       919 3.39528E+05-8.11287E+01 9.48357E+02 9.09103E+02 3.76377E-09 4.89342E-09
 -1       920 3.41420E+05 6.25497E+02 2.44105E+03-8.05676E+03 3.37093E-09 1.34381E-09
 -1       921 3.38764E+05-5.67023E+02 3.66689E+03 2.56708E+03-3.40492E-10-1.60003E-09
 -1       922 3.45263E+05 4.33369E+03 9.96019E+03-1.23915E+04-4.78417E-09-6.66762E-09
 -1       923 3.35790E+05-3.85588E+03 1.45398E+04 5.24454E+03-2.88298E-09-1.20554E-08
 -1       924 3.62138E+05 2.90116E+04 4.26066E+04-1.95710E+04-8.84279E-09-1.79716E-08
 -1       925 3.22173E+05-2.53929E+04 5.65484E+04 9.75022E+03-5.16047E-09-2.93912E-08
 -1       926-7.79815E+05 1.44110E+04-4.42700E+04-3.32299E+04 3.83579E-09-5.81495E-08
 -1       927-7.67077E+05-1.60488E+04-2.51678E+04 7.45436E+04-4.13058E-08-7.14117E-08
 -1       928-7.67930E+05 2.43960E+03-1.01299E+04-4.31832E+04 5.43552E-09-7.76517E-08
 -1       929-7.59038E+05-9.17137E+02-3.49764E+03 7.39125E+04 5.18952E-08-6.96846E-08
 -1       930-7.87790E+05-7.37516E+02-6.17048E+03-3.25975E+04-3.85398E-10-6.05916E-08
 -1       931-7.13673E+05 1.92941E+03 1.01198E+04 3.66318E+04-1.16916E-08-3.23170E-08
 -1       932-8.10784E+05-2.40399E+03-8.74116E+03-5.85955E+03 6.01995E-09-1.50747E-08
 -1       933-7.02744E+05 2.43882E+03 1.37777E+04-1.97006E+04 1.20417E-09 1.91926E-08
 -1       934-7.98117E+05-1.72616E+03-4.77221E+03 2.36777E+04 2.02226E-09 3.84045E-08
 -1       935-7.43607E+05 2.62076E+03 7.86294E+03-6.61754E+04-6.19093E-09 6.02858E-08
 -1       936-7.72269E+05-7.09803E+02 3.94752E+03 4.06181E+04 4.94401E-09 6.94413E-08
 -1       937-7.62817E+05 6.84516E+03 1.17135E+04-7.99285E+04-4.11423E-08 6.89537E-08
 -1       938-7.80119E+05-4.97157E+03 1.48592E+04 3.74646E+04-3.28557E-08 6.46469E-08
 -1       939-7.13904E+05 3.61479E+04 5.37958E+04-5.50658E+04-2.20286E-08 4.33974E-08
 -1       940-8.19127E+05-3.15783E+04 5.55331E+04 1.57083E+04-3.71983E-10 3.04753E-08
 -1       941 5.16014E+06-2.56213E+05 5.98842E+05 1.11028E+03 2.55237E-08 4.59841E-09
 -1       942 5.41812E+06 2.96887E+05 4.22433E+05 1.76593E+03 3.81069E-08 5.84987E-09
 -1       943 5.26001E+06-3.99870E+04 1.55258E+05 1.39814E+03 1.89739E-06 1.08121E-08
 -1       944 5.30244E+06 4.63023E+04 9.74674E+04 1.45373E+03 3.75782E-06-4.99131E-09
 -1       945 5.27653E+06-6.22866E+03 4.01043E+04 1.42273E+03 2.61247E-06-1.42063E-09
 -1       946 5.28347E+06 7.31570E+03 2.40318E+04 1.42699E+03 1.45042E-06 7.87259E-09
 -1       947 5.27926E+06-1.07540E+03 1.20413E+04 1.42497E+03 1.93108E-06 3.80032E-09
 -1       948 5.28070E+06 1.99680E+03 9.96598E+03 1.42268E+03 2.40159E-06 2.55669E-09
 -1       949 5.27935E+06-9.18330E+02 1.05915E+04 1.42707E+03 1.20600E-06-8.08950E-09
 -1       950 5.28274E+06 5.95929E+03 1.98524E+04 1.40004E+03 1.03256E-08 6.26255E-09
 -1       951 5.27718E+06-5.03146E+03 3.25662E+04 1.44759E+03-9.87139E-11-7.58337E-09
 -1       952 5.29800E+06 3.73541E+04 7.87284E+04 1.16088E+03-2.20471E-09-2.59024E-09
 -1       953 5.26386E+06-3.22541E+04 1.25267E+05 1.66614E+03-1.37665E-08 1.89175E-09
 -1       954 5.39132E+06 2.39463E+05 3.40739E+05-1.42199E+03-8.01451E-09-5.81713E-09
 -1       955 5.18321E+06-2.06677E+05 4.82779E+05 4.02956E+03-2.56406E-08-2.27010E-09
 -1       956-2.75354E+05-4.75436E+03-9.94443E+03 3.83576E+04-6.24823E-09 3.78350E-10
 -1       957-2.77176E+05-1.48780E+03-5.01587E+03 4.45186E+04-2.99042E-09-4.50882E-10
 -1       958-2.76192E+05-1.53262E+02-2.25718E+03 3.81241E+04-7.92534E-09-2.28579E-09
 -1       959-2.76373E+05 1.70012E+01-1.14708E+03 4.47740E+04-2.27301E-08-3.71028E-09
 -1       960-2.76305E+05 8.11433E+01-5.57525E+02 3.80991E+04-1.31522E-08-2.12731E-09
 -1       961-2.76336E+05 1.02207E+02-2.93250E+02 4.48022E+04-1.09044E-08-2.06455E-10
 -1       962-2.76344E+05 9.47366E+01-1.64957E+02 3.80954E+04-5.11409E-09-3.84125E-09
 -1       963-2.76353E+05 1.15305E+02-1.26187E+02 4.48071E+04-8.32188E-09-1.67802E-09
 -1       964-2.76361E+05 1.04454E+02-1.46424E+02 3.80941E+04-1.61526E-09-8.68113E-10
 -1       965-2.76372E+05 1.23055E+02-2.47289E+02 4.48073E+04 8.10519E-09-1.84446E-09
 -1       966-2.76357E+05 1.10692E+02-4.61614E+02 3.80951E+04-4.11512E-09-2.50611E-09
 -1       967-2.76435E+05 7.00485E+01-9.48844E+02 4.47940E+04-3.10388E-09-2.94358E-09
 -1       968-2.76289E+05-6.70756E+01-1.86386E+03 3.81077E+04 1.11868E-10-1.60412E-09
 -1       969-2.77128E+05-1.16011E+03-4.14670E+03 4.46637E+04 4.11819E-09-1.42518E-09
 -1       970-2.75616E+05-3.86275E+03-8.21871E+03 3.82310E+04 2.67846E-09-3.48064E-09
 -1       971-5.59805E+05 7.75802E+03-3.37951E+04 4.66396E+03-3.89628E-09 5.79894E-09
 -1       972-5.71908E+05-1.05504E+04-2.16256E+04 2.04843E+04-5.28917E-09 4.04225E-09
 -1       973-5.64906E+05 7.96850E+02-8.76765E+03 4.47143E+03-1.04264E-08 1.40653E-09
 -1       974-5.66306E+05-9.68733E+02-4.89585E+03 2.07728E+04 4.10228E-09 3.41254E-09
 -1       975-5.65492E+05 9.88340E+01-2.25688E+03 4.37339E+03 9.72932E-10 6.80529E-10
 -1       976-5.65703E+05-8.35608E+00-1.25368E+03 2.09250E+04-1.25641E-08 8.60723E-10
 -1       977-5.65570E+05 3.36757E+01-7.36226E+02 4.31865E+03 9.68430E-09 2.73036E-09
 -1       978-5.65658E+05 8.14034E+01-6.63222E+02 2.09971E+04 2.74002E-08 2.92573E-09
 -1       979-5.65567E+05 3.95874E+01-8.77247E+02 4.30118E+03 1.34307E-08 2.16846E-09
 -1       980-5.65760E+05-3.38116E+01-1.62879E+03 2.09939E+04 1.45505E-08 1.49575E-09
 -1       981-5.65467E+05 1.36927E+02-2.99923E+03 4.32191E+03 3.45403E-09 7.32030E-10
 -1       982-5.66609E+05-1.30929E+03-6.56403E+03 2.09133E+04-8.99263E-11 3.08864E-09
 -1       983-5.64688E+05 1.08557E+03-1.17603E+04 4.38242E+03 7.41193E-09 7.65340E-10
 -1       984-5.74178E+05-1.41640E+04-2.90468E+04 2.07140E+04-4.43015E-09 1.68620E-09
 -1       985-5.57841E+05 1.04505E+04-4.53728E+04 4.52509E+03 5.01404E-09-1.70439E-09
 -3
    1PSTEP                        31          16           1          
  100CL  116 7.75740E-01         841                     0   16           1
 -4  DISP        4    1
 -5  D1          1    2    1    0
 -5  D2          1    2    2    0
 -5  D3          1    2    3    0
 -5  ALL         1    2    0    0    1ALL
 -1         1 9.64985E-05 0.00000E+00 0.00000E+00
 -1         2 7.49650E-05 0.00000E+00 0.00000E+00
 -1         3 6.26808E-05 0.00000E+00 0.00000E+00
 -1         4 5.41212E-05 0.00000E+00 0.00000E+00
 -1         5 4.96688E-05 0.00000E+00 0.00000E+00
 -1         8 7.61758E-05-9.68151E-07 0.00000E+00
 -1         9 5.92556E-05 7.15947E-07 0.00000E+00
 -1        10 5.58337E-05-2.47262E-06 0.00000E+00
 -1        11 5.18939E-05-4.86550E-07 0.00000E+00
 -1        12 4.76493E-05 1.23656E-06 0.00000E+00
 -1        15 3.64883E-05-1.62944E-06 0.00000E+00
 -1        16 4.42858E-05 6.78115E-07 0.00000E+00
 -1        17 4.00405E-05-4.94653E-06 0.00000E+00
 -1        18 4.04373E-05-9.62219E-07 0.00000E+00
 -1        19 4.25241E-05 2.44575E-06 0.00000E+00
 -1        20 4.31754E-05 2.61853E-05 0.00000E+00
 -1        21 4.31480E-05 6.25942E-05 0.00000E+00
 -1        22 1.16303E-05-1.11672E-06 0.00000E+00
 -1        23 1.49634E-05 1.19042E-06 0.00000E+00
 -1        24 1.65634E-05-5.84884E-06 0.00000E+00
 -1        25 3.54993E-05-6.45204E-07 0.00000E+00
 -1        26 3.74683E-05 3.25024E-06 0.00000E+00
 -1        27 3.54377E-05 2.52503E-05 0.00000E+00
 -1        28 3.30291E-05 6.17103E-05 0.00000E+00
 -1        29 0.00000E+00 0.00000E+00 0.00000E+00
 -1        30 5.40357E-06 1.52621E-06 0.00000E+00
 -1        31 7.17285E-06-5.10155E-06 0.00000E+00
 -1        32 0.00000E+00 0.00000E+00 0.00000E+00
 -1        33 3.05877E-05 5.15537E-06 0.00000E+00
 -1        34 2.89557E-05 2.51624E-05 0.00000E+00
 -1        35 2.56129E-05 6.12385E-05 0.00000E+00
 -1        36 9.51939E-05 1.66987E-19 2.64698E-23
 -1        37 9.38481E-05 5.24506E-19 1.32349E-23
 -1        38 9.25048E-05 8.52467E-19 2.64698E-23
 -1        39 9.11537E-05 9.51880E-19 0.00000E+00
 -1        40 8.98024E-05 7.93121E-19 0.00000E+00
 -1        41 8.84495E-05 3.72522E-19-2.64698E-23
 -1        42 8.70964E-05 1.18432E-19-5.29396E-23
 -1        43 8.57431E-05-1.72302E-21 2.64698E-23
 -1        44 8.43897E-05 2.41330E-19 5.29396E-23
 -1        45 8.30365E-05 7.16975E-19-2.64698E-23
 -1        46 8.16834E-05 1.17269E-18-5.29396E-23
 -1        47 8.03313E-05 1.29330E-18 0.00000E+00
 -1        48 7.89795E-05 1.05915E-18 0.00000E+00
 -1        49 7.76330E-05 5.37277E-19 1.32349E-23
 -1        50 7.62847E-05 1.57000E-19 0.00000E+00
 -1        51 9.49666E-05-1.63880E-07 0.00000E+00
 -1        52 9.24258E-05-3.20723E-07 0.00000E+00
 -1        53 8.90712E-05-4.76972E-07 0.00000E+00
 -1        54 8.51075E-05-6.34848E-07 0.00000E+00
 -1        55 8.07401E-05-7.96254E-07 8.27181E-25
 -1        56 9.45812E-05-8.40101E-07 0.00000E+00
 -1        57 9.26588E-05-1.88250E-06 0.00000E+00
 -1        58 9.07756E-05-3.01752E-06 0.00000E+00
 -1        59 8.88834E-05-4.16515E-06 0.00000E+00
 -1        60 8.69613E-05-5.23437E-06-5.29396E-23
 -1        61 8.49764E-05-6.14258E-06 0.00000E+00
 -1        62 8.29042E-05-6.81892E-06 0.00000E+00
 -1        63 8.07222E-05-7.20341E-06 0.00000E+00
 -1        64 7.84166E-05-7.25887E-06 0.00000E+00
 -1        65 7.59790E-05-6.96248E-06 0.00000E+00
 -1        66 7.34112E-05-6.31932E-06 0.00000E+00
 -1        67 7.07225E-05-5.34895E-06-2.64698E-23
 -1        68 6.79285E-05-4.09790E-06-5.29396E-23
 -1        69 6.50623E-05-2.62017E-06 0.00000E+00
 -1        70 6.21369E-05-9.97257E-07 0.00000E+00
 -1        71 7.42011E-05 5.26984E-20-2.64698E-23
 -1        72 7.34322E-05 3.27834E-19-1.32349E-23
 -1        73 7.26636E-05 6.92365E-19-2.64698E-23
 -1        74 7.18941E-05 1.00282E-18 1.32349E-23
 -1        75 7.11246E-05 1.13426E-18 0.00000E+00
 -1        76 7.03549E-05 9.57442E-19 1.32349E-23
 -1        77 6.95852E-05 6.80947E-19 2.64698E-23
 -1        78 6.88154E-05 1.59211E-19 1.32349E-23
 -1        79 6.80457E-05-3.66974E-19 0.00000E+00
 -1        80 6.72760E-05-6.39981E-19 0.00000E+00
 -1        81 6.65065E-05-5.47687E-19 0.00000E+00
 -1        82 6.57374E-05-3.54242E-19 0.00000E+00
 -1        83 6.49684E-05-1.91194E-19-2.64698E-23
 -1        84 6.42020E-05-1.47225E-19 0.00000E+00
 -1        85 6.34347E-05 7.60386E-21 0.00000E+00
 -1        86 7.42197E-05 1.00308E-07 0.00000E+00
 -1        87 7.20173E-05 2.29316E-07 0.00000E+00
 -1        88 6.89019E-05 3.53934E-07 0.00000E+00
 -1        89 6.54116E-05 4.79349E-07 0.00000E+00
 -1        90 6.20335E-05 6.06705E-07 0.00000E+00
 -1        91 7.04964E-05 9.82552E-06 0.00000E+00
 -1        92 5.82542E-05 3.92433E-05-1.32349E-23
 -1        93 4.36714E-05 7.43891E-05 1.32349E-23
 -1        94 3.24547E-05 1.01327E-04 6.61744E-24
 -1        95 2.81545E-05 1.10682E-04-2.64698E-23
 -1        96 3.37316E-05 9.34145E-05 6.61744E-24
 -1        97 4.66839E-05 5.48514E-05-1.32349E-23
 -1        98 6.46102E-05 1.01807E-06 6.61744E-24
 -1        99 8.27078E-05-5.33480E-05 0.00000E+00
 -1       100 9.61866E-05-9.34882E-05 6.61744E-24
 -1       101 1.02483E-04-1.12781E-04 1.32349E-23
 -1       102 9.89019E-05-1.05294E-04-6.61744E-24
 -1       103 8.81714E-05-7.95609E-05-1.32349E-23
 -1       104 7.36105E-05-4.44632E-05 6.61744E-24
 -1       105 6.09819E-05-1.40921E-05 0.00000E+00
 -1       106 6.21490E-05-1.81059E-19-1.32349E-23
 -1       107 6.16132E-05-3.35168E-19 6.61744E-24
 -1       108 6.10776E-05-3.67615E-19 0.00000E+00
 -1       109 6.05413E-05-2.61705E-19 6.61744E-24
 -1       110 6.00050E-05-2.68899E-19 0.00000E+00
 -1       111 5.94686E-05-2.84210E-19 6.61744E-24
 -1       112 5.89321E-05-3.42926E-19 0.00000E+00
 -1       113 5.83956E-05-1.55112E-19 0.00000E+00
 -1       114 5.78591E-05 1.20173E-19-1.32349E-23
 -1       115 5.73227E-05 2.64347E-19 0.00000E+00
 -1       116 5.67863E-05 3.85776E-19-1.32349E-23
 -1       117 5.62504E-05 3.92677E-19 6.61744E-24
 -1       118 5.57144E-05 3.35581E-19-1.32349E-23
 -1       119 5.51804E-05 2.94349E-19 0.00000E+00
 -1       120 5.46458E-05 1.33638E-19 0.00000E+00
 -1       121 6.24802E-05-4.12403E-07 0.00000E+00
 -1       122 6.18882E-05-8.23797E-07 0.00000E+00
 -1       123 6.09149E-05-1.23549E-06 0.00000E+00
 -1       124 5.95723E-05-1.64740E-06 0.00000E+00
 -1       125 5.78737E-05-2.05979E-06 0.00000E+00
 -1       126 6.48162E-05-6.54008E-06 1.32349E-23
 -1       127 7.16011E-05-2.59317E-05 0.00000E+00
 -1       128 8.17453E-05-5.49330E-05 6.61744E-24
 -1       129 9.40136E-05-9.01698E-05 0.00000E+00
 -1       130 1.06719E-04-1.26702E-04 0.00000E+00
 -1       131 1.18188E-04-1.59570E-04-3.30872E-24
 -1       132 1.27003E-04-1.84737E-04 0.00000E+00
 -1       133 1.31700E-04-1.98276E-04 0.00000E+00
 -1       134 1.31729E-04-1.99110E-04-6.61744E-24
 -1       135 1.26555E-04-1.86315E-04-3.30872E-24
 -1       136 1.16925E-04-1.62237E-04 0.00000E+00
 -1       137 1.03697E-04-1.29316E-04 0.00000E+00
 -1       138 8.87021E-05-9.21204E-05 0.00000E+00
 -1       139 7.38413E-05-5.52441E-05 0.00000E+00
 -1       140 6.09755E-05-2.32042E-05-6.61744E-24
 -1       141 5.38404E-05 1.36623E-19 0.00000E+00
 -1       142 5.35600E-05 5.15018E-19-3.30872E-24
 -1       143 5.32795E-05 1.09834E-18 6.61744E-24
 -1       144 5.29991E-05 1.82426E-18-3.30872E-24
 -1       145 5.27187E-05 2.58858E-18 0.00000E+00
 -1       146 5.24383E-05 3.26050E-18-3.30872E-24
 -1       147 5.21580E-05 3.65856E-18-6.61744E-24
 -1       148 5.18776E-05 3.91785E-18 0.00000E+00
 -1       149 5.15973E-05 3.97370E-18 0.00000E+00
 -1       150 5.13172E-05 3.63240E-18 0.00000E+00
 -1       151 5.10372E-05 3.16193E-18 6.61744E-24
 -1       152 5.07578E-05 2.50078E-18 0.00000E+00
 -1       153 5.04786E-05 1.65385E-18-6.61744E-24
 -1       154 5.02031E-05 8.52665E-19-3.30872E-24
 -1       155 4.99263E-05 2.12868E-19-1.65436E-24
 -1       156 5.59532E-05-6.80507E-08 6.61744E-24
 -1       157 6.12784E-05-1.38694E-07 0.00000E+00
 -1       158 6.67811E-05-2.10899E-07 0.00000E+00
 -1       159 6.91461E-05-2.70058E-07 0.00000E+00
 -1       160 6.52273E-05-3.37178E-07-3.30872E-24
 -1       161 5.48444E-05-2.79582E-06 0.00000E+00
 -1       162 5.75444E-05-1.09453E-05 0.00000E+00
 -1       163 6.16314E-05-2.29001E-05 0.00000E+00
 -1       164 6.65140E-05-3.70597E-05 0.00000E+00
 -1       165 7.13904E-05-5.12019E-05 6.61744E-24
 -1       166 7.54588E-05-6.31051E-05 0.00000E+00
 -1       167 7.81312E-05-7.11788E-05 0.00000E+00
 -1       168 7.88216E-05-7.38848E-05 3.30872E-24
 -1       169 7.74842E-05-7.11849E-05 0.00000E+00
 -1       170 7.40979E-05-6.31075E-05-3.30872E-24
 -1       171 6.92243E-05-5.11749E-05 0.00000E+00
 -1       172 6.34587E-05-3.69504E-05 0.00000E+00
 -1       173 5.76572E-05-2.26343E-05 6.61744E-24
 -1       174 5.26814E-05-1.04260E-05 0.00000E+00
 -1       175 4.91437E-05-1.94574E-06 0.00000E+00
 -1       191 4.95924E-05 2.05847E-07-6.61744E-24
 -1       192 4.94067E-05 4.12115E-07 0.00000E+00
 -1       193 4.91151E-05 6.18466E-07 0.00000E+00
 -1       194 4.87220E-05 8.24779E-07-6.61744E-24
 -1       195 4.82316E-05 1.03093E-06 0.00000E+00
 -1       251 7.54281E-05 1.07657E-05-1.32349E-23
 -1       252 7.43735E-05 3.82556E-05 0.00000E+00
 -1       253 7.32258E-05 6.93331E-05-2.64698E-23
 -1       254 7.22998E-05 9.17218E-05 1.32349E-23
 -1       255 7.15742E-05 9.79014E-05 2.64698E-23
 -1       256 7.07267E-05 8.08359E-05 0.00000E+00
 -1       257 6.94479E-05 4.58070E-05 2.64698E-23
 -1       258 6.76886E-05-1.36958E-06 1.32349E-23
 -1       259 6.59412E-05-4.82712E-05-2.64698E-23
 -1       260 6.46890E-05-8.24816E-05 0.00000E+00
 -1       261 6.38586E-05-9.84822E-05 0.00000E+00
 -1       262 6.31266E-05-9.12974E-05 0.00000E+00
 -1       263 6.21864E-05-6.82398E-05 0.00000E+00
 -1       264 6.10372E-05-3.70954E-05-6.61744E-24
 -1       265 5.99942E-05-1.00791E-05-1.32349E-23
 -1       266 7.27596E-05-1.06746E-06 6.61744E-24
 -1       267 6.97020E-05-1.15319E-06-1.65436E-24
 -1       268 6.57403E-05-1.24296E-06 0.00000E+00
 -1       269 5.96152E-05-1.34019E-06 0.00000E+00
 -1       270 5.02273E-05-1.46248E-06 0.00000E+00
 -1       271 7.33102E-05 1.61781E-06 0.00000E+00
 -1       272 7.06796E-05 3.41039E-06 2.64698E-23
 -1       273 6.83159E-05 4.50000E-06-5.29396E-23
 -1       274 6.61781E-05 4.96434E-06 2.64698E-23
 -1       275 6.42389E-05 4.89760E-06 5.29396E-23
 -1       276 6.24598E-05 4.40028E-06 0.00000E+00
 -1       277 6.08012E-05 3.58054E-06 5.29396E-23
 -1       278 5.92207E-05 2.55178E-06 0.00000E+00
 -1       279 5.76747E-05 1.43089E-06-5.29396E-23
 -1       280 5.61190E-05 3.36394E-07 2.64698E-23
 -1       281 5.45096E-05-6.13744E-07-5.29396E-23
 -1       282 5.28041E-05-1.30380E-06 0.00000E+00
 -1       283 5.09603E-05-1.62272E-06 0.00000E+00
 -1       284 4.89456E-05-1.46328E-06 2.64698E-23
 -1       285 4.67140E-05-7.31783E-07 0.00000E+00
 -1       286 5.90335E-05 2.90775E-06-6.61744E-24
 -1       287 5.88197E-05 4.54662E-06 0.00000E+00
 -1       288 5.86062E-05 5.52538E-06 0.00000E+00
 -1       289 5.83945E-05 5.74279E-06 3.30872E-24
 -1       290 5.81828E-05 5.24205E-06 6.61744E-24
 -1       291 5.79708E-05 4.07288E-06 0.00000E+00
 -1       292 5.77582E-05 2.41174E-06 0.00000E+00
 -1       293 5.75451E-05 4.39510E-07-3.30872E-24
 -1       294 5.73319E-05-1.60389E-06 6.61744E-24
 -1       295 5.71189E-05-3.47791E-06 0.00000E+00
 -1       296 5.69065E-05-4.97415E-06 6.61744E-24
 -1       297 5.66945E-05-5.88761E-06 0.00000E+00
 -1       298 5.64828E-05-6.12378E-06 0.00000E+00
 -1       299 5.62695E-05-5.59433E-06 3.30872E-24
 -1       300 5.60560E-05-4.35618E-06-6.61744E-24
 -1       301 5.67529E-05 6.98996E-07 0.00000E+00
 -1       302 5.42400E-05 6.98947E-07 0.00000E+00
 -1       303 5.17266E-05 7.01794E-07 0.00000E+00
 -1       304 4.92231E-05 7.04056E-07 0.00000E+00
 -1       305 4.67396E-05 7.02139E-07 6.61744E-24
 -1       306 5.73576E-05 2.31279E-06-2.64698E-23
 -1       307 5.57226E-05 3.11045E-06 1.32349E-23
 -1       308 5.43479E-05 3.21872E-06 2.64698E-23
 -1       309 5.31873E-05 2.74137E-06 0.00000E+00
 -1       310 5.22030E-05 1.79228E-06 0.00000E+00
 -1       311 5.13501E-05 4.89307E-07 1.32349E-23
 -1       312 5.05837E-05-1.04537E-06 0.00000E+00
 -1       313 4.98572E-05-2.68708E-06 1.32349E-23
 -1       314 4.91235E-05-4.30984E-06 0.00000E+00
 -1       315 4.83360E-05-5.78786E-06 0.00000E+00
 -1       316 4.74482E-05-6.99716E-06 2.64698E-23
 -1       317 4.64155E-05-7.81665E-06 0.00000E+00
 -1       318 4.51938E-05-8.12997E-06 2.64698E-23
 -1       319 4.37466E-05-7.82487E-06-1.32349E-23
 -1       320 4.20273E-05-6.80020E-06 0.00000E+00
 -1       321 5.56321E-05-2.49909E-06-6.61744E-24
 -1       322 5.54298E-05-6.96255E-06 0.00000E+00
 -1       323 5.52057E-05-1.50400E-05-6.61744E-24
 -1       324 5.49581E-05-2.58796E-05 0.00000E+00
 -1       325 5.46951E-05-3.81530E-05 0.00000E+00
 -1       326 5.44312E-05-5.05202E-05 3.30872E-24
 -1       327 5.41814E-05-6.16252E-05 0.00000E+00
 -1       328 5.39561E-05-7.01220E-05 0.00000E+00
 -1       329 5.37530E-05-7.51134E-05 6.61744E-24
 -1       330 5.35618E-05-7.57310E-05 3.30872E-24
 -1       331 5.33634E-05-7.18573E-05 6.61744E-24
 -1       332 5.31381E-05-6.34121E-05-3.30872E-24
 -1       333 5.28747E-05-5.10993E-05 0.00000E+00
 -1       334 5.25698E-05-3.56553E-05 0.00000E+00
 -1       335 5.22361E-05-1.83546E-05 0.00000E+00
 -1       336 5.35086E-05-2.88602E-06 0.00000E+00
 -1       337 5.09918E-05-3.29976E-06 6.61744E-24
 -1       338 4.83346E-05-3.71368E-06 1.32349E-23
 -1       339 4.55888E-05-4.12680E-06 0.00000E+00
 -1       340 4.28067E-05-4.54011E-06 0.00000E+00
 -1       341 5.20423E-05 5.68642E-06 0.00000E+00
 -1       342 4.35387E-05 2.58791E-05 0.00000E+00
 -1       343 3.38787E-05 4.89820E-05 0.00000E+00
 -1       344 2.67086E-05 6.58165E-05 6.61744E-24
 -1       345 2.41760E-05 7.06367E-05-1.32349E-23
 -1       346 2.81363E-05 5.79538E-05 0.00000E+00
 -1       347 3.68891E-05 3.17740E-05 0.00000E+00
 -1       348 4.87469E-05-3.48358E-06-6.61744E-24
 -1       349 6.04640E-05-3.83261E-05 0.00000E+00
 -1       350 6.87887E-05-6.32764E-05 0.00000E+00
 -1       351 7.21763E-05-7.43770E-05-1.32349E-23
 -1       352 6.90849E-05-6.80884E-05 0.00000E+00
 -1       353 6.15400E-05-5.02999E-05-1.32349E-23
 -1       354 5.18633E-05-2.71412E-05-6.61744E-24
 -1       355 4.36586E-05-7.69551E-06 0.00000E+00
 -1       356 5.15364E-05 1.77885E-05 0.00000E+00
 -1       357 5.11733E-05 3.63013E-05 0.00000E+00
 -1       358 5.08320E-05 5.35173E-05 0.00000E+00
 -1       359 5.05334E-05 6.79126E-05 0.00000E+00
 -1       360 5.02800E-05 7.84695E-05-6.61744E-24
 -1       361 5.00642E-05 8.42035E-05-3.30872E-24
 -1       362 4.98639E-05 8.49937E-05 0.00000E+00
 -1       363 4.96553E-05 8.07615E-05-3.30872E-24
 -1       364 4.94218E-05 7.23276E-05 0.00000E+00
 -1       365 4.91559E-05 6.05488E-05-3.30872E-24
 -1       366 4.88676E-05 4.68820E-05 0.00000E+00
 -1       367 4.85743E-05 3.28000E-05-3.30872E-24
 -1       368 4.82955E-05 1.98506E-05 0.00000E+00
 -1       369 4.80496E-05 9.57194E-06 0.00000E+00
 -1       370 4.78320E-05 3.02465E-06 0.00000E+00
 -1       371 3.80200E-05-6.45415E-07 0.00000E+00
 -1       372 3.25049E-05-7.21822E-07 0.00000E+00
 -1       373 3.27112E-05-7.81104E-07 0.00000E+00
 -1       374 3.59869E-05-8.44136E-07-8.27181E-25
 -1       375 3.95048E-05-9.07951E-07 0.00000E+00
 -1       376 4.34535E-05 2.06600E-05 0.00000E+00
 -1       377 3.25138E-05 4.80164E-05 0.00000E+00
 -1       378 2.04838E-05 7.80560E-05 0.00000E+00
 -1       379 8.80593E-06 1.07233E-04 0.00000E+00
 -1       380-1.17041E-06 1.32201E-04-6.61744E-24
 -1       381-8.14703E-06 1.49645E-04 0.00000E+00
 -1       382-1.15842E-05 1.57990E-04 6.61744E-24
 -1       383-1.10117E-05 1.55740E-04-3.30872E-24
 -1       384-6.89825E-06 1.43857E-04-6.61744E-24
 -1       385 2.76162E-07 1.23414E-04 0.00000E+00
 -1       386 9.36926E-06 9.74991E-05 0.00000E+00
 -1       387 1.92615E-05 6.92741E-05 0.00000E+00
 -1       388 2.86678E-05 4.24538E-05 6.61744E-24
 -1       389 3.62970E-05 2.07361E-05-1.65436E-24
 -1       390 4.12243E-05 6.60226E-06 1.65436E-24
 -1       406 4.69473E-05 1.43924E-06-6.61744E-24
 -1       407 4.61695E-05 1.64213E-06 0.00000E+00
 -1       408 4.53266E-05 1.84490E-06 0.00000E+00
 -1       409 4.44303E-05 2.04715E-06-3.30872E-24
 -1       410 4.34922E-05 2.24833E-06-6.61744E-24
 -1       466 3.68863E-05 1.11592E-05-6.61744E-24
 -1       467 3.73619E-05 1.78142E-05 6.61744E-24
 -1       468 3.78559E-05 2.03688E-05 0.00000E+00
 -1       469 3.83567E-05 2.07657E-05 0.00000E+00
 -1       470 3.88575E-05 1.97242E-05 0.00000E+00
 -1       471 3.93579E-05 1.79324E-05 0.00000E+00
 -1       472 3.98574E-05 1.56507E-05 0.00000E+00
 -1       473 4.03565E-05 1.31288E-05 0.00000E+00
 -1       474 4.08553E-05 1.04794E-05 0.00000E+00
 -1       475 4.13537E-05 7.81245E-06 6.61744E-24
 -1       476 4.18521E-05 5.22781E-06 1.32349E-23
 -1       477 4.23495E-05 2.82718E-06 6.61744E-24
 -1       478 4.28474E-05 8.17074E-07 0.00000E+00
 -1       479 4.33385E-05-5.87401E-07 3.30872E-24
 -1       480 4.38331E-05-8.28420E-07-6.46235E-27
 -1       481 2.35887E-05-1.61042E-06-1.65436E-24
 -1       482 1.66567E-05-1.53018E-06 0.00000E+00
 -1       483 1.37891E-05-1.42969E-06 0.00000E+00
 -1       484 1.31015E-05-1.32503E-06 0.00000E+00
 -1       485 1.29343E-05-1.21982E-06 0.00000E+00
 -1       486 2.69827E-05 2.13455E-05 0.00000E+00
 -1       487 1.17429E-05 5.82994E-05 0.00000E+00
 -1       488-3.68308E-06 9.57034E-05 0.00000E+00
 -1       489-1.37468E-05 1.20010E-04 0.00000E+00
 -1       490-1.59479E-05 1.24129E-04-1.32349E-23
 -1       491-8.32072E-06 1.01325E-04 6.61744E-24
 -1       492 6.38539E-06 5.77537E-05 0.00000E+00
 -1       493 2.55852E-05 1.88331E-07 0.00000E+00
 -1       494 4.48080E-05-5.74483E-05 0.00000E+00
 -1       495 5.95826E-05-1.01229E-04 0.00000E+00
 -1       496 6.73070E-05-1.24310E-04 0.00000E+00
 -1       497 6.52093E-05-1.20463E-04-6.61744E-24
 -1       498 5.52261E-05-9.63580E-05-1.32349E-23
 -1       499 3.98268E-05-5.90197E-05 6.61744E-24
 -1       500 2.45560E-05-2.19929E-05-1.32349E-23
 -1       501 4.40094E-05 2.72034E-06 0.00000E+00
 -1       502 4.37440E-05 4.02428E-06 0.00000E+00
 -1       503 4.34788E-05 4.46293E-06 6.61744E-24
 -1       504 4.32153E-05 3.91900E-06 0.00000E+00
 -1       505 4.29511E-05 2.50358E-06 0.00000E+00
 -1       506 4.26860E-05 3.37592E-07 0.00000E+00
 -1       507 4.24199E-05-2.28361E-06 6.61744E-24
 -1       508 4.21535E-05-5.05962E-06 0.00000E+00
 -1       509 4.18876E-05-7.65399E-06 0.00000E+00
 -1       510 4.16228E-05-9.73235E-06 0.00000E+00
 -1       511 4.13593E-05-1.10802E-05 6.61744E-24
 -1       512 4.10965E-05-1.14913E-05 0.00000E+00
 -1       513 4.08337E-05-1.09770E-05 0.00000E+00
 -1       514 4.05702E-05-9.55903E-06-3.30872E-24
 -1       515 4.03055E-05-7.46911E-06-6.61744E-24
 -1       516 4.23690E-05 7.62446E-07 0.00000E+00
 -1       517 4.13504E-05 8.72913E-07 0.00000E+00
 -1       518 3.97164E-05 9.80740E-07 0.00000E+00
 -1       519 3.59505E-05 1.08651E-06-4.13590E-25
 -1       520 2.82928E-05 1.17033E-06 0.00000E+00
 -1       521 4.19353E-05 2.05885E-06 2.64698E-23
 -1       522 3.98215E-05 2.66258E-06 0.00000E+00
 -1       523 3.79602E-05 2.59855E-06-5.29396E-23
 -1       524 3.63041E-05 1.96598E-06-2.64698E-23
 -1       525 3.48177E-05 8.78325E-07 0.00000E+00
 -1       526 3.34558E-05-5.45720E-07 2.64698E-23
 -1       527 3.21729E-05-2.18168E-06 0.00000E+00
 -1       528 3.09212E-05-3.90187E-06-2.64698E-23
 -1       529 2.96527E-05-5.57716E-06 0.00000E+00
 -1       530 2.83197E-05-7.07922E-06 0.00000E+00
 -1       531 2.68752E-05-8.28251E-06-5.29396E-23
 -1       532 2.52747E-05-9.06620E-06-2.64698E-23
 -1       533 2.34751E-05-9.31654E-06 0.00000E+00
 -1       534 2.14427E-05-8.92641E-06 2.64698E-23
 -1       535 1.91331E-05-7.80386E-06 2.64698E-23
 -1       536 4.00502E-05-2.53730E-06-3.30872E-24
 -1       537 4.00726E-05-7.05458E-07 8.27181E-25
 -1       538 4.00956E-05 6.10924E-07 8.27181E-25
 -1       539 4.01208E-05 1.47416E-06 1.03398E-25
 -1       540 4.01466E-05 1.94633E-06-4.13590E-25
 -1       541 4.01728E-05 2.08948E-06 4.13590E-25
 -1       542 4.01991E-05 1.96557E-06 4.13590E-25
 -1       543 4.02255E-05 1.63651E-06 0.00000E+00
 -1       544 4.02518E-05 1.16415E-06 8.27181E-25
 -1       545 4.02781E-05 6.10318E-07 0.00000E+00
 -1       546 4.03044E-05 3.68146E-08 8.27181E-25
 -1       547 4.03307E-05-4.94551E-07 0.00000E+00
 -1       548 4.03571E-05-9.21975E-07-8.27181E-25
 -1       549 4.03837E-05-1.18363E-06 0.00000E+00
 -1       550 4.04102E-05-1.21761E-06 0.00000E+00
 -1       551 3.65334E-05-5.09467E-06-5.51885E-24
 -1       552 3.26319E-05-5.23944E-06-2.89513E-24
 -1       553 2.85084E-05-5.38455E-06 6.61744E-24
 -1       554 2.43390E-05-5.53138E-06-6.61744E-24
 -1       555 2.02995E-05-5.68156E-06-1.32349E-23
 -1       556 3.90033E-05-2.69312E-06 0.00000E+00
 -1       557 3.81643E-05-9.53081E-07 0.00000E+00
 -1       558 3.75012E-05 3.22504E-07-1.32349E-23
 -1       559 3.69932E-05 1.18745E-06 0.00000E+00
 -1       560 3.66195E-05 1.69569E-06 1.32349E-23
 -1       561 3.63594E-05 1.90168E-06 0.00000E+00
 -1       562 3.61924E-05 1.85994E-06-1.32349E-23
 -1       563 3.60978E-05 1.62509E-06-3.30872E-24
 -1       564 3.60552E-05 1.25177E-06 6.61744E-24
 -1       565 3.60439E-05 7.94668E-07-6.61744E-24
 -1       566 3.60436E-05 3.08492E-07-6.61744E-24
 -1       567 3.60339E-05-1.52044E-07 0.00000E+00
 -1       568 3.59941E-05-5.32236E-07-1.65436E-24
 -1       569 3.59044E-05-7.77447E-07 7.36708E-25
 -1       570 3.57447E-05-8.33092E-07-8.27181E-25
 -1       571 4.05625E-05-6.65848E-07-2.27475E-24
 -1       572 4.06917E-05-4.63611E-07-4.13590E-25
 -1       573 4.08220E-05-3.38519E-07 1.65436E-24
 -1       574 4.09528E-05-2.72724E-07 1.65436E-24
 -1       575 4.10838E-05-2.48308E-07 0.00000E+00
 -1       576 4.12149E-05-2.47241E-07-1.65436E-24
 -1       577 4.13461E-05-2.51488E-07-3.30872E-24
 -1       578 4.14772E-05-2.42996E-07 0.00000E+00
 -1       579 4.16084E-05-2.03713E-07 6.61744E-24
 -1       580 4.17395E-05-1.15585E-07 0.00000E+00
 -1       581 4.18707E-05 3.94421E-08 0.00000E+00
 -1       582 4.20018E-05 2.79408E-07 0.00000E+00
 -1       583 4.21328E-05 6.22338E-07 0.00000E+00
 -1       584 4.22636E-05 1.08609E-06-6.61744E-24
 -1       585 4.23942E-05 1.68842E-06 0.00000E+00
 -1       586 3.97266E-05-9.08363E-07 0.00000E+00
 -1       587 3.89120E-05-8.54033E-07 0.00000E+00
 -1       588 3.80372E-05-7.99761E-07 1.65436E-24
 -1       589 3.71471E-05-7.46015E-07-1.03398E-25
 -1       590 3.62864E-05-6.93458E-07 0.00000E+00
 -1       591 4.02268E-05-6.14922E-07-1.65436E-24
 -1       592 4.00331E-05-3.28431E-07 0.00000E+00
 -1       593 3.98568E-05-9.12871E-08 0.00000E+00
 -1       594 3.96945E-05 1.06998E-07 0.00000E+00
 -1       595 3.95426E-05 2.76909E-07-3.30872E-24
 -1       596 3.93974E-05 4.28863E-07 0.00000E+00
 -1       597 3.92549E-05 5.73267E-07-1.65436E-24
 -1       598 3.91114E-05 7.20515E-07-8.27181E-25
 -1       599 3.89629E-05 8.81007E-07 1.65436E-24
 -1       600 3.88055E-05 1.06514E-06-8.27181E-25
 -1       601 3.86354E-05 1.28329E-06 0.00000E+00
 -1       602 3.84488E-05 1.54589E-06-8.27181E-25
 -1       603 3.82418E-05 1.86332E-06-1.65436E-24
 -1       604 3.80109E-05 2.24606E-06-1.03398E-25
 -1       605 3.77528E-05 2.70458E-06 8.27181E-25
 -1       606 4.25697E-05 3.44831E-06 0.00000E+00
 -1       607 4.26121E-05 4.54380E-06 0.00000E+00
 -1       608 4.26535E-05 5.72678E-06-6.61744E-24
 -1       609 4.26944E-05 6.99103E-06 1.65436E-24
 -1       610 4.27350E-05 8.33029E-06 0.00000E+00
 -1       611 4.27755E-05 9.73818E-06 0.00000E+00
 -1       612 4.28159E-05 1.12083E-05 0.00000E+00
 -1       613 4.28561E-05 1.27343E-05 0.00000E+00
 -1       614 4.28963E-05 1.43097E-05 0.00000E+00
 -1       615 4.29364E-05 1.59282E-05 0.00000E+00
 -1       616 4.29765E-05 1.75833E-05 0.00000E+00
 -1       617 4.30164E-05 1.92687E-05 0.00000E+00
 -1       618 4.30564E-05 2.09780E-05 1.65436E-24
 -1       619 4.30963E-05 2.27048E-05 0.00000E+00
 -1       620 4.31360E-05 2.44427E-05 0.00000E+00
 -1       621 4.15807E-05 2.58016E-06 0.00000E+00
 -1       622 4.06646E-05 2.71537E-06 1.65436E-24
 -1       623 3.97855E-05 2.85065E-06 3.30872E-24
 -1       624 3.89534E-05 2.98561E-06-1.65436E-24
 -1       625 3.81779E-05 3.11981E-06 0.00000E+00
 -1       626 4.22250E-05 3.49599E-06 0.00000E+00
 -1       627 4.18877E-05 4.64331E-06 0.00000E+00
 -1       628 4.15169E-05 5.87873E-06 0.00000E+00
 -1       629 4.11165E-05 7.19204E-06-6.61744E-24
 -1       630 4.06906E-05 8.57301E-06 0.00000E+00
 -1       631 4.02431E-05 1.00112E-05-1.65436E-24
 -1       632 3.97779E-05 1.14963E-05-3.30872E-24
 -1       633 3.92990E-05 1.30178E-05-1.65436E-24
 -1       634 3.88104E-05 1.45653E-05 3.30872E-24
 -1       635 3.83158E-05 1.61284E-05 0.00000E+00
 -1       636 3.78192E-05 1.76967E-05-1.65436E-24
 -1       637 3.73246E-05 1.92597E-05 0.00000E+00
 -1       638 3.68358E-05 2.08071E-05-1.65436E-24
 -1       639 3.63563E-05 2.23283E-05 0.00000E+00
 -1       640 3.58898E-05 2.38130E-05 8.27181E-25
 -1       641 4.31766E-05 2.79938E-05 4.13590E-25
 -1       642 4.31762E-05 2.99921E-05 0.00000E+00
 -1       643 4.31755E-05 3.21525E-05 0.00000E+00
 -1       644 4.31743E-05 3.44478E-05 0.00000E+00
 -1       645 4.31729E-05 3.68506E-05 0.00000E+00
 -1       646 4.31712E-05 3.93336E-05 0.00000E+00
 -1       647 4.31693E-05 4.18696E-05 0.00000E+00
 -1       648 4.31674E-05 4.44315E-05-1.29247E-26
 -1       649 4.31655E-05 4.69921E-05 1.29247E-26
 -1       650 4.31636E-05 4.95242E-05 0.00000E+00
 -1       651 4.31618E-05 5.20007E-05 1.03398E-25
 -1       652 4.31600E-05 5.43943E-05 1.03398E-25
 -1       653 4.31584E-05 5.66779E-05 0.00000E+00
 -1       654 4.31562E-05 5.88240E-05 4.13590E-25
 -1       655 4.31545E-05 6.08052E-05 1.65436E-24
 -1       656 4.16070E-05 2.60344E-05-1.65436E-24
 -1       657 4.02484E-05 2.58760E-05 0.00000E+00
 -1       658 3.90262E-05 2.57181E-05 0.00000E+00
 -1       659 3.78663E-05 2.55601E-05 0.00000E+00
 -1       660 3.66948E-05 2.54017E-05 1.65436E-24
 -1       661 4.26702E-05 2.80468E-05 3.30872E-24
 -1       662 4.21155E-05 3.00584E-05 0.00000E+00
 -1       663 4.15131E-05 3.21957E-05 0.00000E+00
 -1       664 4.08724E-05 3.44377E-05-3.30872E-24
 -1       665 4.02004E-05 3.67625E-05 0.00000E+00
 -1       666 3.95055E-05 3.91486E-05 3.30872E-24
 -1       667 3.87955E-05 4.15749E-05 6.61744E-24
 -1       668 3.80783E-05 4.40201E-05 3.30872E-24
 -1       669 3.73620E-05 4.64631E-05-6.61744E-24
 -1       670 3.66544E-05 4.88828E-05 0.00000E+00
 -1       671 3.59636E-05 5.12579E-05 0.00000E+00
 -1       672 3.52974E-05 5.35671E-05 0.00000E+00
 -1       673 3.46639E-05 5.57890E-05 0.00000E+00
 -1       674 3.40701E-05 5.79017E-05 1.65436E-24
 -1       675 3.35257E-05 5.98840E-05 0.00000E+00
 -1       676 4.14563E-05 6.24464E-05-3.30872E-24
 -1       677 3.97659E-05 6.22980E-05 0.00000E+00
 -1       678 3.80772E-05 6.21497E-05-3.30872E-24
 -1       679 3.63911E-05 6.20019E-05 1.65436E-24
 -1       680 3.47082E-05 6.18540E-05-3.30872E-24
 -1       681 1.18435E-05-6.92888E-08 3.30872E-24
 -1       682 1.20631E-05-7.25917E-07 0.00000E+00
 -1       683 1.22809E-05-2.62799E-06 0.00000E+00
 -1       684 1.24981E-05-5.32887E-06 0.00000E+00
 -1       685 1.27139E-05-8.56311E-06 6.61744E-24
 -1       686 1.29290E-05-1.20704E-05-3.30872E-24
 -1       687 1.31438E-05-1.56525E-05 0.00000E+00
 -1       688 1.33591E-05-1.91117E-05 0.00000E+00
 -1       689 1.35755E-05-2.22227E-05 0.00000E+00
 -1       690 1.37934E-05-2.47565E-05-3.30872E-24
 -1       691 1.40130E-05-2.63533E-05 6.61744E-24
 -1       692 1.42333E-05-2.66440E-05 0.00000E+00
 -1       693 1.44520E-05-2.49632E-05-6.61744E-24
 -1       694 1.46609E-05-2.06267E-05 0.00000E+00
 -1       695 1.48457E-05-1.23497E-05-1.65436E-24
 -1       696 9.68345E-06-9.35769E-07 0.00000E+00
 -1       697 7.67797E-06-7.50004E-07-3.30872E-24
 -1       698 5.65913E-06-5.64541E-07-6.61744E-24
 -1       699 3.67218E-06-3.77520E-07 3.30872E-24
 -1       700 1.76848E-06-1.90500E-07 0.00000E+00
 -1       701 9.78379E-06 3.11322E-06-3.30872E-24
 -1       702 6.10768E-06 1.20918E-05-3.30872E-24
 -1       703 1.12753E-06 2.44462E-05-6.61744E-24
 -1       704-4.62147E-06 3.87666E-05 3.30872E-24
 -1       705-1.04097E-05 5.31867E-05-6.61744E-24
 -1       706-1.55085E-05 6.58390E-05 0.00000E+00
 -1       707-1.93609E-05 7.52695E-05-6.61744E-24
 -1       708-2.14337E-05 8.00525E-05-3.30872E-24
 -1       709-2.16247E-05 7.98513E-05-6.61744E-24
 -1       710-1.98545E-05 7.43779E-05 0.00000E+00
 -1       711-1.64993E-05 6.45858E-05 0.00000E+00
 -1       712-1.19407E-05 5.14761E-05-3.30872E-24
 -1       713-6.83071E-06 3.68368E-05 0.00000E+00
 -1       714-1.81787E-06 2.24748E-05 0.00000E+00
 -1       715 2.46589E-06 1.01304E-05 3.30872E-24
 -1       716 1.49808E-05 1.48594E-05 8.27181E-25
 -1       717 1.50600E-05 2.34965E-05-8.27181E-25
 -1       718 1.51648E-05 2.81253E-05-3.30872E-24
 -1       719 1.52801E-05 2.97490E-05 0.00000E+00
 -1       720 1.53967E-05 2.90227E-05 0.00000E+00
 -1       721 1.55110E-05 2.65892E-05 1.65436E-24
 -1       722 1.56218E-05 2.28927E-05 0.00000E+00
 -1       723 1.57292E-05 1.83709E-05 0.00000E+00
 -1       724 1.58345E-05 1.33653E-05 0.00000E+00
 -1       725 1.59389E-05 8.21515E-06 0.00000E+00
 -1       726 1.60439E-05 3.24240E-06 3.30872E-24
 -1       727 1.61503E-05-1.22978E-06 0.00000E+00
 -1       728 1.62598E-05-4.82009E-06 8.27181E-25
 -1       729 1.63678E-05-7.14277E-06 0.00000E+00
 -1       730 1.64798E-05-7.66621E-06 6.61744E-24
 -1       731 1.92831E-06 1.18029E-06 0.00000E+00
 -1       732-4.82212E-06 1.23621E-06-8.27181E-25
 -1       733-6.63449E-06 1.31324E-06 1.65436E-24
 -1       734-4.83804E-06 1.39135E-06 0.00000E+00
 -1       735-4.79457E-07 1.46250E-06 0.00000E+00
 -1       736 8.01681E-06 1.80450E-05 0.00000E+00
 -1       737 4.84830E-07 3.63428E-05 6.61744E-24
 -1       738-5.72254E-06 5.12676E-05 0.00000E+00
 -1       739-8.77740E-06 5.80428E-05 0.00000E+00
 -1       740-8.19548E-06 5.51718E-05 0.00000E+00
 -1       741-3.59624E-06 4.13244E-05 6.61744E-24
 -1       742 3.81027E-06 1.96041E-05-1.32349E-23
 -1       743 1.28229E-05-6.71739E-06-6.61744E-24
 -1       744 2.16394E-05-3.24748E-05-1.32349E-23
 -1       745 2.84530E-05-5.25155E-05-6.61744E-24
 -1       746 3.22112E-05-6.40358E-05 0.00000E+00
 -1       747 3.18606E-05-6.44103E-05 0.00000E+00
 -1       748 2.79902E-05-5.55088E-05 1.32349E-23
 -1       749 2.13015E-05-3.93557E-05 6.61744E-24
 -1       750 1.37049E-05-2.08965E-05 0.00000E+00
 -1       751 1.76741E-05-3.48502E-06 0.00000E+00
 -1       752 1.88573E-05-2.34922E-06 0.00000E+00
 -1       753 2.00367E-05-1.91710E-06 2.64698E-23
 -1       754 2.12295E-05-1.70209E-06 0.00000E+00
 -1       755 2.24227E-05-1.61145E-06-2.64698E-23
 -1       756 2.36186E-05-1.55896E-06-1.32349E-23
 -1       757 2.48149E-05-1.52824E-06 2.64698E-23
 -1       758 2.60116E-05-1.50403E-06 0.00000E+00
 -1       759 2.72083E-05-1.48301E-06 0.00000E+00
 -1       760 2.84048E-05-1.46203E-06 0.00000E+00
 -1       761 2.96011E-05-1.43802E-06 2.64698E-23
 -1       762 3.07954E-05-1.40775E-06 0.00000E+00
 -1       763 3.19895E-05-1.35652E-06 0.00000E+00
 -1       764 3.31741E-05-1.26853E-06 1.32349E-23
 -1       765 3.43618E-05-1.06111E-06 0.00000E+00
 -1       766 1.52981E-05-5.73549E-06-6.61744E-24
 -1       767 1.73715E-05-5.59560E-06 0.00000E+00
 -1       768 2.02392E-05-5.45914E-06 8.27181E-25
 -1       769 2.13631E-05-5.31580E-06-8.27181E-25
 -1       770 1.79489E-05-5.17892E-06-1.03398E-25
 -1       771 1.47846E-05-3.47422E-06 0.00000E+00
 -1       772 1.31653E-05-1.55355E-06-1.32349E-23
 -1       773 1.17003E-05-4.80920E-08 2.64698E-23
 -1       774 1.03756E-05 1.08166E-06 1.32349E-23
 -1       775 9.17709E-06 1.87538E-06 2.64698E-23
 -1       776 8.08971E-06 2.37315E-06 0.00000E+00
 -1       777 7.09837E-06 2.61517E-06 2.64698E-23
 -1       778 6.18787E-06 2.64191E-06 0.00000E+00
 -1       779 5.34297E-06 2.49393E-06-2.64698E-23
 -1       780 4.54838E-06 2.21196E-06 1.32349E-23
 -1       781 3.78883E-06 1.83681E-06 0.00000E+00
 -1       782 3.04909E-06 1.40941E-06 1.32349E-23
 -1       783 2.31399E-06 9.70709E-07-2.64698E-23
 -1       784 1.56901E-06 5.61846E-07 0.00000E+00
 -1       785 7.99748E-07 2.23948E-07 2.64698E-23
 -1       786 3.56147E-05-1.80713E-07 8.27181E-25
 -1       787 3.57375E-05 1.80289E-07 0.00000E+00
 -1       788 3.58601E-05 4.53778E-07 0.00000E+00
 -1       789 3.59839E-05 6.55711E-07-1.65436E-24
 -1       790 3.61078E-05 8.01960E-07 3.30872E-24
 -1       791 3.62319E-05 9.08343E-07-1.65436E-24
 -1       792 3.63561E-05 9.90632E-07 0.00000E+00
 -1       793 3.64803E-05 1.06458E-06 0.00000E+00
 -1       794 3.66045E-05 1.14591E-06-3.30872E-24
 -1       795 3.67287E-05 1.25040E-06 0.00000E+00
 -1       796 3.68529E-05 1.39379E-06 0.00000E+00
 -1       797 3.69770E-05 1.59191E-06 0.00000E+00
 -1       798 3.71010E-05 1.86063E-06 3.30872E-24
 -1       799 3.72245E-05 2.21589E-06 0.00000E+00
 -1       800 3.73480E-05 2.67374E-06 3.30872E-24
 -1       801 3.23421E-05-5.24273E-07 0.00000E+00
 -1       802 2.57791E-05-4.10312E-07 0.00000E+00
 -1       803 1.75361E-05-3.07478E-07 8.27181E-25
 -1       804 9.34058E-06-2.07508E-07 1.65436E-24
 -1       805 2.91978E-06-9.62225E-08 0.00000E+00
 -1       806 3.51791E-05-2.30863E-07-3.30872E-24
 -1       807 3.48704E-05 1.38766E-07 3.30872E-24
 -1       808 3.45740E-05 4.72378E-07 6.61744E-24
 -1       809 3.42875E-05 7.78019E-07 0.00000E+00
 -1       810 3.40083E-05 1.06369E-06-6.61744E-24
 -1       811 3.37334E-05 1.33733E-06 0.00000E+00
 -1       812 3.34601E-05 1.60687E-06-3.30872E-24
 -1       813 3.31854E-05 1.88023E-06 0.00000E+00
 -1       814 3.29062E-05 2.16533E-06-3.30872E-24
 -1       815 3.26196E-05 2.47009E-06 0.00000E+00
 -1       816 3.23228E-05 2.80242E-06-3.30872E-24
 -1       817 3.20126E-05 3.17024E-06 0.00000E+00
 -1       818 3.16864E-05 3.58148E-06-1.65436E-24
 -1       819 3.13413E-05 4.04406E-06 8.27181E-25
 -1       820 3.09751E-05 4.56595E-06 0.00000E+00
 -1       821 3.73495E-05 3.98719E-06-8.27181E-25
 -1       822 3.72231E-05 4.89117E-06 0.00000E+00
 -1       823 3.70968E-05 5.94510E-06 3.30872E-24
 -1       824 3.69692E-05 7.13158E-06 1.65436E-24
 -1       825 3.68412E-05 8.43313E-06 3.30872E-24
 -1       826 3.67130E-05 9.83211E-06 0.00000E+00
 -1       827 3.65846E-05 1.13108E-05 0.00000E+00
 -1       828 3.64560E-05 1.28513E-05-1.65436E-24
 -1       829 3.63274E-05 1.44358E-05-3.30872E-24
 -1       830 3.61988E-05 1.60463E-05 0.00000E+00
 -1       831 3.60702E-05 1.76649E-05 0.00000E+00
 -1       832 3.59417E-05 1.92736E-05 1.65436E-24
 -1       833 3.58135E-05 2.08543E-05 3.30872E-24
 -1       834 3.56862E-05 2.23893E-05 0.00000E+00
 -1       835 3.55589E-05 2.38605E-05 0.00000E+00
 -1       836 3.65930E-05 3.56200E-06-6.61744E-24
 -1       837 3.54143E-05 3.88463E-06 0.00000E+00
 -1       838 3.40784E-05 4.20651E-06-6.61744E-24
 -1       839 3.27313E-05 4.52763E-06 3.30872E-24
 -1       840 3.15191E-05 4.84944E-06-3.30872E-24
 -1       841 3.71806E-05 3.97936E-06-4.13590E-25
 -1       842 3.68233E-05 4.88553E-06-1.29247E-26
 -1       843 3.64058E-05 5.95254E-06 2.06795E-25
 -1       844 3.59339E-05 7.16281E-06 2.06795E-25
 -1       845 3.54154E-05 8.49682E-06-4.13590E-25
 -1       846 3.48576E-05 9.93474E-06-2.06795E-25
 -1       847 3.42688E-05 1.14550E-05 4.13590E-25
 -1       848 3.36571E-05 1.30362E-05 0.00000E+00
 -1       849 3.30309E-05 1.46556E-05-4.13590E-25
 -1       850 3.23989E-05 1.62906E-05 2.06795E-25
 -1       851 3.17695E-05 1.79184E-05 0.00000E+00
 -1       852 3.11515E-05 1.95161E-05-2.06795E-25
 -1       853 3.05531E-05 2.10612E-05-8.27181E-25
 -1       854 2.99826E-05 2.25314E-05 0.00000E+00
 -1       855 2.94483E-05 2.39058E-05 0.00000E+00
 -1       856 3.52957E-05 2.67436E-05 1.65436E-24
 -1       857 3.51463E-05 2.85075E-05 1.65436E-24
 -1       858 3.49967E-05 3.05072E-05 0.00000E+00
 -1       859 3.48456E-05 3.27074E-05 1.65436E-24
 -1       860 3.46940E-05 3.50727E-05-3.30872E-24
 -1       861 3.45420E-05 3.75673E-05 0.00000E+00
 -1       862 3.43896E-05 4.01554E-05-3.30872E-24
 -1       863 3.42371E-05 4.28010E-05 0.00000E+00
 -1       864 3.40845E-05 4.54679E-05 0.00000E+00
 -1       865 3.39319E-05 4.81200E-05 0.00000E+00
 -1       866 3.37796E-05 5.07214E-05 0.00000E+00
 -1       867 3.36275E-05 5.32359E-05-1.65436E-24
 -1       868 3.34758E-05 5.56277E-05 3.30872E-24
 -1       869 3.33252E-05 5.78610E-05 1.65436E-24
 -1       870 3.31748E-05 5.99003E-05-3.30872E-24
 -1       871 3.42476E-05 2.52377E-05 0.00000E+00
 -1       872 3.31439E-05 2.52239E-05 0.00000E+00
 -1       873 3.20951E-05 2.52098E-05 0.00000E+00
 -1       874 3.10689E-05 2.51953E-05 0.00000E+00
 -1       875 3.00331E-05 2.51802E-05 1.65436E-24
 -1       876 3.50806E-05 2.67949E-05 0.00000E+00
 -1       877 3.46440E-05 2.85749E-05 3.30872E-24
 -1       878 3.41312E-05 3.05567E-05-6.61744E-24
 -1       879 3.35548E-05 3.27107E-05-3.30872E-24
 -1       880 3.29250E-05 3.50065E-05 0.00000E+00
 -1       881 3.22531E-05 3.74145E-05-3.30872E-24
 -1       882 3.15499E-05 3.99054E-05-6.61744E-24
 -1       883 3.08265E-05 4.24500E-05-3.30872E-24
 -1       884 3.00938E-05 4.50192E-05-6.61744E-24
 -1       885 2.93628E-05 4.75839E-05 0.00000E+00
 -1       886 2.86443E-05 5.01151E-05-6.61744E-24
 -1       887 2.79493E-05 5.25836E-05 3.30872E-24
 -1       888 2.72888E-05 5.49602E-05 0.00000E+00
 -1       889 2.66725E-05 5.72151E-05-1.65436E-24
 -1       890 2.61135E-05 5.93190E-05-3.30872E-24
 -1       891 3.15738E-05 6.16320E-05-1.65436E-24
 -1       892 3.04031E-05 6.15528E-05 8.27181E-25
 -1       893 2.93696E-05 6.14738E-05 0.00000E+00
 -1       894 2.83252E-05 6.13949E-05 0.00000E+00
 -1       895 2.71222E-05 6.13159E-05 1.65436E-24
 -1       896 3.36056E-07 1.62852E-06 6.61744E-24
 -1       897 6.75458E-07 3.11823E-06 0.00000E+00
 -1       898 1.01481E-06 4.50400E-06 0.00000E+00
 -1       899 1.35484E-06 5.81914E-06 0.00000E+00
 -1       900 1.69497E-06 7.07114E-06-1.32349E-23
 -1       901 2.03529E-06 8.26662E-06 0.00000E+00
 -1       902 2.37569E-06 9.39149E-06 0.00000E+00
 -1       903 2.71618E-06 1.04306E-05-6.61744E-24
 -1       904 3.05679E-06 1.13376E-05 1.32349E-23
 -1       905 3.39746E-06 1.20640E-05 6.61744E-24
 -1       906 3.73823E-06 1.24956E-05 0.00000E+00
 -1       907 4.07870E-06 1.25136E-05 0.00000E+00
 -1       908 4.41885E-06 1.18482E-05 0.00000E+00
 -1       909 4.75592E-06 1.02197E-05 0.00000E+00
 -1       910 5.08978E-06 6.99723E-06-6.61744E-24
 -1       911 5.50784E-06-4.79874E-06-3.30872E-24
 -1       912 5.61747E-06-1.05374E-05 1.65436E-24
 -1       913 5.72975E-06-1.57496E-05-3.30872E-24
 -1       914 5.84464E-06-2.04924E-05 1.65436E-24
 -1       915 5.96158E-06-2.47643E-05 3.30872E-24
 -1       916 6.08043E-06-2.85610E-05 0.00000E+00
 -1       917 6.20110E-06-3.18187E-05 0.00000E+00
 -1       918 6.32349E-06-3.44707E-05-1.65436E-24
 -1       919 6.44748E-06-3.63744E-05 0.00000E+00
 -1       920 6.57266E-06-3.73831E-05 1.65436E-24
 -1       921 6.69821E-06-3.72379E-05 0.00000E+00
 -1       922 6.82226E-06-3.56739E-05 0.00000E+00
 -1       923 6.94162E-06-3.22482E-05 3.30872E-24
 -1       924 7.04903E-06-2.65079E-05 0.00000E+00
 -1       925 7.13531E-06-1.77117E-05 0.00000E+00
 -1       926 6.76067E-06 1.25767E-05 6.61744E-24
 -1       927 6.21976E-06 3.64026E-05 3.30872E-24
 -1       928 5.60875E-06 6.31972E-05 0.00000E+00
 -1       929 5.00286E-06 8.97478E-05-3.30872E-24
 -1       930 4.47595E-06 1.12900E-04-6.61744E-24
 -1       931 4.07352E-06 1.29540E-04 3.30872E-24
 -1       932 3.76646E-06 1.38094E-04 6.61744E-24
 -1       933 3.49404E-06 1.37086E-04-3.30872E-24
 -1       934 3.17742E-06 1.27291E-04 6.61744E-24
 -1       935 2.75597E-06 1.09584E-04-3.30872E-24
 -1       936 2.23664E-06 8.67141E-05 6.61744E-24
 -1       937 1.66230E-06 6.14871E-05 0.00000E+00
 -1       938 1.11124E-06 3.72700E-05 6.61744E-24
 -1       939 6.50574E-07 1.74190E-05-6.61744E-24
 -1       940 2.93814E-07 4.24930E-06 1.32349E-23
 -1       941 1.81319E-06 2.54012E-07 0.00000E+00
 -1       942 3.72622E-06 5.33354E-07-2.64698E-23
 -1       943 5.63296E-06 8.25857E-07 0.00000E+00
 -1       944 7.55869E-06 1.12053E-06 0.00000E+00
 -1       945 9.48498E-06 1.41632E-06 0.00000E+00
 -1       946 1.14151E-05 1.71230E-06 0.00000E+00
 -1       947 1.33456E-05 2.00838E-06-5.29396E-23
 -1       948 1.52768E-05 2.30448E-06 0.00000E+00
 -1       949 1.72080E-05 2.60066E-06 0.00000E+00
 -1       950 1.91387E-05 2.89695E-06 0.00000E+00
 -1       951 2.10691E-05 3.19395E-06 5.29396E-23
 -1       952 2.29965E-05 3.49231E-06 0.00000E+00
 -1       953 2.49234E-05 3.79909E-06 0.00000E+00
 -1       954 2.68350E-05 4.12205E-06 0.00000E+00
 -1       955 2.87517E-05 4.54376E-06 0.00000E+00
 -1       956 3.04879E-05 5.96356E-06-1.24077E-24
 -1       957 3.03865E-05 6.88618E-06 2.06795E-25
 -1       958 3.02847E-05 7.91209E-06 2.48154E-24
 -1       959 3.01826E-05 9.02931E-06-4.13590E-25
 -1       960 3.00803E-05 1.02259E-05-3.30872E-24
 -1       961 2.99780E-05 1.14897E-05-8.27181E-25
 -1       962 2.98755E-05 1.28086E-05-1.65436E-24
 -1       963 2.97730E-05 1.41705E-05 8.27181E-25
 -1       964 2.96705E-05 1.55634E-05 3.30872E-24
 -1       965 2.95680E-05 1.69751E-05-1.65436E-24
 -1       966 2.94654E-05 1.83934E-05 3.30872E-24
 -1       967 2.93629E-05 1.98063E-05-1.65436E-24
 -1       968 2.92605E-05 2.12017E-05-3.30872E-24
 -1       969 2.91582E-05 2.25675E-05 0.00000E+00
 -1       970 2.90563E-05 2.38916E-05-3.30872E-24
 -1       971 2.87537E-05 2.65283E-05 3.30872E-24
 -1       972 2.85457E-05 2.81802E-05 0.00000E+00
 -1       973 2.83373E-05 3.00834E-05-6.61744E-24
 -1       974 2.81276E-05 3.22024E-05 0.00000E+00
 -1       975 2.79174E-05 3.45014E-05 0.00000E+00
 -1       976 2.77068E-05 3.69443E-05 3.30872E-24
 -1       977 2.74958E-05 3.94947E-05 6.61744E-24
 -1       978 2.72847E-05 4.21160E-05 0.00000E+00
 -1       979 2.70734E-05 4.47714E-05-6.61744E-24
 -1       980 2.68622E-05 4.74244E-05 0.00000E+00
 -1       981 2.66512E-05 5.00380E-05 0.00000E+00
 -1       982 2.64406E-05 5.25756E-05 0.00000E+00
 -1       983 2.62304E-05 5.50007E-05 0.00000E+00
 -1       984 2.60217E-05 5.72768E-05-3.30872E-24
 -1       985 2.58132E-05 5.93680E-05 3.30872E-24
 -3
    1PSTEP                        32          16           1          
  100CL  116 7.75740E-01         841                     0   16           1
 -4  STRESS      6    1
 -5  SXX         1    4    1    1
 -5  SYY         1    4    2    2
 -5  SZZ         1    4    3    3
 -5  SXY         1    4    1    2
 -5  SYZ         1    4    2    3
 -5  SZX         1    4    3    1
 -1         1-3.07509E+06-1.00259E+06-6.30458E+05-9.30940E+05-7.32446E-10 1.99846E-09
 -1         2-1.73322E+06-8.49949E+03 2.08330E+04-7.90148E+04-4.48074E-09-1.10845E-10
 -1         3-1.03646E+06-3.54944E+05-2.81009E+04-6.67776E+04 2.06865E-09-8.05812E-10
 -1         4-7.11237E+05-9.92226E+04 2.38362E+03-4.27763E+04-8.24059E-10 1.56098E-09
 -1         5-4.21239E+05 1.19443E+05-1.72627E+05-1.29729E+04 8.96216E-09 6.74038E-09
 -1         8-1.46160E+06-5.73766E+05-1.89054E+05-5.71949E+05-3.63798E-10-4.48927E-09
 -1         9-1.67835E+06-3.80931E+05-1.89762E+05-3.87273E+05-1.33393E-10-6.42710E-10
 -1        10-6.81708E+05-3.81049E+05 1.99534E+04-1.09987E+05-3.29146E-09-4.17155E-10
 -1        11-3.56370E+05-5.04607E+04 9.99516E+03-2.96817E+03 3.44113E-08 4.18269E-09
 -1        12-3.36724E+05 1.24593E+05-1.54066E+05-6.37101E+04 1.50039E-08-1.60333E-09
 -1        15 2.26031E+04 6.02391E+04 1.63926E+04-2.97494E+04 3.63798E-11-3.89264E-09
 -1        16-1.19101E+06-2.40267E+05 3.15046E+03-4.61481E+05 1.64558E-09 4.07150E-10
 -1        17-6.68641E+05-4.27499E+05-7.79645E+04-3.35145E+05 2.61328E-10-7.71252E-10
 -1        18-2.33601E+05-9.42948E+04-8.87719E+04-1.12535E+05-4.45349E-10-2.72848E-11
 -1        19 3.38486E+04 1.12925E+05-3.71250E+04-3.26279E+04-4.64418E-09 7.48211E-10
 -1        20 1.09651E+05-8.10199E+04-1.33489E+04 5.83935E+04 7.75958E-09-5.79894E-09
 -1        21 1.53814E+03-1.63482E+05 4.13265E+04 4.82141E+02 1.90653E-08-8.02078E-10
 -1        22 3.37289E+04 1.77532E+05 2.18142E+03-2.60113E+04-6.32099E-11-1.84809E-09
 -1        23-2.23044E+05 8.57872E+04 1.31796E+04-5.86958E+04-5.68222E-09-1.32847E-09
 -1        24-2.31044E+05 8.79541E+03 2.69339E+05-4.68133E+05-9.72189E-09 3.13594E-09
 -1        25 5.80270E+05 2.07897E+05 1.82723E+05-3.01662E+05 1.01772E-09-2.63753E-10
 -1        26 2.27793E+03 1.83549E+05 9.57415E+03-3.42275E+04 1.44253E-09 2.07941E-09
 -1        27-4.21756E+04-6.91390E+04-2.98860E+04 7.93766E+04 5.06194E-09-1.05441E-09
 -1        28-1.38955E+04-1.27996E+05-7.59589E+02 6.15274E+04 9.06084E-09-2.35188E-10
 -1        29 4.64433E+05 2.94815E+05 1.17937E+03-1.61812E+03-8.37765E-11-3.16777E-09
 -1        30 1.92953E+05 4.05709E+04 2.52137E+03-2.90709E+04-1.04303E-09 1.26774E-08
 -1        31-3.37566E+05 7.59351E+04 9.57251E+03-2.50289E+04-1.04624E-08-1.44810E-08
 -1        32 9.30521E+05 5.04429E+05 5.97010E+05-4.83919E+05 1.64299E-08 2.31375E-09
 -1        33 1.34525E+06 5.72016E+05 4.20987E+05-5.17793E+04-1.66266E-08-1.52431E-09
 -1        34-2.21089E+05-3.08765E+04-8.92922E+03 4.22870E+04 2.73524E-09 1.55796E-09
 -1        35-3.58555E+04-4.23082E+04-7.97542E+02 9.14564E+04 1.20979E-08-2.23614E-09
 -1        36-3.81154E+06 1.11320E+05-2.58248E+05-2.24149E-07-2.06102E-09 9.74978E-10
 -1        37-3.92320E+06-1.28884E+05-1.82616E+05 2.31976E-07-1.22460E-09 3.92902E-09
 -1        38-3.85462E+06 1.73603E+04-6.67875E+04-1.26741E-07-3.76873E-10-1.55705E-09
 -1        39-3.87278E+06-2.00936E+04-4.19294E+04-5.44208E-08 2.31829E-09 5.83077E-09
 -1        40-3.86167E+06 2.70200E+03-1.71456E+04-8.56693E-08-8.23150E-10 4.57840E-09
 -1        41-3.86449E+06-3.16555E+03-1.02209E+04 1.65206E-07-4.85221E-09-2.22485E-10
 -1        42-3.86282E+06 4.59347E+02-5.00571E+03-2.47691E-07-8.16710E-10-4.66298E-09
 -1        43-3.86326E+06-8.10473E+02-3.97345E+03-2.65411E-07-2.12810E-10-3.48237E-10
 -1        44-3.86288E+06 3.50362E+02-4.01549E+03-4.81743E-07 1.95044E-09 7.33667E-09
 -1        45-3.86398E+06-2.22429E+03-7.35629E+03-1.83541E-07 3.13707E-09 1.59162E-10
 -1        46-3.86210E+06 1.87101E+03-1.19803E+04-2.31554E-07 1.57333E-09 1.02773E-10
 -1        47-3.86968E+06-1.38826E+04-2.90299E+04-2.38038E-07-1.11258E-09-4.60159E-09
 -1        48-3.85724E+06 1.19897E+04-4.61626E+04-2.09280E-07-2.30626E-09-3.64344E-09
 -1        49-3.90450E+06-8.90110E+04-1.26138E+05 4.18866E-07-9.77254E-10 6.25369E-09
 -1        50-3.82751E+06 7.68738E+04-1.78420E+05-2.04065E-07-2.68272E-09 8.32370E-09
 -1        51 3.50623E+04-4.10918E+05 5.67756E+04-1.11282E+06-4.36557E-10-1.58616E-09
 -1        52 1.68971E+04-4.07476E+05 3.45072E+04-1.22726E+06 4.07454E-10 4.59841E-09
 -1        53 1.16248E+04-4.20346E+05 2.74266E+04-1.10982E+06-7.27596E-11 1.42609E-09
 -1        54 2.60376E+04-4.17414E+05 4.14501E+04-1.23039E+06-1.38243E-09-3.45244E-09
 -1        55 5.65575E+04-4.31123E+05 7.46753E+04-1.10921E+06-2.61934E-10 1.14233E-09
 -1        56-5.00526E+06-5.63476E+05-4.13048E+05-1.93525E+06-1.22236E-09-3.57977E-09
 -1        57-5.18977E+06-9.10419E+05-2.77277E+05-1.89791E+06 1.08230E-10-1.83354E-08
 -1        58-5.08598E+06-6.93647E+05-9.71741E+04-1.91202E+06-1.21690E-09-5.67888E-09
 -1        59-5.09701E+06-7.56423E+05-5.76170E+04-1.92491E+06-2.10525E-09 1.30331E-09
 -1        60-5.09671E+06-7.12297E+05-2.26856E+04-1.90994E+06 1.71576E-09-7.25049E-09
 -1        61-5.08632E+06-7.32722E+05-1.28308E+04-1.92522E+06 9.51559E-11-6.58292E-09
 -1        62-5.09638E+06-7.16706E+05-6.26457E+03-1.91186E+06-1.04092E-09-5.95287E-09
 -1        63-5.08936E+06-7.25445E+05-5.23464E+03-1.92009E+06-2.32490E-10 9.56470E-09
 -1        64-5.09359E+06-7.19526E+05-6.13344E+03-1.91506E+06 5.56156E-10-1.33127E-09
 -1        65-5.09672E+06-7.22066E+05-1.24193E+04-1.91314E+06 1.53204E-09-8.34871E-09
 -1        66-5.08905E+06-7.20159E+05-2.19306E+04-1.91878E+06 4.32124E-10 4.66753E-09
 -1        67-5.11499E+06-7.36993E+05-5.56249E+04-1.90376E+06 5.80485E-10 5.36875E-09
 -1        68-5.07561E+06-7.05220E+05-9.38269E+04-1.92430E+06-1.24237E-09-3.05590E-10
 -1        69-5.20825E+06-8.82017E+05-2.67690E+05-1.87359E+06 1.21145E-09 2.83399E-09
 -1        70-4.99711E+06-5.80105E+05-3.98788E+05-1.94735E+06-1.81899E-09 2.03727E-09
 -1        71-2.19311E+06 1.33331E+04-3.09888E+04-3.02801E-07-9.95817E-10 7.25777E-10
 -1        72-2.20633E+06-1.54406E+04-2.19026E+04-1.40418E-07-2.52882E-09 9.11086E-10
 -1        73-2.19827E+06 2.08003E+03-8.03081E+03 9.52697E-08 1.36439E-09 2.13231E-09
 -1        74-2.20030E+06-2.40994E+03-5.06482E+03-2.35984E-07 2.05708E-09 1.61407E-09
 -1        75-2.19912E+06 3.26007E+02-2.12368E+03-1.65210E-07-3.98175E-11 5.19117E-09
 -1        76-2.19932E+06-3.96860E+02-1.36557E+03-2.27624E-08-2.96619E-10 4.33469E-09
 -1        77-2.19925E+06 7.03332E+01-8.60649E+02-1.67550E-08 6.45130E-11-1.16418E-09
 -1        78-2.19923E+06-2.12879E+02-1.04713E+03-2.12981E-07-3.66955E-11-2.37884E-09
 -1        79-2.19921E+06 1.42344E+02-1.51687E+03-1.09392E-07-6.82136E-10-4.70453E-09
 -1        80-2.19966E+06-1.01880E+03-3.26270E+03 2.20296E-08-1.02304E-09 6.13170E-09
 -1        81-2.19883E+06 8.75072E+02-5.54462E+03-2.43915E-07 1.09058E-09 7.04904E-09
 -1        82-2.20234E+06-6.51358E+03-1.36010E+04-1.72208E-07 1.88919E-09 4.49313E-09
 -1        83-2.19654E+06 5.62803E+03-2.16822E+04-2.72823E-07-7.44045E-11 4.58203E-09
 -1        84-2.21868E+06-4.17842E+04-5.92472E+04-2.68499E-07-9.00966E-10 3.03044E-09
 -1        85-2.18256E+06 3.60838E+04-8.38332E+04 1.37010E-08-2.68763E-09-1.34969E-09
 -1        86-8.67251E+04 3.54864E+05 2.05106E+05 4.07008E+03 7.27596E-12-2.36849E-09
 -1        87 1.09162E+05 4.48499E+05 1.60724E+05-1.82641E+04-5.45697E-12-8.18184E-09
 -1        88-2.21971E+04 3.85253E+05 8.46865E+04 2.32468E+03-1.00954E-09 1.70360E-09
 -1        89 8.16520E+04 4.34880E+05 1.24658E+05-1.66993E+04 4.36557E-10-1.15841E-09
 -1        90-5.92415E+04 3.68413E+05 1.43409E+05 2.50580E+03-1.14960E-09-3.23999E-09
 -1        91-1.64504E+06-3.33106E+05-3.34026E+04-7.12350E+05 9.49876E-09 2.72757E-09
 -1        92-1.56566E+06 2.98292E+04 4.76436E+04-2.93534E+05 2.24270E-08-6.27665E-10
 -1        93-1.46619E+06-3.12591E+05-1.65209E+03-7.01093E+05 1.20613E-08 6.02313E-10
 -1        94-1.36058E+06-2.46978E+04 7.33235E+04-3.11645E+05-5.42968E-09-7.27005E-09
 -1        95-1.84236E+06-2.86453E+05-7.08940E+04-6.87285E+05-1.14360E-08 3.14049E-09
 -1        96-1.08576E+06-2.16301E+05 8.85980E+04-5.24866E+05 1.24719E-08-3.36331E-09
 -1        97-1.73679E+06-1.25132E+05-1.97336E+04-4.85083E+05 1.69671E-08-2.05523E-09
 -1        98-1.21564E+06-3.70349E+05 3.33215E+04-7.44875E+05-7.03019E-08 1.89914E-09
 -1        99-1.72545E+06-1.19420E+05-1.70145E+04-4.77754E+05-1.23562E-07-7.18455E-09
 -1       100-1.08941E+06-2.26670E+05 8.43891E+04-5.37862E+05-5.99116E-08-1.95519E-09
 -1       101-1.85060E+06-2.81263E+05-7.47438E+04-6.82091E+05-1.08221E-08-2.43881E-09
 -1       102-1.34340E+06-3.36340E+04 6.79167E+04-3.14228E+05 2.46414E-08 1.76260E-09
 -1       103-1.47445E+06-3.09527E+05-1.72677E+04-7.03125E+05 2.22386E-08 8.04175E-09
 -1       104-1.58910E+06 2.44260E+03 6.61731E+03-2.87945E+05-6.63977E-09 2.06041E-08
 -1       105-1.61367E+06-3.08532E+05-8.74008E+04-7.16172E+05 2.13586E-08 1.47356E-08
 -1       106-1.52854E+06 1.07026E+04-2.48805E+04-7.96920E-08 1.67555E-09 1.49157E-10
 -1       107-1.53918E+06-1.23944E+04-1.75858E+04-2.49450E-07-1.84652E-09 1.12868E-09
 -1       108-1.53269E+06 1.66965E+03-6.44919E+03 1.79013E-08-5.49031E-10-5.61704E-09
 -1       109-1.53434E+06-1.93434E+03-4.06578E+03 6.37899E-08-1.04250E-09-6.13863E-09
 -1       110-1.53337E+06 2.61539E+02-1.70183E+03-2.76977E-07-6.31316E-10 1.25243E-09
 -1       111-1.53355E+06-3.17333E+02-1.08759E+03-4.31250E-07-7.44061E-10 2.69860E-09
 -1       112-1.53347E+06 5.53796E+01-6.73538E+02-1.76289E-08-1.06906E-09-2.04334E-09
 -1       113-1.53347E+06-1.62710E+02-8.01407E+02 2.27333E-07 4.65578E-10 8.48786E-10
 -1       114-1.53344E+06 1.07177E+02-1.14609E+03-1.63613E-07 4.50063E-10 6.84690E-09
 -1       115-1.53379E+06-7.64679E+02-2.45339E+03-3.32973E-07 4.99713E-10-5.57876E-09
 -1       116-1.53316E+06 6.56462E+02-4.16468E+03-6.18559E-08-2.48049E-10 8.81528E-10
 -1       117-1.53581E+06-4.88596E+03-1.02092E+04 5.81150E-08 2.84230E-10 1.28011E-09
 -1       118-1.53144E+06 4.22156E+03-1.62739E+04 3.41618E-09-2.17238E-09-7.43967E-10
 -1       119-1.54805E+06-3.13421E+04-4.44537E+04-4.14802E-08-9.29856E-10 1.91903E-09
 -1       120-1.52094E+06 2.70657E+04-6.29007E+04-2.73557E-07 6.66080E-11 1.19326E-09
 -1       121-1.72174E+03-1.17604E+06 7.02795E+03-1.25435E+03-2.87400E-10-3.21779E-09
 -1       122 2.17500E+03-1.17318E+06 4.43351E+03-6.21916E+03-4.54975E-10 6.66296E-09
 -1       123-2.13590E+02-1.17495E+06 1.55213E+03-7.34037E+02-6.88942E-10 4.01906E-09
 -1       124-7.77106E+01-1.17457E+06 4.06789E+02-7.21584E+03-5.52745E-10 5.29326E-10
 -1       125 1.31912E+02-1.17470E+06-5.75394E+02-2.57990E+02-1.33980E-09 8.61291E-10
 -1       126-7.00161E+05-1.08771E+05 3.00858E+04-2.29001E+05 4.08181E-08-4.34375E-09
 -1       127-4.55969E+05-9.00527E+04 5.31193E+04-2.58663E+05 3.40842E-08 7.24867E-09
 -1       128-6.52158E+05-5.75417E+04 7.79934E+03-1.91930E+05-3.48296E-08-1.28312E-08
 -1       129-5.17621E+05-1.46863E+05 1.02291E+04-3.03960E+05-4.47617E-08-1.71349E-09
 -1       130-6.41712E+05-4.96040E+04 1.99145E+03-1.85943E+05-3.27591E-08 4.00246E-09
 -1       131-4.88575E+05-1.31124E+05 1.43037E+04-2.72886E+05 4.60477E-09 7.44194E-10
 -1       132-6.79180E+05-7.48129E+04-1.23789E+04-2.21590E+05 1.18603E-08 1.21395E-09
 -1       133-4.51215E+05-7.70036E+04 3.07851E+04-1.95574E+05 2.76132E-08-1.42887E-09
 -1       134-6.75514E+05-1.06377E+05-1.84848E+04-2.60547E+05-1.38230E-08 7.51993E-09
 -1       135-5.26615E+05-3.04502E+04 2.46026E+04-1.46719E+05-1.04694E-08 1.00778E-08
 -1       136-6.04988E+05-1.20439E+05-8.44179E+03-2.71157E+05 2.92107E-08-5.65387E-09
 -1       137-6.44523E+05-1.30350E+04 3.42301E+03-1.41815E+05 3.60403E-08 1.52814E-08
 -1       138-5.61346E+05-1.21029E+05-3.84880E+03-2.68461E+05 2.17040E-09 1.45417E-08
 -1       139-6.41625E+05-1.74321E+04-4.88746E+03-1.40873E+05 5.87834E-08 4.53067E-08
 -1       140-6.07717E+05-1.16175E+05-2.86377E+04-2.71952E+05 9.28685E-09-1.48639E-08
 -1       141-8.02131E+05-8.02086E+02 1.85945E+03-3.13146E-07-8.35695E-10-4.03020E-10
 -1       142-8.01252E+05 9.28247E+02 1.30286E+03-2.47310E-08-7.71575E-10-4.45084E-10
 -1       143-8.01820E+05-1.24484E+02 4.51826E+02 1.60385E-07-5.06431E-10 1.25263E-09
 -1       144-8.01619E+05 1.39747E+02 2.37335E+02 4.37678E-08 2.13560E-10-1.77373E-09
 -1       145-8.01765E+05-1.50196E+01-2.19951E+00-1.17580E-07-2.54238E-10 7.82734E-11
 -1       146-8.01700E+05-1.14761E+01-1.95959E+02-2.54761E-07-7.66438E-10-2.94708E-09
 -1       147-8.01739E+05 2.65190E+01-4.70268E+02-8.73706E-09 5.70005E-10-1.51459E-09
 -1       148-8.01824E+05-2.19924E+02-1.08478E+03 3.24290E-07-7.79352E-11 2.88071E-09
 -1       149-8.01642E+05 1.93197E+02-1.99281E+03 2.83159E-08-1.85337E-10 6.31871E-10
 -1       150-8.02479E+05-1.45098E+03-4.59531E+03 1.57902E-07-1.54211E-10-2.49241E-09
 -1       151-8.01087E+05 1.25581E+03-7.93506E+03 8.40628E-08-4.52373E-10 2.05455E-09
 -1       152-8.06347E+05-9.35791E+03-1.95439E+04-3.05554E-08-2.29178E-10 4.08454E-09
 -1       153-7.97782E+05 8.08709E+03-3.11814E+04 3.07681E-07 2.48862E-09 1.30058E-09
 -1       154-8.29806E+05-6.00409E+04-8.51763E+04-1.09765E-09 7.82471E-10-9.04947E-10
 -1       155-7.77644E+05 5.18512E+04-1.20492E+05 3.83172E-08 5.47020E-09-3.34694E-10
 -1       156-2.61346E+04-1.73701E+05 5.90438E+04-2.47423E+04-8.61473E-09-1.30740E-09
 -1       157 3.15668E+04-1.32057E+05 4.74455E+04 1.01987E+05-2.19829E-08-6.39591E-09
 -1       158-4.91377E+03-1.62928E+05 2.11546E+04-2.47813E+04-1.09162E-08-5.72390E-09
 -1       159 2.06547E+04-9.85788E+04 3.78528E+04 9.74859E+04-4.41230E-09 7.39681E-09
 -1       160-1.68118E+04-2.05037E+05 2.01723E+04-2.02562E+04 2.07810E-08 2.05910E-09
 -1       161-7.20982E+05-9.60913E+04-1.12051E+03-2.59417E+05-5.07498E-09-1.60711E-10
 -1       162-6.64598E+05-1.16716E+05 4.65288E+03-2.84351E+05 1.38371E-08-2.14024E-09
 -1       163-7.18727E+05-8.35542E+04 5.22851E+01-2.45779E+05 3.69994E-08-6.95901E-09
 -1       164-6.67451E+05-1.29037E+05 8.81410E+02-2.98249E+05 5.15670E-08 6.05471E-09
 -1       165-7.18625E+05-8.33921E+04-3.35301E+02-2.45889E+05 4.35571E-08-2.05591E-09
 -1       166-6.65690E+05-1.18415E+05 2.95676E+03-2.83790E+05 1.25987E-08 8.22820E-09
 -1       167-7.19987E+05-9.45617E+04-3.11701E+03-2.59863E+05-1.57206E-09-7.10486E-09
 -1       168-6.76732E+05-9.48240E+04 4.78307E+03-2.54559E+05-1.98570E-08 4.80270E-09
 -1       169-7.07089E+05-1.07362E+05-4.26103E+03-2.74732E+05 7.08951E-09-3.66981E-10
 -1       170-7.10359E+05-7.56382E+04-4.35029E+02-2.33000E+05 5.72345E-09-3.01554E-09
 -1       171-6.86849E+05-1.13374E+05-6.56313E+03-2.81792E+05-5.17759E-08-4.30009E-09
 -1       172-7.35345E+05-7.53715E+04-1.59830E+04-2.25054E+05-3.15016E-08-1.10242E-08
 -1       173-6.82612E+05-1.07256E+05-2.69955E+04-2.83076E+05-6.15478E-08 1.86810E-09
 -1       174-7.42430E+05-1.28828E+05-7.56145E+04-2.22506E+05-7.34267E-08 1.83236E-08
 -1       175-6.79319E+05-6.03421E+04-1.16717E+05-2.83948E+05-1.15870E-08 5.02041E-09
 -1       191 2.02702E+03 5.91140E+05 3.30940E+03-2.42301E+04-3.09228E-10 4.00178E-10
 -1       192 7.13417E+02 5.91628E+05 1.92266E+03-2.62282E+04 3.97335E-10 4.80213E-09
 -1       193 2.87404E+02 5.91287E+05 1.44581E+03-2.39441E+04-9.57016E-10 3.22871E-09
 -1       194 8.10677E+02 5.91615E+05 2.06740E+03-2.67458E+04 4.69299E-10-3.37604E-09
 -1       195 2.30567E+03 5.91046E+05 3.67138E+03-2.37092E+04-1.38789E-09 2.87582E-09
 -1       251-2.05380E+06 1.71086E+04-1.01927E+05-1.09406E+05 6.22094E-10-6.07906E-09
 -1       252-1.83149E+06-1.97820E+04-2.36409E+04 2.97567E+05-6.51880E-10 3.68436E-09
 -1       253-1.97597E+06 8.16258E+03-2.45907E+04-1.39851E+05 5.67343E-09-9.19499E-09
 -1       254-1.66510E+06 6.95975E+03 4.56678E+04 1.84662E+05 7.73593E-09-3.53793E-09
 -1       255-2.20940E+06-2.01913E+04-6.02384E+04 3.57769E+03 7.44421E-09 3.37536E-09
 -1       256-1.62938E+06 1.62727E+04 6.21662E+04-1.16993E+05 1.44382E-09 7.90897E-09
 -1       257-2.00907E+06-3.68408E+03-1.39824E+04 1.61318E+05-2.40698E-09 6.74851E-09
 -1       258-1.83676E+06 1.40840E+04 2.31987E+04-2.72022E+05 6.75414E-10 6.40449E-09
 -1       259-2.01591E+06-4.33055E+03-1.54294E+04 1.59103E+05-1.15829E-08 1.58043E-08
 -1       260-1.62347E+06 1.63483E+04 6.33789E+04-1.10023E+05 4.77667E-09-1.34008E-09
 -1       261-2.20809E+06-1.99960E+04-5.98243E+04-1.17881E+03 4.51564E-09 7.93966E-09
 -1       262-1.67187E+06 6.80777E+03 4.45735E+04 1.90941E+05 1.54153E-08-3.55521E-09
 -1       263-1.97098E+06 8.57517E+03-2.30445E+04-1.41369E+05-1.83636E-08-2.57114E-09
 -1       264-1.82850E+06-1.87790E+04-2.18837E+04 2.96009E+05-6.83395E-08 7.19319E-09
 -1       265-2.06161E+06 1.55167E+04-1.01815E+05-1.06326E+05-2.39470E-08-3.15777E-09
 -1       266-3.27286E+04-2.41695E+05 7.58889E+04-8.77592E+03 2.54659E-11-3.17874E-09
 -1       267 3.62985E+04-2.06628E+05 5.15208E+04 3.97466E+04 1.45519E-11-5.18966E-09
 -1       268-3.68320E+03-2.30427E+05 1.41022E+04-7.76937E+03 7.27596E-12 5.85840E-09
 -1       269-3.80469E+03-2.15810E+05 1.78175E+02 3.52512E+04-6.36646E-11 5.49062E-09
 -1       270 6.90776E+03-2.31998E+05-1.80704E+04-4.28879E+03 2.47383E-10 1.20149E-08
 -1       271-4.23201E+06-5.35422E+05-3.31605E+05-1.64164E+06-2.09911E-09-1.93540E-09
 -1       272-4.34887E+06-7.51942E+05-2.09347E+05-1.64111E+06-1.40972E-09-1.37879E-09
 -1       273-4.29165E+06-6.08824E+05-7.81906E+04-1.63051E+06-1.68865E-09 3.52884E-10
 -1       274-4.27886E+06-6.57648E+05-4.29280E+04-1.66057E+06-5.68525E-09-2.67482E-09
 -1       275-4.30002E+06-6.15066E+05-1.81752E+04-1.62778E+06-2.08593E-09-1.86537E-09
 -1       276-4.26866E+06-6.50143E+05-9.60702E+03-1.66528E+06 9.39053E-10-3.79077E-09
 -1       277-4.30194E+06-6.14786E+05-4.92661E+03-1.62651E+06-6.52562E-10 2.14936E-09
 -1       278-4.26658E+06-6.50528E+05-3.86390E+03-1.66707E+06 5.96629E-10 3.52475E-09
 -1       279-4.30228E+06-6.14460E+05-4.62378E+03-1.62616E+06 3.99410E-10 3.63798E-11
 -1       280-4.26748E+06-6.51231E+05-8.80385E+03-1.66679E+06-1.35401E-10 1.10731E-10
 -1       281-4.30105E+06-6.14181E+05-1.65031E+04-1.62675E+06-4.88399E-10-4.38558E-09
 -1       282-4.27594E+06-6.58900E+05-3.89833E+04-1.66357E+06 9.97488E-10-4.95311E-09
 -1       283-4.29383E+06-6.08132E+05-7.09318E+04-1.62881E+06 5.93445E-11 2.14277E-09
 -1       284-4.33883E+06-7.45107E+05-1.89985E+05-1.64662E+06-5.09317E-10-4.00178E-11
 -1       285-4.23997E+06-5.41284E+05-3.00924E+05-1.63863E+06-1.74259E-09-6.40284E-10
 -1       286-6.13094E+05-1.94662E+04 4.52111E+04-2.32799E+03 1.53233E-09 4.28736E-09
 -1       287-5.92888E+05 2.25494E+04 3.20519E+04 2.36518E+03 7.50106E-10 4.81577E-09
 -1       288-6.05682E+05-3.05085E+03 1.16571E+04-5.69644E+02-1.46770E-10-1.26420E-10
 -1       289-6.01613E+05 3.52852E+03 7.45930E+03-1.33283E+03-1.30456E-10-8.24684E-10
 -1       290-6.04379E+05-4.84354E+02 2.98638E+03 1.37010E+03 1.11447E-09 2.21598E-09
 -1       291-6.03308E+05 5.70240E+02 1.88539E+03-4.60333E+03 2.44646E-09 3.00861E-09
 -1       292-6.04005E+05-8.65704E+01 9.49782E+02 2.70090E+03 1.75704E-09 4.12857E-09
 -1       293-6.03725E+05 1.85676E+02 8.74546E+02-6.12665E+03 1.36714E-09 4.40728E-09
 -1       294-6.03974E+05-9.08242E+01 1.01211E+03 2.89347E+03 2.94144E-09 3.55405E-09
 -1       295-6.03371E+05 6.21817E+02 2.02747E+03-5.29736E+03 2.53775E-09-2.11060E-09
 -1       296-6.04350E+05-5.27597E+02 3.28559E+03 1.87157E+03 1.70013E-09 1.42063E-09
 -1       297-6.01493E+05 3.87296E+03 8.16774E+03-2.44621E+03 1.69473E-09 2.10275E-09
 -1       298-6.05833E+05-3.34917E+03 1.28056E+04 4.22735E+01 1.01440E-09 1.32422E-09
 -1       299-5.91787E+05 2.47655E+04 3.52056E+04 1.27100E+03-5.47288E-10-1.36106E-09
 -1       300-6.14038E+05-2.13825E+04 4.96469E+04-1.84570E+03 3.59933E-10 3.42698E-09
 -1       301 5.73245E+04 2.07246E+04 1.25574E+05-3.38981E+04 2.64481E-09 8.95614E-09
 -1       302 1.94410E+04 4.41956E+04 7.66163E+04-3.98675E+04 2.44472E-09 1.60377E-08
 -1       303 5.54407E+03 2.90657E+04 6.10057E+04-3.40079E+04 3.08637E-09 7.10293E-09
 -1       304 2.45989E+04 4.72268E+04 9.03654E+04-3.98206E+04 2.10275E-09-1.78750E-09
 -1       305 7.40749E+04 1.77234E+04 1.58954E+05-3.39020E+04 2.88856E-09 3.79032E-09
 -1       306-2.89452E+06-3.75717E+05-1.94682E+05-1.12208E+06 1.13323E-09-3.05590E-09
 -1       307-2.94536E+06-5.19809E+05-1.22782E+05-1.14164E+06 3.09228E-10-1.20963E-09
 -1       308-2.92977E+06-4.18372E+05-4.59393E+04-1.11534E+06 3.20597E-10 2.61025E-09
 -1       309-2.90432E+06-4.64793E+05-2.52123E+04-1.15351E+06-1.99179E-10-2.02999E-09
 -1       310-2.93475E+06-4.21942E+05-1.07137E+04-1.11372E+06 3.37877E-10-3.96676E-09
 -1       311-2.89854E+06-4.60300E+05-5.71534E+03-1.15627E+06 2.01362E-09-1.52954E-09
 -1       312-2.93578E+06-4.21871E+05-3.03982E+03-1.11312E+06 2.18961E-09-1.85838E-09
 -1       313-2.89768E+06-4.60207E+05-2.59501E+03-1.15693E+06 3.87598E-09-3.64457E-09
 -1       314-2.93572E+06-4.21909E+05-3.37765E+03-1.11316E+06 2.15459E-09 1.01318E-09
 -1       315-2.89880E+06-4.60263E+05-6.64468E+03-1.15605E+06-1.68984E-09-4.02724E-09
 -1       316-2.93451E+06-4.21976E+05-1.26001E+04-1.11387E+06-2.09138E-09-2.24736E-09
 -1       317-2.90554E+06-4.65694E+05-2.97475E+04-1.15296E+06-1.61890E-09 1.21145E-09
 -1       318-2.92875E+06-4.17630E+05-5.42160E+04-1.11565E+06 2.86946E-10 3.63798E-10
 -1       319-2.95372E+06-5.30988E+05-1.44960E+05-1.13939E+06-5.56156E-10-6.50653E-09
 -1       320-2.88736E+06-3.67000E+05-2.29780E+05-1.12334E+06-3.27418E-11-3.20142E-10
 -1       321-5.64591E+05-2.47491E+04 5.28934E+04 4.74078E+03-8.32415E-10 6.51198E-10
 -1       322-5.18021E+05 2.85334E+04 4.16026E+04-2.24119E+04 8.86348E-09 2.20825E-09
 -1       323-5.49270E+05-3.94799E+03 1.34969E+04 1.34578E+04-3.97961E-09 5.93627E-09
 -1       324-5.39232E+05 4.74152E+03 9.50636E+03-3.45929E+04-2.18204E-08 2.62571E-09
 -1       325-5.43971E+05-5.58903E+02 3.68893E+03 1.69269E+04 3.34371E-09 2.88719E-09
 -1       326-5.41468E+05 1.03539E+03 2.56525E+03-3.50139E+04 1.01284E-09-1.04603E-09
 -1       327-5.47060E+05-2.29614E+02 2.63718E+02 1.38791E+04-1.24365E-08 2.65902E-09
 -1       328-5.31811E+05 5.09902E+02 2.83775E+03-2.34202E+04-1.84195E-09 2.99143E-09
 -1       329-5.53071E+05-4.64851E+02-1.77815E+03 5.32771E+03 2.74849E-09 3.41232E-09
 -1       330-5.24610E+05 4.49093E+02 3.65647E+03-3.83115E+03-5.61727E-09 6.07664E-09
 -1       331-5.53850E+05-4.86550E+02-2.50572E+03-5.70367E+03-6.81098E-09-1.32823E-09
 -1       332-5.29847E+05 7.08874E+01 1.69315E+03 1.66410E+04 2.81087E-08 3.87558E-10
 -1       333-5.48106E+05 1.22648E+02-2.87996E+03-1.51384E+04 1.73317E-08-1.67347E-09
 -1       334-5.42118E+05-2.87674E+03-4.48059E+03 3.05628E+04 1.66519E-08-1.90630E-09
 -1       335-5.42182E+05 2.91899E+03-7.57892E+03-1.96347E+04-1.69469E-08-6.57565E-10
 -1       336 3.16506E+02-1.17479E+06-3.00684E+03-5.60933E+03-1.80921E-09 3.76394E-09
 -1       337-1.44113E+03-1.17613E+06-6.38053E+03-3.00561E+04-1.29933E-09 8.59472E-10
 -1       338 1.06398E+03-1.17419E+06-1.11183E+04-5.39906E+03-2.11230E-09-5.27848E-09
 -1       339-1.32721E+04-1.18322E+06-2.73867E+04-3.03074E+04-1.08275E-09 1.85469E-09
 -1       340 9.88990E+03-1.16778E+06-4.27215E+04-5.36361E+03-1.47884E-09 2.51055E-09
 -1       341-1.53096E+06-2.57566E+05-6.36159E+04-6.50625E+05-2.65609E-08 2.98314E-09
 -1       342-1.59848E+06-9.16561E+04-1.63770E+04-3.97132E+05-5.35301E-08-5.42150E-09
 -1       343-1.47597E+06-2.73319E+05-1.39196E+04-6.49841E+05 1.70548E-08 5.77438E-09
 -1       344-1.46752E+06-1.11351E+05 2.53326E+04-4.27978E+05 3.07914E-08 1.13823E-09
 -1       345-1.65804E+06-2.41664E+05-3.35838E+04-6.16389E+05 1.36151E-09-3.37059E-09
 -1       346-1.31629E+06-2.36376E+05 3.47834E+04-5.74677E+05-2.50802E-08-9.20602E-09
 -1       347-1.62609E+06-1.49366E+05-7.76532E+03-5.02422E+05-4.23156E-08 2.09174E-08
 -1       348-1.34877E+06-3.20067E+05 1.26134E+04-6.88328E+05 3.59968E-08 3.73321E-08
 -1       349-1.63078E+06-1.52825E+05-1.04175E+04-5.07027E+05 2.54399E-08 1.43114E-08
 -1       350-1.31786E+06-2.30669E+05 3.27806E+04-5.65495E+05-3.14278E-08-1.14956E-08
 -1       351-1.65151E+06-2.44186E+05-3.88991E+04-6.20728E+05-5.74119E-09 6.04996E-09
 -1       352-1.48480E+06-1.15462E+05 8.11829E+03-4.22727E+05 1.33537E-09 7.73525E-10
 -1       353-1.46558E+06-2.66359E+05-3.78569E+04-6.51052E+05 1.63482E-09 1.00226E-09
 -1       354-1.62387E+06-1.45631E+05-9.00147E+04-3.88253E+05 4.10255E-08 7.89623E-09
 -1       355-1.51587E+06-2.10777E+05-1.72685E+05-6.58150E+05 1.34241E-08-5.63159E-09
 -1       356-5.66405E+05 3.78336E+03-9.76148E+03-2.18932E+04-3.20404E-09 7.56700E-10
 -1       357-5.68901E+05-3.76563E+03-6.28443E+03 3.68240E+04-3.87719E-08 3.38832E-09
 -1       358-5.71873E+05 2.87001E+02-3.28384E+03-1.86107E+04-1.59896E-08-2.37435E-09
 -1       359-5.54874E+05 4.49844E+01 1.26632E+03 2.37926E+04 6.31167E-09-2.15502E-09
 -1       360-5.79750E+05-5.46145E+02-3.03841E+03-8.84859E+03 6.41921E-09-4.67585E-09
 -1       361-5.45434E+05 5.39039E+02 4.04287E+03 1.31975E+03 6.32826E-09-2.11067E-11
 -1       362-5.80806E+05-5.97573E+02-3.06797E+03 3.85808E+03-4.68003E-09-3.51902E-09
 -1       363-5.51713E+05 3.67802E+02 2.41716E+03-2.21394E+04 4.53792E-09-3.58932E-09
 -1       364-5.73825E+05-1.01237E+02-2.74432E+03 1.45998E+04 2.00274E-08 4.08318E-09
 -1       365-5.65318E+05-7.03071E+02-2.92991E+03-3.76482E+04-3.20838E-08-1.08912E-09
 -1       366-5.67936E+05 1.03972E+03-6.49319E+03 1.93731E+04 2.31843E-08 4.28872E-09
 -1       367-5.70585E+05-7.13119E+03-1.56427E+04-3.95729E+04 3.42210E-08 4.05885E-09
 -1       368-5.68682E+05 6.40825E+03-2.64401E+04 1.65266E+04 9.12121E-09 4.17458E-09
 -1       369-5.77915E+05-4.82063E+04-6.73996E+04-2.70555E+04 2.47079E-08 8.04084E-09
 -1       370-5.59954E+05 4.15341E+04-1.02017E+05 6.84728E+03 9.85392E-09-1.60071E-10
 -1       371-1.46103E+04-2.05614E+05 1.71355E+04-1.64349E+04 2.72157E-08 7.70342E-10
 -1       372 1.30367E+04-1.21458E+05 2.24432E+04 8.24249E+04-2.27692E-09-2.79613E-09
 -1       373 5.27392E+02-1.70459E+05-4.73027E+02-2.08251E+04-3.98086E-09 1.55569E-09
 -1       374-1.05926E+04-1.64238E+05-1.22849E+04 8.69796E+04-1.57725E-08-3.06409E-09
 -1       375 1.02747E+04-1.64615E+05-2.42215E+04-2.09736E+04-6.25732E-09-2.69631E-09
 -1       376-5.66658E+05-1.02930E+05-2.09811E+04-2.49986E+05 7.38887E-08-8.50832E-09
 -1       377-6.20521E+05-3.29966E+04-8.04952E+03-1.54011E+05 5.65953E-08 1.25256E-08
 -1       378-5.47130E+05-1.08735E+05-3.64975E+03-2.49115E+05-5.31012E-08 1.82572E-08
 -1       379-6.06254E+05-2.98016E+04 2.33778E+03-1.55111E+05-5.26861E-08-1.34942E-08
 -1       380-5.80560E+05-1.06382E+05-6.43828E+03-2.48591E+05-6.99856E-09 6.19684E-09
 -1       381-5.28163E+05-4.70964E+04 1.55222E+04-1.66201E+05 1.06729E-08 5.31327E-09
 -1       382-6.22971E+05-9.30937E+04-1.15560E+04-2.36256E+05 1.56911E-08-1.85389E-09
 -1       383-4.83885E+05-8.35750E+04 1.69793E+04-2.06541E+05 2.02654E-08 9.42634E-10
 -1       384-6.24478E+05-7.01828E+04-8.05077E+03-2.08080E+05-4.26371E-08 6.44712E-09
 -1       385-5.04063E+05-1.21819E+05 4.05842E+03-2.58388E+05-5.81966E-08 1.61481E-09
 -1       386-6.04992E+05-5.32226E+04-4.60231E+03-1.86062E+05 3.30635E-08 2.35441E-08
 -1       387-5.20768E+05-1.37952E+05-1.01000E+04-2.74276E+05 4.22115E-08 1.47049E-08
 -1       388-6.08764E+05-5.33231E+04-2.17174E+04-1.92888E+05 1.16102E-07 1.13550E-08
 -1       389-5.13497E+05-1.45385E+05-4.50940E+04-2.32678E+05 1.04766E-07-8.40373E-10
 -1       390-6.10324E+05-4.72894E+04-9.33947E+04-2.26246E+05 6.78847E-09-1.89175E-10
 -1       406 1.83274E+03 5.82273E+05 3.66438E+03-6.35226E+04-1.93177E-09-3.00315E-09
 -1       407 1.10540E+03 5.82901E+05 4.05249E+03-6.99087E+04 7.42602E-10-4.44606E-09
 -1       408 1.57988E+03 5.82172E+05 6.34249E+03-6.33160E+04-2.23372E-09 4.50200E-10
 -1       409 6.15386E+03 5.84578E+05 1.34060E+04-7.01782E+04 1.54614E-10 4.20687E-09
 -1       410 1.76498E+04 5.80440E+05 2.69125E+04-6.32305E+04-2.70848E-09 4.53838E-09
 -1       466 1.39428E+06-5.62565E+04 1.23368E+05 3.74729E+04-4.98858E-10-1.18234E-08
 -1       467 1.48991E+06 6.39345E+04 9.42927E+04-6.02812E+04-9.32687E-10 1.62709E-09
 -1       468 1.43233E+06-8.14255E+03 3.26936E+04 1.03489E+04-1.39380E-09-2.97041E-09
 -1       469 1.44567E+06 9.31236E+03 2.11166E+04-2.38060E+04-2.18270E-09-1.26010E-09
 -1       470 1.43765E+06-1.19552E+03 8.64867E+03 9.90064E+02-2.17426E-10 2.13049E-09
 -1       471 1.43952E+06 1.45421E+03 5.43885E+03-1.12671E+04 8.35385E-10 3.75258E-09
 -1       472 1.43838E+06-2.30364E+02 3.18908E+03-2.19027E+03 1.10361E-10 7.07701E-11
 -1       473 1.43886E+06 6.91538E+02 3.50294E+03-7.25875E+03-1.22341E-10-3.13405E-09
 -1       474 1.43829E+06-4.25735E+02 4.78779E+03-3.01830E+03-1.11739E-09 5.00449E-09
 -1       475 1.44012E+06 3.11211E+03 1.00494E+04-6.96324E+03-1.12024E-10-2.13549E-09
 -1       476 1.43712E+06-2.64688E+03 1.69912E+04-2.48575E+03 2.65774E-09 2.60843E-09
 -1       477 1.44844E+06 1.98049E+04 4.15582E+04-1.00312E+04 8.00071E-11-1.52841E-09
 -1       478 1.42996E+06-1.70941E+04 6.61765E+04 4.98170E+01 1.31848E-10 3.37604E-09
 -1       479 1.49960E+06 1.27234E+05 1.80883E+05-2.03914E+04 3.18613E-09 1.85537E-10
 -1       480 1.38598E+06-1.09896E+05 2.55370E+05 7.87347E+03 3.96756E-09 1.33878E-09
 -1       481-1.33712E+04 2.79565E+05 2.35421E+04-1.86555E+04-7.09406E-11-2.26623E-09
 -1       482 1.47575E+04 3.29854E+05 2.44538E+04 5.84998E+04-3.09228E-10 8.28669E-09
 -1       483-2.04399E+03 2.99274E+05 8.79659E+03-1.31300E+04 3.50155E-11 1.80057E-09
 -1       484 6.04847E+03 3.08461E+05 1.09315E+04 5.22833E+04 3.72751E-11-6.35680E-10
 -1       485-4.04511E+03 3.00033E+05 1.02746E+04-1.24289E+04 7.54881E-11-5.05963E-10
 -1       486-1.30687E+06-2.40103E+05-1.48171E+05-6.33716E+05-9.14224E-09-1.69894E-08
 -1       487-1.43293E+06-1.77333E+04-5.49586E+04-2.20689E+05 1.62345E-10 4.17085E-08
 -1       488-1.31401E+06-2.74157E+05-4.48064E+04-6.26239E+05 1.42984E-09-5.06952E-09
 -1       489-1.07322E+06-2.61973E+04 6.64140E+04-2.48010E+05 4.29486E-09-3.08000E-09
 -1       490-1.65446E+06-2.42902E+05-7.95768E+04-5.95963E+05-5.97538E-10 3.27782E-09
 -1       491-8.77355E+05-2.04455E+05 8.17468E+04-4.67512E+05-1.92003E-08 2.54329E-08
 -1       492-1.50907E+06-9.66489E+04-1.77143E+04-4.07019E+05 1.88265E-09-1.12004E-08
 -1       493-1.03730E+06-3.39137E+05 2.70216E+04-6.67384E+05-2.62759E-09 6.06292E-09
 -1       494-1.50751E+06-9.60004E+04-1.71162E+04-4.06088E+05 7.84030E-09 1.12798E-08
 -1       495-8.78742E+05-2.05610E+05 8.16990E+04-4.69523E+05 2.12758E-08-4.30689E-08
 -1       496-1.65472E+06-2.42315E+05-7.85493E+04-5.94953E+05-6.15091E-09-1.02018E-08
 -1       497-1.07043E+06-2.56719E+04 6.91297E+04-2.49017E+05-3.68505E-09-8.81164E-09
 -1       498-1.31645E+06-2.75348E+05-4.11749E+04-6.26171E+05 1.50095E-09-2.38397E-08
 -1       499-1.42822E+06-9.36559E+03-4.31725E+04-2.22268E+05-1.91699E-08-4.02606E-08
 -1       500-1.30914E+06-2.47267E+05-1.30775E+05-6.32209E+05-3.65872E-08 2.52985E-08
 -1       501-7.63703E+05-2.66160E+04 6.17929E+04-2.85027E+03 5.42798E-10-3.40515E-09
 -1       502-7.35875E+05 3.08338E+04 4.38372E+04 2.99770E+03 3.79558E-10 3.00815E-09
 -1       503-7.53594E+05-4.17734E+03 1.58985E+04 1.95168E+01-1.99861E-10 1.20053E-09
 -1       504-7.47903E+05 4.82872E+03 1.01696E+04-2.79864E+03-1.41722E-09-3.09751E-09
 -1       505-7.51698E+05-6.60639E+02 4.01295E+03 2.94613E+03 1.99708E-09 1.04183E-09
 -1       506-7.50386E+05 7.65826E+02 2.40043E+03-7.25579E+03 3.77077E-09 4.64479E-09
 -1       507-7.51144E+05-9.89817E+01 1.01263E+03 4.47677E+03 3.72279E-09 3.35001E-09
 -1       508-7.50881E+05 1.28213E+02 5.50324E+02-8.17561E+03 1.97877E-09-3.18454E-09
 -1       509-7.51213E+05-1.68958E+01 1.72422E+02 3.86599E+03 2.09386E-09 1.25127E-09
 -1       510-7.50509E+05-1.67860E+00 1.02764E+02-5.10805E+03 2.39994E-09 2.09829E-09
 -1       511-7.51492E+05 1.04564E+01-2.65983E+02 1.40909E+03 6.07713E-10-9.41526E-10
 -1       512-7.50346E+05-2.54643E+02-4.01466E+02 4.62235E+02 1.89083E-09-5.37817E-10
 -1       513-7.51360E+05 2.22574E+02-1.01988E+03-1.70435E+03 1.03427E-10 3.99336E-09
 -1       514-7.51426E+05-1.80438E+03-2.50432E+03 5.83848E+03-3.78805E-10 4.77485E-10
 -1       515-7.50434E+05 1.57378E+03-3.70428E+03-3.96721E+03-8.30681E-10-2.40198E-09
 -1       516-6.80562E+04 3.00039E+05 1.59912E+05-1.16952E+04-7.20320E-10 3.81078E-09
 -1       517 8.14998E+04 3.73166E+05 1.18724E+05 4.76554E+04-1.00954E-09 4.39860E-09
 -1       518-1.33767E+04 3.23353E+05 5.19081E+04-1.24801E+04-3.38332E-10 4.18277E-09
 -1       519 3.61009E+04 3.68028E+05 6.13457E+04 5.43555E+04-2.70319E-09-8.26617E-10
 -1       520-2.33241E+04 3.06001E+05 5.18233E+04-1.84052E+04-1.43700E-09-1.30740E-08
 -1       521-4.08975E+06-5.23509E+05-2.85793E+05-1.58046E+06 5.82077E-10 4.36557E-11
 -1       522-4.18077E+06-7.19558E+05-1.80375E+05-1.59101E+06-1.01340E-09 1.72622E-09
 -1       523-4.14125E+06-5.86565E+05-6.73769E+04-1.57073E+06-9.18789E-10 8.11269E-10
 -1       524-4.12052E+06-6.38357E+05-3.69980E+04-1.60792E+06-8.25821E-10-3.18323E-09
 -1       525-4.14842E+06-5.91990E+05-1.56600E+04-1.56846E+06-2.02363E-10-3.53884E-09
 -1       526-4.11206E+06-6.31567E+05-8.30215E+03-1.61163E+06 3.38673E-09-9.06084E-10
 -1       527-4.14981E+06-5.92012E+05-4.28129E+03-1.56765E+06 2.09548E-09-8.78799E-11
 -1       528-4.11089E+06-6.31248E+05-3.42590E+03-1.61236E+06 1.23509E-09 1.73441E-09
 -1       529-4.14966E+06-5.92174E+05-4.18584E+03-1.56782E+06 2.23645E-09 8.80846E-10
 -1       530-4.11254E+06-6.30971E+05-8.02222E+03-1.61092E+06-5.52518E-10-2.99951E-09
 -1       531-4.14799E+06-5.92483E+05-1.51091E+04-1.56893E+06-1.89129E-09-2.23736E-09
 -1       532-4.12124E+06-6.36903E+05-3.56356E+04-1.60660E+06 5.51609E-10 1.76351E-09
 -1       533-4.14077E+06-5.87588E+05-6.49134E+04-1.57147E+06 1.82752E-09 4.65661E-10
 -1       534-4.17987E+06-7.14478E+05-1.73712E+05-1.58957E+06 1.42245E-09-2.04454E-09
 -1       535-4.09085E+06-5.27185E+05-2.75276E+05-1.58119E+06-9.02219E-10 1.57161E-09
 -1       536 6.35603E+04-1.67967E+04 7.18954E+04-1.01346E+04 1.01682E-09 3.02316E-09
 -1       537 8.99813E+04 2.23870E+04 4.61030E+04-3.96356E+04-3.66208E-09 4.50382E-09
 -1       538 7.43567E+04-1.82711E+03 1.85925E+04-1.00302E+04 6.63931E-11 1.25510E-10
 -1       539 7.76234E+04 2.11856E+03 1.04028E+04-3.97152E+04 2.14277E-09-8.90623E-10
 -1       540 7.55423E+04-2.42591E+02 4.67784E+03-1.00454E+04-1.91903E-10-3.44335E-09
 -1       541 7.60398E+04 1.88691E+02 2.47612E+03-3.96803E+04-4.88853E-10-1.44223E-09
 -1       542 7.56722E+04-3.73805E+01 1.15356E+03-1.00655E+04-1.19144E-10-2.82023E-09
 -1       543 7.57328E+04 4.12771E+01 5.78339E+02-3.96496E+04 1.13869E-09-4.19232E-09
 -1       544 7.56826E+04 5.53124E+00 2.34780E+02-1.00762E+04 2.72257E-09-2.54749E-09
 -1       545 7.56457E+04 3.26268E+01 2.81117E+01-3.96373E+04 3.13267E-09 3.23553E-10
 -1       546 7.56931E+04 1.92462E+01-1.60323E+02-1.00778E+04 2.47746E-09 2.78635E-09
 -1       547 7.55957E+04-7.86863E+01-4.78351E+02-3.96381E+04 9.45874E-10-3.78236E-09
 -1       548 7.57669E+04 7.80746E+01-9.17304E+02-1.00754E+04-1.01545E-09-1.44689E-09
 -1       549 7.50928E+04-1.12767E+03-2.28285E+03-3.95786E+04-2.51475E-10 1.52545E-09
 -1       550 7.63308E+04 7.78150E+02-3.60896E+03-1.01372E+04-2.04636E-10-3.74462E-09
 -1       551 1.96441E+04-3.90236E+05 3.85148E+04-5.89661E+05 4.60932E-09 2.15368E-09
 -1       552 1.11488E+04-3.84601E+05 3.03361E+04-6.90054E+05 3.64889E-09 4.55839E-09
 -1       553 7.71879E+03-3.90253E+05 3.51029E+04-5.88668E+05 5.02405E-09-8.66748E-10
 -1       554 2.46949E+04-3.77269E+05 6.57871E+04-6.90213E+05 4.85306E-09 2.09457E-09
 -1       555 6.32550E+04-3.98750E+05 1.24589E+05-5.89332E+05 4.18368E-09-3.79805E-09
 -1       556-2.94884E+05-1.53260E+05 2.42930E+04-2.73982E+05 4.04543E-09 5.42059E-09
 -1       557-2.72160E+05-1.77923E+05 1.19773E+04-2.91814E+05 7.38510E-10 5.70662E-09
 -1       558-2.95792E+05-1.61182E+05 4.99400E+03-2.69360E+05-1.25874E-09 1.40972E-09
 -1       559-2.74836E+05-1.81785E+05 2.46827E+03-2.92965E+05 1.15324E-09 6.50971E-10
 -1       560-2.96404E+05-1.61068E+05 1.07466E+03-2.69519E+05 1.49157E-10-1.74623E-10
 -1       561-2.75626E+05-1.81716E+05 5.16027E+02-2.93529E+05 1.74623E-10-2.18182E-09
 -1       562-2.96857E+05-1.60781E+05 1.68413E+02-2.69816E+05-2.80124E-10 1.60526E-09
 -1       563-2.76065E+05-1.81528E+05-2.66366E+01-2.93840E+05 1.08048E-09-3.03407E-09
 -1       564-2.97108E+05-1.60611E+05-2.70601E+02-2.69990E+05 9.02219E-10-2.88128E-09
 -1       565-2.76289E+05-1.81440E+05-6.76069E+02-2.93983E+05 7.23048E-10-1.07684E-09
 -1       566-2.97128E+05-1.60553E+05-1.45054E+03-2.70028E+05 9.73159E-10 5.54792E-10
 -1       567-2.76523E+05-1.81604E+05-3.21100E+03-2.93937E+05-7.98309E-10-1.44792E-09
 -1       568-2.96801E+05-1.61100E+05-6.61652E+03-2.69720E+05-5.36602E-10 1.64619E-09
 -1       569-2.79952E+05-1.85714E+05-1.56043E+04-2.92797E+05-7.16682E-10-1.85173E-09
 -1       570-2.95258E+05-1.73383E+05-3.18828E+04-2.64435E+05-3.13230E-09-9.61063E-09
 -1       571 3.73541E+05 1.81226E+04 2.78633E+04-9.72909E+04 2.56478E-10 4.18368E-10
 -1       572 3.77783E+05 6.16288E+03 1.36894E+04-1.07256E+05 1.26602E-09-1.25783E-09
 -1       573 3.75216E+05 1.36306E+03 6.09075E+03-9.70195E+04 8.71296E-10 1.09139E-09
 -1       574 3.75699E+05 4.20102E+02 3.06004E+03-1.07546E+05 1.05501E-10 3.05681E-09
 -1       575 3.75373E+05 3.17802E+01 1.44824E+03-9.69861E+04-4.16549E-10 1.23691E-09
 -1       576 3.75415E+05-5.62347E-01 7.41399E+02-1.07583E+05 7.77391E-10-3.11957E-10
 -1       577 3.75397E+05-2.57704E+01 3.71179E+02-9.69819E+04 1.73372E-09 1.77079E-09
 -1       578 3.75399E+05-2.37337E+01 2.13155E+02-1.07588E+05-1.04592E-10-4.06180E-09
 -1       579 3.75446E+05-4.23502E+01 1.48510E+02-9.69813E+04-9.97716E-10-2.07910E-09
 -1       580 3.75477E+05-5.82459E+01 1.69472E+02-1.07584E+05 6.69388E-10-7.34872E-10
 -1       581 3.75540E+05-8.46661E+01 2.61471E+02-9.69860E+04 1.03682E-10 1.44246E-09
 -1       582 3.75654E+05-5.64642E+01 5.22662E+02-1.07528E+05-6.17547E-10-4.76575E-10
 -1       583 3.75652E+05 5.77517E+01 1.01343E+03-9.70373E+04-3.27418E-11-2.92039E-09
 -1       584 3.76177E+05 8.15143E+02 2.27842E+03-1.07080E+05-3.09774E-09 2.26464E-09
 -1       585 3.75534E+05 2.77318E+03 4.61754E+03-9.74387E+04-2.58296E-10 4.55839E-09
 -1       586 3.36697E+03 1.57363E+05 5.78876E+03-2.43470E+05 6.91216E-10 3.82261E-09
 -1       587 1.96023E+03 1.58248E+05 5.47411E+03-2.69145E+05 9.13133E-10 7.82165E-11
 -1       588 2.21802E+03 1.57206E+05 7.70920E+03-2.43159E+05 6.20275E-10 1.41176E-09
 -1       589 7.50474E+03 1.60091E+05 1.57479E+04-2.69220E+05 9.93168E-10-5.63705E-09
 -1       590 2.07406E+04 1.55353E+05 3.13257E+04-2.43382E+05 8.21274E-10-1.80080E-10
 -1       591-1.73165E+05-5.98576E+04-3.29721E+04-8.97058E+04 3.34921E-09-4.88944E-09
 -1       592-1.74155E+05-5.57749E+04-1.61627E+04-9.95334E+04 5.71117E-09-8.15658E-09
 -1       593-1.74126E+05-4.75880E+04-6.85727E+03-9.53131E+04 2.68665E-09-3.32420E-10
 -1       594-1.70646E+05-5.13069E+04-3.35393E+03-1.00147E+05-1.44769E-09 2.19201E-09
 -1       595-1.74291E+05-4.71276E+04-1.54442E+03-9.55694E+04-4.27553E-09-2.50452E-10
 -1       596-1.70385E+05-5.11275E+04-7.84282E+02-1.00130E+05-3.22598E-09 1.10010E-08
 -1       597-1.74323E+05-4.71489E+04-4.29417E+02-9.55724E+04-2.72939E-09-6.12999E-10
 -1       598-1.70358E+05-5.11299E+04-3.48122E+02-1.00118E+05 1.14483E-10-2.59615E-09
 -1       599-1.74317E+05-4.71508E+04-4.47955E+02-9.55697E+04 2.57728E-09 9.33460E-09
 -1       600-1.70378E+05-5.11315E+04-8.33217E+02-1.00123E+05-1.91631E-09 2.27828E-09
 -1       601-1.74272E+05-4.71325E+04-1.64803E+03-9.55607E+04-1.69211E-09 1.47702E-09
 -1       602-1.70652E+05-5.13241E+04-3.58323E+03-1.00131E+05 2.80670E-09 6.42740E-09
 -1       603-1.74086E+05-4.76332E+04-7.32755E+03-9.52851E+04 1.51249E-09-1.48430E-09
 -1       604-1.74420E+05-5.60703E+04-1.72695E+04-9.94334E+04 5.44424E-09 2.36696E-09
 -1       605-1.73023E+05-6.07658E+04-3.52291E+04-8.93168E+04 3.17596E-09-6.28461E-10
 -1       606 1.20096E+05-1.49037E+04-2.28452E+04 3.47953E+04-8.40919E-09 1.51340E-09
 -1       607 1.16539E+05-5.06731E+03-1.12183E+04 3.79868E+04-2.07001E-09 3.42084E-09
 -1       608 1.18604E+05-1.11606E+03-4.99253E+03 3.45566E+04 5.52609E-09 3.54476E-10
 -1       609 1.18124E+05-3.01781E+02-2.50209E+03 3.82429E+04-2.47383E-09-8.67203E-10
 -1       610 1.18389E+05 2.46015E+01-1.18171E+03 3.45262E+04-7.55244E-09-2.11139E-09
 -1       611 1.18288E+05 8.00264E+01-5.94770E+02 3.82748E+04-1.37961E-08-3.52702E-09
 -1       612 1.18331E+05 9.33016E+01-2.83637E+02 3.45228E+04-5.79985E-09 2.67391E-10
 -1       613 1.18287E+05 1.05634E+02-1.31617E+02 3.82786E+04-8.50741E-09 2.24236E-09
 -1       614 1.18300E+05 9.72879E+01-4.15961E+01 3.45221E+04-1.48430E-09 1.56024E-09
 -1       615 1.18271E+05 1.14246E+02 2.80660E+01 3.82787E+04 7.23048E-09 6.38465E-10
 -1       616 1.18277E+05 1.09250E+02 1.09452E+02 3.45226E+04-4.47835E-09 2.11048E-09
 -1       617 1.18277E+05 1.60524E+02 2.61654E+02 3.82773E+04 2.38879E-09 6.65341E-09
 -1       618 1.18246E+05 2.36181E+02 5.35010E+02 3.45231E+04 1.20826E-09 3.16277E-09
 -1       619 1.18444E+05 6.78234E+02 1.21066E+03 3.82721E+04 2.13367E-09-6.35737E-10
 -1       620 1.18083E+05 1.72841E+03 2.46825E+03 3.45242E+04 1.09765E-09-1.49157E-10
 -1       621 2.92063E+03 3.88913E+05 7.08475E+03-3.30742E+04 3.28737E-09 2.06410E-09
 -1       622 1.13653E+03 3.90252E+05 5.84769E+03-3.88565E+04 1.22941E-09-1.70735E-09
 -1       623 6.77552E+02 3.89218E+05 7.17900E+03-3.31224E+04 3.00588E-09 2.41016E-09
 -1       624 4.11092E+03 3.92029E+05 1.38042E+04-3.86652E+04 9.95669E-10-1.93404E-09
 -1       625 1.25867E+04 3.87203E+05 2.63841E+04-3.32606E+04 2.76395E-09 4.04725E-10
 -1       626 1.71794E+05 5.58942E+04-9.97985E+03 1.16219E+05-3.67618E-09 4.27463E-10
 -1       627 1.67113E+05 6.29969E+04-4.73342E+03 1.18377E+05-1.01682E-09 6.03995E-09
 -1       628 1.71990E+05 6.08000E+04-1.98992E+03 1.13816E+05-2.44654E-09 3.02316E-09
 -1       629 1.67834E+05 6.50252E+04-9.54335E+02 1.18185E+05-3.56522E-09-1.32871E-10
 -1       630 1.71951E+05 6.11451E+04-4.21645E+02 1.13610E+05-9.05402E-09 1.32513E-09
 -1       631 1.67868E+05 6.51807E+04-1.88342E+02 1.18172E+05-2.23226E-08-4.52604E-09
 -1       632 1.71917E+05 6.11634E+04-5.29109E+01 1.13584E+05-1.27093E-08-1.84718E-09
 -1       633 1.67858E+05 6.51929E+04 4.66259E+01 1.18166E+05-5.78984E-09-2.47599E-09
 -1       634 1.71894E+05 6.11583E+04 1.69495E+02 1.13576E+05 7.76254E-10 9.09495E-12
 -1       635 1.67873E+05 6.51994E+04 4.04175E+02 1.18166E+05-4.35421E-09 9.95897E-10
 -1       636 1.71874E+05 6.11767E+04 8.47007E+02 1.13562E+05-1.31415E-08-8.09450E-09
 -1       637 1.68076E+05 6.54263E+04 1.89544E+03 1.18133E+05-9.78531E-09 7.06223E-10
 -1       638 1.71833E+05 6.18615E+04 3.92889E+03 1.13264E+05 1.12209E-08 2.73112E-08
 -1       639 1.70084E+05 6.89119E+04 9.34925E+03 1.17284E+05-1.05695E-08-1.99361E-09
 -1       640 1.71931E+05 7.19449E+04 1.97042E+04 1.09067E+05-3.41015E-09-9.82254E-11
 -1       641 5.17717E+03 3.48488E+03-8.11359E+03-1.98648E+02-9.04689E-09-2.57933E-09
 -1       642 1.70340E+03-4.03368E+03-5.72230E+03 8.66302E+02 5.59851E-09-4.04441E-09
 -1       643 3.83102E+03 5.42724E+02-2.09264E+03-1.93944E+02-1.91455E-08-1.29967E-09
 -1       644 3.26654E+03-6.24405E+02-1.29573E+03 8.59522E+02 4.28831E-09-6.67342E-10
 -1       645 3.61306E+03 8.24482E+01-5.00915E+02-1.91881E+02-1.01412E-08 3.44642E-10
 -1       646 3.52343E+03-8.46237E+01-2.36152E+02 8.56494E+02-3.67262E-07-2.81321E-09
 -1       647 3.57363E+03 4.18973E+00 2.27368E+00-1.90921E+02-4.82436E-05 1.19939E-07
 -1       648 3.59555E+03 4.97680E+01 2.27032E+02 8.55510E+02-9.58683E-05 2.40318E-07
 -1       649 3.54079E+03-5.16568E+01 5.13112E+02-1.90897E+02-4.82380E-05 1.18163E-07
 -1       650 3.78440E+03 3.97677E+02 1.23953E+03 8.56053E+02-3.41127E-07 4.93344E-10
 -1       651 3.38496E+03-3.43337E+02 2.15998E+03-1.91464E+02-7.49138E-09 3.68345E-11
 -1       652 4.85019E+03 2.55774E+03 5.33691E+03 8.56738E+02 9.46716E-09 2.12560E-09
 -1       653 2.47556E+03-2.20839E+03 8.51470E+03-1.91588E+02-7.32050E-09-8.23911E-09
 -1       654 1.12673E+04 1.63931E+04 2.32631E+04 8.51131E+02 1.46082E-08-1.99952E-09
 -1       655-3.02978E+03-1.41536E+04 3.29148E+04-1.85894E+02 6.81565E-09-4.72573E-09
 -1       656 1.16958E+04-4.47438E+05-5.27509E+04 1.26578E+04 1.59125E-08 1.91858E-09
 -1       657-1.73789E+04-4.66613E+05-3.84327E+04 4.77554E+04 8.48058E-09 1.21692E-08
 -1       658 2.23625E+03-4.54293E+05-2.44422E+04 1.25361E+04 1.05765E-08 3.78043E-09
 -1       659-1.58743E+04-4.65773E+05-3.57926E+04 4.78403E+04 1.04556E-08 5.33849E-10
 -1       660 1.05219E+04-4.48339E+05-4.77450E+04 1.25746E+04 1.02518E-08-6.51426E-10
 -1       661 4.36922E+05 5.60848E+04 3.58364E+04 1.71176E+05-4.39741E-10-3.71256E-09
 -1       662 4.45260E+05 8.37722E+04 2.26194E+04 1.76128E+05-6.10993E-09 4.44243E-09
 -1       663 4.43076E+05 6.42834E+04 8.46292E+03 1.70318E+05-8.93408E-10 4.32010E-11
 -1       664 4.38188E+05 7.31203E+04 4.66204E+03 1.77605E+05-1.42300E-08 1.47236E-09
 -1       665 4.43757E+05 6.51899E+04 1.98496E+03 1.70274E+05-1.19682E-08 3.65048E-10
 -1       666 4.37405E+05 7.19722E+04 1.07917E+03 1.77683E+05-1.08969E-08-2.39129E-09
 -1       667 4.43828E+05 6.53001E+04 6.03200E+02 1.70285E+05 6.00789E-09 4.19130E-09
 -1       668 4.37336E+05 7.18620E+04 5.68046E+02 1.77674E+05-1.04822E-08-3.77652E-09
 -1       669 4.43821E+05 6.52930E+04 7.97195E+02 1.70284E+05-3.80027E-10 3.74257E-10
 -1       670 4.37471E+05 7.20475E+04 1.61679E+03 1.77683E+05 2.13442E-08 1.21497E-09
 -1       671 4.43700E+05 6.51260E+04 3.07264E+03 1.70273E+05 8.51998E-09-6.61180E-09
 -1       672 4.38715E+05 7.38279E+04 7.27833E+03 1.77538E+05 1.01857E-08-1.49976E-09
 -1       673 4.42618E+05 6.37212E+04 1.32341E+04 1.70356E+05-3.84347E-10-4.09455E-09
 -1       674 4.49800E+05 9.04727E+04 3.53874E+04 1.75196E+05-6.98969E-09-4.76575E-09
 -1       675 4.32977E+05 5.09082E+04 5.60738E+04 1.71708E+05-7.62248E-09-1.84809E-09
 -1       676 1.17767E+03-4.20688E+05-6.13108E+03 5.74677E+02 1.24362E-08-3.48792E-09
 -1       677-2.32109E+03-4.23030E+05-6.63529E+03 2.48184E+02 2.17615E-09 1.20230E-09
 -1       678 7.27892E+02-4.20969E+05-7.86210E+03 5.73489E+02 1.11731E-08-3.44095E-10
 -1       679-8.30092E+03-4.26584E+05-1.72413E+04 2.47479E+02 6.21185E-10-8.43698E-11
 -1       680 5.99582E+03-4.17136E+05-2.61913E+04 5.73523E+02 1.49284E-08 1.06951E-10
 -1       681 6.23776E+05-1.66055E+04 3.79558E+04 4.62403E+03 1.52681E-10 9.67702E-10
 -1       682 6.43431E+05 1.91835E+04 2.74027E+04-1.53286E+04 3.46361E-10 3.83352E-10
 -1       683 6.31294E+05-2.55903E+03 9.86729E+03 1.04218E+03-5.59339E-11 2.21189E-09
 -1       684 6.34541E+05 2.98464E+03 6.30192E+03-1.02273E+04-7.89797E-10 3.53793E-09
 -1       685 6.32599E+05-3.88168E+02 2.59656E+03-4.77191E+02-6.43269E-10 3.15299E-09
 -1       686 6.33028E+05 4.96331E+02 1.62416E+03-8.49541E+03 3.32902E-10 3.47430E-09
 -1       687 6.32792E+05-6.42668E+01 9.47715E+02-6.89719E+02 3.39519E-10 1.12183E-09
 -1       688 6.33004E+05 1.95770E+02 1.04189E+03-9.27517E+03-1.12891E-09 2.85536E-09
 -1       689 6.32631E+05-9.25648E+01 1.37013E+03 3.02542E+02-2.44657E-09 2.77851E-09
 -1       690 6.34150E+05 7.76006E+02 3.05247E+03-1.29373E+04-1.06866E-10 3.94544E-09
 -1       691 6.31690E+05-6.72811E+02 4.79116E+03 2.97235E+03-1.92284E-09 1.05342E-09
 -1       692 6.39811E+05 5.39890E+03 1.27591E+04-2.12294E+04 3.13719E-10 3.18619E-09
 -1       693 6.27142E+05-4.82320E+03 1.85611E+04 8.59533E+03-3.82784E-09-2.24281E-09
 -1       694 6.67904E+05 3.73841E+04 5.58826E+04-3.83092E+04-1.26784E-08-2.14004E-09
 -1       695 6.04270E+05-3.30441E+04 7.11711E+04 2.00608E+04-7.82325E-09-9.43328E-09
 -1       696-1.27219E+04 5.33383E+05 2.90338E+04-6.82148E+02-2.18461E-09-1.20109E-06
 -1       697 1.34939E+04 5.45517E+05 1.82311E+04-2.47379E+03-4.43970E-09-2.37444E-06
 -1       698-7.38192E+02 5.38934E+05 2.81949E+03-7.03369E+02-2.52476E-09-1.19572E-06
 -1       699-7.13461E+03 5.35970E+05-8.73787E+03-2.66143E+03-3.45608E-10-5.07907E-09
 -1       700 7.86844E+03 5.42940E+05-1.74284E+04-4.94586E+02-2.06455E-10 3.99538E-10
 -1       701-5.68342E+05-6.03156E+04-7.48294E+04-2.34999E+05-9.16771E-10-6.74117E-09
 -1       702-6.12096E+05-9.49149E+04-4.75965E+04-1.85564E+05-1.32059E-09-3.37241E-09
 -1       703-5.67805E+05-9.07591E+04-1.72920E+04-2.35053E+05-1.07775E-10 3.76622E-09
 -1       704-6.11166E+05-6.00436E+04-1.01719E+04-1.86434E+05-9.26593E-09-6.37465E-09
 -1       705-5.69650E+05-9.48552E+04-4.19112E+03-2.34451E+05 6.74791E-09 4.31055E-09
 -1       706-5.94070E+05-6.03218E+04-1.47568E+02-1.91296E+05 3.45358E-09-8.99763E-09
 -1       707-5.84539E+05-9.07378E+04-3.23257E+03-2.29910E+05-3.13321E-10-1.96951E-09
 -1       708-5.66097E+05-7.41916E+04 3.75375E+03-2.05882E+05-2.90208E-09 8.50463E-10
 -1       709-5.97119E+05-8.13563E+04-3.87302E+03-2.19485E+05 1.95087E-10-2.29119E-09
 -1       710-5.52997E+05-9.40408E+04 1.22093E+03-2.28716E+05 1.07079E-08 2.22570E-09
 -1       711-5.97854E+05-7.07323E+04-5.08468E+03-2.07249E+05-1.00567E-09 1.66754E-08
 -1       712-5.57041E+05-1.12275E+05-1.00189E+04-2.45739E+05 1.47202E-09 1.81836E-08
 -1       713-5.93650E+05-6.27058E+04-1.73013E+04-2.02884E+05 3.38991E-09-1.34623E-08
 -1       714-5.73936E+05-1.41313E+05-5.01212E+04-2.38538E+05-6.85827E-09-1.66765E-08
 -1       715-5.80913E+05-4.17845E+04-7.56191E+04-2.14394E+05 3.84716E-09 1.14233E-09
 -1       716 3.14000E+05-2.17209E+04 4.51877E+04 1.30717E+04 1.22229E-08-4.17640E-09
 -1       717 3.64677E+05 2.44021E+04 3.73054E+04-3.01223E+04 4.71846E-09-7.03267E-09
 -1       718 3.30263E+05-3.18728E+03 1.15884E+04 6.89644E+03 1.57877E-09-3.38787E-10
 -1       719 3.43604E+05 3.48858E+03 8.89570E+03-2.04048E+04-1.88834E-09-1.22782E-10
 -1       720 3.34473E+05-4.36321E+02 3.07727E+03 3.34527E+03 1.95530E-09 3.48916E-09
 -1       721 3.37953E+05 5.33603E+02 2.48273E+03-1.49452E+04 3.23018E-09 1.04777E-09
 -1       722 3.35690E+05-8.44150E+01 1.44681E+03 1.43597E+03 5.47044E-09 2.59455E-09
 -1       723 3.36460E+05 4.14196E+02 2.02067E+03-1.23037E+04 4.66002E-10 3.16022E-09
 -1       724 3.35888E+05-2.64113E+02 3.01097E+03 7.04044E+02 5.38550E-09 2.68778E-09
 -1       725 3.37127E+05 2.08384E+03 6.55869E+03-1.18381E+04 4.82768E-09 3.97949E-09
 -1       726 3.35010E+05-1.74364E+03 1.11604E+04 9.70475E+02 5.86758E-09 2.38924E-09
 -1       727 3.43311E+05 1.31354E+04 2.75624E+04-1.34423E+04 7.39529E-09 3.65253E-09
 -1       728 3.29745E+05-1.13255E+04 4.35609E+04 2.30816E+03 2.96194E-09 2.79033E-09
 -1       729 3.78833E+05 8.42823E+04 1.19999E+05-1.77237E+04 8.25167E-10 3.33057E-09
 -1       730 2.99650E+05-7.28444E+04 1.68325E+05 5.25136E+03 2.86434E-09-1.81171E-09
 -1       731-1.85332E+04 2.03764E+05 3.43798E+04-1.37073E+04-5.60613E-09-4.95811E-09
 -1       732 2.04812E+04 2.66307E+05 3.26218E+04 4.13539E+04 2.83944E-09 2.79613E-10
 -1       733-2.66351E+03 2.23502E+05 8.83362E+03-8.54134E+03-1.15824E-09-9.43487E-10
 -1       734 3.29469E+03 2.39583E+05 7.87341E+03 3.35364E+04 5.55247E-10-6.03995E-09
 -1       735-6.81703E+02 2.29480E+05 2.60529E+03-5.87848E+03 9.55083E-10-4.54111E-09
 -1       736-1.00884E+06-1.50642E+05-8.47282E+04-4.47992E+05 1.39753E-08-5.66070E-09
 -1       737-1.13385E+06-1.15830E+05-5.26268E+04-3.03913E+05 1.51074E-08-7.47605E-09
 -1       738-1.06626E+06-1.73943E+05-2.63221E+04-4.38315E+05 1.10725E-08 9.59426E-09
 -1       739-1.01256E+06-1.19876E+05 5.66146E+03-3.45087E+05 1.17902E-08-1.13846E-09
 -1       740-1.12751E+06-1.48740E+05-1.66414E+04-4.04739E+05 7.29460E-09 1.13159E-08
 -1       741-9.68116E+05-1.81360E+05 1.03169E+04-4.26912E+05 1.54511E-08 3.05747E-08
 -1       742-1.11168E+06-1.11621E+05-2.78278E+03-3.57339E+05 7.48241E-09-1.65387E-08
 -1       743-9.82868E+05-2.13718E+05 2.66872E+03-4.71889E+05 2.53126E-09 1.79109E-08
 -1       744-1.11472E+06-1.14702E+05-3.88136E+03-3.61271E+05-5.74487E-08-2.02255E-08
 -1       745-9.67481E+05-1.73714E+05 1.21457E+04-4.17085E+05-2.82063E-08-6.65250E-09
 -1       746-1.12476E+06-1.53593E+05-1.65472E+04-4.10367E+05-7.20365E-09-6.59838E-10
 -1       747-1.02447E+06-1.12639E+05 5.84046E+03-3.38375E+05 8.50105E-09-1.37084E-09
 -1       748-1.05732E+06-1.76137E+05-2.27631E+04-4.39569E+05 9.03378E-09 1.95105E-08
 -1       749-1.13761E+06-1.09898E+05-4.73916E+04-3.03757E+05 1.99361E-09 2.66555E-08
 -1       750-1.01420E+06-1.54213E+05-7.64664E+04-4.47055E+05 4.34011E-09 2.12167E-08
 -1       751 3.34325E+06-1.89846E+05 4.42828E+05 1.38440E+04-2.43315E-08-2.03727E-10
 -1       752 3.53588E+06 2.19904E+05 3.12775E+05-1.60963E+04-6.48974E-09-3.72893E-09
 -1       753 3.41787E+06-2.95935E+04 1.14780E+05 2.42458E+03 8.52083E-11 1.09139E-10
 -1       754 3.44932E+06 3.42613E+04 7.20387E+04-2.72249E+03 6.19593E-10 4.81577E-09
 -1       755 3.43007E+06-4.60707E+03 2.95808E+04 4.73026E+02-2.26318E-09-9.87711E-10
 -1       756 3.43523E+06 5.40037E+03 1.76546E+04-4.31161E+02-2.11316E-09 7.63976E-10
 -1       757 3.43208E+06-7.85697E+02 8.70993E+03 1.33292E+02 8.57567E-10-5.66388E-10
 -1       758 3.43314E+06 1.40030E+03 6.96920E+03-4.16294E+01 1.07608E-09-3.54561E-11
 -1       759 3.43219E+06-6.13259E+02 7.11713E+03 8.34888E+01 1.76896E-09-3.78805E-10
 -1       760 3.43442E+06 3.91090E+03 1.30615E+04-3.91446E+01-2.08915E-09 5.71390E-10
 -1       761 3.43079E+06-3.29224E+03 2.12940E+04 1.30807E+02-1.86722E-09-1.38516E-09
 -1       762 3.44441E+06 2.44292E+04 5.14248E+04-4.14932E+02 2.24703E-09 1.96087E-09
 -1       763 3.42210E+06-2.10942E+04 8.17876E+04 4.59272E+02 6.53463E-09 3.59432E-09
 -1       764 3.50550E+06 1.56605E+05 2.22659E+05-2.66120E+03 1.26046E-09 1.62981E-09
 -1       765 3.36942E+06-1.35187E+05 3.15315E+05 2.37671E+03-2.22900E-09-1.86265E-09
 -1       766-7.69558E+04 3.83216E+05 1.78612E+05-1.97401E+04 3.05590E-09 2.26805E-09
 -1       767 9.26432E+04 4.73989E+05 1.35529E+05 8.20878E+04 7.56700E-10 3.57073E-09
 -1       768-1.53742E+04 4.15203E+05 6.14577E+04-1.79005E+04 4.29645E-09 1.95541E-10
 -1       769 4.70968E+04 4.74610E+05 7.86041E+04 8.91085E+04 3.82352E-09 3.01679E-09
 -1       770-3.22779E+04 3.83724E+05 6.78714E+04-2.67687E+04-2.22717E-08 6.62340E-09
 -1       771-1.89479E+06-3.83063E+05-6.74160E+04-8.18185E+05-8.56744E-10-1.53523E-09
 -1       772-1.89054E+06-3.80575E+05-3.29924E+04-8.45019E+05-2.82307E-09-1.24692E-09
 -1       773-1.89761E+06-3.57419E+05-1.40543E+04-8.29401E+05 8.51287E-10 7.21047E-09
 -1       774-1.88336E+06-3.71857E+05-6.84579E+03-8.47321E+05 9.93168E-10-1.13869E-09
 -1       775-1.89845E+06-3.56142E+05-3.18562E+03-8.30097E+05-1.09139E-09 4.95675E-10
 -1       776-1.88315E+06-3.71431E+05-1.59918E+03-8.47752E+05 4.80213E-10-2.83717E-09
 -1       777-1.89891E+06-3.55951E+05-8.86527E+02-8.30283E+05-4.42742E-09-1.22327E-10
 -1       778-1.88337E+06-3.71349E+05-6.86333E+02-8.48046E+05-7.01948E-09 7.11970E-09
 -1       779-1.89919E+06-3.55788E+05-8.76930E+02-8.30411E+05-4.52565E-09 8.80846E-10
 -1       780-1.88361E+06-3.71293E+05-1.60258E+03-8.48267E+05-3.45608E-10 4.62705E-10
 -1       781-1.89927E+06-3.55649E+05-3.17325E+03-8.30476E+05 5.87806E-09 1.32486E-08
 -1       782-1.88424E+06-3.71637E+05-6.90258E+03-8.48394E+05-4.83851E-10-1.62800E-10
 -1       783-1.89897E+06-3.56576E+05-1.41284E+04-8.29974E+05-1.80944E-09-1.16779E-09
 -1       784-1.89149E+06-3.80846E+05-3.33366E+04-8.47104E+05-1.45747E-10 1.98270E-10
 -1       785-1.89694E+06-3.81920E+05-6.80302E+04-8.18414E+05-3.18323E-12 2.14641E-10
 -1       786 3.47964E+05-1.03293E+04 4.48359E+04-2.50255E+03 8.37417E-10-1.69530E-09
 -1       787 3.64119E+05 1.40557E+04 2.87079E+04-1.01160E+04-4.98517E-10 1.74168E-10
 -1       788 3.54722E+05-1.06393E+03 1.16186E+04-2.50564E+03-3.14913E-10 2.95495E-09
 -1       789 3.56585E+05 1.38053E+03 6.48514E+03-1.00943E+04 4.57021E-11-1.52090E-09
 -1       790 3.55486E+05-1.15566E+02 2.95225E+03-2.52290E+03 2.13277E-10 1.64687E-09
 -1       791 3.55716E+05 1.33111E+02 1.58465E+03-1.00692E+04 1.11635E-09 3.33077E-09
 -1       792 3.55584E+05-1.47114E+01 8.14400E+02-2.53071E+03-2.90527E-10 5.43992E-11
 -1       793 3.55608E+05 1.67450E+01 5.44728E+02-1.00639E+04 9.87256E-10-3.25826E-10
 -1       794 3.55593E+05-8.56658E+00 5.08906E+02-2.52823E+03-6.72003E-10-1.25377E-09
 -1       795 3.55644E+05 5.80607E+01 7.80254E+02-1.00796E+04-2.31239E-10 2.47670E-09
 -1       796 3.55552E+05-5.33942E+01 1.35037E+03-2.51497E+03-2.68483E-09-9.41327E-10
 -1       797 3.56034E+05 6.10418E+02 2.90628E+03-1.01141E+04-4.61114E-09-4.92622E-09
 -1       798 3.55214E+05-4.77416E+02 5.18086E+03-2.49376E+03-3.05727E-09 9.44965E-10
 -1       799 3.59396E+05 6.25128E+03 1.27873E+04-1.01407E+04-2.74576E-09 1.17711E-09
 -1       800 3.52206E+05-4.60629E+03 1.99608E+04-2.48911E+03-1.46656E-10 3.48791E-09
 -1       801-1.51500E+04 3.90564E+05 5.33709E+04-2.84357E+05 1.29512E-09 8.65111E-09
 -1       802 3.62284E+04 4.04668E+05 5.66510E+04-1.10891E+06-7.25049E-09 1.92995E-09
 -1       803-4.42531E+02 3.90066E+05 5.87207E+04-2.83829E+05 3.49246E-09 1.07206E-08
 -1       804 7.30494E+04 4.27518E+05 1.22506E+05-1.10882E+06-9.85528E-09-5.50790E-09
 -1       805-4.54780E+04 3.68817E+05 1.77807E+05-2.84467E+05 3.41242E-09 2.40107E-09
 -1       806-3.54174E+05-9.41739E+04-3.01465E+04-1.62992E+05 1.86628E-09-1.63709E-09
 -1       807-3.54342E+05-8.65346E+04-1.43025E+04-1.72181E+05 1.19144E-10 3.39878E-09
 -1       808-3.54015E+05-7.87808E+04-6.01338E+03-1.69493E+05-6.40284E-10 1.30399E-09
 -1       809-3.51372E+05-8.11215E+04-2.90586E+03-1.73431E+05-3.98586E-10 3.37911E-09
 -1       810-3.54093E+05-7.77257E+04-1.31402E+03-1.69969E+05-2.24190E-10 1.36652E-09
 -1       811-3.51082E+05-8.07616E+04-6.59001E+02-1.73484E+05-1.24601E-09-8.27436E-09
 -1       812-3.54118E+05-7.76940E+04-3.45839E+02-1.69991E+05 4.75552E-10-2.85036E-09
 -1       813-3.51050E+05-8.07520E+04-2.57590E+02-1.73475E+05-9.04947E-11-1.67211E-09
 -1       814-3.54114E+05-7.76993E+04-3.03043E+02-1.69988E+05-5.18412E-10 1.18234E-09
 -1       815-3.51066E+05-8.07655E+04-5.45266E+02-1.73472E+05 1.98270E-09-3.06909E-09
 -1       816-3.54081E+05-7.77324E+04-1.06945E+03-1.69963E+05-1.80808E-09-2.05955E-09
 -1       817-3.51296E+05-8.10551E+04-2.35649E+03-1.73412E+05 1.49203E-09-1.16961E-09
 -1       818-3.54001E+05-7.86012E+04-4.87274E+03-1.69578E+05 2.72030E-09 6.87214E-09
 -1       819-3.53746E+05-8.53849E+04-1.15854E+04-1.72323E+05-1.26738E-09 7.70615E-09
 -1       820-3.54064E+05-9.11189E+04-2.44185E+04-1.64361E+05-4.89672E-09-5.91581E-09
 -1       821-3.56714E+05 1.06015E+04-4.60554E+04 2.53220E+03-5.23642E-09-1.49885E-09
 -1       822-3.73279E+05-1.44404E+04-2.94885E+04 1.06816E+04-2.15709E-09-1.41881E-09
 -1       823-3.63661E+05 1.08697E+03-1.19399E+04 2.44052E+03 3.96017E-09-1.10731E-09
 -1       824-3.65570E+05-1.40222E+03-6.66609E+03 1.08137E+04 5.07498E-10-2.09229E-09
 -1       825-3.64449E+05 1.19680E+02-3.04945E+03 2.39864E+03-7.60724E-09 1.28239E-10
 -1       826-3.64701E+05-1.11050E+02-1.65955E+03 1.08828E+04-1.36773E-08-1.85585E-09
 -1       827-3.64551E+05 2.12361E+01-9.02922E+02 2.37111E+03-5.61931E-09 9.23023E-10
 -1       828-3.64608E+05 9.29953E+00-6.96000E+02 1.09259E+04-8.04334E-09 7.52607E-10
 -1       829-3.64556E+05 2.08855E+01-7.89887E+02 2.35545E+03-7.30040E-10 1.29072E-09
 -1       830-3.64688E+05-7.74363E+01-1.36417E+03 1.09442E+04 6.90238E-09-4.47982E-09
 -1       831-3.64477E+05 1.02495E+02-2.45824E+03 2.35285E+03-2.77220E-09-7.64771E-10
 -1       832-3.65395E+05-1.10693E+03-5.35049E+03 1.09363E+04 3.60501E-10-1.12158E-09
 -1       833-3.63848E+05 8.80430E+02-9.56841E+03 2.36361E+03 1.38459E-09 1.63709E-11
 -1       834-3.71582E+05-1.15510E+04-2.36319E+04 1.08863E+04-8.90168E-10-4.54384E-09
 -1       835-3.58283E+05 8.50714E+03-3.69015E+04 2.40539E+03 2.85900E-09-2.35377E-09
 -1       836-1.70259E+04 9.21722E+05 7.79781E+04-2.49043E+04-1.23691E-09 1.31786E-09
 -1       837 2.62643E+04 9.50305E+05 6.06267E+04-9.47692E+04 4.11796E-09-1.48486E-09
 -1       838-4.08702E+03 9.30902E+05 4.49218E+04-2.49414E+04-2.23281E-09 3.11314E-09
 -1       839 3.47794E+04 9.55346E+05 7.57312E+04-9.47502E+04 4.22006E-09-2.70347E-10
 -1       840-2.38660E+04 9.16657E+05 1.06575E+05-2.49222E+04-1.77533E-09 1.62800E-09
 -1       841-3.45435E+04 9.76000E+02-1.52055E+04-1.56844E+04-4.62319E-09-2.33194E-09
 -1       842-4.28767E+04-1.25783E+04-1.05378E+04-1.26444E+04-3.67135E-09-3.00543E-09
 -1       843-3.76172E+04-4.49193E+03-3.56345E+03-1.46806E+04 3.15487E-09 4.32487E-09
 -1       844-3.93218E+04-6.23275E+03-2.21439E+03-1.37894E+04 4.03102E-09-5.33930E-10
 -1       845-3.80975E+04-5.36005E+03-8.17424E+02-1.45432E+04 1.08672E-09-5.67525E-10
 -1       846-3.87717E+04-5.21665E+03-4.55159E+02-1.39392E+04-6.28060E-09-4.85528E-10
 -1       847-3.81675E+04-5.50646E+03-1.50785E+02-1.45316E+04-5.49057E-09-5.48859E-10
 -1       848-3.86821E+04-5.02563E+03-9.98313E+00-1.39517E+04-3.73720E-09-2.86236E-09
 -1       849-3.81873E+04-5.55073E+03 1.27856E+02-1.45309E+04 4.87055E-09-6.64542E-10
 -1       850-3.85849E+04-4.85882E+03 4.07439E+02-1.39743E+04 9.84876E-09 6.18222E-09
 -1       851-3.82648E+04-5.67304E+03 7.34955E+02-1.45091E+04-5.42842E-09-2.81781E-09
 -1       852-3.80458E+04-3.97191E+03 2.00046E+03-1.41426E+04-4.32659E-09-4.32362E-09
 -1       853-3.87260E+04-6.43645E+03 3.21300E+03-1.43630E+04-1.71002E-09-2.47837E-09
 -1       854-3.47698E+04 1.70365E+03 9.51562E+03-1.52327E+04 1.67472E-09 2.66812E-09
 -1       855-4.15389E+04-1.13401E+04 1.37191E+04-1.34218E+04-7.63748E-10 3.77713E-09
 -1       856-4.19521E+05 9.79661E+03-4.26262E+04 5.04627E+03-2.19006E-09 8.05812E-10
 -1       857-4.34835E+05-1.33105E+04-2.72801E+04 2.16344E+04-2.05932E-09-9.09495E-12
 -1       858-4.25956E+05 1.00993E+03-1.10509E+04 4.88809E+03-7.93852E-09-4.58840E-10
 -1       859-4.27752E+05-1.22935E+03-6.16205E+03 2.18623E+04-2.36196E-09-5.61488E-09
 -1       860-4.26693E+05 1.25384E+02-2.81499E+03 4.81530E+03 2.48997E-09-3.05135E-09
 -1       861-4.26976E+05-2.25627E+01-1.51865E+03 2.19722E+04-8.27970E-09-1.72304E-09
 -1       862-4.26791E+05 3.93131E+01-8.03464E+02 4.77756E+03 9.77286E-09-1.14125E-09
 -1       863-4.26897E+05 9.49706E+01-5.78805E+02 2.20185E+04 2.54872E-08-6.73873E-09
 -1       864-4.26798E+05 3.71036E+01-6.04547E+02 4.76885E+03 8.69014E-09-3.34896E-09
 -1       865-4.26942E+05 3.18092E+01-9.96928E+02 2.20059E+04 1.34771E-08-2.95422E-09
 -1       866-4.26739E+05 9.02823E+01-1.77323E+03 4.79023E+03-2.47383E-09 9.70886E-10
 -1       867-4.27420E+05-7.17807E+02-3.83903E+03 2.19318E+04-9.27002E-10-3.51110E-09
 -1       868-4.26281E+05 6.37359E+02-6.86764E+03 4.84340E+03 3.82533E-09-6.12499E-09
 -1       869-4.31805E+05-8.22304E+03-1.69402E+04 2.17472E+04-1.03992E-08-5.98902E-09
 -1       870-4.22283E+05 6.08768E+03-2.64704E+04 4.97725E+03 1.03651E-08-1.17689E-09
 -1       871-4.11512E+03-3.78375E+04-7.26415E+03 1.08614E+05 4.79577E-09 2.23736E-10
 -1       872-1.39925E+03-3.91304E+04-2.12041E+03 1.26993E+05 7.66886E-09-1.86265E-09
 -1       873-3.22655E+01-3.86835E+04 2.13112E+03 1.08410E+05 6.77528E-09 9.60881E-10
 -1       874 2.40568E+03-3.69554E+04 7.95543E+03 1.27087E+05 5.92172E-09 5.17093E-09
 -1       875 8.19265E+03-4.01222E+04 1.71808E+04 1.08539E+05 2.50111E-09 2.95222E-09
 -1       876 5.02735E+05 6.34879E+04 4.75960E+04 1.98158E+05 9.62746E-09-4.49654E-09
 -1       877 5.13392E+05 1.00724E+05 3.00457E+04 2.05265E+05 8.68630E-09-4.42014E-10
 -1       878 5.10890E+05 7.44008E+04 1.12359E+04 1.97037E+05 6.84713E-09 1.81990E-09
 -1       879 5.04019E+05 8.65416E+04 6.18839E+03 2.07176E+05-1.60092E-08-1.49021E-09
 -1       880 5.11774E+05 7.56270E+04 2.62429E+03 1.96997E+05-9.51331E-09-5.57111E-09
 -1       881 5.03001E+05 8.49854E+04 1.41034E+03 2.07234E+05-5.56156E-10-1.09296E-08
 -1       882 5.11853E+05 7.57915E+04 7.52626E+02 1.97027E+05 1.04772E-08 3.91839E-09
 -1       883 5.02921E+05 8.48087E+04 6.48780E+02 2.07188E+05-8.20475E-09 4.79065E-09
 -1       884 5.11838E+05 7.58001E+04 8.46590E+02 1.97038E+05-4.89463E-09 4.39957E-09
 -1       885 5.03064E+05 8.49821E+04 1.66873E+03 2.07180E+05 2.06904E-08 4.56112E-10
 -1       886 5.11712E+05 7.56321E+04 3.14969E+03 1.97030E+05 5.38211E-09 2.09138E-09
 -1       887 5.04336E+05 8.68047E+04 7.44696E+03 2.07037E+05 5.35806E-09-7.37714E-10
 -1       888 5.10613E+05 7.41886E+04 1.35351E+04 1.97109E+05 5.29391E-09-6.10544E-09
 -1       889 5.15665E+05 1.03838E+05 3.61894E+04 2.04664E+05 6.15501E-10-2.24600E-09
 -1       890 5.00763E+05 6.10737E+04 5.73400E+04 1.98482E+05-3.52065E-09-3.56158E-09
 -1       891 1.77305E+03-2.24192E+05-8.71581E+03 2.43721E+04 8.05358E-09-1.02682E-09
 -1       892-3.14139E+03-2.27220E+05-6.99282E+03 9.48195E+04 4.88399E-10-3.58796E-10
 -1       893 4.72286E+02-2.25192E+05-5.57572E+03 2.42528E+04 1.33005E-08 2.42579E-09
 -1       894-4.80413E+03-2.28189E+05-9.93232E+03 9.48091E+04 7.47696E-09 3.75189E-09
 -1       895 3.09926E+03-2.23202E+05-1.42805E+04 2.43820E+04 1.53041E-08 1.82445E-09
 -1       896 9.72405E+05-8.46534E+03 1.97042E+04 1.86504E+03-1.63337E-09-4.83851E-09
 -1       897 9.80879E+05 9.80606E+03 1.39338E+04 2.29318E+02-1.62215E-09-3.78236E-09
 -1       898 9.75707E+05-1.31905E+03 5.11833E+03 1.40063E+03-5.19883E-10-4.20391E-09
 -1       899 9.77042E+05 1.53158E+03 3.23441E+03 9.72248E+02 1.95133E-09-3.43397E-09
 -1       900 9.76249E+05-2.05926E+02 1.36907E+03 1.12213E+03 8.20592E-10-3.77645E-09
 -1       901 9.76422E+05 2.56236E+02 9.02192E+02 1.56136E+03 7.41666E-10-3.24703E-09
 -1       902 9.76329E+05-4.59434E+01 6.06274E+02 8.11512E+02 2.25054E-09-3.21534E-09
 -1       903 9.76388E+05 1.56165E+02 7.94278E+02 2.45330E+03-1.93186E-10-2.92774E-09
 -1       904 9.76283E+05-1.06519E+02 1.19210E+03 2.30183E+02-7.42837E-10-2.30165E-09
 -1       905 9.76802E+05 7.85252E+02 2.60767E+03 4.33203E+03-9.45313E-10-1.78738E-09
 -1       906 9.75919E+05-6.76744E+02 4.41546E+03-1.06726E+03-8.66009E-11-1.26124E-09
 -1       907 9.79369E+05 5.10751E+03 1.09327E+04 8.64108E+03 7.28861E-10 4.62933E-10
 -1       908 9.73732E+05-4.43573E+03 1.72237E+04-4.07896E+03 6.70013E-10 3.39878E-09
 -1       909 9.94926E+05 3.33210E+04 4.78124E+04 1.87896E+04 3.40310E-09 5.64341E-09
 -1       910 9.60467E+05-2.89149E+04 6.62745E+04-1.12160E+04 3.86046E-09 1.28748E-08
 -1       911 3.57393E+05-5.29438E+03 1.22904E+04-2.78712E+03-6.63275E-09 1.82463E-08
 -1       912 3.63173E+05 6.13588E+03 8.77061E+03-1.56249E+01-5.49562E-09 1.40275E-08
 -1       913 3.59525E+05-8.16994E+02 3.18438E+03-1.91839E+03-2.96589E-09 1.55933E-08
 -1       914 3.60696E+05 9.57986E+02 2.07011E+03-1.64886E+03-2.43114E-09 1.20326E-08
 -1       915 3.59868E+05-1.23951E+02 8.53676E+02-1.15389E+03 3.38889E-09 1.20039E-08
 -1       916 3.60368E+05 1.64227E+02 6.51529E+02-3.28626E+03 6.71918E-09 9.44121E-09
 -1       917 3.59858E+05-2.72901E+01 4.19725E+02-2.80977E+02 3.62965E-09 8.70611E-09
 -1       918 3.60623E+05 1.10406E+02 7.50555E+02-5.36983E+03 2.43276E-10 6.18516E-09
 -1       919 3.59628E+05-8.07585E+01 9.67562E+02 9.29697E+02 3.03129E-09 4.51831E-09
 -1       920 3.61726E+05 6.28024E+02 2.52442E+03-8.44799E+03 3.25002E-10 1.55848E-09
 -1       921 3.58799E+05-5.74185E+02 3.74480E+03 2.79729E+03-9.19499E-10-1.81399E-09
 -1       922 3.65902E+05 4.41417E+03 1.02746E+04-1.33367E+04-6.15660E-09-7.24867E-09
 -1       923 3.55572E+05-3.94345E+03 1.48573E+04 5.81932E+03-4.20073E-09-1.36370E-08
 -1       924 3.84066E+05 2.97657E+04 4.39222E+04-2.14823E+04-7.06837E-09-2.02240E-08
 -1       925 3.40969E+05-2.61060E+04 5.77869E+04 1.09476E+04-4.36876E-09-3.14576E-08
 -1       926-7.75182E+05 1.41317E+04-4.42968E+04-3.51530E+04 4.16048E-09-6.14691E-08
 -1       927-7.61183E+05-1.56130E+04-2.49004E+04 7.81019E+04-4.31114E-08-7.53967E-08
 -1       928-7.62358E+05 2.39403E+03-1.00636E+04-4.49990E+04 1.26384E-08-8.12629E-08
 -1       929-7.51751E+05-6.82935E+02-3.06989E+03 7.66183E+04 6.13791E-08-7.23358E-08
 -1       930-7.84466E+05-8.82959E+02-6.59676E+03-3.36651E+04-2.03863E-09-6.34222E-08
 -1       931-7.02263E+05 2.15898E+03 1.13331E+04 3.73918E+04-1.03352E-08-3.32177E-08
 -1       932-8.09102E+05-2.62955E+03-9.49310E+03-5.72449E+03 1.42818E-08-1.52717E-08
 -1       933-6.91250E+05 2.65955E+03 1.50476E+04-2.12551E+04 1.02400E-08 2.04173E-08
 -1       934-7.94873E+05-1.86517E+03-5.10767E+03 2.49155E+04 4.80350E-09 4.05531E-08
 -1       935-7.36067E+05 2.87250E+03 8.56623E+03-6.92989E+04-7.95751E-09 6.28482E-08
 -1       936-7.66860E+05-7.87068E+02 4.42687E+03 4.23236E+04 2.04534E-09 7.26877E-08
 -1       937-7.56588E+05 7.58721E+03 1.30200E+04-8.33035E+04-4.45108E-08 7.20206E-08
 -1       938-7.75651E+05-5.53052E+03 1.65730E+04 3.89581E+04-3.56056E-08 6.74618E-08
 -1       939-7.02821E+05 4.01732E+04 5.97519E+04-5.74225E+04-2.34096E-08 4.53765E-08
 -1       940-8.18378E+05-3.50833E+04 6.20545E+04 1.63887E+04 1.36561E-09 3.18141E-08
 -1       941 5.42080E+06-2.69145E+05 6.29220E+05 1.23657E+03 2.75462E-08 5.29690E-09
 -1       942 5.69182E+06 3.11880E+05 4.43822E+05 1.93573E+03 3.82558E-08 6.81030E-09
 -1       943 5.52573E+06-4.20062E+04 1.63142E+05 1.54839E+03 1.97847E-06 1.23036E-08
 -1       944 5.57031E+06 4.86411E+04 1.02416E+05 1.60062E+03 3.92096E-06-4.64206E-09
 -1       945 5.54309E+06-6.54325E+03 4.21461E+04 1.57197E+03 2.70186E-06-1.27511E-09
 -1       946 5.55038E+06 7.68530E+03 2.52556E+04 1.57533E+03 1.47689E-06 6.73981E-09
 -1       947 5.54596E+06-1.12967E+03 1.26560E+04 1.57379E+03 1.95386E-06 3.91356E-09
 -1       948 5.54748E+06 2.09760E+03 1.04743E+04 1.57183E+03 2.43614E-06 3.20941E-09
 -1       949 5.54606E+06-9.64574E+02 1.11314E+04 1.57549E+03 1.22376E-06-7.50538E-09
 -1       950 5.54962E+06 6.25956E+03 2.08610E+04 1.55148E+03 1.06536E-08 6.03450E-09
 -1       951 5.54378E+06-5.28486E+03 3.42198E+04 1.59412E+03 4.27175E-10-9.04765E-09
 -1       952 5.56565E+06 3.92356E+04 8.27141E+04 1.31403E+03-1.30121E-09-5.39148E-09
 -1       953 5.52978E+06-3.38783E+04 1.31610E+05 1.81285E+03-1.11276E-08 3.33239E-09
 -1       954 5.66365E+06 2.51523E+05 3.57942E+05-1.51571E+03-6.12915E-09-3.28873E-09
 -1       955 5.44506E+06-2.17080E+05 5.07187E+05 4.42283E+03-2.36217E-08 0.00000E+00
 -1       956-2.89673E+05-4.99892E+03-1.04583E+04 4.03195E+04-9.16225E-09 4.83851E-10
 -1       957-2.91590E+05-1.56232E+03-5.27489E+03 4.67982E+04-3.41606E-09-3.08432E-09
 -1       958-2.90557E+05-1.58976E+02-2.37391E+03 4.00740E+04-1.11522E-08-1.97156E-09
 -1       959-2.90749E+05 2.17052E+01-1.20631E+03 4.70667E+04-3.65608E-08-1.87492E-09
 -1       960-2.90677E+05 8.89236E+01-5.86402E+02 4.00476E+04-2.43590E-08-2.29647E-10
 -1       961-2.90711E+05 1.12542E+02-3.08392E+02 4.70966E+04-1.52049E-08 6.00267E-11
 -1       962-2.90720E+05 1.04199E+02-1.73521E+02 4.00436E+04-8.18545E-09 7.32598E-10
 -1       963-2.90731E+05 1.27097E+02-1.32732E+02 4.71018E+04-9.55879E-09-6.45741E-11
 -1       964-2.90738E+05 1.14955E+02-1.54085E+02 4.00422E+04-5.18321E-09-2.50702E-09
 -1       965-2.90752E+05 1.35568E+02-2.60269E+02 4.71021E+04 3.26827E-09-1.40199E-09
 -1       966-2.90734E+05 1.21602E+02-4.85922E+02 4.00433E+04-4.89024E-09-1.74714E-09
 -1       967-2.90817E+05 7.96207E+01-9.98848E+02 4.70881E+04 5.92081E-10-2.13413E-09
 -1       968-2.90663E+05-6.58923E+01-1.96218E+03 4.00565E+04 1.51795E-09 1.26443E-09
 -1       969-2.91546E+05-1.21600E+03-4.36544E+03 4.69507E+04 2.27374E-10 4.32010E-12
 -1       970-2.89953E+05-4.06242E+03-8.65241E+03 4.01867E+04 1.97133E-09-2.32740E-09
 -1       971-5.88521E+05 8.15313E+03-3.55227E+04 4.84782E+03-6.36282E-09 3.47791E-09
 -1       972-6.01241E+05-1.10871E+04-2.27302E+04 2.14455E+04-7.03062E-09 4.18004E-09
 -1       973-5.93884E+05 8.37283E+02-9.21601E+03 4.63880E+03-1.17643E-08 2.39515E-09
 -1       974-5.95356E+05-1.01446E+03-5.14576E+03 2.17602E+04 2.10002E-09 5.30338E-09
 -1       975-5.94499E+05 1.04375E+02-2.37235E+03 4.53077E+03-2.09639E-10 1.02091E-10
 -1       976-5.94725E+05-3.95449E+00-1.31763E+03 2.19282E+04-1.53827E-08 3.49485E-09
 -1       977-5.94581E+05 3.63678E+01-7.73871E+02 4.47024E+03 1.22136E-08 6.52278E-10
 -1       978-5.94679E+05 9.09277E+01-6.97115E+02 2.20079E+04 2.72116E-08 6.71605E-10
 -1       979-5.94579E+05 4.27405E+01-9.22162E+02 4.45091E+03 1.08880E-08 4.30560E-10
 -1       980-5.94786E+05-3.02235E+01-1.71227E+03 2.20044E+04 1.46544E-08 5.22412E-09
 -1       981-5.94474E+05 1.44905E+02-3.15311E+03 4.47378E+03-1.50817E-09 2.56659E-09
 -1       982-5.95677E+05-1.37176E+03-6.90075E+03 2.19155E+04 2.98132E-09 5.45197E-09
 -1       983-5.93654E+05 1.14178E+03-1.23640E+04 4.54049E+03 2.97950E-09 2.07456E-09
 -1       984-6.03632E+05-1.48875E+04-3.05376E+04 2.16985E+04-4.35489E-09 2.27737E-09
 -1       985-5.86456E+05 1.09868E+04-4.77021E+04 4.69521E+03 7.07041E-09 1.35333E-09
 -3
    1PSTEP                        33          17           1          
  100CL  117 8.32053E-01         841                     0   17           1
 -4  DISP        4    1
 -5  D1          1    2    1    0
 -5  D2          1    2    2    0
 -5  D3          1    2    3    0
 -5  ALL         1    2    0    0    1ALL
 -1         1 1.03773E-04 0.00000E+00 0.00000E+00
 -1         2 8.12454E-05 0.00000E+00 0.00000E+00
 -1         3 6.80013E-05 0.00000E+00 0.00000E+00
 -1         4 5.85903E-05 0.00000E+00 0.00000E+00
 -1         5 5.32946E-05 0.00000E+00 0.00000E+00
 -1         8 8.19861E-05-1.04161E-06 0.00000E+00
 -1         9 6.36204E-05 7.34549E-07 0.00000E+00
 -1        10 6.01884E-05-2.65260E-06 0.00000E+00
 -1        11 5.58432E-05-5.23023E-07 0.00000E+00
 -1        12 5.10869E-05 1.32287E-06 0.00000E+00
 -1        15 3.99042E-05-1.69230E-06 0.00000E+00
 -1        16 4.76927E-05 6.88804E-07 0.00000E+00
 -1        17 4.29474E-05-5.30790E-06 0.00000E+00
 -1        18 4.33271E-05-1.03249E-06 0.00000E+00
 -1        19 4.55644E-05 2.61761E-06 0.00000E+00
 -1        20 4.62612E-05 2.80647E-05 0.00000E+00
 -1        21 4.62305E-05 6.70821E-05 0.00000E+00
 -1        22 1.27433E-05-1.15996E-06 0.00000E+00
 -1        23 1.60859E-05 1.16119E-06 0.00000E+00
 -1        24 1.77966E-05-6.27906E-06 0.00000E+00
 -1        25 3.80562E-05-6.89864E-07 0.00000E+00
 -1        26 4.01489E-05 3.47957E-06 0.00000E+00
 -1        27 3.79708E-05 2.70607E-05 0.00000E+00
 -1        28 3.53862E-05 6.61334E-05 0.00000E+00
 -1        29 0.00000E+00 0.00000E+00 0.00000E+00
 -1        30 5.60077E-06 1.46230E-06 0.00000E+00
 -1        31 7.47562E-06-5.53719E-06 0.00000E+00
 -1        32 0.00000E+00 0.00000E+00 0.00000E+00
 -1        33 3.27893E-05 5.52264E-06 0.00000E+00
 -1        34 3.10354E-05 2.69660E-05 0.00000E+00
 -1        35 2.74448E-05 6.56268E-05 0.00000E+00
 -1        36 1.02408E-04 2.57767E-19 2.64698E-23
 -1        37 1.01000E-04 1.25570E-18 1.32349E-23
 -1        38 9.95944E-05 2.57241E-18 0.00000E+00
 -1        39 9.81809E-05 3.13194E-18 0.00000E+00
 -1        40 9.67672E-05 2.65189E-18 0.00000E+00
 -1        41 9.53519E-05 1.32006E-18 2.64698E-23
 -1        42 9.39364E-05 1.46724E-19 0.00000E+00
 -1        43 9.25206E-05-1.91251E-19 0.00000E+00
 -1        44 9.11048E-05 4.09727E-19 5.29396E-23
 -1        45 8.96892E-05 1.49756E-18 0.00000E+00
 -1        46 8.82736E-05 2.46007E-18-5.29396E-23
 -1        47 8.68592E-05 2.63212E-18-2.64698E-23
 -1        48 8.54450E-05 2.27477E-18 0.00000E+00
 -1        49 8.40364E-05 1.33022E-18 1.32349E-23
 -1        50 8.26260E-05 3.97619E-19-2.64698E-23
 -1        51 1.02131E-04-1.76130E-07 0.00000E+00
 -1        52 9.94072E-05-3.44756E-07 0.00000E+00
 -1        53 9.58109E-05-5.12834E-07 0.00000E+00
 -1        54 9.15616E-05-6.82758E-07 0.00000E+00
 -1        55 8.68795E-05-8.56544E-07 4.54949E-24
 -1        56 1.01710E-04-9.18319E-07 0.00000E+00
 -1        57 9.96497E-05-2.07709E-06 0.00000E+00
 -1        58 9.76374E-05-3.35107E-06-5.29396E-23
 -1        59 9.56182E-05-4.64599E-06-2.64698E-23
 -1        60 9.35662E-05-5.85498E-06-5.29396E-23
 -1        61 9.14429E-05-6.88066E-06 0.00000E+00
 -1        62 8.92194E-05-7.64017E-06-5.29396E-23
 -1        63 8.68697E-05-8.06400E-06 0.00000E+00
 -1        64 8.43782E-05-8.11095E-06 5.29396E-23
 -1        65 8.17367E-05-7.75753E-06 2.64698E-23
 -1        66 7.89487E-05-7.01446E-06 0.00000E+00
 -1        67 7.60271E-05-5.91006E-06 2.64698E-23
 -1        68 7.29925E-05-4.50460E-06-5.29396E-23
 -1        69 6.98847E-05-2.86735E-06-2.64698E-23
 -1        70 6.67221E-05-1.09764E-06 0.00000E+00
 -1        71 8.04227E-05-8.86750E-20 0.00000E+00
 -1        72 7.95938E-05-2.18116E-19 0.00000E+00
 -1        73 7.87653E-05-2.51958E-19 0.00000E+00
 -1        74 7.79356E-05-1.50810E-19 0.00000E+00
 -1        75 7.71059E-05-2.21705E-19 0.00000E+00
 -1        76 7.62759E-05-2.93654E-19 1.32349E-23
 -1        77 7.54460E-05-1.88560E-19-2.64698E-23
 -1        78 7.46160E-05-3.68819E-20 0.00000E+00
 -1        79 7.37860E-05 2.65843E-19-2.64698E-23
 -1        80 7.29561E-05 5.31551E-19 0.00000E+00
 -1        81 7.21263E-05 7.53719E-19-2.64698E-23
 -1        82 7.12970E-05 7.27832E-19 1.32349E-23
 -1        83 7.04678E-05 5.03643E-19-2.64698E-23
 -1        84 6.96414E-05 1.32895E-19-1.32349E-23
 -1        85 6.88140E-05 4.53498E-20 0.00000E+00
 -1        86 8.03941E-05 1.03443E-07 0.00000E+00
 -1        87 7.78794E-05 2.36250E-07 0.00000E+00
 -1        88 7.43378E-05 3.63945E-07 0.00000E+00
 -1        89 7.03983E-05 4.92193E-07 0.00000E+00
 -1        90 6.66344E-05 6.22749E-07-6.61744E-24
 -1        91 7.63560E-05 1.08925E-05 0.00000E+00
 -1        92 6.28233E-05 4.34438E-05-1.32349E-23
 -1        93 4.66859E-05 8.23139E-05 0.00000E+00
 -1        94 3.43109E-05 1.12093E-04 6.61744E-24
 -1        95 2.96155E-05 1.22447E-04-2.64698E-23
 -1        96 3.58173E-05 1.03395E-04 0.00000E+00
 -1        97 5.01119E-05 6.07723E-05 0.00000E+00
 -1        98 6.98401E-05 1.20294E-06 0.00000E+00
 -1        99 8.97569E-05-5.89636E-05-1.32349E-23
 -1       100 1.04634E-04-1.03353E-04-6.61744E-24
 -1       101 1.11637E-04-1.24673E-04-2.64698E-23
 -1       102 1.07749E-04-1.16414E-04-6.61744E-24
 -1       103 9.59227E-05-8.79835E-05 0.00000E+00
 -1       104 7.98094E-05-4.91672E-05 0.00000E+00
 -1       105 6.58409E-05-1.55497E-05 0.00000E+00
 -1       106 6.74171E-05-6.77647E-20 0.00000E+00
 -1       107 6.68280E-05-1.79996E-19 0.00000E+00
 -1       108 6.62393E-05-3.93300E-19 1.32349E-23
 -1       109 6.56496E-05-4.75611E-19 6.61744E-24
 -1       110 6.50599E-05-3.14480E-19-1.32349E-23
 -1       111 6.44700E-05-1.69597E-19 0.00000E+00
 -1       112 6.38801E-05-6.23698E-20 0.00000E+00
 -1       113 6.32902E-05 9.94350E-20-6.61744E-24
 -1       114 6.27003E-05 2.57353E-19 1.32349E-23
 -1       115 6.21105E-05 3.44365E-19-6.61744E-24
 -1       116 6.15207E-05 3.09521E-19 0.00000E+00
 -1       117 6.09313E-05 1.78655E-19 0.00000E+00
 -1       118 6.03420E-05 1.95439E-19 0.00000E+00
 -1       119 5.97549E-05 2.45410E-19 0.00000E+00
 -1       120 5.91670E-05 1.04822E-19 0.00000E+00
 -1       121 6.77645E-05-4.42316E-07 0.00000E+00
 -1       122 6.70736E-05-8.83590E-07 0.00000E+00
 -1       123 6.59480E-05-1.32525E-06-1.32349E-23
 -1       124 6.44096E-05-1.76719E-06 0.00000E+00
 -1       125 6.24814E-05-2.20974E-06 0.00000E+00
 -1       126 7.03666E-05-7.17218E-06 0.00000E+00
 -1       127 7.78197E-05-2.84588E-05 0.00000E+00
 -1       128 8.89418E-05-6.03157E-05 0.00000E+00
 -1       129 1.02384E-04-9.90503E-05 0.00000E+00
 -1       130 1.16312E-04-1.39242E-04 0.00000E+00
 -1       131 1.28910E-04-1.75447E-04 0.00000E+00
 -1       132 1.38630E-04-2.03228E-04-6.61744E-24
 -1       133 1.43867E-04-2.18268E-04 0.00000E+00
 -1       134 1.43994E-04-2.19367E-04 0.00000E+00
 -1       135 1.38398E-04-2.05492E-04-3.30872E-24
 -1       136 1.27869E-04-1.79182E-04 6.61744E-24
 -1       137 1.13325E-04-1.43079E-04 0.00000E+00
 -1       138 9.67761E-05-1.02171E-04 0.00000E+00
 -1       139 8.03162E-05-6.14718E-05 0.00000E+00
 -1       140 6.60110E-05-2.59444E-05 0.00000E+00
 -1       141 5.82577E-05 1.49767E-20-1.32349E-23
 -1       142 5.79243E-05 3.23059E-19 0.00000E+00
 -1       143 5.75910E-05 7.43812E-19-1.32349E-23
 -1       144 5.72576E-05 1.37574E-18 0.00000E+00
 -1       145 5.69241E-05 2.21632E-18 0.00000E+00
 -1       146 5.65906E-05 3.00506E-18 0.00000E+00
 -1       147 5.62571E-05 3.71798E-18 0.00000E+00
 -1       148 5.59237E-05 4.16070E-18 6.61744E-24
 -1       149 5.55903E-05 4.20345E-18 0.00000E+00
 -1       150 5.52571E-05 3.78372E-18 6.61744E-24
 -1       151 5.49240E-05 3.20650E-18 1.32349E-23
 -1       152 5.45917E-05 2.42612E-18 0.00000E+00
 -1       153 5.42595E-05 1.62244E-18 0.00000E+00
 -1       154 5.39315E-05 7.82636E-19 3.30872E-24
 -1       155 5.36021E-05 2.48947E-19 0.00000E+00
 -1       156 6.06421E-05-6.95892E-08 0.00000E+00
 -1       157 6.66051E-05-1.43702E-07-1.65436E-24
 -1       158 7.27536E-05-2.19612E-07 0.00000E+00
 -1       159 7.53620E-05-2.79194E-07-1.65436E-24
 -1       160 7.08971E-05-3.49299E-07-3.30872E-24
 -1       161 5.97444E-05-3.96728E-06 6.61744E-24
 -1       162 6.37182E-05-1.56211E-05 0.00000E+00
 -1       163 6.96612E-05-3.27461E-05 0.00000E+00
 -1       164 7.67314E-05-5.30476E-05 0.00000E+00
 -1       165 8.37939E-05-7.33275E-05 6.61744E-24
 -1       166 8.97145E-05-9.03884E-05 3.30872E-24
 -1       167 9.36544E-05-1.01948E-04-6.61744E-24
 -1       168 9.47688E-05-1.05803E-04 0.00000E+00
 -1       169 9.29770E-05-1.01910E-04-6.61744E-24
 -1       170 8.82339E-05-9.03241E-05 0.00000E+00
 -1       171 8.13431E-05-7.32381E-05-6.61744E-24
 -1       172 7.31661E-05-5.29007E-05 0.00000E+00
 -1       173 6.49505E-05-3.24662E-05 0.00000E+00
 -1       174 5.79498E-05-1.50882E-05-3.30872E-24
 -1       175 5.30450E-05-3.07688E-06 1.65436E-24
 -1       191 5.32091E-05 2.20182E-07 0.00000E+00
 -1       192 5.30043E-05 4.40843E-07 1.32349E-23
 -1       193 5.26845E-05 6.61601E-07 0.00000E+00
 -1       194 5.22546E-05 8.82321E-07 0.00000E+00
 -1       195 5.17201E-05 1.10287E-06 0.00000E+00
 -1       251 8.12178E-05 1.18879E-05 0.00000E+00
 -1       252 8.00744E-05 4.23886E-05-6.61744E-24
 -1       253 7.88148E-05 7.69182E-05-2.64698E-23
 -1       254 7.78291E-05 1.01813E-04-1.32349E-23
 -1       255 7.70911E-05 1.08713E-04 0.00000E+00
 -1       256 7.62038E-05 8.97995E-05 0.00000E+00
 -1       257 7.47845E-05 5.09136E-05 0.00000E+00
 -1       258 7.27705E-05-1.50531E-06 0.00000E+00
 -1       259 7.07708E-05-5.36247E-05-2.64698E-23
 -1       260 6.93837E-05-9.16188E-05 0.00000E+00
 -1       261 6.85170E-05-1.09372E-04 2.64698E-23
 -1       262 6.77712E-05-1.01377E-04-1.32349E-23
 -1       263 6.67684E-05-7.57547E-05 0.00000E+00
 -1       264 6.55070E-05-4.11546E-05-6.61744E-24
 -1       265 6.43778E-05-1.11720E-05 0.00000E+00
 -1       266 7.83718E-05-1.13696E-06 0.00000E+00
 -1       267 7.52364E-05-1.21692E-06 0.00000E+00
 -1       268 7.11667E-05-1.30123E-06 3.30872E-24
 -1       269 6.47527E-05-1.39407E-06 0.00000E+00
 -1       270 5.47447E-05-1.51616E-06-1.65436E-24
 -1       271 7.89055E-05 1.73350E-06-2.64698E-23
 -1       272 7.60744E-05 3.66402E-06-2.64698E-23
 -1       273 7.35287E-05 4.84335E-06 0.00000E+00
 -1       274 7.12253E-05 5.35214E-06 2.64698E-23
 -1       275 6.91357E-05 5.28951E-06-5.29396E-23
 -1       276 6.72188E-05 4.76217E-06 0.00000E+00
 -1       277 6.54325E-05 3.88564E-06 5.29396E-23
 -1       278 6.37311E-05 2.78162E-06 0.00000E+00
 -1       279 6.20679E-05 1.57583E-06-5.29396E-23
 -1       280 6.03952E-05 3.95983E-07-2.64698E-23
 -1       281 5.86655E-05-6.30824E-07 0.00000E+00
 -1       282 5.68333E-05-1.38007E-06 2.64698E-23
 -1       283 5.48533E-05-1.73255E-06 0.00000E+00
 -1       284 5.26905E-05-1.57369E-06 0.00000E+00
 -1       285 5.02962E-05-8.04009E-07 0.00000E+00
 -1       286 6.33965E-05 3.05012E-06 1.32349E-23
 -1       287 6.31821E-05 4.74307E-06 0.00000E+00
 -1       288 6.29681E-05 5.70685E-06-6.61744E-24
 -1       289 6.27562E-05 5.84154E-06-3.30872E-24
 -1       290 6.25441E-05 5.20463E-06 6.61744E-24
 -1       291 6.23316E-05 3.86065E-06-3.30872E-24
 -1       292 6.21185E-05 2.00835E-06 6.61744E-24
 -1       293 6.19048E-05-1.48986E-07 0.00000E+00
 -1       294 6.16910E-05-2.35009E-06-6.61744E-24
 -1       295 6.14775E-05-4.33333E-06-3.30872E-24
 -1       296 6.12648E-05-5.87845E-06-6.61744E-24
 -1       297 6.10525E-05-6.76914E-06 0.00000E+00
 -1       298 6.08405E-05-6.91332E-06-6.61744E-24
 -1       299 6.06267E-05-6.22569E-06 0.00000E+00
 -1       300 6.04126E-05-4.77893E-06 0.00000E+00
 -1       301 6.09572E-05 7.15544E-07 0.00000E+00
 -1       302 5.82833E-05 7.14667E-07 1.65436E-24
 -1       303 5.56092E-05 7.16892E-07-3.30872E-24
 -1       304 5.29456E-05 7.18478E-07 0.00000E+00
 -1       305 5.03033E-05 7.15557E-07 0.00000E+00
 -1       306 6.15878E-05 2.43027E-06 0.00000E+00
 -1       307 5.98349E-05 3.27543E-06-1.32349E-23
 -1       308 5.83593E-05 3.38576E-06 0.00000E+00
 -1       309 5.71123E-05 2.87115E-06-1.32349E-23
 -1       310 5.60535E-05 1.85279E-06 0.00000E+00
 -1       311 5.51350E-05 4.56590E-07 2.64698E-23
 -1       312 5.43086E-05-1.18664E-06 0.00000E+00
 -1       313 5.35245E-05-2.94320E-06 2.64698E-23
 -1       314 5.27322E-05-4.67788E-06 5.29396E-23
 -1       315 5.18815E-05-6.25577E-06 0.00000E+00
 -1       316 5.09227E-05-7.54399E-06 0.00000E+00
 -1       317 4.98082E-05-8.41309E-06 0.00000E+00
 -1       318 4.84908E-05-8.73903E-06-2.64698E-23
 -1       319 4.69318E-05-8.40264E-06 0.00000E+00
 -1       320 4.50822E-05-7.29726E-06 2.64698E-23
 -1       321 5.99799E-05-2.80587E-06-1.32349E-23
 -1       322 5.97672E-05-8.16486E-06 3.30872E-24
 -1       323 5.95243E-05-1.77546E-05 6.61744E-24
 -1       324 5.92485E-05-3.05653E-05 0.00000E+00
 -1       325 5.89518E-05-4.50156E-05 0.00000E+00
 -1       326 5.86549E-05-5.95106E-05 3.30872E-24
 -1       327 5.83780E-05-7.24474E-05-6.61744E-24
 -1       328 5.81356E-05-8.22361E-05 3.30872E-24
 -1       329 5.79234E-05-8.78437E-05 0.00000E+00
 -1       330 5.77262E-05-8.82726E-05 0.00000E+00
 -1       331 5.75179E-05-8.34393E-05-6.61744E-24
 -1       332 5.72714E-05-7.33046E-05 0.00000E+00
 -1       333 5.69736E-05-5.87648E-05 0.00000E+00
 -1       334 5.66217E-05-4.07536E-05-3.30872E-24
 -1       335 5.62353E-05-2.08186E-05-6.61744E-24
 -1       336 5.76028E-05-3.09610E-06-1.32349E-23
 -1       337 5.48276E-05-3.54023E-06-6.61744E-24
 -1       338 5.19182E-05-3.98455E-06 0.00000E+00
 -1       339 4.89307E-05-4.42802E-06 6.61744E-24
 -1       340 4.59216E-05-4.87167E-06 0.00000E+00
 -1       341 5.58777E-05 6.83942E-06-1.32349E-23
 -1       342 4.60036E-05 3.04508E-05-6.61744E-24
 -1       343 3.47526E-05 5.74933E-05 0.00000E+00
 -1       344 2.64361E-05 7.72208E-05 0.00000E+00
 -1       345 2.35668E-05 8.29047E-05 0.00000E+00
 -1       346 2.82816E-05 6.81070E-05 0.00000E+00
 -1       347 3.85646E-05 3.74773E-05-1.32349E-23
 -1       348 5.24430E-05-3.83747E-06 6.61744E-24
 -1       349 6.61650E-05-4.46825E-05 0.00000E+00
 -1       350 7.59700E-05-7.39212E-05-6.61744E-24
 -1       351 8.00412E-05-8.69299E-05 0.00000E+00
 -1       352 7.65387E-05-7.95868E-05 6.61744E-24
 -1       353 6.77955E-05-5.87824E-05 0.00000E+00
 -1       354 5.65259E-05-3.16785E-05-6.61744E-24
 -1       355 4.69929E-05-8.91245E-06 0.00000E+00
 -1       356 5.54324E-05 2.02787E-05 0.00000E+00
 -1       357 5.50068E-05 4.17211E-05 3.30872E-24
 -1       358 5.46055E-05 6.19355E-05 0.00000E+00
 -1       359 5.42592E-05 7.90631E-05 0.00000E+00
 -1       360 5.39747E-05 9.18156E-05 0.00000E+00
 -1       361 5.37438E-05 9.89440E-05 0.00000E+00
 -1       362 5.35364E-05 1.00235E-04-6.61744E-24
 -1       363 5.33190E-05 9.55282E-05-3.30872E-24
 -1       364 5.30676E-05 8.57663E-05 0.00000E+00
 -1       365 5.27701E-05 7.19380E-05 3.30872E-24
 -1       366 5.24399E-05 5.57828E-05 0.00000E+00
 -1       367 5.21015E-05 3.90601E-05 0.00000E+00
 -1       368 5.17827E-05 2.36352E-05-3.30872E-24
 -1       369 5.15090E-05 1.13617E-05 0.00000E+00
 -1       370 5.12760E-05 3.51310E-06-2.58494E-26
 -1       371 4.02173E-05-7.07629E-07-3.30872E-24
 -1       372 3.40634E-05-7.88393E-07 1.65436E-24
 -1       373 3.43878E-05-8.47695E-07 0.00000E+00
 -1       374 3.81800E-05-9.12485E-07-8.27181E-25
 -1       375 4.22299E-05-9.78192E-07 4.13590E-25
 -1       376 4.63930E-05 2.31517E-05 0.00000E+00
 -1       377 3.42470E-05 5.34740E-05-3.30872E-24
 -1       378 2.09605E-05 8.65802E-05 6.61744E-24
 -1       379 8.12623E-06 1.18587E-04 0.00000E+00
 -1       380-2.78307E-06 1.45867E-04 0.00000E+00
 -1       381-1.03554E-05 1.64821E-04 0.00000E+00
 -1       382-1.40226E-05 1.73766E-04 0.00000E+00
 -1       383-1.32951E-05 1.71101E-04 0.00000E+00
 -1       384-8.70481E-06 1.57903E-04 0.00000E+00
 -1       385-7.92289E-07 1.35364E-04 0.00000E+00
 -1       386 9.19387E-06 1.06871E-04-6.61744E-24
 -1       387 2.00344E-05 7.58879E-05-3.30872E-24
 -1       388 3.03364E-05 4.64738E-05-6.61744E-24
 -1       389 3.86988E-05 2.26686E-05 0.00000E+00
 -1       390 4.41133E-05 7.18008E-06 1.65436E-24
 -1       406 5.03277E-05 1.53991E-06 0.00000E+00
 -1       407 4.94879E-05 1.75715E-06 0.00000E+00
 -1       408 4.85791E-05 1.97426E-06-1.32349E-23
 -1       409 4.76138E-05 2.19082E-06 0.00000E+00
 -1       410 4.66047E-05 2.40623E-06-6.61744E-24
 -1       466 4.02892E-05 1.21747E-05 0.00000E+00
 -1       467 4.07620E-05 1.93870E-05 0.00000E+00
 -1       468 4.12565E-05 2.21517E-05 0.00000E+00
 -1       469 4.17583E-05 2.25778E-05 6.61744E-24
 -1       470 4.22600E-05 2.14453E-05-1.32349E-23
 -1       471 4.27612E-05 1.95005E-05-6.61744E-24
 -1       472 4.32614E-05 1.70252E-05 1.32349E-23
 -1       473 4.37610E-05 1.42900E-05 6.61744E-24
 -1       474 4.42602E-05 1.14164E-05 0.00000E+00
 -1       475 4.47590E-05 8.52319E-06-6.61744E-24
 -1       476 4.52579E-05 5.71793E-06 0.00000E+00
 -1       477 4.57557E-05 3.10993E-06 0.00000E+00
 -1       478 4.62542E-05 9.21286E-07 0.00000E+00
 -1       479 4.67458E-05-6.16709E-07 3.30872E-24
 -1       480 4.72411E-05-9.03752E-07 0.00000E+00
 -1       481 2.59819E-05-1.68063E-06 1.65436E-24
 -1       482 1.86569E-05-1.59714E-06 0.00000E+00
 -1       483 1.57403E-05-1.49049E-06 0.00000E+00
 -1       484 1.50641E-05-1.37955E-06-1.65436E-24
 -1       485 1.47056E-05-1.26815E-06-3.30872E-24
 -1       486 2.95420E-05 2.34050E-05 6.61744E-24
 -1       487 1.27797E-05 6.39878E-05 6.61744E-24
 -1       488-4.23530E-06 1.05175E-04 0.00000E+00
 -1       489-1.53448E-05 1.32066E-04 6.61744E-24
 -1       490-1.78011E-05 1.36833E-04 1.32349E-23
 -1       491-9.48317E-06 1.12028E-04 0.00000E+00
 -1       492 6.57608E-06 6.43008E-05 1.32349E-23
 -1       493 2.75563E-05 9.99771E-07 0.00000E+00
 -1       494 4.86053E-05-6.25208E-05-1.32349E-23
 -1       495 6.48748E-05-1.10897E-04 0.00000E+00
 -1       496 7.34916E-05-1.36560E-04 1.32349E-23
 -1       497 7.13567E-05-1.32639E-04 6.61744E-24
 -1       498 6.04986E-05-1.06371E-04-1.32349E-23
 -1       499 4.35670E-05-6.53851E-05 0.00000E+00
 -1       500 2.67104E-05-2.45782E-05 0.00000E+00
 -1       501 4.73852E-05 2.77809E-06 1.32349E-23
 -1       502 4.70894E-05 3.91287E-06 0.00000E+00
 -1       503 4.67935E-05 3.96703E-06-1.32349E-23
 -1       504 4.64990E-05 2.82795E-06 0.00000E+00
 -1       505 4.62030E-05 6.89921E-07 0.00000E+00
 -1       506 4.59054E-05-2.24017E-06 3.30872E-24
 -1       507 4.56068E-05-5.55178E-06 6.61744E-24
 -1       508 4.53084E-05-8.82962E-06 3.30872E-24
 -1       509 4.50113E-05-1.16670E-05-6.61744E-24
 -1       510 4.47162E-05-1.36629E-05 0.00000E+00
 -1       511 4.44224E-05-1.46324E-05 6.61744E-24
 -1       512 4.41292E-05-1.44037E-05 3.30872E-24
 -1       513 4.38352E-05-1.31130E-05-6.61744E-24
 -1       514 4.35399E-05-1.09096E-05 0.00000E+00
 -1       515 4.32433E-05-8.17764E-06-6.61744E-24
 -1       516 4.57202E-05 7.69544E-07 6.61744E-24
 -1       517 4.48304E-05 8.78226E-07 0.00000E+00
 -1       518 4.32793E-05 9.84124E-07 0.00000E+00
 -1       519 3.93201E-05 1.08747E-06-4.13590E-25
 -1       520 3.09354E-05 1.16361E-06-2.06795E-25
 -1       521 4.51693E-05 2.15128E-06-2.64698E-23
 -1       522 4.28969E-05 2.78770E-06 0.00000E+00
 -1       523 4.08936E-05 2.71272E-06 5.29396E-23
 -1       524 3.91092E-05 2.03101E-06-2.64698E-23
 -1       525 3.75060E-05 8.63220E-07 5.29396E-23
 -1       526 3.60358E-05-6.63804E-07 0.00000E+00
 -1       527 3.46497E-05-2.41659E-06-5.29396E-23
 -1       528 3.32964E-05-4.25796E-06 0.00000E+00
 -1       529 3.19244E-05-6.04911E-06 0.00000E+00
 -1       530 3.04822E-05-7.65216E-06 0.00000E+00
 -1       531 2.89196E-05-8.93255E-06 0.00000E+00
 -1       532 2.71893E-05-9.76117E-06 0.00000E+00
 -1       533 2.52450E-05-1.00171E-05-5.29396E-23
 -1       534 2.30515E-05-9.58737E-06 2.64698E-23
 -1       535 2.05621E-05-8.37595E-06-2.64698E-23
 -1       536 4.29548E-05-2.72508E-06 0.00000E+00
 -1       537 4.29758E-05-7.60848E-07-8.27181E-25
 -1       538 4.29976E-05 6.51085E-07 0.00000E+00
 -1       539 4.30218E-05 1.57744E-06 1.03398E-25
 -1       540 4.30466E-05 2.08470E-06-1.03398E-25
 -1       541 4.30718E-05 2.23929E-06 0.00000E+00
 -1       542 4.30972E-05 2.10759E-06 0.00000E+00
 -1       543 4.31225E-05 1.75587E-06 0.00000E+00
 -1       544 4.31479E-05 1.25038E-06 0.00000E+00
 -1       545 4.31733E-05 6.57338E-07 0.00000E+00
 -1       546 4.31986E-05 4.29327E-08 0.00000E+00
 -1       547 4.32240E-05-5.26642E-07-4.13590E-25
 -1       548 4.32494E-05-9.85197E-07 8.27181E-25
 -1       549 4.32751E-05-1.26652E-06 4.13590E-25
 -1       550 4.33007E-05-1.30431E-06 0.00000E+00
 -1       551 3.91896E-05-5.46730E-06 3.23117E-24
 -1       552 3.50099E-05-5.62310E-06 1.65436E-24
 -1       553 3.05927E-05-5.77933E-06-6.61744E-24
 -1       554 2.61264E-05-5.93741E-06 0.00000E+00
 -1       555 2.17993E-05-6.09906E-06 0.00000E+00
 -1       556 4.18340E-05-2.89232E-06 0.00000E+00
 -1       557 4.09330E-05-1.02658E-06 0.00000E+00
 -1       558 4.02206E-05 3.41655E-07 0.00000E+00
 -1       559 3.96743E-05 1.26996E-06 0.00000E+00
 -1       560 3.92719E-05 1.81608E-06 0.00000E+00
 -1       561 3.89914E-05 2.03828E-06-1.32349E-23
 -1       562 3.88105E-05 1.99493E-06 0.00000E+00
 -1       563 3.87074E-05 1.74450E-06-3.30872E-24
 -1       564 3.86600E-05 1.34549E-06-6.61744E-24
 -1       565 3.86464E-05 8.56448E-07 9.92617E-24
 -1       566 3.86446E-05 3.35951E-07 0.00000E+00
 -1       567 3.86327E-05-1.57420E-07 1.65436E-24
 -1       568 3.85889E-05-5.65099E-07 4.96308E-24
 -1       569 3.84918E-05-8.28583E-07 1.80946E-25
 -1       570 3.83198E-05-8.89435E-07-1.65436E-24
 -1       571 4.34614E-05-7.16887E-07 6.20385E-25
 -1       572 4.35998E-05-5.01905E-07-1.65436E-24
 -1       573 4.37395E-05-3.69332E-07 1.65436E-24
 -1       574 4.38798E-05-3.00045E-07 1.65436E-24
 -1       575 4.40203E-05-2.74844E-07-3.30872E-24
 -1       576 4.41608E-05-2.74413E-07-1.65436E-24
 -1       577 4.43014E-05-2.79425E-07 0.00000E+00
 -1       578 4.44421E-05-2.70541E-07 3.30872E-24
 -1       579 4.45827E-05-2.28417E-07 6.61744E-24
 -1       580 4.47233E-05-1.33708E-07-6.61744E-24
 -1       581 4.48639E-05 3.29282E-08 0.00000E+00
 -1       582 4.50044E-05 2.90822E-07 3.30872E-24
 -1       583 4.51449E-05 6.59289E-07 1.32349E-23
 -1       584 4.52852E-05 1.15746E-06 0.00000E+00
 -1       585 4.54252E-05 1.80437E-06 0.00000E+00
 -1       586 4.25688E-05-9.74278E-07 3.30872E-24
 -1       587 4.16994E-05-9.15562E-07 0.00000E+00
 -1       588 4.07657E-05-8.56911E-07-1.65436E-24
 -1       589 3.98155E-05-7.98828E-07 3.10193E-25
 -1       590 3.88967E-05-7.42026E-07 0.00000E+00
 -1       591 4.31023E-05-6.62050E-07 0.00000E+00
 -1       592 4.28954E-05-3.56357E-07 3.30872E-24
 -1       593 4.27070E-05-1.03168E-07 3.30872E-24
 -1       594 4.25335E-05 1.08713E-07-1.65436E-24
 -1       595 4.23710E-05 2.90478E-07 0.00000E+00
 -1       596 4.22156E-05 4.53246E-07-1.65436E-24
 -1       597 4.20630E-05 6.08121E-07-3.30872E-24
 -1       598 4.19093E-05 7.66201E-07 8.27181E-25
 -1       599 4.17502E-05 9.38584E-07-3.30872E-24
 -1       600 4.15816E-05 1.13636E-06 0.00000E+00
 -1       601 4.13993E-05 1.37063E-06-1.65436E-24
 -1       602 4.11993E-05 1.65248E-06 4.13590E-25
 -1       603 4.09774E-05 1.99304E-06-8.27181E-25
 -1       604 4.07301E-05 2.40346E-06-1.03398E-25
 -1       605 4.04536E-05 2.89493E-06 0.00000E+00
 -1       606 4.56133E-05 3.69357E-06 0.00000E+00
 -1       607 4.56587E-05 4.86891E-06 0.00000E+00
 -1       608 4.57030E-05 6.13780E-06 0.00000E+00
 -1       609 4.57468E-05 7.49357E-06 0.00000E+00
 -1       610 4.57903E-05 8.92956E-06-3.30872E-24
 -1       611 4.58336E-05 1.04389E-05-1.65436E-24
 -1       612 4.58767E-05 1.20148E-05 0.00000E+00
 -1       613 4.59198E-05 1.36504E-05 3.30872E-24
 -1       614 4.59628E-05 1.53389E-05 0.00000E+00
 -1       615 4.60057E-05 1.70735E-05 3.30872E-24
 -1       616 4.60485E-05 1.88472E-05 0.00000E+00
 -1       617 4.60913E-05 2.06533E-05 3.30872E-24
 -1       618 4.61340E-05 2.24849E-05-1.65436E-24
 -1       619 4.61766E-05 2.43353E-05 0.00000E+00
 -1       620 4.62191E-05 2.61975E-05 1.65436E-24
 -1       621 4.45527E-05 2.76162E-06 0.00000E+00
 -1       622 4.35708E-05 2.90649E-06-1.65436E-24
 -1       623 4.26293E-05 3.05143E-06 0.00000E+00
 -1       624 4.17384E-05 3.19603E-06 0.00000E+00
 -1       625 4.09083E-05 3.33982E-06 1.65436E-24
 -1       626 4.52434E-05 3.74481E-06-6.61744E-24
 -1       627 4.48816E-05 4.97585E-06 0.00000E+00
 -1       628 4.44838E-05 6.30109E-06 0.00000E+00
 -1       629 4.40545E-05 7.70961E-06 0.00000E+00
 -1       630 4.35978E-05 9.19044E-06 0.00000E+00
 -1       631 4.31182E-05 1.07324E-05 0.00000E+00
 -1       632 4.26196E-05 1.23244E-05 3.30872E-24
 -1       633 4.21064E-05 1.39553E-05 0.00000E+00
 -1       634 4.15828E-05 1.56138E-05 3.30872E-24
 -1       635 4.10529E-05 1.72889E-05 0.00000E+00
 -1       636 4.05210E-05 1.89693E-05 0.00000E+00
 -1       637 3.99912E-05 2.06440E-05-8.27181E-25
 -1       638 3.94677E-05 2.23017E-05-3.30872E-24
 -1       639 3.89543E-05 2.39312E-05 4.13590E-25
 -1       640 3.84548E-05 2.55214E-05 1.24077E-24
 -1       641 4.62625E-05 3.00027E-05 0.00000E+00
 -1       642 4.62620E-05 3.21440E-05 0.00000E+00
 -1       643 4.62612E-05 3.44592E-05 0.00000E+00
 -1       644 4.62599E-05 3.69188E-05-5.16988E-26
 -1       645 4.62582E-05 3.94937E-05-1.03398E-25
 -1       646 4.62563E-05 4.21544E-05 2.58494E-26
 -1       647 4.62542E-05 4.48720E-05 0.00000E+00
 -1       648 4.62520E-05 4.76173E-05 0.00000E+00
 -1       649 4.62498E-05 5.03612E-05 0.00000E+00
 -1       650 4.62477E-05 5.30746E-05 0.00000E+00
 -1       651 4.62456E-05 5.57285E-05 1.03398E-25
 -1       652 4.62436E-05 5.82937E-05 0.00000E+00
 -1       653 4.62418E-05 6.07410E-05 0.00000E+00
 -1       654 4.62393E-05 6.30412E-05 0.00000E+00
 -1       655 4.62376E-05 6.51647E-05 0.00000E+00
 -1       656 4.45805E-05 2.79027E-05 0.00000E+00
 -1       657 4.31246E-05 2.77325E-05 1.65436E-24
 -1       658 4.18148E-05 2.75629E-05 0.00000E+00
 -1       659 4.05721E-05 2.73933E-05 0.00000E+00
 -1       660 3.93171E-05 2.72233E-05 0.00000E+00
 -1       661 4.57198E-05 3.00595E-05-3.30872E-24
 -1       662 4.51253E-05 3.22152E-05-3.30872E-24
 -1       663 4.44796E-05 3.45057E-05 0.00000E+00
 -1       664 4.37927E-05 3.69083E-05 0.00000E+00
 -1       665 4.30725E-05 3.93996E-05 0.00000E+00
 -1       666 4.23277E-05 4.19566E-05-3.30872E-24
 -1       667 4.15666E-05 4.45566E-05 0.00000E+00
 -1       668 4.07979E-05 4.71769E-05 3.30872E-24
 -1       669 4.00301E-05 4.97948E-05 0.00000E+00
 -1       670 3.92717E-05 5.23877E-05 0.00000E+00
 -1       671 3.85312E-05 5.49329E-05 6.61744E-24
 -1       672 3.78172E-05 5.74074E-05 3.30872E-24
 -1       673 3.71382E-05 5.97884E-05 0.00000E+00
 -1       674 3.65018E-05 6.20523E-05 0.00000E+00
 -1       675 3.59183E-05 6.41765E-05 0.00000E+00
 -1       676 4.44174E-05 6.69235E-05 0.00000E+00
 -1       677 4.26055E-05 6.67642E-05 1.65436E-24
 -1       678 4.07957E-05 6.66050E-05 3.30872E-24
 -1       679 3.89887E-05 6.64464E-05 0.00000E+00
 -1       680 3.71853E-05 6.62877E-05-3.30872E-24
 -1       681 1.29589E-05 5.72054E-07 0.00000E+00
 -1       682 1.31819E-05 1.78879E-07 3.30872E-24
 -1       683 1.34029E-05-1.76951E-06 6.61744E-24
 -1       684 1.36228E-05-4.71835E-06 0.00000E+00
 -1       685 1.38406E-05-8.34341E-06 0.00000E+00
 -1       686 1.40573E-05-1.23271E-05 3.30872E-24
 -1       687 1.42735E-05-1.64347E-05 0.00000E+00
 -1       688 1.44902E-05-2.04324E-05-3.30872E-24
 -1       689 1.47083E-05-2.40615E-05 0.00000E+00
 -1       690 1.49282E-05-2.70592E-05 3.30872E-24
 -1       691 1.51505E-05-2.90173E-05 0.00000E+00
 -1       692 1.53741E-05-2.95174E-05 0.00000E+00
 -1       693 1.55960E-05-2.78046E-05 0.00000E+00
 -1       694 1.58065E-05-2.31029E-05 1.65436E-24
 -1       695 1.59870E-05-1.39495E-05 0.00000E+00
 -1       696 1.00785E-05-9.73151E-07-3.30872E-24
 -1       697 7.71007E-06-7.80550E-07-3.30872E-24
 -1       698 5.57048E-06-5.87735E-07 0.00000E+00
 -1       699 3.59411E-06-3.93052E-07 3.30872E-24
 -1       700 1.74794E-06-1.98290E-07 0.00000E+00
 -1       701 1.02264E-05 4.81972E-06 0.00000E+00
 -1       702 5.21652E-06 1.72340E-05 0.00000E+00
 -1       703-1.55974E-06 3.41694E-05 6.61744E-24
 -1       704-9.35109E-06 5.36667E-05 0.00000E+00
 -1       705-1.71429E-05 7.31645E-05-6.61744E-24
 -1       706-2.39225E-05 9.01007E-05 3.30872E-24
 -1       707-2.89366E-05 1.02520E-04 6.61744E-24
 -1       708-3.14719E-05 1.08505E-04-3.30872E-24
 -1       709-3.14271E-05 1.07661E-04 0.00000E+00
 -1       710-2.87336E-05 9.96641E-05 0.00000E+00
 -1       711-2.39405E-05 8.58924E-05 6.61744E-24
 -1       712-1.75988E-05 6.77927E-05-3.30872E-24
 -1       713-1.06043E-05 4.78547E-05 0.00000E+00
 -1       714-3.84629E-06 2.85922E-05-3.30872E-24
 -1       715 1.83285E-06 1.23552E-05 3.30872E-24
 -1       716 1.60907E-05 1.64276E-05 0.00000E+00
 -1       717 1.61713E-05 2.60192E-05 1.65436E-24
 -1       718 1.62841E-05 3.11219E-05-3.30872E-24
 -1       719 1.64093E-05 3.28961E-05 0.00000E+00
 -1       720 1.65361E-05 3.20821E-05 3.30872E-24
 -1       721 1.66600E-05 2.94055E-05-1.65436E-24
 -1       722 1.67796E-05 2.53557E-05 0.00000E+00
 -1       723 1.68955E-05 2.04140E-05 0.00000E+00
 -1       724 1.70087E-05 1.49487E-05 0.00000E+00
 -1       725 1.71208E-05 9.32513E-06 0.00000E+00
 -1       726 1.72338E-05 3.88821E-06-3.30872E-24
 -1       727 1.73483E-05-1.01584E-06 0.00000E+00
 -1       728 1.74666E-05-4.97328E-06 0.00000E+00
 -1       729 1.75837E-05-7.56515E-06 0.00000E+00
 -1       730 1.77055E-05-8.20111E-06 0.00000E+00
 -1       731 1.44587E-06 1.13033E-06-2.06795E-25
 -1       732-6.27474E-06 1.18016E-06-8.27181E-25
 -1       733-8.47373E-06 1.25728E-06 0.00000E+00
 -1       734-6.52937E-06 1.33596E-06 0.00000E+00
 -1       735-1.49157E-06 1.40500E-06 3.30872E-24
 -1       736 8.24420E-06 2.02587E-05 0.00000E+00
 -1       737-4.36676E-07 4.14267E-05 0.00000E+00
 -1       738-7.67378E-06 5.89447E-05 0.00000E+00
 -1       739-1.12807E-05 6.71328E-05 0.00000E+00
 -1       740-1.06597E-05 6.41257E-05 0.00000E+00
 -1       741-5.34457E-06 4.82523E-05 0.00000E+00
 -1       742 3.24748E-06 2.31158E-05 0.00000E+00
 -1       743 1.37210E-05-7.47479E-06 6.61744E-24
 -1       744 2.39733E-05-3.74211E-05 0.00000E+00
 -1       745 3.18952E-05-6.06403E-05-6.61744E-24
 -1       746 3.62590E-05-7.38670E-05 1.32349E-23
 -1       747 3.58262E-05-7.40530E-05 6.61744E-24
 -1       748 3.13032E-05-6.34864E-05 1.32349E-23
 -1       749 2.35397E-05-4.46350E-05-6.61744E-24
 -1       750 1.48143E-05-2.33574E-05 6.61744E-24
 -1       751 1.89846E-05-3.75536E-06 0.00000E+00
 -1       752 2.02505E-05-2.56374E-06 1.32349E-23
 -1       753 2.15124E-05-2.12540E-06 0.00000E+00
 -1       754 2.27886E-05-1.90483E-06 1.32349E-23
 -1       755 2.40653E-05-1.80739E-06-2.64698E-23
 -1       756 2.53448E-05-1.74531E-06 2.64698E-23
 -1       757 2.66247E-05-1.70316E-06 0.00000E+00
 -1       758 2.79051E-05-1.66661E-06 0.00000E+00
 -1       759 2.91855E-05-1.63276E-06 0.00000E+00
 -1       760 3.04656E-05-1.59889E-06 0.00000E+00
 -1       761 3.17455E-05-1.56224E-06 0.00000E+00
 -1       762 3.30234E-05-1.51988E-06 0.00000E+00
 -1       763 3.43010E-05-1.45721E-06 2.64698E-23
 -1       764 3.55684E-05-1.35848E-06 0.00000E+00
 -1       765 3.68391E-05-1.13473E-06 1.32349E-23
 -1       766 1.64832E-05-6.16543E-06 6.61744E-24
 -1       767 1.88286E-05-6.02398E-06 0.00000E+00
 -1       768 2.20230E-05-5.88639E-06 8.27181E-25
 -1       769 2.32638E-05-5.74073E-06-8.27181E-25
 -1       770 1.94572E-05-5.60330E-06-2.06795E-25
 -1       771 1.58876E-05-3.73460E-06-2.64698E-23
 -1       772 1.41493E-05-1.67622E-06 1.32349E-23
 -1       773 1.25765E-05-6.25054E-08-2.64698E-23
 -1       774 1.11540E-05 1.14878E-06 1.32349E-23
 -1       775 9.86669E-06 2.00007E-06 0.00000E+00
 -1       776 8.69848E-06 2.53427E-06-1.32349E-23
 -1       777 7.63320E-06 2.79444E-06 0.00000E+00
 -1       778 6.65456E-06 2.82390E-06-1.32349E-23
 -1       779 5.74623E-06 2.66612E-06 0.00000E+00
 -1       780 4.89181E-06 2.36475E-06 1.32349E-23
 -1       781 4.07494E-06 1.96354E-06 2.64698E-23
 -1       782 3.27930E-06 1.50636E-06 0.00000E+00
 -1       783 2.48860E-06 1.03712E-06 2.64698E-23
 -1       784 1.68731E-06 5.99918E-07-1.32349E-23
 -1       785 8.59981E-07 2.38846E-07-2.64698E-23
 -1       786 3.81789E-05-1.93741E-07-8.27181E-25
 -1       787 3.83093E-05 1.91822E-07 0.00000E+00
 -1       788 3.84396E-05 4.83921E-07 0.00000E+00
 -1       789 3.85712E-05 6.99625E-07 0.00000E+00
 -1       790 3.87029E-05 8.55907E-07 0.00000E+00
 -1       791 3.88348E-05 9.69679E-07 1.65436E-24
 -1       792 3.89668E-05 1.05780E-06 0.00000E+00
 -1       793 3.90988E-05 1.13711E-06-1.65436E-24
 -1       794 3.92308E-05 1.22442E-06-3.30872E-24
 -1       795 3.93629E-05 1.33658E-06 0.00000E+00
 -1       796 3.94949E-05 1.49043E-06 3.30872E-24
 -1       797 3.96268E-05 1.70289E-06 0.00000E+00
 -1       798 3.97586E-05 1.99093E-06 0.00000E+00
 -1       799 3.98898E-05 2.37160E-06-1.65436E-24
 -1       800 4.00211E-05 2.86208E-06 0.00000E+00
 -1       801 3.46731E-05-5.59600E-07 0.00000E+00
 -1       802 2.76383E-05-4.37811E-07 0.00000E+00
 -1       803 1.88022E-05-3.28751E-07 0.00000E+00
 -1       804 1.00161E-05-2.22743E-07 3.30872E-24
 -1       805 3.13184E-06-1.03779E-07 1.32349E-23
 -1       806 3.77134E-05-2.47542E-07 3.30872E-24
 -1       807 3.73829E-05 1.47147E-07 0.00000E+00
 -1       808 3.70654E-05 5.03505E-07-6.61744E-24
 -1       809 3.67583E-05 8.30137E-07-3.30872E-24
 -1       810 3.64591E-05 1.13560E-06 0.00000E+00
 -1       811 3.61644E-05 1.42837E-06-3.30872E-24
 -1       812 3.58713E-05 1.71695E-06-6.61744E-24
 -1       813 3.55766E-05 2.00979E-06 1.65436E-24
 -1       814 3.52771E-05 2.31537E-06 6.61744E-24
 -1       815 3.49697E-05 2.64214E-06 0.00000E+00
 -1       816 3.46511E-05 2.99858E-06-3.30872E-24
 -1       817 3.43183E-05 3.39315E-06-1.65436E-24
 -1       818 3.39682E-05 3.83432E-06 0.00000E+00
 -1       819 3.35980E-05 4.33057E-06-8.27181E-25
 -1       820 3.32050E-05 4.89042E-06-1.65436E-24
 -1       821 4.00215E-05 4.26903E-06 0.00000E+00
 -1       822 3.98860E-05 5.23771E-06 0.00000E+00
 -1       823 3.97505E-05 6.36733E-06-3.30872E-24
 -1       824 3.96137E-05 7.63920E-06-1.65436E-24
 -1       825 3.94764E-05 9.03459E-06 0.00000E+00
 -1       826 3.93389E-05 1.05345E-05-1.65436E-24
 -1       827 3.92011E-05 1.21200E-05-3.30872E-24
 -1       828 3.90632E-05 1.37717E-05 0.00000E+00
 -1       829 3.89252E-05 1.54707E-05 0.00000E+00
 -1       830 3.87872E-05 1.71974E-05 0.00000E+00
 -1       831 3.86493E-05 1.89326E-05 0.00000E+00
 -1       832 3.85115E-05 2.06570E-05 0.00000E+00
 -1       833 3.83739E-05 2.23512E-05 3.30872E-24
 -1       834 3.82374E-05 2.39961E-05 1.65436E-24
 -1       835 3.81009E-05 2.55722E-05-1.65436E-24
 -1       836 3.92123E-05 3.81392E-06 0.00000E+00
 -1       837 3.79520E-05 4.15991E-06-3.30872E-24
 -1       838 3.65239E-05 4.50508E-06 0.00000E+00
 -1       839 3.50836E-05 4.84945E-06 0.00000E+00
 -1       840 3.37868E-05 5.19455E-06 3.30872E-24
 -1       841 3.98413E-05 4.26076E-06 0.00000E+00
 -1       842 3.94593E-05 5.23171E-06 0.00000E+00
 -1       843 3.90126E-05 6.37513E-06-2.06795E-25
 -1       844 3.85074E-05 7.67227E-06 2.06795E-25
 -1       845 3.79523E-05 9.10222E-06 0.00000E+00
 -1       846 3.73550E-05 1.06437E-05 0.00000E+00
 -1       847 3.67244E-05 1.22737E-05-4.13590E-25
 -1       848 3.60692E-05 1.39690E-05 0.00000E+00
 -1       849 3.53985E-05 1.57054E-05 0.00000E+00
 -1       850 3.47215E-05 1.74584E-05 0.00000E+00
 -1       851 3.40474E-05 1.92036E-05 0.00000E+00
 -1       852 3.33855E-05 2.09162E-05-2.06795E-25
 -1       853 3.27448E-05 2.25724E-05 0.00000E+00
 -1       854 3.21341E-05 2.41478E-05-4.13590E-25
 -1       855 3.15623E-05 2.56202E-05 0.00000E+00
 -1       856 3.78185E-05 2.86599E-05-1.65436E-24
 -1       857 3.76583E-05 3.05493E-05 0.00000E+00
 -1       858 3.74978E-05 3.26917E-05-3.30872E-24
 -1       859 3.73357E-05 3.50493E-05 1.65436E-24
 -1       860 3.71730E-05 3.75840E-05 0.00000E+00
 -1       861 3.70098E-05 4.02576E-05-1.65436E-24
 -1       862 3.68463E-05 4.30315E-05-6.61744E-24
 -1       863 3.66825E-05 4.58671E-05 0.00000E+00
 -1       864 3.65187E-05 4.87256E-05 0.00000E+00
 -1       865 3.63550E-05 5.15684E-05 3.30872E-24
 -1       866 3.61914E-05 5.43567E-05 0.00000E+00
 -1       867 3.60282E-05 5.70518E-05 0.00000E+00
 -1       868 3.58654E-05 5.96153E-05 0.00000E+00
 -1       869 3.57038E-05 6.20087E-05-1.65436E-24
 -1       870 3.55425E-05 6.41940E-05 0.00000E+00
 -1       871 3.66970E-05 2.70470E-05 0.00000E+00
 -1       872 3.55161E-05 2.70322E-05 8.27181E-25
 -1       873 3.43942E-05 2.70170E-05 0.00000E+00
 -1       874 3.32964E-05 2.70014E-05-4.13590E-25
 -1       875 3.21883E-05 2.69851E-05 1.65436E-24
 -1       876 3.75886E-05 2.87151E-05-3.30872E-24
 -1       877 3.71212E-05 3.06223E-05 0.00000E+00
 -1       878 3.65719E-05 3.27460E-05 0.00000E+00
 -1       879 3.59544E-05 3.50542E-05 0.00000E+00
 -1       880 3.52796E-05 3.75146E-05 0.00000E+00
 -1       881 3.45596E-05 4.00953E-05-3.30872E-24
 -1       882 3.38061E-05 4.27649E-05-6.61744E-24
 -1       883 3.30310E-05 4.54919E-05 0.00000E+00
 -1       884 3.22458E-05 4.82453E-05-6.61744E-24
 -1       885 3.14625E-05 5.09939E-05-3.30872E-24
 -1       886 3.06926E-05 5.37066E-05-6.61744E-24
 -1       887 2.99479E-05 5.63520E-05 0.00000E+00
 -1       888 2.92401E-05 5.88990E-05 6.61744E-24
 -1       889 2.85799E-05 6.13154E-05 0.00000E+00
 -1       890 2.79811E-05 6.35700E-05 0.00000E+00
 -1       891 3.38272E-05 6.60492E-05 0.00000E+00
 -1       892 3.25737E-05 6.59642E-05 8.27181E-25
 -1       893 3.14674E-05 6.58794E-05 0.00000E+00
 -1       894 3.03496E-05 6.57948E-05-8.27181E-25
 -1       895 2.90615E-05 6.57098E-05-1.65436E-24
 -1       896 3.49009E-07 1.67009E-06 0.00000E+00
 -1       897 7.01361E-07 3.28234E-06 0.00000E+00
 -1       898 1.05358E-06 4.84755E-06 0.00000E+00
 -1       899 1.40648E-06 6.37576E-06 6.61744E-24
 -1       900 1.75944E-06 7.86291E-06-1.32349E-23
 -1       901 2.11259E-06 9.30435E-06 0.00000E+00
 -1       902 2.46585E-06 1.06779E-05 0.00000E+00
 -1       903 2.81922E-06 1.19605E-05 0.00000E+00
 -1       904 3.17276E-06 1.30943E-05 0.00000E+00
 -1       905 3.52642E-06 1.40192E-05 0.00000E+00
 -1       906 3.88027E-06 1.45953E-05 1.32349E-23
 -1       907 4.23386E-06 1.46776E-05 0.00000E+00
 -1       908 4.58707E-06 1.39328E-05 0.00000E+00
 -1       909 4.93672E-06 1.20150E-05 3.30872E-24
 -1       910 5.28130E-06 8.13225E-06-6.61744E-24
 -1       911 5.70626E-06-6.16700E-06 0.00000E+00
 -1       912 5.82026E-06-1.28737E-05-1.65436E-24
 -1       913 5.93892E-06-1.87907E-05-3.30872E-24
 -1       914 6.06154E-06-2.40465E-05-1.65436E-24
 -1       915 6.18712E-06-2.86797E-05 0.00000E+00
 -1       916 6.31524E-06-3.27252E-05-1.65436E-24
 -1       917 6.44561E-06-3.61380E-05-3.30872E-24
 -1       918 6.57800E-06-3.88696E-05 1.65436E-24
 -1       919 6.71218E-06-4.07785E-05 3.30872E-24
 -1       920 6.84762E-06-4.17187E-05 0.00000E+00
 -1       921 6.98332E-06-4.14124E-05 0.00000E+00
 -1       922 7.11710E-06-3.95744E-05 0.00000E+00
 -1       923 7.24506E-06-3.57117E-05-3.30872E-24
 -1       924 7.35876E-06-2.93192E-05 0.00000E+00
 -1       925 7.44637E-06-1.95501E-05 4.13590E-25
 -1       926 7.03647E-06 1.38193E-05 0.00000E+00
 -1       927 6.45616E-06 3.94286E-05 3.30872E-24
 -1       928 5.80260E-06 6.79368E-05 6.61744E-24
 -1       929 5.16116E-06 9.59580E-05-3.30872E-24
 -1       930 4.61164E-06 1.20221E-04 6.61744E-24
 -1       931 4.20155E-06 1.37499E-04 0.00000E+00
 -1       932 3.89582E-06 1.46200E-04 0.00000E+00
 -1       933 3.62553E-06 1.44835E-04 0.00000E+00
 -1       934 3.30401E-06 1.34258E-04-6.61744E-24
 -1       935 2.86558E-06 1.15429E-04 0.00000E+00
 -1       936 2.31940E-06 9.12393E-05 6.61744E-24
 -1       937 1.71384E-06 6.46420E-05 0.00000E+00
 -1       938 1.13528E-06 3.91561E-05 6.61744E-24
 -1       939 6.57205E-07 1.82893E-05 6.61744E-24
 -1       940 2.94170E-07 4.45804E-06 0.00000E+00
 -1       941 1.94368E-06 2.74121E-07 2.64698E-23
 -1       942 3.99439E-06 5.75025E-07-2.64698E-23
 -1       943 6.03838E-06 8.89640E-07 5.29396E-23
 -1       944 8.10271E-06 1.20621E-06-2.64698E-23
 -1       945 1.01677E-05 1.52378E-06 0.00000E+00
 -1       946 1.22367E-05 1.84150E-06 0.00000E+00
 -1       947 1.43061E-05 2.15929E-06-5.29396E-23
 -1       948 1.63763E-05 2.47709E-06 0.00000E+00
 -1       949 1.84465E-05 2.79494E-06 0.00000E+00
 -1       950 2.05163E-05 3.11287E-06 0.00000E+00
 -1       951 2.25856E-05 3.43135E-06 0.00000E+00
 -1       952 2.46517E-05 3.75090E-06 2.64698E-23
 -1       953 2.67173E-05 4.07815E-06 5.29396E-23
 -1       954 2.87665E-05 4.42039E-06 0.00000E+00
 -1       955 3.08211E-05 4.86836E-06 2.64698E-23
 -1       956 3.26821E-05 6.38940E-06-2.06795E-24
 -1       957 3.25731E-05 7.37883E-06 1.24077E-24
 -1       958 3.24637E-05 8.47895E-06 1.65436E-24
 -1       959 3.23540E-05 9.67693E-06 0.00000E+00
 -1       960 3.22441E-05 1.09599E-05 1.65436E-24
 -1       961 3.21341E-05 1.23149E-05 1.65436E-24
 -1       962 3.20240E-05 1.37288E-05 0.00000E+00
 -1       963 3.19139E-05 1.51888E-05 1.65436E-24
 -1       964 3.18037E-05 1.66819E-05 0.00000E+00
 -1       965 3.16935E-05 1.81949E-05 0.00000E+00
 -1       966 3.15832E-05 1.97149E-05 0.00000E+00
 -1       967 3.14730E-05 2.12289E-05-1.65436E-24
 -1       968 3.13629E-05 2.27240E-05 0.00000E+00
 -1       969 3.12530E-05 2.41870E-05-1.65436E-24
 -1       970 3.11435E-05 2.56052E-05 3.30872E-24
 -1       971 3.08186E-05 2.84285E-05-3.30872E-24
 -1       972 3.05952E-05 3.01978E-05 3.30872E-24
 -1       973 3.03714E-05 3.22366E-05-6.61744E-24
 -1       974 3.01462E-05 3.45070E-05 0.00000E+00
 -1       975 2.99205E-05 3.69706E-05 6.61744E-24
 -1       976 2.96942E-05 3.95886E-05 3.30872E-24
 -1       977 2.94676E-05 4.23221E-05 0.00000E+00
 -1       978 2.92407E-05 4.51318E-05 0.00000E+00
 -1       979 2.90137E-05 4.79782E-05 0.00000E+00
 -1       980 2.87868E-05 5.08219E-05 3.30872E-24
 -1       981 2.85601E-05 5.36235E-05 0.00000E+00
 -1       982 2.83338E-05 5.63434E-05 3.30872E-24
 -1       983 2.81080E-05 5.89425E-05 0.00000E+00
 -1       984 2.78838E-05 6.13819E-05 0.00000E+00
 -1       985 2.76600E-05 6.36226E-05 3.30872E-24
 -3
    1PSTEP                        34          17           1          
  100CL  117 8.32053E-01         841                     0   17           1
 -4  STRESS      6    1
 -5  SXX         1    4    1    1
 -5  SYY         1    4    2    2
 -5  SZZ         1    4    3    3
 -5  SXY         1    4    1    2
 -5  SYZ         1    4    2    3
 -5  SZX         1    4    3    1
 -1         1-3.27288E+06-1.07031E+06-6.70500E+05-1.00131E+06 1.16415E-10 4.54020E-09
 -1         2-1.80152E+06 3.01550E+02 2.50770E+04-7.06653E+04-6.25522E-09 2.02908E-09
 -1         3-1.10804E+06-3.78052E+05-2.90719E+04-6.85469E+04 2.46246E-09 8.38554E-10
 -1         4-7.74842E+05-1.02514E+05 3.91829E+03-4.09892E+04-1.19820E-09-4.21369E-09
 -1         5-4.99988E+05 1.15663E+05-1.96587E+05-1.54578E+04 1.05138E-08 8.47194E-10
 -1         8-1.52372E+06-5.96525E+05-1.90539E+05-6.10421E+05-1.78261E-10-1.90630E-09
 -1         9-1.76917E+06-4.03688E+05-1.96044E+05-4.14979E+05-1.07927E-10 1.28542E-10
 -1        10-6.71009E+05-3.85221E+05 3.46929E+04-1.00525E+05-3.59792E-09 3.28449E-09
 -1        11-3.58263E+05-3.99765E+04 1.21751E+04 6.35967E+03 3.83397E-08 2.14754E-10
 -1        12-3.35130E+05 1.43461E+05-1.58056E+05-6.31123E+04 1.81489E-08-1.46848E-10
 -1        15 3.01253E+04 8.05609E+04 1.95923E+04-1.98299E+04 4.05635E-10-4.50746E-09
 -1        16-1.30666E+06-2.69002E+05-2.78819E+03-4.95614E+05 2.03969E-09 2.33740E-09
 -1        17-7.25645E+05-4.60280E+05-8.51958E+04-3.58886E+05-1.40669E-10 3.09956E-09
 -1        18-2.26917E+05-8.71977E+04-8.79774E+04-1.10059E+05-4.77485E-10-1.43033E-09
 -1        19 4.64494E+04 1.24581E+05-3.71178E+04-3.23333E+04-4.93947E-09 5.42059E-10
 -1        20 1.17559E+05-8.69715E+04-1.43146E+04 6.25691E+04 8.85757E-09-2.95859E-09
 -1        21 1.80814E+03-1.75312E+05 4.43593E+04 5.26707E+02 1.60119E-08 7.18425E-10
 -1        22 3.82853E+04 1.89572E+05 3.26172E+03-2.15766E+04-2.27374E-12-1.96269E-09
 -1        23-2.18817E+05 9.70777E+04 1.54613E+04-5.20936E+04-6.82803E-09-1.17022E-10
 -1        24-2.53011E+05 4.80579E+03 2.87741E+05-5.02723E+05-9.93289E-09 4.03573E-09
 -1        25 6.20021E+05 2.23551E+05 1.95579E+05-3.23359E+05 1.12141E-09-6.63325E-10
 -1        26 2.26934E+03 1.96871E+05 1.02623E+04-3.63766E+04 1.47202E-09 7.30021E-10
 -1        27-4.50837E+04-7.41825E+04-3.20645E+04 8.52008E+04 5.84229E-09-1.50491E-09
 -1        28-1.49170E+04-1.37302E+05-8.16327E+02 6.59804E+04 1.01563E-08-1.94152E-09
 -1        29 4.82393E+05 3.06638E+05 1.21405E+03 2.53563E+02 4.56399E-11-3.06318E-09
 -1        30 2.12602E+05 4.18283E+04 3.47735E+03-2.81624E+04-1.00757E-09 1.59521E-08
 -1        31-3.34354E+05 8.48364E+04 1.08386E+04-1.94113E+04-1.08978E-08-1.66692E-08
 -1        32 1.01409E+06 5.46432E+05 6.44677E+05-5.19032E+05 1.77807E-08 2.32831E-09
 -1        33 1.44218E+06 6.13335E+05 4.51392E+05-5.54826E+04-1.81818E-08-1.84627E-09
 -1        34-2.36872E+05-3.29641E+04-9.44881E+03 4.55195E+04 4.29213E-09-2.55568E-10
 -1        35-3.84974E+04-4.53669E+04-8.58587E+02 9.81304E+04 1.23630E-08-7.51849E-10
 -1        36-3.98737E+06 1.15517E+05-2.67955E+05-2.65277E-07 1.16366E-09-1.44792E-08
 -1        37-4.10323E+06-1.33742E+05-1.89484E+05-1.07376E-07-2.22989E-09-5.44242E-09
 -1        38-4.03207E+06 1.80146E+04-6.92934E+04-5.66607E-07-1.90277E-09 1.57161E-09
 -1        39-4.05091E+06-2.08509E+04-4.35034E+04-6.75220E-07-1.22183E-09 7.40602E-09
 -1        40-4.03938E+06 2.80388E+03-1.77890E+04-2.55139E-07-2.58643E-09 3.66981E-09
 -1        41-4.04231E+06-3.28534E+03-1.06073E+04-4.78250E-07-9.14427E-10 2.25077E-09
 -1        42-4.04057E+06 4.77106E+02-5.20009E+03-2.15874E-07-3.73342E-09 9.68612E-10
 -1        43-4.04103E+06-8.44434E+02-4.13848E+03 4.32158E-07-5.48998E-09-6.52220E-09
 -1        44-4.04064E+06 3.66531E+02-4.19574E+03 8.35849E-08 3.08531E-09-3.47040E-09
 -1        45-4.04179E+06-2.33036E+03-7.70160E+03-4.75580E-07-7.28916E-10-4.68503E-10
 -1        46-4.03982E+06 1.96077E+03-1.25497E+04 6.82926E-08-1.42565E-09 6.85259E-09
 -1        47-4.04777E+06-1.45493E+04-3.04178E+04-3.61192E-07-2.08906E-09 5.88761E-09
 -1        48-4.03473E+06 1.25656E+04-4.83713E+04 8.60585E-08-4.85540E-09 1.47338E-10
 -1        49-4.08426E+06-9.32867E+04-1.32187E+05-4.06314E-08-1.10900E-09 1.54432E-09
 -1        50-4.00358E+06 8.05672E+04-1.86973E+05-1.75215E-07-4.70551E-09 1.94268E-09
 -1        51 3.74421E+04-4.39634E+05 6.06877E+04-1.19273E+06 0.00000E+00 9.69158E-09
 -1        52 1.83539E+04-4.36415E+05 3.69474E+04-1.31538E+06 6.54836E-10 2.46218E-08
 -1        53 1.28505E+04-4.50700E+05 2.93669E+04-1.18949E+06-1.30967E-10 6.27188E-09
 -1        54 2.85871E+04-4.47931E+05 4.44201E+04-1.31874E+06-1.23691E-09-2.16824E-09
 -1        55 6.12921E+04-4.62760E+05 8.00002E+04-1.18882E+06-3.63798E-10 7.57427E-09
 -1        56-5.39649E+06-6.07051E+05-4.45841E+05-2.08630E+06 9.09495E-10-4.68572E-09
 -1        57-5.59434E+06-9.83013E+05-2.99319E+05-2.04751E+06-6.43922E-10-8.92760E-09
 -1        58-5.48382E+06-7.47398E+05-1.04871E+05-2.06096E+06 4.69299E-10-5.68616E-09
 -1        59-5.49403E+06-8.16872E+05-6.21815E+04-2.07682E+06-3.16095E-09 6.54836E-09
 -1        60-5.49533E+06-7.67603E+05-2.44769E+04-2.05878E+06 1.07093E-09 1.31331E-09
 -1        61-5.48285E+06-7.90903E+05-1.38412E+04-2.07672E+06-7.23958E-10-1.14215E-08
 -1        62-5.49466E+06-7.72678E+05-6.75987E+03-2.06122E+06 8.96080E-10-6.58576E-09
 -1        63-5.48686E+06-7.82303E+05-5.64216E+03-2.07031E+06 9.63269E-10 2.25612E-09
 -1        64-5.49122E+06-7.76158E+05-6.61843E+03-2.06517E+06 1.12823E-09 2.92175E-09
 -1        65-5.49564E+06-7.77830E+05-1.33933E+04-2.06188E+06 4.97948E-10-6.55382E-09
 -1        66-5.48592E+06-7.77230E+05-2.36586E+04-2.06963E+06-8.23320E-10 3.68982E-09
 -1        67-5.51595E+06-7.93367E+05-6.00172E+04-2.05111E+06-1.91312E-09 3.19505E-09
 -1        68-5.47124E+06-7.61285E+05-1.01235E+05-2.07579E+06 1.44246E-09-1.62618E-09
 -1        69-5.61672E+06-9.49848E+05-2.88903E+05-2.01847E+06 4.47471E-10-1.47702E-09
 -1        70-5.38664E+06-6.26107E+05-4.30349E+05-2.10057E+06-2.06637E-09 1.28057E-09
 -1        71-2.36343E+06 1.67859E+04-3.90092E+04-9.24882E-09-2.90887E-09 3.08864E-09
 -1        72-2.38011E+06-1.94389E+04-2.75704E+04 1.52964E-07-4.79665E-10 2.98360E-09
 -1        73-2.36993E+06 2.61857E+03-1.01051E+04 6.56188E-08-5.22608E-10 1.72304E-09
 -1        74-2.37251E+06-3.03338E+03-6.36754E+03 3.83972E-07-6.44107E-10-1.82797E-09
 -1        75-2.37099E+06 4.09894E+02-2.65799E+03-3.51337E-07-2.36450E-09-1.79170E-10
 -1        76-2.37127E+06-4.95552E+02-1.68678E+03-3.21362E-07 1.45067E-10 3.68212E-09
 -1        77-2.37116E+06 8.50040E+01-1.02320E+03-3.20675E-07-3.59131E-10 9.97929E-10
 -1        78-2.37115E+06-2.41202E+02-1.18604E+03-2.82460E-07-1.67215E-10 2.35643E-09
 -1        79-2.37111E+06 1.55969E+02-1.66970E+03-1.01800E-07-4.33049E-10-3.06176E-09
 -1        80-2.37160E+06-1.10846E+03-3.55592E+03 6.15693E-08 3.93120E-11 7.81483E-10
 -1        81-2.37070E+06 9.50988E+02-6.02846E+03 1.99271E-08-1.32829E-09 2.53772E-09
 -1        82-2.37453E+06-7.07745E+03-1.47785E+04-1.94757E-07-2.35032E-09 2.41221E-09
 -1        83-2.36821E+06 6.11510E+03-2.35561E+04-1.62989E-08-2.21569E-09-2.80670E-09
 -1        84-2.39228E+06-4.54003E+04-6.43702E+04-2.32398E-07-2.21616E-09 4.17003E-09
 -1        85-2.35303E+06 3.92068E+04-9.10805E+04-2.61283E-07-2.58561E-09 2.73212E-09
 -1        86-9.04691E+04 3.66730E+05 2.13909E+05 4.75670E+03 4.36557E-11 1.51226E-09
 -1        87 1.14059E+05 4.64982E+05 1.68052E+05-2.13832E+04-5.82077E-11-1.38228E-09
 -1        88-2.33278E+04 3.98595E+05 8.90232E+04 2.72068E+03-1.15142E-09 9.31777E-10
 -1        89 8.65853E+04 4.51161E+05 1.32009E+05-1.96559E+04 5.78439E-10-1.34191E-09
 -1        90-6.30151E+04 3.80468E+05 1.52378E+05 3.02994E+03-1.38971E-09-5.50060E-10
 -1        91-1.67930E+06-3.54229E+05-3.60101E+04-7.34512E+05 7.83712E-09-1.79989E-09
 -1        92-1.54982E+06 6.50003E+04 6.17575E+04-2.56665E+05 2.40827E-08-5.86283E-09
 -1        93-1.46333E+06-3.23670E+05-9.24910E+02-7.16791E+05 2.90861E-08-1.21899E-09
 -1        94-1.30804E+06 2.60327E+03 9.01922E+04-2.71147E+05 5.87170E-09-5.72504E-09
 -1        95-1.91161E+06-3.01485E+05-8.61808E+04-7.11514E+05-7.39874E-09-1.05456E-09
 -1        96-9.94570E+05-2.09269E+05 1.08396E+05-5.05810E+05 1.42081E-08-4.79895E-09
 -1        97-1.77158E+06-1.16935E+05-2.41419E+04-4.78772E+05 1.52595E-08 9.97716E-10
 -1        98-1.16486E+06-3.84535E+05 4.10922E+04-7.59972E+05-7.70357E-08 1.13604E-08
 -1        99-1.75720E+06-1.10242E+05-2.06579E+04-4.70111E+05-1.33804E-07-8.25366E-09
 -1       100-9.99940E+05-2.21072E+05 1.03547E+05-5.20916E+05-7.69833E-08-5.11136E-09
 -1       101-1.92130E+06-2.95713E+05-9.02620E+04-7.05658E+05-1.04264E-08-4.21323E-09
 -1       102-1.28692E+06-6.75238E+03 8.53261E+04-2.73662E+05 2.19679E-08 8.66476E-09
 -1       103-1.47393E+06-3.20933E+05-1.73479E+04-7.19415E+05 2.11526E-08 4.09136E-09
 -1       104-1.57500E+06 3.70783E+04 1.96661E+04-2.51100E+05-7.49424E-09 9.63064E-09
 -1       105-1.64391E+06-3.28723E+05-9.03516E+04-7.37782E+05 2.36323E-08 1.34878E-08
 -1       106-1.67999E+06 1.30813E+04-3.04075E+04-2.63325E-07 1.27970E-09 4.44015E-09
 -1       107-1.69301E+06-1.51490E+04-2.14918E+04-1.16038E-07 6.98156E-11 2.44859E-09
 -1       108-1.68506E+06 2.04068E+03-7.87956E+03-1.03247E-07 3.45534E-10-3.59250E-10
 -1       109-1.68709E+06-2.36393E+03-4.96482E+03 1.17537E-07 1.53142E-09 1.26556E-09
 -1       110-1.68589E+06 3.19402E+02-2.07224E+03-6.22873E-08 2.62501E-10 2.26851E-09
 -1       111-1.68613E+06-3.85859E+02-1.31329E+03 1.47525E-07-1.45451E-10 1.90080E-09
 -1       112-1.68602E+06 6.59502E+01-7.93530E+02-2.68224E-07 7.59554E-10-8.54882E-10
 -1       113-1.68603E+06-1.85728E+02-9.14500E+02-2.79244E-07-1.12630E-09-2.54676E-09
 -1       114-1.68599E+06 1.19602E+02-1.28287E+03-1.96229E-07 1.34985E-10 4.16321E-09
 -1       115-1.68638E+06-8.49222E+02-2.72770E+03-4.34518E-08-1.62746E-09 9.74694E-10
 -1       116-1.68567E+06 7.28467E+02-4.62274E+03 1.12791E-07-1.60323E-09 1.62527E-09
 -1       117-1.68861E+06-5.42125E+03-1.13273E+04 3.37981E-07-1.12150E-09 7.08042E-10
 -1       118-1.68376E+06 4.68399E+03-1.80547E+04-2.12557E-08-2.03269E-09-3.36422E-09
 -1       119-1.70221E+06-3.47752E+04-4.93201E+04 1.36146E-07 1.06277E-09-7.31234E-10
 -1       120-1.67212E+06 3.00307E+04-6.97854E+04-1.50626E-07 1.50640E-09-7.67614E-10
 -1       121-1.85176E+03-1.26124E+06 7.39398E+03-2.65619E+03-3.90173E-10 1.79625E-09
 -1       122 2.27030E+03-1.25819E+06 4.51365E+03-1.20971E+04-5.21823E-10 6.81575E-09
 -1       123-1.99991E+02-1.26006E+06 1.25473E+03-2.02481E+03-9.02219E-10 2.16369E-09
 -1       124-5.47714E+02-1.25998E+06-5.45165E+02-1.32783E+04-7.08098E-10-3.52338E-09
 -1       125 4.95828E+02-1.25957E+06-2.14804E+03-1.47556E+03-1.72582E-09-3.34785E-09
 -1       126-7.15635E+05-1.13933E+05 3.43557E+04-2.30400E+05 4.24552E-08-5.59885E-09
 -1       127-4.28736E+05-8.65958E+04 6.27276E+04-2.58339E+05 3.81460E-08 1.54578E-08
 -1       128-6.56136E+05-5.51106E+04 8.91834E+03-1.88155E+05-3.47513E-08-3.01588E-09
 -1       129-5.05179E+05-1.51824E+05 1.20545E+04-3.10314E+05-5.29457E-08-1.05164E-08
 -1       130-6.43069E+05-4.58466E+04 2.33174E+03-1.81116E+05-3.58835E-08 2.39743E-09
 -1       131-4.68997E+05-1.34472E+05 1.70660E+04-2.74964E+05-9.09301E-09 1.38107E-09
 -1       132-6.89897E+05-7.42983E+04-1.48425E+04-2.21830E+05 3.38700E-08-6.08497E-09
 -1       133-4.18907E+05-7.38853E+04 3.70723E+04-1.87039E+05 4.34854E-08-8.07120E-10
 -1       134-6.88854E+05-1.09644E+05-2.22706E+04-2.65767E+05 2.34195E-08 4.41901E-09
 -1       135-5.03274E+05-2.27273E+04 3.00242E+04-1.33683E+05-2.41414E-08 2.17451E-08
 -1       136-6.06944E+05-1.24366E+05-1.01333E+04-2.75984E+05 1.30231E-08 4.00496E-09
 -1       137-6.42187E+05-4.72949E+03 4.95813E+03-1.31667E+05 2.72395E-08 1.65865E-08
 -1       138-5.54449E+05-1.24312E+05-3.59646E+03-2.71428E+05 1.97883E-09 1.55858E-08
 -1       139-6.40293E+05-7.92472E+03-3.09826E+03-1.30892E+05 6.83555E-08 4.40341E-08
 -1       140-6.08719E+05-1.21266E+05-2.98421E+04-2.76653E+05 1.23364E-08-1.50494E-08
 -1       141-9.52582E+05 2.12812E+03-4.95452E+03-1.67658E-07-6.84474E-10-2.02272E-09
 -1       142-9.54641E+05-2.46519E+03-3.51319E+03 9.43552E-08-7.85655E-10 6.39511E-09
 -1       143-9.53407E+05 3.32649E+02-1.31477E+03-2.59631E-08 8.50722E-10 3.09569E-10
 -1       144-9.53682E+05-3.89845E+02-8.76194E+02 7.22756E-08 6.87470E-11 8.75389E-11
 -1       145-9.53539E+05 5.65701E+01-4.68010E+02 8.53959E-08-9.09440E-10-9.00634E-10
 -1       146-9.53547E+05-9.82214E+01-4.92825E+02-9.35188E-08 4.64839E-10-5.09375E-09
 -1       147-9.53542E+05 4.15605E+01-6.52670E+02-6.51206E-08 5.04064E-11 1.35884E-10
 -1       148-9.53650E+05-2.63554E+02-1.29959E+03 8.01646E-08-9.60920E-10 3.75246E-09
 -1       149-9.53437E+05 2.21745E+02-2.29815E+03 8.26736E-08-5.90808E-10 2.16244E-09
 -1       150-9.54389E+05-1.65438E+03-5.24769E+03-8.22683E-08 2.92920E-10-3.79191E-09
 -1       151-9.52806E+05 1.43039E+03-9.04188E+03 1.15421E-07 7.92013E-10-2.65482E-09
 -1       152-9.58794E+05-1.06572E+04-2.22575E+04 2.85831E-08 1.54198E-10-1.94768E-09
 -1       153-9.49043E+05 9.20975E+03-3.55062E+04-1.91933E-08 2.10868E-09 1.77715E-09
 -1       154-9.85510E+05-6.83755E+04-9.69940E+04-1.07307E-07 8.76455E-10 1.68438E-09
 -1       155-9.26112E+05 5.90498E+04-1.37202E+05 3.53047E-08 6.71843E-09 4.43833E-09
 -1       156-2.91513E+04-1.75589E+05 6.54485E+04-2.78189E+04-9.60790E-09 1.88720E-10
 -1       157 3.49638E+04-1.27151E+05 5.26844E+04 1.14646E+05-2.45786E-08 1.14574E-09
 -1       158-5.16953E+03-1.63369E+05 2.27533E+04-2.78401E+04-1.21504E-08 3.47200E-10
 -1       159 2.20747E+04-8.43030E+04 4.17555E+04 1.09487E+05-4.76325E-09 8.31164E-10
 -1       160-1.82751E+04-2.15723E+05 1.83102E+04-2.26816E+04 2.36078E-08-1.53796E-09
 -1       161-7.41057E+05-9.94709E+04 1.72115E+03-2.60797E+05-6.79256E-09-2.46155E-09
 -1       162-6.40932E+05-1.20284E+05 1.23746E+04-2.92266E+05 2.10599E-08-1.50322E-09
 -1       163-7.30019E+05-7.78172E+04 1.06901E+03-2.39415E+05 5.04947E-08-4.68395E-09
 -1       164-6.53294E+05-1.41729E+05 2.44944E+03-3.14184E+05 6.45336E-08 1.00466E-08
 -1       165-7.29701E+05-7.72222E+04-3.90043E+02-2.39634E+05 6.42278E-08 3.07210E-09
 -1       166-6.44152E+05-1.25780E+05 6.39077E+03-2.90879E+05 1.46955E-08 1.65392E-08
 -1       167-7.38147E+05-9.45875E+04-6.03288E+03-2.61954E+05-1.61003E-09-1.00288E-08
 -1       168-6.53361E+05-9.06081E+04 1.06521E+04-2.46229E+05-1.39210E-08-7.10975E-09
 -1       169-7.19503E+05-1.13189E+05-7.28441E+03-2.83484E+05 1.38646E-08-6.22572E-09
 -1       170-7.08276E+05-6.35862E+04 2.73938E+03-2.17699E+05 4.39132E-09-8.04880E-09
 -1       171-6.84224E+05-1.20810E+05-7.14731E+03-2.91244E+05-6.67612E-08-5.81440E-09
 -1       172-7.49047E+05-6.14042E+04-1.58224E+04-2.09501E+05-4.71150E-08 8.82164E-09
 -1       173-6.79738E+05-1.14582E+05-2.82182E+04-2.92501E+05-9.05611E-08 7.75344E-09
 -1       174-7.41135E+05-1.17607E+05-7.45957E+04-2.07204E+05-1.00579E-07 1.74759E-08
 -1       175-6.91212E+05-6.54359E+04-1.23502E+05-2.92740E+05-1.48430E-08 6.03177E-09
 -1       191 2.30071E+03 6.32473E+05 3.74674E+03-2.87908E+04-3.60160E-10-1.97542E-09
 -1       192 8.04185E+02 6.33025E+05 2.14805E+03-3.12235E+04 4.83169E-10-1.02227E-09
 -1       193 3.08529E+02 6.32638E+05 1.56564E+03-2.84785E+04-9.16316E-10 4.01633E-09
 -1       194 8.43068E+02 6.32978E+05 2.17365E+03-3.17833E+04 4.80668E-10 1.20781E-09
 -1       195 2.38850E+03 6.32381E+05 3.81329E+03-2.82272E+04-1.47520E-09 2.39743E-09
 -1       251-2.08941E+06 1.05600E+04-1.01871E+05-1.22205E+05-1.51613E-09 1.10231E-09
 -1       252-1.80250E+06-1.22187E+04-1.18723E+04 3.32240E+05-1.89678E-09-2.48019E-09
 -1       253-1.98797E+06 8.46189E+03-2.40474E+04-1.56143E+05-9.74978E-10-1.07384E-08
 -1       254-1.60332E+06 1.04227E+04 6.01884E+04 2.06037E+05-2.65868E-09-1.67347E-09
 -1       255-2.27535E+06-2.51209E+04-7.26710E+04 4.10568E+03 1.14724E-08 3.79305E-09
 -1       256-1.55928E+06 2.04016E+04 7.77449E+04-1.31145E+05 5.59839E-09 4.80350E-09
 -1       257-2.02872E+06-4.69701E+03-1.68672E+04 1.80370E+05-8.04039E-09 4.47169E-09
 -1       258-1.81477E+06 1.76939E+04 2.92662E+04-3.04355E+05-2.91408E-10 1.63129E-09
 -1       259-2.03701E+06-5.48258E+03-1.86224E+04 1.77997E+05-1.20099E-08 1.11490E-08
 -1       260-1.55211E+06 2.04948E+04 7.92179E+04-1.23518E+05 1.11977E-08 2.09320E-09
 -1       261-2.27377E+06-2.48842E+04-7.21668E+04-1.15009E+03 9.91349E-10 1.48088E-09
 -1       262-1.61152E+06 1.02418E+04 5.88689E+04 2.12926E+05 1.21534E-08-6.59020E-09
 -1       263-1.98192E+06 8.95970E+03-2.21644E+04-1.57770E+05-1.32641E-08-6.26551E-09
 -1       264-1.79887E+06-1.09889E+04-9.71911E+03 3.30517E+05-5.97038E-08-3.65389E-09
 -1       265-2.09887E+06 8.61699E+03-1.01694E+05-1.18850E+05-2.45363E-08-2.50657E-09
 -1       266-3.63711E+04-2.25549E+05 8.44303E+04-9.91035E+03-4.00178E-11-5.37244E-09
 -1       267 4.04910E+04-1.86257E+05 5.76821E+04 4.44010E+04-2.27374E-11-3.48905E-09
 -1       268-4.25051E+03-2.13203E+05 1.63506E+04-8.92872E+03-2.83762E-10-1.32434E-09
 -1       269-2.80495E+03-1.94745E+05 2.42404E+03 3.98485E+04-2.46928E-10 6.52244E-09
 -1       270 6.36377E+03-2.16427E+05-1.75421E+04-5.36857E+03 2.72848E-11 1.17652E-08
 -1       271-4.55128E+06-5.76095E+05-3.57079E+05-1.76608E+06 8.47649E-10-4.51109E-10
 -1       272-4.67826E+06-8.08147E+05-2.25439E+05-1.76413E+06-1.93177E-09 1.96451E-09
 -1       273-4.61567E+06-6.54989E+05-8.41908E+04-1.75388E+06-3.97279E-09-1.22236E-09
 -1       274-4.60254E+06-7.06898E+05-4.62164E+04-1.78547E+06-1.48975E-09 9.21500E-09
 -1       275-4.62484E+06-6.61563E+05-1.95677E+04-1.75077E+06-1.90175E-09-5.18412E-10
 -1       276-4.59133E+06-6.99048E+05-1.03386E+04-1.79084E+06 7.33053E-10-4.38740E-09
 -1       277-4.62700E+06-6.61160E+05-5.30037E+03-1.74931E+06-1.09003E-09-2.93653E-09
 -1       278-4.58898E+06-6.99589E+05-4.15249E+03-1.79292E+06 2.21632E-09 1.59303E-08
 -1       279-4.62740E+06-6.60772E+05-4.96538E+03-1.74889E+06-1.31081E-10 6.38784E-09
 -1       280-4.58994E+06-7.00347E+05-9.45278E+03-1.79262E+06-1.84434E-09-1.90244E-09
 -1       281-4.62605E+06-6.60506E+05-1.77207E+04-1.74956E+06-9.59062E-10-2.67664E-09
 -1       282-4.59914E+06-7.08465E+05-4.18638E+04-1.78901E+06-3.32989E-10-7.05040E-09
 -1       283-4.61820E+06-6.54107E+05-7.61786E+04-1.75188E+06 1.02318E-10-4.51109E-10
 -1       284-4.66694E+06-8.00850E+05-2.04069E+05-1.77051E+06 3.23780E-10-6.57747E-09
 -1       285-4.56021E+06-5.82429E+05-3.23221E+05-1.76260E+06-1.06957E-09-4.27826E-09
 -1       286-6.15242E+05-2.26027E+04 5.24910E+04-2.41972E+03 2.02016E-09 3.06318E-09
 -1       287-5.91749E+05 2.61820E+04 3.72190E+04 2.31367E+03 2.46571E-09 4.04134E-09
 -1       288-6.06627E+05-3.54259E+03 1.35327E+04-4.79642E+02-4.12967E-10-1.08957E-09
 -1       289-6.01907E+05 4.09684E+03 8.65910E+03-1.71220E+03-1.19712E-10 4.00064E-10
 -1       290-6.05097E+05-5.61748E+02 3.46721E+03 1.60622E+03 1.45135E-09 5.00449E-10
 -1       291-6.03893E+05 6.61435E+02 2.18055E+03-5.17451E+03 3.14475E-09 9.03128E-09
 -1       292-6.04662E+05-9.94536E+01 1.09622E+03 2.98271E+03 2.68911E-09 4.40906E-09
 -1       293-6.04362E+05 2.11815E+02 9.95983E+02-6.66950E+03 9.49044E-10 1.05326E-09
 -1       294-6.04642E+05-1.02475E+02 1.13955E+03 3.10127E+03 3.49318E-09 3.48254E-09
 -1       295-6.03934E+05 6.97474E+02 2.28030E+03-5.60176E+03 3.14122E-09-8.35001E-10
 -1       296-6.05079E+05-5.92033E+02 3.67587E+03 1.91493E+03 1.24157E-09 3.47018E-09
 -1       297-6.01822E+05 4.33743E+03 9.15422E+03-2.39747E+03 5.21851E-10-2.61309E-09
 -1       298-6.06732E+05-3.75095E+03 1.43349E+04-1.03078E+02-7.59428E-11 1.20963E-10
 -1       299-5.90982E+05 2.77298E+04 3.94213E+04 1.64025E+03-9.40176E-10-2.47701E-09
 -1       300-6.15900E+05-2.39410E+04 5.55896E+04-2.12286E+03-5.98561E-11-4.03816E-10
 -1       301 6.15069E+04 2.03955E+04 1.34752E+05-3.58146E+04 3.49246E-09 1.65915E-08
 -1       302 2.08705E+04 4.55801E+04 8.22811E+04-4.21368E+04 2.23054E-09 3.10529E-08
 -1       303 5.97205E+03 2.93362E+04 6.56282E+04-3.59431E+04 3.19142E-09 1.76506E-08
 -1       304 2.65241E+04 4.89031E+04 9.73522E+04-4.20858E+04 2.35195E-09-2.90447E-09
 -1       305 7.98689E+04 1.71074E+04 1.71343E+05-3.58155E+04 3.41970E-09 4.86125E-09
 -1       306-3.11097E+06-4.03831E+05-2.09310E+05-1.20603E+06 6.03904E-10-3.60887E-09
 -1       307-3.16626E+06-5.58089E+05-1.32005E+05-1.22627E+06 3.31022E-09 3.12139E-09
 -1       308-3.14897E+06-4.49582E+05-4.93890E+04-1.19866E+06-1.45337E-09 3.05226E-09
 -1       309-3.12196E+06-4.99115E+05-2.71013E+04-1.23927E+06 6.06633E-10 1.64619E-09
 -1       310-3.15441E+06-4.53336E+05-1.15169E+04-1.19683E+06 2.13731E-10 1.96360E-09
 -1       311-3.11565E+06-4.94395E+05-6.14188E+03-1.24238E+06 3.99450E-09 1.86787E-09
 -1       312-3.15555E+06-4.53218E+05-3.26603E+03-1.19614E+06 6.80302E-10-2.92022E-09
 -1       313-3.11470E+06-4.94324E+05-2.78729E+03-1.24313E+06 4.16466E-09 4.05271E-09
 -1       314-3.15548E+06-4.53267E+05-3.62817E+03-1.19619E+06 3.03726E-09 4.71300E-09
 -1       315-3.11595E+06-4.94328E+05-7.13691E+03-1.24210E+06-3.34967E-09-2.78033E-09
 -1       316-3.15413E+06-4.53395E+05-1.35382E+04-1.19701E+06-7.66249E-10-4.32374E-09
 -1       317-3.12332E+06-5.00027E+05-3.19584E+04-1.23861E+06-6.33008E-10-3.08137E-09
 -1       318-3.14784E+06-4.48824E+05-5.82551E+04-1.19902E+06-9.23137E-10 1.35697E-09
 -1       319-3.17529E+06-5.69988E+05-1.55761E+05-1.22376E+06 1.57320E-09 5.07134E-09
 -1       320-3.10325E+06-3.94539E+05-2.46904E+05-1.20743E+06-5.49335E-10-2.18279E-10
 -1       321-5.85303E+05-2.71348E+04 5.66756E+04 5.67237E+03-4.31555E-10 8.00355E-09
 -1       322-5.28277E+05 3.12506E+04 4.58563E+04-2.64407E+04 9.74808E-09 5.44560E-09
 -1       323-5.66836E+05-4.35345E+03 1.44192E+04 1.61775E+04-6.72060E-09 3.01134E-09
 -1       324-5.54353E+05 5.28122E+03 1.04543E+04-4.10101E+04-2.41339E-08 2.61196E-09
 -1       325-5.60039E+05-6.01444E+02 4.02007E+03 2.02501E+04 6.25761E-09 3.69300E-09
 -1       326-5.56561E+05 1.24067E+03 2.97071E+03-4.12199E+04 3.27145E-09 5.63895E-09
 -1       327-5.64644E+05-3.09374E+02 4.63092E+01 1.63875E+04-3.80146E-09 8.02982E-09
 -1       328-5.42907E+05 6.94868E+02 3.88005E+03-2.68558E+04 1.04546E-09 5.02104E-09
 -1       329-5.72909E+05-6.63080E+02-2.53916E+03 5.87744E+03 1.00622E-08-7.39533E-11
 -1       330-5.33592E+05 6.54336E+02 5.04813E+03-2.99533E+03 7.79391E-09 3.03061E-09
 -1       331-5.73427E+05-6.80678E+02-3.29107E+03-7.46218E+03-1.89630E-10-6.70752E-10
 -1       332-5.41749E+05 2.29287E+02 2.38198E+03 2.14097E+04 2.67436E-08-7.26453E-09
 -1       333-5.65185E+05 9.52457E+01-3.39241E+03-1.85190E+04 1.64681E-08-1.31899E-09
 -1       334-5.58120E+05-3.14023E+03-5.17180E+03 3.72304E+04 2.11406E-08 1.02136E-09
 -1       335-5.57877E+05 3.31527E+03-8.74787E+03-2.32981E+04-1.98631E-08-3.88627E-09
 -1       336 6.96135E+02-1.25966E+06-4.73697E+03-5.78141E+03-2.00930E-09-1.41745E-09
 -1       337-1.99914E+03-1.26166E+06-7.78398E+03-3.22479E+04-1.77259E-09-2.09980E-10
 -1       338 1.17587E+03-1.25925E+06-1.22499E+04-5.56732E+03-2.16778E-09-1.96860E-09
 -1       339-1.41886E+04-1.26896E+06-2.94234E+04-3.24850E+04-4.94765E-10-4.22506E-09
 -1       340 1.05570E+04-1.25243E+06-4.56491E+04-5.55057E+03-1.98088E-09-1.76340E-09
 -1       341-1.55116E+06-2.74832E+05-6.40468E+04-6.68679E+05-2.87964E-08-3.71074E-10
 -1       342-1.59636E+06-5.99850E+04-6.18984E+03-3.64067E+05-6.15638E-08-7.52198E-09
 -1       343-1.47335E+06-2.84941E+05-1.35915E+04-6.65563E+05 1.44972E-08 4.69618E-09
 -1       344-1.43245E+06-8.76295E+04 3.80422E+04-3.94229E+05 4.36028E-08 2.08456E-09
 -1       345-1.70979E+06-2.52396E+05-4.46662E+04-6.33880E+05 9.11223E-09-5.71617E-10
 -1       346-1.25124E+06-2.34752E+05 4.85007E+04-5.65514E+05-2.21116E-08-1.02303E-08
 -1       347-1.65300E+06-1.39343E+05-1.02750E+04-4.93304E+05-4.46971E-08 2.42558E-08
 -1       348-1.30852E+06-3.36501E+05 1.79250E+04-7.06348E+05 4.28049E-08 4.86698E-08
 -1       349-1.65967E+06-1.43535E+05-1.35176E+04-4.98906E+05 3.07946E-08 1.66908E-08
 -1       350-1.25189E+06-2.28011E+05 4.67041E+04-5.54721E+05-3.58664E-08-2.51782E-09
 -1       351-1.70209E+06-2.55306E+05-5.01994E+04-6.38754E+05 1.13050E-09 2.87764E-09
 -1       352-1.45300E+06-9.18832E+04 1.93809E+04-3.88789E+05-1.42700E-09-1.10776E-09
 -1       353-1.46098E+06-2.77339E+05-3.86705E+04-6.66524E+05-9.75888E-10-5.82077E-09
 -1       354-1.62230E+06-1.17233E+05-8.40885E+04-3.54559E+05 4.68658E-08 1.19981E-08
 -1       355-1.53744E+06-2.25467E+05-1.80197E+05-6.77038E+05 1.69457E-08-8.14180E-09
 -1       356-5.83759E+05 4.16171E+03-1.11190E+04-2.60929E+04-2.88014E-09-4.01451E-09
 -1       357-5.86616E+05-3.96899E+03-7.08814E+03 4.50095E+04-4.10942E-08 2.76032E-09
 -1       358-5.90002E+05 2.73473E+02-3.75353E+03-2.29013E+04-2.26081E-08-9.57471E-10
 -1       359-5.68164E+05 2.69414E+02 1.95583E+03 3.03927E+04 1.88847E-08-3.05175E-09
 -1       360-6.01293E+05-7.79924E+02-3.95322E+03-1.14549E+04 2.46075E-08-5.07191E-09
 -1       361-5.53839E+05 8.23446E+02 5.81322E+03 3.43563E+03 3.47636E-08-2.87118E-09
 -1       362-6.03551E+05-8.82138E+02-4.17813E+03 4.05112E+03 9.71295E-09 1.84809E-09
 -1       363-5.61679E+05 6.15379E+02 3.88198E+03-2.54322E+04 1.79671E-08 2.89060E-09
 -1       364-5.93896E+05-2.27954E+02-3.34312E+03 1.73945E+04 2.86109E-08 3.69437E-09
 -1       365-5.80865E+05-5.48297E+02-2.67903E+03-4.48109E+04-4.64599E-08-5.33220E-09
 -1       366-5.85412E+05 1.09223E+03-6.80415E+03 2.34397E+04 3.04684E-08 2.10093E-09
 -1       367-5.87612E+05-7.27471E+03-1.62676E+04-4.75057E+04 3.93898E-08-2.88310E-09
 -1       368-5.87348E+05 6.63788E+03-2.80185E+04 2.00932E+04 1.18264E-08 3.00315E-09
 -1       369-5.90978E+05-5.01615E+04-6.97820E+04-3.23404E+04 2.95900E-08-1.37334E-09
 -1       370-5.81123E+05 4.31832E+04-1.08121E+05 8.26015E+03 1.10067E-08 3.05590E-09
 -1       371-1.57760E+04-2.15101E+05 1.52373E+04-1.86168E+04 3.05772E-08-2.06001E-10
 -1       372 1.37022E+04-1.09894E+05 2.47810E+04 9.35324E+04-2.89037E-09 5.83555E-10
 -1       373 7.34361E+02-1.71280E+05-8.10672E+02-2.36651E+04-4.66025E-09-9.82027E-10
 -1       374-1.10109E+04-1.62155E+05-1.24492E+04 9.87590E+04-1.81153E-08-4.24151E-09
 -1       375 1.05579E+04-1.65123E+05-2.52225E+04-2.38204E+04-7.32325E-09-4.95038E-09
 -1       376-5.62683E+05-1.05992E+05-2.09932E+04-2.52010E+05 8.38168E-08-7.66431E-09
 -1       377-6.19557E+05-2.61761E+04-7.08848E+03-1.46598E+05 6.34429E-08 1.44819E-08
 -1       378-5.40401E+05-1.10867E+05-3.48218E+03-2.50545E+05-6.00633E-08 1.77172E-08
 -1       379-6.01577E+05-2.38756E+04 3.57623E+03-1.47218E+05-4.98034E-08-1.58976E-08
 -1       380-5.80158E+05-1.08652E+05-7.65326E+03-2.50977E+05 4.04680E-09 5.74755E-09
 -1       381-5.10751E+05-4.23131E+04 1.89279E+04-1.57527E+05 3.39214E-08 6.17558E-09
 -1       382-6.28536E+05-9.44051E+04-1.37788E+04-2.38114E+05 1.87461E-08-1.15824E-09
 -1       383-4.62640E+05-8.23059E+04 2.04250E+04-2.01763E+05 7.71456E-09 2.07456E-09
 -1       384-6.27877E+05-6.89667E+04-9.38074E+03-2.06581E+05-6.01785E-08 7.42955E-09
 -1       385-4.90296E+05-1.24642E+05 5.24346E+03-2.60139E+05-5.61307E-08 4.04839E-09
 -1       386-6.03526E+05-5.01127E+04-4.68805E+03-1.81723E+05 4.42683E-08 2.55948E-08
 -1       387-5.10364E+05-1.41908E+05-9.93249E+03-2.78019E+05 5.23660E-08 1.35387E-08
 -1       388-6.08978E+05-5.08397E+04-2.25730E+04-1.89517E+05 1.24778E-07 1.18243E-08
 -1       389-4.96118E+05-1.46557E+05-4.37282E+04-2.31476E+05 1.13102E-07 4.51018E-09
 -1       390-6.15437E+05-4.72583E+04-9.70982E+04-2.26579E+05 7.98536E-09-2.88856E-09
 -1       406 1.92768E+03 6.23556E+05 3.85755E+03-6.86887E+04-2.02272E-09-2.11639E-09
 -1       407 1.17763E+03 6.24216E+05 4.30213E+03-7.55980E+04 4.51109E-10-8.42920E-09
 -1       408 1.69451E+03 6.23440E+05 6.76496E+03-6.84688E+04-2.37924E-09 9.45874E-10
 -1       409 6.58621E+03 6.26007E+05 1.43192E+04-7.58820E+04 7.57609E-10-7.60792E-10
 -1       410 1.88705E+04 6.21586E+05 2.87552E+04-6.83788E+04-2.75941E-09 5.71481E-09
 -1       466 1.39412E+06-5.62170E+04 1.21922E+05 4.06734E+04-1.13232E-10-1.16052E-08
 -1       467 1.49663E+06 6.36719E+04 9.45342E+04-6.54254E+04 6.74845E-10 6.01176E-10
 -1       468 1.43503E+06-8.02351E+03 3.24457E+04 1.12246E+04 7.34758E-10-5.13865E-09
 -1       469 1.44906E+06 9.15407E+03 2.10569E+04-2.58258E+04 6.85475E-10 2.55841E-09
 -1       470 1.44065E+06-1.16364E+03 8.60782E+03 1.06352E+03 3.01355E-10 1.67438E-09
 -1       471 1.44257E+06 1.42194E+03 5.43395E+03-1.22146E+04-4.37353E-10 2.28204E-09
 -1       472 1.44140E+06-2.25308E+02 3.22088E+03-2.38696E+03-1.07374E-09 4.94936E-10
 -1       473 1.44190E+06 7.06557E+02 3.59070E+03-7.86407E+03-1.12564E-09-1.53679E-09
 -1       474 1.44131E+06-4.39641E+02 4.95925E+03-3.28704E+03-8.95326E-10 3.91765E-09
 -1       475 1.44321E+06 3.23847E+03 1.04472E+04-7.53357E+03 1.48277E-09 2.66664E-09
 -1       476 1.44008E+06-2.75293E+03 1.76809E+04-2.71743E+03 3.08386E-09 4.39559E-09
 -1       477 1.45188E+06 2.06145E+04 4.32593E+04-1.08313E+04 5.29496E-10 3.25872E-09
 -1       478 1.43261E+06-1.77908E+04 6.88825E+04 1.08684E+01 1.61415E-09 5.53337E-09
 -1       479 1.50532E+06 1.32459E+05 1.88330E+05-2.20005E+04 3.45538E-09 4.62023E-10
 -1       480 1.38668E+06-1.14415E+05 2.65801E+05 8.45068E+03 4.21664E-09 2.47383E-10
 -1       481-1.40174E+04 2.93605E+05 2.33225E+04-2.14078E+04-1.45519E-10-3.50974E-09
 -1       482 1.52212E+04 3.52288E+05 2.57974E+04 6.73927E+04-3.36286E-10 8.80596E-09
 -1       483-1.99309E+03 3.17227E+05 9.11146E+03-1.50842E+04-1.00272E-10 2.47212E-09
 -1       484 6.29506E+03 3.27439E+05 1.15788E+04 6.06342E+04-6.70894E-11-1.09989E-09
 -1       485-4.35486E+03 3.17352E+05 1.07941E+04-1.46364E+04 9.54969E-11-4.38149E-10
 -1       486-1.31907E+06-2.53829E+05-1.54024E+05-6.50518E+05-7.38146E-09-1.58543E-08
 -1       487-1.42651E+06 1.02006E+04-4.85265E+04-1.88087E+05 4.47471E-10 4.44306E-08
 -1       488-1.31928E+06-2.85298E+05-4.79046E+04-6.42438E+05 3.17016E-10-6.16092E-09
 -1       489-1.01064E+06-1.33917E+03 8.35146E+04-2.08570E+05 8.64225E-09-6.62158E-09
 -1       490-1.72042E+06-2.55866E+05-9.45671E+04-6.17466E+05 9.10040E-09 2.37560E-09
 -1       491-7.90617E+05-1.98589E+05 9.99414E+04-4.50364E+05-2.22212E-08 2.91645E-08
 -1       492-1.53811E+06-8.91742E+04-2.15546E+04-4.00914E+05 1.32400E-08-1.40235E-08
 -1       493-9.93846E+05-3.52452E+05 3.31706E+04-6.81924E+05-5.41772E-09 5.71538E-09
 -1       494-1.53303E+06-8.70515E+04-1.99827E+04-3.98000E+05 6.74299E-09 1.78238E-08
 -1       495-7.94299E+05-2.02442E+05 9.89454E+04-4.56229E+05 1.12645E-08-3.82704E-08
 -1       496-1.72211E+06-2.53864E+05-9.35080E+04-6.14754E+05-1.39999E-08-1.29403E-08
 -1       497-1.00166E+06-2.03273E+03 8.72673E+04-2.10478E+05-1.28900E-08-1.68693E-08
 -1       498-1.32626E+06-2.86881E+05-4.50653E+04-6.43002E+05-4.75768E-09-3.23398E-08
 -1       499-1.42186E+06 1.88254E+04-3.63560E+04-1.89712E+05-3.26554E-09-3.92902E-08
 -1       500-1.31675E+06-2.60851E+05-1.34997E+05-6.48339E+05-3.76931E-08 3.17596E-08
 -1       501-8.51676E+05-2.76941E+04 6.42208E+04-3.23684E+03 2.25049E-09 2.09548E-09
 -1       502-8.22192E+05 3.20852E+04 4.56605E+04 3.03897E+03 2.67349E-10 3.98086E-09
 -1       503-8.41199E+05-4.35927E+03 1.64883E+04 7.71308E+02 3.03544E-11 5.27507E-11
 -1       504-8.34866E+05 5.03602E+03 1.06162E+04-4.71331E+03-1.68438E-09-1.73259E-09
 -1       505-8.39038E+05-6.89208E+02 4.16722E+03 4.51548E+03 2.23960E-09 1.17393E-09
 -1       506-8.37687E+05 8.05493E+02 2.48613E+03-9.88873E+03 5.05082E-09 1.91380E-09
 -1       507-8.38428E+05-1.01296E+02 1.04604E+03 5.94691E+03 3.48778E-09 4.21312E-09
 -1       508-8.37999E+05 1.40175E+02 5.83105E+02-9.66750E+03 2.37175E-09-2.71598E-10
 -1       509-8.38725E+05-2.68338E+01 8.98950E+01 4.29423E+03 2.48085E-09 8.26944E-10
 -1       510-8.37334E+05-1.91565E+01 9.38512E+01-4.16244E+03 3.14306E-09 9.70381E-10
 -1       511-8.39050E+05 2.28903E+01-5.13516E+02 4.41661E+02 1.74850E-10 1.76797E-09
 -1       512-8.37487E+05-4.69645E+02-8.22331E+02 3.67792E+03 3.66725E-10 1.28517E-09
 -1       513-8.38568E+05 4.19887E+02-1.77979E+03-3.54614E+03-1.24842E-09-5.00904E-10
 -1       514-8.39520E+05-3.25847E+03-4.60082E+03 9.65290E+03-3.16736E-09-2.64100E-09
 -1       515-8.37062E+05 2.84115E+03-6.62632E+03-5.53345E+03-1.50513E-09-2.49747E-09
 -1       516-7.22331E+04 2.93318E+05 1.69636E+05-1.34091E+04-6.54836E-10 8.91532E-10
 -1       517 8.61816E+04 3.71560E+05 1.25620E+05 5.49947E+04-1.21872E-09-3.28630E-09
 -1       518-1.38836E+04 3.17899E+05 5.41180E+04-1.42204E+04-4.16549E-10 2.08411E-09
 -1       519 3.66642E+04 3.69199E+05 6.34325E+04 6.23924E+04-3.10911E-09 1.12414E-09
 -1       520-2.35620E+04 2.96749E+05 5.05439E+04-2.08210E+04-1.54978E-09-1.28525E-08
 -1       521-4.40566E+06-5.64041E+05-3.07645E+05-1.70260E+06 2.72848E-10 5.96629E-10
 -1       522-4.50449E+06-7.74263E+05-1.94173E+05-1.71294E+06-1.72804E-10 4.14730E-09
 -1       523-4.46125E+06-6.31784E+05-7.25214E+04-1.69195E+06-2.86121E-10-1.86265E-09
 -1       524-4.43936E+06-6.87089E+05-3.98190E+04-1.73146E+06-3.24007E-10 7.12134E-10
 -1       525-4.46907E+06-6.37510E+05-1.68529E+04-1.68937E+06 5.86624E-10-5.45697E-12
 -1       526-4.43012E+06-6.79930E+05-8.93321E+03-1.73565E+06 2.82398E-09 3.63434E-09
 -1       527-4.47063E+06-6.37481E+05-4.60690E+03-1.68845E+06 2.37515E-09-2.64606E-10
 -1       528-4.42883E+06-6.79615E+05-3.68812E+03-1.73647E+06 1.01343E-09-3.76531E-09
 -1       529-4.47044E+06-6.37675E+05-4.50992E+03-1.68865E+06 2.44177E-09 1.77488E-09
 -1       530-4.43070E+06-6.79219E+05-8.64556E+03-1.73480E+06-1.12163E-09-1.25283E-10
 -1       531-4.46856E+06-6.38097E+05-1.62900E+04-1.68994E+06-5.71163E-10-1.66619E-09
 -1       532-4.44028E+06-6.85407E+05-3.84199E+04-1.72987E+06 1.63345E-09-1.84082E-09
 -1       533-4.46064E+06-6.32959E+05-6.99957E+04-1.69284E+06-1.70985E-09-6.39557E-09
 -1       534-4.50382E+06-7.68780E+05-1.87331E+05-1.71114E+06 2.35264E-09 5.96629E-10
 -1       535-4.40664E+06-5.67973E+05-2.96852E+05-1.70352E+06-1.18234E-09 2.21189E-09
 -1       536 6.00865E+04-1.79146E+04 7.65957E+04-1.08558E+04 1.03682E-09-5.63887E-10
 -1       537 8.82763E+04 2.38365E+04 4.91230E+04-4.24422E+04-3.45017E-09 1.80808E-09
 -1       538 7.15852E+04-1.95706E+03 1.98054E+04-1.07427E+04 2.23736E-10 4.67480E-10
 -1       539 7.50866E+04 2.24845E+03 1.10844E+04-4.25291E+04 1.48020E-09-1.67256E-09
 -1       540 7.28448E+04-2.63444E+02 4.98112E+03-1.07579E+04-2.57387E-10-5.50244E-10
 -1       541 7.33833E+04 1.98621E+02 2.63698E+03-4.24936E+04-9.73159E-11 1.39971E-09
 -1       542 7.29808E+04-4.11646E+01 1.22480E+03-1.07788E+04-1.04137E-10 3.20472E-09
 -1       543 7.30457E+04 4.54373E+01 6.09112E+02-4.24618E+04 3.22188E-10 1.54421E-09
 -1       544 7.29908E+04 6.73659E+00 2.35771E+02-1.07899E+04 2.70620E-09-1.53011E-09
 -1       545 7.29466E+04 3.55063E+01-1.89976E-01-4.24490E+04 3.29251E-09-7.23844E-10
 -1       546 7.30038E+04 2.36374E+01-2.28352E+02-1.07916E+04 2.54056E-09 3.11218E-09
 -1       547 7.28781E+04-1.08402E+02-6.36777E+02-4.24497E+04 1.23964E-09 3.80351E-09
 -1       548 7.30983E+04 1.03577E+02-1.20624E+03-1.07893E+04-8.26731E-10 4.28713E-10
 -1       549 7.22023E+04-1.47822E+03-2.99651E+03-4.23851E+04-7.66249E-11-4.39945E-09
 -1       550 7.38340E+04 1.02843E+03-4.72905E+03-1.08560E+04-3.79259E-10-6.51949E-09
 -1       551 2.14674E+04-4.18606E+05 4.15922E+04-6.30712E+05 4.88581E-09 9.82254E-11
 -1       552 1.23896E+04-4.12640E+05 3.27341E+04-7.38116E+05 3.79805E-09 2.66482E-09
 -1       553 8.63304E+03-4.18733E+05 3.78204E+04-6.29649E+05 5.38421E-09 7.97627E-10
 -1       554 2.69635E+04-4.04793E+05 7.08330E+04-7.38283E+05 5.73345E-09 1.33150E-09
 -1       555 6.83666E+04-4.27804E+05 1.34102E+05-6.30348E+05 4.47471E-09-1.60799E-09
 -1       556-3.18802E+05-1.64611E+05 2.60073E+04-2.94442E+05-8.47649E-10-7.96717E-09
 -1       557-2.94481E+05-1.90990E+05 1.28273E+04-3.13522E+05 1.41517E-09 2.06865E-09
 -1       558-3.19837E+05-1.73068E+05 5.34250E+03-2.89524E+05-1.62254E-09-1.92085E-09
 -1       559-2.97417E+05-1.95103E+05 2.64301E+03-3.14801E+05 1.41154E-09 3.82443E-10
 -1       560-3.20543E+05-1.72918E+05 1.14770E+03-2.89727E+05 6.62112E-10 7.28051E-10
 -1       561-2.98312E+05-1.95008E+05 5.52426E+02-3.15441E+05 9.14952E-10 2.53965E-09
 -1       562-3.21064E+05-1.72590E+05 1.78741E+02-2.90068E+05-1.63709E-10 1.38516E-09
 -1       563-2.98814E+05-1.94793E+05-2.93096E+01-3.15796E+05-9.91349E-10-3.21234E-09
 -1       564-3.21353E+05-1.72397E+05-2.92492E+02-2.90267E+05-3.26145E-09-6.25914E-09
 -1       565-2.99069E+05-1.94692E+05-7.29621E+02-3.15959E+05-8.43102E-10 3.01770E-09
 -1       566-3.21379E+05-1.72332E+05-1.56630E+03-2.90311E+05 3.35604E-10 4.89854E-09
 -1       567-2.99319E+05-1.94871E+05-3.46759E+03-3.15908E+05 7.91260E-10 1.14142E-08
 -1       568-3.21017E+05-1.72927E+05-7.14706E+03-2.89972E+05-3.69255E-10 2.51930E-09
 -1       569-3.02999E+05-1.99322E+05-1.68550E+04-3.14669E+05 3.71074E-10-9.54969E-10
 -1       570-3.19334E+05-1.86201E+05-3.44420E+04-2.84245E+05-3.16140E-09-8.22001E-09
 -1       571 4.00526E+05 1.93396E+04 2.97441E+04-1.04245E+05 6.91216E-11-8.03175E-09
 -1       572 4.05051E+05 6.57434E+03 1.46139E+04-1.14923E+05-1.30967E-10-5.10227E-09
 -1       573 4.02306E+05 1.45219E+03 6.50210E+03-1.03954E+05-2.19188E-10-8.24002E-10
 -1       574 4.02820E+05 4.47304E+02 3.26695E+03-1.15234E+05-4.59295E-11 3.66072E-09
 -1       575 4.02470E+05 3.35383E+01 1.54622E+03-1.03919E+05 8.91305E-11 3.93629E-09
 -1       576 4.02513E+05-3.93080E-01 7.91714E+02-1.15273E+05 4.59750E-10 3.26418E-09
 -1       577 4.02495E+05-2.77774E+01 3.96417E+02-1.03914E+05 3.21052E-10-4.39013E-09
 -1       578 4.02499E+05-2.62911E+01 2.27790E+02-1.15279E+05 2.58296E-10-2.09911E-09
 -1       579 4.02552E+05-4.78882E+01 1.58650E+02-1.03914E+05 2.72848E-11-5.88443E-10
 -1       580 4.02589E+05-6.68748E+01 1.81203E+02-1.15274E+05 1.13960E-09-4.49290E-10
 -1       581 4.02660E+05-9.79918E+01 2.79174E+02-1.03918E+05-8.09450E-10 1.04956E-09
 -1       582 4.02789E+05-7.11544E+01 5.58459E+02-1.15215E+05-1.85537E-10-3.50428E-09
 -1       583 4.02791E+05 4.69594E+01 1.08192E+03-1.03973E+05 9.85892E-10 1.70257E-09
 -1       584 4.03363E+05 8.52139E+02 2.43324E+03-1.14734E+05-2.42289E-09 3.90992E-09
 -1       585 4.02680E+05 2.94040E+03 4.92988E+03-1.04404E+05 2.85581E-10 2.25191E-09
 -1       586 3.64354E+03 1.70116E+05 6.23353E+03-2.59865E+05 6.91216E-10-3.89900E-09
 -1       587 2.13813E+03 1.71059E+05 5.90023E+03-2.87267E+05 1.09867E-09-7.16273E-09
 -1       588 2.41623E+03 1.69933E+05 8.31290E+03-2.59533E+05 7.53062E-10-4.07408E-09
 -1       589 8.12168E+03 1.73042E+05 1.69837E+04-2.87348E+05 8.13088E-10-1.30080E-09
 -1       590 2.23903E+04 1.67940E+05 3.37836E+04-2.59770E+05 8.58563E-10 2.71029E-10
 -1       591-1.85266E+05-6.40383E+04-3.54150E+04-9.58738E+04 6.22549E-09 2.52840E-09
 -1       592-1.86354E+05-5.96284E+04-1.73602E+04-1.06401E+05 1.19171E-08 9.89303E-10
 -1       593-1.86298E+05-5.08606E+04-7.36531E+03-1.01898E+05 6.98128E-09 5.54701E-09
 -1       594-1.82587E+05-5.48281E+04-3.60234E+03-1.07060E+05-2.15550E-10 2.27631E-09
 -1       595-1.86475E+05-5.03659E+04-1.65874E+03-1.02174E+05-8.39918E-10 9.00968E-10
 -1       596-1.82307E+05-5.46351E+04-8.42192E+02-1.07041E+05-7.73980E-10-6.26869E-10
 -1       597-1.86510E+05-5.03886E+04-4.60887E+02-1.02178E+05-1.62032E-09-6.01631E-09
 -1       598-1.82277E+05-5.46378E+04-3.73205E+02-1.07029E+05 1.10646E-09-4.57476E-09
 -1       599-1.86503E+05-5.03909E+04-4.79757E+02-1.02174E+05 9.39508E-10-1.68666E-09
 -1       600-1.82299E+05-5.46398E+04-8.91953E+02-1.07033E+05-4.96811E-10 6.06724E-09
 -1       601-1.86453E+05-5.03719E+04-1.76409E+03-1.02164E+05-3.96585E-09-4.20641E-09
 -1       602-1.82590E+05-5.48465E+04-3.83534E+03-1.07041E+05 3.61024E-09 4.17276E-09
 -1       603-1.86253E+05-5.09086E+04-7.84323E+03-1.01868E+05 2.47292E-09 6.60566E-09
 -1       604-1.86622E+05-5.99275E+04-1.84846E+04-1.06293E+05-2.33922E-09-2.44654E-09
 -1       605-1.85114E+05-6.49650E+04-3.77079E+04-9.54780E+04-2.94676E-09-5.19140E-09
 -1       606 1.28743E+05-1.59905E+04-2.45145E+04 3.72195E+04-8.18727E-09-3.35604E-10
 -1       607 1.24926E+05-5.43458E+03-1.20380E+04 4.06320E+04-2.33558E-09-7.24617E-09
 -1       608 1.27139E+05-1.19480E+03-5.35748E+03 3.69636E+04 5.28780E-09-3.13776E-11
 -1       609 1.26623E+05-3.19386E+02-2.68487E+03 4.09053E+04-3.16049E-09-2.19779E-09
 -1       610 1.26906E+05 3.07546E+01-1.26816E+03 3.69310E+04-7.37964E-09 1.21827E-09
 -1       611 1.26796E+05 9.18139E+01-6.38203E+02 4.09394E+04-1.40772E-08-2.68756E-09
 -1       612 1.26842E+05 1.05825E+02-3.04415E+02 3.69275E+04-5.28598E-09 1.93313E-09
 -1       613 1.26793E+05 1.20530E+02-1.41180E+02 4.09433E+04-9.71704E-09-1.29148E-10
 -1       614 1.26807E+05 1.11179E+02-4.45950E+01 3.69267E+04-2.57296E-09 2.92857E-10
 -1       615 1.26774E+05 1.30731E+02 3.02958E+01 4.09434E+04 7.58109E-09-4.97039E-10
 -1       616 1.26781E+05 1.24830E+02 1.17758E+02 3.69272E+04-5.14228E-09-3.76531E-10
 -1       617 1.26779E+05 1.81160E+02 2.81469E+02 4.09418E+04 2.05387E-09 9.23683E-09
 -1       618 1.26746E+05 2.61860E+02 5.75455E+02 3.69278E+04 5.72982E-11 1.27238E-09
 -1       619 1.26958E+05 7.38367E+02 1.30217E+03 4.09362E+04-2.97405E-10-1.95996E-09
 -1       620 1.26570E+05 1.86709E+03 2.65477E+03 3.69287E+04 2.79704E-09-2.24190E-09
 -1       621 3.11604E+03 4.16776E+05 7.55742E+03-3.48407E+04 3.40378E-09-3.93857E-09
 -1       622 1.21574E+03 4.18205E+05 6.24927E+03-4.09321E+04 7.73980E-10-9.80435E-10
 -1       623 7.27557E+02 4.17101E+05 7.68589E+03-3.48941E+04 3.26145E-09-3.47427E-10
 -1       624 4.40777E+03 4.20114E+05 1.47903E+04-4.07259E+04 1.46611E-09 2.50793E-09
 -1       625 1.34908E+04 4.14942E+05 2.82746E+04-3.50414E+04 2.87446E-09-2.00544E-09
 -1       626 1.84593E+05 5.99933E+04-1.06723E+04 1.24734E+05-7.12589E-09-8.15453E-09
 -1       627 1.79578E+05 6.75984E+04-5.06163E+03 1.27050E+05-3.02316E-09 3.74803E-09
 -1       628 1.84800E+05 6.52402E+04-2.12805E+03 1.22163E+05 9.47512E-09-2.83080E-10
 -1       629 1.80345E+05 6.97686E+04-1.02042E+03 1.26842E+05 1.92449E-08-6.09361E-11
 -1       630 1.84755E+05 6.56108E+04-4.50890E+02 1.21941E+05 9.15497E-09-2.77686E-09
 -1       631 1.80378E+05 6.99361E+04-2.01256E+02 1.26827E+05-4.51928E-09-3.01759E-09
 -1       632 1.84716E+05 6.56314E+04-5.63931E+01 1.21911E+05-4.03816E-09-8.11860E-09
 -1       633 1.80366E+05 6.99498E+04 5.03073E+01 1.26819E+05-1.31786E-09 4.02235E-09
 -1       634 1.84691E+05 6.56264E+04 1.82088E+02 1.21902E+05 4.21505E-09-3.79441E-09
 -1       635 1.80381E+05 6.99571E+04 4.34000E+02 1.26819E+05-2.91266E-09-1.88220E-09
 -1       636 1.84669E+05 6.56463E+04 9.09357E+02 1.21887E+05 3.59364E-10 1.38793E-08
 -1       637 1.80599E+05 7.02005E+04 2.03490E+03 1.26783E+05-8.48445E-09 1.13214E-08
 -1       638 1.84626E+05 6.63810E+04 4.21781E+03 1.21567E+05-6.43649E-09-6.00812E-09
 -1       639 1.82758E+05 7.39416E+04 1.00367E+04 1.25872E+05-1.46574E-08-2.70757E-09
 -1       640 1.84733E+05 7.72046E+04 2.11529E+04 1.17062E+05-5.38103E-09-2.12822E-09
 -1       641 5.85659E+03 3.72027E+03-8.66238E+03-2.12308E+02-8.32726E-09-1.69257E-09
 -1       642 2.15118E+03-4.30596E+03-6.10869E+03 9.30778E+02 3.64205E-09-6.69013E-09
 -1       643 4.42016E+03 5.79328E+02-2.23421E+03-2.06666E+02-1.58280E-08 2.60320E-09
 -1       644 3.81876E+03-6.66306E+02-1.38304E+03 9.22583E+02 9.51351E-09 5.86692E-09
 -1       645 4.18791E+03 8.79521E+01-5.34629E+02-2.04128E+02-4.74352E-09 9.02617E-10
 -1       646 4.09234E+03-8.99865E+01-2.51653E+02 9.18858E+02-4.04860E-07-2.09229E-09
 -1       647 4.14600E+03 4.36816E+00 3.21346E+00-2.02946E+02-5.42667E-05 1.35388E-07
 -1       648 4.16928E+03 5.37923E+01 2.44114E+02 9.17649E+02-1.07830E-04 2.79569E-07
 -1       649 4.11079E+03-5.55113E+01 5.50942E+02-2.02920E+02-5.42605E-05 1.40693E-07
 -1       650 4.37216E+03 4.27144E+02 1.33061E+03 9.18361E+02-3.87150E-07-2.32168E-09
 -1       651 3.94332E+03-3.68582E+02 2.31842E+03-2.03658E+02-1.29246E-08-6.93581E-09
 -1       652 5.51680E+03 2.74564E+03 5.72858E+03 9.19396E+02 1.05813E-08 2.00089E-11
 -1       653 2.96680E+03-2.37046E+03 9.13918E+03-2.03962E+02-1.01094E-08-4.75256E-09
 -1       654 1.24058E+04 1.75960E+04 2.49699E+04 9.13351E+02 3.72875E-09-5.82077E-11
 -1       655-2.94295E+03-1.51919E+04 3.53292E+04-1.97655E+02 4.51585E-10 4.63842E-10
 -1       656 1.25465E+04-4.80308E+05-5.66069E+04 1.35918E+04 1.26893E-08 3.58068E-09
 -1       657-1.86590E+04-5.00877E+05-4.12444E+04 5.11396E+04 9.44965E-09 5.40081E-09
 -1       658 2.39825E+03-4.87664E+05-2.62353E+04 1.34566E+04 1.08780E-08 2.60661E-09
 -1       659-1.70519E+04-4.99983E+05-3.84268E+04 5.12352E+04 8.24002E-09-3.12583E-09
 -1       660 1.12958E+04-4.81271E+05-5.12633E+04 1.34982E+04 1.00590E-08-3.96426E-09
 -1       661 4.68286E+05 6.01673E+04 3.84192E+04 1.83542E+05 4.04361E-09-1.40608E-09
 -1       662 4.77213E+05 8.98634E+04 2.42499E+04 1.88862E+05-9.08273E-10-2.23736E-10
 -1       663 4.74881E+05 6.89602E+04 9.07290E+03 1.82626E+05-1.80802E-09 8.29459E-10
 -1       664 4.69635E+05 7.84390E+04 4.99823E+03 1.90439E+05-1.37074E-08 1.56433E-10
 -1       665 4.75608E+05 6.99346E+04 2.12807E+03 1.82581E+05-1.39820E-08 2.26726E-09
 -1       666 4.68799E+05 7.72051E+04 1.15704E+03 1.90518E+05-9.39991E-09 8.95298E-10
 -1       667 4.75683E+05 7.00539E+04 6.46731E+02 1.82594E+05 7.96052E-09 5.81170E-09
 -1       668 4.68726E+05 7.70860E+04 6.09051E+02 1.90507E+05-1.29398E-08-2.92061E-10
 -1       669 4.75676E+05 7.00462E+04 8.54724E+02 1.82593E+05 2.41170E-09 1.60867E-11
 -1       670 4.68869E+05 7.72861E+04 1.73345E+03 1.90519E+05 2.19534E-08 4.50132E-09
 -1       671 4.75547E+05 6.98658E+04 3.29422E+03 1.82580E+05-1.24146E-10-2.93539E-09
 -1       672 4.70200E+05 7.91981E+04 7.80326E+03 1.90368E+05 1.16472E-10 6.61817E-09
 -1       673 4.74390E+05 6.83572E+04 1.41883E+04 1.82666E+05 2.06271E-10-1.74987E-09
 -1       674 4.82080E+05 9.70474E+04 3.79387E+04 1.87864E+05-5.30235E-09-5.03314E-09
 -1       675 4.64057E+05 5.46174E+04 6.01166E+04 1.84113E+05-1.05128E-08-6.91216E-10
 -1       676 1.26380E+03-4.51225E+05-6.57917E+03 6.63147E+02 1.67288E-08-2.16719E-09
 -1       677-2.49055E+03-4.53738E+05-7.11858E+03 2.95187E+02 8.41895E-09-3.09372E-09
 -1       678 7.80645E+02-4.51526E+05-8.43285E+03 6.61758E+02 1.23198E-08-3.32546E-09
 -1       679-8.90296E+03-4.57549E+05-1.84917E+04 2.94435E+02-5.66570E-09-1.12695E-09
 -1       680 6.43057E+03-4.47416E+05-2.80899E+04 6.61763E+02 1.54432E-08-5.72626E-10
 -1       681 6.32555E+05-1.66335E+04 3.76518E+04 6.04125E+03-5.91740E-10 7.45786E-10
 -1       682 6.53921E+05 1.91795E+04 2.75095E+04-1.88136E+04-1.43339E-09 4.97948E-10
 -1       683 6.40676E+05-2.54559E+03 9.80124E+03 1.49993E+03 1.53761E-10 1.28375E-09
 -1       684 6.44250E+05 2.97184E+03 6.31321E+03-1.23162E+04 1.94689E-10 7.80801E-10
 -1       685 6.42118E+05-3.80771E+02 2.58509E+03-4.56143E+02 2.71015E-10 2.24657E-09
 -1       686 6.42566E+05 4.97963E+02 1.62061E+03-1.00024E+04 1.07862E-09 2.24756E-09
 -1       687 6.42335E+05-5.89623E+01 9.49242E+02-8.13753E+02-1.20263E-10 2.16023E-09
 -1       688 6.42546E+05 1.95184E+02 1.04542E+03-1.07113E+04-2.41641E-09 2.50032E-09
 -1       689 6.42146E+05-8.31434E+01 1.37470E+03 2.52753E+02-1.19945E-09 2.23793E-09
 -1       690 6.43889E+05 7.50883E+02 3.10207E+03-1.47847E+04 3.76730E-10 2.80841E-09
 -1       691 6.41047E+05-6.50242E+02 4.79291E+03 3.25953E+03-2.33570E-10-4.26326E-10
 -1       692 6.50452E+05 5.34522E+03 1.30282E+04-2.41941E+04 1.04370E-09 6.82121E-10
 -1       693 6.35803E+05-4.81626E+03 1.85274E+04 9.66295E+03-2.98985E-09-3.74621E-09
 -1       694 6.82522E+05 3.77929E+04 5.72267E+04-4.36952E+04-9.42998E-09-1.67165E-09
 -1       695 6.09844E+05-3.36090E+04 7.08581E+04 2.27732E+04-9.72523E-09-9.54969E-09
 -1       696-1.31244E+04 5.54978E+05 2.99442E+04-2.04861E+03 1.78261E-10-1.61653E-09
 -1       697 1.39055E+04 5.67611E+05 1.88091E+04 9.38176E+02 1.85082E-10-1.45113E-09
 -1       698-7.53307E+02 5.60741E+05 2.88505E+03-1.45063E+03-3.04681E-10 9.78964E-10
 -1       699-7.41527E+03 5.57692E+05-9.07471E+03 3.58604E+00-3.53793E-10 3.76355E-09
 -1       700 8.15848E+03 5.64906E+05-1.80668E+04-1.11411E+03-2.27374E-10 1.44124E-09
 -1       701-5.81310E+05-6.56209E+04-7.85145E+04-2.43882E+05-2.55932E-09-9.02219E-09
 -1       702-6.19401E+05-8.66480E+04-4.65875E+04-1.76489E+05-2.56864E-09-4.77894E-09
 -1       703-5.71296E+05-9.70872E+04-1.78843E+04-2.44159E+05 3.68345E-09 4.23461E-09
 -1       704-6.27709E+05-5.06421E+04-1.00299E+04-1.77495E+05-4.43413E-09-7.93989E-09
 -1       705-5.73690E+05-1.01067E+05-4.54207E+03-2.43449E+05 3.29314E-09 6.41353E-09
 -1       706-5.99805E+05-5.24874E+04 1.92501E+03-1.82711E+05-9.97619E-09-1.34456E-08
 -1       707-5.98493E+05-9.57526E+04-5.21267E+03-2.38385E+05-1.37286E-08-3.61194E-09
 -1       708-5.56119E+05-7.14955E+04 7.88497E+03-2.01509E+05-1.05633E-08-3.50809E-09
 -1       709-6.16465E+05-8.27331E+04-6.19907E+03-2.23965E+05 1.70235E-09-3.63855E-09
 -1       710-5.41760E+05-9.92164E+04 4.04458E+03-2.34399E+05 6.76403E-09-1.15051E-10
 -1       711-6.13312E+05-6.76958E+04-5.88178E+03-2.05871E+05 3.18573E-09 2.12775E-08
 -1       712-5.52783E+05-1.22804E+05-9.76025E+03-2.59432E+05-1.37436E-09 2.33858E-08
 -1       713-6.06495E+05-5.83721E+04-1.77449E+04-1.99700E+05-3.83761E-09-1.86756E-08
 -1       714-5.68170E+05-1.50264E+05-5.01364E+04-2.49451E+05-9.08949E-09-2.28465E-08
 -1       715-5.97737E+05-4.04320E+04-7.92279E+04-2.15694E+05 5.54246E-09 1.72440E-09
 -1       716 3.39508E+05-2.30027E+04 4.67260E+04 1.54231E+04 1.46601E-08-4.78758E-09
 -1       717 3.99135E+05 2.56738E+04 3.98128E+04-3.47976E+04 5.51836E-09-8.18545E-09
 -1       718 3.58604E+05-3.31727E+03 1.19916E+04 7.93255E+03 1.33900E-09-1.15415E-09
 -1       719 3.74293E+05 3.59015E+03 9.49057E+03-2.30696E+04 1.35287E-10-1.04069E-09
 -1       720 3.63581E+05-4.37593E+02 3.19466E+03 3.68244E+03 5.31082E-09 3.16879E-09
 -1       721 3.67619E+05 5.36707E+02 2.64656E+03-1.65628E+04 4.23333E-09 6.45286E-10
 -1       722 3.65003E+05-8.18576E+01 1.53109E+03 1.42467E+03 5.93849E-09 2.55465E-09
 -1       723 3.65868E+05 4.42780E+02 2.16631E+03-1.34429E+04 1.01278E-09 3.53653E-09
 -1       724 3.65240E+05-2.81126E+02 3.23890E+03 5.62950E+02 4.60041E-09 4.65536E-09
 -1       725 3.66568E+05 2.24878E+03 7.06321E+03-1.28859E+04 4.40664E-09 6.41410E-09
 -1       726 3.64289E+05-1.87581E+03 1.20235E+04 8.67721E+02 5.77585E-09 3.92993E-09
 -1       727 3.73292E+05 1.41562E+04 2.97087E+04-1.47520E+04 8.34729E-09 4.27781E-09
 -1       728 3.58561E+05-1.22012E+04 4.69253E+04 2.42892E+03 3.33591E-09 1.01136E-09
 -1       729 4.11887E+05 9.08424E+04 1.29375E+05-1.97902E+04 1.38840E-09 2.08274E-09
 -1       730 3.25886E+05-7.85222E+04 1.81308E+05 5.90526E+03 5.42639E-09-3.05590E-09
 -1       731-1.88897E+04 2.02528E+05 3.33593E+04-1.45630E+04-6.35555E-09-5.36693E-09
 -1       732 2.06314E+04 2.75373E+05 3.36491E+04 4.27627E+04 3.06272E-09-4.23483E-10
 -1       733-2.63285E+03 2.24445E+05 8.12036E+03-8.75696E+03-1.32741E-09-1.57365E-09
 -1       734 2.76269E+03 2.45056E+05 7.60785E+03 3.37272E+04 1.17825E-09-6.68979E-09
 -1       735-2.35970E+02 2.31661E+05 1.25287E+03-5.51115E+03 1.27284E-09-5.57702E-09
 -1       736-1.02287E+06-1.59073E+05-8.71417E+04-4.63052E+05 1.64164E-08-5.85351E-09
 -1       737-1.15948E+06-1.04438E+05-5.21477E+04-2.93454E+05 2.76423E-08-8.73024E-09
 -1       738-1.08990E+06-1.83323E+05-2.88359E+04-4.54769E+05 1.12196E-08 1.09249E-08
 -1       739-1.01049E+06-1.12432E+05 1.16566E+04-3.36595E+05 5.53837E-09-1.97042E-09
 -1       740-1.16829E+06-1.54046E+05-2.12473E+04-4.17057E+05 7.77254E-09 1.42563E-08
 -1       741-9.59945E+05-1.86878E+05 1.51947E+04-4.34679E+05 1.22133E-08 3.48311E-08
 -1       742-1.14168E+06-1.07813E+05-3.44229E+03-3.57785E+05 7.52743E-09-1.88312E-08
 -1       743-9.84779E+05-2.27011E+05 4.13584E+03-4.91169E+05 3.01281E-09 2.53181E-08
 -1       744-1.14617E+06-1.11578E+05-4.95407E+03-3.62639E+05-6.94492E-08-2.37737E-08
 -1       745-9.58100E+05-1.77858E+05 1.75181E+04-4.22890E+05-3.90939E-08-5.02939E-09
 -1       746-1.16520E+06-1.59683E+05-2.12482E+04-4.23639E+05-6.28506E-09-2.37605E-09
 -1       747-1.02527E+06-1.04443E+05 1.14081E+04-3.29249E+05 8.73808E-09-3.47177E-09
 -1       748-1.07852E+06-1.85409E+05-2.48221E+04-4.55768E+05 1.45133E-08 2.11294E-08
 -1       749-1.16427E+06-9.85748E+04-4.72084E+04-2.93478E+05 7.97559E-09 3.27855E-08
 -1       750-1.02968E+06-1.62645E+05-7.93351E+04-4.62228E+05 5.96083E-09 2.39270E-08
 -1       751 3.57735E+06-2.03434E+05 4.74611E+05 1.56753E+04-2.69146E-08 2.53203E-09
 -1       752 3.78393E+06 2.35645E+05 3.35218E+05-1.79275E+04-7.81829E-09-1.89175E-09
 -1       753 3.65740E+06-3.17087E+04 1.23027E+05 2.57913E+03-5.95030E-10 7.49424E-10
 -1       754 3.69110E+06 3.67107E+04 7.72116E+04-2.75857E+03-1.97898E-09 3.96631E-09
 -1       755 3.67048E+06-4.93647E+03 3.17092E+04 5.09841E+02-1.82247E-09-2.76486E-10
 -1       756 3.67601E+06 5.78643E+03 1.89241E+04-3.56082E+02 2.95585E-10 2.52840E-10
 -1       757 3.67264E+06-8.41779E+02 9.33606E+03 1.76697E+02-7.44782E-10-2.66255E-10
 -1       758 3.67378E+06 1.49963E+03 7.46740E+03 2.23481E+01-1.11630E-10 4.75012E-10
 -1       759 3.67275E+06-6.56406E+02 7.62262E+03 1.31407E+02-1.38061E-09-9.89530E-10
 -1       760 3.67515E+06 4.18526E+03 1.39838E+04 2.10269E+01-2.19503E-09 1.79512E-09
 -1       761 3.67125E+06-3.52306E+03 2.27955E+04 1.78018E+02 4.56798E-10-2.23281E-09
 -1       762 3.68583E+06 2.61417E+04 5.50424E+04-3.66618E+02 1.57680E-09 3.53793E-10
 -1       763 3.66196E+06-2.25727E+04 8.75413E+04 5.19044E+02 7.64733E-09 3.28873E-09
 -1       764 3.75119E+06 1.67582E+05 2.38293E+05-2.85873E+03 1.13189E-09 4.56930E-09
 -1       765 3.60557E+06-1.44660E+05 3.37474E+05 2.66970E+03-2.66874E-09-1.60071E-10
 -1       766-8.18360E+04 3.87266E+05 1.89528E+05-2.17852E+04 3.90719E-09-1.14142E-10
 -1       767 9.81537E+04 4.85252E+05 1.43638E+05 9.07306E+04 1.44064E-09-8.09507E-10
 -1       768-1.59581E+04 4.21903E+05 6.43058E+04-1.97609E+04 4.53292E-09-1.25215E-09
 -1       769 4.83459E+04 4.89142E+05 8.17746E+04 9.86871E+04 3.83329E-09 4.46209E-09
 -1       770-3.30919E+04 3.84778E+05 6.72286E+04-2.97527E+04-2.60807E-08 6.55882E-09
 -1       771-2.03587E+06-4.11380E+05-7.23231E+04-8.78779E+05-1.61526E-09-1.77533E-09
 -1       772-2.03135E+06-4.08656E+05-3.53905E+04-9.07507E+05-2.61571E-09-3.27418E-09
 -1       773-2.03892E+06-3.83863E+05-1.50797E+04-8.90834E+05-3.12866E-10-5.42423E-09
 -1       774-2.02368E+06-3.99296E+05-7.34335E+03-9.10013E+05 2.43017E-09-2.72394E-09
 -1       775-2.03986E+06-3.82471E+05-3.41992E+03-8.91599E+05-1.29512E-09-3.48336E-10
 -1       776-2.02348E+06-3.98832E+05-1.71581E+03-9.10508E+05-5.91172E-10-2.20348E-09
 -1       777-2.04038E+06-3.82248E+05-9.52993E+02-8.91811E+05-6.33008E-10-1.82945E-09
 -1       778-2.02374E+06-3.98738E+05-7.37438E+02-9.10847E+05-8.44011E-10-8.93465E-10
 -1       779-2.04070E+06-3.82060E+05-9.43881E+02-8.91958E+05 2.98314E-10-3.59705E-10
 -1       780-2.02401E+06-3.98674E+05-1.72490E+03-9.11099E+05-2.76486E-10-8.91305E-11
 -1       781-2.04080E+06-3.81905E+05-3.41667E+03-8.92033E+05-2.07001E-09-4.69299E-09
 -1       782-2.02469E+06-3.99043E+05-7.43279E+03-9.11241E+05-6.07542E-10 4.82032E-11
 -1       783-2.04048E+06-3.82902E+05-1.52151E+04-8.91493E+05-9.65656E-10-1.46974E-09
 -1       784-2.03250E+06-4.08963E+05-3.59035E+04-9.09852E+05 2.82625E-10 1.54614E-11
 -1       785-2.03828E+06-4.10199E+05-7.32706E+04-8.79039E+05 2.87696E-09 7.20684E-09
 -1       786 3.69820E+05-1.10145E+04 4.78095E+04-2.66934E+03 4.95447E-10-1.66801E-09
 -1       787 3.87047E+05 1.49869E+04 3.06117E+04-1.08164E+04-4.02110E-10 3.82352E-09
 -1       788 3.77026E+05-1.13472E+03 1.23892E+04-2.67462E+03-4.03361E-10 2.32831E-10
 -1       789 3.79013E+05 1.47171E+03 6.91523E+03-1.07899E+04 4.87034E-10-2.17892E-09
 -1       790 3.77841E+05-1.23323E+02 3.14791E+03-2.69430E+03-5.01359E-11 2.52840E-10
 -1       791 3.78086E+05 1.41769E+02 1.68942E+03-1.07614E+04 7.43739E-10 1.95416E-09
 -1       792 3.77945E+05-1.57067E+01 8.67727E+02-2.70316E+03 1.21020E-10-2.79613E-09
 -1       793 3.77971E+05 1.76758E+01 5.79398E+02-1.07554E+04 8.27590E-10-1.92489E-09
 -1       794 3.77954E+05-9.13634E+00 5.39778E+02-2.70030E+03-5.63375E-10-2.19076E-09
 -1       795 3.78009E+05 6.11321E+01 8.25944E+02-1.07733E+04 1.04723E-09 9.43266E-10
 -1       796 3.77912E+05-5.66661E+01 1.42831E+03-2.68521E+03-3.53123E-09 6.92182E-10
 -1       797 3.78422E+05 6.44903E+02 3.07351E+03-1.08127E+04-5.32339E-09 7.39448E-10
 -1       798 3.77554E+05-5.05293E+02 5.47845E+03-2.66090E+03-2.47132E-09 1.86083E-09
 -1       799 3.81979E+05 6.60929E+03 1.35219E+04-1.08452E+04-2.69301E-09 2.71257E-10
 -1       800 3.74374E+05-4.87167E+03 2.11071E+04-2.65357E+03-2.74667E-10-1.58252E-09
 -1       801-1.66077E+04 4.22601E+05 5.73183E+04-3.05050E+05 1.33150E-09 2.85218E-09
 -1       802 4.01705E+04 4.37280E+05 6.11440E+04-1.18903E+06-7.78891E-09 2.32831E-10
 -1       803-1.12135E+02 4.21750E+05 6.32253E+04-3.04528E+05 3.44153E-09 6.70866E-09
 -1       804 7.96675E+04 4.61851E+05 1.31819E+05-1.18893E+06-1.05501E-08-7.65431E-09
 -1       805-4.91805E+04 3.99282E+05 1.90854E+05-3.05175E+05 3.55067E-09 2.34286E-09
 -1       806-3.80231E+05-1.00970E+05-3.23282E+04-1.74838E+05 1.35446E-09-2.20462E-09
 -1       807-3.80419E+05-9.27701E+04-1.53375E+04-1.84683E+05 5.63205E-10-1.30149E-09
 -1       808-3.80060E+05-8.44639E+04-6.44847E+03-1.81811E+05-1.29285E-09-5.83896E-10
 -1       809-3.77235E+05-8.69644E+04-3.11606E+03-1.86024E+05-9.57789E-09-1.70429E-08
 -1       810-3.80144E+05-8.33321E+04-1.40905E+03-1.82322E+05-1.98088E-09 3.24394E-09
 -1       811-3.76925E+05-8.65783E+04-7.06638E+02-1.86080E+05 9.55993E-10 2.07729E-09
 -1       812-3.80171E+05-8.32982E+04-3.70833E+02-1.82346E+05 1.59991E-09-3.75621E-09
 -1       813-3.76890E+05-8.65681E+04-2.76196E+02-1.86071E+05 7.28903E-10-9.30140E-09
 -1       814-3.80166E+05-8.33041E+04-3.24969E+02-1.82342E+05 1.05479E-09-2.79442E-09
 -1       815-3.76907E+05-8.65828E+04-5.84718E+02-1.86066E+05-3.91083E-11-5.24392E-09
 -1       816-3.80129E+05-8.33401E+04-1.14692E+03-1.82315E+05-7.29096E-09-6.86396E-09
 -1       817-3.77152E+05-8.68939E+04-2.52714E+03-1.86001E+05-3.56522E-10 5.72618E-09
 -1       818-3.80042E+05-8.42726E+04-5.22579E+03-1.81901E+05 2.32558E-09-3.83807E-10
 -1       819-3.79778E+05-9.15380E+04-1.24248E+04-1.84832E+05-4.57476E-10-2.91948E-09
 -1       820-3.80109E+05-9.76971E+04-2.61880E+04-1.76304E+05 1.48157E-09 7.53266E-09
 -1       821-3.82419E+05 1.13633E+04-4.93671E+04 2.69067E+03-3.54339E-09-1.10958E-09
 -1       822-4.00174E+05-1.54779E+04-3.16087E+04 1.14269E+04-2.60661E-09 4.59295E-10
 -1       823-3.89866E+05 1.16487E+03-1.27986E+04 2.58852E+03 4.05771E-09-2.86400E-09
 -1       824-3.91913E+05-1.50143E+03-7.14524E+03 1.15754E+04 3.07750E-10-1.84741E-10
 -1       825-3.90712E+05 1.28409E+02-3.26882E+03 2.54051E+03-8.17658E-09 2.50338E-10
 -1       826-3.90983E+05-1.16822E+02-1.77882E+03 1.16547E+04-1.31058E-08-2.82080E-09
 -1       827-3.90821E+05 2.31734E+01-9.67956E+02 2.50884E+03-6.82121E-09-1.04069E-09
 -1       828-3.90884E+05 1.25459E+01-7.46175E+02 1.17043E+04-1.01500E-08 2.09639E-09
 -1       829-3.90826E+05 2.29617E+01-8.47014E+02 2.49087E+03-3.54754E-09-2.56389E-09
 -1       830-3.90971E+05-8.03417E+01-1.46298E+03 1.17252E+04 3.56656E-09-5.43158E-09
 -1       831-3.90742E+05 1.10515E+02-2.63640E+03 2.48792E+03-7.33044E-09-1.24703E-09
 -1       832-3.91729E+05-1.18459E+03-5.73838E+03 1.17161E+04-1.15540E-09 7.48628E-10
 -1       833-3.90067E+05 9.44779E+02-1.02622E+04 2.50028E+03-2.07297E-09 6.01631E-10
 -1       834-3.98364E+05-1.23865E+04-2.53456E+04 1.16602E+04-3.70284E-09-6.38784E-09
 -1       835-3.84098E+05 9.12458E+03-3.95774E+04 2.54675E+03 1.34241E-09-1.83172E-09
 -1       836-1.82633E+04 9.88641E+05 8.36525E+04-2.66422E+04-1.61526E-09-5.02951E-10
 -1       837 2.81897E+04 1.01929E+06 6.50413E+04-1.01158E+05 4.31260E-09 1.52340E-10
 -1       838-4.37979E+03 9.98486E+05 4.81958E+04-2.66921E+04-2.44745E-09 1.50663E-09
 -1       839 3.73282E+04 1.02470E+06 8.12513E+04-1.01135E+05 4.55111E-09-3.09228E-10
 -1       840-2.56026E+04 9.83204E+05 1.14344E+05-2.66634E+04-1.91358E-09 1.40244E-09
 -1       841-3.54023E+04 1.21025E+03-1.61347E+04-1.61749E+04-4.18481E-09 2.67391E-09
 -1       842-4.42435E+04-1.31698E+04-1.11811E+04-1.29462E+04-3.07915E-09-1.02864E-09
 -1       843-3.86627E+04-4.59247E+03-3.78130E+03-1.51107E+04 3.40185E-09 3.04021E-09
 -1       844-4.04737E+04-6.43518E+03-2.34931E+03-1.41598E+04 4.26316E-09 1.13494E-09
 -1       845-3.91713E+04-5.51425E+03-8.67237E+02-1.49655E+04 1.13056E-09 2.19961E-09
 -1       846-3.98917E+04-5.35587E+03-4.82346E+02-1.43177E+04-5.72906E-09-1.80302E-09
 -1       847-3.92448E+04-5.67009E+03-1.59059E+02-1.49536E+04-5.86986E-09 1.48447E-10
 -1       848-3.97974E+04-5.15202E+03-8.25443E+00-1.43305E+04-2.77687E-09-2.53691E-09
 -1       849-3.92658E+04-5.71771E+03 1.39900E+02-1.49530E+04 6.00568E-09 1.03128E-09
 -1       850-3.96923E+04-4.97144E+03 4.42969E+02-1.43549E+04 1.22226E-08 4.79054E-09
 -1       851-3.93499E+04-5.85042E+03 7.98263E+02-1.49293E+04-4.05296E-09-3.59685E-09
 -1       852-3.91067E+04-4.00870E+03 2.17229E+03-1.45377E+04-3.74806E-09-7.00072E-09
 -1       853-3.98510E+04-6.67917E+03 3.48874E+03-1.47705E+04-1.07207E-10-3.63798E-11
 -1       854-3.55486E+04 2.15340E+03 1.03324E+04-1.57219E+04 3.34893E-09 5.24642E-09
 -1       855-4.29059E+04-1.20033E+04 1.48964E+04-1.37482E+04-7.13953E-11 1.89448E-09
 -1       856-4.49621E+05 1.05023E+04-4.57046E+04 5.34941E+03-7.49696E-09 1.50249E-09
 -1       857-4.66040E+05-1.42670E+04-2.92490E+04 2.31140E+04-5.98538E-09-2.86946E-09
 -1       858-4.56523E+05 1.08276E+03-1.18493E+04 5.17282E+03-9.89621E-09-3.64980E-09
 -1       859-4.58451E+05-1.31157E+03-6.60657E+03 2.33704E+04 3.44926E-10-5.21368E-09
 -1       860-4.57313E+05 1.35519E+02-3.01837E+03 5.08956E+03-2.10730E-09-2.12322E-09
 -1       861-4.57622E+05-1.61458E+01-1.62807E+03 2.34963E+04-7.05552E-09-5.20060E-09
 -1       862-4.57419E+05 4.39064E+01-8.61334E+02 5.04612E+03 1.32308E-08-2.68773E-09
 -1       863-4.57540E+05 1.10565E+02-6.20283E+02 2.35495E+04 2.80520E-08-1.17382E-09
 -1       864-4.57427E+05 4.16893E+01-6.47705E+02 5.03608E+03 1.74015E-08 7.36179E-10
 -1       865-4.57587E+05 4.27403E+01-1.06794E+03 2.35351E+04 1.97809E-08-2.07359E-09
 -1       866-4.57363E+05 9.82898E+01-1.89969E+03 5.06060E+03-1.38562E-09 2.61650E-10
 -1       867-4.58096E+05-7.61329E+02-4.11246E+03 2.34503E+04 4.74483E-09-3.27572E-09
 -1       868-4.56872E+05 6.83481E+02-7.35749E+03 5.12146E+03 1.04387E-08-4.48995E-09
 -1       869-4.62790E+05-8.80324E+03-1.81473E+04 2.32429E+04-6.45196E-09-6.85623E-09
 -1       870-4.52589E+05 6.52093E+03-2.83581E+04 5.27080E+03 7.74708E-09-1.81171E-09
 -1       871-4.44683E+03-4.06316E+04-7.81651E+03 1.16753E+05 3.31966E-09-1.02409E-09
 -1       872-1.52548E+03-4.20234E+04-2.28490E+03 1.36510E+05 6.10362E-09-6.62612E-09
 -1       873-5.17998E+01-4.15478E+04 2.28409E+03 1.16534E+05 4.26917E-09 3.04362E-09
 -1       874 2.56355E+03-3.96903E+04 8.53888E+03 1.36611E+05 3.43698E-09 2.93971E-09
 -1       875 8.77766E+03-4.30911E+04 1.84433E+04 1.16674E+05 3.85717E-09 1.45610E-09
 -1       876 5.39506E+05 6.81947E+04 5.10688E+04 2.12733E+05 5.05270E-09 9.20409E-10
 -1       877 5.50916E+05 1.08176E+05 3.22386E+04 2.20386E+05-3.71438E-09 5.07134E-09
 -1       878 5.48249E+05 7.99106E+04 1.20557E+04 2.11537E+05 4.27008E-09-2.43836E-09
 -1       879 5.40867E+05 9.29497E+04 6.64032E+03 2.22423E+05-1.41690E-08-6.46196E-10
 -1       880 5.49193E+05 8.12314E+04 2.81575E+03 2.11498E+05-8.85029E-09-2.28965E-09
 -1       881 5.39780E+05 9.12733E+04 1.51344E+03 2.22476E+05-7.17398E-09-4.48171E-09
 -1       882 5.49276E+05 8.14109E+04 8.07628E+02 2.11534E+05 6.10612E-09 3.13028E-09
 -1       883 5.39697E+05 9.10805E+04 6.96296E+02 2.22422E+05-1.27951E-08 1.40031E-09
 -1       884 5.49259E+05 8.14210E+04 9.08628E+02 2.11546E+05-2.91186E-09-2.29591E-10
 -1       885 5.39851E+05 9.12669E+04 1.79101E+03 2.22414E+05 2.85001E-08 5.23528E-09
 -1       886 5.49125E+05 8.12395E+04 3.38037E+03 2.11536E+05 1.30075E-08 1.13869E-09
 -1       887 5.41212E+05 9.32265E+04 7.99237E+03 2.22265E+05 3.84608E-09 6.13454E-10
 -1       888 5.47947E+05 7.96871E+04 1.45260E+04 2.11618E+05 8.43731E-09-2.14732E-09
 -1       889 5.53366E+05 1.11513E+05 3.88387E+04 2.19728E+05-4.34534E-09-2.94858E-09
 -1       890 5.37381E+05 6.56076E+04 6.15376E+04 2.13087E+05-2.49202E-09-6.54836E-11
 -1       891 1.89576E+03-2.40586E+05-9.36006E+03 2.61689E+04 1.34442E-08 1.93268E-09
 -1       892-3.38792E+03-2.43823E+05-7.50669E+03 1.01750E+05 2.86059E-09 8.55380E-10
 -1       893 5.03613E+02-2.41663E+05-5.98475E+03 2.60385E+04 1.25715E-08 1.79682E-10
 -1       894-5.17184E+03-2.44862E+05-1.06596E+04 1.01738E+05 2.12094E-09-3.00679E-09
 -1       895 3.31764E+03-2.39524E+05-1.53292E+04 2.61797E+04 8.25185E-09 2.84854E-09
 -1       896 1.00995E+06-8.77083E+03 2.04182E+04 1.74779E+03 8.03908E-11-5.13046E-09
 -1       897 1.01871E+06 1.01624E+04 1.44354E+04 1.19756E+03-9.05970E-10-4.51723E-09
 -1       898 1.01336E+06-1.36655E+03 5.30367E+03 1.52593E+03-3.82423E-10-4.86693E-09
 -1       899 1.01474E+06 1.58856E+03 3.35068E+03 1.60796E+03 1.62790E-09-4.04862E-09
 -1       900 1.01392E+06-2.12857E+02 1.41823E+03 1.33743E+03 8.83023E-10-4.55435E-09
 -1       901 1.01410E+06 2.66185E+02 9.33482E+02 2.10647E+03 2.32564E-10-3.92894E-09
 -1       902 1.01401E+06-4.65678E+01 6.26213E+02 1.02741E+03-7.79547E-10-4.04986E-09
 -1       903 1.01407E+06 1.59380E+02 8.18394E+02 3.09646E+03-1.67616E-09-3.35334E-09
 -1       904 1.01396E+06-1.06920E+02 1.22665E+03 3.47418E+02 3.93356E-11-3.02879E-09
 -1       905 1.01452E+06 7.96358E+02 2.68595E+03 5.37005E+03 2.16636E-09-2.15590E-09
 -1       906 1.01356E+06-6.86383E+02 4.53850E+03-1.24621E+03-8.43215E-10-1.45860E-09
 -1       907 1.01736E+06 5.21579E+03 1.12814E+04 1.07496E+04-1.65466E-09 4.37922E-10
 -1       908 1.01115E+06-4.54002E+03 1.76839E+04-5.03229E+03 8.35598E-10 3.63070E-09
 -1       909 1.03468E+06 3.43159E+04 4.94882E+04 2.36665E+04 5.05091E-09 5.83441E-09
 -1       910 9.96408E+05-2.98509E+04 6.79036E+04-1.41639E+04 5.92308E-09 1.48502E-08
 -1       911 3.86112E+05-5.80702E+03 1.34069E+04-4.08204E+03-8.42738E-09 2.26410E-08
 -1       912 3.93045E+05 6.71054E+03 9.67029E+03 1.81685E+03-4.17282E-09 1.68873E-08
 -1       913 3.88594E+05-8.88792E+02 3.46749E+03-2.67794E+03-2.98431E-09 1.71779E-08
 -1       914 3.90126E+05 1.03420E+03 2.29078E+03-6.79299E+02-1.47752E-09 1.36934E-08
 -1       915 3.89019E+05-1.32083E+02 9.22153E+02-1.58578E+03 3.71693E-09 1.32399E-08
 -1       916 3.89694E+05 1.70520E+02 7.19162E+02-2.87907E+03 5.66251E-09 9.44760E-09
 -1       917 3.89027E+05-2.71176E+01 4.39236E+02-4.78111E+02 3.42385E-09 9.04509E-09
 -1       918 3.89949E+05 1.07027E+02 7.99143E+02-5.42568E+03-8.42306E-10 6.20300E-09
 -1       919 3.88780E+05-7.94984E+01 9.95519E+02 9.60859E+02 4.27235E-10 4.67776E-09
 -1       920 3.91173E+05 6.28858E+02 2.64344E+03-9.04576E+03 4.62708E-09 1.34150E-11
 -1       921 3.87853E+05-5.82301E+02 3.85567E+03 3.14213E+03-5.15314E-09-2.24873E-09
 -1       922 3.95868E+05 4.52172E+03 1.07308E+04-1.47773E+04-7.37214E-09-7.67045E-09
 -1       923 3.84229E+05-4.06459E+03 1.53035E+04 6.69359E+03-5.04770E-09-1.48821E-08
 -1       924 4.16099E+05 3.08469E+04 4.58541E+04-2.44291E+04-1.14811E-08-2.15405E-08
 -1       925 3.68038E+05-2.71411E+04 5.95096E+04 1.28005E+04-5.59112E-09-3.47245E-08
 -1       926-7.67142E+05 1.37942E+04-4.41686E+04-3.76252E+04 3.98586E-09-6.76719E-08
 -1       927-7.52435E+05-1.50499E+04-2.46067E+04 8.23724E+04-5.09802E-08-8.14325E-08
 -1       928-7.53653E+05 2.32411E+03-9.97669E+03-4.70760E+04 6.41229E-10-8.67412E-08
 -1       929-7.40440E+05-3.75389E+02-2.44484E+03 7.94757E+04 5.19037E-08-7.65722E-08
 -1       930-7.78836E+05-1.08643E+03-7.19117E+03-3.47184E+04 6.19411E-09-6.61383E-08
 -1       931-6.85834E+05 2.44834E+03 1.29273E+04 3.78158E+04-7.85803E-10-3.43912E-08
 -1       932-8.05228E+05-2.90871E+03-1.04288E+04-5.36238E+03 7.12180E-09-1.49428E-08
 -1       933-6.75256E+05 2.92961E+03 1.66177E+04-2.34327E+04 1.31545E-08 2.22187E-08
 -1       934-7.88835E+05-2.02754E+03-5.45579E+03 2.64515E+04 7.54335E-09 4.36564E-08
 -1       935-7.25083E+05 3.20394E+03 9.46725E+03-7.30637E+04 2.90424E-09 6.71769E-08
 -1       936-7.58261E+05-9.01275E+02 5.15960E+03 4.42756E+04 8.96762E-09 7.68075E-08
 -1       937-7.46938E+05 8.65963E+03 1.49550E+04-8.71949E+04-4.67843E-08 7.61065E-08
 -1       938-7.68374E+05-6.35755E+03 1.91893E+04 4.06260E+04-3.47659E-08 7.11270E-08
 -1       939-6.86716E+05 4.61323E+04 6.85202E+04-6.01560E+04-2.63857E-08 4.75075E-08
 -1       940-8.15991E+05-4.02630E+04 7.20816E+04 1.71739E+04 6.46651E-10 3.33894E-08
 -1       941 5.81244E+06-2.88565E+05 6.74870E+05 1.44042E+03 2.77141E-08 5.55883E-09
 -1       942 6.10303E+06 3.34399E+05 4.75956E+05 2.20337E+03 4.12864E-08 8.00355E-09
 -1       943 5.92496E+06-4.50389E+04 1.74992E+05 1.78825E+03 2.09137E-06 1.35842E-08
 -1       944 5.97277E+06 5.21539E+04 1.09852E+05 1.83438E+03 4.13554E-06-4.91127E-09
 -1       945 5.94359E+06-7.01573E+03 4.52157E+04 1.80976E+03 2.82537E-06-2.45200E-09
 -1       946 5.95141E+06 8.24045E+03 2.70955E+04 1.81178E+03 1.49823E-06 7.35054E-09
 -1       947 5.94667E+06-1.21118E+03 1.35805E+04 1.81097E+03 1.99132E-06 4.34875E-09
 -1       948 5.94830E+06 2.24900E+03 1.12388E+04 1.80940E+03 2.48909E-06 1.82692E-09
 -1       949 5.94678E+06-1.03401E+03 1.19434E+04 1.81217E+03 1.25042E-06-1.01804E-08
 -1       950 5.95059E+06 6.71047E+03 2.23771E+04 1.79245E+03 1.16603E-08 6.35191E-09
 -1       951 5.94433E+06-5.66535E+03 3.67052E+04 1.82791E+03-1.19600E-09-1.03246E-08
 -1       952 5.96777E+06 4.20608E+04 8.87028E+04 1.56135E+03-4.26168E-09-4.93128E-09
 -1       953 5.92931E+06-3.63171E+04 1.41141E+05 2.04315E+03-7.79391E-09-7.13044E-10
 -1       954 6.07282E+06 2.69631E+05 3.83782E+05-1.65624E+03-4.29297E-09-6.61385E-09
 -1       955 5.83846E+06-2.32700E+05 5.43856E+05 5.04425E+03-2.69816E-08-2.35741E-09
 -1       956-3.11136E+05-5.36526E+03-1.12284E+04 4.32528E+04-5.46061E-09-1.05956E-09
 -1       957-3.13196E+05-1.67360E+03-5.66309E+03 5.02068E+04-2.57660E-09-1.60071E-09
 -1       958-3.12089E+05-1.67152E+02-2.54888E+03 4.29892E+04 2.04273E-09-3.04317E-09
 -1       959-3.12297E+05 2.94332E+01-1.29508E+03 5.04950E+04-4.80213E-09 1.65528E-10
 -1       960-3.12222E+05 1.01220E+02-6.29694E+02 4.29606E+04-8.03357E-09-9.62245E-10
 -1       961-3.12261E+05 1.28931E+02-3.31083E+02 5.05273E+04-1.40722E-08 5.96629E-10
 -1       962-3.12270E+05 1.19193E+02-1.86359E+02 4.29563E+04-6.68388E-09-1.00135E-09
 -1       963-3.12284E+05 1.45811E+02-1.42535E+02 5.05331E+04-8.33734E-09-1.21054E-09
 -1       964-3.12291E+05 1.31601E+02-1.65563E+02 4.29546E+04-8.74979E-09-3.83761E-09
 -1       965-3.12307E+05 1.55416E+02-2.79717E+02 5.05334E+04-1.21338E-08-6.73435E-09
 -1       966-3.12287E+05 1.38876E+02-5.22351E+02 4.29558E+04-1.35262E-08-1.05138E-09
 -1       967-3.12378E+05 9.50359E+01-1.07379E+03 5.05184E+04-1.39244E-09-2.06910E-09
 -1       968-3.12209E+05-6.32621E+01-2.10955E+03 4.29701E+04-1.13960E-09-3.05454E-09
 -1       969-3.13159E+05-1.29881E+03-4.69331E+03 5.03704E+04 2.22099E-09-1.35105E-09
 -1       970-3.11445E+05-4.36098E+03-9.30251E+03 4.31107E+04 1.89948E-09-4.36012E-09
 -1       971-6.31586E+05 8.74560E+03-3.81144E+04 5.11397E+03-4.03270E-09 1.02955E-09
 -1       972-6.45230E+05-1.18919E+04-2.43871E+04 2.28723E+04-4.30464E-09 3.59978E-09
 -1       973-6.37341E+05 8.97856E+02-9.88869E+03 4.87901E+03-1.04842E-08-1.50976E-10
 -1       974-6.38923E+05-1.08242E+03-5.52062E+03 2.32286E+04 4.79531E-10 1.96758E-09
 -1       975-6.38002E+05 1.12745E+02-2.54559E+03 4.75508E+03-4.87489E-09 6.27324E-10
 -1       976-6.38249E+05 3.49040E+00-1.41354E+03 2.34215E+04-1.65491E-08 3.22609E-09
 -1       977-6.38090E+05 4.05491E+01-8.30339E+02 4.68529E+03 8.89327E-09 3.44147E-09
 -1       978-6.38202E+05 1.06162E+02-7.47936E+02 2.35134E+04 2.90198E-08 3.29902E-09
 -1       979-6.38088E+05 4.76417E+01-9.89511E+02 4.66300E+03 1.55330E-08 2.06029E-10
 -1       980-6.38316E+05-2.38959E+01-1.83745E+03 2.35095E+04 1.63996E-08 4.68989E-09
 -1       981-6.37975E+05 1.57010E+02-3.38388E+03 4.68929E+03-3.57522E-09 6.76323E-10
 -1       982-6.39271E+05-1.46462E+03-7.40573E+03 2.34074E+04 1.16074E-10 4.78769E-09
 -1       983-6.37095E+05 1.22612E+03-1.32694E+04 4.76585E+03 4.91764E-09 2.08820E-09
 -1       984-6.47804E+05-1.59720E+04-3.27733E+04 2.31623E+04 2.75804E-10 3.71983E-09
 -1       985-6.29369E+05 1.17911E+04-5.11954E+04 4.93953E+03 7.27277E-09 1.41881E-10
 -3
    1PSTEP                        35          18           1          
  100CL  118 8.53171E-01         841                     0   18           1
 -4  DISP        4    1
 -5  D1          1    2    1    0
 -5  D2          1    2    2    0
 -5  D3          1    2    3    0
 -5  ALL         1    2    0    0    1ALL
 -1         1 1.06503E-04 0.00000E+00 0.00000E+00
 -1         2 8.36031E-05 0.00000E+00 0.00000E+00
 -1         3 6.99992E-05 0.00000E+00 0.00000E+00
 -1         4 6.02680E-05 0.00000E+00 0.00000E+00
 -1         5 5.46531E-05 0.00000E+00 0.00000E+00
 -1         8 8.41671E-05-1.06925E-06 0.00000E+00
 -1         9 6.52588E-05 7.40105E-07 0.00000E+00
 -1        10 6.18260E-05-2.72021E-06 0.00000E+00
 -1        11 5.73277E-05-5.36586E-07 0.00000E+00
 -1        12 5.23749E-05 1.35522E-06 0.00000E+00
 -1        15 4.11885E-05-1.71557E-06 0.00000E+00
 -1        16 4.89728E-05 6.91308E-07 0.00000E+00
 -1        17 4.40379E-05-5.44373E-06 0.00000E+00
 -1        18 4.44106E-05-1.05852E-06 0.00000E+00
 -1        19 4.67042E-05 2.68201E-06 0.00000E+00
 -1        20 4.74180E-05 2.87686E-05 0.00000E+00
 -1        21 4.73861E-05 6.87634E-05 0.00000E+00
 -1        22 1.31793E-05-1.17551E-06 0.00000E+00
 -1        23 1.65181E-05 1.14790E-06 0.00000E+00
 -1        24 1.82597E-05-6.44085E-06 0.00000E+00
 -1        25 3.90151E-05-7.06298E-07 0.00000E+00
 -1        26 4.11541E-05 3.56551E-06 0.00000E+00
 -1        27 3.89207E-05 2.77386E-05 0.00000E+00
 -1        28 3.62699E-05 6.77904E-05 0.00000E+00
 -1        29 0.00000E+00 0.00000E+00 0.00000E+00
 -1        30 5.66436E-06 1.43446E-06 0.00000E+00
 -1        31 7.57486E-06-5.70177E-06 0.00000E+00
 -1        32 0.00000E+00 0.00000E+00 0.00000E+00
 -1        33 3.36151E-05 5.66027E-06 0.00000E+00
 -1        34 3.18155E-05 2.76414E-05 0.00000E+00
 -1        35 2.81319E-05 6.72707E-05 0.00000E+00
 -1        36 1.05115E-04 5.13679E-20 0.00000E+00
 -1        37 1.03684E-04 7.85276E-19-1.32349E-23
 -1        38 1.02255E-04 1.94949E-18 5.29396E-23
 -1        39 1.00818E-04 2.47121E-18 0.00000E+00
 -1        40 9.93813E-05 2.14418E-18 0.00000E+00
 -1        41 9.79426E-05 1.06311E-18 0.00000E+00
 -1        42 9.65037E-05-1.43094E-20 5.29396E-23
 -1        43 9.50646E-05-2.99135E-19 0.00000E+00
 -1        44 9.36254E-05 2.14031E-19-5.29396E-23
 -1        45 9.21863E-05 1.20240E-18 2.64698E-23
 -1        46 9.07474E-05 2.33491E-18 0.00000E+00
 -1        47 8.93097E-05 2.74722E-18 2.64698E-23
 -1        48 8.78721E-05 2.40184E-18 5.29396E-23
 -1        49 8.64402E-05 1.29633E-18 2.64698E-23
 -1        50 8.50065E-05 3.44254E-19 2.64698E-23
 -1        51 1.04820E-04-1.80731E-07 0.00000E+00
 -1        52 1.02027E-04-3.53786E-07 0.00000E+00
 -1        53 9.83405E-05-5.26313E-07 0.00000E+00
 -1        54 9.39841E-05-7.00771E-07 0.00000E+00
 -1        55 8.91839E-05-8.79219E-07 5.37667E-24
 -1        56 1.04386E-04-9.48576E-07 5.29396E-23
 -1        57 1.02275E-04-2.15358E-06 2.64698E-23
 -1        58 1.00215E-04-3.48347E-06-5.29396E-23
 -1        59 9.81500E-05-4.83804E-06 0.00000E+00
 -1        60 9.60509E-05-6.10386E-06 5.29396E-23
 -1        61 9.38771E-05-7.17737E-06 2.64698E-23
 -1        62 9.15978E-05-7.97068E-06-5.29396E-23
 -1        63 8.91855E-05-8.41035E-06 2.64698E-23
 -1        64 8.66241E-05-8.45352E-06 0.00000E+00
 -1        65 8.39051E-05-8.07654E-06 0.00000E+00
 -1        66 8.10333E-05-7.29254E-06 0.00000E+00
 -1        67 7.80226E-05-6.13362E-06 0.00000E+00
 -1        68 7.48960E-05-4.66586E-06 0.00000E+00
 -1        69 7.16961E-05-2.96494E-06 0.00000E+00
 -1        70 6.84436E-05-1.13756E-06 0.00000E+00
 -1        71 8.27585E-05-1.06754E-19-2.64698E-23
 -1        72 8.19070E-05-1.00117E-19 0.00000E+00
 -1        73 8.10561E-05-1.39576E-19-2.64698E-23
 -1        74 8.02038E-05-1.16999E-19 1.32349E-23
 -1        75 7.93515E-05-1.07695E-19 2.64698E-23
 -1        76 7.84990E-05-7.83671E-21-1.32349E-23
 -1        77 7.76464E-05 8.00235E-20 0.00000E+00
 -1        78 7.67938E-05 1.19528E-19-1.32349E-23
 -1        79 7.59413E-05 1.80334E-19 0.00000E+00
 -1        80 7.50888E-05 2.63973E-19 0.00000E+00
 -1        81 7.42364E-05 1.83606E-19 0.00000E+00
 -1        82 7.33846E-05 1.90314E-20 1.32349E-23
 -1        83 7.25328E-05 2.78814E-20 0.00000E+00
 -1        84 7.16839E-05 7.42713E-20-1.32349E-23
 -1        85 7.08341E-05 1.06041E-19-2.64698E-23
 -1        86 8.27120E-05 1.04412E-07 0.00000E+00
 -1        87 8.00800E-05 2.38409E-07 0.00000E+00
 -1        88 7.63783E-05 3.67003E-07 0.00000E+00
 -1        89 7.22701E-05 4.96053E-07 0.00000E+00
 -1        90 6.83612E-05 6.27562E-07 6.61744E-24
 -1        91 7.85657E-05 1.12666E-05 0.00000E+00
 -1        92 6.45781E-05 4.49160E-05 0.00000E+00
 -1        93 4.78923E-05 8.50906E-05 0.00000E+00
 -1        94 3.51095E-05 1.15864E-04 0.00000E+00
 -1        95 3.02748E-05 1.26569E-04 0.00000E+00
 -1        96 3.66931E-05 1.06895E-04-6.61744E-24
 -1        97 5.14530E-05 6.28534E-05 0.00000E+00
 -1        98 7.18049E-05 1.27279E-06 0.00000E+00
 -1        99 9.23517E-05-6.09293E-05 0.00000E+00
 -1       100 1.07715E-04-1.06810E-04 6.61744E-24
 -1       101 1.14965E-04-1.28843E-04 0.00000E+00
 -1       102 1.10971E-04-1.20318E-04-6.61744E-24
 -1       103 9.87608E-05-9.09470E-05 1.32349E-23
 -1       104 8.21000E-05-5.08283E-05-6.61744E-24
 -1       105 6.76578E-05-1.60704E-05 0.00000E+00
 -1       106 6.93953E-05 1.05924E-19-1.32349E-23
 -1       107 6.87862E-05 5.43205E-19 6.61744E-24
 -1       108 6.81775E-05 9.89098E-19 1.32349E-23
 -1       109 6.75677E-05 1.34154E-18-6.61744E-24
 -1       110 6.69579E-05 1.52946E-18 0.00000E+00
 -1       111 6.63480E-05 1.31128E-18-6.61744E-24
 -1       112 6.57380E-05 5.31360E-19 1.32349E-23
 -1       113 6.51280E-05-2.54841E-19-6.61744E-24
 -1       114 6.45180E-05-1.09356E-18 1.32349E-23
 -1       115 6.39081E-05-1.63594E-18-6.61744E-24
 -1       116 6.32982E-05-1.85759E-18 1.32349E-23
 -1       117 6.26888E-05-1.71799E-18 0.00000E+00
 -1       118 6.20794E-05-1.21602E-18-1.32349E-23
 -1       119 6.14723E-05-5.79270E-19 6.61744E-24
 -1       120 6.08644E-05-1.34811E-19 0.00000E+00
 -1       121 6.97491E-05-4.53547E-07 0.00000E+00
 -1       122 6.90214E-05-9.06043E-07-6.61744E-24
 -1       123 6.78391E-05-1.35896E-06 1.32349E-23
 -1       124 6.62277E-05-1.81218E-06 0.00000E+00
 -1       125 6.42138E-05-2.26607E-06-1.32349E-23
 -1       126 7.24448E-05-7.39334E-06 0.00000E+00
 -1       127 8.01308E-05-2.93431E-05-3.30872E-24
 -1       128 9.15931E-05-6.21998E-05-6.61744E-24
 -1       129 1.05443E-04-1.02160E-04 3.30872E-24
 -1       130 1.19797E-04-1.43635E-04-6.61744E-24
 -1       131 1.32788E-04-1.81011E-04-3.30872E-24
 -1       132 1.42825E-04-2.09711E-04 0.00000E+00
 -1       133 1.48252E-04-2.25281E-04-3.30872E-24
 -1       134 1.48415E-04-2.26478E-04-6.61744E-24
 -1       135 1.42673E-04-2.12230E-04 0.00000E+00
 -1       136 1.31829E-04-1.85143E-04 6.61744E-24
 -1       137 1.16822E-04-1.47929E-04 0.00000E+00
 -1       138 9.97260E-05-1.05720E-04 6.61744E-24
 -1       139 8.27000E-05-6.36768E-05 0.00000E+00
 -1       140 6.78835E-05-2.69187E-05 6.61744E-24
 -1       141 5.99158E-05-4.93858E-20 1.32349E-23
 -1       142 5.95624E-05-3.07116E-20 0.00000E+00
 -1       143 5.92091E-05 7.93773E-20 1.32349E-23
 -1       144 5.88556E-05 3.86111E-19 0.00000E+00
 -1       145 5.85020E-05 6.60560E-19 1.32349E-23
 -1       146 5.81484E-05 9.54751E-19 6.61744E-24
 -1       147 5.77949E-05 1.22917E-18 0.00000E+00
 -1       148 5.74413E-05 1.45173E-18 0.00000E+00
 -1       149 5.70878E-05 1.47113E-18-1.32349E-23
 -1       150 5.67345E-05 1.37064E-18-6.61744E-24
 -1       151 5.63812E-05 1.12961E-18 1.32349E-23
 -1       152 5.60289E-05 8.14942E-19-6.61744E-24
 -1       153 5.56767E-05 5.65807E-19 0.00000E+00
 -1       154 5.53288E-05 2.79711E-19 3.30872E-24
 -1       155 5.49795E-05 1.12281E-19-1.65436E-24
 -1       156 6.23979E-05-7.00890E-08 0.00000E+00
 -1       157 6.85874E-05-1.45443E-07 0.00000E+00
 -1       158 7.49648E-05-2.22682E-07 0.00000E+00
 -1       159 7.76583E-05-2.82337E-07 0.00000E+00
 -1       160 7.29970E-05-3.53522E-07 0.00000E+00
 -1       161 6.15549E-05-4.32941E-06 0.00000E+00
 -1       162 6.59199E-05-1.70669E-05-3.30872E-24
 -1       163 7.24314E-05-3.57914E-05 6.61744E-24
 -1       164 8.01704E-05-5.79936E-05 3.30872E-24
 -1       165 8.79012E-05-8.01725E-05 0.00000E+00
 -1       166 9.43888E-05-9.88282E-05 0.00000E+00
 -1       167 9.87174E-05-1.11465E-04 0.00000E+00
 -1       168 9.99620E-05-1.15672E-04 3.30872E-24
 -1       169 9.80288E-05-1.11409E-04-6.61744E-24
 -1       170 9.28630E-05-9.87379E-05 3.30872E-24
 -1       171 8.53427E-05-8.00586E-05 0.00000E+00
 -1       172 7.64120E-05-5.78316E-05-3.30872E-24
 -1       173 6.74417E-05-3.55057E-05 0.00000E+00
 -1       174 5.98087E-05-1.65287E-05 0.00000E+00
 -1       175 5.44779E-05-3.42391E-06-1.65436E-24
 -1       191 5.45641E-05 2.25554E-07 1.32349E-23
 -1       192 5.43522E-05 4.51608E-07 0.00000E+00
 -1       193 5.40217E-05 6.77763E-07 0.00000E+00
 -1       194 5.35782E-05 9.03882E-07 0.00000E+00
 -1       195 5.30271E-05 1.12983E-06 1.32349E-23
 -1       251 8.33911E-05 1.22857E-05 0.00000E+00
 -1       252 8.22144E-05 4.38475E-05 0.00000E+00
 -1       253 8.09127E-05 7.95903E-05-2.64698E-23
 -1       254 7.99047E-05 1.05362E-04 0.00000E+00
 -1       255 7.91621E-05 1.12511E-04-2.64698E-23
 -1       256 7.82600E-05 9.29465E-05 0.00000E+00
 -1       257 7.67879E-05 5.27044E-05-2.64698E-23
 -1       258 7.46780E-05-1.55752E-06 1.32349E-23
 -1       259 7.25834E-05-5.55107E-05 0.00000E+00
 -1       260 7.11456E-05-9.48334E-05 0.00000E+00
 -1       261 7.02655E-05-1.13202E-04-2.64698E-23
 -1       262 6.95146E-05-1.04924E-04 1.32349E-23
 -1       263 6.84884E-05-7.84021E-05 0.00000E+00
 -1       264 6.71848E-05-4.25872E-05-1.32349E-23
 -1       265 6.60231E-05-1.15602E-05 0.00000E+00
 -1       266 8.04754E-05-1.16304E-06-6.61744E-24
 -1       267 7.73013E-05-1.24078E-06 0.00000E+00
 -1       268 7.31813E-05-1.32299E-06 3.30872E-24
 -1       269 6.66550E-05-1.41414E-06 8.27181E-25
 -1       270 5.64207E-05-1.53609E-06 1.65436E-24
 -1       271 8.10058E-05 1.77692E-06 2.64698E-23
 -1       272 7.80994E-05 3.75944E-06 0.00000E+00
 -1       273 7.54854E-05 4.97273E-06 5.29396E-23
 -1       274 7.31198E-05 5.49844E-06 0.00000E+00
 -1       275 7.09736E-05 5.43750E-06 5.29396E-23
 -1       276 6.90051E-05 4.89892E-06 2.64698E-23
 -1       277 6.71709E-05 4.00097E-06 5.29396E-23
 -1       278 6.54243E-05 2.86848E-06 0.00000E+00
 -1       279 6.37172E-05 1.63053E-06 0.00000E+00
 -1       280 6.20007E-05 4.18308E-07-2.64698E-23
 -1       281 6.02261E-05-6.37618E-07 0.00000E+00
 -1       282 5.83465E-05-1.40939E-06-2.64698E-23
 -1       283 5.63155E-05-1.77473E-06 0.00000E+00
 -1       284 5.40973E-05-1.61630E-06 0.00000E+00
 -1       285 5.16420E-05-8.32449E-07-5.29396E-23
 -1       286 6.50343E-05 3.10174E-06 0.00000E+00
 -1       287 6.48200E-05 4.81419E-06-3.30872E-24
 -1       288 6.46060E-05 5.77147E-06 6.61744E-24
 -1       289 6.43941E-05 5.87443E-06-3.30872E-24
 -1       290 6.41821E-05 5.18609E-06 0.00000E+00
 -1       291 6.39696E-05 3.77667E-06 3.30872E-24
 -1       292 6.37564E-05 1.85319E-06-6.61744E-24
 -1       293 6.35427E-05-3.72701E-07-3.30872E-24
 -1       294 6.33289E-05-2.63195E-06 0.00000E+00
 -1       295 6.31155E-05-4.65518E-06-3.30872E-24
 -1       296 6.29028E-05-6.21786E-06 6.61744E-24
 -1       297 6.26906E-05-7.09957E-06 3.30872E-24
 -1       298 6.24787E-05-7.20912E-06 0.00000E+00
 -1       299 6.22648E-05-6.46231E-06 0.00000E+00
 -1       300 6.20506E-05-4.93754E-06 0.00000E+00
 -1       301 6.25356E-05 7.20315E-07 0.00000E+00
 -1       302 5.98014E-05 7.19114E-07 0.00000E+00
 -1       303 5.70671E-05 7.21092E-07 0.00000E+00
 -1       304 5.43437E-05 7.22409E-07 0.00000E+00
 -1       305 5.16420E-05 7.19098E-07-6.61744E-24
 -1       306 6.31757E-05 2.47284E-06 0.00000E+00
 -1       307 6.13785E-05 3.33582E-06 0.00000E+00
 -1       308 5.98651E-05 3.44697E-06-2.64698E-23
 -1       309 5.85856E-05 2.91842E-06 0.00000E+00
 -1       310 5.74987E-05 1.87410E-06-5.29396E-23
 -1       311 5.65556E-05 4.42924E-07 0.00000E+00
 -1       312 5.57067E-05-1.24104E-06 0.00000E+00
 -1       313 5.49009E-05-3.04068E-06-2.64698E-23
 -1       314 5.40866E-05-4.81732E-06 5.29396E-23
 -1       315 5.32121E-05-6.43261E-06 0.00000E+00
 -1       316 5.22266E-05-7.75032E-06 5.29396E-23
 -1       317 5.10813E-05-8.63785E-06-1.32349E-23
 -1       318 4.97279E-05-8.96829E-06-2.64698E-23
 -1       319 4.81269E-05-8.61993E-06-1.32349E-23
 -1       320 4.62282E-05-7.48407E-06-2.64698E-23
 -1       321 6.16152E-05-2.91631E-06 0.00000E+00
 -1       322 6.13989E-05-8.59711E-06 0.00000E+00
 -1       323 6.11490E-05-1.87325E-05-6.61744E-24
 -1       324 6.08624E-05-3.22555E-05 0.00000E+00
 -1       325 6.05527E-05-4.74927E-05-6.61744E-24
 -1       326 6.02430E-05-6.27566E-05 0.00000E+00
 -1       327 5.99559E-05-7.63548E-05-6.61744E-24
 -1       328 5.97073E-05-8.66087E-05-3.30872E-24
 -1       329 5.94920E-05-9.24366E-05 6.61744E-24
 -1       330 5.92930E-05-9.27944E-05 0.00000E+00
 -1       331 5.90811E-05-8.76115E-05-6.61744E-24
 -1       332 5.88267E-05-7.68646E-05-3.30872E-24
 -1       333 5.85155E-05-6.15200E-05-6.61744E-24
 -1       334 5.81454E-05-4.25835E-05 0.00000E+00
 -1       335 5.77387E-05-2.17016E-05 0.00000E+00
 -1       336 5.91424E-05-3.17503E-06-1.32349E-23
 -1       337 5.62695E-05-3.63060E-06-6.61744E-24
 -1       338 5.32645E-05-4.08634E-06 0.00000E+00
 -1       339 5.01854E-05-4.54123E-06-6.61744E-24
 -1       340 4.70905E-05-4.99628E-06 0.00000E+00
 -1       341 5.73339E-05 7.23580E-06 0.00000E+00
 -1       342 4.69854E-05 3.20228E-05-6.61744E-24
 -1       343 3.51850E-05 6.04157E-05 0.00000E+00
 -1       344 2.64749E-05 8.11309E-05-6.61744E-24
 -1       345 2.34917E-05 8.71060E-05 0.00000E+00
 -1       346 2.84648E-05 7.15806E-05 0.00000E+00
 -1       347 3.92683E-05 3.94232E-05-1.32349E-23
 -1       348 5.38313E-05-3.97085E-06-6.61744E-24
 -1       349 6.82321E-05-4.68745E-05 1.32349E-23
 -1       350 7.85391E-05-7.75803E-05 0.00000E+00
 -1       351 8.28420E-05-9.12388E-05-1.32349E-23
 -1       352 7.91974E-05-8.35324E-05-6.61744E-24
 -1       353 7.00409E-05-6.16940E-05-1.32349E-23
 -1       354 5.82212E-05-3.32374E-05 0.00000E+00
 -1       355 4.82296E-05-9.33261E-06-6.61744E-24
 -1       356 5.68965E-05 2.11715E-05 0.00000E+00
 -1       357 5.64468E-05 4.36713E-05-3.30872E-24
 -1       358 5.60219E-05 6.49722E-05 0.00000E+00
 -1       359 5.56570E-05 8.30937E-05-3.30872E-24
 -1       360 5.53602E-05 9.66483E-05 6.61744E-24
 -1       361 5.51237E-05 1.04289E-04 3.30872E-24
 -1       362 5.49140E-05 1.05769E-04 0.00000E+00
 -1       363 5.46938E-05 1.00895E-04 3.30872E-24
 -1       364 5.44357E-05 9.06551E-05 0.00000E+00
 -1       365 5.41261E-05 7.60842E-05 3.30872E-24
 -1       366 5.37797E-05 5.90249E-05 6.61744E-24
 -1       367 5.34235E-05 4.13414E-05 3.30872E-24
 -1       368 5.30890E-05 2.50148E-05 3.30872E-24
 -1       369 5.28047E-05 1.20144E-05 0.00000E+00
 -1       370 5.25661E-05 3.69169E-06 0.00000E+00
 -1       371 4.10742E-05-7.31050E-07 3.30872E-24
 -1       372 3.46881E-05-8.13411E-07 0.00000E+00
 -1       373 3.50494E-05-8.72621E-07 0.00000E+00
 -1       374 3.90207E-05-9.37981E-07 4.13590E-25
 -1       375 4.32564E-05-1.00431E-06 0.00000E+00
 -1       376 4.75156E-05 2.40395E-05 0.00000E+00
 -1       377 3.49383E-05 5.54164E-05-3.30872E-24
 -1       378 2.12033E-05 8.96110E-05 6.61744E-24
 -1       379 7.95688E-06 1.22621E-04-3.30872E-24
 -1       380-3.28416E-06 1.50719E-04 0.00000E+00
 -1       381-1.10677E-05 1.70207E-04 0.00000E+00
 -1       382-1.48159E-05 1.79362E-04-6.61744E-24
 -1       383-1.40330E-05 1.76549E-04 3.30872E-24
 -1       384-9.27375E-06 1.62883E-04 0.00000E+00
 -1       385-1.10046E-06 1.39600E-04 3.30872E-24
 -1       386 9.20071E-06 1.10193E-04 0.00000E+00
 -1       387 2.03754E-05 7.82320E-05 0.00000E+00
 -1       388 3.09930E-05 4.78988E-05 0.00000E+00
 -1       389 3.96138E-05 2.33545E-05 0.00000E+00
 -1       390 4.52000E-05 7.38707E-06 1.65436E-24
 -1       406 5.15944E-05 1.57763E-06-6.61744E-24
 -1       407 5.07314E-05 1.80025E-06 0.00000E+00
 -1       408 4.97980E-05 2.02274E-06-6.61744E-24
 -1       409 4.88071E-05 2.24466E-06 0.00000E+00
 -1       410 4.77714E-05 2.46539E-06 6.61744E-24
 -1       466 4.15686E-05 1.25325E-05 0.00000E+00
 -1       467 4.20402E-05 1.99415E-05 0.00000E+00
 -1       468 4.25349E-05 2.27801E-05-1.32349E-23
 -1       469 4.30371E-05 2.32160E-05 0.00000E+00
 -1       470 4.35390E-05 2.20509E-05 0.00000E+00
 -1       471 4.40405E-05 2.00514E-05 0.00000E+00
 -1       472 4.45408E-05 1.75072E-05 0.00000E+00
 -1       473 4.50406E-05 1.46960E-05 0.00000E+00
 -1       474 4.55399E-05 1.17427E-05 0.00000E+00
 -1       475 4.60388E-05 8.76916E-06 6.61744E-24
 -1       476 4.65378E-05 5.88558E-06 0.00000E+00
 -1       477 4.70357E-05 3.20410E-06-6.61744E-24
 -1       478 4.75344E-05 9.52453E-07 1.32349E-23
 -1       479 4.80261E-05-6.32207E-07 3.30872E-24
 -1       480 4.85216E-05-9.34185E-07 0.00000E+00
 -1       481 2.69027E-05-1.70656E-06 1.65436E-24
 -1       482 1.94329E-05-1.62179E-06 1.65436E-24
 -1       483 1.64906E-05-1.51277E-06 0.00000E+00
 -1       484 1.58098E-05-1.39941E-06-1.65436E-24
 -1       485 1.53768E-05-1.28562E-06 0.00000E+00
 -1       486 3.05239E-05 2.41279E-05 6.61744E-24
 -1       487 1.32248E-05 6.59817E-05 0.00000E+00
 -1       488-4.35021E-06 1.08493E-04 1.32349E-23
 -1       489-1.58278E-05 1.36289E-04 0.00000E+00
 -1       490-1.83750E-05 1.41287E-04 1.32349E-23
 -1       491-9.81956E-06 1.15790E-04 6.61744E-24
 -1       492 6.70625E-06 6.66171E-05 1.32349E-23
 -1       493 2.83005E-05 1.31212E-06 0.00000E+00
 -1       494 4.99807E-05-6.42695E-05-1.32349E-23
 -1       495 6.67703E-05-1.14260E-04 0.00000E+00
 -1       496 7.57015E-05-1.40839E-04-1.32349E-23
 -1       497 7.35595E-05-1.36907E-04 0.00000E+00
 -1       498 6.23997E-05-1.09897E-04 1.32349E-23
 -1       499 4.49303E-05-6.76389E-05 0.00000E+00
 -1       500 2.75125E-05-2.55037E-05 1.32349E-23
 -1       501 4.86541E-05 2.69794E-06 0.00000E+00
 -1       502 4.83476E-05 3.47004E-06 6.61744E-24
 -1       503 4.80405E-05 2.93717E-06-1.32349E-23
 -1       504 4.77338E-05 1.04582E-06 0.00000E+00
 -1       505 4.74249E-05-1.89612E-06 0.00000E+00
 -1       506 4.71139E-05-5.56696E-06 0.00000E+00
 -1       507 4.68023E-05-9.45115E-06 0.00000E+00
 -1       508 4.64919E-05-1.30305E-05 0.00000E+00
 -1       509 4.61837E-05-1.58676E-05 0.00000E+00
 -1       510 4.58781E-05-1.75351E-05 3.30872E-24
 -1       511 4.55737E-05-1.79163E-05 6.61744E-24
 -1       512 4.52690E-05-1.69115E-05 0.00000E+00
 -1       513 4.49626E-05-1.47894E-05-6.61744E-24
 -1       514 4.46545E-05-1.18333E-05 3.30872E-24
 -1       515 4.43453E-05-8.54830E-06 0.00000E+00
 -1       516 4.69776E-05 7.70637E-07 0.00000E+00
 -1       517 4.61307E-05 8.78579E-07 0.00000E+00
 -1       518 4.46051E-05 9.83681E-07 0.00000E+00
 -1       519 4.05713E-05 1.08603E-06 0.00000E+00
 -1       520 3.19197E-05 1.15914E-06 2.06795E-25
 -1       521 4.63845E-05 2.18433E-06 0.00000E+00
 -1       522 4.40525E-05 2.83298E-06-2.64698E-23
 -1       523 4.19959E-05 2.75390E-06 0.00000E+00
 -1       524 4.01633E-05 2.05375E-06-2.64698E-23
 -1       525 3.85163E-05 8.55858E-07-5.29396E-23
 -1       526 3.70053E-05-7.09867E-07 0.00000E+00
 -1       527 3.55805E-05-2.50656E-06-5.29396E-23
 -1       528 3.41891E-05-4.39344E-06 0.00000E+00
 -1       529 3.27781E-05-6.22806E-06-5.29396E-23
 -1       530 3.12949E-05-7.86893E-06 0.00000E+00
 -1       531 2.96880E-05-9.17807E-06 0.00000E+00
 -1       532 2.79087E-05-1.00233E-05 2.64698E-23
 -1       533 2.59099E-05-1.02810E-05-5.29396E-23
 -1       534 2.36559E-05-9.83608E-06 0.00000E+00
 -1       535 2.10988E-05-8.59105E-06-5.29396E-23
 -1       536 4.40443E-05-2.79575E-06 3.30872E-24
 -1       537 4.40648E-05-7.81821E-07-8.27181E-25
 -1       538 4.40861E-05 6.66004E-07 0.00000E+00
 -1       539 4.41099E-05 1.61609E-06 0.00000E+00
 -1       540 4.41343E-05 2.13657E-06-3.10193E-25
 -1       541 4.41591E-05 2.29552E-06-2.06795E-25
 -1       542 4.41841E-05 2.16095E-06-4.13590E-25
 -1       543 4.42091E-05 1.80078E-06 0.00000E+00
 -1       544 4.42340E-05 1.28293E-06 8.27181E-25
 -1       545 4.42590E-05 6.75222E-07-4.13590E-25
 -1       546 4.42839E-05 4.55137E-08 0.00000E+00
 -1       547 4.43089E-05-5.38363E-07 0.00000E+00
 -1       548 4.43340E-05-1.00857E-06 0.00000E+00
 -1       549 4.43593E-05-1.29726E-06 4.13590E-25
 -1       550 4.43845E-05-1.33648E-06 1.65436E-24
 -1       551 4.01861E-05-5.60736E-06 5.01478E-24
 -1       552 3.59021E-05-5.76733E-06 0.00000E+00
 -1       553 3.13749E-05-5.92775E-06 0.00000E+00
 -1       554 2.67973E-05-6.09007E-06 0.00000E+00
 -1       555 2.23623E-05-6.25605E-06 1.32349E-23
 -1       556 4.28959E-05-2.96728E-06 0.00000E+00
 -1       557 4.19717E-05-1.05435E-06 6.61744E-24
 -1       558 4.12406E-05 3.48687E-07 0.00000E+00
 -1       559 4.06800E-05 1.30082E-06 0.00000E+00
 -1       560 4.02669E-05 1.86119E-06 1.32349E-23
 -1       561 3.99786E-05 2.08953E-06 0.00000E+00
 -1       562 3.97925E-05 2.04564E-06 0.00000E+00
 -1       563 3.96862E-05 1.78941E-06 0.00000E+00
 -1       564 3.96370E-05 1.38082E-06 6.61744E-24
 -1       565 3.96224E-05 8.79847E-07-3.30872E-24
 -1       566 3.96200E-05 3.46515E-07 6.61744E-24
 -1       567 3.96074E-05-1.59141E-07 0.00000E+00
 -1       568 3.95621E-05-5.77106E-07 4.96308E-24
 -1       569 3.94621E-05-8.47433E-07-1.55096E-24
 -1       570 3.92855E-05-9.10238E-07-3.30872E-24
 -1       571 4.45483E-05-7.35730E-07 2.89513E-24
 -1       572 4.46902E-05-5.15982E-07 0.00000E+00
 -1       573 4.48334E-05-3.80615E-07 0.00000E+00
 -1       574 4.49772E-05-3.10026E-07 8.27181E-25
 -1       575 4.51212E-05-2.84538E-07 0.00000E+00
 -1       576 4.52653E-05-2.84352E-07 0.00000E+00
 -1       577 4.54095E-05-2.89659E-07 6.61744E-24
 -1       578 4.55536E-05-2.80637E-07 0.00000E+00
 -1       579 4.56978E-05-2.37460E-07 0.00000E+00
 -1       580 4.58419E-05-1.40301E-07 6.61744E-24
 -1       581 4.59861E-05 3.06670E-08 0.00000E+00
 -1       582 4.61302E-05 2.95256E-07 0.00000E+00
 -1       583 4.62742E-05 6.73263E-07 0.00000E+00
 -1       584 4.64180E-05 1.18430E-06 0.00000E+00
 -1       585 4.65615E-05 1.84787E-06 0.00000E+00
 -1       586 4.36345E-05-9.98681E-07 0.00000E+00
 -1       587 4.27446E-05-9.38321E-07 0.00000E+00
 -1       588 4.17889E-05-8.78028E-07 0.00000E+00
 -1       589 4.08162E-05-8.18319E-07-1.03398E-25
 -1       590 3.98756E-05-7.59926E-07 0.00000E+00
 -1       591 4.41805E-05-6.79431E-07 0.00000E+00
 -1       592 4.39687E-05-3.66560E-07 0.00000E+00
 -1       593 4.37757E-05-1.07374E-07 3.30872E-24
 -1       594 4.35980E-05 1.09588E-07 0.00000E+00
 -1       595 4.34316E-05 2.95780E-07-3.30872E-24
 -1       596 4.32723E-05 4.62584E-07-3.30872E-24
 -1       597 4.31160E-05 6.21369E-07 0.00000E+00
 -1       598 4.29584E-05 7.83492E-07 0.00000E+00
 -1       599 4.27953E-05 9.60314E-07 0.00000E+00
 -1       600 4.26225E-05 1.16319E-06 0.00000E+00
 -1       601 4.24356E-05 1.40347E-06 3.30872E-24
 -1       602 4.22306E-05 1.69253E-06 4.13590E-25
 -1       603 4.20032E-05 2.04173E-06-8.27181E-25
 -1       604 4.17497E-05 2.46250E-06 7.23783E-25
 -1       605 4.14664E-05 2.96629E-06 0.00000E+00
 -1       606 4.67543E-05 3.78543E-06 6.61744E-24
 -1       607 4.68008E-05 4.99064E-06 0.00000E+00
 -1       608 4.68463E-05 6.29168E-06 0.00000E+00
 -1       609 4.68911E-05 7.68172E-06 0.00000E+00
 -1       610 4.69356E-05 9.15391E-06 0.00000E+00
 -1       611 4.69800E-05 1.07013E-05 0.00000E+00
 -1       612 4.70242E-05 1.23168E-05 0.00000E+00
 -1       613 4.70684E-05 1.39935E-05 0.00000E+00
 -1       614 4.71124E-05 1.57243E-05 0.00000E+00
 -1       615 4.71563E-05 1.75023E-05 0.00000E+00
 -1       616 4.72002E-05 1.93205E-05 0.00000E+00
 -1       617 4.72440E-05 2.11718E-05 0.00000E+00
 -1       618 4.72877E-05 2.30492E-05 0.00000E+00
 -1       619 4.73314E-05 2.49459E-05 0.00000E+00
 -1       620 4.73749E-05 2.68546E-05 0.00000E+00
 -1       621 4.56669E-05 2.82962E-06 3.30872E-24
 -1       622 4.46605E-05 2.97810E-06 1.65436E-24
 -1       623 4.36956E-05 3.12666E-06 3.30872E-24
 -1       624 4.27826E-05 3.27488E-06 0.00000E+00
 -1       625 4.19322E-05 3.42226E-06-1.65436E-24
 -1       626 4.63750E-05 3.83800E-06 0.00000E+00
 -1       627 4.60040E-05 5.10036E-06 6.61744E-24
 -1       628 4.55961E-05 6.45922E-06 0.00000E+00
 -1       629 4.51560E-05 7.90338E-06 0.00000E+00
 -1       630 4.46879E-05 9.42160E-06 0.00000E+00
 -1       631 4.41961E-05 1.10024E-05 0.00000E+00
 -1       632 4.36851E-05 1.26345E-05 0.00000E+00
 -1       633 4.31590E-05 1.43063E-05 0.00000E+00
 -1       634 4.26223E-05 1.60064E-05-3.30872E-24
 -1       635 4.20792E-05 1.77234E-05 0.00000E+00
 -1       636 4.15341E-05 1.94459E-05 3.30872E-24
 -1       637 4.09911E-05 2.11624E-05 0.00000E+00
 -1       638 4.04545E-05 2.28614E-05 0.00000E+00
 -1       639 3.99284E-05 2.45314E-05-4.13590E-25
 -1       640 3.94166E-05 2.61611E-05 0.00000E+00
 -1       641 4.74194E-05 3.07550E-05 0.00000E+00
 -1       642 4.74188E-05 3.29500E-05 2.06795E-25
 -1       643 4.74180E-05 3.53231E-05 0.00000E+00
 -1       644 4.74166E-05 3.78444E-05 5.16988E-26
 -1       645 4.74148E-05 4.04836E-05 1.03398E-25
 -1       646 4.74128E-05 4.32110E-05 0.00000E+00
 -1       647 4.74106E-05 4.59966E-05 0.00000E+00
 -1       648 4.74083E-05 4.88106E-05-1.29247E-26
 -1       649 4.74061E-05 5.16232E-05-1.29247E-26
 -1       650 4.74038E-05 5.44046E-05 0.00000E+00
 -1       651 4.74017E-05 5.71250E-05 1.03398E-25
 -1       652 4.73996E-05 5.97545E-05-1.03398E-25
 -1       653 4.73977E-05 6.22632E-05 4.13590E-25
 -1       654 4.73951E-05 6.46210E-05 0.00000E+00
 -1       655 4.73933E-05 6.67978E-05 1.65436E-24
 -1       656 4.56952E-05 2.86023E-05 0.00000E+00
 -1       657 4.42029E-05 2.84278E-05 1.65436E-24
 -1       658 4.28603E-05 2.82538E-05 0.00000E+00
 -1       659 4.15865E-05 2.80798E-05 0.00000E+00
 -1       660 4.03003E-05 2.79054E-05 0.00000E+00
 -1       661 4.68630E-05 3.08133E-05 3.30872E-24
 -1       662 4.62536E-05 3.30230E-05 0.00000E+00
 -1       663 4.55917E-05 3.53709E-05-6.61744E-24
 -1       664 4.48876E-05 3.78337E-05 0.00000E+00
 -1       665 4.41492E-05 4.03873E-05 0.00000E+00
 -1       666 4.33857E-05 4.30084E-05 3.30872E-24
 -1       667 4.26055E-05 4.56735E-05 6.61744E-24
 -1       668 4.18175E-05 4.83594E-05-3.30872E-24
 -1       669 4.10304E-05 5.10429E-05-6.61744E-24
 -1       670 4.02529E-05 5.37007E-05-3.30872E-24
 -1       671 3.94939E-05 5.63095E-05-6.61744E-24
 -1       672 3.87619E-05 5.88460E-05 0.00000E+00
 -1       673 3.80659E-05 6.12866E-05 0.00000E+00
 -1       674 3.74135E-05 6.36072E-05 0.00000E+00
 -1       675 3.68154E-05 6.57845E-05 0.00000E+00
 -1       676 4.55274E-05 6.86007E-05 3.30872E-24
 -1       677 4.36700E-05 6.84373E-05 1.65436E-24
 -1       678 4.18148E-05 6.82741E-05-3.30872E-24
 -1       679 3.99625E-05 6.81114E-05 1.65436E-24
 -1       680 3.81140E-05 6.79486E-05-3.30872E-24
 -1       681 1.33953E-05 7.97907E-07 0.00000E+00
 -1       682 1.36191E-05 4.95494E-07 0.00000E+00
 -1       683 1.38410E-05-1.47294E-06 0.00000E+00
 -1       684 1.40614E-05-4.51392E-06 0.00000E+00
 -1       685 1.42795E-05-8.28212E-06 6.61744E-24
 -1       686 1.44964E-05-1.24394E-05 0.00000E+00
 -1       687 1.47127E-05-1.67377E-05 0.00000E+00
 -1       688 1.49295E-05-2.09304E-05 0.00000E+00
 -1       689 1.51477E-05-2.47464E-05-6.61744E-24
 -1       690 1.53680E-05-2.79109E-05 3.30872E-24
 -1       691 1.55908E-05-2.99979E-05 6.61744E-24
 -1       692 1.58152E-05-3.05712E-05 3.30872E-24
 -1       693 1.60379E-05-2.88438E-05 6.61744E-24
 -1       694 1.62486E-05-2.40064E-05 0.00000E+00
 -1       695 1.64269E-05-1.45329E-05 3.30872E-24
 -1       696 1.02584E-05-9.86680E-07 0.00000E+00
 -1       697 7.75569E-06-7.91620E-07 0.00000E+00
 -1       698 5.56488E-06-5.96140E-07 6.61744E-24
 -1       699 3.58258E-06-3.98679E-07 0.00000E+00
 -1       700 1.74762E-06-2.01110E-07 0.00000E+00
 -1       701 1.04266E-05 5.41831E-06 3.30872E-24
 -1       702 4.94804E-06 1.90329E-05-3.30872E-24
 -1       703-2.45973E-06 3.75660E-05-6.61744E-24
 -1       704-1.09692E-05 5.88667E-05 3.30872E-24
 -1       705-1.94648E-05 8.01318E-05-6.61744E-24
 -1       706-2.68331E-05 9.85577E-05 0.00000E+00
 -1       707-3.22528E-05 1.12015E-04 0.00000E+00
 -1       708-3.49479E-05 1.18415E-04 0.00000E+00
 -1       709-3.48197E-05 1.17345E-04 0.00000E+00
 -1       710-3.18048E-05 1.08466E-04 0.00000E+00
 -1       711-2.65136E-05 9.33052E-05 0.00000E+00
 -1       712-1.95561E-05 7.34653E-05 0.00000E+00
 -1       713-1.19115E-05 5.16808E-05-6.61744E-24
 -1       714-4.55155E-06 3.07123E-05 3.30872E-24
 -1       715 1.60933E-06 1.31217E-05 0.00000E+00
 -1       716 1.65172E-05 1.69932E-05 0.00000E+00
 -1       717 1.65976E-05 2.69308E-05 1.65436E-24
 -1       718 1.67127E-05 3.22049E-05 0.00000E+00
 -1       719 1.68410E-05 3.40334E-05 0.00000E+00
 -1       720 1.69710E-05 3.31870E-05 3.30872E-24
 -1       721 1.70979E-05 3.04215E-05 0.00000E+00
 -1       722 1.72202E-05 2.62425E-05 3.30872E-24
 -1       723 1.73385E-05 2.11474E-05 0.00000E+00
 -1       724 1.74541E-05 1.55142E-05-3.30872E-24
 -1       725 1.75685E-05 9.71788E-06 0.00000E+00
 -1       726 1.76838E-05 4.11188E-06-3.30872E-24
 -1       727 1.78007E-05-9.49110E-07-1.65436E-24
 -1       728 1.79217E-05-5.03944E-06-1.65436E-24
 -1       729 1.80416E-05-7.72802E-06-8.27181E-25
 -1       730 1.81664E-05-8.40317E-06-6.61744E-24
 -1       731 1.29666E-06 1.10878E-06 2.06795E-25
 -1       732-6.77465E-06 1.15603E-06 8.27181E-25
 -1       733-9.11430E-06 1.23300E-06-1.65436E-24
 -1       734-7.12043E-06 1.31176E-06-8.27181E-25
 -1       735-1.84683E-06 1.37984E-06 0.00000E+00
 -1       736 8.34666E-06 2.10685E-05 0.00000E+00
 -1       737-7.64889E-07 4.33072E-05 6.61744E-24
 -1       738-8.39111E-06 6.18009E-05 1.32349E-23
 -1       739-1.22086E-05 7.05273E-05 0.00000E+00
 -1       740-1.15763E-05 6.74789E-05 0.00000E+00
 -1       741-5.99596E-06 5.08522E-05 0.00000E+00
 -1       742 3.03689E-06 2.44371E-05 1.32349E-23
 -1       743 1.40541E-05-7.75600E-06 6.61744E-24
 -1       744 2.48409E-05-3.92750E-05 0.00000E+00
 -1       745 3.31752E-05-6.36842E-05 0.00000E+00
 -1       746 3.77637E-05-7.75453E-05 0.00000E+00
 -1       747 3.72972E-05-7.76528E-05 6.61744E-24
 -1       748 3.25264E-05-6.64552E-05 0.00000E+00
 -1       749 2.43576E-05-4.65904E-05 0.00000E+00
 -1       750 1.52096E-05-2.42629E-05-6.61744E-24
 -1       751 1.94768E-05-3.85735E-06 1.32349E-23
 -1       752 2.07736E-05-2.64519E-06 1.32349E-23
 -1       753 2.20663E-05-2.20480E-06 0.00000E+00
 -1       754 2.33738E-05-1.98211E-06 0.00000E+00
 -1       755 2.46817E-05-1.88192E-06 5.29396E-23
 -1       756 2.59926E-05-1.81605E-06 2.64698E-23
 -1       757 2.73038E-05-1.76943E-06 5.29396E-23
 -1       758 2.86155E-05-1.72808E-06-2.64698E-23
 -1       759 2.99273E-05-1.68928E-06-5.29396E-23
 -1       760 3.12387E-05-1.65045E-06 0.00000E+00
 -1       761 3.25500E-05-1.60892E-06-5.29396E-23
 -1       762 3.38591E-05-1.56188E-06 0.00000E+00
 -1       763 3.51680E-05-1.49479E-06 2.64698E-23
 -1       764 3.64664E-05-1.39194E-06 0.00000E+00
 -1       765 3.77683E-05-1.16203E-06-2.64698E-23
 -1       766 1.69249E-05-6.32722E-06-6.61744E-24
 -1       767 1.93621E-05-6.18527E-06 0.00000E+00
 -1       768 2.26674E-05-6.04734E-06 0.00000E+00
 -1       769 2.39442E-05-5.90091E-06-8.27181E-25
 -1       770 1.99918E-05-5.76340E-06-2.06795E-25
 -1       771 1.63018E-05-3.83270E-06 2.64698E-23
 -1       772 1.45190E-05-1.72267E-06 2.64698E-23
 -1       773 1.29056E-05-6.83333E-08 0.00000E+00
 -1       774 1.14464E-05 1.17355E-06 1.32349E-23
 -1       775 1.01258E-05 2.04647E-06 0.00000E+00
 -1       776 8.92721E-06 2.59436E-06 1.32349E-23
 -1       777 7.83415E-06 2.86137E-06 2.64698E-23
 -1       778 6.82992E-06 2.89188E-06 0.00000E+00
 -1       779 5.89775E-06 2.73046E-06-2.64698E-23
 -1       780 5.02086E-06 2.42185E-06 1.32349E-23
 -1       781 4.18245E-06 2.01090E-06 2.64698E-23
 -1       782 3.36581E-06 1.54258E-06-1.32349E-23
 -1       783 2.55422E-06 1.06192E-06-2.64698E-23
 -1       784 1.73176E-06 6.14119E-07-1.32349E-23
 -1       785 8.82614E-07 2.44393E-07-2.64698E-23
 -1       786 3.91405E-05-1.98333E-07 8.27181E-25
 -1       787 3.92738E-05 1.96422E-07 0.00000E+00
 -1       788 3.94070E-05 4.95482E-07 0.00000E+00
 -1       789 3.95414E-05 7.16333E-07-1.65436E-24
 -1       790 3.96761E-05 8.76362E-07 3.30872E-24
 -1       791 3.98109E-05 9.92889E-07 0.00000E+00
 -1       792 3.99458E-05 1.08318E-06 0.00000E+00
 -1       793 4.00808E-05 1.16448E-06 1.65436E-24
 -1       794 4.02157E-05 1.25402E-06 0.00000E+00
 -1       795 4.03507E-05 1.36903E-06 1.65436E-24
 -1       796 4.04856E-05 1.52678E-06-3.30872E-24
 -1       797 4.06204E-05 1.74459E-06 0.00000E+00
 -1       798 4.07552E-05 2.03984E-06-3.30872E-24
 -1       799 4.08893E-05 2.43001E-06-1.65436E-24
 -1       800 4.10235E-05 2.93269E-06 0.00000E+00
 -1       801 3.55473E-05-5.72552E-07-6.61744E-24
 -1       802 2.83357E-05-4.47884E-07 0.00000E+00
 -1       803 1.92770E-05-3.36572E-07 8.27181E-25
 -1       804 1.02695E-05-2.28382E-07 0.00000E+00
 -1       805 3.21142E-06-1.06594E-07-1.32349E-23
 -1       806 3.86638E-05-2.53503E-07 0.00000E+00
 -1       807 3.83251E-05 1.50564E-07 0.00000E+00
 -1       808 3.79997E-05 5.15432E-07 6.61744E-24
 -1       809 3.76850E-05 8.49914E-07-3.30872E-24
 -1       810 3.73782E-05 1.16277E-06 0.00000E+00
 -1       811 3.70762E-05 1.46271E-06 3.30872E-24
 -1       812 3.67757E-05 1.75840E-06 6.61744E-24
 -1       813 3.64735E-05 2.05852E-06-1.65436E-24
 -1       814 3.61664E-05 2.37175E-06-6.61744E-24
 -1       815 3.58511E-05 2.70676E-06 0.00000E+00
 -1       816 3.55244E-05 3.07221E-06-3.30872E-24
 -1       817 3.51832E-05 3.47678E-06-1.65436E-24
 -1       818 3.48241E-05 3.92914E-06 3.30872E-24
 -1       819 3.44444E-05 4.43799E-06 1.65436E-24
 -1       820 3.40414E-05 5.01203E-06 0.00000E+00
 -1       821 4.10235E-05 4.37461E-06 8.27181E-25
 -1       822 4.08846E-05 5.36750E-06 1.65436E-24
 -1       823 4.07457E-05 6.52544E-06 0.00000E+00
 -1       824 4.06053E-05 7.82929E-06-1.65436E-24
 -1       825 4.04646E-05 9.25980E-06 0.00000E+00
 -1       826 4.03236E-05 1.07975E-05-1.65436E-24
 -1       827 4.01823E-05 1.24229E-05-3.30872E-24
 -1       828 4.00409E-05 1.41164E-05-1.65436E-24
 -1       829 3.98994E-05 1.58581E-05 3.30872E-24
 -1       830 3.97579E-05 1.76284E-05 1.65436E-24
 -1       831 3.96164E-05 1.94073E-05-3.30872E-24
 -1       832 3.94751E-05 2.11750E-05 0.00000E+00
 -1       833 3.93340E-05 2.29118E-05-3.30872E-24
 -1       834 3.91940E-05 2.45978E-05 1.65436E-24
 -1       835 3.90540E-05 2.62132E-05-1.65436E-24
 -1       836 4.01946E-05 3.90832E-06 0.00000E+00
 -1       837 3.89037E-05 4.26307E-06 0.00000E+00
 -1       838 3.74410E-05 4.61697E-06 0.00000E+00
 -1       839 3.59658E-05 4.97004E-06-3.30872E-24
 -1       840 3.46374E-05 5.32387E-06 0.00000E+00
 -1       841 4.08391E-05 4.36618E-06 0.00000E+00
 -1       842 4.04478E-05 5.36135E-06 6.46235E-27
 -1       843 3.99901E-05 6.53335E-06 0.00000E+00
 -1       844 3.94726E-05 7.86300E-06 0.00000E+00
 -1       845 3.89037E-05 9.32886E-06-4.13590E-25
 -1       846 3.82917E-05 1.09092E-05 2.06795E-25
 -1       847 3.76454E-05 1.25802E-05-4.13590E-25
 -1       848 3.69739E-05 1.43183E-05 0.00000E+00
 -1       849 3.62864E-05 1.60984E-05 4.13590E-25
 -1       850 3.55926E-05 1.78957E-05 0.00000E+00
 -1       851 3.49017E-05 1.96848E-05 4.13590E-25
 -1       852 3.42234E-05 2.14406E-05-2.06795E-25
 -1       853 3.35669E-05 2.31382E-05-8.27181E-25
 -1       854 3.29411E-05 2.47531E-05 0.00000E+00
 -1       855 3.23553E-05 2.62622E-05 1.65436E-24
 -1       856 3.87645E-05 2.93775E-05 0.00000E+00
 -1       857 3.86003E-05 3.13139E-05 0.00000E+00
 -1       858 3.84357E-05 3.35098E-05-3.30872E-24
 -1       859 3.82694E-05 3.59264E-05-1.65436E-24
 -1       860 3.81026E-05 3.85246E-05 3.30872E-24
 -1       861 3.79352E-05 4.12652E-05 0.00000E+00
 -1       862 3.77674E-05 4.41087E-05 0.00000E+00
 -1       863 3.75995E-05 4.70155E-05 3.30872E-24
 -1       864 3.74315E-05 4.99459E-05 0.00000E+00
 -1       865 3.72635E-05 5.28601E-05 0.00000E+00
 -1       866 3.70957E-05 5.57185E-05 0.00000E+00
 -1       867 3.69283E-05 5.84813E-05-3.30872E-24
 -1       868 3.67614E-05 6.11091E-05 0.00000E+00
 -1       869 3.65956E-05 6.35625E-05-1.65436E-24
 -1       870 3.64302E-05 6.58025E-05 0.00000E+00
 -1       871 3.76155E-05 2.77246E-05 0.00000E+00
 -1       872 3.64057E-05 2.77093E-05 0.00000E+00
 -1       873 3.52564E-05 2.76938E-05 0.00000E+00
 -1       874 3.41319E-05 2.76777E-05-4.13590E-25
 -1       875 3.29966E-05 2.76610E-05 1.65436E-24
 -1       876 3.85291E-05 2.94342E-05 0.00000E+00
 -1       877 3.80501E-05 3.13890E-05-3.30872E-24
 -1       878 3.74871E-05 3.35659E-05 0.00000E+00
 -1       879 3.68542E-05 3.59320E-05-3.30872E-24
 -1       880 3.61625E-05 3.84540E-05-6.61744E-24
 -1       881 3.54246E-05 4.10994E-05 0.00000E+00
 -1       882 3.46522E-05 4.38359E-05 6.61744E-24
 -1       883 3.38577E-05 4.66313E-05-3.30872E-24
 -1       884 3.30529E-05 4.94537E-05 0.00000E+00
 -1       885 3.22499E-05 5.22712E-05-3.30872E-24
 -1       886 3.14608E-05 5.50519E-05 0.00000E+00
 -1       887 3.06974E-05 5.77637E-05-3.30872E-24
 -1       888 2.99720E-05 6.03745E-05 0.00000E+00
 -1       889 2.92953E-05 6.28514E-05 0.00000E+00
 -1       890 2.86815E-05 6.51625E-05 0.00000E+00
 -1       891 3.46721E-05 6.77040E-05 3.30872E-24
 -1       892 3.33877E-05 6.76168E-05 0.00000E+00
 -1       893 3.22541E-05 6.75298E-05 0.00000E+00
 -1       894 3.11087E-05 6.74430E-05-8.27181E-25
 -1       895 2.97888E-05 6.73559E-05 1.65436E-24
 -1       896 3.53234E-07 1.68906E-06 0.00000E+00
 -1       897 7.09803E-07 3.34594E-06 6.61744E-24
 -1       898 1.06621E-06 4.97368E-06 0.00000E+00
 -1       899 1.42329E-06 6.57484E-06 0.00000E+00
 -1       900 1.78043E-06 8.14171E-06-1.32349E-23
 -1       901 2.13775E-06 9.66609E-06-6.61744E-24
 -1       902 2.49519E-06 1.11233E-05 0.00000E+00
 -1       903 2.85275E-06 1.24877E-05 6.61744E-24
 -1       904 3.21049E-06 1.36976E-05-1.32349E-23
 -1       905 3.56838E-06 1.46891E-05 0.00000E+00
 -1       906 3.92649E-06 1.53139E-05 0.00000E+00
 -1       907 4.28437E-06 1.54179E-05 0.00000E+00
 -1       908 4.64184E-06 1.46459E-05 1.32349E-23
 -1       909 4.99556E-06 1.26290E-05-3.30872E-24
 -1       910 5.34350E-06 8.51895E-06-6.61744E-24
 -1       911 5.76996E-06-6.64555E-06 3.30872E-24
 -1       912 5.88534E-06-1.36851E-05 0.00000E+00
 -1       913 6.00618E-06-1.98438E-05-3.30872E-24
 -1       914 6.13148E-06-2.52759E-05 1.65436E-24
 -1       915 6.26009E-06-3.00342E-05 0.00000E+00
 -1       916 6.39146E-06-3.41675E-05 1.65436E-24
 -1       917 6.52524E-06-3.76372E-05-3.30872E-24
 -1       918 6.66114E-06-4.04010E-05-1.65436E-24
 -1       919 6.79890E-06-4.23175E-05 0.00000E+00
 -1       920 6.93795E-06-4.32405E-05-1.65436E-24
 -1       921 7.07722E-06-4.28850E-05-3.30872E-24
 -1       922 7.21443E-06-4.09582E-05 0.00000E+00
 -1       923 7.34541E-06-3.69481E-05-3.30872E-24
 -1       924 7.46125E-06-3.03301E-05 0.00000E+00
 -1       925 7.54910E-06-2.02173E-05 4.13590E-25
 -1       926 7.12565E-06 1.42463E-05 0.00000E+00
 -1       927 6.53142E-06 4.04599E-05 3.30872E-24
 -1       928 5.86343E-06 6.95305E-05 6.61744E-24
 -1       929 5.21047E-06 9.80182E-05 0.00000E+00
 -1       930 4.65404E-06 1.22620E-04 0.00000E+00
 -1       931 4.24199E-06 1.40077E-04 0.00000E+00
 -1       932 3.93708E-06 1.48800E-04 0.00000E+00
 -1       933 3.66759E-06 1.47298E-04 0.00000E+00
 -1       934 3.34440E-06 1.36455E-04 6.61744E-24
 -1       935 2.90033E-06 1.17259E-04 0.00000E+00
 -1       936 2.34540E-06 9.26482E-05 6.61744E-24
 -1       937 1.72983E-06 6.56196E-05 0.00000E+00
 -1       938 1.14256E-06 3.97381E-05 0.00000E+00
 -1       939 6.59079E-07 1.85564E-05 0.00000E+00
 -1       940 2.94214E-07 4.52145E-06 0.00000E+00
 -1       941 1.99263E-06 2.81703E-07 2.64698E-23
 -1       942 4.09499E-06 5.90707E-07 2.64698E-23
 -1       943 6.19045E-06 9.13614E-07 0.00000E+00
 -1       944 8.30677E-06 1.23840E-06 2.64698E-23
 -1       945 1.04237E-05 1.56413E-06 5.29396E-23
 -1       946 1.25448E-05 1.88999E-06-2.64698E-23
 -1       947 1.46664E-05 2.21592E-06-5.29396E-23
 -1       948 1.67888E-05 2.54186E-06 0.00000E+00
 -1       949 1.89111E-05 2.86784E-06 0.00000E+00
 -1       950 2.10330E-05 3.19389E-06-2.64698E-23
 -1       951 2.31544E-05 3.52043E-06-5.29396E-23
 -1       952 2.52726E-05 3.84796E-06 0.00000E+00
 -1       953 2.73902E-05 4.18288E-06 0.00000E+00
 -1       954 2.94910E-05 4.53230E-06 0.00000E+00
 -1       955 3.15974E-05 4.99005E-06 0.00000E+00
 -1       956 3.35051E-05 6.54895E-06-1.65436E-24
 -1       957 3.33933E-05 7.56339E-06 1.03398E-24
 -1       958 3.32811E-05 8.69130E-06-2.48154E-24
 -1       959 3.31685E-05 9.91950E-06-4.13590E-25
 -1       960 3.30558E-05 1.12348E-05 3.30872E-24
 -1       961 3.29429E-05 1.26239E-05 1.65436E-24
 -1       962 3.28299E-05 1.40735E-05-1.65436E-24
 -1       963 3.27169E-05 1.55702E-05 0.00000E+00
 -1       964 3.26038E-05 1.71007E-05 3.30872E-24
 -1       965 3.24907E-05 1.86517E-05 0.00000E+00
 -1       966 3.23776E-05 2.02098E-05 0.00000E+00
 -1       967 3.22646E-05 2.17617E-05 0.00000E+00
 -1       968 3.21516E-05 2.32940E-05 0.00000E+00
 -1       969 3.20388E-05 2.47935E-05 4.96308E-24
 -1       970 3.19264E-05 2.62469E-05 3.30872E-24
 -1       971 3.15931E-05 2.91401E-05 0.00000E+00
 -1       972 3.13640E-05 3.09533E-05 0.00000E+00
 -1       973 3.11344E-05 3.30429E-05 0.00000E+00
 -1       974 3.09034E-05 3.53700E-05-3.30872E-24
 -1       975 3.06718E-05 3.78953E-05 0.00000E+00
 -1       976 3.04397E-05 4.05790E-05-3.30872E-24
 -1       977 3.02071E-05 4.33811E-05 6.61744E-24
 -1       978 2.99744E-05 4.62614E-05 0.00000E+00
 -1       979 2.97415E-05 4.91794E-05 0.00000E+00
 -1       980 2.95087E-05 5.20946E-05 3.30872E-24
 -1       981 2.92761E-05 5.49665E-05 6.61744E-24
 -1       982 2.90439E-05 5.77548E-05 3.30872E-24
 -1       983 2.88123E-05 6.04192E-05 0.00000E+00
 -1       984 2.85823E-05 6.29196E-05 0.00000E+00
 -1       985 2.83526E-05 6.52165E-05-3.30872E-24
 -3
    1PSTEP                        36          18           1          
  100CL  118 8.53171E-01         841                     0   18           1
 -4  STRESS      6    1
 -5  SXX         1    4    1    1
 -5  SYY         1    4    2    2
 -5  SZZ         1    4    3    3
 -5  SXY         1    4    1    2
 -5  SYZ         1    4    2    3
 -5  SZX         1    4    3    1
 -1         1-3.34704E+06-1.09572E+06-6.85534E+05-1.02772E+06-6.30583E-11-6.50956E-09
 -1         2-1.82703E+06 3.38694E+03 2.66666E+04-6.76441E+04-4.87717E-09 1.45269E-09
 -1         3-1.13498E+06-3.86729E+05-2.94480E+04-6.91899E+04 2.55159E-09-1.18416E-09
 -1         4-7.98796E+05-1.03584E+05 4.50270E+03-4.02355E+04-1.56069E-09 7.45558E-10
 -1         5-5.29801E+05 1.14172E+05-2.05640E+05-1.63988E+04 1.08630E-08 3.19460E-09
 -1         8-1.54692E+06-6.04968E+05-1.91065E+05-6.25026E+05 4.58385E-10 3.39787E-09
 -1         9-1.80314E+06-4.12284E+05-1.98389E+05-4.25461E+05-2.84975E-10-1.57161E-09
 -1        10-6.66495E+05-3.86867E+05 4.02908E+04-9.71477E+04-3.08135E-09 2.34665E-09
 -1        11-3.58616E+05-3.59107E+04 1.30044E+04 9.69344E+03 4.05698E-08-1.33059E-09
 -1        12-3.33893E+05 1.50603E+05-1.59414E+05-6.29341E+04 1.89634E-08 2.49074E-09
 -1        15 3.30471E+04 8.81629E+04 2.07858E+04-1.62784E+04 3.38332E-10-5.07862E-09
 -1        16-1.34980E+06-2.79748E+05-4.96100E+03-5.08556E+05 1.97360E-09-1.21539E-09
 -1        17-7.46832E+05-4.72530E+05-8.78599E+04-3.67645E+05 1.18537E-09 3.71559E-09
 -1        18-2.24260E+05-8.45529E+04-8.76510E+04-1.09254E+05-1.80080E-10-6.22094E-10
 -1        19 5.11294E+04 1.28943E+05-3.71241E+04-3.22181E+04-5.38618E-09-1.15809E-10
 -1        20 1.20528E+05-8.92010E+04-1.46760E+04 6.41366E+04 8.76662E-09-4.99040E-09
 -1        21 1.91584E+03-1.79747E+05 4.54979E+04 5.44046E+02 1.16265E-08 1.02605E-09
 -1        22 4.02083E+04 1.94193E+05 3.71687E+03-1.98905E+04-8.36735E-11-2.08274E-09
 -1        23-2.17497E+05 1.01182E+05 1.63210E+04-4.96739E+04-6.51213E-09-2.17248E-09
 -1        24-2.61612E+05 3.18127E+03 2.94559E+05-5.15722E+05-1.08679E-08 2.27495E-09
 -1        25 6.34907E+05 2.29429E+05 2.00394E+05-3.31496E+05 8.32188E-10-2.02514E-10
 -1        26 2.26170E+03 2.01864E+05 1.05193E+04-3.71841E+04 1.69272E-09-1.00620E-09
 -1        27-4.61763E+04-7.60724E+04-3.28815E+04 8.73846E+04 6.95066E-09-1.88993E-09
 -1        28-1.53008E+04-1.40790E+05-8.37664E+02 6.76508E+04 7.79642E-09-1.27468E-09
 -1        29 4.88303E+05 3.10874E+05 1.22648E+03 8.70608E+02 2.94058E-11-3.25781E-09
 -1        30 2.19797E+05 4.23447E+04 3.88224E+03-2.76705E+04-1.37583E-09 1.70608E-08
 -1        31-3.33119E+05 8.81831E+04 1.13223E+04-1.73393E+04-1.21153E-08-1.67211E-08
 -1        32 1.04533E+06 5.62185E+05 6.62539E+05-5.32178E+05 1.72365E-08 2.40107E-09
 -1        33 1.47855E+06 6.28828E+05 4.62796E+05-5.68746E+04-1.85085E-08 1.08230E-10
 -1        34-2.42793E+05-3.37477E+04-9.64469E+03 4.67284E+04 1.08439E-09 1.94632E-10
 -1        35-3.94889E+04-4.65125E+04-8.81566E+02 1.00633E+05 1.65373E-08 1.80686E-10
 -1        36-4.05322E+06 1.17090E+05-2.71592E+05-4.77214E-08-2.23972E-09 2.28465E-09
 -1        37-4.17066E+06-1.35562E+05-1.92057E+05-1.43175E-07 9.68416E-10 6.74117E-09
 -1        38-4.09853E+06 1.82597E+04-7.02321E+04-4.28301E-07-3.60982E-09 5.68252E-09
 -1        39-4.11762E+06-2.11347E+04-4.40930E+04-1.86574E-08-4.07003E-09 7.13044E-10
 -1        40-4.10593E+06 2.84205E+03-1.80300E+04-4.18803E-07-1.11994E-09 7.42148E-10
 -1        41-4.10890E+06-3.33022E+03-1.07520E+04-6.22832E-07 1.12591E-09-4.89126E-09
 -1        42-4.10714E+06 4.83756E+02-5.27283E+03 6.67099E-08 2.00604E-09-1.58843E-09
 -1        43-4.10760E+06-8.57132E+02-4.20015E+03-3.00659E-08 1.75404E-09 4.74287E-09
 -1        44-4.10721E+06 3.72567E+02-4.26301E+03 1.21399E-07-3.41732E-09 5.78336E-09
 -1        45-4.10838E+06-2.36993E+03-7.83040E+03-2.85252E-08-2.50148E-09 7.32734E-09
 -1        46-4.10638E+06 1.99425E+03-1.27620E+04 4.22276E-08-3.39263E-09 2.01180E-09
 -1        47-4.11446E+06-1.47980E+04-3.09354E+04-7.18928E-08 1.61843E-09-4.82260E-09
 -1        48-4.10120E+06 1.27805E+04-4.91950E+04-6.72188E-09-1.03922E-09-3.12502E-09
 -1        49-4.15157E+06-9.48818E+04-1.34443E+05-3.87300E-07-7.17348E-10 2.20462E-09
 -1        50-4.06952E+06 8.19451E+04-1.90163E+05 8.10376E-08-5.60051E-09 7.27596E-10
 -1        51 3.83273E+04-4.50352E+05 6.21452E+04-1.22269E+06-2.32831E-10-1.05065E-08
 -1        52 1.89077E+04-4.47234E+05 3.78595E+04-1.34842E+06 2.03727E-10-2.06346E-08
 -1        53 1.33234E+04-4.62065E+05 3.00929E+04-1.21936E+06-6.54836E-11-1.07393E-08
 -1        54 2.95667E+04-4.59371E+05 4.55337E+04-1.35186E+06-9.89530E-10-3.30328E-09
 -1        55 6.30914E+04-4.74625E+05 8.19964E+04-1.21866E+06-1.00408E-09 3.22689E-09
 -1        56-5.54329E+06-6.23378E+05-4.58150E+05-2.14295E+06-8.58563E-10 4.45289E-09
 -1        57-5.74605E+06-1.01033E+06-3.07594E+05-2.10372E+06 5.05497E-09-6.23186E-09
 -1        58-5.63312E+06-7.67528E+05-1.07760E+05-2.11680E+06-7.56700E-10-4.16912E-09
 -1        59-5.64289E+06-8.39643E+05-6.38944E+04-2.13392E+06-1.65892E-09 3.65799E-09
 -1        60-5.64492E+06-7.88321E+05-2.51490E+04-2.11459E+06 1.19917E-09-6.76664E-10
 -1        61-5.63155E+06-8.12798E+05-1.42200E+04-2.13363E+06-1.88811E-09-6.05905E-09
 -1        62-5.64410E+06-7.93667E+05-6.94590E+03-2.11724E+06 1.47588E-09-6.91489E-09
 -1        63-5.63598E+06-8.03647E+05-5.79460E+03-2.12669E+06 1.25510E-09 5.54735E-10
 -1        64-5.64038E+06-7.97427E+05-6.80061E+03-2.12151E+06 1.13710E-09 7.17682E-09
 -1        65-5.64534E+06-7.98705E+05-1.37583E+04-2.11763E+06 3.30101E-09 2.54545E-09
 -1        66-5.63478E+06-7.98690E+05-2.43067E+04-2.12628E+06 8.43556E-10 2.58024E-09
 -1        67-5.66646E+06-8.14436E+05-6.16646E+04-2.10630E+06-1.49157E-09 4.94583E-09
 -1        68-5.61962E+06-7.82376E+05-1.04014E+05-2.13270E+06-2.54113E-09 4.62023E-09
 -1        69-5.77005E+06-9.75225E+05-2.96863E+05-2.07274E+06-1.76260E-09 2.03363E-09
 -1        70-5.53274E+06-6.43404E+05-4.42189E+05-2.15810E+06-2.12458E-09 5.06407E-09
 -1        71-2.42726E+06 1.80754E+04-4.20042E+04-2.44145E-07-1.51450E-09 3.53248E-09
 -1        72-2.44523E+06-2.09321E+04-2.96869E+04-3.75945E-08-2.36327E-09-5.48835E-09
 -1        73-2.43426E+06 2.81970E+03-1.08796E+04-1.14772E-07 6.11565E-10-2.34832E-09
 -1        74-2.43705E+06-3.26621E+03-6.85396E+03 4.50722E-08-8.05449E-10 7.10634E-09
 -1        75-2.43540E+06 4.41223E+02-2.85747E+03-3.20017E-07-2.00618E-09 3.04715E-09
 -1        76-2.43571E+06-5.32410E+02-1.80670E+03-2.86452E-08-1.45815E-09 4.85352E-09
 -1        77-2.43558E+06 9.04839E+01-1.08390E+03 9.84821E-08 2.97833E-10 1.39514E-09
 -1        78-2.43558E+06-2.51787E+02-1.23794E+03-2.07297E-10 9.35676E-10 1.84251E-09
 -1        79-2.43554E+06 1.61064E+02-1.72682E+03 1.22507E-07 1.39813E-09 4.74881E-09
 -1        80-2.43604E+06-1.14200E+03-3.66555E+03 2.54206E-07-5.78140E-10-1.57627E-10
 -1        81-2.43512E+06 9.79383E+02-6.20936E+03 2.49529E-07-1.14258E-09-7.99446E-10
 -1        82-2.43905E+06-7.28836E+03-1.52188E+04-3.38058E-07-1.33899E-09-2.00089E-10
 -1        83-2.43255E+06 6.29728E+03-2.42568E+04-1.07486E-07-5.09556E-10 4.01906E-09
 -1        84-2.45733E+06-4.67528E+04-6.62862E+04 1.71662E-07 6.67671E-10 5.65888E-09
 -1        85-2.41691E+06 4.03749E+04-9.37909E+04-8.72153E-08-1.64288E-09 2.21553E-09
 -1        86-9.18553E+04 3.70574E+05 2.17162E+05 5.01490E+03 4.36557E-11 2.77453E-10
 -1        87 1.15871E+05 4.70557E+05 1.70763E+05-2.25565E+04-8.36735E-11 5.06418E-10
 -1        88-2.37453E+04 4.02997E+05 9.06257E+04 2.86861E+03-1.19962E-09 8.05144E-10
 -1        89 8.84083E+04 4.56653E+05 1.34725E+05-2.07688E+04 5.10227E-10-5.10420E-09
 -1        90-6.44091E+04 3.84390E+05 1.55688E+05 3.22780E+03-1.55705E-09-6.08352E-09
 -1        91-1.69224E+06-3.62003E+05-3.69721E+04-7.42635E+05 1.14615E-08-7.92170E-10
 -1        92-1.54338E+06 7.77419E+04 6.70586E+04-2.43368E+05 1.84392E-08-3.64480E-10
 -1        93-1.46247E+06-3.27592E+05-6.52002E+02-7.22394E+05 2.12549E-08 1.23129E-09
 -1        94-1.28813E+06 1.24856E+04 9.64846E+04-2.56382E+05-1.96974E-09-7.48514E-09
 -1        95-1.93740E+06-3.07067E+05-9.18748E+04-7.20522E+05-1.02709E-08 2.09184E-10
 -1        96-9.60607E+05-2.06504E+05 1.15793E+05-4.98531E+05-4.22733E-09-1.36311E-09
 -1        97-1.78438E+06-1.14117E+05-2.58050E+04-4.76678E+05 1.31677E-08-4.89763E-10
 -1        98-1.14617E+06-3.89419E+05 4.40160E+04-7.65156E+05-8.02657E-08 7.79892E-09
 -1        99-1.76882E+06-1.07047E+05-2.20225E+04-4.67505E+05-1.37826E-07-1.08134E-08
 -1       100-9.66668E+05-2.18857E+05 1.10692E+05-5.14448E+05-6.79538E-08-7.30256E-09
 -1       101-1.94764E+06-3.01071E+05-9.60448E+04-7.14411E+05-1.42882E-08-5.54064E-09
 -1       102-1.26548E+06 2.97526E+03 9.18299E+04-2.58859E+05 2.57617E-08-1.39244E-09
 -1       103-1.47398E+06-3.24988E+05-1.73908E+04-7.25255E+05 2.92237E-08 8.36553E-09
 -1       104-1.56923E+06 4.96124E+04 2.45556E+04-2.37811E+05-5.87033E-09 1.67302E-08
 -1       105-1.65530E+06-3.36129E+05-9.14452E+04-7.45684E+05 2.67937E-08 1.80589E-08
 -1       106-1.73694E+06 1.39775E+04-3.24898E+04 2.60086E-08 1.64707E-09-1.59707E-09
 -1       107-1.75085E+06-1.61868E+04-2.29634E+04 6.83549E-08-4.96813E-11-3.35103E-09
 -1       108-1.74235E+06 2.18047E+03-8.41838E+03 1.82421E-07 3.62144E-10-2.50429E-09
 -1       109-1.74453E+06-2.52579E+03-5.30350E+03 1.19926E-07 3.39736E-10-2.60951E-09
 -1       110-1.74324E+06 3.41204E+02-2.21176E+03 4.60879E-08-1.04252E-10 1.94473E-09
 -1       111-1.74350E+06-4.11678E+02-1.39831E+03-3.57928E-07 7.08564E-10 5.04252E-09
 -1       112-1.74338E+06 6.99336E+01-8.38733E+02 5.68312E-08-9.51667E-10-1.71029E-09
 -1       113-1.74339E+06-1.94406E+02-9.57121E+02-1.47584E-07-7.60360E-10-2.58140E-09
 -1       114-1.74335E+06 1.24289E+02-1.33443E+03-1.12636E-07-7.10973E-10-1.37572E-09
 -1       115-1.74375E+06-8.81113E+02-2.83113E+03-1.77109E-07 1.64295E-09-5.36676E-09
 -1       116-1.74302E+06 7.55629E+02-4.79548E+03 2.86578E-08 9.05292E-10-2.99860E-09
 -1       117-1.74607E+06-5.62318E+03-1.17491E+04 2.11278E-07-1.27979E-11-5.97697E-09
 -1       118-1.74104E+06 4.85843E+03-1.87263E+04-3.56653E-07-1.22067E-09 3.54703E-11
 -1       119-1.76017E+06-3.60703E+04-5.11557E+04 1.26050E-08-1.85813E-09 2.16096E-09
 -1       120-1.72896E+06 3.11491E+04-7.23822E+04-3.95468E-07-6.21126E-10 3.56158E-09
 -1       121-1.90165E+03-1.29322E+06 7.53122E+03-3.16112E+03-3.23780E-10-9.28594E-10
 -1       122 2.30628E+03-1.29010E+06 4.54316E+03-1.42295E+04-5.78552E-10 6.07542E-09
 -1       123-1.94997E+02-1.29201E+06 1.14083E+03-2.48602E+03-9.31550E-10 9.89075E-09
 -1       124-7.26025E+02-1.29204E+06-9.07927E+02-1.54836E+04-6.46651E-10 3.13730E-09
 -1       125 6.34505E+02-1.29143E+06-2.74719E+03-1.90769E+03-1.72219E-09 1.45155E-09
 -1       126-7.21457E+05-1.15896E+05 3.59634E+04-2.30978E+05 4.50382E-08-2.27737E-09
 -1       127-4.18780E+05-8.52184E+04 6.63153E+04-2.58145E+05 4.07490E-08 7.12589E-09
 -1       128-6.57644E+05-5.42914E+04 9.33707E+03-1.86866E+05-4.03315E-08-2.45941E-08
 -1       129-5.00785E+05-1.53532E+05 1.27366E+04-3.12543E+05-4.14630E-08-1.76193E-08
 -1       130-6.43580E+05-4.45377E+04 2.46068E+03-1.79439E+05-4.08279E-08-2.88264E-09
 -1       131-4.61946E+05-1.35618E+05 1.80880E+04-2.75649E+05-3.11218E-09-9.26207E-09
 -1       132-6.93915E+05-7.41532E+04-1.57542E+04-2.21989E+05 2.25245E-08 3.78191E-09
 -1       133-4.07021E+05-7.27155E+04 3.94070E+04-1.83874E+05 1.43536E-08 1.37807E-08
 -1       134-6.93922E+05-1.10859E+05-2.36803E+04-2.67729E+05 1.21404E-08 2.47348E-08
 -1       135-4.94563E+05-1.99284E+04 3.20508E+04-1.28928E+05 2.86900E-09 8.14396E-09
 -1       136-6.07862E+05-1.25791E+05-1.07753E+04-2.77761E+05 2.85759E-08 7.07655E-09
 -1       137-6.41223E+05-1.78522E+03 5.53370E+03-1.28067E+05 3.19389E-08 3.10960E-08
 -1       138-5.52054E+05-1.25462E+05-3.51350E+03-2.72472E+05 1.86617E-09 1.79703E-08
 -1       139-6.39821E+05-4.56590E+03-2.47586E+03-1.27385E+05 6.87589E-08 5.97632E-08
 -1       140-6.09168E+05-1.23088E+05-3.03208E+04-2.78358E+05 9.22410E-09-1.60762E-08
 -1       141-1.00954E+06 3.24857E+03-7.55974E+03-1.72120E-07-1.50757E-09 7.58473E-09
 -1       142-1.01272E+06-3.76276E+03-5.35456E+03-6.02722E-08-4.66454E-10 4.47795E-09
 -1       143-1.01080E+06 5.07445E+02-1.99012E+03-7.16267E-08-8.92329E-10-8.81982E-10
 -1       144-1.01125E+06-5.92344E+02-1.30185E+03 1.45958E-08-1.04111E-09-2.34263E-09
 -1       145-1.01100E+06 8.39412E+01-6.45990E+02-2.02270E-07-7.45030E-11-5.92109E-10
 -1       146-1.01104E+06-1.31369E+02-6.06133E+02-9.27264E-08-2.13794E-11-1.14901E-09
 -1       147-1.01102E+06 4.72932E+01-7.22069E+02-2.31068E-07 8.27198E-10-2.42039E-09
 -1       148-1.01113E+06-2.80096E+02-1.38100E+03-1.74750E-07-9.55447E-11-2.79454E-09
 -1       149-1.01091E+06 2.32538E+02-2.41360E+03 4.16663E-08 4.99449E-10-3.02953E-09
 -1       150-1.01190E+06-1.73123E+03-5.49417E+03 6.29537E-09-1.28683E-10-2.39402E-09
 -1       151-1.01025E+06 1.49635E+03-9.45997E+03 5.01669E-08-1.18774E-09 1.70985E-09
 -1       152-1.01651E+06-1.11481E+04-2.32826E+04 1.66509E-07 7.49537E-10 4.79986E-09
 -1       153-1.00631E+06 9.63394E+03-3.71399E+04-6.58783E-08 3.39090E-09-3.74712E-10
 -1       154-1.04446E+06-7.15246E+04-1.01459E+05-5.95383E-08 9.12671E-10-8.51287E-10
 -1       155-9.82325E+05 6.17698E+04-1.43515E+05-2.13074E-07 6.49141E-09 4.80213E-10
 -1       156-3.02918E+04-1.76067E+05 6.78677E+04-2.89150E+04-9.96442E-09-1.37379E-09
 -1       157 3.62461E+04-1.25042E+05 5.46649E+04 1.19159E+05-2.55773E-08-1.69312E-09
 -1       158-5.26363E+03-1.63303E+05 2.33516E+04-2.89285E+04-1.26365E-08-1.29262E-09
 -1       159 2.26075E+04-7.85745E+04 4.32377E+04 1.13766E+05-4.95868E-09 1.22395E-09
 -1       160-1.88294E+04-2.19599E+05 1.75712E+04-2.35460E+04 2.44854E-08 1.72395E-09
 -1       161-7.48095E+05-1.00897E+05 2.80386E+03-2.61386E+05-7.69433E-09-4.75166E-09
 -1       162-6.32177E+05-1.20916E+05 1.53139E+04-2.94347E+05 1.91651E-08 2.10252E-09
 -1       163-7.33432E+05-7.60738E+04 1.44960E+03-2.37386E+05 5.96276E-08-1.14152E-08
 -1       164-6.48467E+05-1.45557E+05 3.03867E+03-3.18986E+05 7.56674E-08 8.67496E-09
 -1       165-7.33033E+05-7.53136E+04-4.18184E+02-2.37647E+05 6.91005E-08 8.19409E-09
 -1       166-6.36206E+05-1.27858E+05 7.69648E+03-2.92641E+05 1.87990E-08 1.51233E-08
 -1       167-7.44456E+05-9.47368E+04-7.14614E+03-2.62817E+05 5.46061E-09-1.07307E-08
 -1       168-6.44026E+05-8.89401E+04 1.28903E+04-2.42893E+05-1.91112E-08 7.43114E-09
 -1       169-7.24009E+05-1.15158E+05-8.43712E+03-2.86437E+05 3.09069E-09 8.85166E-10
 -1       170-7.06394E+05-5.96231E+04 3.94605E+03-2.12487E+05 5.94866E-10-8.25094E-09
 -1       171-6.83301E+05-1.23118E+05-7.37327E+03-2.94132E+05-7.64645E-08-1.07657E-08
 -1       172-7.52891E+05-5.70095E+04-1.57606E+04-2.04527E+05-5.77611E-08 6.07611E-09
 -1       173-6.78730E+05-1.16851E+05-2.86783E+04-2.95379E+05-9.95697E-08 1.53395E-08
 -1       174-7.39524E+05-1.13927E+05-7.41675E+04-2.01990E+05-1.08177E-07 2.64763E-08
 -1       175-6.95536E+05-6.71560E+04-1.26030E+05-2.95710E+05-1.59234E-08 9.98989E-09
 -1       191 2.40385E+03 6.47962E+05 3.91169E+03-3.05175E+04-3.63798E-10-2.92312E-09
 -1       192 8.38311E+02 6.48539E+05 2.23286E+03-3.31149E+04 5.06816E-10-1.84809E-09
 -1       193 3.16317E+02 6.48134E+05 1.61029E+03-3.01954E+04-1.02909E-09 2.57023E-09
 -1       194 8.54761E+02 6.48479E+05 2.21246E+03-3.36903E+04 4.77939E-10-1.44792E-09
 -1       195 2.41814E+03 6.47872E+05 3.86419E+03-2.99380E+04-1.58434E-09-1.85355E-09
 -1       251-2.10253E+06 8.08951E+03-1.01834E+05-1.26775E+05 1.58343E-09-2.18279E-09
 -1       252-1.79130E+06-9.35718E+03-7.42956E+03 3.44524E+05 2.44245E-09 3.56658E-09
 -1       253-1.99224E+06 8.56762E+03-2.38468E+04-1.61891E+05-4.21824E-09 3.71983E-10
 -1       254-1.57982E+06 1.17234E+04 6.56486E+04 2.13541E+05-1.72599E-09 2.25646E-09
 -1       255-2.29984E+06-2.69684E+04-7.73358E+04 4.32831E+03 1.32241E-08 1.28011E-09
 -1       256-1.53269E+06 2.19551E+04 8.35978E+04-1.36226E+05 1.00958E-08 6.73208E-09
 -1       257-2.03585E+06-5.08568E+03-1.79556E+04 1.87132E+05-4.74483E-09 1.50046E-08
 -1       258-1.80619E+06 1.90706E+04 3.15596E+04-3.15844E+05-2.91067E-10 9.83187E-09
 -1       259-2.04471E+06-5.92510E+03-1.98300E+04 1.84703E+05-1.26674E-08 1.26674E-08
 -1       260-1.52502E+06 2.20554E+04 8.51721E+04-1.28351E+05 7.75617E-09 6.92467E-10
 -1       261-2.29815E+06-2.67159E+04-7.67971E+04-1.11844E+03 1.32541E-08 3.42129E-09
 -1       262-1.58858E+06 1.15314E+04 6.42422E+04 2.20662E+05 1.82165E-08-1.26820E-08
 -1       263-1.98578E+06 9.09855E+03-2.18329E+04-1.63559E+05-1.39862E-08-2.13913E-09
 -1       264-1.78743E+06-8.03976E+03-5.12364E+03 3.42740E+05-7.02839E-08 6.16592E-09
 -1       265-2.11262E+06 6.01071E+03-1.01631E+05-1.23317E+05-2.37887E-08-4.42378E-09
 -1       266-3.77465E+04-2.19234E+05 8.76552E+04-1.02942E+04 1.23691E-10-3.23746E-09
 -1       267 4.20750E+04-1.78352E+05 6.00088E+04 4.59669E+04 4.36557E-11 1.49691E-08
 -1       268-4.46553E+03-2.06476E+05 1.72035E+04-9.32378E+03-8.36735E-11 5.20470E-09
 -1       269-2.42310E+03-1.86599E+05 3.27450E+03 4.14222E+04-9.82254E-11 7.37674E-09
 -1       270 6.15603E+03-2.10311E+05-1.73265E+04-5.76121E+03 2.21917E-10 6.33099E-09
 -1       271-4.67098E+06-5.91360E+05-3.66634E+05-1.81276E+06-7.78527E-10 1.12050E-09
 -1       272-4.80179E+06-8.29206E+05-2.31475E+05-1.81024E+06 6.58474E-10 1.08776E-09
 -1       273-4.73716E+06-6.72309E+05-8.64412E+04-1.80015E+06 1.40778E-09-3.33603E-09
 -1       274-4.72391E+06-7.25359E+05-4.74495E+04-1.83230E+06 6.25232E-09-1.30967E-10
 -1       275-4.74663E+06-6.79001E+05-2.00899E+04-1.79690E+06 1.37243E-09-3.08228E-09
 -1       276-4.71232E+06-7.17388E+05-1.06128E+04-1.83792E+06 6.67569E-10 3.37013E-09
 -1       277-4.74889E+06-6.78548E+05-5.44048E+03-1.79535E+06-8.29459E-10-6.37897E-09
 -1       278-4.70986E+06-7.17993E+05-4.26059E+03-1.84012E+06 3.88241E-10 6.42714E-09
 -1       279-4.74931E+06-6.78135E+05-5.09334E+03-1.79491E+06 8.41851E-10-1.70530E-09
 -1       280-4.71084E+06-7.18773E+05-9.69592E+03-1.83982E+06-1.11083E-09 4.32010E-09
 -1       281-4.74791E+06-6.77875E+05-1.81769E+04-1.79560E+06 2.03272E-10-4.51109E-09
 -1       282-4.72032E+06-7.27054E+05-4.29435E+04-1.83605E+06-1.70735E-09 1.71713E-09
 -1       283-4.73982E+06-6.71348E+05-7.81454E+04-1.79803E+06 1.40290E-09 1.87356E-09
 -1       284-4.78997E+06-8.21748E+05-2.09350E+05-1.81696E+06-1.93268E-10-5.11864E-09
 -1       285-4.68028E+06-5.97865E+05-3.31581E+05-1.80910E+06 7.49424E-10-4.51109E-10
 -1       286-6.15514E+05-2.38012E+04 5.52722E+04-2.44990E+03 3.11280E-09 6.54836E-11
 -1       287-5.90762E+05 2.75701E+04 3.91936E+04 2.28578E+03 2.41096E-09-5.92991E-10
 -1       288-6.06439E+05-3.73050E+03 1.42492E+04-4.43314E+02-1.74538E-10-6.20275E-10
 -1       289-6.01469E+05 4.31401E+03 9.11760E+03-1.85861E+03-5.82006E-10 4.85761E-09
 -1       290-6.04822E+05-5.91302E+02 3.65096E+03 1.69456E+03 4.13308E-10 7.86940E-09
 -1       291-6.03567E+05 6.96290E+02 2.29326E+03-5.38772E+03 2.59045E-09 3.02884E-09
 -1       292-6.04364E+05-1.04367E+02 1.15220E+03 3.08585E+03 1.75868E-09-3.55732E-09
 -1       293-6.04055E+05 2.21824E+02 1.04246E+03-6.86923E+03 8.38568E-10 2.88412E-09
 -1       294-6.04348E+05-1.06951E+02 1.18815E+03 3.17613E+03 2.06057E-09-2.76313E-09
 -1       295-6.03599E+05 7.26412E+02 2.37717E+03-5.71310E+03 7.76119E-10-1.57431E-09
 -1       296-6.04808E+05-6.16693E+02 3.82485E+03 1.92967E+03 1.35714E-10 2.79465E-09
 -1       297-6.01396E+05 4.51495E+03 9.53144E+03-2.38055E+03-2.91323E-10 1.26875E-09
 -1       298-6.06527E+05-3.90451E+03 1.49192E+04-1.56467E+02-1.06866E-11 1.61526E-09
 -1       299-5.90124E+05 2.88626E+04 4.10324E+04 1.77252E+03-9.94916E-10-2.36469E-09
 -1       300-6.16061E+05-2.49187E+04 5.78606E+04-2.22348E+03-3.26281E-10 1.85537E-10
 -1       301 6.30763E+04 2.02483E+04 1.38195E+05-3.65304E+04 3.49246E-09 6.60282E-09
 -1       302 2.14071E+04 4.60756E+04 8.44061E+04-4.29847E+04 2.96768E-09 1.38573E-08
 -1       303 6.13285E+03 2.94139E+04 6.73620E+04-3.66662E+04 3.44426E-09 7.75754E-09
 -1       304 2.72463E+04 4.95078E+04 9.99725E+04-4.29322E+04 2.43381E-09 3.58887E-09
 -1       305 8.20421E+04 1.68528E+04 1.75990E+05-3.65300E+04 3.39060E-09 2.71984E-09
 -1       306-3.19221E+06-4.14388E+05-2.14802E+05-1.23755E+06-1.10958E-10-5.52973E-10
 -1       307-3.24920E+06-5.72446E+05-1.35467E+05-1.25802E+06-4.61796E-10-1.18234E-10
 -1       308-3.23126E+06-4.61297E+05-5.06841E+04-1.22993E+06-6.50743E-10 2.94676E-10
 -1       309-3.20367E+06-5.11993E+05-2.78103E+04-1.27145E+06-8.60382E-10 6.19184E-09
 -1       310-3.23687E+06-4.65116E+05-1.18184E+04-1.22802E+06 4.14730E-10-1.41426E-09
 -1       311-3.19715E+06-5.07191E+05-6.30192E+03-1.27470E+06 2.69938E-09-1.67097E-09
 -1       312-3.23805E+06-4.64980E+05-3.35089E+03-1.22729E+06 1.54728E-09-1.65625E-09
 -1       313-3.19616E+06-5.07130E+05-2.85941E+03-1.27548E+06 4.09692E-09 4.70732E-09
 -1       314-3.23798E+06-4.65033E+05-3.72218E+03-1.22736E+06-1.63391E-09 3.38150E-09
 -1       315-3.19747E+06-5.07111E+05-7.32161E+03-1.27440E+06-1.10049E-10 1.37402E-09
 -1       316-3.23657E+06-4.65186E+05-1.38903E+04-1.22821E+06-1.42154E-09-1.62072E-09
 -1       317-3.20508E+06-5.12907E+05-3.27882E+04-1.27075E+06-1.33878E-09-1.56797E-09
 -1       318-3.23008E+06-4.60534E+05-5.97716E+04-1.23032E+06-7.27823E-10 5.67525E-10
 -1       319-3.25848E+06-5.84612E+05-1.59817E+05-1.25541E+06-3.36058E-10 3.52520E-09
 -1       320-3.18428E+06-4.04881E+05-2.53334E+05-1.23900E+06-1.01863E-09 1.16415E-10
 -1       321-5.92060E+05-2.80815E+04 5.81664E+04 6.01099E+03-1.21941E-09 1.05138E-09
 -1       322-5.30842E+05 3.23285E+04 4.75455E+04-2.79054E+04 1.03320E-08 4.54747E-11
 -1       323-5.72330E+05-4.51453E+03 1.47827E+04 1.71680E+04-4.56146E-09 4.55111E-09
 -1       324-5.58869E+05 5.49605E+03 1.08305E+04-4.33429E+04-2.45005E-08-4.16139E-09
 -1       325-5.64933E+05-6.18221E+02 4.15129E+03 2.14583E+04 1.07815E-08 2.64845E-09
 -1       326-5.61052E+05 1.32322E+03 3.13526E+03-4.34724E+04 8.08356E-09 6.17058E-09
 -1       327-5.70159E+05-3.42298E+02-4.36378E+01 1.72976E+04-1.15922E-08 7.58746E-10
 -1       328-5.45784E+05 7.70156E+02 4.30339E+03-2.80946E+04 1.12504E-09-6.25469E-10
 -1       329-5.79325E+05-7.43742E+02-2.84498E+03 6.07053E+03-6.28825E-09 2.01331E-09
 -1       330-5.35652E+05 7.38510E+02 5.60836E+03-2.67289E+03-1.03811E-08-6.21776E-09
 -1       331-5.79713E+05-7.58881E+02-3.59644E+03-8.11130E+03 2.80716E-09-3.99911E-09
 -1       332-5.45014E+05 2.99909E+02 2.66479E+03 2.31563E+04 3.32698E-08-2.77879E-10
 -1       333-5.70463E+05 7.95855E+01-3.56873E+03-1.97490E+04 2.47713E-08-4.06419E-09
 -1       334-5.62978E+05-3.19897E+03-5.38535E+03 3.96439E+04 2.26889E-08-7.17591E-10
 -1       335-5.62654E+05 3.43280E+03-9.12683E+03-2.46167E+04-2.11456E-08-8.68476E-09
 -1       336 8.40946E+02-1.29152E+06-5.39566E+03-5.86752E+03-1.67108E-09-4.65980E-09
 -1       337-2.21018E+03-1.29378E+06-8.31679E+03-3.31889E+04-1.66509E-09 5.12046E-10
 -1       338 1.21837E+03-1.29119E+06-1.26773E+04-5.65188E+03-2.45655E-09 2.32080E-09
 -1       339-1.45320E+04-1.30116E+06-3.01900E+04-3.34199E+04-1.51340E-09 7.04151E-09
 -1       340 1.08079E+04-1.28422E+06-4.67499E+04-5.64311E+03-1.61344E-09 6.91853E-09
 -1       341-1.55888E+06-2.81096E+05-6.42188E+04-6.75169E+05-3.27036E-08 2.22462E-09
 -1       342-1.59462E+06-4.87120E+04-2.33391E+03-3.52337E+05-6.70643E-08-1.31122E-08
 -1       343-1.47259E+06-2.88955E+05-1.34771E+04-6.71038E+05 1.32555E-08 8.51514E-09
 -1       344-1.41850E+06-7.91466E+04 4.28516E+04-3.81984E+05 3.06562E-08 4.65479E-09
 -1       345-1.72920E+06-2.56408E+05-4.88545E+04-6.40409E+05-2.38470E-09-1.05592E-09
 -1       346-1.22672E+06-2.33867E+05 5.36874E+04-5.61707E+05-2.75422E-08-8.45955E-09
 -1       347-1.66263E+06-1.35931E+05-1.12272E+04-4.90249E+05-4.91841E-08 2.69786E-08
 -1       348-1.29375E+06-3.42012E+05 1.99472E+04-7.12333E+05 4.50116E-08 4.57829E-08
 -1       349-1.67009E+06-1.40404E+05-1.46999E+04-4.96234E+05 3.17154E-08 1.34050E-08
 -1       350-1.22701E+06-2.26731E+05 5.19760E+04-5.50295E+05-3.24064E-08 1.89789E-09
 -1       351-1.72106E+06-2.59467E+05-5.44681E+04-6.45488E+05 4.80213E-10 4.54020E-09
 -1       352-1.44030E+06-8.34558E+04 2.36412E+04-3.76482E+05-2.29966E-09 1.02737E-08
 -1       353-1.45946E+06-2.81104E+05-3.89762E+04-6.71894E+05 5.70526E-09 4.41105E-09
 -1       354-1.62077E+06-1.07182E+05-8.18238E+04-3.42589E+05 4.84529E-08 1.26565E-08
 -1       355-1.54572E+06-2.30777E+05-1.83027E+05-6.83854E+05 1.58143E-08-6.89761E-09
 -1       356-5.89063E+05 4.26267E+03-1.15640E+04-2.76095E+04-1.91585E-09 1.56524E-09
 -1       357-5.91972E+05-3.99305E+03-7.33187E+03 4.79866E+04-4.13398E-08-8.91305E-11
 -1       358-5.95536E+05 2.62361E+02-3.90851E+03-2.44708E+04-1.70795E-08-4.23290E-09
 -1       359-5.71816E+05 3.69038E+02 2.24227E+03 3.28262E+04 1.97861E-09-1.05049E-09
 -1       360-6.08207E+05-8.74665E+02-4.31063E+03-1.24245E+04 1.65239E-08 7.06081E-10
 -1       361-5.55468E+05 9.41255E+02 6.53331E+03 4.24228E+03 2.09154E-08-1.29047E-09
 -1       362-6.10994E+05-9.99242E+02-4.62837E+03 4.10821E+03-8.86416E-09-1.23953E-09
 -1       363-5.63886E+05 7.18142E+02 4.48757E+03-2.66164E+04 1.01986E-08-2.21257E-09
 -1       364-6.00266E+05-2.81605E+02-3.58630E+03 1.84122E+04 2.96977E-08 1.86662E-09
 -1       365-5.85346E+05-4.81277E+02-2.56128E+03-4.74238E+04-4.10573E-08-3.37673E-09
 -1       366-5.90710E+05 1.11065E+03-6.91317E+03 2.49270E+04 3.69776E-08 2.90083E-09
 -1       367-5.92713E+05-7.31162E+03-1.64778E+04-5.04093E+04 4.09163E-08 5.54792E-10
 -1       368-5.93130E+05 6.71303E+03-2.85893E+04 2.14027E+04 1.35749E-08 4.05635E-10
 -1       369-5.94412E+05-5.08204E+04-7.05585E+04-3.42790E+04 3.27821E-08 2.52840E-09
 -1       370-5.87977E+05 4.37361E+04-1.10333E+05 8.77991E+03 1.11982E-08 4.86034E-09
 -1       371-1.62187E+04-2.18465E+05 1.44930E+04-1.93886E+04 3.18814E-08-8.34007E-10
 -1       372 1.39532E+04-1.05152E+05 2.56765E+04 9.74653E+04-3.02634E-09 1.66983E-09
 -1       373 8.12642E+02-1.71310E+05-9.35992E+02-2.46689E+04-4.92946E-09 2.44540E-09
 -1       374-1.11563E+04-1.61059E+05-1.24906E+04 1.02930E+05-1.88907E-08 2.57160E-09
 -1       375 1.06526E+04-1.65034E+05-2.55732E+04-2.48273E+04-7.52152E-09 4.62251E-10
 -1       376-5.61416E+05-1.07094E+05-2.10490E+04-2.52791E+05 8.39550E-08-3.81078E-09
 -1       377-6.19338E+05-2.37778E+04-6.77036E+03-1.44014E+05 6.96747E-08 1.33231E-08
 -1       378-5.38151E+05-1.11640E+05-3.43472E+03-2.51102E+05-5.61651E-08 1.83427E-08
 -1       379-5.99916E+05-2.17661E+04 4.04092E+03-1.44422E+05-4.79661E-08-1.72787E-08
 -1       380-5.80280E+05-1.09505E+05-8.11843E+03-2.51922E+05 4.42219E-09 7.76254E-09
 -1       381-5.04363E+05-4.05758E+04 2.02119E+04-1.54377E+05 3.09876E-08 5.06009E-09
 -1       382-6.30847E+05-9.49270E+04-1.46155E+04-2.38893E+05 9.93168E-09 1.85969E-09
 -1       383-4.54911E+05-8.18276E+04 2.17181E+04-2.00012E+05 2.07247E-08 2.07734E-09
 -1       384-6.29330E+05-6.85705E+04-9.87904E+03-2.06132E+05-4.31023E-08 8.58313E-09
 -1       385-4.85438E+05-1.25646E+05 5.68568E+03-2.60781E+05-4.52696E-08 2.62114E-09
 -1       386-6.03135E+05-4.90276E+04-4.72074E+03-1.80234E+05 3.16918E-08 2.81473E-08
 -1       387-5.06771E+05-1.43322E+05-9.87170E+03-2.79388E+05 3.94591E-08 1.52431E-08
 -1       388-6.09232E+05-4.99835E+04-2.28999E+04-1.88386E+05 1.27586E-07 1.62190E-08
 -1       389-4.89867E+05-1.46968E+05-4.32258E+04-2.31024E+05 1.22310E-07 3.26690E-09
 -1       390-6.17555E+05-4.72877E+04-9.85089E+04-2.26807E+05 8.73297E-09-2.00453E-09
 -1       406 1.96228E+03 6.39032E+05 3.92819E+03-7.05920E+04-2.10639E-09 1.77351E-09
 -1       407 1.20455E+03 6.39703E+05 4.39491E+03-7.76937E+04 5.03860E-10-5.36875E-09
 -1       408 1.73766E+03 6.38910E+05 6.92308E+03-7.03672E+04-2.61116E-09 8.83119E-10
 -1       409 6.74868E+03 6.41537E+05 1.46616E+04-7.79832E+04 2.33740E-10 2.60388E-09
 -1       410 1.93288E+04 6.37010E+05 2.94466E+04-7.02753E+04-2.93221E-09-1.93040E-09
 -1       466 1.39390E+06-5.61910E+04 1.21357E+05 4.18032E+04-1.71440E-09-1.10231E-08
 -1       467 1.49897E+06 6.35609E+04 9.46058E+04-6.72443E+04-6.70354E-10 3.91083E-09
 -1       468 1.43587E+06-7.97732E+03 3.23464E+04 1.15337E+04-1.41074E-09-1.01136E-09
 -1       469 1.45017E+06 9.09298E+03 2.10303E+04-2.65412E+04-2.66553E-09 3.29237E-09
 -1       470 1.44160E+06-1.15147E+03 8.59085E+03 1.08888E+03-1.16856E-09-3.85535E-09
 -1       471 1.44355E+06 1.40960E+03 5.43112E+03-1.25507E+04 4.98318E-10-6.45559E-09
 -1       472 1.44237E+06-2.23377E+02 3.23233E+03-2.45712E+03-3.08546E-10 2.46683E-09
 -1       473 1.44287E+06 7.12130E+02 3.62327E+03-8.07940E+03 2.34137E-09 4.38911E-09
 -1       474 1.44227E+06-4.44829E+02 5.02323E+03-3.38247E+03-1.14020E-09 3.81715E-09
 -1       475 1.44420E+06 3.28569E+03 1.05959E+04-7.73735E+03 8.62672E-10-2.97325E-09
 -1       476 1.44102E+06-2.79255E+03 1.79387E+04-2.79913E+03 7.73881E-10 3.76986E-09
 -1       477 1.45301E+06 2.09172E+04 4.38952E+04-1.11188E+04 4.93259E-10-3.82715E-09
 -1       478 1.43344E+06-1.80512E+04 6.98940E+04-8.47548E-01 3.14742E-10 2.81216E-09
 -1       479 1.50730E+06 1.34412E+05 1.91114E+05-2.25819E+04 3.87463E-09 2.79397E-09
 -1       480 1.38678E+06-1.16104E+05 2.69700E+05 8.66286E+03 4.27781E-09-6.34464E-09
 -1       481-1.42617E+04 2.99116E+05 2.32548E+04-2.23881E+04-2.58296E-10-1.51431E-10
 -1       482 1.53989E+04 3.60914E+05 2.63062E+04 7.04785E+04-3.56749E-10 9.07687E-09
 -1       483-1.97484E+03 3.24193E+05 9.23670E+03-1.57612E+04 1.11868E-10 1.67859E-09
 -1       484 6.39688E+03 3.34820E+05 1.18395E+04 6.35118E+04 1.36424E-11-1.34968E-09
 -1       485-4.48069E+03 3.24045E+05 1.09977E+04-1.54073E+04 1.21418E-10-8.13770E-10
 -1       486-1.32364E+06-2.58767E+05-1.56206E+05-6.56538E+05-7.07223E-09-1.84154E-08
 -1       487-1.42356E+06 2.02185E+04-4.61286E+04-1.76373E+05 3.76622E-09 4.45443E-08
 -1       488-1.32126E+06-2.89243E+05-4.90538E+04-6.48192E+05 1.00178E-08-8.24912E-09
 -1       489-9.87129E+05 7.65926E+03 8.98408E+04-1.94171E+05 6.11840E-09-6.94672E-09
 -1       490-1.74467E+06-2.60643E+05-1.00111E+05-6.25378E+05-3.00133E-10 4.09818E-09
 -1       491-7.58368E+05-1.96244E+05 1.06706E+05-4.43770E+05-1.86083E-08 3.00029E-08
 -1       492-1.54867E+06-8.66153E+04-2.30110E+04-3.98859E+05 2.62344E-09-1.30860E-08
 -1       493-9.77873E+05-3.57013E+05 3.54645E+04-6.86880E+05-2.67761E-09 4.85170E-09
 -1       494-1.54206E+06-8.38972E+04-2.10255E+04-3.95140E+05 1.20735E-09 1.26968E-08
 -1       495-7.63104E+05-2.01166E+05 1.05307E+05-4.51183E+05 8.87712E-09-4.58951E-08
 -1       496-1.74692E+06-2.58087E+05-9.90375E+04-6.21996E+05-6.40739E-09-1.13660E-08
 -1       497-9.75592E+05 6.52388E+03 9.40371E+04-1.96376E+05 3.64525E-09-1.07557E-08
 -1       498-1.33015E+06-2.91021E+05-4.65496E+04-6.49059E+05 3.37081E-10-3.59432E-08
 -1       499-1.41891E+06 2.89553E+04-3.37843E+04-1.78022E+05-1.20917E-08-4.07699E-08
 -1       500-1.31941E+06-2.65703E+05-1.36473E+05-6.54036E+05-4.26990E-08 3.07700E-08
 -1       501-8.83681E+05-2.81708E+04 6.51926E+04-2.98390E+03 1.20934E-09 3.63798E-11
 -1       502-8.52936E+05 3.26339E+04 4.64971E+04 1.68191E+03-3.32903E-10-1.74532E-09
 -1       503-8.72932E+05-4.44450E+03 1.67136E+04 2.04318E+03-1.09793E-09-1.23691E-09
 -1       504-8.66194E+05 5.13248E+03 1.08114E+04-7.43038E+03-1.11697E-09-4.61569E-11
 -1       505-8.70482E+05-6.96788E+02 4.24697E+03 6.12842E+03 2.83862E-09 2.23622E-09
 -1       506-8.69224E+05 8.28438E+02 2.51631E+03-1.23460E+04 6.40211E-09-3.81732E-09
 -1       507-8.69961E+05-1.04947E+02 1.05218E+03 6.95910E+03 4.22473E-09 6.75738E-09
 -1       508-8.69141E+05 1.56141E+02 6.54571E+02-1.02876E+04 3.45204E-09-7.32086E-10
 -1       509-8.70540E+05-4.63151E+01 1.10909E+01 4.06986E+03 2.27283E-09 3.34937E-09
 -1       510-8.68272E+05-1.22401E+01 1.70566E+02-2.38857E+03 1.45718E-10-2.43112E-10
 -1       511-8.70775E+05 1.85354E+01-6.26185E+02-9.40145E+02-2.11406E-09 1.34662E-10
 -1       512-8.68877E+05-5.34661E+02-9.52209E+02 6.97353E+03-3.70548E-09 1.51056E-09
 -1       513-8.69957E+05 4.92076E+02-2.01943E+03-5.29220E+03-9.42492E-10-2.30079E-09
 -1       514-8.71347E+05-3.73469E+03-5.31698E+03 1.26091E+04-2.08631E-09-1.13630E-10
 -1       515-8.68364E+05 3.25891E+03-7.61965E+03-6.57594E+03-2.28073E-09-1.42472E-09
 -1       516-7.37937E+04 2.90618E+05 1.73269E+05-1.40263E+04-6.47560E-10-2.25589E-09
 -1       517 8.79307E+04 3.70792E+05 1.28202E+05 5.76321E+04-1.28239E-09-2.86514E-09
 -1       518-1.40727E+04 3.15666E+05 5.49470E+04-1.48463E+04-3.45608E-10 3.95062E-09
 -1       519 3.68888E+04 3.69557E+05 6.42463E+04 6.52660E+04-3.24258E-09-3.57289E-09
 -1       520-2.36683E+04 2.93020E+05 5.00677E+04-2.16762E+04-1.47156E-09-1.63145E-08
 -1       521-4.52426E+06-5.79262E+05-3.15854E+05-1.74847E+06-9.34961E-10-3.53612E-09
 -1       522-4.62605E+06-7.94789E+05-1.99356E+05-1.75870E+06 3.60387E-10-1.98997E-09
 -1       523-4.58140E+06-6.48760E+05-7.44537E+04-1.73746E+06-8.44977E-10 1.00772E-09
 -1       524-4.55908E+06-7.05379E+05-4.08784E+04-1.77784E+06 2.21007E-10 2.20098E-10
 -1       525-4.58947E+06-6.54595E+05-1.73008E+04-1.73476E+06-3.13321E-10-2.70211E-09
 -1       526-4.54954E+06-6.98087E+05-9.17009E+03-1.78221E+06 2.91175E-09-7.16682E-10
 -1       527-4.59108E+06-6.54546E+05-4.72908E+03-1.73380E+06 1.91653E-09-7.42375E-10
 -1       528-4.54820E+06-6.97775E+05-3.78649E+03-1.78307E+06 2.77123E-09 3.47097E-09
 -1       529-4.59089E+06-6.54753E+05-4.63151E+03-1.73401E+06 2.60661E-09 1.21599E-09
 -1       530-4.55015E+06-6.97330E+05-8.87941E+03-1.78130E+06-1.49612E-09-1.13596E-09
 -1       531-4.58892E+06-6.55221E+05-1.67333E+04-1.73537E+06-1.25874E-09-1.48793E-09
 -1       532-4.56007E+06-7.03605E+05-3.94649E+04-1.77613E+06 1.36788E-09-1.26602E-09
 -1       533-4.58073E+06-6.49997E+05-7.19036E+04-1.73841E+06-3.96767E-10-4.36194E-09
 -1       534-4.62546E+06-7.89146E+05-1.92444E+05-1.75675E+06 2.68551E-09-2.44472E-09
 -1       535-4.52520E+06-5.83296E+05-3.04952E+05-1.74946E+06 1.24055E-09 4.04543E-09
 -1       536 5.86877E+04-1.83326E+04 7.83505E+04-1.11263E+04 8.80391E-10 1.57161E-09
 -1       537 8.75393E+04 2.43771E+04 5.02507E+04-4.34934E+04-3.56295E-09 2.98314E-10
 -1       538 7.04485E+04-2.00593E+03 2.02581E+04-1.10097E+04-3.38332E-10-2.07183E-09
 -1       539 7.40382E+04 2.29663E+03 1.13389E+04-4.35833E+04 2.69256E-09-8.87667E-09
 -1       540 7.17356E+04-2.71404E+02 5.09427E+03-1.10249E+04-6.25732E-10-1.12004E-09
 -1       541 7.22896E+04 2.02239E+02 2.69704E+03-4.35477E+04 2.95131E-10-6.13340E-10
 -1       542 7.18738E+04-4.26273E+01 1.25133E+03-1.10460E+04-8.69477E-10-2.48497E-09
 -1       543 7.19403E+04 4.70416E+01 6.20531E+02-4.35156E+04-5.39330E-10-7.76777E-09
 -1       544 7.18836E+04 7.20779E+00 2.35981E+02-1.10573E+04-2.91425E-09 2.04409E-10
 -1       545 7.18365E+04 3.66658E+01-1.10875E+01-4.35026E+04-2.85604E-09 6.38238E-10
 -1       546 7.18975E+04 2.53322E+01-2.54390E+02-1.10590E+04-2.67858E-09-1.47747E-09
 -1       547 7.17610E+04-1.19708E+02-6.97338E+02-4.35032E+04-7.34076E-10-1.32866E-09
 -1       548 7.20000E+04 1.13316E+02-1.31668E+03-1.10567E+04-1.35515E-09-3.46768E-09
 -1       549 7.10192E+04-1.61219E+03-3.26924E+03-4.34366E+04-3.19233E-10 9.34051E-10
 -1       550 7.28013E+04 1.12401E+03-5.15713E+03-1.11254E+04-5.03860E-10-9.28594E-10
 -1       551 2.21599E+04-4.29265E+05 4.27458E+04-6.46062E+05 5.55156E-09 3.20506E-09
 -1       552 1.28679E+04-4.23179E+05 3.36342E+04-7.56088E+05 3.96540E-09 5.91172E-10
 -1       553 8.98743E+03-4.29438E+05 3.88411E+04-6.44972E+05 5.50062E-09-1.62527E-09
 -1       554 2.78288E+04-4.15140E+05 7.27289E+04-7.56258E+05 4.36557E-09-2.89219E-09
 -1       555 7.02968E+04-4.38722E+05 1.37675E+05-6.45684E+05 4.56930E-09-3.93266E-09
 -1       556-3.27779E+05-1.68870E+05 2.66494E+04-3.02113E+05 2.58296E-09-1.46247E-09
 -1       557-3.02860E+05-1.95891E+05 1.31458E+04-3.21659E+05 2.02272E-09 8.99217E-09
 -1       558-3.28864E+05-1.77526E+05 5.47289E+03-2.97085E+05-1.88447E-09-1.56433E-10
 -1       559-3.05895E+05-2.00097E+05 2.70848E+03-3.22988E+05 4.58385E-10-4.23415E-09
 -1       560-3.29606E+05-1.77362E+05 1.17497E+03-2.97305E+05 6.62112E-10-1.14369E-10
 -1       561-3.06831E+05-1.99992E+05 5.66068E+02-3.23657E+05 9.64064E-10 1.66995E-09
 -1       562-3.30154E+05-1.77018E+05 1.82574E+02-2.97664E+05 3.30328E-09 5.48653E-09
 -1       563-3.07359E+05-1.99766E+05-3.02961E+01-3.24031E+05 9.56788E-10-4.14730E-10
 -1       564-3.30458E+05-1.76816E+05-3.00701E+02-2.97873E+05-2.68119E-09-1.93177E-09
 -1       565-3.07626E+05-1.99660E+05-7.49692E+02-3.24201E+05-1.77351E-10 4.85488E-09
 -1       566-3.30486E+05-1.76748E+05-1.60974E+03-2.97919E+05-1.65755E-10 6.36646E-10
 -1       567-3.07881E+05-1.99844E+05-3.56388E+03-3.24148E+05-3.48518E-09 4.11455E-09
 -1       568-3.30111E+05-1.77362E+05-7.34624E+03-2.97568E+05-1.34969E-09 7.53062E-10
 -1       569-3.11655E+05-2.04424E+05-1.73246E+04-3.22872E+05 6.99401E-10-7.27596E-11
 -1       570-3.28374E+05-1.91008E+05-3.54029E+04-2.91674E+05-2.11730E-09-9.22682E-09
 -1       571 4.10615E+05 1.97943E+04 3.04472E+04-1.06848E+05-5.12955E-10 4.74301E-10
 -1       572 4.15246E+05 6.72800E+03 1.49595E+04-1.17792E+05-3.84716E-10 2.02635E-09
 -1       573 4.12434E+05 1.48541E+03 6.65587E+03-1.06549E+05-8.18545E-11 2.50657E-09
 -1       574 4.12959E+05 4.57435E+02 3.34431E+03-1.18110E+05 7.40329E-10-1.85355E-09
 -1       575 4.12600E+05 3.41840E+01 1.58285E+03-1.06513E+05 4.27917E-10-4.20187E-10
 -1       576 4.12644E+05-3.20936E-01 8.10527E+02-1.18151E+05-4.34284E-10-3.59250E-10
 -1       577 4.12626E+05-2.85340E+01 4.05851E+02-1.06508E+05-8.39009E-10-1.56524E-09
 -1       578 4.12630E+05-2.72756E+01 2.33256E+02-1.18156E+05-1.13232E-09 7.14863E-10
 -1       579 4.12686E+05-5.00434E+01 1.62418E+02-1.06507E+05-1.13596E-09 4.35011E-09
 -1       580 4.12725E+05-7.02536E+01 1.85543E+02-1.18152E+05-7.23958E-10-1.23691E-09
 -1       581 4.12799E+05-1.03226E+02 2.85686E+02-1.06512E+05-1.83718E-09-4.93310E-09
 -1       582 4.12934E+05-7.70368E+01 5.71630E+02-1.18091E+05-1.13869E-09 3.59705E-09
 -1       583 4.12939E+05 4.23349E+01 1.10707E+03-1.06568E+05-9.87711E-09 3.39514E-09
 -1       584 4.13528E+05 8.64908E+02 2.49012E+03-1.17598E+05-2.12804E-08-2.78624E-09
 -1       585 4.12830E+05 3.00089E+03 5.04457E+03-1.07010E+05-8.58563E-09-2.41198E-09
 -1       586 3.74876E+03 1.74899E+05 6.40159E+03-2.66004E+05 5.63887E-10-1.33423E-09
 -1       587 2.20611E+03 1.75864E+05 6.06073E+03-2.94052E+05 8.09450E-10-2.24236E-09
 -1       588 2.49155E+03 1.74707E+05 8.53968E+03-2.65664E+05 6.62112E-10 5.29690E-09
 -1       589 8.35420E+03 1.77900E+05 1.74476E+04-2.94135E+05 1.00772E-09 4.17663E-09
 -1       590 2.30101E+04 1.72662E+05 3.47058E+04-2.65906E+05 8.34916E-10 2.33194E-09
 -1       591-1.89801E+05-6.56044E+04-3.63298E+04-9.81850E+04 8.42238E-09 6.51198E-10
 -1       592-1.90926E+05-6.10720E+04-1.78086E+04-1.08974E+05 9.19295E-09-2.37014E-09
 -1       593-1.90860E+05-5.20867E+04-7.55554E+03-1.04366E+05 6.17092E-10-4.01360E-09
 -1       594-1.87063E+05-5.61472E+04-3.69535E+03-1.09651E+05-9.72477E-10-2.31556E-09
 -1       595-1.91042E+05-5.15791E+04-1.70155E+03-1.04649E+05-2.10548E-10-9.30413E-10
 -1       596-1.86775E+05-5.59492E+04-8.63875E+02-1.09631E+05 2.87855E-10-6.78938E-10
 -1       597-1.91077E+05-5.16024E+04-4.72672E+02-1.04652E+05 1.59844E-09 1.43928E-09
 -1       598-1.86745E+05-5.59520E+04-3.82599E+02-1.09618E+05 6.98606E-10-1.11095E-09
 -1       599-1.91071E+05-5.16049E+04-4.91673E+02-1.04649E+05 3.65617E-10-8.71296E-10
 -1       600-1.86767E+05-5.59542E+04-9.13962E+02-1.09623E+05-8.82210E-10-2.45859E-09
 -1       601-1.91019E+05-5.15856E+04-1.80758E+03-1.04639E+05-4.47380E-09-6.01722E-09
 -1       602-1.87065E+05-5.61661E+04-3.92982E+03-1.09630E+05 1.04592E-11 6.64568E-09
 -1       603-1.90814E+05-5.21358E+04-8.03648E+03-1.04335E+05-4.20823E-09-4.14821E-09
 -1       604-1.91195E+05-6.13726E+04-1.89400E+04-1.08864E+05-1.48339E-09 1.36515E-09
 -1       605-1.89646E+05-6.65383E+04-3.86369E+04-9.77866E+04-2.07638E-09-9.54969E-09
 -1       606 1.31988E+05-1.63973E+04-2.51394E+04 3.81302E+04-7.71070E-09 2.31012E-10
 -1       607 1.28072E+05-5.57195E+03-1.23448E+04 4.16256E+04-2.17096E-09-3.78259E-09
 -1       608 1.30341E+05-1.22417E+03-5.49408E+03 3.78678E+04 5.40786E-09-1.97019E-09
 -1       609 1.29811E+05-3.25817E+02-2.75328E+03 4.19054E+04-2.52385E-09 3.45608E-10
 -1       610 1.30101E+05 3.32138E+01-1.30053E+03 3.78344E+04-7.93443E-09-1.75032E-09
 -1       611 1.29988E+05 9.64409E+01-6.54459E+02 4.19403E+04-1.51604E-08 2.52248E-09
 -1       612 1.30034E+05 1.10720E+02-3.12195E+02 3.78308E+04-7.14317E-09 8.31278E-09
 -1       613 1.29984E+05 1.26368E+02-1.44758E+02 4.19443E+04-9.08949E-09 3.87081E-09
 -1       614 1.29998E+05 1.16627E+02-4.57180E+01 3.78300E+04-5.13865E-10 7.20956E-09
 -1       615 1.29964E+05 1.37198E+02 3.11330E+01 4.19443E+04 7.15045E-09 2.70575E-10
 -1       616 1.29971E+05 1.30939E+02 1.20870E+02 3.78306E+04-3.53702E-09 8.10360E-10
 -1       617 1.29969E+05 1.89207E+02 2.88894E+02 4.19427E+04 3.69005E-09 8.65475E-09
 -1       618 1.29935E+05 2.71772E+02 5.90610E+02 3.78311E+04 1.56297E-09 1.05183E-09
 -1       619 1.30152E+05 7.61228E+02 1.33646E+03 4.19369E+04 2.85013E-10-2.28738E-09
 -1       620 1.29754E+05 1.91935E+03 2.72465E+03 3.78320E+04 4.02099E-09-1.16052E-09
 -1       621 3.18960E+03 4.27219E+05 7.73502E+03-3.55050E+04 3.58796E-09 3.71756E-09
 -1       622 1.24560E+03 4.28682E+05 6.40002E+03-4.17124E+04 1.06547E-09-3.79760E-09
 -1       623 7.46384E+02 4.27551E+05 7.87598E+03-3.55604E+04 3.14685E-09 3.34694E-09
 -1       624 4.51913E+03 4.30640E+05 1.51599E+04-4.15006E+04 1.41972E-09 1.46974E-09
 -1       625 1.38298E+04 4.25339E+05 2.89832E+04-3.57110E+04 3.14503E-09-3.56977E-09
 -1       626 1.89390E+05 6.15319E+04-1.09312E+04 1.27928E+05-1.43873E-08-2.23881E-08
 -1       627 1.84249E+05 6.93251E+04-5.18435E+03 1.30303E+05-3.15231E-09 4.63672E-09
 -1       628 1.89601E+05 6.69064E+04-2.17970E+03 1.25293E+05 8.35280E-09 3.41697E-09
 -1       629 1.85033E+05 7.15486E+04-1.04513E+03 1.30089E+05 1.53395E-08-4.36461E-09
 -1       630 1.89554E+05 6.72865E+04-4.61826E+02 1.25065E+05 8.39282E-09-8.86075E-09
 -1       631 1.85067E+05 7.17205E+04-2.06082E+02 1.30073E+05-4.70345E-09-4.49586E-09
 -1       632 1.89513E+05 6.73080E+04-5.76918E+01 1.25035E+05-3.48155E-09-2.82944E-09
 -1       633 1.85053E+05 7.17348E+04 5.16927E+01 1.30064E+05-1.68984E-09-1.78579E-09
 -1       634 1.89486E+05 6.73031E+04 1.86812E+02 1.25025E+05 1.98906E-09-1.78943E-09
 -1       635 1.85069E+05 7.17425E+04 4.45185E+02 1.30064E+05-2.53704E-09 5.90308E-09
 -1       636 1.89464E+05 6.73236E+04 9.32734E+02 1.25009E+05-1.36366E-08-1.19944E-08
 -1       637 1.85293E+05 7.19920E+04 2.08718E+03 1.30028E+05-1.38951E-08-2.50111E-09
 -1       638 1.89420E+05 6.80769E+04 4.32613E+03 1.24681E+05-5.06861E-09-4.51018E-09
 -1       639 1.87507E+05 7.58289E+04 1.02944E+04 1.29094E+05-1.38702E-08 4.75666E-10
 -1       640 1.89531E+05 7.91780E+04 2.16960E+04 1.20060E+05-6.06042E-09 4.62933E-10
 -1       641 6.12392E+03 3.80811E+03-8.86723E+03-2.17393E+02-1.16069E-08-8.22638E-10
 -1       642 2.33217E+03-4.40758E+03-6.25289E+03 9.55090E+02-1.78346E-10-5.29667E-10
 -1       643 4.65382E+03 5.92988E+02-2.28705E+03-2.11369E+02-1.96825E-08-1.17109E-09
 -1       644 4.03867E+03-6.81934E+02-1.41563E+03 9.46316E+02 1.08402E-08-4.18447E-09
 -1       645 4.41625E+03 9.00042E+01-5.47209E+02-2.08634E+02-9.03522E-09-3.75161E-09
 -1       646 4.31846E+03-9.19757E+01-2.57426E+02 9.42303E+02-4.30486E-07 8.49866E-10
 -1       647 4.37343E+03 4.43166E+00 3.58597E+00-2.07361E+02-5.65685E-05 1.49685E-07
 -1       648 4.39721E+03 5.53152E+01 2.50538E+02 9.41001E+02-1.12410E-04 2.97996E-07
 -1       649 4.33732E+03-5.69603E+01 5.65149E+02-2.07334E+02-5.65690E-05 1.50566E-07
 -1       650 4.60536E+03 4.38216E+02 1.36480E+03 9.41784E+02-4.00304E-07 1.94967E-09
 -1       651 4.16548E+03-3.78061E+02 2.37791E+03-2.08144E+02-6.68370E-09-3.26531E-09
 -1       652 5.77962E+03 2.81619E+03 5.87563E+03 9.42971E+02 3.07756E-09 7.28164E-10
 -1       653 3.16375E+03-2.43130E+03 9.37362E+03-2.08528E+02-2.82910E-09-3.61342E-09
 -1       654 1.28458E+04 1.80476E+04 2.56107E+04 9.36778E+02 1.11505E-08 4.70254E-09
 -1       655-2.89785E+03-1.55818E+04 3.62357E+04-2.01995E+02 2.05620E-09-1.17507E-09
 -1       656 1.28653E+04-4.92631E+05-5.80528E+04 1.39440E+04 1.32313E-08 5.04861E-09
 -1       657-1.91394E+04-5.13722E+05-4.22988E+04 5.24111E+04 1.10408E-08 3.73257E-09
 -1       658 2.45891E+03-5.00175E+05-2.69076E+04 1.38035E+04 1.30713E-08-2.78715E-09
 -1       659-1.74937E+04-5.12809E+05-3.94144E+04 5.25108E+04 1.45956E-08-2.79892E-09
 -1       660 1.15858E+04-4.93617E+05-5.25823E+04 1.38462E+04 1.29203E-08-1.48475E-10
 -1       661 4.80048E+05 6.17004E+04 3.93878E+04 1.88182E+05 8.29459E-10-3.55249E-09
 -1       662 4.89196E+05 9.21501E+04 2.48613E+04 1.93641E+05-2.93846E-09-2.46928E-10
 -1       663 4.86808E+05 7.07162E+04 9.30166E+03 1.87245E+05-8.11383E-10 5.51017E-09
 -1       664 4.81429E+05 8.04360E+04 5.12431E+03 1.95255E+05-1.56622E-08-3.17186E-09
 -1       665 4.87553E+05 7.17161E+04 2.18174E+03 1.87199E+05-1.46806E-08-6.03836E-09
 -1       666 4.80573E+05 7.91698E+04 1.18624E+03 1.95334E+05-9.73898E-09-4.95179E-09
 -1       667 4.87629E+05 7.18389E+04 6.63058E+02 1.87213E+05 3.63343E-09 3.37089E-09
 -1       668 4.80498E+05 7.90472E+04 6.24432E+02 1.95323E+05-9.25585E-09-4.40235E-09
 -1       669 4.87622E+05 7.18310E+04 8.76303E+02 1.87212E+05 3.65753E-09-1.17058E-09
 -1       670 4.80644E+05 7.92529E+04 1.77721E+03 1.95335E+05 2.37005E-08-2.01180E-09
 -1       671 4.87490E+05 7.16455E+04 3.37732E+03 1.87198E+05 9.00025E-09-3.78031E-09
 -1       672 4.82008E+05 8.12144E+04 8.00014E+03 1.95182E+05-8.77378E-10-5.34783E-10
 -1       673 4.86305E+05 7.00979E+04 1.45462E+04 1.87285E+05-2.34259E-09-4.35193E-09
 -1       674 4.94186E+05 9.95156E+04 3.88955E+04 1.92618E+05-6.52926E-09-2.50020E-09
 -1       675 4.75713E+05 5.60104E+04 6.16328E+04 1.88767E+05-6.19366E-09-3.43789E-09
 -1       676 1.29612E+03-4.62676E+05-6.74734E+03 6.98070E+02 9.76547E-09-1.31336E-09
 -1       677-2.55414E+03-4.65253E+05-7.29991E+03 3.14324E+02 4.01975E-09-4.66151E-09
 -1       678 8.00425E+02-4.62985E+05-8.64692E+03 6.96602E+02 1.39880E-08-3.92093E-09
 -1       679-9.12875E+03-4.69161E+05-1.89606E+04 3.13554E+02 1.67529E-09-2.00308E-09
 -1       680 6.59361E+03-4.58771E+05-2.88020E+04 6.96595E+02 1.68930E-08 2.43618E-09
 -1       681 6.34652E+05-1.65993E+04 3.74210E+04 6.54673E+03-5.88784E-10 8.45830E-10
 -1       682 6.56677E+05 1.91247E+04 2.74787E+04-2.00610E+04-8.56517E-10 9.93168E-10
 -1       683 6.43003E+05-2.53290E+03 9.74663E+03 1.66382E+03-5.76961E-10 2.46473E-09
 -1       684 6.46705E+05 2.95809E+03 6.30072E+03-1.30664E+04-1.32943E-09 9.96806E-10
 -1       685 6.44499E+05-3.76637E+02 2.57325E+03-4.47785E+02 4.23071E-10 2.91709E-09
 -1       686 6.44955E+05 4.97193E+02 1.61501E+03-1.05458E+04 1.75029E-09 2.75145E-09
 -1       687 6.44726E+05-5.66510E+01 9.47701E+02-8.56682E+02-1.20820E-09 1.90153E-09
 -1       688 6.44937E+05 1.94647E+02 1.04514E+03-1.12307E+04 3.12404E-10 3.26919E-09
 -1       689 6.44525E+05-7.92946E+01 1.37472E+03 2.37041E+02-2.31068E-11 3.37928E-09
 -1       690 6.46356E+05 7.40206E+02 3.11845E+03-1.54522E+04-9.26264E-11 4.21733E-09
 -1       691 6.43365E+05-6.40658E+02 4.78832E+03 3.36473E+03 1.75044E-09-1.06934E-09
 -1       692 6.53271E+05 5.31858E+03 1.31213E+04-2.52602E+04-2.50566E-10 1.04592E-09
 -1       693 6.37849E+05-4.80864E+03 1.84942E+04 1.00460E+04-4.46732E-09-3.27236E-09
 -1       694 6.86877E+05 3.79151E+04 5.76980E+04-4.56171E+04-1.17199E-08-3.86353E-09
 -1       695 6.10701E+05-3.37971E+04 7.06598E+04 2.37357E+04-1.03068E-08-1.21036E-08
 -1       696-1.32682E+04 5.62840E+05 3.02587E+04-2.53196E+03 1.03682E-10-1.67597E-09
 -1       697 1.40546E+04 5.75710E+05 1.90259E+04 2.09633E+03 2.13731E-10-8.29921E-10
 -1       698-7.61637E+02 5.68700E+05 2.92097E+03-1.70964E+03-2.48292E-10 9.07207E-10
 -1       699-7.48725E+03 5.65643E+05-9.15408E+03 8.88533E+02-3.77213E-10 2.97935E-09
 -1       700 8.23693E+03 5.72914E+05-1.82364E+04-1.32425E+03-2.11912E-10 1.41441E-09
 -1       701-5.85520E+05-6.75381E+04-7.98854E+04-2.46845E+05-2.37742E-09-9.91349E-09
 -1       702-6.20453E+05-8.34271E+04-4.60474E+04-1.72776E+05-5.13296E-09-4.97903E-09
 -1       703-5.71662E+05-9.91883E+04-1.80882E+04-2.47019E+05-6.18002E-10 5.33146E-09
 -1       704-6.32477E+05-4.71817E+04-9.94183E+03-1.74006E+05-8.83921E-09-7.67295E-09
 -1       705-5.74312E+05-1.03129E+05-4.68576E+03-2.46292E+05 4.03588E-11 7.90988E-09
 -1       706-6.00187E+05-4.94835E+04 2.81699E+03-1.79115E+05-6.97054E-09-1.51549E-08
 -1       707-6.03100E+05-9.75062E+04-6.05100E+03-2.41233E+05-4.30555E-09-3.41390E-09
 -1       708-5.50400E+05-7.02022E+04 9.62906E+03-1.99174E+05-1.00383E-08-9.63325E-10
 -1       709-6.23018E+05-8.32119E+04-7.16941E+03-2.25420E+05 7.58882E-09-6.27955E-09
 -1       710-5.36078E+05-1.00758E+05 5.22542E+03-2.35766E+05 2.26186E-08-5.39046E-10
 -1       711-6.17987E+05-6.65362E+04-6.19440E+03-2.05106E+05 8.49468E-09 2.27176E-08
 -1       712-5.50260E+05-1.26299E+05-9.62231E+03-2.63840E+05-5.27416E-09 2.77587E-08
 -1       713-6.10087E+05-5.67469E+04-1.78819E+04-1.98259E+05-6.41535E-09-1.89711E-08
 -1       714-5.64748E+05-1.53076E+05-4.99615E+04-2.52776E+05-5.47197E-09-2.49856E-08
 -1       715-6.03247E+05-4.00047E+04-8.05308E+04-2.15966E+05 7.63248E-09 1.96815E-09
 -1       716 3.47268E+05-2.34371E+04 4.71706E+04 1.62738E+04 1.57420E-08-4.98039E-09
 -1       717 4.10332E+05 2.60934E+04 4.06833E+04-3.64893E+04 4.28372E-09-8.85120E-09
 -1       718 3.67452E+05-3.35729E+03 1.21094E+04 8.30675E+03 9.37234E-10 1.44792E-09
 -1       719 3.84042E+05 3.61747E+03 9.69678E+03-2.40343E+04-6.18002E-10 8.07972E-10
 -1       720 3.72724E+05-4.36394E+02 3.23018E+03 3.80454E+03 1.38175E-09 3.73177E-09
 -1       721 3.76976E+05 5.35909E+02 2.70352E+03-1.71506E+04 3.20796E-09 9.97858E-10
 -1       722 3.74225E+05-8.05248E+01 1.56003E+03 1.42180E+03 6.21785E-09 2.85182E-09
 -1       723 3.75125E+05 4.52983E+02 2.21847E+03-1.38594E+04 2.35904E-09 5.99266E-09
 -1       724 3.74476E+05-2.87169E+02 3.32140E+03 5.13780E+02 7.89925E-09 4.71505E-09
 -1       725 3.75836E+05 2.30888E+03 7.24643E+03-1.32698E+04 5.26717E-09 5.63023E-09
 -1       726 3.73498E+05-1.92375E+03 1.23371E+04 8.32328E+02 6.94006E-09 2.75440E-09
 -1       727 3.82760E+05 1.45274E+04 3.04895E+04-1.52299E+04 9.55504E-09 2.45063E-09
 -1       728 3.67600E+05-1.25195E+04 4.81479E+04 2.47365E+03 2.80835E-09 5.63887E-11
 -1       729 4.22486E+05 9.32288E+04 1.32788E+05-2.05411E+04 5.73323E-10 3.39060E-09
 -1       730 3.33976E+05-8.05880E+04 1.86026E+05 6.14284E+03 4.08716E-09-2.25555E-09
 -1       731-1.90276E+04 2.01585E+05 3.29645E+04-1.48804E+04-6.51926E-09-5.77438E-09
 -1       732 2.06896E+04 2.78423E+05 3.40486E+04 4.33367E+04 3.14685E-09 1.60526E-10
 -1       733-2.62116E+03 2.24341E+05 7.84575E+03-8.85337E+03-1.47247E-09-3.11957E-10
 -1       734 2.56238E+03 2.46743E+05 7.51712E+03 3.38812E+04 1.05206E-09-7.90851E-09
 -1       735-6.97500E+01 2.32015E+05 7.32458E+02-5.40643E+03 1.32150E-09-5.55326E-09
 -1       736-1.02755E+06-1.62219E+05-8.79708E+04-4.68469E+05 1.82808E-08-6.59202E-09
 -1       737-1.16810E+06-9.98636E+04-5.18180E+04-2.89100E+05 2.36178E-08-7.87168E-09
 -1       738-1.09828E+06-1.86838E+05-2.98128E+04-4.60821E+05 3.53688E-09 1.11277E-08
 -1       739-1.00800E+06-1.09279E+05 1.41625E+04-3.32700E+05 3.79032E-09-1.21395E-09
 -1       740-1.18369E+06-1.56113E+05-2.31599E+04-4.21692E+05 7.65431E-09 1.34582E-08
 -1       741-9.55219E+05-1.88686E+05 1.72431E+04-4.37020E+05 2.10977E-08 3.64045E-08
 -1       742-1.15240E+06-1.06278E+05-3.71964E+03-3.57701E+05 9.15384E-09-1.90232E-08
 -1       743-9.84437E+05-2.31877E+05 4.75940E+03-4.98100E+05 3.55074E-09 2.51231E-08
 -1       744-1.15750E+06-1.10311E+05-5.40265E+03-3.62920E+05-7.59987E-08-2.29105E-08
 -1       745-9.52849E+05-1.79139E+05 1.97673E+04-4.24469E+05-4.75284E-08-5.63045E-09
 -1       746-1.18047E+06-1.62047E+05-2.31986E+04-4.28637E+05-6.20184E-09 2.20098E-10
 -1       747-1.02393E+06-1.01024E+05 1.37322E+04-3.25141E+05 1.34443E-08-6.17365E-09
 -1       748-1.08592E+06-1.88861E+05-2.56197E+04-4.61696E+05 1.58122E-08 2.02854E-08
 -1       749-1.17329E+06-9.40469E+04-4.70132E+04-2.89195E+05 7.11475E-09 3.46981E-08
 -1       750-1.03497E+06-1.65793E+05-8.03861E+04-4.67711E+05 4.12001E-09 2.56514E-08
 -1       751 3.66504E+06-2.08527E+05 4.86529E+05 1.63879E+04-2.72274E-08 6.98492E-10
 -1       752 3.87686E+06 2.41546E+05 3.43633E+05-1.86319E+04-4.36930E-09-4.00178E-09
 -1       753 3.74713E+06-3.25015E+04 1.26120E+05 2.63495E+03 2.09955E-09 2.53931E-09
 -1       754 3.78168E+06 3.76288E+04 7.91513E+04-2.76530E+03 1.54883E-09 5.15502E-09
 -1       755 3.76054E+06-5.05994E+03 3.25075E+04 5.24927E+02-2.88918E-09 1.55342E-09
 -1       756 3.76621E+06 5.93114E+03 1.94002E+04-3.25362E+02 4.00142E-10 1.72076E-09
 -1       757 3.76275E+06-8.62798E+02 9.57091E+03 1.95065E+02-2.87664E-10 1.49157E-09
 -1       758 3.76392E+06 1.53685E+03 7.65423E+03 4.80849E+01-9.15641E-11-1.75169E-09
 -1       759 3.76287E+06-6.72568E+02 7.81212E+03 1.51477E+02-1.93217E-09-9.61563E-10
 -1       760 3.76532E+06 4.28802E+03 1.43294E+04 4.54688E+01 9.63638E-10 3.33512E-09
 -1       761 3.76133E+06-3.60950E+03 2.33581E+04 1.97681E+02 6.39271E-09 7.81256E-10
 -1       762 3.77627E+06 2.67831E+04 5.63977E+04-3.45856E+02 4.15620E-09 2.92584E-09
 -1       763 3.75181E+06-2.31264E+04 8.96970E+04 5.42792E+02 8.44369E-09 1.36788E-09
 -1       764 3.84323E+06 1.71693E+05 2.44149E+05-2.93207E+03 5.02612E-09 2.64117E-09
 -1       765 3.69403E+06-1.48208E+05 3.45776E+05 2.78344E+03-2.06599E-09-1.44064E-09
 -1       766-8.36581E+04 3.88508E+05 1.93602E+05-2.25155E+04 3.31056E-09-5.94355E-10
 -1       767 1.00208E+05 4.89197E+05 1.46663E+05 9.38041E+04 1.34605E-09 2.78708E-09
 -1       768-1.61732E+04 4.24134E+05 6.53627E+04-2.04244E+04 4.87307E-09-5.17593E-09
 -1       769 4.88022E+04 4.94354E+05 8.29534E+04 1.02095E+05 4.59863E-09 3.87161E-10
 -1       770-3.33906E+04 3.84857E+05 6.69536E+04-3.08186E+04-2.62262E-08 6.75846E-09
 -1       771-2.08883E+06-4.22010E+05-7.41633E+04-9.01523E+05-8.91305E-10-9.31323E-10
 -1       772-2.08420E+06-4.19196E+05-3.62897E+04-9.30959E+05-3.35422E-09-1.44155E-09
 -1       773-2.09197E+06-3.93790E+05-1.54643E+04-9.13893E+05-1.89902E-09-1.49157E-10
 -1       774-2.07636E+06-4.09596E+05-7.52992E+03-9.33543E+05 1.32059E-09-2.27328E-09
 -1       775-2.09295E+06-3.92354E+05-3.50788E+03-9.14684E+05-2.91038E-10-1.90084E-10
 -1       776-2.07617E+06-4.09117E+05-1.75955E+03-9.34063E+05 1.20781E-09-2.51794E-09
 -1       777-2.09350E+06-3.92119E+05-9.77969E+02-9.14907E+05-9.45874E-11-1.60640E-09
 -1       778-2.07644E+06-4.09018E+05-7.56602E+02-9.34420E+05-9.96806E-10-1.63124E-09
 -1       779-2.09382E+06-3.91922E+05-9.69014E+02-9.15061E+05-4.29281E-10-9.62700E-10
 -1       780-2.07672E+06-4.08951E+05-1.77079E+03-9.34685E+05 1.22782E-10-4.82032E-10
 -1       781-2.09393E+06-3.91760E+05-3.50802E+03-9.15140E+05 4.15821E-09 5.26506E-09
 -1       782-2.07742E+06-4.09329E+05-7.63178E+03-9.34833E+05 1.60071E-10-2.40107E-10
 -1       783-2.09361E+06-3.92783E+05-1.56230E+04-9.14586E+05 4.52019E-10 6.11180E-09
 -1       784-2.08544E+06-4.19516E+05-3.68671E+04-9.33405E+05-2.46303E-10-6.27551E-11
 -1       785-2.09135E+06-4.20813E+05-7.52379E+04-9.01796E+05 2.62480E-09 5.23141E-09
 -1       786 3.78006E+05-1.12713E+04 4.89238E+04-2.73162E+03 9.54969E-12 1.49521E-09
 -1       787 3.95635E+05 1.53359E+04 3.13252E+04-1.10788E+04 2.03499E-10 2.80488E-09
 -1       788 3.85379E+05-1.16126E+03 1.26779E+04-2.73779E+03-4.42242E-10-4.98858E-10
 -1       789 3.87413E+05 1.50586E+03 7.07640E+03-1.10504E+04 7.92681E-10-3.30954E-09
 -1       790 3.86213E+05-1.26234E+02 3.22123E+03-2.75841E+03 2.66368E-10 1.91903E-10
 -1       791 3.86465E+05 1.45008E+02 1.72869E+03-1.10205E+04 3.70164E-10 2.11435E-09
 -1       792 3.86320E+05-1.60804E+01 8.87710E+02-2.76769E+03 2.89930E-10-1.39630E-09
 -1       793 3.86347E+05 1.80208E+01 5.92388E+02-1.10143E+04-6.92779E-12 1.40790E-09
 -1       794 3.86329E+05-9.35134E+00 5.51342E+02-2.76468E+03-1.35316E-09-2.25560E-09
 -1       795 3.86386E+05 6.22745E+01 8.43053E+02-1.10331E+04 1.25056E-10-8.31610E-11
 -1       796 3.86286E+05-5.78968E+01 1.45750E+03-2.74886E+03-2.92425E-09-2.40254E-09
 -1       797 3.86807E+05 6.57797E+02 3.13612E+03-1.10744E+04-3.73245E-09 3.57886E-10
 -1       798 3.85921E+05-5.15742E+02 5.58987E+03-2.72334E+03-2.77964E-09-2.75804E-10
 -1       799 3.90436E+05 6.74330E+03 1.37970E+04-1.11092E+04-3.78736E-09-5.32054E-11
 -1       800 3.82676E+05-4.97104E+03 2.15362E+04-2.71493E+03 6.59156E-10-3.00133E-11
 -1       801-1.71642E+04 4.34629E+05 5.87890E+04-3.12817E+05 1.43336E-09 2.91766E-09
 -1       802 4.16906E+04 4.49504E+05 6.28335E+04-1.21908E+06-7.83621E-09-2.43563E-09
 -1       803 2.49784E+01 4.33634E+05 6.49176E+04-3.12299E+05 3.44880E-09 6.19866E-09
 -1       804 8.21920E+04 4.74722E+05 1.35318E+05-1.21898E+06-1.05501E-08-7.48696E-09
 -1       805-5.05805E+04 4.10721E+05 1.95742E+05-3.12948E+05 3.66708E-09 2.27737E-09
 -1       806-3.90002E+05-1.03518E+05-3.31459E+04-1.79280E+05 1.55569E-09 7.23958E-10
 -1       807-3.90198E+05-9.51081E+04-1.57255E+04-1.89371E+05 1.24214E-09 2.00725E-09
 -1       808-3.89826E+05-8.65948E+04-6.61156E+03-1.86430E+05 2.20416E-09-1.69894E-09
 -1       809-3.86933E+05-8.91553E+04-3.19485E+03-1.90745E+05 5.05588E-09 1.34952E-09
 -1       810-3.89913E+05-8.54344E+04-1.44467E+03-1.86954E+05 1.04046E-09 5.68207E-10
 -1       811-3.86616E+05-8.87593E+04-7.24492E+02-1.90803E+05 7.48059E-11 4.73506E-09
 -1       812-3.89940E+05-8.53996E+04-3.80202E+02-1.86979E+05 3.61524E-11-3.05181E-09
 -1       813-3.86580E+05-8.87489E+04-2.83171E+02-1.90794E+05 6.10385E-10 1.76806E-09
 -1       814-3.89935E+05-8.54057E+04-3.33191E+02-1.86974E+05-1.49385E-10-1.47884E-09
 -1       815-3.86596E+05-8.87641E+04-5.99513E+02-1.90789E+05 5.68662E-09 1.04865E-09
 -1       816-3.89897E+05-8.54429E+04-1.17597E+03-1.86946E+05-7.13953E-10-3.47427E-09
 -1       817-3.86847E+05-8.90833E+04-2.59114E+03-1.90721E+05 2.10457E-09 2.14095E-09
 -1       818-3.89807E+05-8.63992E+04-5.35821E+03-1.86521E+05 1.99998E-09-3.24690E-10
 -1       819-3.89539E+05-9.38453E+04-1.27396E+04-1.89522E+05 1.31149E-09 4.84215E-09
 -1       820-3.89875E+05-1.00164E+05-2.68516E+04-1.80782E+05-4.37831E-09-4.44152E-09
 -1       821-3.92062E+05 1.16489E+04-5.06090E+04 2.74895E+03-4.02360E-09 2.18097E-09
 -1       822-4.10263E+05-1.58670E+04-3.24038E+04 1.17043E+04-1.07048E-09 3.37968E-09
 -1       823-3.99696E+05 1.19407E+03-1.31206E+04 2.64275E+03 3.78259E-09-2.72030E-09
 -1       824-4.01795E+05-1.53858E+03-7.32491E+03 1.18592E+04-6.10612E-10-3.23735E-09
 -1       825-4.00563E+05 1.31684E+02-3.35110E+03 2.59233E+03-8.82824E-09 1.06093E-09
 -1       826-4.00841E+05-1.18915E+02-1.82355E+03 1.19425E+04-1.50836E-08 3.74428E-10
 -1       827-4.00676E+05 2.39113E+01-9.92346E+02 2.55903E+03-7.31995E-09-8.11553E-10
 -1       828-4.00741E+05 1.38484E+01-7.64991E+02 1.19946E+04-8.10087E-09 3.33870E-10
 -1       829-4.00681E+05 2.37571E+01-8.68440E+02 2.54016E+03 1.85668E-09-2.80429E-09
 -1       830-4.00830E+05-8.13415E+01-1.50004E+03 1.20165E+04 1.23585E-08 1.47907E-09
 -1       831-4.00595E+05 1.13541E+02-2.70323E+03 2.53707E+03-2.43921E-09-3.40356E-09
 -1       832-4.01607E+05-1.21364E+03-5.88388E+03 1.20069E+04-1.57007E-09-7.21047E-09
 -1       833-3.99902E+05 9.68931E+02-1.05224E+04 2.55006E+03-9.60881E-10-1.56979E-09
 -1       834-4.08410E+05-1.26998E+04-2.59884E+04 1.19488E+04-1.53523E-09-4.00860E-09
 -1       835-3.93782E+05 9.35619E+03-4.05811E+04 2.59834E+03 2.34672E-09-9.58607E-10
 -1       836-1.87271E+04 1.01372E+06 8.57795E+04-2.72967E+04-1.37516E-09 2.19916E-09
 -1       837 2.89120E+04 1.04515E+06 6.66961E+04-1.03557E+05 4.88694E-09-2.59297E-09
 -1       838-4.48936E+03 1.02382E+06 4.94232E+04-2.73517E+04-2.45018E-09-3.18266E-10
 -1       839 3.82841E+04 1.05070E+06 8.33206E+04-1.03533E+05 5.10045E-09 1.31877E-10
 -1       840-2.62534E+04 1.00815E+06 1.17257E+05-2.73192E+04-1.83354E-09 2.07729E-09
 -1       841-3.57361E+04 1.29678E+03-1.64840E+04-1.63634E+04-5.13728E-09-2.35559E-09
 -1       842-4.47679E+04-1.33938E+04-1.14230E+04-1.30639E+04-3.24735E-09 1.11606E-09
 -1       843-3.90665E+04-4.63180E+03-3.86319E+03-1.52764E+04 2.87673E-09 1.89766E-09
 -1       844-4.09174E+04-6.51291E+03-2.40003E+03-1.43032E+04 3.11701E-09 5.68434E-12
 -1       845-3.95857E+04-5.57377E+03-8.85966E+02-1.51283E+04 1.15924E-09 1.04706E-09
 -1       846-4.03235E+04-5.40981E+03-4.92566E+02-1.44641E+04-7.66297E-09-2.56063E-09
 -1       847-3.96606E+04-5.73318E+03-1.62176E+02-1.51163E+04-6.32741E-09 4.17486E-10
 -1       848-4.02274E+04-5.20112E+03-7.62004E+00-1.44770E+04-3.23803E-09-1.05197E-09
 -1       849-3.96820E+04-5.78207E+03 1.44398E+02-1.51158E+04 4.68819E-09-4.99369E-11
 -1       850-4.01195E+04-5.01538E+03 4.56251E+02-1.45020E+04 1.17809E-08 2.60988E-09
 -1       851-3.97686E+04-5.91866E+03 8.21932E+02-1.50914E+04-2.83326E-09-3.80379E-09
 -1       852-3.95164E+04-4.02431E+03 2.23654E+03-1.46904E+04-3.67432E-09-6.53290E-09
 -1       853-4.02846E+04-6.77183E+03 3.59183E+03-1.49278E+04-1.43314E-09 1.94609E-09
 -1       854-3.58528E+04 2.31968E+03 1.06377E+04-1.59098E+04-1.07093E-10 2.97860E-09
 -1       855-4.34301E+04-1.22532E+04 1.53366E+04-1.38752E+04-1.69712E-09 2.18824E-09
 -1       856-4.60912E+05 1.07669E+04-4.68592E+04 5.46085E+03-6.51198E-09 5.27507E-10
 -1       857-4.77744E+05-1.46256E+04-2.99875E+04 2.36656E+04-3.90332E-09-1.00044E-09
 -1       858-4.67987E+05 1.11007E+03-1.21487E+04 5.27712E+03-8.66066E-09 1.81399E-09
 -1       859-4.69965E+05-1.34219E+03-6.77328E+03 2.39330E+04-6.02768E-10-2.17005E-09
 -1       860-4.68798E+05 1.39349E+02-3.09466E+03 5.18976E+03-1.31695E-09-2.12822E-09
 -1       861-4.69117E+05-1.34696E+01-1.66910E+03 2.40652E+04-1.26920E-08-3.72268E-09
 -1       862-4.68907E+05 4.56819E+01-8.83038E+02 5.14407E+03 1.03581E-08 2.24713E-09
 -1       863-4.69033E+05 1.16708E+02-6.35838E+02 2.41212E+04 2.84763E-08-4.98329E-09
 -1       864-4.68915E+05 4.34675E+01-6.63892E+02 5.13351E+03 1.35087E-08-3.89645E-09
 -1       865-4.69082E+05 4.71279E+01-1.09458E+03 2.41061E+04 1.57764E-08-6.64744E-09
 -1       866-4.68850E+05 1.01339E+02-1.94713E+03 5.15927E+03 8.12088E-09-2.76486E-10
 -1       867-4.69602E+05-7.77405E+02-4.21503E+03 2.40170E+04 9.10063E-10-2.81403E-09
 -1       868-4.68346E+05 7.00799E+02-7.54126E+03 5.22315E+03 1.47961E-08-1.90266E-09
 -1       869-4.74411E+05-9.02071E+03-1.86001E+04 2.38008E+04-1.31104E-09-1.96246E-09
 -1       870-4.63955E+05 6.68343E+03-2.90662E+04 5.37850E+03 5.84987E-09 4.11092E-10
 -1       871-4.57185E+03-4.16773E+04-8.02350E+03 1.19803E+05 6.19002E-09-4.59204E-09
 -1       872-1.57350E+03-4.31063E+04-2.34650E+03 1.40076E+05 3.79805E-09-5.41695E-09
 -1       873-5.97030E+01-4.26201E+04 2.34148E+03 1.19579E+05 2.37469E-09 1.64846E-09
 -1       874 2.62208E+03-4.07140E+04 8.75765E+03 1.40180E+05 7.35781E-09-2.76520E-09
 -1       875 8.99639E+03-4.42026E+04 1.89166E+04 1.19723E+05 4.06362E-09 1.16870E-10
 -1       876 5.53292E+05 6.99614E+04 5.23710E+04 2.18200E+05 5.36602E-09-6.14091E-09
 -1       877 5.64984E+05 1.10974E+05 3.30609E+04 2.26059E+05-1.81763E-09 2.60661E-09
 -1       878 5.62256E+05 8.19788E+04 1.23630E+04 2.16976E+05 2.11844E-09 5.55701E-10
 -1       879 5.54681E+05 9.53551E+04 6.80979E+03 2.28142E+05-1.92323E-08-3.85899E-09
 -1       880 5.63222E+05 8.33351E+04 2.88754E+03 2.16938E+05-1.72415E-08 8.81755E-10
 -1       881 5.53568E+05 9.36335E+04 1.55210E+03 2.28194E+05-2.06901E-08-8.46231E-09
 -1       882 5.63305E+05 8.35204E+04 8.28254E+02 2.16976E+05 6.90761E-10 2.56026E-09
 -1       883 5.53484E+05 9.34346E+04 7.14116E+02 2.28136E+05-1.21065E-08 2.60559E-09
 -1       884 5.63288E+05 8.35311E+04 9.31893E+02 2.16989E+05-5.18128E-11-1.60327E-09
 -1       885 5.53642E+05 9.36258E+04 1.83686E+03 2.28129E+05 3.03257E-08 2.68187E-09
 -1       886 5.63151E+05 8.33445E+04 3.46686E+03 2.16978E+05 6.84906E-09 4.74984E-10
 -1       887 5.55037E+05 9.56369E+04 8.19688E+03 2.27978E+05-1.14682E-09-3.72165E-09
 -1       888 5.61944E+05 8.17512E+04 1.48976E+04 2.17061E+05-6.71605E-10-1.71622E-09
 -1       889 5.67499E+05 1.14394E+05 3.98321E+04 2.25379E+05 2.03659E-09 7.95808E-11
 -1       890 5.51110E+05 6.73099E+04 6.31115E+04 2.18566E+05-1.41608E-08 1.74259E-09
 -1       891 1.94148E+03-2.46733E+05-9.60169E+03 2.68434E+04 1.28089E-08-6.02085E-10
 -1       892-3.48088E+03-2.50048E+05-7.69933E+03 1.04349E+05-1.75055E-09-6.60657E-09
 -1       893 5.15243E+02-2.47838E+05-6.13810E+03 2.67088E+04 1.12479E-08 6.87805E-11
 -1       894-5.31027E+03-2.51112E+05-1.09323E+04 1.04337E+05-4.17276E-09 8.91305E-11
 -1       895 3.39922E+03-2.45643E+05-1.57225E+04 2.68547E+04 6.40193E-09 1.99816E-09
 -1       896 1.02221E+06-8.85467E+03 2.06137E+04 1.71615E+03-6.36728E-10-5.06498E-09
 -1       897 1.03105E+06 1.02603E+04 1.45731E+04 1.51708E+03-2.09191E-10-4.37922E-09
 -1       898 1.02565E+06-1.37951E+03 5.35446E+03 1.57453E+03 1.02255E-09-5.01313E-09
 -1       899 1.02704E+06 1.60431E+03 3.38261E+03 1.81822E+03 8.54513E-10-4.27508E-09
 -1       900 1.02622E+06-2.14678E+02 1.43177E+03 1.41503E+03 7.38805E-10-4.59818E-09
 -1       901 1.02640E+06 2.69006E+02 9.42181E+02 2.28836E+03 1.57779E-09-4.05404E-09
 -1       902 1.02630E+06-4.66331E+01 6.31954E+02 1.10439E+03 1.07538E-09-4.14187E-09
 -1       903 1.02637E+06 1.60178E+02 8.25562E+02 3.31317E+03-1.85024E-09-3.73609E-09
 -1       904 1.02625E+06-1.06791E+02 1.23716E+03 3.90208E+02-3.39853E-10-3.35081E-09
 -1       905 1.02683E+06 7.98700E+02 2.71011E+03 5.72382E+03 5.00108E-10-2.44398E-09
 -1       906 1.02584E+06-6.88416E+02 4.57606E+03-1.30630E+03 5.43650E-10-1.80808E-09
 -1       907 1.02977E+06 5.24535E+03 1.13913E+04 1.14788E+04 5.08862E-10 6.67796E-10
 -1       908 1.02334E+06-4.56970E+03 1.78226E+04-5.36494E+03 9.93282E-10 3.82352E-09
 -1       909 1.04776E+06 3.46254E+04 5.00319E+04 2.53799E+04 5.76497E-09 6.56019E-09
 -1       910 1.00805E+06-3.01487E+04 6.83784E+04-1.52083E+04 5.90717E-09 1.64000E-08
 -1       911 3.96208E+05-5.98973E+03 1.37957E+04-4.56034E+03-9.42134E-09 2.38006E-08
 -1       912 4.03610E+05 6.91361E+03 9.99469E+03 2.47965E+03-4.83509E-09 1.69657E-08
 -1       913 3.98834E+05-9.13654E+02 3.56619E+03-2.95376E+03-2.23559E-09 1.84534E-08
 -1       914 4.00508E+05 1.06009E+03 2.37012E+03-3.39743E+02-3.51488E-09 1.39632E-08
 -1       915 3.99293E+05-1.34644E+02 9.46092E+02-1.74076E+03 2.16195E-09 1.36895E-08
 -1       916 4.00033E+05 1.72301E+02 7.43172E+02-2.74510E+03 5.28316E-09 9.94507E-09
 -1       917 3.99309E+05-2.68947E+01 4.46114E+02-5.48321E+02 4.84476E-09 9.64858E-09
 -1       918 4.00286E+05 1.05506E+02 8.16072E+02-5.45877E+03-7.21695E-09 6.39636E-09
 -1       919 3.99056E+05-7.87998E+01 1.00525E+03 9.72948E+02 2.20416E-09 4.29407E-09
 -1       920 4.01555E+05 6.28093E+02 2.68525E+03-9.27632E+03 5.79658E-09 7.04574E-11
 -1       921 3.98092E+05-5.84364E+02 3.89368E+03 3.26940E+03-4.05475E-09-3.15458E-09
 -1       922 4.06450E+05 4.55633E+03 1.08930E+04-1.53216E+04-4.13780E-09-7.82347E-09
 -1       923 3.94316E+05-4.10536E+03 1.54551E+04 7.01950E+03-3.60023E-09-1.55969E-08
 -1       924 4.27487E+05 3.12247E+04 4.65469E+04-2.55445E+04-5.65296E-09-2.22340E-08
 -1       925 3.77504E+05-2.75077E+04 6.00899E+04 1.34997E+04-5.29485E-09-3.66781E-08
 -1       926-7.63932E+05 1.36887E+04-4.40812E+04-3.84425E+04 3.56840E-09-6.89070E-08
 -1       927-7.49235E+05-1.48632E+04-2.45224E+04 8.37042E+04-4.65017E-08-8.21433E-08
 -1       928-7.50379E+05 2.29749E+03-9.94878E+03-4.76964E+04 4.17282E-09-8.79213E-08
 -1       929-7.36182E+05-2.72109E+02-2.21633E+03 8.02585E+04 5.94982E-08-7.76754E-08
 -1       930-7.76622E+05-1.15807E+03-7.40023E+03-3.49842E+04-9.09836E-09-6.66411E-08
 -1       931-6.79947E+05 2.54204E+03 1.34625E+04 3.78113E+04-8.44079E-09-3.46856E-08
 -1       932-8.03492E+05-2.99759E+03-1.07281E+04-5.19373E+03 1.08662E-08-1.46221E-08
 -1       933-6.69664E+05 3.01487E+03 1.71181E+04-2.42012E+04-5.66251E-09 2.30053E-08
 -1       934-7.86344E+05-2.07660E+03-5.54654E+03 2.69454E+04-1.59112E-08 4.42582E-08
 -1       935-7.21121E+05 3.31602E+03 9.76567E+03-7.42468E+04-6.17274E-09 6.79103E-08
 -1       936-7.54989E+05-9.43643E+02 5.43702E+03 4.48599E+04 8.74252E-10 7.79637E-08
 -1       937-7.43316E+05 9.05032E+03 1.56730E+04-8.83700E+04-4.23059E-08 7.68964E-08
 -1       938-7.65569E+05-6.66395E+03 2.01809E+04 4.11135E+04-3.36859E-08 7.21438E-08
 -1       939-6.80894E+05 4.83422E+04 7.17585E+04-6.09873E+04-2.47355E-08 4.83824E-08
 -1       940-8.14838E+05-4.21816E+04 7.58989E+04 1.74115E+04-1.69621E-10 3.38332E-08
 -1       941 5.95939E+06-2.95850E+05 6.92002E+05 1.52125E+03 2.98303E-08 5.55883E-09
 -1       942 6.25733E+06 3.42847E+05 4.88014E+05 2.30781E+03 3.97703E-08 8.55653E-09
 -1       943 6.07476E+06-4.61766E+04 1.79439E+05 1.88264E+03 2.12077E-06 1.43118E-08
 -1       944 6.12379E+06 5.34717E+04 1.12643E+05 1.92620E+03 4.21059E-06-4.57476E-09
 -1       945 6.09387E+06-7.19298E+03 4.63682E+04 1.90323E+03 2.86768E-06-1.19144E-09
 -1       946 6.10189E+06 8.44872E+03 2.77863E+04 1.90476E+03 1.50628E-06 8.51514E-09
 -1       947 6.09703E+06-1.24175E+03 1.39277E+04 1.90422E+03 2.00698E-06 5.27962E-09
 -1       948 6.09870E+06 2.30580E+03 1.15259E+04 1.90276E+03 2.56721E-06 5.12557E-09
 -1       949 6.09714E+06-1.06005E+03 1.22482E+04 1.90526E+03 9.32069E-06-1.70091E-08
 -1       950 6.10105E+06 6.87959E+03 2.29462E+04 1.88705E+03 1.60438E-05 3.60524E-09
 -1       951 6.09463E+06-5.80806E+03 3.76382E+04 1.91992E+03 8.06648E-06-1.38607E-09
 -1       952 6.11866E+06 4.31205E+04 9.09500E+04 1.65951E+03 5.50312E-08 6.54109E-09
 -1       953 6.07922E+06-3.72318E+04 1.44717E+05 2.13268E+03-8.14507E-09 5.02041E-10
 -1       954 6.22634E+06 2.76422E+05 3.93476E+05-1.70887E+03-7.19211E-09-5.70435E-09
 -1       955 5.98607E+06-2.38558E+05 5.57615E+05 5.28696E+03-2.49527E-08-2.35741E-09
 -1       956-3.19181E+05-5.50253E+03-1.15171E+04 4.43505E+04-6.61748E-09-1.64982E-09
 -1       957-3.21294E+05-1.71518E+03-5.80860E+03 5.14825E+04-1.95541E-10-5.12864E-09
 -1       958-3.20160E+05-1.70097E+02-2.61447E+03 4.40801E+04 6.89943E-09-4.60795E-09
 -1       959-3.20375E+05 3.25399E+01-1.32835E+03 5.17780E+04-3.05590E-09 1.37925E-09
 -1       960-3.20298E+05 1.06027E+02-6.45926E+02 4.40507E+04-8.57108E-09-2.19552E-09
 -1       961-3.20339E+05 1.35352E+02-3.39587E+02 5.18113E+04-1.65005E-08-1.41699E-09
 -1       962-3.20348E+05 1.25065E+02-1.91172E+02 4.40462E+04-6.93308E-09-2.04864E-09
 -1       963-3.20364E+05 1.53148E+02-1.46207E+02 5.18173E+04-9.34119E-09-9.14952E-10
 -1       964-3.20371E+05 1.38121E+02-1.69864E+02 4.40445E+04-8.39509E-09-4.98858E-09
 -1       965-3.20388E+05 1.63196E+02-2.87004E+02 5.18177E+04-7.24816E-09-3.59432E-09
 -1       966-3.20367E+05 1.45638E+02-5.36003E+02 4.40457E+04-1.16231E-08-1.98224E-09
 -1       967-3.20460E+05 1.01146E+02-1.10188E+03 5.18022E+04-3.33785E-09-4.46789E-09
 -1       968-3.20286E+05-6.20096E+01-2.16478E+03 4.40604E+04-8.54470E-10-4.97744E-09
 -1       969-3.21261E+05-1.32954E+03-4.81620E+03 5.16503E+04 1.17871E-09-2.07137E-09
 -1       970-3.19501E+05-4.47265E+03-9.54618E+03 4.42049E+04-1.22327E-10-5.32145E-09
 -1       971-6.47733E+05 8.96771E+03-3.90863E+04 5.21079E+03-6.46287E-09 4.64206E-09
 -1       972-6.61724E+05-1.21936E+04-2.50085E+04 2.34027E+04-6.36715E-09 5.09590E-09
 -1       973-6.53635E+05 9.20547E+02-1.01410E+04 4.96572E+03-9.81890E-09 4.80304E-09
 -1       974-6.55258E+05-1.10771E+03-5.66118E+03 2.37752E+04 2.29784E-09 7.21457E-09
 -1       975-6.54313E+05 1.15899E+02-2.61056E+03 4.83555E+03-1.33150E-09 3.44971E-09
 -1       976-6.54569E+05 6.54225E+00-1.44950E+03 2.39780E+04-1.04797E-08 7.33223E-09
 -1       977-6.54404E+05 4.21601E+01-8.51513E+02 4.76211E+03 9.71272E-09 3.14407E-09
 -1       978-6.54521E+05 1.12167E+02-7.66989E+02 2.40747E+04 2.86390E-08 1.95087E-09
 -1       979-6.54402E+05 4.95314E+01-1.01476E+03 4.73865E+03 1.16970E-08 1.48594E-09
 -1       980-6.54638E+05-2.12311E+01-1.88438E+03 2.40705E+04 1.77669E-08 2.53931E-09
 -1       981-6.54286E+05 1.61592E+02-3.47041E+03 4.76629E+03 2.70074E-09-1.11186E-10
 -1       982-6.55616E+05-1.49919E+03-7.59506E+03 2.39633E+04-1.49339E-09 3.30670E-09
 -1       983-6.53383E+05 1.25776E+03-1.36089E+04 4.84673E+03 5.81895E-09-2.23827E-09
 -1       984-6.64367E+05-1.63784E+04-3.36116E+04 2.37072E+04-2.56068E-09 2.94631E-09
 -1       985-6.45459E+05 1.20927E+04-5.25054E+04 5.02778E+03 1.05874E-08 9.34961E-10
 -3
    1PSTEP                        37          19           1          
  100CL  119 8.74288E-01         841                     0   19           1
 -4  DISP        4    1
 -5  D1          1    2    1    0
 -5  D2          1    2    2    0
 -5  D3          1    2    3    0
 -5  ALL         1    2    0    0    1ALL
 -1         1 1.09235E-04 0.00000E+00 0.00000E+00
 -1         2 8.59620E-05 0.00000E+00 0.00000E+00
 -1         3 7.19975E-05 0.00000E+00 0.00000E+00
 -1         4 6.19448E-05 0.00000E+00 0.00000E+00
 -1         5 5.60086E-05 0.00000E+00 0.00000E+00
 -1         8 8.63507E-05-1.09689E-06 0.00000E+00
 -1         9 6.68975E-05 7.41872E-07 0.00000E+00
 -1        10 6.34639E-05-2.78731E-06 0.00000E+00
 -1        11 5.88118E-05-5.50122E-07 0.00000E+00
 -1        12 5.36599E-05 1.38753E-06 0.00000E+00
 -1        15 4.24784E-05-1.73874E-06 0.00000E+00
 -1        16 5.02582E-05 6.89855E-07 0.00000E+00
 -1        17 4.51254E-05-5.57855E-06 0.00000E+00
 -1        18 4.54914E-05-1.08446E-06 0.00000E+00
 -1        19 4.78412E-05 2.74636E-06 0.00000E+00
 -1        20 4.85721E-05 2.94718E-05 0.00000E+00
 -1        21 4.85388E-05 7.04436E-05 0.00000E+00
 -1        22 1.36229E-05-1.19089E-06 0.00000E+00
 -1        23 1.69552E-05 1.13049E-06 0.00000E+00
 -1        24 1.87229E-05-6.60161E-06 0.00000E+00
 -1        25 3.99715E-05-7.22648E-07 0.00000E+00
 -1        26 4.21568E-05 3.65136E-06 0.00000E+00
 -1        27 3.98679E-05 2.84160E-05 0.00000E+00
 -1        28 3.71510E-05 6.94462E-05 0.00000E+00
 -1        29 0.00000E+00 0.00000E+00 0.00000E+00
 -1        30 5.72326E-06 1.40191E-06 0.00000E+00
 -1        31 7.66677E-06-5.86576E-06 0.00000E+00
 -1        32 0.00000E+00 0.00000E+00 0.00000E+00
 -1        33 3.44386E-05 5.79776E-06 0.00000E+00
 -1        34 3.25932E-05 2.83162E-05 0.00000E+00
 -1        35 2.88166E-05 6.89134E-05 0.00000E+00
 -1        36 1.07824E-04 1.97683E-18-2.64698E-23
 -1        37 1.06369E-04 7.86921E-18-1.32349E-23
 -1        38 1.04918E-04 1.37100E-17 0.00000E+00
 -1        39 1.03457E-04 1.58057E-17 0.00000E+00
 -1        40 1.01997E-04 1.38557E-17 5.29396E-23
 -1        41 1.00535E-04 8.01944E-18-2.64698E-23
 -1        42 9.90725E-05 2.16349E-18 0.00000E+00
 -1        43 9.76099E-05 1.87439E-21-2.64698E-23
 -1        44 9.61473E-05 1.93474E-18 0.00000E+00
 -1        45 9.46848E-05 7.71161E-18 0.00000E+00
 -1        46 9.32225E-05 1.34692E-17 0.00000E+00
 -1        47 9.17614E-05 1.53922E-17 2.64698E-23
 -1        48 9.03003E-05 1.35185E-17 0.00000E+00
 -1        49 8.88452E-05 7.78915E-18-2.64698E-23
 -1        50 8.73881E-05 2.09004E-18-2.64698E-23
 -1        51 1.07510E-04-1.85331E-07 0.00000E+00
 -1        52 1.04649E-04-3.62813E-07 0.00000E+00
 -1        53 1.00872E-04-5.39789E-07 0.00000E+00
 -1        54 9.64088E-05-7.18782E-07 0.00000E+00
 -1        55 9.14908E-05-9.01894E-07 0.00000E+00
 -1        56 1.07063E-04-9.79389E-07 0.00000E+00
 -1        57 1.04902E-04-2.23211E-06 0.00000E+00
 -1        58 1.02796E-04-3.62007E-06-5.29396E-23
 -1        59 1.00685E-04-5.03682E-06 0.00000E+00
 -1        60 9.85400E-05-6.36198E-06 0.00000E+00
 -1        61 9.63162E-05-7.48544E-06 2.64698E-23
 -1        62 9.39815E-05-8.31406E-06 0.00000E+00
 -1        63 9.15066E-05-8.77020E-06 0.00000E+00
 -1        64 8.88751E-05-8.80934E-06 5.29396E-23
 -1        65 8.60781E-05-8.40764E-06 0.00000E+00
 -1        66 8.31214E-05-7.58094E-06 0.00000E+00
 -1        67 8.00208E-05-6.36536E-06 0.00000E+00
 -1        68 7.68012E-05-4.83318E-06 0.00000E+00
 -1        69 7.35084E-05-3.06692E-06-2.64698E-23
 -1        70 7.01653E-05-1.18099E-06 0.00000E+00
 -1        71 8.50952E-05-1.02733E-19 2.64698E-23
 -1        72 8.42213E-05-1.85635E-19 1.32349E-23
 -1        73 8.33478E-05-7.69646E-20 0.00000E+00
 -1        74 8.24729E-05 1.45339E-19 0.00000E+00
 -1        75 8.15980E-05 2.35099E-19 0.00000E+00
 -1        76 8.07228E-05 2.68007E-19 0.00000E+00
 -1        77 7.98476E-05 2.25152E-19 0.00000E+00
 -1        78 7.89724E-05 1.16922E-19 0.00000E+00
 -1        79 7.80972E-05 4.10530E-21 0.00000E+00
 -1        80 7.72221E-05-5.14043E-20 1.32349E-23
 -1        81 7.63471E-05-5.22530E-21 0.00000E+00
 -1        82 7.54726E-05-5.28750E-20-1.32349E-23
 -1        83 7.45983E-05-5.57602E-20 0.00000E+00
 -1        84 7.37269E-05-4.13189E-20 0.00000E+00
 -1        85 7.28545E-05 7.81595E-20 0.00000E+00
 -1        86 8.50309E-05 1.04774E-07 0.00000E+00
 -1        87 8.22814E-05 2.39323E-07-1.65436E-24
 -1        88 7.84191E-05 3.68170E-07 0.00000E+00
 -1        89 7.41418E-05 4.97373E-07 8.27181E-25
 -1        90 7.00879E-05 6.29191E-07-6.61744E-24
 -1        91 8.07807E-05 1.16294E-05 0.00000E+00
 -1        92 6.63506E-05 4.63434E-05-1.32349E-23
 -1        93 4.91314E-05 8.77824E-05-2.64698E-23
 -1        94 3.59524E-05 1.19520E-04-1.32349E-23
 -1        95 3.09823E-05 1.30565E-04 0.00000E+00
 -1        96 3.76093E-05 1.10291E-04-6.61744E-24
 -1        97 5.28177E-05 6.48746E-05 0.00000E+00
 -1        98 7.37702E-05 1.34363E-06 6.61744E-24
 -1        99 9.49242E-05-6.28331E-05-1.32349E-23
 -1       100 1.10757E-04-1.10160E-04 0.00000E+00
 -1       101 1.18246E-04-1.32885E-04-2.64698E-23
 -1       102 1.14151E-04-1.24106E-04 0.00000E+00
 -1       103 1.01568E-04-9.38255E-05 1.32349E-23
 -1       104 8.43746E-05-5.24445E-05-6.61744E-24
 -1       105 6.94710E-05-1.65796E-05 0.00000E+00
 -1       106 7.13738E-05 3.66292E-20-1.32349E-23
 -1       107 7.07446E-05 5.29826E-20 0.00000E+00
 -1       108 7.01158E-05 1.45720E-20 0.00000E+00
 -1       109 6.94858E-05-1.03434E-19 1.32349E-23
 -1       110 6.88559E-05-4.24081E-19-2.64698E-23
 -1       111 6.82258E-05-7.21638E-19-1.32349E-23
 -1       112 6.75956E-05-8.16094E-19 0.00000E+00
 -1       113 6.69654E-05-7.10257E-19 1.32349E-23
 -1       114 6.63353E-05-6.77400E-19-2.64698E-23
 -1       115 6.57052E-05-5.86677E-19-1.32349E-23
 -1       116 6.50751E-05-4.06492E-19 0.00000E+00
 -1       117 6.44456E-05-2.21272E-19 6.61744E-24
 -1       118 6.38160E-05-8.17197E-20-1.32349E-23
 -1       119 6.31888E-05 5.68877E-20 0.00000E+00
 -1       120 6.25608E-05 9.87579E-20 1.32349E-23
 -1       121 7.17340E-05-4.64689E-07-1.32349E-23
 -1       122 7.09697E-05-9.28317E-07 0.00000E+00
 -1       123 6.97309E-05-1.39240E-06 0.00000E+00
 -1       124 6.80465E-05-1.85682E-06 0.00000E+00
 -1       125 6.59467E-05-2.32196E-06 1.32349E-23
 -1       126 7.45207E-05-7.60764E-06 0.00000E+00
 -1       127 8.24319E-05-3.02000E-05 0.00000E+00
 -1       128 9.42230E-05-6.40258E-05 6.61744E-24
 -1       129 1.08467E-04-1.05174E-04-3.30872E-24
 -1       130 1.23232E-04-1.47893E-04-6.61744E-24
 -1       131 1.36603E-04-1.86406E-04 3.30872E-24
 -1       132 1.46946E-04-2.15997E-04 0.00000E+00
 -1       133 1.52558E-04-2.32083E-04 0.00000E+00
 -1       134 1.52756E-04-2.33377E-04 0.00000E+00
 -1       135 1.46874E-04-2.18769E-04 3.30872E-24
 -1       136 1.35725E-04-1.90931E-04 0.00000E+00
 -1       137 1.20269E-04-1.52640E-04-3.30872E-24
 -1       138 1.02639E-04-1.09171E-04 0.00000E+00
 -1       139 8.50620E-05-6.58229E-05-3.30872E-24
 -1       140 6.97468E-05-2.78686E-05 6.61744E-24
 -1       141 6.15729E-05 3.85729E-20-1.32349E-23
 -1       142 6.11993E-05 1.99807E-19-6.61744E-24
 -1       143 6.08259E-05 3.73290E-19 0.00000E+00
 -1       144 6.04521E-05 6.33719E-19-6.61744E-24
 -1       145 6.00783E-05 1.00966E-18 0.00000E+00
 -1       146 5.97045E-05 1.41045E-18-6.61744E-24
 -1       147 5.93307E-05 1.68405E-18 0.00000E+00
 -1       148 5.89569E-05 1.83171E-18-6.61744E-24
 -1       149 5.85832E-05 1.94067E-18 1.32349E-23
 -1       150 5.82096E-05 1.89362E-18-6.61744E-24
 -1       151 5.78362E-05 1.65576E-18-1.32349E-23
 -1       152 5.74637E-05 1.25512E-18 6.61744E-24
 -1       153 5.70913E-05 8.09771E-19 0.00000E+00
 -1       154 5.67234E-05 3.79381E-19 0.00000E+00
 -1       155 5.63540E-05 1.16553E-19 0.00000E+00
 -1       156 6.41506E-05-7.05559E-08-6.61744E-24
 -1       157 7.05606E-05-1.47127E-07 0.00000E+00
 -1       158 7.71605E-05-2.25667E-07 0.00000E+00
 -1       159 7.99363E-05-2.85357E-07 1.65436E-24
 -1       160 7.50824E-05-3.57609E-07 3.30872E-24
 -1       161 6.33547E-05-4.66541E-06 0.00000E+00
 -1       162 6.80816E-05-1.84086E-05 0.00000E+00
 -1       163 7.51182E-05-3.86176E-05 0.00000E+00
 -1       164 8.34746E-05-6.25841E-05 0.00000E+00
 -1       165 9.18223E-05-8.65259E-05 0.00000E+00
 -1       166 9.88336E-05-1.06661E-04 3.30872E-24
 -1       167 1.03522E-04-1.20296E-04 0.00000E+00
 -1       168 1.04887E-04-1.24831E-04-3.30872E-24
 -1       169 1.02822E-04-1.20224E-04-6.61744E-24
 -1       170 9.72626E-05-1.06545E-04-3.30872E-24
 -1       171 8.91556E-05-8.63870E-05 0.00000E+00
 -1       172 7.95220E-05-6.24068E-05 0.00000E+00
 -1       173 6.98479E-05-3.83258E-05 6.61744E-24
 -1       174 6.16256E-05-1.78650E-05 0.00000E+00
 -1       175 5.58978E-05-3.74483E-06 1.65436E-24
 -1       191 5.59162E-05 2.30920E-07 0.00000E+00
 -1       192 5.56971E-05 4.62363E-07 0.00000E+00
 -1       193 5.53560E-05 6.93912E-07 1.32349E-23
 -1       194 5.48987E-05 9.25424E-07 0.00000E+00
 -1       195 5.43311E-05 1.15676E-06 0.00000E+00
 -1       251 8.55670E-05 1.26738E-05 0.00000E+00
 -1       252 8.43567E-05 4.52684E-05 0.00000E+00
 -1       253 8.30128E-05 8.21906E-05 2.64698E-23
 -1       254 8.19825E-05 1.08814E-04 0.00000E+00
 -1       255 8.12354E-05 1.16202E-04 0.00000E+00
 -1       256 8.03183E-05 9.60031E-05 0.00000E+00
 -1       257 7.87931E-05 5.44418E-05 0.00000E+00
 -1       258 7.65869E-05-1.61253E-06 1.32349E-23
 -1       259 7.43969E-05-5.73486E-05 2.64698E-23
 -1       260 7.29082E-05-9.79625E-05 0.00000E+00
 -1       261 7.20146E-05-1.16929E-04-2.64698E-23
 -1       262 7.12587E-05-1.08377E-04 0.00000E+00
 -1       263 7.02089E-05-8.09808E-05-2.64698E-23
 -1       264 6.88630E-05-4.39850E-05-1.32349E-23
 -1       265 6.76688E-05-1.19420E-05-1.32349E-23
 -1       266 8.25806E-05-1.18910E-06 0.00000E+00
 -1       267 7.93650E-05-1.26459E-06-1.65436E-24
 -1       268 7.51919E-05-1.34468E-06-3.30872E-24
 -1       269 6.85522E-05-1.43412E-06 0.00000E+00
 -1       270 5.80945E-05-1.55592E-06 0.00000E+00
 -1       271 8.31088E-05 1.82032E-06 0.00000E+00
 -1       272 8.01272E-05 3.85494E-06 0.00000E+00
 -1       273 7.74447E-05 5.10235E-06 5.29396E-23
 -1       274 7.50170E-05 5.64513E-06 0.00000E+00
 -1       275 7.28144E-05 5.58599E-06 0.00000E+00
 -1       276 7.07942E-05 5.03620E-06 2.64698E-23
 -1       277 6.89123E-05 4.11677E-06-5.29396E-23
 -1       278 6.71207E-05 2.95564E-06-2.64698E-23
 -1       279 6.53699E-05 1.68526E-06 5.29396E-23
 -1       280 6.36099E-05 4.40318E-07 2.64698E-23
 -1       281 6.17905E-05-6.45158E-07 5.29396E-23
 -1       282 5.98638E-05-1.43996E-06 0.00000E+00
 -1       283 5.77821E-05-1.81871E-06 0.00000E+00
 -1       284 5.55087E-05-1.66133E-06 0.00000E+00
 -1       285 5.29928E-05-8.64030E-07 0.00000E+00
 -1       286 6.66725E-05 3.14871E-06-1.32349E-23
 -1       287 6.64581E-05 4.87969E-06 0.00000E+00
 -1       288 6.62441E-05 5.82952E-06 6.61744E-24
 -1       289 6.60323E-05 5.89998E-06 0.00000E+00
 -1       290 6.58203E-05 5.15969E-06-6.61744E-24
 -1       291 6.56079E-05 3.68464E-06 0.00000E+00
 -1       292 6.53947E-05 1.69016E-06-6.61744E-24
 -1       293 6.51809E-05-6.03777E-07-3.30872E-24
 -1       294 6.49671E-05-2.92034E-06 0.00000E+00
 -1       295 6.47537E-05-4.98250E-06 0.00000E+00
 -1       296 6.45411E-05-6.56152E-06 0.00000E+00
 -1       297 6.43290E-05-7.43301E-06 3.30872E-24
 -1       298 6.41172E-05-7.50674E-06 6.61744E-24
 -1       299 6.39033E-05-6.69974E-06 3.30872E-24
 -1       300 6.36890E-05-5.09615E-06 0.00000E+00
 -1       301 6.41150E-05 7.21267E-07 6.61744E-24
 -1       302 6.13214E-05 7.19713E-07 1.65436E-24
 -1       303 5.85278E-05 7.21416E-07 0.00000E+00
 -1       304 5.57454E-05 7.22438E-07 3.30872E-24
 -1       305 5.29852E-05 7.18709E-07 0.00000E+00
 -1       306 6.47640E-05 2.51097E-06 2.64698E-23
 -1       307 6.29225E-05 3.39144E-06 0.00000E+00
 -1       308 6.13712E-05 3.50334E-06 5.29396E-23
 -1       309 6.00591E-05 2.96100E-06-2.64698E-23
 -1       310 5.89440E-05 1.89104E-06 5.29396E-23
 -1       311 5.79760E-05 4.25362E-07-2.64698E-23
 -1       312 5.71043E-05-1.29876E-06 0.00000E+00
 -1       313 5.62765E-05-3.14084E-06 0.00000E+00
 -1       314 5.54397E-05-4.95875E-06-5.29396E-23
 -1       315 5.45412E-05-6.61073E-06 2.64698E-23
 -1       316 5.35286E-05-7.95723E-06-5.29396E-23
 -1       317 5.23522E-05-8.86256E-06 2.64698E-23
 -1       318 5.09625E-05-9.19698E-06 2.64698E-23
 -1       319 4.93193E-05-8.83626E-06 0.00000E+00
 -1       320 4.73714E-05-7.66975E-06-2.64698E-23
 -1       321 6.32510E-05-3.02333E-06 1.32349E-23
 -1       322 6.30312E-05-9.01798E-06-3.30872E-24
 -1       323 6.27743E-05-1.96872E-05 0.00000E+00
 -1       324 6.24767E-05-3.39077E-05 3.30872E-24
 -1       325 6.21539E-05-4.99161E-05 6.61744E-24
 -1       326 6.18314E-05-6.59335E-05 0.00000E+00
 -1       327 6.15340E-05-8.01798E-05-6.61744E-24
 -1       328 6.12792E-05-9.08895E-05 0.00000E+00
 -1       329 6.10609E-05-9.69329E-05 0.00000E+00
 -1       330 6.08602E-05-9.72207E-05 3.30872E-24
 -1       331 6.06449E-05-9.16950E-05-6.61744E-24
 -1       332 6.03824E-05-8.03480E-05-3.30872E-24
 -1       333 6.00578E-05-6.42150E-05 0.00000E+00
 -1       334 5.96692E-05-4.43728E-05-3.30872E-24
 -1       335 5.92420E-05-2.25647E-05 0.00000E+00
 -1       336 6.06817E-05-3.25337E-06 0.00000E+00
 -1       337 5.77103E-05-3.72029E-06 0.00000E+00
 -1       338 5.46090E-05-4.18738E-06 0.00000E+00
 -1       339 5.14376E-05-4.65360E-06 0.00000E+00
 -1       340 4.82564E-05-5.11997E-06-1.32349E-23
 -1       341 5.87959E-05 7.61804E-06 0.00000E+00
 -1       342 4.79893E-05 3.35365E-05 6.61744E-24
 -1       343 3.56592E-05 6.32268E-05 0.00000E+00
 -1       344 2.65708E-05 8.48887E-05 6.61744E-24
 -1       345 2.34788E-05 9.11412E-05 0.00000E+00
 -1       346 2.87000E-05 7.49152E-05 0.00000E+00
 -1       347 4.00016E-05 4.12886E-05-1.32349E-23
 -1       348 5.52187E-05-4.10466E-06 0.00000E+00
 -1       349 7.02676E-05-4.89868E-05-1.32349E-23
 -1       350 8.10541E-05-8.11006E-05 0.00000E+00
 -1       351 8.55783E-05-9.53814E-05 0.00000E+00
 -1       352 8.17967E-05-8.73253E-05-6.61744E-24
 -1       353 7.22421E-05-6.44933E-05 0.00000E+00
 -1       354 5.98918E-05-3.47371E-05 0.00000E+00
 -1       355 4.94580E-05-9.73771E-06 0.00000E+00
 -1       356 5.83602E-05 2.20445E-05 0.00000E+00
 -1       357 5.78858E-05 4.55804E-05 3.30872E-24
 -1       358 5.74369E-05 6.79478E-05 0.00000E+00
 -1       359 5.70528E-05 8.70463E-05 0.00000E+00
 -1       360 5.67436E-05 1.01390E-04 0.00000E+00
 -1       361 5.65015E-05 1.09537E-04 0.00000E+00
 -1       362 5.62895E-05 1.11205E-04 6.61744E-24
 -1       363 5.60667E-05 1.06169E-04 3.30872E-24
 -1       364 5.58021E-05 9.54606E-05 0.00000E+00
 -1       365 5.54803E-05 8.01608E-05-3.30872E-24
 -1       366 5.51172E-05 6.22134E-05-6.61744E-24
 -1       367 5.47429E-05 4.35852E-05 0.00000E+00
 -1       368 5.43924E-05 2.63720E-05 0.00000E+00
 -1       369 5.40972E-05 1.26567E-05 0.00000E+00
 -1       370 5.38529E-05 3.86763E-06-1.03398E-25
 -1       371 4.19447E-05-7.54555E-07-3.30872E-24
 -1       372 3.53298E-05-8.38504E-07 0.00000E+00
 -1       373 3.57243E-05-8.97577E-07 0.00000E+00
 -1       374 3.98675E-05-9.63466E-07 0.00000E+00
 -1       375 4.42824E-05-1.03038E-06-2.06795E-25
 -1       376 4.86457E-05 2.49057E-05 6.61744E-24
 -1       377 3.56466E-05 5.73108E-05-3.30872E-24
 -1       378 2.14730E-05 9.25660E-05 6.61744E-24
 -1       379 7.82408E-06 1.26554E-04-3.30872E-24
 -1       380-3.74082E-06 1.55448E-04 0.00000E+00
 -1       381-1.17303E-05 1.75456E-04-3.30872E-24
 -1       382-1.55574E-05 1.84816E-04-6.61744E-24
 -1       383-1.47205E-05 1.81858E-04-3.30872E-24
 -1       384-9.79683E-06 1.67735E-04 0.00000E+00
 -1       385-1.37001E-06 1.43728E-04-3.30872E-24
 -1       386 9.23726E-06 1.13430E-04 6.61744E-24
 -1       387 2.07366E-05 8.05160E-05 3.30872E-24
 -1       388 3.16608E-05 4.92873E-05-6.61744E-24
 -1       389 4.05326E-05 2.40234E-05 0.00000E+00
 -1       390 4.62856E-05 7.58975E-06 1.65436E-24
 -1       406 5.28581E-05 1.61532E-06-1.32349E-23
 -1       407 5.19721E-05 1.84332E-06 0.00000E+00
 -1       408 5.10141E-05 2.07118E-06 0.00000E+00
 -1       409 4.99975E-05 2.29845E-06-3.30872E-24
 -1       410 4.89354E-05 2.52451E-06 6.61744E-24
 -1       466 4.28537E-05 1.28819E-05-6.61744E-24
 -1       467 4.33241E-05 2.04831E-05 0.00000E+00
 -1       468 4.38189E-05 2.33937E-05 1.32349E-23
 -1       469 4.43214E-05 2.38389E-05-6.61744E-24
 -1       470 4.48237E-05 2.26415E-05 0.00000E+00
 -1       471 4.53253E-05 2.05882E-05 0.00000E+00
 -1       472 4.58258E-05 1.79763E-05-1.32349E-23
 -1       473 4.63257E-05 1.50905E-05 0.00000E+00
 -1       474 4.68251E-05 1.20589E-05 0.00000E+00
 -1       475 4.73241E-05 9.00646E-06 6.61744E-24
 -1       476 4.78232E-05 6.04600E-06 0.00000E+00
 -1       477 4.83212E-05 3.29240E-06 6.61744E-24
 -1       478 4.88201E-05 9.78921E-07 0.00000E+00
 -1       479 4.93119E-05-6.51515E-07 0.00000E+00
 -1       480 4.98075E-05-9.68089E-07 0.00000E+00
 -1       481 2.78359E-05-1.73239E-06 1.65436E-24
 -1       482 2.02206E-05-1.64632E-06-1.65436E-24
 -1       483 1.72483E-05-1.53492E-06 0.00000E+00
 -1       484 1.65581E-05-1.41909E-06 0.00000E+00
 -1       485 1.60495E-05-1.30289E-06 3.30872E-24
 -1       486 3.15183E-05 2.48324E-05 0.00000E+00
 -1       487 1.36949E-05 6.79234E-05 0.00000E+00
 -1       488-4.42675E-06 1.11722E-04 1.32349E-23
 -1       489-1.62631E-05 1.40399E-04 0.00000E+00
 -1       490-1.88990E-05 1.45621E-04 0.00000E+00
 -1       491-1.01138E-05 1.19454E-04 6.61744E-24
 -1       492 6.86297E-06 6.88766E-05-1.32349E-23
 -1       493 2.90504E-05 1.62267E-06 6.61744E-24
 -1       494 5.13408E-05-6.59650E-05-1.32349E-23
 -1       495 6.86345E-05-1.17529E-04 6.61744E-24
 -1       496 7.78718E-05-1.45001E-04 0.00000E+00
 -1       497 7.57249E-05-1.41064E-04 0.00000E+00
 -1       498 6.42727E-05-1.13336E-04-1.32349E-23
 -1       499 4.62792E-05-6.98434E-05 0.00000E+00
 -1       500 2.83128E-05-2.64142E-05 0.00000E+00
 -1       501 4.99307E-05 2.37632E-06 0.00000E+00
 -1       502 4.96151E-05 2.07851E-06 0.00000E+00
 -1       503 4.92968E-05-8.15042E-08 0.00000E+00
 -1       504 4.89755E-05-3.95677E-06-6.61744E-24
 -1       505 4.86497E-05-8.93143E-06 1.32349E-23
 -1       506 4.83219E-05-1.43747E-05-6.61744E-24
 -1       507 4.79957E-05-1.95278E-05-1.32349E-23
 -1       508 4.76741E-05-2.36361E-05-6.61744E-24
 -1       509 4.73574E-05-2.62299E-05-1.32349E-23
 -1       510 4.70437E-05-2.68605E-05 0.00000E+00
 -1       511 4.67295E-05-2.56148E-05 0.00000E+00
 -1       512 4.64118E-05-2.26053E-05-6.61744E-24
 -1       513 4.60902E-05-1.84262E-05 0.00000E+00
 -1       514 4.57664E-05-1.36873E-05 3.30872E-24
 -1       515 4.54434E-05-9.15141E-06 0.00000E+00
 -1       516 4.82400E-05 7.67788E-07 0.00000E+00
 -1       517 4.74327E-05 8.75002E-07 0.00000E+00
 -1       518 4.59288E-05 9.79319E-07 0.00000E+00
 -1       519 4.18180E-05 1.08068E-06 4.13590E-25
 -1       520 3.29011E-05 1.15071E-06 0.00000E+00
 -1       521 4.76052E-05 2.21266E-06-5.29396E-23
 -1       522 4.52136E-05 2.87315E-06 0.00000E+00
 -1       523 4.31035E-05 2.78985E-06 0.00000E+00
 -1       524 4.12224E-05 2.07138E-06 0.00000E+00
 -1       525 3.95312E-05 8.43707E-07 0.00000E+00
 -1       526 3.79791E-05-7.60247E-07 0.00000E+00
 -1       527 3.65151E-05-2.60025E-06-5.29396E-23
 -1       528 3.50850E-05-4.53196E-06-2.64698E-23
 -1       529 3.36347E-05-6.40930E-06 5.29396E-23
 -1       530 3.21100E-05-8.08721E-06 2.64698E-23
 -1       531 3.04581E-05-9.42432E-06 5.29396E-23
 -1       532 2.86294E-05-1.02854E-05-2.64698E-23
 -1       533 2.65757E-05-1.05443E-05 5.29396E-23
 -1       534 2.42607E-05-1.00837E-05 2.64698E-23
 -1       535 2.16357E-05-8.80493E-06-5.29396E-23
 -1       536 4.51310E-05-2.86568E-06 0.00000E+00
 -1       537 4.51510E-05-8.02255E-07 8.27181E-25
 -1       538 4.51717E-05 6.81297E-07 0.00000E+00
 -1       539 4.51951E-05 1.65499E-06 0.00000E+00
 -1       540 4.52191E-05 2.18860E-06 1.03398E-25
 -1       541 4.52435E-05 2.35184E-06-3.10193E-25
 -1       542 4.52681E-05 2.21436E-06 8.27181E-25
 -1       543 4.52928E-05 1.84574E-06 2.06795E-25
 -1       544 4.53173E-05 1.31551E-06-8.27181E-25
 -1       545 4.53419E-05 6.93152E-07 4.13590E-25
 -1       546 4.53665E-05 4.81570E-08 8.27181E-25
 -1       547 4.53911E-05-5.50002E-07 4.13590E-25
 -1       548 4.54158E-05-1.03185E-06 0.00000E+00
 -1       549 4.54407E-05-1.32790E-06 0.00000E+00
 -1       550 4.54656E-05-1.36855E-06 0.00000E+00
 -1       551 4.11800E-05-5.74641E-06 2.22305E-24
 -1       552 3.67922E-05-5.91054E-06 8.27181E-25
 -1       553 3.21555E-05-6.07515E-06 0.00000E+00
 -1       554 2.74672E-05-6.24172E-06 6.61744E-24
 -1       555 2.29249E-05-6.41202E-06 1.32349E-23
 -1       556 4.39549E-05-3.04148E-06 1.32349E-23
 -1       557 4.30075E-05-1.08156E-06 0.00000E+00
 -1       558 4.22580E-05 3.56115E-07 0.00000E+00
 -1       559 4.16830E-05 1.33194E-06 0.00000E+00
 -1       560 4.12592E-05 1.90649E-06 1.32349E-23
 -1       561 4.09632E-05 2.14090E-06 0.00000E+00
 -1       562 4.07720E-05 2.09641E-06-1.32349E-23
 -1       563 4.06624E-05 1.83438E-06 0.00000E+00
 -1       564 4.06114E-05 1.41619E-06 0.00000E+00
 -1       565 4.05959E-05 9.03284E-07-3.30872E-24
 -1       566 4.05930E-05 3.57129E-07-6.61744E-24
 -1       567 4.05795E-05-1.60798E-07 1.65436E-24
 -1       568 4.05327E-05-5.89036E-07 3.30872E-24
 -1       569 4.04299E-05-8.66194E-07-1.55096E-25
 -1       570 4.02487E-05-9.30949E-07-3.30872E-24
 -1       571 4.56324E-05-7.54501E-07-4.13590E-25
 -1       572 4.57779E-05-5.30003E-07-1.65436E-24
 -1       573 4.59246E-05-3.91853E-07 1.65436E-24
 -1       574 4.60719E-05-3.19971E-07 0.00000E+00
 -1       575 4.62194E-05-2.94202E-07-3.30872E-24
 -1       576 4.63671E-05-2.94264E-07 1.65436E-24
 -1       577 4.65148E-05-2.99869E-07-6.61744E-24
 -1       578 4.66625E-05-2.90711E-07 0.00000E+00
 -1       579 4.68102E-05-2.46483E-07-6.61744E-24
 -1       580 4.69579E-05-1.46876E-07 0.00000E+00
 -1       581 4.71055E-05 2.84186E-08 0.00000E+00
 -1       582 4.72531E-05 2.99696E-07 0.00000E+00
 -1       583 4.74007E-05 6.87234E-07 0.00000E+00
 -1       584 4.75480E-05 1.21112E-06 0.00000E+00
 -1       585 4.76951E-05 1.89134E-06 6.61744E-24
 -1       586 4.46975E-05-1.02299E-06 0.00000E+00
 -1       587 4.37872E-05-9.60990E-07 3.30872E-24
 -1       588 4.28095E-05-8.99057E-07 3.30872E-24
 -1       589 4.18143E-05-8.37724E-07-1.03398E-25
 -1       590 4.08519E-05-7.77740E-07 0.00000E+00
 -1       591 4.52559E-05-6.96742E-07 0.00000E+00
 -1       592 4.50392E-05-3.76709E-07 1.65436E-24
 -1       593 4.48418E-05-1.11541E-07 0.00000E+00
 -1       594 4.46598E-05 1.10488E-07 1.65436E-24
 -1       595 4.44894E-05 3.01097E-07 0.00000E+00
 -1       596 4.43263E-05 4.71930E-07 1.65436E-24
 -1       597 4.41663E-05 6.34617E-07 0.00000E+00
 -1       598 4.40049E-05 8.00777E-07 8.27181E-25
 -1       599 4.38378E-05 9.82032E-07 0.00000E+00
 -1       600 4.36608E-05 1.19000E-06-8.27181E-25
 -1       601 4.34694E-05 1.43629E-06 0.00000E+00
 -1       602 4.32594E-05 1.73254E-06 4.13590E-25
 -1       603 4.30265E-05 2.09037E-06 1.24077E-24
 -1       604 4.27668E-05 2.52148E-06 1.03398E-25
 -1       605 4.24766E-05 3.03758E-06 8.27181E-25
 -1       606 4.78926E-05 3.87721E-06 6.61744E-24
 -1       607 4.79402E-05 5.11226E-06 0.00000E+00
 -1       608 4.79867E-05 6.44542E-06 0.00000E+00
 -1       609 4.80326E-05 7.86969E-06 0.00000E+00
 -1       610 4.80783E-05 9.37806E-06 0.00000E+00
 -1       611 4.81237E-05 1.09634E-05-1.65436E-24
 -1       612 4.81690E-05 1.26185E-05 0.00000E+00
 -1       613 4.82141E-05 1.43362E-05 0.00000E+00
 -1       614 4.82592E-05 1.61094E-05 0.00000E+00
 -1       615 4.83042E-05 1.79308E-05 0.00000E+00
 -1       616 4.83491E-05 1.97933E-05 0.00000E+00
 -1       617 4.83939E-05 2.16898E-05 0.00000E+00
 -1       618 4.84387E-05 2.36131E-05 0.00000E+00
 -1       619 4.84834E-05 2.55559E-05-8.27181E-25
 -1       620 4.85279E-05 2.75113E-05 1.65436E-24
 -1       621 4.67784E-05 2.89756E-06-3.30872E-24
 -1       622 4.57474E-05 3.04966E-06 0.00000E+00
 -1       623 4.47592E-05 3.20183E-06 3.30872E-24
 -1       624 4.38243E-05 3.35366E-06-1.65436E-24
 -1       625 4.29535E-05 3.50463E-06 1.65436E-24
 -1       626 4.75039E-05 3.93111E-06-6.61744E-24
 -1       627 4.71237E-05 5.22477E-06-6.61744E-24
 -1       628 4.67058E-05 6.61722E-06 0.00000E+00
 -1       629 4.62548E-05 8.09699E-06 0.00000E+00
 -1       630 4.57752E-05 9.65256E-06 0.00000E+00
 -1       631 4.52714E-05 1.12722E-05 0.00000E+00
 -1       632 4.47478E-05 1.29443E-05 3.30872E-24
 -1       633 4.42090E-05 1.46570E-05 0.00000E+00
 -1       634 4.36592E-05 1.63987E-05 3.30872E-24
 -1       635 4.31029E-05 1.81576E-05 0.00000E+00
 -1       636 4.25445E-05 1.99220E-05-3.30872E-24
 -1       637 4.19883E-05 2.16803E-05-8.27181E-25
 -1       638 4.14388E-05 2.34206E-05-3.30872E-24
 -1       639 4.09000E-05 2.51312E-05 4.13590E-25
 -1       640 4.03758E-05 2.68003E-05-4.13590E-25
 -1       641 4.85734E-05 3.15068E-05 0.00000E+00
 -1       642 4.85729E-05 3.37553E-05 2.06795E-25
 -1       643 4.85720E-05 3.61864E-05 2.06795E-25
 -1       644 4.85705E-05 3.87692E-05 0.00000E+00
 -1       645 4.85687E-05 4.14729E-05 1.03398E-25
 -1       646 4.85666E-05 4.42668E-05 0.00000E+00
 -1       647 4.85643E-05 4.71204E-05 0.00000E+00
 -1       648 4.85619E-05 5.00031E-05 0.00000E+00
 -1       649 4.85595E-05 5.28843E-05 0.00000E+00
 -1       650 4.85571E-05 5.57336E-05-6.46235E-27
 -1       651 4.85549E-05 5.85205E-05-1.03398E-25
 -1       652 4.85527E-05 6.12142E-05 1.03398E-25
 -1       653 4.85508E-05 6.37843E-05 0.00000E+00
 -1       654 4.85481E-05 6.61998E-05 0.00000E+00
 -1       655 4.85462E-05 6.84298E-05-1.65436E-24
 -1       656 4.68072E-05 2.93014E-05-1.65436E-24
 -1       657 4.52784E-05 2.91225E-05 0.00000E+00
 -1       658 4.39032E-05 2.89441E-05 0.00000E+00
 -1       659 4.25984E-05 2.87657E-05 1.65436E-24
 -1       660 4.12810E-05 2.85870E-05 0.00000E+00
 -1       661 4.80035E-05 3.15665E-05 0.00000E+00
 -1       662 4.73791E-05 3.38301E-05-3.30872E-24
 -1       663 4.67010E-05 3.62354E-05 0.00000E+00
 -1       664 4.59796E-05 3.87583E-05-3.30872E-24
 -1       665 4.52232E-05 4.13743E-05 0.00000E+00
 -1       666 4.44409E-05 4.40594E-05 0.00000E+00
 -1       667 4.36416E-05 4.67896E-05 6.61744E-24
 -1       668 4.28343E-05 4.95410E-05-3.30872E-24
 -1       669 4.20280E-05 5.22900E-05-6.61744E-24
 -1       670 4.12315E-05 5.50127E-05-3.30872E-24
 -1       671 4.04538E-05 5.76852E-05 6.61744E-24
 -1       672 3.97039E-05 6.02836E-05 0.00000E+00
 -1       673 3.89909E-05 6.27838E-05 0.00000E+00
 -1       674 3.83225E-05 6.51610E-05-1.65436E-24
 -1       675 3.77098E-05 6.73915E-05-3.30872E-24
 -1       676 4.66346E-05 7.02768E-05-3.30872E-24
 -1       677 4.47318E-05 7.01093E-05 0.00000E+00
 -1       678 4.28312E-05 6.99420E-05-3.30872E-24
 -1       679 4.09337E-05 6.97752E-05 1.65436E-24
 -1       680 3.90400E-05 6.96084E-05 0.00000E+00
 -1       681 1.38391E-05 1.01606E-06 3.30872E-24
 -1       682 1.40636E-05 8.00185E-07 3.30872E-24
 -1       683 1.42861E-05-1.18981E-06 0.00000E+00
 -1       684 1.45070E-05-4.32266E-06-3.30872E-24
 -1       685 1.47253E-05-8.23243E-06 6.61744E-24
 -1       686 1.49421E-05-1.25609E-05 3.30872E-24
 -1       687 1.51584E-05-1.70470E-05-6.61744E-24
 -1       688 1.53751E-05-2.14313E-05 3.30872E-24
 -1       689 1.55933E-05-2.54308E-05 6.61744E-24
 -1       690 1.58138E-05-2.87587E-05-3.30872E-24
 -1       691 1.60371E-05-3.09717E-05-6.61744E-24
 -1       692 1.62621E-05-3.16160E-05 3.30872E-24
 -1       693 1.64854E-05-2.98731E-05-6.61744E-24
 -1       694 1.66961E-05-2.49011E-05-1.65436E-24
 -1       695 1.68721E-05-1.51117E-05 3.30872E-24
 -1       696 1.04528E-05-1.00008E-06 0.00000E+00
 -1       697 7.81687E-06-8.02592E-07 3.30872E-24
 -1       698 5.57220E-06-6.04468E-07-6.61744E-24
 -1       699 3.57937E-06-4.04256E-07-3.30872E-24
 -1       700 1.75073E-06-2.03903E-07 6.61744E-24
 -1       701 1.06421E-05 5.99599E-06 0.00000E+00
 -1       702 4.71052E-06 2.07672E-05-3.30872E-24
 -1       703-3.30783E-06 4.08385E-05 0.00000E+00
 -1       704-1.25117E-05 6.38746E-05 0.00000E+00
 -1       705-2.16875E-05 8.68397E-05 0.00000E+00
 -1       706-2.96242E-05 1.06698E-04 3.30872E-24
 -1       707-3.54345E-05 1.21153E-04 6.61744E-24
 -1       708-3.82832E-05 1.27951E-04-3.30872E-24
 -1       709-3.80741E-05 1.26662E-04-6.61744E-24
 -1       710-3.47502E-05 1.16932E-04 0.00000E+00
 -1       711-2.89812E-05 1.00434E-04-6.61744E-24
 -1       712-2.14334E-05 7.89187E-05 0.00000E+00
 -1       713-1.31663E-05 5.53563E-05 6.61744E-24
 -1       714-5.22985E-06 3.27457E-05 3.30872E-24
 -1       715 1.39277E-06 1.38528E-05 3.30872E-24
 -1       716 1.69482E-05 1.75456E-05 8.27181E-25
 -1       717 1.70281E-05 2.78241E-05 0.00000E+00
 -1       718 1.71452E-05 3.32675E-05 0.00000E+00
 -1       719 1.72763E-05 3.51497E-05-1.65436E-24
 -1       720 1.74092E-05 3.42718E-05 0.00000E+00
 -1       721 1.75388E-05 3.14189E-05 1.65436E-24
 -1       722 1.76636E-05 2.71127E-05-3.30872E-24
 -1       723 1.77840E-05 2.18664E-05 0.00000E+00
 -1       724 1.79016E-05 1.60677E-05 0.00000E+00
 -1       725 1.80180E-05 1.01011E-05 0.00000E+00
 -1       726 1.81353E-05 4.32847E-06 0.00000E+00
 -1       727 1.82544E-05-8.87021E-07-1.65436E-24
 -1       728 1.83777E-05-5.10798E-06-1.65436E-24
 -1       729 1.85001E-05-7.89131E-06 0.00000E+00
 -1       730 1.86276E-05-8.60439E-06 0.00000E+00
 -1       731 1.16194E-06 1.08287E-06-2.06795E-25
 -1       732-7.25381E-06 1.12744E-06 0.00000E+00
 -1       733-9.73189E-06 1.20420E-06 1.65436E-24
 -1       734-7.69110E-06 1.28299E-06 0.00000E+00
 -1       735-2.19048E-06 1.35005E-06 0.00000E+00
 -1       736 8.45781E-06 2.18634E-05 0.00000E+00
 -1       737-1.08154E-06 4.51630E-05 0.00000E+00
 -1       738-9.09483E-06 6.46250E-05 0.00000E+00
 -1       739-1.31217E-05 7.38865E-05 0.00000E+00
 -1       740-1.24783E-05 7.07976E-05-1.32349E-23
 -1       741-6.63515E-06 5.34230E-05-6.61744E-24
 -1       742 2.83398E-06 2.57380E-05 0.00000E+00
 -1       743 1.43887E-05-8.04703E-06 0.00000E+00
 -1       744 2.57037E-05-4.11270E-05 0.00000E+00
 -1       745 3.44450E-05-6.67145E-05 0.00000E+00
 -1       746 3.92544E-05-8.12005E-05-1.32349E-23
 -1       747 3.87525E-05-8.12240E-05-6.61744E-24
 -1       748 3.37336E-05-6.93953E-05 0.00000E+00
 -1       749 2.51606E-05-4.85227E-05 6.61744E-24
 -1       750 1.55929E-05-2.51551E-05 6.61744E-24
 -1       751 1.99687E-05-3.95868E-06 0.00000E+00
 -1       752 2.12964E-05-2.72630E-06 0.00000E+00
 -1       753 2.26198E-05-2.28407E-06 2.64698E-23
 -1       754 2.39584E-05-2.05930E-06 0.00000E+00
 -1       755 2.52974E-05-1.95631E-06 0.00000E+00
 -1       756 2.66394E-05-1.88662E-06 0.00000E+00
 -1       757 2.79818E-05-1.83551E-06-5.29396E-23
 -1       758 2.93247E-05-1.78938E-06 0.00000E+00
 -1       759 3.06677E-05-1.74563E-06-5.29396E-23
 -1       760 3.20103E-05-1.70183E-06-2.64698E-23
 -1       761 3.33527E-05-1.65543E-06 5.29396E-23
 -1       762 3.46930E-05-1.60372E-06 2.64698E-23
 -1       763 3.60330E-05-1.53221E-06-2.64698E-23
 -1       764 3.73623E-05-1.42527E-06 1.32349E-23
 -1       765 3.86951E-05-1.18921E-06-2.64698E-23
 -1       766 1.73649E-05-6.48804E-06 0.00000E+00
 -1       767 1.98884E-05-6.34565E-06 0.00000E+00
 -1       768 2.32982E-05-6.20744E-06 8.27181E-25
 -1       769 2.46066E-05-6.06029E-06 0.00000E+00
 -1       770 2.05095E-05-5.92279E-06 0.00000E+00
 -1       771 1.67162E-05-3.93010E-06 0.00000E+00
 -1       772 1.48888E-05-1.76867E-06 0.00000E+00
 -1       773 1.32350E-05-7.39361E-08 5.29396E-23
 -1       774 1.17391E-05 1.19838E-06 0.00000E+00
 -1       775 1.03852E-05 2.09280E-06 0.00000E+00
 -1       776 9.15624E-06 2.65430E-06-1.32349E-23
 -1       777 8.03541E-06 2.92808E-06-2.64698E-23
 -1       778 7.00556E-06 2.95962E-06 0.00000E+00
 -1       779 6.04955E-06 2.79455E-06 0.00000E+00
 -1       780 5.15015E-06 2.47871E-06 0.00000E+00
 -1       781 4.29017E-06 2.05804E-06 2.64698E-23
 -1       782 3.45247E-06 1.57863E-06 1.32349E-23
 -1       783 2.61996E-06 1.08659E-06-2.64698E-23
 -1       784 1.77630E-06 6.28238E-07 0.00000E+00
 -1       785 9.05286E-07 2.49901E-07 0.00000E+00
 -1       786 4.00996E-05-2.02867E-07 1.65436E-24
 -1       787 4.02358E-05 2.01058E-07 0.00000E+00
 -1       788 4.03719E-05 5.07063E-07-3.30872E-24
 -1       789 4.05092E-05 7.33049E-07 1.65436E-24
 -1       790 4.06468E-05 8.96815E-07 0.00000E+00
 -1       791 4.07845E-05 1.01609E-06 0.00000E+00
 -1       792 4.09224E-05 1.10855E-06 3.30872E-24
 -1       793 4.10602E-05 1.19184E-06-1.65436E-24
 -1       794 4.11981E-05 1.28360E-06 0.00000E+00
 -1       795 4.13360E-05 1.40146E-06-1.65436E-24
 -1       796 4.14738E-05 1.56310E-06 3.30872E-24
 -1       797 4.16115E-05 1.78626E-06-1.65436E-24
 -1       798 4.17492E-05 2.08871E-06 0.00000E+00
 -1       799 4.18862E-05 2.48836E-06 1.65436E-24
 -1       800 4.20233E-05 3.00323E-06-3.30872E-24
 -1       801 3.64193E-05-5.85419E-07 0.00000E+00
 -1       802 2.90312E-05-4.57886E-07 0.00000E+00
 -1       803 1.97507E-05-3.44352E-07 1.65436E-24
 -1       804 1.05224E-05-2.34009E-07 0.00000E+00
 -1       805 3.29082E-06-1.09410E-07 0.00000E+00
 -1       806 3.96118E-05-2.59405E-07-6.61744E-24
 -1       807 3.92649E-05 1.54017E-07 0.00000E+00
 -1       808 3.89316E-05 5.27375E-07 1.32349E-23
 -1       809 3.86093E-05 8.69690E-07 0.00000E+00
 -1       810 3.82950E-05 1.18993E-06 0.00000E+00
 -1       811 3.79855E-05 1.49701E-06 0.00000E+00
 -1       812 3.76776E-05 1.79980E-06 0.00000E+00
 -1       813 3.73680E-05 2.10719E-06 0.00000E+00
 -1       814 3.70532E-05 2.42806E-06 0.00000E+00
 -1       815 3.67302E-05 2.77129E-06 0.00000E+00
 -1       816 3.63954E-05 3.14575E-06 6.61744E-24
 -1       817 3.60456E-05 3.56031E-06 0.00000E+00
 -1       818 3.56776E-05 4.02386E-06-6.61744E-24
 -1       819 3.52885E-05 4.54529E-06 8.27181E-25
 -1       820 3.48755E-05 5.13352E-06 3.30872E-24
 -1       821 4.20229E-05 4.48008E-06 0.00000E+00
 -1       822 4.18806E-05 5.49717E-06 0.00000E+00
 -1       823 4.17382E-05 6.68340E-06-3.30872E-24
 -1       824 4.15944E-05 8.01918E-06 0.00000E+00
 -1       825 4.14503E-05 9.48479E-06 0.00000E+00
 -1       826 4.13057E-05 1.10603E-05 0.00000E+00
 -1       827 4.11609E-05 1.27257E-05 0.00000E+00
 -1       828 4.10160E-05 1.44607E-05-1.65436E-24
 -1       829 4.08710E-05 1.62453E-05 0.00000E+00
 -1       830 4.07260E-05 1.80590E-05 0.00000E+00
 -1       831 4.05810E-05 1.98816E-05 0.00000E+00
 -1       832 4.04362E-05 2.16927E-05 0.00000E+00
 -1       833 4.02916E-05 2.34719E-05 0.00000E+00
 -1       834 4.01481E-05 2.51990E-05 0.00000E+00
 -1       835 4.00046E-05 2.68537E-05 0.00000E+00
 -1       836 4.11744E-05 4.00263E-06-6.61744E-24
 -1       837 3.98530E-05 4.36612E-06 3.30872E-24
 -1       838 3.83557E-05 4.72874E-06-6.61744E-24
 -1       839 3.68457E-05 5.09052E-06-3.30872E-24
 -1       840 3.54856E-05 5.45307E-06-3.30872E-24
 -1       841 4.18343E-05 4.47148E-06 0.00000E+00
 -1       842 4.14337E-05 5.49086E-06-3.23117E-27
 -1       843 4.09652E-05 6.69142E-06 2.06795E-25
 -1       844 4.04352E-05 8.05354E-06-2.06795E-25
 -1       845 3.98527E-05 9.55528E-06 0.00000E+00
 -1       846 3.92258E-05 1.11743E-05 0.00000E+00
 -1       847 3.85639E-05 1.28864E-05 4.13590E-25
 -1       848 3.78761E-05 1.46672E-05 0.00000E+00
 -1       849 3.71720E-05 1.64911E-05-4.13590E-25
 -1       850 3.64612E-05 1.83326E-05 2.06795E-25
 -1       851 3.57536E-05 2.01656E-05 0.00000E+00
 -1       852 3.50589E-05 2.19644E-05 0.00000E+00
 -1       853 3.43865E-05 2.37037E-05 8.27181E-25
 -1       854 3.37457E-05 2.53579E-05 0.00000E+00
 -1       855 3.31459E-05 2.69037E-05 1.65436E-24
 -1       856 3.97079E-05 3.00945E-05 1.65436E-24
 -1       857 3.95396E-05 3.20779E-05-1.65436E-24
 -1       858 3.93709E-05 3.43272E-05 3.30872E-24
 -1       859 3.92005E-05 3.68027E-05-1.65436E-24
 -1       860 3.90295E-05 3.94644E-05 0.00000E+00
 -1       861 3.88579E-05 4.22720E-05 0.00000E+00
 -1       862 3.86860E-05 4.51851E-05 0.00000E+00
 -1       863 3.85138E-05 4.81631E-05-3.30872E-24
 -1       864 3.83416E-05 5.11653E-05 6.61744E-24
 -1       865 3.81694E-05 5.41509E-05 3.30872E-24
 -1       866 3.79974E-05 5.70793E-05 6.61744E-24
 -1       867 3.78258E-05 5.99097E-05-3.30872E-24
 -1       868 3.76547E-05 6.26018E-05 0.00000E+00
 -1       869 3.74848E-05 6.51152E-05 0.00000E+00
 -1       870 3.73152E-05 6.74098E-05 0.00000E+00
 -1       871 3.85315E-05 2.84016E-05 0.00000E+00
 -1       872 3.72928E-05 2.83859E-05 0.00000E+00
 -1       873 3.61161E-05 2.83699E-05 0.00000E+00
 -1       874 3.49649E-05 2.83535E-05 0.00000E+00
 -1       875 3.38026E-05 2.83363E-05-1.65436E-24
 -1       876 3.94670E-05 3.01527E-05 0.00000E+00
 -1       877 3.89765E-05 3.21552E-05-3.30872E-24
 -1       878 3.83998E-05 3.43851E-05 0.00000E+00
 -1       879 3.77515E-05 3.68090E-05 0.00000E+00
 -1       880 3.70430E-05 3.93927E-05 6.61744E-24
 -1       881 3.62870E-05 4.21028E-05-3.30872E-24
 -1       882 3.54958E-05 4.49061E-05 6.61744E-24
 -1       883 3.46819E-05 4.77699E-05 0.00000E+00
 -1       884 3.38574E-05 5.06613E-05 0.00000E+00
 -1       885 3.30349E-05 5.35476E-05 3.30872E-24
 -1       886 3.22265E-05 5.63963E-05 0.00000E+00
 -1       887 3.14445E-05 5.91743E-05 3.30872E-24
 -1       888 3.07013E-05 6.18489E-05 6.61744E-24
 -1       889 3.00082E-05 6.43864E-05 0.00000E+00
 -1       890 2.93795E-05 6.67538E-05 3.30872E-24
 -1       891 3.55145E-05 6.93577E-05-3.30872E-24
 -1       892 3.41990E-05 6.92682E-05 0.00000E+00
 -1       893 3.30383E-05 6.91791E-05-3.30872E-24
 -1       894 3.18654E-05 6.90901E-05 0.00000E+00
 -1       895 3.05137E-05 6.90008E-05-1.65436E-24
 -1       896 3.57172E-07 1.70955E-06 0.00000E+00
 -1       897 7.17668E-07 3.41028E-06 0.00000E+00
 -1       898 1.07798E-06 5.09815E-06 0.00000E+00
 -1       899 1.43894E-06 6.76882E-06-6.61744E-24
 -1       900 1.79997E-06 8.41128E-06 1.32349E-23
 -1       901 2.16118E-06 1.00141E-05-6.61744E-24
 -1       902 2.52250E-06 1.15502E-05-1.32349E-23
 -1       903 2.88396E-06 1.29917E-05-6.61744E-24
 -1       904 3.24562E-06 1.42735E-05 1.32349E-23
 -1       905 3.60745E-06 1.53279E-05 0.00000E+00
 -1       906 3.96952E-06 1.59984E-05 0.00000E+00
 -1       907 4.33140E-06 1.61226E-05 6.61744E-24
 -1       908 4.69283E-06 1.53243E-05-1.32349E-23
 -1       909 5.05035E-06 1.32126E-05 3.30872E-24
 -1       910 5.40134E-06 8.88448E-06 6.61744E-24
 -1       911 5.82877E-06-7.11070E-06 0.00000E+00
 -1       912 5.94536E-06-1.44691E-05-1.65436E-24
 -1       913 6.06822E-06-2.08587E-05 0.00000E+00
 -1       914 6.19606E-06-2.64593E-05 0.00000E+00
 -1       915 6.32755E-06-3.13376E-05 0.00000E+00
 -1       916 6.46200E-06-3.55557E-05 0.00000E+00
 -1       917 6.59903E-06-3.90811E-05-3.30872E-24
 -1       918 6.73828E-06-4.18774E-05 0.00000E+00
 -1       919 6.87946E-06-4.38032E-05 0.00000E+00
 -1       920 7.02195E-06-4.47120E-05 0.00000E+00
 -1       921 7.16464E-06-4.43116E-05 0.00000E+00
 -1       922 7.30511E-06-4.23015E-05-1.65436E-24
 -1       923 7.43895E-06-3.81511E-05-3.30872E-24
 -1       924 7.55679E-06-3.13164E-05 0.00000E+00
 -1       925 7.64470E-06-2.08709E-05 0.00000E+00
 -1       926 7.20758E-06 1.46535E-05 0.00000E+00
 -1       927 6.59992E-06 4.14389E-05-3.30872E-24
 -1       928 5.91832E-06 7.10327E-05-6.61744E-24
 -1       929 5.25476E-06 9.99458E-05 0.00000E+00
 -1       930 4.69220E-06 1.24849E-04 0.00000E+00
 -1       931 4.27863E-06 1.42458E-04 0.00000E+00
 -1       932 3.97467E-06 1.51187E-04-6.61744E-24
 -1       933 3.70598E-06 1.49548E-04 3.30872E-24
 -1       934 3.38121E-06 1.38452E-04 0.00000E+00
 -1       935 2.93188E-06 1.18917E-04 0.00000E+00
 -1       936 2.36887E-06 9.39201E-05 0.00000E+00
 -1       937 1.74415E-06 6.64996E-05 3.30872E-24
 -1       938 1.14900E-06 4.02605E-05 0.00000E+00
 -1       939 6.60658E-07 1.87955E-05 6.61744E-24
 -1       940 2.94221E-07 4.57779E-06 1.32349E-23
 -1       941 2.04143E-06 2.89306E-07 0.00000E+00
 -1       942 4.19529E-06 6.06414E-07 0.00000E+00
 -1       943 6.34209E-06 9.37605E-07 5.29396E-23
 -1       944 8.51026E-06 1.27059E-06 0.00000E+00
 -1       945 1.06791E-05 1.60447E-06 5.29396E-23
 -1       946 1.28521E-05 1.93847E-06 0.00000E+00
 -1       947 1.50257E-05 2.27254E-06 5.29396E-23
 -1       948 1.72000E-05 2.60660E-06 2.64698E-23
 -1       949 1.93744E-05 2.94071E-06 0.00000E+00
 -1       950 2.15482E-05 3.27487E-06 2.64698E-23
 -1       951 2.37217E-05 3.60947E-06 0.00000E+00
 -1       952 2.58917E-05 3.94496E-06 2.64698E-23
 -1       953 2.80612E-05 4.28755E-06 0.00000E+00
 -1       954 3.02135E-05 4.64413E-06 0.00000E+00
 -1       955 3.23714E-05 5.11162E-06 0.00000E+00
 -1       956 3.43259E-05 6.70835E-06-8.27181E-25
 -1       957 3.42112E-05 7.74778E-06-1.24077E-24
 -1       958 3.40961E-05 8.90345E-06-8.27181E-25
 -1       959 3.39807E-05 1.01619E-05-4.13590E-25
 -1       960 3.38651E-05 1.15095E-05 1.65436E-24
 -1       961 3.37493E-05 1.29327E-05-8.27181E-25
 -1       962 3.36335E-05 1.44179E-05-1.65436E-24
 -1       963 3.35176E-05 1.59513E-05-1.65436E-24
 -1       964 3.34016E-05 1.75193E-05-3.30872E-24
 -1       965 3.32857E-05 1.91082E-05 0.00000E+00
 -1       966 3.31697E-05 2.07043E-05 3.30872E-24
 -1       967 3.30537E-05 2.22940E-05 1.65436E-24
 -1       968 3.29379E-05 2.38636E-05 0.00000E+00
 -1       969 3.28222E-05 2.53995E-05 1.65436E-24
 -1       970 3.27070E-05 2.68881E-05-3.30872E-24
 -1       971 3.23653E-05 2.98510E-05 0.00000E+00
 -1       972 3.21304E-05 3.17081E-05 3.30872E-24
 -1       973 3.18951E-05 3.38485E-05-6.61744E-24
 -1       974 3.16583E-05 3.62323E-05 0.00000E+00
 -1       975 3.14208E-05 3.88192E-05 0.00000E+00
 -1       976 3.11828E-05 4.15685E-05 0.00000E+00
 -1       977 3.09443E-05 4.44393E-05-6.61744E-24
 -1       978 3.07057E-05 4.73901E-05-3.30872E-24
 -1       979 3.04669E-05 5.03796E-05 0.00000E+00
 -1       980 3.02282E-05 5.33663E-05 3.30872E-24
 -1       981 2.99897E-05 5.63086E-05 0.00000E+00
 -1       982 2.97516E-05 5.91652E-05 0.00000E+00
 -1       983 2.95141E-05 6.18948E-05 0.00000E+00
 -1       984 2.92783E-05 6.44563E-05-3.30872E-24
 -1       985 2.90429E-05 6.68092E-05 0.00000E+00
 -3
    1PSTEP                        38          19           1          
  100CL  119 8.74288E-01         841                     0   19           1
 -4  STRESS      6    1
 -5  SXX         1    4    1    1
 -5  SYY         1    4    2    2
 -5  SZZ         1    4    3    3
 -5  SXY         1    4    1    2
 -5  SYZ         1    4    2    3
 -5  SZX         1    4    3    1
 -1         1-3.42135E+06-1.12117E+06-7.00617E+05-1.05415E+06-2.91038E-11 1.94026E-10
 -1         2-1.85262E+06 6.05772E+03 2.82558E+04-6.46703E+04-5.62272E-09 4.10682E-09
 -1         3-1.16204E+06-3.95393E+05-2.98755E+04-6.98179E+04 3.27691E-09-2.12913E-09
 -1         4-8.22865E+05-1.04599E+05 5.09116E+03-3.94640E+04-1.12891E-09-4.01769E-09
 -1         5-5.59792E+05 1.12631E+05-2.14734E+05-1.73454E+04 1.15469E-08-4.12638E-09
 -1         8-1.57002E+06-6.13350E+05-1.91572E+05-6.39666E+05 1.63709E-10-1.30240E-09
 -1         9-1.83724E+06-4.21193E+05-2.00791E+05-4.36002E+05-2.06152E-11 2.95889E-09
 -1        10-6.61794E+05-3.88491E+05 4.58828E+04-9.38379E+04-3.69531E-09 9.15255E-10
 -1        11-3.58810E+05-3.17811E+04 1.38407E+04 1.29492E+04 4.15700E-08 1.59283E-09
 -1        12-3.32398E+05 1.57773E+05-1.60714E+05-6.27717E+04 2.04341E-08 5.75540E-11
 -1        15 3.60289E+04 9.57765E+04 2.19827E+04-1.27868E+04 7.09406E-11-7.57427E-09
 -1        16-1.39175E+06-2.90206E+05-6.84271E+03-5.21855E+05 1.85658E-09-3.48033E-10
 -1        17-7.66948E+05-4.84474E+05-9.02684E+04-3.76088E+05 2.45564E-10 1.84324E-09
 -1        18-2.21519E+05-8.19082E+04-8.73088E+04-1.08499E+05 2.03120E-11 6.89397E-10
 -1        19 5.57919E+04 1.33300E+05-3.71340E+04-3.21010E+04-5.15517E-09 1.73289E-09
 -1        20 1.23498E+05-9.14300E+04-1.50371E+04 6.57043E+04 7.99355E-09-4.04725E-09
 -1        21 2.02685E+03-1.84181E+05 4.66372E+04 5.61672E+02 2.32737E-08-5.46496E-12
 -1        22 4.22274E+04 1.98864E+05 4.19342E+03-1.82096E+04-3.31511E-10-2.28101E-09
 -1        23-2.16236E+05 1.05270E+05 1.71876E+04-4.72692E+04-7.30567E-09-1.14596E-10
 -1        24-2.70525E+05 1.46122E+03 3.01310E+05-5.28736E+05-7.61914E-09 1.19083E-09
 -1        25 6.49718E+05 2.35301E+05 2.05189E+05-3.39614E+05 1.12868E-09-8.84635E-10
 -1        26 2.25364E+03 2.06851E+05 1.07761E+04-3.79897E+04 2.04333E-09 4.96584E-10
 -1        27-4.72677E+04-7.79618E+04-3.36984E+04 8.95687E+04 8.12755E-09-2.03424E-09
 -1        28-1.56848E+04-1.44278E+05-8.59031E+02 6.93213E+04 7.61315E-09-9.95017E-10
 -1        29 4.93842E+05 3.15045E+05 1.23878E+03 1.44545E+03-5.55533E-10-3.43243E-09
 -1        30 2.26834E+05 4.28833E+04 4.30699E+03-2.71249E+04-1.59367E-09 1.78102E-08
 -1        31-3.31867E+05 9.15105E+04 1.18098E+04-1.52892E+04-1.26458E-08-1.81708E-08
 -1        32 1.07641E+06 5.77921E+05 6.80371E+05-5.45293E+05 1.84522E-08 2.59024E-09
 -1        33 1.51482E+06 6.44290E+05 4.74174E+05-5.82659E+04-1.90313E-08-1.42791E-09
 -1        34-2.48712E+05-3.45300E+04-9.83968E+03 4.79378E+04 3.08235E-09-5.63887E-11
 -1        35-4.04809E+04-4.76575E+04-9.04598E+02 1.03135E+05 1.19355E-08-3.48761E-09
 -1        36-4.11917E+06 1.18666E+05-2.75238E+05-2.13392E-07-1.14407E-09 3.97267E-09
 -1        37-4.23818E+06-1.37387E+05-1.94637E+05-3.71791E-07 4.09702E-10-2.12058E-08
 -1        38-4.16508E+06 1.85056E+04-7.11733E+04-1.07805E-07-1.71253E-09 1.44792E-09
 -1        39-4.18443E+06-2.14192E+04-4.46841E+04-6.38433E-08-2.65670E-09-1.20126E-08
 -1        40-4.17259E+06 2.88033E+03-1.82716E+04 1.10989E-07 9.30761E-11-1.40717E-08
 -1        41-4.17560E+06-3.37521E+03-1.08969E+04-7.58608E-08 5.13196E-09-8.25310E-09
 -1        42-4.17381E+06 4.90415E+02-5.34557E+03-4.12426E-08 2.61128E-09-2.57864E-09
 -1        43-4.17428E+06-8.69786E+02-4.26160E+03-5.93664E-08-1.26992E-09 4.26017E-09
 -1        44-4.17388E+06 3.78551E+02-4.32975E+03-2.82834E-07-2.88178E-09 1.45315E-09
 -1        45-4.17507E+06-2.40911E+03-7.95792E+03 5.49901E-08 2.58235E-09 1.43791E-09
 -1        46-4.17304E+06 2.02739E+03-1.29721E+04 3.26959E-08-4.39598E-09 1.72440E-09
 -1        47-4.18125E+06-1.50441E+04-3.14475E+04 4.89884E-08-1.07081E-08-6.50425E-09
 -1        48-4.16777E+06 1.29930E+04-5.00100E+04-2.15206E-09-5.34489E-09-1.46611E-09
 -1        49-4.21899E+06-9.64601E+04-1.36675E+05-8.77299E-08-4.92826E-09 2.03727E-10
 -1        50-4.13556E+06 8.33085E+04-1.93320E+05 1.31340E-07-4.76242E-09-3.95812E-09
 -1        51 3.92113E+04-4.61025E+05 6.36017E+04-1.25260E+06-1.07684E-09-1.09721E-08
 -1        52 1.94661E+04-4.58016E+05 3.87715E+04-1.38140E+06-6.62112E-10-3.49028E-08
 -1        53 1.38031E+04-4.73402E+05 3.08182E+04-1.24918E+06 3.63798E-11-1.87138E-08
 -1        54 3.05576E+04-4.70789E+05 4.66460E+04-1.38492E+06-5.23869E-10 8.80027E-09
 -1        55 6.49007E+04-4.86470E+05 8.39894E+04-1.24845E+06-8.00355E-10 7.31234E-10
 -1        56-5.69043E+06-6.39731E+05-4.70495E+05-2.19972E+06 1.83354E-09-3.17232E-09
 -1        57-5.89808E+06-1.03775E+06-3.15893E+05-2.16010E+06-3.34694E-10-6.58474E-10
 -1        58-5.78278E+06-7.87685E+05-1.10656E+05-2.17275E+06 1.23146E-09-6.48288E-09
 -1        59-5.79206E+06-8.62516E+05-6.56121E+04-2.19120E+06 1.77806E-10-7.78164E-09
 -1        60-5.79487E+06-8.09068E+05-2.58229E+04-2.17051E+06 1.00317E-09-2.37196E-09
 -1        61-5.78056E+06-8.34778E+05-1.45997E+04-2.19072E+06-3.01952E-10 7.64305E-09
 -1        62-5.79389E+06-8.14700E+05-7.13251E+03-2.17339E+06-3.16004E-09 7.13226E-09
 -1        63-5.78544E+06-8.25044E+05-5.94712E+03-2.18319E+06-3.72518E-09 8.83574E-09
 -1        64-5.78988E+06-8.18758E+05-6.98329E+03-2.17800E+06-4.44970E-09 1.37927E-08
 -1        65-5.79543E+06-8.19599E+05-1.41236E+04-2.17348E+06-4.17901E-09-7.44785E-09
 -1        66-5.78395E+06-8.20227E+05-2.49558E+04-2.18309E+06-1.81319E-09 8.85120E-09
 -1        67-5.81738E+06-8.35506E+05-6.33149E+04-2.16156E+06-1.57638E-09 1.12195E-08
 -1        68-5.76831E+06-8.03546E+05-1.06797E+05-2.18977E+06 1.96451E-10 1.55705E-09
 -1        69-5.92378E+06-1.00062E+06-3.04838E+05-2.12709E+06-4.80213E-10-3.67436E-10
 -1        70-5.67917E+06-6.60763E+05-4.54052E+05-2.21578E+06-2.21189E-09 4.74392E-09
 -1        71-2.49122E+06 1.93513E+04-4.49672E+04-3.96292E-08 6.90396E-10 8.22183E-10
 -1        72-2.51047E+06-2.24095E+04-3.17809E+04-4.70511E-07 1.74545E-09 1.06738E-08
 -1        73-2.49871E+06 3.01870E+03-1.16458E+04-2.40423E-07 5.95572E-10-6.74390E-10
 -1        74-2.50171E+06-3.49658E+03-7.33518E+03 3.34744E-07-1.44575E-09-2.11503E-09
 -1        75-2.49994E+06 4.72222E+02-3.05485E+03-8.62664E-08-1.95974E-09 2.22406E-09
 -1        76-2.50028E+06-5.68893E+02-1.92545E+03-7.66581E-08 8.22568E-10 7.96831E-10
 -1        77-2.50013E+06 9.59188E+01-1.14415E+03-2.14883E-08-3.94155E-10-4.09666E-09
 -1        78-2.50013E+06-2.62359E+02-1.28975E+03-8.56280E-08 1.30165E-09 3.08352E-09
 -1        79-2.50009E+06 1.66191E+02-1.78420E+03-4.02577E-07 1.29271E-09 1.90983E-09
 -1        80-2.50061E+06-1.17582E+03-3.77603E+03-1.75819E-08-1.20486E-09 4.97744E-09
 -1        81-2.49965E+06 1.00804E+03-6.39183E+03-6.75834E-08-3.90860E-10 3.22416E-10
 -1        82-2.50371E+06-7.50119E+03-1.56631E+04-1.06751E-07-2.34594E-10-3.53066E-09
 -1        83-2.49702E+06 6.48113E+03-2.49639E+04 6.13803E-08-1.36884E-09-1.24601E-09
 -1        84-2.52252E+06-4.81177E+04-6.82196E+04 1.10836E-07-2.95220E-09-3.41970E-10
 -1        85-2.48092E+06 4.15537E+04-9.65260E+04 6.30797E-08-7.62043E-10 5.23869E-10
 -1        86-9.31915E+04 3.72641E+05 2.20291E+05 5.27384E+03-1.45519E-11-6.74839E-09
 -1        87 1.17615E+05 4.74311E+05 1.73372E+05-2.37268E+04-4.36557E-11-4.76990E-09
 -1        88-2.41453E+04 4.05614E+05 9.21618E+04 3.02410E+03-1.26693E-09-5.06191E-11
 -1        89 9.01512E+04 4.60316E+05 1.37322E+05-2.18855E+04 6.07542E-10-4.64735E-09
 -1        90-6.57404E+04 3.86542E+05 1.58847E+05 3.43315E+03-1.48430E-09-2.72658E-09
 -1        91-1.70527E+06-3.69739E+05-3.78971E+04-7.50688E+05 1.21108E-08 1.30603E-09
 -1        92-1.53670E+06 9.03197E+04 7.23963E+04-2.30289E+05 2.63170E-08 1.76260E-09
 -1        93-1.46170E+06-3.31417E+05-3.71201E+02-7.27877E+05 1.20476E-08 8.68300E-09
 -1        94-1.26809E+06 2.22239E+04 1.02776E+05-2.41784E+05-4.39104E-09-2.86536E-09
 -1        95-1.96316E+06-3.12632E+05-9.75581E+04-7.29508E+05-6.45196E-09 3.43289E-09
 -1        96-9.26690E+05-2.03677E+05 1.23192E+05-4.91181E+05 1.65928E-08-1.83582E-09
 -1        97-1.79711E+06-1.11411E+05-2.74768E+04-4.74706E+05 1.64364E-08 1.47998E-09
 -1        98-1.12760E+06-3.94112E+05 4.69513E+04-7.70132E+05-8.16081E-08 1.03688E-08
 -1        99-1.78033E+06-1.03960E+05-2.33890E+04-4.65013E+05-1.45595E-07-6.84963E-09
 -1       100-9.33468E+05-2.16587E+05 1.17831E+05-5.07922E+05-8.70255E-08 1.03321E-08
 -1       101-1.97396E+06-3.06409E+05-1.01821E+05-7.23138E+05-1.18980E-08-8.05494E-09
 -1       102-1.24388E+06 1.25558E+04 9.83310E+04-2.44218E+05 2.13513E-08 7.34781E-09
 -1       103-1.47415E+06-3.28948E+05-1.74459E+04-7.30985E+05 2.97107E-08 8.23411E-09
 -1       104-1.56324E+06 6.19530E+04 2.94383E+04-2.24737E+05-4.64172E-09 7.64612E-09
 -1       105-1.66672E+06-3.43465E+05-9.25556E+04-7.53510E+05 2.76887E-08 1.31913E-08
 -1       106-1.79412E+06 1.48888E+04-3.46068E+04 6.89110E-09 2.39819E-09-8.18545E-11
 -1       107-1.80894E+06-1.72421E+04-2.44595E+04-3.29592E-08 3.29422E-10-6.45377E-09
 -1       108-1.79988E+06 2.32261E+03-8.96619E+03-3.48509E-07 4.07992E-10-4.79304E-09
 -1       109-1.80220E+06-2.69036E+03-5.64780E+03-1.33417E-07-5.92118E-10-3.44301E-09
 -1       110-1.80083E+06 3.63370E+02-2.35357E+03-1.45509E-07 8.74091E-10-1.41654E-10
 -1       111-1.80111E+06-4.37923E+02-1.48467E+03-6.52939E-08 6.75117E-10-1.75214E-09
 -1       112-1.80098E+06 7.39767E+01-8.84563E+02-5.34950E-08-6.05632E-10 3.91519E-09
 -1       113-1.80099E+06-2.03176E+02-1.00018E+03 3.35282E-07-8.13996E-10 3.01225E-09
 -1       114-1.80095E+06 1.29007E+02-1.38637E+03-1.16345E-07-5.26037E-10-3.04271E-09
 -1       115-1.80136E+06-9.13188E+02-2.93518E+03-4.17798E-07 2.05993E-09-1.02792E-08
 -1       116-1.80061E+06 7.82942E+02-4.96917E+03-7.04740E-08-1.38041E-09-3.79987E-09
 -1       117-1.80377E+06-5.82622E+03-1.21731E+04-2.26287E-07-5.23552E-10 1.59162E-09
 -1       118-1.79855E+06 5.03384E+03-1.94016E+04 1.27524E-07-2.49841E-09-6.61203E-10
 -1       119-1.81837E+06-3.73726E+04-5.30013E+04-2.03794E-07 1.52927E-10-1.29512E-09
 -1       120-1.78604E+06 3.22738E+04-7.49933E+04-4.77056E-07-6.93713E-11 3.89264E-10
 -1       121-1.95441E+03-1.32494E+06 7.67842E+03-3.65416E+03-3.68345E-10 3.68254E-09
 -1       122 2.34560E+03-1.32175E+06 4.57953E+03-1.63201E+04-4.57533E-10 5.56611E-10
 -1       123-1.90499E+02-1.32370E+06 1.02994E+03-2.93426E+03-9.15747E-10 5.63250E-09
 -1       124-9.02909E+02-1.32384E+06-1.26784E+03-1.76490E+04-5.36716E-10 9.44465E-09
 -1       125 7.72631E+02-1.32303E+06-3.34369E+03-2.32597E+03-1.78250E-09 1.63709E-09
 -1       126-7.27304E+05-1.17869E+05 3.75562E+04-2.31588E+05 4.64206E-08 5.12227E-09
 -1       127-4.08935E+05-8.38135E+04 6.98887E+04-2.57920E+05 4.03429E-08 9.55515E-09
 -1       128-6.59171E+05-5.35122E+04 9.75131E+03-1.85635E+05-3.18282E-08-2.88246E-08
 -1       129-4.96517E+05-1.55177E+05 1.34160E+04-3.14709E+05-5.19728E-08-2.86559E-08
 -1       130-6.44103E+05-4.32728E+04 2.58923E+03-1.77823E+05-5.25220E-08 7.16796E-09
 -1       131-4.55022E+05-1.36718E+05 1.91055E+04-2.76294E+05-1.04559E-08 8.28891E-10
 -1       132-6.97952E+05-7.40316E+04-1.66628E+04-2.22184E+05 6.62476E-09-8.72706E-09
 -1       133-3.95225E+05-7.15427E+04 4.17361E+04-1.80720E+05-1.03983E-08-9.19545E-09
 -1       134-6.99038E+05-1.12074E+05-2.50882E+04-2.69703E+05 5.69798E-09-4.51223E-09
 -1       135-4.85865E+05-1.71672E+04 3.40781E+04-1.24225E+05 4.52064E-09 1.19094E-08
 -1       136-6.08874E+05-1.27199E+05-1.14218E+04-2.79532E+05 2.79774E-08-1.92381E-09
 -1       137-6.40229E+05 1.08730E+03 6.11020E+03-1.24556E+05 4.44706E-08 2.66818E-08
 -1       138-5.49753E+05-1.26579E+05-3.43585E+03-2.73491E+05 9.56186E-09 5.62568E-09
 -1       139-6.39366E+05-1.29608E+03-1.87372E+03-1.23981E+05 7.47918E-08 5.37497E-08
 -1       140-6.09664E+05-1.24874E+05-3.08136E+04-2.80042E+05 1.38507E-08-1.45455E-08
 -1       141-1.06683E+06 4.37922E+03-1.01885E+04-4.74061E-07-4.65516E-11 1.88902E-09
 -1       142-1.07115E+06-5.07214E+03-7.21259E+03-6.65962E-08-9.85991E-10 9.69533E-09
 -1       143-1.06853E+06 6.83832E+02-2.67154E+03-1.57626E-07 2.41353E-10 5.74948E-09
 -1       144-1.06917E+06-7.96685E+02-1.73133E+03-1.12580E-07 1.43801E-09-4.03702E-10
 -1       145-1.06881E+06 1.11560E+02-8.25530E+02-6.63892E-08 5.38978E-10-1.23163E-09
 -1       146-1.06887E+06-1.64810E+02-7.20389E+02-4.11069E-07-2.79261E-10 1.67788E-09
 -1       147-1.06883E+06 5.30712E+01-7.91966E+02-3.22099E-07 7.81626E-10-3.51866E-09
 -1       148-1.06896E+06-2.96737E+02-1.46288E+03-1.49619E-09 1.34233E-09-5.59464E-09
 -1       149-1.06872E+06 2.43385E+02-2.52960E+03-8.80073E-08-1.17938E-10 5.04770E-10
 -1       150-1.06976E+06-1.80845E+03-5.74177E+03-4.94730E-09-8.30386E-10-2.93767E-10
 -1       151-1.06803E+06 1.56262E+03-9.87995E+03 4.60811E-08-9.16432E-10 3.04453E-09
 -1       152-1.07457E+06-1.16413E+04-2.43123E+04-6.04739E-08-5.12298E-10 2.91675E-09
 -1       153-1.06392E+06 1.00601E+04-3.87810E+04-9.59205E-08 2.39230E-09 3.47973E-09
 -1       154-1.10376E+06-7.46883E+04-1.05944E+05-3.59071E-08 6.27597E-10-2.43017E-09
 -1       155-1.03888E+06 6.45024E+04-1.49856E+05-1.34602E-07 6.77491E-09-2.85945E-09
 -1       156-3.14398E+04-1.76445E+05 7.03025E+04-2.99837E+04-1.03901E-08 6.66887E-09
 -1       157 3.75360E+04-1.22808E+05 5.66583E+04 1.23561E+05-2.64436E-08 3.22370E-09
 -1       158-5.35736E+03-1.63135E+05 2.39513E+04-2.99888E+04-1.30299E-08 5.82509E-09
 -1       159 2.31417E+04-7.26713E+04 4.47311E+04 1.17940E+05-5.08180E-09 7.63350E-09
 -1       160-1.93872E+04-2.23422E+05 1.68136E+04-2.43891E+04 2.55195E-08-4.12456E-10
 -1       161-7.54999E+05-1.02380E+05 3.89606E+03-2.62008E+05-8.31869E-09-9.68112E-09
 -1       162-6.23461E+05-1.21300E+05 1.82780E+04-2.96134E+05 2.23491E-08 4.87830E-10
 -1       163-7.36578E+05-7.44581E+04 1.83623E+03-2.35486E+05 6.46703E-08-8.03493E-09
 -1       164-6.43801E+05-1.49056E+05 3.63713E+03-3.23399E+05 8.08892E-08 1.73885E-08
 -1       165-7.36098E+05-7.35315E+04-4.43621E+02-2.35790E+05 7.43929E-08 1.28985E-08
 -1       166-6.28302E+05-1.29697E+05 9.01486E+03-2.94106E+05 1.57238E-08 1.04628E-08
 -1       167-7.50627E+05-9.49353E+04-8.26743E+03-2.63718E+05-1.63573E-09-7.92397E-10
 -1       168-6.34502E+05-8.72421E+04 1.51456E+04-2.39486E+05-1.07304E-08 3.29220E-09
 -1       169-7.28492E+05-1.17058E+05-9.59760E+03-2.89293E+05 1.19303E-08-7.58382E-09
 -1       170-7.04141E+05-5.58376E+04 5.16466E+03-2.07456E+05-1.57479E-09-8.23593E-09
 -1       171-6.82408E+05-1.25253E+05-7.59660E+03-2.96807E+05-8.61756E-08-9.51741E-09
 -1       172-7.56300E+05-5.28824E+04-1.56905E+04-1.99849E+05-6.52300E-08 4.27235E-09
 -1       173-6.77755E+05-1.18949E+05-2.91343E+04-2.98044E+05-1.08090E-07 1.49703E-08
 -1       174-7.37535E+05-1.10415E+05-7.37182E+04-1.96956E+05-1.20237E-07 3.70783E-08
 -1       175-6.99843E+05-6.88155E+04-1.28555E+05-2.98581E+05-1.74587E-08 6.30098E-09
 -1       191 2.50732E+03 6.63440E+05 4.07726E+03-3.22544E+04-3.92902E-10-2.29556E-09
 -1       192 8.72508E+02 6.64041E+05 2.31790E+03-3.50177E+04 4.73619E-10 5.02041E-09
 -1       193 3.24052E+02 6.63617E+05 1.65488E+03-3.19225E+04-1.10617E-09 3.50337E-09
 -1       194 8.66286E+02 6.63967E+05 2.25087E+03-3.56088E+04 5.67070E-10 7.99355E-09
 -1       195 2.44724E+03 6.63350E+05 3.91419E+03-3.16591E+04-1.69166E-09 5.05133E-09
 -1       251-2.11561E+06 5.61016E+03-1.01807E+05-1.31254E+05-2.12094E-09-2.58296E-09
 -1       252-1.77993E+06-6.48091E+03-2.96789E+03 3.56521E+05 5.51719E-09 4.47926E-10
 -1       253-1.99645E+06 8.67130E+03-2.36515E+04-1.67492E+05-5.81258E-09-7.42330E-09
 -1       254-1.55612E+06 1.30284E+04 7.11325E+04 2.20834E+05-1.26820E-08 3.87445E-10
 -1       255-2.32433E+06-2.88211E+04-8.20186E+04 4.56470E+03 1.03191E-08-4.48495E-09
 -1       256-1.50588E+06 2.35165E+04 8.94752E+04-1.41223E+05-7.50333E-10 5.94582E-10
 -1       257-2.04292E+06-5.48040E+03-1.90511E+04 1.93745E+05-4.18277E-09 9.79756E-09
 -1       258-1.79745E+06 2.04645E+04 3.38705E+04-3.27083E+05-3.48262E-09 1.34401E-08
 -1       259-2.05236E+06-6.37515E+03-2.10477E+04 1.91258E+05-1.41872E-08 1.17886E-08
 -1       260-1.49771E+06 2.36243E+04 9.11540E+04-1.33095E+05 2.81580E-09-5.05872E-09
 -1       261-2.32253E+06-2.85526E+04-8.14438E+04-1.07771E+03 1.30858E-08 9.33437E-09
 -1       262-1.56545E+06 1.28261E+04 6.96393E+04 2.28193E+05 1.64878E-08-3.19119E-09
 -1       263-1.98957E+06 9.23531E+03-2.14993E+04-1.69201E+05-1.30703E-08-8.39191E-09
 -1       264-1.77582E+06-5.06625E+03-4.95012E+02 3.54675E+05-6.23970E-08-4.44561E-09
 -1       265-2.12636E+06 3.38563E+03-1.01561E+05-1.27692E+05-2.64272E-08-4.92946E-09
 -1       266-3.91235E+04-2.12821E+05 9.08839E+04-1.06642E+04 7.27596E-11 4.83396E-10
 -1       267 4.36609E+04-1.70347E+05 6.23385E+04 4.74705E+04 1.09139E-10 3.69340E-10
 -1       268-4.68087E+03-1.99648E+05 1.80587E+04-9.70596E+03-9.45874E-11 3.92981E-09
 -1       269-2.03922E+03-1.78351E+05 4.12837E+03 4.29465E+04-1.72349E-10 9.21551E-09
 -1       270 5.94667E+03-2.04097E+05-1.71068E+04-6.15278E+03 3.20142E-10 1.18300E-08
 -1       271-4.79047E+06-6.06605E+05-3.76174E+05-1.85936E+06 3.20870E-09 3.92902E-09
 -1       272-4.92512E+06-8.50215E+05-2.37503E+05-1.85625E+06-1.56751E-09-4.76575E-09
 -1       273-4.85843E+06-6.89603E+05-8.86880E+04-1.84634E+06-3.95289E-10-3.60887E-09
 -1       274-4.84508E+06-7.43780E+05-4.86806E+04-1.87903E+06 4.02906E-10 8.55835E-10
 -1       275-4.86820E+06-6.96410E+05-2.06112E+04-1.84294E+06-7.55790E-10-3.74439E-09
 -1       276-4.83309E+06-7.35695E+05-1.08865E+04-1.88491E+06 3.22416E-10-9.68066E-09
 -1       277-4.87056E+06-6.95904E+05-5.58032E+03-1.84131E+06-7.05313E-10-1.12618E-09
 -1       278-4.83052E+06-7.36367E+05-4.36843E+03-1.88723E+06 1.88595E-09 4.27511E-09
 -1       279-4.87101E+06-6.95465E+05-5.22097E+03-1.84084E+06 3.09399E-10 2.39061E-09
 -1       280-4.83153E+06-7.37169E+05-9.93843E+03-1.88693E+06-2.56068E-09 5.22959E-12
 -1       281-4.86956E+06-6.95212E+05-1.86321E+04-1.84157E+06-3.48109E-10-4.37376E-09
 -1       282-4.84130E+06-7.45612E+05-4.40206E+04-1.88300E+06-1.56615E-09-2.36469E-09
 -1       283-4.86124E+06-6.88560E+05-8.01078E+04-1.84409E+06-5.51154E-10-1.77170E-09
 -1       284-4.91279E+06-8.42606E+05-2.14619E+05-1.86332E+06 6.25732E-10-2.29193E-10
 -1       285-4.80014E+06-6.13276E+05-3.39922E+05-1.85551E+06-5.02041E-10 1.44064E-09
 -1       286-6.15768E+05-2.50065E+04 5.80693E+04-2.47837E+03 2.95077E-09 2.14641E-09
 -1       287-5.89749E+05 2.89660E+04 4.11796E+04 2.25441E+03 2.27746E-09-3.23598E-09
 -1       288-6.06230E+05-3.91951E+03 1.49697E+04-4.05631E+02 1.69987E-09 5.45697E-10
 -1       289-6.01009E+05 4.53242E+03 9.57873E+03-2.00733E+03-3.89875E-10-2.52044E-10
 -1       290-6.04525E+05-6.21015E+02 3.83575E+03 1.78345E+03 1.22174E-09-1.19076E-09
 -1       291-6.03219E+05 7.31344E+02 2.40650E+03-5.60142E+03 1.78795E-09 7.01993E-09
 -1       292-6.04043E+05-1.09292E+02 1.20838E+03 3.18851E+03 2.50789E-09 4.61344E-09
 -1       293-6.03726E+05 2.31843E+02 1.08896E+03-7.06764E+03 1.28504E-09 3.54522E-09
 -1       294-6.04033E+05-1.11419E+02 1.23642E+03 3.24973E+03 2.29626E-09-3.71622E-09
 -1       295-6.03240E+05 7.55150E+02 2.47357E+03-5.82205E+03 2.03419E-09-7.38510E-09
 -1       296-6.04517E+05-6.41192E+02 3.97246E+03 1.94287E+03 1.32087E-09-1.58298E-09
 -1       297-6.00949E+05 4.69103E+03 9.90582E+03-2.36131E+03-1.71354E-10 4.21039E-09
 -1       298-6.06299E+05-4.05683E+03 1.54985E+04-2.11067E+02-2.08729E-10 1.26420E-10
 -1       299-5.89248E+05 2.99860E+04 4.26302E+04 1.90597E+03-1.20538E-09-3.68209E-09
 -1       300-6.16197E+05-2.58883E+04 6.01126E+04-2.32449E+03-9.54799E-10 1.30603E-09
 -1       301 6.46499E+04 2.00237E+04 1.41646E+05-3.72466E+04 3.14321E-09 2.10855E-09
 -1       302 2.19450E+04 4.64952E+04 8.65343E+04-4.38336E+04 3.24098E-09 1.35555E-08
 -1       303 6.29374E+03 2.94149E+04 6.90955E+04-3.73900E+04 3.43425E-09 5.20322E-09
 -1       304 2.79673E+04 5.00352E+04 1.02589E+05-4.37793E+04 2.73212E-09 1.70530E-12
 -1       305 8.42109E+04 1.65224E+04 1.80627E+05-3.72451E+04 3.20142E-09 5.63523E-09
 -1       306-3.27364E+06-4.24967E+05-2.20298E+05-1.26913E+06 1.51522E-09-5.09317E-10
 -1       307-3.33233E+06-5.86812E+05-1.38933E+05-1.28982E+06 5.50244E-11-9.80435E-10
 -1       308-3.31373E+06-4.73035E+05-5.19802E+04-1.26127E+06 5.92081E-10 1.13505E-09
 -1       309-3.28557E+06-5.24881E+05-2.85198E+04-1.30369E+06-8.78572E-10 2.04318E-09
 -1       310-3.31951E+06-4.76919E+05-1.21201E+04-1.25928E+06 2.81034E-10 4.26553E-09
 -1       311-3.27885E+06-5.19999E+05-6.46209E+03-1.30707E+06 5.31600E-09 1.45531E-09
 -1       312-3.32074E+06-4.76763E+05-3.43586E+03-1.25851E+06 2.47064E-09-1.63470E-09
 -1       313-3.27783E+06-5.19947E+05-2.93169E+03-1.30789E+06 4.39969E-09 5.49994E-09
 -1       314-3.32066E+06-4.76821E+05-3.81651E+03-1.25858E+06-1.71872E-09-5.79575E-09
 -1       315-3.27919E+06-5.19906E+05-7.50700E+03-1.30675E+06-1.24783E-09-8.08632E-09
 -1       316-3.31920E+06-4.77000E+05-1.42439E+04-1.25948E+06-1.47338E-10-2.74486E-09
 -1       317-3.28703E+06-5.25795E+05-3.36215E+04-1.30293E+06-2.92857E-09 2.59752E-09
 -1       318-3.31251E+06-4.72268E+05-6.12943E+04-1.26169E+06-1.10958E-10 5.71526E-09
 -1       319-3.34187E+06-5.99250E+05-1.63889E+05-1.28711E+06 3.32648E-10 1.74623E-09
 -1       320-3.26549E+06-4.15242E+05-2.59790E+05-1.27064E+06 7.93079E-10 3.55067E-09
 -1       321-5.98376E+05-2.90434E+04 5.96695E+04 6.34304E+03-9.63155E-10 1.87356E-09
 -1       322-5.32846E+05 3.34235E+04 4.92641E+04-2.93438E+04 1.13030E-08 4.44788E-09
 -1       323-5.77348E+05-4.67848E+03 1.51486E+04 1.81412E+04-5.39490E-09 4.89490E-09
 -1       324-5.62880E+05 5.71508E+03 1.12130E+04-4.56343E+04-3.05385E-08-3.91083E-09
 -1       325-5.69334E+05-6.35170E+02 4.28439E+03 2.26450E+04 5.15566E-09-4.23597E-10
 -1       326-5.65030E+05 1.40814E+03 3.30482E+03-4.56846E+04 1.85059E-08 5.28610E-09
 -1       327-5.75205E+05-3.76609E+02-1.37885E+02 1.81915E+04-6.89283E-09 5.47413E-09
 -1       328-5.48096E+05 8.48221E+02 4.74183E+03-2.93097E+04 2.11696E-09-3.47190E-09
 -1       329-5.85298E+05-8.27385E+02-3.16060E+03 6.25856E+03 9.66998E-09 3.96358E-09
 -1       330-5.37134E+05 8.26067E+02 6.18671E+03-2.35100E+03 1.24146E-10 5.21467E-09
 -1       331-5.85540E+05-8.39647E+02-3.90723E+03-8.75216E+03 3.58364E-09-1.00641E-09
 -1       332-5.47750E+05 3.75680E+02 2.95913E+03 2.48752E+04 3.92087E-08 1.93194E-09
 -1       333-5.75250E+05 6.14475E+01-3.73830E+03-2.09570E+04 2.22353E-08-5.42514E-10
 -1       334-5.67335E+05-3.23972E+03-5.57839E+03 4.20091E+04 2.12665E-08-1.85355E-09
 -1       335-5.66950E+05 3.53643E+03-9.47996E+03-2.59066E+04-2.27332E-08-2.43517E-09
 -1       336 9.85409E+02-1.32312E+06-6.05152E+03-5.97327E+03-2.12816E-09-2.30420E-09
 -1       337-2.41908E+03-1.32563E+06-8.84615E+03-3.42251E+04-1.51704E-09 9.45533E-10
 -1       338 1.26068E+03-1.32287E+06-1.31003E+04-5.75612E+03-2.96768E-09-7.00766E-09
 -1       339-1.48696E+04-1.33309E+06-3.09464E+04-3.44490E+04-1.46747E-09-1.32744E-08
 -1       340 1.10554E+04-1.31575E+06-4.78353E+04-5.75613E+03-2.01544E-09-5.94514E-09
 -1       341-1.56668E+06-2.87273E+05-6.44177E+04-6.81557E+05-3.30438E-08 4.02724E-09
 -1       342-1.59250E+06-3.76900E+04 1.52998E+03-3.40876E+05-7.14898E-08-7.85462E-09
 -1       343-1.47195E+06-2.92828E+05-1.33728E+04-6.76345E+05 1.51713E-08 3.76940E-09
 -1       344-1.40418E+06-7.08310E+04 4.76866E+04-3.69900E+05 3.99858E-08-1.28512E-09
 -1       345-1.74867E+06-2.60421E+05-5.30658E+04-6.46940E+05-2.14914E-09-9.30868E-10
 -1       346-1.20212E+06-2.32865E+05 5.89014E+04-5.57739E+05-3.10338E-08-1.19923E-08
 -1       347-1.67209E+06-1.32664E+05-1.21865E+04-4.87349E+05-5.19049E-08 2.66170E-08
 -1       348-1.27910E+06-3.47251E+05 2.19876E+04-7.18000E+05 4.64634E-08 4.51290E-08
 -1       349-1.68035E+06-1.37422E+05-1.58945E+04-4.93725E+05 3.16059E-08 1.22432E-08
 -1       350-1.20202E+06-2.25328E+05 5.72806E+04-5.45698E+05-3.72113E-08-3.39514E-09
 -1       351-1.74007E+06-2.63633E+05-5.87581E+04-6.52227E+05 6.27551E-09 2.02999E-09
 -1       352-1.42726E+06-7.51948E+04 2.79249E+04-3.64338E+05-1.37373E-09-5.74801E-10
 -1       353-1.45803E+06-2.84726E+05-3.92833E+04-6.77092E+05 3.35058E-09-2.68847E-09
 -1       354-1.61883E+06-9.73726E+04-7.95361E+04-3.30888E+05 4.63187E-08 1.34132E-08
 -1       355-1.55410E+06-2.36013E+05-1.85870E+05-6.90573E+05 1.49812E-08-6.86850E-09
 -1       356-5.93846E+05 4.34522E+03-1.19818E+04-2.90956E+04-1.13909E-09-4.09091E-09
 -1       357-5.96766E+05-3.99353E+03-7.54979E+03 5.09113E+04-4.57442E-08-3.59887E-09
 -1       358-6.00520E+05 2.48526E+02-4.05432E+03-2.60166E+04-1.97518E-08-6.44354E-09
 -1       359-5.74886E+05 4.75878E+02 2.54171E+03 3.52306E+04 1.27025E-08-2.42366E-09
 -1       360-6.14621E+05-9.72782E+02-4.67520E+03-1.33863E+04 1.19735E-08-6.58815E-10
 -1       361-5.56423E+05 1.06442E+03 7.28044E+03 5.04975E+03 2.18625E-08-6.02716E-09
 -1       362-6.17975E+05-1.12137E+03-5.09512E+03 4.15923E+03-4.57021E-11-5.27005E-09
 -1       363-5.65414E+05 8.25721E+02 5.12046E+03-2.77760E+04 8.61746E-09-4.13061E-09
 -1       364-6.06140E+05-3.38260E+02-3.83869E+03 1.94135E+04 2.86977E-08 1.42586E-09
 -1       365-5.89236E+05-4.09934E+02-2.43214E+03-4.99957E+04-5.52427E-08 6.03677E-11
 -1       366-5.95462E+05 1.12849E+03-7.01885E+03 2.63921E+04 3.28428E-08 4.36739E-09
 -1       367-5.97256E+05-7.34070E+03-1.66770E+04-5.32710E+04 4.24763E-08 1.11822E-09
 -1       368-5.98385E+05 6.78318E+03-2.91511E+04 2.26947E+04 1.53857E-08 6.78847E-09
 -1       369-5.97201E+05-5.14457E+04-7.12815E+04-3.61920E+04 3.60674E-08 4.95493E-09
 -1       370-5.94367E+05 4.42593E+04-1.12512E+05 9.29348E+03 1.27034E-08 3.88536E-09
 -1       371-1.66642E+04-2.21746E+05 1.37338E+04-2.01382E+04 3.30729E-08-7.58064E-10
 -1       372 1.42051E+04-1.00228E+05 2.65813E+04 1.01287E+05-3.16777E-09 9.92259E-10
 -1       373 8.91290E+02-1.71220E+05-1.06102E+03-2.56435E+04-5.20140E-09 5.08635E-10
 -1       374-1.12973E+04-1.59824E+05-1.25235E+04 1.06983E+05-1.97356E-08 4.53682E-10
 -1       375 1.07426E+04-1.64823E+05-2.59136E+04-2.58051E+04-7.88350E-09-5.13182E-10
 -1       376-5.60257E+05-1.08177E+05-2.11282E+04-2.53583E+05 8.79804E-08-6.68206E-09
 -1       377-6.19186E+05-2.14495E+04-6.47028E+03-1.41517E+05 6.53177E-08 1.40171E-08
 -1       378-5.36028E+05-1.12402E+05-3.39411E+03-2.51670E+05-5.76134E-08 1.76283E-08
 -1       379-5.98298E+05-1.97049E+04 4.50653E+03-1.41697E+05-5.76365E-08-1.87511E-08
 -1       380-5.80531E+05-1.10361E+05-8.58869E+03-2.52895E+05-1.61290E-08 8.26094E-09
 -1       381-4.98033E+05-3.88602E+04 2.15015E+04-1.51267E+05 9.83778E-09 6.50937E-09
 -1       382-6.33270E+05-9.54649E+04-1.54553E+04-2.39713E+05 5.12318E-09-1.28762E-09
 -1       383-4.47280E+05-8.13464E+04 2.30143E+04-1.98276E+05 2.64581E-08 1.77863E-10
 -1       384-6.30871E+05-6.82024E+04-1.03783E+04-2.05738E+05-6.36346E-08 6.92751E-09
 -1       385-4.80714E+05-1.26627E+05 6.12802E+03-2.61417E+05-6.57277E-08 2.10710E-09
 -1       386-6.02818E+05-4.79787E+04-4.75370E+03-1.78808E+05 4.09814E-08 2.66803E-08
 -1       387-5.03319E+05-1.44707E+05-9.81151E+03-2.80744E+05 5.31458E-08 1.64418E-08
 -1       388-6.09569E+05-4.91611E+04-2.32299E+04-1.87316E+05 1.27097E-07 1.26574E-08
 -1       389-4.83730E+05-1.47366E+05-4.27260E+04-2.30571E+05 1.23672E-07 8.20364E-10
 -1       390-6.19774E+05-4.73373E+04-9.99312E+04-2.27086E+05 8.71478E-09-2.50657E-09
 -1       406 1.99649E+03 6.54497E+05 3.99803E+03-7.24858E+04-2.10639E-09 1.65892E-09
 -1       407 1.23143E+03 6.55179E+05 4.48724E+03-7.97788E+04 4.77939E-10 3.35876E-09
 -1       408 1.78088E+03 6.54369E+05 7.08091E+03-7.22561E+04-2.64208E-09 2.82398E-09
 -1       409 6.91118E+03 6.57056E+05 1.50037E+04-8.00738E+04 2.96950E-10-1.58980E-09
 -1       410 1.97869E+04 6.52423E+05 3.01374E+04-7.21623E+04-2.75759E-09 3.59751E-09
 -1       466 1.39365E+06-5.61624E+04 1.20782E+05 4.29084E+04-9.11314E-10-1.43555E-08
 -1       467 1.50128E+06 6.34464E+04 9.46736E+04-6.90248E+04 6.36646E-11-2.15459E-09
 -1       468 1.43669E+06-7.93049E+03 3.22450E+04 1.18359E+04-1.90880E-09-7.23958E-10
 -1       469 1.45124E+06 9.03111E+03 2.10025E+04-2.72419E+04-2.53843E-09 5.38580E-09
 -1       470 1.44253E+06-1.13917E+03 8.57337E+03 1.11320E+03 8.78600E-10 3.47927E-09
 -1       471 1.44449E+06 1.39712E+03 5.42799E+03-1.28801E+04 1.87488E-09 1.21622E-09
 -1       472 1.44330E+06-2.21419E+02 3.24365E+03-2.52628E+03-5.19591E-10 3.06204E-09
 -1       473 1.44380E+06 7.17682E+02 3.65573E+03-8.29058E+03-2.67733E-10-3.12662E-09
 -1       474 1.44320E+06-4.50000E+02 5.08711E+03-3.47632E+03-1.86482E-09 3.86763E-09
 -1       475 1.44516E+06 3.33287E+03 1.07443E+04-7.93740E+03 5.55090E-10-1.81012E-09
 -1       476 1.44194E+06-2.83213E+03 1.81961E+04-2.87943E+03 3.19795E-09 6.17456E-09
 -1       477 1.45411E+06 2.12195E+04 4.45304E+04-1.14013E+04 5.69017E-10-1.50158E-09
 -1       478 1.43424E+06-1.83114E+04 7.09045E+04-1.23181E+01 3.71472E-10 2.12822E-09
 -1       479 1.50925E+06 1.36363E+05 1.93895E+05-2.31537E+04 4.17754E-09 8.36735E-11
 -1       480 1.38685E+06-1.17791E+05 2.73595E+05 8.87188E+03 4.38365E-09-2.16824E-09
 -1       481-1.45069E+04 3.04728E+05 2.31922E+04-2.33466E+04-1.47338E-10-2.48338E-09
 -1       482 1.55778E+04 3.69635E+05 2.68176E+04 7.34514E+04-3.66072E-10 9.28867E-09
 -1       483-1.95684E+03 3.31257E+05 9.36441E+03-1.64130E+04-1.56206E-10 2.90663E-09
 -1       484 6.50190E+03 3.42312E+05 1.21070E+04 6.62721E+04-2.38742E-11-1.08889E-09
 -1       485-4.61006E+03 3.30822E+05 1.12043E+04-1.61521E+04 5.32054E-11-1.27272E-09
 -1       486-1.32826E+06-2.63645E+05-1.58396E+05-6.62481E+05-9.42964E-09-1.73022E-08
 -1       487-1.42038E+06 3.00885E+04-4.37217E+04-1.64829E+05 1.12768E-08 4.54766E-08
 -1       488-1.32330E+06-2.93111E+05-5.02068E+04-6.53851E+05 9.64127E-09-7.63248E-09
 -1       489-9.63476E+05 1.65579E+04 9.61673E+04-1.79878E+05-1.38311E-08-5.00540E-09
 -1       490-1.76887E+06-2.65410E+05-1.05652E+05-6.33275E+05 2.95131E-09 3.51611E-09
 -1       491-7.26085E+05-1.93832E+05 1.13482E+05-4.37086E+05-1.96451E-08 3.10743E-08
 -1       492-1.55917E+06-8.41518E+04-2.44826E+04-3.96904E+05 8.16635E-09-1.21474E-08
 -1       493-9.61974E+05-3.61410E+05 3.77686E+04-6.91654E+05-3.53720E-09 6.37908E-09
 -1       494-1.55094E+06-8.08242E+04-2.20630E+04-3.92358E+05 2.08411E-09 1.04487E-08
 -1       495-7.31964E+05-1.99837E+05 1.11661E+05-4.46080E+05 1.53341E-08-4.82255E-08
 -1       496-1.77169E+06-2.62294E+05-1.04564E+05-6.29214E+05 2.06910E-09-1.95432E-08
 -1       497-9.49287E+05 1.49945E+04 1.00829E+05-1.82353E+05-2.98928E-09-1.37161E-08
 -1       498-1.33417E+06-2.95109E+05-4.80547E+04-6.55050E+05 4.18208E-09-2.77996E-08
 -1       499-1.41572E+06 3.89408E+04-3.11942E+04-1.66503E+05-1.94882E-08-4.10573E-08
 -1       500-1.32205E+06-2.70475E+05-1.37923E+05-6.59623E+05-4.22842E-08 3.39278E-08
 -1       501-9.11134E+05-2.89521E+04 6.64621E+04-1.71660E+03 2.21678E-09-1.25874E-09
 -1       502-8.76824E+05 3.35361E+04 4.79348E+04-3.07401E+03 6.47930E-10 1.54614E-11
 -1       503-8.99437E+05-4.56876E+03 1.70086E+04 5.68130E+03-8.01492E-10 2.03454E-09
 -1       504-8.91833E+05 5.33301E+03 1.11269E+04-1.48729E+04-3.65185E-09-8.69477E-10
 -1       505-8.96238E+05-6.79367E+02 4.39789E+03 1.00820E+04 4.97282E-09 4.06885E-09
 -1       506-8.94981E+05 9.04721E+02 2.62376E+03-1.81112E+04 1.04194E-08 1.87470E-09
 -1       507-8.96381E+05-1.32603E+02 9.82535E+02 8.92058E+03 6.32150E-09 3.11337E-09
 -1       508-8.93437E+05 2.23125E+02 9.98455E+02-1.08770E+04 4.98494E-09-3.13854E-09
 -1       509-8.97705E+05-1.20313E+02-2.40454E+02 2.84750E+03 1.13516E-09 1.18595E-09
 -1       510-8.92450E+05 6.02795E+01 5.15259E+02 2.72599E+03 2.19052E-09 1.06363E-09
 -1       511-8.97276E+05 1.09270E+01-7.65051E+02-4.68184E+03-2.85922E-09 3.82784E-10
 -1       512-8.94570E+05-5.03198E+02-9.62812E+02 1.49451E+04-6.77016E-09-5.84711E-09
 -1       513-8.95662E+05 5.61463E+02-2.09425E+03-9.37110E+03-1.91685E-09-1.04239E-09
 -1       514-8.97291E+05-3.88343E+03-5.62799E+03 1.88205E+04-2.97030E-09 6.62010E-09
 -1       515-8.94655E+05 3.40833E+03-8.22577E+03-8.55823E+03-2.92994E-09-2.82307E-09
 -1       516-7.53556E+04 2.87965E+05 1.76906E+05-1.46283E+04-7.63976E-10-9.25070E-10
 -1       517 8.96815E+04 3.70081E+05 1.30789E+05 6.02014E+04-1.35333E-09-1.10501E-09
 -1       518-1.42624E+04 3.13475E+05 5.57793E+04-1.54575E+04-2.25555E-10 5.02041E-09
 -1       519 3.71223E+04 3.70011E+05 6.50793E+04 6.80623E+04-3.44471E-09-2.35002E-09
 -1       520-2.37844E+04 2.89300E+05 4.95977E+04-2.25071E+04-1.54432E-09-1.42381E-08
 -1       521-4.64332E+06-5.94534E+05-3.24111E+05-1.79451E+06-2.54659E-10-1.14960E-09
 -1       522-4.74810E+06-8.15376E+05-2.04570E+05-1.80460E+06 1.12641E-09-3.20142E-10
 -1       523-4.70201E+06-6.65798E+05-7.63971E+04-1.78314E+06-3.40947E-10 2.81580E-09
 -1       524-4.67928E+06-7.23720E+05-4.19439E+04-1.82437E+06-5.96174E-10-5.53700E-09
 -1       525-4.71034E+06-6.71742E+05-1.77513E+04-1.78032E+06 3.73348E-10-2.12549E-09
 -1       526-4.66943E+06-7.16296E+05-9.40828E+03-1.82893E+06 3.49269E-09 5.93423E-09
 -1       527-4.71201E+06-6.71671E+05-4.85189E+03-1.77931E+06 2.26328E-09 8.10303E-10
 -1       528-4.66805E+06-7.15986E+05-3.88533E+03-1.82982E+06-9.00968E-10-3.55294E-09
 -1       529-4.71180E+06-6.71891E+05-4.75368E+03-1.77954E+06 2.79169E-09 5.25324E-09
 -1       530-4.67009E+06-7.15490E+05-9.11434E+03-1.82796E+06-2.05000E-09 2.57114E-09
 -1       531-4.70975E+06-6.72407E+05-1.71787E+04-1.78098E+06-1.66801E-09-6.58474E-10
 -1       532-4.68036E+06-7.21849E+05-4.05150E+04-1.82255E+06 1.17871E-09 2.03636E-09
 -1       533-4.70128E+06-6.67100E+05-7.38207E+04-1.78415E+06-1.86924E-09-4.15457E-09
 -1       534-4.74761E+06-8.09563E+05-1.97583E+05-1.80251E+06 1.23737E-09-2.72121E-09
 -1       535-4.64420E+06-5.98675E+05-3.13092E+05-1.79558E+06-3.81988E-10 4.30737E-09
 -1       536 5.73349E+04-1.87499E+04 8.01009E+04-1.13960E+04 5.43878E-10 3.70710E-09
 -1       537 8.68473E+04 2.49162E+04 5.13756E+04-4.45418E+04-3.88400E-09 6.22822E-09
 -1       538 6.93570E+04-2.05486E+03 2.07096E+04-1.12761E+04-1.52795E-10 3.28055E-09
 -1       539 7.30352E+04 2.34455E+03 1.15929E+04-4.46346E+04 2.09639E-09-3.85148E-09
 -1       540 7.06715E+04-2.79428E+02 5.20712E+03-1.12912E+04-1.20053E-10 3.15140E-10
 -1       541 7.12411E+04 2.05812E+02 2.75697E+03-4.45989E+04-4.77485E-11-7.66931E-10
 -1       542 7.08119E+04-4.41081E+01 1.27780E+03-1.13125E+04-6.50743E-10-1.97883E-09
 -1       543 7.08800E+04 4.86755E+01 6.31950E+02-4.45665E+04 2.59206E-10-5.02291E-09
 -1       544 7.08215E+04 7.68795E+00 2.36236E+02-1.13239E+04-1.96610E-09-1.21474E-09
 -1       545 7.07714E+04 3.78910E+01-2.18615E+01-4.45533E+04-7.29281E-09 3.68095E-09
 -1       546 7.08363E+04 2.70313E+01-2.80183E+02-1.13256E+04-1.96837E-09 4.82419E-09
 -1       547 7.06891E+04-1.30856E+02-7.57354E+02-4.45538E+04-6.62908E-10-1.15301E-09
 -1       548 7.09467E+04 1.22958E+02-1.42615E+03-1.13235E+04-1.26693E-09 3.40947E-10
 -1       549 6.98821E+04-1.74498E+03-3.53955E+03-4.44853E+04-1.45519E-11 1.21713E-09
 -1       550 7.18131E+04 1.21867E+03-5.58148E+03-1.13939E+04-5.33873E-10-1.43666E-09
 -1       551 2.28537E+04-4.39886E+05 4.38941E+04-6.61310E+05 4.48927E-09 4.48927E-09
 -1       552 1.33510E+04-4.33684E+05 3.45329E+04-7.73941E+05 3.51429E-09 4.10364E-09
 -1       553 9.34684E+03-4.40107E+05 3.98634E+04-6.60194E+05 5.41331E-09 2.76486E-09
 -1       554 2.87018E+04-4.25450E+05 7.46306E+04-7.74114E+05 4.98403E-09 2.62844E-09
 -1       555 7.22372E+04-4.49604E+05 1.41262E+05-6.60918E+05 4.65297E-09-3.49974E-09
 -1       556-3.36737E+05-1.73123E+05 2.72845E+04-3.09763E+05 1.93540E-09-3.65981E-09
 -1       557-3.11223E+05-2.00781E+05 1.34610E+04-3.29776E+05 9.31323E-10 5.02041E-10
 -1       558-3.37873E+05-1.81974E+05 5.60177E+03-3.04627E+05-1.48430E-09 5.45697E-12
 -1       559-3.14357E+05-2.05080E+05 2.77326E+03-3.31155E+05 6.54836E-10 3.61661E-09
 -1       560-3.38653E+05-1.81795E+05 1.20187E+03-3.04866E+05-3.63798E-11 1.87310E-09
 -1       561-3.15336E+05-2.04963E+05 5.79561E+02-3.31855E+05 1.74623E-10 3.47802E-09
 -1       562-3.39228E+05-1.81435E+05 1.86325E+02-3.05242E+05-3.32511E-09-7.17500E-09
 -1       563-3.15889E+05-2.04726E+05-3.12963E+01-3.32246E+05 5.16593E-10-1.33878E-09
 -1       564-3.39548E+05-1.81224E+05-3.08900E+02-3.05461E+05 3.73802E-09 3.95812E-09
 -1       565-3.16168E+05-2.04615E+05-7.69713E+02-3.32425E+05-1.29512E-09-2.00453E-09
 -1       566-3.39579E+05-1.81153E+05-1.65309E+03-3.05509E+05 4.23233E-09-3.24326E-09
 -1       567-3.16429E+05-2.04806E+05-3.65997E+03-3.32370E+05 9.26548E-09-7.25777E-09
 -1       568-3.39190E+05-1.81785E+05-7.54504E+03-3.05147E+05 4.10364E-09 2.29193E-10
 -1       569-3.20296E+05-2.09514E+05-1.77932E+04-3.31055E+05-8.49468E-10 4.44925E-09
 -1       570-3.37399E+05-1.95803E+05-3.63620E+04-2.99086E+05 2.80124E-09 7.91215E-09
 -1       571 4.20698E+05 2.02482E+04 3.11492E+04-1.09446E+05 1.41881E-10-3.54703E-10
 -1       572 4.25435E+05 6.88134E+03 1.53046E+04-1.20657E+05 2.88310E-10-3.86535E-10
 -1       573 4.22557E+05 1.51854E+03 6.80942E+03-1.09140E+05-6.36646E-11-1.97178E-09
 -1       574 4.23093E+05 4.67532E+02 3.42156E+03-1.20982E+05 1.07775E-10 2.66118E-09
 -1       575 4.22724E+05 3.48233E+01 1.61943E+03-1.09103E+05 9.74524E-10-5.54428E-09
 -1       576 4.22770E+05-2.44214E-01 8.29317E+02-1.21024E+05 7.35668E-10-5.62795E-09
 -1       577 4.22751E+05-2.92941E+01 4.15274E+02-1.09098E+05-2.72848E-12-2.34377E-09
 -1       578 4.22756E+05-2.82760E+01 2.38718E+02-1.21030E+05 6.74390E-10-2.45382E-09
 -1       579 4.22814E+05-5.22442E+01 1.66183E+02-1.09098E+05 1.56433E-10 2.23463E-09
 -1       580 4.22856E+05-7.37124E+01 1.89884E+02-1.21025E+05 7.06677E-10 6.83940E-10
 -1       581 4.22933E+05-1.08590E+02 2.92193E+02-1.09103E+05-4.27463E-10-3.00588E-09
 -1       582 4.23074E+05-8.31056E+01 5.84799E+02-1.20963E+05-2.26464E-10-5.09590E-09
 -1       583 4.23081E+05 3.74565E+01 1.13220E+03-1.09160E+05 1.01900E-08 6.00721E-10
 -1       584 4.23688E+05 8.77350E+02 2.54698E+03-1.20458E+05 1.78406E-08-2.85718E-09
 -1       585 4.22975E+05 3.06098E+03 5.15919E+03-1.09613E+05 1.06793E-08 1.65892E-09
 -1       586 3.85381E+03 1.79680E+05 6.56883E+03-2.72132E+05 6.67569E-10-1.66801E-09
 -1       587 2.27438E+03 1.80666E+05 6.22076E+03-3.00826E+05 9.40418E-10-3.20142E-10
 -1       588 2.56725E+03 1.79477E+05 8.76608E+03-2.71784E+05 5.80258E-10 2.41926E-09
 -1       589 8.58700E+03 1.82755E+05 1.79108E+04-3.00911E+05 7.96717E-10 1.01977E-09
 -1       590 2.36296E+04 1.77380E+05 3.56270E+04-2.72032E+05 7.96717E-10-6.18456E-11
 -1       591-1.94329E+05-6.71683E+04-3.72439E+04-1.00492E+05 5.76392E-10-1.04956E-09
 -1       592-1.95491E+05-6.25133E+04-1.82568E+04-1.11543E+05-1.82649E-09-8.75139E-09
 -1       593-1.95414E+05-5.33107E+04-7.74565E+03-1.06829E+05-4.55202E-10-1.57979E-09
 -1       594-1.91531E+05-5.74642E+04-3.78831E+03-1.12236E+05-4.46335E-10-2.13684E-09
 -1       595-1.95601E+05-5.27903E+04-1.74433E+03-1.07120E+05-4.00178E-10-2.15812E-09
 -1       596-1.91236E+05-5.72611E+04-8.85543E+02-1.12217E+05-9.26093E-10 2.49202E-09
 -1       597-1.95637E+05-5.28142E+04-4.84447E+02-1.07123E+05-2.84842E-09-6.51085E-09
 -1       598-1.91206E+05-5.72639E+04-3.91983E+02-1.12203E+05 2.11458E-10-7.48378E-09
 -1       599-1.95631E+05-5.28168E+04-5.03573E+02-1.07120E+05-3.41061E-11 2.62298E-09
 -1       600-1.91227E+05-5.72663E+04-9.35940E+02-1.12208E+05 5.72072E-10 2.92312E-09
 -1       601-1.95578E+05-5.27972E+04-1.85101E+03-1.07109E+05 3.73348E-09 1.05092E-08
 -1       602-1.91532E+05-5.74836E+04-4.02417E+03-1.12215E+05-1.67347E-09-5.52427E-09
 -1       603-1.95366E+05-5.33610E+04-8.22946E+03-1.06798E+05 6.01176E-10 3.95357E-09
 -1       604-1.95761E+05-6.28154E+04-1.93947E+04-1.11430E+05-2.66664E-09-4.71346E-09
 -1       605-1.94171E+05-6.81092E+04-3.95645E+04-1.00091E+05 2.56114E-09 7.32689E-09
 -1       606 1.35232E+05-1.68036E+04-2.57636E+04 3.90408E+04-9.00218E-09-9.02219E-10
 -1       607 1.31219E+05-5.70914E+03-1.26513E+04 4.26192E+04-3.18687E-09-8.59927E-10
 -1       608 1.33544E+05-1.25346E+03-5.63057E+03 3.87720E+04 5.20049E-09-2.81671E-09
 -1       609 1.33000E+05-3.32156E+02-2.82163E+03 4.29055E+04-3.63070E-09-5.39831E-09
 -1       610 1.33297E+05 3.57550E+01-1.33286E+03 3.87378E+04-8.88394E-09-1.54523E-09
 -1       611 1.33179E+05 1.01179E+02-6.70700E+02 4.29411E+04-1.52349E-08 6.65750E-10
 -1       612 1.33227E+05 1.15721E+02-3.19968E+02 3.87341E+04-5.28962E-09 2.20098E-09
 -1       613 1.33174E+05 1.32339E+02-1.48333E+02 4.29452E+04-8.44375E-09-2.86855E-09
 -1       614 1.33189E+05 1.22201E+02-4.68397E+01 3.87333E+04-2.96041E-09 3.14230E-10
 -1       615 1.33154E+05 1.43818E+02 3.19719E+01 4.29452E+04 1.08193E-08 8.89668E-09
 -1       616 1.33161E+05 1.37191E+02 1.23984E+02 3.87338E+04-5.98902E-09 6.18911E-10
 -1       617 1.33158E+05 1.97421E+02 2.96322E+02 4.29435E+04-2.55022E-09-1.04046E-09
 -1       618 1.33123E+05 2.81838E+02 6.05770E+02 3.87344E+04-1.78716E-09 4.37421E-09
 -1       619 1.33346E+05 7.84267E+02 1.37075E+03 4.29376E+04-1.62481E-09-1.35697E-09
 -1       620 1.32938E+05 1.97178E+03 2.79456E+03 3.87352E+04 2.11332E-09 3.40606E-10
 -1       621 3.26289E+03 4.37650E+05 7.91195E+03-3.61682E+04 3.65799E-09-1.26056E-09
 -1       622 1.27542E+03 4.39146E+05 6.55035E+03-4.24914E+04 1.03137E-09-5.09135E-09
 -1       623 7.65219E+02 4.37990E+05 8.06575E+03-3.62255E+04 3.37013E-09-9.23137E-10
 -1       624 4.63039E+03 4.41154E+05 1.55291E+04-4.22740E+04 9.85438E-10-2.30739E-09
 -1       625 1.41684E+04 4.35724E+05 2.96909E+04-3.63795E+04 2.72212E-09-6.55109E-09
 -1       626 1.94187E+05 6.30712E+04-1.11896E+04 1.31122E+05-3.54794E-09-2.39925E-09
 -1       627 1.88921E+05 7.10526E+04-5.30679E+03 1.33557E+05 2.08092E-09 5.04031E-09
 -1       628 1.94401E+05 6.85730E+04-2.23124E+03 1.28424E+05 6.23368E-09-6.81143E-09
 -1       629 1.89722E+05 7.33291E+04-1.06978E+03 1.33337E+05 1.97178E-08 2.83040E-09
 -1       630 1.94352E+05 6.89627E+04-4.72737E+02 1.28190E+05 8.69113E-09-4.66372E-09
 -1       631 1.89755E+05 7.35056E+04-2.10893E+02 1.33319E+05-4.47062E-09 5.48465E-09
 -1       632 1.94310E+05 6.89851E+04-5.89846E+01 1.28158E+05-3.10047E-09 7.73002E-09
 -1       633 1.89741E+05 7.35205E+04 5.30817E+01 1.33310E+05-1.15688E-09 4.66071E-09
 -1       634 1.94282E+05 6.89804E+04 1.91537E+02 1.28148E+05 2.91675E-09-5.16866E-09
 -1       635 1.89756E+05 7.35284E+04 4.56370E+02 1.33310E+05-2.21632E-09-4.20050E-09
 -1       636 1.94259E+05 6.90013E+04 9.56111E+02 1.28132E+05-2.50350E-09 2.50520E-09
 -1       637 1.89986E+05 7.37841E+04 2.13947E+03 1.33272E+05-1.22689E-08-2.26555E-09
 -1       638 1.94214E+05 6.97734E+04 4.43444E+03 1.27796E+05 1.04615E-09 7.16682E-09
 -1       639 1.92256E+05 7.77168E+04 1.05522E+04 1.32315E+05-1.28396E-08 1.19644E-09
 -1       640 1.94329E+05 8.11518E+04 2.22391E+04 1.23059E+05-7.09406E-09 1.46520E-09
 -1       641 6.39764E+03 3.89570E+03-9.07149E+03-2.22455E+02-9.17211E-09-2.17642E-09
 -1       642 2.51987E+03-4.50889E+03-6.39666E+03 9.79470E+02 5.80584E-09 2.76577E-09
 -1       643 4.89399E+03 6.06606E+02-2.33974E+03-2.16033E+02-1.98013E-08-4.66116E-10
 -1       644 4.26517E+03-6.97509E+02-1.44811E+03 9.70090E+02 9.77973E-09-9.76655E-10
 -1       645 4.65113E+03 9.20491E+01-5.59750E+02-2.13092E+02-8.74588E-09-1.37672E-09
 -1       646 4.55113E+03-9.39521E+01-2.63173E+02 9.65775E+02-4.45565E-07 7.35747E-09
 -1       647 4.60739E+03 4.49321E+00 3.97065E+00-2.11723E+02-5.89017E-05 1.66086E-07
 -1       648 4.63167E+03 5.68456E+01 2.56972E+02 9.64375E+02-1.17051E-04 3.24131E-07
 -1       649 4.57039E+03-5.84111E+01 5.79368E+02-2.11694E+02-5.88980E-05 1.62077E-07
 -1       650 4.84510E+03 4.49301E+02 1.39902E+03 9.65233E+02-4.16144E-07-2.92630E-09
 -1       651 4.39418E+03-3.87546E+02 2.43743E+03-2.12581E+02-4.51532E-09-4.58067E-09
 -1       652 6.04901E+03 2.88679E+03 6.02277E+03 9.66584E+02 6.77366E-09-5.76597E-09
 -1       653 3.36721E+03-2.49219E+03 9.60819E+03-2.13053E+02-1.19417E-08-4.42878E-09
 -1       654 1.32925E+04 1.84994E+04 2.62519E+04 9.60252E+02 5.13662E-09 7.29233E-09
 -1       655-2.84633E+03-1.59718E+04 3.71427E+04-2.06295E+02 2.11985E-09-1.29876E-09
 -1       656 1.31842E+04-5.04955E+05-5.94988E+04 1.42968E+04 1.59271E-08 1.74168E-10
 -1       657-1.96199E+04-5.26568E+05-4.33531E+04 5.36828E+04 1.26961E-08 2.84615E-09
 -1       658 2.51954E+03-5.12687E+05-2.75800E+04 1.41511E+04 1.55744E-08 4.15321E-09
 -1       659-1.79357E+04-5.25635E+05-4.04022E+04 5.37868E+04 1.70535E-08 1.39566E-09
 -1       660 1.18759E+04-5.05964E+05-5.39016E+04 1.41949E+04 1.31622E-08 1.69598E-09
 -1       661 4.91808E+05 6.32343E+04 4.03563E+04 1.92823E+05 1.99634E-09-6.09361E-09
 -1       662 5.01177E+05 9.44379E+04 2.54727E+04 1.98420E+05-1.87816E-09-5.06952E-09
 -1       663 4.98733E+05 7.24731E+04 9.53038E+03 1.91864E+05 1.54654E-09-7.02585E-10
 -1       664 4.93220E+05 8.24338E+04 5.25038E+03 2.00071E+05-2.04745E-08-3.74712E-09
 -1       665 4.99495E+05 7.34986E+04 2.23540E+03 1.91818E+05-1.29664E-08-2.98724E-09
 -1       666 4.92344E+05 8.11352E+04 1.21544E+03 2.00151E+05-7.29113E-09-8.75502E-10
 -1       667 4.99573E+05 7.36248E+04 6.79384E+02 1.91833E+05 6.39096E-09 6.41211E-09
 -1       668 4.92268E+05 8.10093E+04 6.39812E+02 2.00139E+05-5.29670E-09-1.98719E-09
 -1       669 4.99566E+05 7.36167E+04 8.97880E+02 1.91832E+05 2.85618E-09-8.10360E-10
 -1       670 4.92417E+05 8.12205E+04 1.82097E+03 2.00152E+05 2.47445E-08-4.28827E-09
 -1       671 4.99432E+05 7.34261E+04 3.46043E+03 1.91817E+05 1.40500E-08-1.27761E-09
 -1       672 4.93813E+05 8.32315E+04 8.19701E+03 1.99997E+05 8.06722E-10 1.12232E-09
 -1       673 4.98218E+05 7.18394E+04 1.49040E+04 1.91905E+05-2.72018E-09 1.29603E-09
 -1       674 5.06289E+05 1.01985E+05 3.98523E+04 1.97372E+05-1.20726E-08-3.08182E-09
 -1       675 4.87366E+05 5.74042E+04 6.31490E+04 1.93422E+05-5.10499E-09 3.25599E-09
 -1       676 1.32845E+03-4.74127E+05-6.91557E+03 7.33914E+02 1.60539E-08-2.62649E-10
 -1       677-2.61776E+03-4.76768E+05-7.48127E+03 3.34178E+02 2.75872E-09 3.59845E-09
 -1       678 8.20204E+02-4.74444E+05-8.86101E+03 7.32364E+02 9.63792E-09 3.06411E-09
 -1       679-9.35454E+03-4.80772E+05-1.94295E+04 3.33391E+02-2.80329E-09-4.87914E-09
 -1       680 6.75665E+03-4.70126E+05-2.95140E+04 7.32345E+02 1.01736E-08-3.88948E-09
 -1       681 6.36372E+05-1.65511E+04 3.71512E+04 7.03894E+03 2.40789E-10 4.96584E-10
 -1       682 6.59070E+05 1.90528E+04 2.74259E+04-2.12791E+04 3.23865E-10-5.63887E-11
 -1       683 6.44958E+05-2.51770E+03 9.68213E+03 1.82322E+03 8.31051E-11 1.54523E-09
 -1       684 6.48791E+05 2.94139E+03 6.28295E+03-1.38002E+04-5.15286E-10 2.34604E-09
 -1       685 6.46508E+05-3.72029E+02 2.55894E+03-4.39911E+02-3.49317E-10 1.93609E-09
 -1       686 6.46972E+05 4.95970E+02 1.60803E+03-1.10783E+04 6.70372E-10 1.84374E-09
 -1       687 6.46745E+05-5.42186E+01 9.45469E+02-8.98534E+02-3.95008E-10 1.77697E-09
 -1       688 6.46956E+05 1.94000E+02 1.04433E+03-1.17405E+04-6.73310E-11 3.00140E-09
 -1       689 6.46532E+05-7.53103E+01 1.37418E+03 2.22240E+02-2.36500E-09 2.68329E-09
 -1       690 6.48454E+05 7.29008E+02 3.13416E+03-1.61078E+04 7.02130E-10 3.54402E-09
 -1       691 6.45309E+05-6.30604E+02 4.78185E+03 3.46863E+03 1.02091E-10 1.76215E-10
 -1       692 6.55727E+05 5.28944E+03 1.32124E+04-2.63063E+04 2.89373E-09 1.06411E-09
 -1       693 6.39518E+05-4.79918E+03 1.84535E+04 1.04217E+04-1.05456E-09-2.31194E-09
 -1       694 6.90898E+05 3.80272E+04 5.81613E+04-4.74977E+04-7.31222E-09-1.48339E-09
 -1       695 6.11158E+05-3.39783E+04 7.04314E+04 2.46759E+04-8.77071E-09-1.04847E-08
 -1       696-1.34105E+04 5.70649E+05 3.05656E+04-3.00090E+03 1.78261E-10-1.13363E-09
 -1       697 1.42036E+04 5.83782E+05 1.92458E+04 3.19433E+03 7.04858E-11-4.28571E-10
 -1       698-7.71637E+02 5.76614E+05 2.96376E+03-1.95835E+03-2.61025E-10 1.32806E-09
 -1       699-7.54256E+03 5.73561E+05-9.20976E+03 1.71693E+03-3.80169E-10 3.46191E-09
 -1       700 8.30052E+03 5.80874E+05-1.83716E+04-1.52359E+03-2.08274E-10 1.57024E-09
 -1       701-5.89578E+05-6.94330E+04-8.12645E+04-2.49695E+05-2.17187E-09-1.05865E-08
 -1       702-6.20906E+05-8.01930E+04-4.54482E+04-1.68993E+05-2.26123E-09-5.81940E-09
 -1       703-5.71761E+05-1.01183E+05-1.82878E+04-2.49680E+05 4.73074E-09 5.14865E-09
 -1       704-6.36745E+05-4.37865E+04-9.84141E+03-1.70527E+05-1.28276E-08-9.48876E-09
 -1       705-5.74689E+05-1.05088E+05-4.83612E+03-2.48948E+05 6.81354E-09 8.99536E-09
 -1       706-5.99928E+05-4.64804E+04 3.75773E+03-1.75416E+05-7.56410E-09-1.37688E-08
 -1       707-6.07570E+05-9.92213E+04-6.93069E+03-2.43987E+05 4.07545E-09-3.75530E-09
 -1       708-5.43964E+05-6.88064E+04 1.14561E+04-1.96591E+05-2.15391E-09-5.64501E-09
 -1       709-6.29395E+05-8.36952E+04-8.18148E+03-2.26829E+05-9.66384E-09-5.47868E-09
 -1       710-5.29909E+05-1.02138E+05 6.45734E+03-2.36844E+05 8.52197E-09 1.21872E-09
 -1       711-6.22303E+05-6.53943E+04-6.51345E+03-2.04292E+05-9.11541E-10 2.72321E-08
 -1       712-5.47488E+05-1.29604E+05-9.46843E+03-2.67966E+05-2.14504E-09 2.90547E-08
 -1       713-6.13278E+05-5.51493E+04-1.80085E+04-1.96769E+05 6.13909E-10-2.02681E-08
 -1       714-5.60928E+05-1.55664E+05-4.97131E+04-2.55806E+05-4.20346E-09-2.66173E-08
 -1       715-6.08540E+05-3.96313E+04-8.18180E+04-2.16198E+05 8.22365E-09 2.03727E-09
 -1       716 3.54178E+05-2.38467E+04 4.75450E+04 1.71073E+04 1.46342E-08-3.52884E-09
 -1       717 4.20720E+05 2.64823E+04 4.15161E+04-3.81481E+04 6.17456E-09-8.63656E-09
 -1       718 3.75463E+05-3.39270E+03 1.22094E+04 8.67375E+03 1.61708E-09-2.18370E-09
 -1       719 3.92965E+05 3.63909E+03 9.89408E+03-2.49817E+04-1.66312E-09-3.54305E-09
 -1       720 3.81032E+05-4.34318E+02 3.26113E+03 3.92486E+03 5.21243E-09 2.28738E-09
 -1       721 3.85500E+05 5.34070E+02 2.75819E+03-1.77293E+04 2.88631E-09 7.04006E-11
 -1       722 3.82613E+05-7.89996E+01 1.58757E+03 1.42005E+03 5.88406E-09 3.80126E-09
 -1       723 3.83549E+05 4.62928E+02 2.26947E+03-1.42708E+04 4.35151E-10 4.59275E-09
 -1       724 3.82879E+05-2.93056E+02 3.40254E+03 4.66841E+02 6.86036E-09 3.30522E-09
 -1       725 3.84271E+05 2.36820E+03 7.42698E+03-1.36494E+04 4.91785E-09 4.29554E-09
 -1       726 3.81875E+05-1.97098E+03 1.26463E+04 7.98781E+02 6.42460E-09 2.62708E-09
 -1       727 3.91394E+05 1.48935E+04 3.12597E+04-1.57010E+04 8.72087E-09 3.86717E-09
 -1       728 3.75807E+05-1.28334E+04 4.93532E+04 2.51821E+03 3.63497E-09 1.88993E-09
 -1       729 4.32240E+05 9.55825E+04 1.36154E+05-2.12793E+04 9.80720E-10 4.45289E-09
 -1       730 3.41244E+05-8.26256E+04 1.90677E+05 6.37631E+03 2.92710E-09-4.80213E-10
 -1       731-1.91676E+04 2.00483E+05 3.25621E+04-1.51976E+04-6.62112E-09-5.08862E-09
 -1       732 2.07492E+04 2.81385E+05 3.44570E+04 4.39357E+04 3.33330E-09 1.39494E-10
 -1       733-2.61005E+03 2.24094E+05 7.57040E+03-8.95763E+03-1.50203E-09-7.49878E-10
 -1       734 2.36738E+03 2.48330E+05 7.43849E+03 3.40762E+04 1.25601E-09-6.79466E-09
 -1       735 9.10944E+01 2.32221E+05 2.18253E+02-5.31752E+03 1.30490E-09-5.90057E-09
 -1       736-1.03184E+06-1.65325E+05-8.87595E+04-4.73710E+05 1.92213E-08-6.35919E-09
 -1       737-1.17608E+06-9.51696E+04-5.14122E+04-2.84544E+05 3.02948E-08-8.64748E-09
 -1       738-1.10632E+06-1.90314E+05-3.08059E+04-4.66745E+05 1.01395E-08 1.18507E-08
 -1       739-1.00455E+06-1.05969E+05 1.67895E+04-3.28460E+05-2.03750E-09 4.35421E-10
 -1       740-1.19900E+06-1.58193E+05-2.51571E+04-4.26279E+05 1.17975E-08 1.42136E-08
 -1       741-9.49606E+05-1.90349E+05 1.93908E+04-4.39041E+05 1.90137E-08 3.91177E-08
 -1       742-1.16272E+06-1.04692E+05-4.00946E+03-3.57469E+05 7.99082E-09-2.06356E-08
 -1       743-9.83500E+05-2.36633E+05 5.41806E+03-5.04802E+05-3.11736E-10 2.48606E-08
 -1       744-1.16847E+06-1.09007E+05-5.87481E+03-3.63071E+05-7.82625E-08-2.64582E-08
 -1       745-9.46669E+05-1.80252E+05 2.21279E+04-4.25692E+05-4.59524E-08-5.09777E-09
 -1       746-1.19565E+06-1.64435E+05-2.52352E+04-4.33601E+05-7.98491E-09-1.75078E-09
 -1       747-1.02169E+06-9.74438E+04 1.61655E+04-3.20688E+05 6.95809E-09-9.26570E-09
 -1       748-1.09292E+06-1.92267E+05-2.64233E+04-4.67486E+05 1.97730E-08 2.25582E-08
 -1       749-1.18167E+06-8.94011E+04-4.67491E+04-2.84710E+05 6.21549E-09 3.63034E-08
 -1       750-1.03992E+06-1.68906E+05-8.14140E+04-4.73030E+05 6.55564E-09 2.43163E-08
 -1       751 3.75229E+06-2.13607E+05 4.98416E+05 1.71113E+04-2.68321E-08 5.82077E-10
 -1       752 3.96934E+06 2.47431E+05 3.52026E+05-1.93433E+04-5.57429E-09-1.03319E-09
 -1       753 3.83642E+06-3.32920E+04 1.29205E+05 2.68917E+03 5.86724E-10-1.57888E-09
 -1       754 3.87181E+06 3.85443E+04 8.10860E+04-2.76857E+03 2.39299E-09 1.52340E-09
 -1       755 3.85016E+06-5.18306E+03 3.33037E+04 5.40491E+02-5.46996E-09 8.69477E-10
 -1       756 3.85596E+06 6.07543E+03 1.98751E+04-2.93638E+02-1.09016E-09-4.53201E-09
 -1       757 3.85243E+06-8.83754E+02 9.80512E+03 2.14296E+02-8.38503E-10-2.29920E-09
 -1       758 3.85362E+06 1.57394E+03 7.84043E+03 7.44510E+01-3.41532E-09 4.67389E-09
 -1       759 3.85254E+06-6.88658E+02 8.00087E+03 1.72399E+02-2.56877E-09 1.49385E-10
 -1       760 3.85506E+06 4.39029E+03 1.46735E+04 7.06092E+01-8.97288E-10-1.47884E-09
 -1       761 3.85097E+06-3.69553E+03 2.39181E+04 2.18137E+02-2.69178E-09-2.86491E-09
 -1       762 3.86626E+06 2.74213E+04 5.77466E+04-3.24042E+02 2.85903E-09 2.31739E-09
 -1       763 3.84122E+06-2.36774E+04 9.18424E+04 5.67040E+02 9.96021E-09 1.91721E-09
 -1       764 3.93482E+06 1.75784E+05 2.49977E+05-3.00544E+03 2.01883E-09 2.37924E-09
 -1       765 3.78206E+06-1.51738E+05 3.54037E+05 2.89904E+03-2.64238E-09-2.82307E-09
 -1       766-8.54759E+04 3.89574E+05 1.97668E+05-2.32242E+04 3.20870E-08-2.81772E-05
 -1       767 1.02256E+05 4.92958E+05 1.49680E+05 9.67804E+04 2.35843E-07-5.59175E-05
 -1       768-1.63867E+04 4.26185E+05 6.64137E+04-2.10684E+04 6.76337E-08-2.81597E-05
 -1       769 4.92507E+04 4.99392E+05 8.41226E+04 1.05395E+05 5.32737E-09-1.84353E-07
 -1       770-3.36838E+04 3.84752E+05 6.66626E+04-3.18524E+04-2.78087E-08-5.39922E-09
 -1       771-2.14185E+06-4.32639E+05-7.60018E+04-9.24276E+05-9.73159E-10 3.63798E-10
 -1       772-2.13712E+06-4.29734E+05-3.71880E+04-9.54418E+05-3.77258E-09-4.78394E-10
 -1       773-2.14507E+06-4.03718E+05-1.58486E+04-9.36961E+05-1.75351E-09 2.47383E-10
 -1       774-2.12909E+06-4.19893E+05-7.71630E+03-9.57080E+05 1.22236E-09-3.43425E-09
 -1       775-2.14609E+06-4.02237E+05-3.59578E+03-9.37778E+05-5.67525E-10-7.11225E-10
 -1       776-2.12891E+06-4.19399E+05-1.80325E+03-9.57626E+05 1.45519E-10-2.78987E-09
 -1       777-2.14666E+06-4.01989E+05-1.00295E+03-9.38012E+05 9.09495E-11-2.24918E-09
 -1       778-2.12919E+06-4.19295E+05-7.75758E+02-9.58001E+05-3.45608E-11-2.53488E-09
 -1       779-2.14701E+06-4.01782E+05-9.94154E+02-9.38174E+05 1.56433E-10-8.76753E-10
 -1       780-2.12949E+06-4.19225E+05-1.81669E+03-9.58278E+05-2.31921E-10 1.10958E-10
 -1       781-2.14712E+06-4.01613E+05-3.59940E+03-9.38257E+05-2.23372E-09-4.16640E-09
 -1       782-2.13021E+06-4.19613E+05-7.83086E+03-9.58432E+05-1.37788E-09 4.91127E-10
 -1       783-2.14679E+06-4.02663E+05-1.60312E+04-9.37688E+05 7.24867E-10 5.84077E-09
 -1       784-2.13844E+06-4.30067E+05-3.78313E+04-9.56967E+05 3.82784E-10-2.25555E-10
 -1       785-2.14447E+06-4.31427E+05-7.72064E+04-9.24563E+05 4.15184E-10-2.01908E-09
 -1       786 3.86168E+05-1.15275E+04 5.00354E+04-2.79368E+03 1.01750E-09-7.38510E-10
 -1       787 4.04198E+05 1.56840E+04 3.20369E+04-1.13408E+04-1.34628E-09 3.16095E-09
 -1       788 3.93709E+05-1.18774E+03 1.29660E+04-2.80077E+03 1.02773E-10 2.21644E-09
 -1       789 3.95790E+05 1.53993E+03 7.23718E+03-1.13104E+04 2.06967E-10-3.37809E-09
 -1       790 3.94562E+05-1.29138E+02 3.29437E+03-2.82236E+03 2.83080E-10 1.53091E-09
 -1       791 3.94819E+05 1.48237E+02 1.76786E+03-1.12792E+04 1.11186E-10-3.55547E-09
 -1       792 3.94671E+05-1.64536E+01 9.07642E+02-2.83205E+03 5.18270E-10 5.46095E-10
 -1       793 3.94699E+05 1.83624E+01 6.05341E+02-1.12726E+04 4.63693E-10 1.72209E-09
 -1       794 3.94681E+05-9.56662E+00 5.62865E+02-2.82890E+03-1.09526E-09-1.87100E-09
 -1       795 3.94739E+05 6.34074E+01 8.60097E+02-1.12923E+04 1.15853E-09 1.95461E-09
 -1       796 3.94637E+05-5.91259E+01 1.48656E+03-2.81235E+03 2.48860E-09 2.70563E-09
 -1       797 3.95168E+05 6.70628E+02 3.19848E+03-1.13356E+04 5.25802E-09-3.15686E-09
 -1       798 3.94265E+05-5.26157E+02 5.70082E+03-2.78557E+03 1.93768E-09-1.65096E-09
 -1       799 3.98870E+05 6.87673E+03 1.40709E+04-1.13728E+04-1.84582E-09-2.36537E-09
 -1       800 3.90955E+05-5.07002E+03 2.19636E+04-2.77605E+03 1.91449E-10-5.09317E-11
 -1       801-1.77258E+04 4.46698E+05 6.02577E+04-3.20567E+05 1.57161E-09 1.30240E-09
 -1       802 4.32320E+04 4.61760E+05 6.45273E+04-1.24906E+06-7.91624E-09-1.89175E-10
 -1       803 1.68331E+02 4.45552E+05 6.66133E+04-3.20054E+05 3.89264E-09 1.08294E-08
 -1       804 8.47388E+04 4.87627E+05 1.38824E+05-1.24895E+06-1.11031E-08-6.54836E-09
 -1       805-5.19874E+04 4.22199E+05 2.00633E+05-3.20704E+05 3.71074E-09 2.53203E-09
 -1       806-3.99763E+05-1.06064E+05-3.39633E+04-1.83717E+05 2.06342E-09-6.42103E-10
 -1       807-3.99967E+05-9.74439E+04-1.61132E+04-1.94054E+05 1.20667E-09 3.12161E-09
 -1       808-3.99583E+05-8.87237E+04-6.77455E+03-1.91045E+05 4.42287E-09-9.29890E-09
 -1       809-3.96622E+05-9.13440E+04-3.27360E+03-1.95462E+05 2.05355E-08 4.07493E-09
 -1       810-3.99672E+05-8.75346E+04-1.48027E+03-1.91581E+05 6.68797E-09 1.16097E-09
 -1       811-3.96297E+05-9.09382E+04-7.42335E+02-1.95521E+05-4.56339E-10 2.96222E-09
 -1       812-3.99700E+05-8.74989E+04-3.89563E+02-1.91607E+05 2.79090E-09 7.60474E-09
 -1       813-3.96260E+05-9.09275E+04-2.90137E+02-1.95512E+05 1.25181E-09 2.71802E-09
 -1       814-3.99695E+05-8.75053E+04-3.41399E+02-1.91602E+05-9.61563E-10-7.04858E-11
 -1       815-3.96277E+05-9.09433E+04-6.14279E+02-1.95507E+05 1.85469E-09 7.78618E-09
 -1       816-3.99655E+05-8.75436E+04-1.20497E+03-1.91573E+05-7.95399E-09-1.39980E-08
 -1       817-3.96533E+05-9.12705E+04-2.65502E+03-1.95437E+05 1.74623E-09 2.03272E-09
 -1       818-3.99563E+05-8.85238E+04-5.49037E+03-1.91138E+05 1.01227E-08 1.87165E-08
 -1       819-3.99291E+05-9.61502E+04-1.30538E+04-1.94208E+05-2.72121E-09-1.26238E-09
 -1       820-3.99632E+05-1.02628E+05-2.75140E+04-1.85256E+05-2.37924E-09 1.87720E-09
 -1       821-4.01699E+05 1.19343E+04-5.18500E+04 2.80666E+03-4.01860E-09 2.94312E-09
 -1       822-4.20346E+05-1.62558E+04-3.31983E+04 1.19807E+04-1.98065E-09 2.46109E-09
 -1       823-4.09520E+05 1.22325E+03-1.34424E+04 2.69633E+03 3.90355E-09-3.66708E-09
 -1       824-4.11670E+05-1.57567E+03-7.50445E+03 1.21420E+04-1.25328E-09 3.41970E-10
 -1       825-4.10409E+05 1.34958E+02-3.43331E+03 2.64344E+03-7.88191E-09 9.52241E-10
 -1       826-4.10694E+05-1.20965E+02-1.86824E+03 1.22295E+04-1.55441E-08-1.47793E-09
 -1       827-4.10524E+05 2.46551E+01-1.01672E+03 2.60847E+03-7.88259E-09 3.03834E-09
 -1       828-4.10592E+05 1.51980E+01-7.83794E+02 1.22842E+04-8.52327E-09 5.19685E-09
 -1       829-4.10529E+05 2.45614E+01-8.89852E+02 2.58868E+03 5.77359E-10 2.91535E-09
 -1       830-4.10683E+05-8.22902E+01-1.53708E+03 1.23072E+04 1.01275E-08 2.69041E-09
 -1       831-4.10441E+05 1.16576E+02-2.77002E+03 2.58545E+03 1.45067E-09-8.24230E-10
 -1       832-4.11479E+05-1.24262E+03-6.02929E+03 1.22971E+04 1.77101E-09-5.57486E-09
 -1       833-4.09731E+05 9.93079E+02-1.07825E+04 2.59908E+03-1.54341E-09-2.20962E-09
 -1       834-4.18450E+05-1.30130E+04-2.66309E+04 1.22366E+04 1.73998E-10-6.36737E-09
 -1       835-4.03460E+05 9.58769E+03-4.15843E+04 2.64920E+03 2.88219E-09-2.48110E-09
 -1       836-1.91905E+04 1.03879E+06 8.79047E+04-2.79512E+04-1.47702E-09 4.58931E-09
 -1       837 2.96339E+04 1.07099E+06 6.83496E+04-1.05952E+05 4.78531E-09 1.06411E-09
 -1       838-4.59875E+03 1.04913E+06 5.06496E+04-2.80114E+04-2.03681E-09 4.91241E-09
 -1       839 3.92396E+04 1.07667E+06 8.53883E+04-1.05926E+05 4.95129E-09 4.70845E-09
 -1       840-2.69037E+04 1.03307E+06 1.20167E+05-2.79750E+04-2.01544E-09 3.89628E-09
 -1       841-3.60580E+04 1.38440E+03-1.68319E+04-1.65472E+04-4.27872E-09-3.18050E-09
 -1       842-4.52796E+04-1.36154E+04-1.16638E+04-1.31772E+04-2.70143E-09-1.11959E-09
 -1       843-3.94582E+04-4.66953E+03-3.94474E+03-1.54376E+04 3.79089E-09-1.56206E-10
 -1       844-4.13488E+04-6.58882E+03-2.45051E+03-1.44421E+04 3.81941E-09 1.13141E-09
 -1       845-3.99880E+04-5.63161E+03-9.04616E+02-1.52866E+04 1.40938E-09-8.77264E-10
 -1       846-4.07430E+04-5.46202E+03-5.02735E+02-1.46060E+04-6.53831E-09-5.11500E-09
 -1       847-4.00642E+04-5.79456E+03-1.65272E+02-1.52745E+04-6.38934E-09-2.59341E-09
 -1       848-4.06453E+04-5.24851E+03-6.96639E+00-1.46189E+04-2.35755E-09 5.78467E-10
 -1       849-4.00860E+04-5.84472E+03 1.48916E+02-1.52740E+04 7.10898E-09 1.04657E-09
 -1       850-4.05344E+04-5.05759E+03 4.69574E+02-1.46447E+04 1.12898E-08 2.86440E-09
 -1       851-4.01751E+04-5.98520E+03 8.45670E+02-1.52489E+04-5.12942E-09-4.87825E-09
 -1       852-3.99138E+04-4.03810E+03 2.30097E+03-1.48385E+04-1.73240E-09-4.27451E-09
 -1       853-4.07061E+04-6.86286E+03 3.69522E+03-1.50806E+04 2.00458E-09 5.14319E-10
 -1       854-3.61444E+04 2.48828E+03 1.09440E+04-1.60932E+04-1.39607E-10 2.66118E-09
 -1       855-4.39423E+04-1.25019E+04 1.57780E+04-1.39975E+04-1.82740E-09 1.50067E-09
 -1       856-4.72200E+05 1.10314E+04-4.80138E+04 5.57110E+03-7.48878E-09-3.29237E-10
 -1       857-4.89447E+05-1.49842E+04-3.07259E+04 2.42153E+04-6.35669E-09 1.26238E-09
 -1       858-4.79450E+05 1.13738E+03-1.24482E+04 5.38010E+03-9.73296E-09-2.16460E-10
 -1       859-4.81478E+05-1.37269E+03-6.93997E+03 2.44941E+04 8.91305E-11-2.97860E-09
 -1       860-4.80281E+05 1.43196E+02-3.17094E+03 5.28853E+03 6.22549E-10-5.32714E-09
 -1       861-4.80610E+05-1.06466E+01-1.71012E+03 2.46327E+04-8.29368E-09-6.22310E-09
 -1       862-4.80393E+05 4.74859E+01-9.04740E+02 5.24054E+03 1.81028E-08-3.02111E-09
 -1       863-4.80525E+05 1.23012E+02-6.51388E+02 2.46916E+04 3.25670E-08-5.09419E-09
 -1       864-4.80401E+05 4.52771E+01-6.80074E+02 5.22944E+03 1.47585E-08-1.58570E-09
 -1       865-4.80575E+05 5.16729E+01-1.12121E+03 2.46757E+04 1.65337E-08-4.59798E-09
 -1       866-4.80334E+05 1.04413E+02-1.99456E+03 5.25647E+03 4.25189E-10-2.02019E-09
 -1       867-4.81107E+05-7.93339E+02-4.31757E+03 2.45823E+04 1.10504E-09-2.14396E-09
 -1       868-4.79818E+05 7.18123E+02-7.72501E+03 5.32344E+03 8.71069E-09-1.30785E-09
 -1       869-4.86031E+05-9.23802E+03-1.90528E+04 2.43570E+04 2.50157E-09-6.04905E-09
 -1       870-4.75320E+05 6.84588E+03-2.97743E+04 5.48491E+03 1.04201E-08-4.01451E-09
 -1       871-4.69733E+03-4.27229E+04-8.23062E+03 1.22855E+05 5.52609E-09-2.83035E-09
 -1       872-1.62193E+03-4.41890E+04-2.40815E+03 1.43644E+05 5.52518E-09-1.26283E-09
 -1       873-6.79235E+01-4.36923E+04 2.39886E+03 1.22625E+05 1.60981E-09 2.69029E-09
 -1       874 2.68027E+03-4.17375E+04 8.97646E+03 1.43751E+05 4.33465E-09 1.41310E-09
 -1       875 9.21483E+03-4.53140E+04 1.93901E+04 1.22773E+05 5.50972E-09 8.47967E-09
 -1       876 5.67078E+05 7.17295E+04 5.36732E+04 2.23669E+05 5.14046E-09-6.46105E-09
 -1       877 5.79052E+05 1.13773E+05 3.38833E+04 2.31735E+05-3.94624E-09 9.97716E-10
 -1       878 5.76263E+05 8.40483E+04 1.26704E+04 2.22417E+05 1.54910E-09-5.90262E-10
 -1       879 5.68496E+05 9.77623E+04 6.97928E+03 2.33864E+05-1.94598E-08-2.81443E-09
 -1       880 5.77251E+05 8.54404E+04 2.95934E+03 2.22381E+05-1.65139E-08-2.43290E-09
 -1       881 5.67358E+05 9.59953E+04 1.59077E+03 2.33913E+05-1.49299E-08-7.71252E-09
 -1       882 5.77335E+05 8.56315E+04 8.48881E+02 2.22420E+05 2.52135E-09 2.67440E-09
 -1       883 5.67272E+05 9.57901E+04 7.31939E+02 2.33853E+05-1.92037E-08 1.25819E-08
 -1       884 5.77317E+05 8.56428E+04 9.55163E+02 2.22434E+05-1.25596E-08-2.39396E-09
 -1       885 5.67434E+05 9.59862E+04 1.88272E+03 2.33845E+05 2.34073E-08 2.46348E-09
 -1       886 5.77177E+05 8.54510E+04 3.55337E+03 2.22422E+05 3.36104E-09-2.34195E-10
 -1       887 5.68863E+05 9.80489E+04 8.40142E+03 2.33693E+05-2.85581E-09-1.18143E-09
 -1       888 5.75942E+05 8.38167E+04 1.52692E+04 2.22506E+05-4.99901E-09-8.79209E-09
 -1       889 5.81634E+05 1.17276E+05 4.08256E+04 2.31032E+05-6.89516E-09 2.78078E-09
 -1       890 5.64839E+05 6.90135E+04 6.46856E+04 2.24047E+05-4.88217E-09 3.45608E-10
 -1       891 1.98706E+03-2.52880E+05-9.84340E+03 2.75184E+04 1.23355E-08-5.76620E-10
 -1       892-3.57415E+03-2.56273E+05-7.89199E+03 1.06950E+05 3.33512E-09-1.19337E-09
 -1       893 5.26812E+02-2.54014E+05-6.29147E+03 2.73796E+04 7.77413E-09-3.82573E-09
 -1       894-5.44900E+03-2.57363E+05-1.12051E+04 1.06937E+05 3.64707E-09-1.07593E-09
 -1       895 3.48065E+03-2.51763E+05-1.61159E+04 2.75301E+04 1.35269E-08 2.04818E-09
 -1       896 1.03364E+06-8.92353E+03 2.07740E+04 1.69066E+03-1.24691E-10-5.28325E-09
 -1       897 1.04254E+06 1.03409E+04 1.46862E+04 1.81486E+03 4.67017E-10-4.64865E-09
 -1       898 1.03711E+06-1.39011E+03 5.39615E+03 1.62364E+03-1.25889E-10-5.17252E-09
 -1       899 1.03851E+06 1.61733E+03 3.40884E+03 2.01482E+03 2.16268E-09-4.38780E-09
 -1       900 1.03768E+06-2.16128E+02 1.44295E+03 1.49074E+03 1.54796E-09-4.97880E-09
 -1       901 1.03786E+06 2.71379E+02 9.49425E+02 2.45946E+03-7.58137E-10-4.25803E-09
 -1       902 1.03777E+06-4.66249E+01 6.36892E+02 1.17900E+03 1.24755E-09-4.69332E-09
 -1       903 1.03783E+06 1.60795E+02 8.31916E+02 3.51823E+03-7.46084E-10-4.26846E-09
 -1       904 1.03771E+06-1.06552E+02 1.24667E+03 4.31950E+02 7.87736E-10-3.58415E-09
 -1       905 1.03831E+06 8.00299E+02 2.73213E+03 6.06067E+03 1.06581E-12-2.43534E-09
 -1       906 1.03729E+06-6.89809E+02 4.61015E+03-1.36348E+03-6.53841E-10-1.51385E-09
 -1       907 1.04135E+06 5.27041E+03 1.14926E+04 1.21782E+04-8.93891E-10 5.77302E-10
 -1       908 1.03471E+06-4.59556E+03 1.79476E+04-5.68575E+03 2.17221E-09 3.82170E-09
 -1       909 1.06001E+06 3.49091E+04 5.05413E+04 2.70355E+04 7.38146E-09 6.74481E-09
 -1       910 1.01885E+06-3.04250E+04 6.87981E+04-1.62220E+04 5.74437E-09 1.65201E-08
 -1       911 4.05836E+05-6.16457E+03 1.41625E+04-5.03286E+03-8.89952E-09 2.48465E-08
 -1       912 4.13718E+05 7.10685E+03 1.03073E+04 3.12949E+03-4.06969E-09 1.70694E-08
 -1       913 4.08609E+05-9.37014E+02 3.65936E+03-3.22386E+03-2.46609E-09 1.83732E-08
 -1       914 4.10428E+05 1.08410E+03 2.44648E+03-1.15920E+01-1.51147E-09 1.33268E-08
 -1       915 4.09104E+05-1.36899E+02 9.68695E+02-1.89151E+03 6.10805E-09 1.35654E-08
 -1       916 4.09907E+05 1.73717E+02 7.66200E+02-2.61911E+03 9.34668E-09 1.08910E-08
 -1       917 4.09128E+05-2.65921E+01 4.52600E+02-6.16241E+02 1.76559E-09 1.02179E-08
 -1       918 4.10158E+05 1.03834E+02 8.32220E+02-5.49579E+03 1.82786E-09 6.15886E-09
 -1       919 4.08869E+05-7.79908E+01 1.01437E+03 9.85224E+02 3.74257E-10 4.31066E-09
 -1       920 4.11473E+05 6.26705E+02 2.72524E+03-9.50655E+03 3.59142E-09 7.44279E-10
 -1       921 4.07868E+05-5.85872E+02 3.92923E+03 3.39470E+03-1.75805E-09-3.35513E-09
 -1       922 4.16567E+05 4.58739E+03 1.10489E+04-1.58615E+04-3.27833E-09-8.00367E-09
 -1       923 4.03938E+05-4.14317E+03 1.55963E+04 7.34156E+03-2.01896E-09-1.68639E-08
 -1       924 4.38418E+05 3.15832E+04 4.72155E+04-2.66526E+04-1.02302E-08-2.43563E-08
 -1       925 3.86499E+05-2.78586E+04 6.06278E+04 1.41941E+04-6.09066E-09-3.73439E-08
 -1       926-7.60650E+05 1.35935E+04-4.39757E+04-3.92045E+04 3.44608E-09-7.10334E-08
 -1       927-7.46088E+05-1.46889E+04-2.44493E+04 8.49057E+04-5.53526E-08-8.38704E-08
 -1       928-7.47122E+05 2.27068E+03-9.92352E+03-4.82418E+04 5.39953E-09-8.93479E-08
 -1       929-7.31940E+05-1.75115E+02-1.99158E+03 8.09070E+04 6.40651E-08-7.92515E-08
 -1       930-7.74372E+05-1.22701E+03-7.60131E+03-3.51907E+04-1.50476E-09-6.76349E-08
 -1       931-6.74224E+05 2.62814E+03 1.39648E+04 3.77338E+04-2.23035E-08-3.39674E-08
 -1       932-8.01631E+05-3.07847E+03-1.10010E+04-5.01175E+03-1.16243E-08-1.43495E-08
 -1       933-6.64296E+05 3.09214E+03 1.75741E+04-2.49430E+04-8.79095E-09 2.37312E-08
 -1       934-7.83760E+05-2.11990E+03-5.61773E+03 2.73992E+04-7.31188E-09 4.49887E-08
 -1       935-7.17254E+05 3.42200E+03 1.00449E+04-7.53204E+04 5.19492E-09 6.86772E-08
 -1       936-7.51712E+05-9.85823E+02 5.71560E+03 4.53748E+04 2.41766E-09 7.92827E-08
 -1       937-7.39712E+05 9.43517E+03 1.63870E+04-8.94115E+04-4.81394E-08 7.82811E-08
 -1       938-7.62744E+05-6.96842E+03 2.11779E+04 4.15367E+04-4.07576E-08 7.32198E-08
 -1       939-6.75205E+05 5.05396E+04 7.49716E+04-6.17274E+04-2.35059E-08 4.88208E-08
 -1       940-8.13574E+05-4.40881E+04 7.97453E+04 1.76223E+04 6.22549E-10 3.42734E-08
 -1       941 6.10595E+06-3.03121E+05 7.09106E+05 1.60442E+03 2.87446E-08 5.55883E-09
 -1       942 6.41123E+06 3.51278E+05 5.00049E+05 2.41414E+03 3.62034E-08 8.52742E-09
 -1       943 6.22418E+06-4.73120E+04 1.83879E+05 1.97928E+03 2.16382E-06 1.50176E-08
 -1       944 6.27441E+06 5.47870E+04 1.15430E+05 2.02011E+03 4.28160E-06-5.26779E-09
 -1       945 6.24376E+06-7.36988E+03 4.75189E+04 1.99886E+03 2.91202E-06-2.52840E-09
 -1       946 6.25198E+06 8.65658E+03 2.84760E+04 1.99991E+03 1.51622E-06 7.18865E-09
 -1       947 6.24700E+06-1.27226E+03 1.42744E+04 1.99963E+03 2.01902E-06 4.43697E-09
 -1       948 6.24871E+06 2.36246E+03 1.18125E+04 1.99827E+03 2.58617E-06 3.59438E-09
 -1       949 6.24711E+06-1.08602E+03 1.25525E+04 2.00052E+03 9.45957E-06-1.68725E-08
 -1       950 6.25111E+06 7.04827E+03 2.35140E+04 1.98377E+03 1.62884E-05 3.12184E-09
 -1       951 6.24454E+06-5.95038E+03 3.85690E+04 2.01412E+03 8.18403E-06-4.34375E-09
 -1       952 6.26916E+06 4.41772E+04 9.31918E+04 1.76038E+03 5.74920E-08 6.52471E-09
 -1       953 6.22875E+06-3.81439E+04 1.48285E+05 2.22378E+03-5.59073E-09-1.16415E-10
 -1       954 6.37947E+06 2.83195E+05 4.03145E+05-1.76156E+03-1.34482E-08-5.18048E-09
 -1       955 6.13330E+06-2.44400E+05 5.71338E+05 5.53461E+03-2.81489E-08-2.03727E-10
 -1       956-3.27229E+05-5.63983E+03-1.18059E+04 4.54475E+04-5.73345E-09-3.24144E-09
 -1       957-3.29395E+05-1.75672E+03-5.95416E+03 5.27574E+04-2.57387E-09-5.20140E-09
 -1       958-3.28234E+05-1.72977E+02-2.68009E+03 4.51703E+04 2.86673E-09-2.22417E-09
 -1       959-3.28455E+05 3.57616E+01-1.36164E+03 5.30604E+04-3.80805E-09-3.50065E-09
 -1       960-3.28376E+05 1.10942E+02-6.62166E+02 4.51401E+04-7.23776E-09-2.98269E-09
 -1       961-3.28419E+05 1.41927E+02-3.48094E+02 5.30945E+04-1.21872E-08-4.92946E-10
 -1       962-3.28429E+05 1.31075E+02-1.95987E+02 4.51354E+04-2.97587E-09-2.15550E-09
 -1       963-3.28445E+05 1.60661E+02-1.49880E+02 5.31008E+04-5.98720E-09 1.43700E-09
 -1       964-3.28452E+05 1.44796E+02-1.74167E+02 4.51336E+04 5.37420E-09 3.52429E-10
 -1       965-3.28470E+05 1.71162E+02-2.94293E+02 5.31012E+04 2.33376E-08-9.44056E-10
 -1       966-3.28448E+05 1.52554E+02-5.49662E+02 4.51349E+04 5.78063E-09 1.37334E-10
 -1       967-3.28544E+05 1.07436E+02-1.12998E+03 5.30853E+04 1.99179E-09-1.71622E-09
 -1       968-3.28366E+05-6.06157E+01-2.22005E+03 4.51500E+04 1.14096E-09 2.47155E-10
 -1       969-3.29365E+05-1.36014E+03-4.93916E+03 5.29294E+04 2.80488E-09 1.17325E-10
 -1       970-3.27559E+05-4.58427E+03-9.79000E+03 4.52984E+04 2.83853E-09-5.86442E-09
 -1       971-6.63882E+05 9.18980E+03-4.00584E+04 5.30598E+03-6.54200E-09 2.19916E-09
 -1       972-6.78220E+05-1.24953E+04-2.56299E+04 2.39306E+04-5.67456E-09 3.20006E-09
 -1       973-6.69931E+05 9.43224E+02-1.03933E+04 5.05060E+03-7.22275E-09 1.22054E-09
 -1       974-6.71595E+05-1.13290E+03-5.80175E+03 2.43196E+04-3.66435E-09 4.90172E-09
 -1       975-6.70626E+05 1.19063E+02-2.67555E+03 4.91402E+03-3.56840E-09 1.69166E-09
 -1       976-6.70890E+05 9.73470E+00-1.48545E+03 2.45326E+04-1.93259E-08 3.77554E-09
 -1       977-6.70720E+05 4.37939E+01-8.72690E+02 4.83686E+03 1.41902E-08 6.52051E-10
 -1       978-6.70842E+05 1.18331E+02-7.86041E+02 2.46341E+04 3.27182E-08 1.03830E-09
 -1       979-6.70718E+05 5.14488E+01-1.04001E+03 4.81220E+03 1.46202E-08 4.40939E-09
 -1       980-6.70962E+05-1.84086E+01-1.93132E+03 2.46298E+04 1.67383E-08 4.16935E-09
 -1       981-6.70598E+05 1.66196E+02-3.55695E+03 4.84121E+03-2.19416E-10 3.73234E-09
 -1       982-6.71964E+05-1.53362E+03-7.78442E+03 2.45173E+04 1.33605E-09 4.76473E-09
 -1       983-6.69673E+05 1.28941E+03-1.39485E+04 4.92562E+03 1.20676E-08 2.03454E-09
 -1       984-6.80931E+05-1.67848E+04-3.44501E+04 2.42500E+04 1.23691E-09 5.50244E-09
 -1       985-6.61551E+05 1.23943E+04-5.38155E+04 5.11420E+03 9.89940E-09 2.57569E-09
 -3
    1PSTEP                        39          20           1          
  100CL  120 9.05965E-01         841                     0   20           1
 -4  DISP        4    1
 -5  D1          1    2    1    0
 -5  D2          1    2    2    0
 -5  D3          1    2    3    0
 -5  ALL         1    2    0    0    1ALL
 -1         1 1.13337E-04 0.00000E+00 0.00000E+00
 -1         2 8.95020E-05 0.00000E+00 0.00000E+00
 -1         3 7.49933E-05 0.00000E+00 0.00000E+00
 -1         4 6.44533E-05 0.00000E+00 0.00000E+00
 -1         5 5.80297E-05 0.00000E+00 0.00000E+00
 -1         8 8.96350E-05-1.13824E-06 0.00000E+00
 -1         9 6.93551E-05 7.28212E-07 0.00000E+00
 -1        10 6.59164E-05-2.88528E-06 0.00000E+00
 -1        11 6.10314E-05-5.70504E-07 0.00000E+00
 -1        12 5.55748E-05 1.43590E-06 0.00000E+00
 -1        15 4.44350E-05-1.77329E-06 0.00000E+00
 -1        16 5.22081E-05 6.70718E-07 0.00000E+00
 -1        17 4.67420E-05-5.77551E-06 0.00000E+00
 -1        18 4.70999E-05-1.12347E-06 0.00000E+00
 -1        19 4.95342E-05 2.84267E-06 0.00000E+00
 -1        20 5.02905E-05 3.05254E-05 0.00000E+00
 -1        21 5.02553E-05 7.29609E-05 0.00000E+00
 -1        22 1.43002E-05-1.21374E-06 0.00000E+00
 -1        23 1.76194E-05 1.08730E-06 0.00000E+00
 -1        24 1.94168E-05-6.83713E-06 0.00000E+00
 -1        25 4.13944E-05-7.47305E-07 0.00000E+00
 -1        26 4.36484E-05 3.77983E-06 0.00000E+00
 -1        27 4.12767E-05 2.94307E-05 0.00000E+00
 -1        28 3.84605E-05 7.19270E-05 0.00000E+00
 -1        29 0.00000E+00 0.00000E+00 0.00000E+00
 -1        30 5.80332E-06 1.33496E-06 0.00000E+00
 -1        31 7.79075E-06-6.10694E-06 0.00000E+00
 -1        32 0.00000E+00 0.00000E+00 0.00000E+00
 -1        33 3.56626E-05 6.00348E-06 0.00000E+00
 -1        34 3.37485E-05 2.93270E-05 0.00000E+00
 -1        35 2.98321E-05 7.13745E-05 0.00000E+00
 -1        36 1.11892E-04-2.14677E-18-2.64698E-23
 -1        37 1.10403E-04-7.92210E-18 1.32349E-23
 -1        38 1.08916E-04-1.36942E-17 0.00000E+00
 -1        39 1.07420E-04-1.56182E-17 0.00000E+00
 -1        40 1.05924E-04-1.35550E-17 0.00000E+00
 -1        41 1.04427E-04-7.71178E-18 2.64698E-23
 -1        42 1.02929E-04-1.89876E-18-5.29396E-23
 -1        43 1.01431E-04-5.64245E-20-2.64698E-23
 -1        44 9.99334E-05-1.96969E-18-5.29396E-23
 -1        45 9.84356E-05-7.83233E-18 0.00000E+00
 -1        46 9.69380E-05-1.36320E-17-5.29396E-23
 -1        47 9.54415E-05-1.54950E-17 2.64698E-23
 -1        48 9.39452E-05-1.33782E-17 0.00000E+00
 -1        49 9.24549E-05-7.44461E-18 2.64698E-23
 -1        50 9.09626E-05-1.76603E-18 2.64698E-23
 -1        51 1.11551E-04-1.92209E-07 0.00000E+00
 -1        52 1.08588E-04-3.76311E-07 0.00000E+00
 -1        53 1.04676E-04-5.59940E-07 0.00000E+00
 -1        54 1.00053E-04-7.45721E-07 0.00000E+00
 -1        55 9.49590E-05-9.35815E-07-4.96308E-24
 -1        56 1.11084E-04-1.02674E-06 5.29396E-23
 -1        57 1.08847E-04-2.35388E-06-2.64698E-23
 -1        58 1.06673E-04-3.83302E-06 0.00000E+00
 -1        59 1.04495E-04-5.34778E-06 0.00000E+00
 -1        60 1.02281E-04-6.76669E-06 0.00000E+00
 -1        61 9.99836E-05-7.96919E-06 2.64698E-23
 -1        62 9.75662E-05-8.85369E-06 0.00000E+00
 -1        63 9.49974E-05-9.33592E-06 0.00000E+00
 -1        64 9.22597E-05-9.36879E-06 0.00000E+00
 -1        65 8.93444E-05-8.92834E-06 0.00000E+00
 -1        66 8.62588E-05-8.03486E-06-5.29396E-23
 -1        67 8.30213E-05-6.73116E-06 2.64698E-23
 -1        68 7.96605E-05-5.09955E-06-5.29396E-23
 -1        69 7.62269E-05-3.23359E-06 0.00000E+00
 -1        70 7.27474E-05-1.25997E-06 0.00000E+00
 -1        71 8.86019E-05-9.42324E-21 0.00000E+00
 -1        72 8.76939E-05-4.35788E-20-1.32349E-23
 -1        73 8.67864E-05 9.08492E-21 2.64698E-23
 -1        74 8.58774E-05 1.56756E-19 0.00000E+00
 -1        75 8.49684E-05 1.65379E-19 2.64698E-23
 -1        76 8.40591E-05 1.62627E-19 0.00000E+00
 -1        77 8.31497E-05 3.32275E-19 0.00000E+00
 -1        78 8.22404E-05 5.14838E-19 0.00000E+00
 -1        79 8.13310E-05 5.10217E-19 2.64698E-23
 -1        80 8.04217E-05 4.06345E-19-1.32349E-23
 -1        81 7.95126E-05 4.22402E-19 2.64698E-23
 -1        82 7.86040E-05 3.11442E-19 0.00000E+00
 -1        83 7.76955E-05 2.10359E-19 0.00000E+00
 -1        84 7.67901E-05 1.28172E-19 0.00000E+00
 -1        85 7.58837E-05 9.36468E-20 2.64698E-23
 -1        86 8.85108E-05 1.02669E-07 0.00000E+00
 -1        87 8.55841E-05 2.35300E-07 0.00000E+00
 -1        88 8.14796E-05 3.61759E-07 0.00000E+00
 -1        89 7.69470E-05 4.88425E-07 8.27181E-25
 -1        90 7.26753E-05 6.17952E-07-6.61744E-24
 -1        91 8.41114E-05 1.21564E-05 2.64698E-23
 -1        92 6.90363E-05 4.84163E-05 1.32349E-23
 -1        93 5.10394E-05 9.16911E-05 2.64698E-23
 -1        94 3.72831E-05 1.24828E-04 0.00000E+00
 -1        95 3.21156E-05 1.36368E-04 2.64698E-23
 -1        96 3.90434E-05 1.15227E-04 0.00000E+00
 -1        97 5.48983E-05 6.78175E-05 0.00000E+00
 -1        98 7.67163E-05 1.45386E-06 0.00000E+00
 -1        99 9.87454E-05-6.55927E-05 0.00000E+00
 -1       100 1.15256E-04-1.15022E-04-6.61744E-24
 -1       101 1.23093E-04-1.38755E-04 0.00000E+00
 -1       102 1.18851E-04-1.29610E-04 6.61744E-24
 -1       103 1.05728E-04-9.80138E-05 1.32349E-23
 -1       104 8.77580E-05-5.48004E-05 0.00000E+00
 -1       105 7.21808E-05-1.73250E-05 0.00000E+00
 -1       106 7.43397E-05 2.84124E-20 1.32349E-23
 -1       107 7.36800E-05-2.86982E-20 0.00000E+00
 -1       108 7.30207E-05-2.42290E-19 2.64698E-23
 -1       109 7.23602E-05-3.24393E-19 0.00000E+00
 -1       110 7.16997E-05-4.19186E-19 0.00000E+00
 -1       111 7.10390E-05-3.90240E-19-1.32349E-23
 -1       112 7.03783E-05-2.24667E-19 0.00000E+00
 -1       113 6.97175E-05 9.32878E-20 0.00000E+00
 -1       114 6.90568E-05 4.71178E-19 0.00000E+00
 -1       115 6.83961E-05 8.62423E-19 0.00000E+00
 -1       116 6.77355E-05 1.14346E-18-2.64698E-23
 -1       117 6.70754E-05 1.11075E-18-1.32349E-23
 -1       118 6.64153E-05 8.35987E-19 2.64698E-23
 -1       119 6.57576E-05 5.14086E-19 6.61744E-24
 -1       120 6.50992E-05 1.96005E-19 0.00000E+00
 -1       121 7.47099E-05-4.80954E-07 1.32349E-23
 -1       122 7.38907E-05-9.60825E-07 0.00000E+00
 -1       123 7.25670E-05-1.44121E-06 1.32349E-23
 -1       124 7.07727E-05-1.92198E-06 0.00000E+00
 -1       125 6.85432E-05-2.40356E-06-1.32349E-23
 -1       126 7.76292E-05-7.91904E-06-1.32349E-23
 -1       127 8.58667E-05-3.14451E-05-3.30872E-24
 -1       128 9.81340E-05-6.66797E-05 6.61744E-24
 -1       129 1.12949E-04-1.09556E-04 3.30872E-24
 -1       130 1.28308E-04-1.54085E-04 0.00000E+00
 -1       131 1.42230E-04-1.94250E-04 0.00000E+00
 -1       132 1.53017E-04-2.25140E-04-6.61744E-24
 -1       133 1.58897E-04-2.41977E-04 0.00000E+00
 -1       134 1.59148E-04-2.43413E-04 6.61744E-24
 -1       135 1.53061E-04-2.28285E-04-3.30872E-24
 -1       136 1.41469E-04-1.99357E-04 0.00000E+00
 -1       137 1.25358E-04-1.59503E-04 0.00000E+00
 -1       138 1.06950E-04-1.14200E-04 0.00000E+00
 -1       139 8.85669E-05-6.89543E-05 0.00000E+00
 -1       140 7.25221E-05-2.92567E-05-6.61744E-24
 -1       141 6.40515E-05-1.29379E-20 1.32349E-23
 -1       142 6.36473E-05-6.34044E-20 0.00000E+00
 -1       143 6.32433E-05-6.22807E-20 0.00000E+00
 -1       144 6.28389E-05-2.40592E-20-6.61744E-24
 -1       145 6.24345E-05 1.29224E-20-1.32349E-23
 -1       146 6.20299E-05 9.24986E-20-6.61744E-24
 -1       147 6.16254E-05 2.20391E-19 0.00000E+00
 -1       148 6.12209E-05 2.41966E-19 6.61744E-24
 -1       149 6.08165E-05 8.05651E-20-1.32349E-23
 -1       150 6.04123E-05-1.62273E-19-6.61744E-24
 -1       151 6.00081E-05-2.99941E-19 0.00000E+00
 -1       152 5.96050E-05-3.37716E-19-6.61744E-24
 -1       153 5.92020E-05-2.65195E-19-1.32349E-23
 -1       154 5.88038E-05-1.38551E-19 0.00000E+00
 -1       155 5.84040E-05-1.14093E-20 3.30872E-24
 -1       156 6.67699E-05-7.12116E-08 6.61744E-24
 -1       157 7.35012E-05-1.49579E-07 1.65436E-24
 -1       158 8.04251E-05-2.30040E-07 0.00000E+00
 -1       159 8.33197E-05-2.89723E-07-1.65436E-24
 -1       160 7.81827E-05-3.63565E-07 0.00000E+00
 -1       161 6.60341E-05-5.13289E-06 0.00000E+00
 -1       162 7.12627E-05-2.02755E-05 0.00000E+00
 -1       163 7.90263E-05-4.25508E-05 6.61744E-24
 -1       164 8.82368E-05-6.89738E-05-3.30872E-24
 -1       165 9.74378E-05-9.53694E-05-6.61744E-24
 -1       166 1.05174E-04-1.17564E-04-3.30872E-24
 -1       167 1.10360E-04-1.32587E-04 0.00000E+00
 -1       168 1.11892E-04-1.37576E-04 0.00000E+00
 -1       169 1.09643E-04-1.32488E-04-6.61744E-24
 -1       170 1.03534E-04-1.17407E-04 0.00000E+00
 -1       171 9.46070E-05-9.51923E-05-6.61744E-24
 -1       172 8.39897E-05-6.87729E-05-3.30872E-24
 -1       173 7.33304E-05-4.22499E-05-6.61744E-24
 -1       174 6.42840E-05-1.97240E-05 0.00000E+00
 -1       175 5.80016E-05-4.18984E-06 1.65436E-24
 -1       191 5.79321E-05 2.38952E-07 1.32349E-23
 -1       192 5.77022E-05 4.78461E-07 0.00000E+00
 -1       193 5.73451E-05 7.18082E-07 0.00000E+00
 -1       194 5.68671E-05 9.57667E-07 0.00000E+00
 -1       195 5.62746E-05 1.19707E-06 0.00000E+00
 -1       251 8.88397E-05 1.32421E-05 1.32349E-23
 -1       252 8.75785E-05 4.73461E-05-1.32349E-23
 -1       253 8.61705E-05 8.59893E-05 0.00000E+00
 -1       254 8.51065E-05 1.13851E-04 1.32349E-23
 -1       255 8.43526E-05 1.21585E-04 0.00000E+00
 -1       256 8.34128E-05 1.00456E-04 0.00000E+00
 -1       257 8.18069E-05 5.69666E-05-2.64698E-23
 -1       258 7.94544E-05-1.70648E-06 0.00000E+00
 -1       259 7.71196E-05-6.00465E-05 2.64698E-23
 -1       260 7.55537E-05-1.02544E-04 0.00000E+00
 -1       261 7.46396E-05-1.22383E-04-2.64698E-23
 -1       262 7.38761E-05-1.13431E-04 0.00000E+00
 -1       263 7.27907E-05-8.47601E-05-2.64698E-23
 -1       264 7.13805E-05-4.60407E-05 1.32349E-23
 -1       265 7.01370E-05-1.25147E-05 0.00000E+00
 -1       266 8.57473E-05-1.22804E-06 6.61744E-24
 -1       267 8.24682E-05-1.30011E-06 0.00000E+00
 -1       268 7.82146E-05-1.37698E-06-3.30872E-24
 -1       269 7.14065E-05-1.46382E-06-8.27181E-25
 -1       270 6.06182E-05-1.58538E-06 8.27181E-25
 -1       271 8.62727E-05 1.88519E-06 0.00000E+00
 -1       272 8.31786E-05 3.99798E-06 0.00000E+00
 -1       273 8.03939E-05 5.29675E-06 0.00000E+00
 -1       274 7.78732E-05 5.86536E-06 0.00000E+00
 -1       275 7.55863E-05 5.80903E-06 5.29396E-23
 -1       276 7.34892E-05 5.24234E-06-2.64698E-23
 -1       277 7.15361E-05 4.29038E-06-5.29396E-23
 -1       278 6.96775E-05 3.08571E-06 0.00000E+00
 -1       279 6.78620E-05 1.76581E-06 0.00000E+00
 -1       280 6.60375E-05 4.70570E-07 2.64698E-23
 -1       281 6.41520E-05-6.60748E-07 0.00000E+00
 -1       282 6.21557E-05-1.49192E-06 0.00000E+00
 -1       283 5.99991E-05-1.89297E-06 0.00000E+00
 -1       284 5.76444E-05-1.73967E-06 2.64698E-23
 -1       285 5.50390E-05-9.25064E-07 0.00000E+00
 -1       286 6.91291E-05 3.19934E-06 0.00000E+00
 -1       287 6.89145E-05 4.95466E-06 0.00000E+00
 -1       288 6.87003E-05 5.89006E-06 6.61744E-24
 -1       289 6.84883E-05 5.90882E-06 0.00000E+00
 -1       290 6.82762E-05 5.08822E-06 0.00000E+00
 -1       291 6.80635E-05 3.51317E-06-3.30872E-24
 -1       292 6.78500E-05 1.41171E-06 0.00000E+00
 -1       293 6.76359E-05-9.83409E-07 3.30872E-24
 -1       294 6.74218E-05-3.38367E-06 0.00000E+00
 -1       295 6.72082E-05-5.50050E-06-3.30872E-24
 -1       296 6.69955E-05-7.09916E-06-6.61744E-24
 -1       297 6.67833E-05-7.94954E-06 0.00000E+00
 -1       298 6.65714E-05-7.96352E-06 6.61744E-24
 -1       299 6.63572E-05-7.06056E-06 0.00000E+00
 -1       300 6.61426E-05-5.33416E-06 0.00000E+00
 -1       301 6.64873E-05 7.06269E-07 6.61744E-24
 -1       302 6.36083E-05 7.04074E-07-1.65436E-24
 -1       303 6.07295E-05 7.05255E-07-3.30872E-24
 -1       304 5.78622E-05 7.05727E-07 0.00000E+00
 -1       305 5.50180E-05 7.01265E-07-6.61744E-24
 -1       306 6.71469E-05 2.54899E-06 0.00000E+00
 -1       307 6.52391E-05 3.45423E-06 1.32349E-23
 -1       308 6.36306E-05 3.56702E-06 5.29396E-23
 -1       309 6.22689E-05 3.00479E-06 2.64698E-23
 -1       310 6.11105E-05 1.89802E-06 5.29396E-23
 -1       311 6.01038E-05 3.82907E-07 0.00000E+00
 -1       312 5.91964E-05-1.39863E-06-5.29396E-23
 -1       313 5.83341E-05-3.30119E-06-2.64698E-23
 -1       314 5.74621E-05-5.17769E-06 0.00000E+00
 -1       315 5.65257E-05-6.88138E-06 0.00000E+00
 -1       316 5.54711E-05-8.26797E-06 5.29396E-23
 -1       317 5.42465E-05-9.19725E-06 0.00000E+00
 -1       318 5.28012E-05-9.53549E-06-2.64698E-23
 -1       319 5.10937E-05-9.15490E-06 0.00000E+00
 -1       320 4.90714E-05-7.94210E-06 2.64698E-23
 -1       321 6.57007E-05-3.17538E-06 0.00000E+00
 -1       322 6.54758E-05-9.62714E-06-3.30872E-24
 -1       323 6.52083E-05-2.10773E-05 0.00000E+00
 -1       324 6.48941E-05-3.63204E-05 3.30872E-24
 -1       325 6.45512E-05-5.34600E-05 6.61744E-24
 -1       326 6.42090E-05-7.05836E-05 0.00000E+00
 -1       327 6.38960E-05-8.57817E-05-6.61744E-24
 -1       328 6.36319E-05-9.71610E-05-3.30872E-24
 -1       329 6.34094E-05-1.03522E-04 0.00000E+00
 -1       330 6.32064E-05-1.03707E-04 0.00000E+00
 -1       331 6.29861E-05-9.76789E-05 0.00000E+00
 -1       332 6.27113E-05-8.54523E-05 0.00000E+00
 -1       333 6.23660E-05-6.81638E-05 0.00000E+00
 -1       334 6.19492E-05-4.69943E-05 3.30872E-24
 -1       335 6.14906E-05-2.38292E-05 6.61744E-24
 -1       336 6.29840E-05-3.36777E-06 0.00000E+00
 -1       337 5.98623E-05-3.85128E-06 0.00000E+00
 -1       338 5.66137E-05-4.33497E-06-1.32349E-23
 -1       339 5.33018E-05-4.81776E-06 0.00000E+00
 -1       340 4.99901E-05-5.30068E-06-1.32349E-23
 -1       341 6.09922E-05 8.17352E-06 0.00000E+00
 -1       342 4.95219E-05 3.57245E-05-6.61744E-24
 -1       343 3.64257E-05 6.72826E-05 0.00000E+00
 -1       344 2.67924E-05 9.03037E-05-6.61744E-24
 -1       345 2.35454E-05 9.69506E-05-1.32349E-23
 -1       346 2.91239E-05 7.97127E-05-6.61744E-24
 -1       347 4.11396E-05 4.39681E-05 0.00000E+00
 -1       348 5.72919E-05-4.30666E-06 0.00000E+00
 -1       349 7.32672E-05-5.20387E-05-1.32349E-23
 -1       350 8.47395E-05-8.61774E-05 0.00000E+00
 -1       351 8.95803E-05-1.01351E-04 0.00000E+00
 -1       352 8.56004E-05-9.27894E-05 0.00000E+00
 -1       353 7.54705E-05-6.85268E-05 0.00000E+00
 -1       354 6.23528E-05-3.68991E-05 0.00000E+00
 -1       355 5.12797E-05-1.03234E-05 0.00000E+00
 -1       356 6.05486E-05 2.33236E-05-6.61744E-24
 -1       357 6.00365E-05 4.83813E-05 0.00000E+00
 -1       358 5.95504E-05 7.23171E-05 6.61744E-24
 -1       359 5.91367E-05 9.28547E-05 0.00000E+00
 -1       360 5.88084E-05 1.08363E-04 0.00000E+00
 -1       361 5.85576E-05 1.17258E-04 0.00000E+00
 -1       362 5.83426E-05 1.19206E-04 6.61744E-24
 -1       363 5.81160E-05 1.13935E-04 0.00000E+00
 -1       364 5.78418E-05 1.02539E-04 0.00000E+00
 -1       365 5.75012E-05 8.61672E-05-3.30872E-24
 -1       366 5.71126E-05 6.69122E-05 0.00000E+00
 -1       367 5.67102E-05 4.68924E-05 0.00000E+00
 -1       368 5.63350E-05 2.83725E-05 6.61744E-24
 -1       369 5.60232E-05 1.36036E-05 1.65436E-24
 -1       370 5.57705E-05 4.12732E-06-2.06795E-25
 -1       371 4.32649E-05-7.90152E-07 3.30872E-24
 -1       372 3.63112E-05-8.76487E-07 8.27181E-25
 -1       373 3.67493E-05-9.35286E-07 0.00000E+00
 -1       374 4.11392E-05-1.00191E-06 0.00000E+00
 -1       375 4.58122E-05-1.06964E-06 0.00000E+00
 -1       376 5.03459E-05 2.61719E-05 0.00000E+00
 -1       377 3.67280E-05 6.00798E-05 3.30872E-24
 -1       378 2.19116E-05 9.68846E-05 0.00000E+00
 -1       379 7.67268E-06 1.32299E-04 0.00000E+00
 -1       380-4.36644E-06 1.62357E-04-6.61744E-24
 -1       381-1.26572E-05 1.83123E-04 0.00000E+00
 -1       382-1.65995E-05 1.92782E-04 0.00000E+00
 -1       383-1.56839E-05 1.89612E-04 0.00000E+00
 -1       384-1.05204E-05 1.74824E-04 6.61744E-24
 -1       385-1.72426E-06 1.49758E-04 3.30872E-24
 -1       386 9.32861E-06 1.18158E-04 0.00000E+00
 -1       387 2.13004E-05 8.38521E-05 3.30872E-24
 -1       388 3.26708E-05 5.13156E-05 0.00000E+00
 -1       389 4.19080E-05 2.50009E-05-1.65436E-24
 -1       390 4.79039E-05 7.88718E-06 1.65436E-24
 -1       406 5.47411E-05 1.67173E-06 0.00000E+00
 -1       407 5.38205E-05 1.90778E-06 6.61744E-24
 -1       408 5.28257E-05 2.14367E-06 0.00000E+00
 -1       409 5.17705E-05 2.37896E-06 0.00000E+00
 -1       410 5.06687E-05 2.61300E-06 6.61744E-24
 -1       466 4.48028E-05 1.33974E-05 0.00000E+00
 -1       467 4.52715E-05 2.12818E-05 0.00000E+00
 -1       468 4.57665E-05 2.42977E-05 0.00000E+00
 -1       469 4.62695E-05 2.47557E-05 0.00000E+00
 -1       470 4.67722E-05 2.35097E-05 1.32349E-23
 -1       471 4.72741E-05 2.13761E-05-6.61744E-24
 -1       472 4.77749E-05 1.86632E-05 0.00000E+00
 -1       473 4.82749E-05 1.56663E-05-6.61744E-24
 -1       474 4.87745E-05 1.25183E-05 0.00000E+00
 -1       475 4.92737E-05 9.34829E-06 6.61744E-24
 -1       476 4.97729E-05 6.27331E-06 0.00000E+00
 -1       477 5.02711E-05 3.41216E-06 6.61744E-24
 -1       478 5.07702E-05 1.00619E-06 1.32349E-23
 -1       479 5.12621E-05-6.93219E-07 0.00000E+00
 -1       480 5.17581E-05-1.03303E-06 0.00000E+00
 -1       481 2.92630E-05-1.77102E-06 0.00000E+00
 -1       482 2.14255E-05-1.68302E-06 0.00000E+00
 -1       483 1.83994E-05-1.56801E-06 0.00000E+00
 -1       484 1.76869E-05-1.44844E-06 0.00000E+00
 -1       485 1.70622E-05-1.32857E-06 0.00000E+00
 -1       486 3.30384E-05 2.58699E-05-6.61744E-24
 -1       487 1.44410E-05 7.07795E-05 0.00000E+00
 -1       488-4.48701E-06 1.16470E-04 1.32349E-23
 -1       489-1.68509E-05 1.46436E-04-6.61744E-24
 -1       490-1.96166E-05 1.51987E-04 0.00000E+00
 -1       491-1.04951E-05 1.24835E-04 6.61744E-24
 -1       492 7.14040E-06 7.21948E-05 1.32349E-23
 -1       493 3.01929E-05 2.07538E-06-6.61744E-24
 -1       494 5.33730E-05-6.84623E-05 0.00000E+00
 -1       495 7.14032E-05-1.22339E-04 0.00000E+00
 -1       496 8.10894E-05-1.51127E-04 0.00000E+00
 -1       497 7.89371E-05-1.47189E-04-6.61744E-24
 -1       498 6.70564E-05-1.18411E-04 0.00000E+00
 -1       499 4.82903E-05-7.31050E-05 6.61744E-24
 -1       500 2.95138E-05-2.77737E-05-1.32349E-23
 -1       501 5.18750E-05 1.53357E-06 0.00000E+00
 -1       502 5.15497E-05-1.38624E-06 0.00000E+00
 -1       503 5.12103E-05-7.47147E-06-1.32349E-23
 -1       504 5.08554E-05-1.60621E-05 0.00000E+00
 -1       505 5.04908E-05-2.58024E-05 0.00000E+00
 -1       506 5.01286E-05-3.53210E-05 0.00000E+00
 -1       507 4.97790E-05-4.33074E-05 0.00000E+00
 -1       508 4.94473E-05-4.84727E-05 6.61744E-24
 -1       509 4.91265E-05-5.03097E-05 0.00000E+00
 -1       510 4.88055E-05-4.83568E-05 0.00000E+00
 -1       511 4.84740E-05-4.32023E-05-1.32349E-23
 -1       512 4.81266E-05-3.54783E-05 0.00000E+00
 -1       513 4.77698E-05-2.65295E-05 0.00000E+00
 -1       514 4.74143E-05-1.77170E-05 0.00000E+00
 -1       515 4.70697E-05-1.03644E-05 0.00000E+00
 -1       516 5.01554E-05 7.46633E-07-6.61744E-24
 -1       517 4.94012E-05 8.52827E-07-8.27181E-25
 -1       518 4.79211E-05 9.56028E-07 0.00000E+00
 -1       519 4.36878E-05 1.05595E-06 0.00000E+00
 -1       520 3.43720E-05 1.12130E-06 0.00000E+00
 -1       521 4.94582E-05 2.23510E-06 5.29396E-23
 -1       522 4.69769E-05 2.91174E-06-2.64698E-23
 -1       523 4.47857E-05 2.82181E-06 0.00000E+00
 -1       524 4.28308E-05 2.07665E-06-2.64698E-23
 -1       525 4.10717E-05 8.05979E-07 5.29396E-23
 -1       526 3.94563E-05-8.52903E-07-2.64698E-23
 -1       527 3.79315E-05-2.75490E-06-5.29396E-23
 -1       528 3.64413E-05-4.75052E-06 0.00000E+00
 -1       529 3.49296E-05-6.68837E-06-5.29396E-23
 -1       530 3.33404E-05-8.41828E-06 0.00000E+00
 -1       531 3.16190E-05-9.79399E-06 0.00000E+00
 -1       532 2.97142E-05-1.06759E-05 0.00000E+00
 -1       533 2.75764E-05-1.09343E-05 0.00000E+00
 -1       534 2.51684E-05-1.04487E-05 0.00000E+00
 -1       535 2.24405E-05-9.11898E-06 5.29396E-23
 -1       536 4.67464E-05-2.96670E-06 0.00000E+00
 -1       537 4.67657E-05-8.30195E-07 2.48154E-24
 -1       538 4.67859E-05 7.06012E-07 0.00000E+00
 -1       539 4.68087E-05 1.71438E-06 0.00000E+00
 -1       540 4.68323E-05 2.26712E-06-1.03398E-25
 -1       541 4.68563E-05 2.43640E-06-2.06795E-25
 -1       542 4.68804E-05 2.29430E-06-4.13590E-25
 -1       543 4.69046E-05 1.91284E-06-2.06795E-25
 -1       544 4.69288E-05 1.36399E-06 8.27181E-25
 -1       545 4.69529E-05 7.19671E-07 0.00000E+00
 -1       546 4.69770E-05 5.18061E-08 0.00000E+00
 -1       547 4.70012E-05-5.67693E-07 0.00000E+00
 -1       548 4.70255E-05-1.06692E-06 0.00000E+00
 -1       549 4.70500E-05-1.37393E-06 0.00000E+00
 -1       550 4.70745E-05-1.41671E-06 0.00000E+00
 -1       551 4.26583E-05-5.94965E-06 3.51552E-24
 -1       552 3.81171E-05-6.11997E-06-2.48154E-24
 -1       553 3.33185E-05-6.29080E-06 0.00000E+00
 -1       554 2.84666E-05-6.46367E-06 0.00000E+00
 -1       555 2.37657E-05-6.64041E-06 1.32349E-23
 -1       556 4.55294E-05-3.14886E-06-1.32349E-23
 -1       557 4.45476E-05-1.11957E-06-6.61744E-24
 -1       558 4.37708E-05 3.69145E-07 0.00000E+00
 -1       559 4.31747E-05 1.37979E-06 0.00000E+00
 -1       560 4.27350E-05 1.97502E-06 0.00000E+00
 -1       561 4.24277E-05 2.21812E-06 0.00000E+00
 -1       562 4.22289E-05 2.17246E-06-1.32349E-23
 -1       563 4.21146E-05 1.90153E-06 0.00000E+00
 -1       564 4.20610E-05 1.46886E-06 0.00000E+00
 -1       565 4.20442E-05 9.38036E-07 0.00000E+00
 -1       566 4.20404E-05 3.72677E-07 0.00000E+00
 -1       567 4.20259E-05-1.63594E-07-1.65436E-24
 -1       568 4.19768E-05-6.07166E-07 1.65436E-24
 -1       569 4.18698E-05-8.94505E-07 6.20385E-25
 -1       570 4.16817E-05-9.62143E-07-3.30872E-24
 -1       571 4.72461E-05-7.82818E-07 2.89513E-24
 -1       572 4.73967E-05-5.51245E-07 8.27181E-25
 -1       573 4.75487E-05-4.08955E-07-1.65436E-24
 -1       574 4.77013E-05-3.35157E-07 0.00000E+00
 -1       575 4.78542E-05-3.08977E-07 0.00000E+00
 -1       576 4.80071E-05-3.09415E-07 0.00000E+00
 -1       577 4.81601E-05-3.15462E-07 0.00000E+00
 -1       578 4.83131E-05-3.06090E-07 3.30872E-24
 -1       579 4.84661E-05-2.60273E-07 0.00000E+00
 -1       580 4.86191E-05-1.56978E-07 0.00000E+00
 -1       581 4.87721E-05 2.48223E-08 6.61744E-24
 -1       582 4.89250E-05 3.06145E-07 0.00000E+00
 -1       583 4.90778E-05 7.07990E-07 0.00000E+00
 -1       584 4.92305E-05 1.25116E-06 0.00000E+00
 -1       585 4.93828E-05 1.95634E-06 0.00000E+00
 -1       586 4.62795E-05-1.05956E-06 0.00000E+00
 -1       587 4.53387E-05-9.95101E-07 3.30872E-24
 -1       588 4.43281E-05-9.30713E-07-1.65436E-24
 -1       589 4.32995E-05-8.66950E-07-4.13590E-25
 -1       590 4.23046E-05-8.04588E-07 0.00000E+00
 -1       591 4.68565E-05-7.22868E-07-1.65436E-24
 -1       592 4.66324E-05-3.92144E-07 0.00000E+00
 -1       593 4.64282E-05-1.18041E-07-3.30872E-24
 -1       594 4.62400E-05 1.11562E-07-1.65436E-24
 -1       595 4.60637E-05 3.08780E-07 0.00000E+00
 -1       596 4.58950E-05 4.85647E-07-1.65436E-24
 -1       597 4.57293E-05 6.54184E-07 0.00000E+00
 -1       598 4.55622E-05 8.26402E-07 0.00000E+00
 -1       599 4.53892E-05 1.01431E-06 0.00000E+00
 -1       600 4.52058E-05 1.22992E-06-1.65436E-24
 -1       601 4.50076E-05 1.48524E-06 3.30872E-24
 -1       602 4.47901E-05 1.79228E-06 4.13590E-25
 -1       603 4.45489E-05 2.16306E-06-1.24077E-24
 -1       604 4.42800E-05 2.60968E-06-5.16988E-25
 -1       605 4.39795E-05 3.14423E-06 0.00000E+00
 -1       606 4.95874E-05 4.01463E-06-6.61744E-24
 -1       607 4.96367E-05 5.29442E-06 0.00000E+00
 -1       608 4.96849E-05 6.67570E-06 0.00000E+00
 -1       609 4.97324E-05 8.15127E-06-6.61744E-24
 -1       610 4.97796E-05 9.71386E-06 0.00000E+00
 -1       611 4.98266E-05 1.13561E-05 0.00000E+00
 -1       612 4.98735E-05 1.30704E-05 3.30872E-24
 -1       613 4.99202E-05 1.48496E-05 0.00000E+00
 -1       614 4.99668E-05 1.66862E-05 0.00000E+00
 -1       615 5.00134E-05 1.85727E-05-1.65436E-24
 -1       616 5.00598E-05 2.05018E-05 3.30872E-24
 -1       617 5.01062E-05 2.24659E-05 0.00000E+00
 -1       618 5.01525E-05 2.44578E-05 0.00000E+00
 -1       619 5.01988E-05 2.64699E-05-8.27181E-25
 -1       620 5.02448E-05 2.84950E-05 0.00000E+00
 -1       621 4.84331E-05 2.99924E-06 3.30872E-24
 -1       622 4.73654E-05 3.15674E-06 1.65436E-24
 -1       623 4.63421E-05 3.31432E-06 3.30872E-24
 -1       624 4.53743E-05 3.47154E-06 0.00000E+00
 -1       625 4.44730E-05 3.62788E-06 0.00000E+00
 -1       626 4.91846E-05 4.07053E-06 0.00000E+00
 -1       627 4.87906E-05 5.41110E-06-6.61744E-24
 -1       628 4.83577E-05 6.85390E-06 0.00000E+00
 -1       629 4.78904E-05 8.38703E-06 0.00000E+00
 -1       630 4.73936E-05 9.99859E-06 0.00000E+00
 -1       631 4.68718E-05 1.16764E-05 0.00000E+00
 -1       632 4.63295E-05 1.34084E-05 3.30872E-24
 -1       633 4.57714E-05 1.51825E-05 0.00000E+00
 -1       634 4.52020E-05 1.69864E-05 0.00000E+00
 -1       635 4.46260E-05 1.88081E-05-1.65436E-24
 -1       636 4.40477E-05 2.06354E-05 0.00000E+00
 -1       637 4.34719E-05 2.24562E-05-1.65436E-24
 -1       638 4.29029E-05 2.42583E-05 0.00000E+00
 -1       639 4.23450E-05 2.60296E-05 4.13590E-25
 -1       640 4.18024E-05 2.77579E-05-8.27181E-25
 -1       641 5.02919E-05 3.26330E-05 0.00000E+00
 -1       642 5.02913E-05 3.49618E-05 0.00000E+00
 -1       643 5.02904E-05 3.74797E-05 0.00000E+00
 -1       644 5.02888E-05 4.01547E-05-5.16988E-26
 -1       645 5.02868E-05 4.29549E-05 0.00000E+00
 -1       646 5.02846E-05 4.58485E-05-2.58494E-26
 -1       647 5.02821E-05 4.88040E-05 0.00000E+00
 -1       648 5.02796E-05 5.17896E-05-2.58494E-26
 -1       649 5.02770E-05 5.47737E-05 0.00000E+00
 -1       650 5.02745E-05 5.77248E-05 0.00000E+00
 -1       651 5.02721E-05 6.06112E-05 0.00000E+00
 -1       652 5.02698E-05 6.34013E-05 1.03398E-25
 -1       653 5.02677E-05 6.60632E-05-4.13590E-25
 -1       654 5.02649E-05 6.85651E-05 0.00000E+00
 -1       655 5.02629E-05 7.08751E-05-1.65436E-24
 -1       656 4.84627E-05 3.03487E-05 0.00000E+00
 -1       657 4.68793E-05 3.01632E-05-1.65436E-24
 -1       658 4.54550E-05 2.99783E-05 0.00000E+00
 -1       659 4.41038E-05 2.97933E-05 0.00000E+00
 -1       660 4.27397E-05 2.96080E-05 0.00000E+00
 -1       661 4.97016E-05 3.26949E-05-3.30872E-24
 -1       662 4.90548E-05 3.50393E-05 3.30872E-24
 -1       663 4.83524E-05 3.75305E-05 0.00000E+00
 -1       664 4.76052E-05 4.01436E-05 3.30872E-24
 -1       665 4.68217E-05 4.28530E-05 0.00000E+00
 -1       666 4.60114E-05 4.56340E-05 3.30872E-24
 -1       667 4.51834E-05 4.84617E-05-6.61744E-24
 -1       668 4.43472E-05 5.13114E-05 0.00000E+00
 -1       669 4.35120E-05 5.41584E-05 0.00000E+00
 -1       670 4.26869E-05 5.69783E-05 0.00000E+00
 -1       671 4.18815E-05 5.97463E-05 0.00000E+00
 -1       672 4.11047E-05 6.24374E-05 0.00000E+00
 -1       673 4.03661E-05 6.50269E-05 0.00000E+00
 -1       674 3.96738E-05 6.74890E-05 1.65436E-24
 -1       675 3.90392E-05 6.97990E-05-3.30872E-24
 -1       676 4.82829E-05 7.27880E-05 0.00000E+00
 -1       677 4.63120E-05 7.26144E-05 0.00000E+00
 -1       678 4.43434E-05 7.24409E-05 6.61744E-24
 -1       679 4.23781E-05 7.22681E-05 0.00000E+00
 -1       680 4.04168E-05 7.20951E-05 0.00000E+00
 -1       681 1.45165E-05 1.33185E-06-3.30872E-24
 -1       682 1.47420E-05 1.23917E-06-3.30872E-24
 -1       683 1.49653E-05-7.86061E-07 0.00000E+00
 -1       684 1.51866E-05-4.05718E-06-3.30872E-24
 -1       685 1.54050E-05-8.17794E-06 0.00000E+00
 -1       686 1.56216E-05-1.27606E-05 0.00000E+00
 -1       687 1.58375E-05-1.75250E-05 0.00000E+00
 -1       688 1.60539E-05-2.21931E-05 0.00000E+00
 -1       689 1.62719E-05-2.64640E-05-6.61744E-24
 -1       690 1.64925E-05-3.00332E-05 0.00000E+00
 -1       691 1.67162E-05-3.24321E-05-6.61744E-24
 -1       692 1.69421E-05-3.31807E-05 3.30872E-24
 -1       693 1.71662E-05-3.14139E-05-6.61744E-24
 -1       694 1.73768E-05-2.62419E-05 0.00000E+00
 -1       695 1.75489E-05-1.59848E-05 0.00000E+00
 -1       696 1.07662E-05-1.02006E-06 0.00000E+00
 -1       697 7.93211E-06-8.18961E-07 0.00000E+00
 -1       698 5.60256E-06-6.16893E-07-6.61744E-24
 -1       699 3.58691E-06-4.12574E-07 3.30872E-24
 -1       700 1.76043E-06-2.08067E-07 0.00000E+00
 -1       701 1.09888E-05 6.83178E-06 3.30872E-24
 -1       702 4.40026E-06 2.32735E-05 0.00000E+00
 -1       703-4.50370E-06 4.55644E-05 6.61744E-24
 -1       704-1.47148E-05 7.11033E-05 0.00000E+00
 -1       705-2.48766E-05 9.65191E-05-6.61744E-24
 -1       706-3.36361E-05 1.18441E-04-3.30872E-24
 -1       707-4.00108E-05 1.34332E-04 0.00000E+00
 -1       708-4.30800E-05 1.41702E-04-3.30872E-24
 -1       709-4.27532E-05 1.40093E-04 0.00000E+00
 -1       710-3.89839E-05 1.29135E-04 0.00000E+00
 -1       711-3.25276E-05 1.10704E-04-6.61744E-24
 -1       712-2.41326E-05 8.67682E-05 3.30872E-24
 -1       713-1.49724E-05 6.06388E-05 0.00000E+00
 -1       714-6.20883E-06 3.56582E-05-3.30872E-24
 -1       715 1.07676E-06 1.48866E-05 0.00000E+00
 -1       716 1.76022E-05 1.83454E-05 8.27181E-25
 -1       717 1.76807E-05 2.91299E-05 0.00000E+00
 -1       718 1.78002E-05 3.48267E-05 0.00000E+00
 -1       719 1.79349E-05 3.67914E-05-1.65436E-24
 -1       720 1.80716E-05 3.58695E-05 0.00000E+00
 -1       721 1.82047E-05 3.28894E-05 0.00000E+00
 -1       722 1.83326E-05 2.83966E-05-3.30872E-24
 -1       723 1.84558E-05 2.29278E-05 0.00000E+00
 -1       724 1.85758E-05 1.68849E-05-3.30872E-24
 -1       725 1.86946E-05 1.06669E-05 1.65436E-24
 -1       726 1.88143E-05 4.64822E-06 3.30872E-24
 -1       727 1.89361E-05-7.95274E-07 0.00000E+00
 -1       728 1.90624E-05-5.20879E-06 0.00000E+00
 -1       729 1.91880E-05-8.13145E-06 0.00000E+00
 -1       730 1.93191E-05-8.89997E-06 0.00000E+00
 -1       731 9.81300E-07 1.02649E-06 0.00000E+00
 -1       732-7.94262E-06 1.06682E-06-8.27181E-25
 -1       733-1.06255E-05 1.14318E-06 0.00000E+00
 -1       734-8.51847E-06 1.22195E-06-8.27181E-25
 -1       735-2.69033E-06 1.28741E-06 3.30872E-24
 -1       736 8.63989E-06 2.30190E-05-6.61744E-24
 -1       737-1.53165E-06 4.78814E-05 0.00000E+00
 -1       738-1.01158E-05 6.87674E-05 1.32349E-23
 -1       739-1.44492E-05 7.88115E-05 0.00000E+00
 -1       740-1.37864E-05 7.56554E-05-1.32349E-23
 -1       741-7.55389E-06 5.71706E-05-6.61744E-24
 -1       742 2.55778E-06 2.76072E-05 0.00000E+00
 -1       743 1.49014E-05-8.52750E-06-6.61744E-24
 -1       744 2.69897E-05-4.39061E-05 0.00000E+00
 -1       745 3.63253E-05-7.12207E-05 0.00000E+00
 -1       746 4.14546E-05-8.66134E-05 0.00000E+00
 -1       747 4.08948E-05-8.64975E-05 0.00000E+00
 -1       748 3.55046E-05-7.37252E-05 0.00000E+00
 -1       749 2.63312E-05-5.13600E-05 6.61744E-24
 -1       750 1.61433E-05-2.64599E-05 0.00000E+00
 -1       751 2.07052E-05-4.10653E-06-1.32349E-23
 -1       752 2.20784E-05-2.84477E-06-1.32349E-23
 -1       753 2.34472E-05-2.40032E-06-2.64698E-23
 -1       754 2.48317E-05-2.17267E-06 0.00000E+00
 -1       755 2.62167E-05-2.06565E-06 0.00000E+00
 -1       756 2.76047E-05-1.99039E-06 2.64698E-23
 -1       757 2.89932E-05-1.93276E-06-5.29396E-23
 -1       758 3.03822E-05-1.87967E-06-2.64698E-23
 -1       759 3.17712E-05-1.82876E-06 5.29396E-23
 -1       760 3.31600E-05-1.77777E-06 2.64698E-23
 -1       761 3.45485E-05-1.72431E-06 0.00000E+00
 -1       762 3.59347E-05-1.66582E-06-2.64698E-23
 -1       763 3.73207E-05-1.58792E-06 0.00000E+00
 -1       764 3.86956E-05-1.47505E-06 1.32349E-23
 -1       765 4.00742E-05-1.22998E-06 2.64698E-23
 -1       766 1.80215E-05-6.72378E-06 0.00000E+00
 -1       767 2.06636E-05-6.58085E-06 0.00000E+00
 -1       768 2.42172E-05-6.44232E-06 0.00000E+00
 -1       769 2.55641E-05-6.29421E-06 0.00000E+00
 -1       770 2.12520E-05-6.15687E-06 0.00000E+00
 -1       771 1.73374E-05-4.07211E-06-2.64698E-23
 -1       772 1.54436E-05-1.83488E-06 1.32349E-23
 -1       773 1.37295E-05-8.05843E-08 0.00000E+00
 -1       774 1.21788E-05 1.23656E-06 0.00000E+00
 -1       775 1.07749E-05 2.16258E-06 2.64698E-23
 -1       776 9.50061E-06 2.74403E-06 0.00000E+00
 -1       777 8.33816E-06 3.02766E-06 2.64698E-23
 -1       778 7.26989E-06 3.06054E-06 1.32349E-23
 -1       779 6.27805E-06 2.88991E-06 0.00000E+00
 -1       780 5.34482E-06 2.56323E-06 0.00000E+00
 -1       781 4.45237E-06 2.12806E-06-2.64698E-23
 -1       782 3.58299E-06 1.63212E-06 0.00000E+00
 -1       783 2.71895E-06 1.12316E-06-2.64698E-23
 -1       784 1.84335E-06 6.49148E-07 1.32349E-23
 -1       785 9.39413E-07 2.58045E-07 2.64698E-23
 -1       786 4.15265E-05-2.09887E-07-1.65436E-24
 -1       787 4.16670E-05 2.07728E-07 1.65436E-24
 -1       788 4.18074E-05 5.24103E-07 3.30872E-24
 -1       789 4.19490E-05 7.57764E-07 0.00000E+00
 -1       790 4.20909E-05 9.27122E-07 3.30872E-24
 -1       791 4.22330E-05 1.05052E-06 0.00000E+00
 -1       792 4.23752E-05 1.14624E-06 0.00000E+00
 -1       793 4.25174E-05 1.23253E-06 0.00000E+00
 -1       794 4.26596E-05 1.32763E-06 0.00000E+00
 -1       795 4.28018E-05 1.44979E-06 0.00000E+00
 -1       796 4.29440E-05 1.61729E-06-3.30872E-24
 -1       797 4.30860E-05 1.84848E-06 0.00000E+00
 -1       798 4.32280E-05 2.16175E-06 0.00000E+00
 -1       799 4.33694E-05 2.57563E-06-1.65436E-24
 -1       800 4.35108E-05 3.10876E-06 3.30872E-24
 -1       801 3.77165E-05-6.04806E-07 0.00000E+00
 -1       802 3.00660E-05-4.72956E-07 0.00000E+00
 -1       803 2.04554E-05-3.56086E-07 1.65436E-24
 -1       804 1.08986E-05-2.42513E-07 0.00000E+00
 -1       805 3.40905E-06-1.13677E-07 1.32349E-23
 -1       806 4.10220E-05-2.68473E-07 0.00000E+00
 -1       807 4.06630E-05 1.58912E-07 0.00000E+00
 -1       808 4.03179E-05 5.44946E-07 6.61744E-24
 -1       809 3.99840E-05 8.98964E-07 0.00000E+00
 -1       810 3.96585E-05 1.23024E-06-6.61744E-24
 -1       811 3.93380E-05 1.54800E-06 0.00000E+00
 -1       812 3.90190E-05 1.86143E-06-6.61744E-24
 -1       813 3.86982E-05 2.17971E-06 0.00000E+00
 -1       814 3.83721E-05 2.51204E-06 3.30872E-24
 -1       815 3.80373E-05 2.86759E-06-3.30872E-24
 -1       816 3.76904E-05 3.25555E-06 3.30872E-24
 -1       817 3.73280E-05 3.68510E-06 1.65436E-24
 -1       818 3.69466E-05 4.16543E-06 3.30872E-24
 -1       819 3.65433E-05 4.70573E-06 3.30872E-24
 -1       820 3.61153E-05 5.31524E-06 0.00000E+00
 -1       821 4.35098E-05 4.63794E-06 1.65436E-24
 -1       822 4.33623E-05 5.69127E-06 1.65436E-24
 -1       823 4.32148E-05 6.91990E-06-3.30872E-24
 -1       824 4.30658E-05 8.30354E-06 0.00000E+00
 -1       825 4.29164E-05 9.82174E-06-3.30872E-24
 -1       826 4.27666E-05 1.14539E-05 0.00000E+00
 -1       827 4.26166E-05 1.31791E-05 3.30872E-24
 -1       828 4.24664E-05 1.49766E-05 0.00000E+00
 -1       829 4.23161E-05 1.68253E-05 0.00000E+00
 -1       830 4.21658E-05 1.87042E-05 1.65436E-24
 -1       831 4.20156E-05 2.05921E-05 0.00000E+00
 -1       832 4.18655E-05 2.24681E-05 0.00000E+00
 -1       833 4.17157E-05 2.43109E-05 0.00000E+00
 -1       834 4.15670E-05 2.60996E-05-1.65436E-24
 -1       835 4.14183E-05 2.78131E-05 1.65436E-24
 -1       836 4.26318E-05 4.14375E-06-6.61744E-24
 -1       837 4.12648E-05 4.52033E-06 3.30872E-24
 -1       838 3.97160E-05 4.89599E-06 0.00000E+00
 -1       839 3.81539E-05 5.27078E-06-3.30872E-24
 -1       840 3.67466E-05 5.64638E-06 3.30872E-24
 -1       841 4.33149E-05 4.62911E-06-4.13590E-25
 -1       842 4.29004E-05 5.68478E-06 0.00000E+00
 -1       843 4.24155E-05 6.92815E-06-2.06795E-25
 -1       844 4.18670E-05 8.33896E-06-2.06795E-25
 -1       845 4.12640E-05 9.89448E-06 4.13590E-25
 -1       846 4.06150E-05 1.15716E-05 0.00000E+00
 -1       847 3.99296E-05 1.33452E-05-4.13590E-25
 -1       848 3.92174E-05 1.51900E-05 2.06795E-25
 -1       849 3.84883E-05 1.70795E-05 0.00000E+00
 -1       850 3.77524E-05 1.89871E-05-2.06795E-25
 -1       851 3.70197E-05 2.08860E-05 4.13590E-25
 -1       852 3.63004E-05 2.27493E-05 4.13590E-25
 -1       853 3.56044E-05 2.45507E-05 8.27181E-25
 -1       854 3.49410E-05 2.62639E-05 0.00000E+00
 -1       855 3.43203E-05 2.78646E-05 0.00000E+00
 -1       856 4.11109E-05 3.11685E-05 0.00000E+00
 -1       857 4.09365E-05 3.32223E-05 0.00000E+00
 -1       858 4.07617E-05 3.55516E-05-3.30872E-24
 -1       859 4.05851E-05 3.81154E-05 3.30872E-24
 -1       860 4.04078E-05 4.08721E-05 6.61744E-24
 -1       861 4.02299E-05 4.37802E-05 0.00000E+00
 -1       862 4.00516E-05 4.67976E-05 0.00000E+00
 -1       863 3.98731E-05 4.98823E-05 3.30872E-24
 -1       864 3.96946E-05 5.29921E-05 6.61744E-24
 -1       865 3.95161E-05 5.60847E-05-3.30872E-24
 -1       866 3.93377E-05 5.91180E-05 0.00000E+00
 -1       867 3.91599E-05 6.20499E-05-3.30872E-24
 -1       868 3.89825E-05 6.48383E-05 6.61744E-24
 -1       869 3.88063E-05 6.74415E-05 0.00000E+00
 -1       870 3.86307E-05 6.98181E-05 0.00000E+00
 -1       871 3.98935E-05 2.94157E-05 0.00000E+00
 -1       872 3.86116E-05 2.93995E-05 0.00000E+00
 -1       873 3.73939E-05 2.93829E-05 0.00000E+00
 -1       874 3.62027E-05 2.93658E-05-4.13590E-25
 -1       875 3.50000E-05 2.93480E-05 0.00000E+00
 -1       876 4.08618E-05 3.12290E-05 0.00000E+00
 -1       877 4.03539E-05 3.33028E-05 3.30872E-24
 -1       878 3.97568E-05 3.56123E-05 0.00000E+00
 -1       879 3.90854E-05 3.81228E-05 0.00000E+00
 -1       880 3.83516E-05 4.07989E-05 0.00000E+00
 -1       881 3.75687E-05 4.36058E-05 0.00000E+00
 -1       882 3.67493E-05 4.65094E-05 0.00000E+00
 -1       883 3.59063E-05 4.94756E-05 0.00000E+00
 -1       884 3.50524E-05 5.24703E-05 6.61744E-24
 -1       885 3.42005E-05 5.54599E-05 0.00000E+00
 -1       886 3.33633E-05 5.84103E-05 0.00000E+00
 -1       887 3.25534E-05 6.12877E-05-3.30872E-24
 -1       888 3.17837E-05 6.40579E-05-6.61744E-24
 -1       889 3.10659E-05 6.66860E-05 3.30872E-24
 -1       890 3.04149E-05 6.91380E-05 0.00000E+00
 -1       891 3.67659E-05 7.18352E-05 0.00000E+00
 -1       892 3.54040E-05 7.17425E-05 1.65436E-24
 -1       893 3.42026E-05 7.16500E-05-3.30872E-24
 -1       894 3.29886E-05 7.15577E-05 8.27181E-25
 -1       895 3.15893E-05 7.14651E-05 0.00000E+00
 -1       896 3.62575E-07 1.74226E-06 0.00000E+00
 -1       897 7.28449E-07 3.50724E-06 0.00000E+00
 -1       898 1.09410E-06 5.28118E-06 0.00000E+00
 -1       899 1.46039E-06 7.05044E-06 6.61744E-24
 -1       900 1.82673E-06 8.79949E-06-1.32349E-23
 -1       901 2.19326E-06 1.05126E-05-6.61744E-24
 -1       902 2.55990E-06 1.21595E-05 0.00000E+00
 -1       903 2.92669E-06 1.37090E-05 0.00000E+00
 -1       904 3.29371E-06 1.50912E-05 0.00000E+00
 -1       905 3.66094E-06 1.62334E-05 0.00000E+00
 -1       906 4.02846E-06 1.69676E-05 1.32349E-23
 -1       907 4.39581E-06 1.71191E-05 0.00000E+00
 -1       908 4.76269E-06 1.62815E-05-1.32349E-23
 -1       909 5.12537E-06 1.40328E-05 3.30872E-24
 -1       910 5.48040E-06 9.39074E-06-6.61744E-24
 -1       911 5.90824E-06-7.79971E-06 0.00000E+00
 -1       912 6.02628E-06-1.56145E-05-1.65436E-24
 -1       913 6.15185E-06-2.23336E-05 0.00000E+00
 -1       914 6.28317E-06-2.81738E-05 0.00000E+00
 -1       915 6.41865E-06-3.32222E-05 0.00000E+00
 -1       916 6.55741E-06-3.75604E-05-1.65436E-24
 -1       917 6.69897E-06-4.11649E-05-3.30872E-24
 -1       918 6.84290E-06-4.40076E-05-1.65436E-24
 -1       919 6.98885E-06-4.59470E-05-3.30872E-24
 -1       920 7.13617E-06-4.68361E-05 1.65436E-24
 -1       921 7.28362E-06-4.63721E-05-3.30872E-24
 -1       922 7.42865E-06-4.42436E-05-1.65436E-24
 -1       923 7.56644E-06-3.98925E-05 3.30872E-24
 -1       924 7.68694E-06-3.27463E-05-1.65436E-24
 -1       925 7.77461E-06-2.18208E-05 0.00000E+00
 -1       926 7.31681E-06 1.52295E-05 6.61744E-24
 -1       927 6.69004E-06 4.28125E-05 0.00000E+00
 -1       928 5.98960E-06 7.31193E-05-6.61744E-24
 -1       929 5.31189E-06 1.02597E-04 0.00000E+00
 -1       930 4.74157E-06 1.27887E-04 6.61744E-24
 -1       931 4.32651E-06 1.45676E-04-3.30872E-24
 -1       932 4.02423E-06 1.54386E-04 0.00000E+00
 -1       933 3.75672E-06 1.52543E-04-3.30872E-24
 -1       934 3.42974E-06 1.41094E-04 6.61744E-24
 -1       935 2.97326E-06 1.21098E-04 0.00000E+00
 -1       936 2.39941E-06 9.55845E-05 6.61744E-24
 -1       937 1.76257E-06 6.76463E-05 3.30872E-24
 -1       938 1.15710E-06 4.09386E-05-6.61744E-24
 -1       939 6.62492E-07 1.91043E-05 0.00000E+00
 -1       940 2.94168E-07 4.64979E-06 1.32349E-23
 -1       941 2.11396E-06 3.00754E-07 2.64698E-23
 -1       942 4.34437E-06 6.30005E-07 0.00000E+00
 -1       943 6.56746E-06 9.73583E-07 5.29396E-23
 -1       944 8.81269E-06 1.31882E-06 0.00000E+00
 -1       945 1.10586E-05 1.66489E-06-5.29396E-23
 -1       946 1.33089E-05 2.01106E-06 0.00000E+00
 -1       947 1.55597E-05 2.35728E-06 0.00000E+00
 -1       948 1.78113E-05 2.70351E-06 0.00000E+00
 -1       949 2.00630E-05 3.04976E-06-5.29396E-23
 -1       950 2.23141E-05 3.39605E-06 0.00000E+00
 -1       951 2.45647E-05 3.74272E-06 0.00000E+00
 -1       952 2.68119E-05 4.09014E-06 0.00000E+00
 -1       953 2.90585E-05 4.44421E-06 0.00000E+00
 -1       954 3.12873E-05 4.81147E-06-2.64698E-23
 -1       955 3.35219E-05 5.29350E-06-2.64698E-23
 -1       956 3.55456E-05 6.94692E-06 1.65436E-24
 -1       957 3.54268E-05 8.02381E-06 6.20385E-25
 -1       958 3.53074E-05 9.22110E-06 2.48154E-24
 -1       959 3.51876E-05 1.05248E-05 1.24077E-24
 -1       960 3.50677E-05 1.19209E-05 0.00000E+00
 -1       961 3.49477E-05 1.33953E-05-1.65436E-24
 -1       962 3.48275E-05 1.49337E-05 1.65436E-24
 -1       963 3.47073E-05 1.65221E-05 0.00000E+00
 -1       964 3.45870E-05 1.81462E-05-3.30872E-24
 -1       965 3.44667E-05 1.97920E-05 1.65436E-24
 -1       966 3.43464E-05 2.14451E-05 3.30872E-24
 -1       967 3.42261E-05 2.30915E-05 0.00000E+00
 -1       968 3.41059E-05 2.47169E-05 0.00000E+00
 -1       969 3.39860E-05 2.63073E-05 1.65436E-24
 -1       970 3.38664E-05 2.78485E-05 0.00000E+00
 -1       971 3.35122E-05 3.09160E-05 3.30872E-24
 -1       972 3.32686E-05 3.28388E-05 0.00000E+00
 -1       973 3.30246E-05 3.50552E-05 0.00000E+00
 -1       974 3.27790E-05 3.75239E-05 3.30872E-24
 -1       975 3.25328E-05 4.02032E-05 6.61744E-24
 -1       976 3.22859E-05 4.30508E-05 0.00000E+00
 -1       977 3.20387E-05 4.60243E-05 6.61744E-24
 -1       978 3.17911E-05 4.90810E-05 0.00000E+00
 -1       979 3.15435E-05 5.21777E-05 0.00000E+00
 -1       980 3.12959E-05 5.52715E-05 0.00000E+00
 -1       981 3.10485E-05 5.83193E-05-6.61744E-24
 -1       982 3.08016E-05 6.12782E-05 3.30872E-24
 -1       983 3.05553E-05 6.41055E-05 0.00000E+00
 -1       984 3.03108E-05 6.67586E-05 3.30872E-24
 -1       985 3.00667E-05 6.91954E-05 3.30872E-24
 -3
    1PSTEP                        40          20           1          
  100CL  120 9.05965E-01         841                     0   20           1
 -4  STRESS      6    1
 -5  SXX         1    4    1    1
 -5  SYY         1    4    2    2
 -5  SZZ         1    4    3    3
 -5  SXY         1    4    1    2
 -5  SYZ         1    4    2    3
 -5  SZX         1    4    3    1
 -1         1-3.53351E+06-1.15957E+06-7.23428E+05-1.09389E+06-4.60811E-10 2.87158E-09
 -1         2-1.89147E+06 8.36087E+03 3.06400E+04-6.02796E+04-7.64862E-09 8.39918E-10
 -1         3-1.20302E+06-4.08302E+05-3.07415E+04-7.07140E+04 2.80716E-09 7.09406E-11
 -1         4-8.59370E+05-1.06050E+05 5.98381E+03-3.82890E+04-2.88310E-09 3.26963E-10
 -1         5-6.05293E+05 1.10175E+05-2.28494E+05-1.87820E+04 1.22600E-08 3.34899E-09
 -1         8-1.60432E+06-6.25762E+05-1.92281E+05-6.61564E+05 7.96717E-10-1.01063E-08
 -1         9-1.88912E+06-4.35989E+05-2.04692E+05-4.51964E+05 1.78261E-10-6.59687E-10
 -1        10-6.54548E+05-3.90707E+05 5.41436E+04-8.89569E+04-2.83732E-09 1.63254E-10
 -1        11-3.58848E+05-2.54617E+04 1.51125E+04 1.77150E+04 4.38485E-08 1.40229E-09
 -1        12-3.29749E+05 1.68572E+05-1.62568E+05-6.25548E+04 2.14920E-08 3.99332E-10
 -1        15 4.06517E+04 1.07293E+05 2.38047E+04-7.59136E+03 2.31921E-10-6.14455E-09
 -1        16-1.44957E+06-3.04666E+05-8.42805E+03-5.42399E+05 2.25130E-09 5.66312E-10
 -1        17-7.92136E+05-5.00960E+05-9.26939E+04-3.88366E+05 2.03120E-10 2.38651E-09
 -1        18-2.17201E+05-7.79182E+04-8.67568E+04-1.07419E+05-3.02255E-10 4.09758E-09
 -1        19 6.27682E+04 1.39819E+05-3.71529E+04-3.19224E+04-5.78439E-09-1.66195E-09
 -1        20 1.27952E+05-9.47749E+04-1.55785E+04 6.80541E+04 9.95078E-09-4.47380E-09
 -1        21 2.19895E+03-1.90831E+05 4.83474E+04 5.88489E+02 2.28861E-08-1.65201E-09
 -1        22 4.54306E+04 2.05972E+05 4.94749E+03-1.56907E+04-3.17868E-10-2.48656E-09
 -1        23-2.14373E+05 1.11440E+05 1.85115E+04-4.36625E+04-7.25261E-09-1.55827E-10
 -1        24-2.84863E+05-1.37641E+03 3.11242E+05-5.48294E+05-1.14766E-08 3.99935E-09
 -1        25 6.71606E+05 2.44070E+05 2.12298E+05-3.51704E+05 1.26238E-09-1.66741E-09
 -1        26 2.24531E+03 2.14317E+05 1.11616E+04-3.91862E+04 1.90039E-09 3.13533E-09
 -1        27-4.88960E+04-8.07950E+04-3.49229E+04 9.28469E+04 6.91277E-09-1.49885E-09
 -1        28-1.62612E+04-1.49511E+05-8.91140E+02 7.18265E+04 7.53903E-09-3.00119E-09
 -1        29 5.01500E+05 3.21213E+05 1.25710E+03 2.24198E+03 3.69251E-10-3.19142E-09
 -1        30 2.37046E+05 4.37301E+04 4.98056E+03-2.62290E+04-1.20770E-09 1.93468E-08
 -1        31-3.29953E+05 9.64245E+04 1.25444E+04-1.22667E+04-1.30806E-08-1.93504E-08
 -1        32 1.12237E+06 6.01451E+05 7.06999E+05-5.64848E+05 1.91731E-08 2.70666E-09
 -1        33 1.56870E+06 6.67331E+05 4.91107E+05-6.03439E+04-1.97197E-08 2.78305E-10
 -1        34-2.57577E+05-3.56965E+04-1.01265E+04 4.97587E+04-4.66649E-10-1.10958E-09
 -1        35-4.19703E+04-4.93745E+04-9.39256E+02 1.06890E+05 1.89933E-08-2.73091E-09
 -1        36-4.21864E+06 1.21052E+05-2.80753E+05-3.87190E-08 1.67134E-09-2.53203E-09
 -1        37-4.34003E+06-1.40148E+05-1.98540E+05-1.51016E-07 2.03020E-09-6.64659E-09
 -1        38-4.26546E+06 1.88775E+04-7.25968E+04 5.24643E-08-1.58600E-09-4.79486E-09
 -1        39-4.28520E+06-2.18496E+04-4.55780E+04 1.11171E-07 1.22417E-09-5.96629E-10
 -1        40-4.27312E+06 2.93822E+03-1.86367E+04-1.91750E-07-3.73598E-10 6.72298E-09
 -1        41-4.27619E+06-3.44322E+03-1.11158E+04-2.82291E-08 3.42236E-09-8.11724E-11
 -1        42-4.27437E+06 5.00442E+02-5.45481E+03-1.56884E-07 3.60645E-09-7.94284E-09
 -1        43-4.27484E+06-8.88588E+02-4.35285E+03-7.75453E-08 3.04883E-09 1.16813E-11
 -1        44-4.27443E+06 3.87309E+02-4.42765E+03-2.04501E-07-1.17547E-09 6.13898E-09
 -1        45-4.27566E+06-2.46615E+03-8.14380E+03 6.46545E-07-1.73982E-09 7.62793E-09
 -1        46-4.27357E+06 2.07560E+03-1.32779E+04 1.08578E-07-2.74943E-10 6.60248E-09
 -1        47-4.28198E+06-1.54021E+04-3.21924E+04 1.07546E-07-5.78685E-09-1.44973E-09
 -1        48-4.26818E+06 1.33023E+04-5.11953E+04-9.04630E-08-3.52370E-09 5.63887E-10
 -1        49-4.32062E+06-9.87562E+04-1.39922E+05-1.07632E-07-1.70261E-09 8.45466E-09
 -1        50-4.23521E+06 8.52919E+04-1.97911E+05-8.05435E-08-3.50631E-09 2.61934E-09
 -1        51 4.05422E+04-4.76904E+05 6.57950E+04-1.29723E+06 1.16415E-10 2.95404E-09
 -1        52 2.03137E+04-4.74070E+05 4.01440E+04-1.43062E+06 1.38243E-09-1.70185E-08
 -1        53 1.45341E+04-4.90306E+05 3.19055E+04-1.29368E+06-3.63798E-11 1.05356E-08
 -1        54 3.20612E+04-4.87826E+05 4.83094E+04-1.43426E+06-9.45874E-10 2.55495E-08
 -1        55 6.76260E+04-5.04149E+05 8.69654E+04-1.29291E+06-4.51109E-10 1.39880E-08
 -1        56-5.91263E+06-6.64397E+05-4.89154E+05-2.28543E+06 2.47383E-10 2.59024E-09
 -1        57-6.12758E+06-1.07923E+06-3.28438E+05-2.24531E+06 5.00222E-10-3.41970E-09
 -1        58-6.00880E+06-8.18080E+05-1.15033E+05-2.25718E+06 2.38651E-09-7.16682E-09
 -1        59-6.01720E+06-8.97133E+05-6.82079E+04-2.27779E+06-1.14369E-09-5.06770E-09
 -1        60-6.02133E+06-8.40358E+05-2.68410E+04-2.25489E+06 1.50794E-09-3.27873E-09
 -1        61-6.00551E+06-8.68018E+05-1.51731E+04-2.27697E+06-2.07683E-09 8.08120E-09
 -1        62-6.02008E+06-8.46447E+05-7.41461E+03-2.25815E+06 1.86037E-09 1.00522E-09
 -1        63-6.01112E+06-8.57347E+05-6.17681E+03-2.26851E+06 1.12027E-09-2.09138E-09
 -1        64-6.01559E+06-8.50988E+05-7.25904E+03-2.26331E+06 4.82191E-09 7.75026E-09
 -1        65-6.02211E+06-8.51083E+05-1.46738E+04-2.25773E+06 3.87990E-09-7.27050E-09
 -1        66-6.00914E+06-8.52793E+05-2.59341E+04-2.26893E+06-1.25874E-09 6.99401E-09
 -1        67-6.04534E+06-8.67226E+05-6.58019E+04-2.24491E+06-1.94632E-09 1.04201E-08
 -1        68-5.99277E+06-8.35563E+05-1.10992E+05-2.27599E+06 3.02862E-09-2.77942E-09
 -1        69-6.15595E+06-1.03888E+06-3.16860E+05-2.20908E+06 6.19184E-09-7.29051E-09
 -1        70-5.90024E+06-6.87009E+05-4.71932E+05-2.30292E+06-1.89175E-10-9.89530E-10
 -1        71-2.58778E+06 2.12051E+04-4.92721E+04-2.32964E-07 5.13984E-11-3.27418E-10
 -1        72-2.60889E+06-2.45562E+04-3.48231E+04-9.27911E-08-4.92785E-10-9.71340E-09
 -1        73-2.59599E+06 3.30784E+03-1.27590E+04-5.56209E-08-1.33781E-09-4.17276E-09
 -1        74-2.59929E+06-3.83131E+03-8.03439E+03 1.77784E-07-1.85541E-09-6.21947E-09
 -1        75-2.59734E+06 5.17272E+02-3.34182E+03 1.87107E-07-1.15362E-09-3.28316E-09
 -1        76-2.59772E+06-6.21973E+02-2.09849E+03 1.32280E-07 4.41920E-10-4.94117E-09
 -1        77-2.59755E+06 1.03878E+02-1.23272E+03-3.50956E-08 1.83400E-09 2.33797E-09
 -1        78-2.59755E+06-2.78189E+02-1.36731E+03 1.10392E-07-7.77224E-10 8.05289E-09
 -1        79-2.59751E+06 1.74048E+02-1.87172E+03 5.85983E-08-3.53925E-10-4.02002E-09
 -1        80-2.59805E+06-1.22802E+03-3.94613E+03-1.66911E-07-1.59132E-09 2.93454E-09
 -1        81-2.59705E+06 1.05231E+03-6.67349E+03 4.00442E-07-2.60589E-09-3.03862E-09
 -1        82-2.60128E+06-7.83011E+03-1.63495E+04-7.33322E-08-2.50944E-09-5.20595E-09
 -1        83-2.59430E+06 6.76526E+03-2.60565E+04-3.25614E-07-2.20578E-09-5.65888E-09
 -1        84-2.62092E+06-5.02271E+04-7.12075E+04-2.29105E-07-4.43608E-09 1.26511E-09
 -1        85-2.57750E+06 4.33755E+04-1.00753E+05 1.24680E-08-3.36843E-09 2.34286E-09
 -1        86-9.49771E+04 3.67992E+05 2.24449E+05 5.66400E+03 1.74623E-10 3.25906E-09
 -1        87 1.19938E+05 4.71974E+05 1.76840E+05-2.54563E+04 7.27596E-12-1.12928E-08
 -1        88-2.46695E+04 4.01736E+05 9.41774E+04 3.29768E+03-1.33878E-09-3.79774E-09
 -1        89 9.24154E+04 4.57813E+05 1.40697E+05-2.35678E+04 5.89353E-10-1.03522E-09
 -1        90-6.74631E+04 3.82052E+05 1.62927E+05 3.77623E+03-1.55705E-09-1.63175E-09
 -1        91-1.72503E+06-3.81367E+05-3.91290E+04-7.62686E+05 1.00235E-08 1.39698E-09
 -1        92-1.52619E+06 1.09032E+05 8.05637E+04-2.10976E+05 2.73974E-08-2.89447E-10
 -1        93-1.46072E+06-3.37019E+05 8.80349E+01-7.35928E+05 1.54246E-08 1.63539E-09
 -1        94-1.23771E+06 3.66481E+04 1.12260E+05-2.20097E+05-4.04020E-09-9.33096E-09
 -1        95-2.00185E+06-3.20981E+05-1.06089E+05-7.42998E+05-1.90321E-08 8.76298E-10
 -1        96-8.75704E+05-1.99317E+05 1.34336E+05-4.79996E+05 1.29462E-08 3.23416E-09
 -1        97-1.81615E+06-1.07530E+05-3.00093E+04-4.71943E+05 1.22182E-08-2.67914E-09
 -1        98-1.09983E+06-4.00855E+05 5.13914E+04-7.77277E+05-8.41854E-08 5.51563E-09
 -1        99-1.79746E+06-9.94908E+04-2.54494E+04-4.61450E+05-1.51881E-07-2.02151E-08
 -1       100-8.83615E+05-2.13087E+05 1.28564E+05-4.98008E+05-8.31515E-08-1.59416E-08
 -1       101-2.01351E+06-3.14404E+05-1.10508E+05-7.36230E+05-2.09602E-08-2.03313E-08
 -1       102-1.21109E+06 2.67236E+04 1.08104E+05-2.22451E+05 2.97205E-08 2.75572E-08
 -1       103-1.47462E+06-3.34750E+05-1.75670E+04-7.39428E+05 3.08532E-08 2.32426E-08
 -1       104-1.55387E+06 8.01764E+04 3.67326E+04-2.05409E+05-5.47129E-09 4.62001E-09
 -1       105-1.68395E+06-3.54363E+05-9.43200E+04-7.65170E+05 2.73521E-08 4.53656E-09
 -1       106-1.88075E+06 1.63208E+04-3.79334E+04-1.52463E-07 3.17657E-09 4.79668E-09
 -1       107-1.89701E+06-1.89003E+04-2.68105E+04 3.49538E-08-1.05059E-09-6.38420E-09
 -1       108-1.88707E+06 2.54597E+03-9.82690E+03 2.19585E-07-2.62154E-11-2.42153E-09
 -1       109-1.88962E+06-2.94896E+03-6.18872E+03 1.12137E-07-1.85928E-09-1.53989E-09
 -1       110-1.88811E+06 3.98197E+02-2.57624E+03-2.96509E-07-8.82304E-10 1.81683E-09
 -1       111-1.88842E+06-4.79124E+02-1.62006E+03-2.37728E-07 6.92064E-10-6.10639E-09
 -1       112-1.88827E+06 8.02957E+01-9.55984E+02-1.90309E-07-7.11686E-10-1.09276E-09
 -1       113-1.88829E+06-2.16696E+02-1.06655E+03 2.62220E-07-1.64502E-09 1.90425E-11
 -1       114-1.88824E+06 1.36195E+02-1.46564E+03-1.81292E-07 7.70722E-10 5.93258E-09
 -1       115-1.88868E+06-9.61897E+02-3.09330E+03-4.11608E-07-1.36111E-09 2.48627E-09
 -1       116-1.88788E+06 8.24398E+02-5.23283E+03-3.30129E-08-8.37119E-10-4.35102E-09
 -1       117-1.89121E+06-6.13438E+03-1.28166E+04 3.84844E-07-1.74311E-09-8.20364E-09
 -1       118-1.88572E+06 5.30005E+03-2.04263E+04-2.31436E-07-2.85766E-09-7.51243E-10
 -1       119-1.90659E+06-3.93490E+04-5.58023E+04-3.51056E-07-9.36656E-10 7.89805E-09
 -1       120-1.87255E+06 3.39807E+04-7.89557E+04-1.07698E-07-3.28288E-11 2.93221E-09
 -1       121-2.04537E+03-1.37122E+06 7.94620E+03-4.36631E+03-3.96540E-10-8.36735E-11
 -1       122 2.41995E+03-1.36789E+06 4.66712E+03-1.93558E+04-5.20743E-10-7.03403E-09
 -1       123-1.85918E+02-1.36992E+06 8.81264E+02-3.57738E+03-1.02841E-09-5.20686E-09
 -1       124-1.15862E+03-1.37022E+06-1.78593E+03-2.08006E+04-8.34916E-10-5.48607E-09
 -1       125 9.73972E+02-1.36912E+06-4.21227E+03-2.92248E+03-1.68819E-09-7.18319E-09
 -1       126-7.36152E+05-1.20829E+05 3.98643E+04-2.32566E+05 4.76157E-08-4.17276E-09
 -1       127-3.94311E+05-8.16839E+04 7.52038E+04-2.57525E+05 4.10946E-08 6.08270E-09
 -1       128-6.61511E+05-5.24014E+04 1.03523E+04-1.83881E+05-4.61896E-08-2.01953E-08
 -1       129-4.90304E+05-1.57557E+05 1.44257E+04-3.17872E+05-5.18207E-08-1.24975E-08
 -1       130-6.44918E+05-4.14411E+04 2.77860E+03-1.75495E+05-4.77510E-08 9.14383E-09
 -1       131-4.44806E+05-1.38297E+05 2.06300E+04-2.77202E+05-2.09718E-08 5.25915E-09
 -1       132-7.04075E+05-7.38895E+04-1.80282E+04-2.22542E+05 1.78720E-08 1.91562E-09
 -1       133-3.77606E+05-6.97692E+04 4.52370E+04-1.75984E+05 4.70318E-08-6.72333E-09
 -1       134-7.06837E+05-1.13909E+05-2.72075E+04-2.72701E+05 1.67706E-08-9.51081E-09
 -1       135-4.72793E+05-1.30672E+04 3.71346E+04-1.17225E+05-4.84515E-08 5.11545E-09
 -1       136-6.10560E+05-1.29295E+05-1.24037E+04-2.82193E+05 2.05923E-08 1.66071E-08
 -1       137-6.38688E+05 5.29667E+03 6.98070E+03-1.19416E+05 3.79958E-08 2.49802E-08
 -1       138-5.46448E+05-1.28208E+05-3.32753E+03-2.74987E+05 4.29350E-09 9.03583E-09
 -1       139-6.38712E+05 3.48202E+03-9.98524E+02-1.19027E+05 6.40578E-08 6.48776E-08
 -1       140-6.10503E+05-1.27510E+05-3.15801E+04-2.82550E+05 1.22827E-08-2.04045E-08
 -1       141-1.15377E+06 6.09889E+03-1.41864E+04-8.39222E-08-5.89667E-10 3.22234E-09
 -1       142-1.15981E+06-7.06363E+03-1.00383E+04-2.46119E-07 8.34668E-10 7.31040E-09
 -1       143-1.15613E+06 9.52105E+02-3.70778E+03-1.68666E-07-7.98809E-10 3.47040E-09
 -1       144-1.15705E+06-1.10747E+03-2.38441E+03 1.58482E-07-5.50495E-10-4.42964E-09
 -1       145-1.15652E+06 1.53565E+02-1.09849E+03-1.81056E-07-1.52326E-10-1.44070E-09
 -1       146-1.15662E+06-2.15658E+02-8.94014E+02 1.45470E-07 2.48304E-10-2.59740E-09
 -1       147-1.15656E+06 6.18470E+01-8.98035E+02-9.49605E-08-2.20453E-10-1.95308E-09
 -1       148-1.15670E+06-3.21953E+02-1.58692E+03 1.82853E-08-1.29831E-09-2.78945E-09
 -1       149-1.15644E+06 2.59802E+02-2.70516E+03-1.76831E-07-5.94998E-10-2.97177E-10
 -1       150-1.15755E+06-1.92529E+03-6.11639E+03-1.01605E-07 1.35966E-11-6.18331E-09
 -1       151-1.15571E+06 1.66289E+03-1.05153E+04 8.97786E-08 4.24835E-10-2.45109E-09
 -1       152-1.16267E+06-1.23875E+04-2.58703E+04 1.87640E-07-4.29572E-10 3.73348E-10
 -1       153-1.15134E+06 1.07049E+04-4.12639E+04 2.72082E-08 3.04160E-09 1.25146E-09
 -1       154-1.19372E+06-7.94755E+04-1.12730E+05-2.57899E-08 5.26067E-10-1.02500E-08
 -1       155-1.12469E+06 6.86373E+04-1.59450E+05-4.82405E-07 7.51412E-09-2.91038E-10
 -1       156-3.31836E+04-1.76864E+05 7.40008E+04-3.15450E+04-1.08885E-08 2.11662E-09
 -1       157 3.94941E+04-1.19255E+05 5.96856E+04 1.29995E+05-2.77432E-08-2.63668E-10
 -1       158-5.49828E+03-1.62730E+05 2.48583E+04-3.15365E+04-1.36624E-08 1.56706E-09
 -1       159 2.39489E+04-6.35062E+04 4.70001E+04 1.24039E+05-5.29917E-09 2.30557E-09
 -1       160-2.02331E+04-2.29112E+05 1.56419E+04-2.56210E+04 2.69174E-08 9.16816E-09
 -1       161-7.65251E+05-1.04709E+05 5.55707E+03-2.63013E+05-8.60746E-09-5.41513E-09
 -1       162-6.10433E+05-1.21521E+05 2.27807E+04-2.98413E+05 2.95586E-08 5.19640E-09
 -1       163-7.40975E+05-7.22253E+04 2.42572E+03-2.32832E+05 7.23394E-08-1.16748E-08
 -1       164-6.37063E+05-1.53852E+05 4.55001E+03-3.29493E+05 8.78732E-08 1.73600E-08
 -1       165-7.40374E+05-7.10461E+04-4.80371E+02-2.33201E+05 9.15358E-08 5.42309E-09
 -1       166-6.16505E+05-1.32127E+05 1.10188E+04-2.95892E+05 2.15882E-08 9.36183E-09
 -1       167-7.59769E+05-9.53139E+04-9.96957E+03-2.65146E+05 5.35965E-09-4.97653E-09
 -1       168-6.19911E+05-8.46453E+04 1.85699E+04-2.34265E+05-2.24892E-08 9.83789E-09
 -1       169-7.35262E+05-1.19827E+05-1.13583E+04-2.93468E+05 1.96364E-08-6.46924E-09
 -1       170-7.00249E+05-5.04061E+04 7.01727E+03-2.00156E+05-6.83826E-10-7.15124E-09
 -1       171-6.81160E+05-1.28228E+05-7.93138E+03-3.00540E+05-8.55717E-08-1.31527E-08
 -1       172-7.60844E+05-4.70727E+04-1.55743E+04-1.93256E+05-6.94836E-08-2.01203E-09
 -1       173-6.76386E+05-1.21870E+05-2.98161E+04-3.01763E+05-1.18063E-07 6.45014E-09
 -1       174-7.34028E+05-1.05379E+05-7.30068E+04-1.89653E+05-1.32556E-07 2.52367E-08
 -1       175-7.06356E+05-7.12379E+04-1.32351E+05-3.02781E+05-1.86992E-08 4.38013E-09
 -1       191 2.66361E+03 6.86608E+05 4.32752E+03-3.48899E+04-4.43833E-10-9.58244E-09
 -1       192 9.24100E+02 6.87246E+05 2.44629E+03-3.79049E+04 5.31031E-10-1.89220E-08
 -1       193 3.35606E+02 6.86795E+05 1.72187E+03-3.45432E+04-9.93850E-10-9.06221E-09
 -1       194 8.83348E+02 6.87151E+05 2.30801E+03-3.85196E+04 5.71163E-10-8.18909E-09
 -1       195 2.49007E+03 6.86518E+05 3.98782E+03-3.42708E+04-1.58980E-09 5.83714E-09
 -1       251-2.13532E+06 1.86944E+03-1.01819E+05-1.37860E+05-2.54022E-09-1.33514E-08
 -1       252-1.76253E+06-2.13317E+03 3.77229E+03 3.74141E+05 3.59853E-09-5.75574E-09
 -1       253-2.00275E+06 8.82657E+03-2.33772E+04-1.75696E+05 3.44244E-10-1.50922E-08
 -1       254-1.52004E+06 1.50014E+04 7.94434E+04 2.31483E+05 3.61024E-09-3.72120E-09
 -1       255-2.36131E+06-3.16258E+04-8.91191E+04 4.94844E+03 3.15958E-09-5.35101E-09
 -1       256-1.46511E+06 2.58864E+04 9.83852E+04-1.48627E+05 1.95587E-09 1.97531E-09
 -1       257-2.05352E+06-6.08712E+03-2.07171E+04 2.03473E+05 1.79625E-09 1.42336E-08
 -1       258-1.78401E+06 2.26007E+04 3.73899E+04-3.43619E+05-3.85323E-09 1.59557E-08
 -1       259-2.06387E+06-7.06917E+03-2.29053E+04 2.00897E+05-1.92158E-08 1.57686E-08
 -1       260-1.45614E+06 2.60070E+04 1.00232E+05-1.40101E+05 3.08637E-09 2.54136E-09
 -1       261-2.35935E+06-3.13330E+04-8.84833E+04-1.00351E+03 2.43017E-09 8.18773E-10
 -1       262-1.53025E+06 1.47884E+04 7.78247E+04 2.39217E+05 2.17146E-08-7.08133E-09
 -1       263-1.99521E+06 9.43825E+03-2.09887E+04-1.77469E+05-1.02104E-08-1.88447E-09
 -1       264-1.75802E+06-5.31260E+02 6.55623E+03 3.72198E+05-7.11317E-08-5.01495E-09
 -1       265-2.14711E+06-6.14180E+02-1.01438E+05-1.34136E+05-2.63208E-08-8.81482E-09
 -1       266-4.11856E+04-2.03053E+05 9.57191E+04-1.12088E+04 8.73115E-11-8.67175E-09
 -1       267 4.60351E+04-1.58191E+05 6.58284E+04 4.96735E+04 1.09139E-10-9.40466E-09
 -1       268-5.00272E+03-1.89259E+05 1.93403E+04-1.02710E+04-7.45786E-11 1.01249E-09
 -1       269-1.46182E+03-1.65802E+05 5.41600E+03 4.52000E+04-4.32010E-11 1.13887E-08
 -1       270 5.62899E+03-1.94655E+05-1.67798E+04-6.74950E+03 2.76486E-10 9.33915E-09
 -1       271-4.96878E+06-6.29368E+05-3.90416E+05-1.92894E+06-2.12458E-09-5.45697E-09
 -1       272-5.10922E+06-8.81537E+05-2.46501E+05-1.92488E+06-1.56888E-10 9.27685E-09
 -1       273-5.03942E+06-7.15421E+05-9.20419E+04-1.91530E+06 5.65024E-10-2.11730E-09
 -1       274-5.02595E+06-7.71250E+05-5.05180E+04-1.94875E+06 2.37560E-09-1.88084E-09
 -1       275-5.04966E+06-7.22393E+05-2.13894E+04-1.91166E+06-8.56744E-10-2.21917E-09
 -1       276-5.01337E+06-7.63005E+05-1.12948E+04-1.95504E+06-1.02818E-09-5.84805E-09
 -1       277-5.05217E+06-7.21803E+05-5.78898E+03-1.90990E+06-7.82165E-10 7.50788E-10
 -1       278-5.01062E+06-7.63785E+05-4.52916E+03-1.95755E+06 1.27113E-09-1.07633E-09
 -1       279-5.05265E+06-7.21322E+05-5.41110E+03-1.90938E+06 8.66009E-10-7.50333E-12
 -1       280-5.01166E+06-7.64622E+05-1.02997E+04-1.95724E+06-1.00511E-09 4.72573E-09
 -1       281-5.05114E+06-7.21080E+05-1.93102E+04-1.91016E+06 3.24690E-10 2.19916E-09
 -1       282-5.02186E+06-7.73303E+05-4.56257E+04-1.95308E+06-8.24912E-10 4.62569E-09
 -1       283-5.04245E+06-7.14242E+05-8.30320E+04-1.91284E+06 4.51564E-10 1.32422E-09
 -1       284-5.09611E+06-8.73719E+05-2.22473E+05-1.93251E+06 4.18822E-10-5.89353E-09
 -1       285-4.97903E+06-6.36279E+05-3.52353E+05-1.92479E+06-4.00178E-11-2.11003E-09
 -1       286-6.16861E+05-2.68140E+04 6.22632E+04-2.51991E+03 1.78221E-09 2.87400E-10
 -1       287-5.88939E+05 3.10594E+04 4.41580E+04 2.20418E+03 1.94834E-09 4.57840E-09
 -1       288-6.06630E+05-4.20298E+03 1.60499E+04-3.46130E+02-3.16618E-11-8.35462E-09
 -1       289-6.01029E+05 4.85999E+03 1.02702E+04-2.23641E+03-7.59599E-10-4.39377E-09
 -1       290-6.04790E+05-6.65550E+02 4.11273E+03 1.92076E+03 1.10452E-09-2.71939E-10
 -1       291-6.03411E+05 7.83896E+02 2.57579E+03-5.92769E+03 3.58068E-09 4.93378E-09
 -1       292-6.04274E+05-1.16612E+02 1.29207E+03 3.34520E+03 1.69953E-09-3.62405E-10
 -1       293-6.03944E+05 2.46612E+02 1.15738E+03-7.36598E+03 2.04902E-10 2.46112E-09
 -1       294-6.04272E+05-1.17915E+02 1.30603E+03 3.35911E+03 2.90396E-09-4.41938E-09
 -1       295-6.03412E+05 7.96444E+02 2.61280E+03-5.97781E+03 2.86769E-09-3.36127E-09
 -1       296-6.04792E+05-6.76428E+02 4.18321E+03 1.95697E+03 9.98881E-10 6.67319E-09
 -1       297-6.00992E+05 4.94315E+03 1.04427E+04-2.31688E+03 5.36104E-10 5.84123E-09
 -1       298-6.06665E+05-4.27491E+03 1.63271E+04-3.01883E+02 1.17325E-10-3.64435E-09
 -1       299-5.88683E+05 3.15937E+04 4.49168E+04 2.12446E+03-4.99028E-10-4.73528E-09
 -1       300-6.17080E+05-2.72756E+04 6.33352E+04-2.48444E+03 1.99350E-10 1.13141E-09
 -1       301 6.70289E+04 1.93630E+04 1.46860E+05-3.82852E+04 3.56522E-09 1.98538E-08
 -1       302 2.27575E+04 4.68075E+04 8.97416E+04-4.50654E+04 2.99497E-09 3.37258E-08
 -1       303 6.53482E+03 2.90960E+04 7.16949E+04-3.84401E+04 3.81169E-09 1.53009E-08
 -1       304 2.90421E+04 5.05019E+04 1.06496E+05-4.50086E+04 3.03407E-09 4.52440E-09
 -1       305 8.74432E+04 1.57102E+04 1.87542E+05-3.82821E+04 3.50701E-09 1.16656E-08
 -1       306-3.39664E+06-4.40935E+05-2.28567E+05-1.31681E+06 4.14730E-10-8.96398E-09
 -1       307-3.45796E+06-6.08419E+05-1.44147E+05-1.33776E+06-2.66596E-10-3.49610E-09
 -1       308-3.43829E+06-4.90746E+05-5.39298E+04-1.30858E+06 6.04814E-10 6.70843E-09
 -1       309-3.40934E+06-5.44264E+05-2.95873E+04-1.35228E+06-8.03084E-10-2.74122E-09
 -1       310-3.44434E+06-4.94727E+05-1.25739E+04-1.30646E+06 5.07498E-10 7.69433E-10
 -1       311-3.40230E+06-5.39263E+05-6.70314E+03-1.35587E+06 2.84126E-09 1.05024E-09
 -1       312-3.44564E+06-4.94541E+05-3.56387E+03-1.30565E+06 1.51203E-09 3.33046E-10
 -1       313-3.40123E+06-5.39225E+05-3.04097E+03-1.35674E+06 4.37066E-09 5.46515E-09
 -1       314-3.44555E+06-4.94607E+05-3.95955E+03-1.30572E+06-1.86060E-09 3.11411E-09
 -1       315-3.40267E+06-5.39147E+05-7.78847E+03-1.35552E+06-2.74486E-09-7.34599E-09
 -1       316-3.44399E+06-4.94828E+05-1.47809E+04-1.30669E+06-1.41654E-09 6.75755E-10
 -1       317-3.41089E+06-5.45177E+05-3.48871E+04-1.35145E+06 2.06455E-10 6.43558E-09
 -1       318-3.43700E+06-4.89975E+05-6.36071E+04-1.30904E+06-1.97406E-09-3.09228E-10
 -1       319-3.46792E+06-6.21290E+05-1.70076E+05-1.33487E+06-1.53022E-10-1.68802E-09
 -1       320-3.38814E+06-4.30862E+05-2.69596E+05-1.31842E+06 8.00355E-10 4.71482E-09
 -1       321-6.07169E+05-3.04859E+04 6.18797E+04 6.82932E+03 3.62434E-10 8.80391E-10
 -1       322-5.34970E+05 3.50644E+04 5.18500E+04-3.14579E+04 1.13126E-08 8.64384E-09
 -1       323-5.84140E+05-4.92529E+03 1.56846E+04 1.95728E+04-6.21060E-09 6.00267E-11
 -1       324-5.68109E+05 6.04632E+03 1.17881E+04-4.90052E+04-2.79493E-08-8.14634E-09
 -1       325-5.75165E+05-6.60155E+02 4.48315E+03 2.43906E+04 3.06173E-11 3.67777E-09
 -1       326-5.70198E+05 1.53918E+03 3.56559E+03-4.89406E+04 8.03234E-09-6.46907E-10
 -1       327-5.82049E+05-4.30428E+02-2.88070E+02 1.95080E+04-1.87119E-08 2.66687E-09
 -1       328-5.50662E+05 9.70312E+02 5.42643E+03-3.10984E+04 5.93002E-09 4.13347E-09
 -1       329-5.93584E+05-9.58299E+02-3.65257E+03 6.53450E+03-1.48839E-09-6.32497E-10
 -1       330-5.38430E+05 9.63564E+02 7.08783E+03-1.87300E+03 1.15801E-09-1.19255E-09
 -1       331-5.93582E+05-9.65550E+02-4.38458E+03-9.69870E+03-5.92490E-09-1.29262E-10
 -1       332-5.51019E+05 4.98384E+02 3.42185E+03 2.74066E+04 2.63399E-08 1.02702E-09
 -1       333-5.81672E+05 3.00708E+01-3.98291E+03-2.27329E+04 1.86710E-08 2.91425E-09
 -1       334-5.73087E+05-3.27144E+03-5.83510E+03 4.54787E+04 2.77698E-08-4.81543E-09
 -1       335-5.72643E+05 3.66965E+03-9.96983E+03-2.77960E+04-2.37656E-08-3.04181E-09
 -1       336 1.19695E+03-1.36922E+06-7.00753E+03-6.20174E+03-2.15056E-09-1.56342E-09
 -1       337-2.71958E+03-1.37210E+06-9.61413E+03-3.60853E+04-1.51954E-09-3.44778E-09
 -1       338 1.32238E+03-1.36907E+06-1.37085E+04-5.98265E+03-2.51293E-09-2.10434E-09
 -1       339-1.53477E+04-1.37966E+06-3.20275E+04-3.62959E+04-1.17871E-09 3.12230E-09
 -1       340 1.14088E+04-1.36174E+06-4.93835E+04-5.99830E+03-2.07183E-09 7.02835E-09
 -1       341-1.57855E+06-2.96410E+05-6.48310E+04-6.91023E+05-3.46790E-08 5.39148E-09
 -1       342-1.58867E+06-2.15221E+04 7.31823E+03-3.24035E+05-7.41924E-08-3.88286E-09
 -1       343-1.47118E+06-2.98432E+05-1.32506E+04-6.84074E+05 2.35000E-08 9.52559E-09
 -1       344-1.38199E+06-5.85803E+04 5.50063E+04-3.51949E+05 4.23581E-08-1.00727E-09
 -1       345-1.77809E+06-2.66471E+05-5.94536E+04-6.56785E+05 2.80852E-09-6.24368E-09
 -1       346-1.16491E+06-2.31170E+05 6.68015E+04-5.51502E+05-3.13910E-08-7.88418E-09
 -1       347-1.68607E+06-1.27977E+05-1.36443E+04-4.83233E+05-5.29844E-08 2.85456E-08
 -1       348-1.25720E+06-3.54701E+05 2.50943E+04-7.26020E+05 5.16238E-08 5.03175E-08
 -1       349-1.69560E+06-1.33176E+05-1.77172E+04-4.90210E+05 3.17682E-08 1.61963E-08
 -1       350-1.16417E+06-2.23012E+05 6.53299E+04-5.38490E+05-4.24809E-08-7.47241E-09
 -1       351-1.76880E+06-2.69917E+05-6.52575E+04-6.62391E+05 8.19455E-10 6.14727E-09
 -1       352-1.40704E+06-6.30189E+04 3.44188E+04-3.46306E+05 5.57463E-10 9.66429E-09
 -1       353-1.45605E+06-2.89950E+05-3.97488E+04-6.84642E+05 1.34696E-09 2.50475E-09
 -1       354-1.61524E+06-8.29807E+04-7.60495E+04-3.13692E+05 5.66547E-08 1.40572E-08
 -1       355-1.56692E+06-2.43788E+05-1.90178E+05-7.00544E+05 1.58907E-08-5.43514E-09
 -1       356-6.00225E+05 4.43924E+03-1.25682E+04-3.12773E+04-4.52417E-09-2.36923E-09
 -1       357-6.03084E+05-3.95525E+03-7.83555E+03 5.52167E+04-4.76218E-08-4.61228E-09
 -1       358-6.07147E+05 2.23293E+02-4.25903E+03-2.82979E+04-1.86365E-08-1.58639E-09
 -1       359-5.78575E+05 6.48975E+02 3.01437E+03 3.87913E+04 2.13704E-08-6.88419E-09
 -1       360-6.23485E+05-1.12624E+03-5.23656E+03-1.48173E+04 2.25486E-08-2.17398E-10
 -1       361-5.56770E+05 1.25906E+03 8.45174E+03 6.26175E+03 3.30676E-08-1.28360E-09
 -1       362-6.27759E+05-1.31390E+03-5.82641E+03 4.22669E+03-3.48905E-09-2.34773E-09
 -1       363-5.66615E+05 9.96034E+02 6.12052E+03-2.94785E+04 6.01210E-09 3.43479E-09
 -1       364-6.14198E+05-4.28782E+02-4.23465E+03 2.08905E+04 2.46175E-08 5.88659E-09
 -1       365-5.94144E+05-2.94928E+02-2.21779E+03-5.37908E+04-4.77587E-08 2.94295E-09
 -1       366-6.01747E+05 1.15435E+03-7.17197E+03 2.85548E+04 3.72919E-08 9.72614E-09
 -1       367-6.03202E+05-7.37057E+03-1.69574E+04-5.74985E+04 4.97096E-08 1.05342E-09
 -1       368-6.05460E+05 6.87996E+03-2.99807E+04 2.46060E+04 1.47920E-08 6.63385E-09
 -1       369-6.00356E+05-5.23273E+04-7.22754E+04-3.90226E+04 3.74240E-08 5.80621E-09
 -1       370-6.03263E+05 4.49943E+04-1.15732E+05 1.00546E+04 1.29976E-08 6.46105E-09
 -1       371-1.73395E+04-2.26571E+05 1.25659E+04-2.12279E+04 3.47627E-08-3.73802E-10
 -1       372 1.45854E+04-9.25301E+04 2.79584E+04 1.06847E+05-3.45926E-09-1.03682E-10
 -1       373 1.01046E+03-1.70903E+05-1.24955E+03-2.70596E+04-5.42877E-09 9.08813E-10
 -1       374-1.15036E+04-1.57755E+05-1.25610E+04 1.12879E+05-2.06505E-08 2.04437E-09
 -1       375 1.08717E+04-1.64318E+05-2.64114E+04-2.72264E+04-8.27640E-09 1.24965E-09
 -1       376-5.58692E+05-1.09776E+05-2.12853E+04-2.54796E+05 9.26757E-08-6.97946E-09
 -1       377-6.19061E+05-1.80604E+04-6.04708E+03-1.37903E+05 7.85546E-08 1.64788E-08
 -1       378-5.33039E+05-1.13532E+05-3.34403E+03-2.52543E+05-6.40346E-08 1.89889E-08
 -1       379-5.95932E+05-1.66813E+04 5.20974E+03-1.37713E+05-7.11257E-08-1.75760E-08
 -1       380-5.81122E+05-1.11656E+05-9.30547E+03-2.54405E+05-5.98220E-09 5.09112E-09
 -1       381-4.88597E+05-3.63121E+04 2.34534E+04-1.46652E+05 1.69073E-08 7.21445E-09
 -1       382-6.37102E+05-9.63020E+04-1.67254E+04-2.41018E+05 1.00067E-08 1.85469E-09
 -1       383-4.35950E+05-8.06147E+04 2.49723E+04-1.95685E+05 1.78861E-08 2.89396E-09
 -1       384-6.33340E+05-6.76954E+04-1.11319E+04-2.05233E+05-6.30962E-08 7.72241E-09
 -1       385-4.73824E+05-1.28062E+05 6.79484E+03-2.62362E+05-6.83376E-08 3.26327E-09
 -1       386-6.02466E+05-4.64604E+04-4.80355E+03-1.76765E+05 4.81555E-08 2.88626E-08
 -1       387-4.98353E+05-1.46741E+05-9.72101E+03-2.82761E+05 4.78865E-08 1.62599E-08
 -1       388-6.10215E+05-4.79797E+04-2.37310E+04-1.85807E+05 1.37633E-07 1.46147E-08
 -1       389-4.74674E+05-1.47941E+05-4.19737E+04-2.29888E+05 1.28722E-07 3.67800E-09
 -1       390-6.23284E+05-4.74478E+04-1.02088E+05-2.27588E+05 8.17090E-09-6.77392E-09
 -1       406 2.04721E+03 6.77647E+05 4.10137E+03-7.53274E+04-2.04454E-09-8.29459E-10
 -1       407 1.27173E+03 6.78346E+05 4.62477E+03-8.29075E+04 7.79437E-10-4.20823E-09
 -1       408 1.84577E+03 6.77510E+05 7.31663E+03-7.50903E+04-2.63208E-09-1.04774E-09
 -1       409 7.15450E+03 6.80287E+05 1.55150E+04-8.32105E+04 3.12866E-10 5.73391E-09
 -1       410 2.04720E+04 6.75495E+05 3.11699E+04-7.49938E+04-3.07591E-09 4.93719E-09
 -1       466 1.39327E+06-5.61194E+04 1.19906E+05 4.45430E+04-7.41238E-10-1.33950E-08
 -1       467 1.50482E+06 6.32724E+04 9.47781E+04-7.16609E+04-8.40544E-10 6.35919E-09
 -1       468 1.43794E+06-7.85905E+03 3.20906E+04 1.22818E+04-6.32099E-10-5.74983E-09
 -1       469 1.45289E+06 8.93676E+03 2.09603E+04-2.82795E+04 1.44996E-09-2.50088E-09
 -1       470 1.44395E+06-1.12041E+03 8.54669E+03 1.14761E+03 4.07084E-10 1.70076E-10
 -1       471 1.44594E+06 1.37807E+03 5.42300E+03-1.33680E+04 3.72457E-09-3.12639E-09
 -1       472 1.44474E+06-2.18402E+02 3.26049E+03-2.63017E+03-3.60657E-10 3.50536E-09
 -1       473 1.44524E+06 7.25971E+02 3.70428E+03-8.60365E+03-2.46669E-09 1.87487E-09
 -1       474 1.44463E+06-4.57715E+02 5.18281E+03-3.61677E+03-1.26494E-09 3.26963E-09
 -1       475 1.44663E+06 3.40359E+03 1.09668E+04-8.23368E+03 2.18136E-09 3.05840E-09
 -1       476 1.44334E+06-2.89141E+03 1.85820E+04-3.00010E+03 2.92862E-09 5.49062E-09
 -1       477 1.45578E+06 2.16725E+04 4.54823E+04-1.18184E+04-9.60142E-10-2.00907E-09
 -1       478 1.43547E+06-1.87012E+04 7.24187E+04-3.19289E+01-1.83093E-10 1.47702E-09
 -1       479 1.51220E+06 1.39287E+05 1.98064E+05-2.39966E+04 3.57102E-09-1.94996E-09
 -1       480 1.38698E+06-1.20320E+05 2.79432E+05 9.17698E+03 4.95277E-09-1.45519E-10
 -1       481-1.48773E+04 3.13296E+05 2.31010E+04-2.47578E+04-2.65572E-10-7.37600E-10
 -1       482 1.58479E+04 3.82899E+05 2.75921E+04 7.77499E+04-1.86446E-10 1.24001E-08
 -1       483-1.92959E+03 3.42016E+05 9.55920E+03-1.73553E+04-8.59472E-11 1.39494E-09
 -1       484 6.66327E+03 3.53742E+05 1.25191E+04 7.02419E+04-6.93774E-11-1.43149E-09
 -1       485-4.80933E+03 3.41131E+05 1.15182E+04-1.72328E+04 6.23004E-11-2.57330E-09
 -1       486-1.33542E+06-2.70959E+05-1.61734E+05-6.71394E+05-6.35919E-09-1.80153E-08
 -1       487-1.41517E+06 4.48244E+04-4.00473E+04-1.47598E+05 3.04817E-09 4.96875E-08
 -1       488-1.32655E+06-2.98867E+05-5.19675E+04-6.62304E+05-3.76542E-09-8.81300E-09
 -1       489-9.27350E+05 2.98905E+04 1.05779E+05-1.58371E+05 1.57279E-08-1.13255E-08
 -1       490-1.80561E+06-2.72631E+05-1.14063E+05-6.45252E+05 1.20599E-08 2.32194E-09
 -1       491-6.77058E+05-1.90077E+05 1.23789E+05-4.26821E+05-2.27642E-08 3.29337E-08
 -1       492-1.57507E+06-8.05710E+04-2.67394E+04-3.94112E+05 2.91948E-09-1.40788E-08
 -1       493-9.37992E+05-3.67810E+05 4.12886E+04-6.98611E+05-6.71218E-09 5.67013E-09
 -1       494-1.56427E+06-7.63121E+04-2.36368E+04-3.88296E+05 7.93716E-09 1.67765E-08
 -1       495-6.84808E+05-1.97721E+05 1.21302E+05-4.38228E+05 1.84577E-08-5.25024E-08
 -1       496-1.80929E+06-2.68674E+05-1.12950E+05-6.40168E+05-9.81618E-09-1.80316E-08
 -1       497-9.09048E+05 2.77167E+04 1.11173E+05-1.61200E+05 5.50790E-09-2.23768E-08
 -1       498-1.34053E+06-3.01235E+05-5.03714E+04-6.64056E+05 5.03064E-09-4.27262E-08
 -1       499-1.41051E+06 5.38540E+04-2.72320E+04-1.49315E+05-1.07302E-08-4.34047E-08
 -1       500-1.32611E+06-2.77593E+05-1.40101E+05-6.67944E+05-4.27499E-08 3.52957E-08
 -1       501-9.31811E+05-3.14217E+04 6.97856E+04 1.78978E+03-1.28966E-09-1.03682E-09
 -1       502-8.83914E+05 3.63982E+04 5.24676E+04-1.53737E+04-2.62054E-09-5.02041E-10
 -1       503-9.15687E+05-4.89306E+03 1.78830E+04 1.45780E+04-4.40400E-09 5.31963E-09
 -1       504-9.05406E+05 6.05672E+03 1.21140E+04-3.28237E+04-3.64759E-09-5.04770E-10
 -1       505-9.10607E+05-6.03673E+02 4.79639E+03 1.92440E+04 7.62010E-09 9.52446E-09
 -1       506-9.06922E+05 1.24905E+03 3.38745E+03-3.12738E+04 1.28058E-08-2.21576E-09
 -1       507-9.14325E+05-3.33760E+02 3.95937E+02 1.30261E+04 4.40980E-09 7.47650E-09
 -1       508-8.99797E+05 5.50494E+02 2.72556E+03-1.14673E+04 2.61991E-10-1.32860E-09
 -1       509-9.17465E+05-4.30795E+02-1.24621E+03-5.64878E+02 3.25372E-10-2.32843E-09
 -1       510-9.00511E+05 4.26951E+02 1.93019E+03 1.51913E+04 4.72767E-10-7.82956E-09
 -1       511-9.13468E+05 8.68461E+00-9.50697E+02-1.36294E+04-7.95501E-09-3.96119E-09
 -1       512-9.08224E+05-5.29122E+01-4.73022E+02 3.32295E+04-1.07609E-08 1.58150E-09
 -1       513-9.10021E+05 5.74755E+02-1.63812E+03-1.86064E+04-6.72678E-09-3.82818E-09
 -1       514-9.08954E+05-2.65788E+03-4.03474E+03 3.22727E+04-6.97304E-09 3.54225E-09
 -1       515-9.12898E+05 2.39451E+03-7.60423E+03-1.26711E+04-6.14318E-09-2.00635E-09
 -1       516-7.77027E+04 2.84211E+05 1.82376E+05-1.55000E+04-7.34872E-10 2.19040E-09
 -1       517 9.23140E+04 3.69254E+05 1.34684E+05 6.39202E+04-1.39698E-09 1.72986E-09
 -1       518-1.45489E+04 3.10401E+05 5.70360E+04-1.63467E+04-1.65528E-10 4.69663E-09
 -1       519 3.74914E+04 3.71007E+05 6.63683E+04 7.21121E+04-3.57704E-09 2.23508E-10
 -1       520-2.39781E+04 2.83874E+05 4.89095E+04-2.37130E+04-1.58980E-09-1.50144E-08
 -1       521-4.82378E+06-6.17647E+05-3.36694E+05-1.86428E+06 8.84029E-10-2.44472E-09
 -1       522-4.93319E+06-8.46518E+05-2.12517E+05-1.87408E+06 7.14863E-10-4.54747E-10
 -1       523-4.88483E+06-6.91605E+05-7.93581E+04-1.85235E+06-8.45091E-10-2.23736E-09
 -1       524-4.86155E+06-7.51436E+05-4.35676E+04-1.89479E+06-4.21096E-10 2.03272E-09
 -1       525-4.89354E+06-6.97714E+05-1.84374E+04-1.84936E+06 5.63432E-10 1.95996E-09
 -1       526-4.85123E+06-7.43808E+05-9.77115E+03-1.89964E+06 2.34377E-09 1.22145E-09
 -1       527-4.89530E+06-6.97612E+05-5.03888E+03-1.84828E+06 2.10457E-09 3.14049E-09
 -1       528-4.84978E+06-7.43500E+05-4.03573E+03-1.90059E+06 7.80801E-10 3.73325E-09
 -1       529-4.89507E+06-6.97855E+05-4.93947E+03-1.84853E+06 3.03521E-09 4.91991E-09
 -1       530-4.85196E+06-7.42924E+05-9.47147E+03-1.89857E+06-3.09115E-09-1.39607E-09
 -1       531-4.89289E+06-6.98444E+05-1.78557E+04-1.85008E+06-6.93944E-10-2.27374E-10
 -1       532-4.86276E+06-7.49407E+05-4.21114E+04-1.89279E+06 1.01136E-09-2.35013E-09
 -1       533-4.88401E+06-6.93010E+05-7.67350E+04-1.85348E+06 1.86947E-09 5.34783E-10
 -1       534-4.93285E+06-8.40425E+05-2.05396E+05-1.87175E+06 2.38470E-09-4.08909E-09
 -1       535-4.82458E+06-6.21966E+05-3.25467E+05-1.86548E+06-8.69477E-10 6.69388E-10
 -1       536 5.56682E+04-1.93743E+04 8.27181E+04-1.17966E+04 4.96584E-10 2.66300E-09
 -1       537 8.61696E+04 2.57218E+04 5.30577E+04-4.61009E+04-3.75803E-09 1.59980E-09
 -1       538 6.80809E+04-2.12826E+03 2.13846E+04-1.16719E+04-1.35515E-10 1.61162E-09
 -1       539 7.18919E+04 2.41603E+03 1.19726E+04-4.61978E+04 1.80989E-09-1.96724E-09
 -1       540 6.94363E+04-2.91531E+02 5.37584E+03-1.16871E+04-5.93900E-10-5.71208E-09
 -1       541 7.00295E+04 2.11130E+02 2.84666E+03-4.61617E+04 1.07775E-10-3.23189E-09
 -1       542 6.95798E+04-4.63434E+01 1.31748E+03-1.17088E+04-1.11413E-10-6.31076E-10
 -1       543 6.96503E+04 5.11959E+01 6.49268E+02-4.61287E+04 9.19499E-10-4.72772E-09
 -1       544 6.95891E+04 8.42039E+00 2.37077E+02-1.17204E+04 2.95745E-09-1.45974E-09
 -1       545 6.95347E+04 3.99090E+01-3.70046E+01-4.61153E+04 3.29692E-09 3.10797E-09
 -1       546 6.96052E+04 2.95247E+01-3.16921E+02-1.17221E+04 2.53726E-09-5.58884E-10
 -1       547 6.94426E+04-1.46588E+02-8.43052E+02-4.61157E+04 1.27329E-10 3.52566E-09
 -1       548 6.97269E+04 1.36697E+02-1.58261E+03-1.17200E+04-4.20641E-10 3.14560E-09
 -1       549 6.85431E+04-1.93477E+03-3.92583E+03-4.60443E+04 3.43562E-10 1.10140E-09
 -1       550 7.06866E+04 1.35366E+03-6.18811E+03-1.17932E+04-7.74889E-10-4.58567E-09
 -1       551 2.38858E+04-4.55621E+05 4.55921E+04-6.83798E+05 4.55475E-09 1.13869E-09
 -1       552 1.40779E+04-4.49250E+05 3.58730E+04-8.00272E+05 4.23461E-09 3.84352E-09
 -1       553 9.89168E+03-4.55919E+05 4.14017E+04-6.82644E+05 5.82077E-09 3.12230E-09
 -1       554 3.00248E+04-4.40720E+05 7.75044E+04-8.00449E+05 4.89672E-09 2.05000E-09
 -1       555 7.51757E+04-4.65738E+05 1.46688E+05-6.83386E+05 5.08589E-09-4.67844E-09
 -1       556-3.50086E+05-1.79460E+05 2.82060E+04-3.21142E+05 2.84490E-09-1.61526E-09
 -1       557-3.23690E+05-2.08061E+05 1.39186E+04-3.41853E+05 2.12458E-09 2.11321E-09
 -1       558-3.51300E+05-1.88595E+05 5.78854E+03-3.15851E+05-1.25146E-09 8.00355E-11
 -1       559-3.26973E+05-2.12492E+05 2.86728E+03-3.43309E+05 1.25146E-09 3.70346E-09
 -1       560-3.52139E+05-1.88392E+05 1.24073E+03-3.16118E+05 1.60071E-10-3.51974E-10
 -1       561-3.28016E+05-2.12359E+05 5.99120E+02-3.44054E+05 1.61708E-09-2.08530E-09
 -1       562-3.52756E+05-1.88007E+05 1.91640E+02-3.16521E+05 5.18776E-09 9.02946E-09
 -1       563-3.28607E+05-2.12105E+05-3.28849E+01-3.44473E+05 1.40426E-09-5.84123E-09
 -1       564-3.53098E+05-1.87781E+05-3.21153E+02-3.16756E+05 1.29148E-09-1.88629E-09
 -1       565-3.28905E+05-2.11987E+05-7.99529E+02-3.44664E+05 8.70386E-10-1.86446E-09
 -1       566-3.53133E+05-1.87706E+05-1.71764E+03-3.16807E+05 4.70482E-09-2.60661E-09
 -1       567-3.29174E+05-2.12186E+05-3.80307E+03-3.44605E+05 7.23230E-09 8.47649E-10
 -1       568-3.52723E+05-1.88366E+05-7.84116E+03-3.16427E+05 2.81580E-09-9.85892E-10
 -1       569-3.33179E+05-2.17085E+05-1.84913E+04-3.43234E+05 1.12777E-10 1.66619E-09
 -1       570-3.50852E+05-2.02938E+05-3.77907E+04-3.10118E+05-1.85537E-09-8.48695E-09
 -1       571 4.35840E+05 2.09275E+04 3.22001E+04-1.13334E+05-3.09228E-10 3.26645E-09
 -1       572 4.40734E+05 7.11078E+03 1.58212E+04-1.24944E+05-1.38243E-09-4.87944E-09
 -1       573 4.37756E+05 1.56804E+03 7.03929E+03-1.13017E+05-4.00178E-11-6.04814E-10
 -1       574 4.38309E+05 4.82620E+02 3.53721E+03-1.25280E+05 1.02455E-09-9.24956E-10
 -1       575 4.37927E+05 3.57723E+01 1.67420E+03-1.12979E+05 7.82620E-10 1.97451E-09
 -1       576 4.37973E+05-1.22239E-01 8.57461E+02-1.25323E+05 7.21229E-10-2.55113E-09
 -1       577 4.37954E+05-3.04446E+01 4.29398E+02-1.12974E+05-2.69665E-10-1.31331E-09
 -1       578 4.37960E+05-2.98129E+01 2.46925E+02-1.25329E+05-1.40017E-09-1.78989E-09
 -1       579 4.38021E+05-5.56390E+01 1.71865E+02-1.12973E+05-2.37014E-09 1.09139E-10
 -1       580 4.38068E+05-7.90579E+01 1.96478E+02-1.25325E+05-1.68802E-09-1.86901E-09
 -1       581 4.38150E+05-1.16881E+02 3.02105E+02-1.12978E+05-2.40107E-09-4.33374E-09
 -1       582 4.38300E+05-9.25152E+01 6.04890E+02-1.25260E+05-1.10595E-09 1.29148E-10
 -1       583 4.38310E+05 2.98154E+01 1.17053E+03-1.13038E+05-9.85892E-09 2.58024E-09
 -1       584 4.38945E+05 8.96095E+02 2.63374E+03-1.24738E+05-2.13040E-08 3.30147E-10
 -1       585 4.38210E+05 3.15240E+03 5.33408E+03-1.13507E+05-7.98173E-09 5.49699E-09
 -1       586 4.00831E+03 1.86833E+05 6.81384E+03-2.81284E+05 5.85715E-10 3.32693E-09
 -1       587 2.37631E+03 1.87850E+05 6.45751E+03-3.10942E+05 8.40373E-10-5.64569E-09
 -1       588 2.68103E+03 1.86614E+05 9.10327E+03-2.80924E+05 7.31234E-10 7.71661E-09
 -1       589 8.93577E+03 1.90017E+05 1.86024E+04-3.11030E+05 1.00408E-09 1.51958E-08
 -1       590 2.45559E+04 1.84439E+05 3.70028E+04-2.81179E+05 8.91305E-10 7.05586E-09
 -1       591-2.01087E+05-6.95056E+04-3.86144E+04-1.03935E+05 3.93811E-10-2.38651E-09
 -1       592-2.02305E+05-6.46663E+04-1.89286E+04-1.15379E+05 6.05723E-10-3.09092E-09
 -1       593-2.02212E+05-5.51386E+04-8.03065E+03-1.10507E+05-1.00545E-09 6.80666E-09
 -1       594-1.98200E+05-5.94307E+04-3.92766E+03-1.16097E+05-1.03864E-09 6.28651E-09
 -1       595-2.02406E+05-5.45988E+04-1.80845E+03-1.10808E+05-1.15642E-09-1.51931E-09
 -1       596-1.97895E+05-5.92200E+04-9.18018E+02-1.16077E+05 5.85942E-10-3.49132E-09
 -1       597-2.02444E+05-5.46235E+04-5.02087E+02-1.10812E+05-5.63887E-10-1.19869E-08
 -1       598-1.97863E+05-5.92230E+04-4.06026E+02-1.16063E+05 6.61657E-10-1.11686E-09
 -1       599-2.02436E+05-5.46264E+04-5.21364E+02-1.10808E+05 2.25782E-10 2.80124E-10
 -1       600-1.97885E+05-5.92256E+04-9.68780E+02-1.16067E+05-1.70758E-10 1.09139E-09
 -1       601-2.02381E+05-5.46065E+04-1.91590E+03-1.10796E+05-5.21231E-09-6.19912E-09
 -1       602-1.98199E+05-5.94508E+04-4.16512E+03-1.16074E+05-2.20825E-09-1.03773E-09
 -1       603-2.02161E+05-5.51905E+04-8.51777E+03-1.10474E+05-5.13501E-09-1.52231E-08
 -1       604-2.02575E+05-6.49699E+04-2.00740E+04-1.15260E+05-2.05910E-09-7.01993E-09
 -1       605-2.00923E+05-7.04551E+04-4.09504E+04-1.03531E+05-1.64982E-09-7.91806E-09
 -1       606 1.40096E+05-1.74122E+04-2.66988E+04 4.04045E+04-8.67840E-09 2.76941E-09
 -1       607 1.35937E+05-5.91454E+03-1.31105E+04 4.41069E+04-1.97269E-09-2.96450E-09
 -1       608 1.38345E+05-1.29724E+03-5.83504E+03 4.01259E+04 6.22276E-09 2.17710E-09
 -1       609 1.37780E+05-3.41493E+02-2.92403E+03 4.44029E+04-2.30102E-09 1.12504E-09
 -1       610 1.38087E+05 3.97182E+01-1.38131E+03 4.00905E+04-8.23638E-09-9.32687E-10
 -1       611 1.37964E+05 1.08489E+02-6.95029E+02 4.44397E+04-1.57315E-08-2.83762E-09
 -1       612 1.38013E+05 1.23416E+02-3.31615E+02 4.00866E+04-7.87804E-09-9.10404E-10
 -1       613 1.37958E+05 1.41540E+02-1.53685E+02 4.44438E+04-1.04656E-08 4.32010E-11
 -1       614 1.37973E+05 1.30793E+02-4.85172E+01 4.00858E+04-1.18416E-09 3.25736E-09
 -1       615 1.37935E+05 1.54025E+02 3.32378E+01 4.44438E+04 8.15453E-09 7.16227E-09
 -1       616 1.37943E+05 1.46826E+02 1.28664E+02 4.00864E+04-5.01950E-09 8.14907E-10
 -1       617 1.37939E+05 2.10043E+02 3.07486E+02 4.44421E+04 1.52977E-09-4.52928E-10
 -1       618 1.37903E+05 2.97222E+02 6.28550E+02 4.00870E+04-3.12866E-10 5.22050E-09
 -1       619 1.38133E+05 8.19179E+02 1.42229E+03 4.44359E+04 7.08496E-10-3.56249E-09
 -1       620 1.37711E+05 2.05083E+03 2.89961E+03 4.00877E+04 1.47259E-09-3.29101E-09
 -1       621 3.37124E+03 4.53249E+05 8.17369E+03-3.71549E+04 3.89718E-09-4.03861E-09
 -1       622 1.31967E+03 4.54795E+05 6.77372E+03-4.36503E+04 1.31604E-09-4.72301E-09
 -1       623 7.93388E+02 4.53600E+05 8.34884E+03-3.72151E+04 3.25917E-09-2.51748E-09
 -1       624 4.79679E+03 4.56877E+05 1.60807E+04-4.34244E+04 1.62527E-09-1.34787E-09
 -1       625 1.46747E+04 4.51254E+05 3.07489E+04-3.73741E+04 3.41606E-09 4.03816E-10
 -1       626 2.01388E+05 6.53820E+04-1.15752E+04 1.35915E+05-6.25278E-09-4.12365E-09
 -1       627 1.95933E+05 7.36448E+04-5.48954E+03 1.38439E+05-6.11362E-09-3.22802E-09
 -1       628 2.01607E+05 7.10738E+04-2.30818E+03 1.33122E+05 5.48243E-09-4.71414E-09
 -1       629 1.96759E+05 7.60006E+04-1.10657E+03 1.38209E+05 2.25400E-08 7.41986E-09
 -1       630 2.01554E+05 7.14778E+04-4.89023E+02 1.32879E+05 8.20728E-09-5.85453E-09
 -1       631 1.96792E+05 7.61839E+04-2.18069E+02 1.38190E+05-6.89033E-09-4.97323E-09
 -1       632 2.01509E+05 7.15017E+04-6.09051E+01 1.32845E+05-8.60655E-09-1.04185E-08
 -1       633 1.96776E+05 7.61997E+04 5.51764E+01 1.38179E+05-1.67984E-09 5.42786E-09
 -1       634 2.01480E+05 7.14971E+04 1.98631E+02 1.32834E+05 2.86718E-09-4.78849E-10
 -1       635 1.96792E+05 7.62081E+04 4.73153E+02 1.38179E+05-5.30827E-09-5.14365E-09
 -1       636 2.01456E+05 7.15189E+04 9.91179E+02 1.32817E+05-1.52730E-08-2.05960E-08
 -1       637 1.97030E+05 7.64731E+04 2.21790E+03 1.38141E+05-1.08372E-08 4.05998E-09
 -1       638 2.01410E+05 7.23189E+04 4.59691E+03 1.32469E+05-2.22326E-09 1.70439E-09
 -1       639 1.99384E+05 8.05493E+04 1.09387E+04 1.37149E+05-1.87274E-08-9.75888E-10
 -1       640 2.01530E+05 8.41134E+04 2.30537E+04 1.27559E+05-6.55109E-09 2.57205E-09
 -1       641 6.81896E+03 4.02649E+03-9.37653E+03-2.30006E+02-1.02072E-08-3.99041E-09
 -1       642 2.81284E+03-4.66017E+03-6.61135E+03 1.01615E+03 2.24445E-09-5.04087E-09
 -1       643 5.26523E+03 6.26940E+02-2.41843E+03-2.22953E+02-2.14987E-08-9.77252E-10
 -1       644 4.61603E+03-7.20759E+02-1.49660E+03 1.00582E+03 7.38268E-09 5.25301E-09
 -1       645 5.01448E+03 9.51007E+01-5.78473E+02-2.19685E+02-8.36750E-09 1.05570E-09
 -1       646 4.91119E+03-9.68904E+01-2.71740E+02 1.00102E+03-4.69377E-07-2.08507E-09
 -1       647 4.96939E+03 4.58162E+00 4.57358E+00-2.18162E+02-6.24375E-05 1.74155E-07
 -1       648 4.99440E+03 5.91555E+01 2.66644E+02 9.99464E+02-1.24072E-04 3.59255E-07
 -1       649 4.93105E+03-6.05906E+01 6.00715E+02-2.18132E+02-6.24338E-05 1.77682E-07
 -1       650 5.21576E+03 4.65948E+02 1.45038E+03 1.00044E+03-4.47496E-07-1.55936E-09
 -1       651 4.74825E+03-4.01786E+02 2.52676E+03-2.19141E+02-1.82533E-08-3.86262E-09
 -1       652 6.46420E+03 2.99276E+03 6.24363E+03 1.00206E+03 1.32123E-08-1.55853E-09
 -1       653 3.68339E+03-2.58357E+03 9.96027E+03-2.19758E+02-8.86799E-09-5.23778E-09
 -1       654 1.39739E+04 1.91777E+04 2.72143E+04 9.95536E+02-3.15741E-09-3.77440E-10
 -1       655-2.75823E+03-1.65573E+04 3.85040E+04-2.12666E+02 4.90869E-09-2.95404E-09
 -1       656 1.36623E+04-5.23450E+05-6.16684E+04 1.48267E+04 1.55414E-08-1.72804E-09
 -1       657-2.03413E+04-5.45846E+05-4.49352E+04 5.55878E+04 9.69726E-09 1.38971E-09
 -1       658 2.61045E+03-5.31464E+05-2.85890E+04 1.46728E+04 1.16949E-08 2.48497E-09
 -1       659-1.85994E+04-5.44884E+05-4.18846E+04 5.56982E+04 1.08903E-08 4.32196E-09
 -1       660 1.23112E+04-5.24494E+05-5.58817E+04 1.47184E+04 1.19217E-08-4.19868E-09
 -1       661 5.09437E+05 6.55356E+04 4.18083E+04 1.99783E+05 1.83536E-09-2.51021E-10
 -1       662 5.19136E+05 9.78700E+04 2.63894E+04 2.05588E+05-4.86486E-09 6.56155E-09
 -1       663 5.16609E+05 7.51089E+04 9.87333E+03 1.98791E+05 1.45224E-09-1.59389E-09
 -1       664 5.10895E+05 8.54310E+04 5.43941E+03 2.07294E+05-1.67397E-08-1.60435E-09
 -1       665 5.17397E+05 7.61728E+04 2.31586E+03 1.98745E+05-1.39554E-08-1.03807E-09
 -1       666 5.09989E+05 8.40839E+04 1.25923E+03 2.07374E+05-1.37522E-08-5.59908E-09
 -1       667 5.17477E+05 7.63043E+04 7.03865E+02 1.98761E+05 8.47916E-09 3.08355E-09
 -1       668 5.09911E+05 8.39529E+04 6.62875E+02 2.07361E+05-1.53666E-08-4.62404E-09
 -1       669 5.17469E+05 7.62959E+04 9.30235E+02 1.98760E+05-1.07036E-09-2.11418E-09
 -1       670 5.10065E+05 8.41724E+04 1.88658E+03 2.07376E+05 2.34329E-08-1.07940E-09
 -1       671 5.17331E+05 7.60976E+04 3.58503E+03 1.98744E+05 7.28835E-09-4.43652E-09
 -1       672 5.11509E+05 8.62578E+04 8.49221E+03 2.07217E+05 7.13953E-09 1.41290E-09
 -1       673 5.16075E+05 7.44522E+04 1.54406E+04 1.98834E+05 8.57156E-09-4.26553E-09
 -1       674 5.24431E+05 1.05689E+05 4.12869E+04 2.04502E+05-1.04452E-08-6.67023E-09
 -1       675 5.04835E+05 5.94954E+04 6.54223E+04 2.00403E+05-1.04728E-08 4.60204E-09
 -1       676 1.37697E+03-4.91303E+05-7.16803E+03 7.89324E+02 8.75934E-09-2.64592E-09
 -1       677-2.71322E+03-4.94041E+05-7.75337E+03 3.64996E+02 5.08737E-09 5.24102E-09
 -1       678 8.49865E+02-4.91632E+05-9.18214E+03 7.87645E+02 1.54182E-08-5.47708E-10
 -1       679-9.69322E+03-4.98190E+05-2.01329E+04 3.64189E+02 1.19467E-08-2.22883E-10
 -1       680 7.00120E+03-4.87158E+05-3.05820E+04 7.87603E+02 1.59434E-08-7.41039E-10
 -1       681 6.38453E+05-1.64603E+04 3.66917E+04 7.75863E+03 2.41243E-10 1.42245E-09
 -1       682 6.62200E+05 1.89223E+04 2.73188E+04-2.30670E+04 8.77151E-10 5.94810E-10
 -1       683 6.47404E+05-2.49141E+03 9.57158E+03 2.05560E+03 3.18039E-10 2.21462E-09
 -1       684 6.51443E+05 2.91227E+03 6.24947E+03-1.48789E+04-8.94801E-10 1.33525E-09
 -1       685 6.49041E+05-3.64407E+02 2.53404E+03-4.29417E+02 3.17769E-10 3.61013E-09
 -1       686 6.49517E+05 4.93553E+02 1.59571E+03-1.18627E+04 5.45555E-11 2.83853E-09
 -1       687 6.49292E+05-5.03482E+01 9.41190E+02-9.60492E+02-3.03103E-10 2.95928E-09
 -1       688 6.49503E+05 1.92906E+02 1.04238E+03-1.24928E+04 5.86255E-10 4.84264E-09
 -1       689 6.49062E+05-6.90641E+01 1.37255E+03 2.00708E+02-1.55384E-09 2.59365E-09
 -1       690 6.51123E+05 7.11322E+02 3.15700E+03-1.70758E+04 6.88942E-11 3.00361E-09
 -1       691 6.47742E+05-6.14681E+02 4.76933E+03 3.62234E+03 7.77789E-10-1.11140E-09
 -1       692 6.58950E+05 5.24167E+03 1.33473E+04-2.78495E+04 5.54553E-09 2.59161E-09
 -1       693 6.41523E+05-4.78216E+03 1.83808E+04 1.09755E+04-1.52363E-09-3.40606E-09
 -1       694 6.96532E+05 3.81826E+04 5.88520E+04-5.02645E+04-9.12087E-09-2.62662E-09
 -1       695 6.11297E+05-3.42428E+04 7.00413E+04 2.60560E+04-1.04856E-08-1.26493E-08
 -1       696-1.36228E+04 5.82331E+05 3.10170E+04-3.68474E+03 1.60071E-10-3.04988E-09
 -1       697 1.44289E+04 5.95896E+05 1.95845E+04 4.75174E+03 2.01908E-10-1.61049E-09
 -1       698-7.90051E+02 5.88468E+05 3.04185E+03-2.31634E+03-2.02817E-10 1.11839E-09
 -1       699-7.59454E+03 5.85440E+05-9.24896E+03 2.87306E+03-3.83807E-10 3.97213E-09
 -1       700 8.36850E+03 5.92786E+05-1.85109E+04-1.80612E+03-2.06455E-10 1.43951E-09
 -1       701-5.95552E+05-7.22646E+04-8.33657E+04-2.53846E+05-2.16096E-09-1.24201E-08
 -1       702-6.20712E+05-7.53124E+04-4.44524E+04-1.63214E+05-4.02542E-09-6.27233E-09
 -1       703-5.71578E+05-1.04026E+05-1.85824E+04-2.53403E+05-3.27236E-09 6.38465E-09
 -1       704-6.42458E+05-3.87878E+04-9.66919E+03-1.65337E+05-9.22853E-09-1.11685E-08
 -1       705-5.74964E+05-1.07884E+05-5.07373E+03-2.52683E+05 8.79902E-09 9.13087E-09
 -1       706-5.98586E+05-4.19661E+04 5.25801E+03-1.69711E+05 7.87054E-10-1.48992E-08
 -1       707-6.14196E+05-1.01760E+05-8.32590E+03-2.48023E+05 1.64762E-08-3.77577E-09
 -1       708-5.33184E+05-6.65471E+04 1.43486E+04-1.92325E+05 6.61328E-09 5.65706E-10
 -1       709-6.38829E+05-8.44456E+04-9.77641E+03-2.28919E+05-6.66978E-09-3.82192E-09
 -1       710-5.19912E+05-1.03965E+05 8.39984E+03-2.38034E+05 4.05623E-09 1.88348E-09
 -1       711-6.28325E+05-6.37144E+04-7.00406E+03-2.03024E+05-9.20409E-10 3.15426E-08
 -1       712-5.43002E+05-1.34284E+05-9.20842E+03-2.73764E+05 3.73223E-09 2.90811E-08
 -1       713-6.17530E+05-5.27989E+04-1.81806E+04-1.94486E+05-6.08225E-10-2.35677E-08
 -1       714-5.54615E+05-1.59210E+05-4.92147E+04-2.59930E+05-8.21046E-09-2.82953E-08
 -1       715-6.16275E+05-3.91721E+04-8.37319E+04-2.16524E+05 7.42966E-09 2.21553E-09
 -1       716 3.62971E+05-2.44118E+04 4.79686E+04 1.83233E+04 1.75478E-08-4.65661E-09
 -1       717 4.34804E+05 2.70049E+04 4.26907E+04-4.05729E+04 6.99595E-09-8.83074E-09
 -1       718 3.85927E+05-3.43690E+03 1.23237E+04 9.21175E+03-3.12411E-10-6.73026E-10
 -1       719 4.04820E+05 3.66036E+03 1.01729E+04-2.63721E+04-1.12391E-09-3.42141E-09
 -1       720 3.91949E+05-4.29523E+02 3.29835E+03 4.10376E+03 3.93368E-09 8.83801E-10
 -1       721 3.96749E+05 5.29252E+02 2.83596E+03-1.85830E+04 5.75051E-09 2.14524E-09
 -1       722 3.93652E+05-7.63432E+01 1.62614E+03 1.42120E+03 9.27659E-09 3.23522E-09
 -1       723 3.94644E+05 4.77357E+02 2.34390E+03-1.48808E+04 1.30308E-09 5.29604E-09
 -1       724 3.93942E+05-3.01609E+02 3.52185E+03 4.02029E+02 6.29095E-09 5.29792E-09
 -1       725 3.95380E+05 2.45587E+03 7.69319E+03-1.42124E+04 5.89730E-09 4.37649E-09
 -1       726 3.92897E+05-2.04059E+03 1.31025E+04 7.52966E+02 6.96383E-09 1.89721E-09
 -1       727 4.02799E+05 1.54341E+04 3.23968E+04-1.63958E+04 8.75752E-09 3.95221E-09
 -1       728 3.86578E+05-1.32967E+04 5.11315E+04 2.58517E+03 4.09955E-09 1.64800E-09
 -1       729 4.45310E+05 9.90573E+04 1.41125E+05-2.23614E+04 2.50714E-09 2.32831E-10
 -1       730 3.50621E+05-8.56340E+04 1.97540E+05 6.71770E+03 4.91366E-09-2.02272E-09
 -1       731-1.93818E+04 1.98604E+05 3.19426E+04-1.56736E+04-7.01039E-09-6.48151E-09
 -1       732 2.08425E+04 2.85758E+05 3.50897E+04 4.48718E+04 3.54885E-09 2.43290E-10
 -1       733-2.59539E+03 2.23528E+05 7.15777E+03-9.12581E+03-1.62163E-09-8.20592E-10
 -1       734 2.09036E+03 2.50610E+05 7.35171E+03 3.44298E+04 1.50203E-09-9.11541E-09
 -1       735 3.17639E+02 2.32331E+05-5.30251E+02-5.20741E+03 1.48634E-09-6.00642E-09
 -1       736-1.03748E+06-1.69864E+05-8.98589E+04-4.81168E+05 2.09839E-08-6.26824E-09
 -1       737-1.18668E+06-8.79817E+04-5.06677E+04-2.77396E+05 2.81846E-08-9.28867E-09
 -1       738-1.11770E+06-1.95400E+05-3.23225E+04-4.75303E+05 1.28817E-08 1.30967E-08
 -1       739-9.97574E+05-1.00792E+05 2.09205E+04-3.21550E+05 5.70992E-09-2.61480E-10
 -1       740-1.22158E+06-1.61284E+05-2.82767E+04-4.32972E+05 6.91125E-09 1.57906E-08
 -1       741-9.39624E+05-1.92580E+05 2.27558E+04-4.41489E+05 2.10277E-08 4.17256E-08
 -1       742-1.17725E+06-1.02229E+05-4.45784E+03-3.56833E+05 1.07657E-08-2.17630E-08
 -1       743-9.80986E+05-2.43499E+05 6.46125E+03-5.14332E+05 2.60455E-09 2.81538E-08
 -1       744-1.18409E+06-1.07008E+05-6.62481E+03-3.63065E+05-8.10503E-08-2.83630E-08
 -1       745-9.35744E+05-1.81581E+05 2.58450E+04-4.26829E+05-4.98658E-08-6.69974E-09
 -1       746-1.21801E+06-1.68032E+05-2.84192E+04-4.40914E+05-1.37175E-08 4.62023E-10
 -1       747-1.01670E+06-9.18187E+04 1.99788E+04-3.13425E+05 7.53744E-11-3.60524E-09
 -1       748-1.10258E+06-1.97240E+05-2.76252E+04-4.75824E+05 1.40133E-08 2.42617E-08
 -1       749-1.19294E+06-8.22769E+04-4.62298E+04-2.77667E+05 5.44605E-09 3.81269E-08
 -1       750-1.04662E+06-1.73471E+05-8.28988E+04-4.80627E+05 5.40058E-09 2.87109E-08
 -1       751 3.88125E+06-2.21161E+05 5.16097E+05 1.82071E+04-2.77182E-08 1.30967E-09
 -1       752 4.10608E+06 2.56183E+05 3.64511E+05-2.04155E+04-4.85899E-09-1.47702E-09
 -1       753 3.96841E+06-3.44677E+04 1.33794E+05 2.76632E+03-7.84070E-10-1.74623E-10
 -1       754 4.00505E+06 3.99058E+04 8.39638E+04-2.76796E+03-5.90571E-09 4.07999E-09
 -1       755 3.98264E+06-5.36615E+03 3.44883E+04 5.63906E+02-2.04473E-09 2.60115E-09
 -1       756 3.98865E+06 6.29000E+03 2.05815E+04-2.45382E+02-1.97596E-09 1.08230E-10
 -1       757 3.98499E+06-9.14901E+02 1.01533E+04 2.43805E+02-2.11708E-09-1.12323E-10
 -1       758 3.98622E+06 1.62896E+03 8.11682E+03 1.14126E+02-2.73495E-09 1.47898E-09
 -1       759 3.98511E+06-7.12470E+02 8.28051E+03 2.04395E+02 1.25181E-10 2.33217E-09
 -1       760 3.98770E+06 4.54152E+03 1.51827E+04 1.08563E+02 7.98792E-10 4.21005E-09
 -1       761 3.98348E+06-3.82273E+03 2.47465E+04 2.49367E+02 1.16507E-09 1.50794E-09
 -1       762 3.99930E+06 2.83650E+04 5.97414E+04-2.90612E+02 1.01865E-08 2.29920E-09
 -1       763 3.97339E+06-2.44921E+04 9.50152E+04 6.03557E+02 9.23964E-09 1.16052E-09
 -1       764 4.07021E+06 1.81833E+05 2.58595E+05-3.11702E+03 2.39135E-09 5.06407E-09
 -1       765 3.91219E+06-1.56957E+05 3.66255E+05 3.07523E+03-3.36460E-09-5.96629E-10
 -1       766-8.81968E+04 3.90812E+05 2.03759E+05-2.42425E+04 4.27826E-09 3.02862E-09
 -1       767 1.05320E+05 4.98214E+05 1.54193E+05 1.01044E+05 9.67702E-10 2.36472E-09
 -1       768-1.67048E+04 4.28887E+05 6.79803E+04-2.19941E+04 4.93492E-09-2.19984E-09
 -1       769 4.99069E+04 5.06555E+05 8.58527E+04 1.10122E+05 4.56851E-09 5.57577E-09
 -1       770-3.41094E+04 3.84240E+05 6.62012E+04-3.33362E+04-2.84381E-08 5.46970E-09
 -1       771-2.22156E+06-4.48565E+05-7.87520E+04-9.58419E+05-4.65661E-10-8.14907E-10
 -1       772-2.21669E+06-4.45517E+05-3.85317E+04-9.89610E+05-2.93949E-09-1.28784E-09
 -1       773-2.22492E+06-4.18594E+05-1.64235E+04-9.71578E+05-1.53523E-09-1.36424E-09
 -1       774-2.20840E+06-4.35316E+05-7.99508E+03-9.92390E+05 2.19734E-09-2.75895E-09
 -1       775-2.22600E+06-4.17047E+05-3.72732E+03-9.72434E+05-3.63798E-11-8.85848E-10
 -1       776-2.20822E+06-4.34799E+05-1.86862E+03-9.92974E+05 3.36513E-10-2.87991E-09
 -1       777-2.22661E+06-4.16779E+05-1.04036E+03-9.72684E+05-5.79894E-09-1.42286E-08
 -1       778-2.20853E+06-4.34688E+05-8.04457E+02-9.93377E+05-1.06229E-09-2.56119E-09
 -1       779-2.22698E+06-4.16557E+05-1.03187E+03-9.72858E+05 9.82254E-11-6.66660E-10
 -1       780-2.20884E+06-4.34613E+05-1.88557E+03-9.93674E+05-8.76753E-10 5.09317E-10
 -1       781-2.22710E+06-4.16378E+05-3.73657E+03-9.72946E+05-2.35013E-09-4.72755E-09
 -1       782-2.20959E+06-4.35015E+05-8.12971E+03-9.93837E+05-7.33053E-10-1.67347E-10
 -1       783-2.22676E+06-4.17467E+05-1.66439E+04-9.72357E+05-4.00223E-09-9.00036E-09
 -1       784-2.21814E+06-4.45871E+05-3.92788E+04-9.92315E+05 3.33102E-10-4.91127E-10
 -1       785-2.22435E+06-4.47332E+05-8.01618E+04-9.58727E+05 2.74326E-09 5.08953E-09
 -1       786 3.98315E+05-1.19090E+04 5.16905E+04-2.88616E+03 3.85398E-10-2.02272E-09
 -1       787 4.16943E+05 1.62022E+04 3.30966E+04-1.17321E+04-6.81212E-10 1.63027E-09
 -1       788 4.06106E+05-1.22717E+03 1.33948E+04-2.89469E+03-2.42153E-10 1.60526E-09
 -1       789 4.08255E+05 1.59064E+03 7.47658E+03-1.16987E+04 3.20256E-10-2.84126E-09
 -1       790 4.06987E+05-1.33467E+02 3.40327E+03-2.91776E+03 1.63027E-10-5.17275E-10
 -1       791 4.07253E+05 1.53038E+02 1.82618E+03-1.16653E+04 9.77025E-10 1.73065E-09
 -1       792 4.07099E+05-1.70103E+01 9.37310E+02-2.92809E+03-3.74285E-10 3.69198E-10
 -1       793 4.07128E+05 1.88649E+01 6.24603E+02-1.16583E+04-4.84619E-10 1.10424E-09
 -1       794 4.07110E+05-9.88853E+00 5.79974E+02-2.92470E+03 1.03500E-09 3.06699E-09
 -1       795 4.07169E+05 6.50753E+01 8.85370E+02-1.16794E+04 1.89573E-10 5.93206E-09
 -1       796 4.07065E+05-6.09554E+01 1.52964E+03-2.90703E+03 1.91437E-09-3.46006E-10
 -1       797 4.07612E+05 6.89619E+02 3.29088E+03-1.17258E+04 4.78678E-09 2.58859E-09
 -1       798 4.06682E+05-5.41607E+02 5.86523E+03-2.87834E+03 1.82422E-09-1.81194E-09
 -1       799 4.11421E+05 7.07442E+03 1.44768E+04-1.17667E+04-2.16187E-09-6.42444E-09
 -1       800 4.03277E+05-5.21673E+03 2.25969E+04-2.86708E+03 5.56611E-10-2.14459E-09
 -1       801-1.85783E+04 4.64986E+05 6.24682E+04-3.32101E+05 1.58252E-09 3.42698E-09
 -1       802 4.55789E+04 4.80320E+05 6.70832E+04-1.29364E+06-8.28732E-09-1.78261E-09
 -1       803 3.91961E+02 4.63607E+05 6.91691E+04-3.31596E+05 3.76895E-09 9.24615E-09
 -1       804 8.85986E+04 5.07164E+05 1.44107E+05-1.29352E+06-1.14014E-08-7.48696E-09
 -1       805-5.41119E+04 4.39600E+05 2.07993E+05-3.32246E+05 3.97267E-09 2.45200E-09
 -1       806-4.14364E+05-1.09873E+05-3.51876E+04-1.90353E+05 4.06999E-10-5.98448E-10
 -1       807-4.14578E+05-1.00937E+05-1.66941E+04-2.01058E+05 1.83263E-10 4.79531E-09
 -1       808-4.14177E+05-9.19075E+04-7.01871E+03-1.97946E+05-1.05329E-08 2.43631E-09
 -1       809-4.11114E+05-9.46172E+04-3.39155E+03-2.02516E+05-1.50762E-08 9.03162E-09
 -1       810-4.14269E+05-9.06754E+04-1.53359E+03-1.98502E+05-3.43198E-09 1.44087E-08
 -1       811-4.10777E+05-9.41967E+04-7.69056E+02-2.02578E+05 5.50699E-10 6.93763E-09
 -1       812-4.14298E+05-9.06385E+04-4.03573E+02-1.98528E+05 1.41199E-09 6.80211E-09
 -1       813-4.10739E+05-9.41857E+04-3.00547E+02-2.02568E+05-8.50946E-11 1.29694E-09
 -1       814-4.14292E+05-9.06453E+04-3.53647E+02-1.98523E+05-1.55296E-09 1.06274E-09
 -1       815-4.10756E+05-9.42021E+04-6.36296E+02-2.02562E+05 1.06229E-09-2.30375E-09
 -1       816-4.14251E+05-9.06852E+04-1.24820E+03-1.98493E+05-2.19279E-09-9.43146E-10
 -1       817-4.11020E+05-9.45414E+04-2.75024E+03-2.02490E+05-3.80169E-10-5.67979E-09
 -1       818-4.14154E+05-9.17011E+04-5.68738E+03-1.98041E+05 4.57749E-09 8.53834E-09
 -1       819-4.13876E+05-9.95965E+04-1.35222E+04-2.01215E+05 3.03771E-10 2.92539E-09
 -1       820-4.14225E+05-1.06311E+05-2.85015E+04-1.91947E+05-1.86628E-09 3.12048E-09
 -1       821-4.16120E+05 1.23614E+04-5.37070E+04 2.89222E+03-5.00359E-09-9.78616E-10
 -1       822-4.35434E+05-1.68375E+04-3.43871E+04 1.23937E+04-1.70667E-09 1.53250E-10
 -1       823-4.24222E+05 1.26689E+03-1.39239E+04 2.77559E+03 4.40650E-09-2.09820E-09
 -1       824-4.26449E+05-1.63112E+03-7.77310E+03 1.25651E+04-9.11314E-10-8.87439E-10
 -1       825-4.25142E+05 1.39859E+02-3.55633E+03 2.71890E+03-8.57949E-09 5.21595E-10
 -1       826-4.25439E+05-1.23952E+02-1.93511E+03 1.26589E+04-1.45828E-08 1.13596E-09
 -1       827-4.25262E+05 2.57812E+01-1.05319E+03 2.68134E+03-6.67842E-09-2.08865E-09
 -1       828-4.25333E+05 1.73129E+01-8.11936E+02 1.27175E+04-9.61569E-09-3.35839E-09
 -1       829-4.25267E+05 2.57841E+01-9.21907E+02 2.66013E+03 1.99628E-09 5.45050E-10
 -1       830-4.25428E+05-8.36115E+01-1.59253E+03 1.27422E+04 1.29026E-08 4.05791E-10
 -1       831-4.25176E+05 1.21138E+02-2.87001E+03 2.65668E+03-2.77646E-09-1.20053E-09
 -1       832-4.26253E+05-1.28592E+03-6.24702E+03 1.27314E+04 4.43151E-10-1.48782E-09
 -1       833-4.24440E+05 1.02925E+03-1.11720E+04 2.67131E+03 4.71800E-10-4.36285E-09
 -1       834-4.33475E+05-1.34818E+04-2.75929E+04 1.26673E+04 7.40840E-10-7.40692E-09
 -1       835-4.17943E+05 9.93434E+03-4.30864E+04 2.72425E+03 2.89833E-09-2.18097E-09
 -1       836-1.98837E+04 1.07628E+06 9.10846E+04-2.89278E+04-1.49885E-09 2.45564E-11
 -1       837 3.07145E+04 1.10965E+06 7.08240E+04-1.09518E+05 4.75325E-09-4.16367E-09
 -1       838-4.76233E+03 1.08700E+06 5.24854E+04-2.89963E+04-2.54431E-09 3.14878E-09
 -1       839 4.06704E+04 1.11554E+06 8.84839E+04-1.09490E+05 4.68390E-09-2.30455E-09
 -1       840-2.78772E+04 1.07036E+06 1.24524E+05-2.89538E+04-2.34286E-09-2.28010E-09
 -1       841-3.64678E+04 1.52280E+03-1.73452E+04-1.67941E+04-5.21322E-09-7.63976E-11
 -1       842-4.59698E+04-1.39330E+04-1.20191E+04-1.33196E+04-3.37587E-09 3.63798E-10
 -1       843-3.99711E+04-4.71610E+03-4.06510E+03-1.56511E+04 4.01599E-09 1.39312E-09
 -1       844-4.19205E+04-6.69139E+03-2.52501E+03-1.46222E+04 5.54216E-09-1.82479E-09
 -1       845-4.05164E+04-5.70785E+03-9.32132E+02-1.54959E+04 1.83010E-09-1.14272E-09
 -1       846-4.12973E+04-5.52962E+03-5.17711E+02-1.47906E+04-7.90565E-09-5.53462E-09
 -1       847-4.05945E+04-5.87604E+03-1.69790E+02-1.54836E+04-7.49891E-09-1.39029E-09
 -1       848-4.11969E+04-5.30896E+03-5.87439E+00-1.48037E+04-3.07627E-09-3.87804E-09
 -1       849-4.06169E+04-5.92808E+03 1.55815E+02-1.54831E+04 6.37830E-09-3.29322E-10
 -1       850-4.10816E+04-5.11024E+03 4.89819E+02-1.48304E+04 1.12325E-08 3.49320E-09
 -1       851-4.07099E+04-6.07448E+03 8.81709E+02-1.54569E+04-5.77344E-09-4.24643E-09
 -1       852-4.04345E+04-4.04760E+03 2.39877E+03-1.50326E+04-5.23956E-09 1.12701E-09
 -1       853-4.12636E+04-6.98932E+03 3.85215E+03-1.52814E+04-1.12436E-09 5.33646E-10
 -1       854-3.65044E+04 2.75566E+03 1.14088E+04-1.63409E+04 3.27361E-09 3.33148E-09
 -1       855-4.46376E+04-1.28676E+04 1.64480E+04-1.41521E+04 6.11863E-10 4.78758E-09
 -1       856-4.89121E+05 1.14281E+04-4.97451E+04 5.73430E+03-6.42558E-09 3.51611E-09
 -1       857-5.06988E+05-1.55216E+04-3.18331E+04 2.50368E+04-9.49512E-09-1.82035E-09
 -1       858-4.96633E+05 1.17830E+03-1.28972E+04 5.53213E+03-8.81482E-09-4.51746E-09
 -1       859-4.98736E+05-1.41820E+03-7.18992E+03 2.53329E+04-4.90422E-09-6.80632E-09
 -1       860-4.97495E+05 1.48992E+02-3.28533E+03 5.43408E+03 3.01634E-09-4.61750E-09
 -1       861-4.97839E+05-6.13740E+00-1.77163E+03 2.54815E+04-1.34341E-08-2.31068E-09
 -1       862-4.97610E+05 5.02439E+01-9.37277E+02 5.38253E+03 1.53337E-08 8.84370E-10
 -1       863-4.97751E+05 1.32766E+02-6.74696E+02 2.55447E+04 3.38774E-08-5.64739E-09
 -1       864-4.97619E+05 4.80493E+01-7.04323E+02 5.37060E+03 1.15022E-08-7.38737E-10
 -1       865-4.97803E+05 5.87865E+01-1.16111E+03 2.55278E+04 1.64055E-08-6.88144E-09
 -1       866-4.97550E+05 1.09067E+02-2.06564E+03 5.39958E+03-1.60594E-09-2.15772E-09
 -1       867-4.98353E+05-8.16951E+02-4.47122E+03 2.54277E+04-9.52036E-09-3.68823E-09
 -1       868-4.97015E+05 7.44096E+02-8.00034E+03 5.47133E+03 1.22827E-09-2.43335E-09
 -1       869-5.03450E+05-9.56345E+03-1.97312E+04 2.51885E+04-7.04813E-09-5.06043E-09
 -1       870-4.92356E+05 7.08926E+03-3.08353E+04 5.64218E+03 1.24401E-08-1.55160E-09
 -1       871-4.88668E+03-4.42931E+04-8.54214E+03 1.27441E+05 3.69437E-09-1.84264E-09
 -1       872-1.69543E+03-4.58150E+04-2.50097E+03 1.49007E+05 4.80395E-09 8.44011E-10
 -1       873-8.08546E+01-4.53029E+04 2.48487E+03 1.27203E+05 5.68662E-09 3.69073E-09
 -1       874 2.76698E+03-4.32750E+04 9.30488E+03 1.49117E+05 3.32329E-09 4.07033E-09
 -1       875 9.54214E+03-4.69833E+04 2.01007E+04 1.27357E+05 3.87627E-09 9.93168E-10
 -1       876 5.87767E+05 7.43849E+04 5.56272E+04 2.31879E+05 6.67569E-09-1.53159E-09
 -1       877 6.00162E+05 1.17977E+05 3.51172E+04 2.40255E+05 1.01096E-09-1.58434E-09
 -1       878 5.97282E+05 8.71564E+04 1.31316E+04 2.30586E+05 4.22392E-09-2.52749E-09
 -1       879 5.89226E+05 1.01377E+05 7.23361E+03 2.42454E+05-2.05182E-08-6.82371E-09
 -1       880 5.98304E+05 8.86023E+04 3.06706E+03 2.30551E+05-1.65282E-08-5.03724E-09
 -1       881 5.88050E+05 9.95420E+04 1.64880E+03 2.42499E+05-1.01727E-08-1.08089E-08
 -1       882 5.98389E+05 8.88022E+04 8.79836E+02 2.30593E+05 6.32201E-09-1.36120E-09
 -1       883 5.87963E+05 9.93274E+04 7.58688E+02 2.42434E+05-1.22094E-08 2.14318E-09
 -1       884 5.98370E+05 8.88144E+04 9.90086E+02 2.30608E+05-1.61555E-09-3.45653E-09
 -1       885 5.88130E+05 9.95309E+04 1.95154E+03 2.42426E+05 2.88175E-08-2.24071E-09
 -1       886 5.98225E+05 8.86149E+04 3.68320E+03 2.30595E+05 4.73864E-09 9.11768E-10
 -1       887 5.89610E+05 1.01671E+05 8.70839E+03 2.42271E+05 2.20120E-09-2.12367E-09
 -1       888 5.96947E+05 8.69189E+04 1.58268E+04 2.30680E+05-7.15566E-10-2.06546E-09
 -1       889 6.02844E+05 1.21604E+05 4.23166E+04 2.39519E+05-1.13255E-08 1.35697E-09
 -1       890 5.85441E+05 7.15724E+04 6.70479E+04 2.32274E+05-7.40420E-09-1.81535E-09
 -1       891 2.05522E+03-2.62104E+05-1.02064E+04 2.85319E+04 1.20808E-08 1.89721E-09
 -1       892-3.71468E+03-2.65614E+05-8.18119E+03 1.10852E+05 6.56178E-09 4.38922E-09
 -1       893 5.44063E+02-2.63281E+05-6.52166E+03 2.83866E+04 1.19155E-08 5.20666E-09
 -1       894-5.65775E+03-2.66743E+05-1.16143E+04 1.10839E+05 6.91216E-10-4.88308E-09
 -1       895 3.60255E+03-2.60947E+05-1.67064E+04 2.85442E+04 4.98130E-09 1.73986E-09
 -1       896 1.04933E+06-8.99926E+03 2.09499E+04 1.66160E+03 5.00778E-06-1.37443E-08
 -1       897 1.05831E+06 1.04298E+04 1.48107E+04 2.22688E+03 9.91569E-06-2.17706E-08
 -1       898 1.05284E+06-1.40169E+03 5.44197E+03 1.69745E+03 4.99741E-06-1.40487E-08
 -1       899 1.05424E+06 1.63183E+03 3.43773E+03 2.28796E+03 3.27631E-08-4.72585E-09
 -1       900 1.05341E+06-2.17615E+02 1.45537E+03 1.60056E+03 1.27944E-09-5.39933E-09
 -1       901 1.05359E+06 2.74128E+02 9.57642E+02 2.69904E+03-1.73283E-09-4.54423E-09
 -1       902 1.05349E+06-4.64748E+01 6.42869E+02 1.28636E+03 9.81537E-10-4.81644E-09
 -1       903 1.05356E+06 1.61404E+02 8.40046E+02 3.80764E+03-2.44771E-09-4.02550E-09
 -1       904 1.05344E+06-1.06001E+02 1.25923E+03 4.91946E+02-1.44259E-09-4.00314E-09
 -1       905 1.05406E+06 8.01437E+02 2.76165E+03 6.53978E+03-1.18914E-09-3.16805E-09
 -1       906 1.05300E+06-6.90818E+02 4.65557E+03-1.44582E+03 1.50749E-10-2.04432E-09
 -1       907 1.05724E+06 5.30050E+03 1.16308E+04 1.31812E+04-2.30352E-09 5.44333E-10
 -1       908 1.05030E+06-4.62796E+03 1.81125E+04-6.14967E+03-5.23244E-10 4.13911E-09
 -1       909 1.07692E+06 3.52924E+04 5.12496E+04 2.94289E+04 6.19730E-09 7.34599E-09
 -1       910 1.03359E+06-3.08043E+04 6.93364E+04-1.76950E+04 7.73889E-09 1.82481E-08
 -1       911 4.19275E+05-6.40906E+03 1.46647E+04-5.73272E+03-9.54373E-09 2.65354E-08
 -1       912 4.27900E+05 7.37492E+03 1.07492E+04 4.09063E+03-4.60301E-09 1.98952E-08
 -1       913 4.22276E+05-9.68790E+02 3.78697E+03-3.61931E+03-3.34916E-09 1.98609E-08
 -1       914 4.24317E+05 1.11606E+03 2.55445E+03 4.68204E+02-3.07244E-09 1.43151E-08
 -1       915 4.22827E+05-1.39651E+02 9.99573E+02-2.10989E+03 2.30702E-09 1.40153E-08
 -1       916 4.23725E+05 1.75044E+02 7.98751E+02-2.43742E+03 2.82364E-09 1.01708E-08
 -1       917 4.22864E+05-2.59887E+01 4.61377E+02-7.13543E+02-7.51868E-10 9.75659E-09
 -1       918 4.23972E+05 1.01017E+02 8.54958E+02-5.55140E+03-1.26704E-09 6.42994E-09
 -1       919 4.22597E+05-7.65843E+01 1.02671E+03 1.00415E+03-1.03108E-09 3.88764E-09
 -1       920 4.25352E+05 6.23462E+02 2.78146E+03-9.84268E+03-2.49764E-09-5.58515E-10
 -1       921 4.21541E+05-5.87098E+02 3.97737E+03 3.57795E+03-3.14930E-09-2.70302E-09
 -1       922 4.30745E+05 4.62697E+03 1.12688E+04-1.66501E+04-7.40806E-09-8.56755E-09
 -1       923 4.17381E+05-4.19385E+03 1.57870E+04 7.81311E+03-1.30592E-09-1.74950E-08
 -1       924 4.53819E+05 3.20801E+04 4.81628E+04-2.82776E+04-1.12177E-08-2.47619E-08
 -1       925 3.99001E+05-2.83504E+04 6.13492E+04 1.52151E+04-8.31869E-09-3.91337E-08
 -1       926-7.55621E+05 1.34685E+04-4.37857E+04-4.02460E+04 4.68071E-09-7.32543E-08
 -1       927-7.41467E+05-1.44497E+04-2.43582E+04 8.64745E+04-4.81411E-08-8.62619E-08
 -1       928-7.42282E+05 2.23023E+03-9.89047E+03-4.89273E+04 8.33964E-09-9.09340E-08
 -1       929-7.25627E+05-4.15145E+01-1.66287E+03 8.16452E+04 6.08394E-08-8.01022E-08
 -1       930-7.70937E+05-1.32485E+03-7.88651E+03-3.53975E+04-8.95398E-09-6.87654E-08
 -1       931-6.65971E+05 2.74314E+03 1.46553E+04 3.74941E+04-1.68857E-08-3.43663E-08
 -1       932-7.98623E+05-3.18495E+03-1.13613E+04-4.71778E+03-1.64619E-09-1.45008E-08
 -1       933-6.56672E+05 3.19342E+03 1.81764E+04-2.60035E+04-1.86185E-08 2.41485E-08
 -1       934-7.79732E+05-2.17445E+03-5.68895E+03 2.80076E+04-6.05723E-09 4.62203E-08
 -1       935-7.11641E+05 3.56983E+03 1.04292E+04-7.67352E+04-1.05879E-08 7.09164E-08
 -1       936-7.46809E+05-1.04882E+03 6.13564E+03 4.60248E+04 1.51726E-09 8.08045E-08
 -1       937-7.34354E+05 1.00020E+04 1.74518E+04-9.07379E+04-4.42495E-08 7.97033E-08
 -1       938-7.58486E+05-7.42174E+03 2.26851E+04 4.20586E+04-3.26922E-08 7.45085E-08
 -1       939-6.66928E+05 5.38147E+04 7.97475E+04-6.26762E+04-2.88409E-08 4.96902E-08
 -1       940-8.11491E+05-4.69277E+04 8.55729E+04 1.78910E+04 2.77214E-09 3.48882E-08
 -1       941 6.32383E+06-3.13954E+05 7.34599E+05 1.73333E+03 3.08231E-08 6.11180E-09
 -1       942 6.64004E+06 3.63841E+05 5.17987E+05 2.57628E+03 4.39380E-08 9.58971E-09
 -1       943 6.44630E+06-4.90039E+04 1.90498E+05 2.12783E+03 2.21497E-06 1.57306E-08
 -1       944 6.49834E+06 5.67468E+04 1.19583E+05 2.16431E+03 4.37818E-06-5.23869E-09
 -1       945 6.46659E+06-7.63347E+03 4.92343E+04 2.14574E+03 2.96487E-06-2.40834E-09
 -1       946 6.47510E+06 8.96631E+03 2.95042E+04 2.14610E+03 1.53211E-06 8.18545E-09
 -1       947 6.46994E+06-1.31771E+03 1.47912E+04 2.14621E+03 2.04792E-06 4.89581E-09
 -1       948 6.47172E+06 2.44683E+03 1.22394E+04 2.14497E+03 2.62416E-06 5.11119E-09
 -1       949 6.47006E+06-1.12464E+03 1.30055E+04 2.14690E+03 9.67531E-06-1.85946E-08
 -1       950 6.47421E+06 7.29907E+03 2.43589E+04 2.13220E+03 1.66742E-05 3.70937E-09
 -1       951 6.46740E+06-6.16197E+03 3.99537E+04 2.15895E+03 8.38644E-06-1.10595E-09
 -1       952 6.49289E+06 4.57484E+04 9.65260E+04 1.91605E+03 5.16236E-08 8.04539E-09
 -1       953 6.45104E+06-3.95001E+04 1.53591E+05 2.36291E+03-1.07582E-08 2.51748E-09
 -1       954 6.60712E+06 2.93265E+05 4.17523E+05-1.84098E+03-5.90602E-09-5.00586E-09
 -1       955 6.35219E+06-2.53085E+05 5.91748E+05 5.91440E+03-2.52127E-08-1.60071E-09
 -1       956-3.39316E+05-5.84602E+03-1.22398E+04 4.70932E+04-5.83532E-09-4.28008E-09
 -1       957-3.41562E+05-1.81898E+03-6.17284E+03 5.46702E+04-2.46655E-09-2.66664E-09
 -1       958-3.40360E+05-1.77182E+02-2.77868E+03 4.68058E+04 2.14095E-09 9.69067E-10
 -1       959-3.40591E+05 4.08135E+01-1.41164E+03 5.49842E+04-5.50335E-09-1.25510E-10
 -1       960-3.40510E+05 1.18524E+02-6.86566E+02 4.67744E+04-7.81620E-09-1.32468E-09
 -1       961-3.40556E+05 1.52082E+02-3.60873E+02 5.50198E+04-1.47406E-08 1.11322E-09
 -1       962-3.40566E+05 1.40355E+02-2.03221E+02 4.67694E+04-8.66748E-09 1.65073E-10
 -1       963-3.40584E+05 1.72267E+02-1.55398E+02 5.50264E+04-1.02561E-08 9.10859E-10
 -1       964-3.40591E+05 1.55101E+02-1.80632E+02 4.67675E+04-9.50695E-09-1.24555E-09
 -1       965-3.40611E+05 1.83463E+02-3.05248E+02 5.50269E+04-6.47526E-09-4.03816E-10
 -1       966-3.40587E+05 1.63226E+02-5.70194E+02 4.67688E+04-1.18073E-08 9.64064E-11
 -1       967-3.40687E+05 1.17206E+02-1.17222E+03 5.50103E+04 3.00133E-11-3.74666E-09
 -1       968-3.40501E+05-5.82701E+01-2.30314E+03 4.67846E+04-2.60115E-10-1.91744E-09
 -1       969-3.41538E+05-1.40586E+03-5.12401E+03 5.48486E+04 4.25644E-10 1.67802E-10
 -1       970-3.39663E+05-4.75185E+03-1.01565E+04 4.69389E+04-5.72072E-10-4.90581E-09
 -1       971-6.88116E+05 9.52292E+03-4.15169E+04 5.44574E+03-6.98128E-09 4.25462E-09
 -1       972-7.02974E+05-1.29478E+04-2.65622E+04 2.47178E+04-6.73572E-09 1.26238E-09
 -1       973-6.94386E+05 9.77219E+02-1.07719E+04 5.17450E+03-1.07298E-08 8.09905E-10
 -1       974-6.96112E+05-1.17049E+03-6.01263E+03 2.51324E+04 4.73301E-09 4.06999E-10
 -1       975-6.95107E+05 1.23822E+02-2.77306E+03 5.02804E+03 4.46471E-09 3.29578E-09
 -1       976-6.95384E+05 1.47841E+01-1.53940E+03 2.53609E+04-6.68069E-09 6.59918E-09
 -1       977-6.95204E+05 4.62860E+01-9.04463E+02 4.94509E+03 1.83713E-08 4.52479E-09
 -1       978-6.95335E+05 1.27873E+02-8.14625E+02 2.54700E+04 3.55452E-08 5.27740E-09
 -1       979-6.95202E+05 5.43755E+01-1.07790E+03 4.91858E+03 1.42043E-08 2.51012E-09
 -1       980-6.95460E+05-1.38835E+01-2.00175E+03 2.54655E+04 1.57165E-08 7.64295E-11
 -1       981-6.95078E+05 1.73146E+02-3.68682E+03 4.94973E+03-6.55132E-09 1.19303E-09
 -1       982-6.96497E+05-1.58504E+03-8.06858E+03 2.53448E+04 3.20335E-09 4.63672E-09
 -1       983-6.94119E+05 1.33693E+03-1.44580E+04 5.04027E+03 6.66614E-09-3.58341E-10
 -1       984-7.05789E+05-1.73946E+04-3.57083E+04 2.50601E+04-2.68142E-09 3.83943E-09
 -1       985-6.85700E+05 1.28470E+04-5.57816E+04 5.24042E+03 1.14583E-08-1.72076E-09
 -3
    1PSTEP                        41          21           1          
  100CL  121 9.53479E-01         841                     0   21           1
 -4  DISP        4    1
 -5  D1          1    2    1    0
 -5  D2          1    2    2    0
 -5  D3          1    2    3    0
 -5  ALL         1    2    0    0    1ALL
 -1         1 1.19497E-04 0.00000E+00 0.00000E+00
 -1         2 9.48154E-05 0.00000E+00 0.00000E+00
 -1         3 7.94879E-05 0.00000E+00 0.00000E+00
 -1         4 6.82122E-05 0.00000E+00 0.00000E+00
 -1         5 6.10520E-05 0.00000E+00 0.00000E+00
 -1         8 9.45695E-05-1.20035E-06 0.00000E+00
 -1         9 7.30434E-05 6.96191E-07 0.00000E+00
 -1        10 6.95960E-05-3.03052E-06 0.00000E+00
 -1        11 6.43599E-05-6.00968E-07 0.00000E+00
 -1        12 5.84379E-05 1.50837E-06 0.00000E+00
 -1        15 4.73862E-05-1.82501E-06 0.00000E+00
 -1        16 5.51488E-05 6.30017E-07 0.00000E+00
 -1        17 4.91575E-05-6.06768E-06 0.00000E+00
 -1        18 4.95041E-05-1.18166E-06 0.00000E+00
 -1        19 5.20650E-05 2.98698E-06 0.00000E+00
 -1        20 5.28594E-05 3.21042E-05 0.00000E+00
 -1        21 5.28211E-05 7.67335E-05 0.00000E+00
 -1        22 1.53368E-05-1.24774E-06 0.00000E+00
 -1        23 1.86305E-05 1.01034E-06 0.00000E+00
 -1        24 2.04577E-05-7.18713E-06 0.00000E+00
 -1        25 4.35209E-05-7.83995E-07 0.00000E+00
 -1        26 4.58777E-05 3.97229E-06 0.00000E+00
 -1        27 4.33816E-05 3.09510E-05 0.00000E+00
 -1        28 4.04162E-05 7.56448E-05 0.00000E+00
 -1        29 0.00000E+00 0.00000E+00 0.00000E+00
 -1        30 5.90946E-06 1.22083E-06 0.00000E+00
 -1        31 7.95326E-06-6.46683E-06 0.00000E+00
 -1        32 0.00000E+00 0.00000E+00 0.00000E+00
 -1        33 3.74912E-05 6.31166E-06 0.00000E+00
 -1        34 3.54738E-05 3.08416E-05 0.00000E+00
 -1        35 3.13475E-05 7.50628E-05 0.00000E+00
 -1        36 1.18000E-04-5.25483E-19 2.64698E-23
 -1        37 1.16458E-04-1.60007E-18 0.00000E+00
 -1        38 1.14918E-04-2.54640E-18 0.00000E+00
 -1        39 1.13369E-04-2.67246E-18-2.64698E-23
 -1        40 1.11820E-04-2.27887E-18 5.29396E-23
 -1        41 1.10270E-04-1.29012E-18 2.64698E-23
 -1        42 1.08719E-04-2.52397E-19 0.00000E+00
 -1        43 1.07168E-04-9.56535E-20 0.00000E+00
 -1        44 1.05617E-04-4.14337E-19 5.29396E-23
 -1        45 1.04066E-04-1.51060E-18 0.00000E+00
 -1        46 1.02515E-04-2.37680E-18 0.00000E+00
 -1        47 1.00966E-04-2.40781E-18 0.00000E+00
 -1        48 9.94163E-05-1.94497E-18 0.00000E+00
 -1        49 9.78731E-05-9.66135E-19 0.00000E+00
 -1        50 9.63279E-05-1.65897E-19 0.00000E+00
 -1        51 1.17619E-04-2.02529E-07 0.00000E+00
 -1        52 1.14503E-04-3.96566E-07 0.00000E+00
 -1        53 1.10388E-04-5.90187E-07 0.00000E+00
 -1        54 1.05526E-04-7.86167E-07 0.00000E+00
 -1        55 1.00169E-04-9.86758E-07-5.79026E-24
 -1        56 1.17121E-04-1.10050E-06 0.00000E+00
 -1        57 1.14774E-04-2.54677E-06 0.00000E+00
 -1        58 1.12500E-04-4.17365E-06 5.29396E-23
 -1        59 1.10227E-04-5.84825E-06-2.64698E-23
 -1        60 1.07915E-04-7.42060E-06 0.00000E+00
 -1        61 1.05509E-04-8.75257E-06 0.00000E+00
 -1        62 1.02970E-04-9.72846E-06 0.00000E+00
 -1        63 1.00261E-04-1.02529E-05-5.29396E-23
 -1        64 9.73630E-05-1.02747E-05 0.00000E+00
 -1        65 9.42673E-05-9.76997E-06 5.29396E-23
 -1        66 9.09841E-05-8.76666E-06-1.05879E-22
 -1        67 8.75363E-05-7.31912E-06-2.64698E-23
 -1        68 8.39587E-05-5.52669E-06 0.00000E+00
 -1        69 8.03098E-05-3.50147E-06-2.64698E-23
 -1        70 7.66230E-05-1.39044E-06 0.00000E+00
 -1        71 9.38651E-05-2.23133E-19 0.00000E+00
 -1        72 9.29059E-05-4.08028E-19 0.00000E+00
 -1        73 9.19473E-05-5.43584E-19-2.64698E-23
 -1        74 9.09869E-05-4.86215E-19 1.32349E-23
 -1        75 9.00266E-05-4.56377E-19-2.64698E-23
 -1        76 8.90659E-05-2.60966E-19 1.32349E-23
 -1        77 8.81051E-05-5.04721E-20 2.64698E-23
 -1        78 8.71443E-05 4.48166E-20 0.00000E+00
 -1        79 8.61836E-05 2.57480E-19 0.00000E+00
 -1        80 8.52229E-05 4.10774E-19 0.00000E+00
 -1        81 8.42624E-05 5.39338E-19 2.64698E-23
 -1        82 8.33024E-05 5.18220E-19 1.32349E-23
 -1        83 8.23426E-05 4.80269E-19 0.00000E+00
 -1        84 8.13860E-05 2.68710E-19 1.32349E-23
 -1        85 8.04284E-05 1.52737E-19-2.64698E-23
 -1        86 9.37339E-05 9.76787E-08 1.32349E-23
 -1        87 9.05409E-05 2.25497E-07 0.00000E+00
 -1        88 8.60723E-05 3.46397E-07 0.00000E+00
 -1        89 8.11557E-05 4.67266E-07 0.00000E+00
 -1        90 7.65567E-05 5.91395E-07 0.00000E+00
 -1        91 8.91250E-05 1.29091E-05 0.00000E+00
 -1        92 7.31243E-05 5.13753E-05 0.00000E+00
 -1        93 5.40109E-05 9.72692E-05 2.64698E-23
 -1        94 3.94277E-05 1.32402E-04 1.32349E-23
 -1        95 3.39769E-05 1.44650E-04 0.00000E+00
 -1        96 4.13295E-05 1.22279E-04-6.61744E-24
 -1        97 5.80978E-05 7.20308E-05 0.00000E+00
 -1        98 8.11370E-05 1.62282E-06 0.00000E+00
 -1        99 1.04402E-04-6.95243E-05 0.00000E+00
 -1       100 1.21873E-04-1.21957E-04 6.61744E-24
 -1       101 1.30205E-04-1.47133E-04 0.00000E+00
 -1       102 1.25758E-04-1.37476E-04-6.61744E-24
 -1       103 1.11863E-04-1.04011E-04 0.00000E+00
 -1       104 9.27789E-05-5.81836E-05 0.00000E+00
 -1       105 7.62327E-05-1.84045E-05 0.00000E+00
 -1       106 7.87890E-05-1.13429E-18 0.00000E+00
 -1       107 7.80833E-05-4.49150E-18-1.32349E-23
 -1       108 7.73780E-05-8.62018E-18 0.00000E+00
 -1       109 7.66714E-05-1.17384E-17 0.00000E+00
 -1       110 7.59648E-05-1.28200E-17 0.00000E+00
 -1       111 7.52579E-05-1.07345E-17 1.32349E-23
 -1       112 7.45510E-05-6.16482E-18 2.64698E-23
 -1       113 7.38441E-05 2.57805E-19 1.32349E-23
 -1       114 7.31372E-05 6.75041E-18 2.64698E-23
 -1       115 7.24303E-05 1.14433E-17 1.32349E-23
 -1       116 7.17236E-05 1.37100E-17 0.00000E+00
 -1       117 7.10173E-05 1.27093E-17 1.32349E-23
 -1       118 7.03112E-05 9.46228E-18 2.64698E-23
 -1       119 6.96076E-05 5.15649E-18 0.00000E+00
 -1       120 6.89031E-05 1.39417E-18-1.32349E-23
 -1       121 7.91747E-05-5.05055E-07 0.00000E+00
 -1       122 7.82737E-05-1.00899E-06 0.00000E+00
 -1       123 7.68230E-05-1.51354E-06 0.00000E+00
 -1       124 7.48639E-05-2.01855E-06-6.61744E-24
 -1       125 7.24398E-05-2.52450E-06 0.00000E+00
 -1       126 8.22839E-05-8.36297E-06 1.32349E-23
 -1       127 9.09851E-05-3.32204E-05-3.30872E-24
 -1       128 1.03928E-04-7.04641E-05 0.00000E+00
 -1       129 1.19551E-04-1.15806E-04 0.00000E+00
 -1       130 1.35753E-04-1.62918E-04-6.61744E-24
 -1       131 1.50456E-04-2.05443E-04 0.00000E+00
 -1       132 1.61874E-04-2.38186E-04 6.61744E-24
 -1       133 1.68136E-04-2.56096E-04 0.00000E+00
 -1       134 1.68463E-04-2.57737E-04-6.61744E-24
 -1       135 1.62086E-04-2.41871E-04 0.00000E+00
 -1       136 1.49860E-04-2.11392E-04 0.00000E+00
 -1       137 1.32811E-04-1.69310E-04 3.30872E-24
 -1       138 1.13286E-04-1.21394E-04 6.61744E-24
 -1       139 9.37451E-05-7.34380E-05 0.00000E+00
 -1       140 7.66509E-05-3.12479E-05-6.61744E-24
 -1       141 6.77651E-05-7.78377E-21 0.00000E+00
 -1       142 6.73147E-05-6.60466E-20 0.00000E+00
 -1       143 6.68646E-05-7.08811E-20-1.32349E-23
 -1       144 6.64138E-05 1.14985E-19 6.61744E-24
 -1       145 6.59630E-05 2.85409E-19-1.32349E-23
 -1       146 6.55121E-05 4.31915E-19 0.00000E+00
 -1       147 6.50612E-05 5.57842E-19 0.00000E+00
 -1       148 6.46104E-05 5.71674E-19 6.61744E-24
 -1       149 6.41595E-05 5.42839E-19-1.32349E-23
 -1       150 6.37089E-05 4.61739E-19 6.61744E-24
 -1       151 6.32584E-05 3.66823E-19 0.00000E+00
 -1       152 6.28090E-05 3.51282E-19-6.61744E-24
 -1       153 6.23597E-05 3.02682E-19 1.32349E-23
 -1       154 6.19158E-05 1.99416E-19-3.30872E-24
 -1       155 6.14700E-05 1.23197E-19 0.00000E+00
 -1       156 7.06868E-05-7.20959E-08 0.00000E+00
 -1       157 7.78768E-05-1.53070E-07 0.00000E+00
 -1       158 8.52623E-05-2.36318E-07-3.30872E-24
 -1       159 8.83240E-05-2.95871E-07-1.65436E-24
 -1       160 8.27776E-05-3.72062E-07-3.30872E-24
 -1       161 7.00240E-05-5.76684E-06-1.32349E-23
 -1       162 7.59296E-05-2.28075E-05 0.00000E+00
 -1       163 8.46724E-05-4.78865E-05-6.61744E-24
 -1       164 9.50317E-05-7.76432E-05 0.00000E+00
 -1       165 1.05380E-04-1.07369E-04 6.61744E-24
 -1       166 1.14092E-04-1.32356E-04 0.00000E+00
 -1       167 1.19950E-04-1.49261E-04 0.00000E+00
 -1       168 1.21707E-04-1.54863E-04 3.30872E-24
 -1       169 1.19207E-04-1.49122E-04 6.61744E-24
 -1       170 1.12349E-04-1.32138E-04-3.30872E-24
 -1       171 1.02302E-04-1.07134E-04 6.61744E-24
 -1       172 9.03398E-05-7.74062E-05 3.30872E-24
 -1       173 7.83338E-05-4.75714E-05-6.61744E-24
 -1       174 6.81617E-05-2.22440E-05 0.00000E+00
 -1       175 6.11226E-05-4.79013E-06 8.27181E-25
 -1       191 6.09466E-05 2.50987E-07 1.32349E-23
 -1       192 6.07005E-05 5.02581E-07 0.00000E+00
 -1       193 6.03194E-05 7.54299E-07 0.00000E+00
 -1       194 5.98104E-05 1.00598E-06 0.00000E+00
 -1       195 5.91806E-05 1.25748E-06 0.00000E+00
 -1       251 9.37566E-05 1.40602E-05 0.00000E+00
 -1       252 9.24185E-05 5.03277E-05-1.32349E-23
 -1       253 9.09140E-05 9.14318E-05-2.64698E-23
 -1       254 8.97993E-05 1.21058E-04 0.00000E+00
 -1       255 8.90353E-05 1.29277E-04 2.64698E-23
 -1       256 8.80614E-05 1.06814E-04-1.32349E-23
 -1       257 8.63338E-05 6.05647E-05 0.00000E+00
 -1       258 8.37602E-05-1.85592E-06-1.32349E-23
 -1       259 8.12068E-05-6.39207E-05 0.00000E+00
 -1       260 7.95247E-05-1.09111E-04-1.32349E-23
 -1       261 7.85798E-05-1.30195E-04 2.64698E-23
 -1       262 7.78049E-05-1.20674E-04 0.00000E+00
 -1       263 7.66660E-05-9.01834E-05 2.64698E-23
 -1       264 7.51590E-05-4.89987E-05 0.00000E+00
 -1       265 7.38410E-05-1.33497E-05 0.00000E+00
 -1       266 9.05019E-05-1.28647E-06 0.00000E+00
 -1       267 8.71166E-05-1.35335E-06 3.30872E-24
 -1       268 8.27315E-05-1.42534E-06-3.30872E-24
 -1       269 7.56672E-05-1.50825E-06 0.00000E+00
 -1       270 6.43924E-05-1.62945E-06 0.00000E+00
 -1       271 9.10267E-05 1.98243E-06 0.00000E+00
 -1       272 8.77639E-05 4.21297E-06 0.00000E+00
 -1       273 8.48259E-05 5.58941E-06-5.29396E-23
 -1       274 8.21657E-05 6.19731E-06 0.00000E+00
 -1       275 7.97525E-05 6.14551E-06 0.00000E+00
 -1       276 7.75401E-05 5.55346E-06 0.00000E+00
 -1       277 7.54808E-05 4.55229E-06 0.00000E+00
 -1       278 7.35221E-05 3.28154E-06-2.64698E-23
 -1       279 7.16101E-05 1.88626E-06-5.29396E-23
 -1       280 6.96896E-05 5.14234E-07-2.64698E-23
 -1       281 6.77057E-05-6.87364E-07 0.00000E+00
 -1       282 6.56059E-05-1.57472E-06 0.00000E+00
 -1       283 6.33378E-05-2.01088E-06 0.00000E+00
 -1       284 6.08620E-05-1.86542E-06 0.00000E+00
 -1       285 5.81233E-05-1.02664E-06-5.29396E-23
 -1       286 7.28157E-05 3.26134E-06 0.00000E+00
 -1       287 7.26007E-05 5.05051E-06 3.30872E-24
 -1       288 7.23861E-05 5.96159E-06-6.61744E-24
 -1       289 7.21739E-05 5.90042E-06-3.30872E-24
 -1       290 7.19614E-05 4.95752E-06-6.61744E-24
 -1       291 7.17483E-05 3.23144E-06-3.30872E-24
 -1       292 7.15343E-05 9.69432E-07 0.00000E+00
 -1       293 7.13197E-05-1.57646E-06 3.30872E-24
 -1       294 7.11051E-05-4.10022E-06 0.00000E+00
 -1       295 7.08912E-05-6.29607E-06 3.30872E-24
 -1       296 7.06783E-05-7.92051E-06 0.00000E+00
 -1       297 7.04659E-05-8.73517E-06-3.30872E-24
 -1       298 7.02538E-05-8.65544E-06 6.61744E-24
 -1       299 7.00390E-05-7.60482E-06-3.30872E-24
 -1       300 6.98238E-05-5.69127E-06-1.32349E-23
 -1       301 7.00500E-05 6.72157E-07 0.00000E+00
 -1       302 6.70452E-05 6.68922E-07-1.65436E-24
 -1       303 6.40408E-05 6.69243E-07-3.30872E-24
 -1       304 6.10487E-05 6.68812E-07 0.00000E+00
 -1       305 5.80808E-05 6.63176E-07 1.32349E-23
 -1       306 7.07232E-05 2.59269E-06 0.00000E+00
 -1       307 6.87160E-05 3.53431E-06-2.64698E-23
 -1       308 6.70213E-05 3.64842E-06 0.00000E+00
 -1       309 6.55846E-05 3.05697E-06 0.00000E+00
 -1       310 6.43605E-05 1.89609E-06 0.00000E+00
 -1       311 6.32949E-05 3.08283E-07-2.64698E-23
 -1       312 6.23330E-05-1.55762E-06 0.00000E+00
 -1       313 6.14178E-05-3.54898E-06 2.64698E-23
 -1       314 6.04918E-05-5.51127E-06 0.00000E+00
 -1       315 5.94976E-05-7.29042E-06-2.64698E-23
 -1       316 5.83786E-05-8.73506E-06 0.00000E+00
 -1       317 5.70808E-05-9.69840E-06 0.00000E+00
 -1       318 5.55511E-05-1.00408E-05 0.00000E+00
 -1       319 5.37464E-05-9.62931E-06 0.00000E+00
 -1       320 5.16122E-05-8.34672E-06-2.64698E-23
 -1       321 6.93765E-05-3.38898E-06 1.32349E-23
 -1       322 6.91443E-05-1.04907E-05 3.30872E-24
 -1       323 6.88611E-05-2.30588E-05-6.61744E-24
 -1       324 6.85216E-05-3.97697E-05-3.30872E-24
 -1       325 6.81481E-05-5.85356E-05 6.61744E-24
 -1       326 6.77759E-05-7.72510E-05-3.30872E-24
 -1       327 6.74392E-05-9.38199E-05 0.00000E+00
 -1       328 6.71614E-05-1.06165E-04 0.00000E+00
 -1       329 6.69330E-05-1.12984E-04-6.61744E-24
 -1       330 6.67272E-05-1.13025E-04-3.30872E-24
 -1       331 6.64994E-05-1.06276E-04-6.61744E-24
 -1       332 6.62062E-05-9.27865E-05 3.30872E-24
 -1       333 6.58294E-05-7.38382E-05 0.00000E+00
 -1       334 6.53694E-05-5.07620E-05 3.30872E-24
 -1       335 6.48630E-05-2.56474E-05 0.00000E+00
 -1       336 6.64365E-05-3.53741E-06 0.00000E+00
 -1       337 6.30866E-05-4.04555E-06-6.61744E-24
 -1       338 5.96147E-05-4.55388E-06-1.32349E-23
 -1       339 5.60897E-05-5.06126E-06-6.61744E-24
 -1       340 5.25810E-05-5.56873E-06-1.32349E-23
 -1       341 6.43047E-05 8.96172E-06 0.00000E+00
 -1       342 5.18910E-05 3.88206E-05 0.00000E+00
 -1       343 3.77083E-05 7.30113E-05 0.00000E+00
 -1       344 2.73064E-05 9.79405E-05 0.00000E+00
 -1       345 2.38437E-05 1.05134E-04 0.00000E+00
 -1       346 2.99253E-05 8.64649E-05 0.00000E+00
 -1       347 4.29410E-05 4.77304E-05 0.00000E+00
 -1       348 6.03984E-05-4.61119E-06 0.00000E+00
 -1       349 7.76655E-05-5.63622E-05-1.32349E-23
 -1       350 9.00952E-05-9.33497E-05 0.00000E+00
 -1       351 9.53777E-05-1.09773E-04-1.32349E-23
 -1       352 9.11165E-05-1.00498E-04 6.61744E-24
 -1       353 8.01718E-05-7.42186E-05 1.32349E-23
 -1       354 6.59655E-05-3.99527E-05-6.61744E-24
 -1       355 5.39859E-05-1.11538E-05-6.61744E-24
 -1       356 6.38298E-05 2.51624E-05 0.00000E+00
 -1       357 6.32598E-05 5.24126E-05 3.30872E-24
 -1       358 6.27164E-05 7.86108E-05 6.61744E-24
 -1       359 6.22568E-05 1.01227E-04 0.00000E+00
 -1       360 6.18989E-05 1.18419E-04 0.00000E+00
 -1       361 6.16351E-05 1.28399E-04 0.00000E+00
 -1       362 6.14160E-05 1.30755E-04 0.00000E+00
 -1       363 6.11844E-05 1.25149E-04 3.30872E-24
 -1       364 6.08959E-05 1.12764E-04 0.00000E+00
 -1       365 6.05268E-05 9.48459E-05 3.30872E-24
 -1       366 6.00988E-05 7.37029E-05-6.61744E-24
 -1       367 5.96530E-05 5.16726E-05 0.00000E+00
 -1       368 5.92396E-05 3.12645E-05 6.61744E-24
 -1       369 5.89023E-05 1.49730E-05 0.00000E+00
 -1       370 5.86370E-05 4.50405E-06 4.13590E-25
 -1       371 4.52980E-05-8.43783E-07-3.30872E-24
 -1       372 3.78495E-05-9.33684E-07 0.00000E+00
 -1       373 3.83394E-05-9.91938E-07 0.00000E+00
 -1       374 4.30720E-05-1.05952E-06 0.00000E+00
 -1       375 4.81071E-05-1.12834E-06-2.06795E-25
 -1       376 5.29249E-05 2.79894E-05-6.61744E-24
 -1       377 3.84139E-05 6.40553E-05 0.00000E+00
 -1       378 2.26693E-05 1.03085E-04 0.00000E+00
 -1       379 7.57890E-06 1.40550E-04 0.00000E+00
 -1       380-5.14437E-06 1.72279E-04 0.00000E+00
 -1       381-1.38695E-05 1.94135E-04 0.00000E+00
 -1       382-1.79781E-05 2.04225E-04-6.61744E-24
 -1       383-1.69501E-05 2.00753E-04 0.00000E+00
 -1       384-1.14436E-05 1.85008E-04 0.00000E+00
 -1       385-2.11929E-06 1.58422E-04 0.00000E+00
 -1       386 9.57048E-06 1.24952E-04 0.00000E+00
 -1       387 2.22173E-05 8.86459E-05 0.00000E+00
 -1       388 3.42254E-05 5.42307E-05 6.61744E-24
 -1       389 4.39852E-05 2.64073E-05 0.00000E+00
 -1       390 5.03284E-05 8.31828E-06 0.00000E+00
 -1       406 5.75564E-05 1.75626E-06 1.32349E-23
 -1       407 5.65839E-05 2.00436E-06 6.61744E-24
 -1       408 5.55340E-05 2.25230E-06 0.00000E+00
 -1       409 5.44211E-05 2.49960E-06 3.30872E-24
 -1       410 5.32599E-05 2.74558E-06 0.00000E+00
 -1       466 4.77427E-05 1.41411E-05 0.00000E+00
 -1       467 4.82087E-05 2.24340E-05 6.61744E-24
 -1       468 4.87041E-05 2.56011E-05 0.00000E+00
 -1       469 4.92077E-05 2.60763E-05-6.61744E-24
 -1       470 4.97111E-05 2.47586E-05 1.32349E-23
 -1       471 5.02135E-05 2.25076E-05-6.61744E-24
 -1       472 5.07146E-05 1.96474E-05 0.00000E+00
 -1       473 5.12149E-05 1.64888E-05 0.00000E+00
 -1       474 5.17147E-05 1.31711E-05-1.32349E-23
 -1       475 5.22140E-05 9.83021E-06 0.00000E+00
 -1       476 5.27135E-05 6.58867E-06-1.32349E-23
 -1       477 5.32119E-05 3.57112E-06 0.00000E+00
 -1       478 5.37113E-05 1.03077E-06-1.32349E-23
 -1       479 5.42035E-05-7.68639E-07 3.30872E-24
 -1       480 5.46999E-05-1.14158E-06 1.65436E-24
 -1       481 3.14434E-05-1.82889E-06 0.00000E+00
 -1       482 2.32696E-05-1.73800E-06 0.00000E+00
 -1       483 2.01465E-05-1.61751E-06 0.00000E+00
 -1       484 1.93831E-05-1.49224E-06-1.65436E-24
 -1       485 1.85799E-05-1.36678E-06-3.30872E-24
 -1       486 3.53590E-05 2.73609E-05 6.61744E-24
 -1       487 1.56452E-05 7.48777E-05-6.61744E-24
 -1       488-4.44424E-06 1.23275E-04-1.32349E-23
 -1       489-1.75653E-05 1.55085E-04 6.61744E-24
 -1       490-2.05166E-05 1.61103E-04 0.00000E+00
 -1       491-1.09176E-05 1.32548E-04 6.61744E-24
 -1       492 7.65151E-06 7.69595E-05 0.00000E+00
 -1       493 3.19278E-05 2.73708E-06-6.61744E-24
 -1       494 5.63675E-05-7.20281E-05 0.00000E+00
 -1       495 7.54438E-05-1.29221E-04-6.61744E-24
 -1       496 8.57720E-05-1.59900E-04 1.32349E-23
 -1       497 8.36171E-05-1.55974E-04 0.00000E+00
 -1       498 7.11261E-05-1.25707E-04 0.00000E+00
 -1       499 5.12492E-05-7.78104E-05 0.00000E+00
 -1       500 3.13036E-05-2.97508E-05 0.00000E+00
 -1       501 5.48120E-05 5.89774E-07-1.32349E-23
 -1       502 5.44715E-05-5.26566E-06 0.00000E+00
 -1       503 5.40949E-05-1.57584E-05 0.00000E+00
 -1       504 5.36808E-05-2.96476E-05 0.00000E+00
 -1       505 5.32506E-05-4.47439E-05 1.32349E-23
 -1       506 5.28348E-05-5.88406E-05-6.61744E-24
 -1       507 5.24536E-05-7.00103E-05-1.32349E-23
 -1       508 5.21130E-05-7.63658E-05 0.00000E+00
 -1       509 5.17909E-05-7.73603E-05 1.32349E-23
 -1       510 5.14580E-05-7.25209E-05-6.61744E-24
 -1       511 5.10938E-05-6.29967E-05-1.32349E-23
 -1       512 5.06921E-05-5.00018E-05 0.00000E+00
 -1       513 5.02740E-05-3.57178E-05 0.00000E+00
 -1       514 4.98681E-05-2.23438E-05 0.00000E+00
 -1       515 4.94940E-05-1.18251E-05 0.00000E+00
 -1       516 5.30410E-05 7.03022E-07-6.61744E-24
 -1       517 5.23523E-05 8.07801E-07 0.00000E+00
 -1       518 5.08918E-05 9.09434E-07 0.00000E+00
 -1       519 4.64656E-05 1.00725E-06 0.00000E+00
 -1       520 3.65590E-05 1.06549E-06 0.00000E+00
 -1       521 5.22536E-05 2.25500E-06 0.00000E+00
 -1       522 4.96374E-05 2.95505E-06-2.64698E-23
 -1       523 4.73241E-05 2.85512E-06-5.29396E-23
 -1       524 4.52575E-05 2.07042E-06 2.64698E-23
 -1       525 4.33958E-05 7.36226E-07 0.00000E+00
 -1       526 4.16841E-05-1.00374E-06 0.00000E+00
 -1       527 4.00668E-05-2.99713E-06 5.29396E-23
 -1       528 3.84852E-05-5.08676E-06 0.00000E+00
 -1       529 3.68801E-05-7.11337E-06 5.29396E-23
 -1       530 3.51927E-05-8.91910E-06 0.00000E+00
 -1       531 3.33655E-05-1.03505E-05 0.00000E+00
 -1       532 3.13451E-05-1.12616E-05-2.64698E-23
 -1       533 2.90799E-05-1.15172E-05 0.00000E+00
 -1       534 2.65313E-05-1.09930E-05 0.00000E+00
 -1       535 2.36482E-05-9.58622E-06 5.29396E-23
 -1       536 4.91601E-05-3.11598E-06 0.00000E+00
 -1       537 4.91784E-05-8.70660E-07 0.00000E+00
 -1       538 4.91978E-05 7.43897E-07 0.00000E+00
 -1       539 4.92199E-05 1.80381E-06 0.00000E+00
 -1       540 4.92428E-05 2.38493E-06-3.61892E-25
 -1       541 4.92662E-05 2.56306E-06 0.00000E+00
 -1       542 4.92898E-05 2.41393E-06 4.13590E-25
 -1       543 4.93134E-05 2.01320E-06-2.06795E-25
 -1       544 4.93369E-05 1.43647E-06-8.27181E-25
 -1       545 4.93604E-05 7.59300E-07 0.00000E+00
 -1       546 4.93840E-05 5.72531E-08 0.00000E+00
 -1       547 4.94075E-05-5.94124E-07 4.13590E-25
 -1       548 4.94312E-05-1.11929E-06 0.00000E+00
 -1       549 4.94551E-05-1.44267E-06-8.27181E-25
 -1       550 4.94791E-05-1.48859E-06 1.65436E-24
 -1       551 4.48678E-05-6.25124E-06 3.20532E-24
 -1       552 4.00980E-05-6.43081E-06 0.00000E+00
 -1       553 3.50583E-05-6.61098E-06-6.61744E-24
 -1       554 2.99628E-05-6.79331E-06 0.00000E+00
 -1       555 2.50256E-05-6.97970E-06 0.00000E+00
 -1       556 4.78819E-05-3.30763E-06 0.00000E+00
 -1       557 4.68491E-05-1.17508E-06 1.32349E-23
 -1       558 4.60315E-05 3.89580E-07 0.00000E+00
 -1       559 4.54038E-05 1.45197E-06-6.61744E-24
 -1       560 4.49406E-05 2.07790E-06 0.00000E+00
 -1       561 4.46165E-05 2.33382E-06 0.00000E+00
 -1       562 4.44063E-05 2.28627E-06-1.32349E-23
 -1       563 4.42851E-05 2.00194E-06 0.00000E+00
 -1       564 4.42276E-05 1.54757E-06 6.61744E-24
 -1       565 4.42088E-05 9.89946E-07 3.30872E-24
 -1       566 4.42038E-05 3.95880E-07 6.61744E-24
 -1       567 4.41875E-05-1.67789E-07 3.30872E-24
 -1       568 4.41350E-05-6.34247E-07 3.30872E-24
 -1       569 4.40218E-05-9.36757E-07 1.34417E-24
 -1       570 4.38234E-05-1.00865E-06-3.30872E-24
 -1       571 4.96579E-05-8.25034E-07-1.24077E-24
 -1       572 4.98164E-05-5.82896E-07 8.27181E-25
 -1       573 4.99763E-05-4.34434E-07 1.65436E-24
 -1       574 5.01368E-05-3.57787E-07-1.65436E-24
 -1       575 5.02976E-05-3.31011E-07 3.30872E-24
 -1       576 5.04585E-05-3.32027E-07-3.30872E-24
 -1       577 5.06195E-05-3.38747E-07-6.61744E-24
 -1       578 5.07805E-05-3.29064E-07 0.00000E+00
 -1       579 5.09414E-05-2.80872E-07 6.61744E-24
 -1       580 5.11024E-05-1.72059E-07-3.30872E-24
 -1       581 5.12633E-05 1.94842E-08 6.61744E-24
 -1       582 5.14242E-05 3.15853E-07 0.00000E+00
 -1       583 5.15849E-05 7.39126E-07 0.00000E+00
 -1       584 5.17455E-05 1.31117E-06 0.00000E+00
 -1       585 5.19057E-05 2.05376E-06 0.00000E+00
 -1       586 4.86439E-05-1.11410E-06 0.00000E+00
 -1       587 4.76575E-05-1.04595E-06-3.30872E-24
 -1       588 4.65978E-05-9.77890E-07 3.30872E-24
 -1       589 4.55190E-05-9.10487E-07 4.13590E-25
 -1       590 4.44756E-05-8.44561E-07 0.00000E+00
 -1       591 4.92489E-05-7.61801E-07 0.00000E+00
 -1       592 4.90137E-05-4.15097E-07 0.00000E+00
 -1       593 4.87995E-05-1.27636E-07 3.30872E-24
 -1       594 4.86019E-05 1.13290E-07 1.65436E-24
 -1       595 4.84167E-05 3.20388E-07 3.30872E-24
 -1       596 4.82394E-05 5.06278E-07 0.00000E+00
 -1       597 4.80653E-05 6.83566E-07 3.30872E-24
 -1       598 4.78897E-05 8.64847E-07 0.00000E+00
 -1       599 4.77078E-05 1.06272E-06-3.30872E-24
 -1       600 4.75150E-05 1.28977E-06 0.00000E+00
 -1       601 4.73066E-05 1.55860E-06-3.30872E-24
 -1       602 4.70779E-05 1.88180E-06 8.27181E-25
 -1       603 4.68243E-05 2.27198E-06 8.27181E-25
 -1       604 4.65416E-05 2.74182E-06-7.23783E-25
 -1       605 4.62257E-05 3.30400E-06 8.27181E-25
 -1       606 5.21209E-05 4.22053E-06 0.00000E+00
 -1       607 5.21727E-05 5.56733E-06-6.61744E-24
 -1       608 5.22233E-05 7.02072E-06 0.00000E+00
 -1       609 5.22733E-05 8.57314E-06 0.00000E+00
 -1       610 5.23229E-05 1.02170E-05-6.61744E-24
 -1       611 5.23723E-05 1.19444E-05 0.00000E+00
 -1       612 5.24215E-05 1.37476E-05-3.30872E-24
 -1       613 5.24706E-05 1.56190E-05 0.00000E+00
 -1       614 5.25196E-05 1.75505E-05 0.00000E+00
 -1       615 5.25684E-05 1.95345E-05 0.00000E+00
 -1       616 5.26172E-05 2.15632E-05 0.00000E+00
 -1       617 5.26659E-05 2.36288E-05 0.00000E+00
 -1       618 5.27145E-05 2.57235E-05 0.00000E+00
 -1       619 5.27631E-05 2.78394E-05 8.27181E-25
 -1       620 5.28114E-05 2.99690E-05-1.65436E-24
 -1       621 5.09065E-05 3.15159E-06 0.00000E+00
 -1       622 4.97837E-05 3.31718E-06 1.65436E-24
 -1       623 4.87081E-05 3.48286E-06-3.30872E-24
 -1       624 4.76911E-05 3.64816E-06 1.65436E-24
 -1       625 4.67440E-05 3.81253E-06 0.00000E+00
 -1       626 5.16970E-05 4.27943E-06 0.00000E+00
 -1       627 5.12824E-05 5.69028E-06 0.00000E+00
 -1       628 5.08269E-05 7.20850E-06 0.00000E+00
 -1       629 5.03354E-05 8.82160E-06 0.00000E+00
 -1       630 4.98128E-05 1.05170E-05-6.61744E-24
 -1       631 4.92639E-05 1.22820E-05 0.00000E+00
 -1       632 4.86936E-05 1.41039E-05 0.00000E+00
 -1       633 4.81067E-05 1.59698E-05 1.65436E-24
 -1       634 4.75079E-05 1.78670E-05-3.30872E-24
 -1       635 4.69022E-05 1.97827E-05-1.65436E-24
 -1       636 4.62942E-05 2.17043E-05-3.30872E-24
 -1       637 4.56889E-05 2.36188E-05-8.27181E-25
 -1       638 4.50907E-05 2.55136E-05 1.65436E-24
 -1       639 4.45044E-05 2.73758E-05-8.27181E-25
 -1       640 4.39341E-05 2.91927E-05 4.13590E-25
 -1       641 5.28608E-05 3.43206E-05 8.27181E-25
 -1       642 5.28602E-05 3.67697E-05 0.00000E+00
 -1       643 5.28591E-05 3.94177E-05 0.00000E+00
 -1       644 5.28574E-05 4.22309E-05 0.00000E+00
 -1       645 5.28552E-05 4.51758E-05-1.03398E-25
 -1       646 5.28527E-05 4.82189E-05 0.00000E+00
 -1       647 5.28500E-05 5.13270E-05 5.16988E-26
 -1       648 5.28472E-05 5.44668E-05 2.58494E-26
 -1       649 5.28444E-05 5.76051E-05 0.00000E+00
 -1       650 5.28416E-05 6.07087E-05-6.46235E-27
 -1       651 5.28390E-05 6.37444E-05 0.00000E+00
 -1       652 5.28365E-05 6.66788E-05-1.03398E-25
 -1       653 5.28343E-05 6.94785E-05 0.00000E+00
 -1       654 5.28312E-05 7.21100E-05 0.00000E+00
 -1       655 5.28291E-05 7.45396E-05 0.00000E+00
 -1       656 5.09372E-05 3.19180E-05 0.00000E+00
 -1       657 4.92721E-05 3.17226E-05 0.00000E+00
 -1       658 4.77743E-05 3.15278E-05 0.00000E+00
 -1       659 4.63535E-05 3.13330E-05 0.00000E+00
 -1       660 4.49194E-05 3.11377E-05 0.00000E+00
 -1       661 5.22400E-05 3.43857E-05-3.30872E-24
 -1       662 5.15597E-05 3.68513E-05-3.30872E-24
 -1       663 5.08209E-05 3.94713E-05-6.61744E-24
 -1       664 5.00349E-05 4.22194E-05-3.30872E-24
 -1       665 4.92108E-05 4.50689E-05 0.00000E+00
 -1       666 4.83584E-05 4.79936E-05 3.30872E-24
 -1       667 4.74875E-05 5.09674E-05 6.61744E-24
 -1       668 4.66080E-05 5.39643E-05-3.30872E-24
 -1       669 4.57294E-05 5.69585E-05 0.00000E+00
 -1       670 4.48616E-05 5.99240E-05 0.00000E+00
 -1       671 4.40143E-05 6.28350E-05-6.61744E-24
 -1       672 4.31973E-05 6.56652E-05 0.00000E+00
 -1       673 4.24205E-05 6.83885E-05 6.61744E-24
 -1       674 4.16923E-05 7.09778E-05 0.00000E+00
 -1       675 4.10248E-05 7.34070E-05 0.00000E+00
 -1       676 5.07465E-05 7.65515E-05 0.00000E+00
 -1       677 4.86735E-05 7.63687E-05 3.30872E-24
 -1       678 4.66030E-05 7.61860E-05 0.00000E+00
 -1       679 4.45360E-05 7.60039E-05 0.00000E+00
 -1       680 4.24734E-05 7.58218E-05 0.00000E+00
 -1       681 1.55530E-05 1.77763E-06 3.30872E-24
 -1       682 1.57794E-05 1.85565E-06 0.00000E+00
 -1       683 1.60037E-05-2.26078E-07-6.61744E-24
 -1       684 1.62254E-05-3.70134E-06 0.00000E+00
 -1       685 1.64436E-05-8.13038E-06 0.00000E+00
 -1       686 1.66596E-05-1.30830E-05 0.00000E+00
 -1       687 1.68746E-05-1.82516E-05 6.61744E-24
 -1       688 1.70901E-05-2.33309E-05 3.30872E-24
 -1       689 1.73075E-05-2.79948E-05-6.61744E-24
 -1       690 1.75279E-05-3.19127E-05-3.30872E-24
 -1       691 1.77520E-05-3.45793E-05 0.00000E+00
 -1       692 1.79788E-05-3.54767E-05 0.00000E+00
 -1       693 1.82038E-05-3.36724E-05 0.00000E+00
 -1       694 1.84139E-05-2.82071E-05-1.65436E-24
 -1       695 1.85798E-05-1.72683E-05 0.00000E+00
 -1       696 1.12823E-05-1.04987E-06 3.30872E-24
 -1       697 8.15611E-06-8.43409E-07 0.00000E+00
 -1       698 5.69099E-06-6.35449E-07-6.61744E-24
 -1       699 3.62585E-06-4.24998E-07-3.30872E-24
 -1       700 1.78631E-06-2.14282E-07 0.00000E+00
 -1       701 1.15577E-05 8.00910E-06 0.00000E+00
 -1       702 4.04113E-06 2.67976E-05 0.00000E+00
 -1       703-6.11428E-06 5.22024E-05-6.61744E-24
 -1       704-1.77487E-05 8.12493E-05 0.00000E+00
 -1       705-2.93030E-05 1.10098E-04 0.00000E+00
 -1       706-3.92220E-05 1.34908E-04 3.30872E-24
 -1       707-4.63898E-05 1.52808E-04 0.00000E+00
 -1       708-4.97671E-05 1.60976E-04 0.00000E+00
 -1       709-4.92741E-05 1.58915E-04 0.00000E+00
 -1       710-4.48817E-05 1.46231E-04 0.00000E+00
 -1       711-3.74672E-05 1.25087E-04 0.00000E+00
 -1       712-2.78936E-05 9.77541E-05 0.00000E+00
 -1       713-1.74919E-05 6.80229E-05-6.61744E-24
 -1       714-7.57816E-06 3.97186E-05 0.00000E+00
 -1       715 6.30409E-07 1.63138E-05 3.30872E-24
 -1       716 1.85967E-05 1.94936E-05 8.27181E-25
 -1       717 1.86720E-05 3.10145E-05 0.00000E+00
 -1       718 1.87942E-05 3.70806E-05-3.30872E-24
 -1       719 1.89335E-05 3.91659E-05 0.00000E+00
 -1       720 1.90751E-05 3.81804E-05 0.00000E+00
 -1       721 1.92125E-05 3.50152E-05 0.00000E+00
 -1       722 1.93441E-05 3.02506E-05 0.00000E+00
 -1       723 1.94705E-05 2.44571E-05 0.00000E+00
 -1       724 1.95933E-05 1.80581E-05-3.30872E-24
 -1       725 1.97147E-05 1.14735E-05-1.65436E-24
 -1       726 1.98373E-05 5.09635E-06-3.30872E-24
 -1       727 1.99621E-05-6.78714E-07-1.65436E-24
 -1       728 2.00920E-05-5.37143E-06-1.65436E-24
 -1       729 2.02215E-05-8.49488E-06 8.27181E-25
 -1       730 2.03572E-05-9.34117E-06 6.61744E-24
 -1       731 7.65291E-07 9.29056E-07 0.00000E+00
 -1       732-8.89592E-06 9.62699E-07 0.00000E+00
 -1       733-1.18780E-05 1.03832E-06 0.00000E+00
 -1       734-9.68202E-06 1.11698E-06 0.00000E+00
 -1       735-3.39535E-06 1.17994E-06 0.00000E+00
 -1       736 8.94643E-06 2.46880E-05 0.00000E+00
 -1       737-2.15345E-06 5.18346E-05 0.00000E+00
 -1       738-1.15764E-05 7.48041E-05-1.32349E-23
 -1       739-1.63591E-05 8.59930E-05 6.61744E-24
 -1       740-1.56669E-05 8.27372E-05 1.32349E-23
 -1       741-8.86522E-06 6.26238E-05 0.00000E+00
 -1       742 2.18257E-06 3.03054E-05 1.32349E-23
 -1       743 1.56730E-05-9.27453E-06 6.61744E-24
 -1       744 2.88841E-05-4.80190E-05 0.00000E+00
 -1       745 3.90814E-05-7.78528E-05 6.61744E-24
 -1       746 4.46722E-05-9.45575E-05 0.00000E+00
 -1       747 4.40214E-05-9.42200E-05-6.61744E-24
 -1       748 3.80808E-05-8.00521E-05-1.32349E-23
 -1       749 2.80221E-05-5.54957E-05 0.00000E+00
 -1       750 1.69242E-05-2.83574E-05 0.00000E+00
 -1       751 2.18094E-05-4.32621E-06 1.32349E-23
 -1       752 2.32504E-05-3.02153E-06-1.32349E-23
 -1       753 2.46869E-05-2.57446E-06-2.64698E-23
 -1       754 2.61397E-05-2.34262E-06-2.64698E-23
 -1       755 2.75932E-05-2.22936E-06-5.29396E-23
 -1       756 2.90498E-05-2.14563E-06-2.64698E-23
 -1       757 3.05069E-05-2.07813E-06 0.00000E+00
 -1       758 3.19645E-05-2.01458E-06 0.00000E+00
 -1       759 3.34222E-05-1.95292E-06 0.00000E+00
 -1       760 3.48796E-05-1.89117E-06 0.00000E+00
 -1       761 3.63367E-05-1.82713E-06 0.00000E+00
 -1       762 3.77915E-05-1.75847E-06 0.00000E+00
 -1       763 3.92459E-05-1.67099E-06-5.29396E-23
 -1       764 4.06887E-05-1.54927E-06 1.32349E-23
 -1       765 4.21354E-05-1.29076E-06 0.00000E+00
 -1       766 1.89999E-05-7.07433E-06-6.61744E-24
 -1       767 2.17989E-05-6.93077E-06-8.27181E-25
 -1       768 2.55440E-05-6.79193E-06 0.00000E+00
 -1       769 2.69328E-05-6.64258E-06-8.27181E-25
 -1       770 2.23033E-05-6.50576E-06 0.00000E+00
 -1       771 1.82695E-05-4.28285E-06-2.64698E-23
 -1       772 1.62763E-05-1.93272E-06 0.00000E+00
 -1       773 1.44718E-05-8.97225E-08 0.00000E+00
 -1       774 1.28390E-05 1.29415E-06 0.00000E+00
 -1       775 1.13605E-05 2.26721E-06 0.00000E+00
 -1       776 1.00180E-05 2.87830E-06 0.00000E+00
 -1       777 8.79313E-06 3.17653E-06 0.00000E+00
 -1       778 7.66720E-06 3.21134E-06-1.32349E-23
 -1       779 6.62156E-06 3.03235E-06-2.64698E-23
 -1       780 5.63749E-06 2.68943E-06-1.32349E-23
 -1       781 4.69626E-06 2.23257E-06-2.64698E-23
 -1       782 3.77923E-06 1.71193E-06 1.32349E-23
 -1       783 2.86778E-06 1.17770E-06 2.64698E-23
 -1       784 1.94416E-06 6.80308E-07-1.32349E-23
 -1       785 9.90713E-07 2.70167E-07 2.64698E-23
 -1       786 4.36590E-05-2.20187E-07 1.65436E-24
 -1       787 4.38059E-05 2.17910E-07 0.00000E+00
 -1       788 4.39527E-05 5.49799E-07-3.30872E-24
 -1       789 4.41008E-05 7.94935E-07 1.65436E-24
 -1       790 4.42491E-05 9.72655E-07 0.00000E+00
 -1       791 4.43977E-05 1.10221E-06 0.00000E+00
 -1       792 4.45463E-05 1.20280E-06 0.00000E+00
 -1       793 4.46950E-05 1.29358E-06 0.00000E+00
 -1       794 4.48437E-05 1.39369E-06-3.30872E-24
 -1       795 4.49924E-05 1.52228E-06 0.00000E+00
 -1       796 4.51411E-05 1.69855E-06-3.30872E-24
 -1       797 4.52897E-05 1.94175E-06 1.65436E-24
 -1       798 4.54381E-05 2.27122E-06 3.30872E-24
 -1       799 4.55859E-05 2.70639E-06 1.65436E-24
 -1       800 4.57337E-05 3.26687E-06-3.30872E-24
 -1       801 3.96551E-05-6.33573E-07-6.61744E-24
 -1       802 3.16124E-05-4.95302E-07 0.00000E+00
 -1       803 2.15087E-05-3.73541E-07 0.00000E+00
 -1       804 1.14609E-05-2.55233E-07 0.00000E+00
 -1       805 3.58585E-06-1.20095E-07 0.00000E+00
 -1       806 4.31296E-05-2.81841E-07 6.61744E-24
 -1       807 4.27522E-05 1.66433E-07 0.00000E+00
 -1       808 4.23895E-05 5.71430E-07 6.61744E-24
 -1       809 4.20385E-05 9.42952E-07 0.00000E+00
 -1       810 4.16962E-05 1.29074E-06 6.61744E-24
 -1       811 4.13590E-05 1.62448E-06 0.00000E+00
 -1       812 4.10235E-05 1.95381E-06 0.00000E+00
 -1       813 4.06860E-05 2.28839E-06 0.00000E+00
 -1       814 4.03429E-05 2.63786E-06 0.00000E+00
 -1       815 3.99905E-05 3.01187E-06 0.00000E+00
 -1       816 3.96254E-05 3.42005E-06 6.61744E-24
 -1       817 3.92439E-05 3.87204E-06 3.30872E-24
 -1       818 3.88426E-05 4.37750E-06-3.30872E-24
 -1       819 3.84181E-05 4.94607E-06-1.65436E-24
 -1       820 3.79676E-05 5.58746E-06-1.65436E-24
 -1       821 4.57318E-05 4.87442E-06 1.65436E-24
 -1       822 4.55767E-05 5.98203E-06 1.65436E-24
 -1       823 4.54215E-05 7.27418E-06-3.30872E-24
 -1       824 4.52647E-05 8.72950E-06 0.00000E+00
 -1       825 4.51074E-05 1.03265E-05 0.00000E+00
 -1       826 4.49498E-05 1.20434E-05 0.00000E+00
 -1       827 4.47919E-05 1.38584E-05-3.30872E-24
 -1       828 4.46338E-05 1.57494E-05 0.00000E+00
 -1       829 4.44757E-05 1.76942E-05 0.00000E+00
 -1       830 4.43175E-05 1.96707E-05-1.65436E-24
 -1       831 4.41593E-05 2.16568E-05 3.30872E-24
 -1       832 4.40014E-05 2.36300E-05 0.00000E+00
 -1       833 4.38437E-05 2.55681E-05 0.00000E+00
 -1       834 4.36871E-05 2.74491E-05 0.00000E+00
 -1       835 4.35307E-05 2.92507E-05-1.65436E-24
 -1       836 4.48097E-05 4.35517E-06 0.00000E+00
 -1       837 4.33745E-05 4.75134E-06-3.30872E-24
 -1       838 4.17486E-05 5.14655E-06 6.61744E-24
 -1       839 4.01086E-05 5.54082E-06-3.30872E-24
 -1       840 3.86305E-05 5.93597E-06 0.00000E+00
 -1       841 4.55276E-05 4.86525E-06-4.13590E-25
 -1       842 4.50923E-05 5.97528E-06 0.00000E+00
 -1       843 4.45830E-05 7.28278E-06 0.00000E+00
 -1       844 4.40066E-05 8.76652E-06-2.06795E-25
 -1       845 4.33729E-05 1.04026E-05-4.13590E-25
 -1       846 4.26908E-05 1.21668E-05 0.00000E+00
 -1       847 4.19703E-05 1.40325E-05 0.00000E+00
 -1       848 4.12216E-05 1.59733E-05 2.06795E-25
 -1       849 4.04551E-05 1.79610E-05 0.00000E+00
 -1       850 3.96814E-05 1.99678E-05 0.00000E+00
 -1       851 3.89112E-05 2.19654E-05 0.00000E+00
 -1       852 3.81551E-05 2.39253E-05-4.13590E-25
 -1       853 3.74235E-05 2.58199E-05 0.00000E+00
 -1       854 3.67265E-05 2.76215E-05-4.13590E-25
 -1       855 3.60744E-05 2.93044E-05 0.00000E+00
 -1       856 4.32071E-05 3.27778E-05 1.65436E-24
 -1       857 4.30236E-05 3.49370E-05 1.65436E-24
 -1       858 4.28395E-05 3.73862E-05 3.30872E-24
 -1       859 4.26536E-05 4.00822E-05 0.00000E+00
 -1       860 4.24670E-05 4.29815E-05 6.61744E-24
 -1       861 4.22796E-05 4.60400E-05-3.30872E-24
 -1       862 4.20919E-05 4.92138E-05-6.61744E-24
 -1       863 4.19038E-05 5.24585E-05 0.00000E+00
 -1       864 4.17157E-05 5.57295E-05 6.61744E-24
 -1       865 4.15277E-05 5.89826E-05 0.00000E+00
 -1       866 4.13399E-05 6.21733E-05-6.61744E-24
 -1       867 4.11526E-05 6.52570E-05 0.00000E+00
 -1       868 4.09658E-05 6.81899E-05 0.00000E+00
 -1       869 4.07803E-05 7.09278E-05-3.30872E-24
 -1       870 4.05954E-05 7.34271E-05 0.00000E+00
 -1       871 4.19283E-05 3.09352E-05 0.00000E+00
 -1       872 4.05817E-05 3.09180E-05 0.00000E+00
 -1       873 3.93028E-05 3.09005E-05 0.00000E+00
 -1       874 3.80518E-05 3.08825E-05 0.00000E+00
 -1       875 3.67886E-05 3.08637E-05-1.65436E-24
 -1       876 4.29457E-05 3.28417E-05-3.30872E-24
 -1       877 4.24119E-05 3.50223E-05 0.00000E+00
 -1       878 4.17841E-05 3.74511E-05 0.00000E+00
 -1       879 4.10782E-05 4.00915E-05 0.00000E+00
 -1       880 4.03066E-05 4.29060E-05-6.61744E-24
 -1       881 3.94832E-05 4.58582E-05 0.00000E+00
 -1       882 3.86215E-05 4.89120E-05-6.61744E-24
 -1       883 3.77349E-05 5.20316E-05 0.00000E+00
 -1       884 3.68369E-05 5.51813E-05 0.00000E+00
 -1       885 3.59410E-05 5.83255E-05-3.30872E-24
 -1       886 3.50605E-05 6.14286E-05 0.00000E+00
 -1       887 3.42088E-05 6.44548E-05 0.00000E+00
 -1       888 3.33995E-05 6.73683E-05-6.61744E-24
 -1       889 3.26446E-05 7.01322E-05-3.30872E-24
 -1       890 3.19601E-05 7.27109E-05 0.00000E+00
 -1       891 3.86346E-05 7.55481E-05 0.00000E+00
 -1       892 3.72033E-05 7.54504E-05-1.65436E-24
 -1       893 3.59410E-05 7.53530E-05-3.30872E-24
 -1       894 3.46654E-05 7.52558E-05-8.27181E-25
 -1       895 3.31948E-05 7.51583E-05 0.00000E+00
 -1       896 3.69819E-07 1.79606E-06 1.32349E-23
 -1       897 7.42890E-07 3.65436E-06-6.61744E-24
 -1       898 1.11569E-06 5.54885E-06 0.00000E+00
 -1       899 1.48910E-06 7.45404E-06 0.00000E+00
 -1       900 1.86255E-06 9.34878E-06-1.32349E-23
 -1       901 2.23618E-06 1.12118E-05 0.00000E+00
 -1       902 2.60994E-06 1.30089E-05-1.32349E-23
 -1       903 2.98387E-06 1.47047E-05 6.61744E-24
 -1       904 3.35806E-06 1.62228E-05 0.00000E+00
 -1       905 3.73251E-06 1.74838E-05 6.61744E-24
 -1       906 4.10733E-06 1.83036E-05-1.32349E-23
 -1       907 4.48203E-06 1.84911E-05 6.61744E-24
 -1       908 4.85620E-06 1.75979E-05-1.32349E-23
 -1       909 5.22576E-06 1.51579E-05 0.00000E+00
 -1       910 5.58598E-06 1.00778E-05 0.00000E+00
 -1       911 6.01282E-06-8.78268E-06-3.30872E-24
 -1       912 6.13245E-06-1.72330E-05 0.00000E+00
 -1       913 6.26154E-06-2.44095E-05-3.30872E-24
 -1       914 6.39752E-06-3.05831E-05 0.00000E+00
 -1       915 6.53841E-06-3.58693E-05-3.30872E-24
 -1       916 6.68305E-06-4.03774E-05-1.65436E-24
 -1       917 6.83081E-06-4.40961E-05 3.30872E-24
 -1       918 6.98114E-06-4.70088E-05-1.65436E-24
 -1       919 7.13365E-06-4.89736E-05-3.30872E-24
 -1       920 7.28758E-06-4.98423E-05 1.65436E-24
 -1       921 7.44158E-06-4.92965E-05-3.30872E-24
 -1       922 7.59286E-06-4.70086E-05-1.65436E-24
 -1       923 7.73600E-06-4.23804E-05 0.00000E+00
 -1       924 7.85993E-06-3.47983E-05 0.00000E+00
 -1       925 7.94668E-06-2.31926E-05-8.27181E-25
 -1       926 7.45757E-06 1.60219E-05 0.00000E+00
 -1       927 6.80388E-06 4.46949E-05-3.30872E-24
 -1       928 6.07793E-06 7.59480E-05-6.61744E-24
 -1       929 5.38199E-06 1.06149E-04 0.00000E+00
 -1       930 4.80243E-06 1.31910E-04-6.61744E-24
 -1       931 4.38641E-06 1.49890E-04 3.30872E-24
 -1       932 4.08697E-06 1.58534E-04 0.00000E+00
 -1       933 3.82116E-06 1.56388E-04 0.00000E+00
 -1       934 3.49118E-06 1.44456E-04 0.00000E+00
 -1       935 3.02522E-06 1.23851E-04-3.30872E-24
 -1       936 2.43732E-06 9.76715E-05-6.61744E-24
 -1       937 1.78505E-06 6.90757E-05 0.00000E+00
 -1       938 1.16667E-06 4.17792E-05 6.61744E-24
 -1       939 6.64387E-07 1.94844E-05 6.61744E-24
 -1       940 2.94007E-07 4.73690E-06-1.32349E-23
 -1       941 2.22231E-06 3.17977E-07 2.64698E-23
 -1       942 4.56707E-06 6.65445E-07 2.64698E-23
 -1       943 6.90414E-06 1.02758E-06 0.00000E+00
 -1       944 9.26450E-06 1.39118E-06 0.00000E+00
 -1       945 1.16255E-05 1.75550E-06 0.00000E+00
 -1       946 1.39913E-05 2.11990E-06 0.00000E+00
 -1       947 1.63575E-05 2.48434E-06 0.00000E+00
 -1       948 1.87245E-05 2.84878E-06-2.64698E-23
 -1       949 2.10917E-05 3.21323E-06 0.00000E+00
 -1       950 2.34582E-05 3.57772E-06 0.00000E+00
 -1       951 2.58243E-05 3.94249E-06 5.29396E-23
 -1       952 2.81867E-05 4.30783E-06 0.00000E+00
 -1       953 3.05485E-05 4.67911E-06 0.00000E+00
 -1       954 3.28915E-05 5.06231E-06 0.00000E+00
 -1       955 3.52407E-05 5.56601E-06 0.00000E+00
 -1       956 3.73679E-05 7.30430E-06-8.27181E-25
 -1       957 3.72427E-05 8.43733E-06-1.24077E-24
 -1       958 3.71168E-05 9.69700E-06-1.65436E-24
 -1       959 3.69907E-05 1.10686E-05 1.24077E-24
 -1       960 3.68643E-05 1.25373E-05-1.65436E-24
 -1       961 3.67378E-05 1.40883E-05 8.27181E-25
 -1       962 3.66111E-05 1.57066E-05 0.00000E+00
 -1       963 3.64844E-05 1.73774E-05 1.65436E-24
 -1       964 3.63576E-05 1.90857E-05 3.30872E-24
 -1       965 3.62308E-05 2.08165E-05-1.65436E-24
 -1       966 3.61040E-05 2.25551E-05 0.00000E+00
 -1       967 3.59772E-05 2.42864E-05-1.65436E-24
 -1       968 3.58506E-05 2.59954E-05 0.00000E+00
 -1       969 3.57241E-05 2.76675E-05-3.30872E-24
 -1       970 3.55981E-05 2.92877E-05 3.30872E-24
 -1       971 3.52249E-05 3.25115E-05-6.61744E-24
 -1       972 3.49684E-05 3.45329E-05 3.30872E-24
 -1       973 3.47114E-05 3.68631E-05-6.61744E-24
 -1       974 3.44527E-05 3.94591E-05 3.30872E-24
 -1       975 3.41933E-05 4.22768E-05 0.00000E+00
 -1       976 3.39331E-05 4.52718E-05 0.00000E+00
 -1       977 3.36726E-05 4.83994E-05 0.00000E+00
 -1       978 3.34117E-05 5.16146E-05 0.00000E+00
 -1       979 3.31507E-05 5.48720E-05 0.00000E+00
 -1       980 3.28898E-05 5.81264E-05 0.00000E+00
 -1       981 3.26291E-05 6.13324E-05 0.00000E+00
 -1       982 3.23689E-05 6.44448E-05-3.30872E-24
 -1       983 3.21094E-05 6.74185E-05-6.61744E-24
 -1       984 3.18518E-05 7.02089E-05 3.30872E-24
 -1       985 3.15946E-05 7.27715E-05-3.30872E-24
 -3
    1PSTEP                        42          21           1          
  100CL  121 9.53479E-01         841                     0   21           1
 -4  STRESS      6    1
 -5  SXX         1    4    1    1
 -5  SYY         1    4    2    2
 -5  SZZ         1    4    3    3
 -5  SXY         1    4    1    2
 -5  SYZ         1    4    2    3
 -5  SZX         1    4    3    1
 -1         1-3.70218E+06-1.21733E+06-7.57796E+05-1.15358E+06-1.98876E-10 9.68187E-09
 -1         2-1.94998E+06 1.05621E+04 3.42176E+04-5.38371E+04-5.12796E-09-2.62889E-09
 -1         3-1.26491E+06-4.27626E+05-3.22172E+04-7.20100E+04 3.68345E-09-5.45151E-09
 -1         4-9.14518E+05-1.08091E+05 7.33115E+03-3.65320E+04-1.55933E-09-1.79170E-10
 -1         5-6.74030E+05 1.06356E+05-2.49250E+05-2.09524E+04 1.33768E-08 5.85828E-09
 -1         8-1.65552E+06-6.44206E+05-1.93295E+05-6.94559E+05-1.60071E-10 9.09495E-10
 -1         9-1.96737E+06-4.59124E+05-2.10729E+05-4.76073E+05 2.84975E-10 2.32346E-09
 -1        10-6.43159E+05-3.93969E+05 6.64963E+04-8.18509E+04-3.28104E-09 1.45125E-09
 -1        11-3.58427E+05-1.58129E+04 1.70402E+04 2.45632E+04 4.74988E-08 1.44109E-09
 -1        12-3.25071E+05 1.84852E+05-1.65190E+05-6.22689E+04 2.34063E-08 1.76465E-09
 -1        15 4.77779E+04 1.24581E+05 2.65450E+04-1.86288E+01-3.62888E-10-4.47471E-09
 -1        16-1.53277E+06-3.25458E+05-9.94340E+03-5.72859E+05 2.44230E-09 2.31315E-10
 -1        17-8.26140E+05-5.24630E+05-9.54306E+04-4.07319E+05 9.45874E-11 1.47944E-09
 -1        18-2.10464E+05-7.19408E+04-8.58824E+04-1.05967E+05-1.54614E-11 1.31270E-09
 -1        19 7.31742E+04 1.49580E+05-3.71937E+04-3.16500E+04-6.13636E-09-1.87659E-09
 -1        20 1.34638E+05-9.97901E+04-1.63892E+04 7.15799E+04 7.72297E-09-8.38190E-09
 -1        21 2.47126E+03-2.00802E+05 5.09154E+04 6.29990E+02 2.09461E-08-3.60111E-10
 -1        22 5.05139E+04 2.16790E+05 6.13664E+03-1.19871E+04-2.25100E-10-3.01043E-09
 -1        23-2.11610E+05 1.20666E+05 2.05199E+04-3.83387E+04-7.39828E-09-4.65055E-10
 -1        24-3.07303E+05-5.93367E+03 3.25938E+05-5.77692E+05-1.18489E-08 5.28235E-09
 -1        25 7.04203E+05 2.57223E+05 2.22900E+05-3.69780E+05 1.12595E-09-5.25688E-10
 -1        26 2.23256E+03 2.25502E+05 1.17392E+04-4.09763E+04 1.85651E-09 1.78867E-11
 -1        27-5.13351E+04-8.50425E+04-3.67591E+04 9.77652E+04 9.89621E-09-2.03848E-09
 -1        28-1.71272E+04-1.57359E+05-9.39437E+02 7.55849E+04 9.70908E-09-3.67793E-09
 -1        29 5.11880E+05 3.30338E+05 1.28446E+03 3.28663E+03-2.69553E-10-3.62343E-09
 -1        30 2.51707E+05 4.50766E+04 6.04595E+03-2.47672E+04-1.34168E-09 2.09084E-08
 -1        31-3.27008E+05 1.03674E+05 1.36626E+04-7.84218E+03-1.41013E-08-1.99416E-08
 -1        32 1.19075E+06 6.36710E+05 7.46839E+05-5.94087E+05 2.01617E-08 3.01225E-09
 -1        33 1.64921E+06 7.01792E+05 5.16421E+05-6.34609E+04-2.01279E-08-1.42609E-09
 -1        34-2.70867E+05-3.74425E+04-1.05541E+04 5.24905E+04 1.32362E-09-4.79304E-10
 -1        35-4.42065E+04-5.19473E+04-9.91463E+02 1.12523E+05 2.05728E-08-2.40834E-09
 -1        36-4.36820E+06 1.24647E+05-2.89064E+05-9.97452E-08-5.32582E-10 1.62981E-09
 -1        37-4.49319E+06-1.44309E+05-2.04421E+05 6.29884E-08 1.86634E-09-7.05768E-09
 -1        38-4.41640E+06 1.94379E+04-7.47416E+04-2.25488E-07 1.31701E-09-3.07045E-09
 -1        39-4.43672E+06-2.24982E+04-4.69249E+04-8.57925E-08-3.54982E-09-4.52292E-09
 -1        40-4.42428E+06 3.02547E+03-1.91867E+04 3.39975E-08 1.50926E-09-1.51249E-09
 -1        41-4.42744E+06-3.54568E+03-1.14451E+04-4.69621E-07 1.35309E-09 2.20621E-09
 -1        42-4.42557E+06 5.15521E+02-5.61883E+03-4.78448E-07-1.41908E-09-5.44014E-09
 -1        43-4.42606E+06-9.16681E+02-4.48911E+03 4.05354E-07 2.66508E-09 1.11507E-09
 -1        44-4.42564E+06 4.00296E+02-4.57295E+03 2.92099E-07-1.17886E-09 6.98196E-09
 -1        45-4.42690E+06-2.55054E+03-8.41885E+03-2.18499E-07-1.64470E-09-8.88122E-10
 -1        46-4.42475E+06 2.14689E+03-1.37299E+04-1.70653E-07-3.90152E-10 4.95311E-09
 -1        47-4.43344E+06-1.59315E+04-3.32936E+04 2.50109E-08-2.85143E-09 6.92762E-09
 -1        48-4.41917E+06 1.37596E+04-5.29474E+04-4.76902E-07-2.01458E-09-2.30284E-09
 -1        49-4.47341E+06-1.02151E+05-1.44722E+05-2.51136E-07-2.45823E-09-1.63891E-09
 -1        50-4.38507E+06 8.82248E+04-2.04699E+05-1.56047E-09-4.10631E-09-5.42786E-09
 -1        51 4.25292E+04-5.00568E+05 6.90741E+04-1.36404E+06-1.16415E-10-1.96451E-09
 -1        52 2.16033E+04-4.98031E+05 4.22000E+04-1.50429E+06 6.47560E-10-2.80561E-08
 -1        53 1.56595E+04-5.15576E+05 3.35334E+04-1.36029E+06-2.40107E-10-1.82190E-08
 -1        54 3.43661E+04-5.13325E+05 5.08014E+04-1.50812E+06-4.36557E-11-8.32370E-09
 -1        55 7.17603E+04-5.30622E+05 9.14210E+04-1.35946E+06-2.18279E-10 9.31323E-10
 -1        56-6.24688E+06-7.01437E+05-5.17243E+05-2.41429E+06 1.34605E-09 4.65661E-09
 -1        57-6.47258E+06-1.14183E+06-3.47324E+05-2.37370E+06-1.21508E-09 2.96131E-09
 -1        58-6.34887E+06-8.63689E+05-1.21621E+05-2.38405E+06-1.02227E-09-8.91305E-09
 -1        59-6.35560E+06-9.49454E+05-7.21143E+04-2.40833E+06-1.74805E-09 2.83944E-09
 -1        60-6.36205E+06-8.87320E+05-2.83728E+04-2.38171E+06 9.49512E-10-3.46336E-09
 -1        61-6.34367E+06-9.18195E+05-1.60349E+04-2.40691E+06-3.75803E-09-5.62272E-09
 -1        62-6.36034E+06-8.94163E+05-7.83979E+03-2.38561E+06-1.98725E-10 3.23666E-09
 -1        63-6.35054E+06-9.05952E+05-6.52079E+03-2.39686E+06-4.67253E-10 2.16005E-08
 -1        64-6.35503E+06-8.99528E+05-7.67451E+03-2.39171E+06 1.95769E-09 5.00268E-09
 -1        65-6.36322E+06-8.98287E+05-1.54995E+04-2.38427E+06 3.69096E-09-3.72188E-09
 -1        66-6.34772E+06-9.01913E+05-2.74040E+04-2.39818E+06 1.01409E-09 5.69526E-09
 -1        67-6.38846E+06-9.14691E+05-6.95390E+04-2.36999E+06-2.62753E-09-1.34241E-09
 -1        68-6.33024E+06-8.83872E+05-1.17294E+05-2.40586E+06 8.58563E-10-4.64206E-09
 -1        69-6.50538E+06-1.09622E+06-3.34932E+05-2.33218E+06 6.12636E-09 5.28235E-09
 -1        70-6.23267E+06-7.26583E+05-4.98807E+05-2.43408E+06 3.20142E-10-1.39698E-09
 -1        71-2.73310E+06 2.39463E+04-5.56368E+04-3.46601E-08-1.15723E-09-1.09758E-08
 -1        72-2.75694E+06-2.77304E+04-3.93212E+04 2.69472E-07 1.81314E-09-9.42509E-09
 -1        73-2.74236E+06 3.73539E+03-1.44046E+04 1.81566E-07-1.72569E-09-2.86582E-09
 -1        74-2.74610E+06-4.32627E+03-9.06814E+03 1.60410E-07 8.75390E-10 4.63137E-09
 -1        75-2.74388E+06 5.83891E+02-3.76616E+03-2.71266E-07-1.01956E-09 3.14094E-09
 -1        76-2.74433E+06-7.00510E+02-2.35465E+03-1.26225E-07-5.02555E-10 4.69973E-09
 -1        77-2.74412E+06 1.15689E+02-1.36432E+03-3.35011E-07-7.39203E-10-2.19700E-09
 -1        78-2.74413E+06-3.01922E+02-1.48352E+03-2.24137E-07 2.38651E-10-5.40584E-09
 -1        79-2.74408E+06 1.85947E+02-2.00396E+03-1.11078E-07-8.49669E-10-3.72188E-09
 -1        80-2.74466E+06-1.30732E+03-4.20423E+03-8.90671E-08-3.84068E-10 2.40686E-09
 -1        81-2.74360E+06 1.11960E+03-7.10134E+03 5.83994E-08-2.14039E-09 6.66705E-09
 -1        82-2.74810E+06-8.33010E+03-1.73926E+04 1.39324E-07-2.48002E-09-5.98379E-09
 -1        83-2.74067E+06 7.19717E+03-2.77170E+04 4.09675E-08-1.96257E-09-5.46606E-09
 -1        84-2.76899E+06-5.34337E+04-7.57491E+04-1.21326E-07-3.38709E-09-3.26236E-09
 -1        85-2.72280E+06 4.61450E+04-1.07177E+05 3.50344E-08-2.26376E-09 9.24047E-10
 -1        86-9.75073E+04 3.55660E+05 2.30316E+05 6.25061E+03 7.27596E-11 1.66608E-09
 -1        87 1.23221E+05 4.62993E+05 1.81736E+05-2.80236E+04-4.91127E-11-6.17240E-09
 -1        88-2.54034E+04 3.90541E+05 9.70020E+04 3.74316E+03-1.46701E-09 1.75977E-09
 -1        89 9.55722E+04 4.48553E+05 1.45403E+05-2.60900E+04 7.17591E-10-3.26674E-09
 -1        90-6.98594E+04 3.69985E+05 1.68591E+05 4.31796E+03-1.79716E-09-2.05742E-09
 -1        91-1.75495E+06-3.98691E+05-4.08666E+04-7.80460E+05 1.05465E-08-2.38288E-10
 -1        92-1.50960E+06 1.36565E+05 9.29329E+04-1.82725E+05 2.71598E-08-8.68704E-09
 -1        93-1.45959E+06-3.45105E+05 7.99195E+02-7.47611E+05 2.36141E-08 1.63448E-09
 -1        94-1.19177E+06 5.77957E+04 1.26472E+05-1.88145E+05-2.87673E-09-5.79212E-09
 -1        95-2.05972E+06-3.33437E+05-1.18839E+05-7.63150E+05-8.97853E-09 1.97406E-09
 -1        96-7.99395E+05-1.92583E+05 1.51053E+05-4.63002E+05 1.61626E-08-9.59517E-11
 -1        97-1.84448E+06-1.02087E+05-3.38438E+04-4.68203E+05 1.81381E-08 2.98905E-09
 -1        98-1.05854E+06-4.10334E+05 5.80971E+04-7.87320E+05-9.13692E-08 1.81717E-09
 -1        99-1.82279E+06-9.31424E+04-2.85468E+04-4.56476E+05-1.48954E-07-1.69848E-09
 -1       100-8.09116E+05-2.07677E+05 1.44630E+05-4.82978E+05-7.31288E-08 6.39056E-09
 -1       101-2.07270E+06-3.26314E+05-1.23507E+05-7.55766E+05-1.98543E-08 6.92671E-09
 -1       102-1.16141E+06 4.74791E+04 1.22752E+05-1.90351E+05 3.50185E-08 6.47924E-09
 -1       103-1.47574E+06-3.43150E+05-1.77958E+04-7.51739E+05 2.48097E-08 1.11413E-08
 -1       104-1.53906E+06 1.06884E+05 4.76552E+04-1.77122E+05-1.27743E-08 1.77918E-08
 -1       105-1.70990E+06-3.70480E+05-9.70181E+04-7.82414E+05 2.76723E-08 1.65837E-08
 -1       106-2.01151E+06 1.85200E+04-4.30416E+04-1.21745E-07 1.64334E-09-5.99175E-09
 -1       107-2.02997E+06-2.14469E+04-3.04207E+04-1.87287E-07-1.44616E-09 5.37693E-09
 -1       108-2.01868E+06 2.88899E+03-1.11484E+04-2.87796E-08-1.14256E-10 2.86309E-09
 -1       109-2.02159E+06-3.34610E+03-7.01921E+03 7.26647E-08-1.77011E-09-1.26192E-09
 -1       110-2.01986E+06 4.51678E+02-2.91798E+03-7.12375E-08-9.46857E-10-5.97572E-09
 -1       111-2.02022E+06-5.42370E+02-1.82769E+03-2.34254E-07 1.26880E-09-4.42299E-09
 -1       112-2.02004E+06 8.99768E+01-1.06523E+03-1.14124E-07 1.21439E-09-2.29483E-09
 -1       113-2.02007E+06-2.37285E+02-1.16759E+03 1.30504E-07-4.37916E-10 5.72431E-09
 -1       114-2.02001E+06 1.47084E+02-1.58578E+03-2.37398E-08-9.19239E-12-1.33628E-09
 -1       115-2.02049E+06-1.03558E+03-3.33251E+03-2.76058E-07 1.75122E-09-1.94501E-09
 -1       116-2.01963E+06 8.87090E+02-5.63150E+03-6.40265E-08 3.61865E-10 2.70916E-09
 -1       117-2.02321E+06-6.60037E+03-1.37895E+04 3.81978E-08-1.98744E-09 4.14479E-09
 -1       118-2.01731E+06 5.70261E+03-2.19756E+04-5.96667E-08-2.80243E-09 3.34967E-09
 -1       119-2.03976E+06-4.23377E+04-6.00374E+04 3.76813E-07-1.30165E-09 1.50885E-09
 -1       120-2.00314E+06 3.65619E+04-8.49469E+04-1.01363E-07 4.55628E-10 6.18456E-10
 -1       121-2.19208E+03-1.43977E+06 8.38182E+03-5.39266E+03-4.77485E-10-1.59343E-09
 -1       122 2.54297E+03-1.43622E+06 4.82226E+03-2.37650E+04-5.03064E-10 2.94222E-09
 -1       123-1.81001E+02-1.43838E+06 6.68899E+02-4.49572E+03-1.20178E-09 3.95630E-09
 -1       124-1.53647E+03-1.43891E+06-2.55210E+03-2.53915E+04-8.12634E-10 3.90310E-09
 -1       125 1.27361E+03-1.43738E+06-5.50423E+03-3.76729E+03-2.20348E-09-4.08363E-10
 -1       126-7.49527E+05-1.25299E+05 4.32764E+04-2.34142E+05 5.15465E-08-6.46105E-09
 -1       127-3.72778E+05-7.84054E+04 8.31258E+04-2.56842E+05 4.36471E-08 1.65978E-08
 -1       128-6.65108E+05-5.08704E+04 1.12389E+04-1.81450E+05-3.91119E-08-7.38510E-09
 -1       129-4.81426E+05-1.60920E+05 1.59313E+04-3.22418E+05-6.20934E-08-1.45637E-08
 -1       130-6.46208E+05-3.88444E+04 3.06086E+03-1.72215E+05-4.76440E-08 6.35964E-09
 -1       131-4.29924E+05-1.40511E+05 2.29029E+04-2.78438E+05-1.00331E-08-3.83716E-09
 -1       132-7.13347E+05-7.37595E+04-2.00666E+04-2.23210E+05 1.08512E-08-9.70977E-09
 -1       133-3.51514E+05-6.70972E+04 5.04681E+04-1.68922E+05 1.27966E-09-9.69828E-09
 -1       134-7.18708E+05-1.16668E+05-3.03786E+04-2.77245E+05 1.13387E-08 1.06343E-09
 -1       135-4.53286E+05-7.03868E+03 4.17179E+04-1.06905E+05-3.67365E-08-1.45571E-08
 -1       136-6.13410E+05-1.32391E+05-1.38894E+04-2.86172E+05 3.43239E-08-4.41673E-09
 -1       137-6.36313E+05 1.13731E+04 8.28850E+03-1.12008E+05 4.12742E-08 3.25321E-08
 -1       138-5.41825E+05-1.30544E+05-3.18208E+03-2.77156E+05 6.81007E-09 1.42998E-08
 -1       139-6.37793E+05 1.03501E+04 2.52901E+02-1.11952E+05 8.08031E-08 6.17395E-08
 -1       140-6.11961E+05-1.31348E+05-3.27753E+04-2.86253E+05 1.33978E-08-2.66136E-08
 -1       141-1.28510E+06 8.70337E+03-2.02406E+04 3.60312E-08-9.20529E-10 4.82032E-10
 -1       142-1.29375E+06-1.00797E+04-1.43176E+04-1.42646E-07-2.13906E-09 7.68068E-09
 -1       143-1.28847E+06 1.35841E+03-5.27684E+03 6.85519E-08-1.26725E-09-7.63066E-10
 -1       144-1.28981E+06-1.57815E+03-3.37327E+03 6.80591E-08-3.09694E-10-4.07908E-10
 -1       145-1.28902E+06 2.17179E+02-1.51169E+03-8.75875E-08-1.07284E-09-8.29971E-09
 -1       146-1.28919E+06-2.92649E+02-1.15675E+03-8.48077E-08 8.12133E-10-7.79330E-09
 -1       147-1.28909E+06 7.51234E+01-1.05836E+03-3.01682E-07 1.04466E-09 2.56627E-09
 -1       148-1.28925E+06-3.60035E+02-1.77416E+03-8.77026E-08-1.08432E-09-2.74744E-09
 -1       149-1.28897E+06 2.84571E+02-2.96997E+03 3.33309E-07-2.99408E-11 5.84919E-09
 -1       150-1.29017E+06-2.10155E+03-6.68134E+03 4.51393E-07-1.29484E-09 1.75623E-09
 -1       151-1.28817E+06 1.81414E+03-1.14734E+04-4.53015E-09-6.60369E-10 4.71573E-09
 -1       152-1.29575E+06-1.35131E+04-2.82198E+04-1.73887E-07-1.14642E-09 3.32057E-09
 -1       153-1.28340E+06 1.16776E+04-4.50083E+04 4.02593E-07 2.88482E-09 1.62618E-09
 -1       154-1.32963E+06-8.66965E+04-1.22966E+05 3.35163E-07 7.89967E-10-7.14499E-09
 -1       155-1.25433E+06 7.48746E+04-1.73919E+05 2.35001E-07 7.77310E-09 2.90311E-09
 -1       156-3.58234E+04-1.77187E+05 7.96013E+04-3.37811E+04-1.15724E-08-2.03386E-09
 -1       157 4.24560E+04-1.13560E+05 6.42679E+04 1.39217E+05-2.96914E-08-9.89056E-09
 -1       158-5.70927E+03-1.61816E+05 2.62247E+04-3.37502E+04-1.45692E-08-1.52295E-09
 -1       159 2.51633E+04-4.92493E+04 5.04360E+04 1.32783E+05-5.55019E-09-1.26636E-09
 -1       160-2.15110E+04-2.37475E+05 1.38335E+04-2.73870E+04 2.89110E-08-2.12185E-09
 -1       161-7.80406E+05-1.08362E+05 8.07053E+03-2.64644E+05-9.78162E-09-2.16642E-09
 -1       162-5.91140E+05-1.21257E+05 2.95865E+04-3.01137E+05 2.62926E-08 2.48906E-09
 -1       163-7.47031E+05-6.92410E+04 3.31651E+03-2.29229E+05 8.18050E-08-1.32302E-08
 -1       164-6.27525E+05-1.60246E+05 5.93164E+03-3.37686E+05 1.01412E-07 8.66476E-09
 -1       165-7.46250E+05-6.76800E+04-5.37080E+02-2.29696E+05 9.20903E-08 5.75983E-09
 -1       166-5.99065E+05-1.35198E+05 1.40492E+04-2.97864E+05 3.99605E-08 2.93940E-09
 -1       167-7.73248E+05-9.60237E+04-1.25425E+04-2.67426E+05-5.75619E-09-8.04152E-09
 -1       168-5.97682E+05-8.06946E+04 2.37456E+04-2.26305E+05-3.44426E-08 8.87997E-09
 -1       169-7.45476E+05-1.23827E+05-1.40186E+04-2.99527E+05 9.88985E-09-8.59541E-09
 -1       170-6.93618E+05-4.27437E+04 9.81849E+03-1.89715E+05-2.39197E-10-2.65447E-09
 -1       171-6.79511E+05-1.32288E+05-8.43578E+03-3.05641E+05-1.01749E-07-1.16220E-08
 -1       172-7.66700E+05-3.90883E+04-1.53909E+04-1.84173E+05-6.70730E-08 7.38510E-09
 -1       173-6.74562E+05-1.25851E+05-3.08389E+04-3.06843E+05-1.34743E-07 1.62509E-08
 -1       174-7.27961E+05-9.82915E+04-7.19024E+04-1.79205E+05-1.43249E-07 3.48055E-08
 -1       175-7.16192E+05-7.47332E+04-1.38050E+05-3.08878E+05-2.09002E-08 1.18453E-08
 -1       191 2.89871E+03 7.21330E+05 4.70449E+03-3.88714E+04-4.76575E-10-1.05538E-08
 -1       192 1.00156E+03 7.22022E+05 2.63948E+03-4.22670E+04 4.56566E-10-1.57188E-08
 -1       193 3.52726E+02 7.21530E+05 1.82217E+03-3.85026E+04-1.06979E-09-7.25777E-09
 -1       194 9.08537E+02 7.21895E+05 2.39269E+03-4.29169E+04 5.59339E-10-4.00178E-10
 -1       195 2.55297E+03 7.21239E+05 4.09586E+03-3.82166E+04-1.72804E-09-5.63887E-11
 -1       251-2.16472E+06-3.76540E+03-1.01855E+05-1.47454E+05 2.35468E-09-6.53017E-09
 -1       252-1.73596E+06 4.43645E+03 1.39376E+04 3.99555E+05 6.22117E-09 1.46929E-09
 -1       253-2.01203E+06 9.04765E+03-2.29873E+04-1.87480E+05 4.77485E-10-1.27748E-08
 -1       254-1.46535E+06 1.79691E+04 9.19681E+04 2.46707E+05 2.06637E-09-2.79806E-09
 -1       255-2.41669E+06-3.58398E+04-9.98052E+04 5.57563E+03 1.55942E-08-2.51066E-09
 -1       256-1.40343E+06 2.94619E+04 1.11804E+05-1.59442E+05 2.93039E-09 1.83741E-09
 -1       257-2.06925E+06-7.02002E+03-2.32368E+04 2.17533E+05-2.88492E-09 9.79139E-09
 -1       258-1.76336E+06 2.58681E+04 4.27239E+04-3.67541E+05-2.42798E-09 8.25560E-09
 -1       259-2.08102E+06-8.13907E+03-2.57248E+04 2.14826E+05-1.03782E-08 1.00845E-08
 -1       260-1.39320E+06 2.96032E+04 1.13916E+05-1.50305E+05 1.26429E-08-5.61010E-09
 -1       261-2.41447E+06-3.55096E+04-9.90726E+04-8.57112E+02 4.44561E-09 5.94207E-09
 -1       262-1.47696E+06 1.77421E+04 9.01584E+04 2.55021E+05 1.88625E-08-4.81305E-09
 -1       263-2.00345E+06 9.73218E+03-2.02191E+04-1.89350E+05-1.64769E-08-6.39102E-09
 -1       264-1.73081E+06 6.34794E+03 1.72312E+04 3.97464E+05-8.00844E-08 2.01908E-10
 -1       265-2.17814E+06-6.66911E+03-1.01226E+05-1.43484E+05-3.06482E-08-1.33150E-09
 -1       266-4.42841E+04-1.88099E+05 1.02985E+05-1.19765E+04 1.67347E-10 1.20349E-09
 -1       267 4.96025E+04-1.39651E+05 7.10726E+04 5.27532E+04 1.79170E-10-5.46379E-10
 -1       268-5.48643E+03-1.73366E+05 2.12700E+04-1.10729E+04 1.09139E-11-6.59884E-09
 -1       269-5.90266E+02-1.46673E+05 7.35697E+03 4.84031E+04-1.32786E-10 3.86427E-09
 -1       270 5.14825E+03-1.80190E+05-1.62764E+04-7.64309E+03 2.29193E-10 1.20076E-08
 -1       271-5.23565E+06-6.63472E+05-4.11739E+05-2.03312E+06 5.96629E-10 5.67525E-09
 -1       272-5.38485E+06-9.28373E+05-2.59975E+05-2.02753E+06 8.73115E-11-9.22228E-09
 -1       273-5.31032E+06-7.54086E+05-9.70632E+04-2.01853E+06 5.33191E-11-4.13638E-09
 -1       274-5.29670E+06-8.12344E+05-5.32683E+04-2.05308E+06-2.31921E-11 7.45786E-10
 -1       275-5.32125E+06-7.61292E+05-2.25545E+04-2.01453E+06-2.18279E-10-1.10413E-09
 -1       276-5.28320E+06-8.03882E+05-1.19057E+04-2.06000E+06-6.58929E-10-1.29421E-09
 -1       277-5.32400E+06-7.60565E+05-6.10124E+03-2.01256E+06-2.97632E-09-4.15571E-09
 -1       278-5.28019E+06-8.04837E+05-4.76946E+03-2.06282E+06-2.05364E-09 1.12911E-09
 -1       279-5.32455E+06-7.60017E+05-5.69535E+03-2.01197E+06-2.94261E-09 1.68984E-09
 -1       280-5.28127E+06-8.05730E+05-1.08400E+04-2.06251E+06-1.38107E-09 4.04884E-09
 -1       281-5.32293E+06-7.59791E+05-2.03244E+04-2.01282E+06 4.83851E-10 8.39100E-09
 -1       282-5.29211E+06-8.14759E+05-4.80267E+04-2.05799E+06-5.43650E-10-6.40648E-09
 -1       283-5.31369E+06-7.52686E+05-8.74067E+04-2.01575E+06-1.45928E-09-7.42511E-09
 -1       284-5.37051E+06-9.20279E+05-2.34225E+05-2.03605E+06-1.17325E-09-7.71252E-10
 -1       285-5.24680E+06-6.70723E+05-3.70954E+05-2.02849E+06-2.11730E-09-1.20053E-08
 -1       286-6.18636E+05-2.95391E+04 6.85852E+04-2.57881E+03 1.82649E-09 2.56841E-09
 -1       287-5.87836E+05 3.42155E+04 4.86490E+04 2.12141E+03 1.21591E-09 1.24037E-08
 -1       288-6.07357E+05-4.63043E+03 1.76778E+04-2.53289E+02-8.77776E-10 7.30870E-09
 -1       289-6.01181E+05 5.35391E+03 1.13130E+04-2.58674E+03-2.84260E-10-4.51018E-09
 -1       290-6.05314E+05-7.32674E+02 4.53021E+03 2.12941E+03 1.16830E-09 8.13770E-10
 -1       291-6.03823E+05 8.63161E+02 2.83067E+03-6.42065E+03 3.75191E-09-1.11663E-09
 -1       292-6.04744E+05-1.27594E+02 1.41788E+03 3.58067E+03 2.03620E-09-3.89667E-09
 -1       293-6.04395E+05 2.68768E+02 1.25985E+03-7.81194E+03 1.23757E-09 3.93492E-09
 -1       294-6.04757E+05-1.27629E+02 1.40889E+03 3.52076E+03 1.58504E-09 1.64806E-09
 -1       295-6.03790E+05 8.57572E+02 2.81972E+03-6.20475E+03 1.43291E-09 3.26872E-09
 -1       296-6.05332E+05-7.28644E+02 4.49346E+03 1.97342E+03 4.83340E-10 5.85396E-09
 -1       297-6.01180E+05 5.31534E+03 1.12362E+04-2.24058E+03 5.52205E-10 2.19688E-09
 -1       298-6.07339E+05-4.59687E+03 1.75490E+04-4.43453E+02 3.81647E-10-2.93767E-09
 -1       299-5.87977E+05 3.39658E+04 4.82910E+04 2.46068E+03 5.12728E-11-4.79122E-09
 -1       300-6.18514E+05-2.93225E+04 6.80900E+04-2.72793E+03 2.32546E-10 3.63798E-11
 -1       301 7.06115E+04 1.81661E+04 1.54709E+05-3.97632E+04 3.65981E-09 1.49208E-09
 -1       302 2.39805E+04 4.70749E+04 9.45637E+04-4.68206E+04 2.70211E-09-2.20106E-09
 -1       303 6.89642E+03 2.84141E+04 7.55937E+04-3.99362E+04 3.76349E-09-4.69981E-10
 -1       304 3.06498E+04 5.09960E+04 1.12345E+05-4.67599E+04 2.80852E-09 1.05047E-09
 -1       305 9.22777E+04 1.42913E+04 1.97886E+05-3.97577E+04 3.73984E-09 2.18051E-09
 -1       306-3.58185E+06-4.64980E+05-2.41003E+05-1.38861E+06-5.31145E-10-6.73754E-09
 -1       307-3.64719E+06-6.40881E+05-1.51989E+05-1.40986E+06 1.77806E-10-1.58070E-09
 -1       308-3.62587E+06-5.17406E+05-5.68617E+04-1.37981E+06-5.70253E-10-3.36877E-09
 -1       309-3.59577E+06-5.73394E+05-3.11924E+04-1.42538E+06-1.75987E-10 4.55930E-09
 -1       310-3.63232E+06-5.21528E+05-1.32563E+04-1.37750E+06 3.58341E-10 4.94583E-09
 -1       311-3.58826E+06-5.68219E+05-7.06557E+03-1.42930E+06 3.14208E-09-4.82487E-10
 -1       312-3.63372E+06-5.21296E+05-3.75644E+03-1.37660E+06 1.29808E-09-1.11635E-09
 -1       313-3.58711E+06-5.68202E+05-3.20557E+03-1.43025E+06 3.66605E-09 7.51947E-09
 -1       314-3.63362E+06-5.21375E+05-4.17532E+03-1.37669E+06 9.68612E-11 3.46427E-09
 -1       315-3.58868E+06-5.68066E+05-8.21325E+03-1.42888E+06-3.70164E-09-7.45786E-10
 -1       316-3.63193E+06-5.21662E+05-1.55917E+04-1.37777E+06-1.24055E-09 3.79714E-09
 -1       317-3.59746E+06-5.74300E+05-3.67981E+04-1.42442E+06-4.77030E-10 1.11504E-09
 -1       318-3.62447E+06-5.16631E+05-6.70994E+04-1.38034E+06-9.69521E-10-8.94943E-10
 -1       319-3.65781E+06-6.54414E+05-1.79419E+05-1.40670E+06-1.91903E-10-1.96451E-09
 -1       320-3.57281E+06-4.54374E+05-2.84405E+05-1.39036E+06 1.45519E-10-1.03319E-09
 -1       321-6.19036E+05-3.26935E+04 6.52260E+04 7.52667E+03 4.57021E-11-6.69388E-10
 -1       322-5.36462E+05 3.75745E+04 5.58151E+04-3.45051E+04 1.20551E-08 6.03814E-09
 -1       323-5.92899E+05-5.30399E+03 1.64940E+04 2.16368E+04-8.09337E-09 3.31056E-10
 -1       324-5.74430E+05 6.55548E+03 1.26699E+04-5.38679E+04-3.53918E-08-6.84372E-09
 -1       325-5.82425E+05-6.97996E+02 4.78665E+03 2.69080E+04 4.83585E-09 1.52113E-09
 -1       326-5.76413E+05 1.74288E+03 3.97122E+03-5.36429E+04 6.27369E-09 6.63607E-09
 -1       327-5.90900E+05-5.15246E+02-5.25928E+02 2.14113E+04-2.26919E-08 9.37092E-09
 -1       328-5.52814E+05 1.16182E+03 6.49790E+03-3.36870E+04-4.57771E-09 3.10376E-09
 -1       329-6.04677E+05-1.16356E+03-4.41959E+03 6.93399E+03-4.86671E-09-1.12391E-09
 -1       330-5.38638E+05 1.17998E+03 8.49356E+03-1.18125E+03-5.73709E-09 2.00163E-09
 -1       331-6.04267E+05-1.16206E+03-5.11665E+03-1.10694E+04-2.54295E-09-5.62250E-09
 -1       332-5.54335E+05 6.98083E+02 4.15117E+03 3.10590E+04 3.44857E-08-1.06175E-08
 -1       333-5.89830E+05-2.45530E+01-4.32956E+03-2.52914E+04 2.84629E-08-6.39739E-09
 -1       334-5.80200E+05-3.26394E+03-6.15598E+03 5.04645E+04 2.44881E-08-2.63947E-09
 -1       335-5.79737E+05 3.82665E+03-1.06265E+04-3.05079E+04-2.42942E-08-3.18914E-09
 -1       336 1.51283E+03-1.43750E+06-8.42967E+03-6.60497E+03-2.93556E-09-8.07177E-10
 -1       337-3.16130E+03-1.44093E+06-1.07528E+04-3.91875E+04-2.10957E-09-5.08862E-09
 -1       338 1.41435E+03-1.43751E+06-1.46047E+04-6.38321E+03-2.87946E-09-8.82096E-10
 -1       339-1.60436E+04-1.44864E+06-3.36136E+04-3.93745E+04-1.05501E-09 2.21139E-09
 -1       340 1.19269E+04-1.42987E+06-5.16522E+04-6.42561E+03-2.04091E-09 1.45337E-09
 -1       341-1.59660E+06-3.09844E+05-6.55346E+04-7.04909E+05-3.92938E-08 3.18414E-09
 -1       342-1.58175E+06 1.93511E+03 1.60204E+04-2.99635E+05-8.37267E-08-5.86715E-09
 -1       343-1.47044E+06-3.06406E+05-1.31063E+04-6.95164E+05 2.03208E-08 7.40556E-09
 -1       344-1.34760E+06-4.07499E+04 6.60580E+04-3.25559E+05 4.22194E-08 1.57706E-09
 -1       345-1.82238E+06-2.75538E+05-6.90949E+04-6.71551E+05-4.00178E-11-6.00267E-11
 -1       346-1.10891E+06-2.28284E+05 7.87230E+04-5.41691E+05-3.70237E-08-7.46536E-09
 -1       347-1.70655E+06-1.21408E+05-1.58517E+04-4.77555E+05-5.87816E-08 3.11106E-08
 -1       348-1.22474E+06-3.65027E+05 2.98154E+04-7.37073E+05 5.29857E-08 4.96160E-08
 -1       349-1.71807E+06-1.27287E+05-2.04945E+04-4.85462E+05 4.58749E-08 1.44748E-08
 -1       350-1.10715E+06-2.19171E+05 7.74976E+04-5.27179E+05-3.98470E-08 3.23371E-09
 -1       351-1.81203E+06-2.79349E+05-7.50598E+04-6.77650E+05-6.62749E-09 5.72527E-09
 -1       352-1.37573E+06-4.53000E+04 4.42204E+04-3.19814E+05 2.73656E-09 8.11451E-09
 -1       353-1.45342E+06-2.97340E+05-4.04532E+04-6.95437E+05-5.30235E-10 6.41376E-09
 -1       354-1.60862E+06-6.21543E+04-7.07497E+04-2.88759E+05 5.66574E-08 1.94850E-08
 -1       355-1.58652E+06-2.55227E+05-1.96684E+05-7.15215E+05 1.68038E-08-6.25732E-09
 -1       356-6.08243E+05 4.52276E+03-1.33674E+04-3.44170E+04-3.97051E-09-3.99177E-09
 -1       357-6.10862E+05-3.82468E+03-8.18299E+03 6.14275E+04-5.63218E-08 6.08225E-10
 -1       358-6.15438E+05 1.77155E+02-4.53809E+03-3.15987E+04-1.97010E-08-5.69707E-09
 -1       359-5.82360E+05 9.31083E+02 3.76275E+03 4.39638E+04 1.44323E-08 2.34172E-09
 -1       360-6.35276E+05-1.36670E+03-6.10019E+03-1.69082E+04 1.95398E-08-7.17023E-09
 -1       361-5.55254E+05 1.56776E+03 1.02921E+04 8.04763E+03 2.50311E-08-3.96281E-09
 -1       362-6.41054E+05-1.61840E+03-6.97499E+03 4.31284E+03-6.06860E-09-2.93967E-09
 -1       363-5.66357E+05 1.26674E+03 7.70653E+03-3.19341E+04 1.50544E-08-7.51186E-11
 -1       364-6.24803E+05-5.74280E+02-4.85824E+03 2.30298E+04 2.69290E-08 9.45556E-09
 -1       365-5.99721E+05-1.08700E+02-1.86000E+03-5.92867E+04-5.68741E-08 1.36697E-09
 -1       366-6.09536E+05 1.19141E+03-7.39177E+03 3.16860E+04 3.78020E-08 6.98947E-09
 -1       367-6.10440E+05-7.39114E+03-1.73445E+04-6.36264E+04 4.34908E-08-3.29874E-09
 -1       368-6.14492E+05 7.00983E+03-3.11985E+04 2.73804E+04 1.77256E-08 4.07817E-09
 -1       369-6.03137E+05-5.35472E+04-7.36032E+04-4.31354E+04 4.01669E-08 2.47383E-10
 -1       370-6.15225E+05 4.60062E+04-1.20468E+05 1.11625E+04 1.40553E-08 3.19415E-09
 -1       371-1.83586E+04-2.33539E+05 1.07764E+04-2.27779E+04 3.73875E-08 3.49473E-09
 -1       372 1.51566E+04-8.04626E+04 3.00472E+04 1.14760E+05-3.67618E-09 4.19641E-09
 -1       373 1.18967E+03-1.70065E+05-1.53117E+03-2.90709E+04-5.90626E-09 4.45289E-09
 -1       374-1.18006E+04-1.54245E+05-1.25935E+04 1.21271E+05-2.24927E-08 3.46941E-09
 -1       375 1.10525E+04-1.63184E+05-2.71260E+04-2.92465E+04-8.97853E-09-6.43513E-09
 -1       376-5.56724E+05-1.12112E+05-2.15957E+04-2.56654E+05 1.01053E-07-4.62160E-09
 -1       377-6.19084E+05-1.32118E+04-5.46625E+03-1.32781E+05 8.15387E-08 1.70608E-08
 -1       378-5.28984E+05-1.15190E+05-3.29011E+03-2.53891E+05-6.84014E-08 2.06098E-08
 -1       379-5.92545E+05-1.23066E+04 6.26697E+03-1.31980E+05-7.78077E-08-1.76105E-08
 -1       380-5.82435E+05-1.13612E+05-1.03960E+04-2.56762E+05-5.70344E-09 7.18001E-09
 -1       381-4.74656E+05-3.25581E+04 2.63984E+04-1.39862E+05 2.45632E-08 7.66875E-09
 -1       382-6.43224E+05-9.76151E+04-1.86407E+04-2.43119E+05 2.48788E-08 2.27828E-10
 -1       383-4.19291E+05-7.95011E+04 2.79206E+04-1.91842E+05 3.76094E-08 8.40600E-10
 -1       384-6.37348E+05-6.70324E+04-1.22665E+04-2.04662E+05-6.39766E-08 7.59451E-09
 -1       385-4.63945E+05-1.30129E+05 7.79669E+03-2.63755E+05-9.00345E-08 9.12905E-11
 -1       386-6.02195E+05-4.43072E+04-4.87951E+03-1.73916E+05 4.55118E-08 3.19635E-08
 -1       387-4.91382E+05-1.49689E+05-9.58715E+03-2.85739E+05 6.78329E-08 1.57095E-08
 -1       388-6.11467E+05-4.63221E+04-2.44934E+04-1.83751E+05 1.48021E-07 1.35933E-08
 -1       389-4.61479E+05-1.48758E+05-4.08542E+04-2.28860E+05 1.41233E-07 7.84348E-09
 -1       390-6.28892E+05-4.76818E+04-1.05363E+05-2.28510E+05 9.98534E-09-1.89539E-09
 -1       406 2.12232E+03 7.12342E+05 4.25408E+03-7.95639E+04-2.25555E-09-1.98543E-09
 -1       407 1.33229E+03 7.13064E+05 4.82980E+03-8.75715E+04 5.33873E-10-5.84987E-09
 -1       408 1.94355E+03 7.12190E+05 7.66936E+03-7.93158E+04-2.80124E-09-5.68252E-09
 -1       409 7.51984E+03 7.15102E+05 1.62809E+04-8.78867E+04 5.54792E-10-2.30061E-08
 -1       410 2.14993E+04 7.10073E+05 3.27169E+04-7.92150E+04-2.99769E-09-3.05135E-09
 -1       466 1.39263E+06-5.60494E+04 1.18567E+05 4.69094E+04-1.01500E-09-1.63345E-08
 -1       467 1.51011E+06 6.30032E+04 9.49280E+04-7.54817E+04-1.73827E-10 2.27737E-09
 -1       468 1.43977E+06-7.75002E+03 3.18539E+04 1.29260E+04 6.45059E-10 1.08048E-09
 -1       469 1.45531E+06 8.79297E+03 2.08941E+04-2.97842E+04-2.08888E-09 2.75691E-09
 -1       470 1.44603E+06-1.09186E+03 8.50542E+03 1.19531E+03 1.23003E-09 3.62252E-09
 -1       471 1.44808E+06 1.34908E+03 5.41475E+03-1.40759E+04 3.07239E-10 1.16245E-10
 -1       472 1.44684E+06-2.13786E+02 3.28539E+03-2.78268E+03 3.50511E-10 1.58138E-09
 -1       473 1.44736E+06 7.38345E+02 3.77683E+03-9.05868E+03-1.23663E-09-3.55450E-09
 -1       474 1.44673E+06-4.69232E+02 5.32611E+03-3.82197E+03-1.85501E-10 2.63503E-09
 -1       475 1.44879E+06 3.50954E+03 1.12999E+04-8.66524E+03 1.19894E-09 2.83671E-09
 -1       476 1.44539E+06-2.98017E+03 1.91600E+04-3.17608E+03 3.03275E-09 3.63980E-09
 -1       477 1.45824E+06 2.23511E+04 4.69084E+04-1.24272E+04 4.27008E-10-2.34195E-09
 -1       478 1.43726E+06-1.92850E+04 7.46871E+04-5.98295E+01-2.72365E-10 1.63345E-09
 -1       479 1.51658E+06 1.43669E+05 2.04309E+05-2.52308E+04 3.69984E-09-5.55883E-09
 -1       480 1.38713E+06-1.24108E+05 2.88176E+05 9.62617E+03 5.05327E-09-1.97906E-09
 -1       481-1.54342E+04 3.26493E+05 2.29846E+04-2.67988E+04-3.71074E-10-1.51022E-09
 -1       482 1.62561E+04 4.03093E+05 2.87601E+04 8.37894E+04-1.85082E-10 8.39890E-09
 -1       483-1.89017E+03 3.58474E+05 9.85900E+03-1.86790E+04 3.00133E-11 3.91390E-09
 -1       484 6.91404E+03 3.71240E+05 1.31562E+04 7.57706E+04-1.77607E-10-1.69369E-09
 -1       485-5.11757E+03 3.56886E+05 1.20006E+04-1.87601E+04-3.04681E-11-2.54249E-09
 -1       486-1.34638E+06-2.81723E+05-1.66764E+05-6.84506E+05-6.55928E-09-1.70621E-08
 -1       487-1.40661E+06 6.64048E+04-3.45085E+04-1.22368E+05 1.12104E-08 5.13801E-08
 -1       488-1.33169E+06-3.07252E+05-5.46278E+04-6.74675E+05 8.84489E-09-8.90759E-09
 -1       489-8.72787E+05 4.95091E+04 1.20180E+05-1.26536E+05 7.81438E-09-6.31826E-09
 -1       490-1.86055E+06-2.83406E+05-1.26650E+05-6.63147E+05-1.09785E-08 6.75300E-09
 -1       491-6.03552E+05-1.84258E+05 1.39266E+05-4.11195E+05-1.83118E-08 3.33184E-08
 -1       492-1.59876E+06-7.55317E+04-3.01727E+04-3.90272E+05 8.97217E-09-1.52706E-08
 -1       493-9.02333E+05-3.76842E+05 4.66043E+04-7.08441E+05-9.50484E-09 7.62623E-09
 -1       494-1.58381E+06-6.98467E+04-2.59843E+04-3.82503E+05 8.88849E-09 1.66019E-08
 -1       495-6.14415E+05-1.94379E+05 1.35718E+05-4.26292E+05 2.50161E-08-5.20567E-08
 -1       496-1.86550E+06-2.78182E+05-1.25496E+05-6.56515E+05-2.41380E-09-2.08338E-08
 -1       497-8.48065E+05 4.64850E+04 1.26738E+05-1.29789E+05-7.73070E-12-1.70667E-08
 -1       498-1.35059E+06-3.10256E+05-5.39216E+04-6.77363E+05-8.67522E-09-3.53939E-08
 -1       499-1.40190E+06 7.57028E+04-2.12404E+04-1.24153E+05-1.05169E-08-4.44707E-08
 -1       500-1.33220E+06-2.87985E+05-1.43300E+05-6.80055E+05-4.57912E-08 3.94721E-08
 -1       501-9.47484E+05-3.60926E+04 7.58806E+04 5.81977E+03-3.19187E-09 6.91216E-11
 -1       502-8.74841E+05 4.15487E+04 6.07115E+04-2.94040E+04-3.95949E-09 7.15499E-09
 -1       503-9.22782E+05-5.76203E+03 1.94831E+04 2.46349E+04-7.44581E-09 1.06920E-08
 -1       504-9.08061E+05 7.00596E+03 1.37962E+04-5.31017E+04-5.58343E-09-1.99520E-09
 -1       505-9.15292E+05-7.85469E+02 5.29425E+03 2.95294E+04 1.17059E-08 1.55610E-08
 -1       506-9.04501E+05 1.75890E+03 5.10693E+03-4.60959E+04 1.94094E-08-1.60776E-09
 -1       507-9.26008E+05-8.27642E+02-9.60442E+02 1.76229E+04 1.13753E-08 8.48195E-09
 -1       508-8.87416E+05 1.20735E+03 6.20142E+03-1.21164E+04-1.76328E-10 8.35996E-10
 -1       509-9.31381E+05-1.06947E+03-3.13111E+03-4.45310E+03-6.03791E-09-2.11404E-09
 -1       510-8.93361E+05 9.35790E+02 4.40900E+03 2.91918E+04-6.61873E-09-6.91166E-09
 -1       511-9.20390E+05-2.66049E+02-1.22772E+03-2.36722E+04-1.68034E-08-3.27981E-09
 -1       512-9.10996E+05 5.07668E+02 4.65660E+02 5.36312E+04-2.61973E-08 2.18034E-09
 -1       513-9.14750E+05 1.96682E+02-7.66578E+02-2.89031E+04-1.19460E-08-1.35333E-08
 -1       514-9.05661E+05 7.89412E+01 5.22126E+00 4.72355E+04-5.80422E-09 5.11832E-10
 -1       515-9.25415E+05-1.15425E+02-5.68610E+03-1.72713E+04-7.02812E-09-6.37897E-09
 -1       516-8.12339E+04 2.78952E+05 1.90608E+05-1.67443E+04-7.63976E-10 1.37800E-09
 -1       517 9.62764E+04 3.68415E+05 1.40556E+05 6.92142E+04-1.58616E-09-2.98454E-09
 -1       518-1.49822E+04 3.06145E+05 5.89368E+04-1.76194E+04-2.65572E-10 2.00464E-09
 -1       519 3.80751E+04 3.73011E+05 6.83641E+04 7.78713E+04-3.86615E-09-7.07644E-09
 -1       520-2.42994E+04 2.76003E+05 4.79061E+04-2.54275E+04-1.80262E-09-1.89066E-08
 -1       521-5.09572E+06-6.52465E+05-3.55706E+05-1.96942E+06 1.10231E-09-2.88128E-09
 -1       522-5.21222E+06-8.93401E+05-2.24525E+05-1.97871E+06 1.59685E-09 3.96176E-09
 -1       523-5.16035E+06-7.30486E+05-8.38316E+04-1.95666E+06-2.48747E-10-2.91038E-11
 -1       524-5.13629E+06-7.93152E+05-4.60205E+04-2.00087E+06-1.29512E-09-3.82079E-09
 -1       525-5.16965E+06-7.36841E+05-1.94738E+04-1.95338E+06 1.21463E-09-1.10776E-09
 -1       526-5.12526E+06-7.85226E+05-1.03191E+04-2.00616E+06 4.68390E-09 1.19292E-09
 -1       527-5.17156E+06-7.36689E+05-5.32111E+03-1.95220E+06 2.20507E-09-1.29432E-09
 -1       528-5.12372E+06-7.84919E+05-4.26261E+03-2.00718E+06-1.70735E-09 2.09820E-09
 -1       529-5.17129E+06-7.36968E+05-5.21972E+03-1.95248E+06 1.17598E-09 2.06046E-09
 -1       530-5.12611E+06-7.84212E+05-1.00101E+04-2.00493E+06-3.01407E-09 9.13133E-10
 -1       531-5.16890E+06-7.37677E+05-1.88771E+04-1.95421E+06-3.61979E-10-2.32285E-09
 -1       532-5.13772E+06-7.90868E+05-4.45199E+04-1.99856E+06 8.18545E-11-1.69530E-09
 -1       533-5.15938E+06-7.32061E+05-8.11323E+04-1.95795E+06-2.97928E-09-6.10817E-09
 -1       534-5.21213E+06-8.86854E+05-2.17189E+05-1.97598E+06 2.21507E-09-5.09317E-09
 -1       535-5.09640E+06-6.57069E+05-3.44143E+05-1.97083E+06 9.53150E-10 4.29281E-09
 -1       536 5.33367E+04-2.03095E+04 8.66322E+04-1.23944E+04 8.22183E-10-3.05590E-09
 -1       537 8.53197E+04 2.69259E+04 5.55738E+04-4.84272E+04-3.40606E-09-2.26009E-09
 -1       538 6.63334E+04-2.23872E+03 2.23941E+04-1.22625E+04-5.49335E-10-1.46338E-09
 -1       539 7.03442E+04 2.52238E+03 1.25406E+04-4.85301E+04 2.34468E-09 1.14142E-09
 -1       540 6.77497E+04-3.09952E+02 5.62808E+03-1.22777E+04 2.88310E-10-1.59616E-09
 -1       541 6.83785E+04 2.18945E+02 2.98087E+03-4.84935E+04-3.20142E-10-4.98949E-09
 -1       542 6.78977E+04-4.97700E+01 1.37683E+03-1.23000E+04-2.62389E-10-4.24484E-09
 -1       543 6.79718E+04 5.50980E+01 6.75285E+02-4.84596E+04 2.07569E-09-4.02019E-09
 -1       544 6.79064E+04 9.55587E+00 2.38522E+02-1.23119E+04 2.47155E-09-4.07101E-09
 -1       545 6.78454E+04 4.31968E+01-5.92540E+01-4.84458E+04 3.33372E-09 4.15685E-09
 -1       546 6.79244E+04 3.32851E+01-3.71128E+02-1.23137E+04 2.52317E-09-1.17745E-09
 -1       547 6.77391E+04-1.69588E+02-9.69592E+02-4.84461E+04-3.25144E-11-2.15152E-09
 -1       548 6.80630E+04 1.56945E+02-1.81376E+03-1.23118E+04-9.52241E-10 4.48426E-09
 -1       549 6.67036E+04-2.21511E+03-4.49637E+03-4.83705E+04 4.54747E-12 4.98494E-09
 -1       550 6.91606E+04 1.55271E+03-7.08435E+03-1.23890E+04 1.09139E-11-7.13044E-10
 -1       551 2.54413E+04-4.79122E+05 4.81204E+04-7.17256E+05 5.22414E-09-2.11003E-10
 -1       552 1.51895E+04-4.72510E+05 3.78777E+04-8.39450E+05 4.14002E-09 5.77165E-09
 -1       553 1.07304E+04-4.79545E+05 4.37130E+04-7.16044E+05 6.24277E-09 3.22234E-09
 -1       554 3.20399E+04-4.63532E+05 8.18316E+04-8.39633E+05 5.35510E-09 3.79077E-09
 -1       555 7.96194E+04-4.89845E+05 1.54861E+05-7.16812E+05 5.44242E-09-3.87445E-09
 -1       556-3.70054E+05-1.88936E+05 2.95667E+04-3.38135E+05 3.00133E-09-1.10595E-09
 -1       557-3.42345E+05-2.18939E+05 1.45947E+04-3.59889E+05-2.29193E-10-4.48154E-09
 -1       558-3.71389E+05-1.98485E+05 6.06396E+03-3.32616E+05 3.56522E-10-6.91216E-11
 -1       559-3.45852E+05-2.23564E+05 3.00616E+03-3.61463E+05 6.98492E-10-8.23684E-09
 -1       560-3.72318E+05-1.98245E+05 1.29787E+03-3.32928E+05 2.44472E-09-2.32376E-09
 -1       561-3.46994E+05-2.23404E+05 6.28003E+02-3.62278E+05 9.24047E-10 3.16123E-09
 -1       562-3.72999E+05-1.97822E+05 1.99350E+02-3.33373E+05-2.21917E-10 2.78033E-09
 -1       563-3.47646E+05-2.23125E+05-3.52971E+01-3.62739E+05-1.04774E-09 6.14818E-10
 -1       564-3.73379E+05-1.97574E+05-3.39494E+02-3.33632E+05 4.27463E-10 1.76169E-09
 -1       565-3.47972E+05-2.22995E+05-8.44077E+02-3.62949E+05 2.08274E-10-1.65892E-09
 -1       566-3.73419E+05-1.97493E+05-1.81416E+03-3.33689E+05 1.85312E-08 7.45058E-09
 -1       567-3.48253E+05-2.23206E+05-4.01709E+03-3.62886E+05 2.33053E-08-5.23869E-09
 -1       568-3.72977E+05-1.98195E+05-8.28417E+03-3.33281E+05 1.24237E-08-4.45652E-09
 -1       569-3.52463E+05-2.28392E+05-1.95356E+04-3.61429E+05 2.10093E-09-1.65892E-09
 -1       570-3.70984E+05-2.13596E+05-3.99283E+04-3.26599E+05-4.14730E-10-7.70569E-09
 -1       571 4.58539E+05 2.19439E+04 3.37734E+04-1.19156E+05-4.18368E-10-7.50333E-11
 -1       572 4.63670E+05 7.45390E+03 1.65945E+04-1.31363E+05-3.21961E-10-3.30419E-09
 -1       573 4.60541E+05 1.64195E+03 7.38341E+03-1.18823E+05-3.34694E-10 3.04681E-10
 -1       574 4.61119E+05 5.05128E+02 3.71037E+03-1.31715E+05-1.88720E-10 5.85715E-10
 -1       575 4.60716E+05 3.71706E+01 1.75621E+03-1.18782E+05 1.89630E-10-6.83940E-10
 -1       576 4.60764E+05 8.00430E-02 8.99611E+02-1.31761E+05 7.13101E-10-2.23645E-09
 -1       577 4.60745E+05-3.21858E+01 4.50554E+02-1.18777E+05 8.22183E-10-8.26731E-10
 -1       578 4.60753E+05-3.21861E+01 2.59230E+02-1.31767E+05-2.54659E-10-2.79033E-09
 -1       579 4.60819E+05-6.09249E+01 1.80383E+02-1.18776E+05-3.14685E-10-3.41061E-09
 -1       580 4.60872E+05-8.74163E+01 2.06379E+02-1.31762E+05 7.03039E-10-4.02633E-09
 -1       581 4.60962E+05-1.29869E+02 3.16964E+02-1.18781E+05-1.84627E-09-4.69845E-09
 -1       582 4.61127E+05-1.07419E+02 6.35040E+02-1.31695E+05-2.54659E-09-1.24055E-09
 -1       583 4.61141E+05 1.72833E+01 1.22800E+03-1.18844E+05-1.59707E-09 3.39105E-09
 -1       584 4.61818E+05 9.22867E+02 2.76386E+03-1.31145E+05-2.00998E-09 1.53523E-09
 -1       585 4.61050E+05 3.28796E+03 5.59624E+03-1.19337E+05 2.52840E-09 2.76123E-09
 -1       586 4.23985E+03 1.97555E+05 7.17861E+03-2.94976E+05 6.16637E-10-3.66163E-09
 -1       587 2.53067E+03 1.98616E+05 6.81106E+03-3.26076E+05 9.85892E-10-5.33328E-09
 -1       588 2.85338E+03 1.97311E+05 9.60774E+03-2.94599E+05 5.74801E-10 1.12295E-08
 -1       589 9.46032E+03 2.00901E+05 1.96377E+04-3.26169E+05 1.10231E-09 1.76242E-08
 -1       590 2.59446E+04 1.95020E+05 3.90626E+04-2.94866E+05 9.40418E-10 1.21645E-08
 -1       591-2.11201E+05-7.30053E+04-4.06688E+04-1.09089E+05 2.00089E-10 1.34605E-10
 -1       592-2.12503E+05-6.78896E+04-1.99357E+04-1.21119E+05-1.10185E-09-5.41149E-11
 -1       593-2.12386E+05-5.78746E+04-8.45788E+03-1.16012E+05-4.60659E-10-2.31466E-09
 -1       594-2.08182E+05-6.23744E+04-4.13655E+03-1.21875E+05-5.50017E-10-3.29381E-09
 -1       595-2.12591E+05-5.73059E+04-1.90457E+03-1.16329E+05 3.20870E-09-6.15501E-10
 -1       596-2.07860E+05-6.21523E+04-9.66696E+02-1.21854E+05 3.57204E-10-7.82484E-09
 -1       597-2.12631E+05-5.73319E+04-5.28522E+02-1.16333E+05-2.68301E-11-1.50294E-09
 -1       598-2.07826E+05-6.21555E+04-4.27061E+02-1.21839E+05-5.34783E-10-2.27146E-09
 -1       599-2.12623E+05-5.73352E+04-5.48006E+02-1.16329E+05-2.06683E-10 2.96268E-09
 -1       600-2.07849E+05-6.21586E+04-1.01795E+03-1.21843E+05 3.00815E-10 7.66158E-09
 -1       601-2.12563E+05-5.73148E+04-2.01306E+03-1.16316E+05 6.08452E-10 5.42695E-09
 -1       602-2.08178E+05-6.23957E+04-4.37615E+03-1.21850E+05 1.34423E-09 4.27826E-09
 -1       603-2.12331E+05-5.79292E+04-8.94947E+03-1.15976E+05 5.41149E-09 3.22871E-09
 -1       604-2.12774E+05-6.81951E+04-2.10912E+04-1.20994E+05 8.16590E-09-5.24051E-09
 -1       605-2.11030E+05-7.39670E+04-4.30255E+04-1.08680E+05 7.42693E-09 3.84171E-09
 -1       606 1.47392E+05-1.83240E+04-2.80999E+04 4.24501E+04-9.37689E-09 1.48611E-09
 -1       607 1.43014E+05-6.22205E+03-1.37985E+04 4.63386E+04-3.75167E-09-5.18412E-10
 -1       608 1.45546E+05-1.36260E+03-6.14140E+03 4.21569E+04 7.00493E-09 2.26919E-09
 -1       609 1.44951E+05-3.55122E+02-3.07743E+03 4.66492E+04-2.30648E-09 2.89401E-09
 -1       610 1.45273E+05 4.60089E+01-1.45390E+03 4.21197E+04-9.95169E-09-3.45563E-09
 -1       611 1.45142E+05 1.19923E+02-7.31479E+02 4.66877E+04-1.73441E-08-4.27053E-09
 -1       612 1.45193E+05 1.35410E+02-3.49071E+02 4.21157E+04-7.39419E-09 5.58430E-10
 -1       613 1.45133E+05 1.55910E+02-1.61701E+02 4.66919E+04-1.06811E-08-2.55386E-09
 -1       614 1.45148E+05 1.44218E+02-5.10305E+01 4.21148E+04-8.49468E-10-1.71485E-09
 -1       615 1.45108E+05 1.69979E+02 3.51426E+01 4.66919E+04 1.02482E-08-1.23100E-09
 -1       616 1.45116E+05 1.61881E+02 1.35690E+02 4.21155E+04-6.09816E-09-6.06178E-10
 -1       617 1.45111E+05 2.29676E+02 3.24243E+02 4.66900E+04 3.80169E-10 5.26234E-09
 -1       618 1.45073E+05 3.20945E+02 6.62738E+02 4.21161E+04 1.26524E-08-3.24462E-09
 -1       619 1.45315E+05 8.72293E+02 1.49964E+03 4.66834E+04 2.40683E-08-1.00240E-08
 -1       620 1.44870E+05 2.17012E+03 3.05725E+03 4.21165E+04 1.29921E-08-2.51111E-09
 -1       621 3.53306E+03 4.76613E+05 8.56430E+03-3.86327E+04 4.18731E-09 4.05134E-09
 -1       622 1.38597E+03 4.78234E+05 7.10755E+03-4.53856E+04 1.71531E-09 2.80852E-09
 -1       623 8.35711E+02 4.76981E+05 8.77251E+03-3.86973E+04 3.63934E-09 5.06498E-09
 -1       624 5.04618E+03 4.80428E+05 1.69068E+04-4.51473E+04 1.16052E-09-2.57933E-09
 -1       625 1.54330E+04 4.74515E+05 3.23334E+04-3.88638E+04 3.33876E-09-4.17185E-09
 -1       626 2.12188E+05 6.88508E+04-1.21520E+04 1.43105E+05-3.72529E-09 1.00226E-09
 -1       627 2.06452E+05 7.75354E+04-5.76291E+03 1.45763E+05-2.27737E-09 5.15263E-09
 -1       628 2.12415E+05 7.48269E+04-2.42326E+03 1.40171E+05-9.78434E-09 1.06986E-08
 -1       629 2.07315E+05 8.00099E+04-1.16160E+03 1.45520E+05-2.07910E-08 3.38343E-09
 -1       630 2.12357E+05 7.52525E+04-5.13386E+02 1.39913E+05-1.15087E-08-3.65145E-09
 -1       631 2.07346E+05 8.02034E+04-2.28795E+02 1.45498E+05 9.55879E-10 4.82032E-09
 -1       632 2.12307E+05 7.52786E+04-6.37700E+01 1.39876E+05-5.33691E-09-4.32578E-09
 -1       633 2.07328E+05 8.02207E+04 5.83297E+01 1.45485E+05-7.65795E-10 5.07953E-10
 -1       634 2.12275E+05 7.52742E+04 2.09277E+02 1.39864E+05 3.94266E-09-3.03180E-09
 -1       635 2.07344E+05 8.02298E+04 4.98330E+02 1.45485E+05-3.58295E-09-2.44654E-09
 -1       636 2.12250E+05 7.52972E+04 1.04378E+03 1.39846E+05-1.20185E-08-5.52973E-09
 -1       637 2.07595E+05 8.05087E+04 2.33554E+03 1.45444E+05-8.13242E-09 6.14091E-09
 -1       638 2.12202E+05 7.61392E+04 4.84060E+03 1.39481E+05-3.38741E-09-5.33964E-09
 -1       639 2.10076E+05 8.48003E+04 1.15186E+04 1.44400E+05-1.92092E-08-3.49064E-09
 -1       640 2.12332E+05 8.85577E+04 2.42755E+04 1.34310E+05-4.00314E-09 2.78806E-09
 -1       641 7.47837E+03 4.22159E+03-9.83160E+03-2.41232E+02-1.25796E-08 3.72893E-10
 -1       642 3.28104E+03-4.88580E+03-6.93158E+03 1.07150E+03 7.68681E-09-6.63476E-10
 -1       643 5.84998E+03 6.57267E+02-2.53582E+03-2.33158E+02-2.29328E-08-1.53818E-10
 -1       644 5.17048E+03-7.55414E+02-1.56893E+03 1.05960E+03 8.15956E-09-2.26078E-09
 -1       645 5.58750E+03 9.96480E+01-6.06393E+02-2.29354E+02-6.90190E-09-4.36225E-09
 -1       646 5.47930E+03-1.01244E+02-2.84486E+02 1.05402E+03-5.05631E-07 5.11115E-10
 -1       647 5.54041E+03 4.70621E+00 5.52891E+00-2.27579E+02-6.78081E-05 2.01886E-07
 -1       648 5.56650E+03 6.26521E+01 2.81196E+02 1.05221E+03-1.34742E-04 4.10344E-07
 -1       649 5.50007E+03-6.38674E+01 6.32784E+02-2.27547E+02-6.78045E-05 2.01326E-07
 -1       650 5.79979E+03 4.90969E+02 1.52752E+03 1.05339E+03-4.83590E-07-4.45678E-09
 -1       651 5.30737E+03-4.23172E+02 2.66091E+03-2.28761E+02-1.36405E-08-7.28153E-09
 -1       652 7.11514E+03 3.15192E+03 6.57529E+03 1.05546E+03 5.72260E-09-3.37616E-09
 -1       653 4.18557E+03-2.72080E+03 1.04890E+04-2.29626E+02-7.51862E-09-4.68890E-09
 -1       654 1.50247E+04 2.01962E+04 2.86596E+04 1.04869E+03 1.32509E-08 4.69663E-09
 -1       655-2.59859E+03-1.74365E+04 4.05482E+04-2.22049E+02 3.01931E-09-5.06225E-09
 -1       656 1.43794E+04-5.51196E+05-6.49232E+04 1.56247E+04 1.65273E-08 4.91582E-10
 -1       657-2.14242E+04-5.74766E+05-4.73085E+04 5.84466E+04 1.13655E-08 2.49565E-09
 -1       658 2.74667E+03-5.59634E+05-3.01027E+04 1.54582E+04 1.15603E-08 5.19003E-09
 -1       659-1.95958E+04-5.73761E+05-4.41088E+04 5.85672E+04 1.12705E-08 4.81959E-10
 -1       660 1.29642E+04-5.52292E+05-5.88525E+04 1.55066E+04 1.24382E-08-2.10707E-09
 -1       661 5.35872E+05 6.89911E+04 4.39861E+04 2.10225E+05 4.07363E-09-6.45741E-09
 -1       662 5.46066E+05 1.03022E+05 2.77642E+04 2.16343E+05 1.15244E-09 3.10683E-09
 -1       663 5.43415E+05 7.90664E+04 1.03877E+04 2.09185E+05 1.40165E-09 1.57797E-10
 -1       664 5.37400E+05 8.99310E+04 5.72292E+03 2.18132E+05-2.17256E-08-1.14976E-08
 -1       665 5.44242E+05 8.01880E+04 2.43654E+03 2.09139E+05-1.67724E-08-1.73043E-09
 -1       666 5.36449E+05 8.85107E+04 1.32491E+03 2.18212E+05-1.70847E-08 1.22964E-09
 -1       667 5.44325E+05 8.03275E+04 7.40584E+02 2.09157E+05 9.62075E-09-9.33269E-10
 -1       668 5.36367E+05 8.83719E+04 6.97469E+02 2.18197E+05-1.28841E-08-3.28811E-09
 -1       669 5.44317E+05 8.03186E+04 9.78767E+02 2.09156E+05 4.97931E-09-5.57748E-10
 -1       670 5.36528E+05 8.86041E+04 1.98499E+03 2.18214E+05 3.40037E-08 6.29120E-09
 -1       671 5.44173E+05 8.01087E+04 3.77192E+03 2.09138E+05 5.87454E-09-9.27298E-09
 -1       672 5.38045E+05 9.08013E+04 8.93498E+03 2.18052E+05 1.04365E-10-6.12295E-09
 -1       673 5.42854E+05 7.83751E+04 1.62453E+04 2.09230E+05 4.74802E-09 5.09317E-11
 -1       674 5.51637E+05 1.11249E+05 4.34386E+04 2.15202E+05-1.49830E-08-6.68479E-10
 -1       675 5.31031E+05 6.26359E+04 6.88320E+04 2.10878E+05-1.01345E-08-7.16682E-10
 -1       676 1.44981E+03-5.17068E+05-7.54701E+03 8.76361E+02 1.50758E-08-4.64103E-09
 -1       677-2.85651E+03-5.19951E+05-8.16171E+03 4.14349E+02 7.13558E-09 1.09941E-08
 -1       678 8.94347E+02-5.17415E+05-9.66389E+03 8.74480E+02 1.82927E-08 5.46991E-09
 -1       679-1.02013E+04-5.24316E+05-2.11879E+04 4.13515E+02-6.66205E-09-1.47605E-09
 -1       680 7.36801E+03-5.12706E+05-3.21840E+04 8.74399E+02 1.58925E-08 3.35699E-09
 -1       681 6.40762E+05-1.62936E+04 3.59113E+04 8.78804E+03 3.68345E-10 1.02227E-09
 -1       682 6.66149E+05 1.86890E+04 2.71118E+04-2.56360E+04 4.23796E-10-1.36424E-10
 -1       683 6.50282E+05-2.44615E+03 9.38283E+03 2.38675E+03 9.88678E-10 1.48020E-09
 -1       684 6.54644E+05 2.86176E+03 6.18793E+03-1.64318E+04-2.08388E-10 4.18027E-10
 -1       685 6.52053E+05-3.51796E+02 2.49101E+03-4.16203E+02-1.61691E-10 3.49200E-09
 -1       686 6.52550E+05 4.88915E+02 1.57416E+03-1.29945E+04 6.97383E-10 6.04639E-09
 -1       687 6.52328E+05-4.41895E+01 9.33217E+02-1.05034E+03 8.81109E-11 3.81486E-09
 -1       688 6.52539E+05 1.91039E+02 1.03823E+03-1.35813E+04 1.81871E-10 4.72795E-09
 -1       689 6.52071E+05-5.92731E+01 1.36876E+03 1.70524E+02-2.53357E-09 1.51192E-09
 -1       690 6.54348E+05 6.83363E+02 3.18992E+03-1.84784E+04 2.17980E-09 3.79816E-09
 -1       691 6.50601E+05-5.89452E+02 4.74596E+03 3.84647E+03 6.97071E-10 1.32582E-09
 -1       692 6.63028E+05 5.16344E+03 1.35464E+04-3.00843E+04-1.56547E-09 2.30921E-09
 -1       693 6.43724E+05-4.75199E+03 1.82529E+04 1.17778E+04-1.78068E-09-3.26690E-09
 -1       694 7.04328E+05 3.83938E+04 5.98780E+04-5.42592E+04-1.29389E-08-1.33150E-09
 -1       695 6.10623E+05-3.46266E+04 6.93786E+04 2.80446E+04-1.06115E-08-1.23982E-08
 -1       696-1.39412E+04 5.99848E+05 3.16830E+04-4.66108E+03 6.54836E-11-1.64937E-09
 -1       697 1.47722E+04 6.14134E+05 2.01102E+04 6.87645E+03 1.90539E-10-3.54603E-10
 -1       698-8.23881E+02 6.06267E+05 3.18418E+03-2.81820E+03-2.24645E-10 1.62180E-09
 -1       699-7.61830E+03 6.03315E+05-9.23024E+03 4.40798E+03-4.24734E-10 3.46009E-09
 -1       700 8.42286E+03 6.10657E+05-1.86092E+04-2.19263E+03-2.51021E-10 9.44187E-10
 -1       701-6.04330E+05-7.64442E+04-8.65615E+04-2.59817E+05-3.17050E-09-1.36279E-08
 -1       702-6.18948E+05-6.80829E+04-4.28174E+04-1.54538E+05-3.34649E-09-7.79028E-09
 -1       703-5.70848E+05-1.07966E+05-1.90157E+04-2.58458E+05-1.19780E-09 6.94035E-09
 -1       704-6.49764E+05-3.16098E+04-9.37816E+03-1.57789E+05-1.63520E-08-1.15159E-08
 -1       705-5.74996E+05-1.11775E+05-5.45077E+03-2.57798E+05 1.66899E-08 7.45308E-09
 -1       706-5.94959E+05-3.52993E+04 7.64501E+03-1.61039E+05 1.20508E-08-1.77909E-08
 -1       707-6.24013E+05-1.05474E+05-1.05331E+04-2.53879E+05-5.15138E-09-5.62022E-09
 -1       708-5.15282E+05-6.29162E+04 1.89125E+04-1.85338E+05 1.15622E-08-7.41238E-10
 -1       709-6.52698E+05-8.56281E+04-1.22803E+04-2.32026E+05 1.48912E-08-6.77267E-09
 -1       710-5.03896E+05-1.06232E+05 1.14494E+04-2.39046E+05 7.09883E-09-8.41055E-10
 -1       711-6.36542E+05-6.13218E+04-7.75491E+03-2.01126E+05 9.67020E-10 3.11406E-08
 -1       712-5.35928E+05-1.40704E+05-8.77450E+03-2.81651E+05 3.59660E-09 3.53206E-08
 -1       713-6.22977E+05-4.94381E+04-1.84109E+04-1.91085E+05-6.60748E-10-2.63535E-08
 -1       714-5.44355E+05-1.63858E+05-4.82646E+04-2.65287E+05-1.15317E-08-3.29701E-08
 -1       715-6.27488E+05-3.86926E+04-8.65657E+04-2.17026E+05 8.43374E-09 2.32103E-09
 -1       716 3.73639E+05-2.51811E+04 4.83808E+04 2.00775E+04 1.63741E-08-4.99858E-09
 -1       717 4.53543E+05 2.76920E+04 4.43344E+04-4.40775E+04 8.52276E-09-1.02800E-08
 -1       718 3.99142E+05-3.48856E+03 1.24386E+04 9.98999E+03 2.78442E-09-1.67984E-09
 -1       719 4.20160E+05 3.67413E+03 1.05631E+04-2.83876E+04 1.10811E-09-8.77094E-10
 -1       720 4.05856E+05-4.19527E+02 3.33973E+03 4.36441E+03 3.67891E-10 1.93245E-09
 -1       721 4.11163E+05 5.18704E+02 2.94536E+03-1.98254E+04 6.01864E-09 7.73213E-10
 -1       722 4.07745E+05-7.17407E+01 1.67967E+03 1.42603E+03 5.68463E-09 3.77653E-09
 -1       723 4.08821E+05 4.98212E+02 2.45196E+03-1.57726E+04 2.11004E-09 4.77993E-09
 -1       724 4.08072E+05-3.13960E+02 3.69671E+03 3.12142E+02 9.12351E-09 3.77827E-09
 -1       725 4.09579E+05 2.58506E+03 8.08453E+03-1.50368E+04 6.69226E-09 6.82724E-09
 -1       726 4.06968E+05-2.14285E+03 1.37734E+04 6.90488E+02 7.81986E-09 3.94266E-09
 -1       727 4.17438E+05 1.62296E+04 3.40710E+04-1.74101E+04 9.56267E-09 3.85626E-09
 -1       728 4.00274E+05-1.39783E+04 5.37475E+04 2.68507E+03 3.41430E-09 9.27685E-10
 -1       729 4.62420E+05 1.04173E+05 1.48445E+05-2.39359E+04 7.89299E-10 3.56704E-09
 -1       730 3.62249E+05-9.00633E+04 2.07635E+05 7.21532E+03 4.39536E-09 1.09139E-09
 -1       731-1.97087E+04 1.95439E+05 3.09897E+04-1.63790E+04-7.61429E-09-6.27961E-09
 -1       732 2.09873E+04 2.92185E+05 3.60674E+04 4.63301E+04 3.75076E-09-1.44610E-10
 -1       733-2.57658E+03 2.22376E+05 6.54271E+03-9.39782E+03-1.74759E-09-1.52863E-09
 -1       734 1.70235E+03 2.53861E+05 7.27345E+03 3.50706E+04 1.57797E-09-9.36086E-09
 -1       735 6.31323E+02 2.32185E+05-1.60874E+03-5.08951E+03 1.48952E-09-6.84997E-09
 -1       736-1.04465E+06-1.76468E+05-9.13852E+04-4.91677E+05 2.73849E-08-7.73434E-09
 -1       737-1.20020E+06-7.69368E+04-4.93013E+04-2.66133E+05 3.15897E-08-1.10986E-08
 -1       738-1.13363E+06-2.02834E+05-3.46537E+04-4.87625E+05 9.82635E-09 1.35560E-08
 -1       739-9.83787E+05-9.25831E+04 2.75099E+04-3.10114E+05-1.53705E-10-5.58430E-10
 -1       740-1.25504E+06-1.65947E+05-3.32292E+04-4.42814E+05 3.01316E-09 1.73582E-08
 -1       741-9.21735E+05-1.95387E+05 2.81220E+04-4.44027E+05 2.01931E-08 4.48607E-08
 -1       742-1.19754E+06-9.84276E+04-5.16905E+03-3.55441E+05 1.31070E-08-2.31494E-08
 -1       743-9.75275E+05-2.53299E+05 8.14514E+03-5.27697E+05 1.39289E-09 3.03647E-08
 -1       744-1.20619E+06-1.03949E+05-7.83310E+03-3.62686E+05-9.17562E-08-3.11504E-08
 -1       745-9.16259E+05-1.82962E+05 3.17883E+04-4.27278E+05-4.86491E-08-9.09102E-09
 -1       746-1.25113E+06-1.73491E+05-3.34727E+04-4.51732E+05-7.55108E-09-1.71076E-09
 -1       747-1.00615E+06-8.29292E+04 2.60476E+04-3.01476E+05 1.38809E-08-6.14955E-09
 -1       748-1.11574E+06-2.04466E+05-2.94374E+04-4.87761E+05 1.97399E-08 2.75386E-08
 -1       749-1.20751E+06-7.13247E+04-4.52111E+04-2.66569E+05 9.80731E-09 4.69990E-08
 -1       750-1.05556E+06-1.80152E+05-8.50473E+04-4.91393E+05 8.26913E-09 2.96677E-08
 -1       751 4.07331E+06-2.32447E+05 5.42518E+05 1.98967E+04-2.88330E-08 5.23869E-10
 -1       752 4.30978E+06 2.69258E+05 3.83166E+05-2.20537E+04-4.59721E-09-1.70985E-09
 -1       753 4.16501E+06-3.62237E+04 1.40652E+05 2.87561E+03 7.55321E-10-1.51340E-09
 -1       754 4.20352E+06 4.19394E+04 8.82643E+04-2.75327E+03-8.79723E-10 7.63976E-10
 -1       755 4.17997E+06-5.63965E+03 3.62586E+04 6.01228E+02-3.51874E-09-2.06455E-09
 -1       756 4.18629E+06 6.61050E+03 2.16371E+04-1.69175E+02 2.88190E-09 4.77485E-11
 -1       757 4.18244E+06-9.61413E+02 1.06735E+04 2.91592E+02-9.82149E-10-3.76076E-10
 -1       758 4.18373E+06 1.71105E+03 8.52948E+03 1.76225E+02-2.81933E-09 1.05180E-09
 -1       759 4.18257E+06-7.47955E+02 8.69761E+03 2.55826E+02-1.90953E-09-3.46586E-09
 -1       760 4.18529E+06 4.76679E+03 1.59415E+04 1.68378E+02-2.80539E-09-1.19621E-09
 -1       761 4.18085E+06-4.01217E+03 2.59810E+04 2.99438E+02 3.63454E-09-5.31054E-09
 -1       762 4.19746E+06 2.97705E+04 6.27135E+04-2.36169E+02 6.68587E-09 8.29459E-10
 -1       763 4.17026E+06-2.57055E+04 9.97424E+04 6.60358E+02 5.40075E-09 3.21961E-09
 -1       764 4.27188E+06 1.90842E+05 2.71432E+05-3.28490E+03 1.40249E-09 2.02272E-09
 -1       765 4.10602E+06-1.64731E+05 3.84455E+05 3.34755E+03-3.00756E-09-8.29459E-10
 -1       766-9.22608E+04 3.92072E+05 2.12863E+05-2.56881E+04 4.30737E-09 2.53408E-09
 -1       767 1.09893E+05 5.05459E+05 1.60928E+05 1.07068E+05 1.94450E-09 3.88115E-09
 -1       768-1.71777E+04 4.32322E+05 7.03099E+04-2.33079E+04 4.92037E-09-2.24952E-09
 -1       769 5.08631E+04 5.16648E+05 8.84072E+04 1.16797E+05 4.28099E-09 6.30951E-09
 -1       770-3.47253E+04 3.82887E+05 6.54698E+04-3.54359E+04-3.01261E-08 6.38147E-09
 -1       771-2.34130E+06-4.72453E+05-8.28732E+04-1.00966E+06-1.02955E-09 4.51109E-10
 -1       772-2.33622E+06-4.69184E+05-4.05450E+04-1.04241E+06-3.35785E-09-2.35741E-09
 -1       773-2.34485E+06-4.40908E+05-1.72851E+04-1.02353E+06-8.07631E-10-8.33097E-10
 -1       774-2.32752E+06-4.58442E+05-8.41277E+03-1.04537E+06 4.94765E-10-1.24928E-08
 -1       775-2.34602E+06-4.39260E+05-3.92459E+03-1.02444E+06 2.47383E-10 1.11868E-10
 -1       776-2.32737E+06-4.57892E+05-1.96659E+03-1.04602E+06 1.29148E-09-3.91788E-09
 -1       777-2.34670E+06-4.38961E+05-1.09652E+03-1.02472E+06 5.98448E-09 1.04353E-08
 -1       778-2.32771E+06-4.57769E+05-8.47482E+02-1.04646E+06 2.83762E-10-2.37861E-09
 -1       779-2.34710E+06-4.38716E+05-1.08848E+03-1.02491E+06 6.54836E-11-1.35788E-09
 -1       780-2.32805E+06-4.57687E+05-1.98892E+03-1.04679E+06-6.44832E-10 2.97405E-10
 -1       781-2.34724E+06-4.38521E+05-3.94245E+03-1.02501E+06-2.19552E-09-4.58112E-09
 -1       782-2.32885E+06-4.58110E+05-8.57832E+03-1.04697E+06-1.09139E-09-2.12822E-10
 -1       783-2.34688E+06-4.39670E+05-1.75637E+04-1.02439E+06 1.33150E-09 5.55519E-09
 -1       784-2.33786E+06-4.69568E+05-4.14523E+04-1.04536E+06 3.61297E-10 2.87400E-10
 -1       785-2.34434E+06-4.71189E+05-8.45994E+04-1.01000E+06 2.60343E-10-1.63709E-10
 -1       786 4.16474E+05-1.24792E+04 5.41649E+04-3.02419E+03 6.55746E-10 3.80169E-09
 -1       787 4.35994E+05 1.69769E+04 3.46807E+04-1.23180E+04-7.32712E-10 2.83035E-09
 -1       788 4.24637E+05-1.28613E+03 1.40360E+04-3.03500E+03-8.91305E-11 1.90812E-09
 -1       789 4.26890E+05 1.66642E+03 7.83448E+03-1.22798E+04-8.50605E-10-9.66907E-10
 -1       790 4.25560E+05-1.39944E+02 3.56608E+03-3.06039E+03 7.61361E-10 1.52113E-10
 -1       791 4.25839E+05 1.60203E+02 1.91336E+03-1.22431E+04 8.85763E-10-1.78375E-09
 -1       792 4.25678E+05-1.78443E+01 9.81656E+02-3.07171E+03 4.74898E-10 6.29427E-10
 -1       793 4.25708E+05 1.96059E+01 6.53386E+02-1.22356E+04 3.86194E-10 3.26568E-09
 -1       794 4.25689E+05-1.03734E+01 6.05525E+02-3.06796E+03-9.45079E-10-3.45892E-10
 -1       795 4.25751E+05 6.75452E+01 9.23099E+02-1.22587E+04 1.66131E-09 1.99657E-09
 -1       796 4.25642E+05-6.36999E+01 1.59392E+03-3.04853E+03 2.19359E-09 2.01084E-09
 -1       797 4.26213E+05 7.17919E+02 3.42879E+03-1.23098E+04 3.03862E-09 2.24986E-10
 -1       798 4.25243E+05-5.64695E+02 6.11058E+03-3.01686E+03 1.64823E-09 2.97860E-10
 -1       799 4.30183E+05 7.36935E+03 1.50825E+04-1.23566E+04-6.41535E-10-2.33922E-09
 -1       800 4.21696E+05-5.43572E+03 2.35420E+04-3.00280E+03 2.91948E-10-1.09139E-10
 -1       801-1.98795E+04 4.92615E+05 6.57779E+04-3.49352E+05 1.70257E-09 1.30967E-09
 -1       802 4.91892E+04 5.08320E+05 7.09368E+04-1.36027E+06-8.60746E-09-3.14139E-09
 -1       803 7.53715E+02 4.90861E+05 7.30170E+04-3.48864E+05 4.11819E-09 9.06721E-09
 -1       804 9.44813E+04 5.36635E+05 1.52059E+05-1.36014E+06-1.23473E-08-6.40830E-09
 -1       805-5.73262E+04 4.65896E+05 2.19041E+05-3.49512E+05 4.11092E-09 3.28873E-09
 -1       806-4.36234E+05-1.15580E+05-3.70234E+04-2.00294E+05 3.99859E-09 2.52112E-09
 -1       807-4.36466E+05-1.06172E+05-1.75649E+04-2.11550E+05 1.24169E-09-1.84855E-09
 -1       808-4.36037E+05-9.66780E+04-7.38479E+03-2.08284E+05 5.86215E-09 9.56334E-09
 -1       809-4.32822E+05-9.95215E+04-3.56840E+03-2.13085E+05 2.28465E-09-2.29244E-09
 -1       810-4.36134E+05-9.53814E+04-1.61353E+03-2.08870E+05-1.09821E-09-4.54747E-12
 -1       811-4.32468E+05-9.90789E+04-8.09112E+02-2.13150E+05-3.89946E-09-3.99132E-09
 -1       812-4.36165E+05-9.53425E+04-4.24570E+02-2.08898E+05-3.01270E-11-1.02591E-09
 -1       813-4.32427E+05-9.90674E+04-3.16137E+02-2.13139E+05 5.08180E-11-3.10138E-10
 -1       814-4.36158E+05-9.53499E+04-3.71977E+02-2.08892E+05-3.85853E-10-2.66755E-09
 -1       815-4.32444E+05-9.90850E+04-6.69233E+02-2.13133E+05 1.47656E-09-1.42063E-09
 -1       816-4.36114E+05-9.53925E+04-1.31287E+03-2.08860E+05-4.18004E-09 8.82210E-10
 -1       817-4.32722E+05-9.94423E+04-2.89268E+03-2.13055E+05-1.59343E-09-1.29239E-09
 -1       818-4.36011E+05-9.64617E+04-5.98211E+03-2.08384E+05 1.47338E-10-3.51065E-10
 -1       819-4.35724E+05-1.04760E+05-1.42230E+04-2.11714E+05-1.37879E-09 7.57336E-09
 -1       820-4.36085E+05-1.11829E+05-2.99787E+04-2.01972E+05-1.84536E-09 1.65346E-09
 -1       821-4.37733E+05 1.30014E+04-5.64896E+04 3.01813E+03-3.96949E-09-6.13363E-09
 -1       822-4.58046E+05-1.77092E+04-3.61686E+04 1.30091E+04-1.95200E-09-7.78527E-10
 -1       823-4.46255E+05 1.33226E+03-1.46455E+04 2.89174E+03 3.70619E-09 3.54703E-11
 -1       824-4.48597E+05-1.71409E+03-8.17566E+03 1.31959E+04-1.17552E-09 1.13585E-09
 -1       825-4.47223E+05 1.47207E+02-3.74069E+03 2.82909E+03-8.79118E-09-1.85310E-09
 -1       826-4.47536E+05-1.28257E+02-2.03531E+03 1.32997E+04-1.63432E-08 3.21336E-09
 -1       827-4.47348E+05 2.74948E+01-1.10786E+03 2.78750E+03-8.73888E-09-1.30501E-09
 -1       828-4.47426E+05 2.06832E+01-8.54106E+02 1.33646E+04-1.15194E-08-7.57524E-10
 -1       829-4.47354E+05 2.76552E+01-9.69950E+02 2.76406E+03-1.34264E-09 3.62301E-09
 -1       830-4.47525E+05-8.53797E+01-1.67565E+03 1.33918E+04 7.88327E-09-8.79702E-10
 -1       831-4.47258E+05 1.28017E+02-3.01990E+03 2.76027E+03-2.62580E-09-3.12139E-09
 -1       832-4.48393E+05-1.35062E+03-6.57338E+03 1.33798E+04 3.34239E-10 1.31877E-11
 -1       833-4.46484E+05 1.08350E+03-1.17557E+04 2.77647E+03-1.29603E-11 3.40515E-09
 -1       834-4.55992E+05-1.41843E+04-2.90348E+04 1.33102E+04-1.83138E-09-3.89400E-09
 -1       835-4.39647E+05 1.04540E+04-4.53380E+04 2.83377E+03 1.87651E-09 6.54836E-11
 -1       836-2.09222E+04 1.13246E+06 9.58488E+04-3.03945E+04-1.72804E-09 4.22187E-09
 -1       837 3.23346E+04 1.16757E+06 7.45315E+04-1.14857E+05 4.77485E-09-5.48880E-10
 -1       838-5.00705E+03 1.14374E+06 5.52363E+04-3.04761E+04-2.82762E-09 3.82960E-09
 -1       839 4.28157E+04 1.17376E+06 9.31228E+04-1.14826E+05 4.98039E-09-5.44105E-09
 -1       840-2.93359E+04 1.12623E+06 1.31054E+05-3.04237E+04-2.40107E-09-3.35785E-09
 -1       841-3.70478E+04 1.73360E+03-1.81110E+04-1.71505E+04-5.23050E-09 1.67711E-09
 -1       842-4.69677E+04-1.44021E+04-1.25491E+04-1.35201E+04-3.78526E-09-4.30452E-09
 -1       843-4.07046E+04-4.78120E+03-4.24464E+03-1.59578E+04 3.43152E-09 4.32487E-09
 -1       844-4.27417E+04-6.83991E+03-2.63611E+03-1.48791E+04 4.44076E-09-2.63114E-09
 -1       845-4.12731E+04-5.81724E+03-9.73174E+02-1.57962E+04-2.69011E-10 3.31050E-09
 -1       846-4.20925E+04-5.62594E+03-5.40024E+02-1.50541E+04-8.76034E-09 3.06127E-09
 -1       847-4.13540E+04-5.99324E+03-1.76504E+02-1.57837E+04-6.20884E-09-2.87137E-09
 -1       848-4.19884E+04-5.39459E+03-4.17924E+00-1.50673E+04-5.71991E-09-1.38927E-09
 -1       849-4.13774E+04-6.04813E+03 1.66222E+02-1.57833E+04 6.46202E-09 3.30459E-10
 -1       850-4.18665E+04-5.18412E+03 5.20310E+02-1.50957E+04 1.50453E-08 1.62487E-10
 -1       851-4.14760E+04-6.20341E+03 9.35973E+02-1.57555E+04-3.82447E-09-1.43558E-09
 -1       852-4.11794E+04-4.05654E+03 2.54603E+03-1.53104E+04-3.05897E-09-2.62889E-09
 -1       853-4.20640E+04-7.17423E+03 4.08841E+03-1.55691E+04-1.95217E-09 3.31374E-09
 -1       854-3.70074E+04 3.16356E+03 1.21087E+04-1.66992E+04 1.67358E-09 7.78891E-09
 -1       855-4.56455E+04-1.34127E+04 1.74568E+04-1.43702E+04 2.10593E-09 6.15455E-09
 -1       856-5.14498E+05 1.20229E+04-5.23420E+04 5.97405E+03-8.66930E-09-1.46429E-09
 -1       857-5.33296E+05-1.63275E+04-3.34938E+04 2.62616E+04-1.06320E-08-2.27510E-09
 -1       858-5.22403E+05 1.23967E+03-1.35707E+04 5.75459E+03-9.79708E-09-5.25688E-10
 -1       859-5.24617E+05-1.48598E+03-7.56478E+03 2.65847E+04 6.18343E-09-1.17047E-08
 -1       860-5.23310E+05 1.57750E+02-3.45693E+03 5.64638E+03 1.22827E-09-5.88761E-09
 -1       861-5.23678E+05 1.24348E+00-1.86387E+03 2.67489E+04-1.75760E-08-1.89777E-09
 -1       862-5.23432E+05 5.44974E+01-9.86075E+02 5.58925E+03 7.82802E-09-3.33910E-09
 -1       863-5.23587E+05 1.48073E+02-7.09644E+02 2.68190E+04 2.63506E-08-4.80168E-09
 -1       864-5.23441E+05 5.23367E+01-7.40683E+02 5.57603E+03 1.45217E-08-2.86900E-09
 -1       865-5.23641E+05 7.01188E+01-1.22093E+03 2.68003E+04 1.53899E-08-6.28700E-09
 -1       866-5.23368E+05 1.16147E+02-2.17223E+03 5.60806E+03 1.18303E-09-6.76943E-09
 -1       867-5.24216E+05-8.51779E+02-4.70161E+03 2.66898E+04 5.63045E-09-7.43330E-09
 -1       868-5.22805E+05 7.83080E+02-8.41326E+03 5.68729E+03 8.54652E-09-1.91449E-09
 -1       869-5.29572E+05-1.00510E+04-2.07484E+04 2.64289E+04 3.91083E-11-1.96451E-10
 -1       870-5.17906E+05 7.45418E+03-3.24264E+04 5.87267E+03 1.04656E-08 7.74889E-10
 -1       871-5.17256E+03-4.66477E+04-9.00988E+03 1.34324E+05 7.74708E-09-6.76755E-09
 -1       872-1.80739E+03-4.82537E+04-2.64036E+03 1.57055E+05 4.59477E-09-1.47884E-09
 -1       873-1.01594E+02-4.77187E+04 2.61387E+03 1.34074E+05 7.40101E-09 5.00131E-09
 -1       874 2.89555E+03-4.55808E+04 9.79759E+03 1.57171E+05 6.97582E-09 6.27665E-09
 -1       875 1.00318E+04-4.94872E+04 2.11669E+04 1.34238E+05 2.23736E-09 4.05998E-09
 -1       876 6.18802E+05 7.83731E+04 5.85585E+04 2.44202E+05 4.66162E-09-2.23736E-09
 -1       877 6.31827E+05 1.24291E+05 3.69683E+04 2.53046E+05-5.81082E-09-1.95405E-09
 -1       878 6.28812E+05 9.18243E+04 1.38235E+04 2.42846E+05 8.97899E-10-2.24645E-09
 -1       879 6.20322E+05 1.06807E+05 7.61517E+03 2.55347E+05-1.58698E-08-7.17546E-09
 -1       880 6.29883E+05 9.33513E+04 3.22867E+03 2.42814E+05-1.34442E-08-4.45561E-09
 -1       881 6.19089E+05 1.04869E+05 1.73587E+03 2.55386E+05-1.46166E-08-1.33882E-08
 -1       882 6.29970E+05 9.35646E+04 9.26277E+02 2.42862E+05 7.86326E-09 1.79563E-09
 -1       883 6.19000E+05 1.04640E+05 7.98824E+02 2.55313E+05-1.15647E-08-4.88299E-10
 -1       884 6.29949E+05 9.35783E+04 1.04249E+03 2.42878E+05 3.85199E-10 9.03640E-10
 -1       885 6.19176E+05 1.04854E+05 2.05481E+03 2.55306E+05 3.95667E-08-1.74850E-10
 -1       886 6.29798E+05 9.33671E+04 3.87799E+03 2.42864E+05 8.01538E-09-5.31008E-09
 -1       887 6.20730E+05 1.07111E+05 9.16894E+03 2.55147E+05-1.97542E-09 1.65892E-09
 -1       888 6.28455E+05 9.15784E+04 1.66635E+04 2.42950E+05-2.79053E-09-5.02496E-09
 -1       889 6.34659E+05 1.28103E+05 4.45534E+04 2.52259E+05-1.14150E-08 4.42014E-10
 -1       890 6.16345E+05 7.54163E+04 7.05919E+04 2.44624E+05-4.00360E-09 1.62618E-09
 -1       891 2.15684E+03-2.75942E+05-1.07511E+04 3.00540E+04 8.76935E-09 1.93722E-10
 -1       892-3.92673E+03-2.79625E+05-8.61504E+03 1.16708E+05 3.33239E-09 1.84173E-11
 -1       893 5.69681E+02-2.77184E+05-6.86699E+03 2.98989E+04 1.16481E-08-3.24547E-10
 -1       894-5.97217E+03-2.80813E+05-1.22283E+04 1.16694E+05 3.89491E-09-1.98020E-09
 -1       895 3.78475E+03-2.74723E+05-1.75925E+04 3.00673E+04 1.39580E-08 1.79080E-09
 -1       896 1.07040E+06-9.06499E+03 2.11019E+04 1.64040E+03 6.05284E-10-5.60158E-09
 -1       897 1.07944E+06 1.05076E+04 1.49188E+04 2.76750E+03-6.49433E-10-5.12205E-09
 -1       898 1.07393E+06-1.41154E+03 5.48171E+03 1.80907E+03-2.05582E-10-5.90080E-09
 -1       899 1.07534E+06 1.64485E+03 3.46292E+03 2.65051E+03 1.21476E-09-5.22118E-09
 -1       900 1.07451E+06-2.18665E+02 1.46648E+03 1.75744E+03 1.16366E-10-5.71998E-09
 -1       901 1.07468E+06 2.76826E+02 9.65384E+02 3.02165E+03-9.62784E-10-4.96598E-09
 -1       902 1.07459E+06-4.60272E+01 6.49373E+02 1.43794E+03 4.14722E-10-5.29494E-09
 -1       903 1.07466E+06 1.61794E+02 8.49857E+02 4.20192E+03 1.94948E-10-4.71932E-09
 -1       904 1.07453E+06-1.04885E+02 1.27524E+03 5.77148E+02 3.58277E-10-4.22943E-09
 -1       905 1.07519E+06 8.01147E+02 2.79997E+03 7.19959E+03-7.59584E-10-3.23377E-09
 -1       906 1.07407E+06-6.90616E+02 4.71421E+03-1.55978E+03-7.34417E-11-1.68279E-09
 -1       907 1.07858E+06 5.33338E+03 1.18142E+04 1.45790E+04 7.92966E-10 1.01318E-09
 -1       908 1.07119E+06-4.66602E+03 1.83226E+04-6.80251E+03 1.27909E-09 4.65843E-09
 -1       909 1.09979E+06 3.57961E+04 5.22160E+04 3.28040E+04 5.91331E-09 7.82893E-09
 -1       910 1.05319E+06-3.13135E+04 6.99934E+04-1.97870E+04 6.95218E-09 1.99216E-08
 -1       911 4.37688E+05-6.74476E+03 1.53350E+04-6.75087E+03-9.63860E-09 2.91384E-08
 -1       912 4.47455E+05 7.73912E+03 1.13642E+04 5.47302E+03-5.84544E-09 1.97006E-08
 -1       913 4.41042E+05-1.01074E+03 3.95766E+03-4.18712E+03-3.43618E-09 2.05414E-08
 -1       914 4.43418E+05 1.15707E+03 2.70430E+03 1.14317E+03-5.53001E-09 1.58515E-08
 -1       915 4.41679E+05-1.42686E+02 1.04088E+03-2.42037E+03 5.86348E-09 1.52290E-08
 -1       916 4.42715E+05 1.75783E+02 8.43707E+02-2.19286E+03 5.38961E-09 1.11136E-08
 -1       917 4.41736E+05-2.48209E+01 4.73059E+02-8.50889E+02 4.26473E-09 1.03164E-08
 -1       918 4.42954E+05 9.63277E+01 8.86201E+02-5.64556E+03 2.52408E-09 6.58401E-09
 -1       919 4.41456E+05-7.41132E+01 1.04302E+03 1.03242E+03 1.17035E-09 4.75166E-09
 -1       920 4.44432E+05 6.16523E+02 2.85912E+03-1.03392E+04 2.86443E-09-2.20751E-10
 -1       921 4.40320E+05-5.87034E+02 4.04074E+03 3.84302E+03-1.82536E-09-3.84375E-09
 -1       922 4.50271E+05 4.67388E+03 1.15752E+04-1.78045E+04-4.22801E-09-8.91782E-09
 -1       923 4.35816E+05-4.25925E+03 1.60360E+04 8.49954E+03-2.15550E-10-1.76797E-08
 -1       924 4.75199E+05 3.27556E+04 4.94926E+04-3.06627E+04-7.35207E-09-2.54013E-08
 -1       925 4.16006E+05-2.90304E+04 6.22803E+04 1.67130E+04-7.55381E-09-4.16694E-08
 -1       926-7.48003E+05 1.33125E+04-4.34558E+04-4.16270E+04 5.77211E-09-7.59792E-08
 -1       927-7.34772E+05-1.41314E+04-2.42516E+04 8.84255E+04-5.25722E-08-8.96416E-08
 -1       928-7.35200E+05 2.16909E+03-9.85247E+03-4.97339E+04 8.40345E-09-9.45015E-08
 -1       929-7.16336E+05 1.37916E+02-1.18520E+03 8.23674E+04 6.44910E-08-8.19997E-08
 -1       930-7.65764E+05-1.46133E+03-8.28480E+03-3.55430E+04-1.69466E-08-7.01908E-08
 -1       931-6.54260E+05 2.89107E+03 1.55806E+04 3.69440E+04-2.59590E-08-3.49562E-08
 -1       932-7.93826E+05-3.31908E+03-1.18170E+04-4.25069E+03 6.53654E-09-1.40300E-08
 -1       933-6.46056E+05 3.32039E+03 1.89401E+04-2.74934E+04 1.44391E-08 2.58892E-08
 -1       934-7.73527E+05-2.23891E+03-5.73657E+03 2.87945E+04 9.35779E-09 4.80622E-08
 -1       935-7.03623E+05 3.77239E+03 1.09479E+04-7.85268E+04 1.05683E-09 7.23521E-08
 -1       936-7.39564E+05-1.14272E+03 6.76754E+03 4.67963E+04 7.17682E-09 8.30310E-08
 -1       937-7.26491E+05 1.08327E+04 1.90349E+04-9.23378E+04-5.04983E-08 8.13222E-08
 -1       938-7.52151E+05-8.09436E+03 2.49609E+04 4.26560E+04-4.13572E-08 7.60538E-08
 -1       939-6.55053E+05 5.86818E+04 8.68222E+04-6.38352E+04-3.03723E-08 5.07789E-08
 -1       940-8.08132E+05-5.11441E+04 9.43944E+04 1.82168E+04 5.48425E-10 3.56231E-08
 -1       941 6.64945E+06-3.30156E+05 7.72744E+05 1.93617E+03 3.19662E-08 5.76256E-09
 -1       942 6.98200E+06 3.82632E+05 5.44822E+05 2.82802E+03 4.28281E-08 1.01791E-08
 -1       943 6.77826E+06-5.15343E+04 2.00403E+05 2.36006E+03 2.28052E-06 1.77242E-08
 -1       944 6.83300E+06 5.96782E+04 1.25798E+05 2.38952E+03 4.51547E-06-5.33691E-09
 -1       945 6.79961E+06-8.02772E+03 5.18021E+04 2.37518E+03 3.04138E-06-2.53203E-09
 -1       946 6.80857E+06 9.42958E+03 3.10433E+04 2.37456E+03 1.54808E-06 9.55333E-09
 -1       947 6.80314E+06-1.38566E+03 1.55648E+04 2.37522E+03 2.07573E-06 4.62705E-09
 -1       948 6.80502E+06 2.57297E+03 1.28783E+04 2.37410E+03 2.67548E-06 4.48574E-09
 -1       949 6.80327E+06-1.18235E+03 1.36833E+04 2.37567E+03 9.98411E-06-1.92144E-08
 -1       950 6.80763E+06 7.67382E+03 2.56224E+04 2.36377E+03 1.72455E-05 2.65982E-09
 -1       951 6.80046E+06-6.47811E+03 4.20243E+04 2.38553E+03 8.67643E-06-7.03949E-10
 -1       952 6.82727E+06 4.80959E+04 1.01510E+05 2.16100E+03 6.19438E-08 6.96855E-09
 -1       953 6.78326E+06-4.15263E+04 1.61523E+05 2.57828E+03-1.22584E-08 1.81899E-09
 -1       954 6.94734E+06 3.08310E+05 4.39010E+05-1.96013E+03-8.48563E-09-6.27188E-09
 -1       955 6.67931E+06-2.66061E+05 6.22252E+05 6.50482E+03-2.88346E-08-1.36788E-09
 -1       956-3.57452E+05-6.15537E+03-1.28911E+04 4.95595E+04-6.30462E-09-2.85763E-09
 -1       957-3.59820E+05-1.91214E+03-6.50104E+03 5.75369E+04-1.83809E-09-5.73687E-09
 -1       958-3.58556E+05-1.83216E+02-2.92668E+03 4.92567E+04 3.17777E-09-3.72120E-09
 -1       959-3.58801E+05 4.88772E+01-1.48669E+03 5.78676E+04-4.13183E-09 7.63066E-10
 -1       960-3.58718E+05 1.30356E+02-7.23199E+02 4.92235E+04-8.45648E-09 7.08042E-10
 -1       961-3.58768E+05 1.67961E+02-3.80050E+02 5.79053E+04-1.49412E-08-4.54156E-09
 -1       962-3.58779E+05 1.54859E+02-2.14082E+02 4.92181E+04-7.03858E-09-5.48198E-09
 -1       963-3.58800E+05 1.90422E+02-1.63675E+02 5.79124E+04-1.07134E-08-2.07547E-09
 -1       964-3.58807E+05 1.71210E+02-1.90333E+02 4.92160E+04-3.14958E-09-2.07456E-09
 -1       965-3.58829E+05 2.02699E+02-3.21687E+02 5.79130E+04 1.24286E-08-3.11320E-09
 -1       966-3.58802E+05 1.79892E+02-6.01008E+02 4.92174E+04 1.80819E-09-3.77668E-09
 -1       967-3.58909E+05 1.32623E+02-1.23563E+03 5.78955E+04 4.16594E-09-6.69115E-09
 -1       968-3.58711E+05-5.41486E+01-2.42785E+03 4.92341E+04-1.32241E-09-2.63958E-09
 -1       969-3.59804E+05-1.47381E+03-5.40148E+03 5.77248E+04 2.45564E-09-6.55291E-10
 -1       970-3.57826E+05-5.00288E+03-1.07068E+04 4.93972E+04 3.98086E-09-4.90218E-09
 -1       971-7.24473E+05 1.00225E+04-4.37050E+04 5.64852E+03-6.02904E-09 1.36788E-09
 -1       972-7.40110E+05-1.36263E+04-2.79608E+04 2.58879E+04-6.65750E-09 4.80622E-09
 -1       973-7.31073E+05 1.02815E+03-1.13399E+04 5.35263E+03-1.46815E-08 4.60295E-09
 -1       974-7.32892E+05-1.22644E+03-6.32897E+03 2.63423E+04-3.81192E-09 5.87193E-09
 -1       975-7.31833E+05 1.30992E+02-2.91936E+03 5.19067E+03-2.26282E-09 7.50106E-10
 -1       976-7.32130E+05 2.29482E+01-1.62030E+03 2.65952E+04-1.31091E-08 4.82260E-09
 -1       977-7.31936E+05 5.01154E+01-9.52128E+02 5.09865E+03 1.54525E-08 2.99724E-09
 -1       978-7.32080E+05 1.42851E+02-8.57497E+02 2.67163E+04 3.39967E-08 4.59085E-09
 -1       979-7.31934E+05 5.88774E+01-1.13473E+03 5.06923E+03 1.92402E-08 3.46250E-09
 -1       980-7.32211E+05-6.43293E+00-2.10740E+03 2.67114E+04 2.51684E-08 1.31056E-09
 -1       981-7.31803E+05 1.83661E+02-3.88165E+03 5.10371E+03 3.11297E-09-1.06786E-09
 -1       982-7.33301E+05-1.66160E+03-8.49488E+03 2.65778E+04 3.95903E-09 3.51224E-09
 -1       983-7.30793E+05 1.40825E+03-1.52226E+04 5.20387E+03 8.12042E-09 1.96633E-09
 -1       984-7.43081E+05-1.83089E+04-3.75960E+04 2.62662E+04-1.36879E-09 2.86173E-09
 -1       985-7.21928E+05 1.35260E+04-5.87314E+04 5.42200E+03 1.35087E-08-2.14641E-10
 -3
    1PSTEP                        43          22           1          
  100CL  122 1.000000000         841                     0   22           1
 -4  DISP        4    1
 -5  D1          1    2    1    0
 -5  D2          1    2    2    0
 -5  D3          1    2    3    0
 -5  ALL         1    2    0    0    1ALL
 -1         1 1.25531E-04 0.00000E+00 0.00000E+00
 -1         2 1.00021E-04 0.00000E+00 0.00000E+00
 -1         3 8.38911E-05 0.00000E+00 0.00000E+00
 -1         4 7.18931E-05 0.00000E+00 0.00000E+00
 -1         5 6.40094E-05 0.00000E+00 0.00000E+00
 -1         8 9.94044E-05-1.26143E-06 0.00000E+00
 -1         9 7.66569E-05 6.63561E-07 0.00000E+00
 -1        10 7.32039E-05-3.17284E-06 0.00000E+00
 -1        11 6.76236E-05-6.30500E-07 0.00000E+00
 -1        12 6.12396E-05 1.57932E-06 0.00000E+00
 -1        15 5.02794E-05-1.87575E-06 0.00000E+00
 -1        16 5.80313E-05 5.88796E-07 0.00000E+00
 -1        17 5.15227E-05-6.35411E-06 0.00000E+00
 -1        18 5.18577E-05-1.23797E-06 0.00000E+00
 -1        19 5.45423E-05 3.12825E-06 0.00000E+00
 -1        20 5.53738E-05 3.36487E-05 0.00000E+00
 -1        21 5.53324E-05 8.04251E-05 0.00000E+00
 -1        22 1.63701E-05-1.28088E-06 0.00000E+00
 -1        23 1.96343E-05 9.33566E-07 0.00000E+00
 -1        24 2.14778E-05-7.53052E-06 0.00000E+00
 -1        25 4.56028E-05-8.19249E-07 0.00000E+00
 -1        26 4.80602E-05 4.16068E-06 0.00000E+00
 -1        27 4.54423E-05 3.24383E-05 0.00000E+00
 -1        28 4.23305E-05 7.92826E-05 0.00000E+00
 -1        29 0.00000E+00 0.00000E+00 0.00000E+00
 -1        30 6.00098E-06 1.10646E-06 0.00000E+00
 -1        31 8.09108E-06-6.82115E-06 0.00000E+00
 -1        32 0.00000E+00 0.00000E+00 0.00000E+00
 -1        33 3.92816E-05 6.61330E-06 0.00000E+00
 -1        34 3.71631E-05 3.23232E-05 0.00000E+00
 -1        35 3.28310E-05 7.86717E-05 0.00000E+00
 -1        36 1.23984E-04-4.33806E-19 0.00000E+00
 -1        37 1.22390E-04-1.40915E-18 0.00000E+00
 -1        38 1.20798E-04-2.18908E-18 0.00000E+00
 -1        39 1.19198E-04-2.09446E-18-2.64698E-23
 -1        40 1.17597E-04-1.58643E-18-5.29396E-23
 -1        41 1.15994E-04-8.23575E-19-2.64698E-23
 -1        42 1.14392E-04-2.52449E-19 0.00000E+00
 -1        43 1.12788E-04-1.30585E-19 2.64698E-23
 -1        44 1.11185E-04-2.13527E-19 0.00000E+00
 -1        45 1.09582E-04-9.58840E-19 2.64698E-23
 -1        46 1.07979E-04-1.58782E-18 0.00000E+00
 -1        47 1.06378E-04-1.74915E-18-2.64698E-23
 -1        48 1.04777E-04-1.44577E-18 0.00000E+00
 -1        49 1.03182E-04-6.49815E-19-2.64698E-23
 -1        50 1.01584E-04-1.04324E-20 2.64698E-23
 -1        51 1.23563E-04-2.12659E-07 0.00000E+00
 -1        52 1.20297E-04-4.16451E-07 0.00000E+00
 -1        53 1.15985E-04-6.19895E-07 0.00000E+00
 -1        54 1.10889E-04-8.25908E-07 0.00000E+00
 -1        55 1.05274E-04-1.03683E-06-1.65436E-24
 -1        56 1.23038E-04-1.17629E-06 0.00000E+00
 -1        57 1.20586E-04-2.74938E-06-2.64698E-23
 -1        58 1.18220E-04-4.53590E-06-5.29396E-23
 -1        59 1.15859E-04-6.38457E-06-5.29396E-23
 -1        60 1.13457E-04-8.12465E-06-1.05879E-22
 -1        61 1.10952E-04-9.59826E-06 5.29396E-23
 -1        62 1.08297E-04-1.06738E-05-1.05879E-22
 -1        63 1.05452E-04-1.12435E-05-5.29396E-23
 -1        64 1.02396E-04-1.12516E-05 1.05879E-22
 -1        65 9.91204E-05-1.06746E-05-5.29396E-23
 -1        66 9.56383E-05-9.54940E-06-1.05879E-22
 -1        67 9.19778E-05-7.94362E-06 0.00000E+00
 -1        68 8.81812E-05-5.97592E-06 0.00000E+00
 -1        69 8.43155E-05-3.77933E-06-2.64698E-23
 -1        70 8.04215E-05-1.52315E-06-5.29396E-23
 -1        71 9.90217E-05-1.99950E-19 2.64698E-23
 -1        72 9.80123E-05-6.20991E-19 0.00000E+00
 -1        73 9.70035E-05-1.25475E-18 0.00000E+00
 -1        74 9.59929E-05-1.41030E-18 0.00000E+00
 -1        75 9.49822E-05-1.44332E-18 0.00000E+00
 -1        76 9.39711E-05-1.16227E-18 1.32349E-23
 -1        77 9.29600E-05-6.35130E-19-2.64698E-23
 -1        78 9.19488E-05-2.01408E-19 0.00000E+00
 -1        79 9.09377E-05 8.31941E-20 0.00000E+00
 -1        80 8.99267E-05 1.47708E-19-1.32349E-23
 -1        81 8.89158E-05 2.16502E-19 2.64698E-23
 -1        82 8.79055E-05 6.52352E-20-1.32349E-23
 -1        83 8.68954E-05 7.47312E-20 0.00000E+00
 -1        84 8.58887E-05-7.06392E-20-1.32349E-23
 -1        85 8.48808E-05-2.54664E-20 2.64698E-23
 -1        86 9.88513E-05 9.26512E-08-1.32349E-23
 -1        87 9.53974E-05 2.15554E-07-1.65436E-24
 -1        88 9.05722E-05 3.30752E-07 0.00000E+00
 -1        89 8.52792E-05 4.45672E-07 0.00000E+00
 -1        90 8.03595E-05 5.64280E-07 0.00000E+00
 -1        91 9.40519E-05 1.36065E-05 0.00000E+00
 -1        92 7.71889E-05 5.41161E-05-1.32349E-23
 -1        93 5.70348E-05 1.02434E-04-2.64698E-23
 -1        94 4.16826E-05 1.39413E-04-1.32349E-23
 -1        95 3.59681E-05 1.52319E-04 2.64698E-23
 -1        96 4.37095E-05 1.28815E-04 0.00000E+00
 -1        97 6.13142E-05 7.59450E-05 0.00000E+00
 -1        98 8.54697E-05 1.78980E-06 6.61744E-24
 -1        99 1.09865E-04-7.31597E-05 2.64698E-23
 -1       100 1.28218E-04-1.28377E-04 0.00000E+00
 -1       101 1.37008E-04-1.54894E-04-2.64698E-23
 -1       102 1.32374E-04-1.44773E-04-6.61744E-24
 -1       103 1.17764E-04-1.09586E-04 0.00000E+00
 -1       104 9.76419E-05-6.13398E-05-6.61744E-24
 -1       105 8.01905E-05-1.94222E-05-1.32349E-23
 -1       106 8.31479E-05 9.45012E-20-2.64698E-23
 -1       107 8.23970E-05 4.03196E-19 1.32349E-23
 -1       108 8.16465E-05 6.70869E-19 0.00000E+00
 -1       109 8.08947E-05 9.47185E-19 1.32349E-23
 -1       110 8.01427E-05 1.01058E-18 2.64698E-23
 -1       111 7.93905E-05 7.95883E-19 0.00000E+00
 -1       112 7.86383E-05 3.55217E-19-2.64698E-23
 -1       113 7.78860E-05-1.50961E-19 0.00000E+00
 -1       114 7.71338E-05-3.74942E-19 0.00000E+00
 -1       115 7.63816E-05-4.11575E-19 0.00000E+00
 -1       116 7.56295E-05-4.55610E-19 0.00000E+00
 -1       117 7.48780E-05-3.80558E-19 1.32349E-23
 -1       118 7.41265E-05-2.14572E-19 0.00000E+00
 -1       119 7.33778E-05 3.88791E-20 0.00000E+00
 -1       120 7.26282E-05 1.38002E-19 0.00000E+00
 -1       121 8.35491E-05-5.28652E-07 0.00000E+00
 -1       122 8.25684E-05-1.05616E-06 0.00000E+00
 -1       123 8.09940E-05-1.58437E-06 1.32349E-23
 -1       124 7.88743E-05-2.11314E-06 6.61744E-24
 -1       125 7.62599E-05-2.64299E-06-1.32349E-23
 -1       126 8.68348E-05-8.77321E-06-1.32349E-23
 -1       127 9.59626E-05-3.48610E-05 0.00000E+00
 -1       128 1.09526E-04-7.39622E-05 0.00000E+00
 -1       129 1.25891E-04-1.21585E-04 0.00000E+00
 -1       130 1.42867E-04-1.71086E-04-6.61744E-24
 -1       131 1.58287E-04-2.15793E-04 3.30872E-24
 -1       132 1.70285E-04-2.50250E-04 0.00000E+00
 -1       133 1.76899E-04-2.69154E-04 0.00000E+00
 -1       134 1.77296E-04-2.70986E-04 0.00000E+00
 -1       135 1.70651E-04-2.54440E-04-3.30872E-24
 -1       136 1.57838E-04-2.22529E-04 6.61744E-24
 -1       137 1.39917E-04-1.78389E-04 0.00000E+00
 -1       138 1.19353E-04-1.28057E-04 6.61744E-24
 -1       139 9.87333E-05-7.75945E-05 3.30872E-24
 -1       140 8.06611E-05-3.30965E-05 0.00000E+00
 -1       141 7.14015E-05-1.77664E-19 1.32349E-23
 -1       142 7.09058E-05-5.02635E-19 0.00000E+00
 -1       143 7.04103E-05-8.38121E-19 0.00000E+00
 -1       144 6.99140E-05-1.06882E-18-6.61744E-24
 -1       145 6.94177E-05-9.98448E-19 0.00000E+00
 -1       146 6.89212E-05-6.72719E-19 0.00000E+00
 -1       147 6.84248E-05-1.47889E-19 0.00000E+00
 -1       148 6.79283E-05 4.64143E-19-6.61744E-24
 -1       149 6.74319E-05 1.03760E-18 1.32349E-23
 -1       150 6.69358E-05 1.39150E-18 0.00000E+00
 -1       151 6.64398E-05 1.53866E-18 0.00000E+00
 -1       152 6.59449E-05 1.44205E-18 0.00000E+00
 -1       153 6.54502E-05 1.12150E-18 0.00000E+00
 -1       154 6.49612E-05 6.04878E-19 0.00000E+00
 -1       155 6.44703E-05 2.14323E-19 0.00000E+00
 -1       156 7.45135E-05-7.28535E-08-6.61744E-24
 -1       157 8.21263E-05-1.56268E-07 0.00000E+00
 -1       158 8.99365E-05-2.42127E-07-3.30872E-24
 -1       159 9.31493E-05-3.01424E-07 0.00000E+00
 -1       160 8.72194E-05-3.79865E-07 0.00000E+00
 -1       161 7.39084E-05-6.32710E-06 0.00000E+00
 -1       162 8.04092E-05-2.50456E-05 3.30872E-24
 -1       163 9.00108E-05-5.26038E-05 6.61744E-24
 -1       164 1.01376E-04-8.53095E-05-3.30872E-24
 -1       165 1.12730E-04-1.17981E-04 0.00000E+00
 -1       166 1.22298E-04-1.45437E-04 0.00000E+00
 -1       167 1.28745E-04-1.64003E-04 0.00000E+00
 -1       168 1.30699E-04-1.70145E-04 0.00000E+00
 -1       169 1.27977E-04-1.63824E-04 0.00000E+00
 -1       170 1.20453E-04-1.45157E-04-3.30872E-24
 -1       171 1.09409E-04-1.17688E-04 0.00000E+00
 -1       172 9.62478E-05-8.50366E-05 0.00000E+00
 -1       173 8.30411E-05-5.22745E-05 6.61744E-24
 -1       174 7.18664E-05-2.44701E-05 0.00000E+00
 -1       175 6.41541E-05-5.31737E-06 8.27181E-25
 -1       191 6.38963E-05 2.62769E-07 0.00000E+00
 -1       192 6.36343E-05 5.26195E-07 0.00000E+00
 -1       193 6.32298E-05 7.89755E-07 1.32349E-23
 -1       194 6.26905E-05 1.05328E-06 0.00000E+00
 -1       195 6.20241E-05 1.31661E-06 1.32349E-23
 -1       251 9.85743E-05 1.48242E-05 0.00000E+00
 -1       252 9.71606E-05 5.31010E-05 0.00000E+00
 -1       253 9.55615E-05 9.64841E-05 0.00000E+00
 -1       254 9.43973E-05 1.27737E-04 1.32349E-23
 -1       255 9.36237E-05 1.36396E-04 0.00000E+00
 -1       256 9.26163E-05 1.12695E-04-1.32349E-23
 -1       257 9.07693E-05 6.38883E-05 0.00000E+00
 -1       258 8.79788E-05-2.00392E-06 0.00000E+00
 -1       259 8.52110E-05-6.75179E-05 0.00000E+00
 -1       260 8.34150E-05-1.15199E-04-1.32349E-23
 -1       261 8.24402E-05-1.37434E-04 2.64698E-23
 -1       262 8.16543E-05-1.27390E-04-1.32349E-23
 -1       263 8.04631E-05-9.52185E-05 0.00000E+00
 -1       264 7.88611E-05-5.17504E-05 1.32349E-23
 -1       265 7.74700E-05-1.41317E-05 0.00000E+00
 -1       266 9.51556E-05-1.34388E-06-6.61744E-24
 -1       267 9.16516E-05-1.40563E-06 3.30872E-24
 -1       268 8.71226E-05-1.47282E-06-3.30872E-24
 -1       269 7.98011E-05-1.55187E-06 8.27181E-25
 -1       270 6.80592E-05-1.67272E-06 8.27181E-25
 -1       271 9.56847E-05 2.07780E-06 5.29396E-23
 -1       272 9.22563E-05 4.42446E-06 2.64698E-23
 -1       273 8.91677E-05 5.87790E-06 0.00000E+00
 -1       274 8.63707E-05 6.52509E-06 0.00000E+00
 -1       275 8.38335E-05 6.47826E-06 5.29396E-23
 -1       276 8.15082E-05 5.86156E-06-2.64698E-23
 -1       277 7.93448E-05 4.81202E-06 5.29396E-23
 -1       278 7.72884E-05 3.47605E-06 2.64698E-23
 -1       279 7.52821E-05 2.00621E-06-5.29396E-23
 -1       280 7.32680E-05 5.58162E-07 0.00000E+00
 -1       281 7.11880E-05-7.13088E-07-5.29396E-23
 -1       282 6.89870E-05-1.65617E-06 0.00000E+00
 -1       283 6.66100E-05-2.12724E-06-5.29396E-23
 -1       284 6.40157E-05-1.98976E-06 0.00000E+00
 -1       285 6.11464E-05-1.12744E-06 0.00000E+00
 -1       286 7.64279E-05 3.32053E-06 0.00000E+00
 -1       287 7.62126E-05 5.14224E-06-3.30872E-24
 -1       288 7.59978E-05 6.02889E-06 0.00000E+00
 -1       289 7.57856E-05 5.88907E-06 0.00000E+00
 -1       290 7.55730E-05 4.82641E-06-6.61744E-24
 -1       291 7.53597E-05 2.95288E-06-3.30872E-24
 -1       292 7.51453E-05 5.34451E-07 0.00000E+00
 -1       293 7.49303E-05-2.15807E-06 3.30872E-24
 -1       294 7.47155E-05-4.80177E-06 6.61744E-24
 -1       295 7.45014E-05-7.07419E-06 0.00000E+00
 -1       296 7.42885E-05-8.72337E-06 0.00000E+00
 -1       297 7.40761E-05-9.50300E-06 3.30872E-24
 -1       298 7.38639E-05-9.33181E-06 0.00000E+00
 -1       299 7.36489E-05-8.13717E-06 0.00000E+00
 -1       300 7.34331E-05-6.04087E-06-1.32349E-23
 -1       301 7.35407E-05 6.37462E-07-6.61744E-24
 -1       302 7.04129E-05 6.33195E-07 0.00000E+00
 -1       303 6.72858E-05 6.32657E-07 0.00000E+00
 -1       304 6.41716E-05 6.31327E-07 0.00000E+00
 -1       305 6.10828E-05 6.24527E-07 0.00000E+00
 -1       306 7.42270E-05 2.63424E-06 0.00000E+00
 -1       307 7.21223E-05 3.61162E-06-2.64698E-23
 -1       308 7.03432E-05 3.72716E-06-5.29396E-23
 -1       309 6.88328E-05 3.10716E-06-2.64698E-23
 -1       310 6.75443E-05 1.89324E-06-5.29396E-23
 -1       311 6.64210E-05 2.34095E-07 0.00000E+00
 -1       312 6.54057E-05-1.71464E-06 0.00000E+00
 -1       313 6.44387E-05-3.79318E-06 0.00000E+00
 -1       314 6.34598E-05-5.83968E-06-5.29396E-23
 -1       315 6.24089E-05-7.69280E-06 0.00000E+00
 -1       316 6.12267E-05-9.19422E-06 5.29396E-23
 -1       317 5.98571E-05-1.01907E-05 0.00000E+00
 -1       318 5.82445E-05-1.05368E-05 0.00000E+00
 -1       319 5.63444E-05-1.00947E-05-1.32349E-23
 -1       320 5.41003E-05-8.74337E-06 0.00000E+00
 -1       321 7.29812E-05-3.58427E-06 0.00000E+00
 -1       322 7.27423E-05-1.12807E-05 0.00000E+00
 -1       323 7.24437E-05-2.48801E-05 0.00000E+00
 -1       324 7.20793E-05-4.29498E-05 0.00000E+00
 -1       325 7.16754E-05-6.32239E-05 6.61744E-24
 -1       326 7.12735E-05-8.34177E-05-3.30872E-24
 -1       327 7.09135E-05-1.01261E-04-6.61744E-24
 -1       328 7.06225E-05-1.14506E-04-3.30872E-24
 -1       329 7.03888E-05-1.21754E-04-6.61744E-24
 -1       330 7.01805E-05-1.21665E-04 3.30872E-24
 -1       331 6.99459E-05-1.14252E-04 0.00000E+00
 -1       332 6.96345E-05-9.95930E-05 3.30872E-24
 -1       333 6.92264E-05-7.91065E-05-6.61744E-24
 -1       334 6.87236E-05-5.42619E-05 0.00000E+00
 -1       335 6.81699E-05-2.73379E-05 6.61744E-24
 -1       336 6.98216E-05-3.70366E-06 0.00000E+00
 -1       337 6.62475E-05-4.23597E-06 6.61744E-24
 -1       338 6.25556E-05-4.76846E-06 0.00000E+00
 -1       339 5.88209E-05-5.29997E-06 6.61744E-24
 -1       340 5.51184E-05-5.83151E-06 1.32349E-23
 -1       341 6.75713E-05 9.68482E-06 1.32349E-23
 -1       342 5.42871E-05 4.16595E-05 0.00000E+00
 -1       343 3.91045E-05 7.82558E-05 0.00000E+00
 -1       344 2.79998E-05 1.04921E-04-6.61744E-24
 -1       345 2.43428E-05 1.12606E-04 0.00000E+00
 -1       346 3.08836E-05 9.26233E-05 0.00000E+00
 -1       347 4.48060E-05 5.11526E-05 0.00000E+00
 -1       348 6.34424E-05-4.91039E-06 0.00000E+00
 -1       349 8.18757E-05-6.03358E-05 0.00000E+00
 -1       350 9.51708E-05-9.99209E-05 6.61744E-24
 -1       351 1.00852E-04-1.17480E-04 1.32349E-23
 -1       352 9.63323E-05-1.07548E-04 0.00000E+00
 -1       353 8.46390E-05-7.94268E-05-1.32349E-23
 -1       354 6.94307E-05-4.27496E-05 0.00000E+00
 -1       355 5.66169E-05-1.19177E-05 0.00000E+00
 -1       356 6.70468E-05 2.68711E-05 6.61744E-24
 -1       357 6.64193E-05 5.61613E-05-3.30872E-24
 -1       358 6.58185E-05 8.44657E-05 0.00000E+00
 -1       359 6.53128E-05 1.09018E-04 0.00000E+00
 -1       360 6.49251E-05 1.27781E-04 6.61744E-24
 -1       361 6.46487E-05 1.38773E-04-3.30872E-24
 -1       362 6.44259E-05 1.41512E-04 0.00000E+00
 -1       363 6.41898E-05 1.35597E-04 0.00000E+00
 -1       364 6.38875E-05 1.22292E-04 0.00000E+00
 -1       365 6.34901E-05 1.02934E-04 0.00000E+00
 -1       366 6.30227E-05 8.00324E-05 0.00000E+00
 -1       367 6.25335E-05 5.61286E-05 0.00000E+00
 -1       368 6.20818E-05 3.39607E-05 0.00000E+00
 -1       369 6.17192E-05 1.62504E-05-1.65436E-24
 -1       370 6.14416E-05 4.85706E-06 4.13590E-25
 -1       371 4.73545E-05-8.96238E-07 0.00000E+00
 -1       372 3.94373E-05-9.89610E-07-8.27181E-25
 -1       373 3.99632E-05-1.04719E-06 0.00000E+00
 -1       374 4.50017E-05-1.11554E-06-4.13590E-25
 -1       375 5.03632E-05-1.18528E-06-1.03398E-25
 -1       376 5.54885E-05 2.96774E-05 0.00000E+00
 -1       377 4.01419E-05 6.77506E-05 0.00000E+00
 -1       378 2.35282E-05 1.08851E-04 0.00000E+00
 -1       379 7.64057E-06 1.48225E-04 3.30872E-24
 -1       380-5.72324E-06 1.81511E-04 6.61744E-24
 -1       381-1.48551E-05 2.04385E-04-3.30872E-24
 -1       382-1.91200E-05 2.14879E-04 6.61744E-24
 -1       383-1.79885E-05 2.11127E-04 0.00000E+00
 -1       384-1.21643E-05 1.94494E-04-6.61744E-24
 -1       385-2.35081E-06 1.66493E-04 0.00000E+00
 -1       386 9.92858E-06 1.31282E-04-6.61744E-24
 -1       387 2.32004E-05 9.31128E-05-3.30872E-24
 -1       388 3.57989E-05 5.69477E-05 0.00000E+00
 -1       389 4.60428E-05 2.77200E-05-1.65436E-24
 -1       390 5.27079E-05 8.72430E-06 0.00000E+00
 -1       406 6.03114E-05 1.83901E-06 1.32349E-23
 -1       407 5.92883E-05 2.09891E-06-6.61744E-24
 -1       408 5.81846E-05 2.35864E-06 0.00000E+00
 -1       409 5.70154E-05 2.61770E-06 0.00000E+00
 -1       410 5.57962E-05 2.87537E-06-6.61744E-24
 -1       466 5.06248E-05 1.48338E-05 6.61744E-24
 -1       467 5.10882E-05 2.35081E-05-6.61744E-24
 -1       468 5.15838E-05 2.68155E-05 0.00000E+00
 -1       469 5.20881E-05 2.73058E-05 0.00000E+00
 -1       470 5.25921E-05 2.59201E-05 0.00000E+00
 -1       471 5.30950E-05 2.35584E-05 0.00000E+00
 -1       472 5.35964E-05 2.05597E-05 0.00000E+00
 -1       473 5.40969E-05 1.72491E-05 0.00000E+00
 -1       474 5.45968E-05 1.37721E-05-1.32349E-23
 -1       475 5.50963E-05 1.02708E-05-6.61744E-24
 -1       476 5.55960E-05 6.87306E-06 0.00000E+00
 -1       477 5.60946E-05 3.70907E-06 0.00000E+00
 -1       478 5.65942E-05 1.04330E-06-1.32349E-23
 -1       479 5.70866E-05-8.48730E-07 0.00000E+00
 -1       480 5.75834E-05-1.25045E-06 0.00000E+00
 -1       481 3.36108E-05-1.88563E-06 0.00000E+00
 -1       482 2.51075E-05-1.79190E-06 0.00000E+00
 -1       483 2.18739E-05-1.66599E-06-3.30872E-24
 -1       484 2.10437E-05-1.53503E-06 0.00000E+00
 -1       485 2.00614E-05-1.40402E-06 0.00000E+00
 -1       486 3.76637E-05 2.87440E-05 0.00000E+00
 -1       487 1.69099E-05 7.86729E-05 0.00000E+00
 -1       488-4.25991E-06 1.29571E-04 0.00000E+00
 -1       489-1.80824E-05 1.63080E-04 0.00000E+00
 -1       490-2.12053E-05 1.69529E-04 1.32349E-23
 -1       491-1.11698E-05 1.39684E-04-6.61744E-24
 -1       492 8.25119E-06 8.13800E-05 1.32349E-23
 -1       493 3.36421E-05 3.36939E-06 0.00000E+00
 -1       494 5.92296E-05-7.53030E-05 1.32349E-23
 -1       495 7.92632E-05-1.35563E-04 0.00000E+00
 -1       496 9.01834E-05-1.67997E-04-1.32349E-23
 -1       497 8.80317E-05-1.64098E-04 0.00000E+00
 -1       498 7.49807E-05-1.32470E-04-1.32349E-23
 -1       499 5.40730E-05-8.21856E-05 6.61744E-24
 -1       500 3.30374E-05-3.16005E-05 1.32349E-23
 -1       501 5.76911E-05-7.95792E-08 1.32349E-23
 -1       502 5.73350E-05-8.04434E-06 6.61744E-24
 -1       503 5.69203E-05-2.17238E-05 0.00000E+00
 -1       504 5.64469E-05-3.94588E-05-6.61744E-24
 -1       505 5.59521E-05-5.84540E-05 0.00000E+00
 -1       506 5.54850E-05-7.58962E-05 0.00000E+00
 -1       507 5.50747E-05-8.94069E-05 1.32349E-23
 -1       508 5.47269E-05-9.66621E-05 6.61744E-24
 -1       509 5.44037E-05-9.70814E-05 0.00000E+00
 -1       510 5.40577E-05-9.01793E-05-6.61744E-24
 -1       511 5.36592E-05-7.75077E-05 0.00000E+00
 -1       512 5.32020E-05-6.06987E-05 0.00000E+00
 -1       513 5.27229E-05-4.25407E-05 0.00000E+00
 -1       514 5.22682E-05-2.58403E-05 0.00000E+00
 -1       515 5.18666E-05-1.29962E-05 0.00000E+00
 -1       516 5.58643E-05 6.59070E-07-6.61744E-24
 -1       517 5.52244E-05 7.62587E-07-1.65436E-24
 -1       518 5.37672E-05 8.62795E-07-2.06795E-25
 -1       519 4.91451E-05 9.58615E-07 0.00000E+00
 -1       520 3.86720E-05 1.00982E-06 0.00000E+00
 -1       521 5.49937E-05 2.27316E-06 0.00000E+00
 -1       522 5.22453E-05 2.99626E-06 0.00000E+00
 -1       523 4.98122E-05 2.88657E-06 0.00000E+00
 -1       524 4.76363E-05 2.06305E-06 0.00000E+00
 -1       525 4.56739E-05 6.66340E-07-5.29396E-23
 -1       526 4.38681E-05-1.15347E-06-2.64698E-23
 -1       527 4.21604E-05-3.23689E-06-5.29396E-23
 -1       528 4.04893E-05-5.41907E-06 2.64698E-23
 -1       529 3.87928E-05-7.53298E-06-5.29396E-23
 -1       530 3.70091E-05-9.41311E-06-2.64698E-23
 -1       531 3.50782E-05-1.08989E-05 0.00000E+00
 -1       532 3.29444E-05-1.18381E-05 0.00000E+00
 -1       533 3.05539E-05-1.20904E-05 5.29396E-23
 -1       534 2.78673E-05-1.15275E-05 0.00000E+00
 -1       535 2.48319E-05-1.00447E-05-5.29396E-23
 -1       536 5.15236E-05-3.26252E-06 0.00000E+00
 -1       537 5.15409E-05-9.10645E-07 1.65436E-24
 -1       538 5.15594E-05 7.80671E-07 1.65436E-24
 -1       539 5.15808E-05 1.89112E-06 0.00000E+00
 -1       540 5.16030E-05 2.50011E-06 2.06795E-25
 -1       541 5.16258E-05 2.68701E-06 1.03398E-25
 -1       542 5.16488E-05 2.53111E-06-8.27181E-25
 -1       543 5.16717E-05 2.11162E-06-2.06795E-25
 -1       544 5.16946E-05 1.50771E-06-4.13590E-25
 -1       545 5.17175E-05 7.98485E-07 0.00000E+00
 -1       546 5.17404E-05 6.30681E-08 8.27181E-25
 -1       547 5.17633E-05-6.19438E-07 4.13590E-25
 -1       548 5.17864E-05-1.16993E-06 0.00000E+00
 -1       549 5.18097E-05-1.50929E-06 0.00000E+00
 -1       550 5.18331E-05-1.55829E-06 0.00000E+00
 -1       551 4.70314E-05-6.54692E-06-6.41065E-24
 -1       552 4.20381E-05-6.73563E-06-2.48154E-24
 -1       553 3.67624E-05-6.92499E-06-6.61744E-24
 -1       554 3.14284E-05-7.11665E-06 6.61744E-24
 -1       555 2.62600E-05-7.31255E-06 0.00000E+00
 -1       556 5.01856E-05-3.46346E-06 0.00000E+00
 -1       557 4.91026E-05-1.22979E-06 0.00000E+00
 -1       558 4.82452E-05 4.09263E-07 0.00000E+00
 -1       559 4.75866E-05 1.52239E-06 6.61744E-24
 -1       560 4.71002E-05 2.17845E-06 0.00000E+00
 -1       561 4.67596E-05 2.44701E-06 0.00000E+00
 -1       562 4.65383E-05 2.39772E-06 0.00000E+00
 -1       563 4.64102E-05 2.10038E-06 0.00000E+00
 -1       564 4.63489E-05 1.62487E-06 6.61744E-24
 -1       565 4.63282E-05 1.04109E-06 3.30872E-24
 -1       566 4.63219E-05 4.19017E-07 0.00000E+00
 -1       567 4.63038E-05-1.71394E-07 1.65436E-24
 -1       568 4.62480E-05-6.60189E-07-3.30872E-24
 -1       569 4.61286E-05-9.77498E-07 2.37814E-24
 -1       570 4.59202E-05-1.05353E-06 1.65436E-24
 -1       571 5.20189E-05-8.65729E-07 4.13590E-25
 -1       572 5.21851E-05-6.13275E-07 1.24077E-24
 -1       573 5.23527E-05-4.58795E-07-4.96308E-24
 -1       574 5.25210E-05-3.79385E-07 1.65436E-24
 -1       575 5.26896E-05-3.52050E-07 3.30872E-24
 -1       576 5.28582E-05-3.53658E-07 0.00000E+00
 -1       577 5.30270E-05-3.61065E-07 0.00000E+00
 -1       578 5.31957E-05-3.51109E-07 3.30872E-24
 -1       579 5.33645E-05-3.00627E-07 6.61744E-24
 -1       580 5.35332E-05-1.86451E-07 3.30872E-24
 -1       581 5.37019E-05 1.45842E-08-1.32349E-23
 -1       582 5.38706E-05 3.25631E-07 0.00000E+00
 -1       583 5.40391E-05 7.69823E-07 0.00000E+00
 -1       584 5.42074E-05 1.37008E-06 6.61744E-24
 -1       585 5.43754E-05 2.14920E-06-1.32349E-23
 -1       586 5.09587E-05-1.16683E-06 0.00000E+00
 -1       587 4.99276E-05-1.09508E-06 0.00000E+00
 -1       588 4.88198E-05-1.02341E-06 0.00000E+00
 -1       589 4.76920E-05-9.52444E-07 8.27181E-25
 -1       590 4.66011E-05-8.83029E-07 0.00000E+00
 -1       591 5.15908E-05-7.99288E-07 0.00000E+00
 -1       592 5.13449E-05-4.36973E-07-1.65436E-24
 -1       593 5.11208E-05-1.36473E-07 0.00000E+00
 -1       594 5.09140E-05 1.15503E-07 0.00000E+00
 -1       595 5.07202E-05 3.32235E-07 3.30872E-24
 -1       596 5.05346E-05 5.26919E-07-1.65436E-24
 -1       597 5.03522E-05 7.12734E-07 0.00000E+00
 -1       598 5.01683E-05 9.02847E-07-1.65436E-24
 -1       599 4.99777E-05 1.11043E-06 0.00000E+00
 -1       600 4.97757E-05 1.34864E-06-8.27181E-25
 -1       601 4.95573E-05 1.63065E-06-1.65436E-24
 -1       602 4.93176E-05 1.96963E-06-4.13590E-25
 -1       603 4.90519E-05 2.37875E-06 3.30872E-24
 -1       604 4.87557E-05 2.87127E-06-2.06795E-25
 -1       605 4.84248E-05 3.46045E-06 8.27181E-25
 -1       606 5.46008E-05 4.42200E-06 0.00000E+00
 -1       607 5.46552E-05 5.83431E-06 0.00000E+00
 -1       608 5.47082E-05 7.35823E-06 6.61744E-24
 -1       609 5.47605E-05 8.98581E-06 0.00000E+00
 -1       610 5.48124E-05 1.07091E-05 0.00000E+00
 -1       611 5.48641E-05 1.25199E-05 0.00000E+00
 -1       612 5.49156E-05 1.44101E-05 0.00000E+00
 -1       613 5.49670E-05 1.63715E-05 0.00000E+00
 -1       614 5.50183E-05 1.83960E-05 3.30872E-24
 -1       615 5.50694E-05 2.04754E-05 0.00000E+00
 -1       616 5.51205E-05 2.26016E-05 0.00000E+00
 -1       617 5.51714E-05 2.47664E-05 0.00000E+00
 -1       618 5.52223E-05 2.69617E-05 0.00000E+00
 -1       619 5.52731E-05 2.91792E-05-8.27181E-25
 -1       620 5.53237E-05 3.14110E-05 0.00000E+00
 -1       621 5.33278E-05 3.30073E-06 3.30872E-24
 -1       622 5.21511E-05 3.47423E-06 0.00000E+00
 -1       623 5.10243E-05 3.64783E-06 3.30872E-24
 -1       624 4.99591E-05 3.82103E-06-1.65436E-24
 -1       625 4.89674E-05 3.99327E-06-3.30872E-24
 -1       626 5.41564E-05 4.48384E-06 0.00000E+00
 -1       627 5.37216E-05 5.96340E-06 6.61744E-24
 -1       628 5.32440E-05 7.55539E-06 0.00000E+00
 -1       629 5.27287E-05 9.24669E-06 0.00000E+00
 -1       630 5.21809E-05 1.10242E-05-6.61744E-24
 -1       631 5.16056E-05 1.28744E-05-6.61744E-24
 -1       632 5.10078E-05 1.47841E-05 0.00000E+00
 -1       633 5.03927E-05 1.67399E-05 0.00000E+00
 -1       634 4.97652E-05 1.87284E-05 0.00000E+00
 -1       635 4.91305E-05 2.07361E-05 1.65436E-24
 -1       636 4.84935E-05 2.27499E-05 3.30872E-24
 -1       637 4.78592E-05 2.47561E-05 8.27181E-25
 -1       638 4.72325E-05 2.67416E-05-1.65436E-24
 -1       639 4.66183E-05 2.86928E-05-1.65436E-24
 -1       640 4.60209E-05 3.05963E-05-4.13590E-25
 -1       641 5.53753E-05 3.59716E-05 8.27181E-25
 -1       642 5.53746E-05 3.85384E-05 2.06795E-25
 -1       643 5.53735E-05 4.13137E-05 0.00000E+00
 -1       644 5.53715E-05 4.42622E-05-5.16988E-26
 -1       645 5.53692E-05 4.73487E-05 1.03398E-25
 -1       646 5.53665E-05 5.05380E-05 0.00000E+00
 -1       647 5.53635E-05 5.37955E-05 0.00000E+00
 -1       648 5.53605E-05 5.70863E-05 0.00000E+00
 -1       649 5.53574E-05 6.03754E-05 2.58494E-26
 -1       650 5.53544E-05 6.36283E-05 0.00000E+00
 -1       651 5.53515E-05 6.68100E-05 0.00000E+00
 -1       652 5.53488E-05 6.98857E-05-1.03398E-25
 -1       653 5.53464E-05 7.28202E-05 0.00000E+00
 -1       654 5.53431E-05 7.55786E-05 0.00000E+00
 -1       655 5.53409E-05 7.81254E-05 0.00000E+00
 -1       656 5.33593E-05 3.34533E-05 3.30872E-24
 -1       657 5.16142E-05 3.32481E-05 0.00000E+00
 -1       658 5.00446E-05 3.30437E-05 0.00000E+00
 -1       659 4.85558E-05 3.28392E-05-1.65436E-24
 -1       660 4.70532E-05 3.26343E-05 3.30872E-24
 -1       661 5.47246E-05 3.60398E-05 0.00000E+00
 -1       662 5.40115E-05 3.86240E-05 3.30872E-24
 -1       663 5.32371E-05 4.13700E-05-6.61744E-24
 -1       664 5.24132E-05 4.42504E-05 0.00000E+00
 -1       665 5.15492E-05 4.72369E-05-6.61744E-24
 -1       666 5.06558E-05 5.03022E-05 0.00000E+00
 -1       667 4.97428E-05 5.34190E-05 0.00000E+00
 -1       668 4.88208E-05 5.65600E-05 0.00000E+00
 -1       669 4.78998E-05 5.96981E-05-6.61744E-24
 -1       670 4.69902E-05 6.28062E-05 0.00000E+00
 -1       671 4.61020E-05 6.58572E-05 6.61744E-24
 -1       672 4.52456E-05 6.88234E-05 3.30872E-24
 -1       673 4.44313E-05 7.16777E-05 0.00000E+00
 -1       674 4.36680E-05 7.43914E-05 3.30872E-24
 -1       675 4.29684E-05 7.69375E-05 0.00000E+00
 -1       676 5.31578E-05 8.02341E-05 0.00000E+00
 -1       677 5.09849E-05 8.00422E-05 3.30872E-24
 -1       678 4.88146E-05 7.98505E-05 6.61744E-24
 -1       679 4.66482E-05 7.96595E-05 3.30872E-24
 -1       680 4.44865E-05 7.94684E-05 0.00000E+00
 -1       681 1.65858E-05 2.18543E-06 0.00000E+00
 -1       682 1.68130E-05 2.41733E-06 0.00000E+00
 -1       683 1.70380E-05 2.78555E-07 6.61744E-24
 -1       684 1.72598E-05-3.39076E-06 0.00000E+00
 -1       685 1.74775E-05-8.11035E-06 0.00000E+00
 -1       686 1.76927E-05-1.34105E-05-3.30872E-24
 -1       687 1.79066E-05-1.89581E-05 0.00000E+00
 -1       688 1.81209E-05-2.44226E-05 0.00000E+00
 -1       689 1.83374E-05-2.94538E-05 0.00000E+00
 -1       690 1.85574E-05-3.36974E-05 0.00000E+00
 -1       691 1.87817E-05-3.66131E-05-6.61744E-24
 -1       692 1.90092E-05-3.76477E-05 0.00000E+00
 -1       693 1.92348E-05-3.58054E-05 6.61744E-24
 -1       694 1.94442E-05-3.00617E-05 9.92617E-24
 -1       695 1.96036E-05-1.84802E-05 0.00000E+00
 -1       696 1.18322E-05-1.07902E-06 0.00000E+00
 -1       697 8.42602E-06-8.67338E-07 0.00000E+00
 -1       698 5.82032E-06-6.53611E-07-6.61744E-24
 -1       699 3.69161E-06-4.37159E-07-3.30872E-24
 -1       700 1.82300E-06-2.20361E-07 0.00000E+00
 -1       701 1.21625E-05 9.08201E-06 3.30872E-24
 -1       702 3.79767E-06 3.00024E-05 0.00000E+00
 -1       703-7.50182E-06 5.82307E-05-6.61744E-24
 -1       704-2.04375E-05 9.04552E-05 0.00000E+00
 -1       705-3.32635E-05 1.22411E-04 0.00000E+00
 -1       706-4.42393E-05 1.49834E-04 3.30872E-24
 -1       707-5.21277E-05 1.69549E-04 6.61744E-24
 -1       708-5.57834E-05 1.78437E-04 0.00000E+00
 -1       709-5.51387E-05 1.75964E-04-6.61744E-24
 -1       710-5.01838E-05 1.61713E-04 0.00000E+00
 -1       711-4.19070E-05 1.38109E-04 0.00000E+00
 -1       712-3.12749E-05 1.07695E-04 0.00000E+00
 -1       713-1.97594E-05 7.46983E-05 6.61744E-24
 -1       714-8.81354E-06 4.33824E-05 0.00000E+00
 -1       715 2.24463E-07 1.75933E-05-3.30872E-24
 -1       716 1.95830E-05 2.05687E-05 1.65436E-24
 -1       717 1.96541E-05 3.27812E-05-1.65436E-24
 -1       718 1.97783E-05 3.91934E-05-3.30872E-24
 -1       719 1.99213E-05 4.13906E-05 0.00000E+00
 -1       720 2.00669E-05 4.03433E-05 0.00000E+00
 -1       721 2.02079E-05 3.70017E-05-1.65436E-24
 -1       722 2.03423E-05 3.19789E-05 0.00000E+00
 -1       723 2.04710E-05 2.58773E-05-1.65436E-24
 -1       724 2.05958E-05 1.91407E-05-3.30872E-24
 -1       725 2.07191E-05 1.22089E-05-1.65436E-24
 -1       726 2.08435E-05 5.49292E-06 0.00000E+00
 -1       727 2.09706E-05-5.94863E-07 0.00000E+00
 -1       728 2.11033E-05-5.54985E-06 1.65436E-24
 -1       729 2.12359E-05-8.86031E-06 0.00000E+00
 -1       730 2.13753E-05-9.77610E-06-6.61744E-24
 -1       731 6.15112E-07 8.31633E-07 2.06795E-25
 -1       732-9.73966E-06 8.58433E-07 0.00000E+00
 -1       733-1.30062E-05 9.33197E-07-1.65436E-24
 -1       734-1.07356E-05 1.01169E-06 0.00000E+00
 -1       735-4.03588E-06 1.07217E-06-3.30872E-24
 -1       736 9.28248E-06 2.62590E-05-6.61744E-24
 -1       737-2.70282E-06 5.55718E-05-6.61744E-24
 -1       738-1.29272E-05 8.05217E-05 1.32349E-23
 -1       739-1.81385E-05 9.28006E-05-6.61744E-24
 -1       740-1.74189E-05 8.94519E-05 0.00000E+00
 -1       741-1.00786E-05 6.77909E-05 0.00000E+00
 -1       742 1.85281E-06 3.28514E-05 1.32349E-23
 -1       743 1.64239E-05-1.00083E-05 6.61744E-24
 -1       744 3.06924E-05-5.19545E-05 0.00000E+00
 -1       745 4.17011E-05-8.41777E-05 0.00000E+00
 -1       746 4.77255E-05-1.02119E-04 0.00000E+00
 -1       747 4.69840E-05-1.01559E-04 6.61744E-24
 -1       748 4.05152E-05-8.60557E-05-1.32349E-23
 -1       749 2.96094E-05-5.94139E-05 0.00000E+00
 -1       750 1.76443E-05-3.01546E-05 0.00000E+00
 -1       751 2.28914E-05-4.54232E-06-1.32349E-23
 -1       752 2.43987E-05-3.19645E-06-1.32349E-23
 -1       753 2.59013E-05-2.74741E-06 0.00000E+00
 -1       754 2.74211E-05-2.51133E-06 0.00000E+00
 -1       755 2.89414E-05-2.39153E-06 5.29396E-23
 -1       756 3.04652E-05-2.29910E-06-2.64698E-23
 -1       757 3.19894E-05-2.22159E-06 5.29396E-23
 -1       758 3.35141E-05-2.14753E-06-2.64698E-23
 -1       759 3.50390E-05-2.07509E-06-5.29396E-23
 -1       760 3.65634E-05-2.00254E-06 0.00000E+00
 -1       761 3.80877E-05-1.92790E-06 0.00000E+00
 -1       762 3.96095E-05-1.84902E-06 0.00000E+00
 -1       763 4.11309E-05-1.75191E-06 0.00000E+00
 -1       764 4.26402E-05-1.62137E-06 0.00000E+00
 -1       765 4.41535E-05-1.34962E-06 2.64698E-23
 -1       766 1.99514E-05-7.41845E-06-6.61744E-24
 -1       767 2.28825E-05-7.27444E-06-8.27181E-25
 -1       768 2.67909E-05-7.13542E-06 0.00000E+00
 -1       769 2.82050E-05-6.98503E-06 8.27181E-25
 -1       770 2.32708E-05-6.84897E-06-2.06795E-25
 -1       771 1.91830E-05-4.48984E-06 2.64698E-23
 -1       772 1.70923E-05-2.02912E-06 0.00000E+00
 -1       773 1.51992E-05-9.92041E-08 0.00000E+00
 -1       774 1.34860E-05 1.35008E-06 0.00000E+00
 -1       775 1.19343E-05 2.36926E-06 0.00000E+00
 -1       776 1.05251E-05 3.00946E-06 0.00000E+00
 -1       777 9.23903E-06 3.32204E-06 0.00000E+00
 -1       778 8.05658E-06 3.35878E-06 0.00000E+00
 -1       779 6.95821E-06 3.17164E-06 0.00000E+00
 -1       780 5.92431E-06 2.81286E-06-1.32349E-23
 -1       781 4.93526E-06 2.33479E-06 2.64698E-23
 -1       782 3.97154E-06 1.78999E-06 1.32349E-23
 -1       783 3.01364E-06 1.23104E-06-2.64698E-23
 -1       784 2.04294E-06 7.10771E-07-1.32349E-23
 -1       785 1.04099E-06 2.82011E-07 0.00000E+00
 -1       786 4.57467E-05-2.29620E-07 0.00000E+00
 -1       787 4.58999E-05 2.28508E-07 0.00000E+00
 -1       788 4.60529E-05 5.75558E-07-3.30872E-24
 -1       789 4.62074E-05 8.31899E-07 0.00000E+00
 -1       790 4.63620E-05 1.01777E-06 3.30872E-24
 -1       791 4.65170E-05 1.15333E-06 0.00000E+00
 -1       792 4.66720E-05 1.25864E-06 3.30872E-24
 -1       793 4.68270E-05 1.35377E-06 0.00000E+00
 -1       794 4.69821E-05 1.45873E-06 0.00000E+00
 -1       795 4.71372E-05 1.59357E-06 0.00000E+00
 -1       796 4.72922E-05 1.77837E-06 3.30872E-24
 -1       797 4.74471E-05 2.03328E-06 0.00000E+00
 -1       798 4.76018E-05 2.37853E-06-3.30872E-24
 -1       799 4.77560E-05 2.83449E-06 1.65436E-24
 -1       800 4.79101E-05 3.42169E-06 3.30872E-24
 -1       801 4.15530E-05-6.61095E-07 0.00000E+00
 -1       802 3.31265E-05-5.16657E-07 0.00000E+00
 -1       803 2.25400E-05-3.90299E-07 0.00000E+00
 -1       804 1.20115E-05-2.67546E-07 0.00000E+00
 -1       805 3.75897E-06-1.26354E-07 0.00000E+00
 -1       806 4.51930E-05-2.94277E-07 0.00000E+00
 -1       807 4.47977E-05 1.74424E-07 0.00000E+00
 -1       808 4.44176E-05 5.97959E-07-6.61744E-24
 -1       809 4.40499E-05 9.86587E-07 3.30872E-24
 -1       810 4.36912E-05 1.35051E-06 0.00000E+00
 -1       811 4.33378E-05 1.69985E-06 3.30872E-24
 -1       812 4.29860E-05 2.04471E-06 6.61744E-24
 -1       813 4.26321E-05 2.39519E-06 0.00000E+00
 -1       814 4.22724E-05 2.76140E-06 6.61744E-24
 -1       815 4.19029E-05 3.15342E-06-1.65436E-24
 -1       816 4.15200E-05 3.58133E-06-6.61744E-24
 -1       817 4.11199E-05 4.05524E-06 3.30872E-24
 -1       818 4.06989E-05 4.58524E-06-3.30872E-24
 -1       819 4.02538E-05 5.18143E-06-3.30872E-24
 -1       820 3.97813E-05 5.85396E-06-1.65436E-24
 -1       821 4.79073E-05 5.10584E-06 0.00000E+00
 -1       822 4.77446E-05 6.26650E-06 0.00000E+00
 -1       823 4.75818E-05 7.62076E-06 3.30872E-24
 -1       824 4.74174E-05 9.14619E-06 0.00000E+00
 -1       825 4.72525E-05 1.08203E-05-6.61744E-24
 -1       826 4.70872E-05 1.26201E-05 0.00000E+00
 -1       827 4.69216E-05 1.45228E-05-6.61744E-24
 -1       828 4.67558E-05 1.65053E-05-3.30872E-24
 -1       829 4.65898E-05 1.85442E-05 0.00000E+00
 -1       830 4.64239E-05 2.06163E-05 3.30872E-24
 -1       831 4.62580E-05 2.26982E-05 0.00000E+00
 -1       832 4.60923E-05 2.47665E-05 1.65436E-24
 -1       833 4.59269E-05 2.67979E-05-3.30872E-24
 -1       834 4.57627E-05 2.87692E-05 0.00000E+00
 -1       835 4.55986E-05 3.06570E-05 3.30872E-24
 -1       836 4.69421E-05 4.56211E-06 6.61744E-24
 -1       837 4.54401E-05 4.97746E-06 0.00000E+00
 -1       838 4.37388E-05 5.39179E-06-1.32349E-23
 -1       839 4.20224E-05 5.80514E-06-3.30872E-24
 -1       840 4.04752E-05 6.21941E-06-3.30872E-24
 -1       841 4.76939E-05 5.09633E-06-8.27181E-25
 -1       842 4.72383E-05 6.25947E-06 1.29247E-26
 -1       843 4.67050E-05 7.62965E-06-2.06795E-25
 -1       844 4.61015E-05 9.18469E-06 2.06795E-25
 -1       845 4.54377E-05 1.08996E-05-4.13590E-25
 -1       846 4.47231E-05 1.27489E-05-2.06795E-25
 -1       847 4.39684E-05 1.47047E-05 0.00000E+00
 -1       848 4.31839E-05 1.67393E-05 2.06795E-25
 -1       849 4.23808E-05 1.88233E-05-4.13590E-25
 -1       850 4.15701E-05 2.09271E-05 0.00000E+00
 -1       851 4.07631E-05 2.30212E-05 0.00000E+00
 -1       852 3.99710E-05 2.50756E-05 0.00000E+00
 -1       853 3.92047E-05 2.70614E-05 0.00000E+00
 -1       854 3.84746E-05 2.89495E-05-4.13590E-25
 -1       855 3.77918E-05 3.07128E-05 0.00000E+00
 -1       856 4.52593E-05 3.43520E-05 3.30872E-24
 -1       857 4.50668E-05 3.66144E-05-1.65436E-24
 -1       858 4.48737E-05 3.91810E-05 6.61744E-24
 -1       859 4.46786E-05 4.20064E-05-3.30872E-24
 -1       860 4.44827E-05 4.50451E-05-6.61744E-24
 -1       861 4.42861E-05 4.82510E-05 3.30872E-24
 -1       862 4.40890E-05 5.15778E-05 6.61744E-24
 -1       863 4.38917E-05 5.49790E-05 0.00000E+00
 -1       864 4.36942E-05 5.84079E-05 6.61744E-24
 -1       865 4.34968E-05 6.18180E-05-3.30872E-24
 -1       866 4.32997E-05 6.51626E-05 6.61744E-24
 -1       867 4.31031E-05 6.83952E-05-3.30872E-24
 -1       868 4.29071E-05 7.14693E-05 0.00000E+00
 -1       869 4.27125E-05 7.43391E-05-3.30872E-24
 -1       870 4.25184E-05 7.69585E-05 3.30872E-24
 -1       871 4.39204E-05 3.24217E-05 0.00000E+00
 -1       872 4.25105E-05 3.24036E-05 0.00000E+00
 -1       873 4.11717E-05 3.23852E-05 0.00000E+00
 -1       874 3.98621E-05 3.23662E-05 4.13590E-25
 -1       875 3.85397E-05 3.23464E-05 0.00000E+00
 -1       876 4.49859E-05 3.44193E-05-6.61744E-24
 -1       877 4.44267E-05 3.67045E-05 0.00000E+00
 -1       878 4.37689E-05 3.92501E-05 0.00000E+00
 -1       879 4.30290E-05 4.20175E-05 0.00000E+00
 -1       880 4.22204E-05 4.49675E-05 0.00000E+00
 -1       881 4.13574E-05 4.80618E-05 3.30872E-24
 -1       882 4.04543E-05 5.12627E-05 0.00000E+00
 -1       883 3.95251E-05 5.45325E-05 0.00000E+00
 -1       884 3.85839E-05 5.78338E-05 0.00000E+00
 -1       885 3.76449E-05 6.11293E-05 3.30872E-24
 -1       886 3.67221E-05 6.43818E-05 6.61744E-24
 -1       887 3.58294E-05 6.75537E-05 0.00000E+00
 -1       888 3.49812E-05 7.06074E-05-6.61744E-24
 -1       889 3.41901E-05 7.35043E-05-3.30872E-24
 -1       890 3.34729E-05 7.62070E-05-3.30872E-24
 -1       891 4.04638E-05 7.91811E-05 0.00000E+00
 -1       892 3.89646E-05 7.90786E-05-1.65436E-24
 -1       893 3.76426E-05 7.89764E-05 3.30872E-24
 -1       894 3.63069E-05 7.88744E-05-1.65436E-24
 -1       895 3.47664E-05 7.87720E-05-1.65436E-24
 -1       896 3.76141E-07 1.85350E-06 0.00000E+00
 -1       897 7.55481E-07 3.80018E-06 6.61744E-24
 -1       898 1.13450E-06 5.80424E-06 1.32349E-23
 -1       899 1.51412E-06 7.83079E-06 0.00000E+00
 -1       900 1.89375E-06 9.85425E-06 1.32349E-23
 -1       901 2.27357E-06 1.18490E-05 6.61744E-24
 -1       902 2.65353E-06 1.37776E-05 1.32349E-23
 -1       903 3.03367E-06 1.56014E-05-6.61744E-24
 -1       904 3.41411E-06 1.72382E-05 0.00000E+00
 -1       905 3.79487E-06 1.86029E-05 0.00000E+00
 -1       906 4.17604E-06 1.94974E-05 0.00000E+00
 -1       907 4.55717E-06 1.97159E-05 6.61744E-24
 -1       908 4.93769E-06 1.87721E-05 0.00000E+00
 -1       909 5.31323E-06 1.61605E-05-6.61744E-24
 -1       910 5.67775E-06 1.06862E-05 6.61744E-24
 -1       911 6.10226E-06-9.68075E-06 0.00000E+00
 -1       912 6.22293E-06-1.87029E-05 0.00000E+00
 -1       913 6.35495E-06-2.62909E-05 3.30872E-24
 -1       914 6.49497E-06-3.27655E-05 3.30872E-24
 -1       915 6.64062E-06-3.82684E-05 0.00000E+00
 -1       916 6.79044E-06-4.29339E-05 3.30872E-24
 -1       917 6.94369E-06-4.67615E-05 0.00000E+00
 -1       918 7.09970E-06-4.97449E-05 0.00000E+00
 -1       919 7.25803E-06-5.17410E-05 6.61744E-24
 -1       920 7.41784E-06-5.26004E-05 3.30872E-24
 -1       921 7.57768E-06-5.19896E-05-3.30872E-24
 -1       922 7.73451E-06-4.95653E-05 1.65436E-24
 -1       923 7.88237E-06-4.46915E-05 0.00000E+00
 -1       924 8.00916E-06-3.67151E-05-1.65436E-24
 -1       925 8.09448E-06-2.44852E-05 0.00000E+00
 -1       926 7.57444E-06 1.67236E-05 0.00000E+00
 -1       927 6.89610E-06 4.63640E-05-3.30872E-24
 -1       928 6.14775E-06 7.84312E-05 6.61744E-24
 -1       929 5.43668E-06 1.09230E-04 3.30872E-24
 -1       930 4.85020E-06 1.35357E-04 0.00000E+00
 -1       931 4.43432E-06 1.53458E-04 3.30872E-24
 -1       932 4.13790E-06 1.62003E-04-6.61744E-24
 -1       933 3.87365E-06 1.59570E-04 0.00000E+00
 -1       934 3.54100E-06 1.47210E-04-6.61744E-24
 -1       935 3.06695E-06 1.26087E-04 0.00000E+00
 -1       936 2.46733E-06 9.93518E-05 0.00000E+00
 -1       937 1.80246E-06 7.02183E-05 0.00000E+00
 -1       938 1.17376E-06 4.24465E-05 0.00000E+00
 -1       939 6.65516E-07 1.97833E-05 0.00000E+00
 -1       940 2.93799E-07 4.80380E-06-1.32349E-23
 -1       941 2.32840E-06 3.34877E-07 2.64698E-23
 -1       942 4.78513E-06 7.00197E-07 0.00000E+00
 -1       943 7.23381E-06 1.08050E-06 5.29396E-23
 -1       944 9.70689E-06 1.46208E-06 0.00000E+00
 -1       945 1.21807E-05 1.84428E-06-5.29396E-23
 -1       946 1.46594E-05 2.22654E-06-2.64698E-23
 -1       947 1.71386E-05 2.60882E-06 5.29396E-23
 -1       948 1.96187E-05 2.99111E-06 2.64698E-23
 -1       949 2.20989E-05 3.37340E-06-5.29396E-23
 -1       950 2.45784E-05 3.75571E-06 0.00000E+00
 -1       951 2.70575E-05 4.13823E-06-5.29396E-23
 -1       952 2.95328E-05 4.52118E-06 2.64698E-23
 -1       953 3.20074E-05 4.90934E-06-5.29396E-23
 -1       954 3.44623E-05 5.30805E-06 2.64698E-23
 -1       955 3.69237E-05 5.83283E-06 2.64698E-23
 -1       956 3.91522E-05 7.65405E-06-8.27181E-25
 -1       957 3.90207E-05 8.84197E-06-6.20385E-25
 -1       958 3.88886E-05 1.01626E-05 8.27181E-25
 -1       959 3.87561E-05 1.16006E-05 8.27181E-25
 -1       960 3.86234E-05 1.31403E-05 1.65436E-24
 -1       961 3.84906E-05 1.47663E-05 8.27181E-25
 -1       962 3.83576E-05 1.64627E-05-3.30872E-24
 -1       963 3.82245E-05 1.82141E-05 1.65436E-24
 -1       964 3.80913E-05 2.00047E-05-3.30872E-24
 -1       965 3.79581E-05 2.18188E-05 1.65436E-24
 -1       966 3.78250E-05 2.36409E-05-3.30872E-24
 -1       967 3.76918E-05 2.54553E-05 0.00000E+00
 -1       968 3.75588E-05 2.72462E-05 0.00000E+00
 -1       969 3.74260E-05 2.89981E-05-3.30872E-24
 -1       970 3.72937E-05 3.06955E-05 0.00000E+00
 -1       971 3.69019E-05 3.40724E-05 6.61744E-24
 -1       972 3.66327E-05 3.61900E-05 0.00000E+00
 -1       973 3.63630E-05 3.86318E-05 0.00000E+00
 -1       974 3.60914E-05 4.13522E-05 0.00000E+00
 -1       975 3.58190E-05 4.43053E-05 6.61744E-24
 -1       976 3.55459E-05 4.74445E-05 3.30872E-24
 -1       977 3.52723E-05 5.07230E-05 6.61744E-24
 -1       978 3.49983E-05 5.40934E-05 3.30872E-24
 -1       979 3.47243E-05 5.75081E-05 0.00000E+00
 -1       980 3.44503E-05 6.09197E-05-3.30872E-24
 -1       981 3.41765E-05 6.42805E-05 6.61744E-24
 -1       982 3.39033E-05 6.75431E-05 3.30872E-24
 -1       983 3.36308E-05 7.06601E-05 6.61744E-24
 -1       984 3.33603E-05 7.35848E-05 3.30872E-24
 -1       985 3.30904E-05 7.62706E-05 0.00000E+00
 -3
    1PSTEP                        44          22           1          
  100CL  122 1.000000000         841                     0   22           1
 -4  STRESS      6    1
 -5  SXX         1    4    1    1
 -5  SYY         1    4    2    2
 -5  SZZ         1    4    3    3
 -5  SXY         1    4    1    2
 -5  SYZ         1    4    2    3
 -5  SZX         1    4    3    1
 -1         1-3.86730E+06-1.27393E+06-7.91504E+05-1.21209E+06-7.27596E-11-2.96859E-09
 -1         2-2.00717E+06 1.25202E+04 3.77233E+04-4.76712E+04-5.95787E-09 3.15595E-10
 -1         3-1.32575E+06-4.46577E+05-3.37048E+04-7.32547E+04 3.08546E-09 3.87809E-09
 -1         4-9.68698E+05-1.09958E+05 8.65234E+03-3.48472E+04-2.07888E-09-9.10859E-10
 -1         5-7.41539E+05 1.02564E+05-2.69623E+05-2.30842E+04 1.46065E-08-4.92560E-09
 -1         8-1.70556E+06-6.62161E+05-1.94262E+05-7.27128E+05 8.54925E-10-3.41242E-09
 -1         9-2.04393E+06-4.81772E+05-2.16625E+05-4.99777E+05 1.45519E-10-9.21621E-10
 -1        10-6.31452E+05-3.97287E+05 7.86548E+04-7.51262E+04-4.24063E-09 2.39220E-09
 -1        11-3.57583E+05-6.24507E+03 1.89394E+04 3.09318E+04 4.94380E-08-3.97070E-10
 -1        12-3.19890E+05 2.00866E+05-1.67627E+05-6.20169E+04 2.45798E-08 1.00023E-10
 -1        15 5.48904E+04 1.41438E+05 2.92131E+04 7.11733E+03 5.05679E-10-6.28279E-09
 -1        16-1.61374E+06-3.45626E+05-1.12994E+04-6.02368E+05 1.83839E-09 2.99557E-09
 -1        17-8.58826E+05-5.47654E+05-9.79640E+04-4.26238E+05-5.03254E-10 4.56203E-09
 -1        18-2.03696E+05-6.61206E+04-8.49965E+04-1.04744E+05 4.55354E-10 1.26844E-09
 -1        19 8.32956E+04 1.59127E+05-3.72480E+04-3.13792E+04-6.50743E-09-3.38635E-09
 -1        20 1.41192E+05-1.04696E+05-1.71811E+04 7.50354E+04 8.32870E-09-4.62660E-09
 -1        21 2.75507E+03-2.10561E+05 5.34333E+04 6.72309E+02 3.03125E-08 3.42885E-09
 -1        22 5.57241E+04 2.27522E+05 7.34654E+03-8.46895E+03-7.73070E-11-3.64525E-09
 -1        23-2.08883E+05 1.29629E+05 2.24977E+04-3.32607E+04-7.82226E-09 4.70512E-10
 -1        24-3.29724E+05-1.05942E+04 3.40211E+05-6.06531E+05-1.15518E-08 3.92902E-09
 -1        25 7.36095E+05 2.70138E+05 2.33271E+05-3.87480E+05 1.16506E-09-3.03832E-09
 -1        26 2.21659E+03 2.36450E+05 1.23037E+04-4.27337E+04 1.94162E-09 3.32481E-09
 -1        27-5.37272E+04-8.91987E+04-3.85571E+04 1.02580E+05 6.91580E-09-1.00166E-09
 -1        28-1.79767E+04-1.65040E+05-9.86882E+02 7.92659E+04 8.57062E-09-3.55527E-09
 -1        29 5.21059E+05 3.39192E+05 1.31123E+03 4.15590E+03-5.76936E-10-3.18596E-09
 -1        30 2.65394E+05 4.64670E+04 7.13333E+03-2.32537E+04-1.24231E-09 2.32885E-08
 -1        31-3.24031E+05 1.10652E+05 1.47797E+04-3.63006E+03-1.52083E-08-2.19270E-08
 -1        32 1.25751E+06 6.71252E+05 7.85806E+05-6.22690E+05 1.98683E-08 2.96859E-09
 -1        33 1.72807E+06 7.35529E+05 5.41208E+05-6.65219E+04-2.07358E-08-1.47702E-09
 -1        34-2.83882E+05-3.91532E+04-1.09745E+04 5.51585E+04 4.24937E-09 2.65209E-09
 -1        35-4.63983E+04-5.44626E+04-1.04281E+03 1.18038E+05 9.37376E-09-6.51441E-09
 -1        36-4.51467E+06 1.28174E+05-2.97216E+05 3.09946E-07-2.60824E-09-9.50240E-09
 -1        37-4.64319E+06-1.48391E+05-2.10190E+05 4.21593E-07-3.39984E-09-9.93532E-09
 -1        38-4.56423E+06 1.99877E+04-7.68452E+04-3.10932E-07-6.56905E-10-1.45519E-10
 -1        39-4.58512E+06-2.31346E+04-4.82460E+04-3.34789E-07-1.93000E-09-5.71617E-09
 -1        40-4.57233E+06 3.11106E+03-1.97260E+04-6.14176E-07-2.12385E-10-5.82804E-09
 -1        41-4.57557E+06-3.64619E+03-1.17681E+04-5.77161E-07-5.04076E-09 8.95216E-09
 -1        42-4.57365E+06 5.30310E+02-5.77958E+03 4.35392E-07 1.17009E-09-4.33874E-09
 -1        43-4.57416E+06-9.44208E+02-4.62255E+03 2.24239E-07 1.36482E-09 7.32683E-10
 -1        44-4.57372E+06 4.13008E+02-4.71511E+03-3.64736E-07-1.08072E-09 5.75687E-09
 -1        45-4.57502E+06-2.63310E+03-8.68788E+03-3.79904E-07-6.60654E-09-3.20142E-10
 -1        46-4.57280E+06 2.21664E+03-1.41719E+04-2.84873E-07-2.01202E-09 7.13953E-10
 -1        47-4.58178E+06-1.64494E+04-3.43707E+04 2.07442E-07-3.26985E-09 2.80124E-09
 -1        48-4.56705E+06 1.42070E+04-5.46611E+04-2.85149E-08 6.74314E-11 2.43017E-09
 -1        49-4.62305E+06-1.05473E+05-1.49418E+05 4.55219E-07-1.43896E-10 2.92312E-09
 -1        50-4.53185E+06 9.10941E+04-2.11339E+05 3.87317E-07-2.72291E-09 1.64437E-09
 -1        51 4.44545E+04-5.23615E+05 7.22583E+04-1.42945E+06-2.03727E-10-1.32422E-09
 -1        52 2.28855E+04-5.21414E+05 4.42045E+04-1.57642E+06-5.82077E-11-6.19912E-09
 -1        53 1.67964E+04-5.40285E+05 3.51229E+04-1.42550E+06-2.61934E-10-1.83354E-09
 -1        54 3.66853E+04-5.38292E+05 5.32415E+04-1.58043E+06-5.82077E-10 8.14907E-10
 -1        55 7.58721E+04-5.56554E+05 9.57834E+04-1.42460E+06-1.45519E-11-8.94943E-10
 -1        56-6.57421E+06-7.37624E+05-5.44760E+05-2.54039E+06 1.37516E-09 7.01402E-09
 -1        57-6.81010E+06-1.20341E+06-3.65828E+05-2.49973E+06 1.49885E-09-2.57205E-09
 -1        58-6.68198E+06-9.08190E+05-1.28072E+05-2.50809E+06 2.20825E-09-6.67205E-09
 -1        59-6.68656E+06-1.00104E+06-7.59399E+04-2.53655E+06-3.03771E-10-7.81529E-09
 -1        60-6.69579E+06-9.33156E+05-2.98726E+04-2.50570E+06 1.21963E-09 6.47105E-09
 -1        61-6.67450E+06-9.67581E+05-1.68774E+04-2.53443E+06 3.80169E-10 4.25212E-09
 -1        62-6.69353E+06-9.40832E+05-8.25739E+03-2.51034E+06 1.33878E-09-8.57540E-10
 -1        63-6.68282E+06-9.53573E+05-6.85552E+03-2.52256E+06-3.06522E-09 2.05273E-09
 -1        64-6.68730E+06-9.47136E+05-8.08283E+03-2.51751E+06-2.36992E-09 7.79710E-09
 -1        65-6.69739E+06-9.44296E+05-1.63060E+04-2.50794E+06-2.44927E-09 7.09110E-09
 -1        66-6.67904E+06-9.50195E+05-2.88429E+04-2.52496E+06 5.82304E-10 1.02591E-09
 -1        67-6.72476E+06-9.60826E+05-7.31970E+04-2.49208E+06-2.54954E-09 8.03084E-10
 -1        68-6.66044E+06-9.31382E+05-1.23464E+05-2.53325E+06-2.69392E-09-5.73345E-09
 -1        69-6.84780E+06-1.15208E+06-3.52630E+05-2.45239E+06 7.63976E-10 2.01544E-09
 -1        70-6.55802E+06-7.65458E+05-5.25123E+05-2.56266E+06-4.87489E-09 6.40284E-10
 -1        71-2.87548E+06 2.66305E+04-6.18682E+04-7.92401E-07 1.97414E-10-8.80755E-09
 -1        72-2.90201E+06-3.08386E+04-4.37251E+04-9.53634E-09 8.38574E-10-9.36052E-09
 -1        73-2.88578E+06 4.15405E+03-1.60155E+04 4.31819E-08-1.35936E-09-4.44561E-09
 -1        74-2.88996E+06-4.81093E+03-1.00801E+04 6.56394E-07-3.09458E-09-2.47451E-09
 -1        75-2.88747E+06 6.49125E+02-4.18151E+03-4.18362E-07-7.80737E-10-3.12275E-09
 -1        76-2.88799E+06-7.77413E+02-2.60538E+03 1.32283E-07 4.76736E-10 1.24226E-09
 -1        77-2.88774E+06 1.27256E+02-1.49314E+03-8.34860E-09 2.66563E-09 1.03313E-09
 -1        78-2.88776E+06-3.25171E+02-1.59730E+03 1.05250E-07 1.23777E-09 1.15890E-08
 -1        79-2.88769E+06 1.97608E+02-2.13347E+03 2.72859E-07 6.29322E-10 4.67031E-09
 -1        80-2.88832E+06-1.38503E+03-4.45707E+03-5.25563E-08-1.48442E-09-4.78059E-09
 -1        81-2.88718E+06 1.18555E+03-7.52049E+03 1.55109E-07-1.75765E-09-9.61973E-09
 -1        82-2.89196E+06-8.82014E+03-1.84146E+04-9.74134E-08 7.41154E-10 2.14413E-10
 -1        83-2.88409E+06 7.62050E+03-2.93440E+04-1.82870E-07-1.20420E-09-1.08230E-08
 -1        84-2.91408E+06-5.65766E+04-8.01997E+04 2.01309E-07-9.07282E-10 1.02291E-08
 -1        85-2.86517E+06 4.88595E+04-1.13473E+05-3.32158E-07-2.50646E-09 9.73523E-09
 -1        86-9.99782E+04 3.43174E+05 2.36029E+05 6.82581E+03 8.73115E-11-5.40888E-09
 -1        87 1.26426E+05 4.53832E+05 1.86515E+05-3.05264E+04-3.81988E-11-4.97415E-09
 -1        88-2.61177E+04 3.79195E+05 9.97540E+04 4.19065E+03-1.53523E-09 1.11504E-09
 -1        89 9.86494E+04 4.39105E+05 1.49989E+05-2.85538E+04 8.26731E-10-1.23130E-08
 -1        90-7.21947E+04 3.57772E+05 1.74101E+05 4.85426E+03-1.84809E-09-8.80360E-09
 -1        91-1.78442E+06-4.15462E+05-4.25577E+04-7.97620E+05 7.97036E-09-1.30422E-09
 -1        92-1.49262E+06 1.62894E+05 1.05066E+05-1.55822E+05 2.56970E-08 3.36058E-10
 -1        93-1.45882E+06-3.52688E+05 1.49085E+03-7.58640E+05 2.75209E-08 7.88850E-09
 -1        94-1.14655E+06 7.79570E+04 1.40322E+05-1.57512E+05-2.26964E-09-3.08819E-09
 -1        95-2.11606E+06-3.45528E+05-1.31248E+05-7.82744E+05-1.21490E-08-3.11957E-09
 -1        96-7.25030E+05-1.85828E+05 1.67379E+05-4.46206E+05 1.96997E-08 4.62478E-10
 -1        97-1.87196E+06-9.71432E+04-3.76303E+04-4.64947E+05 2.15659E-08-2.44268E-09
 -1        98-1.01854E+06-4.18965E+05 6.46986E+04-7.96476E+05-9.79209E-08-7.58246E-09
 -1        99-1.84720E+06-8.72921E+04-3.15803E+04-4.51979E+05-1.58339E-07-1.31504E-08
 -1       100-7.36644E+05-2.02247E+05 1.60289E+05-4.68159E+05-5.99543E-08-8.40282E-09
 -1       101-2.13036E+06-3.37856E+05-1.36162E+05-7.74739E+05-6.30280E-09-3.20142E-10
 -1       102-1.11240E+06 6.72645E+04 1.37053E+05-1.59544E+05 2.95167E-08 1.24287E-08
 -1       103-1.47729E+06-3.51070E+05-1.80550E+04-7.63424E+05 3.19433E-08 1.71308E-08
 -1       104-1.52385E+06 1.32398E+05 5.83548E+04-1.50184E+05-5.54201E-09 2.42702E-08
 -1       105-1.73535E+06-3.86031E+05-9.96398E+04-7.99014E+05 3.08173E-08 1.61190E-08
 -1       106-2.13988E+06 2.06851E+04-4.80701E+04-2.19003E-07 2.82167E-09 5.78257E-09
 -1       107-2.16051E+06-2.39542E+04-3.39746E+04-4.33538E-07 1.79055E-09 6.26869E-09
 -1       108-2.14790E+06 3.22670E+03-1.24492E+04-5.67796E-07 4.34178E-10-6.56019E-09
 -1       109-2.15115E+06-3.73709E+03-7.83665E+03-2.20261E-07-2.77570E-09-1.49507E-08
 -1       110-2.14921E+06 5.04330E+02-3.25431E+03 1.13711E-07 7.47596E-10-9.15770E-09
 -1       111-2.14962E+06-6.04635E+02-2.03203E+03-1.90765E-07 6.57628E-10-8.53470E-09
 -1       112-2.14942E+06 9.95066E+01-1.17271E+03 1.31309E-07 7.00238E-10-5.08172E-09
 -1       113-2.14945E+06-2.57546E+02-1.26696E+03 1.96716E-08-9.26993E-10-4.74729E-09
 -1       114-2.14938E+06 1.57796E+02-1.70391E+03-9.67142E-09 1.51354E-09 3.37366E-09
 -1       115-2.14989E+06-1.10805E+03-3.56770E+03-1.80779E-07 2.33626E-10 3.50337E-09
 -1       116-2.14897E+06 9.48752E+02-6.02348E+03-2.07283E-07-2.00491E-10 6.80757E-09
 -1       117-2.15280E+06-7.05871E+03-1.47463E+04-9.66228E-08-1.78411E-09-7.02789E-09
 -1       118-2.14649E+06 6.09856E+03-2.34991E+04-2.63370E-07-3.34116E-09-3.84443E-09
 -1       119-2.17050E+06-4.52773E+04-6.42026E+04-4.79102E-08-2.25214E-09 6.75936E-09
 -1       120-2.13134E+06 3.91007E+04-9.08390E+04-2.47221E-07-1.37704E-10 1.91721E-09
 -1       121-2.33967E+03-1.50687E+06 8.81268E+03-6.36363E+03-5.42059E-10 9.24047E-09
 -1       122 2.66551E+03-1.50310E+06 4.97719E+03-2.79737E+04-6.76664E-10 1.16011E-08
 -1       123-1.77052E+02-1.50539E+06 4.59540E+02-5.35551E+03-1.27443E-09 9.27230E-09
 -1       124-1.90700E+03-1.50615E+06-3.30709E+03-2.97877E+04-1.06763E-09 1.71349E-09
 -1       125 1.56917E+03-1.50419E+06-6.77834E+03-4.55098E+03-2.14891E-09-4.11910E-09
 -1       126-7.62705E+05-1.29717E+05 4.66225E+04-2.35781E+05 5.31236E-08 2.79397E-09
 -1       127-3.52147E+05-7.50938E+04 9.08517E+04-2.56099E+05 4.07381E-08 1.73059E-08
 -1       128-6.68715E+05-4.95138E+04 1.21047E+04-1.79277E+05-4.44015E-08-8.96944E-09
 -1       129-4.73197E+05-1.63994E+05 1.74014E+04-3.26663E+05-5.33482E-08-7.05131E-09
 -1       130-6.47538E+05-3.64609E+04 3.33776E+03-1.69228E+05-5.50360E-08 1.39776E-08
 -1       131-4.15840E+05-1.42517E+05 2.51106E+04-2.79521E+05-9.40122E-09-1.66506E-08
 -1       132-7.22490E+05-7.37168E+04-2.20462E+04-2.23995E+05 3.08560E-08-2.71255E-08
 -1       133-3.26393E+05-6.44756E+04 5.55539E+04-1.62070E+05 3.04258E-08-8.91634E-09
 -1       134-7.30463E+05-1.19371E+05-3.34647E+04-2.81732E+05 1.92640E-08 2.61875E-08
 -1       135-4.34369E+05-1.27078E+03 4.61878E+04-9.70074E+04-3.31147E-08 2.64358E-08
 -1       136-6.16507E+05-1.35367E+05-1.53508E+04-2.90048E+05 4.55661E-08-9.62928E-10
 -1       137-6.33946E+05 1.70714E+04 9.56644E+03-1.05076E+05 4.04140E-08 2.72463E-08
 -1       138-5.37651E+05-1.32720E+05-3.05638E+03-2.79200E+05 1.01355E-08 1.72902E-08
 -1       139-6.36953E+05 1.67591E+04 1.41784E+03-1.05397E+05 8.46471E-08 6.73230E-08
 -1       140-6.13597E+05-1.34985E+05-3.39858E+04-2.89810E+05 1.50421E-08-2.51302E-08
 -1       141-1.41407E+06 1.12668E+04-2.61984E+04-3.65966E-07-2.61643E-10 1.19144E-09
 -1       142-1.42529E+06-1.30483E+04-1.85288E+04-1.04044E-08-9.86526E-10 3.93629E-09
 -1       143-1.41844E+06 1.75830E+03-6.82076E+03 3.92247E-07-5.12133E-10-1.15233E-09
 -1       144-1.42020E+06-2.04141E+03-4.34628E+03-5.36626E-08-3.47160E-10 2.14413E-09
 -1       145-1.41915E+06 2.79788E+02-1.91817E+03-2.04068E-07 7.06880E-10-2.62105E-09
 -1       146-1.41939E+06-3.68415E+02-1.41515E+03-2.33584E-07 1.10548E-09 1.71816E-09
 -1       147-1.41925E+06 8.81811E+01-1.21591E+03-3.07478E-07 9.41339E-11-7.76652E-09
 -1       148-1.41943E+06-3.97447E+02-1.95801E+03-7.76168E-09-2.98591E-10-4.68228E-09
 -1       149-1.41912E+06 3.08890E+02-3.22984E+03-1.39911E-07-1.52822E-09-5.44901E-10
 -1       150-1.42042E+06-2.27457E+03-7.23574E+03 1.12347E-07 8.27396E-10-7.97445E-09
 -1       151-1.41826E+06 1.96262E+03-1.24136E+04 1.26251E-07 7.00668E-11-8.22183E-10
 -1       152-1.42646E+06-1.46182E+04-3.05257E+04 2.47930E-07-4.90660E-10 5.94309E-09
 -1       153-1.41310E+06 1.26324E+04-4.86831E+04 9.48014E-08 2.81511E-09-1.10958E-10
 -1       154-1.46311E+06-9.37852E+04-1.33012E+05 8.32754E-08 1.44473E-09-2.88674E-09
 -1       155-1.38166E+06 8.09978E+04-1.88120E+05-6.64090E-09 8.54634E-09 2.54659E-10
 -1       156-3.84226E+04-1.77180E+05 8.51198E+04-3.58510E+04-1.22855E-08-3.98768E-09
 -1       157 4.53706E+04-1.07631E+05 6.87796E+04 1.47762E+05-3.14412E-08-1.63840E-09
 -1       158-5.91543E+03-1.60605E+05 2.75657E+04-3.57959E+04-1.53714E-08-2.19461E-09
 -1       159 2.63528E+04-3.48397E+04 5.38198E+04 1.40889E+05-5.80405E-09-8.17636E-09
 -1       160-2.27668E+04-2.45433E+05 1.20280E+04-2.90253E+04 3.08455E-08 1.02045E-09
 -1       161-7.95030E+05-1.12067E+05 1.05417E+04-2.66352E+05-1.06838E-08-1.24192E-08
 -1       162-5.72560E+05-1.20493E+05 3.62711E+04-3.03211E+05 3.18105E-08 6.34282E-09
 -1       163-7.52506E+05-6.66479E+04 4.19107E+03-2.26050E+05 8.84716E-08-9.90121E-09
 -1       164-6.18736E+05-1.65796E+05 7.29096E+03-3.44875E+05 1.16522E-07 9.48557E-09
 -1       165-7.51551E+05-6.47121E+04-5.94087E+02-2.26614E+05 8.80093E-08 7.42602E-09
 -1       166-5.82296E+05-1.37707E+05 1.70276E+04-2.99194E+05 2.57010E-08 1.28564E-08
 -1       167-7.86231E+05-9.68407E+04-1.50700E+04-2.69775E+05-8.29641E-09-1.17241E-08
 -1       168-5.75729E+05-7.67961E+04 2.88293E+04-2.18440E+05-2.90579E-08 8.83119E-09
 -1       169-7.55520E+05-1.27603E+05-1.66309E+04-3.05276E+05 1.64318E-08-6.05633E-09
 -1       170-6.86493E+05-3.56863E+04 1.25709E+04-1.79974E+05-5.50165E-09-1.51107E-08
 -1       171-6.78125E+05-1.35907E+05-8.93093E+03-3.10202E+05-1.17891E-07-1.29694E-08
 -1       172-7.71612E+05-3.19308E+04-1.52057E+04-1.76016E+05-8.81492E-08 1.08712E-08
 -1       173-6.73009E+05-1.29393E+05-3.18406E+04-3.11383E+05-1.42665E-07 1.61308E-08
 -1       174-7.21382E+05-9.17872E+04-7.08026E+04-1.69454E+05-1.56006E-07 4.03124E-08
 -1       175-7.25869E+05-7.80245E+04-1.43628E+05-3.14666E+05-2.15296E-08 1.16779E-08
 -1       191 3.12876E+03 7.55326E+05 5.07399E+03-4.27817E+04-4.25644E-10-6.63931E-09
 -1       192 1.07718E+03 7.56073E+05 2.82870E+03-4.65513E+04 6.21640E-10 3.49610E-09
 -1       193 3.69206E+02 7.55539E+05 1.92002E+03-4.23913E+04-1.31195E-09 2.13913E-09
 -1       194 9.32860E+02 7.55913E+05 2.47465E+03-4.72355E+04 4.85670E-10-6.64113E-09
 -1       195 2.61346E+03 7.55234E+05 4.19957E+03-4.20922E+04-1.76442E-09 6.20275E-10
 -1       251-2.19322E+06-9.29636E+03-1.01866E+05-1.56500E+05-3.41151E-09-7.61065E-09
 -1       252-1.70957E+06 1.09098E+04 2.39269E+04 4.23322E+05 2.22568E-09 4.40377E-09
 -1       253-2.02094E+06 9.24566E+03-2.26232E+04-1.98451E+05-3.43380E-09-9.53605E-09
 -1       254-1.41151E+06 2.08720E+04 1.04238E+05 2.60796E+05 3.39060E-09-1.99725E-09
 -1       255-2.47056E+06-3.99513E+04-1.10249E+05 6.24021E+03 3.81078E-09 4.07158E-09
 -1       256-1.34280E+06 3.29680E+04 1.24936E+05-1.69706E+05 1.14410E-08 1.40244E-09
 -1       257-2.08440E+06-7.95515E+03-2.57144E+04 2.30713E+05-3.24508E-09 1.06707E-08
 -1       258-1.74275E+06 2.91224E+04 4.79808E+04-3.89992E+05-3.25542E-09 1.90317E-08
 -1       259-2.09762E+06-9.21354E+03-2.85071E+04 2.27882E+05-1.89930E-08 1.76158E-08
 -1       260-1.33130E+06 3.31306E+04 1.27317E+05-1.59964E+05 5.22959E-09-2.97860E-09
 -1       261-2.46808E+06-3.95835E+04-1.09420E+05-6.73444E+02 8.23093E-09 5.01723E-09
 -1       262-1.42453E+06 2.06295E+04 1.02232E+05 2.69686E+05 2.63390E-09 1.69530E-09
 -1       263-2.01130E+06 1.00058E+04-1.94719E+04-2.00414E+05-2.70870E-08-7.79573E-09
 -1       264-1.70379E+06 1.31273E+04 2.77255E+04 4.21087E+05-8.13714E-08-9.44169E-09
 -1       265-2.20830E+06-1.26198E+04-1.00999E+05-1.52291E+05-3.06882E-08-4.53656E-09
 -1       266-4.73282E+04-1.73149E+05 1.10124E+05-1.26665E+04 0.00000E+00-3.70312E-09
 -1       267 5.31080E+04-1.21192E+05 7.62246E+04 5.54880E+04-5.54792E-11 2.47695E-09
 -1       268-5.96241E+03-1.57486E+05 2.31712E+04-1.18005E+04 6.73026E-11 4.70254E-09
 -1       269 2.69073E+02-1.27666E+05 9.26394E+03 5.13120E+04-1.36424E-10 4.85045E-10
 -1       270 4.67535E+03-1.65694E+05-1.57615E+04-8.50966E+03 4.76575E-10 1.05895E-08
 -1       271-5.49688E+06-6.96898E+05-4.32622E+05-2.13516E+06 4.29281E-10-4.45289E-09
 -1       272-5.65474E+06-9.74180E+05-2.73171E+05-2.12798E+06-1.35060E-10-1.04046E-09
 -1       273-5.57551E+06-7.91966E+05-1.01980E+05-2.11962E+06 1.39835E-10-1.73168E-09
 -1       274-5.56178E+06-8.52558E+05-5.59609E+04-2.15520E+06-2.83762E-10-8.17454E-09
 -1       275-5.58714E+06-7.99385E+05-2.36954E+04-2.11525E+06-3.81078E-10-2.50111E-09
 -1       276-5.54737E+06-8.43911E+05-1.25034E+04-2.16277E+06 2.98314E-09-2.59206E-10
 -1       277-5.59013E+06-7.98512E+05-6.40689E+03-2.11306E+06-5.45697E-12-1.83991E-09
 -1       278-5.54407E+06-8.45052E+05-5.00448E+03-2.16591E+06 2.32103E-09-2.48747E-10
 -1       279-5.59076E+06-7.97893E+05-5.97339E+03-2.11240E+06 9.13076E-10 6.16365E-09
 -1       280-5.54520E+06-8.46002E+05-1.13687E+04-2.16560E+06-2.90572E-09 9.13224E-09
 -1       281-5.58903E+06-7.97687E+05-2.13171E+04-2.11332E+06-2.94676E-10 6.85759E-10
 -1       282-5.55668E+06-8.55360E+05-5.03773E+04-2.16070E+06-1.08116E-09-2.08092E-09
 -1       283-5.57925E+06-7.90328E+05-9.16904E+04-2.11651E+06 3.04317E-09-1.95723E-09
 -1       284-5.63917E+06-9.65858E+05-2.45734E+05-2.13741E+06-4.75211E-10 8.03993E-10
 -1       285-5.50892E+06-7.04460E+05-3.89171E+05-2.13005E+06-1.49157E-09-3.11411E-09
 -1       286-6.19852E+05-3.22294E+04 7.48253E+04-2.63188E+03 3.57409E-09 1.79352E-09
 -1       287-5.86202E+05 3.73312E+04 5.30833E+04 2.03166E+03 2.26407E-09 4.82942E-09
 -1       288-6.07537E+05-5.05250E+03 1.92843E+04-1.60235E+02 7.22878E-10 3.00406E-09
 -1       289-6.00790E+05 5.84158E+03 1.23427E+04-2.93297E+03-1.25226E-10 5.30486E-09
 -1       290-6.05292E+05-7.98930E+02 4.94227E+03 2.33282E+03 8.29999E-10 3.59705E-10
 -1       291-6.03691E+05 9.41486E+02 3.08227E+03-6.90130E+03 3.50320E-09 2.14641E-10
 -1       292-6.04670E+05-1.38424E+02 1.54207E+03 3.80815E+03 2.32862E-09 1.10015E-09
 -1       293-6.04300E+05 2.90733E+02 1.36130E+03-8.24436E+03 1.92627E-09 9.62807E-10
 -1       294-6.04699E+05-1.37296E+02 1.51008E+03 3.67595E+03 2.56547E-09 7.57154E-10
 -1       295-6.03620E+05 9.18030E+02 3.02484E+03-6.42485E+03 2.10220E-09-3.19415E-09
 -1       296-6.05329E+05-7.80327E+02 4.79911E+03 1.98856E+03 8.57540E-10-2.37992E-09
 -1       297-6.00821E+05 5.68287E+03 1.20204E+04-2.16896E+03 6.11465E-10 5.93514E-09
 -1       298-6.07466E+05-4.91477E+03 1.87546E+04-5.79986E+02-4.26155E-10-1.35424E-09
 -1       299-5.86739E+05 3.63075E+04 5.16220E+04 2.78138E+03-8.45830E-11-6.12818E-09
 -1       300-6.19391E+05-3.13429E+04 7.27831E+04-2.96186E+03 3.59933E-10 2.29920E-09
 -1       301 7.41215E+04 1.69904E+04 1.62398E+05-4.11614E+04 4.00905E-09-8.90338E-10
 -1       302 2.51790E+04 4.73333E+04 9.92866E+04-4.84828E+04 3.43425E-09-7.23125E-09
 -1       303 7.25088E+03 2.77430E+04 7.94114E+04-4.13529E+04 3.72438E-09 3.28009E-09
 -1       304 3.22241E+04 5.14759E+04 1.18071E+05-4.84183E+04 2.88674E-09 6.12545E-09
 -1       305 9.70107E+04 1.28990E+04 2.08012E+05-4.11531E+04 4.05271E-09 5.23823E-09
 -1       306-3.76337E+06-4.88553E+05-2.53197E+05-1.45898E+06 1.37879E-09 1.29512E-09
 -1       307-3.83269E+06-6.72673E+05-1.59679E+05-1.48049E+06 2.36241E-10 5.67525E-10
 -1       308-3.80972E+06-5.43536E+05-5.97364E+04-1.44962E+06-9.24956E-10 4.75484E-09
 -1       309-3.77850E+06-6.01933E+05-3.27658E+04-1.49701E+06-1.94996E-09 1.13732E-09
 -1       310-3.81657E+06-5.47788E+05-1.39253E+04-1.44711E+06 8.06722E-10-6.91216E-11
 -1       311-3.77052E+06-5.96599E+05-7.42072E+03-1.50126E+06 2.79306E-09 2.08286E-09
 -1       312-3.81808E+06-5.47507E+05-3.94510E+03-1.44613E+06 6.00721E-10-4.82419E-09
 -1       313-3.76929E+06-5.96606E+05-3.36679E+03-1.50229E+06 4.86409E-09 4.27190E-09
 -1       314-3.81796E+06-5.47600E+05-4.38676E+03-1.44623E+06 1.19394E-09-1.17871E-09
 -1       315-3.77099E+06-5.96405E+05-8.62948E+03-1.50078E+06-7.17591E-10-4.96584E-09
 -1       316-3.81613E+06-5.47957E+05-1.63866E+04-1.44742E+06-1.44428E-09 2.18279E-09
 -1       317-3.78034E+06-6.02825E+05-3.86713E+04-1.49592E+06-4.28417E-09 2.19188E-10
 -1       318-3.80820E+06-5.42762E+05-7.05236E+04-1.45022E+06-1.30103E-09 5.12591E-09
 -1       319-3.84397E+06-6.86845E+05-1.88580E+05-1.47705E+06 2.22144E-10 4.59477E-09
 -1       320-3.75380E+06-4.77430E+05-2.98926E+05-1.46089E+06-1.66619E-09 3.71074E-09
 -1       321-6.29442E+05-3.49165E+04 6.85863E+04 8.17102E+03 9.05857E-10-6.54836E-11
 -1       322-5.36370E+05 4.01017E+04 5.98109E+04-3.73385E+04 1.33123E-08 3.42061E-09
 -1       323-6.00168E+05-5.68589E+03 1.73053E+04 2.35558E+04-8.60473E-09 8.60746E-09
 -1       324-5.79223E+05 7.06872E+03 1.35593E+04-5.83939E+04-3.58580E-08 5.47789E-09
 -1       325-5.88173E+05-7.35894E+02 5.09210E+03 2.92498E+04 5.00587E-09 2.85900E-09
 -1       326-5.81097E+05 1.94894E+03 4.38232E+03-5.80281E+04 1.09239E-08-4.80179E-09
 -1       327-5.98264E+05-6.01759E+02-7.67970E+02 2.31891E+04-1.80721E-08 3.73331E-09
 -1       328-5.53388E+05 1.35643E+03 7.58388E+03-3.61116E+04-1.00051E-08 1.27680E-08
 -1       329-6.14302E+05-1.37188E+03-5.19393E+03 7.31067E+03 7.74298E-09 4.52872E-10
 -1       330-5.37277E+05 1.40038E+03 9.91426E+03-5.42380E+02-1.48453E-08 2.64706E-10
 -1       331-6.13455E+05-1.36078E+03-5.84566E+03-1.23482E+04-5.26802E-09-2.74264E-09
 -1       332-5.56138E+05 9.07110E+02 4.89510E+03 3.44547E+04 5.84973E-08-6.62894E-09
 -1       333-5.96466E+05-8.47339E+01-4.65007E+03-2.76688E+04 3.00706E-08-5.03792E-09
 -1       334-5.85775E+05-3.20707E+03-6.41090E+03 5.50865E+04 2.06853E-08 1.60958E-09
 -1       335-5.85360E+05 3.94132E+03-1.11978E+04-3.30213E+04-2.59011E-08-8.24912E-09
 -1       336 1.82494E+03-1.50434E+06-9.83142E+03-7.01327E+03-2.81068E-09 5.56793E-09
 -1       337-3.59277E+03-1.50832E+06-1.18735E+04-4.23656E+04-1.87205E-09-7.24060E-09
 -1       338 1.50529E+03-1.50451E+06-1.54844E+04-6.78900E+03-3.09046E-09 5.56292E-09
 -1       339-1.67216E+04-1.51616E+06-3.51674E+04-4.25269E+04-1.25328E-09 7.19047E-09
 -1       340 1.24343E+04-1.49656E+06-5.38737E+04-6.86010E+03-1.82263E-09 6.30735E-10
 -1       341-1.61449E+06-3.22722E+05-6.62323E+04-7.18161E+05-3.85226E-08-6.87578E-10
 -1       342-1.57386E+06 2.40978E+04 2.45764E+04-2.76666E+05-8.81719E-08-1.13560E-08
 -1       343-1.47017E+06-3.13788E+05-1.29911E+04-7.05515E+05 2.21055E-08 1.37456E-08
 -1       344-1.31305E+06-2.38789E+04 7.69152E+04-3.00342E+05 4.86916E-08 2.54204E-10
 -1       345-1.86573E+06-2.84374E+05-7.85470E+04-6.85953E+05 1.31795E-08-3.70210E-09
 -1       346-1.05416E+06-2.25157E+05 9.04170E+04-5.31710E+05-3.47172E-08-9.40145E-09
 -1       347-1.72607E+06-1.15443E+05-1.80243E+04-4.72495E+05-6.43922E-08 3.00445E-08
 -1       348-1.19345E+06-3.74291E+05 3.44843E+04-7.46938E+05 5.69227E-08 5.10265E-08
 -1       349-1.73965E+06-1.22004E+05-2.32489E+04-4.81339E+05 4.38945E-08 1.35828E-08
 -1       350-1.05131E+06-2.15087E+05 8.94541E+04-5.15690E+05-3.90364E-08-1.29337E-08
 -1       351-1.85432E+06-2.88549E+05-8.46665E+04-6.92544E+05 1.22782E-10 1.39635E-08
 -1       352-1.34428E+06-2.85449E+04 5.38340E+04-2.94519E+05 6.84565E-09 1.11704E-08
 -1       353-1.45122E+06-3.04129E+05-4.11480E+04-7.05471E+05-3.98995E-09 5.19867E-09
 -1       354-1.60100E+06-4.25606E+04-6.55125E+04-2.65260E+05 6.23581E-08 1.97724E-08
 -1       355-1.60602E+06-2.66183E+05-2.03078E+05-7.29269E+05 1.76660E-08-6.14818E-09
 -1       356-6.14677E+05 4.55177E+03-1.40765E+04-3.73338E+04-4.32624E-09-1.90903E-09
 -1       357-6.16911E+05-3.63057E+03-8.44758E+03 6.72061E+04-5.33045E-08 8.31244E-09
 -1       358-6.22040E+05 1.24597E+02-4.78537E+03-3.46775E+04-2.06151E-08-2.44859E-09
 -1       359-5.84474E+05 1.22704E+03 4.52888E+03 4.88056E+04 1.38180E-08-4.98659E-09
 -1       360-6.45426E+05-1.61078E+03-6.96271E+03-1.88772E+04 2.18129E-08-7.10884E-10
 -1       361-5.51931E+05 1.88443E+03 1.21645E+04 9.73863E+03 3.19659E-08-1.91039E-09
 -1       362-6.52788E+05-1.93000E+03-8.14354E+03 4.38560E+03-3.36377E-09-1.94063E-09
 -1       363-5.64239E+05 1.54502E+03 9.33363E+03-3.42257E+04 2.10468E-08 5.13924E-09
 -1       364-6.33819E+05-7.25388E+02-5.49475E+03 2.50309E+04 4.28402E-08 6.77164E-09
 -1       365-6.03547E+05 8.56836E+01-1.47759E+03-6.44234E+04-5.78239E-08-1.17541E-09
 -1       366-6.15660E+05 1.22611E+03-7.59818E+03 3.46090E+04 3.62770E-08 4.77621E-09
 -1       367-6.15985E+05-7.38986E+03-1.76938E+04-6.93554E+04 5.01508E-08 8.71796E-09
 -1       368-6.21881E+05 7.12341E+03-3.23665E+04 2.99774E+04 2.06448E-08 3.14685E-09
 -1       369-6.04085E+05-5.46505E+04-7.47589E+04-4.69910E+04 4.50623E-08 3.73257E-09
 -1       370-6.25657E+05 4.69167E+04-1.25015E+05 1.22030E+04 1.47743E-08 7.48696E-09
 -1       371-1.93578E+04-2.40033E+05 9.00402E+03-2.42032E+04 3.96758E-08 5.02951E-10
 -1       372 1.57150E+04-6.81892E+04 3.21056E+04 1.22033E+05-3.96358E-09-3.67777E-10
 -1       373 1.36412E+03-1.68876E+05-1.80305E+03-3.09144E+04-6.28461E-09-9.74524E-10
 -1       374-1.20782E+04-1.50412E+05-1.26021E+04 1.28980E+05-2.38906E-08-1.94487E-09
 -1       375 1.12166E+04-1.61687E+05-2.77892E+04-3.10993E+04-9.57698E-09-2.49202E-09
 -1       376-5.55186E+05-1.14331E+05-2.19706E+04-2.58506E+05 1.09315E-07-6.84031E-09
 -1       377-6.19301E+05-8.70943E+03-4.94839E+03-1.28074E+05 8.30478E-08 1.86598E-08
 -1       378-5.25444E+05-1.16773E+05-3.25721E+03-2.55241E+05-8.06902E-08 2.01267E-08
 -1       379-5.89400E+05-8.19307E+03 7.30108E+03-1.26621E+05-8.28951E-08-1.54068E-08
 -1       380-5.84132E+05-1.15535E+05-1.14750E+04-2.59154E+05 7.57154E-10 1.00194E-08
 -1       381-4.61260E+05-2.89566E+04 2.92903E+04-1.33363E+05 2.63424E-08 8.17772E-09
 -1       382-6.49566E+05-9.89551E+04-2.05208E+04-2.45314E+05-2.01239E-08 3.43789E-10
 -1       383-4.03356E+05-7.83936E+04 3.08116E+04-1.88127E+05 2.21314E-08 1.27790E-09
 -1       384-6.41563E+05-6.64827E+04-1.33793E+04-2.04290E+05-6.47460E-08 1.00890E-08
 -1       385-4.54745E+05-1.32060E+05 8.77725E+03-2.65084E+05-7.31829E-08 3.52338E-09
 -1       386-6.02180E+05-4.23284E+04-4.95521E+03-1.71346E+05 4.84190E-08 3.15063E-08
 -1       387-4.85044E+05-1.52464E+05-9.45883E+03-2.88597E+05 5.95801E-08 1.80771E-08
 -1       388-6.12968E+05-4.48169E+04-2.52496E+04-1.81947E+05 1.59520E-07 1.62599E-08
 -1       389-4.48976E+05-1.49513E+05-3.97730E+04-2.27851E+05 1.46207E-07 2.70029E-09
 -1       390-6.34705E+05-4.79758E+04-1.08606E+05-2.29577E+05 1.27238E-08-3.42334E-09
 -1       406 2.19515E+03 7.46312E+05 4.40171E+03-8.36755E+04-2.60297E-09-7.40329E-10
 -1       407 1.39188E+03 7.47058E+05 5.02972E+03-9.20975E+04 5.25233E-10-7.25140E-09
 -1       408 2.03991E+03 7.46146E+05 8.01453E+03-8.34167E+04-2.68847E-09-7.76345E-09
 -1       409 7.87857E+03 7.49190E+05 1.70311E+04-9.24245E+04 3.54703E-10-1.90776E-08
 -1       410 2.25066E+04 7.43927E+05 3.42325E+04-8.33114E+04-3.39787E-09-1.35547E-08
 -1       466 1.39193E+06-5.59739E+04 1.17234E+05 4.91239E+04-7.66704E-10-1.56288E-08
 -1       467 1.51523E+06 6.27308E+04 9.50641E+04-7.90607E+04-2.13538E-09 2.35013E-09
 -1       468 1.44149E+06-7.64171E+03 3.16171E+04 1.35282E+04 1.12266E-09-1.36424E-09
 -1       469 1.45762E+06 8.65037E+03 2.08263E+04-3.11944E+04 3.79248E-09 4.70800E-09
 -1       470 1.44800E+06-1.06362E+03 8.46379E+03 1.23826E+03 1.64201E-09 3.43061E-09
 -1       471 1.45009E+06 1.32041E+03 5.40589E+03-1.47397E+04 2.30237E-09 6.37135E-09
 -1       472 1.44883E+06-2.09207E+02 3.30944E+03-2.92704E+03 2.77737E-10 3.57153E-09
 -1       473 1.44936E+06 7.50414E+02 3.84760E+03-9.48623E+03-2.09056E-09-1.47176E-09
 -1       474 1.44871E+06-4.80471E+02 5.46620E+03-4.01521E+03-1.02208E-09 2.95267E-09
 -1       475 1.45084E+06 3.61317E+03 1.16258E+04-9.07231E+03 4.31896E-10 2.76714E-10
 -1       476 1.44734E+06-3.06695E+03 1.97254E+04-3.34091E+03 3.57719E-09 1.40244E-09
 -1       477 1.46058E+06 2.30149E+04 4.83035E+04-1.30045E+04-9.24558E-11-1.05229E-09
 -1       478 1.43895E+06-1.98561E+04 7.69060E+04-8.29030E+01-2.06910E-10 6.25732E-10
 -1       479 1.52080E+06 1.47954E+05 2.10419E+05-2.64078E+04 4.60952E-09 2.91038E-09
 -1       480 1.38721E+06-1.27815E+05 2.96728E+05 1.00610E+04 3.94732E-09-3.39060E-09
 -1       481-1.59787E+04 3.39788E+05 2.28991E+04-2.87160E+04-1.05501E-10-3.74166E-09
 -1       482 1.66588E+04 4.23142E+05 2.99059E+04 8.92659E+04-1.73259E-10 1.37459E-08
 -1       483-1.85404E+03 3.74913E+05 1.01610E+04-1.98795E+04 3.22871E-11 4.28565E-09
 -1       484 7.16829E+03 3.88720E+05 1.37974E+04 8.07295E+04 5.25517E-11-1.13823E-09
 -1       485-5.42771E+03 3.72619E+05 1.24869E+04-2.01569E+04 2.08274E-10-3.90321E-09
 -1       486-1.35720E+06-2.91970E+05-1.71674E+05-6.96983E+05-8.02538E-09-1.99216E-08
 -1       487-1.39754E+06 8.68463E+04-2.91052E+04-9.84754E+04 1.71690E-08 5.32673E-08
 -1       488-1.33696E+06-3.15153E+05-5.72343E+04-6.86386E+05-1.55381E-09-1.01445E-08
 -1       489-8.19464E+05 6.81766E+04 1.34140E+05-9.60537E+04-2.97177E-10-7.17773E-09
 -1       490-1.91369E+06-2.93800E+05-1.38833E+05-6.80438E+05 1.55887E-09 6.61021E-09
 -1       491-5.32228E+05-1.78433E+05 1.54303E+05-3.95811E+05-4.14002E-09 3.57568E-08
 -1       492-1.62164E+06-7.09703E+04-3.35582E+04-3.86891E+05 1.54387E-08-1.54998E-08
 -1       493-8.68007E+05-3.85049E+05 5.18037E+04-7.17396E+05-7.54574E-09 8.36690E-09
 -1       494-1.60235E+06-6.38670E+04-2.82483E+04-3.77170E+05 7.03312E-09 1.51358E-08
 -1       495-5.46447E+05-1.90989E+05 1.49656E+05-4.14578E+05 1.23696E-08-6.03577E-08
 -1       496-1.91986E+06-2.87336E+05-1.37635E+05-6.72285E+05 5.92081E-09-1.49366E-08
 -1       497-7.88226E+05 6.43896E+04 1.41899E+05-9.96122E+04 1.52829E-08-1.81899E-08
 -1       498-1.36090E+06-3.18863E+05-5.74550E+04-6.90099E+05-1.64277E-09-4.31100E-08
 -1       499-1.39277E+06 9.64054E+04-1.53769E+04-1.00332E+05-1.09935E-08-4.42224E-08
 -1       500-1.33806E+06-2.97786E+05-1.46339E+05-6.91439E+05-5.05024E-08 4.05489E-08
 -1       501-9.60193E+05-4.07822E+04 8.20695E+04 8.74722E+03-4.64024E-09 3.45972E-09
 -1       502-8.63029E+05 4.68192E+04 6.89905E+04-3.96012E+04-7.16187E-09 5.83168E-09
 -1       503-9.26685E+05-6.51702E+03 2.11838E+04 3.19433E+04-8.76548E-09 3.64798E-09
 -1       504-9.07627E+05 8.11221E+03 1.55565E+04-6.78620E+04-6.08213E-09-4.94674E-09
 -1       505-9.17191E+05-8.80104E+02 5.79118E+03 3.70326E+04 1.67293E-08 1.58054E-08
 -1       506-8.98503E+05 2.34972E+03 6.97477E+03-5.69897E+04 1.37951E-08-7.73298E-10
 -1       507-9.35126E+05-1.33097E+03-2.38409E+03 2.10560E+04 1.23416E-08 1.05831E-08
 -1       508-8.71827E+05 1.87619E+03 9.73933E+03-1.27173E+04 5.39785E-09 4.60318E-10
 -1       509-9.42305E+05-1.68452E+03-4.99140E+03-7.24234E+03-4.68435E-09 2.01845E-09
 -1       510-8.83519E+05 1.52191E+03 6.86840E+03 3.93154E+04-3.27873E-09-1.88338E-09
 -1       511-9.24106E+05-4.27464E+02-1.41079E+03-3.09516E+04-2.18738E-08-1.16863E-08
 -1       512-9.10685E+05 1.23495E+03 1.49647E+03 6.84503E+04-2.87063E-08-3.99380E-10
 -1       513-9.16711E+05-1.13252E+02 1.40214E+02-3.63997E+04-1.10585E-08-1.75138E-08
 -1       514-8.98726E+05 2.99817E+03 4.32161E+03 5.82226E+04-8.10547E-09 7.71840E-09
 -1       515-9.35414E+05-2.72028E+03-3.66663E+03-2.07107E+04-9.52127E-09-5.60144E-09
 -1       516-8.47047E+04 2.74190E+05 1.98706E+05-1.78961E+04-9.31323E-10-4.87807E-09
 -1       517 1.00173E+05 3.68010E+05 1.46338E+05 7.40952E+04-1.70985E-09-5.41573E-09
 -1       518-1.54107E+04 3.02354E+05 6.08148E+04-1.87992E+04-1.76442E-10 6.29927E-09
 -1       519 3.86738E+04 3.75472E+05 7.03731E+04 8.31714E+04-4.18521E-09-4.33238E-09
 -1       520-2.46406E+04 2.68606E+05 4.69537E+04-2.70038E+04-1.83900E-09-1.92081E-08
 -1       521-5.36213E+06-6.86586E+05-3.74345E+05-2.07245E+06 1.21872E-09 6.98492E-10
 -1       522-5.48561E+06-9.39309E+05-2.36298E+05-2.08117E+06-8.51287E-10 1.39698E-09
 -1       523-5.43028E+06-7.68580E+05-8.82162E+04-2.05885E+06-2.83023E-10 1.56797E-09
 -1       524-5.40546E+06-8.34017E+05-4.84243E+04-2.10478E+06-8.94943E-10 1.37334E-10
 -1       525-5.44016E+06-7.75165E+05-2.04892E+04-2.05529E+06 7.03949E-10-1.57070E-09
 -1       526-5.39372E+06-8.25812E+05-1.08558E+04-2.11052E+06 6.19252E-09-1.04410E-09
 -1       527-5.44221E+06-7.74959E+05-5.59742E+03-2.05399E+06 7.66249E-11-2.69188E-09
 -1       528-5.39207E+06-8.25509E+05-4.48465E+03-2.11162E+06 3.84716E-10 4.36216E-09
 -1       529-5.44191E+06-7.75277E+05-5.49411E+03-2.05431E+06 2.65163E-09 5.02860E-09
 -1       530-5.39468E+06-8.24662E+05-1.05373E+04-2.10912E+06-3.05454E-09-1.99452E-09
 -1       531-5.43931E+06-7.76112E+05-1.98776E+04-2.05623E+06-2.72576E-09 1.28239E-09
 -1       532-5.40711E+06-8.31464E+05-4.68789E+04-2.10216E+06-5.67297E-09-1.79716E-09
 -1       533-5.42915E+06-7.70332E+05-8.54402E+04-2.06032E+06-7.32973E-09-2.67028E-09
 -1       534-5.48578E+06-9.32290E+05-2.28743E+05-2.07803E+06 7.93989E-10 7.00675E-09
 -1       535-5.36266E+06-6.91486E+05-3.62441E+05-2.07407E+06-2.55022E-09 4.86034E-09
 -1       536 5.09411E+04-2.12241E+04 9.04531E+04-1.29792E+04 1.26784E-09 7.78527E-10
 -1       537 8.43740E+04 2.81000E+04 5.80305E+04-5.07013E+04-4.89672E-09-3.76531E-09
 -1       538 6.45076E+04-2.34744E+03 2.33792E+04-1.28401E+04 5.32964E-10-4.04179E-09
 -1       539 6.87151E+04 2.62546E+03 1.30952E+04-5.08103E+04 1.10776E-09-8.86394E-09
 -1       540 6.59831E+04-3.28363E+02 5.87416E+03-1.28553E+04 4.72937E-11-2.09184E-10
 -1       541 6.66472E+04 2.26364E+02 3.11192E+03-5.07734E+04-9.59517E-11-5.42445E-09
 -1       542 6.61353E+04-5.32346E+01 1.43466E+03-1.28781E+04-3.30601E-10-5.74187E-09
 -1       543 6.62128E+04 5.90438E+01 7.00611E+02-5.07388E+04 2.88765E-11-2.18722E-09
 -1       544 6.61432E+04 1.07153E+01 2.39737E+02-1.28902E+04 2.56364E-09-4.92446E-09
 -1       545 6.60755E+04 4.66548E+01-8.13755E+01-5.07247E+04 4.84974E-09-9.01650E-10
 -1       546 6.61631E+04 3.70620E+01-4.24830E+02-1.28921E+04 2.82989E-09 1.75146E-09
 -1       547 6.59553E+04-1.92191E+02-1.09486E+03-5.07248E+04-7.70797E-10 6.27188E-09
 -1       548 6.63185E+04 1.76961E+02-2.04260E+03-1.28903E+04-1.03410E-09 1.53545E-09
 -1       549 6.47856E+04-2.49262E+03-5.06111E+03-5.06450E+04-4.90218E-10 5.40240E-10
 -1       550 6.75526E+04 1.74952E+03-7.97161E+03-1.29716E+04 6.09361E-11-1.35128E-09
 -1       551 2.69855E+04-5.02163E+05 5.05922E+04-7.49950E+05 5.46788E-09-8.80391E-10
 -1       552 1.63106E+04-4.95327E+05 3.98405E+04-8.77735E+05 4.38013E-09 5.34783E-10
 -1       553 1.15807E+04-5.02719E+05 4.59776E+04-7.48682E+05 5.90080E-09 4.56203E-09
 -1       554 3.40486E+04-4.85912E+05 8.60726E+04-8.77923E+05 5.98084E-09 1.60708E-09
 -1       555 8.39996E+04-5.13485E+05 1.62872E+05-7.49474E+05 6.43922E-09-7.07587E-09
 -1       556-3.89597E+05-1.98214E+05 3.08961E+04-3.54754E+05 4.10728E-09-2.18279E-11
 -1       557-3.60604E+05-2.29585E+05 1.52557E+04-3.77528E+05 4.30737E-09 1.12855E-08
 -1       558-3.91056E+05-2.08167E+05 6.33272E+03-3.49017E+05-7.78527E-10-2.33194E-09
 -1       559-3.64337E+05-2.34399E+05 3.14191E+03-3.79221E+05 1.04774E-09 3.34239E-09
 -1       560-3.92078E+05-2.07887E+05 1.35345E+03-3.49374E+05-6.54836E-11 2.52749E-09
 -1       561-3.65581E+05-2.34211E+05 6.56246E+02-3.80109E+05 1.60071E-10 6.50425E-09
 -1       562-3.92826E+05-2.07425E+05 2.06795E+02-3.49863E+05 2.68847E-09 7.79437E-09
 -1       563-3.66294E+05-2.33905E+05-3.76135E+01-3.80613E+05 4.41651E-09 6.35555E-09
 -1       564-3.93243E+05-2.07154E+05-3.57434E+02-3.50147E+05 1.29330E-09-2.40834E-09
 -1       565-3.66650E+05-2.33762E+05-8.87632E+02-3.80843E+05 1.49066E-09 6.98128E-09
 -1       566-3.93290E+05-2.07066E+05-1.90866E+03-3.50209E+05-2.36923E-09-2.33558E-09
 -1       567-3.66943E+05-2.33987E+05-4.22665E+03-3.80775E+05-2.19734E-09-9.47330E-09
 -1       568-3.92816E+05-2.07810E+05-8.71815E+03-3.49774E+05 1.26056E-09-4.13274E-09
 -1       569-3.71350E+05-2.39455E+05-2.05585E+04-3.79232E+05 9.74978E-10 6.65568E-09
 -1       570-3.90700E+05-2.24025E+05-4.20227E+04-3.42725E+05 2.57205E-09 5.31372E-09
 -1       571 4.80731E+05 2.29369E+04 3.53111E+04-1.24851E+05 8.65839E-10 1.24737E-09
 -1       572 4.86093E+05 7.78891E+03 1.73505E+04-1.37641E+05 1.10049E-10-1.61026E-09
 -1       573 4.82818E+05 1.71395E+03 7.71980E+03-1.24501E+05 9.09495E-12-1.98725E-09
 -1       574 4.83419E+05 5.27038E+02 3.87965E+03-1.38010E+05-6.88487E-10-9.71340E-10
 -1       575 4.82997E+05 3.85111E+01 1.83639E+03-1.24459E+05 2.18279E-11-1.24965E-09
 -1       576 4.83046E+05 3.04412E-01 9.40831E+02-1.38058E+05 1.15625E-09 5.05497E-09
 -1       577 4.83026E+05-3.39028E+01 4.71241E+02-1.24454E+05 6.52108E-10 2.60206E-09
 -1       578 4.83036E+05-3.45798E+01 2.71262E+02-1.38064E+05 2.01908E-10 1.81808E-09
 -1       579 4.83108E+05-6.63160E+01 1.88686E+02-1.24453E+05-9.20409E-10 4.42014E-10
 -1       580 4.83167E+05-9.59880E+01 2.16013E+02-1.38060E+05 2.51021E-10-2.98769E-09
 -1       581 4.83265E+05-1.43225E+02 3.31356E+02-1.24458E+05-7.71252E-10-5.12955E-10
 -1       582 4.83445E+05-1.22969E+02 6.64268E+02-1.37989E+05-2.37924E-09 1.36606E-09
 -1       583 4.83465E+05 3.62485E+00 1.28360E+03-1.24523E+05-3.07045E-09 3.38378E-09
 -1       584 4.84183E+05 9.46880E+02 2.88984E+03-1.37413E+05-3.68163E-09 4.11410E-09
 -1       585 4.83384E+05 3.41701E+03 5.84993E+03-1.25041E+05 2.02272E-09-3.45608E-10
 -1       586 4.46950E+03 2.08059E+05 7.53747E+03-3.08375E+05 7.58519E-10-7.63976E-10
 -1       587 2.68478E+03 2.09163E+05 7.15816E+03-3.40886E+05 1.03500E-09 2.84217E-10
 -1       588 3.02464E+03 2.07789E+05 1.01021E+04-3.07980E+05 8.44011E-10 7.26232E-10
 -1       589 9.97669E+03 2.11562E+05 2.06515E+04-3.40983E+05 9.60426E-10-5.02996E-09
 -1       590 2.73064E+04 2.05385E+05 4.10793E+04-3.08258E+05 1.01318E-09-4.07999E-09
 -1       591-2.21105E+05-7.64316E+04-4.26794E+04-1.14135E+05 3.46517E-10 1.58980E-09
 -1       592-2.22489E+05-7.10454E+04-2.09213E+04-1.26740E+05 8.15362E-10 3.44562E-09
 -1       593-2.22349E+05-6.05536E+04-8.87599E+03-1.21402E+05-9.16771E-10 1.17279E-09
 -1       594-2.17956E+05-6.52566E+04-4.34097E+03-1.27533E+05-3.03021E-09 8.31207E-10
 -1       595-2.22564E+05-5.99565E+04-1.99864E+03-1.21735E+05-4.20096E-09-5.15297E-09
 -1       596-2.17619E+05-6.50233E+04-1.01433E+03-1.27511E+05-4.45652E-10-2.15778E-10
 -1       597-2.22606E+05-5.99838E+04-5.54392E+02-1.21740E+05-9.76570E-11-3.31192E-09
 -1       598-2.17584E+05-6.50267E+04-4.47647E+02-1.27496E+05 1.53307E-09 7.11498E-09
 -1       599-2.22597E+05-5.99874E+04-5.74088E+02-1.21735E+05 1.25920E-09 9.28867E-09
 -1       600-2.17606E+05-6.50302E+04-1.06609E+03-1.27499E+05 3.50656E-09 1.30212E-08
 -1       601-2.22535E+05-5.99666E+04-2.10820E+03-1.21721E+05-4.49472E-09 2.94403E-09
 -1       602-2.17950E+05-6.52790E+04-4.58277E+03-1.27505E+05-3.32147E-09-7.79664E-09
 -1       603-2.22290E+05-6.06108E+04-9.37214E+03-1.21364E+05-2.88674E-09 6.19821E-09
 -1       604-2.22761E+05-7.13531E+04-2.20871E+04-1.26607E+05-1.37097E-08-2.08456E-09
 -1       605-2.20926E+05-7.74056E+04-4.50571E+04-1.13722E+05-6.84486E-09-1.04410E-09
 -1       606 1.54539E+05-1.92157E+04-2.94706E+04 4.44557E+04 1.07684E-08-1.75169E-09
 -1       607 1.49946E+05-6.52260E+03-1.44715E+04 4.85265E+04 3.68700E-08 1.67142E-09
 -1       608 1.52601E+05-1.42629E+03-6.44112E+03 4.41481E+04 2.54731E-08 6.08452E-10
 -1       609 1.51975E+05-3.68038E+02-3.22750E+03 4.88512E+04-3.55521E-09 2.42835E-09
 -1       610 1.52311E+05 5.25730E+01-1.52492E+03 4.41091E+04-7.23412E-09 2.48156E-09
 -1       611 1.52173E+05 1.31672E+02-7.67134E+02 4.88914E+04-1.72176E-08 4.03816E-10
 -1       612 1.52225E+05 1.47684E+02-3.66154E+02 4.41049E+04-6.12090E-09 8.33097E-10
 -1       613 1.52161E+05 1.70649E+02-1.69541E+02 4.88958E+04-1.07575E-08 5.89353E-10
 -1       614 1.52177E+05 1.57997E+02-5.34920E+01 4.41041E+04-2.33013E-09 1.45519E-11
 -1       615 1.52132E+05 1.86362E+02 3.70093E+01 4.88957E+04 9.96079E-09 1.10822E-09
 -1       616 1.52141E+05 1.77333E+02 1.42565E+02 4.41047E+04-5.36420E-09 4.66480E-09
 -1       617 1.52134E+05 2.49724E+02 3.40644E+02 4.88937E+04-3.37877E-10 6.24323E-09
 -1       618 1.52095E+05 3.44930E+02 6.96198E+02 4.41053E+04-2.84490E-09-1.05410E-09
 -1       619 1.52348E+05 9.25144E+02 1.57534E+03 4.88867E+04-9.27230E-10-4.15503E-09
 -1       620 1.51881E+05 2.28766E+03 3.21153E+03 4.41056E+04 1.56217E-09 8.82210E-10
 -1       621 3.69204E+03 4.99486E+05 8.94728E+03-4.00845E+04 4.51337E-09-1.76215E-09
 -1       622 1.45126E+03 5.01179E+05 7.43467E+03-4.70901E+04 1.46929E-09-4.23870E-09
 -1       623 8.77355E+02 4.99871E+05 9.18742E+03-4.01535E+04 3.74257E-09-2.78396E-09
 -1       624 5.29054E+03 5.03483E+05 1.77155E+04-4.68395E+04 1.41654E-09-3.86763E-09
 -1       625 1.61756E+04 4.97287E+05 3.38847E+04-4.03272E+04 3.22279E-09-4.51382E-09
 -1       626 2.22757E+05 7.22493E+04-1.27164E+04 1.50145E+05-3.93084E-09 4.06362E-09
 -1       627 2.16745E+05 8.13469E+04-6.03034E+03 1.52935E+05-1.29148E-09 4.47255E-09
 -1       628 2.22992E+05 7.85036E+04-2.53587E+03 1.47073E+05-7.47787E-09 9.98671E-09
 -1       629 2.17644E+05 8.39377E+04-1.21542E+03 1.52678E+05-1.69584E-08 1.09468E-08
 -1       630 2.22928E+05 7.89504E+04-5.37225E+02 1.46801E+05-8.18181E-09 1.24936E-09
 -1       631 2.17674E+05 8.41413E+04-2.39282E+02 1.52653E+05-9.34324E-09-1.12755E-09
 -1       632 2.22874E+05 7.89788E+04-6.65705E+01 1.46762E+05-1.07093E-08-3.82079E-09
 -1       633 2.17654E+05 8.41602E+04 6.14234E+01 1.52639E+05-6.47378E-09 7.71070E-09
 -1       634 2.22839E+05 7.89748E+04 2.19703E+02 1.46748E+05-1.26088E-08 5.46288E-09
 -1       635 2.17670E+05 8.41699E+04 5.22984E+02 1.52638E+05-3.50519E-08 4.46289E-09
 -1       636 2.22813E+05 7.89990E+04 1.09528E+03 1.46729E+05-2.83731E-08-5.83350E-09
 -1       637 2.17934E+05 8.44624E+04 2.45070E+03 1.52596E+05-1.37371E-08-2.07183E-09
 -1       638 2.22764E+05 7.98820E+04 5.07915E+03 1.46346E+05-8.48968E-09-6.16637E-09
 -1       639 2.20538E+05 8.89647E+04 1.20861E+04 1.51501E+05-1.87431E-08 7.40874E-09
 -1       640 2.22901E+05 9.29111E+04 2.54715E+04 1.40921E+05-7.28369E-09-2.10548E-10
 -1       641 8.15741E+03 4.41142E+03-1.02745E+04-2.52103E+02-1.55164E-08-1.60298E-09
 -1       642 3.77433E+03-5.10534E+03-7.24316E+03 1.12611E+03 7.03295E-09-2.14959E-09
 -1       643 6.45644E+03 6.86771E+02-2.65008E+03-2.42937E+02-2.46464E-08-4.52701E-10
 -1       644 5.74758E+03-7.89108E+02-1.63928E+03 1.11253E+03 1.42566E-08-3.94306E-09
 -1       645 6.18259E+03 1.04068E+02-6.33552E+02-2.38551E+02-9.78847E-09 2.03795E-09
 -1       646 6.06963E+03-1.05446E+02-2.96853E+02 1.10609E+03-5.47838E-07 7.54801E-09
 -1       647 6.13357E+03 4.81936E+00 6.52024E+00-2.36504E+02-7.31420E-05 2.30740E-07
 -1       648 6.16070E+03 6.61127E+01 2.95492E+02 1.10401E+03-1.45342E-04 4.59830E-07
 -1       649 6.09126E+03-6.70846E+01 6.64239E+02-2.36469E+02-7.31365E-05 2.31722E-07
 -1       650 6.40569E+03 5.15528E+02 1.60315E+03 1.10541E+03-5.25584E-07 4.69072E-10
 -1       651 5.88885E+03-4.44143E+02 2.79243E+03-2.37908E+02-1.44511E-08-3.23701E-09
 -1       652 7.78670E+03 3.30799E+03 6.90048E+03 1.10799E+03 5.72910E-09-6.42672E-10
 -1       653 4.71120E+03-2.85535E+03 1.10073E+04-2.39059E+02-1.16595E-08-1.81853E-09
 -1       654 1.60883E+04 2.11947E+04 3.00765E+04 1.10105E+03 1.11445E-08 3.75667E-09
 -1       655-2.40885E+03-1.82984E+04 4.25524E+04-2.31025E+02-8.43507E-10-1.01500E-09
 -1       656 1.50811E+04-5.78359E+05-6.81101E+04 1.64106E+04 1.67820E-08 7.36691E-10
 -1       657-2.24854E+04-6.03078E+05-4.96323E+04 6.12505E+04 1.23682E-08 1.72440E-09
 -1       658 2.87983E+03-5.87212E+05-3.15846E+04 1.62314E+04 1.24771E-08-1.49566E-09
 -1       659-2.05720E+04-6.02030E+05-4.62862E+04 6.13815E+04 1.01768E-08-4.99908E-09
 -1       660 1.36032E+04-5.79506E+05-6.17608E+04 1.62824E+04 1.07939E-08 5.20458E-10
 -1       661 5.61755E+05 7.23797E+04 4.61184E+04 2.20456E+05 1.44018E-09-2.48292E-09
 -1       662 5.72431E+05 1.08074E+05 2.91103E+04 2.26881E+05-9.49416E-09-5.69344E-10
 -1       663 5.69660E+05 8.29467E+04 1.08912E+04 2.19370E+05-4.74756E-10 6.52199E-09
 -1       664 5.63349E+05 9.43430E+04 6.00053E+03 2.28750E+05-2.46818E-08 1.95882E-10
 -1       665 5.70525E+05 8.41252E+04 2.55470E+03 2.19324E+05-2.07923E-08-4.14752E-09
 -1       666 5.62354E+05 9.28508E+04 1.38922E+03 2.28831E+05-1.17016E-08-2.82421E-09
 -1       667 5.70611E+05 8.42727E+04 7.76542E+02 2.19343E+05 9.83567E-09 2.84631E-09
 -1       668 5.62270E+05 9.27043E+04 7.31347E+02 2.28813E+05-1.25669E-08-4.28508E-09
 -1       669 5.70602E+05 8.42632E+04 1.02629E+03 2.19342E+05 1.24388E-09 1.54876E-09
 -1       670 5.62438E+05 9.29489E+04 2.08137E+03 2.28833E+05 2.43655E-08 8.26560E-10
 -1       671 5.70452E+05 8.40418E+04 3.95493E+03 2.19322E+05 4.86057E-09-5.41309E-09
 -1       672 5.64026E+05 9.52559E+04 9.36855E+03 2.28667E+05 8.35689E-09-1.05206E-09
 -1       673 5.69072E+05 8.22216E+04 1.70333E+04 2.19416E+05 6.40296E-09-6.50743E-09
 -1       674 5.78272E+05 1.16700E+05 4.55455E+04 2.25685E+05-1.01236E-08-3.90719E-09
 -1       675 5.56679E+05 6.57160E+04 7.21707E+04 2.21140E+05-1.22491E-08-1.01500E-09
 -1       676 1.52118E+03-5.42293E+05-7.91841E+03 9.66250E+02 2.23749E-08-3.36685E-09
 -1       677-2.99693E+03-5.45318E+05-8.56174E+03 4.66667E+02 3.00292E-09 2.99245E-09
 -1       678 9.37889E+02-5.42658E+05-1.01357E+04 9.64156E+02 1.33459E-08-6.45343E-10
 -1       679-1.06988E+04-5.49896E+05-2.22210E+04 4.65811E+02 5.10818E-09-1.34730E-09
 -1       680 7.72717E+03-5.37720E+05-3.37525E+04 9.64034E+02 1.79007E-08 8.20251E-10
 -1       681 6.42392E+05-1.61065E+04 3.50728E+04 9.74187E+03-4.63842E-11 9.62245E-10
 -1       682 6.69449E+05 1.84305E+04 2.68734E+04-2.80259E+04-6.78057E-10-3.16959E-10
 -1       683 6.52492E+05-2.39712E+03 9.17941E+03 2.69258E+03 2.40846E-10 3.09410E-09
 -1       684 6.57184E+05 2.80672E+03 6.11879E+03-1.78786E+04-6.38920E-11 2.17915E-09
 -1       685 6.54399E+05-3.38462E+02 2.44428E+03-4.05534E+02 4.89706E-11 4.61375E-09
 -1       686 6.54918E+05 4.83536E+02 1.55061E+03-1.40511E+04 2.46425E-09 4.56681E-09
 -1       687 6.54699E+05-3.78554E+01 9.24164E+02-1.13470E+03-2.92005E-10 2.20346E-09
 -1       688 6.54910E+05 1.89026E+02 1.03317E+03-1.45997E+04-1.49686E-09 5.13877E-09
 -1       689 6.54414E+05-4.93220E+01 1.36398E+03 1.43094E+02-3.80106E-09 2.30006E-09
 -1       690 6.56907E+05 6.54781E+02 3.22108E+03-1.97928E+04-1.94436E-09 5.38466E-09
 -1       691 6.52794E+05-5.63601E+02 4.71934E+03 4.05804E+03 4.20556E-09 2.49202E-10
 -1       692 6.66445E+05 5.08133E+03 1.37390E+04-3.21789E+04 4.95083E-09 2.63935E-09
 -1       693 6.45256E+05-4.71858E+03 1.81121E+04 1.25307E+04-1.62777E-09-4.50382E-09
 -1       694 7.11474E+05 3.85832E+04 6.08764E+04-5.79924E+04-1.21572E-08-2.79852E-09
 -1       695 6.09272E+05-3.49925E+04 6.86655E+04 2.98999E+04-1.17516E-08-1.35988E-08
 -1       696-1.42547E+04 6.17072E+05 3.23309E+04-5.56780E+03 1.43700E-10-8.13998E-10
 -1       697 1.51155E+04 6.32125E+05 2.06445E+04 8.74136E+03 2.67391E-10-4.61569E-11
 -1       698-8.63137E+02 6.23787E+05 3.34828E+03-3.27475E+03-1.81899E-10 1.46213E-09
 -1       699-7.59101E+03 6.20943E+05-9.13941E+03 5.70738E+03-3.62888E-10 3.24752E-09
 -1       700 8.43200E+03 6.28234E+05-1.86029E+04-2.53379E+03-2.37378E-10 1.31365E-09
 -1       701-6.12825E+05-8.04567E+04-8.97283E+04-2.65439E+05-2.07183E-09-1.67493E-08
 -1       702-6.16018E+05-6.11727E+04-4.11117E+04-1.46155E+05-1.73350E-09-9.16680E-09
 -1       703-5.69858E+05-1.11512E+05-1.94332E+04-2.62930E+05-3.32784E-09 7.13771E-09
 -1       704-6.55828E+05-2.49562E+04-9.06716E+03-1.50733E+05-3.19451E-08-1.01303E-08
 -1       705-5.74822E+05-1.15292E+05-5.83863E+03-2.62369E+05 1.31670E-08 1.07518E-08
 -1       706-5.90064E+05-2.89355E+04 1.00937E+04-1.52557E+05-2.24152E-08-2.60261E-08
 -1       707-6.33587E+05-1.09021E+05-1.27862E+04-2.59444E+05-1.97974E-08-3.25144E-09
 -1       708-4.96410E+05-5.91814E+04 2.35587E+04-1.78054E+05-1.39607E-10-9.37405E-10
 -1       709-6.66058E+05-8.68496E+04-1.48179E+04-2.35075E+05-4.06317E-09-1.05056E-08
 -1       710-4.87524E+05-1.08015E+05 1.45390E+04-2.39365E+05-1.98816E-09 1.09611E-09
 -1       711-6.43908E+05-5.91361E+04-8.49961E+03-1.99340E+05-2.05719E-08 3.67272E-08
 -1       712-5.28876E+05-1.46401E+05-8.31425E+03-2.88614E+05-5.30110E-09 3.91013E-08
 -1       713-6.27543E+05-4.63467E+04-1.86132E+04-1.87859E+05-4.13752E-09-2.85017E-08
 -1       714-5.33792E+05-1.67778E+05-4.71641E+04-2.69774E+05-7.52948E-09-3.51765E-08
 -1       715-6.38168E+05-3.84330E+04-8.93049E+04-2.17582E+05 9.87802E-09 2.53931E-09
 -1       716 3.81903E+05-2.58661E+04 4.85863E+04 2.17206E+04 1.61685E-08-6.21367E-09
 -1       717 4.69843E+05 2.82797E+04 4.58411E+04-4.73676E+04 6.99777E-09-1.13519E-08
 -1       718 4.09944E+05-3.52607E+03 1.25011E+04 1.07202E+04 1.80012E-09-1.52795E-09
 -1       719 4.33073E+05 3.67145E+03 1.09202E+04-3.02845E+04 8.77321E-10-1.66347E-09
 -1       720 4.17346E+05-4.07194E+02 3.36766E+03 4.60951E+03 2.54920E-09 2.94563E-09
 -1       721 4.23155E+05 5.05443E+02 3.04586E+03-2.09982E+04 3.23928E-09-1.05373E-09
 -1       722 4.19420E+05-6.66694E+01 1.72830E+03 1.43189E+03 6.57747E-09 3.53799E-09
 -1       723 4.20578E+05 5.17951E+02 2.55446E+03-1.66180E+04 5.17350E-09 5.51768E-09
 -1       724 4.19783E+05-3.25607E+02 3.86422E+03 2.29894E+02 8.92324E-09 4.35216E-09
 -1       725 4.21355E+05 2.70946E+03 8.46046E+03-1.58204E+04 7.34669E-09 5.14012E-09
 -1       726 4.18621E+05-2.24099E+03 1.44182E+04 6.34556E+02 7.47983E-09 8.35826E-10
 -1       727 4.29643E+05 1.69947E+04 3.56817E+04-1.83731E+04 1.00639E-08 5.04951E-09
 -1       728 4.11562E+05-1.46337E+04 5.62616E+04 2.78223E+03 3.54999E-09 2.21917E-10
 -1       729 4.77023E+05 1.09093E+05 1.55489E+05-2.54294E+04 6.19707E-10 2.80852E-09
 -1       730 3.71533E+05-9.43245E+04 2.17337E+05 7.68970E+03 4.99153E-09-2.61934E-09
 -1       731-2.00321E+04 1.92084E+05 3.00381E+04-1.70517E+04-8.14725E-09-6.57337E-09
 -1       732 2.11327E+04 2.98382E+05 3.70472E+04 4.77801E+04 4.12638E-09-1.26420E-09
 -1       733-2.56139E+03 2.21026E+05 5.94708E+03-9.67710E+03-1.98315E-09-1.37175E-09
 -1       734 1.35077E+03 2.56926E+05 7.24706E+03 3.57803E+04 1.85855E-09-9.67498E-09
 -1       735 9.11833E+02 2.31807E+05-2.61605E+03-5.01556E+03 1.50521E-09-7.07780E-09
 -1       736-1.05057E+06-1.82725E+05-9.27801E+04-5.01321E+05 2.57878E-08-9.40418E-09
 -1       737-1.21113E+06-6.59113E+04-4.77209E+04-2.54641E+05 3.28096E-08-1.15251E-08
 -1       738-1.14824E+06-2.09922E+05-3.69957E+04-4.99209E+05 1.44120E-08 1.60298E-08
 -1       739-9.67055E+05-8.41179E+04 3.43609E+04-2.97883E+05-3.63889E-09 2.59365E-09
 -1       740-1.28757E+06-1.70576E+05-3.83626E+04-4.52325E+05 1.30294E-08 1.94891E-08
 -1       741-9.01388E+05-1.97574E+05 3.37094E+04-4.45370E+05 2.50955E-08 4.73223E-08
 -1       742-1.21602E+06-9.46442E+04-5.90927E+03-3.53720E+05 8.67158E-09-2.60859E-08
 -1       743-9.67870E+05-2.62374E+05 9.91993E+03-5.39856E+05 3.32153E-09 3.29327E-08
 -1       744-1.22663E+06-1.00926E+05-9.10192E+03-3.62008E+05-9.63987E-08-3.22618E-08
 -1       745-8.94160E+05-1.83713E+05 3.79852E+04-4.26495E+05-5.93539E-08-9.29344E-09
 -1       746-1.28332E+06-1.78913E+05-3.87072E+04-4.62220E+05-9.55606E-09-6.71662E-10
 -1       747-9.92768E+05-7.38202E+04 3.23479E+04-2.88793E+05 1.96005E-08-3.46154E-09
 -1       748-1.12745E+06-2.11306E+05-3.12269E+04-4.98903E+05 2.31738E-08 2.80779E-08
 -1       749-1.21948E+06-6.03887E+04-4.39717E+04-2.55248E+05 3.26736E-09 4.58458E-08
 -1       750-1.06338E+06-1.86530E+05-8.70892E+04-5.01346E+05 9.33323E-09 3.22143E-08
 -1       751 4.26120E+06-2.43491E+05 5.68383E+05 2.16155E+04-3.18058E-08 3.49246E-10
 -1       752 4.50908E+06 2.82055E+05 4.01429E+05-2.37016E+04-6.35454E-09-4.68572E-09
 -1       753 4.35735E+06-3.79420E+04 1.47367E+05 2.97656E+03 1.28395E-10-1.70257E-09
 -1       754 4.39769E+06 4.39293E+04 9.24745E+04-2.72200E+03 3.96827E-09 8.69477E-10
 -1       755 4.37302E+06-5.90726E+03 3.79923E+04 6.41585E+02-2.41975E-09 3.92902E-10
 -1       756 4.37964E+06 6.92412E+03 2.26708E+04-8.89782E+01 2.05935E-09 1.85992E-09
 -1       757 4.37561E+06-1.00692E+03 1.11831E+04 3.43623E+02 1.50164E-10 6.88487E-10
 -1       758 4.37697E+06 1.79136E+03 8.93355E+03 2.41293E+02 2.48531E-09 3.67007E-09
 -1       759 4.37575E+06-7.82662E+02 9.10596E+03 3.11313E+02 4.16821E-09-4.21778E-10
 -1       760 4.37860E+06 4.98712E+03 1.66842E+04 2.31570E+02-7.12447E-10 3.11775E-09
 -1       761 4.37395E+06-4.19746E+03 2.71891E+04 3.53344E+02 2.03497E-09 3.03771E-10
 -1       762 4.39132E+06 3.11452E+04 6.56214E+04-1.76428E+02 5.85191E-09-7.23958E-10
 -1       763 4.36287E+06-2.68922E+04 1.04367E+05 7.19292E+02 1.14780E-08 4.95493E-09
 -1       764 4.46918E+06 1.99653E+05 2.83989E+05-3.44812E+03-2.10250E-10 7.94898E-09
 -1       765 4.29565E+06-1.72334E+05 4.02260E+05 3.62435E+03-2.96473E-09-2.35741E-09
 -1       766-9.62194E+04 3.92765E+05 2.21738E+05-2.70225E+04 3.92902E-09 1.78238E-09
 -1       767 1.14343E+05 5.11965E+05 1.67485E+05 1.12594E+05 1.06957E-09 1.43507E-09
 -1       768-1.76362E+04 4.35121E+05 7.25705E+04-2.45193E+04 4.82942E-09-3.54510E-09
 -1       769 5.17724E+04 5.25921E+05 9.08681E+04 1.22913E+05 5.73789E-09 2.21416E-09
 -1       770-3.53069E+04 3.81042E+05 6.47225E+04-3.73642E+04-3.20179E-08 5.97220E-09
 -1       771-2.45857E+06-4.95858E+05-8.69088E+04-1.05985E+06-1.13323E-09-1.00408E-09
 -1       772-2.45330E+06-4.92370E+05-4.25162E+04-1.09413E+06-3.41606E-09-1.42245E-09
 -1       773-2.46233E+06-4.62772E+05-1.81291E+04-1.07441E+06 3.41970E-10 4.31100E-09
 -1       774-2.44421E+06-4.81098E+05-8.82172E+03-1.09726E+06 3.83807E-09 3.50701E-09
 -1       775-2.46359E+06-4.61023E+05-4.11797E+03-1.07539E+06-6.40284E-10-2.45564E-10
 -1       776-2.44407E+06-4.80514E+05-2.06252E+03-1.09797E+06 4.17640E-09 2.13436E-09
 -1       777-2.46432E+06-4.60692E+05-1.15164E+03-1.07569E+06 9.96079E-09 8.92669E-09
 -1       778-2.44445E+06-4.80380E+05-8.89601E+02-1.09846E+06 9.97534E-09 1.16302E-10
 -1       779-2.46477E+06-4.60423E+05-1.14395E+03-1.07590E+06 3.73984E-09-2.41380E-09
 -1       780-2.44481E+06-4.80290E+05-2.09011E+03-1.09882E+06-4.59295E-10-1.54614E-11
 -1       781-2.46493E+06-4.60212E+05-4.14411E+03-1.07601E+06 1.54432E-09 3.40151E-10
 -1       782-2.44566E+06-4.80733E+05-9.01777E+03-1.09901E+06 4.32010E-11-1.81899E-10
 -1       783-2.46455E+06-4.61419E+05-1.84649E+04-1.07535E+06-4.89626E-09-8.86939E-09
 -1       784-2.45514E+06-4.92782E+05-4.35819E+04-1.09732E+06 9.06084E-10 7.90897E-09
 -1       785-2.46187E+06-4.94559E+05-8.89478E+04-1.06022E+06-8.04448E-10 3.60160E-10
 -1       786 4.34258E+05-1.30375E+04 5.65873E+04-3.15882E+03 7.66022E-10-3.65617E-09
 -1       787 4.54652E+05 1.77352E+04 3.62317E+04-1.28918E+04-7.03608E-10-3.09592E-09
 -1       788 4.42786E+05-1.34388E+03 1.46637E+04-3.17205E+03-4.35648E-10-1.42427E-09
 -1       789 4.45140E+05 1.74058E+03 8.18488E+03-1.28487E+04 1.21827E-09-1.58843E-09
 -1       790 4.43751E+05-1.46293E+02 3.72548E+03-3.19980E+03-3.02521E-10-4.39968E-10
 -1       791 4.44042E+05 1.67204E+02 1.99872E+03-1.28086E+04 1.25470E-09-2.34797E-09
 -1       792 4.43874E+05-1.86630E+01 1.02508E+03-3.21215E+03-1.35230E-10-1.25561E-09
 -1       793 4.43905E+05 2.03219E+01 6.81576E+02-1.28004E+04-4.43848E-10 1.98042E-10
 -1       794 4.43885E+05-1.08526E+01 6.30554E+02-3.20802E+03 5.45299E-10 2.64993E-09
 -1       795 4.43950E+05 6.99463E+01 9.60067E+02-1.28258E+04 9.89985E-10 7.22156E-09
 -1       796 4.43836E+05-6.64036E+01 1.65691E+03-3.18679E+03-3.73325E-09 9.14724E-10
 -1       797 4.44431E+05 7.45607E+02 3.56393E+03-1.28817E+04-5.59294E-09 5.16422E-10
 -1       798 4.43422E+05-5.87352E+02 6.35099E+03-3.15206E+03-2.94904E-09-2.71461E-09
 -1       799 4.48558E+05 7.65827E+03 1.56761E+04-1.29346E+04-2.34149E-09 9.75888E-10
 -1       800 4.39736E+05-5.65035E+03 2.44680E+04-3.13506E+03-5.44333E-10 2.01908E-10
 -1       801-2.11799E+04 5.19772E+05 6.89986E+04-3.66261E+05 1.72076E-09 4.23461E-09
 -1       802 5.28340E+04 5.35789E+05 7.47245E+04-1.42552E+06-9.19681E-09-7.27596E-11
 -1       803 1.14217E+03 5.17618E+05 7.67930E+04-3.65794E+05 4.17640E-09 1.06372E-08
 -1       804 1.00351E+05 5.65550E+05 1.59863E+05-1.42538E+06-1.26820E-08-3.80714E-09
 -1       805-6.05030E+04 4.91748E+05 2.29843E+05-3.66435E+05 4.38013E-09 5.58794E-09
 -1       806-4.57643E+05-1.21169E+05-3.88214E+04-2.10028E+05 3.84239E-09 6.74481E-09
 -1       807-4.57892E+05-1.11299E+05-1.84179E+04-2.21824E+05-4.27463E-10 1.92995E-09
 -1       808-4.57437E+05-1.01350E+05-7.74334E+03-2.18408E+05-1.70803E-09-1.33286E-09
 -1       809-4.54073E+05-1.04325E+05-3.74160E+03-2.23434E+05-1.13550E-09-1.94956E-09
 -1       810-4.57539E+05-9.99905E+04-1.69182E+03-2.19022E+05-1.18248E-08 5.22778E-09
 -1       811-4.53702E+05-1.03861E+05-8.48340E+02-2.23502E+05-2.34477E-08 1.28839E-08
 -1       812-4.57572E+05-9.99497E+04-4.45131E+02-2.19051E+05-1.00702E-08 3.15276E-09
 -1       813-4.53659E+05-1.03849E+05-3.31401E+02-2.23491E+05 3.48336E-10 5.20458E-10
 -1       814-4.57564E+05-9.99578E+04-3.89926E+02-2.19045E+05-1.69075E-09 6.66205E-10
 -1       815-4.53676E+05-1.03867E+05-7.01483E+02-2.23483E+05 1.80944E-09 1.64255E-09
 -1       816-4.57516E+05-1.00003E+05-1.37620E+03-2.19011E+05-6.54836E-10-2.67391E-10
 -1       817-4.53965E+05-1.04242E+05-3.03217E+03-2.23401E+05 2.39561E-09-4.60659E-09
 -1       818-4.57407E+05-1.01124E+05-6.27074E+03-2.18511E+05 1.00754E-08-1.04683E-09
 -1       819-4.57111E+05-1.09817E+05-1.49092E+04-2.21993E+05 1.98397E-08 1.45701E-08
 -1       820-4.57484E+05-1.17233E+05-3.14253E+04-2.11789E+05 5.63432E-09-2.72439E-09
 -1       821-4.58898E+05 1.36280E+04-5.92143E+04 3.13847E+03-5.79439E-09-2.61934E-09
 -1       822-4.80189E+05-1.85626E+04-3.79129E+04 1.36064E+04-3.85262E-09-3.82170E-09
 -1       823-4.67831E+05 1.39624E+03-1.53520E+04 3.00218E+03 5.19867E-09-1.34241E-09
 -1       824-4.70286E+05-1.79520E+03-8.56981E+03 1.38091E+04-2.64799E-09 5.90830E-10
 -1       825-4.68846E+05 1.54405E+02-3.92122E+03 2.93342E+03-7.98036E-09-2.72712E-09
 -1       826-4.69175E+05-1.32282E+02-2.13341E+03 1.39230E+04-1.70094E-08-1.90289E-09
 -1       827-4.68978E+05 2.92007E+01-1.16138E+03 2.88767E+03-9.65611E-09 4.07772E-09
 -1       828-4.69060E+05 2.42103E+01-8.95394E+02 1.39944E+04-1.21520E-08-3.87246E-10
 -1       829-4.68984E+05 2.95297E+01-1.01699E+03 2.86193E+03-8.22467E-10-1.88237E-10
 -1       830-4.69165E+05-8.68698E+01-1.75703E+03 1.40242E+04 8.14032E-09-4.36913E-09
 -1       831-4.68883E+05 1.34798E+02-3.16666E+03 2.85781E+03-7.28699E-09 9.92372E-10
 -1       832-4.70075E+05-1.41374E+03-6.89294E+03 1.40110E+04-1.30512E-09 2.07228E-09
 -1       833-4.68072E+05 1.13667E+03-1.23273E+04 2.87561E+03 1.21838E-09 1.63982E-09
 -1       834-4.78043E+05-1.48720E+04-3.04468E+04 1.39357E+04-5.82077E-11-9.28412E-09
 -1       835-4.60902E+05 1.09628E+04-4.75427E+04 2.93732E+03 1.85537E-09-3.11229E-09
 -1       836-2.19387E+04 1.18747E+06 1.00513E+05-3.18385E+04-1.62981E-09-2.57842E-09
 -1       837 3.39218E+04 1.22426E+06 7.81610E+04-1.20096E+05 5.35329E-09-4.17913E-09
 -1       838-5.24614E+03 1.19929E+06 5.79294E+04-3.19338E+04-2.79761E-09 8.26020E-10
 -1       839 4.49171E+04 1.23077E+06 9.76641E+04-1.20061E+05 5.35056E-09-3.33330E-09
 -1       840-3.07635E+04 1.18092E+06 1.37447E+05-3.18712E+04-2.35013E-09-1.61253E-09
 -1       841-3.76352E+04 1.93790E+03-1.88624E+04-1.75072E+04-5.70890E-09-7.13044E-10
 -1       842-4.79646E+04-1.48654E+04-1.30692E+04-1.37241E+04-4.16458E-09 4.36785E-09
 -1       843-4.14426E+04-4.84769E+03-4.42083E+03-1.62656E+04 4.05078E-09 8.79709E-09
 -1       844-4.35654E+04-6.98844E+03-2.74510E+03-1.51383E+04 4.68964E-09-7.88305E-10
 -1       845-4.20337E+04-5.92722E+03-1.01346E+03-1.60979E+04 1.47992E-09 1.03398E-10
 -1       846-4.28908E+04-5.72318E+03-5.61917E+02-1.53197E+04-9.81660E-09-4.60963E-09
 -1       847-4.21174E+04-6.11093E+03-1.83107E+02-1.60852E+04-7.01176E-09-3.48625E-09
 -1       848-4.27831E+04-5.48130E+03-2.54334E+00-1.53330E+04-5.55384E-09 1.45630E-09
 -1       849-4.21416E+04-6.16861E+03 1.76380E+02-1.60849E+04 6.25303E-09 1.10576E-09
 -1       850-4.26547E+04-5.25933E+03 5.50094E+02-1.53628E+04 1.39551E-08 4.29850E-09
 -1       851-4.22459E+04-6.33258E+03 9.88985E+02-1.60555E+04-5.42964E-09-3.44380E-09
 -1       852-4.19285E+04-4.06832E+03 2.68990E+03-1.55898E+04-6.44422E-09-5.03678E-09
 -1       853-4.28673E+04-7.35805E+03 4.31923E+03-1.58584E+04-2.66277E-09 1.75942E-09
 -1       854-3.75201E+04 3.55895E+03 1.27925E+04-1.70576E+04 4.40195E-10 3.24985E-09
 -1       855-4.66516E+04-1.39485E+04 1.84423E+04-1.45915E+04 1.64164E-09 5.90444E-09
 -1       856-5.39347E+05 1.26051E+04-5.48849E+04 6.20284E+03-8.68022E-09 3.05954E-09
 -1       857-5.59056E+05-1.71161E+04-3.51199E+04 2.74520E+04-5.05133E-09-2.92766E-09
 -1       858-5.47637E+05 1.29972E+03-1.42303E+04 5.96581E+03-8.44375E-09 2.00180E-09
 -1       859-5.49962E+05-1.55178E+03-7.93181E+03 2.78026E+04-4.30987E-09-6.57360E-09
 -1       860-5.48588E+05 1.66397E+02-3.62497E+03 5.84717E+03 4.70209E-10-5.13569E-09
 -1       861-5.48980E+05 9.18542E+00-1.95418E+03 2.79829E+04-1.31981E-08-5.32475E-09
 -1       862-5.48717E+05 5.87951E+01-1.03386E+03 5.78430E+03 1.64621E-08-4.75666E-10
 -1       863-5.48886E+05 1.63843E+02-7.43858E+02 2.80600E+04 4.30075E-08-6.26778E-09
 -1       864-5.48727E+05 5.66824E+01-7.76281E+02 5.76973E+03 1.55713E-08-1.47753E-09
 -1       865-5.48942E+05 8.19806E+01-1.27951E+03 2.80395E+04 1.58143E-08-3.39683E-09
 -1       866-5.48650E+05 1.23194E+02-2.27662E+03 5.80491E+03-4.02997E-09-1.83161E-09
 -1       867-5.49543E+05-8.85224E+02-4.92722E+03 2.79182E+04-1.67074E-09-1.10890E-09
 -1       868-5.48059E+05 8.21295E+02-8.81770E+03 5.89182E+03 8.74934E-09 4.93856E-10
 -1       869-5.55152E+05-1.05280E+04-2.17447E+04 2.76353E+04-4.59954E-09-7.57223E-09
 -1       870-5.42924E+05 7.81148E+03-3.39848E+04 6.09197E+03 1.39780E-08-5.29144E-09
 -1       871-5.45432E+03-4.89505E+04-9.46775E+03 1.41060E+05 3.76895E-09-2.37651E-09
 -1       872-1.91890E+03-5.06386E+04-2.77677E+03 1.64931E+05 2.18370E-09-4.51746E-09
 -1       873-1.23458E+02-5.00819E+04 2.74015E+03 1.40799E+05 4.57703E-09 1.53386E-09
 -1       874 3.01965E+03-4.78362E+04 1.02799E+04 1.65053E+05 5.10408E-09-5.30065E-11
 -1       875 1.05095E+04-5.19364E+04 2.22105E+04 1.40971E+05 6.67478E-09 3.35694E-09
 -1       876 6.49181E+05 8.22829E+04 6.14283E+04 2.56272E+05 4.40878E-09-5.67161E-09
 -1       877 6.62820E+05 1.30480E+05 3.87808E+04 2.65577E+05-4.65758E-09-4.51382E-09
 -1       878 6.59676E+05 9.64001E+04 1.45009E+04 2.54856E+05 1.18575E-09-2.19552E-09
 -1       879 6.50759E+05 1.12130E+05 7.98877E+03 2.67978E+05-1.78829E-08-9.02469E-09
 -1       880 6.60794E+05 9.80071E+04 3.38688E+03 2.54827E+05-1.17570E-08-6.36032E-09
 -1       881 6.49471E+05 1.10090E+05 1.82112E+03 2.68010E+05-1.56347E-08-1.30351E-08
 -1       882 6.60883E+05 9.82337E+04 9.71749E+02 2.54880E+05 9.88484E-09 5.24858E-09
 -1       883 6.49380E+05 1.09847E+05 8.38127E+02 2.67929E+05-1.36902E-08 1.34446E-09
 -1       884 6.60860E+05 9.82490E+04 1.09380E+03 2.54898E+05-6.11112E-09-3.02811E-09
 -1       885 6.49565E+05 1.10072E+05 2.15592E+03 2.67921E+05 3.15193E-08 2.22371E-09
 -1       886 6.60703E+05 9.80262E+04 4.06870E+03 2.54882E+05 1.18981E-08-4.06249E-09
 -1       887 6.51192E+05 1.12443E+05 9.61985E+03 2.67760E+05 4.19277E-09-4.32988E-09
 -1       888 6.59296E+05 9.61464E+04 1.74826E+04 2.54969E+05 2.61981E-09-6.14364E-09
 -1       889 6.65800E+05 1.34473E+05 4.67433E+04 2.64738E+05 6.32463E-09-2.87400E-10
 -1       890 6.46596E+05 7.91855E+04 7.40615E+04 2.56720E+05-5.68798E-09-4.29645E-09
 -1       891 2.25556E+03-2.89488E+05-1.12846E+04 3.15465E+04 4.81577E-09-5.21504E-09
 -1       892-4.13576E+03-2.93340E+05-9.03971E+03 1.22444E+05-7.70569E-09-4.86057E-09
 -1       893 5.94448E+02-2.90794E+05-7.20505E+03 3.13814E+04 7.29824E-09-3.61240E-09
 -1       894-6.28146E+03-2.94584E+05-1.28294E+04 1.22429E+05 3.31147E-09-8.46512E-10
 -1       895 3.96231E+03-2.88209E+05-1.84603E+04 3.15607E+04 5.75346E-09 1.78443E-09
 -1       896 1.08881E+06-9.08509E+03 2.11475E+04 1.64321E+03-1.45965E-09-5.70435E-09
 -1       897 1.09788E+06 1.05323E+04 1.49520E+04 3.21828E+03 3.00073E-10-5.45151E-09
 -1       898 1.09235E+06-1.41424E+03 5.49386E+03 1.91933E+03-7.07765E-10-6.30325E-09
 -1       899 1.09377E+06 1.64952E+03 3.47081E+03 2.95853E+03 1.45902E-09-5.65086E-09
 -1       900 1.09293E+06-2.18606E+02 1.47041E+03 1.90301E+03-2.17751E-10-6.26767E-09
 -1       901 1.09310E+06 2.78147E+02 9.68754E+02 3.30112E+03-2.84339E-09-5.43616E-09
 -1       902 1.09302E+06-4.53939E+01 6.53504E+02 1.57674E+03-1.09023E-09-5.66958E-09
 -1       903 1.09308E+06 1.61721E+02 8.57340E+02 4.54823E+03-7.16156E-10-4.95535E-09
 -1       904 1.09295E+06-1.03560E+02 1.28845E+03 6.55882E+02-1.70800E-10-4.35961E-09
 -1       905 1.09364E+06 7.99214E+02 2.83226E+03 7.78595E+03-1.63155E-10-3.31431E-09
 -1       906 1.09247E+06-6.88999E+02 4.76349E+03-1.66103E+03 2.91152E-10-2.42335E-09
 -1       907 1.09724E+06 5.35518E+03 1.19728E+04 1.58375E+04-9.53662E-10 5.05679E-10
 -1       908 1.08941E+06-4.69425E+03 1.84966E+04-7.39594E+03 1.05564E-09 5.28780E-09
 -1       909 1.11994E+06 3.62276E+04 5.30774E+04 3.58825E+04 4.67901E-09 9.01855E-09
 -1       910 1.07017E+06-3.17597E+04 7.05087E+04-2.17090E+04 7.55404E-09 2.15223E-08
 -1       911 4.54044E+05-7.04325E+03 1.59121E+04-7.70869E+03-1.14035E-08 3.14703E-08
 -1       912 4.64949E+05 8.05914E+03 1.19192E+04 6.75320E+03-9.27054E-09 2.19028E-08
 -1       913 4.57752E+05-1.04632E+03 4.10515E+03-4.71467E+03-4.06618E-09 2.20725E-08
 -1       914 4.60455E+05 1.19070E+03 2.83887E+03 1.75200E+03-2.25205E-09 1.57324E-08
 -1       915 4.58476E+05-1.44628E+02 1.07665E+03-2.70654E+03 3.88707E-09 1.49312E-08
 -1       916 4.59641E+05 1.75401E+02 8.83784E+02-1.98518E+03 5.75631E-09 1.08835E-08
 -1       917 4.58552E+05-2.34345E+01 4.83150E+02-9.77216E+02 5.27433E-09 1.09564E-08
 -1       918 4.59871E+05 9.13453E+01 9.13938E+02-5.75055E+03 3.52145E-09 7.29000E-09
 -1       919 4.58262E+05-7.13466E+01 1.05696E+03 1.05893E+03 1.21224E-09 5.28547E-09
 -1       920 4.61444E+05 6.07762E+02 2.92872E+03-1.08189E+04-7.78982E-10 1.32189E-10
 -1       921 4.57047E+05-5.85129E+02 4.09446E+03 4.09140E+03-1.27079E-09-3.62979E-09
 -1       922 4.67721E+05 4.70786E+03 1.18529E+04-1.89070E+04-5.65706E-10-1.01263E-08
 -1       923 4.52204E+05-4.31310E+03 1.62447E+04 9.14916E+03-3.10922E-09-1.84928E-08
 -1       924 4.94490E+05 3.33512E+04 5.07098E+04-3.29455E+04-1.15858E-08-2.73003E-08
 -1       925 4.30972E+05-2.96422E+04 6.30475E+04 1.81440E+04-6.43240E-09-4.43870E-08
 -1       926-7.40571E+05 1.31884E+04-4.31007E+04-4.28080E+04 4.50018E-09-7.97572E-08
 -1       927-7.28474E+05-1.38577E+04-2.41715E+04 8.99708E+04-5.21411E-08-9.07457E-08
 -1       928-7.28508E+05 2.10880E+03-9.82838E+03-5.03285E+04 3.85970E-09-9.63701E-08
 -1       929-7.07479E+05 2.93897E+02-7.33076E+02 8.27430E+04 5.71504E-08-8.33425E-08
 -1       930-7.60743E+05-1.58462E+03-8.64579E+03-3.55477E+04-8.08086E-10-7.02910E-08
 -1       931-6.43491E+05 3.01324E+03 1.63829E+04 3.62541E+04-8.58927E-09-3.43427E-08
 -1       932-7.88940E+05-3.42699E+03-1.21855E+04-3.77923E+03-3.43971E-09-1.37353E-08
 -1       933-6.36479E+05 3.42224E+03 1.95616E+04-2.88494E+04-6.97787E-09 2.71068E-08
 -1       934-7.67384E+05-2.28674E+03-5.73119E+03 2.94494E+04-4.71118E-10 4.95394E-08
 -1       935-6.96200E+05 3.95329E+03 1.14049E+04-7.99861E+04-1.47139E-08 7.39735E-08
 -1       936-7.32647E+05-1.23407E+03 7.38642E+03 4.73736E+04-6.39500E-09 8.45862E-08
 -1       937-7.19023E+05 1.16271E+04 2.05701E+04-9.35657E+04-5.35692E-08 8.30194E-08
 -1       938-7.46065E+05-8.74510E+03 2.72001E+04 4.30811E+04-3.96715E-08 7.74871E-08
 -1       939-6.43995E+05 6.33992E+04 9.36584E+04-6.47421E+04-2.85478E-08 5.13273E-08
 -1       940-8.04700E+05-5.52277E+04 1.03091E+05 1.84691E+04 1.03091E-09 3.61179E-08
 -1       941 6.96841E+06-3.46019E+05 8.10114E+05 2.14590E+03 3.28142E-08 6.28643E-09
 -1       942 7.31696E+06 4.01030E+05 5.71105E+05 3.08578E+03 4.52889E-08 1.16124E-08
 -1       943 7.10344E+06-5.40120E+04 2.10107E+05 2.59906E+03 2.34573E-06 1.89320E-08
 -1       944 7.16082E+06 6.25485E+04 1.31888E+05 2.62113E+03 4.63281E-06-6.03723E-09
 -1       945 7.12583E+06-8.41374E+03 5.43187E+04 2.61114E+03 3.10970E-06-2.44108E-09
 -1       946 7.13522E+06 9.88322E+03 3.25517E+04 2.60963E+03 1.56530E-06 7.91033E-09
 -1       947 7.12954E+06-1.45219E+03 1.63233E+04 2.61079E+03 2.12281E-06 4.62978E-09
 -1       948 7.13150E+06 2.69649E+03 1.35048E+04 2.60974E+03 2.74941E-06 4.97369E-09
 -1       949 7.12967E+06-1.23883E+03 1.43477E+04 2.61107E+03 1.02950E-05-1.89566E-08
 -1       950 7.13424E+06 8.04074E+03 2.68606E+04 2.60157E+03 1.77991E-05 5.08635E-09
 -1       951 7.12673E+06-6.78761E+03 4.40534E+04 2.61893E+03 8.95157E-06-3.72893E-10
 -1       952 7.15481E+06 5.03943E+04 1.06393E+05 2.41494E+03 6.32440E-08 1.16270E-08
 -1       953 7.10869E+06-4.35100E+04 1.69294E+05 2.79751E+03-6.60553E-09-1.52795E-10
 -1       954 7.28060E+06 3.23040E+05 4.60053E+05-2.07626E+03-6.80551E-09-7.56700E-09
 -1       955 6.99974E+06-2.78764E+05 6.52132E+05 7.10804E+03-3.00744E-08-4.65661E-10
 -1       956-3.75204E+05-6.45810E+03-1.35287E+04 5.19704E+04-7.99992E-09 1.57343E-10
 -1       957-3.77690E+05-2.00301E+03-6.82237E+03 6.03396E+04-1.06229E-09 1.62299E-09
 -1       958-3.76367E+05-1.88806E+02-3.07159E+03 5.16526E+04 9.68430E-09-4.56703E-09
 -1       959-3.76626E+05 5.73328E+01-1.56017E+03 6.06866E+04-1.83172E-09-2.00089E-09
 -1       960-3.76539E+05 1.42466E+02-7.59074E+02 5.16175E+04-9.68976E-09-7.77618E-11
 -1       961-3.76595E+05 1.84253E+02-3.98822E+02 6.07265E+04-1.73445E-08-2.60479E-09
 -1       962-3.76606E+05 1.69732E+02-2.24716E+02 5.16117E+04-7.72616E-09-3.06727E-09
 -1       963-3.76631E+05 2.09060E+02-1.71771E+02 6.07341E+04-1.02300E-08-6.95309E-10
 -1       964-3.76637E+05 1.87735E+02-1.99824E+02 5.16095E+04-4.84943E-09-4.73437E-09
 -1       965-3.76662E+05 2.22442E+02-3.37767E+02 6.07348E+04 6.90875E-09-2.91266E-09
 -1       966-3.76632E+05 1.96974E+02-6.31160E+02 5.16109E+04-5.80303E-09-2.48838E-09
 -1       967-3.76745E+05 1.48605E+02-1.29767E+03 6.07164E+04-1.96428E-09-4.56703E-09
 -1       968-3.76535E+05-4.93979E+01-2.54990E+03 5.16285E+04 5.61613E-10-2.10071E-09
 -1       969-3.77684E+05-1.53950E+03-5.67302E+03 6.05369E+04 3.44153E-09-6.95593E-09
 -1       970-3.75604E+05-5.24793E+03-1.12453E+04 5.18004E+04-6.45741E-10-5.28871E-09
 -1       971-7.60065E+05 1.05114E+04-4.58476E+04 5.83902E+03-3.89446E-09 4.04725E-09
 -1       972-7.76466E+05-1.42905E+04-2.93301E+04 2.70211E+04-8.31324E-09 4.72210E-09
 -1       973-7.66990E+05 1.07794E+03-1.18961E+04 5.51800E+03-1.40517E-08 7.58973E-10
 -1       974-7.68899E+05-1.28071E+03-6.63866E+03 2.75161E+04-3.03589E-09 7.31598E-09
 -1       975-7.67787E+05 1.38044E+02-3.06263E+03 5.34011E+03-2.81943E-11 4.39968E-10
 -1       976-7.68104E+05 3.16269E+01-1.69950E+03 2.77942E+04-1.28375E-08 3.43448E-09
 -1       977-7.67896E+05 5.39674E+01-9.98795E+02 5.23874E+03 1.07482E-08 4.26326E-09
 -1       978-7.68054E+05 1.58292E+02-8.99459E+02 2.79276E+04 3.10833E-08 2.44063E-09
 -1       979-7.67894E+05 6.34114E+01-1.19036E+03 5.20632E+03 1.75582E-08 1.13658E-09
 -1       980-7.68192E+05 1.63431E+00-2.21082E+03 2.79222E+04 2.19601E-08 2.27617E-09
 -1       981-7.67757E+05 1.94057E+02-4.07239E+03 5.24424E+03 2.57296E-09 2.18108E-09
 -1       982-7.69333E+05-1.73588E+03-8.91221E+03 2.77755E+04-4.77303E-09 5.80894E-09
 -1       983-7.66696E+05 1.47811E+03-1.59711E+04 5.35429E+03 9.27866E-09 1.67620E-09
 -1       984-7.79590E+05-1.92036E+04-3.94441E+04 2.74364E+04-5.69094E-09 5.38876E-09
 -1       985-7.57395E+05 1.41907E+04-6.16194E+04 5.59075E+03 4.75484E-09-2.74304E-09
 -3
 9999
