    1C
    1UUSER                                                              
    1UDATE              11.october.2022                                 
    1UTIME              18:40:16                                        
    1UHOST                                                              
    1UPGM               CalculiX                                        
    1UVERSION           Version 2.20                             
    1UCOMPILETIME       Sun Jul 31 18:08:37 CEST 2022                    
    1UDIR                                                               
    1UDBN                                                               
    1UMAT    1MESH_MATERIAL                                             
    2C                           409                                     1
 -1         1 0.00000E+00 0.00000E+00 0.00000E+00
 -1         2 1.66667E-02 0.00000E+00 0.00000E+00
 -1         3 3.33333E-02 0.00000E+00 0.00000E+00
 -1         5 6.66667E-02 0.00000E+00 0.00000E+00
 -1         8 0.00000E+00 6.25000E-03 0.00000E+00
 -1         9 1.66667E-02 6.25000E-03 0.00000E+00
 -1        10 3.33333E-02 6.25000E-03 0.00000E+00
 -1        12 6.66667E-02 6.25000E-03 0.00000E+00
 -1        15 0.00000E+00 1.25000E-02 0.00000E+00
 -1        16 1.66667E-02 1.25000E-02 0.00000E+00
 -1        17 3.33333E-02 1.25000E-02 0.00000E+00
 -1        18 5.00000E-02 1.25000E-02 0.00000E+00
 -1        19 6.66667E-02 1.25000E-02 0.00000E+00
 -1        20 8.33333E-02 1.25000E-02 0.00000E+00
 -1        21 1.00000E-01 1.25000E-02 0.00000E+00
 -1        24 3.33333E-02 1.87500E-02 0.00000E+00
 -1        25 5.00000E-02 1.87500E-02 0.00000E+00
 -1        26 6.66667E-02 1.87500E-02 0.00000E+00
 -1        27 8.33333E-02 1.87500E-02 0.00000E+00
 -1        28 1.00000E-01 1.87500E-02 0.00000E+00
 -1        32 5.00000E-02 2.50000E-02 0.00000E+00
 -1        33 6.66667E-02 2.50000E-02 0.00000E+00
 -1        34 8.33333E-02 2.50000E-02 0.00000E+00
 -1        35 1.00000E-01 2.50000E-02 0.00000E+00
 -1        51 0.00000E+00 1.04167E-03 0.00000E+00
 -1        52 0.00000E+00 2.08333E-03 0.00000E+00
 -1        53 0.00000E+00 3.12500E-03 0.00000E+00
 -1        54 0.00000E+00 4.16667E-03 0.00000E+00
 -1        55 0.00000E+00 5.20833E-03 0.00000E+00
 -1        56 1.04167E-03 3.90630E-04 0.00000E+00
 -1        57 2.08333E-03 7.81250E-04 0.00000E+00
 -1        58 3.12500E-03 1.17188E-03 0.00000E+00
 -1        59 4.16667E-03 1.56250E-03 0.00000E+00
 -1        60 5.20833E-03 1.95312E-03 0.00000E+00
 -1        61 6.25000E-03 2.34375E-03 0.00000E+00
 -1        62 7.29167E-03 2.73438E-03 0.00000E+00
 -1        63 8.33333E-03 3.12500E-03 0.00000E+00
 -1        64 9.37500E-03 3.51563E-03 0.00000E+00
 -1        65 1.04167E-02 3.90625E-03 0.00000E+00
 -1        66 1.14583E-02 4.29688E-03 0.00000E+00
 -1        67 1.25000E-02 4.68750E-03 0.00000E+00
 -1        68 1.35417E-02 5.07813E-03 0.00000E+00
 -1        69 1.45833E-02 5.46875E-03 0.00000E+00
 -1        70 1.56250E-02 5.85938E-03 0.00000E+00
 -1        86 1.66667E-02 1.04167E-03 0.00000E+00
 -1        87 1.66667E-02 2.08333E-03 0.00000E+00
 -1        88 1.66667E-02 3.12500E-03 0.00000E+00
 -1        89 1.66667E-02 4.16667E-03 0.00000E+00
 -1        90 1.66667E-02 5.20833E-03 0.00000E+00
 -1       121 3.33333E-02 1.04167E-03 0.00000E+00
 -1       122 3.33333E-02 2.08333E-03 0.00000E+00
 -1       123 3.33333E-02 3.12500E-03 0.00000E+00
 -1       124 3.33333E-02 4.16667E-03 0.00000E+00
 -1       125 3.33333E-02 5.20833E-03 0.00000E+00
 -1       191 6.66667E-02 1.04167E-03 0.00000E+00
 -1       192 6.66667E-02 2.08333E-03 0.00000E+00
 -1       193 6.66667E-02 3.12500E-03 0.00000E+00
 -1       194 6.66667E-02 4.16667E-03 0.00000E+00
 -1       195 6.66667E-02 5.20833E-03 0.00000E+00
 -1       251 1.04167E-03 6.25000E-03 0.00000E+00
 -1       252 2.08333E-03 6.25000E-03 0.00000E+00
 -1       253 3.12500E-03 6.25000E-03 0.00000E+00
 -1       254 4.16667E-03 6.25000E-03 0.00000E+00
 -1       255 5.20833E-03 6.25000E-03 0.00000E+00
 -1       256 6.25000E-03 6.25000E-03 0.00000E+00
 -1       257 7.29167E-03 6.25000E-03 0.00000E+00
 -1       258 8.33333E-03 6.25000E-03 0.00000E+00
 -1       259 9.37500E-03 6.25000E-03 0.00000E+00
 -1       260 1.04167E-02 6.25000E-03 0.00000E+00
 -1       261 1.14583E-02 6.25000E-03 0.00000E+00
 -1       262 1.25000E-02 6.25000E-03 0.00000E+00
 -1       263 1.35417E-02 6.25000E-03 0.00000E+00
 -1       264 1.45833E-02 6.25000E-03 0.00000E+00
 -1       265 1.56250E-02 6.25000E-03 0.00000E+00
 -1       266 0.00000E+00 7.29167E-03 0.00000E+00
 -1       267 0.00000E+00 8.33333E-03 0.00000E+00
 -1       268 0.00000E+00 9.37500E-03 0.00000E+00
 -1       269 0.00000E+00 1.04167E-02 0.00000E+00
 -1       270 0.00000E+00 1.14583E-02 0.00000E+00
 -1       271 1.04167E-03 6.64063E-03 0.00000E+00
 -1       272 2.08333E-03 7.03125E-03 0.00000E+00
 -1       273 3.12500E-03 7.42188E-03 0.00000E+00
 -1       274 4.16667E-03 7.81250E-03 0.00000E+00
 -1       275 5.20833E-03 8.20313E-03 0.00000E+00
 -1       276 6.25000E-03 8.59375E-03 0.00000E+00
 -1       277 7.29167E-03 8.98438E-03 0.00000E+00
 -1       278 8.33333E-03 9.37500E-03 0.00000E+00
 -1       279 9.37500E-03 9.76562E-03 0.00000E+00
 -1       280 1.04167E-02 1.01562E-02 0.00000E+00
 -1       281 1.14583E-02 1.05469E-02 0.00000E+00
 -1       282 1.25000E-02 1.09375E-02 0.00000E+00
 -1       283 1.35417E-02 1.13281E-02 0.00000E+00
 -1       284 1.45833E-02 1.17188E-02 0.00000E+00
 -1       285 1.56250E-02 1.21094E-02 0.00000E+00
 -1       301 1.66667E-02 7.29167E-03 0.00000E+00
 -1       302 1.66667E-02 8.33333E-03 0.00000E+00
 -1       303 1.66667E-02 9.37500E-03 0.00000E+00
 -1       304 1.66667E-02 1.04167E-02 0.00000E+00
 -1       305 1.66667E-02 1.14583E-02 0.00000E+00
 -1       306 1.77083E-02 6.64063E-03 0.00000E+00
 -1       307 1.87500E-02 7.03125E-03 0.00000E+00
 -1       308 1.97917E-02 7.42188E-03 0.00000E+00
 -1       309 2.08333E-02 7.81250E-03 0.00000E+00
 -1       310 2.18750E-02 8.20313E-03 0.00000E+00
 -1       311 2.29167E-02 8.59375E-03 0.00000E+00
 -1       312 2.39583E-02 8.98438E-03 0.00000E+00
 -1       313 2.50000E-02 9.37500E-03 0.00000E+00
 -1       314 2.60417E-02 9.76562E-03 0.00000E+00
 -1       315 2.70833E-02 1.01562E-02 0.00000E+00
 -1       316 2.81250E-02 1.05469E-02 0.00000E+00
 -1       317 2.91667E-02 1.09375E-02 0.00000E+00
 -1       318 3.02083E-02 1.13281E-02 0.00000E+00
 -1       319 3.12500E-02 1.17188E-02 0.00000E+00
 -1       320 3.22917E-02 1.21094E-02 0.00000E+00
 -1       336 3.33333E-02 7.29167E-03 0.00000E+00
 -1       337 3.33333E-02 8.33333E-03 0.00000E+00
 -1       338 3.33333E-02 9.37500E-03 0.00000E+00
 -1       339 3.33333E-02 1.04167E-02 0.00000E+00
 -1       340 3.33333E-02 1.14583E-02 0.00000E+00
 -1       406 6.66667E-02 7.29167E-03 0.00000E+00
 -1       407 6.66667E-02 8.33333E-03 0.00000E+00
 -1       408 6.66667E-02 9.37500E-03 0.00000E+00
 -1       409 6.66667E-02 1.04167E-02 0.00000E+00
 -1       410 6.66667E-02 1.14583E-02 0.00000E+00
 -1       521 1.77083E-02 1.28906E-02 0.00000E+00
 -1       522 1.87500E-02 1.32813E-02 0.00000E+00
 -1       523 1.97917E-02 1.36719E-02 0.00000E+00
 -1       524 2.08333E-02 1.40625E-02 0.00000E+00
 -1       525 2.18750E-02 1.44531E-02 0.00000E+00
 -1       526 2.29167E-02 1.48437E-02 0.00000E+00
 -1       527 2.39583E-02 1.52344E-02 0.00000E+00
 -1       528 2.50000E-02 1.56250E-02 0.00000E+00
 -1       529 2.60417E-02 1.60156E-02 0.00000E+00
 -1       530 2.70833E-02 1.64062E-02 0.00000E+00
 -1       531 2.81250E-02 1.67969E-02 0.00000E+00
 -1       532 2.91667E-02 1.71875E-02 0.00000E+00
 -1       533 3.02083E-02 1.75781E-02 0.00000E+00
 -1       534 3.12500E-02 1.79687E-02 0.00000E+00
 -1       535 3.22917E-02 1.83594E-02 0.00000E+00
 -1       536 3.43750E-02 1.25000E-02 0.00000E+00
 -1       537 3.54167E-02 1.25000E-02 0.00000E+00
 -1       538 3.64583E-02 1.25000E-02 0.00000E+00
 -1       539 3.75000E-02 1.25000E-02 0.00000E+00
 -1       540 3.85417E-02 1.25000E-02 0.00000E+00
 -1       541 3.95833E-02 1.25000E-02 0.00000E+00
 -1       542 4.06250E-02 1.25000E-02 0.00000E+00
 -1       543 4.16667E-02 1.25000E-02 0.00000E+00
 -1       544 4.27083E-02 1.25000E-02 0.00000E+00
 -1       545 4.37500E-02 1.25000E-02 0.00000E+00
 -1       546 4.47917E-02 1.25000E-02 0.00000E+00
 -1       547 4.58333E-02 1.25000E-02 0.00000E+00
 -1       548 4.68750E-02 1.25000E-02 0.00000E+00
 -1       549 4.79167E-02 1.25000E-02 0.00000E+00
 -1       550 4.89583E-02 1.25000E-02 0.00000E+00
 -1       551 3.33333E-02 1.35417E-02 0.00000E+00
 -1       552 3.33333E-02 1.45833E-02 0.00000E+00
 -1       553 3.33333E-02 1.56250E-02 0.00000E+00
 -1       554 3.33333E-02 1.66667E-02 0.00000E+00
 -1       555 3.33333E-02 1.77083E-02 0.00000E+00
 -1       556 3.43750E-02 1.28906E-02 0.00000E+00
 -1       557 3.54167E-02 1.32813E-02 0.00000E+00
 -1       558 3.64583E-02 1.36719E-02 0.00000E+00
 -1       559 3.75000E-02 1.40625E-02 0.00000E+00
 -1       560 3.85417E-02 1.44531E-02 0.00000E+00
 -1       561 3.95833E-02 1.48437E-02 0.00000E+00
 -1       562 4.06250E-02 1.52344E-02 0.00000E+00
 -1       563 4.16667E-02 1.56250E-02 0.00000E+00
 -1       564 4.27083E-02 1.60156E-02 0.00000E+00
 -1       565 4.37500E-02 1.64062E-02 0.00000E+00
 -1       566 4.47917E-02 1.67969E-02 0.00000E+00
 -1       567 4.58333E-02 1.71875E-02 0.00000E+00
 -1       568 4.68750E-02 1.75781E-02 0.00000E+00
 -1       569 4.79167E-02 1.79687E-02 0.00000E+00
 -1       570 4.89583E-02 1.83594E-02 0.00000E+00
 -1       571 5.10417E-02 1.25000E-02 0.00000E+00
 -1       572 5.20833E-02 1.25000E-02 0.00000E+00
 -1       573 5.31250E-02 1.25000E-02 0.00000E+00
 -1       574 5.41667E-02 1.25000E-02 0.00000E+00
 -1       575 5.52083E-02 1.25000E-02 0.00000E+00
 -1       576 5.62500E-02 1.25000E-02 0.00000E+00
 -1       577 5.72917E-02 1.25000E-02 0.00000E+00
 -1       578 5.83333E-02 1.25000E-02 0.00000E+00
 -1       579 5.93750E-02 1.25000E-02 0.00000E+00
 -1       580 6.04167E-02 1.25000E-02 0.00000E+00
 -1       581 6.14583E-02 1.25000E-02 0.00000E+00
 -1       582 6.25000E-02 1.25000E-02 0.00000E+00
 -1       583 6.35417E-02 1.25000E-02 0.00000E+00
 -1       584 6.45833E-02 1.25000E-02 0.00000E+00
 -1       585 6.56250E-02 1.25000E-02 0.00000E+00
 -1       586 5.00000E-02 1.35417E-02 0.00000E+00
 -1       587 5.00000E-02 1.45833E-02 0.00000E+00
 -1       588 5.00000E-02 1.56250E-02 0.00000E+00
 -1       589 5.00000E-02 1.66667E-02 0.00000E+00
 -1       590 5.00000E-02 1.77083E-02 0.00000E+00
 -1       591 5.10417E-02 1.28906E-02 0.00000E+00
 -1       592 5.20833E-02 1.32813E-02 0.00000E+00
 -1       593 5.31250E-02 1.36719E-02 0.00000E+00
 -1       594 5.41667E-02 1.40625E-02 0.00000E+00
 -1       595 5.52083E-02 1.44531E-02 0.00000E+00
 -1       596 5.62500E-02 1.48437E-02 0.00000E+00
 -1       597 5.72917E-02 1.52344E-02 0.00000E+00
 -1       598 5.83333E-02 1.56250E-02 0.00000E+00
 -1       599 5.93750E-02 1.60156E-02 0.00000E+00
 -1       600 6.04167E-02 1.64062E-02 0.00000E+00
 -1       601 6.14583E-02 1.67969E-02 0.00000E+00
 -1       602 6.25000E-02 1.71875E-02 0.00000E+00
 -1       603 6.35417E-02 1.75781E-02 0.00000E+00
 -1       604 6.45833E-02 1.79687E-02 0.00000E+00
 -1       605 6.56250E-02 1.83594E-02 0.00000E+00
 -1       606 6.77083E-02 1.25000E-02 0.00000E+00
 -1       607 6.87500E-02 1.25000E-02 0.00000E+00
 -1       608 6.97917E-02 1.25000E-02 0.00000E+00
 -1       609 7.08333E-02 1.25000E-02 0.00000E+00
 -1       610 7.18750E-02 1.25000E-02 0.00000E+00
 -1       611 7.29167E-02 1.25000E-02 0.00000E+00
 -1       612 7.39583E-02 1.25000E-02 0.00000E+00
 -1       613 7.50000E-02 1.25000E-02 0.00000E+00
 -1       614 7.60417E-02 1.25000E-02 0.00000E+00
 -1       615 7.70833E-02 1.25000E-02 0.00000E+00
 -1       616 7.81250E-02 1.25000E-02 0.00000E+00
 -1       617 7.91667E-02 1.25000E-02 0.00000E+00
 -1       618 8.02083E-02 1.25000E-02 0.00000E+00
 -1       619 8.12500E-02 1.25000E-02 0.00000E+00
 -1       620 8.22917E-02 1.25000E-02 0.00000E+00
 -1       621 6.66667E-02 1.35417E-02 0.00000E+00
 -1       622 6.66667E-02 1.45833E-02 0.00000E+00
 -1       623 6.66667E-02 1.56250E-02 0.00000E+00
 -1       624 6.66667E-02 1.66667E-02 0.00000E+00
 -1       625 6.66667E-02 1.77083E-02 0.00000E+00
 -1       626 6.77083E-02 1.28906E-02 0.00000E+00
 -1       627 6.87500E-02 1.32813E-02 0.00000E+00
 -1       628 6.97917E-02 1.36719E-02 0.00000E+00
 -1       629 7.08333E-02 1.40625E-02 0.00000E+00
 -1       630 7.18750E-02 1.44531E-02 0.00000E+00
 -1       631 7.29167E-02 1.48437E-02 0.00000E+00
 -1       632 7.39583E-02 1.52344E-02 0.00000E+00
 -1       633 7.50000E-02 1.56250E-02 0.00000E+00
 -1       634 7.60417E-02 1.60156E-02 0.00000E+00
 -1       635 7.70833E-02 1.64062E-02 0.00000E+00
 -1       636 7.81250E-02 1.67969E-02 0.00000E+00
 -1       637 7.91667E-02 1.71875E-02 0.00000E+00
 -1       638 8.02083E-02 1.75781E-02 0.00000E+00
 -1       639 8.12500E-02 1.79687E-02 0.00000E+00
 -1       640 8.22917E-02 1.83594E-02 0.00000E+00
 -1       656 8.33333E-02 1.35417E-02 0.00000E+00
 -1       657 8.33333E-02 1.45833E-02 0.00000E+00
 -1       658 8.33333E-02 1.56250E-02 0.00000E+00
 -1       659 8.33333E-02 1.66667E-02 0.00000E+00
 -1       660 8.33333E-02 1.77083E-02 0.00000E+00
 -1       661 8.43750E-02 1.28906E-02 0.00000E+00
 -1       662 8.54167E-02 1.32813E-02 0.00000E+00
 -1       663 8.64583E-02 1.36719E-02 0.00000E+00
 -1       664 8.75000E-02 1.40625E-02 0.00000E+00
 -1       665 8.85417E-02 1.44531E-02 0.00000E+00
 -1       666 8.95833E-02 1.48437E-02 0.00000E+00
 -1       667 9.06250E-02 1.52344E-02 0.00000E+00
 -1       668 9.16667E-02 1.56250E-02 0.00000E+00
 -1       669 9.27083E-02 1.60156E-02 0.00000E+00
 -1       670 9.37500E-02 1.64062E-02 0.00000E+00
 -1       671 9.47917E-02 1.67969E-02 0.00000E+00
 -1       672 9.58333E-02 1.71875E-02 0.00000E+00
 -1       673 9.68750E-02 1.75781E-02 0.00000E+00
 -1       674 9.79167E-02 1.79687E-02 0.00000E+00
 -1       675 9.89583E-02 1.83594E-02 0.00000E+00
 -1       676 1.00000E-01 1.35417E-02 0.00000E+00
 -1       677 1.00000E-01 1.45833E-02 0.00000E+00
 -1       678 1.00000E-01 1.56250E-02 0.00000E+00
 -1       679 1.00000E-01 1.66667E-02 0.00000E+00
 -1       680 1.00000E-01 1.77083E-02 0.00000E+00
 -1       771 3.43750E-02 1.91406E-02 0.00000E+00
 -1       772 3.54167E-02 1.95312E-02 0.00000E+00
 -1       773 3.64583E-02 1.99219E-02 0.00000E+00
 -1       774 3.75000E-02 2.03125E-02 0.00000E+00
 -1       775 3.85417E-02 2.07031E-02 0.00000E+00
 -1       776 3.95833E-02 2.10938E-02 0.00000E+00
 -1       777 4.06250E-02 2.14844E-02 0.00000E+00
 -1       778 4.16667E-02 2.18750E-02 0.00000E+00
 -1       779 4.27083E-02 2.22656E-02 0.00000E+00
 -1       780 4.37500E-02 2.26563E-02 0.00000E+00
 -1       781 4.47917E-02 2.30469E-02 0.00000E+00
 -1       782 4.58333E-02 2.34375E-02 0.00000E+00
 -1       783 4.68750E-02 2.38281E-02 0.00000E+00
 -1       784 4.79167E-02 2.42187E-02 0.00000E+00
 -1       785 4.89583E-02 2.46094E-02 0.00000E+00
 -1       786 5.10417E-02 1.87500E-02 0.00000E+00
 -1       787 5.20833E-02 1.87500E-02 0.00000E+00
 -1       788 5.31250E-02 1.87500E-02 0.00000E+00
 -1       789 5.41667E-02 1.87500E-02 0.00000E+00
 -1       790 5.52083E-02 1.87500E-02 0.00000E+00
 -1       791 5.62500E-02 1.87500E-02 0.00000E+00
 -1       792 5.72917E-02 1.87500E-02 0.00000E+00
 -1       793 5.83333E-02 1.87500E-02 0.00000E+00
 -1       794 5.93750E-02 1.87500E-02 0.00000E+00
 -1       795 6.04167E-02 1.87500E-02 0.00000E+00
 -1       796 6.14583E-02 1.87500E-02 0.00000E+00
 -1       797 6.25000E-02 1.87500E-02 0.00000E+00
 -1       798 6.35417E-02 1.87500E-02 0.00000E+00
 -1       799 6.45833E-02 1.87500E-02 0.00000E+00
 -1       800 6.56250E-02 1.87500E-02 0.00000E+00
 -1       801 5.00000E-02 1.97917E-02 0.00000E+00
 -1       802 5.00000E-02 2.08333E-02 0.00000E+00
 -1       803 5.00000E-02 2.18750E-02 0.00000E+00
 -1       804 5.00000E-02 2.29167E-02 0.00000E+00
 -1       805 5.00000E-02 2.39583E-02 0.00000E+00
 -1       806 5.10417E-02 1.91406E-02 0.00000E+00
 -1       807 5.20833E-02 1.95312E-02 0.00000E+00
 -1       808 5.31250E-02 1.99219E-02 0.00000E+00
 -1       809 5.41667E-02 2.03125E-02 0.00000E+00
 -1       810 5.52083E-02 2.07031E-02 0.00000E+00
 -1       811 5.62500E-02 2.10938E-02 0.00000E+00
 -1       812 5.72917E-02 2.14844E-02 0.00000E+00
 -1       813 5.83333E-02 2.18750E-02 0.00000E+00
 -1       814 5.93750E-02 2.22656E-02 0.00000E+00
 -1       815 6.04167E-02 2.26563E-02 0.00000E+00
 -1       816 6.14583E-02 2.30469E-02 0.00000E+00
 -1       817 6.25000E-02 2.34375E-02 0.00000E+00
 -1       818 6.35417E-02 2.38281E-02 0.00000E+00
 -1       819 6.45833E-02 2.42187E-02 0.00000E+00
 -1       820 6.56250E-02 2.46094E-02 0.00000E+00
 -1       821 6.77083E-02 1.87500E-02 0.00000E+00
 -1       822 6.87500E-02 1.87500E-02 0.00000E+00
 -1       823 6.97917E-02 1.87500E-02 0.00000E+00
 -1       824 7.08333E-02 1.87500E-02 0.00000E+00
 -1       825 7.18750E-02 1.87500E-02 0.00000E+00
 -1       826 7.29167E-02 1.87500E-02 0.00000E+00
 -1       827 7.39583E-02 1.87500E-02 0.00000E+00
 -1       828 7.50000E-02 1.87500E-02 0.00000E+00
 -1       829 7.60417E-02 1.87500E-02 0.00000E+00
 -1       830 7.70833E-02 1.87500E-02 0.00000E+00
 -1       831 7.81250E-02 1.87500E-02 0.00000E+00
 -1       832 7.91667E-02 1.87500E-02 0.00000E+00
 -1       833 8.02083E-02 1.87500E-02 0.00000E+00
 -1       834 8.12500E-02 1.87500E-02 0.00000E+00
 -1       835 8.22917E-02 1.87500E-02 0.00000E+00
 -1       836 6.66667E-02 1.97917E-02 0.00000E+00
 -1       837 6.66667E-02 2.08333E-02 0.00000E+00
 -1       838 6.66667E-02 2.18750E-02 0.00000E+00
 -1       839 6.66667E-02 2.29167E-02 0.00000E+00
 -1       840 6.66667E-02 2.39583E-02 0.00000E+00
 -1       856 8.43750E-02 1.87500E-02 0.00000E+00
 -1       857 8.54167E-02 1.87500E-02 0.00000E+00
 -1       858 8.64583E-02 1.87500E-02 0.00000E+00
 -1       859 8.75000E-02 1.87500E-02 0.00000E+00
 -1       860 8.85417E-02 1.87500E-02 0.00000E+00
 -1       861 8.95833E-02 1.87500E-02 0.00000E+00
 -1       862 9.06250E-02 1.87500E-02 0.00000E+00
 -1       863 9.16667E-02 1.87500E-02 0.00000E+00
 -1       864 9.27083E-02 1.87500E-02 0.00000E+00
 -1       865 9.37500E-02 1.87500E-02 0.00000E+00
 -1       866 9.47917E-02 1.87500E-02 0.00000E+00
 -1       867 9.58333E-02 1.87500E-02 0.00000E+00
 -1       868 9.68750E-02 1.87500E-02 0.00000E+00
 -1       869 9.79167E-02 1.87500E-02 0.00000E+00
 -1       870 9.89583E-02 1.87500E-02 0.00000E+00
 -1       871 8.33333E-02 1.97917E-02 0.00000E+00
 -1       872 8.33333E-02 2.08333E-02 0.00000E+00
 -1       873 8.33333E-02 2.18750E-02 0.00000E+00
 -1       874 8.33333E-02 2.29167E-02 0.00000E+00
 -1       875 8.33333E-02 2.39583E-02 0.00000E+00
 -1       876 8.43750E-02 1.91406E-02 0.00000E+00
 -1       877 8.54167E-02 1.95312E-02 0.00000E+00
 -1       878 8.64583E-02 1.99219E-02 0.00000E+00
 -1       879 8.75000E-02 2.03125E-02 0.00000E+00
 -1       880 8.85417E-02 2.07031E-02 0.00000E+00
 -1       881 8.95833E-02 2.10938E-02 0.00000E+00
 -1       882 9.06250E-02 2.14844E-02 0.00000E+00
 -1       883 9.16667E-02 2.18750E-02 0.00000E+00
 -1       884 9.27083E-02 2.22656E-02 0.00000E+00
 -1       885 9.37500E-02 2.26563E-02 0.00000E+00
 -1       886 9.47917E-02 2.30469E-02 0.00000E+00
 -1       887 9.58333E-02 2.34375E-02 0.00000E+00
 -1       888 9.68750E-02 2.38281E-02 0.00000E+00
 -1       889 9.79167E-02 2.42187E-02 0.00000E+00
 -1       890 9.89583E-02 2.46094E-02 0.00000E+00
 -1       891 1.00000E-01 1.97917E-02 0.00000E+00
 -1       892 1.00000E-01 2.08333E-02 0.00000E+00
 -1       893 1.00000E-01 2.18750E-02 0.00000E+00
 -1       894 1.00000E-01 2.29167E-02 0.00000E+00
 -1       895 1.00000E-01 2.39583E-02 0.00000E+00
 -1       956 6.77083E-02 2.50000E-02 0.00000E+00
 -1       957 6.87500E-02 2.50000E-02 0.00000E+00
 -1       958 6.97917E-02 2.50000E-02 0.00000E+00
 -1       959 7.08333E-02 2.50000E-02 0.00000E+00
 -1       960 7.18750E-02 2.50000E-02 0.00000E+00
 -1       961 7.29167E-02 2.50000E-02 0.00000E+00
 -1       962 7.39583E-02 2.50000E-02 0.00000E+00
 -1       963 7.50000E-02 2.50000E-02 0.00000E+00
 -1       964 7.60417E-02 2.50000E-02 0.00000E+00
 -1       965 7.70833E-02 2.50000E-02 0.00000E+00
 -1       966 7.81250E-02 2.50000E-02 0.00000E+00
 -1       967 7.91667E-02 2.50000E-02 0.00000E+00
 -1       968 8.02083E-02 2.50000E-02 0.00000E+00
 -1       969 8.12500E-02 2.50000E-02 0.00000E+00
 -1       970 8.22917E-02 2.50000E-02 0.00000E+00
 -1       971 8.43750E-02 2.50000E-02 0.00000E+00
 -1       972 8.54167E-02 2.50000E-02 0.00000E+00
 -1       973 8.64583E-02 2.50000E-02 0.00000E+00
 -1       974 8.75000E-02 2.50000E-02 0.00000E+00
 -1       975 8.85417E-02 2.50000E-02 0.00000E+00
 -1       976 8.95833E-02 2.50000E-02 0.00000E+00
 -1       977 9.06250E-02 2.50000E-02 0.00000E+00
 -1       978 9.16667E-02 2.50000E-02 0.00000E+00
 -1       979 9.27083E-02 2.50000E-02 0.00000E+00
 -1       980 9.37500E-02 2.50000E-02 0.00000E+00
 -1       981 9.47917E-02 2.50000E-02 0.00000E+00
 -1       982 9.58333E-02 2.50000E-02 0.00000E+00
 -1       983 9.68750E-02 2.50000E-02 0.00000E+00
 -1       984 9.79167E-02 2.50000E-02 0.00000E+00
 -1       985 9.89583E-02 2.50000E-02 0.00000E+00
 -3
    3C                           211                                     1
 -1         1   12    0    1
 -2         1        52        51
 -1         2   12    0    1
 -2        52        54        53
 -1         3   12    0    1
 -2        54         8        55
 -1         4   12    0    1
 -2         1        57        56
 -1         5   12    0    1
 -2        57        59        58
 -1         6   12    0    1
 -2        59        61        60
 -1         7   12    0    1
 -2        61        63        62
 -1         8   12    0    1
 -2        63        65        64
 -1         9   12    0    1
 -2        65        67        66
 -1        10   12    0    1
 -2        67        69        68
 -1        11   12    0    1
 -2        69         9        70
 -1        12   12    0    1
 -2         2        87        86
 -1        13   12    0    1
 -2        87        89        88
 -1        14   12    0    1
 -2        89         9        90
 -1        15   12    0    1
 -2         3       122       121
 -1        16   12    0    1
 -2       122       124       123
 -1        17   12    0    1
 -2       124        10       125
 -1        18   12    0    1
 -2         5       192       191
 -1        19   12    0    1
 -2       192       194       193
 -1        20   12    0    1
 -2       194        12       195
 -1        21   12    0    1
 -2         8       252       251
 -1        22   12    0    1
 -2       252       254       253
 -1        23   12    0    1
 -2       254       256       255
 -1        24   12    0    1
 -2       256       258       257
 -1        25   12    0    1
 -2       258       260       259
 -1        26   12    0    1
 -2       260       262       261
 -1        27   12    0    1
 -2       262       264       263
 -1        28   12    0    1
 -2       264         9       265
 -1        29   12    0    1
 -2         8       267       266
 -1        30   12    0    1
 -2       267       269       268
 -1        31   12    0    1
 -2       269        15       270
 -1        32   12    0    1
 -2         8       272       271
 -1        33   12    0    1
 -2       272       274       273
 -1        34   12    0    1
 -2       274       276       275
 -1        35   12    0    1
 -2       276       278       277
 -1        36   12    0    1
 -2       278       280       279
 -1        37   12    0    1
 -2       280       282       281
 -1        38   12    0    1
 -2       282       284       283
 -1        39   12    0    1
 -2       284        16       285
 -1        40   12    0    1
 -2         9       302       301
 -1        41   12    0    1
 -2       302       304       303
 -1        42   12    0    1
 -2       304        16       305
 -1        43   12    0    1
 -2         9       307       306
 -1        44   12    0    1
 -2       307       309       308
 -1        45   12    0    1
 -2       309       311       310
 -1        46   12    0    1
 -2       311       313       312
 -1        47   12    0    1
 -2       313       315       314
 -1        48   12    0    1
 -2       315       317       316
 -1        49   12    0    1
 -2       317       319       318
 -1        50   12    0    1
 -2       319        17       320
 -1        51   12    0    1
 -2        10       337       336
 -1        52   12    0    1
 -2       337       339       338
 -1        53   12    0    1
 -2       339        17       340
 -1        54   12    0    1
 -2        12       407       406
 -1        55   12    0    1
 -2       407       409       408
 -1        56   12    0    1
 -2       409        19       410
 -1        57   12    0    1
 -2        16       522       521
 -1        58   12    0    1
 -2       522       524       523
 -1        59   12    0    1
 -2       524       526       525
 -1        60   12    0    1
 -2       526       528       527
 -1        61   12    0    1
 -2       528       530       529
 -1        62   12    0    1
 -2       530       532       531
 -1        63   12    0    1
 -2       532       534       533
 -1        64   12    0    1
 -2       534        24       535
 -1        65   12    0    1
 -2        17       537       536
 -1        66   12    0    1
 -2       537       539       538
 -1        67   12    0    1
 -2       539       541       540
 -1        68   12    0    1
 -2       541       543       542
 -1        69   12    0    1
 -2       543       545       544
 -1        70   12    0    1
 -2       545       547       546
 -1        71   12    0    1
 -2       547       549       548
 -1        72   12    0    1
 -2       549        18       550
 -1        73   12    0    1
 -2        17       552       551
 -1        74   12    0    1
 -2       552       554       553
 -1        75   12    0    1
 -2       554        24       555
 -1        76   12    0    1
 -2        17       557       556
 -1        77   12    0    1
 -2       557       559       558
 -1        78   12    0    1
 -2       559       561       560
 -1        79   12    0    1
 -2       561       563       562
 -1        80   12    0    1
 -2       563       565       564
 -1        81   12    0    1
 -2       565       567       566
 -1        82   12    0    1
 -2       567       569       568
 -1        83   12    0    1
 -2       569        25       570
 -1        84   12    0    1
 -2        18       572       571
 -1        85   12    0    1
 -2       572       574       573
 -1        86   12    0    1
 -2       574       576       575
 -1        87   12    0    1
 -2       576       578       577
 -1        88   12    0    1
 -2       578       580       579
 -1        89   12    0    1
 -2       580       582       581
 -1        90   12    0    1
 -2       582       584       583
 -1        91   12    0    1
 -2       584        19       585
 -1        92   12    0    1
 -2        18       587       586
 -1        93   12    0    1
 -2       587       589       588
 -1        94   12    0    1
 -2       589        25       590
 -1        95   12    0    1
 -2        18       592       591
 -1        96   12    0    1
 -2       592       594       593
 -1        97   12    0    1
 -2       594       596       595
 -1        98   12    0    1
 -2       596       598       597
 -1        99   12    0    1
 -2       598       600       599
 -1       100   12    0    1
 -2       600       602       601
 -1       101   12    0    1
 -2       602       604       603
 -1       102   12    0    1
 -2       604        26       605
 -1       103   12    0    1
 -2        19       607       606
 -1       104   12    0    1
 -2       607       609       608
 -1       105   12    0    1
 -2       609       611       610
 -1       106   12    0    1
 -2       611       613       612
 -1       107   12    0    1
 -2       613       615       614
 -1       108   12    0    1
 -2       615       617       616
 -1       109   12    0    1
 -2       617       619       618
 -1       110   12    0    1
 -2       619        20       620
 -1       111   12    0    1
 -2        19       622       621
 -1       112   12    0    1
 -2       622       624       623
 -1       113   12    0    1
 -2       624        26       625
 -1       114   12    0    1
 -2        19       627       626
 -1       115   12    0    1
 -2       627       629       628
 -1       116   12    0    1
 -2       629       631       630
 -1       117   12    0    1
 -2       631       633       632
 -1       118   12    0    1
 -2       633       635       634
 -1       119   12    0    1
 -2       635       637       636
 -1       120   12    0    1
 -2       637       639       638
 -1       121   12    0    1
 -2       639        27       640
 -1       122   12    0    1
 -2        20       657       656
 -1       123   12    0    1
 -2       657       659       658
 -1       124   12    0    1
 -2       659        27       660
 -1       125   12    0    1
 -2        20       662       661
 -1       126   12    0    1
 -2       662       664       663
 -1       127   12    0    1
 -2       664       666       665
 -1       128   12    0    1
 -2       666       668       667
 -1       129   12    0    1
 -2       668       670       669
 -1       130   12    0    1
 -2       670       672       671
 -1       131   12    0    1
 -2       672       674       673
 -1       132   12    0    1
 -2       674        28       675
 -1       133   12    0    1
 -2        21       677       676
 -1       134   12    0    1
 -2       677       679       678
 -1       135   12    0    1
 -2       679        28       680
 -1       136   12    0    1
 -2        24       772       771
 -1       137   12    0    1
 -2       772       774       773
 -1       138   12    0    1
 -2       774       776       775
 -1       139   12    0    1
 -2       776       778       777
 -1       140   12    0    1
 -2       778       780       779
 -1       141   12    0    1
 -2       780       782       781
 -1       142   12    0    1
 -2       782       784       783
 -1       143   12    0    1
 -2       784        32       785
 -1       144   12    0    1
 -2        25       787       786
 -1       145   12    0    1
 -2       787       789       788
 -1       146   12    0    1
 -2       789       791       790
 -1       147   12    0    1
 -2       791       793       792
 -1       148   12    0    1
 -2       793       795       794
 -1       149   12    0    1
 -2       795       797       796
 -1       150   12    0    1
 -2       797       799       798
 -1       151   12    0    1
 -2       799        26       800
 -1       152   12    0    1
 -2        25       802       801
 -1       153   12    0    1
 -2       802       804       803
 -1       154   12    0    1
 -2       804        32       805
 -1       155   12    0    1
 -2        25       807       806
 -1       156   12    0    1
 -2       807       809       808
 -1       157   12    0    1
 -2       809       811       810
 -1       158   12    0    1
 -2       811       813       812
 -1       159   12    0    1
 -2       813       815       814
 -1       160   12    0    1
 -2       815       817       816
 -1       161   12    0    1
 -2       817       819       818
 -1       162   12    0    1
 -2       819        33       820
 -1       163   12    0    1
 -2        26       822       821
 -1       164   12    0    1
 -2       822       824       823
 -1       165   12    0    1
 -2       824       826       825
 -1       166   12    0    1
 -2       826       828       827
 -1       167   12    0    1
 -2       828       830       829
 -1       168   12    0    1
 -2       830       832       831
 -1       169   12    0    1
 -2       832       834       833
 -1       170   12    0    1
 -2       834        27       835
 -1       171   12    0    1
 -2        26       837       836
 -1       172   12    0    1
 -2       837       839       838
 -1       173   12    0    1
 -2       839        33       840
 -1       174   12    0    1
 -2        27       857       856
 -1       175   12    0    1
 -2       857       859       858
 -1       176   12    0    1
 -2       859       861       860
 -1       177   12    0    1
 -2       861       863       862
 -1       178   12    0    1
 -2       863       865       864
 -1       179   12    0    1
 -2       865       867       866
 -1       180   12    0    1
 -2       867       869       868
 -1       181   12    0    1
 -2       869        28       870
 -1       182   12    0    1
 -2        27       872       871
 -1       183   12    0    1
 -2       872       874       873
 -1       184   12    0    1
 -2       874        34       875
 -1       185   12    0    1
 -2        27       877       876
 -1       186   12    0    1
 -2       877       879       878
 -1       187   12    0    1
 -2       879       881       880
 -1       188   12    0    1
 -2       881       883       882
 -1       189   12    0    1
 -2       883       885       884
 -1       190   12    0    1
 -2       885       887       886
 -1       191   12    0    1
 -2       887       889       888
 -1       192   12    0    1
 -2       889        35       890
 -1       193   12    0    1
 -2        28       892       891
 -1       194   12    0    1
 -2       892       894       893
 -1       195   12    0    1
 -2       894        35       895
 -1       196   12    0    1
 -2        33       957       956
 -1       197   12    0    1
 -2       957       959       958
 -1       198   12    0    1
 -2       959       961       960
 -1       199   12    0    1
 -2       961       963       962
 -1       200   12    0    1
 -2       963       965       964
 -1       201   12    0    1
 -2       965       967       966
 -1       202   12    0    1
 -2       967       969       968
 -1       203   12    0    1
 -2       969        34       970
 -1       204   12    0    1
 -2        34       972       971
 -1       205   12    0    1
 -2       972       974       973
 -1       206   12    0    1
 -2       974       976       975
 -1       207   12    0    1
 -2       976       978       977
 -1       208   12    0    1
 -2       978       980       979
 -1       209   12    0    1
 -2       980       982       981
 -1       210   12    0    1
 -2       982       984       983
 -1       211   12    0    1
 -2       984        35       985
 -3
    1PSTEP                         1           1           1          
  100CL  101 1.000000000         409                     0    1           1
 -4  DISP        4    1
 -5  D1          1    2    1    0
 -5  D2          1    2    2    0
 -5  D3          1    2    3    0
 -5  ALL         1    2    0    0    1ALL
 -1         1 2.11685E-04 0.00000E+00 0.00000E+00
 -1         2 1.91381E-04-3.62021E-29-1.65436E-24
 -1         3 1.89158E-04-4.74096E-26 0.00000E+00
 -1         5 1.30102E-04 4.19881E-25 0.00000E+00
 -1         8 1.71488E-04-1.71236E-06 0.00000E+00
 -1         9 1.66838E-04-2.83981E-07 0.00000E+00
 -1        10 1.73382E-04-2.97012E-06-6.61744E-24
 -1        12 1.29002E-04 1.13837E-06 0.00000E+00
 -1        15 1.25762E-04-1.92485E-06 4.13590E-25
 -1        16 1.18908E-04-6.37218E-07 0.00000E+00
 -1        17 1.24108E-04-6.33798E-06 0.00000E+00
 -1        18 1.23576E-04 5.59289E-07 0.00000E+00
 -1        19 1.25703E-04 2.26993E-06 0.00000E+00
 -1        20 1.26215E-04 2.99204E-05 0.00000E+00
 -1        21 1.23756E-04 6.18659E-05 0.00000E+00
 -1        24 3.32744E-05-8.71326E-06 0.00000E+00
 -1        25 1.19667E-04 8.59385E-07 0.00000E+00
 -1        26 1.21469E-04 3.10562E-06 0.00000E+00
 -1        27 1.18774E-04 2.77864E-05 0.00000E+00
 -1        28 1.17164E-04 6.09649E-05 0.00000E+00
 -1        32 0.00000E+00 0.00000E+00 0.00000E+00
 -1        33 1.15752E-04 4.22384E-06 0.00000E+00
 -1        34 1.12950E-04 2.76959E-05 0.00000E+00
 -1        35 1.09882E-04 6.04367E-05 0.00000E+00
 -1        51 2.08886E-04-2.78438E-07 0.00000E+00
 -1        52 2.03961E-04-5.50812E-07 0.00000E+00
 -1        53 1.97326E-04-8.27015E-07 0.00000E+00
 -1        54 1.89412E-04-1.11020E-06 0.00000E+00
 -1        55 1.80654E-04-1.40184E-06 3.30872E-24
 -1        56 2.09574E-04-1.59308E-06 5.29396E-23
 -1        57 2.07861E-04-4.50648E-06 0.00000E+00
 -1        58 2.06515E-04-8.39043E-06-5.29396E-23
 -1        59 2.05379E-04-1.28822E-05 0.00000E+00
 -1        60 2.04307E-04-1.75495E-05 5.29396E-23
 -1        61 2.03136E-04-2.19567E-05 0.00000E+00
 -1        62 2.01715E-04-2.56918E-05 5.29396E-23
 -1        63 1.99903E-04-2.83796E-05-2.64698E-23
 -1        64 1.97596E-04-2.97447E-05 0.00000E+00
 -1        65 1.94717E-04-2.95820E-05-2.64698E-23
 -1        66 1.91239E-04-2.78323E-05 0.00000E+00
 -1        67 1.87172E-04-2.45197E-05 2.64698E-23
 -1        68 1.82577E-04-1.98183E-05 0.00000E+00
 -1        69 1.77559E-04-1.39702E-05-2.64698E-23
 -1        70 1.72236E-04-7.33674E-06 0.00000E+00
 -1        86 1.90689E-04-3.02400E-08 0.00000E+00
 -1        87 1.88615E-04-6.30646E-08 0.00000E+00
 -1        88 1.85172E-04-9.96306E-08 3.30872E-24
 -1        89 1.80376E-04-1.46272E-07 3.30872E-24
 -1        90 1.74255E-04-1.98267E-07 0.00000E+00
 -1       121 1.88716E-04-4.90545E-07 0.00000E+00
 -1       122 1.87391E-04-9.81849E-07-6.61744E-24
 -1       123 1.85187E-04-1.47466E-06 0.00000E+00
 -1       124 1.82111E-04-1.96978E-06-6.61744E-24
 -1       125 1.78171E-04-2.46779E-06 1.32349E-23
 -1       191 1.30071E-04 1.89756E-07 0.00000E+00
 -1       192 1.29980E-04 3.79506E-07 0.00000E+00
 -1       193 1.29827E-04 5.69250E-07 0.00000E+00
 -1       194 1.29613E-04 7.58980E-07 0.00000E+00
 -1       195 1.29338E-04 9.48689E-07-6.61744E-24
 -1       251 1.71170E-04 4.76733E-06 0.00000E+00
 -1       252 1.70879E-04 8.96790E-06 0.00000E+00
 -1       253 1.70593E-04 1.10043E-05-1.32349E-23
 -1       254 1.70312E-04 1.10146E-05 0.00000E+00
 -1       255 1.70029E-04 9.31470E-06 6.61744E-24
 -1       256 1.69744E-04 6.23900E-06-3.30872E-24
 -1       257 1.69456E-04 2.24254E-06 6.61744E-24
 -1       258 1.69166E-04-2.20970E-06-3.30872E-24
 -1       259 1.68876E-04-6.61292E-06 0.00000E+00
 -1       260 1.68589E-04-1.04627E-05 3.30872E-24
 -1       261 1.68304E-04-1.33032E-05 6.61744E-24
 -1       262 1.68022E-04-1.46894E-05 0.00000E+00
 -1       263 1.67741E-04-1.43040E-05 0.00000E+00
 -1       264 1.67453E-04-1.18484E-05 0.00000E+00
 -1       265 1.67160E-04-7.20616E-06 0.00000E+00
 -1       266 1.63867E-04-1.77037E-06 1.32349E-23
 -1       267 1.56246E-04-1.80304E-06 0.00000E+00
 -1       268 1.48625E-04-1.83729E-06 0.00000E+00
 -1       269 1.41004E-04-1.86681E-06-8.27181E-25
 -1       270 1.33383E-04-1.89621E-06 8.27181E-25
 -1       271 1.66238E-04 3.82956E-06 0.00000E+00
 -1       272 1.61640E-04 7.37398E-06 0.00000E+00
 -1       273 1.57738E-04 9.09344E-06 0.00000E+00
 -1       274 1.54436E-04 9.17978E-06 5.29396E-23
 -1       275 1.51649E-04 7.89107E-06-1.05879E-22
 -1       276 1.49262E-04 5.52633E-06 5.29396E-23
 -1       277 1.47150E-04 2.42244E-06-1.05879E-22
 -1       278 1.45178E-04-1.05951E-06-5.29396E-23
 -1       279 1.43208E-04-4.54547E-06 0.00000E+00
 -1       280 1.41101E-04-7.66115E-06-5.29396E-23
 -1       281 1.38720E-04-1.00452E-05 0.00000E+00
 -1       282 1.35942E-04-1.13605E-05-5.29396E-23
 -1       283 1.32650E-04-1.13069E-05-1.05879E-22
 -1       284 1.28757E-04-9.62654E-06-5.29396E-23
 -1       285 1.24171E-04-6.12470E-06 5.29396E-23
 -1       301 1.58708E-04-3.55720E-07-1.32349E-23
 -1       302 1.50586E-04-4.00028E-07 0.00000E+00
 -1       303 1.42508E-04-4.42054E-07 0.00000E+00
 -1       304 1.34511E-04-4.86190E-07 0.00000E+00
 -1       305 1.26633E-04-5.35787E-07 0.00000E+00
 -1       306 1.61884E-04 5.60885E-06 5.29396E-23
 -1       307 1.57838E-04 8.89454E-06-2.64698E-23
 -1       308 1.54766E-04 9.61663E-06 5.29396E-23
 -1       309 1.52587E-04 7.91962E-06 0.00000E+00
 -1       310 1.51168E-04 4.18878E-06 0.00000E+00
 -1       311 1.50319E-04-1.08730E-06 0.00000E+00
 -1       312 1.49805E-04-7.27044E-06 0.00000E+00
 -1       313 1.49373E-04-1.36749E-05 0.00000E+00
 -1       314 1.48761E-04-1.95932E-05 0.00000E+00
 -1       315 1.47717E-04-2.43437E-05 0.00000E+00
 -1       316 1.46027E-04-2.73578E-05-5.29396E-23
 -1       317 1.43513E-04-2.81585E-05 0.00000E+00
 -1       318 1.40067E-04-2.64819E-05 5.29396E-23
 -1       319 1.35645E-04-2.21896E-05-2.64698E-23
 -1       320 1.30266E-04-1.54040E-05 0.00000E+00
 -1       336 1.67651E-04-3.51444E-06 1.32349E-23
 -1       337 1.60889E-04-4.06563E-06-6.61744E-24
 -1       338 1.53122E-04-4.62366E-06 0.00000E+00
 -1       339 1.44380E-04-5.18864E-06 6.61744E-24
 -1       340 1.34696E-04-5.76198E-06 1.32349E-23
 -1       406 1.28605E-04 1.32800E-06-6.61744E-24
 -1       407 1.28147E-04 1.51755E-06 0.00000E+00
 -1       408 1.27628E-04 1.70695E-06 0.00000E+00
 -1       409 1.27047E-04 1.89597E-06-3.30872E-24
 -1       410 1.26405E-04 2.08422E-06 0.00000E+00
 -1       521 1.13098E-04 8.76248E-07 0.00000E+00
 -1       522 1.10360E-04-6.27632E-06 0.00000E+00
 -1       523 1.10365E-04-2.09054E-05-1.05879E-22
 -1       524 1.12340E-04-4.11155E-05-5.29396E-23
 -1       525 1.15253E-04-6.39757E-05-1.05879E-22
 -1       526 1.17969E-04-8.62889E-05-5.29396E-23
 -1       527 1.19388E-04-1.04957E-04 0.00000E+00
 -1       528 1.18513E-04-1.17261E-04 5.29396E-23
 -1       529 1.14722E-04-1.21645E-04 0.00000E+00
 -1       530 1.07666E-04-1.17364E-04 5.29396E-23
 -1       531 9.75847E-05-1.05235E-04 0.00000E+00
 -1       532 8.50495E-05-8.68621E-05 5.29396E-23
 -1       533 7.11098E-05-6.49615E-05 0.00000E+00
 -1       534 5.70079E-05-4.25863E-05 0.00000E+00
 -1       535 4.39695E-05-2.28975E-05 0.00000E+00
 -1       536 1.24020E-04 3.43683E-06 0.00000E+00
 -1       537 1.23966E-04 1.08259E-05 0.00000E+00
 -1       538 1.23924E-04 1.60688E-05 0.00000E+00
 -1       539 1.23893E-04 1.94070E-05 0.00000E+00
 -1       540 1.23866E-04 2.10840E-05 0.00000E+00
 -1       541 1.23841E-04 2.13443E-05-4.13590E-25
 -1       542 1.23816E-04 2.04346E-05 8.27181E-25
 -1       543 1.23789E-04 1.86017E-05-4.13590E-25
 -1       544 1.23762E-04 1.60941E-05 0.00000E+00
 -1       545 1.23733E-04 1.31603E-05 0.00000E+00
 -1       546 1.23704E-04 1.00496E-05 8.27181E-25
 -1       547 1.23675E-04 7.01120E-06 0.00000E+00
 -1       548 1.23647E-04 4.29430E-06 0.00000E+00
 -1       549 1.23621E-04 2.14790E-06 0.00000E+00
 -1       550 1.23596E-04 8.20342E-07 0.00000E+00
 -1       551 1.10839E-04-6.70204E-06 6.61744E-24
 -1       552 9.58711E-05-7.08234E-06 3.10193E-24
 -1       553 7.99118E-05-7.47660E-06 0.00000E+00
 -1       554 6.36808E-05-7.87898E-06 1.32349E-23
 -1       555 4.78976E-05-8.28127E-06 0.00000E+00
 -1       556 1.20388E-04 3.12071E-06 0.00000E+00
 -1       557 1.17540E-04 1.03526E-05 1.32349E-23
 -1       558 1.15466E-04 1.55630E-05 0.00000E+00
 -1       559 1.14079E-04 1.89737E-05 0.00000E+00
 -1       560 1.13289E-04 2.08061E-05 0.00000E+00
 -1       561 1.13010E-04 2.12833E-05 0.00000E+00
 -1       562 1.13157E-04 2.06289E-05 0.00000E+00
 -1       563 1.13643E-04 1.90669E-05 0.00000E+00
 -1       564 1.14384E-04 1.68219E-05 6.61744E-24
 -1       565 1.15296E-04 1.41184E-05 0.00000E+00
 -1       566 1.16295E-04 1.11814E-05 0.00000E+00
 -1       567 1.17298E-04 8.23583E-06 1.18907E-24
 -1       568 1.18220E-04 5.50666E-06 3.30872E-24
 -1       569 1.18977E-04 3.21854E-06 0.00000E+00
 -1       570 1.19487E-04 1.59611E-06 0.00000E+00
 -1       571 1.23704E-04 7.57702E-07-1.65436E-24
 -1       572 1.23836E-04 8.69436E-07 1.24077E-24
 -1       573 1.23969E-04 9.09696E-07 1.65436E-24
 -1       574 1.24102E-04 8.94493E-07-1.65436E-24
 -1       575 1.24235E-04 8.39905E-07 0.00000E+00
 -1       576 1.24369E-04 7.62120E-07 1.65436E-24
 -1       577 1.24502E-04 6.77333E-07 0.00000E+00
 -1       578 1.24636E-04 6.01753E-07 0.00000E+00
 -1       579 1.24769E-04 5.51591E-07-6.61744E-24
 -1       580 1.24903E-04 5.43058E-07 0.00000E+00
 -1       581 1.25036E-04 5.92366E-07-6.61744E-24
 -1       582 1.25170E-04 7.15710E-07-6.61744E-24
 -1       583 1.25303E-04 9.29273E-07 0.00000E+00
 -1       584 1.25436E-04 1.24908E-06 0.00000E+00
 -1       585 1.25570E-04 1.69106E-06 0.00000E+00
 -1       586 1.22934E-04 6.11182E-07 0.00000E+00
 -1       587 1.22214E-04 6.62610E-07-8.27181E-25
 -1       588 1.21472E-04 7.13750E-07 1.42172E-24
 -1       589 1.20763E-04 7.64316E-07 0.00000E+00
 -1       590 1.20143E-04 8.13795E-07 0.00000E+00
 -1       591 1.23416E-04 8.09845E-07 0.00000E+00
 -1       592 1.23277E-04 9.90354E-07 0.00000E+00
 -1       593 1.23158E-04 1.11436E-06 0.00000E+00
 -1       594 1.23055E-04 1.19397E-06-8.27181E-25
 -1       595 1.22964E-04 1.24140E-06 1.65436E-24
 -1       596 1.22881E-04 1.26878E-06-8.27181E-25
 -1       597 1.22800E-04 1.28823E-06-1.65436E-24
 -1       598 1.22718E-04 1.31186E-06 8.27181E-25
 -1       599 1.22629E-04 1.35177E-06-1.65436E-24
 -1       600 1.22530E-04 1.42006E-06 0.00000E+00
 -1       601 1.22416E-04 1.52884E-06 0.00000E+00
 -1       602 1.22283E-04 1.69023E-06 0.00000E+00
 -1       603 1.22125E-04 1.91633E-06-1.65436E-24
 -1       604 1.21939E-04 2.21933E-06 2.06795E-25
 -1       605 1.21720E-04 2.61131E-06 0.00000E+00
 -1       606 1.25742E-04 3.12923E-06 0.00000E+00
 -1       607 1.25776E-04 4.15586E-06-3.30872E-24
 -1       608 1.25809E-04 5.33993E-06 0.00000E+00
 -1       609 1.25842E-04 6.67026E-06 0.00000E+00
 -1       610 1.25874E-04 8.13567E-06 0.00000E+00
 -1       611 1.25906E-04 9.72480E-06 0.00000E+00
 -1       612 1.25937E-04 1.14263E-05 0.00000E+00
 -1       613 1.25969E-04 1.32288E-05 0.00000E+00
 -1       614 1.26000E-04 1.51209E-05 0.00000E+00
 -1       615 1.26031E-04 1.70912E-05 0.00000E+00
 -1       616 1.26062E-04 1.91285E-05 0.00000E+00
 -1       617 1.26093E-04 2.12213E-05 0.00000E+00
 -1       618 1.26124E-04 2.33582E-05 1.65436E-24
 -1       619 1.26155E-04 2.55280E-05 0.00000E+00
 -1       620 1.26185E-04 2.77192E-05 8.27181E-25
 -1       621 1.24953E-04 2.40991E-06 0.00000E+00
 -1       622 1.24208E-04 2.55023E-06-1.65436E-24
 -1       623 1.23476E-04 2.69047E-06 0.00000E+00
 -1       624 1.22770E-04 2.83038E-06 1.65436E-24
 -1       625 1.22097E-04 2.96982E-06 0.00000E+00
 -1       626 1.25519E-04 3.20046E-06 0.00000E+00
 -1       627 1.25274E-04 4.29885E-06 0.00000E+00
 -1       628 1.24971E-04 5.54909E-06 0.00000E+00
 -1       629 1.24617E-04 6.93402E-06 0.00000E+00
 -1       630 1.24220E-04 8.43652E-06 6.61744E-24
 -1       631 1.23784E-04 1.00393E-05 0.00000E+00
 -1       632 1.23318E-04 1.17251E-05 0.00000E+00
 -1       633 1.22826E-04 1.34767E-05 3.30872E-24
 -1       634 1.22317E-04 1.52768E-05 0.00000E+00
 -1       635 1.21795E-04 1.71081E-05 0.00000E+00
 -1       636 1.21268E-04 1.89535E-05 0.00000E+00
 -1       637 1.20743E-04 2.07957E-05-1.65436E-24
 -1       638 1.20225E-04 2.26174E-05 3.30872E-24
 -1       639 1.19720E-04 2.44013E-05 1.65436E-24
 -1       640 1.19236E-04 2.61302E-05 1.65436E-24
 -1       656 1.24357E-04 2.95731E-05 6.61744E-24
 -1       657 1.23020E-04 2.92116E-05 0.00000E+00
 -1       658 1.22000E-04 2.88515E-05 0.00000E+00
 -1       659 1.21091E-04 2.84918E-05 3.30872E-24
 -1       660 1.20085E-04 2.81309E-05 0.00000E+00
 -1       661 1.25536E-04 3.21480E-05 0.00000E+00
 -1       662 1.24855E-04 3.43944E-05 0.00000E+00
 -1       663 1.24173E-04 3.66459E-05-3.30872E-24
 -1       664 1.23494E-04 3.88912E-05-1.65436E-24
 -1       665 1.22821E-04 4.11181E-05 0.00000E+00
 -1       666 1.22160E-04 4.33150E-05 0.00000E+00
 -1       667 1.21515E-04 4.54700E-05-3.30872E-24
 -1       668 1.20891E-04 4.75712E-05 1.65436E-24
 -1       669 1.20291E-04 4.96065E-05 3.30872E-24
 -1       670 1.19720E-04 5.15639E-05 1.65436E-24
 -1       671 1.19184E-04 5.34311E-05 3.30872E-24
 -1       672 1.18686E-04 5.51954E-05 1.65436E-24
 -1       673 1.18231E-04 5.68444E-05 3.30872E-24
 -1       674 1.17823E-04 5.83646E-05-1.65436E-24
 -1       675 1.17469E-04 5.97437E-05-1.65436E-24
 -1       676 1.22652E-04 6.17147E-05 0.00000E+00
 -1       677 1.21549E-04 6.15636E-05 0.00000E+00
 -1       678 1.20448E-04 6.14126E-05-3.30872E-24
 -1       679 1.19350E-04 6.12621E-05 0.00000E+00
 -1       680 1.18255E-04 6.11117E-05 3.30872E-24
 -1       771 2.73064E-05 2.08972E-06 0.00000E+00
 -1       772 2.20906E-05 1.09022E-05 0.00000E+00
 -1       773 1.75941E-05 1.78392E-05 5.29396E-23
 -1       774 1.37652E-05 2.30270E-05 2.64698E-23
 -1       775 1.05525E-05 2.65951E-05 0.00000E+00
 -1       776 7.90212E-06 2.86790E-05 2.64698E-23
 -1       777 5.75972E-06 2.94173E-05 0.00000E+00
 -1       778 4.06954E-06 2.89532E-05 0.00000E+00
 -1       779 2.77557E-06 2.74325E-05 0.00000E+00
 -1       780 1.82078E-06 2.50045E-05 0.00000E+00
 -1       781 1.14801E-06 2.18206E-05 0.00000E+00
 -1       782 6.99493E-07 1.80348E-05 0.00000E+00
 -1       783 4.17367E-07 1.38024E-05 5.29396E-23
 -1       784 2.43987E-07 9.28027E-06 0.00000E+00
 -1       785 1.21116E-07 4.62599E-06 0.00000E+00
 -1       786 1.19773E-04 9.64395E-07 0.00000E+00
 -1       787 1.19885E-04 1.02751E-06-8.27181E-25
 -1       788 1.19997E-04 1.05880E-06 0.00000E+00
 -1       789 1.20111E-04 1.06826E-06 0.00000E+00
 -1       790 1.20224E-04 1.06574E-06 0.00000E+00
 -1       791 1.20337E-04 1.06109E-06 0.00000E+00
 -1       792 1.20451E-04 1.06410E-06-3.30872E-24
 -1       793 1.20564E-04 1.08464E-06-1.65436E-24
 -1       794 1.20678E-04 1.13262E-06-3.30872E-24
 -1       795 1.20792E-04 1.21808E-06 0.00000E+00
 -1       796 1.20905E-04 1.35123E-06 0.00000E+00
 -1       797 1.21019E-04 1.54244E-06 1.65436E-24
 -1       798 1.21132E-04 1.80240E-06 0.00000E+00
 -1       799 1.21245E-04 2.14198E-06-1.65436E-24
 -1       800 1.21358E-04 2.57253E-06 0.00000E+00
 -1       801 1.10650E-04 9.13609E-07 0.00000E+00
 -1       802 8.72328E-05 7.55469E-07 0.00000E+00
 -1       803 5.69449E-05 4.33330E-07-3.30872E-24
 -1       804 2.72982E-05 1.19520E-07 0.00000E+00
 -1       805 5.80306E-06-8.02037E-09 0.00000E+00
 -1       806 1.19493E-04 8.99552E-07 0.00000E+00
 -1       807 1.19319E-04 9.23137E-07 0.00000E+00
 -1       808 1.19147E-04 9.39477E-07 0.00000E+00
 -1       809 1.18974E-04 9.56880E-07-1.65436E-24
 -1       810 1.18798E-04 9.83616E-07 0.00000E+00
 -1       811 1.18615E-04 1.02786E-06-1.65436E-24
 -1       812 1.18422E-04 1.09777E-06-3.30872E-24
 -1       813 1.18216E-04 1.20150E-06 1.65436E-24
 -1       814 1.17995E-04 1.34720E-06-3.30872E-24
 -1       815 1.17754E-04 1.54300E-06-1.65436E-24
 -1       816 1.17492E-04 1.79702E-06-1.65436E-24
 -1       817 1.17206E-04 2.11740E-06 0.00000E+00
 -1       818 1.16891E-04 2.51224E-06 3.30872E-24
 -1       819 1.16545E-04 2.98961E-06 1.65436E-24
 -1       820 1.16166E-04 3.55757E-06 3.30872E-24
 -1       821 1.21310E-04 3.80324E-06-1.65436E-24
 -1       822 1.21142E-04 4.71452E-06 0.00000E+00
 -1       823 1.20975E-04 5.82057E-06 0.00000E+00
 -1       824 1.20805E-04 7.10164E-06 0.00000E+00
 -1       825 1.20636E-04 8.53655E-06 0.00000E+00
 -1       826 1.20465E-04 1.01035E-05 3.30872E-24
 -1       827 1.20295E-04 1.17794E-05-6.61744E-24
 -1       828 1.20124E-04 1.35410E-05 0.00000E+00
 -1       829 1.19953E-04 1.53641E-05 0.00000E+00
 -1       830 1.19782E-04 1.72243E-05 3.30872E-24
 -1       831 1.19612E-04 1.90969E-05 6.61744E-24
 -1       832 1.19441E-04 2.09572E-05 1.65436E-24
 -1       833 1.19271E-04 2.27806E-05-3.30872E-24
 -1       834 1.19102E-04 2.45425E-05 1.65436E-24
 -1       835 1.18934E-04 2.62190E-05 0.00000E+00
 -1       836 1.20727E-04 3.29043E-06 0.00000E+00
 -1       837 1.19802E-04 3.48054E-06 0.00000E+00
 -1       838 1.18768E-04 3.67029E-06 0.00000E+00
 -1       839 1.17699E-04 3.85910E-06 0.00000E+00
 -1       840 1.16669E-04 4.04776E-06 1.65436E-24
 -1       856 1.18682E-04 2.94238E-05 0.00000E+00
 -1       857 1.18582E-04 3.12880E-05 8.27181E-25
 -1       858 1.18482E-04 3.33433E-05-3.30872E-24
 -1       859 1.18381E-04 3.55537E-05 1.65436E-24
 -1       860 1.18279E-04 3.78831E-05 3.30872E-24
 -1       861 1.18177E-04 4.02951E-05 0.00000E+00
 -1       862 1.18075E-04 4.27534E-05-3.30872E-24
 -1       863 1.17973E-04 4.52216E-05 1.65436E-24
 -1       864 1.17870E-04 4.76632E-05-3.30872E-24
 -1       865 1.17768E-04 5.00417E-05 0.00000E+00
 -1       866 1.17666E-04 5.23210E-05 0.00000E+00
 -1       867 1.17565E-04 5.44646E-05 0.00000E+00
 -1       868 1.17464E-04 5.64366E-05 3.30872E-24
 -1       869 1.17363E-04 5.82010E-05-1.65436E-24
 -1       870 1.17263E-04 5.97222E-05 3.30872E-24
 -1       871 1.17566E-04 2.77758E-05 0.00000E+00
 -1       872 1.16577E-04 2.77621E-05 0.00000E+00
 -1       873 1.15715E-04 2.77479E-05 8.27181E-25
 -1       874 1.14886E-04 2.77328E-05-2.06795E-25
 -1       875 1.13996E-04 2.77169E-05 8.27181E-25
 -1       876 1.18361E-04 2.94349E-05 3.30872E-24
 -1       877 1.17909E-04 3.12014E-05-3.30872E-24
 -1       878 1.17418E-04 3.30704E-05 0.00000E+00
 -1       879 1.16895E-04 3.50281E-05 3.30872E-24
 -1       880 1.16344E-04 3.70606E-05 6.61744E-24
 -1       881 1.15770E-04 3.91541E-05-3.30872E-24
 -1       882 1.15179E-04 4.12951E-05 0.00000E+00
 -1       883 1.14574E-04 4.34697E-05-3.30872E-24
 -1       884 1.13962E-04 4.56643E-05-6.61744E-24
 -1       885 1.13348E-04 4.78654E-05 0.00000E+00
 -1       886 1.12736E-04 5.00592E-05 0.00000E+00
 -1       887 1.12132E-04 5.22321E-05-3.30872E-24
 -1       888 1.11540E-04 5.43704E-05-6.61744E-24
 -1       889 1.10966E-04 5.64601E-05 0.00000E+00
 -1       890 1.10415E-04 5.84878E-05-1.65436E-24
 -1       891 1.16149E-04 6.08773E-05 0.00000E+00
 -1       892 1.15144E-04 6.07888E-05-8.27181E-25
 -1       893 1.14081E-04 6.07002E-05 0.00000E+00
 -1       894 1.12895E-04 6.06117E-05 0.00000E+00
 -1       895 1.11517E-04 6.05231E-05 0.00000E+00
 -1       956 1.15581E-04 5.14293E-06 3.30872E-24
 -1       957 1.15407E-04 6.21566E-06-1.65436E-24
 -1       958 1.15232E-04 7.42566E-06 6.61744E-24
 -1       959 1.15056E-04 8.75554E-06-3.30872E-24
 -1       960 1.14881E-04 1.01879E-05-3.30872E-24
 -1       961 1.14705E-04 1.17053E-05-3.30872E-24
 -1       962 1.14529E-04 1.32901E-05 6.61744E-24
 -1       963 1.14353E-04 1.49249E-05-3.30872E-24
 -1       964 1.14177E-04 1.65921E-05 0.00000E+00
 -1       965 1.14001E-04 1.82740E-05 3.30872E-24
 -1       966 1.13825E-04 1.99533E-05 0.00000E+00
 -1       967 1.13649E-04 2.16123E-05-3.30872E-24
 -1       968 1.13473E-04 2.32335E-05-6.61744E-24
 -1       969 1.13297E-04 2.47993E-05 0.00000E+00
 -1       970 1.13122E-04 2.62924E-05-6.61744E-24
 -1       971 1.12762E-04 2.91244E-05-3.30872E-24
 -1       972 1.12570E-04 3.07345E-05-1.65436E-24
 -1       973 1.12379E-04 3.25054E-05 0.00000E+00
 -1       974 1.12186E-04 3.44160E-05 0.00000E+00
 -1       975 1.11993E-04 3.64448E-05 6.61744E-24
 -1       976 1.11800E-04 3.85706E-05 3.30872E-24
 -1       977 1.11607E-04 4.07719E-05 6.61744E-24
 -1       978 1.11414E-04 4.30273E-05 0.00000E+00
 -1       979 1.11221E-04 4.53151E-05 6.61744E-24
 -1       980 1.11027E-04 4.76141E-05 0.00000E+00
 -1       981 1.10834E-04 4.99026E-05 0.00000E+00
 -1       982 1.10641E-04 5.21591E-05 3.30872E-24
 -1       983 1.10449E-04 5.43622E-05 0.00000E+00
 -1       984 1.10257E-04 5.64904E-05 3.30872E-24
 -1       985 1.10066E-04 5.85222E-05 3.30872E-24
 -3
    1PSTEP                         2           1           1          
  100CL  101 1.000000000         409                     0    1           1
 -4  STRESS      6    1
 -5  SXX         1    4    1    1
 -5  SYY         1    4    2    2
 -5  SZZ         1    4    3    3
 -5  SXY         1    4    1    2
 -5  SYZ         1    4    2    3
 -5  SZX         1    4    3    1
 -1         1-3.16889E+06-1.42831E+06-6.71237E+05-2.00626E+06 3.78350E-10-1.01281E-08
 -1         2 3.61202E+03-7.94786E+04 1.23717E+04-4.63514E+02-3.37195E-10 1.68635E-08
 -1         3-3.79743E+02-1.39940E+06 3.18203E+02-9.16213E+02 1.97087E-09 1.55269E-08
 -1         5-2.78135E+01 5.43127E+05 1.44085E+01 1.40942E+00 1.42128E-10 2.80997E-08
 -1         8-1.86809E+06-7.34746E+05-1.63914E+05-1.08932E+06-2.98314E-10 5.63159E-09
 -1         9-2.57162E+06-7.55887E+05-2.92980E+05-7.76275E+05-4.07454E-10-5.45879E-10
 -1        10-1.20330E+03-1.45561E+06-1.85651E+03-6.16230E+03-2.47928E-09 1.87969E-08
 -1        12-2.20032E+01 5.43157E+05 4.67961E+02 9.15948E+00 3.73362E-10 2.08574E-08
 -1        15 3.64080E+03 2.02047E+03 1.20588E+04 1.18557E+01 2.78874E-10-6.25098E-09
 -1        16-6.27259E+06-2.03977E+06-9.74527E+05-2.07075E+06-4.27826E-09 8.26549E-09
 -1        17-1.28598E+06-8.75278E+05-2.18724E+05-8.08628E+05 2.43017E-09 4.19095E-09
 -1        18 3.49047E+04 4.90694E+03-2.61247E+04-1.37162E+05 9.19499E-10-1.08685E-08
 -1        19 1.68995E+05 1.97604E+05-1.81293E+03 2.29180E+04 7.67614E-11-8.97562E-09
 -1        20 6.40074E+04-3.10610E+05-6.06422E+04 7.36866E+04-2.27040E-09 6.22943E-09
 -1        21-6.84486E+01-4.31104E+05-1.54370E+03-3.07260E+02 9.58516E-09 2.76560E-09
 -1        24-5.30546E+06-1.77107E+06-6.93625E+05-2.20652E+06-3.77428E-08-1.00020E-08
 -1        25 5.72035E+04 7.00040E+04 4.18795E+04-5.80786E+05 2.03490E-09 2.56696E-09
 -1        26-3.57263E+04 1.45058E+05-1.10683E+04-3.00327E+04-1.38534E-09 4.85829E-10
 -1        27-6.13207E+04-1.83728E+05-8.40666E+04 1.06885E+05 2.58903E-09 1.90327E-09
 -1        28 6.54143E+03-1.31372E+05 1.15457E+04 4.90276E+04 1.00174E-08 4.08289E-09
 -1        32-1.39013E+06-7.53116E+04 4.85302E+05-1.86680E+06 4.01633E-09 2.04750E-09
 -1        33-2.11321E+05 1.41678E+05 4.66250E+04-5.84204E+04-2.24676E-09 5.54185E-10
 -1        34-3.24957E+05-4.02595E+04-3.01732E+03 1.03219E+05-2.72100E-10 1.01806E-08
 -1        35-3.73299E+04-5.29411E+04-2.57150E+03 8.43068E+04 9.59992E-09-9.18105E-09
 -1        51 2.75756E+04-6.66636E+05 6.09998E+04-1.83209E+06 5.82077E-11 5.73345E-09
 -1        52 2.24205E+04-6.74876E+05 4.24155E+04-2.07410E+06 7.27596E-10-4.59841E-09
 -1        53 2.16569E+04-7.05756E+05 3.81332E+04-1.82618E+06 1.16415E-10 3.72529E-09
 -1        54 5.17704E+04-7.10156E+05 6.43671E+04-2.07989E+06-8.14907E-10 1.08848E-08
 -1        55 9.47799E+04-7.36098E+05 1.17667E+05-1.82470E+06 8.14907E-10-1.81608E-08
 -1        56-6.06957E+06-6.81054E+05-4.85000E+05-2.33395E+06 1.60799E-09-1.01863E-09
 -1        57-6.24024E+06-1.13255E+06-3.25299E+05-2.34122E+06-3.27418E-10-4.11819E-09
 -1        58-6.17295E+06-8.24622E+05-1.14016E+05-2.29612E+06 1.79716E-09-1.19326E-09
 -1        59-6.12072E+06-9.63240E+05-6.75415E+04-2.38685E+06-3.75917E-09-2.67464E-08
 -1        60-6.18799E+06-8.43893E+05-2.65535E+04-2.29067E+06-1.00954E-10 4.85579E-09
 -1        61-6.10973E+06-9.33461E+05-1.49189E+04-2.38468E+06-5.22959E-09 1.26524E-08
 -1        62-6.18331E+06-8.53802E+05-7.38738E+03-2.29827E+06-4.06544E-10 5.59021E-09
 -1        63-6.12671E+06-9.10192E+05-5.70738E+03-2.36081E+06-9.54515E-10-7.58519E-10
 -1        64-6.17009E+06-8.67646E+05-7.14402E+03-2.31393E+06-1.78261E-10 1.78397E-09
 -1        65-6.15760E+06-8.82875E+05-1.33592E+04-2.32570E+06-2.72348E-09-1.35528E-08
 -1        66-6.15196E+06-8.81530E+05-2.44658E+04-2.33299E+06-1.64982E-09-6.93944E-09
 -1        67-6.20336E+06-8.74216E+05-6.09246E+04-2.28739E+06-5.94991E-09 1.28739E-08
 -1        68-6.12504E+06-8.76753E+05-1.03375E+05-2.35235E+06-2.46473E-10 6.53381E-09
 -1        69-6.32651E+06-1.01476E+06-2.94510E+05-2.23361E+06 3.47427E-09-1.45519E-10
 -1        70-6.03127E+06-7.45906E+05-4.38883E+05-2.38566E+06-1.76806E-09 1.16415E-08
 -1        86-1.86197E+03-8.52477E+04 1.28758E+04 2.31563E+02 3.46290E-09 4.03043E-09
 -1        87 1.21664E+04-7.53678E+04 2.73289E+04-8.92339E+02 3.77122E-09-2.25114E-08
 -1        88-1.03691E+04-8.93615E+04 4.14744E+04 6.59956E+02 8.79118E-09-1.78909E-08
 -1        89 7.76739E+04-4.49748E+04 1.12138E+05-1.47871E+03 8.49832E-09-8.51173E-09
 -1        90-6.70031E+04-1.15615E+05 1.58413E+05 8.19621E+02 1.39989E-08-7.19865E-09
 -1       121-5.37808E+02-1.40071E+06 1.31352E+02 4.56856E+02-1.42336E-09 6.36646E-10
 -1       122-2.70317E+02-1.39936E+06 6.82400E+02-1.83033E+03 1.96210E-09-2.55095E-08
 -1       123-5.91313E+02-1.40079E+06 9.37943E+02 1.36605E+03-2.13834E-09-4.29645E-09
 -1       124 9.85351E+02-1.39868E+06 2.83209E+03-3.90002E+03 2.25236E-09-3.04135E-09
 -1       125-1.31943E+03-1.40152E+06 4.20937E+03 2.52193E+03-2.77669E-09 1.68438E-08
 -1       191-2.96709E+01 5.43169E+05 1.63409E+01-7.11491E-01 3.47666E-10 5.50790E-09
 -1       192-2.91551E+01 5.43127E+05 3.05445E+01 3.80421E+00 4.81899E-10-1.70148E-08
 -1       193-3.32262E+01 5.43168E+05 5.59421E+01-3.13605E+00 4.83862E-10-4.14730E-09
 -1       194-3.34672E+01 5.43132E+05 1.15615E+02 8.29696E+00 3.23480E-10-1.25274E-08
 -1       195-4.00544E+01 5.43165E+05 2.25272E+02-5.26211E+00 8.71012E-10 7.60519E-09
 -1       251-8.21170E+05-3.74448E+04 8.72235E+04-3.66794E+03 1.05047E-09 3.42334E-09
 -1       252-7.76232E+05 4.31525E+04 6.26923E+04-1.25113E+04 2.59206E-11-1.34041E-08
 -1       253-8.06062E+05-5.84998E+03 2.23137E+04 3.13460E+03 9.76570E-10-6.39011E-09
 -1       254-7.95049E+05 6.65221E+03 1.47553E+04-2.48101E+04 9.34506E-10 6.83053E-09
 -1       255-8.02655E+05-9.45457E+02 5.69297E+03 8.62884E+03-1.28011E-10-1.51726E-09
 -1       256-7.99956E+05 1.19061E+03 3.71148E+03-3.32686E+04 1.75010E-09-1.14462E-08
 -1       257-8.01472E+05-1.87312E+02 1.84492E+03 1.15932E+04-1.30620E-09-1.01045E-08
 -1       258-8.01213E+05 5.33074E+02 1.68000E+03-3.60741E+04 3.92518E-10 4.03502E-09
 -1       259-8.01524E+05-1.98127E+02 1.92138E+03 1.14350E+04-1.96434E-09 7.82984E-09
 -1       260-7.99735E+05 1.25720E+03 3.99188E+03-3.26703E+04-1.82990E-09 5.59726E-09
 -1       261-8.02798E+05-1.01970E+03 6.12254E+03 8.18866E+03 1.28716E-09 1.12714E-08
 -1       262-7.94566E+05 7.16574E+03 1.59173E+04-2.37287E+04-8.57199E-10 1.71096E-08
 -1       263-8.06370E+05-6.31037E+03 2.41028E+04 2.49352E+03-1.50771E-09 1.35506E-08
 -1       264-7.74524E+05 4.65793E+04 6.76290E+04-1.11778E+04-4.93856E-09-6.87487E-09
 -1       265-8.22551E+05-4.04033E+04 9.42208E+04-4.36018E+03-4.86216E-09 2.28829E-09
 -1       266-6.70566E+04-3.15463E+04 1.58993E+05-2.59823E+02-7.27596E-12 2.75480E-09
 -1       267 7.78006E+04 3.67577E+04 1.12084E+05 3.00304E+02-7.09406E-11-5.29141E-09
 -1       268-1.03327E+04-5.17077E+03 4.17672E+04-3.77688E+01-2.18279E-11 5.42045E-09
 -1       269 1.22031E+04 6.18324E+03 2.70588E+04 4.40463E+01 7.59428E-11 4.52406E-09
 -1       270-1.81331E+03-1.01017E+03 1.31026E+04-5.87642E+00 7.27596E-11 3.77850E-09
 -1       271-7.01646E+06-8.88446E+05-5.52002E+05-2.74531E+06-1.88447E-09-3.69619E-09
 -1       272-7.20929E+06-1.27973E+06-3.52662E+05-2.74289E+06 4.21039E-09-1.23400E-08
 -1       273-7.12637E+06-1.01364E+06-1.30335E+05-2.71396E+06 2.07274E-09-4.67116E-09
 -1       274-7.07726E+06-1.12742E+06-7.21888E+04-2.79472E+06 8.36735E-09-1.02518E-08
 -1       275-7.14710E+06-1.01972E+06-3.02864E+04-2.70231E+06 2.11185E-09 7.14863E-09
 -1       276-7.05205E+06-1.12130E+06-1.59210E+04-2.81412E+06 8.95852E-11-4.90263E-09
 -1       277-7.15342E+06-1.01631E+06-7.89119E+03-2.69687E+06-1.48248E-10-2.43949E-09
 -1       278-7.04655E+06-1.12391E+06-5.82846E+03-2.82032E+06-3.65617E-10 4.06408E-09
 -1       279-7.15350E+06-1.01634E+06-6.50108E+03-2.69683E+06 1.82808E-10-3.29874E-09
 -1       280-7.05144E+06-1.12078E+06-1.20302E+04-2.81430E+06-6.74390E-10-1.18871E-08
 -1       281-7.14761E+06-1.02017E+06-2.24706E+04-2.70218E+06 6.73026E-11 1.22236E-09
 -1       282-7.07296E+06-1.12184E+06-5.31024E+04-2.79564E+06 1.55705E-09 9.54788E-09
 -1       283-7.13002E+06-1.01821E+06-9.59997E+04-2.71334E+06 4.75666E-10-1.05938E-08
 -1       284-7.17488E+06-1.22836E+06-2.59181E+05-2.75091E+06 1.72622E-09-2.06892E-08
 -1       285-7.04610E+06-9.29572E+05-4.06265E+05-2.73994E+06-2.79761E-09 7.27596E-10
 -1       301 4.88934E+04-2.62520E+04 2.02187E+05-6.40369E+04-4.59113E-09 5.03633E-10
 -1       302 2.58544E+04 1.95515E+04 1.39092E+05-8.54865E+04-2.39515E-09-1.46356E-08
 -1       303 3.54492E+03-9.76580E+03 1.25965E+05-6.44980E+04-5.21322E-09-8.69750E-09
 -1       304 4.54333E+04 3.73218E+04 2.06350E+05-8.52169E+04-2.03727E-09-5.26597E-09
 -1       305 9.08328E+04-4.36358E+04 3.57089E+05-6.39162E+04-4.08909E-09 1.57042E-08
 -1       306-6.04558E+06-7.33740E+05-4.39914E+05-2.37058E+06-3.65981E-09-8.23638E-09
 -1       307-6.24810E+06-1.08549E+06-2.93614E+05-2.31106E+06-4.41105E-11-2.88128E-09
 -1       308-6.15717E+06-8.45614E+05-1.04059E+05-2.31615E+06-2.67005E-09 7.00675E-09
 -1       309-6.10451E+06-9.69518E+05-6.05772E+04-2.39571E+06 1.15688E-09-9.64610E-09
 -1       310-6.18919E+06-8.43170E+05-2.44283E+04-2.28887E+06-2.34468E-09-2.07729E-09
 -1       311-6.06409E+06-9.76891E+05-1.35448E+04-2.43596E+06 8.68909E-09 5.94355E-09
 -1       312-6.19948E+06-8.36080E+05-6.79118E+03-2.27765E+06 4.55816E-09-1.07381E-08
 -1       313-6.05876E+06-9.78513E+05-5.97092E+03-2.44163E+06-4.53838E-10-3.32079E-09
 -1       314-6.19487E+06-8.41216E+05-7.63045E+03-2.28349E+06 1.78443E-09 1.08794E-08
 -1       315-6.08037E+06-9.59257E+05-1.51159E+04-2.41335E+06 3.97858E-09 2.43408E-08
 -1       316-6.17607E+06-8.56644E+05-2.83313E+04-2.30460E+06-1.73713E-10 5.40786E-09
 -1       317-6.13650E+06-9.41920E+05-6.94242E+04-2.35770E+06-2.35514E-09-2.53840E-09
 -1       318-6.13704E+06-8.60728E+05-1.19580E+05-2.33742E+06-8.83711E-09 1.68075E-09
 -1       319-6.30200E+06-1.07763E+06-3.37643E+05-2.26564E+06-1.71713E-09 2.92130E-09
 -1       320-6.01231E+06-7.27232E+05-5.04978E+05-2.39455E+06-1.14887E-08-6.69388E-09
 -1       336 5.55765E+02-1.51175E+06-8.13237E+03 3.62057E+03 1.99498E-09 7.42875E-09
 -1       337-2.84979E+03-1.51313E+06-8.80652E+03-8.83767E+03 1.09117E-08 1.12414E-09
 -1       338 3.12743E+02-1.51199E+06-1.15581E+04 5.18153E+03 3.40788E-09 7.18137E-09
 -1       339-1.14057E+04-1.51890E+06-2.49733E+04-1.18671E+04 1.42240E-08 1.11904E-08
 -1       340 7.26199E+03-1.50647E+06-3.89758E+04 6.62215E+03 5.02860E-09 1.68839E-08
 -1       406 1.28819E+01 5.43144E+05 9.22908E+02-4.04804E+00 1.11646E-09-6.45559E-09
 -1       407 3.00171E+02 5.43319E+05 1.96328E+03-9.01791E+00 2.53522E-10-2.10039E-08
 -1       408 9.88049E+02 5.43002E+05 3.91971E+03 1.37612E+01 1.55796E-09-9.39508E-09
 -1       409 4.21883E+03 5.44570E+05 8.82542E+03-1.65767E+02 2.00089E-10 4.10728E-09
 -1       410 1.21608E+04 5.41883E+05 1.80155E+04 1.66744E+02 1.42973E-09-9.45874E-11
 -1       521-1.16644E+07-1.35126E+06-8.63705E+05-4.47565E+06-2.24827E-09-4.48199E-09
 -1       522-1.17851E+07-2.23352E+06-5.64206E+05-4.59898E+06-2.34854E-09-1.01791E-08
 -1       523-1.19599E+07-1.46856E+06-2.03871E+05-4.25702E+06-2.27074E-08-5.82077E-09
 -1       524-1.14513E+07-2.10309E+06-1.15781E+05-4.90973E+06-1.59853E-08-1.89175E-09
 -1       525-1.20237E+07-1.45019E+06-4.53190E+04-4.18924E+06 3.63798E-11 6.20457E-09
 -1       526-1.14361E+07-2.04162E+06-2.30415E+04-4.89080E+06 9.78162E-09 7.52834E-09
 -1       527-1.19701E+07-1.53131E+06-1.83948E+04-4.27340E+06-9.65883E-09 2.82489E-09
 -1       528-1.16018E+07-1.82172E+06-2.39858E+03-4.60438E+06-1.22527E-08 1.02700E-08
 -1       529-1.18276E+07-1.69097E+06-2.42074E+04-4.45361E+06-1.19398E-08 1.32713E-08
 -1       530-1.19160E+07-1.51637E+06-1.74993E+04-4.25064E+06-1.86537E-08 3.48664E-08
 -1       531-1.16569E+07-1.83610E+06-5.11329E+04-4.62674E+06-4.50018E-09 1.70621E-08
 -1       532-1.22242E+07-1.32348E+06-1.13064E+05-4.01835E+06 3.74166E-09-2.75759E-09
 -1       533-1.15502E+07-1.86468E+06-1.95063E+05-4.70836E+06-5.03351E-08-2.79761E-08
 -1       534-1.24361E+07-1.61665E+06-5.58904E+05-3.94707E+06-1.81026E-08 8.22911E-09
 -1       535-1.14527E+07-1.55118E+06-8.40989E+05-4.69779E+06-1.53959E-08 1.56579E-08
 -1       536-8.97791E+04-3.56102E+04 9.07717E+04 4.73848E+03 2.29011E-09-1.77897E-09
 -1       537-4.37871E+04 3.99417E+04 6.38594E+04-6.43011E+04-1.32386E-08 1.00799E-08
 -1       538-7.40706E+04-5.28881E+03 2.32828E+04 5.01830E+03-1.68257E-10 2.17915E-09
 -1       539-6.36637E+04 5.18365E+03 1.47995E+04-6.48917E+04 5.54064E-09 1.18234E-10
 -1       540-7.12936E+04-8.98989E+02 5.76963E+03 5.31663E+03-1.26420E-09-8.41419E-09
 -1       541-6.82048E+04 6.91638E+02 3.55968E+03-6.53995E+04 3.13412E-09-6.67819E-09
 -1       542-7.05672E+04-1.89547E+02 1.33233E+03 5.51850E+03 1.63118E-09-4.27235E-10
 -1       543-6.99009E+04 2.83555E+02 7.02333E+02-6.57187E+04-1.23123E-09 2.19973E-09
 -1       544-7.02790E+04-2.16031E+01 1.25520E+01 5.63518E+03-3.02339E-09-2.68710E-09
 -1       545-7.06538E+04 1.70657E+02-5.81682E+02-6.58659E+04-1.08776E-09 2.01112E-10
 -1       546-7.01304E+04 1.43501E+02-1.31087E+03 5.66656E+03-2.50338E-10-4.43333E-09
 -1       547-7.11677E+04-1.00573E+03-3.29081E+03-6.58377E+04-3.33353E-09-1.57467E-08
 -1       548-6.97114E+04 1.08709E+03-5.58129E+03 5.60667E+03-4.03452E-09-7.26050E-09
 -1       549-7.43771E+04-9.34328E+03-1.46321E+04-6.55989E+04-2.25077E-09 1.00886E-09
 -1       550-6.64982E+04 7.94627E+03-2.16197E+04 5.42704E+03 3.10138E-10-1.96087E-09
 -1       551 3.50243E+04-7.86840E+05 4.22466E+04-1.25887E+06-7.15954E-09 7.84348E-09
 -1       552 5.36607E+04-7.97359E+05 5.11772E+04-1.66348E+06 4.22006E-10 2.63535E-08
 -1       553 4.00126E+04-8.02531E+05 7.63854E+04-1.25533E+06-6.40284E-09 1.89757E-08
 -1       554 8.84105E+04-7.75828E+05 1.58695E+05-1.66401E+06-2.32831E-10 9.75160E-09
 -1       555 1.08361E+05-8.24180E+05 2.90510E+05-1.25683E+06-4.96220E-09-1.31186E-08
 -1       556 2.56709E+04-2.54687E+05 7.53729E+04-3.35627E+05-7.10133E-09 1.12486E-08
 -1       557 1.24992E+05-3.33398E+05 4.03115E+04-4.16703E+05 7.30506E-09 1.26329E-08
 -1       558 2.19846E+04-2.61801E+05 1.55122E+04-3.29313E+05-3.52156E-09-1.32422E-09
 -1       559 1.07751E+05-3.42452E+05 8.14808E+03-4.25514E+05-1.72440E-09-6.96309E-09
 -1       560 1.63567E+04-2.58117E+05 2.96703E+03-3.33113E+05-5.52973E-09 7.64521E-09
 -1       561 1.00003E+05-3.39910E+05 1.75809E+03-4.30563E+05-1.04847E-08 1.29221E-08
 -1       562 1.20536E+04-2.55307E+05 4.90076E+02-3.36168E+05-3.81988E-09 1.17279E-08
 -1       563 9.50803E+04-3.37801E+05 4.09473E+02-4.33766E+05 1.60071E-09 1.80808E-09
 -1       564 9.42446E+03-2.53614E+05 3.56895E+01-3.38008E+05 2.61934E-10-1.09849E-08
 -1       565 9.25729E+04-3.36731E+05-8.02946E+01-4.35371E+05-4.52201E-09 7.97263E-09
 -1       566 8.54276E+03-2.53023E+05-4.92000E+02-3.38634E+05 1.01954E-08 7.59974E-09
 -1       567 9.23585E+04-3.36709E+05-1.23285E+03-4.35354E+05 2.11367E-09 2.51021E-09
 -1       568 9.51784E+03-2.53645E+05-2.82289E+03-3.38074E+05 6.43922E-09-3.18323E-09
 -1       569 9.21932E+04-3.38265E+05-6.60474E+03-4.32625E+05 1.36642E-08-2.30648E-09
 -1       570 1.38864E+04-2.58344E+05-1.32794E+04-3.36119E+05 5.32600E-09 9.11496E-09
 -1       571 3.80518E+05 1.53134E+04 2.27439E+04-9.29804E+04-6.32099E-10 6.66660E-10
 -1       572 3.83890E+05 5.31320E+03 1.11449E+04-1.01909E+05-2.81943E-10-1.17993E-08
 -1       573 3.81835E+05 1.25684E+03 4.95096E+03-9.27289E+04-6.88760E-09 9.37325E-09
 -1       574 3.82225E+05 4.09165E+02 2.48142E+03-1.02183E+05-1.85664E-08-3.79532E-09
 -1       575 3.81959E+05 5.73935E+01 1.16885E+03-9.26968E+04-2.88805E-08 4.28008E-09
 -1       576 3.81985E+05 2.15423E+01 5.94092E+02-1.02219E+05-4.10137E-08 9.34597E-09
 -1       577 3.81976E+05-3.94394E+00 2.89665E+02-9.26925E+04-1.23919E-08 3.31056E-09
 -1       578 3.81968E+05-1.01573E+00 1.52187E+02-1.02224E+05 1.72695E-08-5.39603E-09
 -1       579 3.82016E+05-1.67896E+01 8.10743E+01-9.26921E+04 1.57670E-08-1.08485E-08
 -1       580 3.82027E+05-3.02387E+01 5.68618E+01-1.02219E+05 1.65710E-08 6.85213E-09
 -1       581 3.82097E+05-5.78670E+01 5.33716E+01-9.26969E+04 9.38417E-09 5.71708E-09
 -1       582 3.82146E+05-7.68624E+01 8.77546E+01-1.02167E+05-2.18279E-10-6.47196E-09
 -1       583 3.82216E+05-9.06384E+01 1.51938E+02-9.27448E+04 3.21052E-09-6.72435E-09
 -1       584 3.82354E+05-2.09622E+00 3.41289E+02-1.01759E+05 6.50289E-10-6.75345E-09
 -1       585 3.82323E+05 2.72029E+02 6.78941E+02-9.31048E+04 1.82081E-09-2.29193E-09
 -1       586-1.13095E+03 1.47809E+05-1.30292E+03-2.97203E+05 1.58730E-09-5.91990E-09
 -1       587 3.84210E+02 1.47600E+05 1.72718E+03-3.29505E+05 2.63753E-10-1.34786E-08
 -1       588 1.63864E+03 1.47346E+05 5.49668E+03-2.96953E+05 1.53159E-09 7.45058E-09
 -1       589 6.47142E+03 1.49947E+05 1.34035E+04-3.29332E+05 4.96584E-10-4.11274E-09
 -1       590 1.81700E+04 1.45902E+05 2.76834E+04-2.97377E+05 1.00636E-09 6.78665E-09
 -1       591-1.46515E+05-4.08289E+04-3.33929E+04-7.07014E+04 8.49582E-09-1.84464E-08
 -1       592-1.49245E+05-4.37363E+04-1.73814E+04-7.94615E+04 1.01411E-08-2.33240E-09
 -1       593-1.49049E+05-3.48825E+04-7.33671E+03-7.42646E+04 1.48930E-09-9.39963E-10
 -1       594-1.45073E+05-3.94951E+04-3.62412E+03-7.96448E+04-2.52453E-09-5.30332E-09
 -1       595-1.49266E+05-3.47672E+04-1.67249E+03-7.44000E+04-1.22145E-09-1.77548E-09
 -1       596-1.44804E+05-3.93363E+04-8.46778E+02-7.96071E+04 2.09604E-09-7.64589E-09
 -1       597-1.49298E+05-3.47919E+04-4.58287E+02-7.44022E+04-9.84156E-09 6.87010E-10
 -1       598-1.44776E+05-3.93342E+04-3.61737E+02-7.95959E+04-2.86832E-08-8.01094E-09
 -1       599-1.49295E+05-3.47945E+04-4.54204E+02-7.44002E+04-1.21845E-08 3.42470E-09
 -1       600-1.44797E+05-3.93395E+04-8.35734E+02-7.95993E+04 1.22054E-09-2.59888E-09
 -1       601-1.49254E+05-3.47747E+04-1.64823E+03-7.43939E+04 9.54515E-10-2.50247E-09
 -1       602-1.45057E+05-3.94961E+04-3.56977E+03-7.96260E+04 8.17658E-09 8.16908E-09
 -1       603-1.49032E+05-3.48964E+04-7.22608E+03-7.42595E+04 7.83984E-10-6.80848E-09
 -1       604-1.49187E+05-4.36425E+04-1.71151E+04-7.94018E+04-1.69939E-09 3.59569E-09
 -1       605-1.46500E+05-4.07803E+04-3.28813E+04-7.07783E+04 2.11912E-10-1.10385E-08
 -1       606 9.72159E+04-1.61513E+04-2.95412E+04 4.60321E+04 3.50701E-09-4.05271E-09
 -1       607 9.21024E+04-5.18783E+03-1.47294E+04 5.18168E+04 1.58707E-08 9.74524E-09
 -1       608 9.49610E+04-8.46119E+02-6.60405E+03 4.56617E+04 9.94260E-09-5.58111E-09
 -1       609 9.43704E+04-1.88960E+02-3.33579E+03 5.22196E+04-7.31234E-09-9.54242E-09
 -1       610 9.46550E+04 7.55259E+01-1.59790E+03 4.56213E+04-1.62818E-08 1.64164E-10
 -1       611 9.45223E+04 1.19733E+02-8.04801E+02 5.22616E+04-3.02161E-08 1.29967E-09
 -1       612 9.45489E+04 1.20425E+02-3.86935E+02 4.56179E+04-1.22491E-08 2.97041E-09
 -1       613 9.44816E+04 1.53759E+02-1.74749E+02 5.22653E+04-6.34827E-09 2.65709E-09
 -1       614 9.44819E+04 1.39284E+02-4.80517E+01 4.56170E+04 1.11686E-09 2.87127E-09
 -1       615 9.44334E+04 1.78821E+02 5.95424E+01 5.22650E+04 8.29414E-09-2.57614E-09
 -1       616 9.44313E+04 1.61843E+02 1.90497E+02 4.56178E+04-1.02846E-08 5.12955E-09
 -1       617 9.44260E+04 2.35270E+02 4.40883E+02 5.22630E+04-5.85760E-09 7.23958E-09
 -1       618 9.43717E+04 2.96767E+02 8.89465E+02 4.56182E+04-2.10912E-09-5.74346E-10
 -1       619 9.47247E+04 9.20589E+02 1.99803E+03 5.22588E+04-7.83302E-10-1.47306E-08
 -1       620 9.40629E+04 2.38003E+03 4.00992E+03 4.56157E+04 5.60158E-09 1.92313E-09
 -1       621 7.19919E+02 4.02709E+05 3.83526E+03-1.78453E+04-3.51940E-09 1.91989E-09
 -1       622 4.63201E+02 4.03543E+05 4.21466E+03-2.35343E+04-5.15706E-09 1.11486E-08
 -1       623 1.50543E+02 4.02823E+05 6.26377E+03-1.78421E+04-3.48427E-09 2.54363E-09
 -1       624 3.01395E+03 4.05848E+05 1.29632E+04-2.34692E+04-4.93969E-09-5.42241E-09
 -1       625 6.16906E+03 4.00421E+05 2.39507E+04-1.79065E+04-2.97860E-09 1.13555E-08
 -1       626 3.26268E+05 9.48813E+04 4.31062E+03 1.84203E+05-1.69348E-09 7.36691E-09
 -1       627 3.20689E+05 9.97034E+04 2.08539E+03 1.91866E+05 2.96495E-09 4.53338E-09
 -1       628 3.26461E+05 9.27896E+04 8.76945E+02 1.84682E+05 5.62977E-09 6.85486E-09
 -1       629 3.19866E+05 9.93661E+04 4.35950E+02 1.92219E+05 7.13044E-10 4.95356E-09
 -1       630 3.26416E+05 9.27229E+04 2.04060E+02 1.84646E+05-3.41242E-09 5.05065E-09
 -1       631 3.19718E+05 9.93907E+04 1.22047E+02 1.92188E+05-8.76753E-09 4.25669E-09
 -1       632 3.26359E+05 9.27544E+04 9.97664E+01 1.84607E+05-1.20763E-08-3.49996E-09
 -1       633 3.19665E+05 9.94130E+04 1.42907E+02 1.92153E+05-1.19690E-09 4.19709E-09
 -1       634 3.26316E+05 9.27642E+04 2.57415E+02 1.84586E+05-5.77529E-10-1.28603E-09
 -1       635 3.19664E+05 9.94207E+04 5.38538E+02 1.92144E+05 4.66662E-09-3.82579E-09
 -1       636 3.26283E+05 9.27615E+04 1.09478E+03 1.84576E+05 7.07882E-09-1.13937E-08
 -1       637 3.19886E+05 9.95885E+04 2.40806E+03 1.92140E+05 1.02827E-08-2.08829E-08
 -1       638 3.26197E+05 9.32653E+04 4.94639E+03 1.84341E+05 1.41772E-08-5.09499E-09
 -1       639 3.22475E+05 1.03159E+05 1.16968E+04 1.91434E+05-2.28715E-09-1.36079E-08
 -1       640 3.25853E+05 1.03809E+05 2.42309E+04 1.79815E+05 4.25462E-09 1.17402E-08
 -1       656 3.79065E+04-1.02286E+06-1.03361E+05-2.70625E+03 1.04046E-09 2.11776E-09
 -1       657-5.04485E+04-1.06691E+06-8.33643E+04 5.51728E+04-3.21052E-09-8.08831E-09
 -1       658 1.09955E+04-1.03606E+06-5.27703E+04-3.57836E+03 3.55499E-09 2.86065E-09
 -1       659-5.44952E+04-1.06903E+06-8.90762E+04 5.57591E+04-2.67755E-09-6.36734E-09
 -1       660 4.18850E+04-1.02080E+06-1.13370E+05-3.29189E+03-4.14730E-10-1.67963E-08
 -1       661 3.56837E+05 4.33230E+04 3.08788E+04 1.39050E+05-8.05494E-09-9.16043E-09
 -1       662 3.67060E+05 6.68583E+04 1.98729E+04 1.39984E+05 2.94290E-09 9.13224E-09
 -1       663 3.62386E+05 5.12875E+04 7.29840E+03 1.37985E+05 5.88363E-09 7.50697E-09
 -1       664 3.60683E+05 5.69906E+04 4.10839E+03 1.41535E+05-1.47297E-08 5.58731E-09
 -1       665 3.63079E+05 5.22063E+04 1.71728E+03 1.37872E+05 4.51905E-09 4.28821E-09
 -1       666 3.59877E+05 5.58819E+04 9.51819E+02 1.41713E+05 7.88384E-09 1.15767E-09
 -1       667 3.63181E+05 5.22965E+04 5.30283E+02 1.37847E+05 1.38471E-09 2.77581E-09
 -1       668 3.59764E+05 5.58148E+04 5.17101E+02 1.41771E+05-7.80858E-09 3.51045E-09
 -1       669 3.63195E+05 5.22631E+04 7.27634E+02 1.37820E+05 6.13875E-09 1.32445E-10
 -1       670 3.59874E+05 5.60702E+04 1.50959E+03 1.41818E+05 5.74096E-09 3.27969E-09
 -1       671 3.63079E+05 5.20500E+04 2.82377E+03 1.37799E+05-7.91920E-09-1.15911E-08
 -1       672 3.61124E+05 5.80265E+04 6.82849E+03 1.41653E+05-4.40701E-09-9.41623E-09
 -1       673 3.61976E+05 5.04646E+04 1.21472E+04 1.37929E+05-3.24593E-09 8.87212E-09
 -1       674 3.71673E+05 7.45556E+04 3.31057E+04 1.39180E+05-3.26196E-09-2.62708E-09
 -1       675 3.52770E+05 3.71552E+04 5.14382E+04 1.39661E+05 3.95630E-09-6.06087E-09
 -1       676 3.71457E+01-4.30976E+05-1.86465E+03 1.53636E+02 4.13138E-09 9.77905E-09
 -1       677-4.58500E+02-4.31415E+05-3.40079E+03-3.06900E+02-9.53094E-10 6.17736E-09
 -1       678 2.95834E+02-4.30666E+05-6.03875E+03 1.53137E+02 6.48970E-09 1.24449E-09
 -1       679-5.82798E+03-4.35022E+05-1.42744E+04-3.05277E+02-5.73277E-09 7.06144E-09
 -1       680 3.26146E+03-4.27372E+05-2.31585E+04 1.49780E+02-2.88765E-09 5.46478E-09
 -1       771-3.91001E+06-7.51271E+05-9.76447E+04-1.68333E+06-7.40692E-09-1.74623E-10
 -1       772-3.88309E+06-7.87348E+05-5.00973E+04-1.74115E+06 5.82077E-09-7.31234E-10
 -1       773-3.92303E+06-7.29869E+05-2.25488E+04-1.69307E+06-5.63159E-09-2.84490E-09
 -1       774-3.87275E+06-7.77407E+05-1.07774E+04-1.74963E+06-1.24419E-09 1.12414E-09
 -1       775-3.92834E+06-7.26113E+05-5.91545E+03-1.69478E+06 4.36557E-11-8.11269E-10
 -1       776-3.87479E+06-7.76927E+05-2.69742E+03-1.75500E+06 9.31323E-10-3.79623E-09
 -1       777-3.93253E+06-7.23302E+05-1.99426E+03-1.69611E+06 1.12050E-09-8.80391E-09
 -1       778-3.87727E+06-7.76647E+05-1.04149E+03-1.75942E+06 5.09317E-10-8.75843E-10
 -1       779-3.93587E+06-7.20965E+05-1.38950E+03-1.69722E+06-2.32831E-09-4.91491E-09
 -1       780-3.87942E+06-7.76397E+05-1.74211E+03-1.76287E+06-9.74251E-09-3.42743E-09
 -1       781-3.93825E+06-7.19175E+05-3.43292E+03-1.69804E+06 5.15138E-09 8.37304E-09
 -1       782-3.88143E+06-7.76503E+05-7.05935E+03-1.76526E+06 5.52245E-09 4.82669E-09
 -1       783-3.93932E+06-7.18361E+05-1.43383E+04-1.69829E+06 5.09317E-10 1.88629E-09
 -1       784-3.89038E+06-7.84677E+05-3.39573E+04-1.76601E+06 1.80908E-08 8.17636E-09
 -1       785-3.93481E+06-7.29695E+05-6.53414E+04-1.69162E+06 8.67658E-09-1.63709E-10
 -1       786 3.17531E+05-1.48251E+04 3.90707E+04 2.48546E+02 1.08994E-09-8.30551E-09
 -1       787 3.33664E+05 1.73974E+04 2.69016E+04-2.64763E+03 1.06537E-09 5.28189E-09
 -1       788 3.23911E+05-2.07934E+03 1.01444E+04 2.23280E+02-6.90719E-10-1.56842E-09
 -1       789 3.26330E+05 2.43131E+03 6.13557E+03-2.61275E+03 1.84144E-09 1.38425E-09
 -1       790 3.24867E+05-2.90975E+02 2.59461E+03 2.13722E+02-1.46813E-09-5.12591E-09
 -1       791 3.25228E+05 3.39903E+02 1.47491E+03-2.60939E+03 9.60771E-10-1.54627E-08
 -1       792 3.25014E+05-4.24657E+01 7.08701E+02 2.19918E+02 3.69830E-10-3.06758E-09
 -1       793 3.25066E+05 6.30995E+01 4.75036E+02-2.63787E+03 2.35666E-10-7.98526E-09
 -1       794 3.25030E+05-2.04870E+01 4.00179E+02 2.42198E+02-4.63473E-10-7.09779E-09
 -1       795 3.25103E+05 1.29201E+02 6.14295E+02-2.69888E+03 5.69571E-11-3.72772E-09
 -1       796 3.24979E+05-1.07607E+02 9.85567E+02 2.80932E+02 5.78666E-11-9.04402E-09
 -1       797 3.25506E+05 8.90263E+02 2.26755E+03-2.79261E+03-2.32153E-09 1.39455E-08
 -1       798 3.24628E+05-7.62829E+02 3.72587E+03 3.35926E+02 5.06532E-10 7.82211E-09
 -1       799 3.28198E+05 6.37445E+03 9.86553E+03-2.91972E+03-1.49245E-09-6.46662E-09
 -1       800 3.22288E+05-5.43523E+03 1.43191E+04 4.07953E+02-3.34978E-10 7.01129E-09
 -1       801-5.49035E+04 2.82649E+05 2.72959E+04 1.60078E+05 2.61480E-09-1.47920E-08
 -1       802 1.37932E+05 3.86830E+05 1.03296E+05-2.00546E+06 7.05040E-09-2.10421E-08
 -1       803-2.04094E+04 3.54548E+05 1.13610E+05 1.53698E+05 5.00586E-09 3.21695E-08
 -1       804 2.65994E+05 4.79588E+05 2.92266E+05-2.00717E+06 1.02991E-08 3.32366E-08
 -1       805-1.89278E+05 2.04508E+05 3.48872E+05 1.61459E+05-1.45519E-11 2.39597E-08
 -1       806-3.46880E+05-8.43747E+04-3.03268E+04-1.53227E+05 9.02946E-09 2.04454E-09
 -1       807-3.47593E+05-7.86315E+04-1.46356E+04-1.62207E+05 1.09233E-08-8.76219E-09
 -1       808-3.47245E+05-7.12715E+04-6.18842E+03-1.59043E+05 9.26997E-09 2.89501E-09
 -1       809-3.44530E+05-7.40102E+04-3.01091E+03-1.62958E+05-4.13831E-09 7.65090E-09
 -1       810-3.47354E+05-7.06434E+04-1.37048E+03-1.59358E+05-1.11634E-08-1.72024E-08
 -1       811-3.44264E+05-7.37876E+04-6.77958E+02-1.62944E+05 2.84308E-09 8.21592E-09
 -1       812-3.47372E+05-7.06611E+04-3.35543E+02-1.59360E+05 2.19734E-09 1.10090E-08
 -1       813-3.44224E+05-7.37933E+04-2.07117E+02-1.62921E+05 2.88310E-09-1.28966E-09
 -1       814-3.47360E+05-7.06779E+04-1.87558E+02-1.59349E+05 3.25144E-09-9.77707E-11
 -1       815-3.44216E+05-7.38028E+04-2.85886E+02-1.62905E+05-1.11049E-09-1.23464E-08
 -1       816-3.47327E+05-7.06894E+04-5.31855E+02-1.59336E+05-3.98359E-10-2.76395E-09
 -1       817-3.44305E+05-7.38808E+04-1.14240E+03-1.62869E+05-2.55568E-09-7.95808E-10
 -1       818-3.47246E+05-7.09583E+04-2.33948E+03-1.59218E+05 1.61890E-10-1.18835E-08
 -1       819-3.45581E+05-7.54801E+04-5.51965E+03-1.62388E+05-8.09450E-10 3.89264E-10
 -1       820-3.46942E+05-7.60385E+04-1.14376E+04-1.57163E+05 4.12911E-10 6.75163E-09
 -1       821-4.73017E+05 2.19736E+04-5.78930E+04-7.67184E+02-3.93197E-09-3.73620E-09
 -1       822-4.96880E+05-2.57848E+04-3.98647E+04 4.64528E+03-4.49381E-09-6.37328E-09
 -1       823-4.82464E+05 3.07765E+03-1.50406E+04-1.00466E+03 4.94219E-09-7.70524E-09
 -1       824-4.86029E+05-3.59332E+03-9.10508E+03 5.06696E+03-2.12026E-09 1.54444E-09
 -1       825-4.83874E+05 4.27782E+02-3.88302E+03-1.18921E+03-7.25015E-09 2.60411E-09
 -1       826-4.84416E+05-4.93308E+02-2.26330E+03 5.38239E+03-1.34291E-08 6.13954E-09
 -1       827-4.84084E+05 6.45672E+01-1.20589E+03-1.32023E+03-8.75571E-09 5.26120E-09
 -1       828-4.84214E+05-1.18659E+02-1.03628E+03 5.58780E+03-1.00811E-08 7.17916E-09
 -1       829-4.84081E+05 6.57613E+01-1.21666E+03-1.39466E+03 1.29009E-09-6.30050E-09
 -1       830-4.84438E+05-4.96458E+02-2.29740E+03 5.67732E+03 6.74226E-09-4.52391E-09
 -1       831-4.83863E+05 4.35778E+02-3.94100E+03-1.40974E+03-4.43691E-09 2.92835E-09
 -1       832-4.86093E+05-3.64236E+03-9.25367E+03 5.64975E+03-1.19272E-09 2.63981E-10
 -1       833-4.82428E+05 3.12901E+03-1.52776E+04-1.36695E+03-1.32164E-09-1.20845E-08
 -1       834-4.97131E+05-2.61878E+04-4.05089E+04 5.51440E+03-5.21766E-10-8.54925E-10
 -1       835-4.72826E+05 2.23297E+04-5.88159E+04-1.27345E+03 2.53408E-09 1.02955E-09
 -1       836-2.93972E+03 5.44916E+05 4.01484E+04-3.65185E+04-3.90901E-09 4.91218E-09
 -1       837 9.16867E+03 5.57504E+05 3.19584E+04-7.57960E+04-7.50242E-09 1.32068E-08
 -1       838-8.04461E+02 5.48855E+05 2.93310E+04-3.64199E+04-5.32964E-09-1.17594E-08
 -1       839 1.80944E+04 5.64011E+05 5.26464E+04-7.58108E+04-8.01447E-09-1.89802E-08
 -1       840-6.37982E+03 5.38337E+05 8.20764E+04-3.64988E+04-5.22050E-09 8.70250E-09
 -1       856-2.76991E+05 1.13914E+04-4.17943E+04 2.89635E+03-8.82437E-09 3.42152E-09
 -1       857-2.92648E+05-1.44636E+04-2.72936E+04 1.89086E+04-4.92628E-09-8.38872E-09
 -1       858-2.83452E+05 1.27812E+03-1.08514E+04 2.79816E+03-9.07471E-09 4.68845E-09
 -1       859-2.85446E+05-1.50668E+03-6.16455E+03 1.90480E+04 4.65639E-09 4.87410E-09
 -1       860-2.84247E+05 1.57003E+02-2.75422E+03 2.75454E+03 6.53870E-09-1.11731E-09
 -1       861-2.84573E+05-8.23375E+01-1.48051E+03 1.91066E+04-5.44088E-09-5.11466E-09
 -1       862-2.84355E+05 3.25663E+01-7.24183E+02 2.73908E+03 5.32418E-09-8.15135E-09
 -1       863-2.84456E+05 6.87288E+01-4.33520E+02 1.91133E+04 1.87126E-08-9.01724E-09
 -1       864-2.84367E+05 1.90827E+01-3.23527E+02 2.74779E+03 8.00344E-09 6.05888E-09
 -1       865-2.84444E+05 4.36840E+01-4.09744E+02 1.90701E+04 9.69681E-09-3.44042E-09
 -1       866-2.84344E+05 3.88299E+01-6.53768E+02 2.78234E+03-4.49950E-09-1.60392E-08
 -1       867-2.84598E+05-2.83565E+02-1.38324E+03 1.89749E+04-4.24222E-09-6.69104E-09
 -1       868-2.84165E+05 2.76901E+02-2.42195E+03 2.84322E+03 4.95857E-09 2.49588E-09
 -1       869-2.86139E+05-3.17004E+03-6.04567E+03 1.87855E+04-6.54109E-09-5.57066E-12
 -1       870-2.82730E+05 2.50097E+03-9.27826E+03 2.97232E+03-1.49430E-09-2.69665E-10
 -1       871-6.36072E+03-3.74274E+04-2.02566E+04 1.73192E+05-5.55156E-09 8.36553E-09
 -1       872-3.00266E+03-4.20474E+04-7.83978E+03 2.26417E+05-7.03130E-09 1.47802E-08
 -1       873-2.40111E+02-4.01212E+04 2.23384E+03 1.72805E+05-3.88900E-09 1.92276E-08
 -1       874 3.43703E+03-3.64777E+04 1.39683E+04 2.26508E+05-3.78532E-09 1.52122E-08
 -1       875 8.04148E+03-4.32575E+04 3.00836E+04 1.73131E+05-4.42742E-09 3.54521E-09
 -1       876 4.57941E+05 7.33805E+04 3.28035E+04 1.82946E+05 7.16403E-09 5.31327E-09
 -1       877 4.62518E+05 8.43491E+04 1.83407E+04 1.89984E+05 1.99277E-08 1.49491E-08
 -1       878 4.61820E+05 7.33955E+04 7.51768E+03 1.84528E+05 6.89670E-09 4.67116E-09
 -1       879 4.57550E+05 7.88268E+04 3.79754E+03 1.90329E+05-1.76533E-09-8.26094E-09
 -1       880 4.62105E+05 7.34925E+04 1.73909E+03 1.84623E+05 1.93722E-10 5.34783E-09
 -1       881 4.57189E+05 7.85133E+04 9.08927E+02 1.90283E+05 6.00039E-09-2.26939E-09
 -1       882 4.62128E+05 7.35240E+04 5.35922E+02 1.84632E+05-2.41107E-09 5.39035E-09
 -1       883 4.57161E+05 7.84915E+04 5.08967E+02 1.90262E+05-9.85744E-09 2.45086E-08
 -1       884 4.62118E+05 7.35246E+04 7.46075E+02 1.84633E+05-3.89628E-09 4.74711E-09
 -1       885 4.57226E+05 7.85178E+04 1.46549E+03 1.90275E+05-3.53866E-09 5.52905E-09
 -1       886 4.62058E+05 7.34849E+04 2.92269E+03 1.84623E+05-6.40307E-09-1.10149E-08
 -1       887 4.57847E+05 7.90406E+04 6.44186E+03 1.90325E+05-1.93265E-08-2.31084E-08
 -1       888 4.61553E+05 7.33339E+04 1.27819E+04 1.84462E+05-1.92921E-08-7.45422E-09
 -1       889 4.66230E+05 8.84895E+04 3.11930E+04 1.89780E+05-1.31767E-08 8.47103E-09
 -1       890 4.55001E+05 7.32599E+04 5.58028E+04 1.81697E+05-1.06447E-08-6.05723E-09
 -1       891 5.62086E+01-2.51837E+05-7.47409E+03 4.37865E+04 1.95462E-09 9.16806E-09
 -1       892-1.59202E+03-2.53949E+05-5.97682E+03 8.02087E+04 5.62886E-09 2.00271E-09
 -1       893-2.37113E+01-2.52500E+05-5.82431E+03 4.37525E+04 2.66164E-09 2.60479E-09
 -1       894-3.42842E+03-2.55217E+05-1.05603E+04 8.00171E+04-3.46881E-09 2.55386E-09
 -1       895 1.19560E+02-2.50285E+05-1.70301E+04 4.39736E+04 3.75667E-09-7.00311E-11
 -1       956-4.97803E+05-7.78172E+03-2.01638E+04 4.46509E+04-6.19002E-09 2.98360E-09
 -1       957-5.01848E+05-2.62627E+03-1.03729E+04 5.41120E+04-1.34969E-09 6.18184E-09
 -1       958-4.99666E+05-1.64042E+02-4.67737E+03 4.43542E+04 4.32919E-09-2.58296E-09
 -1       959-5.00019E+05 3.82982E+01-2.38668E+03 5.44335E+04-6.53927E-10-4.54747E-11
 -1       960-4.99871E+05 1.32473E+02-1.16317E+03 4.43231E+04-7.42421E-09 6.11180E-09
 -1       961-4.99930E+05 1.61703E+02-6.10318E+02 5.44699E+04-1.53395E-08 1.04997E-08
 -1       962-4.99933E+05 1.43542E+02-3.39634E+02 4.43167E+04-8.15817E-09 5.62477E-09
 -1       963-4.99950E+05 1.79078E+02-2.53786E+02 5.44787E+04-1.10597E-08 1.85082E-09
 -1       964-4.99956E+05 1.55319E+02-2.86446E+02 4.43141E+04-2.55000E-09 5.03633E-09
 -1       965-4.99975E+05 1.88168E+02-4.76841E+02 5.44798E+04 6.11789E-09-1.76715E-09
 -1       966-4.99940E+05 1.66770E+02-8.86118E+02 4.43156E+04-5.09749E-09 7.13408E-09
 -1       967-5.00077E+05 1.13919E+02-1.81160E+03 5.44609E+04 2.72007E-09 4.95675E-09
 -1       968-4.99811E+05-4.13773E+01-3.54360E+03 4.43335E+04 1.72804E-10-1.03346E-08
 -1       969-5.01493E+05-1.89272E+03-7.86431E+03 5.42622E+04-1.12050E-09 1.02818E-09
 -1       970-4.98415E+05-5.80939E+03-1.52841E+04 4.45237E+04 2.15550E-09 6.19184E-09
 -1       971-5.43291E+05-1.02321E+03-1.88686E+04 1.79862E+04-7.51879E-09 6.92626E-09
 -1       972-5.48473E+05-2.94549E+03-1.07215E+04 2.93782E+04-6.01904E-09 9.81913E-09
 -1       973-5.45642E+05 4.99714E+01-4.72175E+03 1.77898E+04-7.73434E-09-6.46651E-10
 -1       974-5.46051E+05-4.16594E+01-2.46661E+03 2.96007E+04 3.62343E-09 4.57339E-09
 -1       975-5.45840E+05 7.67653E+01-1.21668E+03 1.77589E+04 2.21007E-10 3.02953E-09
 -1       976-5.45906E+05 1.15787E+02-6.84116E+02 2.96447E+04-1.11120E-08-3.15890E-09
 -1       977-5.45878E+05 8.20027E+01-4.64820E+02 1.77452E+04 4.13092E-09-3.00622E-09
 -1       978-5.45917E+05 1.33489E+02-5.00787E+02 2.96641E+04 2.18257E-08 1.19119E-08
 -1       979-5.45881E+05 9.39097E+01-7.68665E+02 1.77393E+04 9.90900E-09-4.46346E-09
 -1       980-5.45978E+05 1.25780E+02-1.46486E+03 2.96676E+04 7.69703E-09-1.96678E-09
 -1       981-5.45829E+05 1.20700E+02-2.82111E+03 1.77417E+04-7.72388E-10 6.55604E-10
 -1       982-5.46418E+05-2.04814E+02-5.86477E+03 2.96504E+04-6.77960E-09-2.29335E-10
 -1       983-5.45412E+05 1.04193E+02-1.12747E+04 1.77574E+04 1.71985E-09-3.58477E-09
 -1       984-5.52340E+05-7.10895E+03-2.56774E+04 2.95092E+04 1.49385E-09-1.09251E-08
 -1       985-5.39842E+05-2.41019E+03-4.51727E+04 1.78989E+04 3.84807E-09-2.20280E-09
 -3
 9999
