    1C
    1UUSER                                                              
    1UDATE              11.october.2022                                 
    1UTIME              17:30:50                                        
    1UHOST                                                              
    1UPGM               CalculiX                                        
    1UVERSION           Version 2.20                             
    1UCOMPILETIME       Sun Jul 31 18:08:37 CEST 2022                    
    1UDIR                                                               
    1UDBN                                                               
    1UMAT    1MESH_MATERIAL                                             
    2C                           841                                     1
 -1         1 0.00000E+00 0.00000E+00 0.00000E+00
 -1         2 1.66667E-02 0.00000E+00 0.00000E+00
 -1         3 3.33333E-02 0.00000E+00 0.00000E+00
 -1         4 5.00000E-02 0.00000E+00 0.00000E+00
 -1         5 6.66667E-02 0.00000E+00 0.00000E+00
 -1         8 0.00000E+00 6.25000E-03 0.00000E+00
 -1         9 1.66667E-02 6.25000E-03 0.00000E+00
 -1        10 3.33333E-02 6.25000E-03 0.00000E+00
 -1        11 5.00000E-02 6.25000E-03 0.00000E+00
 -1        12 6.66667E-02 6.25000E-03 0.00000E+00
 -1        15 0.00000E+00 1.25000E-02 0.00000E+00
 -1        16 1.66667E-02 1.25000E-02 0.00000E+00
 -1        17 3.33333E-02 1.25000E-02 0.00000E+00
 -1        18 5.00000E-02 1.25000E-02 0.00000E+00
 -1        19 6.66667E-02 1.25000E-02 0.00000E+00
 -1        20 8.33333E-02 1.25000E-02 0.00000E+00
 -1        21 1.00000E-01 1.25000E-02 0.00000E+00
 -1        22 0.00000E+00 1.87500E-02 0.00000E+00
 -1        23 1.66667E-02 1.87500E-02 0.00000E+00
 -1        24 3.33333E-02 1.87500E-02 0.00000E+00
 -1        25 5.00000E-02 1.87500E-02 0.00000E+00
 -1        26 6.66667E-02 1.87500E-02 0.00000E+00
 -1        27 8.33333E-02 1.87500E-02 0.00000E+00
 -1        28 1.00000E-01 1.87500E-02 0.00000E+00
 -1        29 0.00000E+00 2.50000E-02 0.00000E+00
 -1        30 1.66667E-02 2.50000E-02 0.00000E+00
 -1        31 3.33333E-02 2.50000E-02 0.00000E+00
 -1        32 5.00000E-02 2.50000E-02 0.00000E+00
 -1        33 6.66667E-02 2.50000E-02 0.00000E+00
 -1        34 8.33333E-02 2.50000E-02 0.00000E+00
 -1        35 1.00000E-01 2.50000E-02 0.00000E+00
 -1        36 1.04167E-03 0.00000E+00 0.00000E+00
 -1        37 2.08333E-03 0.00000E+00 0.00000E+00
 -1        38 3.12500E-03 0.00000E+00 0.00000E+00
 -1        39 4.16667E-03 0.00000E+00 0.00000E+00
 -1        40 5.20833E-03 0.00000E+00 0.00000E+00
 -1        41 6.25000E-03 0.00000E+00 0.00000E+00
 -1        42 7.29167E-03 0.00000E+00 0.00000E+00
 -1        43 8.33333E-03 0.00000E+00 0.00000E+00
 -1        44 9.37500E-03 0.00000E+00 0.00000E+00
 -1        45 1.04167E-02 0.00000E+00 0.00000E+00
 -1        46 1.14583E-02 0.00000E+00 0.00000E+00
 -1        47 1.25000E-02 0.00000E+00 0.00000E+00
 -1        48 1.35417E-02 0.00000E+00 0.00000E+00
 -1        49 1.45833E-02 0.00000E+00 0.00000E+00
 -1        50 1.56250E-02 0.00000E+00 0.00000E+00
 -1        51 0.00000E+00 1.04167E-03 0.00000E+00
 -1        52 0.00000E+00 2.08333E-03 0.00000E+00
 -1        53 0.00000E+00 3.12500E-03 0.00000E+00
 -1        54 0.00000E+00 4.16667E-03 0.00000E+00
 -1        55 0.00000E+00 5.20833E-03 0.00000E+00
 -1        56 1.04167E-03 3.90630E-04 0.00000E+00
 -1        57 2.08333E-03 7.81250E-04 0.00000E+00
 -1        58 3.12500E-03 1.17188E-03 0.00000E+00
 -1        59 4.16667E-03 1.56250E-03 0.00000E+00
 -1        60 5.20833E-03 1.95312E-03 0.00000E+00
 -1        61 6.25000E-03 2.34375E-03 0.00000E+00
 -1        62 7.29167E-03 2.73438E-03 0.00000E+00
 -1        63 8.33333E-03 3.12500E-03 0.00000E+00
 -1        64 9.37500E-03 3.51563E-03 0.00000E+00
 -1        65 1.04167E-02 3.90625E-03 0.00000E+00
 -1        66 1.14583E-02 4.29688E-03 0.00000E+00
 -1        67 1.25000E-02 4.68750E-03 0.00000E+00
 -1        68 1.35417E-02 5.07813E-03 0.00000E+00
 -1        69 1.45833E-02 5.46875E-03 0.00000E+00
 -1        70 1.56250E-02 5.85938E-03 0.00000E+00
 -1        71 1.77083E-02 0.00000E+00 0.00000E+00
 -1        72 1.87500E-02 0.00000E+00 0.00000E+00
 -1        73 1.97917E-02 0.00000E+00 0.00000E+00
 -1        74 2.08333E-02 0.00000E+00 0.00000E+00
 -1        75 2.18750E-02 0.00000E+00 0.00000E+00
 -1        76 2.29167E-02 0.00000E+00 0.00000E+00
 -1        77 2.39583E-02 0.00000E+00 0.00000E+00
 -1        78 2.50000E-02 0.00000E+00 0.00000E+00
 -1        79 2.60417E-02 0.00000E+00 0.00000E+00
 -1        80 2.70833E-02 0.00000E+00 0.00000E+00
 -1        81 2.81250E-02 0.00000E+00 0.00000E+00
 -1        82 2.91667E-02 0.00000E+00 0.00000E+00
 -1        83 3.02083E-02 0.00000E+00 0.00000E+00
 -1        84 3.12500E-02 0.00000E+00 0.00000E+00
 -1        85 3.22917E-02 0.00000E+00 0.00000E+00
 -1        86 1.66667E-02 1.04167E-03 0.00000E+00
 -1        87 1.66667E-02 2.08333E-03 0.00000E+00
 -1        88 1.66667E-02 3.12500E-03 0.00000E+00
 -1        89 1.66667E-02 4.16667E-03 0.00000E+00
 -1        90 1.66667E-02 5.20833E-03 0.00000E+00
 -1        91 1.77083E-02 3.90630E-04 0.00000E+00
 -1        92 1.87500E-02 7.81250E-04 0.00000E+00
 -1        93 1.97917E-02 1.17188E-03 0.00000E+00
 -1        94 2.08333E-02 1.56250E-03 0.00000E+00
 -1        95 2.18750E-02 1.95312E-03 0.00000E+00
 -1        96 2.29167E-02 2.34375E-03 0.00000E+00
 -1        97 2.39583E-02 2.73438E-03 0.00000E+00
 -1        98 2.50000E-02 3.12500E-03 0.00000E+00
 -1        99 2.60417E-02 3.51563E-03 0.00000E+00
 -1       100 2.70833E-02 3.90625E-03 0.00000E+00
 -1       101 2.81250E-02 4.29688E-03 0.00000E+00
 -1       102 2.91667E-02 4.68750E-03 0.00000E+00
 -1       103 3.02083E-02 5.07813E-03 0.00000E+00
 -1       104 3.12500E-02 5.46875E-03 0.00000E+00
 -1       105 3.22917E-02 5.85938E-03 0.00000E+00
 -1       106 3.43750E-02 0.00000E+00 0.00000E+00
 -1       107 3.54167E-02 0.00000E+00 0.00000E+00
 -1       108 3.64583E-02 0.00000E+00 0.00000E+00
 -1       109 3.75000E-02 0.00000E+00 0.00000E+00
 -1       110 3.85417E-02 0.00000E+00 0.00000E+00
 -1       111 3.95833E-02 0.00000E+00 0.00000E+00
 -1       112 4.06250E-02 0.00000E+00 0.00000E+00
 -1       113 4.16667E-02 0.00000E+00 0.00000E+00
 -1       114 4.27083E-02 0.00000E+00 0.00000E+00
 -1       115 4.37500E-02 0.00000E+00 0.00000E+00
 -1       116 4.47917E-02 0.00000E+00 0.00000E+00
 -1       117 4.58333E-02 0.00000E+00 0.00000E+00
 -1       118 4.68750E-02 0.00000E+00 0.00000E+00
 -1       119 4.79167E-02 0.00000E+00 0.00000E+00
 -1       120 4.89583E-02 0.00000E+00 0.00000E+00
 -1       121 3.33333E-02 1.04167E-03 0.00000E+00
 -1       122 3.33333E-02 2.08333E-03 0.00000E+00
 -1       123 3.33333E-02 3.12500E-03 0.00000E+00
 -1       124 3.33333E-02 4.16667E-03 0.00000E+00
 -1       125 3.33333E-02 5.20833E-03 0.00000E+00
 -1       126 3.43750E-02 3.90630E-04 0.00000E+00
 -1       127 3.54167E-02 7.81250E-04 0.00000E+00
 -1       128 3.64583E-02 1.17188E-03 0.00000E+00
 -1       129 3.75000E-02 1.56250E-03 0.00000E+00
 -1       130 3.85417E-02 1.95312E-03 0.00000E+00
 -1       131 3.95833E-02 2.34375E-03 0.00000E+00
 -1       132 4.06250E-02 2.73438E-03 0.00000E+00
 -1       133 4.16667E-02 3.12500E-03 0.00000E+00
 -1       134 4.27083E-02 3.51563E-03 0.00000E+00
 -1       135 4.37500E-02 3.90625E-03 0.00000E+00
 -1       136 4.47917E-02 4.29688E-03 0.00000E+00
 -1       137 4.58333E-02 4.68750E-03 0.00000E+00
 -1       138 4.68750E-02 5.07813E-03 0.00000E+00
 -1       139 4.79167E-02 5.46875E-03 0.00000E+00
 -1       140 4.89583E-02 5.85938E-03 0.00000E+00
 -1       141 5.10417E-02 0.00000E+00 0.00000E+00
 -1       142 5.20833E-02 0.00000E+00 0.00000E+00
 -1       143 5.31250E-02 0.00000E+00 0.00000E+00
 -1       144 5.41667E-02 0.00000E+00 0.00000E+00
 -1       145 5.52083E-02 0.00000E+00 0.00000E+00
 -1       146 5.62500E-02 0.00000E+00 0.00000E+00
 -1       147 5.72917E-02 0.00000E+00 0.00000E+00
 -1       148 5.83333E-02 0.00000E+00 0.00000E+00
 -1       149 5.93750E-02 0.00000E+00 0.00000E+00
 -1       150 6.04167E-02 0.00000E+00 0.00000E+00
 -1       151 6.14583E-02 0.00000E+00 0.00000E+00
 -1       152 6.25000E-02 0.00000E+00 0.00000E+00
 -1       153 6.35417E-02 0.00000E+00 0.00000E+00
 -1       154 6.45833E-02 0.00000E+00 0.00000E+00
 -1       155 6.56250E-02 0.00000E+00 0.00000E+00
 -1       156 5.00000E-02 1.04167E-03 0.00000E+00
 -1       157 5.00000E-02 2.08333E-03 0.00000E+00
 -1       158 5.00000E-02 3.12500E-03 0.00000E+00
 -1       159 5.00000E-02 4.16667E-03 0.00000E+00
 -1       160 5.00000E-02 5.20833E-03 0.00000E+00
 -1       161 5.10417E-02 3.90630E-04 0.00000E+00
 -1       162 5.20833E-02 7.81250E-04 0.00000E+00
 -1       163 5.31250E-02 1.17188E-03 0.00000E+00
 -1       164 5.41667E-02 1.56250E-03 0.00000E+00
 -1       165 5.52083E-02 1.95312E-03 0.00000E+00
 -1       166 5.62500E-02 2.34375E-03 0.00000E+00
 -1       167 5.72917E-02 2.73438E-03 0.00000E+00
 -1       168 5.83333E-02 3.12500E-03 0.00000E+00
 -1       169 5.93750E-02 3.51563E-03 0.00000E+00
 -1       170 6.04167E-02 3.90625E-03 0.00000E+00
 -1       171 6.14583E-02 4.29688E-03 0.00000E+00
 -1       172 6.25000E-02 4.68750E-03 0.00000E+00
 -1       173 6.35417E-02 5.07813E-03 0.00000E+00
 -1       174 6.45833E-02 5.46875E-03 0.00000E+00
 -1       175 6.56250E-02 5.85938E-03 0.00000E+00
 -1       191 6.66667E-02 1.04167E-03 0.00000E+00
 -1       192 6.66667E-02 2.08333E-03 0.00000E+00
 -1       193 6.66667E-02 3.12500E-03 0.00000E+00
 -1       194 6.66667E-02 4.16667E-03 0.00000E+00
 -1       195 6.66667E-02 5.20833E-03 0.00000E+00
 -1       251 1.04167E-03 6.25000E-03 0.00000E+00
 -1       252 2.08333E-03 6.25000E-03 0.00000E+00
 -1       253 3.12500E-03 6.25000E-03 0.00000E+00
 -1       254 4.16667E-03 6.25000E-03 0.00000E+00
 -1       255 5.20833E-03 6.25000E-03 0.00000E+00
 -1       256 6.25000E-03 6.25000E-03 0.00000E+00
 -1       257 7.29167E-03 6.25000E-03 0.00000E+00
 -1       258 8.33333E-03 6.25000E-03 0.00000E+00
 -1       259 9.37500E-03 6.25000E-03 0.00000E+00
 -1       260 1.04167E-02 6.25000E-03 0.00000E+00
 -1       261 1.14583E-02 6.25000E-03 0.00000E+00
 -1       262 1.25000E-02 6.25000E-03 0.00000E+00
 -1       263 1.35417E-02 6.25000E-03 0.00000E+00
 -1       264 1.45833E-02 6.25000E-03 0.00000E+00
 -1       265 1.56250E-02 6.25000E-03 0.00000E+00
 -1       266 0.00000E+00 7.29167E-03 0.00000E+00
 -1       267 0.00000E+00 8.33333E-03 0.00000E+00
 -1       268 0.00000E+00 9.37500E-03 0.00000E+00
 -1       269 0.00000E+00 1.04167E-02 0.00000E+00
 -1       270 0.00000E+00 1.14583E-02 0.00000E+00
 -1       271 1.04167E-03 6.64063E-03 0.00000E+00
 -1       272 2.08333E-03 7.03125E-03 0.00000E+00
 -1       273 3.12500E-03 7.42188E-03 0.00000E+00
 -1       274 4.16667E-03 7.81250E-03 0.00000E+00
 -1       275 5.20833E-03 8.20313E-03 0.00000E+00
 -1       276 6.25000E-03 8.59375E-03 0.00000E+00
 -1       277 7.29167E-03 8.98438E-03 0.00000E+00
 -1       278 8.33333E-03 9.37500E-03 0.00000E+00
 -1       279 9.37500E-03 9.76562E-03 0.00000E+00
 -1       280 1.04167E-02 1.01562E-02 0.00000E+00
 -1       281 1.14583E-02 1.05469E-02 0.00000E+00
 -1       282 1.25000E-02 1.09375E-02 0.00000E+00
 -1       283 1.35417E-02 1.13281E-02 0.00000E+00
 -1       284 1.45833E-02 1.17188E-02 0.00000E+00
 -1       285 1.56250E-02 1.21094E-02 0.00000E+00
 -1       286 1.77083E-02 6.25000E-03 0.00000E+00
 -1       287 1.87500E-02 6.25000E-03 0.00000E+00
 -1       288 1.97917E-02 6.25000E-03 0.00000E+00
 -1       289 2.08333E-02 6.25000E-03 0.00000E+00
 -1       290 2.18750E-02 6.25000E-03 0.00000E+00
 -1       291 2.29167E-02 6.25000E-03 0.00000E+00
 -1       292 2.39583E-02 6.25000E-03 0.00000E+00
 -1       293 2.50000E-02 6.25000E-03 0.00000E+00
 -1       294 2.60417E-02 6.25000E-03 0.00000E+00
 -1       295 2.70833E-02 6.25000E-03 0.00000E+00
 -1       296 2.81250E-02 6.25000E-03 0.00000E+00
 -1       297 2.91667E-02 6.25000E-03 0.00000E+00
 -1       298 3.02083E-02 6.25000E-03 0.00000E+00
 -1       299 3.12500E-02 6.25000E-03 0.00000E+00
 -1       300 3.22917E-02 6.25000E-03 0.00000E+00
 -1       301 1.66667E-02 7.29167E-03 0.00000E+00
 -1       302 1.66667E-02 8.33333E-03 0.00000E+00
 -1       303 1.66667E-02 9.37500E-03 0.00000E+00
 -1       304 1.66667E-02 1.04167E-02 0.00000E+00
 -1       305 1.66667E-02 1.14583E-02 0.00000E+00
 -1       306 1.77083E-02 6.64063E-03 0.00000E+00
 -1       307 1.87500E-02 7.03125E-03 0.00000E+00
 -1       308 1.97917E-02 7.42188E-03 0.00000E+00
 -1       309 2.08333E-02 7.81250E-03 0.00000E+00
 -1       310 2.18750E-02 8.20313E-03 0.00000E+00
 -1       311 2.29167E-02 8.59375E-03 0.00000E+00
 -1       312 2.39583E-02 8.98438E-03 0.00000E+00
 -1       313 2.50000E-02 9.37500E-03 0.00000E+00
 -1       314 2.60417E-02 9.76562E-03 0.00000E+00
 -1       315 2.70833E-02 1.01562E-02 0.00000E+00
 -1       316 2.81250E-02 1.05469E-02 0.00000E+00
 -1       317 2.91667E-02 1.09375E-02 0.00000E+00
 -1       318 3.02083E-02 1.13281E-02 0.00000E+00
 -1       319 3.12500E-02 1.17188E-02 0.00000E+00
 -1       320 3.22917E-02 1.21094E-02 0.00000E+00
 -1       321 3.43750E-02 6.25000E-03 0.00000E+00
 -1       322 3.54167E-02 6.25000E-03 0.00000E+00
 -1       323 3.64583E-02 6.25000E-03 0.00000E+00
 -1       324 3.75000E-02 6.25000E-03 0.00000E+00
 -1       325 3.85417E-02 6.25000E-03 0.00000E+00
 -1       326 3.95833E-02 6.25000E-03 0.00000E+00
 -1       327 4.06250E-02 6.25000E-03 0.00000E+00
 -1       328 4.16667E-02 6.25000E-03 0.00000E+00
 -1       329 4.27083E-02 6.25000E-03 0.00000E+00
 -1       330 4.37500E-02 6.25000E-03 0.00000E+00
 -1       331 4.47917E-02 6.25000E-03 0.00000E+00
 -1       332 4.58333E-02 6.25000E-03 0.00000E+00
 -1       333 4.68750E-02 6.25000E-03 0.00000E+00
 -1       334 4.79167E-02 6.25000E-03 0.00000E+00
 -1       335 4.89583E-02 6.25000E-03 0.00000E+00
 -1       336 3.33333E-02 7.29167E-03 0.00000E+00
 -1       337 3.33333E-02 8.33333E-03 0.00000E+00
 -1       338 3.33333E-02 9.37500E-03 0.00000E+00
 -1       339 3.33333E-02 1.04167E-02 0.00000E+00
 -1       340 3.33333E-02 1.14583E-02 0.00000E+00
 -1       341 3.43750E-02 6.64063E-03 0.00000E+00
 -1       342 3.54167E-02 7.03125E-03 0.00000E+00
 -1       343 3.64583E-02 7.42188E-03 0.00000E+00
 -1       344 3.75000E-02 7.81250E-03 0.00000E+00
 -1       345 3.85417E-02 8.20313E-03 0.00000E+00
 -1       346 3.95833E-02 8.59375E-03 0.00000E+00
 -1       347 4.06250E-02 8.98438E-03 0.00000E+00
 -1       348 4.16667E-02 9.37500E-03 0.00000E+00
 -1       349 4.27083E-02 9.76562E-03 0.00000E+00
 -1       350 4.37500E-02 1.01562E-02 0.00000E+00
 -1       351 4.47917E-02 1.05469E-02 0.00000E+00
 -1       352 4.58333E-02 1.09375E-02 0.00000E+00
 -1       353 4.68750E-02 1.13281E-02 0.00000E+00
 -1       354 4.79167E-02 1.17188E-02 0.00000E+00
 -1       355 4.89583E-02 1.21094E-02 0.00000E+00
 -1       356 5.10417E-02 6.25000E-03 0.00000E+00
 -1       357 5.20833E-02 6.25000E-03 0.00000E+00
 -1       358 5.31250E-02 6.25000E-03 0.00000E+00
 -1       359 5.41667E-02 6.25000E-03 0.00000E+00
 -1       360 5.52083E-02 6.25000E-03 0.00000E+00
 -1       361 5.62500E-02 6.25000E-03 0.00000E+00
 -1       362 5.72917E-02 6.25000E-03 0.00000E+00
 -1       363 5.83333E-02 6.25000E-03 0.00000E+00
 -1       364 5.93750E-02 6.25000E-03 0.00000E+00
 -1       365 6.04167E-02 6.25000E-03 0.00000E+00
 -1       366 6.14583E-02 6.25000E-03 0.00000E+00
 -1       367 6.25000E-02 6.25000E-03 0.00000E+00
 -1       368 6.35417E-02 6.25000E-03 0.00000E+00
 -1       369 6.45833E-02 6.25000E-03 0.00000E+00
 -1       370 6.56250E-02 6.25000E-03 0.00000E+00
 -1       371 5.00000E-02 7.29167E-03 0.00000E+00
 -1       372 5.00000E-02 8.33333E-03 0.00000E+00
 -1       373 5.00000E-02 9.37500E-03 0.00000E+00
 -1       374 5.00000E-02 1.04167E-02 0.00000E+00
 -1       375 5.00000E-02 1.14583E-02 0.00000E+00
 -1       376 5.10417E-02 6.64063E-03 0.00000E+00
 -1       377 5.20833E-02 7.03125E-03 0.00000E+00
 -1       378 5.31250E-02 7.42188E-03 0.00000E+00
 -1       379 5.41667E-02 7.81250E-03 0.00000E+00
 -1       380 5.52083E-02 8.20313E-03 0.00000E+00
 -1       381 5.62500E-02 8.59375E-03 0.00000E+00
 -1       382 5.72917E-02 8.98438E-03 0.00000E+00
 -1       383 5.83333E-02 9.37500E-03 0.00000E+00
 -1       384 5.93750E-02 9.76562E-03 0.00000E+00
 -1       385 6.04167E-02 1.01562E-02 0.00000E+00
 -1       386 6.14583E-02 1.05469E-02 0.00000E+00
 -1       387 6.25000E-02 1.09375E-02 0.00000E+00
 -1       388 6.35417E-02 1.13281E-02 0.00000E+00
 -1       389 6.45833E-02 1.17188E-02 0.00000E+00
 -1       390 6.56250E-02 1.21094E-02 0.00000E+00
 -1       406 6.66667E-02 7.29167E-03 0.00000E+00
 -1       407 6.66667E-02 8.33333E-03 0.00000E+00
 -1       408 6.66667E-02 9.37500E-03 0.00000E+00
 -1       409 6.66667E-02 1.04167E-02 0.00000E+00
 -1       410 6.66667E-02 1.14583E-02 0.00000E+00
 -1       466 1.04167E-03 1.25000E-02 0.00000E+00
 -1       467 2.08333E-03 1.25000E-02 0.00000E+00
 -1       468 3.12500E-03 1.25000E-02 0.00000E+00
 -1       469 4.16667E-03 1.25000E-02 0.00000E+00
 -1       470 5.20833E-03 1.25000E-02 0.00000E+00
 -1       471 6.25000E-03 1.25000E-02 0.00000E+00
 -1       472 7.29167E-03 1.25000E-02 0.00000E+00
 -1       473 8.33333E-03 1.25000E-02 0.00000E+00
 -1       474 9.37500E-03 1.25000E-02 0.00000E+00
 -1       475 1.04167E-02 1.25000E-02 0.00000E+00
 -1       476 1.14583E-02 1.25000E-02 0.00000E+00
 -1       477 1.25000E-02 1.25000E-02 0.00000E+00
 -1       478 1.35417E-02 1.25000E-02 0.00000E+00
 -1       479 1.45833E-02 1.25000E-02 0.00000E+00
 -1       480 1.56250E-02 1.25000E-02 0.00000E+00
 -1       481 0.00000E+00 1.35417E-02 0.00000E+00
 -1       482 0.00000E+00 1.45833E-02 0.00000E+00
 -1       483 0.00000E+00 1.56250E-02 0.00000E+00
 -1       484 0.00000E+00 1.66667E-02 0.00000E+00
 -1       485 0.00000E+00 1.77083E-02 0.00000E+00
 -1       486 1.04167E-03 1.28906E-02 0.00000E+00
 -1       487 2.08333E-03 1.32813E-02 0.00000E+00
 -1       488 3.12500E-03 1.36719E-02 0.00000E+00
 -1       489 4.16667E-03 1.40625E-02 0.00000E+00
 -1       490 5.20833E-03 1.44531E-02 0.00000E+00
 -1       491 6.25000E-03 1.48437E-02 0.00000E+00
 -1       492 7.29167E-03 1.52344E-02 0.00000E+00
 -1       493 8.33333E-03 1.56250E-02 0.00000E+00
 -1       494 9.37500E-03 1.60156E-02 0.00000E+00
 -1       495 1.04167E-02 1.64062E-02 0.00000E+00
 -1       496 1.14583E-02 1.67969E-02 0.00000E+00
 -1       497 1.25000E-02 1.71875E-02 0.00000E+00
 -1       498 1.35417E-02 1.75781E-02 0.00000E+00
 -1       499 1.45833E-02 1.79687E-02 0.00000E+00
 -1       500 1.56250E-02 1.83594E-02 0.00000E+00
 -1       501 1.77083E-02 1.25000E-02 0.00000E+00
 -1       502 1.87500E-02 1.25000E-02 0.00000E+00
 -1       503 1.97917E-02 1.25000E-02 0.00000E+00
 -1       504 2.08333E-02 1.25000E-02 0.00000E+00
 -1       505 2.18750E-02 1.25000E-02 0.00000E+00
 -1       506 2.29167E-02 1.25000E-02 0.00000E+00
 -1       507 2.39583E-02 1.25000E-02 0.00000E+00
 -1       508 2.50000E-02 1.25000E-02 0.00000E+00
 -1       509 2.60417E-02 1.25000E-02 0.00000E+00
 -1       510 2.70833E-02 1.25000E-02 0.00000E+00
 -1       511 2.81250E-02 1.25000E-02 0.00000E+00
 -1       512 2.91667E-02 1.25000E-02 0.00000E+00
 -1       513 3.02083E-02 1.25000E-02 0.00000E+00
 -1       514 3.12500E-02 1.25000E-02 0.00000E+00
 -1       515 3.22917E-02 1.25000E-02 0.00000E+00
 -1       516 1.66667E-02 1.35417E-02 0.00000E+00
 -1       517 1.66667E-02 1.45833E-02 0.00000E+00
 -1       518 1.66667E-02 1.56250E-02 0.00000E+00
 -1       519 1.66667E-02 1.66667E-02 0.00000E+00
 -1       520 1.66667E-02 1.77083E-02 0.00000E+00
 -1       521 1.77083E-02 1.28906E-02 0.00000E+00
 -1       522 1.87500E-02 1.32813E-02 0.00000E+00
 -1       523 1.97917E-02 1.36719E-02 0.00000E+00
 -1       524 2.08333E-02 1.40625E-02 0.00000E+00
 -1       525 2.18750E-02 1.44531E-02 0.00000E+00
 -1       526 2.29167E-02 1.48437E-02 0.00000E+00
 -1       527 2.39583E-02 1.52344E-02 0.00000E+00
 -1       528 2.50000E-02 1.56250E-02 0.00000E+00
 -1       529 2.60417E-02 1.60156E-02 0.00000E+00
 -1       530 2.70833E-02 1.64062E-02 0.00000E+00
 -1       531 2.81250E-02 1.67969E-02 0.00000E+00
 -1       532 2.91667E-02 1.71875E-02 0.00000E+00
 -1       533 3.02083E-02 1.75781E-02 0.00000E+00
 -1       534 3.12500E-02 1.79687E-02 0.00000E+00
 -1       535 3.22917E-02 1.83594E-02 0.00000E+00
 -1       536 3.43750E-02 1.25000E-02 0.00000E+00
 -1       537 3.54167E-02 1.25000E-02 0.00000E+00
 -1       538 3.64583E-02 1.25000E-02 0.00000E+00
 -1       539 3.75000E-02 1.25000E-02 0.00000E+00
 -1       540 3.85417E-02 1.25000E-02 0.00000E+00
 -1       541 3.95833E-02 1.25000E-02 0.00000E+00
 -1       542 4.06250E-02 1.25000E-02 0.00000E+00
 -1       543 4.16667E-02 1.25000E-02 0.00000E+00
 -1       544 4.27083E-02 1.25000E-02 0.00000E+00
 -1       545 4.37500E-02 1.25000E-02 0.00000E+00
 -1       546 4.47917E-02 1.25000E-02 0.00000E+00
 -1       547 4.58333E-02 1.25000E-02 0.00000E+00
 -1       548 4.68750E-02 1.25000E-02 0.00000E+00
 -1       549 4.79167E-02 1.25000E-02 0.00000E+00
 -1       550 4.89583E-02 1.25000E-02 0.00000E+00
 -1       551 3.33333E-02 1.35417E-02 0.00000E+00
 -1       552 3.33333E-02 1.45833E-02 0.00000E+00
 -1       553 3.33333E-02 1.56250E-02 0.00000E+00
 -1       554 3.33333E-02 1.66667E-02 0.00000E+00
 -1       555 3.33333E-02 1.77083E-02 0.00000E+00
 -1       556 3.43750E-02 1.28906E-02 0.00000E+00
 -1       557 3.54167E-02 1.32813E-02 0.00000E+00
 -1       558 3.64583E-02 1.36719E-02 0.00000E+00
 -1       559 3.75000E-02 1.40625E-02 0.00000E+00
 -1       560 3.85417E-02 1.44531E-02 0.00000E+00
 -1       561 3.95833E-02 1.48437E-02 0.00000E+00
 -1       562 4.06250E-02 1.52344E-02 0.00000E+00
 -1       563 4.16667E-02 1.56250E-02 0.00000E+00
 -1       564 4.27083E-02 1.60156E-02 0.00000E+00
 -1       565 4.37500E-02 1.64062E-02 0.00000E+00
 -1       566 4.47917E-02 1.67969E-02 0.00000E+00
 -1       567 4.58333E-02 1.71875E-02 0.00000E+00
 -1       568 4.68750E-02 1.75781E-02 0.00000E+00
 -1       569 4.79167E-02 1.79687E-02 0.00000E+00
 -1       570 4.89583E-02 1.83594E-02 0.00000E+00
 -1       571 5.10417E-02 1.25000E-02 0.00000E+00
 -1       572 5.20833E-02 1.25000E-02 0.00000E+00
 -1       573 5.31250E-02 1.25000E-02 0.00000E+00
 -1       574 5.41667E-02 1.25000E-02 0.00000E+00
 -1       575 5.52083E-02 1.25000E-02 0.00000E+00
 -1       576 5.62500E-02 1.25000E-02 0.00000E+00
 -1       577 5.72917E-02 1.25000E-02 0.00000E+00
 -1       578 5.83333E-02 1.25000E-02 0.00000E+00
 -1       579 5.93750E-02 1.25000E-02 0.00000E+00
 -1       580 6.04167E-02 1.25000E-02 0.00000E+00
 -1       581 6.14583E-02 1.25000E-02 0.00000E+00
 -1       582 6.25000E-02 1.25000E-02 0.00000E+00
 -1       583 6.35417E-02 1.25000E-02 0.00000E+00
 -1       584 6.45833E-02 1.25000E-02 0.00000E+00
 -1       585 6.56250E-02 1.25000E-02 0.00000E+00
 -1       586 5.00000E-02 1.35417E-02 0.00000E+00
 -1       587 5.00000E-02 1.45833E-02 0.00000E+00
 -1       588 5.00000E-02 1.56250E-02 0.00000E+00
 -1       589 5.00000E-02 1.66667E-02 0.00000E+00
 -1       590 5.00000E-02 1.77083E-02 0.00000E+00
 -1       591 5.10417E-02 1.28906E-02 0.00000E+00
 -1       592 5.20833E-02 1.32813E-02 0.00000E+00
 -1       593 5.31250E-02 1.36719E-02 0.00000E+00
 -1       594 5.41667E-02 1.40625E-02 0.00000E+00
 -1       595 5.52083E-02 1.44531E-02 0.00000E+00
 -1       596 5.62500E-02 1.48437E-02 0.00000E+00
 -1       597 5.72917E-02 1.52344E-02 0.00000E+00
 -1       598 5.83333E-02 1.56250E-02 0.00000E+00
 -1       599 5.93750E-02 1.60156E-02 0.00000E+00
 -1       600 6.04167E-02 1.64062E-02 0.00000E+00
 -1       601 6.14583E-02 1.67969E-02 0.00000E+00
 -1       602 6.25000E-02 1.71875E-02 0.00000E+00
 -1       603 6.35417E-02 1.75781E-02 0.00000E+00
 -1       604 6.45833E-02 1.79687E-02 0.00000E+00
 -1       605 6.56250E-02 1.83594E-02 0.00000E+00
 -1       606 6.77083E-02 1.25000E-02 0.00000E+00
 -1       607 6.87500E-02 1.25000E-02 0.00000E+00
 -1       608 6.97917E-02 1.25000E-02 0.00000E+00
 -1       609 7.08333E-02 1.25000E-02 0.00000E+00
 -1       610 7.18750E-02 1.25000E-02 0.00000E+00
 -1       611 7.29167E-02 1.25000E-02 0.00000E+00
 -1       612 7.39583E-02 1.25000E-02 0.00000E+00
 -1       613 7.50000E-02 1.25000E-02 0.00000E+00
 -1       614 7.60417E-02 1.25000E-02 0.00000E+00
 -1       615 7.70833E-02 1.25000E-02 0.00000E+00
 -1       616 7.81250E-02 1.25000E-02 0.00000E+00
 -1       617 7.91667E-02 1.25000E-02 0.00000E+00
 -1       618 8.02083E-02 1.25000E-02 0.00000E+00
 -1       619 8.12500E-02 1.25000E-02 0.00000E+00
 -1       620 8.22917E-02 1.25000E-02 0.00000E+00
 -1       621 6.66667E-02 1.35417E-02 0.00000E+00
 -1       622 6.66667E-02 1.45833E-02 0.00000E+00
 -1       623 6.66667E-02 1.56250E-02 0.00000E+00
 -1       624 6.66667E-02 1.66667E-02 0.00000E+00
 -1       625 6.66667E-02 1.77083E-02 0.00000E+00
 -1       626 6.77083E-02 1.28906E-02 0.00000E+00
 -1       627 6.87500E-02 1.32813E-02 0.00000E+00
 -1       628 6.97917E-02 1.36719E-02 0.00000E+00
 -1       629 7.08333E-02 1.40625E-02 0.00000E+00
 -1       630 7.18750E-02 1.44531E-02 0.00000E+00
 -1       631 7.29167E-02 1.48437E-02 0.00000E+00
 -1       632 7.39583E-02 1.52344E-02 0.00000E+00
 -1       633 7.50000E-02 1.56250E-02 0.00000E+00
 -1       634 7.60417E-02 1.60156E-02 0.00000E+00
 -1       635 7.70833E-02 1.64062E-02 0.00000E+00
 -1       636 7.81250E-02 1.67969E-02 0.00000E+00
 -1       637 7.91667E-02 1.71875E-02 0.00000E+00
 -1       638 8.02083E-02 1.75781E-02 0.00000E+00
 -1       639 8.12500E-02 1.79687E-02 0.00000E+00
 -1       640 8.22917E-02 1.83594E-02 0.00000E+00
 -1       641 8.43750E-02 1.25000E-02 0.00000E+00
 -1       642 8.54167E-02 1.25000E-02 0.00000E+00
 -1       643 8.64583E-02 1.25000E-02 0.00000E+00
 -1       644 8.75000E-02 1.25000E-02 0.00000E+00
 -1       645 8.85417E-02 1.25000E-02 0.00000E+00
 -1       646 8.95833E-02 1.25000E-02 0.00000E+00
 -1       647 9.06250E-02 1.25000E-02 0.00000E+00
 -1       648 9.16667E-02 1.25000E-02 0.00000E+00
 -1       649 9.27083E-02 1.25000E-02 0.00000E+00
 -1       650 9.37500E-02 1.25000E-02 0.00000E+00
 -1       651 9.47917E-02 1.25000E-02 0.00000E+00
 -1       652 9.58333E-02 1.25000E-02 0.00000E+00
 -1       653 9.68750E-02 1.25000E-02 0.00000E+00
 -1       654 9.79167E-02 1.25000E-02 0.00000E+00
 -1       655 9.89583E-02 1.25000E-02 0.00000E+00
 -1       656 8.33333E-02 1.35417E-02 0.00000E+00
 -1       657 8.33333E-02 1.45833E-02 0.00000E+00
 -1       658 8.33333E-02 1.56250E-02 0.00000E+00
 -1       659 8.33333E-02 1.66667E-02 0.00000E+00
 -1       660 8.33333E-02 1.77083E-02 0.00000E+00
 -1       661 8.43750E-02 1.28906E-02 0.00000E+00
 -1       662 8.54167E-02 1.32813E-02 0.00000E+00
 -1       663 8.64583E-02 1.36719E-02 0.00000E+00
 -1       664 8.75000E-02 1.40625E-02 0.00000E+00
 -1       665 8.85417E-02 1.44531E-02 0.00000E+00
 -1       666 8.95833E-02 1.48437E-02 0.00000E+00
 -1       667 9.06250E-02 1.52344E-02 0.00000E+00
 -1       668 9.16667E-02 1.56250E-02 0.00000E+00
 -1       669 9.27083E-02 1.60156E-02 0.00000E+00
 -1       670 9.37500E-02 1.64062E-02 0.00000E+00
 -1       671 9.47917E-02 1.67969E-02 0.00000E+00
 -1       672 9.58333E-02 1.71875E-02 0.00000E+00
 -1       673 9.68750E-02 1.75781E-02 0.00000E+00
 -1       674 9.79167E-02 1.79687E-02 0.00000E+00
 -1       675 9.89583E-02 1.83594E-02 0.00000E+00
 -1       676 1.00000E-01 1.35417E-02 0.00000E+00
 -1       677 1.00000E-01 1.45833E-02 0.00000E+00
 -1       678 1.00000E-01 1.56250E-02 0.00000E+00
 -1       679 1.00000E-01 1.66667E-02 0.00000E+00
 -1       680 1.00000E-01 1.77083E-02 0.00000E+00
 -1       681 1.04167E-03 1.87500E-02 0.00000E+00
 -1       682 2.08333E-03 1.87500E-02 0.00000E+00
 -1       683 3.12500E-03 1.87500E-02 0.00000E+00
 -1       684 4.16667E-03 1.87500E-02 0.00000E+00
 -1       685 5.20833E-03 1.87500E-02 0.00000E+00
 -1       686 6.25000E-03 1.87500E-02 0.00000E+00
 -1       687 7.29167E-03 1.87500E-02 0.00000E+00
 -1       688 8.33333E-03 1.87500E-02 0.00000E+00
 -1       689 9.37500E-03 1.87500E-02 0.00000E+00
 -1       690 1.04167E-02 1.87500E-02 0.00000E+00
 -1       691 1.14583E-02 1.87500E-02 0.00000E+00
 -1       692 1.25000E-02 1.87500E-02 0.00000E+00
 -1       693 1.35417E-02 1.87500E-02 0.00000E+00
 -1       694 1.45833E-02 1.87500E-02 0.00000E+00
 -1       695 1.56250E-02 1.87500E-02 0.00000E+00
 -1       696 0.00000E+00 1.97917E-02 0.00000E+00
 -1       697 0.00000E+00 2.08333E-02 0.00000E+00
 -1       698 0.00000E+00 2.18750E-02 0.00000E+00
 -1       699 0.00000E+00 2.29167E-02 0.00000E+00
 -1       700 0.00000E+00 2.39583E-02 0.00000E+00
 -1       701 1.04167E-03 1.91406E-02 0.00000E+00
 -1       702 2.08333E-03 1.95312E-02 0.00000E+00
 -1       703 3.12500E-03 1.99219E-02 0.00000E+00
 -1       704 4.16667E-03 2.03125E-02 0.00000E+00
 -1       705 5.20833E-03 2.07031E-02 0.00000E+00
 -1       706 6.25000E-03 2.10938E-02 0.00000E+00
 -1       707 7.29167E-03 2.14844E-02 0.00000E+00
 -1       708 8.33333E-03 2.18750E-02 0.00000E+00
 -1       709 9.37500E-03 2.22656E-02 0.00000E+00
 -1       710 1.04167E-02 2.26563E-02 0.00000E+00
 -1       711 1.14583E-02 2.30469E-02 0.00000E+00
 -1       712 1.25000E-02 2.34375E-02 0.00000E+00
 -1       713 1.35417E-02 2.38281E-02 0.00000E+00
 -1       714 1.45833E-02 2.42187E-02 0.00000E+00
 -1       715 1.56250E-02 2.46094E-02 0.00000E+00
 -1       716 1.77083E-02 1.87500E-02 0.00000E+00
 -1       717 1.87500E-02 1.87500E-02 0.00000E+00
 -1       718 1.97917E-02 1.87500E-02 0.00000E+00
 -1       719 2.08333E-02 1.87500E-02 0.00000E+00
 -1       720 2.18750E-02 1.87500E-02 0.00000E+00
 -1       721 2.29167E-02 1.87500E-02 0.00000E+00
 -1       722 2.39583E-02 1.87500E-02 0.00000E+00
 -1       723 2.50000E-02 1.87500E-02 0.00000E+00
 -1       724 2.60417E-02 1.87500E-02 0.00000E+00
 -1       725 2.70833E-02 1.87500E-02 0.00000E+00
 -1       726 2.81250E-02 1.87500E-02 0.00000E+00
 -1       727 2.91667E-02 1.87500E-02 0.00000E+00
 -1       728 3.02083E-02 1.87500E-02 0.00000E+00
 -1       729 3.12500E-02 1.87500E-02 0.00000E+00
 -1       730 3.22917E-02 1.87500E-02 0.00000E+00
 -1       731 1.66667E-02 1.97917E-02 0.00000E+00
 -1       732 1.66667E-02 2.08333E-02 0.00000E+00
 -1       733 1.66667E-02 2.18750E-02 0.00000E+00
 -1       734 1.66667E-02 2.29167E-02 0.00000E+00
 -1       735 1.66667E-02 2.39583E-02 0.00000E+00
 -1       736 1.77083E-02 1.91406E-02 0.00000E+00
 -1       737 1.87500E-02 1.95312E-02 0.00000E+00
 -1       738 1.97917E-02 1.99219E-02 0.00000E+00
 -1       739 2.08333E-02 2.03125E-02 0.00000E+00
 -1       740 2.18750E-02 2.07031E-02 0.00000E+00
 -1       741 2.29167E-02 2.10938E-02 0.00000E+00
 -1       742 2.39583E-02 2.14844E-02 0.00000E+00
 -1       743 2.50000E-02 2.18750E-02 0.00000E+00
 -1       744 2.60417E-02 2.22656E-02 0.00000E+00
 -1       745 2.70833E-02 2.26563E-02 0.00000E+00
 -1       746 2.81250E-02 2.30469E-02 0.00000E+00
 -1       747 2.91667E-02 2.34375E-02 0.00000E+00
 -1       748 3.02083E-02 2.38281E-02 0.00000E+00
 -1       749 3.12500E-02 2.42187E-02 0.00000E+00
 -1       750 3.22917E-02 2.46094E-02 0.00000E+00
 -1       751 3.43750E-02 1.87500E-02 0.00000E+00
 -1       752 3.54167E-02 1.87500E-02 0.00000E+00
 -1       753 3.64583E-02 1.87500E-02 0.00000E+00
 -1       754 3.75000E-02 1.87500E-02 0.00000E+00
 -1       755 3.85417E-02 1.87500E-02 0.00000E+00
 -1       756 3.95833E-02 1.87500E-02 0.00000E+00
 -1       757 4.06250E-02 1.87500E-02 0.00000E+00
 -1       758 4.16667E-02 1.87500E-02 0.00000E+00
 -1       759 4.27083E-02 1.87500E-02 0.00000E+00
 -1       760 4.37500E-02 1.87500E-02 0.00000E+00
 -1       761 4.47917E-02 1.87500E-02 0.00000E+00
 -1       762 4.58333E-02 1.87500E-02 0.00000E+00
 -1       763 4.68750E-02 1.87500E-02 0.00000E+00
 -1       764 4.79167E-02 1.87500E-02 0.00000E+00
 -1       765 4.89583E-02 1.87500E-02 0.00000E+00
 -1       766 3.33333E-02 1.97917E-02 0.00000E+00
 -1       767 3.33333E-02 2.08333E-02 0.00000E+00
 -1       768 3.33333E-02 2.18750E-02 0.00000E+00
 -1       769 3.33333E-02 2.29167E-02 0.00000E+00
 -1       770 3.33333E-02 2.39583E-02 0.00000E+00
 -1       771 3.43750E-02 1.91406E-02 0.00000E+00
 -1       772 3.54167E-02 1.95312E-02 0.00000E+00
 -1       773 3.64583E-02 1.99219E-02 0.00000E+00
 -1       774 3.75000E-02 2.03125E-02 0.00000E+00
 -1       775 3.85417E-02 2.07031E-02 0.00000E+00
 -1       776 3.95833E-02 2.10938E-02 0.00000E+00
 -1       777 4.06250E-02 2.14844E-02 0.00000E+00
 -1       778 4.16667E-02 2.18750E-02 0.00000E+00
 -1       779 4.27083E-02 2.22656E-02 0.00000E+00
 -1       780 4.37500E-02 2.26563E-02 0.00000E+00
 -1       781 4.47917E-02 2.30469E-02 0.00000E+00
 -1       782 4.58333E-02 2.34375E-02 0.00000E+00
 -1       783 4.68750E-02 2.38281E-02 0.00000E+00
 -1       784 4.79167E-02 2.42187E-02 0.00000E+00
 -1       785 4.89583E-02 2.46094E-02 0.00000E+00
 -1       786 5.10417E-02 1.87500E-02 0.00000E+00
 -1       787 5.20833E-02 1.87500E-02 0.00000E+00
 -1       788 5.31250E-02 1.87500E-02 0.00000E+00
 -1       789 5.41667E-02 1.87500E-02 0.00000E+00
 -1       790 5.52083E-02 1.87500E-02 0.00000E+00
 -1       791 5.62500E-02 1.87500E-02 0.00000E+00
 -1       792 5.72917E-02 1.87500E-02 0.00000E+00
 -1       793 5.83333E-02 1.87500E-02 0.00000E+00
 -1       794 5.93750E-02 1.87500E-02 0.00000E+00
 -1       795 6.04167E-02 1.87500E-02 0.00000E+00
 -1       796 6.14583E-02 1.87500E-02 0.00000E+00
 -1       797 6.25000E-02 1.87500E-02 0.00000E+00
 -1       798 6.35417E-02 1.87500E-02 0.00000E+00
 -1       799 6.45833E-02 1.87500E-02 0.00000E+00
 -1       800 6.56250E-02 1.87500E-02 0.00000E+00
 -1       801 5.00000E-02 1.97917E-02 0.00000E+00
 -1       802 5.00000E-02 2.08333E-02 0.00000E+00
 -1       803 5.00000E-02 2.18750E-02 0.00000E+00
 -1       804 5.00000E-02 2.29167E-02 0.00000E+00
 -1       805 5.00000E-02 2.39583E-02 0.00000E+00
 -1       806 5.10417E-02 1.91406E-02 0.00000E+00
 -1       807 5.20833E-02 1.95312E-02 0.00000E+00
 -1       808 5.31250E-02 1.99219E-02 0.00000E+00
 -1       809 5.41667E-02 2.03125E-02 0.00000E+00
 -1       810 5.52083E-02 2.07031E-02 0.00000E+00
 -1       811 5.62500E-02 2.10938E-02 0.00000E+00
 -1       812 5.72917E-02 2.14844E-02 0.00000E+00
 -1       813 5.83333E-02 2.18750E-02 0.00000E+00
 -1       814 5.93750E-02 2.22656E-02 0.00000E+00
 -1       815 6.04167E-02 2.26563E-02 0.00000E+00
 -1       816 6.14583E-02 2.30469E-02 0.00000E+00
 -1       817 6.25000E-02 2.34375E-02 0.00000E+00
 -1       818 6.35417E-02 2.38281E-02 0.00000E+00
 -1       819 6.45833E-02 2.42187E-02 0.00000E+00
 -1       820 6.56250E-02 2.46094E-02 0.00000E+00
 -1       821 6.77083E-02 1.87500E-02 0.00000E+00
 -1       822 6.87500E-02 1.87500E-02 0.00000E+00
 -1       823 6.97917E-02 1.87500E-02 0.00000E+00
 -1       824 7.08333E-02 1.87500E-02 0.00000E+00
 -1       825 7.18750E-02 1.87500E-02 0.00000E+00
 -1       826 7.29167E-02 1.87500E-02 0.00000E+00
 -1       827 7.39583E-02 1.87500E-02 0.00000E+00
 -1       828 7.50000E-02 1.87500E-02 0.00000E+00
 -1       829 7.60417E-02 1.87500E-02 0.00000E+00
 -1       830 7.70833E-02 1.87500E-02 0.00000E+00
 -1       831 7.81250E-02 1.87500E-02 0.00000E+00
 -1       832 7.91667E-02 1.87500E-02 0.00000E+00
 -1       833 8.02083E-02 1.87500E-02 0.00000E+00
 -1       834 8.12500E-02 1.87500E-02 0.00000E+00
 -1       835 8.22917E-02 1.87500E-02 0.00000E+00
 -1       836 6.66667E-02 1.97917E-02 0.00000E+00
 -1       837 6.66667E-02 2.08333E-02 0.00000E+00
 -1       838 6.66667E-02 2.18750E-02 0.00000E+00
 -1       839 6.66667E-02 2.29167E-02 0.00000E+00
 -1       840 6.66667E-02 2.39583E-02 0.00000E+00
 -1       841 6.77083E-02 1.91406E-02 0.00000E+00
 -1       842 6.87500E-02 1.95312E-02 0.00000E+00
 -1       843 6.97917E-02 1.99219E-02 0.00000E+00
 -1       844 7.08333E-02 2.03125E-02 0.00000E+00
 -1       845 7.18750E-02 2.07031E-02 0.00000E+00
 -1       846 7.29167E-02 2.10938E-02 0.00000E+00
 -1       847 7.39583E-02 2.14844E-02 0.00000E+00
 -1       848 7.50000E-02 2.18750E-02 0.00000E+00
 -1       849 7.60417E-02 2.22656E-02 0.00000E+00
 -1       850 7.70833E-02 2.26563E-02 0.00000E+00
 -1       851 7.81250E-02 2.30469E-02 0.00000E+00
 -1       852 7.91667E-02 2.34375E-02 0.00000E+00
 -1       853 8.02083E-02 2.38281E-02 0.00000E+00
 -1       854 8.12500E-02 2.42187E-02 0.00000E+00
 -1       855 8.22917E-02 2.46094E-02 0.00000E+00
 -1       856 8.43750E-02 1.87500E-02 0.00000E+00
 -1       857 8.54167E-02 1.87500E-02 0.00000E+00
 -1       858 8.64583E-02 1.87500E-02 0.00000E+00
 -1       859 8.75000E-02 1.87500E-02 0.00000E+00
 -1       860 8.85417E-02 1.87500E-02 0.00000E+00
 -1       861 8.95833E-02 1.87500E-02 0.00000E+00
 -1       862 9.06250E-02 1.87500E-02 0.00000E+00
 -1       863 9.16667E-02 1.87500E-02 0.00000E+00
 -1       864 9.27083E-02 1.87500E-02 0.00000E+00
 -1       865 9.37500E-02 1.87500E-02 0.00000E+00
 -1       866 9.47917E-02 1.87500E-02 0.00000E+00
 -1       867 9.58333E-02 1.87500E-02 0.00000E+00
 -1       868 9.68750E-02 1.87500E-02 0.00000E+00
 -1       869 9.79167E-02 1.87500E-02 0.00000E+00
 -1       870 9.89583E-02 1.87500E-02 0.00000E+00
 -1       871 8.33333E-02 1.97917E-02 0.00000E+00
 -1       872 8.33333E-02 2.08333E-02 0.00000E+00
 -1       873 8.33333E-02 2.18750E-02 0.00000E+00
 -1       874 8.33333E-02 2.29167E-02 0.00000E+00
 -1       875 8.33333E-02 2.39583E-02 0.00000E+00
 -1       876 8.43750E-02 1.91406E-02 0.00000E+00
 -1       877 8.54167E-02 1.95312E-02 0.00000E+00
 -1       878 8.64583E-02 1.99219E-02 0.00000E+00
 -1       879 8.75000E-02 2.03125E-02 0.00000E+00
 -1       880 8.85417E-02 2.07031E-02 0.00000E+00
 -1       881 8.95833E-02 2.10938E-02 0.00000E+00
 -1       882 9.06250E-02 2.14844E-02 0.00000E+00
 -1       883 9.16667E-02 2.18750E-02 0.00000E+00
 -1       884 9.27083E-02 2.22656E-02 0.00000E+00
 -1       885 9.37500E-02 2.26563E-02 0.00000E+00
 -1       886 9.47917E-02 2.30469E-02 0.00000E+00
 -1       887 9.58333E-02 2.34375E-02 0.00000E+00
 -1       888 9.68750E-02 2.38281E-02 0.00000E+00
 -1       889 9.79167E-02 2.42187E-02 0.00000E+00
 -1       890 9.89583E-02 2.46094E-02 0.00000E+00
 -1       891 1.00000E-01 1.97917E-02 0.00000E+00
 -1       892 1.00000E-01 2.08333E-02 0.00000E+00
 -1       893 1.00000E-01 2.18750E-02 0.00000E+00
 -1       894 1.00000E-01 2.29167E-02 0.00000E+00
 -1       895 1.00000E-01 2.39583E-02 0.00000E+00
 -1       896 1.04167E-03 2.50000E-02 0.00000E+00
 -1       897 2.08333E-03 2.50000E-02 0.00000E+00
 -1       898 3.12500E-03 2.50000E-02 0.00000E+00
 -1       899 4.16667E-03 2.50000E-02 0.00000E+00
 -1       900 5.20833E-03 2.50000E-02 0.00000E+00
 -1       901 6.25000E-03 2.50000E-02 0.00000E+00
 -1       902 7.29167E-03 2.50000E-02 0.00000E+00
 -1       903 8.33333E-03 2.50000E-02 0.00000E+00
 -1       904 9.37500E-03 2.50000E-02 0.00000E+00
 -1       905 1.04167E-02 2.50000E-02 0.00000E+00
 -1       906 1.14583E-02 2.50000E-02 0.00000E+00
 -1       907 1.25000E-02 2.50000E-02 0.00000E+00
 -1       908 1.35417E-02 2.50000E-02 0.00000E+00
 -1       909 1.45833E-02 2.50000E-02 0.00000E+00
 -1       910 1.56250E-02 2.50000E-02 0.00000E+00
 -1       911 1.77083E-02 2.50000E-02 0.00000E+00
 -1       912 1.87500E-02 2.50000E-02 0.00000E+00
 -1       913 1.97917E-02 2.50000E-02 0.00000E+00
 -1       914 2.08333E-02 2.50000E-02 0.00000E+00
 -1       915 2.18750E-02 2.50000E-02 0.00000E+00
 -1       916 2.29167E-02 2.50000E-02 0.00000E+00
 -1       917 2.39583E-02 2.50000E-02 0.00000E+00
 -1       918 2.50000E-02 2.50000E-02 0.00000E+00
 -1       919 2.60417E-02 2.50000E-02 0.00000E+00
 -1       920 2.70833E-02 2.50000E-02 0.00000E+00
 -1       921 2.81250E-02 2.50000E-02 0.00000E+00
 -1       922 2.91667E-02 2.50000E-02 0.00000E+00
 -1       923 3.02083E-02 2.50000E-02 0.00000E+00
 -1       924 3.12500E-02 2.50000E-02 0.00000E+00
 -1       925 3.22917E-02 2.50000E-02 0.00000E+00
 -1       926 3.43750E-02 2.50000E-02 0.00000E+00
 -1       927 3.54167E-02 2.50000E-02 0.00000E+00
 -1       928 3.64583E-02 2.50000E-02 0.00000E+00
 -1       929 3.75000E-02 2.50000E-02 0.00000E+00
 -1       930 3.85417E-02 2.50000E-02 0.00000E+00
 -1       931 3.95833E-02 2.50000E-02 0.00000E+00
 -1       932 4.06250E-02 2.50000E-02 0.00000E+00
 -1       933 4.16667E-02 2.50000E-02 0.00000E+00
 -1       934 4.27083E-02 2.50000E-02 0.00000E+00
 -1       935 4.37500E-02 2.50000E-02 0.00000E+00
 -1       936 4.47917E-02 2.50000E-02 0.00000E+00
 -1       937 4.58333E-02 2.50000E-02 0.00000E+00
 -1       938 4.68750E-02 2.50000E-02 0.00000E+00
 -1       939 4.79167E-02 2.50000E-02 0.00000E+00
 -1       940 4.89583E-02 2.50000E-02 0.00000E+00
 -1       941 5.10417E-02 2.50000E-02 0.00000E+00
 -1       942 5.20833E-02 2.50000E-02 0.00000E+00
 -1       943 5.31250E-02 2.50000E-02 0.00000E+00
 -1       944 5.41667E-02 2.50000E-02 0.00000E+00
 -1       945 5.52083E-02 2.50000E-02 0.00000E+00
 -1       946 5.62500E-02 2.50000E-02 0.00000E+00
 -1       947 5.72917E-02 2.50000E-02 0.00000E+00
 -1       948 5.83333E-02 2.50000E-02 0.00000E+00
 -1       949 5.93750E-02 2.50000E-02 0.00000E+00
 -1       950 6.04167E-02 2.50000E-02 0.00000E+00
 -1       951 6.14583E-02 2.50000E-02 0.00000E+00
 -1       952 6.25000E-02 2.50000E-02 0.00000E+00
 -1       953 6.35417E-02 2.50000E-02 0.00000E+00
 -1       954 6.45833E-02 2.50000E-02 0.00000E+00
 -1       955 6.56250E-02 2.50000E-02 0.00000E+00
 -1       956 6.77083E-02 2.50000E-02 0.00000E+00
 -1       957 6.87500E-02 2.50000E-02 0.00000E+00
 -1       958 6.97917E-02 2.50000E-02 0.00000E+00
 -1       959 7.08333E-02 2.50000E-02 0.00000E+00
 -1       960 7.18750E-02 2.50000E-02 0.00000E+00
 -1       961 7.29167E-02 2.50000E-02 0.00000E+00
 -1       962 7.39583E-02 2.50000E-02 0.00000E+00
 -1       963 7.50000E-02 2.50000E-02 0.00000E+00
 -1       964 7.60417E-02 2.50000E-02 0.00000E+00
 -1       965 7.70833E-02 2.50000E-02 0.00000E+00
 -1       966 7.81250E-02 2.50000E-02 0.00000E+00
 -1       967 7.91667E-02 2.50000E-02 0.00000E+00
 -1       968 8.02083E-02 2.50000E-02 0.00000E+00
 -1       969 8.12500E-02 2.50000E-02 0.00000E+00
 -1       970 8.22917E-02 2.50000E-02 0.00000E+00
 -1       971 8.43750E-02 2.50000E-02 0.00000E+00
 -1       972 8.54167E-02 2.50000E-02 0.00000E+00
 -1       973 8.64583E-02 2.50000E-02 0.00000E+00
 -1       974 8.75000E-02 2.50000E-02 0.00000E+00
 -1       975 8.85417E-02 2.50000E-02 0.00000E+00
 -1       976 8.95833E-02 2.50000E-02 0.00000E+00
 -1       977 9.06250E-02 2.50000E-02 0.00000E+00
 -1       978 9.16667E-02 2.50000E-02 0.00000E+00
 -1       979 9.27083E-02 2.50000E-02 0.00000E+00
 -1       980 9.37500E-02 2.50000E-02 0.00000E+00
 -1       981 9.47917E-02 2.50000E-02 0.00000E+00
 -1       982 9.58333E-02 2.50000E-02 0.00000E+00
 -1       983 9.68750E-02 2.50000E-02 0.00000E+00
 -1       984 9.79167E-02 2.50000E-02 0.00000E+00
 -1       985 9.89583E-02 2.50000E-02 0.00000E+00
 -3
    3C                           440                                     1
 -1         1   12    0    1
 -2         1        37        36
 -1         2   12    0    1
 -2        37        39        38
 -1         3   12    0    1
 -2        39        41        40
 -1         4   12    0    1
 -2        41        43        42
 -1         5   12    0    1
 -2        43        45        44
 -1         6   12    0    1
 -2        45        47        46
 -1         7   12    0    1
 -2        47        49        48
 -1         8   12    0    1
 -2        49         2        50
 -1         9   12    0    1
 -2         1        52        51
 -1        10   12    0    1
 -2        52        54        53
 -1        11   12    0    1
 -2        54         8        55
 -1        12   12    0    1
 -2         1        57        56
 -1        13   12    0    1
 -2        57        59        58
 -1        14   12    0    1
 -2        59        61        60
 -1        15   12    0    1
 -2        61        63        62
 -1        16   12    0    1
 -2        63        65        64
 -1        17   12    0    1
 -2        65        67        66
 -1        18   12    0    1
 -2        67        69        68
 -1        19   12    0    1
 -2        69         9        70
 -1        20   12    0    1
 -2         2        72        71
 -1        21   12    0    1
 -2        72        74        73
 -1        22   12    0    1
 -2        74        76        75
 -1        23   12    0    1
 -2        76        78        77
 -1        24   12    0    1
 -2        78        80        79
 -1        25   12    0    1
 -2        80        82        81
 -1        26   12    0    1
 -2        82        84        83
 -1        27   12    0    1
 -2        84         3        85
 -1        28   12    0    1
 -2         2        87        86
 -1        29   12    0    1
 -2        87        89        88
 -1        30   12    0    1
 -2        89         9        90
 -1        31   12    0    1
 -2         2        92        91
 -1        32   12    0    1
 -2        92        94        93
 -1        33   12    0    1
 -2        94        96        95
 -1        34   12    0    1
 -2        96        98        97
 -1        35   12    0    1
 -2        98       100        99
 -1        36   12    0    1
 -2       100       102       101
 -1        37   12    0    1
 -2       102       104       103
 -1        38   12    0    1
 -2       104        10       105
 -1        39   12    0    1
 -2         3       107       106
 -1        40   12    0    1
 -2       107       109       108
 -1        41   12    0    1
 -2       109       111       110
 -1        42   12    0    1
 -2       111       113       112
 -1        43   12    0    1
 -2       113       115       114
 -1        44   12    0    1
 -2       115       117       116
 -1        45   12    0    1
 -2       117       119       118
 -1        46   12    0    1
 -2       119         4       120
 -1        47   12    0    1
 -2         3       122       121
 -1        48   12    0    1
 -2       122       124       123
 -1        49   12    0    1
 -2       124        10       125
 -1        50   12    0    1
 -2         3       127       126
 -1        51   12    0    1
 -2       127       129       128
 -1        52   12    0    1
 -2       129       131       130
 -1        53   12    0    1
 -2       131       133       132
 -1        54   12    0    1
 -2       133       135       134
 -1        55   12    0    1
 -2       135       137       136
 -1        56   12    0    1
 -2       137       139       138
 -1        57   12    0    1
 -2       139        11       140
 -1        58   12    0    1
 -2         4       142       141
 -1        59   12    0    1
 -2       142       144       143
 -1        60   12    0    1
 -2       144       146       145
 -1        61   12    0    1
 -2       146       148       147
 -1        62   12    0    1
 -2       148       150       149
 -1        63   12    0    1
 -2       150       152       151
 -1        64   12    0    1
 -2       152       154       153
 -1        65   12    0    1
 -2       154         5       155
 -1        66   12    0    1
 -2         4       157       156
 -1        67   12    0    1
 -2       157       159       158
 -1        68   12    0    1
 -2       159        11       160
 -1        69   12    0    1
 -2         4       162       161
 -1        70   12    0    1
 -2       162       164       163
 -1        71   12    0    1
 -2       164       166       165
 -1        72   12    0    1
 -2       166       168       167
 -1        73   12    0    1
 -2       168       170       169
 -1        74   12    0    1
 -2       170       172       171
 -1        75   12    0    1
 -2       172       174       173
 -1        76   12    0    1
 -2       174        12       175
 -1        77   12    0    1
 -2         5       192       191
 -1        78   12    0    1
 -2       192       194       193
 -1        79   12    0    1
 -2       194        12       195
 -1        80   12    0    1
 -2         8       252       251
 -1        81   12    0    1
 -2       252       254       253
 -1        82   12    0    1
 -2       254       256       255
 -1        83   12    0    1
 -2       256       258       257
 -1        84   12    0    1
 -2       258       260       259
 -1        85   12    0    1
 -2       260       262       261
 -1        86   12    0    1
 -2       262       264       263
 -1        87   12    0    1
 -2       264         9       265
 -1        88   12    0    1
 -2         8       267       266
 -1        89   12    0    1
 -2       267       269       268
 -1        90   12    0    1
 -2       269        15       270
 -1        91   12    0    1
 -2         8       272       271
 -1        92   12    0    1
 -2       272       274       273
 -1        93   12    0    1
 -2       274       276       275
 -1        94   12    0    1
 -2       276       278       277
 -1        95   12    0    1
 -2       278       280       279
 -1        96   12    0    1
 -2       280       282       281
 -1        97   12    0    1
 -2       282       284       283
 -1        98   12    0    1
 -2       284        16       285
 -1        99   12    0    1
 -2         9       287       286
 -1       100   12    0    1
 -2       287       289       288
 -1       101   12    0    1
 -2       289       291       290
 -1       102   12    0    1
 -2       291       293       292
 -1       103   12    0    1
 -2       293       295       294
 -1       104   12    0    1
 -2       295       297       296
 -1       105   12    0    1
 -2       297       299       298
 -1       106   12    0    1
 -2       299        10       300
 -1       107   12    0    1
 -2         9       302       301
 -1       108   12    0    1
 -2       302       304       303
 -1       109   12    0    1
 -2       304        16       305
 -1       110   12    0    1
 -2         9       307       306
 -1       111   12    0    1
 -2       307       309       308
 -1       112   12    0    1
 -2       309       311       310
 -1       113   12    0    1
 -2       311       313       312
 -1       114   12    0    1
 -2       313       315       314
 -1       115   12    0    1
 -2       315       317       316
 -1       116   12    0    1
 -2       317       319       318
 -1       117   12    0    1
 -2       319        17       320
 -1       118   12    0    1
 -2        10       322       321
 -1       119   12    0    1
 -2       322       324       323
 -1       120   12    0    1
 -2       324       326       325
 -1       121   12    0    1
 -2       326       328       327
 -1       122   12    0    1
 -2       328       330       329
 -1       123   12    0    1
 -2       330       332       331
 -1       124   12    0    1
 -2       332       334       333
 -1       125   12    0    1
 -2       334        11       335
 -1       126   12    0    1
 -2        10       337       336
 -1       127   12    0    1
 -2       337       339       338
 -1       128   12    0    1
 -2       339        17       340
 -1       129   12    0    1
 -2        10       342       341
 -1       130   12    0    1
 -2       342       344       343
 -1       131   12    0    1
 -2       344       346       345
 -1       132   12    0    1
 -2       346       348       347
 -1       133   12    0    1
 -2       348       350       349
 -1       134   12    0    1
 -2       350       352       351
 -1       135   12    0    1
 -2       352       354       353
 -1       136   12    0    1
 -2       354        18       355
 -1       137   12    0    1
 -2        11       357       356
 -1       138   12    0    1
 -2       357       359       358
 -1       139   12    0    1
 -2       359       361       360
 -1       140   12    0    1
 -2       361       363       362
 -1       141   12    0    1
 -2       363       365       364
 -1       142   12    0    1
 -2       365       367       366
 -1       143   12    0    1
 -2       367       369       368
 -1       144   12    0    1
 -2       369        12       370
 -1       145   12    0    1
 -2        11       372       371
 -1       146   12    0    1
 -2       372       374       373
 -1       147   12    0    1
 -2       374        18       375
 -1       148   12    0    1
 -2        11       377       376
 -1       149   12    0    1
 -2       377       379       378
 -1       150   12    0    1
 -2       379       381       380
 -1       151   12    0    1
 -2       381       383       382
 -1       152   12    0    1
 -2       383       385       384
 -1       153   12    0    1
 -2       385       387       386
 -1       154   12    0    1
 -2       387       389       388
 -1       155   12    0    1
 -2       389        19       390
 -1       156   12    0    1
 -2        12       407       406
 -1       157   12    0    1
 -2       407       409       408
 -1       158   12    0    1
 -2       409        19       410
 -1       159   12    0    1
 -2        15       467       466
 -1       160   12    0    1
 -2       467       469       468
 -1       161   12    0    1
 -2       469       471       470
 -1       162   12    0    1
 -2       471       473       472
 -1       163   12    0    1
 -2       473       475       474
 -1       164   12    0    1
 -2       475       477       476
 -1       165   12    0    1
 -2       477       479       478
 -1       166   12    0    1
 -2       479        16       480
 -1       167   12    0    1
 -2        15       482       481
 -1       168   12    0    1
 -2       482       484       483
 -1       169   12    0    1
 -2       484        22       485
 -1       170   12    0    1
 -2        15       487       486
 -1       171   12    0    1
 -2       487       489       488
 -1       172   12    0    1
 -2       489       491       490
 -1       173   12    0    1
 -2       491       493       492
 -1       174   12    0    1
 -2       493       495       494
 -1       175   12    0    1
 -2       495       497       496
 -1       176   12    0    1
 -2       497       499       498
 -1       177   12    0    1
 -2       499        23       500
 -1       178   12    0    1
 -2        16       502       501
 -1       179   12    0    1
 -2       502       504       503
 -1       180   12    0    1
 -2       504       506       505
 -1       181   12    0    1
 -2       506       508       507
 -1       182   12    0    1
 -2       508       510       509
 -1       183   12    0    1
 -2       510       512       511
 -1       184   12    0    1
 -2       512       514       513
 -1       185   12    0    1
 -2       514        17       515
 -1       186   12    0    1
 -2        16       517       516
 -1       187   12    0    1
 -2       517       519       518
 -1       188   12    0    1
 -2       519        23       520
 -1       189   12    0    1
 -2        16       522       521
 -1       190   12    0    1
 -2       522       524       523
 -1       191   12    0    1
 -2       524       526       525
 -1       192   12    0    1
 -2       526       528       527
 -1       193   12    0    1
 -2       528       530       529
 -1       194   12    0    1
 -2       530       532       531
 -1       195   12    0    1
 -2       532       534       533
 -1       196   12    0    1
 -2       534        24       535
 -1       197   12    0    1
 -2        17       537       536
 -1       198   12    0    1
 -2       537       539       538
 -1       199   12    0    1
 -2       539       541       540
 -1       200   12    0    1
 -2       541       543       542
 -1       201   12    0    1
 -2       543       545       544
 -1       202   12    0    1
 -2       545       547       546
 -1       203   12    0    1
 -2       547       549       548
 -1       204   12    0    1
 -2       549        18       550
 -1       205   12    0    1
 -2        17       552       551
 -1       206   12    0    1
 -2       552       554       553
 -1       207   12    0    1
 -2       554        24       555
 -1       208   12    0    1
 -2        17       557       556
 -1       209   12    0    1
 -2       557       559       558
 -1       210   12    0    1
 -2       559       561       560
 -1       211   12    0    1
 -2       561       563       562
 -1       212   12    0    1
 -2       563       565       564
 -1       213   12    0    1
 -2       565       567       566
 -1       214   12    0    1
 -2       567       569       568
 -1       215   12    0    1
 -2       569        25       570
 -1       216   12    0    1
 -2        18       572       571
 -1       217   12    0    1
 -2       572       574       573
 -1       218   12    0    1
 -2       574       576       575
 -1       219   12    0    1
 -2       576       578       577
 -1       220   12    0    1
 -2       578       580       579
 -1       221   12    0    1
 -2       580       582       581
 -1       222   12    0    1
 -2       582       584       583
 -1       223   12    0    1
 -2       584        19       585
 -1       224   12    0    1
 -2        18       587       586
 -1       225   12    0    1
 -2       587       589       588
 -1       226   12    0    1
 -2       589        25       590
 -1       227   12    0    1
 -2        18       592       591
 -1       228   12    0    1
 -2       592       594       593
 -1       229   12    0    1
 -2       594       596       595
 -1       230   12    0    1
 -2       596       598       597
 -1       231   12    0    1
 -2       598       600       599
 -1       232   12    0    1
 -2       600       602       601
 -1       233   12    0    1
 -2       602       604       603
 -1       234   12    0    1
 -2       604        26       605
 -1       235   12    0    1
 -2        19       607       606
 -1       236   12    0    1
 -2       607       609       608
 -1       237   12    0    1
 -2       609       611       610
 -1       238   12    0    1
 -2       611       613       612
 -1       239   12    0    1
 -2       613       615       614
 -1       240   12    0    1
 -2       615       617       616
 -1       241   12    0    1
 -2       617       619       618
 -1       242   12    0    1
 -2       619        20       620
 -1       243   12    0    1
 -2        19       622       621
 -1       244   12    0    1
 -2       622       624       623
 -1       245   12    0    1
 -2       624        26       625
 -1       246   12    0    1
 -2        19       627       626
 -1       247   12    0    1
 -2       627       629       628
 -1       248   12    0    1
 -2       629       631       630
 -1       249   12    0    1
 -2       631       633       632
 -1       250   12    0    1
 -2       633       635       634
 -1       251   12    0    1
 -2       635       637       636
 -1       252   12    0    1
 -2       637       639       638
 -1       253   12    0    1
 -2       639        27       640
 -1       254   12    0    1
 -2        20       642       641
 -1       255   12    0    1
 -2       642       644       643
 -1       256   12    0    1
 -2       644       646       645
 -1       257   12    0    1
 -2       646       648       647
 -1       258   12    0    1
 -2       648       650       649
 -1       259   12    0    1
 -2       650       652       651
 -1       260   12    0    1
 -2       652       654       653
 -1       261   12    0    1
 -2       654        21       655
 -1       262   12    0    1
 -2        20       657       656
 -1       263   12    0    1
 -2       657       659       658
 -1       264   12    0    1
 -2       659        27       660
 -1       265   12    0    1
 -2        20       662       661
 -1       266   12    0    1
 -2       662       664       663
 -1       267   12    0    1
 -2       664       666       665
 -1       268   12    0    1
 -2       666       668       667
 -1       269   12    0    1
 -2       668       670       669
 -1       270   12    0    1
 -2       670       672       671
 -1       271   12    0    1
 -2       672       674       673
 -1       272   12    0    1
 -2       674        28       675
 -1       273   12    0    1
 -2        21       677       676
 -1       274   12    0    1
 -2       677       679       678
 -1       275   12    0    1
 -2       679        28       680
 -1       276   12    0    1
 -2        22       682       681
 -1       277   12    0    1
 -2       682       684       683
 -1       278   12    0    1
 -2       684       686       685
 -1       279   12    0    1
 -2       686       688       687
 -1       280   12    0    1
 -2       688       690       689
 -1       281   12    0    1
 -2       690       692       691
 -1       282   12    0    1
 -2       692       694       693
 -1       283   12    0    1
 -2       694        23       695
 -1       284   12    0    1
 -2        22       697       696
 -1       285   12    0    1
 -2       697       699       698
 -1       286   12    0    1
 -2       699        29       700
 -1       287   12    0    1
 -2        22       702       701
 -1       288   12    0    1
 -2       702       704       703
 -1       289   12    0    1
 -2       704       706       705
 -1       290   12    0    1
 -2       706       708       707
 -1       291   12    0    1
 -2       708       710       709
 -1       292   12    0    1
 -2       710       712       711
 -1       293   12    0    1
 -2       712       714       713
 -1       294   12    0    1
 -2       714        30       715
 -1       295   12    0    1
 -2        23       717       716
 -1       296   12    0    1
 -2       717       719       718
 -1       297   12    0    1
 -2       719       721       720
 -1       298   12    0    1
 -2       721       723       722
 -1       299   12    0    1
 -2       723       725       724
 -1       300   12    0    1
 -2       725       727       726
 -1       301   12    0    1
 -2       727       729       728
 -1       302   12    0    1
 -2       729        24       730
 -1       303   12    0    1
 -2        23       732       731
 -1       304   12    0    1
 -2       732       734       733
 -1       305   12    0    1
 -2       734        30       735
 -1       306   12    0    1
 -2        23       737       736
 -1       307   12    0    1
 -2       737       739       738
 -1       308   12    0    1
 -2       739       741       740
 -1       309   12    0    1
 -2       741       743       742
 -1       310   12    0    1
 -2       743       745       744
 -1       311   12    0    1
 -2       745       747       746
 -1       312   12    0    1
 -2       747       749       748
 -1       313   12    0    1
 -2       749        31       750
 -1       314   12    0    1
 -2        24       752       751
 -1       315   12    0    1
 -2       752       754       753
 -1       316   12    0    1
 -2       754       756       755
 -1       317   12    0    1
 -2       756       758       757
 -1       318   12    0    1
 -2       758       760       759
 -1       319   12    0    1
 -2       760       762       761
 -1       320   12    0    1
 -2       762       764       763
 -1       321   12    0    1
 -2       764        25       765
 -1       322   12    0    1
 -2        24       767       766
 -1       323   12    0    1
 -2       767       769       768
 -1       324   12    0    1
 -2       769        31       770
 -1       325   12    0    1
 -2        24       772       771
 -1       326   12    0    1
 -2       772       774       773
 -1       327   12    0    1
 -2       774       776       775
 -1       328   12    0    1
 -2       776       778       777
 -1       329   12    0    1
 -2       778       780       779
 -1       330   12    0    1
 -2       780       782       781
 -1       331   12    0    1
 -2       782       784       783
 -1       332   12    0    1
 -2       784        32       785
 -1       333   12    0    1
 -2        25       787       786
 -1       334   12    0    1
 -2       787       789       788
 -1       335   12    0    1
 -2       789       791       790
 -1       336   12    0    1
 -2       791       793       792
 -1       337   12    0    1
 -2       793       795       794
 -1       338   12    0    1
 -2       795       797       796
 -1       339   12    0    1
 -2       797       799       798
 -1       340   12    0    1
 -2       799        26       800
 -1       341   12    0    1
 -2        25       802       801
 -1       342   12    0    1
 -2       802       804       803
 -1       343   12    0    1
 -2       804        32       805
 -1       344   12    0    1
 -2        25       807       806
 -1       345   12    0    1
 -2       807       809       808
 -1       346   12    0    1
 -2       809       811       810
 -1       347   12    0    1
 -2       811       813       812
 -1       348   12    0    1
 -2       813       815       814
 -1       349   12    0    1
 -2       815       817       816
 -1       350   12    0    1
 -2       817       819       818
 -1       351   12    0    1
 -2       819        33       820
 -1       352   12    0    1
 -2        26       822       821
 -1       353   12    0    1
 -2       822       824       823
 -1       354   12    0    1
 -2       824       826       825
 -1       355   12    0    1
 -2       826       828       827
 -1       356   12    0    1
 -2       828       830       829
 -1       357   12    0    1
 -2       830       832       831
 -1       358   12    0    1
 -2       832       834       833
 -1       359   12    0    1
 -2       834        27       835
 -1       360   12    0    1
 -2        26       837       836
 -1       361   12    0    1
 -2       837       839       838
 -1       362   12    0    1
 -2       839        33       840
 -1       363   12    0    1
 -2        26       842       841
 -1       364   12    0    1
 -2       842       844       843
 -1       365   12    0    1
 -2       844       846       845
 -1       366   12    0    1
 -2       846       848       847
 -1       367   12    0    1
 -2       848       850       849
 -1       368   12    0    1
 -2       850       852       851
 -1       369   12    0    1
 -2       852       854       853
 -1       370   12    0    1
 -2       854        34       855
 -1       371   12    0    1
 -2        27       857       856
 -1       372   12    0    1
 -2       857       859       858
 -1       373   12    0    1
 -2       859       861       860
 -1       374   12    0    1
 -2       861       863       862
 -1       375   12    0    1
 -2       863       865       864
 -1       376   12    0    1
 -2       865       867       866
 -1       377   12    0    1
 -2       867       869       868
 -1       378   12    0    1
 -2       869        28       870
 -1       379   12    0    1
 -2        27       872       871
 -1       380   12    0    1
 -2       872       874       873
 -1       381   12    0    1
 -2       874        34       875
 -1       382   12    0    1
 -2        27       877       876
 -1       383   12    0    1
 -2       877       879       878
 -1       384   12    0    1
 -2       879       881       880
 -1       385   12    0    1
 -2       881       883       882
 -1       386   12    0    1
 -2       883       885       884
 -1       387   12    0    1
 -2       885       887       886
 -1       388   12    0    1
 -2       887       889       888
 -1       389   12    0    1
 -2       889        35       890
 -1       390   12    0    1
 -2        28       892       891
 -1       391   12    0    1
 -2       892       894       893
 -1       392   12    0    1
 -2       894        35       895
 -1       393   12    0    1
 -2        29       897       896
 -1       394   12    0    1
 -2       897       899       898
 -1       395   12    0    1
 -2       899       901       900
 -1       396   12    0    1
 -2       901       903       902
 -1       397   12    0    1
 -2       903       905       904
 -1       398   12    0    1
 -2       905       907       906
 -1       399   12    0    1
 -2       907       909       908
 -1       400   12    0    1
 -2       909        30       910
 -1       401   12    0    1
 -2        30       912       911
 -1       402   12    0    1
 -2       912       914       913
 -1       403   12    0    1
 -2       914       916       915
 -1       404   12    0    1
 -2       916       918       917
 -1       405   12    0    1
 -2       918       920       919
 -1       406   12    0    1
 -2       920       922       921
 -1       407   12    0    1
 -2       922       924       923
 -1       408   12    0    1
 -2       924        31       925
 -1       409   12    0    1
 -2        31       927       926
 -1       410   12    0    1
 -2       927       929       928
 -1       411   12    0    1
 -2       929       931       930
 -1       412   12    0    1
 -2       931       933       932
 -1       413   12    0    1
 -2       933       935       934
 -1       414   12    0    1
 -2       935       937       936
 -1       415   12    0    1
 -2       937       939       938
 -1       416   12    0    1
 -2       939        32       940
 -1       417   12    0    1
 -2        32       942       941
 -1       418   12    0    1
 -2       942       944       943
 -1       419   12    0    1
 -2       944       946       945
 -1       420   12    0    1
 -2       946       948       947
 -1       421   12    0    1
 -2       948       950       949
 -1       422   12    0    1
 -2       950       952       951
 -1       423   12    0    1
 -2       952       954       953
 -1       424   12    0    1
 -2       954        33       955
 -1       425   12    0    1
 -2        33       957       956
 -1       426   12    0    1
 -2       957       959       958
 -1       427   12    0    1
 -2       959       961       960
 -1       428   12    0    1
 -2       961       963       962
 -1       429   12    0    1
 -2       963       965       964
 -1       430   12    0    1
 -2       965       967       966
 -1       431   12    0    1
 -2       967       969       968
 -1       432   12    0    1
 -2       969        34       970
 -1       433   12    0    1
 -2        34       972       971
 -1       434   12    0    1
 -2       972       974       973
 -1       435   12    0    1
 -2       974       976       975
 -1       436   12    0    1
 -2       976       978       977
 -1       437   12    0    1
 -2       978       980       979
 -1       438   12    0    1
 -2       980       982       981
 -1       439   12    0    1
 -2       982       984       983
 -1       440   12    0    1
 -2       984        35       985
 -3
    1PSTEP                         1           1           1          
  100CL  101 1.000000000         841                     0    1           1
 -4  DISP        4    1
 -5  D1          1    2    1    0
 -5  D2          1    2    2    0
 -5  D3          1    2    3    0
 -5  ALL         1    2    0    0    1ALL
 -1         1 5.50612E-05 0.00000E+00 0.00000E+00
 -1         2 4.47425E-05 0.00000E+00 0.00000E+00
 -1         3 4.14813E-05 0.00000E+00 0.00000E+00
 -1         4 4.10204E-05 0.00000E+00 0.00000E+00
 -1         5 4.09142E-05 0.00000E+00 0.00000E+00
 -1         8 3.37445E-05-1.62748E-06 0.00000E+00
 -1         9 3.72955E-05 1.07624E-06 0.00000E+00
 -1        10 3.74882E-05 1.40258E-07 0.00000E+00
 -1        11 3.87134E-05 1.34373E-07 0.00000E+00
 -1        12 3.96315E-05 3.50309E-06 0.00000E+00
 -1        15 1.82190E-05-1.86432E-06 0.00000E+00
 -1        16 2.27392E-05 1.39763E-06 0.00000E+00
 -1        17 2.63484E-05 2.67578E-07 0.00000E+00
 -1        18 3.03715E-05 1.02155E-07 0.00000E+00
 -1        19 3.48995E-05 6.97233E-06 0.00000E+00
 -1        20 3.65621E-05 6.29278E-05 0.00000E+00
 -1        21 3.65278E-05 1.19360E-04 0.00000E+00
 -1        22 8.56091E-06-1.18646E-06 0.00000E+00
 -1        23 1.10128E-05 1.76042E-06 0.00000E+00
 -1        24 1.29929E-05 3.28935E-07 0.00000E+00
 -1        25 1.70844E-05 1.36517E-07 0.00000E+00
 -1        26 2.06480E-05 9.36538E-06 0.00000E+00
 -1        27 1.81676E-05 6.22986E-05 0.00000E+00
 -1        28 1.71174E-05 1.18792E-04 0.00000E+00
 -1        29 0.00000E+00 0.00000E+00 0.00000E+00
 -1        30 4.28950E-06 2.16727E-06 0.00000E+00
 -1        31 5.19055E-06 9.92770E-07 0.00000E+00
 -1        32 0.00000E+00 0.00000E+00 0.00000E+00
 -1        33 4.78360E-06 1.07519E-05 0.00000E+00
 -1        34 1.42111E-06 6.20945E-05 0.00000E+00
 -1        35-8.45233E-07 1.18460E-04 0.00000E+00
 -1        36 5.44166E-05 1.53525E-21 2.64698E-23
 -1        37 5.37700E-05 3.07049E-21 0.00000E+00
 -1        38 5.31232E-05 3.77194E-21 0.00000E+00
 -1        39 5.24762E-05 2.28302E-21 0.00000E+00
 -1        40 5.18292E-05-4.08296E-21 2.64698E-23
 -1        41 5.11821E-05-1.38371E-20 0.00000E+00
 -1        42 5.05350E-05-1.84958E-20 0.00000E+00
 -1        43 4.98879E-05-2.36640E-20-1.32349E-23
 -1        44 4.92409E-05-2.60330E-20 2.64698E-23
 -1        45 4.85939E-05-2.82830E-20 1.32349E-23
 -1        46 4.79471E-05-2.23074E-20-2.64698E-23
 -1        47 4.73006E-05-1.38371E-20 0.00000E+00
 -1        48 4.66547E-05-1.04357E-20 0.00000E+00
 -1        49 4.60107E-05-8.43724E-21 0.00000E+00
 -1        50 4.53682E-05-4.02341E-21 1.32349E-23
 -1        51 5.35132E-05-2.84030E-07 3.30872E-24
 -1        52 5.05271E-05-5.54619E-07 8.27181E-25
 -1        53 4.65763E-05-8.25441E-07 0.00000E+00
 -1        54 4.21421E-05-1.09562E-06 3.30872E-24
 -1        55 3.77055E-05-1.36470E-06 0.00000E+00
 -1        56 5.41253E-05-3.55137E-07-2.64698E-23
 -1        57 5.31676E-05-6.99912E-07 1.32349E-23
 -1        58 5.21993E-05-1.01977E-06 2.64698E-23
 -1        59 5.12164E-05-1.30591E-06 0.00000E+00
 -1        60 5.02168E-05-1.54891E-06 0.00000E+00
 -1        61 4.91973E-05-1.73988E-06 0.00000E+00
 -1        62 4.81550E-05-1.87000E-06 0.00000E+00
 -1        63 4.70865E-05-1.93069E-06 1.32349E-23
 -1        64 4.59888E-05-1.91347E-06 0.00000E+00
 -1        65 4.48589E-05-1.81009E-06 0.00000E+00
 -1        66 4.36939E-05-1.61240E-06-2.64698E-23
 -1        67 4.24911E-05-1.31245E-06-1.32349E-23
 -1        68 4.12482E-05-9.02455E-07 2.64698E-23
 -1        69 3.99650E-05-3.74086E-07 0.00000E+00
 -1        70 3.86376E-05 2.79360E-07-1.32349E-23
 -1        71 4.45349E-05 3.52875E-21 0.00000E+00
 -1        72 4.43301E-05 5.90442E-21 3.30872E-24
 -1        73 4.41255E-05 3.23428E-21 0.00000E+00
 -1        74 4.39212E-05 1.63285E-21 3.30872E-24
 -1        75 4.37170E-05-2.02328E-21-6.61744E-24
 -1        76 4.35128E-05-5.14837E-21 3.30872E-24
 -1        77 4.33087E-05-6.87553E-21 6.61744E-24
 -1        78 4.31046E-05-5.66453E-21 0.00000E+00
 -1        79 4.29005E-05-5.43789E-21 0.00000E+00
 -1        80 4.26965E-05-5.27079E-21-3.30872E-24
 -1        81 4.24925E-05-4.65206E-21-6.61744E-24
 -1        82 4.22886E-05-3.22600E-21-3.30872E-24
 -1        83 4.20849E-05 3.24255E-22-6.61744E-24
 -1        84 4.18817E-05 7.39499E-22-3.30872E-24
 -1        85 4.16790E-05 5.98879E-22-3.30872E-24
 -1        86 4.42652E-05 1.65312E-07 0.00000E+00
 -1        87 4.32768E-05 3.50031E-07 1.65436E-24
 -1        88 4.19306E-05 5.35725E-07-3.30872E-24
 -1        89 4.03817E-05 7.21623E-07 1.65436E-24
 -1        90 3.87853E-05 9.06689E-07 0.00000E+00
 -1        91 4.43604E-05-1.65614E-07 0.00000E+00
 -1        92 4.39788E-05-3.50227E-07 6.61744E-24
 -1        93 4.35999E-05-5.43210E-07 0.00000E+00
 -1        94 4.32201E-05-7.35930E-07-6.61744E-24
 -1        95 4.28368E-05-9.19513E-07 0.00000E+00
 -1        96 4.24466E-05-1.08524E-06 0.00000E+00
 -1        97 4.20465E-05-1.22440E-06 1.32349E-23
 -1        98 4.16331E-05-1.32834E-06 6.61744E-24
 -1        99 4.12033E-05-1.38842E-06 0.00000E+00
 -1       100 4.07538E-05-1.39605E-06 0.00000E+00
 -1       101 4.02816E-05-1.34269E-06 0.00000E+00
 -1       102 3.97835E-05-1.21980E-06 0.00000E+00
 -1       103 3.92566E-05-1.01893E-06 0.00000E+00
 -1       104 3.86987E-05-7.31389E-07 6.61744E-24
 -1       105 3.81063E-05-3.49068E-07-6.61744E-24
 -1       106 4.14493E-05 1.40269E-21-1.65436E-24
 -1       107 4.14199E-05 4.69011E-22 8.27181E-25
 -1       108 4.13908E-05-1.04866E-21 0.00000E+00
 -1       109 4.13620E-05-5.29023E-21 0.00000E+00
 -1       110 4.13333E-05-7.42333E-21-8.27181E-25
 -1       111 4.13046E-05-9.40091E-21 0.00000E+00
 -1       112 4.12760E-05-3.27750E-21 8.27181E-25
 -1       113 4.12473E-05-6.61744E-22 0.00000E+00
 -1       114 4.12187E-05 1.15330E-21 8.27181E-25
 -1       115 4.11901E-05 3.14060E-21 4.13590E-25
 -1       116 4.11615E-05 1.73460E-21 0.00000E+00
 -1       117 4.11329E-05-7.37432E-22-4.13590E-25
 -1       118 4.11044E-05-3.21525E-21 0.00000E+00
 -1       119 4.10760E-05-3.75230E-21 0.00000E+00
 -1       120 4.10476E-05-1.27820E-21 4.13590E-25
 -1       121 4.12347E-05 2.03639E-08 0.00000E+00
 -1       122 4.07172E-05 4.56244E-08 0.00000E+00
 -1       123 4.00058E-05 7.10552E-08 0.00000E+00
 -1       124 3.91786E-05 9.63186E-08 7.75482E-26
 -1       125 3.83135E-05 1.21188E-07-1.65436E-24
 -1       126 4.13443E-05-8.03671E-08-3.30872E-24
 -1       127 4.12153E-05-1.90246E-07 0.00000E+00
 -1       128 4.10936E-05-3.20135E-07-3.30872E-24
 -1       129 4.09758E-05-4.61364E-07 0.00000E+00
 -1       130 4.08589E-05-6.05150E-07 0.00000E+00
 -1       131 4.07396E-05-7.42773E-07 0.00000E+00
 -1       132 4.06147E-05-8.65519E-07 0.00000E+00
 -1       133 4.04810E-05-9.64685E-07-1.65436E-24
 -1       134 4.03352E-05-1.03157E-06 0.00000E+00
 -1       135 4.01740E-05-1.05750E-06-1.65436E-24
 -1       136 3.99943E-05-1.03379E-06 0.00000E+00
 -1       137 3.97928E-05-9.51767E-07 0.00000E+00
 -1       138 3.95664E-05-8.02787E-07 3.30872E-24
 -1       139 3.93123E-05-5.78082E-07 0.00000E+00
 -1       140 3.90272E-05-2.69146E-07-1.65436E-24
 -1       141 4.10122E-05-6.54610E-22 0.00000E+00
 -1       142 4.10040E-05-2.42281E-21 0.00000E+00
 -1       143 4.09957E-05-4.97859E-22 2.06795E-25
 -1       144 4.09874E-05 1.18876E-21-1.03398E-25
 -1       145 4.09791E-05-2.34196E-22 0.00000E+00
 -1       146 4.09708E-05-1.44219E-21 0.00000E+00
 -1       147 4.09625E-05-4.05308E-21-2.06795E-25
 -1       148 4.09542E-05-2.62671E-21-1.03398E-25
 -1       149 4.09459E-05 2.72039E-22 0.00000E+00
 -1       150 4.09378E-05 1.12083E-22 5.16988E-26
 -1       151 4.09297E-05-1.36588E-21 0.00000E+00
 -1       152 4.09220E-05 1.78878E-23 0.00000E+00
 -1       153 4.09147E-05 3.61023E-21-8.27181E-25
 -1       154 4.09090E-05 3.04682E-21-8.27181E-25
 -1       155 4.09046E-05 1.20024E-21 3.30872E-24
 -1       156 4.09020E-05 2.17114E-08 0.00000E+00
 -1       157 4.06360E-05 4.46058E-08 0.00000E+00
 -1       158 4.02529E-05 6.75301E-08 0.00000E+00
 -1       159 3.97840E-05 9.03915E-08 0.00000E+00
 -1       160 3.92604E-05 1.13133E-07 0.00000E+00
 -1       161 4.10061E-05 2.07731E-08 1.03398E-25
 -1       162 4.09772E-05 8.04574E-08-5.16988E-26
 -1       163 4.09347E-05 1.76479E-07 2.06795E-25
 -1       164 4.08795E-05 3.06112E-07 1.03398E-25
 -1       165 4.08128E-05 4.66641E-07-5.16988E-26
 -1       166 4.07355E-05 6.55349E-07 7.75482E-26
 -1       167 4.06486E-05 8.69515E-07 6.46235E-26
 -1       168 4.05533E-05 1.10642E-06 1.03398E-25
 -1       169 4.04504E-05 1.36335E-06 2.58494E-26
 -1       170 4.03411E-05 1.63758E-06 0.00000E+00
 -1       171 4.02265E-05 1.92643E-06 0.00000E+00
 -1       172 4.01077E-05 2.22722E-06-2.06795E-25
 -1       173 3.99859E-05 2.53730E-06-8.27181E-25
 -1       174 3.98632E-05 2.85436E-06 8.27181E-25
 -1       175 3.97402E-05 3.17551E-06 0.00000E+00
 -1       191 4.08540E-05 5.75332E-07 0.00000E+00
 -1       192 4.07162E-05 1.16269E-06 0.00000E+00
 -1       193 4.05128E-05 1.75109E-06-1.32349E-23
 -1       194 4.02561E-05 2.33955E-06 0.00000E+00
 -1       195 3.99582E-05 2.92703E-06 0.00000E+00
 -1       251 3.39462E-05 7.96452E-07 0.00000E+00
 -1       252 3.41663E-05 2.52808E-06-1.24077E-24
 -1       253 3.43889E-05 3.64996E-06 3.30872E-24
 -1       254 3.46138E-05 4.24683E-06 1.65436E-24
 -1       255 3.48396E-05 4.40307E-06 0.00000E+00
 -1       256 3.50658E-05 4.20296E-06-3.30872E-24
 -1       257 3.52921E-05 3.73064E-06 6.61744E-24
 -1       258 3.55183E-05 3.07009E-06 0.00000E+00
 -1       259 3.57445E-05 2.30522E-06 0.00000E+00
 -1       260 3.59707E-05 1.51991E-06 3.30872E-24
 -1       261 3.61967E-05 7.98003E-07-6.61744E-24
 -1       262 3.64224E-05 2.23377E-07-3.30872E-24
 -1       263 3.66475E-05-1.20021E-07-6.61744E-24
 -1       264 3.68707E-05-1.48210E-07-3.30872E-24
 -1       265 3.70922E-05 2.23011E-07 0.00000E+00
 -1       266 3.07255E-05-1.67383E-06-3.30872E-24
 -1       267 2.77428E-05-1.71457E-06 0.00000E+00
 -1       268 2.48985E-05-1.75437E-06-3.30872E-24
 -1       269 2.22951E-05-1.79274E-06 1.65436E-24
 -1       270 2.00351E-05-1.82998E-06 0.00000E+00
 -1       271 3.22875E-05 6.55878E-07 0.00000E+00
 -1       272 3.10511E-05 2.30342E-06-6.61744E-24
 -1       273 3.00236E-05 3.39274E-06 0.00000E+00
 -1       274 2.91760E-05 3.99851E-06-1.32349E-23
 -1       275 2.84811E-05 4.19646E-06 0.00000E+00
 -1       276 2.79104E-05 4.06270E-06 0.00000E+00
 -1       277 2.74353E-05 3.67366E-06 0.00000E+00
 -1       278 2.70270E-05 3.10618E-06 0.00000E+00
 -1       279 2.66567E-05 2.43725E-06 1.32349E-23
 -1       280 2.62956E-05 1.74407E-06 0.00000E+00
 -1       281 2.59148E-05 1.10386E-06 1.32349E-23
 -1       282 2.54856E-05 5.93772E-07 0.00000E+00
 -1       283 2.49795E-05 2.90861E-07 1.32349E-23
 -1       284 2.43693E-05 2.72272E-07 6.61744E-24
 -1       285 2.36254E-05 6.14104E-07-6.61744E-24
 -1       286 3.72980E-05 2.05240E-06 0.00000E+00
 -1       287 3.73092E-05 2.68061E-06 0.00000E+00
 -1       288 3.73214E-05 3.00485E-06 0.00000E+00
 -1       289 3.73345E-05 3.07038E-06 0.00000E+00
 -1       290 3.73479E-05 2.92241E-06 0.00000E+00
 -1       291 3.73615E-05 2.60617E-06 0.00000E+00
 -1       292 3.73751E-05 2.16691E-06 2.06795E-25
 -1       293 3.73888E-05 1.64986E-06 5.16988E-26
 -1       294 3.74024E-05 1.10026E-06 4.13590E-25
 -1       295 3.74160E-05 5.63350E-07 0.00000E+00
 -1       296 3.74296E-05 8.43563E-08 0.00000E+00
 -1       297 3.74431E-05-2.91480E-07 8.27181E-25
 -1       298 3.74565E-05-5.18917E-07 0.00000E+00
 -1       299 3.74692E-05-5.52768E-07 0.00000E+00
 -1       300 3.74815E-05-3.47770E-07 1.24077E-24
 -1       301 3.53456E-05 1.12209E-06 0.00000E+00
 -1       302 3.28509E-05 1.17743E-06 0.00000E+00
 -1       303 3.00758E-05 1.23328E-06 0.00000E+00
 -1       304 2.72878E-05 1.28958E-06 0.00000E+00
 -1       305 2.47540E-05 1.34606E-06 0.00000E+00
 -1       306 3.63236E-05 1.85158E-06 0.00000E+00
 -1       307 3.54514E-05 2.30214E-06 0.00000E+00
 -1       308 3.46809E-05 2.47756E-06-2.64698E-23
 -1       309 3.39947E-05 2.42214E-06 0.00000E+00
 -1       310 3.33774E-05 2.18116E-06 0.00000E+00
 -1       311 3.28124E-05 1.79981E-06-1.32349E-23
 -1       312 3.22828E-05 1.32347E-06 2.64698E-23
 -1       313 3.17718E-05 7.97590E-07-6.61744E-24
 -1       314 3.12622E-05 2.67727E-07-1.32349E-23
 -1       315 3.07371E-05-2.20569E-07 0.00000E+00
 -1       316 3.01796E-05-6.21813E-07-1.32349E-23
 -1       317 2.95729E-05-8.90601E-07 0.00000E+00
 -1       318 2.89003E-05-9.81685E-07 0.00000E+00
 -1       319 2.81467E-05-8.49636E-07 0.00000E+00
 -1       320 2.72945E-05-4.50138E-07 0.00000E+00
 -1       321 3.75556E-05 6.95901E-07 0.00000E+00
 -1       322 3.76313E-05 1.05201E-06-4.13590E-25
 -1       323 3.77078E-05 1.23491E-06 0.00000E+00
 -1       324 3.77852E-05 1.27166E-06-4.13590E-25
 -1       325 3.78629E-05 1.18925E-06 0.00000E+00
 -1       326 3.79408E-05 1.01468E-06 0.00000E+00
 -1       327 3.80187E-05 7.74924E-07 1.65436E-24
 -1       328 3.80967E-05 4.96969E-07 8.27181E-25
 -1       329 3.81747E-05 2.07784E-07-3.30872E-24
 -1       330 3.82527E-05-6.56650E-08-1.65436E-24
 -1       331 3.83306E-05-2.96406E-07 0.00000E+00
 -1       332 3.84085E-05-4.57459E-07-1.65436E-24
 -1       333 3.84863E-05-5.21839E-07 0.00000E+00
 -1       334 3.85636E-05-4.62572E-07-3.30872E-24
 -1       335 3.86405E-05-2.52631E-07 0.00000E+00
 -1       336 3.62022E-05 1.58222E-07-1.65436E-24
 -1       337 3.43847E-05 1.81376E-07 0.00000E+00
 -1       338 3.22621E-05 2.04406E-07 0.00000E+00
 -1       339 3.00630E-05 2.27297E-07 0.00000E+00
 -1       340 2.80162E-05 2.50096E-07 0.00000E+00
 -1       341 3.69031E-05 5.49651E-07 0.00000E+00
 -1       342 3.63819E-05 7.50701E-07 6.61744E-24
 -1       343 3.59245E-05 7.78862E-07 0.00000E+00
 -1       344 3.55185E-05 6.66028E-07 0.00000E+00
 -1       345 3.51527E-05 4.44672E-07 0.00000E+00
 -1       346 3.48153E-05 1.47114E-07 6.61744E-24
 -1       347 3.44942E-05-1.94277E-07 0.00000E+00
 -1       348 3.41773E-05-5.47107E-07 0.00000E+00
 -1       349 3.38526E-05-8.78970E-07 0.00000E+00
 -1       350 3.35080E-05-1.15750E-06 6.61744E-24
 -1       351 3.31313E-05-1.35035E-06 1.32349E-23
 -1       352 3.27108E-05-1.42524E-06 0.00000E+00
 -1       353 3.22344E-05-1.34998E-06-1.32349E-23
 -1       354 3.16915E-05-1.09218E-06 0.00000E+00
 -1       355 3.10694E-05-6.20223E-07 0.00000E+00
 -1       356 3.87659E-05 5.97015E-07 2.06795E-25
 -1       357 3.88214E-05 9.83226E-07 4.13590E-25
 -1       358 3.88771E-05 1.30198E-06 8.27181E-25
 -1       359 3.89332E-05 1.56251E-06 8.27181E-25
 -1       360 3.89894E-05 1.77403E-06-1.65436E-24
 -1       361 3.90457E-05 1.94578E-06 0.00000E+00
 -1       362 3.91021E-05 2.08698E-06 0.00000E+00
 -1       363 3.91584E-05 2.20683E-06-8.27181E-25
 -1       364 3.92148E-05 2.31456E-06-1.65436E-24
 -1       365 3.92713E-05 2.41939E-06 0.00000E+00
 -1       366 3.93279E-05 2.53052E-06-1.65436E-24
 -1       367 3.93847E-05 2.65717E-06-1.65436E-24
 -1       368 3.94419E-05 2.80855E-06 3.30872E-24
 -1       369 3.95005E-05 2.99388E-06 1.65436E-24
 -1       370 3.95601E-05 3.22239E-06 6.61744E-24
 -1       371 3.77888E-05 1.29484E-07 0.00000E+00
 -1       372 3.64764E-05 1.24570E-07 0.00000E+00
 -1       373 3.49266E-05 1.19378E-07 0.00000E+00
 -1       374 3.32914E-05 1.13972E-07 8.27181E-25
 -1       375 3.17228E-05 1.08549E-07 1.65436E-24
 -1       376 3.84958E-05 5.10800E-07 0.00000E+00
 -1       377 3.83291E-05 7.43820E-07 0.00000E+00
 -1       378 3.82037E-05 8.65856E-07 0.00000E+00
 -1       379 3.81077E-05 9.08990E-07 0.00000E+00
 -1       380 3.80291E-05 9.05387E-07 0.00000E+00
 -1       381 3.79560E-05 8.87182E-07 0.00000E+00
 -1       382 3.78762E-05 8.86513E-07-1.65436E-24
 -1       383 3.77778E-05 9.35508E-07 8.27181E-25
 -1       384 3.76488E-05 1.06629E-06 0.00000E+00
 -1       385 3.74770E-05 1.31096E-06-4.13590E-25
 -1       386 3.72506E-05 1.70163E-06 4.13590E-25
 -1       387 3.69576E-05 2.27038E-06 5.16988E-25
 -1       388 3.65861E-05 3.04930E-06 8.27181E-25
 -1       389 3.61253E-05 4.07072E-06 0.00000E+00
 -1       390 3.55624E-05 5.36643E-06 3.30872E-24
 -1       406 3.93611E-05 4.07473E-06 0.00000E+00
 -1       407 3.89687E-05 4.65749E-06-6.61744E-24
 -1       408 3.83901E-05 5.24101E-06 1.32349E-23
 -1       409 3.75616E-05 5.82403E-06-6.61744E-24
 -1       410 3.64190E-05 6.40541E-06 0.00000E+00
 -1       466 1.84887E-05-6.77264E-07 3.30872E-24
 -1       467 1.87709E-05 1.36291E-07-3.30872E-24
 -1       468 1.90545E-05 6.27589E-07 0.00000E+00
 -1       469 1.93395E-05 8.49011E-07 3.30872E-24
 -1       470 1.96250E-05 8.52745E-07 0.00000E+00
 -1       471 1.99107E-05 6.90890E-07-3.30872E-24
 -1       472 2.01966E-05 4.15466E-07 6.61744E-24
 -1       473 2.04824E-05 7.84181E-08-3.30872E-24
 -1       474 2.07683E-05-2.68347E-07-6.61744E-24
 -1       475 2.10541E-05-5.72919E-07 3.30872E-24
 -1       476 2.13398E-05-7.83370E-07 1.32349E-23
 -1       477 2.16251E-05-8.47714E-07 0.00000E+00
 -1       478 2.19099E-05-7.13888E-07 0.00000E+00
 -1       479 2.21928E-05-3.29759E-07 0.00000E+00
 -1       480 2.24741E-05 3.57007E-07 0.00000E+00
 -1       481 1.66082E-05-1.75532E-06 0.00000E+00
 -1       482 1.48949E-05-1.64185E-06 0.00000E+00
 -1       483 1.31560E-05-1.52805E-06 3.30872E-24
 -1       484 1.14692E-05-1.41384E-06-8.27181E-25
 -1       485 9.91191E-06-1.29945E-06 1.65436E-24
 -1       486 1.74404E-05-7.18148E-07-1.32349E-23
 -1       487 1.67546E-05 1.36713E-07-3.30872E-24
 -1       488 1.61624E-05 7.39237E-07 1.32349E-23
 -1       489 1.56502E-05 1.12437E-06-6.61744E-24
 -1       490 1.52057E-05 1.32776E-06-1.32349E-23
 -1       491 1.48158E-05 1.38487E-06 1.32349E-23
 -1       492 1.44673E-05 1.33130E-06 1.32349E-23
 -1       493 1.41469E-05 1.20268E-06 6.61744E-24
 -1       494 1.38413E-05 1.03471E-06-1.32349E-23
 -1       495 1.35370E-05 8.63104E-07 0.00000E+00
 -1       496 1.32209E-05 7.23599E-07 6.61744E-24
 -1       497 1.28795E-05 6.51925E-07 3.30872E-24
 -1       498 1.24997E-05 6.83773E-07 0.00000E+00
 -1       499 1.20691E-05 8.55008E-07 3.30872E-24
 -1       500 1.15740E-05 1.20095E-06 0.00000E+00
 -1       501 2.29506E-05 2.40130E-06 2.06795E-24
 -1       502 2.31757E-05 2.99325E-06-8.27181E-25
 -1       503 2.34022E-05 3.23014E-06 0.00000E+00
 -1       504 2.36303E-05 3.16994E-06 0.00000E+00
 -1       505 2.38588E-05 2.87046E-06 0.00000E+00
 -1       506 2.40875E-05 2.38941E-06-3.30872E-24
 -1       507 2.43163E-05 1.78447E-06 0.00000E+00
 -1       508 2.45451E-05 1.11320E-06 0.00000E+00
 -1       509 2.47739E-05 4.33192E-07 0.00000E+00
 -1       510 2.50027E-05-1.98002E-07 3.30872E-24
 -1       511 2.52314E-05-7.22810E-07-6.61744E-24
 -1       512 2.54599E-05-1.08359E-06 3.30872E-24
 -1       513 2.56878E-05-1.22264E-06 0.00000E+00
 -1       514 2.59141E-05-1.08221E-06-3.30872E-24
 -1       515 2.61388E-05-6.04356E-07 3.30872E-24
 -1       516 2.09541E-05 1.45380E-06 0.00000E+00
 -1       517 1.88102E-05 1.51549E-06 0.00000E+00
 -1       518 1.65249E-05 1.57734E-06 8.27181E-25
 -1       519 1.43178E-05 1.63949E-06-4.13590E-25
 -1       520 1.24081E-05 1.70191E-06 0.00000E+00
 -1       521 2.18038E-05 2.26676E-06 0.00000E+00
 -1       522 2.09719E-05 2.79551E-06 0.00000E+00
 -1       523 2.02473E-05 3.03419E-06 0.00000E+00
 -1       524 1.96123E-05 3.02716E-06 0.00000E+00
 -1       525 1.90517E-05 2.81983E-06 0.00000E+00
 -1       526 1.85488E-05 2.45746E-06-6.61744E-24
 -1       527 1.80869E-05 1.98551E-06 1.32349E-23
 -1       528 1.76488E-05 1.44950E-06 0.00000E+00
 -1       529 1.72177E-05 8.95066E-07 0.00000E+00
 -1       530 1.67764E-05 3.67857E-07-6.61744E-24
 -1       531 1.63079E-05-8.65131E-08 0.00000E+00
 -1       532 1.57955E-05-4.22489E-07 6.61744E-24
 -1       533 1.52222E-05-5.94643E-07 0.00000E+00
 -1       534 1.45727E-05-5.57413E-07-6.61744E-24
 -1       535 1.38293E-05-2.66144E-07-6.61744E-24
 -1       536 2.65824E-05 1.17361E-06-1.39587E-24
 -1       537 2.68326E-05 1.72916E-06 1.65436E-24
 -1       538 2.70845E-05 1.98245E-06-3.30872E-24
 -1       539 2.73383E-05 1.98280E-06 0.00000E+00
 -1       540 2.75926E-05 1.77934E-06-6.61744E-24
 -1       541 2.78472E-05 1.42116E-06 0.00000E+00
 -1       542 2.81019E-05 9.57260E-07 0.00000E+00
 -1       543 2.83566E-05 4.36593E-07 0.00000E+00
 -1       544 2.86114E-05-9.19135E-08 6.61744E-24
 -1       545 2.88661E-05-5.79353E-07 3.30872E-24
 -1       546 2.91208E-05-9.76786E-07 6.61744E-24
 -1       547 2.93752E-05-1.23522E-06 0.00000E+00
 -1       548 2.96292E-05-1.30561E-06 0.00000E+00
 -1       549 2.98818E-05-1.13885E-06 3.30872E-24
 -1       550 3.01330E-05-6.85668E-07 0.00000E+00
 -1       551 2.44948E-05 2.75009E-07 1.65436E-24
 -1       552 2.21451E-05 2.87114E-07 0.00000E+00
 -1       553 1.95582E-05 2.99207E-07 0.00000E+00
 -1       554 1.69964E-05 3.11202E-07 1.65436E-24
 -1       555 1.47216E-05 3.23076E-07 0.00000E+00
 -1       556 2.55156E-05 9.91428E-07 0.00000E+00
 -1       557 2.47896E-05 1.37692E-06-6.61744E-24
 -1       558 2.41682E-05 1.47867E-06 0.00000E+00
 -1       559 2.36322E-05 1.34709E-06 0.00000E+00
 -1       560 2.31640E-05 1.03319E-06 0.00000E+00
 -1       561 2.27447E-05 5.87934E-07 0.00000E+00
 -1       562 2.23553E-05 6.23213E-08-1.32349E-23
 -1       563 2.19768E-05-4.92563E-07 6.61744E-24
 -1       564 2.15902E-05-1.02562E-06 0.00000E+00
 -1       565 2.11763E-05-1.48579E-06-6.61744E-24
 -1       566 2.07161E-05-1.82206E-06 0.00000E+00
 -1       567 2.01908E-05-1.98350E-06 6.61744E-24
 -1       568 1.95814E-05-1.91935E-06 0.00000E+00
 -1       569 1.88703E-05-1.57876E-06 0.00000E+00
 -1       570 1.80385E-05-9.11574E-07 1.32349E-23
 -1       571 3.06380E-05 9.24128E-07-1.65436E-24
 -1       572 3.09186E-05 1.49064E-06-3.30872E-24
 -1       573 3.12010E-05 1.84443E-06 6.61744E-24
 -1       574 3.14849E-05 2.02929E-06 0.00000E+00
 -1       575 3.17694E-05 2.08890E-06 0.00000E+00
 -1       576 3.20542E-05 2.06695E-06 0.00000E+00
 -1       577 3.23391E-05 2.00712E-06 0.00000E+00
 -1       578 3.26241E-05 1.95304E-06 3.30872E-24
 -1       579 3.29091E-05 1.94835E-06 1.32349E-23
 -1       580 3.31941E-05 2.03673E-06 0.00000E+00
 -1       581 3.34791E-05 2.26188E-06 0.00000E+00
 -1       582 3.37639E-05 2.66758E-06 0.00000E+00
 -1       583 3.40487E-05 3.29768E-06-1.32349E-23
 -1       584 3.43331E-05 4.19605E-06 0.00000E+00
 -1       585 3.46170E-05 5.40673E-06-1.32349E-23
 -1       586 2.87143E-05 1.08388E-07 0.00000E+00
 -1       587 2.65462E-05 1.15644E-07 0.00000E+00
 -1       588 2.40819E-05 1.22419E-07 0.00000E+00
 -1       589 2.15389E-05 1.28705E-07 0.00000E+00
 -1       590 1.91347E-05 1.34734E-07-3.30872E-24
 -1       591 2.97226E-05 8.33491E-07 6.61744E-24
 -1       592 2.91398E-05 1.34646E-06 0.00000E+00
 -1       593 2.86206E-05 1.68624E-06 0.00000E+00
 -1       594 2.81491E-05 1.89445E-06 6.61744E-24
 -1       595 2.77108E-05 2.01313E-06 1.32349E-23
 -1       596 2.72901E-05 2.08414E-06 6.61744E-24
 -1       597 2.68714E-05 2.14934E-06 0.00000E+00
 -1       598 2.64392E-05 2.25058E-06 0.00000E+00
 -1       599 2.59778E-05 2.42967E-06 0.00000E+00
 -1       600 2.54715E-05 2.72837E-06 3.30872E-24
 -1       601 2.49048E-05 3.18837E-06 0.00000E+00
 -1       602 2.42622E-05 3.85128E-06-3.30872E-24
 -1       603 2.35283E-05 4.75861E-06 0.00000E+00
 -1       604 2.26889E-05 5.95199E-06 3.30872E-24
 -1       605 2.17282E-05 7.47247E-06 0.00000E+00
 -1       606 3.50157E-05 9.03302E-06 6.61744E-24
 -1       607 3.51244E-05 1.14522E-05 0.00000E+00
 -1       608 3.52316E-05 1.41954E-05 0.00000E+00
 -1       609 3.53372E-05 1.72262E-05 0.00000E+00
 -1       610 3.54419E-05 2.05088E-05-6.61744E-24
 -1       611 3.55457E-05 2.40070E-05 0.00000E+00
 -1       612 3.56489E-05 2.76848E-05 0.00000E+00
 -1       613 3.57515E-05 3.15061E-05 0.00000E+00
 -1       614 3.58537E-05 3.54350E-05 0.00000E+00
 -1       615 3.59556E-05 3.94354E-05-1.65436E-24
 -1       616 3.60573E-05 4.34714E-05-3.30872E-24
 -1       617 3.61590E-05 4.75071E-05 0.00000E+00
 -1       618 3.62606E-05 5.15064E-05 3.30872E-24
 -1       619 3.63622E-05 5.54335E-05-1.65436E-24
 -1       620 3.64637E-05 5.92524E-05 8.27181E-25
 -1       621 3.28348E-05 7.37016E-06 1.32349E-23
 -1       622 3.05450E-05 7.77354E-06-1.32349E-23
 -1       623 2.81053E-05 8.17682E-06 0.00000E+00
 -1       624 2.55919E-05 8.57898E-06 0.00000E+00
 -1       625 2.30809E-05 8.97956E-06-6.61744E-24
 -1       626 3.43556E-05 9.11149E-06 0.00000E+00
 -1       627 3.36776E-05 1.16014E-05-6.61744E-24
 -1       628 3.28805E-05 1.44059E-05 1.32349E-23
 -1       629 3.19787E-05 1.74869E-05 0.00000E+00
 -1       630 3.09866E-05 2.08066E-05 6.61744E-24
 -1       631 2.99183E-05 2.43273E-05-3.30872E-24
 -1       632 2.87882E-05 2.80111E-05 0.00000E+00
 -1       633 2.76106E-05 3.18204E-05 0.00000E+00
 -1       634 2.63996E-05 3.57176E-05 6.61744E-24
 -1       635 2.51695E-05 3.96651E-05 3.30872E-24
 -1       636 2.39344E-05 4.36253E-05-6.61744E-24
 -1       637 2.27086E-05 4.75608E-05-3.30872E-24
 -1       638 2.15061E-05 5.14338E-05 0.00000E+00
 -1       639 2.03405E-05 5.52066E-05 3.30872E-24
 -1       640 1.92259E-05 5.88416E-05 0.00000E+00
 -1       641 3.65614E-05 6.64822E-05-4.13590E-25
 -1       642 3.65595E-05 7.00518E-05 0.00000E+00
 -1       643 3.65575E-05 7.36324E-05 2.06795E-25
 -1       644 3.65554E-05 7.72201E-05-1.03398E-25
 -1       645 3.65532E-05 8.08109E-05 1.03398E-25
 -1       646 3.65509E-05 8.44007E-05-5.16988E-26
 -1       647 3.65487E-05 8.79856E-05-5.16988E-26
 -1       648 3.65465E-05 9.15614E-05-3.23117E-26
 -1       649 3.65444E-05 9.51242E-05 0.00000E+00
 -1       650 3.65423E-05 9.86699E-05 2.58494E-26
 -1       651 3.65402E-05 1.02195E-04 0.00000E+00
 -1       652 3.65382E-05 1.05694E-04 0.00000E+00
 -1       653 3.65362E-05 1.09164E-04 0.00000E+00
 -1       654 3.65341E-05 1.12601E-04 0.00000E+00
 -1       655 3.65319E-05 1.16001E-04 8.27181E-25
 -1       656 3.32371E-05 6.28263E-05 0.00000E+00
 -1       657 3.01199E-05 6.27198E-05-1.65436E-24
 -1       658 2.71328E-05 6.26133E-05 0.00000E+00
 -1       659 2.41973E-05 6.25069E-05-8.27181E-25
 -1       660 2.12349E-05 6.24006E-05 8.27181E-25
 -1       661 3.53106E-05 6.65075E-05 1.65436E-24
 -1       662 3.40593E-05 7.00949E-05 0.00000E+00
 -1       663 3.28071E-05 7.36850E-05 0.00000E+00
 -1       664 3.15558E-05 7.72739E-05 1.65436E-24
 -1       665 3.03064E-05 8.08576E-05 3.30872E-24
 -1       666 2.90607E-05 8.44321E-05 1.65436E-24
 -1       667 2.78199E-05 8.79935E-05 3.30872E-24
 -1       668 2.65856E-05 9.15377E-05-1.65436E-24
 -1       669 2.53594E-05 9.50607E-05 0.00000E+00
 -1       670 2.41426E-05 9.85587E-05 0.00000E+00
 -1       671 2.29368E-05 1.02028E-04 0.00000E+00
 -1       672 2.17435E-05 1.05463E-04-8.27181E-25
 -1       673 2.05640E-05 1.08862E-04 0.00000E+00
 -1       674 1.93995E-05 1.12219E-04-8.27181E-25
 -1       675 1.82517E-05 1.15531E-04-8.27181E-25
 -1       676 3.32253E-05 1.19266E-04-1.65436E-24
 -1       677 2.99602E-05 1.19171E-04 0.00000E+00
 -1       678 2.67246E-05 1.19075E-04 3.30872E-24
 -1       679 2.35109E-05 1.18980E-04 0.00000E+00
 -1       680 2.03111E-05 1.18885E-04-1.65436E-24
 -1       681 8.71072E-06-2.34234E-07 1.65436E-24
 -1       682 8.86425E-06 4.50156E-07 0.00000E+00
 -1       683 9.01824E-06 9.01526E-07 0.00000E+00
 -1       684 9.17270E-06 1.15559E-06 0.00000E+00
 -1       685 9.32731E-06 1.24797E-06 0.00000E+00
 -1       686 9.48201E-06 1.21426E-06-1.65436E-24
 -1       687 9.63673E-06 1.09003E-06 0.00000E+00
 -1       688 9.79146E-06 9.10821E-07 0.00000E+00
 -1       689 9.94617E-06 7.12141E-07 0.00000E+00
 -1       690 1.01008E-05 5.29510E-07 0.00000E+00
 -1       691 1.02554E-05 3.98445E-07-6.61744E-24
 -1       692 1.04099E-05 3.54481E-07 0.00000E+00
 -1       693 1.05640E-05 4.33176E-07-6.61744E-24
 -1       694 1.07171E-05 6.70093E-07-1.65436E-24
 -1       695 1.08693E-05 1.10089E-06 0.00000E+00
 -1       696 7.23558E-06-9.94339E-07 0.00000E+00
 -1       697 5.76324E-06-7.96881E-07-3.30872E-24
 -1       698 4.22340E-06-5.98944E-07-6.61744E-24
 -1       699 2.69624E-06-4.00206E-07-3.30872E-24
 -1       700 1.26197E-06-2.01012E-07-6.61744E-24
 -1       701 8.02800E-06-2.35462E-07 0.00000E+00
 -1       702 7.55964E-06 5.11365E-07 0.00000E+00
 -1       703 7.15781E-06 1.07883E-06-6.61744E-24
 -1       704 6.81387E-06 1.48868E-06 0.00000E+00
 -1       705 6.52041E-06 1.76311E-06 6.61744E-24
 -1       706 6.26929E-06 1.92417E-06 0.00000E+00
 -1       707 6.05234E-06 1.99393E-06-6.61744E-24
 -1       708 5.86132E-06 1.99448E-06 0.00000E+00
 -1       709 5.68796E-06 1.94792E-06 0.00000E+00
 -1       710 5.52401E-06 1.87639E-06 0.00000E+00
 -1       711 5.36119E-06 1.80203E-06 0.00000E+00
 -1       712 5.19132E-06 1.74702E-06-3.30872E-24
 -1       713 5.00621E-06 1.73351E-06 0.00000E+00
 -1       714 4.79835E-06 1.78389E-06 0.00000E+00
 -1       715 4.55910E-06 1.92012E-06 0.00000E+00
 -1       716 1.11293E-05 2.37049E-06 0.00000E+00
 -1       717 1.12533E-05 2.67914E-06-4.13590E-25
 -1       718 1.13780E-05 2.73020E-06 0.00000E+00
 -1       719 1.15035E-05 2.56855E-06-1.65436E-24
 -1       720 1.16293E-05 2.23897E-06 3.30872E-24
 -1       721 1.17552E-05 1.78624E-06 0.00000E+00
 -1       722 1.18811E-05 1.25512E-06-3.30872E-24
 -1       723 1.20070E-05 6.90338E-07 0.00000E+00
 -1       724 1.21329E-05 1.36610E-07 0.00000E+00
 -1       725 1.22588E-05-3.61326E-07 0.00000E+00
 -1       726 1.23847E-05-7.58741E-07-6.61744E-24
 -1       727 1.25103E-05-1.01086E-06 0.00000E+00
 -1       728 1.26355E-05-1.07289E-06 3.30872E-24
 -1       729 1.27594E-05-9.00025E-07 0.00000E+00
 -1       730 1.28821E-05-4.47347E-07 0.00000E+00
 -1       731 9.91908E-06 1.82370E-06 0.00000E+00
 -1       732 8.64735E-06 1.89170E-06 8.27181E-25
 -1       733 7.32268E-06 1.96008E-06 1.65436E-24
 -1       734 6.07104E-06 2.02903E-06 2.06795E-25
 -1       735 5.01846E-06 2.09828E-06-1.24077E-24
 -1       736 1.04288E-05 2.34050E-06-6.61744E-24
 -1       737 9.90312E-06 2.72572E-06 6.61744E-24
 -1       738 9.43952E-06 2.94265E-06 1.32349E-23
 -1       739 9.02896E-06 3.01404E-06 6.61744E-24
 -1       740 8.66380E-06 2.96323E-06 1.32349E-23
 -1       741 8.33552E-06 2.81339E-06 6.61744E-24
 -1       742 8.03556E-06 2.58773E-06 0.00000E+00
 -1       743 7.75525E-06 2.30953E-06 0.00000E+00
 -1       744 7.48590E-06 2.00208E-06 1.32349E-23
 -1       745 7.21880E-06 1.68871E-06 6.61744E-24
 -1       746 6.94524E-06 1.39274E-06 0.00000E+00
 -1       747 6.65662E-06 1.13750E-06 0.00000E+00
 -1       748 6.34429E-06 9.46316E-07-6.61744E-24
 -1       749 6.00030E-06 8.42637E-07 3.30872E-24
 -1       750 5.61562E-06 8.49514E-07 6.61744E-24
 -1       751 1.32299E-05 1.06921E-06 8.27181E-25
 -1       752 1.34847E-05 1.44733E-06 0.00000E+00
 -1       753 1.37413E-05 1.51863E-06 3.30872E-24
 -1       754 1.39998E-05 1.33961E-06-3.30872E-24
 -1       755 1.42588E-05 9.66607E-07-6.61744E-24
 -1       756 1.45182E-05 4.55870E-07 0.00000E+00
 -1       757 1.47778E-05-1.36405E-07 0.00000E+00
 -1       758 1.50373E-05-7.54066E-07 0.00000E+00
 -1       759 1.52969E-05-1.34097E-06 0.00000E+00
 -1       760 1.55565E-05-1.84096E-06 0.00000E+00
 -1       761 1.58160E-05-2.19784E-06 6.61744E-24
 -1       762 1.60752E-05-2.35533E-06 0.00000E+00
 -1       763 1.63338E-05-2.25706E-06 0.00000E+00
 -1       764 1.65906E-05-1.84656E-06 0.00000E+00
 -1       765 1.68456E-05-1.06715E-06-6.61744E-24
 -1       766 1.16769E-05 4.31782E-07 0.00000E+00
 -1       767 1.01660E-05 5.45486E-07 0.00000E+00
 -1       768 8.61064E-06 6.59807E-07 0.00000E+00
 -1       769 7.16224E-06 7.74343E-07-2.06795E-25
 -1       770 5.97229E-06 8.88565E-07 0.00000E+00
 -1       771 1.19964E-05 8.82212E-07-1.32349E-23
 -1       772 1.10711E-05 1.16741E-06 0.00000E+00
 -1       773 1.02261E-05 1.23099E-06 0.00000E+00
 -1       774 9.44656E-06 1.11217E-06-1.32349E-23
 -1       775 8.71951E-06 8.51068E-07 2.64698E-23
 -1       776 8.03035E-06 4.87509E-07 0.00000E+00
 -1       777 7.36444E-06 6.14109E-08-2.64698E-23
 -1       778 6.70690E-06-3.87261E-07 1.32349E-23
 -1       779 6.04283E-06-8.18525E-07 2.64698E-23
 -1       780 5.35733E-06-1.19244E-06-1.32349E-23
 -1       781 4.63553E-06-1.46912E-06 0.00000E+00
 -1       782 3.86281E-06-1.60878E-06 0.00000E+00
 -1       783 3.02453E-06-1.57175E-06-2.64698E-23
 -1       784 2.10766E-06-1.31826E-06-6.61744E-24
 -1       785 1.09732E-06-8.09323E-07-1.32349E-23
 -1       786 1.72909E-05 1.37112E-06 1.65436E-24
 -1       787 1.75121E-05 2.24780E-06 1.65436E-24
 -1       788 1.77348E-05 2.82364E-06 3.30872E-24
 -1       789 1.79593E-05 3.15690E-06 3.30872E-24
 -1       790 1.81843E-05 3.30568E-06 6.61744E-24
 -1       791 1.84097E-05 3.32806E-06 0.00000E+00
 -1       792 1.86352E-05 3.28203E-06 6.61744E-24
 -1       793 1.88608E-05 3.22559E-06-3.30872E-24
 -1       794 1.90863E-05 3.21670E-06 0.00000E+00
 -1       795 1.93119E-05 3.31338E-06-3.30872E-24
 -1       796 1.95373E-05 3.57365E-06-6.61744E-24
 -1       797 1.97625E-05 4.05565E-06 3.30872E-24
 -1       798 1.99873E-05 4.81759E-06 0.00000E+00
 -1       799 2.02109E-05 5.91776E-06 0.00000E+00
 -1       800 2.04334E-05 7.41467E-06 0.00000E+00
 -1       801 1.47392E-05 1.13759E-07 0.00000E+00
 -1       802 1.17183E-05 9.31947E-08-4.13590E-25
 -1       803 8.37645E-06 7.18820E-08 1.65436E-24
 -1       804 5.07143E-06 5.01203E-08 0.00000E+00
 -1       805 2.16116E-06 2.86261E-08 0.00000E+00
 -1       806 1.61529E-05 1.28183E-06 0.00000E+00
 -1       807 1.52994E-05 2.17196E-06 6.61744E-24
 -1       808 1.45235E-05 2.85085E-06 0.00000E+00
 -1       809 1.38101E-05 3.35835E-06 0.00000E+00
 -1       810 1.31455E-05 3.73488E-06 1.32349E-23
 -1       811 1.25145E-05 4.02069E-06-6.61744E-24
 -1       812 1.19024E-05 4.25607E-06 0.00000E+00
 -1       813 1.12941E-05 4.48135E-06 0.00000E+00
 -1       814 1.06744E-05 4.73685E-06-1.32349E-23
 -1       815 1.00283E-05 5.06286E-06 6.61744E-24
 -1       816 9.34067E-06 5.49960E-06 1.32349E-23
 -1       817 8.59673E-06 6.08727E-06 0.00000E+00
 -1       818 7.78158E-06 6.86593E-06 0.00000E+00
 -1       819 6.88159E-06 7.87578E-06-6.61744E-24
 -1       820 5.88162E-06 9.15643E-06 0.00000E+00
 -1       821 2.05057E-05 1.17786E-05 1.24077E-24
 -1       822 2.03533E-05 1.44272E-05 1.65436E-24
 -1       823 2.01995E-05 1.72873E-05 0.00000E+00
 -1       824 2.00441E-05 2.03338E-05-1.65436E-24
 -1       825 1.98879E-05 2.35418E-05 0.00000E+00
 -1       826 1.97310E-05 2.68862E-05 1.65436E-24
 -1       827 1.95737E-05 3.03419E-05 3.30872E-24
 -1       828 1.94161E-05 3.38838E-05-1.65436E-24
 -1       829 1.92583E-05 3.74867E-05-3.30872E-24
 -1       830 1.91004E-05 4.11253E-05 1.65436E-24
 -1       831 1.89425E-05 4.47746E-05 3.30872E-24
 -1       832 1.87848E-05 4.84093E-05 0.00000E+00
 -1       833 1.86275E-05 5.20041E-05 0.00000E+00
 -1       834 1.84711E-05 5.55340E-05-1.65436E-24
 -1       835 1.83157E-05 5.89737E-05 0.00000E+00
 -1       836 1.80984E-05 9.59312E-06 0.00000E+00
 -1       837 1.53403E-05 9.82773E-06 0.00000E+00
 -1       838 1.25012E-05 1.00624E-05 0.00000E+00
 -1       839 9.70984E-06 1.02966E-05 1.65436E-24
 -1       840 7.09484E-06 1.05303E-05-2.48154E-24
 -1       841 1.97798E-05 1.17852E-05-3.30872E-24
 -1       842 1.88236E-05 1.44344E-05 0.00000E+00
 -1       843 1.77893E-05 1.72898E-05 0.00000E+00
 -1       844 1.66861E-05 2.03269E-05-1.65436E-24
 -1       845 1.55233E-05 2.35215E-05 0.00000E+00
 -1       846 1.43101E-05 2.68491E-05 0.00000E+00
 -1       847 1.30556E-05 3.02856E-05-1.65436E-24
 -1       848 1.17692E-05 3.38065E-05-8.27181E-25
 -1       849 1.04600E-05 3.73876E-05 0.00000E+00
 -1       850 9.13715E-06 4.10044E-05 0.00000E+00
 -1       851 7.80989E-06 4.46329E-05 8.27181E-25
 -1       852 6.48740E-06 4.82485E-05 0.00000E+00
 -1       853 5.17876E-06 5.18270E-05 8.27181E-25
 -1       854 3.89281E-06 5.53439E-05 0.00000E+00
 -1       855 2.63889E-06 5.87750E-05-1.65436E-24
 -1       856 1.81059E-05 6.55985E-05 2.06795E-25
 -1       857 1.80410E-05 6.89943E-05 0.00000E+00
 -1       858 1.79756E-05 7.24723E-05 0.00000E+00
 -1       859 1.79096E-05 7.60186E-05 8.27181E-25
 -1       860 1.78433E-05 7.96191E-05 1.65436E-24
 -1       861 1.77769E-05 8.32598E-05 8.27181E-25
 -1       862 1.77103E-05 8.69267E-05-1.65436E-24
 -1       863 1.76437E-05 9.06058E-05 0.00000E+00
 -1       864 1.75770E-05 9.42830E-05 0.00000E+00
 -1       865 1.75105E-05 9.79442E-05 0.00000E+00
 -1       866 1.74440E-05 1.01576E-04 1.65436E-24
 -1       867 1.73777E-05 1.05163E-04-8.27181E-25
 -1       868 1.73117E-05 1.08692E-04 0.00000E+00
 -1       869 1.72461E-05 1.12149E-04 8.27181E-25
 -1       870 1.71809E-05 1.15521E-04-1.65436E-24
 -1       871 1.52078E-05 6.22664E-05 0.00000E+00
 -1       872 1.24477E-05 6.22332E-05 0.00000E+00
 -1       873 9.78847E-06 6.21999E-05-8.27181E-25
 -1       874 7.13059E-06 6.21663E-05-6.20385E-25
 -1       875 4.37434E-06 6.21319E-05 4.13590E-25
 -1       876 1.70447E-05 6.56211E-05 3.30872E-24
 -1       877 1.58994E-05 6.90177E-05-1.65436E-24
 -1       878 1.47308E-05 7.24768E-05 0.00000E+00
 -1       879 1.35432E-05 7.59882E-05-1.65436E-24
 -1       880 1.23398E-05 7.95414E-05 3.30872E-24
 -1       881 1.11245E-05 8.31263E-05 0.00000E+00
 -1       882 9.90117E-06 8.67325E-05 3.30872E-24
 -1       883 8.67365E-06 9.03499E-05-1.65436E-24
 -1       884 7.44574E-06 9.39682E-05 0.00000E+00
 -1       885 6.22136E-06 9.75772E-05 0.00000E+00
 -1       886 5.00428E-06 1.01167E-04 0.00000E+00
 -1       887 3.79838E-06 1.04727E-04-1.65436E-24
 -1       888 2.60739E-06 1.08246E-04 0.00000E+00
 -1       889 1.43477E-06 1.11716E-04-8.27181E-25
 -1       890 2.84544E-07 1.15124E-04 0.00000E+00
 -1       891 1.40485E-05 1.18737E-04 1.65436E-24
 -1       892 1.10848E-05 1.18682E-04 0.00000E+00
 -1       893 8.16996E-06 1.18626E-04 1.65436E-24
 -1       894 5.24762E-06 1.18571E-04 4.13590E-25
 -1       895 2.26123E-06 1.18515E-04 4.13590E-25
 -1       896 2.66996E-07 9.10238E-07 0.00000E+00
 -1       897 5.35750E-07 1.59466E-06 0.00000E+00
 -1       898 8.04774E-07 2.07913E-06 6.61744E-24
 -1       899 1.07405E-06 2.39017E-06 0.00000E+00
 -1       900 1.34341E-06 2.55421E-06-6.61744E-24
 -1       901 1.61283E-06 2.59760E-06 3.30872E-24
 -1       902 1.88225E-06 2.54665E-06 0.00000E+00
 -1       903 2.15167E-06 2.42761E-06-3.30872E-24
 -1       904 2.42107E-06 2.26669E-06-6.61744E-24
 -1       905 2.69042E-06 2.09007E-06-3.30872E-24
 -1       906 2.95969E-06 1.92393E-06 6.61744E-24
 -1       907 3.22876E-06 1.79446E-06 0.00000E+00
 -1       908 3.49751E-06 1.72786E-06 0.00000E+00
 -1       909 3.76522E-06 1.75035E-06 0.00000E+00
 -1       910 4.03205E-06 1.88821E-06 0.00000E+00
 -1       911 4.34668E-06 2.45546E-06-1.65436E-24
 -1       912 4.40394E-06 2.60256E-06-4.13590E-25
 -1       913 4.46121E-06 2.62807E-06-8.27181E-25
 -1       914 4.51848E-06 2.55201E-06 0.00000E+00
 -1       915 4.57575E-06 2.39437E-06 0.00000E+00
 -1       916 4.63301E-06 2.17515E-06-8.27181E-25
 -1       917 4.69025E-06 1.91434E-06 1.65436E-24
 -1       918 4.74748E-06 1.63192E-06-8.27181E-25
 -1       919 4.80469E-06 1.34788E-06 0.00000E+00
 -1       920 4.86186E-06 1.08220E-06-8.27181E-25
 -1       921 4.91898E-06 8.54873E-07 0.00000E+00
 -1       922 4.97592E-06 6.85885E-07 0.00000E+00
 -1       923 5.03261E-06 5.95233E-07 0.00000E+00
 -1       924 5.08840E-06 6.02899E-07 8.27181E-25
 -1       925 5.14346E-06 7.28905E-07 2.58494E-25
 -1       926 4.87592E-06 1.18960E-06 0.00000E+00
 -1       927 4.55244E-06 1.16877E-06 0.00000E+00
 -1       928 4.22813E-06 9.68644E-07 0.00000E+00
 -1       929 3.90280E-06 6.28584E-07-6.61744E-24
 -1       930 3.57713E-06 1.87985E-07 0.00000E+00
 -1       931 3.25126E-06-3.13628E-07 6.61744E-24
 -1       932 2.92529E-06-8.36717E-07 0.00000E+00
 -1       933 2.59929E-06-1.34171E-06 0.00000E+00
 -1       934 2.27331E-06-1.78905E-06 6.61744E-24
 -1       935 1.94737E-06-2.13922E-06-6.61744E-24
 -1       936 1.62150E-06-2.35278E-06-6.61744E-24
 -1       937 1.29575E-06-2.39036E-06-6.61744E-24
 -1       938 9.70133E-07-2.21272E-06-6.61744E-24
 -1       939 6.44992E-07-1.78084E-06 0.00000E+00
 -1       940 3.20137E-07-1.05577E-06-6.61744E-24
 -1       941 2.74321E-07 1.08845E-06-1.34417E-24
 -1       942 5.71488E-07 1.92352E-06 1.65436E-24
 -1       943 8.70920E-07 2.54709E-06-6.61744E-24
 -1       944 1.17297E-06 3.00181E-06-3.30872E-24
 -1       945 1.47586E-06 3.33021E-06-6.61744E-24
 -1       946 1.77925E-06 3.57478E-06 0.00000E+00
 -1       947 2.08286E-06 3.77795E-06 6.61744E-24
 -1       948 2.38656E-06 3.98213E-06 0.00000E+00
 -1       949 2.69026E-06 4.22973E-06 0.00000E+00
 -1       950 2.99389E-06 4.56319E-06 0.00000E+00
 -1       951 3.29732E-06 5.02498E-06 0.00000E+00
 -1       952 3.60032E-06 5.65771E-06 0.00000E+00
 -1       953 3.90262E-06 6.50402E-06 0.00000E+00
 -1       954 4.20291E-06 7.60667E-06-3.30872E-24
 -1       955 4.50136E-06 9.00865E-06 0.00000E+00
 -1       956 4.58351E-06 1.29041E-05 1.65436E-24
 -1       957 4.37613E-06 1.53212E-05 1.65436E-24
 -1       958 4.16737E-06 1.79778E-05-6.61744E-24
 -1       959 3.95732E-06 2.08470E-05 0.00000E+00
 -1       960 3.74652E-06 2.39024E-05-3.30872E-24
 -1       961 3.53511E-06 2.71170E-05 0.00000E+00
 -1       962 3.32324E-06 3.04640E-05 0.00000E+00
 -1       963 3.11099E-06 3.39164E-05 0.00000E+00
 -1       964 2.89849E-06 3.74473E-05-6.61744E-24
 -1       965 2.68583E-06 4.10297E-05 0.00000E+00
 -1       966 2.47313E-06 4.46367E-05 0.00000E+00
 -1       967 2.26054E-06 4.82411E-05-3.30872E-24
 -1       968 2.04825E-06 5.18160E-05 0.00000E+00
 -1       969 1.83672E-06 5.53344E-05 0.00000E+00
 -1       970 1.62609E-06 5.87694E-05 0.00000E+00
 -1       971 1.28219E-06 6.53821E-05-3.30872E-24
 -1       972 1.14079E-06 6.87607E-05-1.65436E-24
 -1       973 9.98924E-07 7.22177E-05 0.00000E+00
 -1       974 8.56596E-07 7.57404E-05 1.65436E-24
 -1       975 7.14013E-07 7.93160E-05-3.30872E-24
 -1       976 5.71249E-07 8.29316E-05 0.00000E+00
 -1       977 4.28372E-07 8.65745E-05 0.00000E+00
 -1       978 2.85440E-07 9.02316E-05 0.00000E+00
 -1       979 1.42512E-07 9.38901E-05 3.30872E-24
 -1       980-3.56159E-10 9.75372E-05 1.65436E-24
 -1       981-1.43095E-07 1.01160E-04 3.30872E-24
 -1       982-2.85598E-07 1.04746E-04-1.65436E-24
 -1       983-4.27760E-07 1.08281E-04 0.00000E+00
 -1       984-5.69153E-07 1.11754E-04 0.00000E+00
 -1       985-7.09834E-07 1.15151E-04-3.30872E-24
 -3
    1PSTEP                         2           1           1          
  100CL  101 1.000000000         841                     0    1           1
 -4  STRESS      6    1
 -5  SXX         1    4    1    1
 -5  SYY         1    4    2    2
 -5  SZZ         1    4    3    3
 -5  SXY         1    4    1    2
 -5  SYZ         1    4    2    3
 -5  SZX         1    4    3    1
 -1         1-1.34862E+06-4.38380E+05-1.53722E+04-6.06835E+05 9.33748E-11 4.38983E-10
 -1         2-7.81439E+05 2.85411E+04 1.30498E+03-1.54796E+05 6.82121E-12 2.77396E-10
 -1         3-2.40030E+05-1.34681E+04 5.27094E+02-6.76213E+04-1.62572E-11 4.09227E-09
 -1         4-2.59806E+04 1.23451E+04 1.20322E+02-1.37822E+04-6.27551E-11-3.09046E-09
 -1         5 7.96289E+04 7.39270E+05-1.42910E+04-1.27952E+04 4.32919E-10-1.97394E-09
 -1         8-1.60999E+05-2.70705E+05 3.89688E+03-4.55468E+05 4.54747E-11 2.16824E-09
 -1         9-4.84796E+05-3.37906E+04-2.78062E+03-3.85603E+05-2.43138E-10 7.74889E-10
 -1        10-2.57404E+05-4.86067E+04 8.35779E+02-2.18257E+05 8.32188E-11-1.14414E-09
 -1        11-1.90429E+04-1.20957E+04 2.01830E+02-9.73294E+04-4.73240E-10-8.91911E-10
 -1        12 1.15496E+05 7.49672E+05-1.27234E+04 4.00065E+04 8.81300E-10 8.51995E-10
 -1        15 1.46654E+04 1.82217E+04 7.76363E+02-1.66642E+05-2.36469E-10 9.64064E-11
 -1        16-1.77511E+05-4.32350E+04-1.54951E+03-3.47015E+05-4.85064E-11-8.27640E-10
 -1        17-2.07703E+05-7.35783E+04 6.35683E+03-3.50095E+05 3.91689E-10 2.05910E-09
 -1        18-3.89218E+04-5.28042E+04-3.98550E+02-2.53905E+05-2.82550E-10 1.75714E-09
 -1        19 2.97779E+05 4.35823E+05-4.14593E+03 3.36759E+04-2.44108E-09-3.37119E-10
 -1        20 1.14612E+05-4.68487E+04-2.87259E+03 7.29493E+04 3.30015E-08-1.14278E-09
 -1        21-1.04348E+04-1.14740E+05-4.73355E+02 1.03623E+04 5.40549E-08-7.94230E-10
 -1        22 3.39985E+04 1.83847E+05 4.28469E+02-1.14952E+05 4.54747E-12-5.20231E-10
 -1        23-1.15749E+05 7.45671E+02 5.74623E+02-2.14549E+05-1.36424E-11 8.18545E-10
 -1        24-3.03152E+05-4.88620E+04 9.53415E+03-3.44184E+05-4.07454E-10 1.00166E-09
 -1        25-1.43124E+05-7.48194E+04 1.35214E+04-3.53992E+05-6.52562E-10 2.35195E-09
 -1        26-3.77137E+04 2.38200E+05 2.57409E+03-1.10348E+05-2.54204E-09 2.19795E-09
 -1        27 2.17709E+04-2.57173E+04-4.07134E+03 1.20587E+05 4.64903E-09-1.63709E-10
 -1        28-4.56398E+02-8.13443E+04-4.18493E+02 4.92997E+04 2.75536E-08 2.39224E-10
 -1        29 3.74906E+05 2.98109E+05 8.81594E+02-9.09969E+04 7.12248E-11-8.49468E-10
 -1        30 1.32096E+05 3.29255E+04 5.56573E+02-1.06802E+05 5.23933E-10 6.00267E-11
 -1        31-3.61767E+05 1.47661E+04 1.03064E+03-1.63860E+05-2.32916E-11-2.43745E-10
 -1        32-4.32818E+05-9.20590E+04 1.52819E+04-3.42290E+05 1.26536E-09 1.10504E-09
 -1        33-1.62914E+05 9.63676E+04 1.71691E+04-1.59510E+05 3.03058E-09-1.96610E-09
 -1        34-2.17317E+05-2.19015E+04 1.52901E+03 7.88235E+04 2.24642E-09-4.29932E-09
 -1        35-3.68195E+04-2.91243E+04-3.32978E+02 7.02947E+04 7.29147E-09 2.80124E-09
 -1        36-1.84769E+06-1.55919E+03-1.24452E+04-2.28192E-09 4.16101E-10-8.13088E-10
 -1        37-1.85074E+06-1.75146E+03-6.90734E+03 1.05806E-08 7.73081E-10-4.22915E-11
 -1        38-1.84912E+06-1.45381E+01-3.08214E+03 5.97113E-09-6.13569E-10-1.42938E-09
 -1        39-1.84921E+06-6.49956E+01-1.62819E+03-8.37691E-09-2.85093E-10-6.44206E-09
 -1        40-1.84922E+06 1.53997E+01-8.58033E+02-1.74027E-08 6.01124E-10-3.14947E-09
 -1        41-1.84910E+06 2.69797E+00-5.89365E+02-2.13026E-09-2.44126E-11 5.12070E-10
 -1        42-1.84923E+06 1.29456E+01-5.89332E+02-6.38928E-09-3.34484E-12 1.39170E-09
 -1        43-1.84912E+06 8.50429E+00-9.14426E+02-7.29354E-11-1.26498E-09 5.67965E-10
 -1        44-1.84921E+06 3.56506E+01-1.65979E+03-8.53643E-09 1.05743E-10 2.54653E-09
 -1        45-1.84925E+06 4.60290E+00-3.32746E+03-1.16378E-08 4.01703E-10 2.36520E-09
 -1        46-1.84910E+06 1.13032E+02-6.50309E+03-3.48997E-09 5.38205E-11-1.55160E-09
 -1        47-1.85021E+06-5.61000E+02-1.35099E+04 1.32988E-08-9.44579E-10-5.42968E-10
 -1        48-1.84826E+06-1.28935E+02-2.61713E+04-3.15907E-09 4.92001E-10-1.12050E-09
 -1        49-1.86338E+06-1.49918E+04-5.90163E+04-1.09021E-08 6.50749E-10 4.03725E-09
 -1        50-1.83600E+06-1.33348E+04-1.06440E+05-1.16634E-08 6.03659E-11-9.24047E-10
 -1        51 1.84672E+04-7.50134E+05 9.32458E+04-7.21767E+05-2.18279E-10 6.40284E-10
 -1        52 1.75267E+04-7.32900E+05 4.86762E+04-9.90342E+05-2.18279E-11-3.65253E-09
 -1        53 5.36715E+03-7.48988E+05 1.61735E+04-7.19269E+05 4.00178E-11 1.05138E-09
 -1        54 5.57552E+03-7.54246E+05-3.78590E+03-9.91741E+05 8.00355E-11 2.64185E-09
 -1        55-7.55334E+02-7.45326E+05-2.45661E+04-7.20300E+05-3.12866E-10 3.11047E-09
 -1        56-2.37941E+06-3.48121E+05-9.32288E+04-8.98210E+05-8.05812E-10-1.26602E-09
 -1        57-2.40023E+06-3.60802E+05-5.07612E+04-9.08474E+05 2.56432E-09 1.43018E-09
 -1        58-2.38886E+06-3.42645E+05-2.10684E+04-9.04756E+05 3.74075E-09 3.24781E-09
 -1        59-2.38725E+06-3.46687E+05-1.05425E+04-9.08886E+05 2.26464E-10-7.03437E-10
 -1        60-2.38955E+06-3.42692E+05-4.88168E+03-9.05085E+05-1.16324E-09-1.90747E-09
 -1        61-2.38640E+06-3.45968E+05-2.58491E+03-9.08711E+05-9.44056E-10-1.52136E-09
 -1        62-2.38959E+06-3.42786E+05-1.61511E+03-9.05132E+05-1.66619E-09-1.04023E-09
 -1        63-2.38640E+06-3.45869E+05-1.67715E+03-9.08602E+05 5.51836E-10-2.82034E-09
 -1        64-2.38952E+06-3.42812E+05-2.61719E+03-9.05175E+05-1.73259E-10 5.83668E-09
 -1        65-2.38670E+06-3.45843E+05-5.23612E+03-9.08554E+05-2.22167E-09-3.35513E-09
 -1        66-2.38926E+06-3.42728E+05-1.05347E+04-9.05202E+05-1.29603E-09 4.82123E-09
 -1        67-2.38880E+06-3.47194E+05-2.31056E+04-9.08646E+05-1.58616E-09 2.45200E-09
 -1        68-2.38761E+06-3.42754E+05-4.63315E+04-9.04600E+05-2.82967E-10-1.10595E-09
 -1        69-2.41765E+06-3.77966E+05-1.11715E+05-9.07372E+05-1.68257E-10-2.52840E-10
 -1        70-2.36661E+06-3.54938E+05-2.05134E+05-8.90346E+05 4.98403E-10 1.38243E-10
 -1        71-5.85841E+05 2.17300E+03 1.72901E+04 5.42059E-10 4.48009E-10 5.02951E-10
 -1        72-5.81315E+05 2.43200E+03 9.58083E+03-6.82576E-10-4.09235E-10 1.35719E-09
 -1        73-5.83847E+05 2.12777E+01 4.24494E+03-9.54999E-09 6.57279E-12 7.83530E-10
 -1        74-5.83451E+05 9.10804E+01 2.17957E+03 1.30659E-09 3.79420E-10 5.10477E-09
 -1        75-5.83709E+05-1.76609E+01 1.02548E+03-7.84780E-09-6.26448E-11 1.72929E-09
 -1        76-5.83609E+05-6.96683E-02 4.76047E+02 2.14350E-09-1.07068E-10-5.79239E-09
 -1        77-5.83690E+05-2.94976E+00 1.41697E+02-5.28146E-09-1.64629E-10 2.66384E-09
 -1        78-5.83640E+05 1.05547E+00-1.13254E+02 1.55630E-08-4.86555E-10 1.07022E-09
 -1        79-5.83679E+05 8.96715E+00-4.20206E+02 2.44064E-10 1.88275E-10-4.27178E-11
 -1        80-5.83685E+05 9.93577E-01-9.60851E+02-1.03839E-08 6.19548E-10 5.85362E-09
 -1        81-5.83645E+05 3.35502E+01-1.93629E+03 6.30280E-10 9.94329E-11 4.02792E-10
 -1        82-5.83975E+05-1.68273E+02-4.05182E+03 1.52110E-08-4.05908E-11-2.85377E-09
 -1        83-5.83391E+05-3.91222E+01-7.86196E+03-2.05610E-09-4.87172E-10-3.57477E-09
 -1        84-5.87926E+05-4.49892E+03-1.77278E+04 3.89014E-09-6.01363E-10 1.22509E-09
 -1        85-5.79700E+05-4.01805E+03-3.19808E+04 3.86217E-09 6.04600E-10 6.58292E-09
 -1        86 1.58061E+04 5.32611E+05 1.32308E+05-1.79209E+05 3.05590E-10 2.79761E-09
 -1        87 1.89541E+04 5.66340E+05 8.29320E+04-2.65167E+05-4.09273E-10 3.21597E-09
 -1        88 7.13617E+02 5.45679E+05 5.59533E+04-1.78571E+05 2.54659E-10-2.12822E-10
 -1        89 1.59976E+04 5.62504E+05 7.22550E+04-2.65550E+05-3.78350E-10-1.86856E-09
 -1        90 1.34031E+04 5.34692E+05 1.08915E+05-1.78781E+05 2.65572E-10 1.33014E-09
 -1        91-9.84701E+05-1.47400E+05-3.44198E+04-3.76676E+05-2.09138E-09-1.76806E-09
 -1        92-9.90452E+05-1.53984E+05-1.87387E+04-3.82679E+05 9.30186E-10-2.09639E-10
 -1        93-9.88222E+05-1.45340E+05-7.78324E+03-3.79074E+05 6.01722E-09 2.92926E-09
 -1        94-9.85637E+05-1.48813E+05-3.89568E+03-3.82870E+05-9.97716E-10-1.05668E-09
 -1        95-9.88487E+05-1.45349E+05-1.80484E+03-3.79188E+05-8.65839E-10 5.04298E-09
 -1        96-9.85311E+05-1.48562E+05-9.56325E+02-3.82822E+05-3.67436E-10-2.57694E-09
 -1        97-9.88508E+05-1.45377E+05-5.97546E+02-3.79198E+05-2.02817E-10 8.81982E-10
 -1        98-9.85299E+05-1.48538E+05-6.21286E+02-3.82794E+05-3.86308E-10 1.74293E-09
 -1        99-9.88487E+05-1.45383E+05-9.69356E+02-3.79207E+05 1.18644E-09 3.04908E-09
 -1       100-9.85395E+05-1.48540E+05-1.93807E+03-3.82787E+05-9.02673E-11 5.28746E-09
 -1       101-9.88391E+05-1.45348E+05-3.89866E+03-3.79208E+05-1.05319E-09-2.37787E-09
 -1       102-9.86156E+05-1.49049E+05-8.54523E+03-3.82827E+05-3.26509E-10 7.32507E-09
 -1       103-9.87775E+05-1.45357E+05-1.71306E+04-3.78978E+05-2.23031E-09 4.45834E-09
 -1       104-9.96824E+05-1.60369E+05-4.12721E+04-3.82314E+05 5.44787E-10 1.37788E-09
 -1       105-9.79965E+05-1.49937E+05-7.58123E+04-3.73739E+05 3.78259E-09 4.17640E-09
 -1       106-8.39950E+04 2.14514E+03 1.70544E+04-1.26670E-09 4.57226E-11 3.63798E-12
 -1       107-7.95732E+04 2.39781E+03 9.45290E+03 1.13650E-08 6.92406E-11-9.52696E-10
 -1       108-8.20261E+04 2.09222E+01 4.19362E+03 5.06316E-09 2.43586E-10 1.04137E-09
 -1       109-8.16791E+04 8.96291E+01 2.16232E+03 1.16379E-08-5.30974E-10-4.80887E-09
 -1       110-8.18901E+04-1.79502E+01 1.03537E+03 2.50885E-09 8.41491E-10 1.22810E-09
 -1       111-8.18333E+04-5.92629E-01 5.17640E+02 8.21343E-09-9.19008E-10 1.19140E-09
 -1       112-8.18720E+04-5.00394E+00 2.34102E+02-7.67579E-10-4.63791E-10 4.33243E-09
 -1       113-8.18565E+04-7.51865E-01 8.06318E+01 2.68338E-09 1.04880E-10 4.67464E-09
 -1       114-8.18669E+04 7.20654E-01-3.58267E+01-1.25280E-08 5.19157E-10 5.64548E-10
 -1       115-8.18694E+04-7.01982E-02-1.72560E+02-1.14338E-08 3.44347E-10 2.18991E-09
 -1       116-8.18592E+04 6.64396E+00-3.87148E+02-8.77241E-09 1.45467E-09 1.15563E-09
 -1       117-8.19301E+04-3.47701E+01-8.30088E+02-1.39853E-09-4.73468E-10 2.90220E-09
 -1       118-8.18063E+04-8.16807E+00-1.61987E+03-1.89388E-09-4.08958E-09 1.94871E-09
 -1       119-8.27455E+04-9.28158E+02-3.65737E+03 4.52701E-10-3.03528E-10 8.25366E-10
 -1       120-8.10439E+04-8.30173E+02-6.60015E+03-1.00015E-08 1.82780E-09-3.12662E-09
 -1       121 4.00589E+03 7.35115E+04 3.42724E+04-8.97822E+04-6.63931E-10 3.18323E-09
 -1       122 4.89722E+03 8.22550E+04 2.25472E+04-1.32950E+05-5.38421E-10-3.80987E-09
 -1       123 1.97342E+02 7.67360E+04 1.71002E+04-8.94417E+04-1.38789E-09-1.98634E-09
 -1       124 5.73635E+03 8.26973E+04 2.48884E+04-1.33188E+05-5.45697E-10-1.44610E-10
 -1       125 4.89825E+03 7.25667E+04 3.94603E+04-8.95359E+04-1.55524E-09 1.60117E-09
 -1       126-3.68400E+05-5.93931E+04-1.58709E+04-1.46191E+05 7.95808E-13 1.59162E-10
 -1       127-3.69374E+05-6.41100E+04-8.63998E+03-1.50895E+05-1.49612E-09 1.36424E-11
 -1       128-3.70044E+05-5.84231E+04-3.59021E+03-1.47280E+05-6.23459E-10 6.47447E-10
 -1       129-3.67139E+05-6.17458E+04-1.79739E+03-1.51006E+05-7.95296E-10 1.68869E-09
 -1       130-3.70168E+05-5.84247E+04-8.33591E+02-1.47331E+05-1.46201E-10 1.31996E-09
 -1       131-3.66985E+05-6.16339E+04-4.43161E+02-1.50988E+05 4.13252E-11-3.80066E-09
 -1       132-3.70180E+05-5.84361E+04-2.79816E+02-1.47333E+05 7.57609E-10-2.66186E-09
 -1       133-3.66976E+05-6.16274E+04-2.95578E+02-1.50979E+05 9.91804E-10-3.23263E-09
 -1       134-3.70170E+05-5.84369E+04-4.65122E+02-1.47334E+05 9.48830E-10-3.83125E-09
 -1       135-3.67015E+05-6.16332E+04-9.32814E+02-1.50979E+05-8.14907E-10-8.09371E-09
 -1       136-3.70124E+05-5.84201E+04-1.87770E+03-1.47331E+05-4.99585E-09-5.08385E-09
 -1       137-3.67373E+05-6.18822E+04-4.11393E+03-1.50999E+05-1.66392E-09 2.26487E-09
 -1       138-3.69825E+05-5.84248E+04-8.24775E+03-1.47216E+05-7.56700E-10-6.77665E-09
 -1       139-3.72526E+05-6.73037E+04-1.98627E+04-1.50720E+05 8.90623E-10-2.92493E-09
 -1       140-3.66030E+05-6.06653E+04-3.64887E+04-1.44721E+05-9.13928E-10-7.47605E-10
 -1       141-2.36717E+04-1.16487E+02-9.30701E+02 3.67967E-09 2.46257E-12-1.35230E-09
 -1       142-2.39100E+04-1.30196E+02-5.23715E+02-9.55382E-09 1.56739E-09 9.55481E-10
 -1       143-2.37784E+04-6.75107E-01-2.48554E+02-8.39410E-10 7.81569E-12-1.73085E-09
 -1       144-2.37970E+04-4.39992E+00-1.60127E+02 3.15249E-09-8.56855E-10 2.16932E-09
 -1       145-2.37846E+04 2.85616E+00-1.40461E+02-1.16800E-08-7.58937E-11 4.02813E-09
 -1       146-2.37944E+04 1.88554E+00-2.00018E+02-6.69990E-09-3.19744E-10 2.09026E-09
 -1       147-2.37810E+04 7.79095E+00-3.51397E+02-6.74903E-09-2.38243E-10 1.99536E-09
 -1       148-2.38172E+04 6.48840E+00-6.95728E+02 7.23887E-09-8.67510E-10-1.41678E-09
 -1       149-2.37619E+04 2.91687E+01-1.35938E+03 1.73013E-09 2.02779E-10-6.61089E-11
 -1       150-2.39292E+04 3.83987E+00-2.77739E+03-3.24439E-09 2.43966E-09 2.77737E-09
 -1       151-2.36690E+04 9.47043E+01-5.45231E+03-1.63683E-08 2.75452E-10-3.25099E-09
 -1       152-2.47339E+04-4.68887E+02-1.13340E+04-2.00504E-09-2.01658E-10-5.23323E-09
 -1       153-2.29568E+04-1.09211E+02-2.19548E+04-5.61897E-09-5.74322E-10 9.95897E-10
 -1       154-3.57540E+04-1.25491E+04-4.94758E+04 2.12913E-09-4.47860E-10 2.85763E-09
 -1       155-1.26368E+04-1.12179E+04-8.92244E+04-1.38571E-08 4.06718E-10 3.18687E-09
 -1       156 9.62103E+02 6.58415E+04 8.34159E+03-3.59734E+04 2.87400E-10 1.54705E-09
 -1       157 1.17909E+03 6.79766E+04 5.53164E+03-5.31708E+04 1.35060E-10 4.07454E-10
 -1       158 3.81377E+01 6.66213E+04 4.26794E+03-3.57986E+04 4.40423E-10 1.34605E-09
 -1       159 1.45489E+03 6.81324E+04 6.31212E+03-5.33456E+04 3.10592E-10 2.15914E-09
 -1       160 1.25176E+03 6.55366E+04 1.00695E+04-3.57970E+04 4.97494E-10-1.04410E-09
 -1       161-1.61007E+04-2.45427E+02-1.92622E+02-3.31824E+03 1.04092E-09 1.21190E-09
 -1       162-1.70896E+04 6.76991E+02-1.09090E+02-2.25380E+03-2.98553E-09-8.01040E-09
 -1       163-1.60935E+04-2.60199E+02-5.48658E+01-3.36334E+03-1.02705E-09-2.39515E-09
 -1       164-1.70936E+04 7.34696E+02-4.66867E+01-2.22353E+03 4.60318E-10-1.99805E-10
 -1       165-1.60950E+04-2.60708E+02-6.20984E+01-3.36626E+03 2.58524E-10-3.50383E-10
 -1       166-1.70983E+04 7.38579E+02-1.15968E+02-2.22407E+03-2.75691E-10 5.53132E-09
 -1       167-1.60910E+04-2.56199E+02-2.31117E+02-3.36722E+03 1.54409E-09 2.92840E-09
 -1       168-1.71180E+04 7.38768E+02-4.92316E+02-2.23205E+03 6.37840E-10-7.56984E-10
 -1       169-1.60745E+04-2.39131E+02-1.00992E+03-3.36747E+03-1.65937E-09 1.84241E-09
 -1       170-1.72183E+04 7.12719E+02-2.17689E+03-2.26451E+03-4.06487E-09-9.66565E-09
 -1       171-1.59853E+04-1.76946E+02-4.45384E+03-3.35568E+03-1.58271E-09 2.09434E-09
 -1       172-1.80623E+04 9.61240E+01-9.80167E+03-2.36380E+03 1.07073E-09-1.57911E-09
 -1       173-1.53069E+04-1.57557E+02-1.96618E+04-3.06778E+03 6.20275E-09 7.27505E-09
 -1       174-3.01791E+04-1.30097E+04-4.73644E+04-1.93421E+03-9.54969E-12-1.49248E-09
 -1       175-6.43018E+03-5.32183E+03-8.69913E+04 3.06949E+03-7.23958E-10 1.97906E-09
 -1       191 1.64229E+04 1.68489E+06 8.29566E+04-1.88670E+04-1.45519E-10 2.31012E-10
 -1       192 1.04700E+04 1.70461E+06 5.16905E+04-2.56531E+04-1.46429E-10-1.20667E-09
 -1       193 5.17665E+02 1.69285E+06 3.70082E+04-1.87772E+04-4.63388E-10 1.14505E-09
 -1       194 1.00083E+04 1.70416E+06 5.00852E+04-2.57530E+04-5.32054E-10-4.68390E-10
 -1       195 1.56487E+04 1.68530E+06 7.93250E+04-1.87567E+04-4.29281E-10 1.56251E-09
 -1       251 6.36891E+05 1.23113E+04 1.07482E+05-9.72315E+04 6.80302E-10 6.03904E-10
 -1       252 6.65067E+05 1.41978E+04 5.96903E+04-1.43270E+05-3.34694E-10-5.09317E-11
 -1       253 6.48564E+05-5.50640E+02 2.63993E+04-9.64510E+04-2.01180E-09 3.02680E-09
 -1       254 6.50668E+05 1.54202E+02 1.37208E+04-1.43925E+05 4.65661E-10 1.67711E-09
 -1       255 6.48832E+05-3.55556E+02 6.63595E+03-9.64921E+04 1.53887E-09-3.12866E-10
 -1       256 6.48978E+05-2.77026E+01 3.57376E+03-1.43846E+05 9.96806E-10-3.47609E-09
 -1       257 6.48572E+05-9.45232E+00 2.05967E+03-9.65357E+04-3.45608E-11-2.44927E-09
 -1       258 6.48491E+05 1.69788E+02 1.71980E+03-1.43784E+05 4.73392E-10 3.42607E-09
 -1       259 6.48431E+05 9.41480E+01 2.13653E+03-9.65548E+04-2.18506E-10-3.36149E-09
 -1       260 6.48562E+05 2.01004E+02 3.73600E+03-1.43775E+05-1.09139E-10-1.87629E-09
 -1       261 6.48403E+05-4.56477E+01 6.99898E+03-9.65441E+04 7.54881E-10 1.41426E-09
 -1       262 6.49871E+05 6.39375E+02 1.43930E+04-1.43794E+05-1.22782E-10-4.27463E-10
 -1       263 6.47812E+05-1.70343E+01 2.77493E+04-9.65339E+04 8.73115E-11-1.34605E-10
 -1       264 6.64452E+05 1.55827E+04 6.25543E+04-1.43289E+05-1.02591E-09-3.28873E-09
 -1       265 6.35287E+05 1.36844E+04 1.12739E+05-9.70918E+04-4.91127E-10 2.17551E-09
 -1       266 5.05027E+03-1.05131E+05 3.41453E+04-1.17070E+05 1.18234E-10 1.52522E-09
 -1       267 5.77685E+03-9.64850E+04 1.77111E+04-1.74581E+05 4.41105E-11-1.82354E-10
 -1       268 5.29504E+02-1.00790E+05 5.35267E+03-1.17062E+05 8.64020E-11 3.74712E-10
 -1       269-9.24296E+02-1.01724E+05-2.79703E+03-1.74076E+05 4.28372E-10 2.38651E-09
 -1       270-1.50538E+03-9.85235E+04-1.10817E+04-1.17610E+05-1.36424E-10 2.95404E-09
 -1       271-1.30214E+06-2.48543E+05-1.01763E+05-5.60862E+05-1.85537E-10 1.61526E-09
 -1       272-1.30187E+06-2.84805E+05-5.53155E+04-5.98081E+05 9.11314E-10 1.57979E-09
 -1       273-1.31344E+06-2.41671E+05-2.30577E+04-5.67662E+05-1.52795E-10 9.11314E-10
 -1       274-1.28761E+06-2.70017E+05-1.14739E+04-5.99851E+05-2.09002E-09 4.35648E-10
 -1       275-1.31471E+06-2.41317E+05-5.31003E+03-5.68071E+05-9.82254E-11-9.31323E-10
 -1       276-1.28685E+06-2.69341E+05-2.68884E+03-6.00278E+05 1.13141E-09 7.16227E-10
 -1       277-1.31509E+06-2.41153E+05-1.50653E+03-5.68144E+05 1.05501E-10-1.46827E-09
 -1       278-1.28689E+06-2.69324E+05-1.25709E+03-6.00534E+05-8.77662E-10-2.15641E-09
 -1       279-1.31520E+06-2.41058E+05-1.68822E+03-5.68170E+05 5.57066E-10 2.28056E-09
 -1       280-1.28703E+06-2.69363E+05-3.20452E+03-6.00606E+05 8.99206E-10 4.15639E-10
 -1       281-1.31502E+06-2.41022E+05-6.37692E+03-5.68140E+05 1.38698E-09 3.36422E-09
 -1       282-1.28815E+06-2.70217E+05-1.39366E+04-6.00524E+05-3.04499E-09-2.37196E-09
 -1       283-1.31381E+06-2.41198E+05-2.79607E+04-5.67704E+05 1.58252E-10 2.35741E-09
 -1       284-1.30551E+06-2.88491E+05-6.73033E+04-5.99091E+05 4.73847E-10 4.29281E-10
 -1       285-1.30055E+06-2.49100E+05-1.23695E+05-5.59271E+05 6.28461E-10 1.46247E-09
 -1       286 3.32852E+04 6.41670E+03 5.33215E+04-5.22436E+04 1.58252E-09-4.13820E-10
 -1       287 4.71688E+04 7.29955E+03 2.95863E+04-7.68365E+04 1.16415E-10 9.13133E-10
 -1       288 3.92419E+04-8.11710E+01 1.31078E+04-5.18266E+04-2.27374E-10 1.47156E-09
 -1       289 4.02870E+04 2.14858E+02 6.79186E+03-7.72506E+04 9.10404E-10-2.97405E-10
 -1       290 3.95132E+04-8.85608E+01 3.28164E+03-5.18104E+04 5.34783E-10-1.44428E-09
 -1       291 3.96236E+04 3.04815E+01 1.72830E+03-7.72669E+04-2.81489E-10-3.45972E-09
 -1       292 3.94779E+04 1.51020E+01 9.41130E+02-5.18114E+04 8.56744E-10 1.56433E-09
 -1       293 3.94807E+04 7.31105E+01 6.81273E+02-7.72661E+04 8.64247E-10 8.94943E-10
 -1       294 3.94585E+04 3.73554E+01 7.25947E+02-5.18114E+04 8.56062E-10-2.55113E-09
 -1       295 3.95233E+04 6.93672E+01 1.17234E+03-7.72660E+04 1.29990E-09-3.73439E-09
 -1       296 3.94675E+04-1.57989E+01 2.14058E+03-5.18114E+04-1.61799E-09 1.24237E-09
 -1       297 3.99417E+04 1.91043E+02 4.37629E+03-7.72516E+04 1.60526E-10 6.25050E-10
 -1       298 3.93020E+04-1.66833E+01 8.42214E+03-5.18254E+04 1.20963E-09-7.58803E-10
 -1       299 4.43879E+04 4.72154E+03 1.89904E+04-7.69080E+04-2.11003E-10-3.85819E-09
 -1       300 3.55095E+04 4.12937E+03 3.42129E+04-5.21625E+04-6.69388E-10 2.49202E-09
 -1       301 1.50328E+04 1.69008E+05 6.91866E+04-4.03132E+05 9.24047E-10 2.68847E-09
 -1       302 1.16090E+04 1.84010E+05 4.11043E+04-5.53386E+05-1.11322E-09-2.59388E-09
 -1       303 2.46494E+03 1.74462E+05 2.54418E+04-4.02224E+05 4.03816E-10 6.96446E-10
 -1       304 8.08085E+03 1.80594E+05 2.89232E+04-5.53425E+05-8.14907E-10 1.79716E-09
 -1       305 9.12834E+03 1.72174E+05 4.16276E+04-4.03100E+05-6.27551E-11 4.32919E-09
 -1       306-1.51326E+06-2.55148E+05-1.16910E+05-6.08375E+05-3.42425E-10 1.01863E-09
 -1       307-1.52787E+06-2.82502E+05-6.36322E+04-6.34543E+05-8.49468E-10 1.24783E-09
 -1       308-1.52557E+06-2.47852E+05-2.64298E+04-6.16326E+05-1.61890E-10 9.22228E-10
 -1       309-1.51136E+06-2.65209E+05-1.31902E+04-6.35695E+05 4.03452E-09 5.81167E-09
 -1       310-1.52664E+06-2.47739E+05-6.05834E+03-6.16687E+05 4.47289E-09 4.82578E-09
 -1       311-1.51023E+06-2.64440E+05-3.08462E+03-6.35759E+05-1.29148E-09-1.56905E-09
 -1       312-1.52683E+06-2.47750E+05-1.70288E+03-6.16698E+05-1.91449E-10 3.55976E-09
 -1       313-1.51013E+06-2.64424E+05-1.40997E+03-6.35794E+05 1.12766E-09 2.50111E-11
 -1       314-1.52683E+06-2.47744E+05-1.86060E+03-6.16697E+05-1.01977E-10-2.40971E-09
 -1       315-1.51026E+06-2.64449E+05-3.50311E+03-6.35778E+05 1.21008E-09 1.74623E-10
 -1       316-1.52662E+06-2.47713E+05-6.94767E+03-6.16684E+05-1.64709E-09-3.24781E-09
 -1       317-1.51157E+06-2.65348E+05-1.51726E+04-6.35746E+05-2.77441E-09-5.19321E-09
 -1       318-1.52542E+06-2.47817E+05-3.04098E+04-6.16264E+05 1.12050E-09 4.48927E-09
 -1       319-1.53054E+06-2.85314E+05-7.32413E+04-6.34524E+05 9.94987E-10-9.98625E-10
 -1       320-1.51132E+06-2.56136E+05-1.34544E+05-6.07062E+05 1.96133E-09 4.62023E-09
 -1       321 2.16985E+05 6.47484E+03 5.22124E+04-3.11743E+04 3.81988E-11-2.36469E-10
 -1       322 2.30506E+05 7.27386E+03 2.89516E+04-4.59029E+04-2.61934E-10 1.27329E-10
 -1       323 2.22946E+05 1.68736E+01 1.28449E+04-3.09455E+04-1.43700E-10 3.74348E-09
 -1       324 2.23960E+05 2.53962E+02 6.64400E+03-4.61262E+04 3.36513E-10 8.94488E-10
 -1       325 2.23311E+05-6.46376E+01 3.21103E+03-3.09400E+04 2.84672E-10-1.60071E-10
 -1       326 2.23431E+05 9.39255E+00 1.67366E+03-4.61284E+04 2.32603E-10 2.23031E-09
 -1       327 2.23336E+05-6.78322E+00 8.88795E+02-3.09439E+04 4.97948E-11-5.52063E-10
 -1       328 2.23347E+05 2.00508E+01 5.97883E+02-4.61240E+04-1.04706E-10-1.33628E-09
 -1       329 2.23337E+05 3.43527E+00 5.78591E+02-3.09445E+04 3.75394E-10-7.71479E-10
 -1       330 2.23375E+05 1.79155E+01 8.79337E+02-4.61249E+04-1.26101E-09-6.86668E-11
 -1       331 2.23332E+05-2.54332E+01 1.57500E+03-3.09429E+04-2.00544E-10-1.55114E-09
 -1       332 2.23642E+05 1.26656E+02 3.19960E+03-4.61223E+04-2.06910E-10-3.78350E-10
 -1       333 2.23175E+05 1.44720E+00 6.15485E+03-3.09470E+04 2.15550E-10 2.87059E-10
 -1       334 2.26810E+05 3.46920E+03 1.38610E+04-4.59240E+04 8.81300E-10 2.33047E-09
 -1       335 2.20348E+05 3.07097E+03 2.49821E+04-3.11451E+04-3.86535E-10 6.65750E-10
 -1       336 4.99231E+03 7.19490E+04 3.93495E+04-2.62892E+05-2.69574E-09 1.39698E-09
 -1       337 6.94369E+03 8.11920E+04 2.55270E+04-3.89974E+05-1.50612E-09-5.34874E-09
 -1       338 1.16142E+03 7.49421E+04 1.84772E+04-2.62169E+05-3.65799E-09 6.44377E-10
 -1       339 7.21830E+03 8.08143E+04 2.57369E+04-3.90130E+05-1.22236E-09 6.96673E-10
 -1       340 5.45610E+03 7.13542E+04 3.98786E+04-2.62728E+05-3.60433E-09 1.59343E-09
 -1       341-9.57742E+05-1.64199E+05-7.51034E+04-3.88579E+05-5.72982E-11-1.14233E-09
 -1       342-9.65869E+05-1.83053E+05-4.08789E+04-4.06876E+05 7.18046E-10 6.36646E-10
 -1       343-9.65622E+05-1.59534E+05-1.69805E+04-3.93694E+05-6.54836E-11-2.09184E-11
 -1       344-9.55268E+05-1.71925E+05-8.47872E+03-4.07550E+05-1.21872E-10 6.82007E-10
 -1       345-9.66271E+05-1.59490E+05-3.89692E+03-3.93931E+05-3.18778E-10 4.58044E-10
 -1       346-9.54545E+05-1.71416E+05-1.99520E+03-4.07542E+05 6.64841E-10 6.63556E-09
 -1       347-9.66369E+05-1.59519E+05-1.11814E+03-3.93940E+05-4.12456E-10 7.11907E-10
 -1       348-9.54480E+05-1.71396E+05-9.57884E+02-4.07533E+05-4.64951E-10 3.95858E-10
 -1       349-9.66354E+05-1.59525E+05-1.30122E+03-3.93941E+05 3.36513E-11 1.03091E-09
 -1       350-9.54568E+05-1.71413E+05-2.47628E+03-4.07514E+05-4.70209E-10-1.80808E-09
 -1       351-9.66207E+05-1.59501E+05-4.92437E+03-3.93929E+05 5.45697E-11 7.08496E-10
 -1       352-9.55489E+05-1.72056E+05-1.07561E+04-4.07509E+05-1.98270E-10 3.27782E-09
 -1       353-9.65375E+05-1.59558E+05-2.15590E+04-3.93625E+05-8.70386E-10-1.88811E-09
 -1       354-9.68942E+05-1.86208E+05-5.19117E+04-4.06672E+05 1.00044E-11 2.95768E-09
 -1       355-9.55386E+05-1.65453E+05-9.53618E+04-3.87105E+05-1.42882E-09 5.09317E-11
 -1       356 1.58925E+05 2.36410E+03 1.89335E+04-1.06195E+04 6.26642E-10 5.92536E-10
 -1       357 1.63820E+05 2.64520E+03 1.04902E+04-1.56362E+04 6.18456E-11-2.88674E-09
 -1       358 1.61104E+05 1.13069E+01 4.64050E+03-1.05348E+04-4.35648E-10 1.88015E-09
 -1       359 1.61467E+05 8.89331E+01 2.36938E+03-1.57203E+04 1.90767E-10 4.06089E-10
 -1       360 1.61249E+05-2.54232E+01 1.08589E+03-1.05327E+04-2.96950E-10-1.13823E-09
 -1       361 1.61282E+05-5.42216E+00 4.45356E+02-1.57216E+04 2.53635E-10-2.14209E-09
 -1       362 1.61268E+05-3.41745E+00 4.40501E+00-1.05335E+04 5.89580E-10-9.53833E-10
 -1       363 1.61234E+05 4.41848E-01-4.31938E+02-1.57202E+04 1.58047E-09 1.89812E-09
 -1       364 1.61286E+05 2.06446E+01-1.06690E+03-1.05341E+04-3.83238E-10 1.63811E-09
 -1       365 1.61134E+05-4.08192E-01-2.29427E+03-1.57198E+04-5.65592E-12-1.59525E-09
 -1       366 1.61366E+05 7.62167E+01-4.55983E+03-1.05340E+04-6.76550E-10-3.45290E-09
 -1       367 1.60461E+05-3.98731E+02-9.50731E+03-1.57178E+04-5.22164E-10-1.26829E-09
 -1       368 1.61969E+05-9.75072E+01-1.84301E+04-1.05363E+04-5.57066E-11-9.64064E-11
 -1       369 1.51218E+05-1.05431E+04-4.15364E+04-1.56582E+04-6.15046E-10 4.56566E-10
 -1       370 1.70641E+05-9.43270E+03-7.49134E+04-1.05868E+04 3.01043E-10 2.70666E-09
 -1       371 3.51473E+02-1.12294E+04 2.31482E+03-1.74625E+05 1.39607E-09 5.05679E-10
 -1       372 9.98512E+02-1.10670E+04 2.10091E+03-2.59011E+05 8.78572E-10-1.98634E-09
 -1       373 5.25186E+02-1.16047E+04 2.41458E+03-1.74110E+05 1.41335E-09-2.60115E-10
 -1       374 1.93812E+03-1.06748E+04 4.61250E+03-2.59187E+05 1.35333E-09-3.17414E-10
 -1       375 1.38383E+03-1.23438E+04 7.89167E+03-1.74447E+05 1.10458E-09 1.70257E-09
 -1       376-1.53345E+05-4.65534E+04-1.55052E+04-8.87173E+04 2.34650E-10-9.33142E-10
 -1       377-1.45836E+05-5.96170E+04-8.43764E+03-1.03030E+05 2.50793E-09 6.22106E-09
 -1       378-1.55076E+05-4.54910E+04-3.51420E+03-8.97030E+04 4.67935E-10 1.16597E-09
 -1       379-1.43600E+05-5.73905E+04-1.76819E+03-1.03277E+05-1.73486E-10-1.33332E-09
 -1       380-1.55219E+05-4.54751E+04-8.43832E+02-8.97577E+04 2.41698E-10-4.65434E-10
 -1       381-1.43457E+05-5.72840E+04-4.97676E+02-1.03274E+05 4.29097E-10-4.93174E-10
 -1       382-1.55223E+05-4.54864E+04-4.10028E+02-8.97561E+04 3.40151E-10 2.06728E-09
 -1       383-1.43432E+05-5.72869E+04-5.81440E+02-1.03254E+05-1.12868E-09 1.37061E-09
 -1       384-1.55182E+05-4.54976E+04-1.06528E+03-8.97390E+04-4.59295E-10-1.17325E-09
 -1       385-1.43476E+05-5.73334E+04-2.21809E+03-1.03235E+05 5.15683E-10-2.81943E-09
 -1       386-1.55028E+05-4.54722E+04-4.51741E+03-8.96956E+04-1.99998E-09 3.81624E-09
 -1       387-1.44255E+05-5.79734E+04-9.90483E+03-1.03243E+05-1.16415E-10 1.41381E-09
 -1       388-1.54256E+05-4.55261E+04-1.98793E+04-8.93752E+04 2.57569E-09-2.43017E-09
 -1       389-1.56591E+05-7.10119E+04-4.78302E+04-1.02446E+05-3.70710E-09 3.81624E-09
 -1       390-1.45004E+05-5.09974E+04-8.78804E+04-8.33453E+04-3.25235E-09 8.14907E-10
 -1       406 1.52568E+04 1.67221E+06 7.85458E+04 9.51734E+04-3.20142E-10-2.62844E-10
 -1       407 9.68886E+03 1.69107E+06 5.07979E+04 1.31698E+05-4.51109E-10-1.52340E-09
 -1       408 2.74165E+02 1.67977E+06 3.95705E+04 9.52095E+04-7.02585E-10-7.62157E-10
 -1       409 1.15944E+04 1.69354E+06 5.80970E+04 1.31225E+05-1.77033E-09 1.56433E-09
 -1       410 1.84037E+04 1.67087E+06 9.50067E+04 9.57033E+04-1.68802E-09 3.81260E-09
 -1       466 8.09567E+05 9.36023E+03 7.71383E+04-6.00884E+04 5.45697E-12-1.33514E-09
 -1       467 8.29562E+05 1.05843E+04 4.27988E+04-8.87215E+04 1.32786E-10 1.86446E-10
 -1       468 8.18238E+05-8.48539E+01 1.89874E+04-5.96937E+04-8.18545E-11 3.38332E-10
 -1       469 8.19687E+05 3.11513E+02 9.85455E+03-8.90560E+04 1.67347E-10 7.24867E-10
 -1       470 8.18674E+05-1.27878E+02 4.80470E+03-5.97214E+04-1.09139E-11 3.43789E-10
 -1       471 8.18790E+05 1.35734E+01 2.60181E+03-8.90067E+04 3.82897E-10-9.88166E-10
 -1       472 8.18655E+05-6.78206E+00 1.55966E+03-5.97445E+04-4.58385E-10-3.56067E-10
 -1       473 8.18643E+05 4.79769E+01 1.38371E+03-8.89816E+04-6.14534E-10 6.19366E-10
 -1       474 8.18642E+05-6.50234E+00 1.83250E+03-5.97469E+04 1.15051E-10 1.38471E-09
 -1       475 8.18802E+05 2.62197E+01 3.29736E+03-8.89996E+04 1.32923E-09-1.10686E-09
 -1       476 8.18618E+05-1.34447E+02 6.23965E+03-5.97261E+04 3.26509E-10 2.05091E-10
 -1       477 8.19890E+05 4.62857E+02 1.28670E+04-8.90400E+04-3.34694E-10 2.01823E-09
 -1       478 8.17975E+05-2.49257E+01 2.48421E+04-5.97047E+04-2.76486E-10 8.86757E-10
 -1       479 8.32674E+05 1.39650E+04 5.59855E+04-8.87109E+04-1.41881E-10-2.04136E-09
 -1       480 8.06543E+05 1.24037E+04 1.00948E+05-6.00939E+04-7.11225E-10-1.21508E-09
 -1       481 4.00602E+03 3.28693E+05 3.02789E+04-8.95866E+04 1.43700E-10 3.59705E-10
 -1       482 4.69445E+03 3.36329E+05 1.78319E+04-1.32869E+05-1.76215E-10 2.41306E-09
 -1       483 3.40449E+02 3.32013E+05 9.99729E+03-8.94334E+04-4.36557E-11 3.26054E-10
 -1       484 2.16777E+03 3.34164E+05 9.89357E+03-1.32771E+05 4.54747E-12-4.32919E-10
 -1       485 1.59250E+03 3.31085E+05 1.27922E+04-8.96923E+04 8.59472E-11-1.56797E-09
 -1       486-7.77043E+05-1.42498E+05-8.77701E+04-3.23935E+05 4.05521E-10-4.43833E-10
 -1       487-7.87418E+05-1.63633E+05-4.77688E+04-3.44295E+05-3.09228E-10 3.05681E-09
 -1       488-7.86296E+05-1.37008E+05-1.98496E+04-3.29912E+05 1.54614E-10 7.71252E-10
 -1       489-7.75037E+05-1.50649E+05-9.89987E+03-3.45146E+05 2.11003E-10-1.49385E-09
 -1       490-7.87088E+05-1.36936E+05-4.54007E+03-3.30202E+05 1.43700E-10-1.84446E-09
 -1       491-7.74218E+05-1.50053E+05-2.28547E+03-3.45178E+05 1.29603E-10-1.65608E-09
 -1       492-7.87236E+05-1.36943E+05-1.21183E+03-3.30220E+05 1.52795E-10-1.09972E-09
 -1       493-7.74154E+05-1.50037E+05-9.10142E+02-3.45215E+05 2.36469E-11-1.62186E-09
 -1       494-7.87261E+05-1.36928E+05-1.08788E+03-3.30223E+05 3.65389E-10 1.24032E-09
 -1       495-7.74223E+05-1.50059E+05-1.96365E+03-3.45237E+05 1.23873E-09 4.86216E-09
 -1       496-7.87169E+05-1.36894E+05-3.84670E+03-3.30211E+05-2.14641E-10-3.26509E-10
 -1       497-7.74931E+05-1.50570E+05-8.37815E+03-3.45255E+05-5.41149E-11-7.74889E-10
 -1       498-7.86528E+05-1.36934E+05-1.67798E+04-3.29969E+05 1.00044E-11-3.31056E-10
 -1       499-7.85396E+05-1.61572E+05-4.03970E+04-3.44589E+05 1.08685E-10 1.19326E-09
 -1       500-7.78730E+05-1.41552E+05-7.42165E+04-3.24906E+05-3.84262E-11 8.40373E-10
 -1       501 6.45772E+05 1.03091E+04 8.49956E+04-6.67828E+04 9.60426E-10 1.74623E-10
 -1       502 6.67812E+05 1.16923E+04 4.71585E+04-9.84427E+04-1.36424E-10-3.09228E-10
 -1       503 6.55292E+05-7.48574E+01 2.09141E+04-6.63269E+04 7.63976E-11 1.19326E-09
 -1       504 6.56888E+05 3.91027E+02 1.08501E+04-9.88450E+04 4.72937E-11 1.63527E-09
 -1       505 6.55751E+05-1.06245E+02 5.27731E+03-6.63474E+04 3.01952E-10 4.95675E-10
 -1       506 6.55874E+05 7.54948E+01 2.83551E+03-9.88048E+04-8.18545E-12 3.39242E-10
 -1       507 6.55721E+05 3.58227E+01 1.65649E+03-6.63688E+04 6.09816E-10 6.02085E-10
 -1       508 6.55701E+05 1.18033E+02 1.39820E+03-9.87821E+04 1.63041E-09-2.14686E-09
 -1       509 6.55711E+05 3.94909E+01 1.76913E+03-6.63703E+04 6.38920E-10 1.68393E-09
 -1       510 6.55865E+05 8.84386E+01 3.12150E+03-9.87987E+04 7.02130E-10-3.65617E-10
 -1       511 6.55714E+05-9.82619E+01 5.86834E+03-6.63520E+04-1.47338E-10-1.61572E-09
 -1       512 6.56942E+05 4.68702E+02 1.20878E+04-9.88334E+04 9.33142E-10-4.09273E-10
 -1       513 6.55160E+05-3.24316E+01 2.33211E+04-6.63337E+04 5.58430E-10-1.84809E-09
 -1       514 6.69046E+05 1.31032E+04 5.25744E+04-9.84426E+04-5.58430E-10-4.54747E-12
 -1       515 6.44497E+05 1.15831E+04 9.47773E+04-6.67766E+04-4.25644E-10-1.14960E-09
 -1       516 5.65167E+03 1.82989E+05 4.06949E+04-2.52271E+05 6.69388E-10 7.82165E-10
 -1       517 7.33969E+03 1.92685E+05 2.54391E+04-3.74501E+05-7.36691E-10 3.94402E-09
 -1       518 1.15083E+03 1.86835E+05 1.68548E+04-2.51746E+05 1.27329E-10 9.05857E-10
 -1       519 5.84976E+03 1.91939E+05 2.13230E+04-3.74348E+05-2.51021E-10-4.32919E-10
 -1       520 4.05412E+03 1.84688E+05 3.15693E+04-2.52434E+05 2.46018E-10-2.39743E-09
 -1       521-1.36005E+06-2.34491E+05-1.27784E+05-5.50654E+05-1.72804E-11-2.00089E-09
 -1       522-1.37749E+06-2.62956E+05-6.95527E+04-5.77624E+05 3.54703E-11 8.18545E-11
 -1       523-1.37348E+06-2.26547E+05-2.88880E+04-5.59377E+05 8.00355E-11 4.85670E-10
 -1       524-1.35947E+06-2.44024E+05-1.44096E+04-5.78840E+05-6.35737E-10-1.55501E-09
 -1       525-1.37464E+06-2.26433E+05-6.60320E+03-5.59781E+05-3.19233E-10 1.43882E-09
 -1       526-1.35824E+06-2.43173E+05-3.32686E+03-5.78899E+05 1.52795E-10 1.45806E-09
 -1       527-1.37485E+06-2.26446E+05-1.76725E+03-5.59797E+05-6.84850E-10 4.95447E-10
 -1       528-1.35813E+06-2.43155E+05-1.33708E+03-5.78941E+05 1.95541E-10-1.83445E-09
 -1       529-1.37487E+06-2.26436E+05-1.61172E+03-5.59796E+05-2.30330E-10-1.36424E-12
 -1       530-1.35823E+06-2.43179E+05-2.92017E+03-5.78937E+05 1.34423E-09 4.74938E-09
 -1       531-1.37470E+06-2.26412E+05-5.73094E+03-5.59782E+05-3.90173E-10 1.75896E-09
 -1       532-1.35930E+06-2.43921E+05-1.24828E+04-5.78904E+05 3.41061E-11-1.21418E-10
 -1       533-1.37370E+06-2.26505E+05-2.50066E+04-5.59433E+05 3.12866E-10 7.38510E-10
 -1       534-1.37491E+06-2.60302E+05-6.02120E+04-5.77842E+05-1.53386E-09-2.69756E-09
 -1       535-1.36206E+06-2.33402E+05-1.10619E+05-5.51899E+05-3.39696E-10 3.96540E-10
 -1       536 7.17525E+05 1.25635E+04 1.02039E+05-5.67616E+04 1.60071E-10 2.09184E-09
 -1       537 7.43942E+05 1.41450E+04 5.65887E+04-8.36889E+04-1.26693E-09-1.91358E-09
 -1       538 7.29095E+05-1.00778E+01 2.51087E+04-5.63744E+04 1.25510E-10-2.12094E-09
 -1       539 7.31038E+05 4.86946E+02 1.30049E+04-8.40224E+04-5.45697E-10 2.20734E-09
 -1       540 7.29751E+05-1.25845E+02 6.30655E+03-5.63925E+04 1.76442E-10 3.38332E-10
 -1       541 7.29941E+05 4.42680E+01 3.33540E+03-8.39853E+04-2.76486E-10-1.52613E-09
 -1       542 7.29771E+05 6.15685E+00 1.85874E+03-5.64133E+04-1.19690E-09-1.27193E-09
 -1       543 7.29767E+05 7.35034E+01 1.41413E+03-8.39634E+04 1.28011E-10-5.92081E-10
 -1       544 7.29770E+05 1.60599E+01 1.60939E+03-5.64147E+04 7.97627E-10-3.07409E-10
 -1       545 7.29889E+05 5.48025E+01 2.69642E+03-8.39777E+04-6.63476E-10 2.33331E-09
 -1       546 7.29762E+05-8.92310E+01 4.99106E+03-5.63988E+04-7.45786E-11-2.16460E-10
 -1       547 7.30769E+05 3.92067E+02 1.02343E+04-8.40111E+04 7.42148E-10-2.31984E-09
 -1       548 7.29268E+05-1.40643E+01 1.97283E+04-5.63800E+04-2.20098E-10 1.59071E-09
 -1       549 7.40951E+05 1.10973E+04 4.44524E+04-8.36952E+04-3.56522E-10 4.83146E-09
 -1       550 7.20214E+05 9.83292E+03 8.01346E+04-5.67399E+04-1.17507E-09 3.30328E-09
 -1       551 8.43732E+03 4.36034E+04 3.77328E+04-3.94646E+05 2.29193E-10-6.91216E-10
 -1       552 7.37438E+03 5.12271E+04 2.46669E+04-5.41973E+05-5.09317E-11 4.27463E-10
 -1       553 2.17808E+03 4.58765E+04 1.92262E+04-3.93797E+05 4.32919E-10 1.00499E-09
 -1       554 8.33322E+03 5.24037E+04 2.82620E+04-5.41908E+05-5.09317E-11 7.27596E-10
 -1       555 1.00225E+04 4.28926E+04 4.58439E+04-3.94712E+05 5.45242E-10-1.91358E-09
 -1       556-1.23489E+06-2.39009E+05-1.08004E+05-5.22222E+05 3.63798E-11-1.06229E-09
 -1       557-1.24163E+06-2.57998E+05-5.71385E+04-5.53328E+05-2.34650E-10-3.67436E-10
 -1       558-1.24452E+06-2.24493E+05-2.40077E+04-5.32101E+05-1.74805E-09-4.24734E-09
 -1       559-1.22754E+06-2.43721E+05-1.18856E+04-5.54252E+05-8.07631E-10 1.42768E-09
 -1       560-1.24542E+06-2.24139E+05-5.47936E+03-5.32528E+05-1.69439E-09 1.41085E-10
 -1       561-1.22669E+06-2.43149E+05-2.77212E+03-5.54286E+05-6.98492E-10-1.88197E-09
 -1       562-1.24560E+06-2.24160E+05-1.50557E+03-5.32556E+05-1.16779E-09-1.82035E-09
 -1       563-1.22661E+06-2.43133E+05-1.20000E+03-5.54290E+05 6.93909E-10 8.80846E-10
 -1       564-1.24558E+06-2.24175E+05-1.52972E+03-5.32550E+05 3.72393E-09 4.22642E-09
 -1       565-1.22667E+06-2.43148E+05-2.83314E+03-5.54233E+05 1.37334E-09 2.93858E-09
 -1       566-1.24536E+06-2.24186E+05-5.61229E+03-5.32512E+05-6.12090E-10 1.46974E-09
 -1       567-1.22752E+06-2.43733E+05-1.21678E+04-5.54149E+05-5.72072E-10-9.27685E-11
 -1       568-1.24439E+06-2.24570E+05-2.45804E+04-5.32064E+05-2.00089E-11-8.18545E-10
 -1       569-1.24195E+06-2.58324E+05-5.84905E+04-5.53133E+05 1.21599E-09-4.49290E-10
 -1       570-1.23448E+06-2.39463E+05-1.10553E+05-5.21964E+05 3.74712E-10-8.98581E-10
 -1       571 8.05868E+05 1.83791E+04 8.98512E+04-6.59422E+04 1.63345E-09 5.34783E-10
 -1       572 8.27349E+05 1.13262E+04 4.85380E+04-9.01338E+04-8.18545E-11-1.80444E-09
 -1       573 8.15314E+05 1.86943E+02 2.17175E+04-6.55769E+04-1.30967E-09-2.72848E-10
 -1       574 8.16856E+05 2.93866E+02 1.11654E+04-9.04623E+04-8.94488E-10-2.05910E-09
 -1       575 8.15856E+05-1.33348E+02 5.39079E+03-6.55784E+04 4.00178E-11-8.08541E-10
 -1       576 8.16010E+05-1.53904E+01 2.75767E+03-9.04570E+04-1.40062E-10-2.55113E-10
 -1       577 8.15910E+05-3.10970E+01 1.36749E+03-6.55836E+04-2.01794E-09 7.66249E-10
 -1       578 8.15912E+05-8.19898E+00 7.33251E+02-9.04609E+04 7.34417E-11 2.48838E-09
 -1       579 8.15973E+05-3.87651E+01 4.25255E+02-6.55749E+04 5.61158E-10-1.36606E-09
 -1       580 8.16016E+05-6.76677E+01 3.59558E+02-9.04929E+04 1.07593E-09 6.33008E-10
 -1       581 8.16099E+05-1.27932E+02 4.38568E+02-6.55515E+04-6.85759E-10-3.03316E-10
 -1       582 8.16295E+05-1.68222E+02 8.03683E+02-9.05243E+04-1.19962E-09 3.46608E-09
 -1       583 8.16263E+05-2.47364E+02 1.47548E+03-6.55426E+04-7.71252E-10 1.99498E-09
 -1       584 8.17357E+05 4.22740E+02 3.33234E+03-9.01110E+04-5.17139E-09-7.17591E-10
 -1       585 8.15872E+05 8.22780E+02 6.09869E+03-6.59670E+04 1.76442E-09 3.11411E-09
 -1       586 3.05714E+03 2.83773E+04 1.31122E+04-3.27568E+05-2.86855E-09-1.27693E-09
 -1       587 3.57916E+03 3.03673E+04 1.01594E+04-4.49570E+05-8.44011E-10 1.42609E-09
 -1       588 1.67696E+03 2.81210E+04 1.03832E+04-3.26738E+05-3.64344E-09 1.91085E-09
 -1       589 6.26838E+03 3.20957E+04 1.84372E+04-4.49762E+05-1.21145E-09 1.32331E-10
 -1       590 7.62080E+03 2.54349E+04 3.19140E+04-3.27361E+05-3.46881E-09-2.02817E-09
 -1       591-8.22722E+05-1.68851E+05-8.38709E+04-3.57744E+05-1.70007E-09 2.56841E-09
 -1       592-8.26977E+05-1.84649E+05-4.43810E+04-3.83075E+05-1.26056E-09 5.11181E-09
 -1       593-8.30106E+05-1.57650E+05-1.86416E+04-3.65444E+05-1.39335E-09-2.97132E-09
 -1       594-8.16033E+05-1.73515E+05-9.23913E+03-3.83656E+05-7.14863E-10 2.13106E-09
 -1       595-8.30741E+05-1.57431E+05-4.26709E+03-3.65767E+05 6.80302E-10 4.45880E-10
 -1       596-8.15335E+05-1.73064E+05-2.18433E+03-3.83600E+05 9.16316E-10-1.88447E-09
 -1       597-8.30821E+05-1.57487E+05-1.23300E+03-3.65774E+05-3.64253E-10 4.82942E-10
 -1       598-8.15248E+05-1.73054E+05-1.06737E+03-3.83545E+05 2.12594E-10 3.44880E-09
 -1       599-8.30756E+05-1.57523E+05-1.46797E+03-3.65755E+05-5.09317E-11-4.12001E-10
 -1       600-8.15282E+05-1.73081E+05-2.79400E+03-3.83471E+05 2.69483E-09-6.16183E-10
 -1       601-8.30529E+05-1.57529E+05-5.57460E+03-3.65706E+05-3.16504E-10 1.44792E-09
 -1       602-8.16126E+05-1.73675E+05-1.20986E+04-3.83412E+05 1.63891E-09-5.01132E-10
 -1       603-8.29600E+05-1.57891E+05-2.44445E+04-3.65258E+05-9.25866E-10-9.05857E-10
 -1       604-8.30455E+05-1.88202E+05-5.81496E+04-3.82484E+05-8.14998E-09 4.04543E-09
 -1       605-8.19824E+05-1.72625E+05-1.09901E+05-3.55177E+05-3.46154E-09 3.43789E-09
 -1       606 3.18954E+05-9.05941E+03-4.36497E+04 5.56411E+04-1.45483E-08 2.97189E-09
 -1       607 3.08437E+05-5.40133E+03-2.35488E+04 7.52467E+04-4.40559E-09 3.65162E-09
 -1       608 3.14057E+05-3.17156E+01-1.05729E+04 5.51780E+04 1.05865E-08 2.06273E-09
 -1       609 3.13100E+05 1.59767E+02-5.40906E+03 7.56991E+04-6.98765E-09 3.69801E-09
 -1       610 3.13547E+05 3.00257E+02-2.61240E+03 5.51659E+04-2.01526E-08-3.60251E-09
 -1       611 3.13232E+05 4.62753E+02-1.28810E+03 7.56964E+04-3.58386E-08 2.02317E-09
 -1       612 3.13365E+05 3.59256E+02-5.73167E+02 5.51764E+04-1.40244E-08 2.45518E-09
 -1       613 3.13138E+05 5.39026E+02-1.54692E+02 7.56785E+04-1.89580E-08 4.79213E-09
 -1       614 3.13269E+05 3.98211E+02 1.80408E+02 5.51819E+04 8.95852E-10 3.16413E-09
 -1       615 3.13101E+05 5.74242E+02 6.21282E+02 7.56687E+04 2.20823E-08 3.02543E-09
 -1       616 3.13217E+05 3.94483E+02 1.33747E+03 5.51852E+04-1.08417E-08 1.01954E-09
 -1       617 3.13294E+05 6.66790E+02 2.83316E+03 7.56554E+04 3.91083E-09 5.84805E-09
 -1       618 3.13076E+05 4.76839E+02 5.53853E+03 5.51943E+04-1.55705E-09 6.05723E-10
 -1       619 3.15999E+05 3.47319E+03 1.23951E+04 7.54355E+04 6.25732E-10 1.09048E-09
 -1       620 3.10694E+05 5.09943E+03 2.29425E+04 5.53811E+04 4.53565E-09 4.07499E-09
 -1       621 8.82421E+03 1.16418E+06 4.55194E+04-1.17673E+05-3.07773E-09 6.33008E-10
 -1       622 6.34292E+03 1.17468E+06 3.35428E+04-1.60429E+05-2.48565E-09 3.72529E-09
 -1       623 9.95649E+02 1.16764E+06 3.29977E+04-1.17374E+05-3.75985E-09 6.71207E-10
 -1       624 1.33834E+04 1.18094E+06 5.72219E+04-1.60577E+05-1.70257E-09-2.16733E-09
 -1       625 2.06690E+04 1.15751E+06 9.91479E+04-1.17475E+05-2.47746E-09-1.11595E-09
 -1       626 5.35859E+05 1.12488E+05-9.86478E+03 2.52997E+05-1.09740E-08 2.56841E-09
 -1       627 5.19965E+05 1.26117E+05-5.19452E+03 2.67467E+05-1.53323E-08-6.76175E-09
 -1       628 5.35139E+05 1.13584E+05-2.20793E+03 2.51642E+05 3.11411E-09 1.83718E-09
 -1       629 5.20731E+05 1.27796E+05-1.06730E+03 2.67605E+05 5.16593E-10-2.77214E-09
 -1       630 5.34936E+05 1.13696E+05-4.75714E+02 2.51522E+05 8.84938E-09-4.07817E-09
 -1       631 5.20677E+05 1.27890E+05-1.68470E+02 2.67487E+05-2.85581E-08-6.45332E-09
 -1       632 5.34819E+05 1.13760E+05 3.59130E+01 2.51476E+05-1.95723E-08-7.93250E-10
 -1       633 5.20626E+05 1.27910E+05 2.74856E+02 2.67405E+05-6.81166E-09 2.90220E-09
 -1       634 5.34747E+05 1.13783E+05 6.48546E+02 2.51452E+05 6.85895E-09 1.72645E-09
 -1       635 5.20661E+05 1.27925E+05 1.43923E+03 2.67392E+05 9.39735E-09-2.25009E-09
 -1       636 5.34680E+05 1.13742E+05 2.96321E+03 2.51444E+05-1.05433E-08 8.62201E-10
 -1       637 5.21194E+05 1.28235E+05 6.49668E+03 2.67481E+05-3.50701E-09 7.71252E-10
 -1       638 5.34314E+05 1.13831E+05 1.31229E+04 2.51247E+05-1.16415E-09-1.11413E-09
 -1       639 5.29050E+05 1.36016E+05 3.12615E+04 2.67189E+05-7.22639E-09-1.00954E-09
 -1       640 5.29260E+05 1.21641E+05 5.90668E+04 2.45887E+05-9.52514E-09 2.32649E-09
 -1       641 1.21062E+04-8.35997E+02-6.89738E+03 4.67687E+03-1.19865E-08 2.57478E-09
 -1       642 1.03039E+04-9.22558E+02-3.82239E+03 6.89736E+03-1.25442E-08-3.67891E-10
 -1       643 1.13088E+04 2.34904E+01-1.69389E+03 4.65245E+03-1.02679E-08-3.69312E-09
 -1       644 1.11549E+04 1.14594E+01-8.69660E+02 6.91687E+03-2.34456E-09-4.66224E-09
 -1       645 1.12535E+04 3.91905E+01-4.08971E+02 4.65120E+03-4.46463E-09-2.18597E-09
 -1       646 1.12181E+04 4.77418E+01-1.89324E+02 6.91803E+03-6.52017E-09 5.67559E-09
 -1       647 1.12459E+04 3.30522E+01-5.52564E+01 4.65112E+03 2.04553E-08 7.86770E-10
 -1       648 1.12311E+04 4.67922E+01 4.79100E+01 6.91827E+03 4.65484E-08-3.02623E-09
 -1       649 1.12424E+04 2.75741E+01 1.72889E+02 4.65100E+03 1.79012E-08-4.82015E-09
 -1       650 1.12511E+04 4.59112E+01 3.94233E+02 6.91818E+03 1.14555E-08-2.52385E-11
 -1       651 1.12298E+04 1.64857E+01 7.93565E+02 4.65127E+03-4.76575E-10 5.85374E-10
 -1       652 1.13722E+04 1.13850E+02 1.66047E+03 6.91598E+03 2.01499E-09-4.63842E-10
 -1       653 1.11270E+04 4.49229E+01 3.22115E+03 4.65289E+03 9.54719E-09-2.87696E-09
 -1       654 1.29937E+04 1.88521E+03 7.26243E+03 6.86881E+03-1.09976E-08-3.19471E-09
 -1       655 9.61583E+03 1.67579E+03 1.31017E+04 4.68758E+03 1.79389E-08-3.49655E-09
 -1       656-5.26406E+03-2.91030E+05-3.83695E+04 9.10419E+04-7.76708E-10-5.74437E-09
 -1       657-6.16345E+03-3.00724E+05-2.40615E+04 1.34643E+05 3.02498E-09 5.84669E-09
 -1       658-6.08612E+02-2.95209E+05-1.63473E+04 9.07937E+04 5.12000E-09 1.17234E-09
 -1       659-5.24354E+03-3.00027E+05-2.12688E+04 1.34757E+05 2.12185E-09 4.45374E-09
 -1       660-4.35541E+03-2.91953E+05-3.22101E+04 9.09387E+04 4.07817E-09-4.70891E-09
 -1       661 2.18492E+05 3.55063E+04 1.59316E+04 8.61773E+04 1.65917E-08 3.21415E-09
 -1       662 2.21173E+05 3.85515E+04 8.67281E+03 8.89469E+04-5.82591E-09 5.16104E-09
 -1       663 2.20115E+05 3.45581E+04 3.60424E+03 8.73011E+04 4.36671E-10 5.86067E-09
 -1       664 2.18948E+05 3.61609E+04 1.80362E+03 8.90349E+04-8.49602E-09 2.11920E-09
 -1       665 2.20240E+05 3.45609E+04 8.33935E+02 8.73538E+04-6.76289E-09-2.42272E-09
 -1       666 2.18795E+05 3.60489E+04 4.38053E+02 8.90192E+04-1.49293E-08-3.79958E-09
 -1       667 2.20256E+05 3.45697E+04 2.65806E+02 8.73556E+04-4.04680E-09-4.53855E-09
 -1       668 2.18783E+05 3.60458E+04 2.64179E+02 8.90190E+04-1.44325E-09 6.94513E-09
 -1       669 2.20255E+05 3.45649E+04 3.99225E+02 8.73549E+04 8.17909E-09 7.40783E-10
 -1       670 2.18814E+05 3.60566E+04 7.91694E+02 8.90327E+04 2.24691E-08 1.53869E-09
 -1       671 2.20226E+05 3.45418E+04 1.58717E+03 8.73502E+04-6.74777E-09 1.25738E-09
 -1       672 2.19112E+05 3.62757E+04 3.47722E+03 8.90709E+04-1.00131E-08 1.63254E-09
 -1       673 2.19988E+05 3.45329E+04 6.96766E+03 8.72480E+04 2.50066E-09 1.44610E-09
 -1       674 2.23441E+05 4.08831E+04 1.67798E+04 8.88825E+04 2.26560E-08 3.74166E-09
 -1       675 2.16827E+05 3.63874E+04 3.08273E+04 8.50984E+04 1.69455E-08 1.15870E-09
 -1       676-1.74101E+03-2.58827E+05-1.42609E+04 9.82342E+03 3.27354E-08 8.92214E-10
 -1       677-2.07390E+03-2.62460E+05-9.54388E+03 1.41477E+04 2.17362E-08-1.09287E-09
 -1       678-9.95076E+01-2.60241E+05-7.53977E+03 9.78707E+03 1.97648E-08 5.11068E-09
 -1       679-2.64102E+03-2.62985E+05-1.13652E+04 1.41953E+04 9.65827E-09-4.61603E-09
 -1       680-2.26834E+03-2.58313E+05-1.82678E+04 9.77309E+03 2.94604E-08-1.25368E-09
 -1       681 4.40432E+05 2.60211E+03 2.21835E+04-4.10260E+04-1.27329E-10-1.08457E-10
 -1       682 4.46194E+05 2.97799E+03 1.23198E+04-6.05107E+04-2.54659E-11 1.12732E-09
 -1       683 4.42876E+05-7.45636E+01 5.46167E+03-4.07447E+04 7.82165E-11 6.83940E-10
 -1       684 4.43277E+05 5.52515E+01 2.84721E+03-6.07803E+04-5.82077E-11-2.81034E-10
 -1       685 4.42961E+05-5.75679E+01 1.40347E+03-4.07494E+04 1.18234E-10-1.03228E-10
 -1       686 4.42972E+05-4.94666E+00 7.98574E+02-6.07668E+04-1.63709E-10-1.96906E-10
 -1       687 4.42930E+05-6.16755E+00 5.46239E+02-4.07585E+04 1.38698E-10-4.56566E-10
 -1       688 4.42911E+05 1.71033E+01 5.98580E+02-6.07552E+04-3.18323E-11 1.12686E-09
 -1       689 4.42911E+05-5.79893E+00 9.20701E+02-4.07611E+04-6.83258E-11 2.03499E-10
 -1       690 4.42988E+05 1.23866E+01 1.75326E+03-6.07585E+04 1.31649E-10-4.01315E-10
 -1       691 4.42885E+05-6.66685E+01 3.37317E+03-4.07551E+04 2.96495E-10 4.95675E-11
 -1       692 4.43556E+05 2.63026E+02 6.98277E+03-6.07639E+04 5.91172E-12-3.76588E-10
 -1       693 4.42516E+05 7.30534E+00 1.34990E+04-4.07550E+04-1.47338E-10 5.39785E-10
 -1       694 4.50470E+05 7.62124E+03 3.04267E+04-6.05205E+04-3.16504E-10 9.01764E-10
 -1       695 4.36278E+05 6.77421E+03 5.48659E+04-4.10120E+04-8.80391E-10 7.27596E-12
 -1       696 4.60862E+03 5.67833E+05 3.44089E+04-9.29601E+04 9.45874E-11-1.42245E-09
 -1       697 5.25209E+03 5.76526E+05 1.81629E+04-1.37645E+05 2.92857E-10-3.34694E-10
 -1       698 3.03247E+02 5.71862E+05 6.18769E+03-9.27651E+04-1.30058E-10 1.92802E-09
 -1       699-7.43245E+02 5.71080E+05-1.00489E+03-1.37626E+05-1.91903E-10 1.88129E-09
 -1       700-1.02047E+03 5.73345E+05-7.77902E+03-9.29910E+04-1.74623E-10 1.83081E-09
 -1       701-3.97935E+05-7.72585E+04-6.39351E+04-1.69119E+05 6.19593E-11-1.92813E-10
 -1       702-4.06849E+05-9.13341E+04-3.48000E+04-1.82443E+05-1.26420E-10 2.71029E-10
 -1       703-4.04635E+05-7.32894E+04-1.44604E+04-1.73480E+05-5.45697E-11-2.96495E-10
 -1       704-3.97828E+05-8.18580E+04-7.21574E+03-1.83000E+05 5.67525E-10-3.85626E-10
 -1       705-4.05184E+05-7.32620E+04-3.31129E+03-1.73693E+05-9.09495E-12-1.85310E-10
 -1       706-3.97228E+05-8.14157E+04-1.67301E+03-1.82989E+05 3.27418E-11-6.39375E-10
 -1       707-4.05276E+05-7.32790E+04-8.97394E+02-1.73706E+05 1.53705E-10 1.35856E-10
 -1       708-3.97181E+05-8.13999E+04-6.92428E+02-1.83004E+05-3.34239E-11-8.23661E-11
 -1       709-4.05293E+05-7.32681E+04-8.51269E+02-1.73709E+05 1.72349E-10 7.69660E-11
 -1       710-3.97241E+05-8.14176E+04-1.55525E+03-1.83031E+05 1.95996E-10 6.29598E-10
 -1       711-4.05235E+05-7.32284E+04-3.05528E+03-1.73702E+05 7.37543E-11 4.15184E-10
 -1       712-3.97812E+05-8.18312E+04-6.66055E+03-1.83083E+05-1.42222E-10-4.10182E-10
 -1       713-4.04759E+05-7.32315E+04-1.33366E+04-1.73509E+05 1.02318E-10 5.45697E-12
 -1       714-4.06103E+05-9.06297E+04-3.21135E+04-1.82662E+05-1.59275E-10 7.68523E-10
 -1       715-3.98638E+05-7.68317E+04-5.89883E+04-1.69442E+05 1.80535E-10 1.56433E-10
 -1       716 3.55415E+05 5.69018E+03 4.68249E+04-5.17493E+04 4.67480E-10-2.41016E-10
 -1       717 3.67546E+05 6.46540E+03 2.59846E+04-7.62780E+04-1.72804E-10 6.98492E-10
 -1       718 3.60656E+05-2.34550E+01 1.15279E+04-5.14100E+04-1.25510E-10 2.93767E-10
 -1       719 3.61525E+05 2.38373E+02 5.98829E+03-7.66053E+04-3.16504E-10 4.45652E-10
 -1       720 3.60910E+05-4.21509E+01 2.92946E+03-5.14100E+04 4.93856E-10-3.22871E-10
 -1       721 3.60974E+05 6.06998E+01 1.60521E+03-7.65988E+04 4.29281E-10-6.36192E-10
 -1       722 3.60899E+05 2.95916E+01 9.97350E+02-5.14171E+04 5.80712E-10 6.08452E-10
 -1       723 3.60899E+05 7.51728E+01 9.42120E+02-7.65928E+04 7.12532E-10-4.26098E-10
 -1       724 3.60901E+05 1.69785E+01 1.31176E+03-5.14162E+04 3.30601E-10-7.76708E-10
 -1       725 3.61040E+05 4.71508E+01 2.41101E+03-7.66030E+04 1.08776E-09-3.89718E-10
 -1       726 3.60897E+05-8.86767E+01 4.58852E+03-5.14068E+04 2.93767E-10 1.38243E-10
 -1       727 3.61866E+05 3.57706E+02 9.48295E+03-7.66125E+04 4.93856E-10 5.65933E-10
 -1       728 3.60438E+05-1.90613E+01 1.83145E+04-5.14054E+04-2.18279E-11-7.09406E-11
 -1       729 3.71323E+05 1.03110E+04 4.12960E+04-7.62619E+04-4.67480E-10-9.66111E-10
 -1       730 3.52024E+05 9.13072E+03 7.44554E+04-5.17802E+04-1.47338E-10 6.00267E-10
 -1       731 4.19906E+03 1.96704E+05 3.13771E+04-1.44884E+05 3.51065E-10 2.24645E-10
 -1       732 4.96837E+03 2.04558E+05 1.77420E+04-2.15148E+05-3.65617E-10-4.97266E-10
 -1       733 3.88740E+02 2.00186E+05 8.50022E+03-1.44613E+05 6.63931E-11 8.88576E-10
 -1       734 1.14237E+03 2.01389E+05 5.84026E+03-2.15007E+05-1.38243E-10 1.68075E-09
 -1       735 5.08744E+02 2.00386E+05 5.14826E+03-1.45032E+05-5.18412E-11 1.84264E-09
 -1       736-8.21546E+05-1.38602E+05-7.79008E+04-3.28556E+05 9.73159E-11 1.14960E-09
 -1       737-8.33720E+05-1.54437E+05-4.24033E+04-3.43260E+05-5.94355E-10-7.93534E-10
 -1       738-8.29673E+05-1.33800E+05-1.76099E+04-3.33881E+05 2.36469E-11 2.82853E-10
 -1       739-8.22730E+05-1.42874E+05-8.78573E+03-3.43910E+05 1.92358E-10-1.06593E-09
 -1       740-8.30338E+05-1.33766E+05-4.02058E+03-3.34125E+05-2.02817E-10 3.11502E-10
 -1       741-8.21970E+05-1.42347E+05-2.01701E+03-3.43898E+05-4.10409E-10 5.30235E-10
 -1       742-8.30448E+05-1.33791E+05-1.05072E+03-3.34133E+05 2.09184E-10 2.50395E-10
 -1       743-8.21896E+05-1.42336E+05-7.55138E+02-3.43911E+05 6.53131E-10 2.02704E-10
 -1       744-8.30465E+05-1.33784E+05-8.56042E+02-3.34132E+05 1.39607E-10-3.20142E-10
 -1       745-8.21945E+05-1.42354E+05-1.50570E+03-3.43929E+05-8.04903E-11-5.52518E-10
 -1       746-8.30402E+05-1.33754E+05-2.92683E+03-3.34125E+05 7.07132E-11-2.00544E-10
 -1       747-8.22494E+05-1.42741E+05-6.36416E+03-3.43958E+05-9.82254E-11 2.18279E-11
 -1       748-8.29932E+05-1.33770E+05-1.27370E+04-3.33947E+05 2.30102E-10 6.57565E-10
 -1       749-8.30447E+05-1.51107E+05-3.06696E+04-3.43498E+05-4.18368E-11 4.96584E-10
 -1       750-8.24052E+05-1.37246E+05-5.63404E+04-3.30102E+05-9.84528E-11-3.43789E-10
 -1       751 7.30341E+05 1.37957E+04 1.11846E+05-6.51358E+04 8.00355E-11 1.04046E-09
 -1       752 7.59271E+05 1.55435E+04 6.20276E+04-9.60658E+04-7.71252E-10-2.72848E-11
 -1       753 7.43005E+05 2.46357E+01 2.75285E+04-6.47300E+04-4.92946E-10 3.58341E-10
 -1       754 7.45117E+05 5.80086E+02 1.42630E+04-9.64201E+04-5.86624E-10 1.42973E-09
 -1       755 7.43725E+05-1.03091E+02 6.92934E+03-6.47462E+04 3.71983E-10 2.18279E-11
 -1       756 7.43929E+05 8.72245E+01 3.68303E+03-9.63896E+04-1.29603E-10-1.34605E-09
 -1       757 7.43764E+05 2.76592E+01 2.08870E+03-6.47625E+04-6.34373E-10 2.51930E-10
 -1       758 7.43781E+05 9.74464E+01 1.65091E+03-9.63802E+04-3.61979E-10 2.76941E-10
 -1       759 7.43794E+05 9.64887E+00 1.95828E+03-6.47559E+04 4.35648E-10 4.25189E-10
 -1       760 7.43995E+05 4.23101E+01 3.35638E+03-9.64127E+04-8.65839E-10 6.67569E-10
 -1       761 7.43823E+05-1.53797E+02 6.25057E+03-6.47296E+04 1.27329E-10-4.78849E-10
 -1       762 7.45167E+05 4.31307E+02 1.28535E+04-9.64654E+04 6.02085E-10 9.68384E-10
 -1       763 7.43248E+05-9.33271E+01 2.47815E+04-6.47010E+04-2.29193E-10 4.36557E-10
 -1       764 7.58042E+05 1.38525E+04 5.58711E+04-9.60739E+04 9.18590E-10-1.27329E-11
 -1       765 7.31916E+05 1.22514E+04 1.00714E+05-6.51658E+04-1.09503E-09 1.88447E-09
 -1       766 9.46232E+03 3.29291E+05 7.53817E+04-1.74356E+05-2.70302E-09 6.45741E-11
 -1       767 1.13207E+04 3.48394E+05 4.80691E+04-2.58875E+05-9.16316E-10-1.26317E-09
 -1       768 6.56395E+02 3.36998E+05 3.39094E+04-1.74054E+05-2.75486E-09 1.80080E-09
 -1       769 1.04729E+04 3.48202E+05 4.59739E+04-2.58668E+05-7.56700E-10-8.84938E-10
 -1       770 8.47615E+03 3.30385E+05 7.07066E+04-1.74580E+05-2.05910E-09 5.49335E-10
 -1       771-1.76518E+06-3.09615E+05-1.55901E+05-7.03787E+05 1.79170E-10 4.36557E-10
 -1       772-1.78700E+06-3.25125E+05-8.25133E+04-7.34880E+05 9.73159E-11 9.60426E-10
 -1       773-1.77871E+06-2.88994E+05-3.46367E+04-7.18168E+05-3.36513E-10-8.38554E-10
 -1       774-1.76667E+06-3.04329E+05-1.71528E+04-7.35800E+05-1.32968E-09-1.67756E-09
 -1       775-1.77987E+06-2.88584E+05-7.89132E+03-7.18734E+05-1.28966E-09-1.32877E-09
 -1       776-1.76534E+06-3.03520E+05-3.97650E+03-7.35736E+05-8.17636E-10-1.72986E-09
 -1       777-1.78007E+06-2.88654E+05-2.11736E+03-7.18747E+05-1.59616E-10-1.58002E-09
 -1       778-1.76521E+06-3.03503E+05-1.61165E+03-7.35717E+05-8.28908E-10-1.09685E-09
 -1       779-1.78006E+06-2.88670E+05-1.95238E+03-7.18746E+05-6.45286E-10-8.00355E-10
 -1       780-1.76531E+06-3.03506E+05-3.53898E+03-7.35681E+05 7.91260E-11 1.34696E-09
 -1       781-1.77985E+06-2.88643E+05-6.95848E+03-7.18734E+05 2.95586E-10 1.37334E-10
 -1       782-1.76647E+06-3.04201E+05-1.50822E+04-7.35674E+05 3.91083E-11 1.52704E-09
 -1       783-1.77877E+06-2.89038E+05-3.04426E+04-7.18237E+05-1.52795E-10 3.05590E-10
 -1       784-1.78439E+06-3.22402E+05-7.25014E+04-7.34733E+05-3.55158E-10 5.89353E-10
 -1       785-1.76679E+06-3.07238E+05-1.36988E+05-7.05654E+05-6.14818E-10 2.76486E-09
 -1       786 6.34947E+05 1.11273E+04 9.11788E+04-6.68450E+04 1.26784E-09 1.16415E-10
 -1       787 6.58564E+05 1.25521E+04 5.05725E+04-9.87664E+04-1.36697E-09-7.93079E-10
 -1       788 6.45222E+05-5.82613E+01 2.24337E+04-6.64331E+04-1.12959E-09-2.91038E-11
 -1       789 6.46956E+05 3.81242E+02 1.16128E+04-9.91270E+04-1.47338E-10 2.45564E-10
 -1       790 6.45780E+05-1.40110E+02 5.61561E+03-6.64451E+04 5.32054E-10-1.88265E-10
 -1       791 6.45960E+05-6.89514E+00 2.93309E+03-9.91062E+04-1.77351E-10 1.32513E-09
 -1       792 6.45810E+05-2.83908E+01 1.56304E+03-6.64555E+04 2.35218E-10 1.39153E-10
 -1       793 6.45843E+05-3.93281E+00 1.05888E+03-9.91045E+04 3.65617E-10-1.77806E-10
 -1       794 6.45865E+05-5.01686E+01 1.02677E+03-6.64471E+04 4.68390E-10-1.26965E-09
 -1       795 6.46023E+05-7.79646E+01 1.57285E+03-9.91410E+04 9.30413E-10 3.25781E-09
 -1       796 6.45975E+05-1.91108E+02 2.80334E+03-6.64185E+04-1.54614E-09-4.39741E-10
 -1       797 6.46733E+05-7.14837E+00 5.72718E+03-9.91880E+04-1.53250E-09-1.03000E-09
 -1       798 6.45878E+05-2.81746E+02 1.09862E+04-6.63984E+04-1.16415E-09-6.71207E-10
 -1       799 6.52750E+05 5.81628E+03 2.48218E+04-9.87613E+04-5.90990E-09-2.29738E-09
 -1       800 6.41047E+05 5.04265E+03 4.46746E+04-6.68715E+04 1.95359E-09 5.30781E-09
 -1       801 4.24225E+03-4.53429E+04 2.61429E+04-4.10792E+05 2.35377E-09-1.05138E-09
 -1       802 7.43902E+03-4.07188E+04 1.99717E+04-6.09943E+05 2.25918E-09-3.17414E-10
 -1       803 2.68081E+03-4.47610E+04 1.92036E+04-4.09813E+05 2.41926E-09 1.44360E-09
 -1       804 1.14535E+04-3.65722E+04 3.33330E+04-6.09858E+05 2.61934E-09-9.96806E-10
 -1       805 7.84332E+03-4.87516E+04 5.55024E+04-4.10875E+05 1.57888E-09 3.81988E-10
 -1       806-1.10712E+06-2.09434E+05-9.58140E+04-4.62037E+05-1.03091E-09 1.81899E-09
 -1       807-1.11480E+06-2.24645E+05-5.07010E+04-4.87683E+05-8.73115E-10-8.45830E-10
 -1       808-1.11556E+06-1.96645E+05-2.12957E+04-4.70829E+05-9.54969E-11 1.29876E-09
 -1       809-1.10228E+06-2.11939E+05-1.05495E+04-4.88379E+05-1.09139E-10 2.20496E-09
 -1       810-1.11631E+06-1.96376E+05-4.86676E+03-4.71195E+05-2.01544E-09-1.42279E-09
 -1       811-1.10149E+06-2.11432E+05-2.47404E+03-4.88356E+05-1.34423E-09 9.33142E-10
 -1       812-1.11643E+06-1.96414E+05-1.36364E+03-4.71210E+05 8.16499E-10-2.03681E-09
 -1       813-1.10142E+06-2.11419E+05-1.12392E+03-4.88340E+05 1.66597E-09-2.86173E-09
 -1       814-1.11641E+06-1.96428E+05-1.47675E+03-4.71205E+05 3.85171E-10-1.51340E-09
 -1       815-1.10148E+06-2.11433E+05-2.76951E+03-4.88302E+05 1.73532E-09-1.21963E-09
 -1       816-1.11622E+06-1.96413E+05-5.49757E+03-4.71178E+05-2.28283E-10 1.90994E-09
 -1       817-1.10236E+06-2.12002E+05-1.19355E+04-4.88277E+05 4.46744E-09-1.06957E-09
 -1       818-1.11534E+06-1.96747E+05-2.41047E+04-4.70760E+05-2.26646E-09-1.31149E-09
 -1       819-1.11653E+06-2.26356E+05-5.73750E+04-4.87434E+05-7.63885E-09 4.31100E-10
 -1       820-1.10576E+06-2.11233E+05-1.08428E+05-4.60810E+05 1.44610E-10-4.17640E-09
 -1       821-4.26134E+05-7.57994E+03-6.06425E+04 2.76858E+04-1.52104E-08 3.13412E-09
 -1       822-4.41827E+05-8.37135E+03-3.36136E+04 4.11183E+04-7.70069E-09 8.20364E-10
 -1       823-4.33209E+05 1.92321E+01-1.49366E+04 2.73796E+04 1.03482E-08 1.01227E-09
 -1       824-4.34458E+05-1.07118E+02-7.71981E+03 4.14254E+04-3.85990E-09 3.89718E-10
 -1       825-4.33755E+05 2.06274E+02-3.75106E+03 2.73461E+04-1.65628E-08 2.21462E-09
 -1       826-4.33996E+05 2.59547E+02-1.96914E+03 4.14697E+04-3.44739E-08 2.11435E-09
 -1       827-4.33860E+05 1.97899E+02-1.08902E+03 2.73325E+04-1.34287E-08 4.00519E-09
 -1       828-4.33984E+05 2.92050E+02-8.05217E+02 4.14906E+04-2.16514E-08 3.08523E-09
 -1       829-4.33888E+05 2.12210E+02-8.95656E+02 2.73245E+04-2.55636E-09 2.13504E-10
 -1       830-4.34045E+05 2.99504E+02-1.48069E+03 4.14989E+04 1.39299E-08 6.66432E-10
 -1       831-4.33850E+05 2.43888E+02-2.73934E+03 2.73238E+04-8.88303E-09 2.14402E-09
 -1       832-4.34429E+05 6.08345E+01-5.60730E+03 4.14878E+04 4.75666E-10 2.58569E-09
 -1       833-4.33486E+05 1.30775E+02-1.08252E+04 2.73370E+04-4.65980E-09 2.69256E-09
 -1       834-4.39815E+05-5.91086E+03-2.43709E+04 4.13304E+04-3.28691E-09 1.28989E-09
 -1       835-4.28378E+05-5.36318E+03-4.39573E+04 2.75165E+04 8.53652E-09 9.18590E-10
 -1       836 6.80290E+03 6.82672E+05 5.28208E+04-1.49616E+05-1.63036E-08-1.76078E-09
 -1       837 8.53812E+03 6.95760E+05 3.69821E+04-2.21367E+05-1.09430E-08-3.05022E-09
 -1       838 9.65645E+02 6.87519E+05 3.18666E+04-1.49336E+05-1.65128E-08 2.90402E-09
 -1       839 1.29564E+04 7.00022E+05 5.13747E+04-2.21279E+05-9.24410E-09-7.93079E-10
 -1       840 1.08754E+04 6.78749E+05 8.44834E+04-1.49694E+05-1.50212E-08 2.42653E-09
 -1       841 7.42035E+04 2.82656E+04-7.82766E+03 5.25682E+04 6.84850E-10-1.33514E-09
 -1       842 6.35250E+04 3.61803E+04-4.24992E+03 6.18263E+04 4.47380E-09 4.06658E-10
 -1       843 7.35174E+04 2.85964E+04-1.77419E+03 5.17926E+04 5.78802E-09 7.08542E-09
 -1       844 6.43663E+04 3.75526E+04-8.72030E+02 6.19293E+04 9.64064E-11-1.84991E-09
 -1       845 7.34207E+04 2.86194E+04-3.87577E+02 5.17315E+04 2.13277E-09-2.80920E-09
 -1       846 6.43824E+04 3.76322E+04-1.55286E+02 6.19050E+04-9.02219E-09-3.92356E-09
 -1       847 7.33810E+04 2.86346E+04-8.07763E+00 5.17118E+04-5.32054E-10-1.21173E-09
 -1       848 6.43664E+04 3.76476E+04 1.37990E+02 6.18848E+04-7.67614E-10-4.34071E-09
 -1       849 7.33552E+04 2.86380E+04 3.52937E+02 5.17007E+04 9.71431E-09 1.01045E-09
 -1       850 6.43918E+04 3.76629E+04 7.95986E+02 6.18863E+04 1.60162E-09-1.96769E-09
 -1       851 7.33181E+04 2.86174E+04 1.64280E+03 5.16945E+04 7.31367E-09-5.51722E-09
 -1       852 6.47142E+04 3.78853E+04 3.62280E+03 6.19225E+04 2.24429E-08-1.14778E-09
 -1       853 7.30732E+04 2.86058E+04 7.26716E+03 5.15980E+04 1.03373E-08 2.31194E-09
 -1       854 6.93136E+04 4.26276E+04 1.75103E+04 6.16758E+04 2.14504E-09 3.24417E-09
 -1       855 6.97418E+04 3.05811E+04 3.21664E+04 4.94310E+04 7.08496E-10-2.69210E-09
 -1       856-1.69858E+05-2.22612E+03-1.83895E+04 1.55941E+04-1.46147E-08 2.04318E-09
 -1       857-1.74650E+05-2.43960E+03-1.01930E+04 2.32245E+04-1.51740E-08 1.75078E-11
 -1       858-1.71998E+05 7.51768E+01-4.52652E+03 1.54694E+04-1.74509E-08 1.80307E-09
 -1       859-1.72405E+05 6.13214E+01-2.33865E+03 2.33438E+04-1.04465E-08 8.68454E-10
 -1       860-1.72156E+05 1.26348E+02-1.13170E+03 1.54599E+04-2.62116E-09-4.17231E-10
 -1       861-1.72253E+05 1.66257E+02-5.88510E+02 2.33539E+04-2.17154E-08 2.31796E-09
 -1       862-1.72180E+05 1.17805E+02-3.12973E+02 1.54585E+04 1.59087E-08 5.34101E-10
 -1       863-1.72237E+05 1.69498E+02-2.10810E+02 2.33552E+04 5.13902E-08 1.93268E-10
 -1       864-1.72182E+05 1.15220E+02-2.06160E+02 1.54586E+04 2.44859E-08 2.39265E-09
 -1       865-1.72238E+05 1.65353E+02-3.15281E+02 2.33532E+04 1.17197E-08 9.51104E-10
 -1       866-1.72167E+05 1.15661E+02-5.68654E+02 1.54606E+04 1.03578E-08 6.98606E-10
 -1       867-1.72303E+05 1.09199E+02-1.15390E+03 2.33429E+04-8.04630E-09 3.16913E-09
 -1       868-1.72082E+05 8.51057E+01-2.22501E+03 1.54692E+04 6.08225E-09 5.44972E-10
 -1       869-1.73390E+05-1.12454E+03-5.00195E+03 2.32196E+04-3.18050E-09 2.74525E-10
 -1       870-1.71024E+05-1.05072E+03-9.02466E+03 1.55913E+04 1.11804E-08 9.25866E-10
 -1       871-3.01654E+03-8.35111E+04-9.40563E+03 1.50310E+05-9.69158E-09-2.37742E-09
 -1       872-2.30111E+03-8.55823E+04-3.55488E+03 2.06343E+05-2.57205E-09-5.60249E-10
 -1       873-7.50227E+02-8.49173E+04 1.41440E+03 1.49986E+05-9.03492E-09 2.48639E-09
 -1       874 9.36272E+02-8.25947E+04 7.45094E+03 2.06345E+05-4.12183E-09-6.40739E-10
 -1       875 2.40650E+03-8.65067E+04 1.54990E+04 1.50336E+05-1.24674E-08 2.04818E-09
 -1       876 2.88372E+05 5.12732E+04 2.99486E+04 1.18418E+05 1.01752E-08 2.47383E-10
 -1       877 2.92472E+05 5.79530E+04 1.63022E+04 1.24706E+05-9.10904E-09-4.71209E-09
 -1       878 2.91457E+05 4.94550E+04 6.77228E+03 1.20482E+05 2.60434E-09-4.07454E-10
 -1       879 2.88244E+05 5.34997E+04 3.38457E+03 1.24907E+05 1.62800E-10 1.80216E-09
 -1       880 2.91684E+05 4.94646E+04 1.55527E+03 1.20579E+05-2.69984E-09 8.42329E-09
 -1       881 2.87952E+05 5.32885E+04 7.97327E+02 1.24868E+05-1.16042E-08-2.45791E-09
 -1       882 2.91710E+05 4.94874E+04 4.45999E+02 1.20583E+05-7.76936E-09-6.38931E-09
 -1       883 2.87925E+05 5.32789E+04 3.80405E+02 1.24857E+05 9.77582E-09-4.62251E-10
 -1       884 2.91708E+05 4.94861E+04 5.12508E+02 1.20583E+05 2.61067E-08 5.46913E-09
 -1       885 2.87963E+05 5.32903E+04 9.73526E+02 1.24871E+05 3.17696E-08-4.22142E-09
 -1       886 2.91674E+05 4.94584E+04 1.93068E+03 1.20578E+05-6.73504E-09-6.99333E-09
 -1       887 2.88327E+05 5.35545E+04 4.21829E+03 1.24918E+05 2.02726E-09 3.12764E-09
 -1       888 2.91388E+05 4.94461E+04 8.44729E+03 1.20456E+05-3.14458E-10 7.58519E-10
 -1       889 2.93589E+05 5.91269E+04 2.03399E+04 1.24682E+05 2.22460E-08 4.93083E-09
 -1       890 2.87550E+05 5.17013E+04 3.73661E+04 1.17864E+05 8.73126E-09 6.81393E-09
 -1       891-1.23050E+03-1.46800E+05-7.04981E+03 6.53180E+04 2.32767E-08-3.14685E-10
 -1       892-1.52523E+03-1.48452E+05-4.65678E+03 9.67857E+04 1.55978E-08-8.01720E-10
 -1       893-3.84330E+02-1.47546E+05-3.59389E+03 6.51709E+04 2.78337E-08-1.56405E-09
 -1       894-1.73368E+03-1.48628E+05-5.30828E+03 9.67695E+04 1.81608E-08 7.79210E-10
 -1       895-1.43060E+03-1.46600E+05-8.48503E+03 6.53327E+04 1.59446E-08 6.62021E-09
 -1       896 7.70222E+05 1.12585E+03 1.00222E+04-3.02917E+04-6.91216E-11-9.17225E-10
 -1       897 7.72799E+05 1.30274E+03 5.57331E+03-4.47503E+04-2.50111E-10-8.18545E-12
 -1       898 7.71306E+05-6.80586E+01 2.47187E+03-3.00804E+04-1.49157E-10-4.96811E-10
 -1       899 7.71445E+05-2.30941E+00 1.30295E+03-4.49403E+04-7.73070E-11 2.35559E-10
 -1       900 7.71324E+05-4.57097E+01 6.63917E+02-3.00989E+04-2.87400E-10-1.30967E-10
 -1       901 7.71281E+05-1.51226E+01 4.27330E+02-4.49040E+04-1.56433E-10 2.11458E-10
 -1       902 7.71292E+05-1.23937E+01 3.77030E+02-3.01169E+04-9.14042E-11-5.75255E-11
 -1       903 7.71242E+05 4.85637E+00 5.38963E+02-4.48770E+04-2.11685E-10-1.04137E-10
 -1       904 7.71263E+05-1.12367E+01 9.44556E+02-3.01260E+04-8.75389E-12 3.21052E-10
 -1       905 7.71304E+05 1.24384E+01 1.87394E+03-4.48698E+04 1.10276E-10 1.52113E-10
 -1       906 7.71205E+05-5.76470E+01 3.64855E+03-3.01240E+04-5.16138E-11 2.46303E-10
 -1       907 7.71862E+05 3.15019E+02 7.56829E+03-4.48754E+04-1.21872E-10 1.04265E-10
 -1       908 7.70755E+05 5.93002E+01 1.46478E+04-3.01200E+04-8.91305E-11 8.59472E-11
 -1       909 7.79264E+05 8.33810E+03 3.29993E+04-4.47342E+04-1.18234E-11-7.47150E-10
 -1       910 7.63919E+05 7.45329E+03 5.95232E+04-3.02726E+04-1.82808E-10-2.54659E-10
 -1       911 1.63953E+05-1.95659E+01 2.01332E+02-2.30856E+04 1.26420E-10 4.09273E-12
 -1       912 1.64000E+05 2.55204E+00 1.21156E+02-3.40140E+04-1.32786E-10 3.22643E-10
 -1       913 1.63940E+05-1.84932E+01 5.86152E+01-2.29301E+04-1.06411E-10 2.91493E-10
 -1       914 1.63924E+05-1.81328E+00 5.05805E+01-3.41736E+04-8.54925E-11 5.24324E-10
 -1       915 1.63915E+05-3.13815E-01 5.90752E+01-2.29260E+04 6.18456E-11-5.91172E-12
 -1       916 1.63896E+05 1.22737E+01 1.04182E+02-3.41761E+04 2.13504E-10-4.16094E-11
 -1       917 1.63900E+05 6.61151E+00 1.94663E+02-2.29276E+04 4.23370E-10 7.04404E-10
 -1       918 1.63899E+05 1.53121E+01 3.92445E+02-3.41745E+04-8.89031E-11 8.17636E-10
 -1       919 1.63888E+05-5.17582E+00 7.68859E+02-2.29276E+04-7.41238E-11 3.07068E-10
 -1       920 1.63971E+05 1.19966E+01 1.57217E+03-3.41758E+04 1.95769E-10 1.73713E-10
 -1       921 1.63848E+05-5.14514E+01 3.08463E+03-2.29261E+04-3.86535E-11 6.58218E-10
 -1       922 1.64455E+05 2.64267E+02 6.41432E+03-3.41730E+04-6.82121E-12-3.36044E-10
 -1       923 1.63470E+05 4.53915E+01 1.24215E+04-2.29301E+04 1.03682E-10-1.58252E-10
 -1       924 1.70739E+05 7.07527E+03 2.79975E+04-3.40134E+04 8.36735E-11 9.66338E-11
 -1       925 1.57673E+05 6.31475E+03 5.05043E+04-2.30916E+04-1.22782E-10-1.78261E-10
 -1       926-9.24714E+05-7.19702E+03-5.66123E+04-4.51170E+04 4.69299E-10 4.22006E-10
 -1       927-9.39283E+05-7.99340E+03-3.13748E+04-6.66486E+04 1.90084E-10 9.97716E-10
 -1       928-9.31346E+05-8.28700E+01-1.39309E+04-4.48319E+04-9.91349E-11-7.27596E-11
 -1       929-9.32427E+05-2.61844E+02-7.19524E+03-6.69810E+04-1.21963E-09-4.50655E-10
 -1       930-9.31858E+05 9.37914E+01-3.48268E+03-4.47920E+04 2.35104E-10 3.49473E-10
 -1       931-9.31976E+05 7.00270E+01-1.81536E+03-6.70260E+04-1.45860E-10-1.40972E-11
 -1       932-9.31928E+05 6.43738E+01-9.76605E+02-4.47861E+04-1.69393E-10 5.00222E-11
 -1       933-9.31896E+05 6.39935E+01-6.79221E+02-6.70178E+04-8.34461E-11 1.09594E-10
 -1       934-9.31897E+05 3.12026E+01-7.01503E+02-4.48002E+04 1.09139E-10 3.26509E-10
 -1       935-9.31828E+05 1.00678E+01-1.10289E+03-6.69669E+04-9.84073E-10-1.70076E-10
 -1       936-9.31781E+05-1.31347E+01-2.02136E+03-4.48372E+04 3.01952E-10 4.06089E-10
 -1       937-9.31947E+05-2.50380E+02-4.09662E+03-6.68583E+04 5.92991E-10-9.40418E-10
 -1       938-9.31394E+05-1.87397E+02-7.92142E+03-4.49091E+04 3.60160E-10-9.54060E-10
 -1       939-9.35658E+05-4.70646E+03-1.77716E+04-6.63531E+04 1.81535E-09-8.51287E-10
 -1       940-9.27532E+05-4.29776E+03-3.20952E+04-4.53292E+04-6.63931E-10 8.86757E-10
 -1       941 8.52118E+05 1.79579E+04 1.44045E+05-4.87152E+04 1.01500E-09-1.04774E-09
 -1       942 8.89354E+05 2.00675E+04 7.98472E+04-7.20967E+04-9.50422E-10-1.75351E-09
 -1       943 8.68617E+05 7.22432E+01 3.54552E+04-4.84051E+04-4.09273E-10-5.82077E-10
 -1       944 8.71409E+05 6.76508E+02 1.83470E+04-7.23392E+04 1.95087E-10-6.62112E-10
 -1       945 8.69684E+05-1.95588E+02 8.89770E+03-4.84201E+04 6.93035E-10-2.00089E-11
 -1       946 8.70034E+05-4.04797E+01 4.67972E+03-7.23169E+04 1.15256E-09 1.30240E-09
 -1       947 8.69802E+05-7.49933E+01 2.57247E+03-4.84289E+04 4.23285E-10 8.41737E-10
 -1       948 8.69881E+05-5.02609E+01 1.88928E+03-7.23188E+04 5.16593E-10 2.59206E-10
 -1       949 8.69841E+05-8.63583E+01 2.06492E+03-4.84186E+04-8.17636E-10-1.67120E-09
 -1       950 8.70056E+05-8.76551E+01 3.38941E+03-7.23588E+04 1.22600E-09 1.24055E-09
 -1       951 8.69831E+05-2.16076E+02 6.23257E+03-4.83882E+04-1.56615E-09-1.29762E-09
 -1       952 8.71122E+05 3.48410E+02 1.27618E+04-7.24156E+04-3.09228E-10-9.99790E-10
 -1       953 8.69178E+05-9.35084E+01 2.45953E+04-4.83601E+04-7.40329E-10-7.61247E-10
 -1       954 8.83722E+05 1.37337E+04 5.54060E+04-7.21201E+04-5.06134E-09-8.51287E-10
 -1       955 8.57821E+05 1.22386E+04 9.98991E+04-4.87384E+04 9.82254E-10 1.96451E-10
 -1       956-5.85626E+05-8.93883E+03-4.33908E+04 3.89268E+04-1.42754E-08-1.83263E-09
 -1       957-5.96001E+05-5.39246E+03-2.34244E+04 5.33061E+04-4.49836E-09-2.44972E-09
 -1       958-5.90384E+05-3.66364E+01-1.05065E+04 3.85306E+04 9.29867E-09-4.58203E-09
 -1       959-5.91216E+05 7.37911E+01-5.39982E+03 5.37226E+04-3.79077E-09-1.82854E-09
 -1       960-5.90803E+05 2.32853E+02-2.63823E+03 3.84853E+04-1.60635E-08-3.45062E-09
 -1       961-5.90985E+05 3.21065E+02-1.38546E+03 5.37830E+04-2.89292E-08-1.71894E-10
 -1       962-5.90919E+05 2.52042E+02-7.76045E+02 3.84673E+04-1.21681E-08-3.41015E-09
 -1       963-5.91026E+05 3.64490E+02-5.84241E+02 5.38110E+04-2.04200E-08-6.45741E-10
 -1       964-5.90966E+05 2.81336E+02-6.67270E+02 3.84561E+04-6.79620E-09-4.95311E-09
 -1       965-5.91096E+05 3.88055E+02-1.11614E+03 5.38239E+04 1.56938E-08-3.07000E-09
 -1       966-5.90949E+05 3.17384E+02-2.07625E+03 3.84538E+04-1.06811E-08-4.27917E-09
 -1       967-5.91374E+05 2.46821E+02-4.24398E+03 5.38126E+04 2.75918E-10-2.19416E-09
 -1       968-5.90685E+05 1.52345E+02-8.23986E+03 3.84686E+04 5.42059E-10-4.74870E-09
 -1       969-5.95223E+05-4.00475E+03-1.83991E+04 5.36279E+04 7.08269E-09-2.73059E-09
 -1       970-5.86998E+05-6.80750E+03-3.40675E+04 3.86731E+04 4.95947E-09-5.77711E-09
 -1       971-3.88836E+05-1.68493E+03-1.40121E+04 1.34921E+04-2.36896E-08-2.03818E-09
 -1       972-3.92470E+05-1.84008E+03-7.76831E+03 2.04575E+04-1.69459E-08-9.30413E-10
 -1       973-3.90467E+05 6.90419E+01-3.45433E+03 1.33720E+04-9.01764E-09-3.02771E-09
 -1       974-3.90762E+05 6.72043E+01-1.79337E+03 2.05783E+04 3.04181E-09-1.70780E-09
 -1       975-3.90589E+05 1.09555E+02-8.85617E+02 1.33600E+04 1.75714E-09-3.42141E-09
 -1       976-3.90650E+05 1.48706E+02-4.96126E+02 2.05927E+04-1.94926E-08-7.42148E-10
 -1       977-3.90607E+05 1.05440E+02-3.32756E+02 1.33570E+04 6.86327E-09-3.72881E-09
 -1       978-3.90646E+05 1.53180E+02-3.53196E+02 2.05959E+04 4.30242E-08-2.78669E-09
 -1       979-3.90603E+05 1.09980E+02-5.36413E+02 1.33568E+04 1.91321E-08-4.29873E-09
 -1       980-3.90679E+05 1.49579E+02-1.01698E+03 2.05929E+04 2.04632E-08-2.41937E-09
 -1       981-3.90566E+05 1.28782E+02-1.95911E+03 1.33600E+04-5.53882E-09-2.97587E-09
 -1       982-3.90954E+05-2.57935E+01-4.05197E+03 2.05793E+04-6.70661E-09-1.17848E-09
 -1       983-3.90303E+05 4.82367E+01-7.84219E+03 1.33714E+04 4.94583E-09-3.99041E-09
 -1       984-3.94868E+05-4.35022E+03-1.76656E+04 2.04643E+04-8.47422E-09-1.83741E-09
 -1       985-3.86610E+05-3.92724E+03-3.18664E+04 1.35007E+04 1.01454E-08-3.79805E-09
 -3
 9999
