
 stresses (elem, integ.pnt.,sxx,syy,szz,sxy,sxz,syz) for set ELALL and time  0.1000000E+01

         1   1 -1.850412E+06 -2.286772E+04 -2.677156E+04 -1.215142E+04 -1.844237E+04  3.620008E-01
         1   2 -1.847602E+06 -1.559052E+03 -1.244472E+04 -4.622370E+03 -1.191001E+04  8.892866E-02
         1   3 -1.850391E+06  7.740369E+02 -7.124078E+03  2.906840E+03 -5.377549E+03 -2.525065E-02
         1   4 -1.850413E+06 -2.286800E+04 -2.677160E+04  8.177140E-09 -1.844237E+04  4.818566E-10
         1   5 -1.847602E+06 -1.559092E+03 -1.244472E+04  3.887222E-09 -1.191001E+04  1.354548E-09
         1   6 -1.850391E+06  7.740210E+02 -7.124080E+03  2.823649E-09 -5.377549E+03  9.611777E-10
         1   7 -1.850412E+06 -2.286772E+04 -2.677156E+04  1.215142E+04 -1.844237E+04 -3.620008E-01
         1   8 -1.847602E+06 -1.559052E+03 -1.244472E+04  4.622370E+03 -1.191001E+04 -8.892866E-02
         1   9 -1.850391E+06  7.740369E+02 -7.124078E+03 -2.906840E+03 -5.377549E+03  2.525065E-02
         1  10 -1.850413E+06 -2.286781E+04 -2.677220E+04 -1.215142E+04  3.012924E-10 -1.964076E-11
         1  11 -1.847602E+06 -1.559090E+03 -1.244498E+04 -4.622370E+03  2.014171E-11  8.596170E-12
         1  12 -1.850391E+06  7.740291E+02 -7.124132E+03  2.906840E+03 -3.202169E-10  5.759787E-10
         1  13 -1.850413E+06 -2.286809E+04 -2.677224E+04 -2.498365E-09 -6.721041E-11  7.466601E-11
         1  14 -1.847602E+06 -1.559131E+03 -1.244499E+04  1.806295E-09  2.125100E-09  3.689606E-10
         1  15 -1.850391E+06  7.740132E+02 -7.124135E+03 -5.188847E-09 -1.536686E-11  6.001061E-10
         1  16 -1.850413E+06 -2.286781E+04 -2.677220E+04  1.215142E+04  1.490610E-09  2.410088E-10
         1  17 -1.847602E+06 -1.559090E+03 -1.244498E+04  4.622370E+03  5.354619E-10  6.279422E-10
         1  18 -1.850391E+06  7.740291E+02 -7.124132E+03 -2.906840E+03  4.609932E-12  5.211354E-10
         1  19 -1.850412E+06 -2.286772E+04 -2.677156E+04 -1.215142E+04  1.844237E+04 -3.620008E-01
         1  20 -1.847602E+06 -1.559052E+03 -1.244472E+04 -4.622370E+03  1.191001E+04 -8.892866E-02
         1  21 -1.850391E+06  7.740369E+02 -7.124078E+03  2.906840E+03  5.377549E+03  2.525065E-02
         1  22 -1.850413E+06 -2.286800E+04 -2.677160E+04  6.190744E-09  1.844237E+04 -3.063773E-10
         1  23 -1.847602E+06 -1.559092E+03 -1.244472E+04 -6.719107E-09  1.191001E+04 -6.157424E-10
         1  24 -1.850391E+06  7.740210E+02 -7.124080E+03  5.133529E-09  5.377549E+03  2.486217E-10
         1  25 -1.850412E+06 -2.286772E+04 -2.677156E+04  1.215142E+04  1.844237E+04  3.620008E-01
         1  26 -1.847602E+06 -1.559052E+03 -1.244472E+04  4.622370E+03  1.191001E+04  8.892866E-02
         1  27 -1.850391E+06  7.740369E+02 -7.124078E+03 -2.906840E+03  5.377549E+03 -2.525065E-02
         2   1 -1.849243E+06 -9.546405E+02 -5.588903E+03 -3.135107E+02 -4.404730E+03  2.230684E-03
         2   2 -1.849032E+06 -1.453069E+01 -3.081991E+03 -5.875301E+01 -2.865709E+03  2.719736E-04
         2   3 -1.849240E+06  5.417500E+01 -1.797132E+03  1.960044E+02 -1.326684E+03 -4.200489E-04
         2   4 -1.849243E+06 -9.546407E+02 -5.588903E+03 -1.633287E-10 -4.404730E+03 -1.566417E-10
         2   5 -1.849032E+06 -1.453069E+01 -3.081991E+03  3.985444E-09 -2.865709E+03 -1.301769E-09
         2   6 -1.849240E+06  5.417493E+01 -1.797132E+03  5.975561E-09 -1.326684E+03 -1.546257E-10
         2   7 -1.849243E+06 -9.546405E+02 -5.588903E+03  3.135107E+02 -4.404730E+03 -2.230684E-03
         2   8 -1.849032E+06 -1.453069E+01 -3.081991E+03  5.875301E+01 -2.865709E+03 -2.719765E-04
         2   9 -1.849240E+06  5.417500E+01 -1.797132E+03 -1.960044E+02 -1.326684E+03  4.200488E-04
         2  10 -1.849243E+06 -9.546457E+02 -5.588939E+03 -3.135107E+02  7.421106E-10  5.583676E-10
         2  11 -1.849032E+06 -1.453290E+01 -3.082007E+03 -5.875301E+01  1.829987E-09 -3.426929E-10
         2  12 -1.849240E+06  5.417453E+01 -1.797135E+03  1.960044E+02  4.130008E-10 -5.760829E-10
         2  13 -1.849243E+06 -9.546459E+02 -5.588939E+03 -7.021531E-09 -2.127367E-09  2.516416E-10
         2  14 -1.849032E+06 -1.453291E+01 -3.082007E+03 -4.284680E-10  1.180592E-09 -5.962369E-10
         2  15 -1.849240E+06  5.417446E+01 -1.797135E+03  2.540454E-10 -1.586203E-09 -5.501000E-10
         2  16 -1.849243E+06 -9.546457E+02 -5.588939E+03  3.135107E+02 -2.557993E-09  2.593697E-11
         2  17 -1.849032E+06 -1.453290E+01 -3.082007E+03  5.875301E+01 -3.311671E-09 -8.715922E-10
         2  18 -1.849240E+06  5.417453E+01 -1.797135E+03 -1.960044E+02 -1.520221E-10 -3.503189E-10
         2  19 -1.849243E+06 -9.546405E+02 -5.588903E+03 -3.135107E+02  4.404730E+03 -2.230683E-03
         2  20 -1.849032E+06 -1.453069E+01 -3.081991E+03 -5.875301E+01  2.865709E+03 -2.719740E-04
         2  21 -1.849240E+06  5.417500E+01 -1.797132E+03  1.960044E+02  1.326684E+03  4.200478E-04
         2  22 -1.849243E+06 -9.546407E+02 -5.588903E+03  3.299131E-09  4.404730E+03  6.673510E-10
         2  23 -1.849032E+06 -1.453069E+01 -3.081991E+03 -4.861279E-09  2.865709E+03  7.281266E-11
         2  24 -1.849240E+06  5.417493E+01 -1.797132E+03  1.752584E-09  1.326684E+03 -9.584734E-10
         2  25 -1.849243E+06 -9.546405E+02 -5.588903E+03  3.135107E+02  4.404730E+03  2.230684E-03
         2  26 -1.849032E+06 -1.453069E+01 -3.081991E+03  5.875301E+01  2.865709E+03  2.719743E-04
         2  27 -1.849240E+06  5.417500E+01 -1.797132E+03 -1.960044E+02  1.326684E+03 -4.200497E-04
         3   1 -1.849162E+06 -2.174359E+01 -1.393847E+03  4.258746E+01 -1.045259E+03 -7.190657E-05
         3   2 -1.849129E+06  1.539930E+01 -8.579881E+02  2.926835E+01 -6.209349E+02 -2.935655E-05
         3   3 -1.849162E+06  1.026868E+01 -6.095619E+02  1.594945E+01 -1.966172E+02 -5.065933E-06
         3   4 -1.849162E+06 -2.174360E+01 -1.393847E+03  1.246730E-08 -1.045259E+03  9.196096E-10
         3   5 -1.849129E+06  1.539930E+01 -8.579881E+02  7.550923E-09 -6.209349E+02  1.217942E-09
         3   6 -1.849162E+06  1.026868E+01 -6.095619E+02  1.272526E-09 -1.966172E+02  9.795638E-11
         3   7 -1.849162E+06 -2.174359E+01 -1.393847E+03 -4.258746E+01 -1.045259E+03  7.190859E-05
         3   8 -1.849129E+06  1.539930E+01 -8.579881E+02 -2.926835E+01 -6.209349E+02  2.935888E-05
         3   9 -1.849162E+06  1.026868E+01 -6.095619E+02 -1.594945E+01 -1.966172E+02  5.065785E-06
         3  10 -1.849162E+06 -2.174389E+01 -1.393849E+03  4.258746E+01  8.612008E-10 -5.146186E-10
         3  11 -1.849129E+06  1.539919E+01 -8.579888E+02  2.926835E+01 -1.596183E-09 -9.320198E-11
         3  12 -1.849162E+06  1.026867E+01 -6.095620E+02  1.594945E+01 -6.474584E-11  8.573293E-11
         3  13 -1.849162E+06 -2.174389E+01 -1.393849E+03 -2.197939E-09 -2.110559E-09  3.218889E-11
         3  14 -1.849129E+06  1.539919E+01 -8.579888E+02  5.446888E-09 -1.092973E-09  7.508989E-10
         3  15 -1.849162E+06  1.026867E+01 -6.095620E+02  2.893285E-09 -9.920574E-10  4.502825E-10
         3  16 -1.849162E+06 -2.174389E+01 -1.393849E+03 -4.258746E+01 -3.067624E-10  5.679054E-10
         3  17 -1.849129E+06  1.539919E+01 -8.579888E+02 -2.926835E+01 -6.189918E-11  1.437155E-09
         3  18 -1.849162E+06  1.026867E+01 -6.095620E+02 -1.594945E+01 -6.528209E-10  8.318303E-10
         3  19 -1.849162E+06 -2.174359E+01 -1.393847E+03  4.258746E+01  1.045259E+03  7.190571E-05
         3  20 -1.849129E+06  1.539930E+01 -8.579881E+02  2.926835E+01  6.209349E+02  2.935648E-05
         3  21 -1.849162E+06  1.026868E+01 -6.095619E+02  1.594945E+01  1.966172E+02  5.066122E-06
         3  22 -1.849162E+06 -2.174360E+01 -1.393847E+03  1.114879E-08  1.045259E+03 -8.484838E-10
         3  23 -1.849129E+06  1.539930E+01 -8.579881E+02  3.374357E-09  6.209349E+02  2.474788E-10
         3  24 -1.849162E+06  1.026868E+01 -6.095619E+02  6.899725E-09  1.966172E+02  7.911024E-10
         3  25 -1.849162E+06 -2.174359E+01 -1.393847E+03 -4.258746E+01  1.045259E+03 -7.190756E-05
         3  26 -1.849129E+06  1.539930E+01 -8.579881E+02 -2.926835E+01  6.209349E+02 -2.935617E-05
         3  27 -1.849162E+06  1.026868E+01 -6.095619E+02 -1.594945E+01  1.966172E+02 -5.064723E-06
         4   1 -1.849156E+06  7.126557E+00 -5.601438E+02  6.076065E+00 -9.081264E+01 -8.915164E-07
         4   2 -1.849136E+06  1.294500E+01 -5.893004E+02 -1.332983E+01  2.001243E+02 -4.308573E-06
         4   3 -1.849156E+06  1.412012E+01 -8.094537E+02 -3.273601E+01  4.910656E+02 -2.596832E-05
         4   4 -1.849156E+06  7.126557E+00 -5.601438E+02  1.178729E-08 -9.081264E+01 -8.197095E-11
         4   5 -1.849136E+06  1.294500E+01 -5.893004E+02 -3.524852E-09  2.001243E+02  3.972540E-10
         4   6 -1.849156E+06  1.412012E+01 -8.094537E+02  8.094401E-10  4.910656E+02 -6.375812E-10
         4   7 -1.849156E+06  7.126557E+00 -5.601438E+02 -6.076065E+00 -9.081264E+01  8.912539E-07
         4   8 -1.849136E+06  1.294500E+01 -5.893004E+02  1.332983E+01  2.001243E+02  4.309021E-06
         4   9 -1.849156E+06  1.412012E+01 -8.094537E+02  3.273601E+01  4.910656E+02  2.596706E-05
         4  10 -1.849156E+06  7.126555E+00 -5.601439E+02  6.076065E+00 -1.776066E-09  3.018807E-10
         4  11 -1.849136E+06  1.294499E+01 -5.893005E+02 -1.332983E+01  4.519378E-10  5.416607E-10
         4  12 -1.849156E+06  1.412006E+01 -8.094542E+02 -3.273601E+01  1.810815E-09 -1.021391E-09
         4  13 -1.849156E+06  7.126555E+00 -5.601439E+02  7.562416E-09 -2.235907E-09  2.732778E-10
         4  14 -1.849136E+06  1.294499E+01 -5.893005E+02 -1.525833E-09 -4.545195E-10  1.080672E-10
         4  15 -1.849156E+06  1.412006E+01 -8.094542E+02 -8.444936E-09 -3.095516E-10 -8.395416E-10
         4  16 -1.849156E+06  7.126555E+00 -5.601439E+02 -6.076065E+00  2.714749E-10  3.902481E-11
         4  17 -1.849136E+06  1.294499E+01 -5.893005E+02  1.332983E+01 -2.275109E-09 -2.961389E-10
         4  18 -1.849156E+06  1.412006E+01 -8.094542E+02  3.273601E+01 -1.226087E-09 -5.271055E-10
         4  19 -1.849156E+06  7.126557E+00 -5.601438E+02  6.076065E+00  9.081264E+01  8.922938E-07
         4  20 -1.849136E+06  1.294500E+01 -5.893004E+02 -1.332983E+01 -2.001243E+02  4.309451E-06
         4  21 -1.849156E+06  1.412012E+01 -8.094537E+02 -3.273601E+01 -4.910656E+02  2.596657E-05
         4  22 -1.849156E+06  7.126557E+00 -5.601438E+02  1.189441E-08  9.081264E+01  6.592072E-10
         4  23 -1.849136E+06  1.294500E+01 -5.893004E+02 -3.850403E-09 -2.001243E+02 -1.352208E-10
         4  24 -1.849156E+06  1.412012E+01 -8.094537E+02 -2.649710E-09 -4.910656E+02 -1.054586E-09
         4  25 -1.849156E+06  7.126557E+00 -5.601438E+02 -6.076065E+00  9.081264E+01 -8.911649E-07
         4  26 -1.849136E+06  1.294500E+01 -5.893004E+02  1.332983E+01 -2.001243E+02 -4.309916E-06
         4  27 -1.849156E+06  1.412012E+01 -8.094537E+02  3.273601E+01 -4.910656E+02 -2.596862E-05
         5   1 -1.849172E+06  1.379959E+01 -1.007807E+03 -4.053430E+01  6.558620E+02 -4.294488E-05
         5   2 -1.849116E+06  3.564846E+01 -1.659706E+03 -9.168657E+01  1.475441E+03 -2.185209E-04
         5   3 -1.849173E+06  3.608911E+01 -2.851729E+03 -1.428389E+02  2.295019E+03 -5.295389E-04
         5   4 -1.849172E+06  1.379958E+01 -1.007807E+03  6.436334E-09  6.558620E+02 -6.395061E-10
         5   5 -1.849116E+06  3.564844E+01 -1.659706E+03  4.550734E-09  1.475441E+03  6.533846E-10
         5   6 -1.849173E+06  3.608907E+01 -2.851729E+03  2.171156E-09  2.295019E+03  1.161339E-09
         5   7 -1.849172E+06  1.379959E+01 -1.007807E+03  4.053430E+01  6.558620E+02  4.294354E-05
         5   8 -1.849116E+06  3.564846E+01 -1.659706E+03  9.168657E+01  1.475441E+03  2.185220E-04
         5   9 -1.849173E+06  3.608911E+01 -2.851729E+03  1.428389E+02  2.295019E+03  5.295413E-04
         5  10 -1.849172E+06  1.379947E+01 -1.007808E+03 -4.053430E+01 -9.173350E-10 -1.287360E-09
         5  11 -1.849116E+06  3.564787E+01 -1.659710E+03 -9.168657E+01  1.713680E-09  1.923200E-10
         5  12 -1.849173E+06  3.608769E+01 -2.851739E+03 -1.428389E+02 -3.578773E-10  6.605402E-10
         5  13 -1.849172E+06  1.379947E+01 -1.007808E+03  1.389427E-09 -2.018835E-09 -8.656015E-10
         5  14 -1.849116E+06  3.564786E+01 -1.659710E+03 -2.806044E-09  1.159725E-09  1.333298E-10
         5  15 -1.849173E+06  3.608765E+01 -2.851739E+03 -8.607376E-09  3.415954E-10  5.001570E-10
         5  16 -1.849172E+06  1.379947E+01 -1.007808E+03  4.053430E+01  3.122680E-10 -5.050644E-10
         5  17 -1.849116E+06  3.564787E+01 -1.659710E+03  9.168657E+01 -1.423748E-09  1.717935E-10
         5  18 -1.849173E+06  3.608769E+01 -2.851739E+03  1.428389E+02 -6.257771E-10  3.318893E-10
         5  19 -1.849172E+06  1.379959E+01 -1.007807E+03 -4.053430E+01 -6.558620E+02  4.294254E-05
         5  20 -1.849116E+06  3.564846E+01 -1.659706E+03 -9.168657E+01 -1.475441E+03  2.185212E-04
         5  21 -1.849173E+06  3.608911E+01 -2.851729E+03 -1.428389E+02 -2.295019E+03  5.295403E-04
         5  22 -1.849172E+06  1.379958E+01 -1.007807E+03 -1.410620E-09 -6.558620E+02 -1.114910E-09
         5  23 -1.849116E+06  3.564844E+01 -1.659706E+03 -1.011451E-08 -1.475441E+03 -4.244560E-10
         5  24 -1.849173E+06  3.608907E+01 -2.851729E+03 -2.354273E-09 -2.295019E+03 -1.390179E-10
         5  25 -1.849172E+06  1.379959E+01 -1.007807E+03  4.053430E+01 -6.558620E+02 -4.294467E-05
         5  26 -1.849116E+06  3.564846E+01 -1.659706E+03  9.168657E+01 -1.475441E+03 -2.185219E-04
         5  27 -1.849173E+06  3.608911E+01 -2.851729E+03  1.428389E+02 -2.295019E+03 -5.295409E-04
         6   1 -1.849261E+06  5.982342E+01 -3.746285E+03 -2.170787E+02  2.890735E+03 -1.013659E-03
         6   2 -1.849008E+06  1.130216E+02 -6.502801E+03 -3.020241E+02  6.107577E+03 -2.979729E-03
         6   3 -1.849265E+06 -1.922425E+02 -1.144787E+04 -3.869686E+02  9.324355E+03 -5.828552E-03
         6   4 -1.849261E+06  5.982333E+01 -3.746285E+03  3.145994E-09  2.890735E+03  2.783240E-10
         6   5 -1.849008E+06  1.130214E+02 -6.502801E+03 -1.969740E-09  6.107577E+03 -8.875547E-10
         6   6 -1.849265E+06 -1.922428E+02 -1.144787E+04  9.748679E-09  9.324355E+03  4.975081E-10
         6   7 -1.849261E+06  5.982342E+01 -3.746285E+03  2.170787E+02  2.890735E+03  1.013659E-03
         6   8 -1.849008E+06  1.130216E+02 -6.502801E+03  3.020241E+02  6.107577E+03  2.979727E-03
         6   9 -1.849265E+06 -1.922425E+02 -1.144787E+04  3.869686E+02  9.324355E+03  5.828553E-03
         6  10 -1.849261E+06  5.982117E+01 -3.746300E+03 -2.170787E+02 -4.142120E-10  8.639145E-10
         6  11 -1.849009E+06  1.130115E+02 -6.502871E+03 -3.020241E+02 -1.877440E-09  6.226431E-10
         6  12 -1.849265E+06 -1.922659E+02 -1.144803E+04 -3.869686E+02  4.903249E-10 -4.116557E-10
         6  13 -1.849261E+06  5.982108E+01 -3.746300E+03 -2.291581E-09 -3.014368E-10  4.684649E-10
         6  14 -1.849009E+06  1.130114E+02 -6.502872E+03 -2.116759E-09  9.091515E-10  1.011808E-10
         6  15 -1.849265E+06 -1.922662E+02 -1.144803E+04  1.093857E-08  1.488883E-09 -6.628990E-10
         6  16 -1.849261E+06  5.982117E+01 -3.746300E+03  2.170787E+02 -1.182733E-09  1.429806E-10
         6  17 -1.849009E+06  1.130115E+02 -6.502871E+03  3.020241E+02 -2.863279E-09 -4.466443E-10
         6  18 -1.849265E+06 -1.922659E+02 -1.144803E+04  3.869686E+02 -8.318623E-10 -8.932362E-10
         6  19 -1.849261E+06  5.982342E+01 -3.746285E+03 -2.170787E+02 -2.890735E+03  1.013660E-03
         6  20 -1.849008E+06  1.130216E+02 -6.502801E+03 -3.020241E+02 -6.107577E+03  2.979731E-03
         6  21 -1.849265E+06 -1.922425E+02 -1.144787E+04 -3.869686E+02 -9.324355E+03  5.828551E-03
         6  22 -1.849261E+06  5.982333E+01 -3.746285E+03  9.470709E-09 -2.890735E+03  6.318988E-10
         6  23 -1.849008E+06  1.130214E+02 -6.502801E+03  6.295199E-09 -6.107577E+03  1.116208E-09
         6  24 -1.849265E+06 -1.922428E+02 -1.144787E+04  1.115322E-08 -9.324355E+03 -1.823297E-09
         6  25 -1.849261E+06  5.982342E+01 -3.746285E+03  2.170787E+02 -2.890735E+03 -1.013659E-03
         6  26 -1.849008E+06  1.130216E+02 -6.502801E+03  3.020241E+02 -6.107577E+03 -2.979728E-03
         6  27 -1.849265E+06 -1.922425E+02 -1.144787E+04  3.869686E+02 -9.324355E+03 -5.828555E-03
         7   1 -1.849946E+06  4.566888E+02 -1.501703E+04 -1.697747E+03  1.165637E+04 -3.196707E-02
         7   2 -1.848169E+06 -1.290008E+02 -2.617084E+04  4.899854E+02  2.472674E+04  1.957109E-02
         7   3 -1.849966E+06 -8.172386E+03 -4.771633E+04  2.677771E+03  3.779707E+04  1.634922E-01
         7   4 -1.849946E+06  4.566834E+02 -1.501703E+04  9.409361E-09  1.165637E+04  1.569844E-09
         7   5 -1.848169E+06 -1.290012E+02 -2.617084E+04  4.083921E-09  2.472674E+04  1.548546E-09
         7   6 -1.849966E+06 -8.172400E+03 -4.771633E+04 -4.559327E-11  3.779707E+04  4.063249E-10
         7   7 -1.849946E+06  4.566888E+02 -1.501703E+04  1.697747E+03  1.165637E+04  3.196707E-02
         7   8 -1.848169E+06 -1.290008E+02 -2.617084E+04 -4.899854E+02  2.472674E+04 -1.957109E-02
         7   9 -1.849966E+06 -8.172386E+03 -4.771633E+04 -2.677771E+03  3.779707E+04 -1.634922E-01
         7  10 -1.849946E+06  4.566522E+02 -1.501728E+04 -1.697747E+03 -9.189301E-10 -6.553396E-10
         7  11 -1.848170E+06 -1.291655E+02 -2.617199E+04  4.899854E+02  1.257497E-10 -6.780439E-11
         7  12 -1.849967E+06 -8.172771E+03 -4.771902E+04  2.677771E+03 -1.548728E-09  6.309007E-11
         7  13 -1.849946E+06  4.566468E+02 -1.501728E+04  4.494733E-09  1.225931E-09 -5.227000E-10
         7  14 -1.848170E+06 -1.291660E+02 -2.617199E+04 -3.256158E-09  2.607085E-09  4.905383E-10
         7  15 -1.849967E+06 -8.172785E+03 -4.771903E+04 -7.833323E-10 -6.693865E-10  7.530686E-10
         7  16 -1.849946E+06  4.566522E+02 -1.501728E+04  1.697747E+03  2.020292E-09 -3.439270E-10
         7  17 -1.848170E+06 -1.291655E+02 -2.617199E+04 -4.899854E+02 -1.531755E-09  1.052184E-09
         7  18 -1.849967E+06 -8.172771E+03 -4.771902E+04 -2.677771E+03 -5.979236E-10  1.436221E-09
         7  19 -1.849946E+06  4.566888E+02 -1.501703E+04 -1.697747E+03 -1.165637E+04  3.196707E-02
         7  20 -1.848169E+06 -1.290008E+02 -2.617084E+04  4.899854E+02 -2.472674E+04 -1.957109E-02
         7  21 -1.849966E+06 -8.172386E+03 -4.771633E+04  2.677771E+03 -3.779707E+04 -1.634922E-01
         7  22 -1.849946E+06  4.566834E+02 -1.501703E+04  6.012007E-09 -1.165637E+04 -2.610909E-09
         7  23 -1.848169E+06 -1.290012E+02 -2.617084E+04 -6.293565E-09 -2.472674E+04 -5.005700E-10
         7  24 -1.849966E+06 -8.172400E+03 -4.771633E+04 -1.634612E-09 -3.779707E+04  1.102219E-09
         7  25 -1.849946E+06  4.566888E+02 -1.501703E+04  1.697747E+03 -1.165637E+04 -3.196707E-02
         7  26 -1.848169E+06 -1.290008E+02 -2.617084E+04 -4.899854E+02 -2.472674E+04  1.957109E-02
         7  27 -1.849966E+06 -8.172386E+03 -4.771633E+04 -2.677771E+03 -3.779707E+04  1.634922E-01
         8   1 -1.859796E+06  6.624939E+03 -6.088379E+04 -2.488508E+04  4.610364E+04 -1.853303E+00
         8   2 -1.835921E+06 -1.334215E+04 -1.064514E+05  3.956021E+04  1.019969E+05  6.517776E+00
         8   3 -1.859965E+06 -1.956984E+05 -2.290759E+05  1.040017E+05  1.578904E+05  2.652513E+01
         8   4 -1.859796E+06  6.623771E+03 -6.088396E+04 -2.028324E-09  4.610364E+04 -6.357909E-12
         8   5 -1.835923E+06 -1.334510E+04 -1.064519E+05 -8.882476E-09  1.019969E+05  3.196421E-10
         8   6 -1.859976E+06 -1.957188E+05 -2.290788E+05  3.500472E-09  1.578904E+05  1.305225E-10
         8   7 -1.859796E+06  6.624939E+03 -6.088379E+04  2.488508E+04  4.610364E+04  1.853303E+00
         8   8 -1.835921E+06 -1.334215E+04 -1.064514E+05 -3.956021E+04  1.019969E+05 -6.517776E+00
         8   9 -1.859965E+06 -1.956984E+05 -2.290759E+05 -1.040017E+05  1.578904E+05 -2.652513E+01
         8  10 -1.859798E+06  6.624366E+03 -6.088780E+04 -2.488508E+04 -8.055589E-10  1.670546E-10
         8  11 -1.835932E+06 -1.334496E+04 -1.064711E+05  3.956021E+04 -4.242021E-10  3.498237E-10
         8  12 -1.859991E+06 -1.957051E+05 -2.291229E+05  1.040017E+05 -2.305349E-09  1.122927E-10
         8  13 -1.859798E+06  6.623199E+03 -6.088796E+04  1.097355E-09 -1.076111E-09  5.376221E-10
         8  14 -1.835934E+06 -1.334790E+04 -1.064715E+05 -3.577059E-09 -4.561628E-10  2.207244E-10
         8  15 -1.860003E+06 -1.957255E+05 -2.291258E+05  1.972515E-09 -1.769144E-09  2.974806E-11
         8  16 -1.859798E+06  6.624366E+03 -6.088780E+04  2.488508E+04  3.654260E-11  9.515834E-10
         8  17 -1.835932E+06 -1.334496E+04 -1.064711E+05 -3.956021E+04 -1.183354E-09  1.407032E-10
         8  18 -1.859991E+06 -1.957051E+05 -2.291229E+05 -1.040017E+05 -2.253976E-10 -9.911151E-11
         8  19 -1.859796E+06  6.624939E+03 -6.088379E+04 -2.488508E+04 -4.610364E+04  1.853303E+00
         8  20 -1.835921E+06 -1.334215E+04 -1.064514E+05  3.956021E+04 -1.019969E+05 -6.517776E+00
         8  21 -1.859965E+06 -1.956984E+05 -2.290759E+05  1.040017E+05 -1.578904E+05 -2.652513E+01
         8  22 -1.859796E+06  6.623771E+03 -6.088396E+04  3.142595E-09 -4.610364E+04  1.057966E-09
         8  23 -1.835923E+06 -1.334510E+04 -1.064519E+05 -4.728892E-09 -1.019969E+05  6.895510E-11
         8  24 -1.859976E+06 -1.957188E+05 -2.290788E+05  3.412251E-09 -1.578904E+05 -7.972556E-11
         8  25 -1.859796E+06  6.624939E+03 -6.088379E+04  2.488508E+04 -4.610364E+04 -1.853303E+00
         8  26 -1.835921E+06 -1.334215E+04 -1.064514E+05 -3.956021E+04 -1.019969E+05  6.517776E+00
         8  27 -1.859965E+06 -1.956984E+05 -2.290759E+05 -1.040017E+05 -1.578904E+05  2.652513E+01
         9   1  1.557899E+06  4.834525E+06  1.538173E+06 -9.888021E+05  6.806866E+04  4.179249E+05
         9   2  1.098308E+06  3.694850E+06  1.033812E+06 -7.695864E+05  2.090481E+05  1.786657E+05
         9   3  8.096234E+05  2.632430E+06  7.276035E+05 -8.701194E+05  2.016489E+05 -6.022338E+04
         9   4  1.774645E+05 -7.457090E+05  2.035430E+05 -8.810935E+05  6.867600E+04  1.426063E+05
         9   5  1.955746E+04 -7.660705E+05  9.413634E+04 -7.214265E+05  2.094076E+05  9.380021E+04
         9   6  3.617437E+02 -7.427160E+05  5.166731E+04 -8.815266E+05  2.013222E+05  4.491467E+04
         9   7 -1.205144E+06 -6.297344E+06 -1.132999E+06 -7.743200E+05  6.919257E+04 -1.302669E+05
         9   8 -1.060463E+06 -5.208243E+06 -8.466328E+05 -6.735941E+05  2.097558E+05  9.530482E+03
         9   9 -8.095934E+05 -4.106989E+06 -6.248045E+05 -8.928532E+05  2.009904E+05  1.494937E+05
         9  10  1.557848E+06  4.834338E+06  1.537839E+06 -9.888250E+05 -4.883309E-10  2.344842E-09
         9  11  1.098252E+06  3.694804E+06  1.033670E+06 -7.696164E+05  2.387262E-09 -7.556504E-11
         9  12  8.095788E+05  2.632415E+06  7.275204E+05 -8.701097E+05 -1.152742E-09 -2.402247E-09
         9  13  1.774540E+05 -7.457321E+05  2.034959E+05 -8.811014E+05  1.711836E-09 -9.696282E-13
         9  14  1.950800E+04 -7.660917E+05  9.403730E+04 -7.214424E+05  3.627837E-09 -4.181535E-12
         9  15  3.176756E+02 -7.427290E+05  5.158731E+04 -8.815339E+05  2.945683E-10  3.379385E-11
         9  16 -1.205153E+06 -6.297364E+06 -1.133040E+06 -7.743127E+05  1.193263E-09 -2.355450E-09
         9  17 -1.060511E+06 -5.208255E+06 -8.467156E+05 -6.735957E+05  6.655551E-10 -5.633625E-11
         9  18 -8.096429E+05 -4.107024E+06 -6.249229E+05 -8.928774E+05 -1.602305E-09  2.508890E-09
         9  19  1.557899E+06  4.834525E+06  1.538173E+06 -9.888021E+05 -6.806866E+04 -4.179249E+05
         9  20  1.098308E+06  3.694850E+06  1.033812E+06 -7.695864E+05 -2.090481E+05 -1.786657E+05
         9  21  8.096234E+05  2.632430E+06  7.276035E+05 -8.701194E+05 -2.016489E+05  6.022338E+04
         9  22  1.774645E+05 -7.457090E+05  2.035430E+05 -8.810935E+05 -6.867600E+04 -1.426063E+05
         9  23  1.955746E+04 -7.660705E+05  9.413634E+04 -7.214265E+05 -2.094076E+05 -9.380021E+04
         9  24  3.617437E+02 -7.427160E+05  5.166731E+04 -8.815266E+05 -2.013222E+05 -4.491467E+04
         9  25 -1.205144E+06 -6.297344E+06 -1.132999E+06 -7.743200E+05 -6.919257E+04  1.302669E+05
         9  26 -1.060463E+06 -5.208243E+06 -8.466328E+05 -6.735941E+05 -2.097558E+05 -9.530482E+03
         9  27 -8.095934E+05 -4.106989E+06 -6.248045E+05 -8.928532E+05 -2.009904E+05 -1.494937E+05
        10   1  6.345000E+05  1.843025E+06  5.585264E+05 -8.924197E+05  1.546618E+05 -3.550388E+04
        10   2  3.629933E+05  7.415222E+05  3.110675E+05 -7.241413E+05  9.480926E+04 -4.948813E+04
        10   3  9.867620E+04 -3.572710E+05  7.385338E+04 -8.840711E+05  3.046628E+04 -6.355475E+04
        10   4  1.191956E+04 -7.513476E+05  3.835678E+04 -8.833298E+05  1.543917E+05  3.790528E+04
        10   5  5.493019E+03 -7.511254E+05  1.624773E+04 -7.192229E+05  9.446316E+04  2.962331E+04
        10   6  5.348381E+03 -7.503150E+05  4.880775E+02 -8.833674E+05  3.003555E+04  2.123512E+04
        10   7 -6.110724E+05 -3.339294E+06 -4.821345E+05 -8.742676E+05  1.541231E+05  1.110142E+05
        10   8 -3.521393E+05 -2.241628E+06 -2.786579E+05 -7.143130E+05  9.411780E+04  1.085486E+05
        10   9 -8.798450E+04 -1.143194E+06 -7.285680E+04 -8.826638E+05  2.960484E+04  1.059726E+05
        10  10  6.344740E+05  1.843017E+06  5.584792E+05 -8.924153E+05 -2.910572E-10  5.618693E-10
        10  11  3.629830E+05  7.415172E+05  3.110460E+05 -7.241375E+05  1.784494E-10 -5.219945E-10
        10  12  9.867413E+04 -3.572756E+05  7.384406E+04 -8.840696E+05 -1.176665E-09 -1.349012E-09
        10  13  1.189357E+04 -7.513555E+05  3.830926E+04 -8.833345E+05 -2.125104E-09  2.369641E-10
        10  14  5.483200E+03 -7.511288E+05  1.622930E+04 -7.192251E+05 -1.247836E-09  1.526924E-10
        10  15  5.347290E+03 -7.503157E+05  4.855300E+02 -8.833679E+05 -9.878567E-10  1.299514E-10
        10  16 -6.111012E+05 -3.339314E+06 -4.822026E+05 -8.742814E+05 -1.837233E-09 -5.167460E-10
        10  17 -3.521520E+05 -2.241643E+06 -2.786968E+05 -7.143213E+05 -4.503976E-10  7.151130E-10
        10  18 -8.798847E+04 -1.143206E+06 -7.287961E+04 -8.826664E+05 -1.784887E-09  1.540756E-09
        10  19  6.345000E+05  1.843025E+06  5.585264E+05 -8.924197E+05 -1.546618E+05  3.550388E+04
        10  20  3.629933E+05  7.415222E+05  3.110675E+05 -7.241413E+05 -9.480926E+04  4.948813E+04
        10  21  9.867620E+04 -3.572710E+05  7.385338E+04 -8.840711E+05 -3.046628E+04  6.355475E+04
        10  22  1.191956E+04 -7.513476E+05  3.835678E+04 -8.833298E+05 -1.543917E+05 -3.790528E+04
        10  23  5.493019E+03 -7.511254E+05  1.624773E+04 -7.192229E+05 -9.446316E+04 -2.962331E+04
        10  24  5.348381E+03 -7.503150E+05  4.880775E+02 -8.833674E+05 -3.003555E+04 -2.123512E+04
        10  25 -6.110724E+05 -3.339294E+06 -4.821345E+05 -8.742676E+05 -1.541231E+05 -1.110142E+05
        10  26 -3.521393E+05 -2.241628E+06 -2.786579E+05 -7.143130E+05 -9.411780E+04 -1.085486E+05
        10  27 -8.798450E+04 -1.143194E+06 -7.285680E+04 -8.826638E+05 -2.960484E+04 -1.059726E+05
        11   1 -8.474200E+04 -1.136823E+06 -8.988886E+04 -8.746812E+05 -1.489259E+04 -7.800549E+04
        11   2 -3.603644E+05 -2.221597E+06 -3.469583E+05 -7.270835E+05 -5.647896E+04  2.868258E+04
        11   3 -6.894420E+05 -3.334620E+06 -6.876767E+05 -9.042354E+05 -2.406138E+04  1.354035E+05
        11   4  8.789032E+03 -7.533238E+05 -6.568153E+03 -8.825357E+05 -1.539657E+04  2.111254E+04
        11   5 -6.021741E+02 -7.473593E+05 -2.443423E+04 -7.202859E+05 -5.649262E+04  3.390496E+04
        11   6 -4.696852E+04 -7.543681E+05 -6.054102E+04 -8.827606E+05 -2.365968E+04  4.692213E+04
        11   7  1.023158E+05 -3.696647E+05  7.678077E+04 -8.903950E+05 -1.590285E+04  1.202911E+05
        11   8  3.590152E+05  7.289195E+05  2.979585E+05 -7.134686E+05 -5.650614E+04  3.913955E+04
        11   9  5.950211E+05  1.832005E+06  5.661426E+05 -8.611852E+05 -2.326517E+04 -4.192780E+04
        11  10 -8.474388E+04 -1.136830E+06 -8.990074E+04 -8.746821E+05 -1.443835E-09  1.898470E-11
        11  11 -3.603680E+05 -2.221598E+06 -3.469659E+05 -7.270822E+05 -4.159139E-10  5.400865E-10
        11  12 -6.894476E+05 -3.334640E+06 -6.877124E+05 -9.042328E+05 -7.033408E-10  1.068530E-09
        11  13  8.788658E+03 -7.533243E+05 -6.569434E+03 -8.825355E+05 -2.120744E-09  1.232052E-10
        11  14 -6.059055E+02 -7.473614E+05 -2.444238E+04 -7.202844E+05 -1.007681E-09  8.122287E-11
        11  15 -4.696971E+04 -7.543706E+05 -6.054621E+04 -8.827597E+05 -2.965400E-10  6.661382E-11
        11  16  1.023116E+05 -3.696803E+05  7.675310E+04 -8.903935E+05 -9.073243E-10  1.390393E-10
        11  17  3.590113E+05  7.289170E+05  2.979496E+05 -7.134668E+05 -2.260283E-09 -4.731580E-10
        11  18  5.950200E+05  1.832003E+06  5.661383E+05 -8.611859E+05 -6.034994E-10 -1.183253E-09
        11  19 -8.474200E+04 -1.136823E+06 -8.988886E+04 -8.746812E+05  1.489259E+04  7.800549E+04
        11  20 -3.603644E+05 -2.221597E+06 -3.469583E+05 -7.270835E+05  5.647896E+04 -2.868258E+04
        11  21 -6.894420E+05 -3.334620E+06 -6.876767E+05 -9.042354E+05  2.406138E+04 -1.354035E+05
        11  22  8.789032E+03 -7.533238E+05 -6.568153E+03 -8.825357E+05  1.539657E+04 -2.111254E+04
        11  23 -6.021741E+02 -7.473593E+05 -2.443423E+04 -7.202859E+05  5.649262E+04 -3.390496E+04
        11  24 -4.696852E+04 -7.543681E+05 -6.054102E+04 -8.827606E+05  2.365968E+04 -4.692213E+04
        11  25  1.023158E+05 -3.696647E+05  7.678077E+04 -8.903950E+05  1.590285E+04 -1.202911E+05
        11  26  3.590152E+05  7.289195E+05  2.979585E+05 -7.134686E+05  5.650614E+04 -3.913955E+04
        11  27  5.950211E+05  1.832005E+06  5.661426E+05 -8.611852E+05  2.326517E+04  4.192780E+04
        12   1 -2.336008E+06 -5.562002E+05 -2.053593E+05 -9.149140E+05 -1.328259E+05 -5.042835E+04
        12   2 -2.319178E+06 -3.565645E+05 -8.453642E+04 -9.135010E+05 -8.307722E+04 -3.366026E+04
        12   3 -2.358541E+06 -3.042838E+05 -3.954347E+04 -8.804076E+05 -3.350544E+04 -1.641574E+04
        12   4 -2.419118E+06 -5.040031E+05 -2.111283E+05 -8.515630E+05 -1.347845E+05 -5.118544E+04
        12   5 -2.379308E+06 -3.481110E+05 -9.323845E+04 -8.981652E+05 -8.455199E+04 -3.421859E+04
        12   6 -2.395794E+06 -3.396905E+05 -5.157070E+04 -9.130884E+05 -3.449366E+04 -1.678482E+04
        12   7 -2.502204E+06 -4.517786E+05 -2.168927E+05 -7.882199E+05 -1.367428E+05 -5.194308E+04
        12   8 -2.439432E+06 -3.396548E+05 -1.019399E+05 -8.828314E+05 -8.602660E+04 -3.477704E+04
        12   9 -2.433046E+06 -3.750935E+05 -6.359786E+04 -9.457667E+05 -3.548182E+04 -1.715379E+04
        12  10 -2.336027E+06 -5.562077E+05 -2.053974E+05 -9.149194E+05  4.567541E-10  3.259549E-10
        12  11 -2.319186E+06 -3.565676E+05 -8.455159E+04 -9.135032E+05  9.090503E-10 -1.315722E-10
        12  12 -2.358542E+06 -3.042844E+05 -3.954610E+04 -8.804081E+05  5.912574E-11  1.644973E-09
        12  13 -2.419138E+06 -5.040108E+05 -2.111675E+05 -8.515686E+05  1.151542E-09 -4.282981E-10
        12  14 -2.379316E+06 -3.481142E+05 -9.325416E+04 -8.981676E+05  7.489162E-10 -7.090238E-10
        12  15 -2.395796E+06 -3.396911E+05 -5.157348E+04 -9.130889E+05 -2.695577E-09  1.359626E-09
        12  16 -2.502224E+06 -4.517866E+05 -2.169331E+05 -7.882256E+05 -1.739387E-09 -1.186603E-09
        12  17 -2.439440E+06 -3.396581E+05 -1.019562E+05 -8.828338E+05  2.607990E-10 -1.309948E-09
        12  18 -2.433047E+06 -3.750942E+05 -6.360079E+04 -9.457672E+05 -1.191612E-09  1.196345E-09
        12  19 -2.336008E+06 -5.562002E+05 -2.053593E+05 -9.149140E+05  1.328259E+05  5.042835E+04
        12  20 -2.319178E+06 -3.565645E+05 -8.453642E+04 -9.135010E+05  8.307722E+04  3.366026E+04
        12  21 -2.358541E+06 -3.042838E+05 -3.954347E+04 -8.804076E+05  3.350544E+04  1.641574E+04
        12  22 -2.419118E+06 -5.040031E+05 -2.111283E+05 -8.515630E+05  1.347845E+05  5.118544E+04
        12  23 -2.379308E+06 -3.481110E+05 -9.323845E+04 -8.981652E+05  8.455199E+04  3.421859E+04
        12  24 -2.395794E+06 -3.396905E+05 -5.157070E+04 -9.130884E+05  3.449366E+04  1.678482E+04
        12  25 -2.502204E+06 -4.517786E+05 -2.168927E+05 -7.882199E+05  1.367428E+05  5.194308E+04
        12  26 -2.439432E+06 -3.396548E+05 -1.019399E+05 -8.828314E+05  8.602660E+04  3.477704E+04
        12  27 -2.433046E+06 -3.750935E+05 -6.359786E+04 -9.457667E+05  3.548182E+04  1.715379E+04
        13   1 -2.322884E+06 -3.298457E+05 -2.553646E+04 -8.892485E+05 -2.689204E+04 -1.457550E+04
        13   2 -2.308639E+06 -3.135491E+05 -2.925531E+03 -8.832621E+05 -1.589774E+04 -1.164162E+04
        13   3 -2.294440E+06 -3.083180E+05  9.880570E+03 -8.804427E+05 -4.913409E+03 -8.679262E+03
        13   4 -2.389312E+06 -3.519134E+05 -4.031481E+04 -9.048955E+05 -2.800173E+04 -1.499184E+04
        13   5 -2.388747E+06 -3.426287E+05 -2.106771E+04 -9.047131E+05 -1.697879E+04 -1.204715E+04
        13   6 -2.388235E+06 -3.444158E+05 -1.164869E+04 -9.076979E+05 -5.966127E+03 -9.074178E+03
        13   7 -2.455734E+06 -3.739809E+05 -5.509339E+04 -9.205410E+05 -2.911128E+04 -1.540815E+04
        13   8 -2.468848E+06 -3.717076E+05 -3.921014E+04 -9.261615E+05 -1.805969E+04 -1.245263E+04
        13   9 -2.482020E+06 -3.805123E+05 -3.317823E+04 -9.349489E+05 -7.018659E+03 -9.469018E+03
        13  10 -2.322885E+06 -3.298461E+05 -2.553823E+04 -8.892488E+05  1.984196E-08  1.085352E-08
        13  11 -2.308639E+06 -3.135493E+05 -2.926264E+03 -8.832623E+05  4.398947E-09  4.007544E-09
        13  12 -2.294440E+06 -3.083181E+05  9.880383E+03 -8.804427E+05 -1.577861E-08 -5.691384E-09
        13  13 -2.389312E+06 -3.519138E+05 -4.031671E+04 -9.048958E+05  1.197900E-09  3.223281E-09
        13  14 -2.388747E+06 -3.426289E+05 -2.106852E+04 -9.047133E+05  6.553551E-09  3.675633E-09
        13  15 -2.388235E+06 -3.444159E+05 -1.164892E+04 -9.076979E+05  2.044129E-09  1.412148E-09
        13  16 -2.455735E+06 -3.739813E+05 -5.509543E+04 -9.205413E+05 -1.595766E-08 -4.611430E-09
        13  17 -2.468848E+06 -3.717079E+05 -3.921105E+04 -9.261617E+05  5.458366E-09  3.152281E-09
        13  18 -2.482020E+06 -3.805124E+05 -3.317849E+04 -9.349489E+05  2.125106E-08  8.570307E-09
        13  19 -2.322884E+06 -3.298457E+05 -2.553646E+04 -8.892485E+05  2.689204E+04  1.457550E+04
        13  20 -2.308639E+06 -3.135491E+05 -2.925531E+03 -8.832621E+05  1.589774E+04  1.164162E+04
        13  21 -2.294440E+06 -3.083180E+05  9.880570E+03 -8.804427E+05  4.913409E+03  8.679262E+03
        13  22 -2.389312E+06 -3.519134E+05 -4.031481E+04 -9.048955E+05  2.800173E+04  1.499184E+04
        13  23 -2.388747E+06 -3.426287E+05 -2.106771E+04 -9.047131E+05  1.697879E+04  1.204715E+04
        13  24 -2.388235E+06 -3.444158E+05 -1.164869E+04 -9.076979E+05  5.966127E+03  9.074178E+03
        13  25 -2.455734E+06 -3.739809E+05 -5.509339E+04 -9.205410E+05  2.911128E+04  1.540815E+04
        13  26 -2.468848E+06 -3.717076E+05 -3.921014E+04 -9.261615E+05  1.805969E+04  1.245263E+04
        13  27 -2.482020E+06 -3.805123E+05 -3.317823E+04 -9.349489E+05  7.018659E+03  9.469018E+03
        14   1 -2.281697E+06 -3.054739E+05  1.539772E+04 -8.778365E+05 -3.057003E+03 -8.646049E+03
        14   2 -2.268582E+06 -2.977809E+05  2.265200E+04 -8.716179E+05 -2.611083E+02 -8.731134E+03
        14   3 -2.252043E+06 -2.943372E+05  2.800862E+04 -8.698497E+05  2.530892E+03 -8.805258E+03
        14   4 -2.387749E+06 -3.449330E+05 -8.825139E+03 -9.072209E+05 -4.108308E+03 -9.040496E+03
        14   5 -2.389441E+06 -3.426757E+05 -4.880433E+03 -9.050443E+05 -1.301329E+03 -9.121515E+03
        14   6 -2.387710E+06 -3.446701E+05 -2.842268E+03 -9.073183E+05  1.501685E+03 -9.191595E+03
        14   7 -2.493792E+06 -3.843918E+05 -3.304914E+04 -9.366011E+05 -5.159432E+03 -9.434875E+03
        14   8 -2.510286E+06 -3.875699E+05 -3.241418E+04 -9.384651E+05 -2.341340E+03 -9.511817E+03
        14   9 -2.523359E+06 -3.950020E+05 -3.369465E+04 -9.447797E+05  4.727159E+02 -9.577843E+03
        14  10 -2.281697E+06 -3.054740E+05  1.539756E+04 -8.778365E+05 -2.977817E-09 -1.362441E-09
        14  11 -2.268582E+06 -2.977810E+05  2.265186E+04 -8.716179E+05 -1.286937E-09 -2.319042E-09
        14  12 -2.252043E+06 -2.943373E+05  2.800847E+04 -8.698497E+05 -3.560297E-09 -1.904785E-09
        14  13 -2.387749E+06 -3.449331E+05 -8.825324E+03 -9.072209E+05  1.140706E-09 -4.744332E-10
        14  14 -2.389441E+06 -3.426758E+05 -4.880593E+03 -9.050443E+05 -1.326067E-10 -1.399375E-09
        14  15 -2.387710E+06 -3.446702E+05 -2.842431E+03 -9.073183E+05  9.293115E-10 -1.299899E-09
        14  16 -2.493792E+06 -3.843919E+05 -3.304936E+04 -9.366011E+05  1.928119E-09  4.593335E-10
        14  17 -2.510286E+06 -3.875700E+05 -3.241436E+04 -9.384651E+05  1.172282E-09 -8.739354E-10
        14  18 -2.523359E+06 -3.950021E+05 -3.369482E+04 -9.447797E+05  4.575782E-09 -6.211341E-10
        14  19 -2.281697E+06 -3.054739E+05  1.539772E+04 -8.778365E+05  3.057003E+03  8.646049E+03
        14  20 -2.268582E+06 -2.977809E+05  2.265200E+04 -8.716179E+05  2.611083E+02  8.731134E+03
        14  21 -2.252043E+06 -2.943372E+05  2.800862E+04 -8.698497E+05 -2.530892E+03  8.805258E+03
        14  22 -2.387749E+06 -3.449330E+05 -8.825139E+03 -9.072209E+05  4.108308E+03  9.040496E+03
        14  23 -2.389441E+06 -3.426757E+05 -4.880433E+03 -9.050443E+05  1.301329E+03  9.121515E+03
        14  24 -2.387710E+06 -3.446701E+05 -2.842268E+03 -9.073183E+05 -1.501685E+03  9.191595E+03
        14  25 -2.493792E+06 -3.843918E+05 -3.304914E+04 -9.366011E+05  5.159432E+03  9.434875E+03
        14  26 -2.510286E+06 -3.875699E+05 -3.241418E+04 -9.384651E+05  2.341340E+03  9.511817E+03
        14  27 -2.523359E+06 -3.950020E+05 -3.369465E+04 -9.447797E+05 -4.727159E+02  9.577843E+03
        15   1 -2.240919E+06 -2.902679E+05  3.120123E+04 -8.668056E+05  3.155471E+03 -9.217000E+03
        15   2 -2.228388E+06 -2.831198E+05  3.505374E+04 -8.607380E+05  4.307111E+03 -9.882726E+03
        15   3 -2.212217E+06 -2.797477E+05  3.831393E+04 -8.589868E+05  5.454500E+03 -1.053648E+04
        15   4 -2.387676E+06 -3.446586E+05 -2.259982E+03 -9.072539E+05  2.136241E+03 -9.599653E+03
        15   5 -2.389495E+06 -3.427706E+05 -1.613879E+03 -9.050955E+05  3.300221E+03 -1.026085E+04
        15   6 -2.387677E+06 -3.446608E+05 -1.570022E+03 -9.072533E+05  4.459937E+03 -1.091009E+04
        15   7 -2.534411E+06 -3.990471E+05 -3.572215E+04 -9.476930E+05  1.117285E+03 -9.982202E+03
        15   8 -2.550576E+06 -4.024191E+05 -3.828303E+04 -9.494422E+05  2.293618E+03 -1.063887E+04
        15   9 -2.563107E+06 -4.095719E+05 -4.145618E+04 -9.555075E+05  3.465676E+03 -1.128358E+04
        15  10 -2.240919E+06 -2.902679E+05  3.120106E+04 -8.668056E+05 -2.301297E-09 -1.054631E-09
        15  11 -2.228388E+06 -2.831199E+05  3.505352E+04 -8.607380E+05  3.156470E-10 -1.623325E-09
        15  12 -2.212217E+06 -2.797478E+05  3.831366E+04 -8.589868E+05 -1.002540E-09 -4.041382E-10
        15  13 -2.387676E+06 -3.446587E+05 -2.260164E+03 -9.072539E+05  4.204998E-10 -1.304403E-09
        15  14 -2.389495E+06 -3.427707E+05 -1.614097E+03 -9.050954E+05 -6.287277E-10 -1.733805E-09
        15  15 -2.387677E+06 -3.446609E+05 -1.570282E+03 -9.072533E+05 -1.297206E-09 -1.995416E-10
        15  16 -2.534411E+06 -3.990472E+05 -3.572234E+04 -9.476930E+05  7.661570E-10 -1.680076E-09
        15  17 -2.550576E+06 -4.024192E+05 -3.828326E+04 -9.494421E+05 -1.149911E-09 -1.714017E-09
        15  18 -2.563107E+06 -4.095720E+05 -4.145644E+04 -9.555075E+05  2.160311E-09  1.770390E-11
        15  19 -2.240919E+06 -2.902679E+05  3.120123E+04 -8.668056E+05 -3.155471E+03  9.217000E+03
        15  20 -2.228388E+06 -2.831198E+05  3.505374E+04 -8.607380E+05 -4.307111E+03  9.882726E+03
        15  21 -2.212217E+06 -2.797477E+05  3.831393E+04 -8.589868E+05 -5.454500E+03  1.053648E+04
        15  22 -2.387676E+06 -3.446586E+05 -2.259982E+03 -9.072539E+05 -2.136241E+03  9.599653E+03
        15  23 -2.389495E+06 -3.427706E+05 -1.613879E+03 -9.050955E+05 -3.300221E+03  1.026085E+04
        15  24 -2.387677E+06 -3.446608E+05 -1.570022E+03 -9.072533E+05 -4.459937E+03  1.091009E+04
        15  25 -2.534411E+06 -3.990471E+05 -3.572215E+04 -9.476930E+05 -1.117285E+03  9.982202E+03
        15  26 -2.550576E+06 -4.024191E+05 -3.828303E+04 -9.494422E+05 -2.293618E+03  1.063887E+04
        15  27 -2.563107E+06 -4.095719E+05 -4.145618E+04 -9.555075E+05 -3.465676E+03  1.128358E+04
        16   1 -2.201599E+06 -2.757633E+05  4.065419E+04 -8.560352E+05  5.922901E+03 -1.098394E+04
        16   2 -2.189526E+06 -2.689025E+05  4.286269E+04 -8.502280E+05  7.554657E+03 -1.142596E+04
        16   3 -2.174034E+06 -2.656948E+05  4.410613E+04 -8.485800E+05  9.180699E+03 -1.185203E+04
        16   4 -2.387727E+06 -3.446301E+05 -1.749224E+03 -9.072204E+05  4.941240E+03 -1.135277E+04
        16   5 -2.389436E+06 -3.427971E+05 -2.615085E+03 -9.051432E+05  6.589312E+03 -1.178880E+04
        16   6 -2.387729E+06 -3.446204E+05 -4.459169E+03 -9.072253E+05  8.231648E+03 -1.220888E+04
        16   7 -2.573819E+06 -4.134939E+05 -4.415460E+04 -9.583911E+05  3.959904E+03 -1.172149E+04
        16   8 -2.589305E+06 -4.166887E+05 -4.809548E+04 -9.600422E+05  5.624306E+03 -1.215151E+04
        16   9 -2.601379E+06 -4.235431E+05 -5.302782E+04 -9.658523E+05  7.282947E+03 -1.256559E+04
        16  10 -2.201599E+06 -2.757634E+05  4.065390E+04 -8.560351E+05  1.257383E-10  7.617435E-10
        16  11 -2.189526E+06 -2.689027E+05  4.286234E+04 -8.502280E+05  1.383747E-09 -1.994191E-10
        16  12 -2.174034E+06 -2.656950E+05  4.410571E+04 -8.485799E+05  1.075580E-09 -1.321922E-09
        16  13 -2.387727E+06 -3.446303E+05 -1.749512E+03 -9.072203E+05  2.892164E-09  4.584174E-10
        16  14 -2.389436E+06 -3.427973E+05 -2.615427E+03 -9.051432E+05  1.640106E-10 -2.278283E-10
        16  15 -2.387729E+06 -3.446206E+05 -4.459576E+03 -9.072252E+05 -4.047527E-09 -1.763770E-09
        16  16 -2.573819E+06 -4.134941E+05 -4.415489E+04 -9.583911E+05 -1.725981E-10  3.508367E-10
        16  17 -2.589305E+06 -4.166889E+05 -4.809582E+04 -9.600422E+05 -2.165839E-09  2.406966E-12
        16  18 -2.601379E+06 -4.235432E+05 -5.302821E+04 -9.658523E+05 -4.944401E-09 -2.252598E-09
        16  19 -2.201599E+06 -2.757633E+05  4.065419E+04 -8.560352E+05 -5.922901E+03  1.098394E+04
        16  20 -2.189526E+06 -2.689025E+05  4.286269E+04 -8.502280E+05 -7.554657E+03  1.142596E+04
        16  21 -2.174034E+06 -2.656948E+05  4.410613E+04 -8.485800E+05 -9.180699E+03  1.185203E+04
        16  22 -2.387727E+06 -3.446301E+05 -1.749224E+03 -9.072204E+05 -4.941240E+03  1.135277E+04
        16  23 -2.389436E+06 -3.427971E+05 -2.615085E+03 -9.051432E+05 -6.589312E+03  1.178880E+04
        16  24 -2.387729E+06 -3.446204E+05 -4.459169E+03 -9.072253E+05 -8.231648E+03  1.220888E+04
        16  25 -2.573819E+06 -4.134939E+05 -4.415460E+04 -9.583911E+05 -3.959904E+03  1.172149E+04
        16  26 -2.589305E+06 -4.166887E+05 -4.809548E+04 -9.600422E+05 -5.624306E+03  1.215151E+04
        16  27 -2.601379E+06 -4.235431E+05 -5.302782E+04 -9.658523E+05 -7.282947E+03  1.256559E+04
        17   1 -2.163960E+06 -2.619431E+05  4.509591E+04 -8.459285E+05  1.021996E+04 -1.205738E+04
        17   2 -2.152173E+06 -2.553430E+05  4.335121E+04 -8.403135E+05  1.576142E+04 -1.097012E+04
        17   3 -2.137933E+06 -2.529904E+05  3.751967E+04 -8.386397E+05  2.128886E+04 -9.844690E+03
        17   4 -2.387917E+06 -3.445489E+05 -5.870882E+03 -9.072545E+05  9.281614E+03 -1.241029E+04
        17   5 -2.389187E+06 -3.427149E+05 -1.053171E+04 -9.051758E+05  1.486123E+04 -1.130883E+04
        17   6 -2.388011E+06 -3.451365E+05 -1.931088E+04 -9.070387E+05  2.042670E+04 -1.016925E+04
        17   7 -2.611823E+06 -4.271510E+05 -5.684095E+04 -9.685602E+05  8.343632E+03 -1.276307E+04
        17   8 -2.626143E+06 -4.300824E+05 -6.441809E+04 -9.700153E+05  1.396142E+04 -1.164740E+04
        17   9 -2.638025E+06 -4.372774E+05 -7.614509E+04 -9.754120E+05  1.956492E+04 -1.049366E+04
        17  10 -2.163960E+06 -2.619433E+05  4.509544E+04 -8.459284E+05 -4.116043E-09 -2.446059E-09
        17  11 -2.152174E+06 -2.553432E+05  4.335051E+04 -8.403133E+05 -6.889429E-10 -5.924630E-10
        17  12 -2.137933E+06 -2.529906E+05  3.751864E+04 -8.386395E+05 -1.760463E-09 -6.654854E-10
        17  13 -2.387917E+06 -3.445491E+05 -5.871333E+03 -9.072544E+05 -4.597472E-09 -1.672838E-09
        17  14 -2.389187E+06 -3.427151E+05 -1.053236E+04 -9.051757E+05 -1.648538E-09 -6.370362E-10
        17  15 -2.388011E+06 -3.451367E+05 -1.931186E+04 -9.070385E+05 -3.394720E-09 -9.629920E-10
        17  16 -2.611823E+06 -4.271512E+05 -5.684138E+04 -9.685601E+05  2.112675E-10 -1.215327E-09
        17  17 -2.626143E+06 -4.300826E+05 -6.441871E+04 -9.700152E+05 -1.687085E-09 -5.502477E-10
        17  18 -2.638025E+06 -4.372777E+05 -7.614602E+04 -9.754119E+05 -3.910091E-09 -1.226474E-09
        17  19 -2.163960E+06 -2.619431E+05  4.509591E+04 -8.459285E+05 -1.021996E+04  1.205738E+04
        17  20 -2.152173E+06 -2.553430E+05  4.335121E+04 -8.403135E+05 -1.576142E+04  1.097012E+04
        17  21 -2.137933E+06 -2.529904E+05  3.751967E+04 -8.386397E+05 -2.128886E+04  9.844690E+03
        17  22 -2.387917E+06 -3.445489E+05 -5.870882E+03 -9.072545E+05 -9.281614E+03  1.241029E+04
        17  23 -2.389187E+06 -3.427149E+05 -1.053171E+04 -9.051758E+05 -1.486123E+04  1.130883E+04
        17  24 -2.388011E+06 -3.451365E+05 -1.931088E+04 -9.070387E+05 -2.042670E+04  1.016925E+04
        17  25 -2.611823E+06 -4.271510E+05 -5.684095E+04 -9.685602E+05 -8.343632E+03  1.276307E+04
        17  26 -2.626143E+06 -4.300824E+05 -6.441809E+04 -9.700153E+05 -1.396142E+04  1.164740E+04
        17  27 -2.638025E+06 -4.372774E+05 -7.614509E+04 -9.754120E+05 -1.956492E+04  1.049366E+04
        18   1 -2.127580E+06 -2.501049E+05  3.352553E+04 -8.391247E+05  2.517353E+04 -8.976132E+03
        18   2 -2.116984E+06 -2.412587E+05  1.557393E+04 -8.287558E+05  4.834536E+04 -1.046849E+03
        18   3 -2.111918E+06 -2.511479E+05 -2.361374E+04 -8.190035E+05  7.134945E+04  7.329948E+03
        18   4 -2.389172E+06 -3.439055E+05 -2.555397E+04 -9.079796E+05  2.421361E+04 -9.337414E+03
        18   5 -2.387551E+06 -3.427422E+05 -4.632838E+04 -9.045803E+05  4.784615E+04 -1.235337E+03
        18   6 -2.391556E+06 -3.604116E+05 -8.871222E+04 -9.017979E+05  7.131048E+04  7.313789E+03
        18   7 -2.650696E+06 -4.377026E+05 -8.463834E+04 -9.768087E+05  2.325412E+04 -9.698545E+03
        18   8 -2.658045E+06 -4.442201E+05 -1.082358E+05 -9.803746E+05  4.734716E+04 -1.423736E+03
        18   9 -2.671115E+06 -4.696671E+05 -1.538161E+05 -9.845572E+05  7.127152E+04  7.297636E+03
        18  10 -2.127581E+06 -2.501052E+05  3.352418E+04 -8.391245E+05 -3.381746E-09 -1.072970E-09
        18  11 -2.116987E+06 -2.412593E+05  1.556952E+04 -8.287558E+05 -1.617413E-10 -4.032500E-10
        18  12 -2.111924E+06 -2.511493E+05 -2.362344E+04 -8.190039E+05  8.824136E-10 -3.352821E-11
        18  13 -2.389172E+06 -3.439057E+05 -2.555524E+04 -9.079794E+05 -4.070269E-09 -1.016133E-09
        18  14 -2.387553E+06 -3.427429E+05 -4.633270E+04 -9.045803E+05 -9.425739E-10 -6.509675E-10
        18  15 -2.391562E+06 -3.604131E+05 -8.872191E+04 -9.017983E+05  1.821139E-09 -2.960457E-10
        18  16 -2.650696E+06 -4.377028E+05 -8.463954E+04 -9.768085E+05 -2.163629E-09 -8.911281E-10
        18  17 -2.658047E+06 -4.442207E+05 -1.082400E+05 -9.803745E+05 -2.595352E-09 -4.491595E-10
        18  18 -2.671121E+06 -4.696686E+05 -1.538258E+05 -9.845576E+05 -1.832274E-11 -1.357985E-10
        18  19 -2.127580E+06 -2.501049E+05  3.352553E+04 -8.391247E+05 -2.517353E+04  8.976132E+03
        18  20 -2.116984E+06 -2.412587E+05  1.557393E+04 -8.287558E+05 -4.834536E+04  1.046849E+03
        18  21 -2.111918E+06 -2.511479E+05 -2.361374E+04 -8.190035E+05 -7.134945E+04 -7.329948E+03
        18  22 -2.389172E+06 -3.439055E+05 -2.555397E+04 -9.079796E+05 -2.421361E+04  9.337414E+03
        18  23 -2.387551E+06 -3.427422E+05 -4.632838E+04 -9.045803E+05 -4.784615E+04  1.235337E+03
        18  24 -2.391556E+06 -3.604116E+05 -8.871222E+04 -9.017979E+05 -7.131048E+04 -7.313789E+03
        18  25 -2.650696E+06 -4.377026E+05 -8.463834E+04 -9.768087E+05 -2.325412E+04  9.698545E+03
        18  26 -2.658045E+06 -4.442201E+05 -1.082358E+05 -9.803746E+05 -4.734716E+04  1.423736E+03
        18  27 -2.671115E+06 -4.696671E+05 -1.538161E+05 -9.845572E+05 -7.127152E+04 -7.297636E+03
        19   1 -2.078254E+06 -2.596616E+05 -4.666182E+04 -8.787336E+05  8.796334E+04  1.239020E+04
        19   2 -2.112714E+06 -1.926583E+05 -1.337761E+05 -7.504015E+05  1.869655E+05  5.213350E+04
        19   3 -2.275509E+06 -4.418241E+05 -3.811341E+05 -5.449994E+05  2.825950E+05  1.008544E+05
        19   4 -2.405952E+06 -3.333772E+05 -1.134907E+05 -9.196852E+05  8.551304E+04  1.147582E+04
        19   5 -2.366606E+06 -3.549944E+05 -2.051903E+05 -8.903634E+05  1.938864E+05  5.471111E+04
        19   6 -2.457561E+06 -6.947853E+05 -4.646340E+05 -7.839369E+05  2.988977E+05  1.068834E+05
        19   7 -2.733537E+06 -4.070945E+05 -1.803231E+05 -9.606242E+05  8.306416E+04  1.056149E+04
        19   8 -2.620420E+06 -5.172765E+05 -2.766077E+05 -1.030260E+06  2.008042E+05  5.728565E+04
        19   9 -2.639496E+06 -9.475187E+05 -5.481196E+05 -1.022772E+06  3.151953E+05  1.128982E+05
        19  10 -2.078263E+06 -2.596638E+05 -4.667671E+04 -8.787344E+05  1.065032E-09  2.463289E-10
        19  11 -2.112753E+06 -1.926706E+05 -1.338471E+05 -7.504094E+05  8.861756E-11  1.215656E-09
        19  12 -2.275598E+06 -4.418566E+05 -3.813039E+05 -5.450224E+05  6.240993E-10  5.998214E-10
        19  13 -2.405960E+06 -3.333794E+05 -1.135047E+05 -9.196860E+05 -1.076380E-09  2.197064E-10
        19  14 -2.366648E+06 -3.550078E+05 -2.052669E+05 -8.903719E+05  5.175819E-10  9.010254E-12
        19  15 -2.457661E+06 -6.948217E+05 -4.648241E+05 -7.839628E+05 -8.632041E-10 -1.715354E-10
        19  16 -2.733544E+06 -4.070964E+05 -1.803364E+05 -9.606249E+05 -9.087595E-10  1.861772E-10
        19  17 -2.620465E+06 -5.172909E+05 -2.766900E+05 -1.030269E+06 -1.428999E-09  1.172343E-10
        19  18 -2.639606E+06 -9.475593E+05 -5.483313E+05 -1.022800E+06  1.296952E-10 -1.931366E-10
        19  19 -2.078254E+06 -2.596616E+05 -4.666182E+04 -8.787336E+05 -8.796334E+04 -1.239020E+04
        19  20 -2.112714E+06 -1.926583E+05 -1.337761E+05 -7.504015E+05 -1.869655E+05 -5.213350E+04
        19  21 -2.275509E+06 -4.418241E+05 -3.811341E+05 -5.449994E+05 -2.825950E+05 -1.008544E+05
        19  22 -2.405952E+06 -3.333772E+05 -1.134907E+05 -9.196852E+05 -8.551304E+04 -1.147582E+04
        19  23 -2.366606E+06 -3.549944E+05 -2.051903E+05 -8.903634E+05 -1.938864E+05 -5.471111E+04
        19  24 -2.457561E+06 -6.947853E+05 -4.646340E+05 -7.839369E+05 -2.988977E+05 -1.068834E+05
        19  25 -2.733537E+06 -4.070945E+05 -1.803231E+05 -9.606242E+05 -8.306416E+04 -1.056149E+04
        19  26 -2.620420E+06 -5.172765E+05 -2.766077E+05 -1.030260E+06 -2.008042E+05 -5.728565E+04
        19  27 -2.639496E+06 -9.475187E+05 -5.481196E+05 -1.022772E+06 -3.151953E+05 -1.128982E+05
        20   1 -5.819207E+05  3.177054E+04  3.719354E+04  1.690276E+04  2.565666E+04  6.991575E-01
        20   2 -5.858121E+05  2.172370E+03  1.728863E+04  6.430336E+03  1.657836E+04  1.718674E-01
        20   3 -5.819306E+05 -1.073447E+03  9.886485E+03 -4.041828E+03  7.500174E+03 -4.887252E-02
        20   4 -5.819211E+05  3.177000E+04  3.719346E+04  5.473013E-09  2.565666E+04  2.580339E-10
        20   5 -5.858122E+05  2.172292E+03  1.728862E+04 -1.286793E-09  1.657836E+04  6.724313E-10
        20   6 -5.819306E+05 -1.073478E+03  9.886480E+03  2.855187E-09  7.500174E+03  2.778287E-10
        20   7 -5.819207E+05  3.177054E+04  3.719354E+04 -1.690276E+04  2.565666E+04 -6.991575E-01
        20   8 -5.858121E+05  2.172370E+03  1.728863E+04 -6.430336E+03  1.657836E+04 -1.718674E-01
        20   9 -5.819306E+05 -1.073447E+03  9.886485E+03  4.041828E+03  7.500174E+03  4.887252E-02
        20  10 -5.819215E+05  3.177036E+04  3.719230E+04  1.690276E+04 -1.158511E-09  3.091304E-10
        20  11 -5.858124E+05  2.172296E+03  1.728812E+04  6.430336E+03 -8.635483E-10  6.447543E-10
        20  12 -5.819306E+05 -1.073462E+03  9.886379E+03 -4.041828E+03  2.019347E-10 -1.652182E-10
        20  13 -5.819218E+05  3.176983E+04  3.719223E+04  4.587599E-09 -1.040271E-09  2.054403E-10
        20  14 -5.858125E+05  2.172218E+03  1.728811E+04 -7.936474E-10 -5.383670E-10  4.425126E-10
        20  15 -5.819306E+05 -1.073493E+03  9.886375E+03  3.528196E-09 -1.294040E-09 -7.555518E-11
        20  16 -5.819215E+05  3.177036E+04  3.719230E+04 -1.690276E+04  1.098191E-09  1.331008E-10
        20  17 -5.858124E+05  2.172296E+03  1.728812E+04 -6.430336E+03  1.758982E-10  2.332798E-10
        20  18 -5.819306E+05 -1.073462E+03  9.886379E+03  4.041828E+03 -5.885322E-10  4.897922E-11
        20  19 -5.819207E+05  3.177054E+04  3.719354E+04  1.690276E+04 -2.565666E+04 -6.991575E-01
        20  20 -5.858121E+05  2.172370E+03  1.728863E+04  6.430336E+03 -1.657836E+04 -1.718674E-01
        20  21 -5.819306E+05 -1.073447E+03  9.886485E+03 -4.041828E+03 -7.500174E+03  4.887252E-02
        20  22 -5.819211E+05  3.177000E+04  3.719346E+04  7.996506E-09 -2.565666E+04  1.461196E-10
        20  23 -5.858122E+05  2.172292E+03  1.728862E+04 -1.374057E-09 -1.657836E+04  2.189651E-10
        20  24 -5.819306E+05 -1.073478E+03  9.886480E+03  7.563846E-09 -7.500174E+03 -4.206073E-10
        20  25 -5.819207E+05  3.177054E+04  3.719354E+04 -1.690276E+04 -2.565666E+04  6.991575E-01
        20  26 -5.858121E+05  2.172370E+03  1.728863E+04 -6.430336E+03 -1.657836E+04  1.718674E-01
        20  27 -5.819306E+05 -1.073447E+03  9.886485E+03  4.041828E+03 -7.500174E+03 -4.887252E-02
        21   1 -5.835279E+05  1.325892E+03  7.746549E+03  4.343970E+02  6.149623E+03  4.306772E-03
        21   2 -5.838179E+05  2.126064E+01  4.244685E+03  7.887329E+01  4.028887E+03  5.123089E-04
        21   3 -5.835290E+05 -7.383449E+01  2.426920E+03 -2.766562E+02  1.908126E+03 -8.510664E-04
        21   4 -5.835279E+05  1.325891E+03  7.746549E+03 -4.685611E-09  6.149623E+03 -1.303991E-10
        21   5 -5.838179E+05  2.126063E+01  4.244685E+03 -2.094987E-09  4.028887E+03 -7.677580E-11
        21   6 -5.835290E+05 -7.383464E+01  2.426920E+03  3.599620E-09  1.908126E+03  7.851770E-10
        21   7 -5.835279E+05  1.325892E+03  7.746549E+03 -4.343970E+02  6.149623E+03 -4.306772E-03
        21   8 -5.838179E+05  2.126064E+01  4.244685E+03 -7.887329E+01  4.028887E+03 -5.123091E-04
        21   9 -5.835290E+05 -7.383449E+01  2.426920E+03  2.766562E+02  1.908126E+03  8.510680E-04
        21  10 -5.835280E+05  1.325882E+03  7.746478E+03  4.343970E+02 -3.141668E-10 -3.400685E-10
        21  11 -5.838179E+05  2.125628E+01  4.244654E+03  7.887329E+01 -6.358702E-11  3.306109E-10
        21  12 -5.835290E+05 -7.383547E+01  2.426914E+03 -2.766562E+02 -4.013614E-10  4.237515E-10
        21  13 -5.835280E+05  1.325881E+03  7.746478E+03 -3.532151E-09 -9.542426E-10 -2.749424E-10
        21  14 -5.838179E+05  2.125627E+01  4.244654E+03 -3.926559E-10 -2.113305E-10  1.416682E-11
        21  15 -5.835290E+05 -7.383562E+01  2.426914E+03  5.714639E-11 -5.251533E-10  2.875979E-10
        21  16 -5.835280E+05  1.325882E+03  7.746478E+03 -4.343970E+02  8.104807E-10 -1.910084E-10
        21  17 -5.838179E+05  2.125628E+01  4.244654E+03 -7.887329E+01 -1.079178E-09 -2.457659E-10
        21  18 -5.835290E+05 -7.383547E+01  2.426914E+03  2.766562E+02  5.593756E-10  1.050114E-10
        21  19 -5.835279E+05  1.325892E+03  7.746549E+03  4.343970E+02 -6.149623E+03 -4.306773E-03
        21  20 -5.838179E+05  2.126064E+01  4.244685E+03  7.887329E+01 -4.028887E+03 -5.123083E-04
        21  21 -5.835290E+05 -7.383449E+01  2.426920E+03 -2.766562E+02 -1.908126E+03  8.510673E-04
        21  22 -5.835279E+05  1.325891E+03  7.746549E+03  8.493638E-10 -6.149623E+03 -4.275633E-10
        21  23 -5.838179E+05  2.126063E+01  4.244685E+03 -1.921533E-09 -4.028887E+03  8.392481E-11
        21  24 -5.835290E+05 -7.383464E+01  2.426920E+03  5.530101E-09 -1.908126E+03 -2.088304E-10
        21  25 -5.835279E+05  1.325892E+03  7.746549E+03 -4.343970E+02 -6.149623E+03  4.306772E-03
        21  26 -5.838179E+05  2.126064E+01  4.244685E+03 -7.887329E+01 -4.028887E+03  5.123086E-04
        21  27 -5.835290E+05 -7.383449E+01  2.426920E+03  2.766562E+02 -1.908126E+03 -8.510678E-04
        22   1 -5.836397E+05  3.134073E+01  1.842505E+03 -6.389819E+01  1.531603E+03 -1.577791E-04
        22   2 -5.836801E+05 -1.766082E+01  1.025424E+03 -5.114375E+01  1.024089E+03 -8.444035E-05
        22   3 -5.836399E+05 -8.663619E+00  5.534910E+02 -3.838930E+01  5.165761E+02 -3.197106E-05
        22   4 -5.836397E+05  3.134073E+01  1.842505E+03  5.297362E-09  1.531603E+03  6.588591E-10
        22   5 -5.836801E+05 -1.766082E+01  1.025424E+03 -7.540294E-10  1.024089E+03 -2.877943E-10
        22   6 -5.836399E+05 -8.663621E+00  5.534910E+02  3.246989E-10  5.165761E+02  1.359642E-11
        22   7 -5.836397E+05  3.134073E+01  1.842505E+03  6.389819E+01  1.531603E+03  1.577805E-04
        22   8 -5.836801E+05 -1.766082E+01  1.025424E+03  5.114375E+01  1.024089E+03  8.443968E-05
        22   9 -5.836399E+05 -8.663619E+00  5.534910E+02  3.838930E+01  5.165761E+02  3.197110E-05
        22  10 -5.836397E+05  3.134010E+01  1.842501E+03 -6.389819E+01  3.800965E-10  8.459355E-11
        22  11 -5.836801E+05 -1.766110E+01  1.025422E+03 -5.114375E+01 -1.444083E-09 -4.153903E-10
        22  12 -5.836399E+05 -8.663690E+00  5.534905E+02 -3.838930E+01 -1.953748E-09  8.870980E-11
        22  13 -5.836397E+05  3.134010E+01  1.842501E+03 -2.176448E-10  1.681982E-11  2.311477E-10
        22  14 -5.836801E+05 -1.766111E+01  1.025422E+03 -4.030445E-09  7.050542E-10 -5.911216E-11
        22  15 -5.836399E+05 -8.663693E+00  5.534905E+02  6.684073E-09  3.444837E-10 -9.532249E-11
        22  16 -5.836397E+05  3.134010E+01  1.842501E+03  6.389819E+01 -9.700680E-10  3.832385E-10
        22  17 -5.836801E+05 -1.766110E+01  1.025422E+03  5.114375E+01  1.713264E-09  2.785225E-10
        22  18 -5.836399E+05 -8.663690E+00  5.534905E+02  3.838930E+01  1.406507E-09 -2.632881E-10
        22  19 -5.836397E+05  3.134073E+01  1.842505E+03 -6.389819E+01 -1.531603E+03  1.577794E-04
        22  20 -5.836801E+05 -1.766082E+01  1.025424E+03 -5.114375E+01 -1.024089E+03  8.443969E-05
        22  21 -5.836399E+05 -8.663619E+00  5.534910E+02 -3.838930E+01 -5.165761E+02  3.197130E-05
        22  22 -5.836397E+05  3.134073E+01  1.842505E+03  1.801237E-09 -1.531603E+03 -2.009814E-10
        22  23 -5.836801E+05 -1.766082E+01  1.025424E+03  2.377316E-09 -1.024089E+03  1.699765E-10
        22  24 -5.836399E+05 -8.663621E+00  5.534910E+02  6.853354E-09 -5.165761E+02 -2.119914E-10
        22  25 -5.836397E+05  3.134073E+01  1.842505E+03  6.389819E+01 -1.531603E+03 -1.577798E-04
        22  26 -5.836801E+05 -1.766082E+01  1.025424E+03  5.114375E+01 -1.024089E+03 -8.443925E-05
        22  27 -5.836399E+05 -8.663619E+00  5.534910E+02  3.838930E+01 -5.165761E+02 -3.197180E-05
        23   1 -5.836557E+05 -4.932873E+00  3.901547E+02 -2.671474E+01  4.313434E+02 -1.857690E-05
        23   2 -5.836606E+05 -2.949668E+00  1.416889E+02 -2.274756E+01  3.613253E+02 -1.325081E-05
        23   3 -5.836557E+05  1.812473E+00 -6.046752E+01 -1.878044E+01  2.913082E+02 -8.820757E-06
        23   4 -5.836557E+05 -4.932874E+00  3.901547E+02  2.152121E-10  4.313434E+02  3.941323E-10
        23   5 -5.836606E+05 -2.949669E+00  1.416889E+02  1.362784E-09  3.613253E+02  1.155986E-10
        23   6 -5.836557E+05  1.812472E+00 -6.046752E+01  3.584975E-09  2.913082E+02 -8.146332E-10
        23   7 -5.836557E+05 -4.932873E+00  3.901547E+02  2.671474E+01  4.313434E+02  1.857765E-05
        23   8 -5.836606E+05 -2.949668E+00  1.416889E+02  2.274756E+01  3.613253E+02  1.325100E-05
        23   9 -5.836557E+05  1.812473E+00 -6.046752E+01  1.878044E+01  2.913082E+02  8.819197E-06
        23  10 -5.836557E+05 -4.932923E+00  3.901544E+02 -2.671474E+01  3.497572E-10  2.773237E-10
        23  11 -5.836606E+05 -2.949703E+00  1.416887E+02 -2.274756E+01  4.747619E-10 -7.019552E-11
        23  12 -5.836557E+05  1.812450E+00 -6.046768E+01 -1.878044E+01 -4.032314E-10 -2.733507E-10
        23  13 -5.836557E+05 -4.932924E+00  3.901544E+02  1.289830E-09 -1.190619E-09 -5.315166E-11
        23  14 -5.836606E+05 -2.949704E+00  1.416887E+02 -2.458301E-09 -1.509594E-09 -1.613422E-10
        23  15 -5.836557E+05  1.812450E+00 -6.046768E+01  2.517909E-10  6.081635E-10 -3.987322E-10
        23  16 -5.836557E+05 -4.932923E+00  3.901544E+02  2.671474E+01  3.003988E-10 -4.218514E-10
        23  17 -5.836606E+05 -2.949703E+00  1.416887E+02  2.274756E+01 -1.710971E-09 -2.717911E-10
        23  18 -5.836557E+05  1.812450E+00 -6.046768E+01  1.878044E+01 -2.525689E-09 -5.146317E-10
        23  19 -5.836557E+05 -4.932873E+00  3.901547E+02 -2.671474E+01 -4.313434E+02  1.857740E-05
        23  20 -5.836606E+05 -2.949668E+00  1.416889E+02 -2.274756E+01 -3.613253E+02  1.325080E-05
        23  21 -5.836557E+05  1.812473E+00 -6.046752E+01 -1.878044E+01 -2.913082E+02  8.820328E-06
        23  22 -5.836557E+05 -4.932874E+00  3.901547E+02  3.439067E-09 -4.313434E+02 -5.072179E-10
        23  23 -5.836606E+05 -2.949669E+00  1.416889E+02 -3.590737E-09 -3.613253E+02 -4.182742E-10
        23  24 -5.836557E+05  1.812472E+00 -6.046752E+01  1.360081E-09 -2.913082E+02  2.221652E-11
        23  25 -5.836557E+05 -4.932873E+00  3.901547E+02  2.671474E+01 -4.313434E+02 -1.857850E-05
        23  26 -5.836606E+05 -2.949668E+00  1.416889E+02  2.274756E+01 -3.613253E+02 -1.325161E-05
        23  27 -5.836557E+05  1.812473E+00 -6.046752E+01  1.878044E+01 -2.913082E+02 -8.820331E-06
        24   1 -5.836643E+05  1.647160E+00 -1.646098E+02 -1.974763E+01  3.117425E+02 -9.925690E-06
        24   2 -5.836500E+05  8.966700E+00 -4.201840E+02 -3.245805E+01  5.193362E+02 -2.717584E-05
        24   3 -5.836644E+05  1.029008E+01 -8.125025E+02 -4.516868E+01  7.269329E+02 -5.293424E-05
        24   4 -5.836643E+05  1.647159E+00 -1.646098E+02  2.258566E-09  3.117425E+02 -8.518902E-10
        24   5 -5.836500E+05  8.966698E+00 -4.201840E+02 -4.395440E-10  5.193362E+02  3.025777E-10
        24   6 -5.836644E+05  1.029008E+01 -8.125025E+02  3.588700E-09  7.269329E+02  1.178451E-09
        24   7 -5.836643E+05  1.647160E+00 -1.646098E+02  1.974763E+01  3.117425E+02  9.923999E-06
        24   8 -5.836500E+05  8.966700E+00 -4.201840E+02  3.245805E+01  5.193362E+02  2.717649E-05
        24   9 -5.836644E+05  1.029008E+01 -8.125025E+02  4.516868E+01  7.269329E+02  5.293659E-05
        24  10 -5.836643E+05  1.647134E+00 -1.646100E+02 -1.974763E+01 -1.906785E-09 -2.559107E-10
        24  11 -5.836500E+05  8.966628E+00 -4.201845E+02 -3.245805E+01 -1.323826E-09  1.251528E-10
        24  12 -5.836644E+05  1.028994E+01 -8.125035E+02 -4.516868E+01 -1.040341E-09  7.152195E-10
        24  13 -5.836643E+05  1.647133E+00 -1.646100E+02  2.922442E-10 -1.085131E-09 -3.272892E-10
        24  14 -5.836500E+05  8.966626E+00 -4.201845E+02  2.333749E-10  3.801623E-10  1.881416E-10
        24  15 -5.836644E+05  1.028993E+01 -8.125035E+02  1.829155E-10 -1.952934E-09  5.553071E-10
        24  16 -5.836643E+05  1.647134E+00 -1.646100E+02  1.974763E+01  6.348113E-10 -3.815640E-10
        24  17 -5.836500E+05  8.966628E+00 -4.201845E+02  3.245805E+01 -7.220472E-10  2.745197E-10
        24  18 -5.836644E+05  1.028994E+01 -8.125035E+02  4.516868E+01 -1.129658E-11  3.777476E-10
        24  19 -5.836643E+05  1.647160E+00 -1.646098E+02 -1.974763E+01 -3.117425E+02  9.925190E-06
        24  20 -5.836500E+05  8.966700E+00 -4.201840E+02 -3.245805E+01 -5.193362E+02  2.717615E-05
        24  21 -5.836644E+05  1.029008E+01 -8.125025E+02 -4.516868E+01 -7.269329E+02  5.293574E-05
        24  22 -5.836643E+05  1.647159E+00 -1.646098E+02  1.551881E-09 -3.117425E+02  1.995106E-10
        24  23 -5.836500E+05  8.966698E+00 -4.201840E+02 -3.932644E-09 -5.193362E+02  6.732223E-11
        24  24 -5.836644E+05  1.029008E+01 -8.125025E+02  4.440361E-09 -7.269329E+02 -5.808177E-11
        24  25 -5.836643E+05  1.647160E+00 -1.646098E+02  1.974763E+01 -3.117425E+02 -9.924818E-06
        24  26 -5.836500E+05  8.966700E+00 -4.201840E+02  3.245805E+01 -5.193362E+02 -2.717601E-05
        24  27 -5.836644E+05  1.029008E+01 -8.125025E+02  4.516868E+01 -7.269329E+02 -5.293592E-05
        25   1 -5.836918E+05  1.733862E+01 -1.092624E+03 -6.724701E+01  8.990940E+02 -9.747422E-05
        25   2 -5.836161E+05  3.354877E+01 -1.936190E+03 -9.219807E+01  1.857337E+03 -2.760766E-04
        25   3 -5.836921E+05 -5.769243E+01 -3.430911E+03 -1.171492E+02  2.815578E+03 -5.317696E-04
        25   4 -5.836918E+05  1.733861E+01 -1.092624E+03  2.765264E-09  8.990940E+02  8.264739E-10
        25   5 -5.836161E+05  3.354876E+01 -1.936190E+03 -1.393525E-09  1.857337E+03 -3.663798E-10
        25   6 -5.836921E+05 -5.769246E+01 -3.430911E+03  3.998338E-09  2.815578E+03 -2.708684E-10
        25   7 -5.836918E+05  1.733862E+01 -1.092624E+03  6.724701E+01  8.990940E+02  9.747588E-05
        25   8 -5.836161E+05  3.354877E+01 -1.936190E+03  9.219807E+01  1.857337E+03  2.760758E-04
        25   9 -5.836921E+05 -5.769243E+01 -3.430911E+03  1.171492E+02  2.815578E+03  5.317691E-04
        25  10 -5.836918E+05  1.733840E+01 -1.092625E+03 -6.724701E+01  1.188926E-10  6.978102E-10
        25  11 -5.836161E+05  3.354785E+01 -1.936196E+03 -9.219807E+01  1.863548E-09 -4.980245E-11
        25  12 -5.836922E+05 -5.769456E+01 -3.430925E+03 -1.171492E+02  1.221083E-09 -3.496558E-10
        25  13 -5.836918E+05  1.733839E+01 -1.092625E+03  4.793648E-10 -2.048035E-09  4.919190E-10
        25  14 -5.836161E+05  3.354783E+01 -1.936196E+03 -9.382114E-10  1.501264E-09  1.313064E-10
        25  15 -5.836922E+05 -5.769459E+01 -3.430925E+03 -5.571239E-09 -1.374181E-09 -3.847133E-11
        25  16 -5.836918E+05  1.733840E+01 -1.092625E+03  6.724701E+01 -9.474573E-10  3.315300E-10
        25  17 -5.836161E+05  3.354785E+01 -1.936196E+03  9.219807E+01 -8.451982E-10  2.775459E-10
        25  18 -5.836922E+05 -5.769456E+01 -3.430925E+03  1.171492E+02 -5.607268E-10  2.821040E-10
        25  19 -5.836918E+05  1.733862E+01 -1.092624E+03 -6.724701E+01 -8.990940E+02  9.747560E-05
        25  20 -5.836161E+05  3.354877E+01 -1.936190E+03 -9.219807E+01 -1.857337E+03  2.760767E-04
        25  21 -5.836921E+05 -5.769243E+01 -3.430911E+03 -1.171492E+02 -2.815578E+03  5.317689E-04
        25  22 -5.836918E+05  1.733861E+01 -1.092624E+03 -5.062980E-09 -8.990940E+02  1.601651E-10
        25  23 -5.836161E+05  3.354876E+01 -1.936190E+03 -4.250375E-09 -1.857337E+03  6.067056E-10
        25  24 -5.836921E+05 -5.769246E+01 -3.430911E+03  4.506332E-10 -2.815578E+03  2.013864E-10
        25  25 -5.836918E+05  1.733862E+01 -1.092624E+03  6.724701E+01 -8.990940E+02 -9.747531E-05
        25  26 -5.836161E+05  3.354877E+01 -1.936190E+03  9.219807E+01 -1.857337E+03 -2.760754E-04
        25  27 -5.836921E+05 -5.769243E+01 -3.430911E+03  1.171492E+02 -2.815578E+03 -5.317686E-04
        26   1 -5.838965E+05  1.369212E+02 -4.506490E+03 -5.108496E+02  3.515686E+03 -2.895473E-03
        26   2 -5.833617E+05 -3.911117E+01 -7.861622E+03  1.465338E+02  7.443624E+03  1.758483E-03
        26   3 -5.838984E+05 -2.452744E+03 -1.433513E+04  8.039091E+02  1.137148E+04  1.473805E-02
        26   4 -5.838965E+05  1.369207E+02 -4.506490E+03  2.158487E-09  3.515686E+03  2.682294E-12
        26   5 -5.833617E+05 -3.911121E+01 -7.861622E+03 -3.495719E-09  7.443624E+03 -1.157685E-10
        26   6 -5.838984E+05 -2.452746E+03 -1.433513E+04  3.911659E-09  1.137148E+04 -5.091857E-10
        26   7 -5.838965E+05  1.369212E+02 -4.506490E+03  5.108496E+02  3.515686E+03  2.895474E-03
        26   8 -5.833617E+05 -3.911117E+01 -7.861622E+03 -1.465338E+02  7.443624E+03 -1.758483E-03
        26   9 -5.838984E+05 -2.452744E+03 -1.433513E+04 -8.039091E+02  1.137148E+04 -1.473805E-02
        26  10 -5.838965E+05  1.369178E+02 -4.506513E+03 -5.108496E+02  7.478518E-10 -2.863304E-10
        26  11 -5.833618E+05 -3.912606E+01 -7.861726E+03  1.465338E+02  1.132751E-09 -3.554613E-10
        26  12 -5.838985E+05 -2.452779E+03 -1.433537E+04  8.039091E+02  8.446797E-10 -1.026881E-09
        26  13 -5.838965E+05  1.369173E+02 -4.506513E+03 -3.355482E-09  8.409887E-12 -1.694394E-10
        26  14 -5.833618E+05 -3.912611E+01 -7.861726E+03 -1.055330E-08 -3.364836E-10 -4.595830E-10
        26  15 -5.838985E+05 -2.452780E+03 -1.433537E+04 -3.755796E-09 -4.337283E-10 -5.795710E-10
        26  16 -5.838965E+05  1.369178E+02 -4.506513E+03  5.108496E+02 -2.049596E-09 -5.403704E-11
        26  17 -5.833618E+05 -3.912606E+01 -7.861726E+03 -1.465338E+02 -7.783922E-10 -5.713586E-10
        26  18 -5.838985E+05 -2.452779E+03 -1.433537E+04 -8.039091E+02 -2.050191E-09 -1.129826E-10
        26  19 -5.838965E+05  1.369212E+02 -4.506490E+03 -5.108496E+02 -3.515686E+03  2.895473E-03
        26  20 -5.833617E+05 -3.911117E+01 -7.861622E+03  1.465338E+02 -7.443624E+03 -1.758483E-03
        26  21 -5.838984E+05 -2.452744E+03 -1.433513E+04  8.039091E+02 -1.137148E+04 -1.473806E-02
        26  22 -5.838965E+05  1.369207E+02 -4.506490E+03 -2.556656E-10 -3.515686E+03 -3.414477E-10
        26  23 -5.833617E+05 -3.911121E+01 -7.861622E+03 -7.927709E-09 -7.443624E+03 -8.173966E-10
        26  24 -5.838984E+05 -2.452746E+03 -1.433513E+04 -1.970337E-12 -1.137148E+04 -6.613478E-10
        26  25 -5.838965E+05  1.369212E+02 -4.506490E+03  5.108496E+02 -3.515686E+03 -2.895474E-03
        26  26 -5.833617E+05 -3.911117E+01 -7.861622E+03 -1.465338E+02 -7.443624E+03  1.758482E-03
        26  27 -5.838984E+05 -2.452744E+03 -1.433513E+04 -8.039091E+02 -1.137148E+04  1.473805E-02
        27   1 -5.868529E+05  1.986126E+03 -1.829191E+04 -7.476855E+03  1.387043E+04 -1.671965E-01
        27   2 -5.796723E+05 -4.018233E+03 -3.198062E+04  1.189602E+04  3.066545E+04  5.881169E-01
        27   3 -5.868690E+05 -5.876873E+04 -6.879672E+04  3.126884E+04  4.746074E+04  2.392551E+00
        27   4 -5.868530E+05  1.986021E+03 -1.829193E+04  6.017802E-09  1.387043E+04  6.022356E-12
        27   5 -5.796724E+05 -4.018500E+03 -3.198065E+04  3.256634E-09  3.066545E+04  1.169781E-09
        27   6 -5.868701E+05 -5.877057E+04 -6.879698E+04  4.533001E-09  4.746074E+04  4.857126E-10
        27   7 -5.868529E+05  1.986126E+03 -1.829191E+04  7.476855E+03  1.387043E+04  1.671965E-01
        27   8 -5.796723E+05 -4.018233E+03 -3.198062E+04 -1.189602E+04  3.066545E+04 -5.881169E-01
        27   9 -5.868690E+05 -5.876873E+04 -6.879672E+04 -3.126884E+04  4.746074E+04 -2.392551E+00
        27  10 -5.868531E+05  1.986074E+03 -1.829227E+04 -7.476855E+03 -1.477986E-09 -5.770582E-10
        27  11 -5.796733E+05 -4.018486E+03 -3.198238E+04  1.189602E+04  3.580153E-10  8.717743E-10
        27  12 -5.868714E+05 -5.876933E+04 -6.880096E+04  3.126884E+04  1.945606E-09  4.618876E-10
        27  13 -5.868532E+05  1.985969E+03 -1.829229E+04 -1.892239E-11 -1.283616E-09 -1.255885E-10
        27  14 -5.796735E+05 -4.018752E+03 -3.198242E+04 -4.752664E-09 -8.403093E-10  6.813443E-10
        27  15 -5.868725E+05 -5.877117E+04 -6.880122E+04 -1.400366E-09 -2.685367E-10  3.197310E-10
        27  16 -5.868531E+05  1.986074E+03 -1.829227E+04  7.476855E+03 -1.106082E-09  3.402257E-10
        27  17 -5.796733E+05 -4.018486E+03 -3.198238E+04 -1.189602E+04 -3.838759E-10  4.925712E-10
        27  18 -5.868714E+05 -5.876933E+04 -6.880096E+04 -3.126884E+04 -1.444375E-09  1.786460E-10
        27  19 -5.868529E+05  1.986126E+03 -1.829191E+04 -7.476855E+03 -1.387043E+04  1.671965E-01
        27  20 -5.796723E+05 -4.018233E+03 -3.198062E+04  1.189602E+04 -3.066545E+04 -5.881169E-01
        27  21 -5.868690E+05 -5.876873E+04 -6.879672E+04  3.126884E+04 -4.746074E+04 -2.392551E+00
        27  22 -5.868530E+05  1.986021E+03 -1.829193E+04 -6.677923E-10 -1.387043E+04 -2.659000E-10
        27  23 -5.796724E+05 -4.018500E+03 -3.198065E+04 -9.147200E-10 -3.066545E+04  1.914211E-10
        27  24 -5.868701E+05 -5.877057E+04 -6.879698E+04  1.796141E-09 -4.746074E+04  1.619760E-10
        27  25 -5.868529E+05  1.986126E+03 -1.829191E+04  7.476855E+03 -1.387043E+04 -1.671965E-01
        27  26 -5.796723E+05 -4.018233E+03 -3.198062E+04 -1.189602E+04 -3.066545E+04  5.881169E-01
        27  27 -5.868690E+05 -5.876873E+04 -6.879672E+04 -3.126884E+04 -4.746074E+04  2.392551E+00
        28   1  6.623664E+05  2.285728E+06  6.905609E+05 -3.565149E+05  2.140139E+04  2.611530E+05
        28   2  3.579444E+05  1.939409E+06  4.357312E+05 -2.279140E+05  6.555770E+04  1.390301E+05
        28   3  2.578897E+05  1.660379E+06  3.113671E+05 -2.018881E+05  6.319381E+04  1.696269E+04
        28   4  2.346822E+05  5.599331E+05  2.756653E+05 -2.302787E+05  2.149680E+04  1.847183E+05
        28   5  1.589677E+04  5.309848E+05  1.323713E+05 -1.790950E+05  6.559950E+04  1.153777E+05
        28   6 -7.415003E+03  5.602609E+05  8.314501E+04 -2.304563E+05  6.316478E+04  4.602477E+04
        28   7 -1.931561E+05 -1.163097E+06 -1.394119E+05 -1.043928E+05  2.156142E+04  1.084941E+05
        28   8 -3.262721E+05 -8.755746E+05 -1.711018E+05 -1.303875E+05  6.563765E+04  9.177780E+04
        28   9 -2.727928E+05 -5.387093E+05 -1.451395E+05 -2.589726E+05  6.313305E+04  7.503628E+04
        28  10  6.623477E+05  2.285654E+06  6.904323E+05 -3.565194E+05 -6.725110E-10 -5.147124E-10
        28  11  3.579346E+05  1.939388E+06  4.356869E+05 -2.279213E+05 -7.649232E-10 -1.088857E-09
        28  12  2.578853E+05  1.660377E+06  3.113591E+05 -2.018889E+05 -3.528865E-10 -1.401719E-09
        28  13  2.346725E+05  5.598963E+05  2.756003E+05 -2.302819E+05 -1.013300E-10  3.820896E-11
        28  14  1.588857E+04  5.309693E+05  1.323382E+05 -1.791011E+05 -1.064977E-09 -1.414202E-11
        28  15 -7.419858E+03  5.602576E+05  8.313352E+04 -2.304586E+05 -1.448853E-09 -4.264520E-10
        28  16 -1.931598E+05 -1.163110E+06 -1.394349E+05 -1.043947E+05  1.500677E-09  5.010071E-10
        28  17 -3.262790E+05 -8.755848E+05 -1.711258E+05 -1.303924E+05  5.517271E-10  1.431275E-09
        28  18 -2.727986E+05 -5.387164E+05 -1.451576E+05 -2.589765E+05 -7.400229E-10  1.703314E-09
        28  19  6.623664E+05  2.285728E+06  6.905609E+05 -3.565149E+05 -2.140139E+04 -2.611530E+05
        28  20  3.579444E+05  1.939409E+06  4.357312E+05 -2.279140E+05 -6.555770E+04 -1.390301E+05
        28  21  2.578897E+05  1.660379E+06  3.113671E+05 -2.018881E+05 -6.319381E+04 -1.696269E+04
        28  22  2.346822E+05  5.599331E+05  2.756653E+05 -2.302787E+05 -2.149680E+04 -1.847183E+05
        28  23  1.589677E+04  5.309848E+05  1.323713E+05 -1.790950E+05 -6.559950E+04 -1.153777E+05
        28  24 -7.415003E+03  5.602609E+05  8.314501E+04 -2.304563E+05 -6.316478E+04 -4.602477E+04
        28  25 -1.931561E+05 -1.163097E+06 -1.394119E+05 -1.043928E+05 -2.156142E+04 -1.084941E+05
        28  26 -3.262721E+05 -8.755746E+05 -1.711018E+05 -1.303875E+05 -6.563765E+04 -9.177780E+04
        28  27 -2.727928E+05 -5.387093E+05 -1.451395E+05 -2.589726E+05 -6.313305E+04 -7.503628E+04
        29   1  2.195347E+05  1.417993E+06  2.517058E+05 -2.366031E+05  4.926169E+04  1.636504E+04
        29   2  1.349881E+05  1.102319E+06  1.708240E+05 -1.792427E+05  3.302560E+04 -1.328247E+04
        29   3  6.709920E+04  7.945285E+05  1.133192E+05 -2.265382E+05  1.534507E+04 -4.292771E+04
        29   4  9.775232E+03  5.490771E+05  7.092493E+04 -2.308877E+05  4.924214E+04  3.391225E+04
        29   5  7.305317E+02  5.453747E+05  5.596214E+04 -1.785598E+05  3.299847E+04  5.922180E+03
        29   6  8.072170E+03  5.491857E+05  6.324825E+04 -2.308911E+05  1.530990E+04 -2.207995E+04
        29   7 -2.000319E+05 -3.191243E+05 -1.098962E+05 -2.251801E+05  4.922288E+04  5.143534E+04
        29   8 -1.335464E+05 -1.127478E+04 -5.891509E+04 -1.778774E+05  3.297136E+04  2.510992E+04
        29   9 -5.095831E+04  3.039010E+05  1.317578E+04 -2.352422E+05  1.527443E+04 -1.240261E+03
        29  10  2.195320E+05  1.417992E+06  2.517007E+05 -2.366037E+05 -2.003069E-09 -4.254002E-10
        29  11  1.349869E+05  1.102318E+06  1.708217E+05 -1.792423E+05 -8.456747E-10 -1.824913E-09
        29  12  6.709845E+04  7.945264E+05  1.133153E+05 -2.265377E+05 -1.459111E-09 -3.826123E-09
        29  13  9.772319E+03  5.490752E+05  7.091821E+04 -2.308891E+05 -2.989965E-09  3.036614E-10
        29  14  7.293527E+02  5.453743E+05  5.596003E+04 -1.785600E+05 -1.601749E-09 -1.180157E-11
        29  15  8.071788E+03  5.491851E+05  6.324690E+04 -2.308908E+05 -1.362216E-09 -6.300431E-10
        29  16 -2.000353E+05 -3.191278E+05 -1.099057E+05 -2.251822E+05 -2.257273E-09  4.431045E-10
        29  17 -1.335477E+05 -1.127575E+04 -5.891832E+04 -1.778781E+05 -2.535330E-09  2.628121E-09
        29  18 -5.095856E+04  3.039009E+05  1.317534E+04 -2.352422E+05 -3.983423E-10  4.192642E-09
        29  19  2.195347E+05  1.417993E+06  2.517058E+05 -2.366031E+05 -4.926169E+04 -1.636504E+04
        29  20  1.349881E+05  1.102319E+06  1.708240E+05 -1.792427E+05 -3.302560E+04  1.328247E+04
        29  21  6.709920E+04  7.945285E+05  1.133192E+05 -2.265382E+05 -1.534507E+04  4.292771E+04
        29  22  9.775232E+03  5.490771E+05  7.092493E+04 -2.308877E+05 -4.924214E+04 -3.391225E+04
        29  23  7.305317E+02  5.453747E+05  5.596214E+04 -1.785598E+05 -3.299847E+04 -5.922180E+03
        29  24  8.072170E+03  5.491857E+05  6.324825E+04 -2.308911E+05 -1.530990E+04  2.207995E+04
        29  25 -2.000319E+05 -3.191243E+05 -1.098962E+05 -2.251801E+05 -4.922288E+04 -5.143534E+04
        29  26 -1.335464E+05 -1.127478E+04 -5.891509E+04 -1.778774E+05 -3.297136E+04 -2.510992E+04
        29  27 -5.095831E+04  3.039010E+05  1.317578E+04 -2.352422E+05 -1.527443E+04  1.240261E+03
        30   1 -1.887203E+03  5.732516E+05  7.339712E+04 -2.543360E+05  2.763537E+03 -5.762607E+04
        30   2 -5.880096E+04  2.402181E+05  4.285457E+04 -1.395660E+05 -1.010528E+04 -9.409095E+04
        30   3  3.849914E+04 -4.967884E+04  7.453889E+04 -1.285320E+05 -4.774959E+03 -1.305135E+05
        30   4 -5.436100E+03  5.578805E+05  7.149129E+04 -2.307408E+05  2.717983E+03 -3.277597E+04
        30   5  1.339655E+04  5.345546E+05  1.088999E+05 -1.787449E+05 -1.010601E+04 -8.981203E+04
        30   6  1.899524E+05  5.577765E+05  2.227769E+05 -2.304529E+05 -4.727497E+03 -1.468241E+05
        30   7 -8.982586E+03  5.425123E+05  6.958807E+04 -2.071461E+05  2.674316E+03 -7.926448E+03
        30   8  8.559388E+04  8.289749E+05  1.749406E+05 -2.179425E+05 -1.010727E+04 -8.553110E+04
        30   9  3.414173E+05  1.165591E+06  3.709946E+05 -3.324736E+05 -4.674714E+03 -1.631507E+05
        30  10 -1.888101E+03  5.732480E+05  7.339088E+04 -2.543359E+05  6.161008E-10 -1.943381E-08
        30  11 -5.880344E+04  2.402085E+05  4.283775E+04 -1.395667E+05  1.391913E-09 -4.894327E-10
        30  12  3.849454E+04 -4.969714E+04  7.450683E+04 -1.285325E+05  1.238924E-09  1.791665E-08
        30  13 -5.436396E+03  5.578794E+05  7.148926E+04 -2.307407E+05  2.702382E-10  3.553609E-10
        30  14  1.339428E+04  5.345459E+05  1.088845E+05 -1.787456E+05  2.275709E-09  2.179796E-11
        30  15  1.899466E+05  5.577534E+05  2.227364E+05 -2.304534E+05  1.637860E-09 -6.006543E-10
        30  16 -8.982611E+03  5.425122E+05  6.958794E+04 -2.071461E+05 -6.838011E-11  1.939276E-08
        30  17  8.559181E+04  8.289670E+05  1.749266E+05 -2.179432E+05  1.951522E-09  1.290579E-09
        30  18  3.414102E+05  1.165562E+06  3.709447E+05 -3.324742E+05  6.996412E-10 -1.759327E-08
        30  19 -1.887203E+03  5.732516E+05  7.339712E+04 -2.543360E+05 -2.763537E+03  5.762607E+04
        30  20 -5.880096E+04  2.402181E+05  4.285457E+04 -1.395660E+05  1.010528E+04  9.409095E+04
        30  21  3.849914E+04 -4.967884E+04  7.453889E+04 -1.285320E+05  4.774959E+03  1.305135E+05
        30  22 -5.436100E+03  5.578805E+05  7.149129E+04 -2.307408E+05 -2.717983E+03  3.277597E+04
        30  23  1.339655E+04  5.345546E+05  1.088999E+05 -1.787449E+05  1.010601E+04  8.981203E+04
        30  24  1.899524E+05  5.577765E+05  2.227769E+05 -2.304529E+05  4.727497E+03  1.468241E+05
        30  25 -8.982586E+03  5.425123E+05  6.958807E+04 -2.071461E+05 -2.674316E+03  7.926448E+03
        30  26  8.559388E+04  8.289749E+05  1.749406E+05 -2.179425E+05  1.010727E+04  8.553110E+04
        30  27  3.414173E+05  1.165591E+06  3.709946E+05 -3.324736E+05  4.674714E+03  1.631507E+05
        31   1 -1.029893E+06 -2.487889E+05 -9.231195E+04 -4.011769E+05 -5.228043E+04 -1.884084E+04
        31   2 -1.015626E+06 -1.702598E+05 -4.377725E+04 -3.969231E+05 -3.266914E+04 -1.009543E+04
        31   3 -1.020171E+06 -1.487379E+05 -2.473098E+04 -3.835978E+05 -1.243695E+04 -3.005257E+03
        31   4 -9.981644E+05 -2.060298E+05 -7.789998E+04 -3.607658E+05 -5.011954E+04 -1.803381E+04
        31   5 -9.846535E+05 -1.473934E+05 -3.441967E+04 -3.766585E+05 -3.225466E+04 -9.940768E+03
        31   6 -9.896085E+05 -1.454171E+05 -1.904158E+04 -3.834802E+05 -1.376872E+04 -3.504407E+03
        31   7 -9.664326E+05 -1.632652E+05 -6.348795E+04 -3.203527E+05 -4.795858E+04 -1.722648E+04
        31   8 -9.536804E+05 -1.245261E+05 -2.506224E+04 -3.563929E+05 -3.184015E+04 -9.786079E+03
        31   9 -9.590446E+05 -1.420961E+05 -1.335218E+04 -3.833627E+05 -1.510057E+04 -4.003539E+03
        31  10 -1.029896E+06 -2.487900E+05 -9.231777E+04 -4.011777E+05  1.970902E-09  3.918087E-11
        31  11 -1.015627E+06 -1.702602E+05 -4.377945E+04 -3.969234E+05  2.756747E-09 -1.479536E-09
        31  12 -1.020172E+06 -1.487380E+05 -2.473129E+04 -3.835978E+05  2.352338E-09  1.420187E-09
        31  13 -9.981671E+05 -2.060308E+05 -7.790532E+04 -3.607666E+05 -7.260817E-10 -9.141849E-10
        31  14 -9.846546E+05 -1.473938E+05 -3.442181E+04 -3.766588E+05 -1.176745E-09 -2.000698E-09
        31  15 -9.896087E+05 -1.454171E+05 -1.904196E+04 -3.834802E+05  1.695940E-09 -1.831000E-10
        31  16 -9.664351E+05 -1.632661E+05 -6.349284E+04 -3.203533E+05 -2.913579E-09 -1.975826E-09
        31  17 -9.536815E+05 -1.245264E+05 -2.506432E+04 -3.563932E+05 -1.766079E-09 -2.986572E-09
        31  18 -9.590448E+05 -1.420962E+05 -1.335264E+04 -3.833627E+05 -2.522279E-09 -1.678590E-09
        31  19 -1.029893E+06 -2.487889E+05 -9.231195E+04 -4.011769E+05  5.228043E+04  1.884084E+04
        31  20 -1.015626E+06 -1.702598E+05 -4.377725E+04 -3.969231E+05  3.266914E+04  1.009543E+04
        31  21 -1.020171E+06 -1.487379E+05 -2.473098E+04 -3.835978E+05  1.243695E+04  3.005257E+03
        31  22 -9.981644E+05 -2.060298E+05 -7.789998E+04 -3.607658E+05  5.011954E+04  1.803381E+04
        31  23 -9.846535E+05 -1.473934E+05 -3.441967E+04 -3.766585E+05  3.225466E+04  9.940768E+03
        31  24 -9.896085E+05 -1.454171E+05 -1.904158E+04 -3.834802E+05  1.376872E+04  3.504407E+03
        31  25 -9.664326E+05 -1.632652E+05 -6.348795E+04 -3.203527E+05  4.795858E+04  1.722648E+04
        31  26 -9.536804E+05 -1.245261E+05 -2.506224E+04 -3.563929E+05  3.184015E+04  9.786079E+03
        31  27 -9.590446E+05 -1.420961E+05 -1.335218E+04 -3.833627E+05  1.510057E+04  4.003539E+03
        32   1 -1.000061E+06 -1.556343E+05 -1.801768E+04 -3.849817E+05 -1.030956E+04 -2.979838E+03
        32   2 -9.868767E+05 -1.450624E+05 -7.543563E+03 -3.789102E+05 -5.968634E+03 -2.350287E+03
        32   3 -9.713550E+05 -1.409602E+05 -7.605131E+02 -3.767260E+05 -1.597890E+03 -1.799513E+03
        32   4 -9.871919E+05 -1.499416E+05 -1.488607E+04 -3.804817E+05 -1.119096E+04 -3.310331E+03
        32   5 -9.881727E+05 -1.453327E+05 -7.782930E+03 -3.790554E+05 -6.933119E+03 -2.711917E+03
        32   6 -9.867998E+05 -1.471772E+05 -4.304888E+03 -3.815167E+05 -2.645614E+03 -2.192343E+03
        32   7 -9.743228E+05 -1.442487E+05 -1.175443E+04 -3.759816E+05 -1.207240E+04 -3.640838E+03
        32   8 -9.894686E+05 -1.456030E+05 -8.022292E+03 -3.792007E+05 -7.897599E+03 -3.073547E+03
        32   9 -1.002244E+06 -1.533941E+05 -7.849197E+03 -3.863071E+05 -3.693291E+03 -2.585153E+03
        32  10 -1.000061E+06 -1.556344E+05 -1.801790E+04 -3.849817E+05  3.987703E-08  1.778233E-08
        32  11 -9.868767E+05 -1.450624E+05 -7.543641E+03 -3.789102E+05  4.375412E-09  5.573672E-09
        32  12 -9.713550E+05 -1.409602E+05 -7.605240E+02 -3.767260E+05 -3.757357E-08 -1.229850E-08
        32  13 -9.871920E+05 -1.499416E+05 -1.488633E+04 -3.804817E+05  2.445173E-09  3.058782E-09
        32  14 -9.881727E+05 -1.453327E+05 -7.783035E+03 -3.790554E+05  2.011705E-09  5.538445E-09
        32  15 -9.867998E+05 -1.471772E+05 -4.304910E+03 -3.815167E+05 -2.423863E-09  1.611085E-09
        32  16 -9.743229E+05 -1.442488E+05 -1.175473E+04 -3.759817E+05 -3.748862E-08 -1.167728E-08
        32  17 -9.894687E+05 -1.456030E+05 -8.022427E+03 -3.792007E+05  7.303480E-10  5.893525E-09
        32  18 -1.002244E+06 -1.533941E+05 -7.849235E+03 -3.863071E+05  3.299295E-08  1.557166E-08
        32  19 -1.000061E+06 -1.556343E+05 -1.801768E+04 -3.849817E+05  1.030956E+04  2.979838E+03
        32  20 -9.868767E+05 -1.450624E+05 -7.543563E+03 -3.789102E+05  5.968634E+03  2.350287E+03
        32  21 -9.713550E+05 -1.409602E+05 -7.605131E+02 -3.767260E+05  1.597890E+03  1.799513E+03
        32  22 -9.871919E+05 -1.499416E+05 -1.488607E+04 -3.804817E+05  1.119096E+04  3.310331E+03
        32  23 -9.881727E+05 -1.453327E+05 -7.782930E+03 -3.790554E+05  6.933119E+03  2.711917E+03
        32  24 -9.867998E+05 -1.471772E+05 -4.304888E+03 -3.815167E+05  2.645614E+03  2.192343E+03
        32  25 -9.743228E+05 -1.442487E+05 -1.175443E+04 -3.759816E+05  1.207240E+04  3.640838E+03
        32  26 -9.894686E+05 -1.456030E+05 -8.022292E+03 -3.792007E+05  7.897599E+03  3.073547E+03
        32  27 -1.002244E+06 -1.533941E+05 -7.849197E+03 -3.863071E+05  3.693291E+03  2.585153E+03
        33   1 -9.597029E+05 -1.373441E+05  2.908459E+03 -3.738663E+05 -7.971540E+02 -2.155481E+03
        33   2 -9.468595E+05 -1.299131E+05  7.649786E+03 -3.676632E+05  4.706857E+02 -2.790572E+03
        33   3 -9.303550E+05 -1.264510E+05  1.168506E+04 -3.658532E+05  1.739388E+03 -3.427729E+03
        33   4 -9.866146E+05 -1.473740E+05 -3.261787E+03 -3.813483E+05 -1.822868E+03 -2.540068E+03
        33   5 -9.884383E+05 -1.453415E+05 -1.804524E+03 -3.791697E+05 -5.572804E+02 -3.176038E+03
        33   6 -9.866005E+05 -1.472774E+05 -1.051470E+03 -3.813843E+05  7.091536E+02 -3.814083E+03
        33   7 -1.013526E+06 -1.574039E+05 -9.432135E+03 -3.888300E+05 -2.848542E+03 -2.924639E+03
        33   8 -1.030016E+06 -1.607699E+05 -1.125910E+04 -3.906756E+05 -1.585186E+03 -3.561481E+03
        33   9 -1.042844E+06 -1.681039E+05 -1.378851E+04 -3.969143E+05 -3.209999E+02 -4.200406E+03
        33  10 -9.597029E+05 -1.373441E+05  2.908449E+03 -3.738663E+05 -6.998553E-09 -2.746185E-09
        33  11 -9.468595E+05 -1.299131E+05  7.649771E+03 -3.676632E+05 -6.236718E-10 -1.606380E-09
        33  12 -9.303550E+05 -1.264510E+05  1.168503E+04 -3.658532E+05 -1.183574E-10 -1.529146E-09
        33  13 -9.866146E+05 -1.473740E+05 -3.261805E+03 -3.813483E+05 -1.999345E-09 -1.153555E-09
        33  14 -9.884383E+05 -1.453415E+05 -1.804544E+03 -3.791697E+05  2.974598E-10 -1.132669E-09
        33  15 -9.866005E+05 -1.472774E+05 -1.051498E+03 -3.813843E+05 -5.872500E-10 -7.285478E-10
        33  16 -1.013526E+06 -1.574039E+05 -9.432166E+03 -3.888300E+05  3.508637E-09  7.563881E-10
        33  17 -1.030016E+06 -1.607699E+05 -1.125913E+04 -3.906756E+05  5.706176E-09 -6.268779E-10
        33  18 -1.042844E+06 -1.681039E+05 -1.378854E+04 -3.969143E+05  7.862816E-10  3.491223E-10
        33  19 -9.597029E+05 -1.373441E+05  2.908459E+03 -3.738663E+05  7.971540E+02  2.155481E+03
        33  20 -9.468595E+05 -1.299131E+05  7.649786E+03 -3.676632E+05 -4.706857E+02  2.790572E+03
        33  21 -9.303550E+05 -1.264510E+05  1.168506E+04 -3.658532E+05 -1.739388E+03  3.427729E+03
        33  22 -9.866146E+05 -1.473740E+05 -3.261787E+03 -3.813483E+05  1.822868E+03  2.540068E+03
        33  23 -9.884383E+05 -1.453415E+05 -1.804524E+03 -3.791697E+05  5.572804E+02  3.176038E+03
        33  24 -9.866005E+05 -1.472774E+05 -1.051470E+03 -3.813843E+05 -7.091536E+02  3.814083E+03
        33  25 -1.013526E+06 -1.574039E+05 -9.432135E+03 -3.888300E+05  2.848542E+03  2.924639E+03
        33  26 -1.030016E+06 -1.607699E+05 -1.125910E+04 -3.906756E+05  1.585186E+03  3.561481E+03
        33  27 -1.042844E+06 -1.681039E+05 -1.378851E+04 -3.969143E+05  3.209999E+02  4.200406E+03
        34   1 -9.192437E+05 -1.223599E+05  1.451290E+04 -3.628145E+05  2.105762E+03 -3.938003E+03
        34   2 -9.065428E+05 -1.150878E+05  1.801247E+04 -3.566303E+05  2.765721E+03 -4.800180E+03
        34   3 -8.900788E+05 -1.116330E+05  2.129050E+04 -3.548161E+05  3.424960E+03 -5.660182E+03
        34   4 -9.865838E+05 -1.472783E+05 -8.363398E+02 -3.813666E+05  1.078472E+03 -4.323279E+03
        34   5 -9.884654E+05 -1.453703E+05 -5.973687E+02 -3.791814E+05  1.740666E+03 -5.184665E+03
        34   6 -9.865845E+05 -1.472798E+05 -5.816447E+02 -3.813663E+05  2.402137E+03 -6.043882E+03
        34   7 -1.053918E+06 -1.721960E+05 -1.618554E+04 -3.999164E+05  5.132101E+01 -4.708502E+03
        34   8 -1.070380E+06 -1.756519E+05 -1.920741E+04 -4.017296E+05  7.157688E+02 -5.569091E+03
        34   9 -1.083081E+06 -1.829258E+05 -2.245432E+04 -4.079126E+05  1.379489E+03 -6.427516E+03
        34  10 -9.192437E+05 -1.223599E+05  1.451287E+04 -3.628145E+05  5.016326E-10 -1.352426E-09
        34  11 -9.065428E+05 -1.150878E+05  1.801241E+04 -3.566303E+05 -5.460665E-10 -5.219922E-10
        34  12 -8.900788E+05 -1.116330E+05  2.129042E+04 -3.548161E+05 -1.883599E-09  2.432256E-10
        34  13 -9.865838E+05 -1.472783E+05 -8.363771E+02 -3.813666E+05 -1.016774E-09 -2.643258E-10
        34  14 -9.884654E+05 -1.453703E+05 -5.974249E+02 -3.791814E+05 -3.337975E-10 -1.503003E-11
        34  15 -9.865845E+05 -1.472798E+05 -5.817241E+02 -3.813662E+05  9.001321E-10 -1.554566E-10
        34  16 -1.053918E+06 -1.721960E+05 -1.618559E+04 -3.999164E+05 -1.080459E-09  7.387439E-10
        34  17 -1.070380E+06 -1.756519E+05 -1.920747E+04 -4.017296E+05 -1.063599E-09  1.864108E-10
        34  18 -1.083081E+06 -1.829258E+05 -2.245440E+04 -4.079126E+05  4.663103E-10 -7.419257E-10
        34  19 -9.192437E+05 -1.223599E+05  1.451290E+04 -3.628145E+05 -2.105762E+03  3.938003E+03
        34  20 -9.065428E+05 -1.150878E+05  1.801247E+04 -3.566303E+05 -2.765721E+03  4.800180E+03
        34  21 -8.900788E+05 -1.116330E+05  2.129050E+04 -3.548161E+05 -3.424960E+03  5.660182E+03
        34  22 -9.865838E+05 -1.472783E+05 -8.363398E+02 -3.813666E+05 -1.078472E+03  4.323279E+03
        34  23 -9.884654E+05 -1.453703E+05 -5.973687E+02 -3.791814E+05 -1.740666E+03  5.184665E+03
        34  24 -9.865845E+05 -1.472798E+05 -5.816447E+02 -3.813663E+05 -2.402137E+03  6.043882E+03
        34  25 -1.053918E+06 -1.721960E+05 -1.618554E+04 -3.999164E+05 -5.132101E+01  4.708502E+03
        34  26 -1.070380E+06 -1.756519E+05 -1.920741E+04 -4.017296E+05 -7.157688E+02  5.569091E+03
        34  27 -1.083081E+06 -1.829258E+05 -2.245432E+04 -4.079126E+05 -1.379489E+03  6.427516E+03
        35   1 -8.790789E+05 -1.075438E+05  2.382179E+04 -3.517888E+05  3.735862E+03 -6.186436E+03
        35   2 -8.664803E+05 -1.003393E+05  2.673017E+04 -3.456674E+05  4.575032E+03 -6.971826E+03
        35   3 -8.501779E+05 -9.692442E+04  2.928070E+04 -3.438789E+05  5.412638E+03 -7.752563E+03
        35   4 -9.865980E+05 -1.472728E+05 -6.478447E+02 -3.813586E+05  2.716031E+03 -6.569056E+03
        35   5 -9.884498E+05 -1.453762E+05 -9.684904E+02 -3.791928E+05  3.559962E+03 -7.352745E+03
        35   6 -9.865992E+05 -1.472705E+05 -1.650872E+03 -3.813601E+05  4.402315E+03 -8.131783E+03
        35   7 -1.094106E+06 -1.870010E+05 -2.511842E+04 -4.109239E+05  1.696385E+03 -6.951607E+03
        35   8 -1.110405E+06 -1.904121E+05 -2.866822E+04 -4.127122E+05  2.545105E+03 -7.733584E+03
        35   9 -1.123002E+06 -1.976151E+05 -3.258367E+04 -4.188338E+05  3.392232E+03 -8.510913E+03
        35  10 -8.790789E+05 -1.075439E+05  2.382169E+04 -3.517887E+05 -2.409049E-09  7.456371E-11
        35  11 -8.664803E+05 -1.003394E+05  2.673004E+04 -3.456674E+05  3.762350E-09  1.140639E-09
        35  12 -8.501779E+05 -9.692449E+04  2.928054E+04 -3.438789E+05  3.397086E-09  6.579424E-10
        35  13 -9.865980E+05 -1.472728E+05 -6.479396E+02 -3.813586E+05  8.859142E-10  2.391446E-10
        35  14 -9.884498E+05 -1.453763E+05 -9.686158E+02 -3.791928E+05  2.541266E-09  1.304715E-09
        35  15 -9.865992E+05 -1.472705E+05 -1.651033E+03 -3.813601E+05  6.598583E-09  5.883057E-10
        35  16 -1.094106E+06 -1.870011E+05 -2.511852E+04 -4.109239E+05  4.357015E-09  4.134845E-10
        35  17 -1.110405E+06 -1.904122E+05 -2.866835E+04 -4.127122E+05  3.304463E-09  1.175176E-09
        35  18 -1.123002E+06 -1.976152E+05 -3.258382E+04 -4.188338E+05  2.796157E-09  5.029899E-10
        35  19 -8.790789E+05 -1.075438E+05  2.382179E+04 -3.517888E+05 -3.735862E+03  6.186436E+03
        35  20 -8.664803E+05 -1.003393E+05  2.673017E+04 -3.456674E+05 -4.575032E+03  6.971826E+03
        35  21 -8.501779E+05 -9.692442E+04  2.928070E+04 -3.438789E+05 -5.412638E+03  7.752563E+03
        35  22 -9.865980E+05 -1.472728E+05 -6.478447E+02 -3.813586E+05 -2.716031E+03  6.569056E+03
        35  23 -9.884498E+05 -1.453762E+05 -9.684904E+02 -3.791928E+05 -3.559962E+03  7.352745E+03
        35  24 -9.865992E+05 -1.472705E+05 -1.650872E+03 -3.813601E+05 -4.402315E+03  8.131783E+03
        35  25 -1.094106E+06 -1.870010E+05 -2.511842E+04 -4.109239E+05 -1.696385E+03  6.951607E+03
        35  26 -1.110405E+06 -1.904121E+05 -2.866822E+04 -4.127122E+05 -2.545105E+03  7.733584E+03
        35  27 -1.123002E+06 -1.976151E+05 -3.258367E+04 -4.188338E+05 -3.392232E+03  8.510913E+03
        36   1 -8.393271E+05 -9.290173E+04  3.132414E+04 -3.409480E+05  5.938887E+03 -8.191712E+03
        36   2 -8.267697E+05 -8.575415E+04  3.278989E+04 -3.348637E+05  8.217151E+03 -8.417273E+03
        36   3 -8.108417E+05 -8.263402E+04  3.275201E+04 -3.330542E+05  1.048762E+04 -8.621418E+03
        36   4 -9.866644E+05 -1.472487E+05 -2.173218E+03 -3.813759E+05  4.928326E+03 -8.571078E+03
        36   5 -9.883639E+05 -1.453422E+05 -3.897189E+03 -3.791979E+05  7.228615E+03 -8.788478E+03
        36   6 -9.866975E+05 -1.474675E+05 -7.142533E+03 -3.812948E+05  9.521077E+03 -8.984476E+03
        36   7 -1.133979E+06 -2.015938E+05 -3.567174E+04 -4.217948E+05  3.918032E+03 -8.950344E+03
        36   8 -1.149932E+06 -2.049283E+05 -4.058597E+04 -4.235216E+05  6.240359E+03 -9.159579E+03
        36   9 -1.162523E+06 -2.122991E+05 -4.703939E+04 -4.295232E+05  8.554822E+03 -9.347425E+03
        36  10 -8.393271E+05 -9.290181E+04  3.132394E+04 -3.409479E+05  4.005610E-09 -5.027159E-10
        36  11 -8.267698E+05 -8.575424E+04  3.278963E+04 -3.348636E+05 -1.837162E-09 -1.225760E-09
        36  12 -8.108418E+05 -8.263413E+04  3.275167E+04 -3.330542E+05  8.383439E-10 -6.457052E-10
        36  13 -9.866644E+05 -1.472488E+05 -2.173402E+03 -3.813758E+05  3.375792E-09 -3.633726E-10
        36  14 -9.883639E+05 -1.453423E+05 -3.897433E+03 -3.791978E+05 -1.227723E-09 -1.133591E-09
        36  15 -9.866976E+05 -1.474676E+05 -7.142855E+03 -3.812947E+05  5.919252E-10 -7.712829E-10
        36  16 -1.133979E+06 -2.015939E+05 -3.567192E+04 -4.217947E+05  1.638074E-10 -2.187528E-10
        36  17 -1.149932E+06 -2.049284E+05 -4.058620E+04 -4.235215E+05 -3.215346E-09 -9.462510E-10
        36  18 -1.162523E+06 -2.122992E+05 -4.703969E+04 -4.295231E+05 -1.540756E-09 -9.927932E-10
        36  19 -8.393271E+05 -9.290173E+04  3.132414E+04 -3.409480E+05 -5.938887E+03  8.191712E+03
        36  20 -8.267697E+05 -8.575415E+04  3.278989E+04 -3.348637E+05 -8.217151E+03  8.417273E+03
        36  21 -8.108417E+05 -8.263402E+04  3.275201E+04 -3.330542E+05 -1.048762E+04  8.621418E+03
        36  22 -9.866644E+05 -1.472487E+05 -2.173218E+03 -3.813759E+05 -4.928326E+03  8.571078E+03
        36  23 -9.883639E+05 -1.453422E+05 -3.897189E+03 -3.791979E+05 -7.228615E+03  8.788478E+03
        36  24 -9.866975E+05 -1.474675E+05 -7.142533E+03 -3.812948E+05 -9.521077E+03  8.984476E+03
        36  25 -1.133979E+06 -2.015938E+05 -3.567174E+04 -4.217948E+05 -3.918032E+03  8.950344E+03
        36  26 -1.149932E+06 -2.049283E+05 -4.058597E+04 -4.235216E+05 -6.240359E+03  9.159579E+03
        36  27 -1.162523E+06 -2.122991E+05 -4.703939E+04 -4.295232E+05 -8.554822E+03  9.347425E+03
        37   1 -7.998406E+05 -7.891008E+04  3.295661E+04 -3.312627E+05  1.212047E+04 -8.659424E+03
        37   2 -7.876806E+05 -7.090237E+04  2.848926E+04 -3.234037E+05  2.071314E+04 -6.373972E+03
        37   3 -7.750454E+05 -7.224124E+04  1.633624E+04 -3.186056E+05  2.917536E+04 -3.740358E+03
        37   4 -9.871247E+05 -1.470163E+05 -9.450926E+03 -3.816444E+05  1.106623E+04 -9.055455E+03
        37   5 -9.877598E+05 -1.453523E+05 -1.712828E+04 -3.789724E+05  2.002339E+04 -6.633326E+03
        37   6 -9.879932E+05 -1.531088E+05 -3.278236E+04 -3.793615E+05  2.884988E+04 -3.863112E+03
        37   7 -1.174373E+06 -2.151201E+05 -5.186072E+04 -4.320123E+05  1.001233E+04 -9.451362E+03
        37   8 -1.187798E+06 -2.197989E+05 -6.274827E+04 -4.345244E+05  1.933389E+04 -6.892589E+03
        37   9 -1.200894E+06 -2.339717E+05 -8.190364E+04 -4.400977E+05  2.852451E+04 -3.985818E+03
        37  10 -7.998408E+05 -7.891020E+04  3.295619E+04 -3.312626E+05  5.998200E-09  1.357948E-10
        37  11 -7.876811E+05 -7.090253E+04  2.848838E+04 -3.234036E+05  4.348468E-09 -9.243142E-10
        37  12 -7.750463E+05 -7.224149E+04  1.633461E+04 -3.186055E+05  3.164853E-09  1.022893E-09
        37  13 -9.871248E+05 -1.470164E+05 -9.451311E+03 -3.816443E+05 -4.739600E-10 -1.254592E-09
        37  14 -9.877603E+05 -1.453525E+05 -1.712911E+04 -3.789723E+05  2.893439E-09 -1.639027E-09
        37  15 -9.879941E+05 -1.531090E+05 -3.278395E+04 -3.793614E+05 -9.515980E-10 -2.796970E-10
        37  16 -1.174374E+06 -2.151203E+05 -5.186108E+04 -4.320122E+05 -3.135602E-09 -2.403590E-09
        37  17 -1.187799E+06 -2.197990E+05 -6.274906E+04 -4.345243E+05 -2.203827E-09 -2.598426E-09
        37  18 -1.200895E+06 -2.339719E+05 -8.190521E+04 -4.400976E+05 -3.614365E-09 -1.557933E-09
        37  19 -7.998406E+05 -7.891008E+04  3.295661E+04 -3.312627E+05 -1.212047E+04  8.659424E+03
        37  20 -7.876806E+05 -7.090237E+04  2.848926E+04 -3.234037E+05 -2.071314E+04  6.373972E+03
        37  21 -7.750454E+05 -7.224124E+04  1.633624E+04 -3.186056E+05 -2.917536E+04  3.740358E+03
        37  22 -9.871247E+05 -1.470163E+05 -9.450926E+03 -3.816444E+05 -1.106623E+04  9.055455E+03
        37  23 -9.877598E+05 -1.453523E+05 -1.712828E+04 -3.789724E+05 -2.002339E+04  6.633326E+03
        37  24 -9.879932E+05 -1.531088E+05 -3.278236E+04 -3.793615E+05 -2.884988E+04  3.863112E+03
        37  25 -1.174373E+06 -2.151201E+05 -5.186072E+04 -4.320123E+05 -1.001233E+04  9.451362E+03
        37  26 -1.187798E+06 -2.197989E+05 -6.274827E+04 -4.345244E+05 -1.933389E+04  6.892589E+03
        37  27 -1.200894E+06 -2.339717E+05 -8.190364E+04 -4.400977E+05 -2.852451E+04  3.985818E+03
        38   1 -7.553330E+05 -7.266772E+04  9.357706E+03 -3.386082E+05  3.661372E+04 -2.090578E+03
        38   2 -7.599644E+05 -4.320424E+04 -1.978058E+04 -2.873207E+05  6.887858E+04  1.167392E+04
        38   3 -8.087573E+05 -1.319878E+05 -1.048098E+05 -2.102918E+05  9.845037E+04  3.261262E+04
        38   4 -9.933516E+05 -1.431062E+05 -4.193786E+04 -3.859238E+05  3.434228E+04 -2.942954E+03
        38   5 -9.799634E+05 -1.499453E+05 -7.581461E+04 -3.737475E+05  7.415815E+04  1.365335E+04
        38   6 -1.012257E+06 -2.765644E+05 -1.715870E+05 -3.358246E+05  1.112808E+05  3.741965E+04
        38   7 -1.231315E+06 -2.135452E+05 -9.323693E+04 -4.332253E+05  3.207178E+04 -3.795143E+03
        38   8 -1.199912E+06 -2.566720E+05 -1.318523E+05 -4.601431E+05  7.943570E+04  1.563148E+04
        38   9 -1.215703E+06 -4.210946E+05 -2.383660E+05 -4.613093E+05  1.241066E+05  4.222142E+04
        38  10 -7.553344E+05 -7.266808E+04  9.355176E+03 -3.386082E+05  4.123253E-08  1.719594E-08
        38  11 -7.599696E+05 -4.320566E+04 -1.978976E+04 -2.873213E+05  6.552627E-09  4.782314E-09
        38  12 -8.087680E+05 -1.319915E+05 -1.048300E+05 -2.102944E+05 -3.308724E-08 -1.121162E-08
        38  13 -9.933528E+05 -1.431065E+05 -4.194010E+04 -3.859237E+05  1.705223E-09  2.019123E-09
        38  14 -9.799694E+05 -1.499470E+05 -7.582532E+04 -3.737483E+05  2.916063E-09  4.649440E-09
        38  15 -1.012271E+06 -2.765692E+05 -1.716129E+05 -3.358279E+05  1.411001E-09  1.404245E-09
        38  16 -1.231316E+06 -2.135455E+05 -9.323889E+04 -4.332252E+05 -3.996306E-08 -1.313402E-08
        38  17 -1.199919E+06 -2.566740E+05 -1.318647E+05 -4.601441E+05  7.871535E-10  3.186134E-09
        38  18 -1.215720E+06 -4.211007E+05 -2.383983E+05 -4.613136E+05  3.478850E-08  1.409898E-08
        38  19 -7.553330E+05 -7.266772E+04  9.357706E+03 -3.386082E+05 -3.661372E+04  2.090578E+03
        38  20 -7.599644E+05 -4.320424E+04 -1.978058E+04 -2.873207E+05 -6.887858E+04 -1.167392E+04
        38  21 -8.087573E+05 -1.319878E+05 -1.048098E+05 -2.102918E+05 -9.845037E+04 -3.261262E+04
        38  22 -9.933516E+05 -1.431062E+05 -4.193786E+04 -3.859238E+05 -3.434228E+04  2.942954E+03
        38  23 -9.799634E+05 -1.499453E+05 -7.581461E+04 -3.737475E+05 -7.415815E+04 -1.365335E+04
        38  24 -1.012257E+06 -2.765644E+05 -1.715870E+05 -3.358246E+05 -1.112808E+05 -3.741965E+04
        38  25 -1.231315E+06 -2.135452E+05 -9.323693E+04 -4.332253E+05 -3.207178E+04  3.795143E+03
        38  26 -1.199912E+06 -2.566720E+05 -1.318523E+05 -4.601431E+05 -7.943570E+04 -1.563148E+04
        38  27 -1.215703E+06 -4.210946E+05 -2.383660E+05 -4.613093E+05 -1.241066E+05 -4.222142E+04
        39   1 -8.015899E+04  3.133134E+04  3.667939E+04  1.667750E+04  2.531126E+04  6.800257E-01
        39   2 -8.399122E+04  2.144528E+03  1.705300E+04  6.345261E+03  1.635525E+04  1.671816E-01
        39   3 -8.016067E+04 -1.058118E+03  9.754260E+03 -3.986878E+03  7.399221E+03 -4.752235E-02
        39   4 -8.015929E+04  3.133082E+04  3.667932E+04  5.627065E-09  2.531126E+04  3.274263E-11
        39   5 -8.399127E+04  2.144452E+03  1.705298E+04  1.347208E-09  1.635525E+04  3.403594E-11
        39   6 -8.016069E+04 -1.058148E+03  9.754255E+03  5.949488E-09  7.399221E+03 -3.260928E-10
        39   7 -8.015899E+04  3.133134E+04  3.667939E+04 -1.667750E+04  2.531126E+04 -6.800257E-01
        39   8 -8.399122E+04  2.144528E+03  1.705300E+04 -6.345261E+03  1.635525E+04 -1.671816E-01
        39   9 -8.016067E+04 -1.058118E+03  9.754260E+03  3.986878E+03  7.399221E+03  4.752235E-02
        39  10 -8.015968E+04  3.133117E+04  3.667819E+04  1.667750E+04  1.213161E-09 -6.608945E-11
        39  11 -8.399151E+04  2.144456E+03  1.705249E+04  6.345261E+03  5.460787E-10 -1.421963E-10
        39  12 -8.016073E+04 -1.058133E+03  9.754157E+03 -3.986878E+03 -4.984036E-10 -1.053195E-11
        39  13 -8.015998E+04  3.133065E+04  3.667812E+04  2.436702E-09 -1.081164E-09  4.079858E-11
        39  14 -8.399155E+04  2.144380E+03  1.705248E+04  2.797403E-10  4.340829E-11  1.212027E-10
        39  15 -8.016075E+04 -1.058163E+03  9.754153E+03  1.891005E-09 -1.221964E-09  1.025085E-10
        39  16 -8.015968E+04  3.133117E+04  3.667819E+04 -1.667750E+04  3.991180E-10  1.394163E-10
        39  17 -8.399151E+04  2.144456E+03  1.705249E+04 -6.345261E+03  1.375347E-09  3.827127E-10
        39  18 -8.016073E+04 -1.058133E+03  9.754157E+03  3.986878E+03  8.448107E-10  2.120396E-10
        39  19 -8.015899E+04  3.133134E+04  3.667939E+04  1.667750E+04 -2.531126E+04 -6.800257E-01
        39  20 -8.399122E+04  2.144528E+03  1.705300E+04  6.345261E+03 -1.635525E+04 -1.671816E-01
        39  21 -8.016067E+04 -1.058118E+03  9.754260E+03 -3.986878E+03 -7.399221E+03  4.752235E-02
        39  22 -8.015929E+04  3.133082E+04  3.667932E+04  3.550986E-09 -2.531126E+04  4.601583E-11
        39  23 -8.399127E+04  2.144452E+03  1.705298E+04  1.365609E-09 -1.635525E+04  2.131604E-10
        39  24 -8.016069E+04 -1.058148E+03  9.754255E+03  9.947501E-09 -7.399221E+03  5.330535E-10
        39  25 -8.015899E+04  3.133134E+04  3.667939E+04 -1.667750E+04 -2.531126E+04  6.800257E-01
        39  26 -8.399122E+04  2.144528E+03  1.705300E+04 -6.345261E+03 -1.635525E+04  1.671816E-01
        39  27 -8.016067E+04 -1.058118E+03  9.754260E+03  3.986878E+03 -7.399221E+03 -4.752235E-02
        40   1 -8.173643E+04  1.307294E+03  7.644504E+03  4.285889E+02  6.066003E+03  4.188162E-03
        40   2 -8.202201E+04  2.090548E+01  4.193365E+03  7.809568E+01  3.970558E+03  4.995264E-04
        40   3 -8.173659E+04 -7.300168E+01  2.404693E+03 -2.723928E+02  1.875150E+03 -8.228333E-04
        40   4 -8.173643E+04  1.307294E+03  7.644504E+03  3.285269E-09  6.066003E+03 -9.086185E-11
        40   5 -8.202201E+04  2.090547E+01  4.193365E+03  2.562570E-09  3.970558E+03  3.422616E-10
        40   6 -8.173659E+04 -7.300182E+01  2.404693E+03  1.166124E-09  1.875150E+03 -5.523436E-10
        40   7 -8.173643E+04  1.307294E+03  7.644504E+03 -4.285889E+02  6.066003E+03 -4.188162E-03
        40   8 -8.202201E+04  2.090548E+01  4.193365E+03 -7.809568E+01  3.970558E+03 -4.995257E-04
        40   9 -8.173659E+04 -7.300168E+01  2.404693E+03  2.723928E+02  1.875150E+03  8.228322E-04
        40  10 -8.173647E+04  1.307284E+03  7.644435E+03  4.285889E+02 -1.694282E-09 -1.386324E-11
        40  11 -8.202203E+04  2.090125E+01  4.193335E+03  7.809568E+01 -4.678561E-11 -2.386811E-10
        40  12 -8.173659E+04 -7.300263E+01  2.404686E+03 -2.723928E+02  6.471204E-10 -3.306779E-10
        40  13 -8.173647E+04  1.307284E+03  7.644435E+03  3.389646E-09 -1.081151E-09  2.021416E-10
        40  14 -8.202203E+04  2.090123E+01  4.193335E+03 -1.279012E-09 -1.076942E-09  2.525860E-10
        40  15 -8.173659E+04 -7.300277E+01  2.404686E+03 -4.869950E-09  4.183636E-10 -2.697233E-10
        40  16 -8.173647E+04  1.307284E+03  7.644435E+03 -4.285889E+02  6.014367E-10  4.160433E-10
        40  17 -8.202203E+04  2.090125E+01  4.193335E+03 -7.809568E+01 -4.836727E-10  7.422601E-10
        40  18 -8.173659E+04 -7.300263E+01  2.404686E+03  2.723928E+02 -8.162029E-10 -2.008646E-10
        40  19 -8.173643E+04  1.307294E+03  7.644504E+03  4.285889E+02 -6.066003E+03 -4.188162E-03
        40  20 -8.202201E+04  2.090548E+01  4.193365E+03  7.809568E+01 -3.970558E+03 -4.995269E-04
        40  21 -8.173659E+04 -7.300168E+01  2.404693E+03 -2.723928E+02 -1.875150E+03  8.228326E-04
        40  22 -8.173643E+04  1.307294E+03  7.644504E+03  9.956955E-09 -6.066003E+03  4.940701E-10
        40  23 -8.202201E+04  2.090547E+01  4.193365E+03  1.341948E-09 -3.970558E+03  1.625500E-10
        40  24 -8.173659E+04 -7.300182E+01  2.404693E+03 -6.753801E-10 -1.875150E+03  1.489973E-11
        40  25 -8.173643E+04  1.307294E+03  7.644504E+03 -4.285889E+02 -6.066003E+03  4.188163E-03
        40  26 -8.202201E+04  2.090548E+01  4.193365E+03 -7.809568E+01 -3.970558E+03  4.995272E-04
        40  27 -8.173659E+04 -7.300168E+01  2.404693E+03  2.723928E+02 -1.875150E+03 -8.228326E-04
        41   1 -8.184547E+04  3.070151E+01  1.831401E+03 -6.247538E+01  1.501307E+03 -1.510981E-04
        41   2 -8.188601E+04 -1.795013E+01  1.035313E+03 -4.906336E+01  9.888391E+02 -7.815518E-05
        41   3 -8.184549E+04 -9.331515E+00  5.872217E+02 -3.565113E+01  4.763635E+02 -2.735878E-05
        41   4 -8.184547E+04  3.070150E+01  1.831401E+03  9.801526E-09  1.501307E+03 -3.619585E-10
        41   5 -8.188601E+04 -1.795013E+01  1.035313E+03  2.981774E-09  9.888391E+02  7.824821E-10
        41   6 -8.184549E+04 -9.331517E+00  5.872217E+02  2.490081E-09  4.763635E+02 -6.563655E-11
        41   7 -8.184547E+04  3.070151E+01  1.831401E+03  6.247538E+01  1.501307E+03  1.510973E-04
        41   8 -8.188601E+04 -1.795013E+01  1.035313E+03  4.906336E+01  9.888391E+02  7.815672E-05
        41   9 -8.184549E+04 -9.331515E+00  5.872217E+02  3.565113E+01  4.763635E+02  2.735865E-05
        41  10 -8.184547E+04  3.070090E+01  1.831397E+03 -6.247538E+01 -2.085234E-09  2.838209E-10
        41  11 -8.188601E+04 -1.795039E+01  1.035311E+03 -4.906336E+01  9.652653E-10  9.965610E-10
        41  12 -8.184550E+04 -9.331576E+00  5.872213E+02 -3.565113E+01  2.908264E-10 -5.000088E-10
        41  13 -8.184547E+04  3.070089E+01  1.831397E+03  3.869016E-09 -5.258320E-12  5.668247E-11
        41  14 -8.188601E+04 -1.795040E+01  1.035311E+03 -2.949204E-10 -1.090722E-09  8.471282E-10
        41  15 -8.184550E+04 -9.331578E+00  5.872213E+02  2.003034E-09  1.067419E-09 -2.474537E-10
        41  16 -8.184547E+04  3.070090E+01  1.831397E+03  6.247538E+01  1.534033E-09 -1.694749E-10
        41  17 -8.188601E+04 -1.795039E+01  1.035311E+03  4.906336E+01 -1.655034E-10  7.050511E-10
        41  18 -8.184550E+04 -9.331576E+00  5.872213E+02  3.565113E+01 -2.139866E-09  1.181442E-11
        41  19 -8.184547E+04  3.070151E+01  1.831401E+03 -6.247538E+01 -1.501307E+03  1.510986E-04
        41  20 -8.188601E+04 -1.795013E+01  1.035313E+03 -4.906336E+01 -9.888391E+02  7.815718E-05
        41  21 -8.184549E+04 -9.331515E+00  5.872217E+02 -3.565113E+01 -4.763635E+02  2.735778E-05
        41  22 -8.184547E+04  3.070150E+01  1.831401E+03  6.551746E-09 -1.501307E+03  4.754082E-10
        41  23 -8.188601E+04 -1.795013E+01  1.035313E+03 -1.418264E-09 -9.888391E+02  9.159278E-10
        41  24 -8.184549E+04 -9.331517E+00  5.872217E+02  8.649784E-09 -4.763635E+02 -4.284125E-10
        41  25 -8.184547E+04  3.070151E+01  1.831401E+03  6.247538E+01 -1.501307E+03 -1.510977E-04
        41  26 -8.188601E+04 -1.795013E+01  1.035313E+03  4.906336E+01 -9.888391E+02 -7.815534E-05
        41  27 -8.184549E+04 -9.331515E+00  5.872217E+02  3.565113E+01 -4.763635E+02 -2.735864E-05
        42   1 -8.185998E+04 -5.565889E+00  4.391671E+02 -2.384569E+01  3.835677E+02 -1.473509E-05
        42   2 -8.186792E+04 -5.003737E+00  2.340893E+02 -1.672532E+01  2.678944E+02 -7.217883E-06
        42   3 -8.185999E+04 -1.192081E+00  1.051398E+02 -9.604963E+00  1.522211E+02 -2.355147E-06
        42   4 -8.185998E+04 -5.565890E+00  4.391671E+02  7.268928E-09  3.835677E+02 -5.947742E-10
        42   5 -8.186792E+04 -5.003738E+00  2.340893E+02  3.470566E-09  2.678944E+02 -1.472254E-10
        42   6 -8.185999E+04 -1.192081E+00  1.051398E+02  7.077735E-09  1.522211E+02  5.061245E-10
        42   7 -8.185998E+04 -5.565889E+00  4.391671E+02  2.384569E+01  3.835677E+02  1.473391E-05
        42   8 -8.186792E+04 -5.003737E+00  2.340893E+02  1.672532E+01  2.678944E+02  7.217581E-06
        42   9 -8.185999E+04 -1.192081E+00  1.051398E+02  9.604963E+00  1.522211E+02  2.356143E-06
        42  10 -8.185998E+04 -5.565929E+00  4.391668E+02 -2.384569E+01 -1.681185E-09 -9.556440E-10
        42  11 -8.186792E+04 -5.003756E+00  2.340891E+02 -1.672532E+01  6.772903E-10 -1.778193E-10
        42  12 -8.185999E+04 -1.192087E+00  1.051397E+02 -9.604963E+00 -3.024725E-11 -3.523155E-10
        42  13 -8.185998E+04 -5.565930E+00  4.391668E+02  8.445906E-09  2.960427E-11 -8.265089E-10
        42  14 -8.186792E+04 -5.003757E+00  2.340891E+02  5.207047E-09 -1.091741E-09 -4.635650E-10
        42  15 -8.185999E+04 -1.192088E+00  1.051397E+02  8.920378E-10 -5.490648E-10 -2.928828E-11
        42  16 -8.185998E+04 -5.565929E+00  4.391668E+02  2.384569E+01  1.124193E-09 -6.999442E-10
        42  17 -8.186792E+04 -5.003756E+00  2.340891E+02  1.672532E+01 -1.097424E-10 -7.418769E-10
        42  18 -8.185999E+04 -1.192087E+00  1.051397E+02  9.604963E+00  1.950517E-10  2.958695E-10
        42  19 -8.185998E+04 -5.565889E+00  4.391671E+02 -2.384569E+01 -3.835677E+02  1.473319E-05
        42  20 -8.186792E+04 -5.003737E+00  2.340893E+02 -1.672532E+01 -2.678944E+02  7.217530E-06
        42  21 -8.185999E+04 -1.192081E+00  1.051398E+02 -9.604963E+00 -1.522211E+02  2.354436E-06
        42  22 -8.185998E+04 -5.565890E+00  4.391671E+02  1.177624E-08 -3.835677E+02 -1.059025E-09
        42  23 -8.186792E+04 -5.003738E+00  2.340893E+02 -2.748525E-09 -2.678944E+02 -7.777298E-10
        42  24 -8.185999E+04 -1.192081E+00  1.051398E+02  1.572876E-09 -1.522211E+02 -5.662587E-10
        42  25 -8.185998E+04 -5.565889E+00  4.391671E+02  2.384569E+01 -3.835677E+02 -1.473532E-05
        42  26 -8.186792E+04 -5.003737E+00  2.340893E+02  1.672532E+01 -2.678944E+02 -7.219083E-06
        42  27 -8.185999E+04 -1.192081E+00  1.051398E+02  9.604963E+00 -1.522211E+02 -2.355561E-06
        43   1 -8.186408E+04 -1.271114E+00  5.510770E+01 -8.916098E+00  1.376672E+02 -1.976850E-06
        43   2 -8.186281E+04  7.206235E-01 -3.582477E+01 -9.810134E+00  1.553795E+02 -2.454428E-06
        43   3 -8.186409E+04  1.750664E+00 -1.385310E+02 -1.070416E+01  1.730916E+02 -2.984492E-06
        43   4 -8.186408E+04 -1.271114E+00  5.510770E+01  5.201896E-09  1.376672E+02  9.468083E-10
        43   5 -8.186281E+04  7.206233E-01 -3.582477E+01 -6.377044E-09  1.553795E+02  1.072010E-09
        43   6 -8.186409E+04  1.750664E+00 -1.385310E+02 -6.244145E-09  1.730916E+02  2.512074E-10
        43   7 -8.186408E+04 -1.271114E+00  5.510770E+01  8.916098E+00  1.376672E+02  1.978751E-06
        43   8 -8.186281E+04  7.206235E-01 -3.582477E+01  9.810134E+00  1.553795E+02  2.456574E-06
        43   9 -8.186409E+04  1.750664E+00 -1.385310E+02  1.070416E+01  1.730916E+02  2.984996E-06
        43  10 -8.186408E+04 -1.271119E+00  5.510767E+01 -8.916098E+00  8.676408E-11 -1.910700E-10
        43  11 -8.186281E+04  7.206170E-01 -3.582482E+01 -9.810135E+00 -3.565380E-10  5.612408E-10
        43  12 -8.186409E+04  1.750656E+00 -1.385311E+02 -1.070416E+01 -7.760833E-10  4.387682E-10
        43  13 -8.186408E+04 -1.271119E+00  5.510767E+01  2.108848E-09  1.112832E-09  2.519674E-10
        43  14 -8.186281E+04  7.206168E-01 -3.582482E+01 -4.195035E-09 -5.088860E-10  5.197296E-10
        43  15 -8.186409E+04  1.750656E+00 -1.385311E+02 -5.649801E-09 -1.796503E-09  4.339007E-10
        43  16 -8.186408E+04 -1.271119E+00  5.510767E+01  8.916098E+00 -6.262851E-10  6.984808E-10
        43  17 -8.186281E+04  7.206170E-01 -3.582482E+01  9.810134E+00 -4.363744E-10  4.700779E-10
        43  18 -8.186409E+04  1.750656E+00 -1.385311E+02  1.070416E+01 -1.567710E-09  4.248912E-10
        43  19 -8.186408E+04 -1.271114E+00  5.510770E+01 -8.916098E+00 -1.376672E+02  1.976460E-06
        43  20 -8.186281E+04  7.206235E-01 -3.582477E+01 -9.810134E+00 -1.553795E+02  2.455565E-06
        43  21 -8.186409E+04  1.750664E+00 -1.385310E+02 -1.070416E+01 -1.730916E+02  2.985383E-06
        43  22 -8.186408E+04 -1.271114E+00  5.510770E+01  8.971479E-11 -1.376672E+02 -4.438291E-10
        43  23 -8.186281E+04  7.206233E-01 -3.582477E+01 -5.243841E-09 -1.553795E+02 -3.300163E-11
        43  24 -8.186409E+04  1.750664E+00 -1.385310E+02 -2.366003E-09 -1.730916E+02  6.174189E-10
        43  25 -8.186408E+04 -1.271114E+00  5.510770E+01  8.916098E+00 -1.376672E+02 -1.977356E-06
        43  26 -8.186281E+04  7.206235E-01 -3.582477E+01  9.810134E+00 -1.553795E+02 -2.455631E-06
        43  27 -8.186409E+04  1.750664E+00 -1.385310E+02  1.070416E+01 -1.730916E+02 -2.984149E-06
        44   1 -8.187030E+04  3.157818E+00 -2.034756E+02 -1.510697E+01  2.039881E+02 -4.963995E-06
        44   2 -8.185506E+04  6.643818E+00 -3.871277E+02 -1.982738E+01  3.956260E+02 -1.263534E-05
        44   3 -8.187031E+04 -1.198323E+01 -7.010832E+02 -2.454785E+01  5.872668E+02 -2.322324E-05
        44   4 -8.187030E+04  3.157817E+00 -2.034756E+02  1.443252E-09  2.039881E+02  5.279592E-10
        44   5 -8.185506E+04  6.643818E+00 -3.871277E+02 -4.908070E-09  3.956260E+02  1.649036E-09
        44   6 -8.187031E+04 -1.198323E+01 -7.010832E+02 -1.341406E-08  5.872668E+02  8.083819E-10
        44   7 -8.187030E+04  3.157818E+00 -2.034756E+02  1.510697E+01  2.039881E+02  4.965054E-06
        44   8 -8.185506E+04  6.643818E+00 -3.871277E+02  1.982738E+01  3.956260E+02  1.263863E-05
        44   9 -8.187031E+04 -1.198323E+01 -7.010832E+02  2.454785E+01  5.872668E+02  2.322485E-05
        44  10 -8.187030E+04  3.157807E+00 -2.034756E+02 -1.510697E+01 -3.158271E-09  6.679477E-10
        44  11 -8.185506E+04  6.643776E+00 -3.871280E+02 -1.982738E+01 -2.112552E-09  1.052843E-09
        44  12 -8.187031E+04 -1.198333E+01 -7.010838E+02 -2.454785E+01 -4.434394E-09 -2.565869E-10
        44  13 -8.187030E+04  3.157806E+00 -2.034756E+02 -5.634428E-09 -1.104390E-09  8.583227E-10
        44  14 -8.185506E+04  6.643776E+00 -3.871280E+02 -1.574156E-10 -3.275148E-09  1.455408E-09
        44  15 -8.187031E+04 -1.198333E+01 -7.010838E+02 -2.218712E-09 -1.062700E-09  2.317542E-10
        44  16 -8.187030E+04  3.157807E+00 -2.034756E+02  1.510697E+01  2.656746E-09  1.048857E-09
        44  17 -8.185506E+04  6.643776E+00 -3.871280E+02  1.982738E+01  1.767133E-10  1.854270E-09
        44  18 -8.187031E+04 -1.198333E+01 -7.010838E+02  2.454785E+01  4.529276E-09  7.221576E-10
        44  19 -8.187030E+04  3.157818E+00 -2.034756E+02 -1.510697E+01 -2.039881E+02  4.965347E-06
        44  20 -8.185506E+04  6.643818E+00 -3.871277E+02 -1.982738E+01 -3.956260E+02  1.263747E-05
        44  21 -8.187031E+04 -1.198323E+01 -7.010832E+02 -2.454785E+01 -5.872668E+02  2.322273E-05
        44  22 -8.187030E+04  3.157817E+00 -2.034756E+02  4.517597E-09 -2.039881E+02  1.192008E-09
        44  23 -8.185506E+04  6.643818E+00 -3.871277E+02  6.746328E-09 -3.956260E+02  1.263088E-09
        44  24 -8.187031E+04 -1.198323E+01 -7.010832E+02  2.055268E-08 -5.872668E+02 -3.447038E-10
        44  25 -8.187030E+04  3.157818E+00 -2.034756E+02  1.510697E+01 -2.039881E+02 -4.962974E-06
        44  26 -8.185506E+04  6.643818E+00 -3.871277E+02  1.982738E+01 -3.956260E+02 -1.263493E-05
        44  27 -8.187031E+04 -1.198323E+01 -7.010832E+02  2.454785E+01 -5.872668E+02 -2.322343E-05
        45   1 -8.191260E+04  2.814425E+01 -9.248924E+02 -1.057654E+02  7.307159E+02 -1.245021E-04
        45   2 -8.180222E+04 -8.163610E+00 -1.619790E+03  3.001768E+01  1.540161E+03  7.447428E-05
        45   3 -8.191265E+04 -5.060472E+02 -2.957114E+03  1.658008E+02  2.349606E+03  6.275683E-04
        45   4 -8.191260E+04  2.814423E+01 -9.248924E+02  1.199216E-07  7.307159E+02 -1.297830E-09
        45   5 -8.180222E+04 -8.163612E+00 -1.619790E+03 -7.395515E-10  1.540161E+03 -3.473770E-09
        45   6 -8.191266E+04 -5.060472E+02 -2.957114E+03 -1.220770E-07  2.349606E+03 -1.063431E-09
        45   7 -8.191260E+04  2.814425E+01 -9.248924E+02  1.057654E+02  7.307159E+02  1.244995E-04
        45   8 -8.180222E+04 -8.163610E+00 -1.619790E+03 -3.001768E+01  1.540161E+03 -7.448126E-05
        45   9 -8.191265E+04 -5.060472E+02 -2.957114E+03 -1.658008E+02  2.349606E+03 -6.275704E-04
        45  10 -8.191260E+04  2.814411E+01 -9.248934E+02 -1.057654E+02 -4.289504E-08 -2.040993E-09
        45  11 -8.180223E+04 -8.164247E+00 -1.619795E+03  3.001768E+01 -1.399944E-09 -3.440804E-09
        45  12 -8.191266E+04 -5.060486E+02 -2.957125E+03  1.658008E+02  4.040065E-08 -1.261581E-09
        45  13 -8.191260E+04  2.814409E+01 -9.248934E+02  7.200059E-10 -1.051663E-12 -1.925580E-09
        45  14 -8.180223E+04 -8.164248E+00 -1.619795E+03 -1.796242E-09 -1.630129E-09 -4.077525E-09
        45  15 -8.191266E+04 -5.060487E+02 -2.957125E+03 -1.080883E-09  1.219441E-09 -1.794201E-09
        45  16 -8.191260E+04  2.814411E+01 -9.248934E+02  1.057654E+02  4.043565E-08 -1.814477E-09
        45  17 -8.180223E+04 -8.164247E+00 -1.619795E+03 -3.001768E+01  5.922406E-10 -4.718436E-09
        45  18 -8.191266E+04 -5.060486E+02 -2.957125E+03 -1.658008E+02 -4.080266E-08 -2.329456E-09
        45  19 -8.191260E+04  2.814425E+01 -9.248924E+02 -1.057654E+02 -7.307159E+02  1.244981E-04
        45  20 -8.180222E+04 -8.163610E+00 -1.619790E+03  3.001768E+01 -1.540161E+03 -7.448119E-05
        45  21 -8.191265E+04 -5.060472E+02 -2.957114E+03  1.658008E+02 -2.349606E+03 -6.275708E-04
        45  22 -8.191260E+04  2.814423E+01 -9.248924E+02 -1.249445E-07 -7.307159E+02 -2.552438E-09
        45  23 -8.180222E+04 -8.163612E+00 -1.619790E+03 -1.237653E-09 -1.540161E+03 -4.683557E-09
        45  24 -8.191266E+04 -5.060472E+02 -2.957114E+03  1.321632E-07 -2.349606E+03 -2.526333E-09
        45  25 -8.191260E+04  2.814425E+01 -9.248924E+02  1.057654E+02 -7.307159E+02 -1.245032E-04
        45  26 -8.180222E+04 -8.163610E+00 -1.619790E+03 -3.001768E+01 -1.540161E+03  7.447182E-05
        45  27 -8.191265E+04 -5.060472E+02 -2.957114E+03 -1.658008E+02 -2.349606E+03  6.275657E-04
        46   1 -8.252261E+04  4.095760E+02 -3.774213E+03 -1.543344E+03  2.865340E+03 -7.123923E-03
        46   2 -8.103988E+04 -8.300674E+02 -6.599844E+03  2.456089E+03  6.331753E+03  2.505227E-02
        46   3 -8.252306E+04 -1.212729E+04 -1.419685E+04  6.455448E+03  9.798114E+03  1.018940E-01
        46   4 -8.252261E+04  4.095715E+02 -3.774213E+03  1.766387E-08  2.865340E+03  1.022814E-09
        46   5 -8.103989E+04 -8.300787E+02 -6.599846E+03  2.739485E-09  6.331753E+03  1.692589E-09
        46   6 -8.252310E+04 -1.212737E+04 -1.419686E+04  9.219755E-09  9.798114E+03  6.267425E-10
        46   7 -8.252261E+04  4.095760E+02 -3.774213E+03  1.543344E+03  2.865340E+03  7.123925E-03
        46   8 -8.103988E+04 -8.300674E+02 -6.599844E+03 -2.456089E+03  6.331753E+03 -2.505227E-02
        46   9 -8.252306E+04 -1.212729E+04 -1.419685E+04 -6.455448E+03  9.798114E+03 -1.018940E-01
        46  10 -8.252262E+04  4.095738E+02 -3.774228E+03 -1.543344E+03  1.757339E-09  7.201341E-10
        46  11 -8.103993E+04 -8.300782E+02 -6.599919E+03  2.456089E+03  2.042184E-09  1.720397E-09
        46  12 -8.252316E+04 -1.212731E+04 -1.419703E+04  6.455448E+03  3.726831E-09  6.877783E-10
        46  13 -8.252262E+04  4.095693E+02 -3.774229E+03  1.186468E-09  1.133386E-09  5.223779E-10
        46  14 -8.103993E+04 -8.300895E+02 -6.599921E+03 -6.379424E-09  1.615400E-09  1.815145E-09
        46  15 -8.252320E+04 -1.212739E+04 -1.419704E+04 -1.022015E-09  1.352739E-09  7.520467E-10
        46  16 -8.252262E+04  4.095738E+02 -3.774228E+03  1.543344E+03 -1.471364E-09  3.247913E-10
        46  17 -8.103993E+04 -8.300782E+02 -6.599919E+03 -2.456089E+03 -1.212658E-09  1.909486E-09
        46  18 -8.252316E+04 -1.212731E+04 -1.419703E+04 -6.455448E+03 -1.508295E-09  8.155647E-10
        46  19 -8.252261E+04  4.095760E+02 -3.774213E+03 -1.543344E+03 -2.865340E+03  7.123924E-03
        46  20 -8.103988E+04 -8.300674E+02 -6.599844E+03  2.456089E+03 -6.331753E+03 -2.505227E-02
        46  21 -8.252306E+04 -1.212729E+04 -1.419685E+04  6.455448E+03 -9.798114E+03 -1.018940E-01
        46  22 -8.252261E+04  4.095715E+02 -3.774213E+03 -7.753003E-09 -2.865340E+03  2.262586E-11
        46  23 -8.103989E+04 -8.300787E+02 -6.599846E+03 -1.226790E-08 -6.331753E+03  1.938596E-09
        46  24 -8.252310E+04 -1.212737E+04 -1.419686E+04  8.519835E-10 -9.798114E+03  8.782865E-10
        46  25 -8.252261E+04  4.095760E+02 -3.774213E+03  1.543344E+03 -2.865340E+03 -7.123924E-03
        46  26 -8.103988E+04 -8.300674E+02 -6.599844E+03 -2.456089E+03 -6.331753E+03  2.505227E-02
        46  27 -8.252306E+04 -1.212729E+04 -1.419685E+04 -6.455448E+03 -9.798114E+03  1.018940E-01
        47   1  2.843114E+05  9.854889E+05  2.881355E+05 -1.476846E+05  1.139936E+04  8.689009E+04
        47   2  1.852280E+05  8.187095E+05  1.949477E+05 -1.022669E+05  3.492232E+04  4.137575E+04
        47   3  1.408125E+05  6.716224E+05  1.450461E+05 -1.082740E+05  3.406179E+04 -4.129461E+03
        47   4  5.986832E+04  8.048515E+04  7.041599E+04 -1.154630E+05  1.141536E+04  4.653471E+04
        47   5  4.035211E+03  7.306435E+04  3.429550E+04 -8.976325E+04  3.493188E+04  2.858422E+04
        47   6 -1.873571E+03  8.055863E+04  2.236214E+04 -1.154866E+05  3.405459E+04  1.063066E+04
        47   7 -1.646296E+05 -8.237642E+05 -1.473552E+05 -8.328833E+04  1.142718E+04  6.237827E+03
        47   8 -1.771935E+05 -6.720583E+05 -1.263887E+05 -7.727470E+04  3.494093E+04  1.580781E+04
        47   9 -1.445815E+05 -5.101739E+05 -1.003400E+05 -1.226921E+05  3.404704E+04  2.537698E+04
        47  10  2.843092E+05  9.854808E+05  2.881211E+05 -1.476854E+05  7.527839E-10 -2.046484E-08
        47  11  1.852262E+05  8.187074E+05  1.949422E+05 -1.022681E+05  3.945817E-10  8.506480E-09
        47  12  1.408113E+05  6.716221E+05  1.450439E+05 -1.082739E+05 -6.220386E-10  3.655744E-08
        47  13  5.986760E+04  8.048279E+04  7.041167E+04 -1.154634E+05  2.090308E-09 -6.668676E-13
        47  14  4.033681E+03  7.306314E+04  3.429167E+04 -8.976406E+04 -2.031253E-09  1.618400E-10
        47  15 -1.874846E+03  8.055820E+04  2.235975E+04 -1.154869E+05 -1.112840E-10 -6.719528E-10
        47  16 -1.646298E+05 -8.237643E+05 -1.473555E+05 -8.328838E+04  1.014054E-09  2.041186E-08
        47  17 -1.771948E+05 -6.720589E+05 -1.263915E+05 -7.727514E+04  2.547727E-09 -8.676900E-09
        47  18 -1.445829E+05 -5.101749E+05 -1.003434E+05 -1.226928E+05  2.050953E-10 -3.659864E-08
        47  19  2.843114E+05  9.854889E+05  2.881355E+05 -1.476846E+05 -1.139936E+04 -8.689009E+04
        47  20  1.852280E+05  8.187095E+05  1.949477E+05 -1.022669E+05 -3.492232E+04 -4.137575E+04
        47  21  1.408125E+05  6.716224E+05  1.450461E+05 -1.082740E+05 -3.406179E+04  4.129461E+03
        47  22  5.986832E+04  8.048515E+04  7.041599E+04 -1.154630E+05 -1.141536E+04 -4.653471E+04
        47  23  4.035211E+03  7.306435E+04  3.429550E+04 -8.976325E+04 -3.493188E+04 -2.858422E+04
        47  24 -1.873571E+03  8.055863E+04  2.236214E+04 -1.154866E+05 -3.405459E+04 -1.063066E+04
        47  25 -1.646296E+05 -8.237642E+05 -1.473552E+05 -8.328833E+04 -1.142718E+04 -6.237827E+03
        47  26 -1.771935E+05 -6.720583E+05 -1.263887E+05 -7.727470E+04 -3.494093E+04 -1.580781E+04
        47  27 -1.445815E+05 -5.101739E+05 -1.003400E+05 -1.226921E+05 -3.404704E+04 -2.537698E+04
        48   1  1.171697E+05  5.527164E+05  1.185164E+05 -1.174242E+05  2.700907E+04 -1.410692E+03
        48   2  7.695104E+04  3.948112E+05  8.276511E+04 -8.958801E+04  1.887838E+04 -1.090391E+04
        48   3  4.189632E+04  2.393990E+05  5.446672E+04 -1.143739E+05  9.917487E+03 -2.039835E+04
        48   4  2.444840E+03  7.778254E+04  1.966219E+04 -1.157483E+05  2.700416E+04  7.302450E+03
        48   5  2.027917E+02  7.664419E+04  1.710334E+04 -8.943652E+04  1.887130E+04 -1.249946E+03
        48   6  2.964469E+03  7.781341E+04  2.134769E+04 -1.157480E+05  9.908015E+03 -9.805882E+03
        48   7 -1.122943E+05 -3.969378E+05 -7.920410E+04 -1.140737E+05  2.699930E+04  1.600904E+04
        48   8 -7.655180E+04 -2.414267E+05 -4.856355E+04 -8.928508E+04  1.886423E+04  8.399155E+03
        48   9 -3.596896E+04 -8.374716E+04 -1.177230E+04 -1.171218E+05  9.898496E+03  7.838828E+02
        48  10  1.171689E+05  5.527162E+05  1.185150E+05 -1.174242E+05 -2.263587E-09 -1.374193E-08
        48  11  7.695063E+04  3.948110E+05  8.276422E+04 -8.958785E+04 -1.372922E-09 -8.577561E-09
        48  12  4.189610E+04  2.393985E+05  5.446575E+04 -1.143737E+05 -5.904385E-10  1.307115E-09
        48  13  2.444043E+03  7.778229E+04  1.966072E+04 -1.157485E+05 -3.571345E-09 -5.729899E-13
        48  14  2.024088E+02  7.664409E+04  1.710267E+04 -8.943650E+04 -8.170394E-10  3.782079E-10
        48  15  2.964338E+03  7.781328E+04  2.134733E+04 -1.157479E+05 -2.430612E-09 -1.015205E-09
        48  16 -1.122952E+05 -3.969382E+05 -7.920596E+04 -1.140741E+05 -6.718559E-10  1.359015E-08
        48  17 -7.655221E+04 -2.414268E+05 -4.856435E+04 -8.928521E+04 -4.347805E-10  8.180673E-09
        48  18 -3.596906E+04 -8.374719E+04 -1.177248E+04 -1.171218E+05 -1.210198E-09 -1.426492E-09
        48  19  1.171697E+05  5.527164E+05  1.185164E+05 -1.174242E+05 -2.700907E+04  1.410692E+03
        48  20  7.695104E+04  3.948112E+05  8.276511E+04 -8.958801E+04 -1.887838E+04  1.090391E+04
        48  21  4.189632E+04  2.393990E+05  5.446672E+04 -1.143739E+05 -9.917487E+03  2.039835E+04
        48  22  2.444840E+03  7.778254E+04  1.966219E+04 -1.157483E+05 -2.700416E+04 -7.302450E+03
        48  23  2.027917E+02  7.664419E+04  1.710334E+04 -8.943652E+04 -1.887130E+04  1.249946E+03
        48  24  2.964469E+03  7.781341E+04  2.134769E+04 -1.157480E+05 -9.908015E+03  9.805882E+03
        48  25 -1.122943E+05 -3.969378E+05 -7.920410E+04 -1.140737E+05 -2.699930E+04 -1.600904E+04
        48  26 -7.655180E+04 -2.414267E+05 -4.856355E+04 -8.928508E+04 -1.886423E+04 -8.399155E+03
        48  27 -3.596896E+04 -8.374716E+04 -1.177230E+04 -1.171218E+05 -9.898496E+03 -7.838828E+02
        49   1  8.885634E+03  1.271039E+05  3.375981E+04 -1.244532E+05  3.623911E+03 -2.579535E+04
        49   2 -2.211675E+04 -3.730529E+04  1.438174E+04 -7.520349E+04 -3.224034E+03 -3.723907E+04
        49   3  3.340952E+03 -1.861625E+05  1.655020E+04 -7.819915E+04 -1.885559E+03 -4.867408E+04
        49   4 -2.102417E+03  8.111067E+04  2.490234E+04 -1.156754E+05  3.612032E+03 -1.344293E+04
        49   5  4.897120E+03  7.254411E+04  3.945693E+04 -8.952684E+04 -3.225889E+03 -3.412618E+04
        49   6  6.995215E+04  8.109787E+04  8.196792E+04 -1.156173E+05 -1.877223E+03 -5.480350E+04
        49   7 -1.309022E+04  3.511993E+04  1.604538E+04 -1.068982E+05  3.600501E+03 -1.091400E+03
        49   8  3.191092E+04  1.824052E+05  6.453147E+04 -1.038527E+05 -3.227887E+03 -3.101274E+04
        49   9  1.365633E+05  3.484264E+05  1.473813E+05 -1.530515E+05 -1.868151E+03 -6.093556E+04
        49  10  8.885441E+03  1.271032E+05  3.375854E+04 -1.244531E+05 -2.311505E-10  1.647070E-09
        49  11 -2.211713E+04 -3.730678E+04  1.437911E+04 -7.520359E+04  4.908387E-10 -7.159449E-10
        49  12  3.340312E+03 -1.861651E+05  1.654574E+04 -7.819923E+04  1.072711E-09 -1.565788E-09
        49  13 -2.102479E+03  8.111047E+04  2.490198E+04 -1.156753E+05 -2.411319E-09  2.907359E-11
        49  14  4.896796E+03  7.254285E+04  3.945472E+04 -8.952693E+04 -2.610204E-10  4.066924E-10
        49  15  6.995134E+04  8.109464E+04  8.196227E+04 -1.156174E+05 -9.650616E-10 -9.620432E-10
        49  16 -1.309024E+04  3.511993E+04  1.604536E+04 -1.068982E+05  2.589129E-10 -1.845709E-09
        49  17  3.191065E+04  1.824041E+05  6.452965E+04 -1.038528E+05  2.409771E-09  3.307539E-10
        49  18  1.365623E+05  3.484224E+05  1.473743E+05 -1.530516E+05 -5.967108E-10  1.429962E-09
        49  19  8.885634E+03  1.271039E+05  3.375981E+04 -1.244532E+05 -3.623911E+03  2.579535E+04
        49  20 -2.211675E+04 -3.730529E+04  1.438174E+04 -7.520349E+04  3.224034E+03  3.723907E+04
        49  21  3.340952E+03 -1.861625E+05  1.655020E+04 -7.819915E+04  1.885559E+03  4.867408E+04
        49  22 -2.102417E+03  8.111067E+04  2.490234E+04 -1.156754E+05 -3.612032E+03  1.344293E+04
        49  23  4.897120E+03  7.254411E+04  3.945693E+04 -8.952684E+04  3.225889E+03  3.412618E+04
        49  24  6.995215E+04  8.109787E+04  8.196792E+04 -1.156173E+05  1.877223E+03  5.480350E+04
        49  25 -1.309022E+04  3.511993E+04  1.604538E+04 -1.068982E+05 -3.600501E+03  1.091400E+03
        49  26  3.191092E+04  1.824052E+05  6.453147E+04 -1.038527E+05  3.227887E+03  3.101274E+04
        49  27  1.365633E+05  3.484264E+05  1.473813E+05 -1.530515E+05  1.868151E+03  6.093556E+04
        50   1 -4.448123E+05 -1.283868E+05 -5.752537E+04 -1.740593E+05 -2.703993E+04 -8.881593E+03
        50   2 -4.311158E+05 -8.790029E+04 -3.161797E+04 -1.688328E+05 -1.687865E+04 -2.529018E+03
        50   3 -4.244290E+05 -7.603351E+04 -2.068041E+04 -1.617193E+05 -5.811923E+03  1.409688E+03
        50   4 -3.736035E+05 -8.741697E+04 -3.590966E+04 -1.400054E+05 -2.341429E+04 -7.522848E+03
        50   5 -3.683846E+05 -5.939069E+04 -1.587010E+04 -1.461854E+05 -1.580039E+04 -2.124931E+03
        50   6 -3.696695E+05 -5.947809E+04 -8.780423E+03 -1.504789E+05 -7.281179E+03  8.588406E+02
        50   7 -3.023905E+05 -4.644508E+04 -1.429475E+04 -1.059479E+05 -1.978826E+04 -6.163748E+03
        50   8 -3.056498E+05 -3.088033E+04 -1.226166E+02 -1.235359E+05 -1.472203E+04 -1.720778E+03
        50   9 -3.149066E+05 -4.292251E+04  3.119527E+03 -1.392377E+05 -8.750589E+03  3.079581E+02
        50  10 -4.448131E+05 -1.283871E+05 -5.752689E+04 -1.740595E+05 -2.363744E-09  8.904915E-12
        50  11 -4.311161E+05 -8.790038E+04 -3.161852E+04 -1.688328E+05 -1.830367E-09  3.293623E-10
        50  12 -4.244290E+05 -7.603353E+04 -2.068048E+04 -1.617192E+05  3.167070E-10 -3.710837E-10
        50  13 -3.736041E+05 -8.741718E+04 -3.591080E+04 -1.400055E+05  1.005452E-09  1.639087E-10
        50  14 -3.683849E+05 -5.939076E+04 -1.587058E+04 -1.461854E+05 -3.787922E-10  2.365256E-10
        50  15 -3.696696E+05 -5.947811E+04 -8.780524E+03 -1.504789E+05  1.612773E-09 -9.975659E-10
        50  16 -3.023909E+05 -4.644523E+04 -1.429556E+04 -1.059480E+05  3.483765E-10  3.322098E-10
        50  17 -3.056500E+05 -3.088040E+04 -1.230297E+02 -1.235359E+05  2.757330E-09 -2.433488E-11
        50  18 -3.149066E+05 -4.292253E+04  3.119383E+03 -1.392377E+05  1.625683E-09 -1.635584E-09
        50  19 -4.448123E+05 -1.283868E+05 -5.752537E+04 -1.740593E+05  2.703993E+04  8.881593E+03
        50  20 -4.311158E+05 -8.790029E+04 -3.161797E+04 -1.688328E+05  1.687865E+04  2.529018E+03
        50  21 -4.244290E+05 -7.603351E+04 -2.068041E+04 -1.617193E+05  5.811923E+03 -1.409688E+03
        50  22 -3.736035E+05 -8.741697E+04 -3.590966E+04 -1.400054E+05  2.341429E+04  7.522848E+03
        50  23 -3.683846E+05 -5.939069E+04 -1.587010E+04 -1.461854E+05  1.580039E+04  2.124931E+03
        50  24 -3.696695E+05 -5.947809E+04 -8.780423E+03 -1.504789E+05  7.281179E+03 -8.588406E+02
        50  25 -3.023905E+05 -4.644508E+04 -1.429475E+04 -1.059479E+05  1.978826E+04  6.163748E+03
        50  26 -3.056498E+05 -3.088033E+04 -1.226166E+02 -1.235359E+05  1.472203E+04  1.720778E+03
        50  27 -3.149066E+05 -4.292251E+04  3.119527E+03 -1.392377E+05  8.750589E+03 -3.079581E+02
        51   1 -4.090954E+05 -7.699818E+04 -1.624206E+04 -1.607080E+05 -5.124517E+03  8.393246E+02
        51   2 -3.961131E+05 -6.815345E+04 -9.557236E+03 -1.545459E+05 -2.879659E+03  7.378536E+02
        51   3 -3.800045E+05 -6.437086E+04 -4.639686E+03 -1.525418E+05 -5.914852E+02  5.209139E+02
        51   4 -3.685407E+05 -6.157638E+04 -6.864446E+03 -1.491128E+05 -5.936624E+03  5.348352E+02
        51   5 -3.700257E+05 -5.842016E+04 -3.589955E+03 -1.472725E+05 -3.813526E+03  3.877341E+02
        51   6 -3.683606E+05 -6.030185E+04 -1.986121E+03 -1.495902E+05 -1.647192E+03  1.251448E+02
        51   7 -3.279841E+05 -4.615438E+04  2.513102E+03 -1.375168E+05 -6.748790E+03  2.303216E+02
        51   8 -3.439379E+05 -4.868693E+04  2.377210E+03 -1.399989E+05 -4.747428E+03  3.760191E+01
        51   9 -3.567169E+05 -5.623293E+04  6.673629E+02 -1.466387E+05 -2.702896E+03 -2.706219E+02
        51  10 -4.090954E+05 -7.699818E+04 -1.624211E+04 -1.607080E+05 -4.580516E-10 -1.840537E-09
        51  11 -3.961131E+05 -6.815345E+04 -9.557252E+03 -1.545459E+05  5.751059E-10 -1.245071E-09
        51  12 -3.800045E+05 -6.437086E+04 -4.639687E+03 -1.525418E+05 -6.993369E-10 -4.295115E-10
        51  13 -3.685407E+05 -6.157639E+04 -6.864512E+03 -1.491128E+05  1.500448E-09 -1.203501E-09
        51  14 -3.700257E+05 -5.842017E+04 -3.589983E+03 -1.472725E+05 -9.153246E-10 -4.739279E-10
        51  15 -3.683606E+05 -6.030185E+04 -1.986126E+03 -1.495902E+05 -1.166731E-09 -6.153903E-10
        51  16 -3.279842E+05 -4.615439E+04  2.513017E+03 -1.375168E+05  2.287899E-09 -5.795833E-10
        51  17 -3.439380E+05 -4.868693E+04  2.377167E+03 -1.399989E+05 -3.588581E-10  2.120293E-10
        51  18 -3.567169E+05 -5.623294E+04  6.673491E+02 -1.466387E+05 -2.776028E-09 -7.437404E-10
        51  19 -4.090954E+05 -7.699818E+04 -1.624206E+04 -1.607080E+05  5.124517E+03 -8.393246E+02
        51  20 -3.961131E+05 -6.815345E+04 -9.557236E+03 -1.545459E+05  2.879659E+03 -7.378536E+02
        51  21 -3.800045E+05 -6.437086E+04 -4.639686E+03 -1.525418E+05  5.914852E+02 -5.209139E+02
        51  22 -3.685407E+05 -6.157638E+04 -6.864446E+03 -1.491128E+05  5.936624E+03 -5.348352E+02
        51  23 -3.700257E+05 -5.842016E+04 -3.589955E+03 -1.472725E+05  3.813526E+03 -3.877341E+02
        51  24 -3.683606E+05 -6.030185E+04 -1.986121E+03 -1.495902E+05  1.647192E+03 -1.251448E+02
        51  25 -3.279841E+05 -4.615438E+04  2.513102E+03 -1.375168E+05  6.748790E+03 -2.303216E+02
        51  26 -3.439379E+05 -4.868693E+04  2.377210E+03 -1.399989E+05  4.747428E+03 -3.760191E+01
        51  27 -3.567169E+05 -5.623293E+04  6.673629E+02 -1.466387E+05  2.702896E+03  2.706219E+02
        52   1 -3.686133E+05 -6.047574E+04 -1.534423E+03 -1.495729E+05 -1.257301E+02  3.619811E+01
        52   2 -3.557843E+05 -5.308678E+04  2.430566E+03 -1.433393E+05  6.605358E+02 -7.787976E+02
        52   3 -3.391976E+05 -4.959881E+04  6.066177E+03 -1.415045E+05  1.448782E+03 -1.598920E+03
        52   4 -3.682741E+05 -6.039401E+04 -1.505199E+03 -1.495145E+05 -1.150153E+03 -3.478398E+02
        52   5 -3.701500E+05 -5.842168E+04 -8.334848E+02 -1.473233E+05 -3.693304E+02 -1.164897E+03
        52   6 -3.682676E+05 -6.034941E+04 -4.868619E+02 -1.495311E+05  4.134591E+02 -1.987083E+03
        52   7 -3.679348E+05 -6.031228E+04 -1.475968E+03 -1.494561E+05 -2.174597E+03 -7.318855E+02
        52   8 -3.845158E+05 -6.375665E+04 -4.097613E+03 -1.513072E+05 -1.399188E+03 -1.550993E+03
        52   9 -3.973371E+05 -7.110011E+04 -7.040065E+03 -1.575574E+05 -6.218252E+02 -2.375231E+03
        52  10 -3.686133E+05 -6.047574E+04 -1.534423E+03 -1.495729E+05 -2.829492E-09 -4.400066E-10
        52  11 -3.557843E+05 -5.308678E+04  2.430564E+03 -1.433393E+05  6.783865E-10  1.531260E-10
        52  12 -3.391976E+05 -4.959881E+04  6.066169E+03 -1.415045E+05  1.157589E-10  1.875923E-10
        52  13 -3.682741E+05 -6.039401E+04 -1.505201E+03 -1.495145E+05 -3.030305E-09 -5.885321E-10
        52  14 -3.701500E+05 -5.842168E+04 -8.334876E+02 -1.473233E+05 -2.246211E-11 -1.970196E-10
        52  15 -3.682676E+05 -6.034942E+04 -4.868696E+02 -1.495311E+05 -2.115169E-11  6.932517E-11
        52  16 -3.679348E+05 -6.031228E+04 -1.475977E+03 -1.494561E+05 -1.349732E-09 -7.123266E-10
        52  17 -3.845158E+05 -6.375665E+04 -4.097621E+03 -1.513072E+05 -3.609302E-10 -4.342039E-10
        52  18 -3.973371E+05 -7.110011E+04 -7.040076E+03 -1.575574E+05 -5.166000E-10 -6.622845E-11
        52  19 -3.686133E+05 -6.047574E+04 -1.534423E+03 -1.495729E+05  1.257301E+02 -3.619811E+01
        52  20 -3.557843E+05 -5.308678E+04  2.430566E+03 -1.433393E+05 -6.605358E+02  7.787976E+02
        52  21 -3.391976E+05 -4.959881E+04  6.066177E+03 -1.415045E+05 -1.448782E+03  1.598920E+03
        52  22 -3.682741E+05 -6.039401E+04 -1.505199E+03 -1.495145E+05  1.150153E+03  3.478398E+02
        52  23 -3.701500E+05 -5.842168E+04 -8.334848E+02 -1.473233E+05  3.693304E+02  1.164897E+03
        52  24 -3.682676E+05 -6.034941E+04 -4.868619E+02 -1.495311E+05 -4.134591E+02  1.987083E+03
        52  25 -3.679348E+05 -6.031228E+04 -1.475968E+03 -1.494561E+05  2.174597E+03  7.318855E+02
        52  26 -3.845158E+05 -6.375665E+04 -4.097613E+03 -1.513072E+05  1.399188E+03  1.550993E+03
        52  27 -3.973371E+05 -7.110011E+04 -7.040065E+03 -1.575574E+05  6.218252E+02  2.375231E+03
        53   1 -3.280440E+05 -4.547999E+04  8.789467E+03 -1.384502E+05  1.733385E+03 -2.142913E+03
        53   2 -3.152608E+05 -3.815348E+04  1.218179E+04 -1.322149E+05  2.239297E+03 -3.069645E+03
        53   3 -2.986666E+05 -3.466389E+04  1.546980E+04 -1.303749E+05  2.745132E+03 -3.996000E+03
        53   4 -3.682587E+05 -6.035123E+04 -3.881822E+02 -1.495246E+05  6.998729E+02 -2.530409E+03
        53   5 -3.701643E+05 -5.843340E+04 -2.797194E+02 -1.473268E+05  1.206146E+03 -3.457035E+03
        53   6 -3.682590E+05 -6.035238E+04 -2.757863E+02 -1.495242E+05  1.712343E+03 -4.383292E+03
        53   7 -4.084709E+05 -7.522198E+04 -9.565669E+03 -1.605981E+05 -3.335418E+02 -2.917869E+03
        53   8 -4.250644E+05 -7.871295E+04 -1.274131E+04 -1.624373E+05  1.731014E+02 -3.844386E+03
        53   9 -4.378473E+05 -8.604078E+04 -1.602188E+04 -1.686717E+05  6.796697E+02 -4.770541E+03
        53  10 -3.280440E+05 -4.547999E+04  8.789452E+03 -1.384502E+05 -2.780511E-10 -2.363262E-10
        53  11 -3.152608E+05 -3.815349E+04  1.218176E+04 -1.322149E+05 -1.851022E-09  2.229006E-10
        53  12 -2.986666E+05 -3.466390E+04  1.546976E+04 -1.303749E+05 -1.357915E-09  3.303513E-10
        53  13 -3.682587E+05 -6.035123E+04 -3.881952E+02 -1.495246E+05  7.972313E-11  3.159723E-10
        53  14 -3.701643E+05 -5.843342E+04 -2.797445E+02 -1.473268E+05  9.394882E-10  6.350383E-10
        53  15 -3.682590E+05 -6.035241E+04 -2.758279E+02 -1.495242E+05 -5.837433E-10  9.785753E-10
        53  16 -4.084709E+05 -7.522199E+04 -9.565685E+03 -1.605981E+05  3.437504E-10  4.928612E-10
        53  17 -4.250644E+05 -7.871297E+04 -1.274134E+04 -1.624373E+05  1.935867E-09  9.839872E-10
        53  18 -4.378473E+05 -8.604080E+04 -1.602192E+04 -1.686717E+05  2.609107E-09  1.410242E-09
        53  19 -3.280440E+05 -4.547999E+04  8.789467E+03 -1.384502E+05 -1.733385E+03  2.142913E+03
        53  20 -3.152608E+05 -3.815348E+04  1.218179E+04 -1.322149E+05 -2.239297E+03  3.069645E+03
        53  21 -2.986666E+05 -3.466389E+04  1.546980E+04 -1.303749E+05 -2.745132E+03  3.996000E+03
        53  22 -3.682587E+05 -6.035123E+04 -3.881822E+02 -1.495246E+05 -6.998729E+02  2.530409E+03
        53  23 -3.701643E+05 -5.843340E+04 -2.797194E+02 -1.473268E+05 -1.206146E+03  3.457035E+03
        53  24 -3.682590E+05 -6.035238E+04 -2.757863E+02 -1.495242E+05 -1.712343E+03  4.383292E+03
        53  25 -4.084709E+05 -7.522198E+04 -9.565669E+03 -1.605981E+05  3.335418E+02  2.917869E+03
        53  26 -4.250644E+05 -7.871295E+04 -1.274131E+04 -1.624373E+05 -1.731014E+02  3.844386E+03
        53  27 -4.378473E+05 -8.604078E+04 -1.602188E+04 -1.686717E+05 -6.796697E+02  4.770541E+03
        54   1 -2.875506E+05 -3.054087E+04  1.805765E+04 -1.273219E+05  3.006553E+03 -4.547176E+03
        54   2 -2.747933E+05 -2.323251E+04  2.117651E+04 -1.211044E+05  3.602373E+03 -5.437669E+03
        54   3 -2.582466E+05 -1.975627E+04  2.412308E+04 -1.192734E+05  4.197631E+03 -6.326351E+03
        54   4 -3.682643E+05 -6.035093E+04 -3.088667E+02 -1.495227E+05  1.974559E+03 -4.934202E+03
        54   5 -3.701594E+05 -5.843462E+04 -4.647299E+02 -1.473296E+05  2.572230E+03 -5.824066E+03
        54   6 -3.682655E+05 -6.035085E+04 -7.943271E+02 -1.495232E+05  3.169330E+03 -6.712119E+03
        54   7 -4.489715E+05 -9.016049E+04 -1.867580E+04 -1.717208E+05  9.427117E+02 -5.321175E+03
        54   8 -4.655160E+05 -9.363592E+04 -2.210647E+04 -1.735511E+05  1.542261E+03 -6.210397E+03
        54   9 -4.782715E+05 -1.009443E+05 -2.571233E+04 -1.797680E+05  2.141233E+03 -7.097810E+03
        54  10 -2.875507E+05 -3.054090E+04  1.805760E+04 -1.273219E+05 -1.249781E-09  5.244597E-10
        54  11 -2.747934E+05 -2.323255E+04  2.117643E+04 -1.211044E+05  4.694906E-11  3.854813E-10
        54  12 -2.582466E+05 -1.975632E+04  2.412297E+04 -1.192733E+05 -3.426372E-09 -1.786862E-09
        54  13 -3.682643E+05 -6.035095E+04 -3.089198E+02 -1.495227E+05 -3.622089E-10  1.033872E-09
        54  14 -3.701594E+05 -5.843465E+04 -4.648060E+02 -1.473296E+05 -1.520971E-09  8.807273E-10
        54  15 -3.682655E+05 -6.035090E+04 -7.944306E+02 -1.495232E+05  1.713159E-10 -2.052978E-10
        54  16 -4.489715E+05 -9.016052E+04 -1.867586E+04 -1.717208E+05  2.329680E-09  1.596126E-09
        54  17 -4.655160E+05 -9.363596E+04 -2.210655E+04 -1.735511E+05 -4.824043E-10  1.518055E-09
        54  18 -4.782715E+05 -1.009443E+05 -2.571243E+04 -1.797680E+05  3.026870E-09  1.415675E-09
        54  19 -2.875506E+05 -3.054087E+04  1.805765E+04 -1.273219E+05 -3.006553E+03  4.547176E+03
        54  20 -2.747933E+05 -2.323251E+04  2.117651E+04 -1.211044E+05 -3.602373E+03  5.437669E+03
        54  21 -2.582466E+05 -1.975627E+04  2.412308E+04 -1.192734E+05 -4.197631E+03  6.326351E+03
        54  22 -3.682643E+05 -6.035093E+04 -3.088667E+02 -1.495227E+05 -1.974559E+03  4.934202E+03
        54  23 -3.701594E+05 -5.843462E+04 -4.647299E+02 -1.473296E+05 -2.572230E+03  5.824066E+03
        54  24 -3.682655E+05 -6.035085E+04 -7.943271E+02 -1.495232E+05 -3.169330E+03  6.712119E+03
        54  25 -4.489715E+05 -9.016049E+04 -1.867580E+04 -1.717208E+05 -9.427117E+02  5.321175E+03
        54  26 -4.655160E+05 -9.363592E+04 -2.210647E+04 -1.735511E+05 -1.542261E+03  6.210397E+03
        54  27 -4.782715E+05 -1.009443E+05 -2.571233E+04 -1.797680E+05 -2.141233E+03  7.097810E+03
        55   1 -2.471740E+05 -1.565419E+04  2.648347E+04 -1.162576E+05  4.565993E+03 -6.836290E+03
        55   2 -2.344102E+05 -8.357471E+03  2.891735E+04 -1.100445E+05  5.848729E+03 -7.459579E+03
        55   3 -2.180059E+05 -5.011338E+03  3.063354E+04 -1.081965E+05  7.125463E+03 -8.066278E+03
        55   4 -3.682945E+05 -6.034196E+04 -1.045887E+03 -1.495321E+05  3.534959E+03 -7.223131E+03
        55   5 -3.701211E+05 -5.841819E+04 -1.876608E+03 -1.473297E+05  4.834941E+03 -7.840044E+03
        55   6 -3.683112E+05 -6.044872E+04 -3.438874E+03 -1.494928E+05  6.128895E+03 -8.440374E+03
        55   7 -4.894010E+05 -1.050289E+05 -2.857641E+04 -1.828009E+05  2.504136E+03 -7.609892E+03
        55   8 -5.058140E+05 -1.084777E+05 -3.267188E+04 -1.846076E+05  3.821390E+03 -8.220421E+03
        55   9 -5.185938E+05 -1.158844E+05 -3.751277E+04 -1.907800E+05  5.132588E+03 -8.814372E+03
        55  10 -2.471740E+05 -1.565424E+04  2.648334E+04 -1.162576E+05 -3.851069E-08 -1.683034E-08
        55  11 -2.344102E+05 -8.357540E+03  2.891718E+04 -1.100444E+05 -1.904434E-09 -4.512787E-09
        55  12 -2.180060E+05 -5.011422E+03  3.063332E+04 -1.081964E+05  3.932394E-08  1.161039E-08
        55  13 -3.682945E+05 -6.034202E+04 -1.046009E+03 -1.495321E+05 -5.221696E-10 -2.319145E-09
        55  14 -3.701211E+05 -5.841826E+04 -1.876767E+03 -1.473297E+05 -1.805167E-09 -5.027488E-09
        55  15 -3.683112E+05 -6.044881E+04 -3.439079E+03 -1.494927E+05 -7.562904E-10 -3.092968E-09
        55  16 -4.894011E+05 -1.050290E+05 -2.857653E+04 -1.828008E+05  3.754588E-08  1.228873E-08
        55  17 -5.058140E+05 -1.084778E+05 -3.267203E+04 -1.846076E+05 -4.136412E-09 -5.303758E-09
        55  18 -5.185938E+05 -1.158845E+05 -3.751296E+04 -1.907799E+05 -4.000698E-08 -1.746392E-08
        55  19 -2.471740E+05 -1.565419E+04  2.648347E+04 -1.162576E+05 -4.565993E+03  6.836290E+03
        55  20 -2.344102E+05 -8.357471E+03  2.891735E+04 -1.100445E+05 -5.848729E+03  7.459579E+03
        55  21 -2.180059E+05 -5.011338E+03  3.063354E+04 -1.081965E+05 -7.125463E+03  8.066278E+03
        55  22 -3.682945E+05 -6.034196E+04 -1.045887E+03 -1.495321E+05 -3.534959E+03  7.223131E+03
        55  23 -3.701211E+05 -5.841819E+04 -1.876608E+03 -1.473297E+05 -4.834941E+03  7.840044E+03
        55  24 -3.683112E+05 -6.044872E+04 -3.438874E+03 -1.494928E+05 -6.128895E+03  8.440374E+03
        55  25 -4.894010E+05 -1.050289E+05 -2.857641E+04 -1.828009E+05 -2.504136E+03  7.609892E+03
        55  26 -5.058140E+05 -1.084777E+05 -3.267188E+04 -1.846076E+05 -3.821390E+03  8.220421E+03
        55  27 -5.185938E+05 -1.158844E+05 -3.751277E+04 -1.907800E+05 -5.132588E+03  8.814372E+03
        56   1 -2.068332E+05 -1.042666E+03  3.210876E+04 -1.057198E+05  8.069515E+03 -8.378978E+03
        56   2 -1.942357E+05  6.688236E+03  3.172943E+04 -9.864198E+04  1.222791E+04 -7.805659E+03
        56   3 -1.793534E+05  7.933923E+03  2.777637E+04 -9.535150E+04  1.626863E+04 -6.918035E+03
        56   4 -3.685157E+05 -6.023319E+04 -4.550179E+03 -1.496622E+05  6.989578E+03 -8.784412E+03
        56   5 -3.698327E+05 -5.842387E+04 -8.245860E+03 -1.472188E+05  1.147860E+04 -8.087148E+03
        56   6 -3.689311E+05 -6.316581E+04 -1.577808E+04 -1.485628E+05  1.584986E+04 -7.075572E+03
        56   7 -5.301710E+05 -1.194215E+05 -4.121055E+04 -1.935939E+05  5.909952E+03 -9.189731E+03
        56   8 -5.453987E+05 -1.235336E+05 -4.822317E+04 -1.957831E+05  1.072952E+04 -8.368551E+03
        56   9 -5.584739E+05 -1.342630E+05 -5.933525E+04 -2.017595E+05  1.543123E+04 -7.233057E+03
        56  10 -2.068333E+05 -1.042759E+03  3.210851E+04 -1.057197E+05  3.127500E-09 -2.410310E-10
        56  11 -1.942359E+05  6.688130E+03  3.172903E+04 -9.864190E+04 -5.728483E-09 -6.535711E-11
        56  12 -1.793537E+05  7.933801E+03  2.777578E+04 -9.535140E+04 -4.249418E-09  8.191898E-10
        56  13 -3.685158E+05 -6.023329E+04 -4.550415E+03 -1.496621E+05 -1.842206E-09 -1.327219E-09
        56  14 -3.698329E+05 -5.842398E+04 -8.246231E+03 -1.472188E+05 -6.612314E-09 -8.622686E-10
        56  15 -3.689314E+05 -6.316593E+04 -1.577865E+04 -1.485627E+05 -2.681477E-09  2.399810E-10
        56  16 -5.301711E+05 -1.194216E+05 -4.121077E+04 -1.935939E+05 -8.292751E-09 -2.695033E-09
        56  17 -5.453989E+05 -1.235337E+05 -4.822352E+04 -1.957830E+05 -8.759160E-09 -1.133299E-09
        56  18 -5.584741E+05 -1.342631E+05 -5.933580E+04 -2.017594E+05 -4.064338E-10 -2.790017E-10
        56  19 -2.068332E+05 -1.042666E+03  3.210876E+04 -1.057198E+05 -8.069515E+03  8.378978E+03
        56  20 -1.942357E+05  6.688236E+03  3.172943E+04 -9.864198E+04 -1.222791E+04  7.805659E+03
        56  21 -1.793534E+05  7.933923E+03  2.777637E+04 -9.535150E+04 -1.626863E+04  6.918035E+03
        56  22 -3.685157E+05 -6.023319E+04 -4.550179E+03 -1.496622E+05 -6.989578E+03  8.784412E+03
        56  23 -3.698327E+05 -5.842387E+04 -8.245860E+03 -1.472188E+05 -1.147860E+04  8.087148E+03
        56  24 -3.689311E+05 -6.316581E+04 -1.577808E+04 -1.485628E+05 -1.584986E+04  7.075572E+03
        56  25 -5.301710E+05 -1.194215E+05 -4.121055E+04 -1.935939E+05 -5.909952E+03  9.189731E+03
        56  26 -5.453987E+05 -1.235336E+05 -4.822317E+04 -1.957831E+05 -1.072952E+04  8.368551E+03
        56  27 -5.584739E+05 -1.342630E+05 -5.933525E+04 -2.017595E+05 -1.543123E+04  7.233057E+03
        57   1 -1.639050E+05  9.946371E+03  2.567641E+04 -1.032936E+05  2.088370E+04 -6.308461E+03
        57   2 -1.595244E+05  2.800539E+04  1.412832E+04 -7.546708E+04  3.295847E+04 -4.151959E+02
        57   3 -1.738045E+05 -1.209501E+04 -2.171274E+04 -3.746335E+04  4.257631E+04  1.202216E+04
        57   4 -3.715352E+05 -5.833374E+04 -2.018443E+04 -1.516937E+05  1.868372E+04 -7.134364E+03
        57   5 -3.660498E+05 -6.066917E+04 -3.648648E+04 -1.447327E+05  3.766230E+04  1.349747E+03
        57   6 -3.806017E+05 -1.225453E+05 -8.255910E+04 -1.275925E+05  5.418314E+04  1.637786E+04
        57   7 -5.791222E+05 -1.266127E+05 -6.604786E+04 -2.000800E+05  1.648455E+04 -7.960043E+03
        57   8 -5.725314E+05 -1.493360E+05 -8.710414E+04 -2.139756E+05  4.236442E+04  3.113815E+03
        57   9 -5.873526E+05 -2.329771E+05 -1.434084E+05 -2.176895E+05  6.578568E+04  2.073041E+04
        57  10 -1.639055E+05  9.946211E+03  2.567552E+04 -1.032934E+05 -1.165479E-10  1.099340E-09
        57  11 -1.595255E+05  2.800510E+04  1.412628E+04 -7.546707E+04  1.138318E-11 -5.167038E-10
        57  12 -1.738065E+05 -1.209565E+04 -2.171642E+04 -3.746376E+04  5.844441E-11 -4.457846E-10
        57  13 -3.715356E+05 -5.833388E+04 -2.018518E+04 -1.516936E+05 -9.956455E-10 -1.086502E-10
        57  14 -3.660514E+05 -6.066955E+04 -3.648915E+04 -1.447328E+05 -1.045711E-09 -2.427512E-10
        57  15 -3.806049E+05 -1.225464E+05 -8.256513E+04 -1.275932E+05 -1.490454E-10  1.452445E-10
        57  16 -5.791225E+05 -1.266129E+05 -6.604849E+04 -2.000799E+05 -5.519406E-10 -7.027285E-10
        57  17 -5.725334E+05 -1.493365E+05 -8.710753E+04 -2.139757E+05 -1.266783E-10 -1.985100E-11
        57  18 -5.873574E+05 -2.329787E+05 -1.434173E+05 -2.176906E+05 -1.122436E-09  5.074071E-11
        57  19 -1.639050E+05  9.946371E+03  2.567641E+04 -1.032936E+05 -2.088370E+04  6.308461E+03
        57  20 -1.595244E+05  2.800539E+04  1.412832E+04 -7.546708E+04 -3.295847E+04  4.151959E+02
        57  21 -1.738045E+05 -1.209501E+04 -2.171274E+04 -3.746335E+04 -4.257631E+04 -1.202216E+04
        57  22 -3.715352E+05 -5.833374E+04 -2.018443E+04 -1.516937E+05 -1.868372E+04  7.134364E+03
        57  23 -3.660498E+05 -6.066917E+04 -3.648648E+04 -1.447327E+05 -3.766230E+04 -1.349747E+03
        57  24 -3.806017E+05 -1.225453E+05 -8.255910E+04 -1.275925E+05 -5.418314E+04 -1.637786E+04
        57  25 -5.791222E+05 -1.266127E+05 -6.604786E+04 -2.000800E+05 -1.648455E+04  7.960043E+03
        57  26 -5.725314E+05 -1.493360E+05 -8.710414E+04 -2.139756E+05 -4.236442E+04 -3.113815E+03
        57  27 -5.873526E+05 -2.329771E+05 -1.434084E+05 -2.176895E+05 -6.578568E+04 -2.073041E+04
        58   1 -2.387882E+04 -1.702682E+03 -1.993998E+03 -9.066631E+02 -1.371409E+03  2.002874E-03
        58   2 -2.367048E+04 -1.164674E+02 -9.306486E+02 -3.452646E+02 -8.827386E+02  4.909357E-04
        58   3 -2.387880E+04  5.766993E+01 -5.384788E+02  2.161425E+02 -3.940610E+02 -1.371952E-04
        58   4 -2.387882E+04 -1.702684E+03 -1.993998E+03  6.145543E-09 -1.371409E+03 -2.481831E-10
        58   5 -2.367048E+04 -1.164676E+02 -9.306486E+02  1.062929E-09 -8.827386E+02 -1.166702E-10
        58   6 -2.387880E+04  5.766984E+01 -5.384788E+02  1.365098E-09 -3.940610E+02  1.556660E-09
        58   7 -2.387882E+04 -1.702682E+03 -1.993998E+03  9.066631E+02 -1.371409E+03 -2.002875E-03
        58   8 -2.367048E+04 -1.164674E+02 -9.306486E+02  3.452646E+02 -8.827386E+02 -4.909360E-04
        58   9 -2.387880E+04  5.766993E+01 -5.384788E+02 -2.161425E+02 -3.940610E+02  1.371983E-04
        58  10 -2.387882E+04 -1.702683E+03 -1.994001E+03 -9.066631E+02  8.810496E-10 -3.039014E-10
        58  11 -2.367048E+04 -1.164676E+02 -9.306500E+02 -3.452646E+02 -9.135110E-10 -3.166440E-10
        58  12 -2.387880E+04  5.766988E+01 -5.384791E+02  2.161425E+02 -3.046355E-09  1.272352E-09
        58  13 -2.387882E+04 -1.702684E+03 -1.994002E+03  1.738171E-09 -1.084521E-09 -1.343623E-10
        58  14 -2.367048E+04 -1.164678E+02 -9.306501E+02  7.099266E-10 -5.469604E-10  6.492270E-12
        58  15 -2.387880E+04  5.766980E+01 -5.384791E+02  1.835674E-09  8.179186E-10  1.081784E-09
        58  16 -2.387882E+04 -1.702683E+03 -1.994001E+03  9.066631E+02  7.301555E-10  3.581819E-11
        58  17 -2.367048E+04 -1.164676E+02 -9.306500E+02  3.452646E+02  6.229417E-10  3.307450E-10
        58  18 -2.387880E+04  5.766988E+01 -5.384791E+02 -2.161425E+02  1.591828E-09  8.906820E-10
        58  19 -2.387882E+04 -1.702682E+03 -1.993998E+03 -9.066631E+02  1.371409E+03 -2.002875E-03
        58  20 -2.367048E+04 -1.164674E+02 -9.306486E+02 -3.452646E+02  8.827386E+02 -4.909364E-04
        58  21 -2.387880E+04  5.766993E+01 -5.384788E+02  2.161425E+02  3.940610E+02  1.371978E-04
        58  22 -2.387882E+04 -1.702684E+03 -1.993998E+03  4.869543E-09  1.371409E+03 -2.053112E-11
        58  23 -2.367048E+04 -1.164676E+02 -9.306486E+02  3.049367E-09  8.827386E+02  1.297834E-10
        58  24 -2.387880E+04  5.766984E+01 -5.384788E+02  4.055791E-09  3.940610E+02  6.068984E-10
        58  25 -2.387882E+04 -1.702682E+03 -1.993998E+03  9.066631E+02  1.371409E+03  2.002875E-03
        58  26 -2.367048E+04 -1.164674E+02 -9.306486E+02  3.452646E+02  8.827386E+02  4.909366E-04
        58  27 -2.387880E+04  5.766993E+01 -5.384788E+02 -2.161425E+02  3.940610E+02 -1.371966E-04
        59   1 -2.379341E+04 -7.090138E+01 -4.269280E+02 -2.388202E+01 -3.197996E+02  1.230408E-05
        59   2 -2.377722E+04 -6.744344E-01 -2.485405E+02 -5.550082E+00 -1.957184E+02  1.749005E-06
        59   3 -2.379340E+04  4.670660E+00 -1.671581E+02  1.278186E+01 -7.163728E+01 -1.475830E-06
        59   4 -2.379341E+04 -7.090139E+01 -4.269280E+02 -4.443469E-10 -3.197996E+02  1.358539E-09
        59   5 -2.377722E+04 -6.744344E-01 -2.485405E+02 -1.330354E-09 -1.957184E+02 -7.222844E-10
        59   6 -2.379340E+04  4.670660E+00 -1.671581E+02  4.919314E-09 -7.163728E+01 -8.368878E-10
        59   7 -2.379341E+04 -7.090138E+01 -4.269280E+02  2.388202E+01 -3.197996E+02 -1.230137E-05
        59   8 -2.377722E+04 -6.744344E-01 -2.485405E+02  5.550083E+00 -1.957184E+02 -1.750451E-06
        59   9 -2.379340E+04  4.670660E+00 -1.671581E+02 -1.278186E+01 -7.163728E+01  1.474154E-06
        59  10 -2.379341E+04 -7.090141E+01 -4.269282E+02 -2.388202E+01  1.145206E-09  1.475828E-09
        59  11 -2.377722E+04 -6.744447E-01 -2.485406E+02 -5.550083E+00 -3.791087E-10  2.157522E-13
        59  12 -2.379340E+04  4.670659E+00 -1.671581E+02  1.278186E+01  9.438303E-10 -7.780336E-10
        59  13 -2.379341E+04 -7.090141E+01 -4.269282E+02  2.372072E-09 -2.162239E-09  1.157432E-09
        59  14 -2.377722E+04 -6.744447E-01 -2.485406E+02 -4.309454E-09 -2.166790E-09  9.170779E-12
        59  15 -2.379340E+04  4.670658E+00 -1.671581E+02 -2.212747E-10  1.220422E-09 -7.215978E-10
        59  16 -2.379341E+04 -7.090141E+01 -4.269282E+02  2.388202E+01 -1.678612E-09  8.393041E-10
        59  17 -2.377722E+04 -6.744447E-01 -2.485406E+02  5.550083E+00 -1.787681E-09  1.995957E-11
        59  18 -2.379340E+04  4.670659E+00 -1.671581E+02 -1.278186E+01 -8.077233E-10 -6.657549E-10
        59  19 -2.379341E+04 -7.090138E+01 -4.269280E+02 -2.388202E+01  3.197996E+02 -1.230113E-05
        59  20 -2.377722E+04 -6.744344E-01 -2.485405E+02 -5.550083E+00  1.957184E+02 -1.749002E-06
        59  21 -2.379340E+04  4.670660E+00 -1.671581E+02  1.278186E+01  7.163728E+01  1.474277E-06
        59  22 -2.379341E+04 -7.090139E+01 -4.269280E+02  1.958618E-09  3.197996E+02  9.557096E-10
        59  23 -2.377722E+04 -6.744344E-01 -2.485405E+02  2.404154E-09  1.957184E+02  7.401645E-10
        59  24 -2.379340E+04  4.670660E+00 -1.671581E+02  7.830879E-09  7.163728E+01 -6.069319E-10
        59  25 -2.379341E+04 -7.090138E+01 -4.269280E+02  2.388202E+01  3.197996E+02  1.230304E-05
        59  26 -2.377722E+04 -6.744344E-01 -2.485405E+02  5.550083E+00  1.957184E+02  1.750482E-06
        59  27 -2.379340E+04  4.670660E+00 -1.671581E+02 -1.278186E+01  7.163728E+01 -1.475490E-06
        60   1 -2.378841E+04 -1.053979E+00 -1.477880E+02  1.137266E+00 -4.361779E+01 -7.992876E-08
        60   2 -2.378346E+04  2.856052E+00 -1.404534E+02 -2.502762E+00  2.581866E+01 -1.031540E-07
        60   3 -2.378841E+04  3.316343E+00 -1.791882E+02 -6.142735E+00  9.525409E+01 -9.417498E-07
        60   4 -2.378841E+04 -1.053979E+00 -1.477880E+02  5.521070E-09 -4.361779E+01  6.566488E-11
        60   5 -2.378346E+04  2.856052E+00 -1.404534E+02 -2.169819E-09  2.581866E+01  1.077376E-09
        60   6 -2.378841E+04  3.316343E+00 -1.791882E+02  5.485698E-09  9.525409E+01  6.341922E-10
        60   7 -2.378841E+04 -1.053979E+00 -1.477880E+02 -1.137266E+00 -4.361779E+01  8.006095E-08
        60   8 -2.378346E+04  2.856052E+00 -1.404534E+02  2.502762E+00  2.581866E+01  1.053067E-07
        60   9 -2.378841E+04  3.316343E+00 -1.791882E+02  6.142735E+00  9.525409E+01  9.430205E-07
        60  10 -2.378841E+04 -1.053980E+00 -1.477880E+02  1.137266E+00 -8.507151E-10 -6.850711E-10
        60  11 -2.378346E+04  2.856052E+00 -1.404534E+02 -2.502762E+00 -1.546745E-09 -2.210894E-10
        60  12 -2.378841E+04  3.316341E+00 -1.791882E+02 -6.142735E+00 -8.907968E-10 -4.973332E-11
        60  13 -2.378841E+04 -1.053980E+00 -1.477880E+02  3.876424E-10  8.059667E-12 -5.907138E-10
        60  14 -2.378346E+04  2.856052E+00 -1.404534E+02 -1.567906E-09 -5.384819E-10 -7.494300E-11
        60  15 -2.378841E+04  3.316341E+00 -1.791882E+02  2.400176E-09 -2.533848E-10 -1.751808E-10
        60  16 -2.378841E+04 -1.053980E+00 -1.477880E+02 -1.137266E+00  8.634619E-10 -4.981888E-10
        60  17 -2.378346E+04  2.856052E+00 -1.404534E+02  2.502762E+00  7.670567E-10  6.882705E-11
        60  18 -2.378841E+04  3.316341E+00 -1.791882E+02  6.142736E+00 -5.559358E-10 -2.998758E-10
        60  19 -2.378841E+04 -1.053979E+00 -1.477880E+02  1.137266E+00  4.361779E+01  7.856507E-08
        60  20 -2.378346E+04  2.856052E+00 -1.404534E+02 -2.502762E+00 -2.581866E+01  1.027164E-07
        60  21 -2.378841E+04  3.316343E+00 -1.791882E+02 -6.142736E+00 -9.525409E+01  9.416535E-07
        60  22 -2.378841E+04 -1.053979E+00 -1.477880E+02  2.792272E-09  4.361779E+01 -1.247278E-09
        60  23 -2.378346E+04  2.856052E+00 -1.404534E+02 -3.119986E-09 -2.581866E+01 -1.227782E-09
        60  24 -2.378841E+04  3.316343E+00 -1.791882E+02  6.044987E-09 -9.525409E+01 -9.847647E-10
        60  25 -2.378841E+04 -1.053979E+00 -1.477880E+02 -1.137266E+00  4.361779E+01 -8.106126E-08
        60  26 -2.378346E+04  2.856052E+00 -1.404534E+02  2.502762E+00 -2.581866E+01 -1.051734E-07
        60  27 -2.378841E+04  3.316343E+00 -1.791882E+02  6.142736E+00 -9.525409E+01 -9.436224E-07
        61   1 -2.379134E+04  2.798795E+00 -2.183393E+02 -7.816796E+00  1.313640E+02 -1.654115E-06
        61   2 -2.377979E+04  7.790559E+00 -3.513786E+02 -1.971439E+01  3.049371E+02 -9.684603E-06
        61   3 -2.379134E+04  1.077493E+01 -5.979252E+02 -3.161216E+01  4.785128E+02 -2.436674E-05
        61   4 -2.379134E+04  2.798795E+00 -2.183393E+02  5.193778E-09  1.313640E+02 -2.565323E-10
        61   5 -2.377979E+04  7.790558E+00 -3.513786E+02 -1.029315E-10  3.049371E+02 -1.084663E-09
        61   6 -2.379134E+04  1.077493E+01 -5.979252E+02  1.870261E-09  4.785128E+02 -6.025404E-10
        61   7 -2.379134E+04  2.798795E+00 -2.183393E+02  7.816796E+00  1.313640E+02  1.653604E-06
        61   8 -2.377979E+04  7.790559E+00 -3.513786E+02  1.971439E+01  3.049371E+02  9.682428E-06
        61   9 -2.379134E+04  1.077493E+01 -5.979252E+02  3.161216E+01  4.785128E+02  2.436554E-05
        61  10 -2.379134E+04  2.798790E+00 -2.183394E+02 -7.816796E+00 -4.932275E-10 -5.999715E-11
        61  11 -2.377979E+04  7.790534E+00 -3.513788E+02 -1.971439E+01  4.953740E-10 -2.049413E-10
        61  12 -2.379134E+04  1.077487E+01 -5.979257E+02 -3.161216E+01 -4.407731E-10 -5.495732E-10
        61  13 -2.379134E+04  2.798790E+00 -2.183394E+02  2.028158E-09 -2.154453E-09 -2.394566E-10
        61  14 -2.377979E+04  7.790533E+00 -3.513788E+02  1.447966E-09  5.427664E-10 -2.380582E-10
        61  15 -2.379134E+04  1.077487E+01 -5.979257E+02  3.290945E-10 -3.507142E-09 -6.623359E-10
        61  16 -2.379134E+04  2.798790E+00 -2.183394E+02  7.816796E+00 -8.566044E-10 -4.196765E-10
        61  17 -2.377979E+04  7.790534E+00 -3.513788E+02  1.971439E+01 -7.560457E-10 -2.710415E-10
        61  18 -2.379134E+04  1.077487E+01 -5.979257E+02  3.161216E+01 -8.677834E-10 -7.741313E-10
        61  19 -2.379134E+04  2.798795E+00 -2.183393E+02 -7.816796E+00 -1.313640E+02  1.653996E-06
        61  20 -2.377979E+04  7.790559E+00 -3.513786E+02 -1.971439E+01 -3.049371E+02  9.684197E-06
        61  21 -2.379134E+04  1.077493E+01 -5.979252E+02 -3.161216E+01 -4.785128E+02  2.436564E-05
        61  22 -2.379134E+04  2.798795E+00 -2.183393E+02  5.325012E-09 -1.313640E+02 -2.225591E-10
        61  23 -2.377979E+04  7.790558E+00 -3.513786E+02 -2.320291E-10 -3.049371E+02  6.088403E-10
        61  24 -2.379134E+04  1.077493E+01 -5.979252E+02  8.750668E-09 -4.785128E+02 -7.221190E-10
        61  25 -2.379134E+04  2.798795E+00 -2.183393E+02  7.816796E+00 -1.313640E+02 -1.654444E-06
        61  26 -2.377979E+04  7.790559E+00 -3.513786E+02  1.971439E+01 -3.049371E+02 -9.682978E-06
        61  27 -2.379134E+04  1.077493E+01 -5.979252E+02  3.161216E+01 -4.785128E+02 -2.436709E-05
        62   1 -2.380663E+04  1.048021E+01 -7.847607E+02 -3.755648E+01  6.040958E+02 -3.654527E-05
        62   2 -2.376069E+04  2.916699E+01 -1.359311E+03 -7.938302E+01  1.275782E+03 -1.631333E-04
        62   3 -2.380664E+04  3.012199E+01 -2.375602E+03 -1.212096E+02  1.947467E+03 -3.802288E-04
        62   4 -2.380663E+04  1.048021E+01 -7.847607E+02  1.771049E-08  6.040958E+02 -2.537133E-10
        62   5 -2.376069E+04  2.916698E+01 -1.359311E+03 -8.334143E-09  1.275782E+03  4.779004E-10
        62   6 -2.380664E+04  3.012196E+01 -2.375602E+03 -4.676389E-08  1.947467E+03  2.536413E-09
        62   7 -2.380663E+04  1.048021E+01 -7.847607E+02  3.755648E+01  6.040958E+02  3.654476E-05
        62   8 -2.376069E+04  2.916699E+01 -1.359311E+03  7.938302E+01  1.275782E+03  1.631342E-04
        62   9 -2.380664E+04  3.012199E+01 -2.375602E+03  1.212096E+02  1.947467E+03  3.802338E-04
        62  10 -2.380663E+04  1.048011E+01 -7.847614E+02 -3.755648E+01 -4.769190E-09 -4.343350E-10
        62  11 -2.376069E+04  2.916656E+01 -1.359315E+03 -7.938302E+01  6.888434E-09  6.188749E-10
        62  12 -2.380665E+04  3.012097E+01 -2.375609E+03 -1.212096E+02  1.506370E-08  1.949764E-09
        62  13 -2.380663E+04  1.048011E+01 -7.847614E+02  1.484474E-10  1.060244E-09 -7.246465E-10
        62  14 -2.376069E+04  2.916654E+01 -1.359315E+03  3.786056E-09 -2.170907E-09  2.113132E-10
        62  15 -2.380665E+04  3.012094E+01 -2.375609E+03  2.577457E-09  4.012024E-10  1.844191E-09
        62  16 -2.380663E+04  1.048011E+01 -7.847614E+02  3.755648E+01  2.879996E-09 -1.015642E-09
        62  17 -2.376069E+04  2.916656E+01 -1.359315E+03  7.938302E+01 -8.508123E-09 -1.955208E-10
        62  18 -2.380665E+04  3.012097E+01 -2.375609E+03  1.212096E+02 -1.680766E-08  1.738349E-09
        62  19 -2.380663E+04  1.048021E+01 -7.847607E+02 -3.755648E+01 -6.040958E+02  3.654439E-05
        62  20 -2.376069E+04  2.916699E+01 -1.359311E+03 -7.938302E+01 -1.275782E+03  1.631345E-04
        62  21 -2.380664E+04  3.012199E+01 -2.375602E+03 -1.212096E+02 -1.947467E+03  3.802326E-04
        62  22 -2.380663E+04  1.048021E+01 -7.847607E+02 -7.720327E-09 -6.040958E+02 -1.195536E-09
        62  23 -2.376069E+04  2.916698E+01 -1.359311E+03  1.913731E-08 -1.275782E+03 -5.601785E-11
        62  24 -2.380664E+04  3.012196E+01 -2.375602E+03  5.851502E-08 -1.947467E+03  1.148359E-09
        62  25 -2.380663E+04  1.048021E+01 -7.847607E+02  3.755648E+01 -6.040958E+02 -3.654681E-05
        62  26 -2.376069E+04  2.916699E+01 -1.359311E+03  7.938302E+01 -1.275782E+03 -1.631346E-04
        62  27 -2.380664E+04  3.012199E+01 -2.375602E+03  1.212096E+02 -1.947467E+03 -3.802304E-04
        63   1 -2.388097E+04  4.995611E+01 -3.131825E+03 -1.834103E+02  2.445484E+03 -7.224835E-04
        63   2 -2.366779E+04  9.469647E+01 -5.452057E+03 -2.547640E+02  5.144290E+03 -2.111077E-03
        63   3 -2.388099E+04 -1.604288E+02 -9.604305E+03 -3.261169E+02  7.843045E+03 -4.120014E-03
        63   4 -2.388097E+04  4.995605E+01 -3.131825E+03  6.281394E-08  2.445484E+03  2.222492E-09
        63   5 -2.366779E+04  9.469635E+01 -5.452057E+03  1.198507E-08  5.144290E+03 -1.173091E-10
        63   6 -2.388099E+04 -1.604290E+02 -9.604305E+03 -1.393883E-08  7.843045E+03  8.069371E-11
        63   7 -2.388097E+04  4.995611E+01 -3.131825E+03  1.834103E+02  2.445484E+03  7.224879E-04
        63   8 -2.366779E+04  9.469647E+01 -5.452057E+03  2.547640E+02  5.144290E+03  2.111077E-03
        63   9 -2.388099E+04 -1.604288E+02 -9.604305E+03  3.261169E+02  7.843045E+03  4.120014E-03
        63  10 -2.388098E+04  4.995451E+01 -3.131837E+03 -1.834103E+02 -1.608438E-08  1.898144E-09
        63  11 -2.366782E+04  9.468936E+01 -5.452107E+03 -2.547640E+02 -8.216842E-09  5.363436E-10
        63  12 -2.388106E+04 -1.604453E+02 -9.604420E+03 -3.261169E+02  2.903807E-09 -3.156357E-10
        63  13 -2.388098E+04  4.995445E+01 -3.131837E+03 -5.445040E-10 -1.078013E-09  1.815107E-09
        63  14 -2.366782E+04  9.468924E+01 -5.452107E+03 -2.209936E-09  2.162348E-09  2.849405E-10
        63  15 -2.388106E+04 -1.604455E+02 -9.604420E+03 -2.798143E-09  1.215921E-09 -2.342888E-10
        63  16 -2.388098E+04  4.995451E+01 -3.131837E+03  1.834103E+02  1.447224E-08  1.731942E-09
        63  17 -2.366782E+04  9.468936E+01 -5.452107E+03  2.547640E+02  6.087028E-09  3.382041E-11
        63  18 -2.388106E+04 -1.604453E+02 -9.604420E+03  3.261169E+02 -2.807254E-09 -1.540354E-10
        63  19 -2.388097E+04  4.995611E+01 -3.131825E+03 -1.834103E+02 -2.445484E+03  7.224873E-04
        63  20 -2.366779E+04  9.469647E+01 -5.452057E+03 -2.547640E+02 -5.144290E+03  2.111079E-03
        63  21 -2.388099E+04 -1.604288E+02 -9.604305E+03 -3.261169E+02 -7.843045E+03  4.120014E-03
        63  22 -2.388097E+04  4.995605E+01 -3.131825E+03 -5.421033E-08 -2.445484E+03  1.408074E-09
        63  23 -2.366779E+04  9.469635E+01 -5.452057E+03 -2.178982E-08 -5.144290E+03  6.873809E-10
        63  24 -2.388099E+04 -1.604290E+02 -9.604305E+03  1.816903E-08 -7.843045E+03 -5.382963E-10
        63  25 -2.388097E+04  4.995611E+01 -3.131825E+03  1.834103E+02 -2.445484E+03 -7.224845E-04
        63  26 -2.366779E+04  9.469647E+01 -5.452057E+03  2.547640E+02 -5.144290E+03 -2.111077E-03
        63  27 -2.388099E+04 -1.604288E+02 -9.604305E+03  3.261169E+02 -7.843045E+03 -4.120015E-03
        64   1 -2.445037E+04  3.823775E+02 -1.260001E+04 -1.424927E+03  9.802795E+03 -2.250004E-02
        64   2 -2.295597E+04 -1.092462E+02 -2.195432E+04  4.093128E+02  2.077412E+04  1.369675E-02
        64   3 -2.445016E+04 -6.842002E+03 -4.001107E+04  2.243594E+03  3.174545E+04  1.147270E-01
        64   4 -2.445038E+04  3.823736E+02 -1.260001E+04  4.744287E-09  9.802795E+03  5.073786E-11
        64   5 -2.295597E+04 -1.092466E+02 -2.195432E+04 -3.014034E-09  2.077412E+04 -9.428377E-10
        64   6 -2.445017E+04 -6.842011E+03 -4.001107E+04  6.324535E-09  3.174545E+04 -5.257000E-10
        64   7 -2.445037E+04  3.823775E+02 -1.260001E+04  1.424927E+03  9.802795E+03  2.250005E-02
        64   8 -2.295597E+04 -1.092462E+02 -2.195432E+04 -4.093128E+02  2.077412E+04 -1.369676E-02
        64   9 -2.445016E+04 -6.842002E+03 -4.001107E+04 -2.243594E+03  3.174545E+04 -1.147270E-01
        64  10 -2.445048E+04  3.823517E+02 -1.260019E+04 -1.424927E+03 -1.285822E-09 -5.977316E-10
        64  11 -2.295643E+04 -1.093621E+02 -2.195513E+04  4.093128E+02 -9.932722E-10 -5.606521E-10
        64  12 -2.445125E+04 -6.842273E+03 -4.001297E+04  2.243594E+03 -2.616877E-10  2.354519E-10
        64  13 -2.445048E+04  3.823478E+02 -1.260019E+04  5.644041E-09  1.080633E-09 -3.872446E-10
        64  14 -2.295643E+04 -1.093624E+02 -2.195513E+04  6.115148E-09 -5.389985E-10 -7.233653E-10
        64  15 -2.445125E+04 -6.842282E+03 -4.001297E+04 -4.145000E-10  1.211353E-09 -5.590912E-10
        64  16 -2.445048E+04  3.823517E+02 -1.260019E+04  1.424927E+03  1.008107E-09 -1.785933E-10
        64  17 -2.295643E+04 -1.093621E+02 -2.195513E+04 -4.093128E+02  1.677579E-10 -8.946810E-10
        64  18 -2.445125E+04 -6.842273E+03 -4.001297E+04 -2.243594E+03 -1.765588E-09 -1.357944E-09
        64  19 -2.445037E+04  3.823775E+02 -1.260001E+04 -1.424927E+03 -9.802795E+03  2.250004E-02
        64  20 -2.295597E+04 -1.092462E+02 -2.195432E+04  4.093128E+02 -2.077412E+04 -1.369675E-02
        64  21 -2.445016E+04 -6.842002E+03 -4.001107E+04  2.243594E+03 -3.174545E+04 -1.147270E-01
        64  22 -2.445038E+04  3.823736E+02 -1.260001E+04  1.085056E-08 -9.802795E+03 -8.253966E-10
        64  23 -2.295597E+04 -1.092466E+02 -2.195432E+04  2.858008E-09 -2.077412E+04 -5.026796E-10
        64  24 -2.445017E+04 -6.842011E+03 -4.001107E+04  3.077400E-09 -3.174545E+04 -5.889485E-10
        64  25 -2.445037E+04  3.823775E+02 -1.260001E+04  1.424927E+03 -9.802795E+03 -2.250005E-02
        64  26 -2.295597E+04 -1.092462E+02 -2.195432E+04 -4.093128E+02 -2.077412E+04  1.369675E-02
        64  27 -2.445016E+04 -6.842002E+03 -4.001107E+04 -2.243594E+03 -3.174545E+04  1.147270E-01
        65   1 -3.269529E+04  5.539239E+03 -5.104916E+04 -2.086715E+04  3.872271E+04 -1.301591E+00
        65   2 -1.264549E+04 -1.122276E+04 -8.923191E+04  3.321353E+04  8.560028E+04  4.579528E+00
        65   3 -3.268692E+04 -1.639562E+05 -1.919201E+05  8.729156E+04  1.324781E+05  1.862742E+01
        65   4 -3.269575E+04  5.538421E+03 -5.104928E+04  5.034212E-09  3.872271E+04 -1.343856E-10
        65   5 -1.264667E+04 -1.122483E+04 -8.923221E+04 -5.096616E-09  8.560028E+04 -1.076347E-10
        65   6 -3.269510E+04 -1.639705E+05 -1.919221E+05  2.676461E-09  1.324781E+05 -4.713567E-10
        65   7 -3.269529E+04  5.539239E+03 -5.104916E+04  2.086715E+04  3.872271E+04  1.301591E+00
        65   8 -1.264549E+04 -1.122276E+04 -8.923191E+04 -3.321353E+04  8.560028E+04 -4.579528E+00
        65   9 -3.268692E+04 -1.639562E+05 -1.919201E+05 -8.729156E+04  1.324781E+05 -1.862742E+01
        65  10 -3.269690E+04  5.538837E+03 -5.105198E+04 -2.086715E+04 -5.759570E-11  2.145810E-10
        65  11 -1.265336E+04 -1.122473E+04 -8.924568E+04  3.321353E+04 -1.787788E-09 -4.973899E-10
        65  12 -3.270577E+04 -1.639609E+05 -1.919531E+05  8.729155E+04  1.530994E-10 -2.439199E-10
        65  13 -3.269737E+04  5.538018E+03 -5.105210E+04  1.892127E-09 -1.106014E-09 -3.205376E-10
        65  14 -1.265454E+04 -1.122680E+04 -8.924598E+04 -1.818090E-09 -5.324846E-10 -8.091182E-11
        65  15 -3.271395E+04 -1.639752E+05 -1.919551E+05 -4.457333E-09 -1.620599E-09  5.443719E-12
        65  16 -3.269690E+04  5.538837E+03 -5.105198E+04  2.086715E+04 -7.340395E-10 -8.727222E-10
        65  17 -1.265336E+04 -1.122473E+04 -8.924568E+04 -3.321353E+04  2.602337E-09  2.028431E-10
        65  18 -3.270577E+04 -1.639609E+05 -1.919531E+05 -8.729155E+04 -6.294691E-11  3.170175E-10
        65  19 -3.269529E+04  5.539239E+03 -5.104916E+04 -2.086715E+04 -3.872271E+04  1.301591E+00
        65  20 -1.264549E+04 -1.122276E+04 -8.923191E+04  3.321353E+04 -8.560028E+04 -4.579528E+00
        65  21 -3.268692E+04 -1.639562E+05 -1.919201E+05  8.729156E+04 -1.324781E+05 -1.862742E+01
        65  22 -3.269575E+04  5.538421E+03 -5.104928E+04  4.138767E-09 -3.872271E+04 -5.022666E-10
        65  23 -1.264667E+04 -1.122483E+04 -8.923221E+04  3.617058E-09 -8.560028E+04 -5.883874E-11
        65  24 -3.269510E+04 -1.639705E+05 -1.919221E+05  3.899859E-09 -1.324781E+05  2.836427E-10
        65  25 -3.269529E+04  5.539239E+03 -5.104916E+04  2.086715E+04 -3.872271E+04 -1.301591E+00
        65  26 -1.264549E+04 -1.122276E+04 -8.923191E+04 -3.321353E+04 -8.560028E+04  4.579528E+00
        65  27 -3.268692E+04 -1.639562E+05 -1.919201E+05 -8.729156E+04 -1.324781E+05  1.862742E+01
        66   1  1.312480E+05  5.381702E+05  1.301785E+05 -5.400879E+04  6.187066E+03  3.323339E+04
        66   2  9.974152E+04  4.722998E+05  9.573145E+04 -3.901421E+04  1.937794E+04  1.472524E+04
        66   3  8.281076E+04  4.125139E+05  7.697778E+04 -4.445364E+04  2.004617E+04 -3.781608E+03
        66   4  1.453453E+04  6.751536E+04  1.710282E+04 -4.618523E+04  6.190246E+03  1.127504E+04
        66   5  9.709970E+02  6.570747E+04  8.348752E+03 -3.596958E+04  1.938062E+04  6.906020E+03
        66   6 -4.648607E+02  6.753138E+04  5.477625E+03 -4.618815E+04  2.004494E+04  2.536431E+03
        66   7 -1.021945E+05 -4.029357E+05 -9.598680E+04 -3.836761E+04  6.192876E+03 -1.066674E+04
        66   8 -9.781030E+04 -3.407294E+05 -7.904339E+04 -3.292696E+04  1.938324E+04 -9.081580E+02
        66   9 -8.374800E+04 -2.773384E+05 -6.602886E+04 -4.792167E+04  2.004369E+04  8.851022E+03
        66  10  1.312476E+05  5.381690E+05  1.301764E+05 -5.400896E+04  1.005173E-10  4.190056E-10
        66  11  9.974106E+04  4.722995E+05  9.573034E+04 -3.901444E+04  2.199364E-10 -1.798101E-10
        66  12  8.281033E+04  4.125138E+05  7.697700E+04 -4.445358E+04 -2.128191E-09 -1.464639E-09
        66  13  1.453446E+04  6.751521E+04  1.710251E+04 -4.618529E+04  1.039650E-10 -1.149216E-12
        66  14  9.705808E+02  6.570732E+04  8.347957E+03 -3.596969E+04  1.022150E-09  7.866296E-11
        66  15 -4.652939E+02  6.753126E+04  5.476857E+03 -4.618819E+04  6.479771E-10 -4.474022E-10
        66  16 -1.021946E+05 -4.029358E+05 -9.598708E+04 -3.836755E+04 -1.704862E-10 -4.228099E-10
        66  17 -9.781071E+04 -3.407295E+05 -7.904410E+04 -3.292695E+04  1.023099E-09  3.384183E-10
        66  18 -8.374845E+04 -2.773386E+05 -6.602977E+04 -4.792181E+04  7.674316E-10  1.787445E-09
        66  19  1.312480E+05  5.381702E+05  1.301785E+05 -5.400879E+04 -6.187066E+03 -3.323339E+04
        66  20  9.974152E+04  4.722998E+05  9.573145E+04 -3.901421E+04 -1.937794E+04 -1.472524E+04
        66  21  8.281076E+04  4.125139E+05  7.697778E+04 -4.445364E+04 -2.004617E+04  3.781608E+03
        66  22  1.453453E+04  6.751536E+04  1.710282E+04 -4.618523E+04 -6.190246E+03 -1.127504E+04
        66  23  9.709970E+02  6.570747E+04  8.348752E+03 -3.596958E+04 -1.938062E+04 -6.906020E+03
        66  24 -4.648607E+02  6.753138E+04  5.477625E+03 -4.618815E+04 -2.004494E+04 -2.536431E+03
        66  25 -1.021945E+05 -4.029357E+05 -9.598680E+04 -3.836761E+04 -6.192876E+03  1.066674E+04
        66  26 -9.781030E+04 -3.407294E+05 -7.904339E+04 -3.292696E+04 -1.938324E+04  9.081580E+02
        66  27 -8.374800E+04 -2.773384E+05 -6.602886E+04 -4.792167E+04 -2.004369E+04 -8.851022E+03
        67   1  7.266027E+04  3.652952E+05  6.687528E+04 -4.676287E+04  1.709493E+04 -1.449021E+03
        67   2  5.689439E+04  3.022500E+05  5.291076E+04 -3.586085E+04  1.398062E+04 -4.279492E+03
        67   3  4.249897E+04  2.399135E+05  4.112936E+04 -4.601845E+04  1.025041E+04 -7.110806E+03
        67   4  5.810225E+02  6.686039E+04  4.839435E+03 -4.632659E+04  1.709436E+04  1.718654E+03
        67   5  4.098815E+01  6.657275E+04  4.269987E+03 -3.579653E+04  1.397934E+04 -4.161226E+02
        67   6  7.512000E+02  6.686954E+04  5.401261E+03 -4.632654E+04  1.024831E+04 -2.552017E+03
        67   7 -7.150389E+04 -2.314901E+05 -5.720125E+04 -4.589052E+04  1.709378E+04  4.884833E+03
        67   8 -5.681592E+04 -1.690518E+05 -4.437373E+04 -3.573222E+04  1.397806E+04  3.445806E+03
        67   9 -4.099845E+04 -1.061459E+05 -3.032837E+04 -4.663454E+04  1.024621E+04  2.005523E+03
        67  10  7.265996E+04  3.652951E+05  6.687473E+04 -4.676285E+04 -1.628858E-09  1.108539E-09
        67  11  5.689418E+04  3.022499E+05  5.291036E+04 -3.586080E+04 -9.455994E-11  1.038120E-09
        67  12  4.249884E+04  2.399134E+05  4.112906E+04 -4.601839E+04 -8.899670E-10  1.193387E-10
        67  13  5.807079E+02  6.686031E+04  4.838880E+03 -4.632662E+04 -1.060592E-09  8.546222E-13
        67  14  4.077824E+01  6.657270E+04  4.269619E+03 -3.579652E+04 -3.452270E-10  1.880017E-10
        67  15  7.510854E+02  6.686950E+04  5.401052E+03 -4.632652E+04 -2.080539E-09 -7.438630E-10
        67  16 -7.150421E+04 -2.314902E+05 -5.720185E+04 -4.589058E+04 -5.483108E-10 -1.099142E-09
        67  17 -5.681613E+04 -1.690519E+05 -4.437412E+04 -3.573226E+04  4.415972E-10 -6.131900E-10
        67  18 -4.099857E+04 -1.061460E+05 -3.032858E+04 -4.663456E+04  2.527261E-10  4.153423E-10
        67  19  7.266027E+04  3.652952E+05  6.687528E+04 -4.676287E+04 -1.709493E+04  1.449021E+03
        67  20  5.689439E+04  3.022500E+05  5.291076E+04 -3.586085E+04 -1.398062E+04  4.279492E+03
        67  21  4.249897E+04  2.399135E+05  4.112936E+04 -4.601845E+04 -1.025041E+04  7.110806E+03
        67  22  5.810225E+02  6.686039E+04  4.839435E+03 -4.632659E+04 -1.709436E+04 -1.718654E+03
        67  23  4.098815E+01  6.657275E+04  4.269987E+03 -3.579653E+04 -1.397934E+04  4.161226E+02
        67  24  7.512000E+02  6.686954E+04  5.401261E+03 -4.632654E+04 -1.024831E+04  2.552017E+03
        67  25 -7.150389E+04 -2.314901E+05 -5.720125E+04 -4.589052E+04 -1.709378E+04 -4.884833E+03
        67  26 -5.681592E+04 -1.690518E+05 -4.437373E+04 -3.573222E+04 -1.397806E+04 -3.445806E+03
        67  27 -4.099845E+04 -1.061459E+05 -3.032837E+04 -4.663454E+04 -1.024621E+04 -2.005523E+03
        68   1  3.001670E+04  1.945850E+05  3.227023E+04 -4.861499E+04  7.858189E+03 -8.006839E+03
        68   2  1.670647E+04  1.297788E+05  2.312292E+04 -3.217614E+04  4.099953E+03 -1.270478E+04
        68   3  1.813649E+04  6.925095E+04  2.071328E+04 -3.679367E+04  8.572732E+02 -1.740225E+04
        68   4 -5.454320E+02  6.771473E+04  6.324715E+03 -4.632769E+04  7.855866E+03 -3.472703E+03
        68   5  1.251714E+03  6.552858E+04  1.006890E+04 -3.579509E+04  4.097916E+03 -8.752218E+03
        68   6  1.789049E+04  6.771667E+04  2.095441E+04 -4.631832E+04  8.556243E+02 -1.403169E+04
        68   7 -3.110854E+04 -5.914020E+04 -1.962157E+04 -4.404086E+04  7.853577E+03  1.060523E+03
        68   8 -1.420324E+04  1.282361E+03 -2.985270E+03 -3.941365E+04  4.095833E+03 -4.800058E+03
        68   9  1.764483E+04  6.618262E+04  2.119564E+04 -5.584295E+04  8.538721E+02 -1.066113E+04
        68  10  3.001661E+04  1.945849E+05  3.226999E+04 -4.861494E+04  6.328023E-10  2.022794E-09
        68  11  1.670641E+04  1.297786E+05  2.312259E+04 -3.217610E+04  7.637476E-10  1.381822E-09
        68  12  1.813641E+04  6.925062E+04  2.071271E+04 -3.679366E+04  7.738670E-10 -6.267777E-10
        68  13 -5.455015E+02  6.771470E+04  6.324577E+03 -4.632767E+04 -9.957738E-10  1.073280E-11
        68  14  1.251675E+03  6.552850E+04  1.006872E+04 -3.579506E+04  2.528298E-10  2.518567E-10
        68  15  1.789044E+04  6.771646E+04  2.095404E+04 -4.631831E+04  6.178919E-10 -8.539524E-10
        68  16 -3.110861E+04 -5.914022E+04 -1.962169E+04 -4.404087E+04 -4.725181E-10 -2.004211E-09
        68  17 -1.420327E+04  1.282332E+03 -2.985345E+03 -3.941363E+04 -3.016091E-10 -8.446331E-10
        68  18  1.764480E+04  6.618250E+04  2.119543E+04 -5.584294E+04  6.405529E-10  1.225273E-09
        68  19  3.001670E+04  1.945850E+05  3.227023E+04 -4.861499E+04 -7.858189E+03  8.006839E+03
        68  20  1.670647E+04  1.297788E+05  2.312292E+04 -3.217614E+04 -4.099953E+03  1.270478E+04
        68  21  1.813649E+04  6.925095E+04  2.071328E+04 -3.679367E+04 -8.572732E+02  1.740225E+04
        68  22 -5.454320E+02  6.771473E+04  6.324715E+03 -4.632769E+04 -7.855866E+03  3.472703E+03
        68  23  1.251714E+03  6.552858E+04  1.006890E+04 -3.579509E+04 -4.097916E+03  8.752218E+03
        68  24  1.789049E+04  6.771667E+04  2.095441E+04 -4.631832E+04 -8.556243E+02  1.403169E+04
        68  25 -3.110854E+04 -5.914020E+04 -1.962157E+04 -4.404086E+04 -7.853577E+03 -1.060523E+03
        68  26 -1.420324E+04  1.282361E+03 -2.985270E+03 -3.941365E+04 -4.095833E+03  4.800058E+03
        68  27  1.764483E+04  6.618262E+04  2.119564E+04 -5.584295E+04 -8.538721E+02  1.066113E+04
        69   1  7.920183E+04  3.583435E+04  2.482448E+04  2.338351E+04  5.170848E+03  2.702892E+02
        69   2  7.480840E+04  3.338257E+04  2.114118E+04  2.158904E+04  3.651686E+03 -4.045597E+03
        69   3  6.976312E+04  3.230207E+04  1.956272E+04  2.112449E+04  1.119583E+03 -5.660348E+03
        69   4 -1.673928E+04 -9.626832E+00 -4.299767E+02 -2.593491E+03  2.751737E+02 -1.565710E+03
        69   5 -1.610706E+04 -2.460264E+02 -1.922425E+02 -3.320931E+03  1.609273E+03 -4.811669E+03
        69   6 -1.669171E+04  3.239967E+02 -1.095561E+02 -2.718336E+03  1.930365E+03 -5.356310E+03
        69   7 -1.126704E+05 -3.585265E+04 -2.568482E+04 -2.856659E+04 -4.619615E+03 -3.401381E+03
        69   8 -1.070139E+05 -3.387390E+04 -2.152613E+04 -2.822749E+04 -4.328088E+02 -5.577617E+03
        69   9 -1.031394E+05 -3.165364E+04 -1.978242E+04 -2.655822E+04  2.741027E+03 -5.052317E+03
        69  10  7.920180E+04  3.583435E+04  2.482443E+04  2.338351E+04 -1.022032E-09 -2.057719E-10
        69  11  7.480838E+04  3.338254E+04  2.114112E+04  2.158905E+04  5.868582E-09  8.884973E-10
        69  12  6.976311E+04  3.230204E+04  1.956266E+04  2.112450E+04  1.278294E-09 -5.025518E-10
        69  13 -1.673928E+04 -9.629485E+00 -4.299814E+02 -2.593491E+03  1.898618E-09  6.997121E-10
        69  14 -1.610707E+04 -2.460519E+02 -1.922908E+02 -3.320925E+03  3.406499E-09  1.025322E-09
        69  15 -1.669172E+04  3.239649E+02 -1.096171E+02 -2.718327E+03 -5.758610E-09 -1.592340E-09
        69  16 -1.126704E+05 -3.585266E+04 -2.568488E+04 -2.856660E+04  3.557886E-09  1.594337E-09
        69  17 -1.070140E+05 -3.387394E+04 -2.152619E+04 -2.822749E+04  1.137113E-10  1.221384E-09
        69  18 -1.031394E+05 -3.165367E+04 -1.978248E+04 -2.655821E+04 -9.693099E-09 -2.739041E-09
        69  19  7.920183E+04  3.583435E+04  2.482448E+04  2.338351E+04 -5.170848E+03 -2.702892E+02
        69  20  7.480840E+04  3.338257E+04  2.114118E+04  2.158904E+04 -3.651686E+03  4.045597E+03
        69  21  6.976312E+04  3.230207E+04  1.956272E+04  2.112449E+04 -1.119583E+03  5.660348E+03
        69  22 -1.673928E+04 -9.626832E+00 -4.299767E+02 -2.593491E+03 -2.751737E+02  1.565710E+03
        69  23 -1.610706E+04 -2.460264E+02 -1.922425E+02 -3.320931E+03 -1.609273E+03  4.811669E+03
        69  24 -1.669171E+04  3.239967E+02 -1.095561E+02 -2.718336E+03 -1.930365E+03  5.356310E+03
        69  25 -1.126704E+05 -3.585265E+04 -2.568482E+04 -2.856659E+04  4.619615E+03  3.401381E+03
        69  26 -1.070139E+05 -3.387390E+04 -2.152613E+04 -2.822749E+04  4.328088E+02  5.577617E+03
        69  27 -1.031394E+05 -3.165364E+04 -1.978242E+04 -2.655822E+04 -2.741027E+03  5.052317E+03
        70   1  6.622954E+04  3.096645E+04  1.887810E+04  2.013804E+04  1.737232E+03 -5.026250E+03
        70   2  6.221629E+04  2.866528E+04  1.774658E+04  1.819276E+04  1.578052E+03 -4.931981E+03
        70   3  5.702769E+04  2.757072E+04  1.669875E+04  1.761804E+04  1.370508E+03 -4.708850E+03
        70   4 -1.670057E+04  3.209718E+02 -8.842633E+01 -2.677111E+03  1.811780E+03 -4.998351E+03
        70   5 -1.609828E+04 -2.607677E+02 -5.468312E+01 -3.365378E+03  1.788720E+03 -4.853014E+03
        70   6 -1.669822E+04  3.371226E+02 -4.505731E+01 -2.683138E+03  1.717293E+03 -4.578806E+03
        70   7 -9.962360E+04 -3.032393E+04 -1.905536E+04 -2.548943E+04  1.886317E+03 -4.970457E+03
        70   8 -9.440615E+04 -2.918615E+04 -1.785620E+04 -2.492089E+04  1.999357E+03 -4.774058E+03
        70   9 -9.041782E+04 -2.689574E+04 -1.678899E+04 -2.298188E+04  2.064029E+03 -4.448781E+03
        70  10  6.622953E+04  3.096642E+04  1.887805E+04  2.013805E+04 -7.856518E-09 -2.987868E-09
        70  11  6.221628E+04  2.866525E+04  1.774653E+04  1.819277E+04 -4.967482E-09 -4.054884E-10
        70  12  5.702769E+04  2.757069E+04  1.669871E+04  1.761805E+04 -2.250480E-09 -3.305538E-11
        70  13 -1.670058E+04  3.209441E+02 -8.847945E+01 -2.677104E+03 -7.792546E-09 -2.389696E-09
        70  14 -1.609829E+04 -2.607938E+02 -5.473340E+01 -3.365371E+03 -4.031474E-09 -9.481072E-10
        70  15 -1.669823E+04  3.370993E+02 -4.510225E+01 -2.683132E+03 -8.342005E-10  1.507686E-10
        70  16 -9.962361E+04 -3.032395E+04 -1.905541E+04 -2.548942E+04 -4.473541E-09 -1.829236E-09
        70  17 -9.440616E+04 -2.918617E+04 -1.785625E+04 -2.492088E+04 -2.852863E-09 -1.006239E-09
        70  18 -9.041783E+04 -2.689576E+04 -1.678903E+04 -2.298187E+04 -9.278037E-10  2.911577E-10
        70  19  6.622954E+04  3.096645E+04  1.887810E+04  2.013804E+04 -1.737232E+03  5.026250E+03
        70  20  6.221629E+04  2.866528E+04  1.774658E+04  1.819276E+04 -1.578052E+03  4.931981E+03
        70  21  5.702769E+04  2.757072E+04  1.669875E+04  1.761804E+04 -1.370508E+03  4.708850E+03
        70  22 -1.670057E+04  3.209718E+02 -8.842633E+01 -2.677111E+03 -1.811780E+03  4.998351E+03
        70  23 -1.609828E+04 -2.607677E+02 -5.468312E+01 -3.365378E+03 -1.788720E+03  4.853014E+03
        70  24 -1.669822E+04  3.371226E+02 -4.505731E+01 -2.683138E+03 -1.717293E+03  4.578806E+03
        70  25 -9.962360E+04 -3.032393E+04 -1.905536E+04 -2.548943E+04 -1.886317E+03  4.970457E+03
        70  26 -9.440615E+04 -2.918615E+04 -1.785620E+04 -2.492089E+04 -1.999357E+03  4.774058E+03
        70  27 -9.041782E+04 -2.689574E+04 -1.678899E+04 -2.298188E+04 -2.064029E+03  4.448781E+03
        71   1  5.354120E+04  2.627700E+04  1.588197E+04  1.665989E+04  1.343111E+03 -4.506276E+03
        71   2  4.954505E+04  2.398221E+04  1.483239E+04  1.470631E+04  1.255492E+03 -4.199014E+03
        71   3  4.434910E+04  2.288691E+04  1.376553E+04  1.412462E+04  1.165525E+03 -3.885580E+03
        71   4 -1.669799E+04  3.370465E+02 -4.633143E+01 -2.681005E+03  1.654807E+03 -4.389386E+03
        71   5 -1.609719E+04 -2.607682E+02 -6.172255E+01 -3.367401E+03  1.573706E+03 -4.079663E+03
        71   6 -1.669760E+04  3.395793E+02 -9.957939E+01 -2.681941E+03  1.490258E+03 -3.763768E+03
        71   7 -8.693318E+04 -2.560290E+04 -1.597522E+04 -2.202016E+04  1.966470E+03 -4.272509E+03
        71   8 -8.173582E+04 -2.450369E+04 -1.495631E+04 -2.143956E+04  1.891888E+03 -3.960325E+03
        71   9 -7.774102E+04 -2.220764E+04 -1.396506E+04 -1.948712E+04  1.814958E+03 -3.641969E+03
        71  10  5.354119E+04  2.627698E+04  1.588193E+04  1.665989E+04 -9.135611E-10 -3.517004E-10
        71  11  4.954505E+04  2.398219E+04  1.483235E+04  1.470631E+04  1.488624E-09  4.088510E-11
        71  12  4.434909E+04  2.288689E+04  1.376550E+04  1.412462E+04  6.079750E-10  1.996038E-10
        71  13 -1.669799E+04  3.370250E+02 -4.637278E+01 -2.680999E+03 -1.200315E-09  6.066132E-10
        71  14 -1.609720E+04 -2.607867E+02 -6.175848E+01 -3.367396E+03  1.504200E-09  3.277755E-10
        71  15 -1.669760E+04  3.395635E+02 -9.961019E+01 -2.681937E+03 -1.664315E-09 -6.230964E-11
        71  16 -8.693319E+04 -2.560292E+04 -1.597526E+04 -2.202015E+04 -9.057074E-10  9.485491E-10
        71  17 -8.173583E+04 -2.450371E+04 -1.495634E+04 -2.143955E+04  7.428100E-10  5.043754E-10
        71  18 -7.774103E+04 -2.220766E+04 -1.396509E+04 -1.948711E+04  4.155424E-10 -5.594951E-10
        71  19  5.354120E+04  2.627700E+04  1.588197E+04  1.665989E+04 -1.343111E+03  4.506276E+03
        71  20  4.954505E+04  2.398221E+04  1.483239E+04  1.470631E+04 -1.255492E+03  4.199014E+03
        71  21  4.434910E+04  2.288691E+04  1.376553E+04  1.412462E+04 -1.165525E+03  3.885580E+03
        71  22 -1.669799E+04  3.370465E+02 -4.633143E+01 -2.681005E+03 -1.654807E+03  4.389386E+03
        71  23 -1.609719E+04 -2.607682E+02 -6.172255E+01 -3.367401E+03 -1.573706E+03  4.079663E+03
        71  24 -1.669760E+04  3.395793E+02 -9.957939E+01 -2.681941E+03 -1.490258E+03  3.763768E+03
        71  25 -8.693318E+04 -2.560290E+04 -1.597522E+04 -2.202016E+04 -1.966470E+03  4.272509E+03
        71  26 -8.173582E+04 -2.450369E+04 -1.495631E+04 -2.143956E+04 -1.891888E+03  3.960325E+03
        71  27 -7.774102E+04 -2.220764E+04 -1.396506E+04 -1.948712E+04 -1.814958E+03  3.641969E+03
        72   1  4.086151E+04  2.159423E+04  1.291428E+04  1.316633E+04  1.119311E+03 -3.699043E+03
        72   2  3.687713E+04  1.929778E+04  1.178522E+04  1.120773E+04  1.119149E+03 -3.349988E+03
        72   3  3.167760E+04  1.819816E+04  1.057076E+04  1.061798E+04  1.118851E+03 -3.000624E+03
        72   4 -1.670094E+04  3.391323E+02 -1.301488E+02 -2.682619E+03  1.442385E+03 -3.577846E+03
        72   5 -1.609271E+04 -2.564484E+02 -2.310165E+02 -3.368061E+03  1.442546E+03 -3.228660E+03
        72   6 -1.669975E+04  3.448012E+02 -4.175253E+02 -2.684576E+03  1.442573E+03 -2.879163E+03
        72   7 -7.425940E+04 -2.091546E+04 -1.317462E+04 -1.853005E+04  1.765422E+03 -3.456663E+03
        72   8 -6.905955E+04 -1.981039E+04 -1.224738E+04 -1.794266E+04  1.765912E+03 -3.107344E+03
        72   9 -6.507494E+04 -1.750845E+04 -1.140602E+04 -1.598624E+04  1.766268E+03 -2.757712E+03
        72  10  4.086151E+04  2.159421E+04  1.291426E+04  1.316633E+04 -8.236711E-10 -3.106125E-10
        72  11  3.687713E+04  1.929777E+04  1.178520E+04  1.120773E+04 -1.641407E-09  2.729847E-10
        72  12  3.167759E+04  1.819815E+04  1.057074E+04  1.061799E+04 -5.939409E-10  7.218886E-10
        72  13 -1.670094E+04  3.391180E+02 -1.301768E+02 -2.682615E+03  1.067561E-10 -4.793021E-10
        72  14 -1.609272E+04 -2.564602E+02 -2.310400E+02 -3.368057E+03  4.587388E-10 -2.996490E-10
        72  15 -1.669975E+04  3.447918E+02 -4.175447E+02 -2.684572E+03 -6.336573E-10  6.125373E-10
        72  16 -7.425940E+04 -2.091548E+04 -1.317464E+04 -1.853004E+04  9.949392E-10 -2.422941E-10
        72  17 -6.905955E+04 -1.981040E+04 -1.224740E+04 -1.794265E+04  1.147013E-09  5.602814E-10
        72  18 -6.507494E+04 -1.750846E+04 -1.140604E+04 -1.598624E+04  3.379227E-10  7.279983E-10
        72  19  4.086151E+04  2.159423E+04  1.291428E+04  1.316633E+04 -1.119311E+03  3.699043E+03
        72  20  3.687713E+04  1.929778E+04  1.178522E+04  1.120773E+04 -1.119149E+03  3.349988E+03
        72  21  3.167760E+04  1.819816E+04  1.057076E+04  1.061798E+04 -1.118851E+03  3.000624E+03
        72  22 -1.670094E+04  3.391323E+02 -1.301488E+02 -2.682619E+03 -1.442385E+03  3.577846E+03
        72  23 -1.609271E+04 -2.564484E+02 -2.310165E+02 -3.368061E+03 -1.442546E+03  3.228660E+03
        72  24 -1.669975E+04  3.448012E+02 -4.175253E+02 -2.684576E+03 -1.442573E+03  2.879163E+03
        72  25 -7.425940E+04 -2.091546E+04 -1.317462E+04 -1.853005E+04 -1.765422E+03  3.456663E+03
        72  26 -6.905955E+04 -1.981039E+04 -1.224738E+04 -1.794266E+04 -1.765912E+03  3.107344E+03
        72  27 -6.507494E+04 -1.750845E+04 -1.140602E+04 -1.598624E+04 -1.766268E+03  2.757712E+03
        73   1  2.818295E+04  1.690090E+04  9.609860E+03  9.652563E+03  1.133286E+03 -2.791711E+03
        73   2  2.424220E+04  1.460198E+04  8.129212E+03  7.682433E+03  1.521136E+03 -2.296539E+03
        73   3  1.902921E+04  1.347672E+04  6.270346E+03  7.066336E+03  1.908956E+03 -1.801339E+03
        73   4 -1.671203E+04  3.428455E+02 -5.572426E+02 -2.689098E+03  1.456945E+03 -2.670268E+03
        73   5 -1.607508E+04 -2.392391E+02 -1.009788E+03 -3.367861E+03  1.844793E+03 -2.175088E+03
        73   6 -1.671044E+04  3.523609E+02 -1.840569E+03 -2.692561E+03  2.232619E+03 -1.679877E+03
        73   7 -6.160470E+04 -1.621495E+04 -1.072440E+04 -1.502987E+04  1.780577E+03 -2.548835E+03
        73   8 -5.639073E+04 -1.508034E+04 -1.014889E+04 -1.441750E+04  2.168428E+03 -2.053645E+03
        73   9 -5.244903E+04 -1.277199E+04 -9.951626E+03 -1.245101E+04  2.556264E+03 -1.558421E+03
        73  10  2.818294E+04  1.690089E+04  9.609843E+03  9.652565E+03  2.945677E-09  1.838899E-09
        73  11  2.424219E+04  1.460198E+04  8.129198E+03  7.682436E+03 -3.316849E-09 -3.148439E-09
        73  12  1.902921E+04  1.347672E+04  6.270333E+03  7.066338E+03 -1.598155E-08 -7.980125E-09
        73  13 -1.671203E+04  3.428373E+02 -5.572600E+02 -2.689094E+03  2.238717E-10  9.150923E-10
        73  14 -1.607509E+04 -2.392451E+02 -1.009804E+03 -3.367858E+03  1.742707E-09 -5.968524E-10
        73  15 -1.671045E+04  3.523565E+02 -1.840583E+03 -2.692558E+03 -2.794704E-09 -2.771161E-09
        73  16 -6.160471E+04 -1.621496E+04 -1.072442E+04 -1.502987E+04 -1.362649E-09 -5.196379E-10
        73  17 -5.639074E+04 -1.508035E+04 -1.014891E+04 -1.441750E+04  5.930681E-09  2.936616E-09
        73  18 -5.244904E+04 -1.277199E+04 -9.951643E+03 -1.245100E+04  9.417147E-09  2.526302E-09
        73  19  2.818295E+04  1.690090E+04  9.609860E+03  9.652563E+03 -1.133286E+03  2.791711E+03
        73  20  2.424220E+04  1.460198E+04  8.129212E+03  7.682433E+03 -1.521136E+03  2.296539E+03
        73  21  1.902921E+04  1.347672E+04  6.270346E+03  7.066336E+03 -1.908956E+03  1.801339E+03
        73  22 -1.671203E+04  3.428455E+02 -5.572426E+02 -2.689098E+03 -1.456945E+03  2.670268E+03
        73  23 -1.607508E+04 -2.392391E+02 -1.009788E+03 -3.367861E+03 -1.844793E+03  2.175088E+03
        73  24 -1.671044E+04  3.523609E+02 -1.840569E+03 -2.692561E+03 -2.232619E+03  1.679877E+03
        73  25 -6.160470E+04 -1.621495E+04 -1.072440E+04 -1.502987E+04 -1.780577E+03  2.548835E+03
        73  26 -5.639073E+04 -1.508034E+04 -1.014889E+04 -1.441750E+04 -2.168428E+03  2.053645E+03
        73  27 -5.244903E+04 -1.277199E+04 -9.951626E+03 -1.245101E+04 -2.556264E+03  1.558421E+03
        74   1  1.552354E+04  1.215352E+04  4.834295E+03  6.026204E+03  2.197882E+03 -1.489367E+03
        74   2  1.173585E+04  9.892223E+03  1.807694E+03  4.101865E+03  4.306467E+03 -3.483538E+02
        74   3  6.337437E+03  8.470903E+03 -2.958369E+03  3.529584E+03  6.415084E+03  7.924449E+02
        74   4 -1.677344E+04  3.649403E+02 -2.455287E+03 -2.725573E+03  2.521603E+03 -1.367878E+03
        74   5 -1.598525E+04 -1.770207E+02 -4.453612E+03 -3.355800E+03  4.629886E+03 -2.269717E+02
        74   6 -1.680776E+04  1.210167E+02 -8.191218E+03 -2.633997E+03  6.738212E+03  9.137240E+02
        74   7 -4.906937E+04 -1.142356E+04 -9.744933E+03 -1.147693E+04  2.845306E+03 -1.246395E+03
        74   8 -4.370548E+04 -1.024618E+04 -1.071494E+04 -1.081314E+04  4.953289E+03 -1.055956E+02
        74   9 -3.995227E+04 -8.228782E+03 -1.342406E+04 -8.797331E+03  7.061325E+03  1.034998E+03
        74  10  1.552353E+04  1.215352E+04  4.834281E+03  6.026207E+03  1.015600E-08  2.745727E-09
        74  11  1.173583E+04  9.892218E+03  1.807659E+03  4.101866E+03  6.432797E-09  3.093208E-09
        74  12  6.337392E+03  8.470891E+03 -2.958448E+03  3.529580E+03 -2.265793E-09  8.725560E-10
        74  13 -1.677345E+04  3.649366E+02 -2.455302E+03 -2.725570E+03 -1.836473E-09 -2.459485E-09
        74  14 -1.598527E+04 -1.770265E+02 -4.453652E+03 -3.355799E+03 -9.389423E-10 -6.193338E-11
        74  15 -1.680781E+04  1.210036E+02 -8.191304E+03 -2.634002E+03  2.081529E-09  3.021347E-10
        74  16 -4.906938E+04 -1.142357E+04 -9.744951E+03 -1.147693E+04 -1.631774E-08 -8.236193E-09
        74  17 -4.370551E+04 -1.024619E+04 -1.071499E+04 -1.081314E+04 -4.792134E-09 -4.396560E-09
        74  18 -3.995233E+04 -8.228796E+03 -1.342416E+04 -8.797337E+03  2.118927E-09  5.131956E-10
        74  19  1.552354E+04  1.215352E+04  4.834295E+03  6.026204E+03 -2.197882E+03  1.489367E+03
        74  20  1.173585E+04  9.892223E+03  1.807694E+03  4.101865E+03 -4.306467E+03  3.483538E+02
        74  21  6.337437E+03  8.470903E+03 -2.958369E+03  3.529584E+03 -6.415084E+03 -7.924449E+02
        74  22 -1.677344E+04  3.649403E+02 -2.455287E+03 -2.725573E+03 -2.521603E+03  1.367878E+03
        74  23 -1.598525E+04 -1.770207E+02 -4.453612E+03 -3.355800E+03 -4.629886E+03  2.269717E+02
        74  24 -1.680776E+04  1.210167E+02 -8.191218E+03 -2.633997E+03 -6.738212E+03 -9.137240E+02
        74  25 -4.906937E+04 -1.142356E+04 -9.744933E+03 -1.147693E+04 -2.845306E+03  1.246395E+03
        74  26 -4.370548E+04 -1.024618E+04 -1.071494E+04 -1.081314E+04 -4.953289E+03  1.055956E+02
        74  27 -3.995227E+04 -8.228782E+03 -1.342406E+04 -8.797331E+03 -7.061325E+03 -1.034998E+03
        75   1  3.192702E+03  6.864332E+03 -6.433966E+03  1.219008E+03  7.875145E+03  1.544405E+03
        75   2 -7.723883E+02  5.728587E+03 -1.627935E+04  1.471835E+03  1.769679E+04  5.578687E+03
        75   3 -9.664696E+03 -8.328761E+02 -3.527881E+04  4.365465E+03  2.752040E+04  9.607726E+03
        75   4 -1.727804E+04  6.194535E+02 -1.084554E+04 -3.057173E+03  8.199734E+03  1.666253E+03
        75   5 -1.530655E+04 -1.576139E+02 -1.966133E+04 -3.067799E+03  1.801556E+04  5.698317E+03
        75   6 -1.826107E+04 -6.359346E+03 -3.762665E+04 -4.376053E+02  2.783343E+04  9.725091E+03
        75   7 -3.774849E+04 -5.625463E+03 -1.525717E+04 -7.333266E+03  8.524313E+03  1.788099E+03
        75   8 -2.984055E+04 -6.043807E+03 -2.304334E+04 -7.607345E+03  1.833433E+04  5.817943E+03
        75   9 -2.685735E+04 -1.188575E+04 -3.997450E+04 -5.240601E+03  2.814645E+04  9.842450E+03
        75  10  3.192635E+03  6.864313E+03 -6.434088E+03  1.218998E+03  1.959930E-08  9.294592E-09
        75  11 -7.727329E+02  5.728470E+03 -1.628000E+04  1.471756E+03  7.720588E-09  5.519216E-09
        75  12 -9.665534E+03 -8.331786E+02 -3.528040E+04  4.365252E+03 -1.386538E-08 -4.791244E-09
        75  13 -1.727811E+04  6.194325E+02 -1.084567E+04 -3.057184E+03  2.467609E-09  1.952156E-09
        75  14 -1.530691E+04 -1.577359E+02 -1.966200E+04 -3.067881E+03  7.224293E-09  4.983254E-09
        75  15 -1.826193E+04 -6.359656E+03 -3.762828E+04 -4.378233E+02  1.663252E-09  1.866879E-09
        75  16 -3.774857E+04 -5.625486E+03 -1.525731E+04 -7.333278E+03 -1.364129E-08 -3.747173E-09
        75  17 -2.984092E+04 -6.043933E+03 -2.304404E+04 -7.607431E+03  8.346675E-09  4.809121E-09
        75  18 -2.685823E+04 -1.188607E+04 -3.997617E+04 -5.240824E+03  1.830438E-08  8.952122E-09
        75  19  3.192702E+03  6.864332E+03 -6.433966E+03  1.219008E+03 -7.875145E+03 -1.544405E+03
        75  20 -7.723883E+02  5.728587E+03 -1.627935E+04  1.471835E+03 -1.769679E+04 -5.578687E+03
        75  21 -9.664696E+03 -8.328761E+02 -3.527881E+04  4.365465E+03 -2.752040E+04 -9.607726E+03
        75  22 -1.727804E+04  6.194535E+02 -1.084554E+04 -3.057173E+03 -8.199734E+03 -1.666253E+03
        75  23 -1.530655E+04 -1.576139E+02 -1.966133E+04 -3.067799E+03 -1.801556E+04 -5.698317E+03
        75  24 -1.826107E+04 -6.359346E+03 -3.762665E+04 -4.376053E+02 -2.783343E+04 -9.725091E+03
        75  25 -3.774849E+04 -5.625463E+03 -1.525717E+04 -7.333266E+03 -8.524313E+03 -1.788099E+03
        75  26 -2.984055E+04 -6.043807E+03 -2.304334E+04 -7.607345E+03 -1.833433E+04 -5.817943E+03
        75  27 -2.685735E+04 -1.188575E+04 -3.997450E+04 -5.240601E+03 -2.814645E+04 -9.842450E+03
        76   1 -2.754863E+03 -7.213682E+03 -4.660419E+04 -2.307028E+04  3.329982E+04  1.198748E+04
        76   2 -2.519357E+04  1.647955E+04 -8.652325E+04  2.770297E+04  7.964863E+04  2.969738E+04
        76   3 -1.050039E+05 -9.226109E+04 -1.975150E+05  1.136815E+05  1.260377E+05  4.730110E+04
        76   4 -2.433212E+04  5.023118E+03 -4.813529E+04 -8.064863E+03  3.364325E+04  1.211776E+04
        76   5 -6.439696E+03 -5.329358E+03 -8.699936E+04  3.067985E+03  7.987343E+04  2.977710E+04
        76   6 -4.590288E+04 -1.480996E+05 -1.968420E+05  4.940924E+04  1.261469E+05  4.732214E+04
        76   7 -4.590795E+04  1.726152E+04 -4.966612E+04  6.940077E+03  3.398666E+04  1.224805E+04
        76   8  1.231632E+04 -2.713437E+04 -8.747493E+04 -2.156723E+04  8.009825E+04  2.985679E+04
        76   9  1.321480E+04 -2.039109E+05 -1.961649E+05 -1.486619E+04  1.262562E+05  4.734314E+04
        76  10 -2.756092E+03 -7.214134E+03 -4.660655E+04 -2.307060E+04 -1.924438E-09 -1.137492E-09
        76  11 -2.520062E+04  1.647690E+04 -8.653683E+04  2.770107E+04 -9.685115E-10  6.367598E-11
        76  12 -1.050215E+05 -9.226776E+04 -1.975490E+05  1.136767E+05 -4.404223E-12 -2.336224E-10
        76  13 -2.433338E+04  5.022656E+03 -4.813769E+04 -8.065191E+03 -8.071254E-11 -7.400885E-10
        76  14 -6.446786E+03 -5.332023E+03 -8.701302E+04  3.066069E+03  4.543504E-10  6.997361E-10
        76  15 -4.592058E+04 -1.481063E+05 -1.968761E+05  4.940443E+04 -1.731595E-09 -1.280472E-10
        76  16 -4.590923E+04  1.726104E+04 -4.966857E+04  6.939742E+03  1.517397E-09  1.682524E-09
        76  17  1.230919E+04 -2.713705E+04 -8.748866E+04 -2.156915E+04  7.208462E-10  7.407057E-10
        76  18  1.319708E+04 -2.039176E+05 -1.961991E+05 -1.487100E+04  1.052940E-09 -9.773519E-11
        76  19 -2.754863E+03 -7.213682E+03 -4.660419E+04 -2.307028E+04 -3.329982E+04 -1.198748E+04
        76  20 -2.519357E+04  1.647955E+04 -8.652325E+04  2.770297E+04 -7.964863E+04 -2.969738E+04
        76  21 -1.050039E+05 -9.226109E+04 -1.975150E+05  1.136815E+05 -1.260377E+05 -4.730110E+04
        76  22 -2.433212E+04  5.023118E+03 -4.813529E+04 -8.064863E+03 -3.364325E+04 -1.211776E+04
        76  23 -6.439696E+03 -5.329358E+03 -8.699936E+04  3.067985E+03 -7.987343E+04 -2.977710E+04
        76  24 -4.590288E+04 -1.480996E+05 -1.968420E+05  4.940924E+04 -1.261469E+05 -4.732214E+04
        76  25 -4.590795E+04  1.726152E+04 -4.966612E+04  6.940077E+03 -3.398666E+04 -1.224805E+04
        76  26  1.231632E+04 -2.713437E+04 -8.747493E+04 -2.156723E+04 -8.009825E+04 -2.985679E+04
        76  27  1.321480E+04 -2.039109E+05 -1.961649E+05 -1.486619E+04 -1.262562E+05 -4.734314E+04
        77   1  2.133512E+05  1.971457E+06  2.339220E+05 -1.057601E+05  3.668389E+03  1.283430E+05
        77   2  7.457848E+04  1.925706E+06  1.332352E+05 -5.229944E+04  1.185472E+04  7.615487E+04
        77   3  4.827452E+04  1.914837E+06  9.457212E+04 -6.897197E+03  1.304704E+04  2.396894E+04
        77   4  1.465588E+05  1.701357E+06  1.695912E+05 -2.287385E+04  3.686405E+03  1.134402E+05
        77   5  1.641628E+04  1.684746E+06  8.294496E+04 -1.885457E+04  1.185982E+04  7.017630E+04
        77   6 -2.788012E+03  1.701481E+06  5.215242E+04 -2.289018E+04  1.304628E+04  2.691155E+04
        77   7  7.978713E+04  1.431339E+06  1.052598E+05  5.997629E+04  3.700460E+03  9.854376E+04
        77   8 -4.174541E+04  1.443844E+06  3.265222E+04  1.457715E+04  1.186427E+04  6.420001E+04
        77   9 -5.385235E+04  1.488169E+06  9.730626E+03 -3.887756E+04  1.304537E+04  2.985316E+04
        77  10  2.133467E+05  1.971439E+06  2.338911E+05 -1.057605E+05  1.559230E-09  1.518248E-09
        77  11  7.457678E+04  1.925700E+06  1.332241E+05 -5.230016E+04  2.421677E-10 -7.451439E-10
        77  12  4.827418E+04  1.914837E+06  9.457072E+04 -6.897448E+03  1.384666E-09 -3.348120E-09
        77  13  1.465554E+05  1.701343E+06  1.695671E+05 -2.287418E+04  1.420209E-09  1.444666E-10
        77  14  1.641481E+04  1.684741E+06  8.293547E+04 -1.885524E+04  2.240149E-09  7.289349E-11
        77  15 -2.788389E+03  1.701480E+06  5.215074E+04 -2.289046E+04  1.337298E-10  2.175015E-10
        77  16  7.978452E+04  1.431328E+06  1.052416E+05  5.997600E+04  1.782442E-10 -1.548259E-09
        77  17 -4.174666E+04  1.443839E+06  3.264423E+04  1.457654E+04  6.655315E-11  8.059709E-10
        77  18 -5.385278E+04  1.488168E+06  9.728636E+03 -3.887787E+04 -1.991319E-09  3.190700E-09
        77  19  2.133512E+05  1.971457E+06  2.339220E+05 -1.057601E+05 -3.668389E+03 -1.283430E+05
        77  20  7.457848E+04  1.925706E+06  1.332352E+05 -5.229944E+04 -1.185472E+04 -7.615487E+04
        77  21  4.827452E+04  1.914837E+06  9.457212E+04 -6.897197E+03 -1.304704E+04 -2.396894E+04
        77  22  1.465588E+05  1.701357E+06  1.695912E+05 -2.287385E+04 -3.686405E+03 -1.134402E+05
        77  23  1.641628E+04  1.684746E+06  8.294496E+04 -1.885457E+04 -1.185982E+04 -7.017630E+04
        77  24 -2.788012E+03  1.701481E+06  5.215242E+04 -2.289018E+04 -1.304628E+04 -2.691155E+04
        77  25  7.978713E+04  1.431339E+06  1.052598E+05  5.997629E+04 -3.700460E+03 -9.854376E+04
        77  26 -4.174541E+04  1.443844E+06  3.265222E+04  1.457715E+04 -1.186427E+04 -6.420001E+04
        77  27 -5.385235E+04  1.488169E+06  9.730626E+03 -3.887756E+04 -1.304537E+04 -2.985316E+04
        78   1  5.160791E+04  1.888414E+06  8.322658E+04 -2.593106E+04  1.178187E+04  1.798087E+04
        78   2  4.000880E+04  1.857957E+06  6.957304E+04 -1.881673E+04  1.044989E+04 -1.128714E+03
        78   3  3.786671E+04  1.832346E+06  7.069893E+04 -2.005869E+04  8.627540E+03 -2.023782E+04
        78   4  5.330338E+03  1.695110E+06  4.475930E+04 -2.295422E+04  1.178198E+04  1.936749E+04
        78   5  5.187903E+02  1.692743E+06  3.700679E+04 -1.877618E+04  1.044964E+04  8.876261E+02
        78   6  5.056820E+03  1.695114E+06  4.360011E+04 -2.295444E+04  8.627051E+03 -1.759258E+04
        78   7 -4.094947E+04  1.501842E+06  6.290172E+03 -1.997833E+04  1.178209E+04  2.075368E+04
        78   8 -3.897287E+04  1.527555E+06  4.439221E+03 -1.873565E+04  1.044939E+04  2.903442E+03
        78   9 -2.775418E+04  1.557899E+06  1.650040E+04 -2.584954E+04  8.626538E+03 -1.494792E+04
        78  10  5.160767E+04  1.888414E+06  8.322571E+04 -2.593123E+04  8.980031E-10  2.967954E-09
        78  11  4.000868E+04  1.857957E+06  6.957284E+04 -1.881672E+04  1.351793E-09  2.344207E-10
        78  12  3.786652E+04  1.832346E+06  7.069802E+04 -2.005855E+04 -4.845515E-10 -3.425678E-09
        78  13  5.330088E+03  1.695110E+06  4.475834E+04 -2.295441E+04  4.253277E-10  1.012432E-10
        78  14  5.186728E+02  1.692743E+06  3.700659E+04 -1.877619E+04  8.673123E-10  8.723109E-11
        78  15  5.056657E+03  1.695113E+06  4.359939E+04 -2.295432E+04  6.291126E-13  1.287875E-10
        78  16 -4.094974E+04  1.501841E+06  6.289104E+03 -1.997852E+04 -1.852894E-09 -3.184649E-09
        78  17 -3.897299E+04  1.527555E+06  4.439000E+03 -1.873567E+04 -2.785940E-10 -3.020355E-10
        78  18 -2.775431E+04  1.557899E+06  1.649984E+04 -2.584944E+04  1.984053E-12  3.095370E-09
        78  19  5.160791E+04  1.888414E+06  8.322658E+04 -2.593106E+04 -1.178187E+04 -1.798087E+04
        78  20  4.000880E+04  1.857957E+06  6.957304E+04 -1.881673E+04 -1.044989E+04  1.128714E+03
        78  21  3.786671E+04  1.832346E+06  7.069893E+04 -2.005869E+04 -8.627540E+03  2.023782E+04
        78  22  5.330338E+03  1.695110E+06  4.475930E+04 -2.295422E+04 -1.178198E+04 -1.936749E+04
        78  23  5.187903E+02  1.692743E+06  3.700679E+04 -1.877618E+04 -1.044964E+04 -8.876261E+02
        78  24  5.056820E+03  1.695114E+06  4.360011E+04 -2.295444E+04 -8.627051E+03  1.759258E+04
        78  25 -4.094947E+04  1.501842E+06  6.290172E+03 -1.997833E+04 -1.178209E+04 -2.075368E+04
        78  26 -3.897287E+04  1.527555E+06  4.439221E+03 -1.873565E+04 -1.044939E+04 -2.903442E+03
        78  27 -2.775418E+04  1.557899E+06  1.650040E+04 -2.584954E+04 -8.626538E+03  1.494792E+04
        79   1  2.547434E+04  1.818759E+06  7.348420E+04 -3.820498E+04  7.546245E+03 -2.718974E+04
        79   2  3.714500E+04  1.774863E+06  9.745544E+04  1.307588E+04  5.120410E+03 -7.024192E+04
        79   3  1.547537E+05  1.763026E+06  1.758863E+05  5.598144E+04  1.366793E+03 -1.132922E+05
        79   4 -2.636386E+03  1.701135E+06  5.037720E+04 -2.296679E+04  7.545026E+03 -2.492582E+04
        79   5  1.564028E+04  1.685197E+06  7.931230E+04 -1.875871E+04  5.122820E+03 -6.628891E+04
        79   6  1.395614E+05  1.701022E+06  1.615382E+05 -2.292520E+04  1.379253E+03 -1.076517E+05
        79   7 -3.074707E+04  1.583524E+06  2.726968E+04 -7.731532E+03  7.543917E+03 -2.266232E+04
        79   8 -5.861122E+03  1.595542E+06  6.116935E+04 -5.058863E+04  5.124826E+03 -6.233646E+04
        79   9  1.243921E+05  1.639036E+06  1.471932E+05 -1.018239E+05  1.390284E+03 -1.020117E+05
        79  10  2.547408E+04  1.818759E+06  7.348270E+04 -3.820482E+04  4.770968E-10  1.770761E-09
        79  11  3.714365E+04  1.774858E+06  9.744615E+04  1.307617E+04  2.769317E-09  2.258957E-10
        79  12  1.547502E+05  1.763012E+06  1.758623E+05  5.598157E+04  3.280227E-10 -2.626403E-09
        79  13 -2.636614E+03  1.701134E+06  5.037593E+04 -2.296664E+04  2.241975E-10  2.066404E-10
        79  14  1.563908E+04  1.685193E+06  7.930402E+04 -1.875843E+04 -5.481309E-11  2.341457E-10
        79  15  1.395583E+05  1.701010E+06  1.615165E+05 -2.292509E+04  2.369869E-09  3.565206E-10
        79  16 -3.074727E+04  1.583524E+06  2.726861E+04 -7.731394E+03 -4.370313E-10 -2.289191E-09
        79  17 -5.862190E+03  1.595538E+06  6.116202E+04 -5.058837E+04  1.604971E-10  4.886576E-11
        79  18  1.243893E+05  1.639025E+06  1.471737E+05 -1.018238E+05  1.567999E-10  2.288965E-09
        79  19  2.547434E+04  1.818759E+06  7.348420E+04 -3.820498E+04 -7.546245E+03  2.718974E+04
        79  20  3.714500E+04  1.774863E+06  9.745544E+04  1.307588E+04 -5.120410E+03  7.024192E+04
        79  21  1.547537E+05  1.763026E+06  1.758863E+05  5.598144E+04 -1.366793E+03  1.132922E+05
        79  22 -2.636386E+03  1.701135E+06  5.037720E+04 -2.296679E+04 -7.545026E+03  2.492582E+04
        79  23  1.564028E+04  1.685197E+06  7.931230E+04 -1.875871E+04 -5.122820E+03  6.628891E+04
        79  24  1.395614E+05  1.701022E+06  1.615382E+05 -2.292520E+04 -1.379253E+03  1.076517E+05
        79  25 -3.074707E+04  1.583524E+06  2.726968E+04 -7.731532E+03 -7.543917E+03  2.266232E+04
        79  26 -5.861122E+03  1.595542E+06  6.116935E+04 -5.058863E+04 -5.124826E+03  6.233646E+04
        79  27  1.243921E+05  1.639036E+06  1.471932E+05 -1.018239E+05 -1.390284E+03  1.020117E+05
        80   1 -1.422908E+06 -3.186849E+05 -2.676688E+05 -2.314119E+04  5.702736E+04  2.893746E+04
        80   2 -1.270834E+06 -4.501304E+05 -3.007441E+05 -5.983449E+04  6.178449E+04  9.271084E+04
        80   3 -1.079664E+06 -4.274659E+05 -2.982311E+05 -1.515270E+05  6.668562E+04  1.020722E+05
        80   4  6.586525E+05  1.970589E+05  2.317054E+05 -1.248141E+05  1.598255E+05  2.916886E+04
        80   5  6.339878E+05  1.249399E+04  1.076218E+05 -9.712518E+04  1.031837E+05  9.276482E+04
        80   6  6.589100E+05 -7.572270E+03  6.165530E+04 -1.244164E+05  4.668963E+04  1.020253E+05
        80   7  2.744231E+06  7.125340E+05  7.308182E+05 -2.268318E+05  2.629667E+05  2.936622E+04
        80   8  2.542232E+06  4.748874E+05  5.157839E+05 -1.345335E+05  1.447079E+05  9.281375E+04
        80   9  2.400353E+06  4.121326E+05  4.213795E+05 -9.722909E+04  2.663840E+04  1.019766E+05
        80  10 -1.422912E+06 -3.186867E+05 -2.676765E+05 -2.314252E+04 -8.925681E-10  1.745383E-10
        80  11 -1.270841E+06 -4.501407E+05 -3.007675E+05 -5.983910E+04  9.198632E-10  3.246935E-10
        80  12 -1.079672E+06 -4.274783E+05 -2.982591E+05 -1.515325E+05 -2.653560E-09  3.601329E-11
        80  13  6.586248E+05  1.970512E+05  2.316558E+05 -1.248179E+05 -2.027356E-10  3.033299E-10
        80  14  6.339740E+05  1.248189E+04  1.075857E+05 -9.713289E+04 -6.828898E-10  7.016045E-10
        80  15  6.589049E+05 -7.584036E+03  6.163164E+04 -1.244202E+05 -4.683689E-10  7.989266E-11
        80  16  2.744157E+06  7.125146E+05  7.306871E+05 -2.268381E+05  9.162275E-10  4.581022E-10
        80  17  2.542208E+06  4.748725E+05  5.157285E+05 -1.345443E+05 -2.030059E-10  1.006763E-09
        80  18  2.400350E+06  4.121212E+05  4.213586E+05 -9.723127E+04  9.464493E-10  1.716893E-10
        80  19 -1.422908E+06 -3.186849E+05 -2.676688E+05 -2.314119E+04 -5.702736E+04 -2.893746E+04
        80  20 -1.270834E+06 -4.501304E+05 -3.007441E+05 -5.983449E+04 -6.178449E+04 -9.271084E+04
        80  21 -1.079664E+06 -4.274659E+05 -2.982311E+05 -1.515270E+05 -6.668562E+04 -1.020722E+05
        80  22  6.586525E+05  1.970589E+05  2.317054E+05 -1.248141E+05 -1.598255E+05 -2.916886E+04
        80  23  6.339878E+05  1.249399E+04  1.076218E+05 -9.712518E+04 -1.031837E+05 -9.276482E+04
        80  24  6.589100E+05 -7.572270E+03  6.165530E+04 -1.244164E+05 -4.668963E+04 -1.020253E+05
        80  25  2.744231E+06  7.125340E+05  7.308182E+05 -2.268318E+05 -2.629667E+05 -2.936622E+04
        80  26  2.542232E+06  4.748874E+05  5.157839E+05 -1.345335E+05 -1.447079E+05 -9.281375E+04
        80  27  2.400353E+06  4.121326E+05  4.213795E+05 -9.722909E+04 -2.663840E+04 -1.019766E+05
        81   1 -9.628488E+05 -3.819048E+05 -2.864342E+05 -1.237273E+05  4.456658E+04  9.302739E+04
        81   2 -7.948869E+05 -3.483160E+05 -2.708881E+05 -9.687060E+04  3.451347E+04  8.597226E+04
        81   3 -6.232178E+05 -3.077407E+05 -2.468918E+05 -1.270577E+05  2.444627E+04  7.613977E+04
        81   4  6.489073E+05  7.470855E+03  4.831095E+04 -1.249678E+05  3.826291E+04  9.300152E+04
        81   5  6.468776E+05 -4.458759E+02  2.648163E+04 -9.644728E+04  2.504921E+04  8.594965E+04
        81   6  6.490657E+05 -8.370263E+02  1.527918E+04 -1.249620E+05  1.182412E+04  7.612349E+04
        81   7  2.263125E+06  3.966814E+05  3.829143E+05 -1.262120E+05  3.194303E+04  9.297572E+04
        81   8  2.090614E+06  3.472930E+05  3.237397E+05 -9.602317E+04  1.556327E+04  8.592705E+04
        81   9  1.922885E+06  3.059646E+05  2.773637E+05 -1.228620E+05 -8.234745E+02  7.610714E+04
        81  10 -9.628532E+05 -3.819146E+05 -2.864542E+05 -1.237307E+05 -2.160925E-08 -8.425570E-10
        81  11 -7.948901E+05 -3.483243E+05 -2.709043E+05 -9.687299E+04  7.956686E-10 -1.720769E-09
        81  12 -6.232200E+05 -3.077470E+05 -2.469038E+05 -1.270592E+05  2.005656E-08 -7.735815E-10
        81  13  6.489034E+05  7.461172E+03  4.829194E+04 -1.249707E+05 -2.008927E-09 -1.038488E-09
        81  14  6.468749E+05 -4.539796E+02  2.646657E+04 -9.644901E+04 -1.112919E-10 -2.143951E-09
        81  15  6.490640E+05 -8.432885E+02  1.526802E+04 -1.249628E+05  2.584170E-11 -4.941951E-10
        81  16  2.263122E+06  3.966719E+05  3.828961E+05 -1.262144E+05  2.001795E-08 -1.281516E-09
        81  17  2.090612E+06  3.472850E+05  3.237254E+05 -9.602424E+04 -2.145608E-09 -2.629898E-09
        81  18  1.922884E+06  3.059583E+05  2.773528E+05 -1.228620E+05 -1.959966E-08 -6.201756E-10
        81  19 -9.628488E+05 -3.819048E+05 -2.864342E+05 -1.237273E+05 -4.456658E+04 -9.302739E+04
        81  20 -7.948869E+05 -3.483160E+05 -2.708881E+05 -9.687060E+04 -3.451347E+04 -8.597226E+04
        81  21 -6.232178E+05 -3.077407E+05 -2.468918E+05 -1.270577E+05 -2.444627E+04 -7.613977E+04
        81  22  6.489073E+05  7.470855E+03  4.831095E+04 -1.249678E+05 -3.826291E+04 -9.300152E+04
        81  23  6.468776E+05 -4.458759E+02  2.648163E+04 -9.644728E+04 -2.504921E+04 -8.594965E+04
        81  24  6.490657E+05 -8.370263E+02  1.527918E+04 -1.249620E+05 -1.182412E+04 -7.612349E+04
        81  25  2.263125E+06  3.966814E+05  3.829143E+05 -1.262120E+05 -3.194303E+04 -9.297572E+04
        81  26  2.090614E+06  3.472930E+05  3.237397E+05 -9.602317E+04 -1.556327E+04 -8.592705E+04
        81  27  1.922885E+06  3.059646E+05  2.773637E+05 -1.228620E+05  8.234745E+02 -7.610714E+04
        82   1 -4.992684E+05 -2.767964E+05 -2.240608E+05 -1.255284E+05  2.135291E+04  6.968691E+04
        82   2 -3.306338E+05 -2.362667E+05 -1.945895E+05 -9.678802E+04  1.821110E+04  5.905247E+04
        82   3 -1.612357E+05 -1.953785E+05 -1.629237E+05 -1.249398E+05  1.505747E+04  4.828874E+04
        82   4  6.483617E+05 -1.334071E+02  1.165988E+04 -1.249308E+05  9.449725E+03  6.967517E+04
        82   5  6.480320E+05 -3.073360E+02  6.673801E+03 -9.648747E+04  6.155209E+03  5.904642E+04
        82   6  6.484658E+05 -9.494187E+01  3.985882E+03 -1.249310E+05  2.849703E+03  4.828856E+04
        82   7  1.797243E+06  2.764468E+05  2.473108E+05 -1.243320E+05 -2.475093E+03  6.966342E+04
        82   8  1.627607E+06  2.355918E+05  2.078864E+05 -9.618635E+04 -5.919360E+03  5.904036E+04
        82   9  1.458789E+06  1.951473E+05  1.708607E+05 -1.249221E+05 -9.373706E+03  4.828839E+04
        82  10 -4.992702E+05 -2.768017E+05 -2.240708E+05 -1.255296E+05 -5.832258E-11  3.041361E-10
        82  11 -3.306350E+05 -2.362705E+05 -1.945967E+05 -9.678889E+04  1.977343E-09  1.613708E-09
        82  12 -1.612365E+05 -1.953810E+05 -1.629285E+05 -1.249404E+05  6.522946E-10  9.873234E-10
        82  13  6.483603E+05 -1.386458E+02  1.165058E+04 -1.249313E+05  5.974580E-10  6.876062E-10
        82  14  6.480310E+05 -3.110912E+02  6.667176E+03 -9.648776E+04  1.600929E-09  1.199806E-09
        82  15  6.484651E+05 -9.744878E+01  3.981483E+03 -1.249311E+05  2.523534E-10  1.085744E-09
        82  16  1.797241E+06  2.764416E+05  2.473016E+05 -1.243318E+05 -7.924756E-10  8.246696E-10
        82  17  1.627606E+06  2.355880E+05  2.078798E+05 -9.618607E+04 -5.998391E-10  1.178032E-09
        82  18  1.458788E+06  1.951448E+05  1.708562E+05 -1.249217E+05 -4.464394E-10  1.003392E-09
        82  19 -4.992684E+05 -2.767964E+05 -2.240608E+05 -1.255284E+05 -2.135291E+04 -6.968691E+04
        82  20 -3.306338E+05 -2.362667E+05 -1.945895E+05 -9.678802E+04 -1.821110E+04 -5.905247E+04
        82  21 -1.612357E+05 -1.953785E+05 -1.629237E+05 -1.249398E+05 -1.505747E+04 -4.828874E+04
        82  22  6.483617E+05 -1.334071E+02  1.165988E+04 -1.249308E+05 -9.449725E+03 -6.967517E+04
        82  23  6.480320E+05 -3.073360E+02  6.673801E+03 -9.648747E+04 -6.155209E+03 -5.904642E+04
        82  24  6.484658E+05 -9.494187E+01  3.985882E+03 -1.249310E+05 -2.849703E+03 -4.828856E+04
        82  25  1.797243E+06  2.764468E+05  2.473108E+05 -1.243320E+05  2.475093E+03 -6.966342E+04
        82  26  1.627607E+06  2.355918E+05  2.078864E+05 -9.618635E+04  5.919360E+03 -5.904036E+04
        82  27  1.458789E+06  1.951473E+05  1.708607E+05 -1.249221E+05  9.373706E+03 -4.828839E+04
        83   1 -3.718997E+04 -1.652089E+05 -1.373698E+05 -1.248191E+05  1.436612E+04  4.199420E+04
        83   2  1.312701E+05 -1.246187E+05 -1.042106E+05 -9.639517E+04  1.334351E+04  3.121165E+04
        83   3  2.999170E+05 -8.395228E+04 -7.036660E+04 -1.247071E+05  1.231475E+04  2.042969E+04
        83   4  6.483703E+05 -4.184910E+01  3.120793E+03 -1.248969E+05  2.204471E+03  4.199671E+04
        83   5  6.483189E+05  4.303942E+00  2.070109E+03 -9.653029E+04  1.179951E+03  3.121718E+04
        83   6  6.484246E+05  1.276034E+02  1.704679E+03 -1.248968E+05  1.495440E+02  2.043834E+04
        83   7  1.334377E+06  1.650958E+05  1.435869E+05 -1.249746E+05 -9.970366E+03  4.199922E+04
        83   8  1.165622E+06  1.246105E+05  1.083371E+05 -9.666547E+04 -1.099356E+04  3.122271E+04
        83   9  9.970475E+05  8.419988E+04  7.376993E+04 -1.250866E+05 -1.202237E+04  2.044699E+04
        83  10 -3.719067E+04 -1.652109E+05 -1.373735E+05 -1.248196E+05  1.355852E-09  3.188649E-10
        83  11  1.312697E+05 -1.246198E+05 -1.042128E+05 -9.639551E+04  2.594624E-09 -6.131768E-10
        83  12  2.999167E+05 -8.395277E+04 -7.036767E+04 -1.247073E+05 -1.302912E-11 -2.111597E-10
        83  13  6.483698E+05 -4.374493E+01  3.117468E+03 -1.248969E+05  1.059351E-09  6.003729E-10
        83  14  6.483187E+05  3.256787E+00  2.068274E+03 -9.653032E+04 -4.773831E-13 -5.287597E-11
        83  15  6.484245E+05  1.271547E+02  1.703894E+03 -1.248968E+05 -1.795227E-10 -1.390409E-10
        83  16  1.334376E+06  1.650939E+05  1.435834E+05 -1.249742E+05 -1.908600E-09  7.235351E-10
        83  17  1.165621E+06  1.246094E+05  1.083350E+05 -9.666519E+04 -1.946621E-09  2.245869E-10
        83  18  9.970473E+05  8.419939E+04  7.376888E+04 -1.250864E+05 -1.699843E-10 -2.559538E-10
        83  19 -3.718997E+04 -1.652089E+05 -1.373698E+05 -1.248191E+05 -1.436612E+04 -4.199420E+04
        83  20  1.312701E+05 -1.246187E+05 -1.042106E+05 -9.639517E+04 -1.334351E+04 -3.121165E+04
        83  21  2.999170E+05 -8.395228E+04 -7.036660E+04 -1.247071E+05 -1.231475E+04 -2.042969E+04
        83  22  6.483703E+05 -4.184910E+01  3.120793E+03 -1.248969E+05 -2.204471E+03 -4.199671E+04
        83  23  6.483189E+05  4.303942E+00  2.070109E+03 -9.653029E+04 -1.179951E+03 -3.121718E+04
        83  24  6.484246E+05  1.276034E+02  1.704679E+03 -1.248968E+05 -1.495440E+02 -2.043834E+04
        83  25  1.334377E+06  1.650958E+05  1.435869E+05 -1.249746E+05  9.970366E+03 -4.199922E+04
        83  26  1.165622E+06  1.246105E+05  1.083371E+05 -9.666547E+04  1.099356E+04 -3.122271E+04
        83  27  9.970475E+05  8.419988E+04  7.376993E+04 -1.250866E+05  1.202237E+04 -2.044699E+04
        84   1  4.238429E+05 -5.389214E+04 -4.399613E+04 -1.247508E+05  1.199484E+04  1.415654E+04
        84   2  5.921999E+05 -1.344384E+04 -9.407771E+03 -9.644262E+04  1.092659E+04  3.385164E+03
        84   3  7.606603E+05  2.709339E+04  2.587361E+04 -1.247989E+05  9.857420E+03 -7.380257E+03
        84   4  6.484215E+05  1.385732E+02  1.711385E+03 -1.248815E+05 -1.666536E+02  1.416622E+04
        84   5  6.483866E+05  9.473330E+01  2.136394E+03 -9.654940E+04 -1.229816E+03  3.395122E+03
        84   6  6.484271E+05  1.404474E+02  3.251293E+03 -1.248815E+05 -2.293613E+03 -7.369925E+03
        84   7  8.730483E+05  5.416622E+04  4.741681E+04 -1.250123E+05 -1.233246E+04  1.417590E+04
        84   8  7.045766E+05  1.363319E+04  1.368094E+04 -9.665619E+04 -1.338730E+04  3.405084E+03
        84   9  5.362062E+05 -2.681319E+04 -1.937112E+04 -1.249640E+05 -1.444249E+04 -7.359588E+03
        84  10  4.238427E+05 -5.389240E+04 -4.399677E+04 -1.247510E+05  6.342467E-11 -3.294181E-11
        84  11  5.921997E+05 -1.344388E+04 -9.408017E+03 -9.644265E+04  1.461124E-09 -1.235571E-10
        84  12  7.606601E+05  2.709330E+04  2.587333E+04 -1.247989E+05  2.999325E-11  3.167430E-10
        84  13  6.484214E+05  1.383576E+02  1.711008E+03 -1.248815E+05 -1.580078E-10  3.243331E-11
        84  14  6.483865E+05  9.472052E+01  2.136369E+03 -9.654940E+04  1.296120E-11 -1.739889E-11
        84  15  6.484270E+05  1.403877E+02  3.251181E+03 -1.248815E+05  8.551676E-10  6.855016E-11
        84  16  8.730480E+05  5.416597E+04  4.741615E+04 -1.250121E+05 -1.394560E-09 -3.182962E-10
        84  17  7.045764E+05  1.363313E+04  1.368059E+04 -9.665615E+04 -3.843643E-10 -1.390890E-10
        84  18  5.362059E+05 -2.681330E+04 -1.937161E+04 -1.249641E+05 -9.938216E-11 -5.783566E-10
        84  19  4.238429E+05 -5.389214E+04 -4.399613E+04 -1.247508E+05 -1.199484E+04 -1.415654E+04
        84  20  5.921999E+05 -1.344384E+04 -9.407771E+03 -9.644262E+04 -1.092659E+04 -3.385164E+03
        84  21  7.606603E+05  2.709339E+04  2.587361E+04 -1.247989E+05 -9.857420E+03  7.380257E+03
        84  22  6.484215E+05  1.385732E+02  1.711385E+03 -1.248815E+05  1.666536E+02 -1.416622E+04
        84  23  6.483866E+05  9.473330E+01  2.136394E+03 -9.654940E+04  1.229816E+03 -3.395122E+03
        84  24  6.484271E+05  1.404474E+02  3.251293E+03 -1.248815E+05  2.293613E+03  7.369925E+03
        84  25  8.730483E+05  5.416622E+04  4.741681E+04 -1.250123E+05  1.233246E+04 -1.417590E+04
        84  26  7.045766E+05  1.363319E+04  1.368094E+04 -9.665619E+04  1.338730E+04 -3.405084E+03
        84  27  5.362062E+05 -2.681319E+04 -1.937112E+04 -1.249640E+05  1.444249E+04  7.359588E+03
        85   1  8.847096E+05  5.709984E+04  5.312837E+04 -1.248099E+05  9.211037E+03 -1.365457E+04
        85   2  1.052999E+06  9.747420E+04  9.019000E+04 -9.640753E+04  5.622435E+03 -2.438892E+04
        85   3  1.221861E+06  1.383032E+05  1.296853E+05 -1.247041E+05  2.037539E+03 -3.502422E+04
        85   4  6.485190E+05  1.083094E+02  4.154139E+03 -1.248898E+05 -2.970027E+03 -1.364484E+04
        85   5  6.482320E+05 -3.705653E+01  7.004970E+03 -9.653897E+04 -6.446060E+03 -2.438172E+04
        85   6  6.484753E+05  2.552906E+02  1.221406E+04 -1.248894E+05 -9.917449E+03 -3.501941E+04
        85   7  4.123814E+05 -5.688668E+04 -4.482257E+04 -1.249696E+05 -1.514654E+04 -1.363511E+04
        85   8  2.436209E+05 -9.755854E+04 -7.618828E+04 -9.667029E+04 -1.850684E+04 -2.437451E+04
        85   9  7.540147E+04 -1.378131E+05 -1.052741E+05 -1.250744E+05 -2.186161E+04 -3.501460E+04
        85  10  8.847095E+05  5.709962E+04  5.312786E+04 -1.248098E+05 -8.234855E-10  1.914018E-10
        85  11  1.052998E+06  9.747355E+04  9.018882E+04 -9.640742E+04  3.775438E-10 -2.110533E-10
        85  12  1.221861E+06  1.383018E+05  1.296830E+05 -1.247041E+05  7.231752E-10 -4.163235E-10
        85  13  6.485189E+05  1.081071E+02  4.153772E+03 -1.248898E+05 -1.617218E-11 -2.272429E-10
        85  14  6.482318E+05 -3.770626E+01  7.003775E+03 -9.653910E+04 -4.460529E-10 -1.527291E-11
        85  15  6.484748E+05  2.539468E+02  1.221157E+04 -1.248897E+05 -1.440653E-09 -1.005317E-10
        85  16  4.123811E+05 -5.688694E+04 -4.482335E+04 -1.249698E+05 -7.254052E-10 -3.306417E-10
        85  17  2.436204E+05 -9.755927E+04 -7.619004E+04 -9.667066E+04 -8.333584E-10  3.292225E-10
        85  18  7.540063E+04 -1.378146E+05 -1.052773E+05 -1.250750E+05  1.209611E-10  5.121907E-10
        85  19  8.847096E+05  5.709984E+04  5.312837E+04 -1.248099E+05 -9.211037E+03  1.365457E+04
        85  20  1.052999E+06  9.747420E+04  9.019000E+04 -9.640753E+04 -5.622435E+03  2.438892E+04
        85  21  1.221861E+06  1.383032E+05  1.296853E+05 -1.247041E+05 -2.037539E+03  3.502422E+04
        85  22  6.485190E+05  1.083094E+02  4.154139E+03 -1.248898E+05  2.970027E+03  1.364484E+04
        85  23  6.482320E+05 -3.705653E+01  7.004970E+03 -9.653897E+04  6.446060E+03  2.438172E+04
        85  24  6.484753E+05  2.552906E+02  1.221406E+04 -1.248894E+05  9.917449E+03  3.501941E+04
        85  25  4.123814E+05 -5.688668E+04 -4.482257E+04 -1.249696E+05  1.514654E+04  1.363511E+04
        85  26  2.436209E+05 -9.755854E+04 -7.618828E+04 -9.667029E+04  1.850684E+04  2.437451E+04
        85  27  7.540147E+04 -1.378131E+05 -1.052741E+05 -1.250744E+05  2.186161E+04  3.501460E+04
        86   1  1.346867E+06  1.676764E+05  1.598062E+05 -1.233371E+05  6.551855E+01 -4.140173E+04
        86   2  1.513748E+06  2.088384E+05  2.063710E+05 -9.715458E+04 -1.612424E+04 -5.143366E+04
        86   3  1.685006E+06  2.583204E+05  2.655714E+05 -1.277029E+05 -3.230989E+04 -5.944109E+04
        86   4  6.492030E+05 -4.559445E+02  1.599725E+04 -1.248973E+05 -1.241268E+04 -4.139894E+04
        86   5  6.471768E+05  2.092846E+01  2.777737E+04 -9.652841E+04 -2.629793E+04 -5.143664E+04
        86   6  6.491055E+05  8.427169E+03  5.060769E+04 -1.248946E+05 -4.017476E+04 -5.944853E+04
        86   7 -4.799941E+04 -1.686189E+05 -1.278373E+05 -1.264557E+05 -2.487711E+04 -4.139608E+04
        86   8 -2.186837E+05 -2.088439E+05 -1.508563E+05 -9.590304E+04 -3.645768E+04 -5.143964E+04
        86   9 -3.857805E+05 -2.415341E+05 -1.644144E+05 -1.220909E+05 -4.802671E+04 -5.945604E+04
        86  10  1.346866E+06  1.676746E+05  1.598029E+05 -1.233371E+05 -1.004335E-09 -2.083035E-10
        86  11  1.513747E+06  2.088355E+05  2.063656E+05 -9.715525E+04  2.171227E-09  3.078987E-10
        86  12  1.685004E+06  2.583163E+05  2.655628E+05 -1.277044E+05  8.514409E-10 -2.178270E-11
        86  13  6.492024E+05 -4.578269E+02  1.599374E+04 -1.248978E+05 -9.794457E-11  2.858280E-10
        86  14  6.471754E+05  1.790087E+01  2.777110E+04 -9.652950E+04  1.110483E-09  3.445217E-10
        86  15  6.491028E+05  8.422940E+03  5.059801E+04 -1.248965E+05  1.293924E-09 -4.507820E-10
        86  16 -4.800054E+04 -1.686209E+05 -1.278417E+05 -1.264565E+05  7.489041E-10  5.437913E-10
        86  17 -2.186859E+05 -2.088471E+05 -1.508638E+05 -9.590455E+04 -1.662928E-10  5.407483E-10
        86  18 -3.857839E+05 -2.415385E+05 -1.644254E+05 -1.220932E+05 -5.212091E-10 -9.107124E-10
        86  19  1.346867E+06  1.676764E+05  1.598062E+05 -1.233371E+05 -6.551855E+01  4.140173E+04
        86  20  1.513748E+06  2.088384E+05  2.063710E+05 -9.715458E+04  1.612424E+04  5.143366E+04
        86  21  1.685006E+06  2.583204E+05  2.655714E+05 -1.277029E+05  3.230989E+04  5.944109E+04
        86  22  6.492030E+05 -4.559445E+02  1.599725E+04 -1.248973E+05  1.241268E+04  4.139894E+04
        86  23  6.471768E+05  2.092846E+01  2.777737E+04 -9.652841E+04  2.629793E+04  5.143664E+04
        86  24  6.491055E+05  8.427169E+03  5.060769E+04 -1.248946E+05  4.017476E+04  5.944853E+04
        86  25 -4.799941E+04 -1.686189E+05 -1.278373E+05 -1.264557E+05  2.487711E+04  4.139608E+04
        86  26 -2.186837E+05 -2.088439E+05 -1.508563E+05 -9.590304E+04  3.645768E+04  5.143964E+04
        86  27 -3.857805E+05 -2.415341E+05 -1.644144E+05 -1.220909E+05  4.802671E+04  5.945604E+04
        87   1  1.821364E+06  2.728257E+05  3.048991E+05 -9.790050E+04 -3.114971E+04 -6.768322E+04
        87   2  1.962127E+06  3.359191E+05  3.975485E+05 -1.385285E+05 -1.352131E+05 -6.377530E+04
        87   3  2.161797E+06  5.786973E+05  6.028405E+05 -2.342905E+05 -2.393539E+05 -2.029075E+04
        87   4  6.595622E+05 -7.279023E+03  6.457660E+04 -1.245067E+05 -4.901215E+04 -6.769398E+04
        87   5  6.338497E+05  1.376453E+04  1.127936E+05 -9.700738E+04 -1.082287E+05 -6.378086E+04
        87   6  6.593612E+05  2.069139E+05  2.426764E+05 -1.246252E+05 -1.674876E+05 -2.027570E+04
        87   7 -5.009610E+05 -2.874663E+05 -1.758176E+05 -1.510623E+05 -6.684176E+04 -6.770322E+04
        87   8 -6.927674E+05 -3.084985E+05 -1.720605E+05 -5.557622E+04 -8.130091E+04 -6.378283E+04
        87   9 -8.409758E+05 -1.649850E+05 -1.176217E+05 -1.522572E+04 -9.579354E+04 -2.023534E+04
        87  10  1.821362E+06  2.728206E+05  3.048887E+05 -9.790220E+04 -1.750288E-10 -8.648813E-11
        87  11  1.962107E+06  3.359099E+05  3.975066E+05 -1.385354E+05  1.671997E-09  9.246679E-11
        87  12  2.161736E+06  5.786815E+05  6.027324E+05 -2.342944E+05 -2.988780E-10 -7.101103E-11
        87  13  6.595584E+05 -7.284590E+03  6.456348E+04 -1.245094E+05  4.663082E-11 -6.277621E-10
        87  14  6.338361E+05  1.375702E+04  1.127639E+05 -9.701294E+04 -6.218124E-10 -1.951738E-10
        87  15  6.593310E+05  2.069059E+05  2.426230E+05 -1.246279E+05 -4.656408E-10  5.702860E-11
        87  16 -5.009670E+05 -2.874725E+05 -1.758346E+05 -1.510659E+05  1.047714E-09 -1.091047E-09
        87  17 -6.927756E+05 -3.085046E+05 -1.720806E+05 -5.558040E+04 -1.107920E-09  2.760906E-11
        87  18 -8.409858E+05 -1.649879E+05 -1.176397E+05 -1.522728E+04 -1.316095E-09  2.958577E-11
        87  19  1.821364E+06  2.728257E+05  3.048991E+05 -9.790050E+04  3.114971E+04  6.768322E+04
        87  20  1.962127E+06  3.359191E+05  3.975485E+05 -1.385285E+05  1.352131E+05  6.377530E+04
        87  21  2.161797E+06  5.786973E+05  6.028405E+05 -2.342905E+05  2.393539E+05  2.029075E+04
        87  22  6.595622E+05 -7.279023E+03  6.457660E+04 -1.245067E+05  4.901215E+04  6.769398E+04
        87  23  6.338497E+05  1.376453E+04  1.127936E+05 -9.700738E+04  1.082287E+05  6.378086E+04
        87  24  6.593612E+05  2.069139E+05  2.426764E+05 -1.246252E+05  1.674876E+05  2.027570E+04
        87  25 -5.009610E+05 -2.874663E+05 -1.758176E+05 -1.510623E+05  6.684176E+04  6.770322E+04
        87  26 -6.927674E+05 -3.084985E+05 -1.720605E+05 -5.557622E+04  8.130091E+04  6.378283E+04
        87  27 -8.409758E+05 -1.649850E+05 -1.176217E+05 -1.522572E+04  9.579354E+04  2.023534E+04
        88   1  9.183012E+04  9.281261E+03  1.021741E+05 -1.855524E+05 -1.256093E+03  4.713949E+04
        88   2 -1.848932E+04 -2.042791E+05  1.514365E+04 -1.297236E+05 -7.931174E+03  2.404321E+04
        88   3 -7.465456E+04 -4.017279E+05 -4.342654E+04 -1.427520E+05 -1.915258E+04  9.432261E+02
        88   4  6.470452E+04 -9.754468E+04  7.460506E+04 -1.513926E+05 -1.268819E+03  5.218523E+04
        88   5  5.049350E+03 -1.051485E+05  3.414188E+04 -1.170625E+05 -7.960843E+03  3.421743E+04
        88   6 -1.341198E+03 -9.756162E+04  1.858548E+04 -1.515820E+05 -1.919737E+04  1.623870E+04
        88   7  3.758241E+04 -2.043578E+05  4.703581E+04 -1.172386E+05 -1.280991E+03  5.723010E+04
        88   8  2.858811E+04 -6.007892E+03  5.314014E+04 -1.043993E+05 -7.990095E+03  4.439323E+04
        88   9  7.196678E+04  2.066933E+05  8.059354E+04 -1.604163E+05 -1.924260E+04  3.154153E+04
        88  10  9.182952E+04  9.278874E+03  1.021699E+05 -1.855524E+05  7.217940E-11  1.708315E-09
        88  11 -1.848954E+04 -2.042798E+05  1.514244E+04 -1.297234E+05  2.378741E-09 -7.207002E-10
        88  12 -7.465496E+04 -4.017280E+05 -4.342723E+04 -1.427520E+05 -6.164817E-10 -2.930774E-09
        88  13  6.470379E+04 -9.754760E+04  7.459993E+04 -1.513925E+05  6.988679E-10 -7.990979E-11
        88  14  5.048968E+03 -1.051498E+05  3.413956E+04 -1.170623E+05  3.087818E-09  5.884002E-11
        88  15 -1.341664E+03 -9.756200E+04  1.858429E+04 -1.515817E+05  9.089036E-10 -8.761324E-11
        88  16  3.758153E+04 -2.043613E+05  4.702965E+04 -1.172385E+05 -7.232140E-10 -1.799368E-09
        88  17  2.858751E+04 -6.010025E+03  5.313632E+04 -1.043991E+05  2.923529E-10  4.159390E-10
        88  18  7.196612E+04  2.066922E+05  8.059098E+04 -1.604158E+05  2.067898E-10  2.741964E-09
        88  19  9.183012E+04  9.281261E+03  1.021741E+05 -1.855524E+05  1.256093E+03 -4.713949E+04
        88  20 -1.848932E+04 -2.042791E+05  1.514365E+04 -1.297236E+05  7.931174E+03 -2.404321E+04
        88  21 -7.465456E+04 -4.017279E+05 -4.342654E+04 -1.427520E+05  1.915258E+04 -9.432261E+02
        88  22  6.470452E+04 -9.754468E+04  7.460506E+04 -1.513926E+05  1.268819E+03 -5.218523E+04
        88  23  5.049350E+03 -1.051485E+05  3.414188E+04 -1.170625E+05  7.960843E+03 -3.421743E+04
        88  24 -1.341198E+03 -9.756162E+04  1.858548E+04 -1.515820E+05  1.919737E+04 -1.623870E+04
        88  25  3.758241E+04 -2.043578E+05  4.703581E+04 -1.172386E+05  1.280991E+03 -5.723010E+04
        88  26  2.858811E+04 -6.007892E+03  5.314014E+04 -1.043993E+05  7.990095E+03 -4.439323E+04
        88  27  7.196678E+04  2.066933E+05  8.059354E+04 -1.604163E+05  1.924260E+04 -3.154153E+04
        89   1 -1.064475E+05 -5.565491E+05 -8.021343E+04 -1.512649E+05 -2.713213E+04 -8.549418E+02
        89   2 -1.590217E+05 -7.621392E+05 -1.311511E+05 -1.159580E+05 -3.922960E+04 -1.619766E+03
        89   3 -2.100243E+05 -9.675228E+05 -1.812870E+05 -1.497315E+05 -4.959713E+04 -2.371867E+03
        89   4  3.535150E+03 -1.008486E+05  1.382831E+04 -1.515868E+05 -2.717322E+04  1.376522E+04
        89   5  5.522024E+02 -1.011444E+05  5.370222E+03 -1.170544E+05 -3.926067E+04  1.104810E+04
        89   6 -5.177527E+02 -1.009335E+05 -9.275018E+02 -1.515976E+05 -4.961919E+04  8.343495E+03
        89   7  1.135048E+05  3.550494E+05  1.078597E+05 -1.519089E+05 -2.721431E+04  2.839593E+04
        89   8  1.600986E+05  5.602654E+05  1.418686E+05 -1.181517E+05 -3.929177E+04  2.372923E+04
        89   9  2.089410E+05  7.663677E+05  1.793912E+05 -1.534659E+05 -4.964130E+04  1.907357E+04
        89  10 -1.064483E+05 -5.565493E+05 -8.021482E+04 -1.512649E+05 -7.242673E-10  2.274378E-09
        89  11 -1.590234E+05 -7.621396E+05 -1.311540E+05 -1.159580E+05  9.534989E-10  8.580762E-10
        89  12 -2.100270E+05 -9.675234E+05 -1.812916E+05 -1.497315E+05  5.392399E-12 -8.814278E-10
        89  13  3.534307E+03 -1.008490E+05  1.382657E+04 -1.515865E+05  1.607069E-09  8.001937E-12
        89  14  5.505146E+02 -1.011450E+05  5.367096E+03 -1.170541E+05  1.570184E-09  8.796933E-11
        89  15 -5.204150E+02 -1.009343E+05 -9.322586E+02 -1.515973E+05 -1.898400E-10  1.590474E-10
        89  16  1.135038E+05  3.550484E+05  1.078568E+05 -1.519082E+05 -6.102822E-10 -2.285568E-09
        89  17  1.600967E+05  5.602643E+05  1.418646E+05 -1.181509E+05  3.707825E-10 -6.530157E-10
        89  18  2.089383E+05  7.663667E+05  1.793858E+05 -1.534651E+05  3.097267E-12  1.091107E-09
        89  19 -1.064475E+05 -5.565491E+05 -8.021343E+04 -1.512649E+05  2.713213E+04  8.549418E+02
        89  20 -1.590217E+05 -7.621392E+05 -1.311511E+05 -1.159580E+05  3.922960E+04  1.619766E+03
        89  21 -2.100243E+05 -9.675228E+05 -1.812870E+05 -1.497315E+05  4.959713E+04  2.371867E+03
        89  22  3.535150E+03 -1.008486E+05  1.382831E+04 -1.515868E+05  2.717322E+04 -1.376522E+04
        89  23  5.522024E+02 -1.011444E+05  5.370222E+03 -1.170544E+05  3.926067E+04 -1.104810E+04
        89  24 -5.177527E+02 -1.009335E+05 -9.275018E+02 -1.515976E+05  4.961919E+04 -8.343495E+03
        89  25  1.135048E+05  3.550494E+05  1.078597E+05 -1.519089E+05  2.721431E+04 -2.839593E+04
        89  26  1.600986E+05  5.602654E+05  1.418686E+05 -1.181517E+05  3.929177E+04 -2.372923E+04
        89  27  2.089410E+05  7.663677E+05  1.793912E+05 -1.534659E+05  4.964130E+04 -1.907357E+04
        90   1 -2.448886E+05 -1.121224E+06 -2.151991E+05 -1.463027E+05 -5.912345E+04 -1.170508E+04
        90   2 -2.983484E+05 -1.320525E+06 -2.738636E+05 -1.202883E+05 -5.809850E+04  3.723503E+04
        90   3 -3.778080E+05 -1.532635E+06 -3.709197E+05 -1.614143E+05 -1.879538E+04  8.621523E+04
        90   4  1.365576E+03 -1.022934E+05 -3.714961E+03 -1.511536E+05 -5.916473E+04  8.577068E+03
        90   5 -1.422477E+03 -9.969979E+04 -1.101115E+04 -1.176090E+05 -5.804290E+04  1.443007E+04
        90   6 -2.269376E+04 -1.024481E+05 -2.672978E+04 -1.512012E+05 -1.867569E+04  2.034140E+04
        90   7  2.475540E+05  9.176225E+05  2.077140E+05 -1.560119E+05 -5.920628E+04  2.889198E+04
        90   8  2.954057E+05  1.122529E+06  2.517557E+05 -1.149236E+05 -5.798757E+04 -8.419198E+03
        90   9  3.322741E+05  1.329624E+06  3.173308E+05 -1.409634E+05 -1.855832E+04 -4.568395E+04
        90  10 -2.448924E+05 -1.121225E+06 -2.152059E+05 -1.463033E+05 -2.814490E-10  1.329641E-09
        90  11 -2.983524E+05 -1.320527E+06 -2.738725E+05 -1.202865E+05 -1.608887E-10 -1.402646E-10
        90  12 -3.778104E+05 -1.532643E+06 -3.709344E+05 -1.614130E+05  2.947777E-10 -1.158480E-09
        90  13  1.361797E+03 -1.022944E+05 -3.721676E+03 -1.511532E+05 -1.481883E-09  1.300160E-10
        90  14 -1.426150E+03 -9.970092E+04 -1.101787E+04 -1.176084E+05 -2.841804E-10 -5.666306E-12
        90  15 -2.269424E+04 -1.024486E+05 -2.673121E+04 -1.512009E+05 -2.621366E-10 -4.110731E-11
        90  16  2.475500E+05  9.176207E+05  2.077059E+05 -1.560105E+05  7.960996E-10 -1.241399E-09
        90  17  2.954021E+05  1.122528E+06  2.517492E+05 -1.149240E+05 -1.701874E-11  1.183929E-10
        90  18  3.322732E+05  1.329622E+06  3.173263E+05 -1.409641E+05  2.582706E-10  1.165860E-09
        90  19 -2.448886E+05 -1.121224E+06 -2.151991E+05 -1.463027E+05  5.912345E+04  1.170508E+04
        90  20 -2.983484E+05 -1.320525E+06 -2.738636E+05 -1.202883E+05  5.809850E+04 -3.723503E+04
        90  21 -3.778080E+05 -1.532635E+06 -3.709197E+05 -1.614143E+05  1.879538E+04 -8.621523E+04
        90  22  1.365576E+03 -1.022934E+05 -3.714961E+03 -1.511536E+05  5.916473E+04 -8.577068E+03
        90  23 -1.422477E+03 -9.969979E+04 -1.101115E+04 -1.176090E+05  5.804290E+04 -1.443007E+04
        90  24 -2.269376E+04 -1.024481E+05 -2.672978E+04 -1.512012E+05  1.867569E+04 -2.034140E+04
        90  25  2.475540E+05  9.176225E+05  2.077140E+05 -1.560119E+05  5.920628E+04 -2.889198E+04
        90  26  2.954057E+05  1.122529E+06  2.517557E+05 -1.149236E+05  5.798757E+04  8.419198E+03
        90  27  3.322741E+05  1.329624E+06  3.173308E+05 -1.409634E+05  1.855832E+04  4.568395E+04
        91   1 -2.861929E+06 -1.100038E+06 -6.523324E+05 -1.037953E+06 -2.349239E+05 -6.152722E+04
        91   2 -2.743950E+06 -8.191926E+05 -4.473022E+05 -9.936802E+05 -1.526491E+05  2.937624E+04
        91   3 -2.669831E+06 -7.343809E+05 -3.633080E+05 -9.446024E+05 -5.305279E+04  7.456344E+04
        91   4 -1.333736E+06 -4.311531E+05 -2.298702E+05 -5.256075E+05 -1.560238E+05 -3.176368E+04
        91   5 -1.303817E+06 -2.487271E+05 -1.016550E+05 -5.616265E+05 -1.217158E+05  4.102193E+04
        91   6 -1.308068E+06 -2.525773E+05 -5.616826E+04 -5.928906E+05 -7.012965E+04  6.811309E+04
        91   7  1.967514E+05  2.381134E+05  1.923993E+05 -1.203762E+04 -7.691009E+04 -1.890128E+03
        91   8  1.383942E+05  3.219655E+05  2.438441E+05 -1.286269E+05 -9.070410E+04  5.270151E+04
        91   9  5.556624E+04  2.293274E+05  2.508550E+05 -2.404867E+05 -8.724734E+04  6.164903E+04
        91  10 -2.861989E+06 -1.100057E+06 -6.524438E+05 -1.037965E+06  1.425539E-10 -6.508513E-11
        91  11 -2.743975E+06 -8.191998E+05 -4.473478E+05 -9.936766E+05  3.862721E-10 -3.195400E-10
        91  12 -2.669836E+06 -7.343876E+05 -3.633237E+05 -9.445992E+05 -6.690643E-10  2.957025E-10
        91  13 -1.333763E+06 -4.311607E+05 -2.299179E+05 -5.256115E+05 -5.731434E-10 -5.700629E-11
        91  14 -1.303833E+06 -2.487329E+05 -1.016860E+05 -5.616225E+05  1.071374E-10 -1.775091E-11
        91  15 -1.308074E+06 -2.525836E+05 -5.618622E+04 -5.928868E+05  1.897769E-10  5.634909E-10
        91  16  1.967450E+05  2.381118E+05  1.923882E+05 -1.203774E+04 -2.243130E-10 -5.482415E-11
        91  17  1.383847E+05  3.219603E+05  2.438234E+05 -1.286231E+05  5.271721E-10  3.916050E-10
        91  18  5.555705E+04  2.293213E+05  2.508336E+05 -2.404823E+05  6.504920E-10  9.330453E-10
        91  19 -2.861929E+06 -1.100038E+06 -6.523324E+05 -1.037953E+06  2.349239E+05  6.152722E+04
        91  20 -2.743950E+06 -8.191926E+05 -4.473022E+05 -9.936802E+05  1.526491E+05 -2.937624E+04
        91  21 -2.669831E+06 -7.343809E+05 -3.633080E+05 -9.446024E+05  5.305279E+04 -7.456344E+04
        91  22 -1.333736E+06 -4.311531E+05 -2.298702E+05 -5.256075E+05  1.560238E+05  3.176368E+04
        91  23 -1.303817E+06 -2.487271E+05 -1.016550E+05 -5.616265E+05  1.217158E+05 -4.102193E+04
        91  24 -1.308068E+06 -2.525773E+05 -5.616826E+04 -5.928906E+05  7.012965E+04 -6.811309E+04
        91  25  1.967514E+05  2.381134E+05  1.923993E+05 -1.203762E+04  7.691009E+04  1.890128E+03
        91  26  1.383942E+05  3.219655E+05  2.438441E+05 -1.286269E+05  9.070410E+04 -5.270151E+04
        91  27  5.556624E+04  2.293274E+05  2.508550E+05 -2.404867E+05  8.724734E+04 -6.164903E+04
        92   1 -2.546774E+06 -7.316194E+05 -3.304858E+05 -9.312723E+05 -5.563077E+04  6.464467E+04
        92   2 -2.435646E+06 -6.579191E+05 -2.788070E+05 -8.778767E+05 -3.960879E+04  6.434383E+04
        92   3 -2.295838E+06 -6.254045E+05 -2.395865E+05 -8.606370E+05 -2.275535E+04  6.181169E+04
        92   4 -1.300520E+06 -2.663125E+05 -4.392156E+04 -5.845798E+05 -6.033716E+04  6.285791E+04
        92   5 -1.314441E+06 -2.417424E+05 -2.299437E+04 -5.680627E+05 -4.663877E+04  6.168759E+04
        92   6 -1.299227E+06 -2.578833E+05 -1.266099E+04 -5.877050E+05 -3.211270E+04  5.828685E+04
        92   7 -5.271262E+04  1.991144E+05  2.425366E+05 -2.372486E+05 -6.505377E+04  6.106726E+04
        92   8 -1.919698E+05  1.745310E+05  2.327355E+05 -2.577345E+05 -5.368256E+04  5.902616E+04
        92   9 -3.016095E+05  1.097134E+05  2.142013E+05 -3.143699E+05 -4.148644E+04  5.475592E+04
        92  10 -2.546778E+06 -7.316248E+05 -3.304995E+05 -9.312694E+05  2.885401E-09  1.790448E-09
        92  11 -2.435649E+06 -6.579240E+05 -2.788177E+05 -8.778746E+05 -6.246616E-09 -2.861301E-09
        92  12 -2.295840E+06 -6.254088E+05 -2.395946E+05 -8.606359E+05 -1.641160E-08 -7.386920E-09
        92  13 -1.300525E+06 -2.663177E+05 -4.393582E+04 -5.845768E+05  1.410732E-10  6.209871E-10
        92  14 -1.314444E+06 -2.417471E+05 -2.300560E+04 -5.680603E+05 -4.398425E-10 -3.369309E-10
        92  15 -1.299229E+06 -2.578872E+05 -1.266930E+04 -5.877035E+05 -1.101984E-09 -1.761838E-09
        92  16 -5.271817E+04  1.991092E+05  2.425216E+05 -2.372454E+05 -2.230600E-09 -5.252972E-10
        92  17 -1.919738E+05  1.745265E+05  2.327235E+05 -2.577319E+05  7.271449E-09  2.319885E-09
        92  18 -3.016122E+05  1.097097E+05  2.141924E+05 -3.143681E+05  1.355365E-08  3.898977E-09
        92  19 -2.546774E+06 -7.316194E+05 -3.304858E+05 -9.312723E+05  5.563077E+04 -6.464467E+04
        92  20 -2.435646E+06 -6.579191E+05 -2.788070E+05 -8.778767E+05  3.960879E+04 -6.434383E+04
        92  21 -2.295838E+06 -6.254045E+05 -2.395865E+05 -8.606370E+05  2.275535E+04 -6.181169E+04
        92  22 -1.300520E+06 -2.663125E+05 -4.392156E+04 -5.845798E+05  6.033716E+04 -6.285791E+04
        92  23 -1.314441E+06 -2.417424E+05 -2.299437E+04 -5.680627E+05  4.663877E+04 -6.168759E+04
        92  24 -1.299227E+06 -2.578833E+05 -1.266099E+04 -5.877050E+05  3.211270E+04 -5.828685E+04
        92  25 -5.271262E+04  1.991144E+05  2.425366E+05 -2.372486E+05  6.505377E+04 -6.106726E+04
        92  26 -1.919698E+05  1.745310E+05  2.327355E+05 -2.577345E+05  5.368256E+04 -5.902616E+04
        92  27 -3.016095E+05  1.097134E+05  2.142013E+05 -3.143699E+05  4.148644E+04 -5.475592E+04
        93   1 -2.197461E+06 -5.909672E+05 -2.137272E+05 -8.346778E+05 -1.960642E+04  5.716902E+04
        93   2 -2.085709E+06 -5.262006E+05 -1.805053E+05 -7.801109E+05 -1.366205E+04  4.978666E+04
        93   3 -1.940685E+06 -4.954065E+05 -1.494069E+05 -7.639308E+05 -7.673957E+03  4.226452E+04
        93   4 -1.298570E+06 -2.585598E+05 -9.589572E+03 -5.873615E+05 -2.841112E+04  5.385520E+04
        93   5 -1.315144E+06 -2.413431E+05 -5.280160E+03 -5.682444E+05 -2.260943E+04  4.642379E+04
        93   6 -1.298434E+06 -2.580680E+05 -2.978900E+03 -5.875167E+05 -1.676469E+04  3.885253E+04
        93   7 -3.988665E+05  7.390867E+04  1.944955E+05 -3.397167E+05 -3.722969E+04  5.053619E+04
        93   8 -5.439829E+05  4.355817E+04  1.699057E+05 -3.561372E+05 -3.156885E+04  4.305641E+04
        93   9 -6.557730E+05 -2.070009E+04  1.434212E+05 -4.109363E+05 -2.586560E+04  3.543674E+04
        93  10 -2.197462E+06 -5.909708E+05 -2.137340E+05 -8.346769E+05  1.259236E-08  3.660353E-09
        93  11 -2.085710E+06 -5.262033E+05 -1.805103E+05 -7.801104E+05  6.513057E-09  2.875173E-09
        93  12 -1.940686E+06 -4.954085E+05 -1.494104E+05 -7.639305E+05 -2.878608E-09  2.621618E-11
        93  13 -1.298572E+06 -2.585631E+05 -9.596534E+03 -5.873603E+05 -1.659363E-09 -1.734251E-09
        93  14 -1.315145E+06 -2.413455E+05 -5.285167E+03 -5.682435E+05 -1.214253E-09 -3.820454E-11
        93  15 -1.298435E+06 -2.580697E+05 -2.982262E+03 -5.875161E+05 -7.490607E-10  7.314630E-10
        93  16 -3.988687E+05  7.390556E+04  1.944881E+05 -3.397152E+05 -1.509939E-08 -7.145906E-09
        93  17 -5.439844E+05  4.355591E+04  1.699003E+05 -3.561361E+05 -5.946918E-09 -3.190699E-09
        93  18 -6.557741E+05 -2.070162E+04  1.434176E+05 -4.109356E+05  3.624002E-09  1.412007E-09
        93  19 -2.197461E+06 -5.909672E+05 -2.137272E+05 -8.346778E+05  1.960642E+04 -5.716902E+04
        93  20 -2.085709E+06 -5.262006E+05 -1.805053E+05 -7.801109E+05  1.366205E+04 -4.978666E+04
        93  21 -1.940685E+06 -4.954065E+05 -1.494069E+05 -7.639308E+05  7.673957E+03 -4.226452E+04
        93  22 -1.298570E+06 -2.585598E+05 -9.589572E+03 -5.873615E+05  2.841112E+04 -5.385520E+04
        93  23 -1.315144E+06 -2.413431E+05 -5.280160E+03 -5.682444E+05  2.260943E+04 -4.642379E+04
        93  24 -1.298434E+06 -2.580680E+05 -2.978900E+03 -5.875167E+05  1.676469E+04 -3.885253E+04
        93  25 -3.988665E+05  7.390867E+04  1.944955E+05 -3.397167E+05  3.722969E+04 -5.053619E+04
        93  26 -5.439829E+05  4.355817E+04  1.699057E+05 -3.561372E+05  3.156885E+04 -4.305641E+04
        93  27 -6.557730E+05 -2.070009E+04  1.434212E+05 -4.109363E+05  2.586560E+04 -3.543674E+04
        94   1 -1.842574E+06 -4.591388E+05 -1.256107E+05 -7.371423E+05 -5.353862E+03  3.740046E+04
        94   2 -1.729871E+06 -3.943385E+05 -9.574824E+04 -6.821109E+05 -1.343998E+03  2.905109E+04
        94   3 -1.583366E+06 -3.633994E+05 -6.645127E+04 -6.658806E+05  2.669990E+03  2.067760E+04
        94   4 -1.298311E+06 -2.581351E+05 -2.317714E+03 -5.875665E+05 -1.444230E+04  3.399151E+04
        94   5 -1.315176E+06 -2.411526E+05 -1.497910E+03 -5.681754E+05 -1.045736E+04  2.563524E+04
        94   6 -1.298258E+06 -2.580271E+05 -1.224966E+03 -5.875906E+05 -6.468524E+03  1.725490E+04
        94   7 -7.537437E+05 -5.710689E+04  1.209579E+05 -4.378689E+05 -2.353948E+04  3.057929E+04
        94   8 -9.003100E+05 -8.795433E+04  9.274109E+04 -4.541705E+05 -1.957729E+04  2.221692E+04
        94   9 -1.013074E+06 -1.526507E+05  6.399492E+04 -5.092689E+05 -1.561144E+04  1.383056E+04
        94  10 -1.842574E+06 -4.591403E+05 -1.256133E+05 -7.371421E+05  2.779411E-10  9.709410E-10
        94  11 -1.729871E+06 -3.943394E+05 -9.574983E+04 -6.821108E+05  2.364739E-10 -1.078903E-10
        94  12 -1.583366E+06 -3.633998E+05 -6.645208E+04 -6.658806E+05 -2.058310E-09 -8.851201E-10
        94  13 -1.298311E+06 -2.581364E+05 -2.320275E+03 -5.875661E+05  3.471907E-10  5.742439E-10
        94  14 -1.315177E+06 -2.411533E+05 -1.499349E+03 -5.681752E+05 -1.075752E-10 -3.013633E-10
        94  15 -1.298258E+06 -2.580275E+05 -1.225604E+03 -5.875905E+05 -2.736044E-09 -1.074242E-09
        94  16 -7.537446E+05 -5.710804E+04  1.209551E+05 -4.378683E+05  1.580009E-10  1.562299E-10
        94  17 -9.003105E+05 -8.795496E+04  9.273945E+04 -4.541701E+05 -8.984577E-10 -1.166079E-10
        94  18 -1.013074E+06 -1.526509E+05  6.399410E+04 -5.092688E+05 -4.125351E-09 -1.017207E-09
        94  19 -1.842574E+06 -4.591388E+05 -1.256107E+05 -7.371423E+05  5.353862E+03 -3.740046E+04
        94  20 -1.729871E+06 -3.943385E+05 -9.574824E+04 -6.821109E+05  1.343998E+03 -2.905109E+04
        94  21 -1.583366E+06 -3.633994E+05 -6.645127E+04 -6.658806E+05 -2.669990E+03 -2.067760E+04
        94  22 -1.298311E+06 -2.581351E+05 -2.317714E+03 -5.875665E+05  1.444230E+04 -3.399151E+04
        94  23 -1.315176E+06 -2.411526E+05 -1.497910E+03 -5.681754E+05  1.045736E+04 -2.563524E+04
        94  24 -1.298258E+06 -2.580271E+05 -1.224966E+03 -5.875906E+05  6.468524E+03 -1.725490E+04
        94  25 -7.537437E+05 -5.710689E+04  1.209579E+05 -4.378689E+05  2.353948E+04 -3.057929E+04
        94  26 -9.003100E+05 -8.795433E+04  9.274109E+04 -4.541705E+05  1.957729E+04 -2.221692E+04
        94  27 -1.013074E+06 -1.526507E+05  6.399492E+04 -5.092689E+05  1.561144E+04 -1.383056E+04
        95   1 -1.484740E+06 -3.268643E+05 -4.321518E+04 -6.389038E+05  4.778423E+03  1.570799E+04
        95   2 -1.371532E+06 -2.619305E+05 -1.450891E+04 -5.836976E+05  8.869302E+03  7.342932E+03
        95   3 -1.224495E+06 -2.309742E+05  1.356172E+04 -5.674529E+05  1.295939E+04 -1.020983E+03
        95   4 -1.298243E+06 -2.580470E+05 -1.264790E+03 -5.876257E+05 -4.370750E+03  1.228220E+04
        95   5 -1.315144E+06 -2.410469E+05 -1.688158E+03 -5.681442E+05 -2.794886E+02  3.917532E+03
        95   6 -1.298234E+06 -2.580258E+05 -2.746881E+03 -5.876310E+05  3.810788E+03 -4.446020E+03
        95   7 -1.111708E+06 -1.892263E+05  4.068414E+04 -5.363330E+05 -1.352298E+04  8.855257E+03
        95   8 -1.258752E+06 -2.201627E+05  1.113296E+04 -5.525892E+05 -9.429308E+03  4.917437E+02
        95   9 -1.371968E+06 -2.850775E+05 -1.905586E+04 -6.078073E+05 -5.336821E+03 -7.870688E+03
        95  10 -1.484741E+06 -3.268646E+05 -4.321569E+04 -6.389039E+05 -3.989097E-09 -9.861361E-10
        95  11 -1.371532E+06 -2.619305E+05 -1.450916E+04 -5.836977E+05 -1.123775E-09  2.870611E-10
        95  12 -1.224496E+06 -2.309743E+05  1.356140E+04 -5.674528E+05  3.287465E-10  1.152240E-09
        95  13 -1.298243E+06 -2.580471E+05 -1.265109E+03 -5.876257E+05 -2.987368E-09 -6.140485E-10
        95  14 -1.315144E+06 -2.410469E+05 -1.688187E+03 -5.681442E+05  1.319678E-09  3.153085E-10
        95  15 -1.298234E+06 -2.580258E+05 -2.746945E+03 -5.876310E+05  1.759459E-10  9.464642E-10
        95  16 -1.111709E+06 -1.892265E+05  4.068365E+04 -5.363329E+05 -2.169988E-09 -2.755376E-10
        95  17 -1.258753E+06 -2.201627E+05  1.113279E+04 -5.525892E+05  2.294409E-09  4.500437E-10
        95  18 -1.371968E+06 -2.850775E+05 -1.905603E+04 -6.078074E+05  5.419415E-10  6.139361E-10
        95  19 -1.484740E+06 -3.268643E+05 -4.321518E+04 -6.389038E+05 -4.778423E+03 -1.570799E+04
        95  20 -1.371532E+06 -2.619305E+05 -1.450891E+04 -5.836976E+05 -8.869302E+03 -7.342932E+03
        95  21 -1.224495E+06 -2.309742E+05  1.356172E+04 -5.674529E+05 -1.295939E+04  1.020983E+03
        95  22 -1.298243E+06 -2.580470E+05 -1.264790E+03 -5.876257E+05  4.370750E+03 -1.228220E+04
        95  23 -1.315144E+06 -2.410469E+05 -1.688158E+03 -5.681442E+05  2.794886E+02 -3.917532E+03
        95  24 -1.298234E+06 -2.580258E+05 -2.746881E+03 -5.876310E+05 -3.810788E+03  4.446020E+03
        95  25 -1.111708E+06 -1.892263E+05  4.068414E+04 -5.363330E+05  1.352298E+04 -8.855257E+03
        95  26 -1.258752E+06 -2.201627E+05  1.113296E+04 -5.525892E+05  9.429308E+03 -4.917437E+02
        95  27 -1.371968E+06 -2.850775E+05 -1.905586E+04 -6.078073E+05  5.336821E+03  7.870688E+03
        96   1 -1.125843E+06 -1.944320E+05  3.600831E+04 -5.405121E+05  1.539220E+04 -5.876749E+03
        96   2 -1.012651E+06 -1.295759E+05  6.230131E+04 -4.852915E+05  2.172111E+04 -1.336550E+04
        96   3 -8.661131E+05 -9.909040E+04  8.617818E+04 -4.689450E+05  2.802102E+04 -2.076560E+04
        96   4 -1.298335E+06 -2.579968E+05 -3.580566E+03 -5.876597E+05  6.227401E+03 -9.308303E+03
        96   5 -1.315035E+06 -2.410168E+05 -6.372832E+03 -5.681449E+05  1.264645E+04 -1.676508E+04
        96   6 -1.298423E+06 -2.584269E+05 -1.165278E+04 -5.875112E+05  1.903581E+04 -2.413340E+04
        96   7 -1.470793E+06 -3.215582E+05 -4.317021E+04 -6.347944E+05 -2.934466E+03 -1.273877E+04
        96   8 -1.617324E+06 -3.524498E+05 -7.505175E+04 -6.509606E+05  3.576679E+03 -2.016284E+04
        96   9 -1.730544E+06 -4.177490E+05 -1.094952E+05 -7.060015E+05  1.005740E+04 -2.749867E+04
        96  10 -1.125844E+06 -1.944321E+05  3.600780E+04 -5.405120E+05  4.166503E-09  2.140916E-09
        96  11 -1.012652E+06 -1.295762E+05  6.230009E+04 -4.852913E+05 -2.310671E-09 -1.997366E-09
        96  12 -8.661140E+05 -9.909108E+04  8.617589E+04 -4.689445E+05 -1.317221E-08 -7.012777E-09
        96  13 -1.298335E+06 -2.579969E+05 -3.580802E+03 -5.876596E+05  1.166519E-09  1.502678E-09
        96  14 -1.315035E+06 -2.410172E+05 -6.373661E+03 -5.681448E+05  4.654772E-09  7.154821E-10
        96  15 -1.298424E+06 -2.584276E+05 -1.165456E+04 -5.875108E+05 -1.553196E-09 -2.100313E-09
        96  16 -1.470793E+06 -3.215584E+05 -4.317053E+04 -6.347944E+05  1.188416E-10  6.121805E-10
        96  17 -1.617324E+06 -3.524502E+05 -7.505253E+04 -6.509605E+05  9.472164E-09  3.933947E-09
        96  18 -1.730545E+06 -4.177498E+05 -1.094968E+05 -7.060013E+05  1.092297E-08  2.948200E-09
        96  19 -1.125843E+06 -1.944320E+05  3.600831E+04 -5.405121E+05 -1.539220E+04  5.876749E+03
        96  20 -1.012651E+06 -1.295759E+05  6.230131E+04 -4.852915E+05 -2.172111E+04  1.336550E+04
        96  21 -8.661131E+05 -9.909040E+04  8.617818E+04 -4.689450E+05 -2.802102E+04  2.076560E+04
        96  22 -1.298335E+06 -2.579968E+05 -3.580566E+03 -5.876597E+05 -6.227401E+03  9.308303E+03
        96  23 -1.315035E+06 -2.410168E+05 -6.372832E+03 -5.681449E+05 -1.264645E+04  1.676508E+04
        96  24 -1.298423E+06 -2.584269E+05 -1.165278E+04 -5.875112E+05 -1.903581E+04  2.413340E+04
        96  25 -1.470793E+06 -3.215582E+05 -4.317021E+04 -6.347944E+05  2.934466E+03  1.273877E+04
        96  26 -1.617324E+06 -3.524498E+05 -7.505175E+04 -6.509606E+05 -3.576679E+03  2.016284E+04
        96  27 -1.730544E+06 -4.177490E+05 -1.094952E+05 -7.060015E+05 -1.005740E+04  2.749867E+04
        97   1 -7.673543E+05 -6.301396E+04  1.055457E+05 -4.437831E+05  3.252518E+04 -2.493001E+04
        97   2 -6.554135E+05  3.024454E+03  1.222396E+05 -3.858425E+05  4.798877E+04 -2.836790E+04
        97   3 -5.146779E+05  2.641286E+04  1.272950E+05 -3.645437E+05  6.285922E+04 -3.019730E+04
        97   4 -1.299150E+06 -2.576639E+05 -1.540495E+04 -5.880280E+05  2.312885E+04 -2.845357E+04
        97   5 -1.314114E+06 -2.412146E+05 -2.793814E+04 -5.678240E+05  4.027160E+04 -3.126597E+04
        97   6 -1.300642E+06 -2.677620E+05 -5.345333E+04 -5.842732E+05  5.681811E+04 -3.247006E+04
        97   7 -1.830664E+06 -4.522953E+05 -1.363747E+05 -7.321612E+05  1.374119E+04 -3.197396E+04
        97   8 -1.972381E+06 -4.854211E+05 -1.781449E+05 -7.496290E+05  3.256328E+04 -3.416069E+04
        97   9 -2.085986E+06 -5.618869E+05 -2.342430E+05 -8.037466E+05  5.078528E+04 -3.473964E+04
        97  10 -7.673556E+05 -6.301491E+04  1.055426E+05 -4.437824E+05  1.008519E-08  2.741832E-09
        97  11 -6.554161E+05  3.022973E+03  1.222338E+05 -3.858414E+05  6.192884E-09  2.996823E-09
        97  12 -5.146824E+05  2.641082E+04  1.272858E+05 -3.645421E+05 -2.180163E-09  1.092583E-10
        97  13 -1.299151E+06 -2.576649E+05 -1.540748E+04 -5.880275E+05 -3.160895E-09 -2.322944E-09
        97  14 -1.314116E+06 -2.412161E+05 -2.794303E+04 -5.678230E+05  5.235104E-10  3.132192E-10
        97  15 -1.300645E+06 -2.677640E+05 -5.346138E+04 -5.842717E+05  4.823352E-10  8.650471E-10
        97  16 -1.830665E+06 -4.522965E+05 -1.363770E+05 -7.321609E+05 -1.550664E-08 -7.322133E-09
        97  17 -1.972383E+06 -4.854227E+05 -1.781491E+05 -7.496281E+05 -4.913524E-09 -2.553916E-09
        97  18 -2.085989E+06 -5.618889E+05 -2.342501E+05 -8.037452E+05  3.031998E-09  1.922280E-09
        97  19 -7.673543E+05 -6.301396E+04  1.055457E+05 -4.437831E+05 -3.252518E+04  2.493001E+04
        97  20 -6.554135E+05  3.024454E+03  1.222396E+05 -3.858425E+05 -4.798877E+04  2.836790E+04
        97  21 -5.146779E+05  2.641286E+04  1.272950E+05 -3.645437E+05 -6.285922E+04  3.019730E+04
        97  22 -1.299150E+06 -2.576639E+05 -1.540495E+04 -5.880280E+05 -2.312885E+04  2.845357E+04
        97  23 -1.314114E+06 -2.412146E+05 -2.793814E+04 -5.678240E+05 -4.027160E+04  3.126597E+04
        97  24 -1.300642E+06 -2.677620E+05 -5.345333E+04 -5.842732E+05 -5.681811E+04  3.247006E+04
        97  25 -1.830664E+06 -4.522953E+05 -1.363747E+05 -7.321612E+05 -1.374119E+04  3.197396E+04
        97  26 -1.972381E+06 -4.854211E+05 -1.781449E+05 -7.496290E+05 -3.256328E+04  3.416069E+04
        97  27 -2.085986E+06 -5.618869E+05 -2.342430E+05 -8.037466E+05 -5.078528E+04  3.473964E+04
        98   1 -4.019585E+05  5.581881E+04  1.339441E+05 -3.745157E+05  8.285778E+04 -3.081868E+04
        98   2 -3.197829E+05  1.562769E+05  1.148838E+05 -2.473861E+05  1.129532E+05 -1.681017E+04
        98   3 -2.781241E+05  4.212500E+04  2.270904E+04 -1.086363E+05  1.306057E+05  3.030221E+04
        98   4 -1.309604E+06 -2.512417E+05 -6.837043E+04 -5.946829E+05  6.782554E+04 -3.646535E+04
        98   5 -1.301310E+06 -2.492134E+05 -1.236568E+05 -5.596460E+05  1.327745E+05 -9.377860E+03
        98   6 -1.340589E+06 -4.689280E+05 -2.798070E+05 -5.129743E+05  1.852619E+05  5.082850E+04
        98   7 -2.216419E+06 -5.582709E+05 -2.707339E+05 -8.145684E+05  5.281723E+04 -4.210481E+04
        98   8 -2.281866E+06 -6.545677E+05 -3.622669E+05 -8.714311E+05  1.525616E+05 -1.961719E+03
        98   9 -2.401921E+06 -9.796844E+05 -5.824169E+05 -9.166146E+05  2.398156E+05  7.129159E+04
        98  10 -4.019662E+05  5.581595E+04  1.339294E+05 -3.745136E+05  1.694363E-10  6.570473E-10
        98  11 -3.197967E+05  1.562732E+05  1.148593E+05 -2.473846E+05  1.210726E-10  7.161348E-10
        98  12 -2.781426E+05  4.211943E+04  2.267524E+04 -1.086395E+05  1.835523E-11  1.847856E-10
        98  13 -1.309610E+06 -2.512443E+05 -6.838158E+04 -5.946809E+05 -4.067338E-10  6.975589E-10
        98  14 -1.301329E+06 -2.492182E+05 -1.236902E+05 -5.596450E+05 -6.395403E-10  8.698645E-10
        98  15 -1.340627E+06 -4.689401E+05 -2.798765E+05 -5.129819E+05  1.291842E-09 -2.230616E-10
        98  16 -2.216422E+06 -5.582736E+05 -2.707424E+05 -8.145666E+05 -7.006037E-10  6.827260E-10
        98  17 -2.281891E+06 -6.545740E+05 -3.623108E+05 -8.714308E+05  1.845843E-09  2.979445E-10
        98  18 -2.401984E+06 -9.797054E+05 -5.825350E+05 -9.166284E+05  4.006408E-10 -6.873778E-11
        98  19 -4.019585E+05  5.581881E+04  1.339441E+05 -3.745157E+05 -8.285778E+04  3.081868E+04
        98  20 -3.197829E+05  1.562769E+05  1.148838E+05 -2.473861E+05 -1.129532E+05  1.681017E+04
        98  21 -2.781241E+05  4.212500E+04  2.270904E+04 -1.086363E+05 -1.306057E+05 -3.030221E+04
        98  22 -1.309604E+06 -2.512417E+05 -6.837043E+04 -5.946829E+05 -6.782554E+04  3.646535E+04
        98  23 -1.301310E+06 -2.492134E+05 -1.236568E+05 -5.596460E+05 -1.327745E+05  9.377860E+03
        98  24 -1.340589E+06 -4.689280E+05 -2.798070E+05 -5.129743E+05 -1.852619E+05 -5.082850E+04
        98  25 -2.216419E+06 -5.582709E+05 -2.707339E+05 -8.145684E+05 -5.281723E+04  4.210481E+04
        98  26 -2.281866E+06 -6.545677E+05 -3.622669E+05 -8.714311E+05 -1.525616E+05  1.961719E+03
        98  27 -2.401921E+06 -9.796844E+05 -5.824169E+05 -9.166146E+05 -2.398156E+05 -7.129159E+04
        99   1 -1.005990E+06 -1.626630E+05 -1.373314E+05 -1.538446E+04  2.758910E+04  1.450761E+04
        99   2 -9.243673E+05 -2.260375E+05 -1.518746E+05 -3.289258E+04  3.059164E+04  4.648359E+04
        99   3 -8.238147E+05 -2.132858E+05 -1.493006E+05 -7.956738E+04  3.362438E+04  5.093211E+04
        99   4  4.467198E+04  9.788635E+04  1.148243E+05 -6.683339E+04  7.920877E+04  1.455400E+04
        99   5  3.255845E+04  6.462367E+03  5.335561E+04 -5.221459E+04  5.116567E+04  4.649221E+04
        99   6  4.472559E+04 -3.510659E+03  3.054396E+04 -6.675797E+04  2.315429E+04  5.092247E+04
        99   7  1.096358E+06  3.583670E+05  3.669132E+05 -1.183700E+05  1.309155E+05  1.459179E+04
        99   8  9.903480E+05  2.389039E+05  2.585342E+05 -7.156696E+04  7.177095E+04  4.649955E+04
        99   9  9.139820E+05  2.062173E+05  2.103480E+05 -5.393036E+04  1.266977E+04  5.091241E+04
        99  10 -1.005991E+06 -1.626634E+05 -1.373332E+05 -1.538478E+04  3.996031E-10  4.608972E-10
        99  11 -9.243689E+05 -2.260401E+05 -1.518804E+05 -3.289372E+04  1.135836E-10  3.441121E-10
        99  12 -8.238166E+05 -2.132888E+05 -1.493076E+05 -7.956876E+04 -6.683673E-10 -3.353607E-10
        99  13  4.466518E+04  9.788444E+04  1.148122E+05 -6.683432E+04 -9.405390E-10 -1.496308E-10
        99  14  3.255506E+04  6.459343E+03  5.334663E+04 -5.221650E+04 -5.946585E-10  1.203245E-10
        99  15  4.472432E+04 -3.513587E+03  3.053808E+04 -6.675892E+04  1.977375E-11 -4.189559E-10
        99  16  1.096339E+06  3.583622E+05  3.668807E+05 -1.183716E+05  2.019556E-10  3.658834E-10
        99  17  9.903419E+05  2.389002E+05  2.585205E+05 -7.156965E+04 -6.038619E-10 -2.981805E-10
        99  18  9.139811E+05  2.062144E+05  2.103429E+05 -5.393088E+04 -1.471875E-09 -3.585730E-10
        99  19 -1.005990E+06 -1.626630E+05 -1.373314E+05 -1.538446E+04 -2.758910E+04 -1.450761E+04
        99  20 -9.243673E+05 -2.260375E+05 -1.518746E+05 -3.289258E+04 -3.059164E+04 -4.648359E+04
        99  21 -8.238147E+05 -2.132858E+05 -1.493006E+05 -7.956738E+04 -3.362438E+04 -5.093211E+04
        99  22  4.467198E+04  9.788635E+04  1.148243E+05 -6.683339E+04 -7.920877E+04 -1.455400E+04
        99  23  3.255845E+04  6.462367E+03  5.335561E+04 -5.221459E+04 -5.116567E+04 -4.649221E+04
        99  24  4.472559E+04 -3.510659E+03  3.054396E+04 -6.675797E+04 -2.315429E+04 -5.092247E+04
        99  25  1.096358E+06  3.583670E+05  3.669132E+05 -1.183700E+05 -1.309155E+05 -1.459179E+04
        99  26  9.903480E+05  2.389039E+05  2.585342E+05 -7.156696E+04 -7.177095E+04 -4.649955E+04
        99  27  9.139820E+05  2.062173E+05  2.103480E+05 -5.393036E+04 -1.266977E+04 -5.091241E+04
       100   1 -7.611212E+05 -1.896067E+05 -1.424571E+05 -6.595609E+04  2.252646E+04  4.619316E+04
       100   2 -6.711717E+05 -1.714111E+05 -1.333639E+05 -5.168364E+04  1.757411E+04  4.232142E+04
       100   3 -5.795629E+05 -1.497483E+05 -1.201429E+05 -6.791024E+04  1.261760E+04  3.703445E+04
       100   4  3.978101E+04  3.922206E+03  2.393578E+04 -6.707244E+04  1.897914E+04  4.618735E+04
       100   5  3.883816E+04 -5.573458E+01  1.312747E+04 -5.182382E+04  1.242404E+04  4.231690E+04
       100   6  3.982104E+04 -2.908092E+02  7.555555E+03 -6.707197E+04  5.865489E+03  3.703199E+04
       100   7  8.412912E+05  1.974103E+05  1.902936E+05 -6.819026E+04  1.542730E+04  4.618156E+04
       100   8  7.493265E+05  1.712678E+05  1.595918E+05 -5.196416E+04  7.268182E+03  4.231238E+04
       100   9  6.595693E+05  1.491425E+05  1.352335E+05 -6.623283E+04 -8.932510E+02  3.702952E+04
       100  10 -7.611223E+05 -1.896091E+05 -1.424621E+05 -6.595693E+04  2.681952E-10 -8.371555E-10
       100  11 -6.711725E+05 -1.714131E+05 -1.333679E+05 -5.168423E+04  5.418081E-10 -2.944148E-10
       100  12 -5.795635E+05 -1.497498E+05 -1.201458E+05 -6.791062E+04 -1.444970E-09  1.959830E-10
       100  13  3.978005E+04  3.919819E+03  2.393109E+04 -6.707314E+04 -1.020693E-09 -7.464774E-10
       100  14  3.883751E+04 -5.769901E+01  1.312382E+04 -5.182424E+04  1.610793E-09 -7.558378E-11
       100  15  3.982064E+04 -2.922911E+02  7.552913E+03 -6.707215E+04  1.376943E-10  4.219309E-10
       100  16  8.412903E+05  1.974079E+05  1.902892E+05 -6.819084E+04  2.749704E-10 -2.796190E-10
       100  17  7.493260E+05  1.712659E+05  1.595883E+05 -5.196441E+04 -1.845554E-09 -1.934988E-10
       100  18  6.595689E+05  1.491410E+05  1.352309E+05 -6.623280E+04  1.824401E-10  3.645042E-10
       100  19 -7.611212E+05 -1.896067E+05 -1.424571E+05 -6.595609E+04 -2.252646E+04 -4.619316E+04
       100  20 -6.711717E+05 -1.714111E+05 -1.333639E+05 -5.168364E+04 -1.757411E+04 -4.232142E+04
       100  21 -5.795629E+05 -1.497483E+05 -1.201429E+05 -6.791024E+04 -1.261760E+04 -3.703445E+04
       100  22  3.978101E+04  3.922206E+03  2.393578E+04 -6.707244E+04 -1.897914E+04 -4.618735E+04
       100  23  3.883816E+04 -5.573458E+01  1.312747E+04 -5.182382E+04 -1.242404E+04 -4.231690E+04
       100  24  3.982104E+04 -2.908092E+02  7.555555E+03 -6.707197E+04 -5.865489E+03 -3.703199E+04
       100  25  8.412912E+05  1.974103E+05  1.902936E+05 -6.819026E+04 -1.542730E+04 -4.618156E+04
       100  26  7.493265E+05  1.712678E+05  1.595918E+05 -5.196416E+04 -7.268182E+03 -4.231238E+04
       100  27  6.595693E+05  1.491425E+05  1.352335E+05 -6.623283E+04  8.932510E+02 -3.702952E+04
       101   1 -5.130685E+05 -1.331971E+05 -1.077492E+05 -6.723667E+04  1.108636E+04  3.358148E+04
       101   2 -4.224561E+05 -1.114602E+05 -9.171748E+04 -5.188375E+04  9.542342E+03  2.786913E+04
       101   3 -3.315509E+05 -8.954116E+04 -7.462514E+04 -6.708712E+04  7.995287E+03  2.208437E+04
       101   4  3.947613E+04  4.653621E+01  5.763750E+03 -6.708508E+04  4.690209E+03  3.358011E+04
       101   5  3.933963E+04 -7.778268E+01  3.289969E+03 -5.180766E+04  3.062805E+03  2.786923E+04
       101   6  3.950220E+04 -5.361368E+00  1.934018E+03 -6.708516E+04  1.432588E+03  2.208599E+04
       101   7  5.923109E+05  1.332710E+05  1.192605E+05 -6.693332E+04 -1.711544E+03  3.357875E+04
       101   8  5.013380E+05  1.112912E+05  9.828614E+04 -5.173149E+04 -3.421469E+03  2.786933E+04
       101   9  4.106860E+05  8.952176E+04  7.848591E+04 -6.708319E+04 -5.133967E+03  2.208760E+04
       101  10 -5.130690E+05 -1.331984E+05 -1.077515E+05 -6.723697E+04  6.104699E-10  5.909292E-10
       101  11 -4.224565E+05 -1.114610E+05 -9.171911E+04 -5.188397E+04 -3.693742E-10  2.769947E-10
       101  12 -3.315511E+05 -8.954171E+04 -7.462618E+04 -6.708726E+04  2.283652E-09 -7.345162E-10
       101  13  3.947580E+04  4.531940E+01  5.761590E+03 -6.708521E+04  1.075239E-09  5.850067E-10
       101  14  3.933941E+04 -7.861926E+01  3.288491E+03 -5.180773E+04  2.155466E-09  4.567675E-10
       101  15  3.950206E+04 -5.885736E+00  1.933097E+03 -6.708519E+04 -7.011068E-10 -4.096193E-10
       101  16  5.923106E+05  1.332698E+05  1.192584E+05 -6.693328E+04 -6.337490E-10  6.190996E-10
       101  17  5.013377E+05  1.112903E+05  9.828466E+04 -5.173141E+04  8.756128E-10  2.499466E-10
       101  18  4.106858E+05  8.952123E+04  7.848494E+04 -6.708310E+04 -5.185056E-11 -8.463469E-10
       101  19 -5.130685E+05 -1.331971E+05 -1.077492E+05 -6.723667E+04 -1.108636E+04 -3.358148E+04
       101  20 -4.224561E+05 -1.114602E+05 -9.171748E+04 -5.188375E+04 -9.542342E+03 -2.786913E+04
       101  21 -3.315509E+05 -8.954116E+04 -7.462514E+04 -6.708712E+04 -7.995287E+03 -2.208437E+04
       101  22  3.947613E+04  4.653621E+01  5.763750E+03 -6.708508E+04 -4.690209E+03 -3.358011E+04
       101  23  3.933963E+04 -7.778268E+01  3.289969E+03 -5.180766E+04 -3.062805E+03 -2.786923E+04
       101  24  3.950220E+04 -5.361368E+00  1.934018E+03 -6.708516E+04 -1.432588E+03 -2.208599E+04
       101  25  5.923109E+05  1.332710E+05  1.192605E+05 -6.693332E+04  1.711544E+03 -3.357875E+04
       101  26  5.013380E+05  1.112912E+05  9.828614E+04 -5.173149E+04  3.421469E+03 -2.786933E+04
       101  27  4.106860E+05  8.952176E+04  7.848591E+04 -6.708319E+04  5.133967E+03 -2.208760E+04
       102   1 -2.647982E+05 -7.331380E+04 -6.084293E+04 -6.706049E+04  7.665490E+03  1.869861E+04
       102   2 -1.740679E+05 -5.146907E+04 -4.296676E+04 -5.177561E+04  7.202377E+03  1.289313E+04
       102   3 -8.328084E+04 -2.959026E+04 -2.478598E+04 -6.704347E+04  6.737898E+03  7.084201E+03
       102   4  3.945659E+04  1.363244E+01  1.496865E+03 -6.708453E+04  1.120899E+03  1.870087E+04
       102   5  3.943717E+04  1.750191E+01  9.428637E+02 -5.180847E+04  6.532930E+02  1.289607E+04
       102   6  3.946864E+04  5.699164E+01  6.969372E+02 -6.708453E+04  1.843863E+02  7.087834E+03
       102   7  3.437994E+05  7.333527E+04  6.383190E+04 -6.710857E+04 -5.426842E+03  1.870313E+04
       102   8  2.529856E+05  5.150123E+04  4.485021E+04 -5.184134E+04 -5.898004E+03  1.289900E+04
       102   9  1.622325E+05  2.970331E+04  2.617919E+04 -6.712559E+04 -6.370399E+03  7.091468E+03
       102  10 -2.647984E+05 -7.331419E+04 -6.084370E+04 -6.706060E+04  8.640825E-10 -6.015837E-10
       102  11 -1.740680E+05 -5.146927E+04 -4.296717E+04 -5.177568E+04  1.103026E-09  9.944370E-12
       102  12 -8.328090E+04 -2.959032E+04 -2.478616E+04 -6.704351E+04 -1.336202E-10  5.556701E-10
       102  13  3.945649E+04  1.325655E+01  1.496205E+03 -6.708454E+04  1.037175E-09 -1.055987E-09
       102  14  3.943713E+04  1.732321E+01  9.425504E+02 -5.180848E+04 -5.198696E-10  1.960255E-10
       102  15  3.946862E+04  5.693768E+01  6.968427E+02 -6.708453E+04  2.490993E-10  3.303210E-10
       102  16  3.437993E+05  7.333489E+04  6.383118E+04 -6.710848E+04  1.821156E-09 -5.677190E-10
       102  17  2.529855E+05  5.150104E+04  4.484983E+04 -5.184128E+04 -6.693452E-10  4.192399E-10
       102  18  1.622324E+05  2.970324E+04  2.617902E+04 -6.712555E+04 -9.645221E-10  1.391895E-12
       102  19 -2.647982E+05 -7.331380E+04 -6.084293E+04 -6.706049E+04 -7.665490E+03 -1.869861E+04
       102  20 -1.740679E+05 -5.146907E+04 -4.296676E+04 -5.177561E+04 -7.202377E+03 -1.289313E+04
       102  21 -8.328084E+04 -2.959026E+04 -2.478598E+04 -6.704347E+04 -6.737898E+03 -7.084201E+03
       102  22  3.945659E+04  1.363244E+01  1.496865E+03 -6.708453E+04 -1.120899E+03 -1.870087E+04
       102  23  3.943717E+04  1.750191E+01  9.428637E+02 -5.180847E+04 -6.532930E+02 -1.289607E+04
       102  24  3.946864E+04  5.699164E+01  6.969372E+02 -6.708453E+04 -1.843863E+02 -7.087834E+03
       102  25  3.437994E+05  7.333527E+04  6.383190E+04 -6.710857E+04  5.426842E+03 -1.870313E+04
       102  26  2.529856E+05  5.150123E+04  4.485021E+04 -5.184134E+04  5.898004E+03 -1.289900E+04
       102  27  1.622325E+05  2.970331E+04  2.617919E+04 -6.712559E+04  6.370399E+03 -7.091468E+03
       103   1 -1.647750E+04 -1.338226E+04 -1.060772E+04 -6.706798E+04  6.612927E+03  3.702424E+03
       103   2  7.427598E+04  8.433968E+03  7.887364E+03 -5.180369E+04  6.248416E+03 -2.105736E+03
       103   3  1.650608E+05  3.028474E+04  2.661924E+04 -6.709144E+04  5.884063E+03 -7.910972E+03
       103   4  3.946465E+04  5.877742E+01  6.557842E+02 -6.708453E+04  5.930154E+01  3.706231E+03
       103   5  3.945287E+04  3.754002E+01  7.259148E+02 -5.180846E+04 -3.023918E+02 -2.102056E+03
       103   6  3.946269E+04  5.044982E+01  1.030626E+03 -6.708453E+04 -6.638763E+02 -7.907392E+03
       103   7  9.540988E+04  1.349964E+04  1.191929E+04 -6.710109E+04 -6.494903E+03  3.710039E+03
       103   8  4.631002E+03 -8.358942E+03 -6.435438E+03 -5.181323E+04 -6.852839E+03 -2.098376E+03
       103   9 -8.612037E+04 -3.018481E+04 -2.455866E+04 -6.707762E+04 -7.210516E+03 -7.903811E+03
       103  10 -1.647755E+04 -1.338228E+04 -1.060783E+04 -6.706800E+04 -5.478832E-10  1.077303E-09
       103  11  7.427594E+04  8.433953E+03  7.887282E+03 -5.180368E+04 -3.477883E-10  1.185761E-09
       103  12  1.650608E+05  3.028467E+04  2.661906E+04 -6.709141E+04 -1.883476E-09 -4.689035E-10
       103  13  3.946465E+04  5.876267E+01  6.557584E+02 -6.708454E+04 -1.140412E-09  5.331593E-10
       103  14  3.945287E+04  3.753525E+01  7.259063E+02 -5.180846E+04 -1.573748E-09  1.600132E-10
       103  15  3.946267E+04  5.038255E+01  1.030508E+03 -6.708454E+04 -2.584863E-09  4.478213E-10
       103  16  9.540984E+04  1.349962E+04  1.191919E+04 -6.710107E+04  5.411517E-10  3.007832E-10
       103  17  4.630951E+03 -8.358959E+03 -6.435535E+03 -5.181324E+04 -8.460873E-10  3.362032E-10
       103  18 -8.612045E+04 -3.018489E+04 -2.455888E+04 -6.707766E+04  3.015915E-09  9.341609E-10
       103  19 -1.647750E+04 -1.338226E+04 -1.060772E+04 -6.706798E+04 -6.612927E+03 -3.702424E+03
       103  20  7.427598E+04  8.433968E+03  7.887364E+03 -5.180369E+04 -6.248416E+03  2.105736E+03
       103  21  1.650608E+05  3.028474E+04  2.661924E+04 -6.709144E+04 -5.884063E+03  7.910972E+03
       103  22  3.946465E+04  5.877742E+01  6.557842E+02 -6.708453E+04 -5.930154E+01 -3.706231E+03
       103  23  3.945287E+04  3.754002E+01  7.259148E+02 -5.180846E+04  3.023918E+02  2.102056E+03
       103  24  3.946269E+04  5.044982E+01  1.030626E+03 -6.708453E+04  6.638763E+02  7.907392E+03
       103  25  9.540988E+04  1.349964E+04  1.191929E+04 -6.710109E+04  6.494903E+03 -3.710039E+03
       103  26  4.631002E+03 -8.358942E+03 -6.435438E+03 -5.181323E+04  6.852839E+03  2.098376E+03
       103  27 -8.612037E+04 -3.018481E+04 -2.455866E+04 -6.707762E+04  7.210516E+03  7.903811E+03
       104   1  2.319124E+05  4.647862E+04  4.109952E+04 -6.709410E+04  5.687354E+03 -1.129492E+04
       104   2  3.226107E+05  6.826737E+04  6.038881E+04 -5.179966E+04  4.555152E+03 -1.708101E+04
       104   3  4.134943E+05  9.020572E+04  8.044892E+04 -6.705618E+04  3.424530E+03 -2.280654E+04
       104   4  3.949021E+04  3.934444E+01  1.294143E+03 -6.708447E+04 -8.762820E+02 -1.129164E+04
       104   5  3.939938E+04 -1.166916E+01  2.143642E+03 -5.180853E+04 -1.940139E+03 -1.707868E+04
       104   6  3.947423E+04  7.559309E+01  3.716941E+03 -6.708440E+04 -3.002256E+03 -2.280512E+04
       104   7 -1.528968E+05 -4.640225E+04 -3.851308E+04 -6.707483E+04 -7.437920E+03 -1.128836E+04
       104   8 -2.437358E+05 -6.829573E+04 -5.610566E+04 -5.181739E+04 -8.432521E+03 -1.707635E+04
       104   9 -3.344130E+05 -9.006331E+04 -7.302234E+04 -6.711260E+04 -9.425241E+03 -2.280370E+04
       104  10  2.319123E+05  4.647848E+04  4.109922E+04 -6.709405E+04 -2.005545E-08 -1.275823E-09
       104  11  3.226106E+05  6.826705E+04  6.038822E+04 -5.179960E+04  2.065481E-09 -1.794513E-09
       104  12  4.134942E+05  9.020516E+04  8.044792E+04 -6.705611E+04  2.080548E-08 -1.126034E-09
       104  13  3.949018E+04  3.920732E+01  1.293902E+03 -6.708448E+04 -2.216325E-09 -4.073903E-10
       104  14  3.939929E+04 -1.198340E+01  2.143086E+03 -5.180856E+04  5.739296E-10 -2.212862E-09
       104  15  3.947408E+04  7.503219E+01  3.715947E+03 -6.708446E+04  1.075112E-09 -1.388409E-09
       104  16 -1.528969E+05 -4.640241E+04 -3.851343E+04 -6.707490E+04  2.014520E-08 -4.277796E-11
       104  17 -2.437359E+05 -6.829607E+04 -5.610635E+04 -5.181751E+04 -8.114302E-10 -1.720915E-09
       104  18 -3.344132E+05 -9.006389E+04 -7.302349E+04 -6.711277E+04 -1.989265E-08 -1.241877E-09
       104  19  2.319124E+05  4.647862E+04  4.109952E+04 -6.709410E+04 -5.687354E+03  1.129492E+04
       104  20  3.226107E+05  6.826737E+04  6.038881E+04 -5.179966E+04 -4.555152E+03  1.708101E+04
       104  21  4.134943E+05  9.020572E+04  8.044892E+04 -6.705618E+04 -3.424530E+03  2.280654E+04
       104  22  3.949021E+04  3.934444E+01  1.294143E+03 -6.708447E+04  8.762820E+02  1.129164E+04
       104  23  3.939938E+04 -1.166916E+01  2.143642E+03 -5.180853E+04  1.940139E+03  1.707868E+04
       104  24  3.947423E+04  7.559309E+01  3.716941E+03 -6.708440E+04  3.002256E+03  2.280512E+04
       104  25 -1.528968E+05 -4.640225E+04 -3.851308E+04 -6.707483E+04  7.437920E+03  1.128836E+04
       104  26 -2.437358E+05 -6.829573E+04 -5.610566E+04 -5.181739E+04  8.432521E+03  1.707635E+04
       104  27 -3.344130E+05 -9.006331E+04 -7.302234E+04 -6.711260E+04  9.425241E+03  2.280370E+04
       105   1  4.805997E+05  1.061951E+05  9.578091E+04 -6.662475E+04  2.964437E+03 -2.624545E+04
       105   2  5.707054E+05  1.282138E+05  1.180758E+05 -5.202776E+04 -2.586847E+03 -3.161281E+04
       105   3  6.622609E+05  1.528754E+05  1.446557E+05 -6.793020E+04 -8.135916E+03 -3.579903E+04
       105   4  3.969549E+04 -1.415961E+02  4.862765E+03 -6.707320E+04 -3.760673E+03 -2.624473E+04
       105   5  3.907391E+04 -2.363637E+00  8.433151E+03 -5.182245E+04 -7.975582E+03 -3.161401E+04
       105   6  3.966549E+04  2.550188E+03  1.536375E+04 -6.707266E+04 -1.218750E+04 -3.580167E+04
       105   7 -4.010244E+05 -1.064906E+05 -8.606568E+04 -6.752129E+04 -1.048109E+04 -2.624399E+04
       105   8 -4.922896E+05 -1.282364E+05 -1.012247E+05 -5.161731E+04 -1.335978E+04 -3.161522E+04
       105   9 -5.825631E+05 -1.477997E+05 -1.139493E+05 -6.621598E+04 -1.623509E+04 -3.580432E+04
       105  10  4.805995E+05  1.061944E+05  9.577960E+04 -6.662469E+04  1.147826E-09  7.212562E-11
       105  11  5.707051E+05  1.282127E+05  1.180740E+05 -5.202782E+04  1.870832E-09  7.814375E-10
       105  12  6.622605E+05  1.528740E+05  1.446531E+05 -6.793044E+04  1.399131E-09  1.967090E-10
       105  13  3.969529E+04 -1.423395E+02  4.861443E+03 -6.707328E+04 -3.365598E-11  1.645139E-10
       105  14  3.907358E+04 -3.453985E+00  8.431153E+03 -5.182266E+04  1.606278E-09  1.197393E-09
       105  15  3.966499E+04  2.548772E+03  1.536106E+04 -6.707301E+04  2.026876E-09  4.505152E-10
       105  16 -4.010247E+05 -1.064913E+05 -8.606719E+04 -6.752152E+04 -1.507709E-09  2.078316E-10
       105  17 -4.922900E+05 -1.282375E+05 -1.012269E+05 -5.161765E+04 -1.760817E-09  1.242335E-09
       105  18 -5.825637E+05 -1.478011E+05 -1.139522E+05 -6.621644E+04 -5.452201E-10  7.334508E-10
       105  19  4.805997E+05  1.061951E+05  9.578091E+04 -6.662475E+04 -2.964437E+03  2.624545E+04
       105  20  5.707054E+05  1.282138E+05  1.180758E+05 -5.202776E+04  2.586847E+03  3.161281E+04
       105  21  6.622609E+05  1.528754E+05  1.446557E+05 -6.793020E+04  8.135916E+03  3.579903E+04
       105  22  3.969549E+04 -1.415961E+02  4.862765E+03 -6.707320E+04  3.760673E+03  2.624473E+04
       105  23  3.907391E+04 -2.363637E+00  8.433151E+03 -5.182245E+04  7.975582E+03  3.161401E+04
       105  24  3.966549E+04  2.550188E+03  1.536375E+04 -6.707266E+04  1.218750E+04  3.580167E+04
       105  25 -4.010244E+05 -1.064906E+05 -8.606568E+04 -6.752129E+04  1.048109E+04  2.624399E+04
       105  26 -4.922896E+05 -1.282364E+05 -1.012247E+05 -5.161731E+04  1.335978E+04  3.161522E+04
       105  27 -5.825631E+05 -1.477997E+05 -1.139493E+05 -6.621598E+04  1.623509E+04  3.580432E+04
       106   1  7.330274E+05  1.643259E+05  1.624685E+05 -5.873681E+04 -5.027701E+03 -4.030731E+04
       106   2  8.140758E+05  1.932990E+05  2.013241E+05 -6.472521E+04 -4.894910E+04 -3.755799E+04
       106   3  9.151916E+05  2.790181E+05  2.829742E+05 -1.000714E+05 -9.289324E+04 -1.184692E+04
       106   4  4.283952E+04 -2.222776E+03  1.960359E+04 -6.681336E+04 -1.486879E+04 -4.031139E+04
       106   5  3.502826E+04  4.160544E+03  3.423691E+04 -5.214566E+04 -3.284230E+04 -3.755784E+04
       106   6  4.279565E+04  6.282453E+04  7.367734E+04 -6.683365E+04 -5.083037E+04 -1.183244E+04
       106   7 -6.468969E+05 -1.688014E+05 -1.232868E+05 -7.488077E+04 -2.469914E+04 -4.031521E+04
       106   8 -7.434481E+05 -1.850169E+05 -1.328846E+05 -3.958213E+04 -1.675538E+04 -3.755704E+04
       106   9 -8.288978E+05 -1.534192E+05 -1.356663E+05 -3.364281E+04 -8.826261E+03 -1.181346E+04
       106  10  7.330269E+05  1.643242E+05  1.624654E+05 -5.873698E+04  6.210298E-10 -3.138163E-10
       106  11  8.140729E+05  1.932969E+05  2.013169E+05 -6.472669E+04  1.335037E-09 -4.541880E-10
       106  12  9.151823E+05  2.790157E+05  2.829577E+05 -1.000723E+05 -9.733544E-10 -2.752897E-10
       106  13  4.283884E+04 -2.224580E+03  1.960012E+04 -6.681384E+04  4.511096E-11 -4.034815E-11
       106  14  3.502672E+04  4.158740E+03  3.423223E+04 -5.214665E+04  1.604366E-09  9.915831E-11
       106  15  4.279284E+04  6.282369E+04  7.367222E+04 -6.683414E+04 -9.198163E-10 -2.528555E-10
       106  16 -6.468980E+05 -1.688033E+05 -1.232910E+05 -7.488157E+04  4.000608E-10  5.201490E-11
       106  17 -7.434488E+05 -1.850185E+05 -1.328878E+05 -3.958263E+04 -6.684971E-11 -3.952887E-10
       106  18 -8.288979E+05 -1.534194E+05 -1.356667E+05 -3.364289E+04  9.295057E-10 -4.145717E-10
       106  19  7.330274E+05  1.643259E+05  1.624685E+05 -5.873681E+04  5.027701E+03  4.030731E+04
       106  20  8.140758E+05  1.932990E+05  2.013241E+05 -6.472521E+04  4.894910E+04  3.755799E+04
       106  21  9.151916E+05  2.790181E+05  2.829742E+05 -1.000714E+05  9.289324E+04  1.184692E+04
       106  22  4.283952E+04 -2.222776E+03  1.960359E+04 -6.681336E+04  1.486879E+04  4.031139E+04
       106  23  3.502826E+04  4.160544E+03  3.423691E+04 -5.214566E+04  3.284230E+04  3.755784E+04
       106  24  4.279565E+04  6.282453E+04  7.367734E+04 -6.683365E+04  5.083037E+04  1.183244E+04
       106  25 -6.468969E+05 -1.688014E+05 -1.232868E+05 -7.488077E+04  2.469914E+04  4.031521E+04
       106  26 -7.434481E+05 -1.850169E+05 -1.328846E+05 -3.958213E+04  1.675538E+04  3.755704E+04
       106  27 -8.288978E+05 -1.534192E+05 -1.356663E+05 -3.364281E+04  8.826261E+03  1.181346E+04
       107   1  6.989119E+05  2.491419E+06  6.991010E+05 -5.665122E+05  2.583376E+04  2.013450E+05
       107   2  4.249891E+05  1.857524E+06  4.286239E+05 -4.342299E+05  7.576656E+04  8.495724E+04
       107   3  2.604349E+05  1.266173E+06  2.610028E+05 -4.811825E+05  6.283908E+04 -3.140374E+04
       107   4  1.261283E+05  1.805266E+05  1.440001E+05 -4.924985E+05  2.608301E+04  9.769674E+04
       107   5  1.519128E+04  1.666413E+05  6.931546E+04 -4.030280E+05  7.584325E+04  6.164592E+04
       107   6 -9.795981E+01  1.811844E+05  4.197110E+04 -4.927791E+05  6.268147E+04  2.550294E+04
       107   7 -4.470181E+05 -2.125456E+06 -4.114374E+05 -4.187562E+05  2.630822E+04 -5.568918E+03
       107   8 -3.947885E+05 -1.521550E+06 -2.901543E+05 -3.719098E+05  7.591774E+04  3.839683E+04
       107   9 -2.607014E+05 -9.026768E+05 -1.771090E+05 -5.043538E+05  6.252157E+04  8.231221E+04
       107  10  6.989003E+05  2.491375E+06  6.990239E+05 -5.665163E+05 -7.650882E-10  7.856253E-10
       107  11  4.249810E+05  1.857515E+06  4.285996E+05 -4.342351E+05  1.868640E-10 -2.037924E-09
       107  12  2.604304E+05  1.266171E+06  2.609935E+05 -4.811809E+05 -1.924436E-09 -2.226938E-09
       107  13  1.261250E+05  1.805161E+05  1.439809E+05 -4.925006E+05  9.869762E-10 -3.139919E-10
       107  14  1.518408E+04  1.666357E+05  6.929750E+04 -4.030318E+05 -1.106149E-09  7.836962E-11
       107  15 -1.023556E+02  1.811827E+05  4.196248E+04 -4.927804E+05 -9.162723E-10  6.139147E-10
       107  16 -4.470188E+05 -2.125457E+06 -4.114387E+05 -4.187561E+05  6.210510E-10 -4.051253E-10
       107  17 -3.947951E+05 -1.521553E+06 -2.901679E+05 -3.719121E+05  8.859879E-10  2.617457E-09
       107  18 -2.607074E+05 -9.026851E+05 -1.771291E+05 -5.043580E+05 -9.522264E-11  2.358348E-09
       107  19  6.989119E+05  2.491419E+06  6.991010E+05 -5.665122E+05 -2.583376E+04 -2.013450E+05
       107  20  4.249891E+05  1.857524E+06  4.286239E+05 -4.342299E+05 -7.576656E+04 -8.495724E+04
       107  21  2.604349E+05  1.266173E+06  2.610028E+05 -4.811825E+05 -6.283908E+04  3.140374E+04
       107  22  1.261283E+05  1.805266E+05  1.440001E+05 -4.924985E+05 -2.608301E+04 -9.769674E+04
       107  23  1.519128E+04  1.666413E+05  6.931546E+04 -4.030280E+05 -7.584325E+04 -6.164592E+04
       107  24 -9.795981E+01  1.811844E+05  4.197110E+04 -4.927791E+05 -6.268147E+04 -2.550294E+04
       107  25 -4.470181E+05 -2.125456E+06 -4.114374E+05 -4.187562E+05 -2.630822E+04  5.568918E+03
       107  26 -3.947885E+05 -1.521550E+06 -2.901543E+05 -3.719098E+05 -7.591774E+04 -3.839683E+04
       107  27 -2.607014E+05 -9.026768E+05 -1.771090E+05 -5.043538E+05 -6.252157E+04 -8.231221E+04
       108   1  1.639087E+05  8.275466E+05  1.669687E+05 -4.968815E+05  3.713250E+04 -2.435395E+04
       108   2  1.209291E+04  2.145092E+05  3.337608E+04 -4.023807E+05  2.656683E+03 -3.728217E+04
       108   3 -1.324929E+05 -3.956405E+05 -9.028219E+04 -4.904058E+05 -3.194030E+04 -5.019983E+04
       108   4  7.131155E+03  1.755754E+05  3.476047E+04 -4.934599E+05  3.700143E+04  1.949427E+04
       108   5  2.470767E+03  1.743295E+05  2.543882E+04 -4.022013E+05  2.524997E+03  6.709181E+03
       108   6  5.037740E+03  1.755914E+05  2.596520E+04 -4.934664E+05 -3.207360E+04 -6.077489E+03
       108   7 -1.496718E+05 -4.759875E+05 -9.746261E+04 -4.900416E+05  3.687076E+04  6.329734E+04
       108   8 -7.150432E+03  1.341554E+05  1.750875E+04 -4.020218E+05  2.393330E+03  5.069775E+04
       108   9  1.425491E+05  7.471379E+05  1.422028E+05 -4.965295E+05 -3.220725E+04  3.808471E+04
       108  10  1.639071E+05  8.275456E+05  1.669650E+05 -4.968808E+05 -3.046277E-09  6.999798E-10
       108  11  1.209253E+04  2.145077E+05  3.337346E+04 -4.023806E+05 -7.344444E-10 -8.495106E-10
       108  12 -1.324947E+05 -3.956435E+05 -9.028885E+04 -4.904071E+05 -3.962676E-10  7.681101E-10
       108  13  7.129582E+03  1.755746E+05  3.475718E+04 -4.934605E+05  1.068036E-10 -5.778003E-10
       108  14  2.470748E+03  1.743294E+05  2.543872E+04 -4.022013E+05  2.941372E-10  2.463547E-11
       108  15  5.036625E+03  1.755910E+05  2.596320E+04 -4.934666E+05  1.364489E-09  5.699797E-10
       108  16 -1.496743E+05 -4.759921E+05 -9.747271E+04 -4.900434E+05 -1.074574E-09 -1.401567E-10
       108  17 -7.151128E+03  1.341527E+05  1.750391E+04 -4.020219E+05 -2.579401E-10  1.211629E-09
       108  18  1.425476E+05  7.471361E+05  1.421982E+05 -4.965285E+05 -6.012535E-10 -6.568268E-10
       108  19  1.639087E+05  8.275466E+05  1.669687E+05 -4.968815E+05 -3.713250E+04  2.435395E+04
       108  20  1.209291E+04  2.145092E+05  3.337608E+04 -4.023807E+05 -2.656683E+03  3.728217E+04
       108  21 -1.324929E+05 -3.956405E+05 -9.028219E+04 -4.904058E+05  3.194030E+04  5.019983E+04
       108  22  7.131155E+03  1.755754E+05  3.476047E+04 -4.934599E+05 -3.700143E+04 -1.949427E+04
       108  23  2.470767E+03  1.743295E+05  2.543882E+04 -4.022013E+05 -2.524997E+03 -6.709181E+03
       108  24  5.037740E+03  1.755914E+05  2.596520E+04 -4.934664E+05  3.207360E+04  6.077489E+03
       108  25 -1.496718E+05 -4.759875E+05 -9.746261E+04 -4.900416E+05 -3.687076E+04 -6.329734E+04
       108  26 -7.150432E+03  1.341554E+05  1.750875E+04 -4.020218E+05 -2.393330E+03 -5.069775E+04
       108  27  1.425491E+05  7.471379E+05  1.422028E+05 -4.965295E+05  3.220725E+04 -3.808471E+04
       109   1 -2.403231E+05 -8.249225E+05 -1.746173E+05 -4.984127E+05 -5.755551E+04 -6.716175E+04
       109   2 -3.812626E+05 -1.438091E+06 -3.010702E+05 -3.838420E+05 -7.185708E+04 -1.139811E+04
       109   3 -4.801576E+05 -2.047891E+06 -4.534640E+05 -4.486860E+05 -2.516705E+04  4.440346E+04
       109   4  1.033121E+03  1.785478E+05  2.850458E+04 -4.927934E+05 -5.771704E+04 -1.048948E+04
       109   5  9.277214E+03  1.700204E+05  4.175125E+04 -4.030301E+05 -7.179055E+04 -3.220264E+04
       109   6  7.297885E+04  1.779243E+05  8.287867E+04 -4.926301E+05 -2.494849E+04 -5.382256E+04
       109   7  2.423287E+05  1.182985E+06  2.315864E+05 -4.871638E+05 -5.787737E+04  4.627275E+04
       109   8  3.996499E+05  1.780572E+06  3.844255E+05 -4.222664E+05 -7.172286E+04 -5.306027E+04
       109   9  6.257656E+05  2.408306E+06  6.189048E+05 -5.367287E+05 -2.471651E+04 -1.524001E+05
       109  10 -2.403279E+05 -8.249282E+05 -1.746321E+05 -4.984158E+05 -1.458451E-09  5.636381E-10
       109  11 -3.812682E+05 -1.438092E+06 -3.010802E+05 -3.838426E+05 -5.316742E-11 -1.125986E-09
       109  12 -4.801588E+05 -2.047894E+06 -4.534689E+05 -4.486851E+05  6.276836E-10 -4.443858E-11
       109  13  1.029513E+03  1.785467E+05  2.849811E+04 -4.927939E+05 -1.624560E-09 -6.167532E-10
       109  14  9.271399E+03  1.700179E+05  4.173961E+04 -4.030319E+05  7.180201E-10  3.414235E-11
       109  15  7.297740E+04  1.779211E+05  8.287206E+04 -4.926312E+05 -9.448040E-10  3.889133E-10
       109  16  2.423245E+05  1.182981E+06  2.315761E+05 -4.871616E+05  1.565905E-10  7.876056E-12
       109  17  3.996436E+05  1.780567E+06  3.844106E+05 -4.222695E+05 -1.011742E-09  1.754844E-09
       109  18  6.257587E+05  2.408281E+06  6.188602E+05 -5.367317E+05  2.167995E-10  1.913973E-10
       109  19 -2.403231E+05 -8.249225E+05 -1.746173E+05 -4.984127E+05  5.755551E+04  6.716175E+04
       109  20 -3.812626E+05 -1.438091E+06 -3.010702E+05 -3.838420E+05  7.185708E+04  1.139811E+04
       109  21 -4.801576E+05 -2.047891E+06 -4.534640E+05 -4.486860E+05  2.516705E+04 -4.440346E+04
       109  22  1.033121E+03  1.785478E+05  2.850458E+04 -4.927934E+05  5.771704E+04  1.048948E+04
       109  23  9.277214E+03  1.700204E+05  4.175125E+04 -4.030301E+05  7.179055E+04  3.220264E+04
       109  24  7.297885E+04  1.779243E+05  8.287867E+04 -4.926301E+05  2.494849E+04  5.382256E+04
       109  25  2.423287E+05  1.182985E+06  2.315864E+05 -4.871638E+05  5.787737E+04 -4.627275E+04
       109  26  3.996499E+05  1.780572E+06  3.844255E+05 -4.222664E+05  7.172286E+04  5.306027E+04
       109  27  6.257656E+05  2.408306E+06  6.189048E+05 -5.367287E+05  2.471651E+04  1.524001E+05
       110   1 -2.296362E+06 -8.405630E+05 -4.805799E+05 -8.673135E+05 -2.136264E+05 -6.657677E+04
       110   2 -2.224329E+06 -5.580657E+05 -2.912173E+05 -8.439240E+05 -1.366181E+05 -7.698037E+03
       110   3 -2.214270E+06 -4.784883E+05 -2.169462E+05 -7.959563E+05 -5.075960E+04  2.770642E+04
       110   4 -1.556759E+06 -4.570553E+05 -2.645619E+05 -5.576614E+05 -1.737819E+05 -5.163560E+04
       110   5 -1.513621E+06 -2.552139E+05 -1.168965E+05 -6.085680E+05 -1.214361E+05 -2.005395E+03
       110   6 -1.527472E+06 -2.512814E+05 -6.464489E+04 -6.349239E+05 -6.025338E+04  2.413822E+04
       110   7 -8.165875E+05 -7.334686E+04 -4.858752E+04 -2.476238E+05 -1.338852E+05 -3.665775E+04
       110   8 -8.024020E+05  4.772084E+04  5.738713E+04 -3.729493E+05 -1.062352E+05  3.696775E+03
       110   9 -8.402051E+05 -2.406295E+04  8.762676E+04 -4.737393E+05 -6.975852E+04  2.056680E+04
       110  10 -2.296413E+06 -8.405801E+05 -4.806743E+05 -8.673250E+05 -2.462408E-10  1.322716E-10
       110  11 -2.224349E+06 -5.580708E+05 -2.912526E+05 -8.439248E+05  6.646505E-10  5.100037E-10
       110  12 -2.214273E+06 -4.784898E+05 -2.169525E+05 -7.959552E+05 -1.112750E-10 -4.760358E-10
       110  13 -1.556792E+06 -4.570663E+05 -2.646239E+05 -5.576686E+05 -8.946106E-10 -5.693251E-10
       110  14 -1.513636E+06 -2.552179E+05 -1.169242E+05 -6.085682E+05 -6.411895E-10 -3.711412E-10
       110  15 -1.527476E+06 -2.512830E+05 -6.465282E+04 -6.349228E+05 -1.124753E-11 -7.578993E-10
       110  16 -8.166071E+05 -7.335313E+04 -4.862379E+04 -2.476278E+05  6.828877E-10 -3.985458E-10
       110  17 -8.024142E+05  4.771779E+04  5.736587E+04 -3.729490E+05  2.112829E-09 -7.177311E-10
       110  18 -8.402105E+05 -2.406471E+04  8.761681E+04 -4.737381E+05  1.104572E-09 -8.588195E-10
       110  19 -2.296362E+06 -8.405630E+05 -4.805799E+05 -8.673135E+05  2.136264E+05  6.657677E+04
       110  20 -2.224329E+06 -5.580657E+05 -2.912173E+05 -8.439240E+05  1.366181E+05  7.698037E+03
       110  21 -2.214270E+06 -4.784883E+05 -2.169462E+05 -7.959563E+05  5.075960E+04 -2.770642E+04
       110  22 -1.556759E+06 -4.570553E+05 -2.645619E+05 -5.576614E+05  1.737819E+05  5.163560E+04
       110  23 -1.513621E+06 -2.552139E+05 -1.168965E+05 -6.085680E+05  1.214361E+05  2.005395E+03
       110  24 -1.527472E+06 -2.512814E+05 -6.464489E+04 -6.349239E+05  6.025338E+04 -2.413822E+04
       110  25 -8.165875E+05 -7.334686E+04 -4.858752E+04 -2.476238E+05  1.338852E+05  3.665775E+04
       110  26 -8.024020E+05  4.772084E+04  5.738713E+04 -3.729493E+05  1.062352E+05 -3.696775E+03
       110  27 -8.402051E+05 -2.406295E+04  8.762676E+04 -4.737393E+05  6.975852E+04 -2.056680E+04
       111   1 -2.126518E+06 -4.950292E+05 -1.904537E+05 -7.954367E+05 -4.757903E+04  2.386055E+04
       111   2 -2.059681E+06 -4.461516E+05 -1.482636E+05 -7.640575E+05 -3.172653E+04  2.578841E+04
       111   3 -1.978377E+06 -4.260305E+05 -1.193168E+05 -7.534044E+05 -1.544464E+04  2.657084E+04
       111   4 -1.519072E+06 -2.668508E+05 -5.053837E+04 -6.249902E+05 -5.071499E+04  2.267939E+04
       111   5 -1.525733E+06 -2.478597E+05 -2.641560E+04 -6.163931E+05 -3.605597E+04  2.416083E+04
       111   6 -1.517693E+06 -2.573816E+05 -1.457814E+04 -6.285237E+05 -2.096969E+04  2.449651E+04
       111   7 -9.112511E+05 -3.864046E+04  8.935320E+04 -4.543885E+05 -5.385428E+04  2.149693E+04
       111   8 -9.914974E+05 -4.954497E+04  9.541415E+04 -4.686115E+05 -4.038946E+04  2.253171E+04
       111   9 -1.056796E+06 -8.871784E+04  9.014674E+04 -5.035584E+05 -2.649919E+04  2.242053E+04
       111  10 -2.126520E+06 -4.950304E+05 -1.904590E+05 -7.954358E+05 -2.986835E-09 -1.566497E-09
       111  11 -2.059682E+06 -4.461526E+05 -1.482668E+05 -7.640569E+05  8.266432E-09  3.403577E-09
       111  12 -1.978377E+06 -4.260314E+05 -1.193185E+05 -7.534041E+05  1.852254E-08  9.529658E-09
       111  13 -1.519075E+06 -2.668520E+05 -5.054418E+04 -6.249893E+05 -1.325473E-09 -9.190388E-10
       111  14 -1.525735E+06 -2.478606E+05 -2.641915E+04 -6.163924E+05 -1.282145E-10  1.161553E-10
       111  15 -1.517694E+06 -2.573824E+05 -1.458009E+04 -6.285233E+05  5.011111E-09  2.852841E-09
       111  16 -9.112543E+05 -3.864174E+04  8.934688E+04 -4.543875E+05  3.100800E-09 -1.401947E-10
       111  17 -9.914993E+05 -4.954595E+04  9.541013E+04 -4.686107E+05 -6.987153E-09 -3.515595E-09
       111  18 -1.056797E+06 -8.871856E+04  9.014448E+04 -5.035579E+05 -1.115393E-08 -3.400754E-09
       111  19 -2.126518E+06 -4.950292E+05 -1.904537E+05 -7.954367E+05  4.757903E+04 -2.386055E+04
       111  20 -2.059681E+06 -4.461516E+05 -1.482636E+05 -7.640575E+05  3.172653E+04 -2.578841E+04
       111  21 -1.978377E+06 -4.260305E+05 -1.193168E+05 -7.534044E+05  1.544464E+04 -2.657084E+04
       111  22 -1.519072E+06 -2.668508E+05 -5.053837E+04 -6.249902E+05  5.071499E+04 -2.267939E+04
       111  23 -1.525733E+06 -2.478597E+05 -2.641560E+04 -6.163931E+05  3.605597E+04 -2.416083E+04
       111  24 -1.517693E+06 -2.573816E+05 -1.457814E+04 -6.285237E+05  2.096969E+04 -2.449651E+04
       111  25 -9.112511E+05 -3.864046E+04  8.935320E+04 -4.543885E+05  5.385428E+04 -2.149693E+04
       111  26 -9.914974E+05 -4.954497E+04  9.541415E+04 -4.686115E+05  4.038946E+04 -2.253171E+04
       111  27 -1.056796E+06 -8.871784E+04  9.014674E+04 -5.035584E+05  2.649919E+04 -2.242053E+04
       112   1 -1.919112E+06 -4.064911E+05 -1.022408E+05 -7.383603E+05 -1.254428E+04  2.421665E+04
       112   2 -1.852596E+06 -3.680053E+05 -8.013530E+04 -7.060853E+05 -7.574405E+03  2.036914E+04
       112   3 -1.766721E+06 -3.498993E+05 -6.044411E+04 -6.966188E+05 -2.580331E+03  1.645197E+04
       112   4 -1.517002E+06 -2.581080E+05 -1.103093E+04 -6.280296E+05 -1.778524E+04  2.224977E+04
       112   5 -1.526650E+06 -2.477338E+05 -6.052834E+03 -6.166923E+05 -1.288684E+04  1.837661E+04
       112   6 -1.516930E+06 -2.577248E+05 -3.431000E+03 -6.281651E+05 -7.964626E+03  1.443365E+04
       112   7 -1.114732E+06 -1.097137E+05  8.016785E+04 -5.176339E+05 -2.302987E+04  2.028154E+04
       112   8 -1.200597E+06 -1.274543E+05  6.802280E+04 -5.272561E+05 -1.820230E+04  1.638294E+04
       112   9 -1.267076E+06 -1.655452E+05  5.357853E+04 -5.596858E+05 -1.335131E+04  1.241444E+04
       112  10 -1.919112E+06 -4.064918E+05 -1.022422E+05 -7.383601E+05  9.272925E-09  6.606774E-09
       112  11 -1.852596E+06 -3.680057E+05 -8.013619E+04 -7.060852E+05  9.479522E-10  1.618419E-09
       112  12 -1.766721E+06 -3.498996E+05 -6.044463E+04 -6.966188E+05 -1.141612E-08 -4.632410E-09
       112  13 -1.517003E+06 -2.581086E+05 -1.103245E+04 -6.280292E+05  9.016596E-09  4.785304E-09
       112  14 -1.526650E+06 -2.477342E+05 -6.053780E+03 -6.166921E+05  7.770370E-09  4.421045E-09
       112  15 -1.516930E+06 -2.577251E+05 -3.431511E+03 -6.281650E+05  4.002383E-09  7.747802E-10
       112  16 -1.114733E+06 -1.097142E+05  8.016608E+04 -5.176335E+05  2.319384E-09  3.109260E-09
       112  17 -1.200598E+06 -1.274547E+05  6.802167E+04 -5.272559E+05  1.214762E-08  7.270868E-09
       112  18 -1.267076E+06 -1.655454E+05  5.357791E+04 -5.596857E+05  1.503116E-08  6.309672E-09
       112  19 -1.919112E+06 -4.064911E+05 -1.022408E+05 -7.383603E+05  1.254428E+04 -2.421665E+04
       112  20 -1.852596E+06 -3.680053E+05 -8.013530E+04 -7.060853E+05  7.574405E+03 -2.036914E+04
       112  21 -1.766721E+06 -3.498993E+05 -6.044411E+04 -6.966188E+05  2.580331E+03 -1.645197E+04
       112  22 -1.517002E+06 -2.581080E+05 -1.103093E+04 -6.280296E+05  1.778524E+04 -2.224977E+04
       112  23 -1.526650E+06 -2.477338E+05 -6.052834E+03 -6.166923E+05  1.288684E+04 -1.837661E+04
       112  24 -1.516930E+06 -2.577248E+05 -3.431000E+03 -6.281651E+05  7.964626E+03 -1.443365E+04
       112  25 -1.114732E+06 -1.097137E+05  8.016785E+04 -5.176339E+05  2.302987E+04 -2.028154E+04
       112  26 -1.200597E+06 -1.274543E+05  6.802280E+04 -5.272561E+05  1.820230E+04 -1.638294E+04
       112  27 -1.267076E+06 -1.655452E+05  5.357853E+04 -5.596858E+05  1.335131E+04 -1.241444E+04
       113   1 -1.708546E+06 -3.284731E+05 -4.597415E+04 -6.807662E+05 -9.656324E+02  1.366366E+04
       113   2 -1.641823E+06 -2.902027E+05 -2.784744E+04 -6.482422E+05  1.805722E+03  8.874241E+03
       113   3 -1.555208E+06 -2.719762E+05 -1.036422E+04 -6.386866E+05  4.579515E+03  4.076184E+03
       113   4 -1.516824E+06 -2.577667E+05 -2.657721E+03 -6.281552E+05 -6.346092E+03  1.164725E+04
       113   5 -1.526764E+06 -2.477384E+05 -1.701995E+03 -6.166715E+05 -3.583756E+03  6.854857E+03
       113   6 -1.516816E+06 -2.577523E+05 -1.382539E+03 -6.281579E+05 -8.191265E+02  2.053838E+03
       113   7 -1.325065E+06 -1.870573E+05  4.065665E+04 -5.755291E+05 -1.172838E+04  9.630155E+03
       113   8 -1.411693E+06 -2.052736E+05  2.444238E+04 -5.850958E+05 -8.974264E+03  4.835088E+03
       113   9 -1.478424E+06 -2.435287E+05  7.598909E+03 -6.176289E+05 -6.218003E+03  3.140446E+01
       113  10 -1.708546E+06 -3.284733E+05 -4.597450E+04 -6.807662E+05 -7.323825E-10 -1.652230E-09
       113  11 -1.641824E+06 -2.902028E+05 -2.784759E+04 -6.482423E+05  3.615516E-09  7.021942E-10
       113  12 -1.555208E+06 -2.719762E+05 -1.036429E+04 -6.386866E+05  1.480908E-09  3.530205E-10
       113  13 -1.516824E+06 -2.577669E+05 -2.658051E+03 -6.281551E+05  4.022851E-09 -3.117676E-10
       113  14 -1.526764E+06 -2.477385E+05 -1.702108E+03 -6.166715E+05  3.740787E-09  1.098708E-09
       113  15 -1.516816E+06 -2.577523E+05 -1.382548E+03 -6.281579E+05  1.525609E-09  1.772088E-09
       113  16 -1.325065E+06 -1.870574E+05  4.065622E+04 -5.755290E+05  4.740525E-09  8.399776E-10
       113  17 -1.411693E+06 -2.052737E+05  2.444219E+04 -5.850958E+05  4.199790E-09  8.450504E-10
       113  18 -1.478424E+06 -2.435287E+05  7.598836E+03 -6.176289E+05  5.689649E-10  1.946798E-09
       113  19 -1.708546E+06 -3.284731E+05 -4.597415E+04 -6.807662E+05  9.656324E+02 -1.366366E+04
       113  20 -1.641823E+06 -2.902027E+05 -2.784744E+04 -6.482422E+05 -1.805722E+03 -8.874241E+03
       113  21 -1.555208E+06 -2.719762E+05 -1.036422E+04 -6.386866E+05 -4.579515E+03 -4.076184E+03
       113  22 -1.516824E+06 -2.577667E+05 -2.657721E+03 -6.281552E+05  6.346092E+03 -1.164725E+04
       113  23 -1.526764E+06 -2.477384E+05 -1.701995E+03 -6.166715E+05  3.583756E+03 -6.854857E+03
       113  24 -1.516816E+06 -2.577523E+05 -1.382539E+03 -6.281579E+05  8.191265E+02 -2.053838E+03
       113  25 -1.325065E+06 -1.870573E+05  4.065665E+04 -5.755291E+05  1.172838E+04 -9.630155E+03
       113  26 -1.411693E+06 -2.052736E+05  2.444238E+04 -5.850958E+05  8.974264E+03 -4.835088E+03
       113  27 -1.478424E+06 -2.435287E+05  7.598909E+03 -6.176289E+05  6.218003E+03 -3.140446E+01
       114   1 -1.496957E+06 -2.503853E+05  3.357088E+03 -6.227333E+05  5.929688E+03  1.181366E+03
       114   2 -1.430199E+06 -2.121194E+05  2.007609E+04 -5.901958E+05  8.765529E+03 -3.593485E+03
       114   3 -1.343552E+06 -1.939027E+05  3.610529E+04 -5.806347E+05  1.159935E+04 -8.360406E+03
       114   4 -1.516818E+06 -2.577538E+05 -1.411021E+03 -6.281604E+05  5.303809E+02 -8.412041E+02
       114   5 -1.526761E+06 -2.477321E+05 -1.859709E+03 -6.166698E+05  3.373892E+03 -5.613591E+03
       114   6 -1.516823E+06 -2.577626E+05 -3.004483E+03 -6.281588E+05  6.215245E+03 -1.037806E+04
       114   7 -1.536679E+06 -2.651224E+05 -6.179144E+03 -6.335874E+05 -4.868846E+03 -2.863744E+03
       114   8 -1.623315E+06 -2.833448E+05 -2.379646E+04 -6.431404E+05 -2.016926E+03 -7.633391E+03
       114   9 -1.690066E+06 -3.216212E+05 -4.211675E+04 -6.756715E+05  8.326991E+02 -1.239514E+04
       114  10 -1.496957E+06 -2.503853E+05  3.357020E+03 -6.227333E+05  5.105743E-10  1.914475E-10
       114  11 -1.430199E+06 -2.121194E+05  2.007592E+04 -5.901958E+05 -1.427940E-09 -5.738191E-11
       114  12 -1.343553E+06 -1.939028E+05  3.610490E+04 -5.806346E+05 -2.850986E-09  5.282830E-10
       114  13 -1.516818E+06 -2.577538E+05 -1.411023E+03 -6.281604E+05  3.908174E-10  7.410346E-10
       114  14 -1.526761E+06 -2.477322E+05 -1.859790E+03 -6.166698E+05 -5.805918E-10  6.891867E-10
       114  15 -1.516823E+06 -2.577628E+05 -3.004758E+03 -6.281588E+05 -2.261610E-11  1.560953E-09
       114  16 -1.536679E+06 -2.651224E+05 -6.179204E+03 -6.335874E+05 -8.337175E-10  7.673984E-10
       114  17 -1.623315E+06 -2.833448E+05 -2.379657E+04 -6.431404E+05  6.446568E-10  1.117681E-10
       114  18 -1.690066E+06 -3.216214E+05 -4.211704E+04 -6.756715E+05  1.225653E-09  2.012763E-09
       114  19 -1.496957E+06 -2.503853E+05  3.357088E+03 -6.227333E+05 -5.929688E+03 -1.181366E+03
       114  20 -1.430199E+06 -2.121194E+05  2.007609E+04 -5.901958E+05 -8.765529E+03  3.593485E+03
       114  21 -1.343552E+06 -1.939027E+05  3.610529E+04 -5.806347E+05 -1.159935E+04  8.360406E+03
       114  22 -1.516818E+06 -2.577538E+05 -1.411021E+03 -6.281604E+05 -5.303809E+02  8.412041E+02
       114  23 -1.526761E+06 -2.477321E+05 -1.859709E+03 -6.166698E+05 -3.373892E+03  5.613591E+03
       114  24 -1.516823E+06 -2.577626E+05 -3.004483E+03 -6.281588E+05 -6.215245E+03  1.037806E+04
       114  25 -1.536679E+06 -2.651224E+05 -6.179144E+03 -6.335874E+05  4.868846E+03  2.863744E+03
       114  26 -1.623315E+06 -2.833448E+05 -2.379646E+04 -6.431404E+05  2.016926E+03  7.633391E+03
       114  27 -1.690066E+06 -3.216212E+05 -4.211675E+04 -6.756715E+05 -8.326991E+02  1.239514E+04
       115   1 -1.285556E+06 -1.723955E+05  4.889821E+04 -5.648101E+05  1.329167E+04 -1.112005E+04
       115   2 -1.218976E+06 -1.342685E+05  6.294423E+04 -5.323524E+05  1.859091E+04 -1.492470E+04
       115   3 -1.133089E+06 -1.165837E+05  7.433700E+04 -5.227273E+05  2.386737E+04 -1.866175E+04
       115   4 -1.516944E+06 -2.577206E+05 -3.909655E+03 -6.281795E+05  7.902432E+03 -1.314005E+04
       115   5 -1.526626E+06 -2.477073E+05 -6.943120E+03 -6.166854E+05  1.327035E+04 -1.692002E+04
       115   6 -1.517021E+06 -2.581502E+05 -1.268499E+04 -6.280259E+05  1.861509E+04 -2.063254E+04
       115   7 -1.748273E+06 -3.430398E+05 -5.671941E+04 -6.915257E+05  2.515506E+03 -1.515920E+04
       115   8 -1.834179E+06 -3.611383E+05 -7.683595E+04 -7.009794E+05  7.952684E+03 -1.891427E+04
       115   9 -1.900809E+06 -3.997071E+05 -9.971751E+04 -7.332658E+05  1.336628E+04 -2.260203E+04
       115  10 -1.285556E+06 -1.723957E+05  4.889764E+04 -5.648100E+05  3.810858E-09  2.676044E-09
       115  11 -1.218976E+06 -1.342688E+05  6.294316E+04 -5.323522E+05 -9.956943E-09 -4.243876E-09
       115  12 -1.133090E+06 -1.165842E+05  7.433528E+04 -5.227269E+05 -1.879997E-08 -8.042519E-09
       115  13 -1.516944E+06 -2.577208E+05 -3.910096E+03 -6.281794E+05 -1.506726E-09  9.257264E-10
       115  14 -1.526626E+06 -2.477077E+05 -6.943989E+03 -6.166852E+05 -2.946246E-09 -1.891019E-09
       115  15 -1.517022E+06 -2.581507E+05 -1.268644E+04 -6.280256E+05 -4.286022E-10 -2.856040E-09
       115  16 -1.748273E+06 -3.430400E+05 -5.671985E+04 -6.915256E+05 -6.345856E-09 -1.037753E-09
       115  17 -1.834180E+06 -3.611387E+05 -7.683674E+04 -7.009793E+05  4.867264E-09  5.199587E-10
       115  18 -1.900809E+06 -3.997077E+05 -9.971881E+04 -7.332656E+05  1.549739E-08  2.755428E-09
       115  19 -1.285556E+06 -1.723955E+05  4.889821E+04 -5.648101E+05 -1.329167E+04  1.112005E+04
       115  20 -1.218976E+06 -1.342685E+05  6.294423E+04 -5.323524E+05 -1.859091E+04  1.492470E+04
       115  21 -1.133089E+06 -1.165837E+05  7.433700E+04 -5.227273E+05 -2.386737E+04  1.866175E+04
       115  22 -1.516944E+06 -2.577206E+05 -3.909655E+03 -6.281795E+05 -7.902432E+03  1.314005E+04
       115  23 -1.526626E+06 -2.477073E+05 -6.943120E+03 -6.166854E+05 -1.327035E+04  1.692002E+04
       115  24 -1.517021E+06 -2.581502E+05 -1.268499E+04 -6.280259E+05 -1.861509E+04  2.063254E+04
       115  25 -1.748273E+06 -3.430398E+05 -5.671941E+04 -6.915257E+05 -2.515506E+03  1.515920E+04
       115  26 -1.834179E+06 -3.611383E+05 -7.683595E+04 -7.009794E+05 -7.952684E+03  1.891427E+04
       115  27 -1.900809E+06 -3.997071E+05 -9.971751E+04 -7.332658E+05 -1.336628E+04  2.260203E+04
       116   1 -1.075023E+06 -9.563324E+04  8.379110E+04 -5.089160E+05  2.764050E+04 -2.068870E+04
       116   2 -1.009617E+06 -5.617898E+04  8.728828E+04 -4.734828E+05  4.357261E+04 -2.005000E+04
       116   3 -9.300187E+05 -4.637250E+04  7.757562E+04 -4.585509E+05  5.908839E+04 -1.828918E+04
       116   4 -1.517807E+06 -2.573248E+05 -1.677208E+04 -6.286091E+05  2.210864E+04 -2.276518E+04
       116   5 -1.525571E+06 -2.478232E+05 -3.039664E+04 -6.163247E+05  3.921015E+04 -2.168962E+04
       116   6 -1.519387E+06 -2.682100E+05 -5.816818E+04 -6.245455E+05  5.589329E+04 -1.949231E+04
       116   7 -1.960393E+06 -4.190028E+05 -1.173479E+05 -7.482245E+05  1.658106E+04 -2.484009E+04
       116   8 -2.041256E+06 -4.394462E+05 -1.480986E+05 -7.590572E+05  3.485164E+04 -2.332774E+04
       116   9 -2.108402E+06 -4.900168E+05 -1.939343E+05 -7.903935E+05  5.270149E+04 -2.069414E+04
       116  10 -1.075024E+06 -9.563390E+04  8.378886E+04 -5.089155E+05  1.453114E-08  4.077974E-09
       116  11 -1.009619E+06 -5.617992E+04  8.728396E+04 -4.734821E+05  1.087564E-08  3.940624E-09
       116  12 -9.300225E+05 -4.637379E+04  7.756843E+04 -4.585500E+05  8.992343E-11  8.863604E-10
       116  13 -1.517807E+06 -2.573255E+05 -1.677397E+04 -6.286087E+05  2.306077E-09 -1.406848E-09
       116  14 -1.525573E+06 -2.478242E+05 -3.040041E+04 -6.163241E+05  4.074953E-09  1.158267E-09
       116  15 -1.519390E+06 -2.682112E+05 -5.817477E+04 -6.245446E+05  3.426542E-09  1.144158E-09
       116  16 -1.960393E+06 -4.190035E+05 -1.173496E+05 -7.482242E+05 -1.195736E-08 -7.114756E-09
       116  17 -2.041258E+06 -4.394471E+05 -1.481019E+05 -7.590565E+05 -3.266366E-09 -1.545916E-09
       116  18 -2.108405E+06 -4.900181E+05 -1.939403E+05 -7.903926E+05  2.277775E-09  1.593719E-09
       116  19 -1.075023E+06 -9.563324E+04  8.379110E+04 -5.089160E+05 -2.764050E+04  2.068870E+04
       116  20 -1.009617E+06 -5.617898E+04  8.728828E+04 -4.734828E+05 -4.357261E+04  2.005000E+04
       116  21 -9.300187E+05 -4.637250E+04  7.757562E+04 -4.585509E+05 -5.908839E+04  1.828918E+04
       116  22 -1.517807E+06 -2.573248E+05 -1.677208E+04 -6.286091E+05 -2.210864E+04  2.276518E+04
       116  23 -1.525571E+06 -2.478232E+05 -3.039664E+04 -6.163247E+05 -3.921015E+04  2.168962E+04
       116  24 -1.519387E+06 -2.682100E+05 -5.816818E+04 -6.245455E+05 -5.589329E+04  1.949231E+04
       116  25 -1.960393E+06 -4.190028E+05 -1.173479E+05 -7.482245E+05 -1.658106E+04  2.484009E+04
       116  26 -2.041256E+06 -4.394462E+05 -1.480986E+05 -7.590572E+05 -3.485164E+04  2.332774E+04
       116  27 -2.108402E+06 -4.900168E+05 -1.939343E+05 -7.903935E+05 -5.270149E+04  2.069414E+04
       117   1 -8.567797E+05 -3.279785E+04  7.375926E+04 -4.832668E+05  7.604201E+04 -1.693583E+04
       117   2 -8.225507E+05  4.432408E+04  3.555378E+04 -3.717077E+05  1.224979E+05  3.492310E+03
       117   3 -8.517921E+05 -9.867980E+04 -9.321370E+04 -2.288052E+05  1.603137E+05  4.692338E+04
       117   4 -1.529012E+06 -2.503319E+05 -7.440673E+04 -6.360338E+05  6.661164E+04 -2.047754E+04
       117   5 -1.511669E+06 -2.562115E+05 -1.345391E+05 -6.072530E+05  1.372519E+05  9.023187E+03
       117   6 -1.562708E+06 -4.871943E+05 -3.045083E+05 -5.471126E+05  1.992415E+05  6.152339E+04
       117   7 -2.200798E+06 -4.678586E+05 -2.226012E+05 -7.886621E+05  5.719226E+04 -2.401633E+04
       117   8 -2.200303E+06 -5.566577E+05 -3.046660E+05 -8.425399E+05  1.519880E+05  1.454465E+04
       117   9 -2.273079E+06 -8.754756E+05 -5.158391E+05 -8.650283E+05  2.381200E+05  7.608569E+04
       117  10 -8.567860E+05 -3.279972E+04  7.374785E+04 -4.832658E+05 -1.000761E-09  5.457553E-10
       117  11 -8.225668E+05  4.432003E+04  3.552552E+04 -3.717081E+05  3.767969E-09  1.181898E-09
       117  12 -8.518203E+05 -9.868908E+04 -9.326621E+04 -2.288112E+05  3.350329E-09  9.922264E-10
       117  13 -1.529017E+06 -2.503335E+05 -7.441586E+04 -6.360327E+05  1.690194E-09  1.188235E-09
       117  14 -1.511689E+06 -2.562167E+05 -1.345747E+05 -6.072540E+05  3.612723E-09  1.592954E-09
       117  15 -1.562752E+06 -4.872091E+05 -3.045902E+05 -5.471224E+05  2.076836E-09  4.840601E-10
       117  16 -2.200801E+06 -4.678601E+05 -2.226084E+05 -7.886610E+05  3.132696E-09  1.757017E-09
       117  17 -2.200328E+06 -5.566642E+05 -3.047100E+05 -8.425417E+05  2.950205E-09  2.428706E-09
       117  18 -2.273142E+06 -8.754971E+05 -5.159570E+05 -8.650430E+05 -8.047472E-10  5.066713E-11
       117  19 -8.567797E+05 -3.279785E+04  7.375926E+04 -4.832668E+05 -7.604201E+04  1.693583E+04
       117  20 -8.225507E+05  4.432408E+04  3.555378E+04 -3.717077E+05 -1.224979E+05 -3.492310E+03
       117  21 -8.517921E+05 -9.867980E+04 -9.321370E+04 -2.288052E+05 -1.603137E+05 -4.692338E+04
       117  22 -1.529012E+06 -2.503319E+05 -7.440673E+04 -6.360338E+05 -6.661164E+04  2.047754E+04
       117  23 -1.511669E+06 -2.562115E+05 -1.345391E+05 -6.072530E+05 -1.372519E+05 -9.023187E+03
       117  24 -1.562708E+06 -4.871943E+05 -3.045083E+05 -5.471126E+05 -1.992415E+05 -6.152339E+04
       117  25 -2.200798E+06 -4.678586E+05 -2.226012E+05 -7.886621E+05 -5.719226E+04  2.401633E+04
       117  26 -2.200303E+06 -5.566577E+05 -3.046660E+05 -8.425399E+05 -1.519880E+05 -1.454465E+04
       117  27 -2.273079E+06 -8.754756E+05 -5.158391E+05 -8.650283E+05 -2.381200E+05 -7.608569E+04
       118   1 -3.765663E+05 -5.410300E+04 -3.283904E+04  1.090392E+04  4.789391E+04  8.337155E+03
       118   2 -3.322805E+05 -1.268486E+05 -6.549805E+04 -1.190115E+04  3.836314E+04  2.662781E+04
       118   3 -2.675197E+05 -1.230624E+05 -7.280018E+04 -5.219337E+04  2.884078E+04  2.906034E+04
       118   4  2.284976E+05  9.587785E+04  1.123271E+05 -3.992103E+04  7.751588E+04  8.349082E+03
       118   5  2.167327E+05  6.487146E+03  5.221875E+04 -3.115763E+04  5.008366E+04  2.662968E+04
       118   6  2.285257E+05 -3.304705E+03  2.987966E+04 -3.987914E+04  2.266164E+04  2.905752E+04
       118   7  8.339044E+05  2.458423E+05  2.574721E+05 -9.079577E+04  1.071666E+05  8.356154E+03
       118   8  7.660305E+05  1.398047E+05  1.699187E+05 -5.043140E+04  6.181438E+04  2.663082E+04
       118   9  7.248047E+05  1.164380E+05  1.325464E+05 -2.755490E+04  1.647765E+04  2.905445E+04
       118  10 -3.765688E+05 -5.410369E+04 -3.284349E+04  1.090360E+04  4.381923E-10  5.175901E-11
       118  11 -3.322823E+05 -1.268498E+05 -6.550215E+04 -1.190198E+04  1.146232E-09 -3.468242E-10
       118  12 -2.675208E+05 -1.230635E+05 -7.280333E+04 -5.219405E+04 -9.574734E-11  4.220106E-10
       118  13  2.284912E+05  9.587616E+04  1.123157E+05 -3.992155E+04  8.390104E-11 -6.869773E-11
       118  14  2.167298E+05  6.485711E+03  5.221270E+04 -3.115870E+04  1.472832E-09 -8.094399E-10
       118  15  2.285249E+05 -3.305750E+03  2.987711E+04 -3.987967E+04  1.245403E-09  1.398677E-10
       118  16  8.338921E+05  2.458392E+05  2.574504E+05 -9.079649E+04  9.020676E-10 -1.777903E-10
       118  17  7.660263E+05  1.398029E+05  1.699102E+05 -5.043272E+04  1.912796E-10 -3.745464E-10
       118  18  7.248042E+05  1.164370E+05  1.325443E+05 -2.755529E+04  1.936063E-09 -2.558288E-10
       118  19 -3.765663E+05 -5.410300E+04 -3.283904E+04  1.090392E+04 -4.789391E+04 -8.337155E+03
       118  20 -3.322805E+05 -1.268486E+05 -6.549805E+04 -1.190115E+04 -3.836314E+04 -2.662781E+04
       118  21 -2.675197E+05 -1.230624E+05 -7.280018E+04 -5.219337E+04 -2.884078E+04 -2.906034E+04
       118  22  2.284976E+05  9.587785E+04  1.123271E+05 -3.992103E+04 -7.751588E+04 -8.349082E+03
       118  23  2.167327E+05  6.487146E+03  5.221875E+04 -3.115763E+04 -5.008366E+04 -2.662968E+04
       118  24  2.285257E+05 -3.304705E+03  2.987966E+04 -3.987914E+04 -2.266164E+04 -2.905752E+04
       118  25  8.339044E+05  2.458423E+05  2.574721E+05 -9.079577E+04 -1.071666E+05 -8.356154E+03
       118  26  7.660305E+05  1.398047E+05  1.699187E+05 -5.043140E+04 -6.181438E+04 -2.663082E+04
       118  27  7.248047E+05  1.164380E+05  1.325464E+05 -2.755490E+04 -1.647765E+04 -2.905445E+04
       119   1 -2.319155E+05 -1.061017E+05 -7.120540E+04 -3.881105E+04  2.076166E+04  2.625800E+04
       119   2 -1.784827E+05 -9.678572E+04 -6.991645E+04 -3.073769E+04  1.526349E+04  2.390394E+04
       119   3 -1.234132E+05 -8.397466E+04 -6.416242E+04 -4.087980E+04  9.763828E+03  2.073594E+04
       119   4  2.236954E+05  3.946926E+03  2.341798E+04 -4.005126E+04  1.857627E+04  2.625607E+04
       119   5  2.228061E+05  2.494864E+01  1.285052E+04 -3.094381E+04  1.215587E+04  2.390249E+04
       119   6  2.237100E+05 -2.431464E+02  7.386081E+03 -4.005101E+04  5.734464E+03  2.073519E+04
       119   7  6.795030E+05  1.139824E+05  1.180300E+05 -4.129240E+04  1.638931E+04  2.625415E+04
       119   8  6.242477E+05  9.682545E+04  9.560885E+04 -3.115005E+04  9.046281E+03  2.390103E+04
       119   9  5.709475E+05  8.348077E+04  7.892815E+04 -3.922175E+04  1.702886E+03  2.073443E+04
       119  10 -2.319161E+05 -1.061026E+05 -7.120750E+04 -3.881149E+04  2.098318E-09  1.481402E-10
       119  11 -1.784831E+05 -9.678640E+04 -6.991796E+04 -3.073799E+04  1.383572E-09 -3.129042E-10
       119  12 -1.234134E+05 -8.397514E+04 -6.416340E+04 -4.087996E+04  1.734466E-10 -4.932456E-11
       119  13  2.236949E+05  3.946093E+03  2.341603E+04 -4.005165E+04  1.112998E-09  9.648747E-11
       119  14  2.228058E+05  2.429541E+01  1.284917E+04 -3.094404E+04 -9.582632E-12 -1.189089E-10
       119  15  2.237098E+05 -2.436170E+02  7.385211E+03 -4.005111E+04 -9.904779E-10  1.779998E-10
       119  16  6.795025E+05  1.139816E+05  1.180282E+05 -4.129274E+04 -6.348522E-10  1.321613E-10
       119  17  6.242475E+05  9.682482E+04  9.560762E+04 -3.115023E+04 -3.932903E-10  1.286906E-10
       119  18  5.709474E+05  8.348031E+04  7.892734E+04 -3.922178E+04  3.185528E-10  4.292019E-10
       119  19 -2.319155E+05 -1.061017E+05 -7.120540E+04 -3.881105E+04 -2.076166E+04 -2.625800E+04
       119  20 -1.784827E+05 -9.678572E+04 -6.991645E+04 -3.073769E+04 -1.526349E+04 -2.390394E+04
       119  21 -1.234132E+05 -8.397466E+04 -6.416242E+04 -4.087980E+04 -9.763828E+03 -2.073594E+04
       119  22  2.236954E+05  3.946926E+03  2.341798E+04 -4.005126E+04 -1.857627E+04 -2.625607E+04
       119  23  2.228061E+05  2.494864E+01  1.285052E+04 -3.094381E+04 -1.215587E+04 -2.390249E+04
       119  24  2.237100E+05 -2.431464E+02  7.386081E+03 -4.005101E+04 -5.734464E+03 -2.073519E+04
       119  25  6.795030E+05  1.139824E+05  1.180300E+05 -4.129240E+04 -1.638931E+04 -2.625415E+04
       119  26  6.242477E+05  9.682545E+04  9.560885E+04 -3.115005E+04 -9.046281E+03 -2.390103E+04
       119  27  5.709475E+05  8.348077E+04  7.892815E+04 -3.922175E+04 -1.702886E+03 -2.073443E+04
       120   1 -8.383280E+04 -7.397524E+04 -5.744614E+04 -4.023248E+04  8.407593E+03  1.867631E+04
       120   2 -2.979091E+04 -6.107264E+04 -4.882853E+04 -3.106359E+04  6.863992E+03  1.526563E+04
       120   3  2.451016E+04 -4.799719E+04 -3.915972E+04 -4.012956E+04  5.319321E+03  1.181426E+04
       120   4  2.233756E+05  7.860151E+01  5.634626E+03 -4.005550E+04  4.585016E+03  1.867593E+04
       120   5  2.232482E+05 -6.139736E+01  3.213404E+03 -3.093833E+04  2.994636E+03  1.526572E+04
       120   6  2.233843E+05 -2.061064E+01  1.875216E+03 -4.005556E+04  1.403314E+03  1.181485E+04
       120   7  5.306735E+05  7.412651E+04  6.871040E+04 -3.987843E+04  7.605815E+02  1.867554E+04
       120   8  4.763481E+05  6.094582E+04  5.525197E+04 -3.081301E+04 -8.762699E+02  1.526580E+04
       120   9  4.222960E+05  4.795348E+04  4.290808E+04 -3.998153E+04 -2.513924E+03  1.181543E+04
       120  10 -8.383296E+04 -7.397563E+04 -5.744692E+04 -4.023260E+04 -3.734091E-10  1.524306E-10
       120  11 -2.979102E+04 -6.107290E+04 -4.882906E+04 -3.106368E+04  1.085201E-09  2.659937E-10
       120  12  2.451009E+04 -4.799735E+04 -3.916004E+04 -4.012961E+04 -9.560732E-10  5.843853E-10
       120  13  2.233754E+05  7.822128E+01  5.633931E+03 -4.005557E+04 -1.079460E-09  3.209092E-10
       120  14  2.232481E+05 -6.165005E+01  3.212950E+03 -3.093836E+04 -1.569570E-09  1.106505E-10
       120  15  2.233843E+05 -2.076108E+01  1.874950E+03 -4.005557E+04 -1.615900E-09  2.722487E-10
       120  16  5.306734E+05  7.412614E+04  6.870975E+04 -3.987844E+04 -6.978020E-10  3.745605E-10
       120  17  4.763481E+05  6.094557E+04  5.525153E+04 -3.081299E+04 -9.272626E-10  2.126420E-10
       120  18  4.222959E+05  4.795333E+04  4.290780E+04 -3.998150E+04  8.180735E-10  2.872867E-10
       120  19 -8.383280E+04 -7.397524E+04 -5.744614E+04 -4.023248E+04 -8.407593E+03 -1.867631E+04
       120  20 -2.979091E+04 -6.107264E+04 -4.882853E+04 -3.106359E+04 -6.863992E+03 -1.526563E+04
       120  21  2.451016E+04 -4.799719E+04 -3.915972E+04 -4.012956E+04 -5.319321E+03 -1.181426E+04
       120  22  2.233756E+05  7.860151E+01  5.634626E+03 -4.005550E+04 -4.585016E+03 -1.867593E+04
       120  23  2.232482E+05 -6.139736E+01  3.213404E+03 -3.093833E+04 -2.994636E+03 -1.526572E+04
       120  24  2.233843E+05 -2.061064E+01  1.875216E+03 -4.005556E+04 -1.403314E+03 -1.181485E+04
       120  25  5.306735E+05  7.412651E+04  6.871040E+04 -3.987843E+04 -7.605815E+02 -1.867554E+04
       120  26  4.763481E+05  6.094582E+04  5.525197E+04 -3.081301E+04  8.762699E+02 -1.526580E+04
       120  27  4.222960E+05  4.795348E+04  4.290808E+04 -3.998153E+04  2.513924E+03 -1.181543E+04
       121   1  6.431891E+04 -3.831720E+04 -3.111042E+04 -4.009434E+04  5.007205E+03  9.795068E+03
       121   2  1.184249E+05 -2.529351E+04 -2.067676E+04 -3.096373E+04  4.569219E+03  6.332961E+03
       121   3  1.725884E+05 -1.225191E+04 -9.955386E+03 -4.005406E+04  4.130813E+03  2.869315E+03
       121   4  2.233410E+05 -6.708701E+00  1.444677E+03 -4.005252E+04  1.102522E+03  9.795857E+03
       121   5  2.233153E+05 -6.189555E+00  8.891727E+02 -3.094214E+04  6.625418E+02  6.333946E+03
       121   6  2.233446E+05  1.271217E+01  6.227366E+02 -4.005252E+04  2.221788E+02  2.870506E+03
       121   7  3.823872E+05  3.830221E+04  3.399849E+04 -4.001068E+04 -2.803143E+03  9.796646E+03
       121   8  3.282161E+05  2.528044E+04  2.245458E+04 -3.092055E+04 -3.244784E+03  6.334930E+03
       121   9  2.741032E+05  1.227718E+04  1.120077E+04 -4.005098E+04 -3.686769E+03  2.871696E+03
       121  10  6.431886E+04 -3.831731E+04 -3.111065E+04 -4.009437E+04  4.126227E-10  5.342033E-10
       121  11  1.184248E+05 -2.529356E+04 -2.067688E+04 -3.096375E+04  5.763096E-10  4.121697E-10
       121  12  1.725884E+05 -1.225192E+04 -9.955433E+03 -4.005407E+04 -1.806656E-11  1.996191E-10
       121  13  2.233410E+05 -6.812082E+00  1.444495E+03 -4.005252E+04 -1.115226E-10  5.823843E-10
       121  14  2.233153E+05 -6.232758E+00  8.890965E+02 -3.094215E+04 -1.024610E-09  3.632845E-12
       121  15  2.233446E+05  1.270331E+01  6.227210E+02 -4.005252E+04 -6.449637E-10 -1.456977E-10
       121  16  3.823872E+05  3.830210E+04  3.399830E+04 -4.001066E+04 -3.100497E-10 -6.100436E-11
       121  17  3.282161E+05  2.528040E+04  2.245448E+04 -3.092054E+04 -1.610672E-10  1.689770E-10
       121  18  2.741032E+05  1.227717E+04  1.120073E+04 -4.005098E+04 -4.918664E-10 -2.777075E-10
       121  19  6.431891E+04 -3.831720E+04 -3.111042E+04 -4.009434E+04 -5.007205E+03 -9.795068E+03
       121  20  1.184249E+05 -2.529351E+04 -2.067676E+04 -3.096373E+04 -4.569219E+03 -6.332961E+03
       121  21  1.725884E+05 -1.225191E+04 -9.955386E+03 -4.005406E+04 -4.130813E+03 -2.869315E+03
       121  22  2.233410E+05 -6.708701E+00  1.444677E+03 -4.005252E+04 -1.102522E+03 -9.795857E+03
       121  23  2.233153E+05 -6.189555E+00  8.891727E+02 -3.094214E+04 -6.625418E+02 -6.333946E+03
       121  24  2.233446E+05  1.271217E+01  6.227366E+02 -4.005252E+04 -2.221788E+02 -2.870506E+03
       121  25  3.823872E+05  3.830221E+04  3.399849E+04 -4.001068E+04  2.803143E+03 -9.796646E+03
       121  26  3.282161E+05  2.528044E+04  2.245458E+04 -3.092055E+04  3.244784E+03 -6.334930E+03
       121  27  2.741032E+05  1.227718E+04  1.120077E+04 -4.005098E+04  3.686769E+03 -2.871696E+03
       122   1  2.124216E+05 -2.590386E+03 -1.536483E+03 -4.005842E+04  4.022116E+03  8.530463E+02
       122   2  2.665373E+05  1.042082E+04  9.463116E+03 -3.094115E+04  3.733559E+03 -2.610076E+03
       122   3  3.206862E+05  2.344588E+04  2.065098E+04 -4.004225E+04  3.445141E+03 -6.071608E+03
       122   4  2.233398E+05  1.300147E+01  5.649756E+02 -4.005201E+04  1.135573E+02  8.542722E+02
       122   5  2.233236E+05  3.572983E+00  5.786194E+02 -3.094278E+04 -1.733217E+02 -2.608938E+03
       122   6  2.233383E+05  8.078453E+00  7.796349E+02 -4.005201E+04 -4.600385E+02 -6.070548E+03
       122   7  2.342581E+05  2.616390E+03  2.666486E+03 -4.004560E+04 -3.795069E+03  8.554979E+02
       122   8  1.801116E+05 -1.041378E+04 -8.305919E+03 -3.094442E+04 -4.079936E+03 -2.607800E+03
       122   9  1.259994E+05 -2.343031E+04 -1.909215E+04 -4.006177E+04 -4.364617E+03 -6.069488E+03
       122  10  2.124216E+05 -2.590391E+03 -1.536515E+03 -4.005842E+04 -3.029892E-10  1.936560E-10
       122  11  2.665373E+05  1.042081E+04  9.463077E+03 -3.094114E+04  1.453402E-09  2.981850E-10
       122  12  3.206862E+05  2.344584E+04  2.065089E+04 -4.004224E+04 -4.253077E-10 -1.265065E-10
       122  13  2.233398E+05  1.300068E+01  5.649742E+02 -4.005201E+04 -1.219639E-10  4.788501E-10
       122  14  2.233236E+05  3.565665E+00  5.786066E+02 -3.094278E+04  1.550699E-09  5.289458E-10
       122  15  2.233383E+05  8.038820E+00  7.795653E+02 -4.005201E+04  1.601189E-09 -9.434696E-10
       122  16  2.342580E+05  2.616385E+03  2.666458E+03 -4.004560E+04 -2.636297E-10  1.110351E-10
       122  17  1.801116E+05 -1.041379E+04 -8.305964E+03 -3.094443E+04  1.153082E-09  3.432734E-10
       122  18  1.259993E+05 -2.343036E+04 -1.909226E+04 -4.006179E+04  8.916066E-10 -1.106964E-09
       122  19  2.124216E+05 -2.590386E+03 -1.536483E+03 -4.005842E+04 -4.022116E+03 -8.530463E+02
       122  20  2.665373E+05  1.042082E+04  9.463116E+03 -3.094115E+04 -3.733559E+03  2.610076E+03
       122  21  3.206862E+05  2.344588E+04  2.065098E+04 -4.004225E+04 -3.445141E+03  6.071608E+03
       122  22  2.233398E+05  1.300147E+01  5.649756E+02 -4.005201E+04 -1.135573E+02 -8.542722E+02
       122  23  2.233236E+05  3.572983E+00  5.786194E+02 -3.094278E+04  1.733217E+02  2.608938E+03
       122  24  2.233383E+05  8.078453E+00  7.796349E+02 -4.005201E+04  4.600385E+02  6.070548E+03
       122  25  2.342581E+05  2.616390E+03  2.666486E+03 -4.004560E+04  3.795069E+03 -8.554979E+02
       122  26  1.801116E+05 -1.041378E+04 -8.305919E+03 -3.094442E+04  4.079936E+03  2.607800E+03
       122  27  1.259994E+05 -2.343031E+04 -1.909215E+04 -4.006177E+04  4.364617E+03  6.069488E+03
       123   1  3.605585E+05  3.310162E+04  2.931318E+04 -4.003320E+04  3.296894E+03 -8.089754E+03
       123   2  4.146556E+05  4.610503E+04  4.092513E+04 -3.089917E+04  2.474146E+03 -1.154066E+04
       123   3  4.688897E+05  5.920629E+04  5.309694E+04 -3.998894E+04  1.652016E+03 -1.495470E+04
       123   4  2.233575E+05  8.906720E-01  9.646282E+02 -4.005328E+04 -6.185293E+02 -8.088827E+03
       123   5  2.232911E+05 -2.356092E+01  1.576368E+03 -3.094119E+04 -1.399636E+03 -1.154011E+04
       123   6  2.233509E+05  4.260149E+01  2.719031E+03 -4.005325E+04 -2.180057E+03 -1.495452E+04
       123   7  8.617428E+04 -3.310102E+04 -2.738488E+04 -4.007335E+04 -4.533102E+03 -8.087901E+03
       123   8  3.196139E+04 -4.615445E+04 -3.777430E+04 -3.098320E+04 -5.272247E+03 -1.153957E+04
       123   9 -2.213056E+04 -5.912486E+04 -4.766204E+04 -4.011753E+04 -6.010642E+03 -1.495434E+04
       123  10  3.605585E+05  3.310155E+04  2.931303E+04 -4.003318E+04 -7.369645E-10 -3.871765E-10
       123  11  4.146556E+05  4.610488E+04  4.092486E+04 -3.089914E+04  5.060648E-10 -1.124398E-09
       123  12  4.688896E+05  5.920605E+04  5.309651E+04 -3.998892E+04 -1.351107E-09 -5.213727E-10
       123  13  2.233574E+05  8.203020E-01  9.645045E+02 -4.005328E+04  5.105883E-11 -9.668490E-10
       123  14  2.232911E+05 -2.370447E+01  1.576114E+03 -3.094120E+04 -9.481941E-10 -5.915996E-10
       123  15  2.233509E+05  4.236004E+01  2.718602E+03 -4.005328E+04 -1.782803E-10 -1.348788E-10
       123  16  8.617424E+04 -3.310110E+04 -2.738504E+04 -4.007338E+04  2.237743E-09 -7.184208E-10
       123  17  3.196132E+04 -4.615460E+04 -3.777460E+04 -3.098324E+04  2.303235E-10  2.207404E-10
       123  18 -2.213066E+04 -5.912511E+04 -4.766252E+04 -4.011761E+04 -7.952239E-10  8.177948E-11
       123  19  3.605585E+05  3.310162E+04  2.931318E+04 -4.003320E+04 -3.296894E+03  8.089754E+03
       123  20  4.146556E+05  4.610503E+04  4.092513E+04 -3.089917E+04 -2.474146E+03  1.154066E+04
       123  21  4.688897E+05  5.920629E+04  5.309694E+04 -3.998894E+04 -1.652016E+03  1.495470E+04
       123  22  2.233575E+05  8.906720E-01  9.646282E+02 -4.005328E+04  6.185293E+02  8.088827E+03
       123  23  2.232911E+05 -2.356092E+01  1.576368E+03 -3.094119E+04  1.399636E+03  1.154011E+04
       123  24  2.233509E+05  4.260149E+01  2.719031E+03 -4.005325E+04  2.180057E+03  1.495452E+04
       123  25  8.617428E+04 -3.310102E+04 -2.738488E+04 -4.007335E+04  4.533102E+03  8.087901E+03
       123  26  3.196139E+04 -4.615445E+04 -3.777430E+04 -3.098320E+04  5.272247E+03  1.153957E+04
       123  27 -2.213056E+04 -5.912486E+04 -4.766204E+04 -4.011753E+04  6.010642E+03  1.495434E+04
       124   1  5.089621E+05  6.872145E+04  6.239431E+04 -3.967520E+04  1.284723E+03 -1.700855E+04
       124   2  5.626946E+05  8.190705E+04  7.618959E+04 -3.106001E+04 -2.622487E+03 -2.020257E+04
       124   3  6.174401E+05  9.698777E+04  9.300687E+04 -4.065364E+04 -6.528977E+03 -2.266328E+04
       124   4  2.235111E+05 -1.128482E+02  3.552480E+03 -4.004997E+04 -2.734007E+03 -1.700865E+04
       124   5  2.230716E+05  7.270653E+00  6.159182E+03 -3.094524E+04 -5.812012E+03 -2.020335E+04
       124   6  2.234991E+05  1.879480E+03  1.121350E+04 -4.004988E+04 -8.888963E+03 -2.266453E+04
       124   7 -6.186265E+04 -6.895228E+04 -5.529368E+04 -4.042457E+04 -6.750922E+03 -1.700875E+04
       124   8 -1.164421E+05 -8.189978E+04 -6.387741E+04 -3.083052E+04 -8.999824E+03 -2.020412E+04
       124   9 -1.702950E+05 -9.323866E+04 -7.058833E+04 -3.944651E+04 -1.124748E+04 -2.266579E+04
       124  10  5.089621E+05  6.872114E+04  6.239376E+04 -3.967518E+04 -1.957317E-09 -3.409195E-10
       124  11  5.626945E+05  8.190661E+04  7.618881E+04 -3.106005E+04 -1.196390E-10  1.028700E-10
       124  12  6.174400E+05  9.698720E+04  9.300582E+04 -4.065375E+04  4.292173E-10  1.139436E-09
       124  13  2.235110E+05 -1.131609E+02  3.551923E+03 -4.005001E+04 -2.159758E-09 -1.056703E-10
       124  14  2.230715E+05  6.823227E+00  6.158351E+03 -3.094533E+04  5.762733E-10  3.051622E-10
       124  15  2.234989E+05  1.878907E+03  1.121239E+04 -4.005004E+04 -1.605086E-10  6.667310E-10
       124  16 -6.186278E+04 -6.895260E+04 -5.529431E+04 -4.042466E+04 -9.700998E-11  3.761060E-11
       124  17 -1.164423E+05 -8.190024E+04 -6.387833E+04 -3.083067E+04  1.493978E-10  5.111091E-10
       124  18 -1.702952E+05 -9.323925E+04 -7.058953E+04 -3.944672E+04 -6.648384E-10  2.655919E-10
       124  19  5.089621E+05  6.872145E+04  6.239431E+04 -3.967520E+04 -1.284723E+03  1.700855E+04
       124  20  5.626946E+05  8.190705E+04  7.618959E+04 -3.106001E+04  2.622487E+03  2.020257E+04
       124  21  6.174401E+05  9.698777E+04  9.300687E+04 -4.065364E+04  6.528977E+03  2.266328E+04
       124  22  2.235111E+05 -1.128482E+02  3.552480E+03 -4.004997E+04  2.734007E+03  1.700865E+04
       124  23  2.230716E+05  7.270653E+00  6.159182E+03 -3.094524E+04  5.812012E+03  2.020335E+04
       124  24  2.234991E+05  1.879480E+03  1.121350E+04 -4.004988E+04  8.888963E+03  2.266453E+04
       124  25 -6.186265E+04 -6.895228E+04 -5.529368E+04 -4.042457E+04  6.750922E+03  1.700875E+04
       124  26 -1.164421E+05 -8.189978E+04 -6.387741E+04 -3.083052E+04  8.999824E+03  2.020412E+04
       124  27 -1.702950E+05 -9.323866E+04 -7.058833E+04 -3.944651E+04  1.124748E+04  2.266579E+04
       125   1  6.601510E+05  1.032074E+05  1.041924E+05 -3.399891E+04 -4.883156E+03 -2.538435E+04
       125   2  7.075733E+05  1.214111E+05  1.295016E+05 -4.034649E+04 -3.413819E+04 -2.353441E+04
       125   3  7.690909E+05  1.805097E+05  1.840814E+05 -6.422586E+04 -6.340265E+04 -7.403810E+03
       125   4  2.258123E+05 -1.595133E+03  1.430539E+04 -3.989607E+04 -1.084533E+04 -2.538641E+04
       125   5  2.201496E+05  3.082727E+03  2.499052E+04 -3.113701E+04 -2.396856E+04 -2.353364E+04
       125   6  2.257913E+05  4.587332E+04  5.376021E+04 -3.990904E+04 -3.709830E+04 -7.396579E+03
       125   7 -2.083475E+05 -1.064094E+05 -7.559170E+04 -4.578903E+04 -1.680340E+04 -2.538836E+04
       125   8 -2.670506E+05 -1.152608E+05 -7.953402E+04 -2.193487E+04 -1.380679E+04 -2.353258E+04
       125   9 -3.172356E+05 -8.878186E+04 -7.657897E+04 -1.561358E+04 -1.081684E+04 -7.387287E+03
       125  10  6.601508E+05  1.032067E+05  1.041911E+05 -3.399901E+04  1.024532E-09  1.125423E-09
       125  11  7.075719E+05  1.214102E+05  1.294984E+05 -4.034714E+04  2.354795E-09  1.301861E-10
       125  12  7.690866E+05  1.805085E+05  1.840737E+05 -6.422624E+04  9.389887E-10  9.942657E-11
       125  13  2.258120E+05 -1.595857E+03  1.430396E+04 -3.989629E+04 -1.204245E-09  3.090710E-10
       125  14  2.201488E+05  3.081978E+03  2.498840E+04 -3.113747E+04  5.146134E-10  1.940175E-10
       125  15  2.257898E+05  4.587289E+04  5.375752E+04 -3.990926E+04 -1.365033E-10 -1.661624E-10
       125  16 -2.083480E+05 -1.064102E+05 -7.559344E+04 -4.578937E+04 -3.310455E-10  4.308115E-11
       125  17 -2.670509E+05 -1.152615E+05 -7.953542E+04 -2.193513E+04 -1.635601E-09  6.694807E-12
       125  18 -3.172357E+05 -8.878195E+04 -7.657930E+04 -1.561364E+04 -1.125970E-10  4.156347E-10
       125  19  6.601510E+05  1.032074E+05  1.041924E+05 -3.399891E+04  4.883156E+03  2.538435E+04
       125  20  7.075733E+05  1.214111E+05  1.295016E+05 -4.034649E+04  3.413819E+04  2.353441E+04
       125  21  7.690909E+05  1.805097E+05  1.840814E+05 -6.422586E+04  6.340265E+04  7.403810E+03
       125  22  2.258123E+05 -1.595133E+03  1.430539E+04 -3.989607E+04  1.084533E+04  2.538641E+04
       125  23  2.201496E+05  3.082727E+03  2.499052E+04 -3.113701E+04  2.396856E+04  2.353364E+04
       125  24  2.257913E+05  4.587332E+04  5.376021E+04 -3.990904E+04  3.709830E+04  7.396579E+03
       125  25 -2.083475E+05 -1.064094E+05 -7.559170E+04 -4.578903E+04  1.680340E+04  2.538836E+04
       125  26 -2.670506E+05 -1.152608E+05 -7.953402E+04 -2.193487E+04  1.380679E+04  2.353258E+04
       125  27 -3.172356E+05 -8.878186E+04 -7.657897E+04 -1.561358E+04  1.081684E+04  7.387287E+03
       126   1  5.485209E+05  2.008255E+06  5.466969E+05 -3.777359E+05  2.250904E+04  1.337718E+05
       126   2  3.610955E+05  1.534328E+06  3.563521E+05 -2.787986E+05  6.633743E+04  5.311838E+04
       126   3  2.425528E+05  1.088326E+06  2.356302E+05 -3.315238E+05  5.712125E+04 -2.752670E+04
       126   4  6.996088E+04  7.870136E+04  8.155792E+04 -3.386207E+05  2.263028E+04  5.427133E+04
       126   5  5.114251E+03  7.020783E+04  3.945278E+04 -2.628416E+05  6.638330E+04  3.367290E+04
       126   6 -1.151655E+03  7.911603E+04  2.541787E+04 -3.387288E+05  5.704130E+04  1.302132E+04
       126   7 -4.088618E+05 -1.847438E+06 -3.838227E+05 -2.996253E+05  2.274177E+04 -2.498373E+04
       126   8 -3.510075E+05 -1.391902E+06 -2.775722E+05 -2.469215E+05  6.642825E+04  1.427251E+04
       126   9 -2.449199E+05 -9.291278E+05 -1.848443E+05 -3.459212E+05  5.696034E+04  5.350460E+04
       126  10  5.485156E+05  2.008236E+06  5.466624E+05 -3.777383E+05  7.548873E-10 -2.014217E-09
       126  11  3.610901E+05  1.534323E+06  3.563385E+05 -2.788014E+05 -1.363436E-09  4.904971E-09
       126  12  2.425491E+05  1.088325E+06  2.356226E+05 -3.315225E+05 -1.343631E-09  1.209195E-08
       126  13  6.995953E+04  7.869806E+04  8.155142E+04 -3.386217E+05 -7.367070E-11  1.896405E-12
       126  14  5.109213E+03  7.020543E+04  3.944237E+04 -2.628434E+05  3.043778E-09  7.207755E-10
       126  15 -1.155195E+03  7.911497E+04  2.541143E+04 -3.387294E+05 -2.240626E-09 -2.254484E-09
       126  16 -4.088625E+05 -1.847439E+06 -3.838248E+05 -2.996248E+05  5.516315E-10  1.705899E-09
       126  17 -3.510123E+05 -1.391904E+06 -2.775809E+05 -2.469222E+05  1.177570E-09 -5.587062E-09
       126  18 -2.449241E+05 -9.291317E+05 -1.848558E+05 -3.459236E+05 -1.698450E-09 -1.233580E-08
       126  19  5.485209E+05  2.008255E+06  5.466969E+05 -3.777359E+05 -2.250904E+04 -1.337718E+05
       126  20  3.610955E+05  1.534328E+06  3.563521E+05 -2.787986E+05 -6.633743E+04 -5.311838E+04
       126  21  2.425528E+05  1.088326E+06  2.356302E+05 -3.315238E+05 -5.712125E+04  2.752670E+04
       126  22  6.996088E+04  7.870136E+04  8.155792E+04 -3.386207E+05 -2.263028E+04 -5.427133E+04
       126  23  5.114251E+03  7.020783E+04  3.945278E+04 -2.628416E+05 -6.638330E+04 -3.367290E+04
       126  24 -1.151655E+03  7.911603E+04  2.541787E+04 -3.387288E+05 -5.704130E+04 -1.302132E+04
       126  25 -4.088618E+05 -1.847438E+06 -3.838227E+05 -2.996253E+05 -2.274177E+04  2.498373E+04
       126  26 -3.510075E+05 -1.391902E+06 -2.775722E+05 -2.469215E+05 -6.642825E+04 -1.427251E+04
       126  27 -2.449199E+05 -9.291278E+05 -1.848443E+05 -3.459212E+05 -5.696034E+04 -5.350460E+04
       127   1  1.657649E+05  7.450781E+05  1.619430E+05 -3.418759E+05  3.729217E+04 -1.846111E+04
       127   2  5.180301E+04  2.847339E+05  6.180044E+04 -2.624753E+05  1.251403E+04 -2.835721E+04
       127   3 -5.621625E+04 -1.732781E+05 -3.059747E+04 -3.373264E+05 -1.281125E+04 -3.825306E+04
       127   4  3.992267E+03  7.581852E+04  2.206505E+04 -3.392802E+05  3.723181E+04  9.219550E+03
       127   5  1.167182E+03  7.483543E+04  1.847838E+04 -2.621534E+05  1.244970E+04 -6.243217E+01
       127   6  4.191593E+03  7.587826E+04  2.221864E+04 -3.392800E+05 -1.288025E+04 -9.351196E+03
       127   7 -1.578086E+05 -5.930161E+05 -1.178349E+05 -3.366870E+05  3.717163E+04  3.687088E+04
       127   8 -4.947100E+04 -1.350196E+05 -2.484305E+04 -2.618316E+05  1.238538E+04  2.822295E+04
       127   9  6.459587E+04  3.250950E+05  7.503436E+04 -3.412343E+05 -1.294942E+04  1.956209E+04
       127  10  1.657633E+05  7.450773E+05  1.619398E+05 -3.418753E+05 -9.209098E-10 -1.388888E-08
       127  11  5.180262E+04  2.847330E+05  6.179864E+04 -2.624750E+05  9.510204E-10 -1.047581E-08
       127  12 -5.621682E+04 -1.732797E+05 -3.060053E+04 -3.373268E+05  1.161779E-09 -5.408149E-10
       127  13  3.990755E+03  7.581806E+04  2.206228E+04 -3.392805E+05 -2.542935E-09  5.325120E-11
       127  14  1.167015E+03  7.483539E+04  1.847809E+04 -2.621534E+05  1.343247E-09  1.027460E-09
       127  15  4.191391E+03  7.587812E+04  2.221817E+04 -3.392800E+05 -8.830302E-11 -2.598957E-09
       127  16 -1.578104E+05 -5.930179E+05 -1.178400E+05 -3.366881E+05 -2.728902E-09  1.342307E-08
       127  17 -4.947138E+04 -1.350205E+05 -2.484484E+04 -2.618319E+05  5.823615E-10  9.486962E-09
       127  18  6.459559E+04  3.250945E+05  7.503333E+04 -3.412341E+05  9.040257E-10  1.709728E-10
       127  19  1.657649E+05  7.450781E+05  1.619430E+05 -3.418759E+05 -3.729217E+04  1.846111E+04
       127  20  5.180301E+04  2.847339E+05  6.180044E+04 -2.624753E+05 -1.251403E+04  2.835721E+04
       127  21 -5.621625E+04 -1.732781E+05 -3.059747E+04 -3.373264E+05  1.281125E+04  3.825306E+04
       127  22  3.992267E+03  7.581852E+04  2.206505E+04 -3.392802E+05 -3.723181E+04 -9.219550E+03
       127  23  1.167182E+03  7.483543E+04  1.847838E+04 -2.621534E+05 -1.244970E+04  6.243217E+01
       127  24  4.191593E+03  7.587826E+04  2.221864E+04 -3.392800E+05  1.288025E+04  9.351196E+03
       127  25 -1.578086E+05 -5.930161E+05 -1.178349E+05 -3.366870E+05 -3.717163E+04 -3.687088E+04
       127  26 -4.947100E+04 -1.350196E+05 -2.484305E+04 -2.618316E+05 -1.238538E+04 -2.822295E+04
       127  27  6.459587E+04  3.250950E+05  7.503436E+04 -3.412343E+05  1.294942E+04 -1.956209E+04
       128   1 -1.433113E+05 -5.091804E+05 -9.782429E+04 -3.466805E+05 -3.210270E+04 -5.209325E+04
       128   2 -2.488359E+05 -9.728835E+05 -1.876051E+05 -2.468661E+05 -4.549060E+04 -2.517951E+04
       128   3 -3.034739E+05 -1.427430E+06 -2.822887E+05 -2.992883E+05 -1.644113E+04  1.774011E+03
       128   4 -9.572880E+02  7.919699E+04  2.563019E+04 -3.388528E+05 -3.219208E+04 -1.317912E+04
       128   5  5.520143E+03  7.043505E+04  3.993243E+04 -2.626861E+05 -4.546658E+04 -3.410550E+04
       128   6  7.115163E+04  7.890016E+04  8.254827E+04 -3.387231E+05 -1.633797E+04 -5.497232E+04
       128   7  1.413755E+05  6.679051E+05  1.490711E+05 -3.310173E+05 -3.228042E+04  2.577133E+04
       128   8  2.598046E+05  1.114775E+06  2.674048E+05 -2.785323E+05 -4.544213E+04 -4.304628E+04
       128   9  4.456181E+05  1.587317E+06  4.472348E+05 -3.782526E+05 -1.622775E+04 -1.118560E+05
       128  10 -1.433131E+05 -5.091836E+05 -9.783133E+04 -3.466818E+05 -1.109910E-10  3.549390E-10
       128  11 -2.488383E+05 -9.728848E+05 -1.876101E+05 -2.468670E+05 -2.523902E-10 -2.369488E-09
       128  12 -3.034742E+05 -1.427430E+06 -2.822892E+05 -2.992883E+05 -6.562636E-11 -1.469644E-09
       128  13 -9.584478E+02  7.919652E+04  2.562792E+04 -3.388531E+05 -4.673450E-10  9.037820E-12
       128  14  5.517610E+03  7.043324E+04  3.992636E+04 -2.626873E+05  3.391154E-10  8.530122E-10
       128  15  7.115054E+04  7.889684E+04  8.254209E+04 -3.387238E+05  6.263279E-11 -1.701332E-09
       128  16  1.413742E+05  6.679041E+05  1.490679E+05 -3.310167E+05  1.561223E-10 -7.874880E-10
       128  17  2.598019E+05  1.114773E+06  2.673975E+05 -2.785339E+05  1.840416E-10  1.587506E-09
       128  18  4.456144E+05  1.587303E+06  4.472108E+05 -3.782541E+05  1.260918E-10  1.096856E-09
       128  19 -1.433113E+05 -5.091804E+05 -9.782429E+04 -3.466805E+05  3.210270E+04  5.209325E+04
       128  20 -2.488359E+05 -9.728835E+05 -1.876051E+05 -2.468661E+05  4.549060E+04  2.517951E+04
       128  21 -3.034739E+05 -1.427430E+06 -2.822887E+05 -2.992883E+05  1.644113E+04 -1.774011E+03
       128  22 -9.572880E+02  7.919699E+04  2.563019E+04 -3.388528E+05  3.219208E+04  1.317912E+04
       128  23  5.520143E+03  7.043505E+04  3.993243E+04 -2.626861E+05  4.546658E+04  3.410550E+04
       128  24  7.115163E+04  7.890016E+04  8.254827E+04 -3.387231E+05  1.633797E+04  5.497232E+04
       128  25  1.413755E+05  6.679051E+05  1.490711E+05 -3.310173E+05  3.228042E+04 -2.577133E+04
       128  26  2.598046E+05  1.114775E+06  2.674048E+05 -2.785323E+05  4.544213E+04  4.304628E+04
       128  27  4.456181E+05  1.587317E+06  4.472348E+05 -3.782526E+05  1.622775E+04  1.118560E+05
       129   1 -1.465910E+06 -5.430386E+05 -3.102070E+05 -5.574196E+05 -1.373214E+05 -4.273892E+04
       129   2 -1.414301E+06 -3.585101E+05 -1.869929E+05 -5.397388E+05 -8.753938E+04 -4.965384E+03
       129   3 -1.400944E+06 -3.059538E+05 -1.378660E+05 -5.081468E+05 -3.200658E+04  1.752317E+04
       129   4 -9.847503E+05 -2.946902E+05 -1.699399E+05 -3.569009E+05 -1.116895E+05 -3.312983E+04
       129   5 -9.578756E+05 -1.642233E+05 -7.509621E+04 -3.886515E+05 -7.799700E+04 -1.388327E+03
       129   6 -9.660263E+05 -1.624908E+05 -4.153627E+04 -4.065032E+05 -3.855953E+04  1.506304E+04
       129   7 -5.033537E+05 -4.625975E+04 -2.969205E+04 -1.562216E+05 -8.603596E+04 -2.350558E+04
       129   8 -5.012397E+05  3.009800E+04  3.678545E+04 -2.374558E+05 -6.844698E+04  2.192570E+03
       129   9 -5.309156E+05 -1.902180E+04  5.478282E+04 -3.047980E+05 -4.511750E+04  1.260148E+04
       129  10 -1.465931E+06 -5.430456E+05 -3.102460E+05 -5.574243E+05  1.195866E-09  1.042390E-10
       129  11 -1.414309E+06 -3.585122E+05 -1.870074E+05 -5.397392E+05 -1.574291E-09 -2.220686E-10
       129  12 -1.400946E+06 -3.059544E+05 -1.378685E+05 -5.081464E+05  6.460483E-10 -5.117425E-10
       129  13 -9.847640E+05 -2.946947E+05 -1.699654E+05 -3.569039E+05 -1.078930E-09 -3.093911E-10
       129  14 -9.578822E+05 -1.642249E+05 -7.510766E+04 -3.886516E+05  1.398390E-09 -5.183161E-10
       129  15 -9.660279E+05 -1.624914E+05 -4.153949E+04 -4.065028E+05  9.047911E-10  1.782870E-10
       129  16 -5.033618E+05 -4.626233E+04 -2.970701E+04 -1.562232E+05 -2.095882E-09 -6.338539E-10
       129  17 -5.012447E+05  3.009674E+04  3.677663E+04 -2.374556E+05 -3.179248E-12 -1.636241E-09
       129  18 -5.309179E+05 -1.902252E+04  5.477870E+04 -3.047975E+05 -6.732407E-10  8.184630E-10
       129  19 -1.465910E+06 -5.430386E+05 -3.102070E+05 -5.574196E+05  1.373214E+05  4.273892E+04
       129  20 -1.414301E+06 -3.585101E+05 -1.869929E+05 -5.397388E+05  8.753938E+04  4.965384E+03
       129  21 -1.400944E+06 -3.059538E+05 -1.378660E+05 -5.081468E+05  3.200658E+04 -1.752317E+04
       129  22 -9.847503E+05 -2.946902E+05 -1.699399E+05 -3.569009E+05  1.116895E+05  3.312983E+04
       129  23 -9.578756E+05 -1.642233E+05 -7.509621E+04 -3.886515E+05  7.799700E+04  1.388327E+03
       129  24 -9.660263E+05 -1.624908E+05 -4.153627E+04 -4.065032E+05  3.855953E+04 -1.506304E+04
       129  25 -5.033537E+05 -4.625975E+04 -2.969205E+04 -1.562216E+05  8.603596E+04  2.350558E+04
       129  26 -5.012397E+05  3.009800E+04  3.678545E+04 -2.374558E+05  6.844698E+04 -2.192570E+03
       129  27 -5.309156E+05 -1.902180E+04  5.478282E+04 -3.047980E+05  4.511750E+04 -1.260148E+04
       130   1 -1.340077E+06 -3.149172E+05 -1.198049E+05 -5.065886E+05 -2.993358E+04  1.478658E+04
       130   2 -1.292071E+06 -2.806663E+05 -9.140575E+04 -4.839818E+05 -1.959835E+04  1.565337E+04
       130   3 -1.233294E+06 -2.663881E+05 -7.152028E+04 -4.764228E+05 -8.986303E+03  1.578102E+04
       130   4 -9.606376E+05 -1.724733E+05 -3.247160E+04 -4.001013E+05 -3.233648E+04  1.388357E+04
       130   5 -9.656634E+05 -1.595329E+05 -1.697445E+04 -3.937104E+05 -2.277526E+04  1.446070E+04
       130   6 -9.597653E+05 -1.664087E+05 -9.372488E+03 -4.023677E+05 -1.293819E+04  1.429853E+04
       130   7 -5.810537E+05 -3.001756E+04  5.485203E+04 -2.935541E+05 -3.474097E+04  1.297993E+04
       130   8 -6.391496E+05 -3.839168E+04  5.744958E+04 -3.033957E+05 -2.595398E+04  1.326735E+04
       130   9 -6.861629E+05 -6.642469E+04  5.277000E+04 -3.282832E+05 -1.689195E+04  1.281535E+04
       130  10 -1.340078E+06 -3.149177E+05 -1.198070E+05 -5.065882E+05  1.538698E-09  3.406445E-10
       130  11 -1.292072E+06 -2.806666E+05 -9.140693E+04 -4.839816E+05  2.355650E-10 -5.228224E-11
       130  12 -1.233294E+06 -2.663884E+05 -7.152090E+04 -4.764227E+05  2.643555E-10 -1.836824E-10
       130  13 -9.606388E+05 -1.724738E+05 -3.247393E+04 -4.001010E+05  1.101006E-11  5.093649E-10
       130  14 -9.656640E+05 -1.595332E+05 -1.697582E+04 -3.937101E+05 -5.339090E-10 -3.524001E-11
       130  15 -9.597655E+05 -1.664089E+05 -9.373187E+03 -4.023675E+05  3.611751E-10 -2.294420E-10
       130  16 -5.810551E+05 -3.001807E+04  5.484944E+04 -2.935537E+05 -1.391068E-09  6.447414E-10
       130  17 -6.391504E+05 -3.839205E+04  5.744798E+04 -3.033954E+05  1.166800E-09 -2.821716E-11
       130  18 -6.861632E+05 -6.642495E+04  5.276915E+04 -3.282831E+05 -1.670322E-11 -2.593136E-10
       130  19 -1.340077E+06 -3.149172E+05 -1.198049E+05 -5.065886E+05  2.993358E+04 -1.478658E+04
       130  20 -1.292071E+06 -2.806663E+05 -9.140575E+04 -4.839818E+05  1.959835E+04 -1.565337E+04
       130  21 -1.233294E+06 -2.663881E+05 -7.152028E+04 -4.764228E+05  8.986303E+03 -1.578102E+04
       130  22 -9.606376E+05 -1.724733E+05 -3.247160E+04 -4.001013E+05  3.233648E+04 -1.388357E+04
       130  23 -9.656634E+05 -1.595329E+05 -1.697445E+04 -3.937104E+05  2.277526E+04 -1.446070E+04
       130  24 -9.597653E+05 -1.664087E+05 -9.372488E+03 -4.023677E+05  1.293819E+04 -1.429853E+04
       130  25 -5.810537E+05 -3.001756E+04  5.485203E+04 -2.935541E+05  3.474097E+04 -1.297993E+04
       130  26 -6.391496E+05 -3.839168E+04  5.744958E+04 -3.033957E+05  2.595398E+04 -1.326735E+04
       130  27 -6.861629E+05 -6.642469E+04  5.277000E+04 -3.282832E+05  1.689195E+04 -1.281535E+04
       131   1 -1.190943E+06 -2.522479E+05 -5.954716E+04 -4.655709E+05 -7.047509E+03  1.404732E+04
       131   2 -1.143379E+06 -2.247838E+05 -4.411774E+04 -4.424868E+05 -3.717044E+03  1.120611E+04
       131   3 -1.081950E+06 -2.118529E+05 -3.024063E+04 -4.357108E+05 -3.721585E+02  8.324662E+03
       131   4 -9.593367E+05 -1.668632E+05 -7.093149E+03 -4.020348E+05 -1.080851E+04  1.263678E+04
       131   5 -9.662505E+05 -1.594844E+05 -3.895354E+03 -3.939220E+05 -7.519855E+03  9.780324E+03
       131   6 -9.592961E+05 -1.666306E+05 -2.216516E+03 -4.021184E+05 -4.216984E+03  6.883573E+03
       131   7 -7.276747E+05 -8.147406E+04  4.535784E+04 -3.384765E+05 -1.457105E+04  1.122566E+04
       131   8 -7.890901E+05 -9.418237E+04  3.632520E+04 -3.453443E+05 -1.132386E+04  8.354090E+03
       131   9 -8.366269E+05 -1.214072E+05  2.580667E+04 -3.685200E+05 -8.062635E+03  5.442175E+03
       131  10 -1.190943E+06 -2.522481E+05 -5.954762E+04 -4.655708E+05  5.998039E-10 -1.779825E-10
       131  11 -1.143379E+06 -2.247839E+05 -4.411800E+04 -4.424868E+05 -6.597121E-10 -8.406124E-11
       131  12 -1.081950E+06 -2.118530E+05 -3.024076E+04 -4.357108E+05  5.412921E-10  6.967063E-10
       131  13 -9.593369E+05 -1.668634E+05 -7.093668E+03 -4.020347E+05 -1.006533E-09 -2.608082E-10
       131  14 -9.662506E+05 -1.594845E+05 -3.895640E+03 -3.939219E+05 -1.792726E-09 -1.151692E-10
       131  15 -9.592961E+05 -1.666307E+05 -2.216638E+03 -4.021184E+05  3.098262E-09  7.631865E-10
       131  16 -7.276749E+05 -8.147425E+04  4.535720E+04 -3.384764E+05  1.698926E-10 -5.430123E-10
       131  17 -7.890903E+05 -9.418248E+04  3.632483E+04 -3.453442E+05  1.659786E-09 -2.980392E-11
       131  18 -8.366270E+05 -1.214072E+05  2.580650E+04 -3.685199E+05  3.072128E-09  7.553112E-10
       131  19 -1.190943E+06 -2.522479E+05 -5.954716E+04 -4.655709E+05  7.047509E+03 -1.404732E+04
       131  20 -1.143379E+06 -2.247838E+05 -4.411774E+04 -4.424868E+05  3.717044E+03 -1.120611E+04
       131  21 -1.081950E+06 -2.118529E+05 -3.024063E+04 -4.357108E+05  3.721585E+02 -8.324662E+03
       131  22 -9.593367E+05 -1.668632E+05 -7.093149E+03 -4.020348E+05  1.080851E+04 -1.263678E+04
       131  23 -9.662505E+05 -1.594844E+05 -3.895354E+03 -3.939220E+05  7.519855E+03 -9.780324E+03
       131  24 -9.592961E+05 -1.666306E+05 -2.216516E+03 -4.021184E+05  4.216984E+03 -6.883573E+03
       131  25 -7.276747E+05 -8.147406E+04  4.535784E+04 -3.384765E+05  1.457105E+04 -1.122566E+04
       131  26 -7.890901E+05 -9.418237E+04  3.632520E+04 -3.453443E+05  1.132386E+04 -8.354090E+03
       131  27 -8.366269E+05 -1.214072E+05  2.580667E+04 -3.685200E+05  8.062635E+03 -5.442175E+03
       132   1 -1.040465E+06 -1.965601E+05 -1.998319E+04 -4.243829E+05  7.428101E+02  6.322887E+03
       132   2 -9.929170E+05 -1.693025E+05 -7.153743E+03 -4.012012E+05  2.666830E+03  2.891603E+03
       132   3 -9.311944E+05 -1.563217E+05  5.254880E+03 -3.943780E+05  4.591689E+03 -5.422518E+02
       132   4 -9.592371E+05 -1.666493E+05 -1.722064E+03 -4.021010E+05 -3.095865E+03  4.884261E+03
       132   5 -9.663222E+05 -1.595105E+05 -1.118038E+03 -3.939212E+05 -1.174648E+03  1.451998E+03
       132   6 -9.592362E+05 -1.666483E+05 -9.326826E+02 -4.021011E+05  7.473454E+02 -1.982838E+03
       132   7 -8.780025E+05 -1.367381E+05  1.653866E+04 -3.798165E+05 -6.935075E+03  3.445436E+03
       132   8 -9.397269E+05 -1.497185E+05  4.917633E+03 -3.866410E+05 -5.016278E+03  1.233573E+01
       132   9 -9.872769E+05 -1.769746E+05 -7.120139E+03 -4.098237E+05 -3.096766E+03 -3.423338E+03
       132  10 -1.040465E+06 -1.965602E+05 -1.998327E+04 -4.243829E+05  2.782852E-09  1.010629E-09
       132  11 -9.929170E+05 -1.693025E+05 -7.153772E+03 -4.012013E+05  7.011044E-10  1.862071E-10
       132  12 -9.311945E+05 -1.563218E+05  5.254839E+03 -3.943780E+05 -6.048727E-11  2.739982E-11
       132  13 -9.592372E+05 -1.666494E+05 -1.722127E+03 -4.021010E+05  3.107572E-09  5.045275E-10
       132  14 -9.663222E+05 -1.595105E+05 -1.118045E+03 -3.939212E+05  4.791308E-11  4.396346E-10
       132  15 -9.592362E+05 -1.666483E+05 -9.326910E+02 -4.021011E+05  1.789148E-09  3.714030E-10
       132  16 -8.780026E+05 -1.367381E+05  1.653854E+04 -3.798164E+05  2.327813E-09  4.441646E-10
       132  17 -9.397270E+05 -1.497185E+05  4.917586E+03 -3.866410E+05 -3.206645E-09  1.869570E-10
       132  18 -9.872769E+05 -1.769746E+05 -7.120179E+03 -4.098237E+05 -6.826080E-10  5.647923E-11
       132  19 -1.040465E+06 -1.965601E+05 -1.998319E+04 -4.243829E+05 -7.428101E+02 -6.322887E+03
       132  20 -9.929170E+05 -1.693025E+05 -7.153743E+03 -4.012012E+05 -2.666830E+03 -2.891603E+03
       132  21 -9.311944E+05 -1.563217E+05  5.254880E+03 -3.943780E+05 -4.591689E+03  5.422518E+02
       132  22 -9.592371E+05 -1.666493E+05 -1.722064E+03 -4.021010E+05  3.095865E+03 -4.884261E+03
       132  23 -9.663222E+05 -1.595105E+05 -1.118038E+03 -3.939212E+05  1.174648E+03 -1.451998E+03
       132  24 -9.592362E+05 -1.666483E+05 -9.326826E+02 -4.021011E+05 -7.473454E+02  1.982838E+03
       132  25 -8.780025E+05 -1.367381E+05  1.653866E+04 -3.798165E+05  6.935075E+03 -3.445436E+03
       132  26 -9.397269E+05 -1.497185E+05  4.917633E+03 -3.866410E+05  5.016278E+03 -1.233573E+01
       132  27 -9.872769E+05 -1.769746E+05 -7.120139E+03 -4.098237E+05  3.096766E+03  3.423338E+03
       133   1 -8.897610E+05 -1.409619E+05  1.499611E+04 -3.830157E+05  5.543148E+03 -2.604607E+03
       133   2 -8.422648E+05 -1.137405E+05  2.686711E+04 -3.598578E+05  7.548611E+03 -6.004253E+03
       133   3 -7.806182E+05 -1.007817E+05  3.825713E+04 -3.530393E+05  9.552510E+03 -9.397786E+03
       133   4 -9.592421E+05 -1.666455E+05 -9.647862E+02 -4.020972E+05  1.700185E+03 -4.044752E+03
       133   5 -9.663185E+05 -1.595178E+05 -1.300124E+03 -3.939260E+05  3.711700E+03 -7.442475E+03
       133   6 -9.592475E+05 -1.666542E+05 -2.120949E+03 -4.020957E+05  5.721582E+03 -1.083409E+04
       133   7 -1.028719E+06 -1.923290E+05 -1.692620E+04 -4.211769E+05 -2.142363E+03 -5.484743E+03
       133   8 -1.090358E+06 -2.052943E+05 -2.946867E+04 -4.279884E+05 -1.244195E+02 -8.880401E+03
       133   9 -1.137846E+06 -2.325248E+05 -4.250141E+04 -4.511396E+05  1.891821E+03 -1.226996E+04
       133  10 -8.897610E+05 -1.409620E+05  1.499604E+04 -3.830157E+05  7.590105E-11 -9.323593E-11
       133  11 -8.422649E+05 -1.137406E+05  2.686693E+04 -3.598578E+05  6.369647E-10 -4.056954E-10
       133  12 -7.806184E+05 -1.007819E+05  3.825680E+04 -3.530392E+05  1.493047E-09 -1.810738E-10
       133  13 -9.592421E+05 -1.666455E+05 -9.648224E+02 -4.020972E+05  1.658158E-09 -1.303014E-10
       133  14 -9.663185E+05 -1.595178E+05 -1.300254E+03 -3.939260E+05  4.095547E-09 -6.075746E-10
       133  15 -9.592476E+05 -1.666543E+05 -2.121231E+03 -4.020957E+05  1.946231E-09 -9.863736E-11
       133  16 -1.028719E+06 -1.923290E+05 -1.692627E+04 -4.211769E+05  9.061995E-10 -4.082321E-10
       133  17 -1.090358E+06 -2.052944E+05 -2.946881E+04 -4.279884E+05  1.198584E-09 -5.185001E-11
       133  18 -1.137846E+06 -2.325250E+05 -4.250170E+04 -4.511395E+05  9.901570E-10 -1.651512E-10
       133  19 -8.897610E+05 -1.409619E+05  1.499611E+04 -3.830157E+05 -5.543148E+03  2.604607E+03
       133  20 -8.422648E+05 -1.137405E+05  2.686711E+04 -3.598578E+05 -7.548611E+03  6.004253E+03
       133  21 -7.806182E+05 -1.007817E+05  3.825713E+04 -3.530393E+05 -9.552510E+03  9.397786E+03
       133  22 -9.592421E+05 -1.666455E+05 -9.647862E+02 -4.020972E+05 -1.700185E+03  4.044752E+03
       133  23 -9.663185E+05 -1.595178E+05 -1.300124E+03 -3.939260E+05 -3.711700E+03  7.442475E+03
       133  24 -9.592475E+05 -1.666542E+05 -2.120949E+03 -4.020957E+05 -5.721582E+03  1.083409E+04
       133  25 -1.028719E+06 -1.923290E+05 -1.692620E+04 -4.211769E+05  2.142363E+03  5.484743E+03
       133  26 -1.090358E+06 -2.052943E+05 -2.946867E+04 -4.279884E+05  1.244195E+02  8.880401E+03
       133  27 -1.137846E+06 -2.325248E+05 -4.250141E+04 -4.511396E+05 -1.891821E+03  1.226996E+04
       134   1 -7.393611E+05 -8.548474E+04  4.735003E+04 -3.417743E+05  1.075583E+04 -1.136044E+04
       134   2 -6.919618E+05 -5.834437E+04  5.734799E+04 -3.186634E+05  1.451495E+04 -1.406952E+04
       134   3 -6.308162E+05 -4.574890E+04  6.546981E+04 -3.117962E+05  1.825709E+04 -1.672899E+04
       134   4 -9.593315E+05 -1.666258E+05 -2.765598E+03 -4.021116E+05  6.919615E+03 -1.279902E+04
       134   5 -9.662240E+05 -1.594979E+05 -4.920664E+03 -3.939350E+05  1.072946E+04 -1.548977E+04
       134   6 -9.593840E+05 -1.669258E+05 -8.992826E+03 -4.020037E+05  1.452212E+04 -1.813097E+04
       134   7 -1.179251E+06 -2.477623E+05 -5.288365E+04 -4.624286E+05  3.084923E+03 -1.423705E+04
       134   8 -1.240410E+06 -2.606455E+05 -6.719389E+04 -4.691759E+05  6.945802E+03 -1.690933E+04
       134   9 -1.287845E+06 -2.880951E+05 -8.346280E+04 -4.921679E+05  1.078928E+04 -1.953215E+04
       134  10 -7.393612E+05 -8.548491E+04  4.734957E+04 -3.417742E+05  7.961598E-10  4.474695E-10
       134  11 -6.919621E+05 -5.834464E+04  5.734722E+04 -3.186632E+05 -6.064341E-10  4.912310E-10
       134  12 -6.308166E+05 -4.574929E+04  6.546866E+04 -3.117960E+05  1.268671E-09 -3.151079E-10
       134  13 -9.593316E+05 -1.666260E+05 -2.765995E+03 -4.021115E+05  1.526862E-09  3.086384E-10
       134  14 -9.662242E+05 -1.594982E+05 -4.921331E+03 -3.939349E+05  1.332993E-09  6.164197E-10
       134  15 -9.593843E+05 -1.669262E+05 -8.993840E+03 -4.020035E+05  8.476511E-10  4.770884E-12
       134  16 -1.179251E+06 -2.477625E+05 -5.288405E+04 -4.624286E+05  9.954053E-10  1.715253E-10
       134  17 -1.240410E+06 -2.606458E+05 -6.719452E+04 -4.691758E+05  2.405209E-10  2.927630E-10
       134  18 -1.287845E+06 -2.880956E+05 -8.346373E+04 -4.921677E+05 -1.306599E-09  2.967940E-10
       134  19 -7.393611E+05 -8.548474E+04  4.735003E+04 -3.417743E+05 -1.075583E+04  1.136044E+04
       134  20 -6.919618E+05 -5.834437E+04  5.734799E+04 -3.186634E+05 -1.451495E+04  1.406952E+04
       134  21 -6.308162E+05 -4.574890E+04  6.546981E+04 -3.117962E+05 -1.825709E+04  1.672899E+04
       134  22 -9.593315E+05 -1.666258E+05 -2.765598E+03 -4.021116E+05 -6.919615E+03  1.279902E+04
       134  23 -9.662240E+05 -1.594979E+05 -4.920664E+03 -3.939350E+05 -1.072946E+04  1.548977E+04
       134  24 -9.593840E+05 -1.669258E+05 -8.992826E+03 -4.020037E+05 -1.452212E+04  1.813097E+04
       134  25 -1.179251E+06 -2.477623E+05 -5.288365E+04 -4.624286E+05 -3.084923E+03  1.423705E+04
       134  26 -1.240410E+06 -2.606455E+05 -6.719389E+04 -4.691759E+05 -6.945802E+03  1.690933E+04
       134  27 -1.287845E+06 -2.880951E+05 -8.346280E+04 -4.921679E+05 -1.078928E+04  1.953215E+04
       135   1 -5.894393E+05 -3.083233E+04  7.220897E+04 -3.019522E+05  2.096371E+04 -1.817109E+04
       135   2 -5.427338E+05 -2.675348E+03  7.478776E+04 -2.766754E+05  3.217970E+04 -1.774236E+04
       135   3 -4.858593E+05  4.391981E+03  6.806865E+04 -2.660384E+05  4.307234E+04 -1.644505E+04
       135   4 -9.599327E+05 -1.663490E+05 -1.189166E+04 -4.024272E+05  1.700586E+04 -1.965718E+04
       135   5 -9.654779E+05 -1.595621E+05 -2.154959E+04 -3.936665E+05  2.913038E+04 -1.888859E+04
       135   6 -9.610401E+05 -1.740495E+05 -4.123111E+04 -3.995471E+05  4.093060E+04 -1.725150E+04
       135   7 -1.330286E+06 -3.018552E+05 -9.600056E+04 -5.028470E+05  1.305061E+04 -2.114232E+04
       135   8 -1.388042E+06 -3.164350E+05 -1.178987E+05 -5.105845E+05  2.608332E+04 -2.003396E+04
       135   9 -1.435997E+06 -3.524733E+05 -1.505468E+05 -5.329624E+05  3.879061E+04 -1.805728E+04
       135  10 -5.894398E+05 -3.083280E+04  7.220752E+04 -3.019518E+05  3.193200E-10 -4.416096E-10
       135  11 -5.427350E+05 -2.675963E+03  7.478522E+04 -2.766750E+05 -3.589314E-09 -9.446296E-10
       135  12 -4.858613E+05  4.391192E+03  6.806466E+04 -2.660378E+05 -3.385373E-09 -8.381584E-10
       135  13 -9.599332E+05 -1.663495E+05 -1.189293E+04 -4.024269E+05 -2.844925E-09 -4.897022E-10
       135  14 -9.654789E+05 -1.595627E+05 -2.155186E+04 -3.936661E+05 -4.775059E-09 -1.269955E-09
       135  15 -9.610420E+05 -1.740502E+05 -4.123482E+04 -3.995465E+05 -2.137440E-09 -5.877444E-10
       135  16 -1.330286E+06 -3.018557E+05 -9.600172E+04 -5.028468E+05 -3.728162E-09 -6.978570E-10
       135  17 -1.388043E+06 -3.164357E+05 -1.179007E+05 -5.105841E+05 -2.480354E-09 -1.410465E-09
       135  18 -1.435999E+06 -3.524741E+05 -1.505502E+05 -5.329618E+05  3.383350E-10 -2.570357E-10
       135  19 -5.894393E+05 -3.083233E+04  7.220897E+04 -3.019522E+05 -2.096371E+04  1.817109E+04
       135  20 -5.427338E+05 -2.675348E+03  7.478776E+04 -2.766754E+05 -3.217970E+04  1.774236E+04
       135  21 -4.858593E+05  4.391981E+03  6.806865E+04 -2.660384E+05 -4.307234E+04  1.644505E+04
       135  22 -9.599327E+05 -1.663490E+05 -1.189166E+04 -4.024272E+05 -1.700586E+04  1.965718E+04
       135  23 -9.654779E+05 -1.595621E+05 -2.154959E+04 -3.936665E+05 -2.913038E+04  1.888859E+04
       135  24 -9.610401E+05 -1.740495E+05 -4.123111E+04 -3.995471E+05 -4.093060E+04  1.725150E+04
       135  25 -1.330286E+06 -3.018552E+05 -9.600056E+04 -5.028470E+05 -1.305061E+04  2.114232E+04
       135  26 -1.388042E+06 -3.164350E+05 -1.178987E+05 -5.105845E+05 -2.608332E+04  2.003396E+04
       135  27 -1.435997E+06 -3.524733E+05 -1.505468E+05 -5.329624E+05 -3.879061E+04  1.805728E+04
       136   1 -4.335425E+05  1.413185E+04  6.537169E+04 -2.834414E+05  5.559167E+04 -1.543697E+04
       136   2 -4.087821E+05  6.911322E+04  3.883235E+04 -2.041787E+05  8.659591E+04 -1.111981E+03
       136   3 -4.285534E+05 -3.168010E+04 -5.050800E+04 -1.028516E+05  1.108642E+05  3.114100E+04
       136   4 -9.678666E+05 -1.613900E+05 -5.274250E+04 -4.076947E+05  4.857929E+04 -1.807123E+04
       136   5 -9.556052E+05 -1.654965E+05 -9.535550E+04 -3.872220E+05  9.846347E+04  3.340221E+03
       136   6 -9.916798E+05 -3.292171E+05 -2.157873E+05 -3.446755E+05  1.416052E+05  4.267934E+04
       136   7 -1.501906E+06 -3.369053E+05 -1.708744E+05 -5.318571E+05  4.157343E+04 -2.070368E+04
       136   8 -1.502120E+06 -4.000522E+05 -2.295633E+05 -5.701058E+05  1.103195E+05  7.786569E+03
       136   9 -1.554461E+06 -6.266213E+05 -3.810873E+05 -5.862635E+05  1.723149E+05  5.419521E+04
       136  10 -4.335459E+05  1.413077E+04  6.536543E+04 -2.834407E+05 -7.637932E-10 -5.461051E-10
       136  11 -4.087902E+05  6.911121E+04  3.881824E+04 -2.041786E+05  1.238362E-09 -2.788903E-10
       136  12 -4.285669E+05 -3.168444E+04 -5.053294E+04 -1.028544E+05  8.929815E-10  2.048742E-10
       136  13 -9.678692E+05 -1.613910E+05 -5.274755E+04 -4.076940E+05  4.339113E-10 -5.440043E-10
       136  14 -9.556156E+05 -1.654992E+05 -9.537377E+04 -3.872223E+05  2.200024E-09 -8.556571E-10
       136  15 -9.917019E+05 -3.292245E+05 -2.158285E+05 -3.446804E+05  8.184631E-11  6.926950E-10
       136  16 -1.501908E+06 -3.369062E+05 -1.708784E+05 -5.318564E+05  4.078954E-10  4.042966E-10
       136  17 -1.502133E+06 -4.000556E+05 -2.295864E+05 -5.701065E+05 -6.461691E-10  8.997865E-10
       136  18 -1.554494E+06 -6.266325E+05 -3.811488E+05 -5.862710E+05 -5.447213E-10 -4.994818E-11
       136  19 -4.335425E+05  1.413185E+04  6.537169E+04 -2.834414E+05 -5.559167E+04  1.543697E+04
       136  20 -4.087821E+05  6.911322E+04  3.883235E+04 -2.041787E+05 -8.659591E+04  1.111981E+03
       136  21 -4.285534E+05 -3.168010E+04 -5.050800E+04 -1.028516E+05 -1.108642E+05 -3.114100E+04
       136  22 -9.678666E+05 -1.613900E+05 -5.274250E+04 -4.076947E+05 -4.857929E+04  1.807123E+04
       136  23 -9.556052E+05 -1.654965E+05 -9.535550E+04 -3.872220E+05 -9.846347E+04 -3.340221E+03
       136  24 -9.916798E+05 -3.292171E+05 -2.157873E+05 -3.446755E+05 -1.416052E+05 -4.267934E+04
       136  25 -1.501906E+06 -3.369053E+05 -1.708744E+05 -5.318571E+05 -4.157343E+04  2.070368E+04
       136  26 -1.502120E+06 -4.000522E+05 -2.295633E+05 -5.701058E+05 -1.103195E+05 -7.786569E+03
       136  27 -1.554461E+06 -6.266213E+05 -3.810873E+05 -5.862635E+05 -1.723149E+05 -5.419521E+04
       137   1 -6.637257E+04 -2.210953E+04 -1.430673E+04  4.851970E+03  1.677680E+04  3.185694E+03
       137   2 -5.141991E+04 -4.869795E+04 -2.612779E+04 -3.633465E+03  1.359653E+04  1.023107E+04
       137   3 -2.911394E+04 -4.760012E+04 -2.895463E+04 -1.805773E+04  1.041892E+04  1.127932E+04
       137   4  1.631413E+05  3.477730E+04  4.073124E+04 -1.359330E+04  2.811438E+04  3.190254E+03
       137   5  1.588816E+05  2.365703E+03  1.893383E+04 -1.061688E+04  1.816704E+04  1.023248E+04
       137   6  1.631463E+05 -1.190594E+03  1.082694E+04 -1.357886E+04  8.222478E+03  1.127838E+04
       137   7  3.927043E+05  9.166165E+04  9.576615E+04 -3.204541E+04  3.945614E+04  3.194141E+03
       137   8  3.692248E+05  5.342666E+04  6.399298E+04 -1.760270E+04  2.273907E+04  1.023379E+04
       137   9  3.554417E+05  4.521667E+04  5.060654E+04 -9.098576E+03  6.025366E+03  1.127740E+04
       137  10 -6.637287E+04 -2.210962E+04 -1.430728E+04  4.851927E+03  1.200850E-09 -3.855102E-10
       137  11 -5.142014E+04 -4.869811E+04 -2.612833E+04 -3.633577E+03  1.332709E-09  6.426307E-10
       137  12 -2.911409E+04 -4.760029E+04 -2.895507E+04 -1.805782E+04 -1.996564E-09  8.202977E-10
       137  13  1.631404E+05  3.477707E+04  4.072974E+04 -1.359337E+04  1.221473E-10  3.480401E-10
       137  14  1.588812E+05  2.365502E+03  1.893301E+04 -1.061703E+04  1.104086E-09  3.186320E-10
       137  15  1.631462E+05 -1.190749E+03  1.082658E+04 -1.357893E+04  2.243549E-09  2.667700E-10
       137  16  3.927027E+05  9.166122E+04  9.576321E+04 -3.204552E+04  2.719153E-10  3.250196E-10
       137  17  3.692243E+05  5.342641E+04  6.399181E+04 -1.760288E+04 -4.696987E-10  2.143740E-10
       137  18  3.554417E+05  4.521652E+04  5.060623E+04 -9.098631E+03  1.133111E-09  9.473850E-10
       137  19 -6.637257E+04 -2.210953E+04 -1.430673E+04  4.851970E+03 -1.677680E+04 -3.185694E+03
       137  20 -5.141991E+04 -4.869795E+04 -2.612779E+04 -3.633465E+03 -1.359653E+04 -1.023107E+04
       137  21 -2.911394E+04 -4.760012E+04 -2.895463E+04 -1.805773E+04 -1.041892E+04 -1.127932E+04
       137  22  1.631413E+05  3.477730E+04  4.073124E+04 -1.359330E+04 -2.811438E+04 -3.190254E+03
       137  23  1.588816E+05  2.365703E+03  1.893383E+04 -1.061688E+04 -1.816704E+04 -1.023248E+04
       137  24  1.631463E+05 -1.190594E+03  1.082694E+04 -1.357886E+04 -8.222478E+03 -1.127838E+04
       137  25  3.927043E+05  9.166165E+04  9.576615E+04 -3.204541E+04 -3.945614E+04 -3.194141E+03
       137  26  3.692248E+05  5.342666E+04  6.399298E+04 -1.760270E+04 -2.273907E+04 -1.023379E+04
       137  27  3.554417E+05  4.521667E+04  5.060654E+04 -9.098576E+03 -6.025366E+03 -1.127740E+04
       138   1 -1.703121E+04 -4.165449E+04 -2.856431E+04 -1.321314E+04  7.428397E+03  1.029332E+04
       138   2  1.213012E+03 -3.855005E+04 -2.832329E+04 -1.048239E+04  5.457347E+03  9.529963E+03
       138   3  2.004014E+04 -3.418417E+04 -2.648110E+04 -1.397368E+04  3.486163E+03  8.458553E+03
       138   4  1.613955E+05  1.437052E+03  8.481345E+03 -1.364533E+04  6.743094E+03  1.029287E+04
       138   5  1.610752E+05  1.257876E+01  4.641264E+03 -1.053417E+04  4.423958E+03  9.529492E+03
       138   6  1.613977E+05 -9.023594E+01  2.643684E+03 -1.364493E+04  2.104747E+03  8.458095E+03
       138   7  3.398524E+05  4.452657E+04  4.552526E+04 -1.407765E+04  6.057598E+03  1.029243E+04
       138   8  3.209616E+05  3.857360E+04  3.760444E+04 -1.058597E+04  3.390309E+03  9.529023E+03
       138   9  3.027741E+05  3.400244E+04  3.176739E+04 -1.331612E+04  7.230225E+02  8.457637E+03
       138  10 -1.703130E+04 -4.165462E+04 -2.856461E+04 -1.321320E+04  1.197075E-09  3.704680E-10
       138  11  1.212956E+03 -3.855016E+04 -2.832352E+04 -1.048244E+04  2.662041E-09 -5.535438E-10
       138  12  2.004011E+04 -3.418425E+04 -2.648125E+04 -1.397370E+04 -1.837083E-10 -1.524036E-10
       138  13  1.613954E+05  1.436926E+03  8.481061E+03 -1.364539E+04 -2.046224E-09  8.710723E-10
       138  14  1.610752E+05  1.247598E+01  4.641056E+03 -1.053421E+04 -4.691355E-10  4.555583E-11
       138  15  1.613976E+05 -9.031396E+01  2.643541E+03 -1.364495E+04 -7.142821E-10 -2.434441E-10
       138  16  3.398523E+05  4.452644E+04  4.552500E+04 -1.407770E+04 -1.212543E-09  5.443431E-10
       138  17  3.209616E+05  3.857350E+04  3.760425E+04 -1.058599E+04 -1.198774E-09  1.928546E-10
       138  18  3.027741E+05  3.400236E+04  3.176726E+04 -1.331612E+04  5.314046E-10  1.733500E-10
       138  19 -1.703121E+04 -4.165449E+04 -2.856431E+04 -1.321314E+04 -7.428397E+03 -1.029332E+04
       138  20  1.213012E+03 -3.855005E+04 -2.832329E+04 -1.048239E+04 -5.457347E+03 -9.529963E+03
       138  21  2.004014E+04 -3.418417E+04 -2.648110E+04 -1.397368E+04 -3.486163E+03 -8.458553E+03
       138  22  1.613955E+05  1.437052E+03  8.481345E+03 -1.364533E+04 -6.743094E+03 -1.029287E+04
       138  23  1.610752E+05  1.257876E+01  4.641264E+03 -1.053417E+04 -4.423958E+03 -9.529492E+03
       138  24  1.613977E+05 -9.023594E+01  2.643684E+03 -1.364493E+04 -2.104747E+03 -8.458095E+03
       138  25  3.398524E+05  4.452657E+04  4.552526E+04 -1.407765E+04 -6.057598E+03 -1.029243E+04
       138  26  3.209616E+05  3.857360E+04  3.760444E+04 -1.058597E+04 -3.390309E+03 -9.529023E+03
       138  27  3.027741E+05  3.400244E+04  3.176739E+04 -1.331612E+04 -7.230225E+02 -8.457637E+03
       139   1  3.355829E+04 -3.076200E+04 -2.423476E+04 -1.373834E+04  2.998646E+03  7.753353E+03
       139   2  5.202468E+04 -2.635542E+04 -2.137286E+04 -1.060599E+04  2.478727E+03  6.590018E+03
       139   3  7.057929E+04 -2.189065E+04 -1.815653E+04 -1.370259E+04  1.958669E+03  5.411199E+03
       139   4  1.612759E+05  2.542867E+01  1.997841E+03 -1.364659E+04  1.695424E+03  7.752965E+03
       139   5  1.612309E+05 -2.482233E+01  1.086311E+03 -1.053215E+04  1.157929E+03  6.589696E+03
       139   6  1.612772E+05 -1.375221E+01  5.414147E+02 -1.364658E+04  6.203107E+02  5.410946E+03
       139   7  2.890089E+05  3.081183E+04  2.822958E+04 -1.355482E+04  3.919396E+02  7.752577E+03
       139   8  2.704485E+05  2.630503E+04  2.354485E+04 -1.045829E+04 -1.630965E+02  6.589374E+03
       139   9  2.519829E+05  2.186262E+04  1.923893E+04 -1.359057E+04 -7.182400E+02  5.410693E+03
       139  10  3.355826E+04 -3.076206E+04 -2.423489E+04 -1.373836E+04  1.408456E-09 -1.125721E-10
       139  11  5.202466E+04 -2.635547E+04 -2.137295E+04 -1.060601E+04  2.346298E-10 -1.062842E-09
       139  12  7.057928E+04 -2.189068E+04 -1.815660E+04 -1.370260E+04 -4.665245E-10 -4.187672E-10
       139  13  1.612758E+05  2.536334E+01  1.997723E+03 -1.364660E+04 -2.352912E-11 -2.526061E-11
       139  14  1.612309E+05 -2.486932E+01  1.086227E+03 -1.053216E+04  1.600313E-09 -4.317178E-10
       139  15  1.612772E+05 -1.378375E+01  5.413590E+02 -1.364659E+04 -3.749795E-10 -7.178525E-10
       139  16  2.890089E+05  3.081176E+04  2.822947E+04 -1.355482E+04 -2.047269E-09  5.296398E-11
       139  17  2.704485E+05  2.630498E+04  2.354476E+04 -1.045829E+04 -9.134115E-10 -4.390658E-10
       139  18  2.519829E+05  2.186259E+04  1.923887E+04 -1.359057E+04  1.211470E-09 -5.385963E-10
       139  19  3.355829E+04 -3.076200E+04 -2.423476E+04 -1.373834E+04 -2.998646E+03 -7.753353E+03
       139  20  5.202468E+04 -2.635542E+04 -2.137286E+04 -1.060599E+04 -2.478727E+03 -6.590018E+03
       139  21  7.057929E+04 -2.189065E+04 -1.815653E+04 -1.370259E+04 -1.958669E+03 -5.411199E+03
       139  22  1.612759E+05  2.542867E+01  1.997841E+03 -1.364659E+04 -1.695424E+03 -7.752965E+03
       139  23  1.612309E+05 -2.482233E+01  1.086311E+03 -1.053215E+04 -1.157929E+03 -6.589696E+03
       139  24  1.612772E+05 -1.375221E+01  5.414147E+02 -1.364658E+04 -6.203107E+02 -5.410946E+03
       139  25  2.890089E+05  3.081183E+04  2.822958E+04 -1.355482E+04 -3.919396E+02 -7.752577E+03
       139  26  2.704485E+05  2.630503E+04  2.354485E+04 -1.045829E+04  1.630965E+02 -6.589374E+03
       139  27  2.519829E+05  2.186262E+04  1.923893E+04 -1.359057E+04  7.182400E+02 -5.410693E+03
       140   1  8.417871E+04 -1.858334E+04 -1.545913E+04 -1.368757E+04  1.874777E+03  4.721165E+03
       140   2  1.026733E+05 -1.412735E+04 -1.204094E+04 -1.057275E+04  1.873372E+03  3.538283E+03
       140   3  1.211717E+05 -9.670833E+03 -8.620905E+03 -1.368405E+04  1.871895E+03  2.354827E+03
       140   4  1.612582E+05 -9.451218E+00  3.411978E+02 -1.364597E+04  5.407209E+02  4.720946E+03
       140   5  1.612568E+05 -3.240916E+00  4.540161E+00 -1.053293E+04  5.386362E+02  3.538101E+03
       140   6  1.612589E+05  3.546830E+00 -3.298886E+02 -1.364597E+04  5.364784E+02  2.354684E+03
       140   7  2.383433E+05  1.856407E+04  1.614122E+04 -1.360436E+04 -7.934980E+02  4.720726E+03
       140   8  2.198436E+05  1.412065E+04  1.204984E+04 -1.049311E+04 -7.962239E+02  3.537919E+03
       140   9  2.013475E+05  9.677826E+03  7.961047E+03 -1.360789E+04 -7.990227E+02  2.354541E+03
       140  10  8.417870E+04 -1.858337E+04 -1.545918E+04 -1.368757E+04  2.837282E-11 -1.693642E-10
       140  11  1.026733E+05 -1.412736E+04 -1.204097E+04 -1.057276E+04  9.529271E-11  7.675697E-11
       140  12  1.211717E+05 -9.670840E+03 -8.620922E+03 -1.368405E+04 -1.746578E-09  6.300758E-10
       140  13  1.612582E+05 -9.475232E+00  3.411554E+02 -1.364597E+04  1.865906E-11 -2.498971E-10
       140  14  1.612568E+05 -3.254437E+00  4.516090E+00 -1.053293E+04 -5.769533E-10  2.562902E-11
       140  15  1.612589E+05  3.540798E+00 -3.298996E+02 -1.364597E+04 -7.445952E-10  9.729975E-10
       140  16  2.383433E+05  1.856405E+04  1.614118E+04 -1.360436E+04  5.522130E-10 -4.888222E-10
       140  17  2.198436E+05  1.412064E+04  1.204982E+04 -1.049310E+04 -1.327767E-09 -1.523158E-11
       140  18  2.013475E+05  9.677820E+03  7.961035E+03 -1.360789E+04  2.393873E-09  1.156764E-09
       140  19  8.417871E+04 -1.858334E+04 -1.545913E+04 -1.368757E+04 -1.874777E+03 -4.721165E+03
       140  20  1.026733E+05 -1.412735E+04 -1.204094E+04 -1.057275E+04 -1.873372E+03 -3.538283E+03
       140  21  1.211717E+05 -9.670833E+03 -8.620905E+03 -1.368405E+04 -1.871895E+03 -2.354827E+03
       140  22  1.612582E+05 -9.451218E+00  3.411978E+02 -1.364597E+04 -5.407209E+02 -4.720946E+03
       140  23  1.612568E+05 -3.240916E+00  4.540161E+00 -1.053293E+04 -5.386362E+02 -3.538101E+03
       140  24  1.612589E+05  3.546830E+00 -3.298886E+02 -1.364597E+04 -5.364784E+02 -2.354684E+03
       140  25  2.383433E+05  1.856407E+04  1.614122E+04 -1.360436E+04  7.934980E+02 -4.720726E+03
       140  26  2.198436E+05  1.412065E+04  1.204984E+04 -1.049311E+04  7.962239E+02 -3.537919E+03
       140  27  2.013475E+05  9.677826E+03  7.961047E+03 -1.360789E+04  7.990227E+02 -2.354541E+03
       141   1  1.347665E+05 -6.369907E+03 -5.923213E+03 -1.368622E+04  1.949761E+03  1.665921E+03
       141   2  1.532933E+05 -1.904335E+03 -2.708358E+03 -1.060541E+04  2.476496E+03  4.827124E+02
       141   3  1.717498E+05  2.545345E+03  1.600974E+02 -1.374844E+04  3.003235E+03 -6.999401E+02
       141   4  1.612426E+05  3.374490E+00 -5.285641E+02 -1.364547E+04  6.145183E+02  1.665791E+03
       141   5  1.612780E+05  2.065183E+01 -1.066849E+03 -1.053356E+04  1.141865E+03  4.825873E+02
       141   6  1.612427E+05  2.194480E+01 -1.951962E+03 -1.364548E+04  1.669201E+03 -7.000590E+02
       141   7  1.877193E+05  6.376613E+03  4.866054E+03 -1.360473E+04 -7.207800E+02  1.665661E+03
       141   8  1.692628E+05  1.945636E+03  5.746640E+02 -1.046171E+04 -1.927823E+02  4.824620E+02
       141   9  1.507358E+05 -2.501461E+03 -4.064021E+03 -1.354253E+04  3.351896E+02 -7.001785E+02
       141  10  1.347665E+05 -6.369911E+03 -5.923225E+03 -1.368622E+04 -5.460304E-10  8.977616E-10
       141  11  1.532933E+05 -1.904337E+03 -2.708370E+03 -1.060541E+04  8.573407E-10  7.115704E-10
       141  12  1.717498E+05  2.545342E+03  1.600796E+02 -1.374844E+04  6.563953E-11 -5.530718E-10
       141  13  1.612426E+05  3.371409E+00 -5.285700E+02 -1.364547E+04  1.209373E-09  1.183410E-09
       141  14  1.612780E+05  2.065123E+01 -1.066852E+03 -1.053356E+04 -1.506591E-09  4.526858E-10
       141  15  1.612427E+05  2.194353E+01 -1.951969E+03 -1.364548E+04 -9.148214E-10 -1.466607E-10
       141  16  1.877193E+05  6.376610E+03  4.866048E+03 -1.360473E+04 -7.531909E-10  9.324598E-10
       141  17  1.692628E+05  1.945636E+03  5.746634E+02 -1.046171E+04 -5.357671E-10 -5.313845E-10
       141  18  1.507358E+05 -2.501461E+03 -4.064022E+03 -1.354253E+04 -1.704623E-09 -9.357499E-11
       141  19  1.347665E+05 -6.369907E+03 -5.923213E+03 -1.368622E+04 -1.949761E+03 -1.665921E+03
       141  20  1.532933E+05 -1.904335E+03 -2.708358E+03 -1.060541E+04 -2.476496E+03 -4.827124E+02
       141  21  1.717498E+05  2.545345E+03  1.600974E+02 -1.374844E+04 -3.003235E+03  6.999401E+02
       141  22  1.612426E+05  3.374490E+00 -5.285641E+02 -1.364547E+04 -6.145183E+02 -1.665791E+03
       141  23  1.612780E+05  2.065183E+01 -1.066849E+03 -1.053356E+04 -1.141865E+03 -4.825873E+02
       141  24  1.612427E+05  2.194480E+01 -1.951962E+03 -1.364548E+04 -1.669201E+03  7.000590E+02
       141  25  1.877193E+05  6.376613E+03  4.866054E+03 -1.360473E+04  7.207800E+02 -1.665661E+03
       141  26  1.692628E+05  1.945636E+03  5.746640E+02 -1.046171E+04  1.927823E+02 -4.824620E+02
       141  27  1.507358E+05 -2.501461E+03 -4.064021E+03 -1.354253E+04 -3.351896E+02  7.001785E+02
       142   1  1.852976E+05  5.862657E+03  2.410557E+03 -1.379971E+04  3.417661E+03 -1.389238E+03
       142   2  2.039691E+05  1.034981E+04  4.204805E+03 -1.074475E+04  5.662455E+03 -2.568338E+03
       142   3  2.222882E+05  1.458588E+04  4.475732E+03 -1.391427E+04  7.907323E+03 -3.736227E+03
       142   4  1.611795E+05  3.845139E+01 -2.597337E+03 -1.364564E+04  2.080660E+03 -1.389364E+03
       142   5  1.613568E+05  7.630691E+01 -4.559544E+03 -1.053338E+04  4.337950E+03 -2.568490E+03
       142   6  1.611793E+05 -1.390392E+02 -8.053784E+03 -1.364564E+04  6.595250E+03 -3.736403E+03
       142   7  1.370620E+05 -5.785790E+03 -7.605256E+03 -1.349157E+04  7.437096E+02 -1.389490E+03
       142   8  1.187462E+05 -1.019731E+04 -1.332398E+04 -1.032203E+04  3.013535E+03 -2.568642E+03
       142   9  1.000740E+05 -1.486419E+04 -2.058349E+04 -1.337704E+04  5.283304E+03 -3.736580E+03
       142  10  1.852976E+05  5.862651E+03  2.410531E+03 -1.379971E+04 -1.385581E-10 -5.967371E-10
       142  11  2.039691E+05  1.034980E+04  4.204732E+03 -1.074473E+04 -4.494362E-10 -4.894623E-10
       142  12  2.222882E+05  1.458585E+04  4.475589E+03 -1.391424E+04  1.168469E-10 -1.610180E-10
       142  13  1.611795E+05  3.844816E+01 -2.597349E+03 -1.364564E+04  1.096798E-09 -1.866029E-10
       142  14  1.613568E+05  7.629477E+01 -4.559592E+03 -1.053337E+04  1.012022E-09 -4.949195E-10
       142  15  1.611793E+05 -1.390659E+02 -8.053892E+03 -1.364562E+04  1.193591E-09 -4.465228E-10
       142  16  1.370620E+05 -5.785792E+03 -7.605260E+03 -1.349157E+04 -1.216999E-09 -1.139069E-11
       142  17  1.187462E+05 -1.019732E+04 -1.332401E+04 -1.032203E+04 -2.662735E-10 -5.323309E-10
       142  18  1.000739E+05 -1.486421E+04 -2.058357E+04 -1.337702E+04  7.060383E-10 -4.713695E-10
       142  19  1.852976E+05  5.862657E+03  2.410557E+03 -1.379971E+04 -3.417661E+03  1.389238E+03
       142  20  2.039691E+05  1.034981E+04  4.204805E+03 -1.074475E+04 -5.662455E+03  2.568338E+03
       142  21  2.222882E+05  1.458588E+04  4.475732E+03 -1.391427E+04 -7.907323E+03  3.736227E+03
       142  22  1.611795E+05  3.845139E+01 -2.597337E+03 -1.364564E+04 -2.080660E+03  1.389364E+03
       142  23  1.613568E+05  7.630691E+01 -4.559544E+03 -1.053338E+04 -4.337950E+03  2.568490E+03
       142  24  1.611793E+05 -1.390392E+02 -8.053784E+03 -1.364564E+04 -6.595250E+03  3.736403E+03
       142  25  1.370620E+05 -5.785790E+03 -7.605256E+03 -1.349157E+04 -7.437096E+02  1.389490E+03
       142  26  1.187462E+05 -1.019731E+04 -1.332398E+04 -1.032203E+04 -3.013535E+03  2.568642E+03
       142  27  1.000740E+05 -1.486419E+04 -2.058349E+04 -1.337704E+04 -5.283304E+03  3.736580E+03
       143   1  2.354344E+05  1.834322E+04  4.849047E+03 -1.483338E+04  9.607754E+03 -4.435903E+03
       143   2  2.551744E+05  2.238917E+04  8.030904E+02 -1.018086E+04  1.856981E+04 -5.536082E+03
       143   3  2.724546E+05  2.123825E+04 -1.037313E+04 -1.174378E+04  2.753221E+04 -6.414954E+03
       143   4  1.607013E+05  3.162520E+02 -1.057158E+04 -1.364390E+04  8.239429E+03 -4.436098E+03
       143   5  1.619535E+05 -9.707967E+01 -1.842923E+04 -1.053567E+04  1.744985E+04 -5.536328E+03
       143   6  1.607018E+05 -5.751013E+03 -3.359055E+04 -1.364301E+04  2.666037E+04 -6.415280E+03
       143   7  8.597347E+04 -1.771106E+04 -2.599251E+04 -1.245457E+04  6.871266E+03 -4.436298E+03
       143   8  6.874095E+04 -2.258388E+04 -3.766202E+04 -1.089042E+04  1.633006E+04 -5.536574E+03
       143   9  4.896074E+04 -3.274105E+04 -5.680865E+04 -1.554189E+04  2.578868E+04 -6.415601E+03
       143  10  2.354343E+05  1.834318E+04  4.848836E+03 -1.483335E+04  9.317519E-10 -4.369410E-10
       143  11  2.551740E+05  2.238904E+04  8.023850E+02 -1.018078E+04  3.363619E-09 -5.606963E-10
       143  12  2.724538E+05  2.123800E+04 -1.037464E+04 -1.174364E+04  5.171048E-10 -1.748438E-10
       143  13  1.607012E+05  3.162127E+02 -1.057175E+04 -1.364387E+04 -1.048516E-09 -2.380755E-10
       143  14  1.619532E+05 -9.719431E+01 -1.842986E+04 -1.053559E+04  5.267960E-10 -1.431353E-10
       143  15  1.607010E+05 -5.751248E+03 -3.359197E+04 -1.364287E+04  1.725093E-10  4.773739E-11
       143  16  8.597341E+04 -1.771110E+04 -2.599264E+04 -1.245455E+04 -3.457586E-10 -6.132737E-11
       143  17  6.874066E+04 -2.258398E+04 -3.766258E+04 -1.089035E+04 -1.862939E-09  8.390291E-10
       143  18  4.896002E+04 -3.274128E+04 -5.680998E+04 -1.554176E+04 -6.154797E-11  5.824578E-10
       143  19  2.354344E+05  1.834322E+04  4.849047E+03 -1.483338E+04 -9.607754E+03  4.435903E+03
       143  20  2.551744E+05  2.238917E+04  8.030904E+02 -1.018086E+04 -1.856981E+04  5.536082E+03
       143  21  2.724546E+05  2.123825E+04 -1.037313E+04 -1.174378E+04 -2.753221E+04  6.414954E+03
       143  22  1.607013E+05  3.162520E+02 -1.057158E+04 -1.364390E+04 -8.239429E+03  4.436098E+03
       143  23  1.619535E+05 -9.707967E+01 -1.842923E+04 -1.053567E+04 -1.744985E+04  5.536328E+03
       143  24  1.607018E+05 -5.751013E+03 -3.359055E+04 -1.364301E+04 -2.666037E+04  6.415280E+03
       143  25  8.597347E+04 -1.771106E+04 -2.599251E+04 -1.245457E+04 -6.871266E+03  4.436298E+03
       143  26  6.874095E+04 -2.258388E+04 -3.766202E+04 -1.089042E+04 -1.633006E+04  5.536574E+03
       143  27  4.896074E+04 -3.274105E+04 -5.680865E+04 -1.554189E+04 -2.578868E+04  6.415601E+03
       144   1  2.793054E+05  3.493055E+04 -1.686196E+04 -3.110091E+04  3.447701E+04 -7.315235E+03
       144   2  3.142624E+05  2.547146E+04 -4.407839E+04  1.732599E+04  6.898623E+04 -6.882616E+03
       144   3  3.164248E+05 -9.727529E+04 -1.220685E+05  5.977271E+04  1.034958E+05 -2.140931E+03
       144   4  1.537788E+05  4.640258E+03 -4.285854E+04 -1.359887E+04  3.251928E+04 -7.314758E+03
       144   5  1.706091E+05 -9.436181E+03 -7.491728E+04 -1.059193E+04  7.187766E+04 -6.885151E+03
       144   6  1.537903E+05 -1.376641E+05 -1.611250E+05 -1.356464E+04  1.112349E+05 -2.151076E+03
       144   7  2.826779E+04 -2.564988E+04 -6.885580E+04  3.899560E+03  3.056193E+04 -7.314391E+03
       144   8  2.697693E+04 -4.434224E+04 -1.057569E+05 -3.850330E+04  7.476843E+04 -6.887947E+03
       144   9 -8.808333E+03 -1.780346E+05 -2.001802E+05 -8.688270E+04  1.189721E+05 -2.163051E+03
       144  10  2.793041E+05  3.493017E+04 -1.686429E+04 -3.110070E+04  2.167646E-09 -3.168134E-10
       144  11  3.142573E+05  2.547013E+04 -4.408742E+04  1.732637E+04  3.859926E-10 -1.268309E-09
       144  12  3.164133E+05 -9.727816E+04 -1.220887E+05  5.977289E+04 -5.888461E-10 -3.854121E-10
       144  13  1.537777E+05  4.639916E+03 -4.286063E+04 -1.359868E+04 -1.779135E-10 -1.083305E-09
       144  14  1.706036E+05 -9.437618E+03 -7.492708E+04 -1.059153E+04 -8.909602E-10 -5.754639E-11
       144  15  1.537770E+05 -1.376674E+05 -1.611483E+05 -1.356445E+04 -6.495126E-10 -3.056838E-10
       144  16  2.826677E+04 -2.565019E+04 -6.885765E+04  3.899741E+03 -1.658405E-09 -4.628624E-11
       144  17  2.697092E+04 -4.434379E+04 -1.057675E+05 -3.850288E+04 -2.046359E-09 -2.061027E-10
       144  18 -8.823536E+03 -1.780384E+05 -2.002069E+05 -8.688250E+04  1.690096E-10 -4.379387E-10
       144  19  2.793054E+05  3.493055E+04 -1.686196E+04 -3.110091E+04 -3.447701E+04  7.315235E+03
       144  20  3.142624E+05  2.547146E+04 -4.407839E+04  1.732599E+04 -6.898623E+04  6.882616E+03
       144  21  3.164248E+05 -9.727529E+04 -1.220685E+05  5.977271E+04 -1.034958E+05  2.140931E+03
       144  22  1.537788E+05  4.640258E+03 -4.285854E+04 -1.359887E+04 -3.251928E+04  7.314758E+03
       144  23  1.706091E+05 -9.436181E+03 -7.491728E+04 -1.059193E+04 -7.187766E+04  6.885151E+03
       144  24  1.537903E+05 -1.376641E+05 -1.611250E+05 -1.356464E+04 -1.112349E+05  2.151076E+03
       144  25  2.826779E+04 -2.564988E+04 -6.885580E+04  3.899560E+03 -3.056193E+04  7.314391E+03
       144  26  2.697693E+04 -4.434224E+04 -1.057569E+05 -3.850330E+04 -7.476843E+04  6.887947E+03
       144  27 -8.808333E+03 -1.780346E+05 -2.001802E+05 -8.688270E+04 -1.189721E+05  2.163051E+03
       145   1  3.456155E+05  1.365496E+06  3.363561E+05 -2.279833E+05  1.644833E+04  6.054740E+04
       145   2  2.600047E+05  1.055586E+06  2.332344E+05 -1.763182E+05  4.886797E+04  1.674836E+04
       145   3  1.853600E+05  7.542470E+05  1.613420E+05 -2.253107E+05  4.359569E+04 -2.705616E+04
       145   4  4.019752E+03 -1.169120E+04  4.457334E+03 -2.249448E+05  1.650686E+04  2.676389E+03
       145   5  4.169677E+02 -1.214692E+04  2.371233E+03 -1.746134E+05  4.889277E+04  1.478976E+03
       145   6  4.089497E+02 -1.149132E+04  1.977449E+03 -2.249489E+05  4.355771E+04  2.545792E+02
       145   7 -3.377125E+05 -1.387138E+06 -3.275643E+05 -2.219124E+05  1.656490E+04 -5.506692E+04
       145   8 -2.592458E+05 -1.078810E+06 -2.285586E+05 -1.729112E+05  4.891751E+04 -1.376454E+04
       145   9 -1.845791E+05 -7.766734E+05 -1.574165E+05 -2.245873E+05  4.351973E+04  2.753223E+04
       145  10  3.456142E+05  1.365492E+06  3.363487E+05 -2.279841E+05 -7.245952E-10  4.729998E-10
       145  11  2.600020E+05  1.055585E+06  2.332294E+05 -1.763189E+05 -3.773411E-10  2.069860E-09
       145  12  1.853578E+05  7.542457E+05  1.613370E+05 -2.253098E+05 -2.885481E-10  5.909182E-10
       145  13  4.019458E+03 -1.169128E+04  4.456808E+03 -2.249449E+05 -2.601862E-10  2.499051E-12
       145  14  4.144001E+02 -1.214757E+04  2.366737E+03 -1.746135E+05 -8.256961E-10  4.995785E-10
       145  15  4.069124E+02 -1.149183E+04  1.973883E+03 -2.249489E+05 -3.274986E-10 -2.056686E-09
       145  16 -3.377136E+05 -1.387142E+06 -3.275705E+05 -2.219117E+05 -4.568103E-10 -4.761603E-10
       145  17 -2.592484E+05 -1.078811E+06 -2.285634E+05 -1.729107E+05 -1.250137E-09 -1.039754E-09
       145  18 -1.845813E+05 -7.766747E+05 -1.574215E+05 -2.245882E+05 -1.114516E-09  7.929370E-10
       145  19  3.456155E+05  1.365496E+06  3.363561E+05 -2.279833E+05 -1.644833E+04 -6.054740E+04
       145  20  2.600047E+05  1.055586E+06  2.332344E+05 -1.763182E+05 -4.886797E+04 -1.674836E+04
       145  21  1.853600E+05  7.542470E+05  1.613420E+05 -2.253107E+05 -4.359569E+04  2.705616E+04
       145  22  4.019752E+03 -1.169120E+04  4.457334E+03 -2.249448E+05 -1.650686E+04 -2.676389E+03
       145  23  4.169677E+02 -1.214692E+04  2.371233E+03 -1.746134E+05 -4.889277E+04 -1.478976E+03
       145  24  4.089497E+02 -1.149132E+04  1.977449E+03 -2.249489E+05 -4.355771E+04 -2.545792E+02
       145  25 -3.377125E+05 -1.387138E+06 -3.275643E+05 -2.219124E+05 -1.656490E+04  5.506692E+04
       145  26 -2.592458E+05 -1.078810E+06 -2.285586E+05 -1.729112E+05 -4.891751E+04  1.376454E+04
       145  27 -1.845791E+05 -7.766734E+05 -1.574165E+05 -2.245873E+05 -4.351973E+04 -2.753223E+04
       146   1  1.311807E+05  5.281505E+05  1.146698E+05 -2.261425E+05  3.030179E+04 -1.821737E+04
       146   2  5.711025E+04  2.228470E+05  5.082479E+04 -1.743418E+05  1.394527E+04 -2.013494E+04
       146   3 -1.588672E+04 -8.216367E+04 -1.158975E+04 -2.250581E+05 -3.024043E+03 -2.205674E+04
       146   4  7.154617E+02 -1.165755E+04  1.990126E+03 -2.253597E+05  3.027398E+04 -9.986019E+01
       146   5  5.295448E+02 -1.167764E+04  2.416907E+03 -1.740997E+05  1.391430E+04 -1.329525E+03
       146   6  1.303051E+03 -1.161317E+04  3.798717E+03 -2.253588E+05 -3.058586E+03 -2.564321E+03
       146   7 -1.297683E+05 -5.511894E+05 -1.107044E+05 -2.245775E+05  3.024620E+04  1.800217E+04
       146   8 -5.605444E+04 -2.461494E+05 -4.599262E+04 -1.738577E+05  1.388333E+04  1.746891E+04
       146   9  1.849270E+04  5.894280E+04  1.918831E+04 -2.256596E+05 -3.093147E+03  1.693029E+04
       146  10  1.311797E+05  5.281499E+05  1.146674E+05 -2.261421E+05 -1.240461E-10  2.157368E-10
       146  11  5.710993E+04  2.228465E+05  5.082367E+04 -1.743416E+05 -5.279735E-10  2.867703E-09
       146  12 -1.588686E+04 -8.216419E+04 -1.159068E+04 -2.250581E+05 -1.744254E-09  1.502264E-09
       146  13  7.144775E+02 -1.165780E+04  1.988404E+03 -2.253597E+05 -1.538520E-09  7.101272E-12
       146  14  5.293365E+02 -1.167769E+04  2.416540E+03 -1.740997E+05 -1.532875E-09  7.814308E-10
       146  15  1.303039E+03 -1.161318E+04  3.798687E+03 -2.253588E+05 -1.314017E-09 -2.452991E-09
       146  16 -1.297693E+05 -5.511900E+05 -1.107067E+05 -2.245779E+05 -1.786324E-09 -2.275550E-10
       146  17 -5.605473E+04 -2.461498E+05 -4.599356E+04 -1.738579E+05 -1.554905E-09 -1.357994E-09
       146  18  1.849261E+04  5.894249E+04  1.918776E+04 -2.256596E+05  1.791819E-10  1.813293E-10
       146  19  1.311807E+05  5.281505E+05  1.146698E+05 -2.261425E+05 -3.030179E+04  1.821737E+04
       146  20  5.711025E+04  2.228470E+05  5.082479E+04 -1.743418E+05 -1.394527E+04  2.013494E+04
       146  21 -1.588672E+04 -8.216367E+04 -1.158975E+04 -2.250581E+05  3.024043E+03  2.205674E+04
       146  22  7.154617E+02 -1.165755E+04  1.990126E+03 -2.253597E+05 -3.027398E+04  9.986019E+01
       146  23  5.295448E+02 -1.167764E+04  2.416907E+03 -1.740997E+05 -1.391430E+04  1.329525E+03
       146  24  1.303051E+03 -1.161317E+04  3.798717E+03 -2.253588E+05  3.058586E+03  2.564321E+03
       146  25 -1.297683E+05 -5.511894E+05 -1.107044E+05 -2.245775E+05 -3.024620E+04 -1.800217E+04
       146  26 -5.605444E+04 -2.461494E+05 -4.599262E+04 -1.738577E+05 -1.388333E+04 -1.746891E+04
       146  27  1.849270E+04  5.894280E+04  1.918831E+04 -2.256596E+05  3.093147E+03 -1.693029E+04
       147   1 -7.147003E+04 -3.068457E+05 -5.770214E+04 -2.265470E+05 -1.574304E+04 -2.876335E+04
       147   2 -1.445659E+05 -6.112684E+05 -1.230489E+05 -1.708606E+05 -2.552896E+04 -3.860578E+03
       147   3 -2.104214E+05 -9.172412E+05 -2.028675E+05 -2.164789E+05 -9.535247E+03  2.105956E+04
       147   4  2.057542E+02 -1.089296E+04  4.699318E+03 -2.250918E+05 -1.578706E+04 -3.249630E+03
       147   5  1.406173E+03 -1.265096E+04  7.910994E+03 -1.744334E+05 -2.552166E+04 -7.408848E+03
       147   6  1.489424E+04 -1.100528E+04  1.683994E+04 -2.250710E+05 -9.488271E+03 -1.153808E+04
       147   7  7.187625E+04  2.851439E+05  6.709829E+04 -2.236359E+05 -1.583095E+04  2.227607E+04
       147   8  1.473544E+05  5.863023E+05  1.388493E+05 -1.780095E+05 -2.551433E+04 -1.096050E+04
       147   9  2.401504E+05  8.959839E+05  2.364922E+05 -2.336753E+05 -9.440434E+03 -4.418321E+04
       147  10 -7.147051E+04 -3.068466E+05 -5.770416E+04 -2.265473E+05 -1.566571E-09  6.577508E-10
       147  11 -1.445667E+05 -6.112686E+05 -1.230502E+05 -1.708607E+05 -1.406280E-09  2.839725E-09
       147  12 -2.104216E+05 -9.172417E+05 -2.028685E+05 -2.164788E+05 -3.487323E-10  1.645653E-09
       147  13  2.054837E+02 -1.089303E+04  4.698830E+03 -2.250918E+05 -1.202982E-09  4.189496E-11
       147  14  1.405458E+03 -1.265120E+04  7.909667E+03 -1.744335E+05 -3.459916E-10  7.160585E-10
       147  15  1.489411E+04 -1.100545E+04  1.683952E+04 -2.250711E+05 -1.849959E-09 -1.850721E-09
       147  16  7.187584E+04  2.851433E+05  6.709689E+04 -2.236356E+05  1.125537E-09 -6.607276E-10
       147  17  1.473537E+05  5.863020E+05  1.388478E+05 -1.780097E+05  1.632946E-11 -1.392624E-09
       147  18  2.401498E+05  8.959817E+05  2.364884E+05 -2.336756E+05 -3.475533E-10 -3.969784E-10
       147  19 -7.147003E+04 -3.068457E+05 -5.770214E+04 -2.265470E+05  1.574304E+04  2.876335E+04
       147  20 -1.445659E+05 -6.112684E+05 -1.230489E+05 -1.708606E+05  2.552896E+04  3.860578E+03
       147  21 -2.104214E+05 -9.172412E+05 -2.028675E+05 -2.164789E+05  9.535247E+03 -2.105956E+04
       147  22  2.057542E+02 -1.089296E+04  4.699318E+03 -2.250918E+05  1.578706E+04  3.249630E+03
       147  23  1.406173E+03 -1.265096E+04  7.910994E+03 -1.744334E+05  2.552166E+04  7.408848E+03
       147  24  1.489424E+04 -1.100528E+04  1.683994E+04 -2.250710E+05  9.488271E+03  1.153808E+04
       147  25  7.187625E+04  2.851439E+05  6.709829E+04 -2.236359E+05  1.583095E+04 -2.227607E+04
       147  26  1.473544E+05  5.863023E+05  1.388493E+05 -1.780095E+05  2.551433E+04  1.096050E+04
       147  27  2.401504E+05  8.959839E+05  2.364922E+05 -2.336753E+05  9.440434E+03  4.418321E+04
       148   1 -5.314427E+05 -2.349096E+05 -1.377750E+05 -2.058546E+05 -4.253757E+04 -9.746621E+03
       148   2 -4.821422E+05 -1.736568E+05 -9.397559E+04 -1.843757E+05 -2.663345E+04  9.272601E+03
       148   3 -4.314573E+05 -1.522522E+05 -7.228040E+04 -1.725536E+05 -6.474280E+03  1.696848E+04
       148   4 -1.534806E+05 -7.893397E+04 -3.505344E+04 -8.846699E+04 -2.450039E+04 -2.976132E+03
       148   5 -1.534291E+05 -4.655998E+04 -1.549873E+04 -8.875289E+04 -2.054181E+04  1.155793E+04
       148   6 -1.496231E+05 -5.165923E+04 -8.572880E+03 -9.869834E+04 -1.233156E+04  1.477005E+04
       148   7  2.246236E+05  7.705978E+04  6.765729E+04  2.898895E+04 -6.451041E+03  3.799944E+03
       148   8  1.753929E+05  8.054755E+04  6.297080E+04  6.917313E+03 -1.444664E+04  1.384471E+04
       148   9  1.322908E+05  4.893834E+04  5.512967E+04 -2.481302E+04 -1.819174E+04  1.257063E+04
       148  10 -5.314447E+05 -2.349102E+05 -1.377786E+05 -2.058549E+05 -1.117535E-09  4.860570E-10
       148  11 -4.821430E+05 -1.736571E+05 -9.397708E+04 -1.843755E+05 -3.062448E-09  4.781266E-10
       148  12 -4.314574E+05 -1.522525E+05 -7.228102E+04 -1.725535E+05  3.598384E-09  1.126163E-09
       148  13 -1.534812E+05 -7.893414E+04 -3.505459E+04 -8.846705E+04  4.591810E-11  2.995811E-10
       148  14 -1.534296E+05 -4.656024E+04 -1.549977E+04 -8.875270E+04  5.788689E-11 -1.056981E-10
       148  15 -1.496233E+05 -5.165951E+04 -8.573576E+03 -9.869820E+04  5.965375E-09  1.886184E-09
       148  16  2.246235E+05  7.705975E+04  6.765719E+04  2.898897E+04 -6.705582E-10 -7.703113E-11
       148  17  1.753927E+05  8.054729E+04  6.297005E+04  6.917474E+03  9.312684E-10 -2.398135E-10
       148  18  1.322904E+05  4.893808E+04  5.512875E+04 -2.481283E+04  7.120089E-09  2.189031E-09
       148  19 -5.314427E+05 -2.349096E+05 -1.377750E+05 -2.058546E+05  4.253757E+04  9.746621E+03
       148  20 -4.821422E+05 -1.736568E+05 -9.397559E+04 -1.843757E+05  2.663345E+04 -9.272601E+03
       148  21 -4.314573E+05 -1.522522E+05 -7.228040E+04 -1.725536E+05  6.474280E+03 -1.696848E+04
       148  22 -1.534806E+05 -7.893397E+04 -3.505344E+04 -8.846699E+04  2.450039E+04  2.976132E+03
       148  23 -1.534291E+05 -4.655998E+04 -1.549873E+04 -8.875289E+04  2.054181E+04 -1.155793E+04
       148  24 -1.496231E+05 -5.165923E+04 -8.572880E+03 -9.869834E+04  1.233156E+04 -1.477005E+04
       148  25  2.246236E+05  7.705978E+04  6.765729E+04  2.898895E+04  6.451041E+03 -3.799944E+03
       148  26  1.753929E+05  8.054755E+04  6.297080E+04  6.917313E+03  1.444664E+04 -1.384471E+04
       148  27  1.322908E+05  4.893834E+04  5.512967E+04 -2.481302E+04  1.819174E+04 -1.257063E+04
       149   1 -3.859588E+05 -1.420271E+05 -6.120851E+04 -1.632406E+05 -7.447122E+03  1.336920E+04
       149   2 -3.385626E+05 -1.133781E+05 -4.530975E+04 -1.403030E+05 -4.015353E+03  1.135151E+04
       149   3 -2.777965E+05 -1.001504E+05 -3.149422E+04 -1.333186E+05 -3.811686E+02  8.792560E+03
       149   4 -1.484493E+05 -5.377612E+04 -6.704818E+03 -9.745174E+04 -1.022106E+04  1.232803E+04
       149   5 -1.550976E+05 -4.549080E+04 -3.512304E+03 -8.971008E+04 -7.359989E+03  1.009665E+04
       149   6 -1.482656E+05 -5.251348E+04 -1.950146E+03 -9.792269E+04 -4.296740E+03  7.324006E+03
       149   7  8.911528E+04  3.447870E+04  4.779474E+04 -3.164020E+04 -1.299614E+04  1.128643E+04
       149   8  2.840112E+04  2.239908E+04  3.828298E+04 -3.910348E+04 -1.070570E+04  8.841382E+03
       149   9 -1.871713E+04 -4.875062E+03  2.759311E+04 -6.251982E+04 -8.213220E+03  5.855114E+03
       149  10 -3.859589E+05 -1.420274E+05 -6.120895E+04 -1.632405E+05  8.697309E-09  2.220728E-09
       149  11 -3.385627E+05 -1.133783E+05 -4.531002E+04 -1.403030E+05  3.203880E-09  1.958123E-10
       149  12 -2.777965E+05 -1.001505E+05 -3.149437E+04 -1.333186E+05  1.246698E-10 -7.634425E-10
       149  13 -1.484495E+05 -5.377632E+04 -6.705300E+03 -9.745164E+04  6.932553E-09  1.756566E-09
       149  14 -1.550977E+05 -4.549093E+04 -3.512597E+03 -8.971002E+04  2.721825E-09  1.249640E-10
       149  15 -1.482657E+05 -5.251354E+04 -1.950281E+03 -9.792267E+04  5.237254E-10 -1.159407E-10
       149  16  8.911507E+04  3.447852E+04  4.779419E+04 -3.164008E+04  2.209325E-09  1.175203E-09
       149  17  2.840098E+04  2.239896E+04  3.828261E+04 -3.910341E+04 -8.599178E-10  3.908330E-10
       149  18 -1.871721E+04 -4.875117E+03  2.759292E+04 -6.251978E+04 -1.222499E-09  4.871582E-10
       149  19 -3.859588E+05 -1.420271E+05 -6.120851E+04 -1.632406E+05  7.447122E+03 -1.336920E+04
       149  20 -3.385626E+05 -1.133781E+05 -4.530975E+04 -1.403030E+05  4.015353E+03 -1.135151E+04
       149  21 -2.777965E+05 -1.001504E+05 -3.149422E+04 -1.333186E+05  3.811686E+02 -8.792560E+03
       149  22 -1.484493E+05 -5.377612E+04 -6.704818E+03 -9.745174E+04  1.022106E+04 -1.232803E+04
       149  23 -1.550976E+05 -4.549080E+04 -3.512304E+03 -8.971008E+04  7.359989E+03 -1.009665E+04
       149  24 -1.482656E+05 -5.251348E+04 -1.950146E+03 -9.792269E+04  4.296740E+03 -7.324006E+03
       149  25  8.911528E+04  3.447870E+04  4.779474E+04 -3.164020E+04  1.299614E+04 -1.128643E+04
       149  26  2.840112E+04  2.239908E+04  3.828298E+04 -3.910348E+04  1.070570E+04 -8.841382E+03
       149  27 -1.871713E+04 -4.875062E+03  2.759311E+04 -6.251982E+04  8.213220E+03 -5.855114E+03
       150   1 -2.364278E+05 -8.514017E+04 -2.136060E+04 -1.221192E+05  5.506495E+02  6.701217E+03
       150   2 -1.892017E+05 -5.799849E+04 -8.558793E+03 -9.907963E+04  2.343004E+03  3.286758E+03
       150   3 -1.278991E+05 -4.508207E+04  3.892351E+03 -9.225878E+04  4.144915E+03 -1.537141E+02
       150   4 -1.481774E+05 -5.260708E+04 -1.485604E+03 -9.785483E+04 -3.218507E+03  5.287734E+03
       150   5 -1.552131E+05 -4.547282E+04 -8.437320E+02 -8.975387E+04 -1.453665E+03  1.863040E+03
       150   6 -1.481695E+05 -5.255839E+04 -5.305452E+02 -9.787261E+04  3.206843E+02 -1.587667E+03
       150   7 -5.991911E+04 -2.007340E+04  1.838895E+04 -7.358732E+04 -6.988243E+03  3.874034E+03
       150   8 -1.212233E+05 -3.294709E+04  6.871285E+03 -8.042767E+04 -5.250547E+03  4.392418E+02
       150   9 -1.684393E+05 -6.003462E+04 -4.953368E+03 -1.034862E+05 -3.503388E+03 -3.021560E+03
       150  10 -2.364278E+05 -8.514022E+04 -2.136069E+04 -1.221192E+05  1.589395E-09 -3.678299E-10
       150  11 -1.892018E+05 -5.799850E+04 -8.558824E+03 -9.907963E+04  2.063627E-09  3.834317E-10
       150  12 -1.278991E+05 -4.508208E+04  3.892319E+03 -9.225878E+04  1.410492E-10  7.043044E-10
       150  13 -1.481774E+05 -5.260711E+04 -1.485676E+03 -9.785482E+04  1.048057E-09  9.161240E-11
       150  14 -1.552131E+05 -4.547282E+04 -8.437425E+02 -8.975387E+04 -2.306222E-10  2.999118E-10
       150  15 -1.481695E+05 -5.255840E+04 -5.305502E+02 -9.787261E+04  5.583624E-11  5.299214E-10
       150  16 -5.991916E+04 -2.007343E+04  1.838883E+04 -7.358730E+04 -5.917996E-10  5.014890E-10
       150  17 -1.212233E+05 -3.294710E+04  6.871233E+03 -8.042767E+04 -1.906823E-09  2.108461E-10
       150  18 -1.684393E+05 -6.003463E+04 -4.953408E+03 -1.034862E+05  1.312508E-09  3.471797E-10
       150  19 -2.364278E+05 -8.514017E+04 -2.136060E+04 -1.221192E+05 -5.506495E+02 -6.701217E+03
       150  20 -1.892017E+05 -5.799849E+04 -8.558793E+03 -9.907963E+04 -2.343004E+03 -3.286758E+03
       150  21 -1.278991E+05 -4.508207E+04  3.892351E+03 -9.225878E+04 -4.144915E+03  1.537141E+02
       150  22 -1.481774E+05 -5.260708E+04 -1.485604E+03 -9.785483E+04  3.218507E+03 -5.287734E+03
       150  23 -1.552131E+05 -4.547282E+04 -8.437320E+02 -8.975387E+04  1.453665E+03 -1.863040E+03
       150  24 -1.481695E+05 -5.255839E+04 -5.305452E+02 -9.787261E+04 -3.206843E+02  1.587667E+03
       150  25 -5.991911E+04 -2.007340E+04  1.838895E+04 -7.358732E+04  6.988243E+03 -3.874034E+03
       150  26 -1.212233E+05 -3.294709E+04  6.871285E+03 -8.042767E+04  5.250547E+03 -4.392418E+02
       150  27 -1.684393E+05 -6.003462E+04 -4.953368E+03 -1.034862E+05  3.503388E+03  3.021560E+03
       151   1 -8.674606E+04 -2.984387E+04  1.366243E+04 -8.096761E+04  5.009306E+03 -2.232597E+03
       151   2 -3.955559E+04 -2.769866E+03  2.583643E+04 -5.791850E+04  6.569502E+03 -5.770609E+03
       151   3  2.176759E+04  1.014381E+04  3.785816E+04 -5.108646E+04  8.130403E+03 -9.308939E+03
       151   4 -1.481612E+05 -5.256139E+04 -4.529184E+02 -9.786668E+04  1.192209E+03 -3.663941E+03
       151   5 -1.552286E+05 -4.548522E+04 -4.095324E+02 -8.975652E+04  2.751733E+03 -7.202507E+03
       151   6 -1.481676E+05 -5.257049E+04 -5.183003E+02 -9.786549E+04  4.311927E+03 -1.074136E+04
       151   7 -2.095732E+05 -7.527885E+04 -1.456863E+04 -1.147644E+05 -2.624517E+03 -5.095146E+03
       151   8 -2.708877E+05 -8.819940E+04 -2.665619E+04 -1.215890E+05 -1.065251E+03 -8.634110E+03
       151   9 -3.180707E+05 -1.152815E+05 -3.889574E+04 -1.446320E+05  4.946500E+02 -1.217334E+04
       151  10 -8.674609E+04 -2.984388E+04  1.366238E+04 -8.096761E+04 -3.335788E-11  7.278849E-10
       151  11 -3.955565E+04 -2.769913E+03  2.583629E+04 -5.791847E+04  1.066668E-09  3.624663E-10
       151  12  2.176749E+04  1.014370E+04  3.785788E+04 -5.108640E+04  1.616361E-10 -4.455714E-11
       151  13 -1.481612E+05 -5.256141E+04 -4.529463E+02 -9.786667E+04  9.597573E-10  6.012003E-10
       151  14 -1.552286E+05 -4.548528E+04 -4.096441E+02 -8.975650E+04 -3.960813E-10  1.063942E-10
       151  15 -1.481676E+05 -5.257062E+04 -5.185521E+02 -9.786545E+04 -1.188708E-09 -6.594021E-10
       151  16 -2.095732E+05 -7.527888E+04 -1.456869E+04 -1.147644E+05  1.481225E-10  4.288380E-10
       151  17 -2.708878E+05 -8.819948E+04 -2.665633E+04 -1.215890E+05 -1.659557E-09  1.324466E-11
       151  18 -3.180708E+05 -1.152816E+05 -3.889602E+04 -1.446320E+05  4.194258E-10 -1.217159E-09
       151  19 -8.674606E+04 -2.984387E+04  1.366243E+04 -8.096761E+04 -5.009306E+03  2.232597E+03
       151  20 -3.955559E+04 -2.769866E+03  2.583643E+04 -5.791850E+04 -6.569502E+03  5.770609E+03
       151  21  2.176759E+04  1.014381E+04  3.785816E+04 -5.108646E+04 -8.130403E+03  9.308939E+03
       151  22 -1.481612E+05 -5.256139E+04 -4.529184E+02 -9.786668E+04 -1.192209E+03  3.663941E+03
       151  23 -1.552286E+05 -4.548522E+04 -4.095324E+02 -8.975652E+04 -2.751733E+03  7.202507E+03
       151  24 -1.481676E+05 -5.257049E+04 -5.183003E+02 -9.786549E+04 -4.311927E+03  1.074136E+04
       151  25 -2.095732E+05 -7.527885E+04 -1.456863E+04 -1.147644E+05  2.624517E+03  5.095146E+03
       151  26 -2.708877E+05 -8.819940E+04 -2.665619E+04 -1.215890E+05  1.065251E+03  8.634110E+03
       151  27 -3.180707E+05 -1.152815E+05 -3.889574E+04 -1.446320E+05 -4.946500E+02  1.217334E+04
       152   1  6.287606E+04  2.538525E+04  4.743101E+04 -3.979354E+04  9.014905E+03 -1.137719E+04
       152   2  1.100385E+05  5.244221E+04  5.912170E+04 -1.675365E+04  1.089477E+04 -1.479275E+04
       152   3  1.713011E+05  6.533280E+04  7.042496E+04 -9.921183E+03  1.277447E+04 -1.820402E+04
       152   4 -1.481770E+05 -5.257149E+04 -6.329406E+02 -9.786448E+04  5.197134E+03 -1.280963E+04
       152   5 -1.552310E+05 -4.549867E+04 -1.060924E+03 -8.975757E+04  7.080876E+03 -1.622444E+04
       152   6 -1.481876E+05 -5.259339E+04 -1.879158E+03 -9.785957E+04  8.964411E+03 -1.963495E+04
       152   7 -3.591871E+05 -1.305255E+05 -4.870021E+04 -1.559178E+05  1.380740E+03 -1.424156E+04
       152   8 -4.204336E+05 -1.434356E+05 -6.124909E+04 -1.627340E+05  3.268699E+03 -1.765548E+04
       152   9 -4.675803E+05 -1.705143E+05 -7.419160E+04 -1.857583E+05  5.156405E+03 -2.106512E+04
       152  10  6.287594E+04  2.538509E+04  4.743061E+04 -3.979346E+04 -1.375083E-09 -5.508687E-10
       152  11  1.100383E+05  5.244194E+04  5.912106E+04 -1.675352E+04 -4.191758E-10  2.869582E-10
       152  12  1.713009E+05  6.533240E+04  7.042403E+04 -9.920995E+03  1.224456E-10  5.813728E-10
       152  13 -1.481771E+05 -5.257167E+04 -6.332996E+02 -9.786442E+04 -9.868244E-10 -5.251456E-10
       152  14 -1.552311E+05 -4.549896E+04 -1.061513E+03 -8.975748E+04  4.341272E-10 -1.384899E-12
       152  15 -1.481878E+05 -5.259383E+04 -1.880033E+03 -9.785943E+04 -1.644387E-09  6.049584E-10
       152  16 -3.591871E+05 -1.305257E+05 -4.870059E+04 -1.559178E+05  8.472333E-10 -6.175297E-10
       152  17 -4.204337E+05 -1.434360E+05 -6.124970E+04 -1.627339E+05 -9.904329E-10  4.980184E-10
       152  18 -4.675805E+05 -1.705148E+05 -7.419248E+04 -1.857583E+05 -4.565354E-10  7.983016E-10
       152  19  6.287606E+04  2.538525E+04  4.743101E+04 -3.979354E+04 -9.014905E+03  1.137719E+04
       152  20  1.100385E+05  5.244221E+04  5.912170E+04 -1.675365E+04 -1.089477E+04  1.479275E+04
       152  21  1.713011E+05  6.533280E+04  7.042496E+04 -9.921183E+03 -1.277447E+04  1.820402E+04
       152  22 -1.481770E+05 -5.257149E+04 -6.329406E+02 -9.786448E+04 -5.197134E+03  1.280963E+04
       152  23 -1.552310E+05 -4.549867E+04 -1.060924E+03 -8.975757E+04 -7.080876E+03  1.622444E+04
       152  24 -1.481876E+05 -5.259339E+04 -1.879158E+03 -9.785957E+04 -8.964411E+03  1.963495E+04
       152  25 -3.591871E+05 -1.305255E+05 -4.870021E+04 -1.559178E+05 -1.380740E+03  1.424156E+04
       152  26 -4.204336E+05 -1.434356E+05 -6.124909E+04 -1.627340E+05 -3.268699E+03  1.765548E+04
       152  27 -4.675803E+05 -1.705143E+05 -7.419160E+04 -1.857583E+05 -5.156405E+03  2.106512E+04
       153   1  2.123398E+05  8.054539E+04  7.948626E+04  1.302736E+03  1.393875E+04 -2.016748E+04
       153   2  2.595450E+05  1.076225E+05  8.958023E+04  2.437926E+04  1.748487E+04 -2.293331E+04
       153   3  3.205266E+05  1.202226E+05  9.796839E+04  3.128742E+04  2.101334E+04 -2.564627E+04
       153   4 -1.482597E+05 -5.258001E+04 -2.493172E+03 -9.788680E+04  1.011678E+04 -2.160340E+04
       153   5 -1.551687E+05 -4.548241E+04 -4.509745E+03 -8.975013E+04  1.371670E+04 -2.435004E+04
       153   6 -1.483145E+05 -5.287263E+04 -8.275172E+03 -9.778292E+04  1.729877E+04 -2.704388E+04
       153   7 -5.087222E+05 -1.856932E+05 -8.447928E+04 -1.970220E+05  6.297291E+03 -2.303840E+04
       153   8 -5.697056E+05 -1.985728E+05 -9.860971E+04 -2.038087E+05  9.951294E+03 -2.576575E+04
       153   9 -6.169337E+05 -2.259509E+05 -1.145327E+05 -2.267639E+05  1.358725E+04 -2.844034E+04
       153  10  2.123395E+05  8.054490E+04  7.948514E+04  1.302962E+03  5.589445E-11 -1.596706E-10
       153  11  2.595445E+05  1.076218E+05  8.957867E+04  2.437958E+04 -2.607365E-10 -5.312439E-10
       153  12  3.205259E+05  1.202218E+05  9.796633E+04  3.128785E+04  2.966350E-10 -2.916798E-10
       153  13 -1.482599E+05 -5.258054E+04 -2.494241E+03 -9.788663E+04 -1.371777E-09  9.887154E-10
       153  14 -1.551691E+05 -4.548310E+04 -4.511213E+03 -8.974986E+04 -2.546232E-09 -4.558376E-10
       153  15 -1.483150E+05 -5.287350E+04 -8.277109E+03 -9.778255E+04 -7.652643E-10 -1.737508E-09
       153  16 -5.087224E+05 -1.856938E+05 -8.448035E+04 -1.970219E+05 -8.345293E-11  8.729740E-10
       153  17 -5.697059E+05 -1.985735E+05 -9.861114E+04 -2.038085E+05 -5.735683E-10 -1.584113E-10
       153  18 -6.169341E+05 -2.259518E+05 -1.145345E+05 -2.267636E+05 -5.868327E-10 -1.195909E-09
       153  19  2.123398E+05  8.054539E+04  7.948626E+04  1.302736E+03 -1.393875E+04  2.016748E+04
       153  20  2.595450E+05  1.076225E+05  8.958023E+04  2.437926E+04 -1.748487E+04  2.293331E+04
       153  21  3.205266E+05  1.202226E+05  9.796839E+04  3.128742E+04 -2.101334E+04  2.564627E+04
       153  22 -1.482597E+05 -5.258001E+04 -2.493172E+03 -9.788680E+04 -1.011678E+04  2.160340E+04
       153  23 -1.551687E+05 -4.548241E+04 -4.509745E+03 -8.975013E+04 -1.371670E+04  2.435004E+04
       153  24 -1.483145E+05 -5.287263E+04 -8.275172E+03 -9.778292E+04 -1.729877E+04  2.704388E+04
       153  25 -5.087222E+05 -1.856932E+05 -8.447928E+04 -1.970220E+05 -6.297291E+03  2.303840E+04
       153  26 -5.697056E+05 -1.985728E+05 -9.860971E+04 -2.038087E+05 -9.951294E+03  2.576575E+04
       153  27 -6.169337E+05 -2.259509E+05 -1.145327E+05 -2.267639E+05 -1.358725E+04  2.844034E+04
       154   1  3.618631E+05  1.351515E+05  1.049073E+05  4.126025E+04  2.365294E+04 -2.712368E+04
       154   2  4.086655E+05  1.633303E+05  1.083114E+05  6.645713E+04  3.380999E+04 -2.702122E+04
       154   3  4.660936E+05  1.710021E+05  1.033753E+05  7.689854E+04  4.357645E+04 -2.587098E+04
       154   4 -1.488005E+05 -5.235854E+04 -1.094998E+04 -9.818760E+04  1.965602E+04 -2.862811E+04
       154   5 -1.545139E+05 -4.554432E+04 -1.986264E+04 -8.947802E+04  3.091045E+04 -2.811452E+04
       154   6 -1.498259E+05 -5.946100E+04 -3.799137E+04 -9.552669E+04  4.177329E+04 -2.655303E+04
       154   7 -6.592057E+05 -2.398510E+05 -1.268250E+05 -2.375319E+05  1.566264E+04 -3.013123E+04
       154   8 -7.173771E+05 -2.543952E+05 -1.480580E+05 -2.452843E+05  2.801376E+04 -2.920676E+04
       154   9 -7.653654E+05 -2.898934E+05 -1.793834E+05 -2.677949E+05  3.997206E+04 -2.723435E+04
       154  10  3.618623E+05  1.351506E+05  1.049048E+05  4.126077E+04  7.817691E-10 -2.083398E-10
       154  11  4.086641E+05  1.633292E+05  1.083079E+05  6.645786E+04 -1.521764E-09 -2.813712E-10
       154  12  4.660914E+05  1.710009E+05  1.033705E+05  7.689945E+04  1.980460E-10 -1.240749E-09
       154  13 -1.488011E+05 -5.235952E+04 -1.095224E+04 -9.818715E+04  1.556597E-09 -2.377868E-09
       154  14 -1.545152E+05 -4.554543E+04 -1.986592E+04 -8.947732E+04 -4.868174E-10 -1.256785E-09
       154  15 -1.498279E+05 -5.946223E+04 -3.799597E+04 -9.552580E+04  1.434848E-09 -1.774185E-09
       154  16 -6.592062E+05 -2.398520E+05 -1.268272E+05 -2.375315E+05 -1.261447E-11 -6.868813E-10
       154  17 -7.173781E+05 -2.543963E+05 -1.480611E+05 -2.452836E+05 -4.719315E-10 -4.335945E-10
       154  18 -7.653673E+05 -2.898947E+05 -1.793878E+05 -2.677940E+05  8.705193E-11 -2.728758E-10
       154  19  3.618631E+05  1.351515E+05  1.049073E+05  4.126025E+04 -2.365294E+04  2.712368E+04
       154  20  4.086655E+05  1.633303E+05  1.083114E+05  6.645713E+04 -3.380999E+04  2.702122E+04
       154  21  4.660936E+05  1.710021E+05  1.033753E+05  7.689854E+04 -4.357645E+04  2.587098E+04
       154  22 -1.488005E+05 -5.235854E+04 -1.094998E+04 -9.818760E+04 -1.965602E+04  2.862811E+04
       154  23 -1.545139E+05 -4.554432E+04 -1.986264E+04 -8.947802E+04 -3.091045E+04  2.811452E+04
       154  24 -1.498259E+05 -5.946100E+04 -3.799137E+04 -9.552669E+04 -4.177329E+04  2.655303E+04
       154  25 -6.592057E+05 -2.398510E+05 -1.268250E+05 -2.375319E+05 -1.566264E+04  3.013123E+04
       154  26 -7.173771E+05 -2.543952E+05 -1.480580E+05 -2.452843E+05 -2.801376E+04  2.920676E+04
       154  27 -7.653654E+05 -2.898934E+05 -1.793834E+05 -2.677949E+05 -3.997206E+04  2.723435E+04
       155   1  5.179430E+05  1.812747E+05  1.014788E+05  6.196316E+04  5.678733E+04 -2.490017E+04
       155   2  5.445254E+05  2.344580E+05  7.936905E+04  1.367849E+05  7.915708E+04 -1.235699E+04
       155   3  5.323591E+05  1.443497E+05  3.945866E+03  2.307906E+05  9.329539E+04  2.203808E+04
       155   4 -1.561250E+05 -4.780636E+04 -4.859789E+04 -1.030205E+05  4.902398E+04 -2.782416E+04
       155   5 -1.454089E+05 -5.105898E+04 -8.786242E+04 -8.354112E+04  9.444381E+04 -6.608139E+03
       155   6 -1.780720E+05 -2.022745E+05 -1.987530E+05 -4.486572E+04  1.316244E+05  3.646604E+04
       155   7 -8.297375E+05 -2.768701E+05 -1.987023E+05 -2.678479E+05  4.126977E+04 -3.074535E+04
       155   8 -8.348581E+05 -3.365053E+05 -2.551261E+05 -3.036299E+05  1.097119E+05 -8.681110E+02
       155   9 -8.879800E+05 -5.487500E+05 -4.014887E+05 -3.201970E+05  1.699046E+05  5.086336E+04
       155  10  5.179393E+05  1.812732E+05  1.014715E+05  6.196430E+04 -5.657937E-11 -4.941757E-10
       155  11  5.445186E+05  2.344561E+05  7.935700E+04  1.367857E+05 -7.727278E-10 -6.870221E-10
       155  12  5.323496E+05  1.443468E+05  3.928613E+03  2.307890E+05 -8.187823E-10 -2.293854E-09
       155  13 -1.561278E+05 -4.780784E+04 -4.860386E+04 -1.030194E+05 -7.717343E-10 -4.828382E-09
       155  14 -1.454185E+05 -5.106142E+04 -8.787927E+04 -8.354061E+04  4.723211E-10  8.420072E-09
       155  15 -1.780910E+05 -2.022806E+05 -1.987881E+05 -4.486958E+04  2.257686E-09  3.646370E-11
       155  16 -8.297396E+05 -2.768715E+05 -1.987073E+05 -2.678468E+05  1.400844E-09 -1.389510E-09
       155  17 -8.348711E+05 -3.365085E+05 -2.551487E+05 -3.036299E+05  8.408924E-10  2.914097E-09
       155  18 -8.880117E+05 -5.487605E+05 -4.015479E+05 -3.202040E+05  1.364719E-09 -2.959866E-10
       155  19  5.179430E+05  1.812747E+05  1.014788E+05  6.196316E+04 -5.678733E+04  2.490017E+04
       155  20  5.445254E+05  2.344580E+05  7.936905E+04  1.367849E+05 -7.915708E+04  1.235699E+04
       155  21  5.323591E+05  1.443497E+05  3.945866E+03  2.307906E+05 -9.329539E+04 -2.203808E+04
       155  22 -1.561250E+05 -4.780636E+04 -4.859789E+04 -1.030205E+05 -4.902398E+04  2.782416E+04
       155  23 -1.454089E+05 -5.105898E+04 -8.786242E+04 -8.354112E+04 -9.444381E+04  6.608139E+03
       155  24 -1.780720E+05 -2.022745E+05 -1.987530E+05 -4.486572E+04 -1.316244E+05 -3.646604E+04
       155  25 -8.297375E+05 -2.768701E+05 -1.987023E+05 -2.678479E+05 -4.126977E+04  3.074535E+04
       155  26 -8.348581E+05 -3.365053E+05 -2.551261E+05 -3.036299E+05 -1.097119E+05  8.681110E+02
       155  27 -8.879800E+05 -5.487500E+05 -4.014887E+05 -3.201970E+05 -1.699046E+05 -5.086336E+04
       156   1  1.943147E+05  1.920720E+06  2.123307E+05  3.950848E+04  5.613228E+03  1.289873E+05
       156   2  1.060630E+05  2.050540E+06  1.547226E+05  6.371765E+04  2.202439E+04  8.213029E+04
       156   3  1.226164E+05  2.212737E+06  1.537856E+05  1.318248E+05  3.379400E+04  3.526483E+04
       156   4  1.370530E+05  1.687621E+06  1.588315E+05  1.171500E+05  5.632627E+03  1.050966E+05
       156   5  1.525542E+04  1.671995E+06  7.853791E+04  9.518038E+04  2.203392E+04  6.415963E+04
       156   6 -2.741614E+03  1.687696E+06  5.081692E+04  1.171008E+05  3.379925E+04  2.322358E+04
       156   7  7.981027E+04  1.454586E+06  1.053342E+05  1.947622E+05  5.646073E+03  8.121481E+04
       156   8 -7.555715E+04  1.293589E+06  2.347600E+03  1.266236E+05  2.204165E+04  4.619968E+04
       156   9 -1.281153E+05  1.162920E+06 -5.216445E+04  1.023895E+05  3.380507E+04  1.119225E+04
       156  10  1.943103E+05  1.920702E+06  2.122994E+05  3.950790E+04  5.940094E-10  1.034123E-09
       156  11  1.060607E+05  2.050533E+06  1.547091E+05  6.371620E+04 -3.541352E-11  3.232114E-10
       156  12  1.226148E+05  2.212736E+06  1.537812E+05  1.318239E+05  6.012591E-10 -2.083490E-09
       156  13  1.370500E+05  1.687609E+06  1.588108E+05  1.171495E+05  1.349876E-10  4.594934E-10
       156  14  1.525379E+04  1.671990E+06  7.852928E+04  9.517925E+04 -9.288296E-11  3.997700E-10
       156  15 -2.742985E+03  1.687696E+06  5.081376E+04  1.171002E+05 -1.239124E-10  6.585054E-10
       156  16  7.980847E+04  1.454579E+06  1.053218E+05  1.947618E+05  5.273165E-10 -1.241194E-09
       156  17 -7.555824E+04  1.293586E+06  2.342685E+03  1.266228E+05  1.436294E-09  4.624138E-10
       156  18 -1.281165E+05  1.162919E+06 -5.216684E+04  1.023892E+05  3.202136E-10  2.115511E-09
       156  19  1.943147E+05  1.920720E+06  2.123307E+05  3.950848E+04 -5.613228E+03 -1.289873E+05
       156  20  1.060630E+05  2.050540E+06  1.547226E+05  6.371765E+04 -2.202439E+04 -8.213029E+04
       156  21  1.226164E+05  2.212737E+06  1.537856E+05  1.318248E+05 -3.379400E+04 -3.526483E+04
       156  22  1.370530E+05  1.687621E+06  1.588315E+05  1.171500E+05 -5.632627E+03 -1.050966E+05
       156  23  1.525542E+04  1.671995E+06  7.853791E+04  9.518038E+04 -2.203392E+04 -6.415963E+04
       156  24 -2.741614E+03  1.687696E+06  5.081692E+04  1.171008E+05 -3.379925E+04 -2.322358E+04
       156  25  7.981027E+04  1.454586E+06  1.053342E+05  1.947622E+05 -5.646073E+03 -8.121481E+04
       156  26 -7.555715E+04  1.293589E+06  2.347600E+03  1.266236E+05 -2.204165E+04 -4.619968E+04
       156  27 -1.281153E+05  1.162920E+06 -5.216445E+04  1.023895E+05 -3.380507E+04 -1.119225E+04
       157   1  1.547815E+05  2.309657E+06  1.684965E+05  1.137785E+05  3.951873E+04  2.925204E+04
       157   2  1.853356E+05  2.453591E+06  1.921806E+05  9.486046E+04  4.895766E+04  6.541120E+03
       157   3  2.263493E+05  2.603303E+06  2.332717E+05  1.196938E+05  5.610064E+04 -1.617046E+04
       157   4  4.733597E+03  1.681864E+06  4.464262E+04  1.170817E+05  3.952742E+04  1.574568E+04
       157   5  3.029348E+02  1.679200E+06  3.958940E+04  9.520461E+04  4.896888E+04 -4.017005E+03
       157   6  5.830295E+03  1.681789E+06  4.991289E+04  1.170816E+05  5.611319E+04 -2.377520E+04
       157   7 -1.453380E+05  1.054447E+06 -7.922990E+04  1.203815E+05  3.953597E+04  2.252644E+03
       157   8 -1.847659E+05  9.053809E+05 -1.130307E+05  9.554837E+04  4.898010E+04 -1.456228E+04
       157   9 -2.147404E+05  7.610838E+05 -1.334881E+05  1.144734E+05  5.612581E+04 -3.136890E+04
       157  10  1.547796E+05  2.309655E+06  1.684920E+05  1.137776E+05 -1.963923E-10  8.805428E-11
       157  11  1.853330E+05  2.453590E+06  1.921760E+05  9.486020E+04 -1.633981E-09  4.933369E-10
       157  12  2.263459E+05  2.603301E+06  2.332653E+05  1.196946E+05 -1.773580E-11 -2.013407E-09
       157  13  4.731852E+03  1.681863E+06  4.463922E+04  1.170812E+05 -4.193854E-10  8.776377E-10
       157  14  3.003536E+02  1.679199E+06  3.958486E+04  9.520477E+04  6.135280E-10  7.672920E-10
       157  15  5.826759E+03  1.681788E+06  4.990590E+04  1.170827E+05 -8.964479E-10  9.635482E-10
       157  16 -1.453397E+05  1.054447E+06 -7.923285E+04  1.203814E+05 -7.159184E-10 -7.864903E-10
       157  17 -1.847685E+05  9.053800E+05 -1.130356E+05  9.554894E+04 -5.280269E-10  1.191205E-10
       157  18 -2.147441E+05  7.610819E+05 -1.334959E+05  1.144748E+05 -7.649689E-10  7.641093E-10
       157  19  1.547815E+05  2.309657E+06  1.684965E+05  1.137785E+05 -3.951873E+04 -2.925204E+04
       157  20  1.853356E+05  2.453591E+06  1.921806E+05  9.486046E+04 -4.895766E+04 -6.541120E+03
       157  21  2.263493E+05  2.603303E+06  2.332717E+05  1.196938E+05 -5.610064E+04  1.617046E+04
       157  22  4.733597E+03  1.681864E+06  4.464262E+04  1.170817E+05 -3.952742E+04 -1.574568E+04
       157  23  3.029348E+02  1.679200E+06  3.958940E+04  9.520461E+04 -4.896888E+04  4.017005E+03
       157  24  5.830295E+03  1.681789E+06  4.991289E+04  1.170816E+05 -5.611319E+04  2.377520E+04
       157  25 -1.453380E+05  1.054447E+06 -7.922990E+04  1.203815E+05 -3.953597E+04 -2.252644E+03
       157  26 -1.847659E+05  9.053809E+05 -1.130307E+05  9.554837E+04 -4.898010E+04  1.456228E+04
       157  27 -2.147404E+05  7.610838E+05 -1.334881E+05  1.144734E+05 -5.612581E+04  3.136890E+04
       158   1  2.419693E+05  2.715586E+06  2.629591E+05  9.741047E+04  6.267461E+04 -1.699068E+04
       158   2  3.008941E+05  2.840957E+06  3.394971E+05  1.330796E+05  5.758274E+04 -1.103907E+05
       158   3  4.953021E+05  3.012673E+06  5.106101E+05  2.111758E+05  1.821266E+04 -2.038758E+05
       158   4 -3.642601E+03  1.689225E+06  5.890349E+04  1.167385E+05  6.269610E+04 -3.221175E+04
       158   5  1.846430E+04  1.669692E+06  9.504714E+04  9.563522E+04  5.756355E+04 -8.178930E+04
       158   6  1.685968E+05  1.688981E+06  1.954960E+05  1.169470E+05  1.814058E+04 -1.314248E+05
       158   7 -2.493172E+05  6.638679E+05 -1.452035E+05  1.360343E+05  6.271666E+04 -4.740824E+04
       158   8 -2.640470E+05  4.997237E+05 -1.494748E+05  5.826265E+04  5.754091E+04 -5.324063E+04
       158   9 -1.581981E+05  3.669188E+05 -1.197161E+05  2.291958E+04  1.804655E+04 -5.912680E+04
       158  10  2.419650E+05  2.715585E+06  2.629511E+05  9.741132E+04  2.177822E-10  1.622574E-09
       158  11  3.008872E+05  2.840944E+06  3.394681E+05  1.330847E+05  3.624412E-10  1.507872E-09
       158  12  4.952907E+05  3.012629E+06  5.105317E+05  2.111788E+05  1.092314E-09 -1.540104E-09
       158  13 -3.647103E+03  1.689223E+06  5.889415E+04  1.167402E+05 -1.394451E-09  1.169510E-09
       158  14  1.845895E+04  1.669684E+06  9.502837E+04  9.563901E+04 -8.709007E-11  1.574751E-09
       158  15  1.685918E+05  1.688962E+06  1.954630E+05  1.169489E+05  1.644888E-09  2.248714E-09
       158  16 -2.493220E+05  6.638644E+05 -1.452151E+05  1.360367E+05  2.045937E-09 -3.530043E-09
       158  17 -2.640513E+05  4.997198E+05 -1.494863E+05  5.826512E+04  1.736755E-09 -4.793794E-10
       158  18 -1.581994E+05  3.669150E+05 -1.197233E+05  2.292044E+04  6.250417E-10  2.465527E-10
       158  19  2.419693E+05  2.715586E+06  2.629591E+05  9.741047E+04 -6.267461E+04  1.699068E+04
       158  20  3.008941E+05  2.840957E+06  3.394971E+05  1.330796E+05 -5.758274E+04  1.103907E+05
       158  21  4.953021E+05  3.012673E+06  5.106101E+05  2.111758E+05 -1.821266E+04  2.038758E+05
       158  22 -3.642601E+03  1.689225E+06  5.890349E+04  1.167385E+05 -6.269610E+04  3.221175E+04
       158  23  1.846430E+04  1.669692E+06  9.504714E+04  9.563522E+04 -5.756355E+04  8.178930E+04
       158  24  1.685968E+05  1.688981E+06  1.954960E+05  1.169470E+05 -1.814058E+04  1.314248E+05
       158  25 -2.493172E+05  6.638679E+05 -1.452035E+05  1.360343E+05 -6.271666E+04  4.740824E+04
       158  26 -2.640470E+05  4.997237E+05 -1.494748E+05  5.826265E+04 -5.754091E+04  5.324063E+04
       158  27 -1.581981E+05  3.669188E+05 -1.197161E+05  2.291958E+04 -1.804655E+04  5.912680E+04
       159   1 -3.112226E+05 -1.401955E+05 -1.067784E+05 -2.652279E+03  5.909295E+04  1.563390E+04
       159   2 -2.196785E+05 -2.402317E+05 -1.432825E+05 -3.203424E+04  5.220523E+04  4.981071E+04
       159   3 -9.889197E+04 -2.283157E+05 -1.472589E+05 -9.556040E+04  4.535387E+04  5.416907E+04
       159   4  8.261324E+05  1.415428E+05  1.660179E+05 -7.718044E+04  1.145952E+05  1.569004E+04
       159   5  8.086865E+05  9.409705E+03  7.717257E+04 -6.004413E+04  7.402941E+04  4.982201E+04
       159   6  8.262552E+05 -5.036973E+03  4.418111E+04 -7.704378E+04  3.350313E+04  5.415679E+04
       159   7  1.964690E+06  4.232100E+05  4.387373E+05 -1.518460E+05  1.701987E+05  1.573281E+04
       159   8  1.838049E+06  2.589852E+05  2.975683E+05 -8.810126E+04  9.588916E+04  4.983133E+04
       159   9  1.752214E+06  2.181889E+05  2.355754E+05 -5.849918E+04  2.163501E+04  5.414383E+04
       159  10 -3.112264E+05 -1.401967E+05 -1.067855E+05 -2.653023E+03  4.774924E-10 -2.882457E-11
       159  11 -2.196821E+05 -2.402351E+05 -1.432923E+05 -3.203633E+04 -1.123253E-09 -1.037043E-10
       159  12 -9.889497E+04 -2.283194E+05 -1.472683E+05 -9.556238E+04 -6.558709E-10  6.155499E-11
       159  13  8.261182E+05  1.415390E+05  1.659928E+05 -7.718189E+04 -5.836981E-10 -9.149012E-13
       159  14  8.086800E+05  9.405569E+03  7.715762E+04 -6.004710E+04 -3.806380E-10  7.200485E-11
       159  15  8.262532E+05 -5.040425E+03  4.417349E+04 -7.704524E+04 -3.047147E-10  7.671265E-11
       159  16  1.964659E+06  4.232019E+05  4.386825E+05 -1.518481E+05  5.672041E-10  2.735655E-11
       159  17  1.838038E+06  2.589801E+05  2.975464E+05 -8.810511E+04  4.473974E-11  1.361983E-10
       159  18  1.752213E+06  2.181857E+05  2.355690E+05 -5.850012E+04  2.894504E-12  9.791359E-11
       159  19 -3.112226E+05 -1.401955E+05 -1.067784E+05 -2.652279E+03 -5.909295E+04 -1.563390E+04
       159  20 -2.196785E+05 -2.402317E+05 -1.432825E+05 -3.203424E+04 -5.220523E+04 -4.981071E+04
       159  21 -9.889197E+04 -2.283157E+05 -1.472589E+05 -9.556040E+04 -4.535387E+04 -5.416907E+04
       159  22  8.261324E+05  1.415428E+05  1.660179E+05 -7.718044E+04 -1.145952E+05 -1.569004E+04
       159  23  8.086865E+05  9.409705E+03  7.717257E+04 -6.004413E+04 -7.402941E+04 -4.982201E+04
       159  24  8.262552E+05 -5.036973E+03  4.418111E+04 -7.704378E+04 -3.350313E+04 -5.415679E+04
       159  25  1.964690E+06  4.232100E+05  4.387373E+05 -1.518460E+05 -1.701987E+05 -1.573281E+04
       159  26  1.838049E+06  2.589852E+05  2.975683E+05 -8.810126E+04 -9.588916E+04 -4.983133E+04
       159  27  1.752214E+06  2.181889E+05  2.355754E+05 -5.849918E+04 -2.163501E+04 -5.414383E+04
       160   1 -2.763199E+04 -1.987373E+05 -1.411580E+05 -7.573233E+04  3.179053E+04  4.877449E+04
       160   2  7.620425E+04 -1.788752E+05 -1.338744E+05 -5.953343E+04  2.402361E+04  4.414818E+04
       160   3  1.825030E+05 -1.539166E+05 -1.202192E+05 -7.861480E+04  1.625156E+04  3.800068E+04
       160   4  8.191053E+05  5.696555E+03  3.462757E+04 -7.733008E+04  2.745963E+04  4.876718E+04
       160   5  8.177589E+05 -5.717312E+01  1.900835E+04 -5.969058E+04  1.796482E+04  4.414229E+04
       160   6  8.191598E+05 -4.184960E+02  1.095266E+04 -7.732851E+04  8.466172E+03  3.799707E+04
       160   7  1.666521E+06  2.100849E+05  2.103741E+05 -7.893008E+04  2.312289E+04  4.875990E+04
       160   8  1.559835E+06  1.787261E+05  1.718616E+05 -5.984793E+04  1.189891E+04  4.413641E+04
       160   9  1.456201E+06  1.530541E+05  1.421029E+05 -7.604088E+04  6.729433E+02  3.799342E+04
       160  10 -2.763372E+04 -1.987401E+05 -1.411644E+05 -7.573358E+04 -1.682288E-10  2.884707E-10
       160  11  7.620310E+04 -1.788774E+05 -1.338791E+05 -5.953429E+04  9.037413E-10  3.619772E-10
       160  12  1.825023E+05 -1.539182E+05 -1.202224E+05 -7.861529E+04 -2.800706E-10  7.380920E-11
       160  13  8.191039E+05  5.693798E+03  3.462169E+04 -7.733116E+04 -5.739527E-10  5.822461E-11
       160  14  8.177580E+05 -5.935289E+01  1.900408E+04 -5.969122E+04 -5.372958E-10 -2.051542E-11
       160  15  8.191593E+05 -4.200662E+02  1.094981E+04 -7.732877E+04 -3.771299E-10  1.054198E-10
       160  16  1.666520E+06  2.100822E+05  2.103686E+05 -7.893099E+04  3.484288E-11 -6.081858E-11
       160  17  1.559834E+06  1.787240E+05  1.718577E+05 -5.984835E+04 -9.654382E-10 -3.678232E-10
       160  18  1.456201E+06  1.530525E+05  1.421002E+05 -7.604090E+04  4.783049E-10  1.026963E-11
       160  19 -2.763199E+04 -1.987373E+05 -1.411580E+05 -7.573233E+04 -3.179053E+04 -4.877449E+04
       160  20  7.620425E+04 -1.788752E+05 -1.338744E+05 -5.953343E+04 -2.402361E+04 -4.414818E+04
       160  21  1.825030E+05 -1.539166E+05 -1.202192E+05 -7.861480E+04 -1.625156E+04 -3.800068E+04
       160  22  8.191053E+05  5.696555E+03  3.462757E+04 -7.733008E+04 -2.745963E+04 -4.876718E+04
       160  23  8.177589E+05 -5.717312E+01  1.900835E+04 -5.969058E+04 -1.796482E+04 -4.414229E+04
       160  24  8.191598E+05 -4.184960E+02  1.095266E+04 -7.732851E+04 -8.466172E+03 -3.799707E+04
       160  25  1.666521E+06  2.100849E+05  2.103741E+05 -7.893008E+04 -2.312289E+04 -4.875990E+04
       160  26  1.559835E+06  1.787261E+05  1.718616E+05 -5.984793E+04 -1.189891E+04 -4.413641E+04
       160  27  1.456201E+06  1.530541E+05  1.421029E+05 -7.604088E+04 -6.729433E+02 -3.799342E+04
       161   1  2.591221E+05 -1.347412E+05 -1.064488E+05 -7.760490E+04  1.414887E+04  3.402267E+04
       161   2  3.634690E+05 -1.097634E+05 -8.871338E+04 -5.991131E+04  1.185014E+04  2.743584E+04
       161   3  4.682362E+05 -8.453402E+04 -6.940745E+04 -7.739608E+04  9.547891E+03  2.077851E+04
       161   4  8.186631E+05  6.550867E+01  8.368462E+03 -7.730667E+04  6.760222E+03  3.402040E+04
       161   5  8.184660E+05 -1.173928E+02  4.812659E+03 -5.971832E+04  4.379457E+03  2.743520E+04
       161   6  8.186939E+05 -3.393563E+01  2.883543E+03 -7.730679E+04  1.995554E+03  2.077957E+04
       161   7  1.378501E+06  1.348526E+05  1.231693E+05 -7.700815E+04 -6.349676E+02  3.401812E+04
       161   8  1.273659E+06  1.095156E+05  9.832783E+04 -5.952517E+04 -3.096600E+03  2.743456E+04
       161   9  1.169268E+06  8.445843E+04  7.516813E+04 -7.721744E+04 -5.560968E+03  2.078063E+04
       161  10  2.591216E+05 -1.347425E+05 -1.064514E+05 -7.760529E+04 -7.431287E-12 -1.733033E-10
       161  11  3.634686E+05 -1.097642E+05 -8.871506E+04 -5.991157E+04 -2.857514E-10 -1.641702E-10
       161  12  4.682360E+05 -8.453451E+04 -6.940844E+04 -7.739624E+04 -1.248397E-09  2.034564E-10
       161  13  8.186628E+05  6.425308E+01  8.366201E+03 -7.730686E+04  6.789631E-12  6.013485E-11
       161  14  8.184658E+05 -1.182065E+02  4.811208E+03 -5.971842E+04  2.603430E-10 -2.404213E-11
       161  15  8.186938E+05 -3.440055E+01  2.882724E+03 -7.730683E+04 -6.301108E-11  2.202368E-10
       161  16  1.378501E+06  1.348513E+05  1.231671E+05 -7.700813E+04  2.265043E-10  2.084468E-10
       161  17  1.273659E+06  1.095148E+05  9.832640E+04 -5.952511E+04 -6.432140E-10  1.486875E-11
       161  18  1.169268E+06  8.445795E+04  7.516726E+04 -7.721735E+04  9.552406E-10  2.062781E-10
       161  19  2.591221E+05 -1.347412E+05 -1.064488E+05 -7.760490E+04 -1.414887E+04 -3.402267E+04
       161  20  3.634690E+05 -1.097634E+05 -8.871338E+04 -5.991131E+04 -1.185014E+04 -2.743584E+04
       161  21  4.682362E+05 -8.453402E+04 -6.940745E+04 -7.739608E+04 -9.547891E+03 -2.077851E+04
       161  22  8.186631E+05  6.550867E+01  8.368462E+03 -7.730667E+04 -6.760222E+03 -3.402040E+04
       161  23  8.184660E+05 -1.173928E+02  4.812659E+03 -5.971832E+04 -4.379457E+03 -2.743520E+04
       161  24  8.186939E+05 -3.393563E+01  2.883543E+03 -7.730679E+04 -1.995554E+03 -2.077957E+04
       161  25  1.378501E+06  1.348526E+05  1.231693E+05 -7.700815E+04  6.349676E+02 -3.401812E+04
       161  26  1.273659E+06  1.095156E+05  9.832783E+04 -5.952517E+04  3.096600E+03 -2.743456E+04
       161  27  1.169268E+06  8.445843E+04  7.516813E+04 -7.721744E+04  5.560968E+03 -2.078063E+04
       162   1  5.449798E+05 -6.588937E+04 -5.367812E+04 -7.733177E+04  9.053973E+03  1.688745E+04
       162   2  6.492312E+05 -4.080852E+04 -3.323740E+04 -5.975069E+04  8.283231E+03  1.021867E+04
       162   3  7.535913E+05 -1.569634E+04 -1.229078E+04 -7.726501E+04  7.511163E+03  3.549202E+03
       162   4  8.186311E+05 -9.019547E+00  2.279014E+03 -7.728857E+04  1.526995E+03  1.688920E+04
       162   5  8.185883E+05 -5.187610E+00  1.560665E+03 -5.974116E+04  7.545495E+02  1.022103E+04
       162   6  8.186423E+05  3.039414E+01  1.348907E+03 -7.728858E+04 -1.909683E+01  3.552199E+03
       162   7  1.092354E+06  6.586667E+04  5.823240E+04 -7.724534E+04 -6.003237E+03  1.689096E+04
       162   8  9.879727E+05  4.079637E+04  3.635741E+04 -5.973162E+04 -6.776147E+03  1.022339E+04
       162   9  8.836974E+05  1.575689E+04  1.498857E+04 -7.731215E+04 -7.550132E+03  3.555196E+03
       162  10  5.449797E+05 -6.588970E+04 -5.367881E+04 -7.733189E+04 -2.181174E-10  1.331713E-10
       162  11  6.492311E+05 -4.080865E+04 -3.323773E+04 -5.975076E+04  4.218102E-10 -4.613886E-10
       162  12  7.535912E+05 -1.569637E+04 -1.229091E+04 -7.726503E+04  2.952644E-10 -4.142200E-10
       162  13  8.186310E+05 -9.326598E+00  2.278474E+03 -7.728859E+04 -4.764352E-10  8.381140E-11
       162  14  8.185883E+05 -5.299989E+00  1.560468E+03 -5.974116E+04  4.632699E-10 -2.854109E-10
       162  15  8.186423E+05  3.038059E+01  1.348883E+03 -7.728858E+04 -1.926011E-10 -6.422077E-10
       162  16  1.092353E+06  6.586636E+04  5.823179E+04 -7.724526E+04 -3.228270E-10  1.250562E-10
       162  17  9.879726E+05  4.079625E+04  3.635713E+04 -5.973157E+04 -3.929124E-10 -3.643188E-10
       162  18  8.836973E+05  1.575686E+04  1.498844E+04 -7.731213E+04 -8.342002E-10 -9.195180E-10
       162  19  5.449798E+05 -6.588937E+04 -5.367812E+04 -7.733177E+04 -9.053973E+03 -1.688745E+04
       162  20  6.492312E+05 -4.080852E+04 -3.323740E+04 -5.975069E+04 -8.283231E+03 -1.021867E+04
       162  21  7.535913E+05 -1.569634E+04 -1.229078E+04 -7.726501E+04 -7.511163E+03 -3.549202E+03
       162  22  8.186311E+05 -9.019547E+00  2.279014E+03 -7.728857E+04 -1.526995E+03 -1.688920E+04
       162  23  8.185883E+05 -5.187610E+00  1.560665E+03 -5.974116E+04 -7.545495E+02 -1.022103E+04
       162  24  8.186423E+05  3.039414E+01  1.348907E+03 -7.728858E+04  1.909683E+01 -3.552199E+03
       162  25  1.092354E+06  6.586667E+04  5.823240E+04 -7.724534E+04  6.003237E+03 -1.689096E+04
       162  26  9.879727E+05  4.079637E+04  3.635741E+04 -5.973162E+04  6.776147E+03 -1.022339E+04
       162  27  8.836974E+05  1.575689E+04  1.498857E+04 -7.731215E+04  7.550132E+03 -3.555196E+03
       163   1  8.303109E+05  2.896234E+03  4.070797E+03 -7.727718E+04  7.259329E+03 -3.322679E+02
       163   2  9.345525E+05  2.792921E+04  2.565684E+04 -5.969750E+04  6.349870E+03 -6.999735E+03
       163   3  1.038915E+06  5.299844E+04  4.783768E+04 -7.720365E+04  5.441077E+03 -1.366570E+04
       163   4  8.186462E+05  3.110367E+01  1.399051E+03 -7.728667E+04 -2.707935E+02 -3.292122E+02
       163   5  8.185870E+05 -5.666905E+00  1.832880E+03 -5.974355E+04 -1.179002E+03 -6.997124E+03
       163   6  8.186383E+05 -5.792781E+00  2.860906E+03 -7.728665E+04 -2.086396E+03 -1.366350E+04
       163   7  8.069816E+05 -2.834006E+03 -1.272491E+03 -7.729615E+04 -7.800776E+03 -3.261561E+02
       163   8  7.026344E+05 -2.794136E+04 -2.199158E+04 -5.978958E+04 -8.706493E+03 -6.994511E+03
       163   9  5.984077E+05 -5.301303E+04 -4.211821E+04 -7.736961E+04 -9.611251E+03 -1.366130E+04
       163  10  8.303109E+05  2.896220E+03  4.070697E+03 -7.727718E+04 -3.219363E-09 -1.936797E-10
       163  11  9.345525E+05  2.792914E+04  2.565667E+04 -5.969747E+04  7.553731E-09  1.113121E-10
       163  12  1.038915E+06  5.299823E+04  4.783727E+04 -7.720359E+04  1.751328E-08  1.111214E-09
       163  13  8.186462E+05  3.110354E+01  1.399051E+03 -7.728667E+04 -7.364895E-11 -4.779472E-10
       163  14  8.185870E+05 -5.719873E+00  1.832785E+03 -5.974355E+04  4.692614E-10  1.371270E-10
       163  15  8.186383E+05 -5.994504E+00  2.860547E+03 -7.728667E+04 -4.938861E-11  8.712079E-10
       163  16  8.069816E+05 -2.834022E+03 -1.272605E+03 -7.729615E+04  3.457493E-09 -8.667781E-10
       163  17  7.026343E+05 -2.794143E+04 -2.199182E+04 -5.978963E+04 -8.825908E-09  5.445957E-11
       163  18  5.984075E+05 -5.301325E+04 -4.211874E+04 -7.736972E+04 -1.635816E-08  6.464945E-10
       163  19  8.303109E+05  2.896234E+03  4.070797E+03 -7.727718E+04 -7.259329E+03  3.322679E+02
       163  20  9.345525E+05  2.792921E+04  2.565684E+04 -5.969750E+04 -6.349870E+03  6.999735E+03
       163  21  1.038915E+06  5.299844E+04  4.783768E+04 -7.720365E+04 -5.441077E+03  1.366570E+04
       163  22  8.186462E+05  3.110367E+01  1.399051E+03 -7.728667E+04  2.707935E+02  3.292122E+02
       163  23  8.185870E+05 -5.666905E+00  1.832880E+03 -5.974355E+04  1.179002E+03  6.997124E+03
       163  24  8.186383E+05 -5.792781E+00  2.860906E+03 -7.728665E+04  2.086396E+03  1.366350E+04
       163  25  8.069816E+05 -2.834006E+03 -1.272491E+03 -7.729615E+04  7.800776E+03  3.261561E+02
       163  26  7.026344E+05 -2.794136E+04 -2.199158E+04 -5.978958E+04  8.706493E+03  6.994511E+03
       163  27  5.984077E+05 -5.301303E+04 -4.211821E+04 -7.736961E+04  9.611251E+03  1.366130E+04
       164   1  1.115811E+06  7.157795E+04  6.498010E+04 -7.716293E+04  4.871947E+03 -1.755352E+04
       164   2  1.220081E+06  9.661060E+04  8.876214E+04 -5.947493E+04  1.700282E+03 -2.420477E+04
       164   3  1.324896E+06  1.220035E+05  1.147016E+05 -7.694538E+04 -1.469057E+03 -3.078833E+04
       164   4  8.187214E+05 -3.463027E+01  3.679344E+03 -7.730302E+04 -2.679790E+03 -1.755188E+04
       164   5  8.184464E+05 -1.262504E+02  6.245671E+03 -5.972301E+04 -5.773673E+03 -2.420465E+04
       164   6  8.186938E+05  1.302233E+02  1.091727E+04 -7.730284E+04 -8.864715E+03 -3.078965E+04
       164   7  5.217159E+05 -7.165275E+04 -5.762596E+04 -7.744303E+04 -1.022798E+04 -1.755025E+04
       164   8  4.169646E+05 -9.687322E+04 -7.627921E+04 -5.997091E+04 -1.324289E+04 -2.420452E+04
       164   9  3.127348E+05 -1.217591E+05 -9.288048E+04 -7.766000E+04 -1.625446E+04 -3.079097E+04
       164  10  1.115810E+06  7.157761E+04  6.497947E+04 -7.716286E+04 -1.670434E-08  1.117426E-09
       164  11  1.220081E+06  9.660997E+04  8.876103E+04 -5.947489E+04 -8.148351E-09  3.254771E-10
       164  12  1.324895E+06  1.220025E+05  1.146998E+05 -7.694541E+04  3.774650E-09 -3.885345E-10
       164  13  8.187213E+05 -3.496314E+01  3.678751E+03 -7.730306E+04  9.732566E-11  8.965796E-10
       164  14  8.184462E+05 -1.268887E+02  6.244507E+03 -5.972312E+04  1.690138E-09  2.812422E-10
       164  15  8.186934E+05  1.291838E+02  1.091534E+04 -7.730306E+04  4.913632E-10 -2.196003E-10
       164  16  5.217157E+05 -7.165311E+04 -5.762673E+04 -7.744317E+04  1.708843E-08  7.165629E-10
       164  17  4.169643E+05 -9.687389E+04 -7.628064E+04 -5.997117E+04  6.748703E-09  3.106223E-10
       164  18  3.127342E+05 -1.217602E+05 -9.288276E+04 -7.766040E+04 -3.406609E-09 -6.612299E-11
       164  19  1.115811E+06  7.157795E+04  6.498010E+04 -7.716293E+04 -4.871947E+03  1.755352E+04
       164  20  1.220081E+06  9.661060E+04  8.876214E+04 -5.947493E+04 -1.700282E+03  2.420477E+04
       164  21  1.324896E+06  1.220035E+05  1.147016E+05 -7.694538E+04  1.469057E+03  3.078833E+04
       164  22  8.187214E+05 -3.463027E+01  3.679344E+03 -7.730302E+04  2.679790E+03  1.755188E+04
       164  23  8.184464E+05 -1.262504E+02  6.245671E+03 -5.972301E+04  5.773673E+03  2.420465E+04
       164  24  8.186938E+05  1.302233E+02  1.091727E+04 -7.730284E+04  8.864715E+03  3.078965E+04
       164  25  5.217159E+05 -7.165275E+04 -5.762596E+04 -7.744303E+04  1.022798E+04  1.755025E+04
       164  26  4.169646E+05 -9.687322E+04 -7.627921E+04 -5.997091E+04  1.324289E+04  2.420452E+04
       164  27  3.127348E+05 -1.217591E+05 -9.288048E+04 -7.766000E+04  1.625446E+04  3.079097E+04
       165   1  1.402675E+06  1.400462E+05  1.344251E+05 -7.569106E+04 -3.317821E+03 -3.475678E+04
       165   2  1.505810E+06  1.658229E+05  1.666428E+05 -6.003059E+04 -1.739113E+04 -4.091923E+04
       165   3  1.612754E+06  1.989369E+05  2.098721E+05 -7.960556E+04 -3.146337E+04 -4.563257E+04
       165   4  8.193418E+05 -4.968901E+02  1.430298E+04 -7.731960E+04 -1.109225E+04 -3.475931E+04
       165   5  8.175565E+05 -1.174235E+00  2.485923E+04 -5.970153E+04 -2.351580E+04 -4.092399E+04
       165   6  8.192891E+05  7.551461E+03  4.529162E+04 -7.732092E+04 -3.593594E+04 -4.563885E+04
       165   7  2.363306E+05 -1.410613E+05 -1.058372E+05 -7.894658E+04 -1.885951E+04 -3.476180E+04
       165   8  1.297520E+05 -1.658551E+05 -1.169497E+05 -5.937283E+04 -2.963381E+04 -4.092876E+04
       165   9  2.641915E+04 -1.838739E+05 -1.193231E+05 -7.503926E+04 -4.040289E+04 -4.564517E+04
       165  10  1.402675E+06  1.400449E+05  1.344228E+05 -7.569115E+04 -1.559598E-10 -5.375195E-10
       165  11  1.505809E+06  1.658210E+05  1.666391E+05 -6.003116E+04 -6.607486E-10 -1.690597E-10
       165  12  1.612752E+06  1.989344E+05  2.098663E+05 -7.960671E+04 -6.886361E-10  5.370137E-10
       165  13  8.193414E+05 -4.982211E+02  1.430047E+04 -7.731992E+04  1.012433E-09 -3.816056E-10
       165  14  8.175555E+05 -3.121652E+00  2.485504E+04 -5.970230E+04  3.492389E-10 -1.330503E-10
       165  15  8.192871E+05  7.548877E+03  4.528528E+04 -7.732224E+04  1.132179E-09  9.786071E-11
       165  16  2.363299E+05 -1.410627E+05 -1.058402E+05 -7.894711E+04  9.956445E-11 -1.254285E-10
       165  17  1.297506E+05 -1.658571E+05 -1.169545E+05 -5.937381E+04 -1.294206E-09 -2.713249E-10
       165  18  2.641684E+04 -1.838765E+05 -1.193301E+05 -7.504075E+04  6.334801E-10 -1.027559E-10
       165  19  1.402675E+06  1.400462E+05  1.344251E+05 -7.569106E+04  3.317821E+03  3.475678E+04
       165  20  1.505810E+06  1.658229E+05  1.666428E+05 -6.003059E+04  1.739113E+04  4.091923E+04
       165  21  1.612754E+06  1.989369E+05  2.098721E+05 -7.960556E+04  3.146337E+04  4.563257E+04
       165  22  8.193418E+05 -4.968901E+02  1.430298E+04 -7.731960E+04  1.109225E+04  3.475931E+04
       165  23  8.175565E+05 -1.174235E+00  2.485923E+04 -5.970153E+04  2.351580E+04  4.092399E+04
       165  24  8.192891E+05  7.551461E+03  4.529162E+04 -7.732092E+04  3.593594E+04  4.563885E+04
       165  25  2.363306E+05 -1.410613E+05 -1.058372E+05 -7.894658E+04  1.885951E+04  3.476180E+04
       165  26  1.297520E+05 -1.658551E+05 -1.169497E+05 -5.937283E+04  2.963381E+04  4.092876E+04
       165  27  2.641915E+04 -1.838739E+05 -1.193231E+05 -7.503926E+04  4.040289E+04  4.564517E+04
       166   1  1.700488E+06  2.037227E+05  2.380328E+05 -5.304312E+04 -3.219095E+04 -5.094555E+04
       166   2  1.780963E+06  2.489003E+05  3.098357E+05 -9.709095E+04 -1.173851E+05 -4.713658E+04
       166   3  1.912609E+06  4.534320E+05  4.769032E+05 -1.753184E+05 -2.026319E+05 -1.492149E+04
       166   4  8.286369E+05 -6.475479E+03  5.778885E+04 -7.704659E+04 -4.384194E+04 -5.095572E+04
       166   5  8.057413E+05  1.244213E+04  1.009688E+05 -6.003928E+04 -9.686427E+04 -4.713318E+04
       166   6  8.285008E+05  1.852602E+05  2.171809E+05 -7.720049E+04 -1.499204E+05 -1.490113E+04
       166   7 -4.249339E+04 -2.167195E+05 -1.224955E+05 -1.010159E+05 -5.547685E+04 -5.096499E+04
       166   8 -1.685845E+05 -2.240727E+05 -1.079511E+05 -2.304663E+04 -7.637506E+04 -4.712735E+04
       166   9 -2.545063E+05 -8.295894E+04 -4.260878E+04  2.074567E+04 -9.730013E+04 -1.486415E+04
       166  10  1.700486E+06  2.037196E+05  2.380260E+05 -5.304444E+04  5.566192E-11  6.286841E-10
       166  11  1.780948E+06  2.488943E+05  3.098057E+05 -9.709541E+04 -8.743760E-10 -2.702228E-10
       166  12  1.912564E+06  4.534207E+05  4.768258E+05 -1.753209E+05 -2.502051E-10 -9.582409E-11
       166  13  8.286342E+05 -6.478784E+03  5.778036E+04 -7.704839E+04  5.385094E-10  2.965487E-10
       166  14  8.057307E+05  1.243723E+04  1.009470E+05 -6.004296E+04  6.245623E-10  3.048394E-11
       166  15  8.284766E+05  1.852539E+05  2.171383E+05 -7.720229E+04  3.820734E-10  1.509762E-11
       166  16 -4.249739E+04 -2.167231E+05 -1.225062E+05 -1.010182E+05  1.800341E-10  9.410826E-11
       166  17 -1.685914E+05 -2.240767E+05 -1.079663E+05 -2.304953E+04 -2.366434E-10  8.922647E-10
       166  18 -2.545165E+05 -8.296172E+04 -4.262699E+04  2.074450E+04  1.532691E-10  2.479862E-10
       166  19  1.700488E+06  2.037227E+05  2.380328E+05 -5.304312E+04  3.219095E+04  5.094555E+04
       166  20  1.780963E+06  2.489003E+05  3.098357E+05 -9.709095E+04  1.173851E+05  4.713658E+04
       166  21  1.912609E+06  4.534320E+05  4.769032E+05 -1.753184E+05  2.026319E+05  1.492149E+04
       166  22  8.286369E+05 -6.475479E+03  5.778885E+04 -7.704659E+04  4.384194E+04  5.095572E+04
       166  23  8.057413E+05  1.244213E+04  1.009688E+05 -6.003928E+04  9.686427E+04  4.713318E+04
       166  24  8.285008E+05  1.852602E+05  2.171809E+05 -7.720049E+04  1.499204E+05  1.490113E+04
       166  25 -4.249339E+04 -2.167195E+05 -1.224955E+05 -1.010159E+05  5.547685E+04  5.096499E+04
       166  26 -1.685845E+05 -2.240727E+05 -1.079511E+05 -2.304663E+04  7.637506E+04  4.712735E+04
       166  27 -2.545063E+05 -8.295894E+04 -4.260878E+04  2.074567E+04  9.730013E+04  1.486415E+04
       167   1  1.643492E+05  7.749575E+05  1.707010E+05 -1.450817E+05  4.406455E+03  5.909430E+04
       167   2  7.292622E+04  6.112169E+05  9.218099E+04 -1.010480E+05  1.182743E+04  2.903001E+04
       167   3  2.952303E+04  4.632346E+05  4.518885E+04 -1.087199E+05  6.691093E+03 -1.045511E+03
       167   4  5.503477E+04  3.352325E+05  6.412710E+04 -1.153820E+05  4.434297E+03  4.366811E+04
       167   5  4.009500E+03  3.286060E+05  3.028030E+04 -8.957580E+04  1.183041E+04  2.779077E+04
       167   6 -1.442121E+03  3.352683E+05  1.813015E+04 -1.154722E+05  6.668381E+03  1.189463E+04
       167   7 -5.429047E+04 -1.043138E+05 -4.245943E+04 -8.570325E+04  4.460675E+03  2.825279E+04
       167   8 -6.491207E+04  4.607002E+04 -3.162515E+04 -7.810888E+04  1.183335E+04  2.655209E+04
       167   9 -3.240807E+04  2.073179E+05 -8.928826E+03 -1.222231E+05  6.645385E+03  2.483215E+04
       167  10  1.643483E+05  7.749538E+05  1.706944E+05 -1.450819E+05  5.443700E-10  4.539185E-10
       167  11  7.292584E+04  6.112159E+05  9.217915E+04 -1.010482E+05 -2.737752E-10 -3.734721E-11
       167  12  2.952299E+04  4.632346E+05  4.518877E+04 -1.087199E+05 -7.074261E-10 -9.108931E-10
       167  13  5.503424E+04  3.352304E+05  6.412348E+04 -1.153821E+05  1.109279E-09 -6.652621E-11
       167  14  4.009143E+03  3.286051E+05  3.027859E+04 -8.957607E+04 -5.345781E-10  4.919924E-11
       167  15 -1.442207E+03  3.352681E+05  1.812980E+04 -1.154722E+05 -2.739109E-10 -1.795804E-11
       167  16 -5.429071E+04 -1.043146E+05 -4.246097E+04 -8.570335E+04  6.269214E-12 -4.551433E-10
       167  17 -6.491241E+04  4.606923E+04 -3.162674E+04 -7.810914E+04  9.602829E-10  1.469375E-10
       167  18 -3.240828E+04  2.073172E+05 -8.930068E+03 -1.222232E+05  5.990824E-11  9.572695E-10
       167  19  1.643492E+05  7.749575E+05  1.707010E+05 -1.450817E+05 -4.406455E+03 -5.909430E+04
       167  20  7.292622E+04  6.112169E+05  9.218099E+04 -1.010480E+05 -1.182743E+04 -2.903001E+04
       167  21  2.952303E+04  4.632346E+05  4.518885E+04 -1.087199E+05 -6.691093E+03  1.045511E+03
       167  22  5.503477E+04  3.352325E+05  6.412710E+04 -1.153820E+05 -4.434297E+03 -4.366811E+04
       167  23  4.009500E+03  3.286060E+05  3.028030E+04 -8.957580E+04 -1.183041E+04 -2.779077E+04
       167  24 -1.442121E+03  3.352683E+05  1.813015E+04 -1.154722E+05 -6.668381E+03 -1.189463E+04
       167  25 -5.429047E+04 -1.043138E+05 -4.245943E+04 -8.570325E+04 -4.460675E+03 -2.825279E+04
       167  26 -6.491207E+04  4.607002E+04 -3.162515E+04 -7.810888E+04 -1.183335E+04 -2.655209E+04
       167  27 -3.240807E+04  2.073179E+05 -8.928826E+03 -1.222231E+05 -6.645385E+03 -2.483215E+04
       168   1  5.813702E+03  3.454736E+05  1.789747E+04 -1.165341E+05  2.224649E+02 -6.946526E+02
       168   2 -3.411314E+04  1.891345E+05 -1.948009E+04 -8.933119E+04 -8.462577E+03 -5.285345E+03
       168   3 -7.107206E+04  3.396294E+04 -5.317901E+04 -1.144544E+05 -1.677528E+04 -9.873004E+03
       168   4  2.621939E+03  3.325880E+05  1.483916E+04 -1.155895E+05  2.046749E+02  9.324984E+03
       168   5  3.418427E+02  3.319724E+05  9.997582E+03 -8.942827E+04 -8.478894E+03  4.312981E+03
       168   6  1.104059E+03  3.325748E+05  9.128071E+03 -1.155921E+05 -1.679023E+04 -6.970924E+02
       168   7 -5.697797E+02  3.197027E+05  1.178122E+04 -1.146450E+05  1.869152E+02  1.934441E+04
       168   8  3.479559E+04  4.748299E+05  3.947449E+04 -8.952537E+04 -8.495212E+03  1.391348E+04
       168   9  7.327453E+04  6.312711E+05  7.143055E+04 -1.167304E+05 -1.680520E+04  8.483159E+03
       168  10  5.813702E+03  3.454736E+05  1.789747E+04 -1.165341E+05 -1.409662E-09  4.297815E-10
       168  11 -3.411322E+04  1.891345E+05 -1.948027E+04 -8.933122E+04 -6.146837E-10  7.174342E-11
       168  12 -7.107238E+04  3.396276E+04 -5.317972E+04 -1.144545E+05 -2.684766E-10 -1.673916E-10
       168  13  2.621915E+03  3.325879E+05  1.483900E+04 -1.155895E+05 -5.076033E-10  6.235240E-11
       168  14  3.417606E+02  3.319724E+05  9.997412E+03 -8.942824E+04  2.794332E-10  9.851469E-11
       168  15  1.103756E+03  3.325747E+05  9.127540E+03 -1.155921E+05 -1.481401E-10  6.672051E-11
       168  16 -5.698801E+02  3.197023E+05  1.178051E+04 -1.146450E+05 -3.400476E-10 -2.843309E-10
       168  17  3.479546E+04  4.748297E+05  3.947400E+04 -8.952528E+04 -1.617928E-09 -2.648905E-11
       168  18  7.327421E+04  6.312710E+05  7.142988E+04 -1.167303E+05  2.121927E-10  2.615064E-10
       168  19  5.813702E+03  3.454736E+05  1.789747E+04 -1.165341E+05 -2.224649E+02  6.946526E+02
       168  20 -3.411314E+04  1.891345E+05 -1.948009E+04 -8.933119E+04  8.462577E+03  5.285345E+03
       168  21 -7.107206E+04  3.396294E+04 -5.317901E+04 -1.144544E+05  1.677528E+04  9.873004E+03
       168  22  2.621939E+03  3.325880E+05  1.483916E+04 -1.155895E+05 -2.046749E+02 -9.324984E+03
       168  23  3.418427E+02  3.319724E+05  9.997582E+03 -8.942827E+04  8.478894E+03 -4.312981E+03
       168  24  1.104059E+03  3.325748E+05  9.128071E+03 -1.155921E+05  1.679023E+04  6.970924E+02
       168  25 -5.697797E+02  3.197027E+05  1.178122E+04 -1.146450E+05 -1.869152E+02 -1.934441E+04
       168  26  3.479559E+04  4.748299E+05  3.947449E+04 -8.952537E+04  8.495212E+03 -1.391348E+04
       168  27  7.327453E+04  6.312711E+05  7.143055E+04 -1.167304E+05  1.680520E+04 -8.483159E+03
       169   1 -1.003060E+05 -8.043653E+04 -7.663122E+04 -1.174553E+05 -2.357393E+04 -1.623796E+04
       169   2 -1.365478E+05 -2.371127E+05 -1.099976E+05 -8.469661E+04 -2.610834E+04 -5.365207E+02
       169   3 -1.589113E+05 -3.924266E+05 -1.501390E+05 -1.033229E+05 -8.792670E+03  1.518472E+04
       169   4 -3.235630E+02  3.334473E+05  9.492440E+03 -1.153885E+05 -2.359580E+04 -2.217173E+03
       169   5  1.610573E+03  3.308087E+05  1.280726E+04 -8.968307E+04 -2.609428E+04 -8.902803E+03
       169   6  2.130281E+04  3.333897E+05  2.488991E+04 -1.153581E+05 -8.751223E+03 -1.556441E+04
       169   7  9.964807E+04  7.474937E+05  9.560744E+04 -1.133203E+05 -2.361757E+04  1.181281E+04
       169   8  1.397478E+05  8.990331E+05  1.355933E+05 -9.467403E+04 -2.608009E+04 -1.727663E+04
       169   9  2.014795E+05  1.059690E+06  1.998848E+05 -1.274073E+05 -8.708612E+03 -4.634938E+04
       169  10 -1.003066E+05 -8.043696E+04 -7.663276E+04 -1.174556E+05 -9.048688E-11  2.571549E-10
       169  11 -1.365486E+05 -2.371129E+05 -1.099989E+05 -8.469662E+04  1.099567E-09  4.855901E-11
       169  12 -1.589115E+05 -3.924269E+05 -1.501396E+05 -1.033228E+05  1.752940E-10 -3.993044E-10
       169  13 -3.241623E+02  3.334471E+05  9.491384E+03 -1.153886E+05  1.007383E-09  1.693666E-11
       169  14  1.609821E+03  3.308084E+05  1.280583E+04 -8.968326E+04  3.072376E-10 -8.797402E-11
       169  15  2.130267E+04  3.333895E+05  2.488931E+04 -1.153582E+05  2.799697E-10 -1.457517E-11
       169  16  9.964744E+04  7.474934E+05  9.560613E+04 -1.133201E+05 -6.333505E-11 -1.126137E-10
       169  17  1.397470E+05  8.990326E+05  1.355915E+05 -9.467439E+04  4.147393E-10 -1.276460E-10
       169  18  2.014788E+05  1.059688E+06  1.998806E+05 -1.274076E+05  5.025150E-10  3.694158E-10
       169  19 -1.003060E+05 -8.043653E+04 -7.663122E+04 -1.174553E+05  2.357393E+04  1.623796E+04
       169  20 -1.365478E+05 -2.371127E+05 -1.099976E+05 -8.469661E+04  2.610834E+04  5.365207E+02
       169  21 -1.589113E+05 -3.924266E+05 -1.501390E+05 -1.033229E+05  8.792670E+03 -1.518472E+04
       169  22 -3.235630E+02  3.334473E+05  9.492440E+03 -1.153885E+05  2.359580E+04  2.217173E+03
       169  23  1.610573E+03  3.308087E+05  1.280726E+04 -8.968307E+04  2.609428E+04  8.902803E+03
       169  24  2.130281E+04  3.333897E+05  2.488991E+04 -1.153581E+05  8.751223E+03  1.556441E+04
       169  25  9.964807E+04  7.474937E+05  9.560744E+04 -1.133203E+05  2.361757E+04 -1.181281E+04
       169  26  1.397478E+05  8.990331E+05  1.355933E+05 -9.467403E+04  2.608009E+04  1.727663E+04
       169  27  2.014795E+05  1.059690E+06  1.998848E+05 -1.274073E+05  8.708612E+03  4.634938E+04
       170   1 -1.479495E+06 -6.255957E+05 -3.909362E+05 -5.503586E+05 -1.670730E+05 -5.052357E+04
       170   2 -1.422197E+06 -4.112931E+05 -2.446774E+05 -5.316100E+05 -1.073921E+05 -9.716118E+02
       170   3 -1.411310E+06 -3.506271E+05 -1.874445E+05 -4.952353E+05 -3.985777E+04  2.775713E+04
       170   4 -8.093321E+05 -2.943385E+05 -1.985516E+05 -2.862712E+05 -1.311664E+05 -3.703435E+04
       170   5 -7.773599E+05 -1.425468E+05 -8.775326E+04 -3.240941E+05 -9.339535E+04  4.284742E+03
       170   6 -7.873933E+05 -1.399665E+05 -4.853368E+04 -3.443110E+05 -4.778063E+04  2.477607E+04
       170   7 -1.387187E+05  3.704961E+04 -6.205349E+03 -2.189481E+04 -9.521754E+04 -2.351773E+04
       170   8 -1.321054E+05  1.262601E+05  6.914034E+04 -1.163705E+05 -7.938285E+04  9.548707E+03
       170   9 -1.630836E+05  7.070860E+04  9.035387E+04 -1.932542E+05 -5.571218E+04  2.179240E+04
       170  10 -1.479526E+06 -6.256060E+05 -3.909936E+05 -5.503654E+05 -8.470158E-10 -1.219828E-11
       170  11 -1.422210E+06 -4.112962E+05 -2.446991E+05 -5.316101E+05 -1.727650E-11  3.520192E-10
       170  12 -1.411312E+06 -3.506284E+05 -1.874489E+05 -4.952344E+05  7.956668E-10  8.683538E-11
       170  13 -8.093510E+05 -2.943446E+05 -1.985866E+05 -2.862751E+05  8.491005E-10  9.843305E-11
       170  14 -7.773693E+05 -1.425492E+05 -8.776970E+04 -3.240937E+05 -9.487808E-10  2.706299E-10
       170  15 -7.873959E+05 -1.399677E+05 -4.853913E+04 -3.443101E+05  2.815081E-10 -2.113014E-10
       170  16 -1.387286E+05  3.704659E+04 -6.223430E+03 -2.189661E+04  4.591997E-10  2.806092E-10
       170  17 -1.321122E+05  1.262583E+05  6.912832E+04 -1.163699E+05  1.049702E-09  8.357033E-11
       170  18 -1.630870E+05  7.070726E+04  9.034714E+04 -1.932532E+05 -2.896118E-10 -5.231609E-10
       170  19 -1.479495E+06 -6.255957E+05 -3.909362E+05 -5.503586E+05  1.670730E+05  5.052357E+04
       170  20 -1.422197E+06 -4.112931E+05 -2.446774E+05 -5.316100E+05  1.073921E+05  9.716118E+02
       170  21 -1.411310E+06 -3.506271E+05 -1.874445E+05 -4.952353E+05  3.985777E+04 -2.775713E+04
       170  22 -8.093321E+05 -2.943385E+05 -1.985516E+05 -2.862712E+05  1.311664E+05  3.703435E+04
       170  23 -7.773599E+05 -1.425468E+05 -8.775326E+04 -3.240941E+05  9.339535E+04 -4.284742E+03
       170  24 -7.873933E+05 -1.399665E+05 -4.853368E+04 -3.443110E+05  4.778063E+04 -2.477607E+04
       170  25 -1.387187E+05  3.704961E+04 -6.205349E+03 -2.189481E+04  9.521754E+04  2.351773E+04
       170  26 -1.321054E+05  1.262601E+05  6.914034E+04 -1.163705E+05  7.938285E+04 -9.548707E+03
       170  27 -1.630836E+05  7.070860E+04  9.035387E+04 -1.932542E+05  5.571218E+04 -2.179240E+04
       171   1 -1.343040E+06 -3.621843E+05 -1.671605E+05 -4.941529E+05 -3.822513E+04  2.421699E+04
       171   2 -1.290343E+06 -3.240107E+05 -1.346906E+05 -4.693591E+05 -2.616616E+04  2.573898E+04
       171   3 -1.226047E+06 -3.081971E+05 -1.122759E+05 -4.609619E+05 -1.372994E+04  2.625406E+04
       171   4 -7.810798E+05 -1.516413E+05 -3.794202E+04 -3.368523E+05 -4.049222E+04  2.336186E+04
       171   5 -7.864710E+05 -1.370177E+05 -1.983643E+04 -3.299816E+05 -2.948565E+04  2.448954E+04
       171   6 -7.800533E+05 -1.445408E+05 -1.094399E+04 -3.395086E+05 -1.810306E+04  2.461026E+04
       171   7 -2.188057E+05  5.892619E+04  9.125432E+04 -1.794215E+05 -4.276151E+04  2.250588E+04
       171   8 -2.823435E+05  4.999499E+04  9.500105E+04 -1.905003E+05 -3.280807E+04  2.323899E+04
       171   9 -3.338572E+05  1.913074E+04  9.037576E+04 -2.179751E+05 -2.247961E+04  2.296518E+04
       171  10 -1.343042E+06 -3.621854E+05 -1.671643E+05 -4.941522E+05 -6.395959E-10 -3.901875E-10
       171  11 -1.290344E+06 -3.240116E+05 -1.346931E+05 -4.693585E+05  1.681066E-10  1.606897E-10
       171  12 -1.226047E+06 -3.081979E+05 -1.122776E+05 -4.609616E+05 -4.286737E-10  1.037534E-10
       171  13 -7.810818E+05 -1.516423E+05 -3.794613E+04 -3.368515E+05 -4.274895E-10 -2.288142E-10
       171  14 -7.864721E+05 -1.370185E+05 -1.983919E+04 -3.299810E+05 -1.156625E-09  1.239336E-10
       171  15 -7.800538E+05 -1.445415E+05 -1.094575E+04 -3.395083E+05 -2.775199E-10  2.024745E-10
       171  16 -2.188078E+05  5.892516E+04  9.124993E+04 -1.794207E+05  7.785782E-10 -8.361281E-11
       171  17 -2.823448E+05  4.999412E+04  9.499801E+04 -1.904997E+05 -2.519279E-10  1.179287E-10
       171  18 -3.338579E+05  1.913004E+04  9.037382E+04 -2.179746E+05 -1.625094E-10  3.549665E-10
       171  19 -1.343040E+06 -3.621843E+05 -1.671605E+05 -4.941529E+05  3.822513E+04 -2.421699E+04
       171  20 -1.290343E+06 -3.240107E+05 -1.346906E+05 -4.693591E+05  2.616616E+04 -2.573898E+04
       171  21 -1.226047E+06 -3.081971E+05 -1.122759E+05 -4.609619E+05  1.372994E+04 -2.625406E+04
       171  22 -7.810798E+05 -1.516413E+05 -3.794202E+04 -3.368523E+05  4.049222E+04 -2.336186E+04
       171  23 -7.864710E+05 -1.370177E+05 -1.983643E+04 -3.299816E+05  2.948565E+04 -2.448954E+04
       171  24 -7.800533E+05 -1.445408E+05 -1.094399E+04 -3.395086E+05  1.810306E+04 -2.461026E+04
       171  25 -2.188057E+05  5.892619E+04  9.125432E+04 -1.794215E+05  4.276151E+04 -2.250588E+04
       171  26 -2.823435E+05  4.999499E+04  9.500105E+04 -1.905003E+05  3.280807E+04 -2.323899E+04
       171  27 -3.338572E+05  1.913074E+04  9.037576E+04 -2.179751E+05  2.247961E+04 -2.296518E+04
       172   1 -1.179494E+06 -2.927424E+05 -9.897953E+04 -4.490641E+05 -1.155442E+04  2.435467E+04
       172   2 -1.127253E+06 -2.625063E+05 -8.178374E+04 -4.236838E+05 -7.759181E+03  2.129953E+04
       172   3 -1.059764E+06 -2.482659E+05 -6.639445E+04 -4.162035E+05 -3.944407E+03  1.818779E+04
       172   4 -7.795466E+05 -1.450733E+05 -8.277753E+03 -3.391240E+05 -1.566740E+04  2.280923E+04
       172   5 -7.871464E+05 -1.369367E+05 -4.533963E+03 -3.302248E+05 -1.193027E+04  1.973321E+04
       172   6 -7.794912E+05 -1.447835E+05 -2.549598E+03 -3.392263E+05 -8.173872E+03  1.660052E+04
       172   7 -3.794385E+05  2.607696E+03  8.241365E+04 -2.291190E+05 -1.978326E+04  2.126272E+04
       172   8 -4.469251E+05 -1.135898E+04  7.270802E+04 -2.367193E+05 -1.610383E+04  1.816597E+04
       172   9 -4.991413E+05 -4.129596E+04  6.128968E+04 -2.622177E+05 -1.240538E+04  1.501250E+04
       172  10 -1.179494E+06 -2.927430E+05 -9.898090E+04 -4.490639E+05 -9.838123E-12 -1.690316E-11
       172  11 -1.127253E+06 -2.625068E+05 -8.178470E+04 -4.236836E+05 -4.409576E-10 -3.163038E-11
       172  12 -1.059764E+06 -2.482663E+05 -6.639510E+04 -4.162035E+05  1.841078E-10  2.539589E-10
       172  13 -7.795470E+05 -1.450740E+05 -8.279192E+03 -3.391237E+05 -1.984895E-10  1.288613E-10
       172  14 -7.871467E+05 -1.369372E+05 -4.534962E+03 -3.302246E+05  8.562022E-10  1.035092E-10
       172  15 -7.794914E+05 -1.447838E+05 -2.550241E+03 -3.392262E+05 -1.057206E-10  1.132483E-11
       172  16 -3.794390E+05  2.607105E+03  8.241206E+04 -2.291187E+05 -7.335183E-10  4.090075E-10
       172  17 -4.469255E+05 -1.135940E+04  7.270691E+04 -2.367191E+05  7.318963E-10  1.821947E-10
       172  18 -4.991415E+05 -4.129625E+04  6.128896E+04 -2.622175E+05  1.468677E-10 -1.261152E-10
       172  19 -1.179494E+06 -2.927424E+05 -9.897953E+04 -4.490641E+05  1.155442E+04 -2.435467E+04
       172  20 -1.127253E+06 -2.625063E+05 -8.178374E+04 -4.236838E+05  7.759181E+03 -2.129953E+04
       172  21 -1.059764E+06 -2.482659E+05 -6.639445E+04 -4.162035E+05  3.944407E+03 -1.818779E+04
       172  22 -7.795466E+05 -1.450733E+05 -8.277753E+03 -3.391240E+05  1.566740E+04 -2.280923E+04
       172  23 -7.871464E+05 -1.369367E+05 -4.533963E+03 -3.302248E+05  1.193027E+04 -1.973321E+04
       172  24 -7.794912E+05 -1.447835E+05 -2.549598E+03 -3.392263E+05  8.173872E+03 -1.660052E+04
       172  25 -3.794385E+05  2.607696E+03  8.241365E+04 -2.291190E+05  1.978326E+04 -2.126272E+04
       172  26 -4.469251E+05 -1.135898E+04  7.270802E+04 -2.367193E+05  1.610383E+04 -1.816597E+04
       172  27 -4.991413E+05 -4.129596E+04  6.128968E+04 -2.622177E+05  1.240538E+04 -1.501250E+04
       173   1 -1.014127E+06 -2.314412E+05 -5.506525E+04 -4.037405E+05 -2.701863E+03  1.599115E+04
       173   2 -9.617839E+05 -2.013988E+05 -4.085158E+04 -3.782022E+05 -5.889708E+02  1.221256E+04
       173   3 -8.938102E+05 -1.870867E+05 -2.709380E+04 -3.706693E+05  1.525530E+03  8.427188E+03
       173   4 -7.794161E+05 -1.448114E+05 -1.959640E+03 -3.392162E+05 -6.925020E+03  1.440669E+04
       173   5 -7.872244E+05 -1.369383E+05 -1.210436E+03 -3.302144E+05 -4.819140E+03  1.062594E+04
       173   6 -7.794062E+05 -1.447946E+05 -9.118497E+02 -3.392193E+05 -2.711724E+03  6.838400E+03
       173   7 -5.446480E+05 -5.817694E+04  5.114289E+04 -2.746692E+05 -1.114994E+04  1.282157E+04
       173   8 -6.126336E+05 -7.247532E+04  3.842895E+04 -2.822140E+05 -9.050613E+03  9.038832E+03
       173   9 -6.649891E+05 -1.025015E+05  2.526931E+04 -3.077640E+05 -6.949826E+03  5.249295E+03
       173  10 -1.014127E+06 -2.314415E+05 -5.506575E+04 -4.037405E+05 -1.728135E-10  2.646679E-10
       173  11 -9.617839E+05 -2.013990E+05 -4.085186E+04 -3.782022E+05 -1.521545E-10  1.067044E-10
       173  12 -8.938102E+05 -1.870868E+05 -2.709394E+04 -3.706693E+05  6.932674E-10  7.320055E-11
       173  13 -7.794162E+05 -1.448117E+05 -1.960120E+03 -3.392162E+05  1.215440E-10  2.199032E-11
       173  14 -7.872244E+05 -1.369384E+05 -1.210691E+03 -3.302143E+05  4.608628E-10  1.069278E-10
       173  15 -7.794063E+05 -1.447946E+05 -9.119513E+02 -3.392193E+05 -2.265147E-10  2.987896E-11
       173  16 -5.446482E+05 -5.817715E+04  5.114234E+04 -2.746691E+05  3.045244E-11 -1.094966E-10
       173  17 -6.126337E+05 -7.247543E+04  3.842864E+04 -2.822139E+05  7.436375E-10  4.913707E-11
       173  18 -6.649891E+05 -1.025015E+05  2.526917E+04 -3.077640E+05 -1.646003E-10 -3.278638E-11
       173  19 -1.014127E+06 -2.314412E+05 -5.506525E+04 -4.037405E+05  2.701863E+03 -1.599115E+04
       173  20 -9.617839E+05 -2.013988E+05 -4.085158E+04 -3.782022E+05  5.889708E+02 -1.221256E+04
       173  21 -8.938102E+05 -1.870867E+05 -2.709380E+04 -3.706693E+05 -1.525530E+03 -8.427188E+03
       173  22 -7.794161E+05 -1.448114E+05 -1.959640E+03 -3.392162E+05  6.925020E+03 -1.440669E+04
       173  23 -7.872244E+05 -1.369383E+05 -1.210436E+03 -3.302144E+05  4.819140E+03 -1.062594E+04
       173  24 -7.794062E+05 -1.447946E+05 -9.118497E+02 -3.392193E+05  2.711724E+03 -6.838400E+03
       173  25 -5.446480E+05 -5.817694E+04  5.114289E+04 -2.746692E+05  1.114994E+04 -1.282157E+04
       173  26 -6.126336E+05 -7.247532E+04  3.842895E+04 -2.822140E+05  9.050613E+03 -9.038832E+03
       173  27 -6.649891E+05 -1.025015E+05  2.526931E+04 -3.077640E+05  6.949826E+03 -5.249295E+03
       174   1 -8.481269E+05 -1.701574E+05 -1.629991E+04 -3.581487E+05  2.554839E+03  6.145541E+03
       174   2 -7.956794E+05 -1.400775E+05 -3.013079E+03 -3.325668E+05  4.601853E+03  2.329945E+03
       174   3 -7.275799E+05 -1.257491E+05  9.867023E+03 -3.250231E+05  6.648313E+03 -1.484293E+03
       174   4 -7.793995E+05 -1.447991E+05 -8.908533E+02 -3.392260E+05 -1.684844E+03  4.556003E+03
       174   5 -7.872232E+05 -1.369212E+05 -1.087804E+03 -3.302068E+05  3.634055E+02  7.408945E+02
       174   6 -7.793988E+05 -1.447954E+05 -1.692408E+03 -3.392273E+05  2.411048E+03 -3.072875E+03
       174   7 -7.106677E+05 -1.194405E+05  1.451787E+04 -3.203015E+05 -5.925010E+03  2.966285E+03
       174   8 -7.787669E+05 -1.337649E+05  8.375440E+02 -3.278468E+05 -3.875104E+03 -8.481804E+02
       174   9 -8.312152E+05 -1.638416E+05 -1.325202E+04 -3.534305E+05 -1.825860E+03 -4.661325E+03
       174  10 -8.481269E+05 -1.701575E+05 -1.629999E+04 -3.581487E+05 -3.021552E-10 -5.463222E-11
       174  11 -7.956794E+05 -1.400775E+05 -3.013129E+03 -3.325668E+05 -2.297787E-10  4.312876E-10
       174  12 -7.275800E+05 -1.257491E+05  9.866936E+03 -3.250231E+05  1.484360E-09  5.456120E-10
       174  13 -7.793995E+05 -1.447991E+05 -8.908976E+02 -3.392260E+05  7.542414E-10  3.187732E-11
       174  14 -7.872232E+05 -1.369212E+05 -1.087805E+03 -3.302068E+05  2.794642E-10  3.415994E-10
       174  15 -7.793988E+05 -1.447954E+05 -1.692436E+03 -3.392273E+05  2.220948E-09  9.997427E-10
       174  16 -7.106677E+05 -1.194405E+05  1.451778E+04 -3.203014E+05 -5.023754E-10 -5.257814E-11
       174  17 -7.787669E+05 -1.337649E+05  8.375144E+02 -3.278468E+05  7.347192E-10  2.743542E-10
       174  18 -8.312153E+05 -1.638417E+05 -1.325206E+04 -3.534305E+05  3.220640E-09  1.468909E-09
       174  19 -8.481269E+05 -1.701574E+05 -1.629991E+04 -3.581487E+05 -2.554839E+03 -6.145541E+03
       174  20 -7.956794E+05 -1.400775E+05 -3.013079E+03 -3.325668E+05 -4.601853E+03 -2.329945E+03
       174  21 -7.275799E+05 -1.257491E+05  9.867023E+03 -3.250231E+05 -6.648313E+03  1.484293E+03
       174  22 -7.793995E+05 -1.447991E+05 -8.908533E+02 -3.392260E+05  1.684844E+03 -4.556003E+03
       174  23 -7.872232E+05 -1.369212E+05 -1.087804E+03 -3.302068E+05 -3.634055E+02 -7.408945E+02
       174  24 -7.793988E+05 -1.447954E+05 -1.692408E+03 -3.392273E+05 -2.411048E+03  3.072875E+03
       174  25 -7.106677E+05 -1.194405E+05  1.451787E+04 -3.203015E+05  5.925010E+03 -2.966285E+03
       174  26 -7.787669E+05 -1.337649E+05  8.375440E+02 -3.278468E+05  3.875104E+03  8.481804E+02
       174  27 -8.312152E+05 -1.638416E+05 -1.325202E+04 -3.534305E+05  1.825860E+03  4.661325E+03
       175   1 -6.819119E+05 -1.088285E+05  2.014837E+04 -3.125479E+05  7.854980E+03 -3.701939E+03
       175   2 -6.294245E+05 -7.875678E+04  3.195718E+04 -2.869505E+05  1.123393E+04 -7.000889E+03
       175   3 -5.615699E+05 -6.468809E+04  4.229789E+04 -2.793589E+05  1.459883E+04 -1.025969E+04
       175   4 -7.794551E+05 -1.447801E+05 -2.183808E+03 -3.392483E+05  3.609673E+03 -5.293669E+03
       175   5 -7.871528E+05 -1.368888E+05 -3.845450E+03 -3.302031E+05  7.030110E+03 -8.577504E+03
       175   6 -7.794949E+05 -1.450095E+05 -7.008241E+03 -3.391656E+05  1.043629E+04 -1.182124E+04
       175   7 -8.769887E+05 -1.807309E+05 -2.451654E+04 -3.659448E+05 -6.349086E+02 -6.885128E+03
       175   8 -9.448556E+05 -1.950188E+05 -3.964949E+04 -3.734456E+05  2.827462E+03 -1.015368E+04
       175   9 -9.973708E+05 -2.253268E+05 -5.631700E+04 -3.989528E+05  6.275356E+03 -1.338219E+04
       175  10 -6.819120E+05 -1.088286E+05  2.014823E+04 -3.125479E+05  3.996451E-09  1.038924E-09
       175  11 -6.294246E+05 -7.875686E+04  3.195685E+04 -2.869504E+05  1.046096E-09 -1.930188E-10
       175  12 -5.615702E+05 -6.468826E+04  4.229729E+04 -2.793587E+05 -9.214572E-10 -3.606673E-10
       175  13 -7.794551E+05 -1.447801E+05 -2.183885E+03 -3.392482E+05  2.350965E-09  7.789348E-10
       175  14 -7.871529E+05 -1.368889E+05 -3.845681E+03 -3.302031E+05  8.677014E-10 -1.344925E-10
       175  15 -7.794951E+05 -1.450097E+05 -7.008708E+03 -3.391655E+05  1.759904E-10 -9.566970E-11
       175  16 -8.769887E+05 -1.807309E+05 -2.451663E+04 -3.659448E+05  7.759186E-10  5.198241E-10
       175  17 -9.448556E+05 -1.950189E+05 -3.964969E+04 -3.734456E+05 -6.479989E-10 -2.246238E-10
       175  18 -9.973709E+05 -2.253270E+05 -5.631741E+04 -3.989527E+05 -2.265263E-10  1.618483E-10
       175  19 -6.819119E+05 -1.088285E+05  2.014837E+04 -3.125479E+05 -7.854980E+03  3.701939E+03
       175  20 -6.294245E+05 -7.875678E+04  3.195718E+04 -2.869505E+05 -1.123393E+04  7.000889E+03
       175  21 -5.615699E+05 -6.468809E+04  4.229789E+04 -2.793589E+05 -1.459883E+04  1.025969E+04
       175  22 -7.794551E+05 -1.447801E+05 -2.183808E+03 -3.392483E+05 -3.609673E+03  5.293669E+03
       175  23 -7.871528E+05 -1.368888E+05 -3.845450E+03 -3.302031E+05 -7.030110E+03  8.577504E+03
       175  24 -7.794949E+05 -1.450095E+05 -7.008241E+03 -3.391656E+05 -1.043629E+04  1.182124E+04
       175  25 -8.769887E+05 -1.807309E+05 -2.451654E+04 -3.659448E+05  6.349086E+02  6.885128E+03
       175  26 -9.448556E+05 -1.950188E+05 -3.964949E+04 -3.734456E+05 -2.827462E+03  1.015368E+04
       175  27 -9.973708E+05 -2.253268E+05 -5.631700E+04 -3.989528E+05 -6.275356E+03  1.338219E+04
       176   1 -5.157186E+05 -4.803006E+04  5.075627E+04 -2.679607E+05  1.699761E+04 -1.207528E+04
       176   2 -4.636889E+05 -1.712511E+04  5.682128E+04 -2.406418E+05  2.607277E+04 -1.294841E+04
       176   3 -3.990333E+05 -7.313806E+03  5.572265E+04 -2.301006E+05  3.486356E+04 -1.305693E+04
       176   4 -7.799155E+05 -1.445647E+05 -9.261598E+03 -3.394989E+05  1.263475E+04 -1.371235E+04
       176   5 -7.865771E+05 -1.369338E+05 -1.677383E+04 -3.299881E+05  2.251173E+04 -1.428559E+04
       176   6 -7.807782E+05 -1.505596E+05 -3.208902E+04 -3.372578E+05  3.210346E+04 -1.409434E+04
       176   7 -1.044044E+06 -2.410951E+05 -6.928441E+04 -4.110099E+05  8.273885E+03 -1.534870E+04
       176   8 -1.109362E+06 -2.567349E+05 -9.037605E+04 -4.192921E+05  1.895269E+04 -1.562202E+04
       176   9 -1.162377E+06 -2.937934E+05 -1.199105E+05 -4.443544E+05  2.934521E+04 -1.513103E+04
       176  10 -5.157190E+05 -4.803029E+04  5.075546E+04 -2.679605E+05  1.423805E-10  1.937237E-10
       176  11 -4.636897E+05 -1.712548E+04  5.681969E+04 -2.406415E+05 -6.815324E-10  1.634493E-10
       176  12 -3.990347E+05 -7.314315E+03  5.572005E+04 -2.301002E+05  5.509566E-12 -4.555177E-11
       176  13 -7.799157E+05 -1.445649E+05 -9.262251E+03 -3.394988E+05  3.812200E-10  8.810995E-11
       176  14 -7.865777E+05 -1.369342E+05 -1.677517E+04 -3.299878E+05 -1.493012E-10 -2.661776E-11
       176  15 -7.807794E+05 -1.505601E+05 -3.209133E+04 -3.372574E+05  2.938615E-10  9.296333E-11
       176  16 -1.044044E+06 -2.410954E+05 -6.928498E+04 -4.110098E+05  2.807746E-10  2.016847E-11
       176  17 -1.109362E+06 -2.567353E+05 -9.037718E+04 -4.192918E+05  7.262476E-10  1.916408E-11
       176  18 -1.162378E+06 -2.937938E+05 -1.199125E+05 -4.443540E+05 -3.303856E-10  1.696460E-10
       176  19 -5.157186E+05 -4.803006E+04  5.075627E+04 -2.679607E+05 -1.699761E+04  1.207528E+04
       176  20 -4.636889E+05 -1.712511E+04  5.682128E+04 -2.406418E+05 -2.607277E+04  1.294841E+04
       176  21 -3.990333E+05 -7.313806E+03  5.572265E+04 -2.301006E+05 -3.486356E+04  1.305693E+04
       176  22 -7.799155E+05 -1.445647E+05 -9.261598E+03 -3.394989E+05 -1.263475E+04  1.371235E+04
       176  23 -7.865771E+05 -1.369338E+05 -1.677383E+04 -3.299881E+05 -2.251173E+04  1.428559E+04
       176  24 -7.807782E+05 -1.505596E+05 -3.208902E+04 -3.372578E+05 -3.210346E+04  1.409434E+04
       176  25 -1.044044E+06 -2.410951E+05 -6.928441E+04 -4.110099E+05 -8.273885E+03  1.534870E+04
       176  26 -1.109362E+06 -2.567349E+05 -9.037605E+04 -4.192921E+05 -1.895269E+04  1.562202E+04
       176  27 -1.162377E+06 -2.937934E+05 -1.199105E+05 -4.443544E+05 -2.934521E+04  1.513103E+04
       177   1 -3.445780E+05  5.361678E+03  5.677277E+04 -2.398515E+05  4.543720E+04 -1.290189E+04
       177   2 -3.096643E+05  5.715578E+04  4.061710E+04 -1.705822E+05  6.777145E+04 -3.094034E+03
       177   3 -3.043422E+05 -1.653337E+04 -2.281341E+04 -8.948234E+04  8.415197E+04  2.256684E+04
       177   4 -7.861041E+05 -1.406986E+05 -4.104680E+04 -3.435836E+05  3.836658E+04 -1.555677E+04
       177   5 -7.788825E+05 -1.415780E+05 -7.420844E+04 -3.249862E+05  7.740794E+04  5.205663E+02
       177   6 -8.046069E+05 -2.713172E+05 -1.679215E+05 -2.945525E+05  1.104909E+05  3.245239E+04
       177   7 -1.227432E+06 -2.867525E+05 -1.388774E+05 -4.472517E+05  3.130146E+04 -1.821007E+04
       177   8 -1.247878E+06 -3.402762E+05 -1.890499E+05 -4.792767E+05  8.703649E+04  4.131223E+03
       177   9 -1.304617E+06 -5.260171E+05 -3.130506E+05 -4.994529E+05  1.368067E+05  4.232214E+04
       177  10 -3.445803E+05  5.360945E+03  5.676857E+04 -2.398510E+05  1.535552E-12  9.719881E-11
       177  11 -3.096693E+05  5.715453E+04  4.060845E+04 -1.705820E+05 -2.520981E-10  2.813580E-10
       177  12 -3.043499E+05 -1.653582E+04 -2.282768E+04 -8.948387E+04  2.369838E-10  1.595355E-10
       177  13 -7.861058E+05 -1.406992E+05 -4.105003E+04 -3.435831E+05  2.622334E-10  9.000530E-11
       177  14 -7.788890E+05 -1.415796E+05 -7.421971E+04 -3.249862E+05 -9.186521E-10 -1.381785E-10
       177  15 -8.046203E+05 -2.713216E+05 -1.679465E+05 -2.945554E+05  1.209185E-09 -1.427425E-10
       177  16 -1.227433E+06 -2.867531E+05 -1.388798E+05 -4.472513E+05  2.326096E-10  1.950410E-10
       177  17 -1.247887E+06 -3.402783E+05 -1.890642E+05 -4.792770E+05  7.550920E-10  1.176971E-10
       177  18 -1.304638E+06 -5.260240E+05 -3.130892E+05 -4.994576E+05 -1.770126E-10 -4.290248E-11
       177  19 -3.445780E+05  5.361678E+03  5.677277E+04 -2.398515E+05 -4.543720E+04  1.290189E+04
       177  20 -3.096643E+05  5.715578E+04  4.061710E+04 -1.705822E+05 -6.777145E+04  3.094034E+03
       177  21 -3.043422E+05 -1.653337E+04 -2.281341E+04 -8.948234E+04 -8.415197E+04 -2.256684E+04
       177  22 -7.861041E+05 -1.406986E+05 -4.104680E+04 -3.435836E+05 -3.836658E+04  1.555677E+04
       177  23 -7.788825E+05 -1.415780E+05 -7.420844E+04 -3.249862E+05 -7.740794E+04 -5.205663E+02
       177  24 -8.046069E+05 -2.713172E+05 -1.679215E+05 -2.945525E+05 -1.104909E+05 -3.245239E+04
       177  25 -1.227432E+06 -2.867525E+05 -1.388774E+05 -4.472517E+05 -3.130146E+04  1.821007E+04
       177  26 -1.247878E+06 -3.402762E+05 -1.890499E+05 -4.792767E+05 -8.703649E+04 -4.131223E+03
       177  27 -1.304617E+06 -5.260171E+05 -3.130506E+05 -4.994529E+05 -1.368067E+05 -4.232214E+04
       178   1 -5.897259E+05 -1.546630E+05 -1.178260E+05 -3.363217E+03  6.509561E+04  1.722372E+04
       178   2 -4.885490E+05 -2.648215E+05 -1.579716E+05 -3.570045E+04  5.753897E+04  5.488946E+04
       178   3 -3.551255E+05 -2.515597E+05 -1.622734E+05 -1.057524E+05  5.001715E+04  5.967301E+04
       178   4  6.639575E+05  1.560019E+05  1.829557E+05 -8.564172E+04  1.262702E+05  1.727402E+04
       178   5  6.447183E+05  1.036937E+04  8.503772E+04 -6.672923E+04  8.158045E+04  5.489614E+04
       178   6  6.640874E+05 -5.530395E+03  4.868372E+04 -8.552299E+04  3.693056E+04  5.966192E+04
       178   7  1.919103E+06  4.665804E+05  4.836438E+05 -1.680874E+05  1.875677E+05  1.730808E+04
       178   8  1.779197E+06  2.854802E+05  3.279749E+05 -9.781564E+04  1.056651E+05  5.490041E+04
       178   9  1.684286E+06  2.404347E+05  2.595853E+05 -6.525985E+04  2.382282E+04  5.964998E+04
       178  10 -5.897306E+05 -1.546645E+05 -1.178345E+05 -3.364120E+03  9.278763E-10  1.949745E-10
       178  11 -4.885534E+05 -2.648256E+05 -1.579835E+05 -3.570300E+04  1.549075E-10 -4.544976E-10
       178  12 -3.551292E+05 -2.515641E+05 -1.622848E+05 -1.057548E+05  7.720128E-10 -3.644848E-10
       178  13  6.639403E+05  1.559973E+05  1.829252E+05 -8.564347E+04 -6.098423E-10 -1.945620E-10
       178  14  6.447103E+05  1.036435E+04  8.501956E+04 -6.673284E+04  1.117612E-10 -3.787337E-11
       178  15  6.640850E+05 -5.534584E+03  4.867447E+04 -8.552477E+04 -7.846833E-10 -4.082873E-10
       178  16  1.919065E+06  4.665707E+05  4.835773E+05 -1.680900E+05 -6.654260E-10  4.213032E-10
       178  17  1.779184E+06  2.854739E+05  3.279483E+05 -9.782031E+04 -2.296157E-09 -2.853641E-10
       178  18  1.684284E+06  2.404307E+05  2.595776E+05 -6.526100E+04 -1.378508E-10 -5.489373E-10
       178  19 -5.897259E+05 -1.546630E+05 -1.178260E+05 -3.363217E+03 -6.509561E+04 -1.722372E+04
       178  20 -4.885490E+05 -2.648215E+05 -1.579716E+05 -3.570045E+04 -5.753897E+04 -5.488946E+04
       178  21 -3.551255E+05 -2.515597E+05 -1.622734E+05 -1.057524E+05 -5.001715E+04 -5.967301E+04
       178  22  6.639575E+05  1.560019E+05  1.829557E+05 -8.564172E+04 -1.262702E+05 -1.727402E+04
       178  23  6.447183E+05  1.036937E+04  8.503772E+04 -6.672923E+04 -8.158045E+04 -5.489614E+04
       178  24  6.640874E+05 -5.530395E+03  4.868372E+04 -8.552299E+04 -3.693056E+04 -5.966192E+04
       178  25  1.919103E+06  4.665804E+05  4.836438E+05 -1.680874E+05 -1.875677E+05 -1.730808E+04
       178  26  1.779197E+06  2.854802E+05  3.279749E+05 -9.781564E+04 -1.056651E+05 -5.490041E+04
       178  27  1.684286E+06  2.404347E+05  2.595853E+05 -6.525985E+04 -2.382282E+04 -5.964998E+04
       179   1 -2.762720E+05 -2.188864E+05 -1.554797E+05 -8.392183E+04  3.507160E+04  5.371345E+04
       179   2 -1.613461E+05 -1.968743E+05 -1.473466E+05 -6.599128E+04  2.652127E+04  4.858613E+04
       179   3 -4.370837E+04 -1.692231E+05 -1.321921E+05 -8.711970E+04  1.796406E+04  4.177873E+04
       179   4  6.562074E+05  6.303334E+03  3.815449E+04 -8.585098E+04  3.027012E+04  5.370597E+04
       179   5  6.547279E+05 -4.130875E+01  2.093952E+04 -6.632328E+04  1.981062E+04  4.858094E+04
       179   6  6.562716E+05 -4.205465E+02  1.206210E+04 -8.585107E+04  9.345789E+03  4.177687E+04
       179   7  1.589510E+06  2.314378E+05  2.317412E+05 -8.778308E+04  2.546153E+04  5.369852E+04
       179   8  1.471433E+06  1.967497E+05  1.891900E+05 -6.665569E+04  1.309129E+04  4.857576E+04
       179   9  1.356716E+06  1.683512E+05  1.562902E+05 -8.458093E+04  7.179647E+02  4.177498E+04
       179  10 -2.762741E+05 -2.188898E+05 -1.554874E+05 -8.392334E+04 -8.858734E-10 -2.677996E-10
       179  11 -1.613474E+05 -1.968771E+05 -1.473524E+05 -6.599232E+04  1.048476E-10  9.957766E-12
       179  12 -4.370918E+04 -1.692251E+05 -1.321960E+05 -8.712030E+04  1.116211E-09  2.144649E-11
       179  13  6.562056E+05  6.299990E+03  3.814734E+04 -8.585229E+04 -1.190463E-09 -6.051431E-10
       179  14  6.547269E+05 -4.394920E+01  2.093434E+04 -6.632405E+04 -1.897368E-09  2.494730E-10
       179  15  6.562710E+05 -4.224447E+02  1.205865E+04 -8.585138E+04 -5.345832E-10  9.740038E-12
       179  16  1.589509E+06  2.314346E+05  2.317346E+05 -8.778418E+04  1.247966E-09 -4.020540E-10
       179  17  1.471433E+06  1.967471E+05  1.891852E+05 -6.665620E+04 -9.075908E-10  8.075336E-11
       179  18  1.356716E+06  1.683493E+05  1.562870E+05 -8.458096E+04 -7.530512E-10  1.234785E-10
       179  19 -2.762720E+05 -2.188864E+05 -1.554797E+05 -8.392183E+04 -3.507160E+04 -5.371345E+04
       179  20 -1.613461E+05 -1.968743E+05 -1.473466E+05 -6.599128E+04 -2.652127E+04 -4.858613E+04
       179  21 -4.370837E+04 -1.692231E+05 -1.321921E+05 -8.711970E+04 -1.796406E+04 -4.177873E+04
       179  22  6.562074E+05  6.303334E+03  3.815449E+04 -8.585098E+04 -3.027012E+04 -5.370597E+04
       179  23  6.547279E+05 -4.130875E+01  2.093952E+04 -6.632328E+04 -1.981062E+04 -4.858094E+04
       179  24  6.562716E+05 -4.205465E+02  1.206210E+04 -8.585107E+04 -9.345789E+03 -4.177687E+04
       179  25  1.589510E+06  2.314378E+05  2.317412E+05 -8.778308E+04 -2.546153E+04 -5.369852E+04
       179  26  1.471433E+06  1.967497E+05  1.891900E+05 -6.665569E+04 -1.309129E+04 -4.857576E+04
       179  27  1.356716E+06  1.683512E+05  1.562902E+05 -8.458093E+04 -7.179647E+02 -4.177498E+04
       180   1  4.115015E+04 -1.479824E+05 -1.169244E+05 -8.602972E+04  1.565021E+04  3.737338E+04
       180   2  1.567654E+05 -1.203089E+05 -9.725521E+04 -6.644498E+04  1.312595E+04  3.007543E+04
       180   3  2.728280E+05 -9.233497E+04 -7.586040E+04 -8.584430E+04  1.059735E+04  2.269788E+04
       180   4  6.557234E+05  1.145966E+02  9.211897E+03 -8.583489E+04  7.466534E+03  3.737303E+04
       180   5  6.555169E+05 -9.363836E+01  5.286902E+03 -6.634389E+04  4.849413E+03  3.007709E+04
       180   6  6.557603E+05  1.492900E+01  3.150618E+03 -8.583508E+04  2.228412E+03  2.270164E+04
       180   7  1.270655E+06  1.481879E+05  1.353283E+05 -8.563982E+04 -7.250978E+02  3.737267E+04
       180   8  1.154505E+06  1.201060E+05  1.078160E+05 -6.624268E+04 -3.433654E+03  3.007875E+04
       180   9  1.038832E+06  9.235560E+04  8.215399E+04 -8.582583E+04 -6.145601E+03  2.270540E+04
       180  10  4.114951E+04 -1.479840E+05 -1.169275E+05 -8.603020E+04 -1.448343E-10 -8.656988E-11
       180  11  1.567650E+05 -1.203099E+05 -9.725723E+04 -6.644529E+04 -8.861165E-10 -4.486911E-10
       180  12  2.728277E+05 -9.233555E+04 -7.586158E+04 -8.584449E+04  8.332955E-10 -9.837097E-10
       180  13  6.557230E+05  1.130812E+02  9.209166E+03 -8.583512E+04 -5.386341E-10 -1.219766E-10
       180  14  6.555167E+05 -9.461640E+01  5.285157E+03 -6.634400E+04 -2.171563E-10  1.518421E-10
       180  15  6.557602E+05  1.437408E+01  3.149639E+03 -8.583512E+04  1.692886E-10 -1.220899E-10
       180  16  1.270655E+06  1.481864E+05  1.353256E+05 -8.563979E+04  1.655009E-10 -6.972943E-11
       180  17  1.154504E+06  1.201050E+05  1.078142E+05 -6.624259E+04  4.292083E-11 -1.618044E-10
       180  18  1.038832E+06  9.235504E+04  8.215295E+04 -8.582572E+04 -5.428610E-10 -3.965920E-10
       180  19  4.115015E+04 -1.479824E+05 -1.169244E+05 -8.602972E+04 -1.565021E+04 -3.737338E+04
       180  20  1.567654E+05 -1.203089E+05 -9.725521E+04 -6.644498E+04 -1.312595E+04 -3.007543E+04
       180  21  2.728280E+05 -9.233497E+04 -7.586040E+04 -8.584430E+04 -1.059735E+04 -2.269788E+04
       180  22  6.557234E+05  1.145966E+02  9.211897E+03 -8.583489E+04 -7.466534E+03 -3.737303E+04
       180  23  6.555169E+05 -9.363836E+01  5.286902E+03 -6.634389E+04 -4.849413E+03 -3.007709E+04
       180  24  6.557603E+05  1.492900E+01  3.150618E+03 -8.583508E+04 -2.228412E+03 -2.270164E+04
       180  25  1.270655E+06  1.481879E+05  1.353283E+05 -8.563982E+04  7.250978E+02 -3.737267E+04
       180  26  1.154505E+06  1.201060E+05  1.078160E+05 -6.624268E+04  3.433654E+03 -3.007875E+04
       180  27  1.038832E+06  9.235560E+04  8.215399E+04 -8.582583E+04  6.145601E+03 -2.270540E+04
       181   1  3.578861E+05 -7.166512E+04 -5.842761E+04 -8.579686E+04  1.005902E+04  1.838480E+04
       181   2  4.734677E+05 -4.386583E+04 -3.578445E+04 -6.633650E+04  9.239077E+03  1.099170E+04
       181   3  5.891390E+05 -1.600943E+04 -1.260545E+04 -8.578277E+04  8.417575E+03  3.596993E+03
       181   4  6.556902E+05  4.312132E+01  2.475601E+03 -8.581811E+04  1.716483E+03  1.838938E+04
       181   5  6.556574E+05  3.767830E+01  1.657660E+03 -6.636514E+04  8.937274E+02  1.099700E+04
       181   6  6.557034E+05  9.092886E+01  1.377915E+03 -8.581811E+04  6.956481E+01  3.603061E+03
       181   7  9.535786E+05  7.174584E+04  6.337438E+04 -8.583935E+04 -6.629985E+03  1.839396E+04
       181   8  8.378786E+05  4.393914E+04  3.909826E+04 -6.639378E+04 -7.454026E+03  1.100231E+04
       181   9  7.222723E+05  1.619104E+04  1.536129E+04 -8.585346E+04 -8.279326E+03  3.609130E+03
       181  10  3.578859E+05 -7.166551E+04 -5.842844E+04 -8.579701E+04  8.288822E-13 -7.784959E-10
       181  11  4.734676E+05 -4.386599E+04 -3.578484E+04 -6.633659E+04  2.791414E-10 -9.372088E-11
       181  12  5.891389E+05 -1.600946E+04 -1.260561E+04 -8.578279E+04 -1.835728E-09  6.463932E-10
       181  13  6.556901E+05  4.275728E+01  2.474960E+03 -8.581813E+04 -1.523044E-09 -1.039346E-09
       181  14  6.556573E+05  3.754818E+01  1.657432E+03 -6.636515E+04 -1.545215E-09  8.303340E-11
       181  15  6.557034E+05  9.091492E+01  1.377890E+03 -8.581811E+04  4.346026E-10  5.846591E-10
       181  16  9.535785E+05  7.174547E+04  6.337366E+04 -8.583925E+04 -5.150998E-10 -2.570890E-10
       181  17  8.378785E+05  4.393899E+04  3.909793E+04 -6.639371E+04 -2.247011E-10 -1.222444E-10
       181  18  7.222722E+05  1.619101E+04  1.536114E+04 -8.585343E+04  9.528770E-10  3.181741E-10
       181  19  3.578861E+05 -7.166512E+04 -5.842761E+04 -8.579686E+04 -1.005902E+04 -1.838480E+04
       181  20  4.734677E+05 -4.386583E+04 -3.578445E+04 -6.633650E+04 -9.239077E+03 -1.099170E+04
       181  21  5.891390E+05 -1.600943E+04 -1.260545E+04 -8.578277E+04 -8.417575E+03 -3.596993E+03
       181  22  6.556902E+05  4.312132E+01  2.475601E+03 -8.581811E+04 -1.716483E+03 -1.838938E+04
       181  23  6.556574E+05  3.767830E+01  1.657660E+03 -6.636514E+04 -8.937274E+02 -1.099700E+04
       181  24  6.557034E+05  9.092886E+01  1.377915E+03 -8.581811E+04 -6.956481E+01 -3.603061E+03
       181  25  9.535786E+05  7.174584E+04  6.337438E+04 -8.583935E+04  6.629985E+03 -1.839396E+04
       181  26  8.378786E+05  4.393914E+04  3.909826E+04 -6.639378E+04  7.454026E+03 -1.100231E+04
       181  27  7.222723E+05  1.619104E+04  1.536129E+04 -8.585346E+04  8.279326E+03 -3.609130E+03
       182   1  6.742016E+05  4.609366E+03  5.504451E+03 -8.581988E+04  8.161795E+03 -7.069145E+02
       182   2  7.897863E+05  3.235598E+04  2.932959E+04 -6.636412E+04  7.280514E+03 -8.099592E+03
       182   3  9.054674E+05  6.016370E+04  5.372979E+04 -8.580855E+04  6.400107E+03 -1.549017E+04
       182   4  6.557049E+05  9.159139E+01  1.398361E+03 -8.581695E+04 -1.863581E+02 -7.007865E+02
       182   5  6.556592E+05  4.058864E+01  1.769683E+03 -6.636659E+04 -1.065892E+03 -8.094034E+03
       182   6  6.556951E+05  5.067739E+01  2.714682E+03 -8.581694E+04 -1.944395E+03 -1.548514E+04
       182   7  6.372087E+05 -4.426169E+03 -2.707489E+03 -8.581401E+04 -8.534266E+03 -6.946585E+02
       182   8  5.215493E+05 -3.227590E+04 -2.579092E+04 -6.636906E+04 -9.410530E+03 -8.088476E+03
       182   9  4.059820E+05 -6.006621E+04 -4.830346E+04 -8.582531E+04 -1.028561E+04 -1.548010E+04
       182  10  6.742015E+05  4.609348E+03  5.504325E+03 -8.581988E+04 -4.881768E-10  1.352292E-09
       182  11  7.897863E+05  3.235590E+04  2.932937E+04 -6.636407E+04  2.746811E-10  1.411841E-09
       182  12  9.054673E+05  6.016343E+04  5.372927E+04 -8.580847E+04  1.855614E-09 -4.139228E-10
       182  13  6.557049E+05  9.159086E+01  1.398360E+03 -8.581695E+04 -5.213639E-10  8.891356E-10
       182  14  6.556592E+05  4.051796E+01  1.769558E+03 -6.636660E+04 -1.657370E-10 -1.461920E-10
       182  15  6.556950E+05  5.041880E+01  2.714225E+03 -8.581696E+04 -8.058601E-10 -1.766507E-10
       182  16  6.372086E+05 -4.426189E+03 -2.707627E+03 -8.581402E+04  2.085920E-10  8.397809E-10
       182  17  5.215492E+05 -3.227599E+04 -2.579121E+04 -6.636912E+04 -1.489647E-09 -4.145443E-10
       182  18  4.059818E+05 -6.006650E+04 -4.830411E+04 -8.582544E+04 -7.716984E-10 -4.719999E-10
       182  19  6.742016E+05  4.609366E+03  5.504451E+03 -8.581988E+04 -8.161795E+03  7.069145E+02
       182  20  7.897863E+05  3.235598E+04  2.932959E+04 -6.636412E+04 -7.280514E+03  8.099592E+03
       182  21  9.054674E+05  6.016370E+04  5.372979E+04 -8.580855E+04 -6.400107E+03  1.549017E+04
       182  22  6.557049E+05  9.159139E+01  1.398361E+03 -8.581695E+04  1.863581E+02  7.007865E+02
       182  23  6.556592E+05  4.058864E+01  1.769683E+03 -6.636659E+04  1.065892E+03  8.094034E+03
       182  24  6.556951E+05  5.067739E+01  2.714682E+03 -8.581694E+04  1.944395E+03  1.548514E+04
       182  25  6.372087E+05 -4.426169E+03 -2.707489E+03 -8.581401E+04  8.534266E+03  6.946585E+02
       182  26  5.215493E+05 -3.227590E+04 -2.579092E+04 -6.636906E+04  9.410530E+03  8.088476E+03
       182  27  4.059820E+05 -6.006621E+04 -4.830346E+04 -8.582531E+04  1.028561E+04  1.548010E+04
       183   1  9.907003E+05  8.076694E+04  7.259208E+04 -8.579116E+04  5.862722E+03 -1.980027E+04
       183   2  1.106304E+06  1.085045E+05  9.850565E+04 -6.622283E+04  2.861526E+03 -2.717195E+04
       183   3  1.222417E+06  1.366078E+05  1.264626E+05 -8.561840E+04 -1.367058E+02 -3.446669E+04
       183   4  6.557733E+05  2.161972E+01  3.477245E+03 -8.583140E+04 -2.507734E+03 -1.979595E+04
       183   5  6.555159E+05 -8.793672E+01  5.876058E+03 -6.634848E+04 -5.420812E+03 -2.716953E+04
       183   6  6.557397E+05  1.540242E+02  1.025861E+04 -8.583117E+04 -8.330385E+03 -3.446610E+04
       183   7  3.209526E+05 -8.073075E+04 -6.564339E+04 -8.587159E+04 -1.087376E+04 -1.979162E+04
       183   8  2.049203E+05 -1.086932E+05 -8.676415E+04 -6.647400E+04 -1.369725E+04 -2.716710E+04
       183   9  8.936712E+04 -1.363199E+05 -1.059622E+05 -8.604371E+04 -1.651673E+04 -3.446550E+04
       183  10  9.907002E+05  8.076651E+04  7.259128E+04 -8.579107E+04  1.749107E-10 -8.603195E-10
       183  11  1.106304E+06  1.085037E+05  9.850425E+04 -6.622277E+04 -6.918150E-10 -5.989213E-10
       183  12  1.222416E+06  1.366066E+05  1.264604E+05 -8.561840E+04 -1.982474E-10 -3.886796E-12
       183  13  6.557731E+05  2.119709E+01  3.476496E+03 -8.583144E+04  3.949211E-10 -3.561463E-10
       183  14  6.555157E+05 -8.873755E+01  5.874615E+03 -6.634859E+04  6.017283E-10 -6.992520E-10
       183  15  6.557393E+05  1.527295E+02  1.025625E+04 -8.583140E+04  4.268627E-10 -1.800983E-10
       183  16  3.209523E+05 -8.073120E+04 -6.564435E+04 -8.587177E+04 -4.349117E-10 -4.131067E-10
       183  17  2.049199E+05 -1.086940E+05 -8.676589E+04 -6.647430E+04 -4.552773E-10  7.880305E-11
       183  18  8.936651E+04 -1.363213E+05 -1.059650E+05 -8.604417E+04  1.332552E-10  7.958208E-11
       183  19  9.907003E+05  8.076694E+04  7.259208E+04 -8.579116E+04 -5.862722E+03  1.980027E+04
       183  20  1.106304E+06  1.085045E+05  9.850565E+04 -6.622283E+04 -2.861526E+03  2.717195E+04
       183  21  1.222417E+06  1.366078E+05  1.264626E+05 -8.561840E+04  1.367058E+02  3.446669E+04
       183  22  6.557733E+05  2.161972E+01  3.477245E+03 -8.583140E+04  2.507734E+03  1.979595E+04
       183  23  6.555159E+05 -8.793672E+01  5.876058E+03 -6.634848E+04  5.420812E+03  2.716953E+04
       183  24  6.557397E+05  1.540242E+02  1.025861E+04 -8.583117E+04  8.330385E+03  3.446610E+04
       183  25  3.209526E+05 -8.073075E+04 -6.564339E+04 -8.587159E+04  1.087376E+04  1.979162E+04
       183  26  2.049203E+05 -1.086932E+05 -8.676415E+04 -6.647400E+04  1.369725E+04  2.716710E+04
       183  27  8.936712E+04 -1.363199E+05 -1.059622E+05 -8.604371E+04  1.651673E+04  3.446550E+04
       184   1  1.308485E+06  1.567013E+05  1.477450E+05 -8.444838E+04 -1.811090E+03 -3.886336E+04
       184   2  1.422970E+06  1.851355E+05  1.816399E+05 -6.675954E+04 -1.531570E+04 -4.568210E+04
       184   3  1.541103E+06  2.205319E+05  2.260842E+05 -8.809849E+04 -2.881761E+04 -5.088586E+04
       184   4  6.563498E+05 -4.391017E+02  1.343761E+04 -8.584561E+04 -1.042399E+04 -3.886415E+04
       184   5  6.546567E+05 -2.756684E+00  2.334317E+04 -6.633003E+04 -2.209088E+04 -4.568614E+04
       184   6  6.562885E+05  7.084158E+03  4.253356E+04 -8.584489E+04 -3.375263E+04 -5.089224E+04
       184   7  4.617384E+03 -1.576062E+05 -1.208923E+05 -8.724129E+04 -1.902802E+04 -3.886489E+04
       184   8 -1.130973E+05 -1.851782E+05 -1.349852E+05 -6.590103E+04 -2.885783E+04 -4.569019E+04
       184   9 -2.277857E+05 -2.064132E+05 -1.410597E+05 -8.359452E+04 -3.868073E+04 -5.089867E+04
       184  10  1.308485E+06  1.566997E+05  1.477421E+05 -8.444843E+04 -8.237271E-11  3.980329E-10
       184  11  1.422969E+06  1.851332E+05  1.816355E+05 -6.676011E+04 -8.198849E-10  3.189937E-10
       184  12  1.541101E+06  2.205289E+05  2.260777E+05 -8.809967E+04  8.197392E-11  1.287025E-10
       184  13  6.563492E+05 -4.407533E+02  1.343456E+04 -8.584593E+04  2.693200E-14  3.899929E-10
       184  14  6.546556E+05 -5.129639E+00  2.333833E+04 -6.633085E+04 -1.301391E-09  4.412541E-10
       184  15  6.562866E+05  7.081070E+03  4.252655E+04 -8.584627E+04 -1.711996E-09  1.662790E-10
       184  16  4.616589E+03 -1.576080E+05 -1.208959E+05 -8.724189E+04  1.614375E-10  3.983561E-10
       184  17 -1.130987E+05 -1.851807E+05 -1.349906E+05 -6.590209E+04 -1.128658E-09  6.141714E-10
       184  18 -2.277880E+05 -2.064164E+05 -1.410674E+05 -8.359611E+04 -6.430529E-11  1.305934E-10
       184  19  1.308485E+06  1.567013E+05  1.477450E+05 -8.444838E+04  1.811090E+03  3.886336E+04
       184  20  1.422970E+06  1.851355E+05  1.816399E+05 -6.675954E+04  1.531570E+04  4.568210E+04
       184  21  1.541103E+06  2.205319E+05  2.260842E+05 -8.809849E+04  2.881761E+04  5.088586E+04
       184  22  6.563498E+05 -4.391017E+02  1.343761E+04 -8.584561E+04  1.042399E+04  3.886415E+04
       184  23  6.546567E+05 -2.756684E+00  2.334317E+04 -6.633003E+04  2.209088E+04  4.568614E+04
       184  24  6.562885E+05  7.084158E+03  4.253356E+04 -8.584489E+04  3.375263E+04  5.089224E+04
       184  25  4.617384E+03 -1.576062E+05 -1.208923E+05 -8.724129E+04  1.902802E+04  3.886489E+04
       184  26 -1.130973E+05 -1.851782E+05 -1.349852E+05 -6.590103E+04  2.885783E+04  4.569019E+04
       184  27 -2.277857E+05 -2.064132E+05 -1.410597E+05 -8.359452E+04  3.868073E+04  5.089867E+04
       185   1  1.636666E+06  2.281561E+05  2.551559E+05 -6.307738E+04 -2.825865E+04 -5.677365E+04
       185   2  1.729386E+06  2.749761E+05  3.273962E+05 -1.015653E+05 -1.138343E+05 -5.247165E+04
       185   3  1.871203E+06  4.724684E+05  4.929924E+05 -1.777981E+05 -1.994653E+05 -1.656359E+04
       185   4  6.650704E+05 -6.100579E+03  5.427131E+04 -8.553025E+04 -4.117811E+04 -5.678320E+04
       185   5  6.435263E+05  1.163542E+04  9.481116E+04 -6.671926E+04 -9.096036E+04 -5.247138E+04
       185   6  6.649385E+05  1.739700E+05  2.039648E+05 -8.564160E+04 -1.407766E+05 -1.654432E+04
       185   7 -3.056306E+05 -2.404149E+05 -1.466635E+05 -1.079475E+05 -5.407769E+04 -5.679183E+04
       185   8 -4.412225E+05 -2.517774E+05 -1.378398E+05 -3.193497E+04 -6.812564E+04 -5.246855E+04
       185   9 -5.399706E+05 -1.246000E+05 -8.514809E+04  6.335358E+03 -8.220102E+04 -1.650766E+04
       185  10  1.636664E+06  2.281524E+05  2.551483E+05 -6.307867E+04 -8.503464E-10  3.453064E-10
       185  11  1.729371E+06  2.749697E+05  3.273667E+05 -1.015701E+05 -1.486185E-09  2.587057E-10
       185  12  1.871160E+06  4.724575E+05  4.929173E+05 -1.778007E+05 -2.242103E-10 -1.128969E-10
       185  13  6.650678E+05 -6.104497E+03  5.426206E+04 -8.553213E+04 -8.401156E-10  3.849041E-10
       185  14  6.435167E+05  1.163025E+04  9.479045E+04 -6.672310E+04 -6.467757E-10  1.013178E-09
       185  15  6.649172E+05  1.739644E+05  2.039271E+05 -8.564348E+04 -5.819435E-11 -1.526260E-10
       185  16 -3.056346E+05 -2.404192E+05 -1.466751E+05 -1.079499E+05  2.339210E-10 -6.321471E-11
       185  17 -4.412283E+05 -2.517816E+05 -1.378537E+05 -3.193785E+04 -1.921895E-09 -2.145331E-10
       185  18 -5.399779E+05 -1.246021E+05 -8.516132E+04  6.334265E+03 -5.452907E-10 -4.795806E-10
       185  19  1.636666E+06  2.281561E+05  2.551559E+05 -6.307738E+04  2.825865E+04  5.677365E+04
       185  20  1.729386E+06  2.749761E+05  3.273962E+05 -1.015653E+05  1.138343E+05  5.247165E+04
       185  21  1.871203E+06  4.724684E+05  4.929924E+05 -1.777981E+05  1.994653E+05  1.656359E+04
       185  22  6.650704E+05 -6.100579E+03  5.427131E+04 -8.553025E+04  4.117811E+04  5.678320E+04
       185  23  6.435263E+05  1.163542E+04  9.481116E+04 -6.671926E+04  9.096036E+04  5.247138E+04
       185  24  6.649385E+05  1.739700E+05  2.039648E+05 -8.564160E+04  1.407766E+05  1.654432E+04
       185  25 -3.056306E+05 -2.404149E+05 -1.466635E+05 -1.079475E+05  5.407769E+04  5.679183E+04
       185  26 -4.412225E+05 -2.517774E+05 -1.378398E+05 -3.193497E+04  6.812564E+04  5.246855E+04
       185  27 -5.399706E+05 -1.246000E+05 -8.514809E+04  6.335358E+03  8.220102E+04  1.650766E+04
       186   1  4.293410E+05  1.624860E+06  4.317057E+05 -3.658388E+05  1.535245E+04  1.109645E+05
       186   2  2.464789E+05  1.170996E+06  2.561686E+05 -2.684802E+05  4.292977E+04  4.404451E+04
       186   3  1.323359E+05  7.428273E+05  1.412243E+05 -3.171479E+05  3.018984E+04 -2.288875E+04
       186   4  7.334435E+04  1.908552E+05  8.499409E+04 -3.251716E+05  1.546297E+04  5.709646E+04
       186   5  5.708826E+03  1.821574E+05  4.074264E+04 -2.522306E+05  4.295309E+04  3.579232E+04
       186   6 -1.037113E+03  1.911291E+05  2.551518E+04 -3.253130E+05  3.010214E+04  1.442661E+04
       186   7 -2.827952E+05 -1.241264E+06 -2.618535E+05 -2.845972E+05  1.556660E+04  3.352098E+03
       186   8 -2.351253E+05 -8.057650E+05 -1.747416E+05 -2.360066E+05  4.297599E+04  2.755306E+04
       186   9 -1.344287E+05 -3.602786E+05 -9.020561E+04 -3.334706E+05  3.001341E+04  5.170938E+04
       186  10  4.293375E+05  1.624846E+06  4.316822E+05 -3.658401E+05 -8.977332E-11  8.591954E-10
       186  11  2.464764E+05  1.170993E+06  2.561614E+05 -2.684817E+05 -1.020881E-09 -9.375483E-11
       186  12  1.323348E+05  7.428265E+05  1.412216E+05 -3.171473E+05 -8.736189E-10 -7.932147E-10
       186  13  7.334322E+04  1.908517E+05  8.498751E+04 -3.251723E+05  1.217675E-09  3.396085E-10
       186  14  5.706500E+03  1.821556E+05  4.073676E+04 -2.522318E+05  2.690591E-11 -2.767884E-11
       186  15 -1.038142E+03  1.911286E+05  2.551308E+04 -3.253134E+05 -5.507078E-10 -9.120556E-10
       186  16 -2.827955E+05 -1.241264E+06 -2.618539E+05 -2.845972E+05  1.620094E-10 -8.665127E-10
       186  17 -2.351274E+05 -8.057663E+05 -1.747465E+05 -2.360075E+05  2.596686E-09  1.483237E-09
       186  18 -1.344304E+05 -3.602817E+05 -9.021233E+04 -3.334718E+05 -4.245468E-10  1.221346E-09
       186  19  4.293410E+05  1.624860E+06  4.317057E+05 -3.658388E+05 -1.535245E+04 -1.109645E+05
       186  20  2.464789E+05  1.170996E+06  2.561686E+05 -2.684802E+05 -4.292977E+04 -4.404451E+04
       186  21  1.323359E+05  7.428273E+05  1.412243E+05 -3.171479E+05 -3.018984E+04  2.288875E+04
       186  22  7.334435E+04  1.908552E+05  8.499409E+04 -3.251716E+05 -1.546297E+04 -5.709646E+04
       186  23  5.708826E+03  1.821574E+05  4.074264E+04 -2.522306E+05 -4.295309E+04 -3.579232E+04
       186  24 -1.037113E+03  1.911291E+05  2.551518E+04 -3.253130E+05 -3.010214E+04 -1.442661E+04
       186  25 -2.827952E+05 -1.241264E+06 -2.618535E+05 -2.845972E+05 -1.556660E+04 -3.352098E+03
       186  26 -2.351253E+05 -8.057650E+05 -1.747416E+05 -2.360066E+05 -4.297599E+04 -2.755306E+04
       186  27 -1.344287E+05 -3.602786E+05 -9.020561E+04 -3.334706E+05 -3.001341E+04 -5.170938E+04
       187   1  5.910929E+04  4.137052E+05  6.964020E+04 -3.275466E+05  1.166278E+04 -1.710321E+04
       187   2 -5.055625E+04 -2.760832E+04 -2.738487E+04 -2.514282E+05 -1.265553E+04 -2.494226E+04
       187   3 -1.549544E+05 -4.670527E+05 -1.181762E+05 -3.232803E+05 -3.641444E+04 -3.276923E+04
       187   4  4.313263E+03  1.876538E+05  2.167942E+04 -3.257133E+05  1.159428E+04  1.067135E+04
       187   5  1.156396E+03  1.867267E+05  1.685608E+04 -2.517314E+05 -1.271920E+04  2.193109E+03
       187   6  3.388452E+03  1.875954E+05  1.871589E+04 -3.257153E+05 -3.647394E+04 -6.278381E+03
       187   7 -5.048565E+04 -3.834789E+04 -2.628137E+04 -3.238807E+05  1.152594E+04  3.843595E+04
       187   8  5.286654E+04  4.011069E+05  6.109733E+04 -2.520345E+05 -1.278287E+04  2.933768E+04
       187   9  1.617043E+05  8.426504E+05  1.555869E+05 -3.281526E+05 -3.653361E+04  2.023996E+04
       187  10  5.910907E+04  4.137049E+05  6.963940E+04 -3.275464E+05 -4.635008E-10  1.040941E-09
       187  11 -5.055659E+04 -2.760903E+04 -2.738634E+04 -2.514285E+05 -2.525913E-10 -3.955432E-11
       187  12 -1.549561E+05 -4.670542E+05 -1.181807E+05 -3.232813E+05 -7.791935E-11 -4.264703E-10
       187  13  4.313088E+03  1.876536E+05  2.167896E+04 -3.257134E+05 -4.390366E-10  4.490335E-10
       187  14  1.156221E+03  1.867267E+05  1.685577E+04 -2.517313E+05  2.706937E-10 -1.090821E-10
       187  15  3.387012E+03  1.875950E+05  1.871332E+04 -3.257155E+05 -1.746156E-10 -9.582568E-10
       187  16 -5.048619E+04 -3.834951E+04 -2.628440E+04 -3.238811E+05 -3.147517E-10 -1.166746E-09
       187  17  5.286613E+04  4.011059E+05  6.109541E+04 -2.520342E+05 -8.011796E-10  1.206275E-09
       187  18  1.617027E+05  8.426496E+05  1.555836E+05 -3.281520E+05  2.322309E-10  8.282419E-10
       187  19  5.910929E+04  4.137052E+05  6.964020E+04 -3.275466E+05 -1.166278E+04  1.710321E+04
       187  20 -5.055625E+04 -2.760832E+04 -2.738487E+04 -2.514282E+05  1.265553E+04  2.494226E+04
       187  21 -1.549544E+05 -4.670527E+05 -1.181762E+05 -3.232803E+05  3.641444E+04  3.276923E+04
       187  22  4.313263E+03  1.876538E+05  2.167942E+04 -3.257133E+05 -1.159428E+04 -1.067135E+04
       187  23  1.156396E+03  1.867267E+05  1.685608E+04 -2.517314E+05  1.271920E+04 -2.193109E+03
       187  24  3.388452E+03  1.875954E+05  1.871589E+04 -3.257153E+05  3.647394E+04  6.278381E+03
       187  25 -5.048565E+04 -3.834789E+04 -2.628137E+04 -3.238807E+05 -1.152594E+04 -3.843595E+04
       187  26  5.286654E+04  4.011069E+05  6.109733E+04 -2.520345E+05  1.278287E+04 -2.933768E+04
       187  27  1.617043E+05  8.426504E+05  1.555869E+05 -3.281526E+05  3.653361E+04 -2.023996E+04
       188   1 -2.376227E+05 -7.901085E+05 -1.833242E+05 -3.305214E+05 -5.541188E+04 -4.838437E+04
       188   2 -3.405941E+05 -1.232704E+06 -2.752180E+05 -2.393364E+05 -6.437995E+04 -7.125620E+03
       188   3 -4.069644E+05 -1.671310E+06 -3.848704E+05 -2.936827E+05 -2.202636E+04  3.416056E+04
       188   4 -6.507571E+02  1.901563E+05  2.105028E+04 -3.251868E+05 -5.549242E+04 -9.490787E+03
       188   5  4.168907E+03  1.830521E+05  3.166695E+04 -2.523916E+05 -6.433505E+04 -2.605459E+04
       188   6  5.559485E+04  1.897684E+05  6.468822E+04 -3.250959E+05 -2.191122E+04 -4.256135E+04
       188   7  2.362608E+05  1.171335E+06  2.253775E+05 -3.198430E+05 -5.557222E+04  2.946325E+04
       188   8  3.488001E+05  1.600692E+06  3.384340E+05 -2.654759E+05 -6.428942E+04 -4.502616E+04
       188   9  5.179074E+05  2.054033E+06  5.140213E+05 -3.566018E+05 -2.178853E+04 -1.195128E+05
       188  10 -2.376266E+05 -7.901119E+05 -1.833344E+05 -3.305235E+05  4.818890E-10  8.240340E-10
       188  11 -3.405986E+05 -1.232705E+06 -2.752258E+05 -2.393367E+05  1.168713E-09  1.709699E-10
       188  12 -4.069652E+05 -1.671312E+06 -3.848735E+05 -2.936820E+05  5.398381E-10 -3.868431E-10
       188  13 -6.540887E+02  1.901554E+05  2.104433E+04 -3.251872E+05  9.772617E-10  4.028303E-10
       188  14  4.164279E+03  1.830503E+05  3.165789E+04 -2.523929E+05  5.756526E-10  1.732252E-11
       188  15  5.559385E+04  1.897663E+05  6.468392E+04 -3.250966E+05  2.057835E-10 -4.721100E-10
       188  16  2.362572E+05  1.171333E+06  2.253701E+05 -3.198416E+05 -4.903165E-10 -6.908766E-10
       188  17  3.487951E+05  1.600689E+06  3.384225E+05 -2.654782E+05 -8.595416E-11  7.995844E-10
       188  18  5.179030E+05  2.054018E+06  5.139936E+05 -3.566039E+05  1.747149E-10  5.365963E-10
       188  19 -2.376227E+05 -7.901085E+05 -1.833242E+05 -3.305214E+05  5.541188E+04  4.838437E+04
       188  20 -3.405941E+05 -1.232704E+06 -2.752180E+05 -2.393364E+05  6.437995E+04  7.125620E+03
       188  21 -4.069644E+05 -1.671310E+06 -3.848704E+05 -2.936827E+05  2.202636E+04 -3.416056E+04
       188  22 -6.507571E+02  1.901563E+05  2.105028E+04 -3.251868E+05  5.549242E+04  9.490787E+03
       188  23  4.168907E+03  1.830521E+05  3.166695E+04 -2.523916E+05  6.433505E+04  2.605459E+04
       188  24  5.559485E+04  1.897684E+05  6.468822E+04 -3.250959E+05  2.191122E+04  4.256135E+04
       188  25  2.362608E+05  1.171335E+06  2.253775E+05 -3.198430E+05  5.557222E+04 -2.946325E+04
       188  26  3.488001E+05  1.600692E+06  3.384340E+05 -2.654759E+05  6.428942E+04  4.502616E+04
       188  27  5.179074E+05  2.054033E+06  5.140213E+05 -3.566018E+05  2.178853E+04  1.195128E+05
       189   1 -2.176228E+06 -8.582315E+05 -5.144603E+05 -8.216827E+05 -2.314645E+05 -7.265960E+04
       189   2 -2.103474E+06 -5.530355E+05 -3.102752E+05 -7.988805E+05 -1.481237E+05 -9.923238E+03
       189   3 -2.099900E+06 -4.676701E+05 -2.308696E+05 -7.472655E+05 -5.556072E+04  2.836027E+04
       189   4 -1.408452E+06 -4.543163E+05 -2.891583E+05 -4.942492E+05 -1.897570E+05 -5.702265E+04
       189   5 -1.360461E+06 -2.345694E+05 -1.277707E+05 -5.508727E+05 -1.321076E+05 -3.918193E+03
       189   6 -1.376454E+06 -2.294240E+05 -7.066048E+04 -5.787147E+05 -6.524980E+04  2.471813E+04
       189   7 -6.400593E+05 -5.017178E+04 -6.390283E+04 -1.663904E+05 -1.479928E+05 -4.134487E+04
       189   8 -6.168906E+05  8.399018E+04  5.469316E+04 -3.025748E+05 -1.160705E+05  2.097484E+03
       189   9 -6.524857E+05  8.834153E+03  8.951590E+04 -4.099966E+05 -7.495110E+04  2.107258E+04
       189  10 -2.176288E+06 -8.582517E+05 -5.145713E+05 -8.216963E+05  2.752043E-10  3.914969E-10
       189  11 -2.103498E+06 -5.530415E+05 -3.103168E+05 -7.988817E+05  4.469861E-12  6.560986E-11
       189  12 -2.099904E+06 -4.676718E+05 -2.308770E+05 -7.472642E+05 -1.293419E-09 -4.784564E-10
       189  13 -1.408491E+06 -4.543295E+05 -2.892322E+05 -4.942579E+05  1.714723E-09 -7.366819E-10
       189  14 -1.360480E+06 -2.345742E+05 -1.278036E+05 -5.508731E+05  1.326239E-09 -4.129192E-10
       189  15 -1.376458E+06 -2.294258E+05 -7.066964E+04 -5.787134E+05  7.829273E-10 -1.995312E-10
       189  16 -6.400833E+05 -5.017951E+04 -6.394725E+04 -1.663954E+05 -5.229945E-10 -6.459774E-10
       189  17 -6.169051E+05  8.398655E+04  5.466781E+04 -3.025746E+05 -2.945442E-10 -5.825212E-10
       189  18 -6.524918E+05  8.832168E+03  8.950450E+04 -4.099953E+05  7.773975E-10  3.732061E-10
       189  19 -2.176228E+06 -8.582315E+05 -5.144603E+05 -8.216827E+05  2.314645E+05  7.265960E+04
       189  20 -2.103474E+06 -5.530355E+05 -3.102752E+05 -7.988805E+05  1.481237E+05  9.923238E+03
       189  21 -2.099900E+06 -4.676701E+05 -2.308696E+05 -7.472655E+05  5.556072E+04 -2.836027E+04
       189  22 -1.408452E+06 -4.543163E+05 -2.891583E+05 -4.942492E+05  1.897570E+05  5.702265E+04
       189  23 -1.360461E+06 -2.345694E+05 -1.277707E+05 -5.508727E+05  1.321076E+05  3.918193E+03
       189  24 -1.376454E+06 -2.294240E+05 -7.066048E+04 -5.787147E+05  6.524980E+04 -2.471813E+04
       189  25 -6.400593E+05 -5.017178E+04 -6.390283E+04 -1.663904E+05  1.479928E+05  4.134487E+04
       189  26 -6.168906E+05  8.399018E+04  5.469316E+04 -3.025748E+05  1.160705E+05 -2.097484E+03
       189  27 -6.524857E+05  8.834153E+03  8.951590E+04 -4.099966E+05  7.495110E+04 -2.107258E+04
       190   1 -2.009171E+06 -4.876404E+05 -2.030754E+05 -7.480920E+05 -5.188940E+04  2.461970E+04
       190   2 -1.942078E+06 -4.376525E+05 -1.585578E+05 -7.166956E+05 -3.476862E+04  2.708399E+04
       190   3 -1.860945E+06 -4.172938E+05 -1.284614E+05 -7.059041E+05 -1.720097E+04  2.835658E+04
       190   4 -1.367292E+06 -2.464182E+05 -5.524049E+04 -5.678322E+05 -5.495052E+04  2.346603E+04
       190   5 -1.373683E+06 -2.265574E+05 -2.887202E+04 -5.594601E+05 -3.907019E+04  2.546633E+04
       190   6 -1.365787E+06 -2.360720E+05 -1.592826E+04 -5.716946E+05 -2.274529E+04  2.627456E+04
       190   7 -7.249941E+05 -5.160359E+03  9.256789E+04 -3.873990E+05 -5.801509E+04  2.231102E+04
       190   8 -8.049600E+05 -1.543659E+04  1.007930E+05 -4.020918E+05 -4.337604E+04  2.384705E+04
       190   9 -8.703835E+05 -5.483313E+04  9.658896E+04 -4.373874E+05 -2.829442E+04  2.419078E+04
       190  10 -2.009174E+06 -4.876418E+05 -2.030816E+05 -7.480910E+05  6.695134E-10 -6.037375E-11
       190  11 -1.942080E+06 -4.376537E+05 -1.585614E+05 -7.166948E+05  3.966904E-10  3.082057E-10
       190  12 -1.860945E+06 -4.172947E+05 -1.284634E+05 -7.059037E+05  7.284166E-10 -9.911604E-11
       190  13 -1.367295E+06 -2.464196E+05 -5.524721E+04 -5.678311E+05  7.520236E-11  4.400343E-10
       190  14 -1.373684E+06 -2.265585E+05 -2.887611E+04 -5.594593E+05 -5.297290E-10  4.814920E-10
       190  15 -1.365788E+06 -2.360729E+05 -1.593053E+04 -5.716941E+05  4.150772E-10 -1.376004E-10
       190  16 -7.249979E+05 -5.161797E+03  9.256063E+04 -3.873980E+05  3.337889E-10  6.507295E-10
       190  17 -8.049622E+05 -1.543771E+04  1.007884E+05 -4.020910E+05 -2.890961E-10  2.873725E-10
       190  18 -8.703845E+05 -5.483397E+04  9.658635E+04 -4.373869E+05 -4.977181E-10 -2.366416E-10
       190  19 -2.009171E+06 -4.876404E+05 -2.030754E+05 -7.480920E+05  5.188940E+04 -2.461970E+04
       190  20 -1.942078E+06 -4.376525E+05 -1.585578E+05 -7.166956E+05  3.476862E+04 -2.708399E+04
       190  21 -1.860945E+06 -4.172938E+05 -1.284614E+05 -7.059041E+05  1.720097E+04 -2.835658E+04
       190  22 -1.367292E+06 -2.464182E+05 -5.524049E+04 -5.678322E+05  5.495052E+04 -2.346603E+04
       190  23 -1.373683E+06 -2.265574E+05 -2.887202E+04 -5.594601E+05  3.907019E+04 -2.546633E+04
       190  24 -1.365787E+06 -2.360720E+05 -1.592826E+04 -5.716946E+05  2.274529E+04 -2.627456E+04
       190  25 -7.249941E+05 -5.160359E+03  9.256789E+04 -3.873990E+05  5.801509E+04 -2.231102E+04
       190  26 -8.049600E+05 -1.543659E+04  1.007930E+05 -4.020918E+05  4.337604E+04 -2.384705E+04
       190  27 -8.703835E+05 -5.483313E+04  9.658896E+04 -4.373874E+05  2.829442E+04 -2.419078E+04
       191   1 -1.801426E+06 -3.978787E+05 -1.110331E+05 -6.908903E+05 -1.412098E+04  2.606080E+04
       191   2 -1.734773E+06 -3.592898E+05 -8.842580E+04 -6.585642E+05 -8.875438E+03  2.231076E+04
       191   3 -1.648772E+06 -3.411562E+05 -6.844498E+04 -6.490835E+05 -3.605036E+03  1.848874E+04
       191   4 -1.365039E+06 -2.368590E+05 -1.204753E+04 -5.711466E+05 -1.936773E+04  2.409139E+04
       191   5 -1.374678E+06 -2.264295E+05 -6.596529E+03 -5.597972E+05 -1.419570E+04  2.031503E+04
       191   6 -1.364961E+06 -2.364402E+05 -3.712088E+03 -5.712949E+05 -8.999245E+03  1.646658E+04
       191   7 -9.284635E+05 -7.582601E+04  8.692497E+04 -4.513265E+05 -2.461846E+04  2.212050E+04
       191   8 -1.014453E+06 -9.355954E+04  7.522438E+04 -4.609777E+05 -1.951932E+04  1.831806E+04
       191   9 -1.081067E+06 -1.317176E+05  6.101610E+04 -4.934731E+05 -1.439617E+04  1.444340E+04
       191  10 -1.801426E+06 -3.978795E+05 -1.110347E+05 -6.908900E+05  1.928504E-10 -5.188137E-10
       191  11 -1.734773E+06 -3.592904E+05 -8.842688E+04 -6.585641E+05  1.409035E-10 -4.761371E-10
       191  12 -1.648772E+06 -3.411566E+05 -6.844565E+04 -6.490835E+05  9.194891E-10  2.321910E-10
       191  13 -1.365040E+06 -2.368597E+05 -1.204932E+04 -5.711462E+05  3.410408E-10 -2.139517E-10
       191  14 -1.374679E+06 -2.264300E+05 -6.597682E+03 -5.597970E+05  2.453214E-10 -2.950851E-10
       191  15 -1.364961E+06 -2.364406E+05 -3.712749E+03 -5.712947E+05 -6.220965E-10 -4.423754E-12
       191  16 -9.284642E+05 -7.582669E+04  8.692291E+04 -4.513260E+05  3.934424E-10 -2.155227E-10
       191  17 -1.014454E+06 -9.356000E+04  7.522303E+04 -4.609774E+05  1.903575E-10 -1.555016E-10
       191  18 -1.081067E+06 -1.317179E+05  6.101532E+04 -4.934730E+05  1.695836E-10  1.451688E-10
       191  19 -1.801426E+06 -3.978787E+05 -1.110331E+05 -6.908903E+05  1.412098E+04 -2.606080E+04
       191  20 -1.734773E+06 -3.592898E+05 -8.842580E+04 -6.585642E+05  8.875438E+03 -2.231076E+04
       191  21 -1.648772E+06 -3.411562E+05 -6.844498E+04 -6.490835E+05  3.605036E+03 -1.848874E+04
       191  22 -1.365039E+06 -2.368590E+05 -1.204753E+04 -5.711466E+05  1.936773E+04 -2.409139E+04
       191  23 -1.374678E+06 -2.264295E+05 -6.596529E+03 -5.597972E+05  1.419570E+04 -2.031503E+04
       191  24 -1.364961E+06 -2.364402E+05 -3.712088E+03 -5.712949E+05  8.999245E+03 -1.646658E+04
       191  25 -9.284635E+05 -7.582601E+04  8.692497E+04 -4.513265E+05  2.461846E+04 -2.212050E+04
       191  26 -1.014453E+06 -9.355954E+04  7.522438E+04 -4.609777E+05  1.951932E+04 -1.831806E+04
       191  27 -1.081067E+06 -1.317176E+05  6.101610E+04 -4.934731E+05  1.439617E+04 -1.444340E+04
       192   1 -1.590488E+06 -3.197030E+05 -5.386971E+04 -6.332060E+05 -1.949060E+03  1.571022E+04
       192   2 -1.523631E+06 -2.813599E+05 -3.557958E+04 -6.006186E+05  8.582681E+02  1.092425E+04
       192   3 -1.436847E+06 -2.630990E+05 -1.795712E+04 -5.910431E+05  3.668090E+03  6.128820E+03
       192   4 -1.364845E+06 -2.364842E+05 -2.853571E+03 -5.712821E+05 -7.339346E+03  1.369008E+04
       192   5 -1.374801E+06 -2.264356E+05 -1.766004E+03 -5.597768E+05 -4.541798E+03  8.900961E+03
       192   6 -1.364835E+06 -2.364672E+05 -1.338019E+03 -5.712851E+05 -1.741887E+03  4.102376E+03
       192   7 -1.139151E+06 -1.532616E+05  4.815938E+04 -5.093377E+05 -1.273176E+04  1.166914E+04
       192   8 -1.225949E+06 -1.715098E+05  3.204611E+04 -5.189262E+05 -9.943252E+03  6.877155E+03
       192   9 -1.292817E+06 -2.098351E+05  1.528073E+04 -5.515250E+05 -7.152512E+03  2.075690E+03
       192  10 -1.590488E+06 -3.197033E+05 -5.387018E+04 -6.332059E+05  4.900898E-10  6.007176E-10
       192  11 -1.523631E+06 -2.813600E+05 -3.557981E+04 -6.006186E+05  1.582603E-10 -1.197592E-10
       192  12 -1.436847E+06 -2.630990E+05 -1.795722E+04 -5.910431E+05 -1.078066E-09 -2.282941E-10
       192  13 -1.364845E+06 -2.364844E+05 -2.854025E+03 -5.712820E+05  1.871675E-11  2.078555E-10
       192  14 -1.374801E+06 -2.264357E+05 -1.766191E+03 -5.597768E+05  1.344422E-09  2.320319E-10
       192  15 -1.364835E+06 -2.364672E+05 -1.338056E+03 -5.712850E+05  3.594640E-11  7.884886E-10
       192  16 -1.139151E+06 -1.532618E+05  4.815882E+04 -5.093376E+05 -1.168753E-09 -4.272839E-10
       192  17 -1.225949E+06 -1.715099E+05  3.204584E+04 -5.189261E+05 -5.463920E-12 -2.572255E-10
       192  18 -1.292817E+06 -2.098351E+05  1.528063E+04 -5.515250E+05  7.644804E-10  5.757533E-10
       192  19 -1.590488E+06 -3.197030E+05 -5.386971E+04 -6.332060E+05  1.949060E+03 -1.571022E+04
       192  20 -1.523631E+06 -2.813599E+05 -3.557958E+04 -6.006186E+05 -8.582681E+02 -1.092425E+04
       192  21 -1.436847E+06 -2.630990E+05 -1.795712E+04 -5.910431E+05 -3.668090E+03 -6.128820E+03
       192  22 -1.364845E+06 -2.364842E+05 -2.853571E+03 -5.712821E+05  7.339346E+03 -1.369008E+04
       192  23 -1.374801E+06 -2.264356E+05 -1.766004E+03 -5.597768E+05  4.541798E+03 -8.900961E+03
       192  24 -1.364835E+06 -2.364672E+05 -1.338019E+03 -5.712851E+05  1.741887E+03 -4.102376E+03
       192  25 -1.139151E+06 -1.532616E+05  4.815938E+04 -5.093377E+05  1.273176E+04 -1.166914E+04
       192  26 -1.225949E+06 -1.715098E+05  3.204611E+04 -5.189262E+05  9.943252E+03 -6.877155E+03
       192  27 -1.292817E+06 -2.098351E+05  1.528073E+04 -5.515250E+05  7.152512E+03 -2.075690E+03
       193   1 -1.378482E+06 -2.414743E+05 -4.158213E+03 -5.750636E+05  5.009764E+03  3.223900E+03
       193   2 -1.311545E+06 -2.031065E+05  1.275492E+04 -5.424353E+05  7.729265E+03 -1.608789E+03
       193   3 -1.224655E+06 -1.848344E+05  2.906841E+04 -5.328430E+05  1.044734E+04 -6.436217E+03
       193   4 -1.364829E+06 -2.364712E+05 -1.311096E+03 -5.712903E+05 -4.022514E+02  1.196787E+03
       193   5 -1.374803E+06 -2.264252E+05 -1.611442E+03 -5.597703E+05  2.322238E+03 -3.634285E+03
       193   6 -1.364833E+06 -2.364773E+05 -2.515811E+03 -5.712895E+05  5.045185E+03 -8.460106E+03
       193   7 -1.351175E+06 -2.314680E+05  1.536161E+03 -5.675169E+05 -5.814429E+03 -8.303873E+02
       193   8 -1.438057E+06 -2.497437E+05 -1.597800E+04 -5.771038E+05 -3.084209E+03 -5.659564E+03
       193   9 -1.504991E+06 -2.881187E+05 -3.410118E+04 -6.097280E+05 -3.556515E+02 -1.048350E+04
       193  10 -1.378482E+06 -2.414743E+05 -4.158279E+03 -5.750636E+05 -9.549015E-10  5.660459E-10
       193  11 -1.311546E+06 -2.031065E+05  1.275481E+04 -5.424353E+05 -1.274909E-09  4.458942E-10
       193  12 -1.224656E+06 -1.848344E+05  2.906813E+04 -5.328430E+05  1.563760E-09  5.479472E-10
       193  13 -1.364829E+06 -2.364712E+05 -1.311099E+03 -5.712903E+05 -1.453933E-10  2.826611E-10
       193  14 -1.374803E+06 -2.264252E+05 -1.611477E+03 -5.597703E+05  6.974946E-10  7.319887E-10
       193  15 -1.364833E+06 -2.364774E+05 -2.515993E+03 -5.712895E+05  2.771787E-09  9.738881E-10
       193  16 -1.351175E+06 -2.314680E+05  1.536096E+03 -5.675169E+05 -4.042094E-10 -5.994773E-11
       193  17 -1.438057E+06 -2.497437E+05 -1.597808E+04 -5.771038E+05  4.574746E-10 -2.305225E-10
       193  18 -1.504991E+06 -2.881188E+05 -3.410139E+04 -6.097280E+05  3.674650E-09  9.729335E-10
       193  19 -1.378482E+06 -2.414743E+05 -4.158213E+03 -5.750636E+05 -5.009764E+03 -3.223900E+03
       193  20 -1.311545E+06 -2.031065E+05  1.275492E+04 -5.424353E+05 -7.729265E+03  1.608789E+03
       193  21 -1.224655E+06 -1.848344E+05  2.906841E+04 -5.328430E+05 -1.044734E+04  6.436217E+03
       193  22 -1.364829E+06 -2.364712E+05 -1.311096E+03 -5.712903E+05  4.022514E+02 -1.196787E+03
       193  23 -1.374803E+06 -2.264252E+05 -1.611442E+03 -5.597703E+05 -2.322238E+03  3.634285E+03
       193  24 -1.364833E+06 -2.364773E+05 -2.515811E+03 -5.712895E+05 -5.045185E+03  8.460106E+03
       193  25 -1.351175E+06 -2.314680E+05  1.536161E+03 -5.675169E+05  5.814429E+03  8.303873E+02
       193  26 -1.438057E+06 -2.497437E+05 -1.597800E+04 -5.771038E+05  3.084209E+03  5.659564E+03
       193  27 -1.504991E+06 -2.881187E+05 -3.410118E+04 -6.097280E+05  3.556515E+02  1.048350E+04
       194   1 -1.166436E+06 -1.632525E+05  4.208106E+04 -5.169479E+05  1.204977E+04 -9.240826E+03
       194   2 -1.099624E+06 -1.249862E+05  5.675061E+04 -4.843699E+05  1.675388E+04 -1.329174E+04
       194   3 -1.013321E+06 -1.071407E+05  6.923832E+04 -4.747157E+05  2.143667E+04 -1.727967E+04
       194   4 -1.364928E+06 -2.364441E+05 -3.248097E+03 -5.713072E+05  6.640832E+03 -1.126762E+04
       194   5 -1.374697E+06 -2.264054E+05 -5.726946E+03 -5.597803E+05  1.140927E+04 -1.529540E+04
       194   6 -1.364994E+06 -2.368013E+05 -1.043930E+04 -5.711802E+05  1.615603E+04 -1.926031E+04
       194   7 -1.563380E+06 -3.096324E+05 -4.857940E+04 -6.256502E+05  1.233801E+03 -1.329370E+04
       194   8 -1.649694E+06 -3.278189E+05 -6.820933E+04 -6.351601E+05  6.067235E+03 -1.729811E+04
       194   9 -1.716544E+06 -3.664535E+05 -9.012544E+04 -6.675952E+05  1.087862E+04 -2.123976E+04
       194  10 -1.166436E+06 -1.632526E+05  4.208062E+04 -5.169478E+05  4.588207E-09  7.788931E-10
       194  11 -1.099624E+06 -1.249865E+05  5.674976E+04 -4.843697E+05  1.382259E-09 -4.246882E-10
       194  12 -1.013321E+06 -1.071412E+05  6.923689E+04 -4.747154E+05 -9.880748E-10 -1.555080E-10
       194  13 -1.364928E+06 -2.364443E+05 -3.248419E+03 -5.713071E+05  2.956502E-09  6.904897E-10
       194  14 -1.374697E+06 -2.264057E+05 -5.727630E+03 -5.597802E+05  6.569960E-10 -4.698129E-10
       194  15 -1.364994E+06 -2.368018E+05 -1.044049E+04 -5.711799E+05 -6.879205E-10 -2.503959E-10
       194  16 -1.563380E+06 -3.096326E+05 -4.857973E+04 -6.256502E+05  1.524056E-09  5.564388E-10
       194  17 -1.649694E+06 -3.278193E+05 -6.820996E+04 -6.351601E+05  1.800311E-10 -3.627978E-10
       194  18 -1.716544E+06 -3.664540E+05 -9.012651E+04 -6.675950E+05 -1.667921E-10 -9.999104E-11
       194  19 -1.166436E+06 -1.632525E+05  4.208106E+04 -5.169479E+05 -1.204977E+04  9.240826E+03
       194  20 -1.099624E+06 -1.249862E+05  5.675061E+04 -4.843699E+05 -1.675388E+04  1.329174E+04
       194  21 -1.013321E+06 -1.071407E+05  6.923832E+04 -4.747157E+05 -2.143667E+04  1.727967E+04
       194  22 -1.364928E+06 -2.364441E+05 -3.248097E+03 -5.713072E+05 -6.640832E+03  1.126762E+04
       194  23 -1.374697E+06 -2.264054E+05 -5.726946E+03 -5.597803E+05 -1.140927E+04  1.529540E+04
       194  24 -1.364994E+06 -2.368013E+05 -1.043930E+04 -5.711802E+05 -1.615603E+04  1.926031E+04
       194  25 -1.563380E+06 -3.096324E+05 -4.857940E+04 -6.256502E+05 -1.233801E+03  1.329370E+04
       194  26 -1.649694E+06 -3.278189E+05 -6.820933E+04 -6.351601E+05 -6.067235E+03  1.729811E+04
       194  27 -1.716544E+06 -3.664535E+05 -9.012544E+04 -6.675952E+05 -1.087862E+04  2.123976E+04
       195   1 -9.550513E+05 -8.601460E+04  7.948877E+04 -4.604699E+05  2.478837E+04 -1.947866E+04
       195   2 -8.892272E+05 -4.666034E+04  8.550603E+04 -4.254526E+05  3.805194E+04 -1.988978E+04
       195   3 -8.080860E+05 -3.525594E+04  8.079488E+04 -4.114317E+05  5.091512E+04 -1.922208E+04
       195   4 -1.365640E+06 -2.361220E+05 -1.379658E+04 -5.716569E+05  1.923563E+04 -2.156210E+04
       195   5 -1.373833E+06 -2.265102E+05 -2.499478E+04 -5.594858E+05  3.362618E+04 -2.155229E+04
       195   6 -1.366941E+06 -2.450788E+05 -4.782252E+04 -5.683149E+05  4.761464E+04 -2.046388E+04
       195   7 -1.776060E+06 -3.862176E+05 -1.070928E+05 -6.827769E+05  1.368688E+04 -2.364409E+04
       195   8 -1.858201E+06 -4.063414E+05 -1.355106E+05 -6.934225E+05  2.920417E+04 -2.321338E+04
       195   9 -1.925479E+06 -4.548745E+05 -1.764599E+05 -7.250668E+05  4.431739E+04 -2.170442E+04
       195  10 -9.550521E+05 -8.601517E+04  7.948690E+04 -4.604695E+05  7.581199E-11  5.208665E-10
       195  11 -8.892289E+05 -4.666115E+04  8.550257E+04 -4.254520E+05  5.979304E-10  9.682981E-11
       195  12 -8.080889E+05 -3.525703E+04  8.078931E+04 -4.114310E+05  3.316959E-11 -7.870871E-10
       195  13 -1.365641E+06 -2.361226E+05 -1.379814E+04 -5.716566E+05  3.001230E-10  4.901426E-10
       195  14 -1.373834E+06 -2.265110E+05 -2.499778E+04 -5.594852E+05  1.535249E-11  1.433393E-10
       195  15 -1.366944E+06 -2.450798E+05 -4.782757E+04 -5.683141E+05 -2.373116E-09 -1.178164E-09
       195  16 -1.776061E+06 -3.862182E+05 -1.070942E+05 -6.827767E+05  1.111618E-10  1.781411E-10
       195  17 -1.858202E+06 -4.063422E+05 -1.355132E+05 -6.934219E+05 -8.717831E-10  2.121011E-10
       195  18 -1.925481E+06 -4.548755E+05 -1.764645E+05 -7.250660E+05 -4.984503E-09 -1.594064E-09
       195  19 -9.550513E+05 -8.601460E+04  7.948877E+04 -4.604699E+05 -2.478837E+04  1.947866E+04
       195  20 -8.892272E+05 -4.666034E+04  8.550603E+04 -4.254526E+05 -3.805194E+04  1.988978E+04
       195  21 -8.080860E+05 -3.525594E+04  8.079488E+04 -4.114317E+05 -5.091512E+04  1.922208E+04
       195  22 -1.365640E+06 -2.361220E+05 -1.379658E+04 -5.716569E+05 -1.923563E+04  2.156210E+04
       195  23 -1.373833E+06 -2.265102E+05 -2.499478E+04 -5.594858E+05 -3.362618E+04  2.155229E+04
       195  24 -1.366941E+06 -2.450788E+05 -4.782252E+04 -5.683149E+05 -4.761464E+04  2.046388E+04
       195  25 -1.776060E+06 -3.862176E+05 -1.070928E+05 -6.827769E+05 -1.368688E+04  2.364409E+04
       195  26 -1.858201E+06 -4.063414E+05 -1.355106E+05 -6.934225E+05 -2.920417E+04  2.321338E+04
       195  27 -1.925479E+06 -4.548745E+05 -1.764599E+05 -7.250668E+05 -4.431739E+04  2.170442E+04
       196   1 -7.373138E+05 -2.015730E+04  7.999672E+04 -4.287902E+05  6.602488E+04 -1.852518E+04
       196   2 -6.973414E+05  5.011000E+04  5.244567E+04 -3.313862E+05  1.007113E+05 -2.881833E+03
       196   3 -7.053414E+05 -6.336930E+04 -4.680621E+04 -2.122197E+05  1.270698E+05  3.493580E+04
       196   4 -1.374886E+06 -2.303557E+05 -6.117102E+04 -5.777210E+05  5.670919E+04 -2.202332E+04
       196   5 -1.362375E+06 -2.334611E+05 -1.106078E+05 -5.520683E+05  1.147303E+05  2.374398E+03
       196   6 -1.402555E+06 -4.250814E+05 -2.503239E+05 -5.046431E+05  1.644141E+05  4.894782E+04
       196   7 -2.012055E+06 -4.405452E+05 -2.023648E+05 -7.265220E+05  4.740381E+04 -2.551857E+04
       196   8 -2.026960E+06 -5.169578E+05 -2.736929E+05 -7.725192E+05  1.287329E+05  7.622371E+03
       196   9 -2.099256E+06 -7.866102E+05 -4.538776E+05 -7.967204E+05  2.017119E+05  6.292729E+04
       196  10 -7.373186E+05 -2.015884E+04  7.998788E+04 -4.287892E+05 -2.734741E-09 -1.880375E-09
       196  11 -6.973523E+05  5.010726E+04  5.242657E+04 -3.313860E+05 -8.984870E-10 -6.896671E-10
       196  12 -7.053591E+05 -6.337495E+04 -4.683888E+04 -2.122233E+05 -5.727346E-11 -1.704567E-10
       196  13 -1.374889E+06 -2.303570E+05 -6.117798E+04 -5.777200E+05 -2.648839E-09 -1.415491E-09
       196  14 -1.362389E+06 -2.334647E+05 -1.106326E+05 -5.520685E+05 -1.008194E-09  2.557987E-10
       196  15 -1.402585E+06 -4.250913E+05 -2.503794E+05 -5.046496E+05  2.095116E-10 -2.053661E-10
       196  16 -2.012058E+06 -4.405465E+05 -2.023702E+05 -7.265210E+05 -1.309997E-09 -9.340016E-10
       196  17 -2.026978E+06 -5.169623E+05 -2.737243E+05 -7.725200E+05  2.508497E-10 -2.898636E-10
       196  18 -2.099301E+06 -7.866254E+05 -4.539619E+05 -7.967307E+05  2.277855E-10 -9.203030E-11
       196  19 -7.373138E+05 -2.015730E+04  7.999672E+04 -4.287902E+05 -6.602488E+04  1.852518E+04
       196  20 -6.973414E+05  5.011000E+04  5.244567E+04 -3.313862E+05 -1.007113E+05  2.881833E+03
       196  21 -7.053414E+05 -6.336930E+04 -4.680621E+04 -2.122197E+05 -1.270698E+05 -3.493580E+04
       196  22 -1.374886E+06 -2.303557E+05 -6.117102E+04 -5.777210E+05 -5.670919E+04  2.202332E+04
       196  23 -1.362375E+06 -2.334611E+05 -1.106078E+05 -5.520683E+05 -1.147303E+05 -2.374398E+03
       196  24 -1.402555E+06 -4.250814E+05 -2.503239E+05 -5.046431E+05 -1.644141E+05 -4.894782E+04
       196  25 -2.012055E+06 -4.405452E+05 -2.023648E+05 -7.265220E+05 -4.740381E+04  2.551857E+04
       196  26 -2.026960E+06 -5.169578E+05 -2.736929E+05 -7.725192E+05 -1.287329E+05 -7.622371E+03
       196  27 -2.099256E+06 -7.866102E+05 -4.538776E+05 -7.967204E+05 -2.017119E+05 -6.292729E+04
       197   1 -3.276335E+05 -7.709130E+04 -3.649397E+04  2.628568E+04  9.942702E+04  1.470373E+04
       197   2 -2.481313E+05 -2.216409E+05 -1.048010E+05 -1.921360E+04  7.742562E+04  4.674037E+04
       197   3 -1.278978E+05 -2.159606E+05 -1.211681E+05 -9.684315E+04  5.544697E+04  5.080096E+04
       197   4  7.397450E+05  1.872962E+05  2.195302E+05 -7.283396E+04  1.515320E+05  1.473312E+04
       197   5  7.167417E+05  1.260064E+04  1.020592E+05 -5.670725E+04  9.790909E+04  4.674363E+04
       197   6  7.398692E+05 -6.519963E+03  5.841097E+04 -7.270313E+04  4.431582E+04  5.079335E+04
       197   7  1.808194E+06  4.516395E+05  4.754891E+05 -1.721249E+05  2.037260E+05  1.474587E+04
       197   8  1.682494E+06  2.467869E+05  3.088676E+05 -9.426011E+04  1.184239E+05  4.674441E+04
       197   9  1.608351E+06  2.028753E+05  2.379500E+05 -4.852882E+04  3.316935E+04  5.078488E+04
       197  10 -3.276441E+05 -7.709419E+04 -3.651296E+04  2.628450E+04  1.193063E-10  1.836759E-10
       197  11 -2.481383E+05 -2.216449E+05 -1.048164E+05 -1.921652E+04  5.680453E-10 -5.809944E-10
       197  12 -1.279018E+05 -2.159642E+05 -1.211787E+05 -9.684542E+04  3.499120E-10  1.123374E-10
       197  13  7.397203E+05  1.872898E+05  2.194867E+05 -7.283576E+04  1.073097E-09  8.194558E-11
       197  14  7.167308E+05  1.259573E+04  1.020371E+05 -5.671093E+04 -7.007110E-12 -9.954102E-10
       197  15  7.398664E+05 -6.523261E+03  5.840243E+04 -7.270494E+04  7.023191E-11 -2.465640E-10
       197  16  1.808149E+06  4.516282E+05  4.754109E+05 -1.721273E+05  1.453946E-10  7.689546E-11
       197  17  1.682478E+06  2.467808E+05  3.088372E+05 -9.426456E+04 -1.627534E-09 -7.548718E-11
       197  18  1.608349E+06  2.028722E+05  2.379431E+05 -4.853018E+04 -1.347900E-09 -8.992777E-10
       197  19 -3.276335E+05 -7.709130E+04 -3.649397E+04  2.628568E+04 -9.942702E+04 -1.470373E+04
       197  20 -2.481313E+05 -2.216409E+05 -1.048010E+05 -1.921360E+04 -7.742562E+04 -4.674037E+04
       197  21 -1.278978E+05 -2.159606E+05 -1.211681E+05 -9.684315E+04 -5.544697E+04 -5.080096E+04
       197  22  7.397450E+05  1.872962E+05  2.195302E+05 -7.283396E+04 -1.515320E+05 -1.473312E+04
       197  23  7.167417E+05  1.260064E+04  1.020592E+05 -5.670725E+04 -9.790909E+04 -4.674363E+04
       197  24  7.398692E+05 -6.519963E+03  5.841097E+04 -7.270313E+04 -4.431582E+04 -5.079335E+04
       197  25  1.808194E+06  4.516395E+05  4.754891E+05 -1.721249E+05 -2.037260E+05 -1.474587E+04
       197  26  1.682494E+06  2.467869E+05  3.088676E+05 -9.426011E+04 -1.184239E+05 -4.674441E+04
       197  27  1.608351E+06  2.028753E+05  2.379500E+05 -4.852882E+04 -3.316935E+04 -5.078488E+04
       198   1 -6.355598E+04 -1.840518E+05 -1.190657E+05 -7.059184E+04  4.040328E+04  4.573069E+04
       198   2  3.371967E+04 -1.675789E+05 -1.181603E+05 -5.597175E+04  2.947537E+04  4.137014E+04
       198   3  1.342734E+05 -1.442393E+05 -1.083910E+05 -7.456198E+04  1.854236E+04  3.558121E+04
       198   4  7.304215E+05  7.657606E+03  4.577940E+04 -7.297536E+04  3.632478E+04  4.572498E+04
       198   5  7.286730E+05  1.414575E+01  2.512618E+04 -5.637133E+04  2.377088E+04  4.136608E+04
       198   6  7.304712E+05 -4.852272E+02  1.445643E+04 -7.297504E+04  1.121360E+04  3.557952E+04
       198   7  1.524996E+06  1.993270E+05  2.105902E+05 -7.536198E+04  3.224114E+04  4.571932E+04
       198   8  1.424084E+06  1.675767E+05  1.683867E+05 -5.677136E+04  1.806010E+04  4.136204E+04
       198   9  1.327006E+06  1.432465E+05  1.372850E+05 -7.138653E+04  3.877925E+03  3.557779E+04
       198  10 -6.355830E+04 -1.840545E+05 -1.190727E+05 -7.059333E+04 -1.008129E-10  4.627034E-11
       198  11  3.371828E+04 -1.675810E+05 -1.181651E+05 -5.597273E+04 -1.601479E-09  3.508538E-10
       198  12  1.342727E+05 -1.442408E+05 -1.083941E+05 -7.456251E+04  5.740367E-10 -1.543166E-10
       198  13  7.304195E+05  7.655006E+03  4.577300E+04 -7.297669E+04 -1.085635E-09 -2.889199E-10
       198  14  7.286719E+05  1.215608E+01  2.512190E+04 -5.637212E+04  2.549702E-11  7.509755E-11
       198  15  7.304708E+05 -4.866208E+02  1.445381E+04 -7.297536E+04 -2.878961E-11 -1.723086E-10
       198  16  1.524994E+06  1.993245E+05  2.105843E+05 -7.536316E+04  7.201097E-10 -5.953094E-10
       198  17  1.424083E+06  1.675748E+05  1.683829E+05 -5.677196E+04 -1.351659E-09 -3.439745E-10
       198  18  1.327006E+06  1.432451E+05  1.372826E+05 -7.138664E+04 -1.304990E-09 -2.702808E-10
       198  19 -6.355598E+04 -1.840518E+05 -1.190657E+05 -7.059184E+04 -4.040328E+04 -4.573069E+04
       198  20  3.371967E+04 -1.675789E+05 -1.181603E+05 -5.597175E+04 -2.947537E+04 -4.137014E+04
       198  21  1.342734E+05 -1.442393E+05 -1.083910E+05 -7.456198E+04 -1.854236E+04 -3.558121E+04
       198  22  7.304215E+05  7.657606E+03  4.577940E+04 -7.297536E+04 -3.632478E+04 -4.572498E+04
       198  23  7.286730E+05  1.414575E+01  2.512618E+04 -5.637133E+04 -2.377088E+04 -4.136608E+04
       198  24  7.304712E+05 -4.852272E+02  1.445643E+04 -7.297504E+04 -1.121360E+04 -3.557952E+04
       198  25  1.524996E+06  1.993270E+05  2.105902E+05 -7.536198E+04 -3.224114E+04 -4.571932E+04
       198  26  1.424084E+06  1.675767E+05  1.683867E+05 -5.677136E+04 -1.806010E+04 -4.136204E+04
       198  27  1.327006E+06  1.432465E+05  1.372850E+05 -7.138653E+04 -3.877925E+03 -3.557779E+04
       199   1  2.062480E+05 -1.260015E+05 -9.640849E+04 -7.326932E+04  1.591991E+04  3.183547E+04
       199   2  3.044749E+05 -1.025649E+05 -8.107350E+04 -5.659356E+04  1.287326E+04  2.563140E+04
       199   3  4.032229E+05 -7.877952E+04 -6.366162E+04 -7.306186E+04  9.823304E+03  1.936036E+04
       199   4  7.298164E+05  1.481519E+02  1.103481E+04 -7.296081E+04  8.961935E+03  3.183487E+04
       199   5  7.295686E+05 -1.166931E+02  6.313353E+03 -5.638956E+04  5.836742E+03  2.563226E+04
       199   6  7.298438E+05 -1.949675E+01  3.721433E+03 -7.296101E+04  2.708704E+03  1.936273E+04
       199   7  1.253645E+06  1.262806E+05  1.184637E+05 -7.265201E+04  1.998196E+03  3.183426E+04
       199   8  1.154834E+06  1.023201E+05  9.369072E+04 -5.618539E+04 -1.204510E+03  2.563311E+04
       199   9  1.056566E+06  7.873382E+04  7.109892E+04 -7.286009E+04 -4.409572E+03  1.936509E+04
       199  10  2.062474E+05 -1.260026E+05 -9.641087E+04 -7.326973E+04 -6.353056E-10 -4.669907E-10
       199  11  3.044745E+05 -1.025656E+05 -8.107505E+04 -5.659383E+04 -1.129849E-09 -4.072240E-10
       199  12  4.032227E+05 -7.877995E+04 -6.366250E+04 -7.306201E+04 -7.994763E-10  3.192987E-10
       199  13  7.298161E+05  1.470417E+02  1.103275E+04 -7.296104E+04 -2.163018E-09 -2.401006E-10
       199  14  7.295684E+05 -1.174080E+02  6.312054E+03 -5.638968E+04  6.430717E-10  5.277956E-11
       199  15  7.298437E+05 -1.990145E+01  3.720714E+03 -7.296105E+04  1.406281E-09  5.063765E-11
       199  16  1.253645E+06  1.262795E+05  1.184618E+05 -7.265207E+04  5.183966E-10  1.153719E-10
       199  17  1.154834E+06  1.023194E+05  9.368948E+04 -5.618536E+04  6.257873E-10  7.115178E-10
       199  18  1.056566E+06  7.873341E+04  7.109818E+04 -7.286002E+04  8.905459E-10  3.873304E-10
       199  19  2.062480E+05 -1.260015E+05 -9.640849E+04 -7.326932E+04 -1.591991E+04 -3.183547E+04
       199  20  3.044749E+05 -1.025649E+05 -8.107350E+04 -5.659356E+04 -1.287326E+04 -2.563140E+04
       199  21  4.032229E+05 -7.877952E+04 -6.366162E+04 -7.306186E+04 -9.823304E+03 -1.936036E+04
       199  22  7.298164E+05  1.481519E+02  1.103481E+04 -7.296081E+04 -8.961935E+03 -3.183487E+04
       199  23  7.295686E+05 -1.166931E+02  6.313353E+03 -5.638956E+04 -5.836742E+03 -2.563226E+04
       199  24  7.298438E+05 -1.949675E+01  3.721433E+03 -7.296101E+04 -2.708704E+03 -1.936273E+04
       199  25  1.253645E+06  1.262806E+05  1.184637E+05 -7.265201E+04 -1.998196E+03 -3.183426E+04
       199  26  1.154834E+06  1.023201E+05  9.369072E+04 -5.618539E+04  1.204510E+03 -2.563311E+04
       199  27  1.056566E+06  7.873382E+04  7.109892E+04 -7.286009E+04  4.409572E+03 -1.936509E+04
       200   1  4.755034E+05 -6.120587E+04 -4.909730E+04 -7.299223E+04  9.199603E+03  1.569441E+04
       200   2  5.737280E+05 -3.757735E+04 -3.019382E+04 -5.642836E+04  8.280358E+03  9.410827E+03
       200   3  6.720665E+05 -1.390209E+04 -1.068790E+04 -7.293371E+04  7.359941E+03  3.126171E+03
       200   4  7.297598E+05  9.950896E+00  2.895255E+03 -7.294454E+04  2.108080E+03  1.569738E+04
       200   5  7.297123E+05  7.515328E+00  1.859564E+03 -5.641019E+04  1.186782E+03  9.414316E+03
       200   6  7.297696E+05  5.261103E+01  1.427600E+03 -7.294456E+04  2.644524E+02  3.130215E+03
       200   7  9.840777E+05  6.122176E+04  5.488458E+04 -7.289683E+04 -4.986292E+03  1.570034E+04
       200   8  8.857198E+05  3.759088E+04  3.391183E+04 -5.639201E+04 -5.908543E+03  9.417803E+03
       200   9  7.874760E+05  1.400713E+04  1.354310E+04 -7.295541E+04 -6.831684E+03  3.134260E+03
       200  10  4.755032E+05 -6.120616E+04 -4.909792E+04 -7.299234E+04 -6.600831E-11  6.836900E-11
       200  11  5.737279E+05 -3.757746E+04 -3.019411E+04 -5.642842E+04 -1.259152E-09 -1.494305E-10
       200  12  6.720664E+05 -1.390212E+04 -1.068802E+04 -7.293373E+04 -6.401892E-10  3.190286E-10
       200  13  7.297598E+05  9.685010E+00  2.894784E+03 -7.294457E+04  1.360783E-09  1.325080E-10
       200  14  7.297123E+05  7.419744E+00  1.859395E+03 -5.641020E+04 -4.617610E-10 -1.048602E-09
       200  15  7.297696E+05  5.260049E+01  1.427581E+03 -7.294456E+04 -7.201283E-10 -3.921635E-10
       200  16  9.840777E+05  6.122148E+04  5.488407E+04 -7.289677E+04  2.296716E-10 -1.104976E-09
       200  17  8.857197E+05  3.759077E+04  3.391160E+04 -5.639197E+04  4.583111E-10 -1.161805E-09
       200  18  7.874760E+05  1.400710E+04  1.354300E+04 -7.295539E+04  1.382807E-09 -7.413029E-10
       200  19  4.755034E+05 -6.120587E+04 -4.909730E+04 -7.299223E+04 -9.199603E+03 -1.569441E+04
       200  20  5.737280E+05 -3.757735E+04 -3.019382E+04 -5.642836E+04 -8.280358E+03 -9.410827E+03
       200  21  6.720665E+05 -1.390209E+04 -1.068790E+04 -7.293371E+04 -7.359941E+03 -3.126171E+03
       200  22  7.297598E+05  9.950896E+00  2.895255E+03 -7.294454E+04 -2.108080E+03 -1.569738E+04
       200  23  7.297123E+05  7.515328E+00  1.859564E+03 -5.641019E+04 -1.186782E+03 -9.414316E+03
       200  24  7.297696E+05  5.261103E+01  1.427600E+03 -7.294456E+04 -2.644524E+02 -3.130215E+03
       200  25  9.840777E+05  6.122176E+04  5.488458E+04 -7.289683E+04  4.986292E+03 -1.570034E+04
       200  26  8.857198E+05  3.759088E+04  3.391183E+04 -5.639201E+04  5.908543E+03 -9.417803E+03
       200  27  7.874760E+05  1.400713E+04  1.354310E+04 -7.295541E+04  6.831684E+03 -3.134260E+03
       201   1  7.443548E+05  3.619830E+03  4.638030E+03 -7.295416E+04  7.102279E+03 -5.315782E+02
       201   2  8.425899E+05  2.720877E+04  2.480014E+04 -5.640425E+04  6.302048E+03 -6.814626E+03
       201   3  9.409170E+05  5.084118E+04  4.548429E+04 -7.291763E+04  5.502453E+03 -1.309614E+04
       201   4  7.297657E+05  5.301851E+01  1.381045E+03 -7.294343E+04  6.765199E+00 -5.274888E+02
       201   5  7.297201E+05  1.684057E+01  1.609764E+03 -5.641160E+04 -7.920870E+02 -6.810944E+03
       201   6  7.297586E+05  2.480315E+01  2.360174E+03 -7.294342E+04 -1.590180E+03 -1.309283E+04
       201   7  7.151769E+05 -3.513781E+03 -1.875764E+03 -7.293270E+04 -7.088584E+03 -5.233995E+02
       201   8  6.168625E+05 -2.717586E+04 -2.158111E+04 -5.641894E+04 -7.884956E+03 -6.807262E+03
       201   9  5.186427E+05 -5.079433E+04 -4.076611E+04 -7.296919E+04 -8.680449E+03 -1.308952E+04
       201  10  7.443547E+05  3.619817E+03  4.637935E+03 -7.295416E+04  1.042917E-10  4.576361E-10
       201  11  8.425898E+05  2.720871E+04  2.479998E+04 -5.640422E+04  3.664626E-10  3.440072E-10
       201  12  9.409169E+05  5.084099E+04  4.548391E+04 -7.291757E+04 -1.067913E-09  1.300138E-10
       201  13  7.297657E+05  5.301821E+01  1.381045E+03 -7.294343E+04 -2.633282E-10  1.004490E-09
       201  14  7.297201E+05  1.679057E+01  1.609676E+03 -5.641160E+04 -1.935798E-09  1.079518E-09
       201  15  7.297586E+05  2.461833E+01  2.359847E+03 -7.294344E+04 -3.322388E-10 -5.547487E-10
       201  16  7.151768E+05 -3.513795E+03 -1.875859E+03 -7.293270E+04  3.788938E-10  4.260610E-10
       201  17  6.168625E+05 -2.717593E+04 -2.158131E+04 -5.641898E+04 -1.029570E-09  1.003845E-09
       201  18  5.186425E+05 -5.079454E+04 -4.076657E+04 -7.296929E+04  7.424702E-10 -9.900643E-11
       201  19  7.443548E+05  3.619830E+03  4.638030E+03 -7.295416E+04 -7.102279E+03  5.315782E+02
       201  20  8.425899E+05  2.720877E+04  2.480014E+04 -5.640425E+04 -6.302048E+03  6.814626E+03
       201  21  9.409170E+05  5.084118E+04  4.548429E+04 -7.291763E+04 -5.502453E+03  1.309614E+04
       201  22  7.297657E+05  5.301851E+01  1.381045E+03 -7.294343E+04 -6.765199E+00  5.274888E+02
       201  23  7.297201E+05  1.684057E+01  1.609764E+03 -5.641160E+04  7.920870E+02  6.810944E+03
       201  24  7.297586E+05  2.480315E+01  2.360174E+03 -7.294342E+04  1.590180E+03  1.309283E+04
       201  25  7.151769E+05 -3.513781E+03 -1.875764E+03 -7.293270E+04  7.088584E+03  5.233995E+02
       201  26  6.168625E+05 -2.717586E+04 -2.158111E+04 -5.641894E+04  7.884956E+03  6.807262E+03
       201  27  5.186427E+05 -5.079433E+04 -4.076611E+04 -7.296919E+04  8.680449E+03  1.308952E+04
       202   1  1.013360E+06  6.835362E+04  6.149632E+04 -7.289614E+04  5.038781E+03 -1.675965E+04
       202   2  1.111632E+06  9.194223E+04  8.349309E+04 -5.626018E+04  2.488506E+03 -2.302624E+04
       202   3  1.210336E+06  1.158334E+05  1.072253E+05 -7.274340E+04 -5.967559E+01 -2.922806E+04
       202   4  7.298231E+05  1.103916E+00  2.988647E+03 -7.295606E+04 -2.076341E+03 -1.675685E+04
       202   5  7.296066E+05 -8.181513E+01  4.996561E+03 -5.639577E+04 -4.552624E+03 -2.302481E+04
       202   6  7.297986E+05  1.253786E+02  8.689238E+03 -7.295590E+04 -7.026422E+03 -2.922794E+04
       202   7  4.463628E+05 -6.835646E+04 -5.552318E+04 -7.301593E+04 -9.188274E+03 -1.675406E+04
       202   8  3.477194E+05 -9.211501E+04 -7.350759E+04 -5.653125E+04 -1.158950E+04 -2.302338E+04
       202   9  2.494799E+05 -1.155971E+05 -8.985893E+04 -7.316821E+04 -1.398788E+04 -2.922782E+04
       202  10  1.013359E+06  6.835331E+04  6.149575E+04 -7.289608E+04 -1.681846E-09  3.825974E-10
       202  11  1.111632E+06  9.194166E+04  8.349208E+04 -5.626013E+04 -1.038701E-09 -2.854964E-10
       202  12  1.210336E+06  1.158325E+05  1.072237E+05 -7.274340E+04 -1.951205E-09  3.460469E-10
       202  13  7.298230E+05  8.011294E-01  2.988111E+03 -7.295609E+04 -2.585683E-10 -5.408691E-10
       202  14  7.296064E+05 -8.239017E+01  4.995526E+03 -5.639585E+04  9.002120E-10 -6.170699E-10
       202  15  7.297984E+05  1.244476E+02  8.687539E+03 -7.295607E+04  5.121345E-10  4.512063E-10
       202  16  4.463627E+05 -6.835679E+04 -5.552386E+04 -7.301606E+04  4.565481E-10  6.686009E-11
       202  17  3.477191E+05 -9.211562E+04 -7.350884E+04 -5.653146E+04 -2.582110E-10 -4.737629E-10
       202  18  2.494794E+05 -1.155981E+05 -8.986091E+04 -7.316854E+04  1.507904E-09  3.085135E-10
       202  19  1.013360E+06  6.835362E+04  6.149632E+04 -7.289614E+04 -5.038781E+03  1.675965E+04
       202  20  1.111632E+06  9.194223E+04  8.349309E+04 -5.626018E+04 -2.488506E+03  2.302624E+04
       202  21  1.210336E+06  1.158334E+05  1.072253E+05 -7.274340E+04  5.967559E+01  2.922806E+04
       202  22  7.298231E+05  1.103916E+00  2.988647E+03 -7.295606E+04  2.076341E+03  1.675685E+04
       202  23  7.296066E+05 -8.181513E+01  4.996561E+03 -5.639577E+04  4.552624E+03  2.302481E+04
       202  24  7.297986E+05  1.253786E+02  8.689238E+03 -7.295590E+04  7.026422E+03  2.922794E+04
       202  25  4.463628E+05 -6.835646E+04 -5.552318E+04 -7.301593E+04  9.188274E+03  1.675406E+04
       202  26  3.477194E+05 -9.211501E+04 -7.350759E+04 -5.653125E+04  1.158950E+04  2.302338E+04
       202  27  2.494799E+05 -1.155971E+05 -8.985893E+04 -7.316821E+04  1.398788E+04  2.922782E+04
       203   1  1.283502E+06  1.329210E+05  1.252989E+05 -7.175646E+04 -1.474951E+03 -3.296629E+04
       203   2  1.380876E+06  1.571117E+05  1.540715E+05 -5.671854E+04 -1.290153E+04 -3.876594E+04
       203   3  1.481321E+06  1.871842E+05  1.917654E+05 -7.486621E+04 -2.432636E+04 -4.319434E+04
       203   4  7.303133E+05 -3.739656E+02  1.137221E+04 -7.297075E+04 -8.798830E+03 -3.296718E+04
       203   5  7.288928E+05  7.295325E+00  1.974400E+04 -5.637690E+04 -1.866686E+04 -3.876911E+04
       203   6  7.302677E+05  6.004763E+03  3.596303E+04 -7.297052E+04 -2.853136E+04 -4.319913E+04
       203   7  1.774146E+05 -1.336882E+05 -1.025707E+05 -7.418391E+04 -1.611630E+04 -3.296805E+04
       203   8  7.731205E+04 -1.571239E+05 -1.146062E+05 -5.603560E+04 -2.442624E+04 -3.877229E+04
       203   9 -2.025227E+04 -1.752104E+05 -1.198700E+05 -7.107715E+04 -3.273136E+04 -4.320396E+04
       203  10  1.283502E+06  1.329199E+05  1.252968E+05 -7.175650E+04  3.010287E-10  1.240948E-10
       203  11  1.380875E+06  1.571101E+05  1.540683E+05 -5.671895E+04 -1.326987E-09 -4.779702E-10
       203  12  1.481320E+06  1.871820E+05  1.917607E+05 -7.486706E+04 -1.490161E-09 -8.771567E-10
       203  13  7.303129E+05 -3.751538E+02  1.137002E+04 -7.297098E+04 -1.110974E-09  3.641507E-10
       203  14  7.288920E+05  5.587286E+00  1.974052E+04 -5.637748E+04 -6.532079E-10 -2.803147E-10
       203  15  7.302663E+05  6.002540E+03  3.595799E+04 -7.297151E+04 -1.622777E-09 -7.170696E-10
       203  16  1.774141E+05 -1.336895E+05 -1.025732E+05 -7.418434E+04 -2.603867E-11  4.863626E-10
       203  17  7.731100E+04 -1.571257E+05 -1.146102E+05 -5.603636E+04 -8.108922E-10 -6.941765E-11
       203  18 -2.025392E+04 -1.752127E+05 -1.198755E+05 -7.107829E+04 -8.944518E-10 -2.961145E-10
       203  19  1.283502E+06  1.329210E+05  1.252989E+05 -7.175646E+04  1.474951E+03  3.296629E+04
       203  20  1.380876E+06  1.571117E+05  1.540715E+05 -5.671854E+04  1.290153E+04  3.876594E+04
       203  21  1.481321E+06  1.871842E+05  1.917654E+05 -7.486621E+04  2.432636E+04  4.319434E+04
       203  22  7.303133E+05 -3.739656E+02  1.137221E+04 -7.297075E+04  8.798830E+03  3.296718E+04
       203  23  7.288928E+05  7.295325E+00  1.974400E+04 -5.637690E+04  1.866686E+04  3.876911E+04
       203  24  7.302677E+05  6.004763E+03  3.596303E+04 -7.297052E+04  2.853136E+04  4.319913E+04
       203  25  1.774146E+05 -1.336882E+05 -1.025707E+05 -7.418391E+04  1.611630E+04  3.296805E+04
       203  26  7.731205E+04 -1.571239E+05 -1.146062E+05 -5.603560E+04  2.442624E+04  3.877229E+04
       203  27 -2.025227E+04 -1.752104E+05 -1.198700E+05 -7.107715E+04  3.273136E+04  4.320396E+04
       204   1  1.562555E+06  1.937438E+05  2.164323E+05 -5.373460E+04 -2.381888E+04 -4.820076E+04
       204   2  1.641585E+06  2.334995E+05  2.776689E+05 -8.618571E+04 -9.630934E+04 -4.455346E+04
       204   3  1.762106E+06  4.006476E+05  4.179203E+05 -1.507561E+05 -1.688389E+05 -1.405502E+04
       204   4  7.376902E+05 -5.136296E+03  4.588390E+04 -7.271097E+04 -3.480902E+04 -4.820816E+04
       204   5  7.195010E+05  9.870450E+03  8.015849E+04 -5.669823E+04 -7.690280E+04 -4.455236E+04
       204   6  7.375822E+05  1.470952E+05  1.724266E+05 -7.279783E+04 -1.190212E+05 -1.403871E+04
       204   7 -8.653004E+04 -2.040580E+05 -1.247008E+05 -9.166176E+04 -4.578481E+04 -4.821489E+04
       204   8 -2.017824E+05 -2.138106E+05 -1.173995E+05 -2.725513E+04 -5.752454E+04 -4.454941E+04
       204   9 -2.859642E+05 -1.065090E+05 -7.312870E+04  5.031455E+03 -6.928499E+04 -1.400992E+04
       204  10  1.562554E+06  1.937411E+05  2.164269E+05 -5.373552E+04 -9.854030E-10 -5.351073E-10
       204  11  1.641575E+06  2.334948E+05  2.776478E+05 -8.618917E+04  1.351649E-09  2.091828E-10
       204  12  1.762076E+06  4.006398E+05  4.178665E+05 -1.507580E+05  1.335883E-09  5.140193E-10
       204  13  7.376883E+05 -5.139118E+03  4.587725E+04 -7.271232E+04 -2.122328E-09 -1.130117E-09
       204  14  7.194941E+05  9.866732E+03  8.014365E+04 -5.670099E+04  8.924612E-11  6.286522E-11
       204  15  7.375670E+05  1.470912E+05  1.723997E+05 -7.279917E+04  9.011459E-10 -2.465425E-10
       204  16 -8.653292E+04 -2.040611E+05 -1.247091E+05 -9.166354E+04 -2.922577E-10 -4.539894E-10
       204  17 -2.017865E+05 -2.138136E+05 -1.174094E+05 -2.725720E+04 -2.359027E-09 -5.580747E-10
       204  18 -2.859694E+05 -1.065105E+05 -7.313809E+04  5.030673E+03 -4.334042E-10  6.971513E-10
       204  19  1.562555E+06  1.937438E+05  2.164323E+05 -5.373460E+04  2.381888E+04  4.820076E+04
       204  20  1.641585E+06  2.334995E+05  2.776689E+05 -8.618571E+04  9.630934E+04  4.455346E+04
       204  21  1.762106E+06  4.006476E+05  4.179203E+05 -1.507561E+05  1.688389E+05  1.405502E+04
       204  22  7.376902E+05 -5.136296E+03  4.588390E+04 -7.271097E+04  3.480902E+04  4.820816E+04
       204  23  7.195010E+05  9.870450E+03  8.015849E+04 -5.669823E+04  7.690280E+04  4.455236E+04
       204  24  7.375822E+05  1.470952E+05  1.724266E+05 -7.279783E+04  1.190212E+05  1.403871E+04
       204  25 -8.653004E+04 -2.040580E+05 -1.247008E+05 -9.166176E+04  4.578481E+04  4.821489E+04
       204  26 -2.017824E+05 -2.138106E+05 -1.173995E+05 -2.725513E+04  5.752454E+04  4.454941E+04
       204  27 -2.859642E+05 -1.065090E+05 -7.312870E+04  5.031455E+03  6.928499E+04  1.400992E+04
       205   1  5.998342E+05  2.196210E+06  5.928736E+05 -5.230498E+05  2.367876E+04  1.449461E+05
       205   2  3.819853E+05  1.581792E+06  3.658131E+05 -4.122015E+05  6.835690E+04  5.039506E+04
       205   3  2.282974E+05  9.957767E+05  2.161429E+05 -4.771518E+05  5.434725E+04 -4.414426E+04
       205   4  6.753903E+04  4.892990E+04  7.660063E+04 -4.824137E+05  2.388477E+04  5.071834E+04
       205   5  8.574180E+03  4.163396E+04  3.784659E+04 -3.945821E+05  6.841594E+04  3.109736E+04
       205   6  9.022641E+02  4.951013E+04  2.463668E+04 -4.825537E+05  5.420019E+04  1.139493E+04
       205   7 -4.650811E+05 -2.094117E+06 -4.399665E+05 -4.419146E+05  2.407894E+04 -4.318581E+04
       205   8 -3.649900E+05 -1.496292E+06 -2.902549E+05 -3.770051E+05  6.847399E+04  1.184667E+04
       205   9 -2.265467E+05 -8.958980E+05 -1.669044E+05 -4.879463E+05  5.405202E+04  6.685117E+04
       205  10  5.998279E+05  2.196187E+06  5.928332E+05 -5.230526E+05  9.245149E-10 -2.062111E-08
       205  11  3.819796E+05  1.581788E+06  3.657996E+05 -4.122043E+05  2.121252E-10 -2.173125E-09
       205  12  2.282937E+05  9.957738E+05  2.161338E+05 -4.771499E+05  7.276898E-10  2.187656E-08
       205  13  6.753772E+04  4.892698E+04  7.659472E+04 -4.824146E+05  1.172945E-09  6.897670E-10
       205  14  8.568892E+03  4.163166E+04  3.783597E+04 -3.945838E+05  1.038830E-09 -9.790347E-10
       205  15  8.990740E+02  4.950920E+04  2.463092E+04 -4.825542E+05 -6.259677E-10  6.471833E-10
       205  16 -4.650822E+05 -2.094120E+06 -4.399711E+05 -4.419137E+05  8.515163E-10  2.056598E-08
       205  17 -3.649951E+05 -1.496294E+06 -2.902639E+05 -3.770057E+05  2.003457E-09  1.112245E-09
       205  18 -2.265510E+05 -8.959036E+05 -1.669183E+05 -4.879492E+05 -1.819622E-09 -2.162249E-08
       205  19  5.998342E+05  2.196210E+06  5.928736E+05 -5.230498E+05 -2.367876E+04 -1.449461E+05
       205  20  3.819853E+05  1.581792E+06  3.658131E+05 -4.122015E+05 -6.835690E+04 -5.039506E+04
       205  21  2.282974E+05  9.957767E+05  2.161429E+05 -4.771518E+05 -5.434725E+04  4.414426E+04
       205  22  6.753903E+04  4.892990E+04  7.660063E+04 -4.824137E+05 -2.388477E+04 -5.071834E+04
       205  23  8.574180E+03  4.163396E+04  3.784659E+04 -3.945821E+05 -6.841594E+04 -3.109736E+04
       205  24  9.022641E+02  4.951013E+04  2.463668E+04 -4.825537E+05 -5.420019E+04 -1.139493E+04
       205  25 -4.650811E+05 -2.094117E+06 -4.399665E+05 -4.419146E+05 -2.407894E+04  4.318581E+04
       205  26 -3.649900E+05 -1.496292E+06 -2.902549E+05 -3.770051E+05 -6.847399E+04 -1.184667E+04
       205  27 -2.265467E+05 -8.958980E+05 -1.669044E+05 -4.879463E+05 -5.405202E+04 -6.685117E+04
       206   1  1.303727E+05  5.688092E+05  1.280316E+05 -4.856702E+05  2.920991E+04 -3.573882E+04
       206   2 -1.630999E+04 -3.146385E+04  3.975772E+03 -3.936028E+05 -4.767621E+03 -4.510283E+04
       206   3 -1.574929E+05 -6.296513E+05 -1.128653E+05 -4.804045E+05 -3.851235E+04 -5.445518E+04
       206   4  4.692489E+03  4.666349E+04  2.164497E+04 -4.832086E+05  2.908677E+04  7.676287E+03
       206   5  2.183931E+03  4.575173E+04  1.922385E+04 -3.937749E+05 -4.887757E+03 -2.000371E+03
       206   6  5.248206E+03  4.663412E+04  2.424056E+04 -4.832069E+05 -3.863049E+04 -1.167398E+04
       206   7 -1.210037E+05 -4.752191E+05 -8.474896E+04 -4.807488E+05  2.896391E+04  5.105557E+04
       206   8  2.067849E+04  1.229770E+05  3.447862E+04 -3.939471E+05 -5.007907E+03  4.110733E+04
       206   9  1.679619E+05  7.233592E+05  1.613295E+05 -4.860119E+05 -3.874893E+04  3.115297E+04
       206  10  1.303714E+05  5.688076E+05  1.280276E+05 -4.856694E+05 -1.386403E-10  2.765900E-09
       206  11 -1.631056E+04 -3.146604E+04  3.971906E+03 -3.936030E+05  6.076053E-10 -2.801124E-09
       206  12 -1.574953E+05 -6.296549E+05 -1.128737E+05 -4.804062E+05 -1.305778E-09 -6.550969E-10
       206  13  4.691564E+03  4.666320E+04  2.164326E+04 -4.832088E+05 -8.883191E-10  1.149166E-09
       206  14  2.183904E+03  4.575172E+04  1.922380E+04 -3.937750E+05 -3.168241E-09 -1.213092E-09
       206  15  5.246566E+03  4.663358E+04  2.423750E+04 -4.832072E+05 -2.304771E-09  7.125882E-10
       206  16 -1.210053E+05 -4.752221E+05 -8.475544E+04 -4.807500E+05 -1.759662E-09 -2.767043E-09
       206  17  2.067801E+04  1.229752E+05  3.447540E+04 -3.939469E+05 -3.284234E-09  6.550048E-10
       206  18  1.679600E+05  7.233577E+05  1.613249E+05 -4.860109E+05 -3.367702E-11  1.112028E-09
       206  19  1.303727E+05  5.688092E+05  1.280316E+05 -4.856702E+05 -2.920991E+04  3.573882E+04
       206  20 -1.630999E+04 -3.146385E+04  3.975772E+03 -3.936028E+05  4.767621E+03  4.510283E+04
       206  21 -1.574929E+05 -6.296513E+05 -1.128653E+05 -4.804045E+05  3.851235E+04  5.445518E+04
       206  22  4.692489E+03  4.666349E+04  2.164497E+04 -4.832086E+05 -2.908677E+04 -7.676287E+03
       206  23  2.183931E+03  4.575173E+04  1.922385E+04 -3.937749E+05  4.887757E+03  2.000371E+03
       206  24  5.248206E+03  4.663412E+04  2.424056E+04 -4.832069E+05  3.863049E+04  1.167398E+04
       206  25 -1.210037E+05 -4.752191E+05 -8.474896E+04 -4.807488E+05 -2.896391E+04 -5.105557E+04
       206  26  2.067849E+04  1.229770E+05  3.447862E+04 -3.939471E+05  5.007907E+03 -4.110733E+04
       206  27  1.679619E+05  7.233592E+05  1.613295E+05 -4.860119E+05  3.874893E+04 -3.115297E+04
       207   1 -2.640297E+05 -1.049618E+06 -1.936043E+05 -4.894650E+05 -6.368016E+04 -7.161622E+04
       207   2 -4.006504E+05 -1.651387E+06 -3.141209E+05 -3.734251E+05 -7.640529E+04 -1.592509E+04
       207   3 -4.878271E+05 -2.247763E+06 -4.586445E+05 -4.330170E+05 -2.642168E+04  3.979078E+04
       207   4  4.782930E+02  5.026921E+04  2.861732E+04 -4.825071E+05 -6.382370E+04 -1.586427E+04
       207   5  1.018511E+04  4.053021E+04  4.597811E+04 -3.946351E+05 -7.633556E+04 -3.981356E+04
       207   6  8.311102E+04  4.963108E+04  9.466016E+04 -4.823406E+05 -2.622117E+04 -6.368437E+04
       207   7  2.649131E+05  1.151317E+06  2.507883E+05 -4.755354E+05 -6.396581E+04  3.998470E+04
       207   8  4.208361E+05  1.735151E+06  4.059151E+05 -4.159016E+05 -7.626432E+04 -6.376619E+04
       207   9  6.536783E+05  2.351894E+06  6.476298E+05 -5.318439E+05 -2.600466E+04 -1.675417E+05
       207  10 -2.640354E+05 -1.049624E+06 -1.936216E+05 -4.894687E+05 -1.048352E-09  8.811980E-10
       207  11 -4.006568E+05 -1.651389E+06 -3.141324E+05 -3.734261E+05  1.371730E-09 -1.920809E-09
       207  12 -4.878282E+05 -2.247765E+06 -4.586488E+05 -4.330162E+05 -4.821667E-11 -2.416162E-10
       207  13  4.738501E+02  5.026785E+04  2.860919E+04 -4.825079E+05  1.121195E-09  1.084155E-09
       207  14  1.017842E+04  4.052694E+04  4.596417E+04 -3.946376E+05 -2.345825E-09 -8.681806E-10
       207  15  8.310920E+04  4.962654E+04  9.465124E+04 -4.823420E+05  4.563342E-10  3.791168E-10
       207  16  2.649083E+05  1.151314E+06  2.507776E+05 -4.755333E+05 -1.521670E-09 -5.354130E-10
       207  17  4.208288E+05  1.735145E+06  4.058966E+05 -4.159055E+05  2.523925E-10  4.477319E-10
       207  18  6.536700E+05  2.351864E+06  6.475759E+05 -5.318474E+05  2.099025E-10  2.697866E-10
       207  19 -2.640297E+05 -1.049618E+06 -1.936043E+05 -4.894650E+05  6.368016E+04  7.161622E+04
       207  20 -4.006504E+05 -1.651387E+06 -3.141209E+05 -3.734251E+05  7.640529E+04  1.592509E+04
       207  21 -4.878271E+05 -2.247763E+06 -4.586445E+05 -4.330170E+05  2.642168E+04 -3.979078E+04
       207  22  4.782930E+02  5.026921E+04  2.861732E+04 -4.825071E+05  6.382370E+04  1.586427E+04
       207  23  1.018511E+04  4.053021E+04  4.597811E+04 -3.946351E+05  7.633556E+04  3.981356E+04
       207  24  8.311102E+04  4.963108E+04  9.466016E+04 -4.823406E+05  2.622117E+04  6.368437E+04
       207  25  2.649131E+05  1.151317E+06  2.507883E+05 -4.755354E+05  6.396581E+04 -3.998470E+04
       207  26  4.208361E+05  1.735151E+06  4.059151E+05 -4.159016E+05  7.626432E+04  6.376619E+04
       207  27  6.536783E+05  2.351894E+06  6.476298E+05 -5.318439E+05  2.600466E+04  1.675417E+05
       208   1 -2.165203E+06 -8.596899E+05 -4.964229E+05 -8.301161E+05 -2.141735E+05 -6.404276E+04
       208   2 -2.075747E+06 -5.903731E+05 -3.075665E+05 -7.951723E+05 -1.361589E+05  1.470481E+03
       208   3 -2.036188E+06 -5.011901E+05 -2.290125E+05 -7.459376E+05 -4.771949E+04  3.933542E+04
       208   4 -1.270478E+06 -4.200535E+05 -2.413036E+05 -4.800082E+05 -1.602304E+05 -4.380435E+04
       208   5 -1.235437E+06 -2.390960E+05 -1.079775E+05 -5.224979E+05 -1.149878E+05  9.409549E+03
       208   6 -1.243697E+06 -2.316488E+05 -5.883416E+04 -5.507284E+05 -5.933977E+04  3.496745E+04
       208   7 -3.749532E+05  1.980957E+04  1.374899E+04 -1.293905E+05 -1.062029E+05 -2.351160E+04
       208   8 -3.944132E+05  1.122891E+05  9.156266E+04 -2.494659E+05 -9.378567E+04  1.736377E+04
       208   9 -4.505616E+05  3.792203E+04  1.113107E+05 -3.552978E+05 -7.097625E+04  3.059448E+04
       208  10 -2.165254E+06 -8.597067E+05 -4.965171E+05 -8.301272E+05  6.413367E-10  6.291632E-11
       208  11 -2.075767E+06 -5.903781E+05 -3.076014E+05 -7.951722E+05 -6.185820E-10 -6.599129E-11
       208  12 -2.036190E+06 -5.011924E+05 -2.290196E+05 -7.459361E+05  2.326292E-11 -8.844195E-11
       208  13 -1.270506E+06 -4.200625E+05 -2.413556E+05 -4.800138E+05 -5.524155E-10  7.909866E-10
       208  14 -1.235451E+06 -2.390996E+05 -1.080025E+05 -5.224970E+05 -3.366183E-10  3.320552E-10
       208  15 -1.243701E+06 -2.316510E+05 -5.884308E+04 -5.507267E+05 -1.113283E-09  1.350412E-10
       208  16 -3.749655E+05  1.980595E+04  1.372674E+04 -1.293925E+05 -1.271331E-10 -2.955458E-10
       208  17 -3.944228E+05  1.122864E+05  9.154556E+04 -2.494646E+05 -1.523195E-10 -9.517787E-10
       208  18 -4.505673E+05  3.791968E+04  1.112995E+05 -3.552961E+05 -2.513120E-10 -1.309905E-10
       208  19 -2.165203E+06 -8.596899E+05 -4.964229E+05 -8.301161E+05  2.141735E+05  6.404276E+04
       208  20 -2.075747E+06 -5.903731E+05 -3.075665E+05 -7.951723E+05  1.361589E+05 -1.470481E+03
       208  21 -2.036188E+06 -5.011901E+05 -2.290125E+05 -7.459376E+05  4.771949E+04 -3.933542E+04
       208  22 -1.270478E+06 -4.200535E+05 -2.413036E+05 -4.800082E+05  1.602304E+05  4.380435E+04
       208  23 -1.235437E+06 -2.390960E+05 -1.079775E+05 -5.224979E+05  1.149878E+05 -9.409549E+03
       208  24 -1.243697E+06 -2.316488E+05 -5.883416E+04 -5.507284E+05  5.933977E+04 -3.496745E+04
       208  25 -3.749532E+05  1.980957E+04  1.374899E+04 -1.293905E+05  1.062029E+05  2.351160E+04
       208  26 -3.944132E+05  1.122891E+05  9.156266E+04 -2.494659E+05  9.378567E+04 -1.736377E+04
       208  27 -4.505616E+05  3.792203E+04  1.113107E+05 -3.552978E+05  7.097625E+04 -3.059448E+04
       209   1 -1.939637E+06 -5.049691E+05 -2.007497E+05 -7.396618E+05 -4.557950E+04  3.429253E+04
       209   2 -1.852527E+06 -4.488111E+05 -1.565105E+05 -7.003819E+05 -2.991354E+04  3.468735E+04
       209   3 -1.747259E+06 -4.223802E+05 -1.244905E+05 -6.856093E+05 -1.368428E+04  3.357605E+04
       209   4 -1.236091E+06 -2.430668E+05 -4.557913E+04 -5.430130E+05 -5.042126E+04  3.246998E+04
       209   5 -1.244772E+06 -2.245066E+05 -2.399049E+04 -5.322008E+05 -3.653057E+04  3.220102E+04
       209   6 -1.234947E+06 -2.353139E+05 -1.320067E+04 -5.458978E+05 -2.207922E+04  3.042577E+04
       209   7 -5.320429E+05  1.887689E+04  1.095612E+05 -3.461581E+05 -5.526895E+04  3.064516E+04
       209   8 -6.366442E+05 -1.730598E+02  1.085070E+05 -3.638685E+05 -4.315459E+04  2.971206E+04
       209   9 -7.223719E+05 -4.822924E+04  9.807292E+04 -4.060815E+05 -3.048161E+04  2.727275E+04
       209  10 -1.939639E+06 -5.049709E+05 -2.007558E+05 -7.396606E+05  1.435997E-09  1.750399E-10
       209  11 -1.852528E+06 -4.488126E+05 -1.565144E+05 -7.003811E+05 -4.478835E-09 -1.041045E-09
       209  12 -1.747259E+06 -4.223815E+05 -1.244930E+05 -6.856090E+05 -4.964242E-09 -9.337008E-10
       209  13 -1.236094E+06 -2.430686E+05 -4.558589E+04 -5.430117E+05 -1.846651E-09 -6.292397E-10
       209  14 -1.244774E+06 -2.245080E+05 -2.399494E+04 -5.321999E+05 -3.600437E-09 -1.171808E-09
       209  15 -1.234948E+06 -2.353151E+05 -1.320332E+04 -5.458973E+05 -2.464971E-10 -5.482274E-10
       209  16 -5.320464E+05  1.887506E+04  1.095537E+05 -3.461567E+05 -4.668933E-09 -1.038784E-09
       209  17 -6.366464E+05 -1.745067E+02  1.085018E+05 -3.638675E+05 -4.250948E-09 -1.426003E-09
       209  18 -7.223731E+05 -4.823029E+04  9.806978E+04 -4.060808E+05  1.001794E-09 -4.794985E-10
       209  19 -1.939637E+06 -5.049691E+05 -2.007497E+05 -7.396618E+05  4.557950E+04 -3.429253E+04
       209  20 -1.852527E+06 -4.488111E+05 -1.565105E+05 -7.003819E+05  2.991354E+04 -3.468735E+04
       209  21 -1.747259E+06 -4.223802E+05 -1.244905E+05 -6.856093E+05  1.368428E+04 -3.357605E+04
       209  22 -1.236091E+06 -2.430668E+05 -4.557913E+04 -5.430130E+05  5.042126E+04 -3.246998E+04
       209  23 -1.244772E+06 -2.245066E+05 -2.399049E+04 -5.322008E+05  3.653057E+04 -3.220102E+04
       209  24 -1.234947E+06 -2.353139E+05 -1.320067E+04 -5.458978E+05  2.207922E+04 -3.042577E+04
       209  25 -5.320429E+05  1.887689E+04  1.095612E+05 -3.461581E+05  5.526895E+04 -3.064516E+04
       209  26 -6.366442E+05 -1.730598E+02  1.085070E+05 -3.638685E+05  4.315459E+04 -2.971206E+04
       209  27 -7.223719E+05 -4.822924E+04  9.807292E+04 -4.060815E+05  3.048161E+04 -2.727275E+04
       210   1 -1.675463E+06 -3.976890E+05 -1.054083E+05 -6.668225E+05 -1.064148E+04  3.005762E+04
       210   2 -1.588721E+06 -3.501320E+05 -7.990988E+04 -6.269054E+05 -5.248039E+03  2.430585E+04
       210   3 -1.479723E+06 -3.256445E+05 -5.660309E+04 -6.130519E+05  1.774580E+02  1.846212E+04
       210   4 -1.234364E+06 -2.357930E+05 -9.962947E+03 -5.455319E+05 -1.868869E+04  2.703912E+04
       210   5 -1.245465E+06 -2.241367E+05 -5.474520E+03 -5.325423E+05 -1.340285E+04  2.124864E+04
       210   6 -1.234302E+06 -2.355288E+05 -3.091832E+03 -5.456196E+05 -8.085465E+03  1.536610E+04
       210   7 -7.930642E+05 -7.388046E+04  8.547214E+04 -4.241611E+05 -2.674215E+04  2.401828E+04
       210   8 -9.020883E+05 -9.813151E+04  6.895451E+04 -4.381308E+05 -2.156257E+04  1.818960E+04
       210   9 -9.888185E+05 -1.454083E+05  5.041613E+04 -4.781627E+05 -1.635193E+04  1.226876E+04
       210  10 -1.675464E+06 -3.976900E+05 -1.054102E+05 -6.668222E+05  7.724183E-10  3.163089E-10
       210  11 -1.588721E+06 -3.501327E+05 -7.991104E+04 -6.269053E+05 -1.137097E-09 -8.691986E-10
       210  12 -1.479724E+06 -3.256448E+05 -5.660373E+04 -6.130519E+05 -9.569763E-10  1.707011E-10
       210  13 -1.234365E+06 -2.357939E+05 -9.964976E+03 -5.455315E+05  1.086903E-09 -1.378276E-10
       210  14 -1.245466E+06 -2.241372E+05 -5.475705E+03 -5.325420E+05  3.050471E-10 -9.897433E-10
       210  15 -1.234302E+06 -2.355290E+05 -3.092399E+03 -5.456195E+05 -1.880277E-09 -6.474744E-11
       210  16 -7.930651E+05 -7.388127E+04  8.546971E+04 -4.241606E+05  2.751623E-10 -1.089387E-09
       210  17 -9.020889E+05 -9.813199E+04  6.895302E+04 -4.381304E+05  6.799891E-10 -3.705613E-10
       210  18 -9.888189E+05 -1.454085E+05  5.041535E+04 -4.781626E+05  1.303905E-09  7.379105E-10
       210  19 -1.675463E+06 -3.976890E+05 -1.054083E+05 -6.668225E+05  1.064148E+04 -3.005762E+04
       210  20 -1.588721E+06 -3.501320E+05 -7.990988E+04 -6.269054E+05  5.248039E+03 -2.430585E+04
       210  21 -1.479723E+06 -3.256445E+05 -5.660309E+04 -6.130519E+05 -1.774580E+02 -1.846212E+04
       210  22 -1.234364E+06 -2.357930E+05 -9.962947E+03 -5.455319E+05  1.868869E+04 -2.703912E+04
       210  23 -1.245465E+06 -2.241367E+05 -5.474520E+03 -5.325423E+05  1.340285E+04 -2.124864E+04
       210  24 -1.234302E+06 -2.355288E+05 -3.091832E+03 -5.456196E+05  8.085465E+03 -1.536610E+04
       210  25 -7.930642E+05 -7.388046E+04  8.547214E+04 -4.241611E+05  2.674215E+04 -2.401828E+04
       210  26 -9.020883E+05 -9.813151E+04  6.895451E+04 -4.381308E+05  2.156257E+04 -1.818960E+04
       210  27 -9.888185E+05 -1.454083E+05  5.041613E+04 -4.781627E+05  1.635193E+04 -1.226876E+04
       211   1 -1.408890E+06 -2.996092E+05 -3.994112E+04 -5.936517E+05  2.136065E+03  1.458109E+04
       211   2 -1.322059E+06 -2.522216E+05 -1.808742E+04 -5.535587E+05  5.495860E+03  7.919778E+03
       211   3 -1.212555E+06 -2.276328E+05  3.197154E+03 -5.396057E+05  8.857562E+03  1.251693E+03
       211   4 -1.234217E+06 -2.355488E+05 -2.385485E+03 -5.456053E+05 -6.115811E+03  1.148985E+04
       211   5 -1.245547E+06 -2.241497E+05 -1.505322E+03 -5.325324E+05 -2.764433E+03  4.825757E+03
       211   6 -1.234212E+06 -2.355484E+05 -1.187482E+03 -5.456033E+05  5.887269E+02 -1.845145E+03
       211   7 -1.059513E+06 -1.714863E+05  3.516835E+04 -4.975468E+05 -1.437014E+04  8.397692E+03
       211   8 -1.169028E+06 -1.960772E+05  1.507672E+04 -5.115038E+05 -1.102583E+04  1.731325E+03
       211   9 -1.255868E+06 -2.434639E+05 -5.571889E+03 -5.516007E+05 -7.679853E+03 -4.941888E+03
       211  10 -1.408890E+06 -2.996095E+05 -3.994153E+04 -5.936517E+05  1.320663E-09  1.461252E-09
       211  11 -1.322059E+06 -2.522217E+05 -1.808759E+04 -5.535587E+05  1.018974E-09  9.908146E-10
       211  12 -1.212555E+06 -2.276328E+05  3.197003E+03 -5.396057E+05  1.558525E-09  1.484619E-09
       211  13 -1.234217E+06 -2.355490E+05 -2.385804E+03 -5.456053E+05 -7.851867E-10  5.584807E-10
       211  14 -1.245547E+06 -2.241497E+05 -1.505381E+03 -5.325324E+05 -5.174560E-10 -6.370400E-11
       211  15 -1.234212E+06 -2.355484E+05 -1.187489E+03 -5.456033E+05 -5.138566E-10 -1.548889E-10
       211  16 -1.059513E+06 -1.714865E+05  3.516783E+04 -4.975467E+05 -9.851276E-10 -4.729449E-10
       211  17 -1.169028E+06 -1.960773E+05  1.507648E+04 -5.115038E+05 -3.956749E-10 -1.240753E-09
       211  18 -1.255868E+06 -2.434639E+05 -5.572046E+03 -5.516007E+05 -5.821269E-10 -1.217965E-09
       211  19 -1.408890E+06 -2.996092E+05 -3.994112E+04 -5.936517E+05 -2.136065E+03 -1.458109E+04
       211  20 -1.322059E+06 -2.522216E+05 -1.808742E+04 -5.535587E+05 -5.495860E+03 -7.919778E+03
       211  21 -1.212555E+06 -2.276328E+05  3.197154E+03 -5.396057E+05 -8.857562E+03 -1.251693E+03
       211  22 -1.234217E+06 -2.355488E+05 -2.385485E+03 -5.456053E+05  6.115811E+03 -1.148985E+04
       211  23 -1.245547E+06 -2.241497E+05 -1.505322E+03 -5.325324E+05  2.764433E+03 -4.825757E+03
       211  24 -1.234212E+06 -2.355484E+05 -1.187482E+03 -5.456033E+05 -5.887269E+02  1.845145E+03
       211  25 -1.059513E+06 -1.714863E+05  3.516835E+04 -4.975468E+05  1.437014E+04 -8.397692E+03
       211  26 -1.169028E+06 -1.960772E+05  1.507672E+04 -5.115038E+05  1.102583E+04 -1.731325E+03
       211  27 -1.255868E+06 -2.434639E+05 -5.571889E+03 -5.516007E+05  7.679853E+03  4.941888E+03
       212   1 -1.141750E+06 -2.015131E+05  1.916738E+04 -5.201491E+05  1.057000E+04 -2.722471E+03
       212   2 -1.054987E+06 -1.541695E+05  3.977634E+04 -4.800735E+05  1.392095E+04 -9.388686E+03
       212   3 -9.455619E+05 -1.296026E+05  5.982510E+04 -4.661128E+05  1.726929E+04 -1.604352E+04
       212   4 -1.234217E+06 -2.355460E+05 -1.191148E+03 -5.455980E+05  2.302801E+03 -5.818877E+03
       212   5 -1.245550E+06 -2.241666E+05 -1.528424E+03 -5.325372E+05  5.666101E+03 -1.248141E+04
       212   6 -1.234233E+06 -2.355674E+05 -2.435505E+03 -5.455958E+05  9.026656E+03 -1.913257E+04
       212   7 -1.326674E+06 -2.695781E+05 -2.154989E+04 -5.710433E+05 -5.963065E+03 -8.914784E+03
       212   8 -1.436075E+06 -2.941604E+05 -4.283485E+04 -5.849860E+05 -2.585975E+03 -1.557310E+04
       212   9 -1.522817E+06 -3.415248E+05 -6.470011E+04 -6.250442E+05  7.882226E+02 -2.222005E+04
       212  10 -1.141750E+06 -2.015131E+05  1.916715E+04 -5.201490E+05  1.940606E-08  8.534603E-09
       212  11 -1.054987E+06 -1.541697E+05  3.977581E+04 -4.800734E+05  4.627381E-09  3.751936E-09
       212  12 -9.455623E+05 -1.296030E+05  5.982405E+04 -4.661126E+05 -1.722092E-08 -6.350431E-09
       212  13 -1.234217E+06 -2.355460E+05 -1.191221E+03 -5.455979E+05  2.969077E-09  1.396092E-09
       212  14 -1.245550E+06 -2.241667E+05 -1.528777E+03 -5.325372E+05  4.022467E-09  3.801097E-09
       212  15 -1.234233E+06 -2.355679E+05 -2.436346E+03 -5.455957E+05  2.175329E-09  1.481236E-09
       212  16 -1.326675E+06 -2.695782E+05 -2.155011E+04 -5.710434E+05 -1.639727E-08 -6.511600E-09
       212  17 -1.436076E+06 -2.941607E+05 -4.283532E+04 -5.849860E+05  4.686581E-09  3.694036E-09
       212  18 -1.522817E+06 -3.415253E+05 -6.470104E+04 -6.250442E+05  1.988870E-08  8.928144E-09
       212  19 -1.141750E+06 -2.015131E+05  1.916738E+04 -5.201491E+05 -1.057000E+04  2.722471E+03
       212  20 -1.054987E+06 -1.541695E+05  3.977634E+04 -4.800735E+05 -1.392095E+04  9.388686E+03
       212  21 -9.455619E+05 -1.296026E+05  5.982510E+04 -4.661128E+05 -1.726929E+04  1.604352E+04
       212  22 -1.234217E+06 -2.355460E+05 -1.191148E+03 -5.455980E+05 -2.302801E+03  5.818877E+03
       212  23 -1.245550E+06 -2.241666E+05 -1.528424E+03 -5.325372E+05 -5.666101E+03  1.248141E+04
       212  24 -1.234233E+06 -2.355674E+05 -2.435505E+03 -5.455958E+05 -9.026656E+03  1.913257E+04
       212  25 -1.326674E+06 -2.695781E+05 -2.154989E+04 -5.710433E+05  5.963065E+03  8.914784E+03
       212  26 -1.436075E+06 -2.941604E+05 -4.283485E+04 -5.849860E+05  2.585975E+03  1.557310E+04
       212  27 -1.522817E+06 -3.415248E+05 -6.470011E+04 -6.250442E+05 -7.882226E+02  2.222005E+04
       213   1 -8.749867E+05 -1.035507E+05  7.503013E+04 -4.467355E+05  1.925714E+04 -1.990493E+04
       213   2 -7.884880E+05 -5.638101E+04  9.345625E+04 -4.067787E+05  2.451086E+04 -2.578771E+04
       213   3 -6.797377E+05 -3.217963E+04  1.098305E+05 -3.928041E+05  2.972948E+04 -3.156500E+04
       213   4 -1.234328E+06 -2.355410E+05 -3.159153E+03 -5.455985E+05  1.100446E+04 -2.299871E+04
       213   5 -1.245473E+06 -2.241883E+05 -5.602876E+03 -5.325570E+05  1.637994E+04 -2.883813E+04
       213   6 -1.234401E+06 -2.358314E+05 -1.019657E+04 -5.455039E+05  2.171983E+04 -3.457214E+04
       213   7 -1.593541E+06 -3.675222E+05 -8.135654E+04 -6.444096E+05  2.756894E+03 -2.609058E+04
       213   8 -1.702247E+06 -3.919797E+05 -1.046745E+05 -6.582506E+05  8.255467E+03 -3.188615E+04
       213   9 -1.788752E+06 -4.394589E+05 -1.302415E+05 -6.980783E+05  1.371792E+04 -3.757640E+04
       213  10 -8.749873E+05 -1.035512E+05  7.502869E+04 -4.467352E+05 -1.027626E-09 -1.444931E-09
       213  11 -7.884888E+05 -5.638189E+04  9.345387E+04 -4.067782E+05  4.603698E-10 -5.306847E-10
       213  12 -6.797389E+05 -3.218094E+04  1.098270E+05 -3.928033E+05  1.047516E-11 -8.606409E-10
       213  13 -1.234328E+06 -2.355416E+05 -3.160374E+03 -5.455983E+05 -1.238770E-10 -1.782376E-10
       213  14 -1.245473E+06 -2.241892E+05 -5.604942E+03 -5.325566E+05  2.646066E-09 -1.346509E-10
       213  15 -1.234402E+06 -2.358328E+05 -1.019970E+04 -5.455033E+05  1.492544E-09 -6.258711E-10
       213  16 -1.593541E+06 -3.675229E+05 -8.135784E+04 -6.444095E+05  1.499469E-09  1.061647E-09
       213  17 -1.702247E+06 -3.919808E+05 -1.046765E+05 -6.582504E+05  1.731283E-09 -6.775490E-10
       213  18 -1.788752E+06 -4.394604E+05 -1.302445E+05 -6.980779E+05  8.956220E-10 -6.430090E-10
       213  19 -8.749867E+05 -1.035507E+05  7.503013E+04 -4.467355E+05 -1.925714E+04  1.990493E+04
       213  20 -7.884880E+05 -5.638101E+04  9.345625E+04 -4.067787E+05 -2.451086E+04  2.578771E+04
       213  21 -6.797377E+05 -3.217963E+04  1.098305E+05 -3.928041E+05 -2.972948E+04  3.156500E+04
       213  22 -1.234328E+06 -2.355410E+05 -3.159153E+03 -5.455985E+05 -1.100446E+04  2.299871E+04
       213  23 -1.245473E+06 -2.241883E+05 -5.602876E+03 -5.325570E+05 -1.637994E+04  2.883813E+04
       213  24 -1.234401E+06 -2.358314E+05 -1.019657E+04 -5.455039E+05 -2.171983E+04  3.457214E+04
       213  25 -1.593541E+06 -3.675222E+05 -8.135654E+04 -6.444096E+05 -2.756894E+03  2.609058E+04
       213  26 -1.702247E+06 -3.919797E+05 -1.046745E+05 -6.582506E+05 -8.255467E+03  3.188615E+04
       213  27 -1.788752E+06 -4.394589E+05 -1.302415E+05 -6.980783E+05 -1.371792E+04  3.757640E+04
       214   1 -6.092892E+05 -6.602735E+03  1.222964E+05 -3.747892E+05  3.354769E+04 -3.478168E+04
       214   2 -5.239666E+05  4.131669E+04  1.324397E+05 -3.326521E+05  4.627561E+04 -3.709376E+04
       214   3 -4.198974E+05  6.020050E+04  1.331107E+05 -3.148621E+05  5.838190E+04 -3.773169E+04
       214   4 -1.235010E+06 -2.353378E+05 -1.351125E+04 -5.458713E+05  2.515261E+04 -3.793509E+04
       214   5 -1.244769E+06 -2.245953E+05 -2.455707E+04 -5.322154E+05  3.985665E+04 -3.950896E+04
       214   6 -1.236187E+06 -2.432889E+05 -4.665192E+04 -5.429122E+05  5.393702E+04 -3.940835E+04
       214   7 -1.860329E+06 -4.640414E+05 -1.493406E+05 -7.167943E+05  1.676674E+04 -4.108510E+04
       214   8 -1.965044E+06 -4.904655E+05 -1.815847E+05 -7.315656E+05  3.344573E+04 -4.192113E+04
       214   9 -2.051808E+06 -5.467249E+05 -2.264567E+05 -7.706871E+05  4.949840E+04 -4.108262E+04
       214  10 -6.092908E+05 -6.604334E+03  1.222920E+05 -3.747883E+05  6.038093E-10 -8.408857E-10
       214  11 -5.239693E+05  4.131464E+04  1.324331E+05 -3.326507E+05  2.334006E-10 -3.434467E-10
       214  12 -4.199015E+05  6.019805E+04  1.331016E+05 -3.148603E+05  1.098618E-09  1.038266E-10
       214  13 -1.235011E+06 -2.353395E+05 -1.351514E+04 -5.458706E+05  1.550381E-11 -6.294139E-10
       214  14 -1.244771E+06 -2.245974E+05 -2.456299E+04 -5.322142E+05  5.496265E-10 -3.791358E-10
       214  15 -1.236191E+06 -2.432914E+05 -4.666030E+04 -5.429104E+05  2.060135E-10 -2.143178E-10
       214  16 -1.860330E+06 -4.640433E+05 -1.493443E+05 -7.167937E+05  4.461274E-10 -1.749864E-10
       214  17 -1.965046E+06 -4.904677E+05 -1.815901E+05 -7.315644E+05 -2.878553E-10 -7.131030E-11
       214  18 -2.051811E+06 -5.467273E+05 -2.264645E+05 -7.706855E+05 -7.093187E-10  2.780592E-10
       214  19 -6.092892E+05 -6.602735E+03  1.222964E+05 -3.747892E+05 -3.354769E+04  3.478168E+04
       214  20 -5.239666E+05  4.131669E+04  1.324397E+05 -3.326521E+05 -4.627561E+04  3.709376E+04
       214  21 -4.198974E+05  6.020050E+04  1.331107E+05 -3.148621E+05 -5.838190E+04  3.773169E+04
       214  22 -1.235010E+06 -2.353378E+05 -1.351125E+04 -5.458713E+05 -2.515261E+04  3.793509E+04
       214  23 -1.244769E+06 -2.245953E+05 -2.455707E+04 -5.322154E+05 -3.985665E+04  3.950896E+04
       214  24 -1.236187E+06 -2.432889E+05 -4.665192E+04 -5.429122E+05 -5.393702E+04  3.940835E+04
       214  25 -1.860329E+06 -4.640414E+05 -1.493406E+05 -7.167943E+05 -1.676674E+04  4.108510E+04
       214  26 -1.965044E+06 -4.904655E+05 -1.815847E+05 -7.315656E+05 -3.344573E+04  4.192113E+04
       214  27 -2.051808E+06 -5.467249E+05 -2.264567E+05 -7.706871E+05 -4.949840E+04  4.108262E+04
       215   1 -3.384353E+05  7.901278E+04  1.343899E+05 -3.246608E+05  7.504406E+04 -3.743883E+04
       215   2 -2.837075E+05  1.538531E+05  1.143430E+05 -2.176507E+05  9.510416E+04 -2.381763E+04
       215   3 -2.666933E+05  5.930421E+04  3.714673E+04 -9.516015E+04  1.036150E+05  2.049499E+04
       215   4 -1.243996E+06 -2.315829E+05 -6.021792E+04 -5.507786E+05  6.306117E+04 -4.194731E+04
       215   5 -1.235200E+06 -2.395735E+05 -1.105195E+05 -5.223196E+05  1.195849E+05 -1.462512E+04
       215   6 -1.271459E+06 -4.243569E+05 -2.469735E+05 -4.783645E+05  1.645435E+05  4.340445E+04
       215   7 -2.148727E+06 -5.421409E+05 -2.548724E+05 -7.766050E+05  5.109718E+04 -4.644984E+04
       215   8 -2.185770E+06 -6.328653E+05 -3.354414E+05 -8.265363E+05  1.440248E+05 -5.452065E+03
       215   9 -2.275194E+06 -9.077430E+05 -5.311683E+05 -8.609372E+05  2.253633E+05  6.624691E+04
       215  10 -3.384417E+05  7.900976E+04  1.343767E+05 -3.246586E+05  1.123874E-09  6.543592E-10
       215  11 -2.837174E+05  1.538501E+05  1.143249E+05 -2.176489E+05 -5.014686E-10  1.535354E-09
       215  12 -2.667050E+05  5.930088E+04  3.712575E+04 -9.516186E+04 -5.081870E-10  9.883988E-10
       215  13 -1.244001E+06 -2.315859E+05 -6.022870E+04 -5.507765E+05  4.664785E-10 -3.997625E-10
       215  14 -1.235215E+06 -2.395776E+05 -1.105468E+05 -5.223182E+05  3.130836E-10 -9.726323E-10
       215  15 -1.271489E+06 -4.243662E+05 -2.470281E+05 -4.783703E+05 -3.604868E-10  5.956266E-10
       215  16 -2.148731E+06 -5.421439E+05 -2.548814E+05 -7.766031E+05 -1.926013E-09  4.222756E-10
       215  17 -2.185792E+06 -6.328710E+05 -3.354806E+05 -8.265357E+05 -3.462139E-10 -1.386736E-09
       215  18 -2.275250E+06 -9.077614E+05 -5.312724E+05 -8.609493E+05 -1.012251E-09 -4.861881E-11
       215  19 -3.384353E+05  7.901278E+04  1.343899E+05 -3.246608E+05 -7.504406E+04  3.743883E+04
       215  20 -2.837075E+05  1.538531E+05  1.143430E+05 -2.176507E+05 -9.510416E+04  2.381763E+04
       215  21 -2.666933E+05  5.930421E+04  3.714673E+04 -9.516015E+04 -1.036150E+05 -2.049499E+04
       215  22 -1.243996E+06 -2.315829E+05 -6.021792E+04 -5.507786E+05 -6.306117E+04  4.194731E+04
       215  23 -1.235200E+06 -2.395735E+05 -1.105195E+05 -5.223196E+05 -1.195849E+05  1.462512E+04
       215  24 -1.271459E+06 -4.243569E+05 -2.469735E+05 -4.783645E+05 -1.645435E+05 -4.340445E+04
       215  25 -2.148727E+06 -5.421409E+05 -2.548724E+05 -7.766050E+05 -5.109718E+04  4.644984E+04
       215  26 -2.185770E+06 -6.328653E+05 -3.354414E+05 -8.265363E+05 -1.440248E+05  5.452065E+03
       215  27 -2.275194E+06 -9.077430E+05 -5.311683E+05 -8.609372E+05 -2.253633E+05 -6.624691E+04
       216   1 -7.143270E+04 -5.616583E+04 -2.280547E+04  1.226288E+04  8.313577E+04  1.224469E+04
       216   2  1.317332E+04 -1.730387E+05 -7.582107E+04 -2.895389E+04  6.580730E+04  3.899187E+04
       216   3  1.302627E+05 -1.697796E+05 -8.749081E+04 -9.899338E+04  4.849546E+04  4.247704E+04
       216   4  8.240411E+05  1.653857E+05  1.908611E+05 -8.035643E+04  1.321033E+05  1.226979E+04
       216   5  8.053187E+05  1.840056E+04  8.985997E+04 -6.589672E+04  8.513214E+04  3.899595E+04
       216   6  8.241562E+05 -3.406589E+03  5.073163E+04 -8.025179E+04  3.818260E+04  4.247045E+04
       216   7  1.720274E+06  3.869129E+05  4.044850E+05 -1.731100E+05  1.811410E+05  1.228027E+04
       216   8  1.598061E+06  2.098050E+05  2.555084E+05 -1.028875E+05  1.044812E+05  3.899773E+04
       216   9  1.518510E+06  1.629384E+05  1.889306E+05 -6.148885E+04  2.785843E+04  4.246323E+04
       216  10 -7.144016E+04 -5.616785E+04 -2.281874E+04  1.226206E+04  2.271555E-08 -7.054550E-10
       216  11  1.316826E+04 -1.730415E+05 -7.583207E+04 -2.895596E+04 -1.520548E-09  7.829891E-10
       216  12  1.302596E+05 -1.697822E+05 -8.749862E+04 -9.899504E+04 -2.732206E-08  6.196308E-10
       216  13  8.240224E+05  1.653808E+05  1.908281E+05 -8.035773E+04 -5.430582E-10  9.119400E-10
       216  14  8.053105E+05  1.839699E+04  8.984351E+04 -6.589939E+04 -1.385625E-09  8.674307E-10
       216  15  8.241541E+05 -3.408917E+03  5.072550E+04 -8.025310E+04 -1.805606E-09  2.495670E-10
       216  16  1.720238E+06  3.869040E+05  4.044233E+05 -1.731118E+05 -2.223371E-08  1.054485E-09
       216  17  1.598049E+06  2.098005E+05  2.554850E+05 -1.028908E+05  3.134588E-09  1.422539E-09
       216  18  1.518509E+06  1.629362E+05  1.889257E+05 -6.148980E+04  2.666627E-08  1.561079E-09
       216  19 -7.143270E+04 -5.616583E+04 -2.280547E+04  1.226288E+04 -8.313577E+04 -1.224469E+04
       216  20  1.317332E+04 -1.730387E+05 -7.582107E+04 -2.895389E+04 -6.580730E+04 -3.899187E+04
       216  21  1.302627E+05 -1.697796E+05 -8.749081E+04 -9.899338E+04 -4.849546E+04 -4.247704E+04
       216  22  8.240411E+05  1.653857E+05  1.908611E+05 -8.035643E+04 -1.321033E+05 -1.226979E+04
       216  23  8.053187E+05  1.840056E+04  8.985997E+04 -6.589672E+04 -8.513214E+04 -3.899595E+04
       216  24  8.241562E+05 -3.406589E+03  5.073163E+04 -8.025179E+04 -3.818260E+04 -4.247045E+04
       216  25  1.720274E+06  3.869129E+05  4.044850E+05 -1.731100E+05 -1.811410E+05 -1.228027E+04
       216  26  1.598061E+06  2.098050E+05  2.555084E+05 -1.028875E+05 -1.044812E+05 -3.899773E+04
       216  27  1.518510E+06  1.629384E+05  1.889306E+05 -6.148885E+04 -2.785843E+04 -4.246323E+04
       217   1  1.938992E+05 -1.430804E+05 -8.468481E+04 -7.867104E+04  3.657976E+04  3.798571E+04
       217   2  2.927676E+05 -1.247978E+05 -8.129223E+04 -6.534699E+04  2.751227E+04  3.317980E+04
       217   3  3.941785E+05 -1.014171E+05 -7.070313E+04 -8.189820E+04  1.844107E+04  2.698924E+04
       217   4  8.164502E+05  6.181499E+03  3.941684E+04 -8.051072E+04  3.137064E+04  3.798089E+04
       217   5  8.150520E+05  1.999898E+02  2.172551E+04 -6.557348E+04  2.053106E+04  3.317610E+04
       217   6  8.164903E+05 -3.788968E+02  1.245402E+04 -8.050970E+04  9.689197E+03  2.698720E+04
       217   7  1.439371E+06  1.554197E+05  1.634992E+05 -8.235229E+04  2.615639E+04  3.797609E+04
       217   8  1.337597E+06  1.251813E+05  1.247301E+05 -6.580017E+04  1.354409E+04  3.317240E+04
       217   9  1.238973E+06  1.006485E+05  9.560278E+04 -7.912022E+04  9.314980E+02  2.698512E+04
       217  10  1.938974E+05 -1.430823E+05 -8.469004E+04 -7.867216E+04 -1.731627E-09  3.682455E-10
       217  11  2.927665E+05 -1.247992E+05 -8.129572E+04 -6.534772E+04 -6.364274E-11 -6.672327E-10
       217  12  3.941779E+05 -1.014179E+05 -7.070514E+04 -8.189860E+04 -2.522262E-09 -1.004858E-09
       217  13  8.164487E+05  6.179686E+03  3.941228E+04 -8.051168E+04 -1.217075E-09  6.997378E-10
       217  14  8.150513E+05  1.986944E+02  2.172265E+04 -6.557403E+04 -1.634188E-09 -6.144150E-10
       217  15  8.164900E+05 -3.797044E+02  1.245248E+04 -8.050991E+04 -1.248201E-09 -9.982251E-10
       217  16  1.439370E+06  1.554179E+05  1.634952E+05 -8.235309E+04  1.925665E-09  2.341200E-10
       217  17  1.337597E+06  1.251800E+05  1.247277E+05 -6.580054E+04  2.079224E-09 -1.015473E-09
       217  18  1.238973E+06  1.006477E+05  9.560141E+04 -7.912024E+04  1.067014E-09 -9.699584E-10
       217  19  1.938992E+05 -1.430804E+05 -8.468481E+04 -7.867104E+04 -3.657976E+04 -3.798571E+04
       217  20  2.927676E+05 -1.247978E+05 -8.129223E+04 -6.534699E+04 -2.751227E+04 -3.317980E+04
       217  21  3.941785E+05 -1.014171E+05 -7.070313E+04 -8.189820E+04 -1.844107E+04 -2.698924E+04
       217  22  8.164502E+05  6.181499E+03  3.941684E+04 -8.051072E+04 -3.137064E+04 -3.798089E+04
       217  23  8.150520E+05  1.999898E+02  2.172551E+04 -6.557348E+04 -2.053106E+04 -3.317610E+04
       217  24  8.164903E+05 -3.788968E+02  1.245402E+04 -8.050970E+04 -9.689197E+03 -2.698720E+04
       217  25  1.439371E+06  1.554197E+05  1.634992E+05 -8.235229E+04 -2.615639E+04 -3.797609E+04
       217  26  1.337597E+06  1.251813E+05  1.247301E+05 -6.580017E+04 -1.354409E+04 -3.317240E+04
       217  27  1.238973E+06  1.006485E+05  9.560278E+04 -7.912022E+04 -9.314980E+02 -2.698512E+04
       218   1  4.639975E+05 -8.408124E+04 -5.940447E+04 -8.093315E+04  1.619378E+04  2.300068E+04
       218   2  5.636668E+05 -6.040124E+04 -4.406137E+04 -6.588106E+04  1.362928E+04  1.632653E+04
       218   3  6.637543E+05 -3.649834E+04 -2.698934E+04 -8.069755E+04  1.106284E+04  9.572828E+03
       218   4  8.159661E+05  3.923642E+01  9.477324E+03 -8.050888E+04  7.752645E+03  2.299952E+04
       218   5  8.157611E+05 -1.302154E+02  5.392549E+03 -6.557500E+04  5.084921E+03  1.632629E+04
       218   6  8.159835E+05 -5.828732E+01  3.107704E+03 -8.050901E+04  2.415660E+03  9.573570E+03
       218   7  1.168053E+06  8.415230E+04  7.835343E+04 -8.008435E+04 -6.931700E+02  2.299834E+04
       218   8  1.067916E+06  6.013702E+04  5.484367E+04 -6.526881E+04 -3.462829E+03  1.632605E+04
       218   9  9.682349E+05  3.638040E+04  3.320388E+04 -8.032042E+04 -6.233595E+03  9.574307E+03
       218  10  4.639971E+05 -8.408188E+04 -5.940596E+04 -8.093345E+04 -2.266127E-09 -4.468663E-10
       218  11  5.636665E+05 -6.040158E+04 -4.406222E+04 -6.588124E+04 -1.397643E-09  3.927216E-10
       218  12  6.637542E+05 -3.649847E+04 -2.698974E+04 -8.069764E+04 -1.366318E-09  1.607330E-10
       218  13  8.159659E+05  3.865203E+01  9.476217E+03 -8.050902E+04 -2.282456E-10 -1.969684E-10
       218  14  8.157610E+05 -1.305087E+02  5.391999E+03 -6.557507E+04  1.603560E-11  2.773039E-10
       218  15  8.159834E+05 -5.838734E+01  3.107521E+03 -8.050903E+04  8.451230E-10  2.482592E-10
       218  16  1.168053E+06  8.415174E+04  7.835244E+04 -8.008433E+04  2.216521E-11 -3.410969E-10
       218  17  1.067916E+06  6.013673E+04  5.484315E+04 -6.526877E+04 -1.013292E-10  6.215118E-11
       218  18  9.682348E+05  3.638029E+04  3.320364E+04 -8.032037E+04  2.135354E-09  5.032944E-11
       218  19  4.639975E+05 -8.408124E+04 -5.940447E+04 -8.093315E+04 -1.619378E+04 -2.300068E+04
       218  20  5.636668E+05 -6.040124E+04 -4.406137E+04 -6.588106E+04 -1.362928E+04 -1.632653E+04
       218  21  6.637543E+05 -3.649834E+04 -2.698934E+04 -8.069755E+04 -1.106284E+04 -9.572828E+03
       218  22  8.159661E+05  3.923642E+01  9.477324E+03 -8.050888E+04 -7.752645E+03 -2.299952E+04
       218  23  8.157611E+05 -1.302154E+02  5.392549E+03 -6.557500E+04 -5.084921E+03 -1.632629E+04
       218  24  8.159835E+05 -5.828732E+01  3.107704E+03 -8.050901E+04 -2.415660E+03 -9.573570E+03
       218  25  1.168053E+06  8.415230E+04  7.835343E+04 -8.008435E+04  6.931700E+02 -2.299834E+04
       218  26  1.067916E+06  6.013702E+04  5.484367E+04 -6.526881E+04  3.462829E+03 -1.632605E+04
       218  27  9.682349E+05  3.638040E+04  3.320388E+04 -8.032042E+04  6.233595E+03 -9.574307E+03
       219   1  7.338790E+05 -1.959751E+04 -1.347218E+04 -8.064143E+04  1.054701E+04  5.620916E+03
       219   2  8.336413E+05  4.217316E+03  4.849306E+03 -6.567050E+04  9.878069E+03 -1.157844E+03
       219   3  9.335076E+05  2.804262E+04  2.360872E+04 -8.054954E+04  9.209133E+03 -7.941574E+03
       219   4  8.159128E+05 -3.814995E+01  2.362281E+03 -8.050504E+04  1.919543E+03  5.621925E+03
       219   5  8.158654E+05 -3.095185E+01  1.367275E+03 -6.558005E+04  1.243475E+03 -1.156918E+03
       219   6  8.159120E+05 -1.199754E+01  8.145740E+02 -8.050508E+04  5.675130E+02 -7.940702E+03
       219   7  8.979532E+05  1.952085E+04  1.819671E+04 -8.036864E+04 -6.709034E+03  5.622929E+03
       219   8  7.980900E+05 -4.279199E+03 -2.114492E+03 -6.548959E+04 -7.390876E+03 -1.155995E+03
       219   9  6.983298E+05 -2.806740E+04 -2.197994E+04 -8.046062E+04 -8.072509E+03 -7.939831E+03
       219  10  7.338789E+05 -1.959757E+04 -1.347245E+04 -8.064148E+04 -2.228497E-08 -8.743493E-10
       219  11  8.336412E+05  4.217289E+03  4.849121E+03 -6.567049E+04  2.768422E-10 -1.891657E-09
       219  12  9.335075E+05  2.804253E+04  2.360844E+04 -8.054948E+04  2.195183E-08 -5.570798E-10
       219  13  8.159128E+05 -3.818490E+01  2.362214E+03 -8.050505E+04  2.133151E-09 -7.645710E-10
       219  14  8.158654E+05 -3.095370E+01  1.367269E+03 -6.558004E+04 -6.810179E-10 -1.698323E-09
       219  15  8.159120E+05 -1.206536E+01  8.144549E+02 -8.050507E+04 -9.371457E-10 -5.792460E-10
       219  16  8.979531E+05  1.952080E+04  1.819657E+04 -8.036861E+04  2.272163E-08 -7.428141E-10
       219  17  7.980899E+05 -4.279215E+03 -2.114597E+03 -6.548960E+04 -9.831058E-10 -1.708808E-09
       219  18  6.983297E+05 -2.806748E+04 -2.198018E+04 -8.046067E+04 -2.133918E-08 -5.144952E-10
       219  19  7.338790E+05 -1.959751E+04 -1.347218E+04 -8.064143E+04 -1.054701E+04 -5.620916E+03
       219  20  8.336413E+05  4.217316E+03  4.849306E+03 -6.567050E+04 -9.878069E+03  1.157844E+03
       219  21  9.335076E+05  2.804262E+04  2.360872E+04 -8.054954E+04 -9.209133E+03  7.941574E+03
       219  22  8.159128E+05 -3.814995E+01  2.362281E+03 -8.050504E+04 -1.919543E+03 -5.621925E+03
       219  23  8.158654E+05 -3.095185E+01  1.367275E+03 -6.558005E+04 -1.243475E+03  1.156918E+03
       219  24  8.159120E+05 -1.199754E+01  8.145740E+02 -8.050508E+04 -5.675130E+02  7.940702E+03
       219  25  8.979532E+05  1.952085E+04  1.819671E+04 -8.036864E+04  6.709034E+03 -5.622929E+03
       219  26  7.980900E+05 -4.279199E+03 -2.114492E+03 -6.548959E+04  7.390876E+03  1.155995E+03
       219  27  6.983298E+05 -2.806740E+04 -2.197994E+04 -8.046062E+04  8.072509E+03  7.939831E+03
       220   1  1.003711E+06  4.491978E+04  3.769950E+04 -8.055389E+04  9.079696E+03 -1.189177E+04
       220   2  1.103617E+06  6.873140E+04  5.681974E+04 -6.557753E+04  8.866540E+03 -1.867859E+04
       220   3  1.203584E+06  9.254012E+04  7.608272E+04 -8.048195E+04  8.655190E+03 -2.546376E+04
       220   4  8.158983E+05 -1.556244E+01  6.417727E+02 -8.051210E+04  4.344692E+02 -1.189125E+04
       220   5  8.158632E+05 -3.472963E+01  4.279709E+02 -6.557129E+04  2.228396E+02 -1.867919E+04
       220   6  8.158801E+05 -5.658489E+01  3.558584E+02 -8.051210E+04  1.304927E+01 -2.546544E+04
       220   7  6.281191E+05 -4.495300E+04 -3.641740E+04 -8.047031E+04 -8.208201E+03 -1.189073E+04
       220   8  5.281889E+05 -6.880580E+04 -5.596751E+04 -6.556505E+04 -8.416947E+03 -1.867978E+04
       220   9  4.283198E+05 -9.266227E+04 -7.537791E+04 -8.054222E+04 -8.623821E+03 -2.546712E+04
       220  10  1.003711E+06  4.491961E+04  3.769908E+04 -8.055380E+04  4.567344E-10  4.377363E-10
       220  11  1.103617E+06  6.873100E+04  5.681894E+04 -6.557740E+04  6.055120E-10  5.588772E-10
       220  12  1.203584E+06  9.253940E+04  7.608136E+04 -8.048178E+04 -1.312006E-09  7.345846E-11
       220  13  8.158983E+05 -1.571438E+01  6.415065E+02 -8.051209E+04  4.578485E-11  3.498908E-10
       220  14  8.158631E+05 -3.510445E+01  4.273149E+02 -6.557128E+04  1.166971E-09  7.409240E-10
       220  15  8.158800E+05 -5.728152E+01  3.546393E+02 -8.051210E+04 -2.498830E-10  3.632694E-10
       220  16  6.281190E+05 -4.495317E+04 -3.641780E+04 -8.047039E+04 -1.797943E-09  3.757136E-10
       220  17  5.281887E+05 -6.880619E+04 -5.596830E+04 -6.556517E+04 -2.243188E-09  3.592726E-10
       220  18  4.283196E+05 -9.266299E+04 -7.537927E+04 -8.054240E+04 -2.171227E-09  5.624594E-10
       220  19  1.003711E+06  4.491978E+04  3.769950E+04 -8.055389E+04 -9.079696E+03  1.189177E+04
       220  20  1.103617E+06  6.873140E+04  5.681974E+04 -6.557753E+04 -8.866540E+03  1.867859E+04
       220  21  1.203584E+06  9.254012E+04  7.608272E+04 -8.048195E+04 -8.655190E+03  2.546376E+04
       220  22  8.158983E+05 -1.556244E+01  6.417727E+02 -8.051210E+04 -4.344692E+02  1.189125E+04
       220  23  8.158632E+05 -3.472963E+01  4.279709E+02 -6.557129E+04 -2.228396E+02  1.867919E+04
       220  24  8.158801E+05 -5.658489E+01  3.558584E+02 -8.051210E+04 -1.304927E+01  2.546544E+04
       220  25  6.281191E+05 -4.495300E+04 -3.641740E+04 -8.047031E+04  8.208201E+03  1.189073E+04
       220  26  5.281889E+05 -6.880580E+04 -5.596751E+04 -6.556505E+04  8.416947E+03  1.867978E+04
       220  27  4.283198E+05 -9.266227E+04 -7.537791E+04 -8.054222E+04  8.623821E+03  2.546712E+04
       221   1  1.273965E+06  1.094410E+05  9.038033E+04 -8.047549E+04  8.623100E+03 -2.942337E+04
       221   2  1.374135E+06  1.333009E+05  1.098923E+05 -6.540043E+04  8.272940E+03 -3.618070E+04
       221   3  1.474452E+06  1.571870E+05  1.296581E+05 -8.028912E+04  7.926236E+03 -4.283591E+04
       221   4  8.158823E+05 -6.924339E+01  3.634554E+02 -8.053071E+04 -5.156644E+01 -2.942603E+04
       221   5  8.158063E+05 -1.130855E+02  4.493036E+02 -6.554802E+04 -2.720132E+02 -3.618547E+04
       221   6  8.158467E+05 -1.522353E+02  6.994754E+02 -8.053069E+04 -4.889510E+02 -4.284273E+04
       221   7  3.580003E+05 -1.095922E+05 -8.966331E+04 -8.058589E+04 -8.719980E+03 -2.942869E+04
       221   8  2.577760E+05 -1.335458E+05 -1.090085E+05 -6.569547E+04 -8.809461E+03 -3.619024E+04
       221   9  1.576567E+05 -1.575176E+05 -1.282797E+05 -8.077202E+04 -8.895421E+03 -4.284955E+04
       221  10  1.273965E+06  1.094401E+05  9.037856E+04 -8.047528E+04  2.325309E-10  6.053617E-10
       221  11  1.374134E+06  1.332995E+05  1.098897E+05 -6.540019E+04  2.330139E-10  1.742398E-10
       221  12  1.474451E+06  1.571850E+05  1.296545E+05 -8.028885E+04  2.440007E-09 -6.075966E-10
       221  13  8.158820E+05 -7.017356E+01  3.618276E+02 -8.053071E+04  2.279600E-11  5.255277E-10
       221  14  8.158059E+05 -1.144921E+02  4.468419E+02 -6.554803E+04 -1.271004E-09  3.154248E-10
       221  15  8.158462E+05 -1.542071E+02  6.960244E+02 -8.053071E+04 -5.357041E-11 -5.436964E-10
       221  16  3.580000E+05 -1.095931E+05 -8.966508E+04 -8.058609E+04 -8.114264E-10  3.501407E-10
       221  17  2.577756E+05 -1.335472E+05 -1.090111E+05 -6.569573E+04 -3.062832E-09 -4.629205E-11
       221  18  1.576561E+05 -1.575195E+05 -1.282833E+05 -8.077233E+04 -2.500530E-09  2.810632E-10
       221  19  1.273965E+06  1.094410E+05  9.038033E+04 -8.047549E+04 -8.623100E+03  2.942337E+04
       221  20  1.374135E+06  1.333009E+05  1.098923E+05 -6.540043E+04 -8.272940E+03  3.618070E+04
       221  21  1.474452E+06  1.571870E+05  1.296581E+05 -8.028912E+04 -7.926236E+03  4.283591E+04
       221  22  8.158823E+05 -6.924339E+01  3.634554E+02 -8.053071E+04  5.156644E+01  2.942603E+04
       221  23  8.158063E+05 -1.130855E+02  4.493036E+02 -6.554802E+04  2.720132E+02  3.618547E+04
       221  24  8.158467E+05 -1.522353E+02  6.994754E+02 -8.053069E+04  4.889510E+02  4.284273E+04
       221  25  3.580003E+05 -1.095922E+05 -8.966331E+04 -8.058589E+04  8.719980E+03  2.942869E+04
       221  26  2.577760E+05 -1.335458E+05 -1.090085E+05 -6.569547E+04  8.809461E+03  3.619024E+04
       221  27  1.576567E+05 -1.575176E+05 -1.282797E+05 -8.077202E+04  8.895421E+03  4.284955E+04
       222   1  1.545219E+06  1.741265E+05  1.441832E+05 -8.016201E+04  8.208790E+03 -4.684871E+04
       222   2  1.645576E+06  1.982120E+05  1.649034E+05 -6.509690E+04  5.115132E+03 -5.286125E+04
       222   3  1.746724E+06  2.230581E+05  1.878685E+05 -8.002543E+04  2.023934E+03 -5.703000E+04
       222   4  8.158836E+05 -1.997089E+02  8.968016E+02 -8.053745E+04 -6.271745E+02 -4.685731E+04
       222   5  8.156706E+05 -2.143538E+02  1.500123E+03 -6.553952E+04 -1.370005E+03 -5.287137E+04
       222   6  8.158302E+05  1.247292E+02  2.719138E+03 -8.053768E+04 -2.109853E+03 -5.704044E+04
       222   7  8.705670E+04 -1.745580E+05 -1.424151E+05 -8.091246E+04 -9.453000E+03 -4.686591E+04
       222   8 -1.357677E+04 -1.986823E+05 -1.619365E+05 -6.598161E+04 -7.846673E+03 -5.288149E+04
       222   9 -1.142371E+05 -2.228615E+05 -1.824734E+05 -8.104928E+04 -6.237580E+03 -5.705087E+04
       222  10  1.545218E+06  1.741241E+05  1.441789E+05 -8.016170E+04  1.333076E-10 -8.975406E-10
       222  11  1.645575E+06  1.982090E+05  1.648981E+05 -6.509668E+04  2.324419E-09 -2.981273E-10
       222  12  1.746723E+06  2.230546E+05  1.878624E+05 -8.002534E+04  1.663660E-09 -1.314055E-09
       222  13  8.158830E+05 -2.020676E+02  8.926733E+02 -8.053747E+04  6.773685E-10 -7.893480E-10
       222  14  8.156699E+05 -2.173572E+02  1.494864E+03 -6.553958E+04 -1.945170E-09 -8.382093E-10
       222  15  8.158293E+05  1.212328E+02  2.713013E+03 -8.053778E+04 -1.239393E-09 -1.173148E-09
       222  16  8.705602E+04 -1.745604E+05 -1.424194E+05 -8.091282E+04 -3.589574E-10 -1.336985E-10
       222  17 -1.357759E+04 -1.986853E+05 -1.619419E+05 -6.598194E+04 -1.537839E-09  6.440722E-10
       222  18 -1.142380E+05 -2.228650E+05 -1.824796E+05 -8.104957E+04 -2.999166E-09 -5.006933E-10
       222  19  1.545219E+06  1.741265E+05  1.441832E+05 -8.016201E+04 -8.208790E+03  4.684871E+04
       222  20  1.645576E+06  1.982120E+05  1.649034E+05 -6.509690E+04 -5.115132E+03  5.286125E+04
       222  21  1.746724E+06  2.230581E+05  1.878685E+05 -8.002543E+04 -2.023934E+03  5.703000E+04
       222  22  8.158836E+05 -1.997089E+02  8.968016E+02 -8.053745E+04  6.271745E+02  4.685731E+04
       222  23  8.156706E+05 -2.143538E+02  1.500123E+03 -6.553952E+04  1.370005E+03  5.287137E+04
       222  24  8.158302E+05  1.247292E+02  2.719138E+03 -8.053768E+04  2.109853E+03  5.704044E+04
       222  25  8.705670E+04 -1.745580E+05 -1.424151E+05 -8.091246E+04  9.453000E+03  4.686591E+04
       222  26 -1.357677E+04 -1.986823E+05 -1.619365E+05 -6.598161E+04  7.846673E+03  5.288149E+04
       222  27 -1.142371E+05 -2.228615E+05 -1.824734E+05 -8.104928E+04  6.237580E+03  5.705087E+04
       223   1  1.819466E+06  2.396039E+05  2.027847E+05 -7.811093E+04  8.387667E+03 -6.170670E+04
       223   2  1.916273E+06  2.667180E+05  2.356782E+05 -6.746706E+04 -3.436561E+04 -5.484949E+04
       223   3  2.022846E+06  3.093942E+05  3.003054E+05 -8.531728E+04 -7.718173E+04 -1.698559E+04
       223   4  8.163678E+05 -5.712614E+02  3.499374E+03 -8.020075E+04 -2.576663E+03 -6.172571E+04
       223   5  8.148735E+05  8.866948E+02  6.149116E+03 -6.596084E+04 -5.781284E+03 -5.482055E+04
       223   6  8.162945E+05  1.106645E+04  1.312601E+04 -8.021561E+04 -9.040644E+03 -1.688427E+04
       223   7 -1.857714E+05 -2.408077E+05 -1.958356E+05 -8.228731E+04 -1.352368E+04 -6.174466E+04
       223   8 -2.853796E+05 -2.650214E+05 -2.234438E+05 -6.445764E+04  2.275330E+04 -5.479145E+04
       223   9 -3.889151E+05 -2.873635E+05 -2.741379E+05 -7.512430E+04  5.896900E+04 -1.678175E+04
       223  10  1.819465E+06  2.395998E+05  2.027774E+05 -7.811051E+04  3.666219E-10 -2.803630E-09
       223  11  1.916271E+06  2.667145E+05  2.356704E+05 -6.746857E+04 -1.697012E-09 -4.501132E-09
       223  12  2.022840E+06  3.093923E+05  3.002937E+05 -8.531833E+04 -2.599087E-09 -1.394718E-09
       223  13  8.163667E+05 -5.753561E+02  3.492199E+03 -8.020088E+04 -1.662837E-09 -5.629500E-09
       223  14  8.148726E+05  8.834574E+02  6.143404E+03 -6.596110E+04 -8.864740E-10  2.487453E-09
       223  15  8.162943E+05  1.106612E+04  1.312532E+04 -8.021574E+04  5.404113E-10 -1.898713E-10
       223  16 -1.857726E+05 -2.408118E+05 -1.958431E+05 -8.228798E+04 -5.885692E-10 -1.012823E-09
       223  17 -2.853809E+05 -2.650248E+05 -2.234504E+05 -6.445663E+04  2.144516E-10  1.956327E-09
       223  18 -3.889190E+05 -2.873647E+05 -2.741450E+05 -7.512350E+04  2.993952E-09 -1.512123E-09
       223  19  1.819466E+06  2.396039E+05  2.027847E+05 -7.811093E+04 -8.387667E+03  6.170670E+04
       223  20  1.916273E+06  2.667180E+05  2.356782E+05 -6.746706E+04  3.436561E+04  5.484949E+04
       223  21  2.022846E+06  3.093942E+05  3.003054E+05 -8.531728E+04  7.718173E+04  1.698559E+04
       223  22  8.163678E+05 -5.712614E+02  3.499374E+03 -8.020075E+04  2.576663E+03  6.172571E+04
       223  23  8.148735E+05  8.866948E+02  6.149116E+03 -6.596084E+04  5.781284E+03  5.482055E+04
       223  24  8.162945E+05  1.106645E+04  1.312601E+04 -8.021561E+04  9.040644E+03  1.688427E+04
       223  25 -1.857714E+05 -2.408077E+05 -1.958356E+05 -8.228731E+04  1.352368E+04  6.174466E+04
       223  26 -2.853796E+05 -2.650214E+05 -2.234438E+05 -6.445764E+04 -2.275330E+04  5.479145E+04
       223  27 -3.889151E+05 -2.873635E+05 -2.741379E+05 -7.512430E+04 -5.896900E+04  1.678175E+04
       224   1  5.406187E+05  2.118574E+06  5.269126E+05 -4.154572E+05  2.438134E+04  1.132241E+05
       224   2  3.870882E+05  1.611435E+06  3.489864E+05 -3.349489E+05  7.254187E+04  3.444523E+04
       224   3  2.636090E+05  1.122210E+06  2.297419E+05 -3.998744E+05  6.427981E+04 -4.433892E+04
       224   4  2.284698E+04  2.870985E+04  2.545832E+04 -4.002372E+05  2.456191E+04  1.600008E+04
       224   5  3.199801E+03  2.633168E+04  1.323092E+04 -3.275337E+05  7.260912E+04  9.224545E+03
       224   6  1.183777E+03  2.920411E+04  9.818133E+03 -4.002793E+05  6.417038E+04  2.379620E+03
       224   7 -4.952361E+05 -2.057143E+06 -4.762703E+05 -3.850655E+05  2.473813E+04 -8.089890E+04
       224   8 -3.808507E+05 -1.556405E+06 -3.226652E+05 -3.201359E+05  7.267588E+04 -1.593288E+04
       224   9 -2.613140E+05 -1.062659E+06 -2.101586E+05 -4.006825E+05  6.406078E+04  4.901762E+04
       224  10  5.406146E+05  2.118560E+06  5.268875E+05 -4.154595E+05 -2.175903E-10 -1.468173E-09
       224  11  3.870822E+05  1.611433E+06  3.489743E+05 -3.349509E+05 -2.089127E-11  1.935642E-09
       224  12  2.636040E+05  1.122207E+06  2.297305E+05 -3.998721E+05 -6.186655E-10  1.001141E-09
       224  13  2.284626E+04  2.870941E+04  2.545670E+04 -4.002375E+05  8.157408E-10  4.058161E-12
       224  14  3.194117E+03  2.633017E+04  1.322085E+04 -3.275343E+05 -7.560402E-10 -7.795920E-10
       224  15  1.179354E+03  2.920299E+04  9.810384E+03 -4.002795E+05  5.072629E-10 -2.134129E-10
       224  16 -4.952385E+05 -2.057150E+06 -4.762838E+05 -3.850638E+05  4.828668E-11 -3.501859E-10
       224  17 -3.808564E+05 -1.556407E+06 -3.226756E+05 -3.201350E+05  5.719171E-10 -8.963616E-10
       224  18 -2.613191E+05 -1.062663E+06 -2.101708E+05 -4.006850E+05 -1.605187E-09  6.502827E-10
       224  19  5.406187E+05  2.118574E+06  5.269126E+05 -4.154572E+05 -2.438134E+04 -1.132241E+05
       224  20  3.870882E+05  1.611435E+06  3.489864E+05 -3.349489E+05 -7.254187E+04 -3.444523E+04
       224  21  2.636090E+05  1.122210E+06  2.297419E+05 -3.998744E+05 -6.427981E+04  4.433892E+04
       224  22  2.284698E+04  2.870985E+04  2.545832E+04 -4.002372E+05 -2.456191E+04 -1.600008E+04
       224  23  3.199801E+03  2.633168E+04  1.323092E+04 -3.275337E+05 -7.260912E+04 -9.224545E+03
       224  24  1.183777E+03  2.920411E+04  9.818133E+03 -4.002793E+05 -6.417038E+04 -2.379620E+03
       224  25 -4.952361E+05 -2.057143E+06 -4.762703E+05 -3.850655E+05 -2.473813E+04  8.089890E+04
       224  26 -3.808507E+05 -1.556405E+06 -3.226652E+05 -3.201359E+05 -7.267588E+04  1.593288E+04
       224  27 -2.613140E+05 -1.062659E+06 -2.101586E+05 -4.006825E+05 -6.406078E+04 -4.901762E+04
       225   1  1.804364E+05  7.691072E+05  1.587649E+05 -4.030122E+05  4.325327E+04 -3.409906E+04
       225   2  5.992125E+04  2.711917E+05  5.841363E+04 -3.270911E+05  1.551774E+04 -4.025717E+04
       225   3 -5.722534E+04 -2.255510E+05 -3.728953E+04 -3.995889E+05 -1.294452E+04 -4.641886E+04
       225   4  2.474143E+03  2.834076E+04  9.403517E+03 -4.009325E+05  4.316432E+04  7.633698E+02
       225   5  1.683625E+03  2.799138E+04  1.038378E+04 -3.267197E+05  1.542284E+04 -4.480133E+03
       225   6  4.116179E+03  2.841749E+04  1.538094E+04 -4.009283E+05 -1.304621E+04 -9.731908E+03
       225   7 -1.755214E+05 -7.119006E+05 -1.399815E+05 -3.988547E+05  4.307554E+04  3.558505E+04
       225   8 -5.655691E+04 -2.151496E+05 -3.764417E+04 -3.263485E+05  1.532795E+04  3.128319E+04
       225   9  6.545433E+04  2.824500E+05  6.805295E+04 -4.022682E+05 -1.314804E+04  2.696980E+04
       225  10  1.804341E+05  7.691055E+05  1.587592E+05 -4.030111E+05 -1.427910E-09 -5.522425E-10
       225  11  5.992056E+04  2.711899E+05  5.841013E+04 -3.270906E+05 -4.349151E-10  2.626115E-09
       225  12 -5.722610E+04 -2.255533E+05 -3.729389E+04 -3.995894E+05 -9.104322E-10  2.390771E-10
       225  13  2.472142E+03  2.834026E+04  9.400014E+03 -4.009325E+05 -1.372806E-09  9.799578E-12
       225  14  1.683364E+03  2.799129E+04  1.038329E+04 -3.267197E+05  3.541352E-10 -1.187221E-09
       225  15  4.115971E+03  2.841735E+04  1.538044E+04 -4.009284E+05 -8.730972E-10 -2.991916E-10
       225  16 -1.755237E+05 -7.119024E+05 -1.399874E+05 -3.988560E+05 -1.413231E-09 -2.732684E-09
       225  17 -5.655742E+04 -2.151507E+05 -3.764645E+04 -3.263488E+05  1.166258E-09 -2.000073E-09
       225  18  6.545395E+04  2.824491E+05  6.805126E+04 -4.022679E+05  4.220307E-10  1.525092E-09
       225  19  1.804364E+05  7.691072E+05  1.587649E+05 -4.030122E+05 -4.325327E+04  3.409906E+04
       225  20  5.992125E+04  2.711917E+05  5.841363E+04 -3.270911E+05 -1.551774E+04  4.025717E+04
       225  21 -5.722534E+04 -2.255510E+05 -3.728953E+04 -3.995889E+05  1.294452E+04  4.641886E+04
       225  22  2.474143E+03  2.834076E+04  9.403517E+03 -4.009325E+05 -4.316432E+04 -7.633698E+02
       225  23  1.683625E+03  2.799138E+04  1.038378E+04 -3.267197E+05 -1.542284E+04  4.480133E+03
       225  24  4.116179E+03  2.841749E+04  1.538094E+04 -4.009283E+05  1.304621E+04  9.731908E+03
       225  25 -1.755214E+05 -7.119006E+05 -1.399815E+05 -3.988547E+05 -4.307554E+04 -3.558505E+04
       225  26 -5.655691E+04 -2.151496E+05 -3.764417E+04 -3.263485E+05 -1.532795E+04 -3.128319E+04
       225  27  6.545433E+04  2.824500E+05  6.805295E+04 -4.022682E+05  1.314804E+04 -2.696980E+04
       226   1 -1.450139E+05 -5.742859E+05 -1.044127E+05 -4.057179E+05 -3.367025E+04 -5.810207E+04
       226   2 -2.590770E+05 -1.073203E+06 -2.031694E+05 -3.123521E+05 -4.758882E+04 -1.851904E+04
       226   3 -3.381673E+05 -1.568674E+06 -3.190949E+05 -3.651411E+05 -1.722287E+04  2.110533E+04
       226   4  7.322071E+02  3.106336E+04  1.894694E+04 -4.004427E+05 -3.379267E+04 -1.243106E+04
       226   5  7.691750E+03  2.441279E+04  3.197282E+04 -3.273168E+05 -4.755663E+04 -2.912625E+04
       226   6  5.937353E+04  3.071983E+04  6.691987E+04 -4.003138E+05 -1.707417E+04 -4.574826E+04
       226   7  1.464567E+05  6.367659E+05  1.422952E+05 -3.951619E+05 -3.391424E+04  3.328369E+04
       226   8  2.743825E+05  1.123164E+06  2.670454E+05 -3.423074E+05 -4.752397E+04 -3.975193E+04
       226   9  4.567341E+05  1.632469E+06  4.527689E+05 -4.355757E+05 -1.691811E+04 -1.127737E+05
       226  10 -1.450161E+05 -5.742899E+05 -1.044212E+05 -4.057195E+05  8.906281E-10  1.053213E-09
       226  11 -2.590796E+05 -1.073204E+06 -2.031743E+05 -3.123528E+05  2.758961E-09  3.213424E-09
       226  12 -3.381677E+05 -1.568675E+06 -3.190963E+05 -3.651408E+05  4.485009E-10 -6.439550E-10
       226  13  7.309390E+02  3.106288E+04  1.894450E+04 -4.004430E+05  8.841958E-10 -2.298840E-12
       226  14  7.689092E+03  2.441127E+04  3.196697E+04 -3.273179E+05 -1.358721E-09 -1.070389E-09
       226  15  5.937266E+04  3.071750E+04  6.691539E+04 -4.003145E+05  6.749277E-10 -2.174165E-10
       226  16  1.464552E+05  6.367644E+05  1.422910E+05 -3.951610E+05 -1.626981E-09 -4.245551E-09
       226  17  2.743796E+05  1.123162E+06  2.670382E+05 -3.423090E+05  1.264696E-09 -2.642021E-09
       226  18  4.567304E+05  1.632455E+06  4.527446E+05 -4.355772E+05  1.048866E-09  1.666897E-09
       226  19 -1.450139E+05 -5.742859E+05 -1.044127E+05 -4.057179E+05  3.367025E+04  5.810207E+04
       226  20 -2.590770E+05 -1.073203E+06 -2.031694E+05 -3.123521E+05  4.758882E+04  1.851904E+04
       226  21 -3.381673E+05 -1.568674E+06 -3.190949E+05 -3.651411E+05  1.722287E+04 -2.110533E+04
       226  22  7.322071E+02  3.106336E+04  1.894694E+04 -4.004427E+05  3.379267E+04  1.243106E+04
       226  23  7.691750E+03  2.441279E+04  3.197282E+04 -3.273168E+05  4.755663E+04  2.912625E+04
       226  24  5.937353E+04  3.071983E+04  6.691987E+04 -4.003138E+05  1.707417E+04  4.574826E+04
       226  25  1.464567E+05  6.367659E+05  1.422952E+05 -3.951619E+05  3.391424E+04 -3.328369E+04
       226  26  2.743825E+05  1.123164E+06  2.670454E+05 -3.423074E+05  4.752397E+04  3.975193E+04
       226  27  4.567341E+05  1.632469E+06  4.527689E+05 -4.355757E+05  1.691811E+04  1.127737E+05
       227   1 -1.433118E+06 -6.096143E+05 -3.563572E+05 -5.672080E+05 -1.584906E+05 -4.895205E+04
       227   2 -1.359638E+06 -3.987365E+05 -2.124411E+05 -5.377583E+05 -9.974320E+04 -3.993401E+03
       227   3 -1.322924E+06 -3.283618E+05 -1.513264E+05 -4.987319E+05 -3.404903E+04  2.253178E+04
       227   4 -8.495012E+05 -3.101008E+05 -1.874064E+05 -3.256042E+05 -1.237652E+05 -3.592329E+04
       227   5 -8.229325E+05 -1.688896E+05 -8.386116E+04 -3.578555E+05 -8.690234E+04  8.236221E+02
       227   6 -8.287437E+05 -1.637849E+05 -4.570420E+04 -3.805481E+05 -4.310325E+04  1.912958E+04
       227   7 -2.655390E+05 -1.047044E+04 -1.848382E+04 -8.376729E+04 -8.900452E+04 -2.286993E+04
       227   8 -2.859350E+05  6.100701E+04  4.469850E+04 -1.778008E+05 -7.404947E+04  5.646791E+03
       227   9 -3.343137E+05  8.012046E+02  5.990509E+04 -2.622820E+05 -5.216532E+04  1.572509E+04
       227  10 -1.433145E+06 -6.096236E+05 -3.564090E+05 -5.672142E+05  3.583349E-10  3.573549E-10
       227  11 -1.359649E+06 -3.987392E+05 -2.124599E+05 -5.377586E+05 -9.736819E-10  4.675061E-10
       227  12 -1.322926E+06 -3.283626E+05 -1.513295E+05 -4.987312E+05 -9.820251E-10  1.298604E-10
       227  13 -8.495180E+05 -3.101063E+05 -1.874377E+05 -3.256078E+05 -5.551853E-10  6.533788E-11
       227  14 -8.229406E+05 -1.688916E+05 -8.387537E+04 -3.578555E+05 -8.040631E-10  8.332504E-11
       227  15 -8.287458E+05 -1.637858E+05 -4.570838E+04 -3.805474E+05  1.031111E-09  2.100655E-10
       227  16 -2.655477E+05 -1.047313E+04 -1.849970E+04 -8.376893E+04  1.298270E-09  6.179573E-10
       227  17 -2.859409E+05  6.100551E+04  4.468813E+04 -1.778005E+05  1.949841E-09 -8.582899E-10
       227  18 -3.343166E+05  8.002087E+02  5.989951E+04 -2.622814E+05  4.841308E-10  2.084959E-09
       227  19 -1.433118E+06 -6.096143E+05 -3.563572E+05 -5.672080E+05  1.584906E+05  4.895205E+04
       227  20 -1.359638E+06 -3.987365E+05 -2.124411E+05 -5.377583E+05  9.974320E+04  3.993401E+03
       227  21 -1.322924E+06 -3.283618E+05 -1.513264E+05 -4.987319E+05  3.404903E+04 -2.253178E+04
       227  22 -8.495012E+05 -3.101008E+05 -1.874064E+05 -3.256042E+05  1.237652E+05  3.592329E+04
       227  23 -8.229325E+05 -1.688896E+05 -8.386116E+04 -3.578555E+05  8.690234E+04 -8.236221E+02
       227  24 -8.287437E+05 -1.637849E+05 -4.570420E+04 -3.805481E+05  4.310325E+04 -1.912958E+04
       227  25 -2.655390E+05 -1.047044E+04 -1.848382E+04 -8.376729E+04  8.900452E+04  2.286993E+04
       227  26 -2.859350E+05  6.100701E+04  4.469850E+04 -1.778008E+05  7.404947E+04 -5.646791E+03
       227  27 -3.343137E+05  8.012046E+02  5.990509E+04 -2.622820E+05  5.216532E+04 -1.572509E+04
       228   1 -1.244527E+06 -3.300056E+05 -1.285069E+05 -4.928817E+05 -3.161840E+04  1.881861E+04
       228   2 -1.172683E+06 -2.841810E+05 -9.335451E+04 -4.604375E+05 -1.943669E+04  1.849216E+04
       228   3 -1.085632E+06 -2.625245E+05 -6.754299E+04 -4.482897E+05 -6.880739E+03  1.716785E+04
       228   4 -8.228814E+05 -1.726081E+05 -3.540692E+04 -3.744977E+05 -3.614337E+04  1.711758E+04
       228   5 -8.301665E+05 -1.576500E+05 -1.863589E+04 -3.654665E+05 -2.514207E+04  1.634912E+04
       228   6 -8.220142E+05 -1.666233E+05 -1.026391E+04 -3.767338E+05 -1.376802E+04  1.458252E+04
       228   7 -4.010580E+05 -1.519635E+04  5.768142E+04 -2.560402E+05 -4.067163E+04  1.541528E+04
       228   8 -4.875308E+05 -3.110941E+04  5.607584E+04 -2.704472E+05 -3.085086E+04  1.420480E+04
       228   9 -5.583240E+05 -7.071626E+04  4.701175E+04 -3.051496E+05 -2.065852E+04  1.199602E+04
       228  10 -1.244529E+06 -3.300063E+05 -1.285094E+05 -4.928812E+05  1.383527E-09  5.633725E-10
       228  11 -1.172684E+06 -2.841815E+05 -9.335586E+04 -4.604372E+05 -2.292470E-09 -6.486231E-10
       228  12 -1.085632E+06 -2.625248E+05 -6.754363E+04 -4.482896E+05 -9.659483E-10 -1.065510E-09
       228  13 -8.228828E+05 -1.726087E+05 -3.540993E+04 -3.744972E+05 -2.285372E-09  4.501835E-10
       228  14 -8.301673E+05 -1.576504E+05 -1.863758E+04 -3.654661E+05 -2.998708E-09 -2.016829E-09
       228  15 -8.220145E+05 -1.666236E+05 -1.026466E+04 -3.767336E+05 -1.495146E-09 -1.201817E-09
       228  16 -4.010598E+05 -1.519705E+04  5.767786E+04 -2.560397E+05 -4.559718E-09 -1.228742E-10
       228  17 -4.875319E+05 -3.110988E+04  5.607367E+04 -2.704468E+05 -4.709596E-09 -7.944116E-10
       228  18 -5.583245E+05 -7.071653E+04  4.701067E+04 -3.051494E+05 -2.279095E-10 -9.427801E-10
       228  19 -1.244527E+06 -3.300056E+05 -1.285069E+05 -4.928817E+05  3.161840E+04 -1.881861E+04
       228  20 -1.172683E+06 -2.841810E+05 -9.335451E+04 -4.604375E+05  1.943669E+04 -1.849216E+04
       228  21 -1.085632E+06 -2.625245E+05 -6.754299E+04 -4.482897E+05  6.880739E+03 -1.716785E+04
       228  22 -8.228814E+05 -1.726081E+05 -3.540692E+04 -3.744977E+05  3.614337E+04 -1.711758E+04
       228  23 -8.301665E+05 -1.576500E+05 -1.863589E+04 -3.654665E+05  2.514207E+04 -1.634912E+04
       228  24 -8.220142E+05 -1.666233E+05 -1.026391E+04 -3.767338E+05  1.376802E+04 -1.458252E+04
       228  25 -4.010580E+05 -1.519635E+04  5.768142E+04 -2.560402E+05  4.067163E+04 -1.541528E+04
       228  26 -4.875308E+05 -3.110941E+04  5.607584E+04 -2.704472E+05  3.085086E+04 -1.420480E+04
       228  27 -5.583240E+05 -7.071626E+04  4.701175E+04 -3.051496E+05  2.065852E+04 -1.199602E+04
       229   1 -1.026615E+06 -2.421368E+05 -5.198952E+04 -4.327705E+05 -4.415106E+03  1.426969E+04
       229   2 -9.553283E+05 -2.030793E+05 -3.126900E+04 -3.999484E+05 -1.127908E+02  9.474939E+03
       229   3 -8.657401E+05 -1.829757E+05 -1.224709E+04 -3.885286E+05  4.209926E+03  4.624063E+03
       229   4 -8.215766E+05 -1.669816E+05 -7.748176E+03 -3.764258E+05 -1.106450E+04  1.177420E+04
       229   5 -8.307147E+05 -1.574243E+05 -4.266233E+03 -3.657545E+05 -6.828510E+03  6.955051E+03
       229   6 -8.215445E+05 -1.668077E+05 -2.429610E+03 -3.764876E+05 -2.572441E+03  2.079701E+03
       229   7 -6.164955E+05 -9.182303E+04  3.649089E+04 -3.200639E+05 -1.771627E+04  9.277823E+03
       229   8 -7.060858E+05 -1.117682E+05  2.273568E+04 -3.315544E+05 -1.354566E+04  4.434629E+03
       229   9 -7.773471E+05 -1.506396E+05  7.387859E+03 -3.644459E+05 -9.355284E+03 -4.648360E+02
       229  10 -1.026615E+06 -2.421370E+05 -5.198994E+04 -4.327705E+05 -1.782698E-09 -4.174397E-10
       229  11 -9.553283E+05 -2.030794E+05 -3.126917E+04 -3.999484E+05 -1.066484E-09  4.950801E-10
       229  12 -8.657401E+05 -1.829757E+05 -1.224716E+04 -3.885286E+05 -1.896996E-09  8.821823E-10
       229  13 -8.215768E+05 -1.669817E+05 -7.748666E+03 -3.764257E+05  6.724115E-10 -3.349186E-10
       229  14 -8.307148E+05 -1.574244E+05 -4.266412E+03 -3.657544E+05 -1.469528E-09  8.261108E-10
       229  15 -8.215445E+05 -1.668077E+05 -2.429630E+03 -3.764876E+05 -8.212239E-10  1.190950E-09
       229  16 -6.164959E+05 -9.182320E+04  3.649014E+04 -3.200638E+05  1.730252E-09 -1.638901E-10
       229  17 -7.060860E+05 -1.117683E+05  2.273530E+04 -3.315543E+05 -3.174183E-10  9.493043E-10
       229  18 -7.773472E+05 -1.506396E+05  7.387694E+03 -3.644459E+05 -1.702371E-10  1.371474E-09
       229  19 -1.026615E+06 -2.421368E+05 -5.198952E+04 -4.327705E+05  4.415106E+03 -1.426969E+04
       229  20 -9.553283E+05 -2.030793E+05 -3.126900E+04 -3.999484E+05  1.127908E+02 -9.474939E+03
       229  21 -8.657401E+05 -1.829757E+05 -1.224709E+04 -3.885286E+05 -4.209926E+03 -4.624063E+03
       229  22 -8.215766E+05 -1.669816E+05 -7.748176E+03 -3.764258E+05  1.106450E+04 -1.177420E+04
       229  23 -8.307147E+05 -1.574243E+05 -4.266233E+03 -3.657545E+05  6.828510E+03 -6.955051E+03
       229  24 -8.215445E+05 -1.668077E+05 -2.429610E+03 -3.764876E+05  2.572441E+03 -2.079701E+03
       229  25 -6.164955E+05 -9.182303E+04  3.649089E+04 -3.200639E+05  1.771627E+04 -9.277823E+03
       229  26 -7.060858E+05 -1.117682E+05  2.273568E+04 -3.315544E+05  1.354566E+04 -4.434629E+03
       229  27 -7.773471E+05 -1.506396E+05  7.387859E+03 -3.644459E+05  9.355284E+03  4.648360E+02
       230   1 -8.076450E+05 -1.615990E+05  1.377347E+03 -3.725739E+05  5.800032E+03  1.436122E+03
       230   2 -7.365109E+05 -1.227551E+05  1.920716E+04 -3.396906E+05  8.549578E+03 -4.024153E+03
       230   3 -6.467789E+05 -1.026074E+05  3.657684E+04 -3.282019E+05  1.129989E+04 -9.484509E+03
       230   4 -8.214904E+05 -1.668163E+05 -1.888037E+03 -3.764625E+05 -9.699464E+02 -1.103555E+03
       230   5 -8.307894E+05 -1.574798E+05 -1.232595E+03 -3.657599E+05  1.778817E+03 -6.564534E+03
       230   6 -8.214985E+05 -1.668407E+05 -1.037066E+03 -3.764553E+05  4.528250E+03 -1.202560E+04
       230   7 -8.353355E+05 -1.720336E+05 -5.153265E+03 -3.803509E+05 -7.739808E+03 -3.643187E+03
       230   8 -9.250591E+05 -1.922038E+05 -2.167277E+04 -3.918256E+05 -4.990857E+03 -9.104506E+03
       230   9 -9.961869E+05 -2.310716E+05 -3.865256E+04 -4.246963E+05 -2.241334E+03 -1.456591E+04
       230  10 -8.076450E+05 -1.615990E+05  1.377280E+03 -3.725739E+05  3.859265E-09  2.326492E-09
       230  11 -7.365110E+05 -1.227552E+05  1.920699E+04 -3.396906E+05 -6.670480E-09 -3.787651E-09
       230  12 -6.467790E+05 -1.026075E+05  3.657643E+04 -3.282018E+05 -1.681447E-08 -7.963841E-09
       230  13 -8.214904E+05 -1.668163E+05 -1.888041E+03 -3.764625E+05 -6.023771E-10  3.966804E-10
       230  14 -8.307894E+05 -1.574798E+05 -1.232682E+03 -3.657599E+05  1.386731E-10 -9.433088E-10
       230  15 -8.214985E+05 -1.668409E+05 -1.037376E+03 -3.764553E+05  2.824010E-10 -8.286706E-10
       230  16 -8.353356E+05 -1.720336E+05 -5.153402E+03 -3.803510E+05 -5.383573E-09 -1.308401E-09
       230  17 -9.250591E+05 -1.922039E+05 -2.167298E+04 -3.918256E+05  9.326104E-09  2.188655E-09
       230  18 -9.961870E+05 -2.310718E+05 -3.865297E+04 -4.246963E+05  1.984566E-08  6.610620E-09
       230  19 -8.076450E+05 -1.615990E+05  1.377347E+03 -3.725739E+05 -5.800032E+03 -1.436122E+03
       230  20 -7.365109E+05 -1.227551E+05  1.920716E+04 -3.396906E+05 -8.549578E+03  4.024153E+03
       230  21 -6.467789E+05 -1.026074E+05  3.657684E+04 -3.282019E+05 -1.129989E+04  9.484509E+03
       230  22 -8.214904E+05 -1.668163E+05 -1.888037E+03 -3.764625E+05  9.699464E+02  1.103555E+03
       230  23 -8.307894E+05 -1.574798E+05 -1.232595E+03 -3.657599E+05 -1.778817E+03  6.564534E+03
       230  24 -8.214985E+05 -1.668407E+05 -1.037066E+03 -3.764553E+05 -4.528250E+03  1.202560E+04
       230  25 -8.353355E+05 -1.720336E+05 -5.153265E+03 -3.803509E+05  7.739808E+03  3.643187E+03
       230  26 -9.250591E+05 -1.922038E+05 -2.167277E+04 -3.918256E+05  4.990857E+03  9.104506E+03
       230  27 -9.961869E+05 -2.310716E+05 -3.865256E+04 -4.246963E+05  2.241334E+03  1.456591E+04
       231   1 -5.888448E+05 -8.120841E+04  4.960440E+04 -3.122365E+05  1.271445E+04 -1.273134E+04
       231   2 -5.178877E+05 -4.244138E+04  6.634606E+04 -2.794100E+05  1.556217E+04 -1.814344E+04
       231   3 -4.283676E+05 -2.233085E+04  8.255724E+04 -2.679218E+05  1.840754E+04 -2.354322E+04
       231   4 -8.215127E+05 -1.668359E+05 -1.076828E+03 -3.764439E+05  5.947186E+03 -1.527127E+04
       231   5 -8.307999E+05 -1.575223E+05 -1.463756E+03 -3.657706E+05  8.808290E+03 -2.067962E+04
       231   6 -8.215330E+05 -1.668687E+05 -2.391648E+03 -3.764385E+05  1.166694E+04 -2.607567E+04
       231   7 -1.054124E+06 -2.524585E+05 -5.176065E+04 -4.406288E+05 -8.172904E+02 -1.781016E+04
       231   8 -1.143613E+06 -2.725953E+05 -6.927915E+04 -4.520911E+05  2.058087E+03 -2.321441E+04
       231   9 -1.214544E+06 -3.113951E+05 -8.735014E+04 -4.848928E+05  4.930913E+03 -2.860640E+04
       231  10 -5.888450E+05 -8.120862E+04  4.960379E+04 -3.122364E+05  2.056271E-08  6.139394E-09
       231  11 -5.178880E+05 -4.244179E+04  6.634499E+04 -2.794098E+05  7.658273E-09  3.420406E-09
       231  12 -4.283681E+05 -2.233154E+04  8.255556E+04 -2.679214E+05 -5.083118E-09 -6.906397E-10
       231  13 -8.215128E+05 -1.668362E+05 -1.077333E+03 -3.764438E+05  2.728135E-09 -7.194763E-11
       231  14 -8.308001E+05 -1.575227E+05 -1.464705E+03 -3.657705E+05 -1.120087E-10  1.189570E-10
       231  15 -8.215334E+05 -1.668694E+05 -2.393181E+03 -3.764383E+05 -6.806386E-10  7.242886E-10
       231  16 -1.054124E+06 -2.524589E+05 -5.176125E+04 -4.406288E+05 -1.564551E-08 -6.784823E-09
       231  17 -1.143613E+06 -2.725959E+05 -6.928017E+04 -4.520911E+05 -7.398478E-09 -2.901161E-09
       231  18 -1.214544E+06 -3.113960E+05 -8.735172E+04 -4.848927E+05  2.263004E-09  2.806860E-09
       231  19 -5.888448E+05 -8.120841E+04  4.960440E+04 -3.122365E+05 -1.271445E+04  1.273134E+04
       231  20 -5.178877E+05 -4.244138E+04  6.634606E+04 -2.794100E+05 -1.556217E+04  1.814344E+04
       231  21 -4.283676E+05 -2.233085E+04  8.255724E+04 -2.679218E+05 -1.840754E+04  2.354322E+04
       231  22 -8.215127E+05 -1.668359E+05 -1.076828E+03 -3.764439E+05 -5.947186E+03  1.527127E+04
       231  23 -8.307999E+05 -1.575223E+05 -1.463756E+03 -3.657706E+05 -8.808290E+03  2.067962E+04
       231  24 -8.215330E+05 -1.668687E+05 -2.391648E+03 -3.764385E+05 -1.166694E+04  2.607567E+04
       231  25 -1.054124E+06 -2.524585E+05 -5.176065E+04 -4.406288E+05  8.172904E+02  1.781016E+04
       231  26 -1.143613E+06 -2.725953E+05 -6.927915E+04 -4.520911E+05 -2.058087E+03  2.321441E+04
       231  27 -1.214544E+06 -3.113951E+05 -8.735014E+04 -4.848928E+05 -4.930913E+03  2.860640E+04
       232   1 -3.706888E+05 -1.012534E+03  9.484547E+04 -2.520516E+05  2.011582E+04 -2.666890E+04
       232   2 -2.999533E+05  3.762062E+04  1.094687E+05 -2.193229E+05  2.488924E+04 -3.129115E+04
       232   3 -2.110541E+05  5.738325E+04  1.220528E+05 -2.078212E+05  2.962972E+04 -3.581503E+04
       232   4 -8.216270E+05 -1.668473E+05 -3.120224E+03 -3.764466E+05  1.336471E+04 -2.920633E+04
       232   5 -8.307301E+05 -1.575417E+05 -5.562867E+03 -3.657846E+05  1.825161E+04 -3.378808E+04
       232   6 -8.216978E+05 -1.671311E+05 -1.013559E+04 -3.763536E+05  2.310518E+04 -3.827153E+04
       232   7 -1.272359E+06 -3.326659E+05 -1.010978E+05 -5.007586E+05  6.618894E+03 -3.174178E+04
       232   8 -1.361219E+06 -3.526809E+05 -1.206104E+05 -5.121307E+05  1.162014E+04 -3.628270E+04
       232   9 -1.431958E+06 -3.916142E+05 -1.423446E+05 -5.447326E+05  1.658762E+04 -4.072541E+04
       232  10 -3.706894E+05 -1.013406E+03  9.484338E+04 -2.520512E+05  3.192622E-10  1.311259E-09
       232  11 -2.999542E+05  3.761940E+04  1.094657E+05 -2.193222E+05  6.317302E-10  2.319607E-09
       232  12 -2.110554E+05  5.738164E+04  1.220488E+05 -2.078204E+05 -4.504107E-10  2.149453E-10
       232  13 -8.216274E+05 -1.668483E+05 -3.122162E+03 -3.764463E+05 -1.600679E-09  1.369288E-09
       232  14 -8.307308E+05 -1.575430E+05 -5.565637E+03 -3.657841E+05 -4.296825E-10  1.335974E-09
       232  15 -8.216988E+05 -1.671328E+05 -1.013935E+04 -3.763529E+05 -2.588100E-09  1.285478E-09
       232  16 -1.272359E+06 -3.326670E+05 -1.010997E+05 -5.007584E+05 -1.921307E-09  8.433054E-10
       232  17 -1.361219E+06 -3.526823E+05 -1.206131E+05 -5.121304E+05 -1.199419E-09  2.856969E-11
       232  18 -1.431959E+06 -3.916160E+05 -1.423482E+05 -5.447320E+05 -6.673686E-10 -2.539908E-10
       232  19 -3.706888E+05 -1.012534E+03  9.484547E+04 -2.520516E+05 -2.011582E+04  2.666890E+04
       232  20 -2.999533E+05  3.762062E+04  1.094687E+05 -2.193229E+05 -2.488924E+04  3.129115E+04
       232  21 -2.110541E+05  5.738325E+04  1.220528E+05 -2.078212E+05 -2.962972E+04  3.581503E+04
       232  22 -8.216270E+05 -1.668473E+05 -3.120224E+03 -3.764466E+05 -1.336471E+04  2.920633E+04
       232  23 -8.307301E+05 -1.575417E+05 -5.562867E+03 -3.657846E+05 -1.825161E+04  3.378808E+04
       232  24 -8.216978E+05 -1.671311E+05 -1.013559E+04 -3.763536E+05 -2.310518E+04  3.827153E+04
       232  25 -1.272359E+06 -3.326659E+05 -1.010978E+05 -5.007586E+05 -6.618894E+03  3.174178E+04
       232  26 -1.361219E+06 -3.526809E+05 -1.206104E+05 -5.121307E+05 -1.162014E+04  3.628270E+04
       232  27 -1.431958E+06 -3.916142E+05 -1.423446E+05 -5.447326E+05 -1.658762E+04  4.072541E+04
       233   1 -1.533879E+05  7.826048E+04  1.316503E+05 -1.932858E+05  3.315459E+04 -3.830356E+04
       233   2 -8.362003E+04  1.177414E+05  1.380792E+05 -1.583147E+05  4.544367E+04 -3.937697E+04
       233   3  8.592543E+02  1.322742E+05  1.350389E+05 -1.429959E+05  5.713669E+04 -3.885042E+04
       233   4 -8.222873E+05 -1.666489E+05 -1.343296E+04 -3.767296E+05  2.625529E+04 -4.090245E+04
       233   5 -8.300315E+05 -1.579212E+05 -2.441908E+04 -3.654299E+05  4.043340E+04 -4.126818E+04
       233   6 -8.234509E+05 -1.745259E+05 -4.638245E+04 -3.737879E+05  5.401362E+04 -4.003352E+04
       233   7 -1.490737E+06 -4.115256E+05 -1.585438E+05 -5.599936E+05  1.936398E+04 -4.349839E+04
       233   8 -1.575880E+06 -4.335396E+05 -1.869513E+05 -5.723168E+05  3.542961E+04 -4.315694E+04
       233   9 -1.647073E+06 -4.812689E+05 -2.278453E+05 -6.042973E+05  5.089502E+04 -4.121491E+04
       233  10 -1.533894E+05  7.825861E+04  1.316454E+05 -1.932848E+05  1.113429E-09 -7.684528E-11
       233  11 -8.362266E+04  1.177392E+05  1.380724E+05 -1.583132E+05  1.399728E-09 -1.086528E-09
       233  12  8.553448E+02  1.322717E+05  1.350299E+05 -1.429941E+05  7.231206E-10 -2.447242E-09
       233  13 -8.222885E+05 -1.666509E+05 -1.343740E+04 -3.767287E+05  8.410768E-11 -3.814851E-10
       233  14 -8.300337E+05 -1.579235E+05 -2.442535E+04 -3.654285E+05  5.675544E-10 -1.355264E-09
       233  15 -8.234545E+05 -1.745284E+05 -4.639095E+04 -3.737861E+05  1.598234E-09 -2.720809E-09
       233  16 -1.490738E+06 -4.115277E+05 -1.585480E+05 -5.599929E+05 -1.191311E-09 -4.448513E-10
       233  17 -1.575882E+06 -4.335420E+05 -1.869571E+05 -5.723155E+05 -2.310468E-09  8.904725E-10
       233  18 -1.647076E+06 -4.812714E+05 -2.278534E+05 -6.042956E+05  8.589247E-11 -1.430974E-09
       233  19 -1.533879E+05  7.826048E+04  1.316503E+05 -1.932858E+05 -3.315459E+04  3.830356E+04
       233  20 -8.362003E+04  1.177414E+05  1.380792E+05 -1.583147E+05 -4.544367E+04  3.937697E+04
       233  21  8.592543E+02  1.322742E+05  1.350389E+05 -1.429959E+05 -5.713669E+04  3.885042E+04
       233  22 -8.222873E+05 -1.666489E+05 -1.343296E+04 -3.767296E+05 -2.625529E+04  4.090245E+04
       233  23 -8.300315E+05 -1.579212E+05 -2.441908E+04 -3.654299E+05 -4.043340E+04  4.126818E+04
       233  24 -8.234509E+05 -1.745259E+05 -4.638245E+04 -3.737879E+05 -5.401362E+04  4.003352E+04
       233  25 -1.490737E+06 -4.115256E+05 -1.585438E+05 -5.599936E+05 -1.936398E+04  4.349839E+04
       233  26 -1.575880E+06 -4.335396E+05 -1.869513E+05 -5.723168E+05 -3.542961E+04  4.315694E+04
       233  27 -1.647073E+06 -4.812689E+05 -2.278453E+05 -6.042973E+05 -5.089502E+04  4.121491E+04
       234   1  6.971264E+04  1.464214E+05  1.335920E+05 -1.560889E+05  7.317538E+04 -3.790028E+04
       234   2  1.093983E+05  2.129483E+05  1.097840E+05 -5.643333E+04  9.408506E+04 -2.310114E+04
       234   3  1.074975E+05  1.147092E+05  2.817390E+04  6.306014E+04  1.038955E+05  2.112657E+04
       234   4 -8.311744E+05 -1.629315E+05 -5.987082E+04 -3.816560E+05  6.281269E+04 -4.180914E+04
       234   5 -8.205357E+05 -1.727368E+05 -1.098712E+05 -3.555265E+05  1.187031E+05 -1.383514E+04
       234   6 -8.585227E+05 -3.544091E+05 -2.454904E+05 -3.095420E+05  1.634800E+05  4.358174E+04
       234   7 -1.731240E+06 -4.722461E+05 -2.533796E+05 -6.069339E+05  5.246626E+04 -4.571287E+04
       234   8 -1.749582E+06 -5.582885E+05 -3.295812E+05 -6.541836E+05  1.432808E+05 -4.588423E+03
       234   9 -1.823576E+06 -8.232581E+05 -5.192196E+05 -6.815478E+05  2.229618E+05  6.597273E+04
       234  10  6.970650E+04  1.464184E+05  1.335792E+05 -1.560866E+05  9.332631E-10 -6.810617E-10
       234  11  1.093886E+05  2.129453E+05  1.097663E+05 -5.643158E+04  6.508427E-10 -2.181023E-09
       234  12  1.074858E+05  1.147059E+05  2.815278E+04  6.305838E+04 -2.110107E-09  1.900435E-09
       234  13 -8.311791E+05 -1.629344E+05 -5.988152E+04 -3.816539E+05  2.696242E-09 -4.655844E-09
       234  14 -8.205508E+05 -1.727407E+05 -1.098981E+05 -3.555251E+05 -1.940626E-09 -1.205940E-09
       234  15 -8.585519E+05 -3.544183E+05 -2.455443E+05 -3.095478E+05  1.062664E-10  1.419428E-09
       234  16 -1.731243E+06 -4.722491E+05 -2.533887E+05 -6.069320E+05  2.518281E-10 -1.757368E-09
       234  17 -1.749604E+06 -5.582940E+05 -3.296199E+05 -6.541831E+05  1.622717E-09 -9.339884E-10
       234  18 -1.823631E+06 -8.232762E+05 -5.193216E+05 -6.815597E+05  1.405326E-09  2.163136E-10
       234  19  6.971264E+04  1.464214E+05  1.335920E+05 -1.560889E+05 -7.317538E+04  3.790028E+04
       234  20  1.093983E+05  2.129483E+05  1.097840E+05 -5.643333E+04 -9.408506E+04  2.310114E+04
       234  21  1.074975E+05  1.147092E+05  2.817390E+04  6.306014E+04 -1.038955E+05 -2.112657E+04
       234  22 -8.311744E+05 -1.629315E+05 -5.987082E+04 -3.816560E+05 -6.281269E+04  4.180914E+04
       234  23 -8.205357E+05 -1.727368E+05 -1.098712E+05 -3.555265E+05 -1.187031E+05  1.383514E+04
       234  24 -8.585227E+05 -3.544091E+05 -2.454904E+05 -3.095420E+05 -1.634800E+05 -4.358174E+04
       234  25 -1.731240E+06 -4.722461E+05 -2.533796E+05 -6.069339E+05 -5.246626E+04  4.571287E+04
       234  26 -1.749582E+06 -5.582885E+05 -3.295812E+05 -6.541836E+05 -1.432808E+05  4.588423E+03
       234  27 -1.823576E+06 -8.232581E+05 -5.192196E+05 -6.815478E+05 -2.229618E+05 -6.597273E+04
       235   1  1.507569E+06  2.162295E+05  1.926793E+05  2.390866E+04  4.750626E+03 -1.701430E+04
       235   2  1.429759E+06  2.593486E+05  1.879130E+05  3.941161E+04 -1.145641E+04 -5.573819E+04
       235   3  1.340802E+06  2.489201E+05  1.803719E+05  7.797677E+04 -2.771464E+04 -6.377626E+04
       235   4  3.089595E+05 -8.008460E+04 -9.252021E+04  6.728731E+04 -6.402726E+04 -1.714938E+04
       235   5  3.179599E+05 -8.995506E+03 -4.359892E+04  5.566371E+04 -4.115225E+04 -5.581136E+04
       235   6  3.090033E+05  1.712141E+03 -2.458596E+04  6.710588E+04 -1.832998E+04 -6.376118E+04
       235   7 -8.883199E+05 -3.764923E+05 -3.778014E+05  1.105813E+05 -1.326731E+05 -1.729419E+04
       235   8 -7.926682E+05 -2.774167E+05 -2.751753E+05  7.188562E+04 -7.079584E+04 -5.588616E+04
       235   9 -7.217793E+05 -2.455603E+05 -2.295964E+05  5.625275E+04 -8.960556E+03 -6.374642E+04
       235  10  1.507569E+06  2.162292E+05  1.926787E+05  2.390872E+04  1.942779E-09 -5.001700E-10
       235  11  1.429758E+06  2.593452E+05  1.879069E+05  3.941109E+04  5.353992E-10 -4.140802E-09
       235  12  1.340800E+06  2.489155E+05  1.803628E+05  7.797534E+04 -3.111962E-10 -4.393781E-09
       235  13  3.089550E+05 -8.008601E+04 -9.252846E+04  6.728642E+04 -1.040711E-09  1.458375E-09
       235  14  3.179573E+05 -8.999305E+03 -4.360795E+04  5.566186E+04 -5.090663E-10 -2.620760E-09
       235  15  3.090018E+05  1.707685E+03 -2.459423E+04  6.710494E+04 -8.927920E-10 -1.672969E-10
       235  16 -8.883389E+05 -3.764974E+05 -3.778351E+05  1.105795E+05 -1.693270E-09  2.477358E-10
       235  17 -7.926744E+05 -2.774214E+05 -2.751906E+05  7.188243E+04 -2.630293E-09 -6.658137E-09
       235  18 -7.217804E+05 -2.455647E+05 -2.296042E+05  5.625229E+04 -9.530275E-10 -6.027471E-09
       235  19  1.507569E+06  2.162295E+05  1.926793E+05  2.390866E+04 -4.750626E+03  1.701430E+04
       235  20  1.429759E+06  2.593486E+05  1.879130E+05  3.941161E+04  1.145641E+04  5.573819E+04
       235  21  1.340802E+06  2.489201E+05  1.803719E+05  7.797677E+04  2.771464E+04  6.377626E+04
       235  22  3.089595E+05 -8.008460E+04 -9.252021E+04  6.728731E+04  6.402726E+04  1.714938E+04
       235  23  3.179599E+05 -8.995506E+03 -4.359892E+04  5.566371E+04  4.115225E+04  5.581136E+04
       235  24  3.090033E+05  1.712141E+03 -2.458596E+04  6.710588E+04  1.832998E+04  6.376118E+04
       235  25 -8.883199E+05 -3.764923E+05 -3.778014E+05  1.105813E+05  1.326731E+05  1.729419E+04
       235  26 -7.926682E+05 -2.774167E+05 -2.751753E+05  7.188562E+04  7.079584E+04  5.588616E+04
       235  27 -7.217793E+05 -2.455603E+05 -2.295964E+05  5.625275E+04  8.960556E+03  6.374642E+04
       236   1  1.285172E+06  2.300961E+05  1.743016E+05  6.841092E+04 -1.767354E+04 -5.979214E+04
       236   2  1.202910E+06  2.127856E+05  1.646206E+05  5.688466E+04 -1.474019E+04 -5.681492E+04
       236   3  1.119739E+06  1.934238E+05  1.525181E+05  6.998247E+04 -1.181594E+04 -5.200594E+04
       236   4  3.127253E+05 -2.891354E+03 -1.910719E+04  6.749104E+04 -1.504057E+04 -5.979280E+04
       236   5  3.134085E+05  6.133131E+00 -1.054412E+04  5.517311E+04 -9.780748E+03 -5.680754E+04
       236   6  3.127704E+05  4.471434E+02 -6.020249E+03  6.748150E+04 -4.529607E+03 -5.198927E+04
       236   7 -6.588188E+05 -2.359366E+05 -2.125631E+05  6.657201E+04 -1.241163E+04 -5.979347E+04
       236   8 -5.753366E+05 -2.128212E+05 -1.857474E+05  5.346352E+04 -4.828247E+03 -5.680019E+04
       236   9 -4.935746E+05 -1.925688E+05 -1.645900E+05  6.498335E+04  2.747474E+03 -5.197264E+04
       236  10  1.285170E+06  2.300922E+05  1.742943E+05  6.841007E+04 -5.733230E-09 -5.412432E-09
       236  11  1.202909E+06  2.127820E+05  1.646141E+05  5.688399E+04 -2.352101E-09  2.274296E-09
       236  12  1.119738E+06  1.934209E+05  1.525127E+05  6.998198E+04 -1.104237E-09  3.200785E-09
       236  13  3.127241E+05 -2.895254E+03 -1.911433E+04  6.749031E+04 -4.262408E-10 -2.967223E-09
       236  14  3.134076E+05  2.641654E+00 -1.055037E+04  5.517267E+04 -8.860111E-10  4.072675E-10
       236  15  3.127697E+05  4.442350E+02 -6.025367E+03  6.748131E+04 -9.605424E-10 -2.697641E-09
       236  16 -6.588200E+05 -2.359404E+05 -2.125701E+05  6.657141E+04  6.733722E-09  3.091678E-10
       236  17 -5.753375E+05 -2.128246E+05 -1.857535E+05  5.346330E+04  1.828890E-09  1.555946E-09
       236  18 -4.935753E+05 -1.925717E+05 -1.645950E+05  6.498347E+04  1.023039E-09  6.090035E-10
       236  19  1.285172E+06  2.300961E+05  1.743016E+05  6.841092E+04  1.767354E+04  5.979214E+04
       236  20  1.202910E+06  2.127856E+05  1.646206E+05  5.688466E+04  1.474019E+04  5.681492E+04
       236  21  1.119739E+06  1.934238E+05  1.525181E+05  6.998247E+04  1.181594E+04  5.200594E+04
       236  22  3.127253E+05 -2.891354E+03 -1.910719E+04  6.749104E+04  1.504057E+04  5.979280E+04
       236  23  3.134085E+05  6.133131E+00 -1.054412E+04  5.517311E+04  9.780748E+03  5.680754E+04
       236  24  3.127704E+05  4.471434E+02 -6.020249E+03  6.748150E+04  4.529607E+03  5.198927E+04
       236  25 -6.588188E+05 -2.359366E+05 -2.125631E+05  6.657201E+04  1.241163E+04  5.979347E+04
       236  26 -5.753366E+05 -2.128212E+05 -1.857474E+05  5.346352E+04  4.828247E+03  5.680019E+04
       236  27 -4.935746E+05 -1.925688E+05 -1.645900E+05  6.498335E+04 -2.747474E+03  5.197264E+04
       237   1  1.061830E+06  1.792671E+05  1.421758E+05  6.945254E+04 -1.047886E+04 -4.869508E+04
       237   2  9.794708E+05  1.596204E+05  1.280692E+05  5.695498E+04 -9.340561E+03 -4.324207E+04
       237   3  8.968730E+05  1.400503E+05  1.132120E+05  6.911343E+04 -8.206227E+03 -3.768322E+04
       237   4  3.130228E+05  2.675899E+02 -4.579324E+03  6.749056E+04 -3.602375E+03 -4.867820E+04
       237   5  3.131747E+05  3.212955E+02 -2.596825E+03  5.516154E+04 -2.331083E+03 -4.322272E+04
       237   6  3.130575E+05  4.286711E+02 -1.457861E+03  6.749010E+04 -1.063605E+03 -3.766132E+04
       237   7 -4.352473E+05 -1.787657E+05 -1.513614E+05  6.553057E+04  3.266004E+03 -4.866135E+04
       237   8 -3.526965E+05 -1.590045E+05 -1.332841E+05  5.336972E+04  4.671044E+03 -4.320339E+04
       237   9 -2.704319E+05 -1.392135E+05 -1.161441E+05  6.586804E+04  6.072453E+03 -3.763945E+04
       237  10  1.061829E+06  1.792645E+05  1.421712E+05  6.945213E+04 -1.887023E-09  3.645661E-09
       237  11  9.794702E+05  1.596183E+05  1.280655E+05  5.695465E+04 -1.259620E-12  3.804092E-09
       237  12  8.968726E+05  1.400487E+05  1.132093E+05  6.911318E+04  3.194263E-09 -8.106127E-10
       237  13  3.130221E+05  2.650416E+02 -4.583802E+03  6.749042E+04  5.730588E-10 -5.242320E-09
       237  14  3.131742E+05  3.192876E+02 -2.600346E+03  5.516146E+04  1.389555E-09  1.251002E-09
       237  15  3.130571E+05  4.271475E+02 -1.460529E+03  6.749007E+04  7.164300E-10  5.920370E-09
       237  16 -4.352479E+05 -1.787682E+05 -1.513658E+05  6.553070E+04  3.401365E-09  2.439069E-09
       237  17 -3.526970E+05 -1.590065E+05 -1.332876E+05  5.336988E+04 -5.255786E-10  4.326810E-09
       237  18 -2.704323E+05 -1.392150E+05 -1.161468E+05  6.586823E+04 -3.634361E-09  1.115243E-09
       237  19  1.061830E+06  1.792671E+05  1.421758E+05  6.945254E+04  1.047886E+04  4.869508E+04
       237  20  9.794708E+05  1.596204E+05  1.280692E+05  5.695498E+04  9.340561E+03  4.324207E+04
       237  21  8.968730E+05  1.400503E+05  1.132120E+05  6.911343E+04  8.206227E+03  3.768322E+04
       237  22  3.130228E+05  2.675899E+02 -4.579324E+03  6.749056E+04  3.602375E+03  4.867820E+04
       237  23  3.131747E+05  3.212955E+02 -2.596825E+03  5.516154E+04  2.331083E+03  4.322272E+04
       237  24  3.130575E+05  4.286711E+02 -1.457861E+03  6.749010E+04  1.063605E+03  3.766132E+04
       237  25 -4.352473E+05 -1.787657E+05 -1.513614E+05  6.553057E+04 -3.266004E+03  4.866135E+04
       237  26 -3.526965E+05 -1.590045E+05 -1.332841E+05  5.336972E+04 -4.671044E+03  4.320339E+04
       237  27 -2.704319E+05 -1.392135E+05 -1.161441E+05  6.586804E+04 -6.072453E+03  3.763945E+04
       238   1  8.389443E+05  1.261182E+05  1.018090E+05  6.895067E+04 -7.957985E+03 -3.442051E+04
       238   2  7.567080E+05  1.064145E+05  8.639312E+04  5.643491E+04 -7.699985E+03 -2.883105E+04
       238   3  6.743064E+05  8.688542E+04  7.080641E+04  6.853492E+04 -7.444374E+03 -2.323794E+04
       238   4  3.130918E+05  4.328380E+02 -1.086473E+03  6.748116E+04 -8.437938E+02 -3.439765E+04
       238   5  3.131903E+05  3.686080E+02 -5.663673E+02  5.517272E+04 -5.818470E+02 -2.880680E+04
       238   6  3.131150E+05  4.783157E+02 -2.203151E+02  6.748108E+04 -3.222534E+02 -2.321226E+04
       238   7 -2.124958E+05 -1.252691E+05 -1.039951E+05  6.601268E+04  6.264509E+03 -3.437482E+04
       238   8 -1.301389E+05 -1.056891E+05 -8.753516E+04  5.391129E+04  6.531321E+03 -2.878256E+04
       238   9 -4.795150E+04 -8.593664E+04 -7.125319E+04  6.642775E+04  6.795816E+03 -2.318660E+04
       238  10  8.389439E+05  1.261169E+05  1.018067E+05  6.895045E+04  6.063027E-09  3.172516E-10
       238  11  7.567077E+05  1.064136E+05  8.639145E+04  5.643473E+04  1.040875E-09  1.044634E-08
       238  12  6.743062E+05  8.688482E+04  7.080529E+04  6.853478E+04 -1.468761E-09  1.131251E-08
       238  13  3.130914E+05  4.315671E+02 -1.088698E+03  6.748114E+04 -1.662009E-10  9.129215E-10
       238  14  3.131901E+05  3.677167E+02 -5.679276E+02  5.517271E+04  1.169963E-09  8.784512E-09
       238  15  3.131148E+05  4.777370E+02 -2.213280E+02  6.748108E+04 -8.774260E-10  2.479036E-09
       238  16 -2.124962E+05 -1.252704E+05 -1.039974E+05  6.601285E+04 -3.255790E-09  1.986177E-09
       238  17 -1.301391E+05 -1.056900E+05 -8.753680E+04  5.391144E+04 -1.320715E-09  6.027687E-10
       238  18 -4.795170E+04 -8.593723E+04 -7.125428E+04  6.642788E+04  1.652505E-09  2.761169E-10
       238  19  8.389443E+05  1.261182E+05  1.018090E+05  6.895067E+04  7.957985E+03  3.442051E+04
       238  20  7.567080E+05  1.064145E+05  8.639312E+04  5.643491E+04  7.699985E+03  2.883105E+04
       238  21  6.743064E+05  8.688542E+04  7.080641E+04  6.853492E+04  7.444374E+03  2.323794E+04
       238  22  3.130918E+05  4.328380E+02 -1.086473E+03  6.748116E+04  8.437938E+02  3.439765E+04
       238  23  3.131903E+05  3.686080E+02 -5.663673E+02  5.517272E+04  5.818470E+02  2.880680E+04
       238  24  3.131150E+05  4.783157E+02 -2.203151E+02  6.748108E+04  3.222534E+02  2.321226E+04
       238  25 -2.124958E+05 -1.252691E+05 -1.039951E+05  6.601268E+04 -6.264509E+03  3.437482E+04
       238  26 -1.301389E+05 -1.056891E+05 -8.753516E+04  5.391129E+04 -6.531321E+03  2.878256E+04
       238  27 -4.795150E+04 -8.593664E+04 -7.125319E+04  6.642775E+04 -6.795816E+03  2.318660E+04
       239   1  6.164500E+05  7.297508E+04  5.918292E+04  6.837189E+04 -7.425279E+03 -1.998242E+04
       239   2  5.343098E+05  5.327245E+04  4.353549E+04  5.585229E+04 -7.530080E+03 -1.439255E+04
       239   3  4.520123E+05  3.375619E+04  2.794516E+04  6.792723E+04 -7.636022E+03 -8.806729E+03
       239   4  3.131256E+05  4.852663E+02 -8.401324E+01  6.747627E+04 -3.066557E+02 -1.995613E+04
       239   5  3.132121E+05  4.005838E+02  1.820033E+02  5.517873E+04 -4.169794E+02 -1.436559E+04
       239   6  3.131371E+05  5.038640E+02  5.092834E+02  6.747624E+04 -5.284538E+02 -8.779081E+03
       239   7  9.889370E+03 -7.201005E+04 -5.935516E+04  6.658100E+04  6.808568E+03 -1.992984E+04
       239   8  9.216145E+04 -5.247420E+04 -4.317365E+04  5.450538E+04  6.693645E+03 -1.433863E+04
       239   9  1.742805E+05 -3.274960E+04 -2.692735E+04  6.702534E+04  6.577559E+03 -8.751439E+03
       239  10  6.164499E+05  7.297464E+04  5.918207E+04  6.837178E+04  1.525846E-08  5.176893E-09
       239  11  5.343097E+05  5.327221E+04  4.353499E+04  5.585221E+04  5.440832E-09  9.351193E-10
       239  12  4.520122E+05  3.375609E+04  2.794491E+04  6.792718E+04 -5.315849E-09 -3.847794E-09
       239  13  3.131255E+05  4.848386E+02 -8.476191E+01  6.747626E+04  2.257851E-09  1.269774E-08
       239  14  3.132121E+05  4.003621E+02  1.816151E+02  5.517873E+04  1.658439E-09  3.696802E-09
       239  15  3.131371E+05  5.037811E+02  5.091380E+02  6.747624E+04  2.274180E-10 -3.417873E-09
       239  16  9.889213E+03 -7.201049E+04 -5.935599E+04  6.658111E+04 -1.253980E-08  3.982657E-09
       239  17  9.216134E+04 -5.247443E+04 -4.317412E+04  5.450545E+04 -6.960864E-09 -1.888395E-09
       239  18  1.742804E+05 -3.274970E+04 -2.692758E+04  6.702539E+04  3.720429E-09 -2.600067E-09
       239  19  6.164500E+05  7.297508E+04  5.918292E+04  6.837189E+04  7.425279E+03  1.998242E+04
       239  20  5.343098E+05  5.327245E+04  4.353549E+04  5.585229E+04  7.530080E+03  1.439255E+04
       239  21  4.520123E+05  3.375619E+04  2.794516E+04  6.792723E+04  7.636022E+03  8.806729E+03
       239  22  3.131256E+05  4.852663E+02 -8.401324E+01  6.747627E+04  3.066557E+02  1.995613E+04
       239  23  3.132121E+05  4.005838E+02  1.820033E+02  5.517873E+04  4.169794E+02  1.436559E+04
       239  24  3.131371E+05  5.038640E+02  5.092834E+02  6.747624E+04  5.284538E+02  8.779081E+03
       239  25  9.889370E+03 -7.201005E+04 -5.935516E+04  6.658100E+04 -6.808568E+03  1.992984E+04
       239  26  9.216145E+04 -5.247420E+04 -4.317365E+04  5.450538E+04 -6.693645E+03  1.433863E+04
       239  27  1.742805E+05 -3.274960E+04 -2.692735E+04  6.702534E+04 -6.577559E+03  8.751439E+03
       240   1  3.942181E+05  1.984620E+04  1.640664E+04  6.776686E+04 -7.770053E+03 -5.552810E+03
       240   2  3.120835E+05  1.240670E+02  1.096538E+03  5.525862E+04 -8.389233E+03  1.275655E+01
       240   3  2.298596E+05 -1.936016E+04 -1.381216E+04  6.733290E+04 -9.008145E+03  5.528298E+03
       240   4  3.131568E+05  5.019684E+02  7.221686E+02  6.747353E+04 -6.527396E+02 -5.524915E+03
       240   5  3.131991E+05  3.945496E+02  1.337297E+03  5.518220E+04 -1.336027E+03  4.038843E+01
       240   6  3.131566E+05  5.364513E+02  2.398273E+03  6.747336E+04 -2.019122E+03  5.555685E+03
       240   7  2.321019E+05 -1.884262E+04 -1.496242E+04  6.718023E+04  6.463666E+03 -5.497024E+03
       240   8  3.143148E+05  6.650588E+02  1.578243E+03  5.510577E+04  5.717192E+03  6.801854E+01
       240   9  3.964604E+05  2.043268E+04  1.860856E+04  6.761384E+04  4.970818E+03  5.583073E+03
       240  10  3.942181E+05  1.984615E+04  1.640647E+04  6.776683E+04 -3.152517E-09  2.723579E-09
       240  11  3.120834E+05  1.240481E+02  1.096406E+03  5.525862E+04 -3.350350E-09  5.501655E-10
       240  12  2.298595E+05 -1.936022E+04 -1.381236E+04  6.733294E+04 -5.743634E-09  2.379201E-09
       240  13  3.131568E+05  5.019355E+02  7.221104E+02  6.747353E+04 -1.134851E-09  9.146127E-10
       240  14  3.131991E+05  3.945491E+02  1.337294E+03  5.518220E+04  4.856549E-10 -3.409309E-10
       240  15  3.131566E+05  5.364170E+02  2.398208E+03  6.747337E+04  1.171928E-09  1.682837E-09
       240  16  2.321018E+05 -1.884267E+04 -1.496256E+04  6.718026E+04  2.938275E-09  3.477383E-09
       240  17  3.143147E+05  6.650500E+02  1.578182E+03  5.510577E+04  2.405257E-09 -1.000659E-08
       240  18  3.964603E+05  2.043264E+04  1.860845E+04  6.761382E+04  5.053006E-09 -3.032949E-09
       240  19  3.942181E+05  1.984620E+04  1.640664E+04  6.776686E+04  7.770053E+03  5.552810E+03
       240  20  3.120835E+05  1.240670E+02  1.096538E+03  5.525862E+04  8.389233E+03 -1.275655E+01
       240  21  2.298596E+05 -1.936016E+04 -1.381216E+04  6.733290E+04  9.008145E+03 -5.528298E+03
       240  22  3.131568E+05  5.019684E+02  7.221686E+02  6.747353E+04  6.527396E+02  5.524915E+03
       240  23  3.131991E+05  3.945496E+02  1.337297E+03  5.518220E+04  1.336027E+03 -4.038843E+01
       240  24  3.131566E+05  5.364513E+02  2.398273E+03  6.747336E+04  2.019122E+03 -5.555685E+03
       240  25  2.321019E+05 -1.884262E+04 -1.496242E+04  6.718023E+04 -6.463666E+03  5.497024E+03
       240  26  3.143148E+05  6.650588E+02  1.578243E+03  5.510577E+04 -5.717192E+03 -6.801854E+01
       240  27  3.964604E+05  2.043268E+04  1.860856E+04  6.761384E+04 -4.970818E+03 -5.583073E+03
       241   1  1.721621E+05 -3.337833E+04 -2.479097E+04  6.739636E+04 -9.695430E+03  8.797930E+03
       241   2  8.978356E+04 -5.299306E+04 -3.861647E+04  5.446203E+04 -1.141820E+04  1.401270E+04
       241   3  7.761354E+03 -7.122316E+04 -5.103105E+04  6.607215E+04 -1.313657E+04  1.839373E+04
       241   4  3.132911E+05  4.296616E+02  3.164198E+03  6.746627E+04 -2.523020E+03  8.825827E+03
       241   5  3.130187E+05  4.792955E+02  5.539978E+03  5.519110E+04 -5.307775E+03  1.403580E+04
       241   6  3.132787E+05  2.097506E+03  1.006299E+04  6.745974E+04 -8.088345E+03  1.841220E+04
       241   7  4.544392E+05  3.423647E+04  3.111857E+04  6.753617E+04  4.650987E+03  8.853723E+03
       241   8  5.363016E+05  5.394864E+04  4.969411E+04  5.592039E+04  8.047961E+02  1.405891E+04
       241   9  6.188852E+05  7.541246E+04  7.115241E+04  6.884794E+04 -3.037684E+03  1.843068E+04
       241  10  1.721620E+05 -3.337844E+04 -2.479129E+04  6.739643E+04 -6.198041E-09  5.036449E-09
       241  11  8.978337E+04 -5.299330E+04 -3.861708E+04  5.446216E+04 -7.405180E-11  1.830631E-09
       241  12  7.761078E+03 -7.122357E+04 -5.103201E+04  6.607235E+04  5.944714E-09  5.281097E-09
       241  13  3.132910E+05  4.295762E+02  3.164039E+03  6.746629E+04  1.005178E-09  2.468283E-09
       241  14  3.130186E+05  4.790764E+02  5.539555E+03  5.519116E+04 -6.171106E-10  5.380268E-09
       241  15  3.132785E+05  2.097124E+03  1.006223E+04  6.745986E+04  7.234473E-10  2.462399E-09
       241  16  4.544391E+05  3.423638E+04  3.111838E+04  6.753614E+04  8.231888E-09  4.093800E-09
       241  17  5.363015E+05  5.394843E+04  4.969374E+04  5.592038E+04 -6.321323E-10  2.605269E-09
       241  18  6.188851E+05  7.541209E+04  7.115176E+04  6.884799E+04 -6.262799E-09 -8.954367E-09
       241  19  1.721621E+05 -3.337833E+04 -2.479097E+04  6.739636E+04  9.695430E+03 -8.797930E+03
       241  20  8.978356E+04 -5.299306E+04 -3.861647E+04  5.446203E+04  1.141820E+04 -1.401270E+04
       241  21  7.761354E+03 -7.122316E+04 -5.103105E+04  6.607215E+04  1.313657E+04 -1.839373E+04
       241  22  3.132911E+05  4.296616E+02  3.164198E+03  6.746627E+04  2.523020E+03 -8.825827E+03
       241  23  3.130187E+05  4.792955E+02  5.539978E+03  5.519110E+04  5.307775E+03 -1.403580E+04
       241  24  3.132787E+05  2.097506E+03  1.006299E+04  6.745974E+04  8.088345E+03 -1.841220E+04
       241  25  4.544392E+05  3.423647E+04  3.111857E+04  6.753617E+04 -4.650987E+03 -8.853723E+03
       241  26  5.363016E+05  5.394864E+04  4.969411E+04  5.592039E+04 -8.047961E+02 -1.405891E+04
       241  27  6.188852E+05  7.541246E+04  7.115241E+04  6.884794E+04  3.037684E+03 -1.843068E+04
       242   1 -4.864340E+04 -8.763417E+04 -5.977009E+04  7.100973E+04 -1.794866E+04  2.194231E+04
       242   2 -1.341224E+05 -1.025882E+05 -7.048988E+04  4.461897E+04 -1.218248E+04  2.136562E+04
       242   3 -2.132413E+05 -8.843803E+04 -7.772023E+04  4.195241E+04 -6.368769E+03  6.833953E+03
       242   4  3.152486E+05 -3.582437E+02  1.295499E+04  6.731035E+04 -9.840978E+03  2.197188E+04
       242   5  3.105195E+05  5.108924E+03  2.294907E+04  5.537121E+04 -2.182762E+04  2.132915E+04
       242   6  3.152198E+05  4.275018E+04  4.875440E+04  6.715406E+04 -3.376653E+04  6.736238E+03
       242   7  6.792672E+05  8.690966E+04  8.567367E+04  6.360862E+04 -1.728639E+03  2.200134E+04
       242   8  7.553485E+05  1.127938E+05  1.163773E+05  6.613110E+04 -3.147955E+04  2.129236E+04
       242   9  8.439395E+05  1.739208E+05  1.752124E+05  9.237702E+04 -6.118752E+04  6.636342E+03
       242  10 -4.864388E+04 -8.763477E+04 -5.977160E+04  7.101005E+04 -3.377339E-09  4.625202E-09
       242  11 -1.341226E+05 -1.025887E+05 -7.049102E+04  4.461918E+04 -8.758186E-10 -2.484439E-09
       242  12 -2.132413E+05 -8.843809E+04 -7.772039E+04  4.195245E+04  8.282412E-11 -1.452194E-09
       242  13  3.152484E+05 -3.587882E+02  1.295390E+04  6.731052E+04  1.103135E-10  1.013607E-08
       242  14  3.105189E+05  5.108308E+03  2.294732E+04  5.537159E+04  7.434827E-10 -7.748627E-09
       242  15  3.152185E+05  4.274982E+04  4.875217E+04  6.715424E+04 -3.289486E-10  4.384518E-09
       242  16  6.792670E+05  8.690914E+04  8.567275E+04  6.360865E+04  5.298663E-09  3.046567E-09
       242  17  7.553474E+05  1.127930E+05  1.163746E+05  6.613164E+04 -6.845817E-11  3.004825E-09
       242  18  8.439355E+05  1.739198E+05  1.752053E+05  9.237735E+04 -1.743514E-09 -9.120743E-10
       242  19 -4.864340E+04 -8.763417E+04 -5.977009E+04  7.100973E+04  1.794866E+04 -2.194231E+04
       242  20 -1.341224E+05 -1.025882E+05 -7.048988E+04  4.461897E+04  1.218248E+04 -2.136562E+04
       242  21 -2.132413E+05 -8.843803E+04 -7.772023E+04  4.195241E+04  6.368769E+03 -6.833953E+03
       242  22  3.152486E+05 -3.582437E+02  1.295499E+04  6.731035E+04  9.840978E+03 -2.197188E+04
       242  23  3.105195E+05  5.108924E+03  2.294907E+04  5.537121E+04  2.182762E+04 -2.132915E+04
       242  24  3.152198E+05  4.275018E+04  4.875440E+04  6.715406E+04  3.376653E+04 -6.736238E+03
       242  25  6.792672E+05  8.690966E+04  8.567367E+04  6.360862E+04  1.728639E+03 -2.200134E+04
       242  26  7.553485E+05  1.127938E+05  1.163773E+05  6.613110E+04  3.147955E+04 -2.129236E+04
       242  27  8.439395E+05  1.739208E+05  1.752124E+05  9.237702E+04  6.118752E+04 -6.636342E+03
       243   1  2.936178E+05  2.049225E+06  2.981910E+05 -1.874692E+05  1.058747E+04  9.890478E+04
       243   2  1.779925E+05  1.862846E+06  1.928762E+05 -1.363337E+05  3.269040E+04  4.542556E+04
       243   3  1.253871E+05  1.699020E+06  1.380442E+05 -1.360670E+05  3.141139E+04 -8.081000E+03
       243   4  7.637647E+04  1.172361E+06  8.827351E+04 -1.429973E+05  1.068281E+04  5.591537E+04
       243   5  8.848182E+03  1.163727E+06  4.553693E+04 -1.176472E+05  3.272316E+04  3.228168E+04
       243   6 -7.897341E+02  1.172479E+06  3.263147E+04 -1.431614E+05  3.137408E+04  8.604709E+03
       243   7 -1.409124E+05  2.962077E+05 -1.216904E+05 -9.858788E+04  1.077209E+04  1.298622E+04
       243   8 -1.603263E+05  4.650683E+05 -1.018290E+05 -9.898164E+04  3.275515E+04  1.915231E+04
       243   9 -1.269832E+05  6.462014E+05 -7.279420E+04 -1.502496E+05  3.133636E+04  2.527658E+04
       243  10  2.936151E+05  2.049214E+06  2.981725E+05 -1.874700E+05 -2.660914E-10 -1.896660E-09
       243  11  1.779908E+05  1.862844E+06  1.928703E+05 -1.363349E+05 -2.505858E-09 -2.995944E-10
       243  12  1.253860E+05  1.699020E+06  1.380422E+05 -1.360668E+05 -6.206701E-10 -3.622689E-09
       243  13  7.637551E+04  1.172358E+06  8.826743E+04 -1.429978E+05  1.268118E-09  2.233730E-09
       243  14  8.846752E+03  1.163725E+06  4.553296E+04 -1.176480E+05 -3.518931E-11  2.298263E-09
       243  15 -7.908115E+02  1.172478E+06  3.262948E+04 -1.431617E+05 -1.988706E-09  2.268435E-09
       243  16 -1.409125E+05  2.962075E+05 -1.216909E+05 -9.858800E+04  7.922730E-10 -9.813094E-10
       243  17 -1.603275E+05  4.650677E+05 -1.018317E+05 -9.898214E+04  3.738693E-10  1.426328E-09
       243  18 -1.269844E+05  6.462005E+05 -7.279725E+04 -1.502502E+05 -1.558705E-09  1.775071E-09
       243  19  2.936178E+05  2.049225E+06  2.981910E+05 -1.874692E+05 -1.058747E+04 -9.890478E+04
       243  20  1.779925E+05  1.862846E+06  1.928762E+05 -1.363337E+05 -3.269040E+04 -4.542556E+04
       243  21  1.253871E+05  1.699020E+06  1.380442E+05 -1.360670E+05 -3.141139E+04  8.081000E+03
       243  22  7.637647E+04  1.172361E+06  8.827351E+04 -1.429973E+05 -1.068281E+04 -5.591537E+04
       243  23  8.848182E+03  1.163727E+06  4.553693E+04 -1.176472E+05 -3.272316E+04 -3.228168E+04
       243  24 -7.897341E+02  1.172479E+06  3.263147E+04 -1.431614E+05 -3.137408E+04 -8.604709E+03
       243  25 -1.409124E+05  2.962077E+05 -1.216904E+05 -9.858788E+04 -1.077209E+04 -1.298622E+04
       243  26 -1.603263E+05  4.650683E+05 -1.018290E+05 -9.898164E+04 -3.275515E+04 -1.915231E+04
       243  27 -1.269832E+05  6.462014E+05 -7.279420E+04 -1.502496E+05 -3.133636E+04 -2.527658E+04
       244   1  9.976355E+04  1.572283E+06  1.115462E+05 -1.465331E+05  2.397064E+04 -8.181809E+03
       244   2  5.555515E+04  1.395652E+06  7.798938E+04 -1.175856E+05  1.449962E+04 -2.554530E+04
       244   3  2.006643E+04  1.223207E+06  5.782824E+04 -1.406773E+05  4.351013E+03 -4.290805E+04
       244   4  3.180946E+03  1.169523E+06  3.084591E+04 -1.433922E+05  2.394338E+04  3.507693E+03
       244   5  9.983994E+02  1.167530E+06  3.299713E+04 -1.173673E+05  1.446906E+04 -1.298765E+04
       244   6  7.388230E+03  1.169542E+06  4.794514E+04 -1.433820E+05  4.317089E+03 -2.948690E+04
       244   7 -9.341151E+04  7.669180E+05 -4.986213E+04 -1.402532E+05  2.391623E+04  1.518978E+04
       244   8 -5.356141E+04  9.394573E+05 -1.199706E+04 -1.171490E+05  1.443849E+04 -4.345030E+02
       244   9 -5.290010E+03  1.115880E+06  3.806261E+04 -1.460864E+05  4.283047E+03 -1.606687E+04
       244  10  9.976291E+04  1.572283E+06  1.115450E+05 -1.465330E+05 -1.142167E-09 -1.018257E-09
       244  11  5.555475E+04  1.395652E+06  7.798776E+04 -1.175853E+05 -5.942891E-10 -2.355091E-10
       244  12  2.006592E+04  1.223205E+06  5.782475E+04 -1.406772E+05 -2.636295E-10 -5.109491E-09
       244  13  3.180327E+03  1.169523E+06  3.084481E+04 -1.433922E+05 -2.030336E-09  2.008056E-09
       244  14  9.981294E+02  1.167530E+06  3.299642E+04 -1.173672E+05  3.386203E-10  2.574347E-09
       244  15  7.387977E+03  1.169541E+06  4.794348E+04 -1.433819E+05 -2.127070E-09  2.772628E-09
       244  16 -9.341219E+04  7.669176E+05 -4.986364E+04 -1.402535E+05 -1.370822E-09 -2.496361E-09
       244  17 -5.356164E+04  9.394572E+05 -1.199745E+04 -1.171490E+05  3.019532E-09  1.139815E-09
       244  18 -5.290099E+03  1.115880E+06  3.806209E+04 -1.460863E+05 -5.810782E-10  2.651682E-09
       244  19  9.976355E+04  1.572283E+06  1.115462E+05 -1.465331E+05 -2.397064E+04  8.181809E+03
       244  20  5.555515E+04  1.395652E+06  7.798938E+04 -1.175856E+05 -1.449962E+04  2.554530E+04
       244  21  2.006643E+04  1.223207E+06  5.782824E+04 -1.406773E+05 -4.351013E+03  4.290805E+04
       244  22  3.180946E+03  1.169523E+06  3.084591E+04 -1.433922E+05 -2.394338E+04 -3.507693E+03
       244  23  9.983994E+02  1.167530E+06  3.299713E+04 -1.173673E+05 -1.446906E+04  1.298765E+04
       244  24  7.388230E+03  1.169542E+06  4.794514E+04 -1.433820E+05 -4.317089E+03  2.948690E+04
       244  25 -9.341151E+04  7.669180E+05 -4.986213E+04 -1.402532E+05 -2.391623E+04 -1.518978E+04
       244  26 -5.356141E+04  9.394573E+05 -1.199706E+04 -1.171490E+05 -1.443849E+04  4.345030E+02
       244  27 -5.290010E+03  1.115880E+06  3.806261E+04 -1.460864E+05 -4.283047E+03  1.606687E+04
       245   1 -1.953806E+04  1.108070E+06  4.389925E+04 -1.630080E+05 -2.815348E+03 -5.342861E+04
       245   2 -3.860852E+04  9.148120E+05  4.626236E+04 -7.638957E+04 -9.138851E+03 -9.001021E+04
       245   3  7.556568E+04  7.593915E+05  1.056740E+05 -4.104858E+04 -3.556199E+03 -1.265538E+05
       245   4 -2.780416E+03  1.177642E+06  5.879894E+04 -1.432981E+05 -2.857055E+03 -3.768977E+04
       245   5  2.065892E+04  1.157379E+06  9.913101E+04 -1.174499E+05 -9.134059E+03 -8.946107E+04
       245   6  1.799301E+05  1.177515E+06  2.070216E+05 -1.428631E+05 -3.499900E+03 -1.412050E+05
       245   7  1.397851E+04  1.247220E+06  7.369948E+04 -1.235860E+05 -2.897761E+03 -2.194919E+04
       245   8  7.992871E+04  1.400004E+06  1.519970E+05 -1.585264E+05 -9.129341E+03 -8.891172E+04
       245   9  2.843205E+05  1.595820E+06  3.083630E+05 -2.447462E+05 -3.438826E+03 -1.558660E+05
       245  10 -1.953883E+04  1.108067E+06  4.389388E+04 -1.630081E+05  2.458389E-09 -5.176079E-10
       245  11 -3.861078E+04  9.148033E+05  4.624700E+04 -7.639023E+04  3.420505E-09  7.237363E-10
       245  12  7.556137E+04  7.593743E+05  1.056439E+05 -4.104895E+04  8.946815E-10 -2.648792E-09
       245  13 -2.780806E+03  1.177641E+06  5.879626E+04 -1.432982E+05  1.672933E-09  2.625305E-09
       245  14  2.065668E+04  1.157370E+06  9.911584E+04 -1.174505E+05  5.008638E-10  3.226872E-09
       245  15  1.799247E+05  1.177493E+06  2.069842E+05 -1.428635E+05  7.127314E-10  2.408998E-09
       245  16  1.397837E+04  1.247220E+06  7.369856E+04 -1.235860E+05  4.554132E-10 -2.819093E-09
       245  17  7.992651E+04  1.399996E+06  1.519820E+05 -1.585270E+05  4.103115E-09 -4.690802E-10
       245  18  2.843139E+05  1.595794E+06  3.083174E+05 -2.447466E+05  1.863839E-09  6.851704E-10
       245  19 -1.953806E+04  1.108070E+06  4.389925E+04 -1.630080E+05  2.815348E+03  5.342861E+04
       245  20 -3.860852E+04  9.148120E+05  4.626236E+04 -7.638957E+04  9.138851E+03  9.001021E+04
       245  21  7.556568E+04  7.593915E+05  1.056740E+05 -4.104858E+04  3.556199E+03  1.265538E+05
       245  22 -2.780416E+03  1.177642E+06  5.879894E+04 -1.432981E+05  2.857055E+03  3.768977E+04
       245  23  2.065892E+04  1.157379E+06  9.913101E+04 -1.174499E+05  9.134059E+03  8.946107E+04
       245  24  1.799301E+05  1.177515E+06  2.070216E+05 -1.428631E+05  3.499900E+03  1.412050E+05
       245  25  1.397851E+04  1.247220E+06  7.369948E+04 -1.235860E+05  2.897761E+03  2.194919E+04
       245  26  7.992871E+04  1.400004E+06  1.519970E+05 -1.585264E+05  9.129341E+03  8.891172E+04
       245  27  2.843205E+05  1.595820E+06  3.083630E+05 -2.447462E+05  3.438826E+03  1.558660E+05
       246   1  1.532187E+06  4.754848E+05  2.407944E+05  5.339990E+05  4.916365E+04  1.161763E+03
       246   2  1.462053E+06  4.525687E+05  2.014106E+05  5.056747E+05  3.362432E+04 -4.365585E+04
       246   3  1.376936E+06  4.386873E+05  1.810651E+05  4.990508E+05  7.472536E+03 -6.030967E+04
       246   4  5.230454E+05  1.051024E+05 -2.187953E+04  2.667510E+05 -8.328764E+03 -2.052631E+04
       246   5  5.351035E+05  1.124276E+05 -9.824245E+03  2.526953E+05  9.750620E+03 -5.267498E+04
       246   6  5.255169E+05  1.221300E+05 -5.335115E+03  2.603427E+05  1.720496E+04 -5.664046E+04
       246   7 -4.850806E+05 -2.652168E+05 -2.846175E+05 -1.029216E+02 -6.571728E+04 -4.217736E+04
       246   8 -3.909733E+05 -2.276475E+05 -2.211098E+05  6.205939E+01 -1.408413E+04 -6.167977E+04
       246   9 -3.251676E+05 -1.943657E+05 -1.917783E+05  2.193570E+04  2.692298E+04 -5.297678E+04
       246  10  1.532184E+06  4.754841E+05  2.407899E+05  5.339990E+05 -4.152076E-09 -1.811594E-09
       246  11  1.462052E+06  4.525664E+05  2.014049E+05  5.056759E+05 -7.865663E-10 -1.035906E-09
       246  12  1.376935E+06  4.386834E+05  1.810582E+05  4.990512E+05  1.493495E-09  5.154681E-10
       246  13  5.230452E+05  1.051019E+05 -2.188045E+04  2.667509E+05  1.331302E-09  3.267715E-09
       246  14  5.351027E+05  1.124245E+05 -9.829639E+03  2.526957E+05 -3.323437E-09  1.576281E-09
       246  15  5.255157E+05  1.221265E+05 -5.341702E+03  2.603435E+05 -4.628371E-09  3.173894E-09
       246  16 -4.850857E+05 -2.652199E+05 -2.846290E+05 -1.051552E+02  3.481113E-09  1.708172E-09
       246  17 -3.909746E+05 -2.276517E+05 -2.211173E+05  6.135944E+01 -2.046736E-09 -1.601289E-10
       246  18 -3.251691E+05 -1.943689E+05 -1.917849E+05  2.193685E+04 -1.258011E-08 -5.588178E-09
       246  19  1.532187E+06  4.754848E+05  2.407944E+05  5.339990E+05 -4.916365E+04 -1.161763E+03
       246  20  1.462053E+06  4.525687E+05  2.014106E+05  5.056747E+05 -3.362432E+04  4.365585E+04
       246  21  1.376936E+06  4.386873E+05  1.810651E+05  4.990508E+05 -7.472536E+03  6.030967E+04
       246  22  5.230454E+05  1.051024E+05 -2.187953E+04  2.667510E+05  8.328764E+03  2.052631E+04
       246  23  5.351035E+05  1.124276E+05 -9.824245E+03  2.526953E+05 -9.750620E+03  5.267498E+04
       246  24  5.255169E+05  1.221300E+05 -5.335115E+03  2.603427E+05 -1.720496E+04  5.664046E+04
       246  25 -4.850806E+05 -2.652168E+05 -2.846175E+05 -1.029216E+02  6.571728E+04  4.217736E+04
       246  26 -3.909733E+05 -2.276475E+05 -2.211098E+05  6.205939E+01  1.408413E+04  6.167977E+04
       246  27 -3.251676E+05 -1.943657E+05 -1.917783E+05  2.193570E+04 -2.692298E+04  5.297678E+04
       247   1  1.325068E+06  4.165129E+05  1.710905E+05  4.831717E+05  1.349396E+04 -5.326418E+04
       247   2  1.260118E+06  3.815104E+05  1.555098E+05  4.532291E+05  1.164624E+04 -5.045757E+04
       247   3  1.178246E+06  3.633154E+05  1.404022E+05  4.427407E+05  9.226697E+03 -4.614875E+04
       247   4  5.259541E+05  1.213740E+05 -4.134617E+03  2.613185E+05  1.626190E+04 -5.222469E+04
       247   5  5.346683E+05  1.135414E+05 -2.184208E+03  2.514498E+05  1.620636E+04 -4.873875E+04
       247   6  5.260995E+05  1.221620E+05 -1.180333E+03  2.610348E+05  1.557860E+04 -4.374968E+04
       247   7 -2.725201E+05 -1.737159E+05 -1.794000E+05  3.972498E+04  1.902601E+04 -5.118665E+04
       247   8 -1.902515E+05 -1.543859E+05 -1.599102E+05  4.988572E+04  2.076075E+04 -4.702211E+04
       247   9 -1.256162E+05 -1.189564E+05 -1.427879E+05  7.950394E+04  2.192330E+04 -4.135335E+04
       247  10  1.325067E+06  4.165098E+05  1.710848E+05  4.831723E+05 -5.951533E-09 -1.806826E-09
       247  11  1.260117E+06  3.815077E+05  1.555048E+05  4.532296E+05 -2.058858E-09  1.607779E-09
       247  12  1.178245E+06  3.633130E+05  1.403980E+05  4.427411E+05 -4.707450E-09 -1.057779E-09
       247  13  5.259531E+05  1.213710E+05 -4.140241E+03  2.613192E+05 -5.781934E-09 -7.068275E-09
       247  14  5.346674E+05  1.135387E+05 -2.189167E+03  2.514504E+05  7.027848E-10  7.315201E-09
       247  15  5.260987E+05  1.221599E+05 -1.184387E+03  2.610354E+05 -9.955938E-10 -5.181219E-10
       247  16 -2.725212E+05 -1.737188E+05 -1.794056E+05  3.972576E+04 -2.733414E-09 -3.858676E-09
       247  17 -1.902525E+05 -1.543884E+05 -1.599151E+05  4.988651E+04  2.310943E-09 -9.738281E-10
       247  18 -1.256172E+05 -1.189584E+05 -1.427920E+05  7.950467E+04  5.012316E-09  1.289375E-09
       247  19  1.325068E+06  4.165129E+05  1.710905E+05  4.831717E+05 -1.349396E+04  5.326418E+04
       247  20  1.260118E+06  3.815104E+05  1.555098E+05  4.532291E+05 -1.164624E+04  5.045757E+04
       247  21  1.178246E+06  3.633154E+05  1.404022E+05  4.427407E+05 -9.226697E+03  4.614875E+04
       247  22  5.259541E+05  1.213740E+05 -4.134617E+03  2.613185E+05 -1.626190E+04  5.222469E+04
       247  23  5.346683E+05  1.135414E+05 -2.184208E+03  2.514498E+05 -1.620636E+04  4.873875E+04
       247  24  5.260995E+05  1.221620E+05 -1.180333E+03  2.610348E+05 -1.557860E+04  4.374968E+04
       247  25 -2.725201E+05 -1.737159E+05 -1.794000E+05  3.972498E+04 -1.902601E+04  5.118665E+04
       247  26 -1.902515E+05 -1.543859E+05 -1.599102E+05  4.988572E+04 -2.076075E+04  4.702211E+04
       247  27 -1.256162E+05 -1.189564E+05 -1.427879E+05  7.950394E+04 -2.192330E+04  4.135335E+04
       248   1  1.125701E+06  3.437164E+05  1.288887E+05  4.280803E+05  8.618008E+03 -4.287590E+04
       248   2  1.061357E+06  3.084086E+05  1.136732E+05  3.981796E+05  6.857855E+03 -3.778286E+04
       248   3  9.800392E+05  2.901227E+05  9.836549E+04  3.875486E+05  5.066951E+03 -3.261746E+04
       248   4  5.261537E+05  1.221271E+05 -8.845966E+02  2.610594E+05  1.458543E+04 -4.062096E+04
       248   5  5.346728E+05  1.136701E+05 -4.639591E+02  2.514135E+05  1.291176E+04 -3.549331E+04
       248   6  5.261939E+05  1.222185E+05 -2.048185E+02  2.610367E+05  1.120733E+04 -3.029321E+04
       248   7 -7.302481E+04 -9.943104E+04 -1.306777E+05  9.418743E+04  2.054660E+04 -3.836840E+04
       248   8  8.269947E+03 -8.104545E+04 -1.146174E+05  1.047616E+05  1.896012E+04 -3.320586E+04
       248   9  7.255421E+04 -4.566980E+04 -9.878803E+04  1.346088E+05  1.734290E+04 -2.797080E+04
       248  10  1.125700E+06  3.437144E+05  1.288851E+05  4.280806E+05  1.895543E-10  4.301032E-09
       248  11  1.061356E+06  3.084070E+05  1.136705E+05  3.981798E+05 -1.438526E-09  1.206250E-09
       248  12  9.800389E+05  2.901215E+05  9.836344E+04  3.875487E+05 -4.072191E-09 -6.339275E-10
       248  13  5.261531E+05  1.221252E+05 -8.880983E+02  2.610598E+05 -1.169726E-09  2.915202E-09
       248  14  5.346723E+05  1.136687E+05 -4.666405E+02  2.514138E+05  8.577881E-11 -8.579329E-09
       248  15  5.261935E+05  1.222175E+05 -2.067796E+02  2.610370E+05 -1.584288E-09  1.048789E-09
       248  16 -7.302565E+04 -9.943274E+04 -1.306813E+05  9.418807E+04 -3.908405E-09  4.049510E-09
       248  17  8.269265E+03 -8.104674E+04 -1.146201E+05  1.047621E+05 -4.355785E-09  7.391798E-10
       248  18  7.255368E+04 -4.567072E+04 -9.879007E+04  1.346092E+05  9.226307E-10  5.674446E-09
       248  19  1.125701E+06  3.437164E+05  1.288887E+05  4.280803E+05 -8.618008E+03  4.287590E+04
       248  20  1.061357E+06  3.084086E+05  1.136732E+05  3.981796E+05 -6.857855E+03  3.778286E+04
       248  21  9.800392E+05  2.901227E+05  9.836549E+04  3.875486E+05 -5.066951E+03  3.261746E+04
       248  22  5.261537E+05  1.221271E+05 -8.845966E+02  2.610594E+05 -1.458543E+04  4.062096E+04
       248  23  5.346728E+05  1.136701E+05 -4.639591E+02  2.514135E+05 -1.291176E+04  3.549331E+04
       248  24  5.261939E+05  1.222185E+05 -2.048185E+02  2.610367E+05 -1.120733E+04  3.029321E+04
       248  25 -7.302481E+04 -9.943104E+04 -1.306777E+05  9.418743E+04 -2.054660E+04  3.836840E+04
       248  26  8.269947E+03 -8.104545E+04 -1.146174E+05  1.047616E+05 -1.896012E+04  3.320586E+04
       248  27  7.255421E+04 -4.566980E+04 -9.878803E+04  1.346088E+05 -1.734290E+04  2.797080E+04
       249   1  9.277096E+05  2.706955E+05  8.665665E+04  3.729855E+05  3.987938E+03 -2.960448E+04
       249   2  8.636582E+05  2.354626E+05  7.133202E+04  3.431720E+05  2.028481E+03 -2.448648E+04
       249   3  7.826663E+05  2.172040E+05  5.602677E+04  3.325435E+05  6.749238E+01 -1.936979E+04
       249   4  5.262142E+05  1.222127E+05 -1.186639E+02  2.610211E+05  1.010065E+04 -2.728977E+04
       249   5  5.346981E+05  1.137458E+05  4.019222E+01  2.514252E+05  8.139644E+03 -2.217117E+04
       249   6  5.262354E+05  1.222532E+05  2.192066E+02  2.610126E+05  6.177104E+03 -1.705387E+04
       249   7  1.248825E+05 -2.625666E+04 -8.690324E+04  1.491231E+05  1.620909E+04 -2.497668E+04
       249   8  2.058489E+05 -7.961473E+03 -7.125752E+04  1.597234E+05  1.424729E+04 -1.985719E+04
       249   9  2.698731E+05  2.730867E+04 -5.559160E+04  1.895092E+05  1.228394E+04 -1.473901E+04
       249  10  9.277094E+05  2.706945E+05  8.665498E+04  3.729856E+05 -3.828112E-09  7.293923E-09
       249  11  8.636580E+05  2.354619E+05  7.133089E+04  3.431720E+05  1.671560E-09  2.612529E-09
       249  12  7.826662E+05  2.172036E+05  5.602606E+04  3.325435E+05  8.079032E-09 -1.966761E-09
       249  13  5.262139E+05  1.222119E+05 -1.202556E+02  2.610213E+05 -2.190595E-09  3.861289E-09
       249  14  5.346979E+05  1.137453E+05  3.914366E+01  2.514253E+05 -4.109309E-09  3.859934E-10
       249  15  5.262353E+05  1.222529E+05  2.185882E+02  2.610126E+05 -2.716162E-10  7.477517E-10
       249  16  1.248821E+05 -2.625740E+04 -8.690490E+04  1.491235E+05  1.181088E-09  1.767178E-09
       249  17  2.058486E+05 -7.961951E+03 -7.125865E+04  1.597236E+05 -9.217455E-09 -4.364511E-09
       249  18  2.698729E+05  2.730840E+04 -5.559229E+04  1.895094E+05 -6.904806E-09 -1.863852E-09
       249  19  9.277096E+05  2.706955E+05  8.665665E+04  3.729855E+05 -3.987938E+03  2.960448E+04
       249  20  8.636582E+05  2.354626E+05  7.133202E+04  3.431720E+05 -2.028481E+03  2.448648E+04
       249  21  7.826663E+05  2.172040E+05  5.602677E+04  3.325435E+05 -6.749238E+01  1.936979E+04
       249  22  5.262142E+05  1.222127E+05 -1.186639E+02  2.610211E+05 -1.010065E+04  2.728977E+04
       249  23  5.346981E+05  1.137458E+05  4.019222E+01  2.514252E+05 -8.139644E+03  2.217117E+04
       249  24  5.262354E+05  1.222532E+05  2.192066E+02  2.610126E+05 -6.177104E+03  1.705387E+04
       249  25  1.248825E+05 -2.625666E+04 -8.690324E+04  1.491231E+05 -1.620909E+04  2.497668E+04
       249  26  2.058489E+05 -7.961473E+03 -7.125752E+04  1.597234E+05 -1.424729E+04  1.985719E+04
       249  27  2.698731E+05  2.730867E+04 -5.559160E+04  1.895092E+05 -1.228394E+04  1.473901E+04
       250   1  7.304981E+05  1.978217E+05  4.436770E+04  3.180197E+05 -1.103797E+03 -1.640434E+04
       250   2  6.665792E+05  1.626269E+05  2.923969E+04  2.882659E+05 -3.361685E+03 -1.140637E+04
       250   3  5.857674E+05  1.443899E+05  1.434960E+04  2.776625E+05 -5.618636E+03 -6.412911E+03
       250   4  5.262531E+05  1.222522E+05  3.268846E+02  2.610067E+05  5.001037E+03 -1.408973E+04
       250   5  5.347043E+05  1.137754E+05  6.493082E+02  2.514325E+05  2.737674E+03 -9.093353E+03
       250   6  5.262595E+05  1.222578E+05  1.214348E+03  2.610071E+05  4.752060E+02 -4.101487E+03
       250   7  3.220491E+05  4.668567E+04 -4.371660E+04  2.040107E+05  1.110374E+04 -1.177593E+04
       250   8  4.028466E+05  6.492516E+04 -2.794207E+04  2.146062E+05  8.835655E+03 -6.780856E+03
       250   9  4.667553E+05  1.001259E+05 -1.192096E+04  2.443533E+05  6.568418E+03 -1.790303E+03
       250  10  7.304980E+05  1.978214E+05  4.436719E+04  3.180196E+05 -5.025024E-09 -1.081712E-08
       250  11  6.665791E+05  1.626268E+05  2.923942E+04  2.882659E+05  2.375023E-09  3.950516E-09
       250  12  5.857674E+05  1.443899E+05  1.434946E+04  2.776624E+05  5.466781E-09  1.701920E-09
       250  13  5.262530E+05  1.222520E+05  3.264645E+02  2.610068E+05  3.240209E-10 -1.556043E-09
       250  14  5.347042E+05  1.137753E+05  6.491386E+02  2.514325E+05  2.056839E-09  7.803821E-09
       250  15  5.262595E+05  1.222578E+05  1.214316E+03  2.610071E+05 -2.859021E-10  1.613085E-10
       250  16  3.220490E+05  4.668549E+04 -4.371709E+04  2.040108E+05  1.030122E-08  2.744031E-09
       250  17  4.028465E+05  6.492508E+04 -2.794230E+04  2.146062E+05  1.711016E-09  1.946761E-09
       250  18  4.667553E+05  1.001259E+05 -1.192105E+04  2.443533E+05 -7.453947E-09 -3.425524E-09
       250  19  7.304981E+05  1.978217E+05  4.436770E+04  3.180197E+05  1.103797E+03  1.640434E+04
       250  20  6.665792E+05  1.626269E+05  2.923969E+04  2.882659E+05  3.361685E+03  1.140637E+04
       250  21  5.857674E+05  1.443899E+05  1.434960E+04  2.776625E+05  5.618636E+03  6.412911E+03
       250  22  5.262531E+05  1.222522E+05  3.268846E+02  2.610067E+05 -5.001037E+03  1.408973E+04
       250  23  5.347043E+05  1.137754E+05  6.493082E+02  2.514325E+05 -2.737674E+03  9.093353E+03
       250  24  5.262595E+05  1.222578E+05  1.214348E+03  2.610071E+05 -4.752060E+02  4.101487E+03
       250  25  3.220491E+05  4.668567E+04 -4.371660E+04  2.040107E+05 -1.110374E+04  1.177593E+04
       250  26  4.028466E+05  6.492516E+04 -2.794207E+04  2.146062E+05 -8.835655E+03  6.780856E+03
       250  27  4.667553E+05  1.001259E+05 -1.192096E+04  2.443533E+05 -6.568418E+03  1.790303E+03
       251   1  5.336813E+05  1.250440E+05  3.011558E+03  2.632024E+05 -6.994693E+03 -3.526834E+03
       251   2  4.696799E+05  8.982883E+04 -1.111544E+04  2.334546E+05 -1.035292E+04  1.032541E+03
       251   3  3.889918E+05  7.173465E+04 -2.414109E+04  2.228628E+05 -1.369404E+04  5.548636E+03
       251   4  5.263017E+05  1.222523E+05  1.627824E+03  2.610251E+05 -8.908054E+02 -1.211532E+03
       251   5  5.346477E+05  1.137355E+05  2.963094E+03  2.514291E+05 -4.301309E+03  3.327760E+03
       251   6  5.263118E+05  1.223492E+05  5.440946E+03  2.609865E+05 -7.694909E+03  7.823737E+03
       251   7  5.189223E+05  1.194606E+05  2.442626E+02  2.588478E+05  5.212963E+03  1.103723E+03
       251   8  5.996199E+05  1.376425E+05  1.704154E+04  2.694052E+05  1.750983E+03  5.623234E+03
       251   9  6.636520E+05  1.729658E+05  3.502230E+04  2.991182E+05 -1.694309E+03  1.009939E+04
       251  10  5.336813E+05  1.250440E+05  3.011443E+03  2.632024E+05 -7.834439E-09  2.931413E-09
       251  11  4.696798E+05  8.982880E+04 -1.111565E+04  2.334547E+05 -4.989709E-09 -5.762771E-09
       251  12  3.889915E+05  7.173456E+04 -2.414151E+04  2.228629E+05 -1.665337E-10  5.152213E-09
       251  13  5.263017E+05  1.222523E+05  1.627820E+03  2.610251E+05 -2.317491E-09  9.080205E-09
       251  14  5.346477E+05  1.137355E+05  2.963039E+03  2.514291E+05 -1.562615E-10  1.980311E-09
       251  15  5.263117E+05  1.223492E+05  5.440719E+03  2.609866E+05  2.818312E-09  1.933982E-09
       251  16  5.189223E+05  1.194606E+05  2.442093E+02  2.588478E+05  1.576592E-09 -1.243307E-09
       251  17  5.996199E+05  1.376425E+05  1.704148E+04  2.694052E+05  1.472637E-09 -2.992709E-09
       251  18  6.636520E+05  1.729656E+05  3.502211E+04  2.991182E+05  2.010688E-09  4.042277E-09
       251  19  5.336813E+05  1.250440E+05  3.011558E+03  2.632024E+05  6.994693E+03  3.526834E+03
       251  20  4.696799E+05  8.982883E+04 -1.111544E+04  2.334546E+05  1.035292E+04 -1.032541E+03
       251  21  3.889918E+05  7.173465E+04 -2.414109E+04  2.228628E+05  1.369404E+04 -5.548636E+03
       251  22  5.263017E+05  1.222523E+05  1.627824E+03  2.610251E+05  8.908054E+02  1.211532E+03
       251  23  5.346477E+05  1.137355E+05  2.963094E+03  2.514291E+05  4.301309E+03 -3.327760E+03
       251  24  5.263118E+05  1.223492E+05  5.440946E+03  2.609865E+05  7.694909E+03 -7.823737E+03
       251  25  5.189223E+05  1.194606E+05  2.442626E+02  2.588478E+05 -5.212963E+03 -1.103723E+03
       251  26  5.996199E+05  1.376425E+05  1.704154E+04  2.694052E+05 -1.750983E+03 -5.623234E+03
       251  27  6.636520E+05  1.729658E+05  3.502230E+04  2.991182E+05  1.694309E+03 -1.009939E+04
       252   1  3.366718E+05  5.257689E+04 -3.409580E+04  2.091067E+05 -1.605930E+04  8.098347E+03
       252   2  2.727493E+05  1.671881E+04 -4.393272E+04  1.780340E+05 -2.350464E+04  1.076275E+04
       252   3  1.939764E+05  1.364743E+03 -4.862469E+04  1.654160E+05 -3.063695E+04  1.260753E+04
       252   4  5.266079E+05  1.221047E+05  7.224192E+03  2.612220E+05 -9.854988E+03  1.045093E+04
       252   5  5.342285E+05  1.138206E+05  1.312521E+04  2.512103E+05 -1.828071E+04  1.274264E+04
       252   6  5.271864E+05  1.262322E+05  2.494618E+04  2.596504E+05 -2.639413E+04  1.421464E+04
       252   7  7.165806E+05  1.916352E+05  4.854219E+04  3.133519E+05 -3.648624E+03  1.280427E+04
       252   8  7.957762E+05  2.109277E+05  7.017890E+04  3.244147E+05 -1.305441E+04  1.472343E+04
       252   9  8.605064E+05  2.511084E+05  9.850965E+04  3.539308E+05 -2.214887E+04  1.582270E+04
       252  10  3.366715E+05  5.257675E+04 -3.409641E+04  2.091068E+05  1.351133E-08  2.325339E-09
       252  11  2.727486E+05  1.671854E+04 -4.393398E+04  1.780342E+05  3.230196E-09 -1.368792E-08
       252  12  1.939754E+05  1.364321E+03 -4.862676E+04  1.654163E+05 -3.366041E-09 -1.117757E-08
       252  13  5.266078E+05  1.221045E+05  7.223804E+03  2.612221E+05  1.735573E-09  2.124024E-09
       252  14  5.342281E+05  1.138203E+05  1.312428E+04  2.512105E+05  4.701701E-09  1.136391E-08
       252  15  5.271856E+05  1.262318E+05  2.494449E+04  2.596507E+05  2.690483E-09  2.783577E-09
       252  16  7.165806E+05  1.916351E+05  4.854186E+04  3.133519E+05 -7.314829E-09  5.590589E-09
       252  17  7.957760E+05  2.109274E+05  7.017817E+04  3.244149E+05 -7.708477E-10 -6.623829E-09
       252  18  8.605058E+05  2.511080E+05  9.850826E+04  3.539311E+05  5.665519E-09 -2.344068E-09
       252  19  3.366718E+05  5.257689E+04 -3.409580E+04  2.091067E+05  1.605930E+04 -8.098347E+03
       252  20  2.727493E+05  1.671881E+04 -4.393272E+04  1.780340E+05  2.350464E+04 -1.076275E+04
       252  21  1.939764E+05  1.364743E+03 -4.862469E+04  1.654160E+05  3.063695E+04 -1.260753E+04
       252  22  5.266079E+05  1.221047E+05  7.224192E+03  2.612220E+05  9.854988E+03 -1.045093E+04
       252  23  5.342285E+05  1.138206E+05  1.312521E+04  2.512103E+05  1.828071E+04 -1.274264E+04
       252  24  5.271864E+05  1.262322E+05  2.494618E+04  2.596504E+05  2.639413E+04 -1.421464E+04
       252  25  7.165806E+05  1.916352E+05  4.854219E+04  3.133519E+05  3.648624E+03 -1.280427E+04
       252  26  7.957762E+05  2.109277E+05  7.017890E+04  3.244147E+05  1.305441E+04 -1.472343E+04
       252  27  8.605064E+05  2.511084E+05  9.850965E+04  3.539308E+05  2.214887E+04 -1.582270E+04
       253   1  1.351870E+05 -1.419347E+04 -5.274026E+04  1.664697E+05 -3.962200E+04  1.333434E+04
       253   2  8.683827E+04 -6.499110E+04 -4.636094E+04  1.003892E+05 -5.223994E+04  7.503437E+03
       253   3  5.404304E+04 -1.973204E+04 -8.404152E+03  3.169170E+04 -5.905268E+04 -1.365406E+04
       253   4  5.312887E+05  1.200441E+05  3.220748E+04  2.639556E+05 -3.160086E+04  1.637357E+04
       253   5  5.290641E+05  1.216044E+05  5.906873E+04  2.457889E+05 -6.249518E+04  3.614648E+03
       253   6  5.459844E+05  2.227989E+05  1.319759E+05  2.250082E+05 -8.758886E+04 -2.446782E+04
       253   7  9.275529E+05  2.542897E+05  1.171476E+05  3.614969E+05 -2.357409E+04  1.941453E+04
       253   8  9.714875E+05  3.082311E+05  1.644848E+05  3.912889E+05 -7.275832E+04 -2.780428E+02
       253   9  1.038165E+06  4.653981E+05  2.723352E+05  4.184784E+05 -1.161494E+05 -3.529732E+04
       253  10  1.351853E+05 -1.419408E+04 -5.274355E+04  1.664701E+05  5.988375E-10 -7.854024E-09
       253  11  8.683532E+04 -6.499190E+04 -4.636617E+04  1.003895E+05  1.480937E-09 -5.440405E-09
       253  12  5.403924E+04 -1.973318E+04 -8.411055E+03  3.169105E+04 -1.082620E-11 -2.515195E-09
       253  13  5.312875E+05  1.200436E+05  3.220510E+04  2.639561E+05  7.720815E-10 -3.048692E-09
       253  14  5.290599E+05  1.216033E+05  5.906138E+04  2.457891E+05 -2.987200E-09 -6.056211E-09
       253  15  5.459760E+05  2.227962E+05  1.319604E+05  2.250065E+05 -6.543565E-10  3.632845E-09
       253  16  9.275522E+05  2.542891E+05  1.171459E+05  3.614973E+05  4.319284E-10 -9.035463E-12
       253  17  9.714818E+05  3.082297E+05  1.644749E+05  3.912889E+05 -1.757370E-09  3.133663E-09
       253  18  1.038150E+06  4.653931E+05  2.723075E+05  4.184751E+05 -9.921811E-10 -4.963404E-09
       253  19  1.351870E+05 -1.419347E+04 -5.274026E+04  1.664697E+05  3.962200E+04 -1.333434E+04
       253  20  8.683827E+04 -6.499110E+04 -4.636094E+04  1.003892E+05  5.223994E+04 -7.503437E+03
       253  21  5.404304E+04 -1.973204E+04 -8.404152E+03  3.169170E+04  5.905268E+04  1.365406E+04
       253  22  5.312887E+05  1.200441E+05  3.220748E+04  2.639556E+05  3.160086E+04 -1.637357E+04
       253  23  5.290641E+05  1.216044E+05  5.906873E+04  2.457889E+05  6.249518E+04 -3.614648E+03
       253  24  5.459844E+05  2.227989E+05  1.319759E+05  2.250082E+05  8.758886E+04  2.446782E+04
       253  25  9.275529E+05  2.542897E+05  1.171476E+05  3.614969E+05  2.357409E+04 -1.941453E+04
       253  26  9.714875E+05  3.082311E+05  1.644848E+05  3.912889E+05  7.275832E+04  2.780428E+02
       253  27  1.038165E+06  4.653981E+05  2.723352E+05  4.184784E+05  1.161494E+05  3.529732E+04
       254   1  6.034698E+04 -3.322035E+02 -2.863530E+03 -5.824599E+02 -7.993085E+03 -6.628071E+02
       254   2  5.364857E+04  9.241113E+03  2.048039E+03  2.217432E+03 -5.875684E+03 -1.976035E+03
       254   3  4.409582E+04  8.585813E+03  3.022560E+03  7.691745E+03 -3.762880E+03 -1.950740E+03
       254   4  1.054572E+04 -1.263179E+04 -1.483518E+04  6.036390E+03 -1.023701E+04 -6.705560E+02
       254   5  1.210424E+04 -8.358054E+02 -6.896982E+03  4.676759E+03 -6.609924E+03 -1.978582E+03
       254   6  1.054599E+04  4.690173E+02 -3.944427E+03  5.991596E+03 -2.987400E+03 -1.948074E+03
       254   7 -3.925316E+04 -2.493138E+04 -2.680697E+04  1.265470E+04 -1.248075E+04 -6.783531E+02
       254   8 -2.943845E+04 -1.091281E+04 -1.584210E+04  7.135918E+03 -7.344116E+03 -1.981136E+03
       254   9 -2.300276E+04 -7.647839E+03 -1.091147E+04  4.291540E+03 -2.211962E+03 -1.945412E+03
       254  10  6.034691E+04 -3.322211E+02 -2.863651E+03 -5.824642E+02 -9.967846E-09  2.062260E-09
       254  11  5.364853E+04  9.241099E+03  2.047967E+03  2.217422E+03 -9.484591E-10  1.249327E-08
       254  12  4.409581E+04  8.585805E+03  3.022526E+03  7.691739E+03  5.890174E-09  6.103564E-09
       254  13  1.054561E+04 -1.263182E+04 -1.483538E+04  6.036384E+03 -1.086907E-09 -7.512623E-09
       254  14  1.210419E+04 -8.358213E+02 -6.897071E+03  4.676748E+03  9.752585E-10 -1.407937E-08
       254  15  1.054598E+04  4.690108E+02 -3.944451E+03  5.991591E+03 -3.304254E-12 -2.537456E-10
       254  16 -3.925333E+04 -2.493143E+04 -2.680727E+04  1.265470E+04  1.058065E-08  4.287058E-10
       254  17 -2.943851E+04 -1.091283E+04 -1.584221E+04  7.135906E+03  7.751207E-10  4.435670E-09
       254  18 -2.300277E+04 -7.647845E+03 -1.091149E+04  4.291536E+03 -5.716099E-09  1.455228E-09
       254  19  6.034698E+04 -3.322035E+02 -2.863530E+03 -5.824599E+02  7.993085E+03  6.628071E+02
       254  20  5.364857E+04  9.241113E+03  2.048039E+03  2.217432E+03  5.875684E+03  1.976035E+03
       254  21  4.409582E+04  8.585813E+03  3.022560E+03  7.691745E+03  3.762880E+03  1.950740E+03
       254  22  1.054572E+04 -1.263179E+04 -1.483518E+04  6.036390E+03  1.023701E+04  6.705560E+02
       254  23  1.210424E+04 -8.358054E+02 -6.896982E+03  4.676759E+03  6.609924E+03  1.978582E+03
       254  24  1.054599E+04  4.690173E+02 -3.944427E+03  5.991596E+03  2.987400E+03  1.948074E+03
       254  25 -3.925316E+04 -2.493138E+04 -2.680697E+04  1.265470E+04  1.248075E+04  6.783531E+02
       254  26 -2.943845E+04 -1.091281E+04 -1.584210E+04  7.135918E+03  7.344116E+03  1.981136E+03
       254  27 -2.300276E+04 -7.647839E+03 -1.091147E+04  4.291540E+03  2.211962E+03  1.945412E+03
       255   1  3.875297E+04  6.172781E+03  2.647568E+03  5.910709E+03 -2.887808E+03 -1.580924E+03
       255   2  3.078546E+04  4.724088E+03  2.332326E+03  4.671591E+03 -2.120464E+03 -1.155422E+03
       255   3  2.258228E+04  2.825304E+03  1.399463E+03  6.150473E+03 -1.353386E+03 -6.610390E+02
       255   4  1.118324E+04 -4.875331E+02 -3.090754E+03  6.012158E+03 -2.449583E+03 -1.579422E+03
       255   5  1.130796E+04  2.351357E+01 -1.693782E+03  4.652190E+03 -1.604579E+03 -1.153648E+03
       255   6  1.118333E+04  7.094540E+01 -9.684197E+02  6.010232E+03 -7.598341E+02 -6.589914E+02
       255   7 -1.638578E+04 -7.147895E+03 -8.829117E+03  6.113601E+03 -2.011377E+03 -1.577921E+03
       255   8 -8.169176E+03 -4.677084E+03 -5.719910E+03  4.632789E+03 -1.088711E+03 -1.151874E+03
       255   9 -2.154907E+02 -2.683421E+03 -3.336308E+03  5.869993E+03 -1.662925E+02 -6.569440E+02
       255  10  3.875296E+04  6.172776E+03  2.647548E+03  5.910706E+03  8.362350E-10 -1.622667E-09
       255  11  3.078545E+04  4.724085E+03  2.332315E+03  4.671589E+03 -5.020057E-10  1.981344E-09
       255  12  2.258228E+04  2.825303E+03  1.399459E+03  6.150472E+03 -7.205336E-10  6.930359E-09
       255  13  1.118323E+04 -4.875374E+02 -3.090770E+03  6.012155E+03 -1.642961E-11  1.211521E-08
       255  14  1.130796E+04  2.351145E+01 -1.693789E+03  4.652189E+03  2.083336E-09 -1.460056E-08
       255  15  1.118333E+04  7.094478E+01 -9.684216E+02  6.010231E+03 -1.474736E-09  1.264419E-08
       255  16 -1.638578E+04 -7.147899E+03 -8.829129E+03  6.113599E+03  7.529035E-11 -6.181541E-09
       255  17 -8.169178E+03 -4.677086E+03 -5.719914E+03  4.632788E+03 -1.737999E-09 -4.156553E-09
       255  18 -2.154908E+02 -2.683422E+03 -3.336309E+03  5.869992E+03 -1.465731E-10  5.515039E-09
       255  19  3.875297E+04  6.172781E+03  2.647568E+03  5.910709E+03  2.887808E+03  1.580924E+03
       255  20  3.078546E+04  4.724088E+03  2.332326E+03  4.671591E+03  2.120464E+03  1.155422E+03
       255  21  2.258228E+04  2.825304E+03  1.399463E+03  6.150473E+03  1.353386E+03  6.610390E+02
       255  22  1.118324E+04 -4.875331E+02 -3.090754E+03  6.012158E+03  2.449583E+03  1.579422E+03
       255  23  1.130796E+04  2.351357E+01 -1.693782E+03  4.652190E+03  1.604579E+03  1.153648E+03
       255  24  1.118333E+04  7.094540E+01 -9.684197E+02  6.010232E+03  7.598341E+02  6.589914E+02
       255  25 -1.638578E+04 -7.147895E+03 -8.829117E+03  6.113601E+03  2.011377E+03  1.577921E+03
       255  26 -8.169176E+03 -4.677084E+03 -5.719910E+03  4.632789E+03  1.088711E+03  1.151874E+03
       255  27 -2.154907E+02 -2.683421E+03 -3.336308E+03  5.869993E+03  1.662925E+02  6.569440E+02
       256   1  1.667455E+04  1.339391E+03  3.682718E+02  6.051116E+03 -1.186743E+03 -3.559404E+02
       256   2  8.616204E+03 -5.962194E+02 -9.500467E+02  4.664500E+03 -9.900427E+02  1.573141E+02
       256   3  5.076331E+02 -2.535583E+03 -2.403223E+03  5.998590E+03 -7.933530E+02  6.741079E+02
       256   4  1.122746E+04  2.903613E+01 -7.351529E+02  6.011325E+03 -6.105536E+02 -3.539514E+02
       256   5  1.125289E+04  3.918986E+01 -4.089496E+02  4.650944E+03 -4.098627E+02  1.593160E+02
       256   6  1.122745E+04  4.493058E+01 -2.203444E+02  6.011267E+03 -2.091794E+02  6.761228E+02
       256   7  5.780405E+03 -1.281320E+03 -1.838578E+03  5.971534E+03 -3.436941E+01 -3.519626E+02
       256   8  1.388957E+04  6.745989E+02  1.321483E+02  4.637387E+03  1.703198E+02  1.613178E+02
       256   9  2.194737E+04  2.625437E+03  1.962529E+03  6.023944E+03  3.750041E+02  6.781378E+02
       256  10  1.667455E+04  1.339390E+03  3.682689E+02  6.051116E+03  3.972025E-09 -5.165736E-09
       256  11  8.616203E+03 -5.962197E+02 -9.500486E+02  4.664501E+03  1.866421E-09 -1.900249E-09
       256  12  5.076323E+02 -2.535584E+03 -2.403225E+03  5.998590E+03 -1.777324E-09 -9.179460E-10
       256  13  1.122746E+04  2.903589E+01 -7.351539E+02  6.011325E+03 -1.082547E-09 -3.843114E-10
       256  14  1.125288E+04  3.918979E+01 -4.089500E+02  4.650944E+03  4.608427E-10 -3.426058E-09
       256  15  1.122745E+04  4.493008E+01 -2.203454E+02  6.011267E+03  4.140291E-10 -2.755389E-09
       256  16  5.780405E+03 -1.281320E+03 -1.838578E+03  5.971534E+03 -1.975751E-09  7.445157E-10
       256  17  1.388957E+04  6.745988E+02  1.321482E+02  4.637387E+03 -2.363156E-09  9.410751E-09
       256  18  2.194737E+04  2.625437E+03  1.962528E+03  6.023944E+03  9.347218E-10  1.432041E-08
       256  19  1.667455E+04  1.339391E+03  3.682718E+02  6.051116E+03  1.186743E+03  3.559404E+02
       256  20  8.616204E+03 -5.962194E+02 -9.500467E+02  4.664500E+03  9.900427E+02 -1.573141E+02
       256  21  5.076331E+02 -2.535583E+03 -2.403223E+03  5.998590E+03  7.933530E+02 -6.741079E+02
       256  22  1.122746E+04  2.903613E+01 -7.351529E+02  6.011325E+03  6.105536E+02  3.539514E+02
       256  23  1.125289E+04  3.918986E+01 -4.089496E+02  4.650944E+03  4.098627E+02 -1.593160E+02
       256  24  1.122745E+04  4.493058E+01 -2.203444E+02  6.011267E+03  2.091794E+02 -6.761228E+02
       256  25  5.780405E+03 -1.281320E+03 -1.838578E+03  5.971534E+03  3.436941E+01  3.519626E+02
       256  26  1.388957E+04  6.745989E+02  1.321483E+02  4.637387E+03 -1.703198E+02 -1.613178E+02
       256  27  2.194737E+04  2.625437E+03  1.962529E+03  6.023944E+03 -3.750041E+02 -6.781378E+02
       257   1 -5.436171E+03 -3.980478E+03 -3.604098E+03  5.978479E+03 -7.595856E+02  9.755464E+02
       257   2 -1.350856E+04 -5.935856E+03 -5.145491E+03  4.595479E+03 -7.342362E+02  1.492831E+03
       257   3 -2.160321E+04 -7.873621E+03 -6.704782E+03  5.933486E+03 -7.088742E+02  2.010281E+03
       257   4  1.123375E+04  4.341847E+01 -1.549478E+02  6.011354E+03 -1.763015E+02  9.775560E+02
       257   5  1.124486E+04  3.308193E+01 -5.522927E+01  4.650857E+03 -1.507686E+02  1.494834E+03
       257   6  1.123362E+04  4.033000E+01  2.646304E+01  6.011360E+03 -1.252227E+02  2.012278E+03
       257   7  2.790393E+04  4.067298E+03  3.294189E+03  6.044229E+03  4.069980E+02  9.795655E+02
       257   8  3.599886E+04  6.001982E+03  5.035001E+03  4.706237E+03  4.327219E+02  1.496837E+03
       257   9  4.407147E+04  7.954214E+03  6.757652E+03  6.089239E+03  4.584591E+02  2.014274E+03
       257  10 -5.436172E+03 -3.980479E+03 -3.604101E+03  5.978479E+03  2.564328E-08 -7.860631E-09
       257  11 -1.350856E+04 -5.935859E+03 -5.145496E+03  4.595480E+03 -5.597747E-09  1.706196E-09
       257  12 -2.160321E+04 -7.873626E+03 -6.704791E+03  5.933487E+03 -3.315011E-08 -5.115959E-10
       257  13  1.123375E+04  4.341744E+01 -1.549496E+02  6.011354E+03 -1.068048E-09  3.832030E-09
       257  14  1.124486E+04  3.307952E+01 -5.523351E+01  4.650857E+03  5.148466E-10 -9.638530E-09
       257  15  1.123362E+04  4.032564E+01  2.645540E+01  6.011361E+03  1.519576E-09 -2.575881E-10
       257  16  2.790393E+04  4.067297E+03  3.294187E+03  6.044229E+03 -2.361901E-08  9.200473E-09
       257  17  3.599886E+04  6.001979E+03  5.034996E+03  4.706237E+03  8.980474E-10  8.154780E-09
       257  18  4.407147E+04  7.954209E+03  6.757644E+03  6.089238E+03  3.183289E-08  3.746647E-09
       257  19 -5.436171E+03 -3.980478E+03 -3.604098E+03  5.978479E+03  7.595856E+02 -9.755464E+02
       257  20 -1.350856E+04 -5.935856E+03 -5.145491E+03  4.595479E+03  7.342362E+02 -1.492831E+03
       257  21 -2.160321E+04 -7.873621E+03 -6.704782E+03  5.933486E+03  7.088742E+02 -2.010281E+03
       257  22  1.123375E+04  4.341847E+01 -1.549478E+02  6.011354E+03  1.763015E+02 -9.775560E+02
       257  23  1.124486E+04  3.308193E+01 -5.522927E+01  4.650857E+03  1.507686E+02 -1.494834E+03
       257  24  1.123362E+04  4.033000E+01  2.646304E+01  6.011360E+03  1.252227E+02 -2.012278E+03
       257  25  2.790393E+04  4.067298E+03  3.294189E+03  6.044229E+03 -4.069980E+02 -9.795655E+02
       257  26  3.599886E+04  6.001982E+03  5.035001E+03  4.706237E+03 -4.327219E+02 -1.496837E+03
       257  27  4.407147E+04  7.954214E+03  6.757652E+03  6.089239E+03 -4.584591E+02 -2.014274E+03
       258   1 -2.754992E+04 -9.317040E+03 -7.928871E+03  5.918652E+03 -7.186214E+02  2.311439E+03
       258   2 -3.563062E+04 -1.127476E+04 -9.465825E+03  4.542681E+03 -8.053760E+02  2.828450E+03
       258   3 -4.371747E+04 -1.321145E+04 -1.094669E+04  5.888198E+03 -8.921014E+02  3.345054E+03
       258   4  1.123710E+04  4.032978E+01  6.879634E+01  6.011468E+03 -1.349011E+02  2.313430E+03
       258   5  1.124011E+04  2.768313E+01  1.729673E+02  4.650734E+03 -2.221288E+02  2.830425E+03
       258   6  1.123686E+04  3.611576E+01  3.335244E+02  6.011477E+03 -3.093284E+02  3.347014E+03
       258   7  5.002555E+04  9.397605E+03  8.066384E+03  6.104288E+03  4.488551E+02  2.315421E+03
       258   8  5.811293E+04  1.132998E+04  9.811644E+03  4.758795E+03  3.611616E+02  2.832401E+03
       258   9  6.619406E+04  1.328349E+04  1.161357E+04  6.134765E+03  2.734953E+02  3.348975E+03
       258  10 -2.754992E+04 -9.317046E+03 -7.928882E+03  5.918653E+03 -4.815834E-09 -8.159193E-10
       258  11 -3.563062E+04 -1.127477E+04 -9.465842E+03  4.542682E+03 -2.240680E-09 -7.160786E-09
       258  12 -4.371748E+04 -1.321146E+04 -1.094671E+04  5.888201E+03 -8.304863E-09 -4.076598E-09
       258  13  1.123710E+04  4.032403E+01  6.878625E+01  6.011468E+03  1.072434E-09  7.590173E-09
       258  14  1.124011E+04  2.767452E+01  1.729522E+02  4.650735E+03  4.678904E-10 -2.729755E-09
       258  15  1.123685E+04  3.610370E+01  3.335032E+02  6.011478E+03  2.978560E-10 -2.394387E-09
       258  16  5.002555E+04  9.397599E+03  8.066374E+03  6.104287E+03  4.939593E-09  6.667946E-10
       258  17  5.811292E+04  1.132998E+04  9.811628E+03  4.758794E+03  2.330888E-09 -1.471213E-08
       258  18  6.619405E+04  1.328348E+04  1.161355E+04  6.134764E+03  7.317404E-09 -5.480850E-09
       258  19 -2.754992E+04 -9.317040E+03 -7.928871E+03  5.918652E+03  7.186214E+02 -2.311439E+03
       258  20 -3.563062E+04 -1.127476E+04 -9.465825E+03  4.542681E+03  8.053760E+02 -2.828450E+03
       258  21 -4.371747E+04 -1.321145E+04 -1.094669E+04  5.888198E+03  8.921014E+02 -3.345054E+03
       258  22  1.123710E+04  4.032978E+01  6.879634E+01  6.011468E+03  1.349011E+02 -2.313430E+03
       258  23  1.124011E+04  2.768313E+01  1.729673E+02  4.650734E+03  2.221288E+02 -2.830425E+03
       258  24  1.123686E+04  3.611576E+01  3.335244E+02  6.011477E+03  3.093284E+02 -3.347014E+03
       258  25  5.002555E+04  9.397605E+03  8.066384E+03  6.104288E+03 -4.488551E+02 -2.315421E+03
       258  26  5.811293E+04  1.132998E+04  9.811644E+03  4.758795E+03 -3.611616E+02 -2.832401E+03
       258  27  6.619406E+04  1.328349E+04  1.161357E+04  6.134765E+03 -2.734953E+02 -3.348975E+03
       259   1 -4.965710E+04 -1.465794E+04 -1.209824E+04  5.882082E+03 -9.659222E+02  3.646402E+03
       259   2 -5.776333E+04 -1.661980E+04 -1.339608E+04  4.512349E+03 -1.351077E+03  4.159513E+03
       259   3 -6.582627E+04 -1.852084E+04 -1.443343E+04  5.863123E+03 -1.736168E+03  4.664277E+03
       259   4  1.124810E+04  3.311785E+01  4.482896E+02  6.011298E+03 -3.810309E+02  3.648360E+03
       259   5  1.122543E+04  1.672274E+01  7.937123E+02  4.650999E+03 -7.756390E+02  4.161419E+03
       259   6  1.124774E+04  6.282185E+01  1.406205E+03  6.011191E+03 -1.170188E+03  4.666132E+03
       259   7  7.215681E+04  1.472394E+04  1.299462E+04  6.140524E+03  2.039168E+02  3.650318E+03
       259   8  8.021870E+04  1.665294E+04  1.498325E+04  4.789662E+03 -2.001379E+02  4.163326E+03
       259   9  8.832739E+04  1.864611E+04  1.724552E+04  6.159273E+03 -6.041385E+02  4.667987E+03
       259  10 -4.965710E+04 -1.465795E+04 -1.209826E+04  5.882085E+03 -4.938303E-09  1.146232E-09
       259  11 -5.776334E+04 -1.661982E+04 -1.339612E+04  4.512353E+03 -7.988679E-09 -1.101405E-08
       259  12 -6.582628E+04 -1.852086E+04 -1.443347E+04  5.863130E+03 -1.003778E-08 -9.955308E-09
       259  13  1.124809E+04  3.310352E+01  4.482643E+02  6.011299E+03  2.645773E-12  5.455111E-09
       259  14  1.122542E+04  1.670398E+01  7.936786E+02  4.651002E+03  9.852666E-10  1.852871E-09
       259  15  1.124773E+04  6.279810E+01  1.406162E+03  6.011195E+03 -1.087077E-09 -6.436078E-09
       259  16  7.215681E+04  1.472392E+04  1.299459E+04  6.140523E+03  4.821971E-09  7.334865E-09
       259  17  8.021870E+04  1.665293E+04  1.498322E+04  4.789663E+03  6.057240E-09 -9.701583E-09
       259  18  8.832739E+04  1.864608E+04  1.724548E+04  6.159275E+03  8.435420E-09  1.828316E-09
       259  19 -4.965710E+04 -1.465794E+04 -1.209824E+04  5.882082E+03  9.659222E+02 -3.646402E+03
       259  20 -5.776333E+04 -1.661980E+04 -1.339608E+04  4.512349E+03  1.351077E+03 -4.159513E+03
       259  21 -6.582627E+04 -1.852084E+04 -1.443343E+04  5.863123E+03  1.736168E+03 -4.664277E+03
       259  22  1.124810E+04  3.311785E+01  4.482896E+02  6.011298E+03  3.810309E+02 -3.648360E+03
       259  23  1.122543E+04  1.672274E+01  7.937123E+02  4.650999E+03  7.756390E+02 -4.161419E+03
       259  24  1.124774E+04  6.282185E+01  1.406205E+03  6.011191E+03  1.170188E+03 -4.666132E+03
       259  25  7.215681E+04  1.472394E+04  1.299462E+04  6.140524E+03 -2.039168E+02 -3.650318E+03
       259  26  8.021870E+04  1.665294E+04  1.498325E+04  4.789662E+03  2.001379E+02 -4.163326E+03
       259  27  8.832739E+04  1.864611E+04  1.724552E+04  6.159273E+03  6.041385E+02 -4.667987E+03
       260   1 -7.169946E+04 -2.004333E+04 -1.525469E+04  6.008827E+03 -2.065224E+03  4.972373E+03
       260   2 -7.997988E+04 -2.193360E+04 -1.556269E+04  4.363517E+03 -3.492925E+03  5.424576E+03
       260   3 -8.786932E+04 -2.292116E+04 -1.472044E+04  5.429657E+03 -4.920031E+03  5.714249E+03
       260   4  1.133147E+04 -1.701202E+01  1.846976E+03  6.010082E+03 -1.458300E+03  4.974352E+03
       260   5  1.111989E+04  4.532712E+01  3.221294E+03  4.652608E+03 -3.069528E+03  5.425919E+03
       260   6  1.133101E+04  1.042161E+03  5.873192E+03  6.006556E+03 -4.680180E+03  5.714966E+03
       260   7  9.436894E+04  2.000887E+04  1.894828E+04  6.011333E+03 -8.512964E+02  4.976331E+03
       260   8  1.022275E+05  2.202373E+04  2.200484E+04  4.941737E+03 -2.646070E+03  5.427262E+03
       260   9  1.105407E+05  2.500485E+04  2.646629E+04  6.583541E+03 -4.440290E+03  5.715684E+03
       260  10 -7.169948E+04 -2.004335E+04 -1.525475E+04  6.008835E+03  2.443921E-08 -8.329234E-09
       260  11 -7.997990E+04 -2.193363E+04 -1.556277E+04  4.363532E+03  9.307967E-09 -3.793720E-09
       260  12 -8.786935E+04 -2.292120E+04 -1.472055E+04  5.429680E+03 -7.024860E-09 -7.645026E-09
       260  13  1.133146E+04 -1.703916E+01  1.846926E+03  6.010088E+03 -3.248381E-09 -1.338597E-08
       260  14  1.111987E+04  4.529298E+01  3.221221E+03  4.652622E+03 -1.160845E-09  7.129499E-09
       260  15  1.133097E+04  1.042120E+03  5.873090E+03  6.006578E+03  3.008090E-10 -3.118038E-09
       260  16  9.436894E+04  2.000884E+04  1.894823E+04  6.011337E+03 -2.442372E-08 -4.498463E-09
       260  17  1.022275E+05  2.202370E+04  2.200477E+04  4.941748E+03 -1.256173E-08 -1.468635E-08
       260  18  1.105406E+05  2.500481E+04  2.646619E+04  6.583562E+03  5.807050E-09  5.856794E-09
       260  19 -7.169946E+04 -2.004333E+04 -1.525469E+04  6.008827E+03  2.065224E+03 -4.972373E+03
       260  20 -7.997988E+04 -2.193360E+04 -1.556269E+04  4.363517E+03  3.492925E+03 -5.424576E+03
       260  21 -8.786932E+04 -2.292116E+04 -1.472044E+04  5.429657E+03  4.920031E+03 -5.714249E+03
       260  22  1.133147E+04 -1.701202E+01  1.846976E+03  6.010082E+03  1.458300E+03 -4.974352E+03
       260  23  1.111989E+04  4.532712E+01  3.221294E+03  4.652608E+03  3.069528E+03 -5.425919E+03
       260  24  1.133101E+04  1.042161E+03  5.873192E+03  6.006556E+03  4.680180E+03 -5.714966E+03
       260  25  9.436894E+04  2.000887E+04  1.894828E+04  6.011333E+03  8.512964E+02 -4.976331E+03
       260  26  1.022275E+05  2.202373E+04  2.200484E+04  4.941737E+03  2.646070E+03 -5.427262E+03
       260  27  1.105407E+05  2.500485E+04  2.646629E+04  6.583541E+03  4.440290E+03 -5.715684E+03
       261   1 -9.273068E+04 -2.616239E+04 -1.427706E+04  8.782553E+03 -6.741582E+03  6.164453E+03
       261   2 -1.034229E+05 -2.581168E+04 -1.110754E+04 -4.665745E+02 -1.005625E+04  5.492942E+03
       261   3 -1.088588E+05 -6.096680E+03 -9.405139E+02 -7.207223E+03 -1.336066E+04  1.662452E+03
       261   4  1.254205E+04 -7.755932E+02  7.494243E+03  5.981089E+03 -5.706056E+03  6.167801E+03
       261   5  9.605017E+03  1.676001E+03  1.310130E+04  4.686519E+03 -1.258466E+04  5.484575E+03
       261   6  1.254167E+04  2.410847E+04  2.817996E+04  5.900264E+03 -1.945305E+04  1.642546E+03
       261   7  1.178253E+05  2.461054E+04  2.926495E+04  3.179134E+03 -4.670358E+03  6.171139E+03
       261   8  1.226450E+05  2.916295E+04  3.730943E+04  9.840554E+03 -1.511352E+04  5.476167E+03
       261   9  1.339561E+05  5.431321E+04  5.729962E+04  1.901032E+04 -2.554662E+04  1.622385E+03
       261  10 -9.273073E+04 -2.616245E+04 -1.427721E+04  8.782587E+03 -3.974700E-09 -2.191184E-09
       261  11 -1.034230E+05 -2.581174E+04 -1.110779E+04 -4.665300E+02  2.661411E-09  8.575832E-09
       261  12 -1.088590E+05 -6.096731E+03 -9.408546E+02 -7.207205E+03  9.868405E-09  1.141496E-08
       261  13  1.254200E+04 -7.756428E+02  7.494111E+03  5.981118E+03 -9.198636E-12  1.062703E-09
       261  14  9.604839E+03  1.675926E+03  1.310094E+04  4.686574E+03 -6.596463E-10  8.573034E-09
       261  15  1.254126E+04  2.410837E+04  2.817924E+04  5.900290E+03 -2.569650E-10  8.199235E-09
       261  16  1.178253E+05  2.461049E+04  2.926484E+04  3.179157E+03  5.069311E-09  2.975867E-09
       261  17  1.226447E+05  2.916285E+04  3.730894E+04  9.840621E+03 -6.738225E-09  8.758001E-11
       261  18  1.339554E+05  5.431303E+04  5.729839E+04  1.901035E+04 -9.537170E-09 -5.793893E-09
       261  19 -9.273068E+04 -2.616239E+04 -1.427706E+04  8.782553E+03  6.741582E+03 -6.164453E+03
       261  20 -1.034229E+05 -2.581168E+04 -1.110754E+04 -4.665745E+02  1.005625E+04 -5.492942E+03
       261  21 -1.088588E+05 -6.096680E+03 -9.405139E+02 -7.207223E+03  1.336066E+04 -1.662452E+03
       261  22  1.254205E+04 -7.755932E+02  7.494243E+03  5.981089E+03  5.706056E+03 -6.167801E+03
       261  23  9.605017E+03  1.676001E+03  1.310130E+04  4.686519E+03  1.258466E+04 -5.484575E+03
       261  24  1.254167E+04  2.410847E+04  2.817996E+04  5.900264E+03  1.945305E+04 -1.642546E+03
       261  25  1.178253E+05  2.461054E+04  2.926495E+04  3.179134E+03  4.670358E+03 -6.171139E+03
       261  26  1.226450E+05  2.916295E+04  3.730943E+04  9.840554E+03  1.511352E+04 -5.476167E+03
       261  27  1.339561E+05  5.431321E+04  5.729962E+04  1.901032E+04  2.554662E+04 -1.622385E+03
       262   1 -2.505418E+05 -1.030237E+06 -2.561824E+05  1.548097E+05 -8.575848E+03 -8.433007E+04
       262   2 -1.444325E+05 -8.626429E+05 -1.620100E+05  1.062343E+05 -2.616221E+04 -4.174452E+04
       262   3 -9.896212E+04 -7.152636E+05 -1.106972E+05  1.094653E+05 -2.372518E+04  9.190662E+02
       262   4 -6.870606E+04 -2.994634E+05 -7.977606E+04  1.168472E+05 -8.667708E+03 -5.342068E+04
       262   5 -5.246059E+03 -2.912803E+05 -3.835322E+04  9.105017E+04 -2.618476E+04 -3.337141E+04
       262   6  1.523084E+03 -2.993979E+05 -2.410126E+04  1.170635E+05 -2.368362E+04 -1.325615E+04
       262   7  1.130964E+05  4.318037E+05  9.659632E+04  7.884012E+04 -8.763303E+03 -2.247495E+04
       262   8  1.339197E+05  2.803896E+05  8.528451E+04  7.585208E+04 -2.620772E+04 -2.499067E+04
       262   9  1.019976E+05  1.166322E+05  6.248593E+04  1.246669E+05 -2.364242E+04 -2.744071E+04
       262  10 -2.505438E+05 -1.030244E+06 -2.561959E+05  1.548091E+05 -8.457131E-10 -5.536360E-09
       262  11 -1.444337E+05 -8.626449E+05 -1.620145E+05  1.062334E+05 -2.217697E-09 -8.134501E-10
       262  12 -9.896273E+04 -7.152638E+05 -1.106982E+05  1.094654E+05  2.205283E-09  9.405125E-09
       262  13 -6.870690E+04 -2.994665E+05 -7.978156E+04  1.168468E+05  7.824849E-10 -1.037844E-09
       262  14 -5.247095E+03 -2.912817E+05 -3.835660E+04  9.104947E+04 -1.850979E-09 -2.369688E-10
       262  15  1.522435E+03 -2.993983E+05 -2.410265E+04  1.170632E+05  1.440419E-09  3.968408E-09
       262  16  1.130961E+05  4.318031E+05  9.659523E+04  7.883996E+04 -2.226146E-09  5.732039E-09
       262  17  1.339188E+05  2.803888E+05  8.528204E+04  7.585155E+04 -1.205831E-09  9.980842E-09
       262  18  1.019968E+05  1.166313E+05  6.248347E+04  1.246663E+05 -1.088058E-09 -3.336249E-09
       262  19 -2.505418E+05 -1.030237E+06 -2.561824E+05  1.548097E+05  8.575848E+03  8.433007E+04
       262  20 -1.444325E+05 -8.626429E+05 -1.620100E+05  1.062343E+05  2.616221E+04  4.174452E+04
       262  21 -9.896212E+04 -7.152636E+05 -1.106972E+05  1.094653E+05  2.372518E+04 -9.190662E+02
       262  22 -6.870606E+04 -2.994634E+05 -7.977606E+04  1.168472E+05  8.667708E+03  5.342068E+04
       262  23 -5.246059E+03 -2.912803E+05 -3.835322E+04  9.105017E+04  2.618476E+04  3.337141E+04
       262  24  1.523084E+03 -2.993979E+05 -2.410126E+04  1.170635E+05  2.368362E+04  1.325615E+04
       262  25  1.130964E+05  4.318037E+05  9.659632E+04  7.884012E+04  8.763303E+03  2.247495E+04
       262  26  1.339197E+05  2.803896E+05  8.528451E+04  7.585208E+04  2.620772E+04  2.499067E+04
       262  27  1.019976E+05  1.166322E+05  6.248593E+04  1.246669E+05  2.364242E+04  2.744071E+04
       263   1 -7.578257E+04 -5.953926E+05 -8.308199E+04  1.193432E+05 -1.683224E+04 -4.404653E+02
       263   2 -3.479019E+04 -4.368241E+05 -4.559005E+04  9.112369E+04 -8.427517E+03  8.170794E+03
       263   3  1.094638E+03 -2.802289E+05 -1.489121E+04  1.158636E+05  3.489377E+02  1.678391E+04
       263   4 -3.402632E+03 -2.961871E+05 -2.060061E+04  1.172676E+05 -1.680570E+04 -9.734800E+03
       263   5 -6.071016E+02 -2.952183E+05 -1.634562E+04  9.078874E+04 -8.400460E+03 -1.540947E+03
       263   6 -2.844305E+03 -2.961731E+05 -1.859128E+04  1.172690E+05  3.764406E+02  6.652663E+03
       263   7  6.897164E+04  3.103352E+03  4.187615E+04  1.151910E+05 -1.677911E+04 -1.903354E+04
       263   8  3.357477E+04 -1.535933E+05  1.289808E+04  9.045373E+04 -8.373397E+03 -1.125487E+04
       263   9 -6.783203E+03 -3.121168E+05 -2.229097E+04  1.186744E+05  4.038980E+02 -3.478327E+03
       263  10 -7.578288E+04 -5.953927E+05 -8.308252E+04  1.193432E+05  2.336042E-09 -5.885826E-09
       263  11 -3.479029E+04 -4.368242E+05 -4.559031E+04  9.112375E+04 -5.495846E-10 -1.778118E-09
       263  12  1.094563E+03 -2.802292E+05 -1.489174E+04  1.158636E+05  2.002025E-09  7.706170E-09
       263  13 -3.402960E+03 -2.961873E+05 -2.060132E+04  1.172674E+05  6.118253E-10  1.085016E-09
       263  14 -6.071780E+02 -2.952184E+05 -1.634576E+04  9.078873E+04 -3.267641E-09 -1.122449E-09
       263  15 -2.844317E+03 -2.961731E+05 -1.859136E+04  1.172690E+05  5.121724E-10  2.462089E-09
       263  16  6.897124E+04  3.102887E+03  4.187494E+04  1.151907E+05 -2.169853E-11  6.451120E-09
       263  17  3.357466E+04 -1.535935E+05  1.289771E+04  9.045366E+04 -2.525440E-09  3.600498E-09
       263  18 -6.783207E+03 -3.121169E+05 -2.229100E+04  1.186744E+05  4.173206E-11 -2.736819E-09
       263  19 -7.578257E+04 -5.953926E+05 -8.308199E+04  1.193432E+05  1.683224E+04  4.404653E+02
       263  20 -3.479019E+04 -4.368241E+05 -4.559005E+04  9.112369E+04  8.427517E+03 -8.170794E+03
       263  21  1.094638E+03 -2.802289E+05 -1.489121E+04  1.158636E+05 -3.489377E+02 -1.678391E+04
       263  22 -3.402632E+03 -2.961871E+05 -2.060061E+04  1.172676E+05  1.680570E+04  9.734800E+03
       263  23 -6.071016E+02 -2.952183E+05 -1.634562E+04  9.078874E+04  8.400460E+03  1.540947E+03
       263  24 -2.844305E+03 -2.961731E+05 -1.859128E+04  1.172690E+05 -3.764406E+02 -6.652663E+03
       263  25  6.897164E+04  3.103352E+03  4.187615E+04  1.151910E+05  1.677911E+04  1.903354E+04
       263  26  3.357477E+04 -1.535933E+05  1.289808E+04  9.045373E+04  8.373397E+03  1.125487E+04
       263  27 -6.783203E+03 -3.121168E+05 -2.229097E+04  1.186744E+05 -4.038980E+02  3.478327E+03
       264   1  3.321751E+04 -1.662935E+05  6.945496E+03  1.238646E+05  6.886815E+03  2.291397E+04
       264   2  6.616076E+04 -3.196413E+03  3.108759E+04  7.881487E+04  1.210287E+04  2.536988E+04
       264   3  5.469086E+04  1.489215E+05  4.261947E+04  8.601648E+04  4.524289E+03  2.778804E+04
       264   4  1.162387E+03 -2.987515E+05 -2.106546E+04  1.171521E+05  6.922366E+03  9.804056E+03
       264   5 -4.350421E+03 -2.920117E+05 -3.220489E+04  9.093984E+04  1.210004E+04  2.668509E+04
       264   6 -5.679310E+04 -2.987879E+05 -6.598039E+04  1.169845E+05  4.480536E+03  4.352733E+04
       264   7 -3.089360E+04 -4.311924E+05 -4.907673E+04  1.104412E+05  6.958205E+03 -3.303099E+03
       264   8 -7.486665E+04 -5.807486E+05 -9.550237E+04  1.030592E+05  1.209726E+04  2.799970E+04
       264   9 -1.682881E+05 -7.463117E+05 -1.745933E+05  1.479303E+05  4.438338E+03  5.925530E+04
       264  10  3.321732E+04 -1.662941E+05  6.944420E+03  1.238644E+05  2.553170E-09 -9.281928E-10
       264  11  6.616043E+04 -3.197143E+03  3.108611E+04  7.881463E+04 -6.690743E-10 -1.989508E-09
       264  12  5.469063E+04  1.489207E+05  4.261798E+04  8.601638E+04 -5.271694E-10  7.463569E-09
       264  13  1.162310E+03 -2.987516E+05 -2.106573E+04  1.171521E+05  1.886358E-09  2.663871E-11
       264  14 -4.350769E+03 -2.920125E+05 -3.220651E+04  9.093958E+04 -5.571801E-09 -7.653644E-09
       264  15 -5.679363E+04 -2.987899E+05 -6.598399E+04  1.169844E+05 -4.524994E-10  2.924737E-09
       264  16 -3.089366E+04 -4.311924E+05 -4.907684E+04  1.104412E+05 -1.126621E-09  4.586067E-09
       264  17 -7.486702E+04 -5.807495E+05 -9.550412E+04  1.030589E+05 -7.219787E-10  6.345967E-09
       264  18 -1.682891E+05 -7.463155E+05 -1.745999E+05  1.479301E+05 -3.073410E-10 -9.493045E-10
       264  19  3.321751E+04 -1.662935E+05  6.945496E+03  1.238646E+05 -6.886815E+03 -2.291397E+04
       264  20  6.616076E+04 -3.196413E+03  3.108759E+04  7.881487E+04 -1.210287E+04 -2.536988E+04
       264  21  5.469086E+04  1.489215E+05  4.261947E+04  8.601648E+04 -4.524289E+03 -2.778804E+04
       264  22  1.162387E+03 -2.987515E+05 -2.106546E+04  1.171521E+05 -6.922366E+03 -9.804056E+03
       264  23 -4.350421E+03 -2.920117E+05 -3.220489E+04  9.093984E+04 -1.210004E+04 -2.668509E+04
       264  24 -5.679310E+04 -2.987879E+05 -6.598039E+04  1.169845E+05 -4.480536E+03 -4.352733E+04
       264  25 -3.089360E+04 -4.311924E+05 -4.907673E+04  1.104412E+05 -6.958205E+03  3.303099E+03
       264  26 -7.486665E+04 -5.807486E+05 -9.550237E+04  1.030592E+05 -1.209726E+04 -2.799970E+04
       264  27 -1.682881E+05 -7.463117E+05 -1.745933E+05  1.479303E+05 -4.438338E+03 -5.925530E+04
       265   1  2.365534E+05  8.143525E+04  4.196817E+04  9.667525E+04  2.402032E+04  8.799712E+03
       265   2  2.300600E+05  4.514752E+04  1.962363E+04  9.482685E+04  1.499967E+04  4.848911E+03
       265   3  2.322898E+05  3.515849E+04  1.084663E+04  8.870452E+04  5.719142E+03  1.584590E+03
       265   4  2.247757E+05  6.256204E+04  3.603886E+04  7.873747E+04  2.316567E+04  8.475189E+03
       265   5  2.184804E+05  3.550379E+04  1.593023E+04  8.617270E+04  1.487009E+04  4.799655E+03
       265   6  2.207649E+05  3.460024E+04  8.814516E+03  8.933388E+04  6.314510E+03  1.810220E+03
       265   7  2.129988E+05  4.369051E+04  3.010977E+04  6.080056E+04  2.231105E+04  8.150729E+03
       265   8  2.069010E+05  2.586035E+04  1.223685E+04  7.751880E+04  1.474052E+04  4.750403E+03
       265   9  2.092399E+05  3.404202E+04  6.782387E+03  8.996321E+04  6.909871E+03  2.035856E+03
       265  10  2.365527E+05  8.143501E+04  4.196694E+04  9.667508E+04 -1.924566E-08  3.855003E-10
       265  11  2.300597E+05  4.514743E+04  1.962316E+04  9.482679E+04 -5.449575E-09  1.281387E-09
       265  12  2.322898E+05  3.515847E+04  1.084656E+04  8.870452E+04  9.321309E-09  1.066214E-08
       265  13  2.247751E+05  6.256182E+04  3.603772E+04  7.873731E+04 -8.223663E-11 -4.030725E-09
       265  14  2.184801E+05  3.550370E+04  1.592977E+04  8.617264E+04  2.881477E-09  7.326538E-09
       265  15  2.207648E+05  3.460023E+04  8.814435E+03  8.933387E+04  4.234161E-09 -3.228708E-09
       265  16  2.129983E+05  4.369030E+04  3.010871E+04  6.080041E+04  1.972366E-08  8.700563E-09
       265  17  2.069008E+05  2.586027E+04  1.223640E+04  7.751874E+04  1.018339E-08  2.550127E-09
       265  18  2.092399E+05  3.404200E+04  6.782290E+03  8.996320E+04 -6.258012E-09 -7.612636E-09
       265  19  2.365534E+05  8.143525E+04  4.196817E+04  9.667525E+04 -2.402032E+04 -8.799712E+03
       265  20  2.300600E+05  4.514752E+04  1.962363E+04  9.482685E+04 -1.499967E+04 -4.848911E+03
       265  21  2.322898E+05  3.515849E+04  1.084663E+04  8.870452E+04 -5.719142E+03 -1.584590E+03
       265  22  2.247757E+05  6.256204E+04  3.603886E+04  7.873747E+04 -2.316567E+04 -8.475189E+03
       265  23  2.184804E+05  3.550379E+04  1.593023E+04  8.617270E+04 -1.487009E+04 -4.799655E+03
       265  24  2.207649E+05  3.460024E+04  8.814516E+03  8.933388E+04 -6.314510E+03 -1.810220E+03
       265  25  2.129988E+05  4.369051E+04  3.010977E+04  6.080056E+04 -2.231105E+04 -8.150729E+03
       265  26  2.069010E+05  2.586035E+04  1.223685E+04  7.751880E+04 -1.474052E+04 -4.750403E+03
       265  27  2.092399E+05  3.404202E+04  6.782387E+03  8.996321E+04 -6.909871E+03 -2.035856E+03
       266   1  2.230507E+05  3.837915E+04  7.754817E+03  8.932137E+04  4.714881E+03  1.551926E+03
       266   2  2.170449E+05  3.351614E+04  2.933461E+03  8.654392E+04  2.709393E+03  1.252799E+03
       266   3  2.099678E+05  3.163294E+04 -1.840757E+02  8.552439E+04  6.915258E+02  9.864790E+02
       266   4  2.196562E+05  3.668000E+04  6.890999E+03  8.793413E+04  5.123256E+03  1.706659E+03
       266   5  2.201041E+05  3.455636E+04  3.604031E+03  8.729671E+04  3.152411E+03  1.420661E+03
       266   6  2.194736E+05  3.540564E+04  1.993428E+03  8.841716E+04  1.169172E+03  1.167460E+03
       266   7  2.162618E+05  3.498085E+04  6.027181E+03  8.654691E+04  5.531628E+03  1.861389E+03
       266   8  2.231632E+05  3.559658E+04  4.274600E+03  8.804949E+04  3.595430E+03  1.588522E+03
       266   9  2.289795E+05  3.917832E+04  4.170909E+03  9.130996E+04  1.646824E+03  1.348444E+03
       266  10  2.230506E+05  3.837914E+04  7.754771E+03  8.932136E+04  3.991216E-08  2.151371E-08
       266  11  2.170449E+05  3.351614E+04  2.933444E+03  8.654392E+04  1.617127E-08  2.104366E-08
       266  12  2.099678E+05  3.163294E+04 -1.840785E+02  8.552439E+04 -1.532794E-08  4.023672E-09
       266  13  2.196562E+05  3.667999E+04  6.890944E+03  8.793413E+04  3.234244E-09 -8.587133E-09
       266  14  2.201041E+05  3.455636E+04  3.604009E+03  8.729670E+04  1.508197E-09  1.633535E-08
       266  15  2.194736E+05  3.540564E+04  1.993422E+03  8.841716E+04  1.018955E-09  3.821177E-09
       266  16  2.162617E+05  3.498083E+04  6.027117E+03  8.654690E+04 -3.224678E-08 -1.367275E-08
       266  17  2.231632E+05  3.559657E+04  4.274571E+03  8.804949E+04 -7.052963E-09 -3.902916E-09
       266  18  2.289795E+05  3.917832E+04  4.170900E+03  9.130996E+04  2.092683E-08  1.059062E-08
       266  19  2.230507E+05  3.837915E+04  7.754817E+03  8.932137E+04 -4.714881E+03 -1.551926E+03
       266  20  2.170449E+05  3.351614E+04  2.933461E+03  8.654392E+04 -2.709393E+03 -1.252799E+03
       266  21  2.099678E+05  3.163294E+04 -1.840757E+02  8.552439E+04 -6.915258E+02 -9.864790E+02
       266  22  2.196562E+05  3.668000E+04  6.890999E+03  8.793413E+04 -5.123256E+03 -1.706659E+03
       266  23  2.201041E+05  3.455636E+04  3.604031E+03  8.729671E+04 -3.152411E+03 -1.420661E+03
       266  24  2.194736E+05  3.540564E+04  1.993428E+03  8.841716E+04 -1.169172E+03 -1.167460E+03
       266  25  2.162618E+05  3.498085E+04  6.027181E+03  8.654691E+04 -5.531628E+03 -1.861389E+03
       266  26  2.231632E+05  3.559658E+04  4.274600E+03  8.804949E+04 -3.595430E+03 -1.588522E+03
       266  27  2.289795E+05  3.917832E+04  4.170909E+03  9.130996E+04 -1.646824E+03 -1.348444E+03
       267   1  2.046548E+05  2.997909E+04 -1.864121E+03  8.420803E+04  3.199632E+02  1.145305E+03
       267   2  1.987907E+05  2.655897E+04 -4.042035E+03  8.135939E+04 -2.660622E+02  1.431665E+03
       267   3  1.912395E+05  2.496921E+04 -5.893312E+03  8.050884E+04 -8.527184E+02  1.719726E+03
       267   4  2.193878E+05  3.549685E+04  1.509996E+03  8.833972E+04  7.887776E+02  1.322937E+03
       267   5  2.202282E+05  3.455914E+04  8.338971E+02  8.734925E+04  2.045386E+02  1.609969E+03
       267   6  2.193812E+05  3.545151E+04  4.830611E+02  8.835689E+04 -3.803345E+02  1.898699E+03
       267   7  2.341211E+05  4.101466E+04  4.884125E+03  9.247153E+04  1.257607E+03  1.500574E+03
       267   8  2.416662E+05  4.255938E+04  5.709819E+03  9.333931E+04  6.751587E+02  1.788279E+03
       267   9  2.475237E+05  4.593387E+04  6.859386E+03  9.620526E+04  9.207287E+01  2.077681E+03
       267  10  2.046548E+05  2.997909E+04 -1.864124E+03  8.420803E+04 -5.058693E-11  2.876833E-09
       267  11  1.987907E+05  2.655897E+04 -4.042039E+03  8.135939E+04 -2.512813E-09 -2.905113E-09
       267  12  1.912395E+05  2.496920E+04 -5.893319E+03  8.050884E+04 -2.435506E-09 -7.392531E-10
       267  13  2.193878E+05  3.549685E+04  1.509991E+03  8.833972E+04 -8.571744E-10  3.985476E-09
       267  14  2.202282E+05  3.455914E+04  8.338922E+02  8.734925E+04  6.692068E-10  4.854544E-09
       267  15  2.193812E+05  3.545150E+04  4.830541E+02  8.835689E+04 -3.269381E-09 -3.425828E-09
       267  16  2.341211E+05  4.101466E+04  4.884117E+03  9.247153E+04 -2.028172E-10 -5.174630E-10
       267  17  2.416662E+05  4.255938E+04  5.709813E+03  9.333931E+04 -1.734292E-09  1.192802E-08
       267  18  2.475237E+05  4.593387E+04  6.859377E+03  9.620526E+04 -1.010822E-09  6.048386E-09
       267  19  2.046548E+05  2.997909E+04 -1.864121E+03  8.420803E+04 -3.199632E+02 -1.145305E+03
       267  20  1.987907E+05  2.655897E+04 -4.042035E+03  8.135939E+04  2.660622E+02 -1.431665E+03
       267  21  1.912395E+05  2.496921E+04 -5.893312E+03  8.050884E+04  8.527184E+02 -1.719726E+03
       267  22  2.193878E+05  3.549685E+04  1.509996E+03  8.833972E+04 -7.887776E+02 -1.322937E+03
       267  23  2.202282E+05  3.455914E+04  8.338971E+02  8.734925E+04 -2.045386E+02 -1.609969E+03
       267  24  2.193812E+05  3.545151E+04  4.830611E+02  8.835689E+04  3.803345E+02 -1.898699E+03
       267  25  2.341211E+05  4.101466E+04  4.884125E+03  9.247153E+04 -1.257607E+03 -1.500574E+03
       267  26  2.416662E+05  4.255938E+04  5.709819E+03  9.333931E+04 -6.751587E+02 -1.788279E+03
       267  27  2.475237E+05  4.593387E+04  6.859386E+03  9.620526E+04 -9.207287E+01 -2.077681E+03
       268   1  1.861403E+05  2.308452E+04 -7.193313E+03  7.910443E+04 -1.022761E+03  1.952885E+03
       268   2  1.802982E+05  1.971339E+04 -8.811766E+03  7.624391E+04 -1.324732E+03  2.349778E+03
       268   3  1.727092E+05  1.811527E+04 -1.033038E+04  7.538601E+04 -1.626799E+03  2.747015E+03
       268   4  2.193702E+05  3.545460E+04  3.818051E+02  8.835189E+04 -5.505674E+02  2.131779E+03
       268   5  2.202435E+05  3.456781E+04  2.658655E+02  8.735067E+04 -8.521909E+02  2.528791E+03
       268   6  2.193699E+05  3.545391E+04  2.494923E+02  8.835202E+04 -1.153914E+03  2.926146E+03
       268   7  2.526011E+05  4.782469E+04  7.956796E+03  9.759974E+04 -7.834897E+01  2.310683E+03
       268   8  2.601905E+05  4.942235E+04  9.343393E+03  9.845809E+04 -3.796168E+02  2.707816E+03
       268   9  2.660330E+05  5.279282E+04  1.082930E+04  1.013190E+05 -6.809867E+02  3.105294E+03
       268  10  1.861403E+05  2.308451E+04 -7.193322E+03  7.910443E+04 -9.360585E-09  4.793900E-09
       268  11  1.802982E+05  1.971338E+04 -8.811780E+03  7.624391E+04 -8.611856E-09  1.939767E-08
       268  12  1.727092E+05  1.811526E+04 -1.033040E+04  7.538602E+04  1.223525E-09  2.348345E-09
       268  13  2.193702E+05  3.545460E+04  3.817960E+02  8.835189E+04 -4.974140E-09  9.988790E-10
       268  14  2.202435E+05  3.456780E+04  2.658521E+02  8.735067E+04 -7.232501E-09 -6.357635E-09
       268  15  2.193698E+05  3.545390E+04  2.494737E+02  8.835202E+04 -1.378787E-09 -1.677151E-09
       268  16  2.526011E+05  4.782469E+04  7.956786E+03  9.759975E+04  1.133808E-09  2.675710E-09
       268  17  2.601905E+05  4.942234E+04  9.343379E+03  9.845809E+04 -7.081023E-09 -1.053198E-08
       268  18  2.660330E+05  5.279281E+04  1.082928E+04  1.013190E+05 -2.315149E-09  4.348914E-09
       268  19  1.861403E+05  2.308452E+04 -7.193313E+03  7.910443E+04  1.022761E+03 -1.952885E+03
       268  20  1.802982E+05  1.971339E+04 -8.811766E+03  7.624391E+04  1.324732E+03 -2.349778E+03
       268  21  1.727092E+05  1.811527E+04 -1.033038E+04  7.538601E+04  1.626799E+03 -2.747015E+03
       268  22  2.193702E+05  3.545460E+04  3.818051E+02  8.835189E+04  5.505674E+02 -2.131779E+03
       268  23  2.202435E+05  3.456781E+04  2.658655E+02  8.735067E+04  8.521909E+02 -2.528791E+03
       268  24  2.193699E+05  3.545391E+04  2.494923E+02  8.835202E+04  1.153914E+03 -2.926146E+03
       268  25  2.526011E+05  4.782469E+04  7.956796E+03  9.759974E+04  7.834897E+01 -2.310683E+03
       268  26  2.601905E+05  4.942235E+04  9.343393E+03  9.845809E+04  3.796168E+02 -2.707816E+03
       268  27  2.660330E+05  5.279282E+04  1.082930E+04  1.013190E+05  6.809867E+02 -3.105294E+03
       269   1  1.676195E+05  1.621892E+04 -1.150732E+04  7.397880E+04 -1.769521E+03  2.990985E+03
       269   2  1.617562E+05  1.284029E+04 -1.288727E+04  7.111471E+04 -2.137952E+03  3.363734E+03
       269   3  1.541530E+05  1.124280E+04 -1.411713E+04  7.026067E+04 -2.506359E+03  3.736553E+03
       269   4  2.193712E+05  3.545512E+04  2.735459E+02  8.835389E+04 -1.296240E+03  3.170257E+03
       269   5  2.202410E+05  3.456298E+04  3.994164E+02  8.734943E+04 -1.664633E+03  3.543002E+03
       269   6  2.193706E+05  3.545195E+04  6.753237E+02  8.835501E+04 -2.033003E+03  3.915816E+03
       269   7  2.711257E+05  5.469152E+04  1.205424E+04  1.027301E+05 -8.229175E+02  3.349545E+03
       269   8  2.787290E+05  5.628586E+04  1.368583E+04  1.035855E+05 -1.191267E+03  3.722288E+03
       269   9  2.845921E+05  5.966128E+04  1.546739E+04  1.064510E+05 -1.559596E+03  4.095098E+03
       269  10  1.676195E+05  1.621891E+04 -1.150735E+04  7.397881E+04  2.121893E-08  7.095225E-09
       269  11  1.617562E+05  1.284028E+04 -1.288730E+04  7.111471E+04  1.221540E-09  5.025739E-09
       269  12  1.541530E+05  1.124278E+04 -1.411717E+04  7.026068E+04 -1.747733E-08  1.667927E-10
       269  13  2.193712E+05  3.545511E+04  2.735239E+02  8.835389E+04  1.967022E-09  1.232110E-08
       269  14  2.202410E+05  3.456297E+04  3.993876E+02  8.734943E+04 -1.257861E-09 -2.670770E-09
       269  15  2.193706E+05  3.545194E+04  6.752871E+02  8.835501E+04  1.897542E-09  5.722204E-09
       269  16  2.711257E+05  5.469151E+04  1.205421E+04  1.027301E+05 -1.911227E-08  1.942487E-09
       269  17  2.787289E+05  5.628585E+04  1.368580E+04  1.035855E+05 -1.061512E-09  8.775135E-09
       269  18  2.845921E+05  5.966127E+04  1.546736E+04  1.064510E+05  1.948812E-08  4.963063E-09
       269  19  1.676195E+05  1.621892E+04 -1.150732E+04  7.397880E+04  1.769521E+03 -2.990985E+03
       269  20  1.617562E+05  1.284029E+04 -1.288727E+04  7.111471E+04  2.137952E+03 -3.363734E+03
       269  21  1.541530E+05  1.124280E+04 -1.411713E+04  7.026067E+04  2.506359E+03 -3.736553E+03
       269  22  2.193712E+05  3.545512E+04  2.735459E+02  8.835389E+04  1.296240E+03 -3.170257E+03
       269  23  2.202410E+05  3.456298E+04  3.994164E+02  8.734943E+04  1.664633E+03 -3.543002E+03
       269  24  2.193706E+05  3.545195E+04  6.753237E+02  8.835501E+04  2.033003E+03 -3.915816E+03
       269  25  2.711257E+05  5.469152E+04  1.205424E+04  1.027301E+05  8.229175E+02 -3.349545E+03
       269  26  2.787290E+05  5.628586E+04  1.368583E+04  1.035855E+05  1.191267E+03 -3.722288E+03
       269  27  2.845921E+05  5.966128E+04  1.546739E+04  1.064510E+05  1.559596E+03 -4.095098E+03
       270   1  1.490538E+05  9.350454E+03 -1.510921E+04  6.887626E+04 -2.737514E+03  3.948386E+03
       270   2  1.431195E+05  5.948046E+03 -1.592146E+04  6.598796E+04 -3.690533E+03  4.098460E+03
       270   3  1.355571E+05  4.446892E+03 -1.611970E+04  6.511500E+04 -4.640752E+03  4.241257E+03
       270   4  2.193911E+05  3.544833E+04  8.873288E+02  8.836764E+04 -2.261568E+03  4.128617E+03
       270   5  2.202103E+05  3.453959E+04  1.587314E+03  8.734370E+04 -3.222377E+03  4.275717E+03
       270   6  2.194030E+05  3.553370E+04  2.907468E+03  8.833514E+04 -4.180393E+03  4.415538E+03
       270   7  2.897338E+05  6.154676E+04  1.688367E+04  1.078612E+05 -1.785561E+03  4.308871E+03
       270   8  2.973072E+05  6.313169E+04  1.909577E+04  1.087019E+05 -2.754156E+03  4.452999E+03
       270   9  3.032559E+05  6.662105E+04  2.193419E+04  1.115581E+05 -3.719966E+03  4.589846E+03
       270  10  1.490538E+05  9.350435E+03 -1.510925E+04  6.887627E+04 -4.984649E-09 -2.448337E-09
       270  11  1.431195E+05  5.948024E+03 -1.592152E+04  6.598797E+04  4.487750E-09  7.033661E-09
       270  12  1.355571E+05  4.446867E+03 -1.611978E+04  6.511502E+04  1.196867E-08  3.648493E-09
       270  13  2.193911E+05  3.544831E+04  8.872872E+02  8.836765E+04  1.636010E-09 -9.411232E-10
       270  14  2.202102E+05  3.453957E+04  1.587260E+03  8.734371E+04  6.580477E-09 -3.727705E-09
       270  15  2.194029E+05  3.553367E+04  2.907399E+03  8.833516E+04  2.818611E-09 -5.905188E-09
       270  16  2.897338E+05  6.154674E+04  1.688363E+04  1.078612E+05  9.433978E-09  5.203457E-09
       270  17  2.973072E+05  6.313166E+04  1.909572E+04  1.087019E+05  2.097650E-09  7.628669E-09
       270  18  3.032559E+05  6.662103E+04  2.193412E+04  1.115582E+05 -8.423875E-09 -9.434843E-09
       270  19  1.490538E+05  9.350454E+03 -1.510921E+04  6.887626E+04  2.737514E+03 -3.948386E+03
       270  20  1.431195E+05  5.948046E+03 -1.592146E+04  6.598796E+04  3.690533E+03 -4.098460E+03
       270  21  1.355571E+05  4.446892E+03 -1.611970E+04  6.511500E+04  4.640752E+03 -4.241257E+03
       270  22  2.193911E+05  3.544833E+04  8.873288E+02  8.836764E+04  2.261568E+03 -4.128617E+03
       270  23  2.202103E+05  3.453959E+04  1.587314E+03  8.734370E+04  3.222377E+03 -4.275717E+03
       270  24  2.194030E+05  3.553370E+04  2.907468E+03  8.833514E+04  4.180393E+03 -4.415538E+03
       270  25  2.897338E+05  6.154676E+04  1.688367E+04  1.078612E+05  1.785561E+03 -4.308871E+03
       270  26  2.973072E+05  6.313169E+04  1.909577E+04  1.087019E+05  2.754156E+03 -4.452999E+03
       270  27  3.032559E+05  6.662105E+04  2.193419E+04  1.115581E+05  3.719966E+03 -4.589846E+03
       271   1  1.303074E+05  2.650778E+03 -1.638184E+04  6.417351E+04 -5.331190E+03  4.291729E+03
       271   2  1.244254E+05 -1.167187E+03 -1.481584E+04  6.051400E+04 -8.824106E+03  3.423255E+03
       271   3  1.180596E+05 -8.985241E+02 -1.014377E+04  5.841283E+04 -1.225517E+04  2.391659E+03
       271   4  2.195686E+05  3.535834E+04  3.846713E+03  8.848656E+04 -4.825591E+03  4.483129E+03
       271   5  2.199695E+05  3.453050E+04  6.967659E+03  8.724045E+04 -8.491374E+03  3.549159E+03
       271   6  2.199207E+05  3.782316E+04  1.333134E+04  8.755256E+04 -1.209537E+04  2.452050E+03
       271   7  3.088373E+05  6.806626E+04  2.407460E+04  1.128026E+05 -4.319916E+03  4.674557E+03
       271   8  3.155228E+05  7.022891E+04  2.875056E+04  1.139707E+05 -8.158587E+03  3.675084E+03
       271   9  3.217927E+05  7.654602E+04  3.680593E+04  1.166969E+05 -1.193554E+04  2.512452E+03
       271  10  1.303074E+05  2.650750E+03 -1.638193E+04  6.417353E+04  7.431510E-09  6.914524E-09
       271  11  1.244253E+05 -1.167220E+03 -1.481601E+04  6.051403E+04  3.477521E-09  3.260006E-09
       271  12  1.180595E+05 -8.985705E+02 -1.014407E+04  5.841285E+04  2.585384E-09 -9.001774E-11
       271  13  2.195686E+05  3.535831E+04  3.846632E+03  8.848657E+04 -6.428323E-10 -1.028238E-08
       271  14  2.199694E+05  3.453046E+04  6.967500E+03  8.724048E+04  3.527109E-09  1.832725E-09
       271  15  2.199205E+05  3.782312E+04  1.333106E+04  8.755259E+04  1.634841E-09 -9.212755E-09
       271  16  3.088373E+05  6.806624E+04  2.407452E+04  1.128026E+05 -3.640827E-09 -1.239740E-08
       271  17  3.155227E+05  7.022888E+04  2.875041E+04  1.139707E+05 -1.580641E-09 -1.668831E-08
       271  18  3.217926E+05  7.654598E+04  3.680565E+04  1.166969E+05 -4.674817E-10 -3.920464E-09
       271  19  1.303074E+05  2.650778E+03 -1.638184E+04  6.417351E+04  5.331190E+03 -4.291729E+03
       271  20  1.244254E+05 -1.167187E+03 -1.481584E+04  6.051400E+04  8.824106E+03 -3.423255E+03
       271  21  1.180596E+05 -8.985241E+02 -1.014377E+04  5.841283E+04  1.225517E+04 -2.391659E+03
       271  22  2.195686E+05  3.535834E+04  3.846713E+03  8.848656E+04  4.825591E+03 -4.483129E+03
       271  23  2.199695E+05  3.453050E+04  6.967659E+03  8.724045E+04  8.491374E+03 -3.549159E+03
       271  24  2.199207E+05  3.782316E+04  1.333134E+04  8.755256E+04  1.209537E+04 -2.452050E+03
       271  25  3.088373E+05  6.806626E+04  2.407460E+04  1.128026E+05  4.319916E+03 -4.674557E+03
       271  26  3.155228E+05  7.022891E+04  2.875056E+04  1.139707E+05  8.158587E+03 -3.675084E+03
       271  27  3.217927E+05  7.654602E+04  3.680593E+04  1.166969E+05  1.193554E+04 -2.512452E+03
       272   1  1.091097E+05 -9.933371E+02 -7.487616E+03  6.628209E+04 -1.545794E+04  1.733813E+03
       272   2  1.100385E+05 -1.370304E+04  3.950288E+03  4.496126E+04 -2.796472E+04 -3.775349E+03
       272   3  1.285564E+05  2.179416E+04  3.765639E+04  1.345594E+04 -3.917151E+04 -1.271839E+04
       272   4  2.220831E+05  3.378201E+04  1.705456E+04  9.024251E+04 -1.436119E+04  2.149139E+03
       272   5  2.168060E+05  3.638233E+04  3.082484E+04  8.508870E+04 -3.049875E+04 -4.735307E+03
       272   6  2.298330E+05  8.790247E+04  6.973910E+04  6.975205E+04 -4.533626E+04 -1.505409E+04
       272   7  3.350698E+05  6.855760E+04  4.159612E+04  1.142066E+05 -1.326422E+04  2.564516E+03
       272   8  3.235841E+05  8.647017E+04  5.769825E+04  1.252227E+05 -3.303323E+04 -5.695539E+03
       272   9  3.311193E+05  1.540179E+05  1.018204E+05  1.260572E+05 -5.150196E+04 -1.739085E+04
       272  10  1.091094E+05 -9.934045E+02 -7.488070E+03  6.628211E+04  2.829897E-09  1.811114E-09
       272  11  1.100377E+05 -1.370327E+04  3.948792E+03  4.496117E+04  1.402742E-10  5.112933E-09
       272  12  1.285547E+05  2.179358E+04  3.765321E+04  1.345554E+04  9.961202E-10  5.610946E-10
       272  13  2.220829E+05  3.378195E+04  1.705417E+04  9.024253E+04  1.397442E-09 -1.079142E-08
       272  14  2.168050E+05  3.638206E+04  3.082305E+04  8.508858E+04 -2.169402E-09 -2.597490E-09
       272  15  2.298307E+05  8.790168E+04  6.973481E+04  6.975150E+04 -1.606946E-10 -3.966182E-09
       272  16  3.350696E+05  6.855754E+04  4.159578E+04  1.142066E+05 -3.115270E-09 -5.439593E-09
       272  17  3.235829E+05  8.646984E+04  5.769614E+04  1.252226E+05 -3.049016E-09  1.616271E-09
       272  18  3.311164E+05  1.540168E+05  1.018148E+05  1.260565E+05 -1.386816E-09  3.940305E-09
       272  19  1.091097E+05 -9.933371E+02 -7.487616E+03  6.628209E+04  1.545794E+04 -1.733813E+03
       272  20  1.100385E+05 -1.370304E+04  3.950288E+03  4.496126E+04  2.796472E+04  3.775349E+03
       272  21  1.285564E+05  2.179416E+04  3.765639E+04  1.345594E+04  3.917151E+04  1.271839E+04
       272  22  2.220831E+05  3.378201E+04  1.705456E+04  9.024251E+04  1.436119E+04 -2.149139E+03
       272  23  2.168060E+05  3.638233E+04  3.082484E+04  8.508870E+04  3.049875E+04  4.735307E+03
       272  24  2.298330E+05  8.790247E+04  6.973910E+04  6.975205E+04  4.533626E+04  1.505409E+04
       272  25  3.350698E+05  6.855760E+04  4.159612E+04  1.142066E+05  1.326422E+04 -2.564516E+03
       272  26  3.235841E+05  8.647017E+04  5.769825E+04  1.252227E+05  3.303323E+04  5.695539E+03
       272  27  3.311193E+05  1.540179E+05  1.018204E+05  1.260572E+05  5.150196E+04  1.739085E+04
       273   1 -5.433788E+04 -3.804611E+05 -5.762967E+04  2.582264E+04 -1.486108E+03 -2.465925E+04
       273   2 -2.672011E+04 -3.614197E+05 -3.632983E+04  1.514028E+04 -4.854738E+03 -1.364157E+04
       273   3 -2.031869E+04 -3.490771E+05 -2.750856E+04  9.532250E+03 -5.062260E+03 -2.613321E+03
       273   4 -2.480166E+04 -2.618647E+05 -2.909695E+04  1.232081E+04 -1.503128E+03 -1.912030E+04
       273   5 -1.740334E+03 -2.588229E+05 -1.425989E+04  9.823666E+03 -4.860782E+03 -1.166561E+04
       273   6  7.251453E+02 -2.618604E+05 -9.424907E+03  1.240120E+04 -5.057272E+03 -4.200733E+03
       273   7  4.734236E+03 -1.432550E+05 -5.650184E+02 -1.183606E+03 -1.520387E+03 -1.358029E+04
       273   8  2.323885E+04 -1.562162E+05  7.809455E+03  4.506168E+03 -4.866858E+03 -9.689319E+03
       273   9  2.176853E+04 -1.746364E+05  8.658348E+03  1.527057E+04 -5.052299E+03 -5.788365E+03
       273  10 -5.433805E+04 -3.804617E+05 -5.763082E+04  2.582261E+04  1.212402E-09  7.275978E-09
       273  11 -2.672018E+04 -3.614199E+05 -3.633022E+04  1.514023E+04  1.284614E-09 -1.312713E-08
       273  12 -2.031872E+04 -3.490771E+05 -2.750862E+04  9.532240E+03  1.641750E-09 -2.133682E-08
       273  13 -2.480176E+04 -2.618651E+05 -2.909764E+04  1.232078E+04  1.536536E-09  2.798104E-11
       273  14 -1.740396E+03 -2.588231E+05 -1.426019E+04  9.823621E+03  2.738452E-09 -5.567162E-09
       273  15  7.251131E+02 -2.618604E+05 -9.424988E+03  1.240119E+04  1.955620E-09  1.958711E-11
       273  16  4.734184E+03 -1.432552E+05 -5.653694E+02 -1.183622E+03 -1.012108E-10 -2.747123E-09
       273  17  2.323880E+04 -1.562163E+05  7.809235E+03  4.506130E+03  3.039865E-09  1.778553E-08
       273  18  2.176850E+04 -1.746365E+05  8.658237E+03  1.527055E+04 -1.605017E-09  2.423243E-08
       273  19 -5.433788E+04 -3.804611E+05 -5.762967E+04  2.582264E+04  1.486108E+03  2.465925E+04
       273  20 -2.672011E+04 -3.614197E+05 -3.632983E+04  1.514028E+04  4.854738E+03  1.364157E+04
       273  21 -2.031869E+04 -3.490771E+05 -2.750856E+04  9.532250E+03  5.062260E+03  2.613321E+03
       273  22 -2.480166E+04 -2.618647E+05 -2.909695E+04  1.232081E+04  1.503128E+03  1.912030E+04
       273  23 -1.740334E+03 -2.588229E+05 -1.425989E+04  9.823666E+03  4.860782E+03  1.166561E+04
       273  24  7.251453E+02 -2.618604E+05 -9.424907E+03  1.240120E+04  5.057272E+03  4.200733E+03
       273  25  4.734236E+03 -1.432550E+05 -5.650184E+02 -1.183606E+03  1.520387E+03  1.358029E+04
       273  26  2.323885E+04 -1.562162E+05  7.809455E+03  4.506168E+03  4.866858E+03  9.689319E+03
       273  27  2.176853E+04 -1.746364E+05  8.658348E+03  1.527057E+04  5.052299E+03  5.788365E+03
       274   1 -1.929028E+04 -3.362506E+05 -2.409116E+04  1.323274E+04 -4.322757E+03 -1.994410E+03
       274   2 -1.452664E+04 -3.200034E+05 -1.988229E+04  9.908687E+03 -3.553317E+03  1.952315E+03
       274   3 -1.200253E+04 -3.047877E+05 -1.879374E+04  1.186944E+04 -2.627112E+03  5.899564E+03
       274   4 -1.034490E+03 -2.607320E+05 -8.382968E+03  1.242947E+04 -4.320253E+03 -2.787622E+03
       274   5 -9.929938E+01 -2.602312E+05 -7.539236E+03  9.786540E+03 -3.550296E+03  9.826885E+02
       274   6 -1.372848E+03 -2.607316E+05 -9.693056E+03  1.242841E+04 -2.623573E+03  4.753426E+03
       274   7  1.722094E+04 -1.852081E+05  7.324917E+03  1.162610E+04 -4.317747E+03 -3.580928E+03
       274   8  1.432782E+04 -2.004557E+05  4.803629E+03  9.664383E+03 -3.547274E+03  1.297031E+01
       274   9  9.256709E+03 -2.166736E+05 -5.924749E+02  1.298742E+04 -2.620035E+03  3.607209E+03
       274  10 -1.929030E+04 -3.362506E+05 -2.409121E+04  1.323274E+04  1.604213E-09  1.891556E-08
       274  11 -1.452665E+04 -3.200034E+05 -1.988232E+04  9.908692E+03  4.776057E-09  7.904091E-09
       274  12 -1.200254E+04 -3.047877E+05 -1.879382E+04  1.186946E+04  7.164407E-10 -7.397098E-09
       274  13 -1.034512E+03 -2.607321E+05 -8.383018E+03  1.242946E+04  1.541884E-09 -4.350925E-09
       274  14 -9.931318E+01 -2.602313E+05 -7.539262E+03  9.786542E+03  5.001725E-09  9.843593E-10
       274  15 -1.372861E+03 -2.607316E+05 -9.693112E+03  1.242842E+04 -2.608666E-10 -5.367305E-09
       274  16  1.722091E+04 -1.852081E+05  7.324858E+03  1.162608E+04 -1.460713E-10 -1.779094E-08
       274  17  1.432780E+04 -2.004558E+05  4.803605E+03  9.664383E+03 -8.408945E-10  5.245744E-09
       274  18  9.256698E+03 -2.166736E+05 -5.925123E+02  1.298743E+04  1.067773E-09  1.391658E-08
       274  19 -1.929028E+04 -3.362506E+05 -2.409116E+04  1.323274E+04  4.322757E+03  1.994410E+03
       274  20 -1.452664E+04 -3.200034E+05 -1.988229E+04  9.908687E+03  3.553317E+03 -1.952315E+03
       274  21 -1.200253E+04 -3.047877E+05 -1.879374E+04  1.186944E+04  2.627112E+03 -5.899564E+03
       274  22 -1.034490E+03 -2.607320E+05 -8.382968E+03  1.242947E+04  4.320253E+03  2.787622E+03
       274  23 -9.929938E+01 -2.602312E+05 -7.539236E+03  9.786540E+03  3.550296E+03 -9.826885E+02
       274  24 -1.372848E+03 -2.607316E+05 -9.693056E+03  1.242841E+04  2.623573E+03 -4.753426E+03
       274  25  1.722094E+04 -1.852081E+05  7.324917E+03  1.162610E+04  4.317747E+03  3.580928E+03
       274  26  1.432782E+04 -2.004557E+05  4.803629E+03  9.664383E+03  3.547274E+03 -1.297031E+01
       274  27  9.256709E+03 -2.166736E+05 -5.924749E+02  1.298742E+04  2.620035E+03 -3.607209E+03
       275   1 -6.850633E+03 -2.947059E+05 -1.804901E+04  1.659346E+04 -2.031431E+03  7.543324E+03
       275   2 -6.253760E+03 -2.750615E+05 -2.167179E+04  3.191092E+03 -1.109919E+03  1.699284E+04
       275   3 -3.262539E+04 -2.633494E+05 -3.818041E+04 -4.975844E+03 -3.032456E+02  2.644208E+04
       275   4  9.959343E+02 -2.622761E+05 -1.140751E+04  1.244167E+04 -2.027990E+03  6.406889E+03
       275   5 -2.268280E+03 -2.583006E+05 -1.826723E+04  9.772497E+03 -1.106651E+03  1.598573E+04
       275   6 -3.252353E+04 -2.622803E+05 -3.810259E+04  1.233876E+04 -2.998251E+02  2.556407E+04
       275   7  8.842500E+03 -2.298452E+05 -4.766053E+03  8.289652E+03 -2.024534E+03  5.270395E+03
       275   8  1.717348E+03 -2.415394E+05 -1.486266E+04  1.635408E+04 -1.103406E+03  1.497859E+04
       275   9 -3.242054E+04 -2.612106E+05 -3.802460E+04  2.965339E+04 -2.964537E+02  2.468606E+04
       275  10 -6.850652E+03 -2.947060E+05 -1.804913E+04  1.659347E+04 -1.861762E-09  2.281756E-08
       275  11 -6.253839E+03 -2.750618E+05 -2.167233E+04  3.191107E+03  4.549842E-09 -4.085982E-09
       275  12 -3.262558E+04 -2.633501E+05 -3.818173E+04 -4.975838E+03  1.527667E-09 -1.943257E-08
       275  13  9.959189E+02 -2.622761E+05 -1.140760E+04  1.244168E+04 -5.498504E-10  3.781118E-11
       275  14 -2.268350E+03 -2.583009E+05 -1.826771E+04  9.772512E+03 -1.035887E-10 -6.499915E-09
       275  15 -3.252370E+04 -2.622810E+05 -3.810382E+04  1.233877E+04  8.141192E-10 -2.059957E-10
       275  16  8.842488E+03 -2.298452E+05 -4.766113E+03  8.289661E+03 -1.710182E-09 -1.521383E-08
       275  17  1.717286E+03 -2.415396E+05 -1.486308E+04  1.635410E+04 -3.148807E-10  1.625737E-08
       275  18 -3.242070E+04 -2.612113E+05 -3.802575E+04  2.965340E+04 -1.351800E-09  2.538436E-08
       275  19 -6.850633E+03 -2.947059E+05 -1.804901E+04  1.659346E+04  2.031431E+03 -7.543324E+03
       275  20 -6.253760E+03 -2.750615E+05 -2.167179E+04  3.191092E+03  1.109919E+03 -1.699284E+04
       275  21 -3.262539E+04 -2.633494E+05 -3.818041E+04 -4.975844E+03  3.032456E+02 -2.644208E+04
       275  22  9.959343E+02 -2.622761E+05 -1.140751E+04  1.244167E+04  2.027990E+03 -6.406889E+03
       275  23 -2.268280E+03 -2.583006E+05 -1.826723E+04  9.772497E+03  1.106651E+03 -1.598573E+04
       275  24 -3.252353E+04 -2.622803E+05 -3.810259E+04  1.233876E+04  2.998251E+02 -2.556407E+04
       275  25  8.842500E+03 -2.298452E+05 -4.766053E+03  8.289652E+03  2.024534E+03 -5.270395E+03
       275  26  1.717348E+03 -2.415394E+05 -1.486266E+04  1.635408E+04  1.103406E+03 -1.497859E+04
       275  27 -3.242054E+04 -2.612106E+05 -3.802460E+04  2.965339E+04  2.964537E+02 -2.468606E+04
       276   1 -3.662652E+05 -1.604440E+05 -1.468328E+05 -3.139910E+04 -6.767523E+03  1.114263E+04
       276   2 -2.971341E+05 -1.763743E+05 -1.358118E+05 -3.316764E+04  5.529415E+03  3.574523E+04
       276   3 -2.219834E+05 -1.625359E+05 -1.253339E+05 -5.804101E+04  1.785035E+04  3.908607E+04
       276   4  4.450440E+05  4.068944E+04  4.779274E+04 -5.258285E+04  3.297341E+04  1.117934E+04
       276   5  4.399814E+05  2.630703E+03  2.220627E+04 -4.101548E+04  2.129090E+04  3.575384E+04
       276   6  4.450852E+05 -1.516738E+03  1.272028E+04 -5.255053E+04  9.630949E+03  3.907849E+04
       276   7  1.256960E+06  2.417776E+05  2.423778E+05 -7.379452E+04  7.276607E+04  1.121332E+04
       276   8  1.177609E+06  1.816005E+05  1.801937E+05 -4.887286E+04  3.707083E+04  3.576203E+04
       276   9  1.112576E+06  1.594744E+05  1.507506E+05 -4.705408E+04  1.402864E+03  3.907078E+04
       276  10 -3.662653E+05 -1.604441E+05 -1.468331E+05 -3.139904E+04  3.028030E-12 -3.017680E-11
       276  11 -2.971345E+05 -1.763756E+05 -1.358142E+05 -3.316780E+04 -2.898680E-10 -1.059199E-10
       276  12 -2.219842E+05 -1.625377E+05 -1.253374E+05 -5.804158E+04 -5.130461E-10 -5.377430E-11
       276  13  4.450428E+05  4.068901E+04  4.779046E+04 -5.258314E+04 -1.304200E-10 -5.138421E-11
       276  14  4.399806E+05  2.629209E+03  2.220301E+04 -4.101610E+04  3.733116E-11 -6.193407E-11
       276  15  4.450847E+05 -1.518403E+03  1.271724E+04 -5.255083E+04 -1.872469E-10  2.800039E-13
       276  16  1.256955E+06  2.417761E+05  2.423676E+05 -7.379517E+04 -1.265540E-10  2.919500E-12
       276  17  1.177607E+06  1.815987E+05  1.801887E+05 -4.887393E+04  3.102137E-10  2.826978E-11
       276  18  1.112575E+06  1.594728E+05  1.507477E+05 -4.705412E+04  4.228924E-10  7.403934E-11
       276  19 -3.662652E+05 -1.604440E+05 -1.468328E+05 -3.139910E+04  6.767523E+03 -1.114263E+04
       276  20 -2.971341E+05 -1.763743E+05 -1.358118E+05 -3.316764E+04 -5.529415E+03 -3.574523E+04
       276  21 -2.219834E+05 -1.625359E+05 -1.253339E+05 -5.804101E+04 -1.785035E+04 -3.908607E+04
       276  22  4.450440E+05  4.068944E+04  4.779274E+04 -5.258285E+04 -3.297341E+04 -1.117934E+04
       276  23  4.399814E+05  2.630703E+03  2.220627E+04 -4.101548E+04 -2.129090E+04 -3.575384E+04
       276  24  4.450852E+05 -1.516738E+03  1.272028E+04 -5.255053E+04 -9.630949E+03 -3.907849E+04
       276  25  1.256960E+06  2.417776E+05  2.423778E+05 -7.379452E+04 -7.276607E+04 -1.121332E+04
       276  26  1.177609E+06  1.816005E+05  1.801937E+05 -4.887286E+04 -3.707083E+04 -3.576203E+04
       276  27  1.112576E+06  1.594744E+05  1.507506E+05 -4.705408E+04 -1.402864E+03 -3.907078E+04
       277   1 -1.705897E+05 -1.466079E+05 -1.174444E+05 -5.243344E+04  1.075291E+04  3.536642E+04
       277   2 -9.926303E+04 -1.307667E+05 -1.062703E+05 -4.078162E+04  9.251576E+03  3.227991E+04
       277   3 -2.730968E+04 -1.135890E+05 -9.376221E+04 -5.318505E+04  7.748223E+03  2.810440E+04
       277   4  4.430245E+05  1.581885E+03  9.969935E+03 -5.276970E+04  7.892282E+03  3.536245E+04
       277   5  4.426197E+05 -5.973672E+01  5.473318E+03 -4.074249E+04  5.160299E+03  3.227647E+04
       277   6  4.430495E+05 -1.518027E+02  3.163825E+03 -5.276921E+04  2.426472E+03  2.810195E+04
       277   7  1.056995E+06  1.497477E+05  1.373637E+05 -5.310633E+04  5.028868E+03  3.535848E+04
       277   8  9.847809E+05  1.306287E+05  1.172011E+05 -4.070335E+04  1.065512E+03  3.227303E+04
       277   9  9.136186E+05  1.132714E+05  1.000781E+05 -5.235305E+04 -2.899241E+03  2.809950E+04
       277  10 -1.705901E+05 -1.466092E+05 -1.174469E+05 -5.243374E+04 -6.031906E-10  6.006470E-12
       277  11 -9.926340E+04 -1.307678E+05 -1.062724E+05 -4.078186E+04 -1.933707E-10  4.178952E-11
       277  12 -2.730996E+04 -1.135898E+05 -9.376381E+04 -5.318523E+04  2.534889E-10  7.986194E-11
       277  13  4.430241E+05  1.580525E+03  9.967468E+03 -5.276992E+04 -3.129790E-10  5.913064E-11
       277  14  4.426194E+05 -6.086279E+01  5.471310E+03 -4.074263E+04 -2.682249E-10  1.215528E-10
       277  15  4.430493E+05 -1.526525E+02  3.162329E+03 -5.276927E+04 -1.402971E-10  3.452492E-11
       277  16  1.056995E+06  1.497464E+05  1.373613E+05 -5.310647E+04  7.152720E-11  1.621635E-10
       277  17  9.847806E+05  1.306276E+05  1.171992E+05 -4.070337E+04  7.633493E-10  3.024820E-10
       277  18  9.136183E+05  1.132706E+05  1.000766E+05 -5.235298E+04  1.209411E-10  4.167563E-11
       277  19 -1.705897E+05 -1.466079E+05 -1.174444E+05 -5.243344E+04 -1.075291E+04 -3.536642E+04
       277  20 -9.926303E+04 -1.307667E+05 -1.062703E+05 -4.078162E+04 -9.251576E+03 -3.227991E+04
       277  21 -2.730968E+04 -1.135890E+05 -9.376221E+04 -5.318505E+04 -7.748223E+03 -2.810440E+04
       277  22  4.430245E+05  1.581885E+03  9.969935E+03 -5.276970E+04 -7.892282E+03 -3.536245E+04
       277  23  4.426197E+05 -5.973672E+01  5.473318E+03 -4.074249E+04 -5.160299E+03 -3.227647E+04
       277  24  4.430495E+05 -1.518027E+02  3.163825E+03 -5.276921E+04 -2.426472E+03 -2.810195E+04
       277  25  1.056995E+06  1.497477E+05  1.373637E+05 -5.310633E+04 -5.028868E+03 -3.535848E+04
       277  26  9.847809E+05  1.306287E+05  1.172011E+05 -4.070335E+04 -1.065512E+03 -3.227303E+04
       277  27  9.136186E+05  1.132714E+05  1.000781E+05 -5.235305E+04  2.899241E+03 -2.809950E+04
       278   1  2.520247E+04 -1.006807E+05 -8.333501E+04 -5.288315E+04  6.975741E+03  2.538614E+04
       278   2  9.656657E+04 -8.352730E+04 -6.979498E+04 -4.081711E+04  6.340393E+03  2.088927E+04
       278   3  1.680665E+05 -6.630958E+04 -5.581747E+04 -5.278871E+04  5.703334E+03  1.633958E+04
       278   4  4.429055E+05 -9.098057E+00  2.422333E+03 -5.276556E+04  1.933828E+03  2.538440E+04
       278   5  4.428421E+05 -5.150626E+01  1.408179E+03 -4.074715E+04  1.238239E+03  2.088839E+04
       278   6  4.429211E+05 -1.871163E+01  8.734371E+02 -5.276558E+04  5.410099E+02  1.633958E+04
       278   7  8.607743E+05  1.006516E+05  8.817045E+04 -5.264789E+04 -3.111417E+03  2.538267E+04
       278   8  7.892315E+05  8.341675E+04  7.260502E+04 -4.067715E+04 -3.866711E+03  2.088750E+04
       278   9  7.178473E+05  6.626740E+04  5.756037E+04 -5.274244E+04 -4.623559E+03  1.633957E+04
       278  10  2.520224E+04 -1.006814E+05 -8.333631E+04 -5.288329E+04 -4.587283E-10  3.657947E-11
       278  11  9.656641E+04 -8.352778E+04 -6.979588E+04 -4.081722E+04 -2.381260E-10  1.358214E-10
       278  12  1.680664E+05 -6.630987E+04 -5.581803E+04 -5.278879E+04  4.417353E-10  8.160397E-11
       278  13  4.429054E+05 -9.791147E+00  2.421115E+03 -5.276560E+04 -2.919108E-10 -3.832088E-11
       278  14  4.428420E+05 -5.197530E+01  1.407356E+03 -4.074717E+04 -1.656259E-11  6.572045E-11
       278  15  4.429210E+05 -1.899846E+01  8.729348E+02 -5.276559E+04 -9.761691E-11 -2.748048E-11
       278  16  8.607741E+05  1.006509E+05  8.816922E+04 -5.264783E+04  2.782712E-10 -6.211018E-11
       278  17  7.892314E+05  8.341627E+04  7.260417E+04 -4.067709E+04 -1.762767E-10  1.813562E-11
       278  18  7.178472E+05  6.626711E+04  5.755983E+04 -5.274238E+04 -1.841983E-10 -1.101551E-10
       278  19  2.520247E+04 -1.006807E+05 -8.333501E+04 -5.288315E+04 -6.975741E+03 -2.538614E+04
       278  20  9.656657E+04 -8.352730E+04 -6.979498E+04 -4.081711E+04 -6.340393E+03 -2.088927E+04
       278  21  1.680665E+05 -6.630958E+04 -5.581747E+04 -5.278871E+04 -5.703334E+03 -1.633958E+04
       278  22  4.429055E+05 -9.098057E+00  2.422333E+03 -5.276556E+04 -1.933828E+03 -2.538440E+04
       278  23  4.428421E+05 -5.150626E+01  1.408179E+03 -4.074715E+04 -1.238239E+03 -2.088839E+04
       278  24  4.429211E+05 -1.871163E+01  8.734371E+02 -5.276558E+04 -5.410099E+02 -1.633958E+04
       278  25  8.607743E+05  1.006516E+05  8.817045E+04 -5.264789E+04  3.111417E+03 -2.538267E+04
       278  26  7.892315E+05  8.341675E+04  7.260502E+04 -4.067715E+04  3.866711E+03 -2.088750E+04
       278  27  7.178473E+05  6.626740E+04  5.756037E+04 -5.274244E+04  4.623559E+03 -1.633957E+04
       279   1  2.205654E+05 -5.356462E+04 -4.480595E+04 -5.276509E+04  5.542889E+03  1.367863E+04
       279   2  2.918676E+05 -3.640539E+04 -3.049626E+04 -4.074772E+04  5.274159E+03  9.117391E+03
       279   3  3.632133E+05 -1.923646E+04 -1.600936E+04 -5.273491E+04  5.004669E+03  4.554934E+03
       279   4  4.429034E+05 -9.532074E+00  7.123799E+02 -5.275833E+04  3.971281E+02  1.367901E+04
       279   5  4.428878E+05 -4.952644E+00  5.470969E+02 -4.075623E+04  1.266395E+02  9.118136E+03
       279   6  4.429101E+05  9.622103E+00  5.599758E+02 -5.275834E+04 -1.445790E+02  4.556068E+03
       279   7  6.652883E+05  5.354247E+04  4.622819E+04 -5.275157E+04 -4.750442E+03  1.367938E+04
       279   8  5.939297E+05  3.639407E+04  3.158934E+04 -4.076473E+04 -5.022110E+03  9.118881E+03
       279   9  5.226130E+05  1.925532E+04  1.712906E+04 -5.278176E+04 -5.294477E+03  4.557201E+03
       279  10  2.205654E+05 -5.356483E+04 -4.480636E+04 -5.276515E+04 -8.869073E-11  5.931329E-11
       279  11  2.918675E+05 -3.640549E+04 -3.049647E+04 -4.074776E+04  2.281484E-10  5.427341E-12
       279  12  3.632132E+05 -1.923649E+04 -1.600944E+04 -5.273493E+04 -4.018009E-11 -9.618290E-11
       279  13  4.429033E+05 -9.733088E+00  7.120279E+02 -5.275834E+04  1.158345E-11 -1.944461E-11
       279  14  4.428878E+05 -5.041945E+00  5.469406E+02 -4.075623E+04 -3.978733E-10  1.037912E-10
       279  15  4.429101E+05  9.599802E+00  5.599367E+02 -5.275833E+04 -6.623188E-11  5.486111E-11
       279  16  6.652882E+05  5.354226E+04  4.622779E+04 -5.275152E+04  1.514608E-10 -6.653744E-11
       279  17  5.939297E+05  3.639397E+04  3.158913E+04 -4.076470E+04 -9.541008E-11  2.387578E-10
       279  18  5.226129E+05  1.925529E+04  1.712897E+04 -5.278174E+04 -5.080822E-10  7.442326E-11
       279  19  2.205654E+05 -5.356462E+04 -4.480595E+04 -5.276509E+04 -5.542889E+03 -1.367863E+04
       279  20  2.918676E+05 -3.640539E+04 -3.049626E+04 -4.074772E+04 -5.274159E+03 -9.117391E+03
       279  21  3.632133E+05 -1.923646E+04 -1.600936E+04 -5.273491E+04 -5.004669E+03 -4.554934E+03
       279  22  4.429034E+05 -9.532074E+00  7.123799E+02 -5.275833E+04 -3.971281E+02 -1.367901E+04
       279  23  4.428878E+05 -4.952644E+00  5.470969E+02 -4.075623E+04 -1.266395E+02 -9.118136E+03
       279  24  4.429101E+05  9.622103E+00  5.599758E+02 -5.275834E+04  1.445790E+02 -4.556068E+03
       279  25  6.652883E+05  5.354247E+04  4.622819E+04 -5.275157E+04  4.750442E+03 -1.367938E+04
       279  26  5.939297E+05  3.639407E+04  3.158934E+04 -4.076473E+04  5.022110E+03 -9.118881E+03
       279  27  5.226130E+05  1.925532E+04  1.712906E+04 -5.278176E+04  5.294477E+03 -4.557201E+03
       280   1  4.156903E+05 -6.513244E+03 -4.778394E+03 -5.273789E+04  4.895410E+03  1.899442E+03
       280   2  4.869678E+05  1.061821E+04  9.981474E+03 -4.072073E+04  4.437585E+03 -2.661561E+03
       280   3  5.583069E+05  2.776644E+04  2.504103E+04 -5.269847E+04  3.979921E+03 -7.220625E+03
       280   4  4.429154E+05  1.059704E+01  6.287939E+02 -5.275629E+04 -2.533748E+02  1.900658E+03
       280   5  4.428861E+05 -5.624199E+00  9.207028E+02 -4.075878E+04 -7.092543E+02 -2.660465E+03
       280   6  4.429134E+05 -5.128306E+00  1.511051E+03 -5.275628E+04 -1.164922E+03 -7.219633E+03
       280   7  4.701413E+05  6.534407E+03  6.036044E+03 -5.277468E+04 -5.402381E+03  1.901873E+03
       280   8  3.988064E+05 -1.062956E+04 -8.140073E+03 -4.079683E+04 -5.855735E+03 -2.659369E+03
       280   9  3.275325E+05 -2.777751E+04 -2.201953E+04 -5.281407E+04 -6.308828E+03 -7.218639E+03
       280  10  4.156903E+05 -6.513255E+03 -4.778446E+03 -5.273790E+04 -4.905507E-10 -1.585802E-10
       280  11  4.869678E+05  1.061820E+04  9.981424E+03 -4.072073E+04 -8.051606E-10 -1.488792E-10
       280  12  5.583069E+05  2.776638E+04  2.504090E+04 -5.269844E+04 -3.293183E-10 -4.366259E-11
       280  13  4.429154E+05  1.059314E+01  6.287870E+02 -5.275629E+04 -2.924613E-10 -4.356957E-11
       280  14  4.428861E+05 -5.631936E+00  9.206885E+02 -4.075879E+04  1.611497E-11 -1.697721E-10
       280  15  4.429133E+05 -5.184653E+00  1.510951E+03 -5.275628E+04 -6.039728E-10 -5.991151E-11
       280  16  4.701412E+05  6.534396E+03  6.035983E+03 -5.277467E+04  2.709088E-11 -1.452497E-10
       280  17  3.988063E+05 -1.062958E+04 -8.140151E+03 -4.079684E+04  3.133475E-10 -1.590136E-10
       280  18  3.275324E+05 -2.777758E+04 -2.201970E+04 -5.281411E+04 -2.464233E-10 -2.331835E-11
       280  19  4.156903E+05 -6.513244E+03 -4.778394E+03 -5.273789E+04 -4.895410E+03 -1.899442E+03
       280  20  4.869678E+05  1.061821E+04  9.981474E+03 -4.072073E+04 -4.437585E+03  2.661561E+03
       280  21  5.583069E+05  2.776644E+04  2.504103E+04 -5.269847E+04 -3.979921E+03  7.220625E+03
       280  22  4.429154E+05  1.059704E+01  6.287939E+02 -5.275629E+04  2.533748E+02 -1.900658E+03
       280  23  4.428861E+05 -5.624199E+00  9.207028E+02 -4.075878E+04  7.092543E+02  2.660465E+03
       280  24  4.429134E+05 -5.128306E+00  1.511051E+03 -5.275628E+04  1.164922E+03  7.219633E+03
       280  25  4.701413E+05  6.534407E+03  6.036044E+03 -5.277468E+04  5.402381E+03 -1.901873E+03
       280  26  3.988064E+05 -1.062956E+04 -8.140073E+03 -4.079683E+04  5.855735E+03  2.659369E+03
       280  27  3.275325E+05 -2.777751E+04 -2.201953E+04 -5.281407E+04  6.308828E+03  7.218639E+03
       281   1  6.108505E+05  4.047716E+04  3.665929E+04 -5.267174E+04  3.678689E+03 -9.878702E+03
       281   2  6.820889E+05  5.759750E+04  5.256177E+04 -4.061097E+04  1.954116E+03 -1.442513E+04
       281   3  7.536160E+05  7.491381E+04  6.963672E+04 -5.256581E+04  2.305176E+02 -1.892499E+04
       281   4  4.429590E+05 -1.970337E+01  1.965738E+03 -5.276099E+04 -1.480130E+03 -9.877924E+03
       281   5  4.428154E+05 -6.373613E+01  3.375242E+03 -4.075286E+04 -3.151768E+03 -1.442497E+04
       281   6  4.429479E+05  7.969244E+01  5.921258E+03 -5.276092E+04 -4.822240E+03 -1.892541E+04
       281   7  2.750942E+05 -4.051833E+04 -3.272924E+04 -5.285021E+04 -6.637579E+03 -9.877144E+03
       281   8  2.035963E+05 -5.772856E+04 -4.581425E+04 -4.089470E+04 -8.255720E+03 -1.442480E+04
       281   9  1.323715E+05 -7.476048E+04 -5.779925E+04 -5.295593E+04 -9.872517E+03 -1.892584E+04
       281  10  6.108505E+05  4.047705E+04  3.665908E+04 -5.267172E+04 -3.898868E-10  4.507086E-11
       281  11  6.820888E+05  5.759727E+04  5.256137E+04 -4.061094E+04  5.436276E-11  1.925459E-10
       281  12  7.536159E+05  7.491343E+04  6.963604E+04 -5.256581E+04  2.498338E-10 -2.968780E-11
       281  13  4.429589E+05 -1.980876E+01  1.965550E+03 -5.276100E+04 -5.596212E-10  6.352732E-11
       281  14  4.428154E+05 -6.396229E+01  3.374832E+03 -4.075290E+04  5.360774E-11  1.363014E-10
       281  15  4.429478E+05  7.930150E+01  5.920541E+03 -5.276100E+04 -1.280033E-12 -2.511153E-11
       281  16  2.750941E+05 -4.051845E+04 -3.272951E+04 -5.285026E+04 -1.191439E-10  8.320052E-11
       281  17  2.035962E+05 -5.772880E+04 -4.581477E+04 -4.089480E+04 -9.627699E-11  1.186403E-10
       281  18  1.323713E+05 -7.476089E+04 -5.780010E+04 -5.295608E+04 -6.250709E-11  1.332670E-11
       281  19  6.108505E+05  4.047716E+04  3.665929E+04 -5.267174E+04 -3.678689E+03  9.878702E+03
       281  20  6.820889E+05  5.759750E+04  5.256177E+04 -4.061097E+04 -1.954116E+03  1.442513E+04
       281  21  7.536160E+05  7.491381E+04  6.963672E+04 -5.256581E+04 -2.305176E+02  1.892499E+04
       281  22  4.429590E+05 -1.970337E+01  1.965738E+03 -5.276099E+04  1.480130E+03  9.877924E+03
       281  23  4.428154E+05 -6.373613E+01  3.375242E+03 -4.075286E+04  3.151768E+03  1.442497E+04
       281  24  4.429479E+05  7.969244E+01  5.921258E+03 -5.276092E+04  4.822240E+03  1.892541E+04
       281  25  2.750942E+05 -4.051833E+04 -3.272924E+04 -5.285021E+04  6.637579E+03  9.877144E+03
       281  26  2.035963E+05 -5.772856E+04 -4.581425E+04 -4.089470E+04  8.255720E+03  1.442480E+04
       281  27  1.323715E+05 -7.476048E+04 -5.779925E+04 -5.295593E+04  9.872517E+03  1.892584E+04
       282   1  8.065866E+05  8.731979E+04  8.263370E+04 -5.187999E+04 -7.343627E+02 -2.163133E+04
       282   2  8.771010E+05  1.048272E+05  1.031289E+05 -4.095262E+04 -8.557764E+03 -2.585019E+04
       282   3  9.496989E+05  1.263551E+05  1.297299E+05 -5.404081E+04 -1.638056E+04 -2.912138E+04
       282   4  4.432998E+05 -2.596484E+02  7.763090E+03 -5.276082E+04 -6.030542E+03 -2.163227E+04
       282   5  4.423424E+05  1.681206E+01  1.350576E+04 -4.075280E+04 -1.277972E+04 -2.585210E+04
       282   6  4.432782E+05  4.129352E+03  2.461170E+04 -5.276124E+04 -1.952740E+04 -2.912396E+04
       282   7  8.013811E+04 -8.784740E+04 -6.711452E+04 -5.364112E+04 -1.132368E+04 -2.163319E+04
       282   8  7.762879E+03 -1.048055E+05 -7.612752E+04 -4.055312E+04 -1.699877E+04 -2.585401E+04
       282   9 -6.289993E+04 -1.181127E+05 -8.052046E+04 -5.148272E+04 -2.267172E+04 -2.912656E+04
       282  10  8.065865E+05  8.731929E+04  8.263282E+04 -5.188000E+04 -1.105595E-11 -2.803677E-10
       282  11  8.771008E+05  1.048265E+05  1.031275E+05 -4.095279E+04  1.755645E-10 -1.966724E-10
       282  12  9.496984E+05  1.263542E+05  1.297278E+05 -5.404120E+04 -6.942377E-10  1.002205E-10
       282  13  4.432997E+05 -2.601607E+02  7.762142E+03 -5.276093E+04 -6.073478E-11 -1.899835E-10
       282  14  4.423421E+05  1.605041E+01  1.350419E+04 -4.075306E+04  3.698515E-10 -1.653888E-10
       282  15  4.432776E+05  4.128338E+03  2.460938E+04 -5.276169E+04 -2.658348E-10  5.219428E-11
       282  16  8.013785E+04 -8.784794E+04 -6.711564E+04 -5.364132E+04 -2.311775E-10 -1.034130E-10
       282  17  7.762389E+03 -1.048063E+05 -7.612932E+04 -4.055347E+04  3.082006E-10 -2.111343E-10
       282  18 -6.290071E+04 -1.181138E+05 -8.052303E+04 -5.148325E+04  4.357483E-10  1.471362E-10
       282  19  8.065866E+05  8.731979E+04  8.263370E+04 -5.187999E+04  7.343627E+02  2.163133E+04
       282  20  8.771010E+05  1.048272E+05  1.031289E+05 -4.095262E+04  8.557764E+03  2.585019E+04
       282  21  9.496989E+05  1.263551E+05  1.297299E+05 -5.404081E+04  1.638056E+04  2.912138E+04
       282  22  4.432998E+05 -2.596484E+02  7.763090E+03 -5.276082E+04  6.030542E+03  2.163227E+04
       282  23  4.423424E+05  1.681206E+01  1.350576E+04 -4.075280E+04  1.277972E+04  2.585210E+04
       282  24  4.432782E+05  4.129352E+03  2.461170E+04 -5.276124E+04  1.952740E+04  2.912396E+04
       282  25  8.013811E+04 -8.784740E+04 -6.711452E+04 -5.364112E+04  1.132368E+04  2.163319E+04
       282  26  7.762879E+03 -1.048055E+05 -7.612752E+04 -4.055312E+04  1.699877E+04  2.585401E+04
       282  27 -6.289993E+04 -1.181127E+05 -8.052046E+04 -5.148272E+04  2.267172E+04  2.912656E+04
       283   1  1.008087E+06  1.315307E+05  1.472109E+05 -3.958019E+04 -1.600682E+04 -3.269579E+04
       283   2  1.065883E+06  1.596548E+05  1.899160E+05 -6.119687E+04 -6.573879E+04 -3.039816E+04
       283   3  1.152068E+06  2.750118E+05  2.867976E+05 -1.060242E+05 -1.154920E+05 -9.603952E+03
       283   4  4.483564E+05 -3.493812E+03  3.140348E+04 -5.256871E+04 -2.382193E+04 -3.270017E+04
       283   5  4.359400E+05  6.791394E+03  5.487608E+04 -4.099161E+04 -5.264033E+04 -3.039621E+04
       283   6  4.483073E+05  1.007265E+05  1.180418E+05 -5.262148E+04 -8.147270E+04 -9.592504E+03
       283   7 -1.110771E+05 -1.385375E+05 -8.442061E+04 -6.554534E+04 -3.163012E+04 -3.270422E+04
       283   8 -1.936289E+05 -1.460963E+05 -8.018612E+04 -2.080715E+04 -3.955493E+04 -3.039340E+04
       283   9 -2.549921E+05 -7.358341E+04 -5.074329E+04  7.205245E+02 -4.749166E+04 -9.575210E+03
       283  10  1.008086E+06  1.315295E+05  1.472084E+05 -3.958061E+04  9.771607E-11  1.762221E-10
       283  11  1.065878E+06  1.596526E+05  1.899062E+05 -6.119848E+04 -8.637649E-11 -1.364330E-10
       283  12  1.152054E+06  2.750082E+05  2.867724E+05 -1.060251E+05  9.527437E-11 -1.547322E-10
       283  13  4.483555E+05 -3.495112E+03  3.140040E+04 -5.256933E+04 -4.261266E-12  1.660095E-10
       283  14  4.359368E+05  6.789658E+03  5.486914E+04 -4.099290E+04  3.795417E-10  3.662837E-10
       283  15  4.483001E+05  1.007246E+05  1.180291E+05 -5.262211E+04 -7.636413E-10 -7.523750E-11
       283  16 -1.110785E+05 -1.385389E+05 -8.442450E+04 -6.554617E+04 -5.345220E-10  1.272745E-10
       283  17 -1.936309E+05 -1.460977E+05 -8.019080E+04 -2.080812E+04 -4.032373E-10  1.158320E-10
       283  18 -2.549945E+05 -7.358412E+04 -5.074770E+04  7.201582E+02  6.696812E-10 -4.715760E-11
       283  19  1.008087E+06  1.315307E+05  1.472109E+05 -3.958019E+04  1.600682E+04  3.269579E+04
       283  20  1.065883E+06  1.596548E+05  1.899160E+05 -6.119687E+04  6.573879E+04  3.039816E+04
       283  21  1.152068E+06  2.750118E+05  2.867976E+05 -1.060242E+05  1.154920E+05  9.603952E+03
       283  22  4.483564E+05 -3.493812E+03  3.140348E+04 -5.256871E+04  2.382193E+04  3.270017E+04
       283  23  4.359400E+05  6.791394E+03  5.487608E+04 -4.099161E+04  5.264033E+04  3.039621E+04
       283  24  4.483073E+05  1.007265E+05  1.180418E+05 -5.262148E+04  8.147270E+04  9.592504E+03
       283  25 -1.110771E+05 -1.385375E+05 -8.442061E+04 -6.554534E+04  3.163012E+04  3.270422E+04
       283  26 -1.936289E+05 -1.460963E+05 -8.018612E+04 -2.080715E+04  3.955493E+04  3.039340E+04
       283  27 -2.549921E+05 -7.358341E+04 -5.074329E+04  7.205245E+02  4.749166E+04  9.575210E+03
       284   1  2.053883E+05  1.143473E+06  2.121424E+05 -1.542358E+05  6.240086E+03  7.430504E+04
       284   2  1.032337E+05  9.728259E+05  1.224760E+05 -1.063142E+05  1.784481E+04  3.830408E+04
       284   3  5.742387E+04  8.208330E+05  7.028140E+04 -1.117415E+05  1.359146E+04  2.293412E+03
       284   4  6.433383E+04  5.754084E+05  7.490383E+04 -1.195740E+05  6.273818E+03  5.227267E+04
       284   5  4.616331E+03  5.676668E+05  3.441347E+04 -9.294598E+04  1.785228E+04  3.419865E+04
       284   6 -1.841931E+03  5.754668E+05  1.897888E+04 -1.196633E+05  1.357047E+04  1.610533E+04
       284   7 -7.673954E+04  7.641624E+03 -6.235546E+04 -8.494384E+04  6.305111E+03  3.026034E+04
       284   8 -9.401122E+04  1.626617E+05 -5.365877E+04 -7.958648E+04  1.785958E+04  3.009586E+04
       284   9 -6.111124E+04  3.301579E+05 -3.232622E+04 -1.275820E+05  1.354912E+04  2.991189E+04
       284  10  2.053868E+05  1.143467E+06  2.121320E+05 -1.542362E+05  5.681286E-12 -2.222534E-10
       284  11  1.032329E+05  9.728243E+05  1.224727E+05 -1.063148E+05 -6.147314E-10  1.430243E-10
       284  12  5.742367E+04  8.208330E+05  7.028104E+04 -1.117415E+05  5.892917E-10  4.589279E-10
       284  13  6.433306E+04  5.754055E+05  7.489863E+04 -1.195743E+05  4.001687E-10 -1.471139E-10
       284  14  4.615675E+03  5.676654E+05  3.441067E+04 -9.294647E+04 -1.488601E-09  2.036073E-10
       284  15 -1.842198E+03  5.754664E+05  1.897805E+04 -1.196635E+05  5.813402E-10 -4.804519E-11
       284  16 -7.673983E+04  7.640630E+03 -6.235726E+04 -8.494400E+04 -2.557780E-10  1.710922E-10
       284  17 -9.401181E+04  1.626606E+05 -5.366107E+04 -7.958691E+04 -6.843847E-10 -2.483796E-10
       284  18 -6.111168E+04  3.301569E+05 -3.232825E+04 -1.275823E+05 -1.692055E-12 -4.719137E-10
       284  19  2.053883E+05  1.143473E+06  2.121424E+05 -1.542358E+05 -6.240086E+03 -7.430504E+04
       284  20  1.032337E+05  9.728259E+05  1.224760E+05 -1.063142E+05 -1.784481E+04 -3.830408E+04
       284  21  5.742387E+04  8.208330E+05  7.028140E+04 -1.117415E+05 -1.359146E+04 -2.293412E+03
       284  22  6.433383E+04  5.754084E+05  7.490383E+04 -1.195740E+05 -6.273818E+03 -5.227267E+04
       284  23  4.616331E+03  5.676668E+05  3.441347E+04 -9.294598E+04 -1.785228E+04 -3.419865E+04
       284  24 -1.841931E+03  5.754668E+05  1.897888E+04 -1.196633E+05 -1.357047E+04 -1.610533E+04
       284  25 -7.673954E+04  7.641624E+03 -6.235546E+04 -8.494384E+04 -6.305111E+03 -3.026034E+04
       284  26 -9.401122E+04  1.626617E+05 -5.365877E+04 -7.958648E+04 -1.785958E+04 -3.009586E+04
       284  27 -6.111124E+04  3.301579E+05 -3.232622E+04 -1.275820E+05 -1.354912E+04 -2.991189E+04
       285   1  3.360628E+04  6.984195E+05  4.087359E+04 -1.206711E+05  6.767839E+03  3.537375E+03
       285   2 -8.101742E+03  5.369633E+05 -1.004411E+03 -9.291357E+04 -2.067896E+03  5.331976E+02
       285   3 -4.790155E+04  3.762167E+05 -4.049952E+04 -1.192656E+05 -1.081360E+04 -2.469749E+03
       285   4  3.059980E+03  5.721762E+05  1.430961E+04 -1.198117E+05  6.752130E+03  1.356705E+04
       285   5  3.037037E+02  5.718238E+05  6.187316E+03 -9.275989E+04 -2.083234E+03  1.046117E+04
       285   6 -5.247208E+02  5.721753E+05  5.207456E+02 -1.198173E+05 -1.082864E+04  7.355776E+03
       285   7 -2.748729E+04  4.459481E+05 -1.225488E+04 -1.189525E+05  6.736448E+03  2.359472E+04
       285   8  8.709126E+03  6.066856E+05  1.337935E+04 -9.260619E+04 -2.098567E+03  2.038969E+04
       285   9  4.684971E+04  7.681704E+05  4.153924E+04 -1.203691E+05 -1.084371E+04  1.718435E+04
       285  10  3.360623E+04  6.984195E+05  4.087348E+04 -1.206711E+05 -6.904551E-11 -5.249725E-10
       285  11 -8.101747E+03  5.369632E+05 -1.004419E+03 -9.291357E+04  3.411750E-10 -4.201623E-10
       285  12 -4.790168E+04  3.762166E+05 -4.049975E+04 -1.192656E+05 -7.295968E-10 -1.950142E-10
       285  13  3.059882E+03  5.721760E+05  1.430918E+04 -1.198117E+05  1.278024E-10  2.559335E-11
       285  14  3.036697E+02  5.718236E+05  6.187103E+03 -9.275987E+04  1.121020E-09 -1.456857E-10
       285  15 -5.248613E+02  5.721752E+05  5.204236E+02 -1.198172E+05  8.364109E-10 -1.779220E-10
       285  16 -2.748749E+04  4.459475E+05 -1.225601E+04 -1.189526E+05  4.297067E-10  5.718142E-10
       285  17  8.709010E+03  6.066852E+05  1.337856E+04 -9.260616E+04 -5.179323E-10  3.714172E-10
       285  18  4.684950E+04  7.681700E+05  4.153847E+04 -1.203689E+05 -5.274080E-10  2.607688E-10
       285  19  3.360628E+04  6.984195E+05  4.087359E+04 -1.206711E+05 -6.767839E+03 -3.537375E+03
       285  20 -8.101742E+03  5.369633E+05 -1.004411E+03 -9.291357E+04  2.067896E+03 -5.331976E+02
       285  21 -4.790155E+04  3.762167E+05 -4.049952E+04 -1.192656E+05  1.081360E+04  2.469749E+03
       285  22  3.059980E+03  5.721762E+05  1.430961E+04 -1.198117E+05 -6.752130E+03 -1.356705E+04
       285  23  3.037037E+02  5.718238E+05  6.187316E+03 -9.275989E+04  2.083234E+03 -1.046117E+04
       285  24 -5.247208E+02  5.721753E+05  5.207456E+02 -1.198173E+05  1.082864E+04 -7.355776E+03
       285  25 -2.748729E+04  4.459481E+05 -1.225488E+04 -1.189525E+05 -6.736448E+03 -2.359472E+04
       285  26  8.709126E+03  6.066856E+05  1.337935E+04 -9.260619E+04  2.098567E+03 -2.038969E+04
       285  27  4.684971E+04  7.681704E+05  4.153924E+04 -1.203691E+05  1.084371E+04 -1.718435E+04
       286   1 -7.516778E+04  2.560137E+05 -6.760454E+04 -1.169561E+05 -1.771393E+04 -6.725382E+03
       286   2 -1.164933E+05  9.841911E+04 -1.107030E+05 -9.586934E+04 -2.140095E+04  1.730938E+04
       286   3 -1.752581E+05 -6.674329E+04 -1.738323E+05 -1.280996E+05 -7.438419E+03  4.135724E+04
       286   4  9.709162E+02  5.710868E+05 -1.886211E+03 -1.196345E+05 -1.773458E+04  7.353850E+03
       286   5 -1.007161E+03  5.731329E+05 -7.767296E+03 -9.298815E+04 -2.139167E+04  1.148115E+04
       286   6 -1.696127E+04  5.710453E+05 -1.985444E+04 -1.196579E+05 -7.404859E+03  1.562835E+04
       286   7  7.710341E+04  8.862541E+05  6.382739E+04 -1.223143E+05 -1.775535E+04  2.144011E+04
       286   8  1.144641E+05  1.048058E+06  9.515511E+04 -9.010463E+04 -2.138245E+04  5.648519E+03
       286   9  1.413065E+05  1.209207E+06  1.340968E+05 -1.112074E+05 -7.372018E+03 -1.012688E+04
       286  10 -7.516813E+04  2.560136E+05 -6.760521E+04 -1.169562E+05 -1.950928E-11  1.282088E-10
       286  11 -1.164938E+05  9.841866E+04 -1.107044E+05 -9.586905E+04  2.294972E-10  1.226512E-10
       286  12 -1.752586E+05 -6.674514E+04 -1.738356E+05 -1.280993E+05 -2.011043E-10  8.287425E-11
       286  13  9.705639E+02  5.710866E+05 -1.886903E+03 -1.196344E+05 -1.069673E-09  1.536711E-10
       286  14 -1.007688E+03  5.731327E+05 -7.768403E+03 -9.298795E+04  6.089286E-10 -1.036189E-10
       286  15 -1.696139E+04  5.710450E+05 -1.985501E+04 -1.196578E+05 -2.279171E-10  6.827305E-11
       286  16  7.710295E+04  8.862535E+05  6.382593E+04 -1.223140E+05  1.140855E-10 -2.878076E-10
       286  17  1.144636E+05  1.048058E+06  9.515419E+04 -9.010453E+04  2.572861E-10 -2.381050E-10
       286  18  1.413064E+05  1.209207E+06  1.340965E+05 -1.112074E+05 -3.242632E-10  1.188658E-11
       286  19 -7.516778E+04  2.560137E+05 -6.760454E+04 -1.169561E+05  1.771393E+04  6.725382E+03
       286  20 -1.164933E+05  9.841911E+04 -1.107030E+05 -9.586934E+04  2.140095E+04 -1.730938E+04
       286  21 -1.752581E+05 -6.674329E+04 -1.738323E+05 -1.280996E+05  7.438419E+03 -4.135724E+04
       286  22  9.709162E+02  5.710868E+05 -1.886211E+03 -1.196345E+05  1.773458E+04 -7.353850E+03
       286  23 -1.007161E+03  5.731329E+05 -7.767296E+03 -9.298815E+04  2.139167E+04 -1.148115E+04
       286  24 -1.696127E+04  5.710453E+05 -1.985444E+04 -1.196579E+05  7.404859E+03 -1.562835E+04
       286  25  7.710341E+04  8.862541E+05  6.382739E+04 -1.223143E+05  1.775535E+04 -2.144011E+04
       286  26  1.144641E+05  1.048058E+06  9.515511E+04 -9.010463E+04  2.138245E+04 -5.648519E+03
       286  27  1.413065E+05  1.209207E+06  1.340968E+05 -1.112074E+05  7.372018E+03  1.012688E+04
       287   1 -8.858267E+05 -4.189914E+05 -2.781531E+05 -3.264483E+05 -1.206242E+05 -3.672995E+04
       287   2 -8.494541E+05 -2.660860E+05 -1.737880E+05 -3.152841E+05 -7.769403E+04 -1.536440E+03
       287   3 -8.482896E+05 -2.233829E+05 -1.336299E+05 -2.895376E+05 -2.933737E+04  1.924960E+04
       287   4 -4.221400E+05 -1.870858E+05 -1.446311E+05 -1.407768E+05 -9.546117E+04 -2.727925E+04
       287   5 -3.980896E+05 -7.728203E+04 -6.392611E+04 -1.691965E+05 -6.771034E+04  2.212498E+03
       287   6 -4.062086E+05 -7.463178E+04 -3.536112E+04 -1.830445E+05 -3.453733E+04  1.729424E+04
       287   7  4.176142E+04  4.488512E+04 -1.112782E+04  4.503522E+04 -7.027778E+04 -1.781504E+04
       287   8  5.347878E+04  1.115521E+05  4.592071E+04 -2.300673E+04 -5.771880E+04  5.965257E+03
       287   9  3.606998E+04  7.412651E+04  6.289616E+04 -7.648518E+04 -3.974133E+04  1.533767E+04
       287  10 -8.858427E+05 -4.189967E+05 -2.781830E+05 -3.264518E+05 -2.947209E-10 -1.688202E-11
       287  11 -8.494606E+05 -2.660876E+05 -1.737993E+05 -3.152842E+05 -4.496153E-10 -2.393892E-12
       287  12 -8.482906E+05 -2.233835E+05 -1.336322E+05 -2.895371E+05  5.524225E-10 -2.222042E-10
       287  13 -4.221500E+05 -1.870891E+05 -1.446497E+05 -1.407788E+05  4.380152E-10  5.491079E-11
       287  14 -3.980946E+05 -7.728327E+04 -6.393474E+04 -1.691964E+05  1.028502E-09 -1.339158E-11
       287  15 -4.062100E+05 -7.463242E+04 -3.536392E+04 -1.830440E+05 -7.176966E-10 -2.244358E-10
       287  16  4.175603E+04  4.488345E+04 -1.113769E+04  4.503421E+04 -5.101835E-11  8.409869E-11
       287  17  5.347520E+04  1.115512E+05  4.591439E+04 -2.300645E+04  8.722865E-11  1.535800E-11
       287  18  3.606822E+04  7.412583E+04  6.289275E+04 -7.648469E+04 -5.865650E-10 -2.384338E-10
       287  19 -8.858267E+05 -4.189914E+05 -2.781531E+05 -3.264483E+05  1.206242E+05  3.672995E+04
       287  20 -8.494541E+05 -2.660860E+05 -1.737880E+05 -3.152841E+05  7.769403E+04  1.536440E+03
       287  21 -8.482896E+05 -2.233829E+05 -1.336299E+05 -2.895376E+05  2.933737E+04 -1.924960E+04
       287  22 -4.221400E+05 -1.870858E+05 -1.446311E+05 -1.407768E+05  9.546117E+04  2.727925E+04
       287  23 -3.980896E+05 -7.728203E+04 -6.392611E+04 -1.691965E+05  6.771034E+04 -2.212498E+03
       287  24 -4.062086E+05 -7.463178E+04 -3.536112E+04 -1.830445E+05  3.453733E+04 -1.729424E+04
       287  25  4.176142E+04  4.488512E+04 -1.112782E+04  4.503522E+04  7.027778E+04  1.781504E+04
       287  26  5.347878E+04  1.115521E+05  4.592071E+04 -2.300673E+04  5.771880E+04 -5.965257E+03
       287  27  3.606998E+04  7.412651E+04  6.289616E+04 -7.648518E+04  3.974133E+04 -1.533767E+04
       288   1 -8.032663E+05 -2.335405E+05 -1.199304E+05 -2.900398E+05 -2.805352E+04  1.703691E+04
       288   2 -7.703189E+05 -2.089039E+05 -9.772692E+04 -2.746492E+05 -1.944631E+04  1.850071E+04
       288   3 -7.305730E+05 -1.989053E+05 -8.281739E+04 -2.693321E+05 -1.057935E+04  1.927179E+04
       288   4 -4.016247E+05 -8.311774E+04 -2.764365E+04 -1.775882E+05 -2.933361E+04  1.655437E+04
       288   5 -4.047278E+05 -7.329453E+04 -1.445328E+04 -1.735170E+05 -2.145250E+04  1.774591E+04
       288   6 -4.008875E+05 -7.796312E+04 -7.977561E+03 -1.795197E+05 -1.331219E+04  1.824471E+04
       288   7  1.762432E+02  6.731719E+04  6.463167E+04 -6.507046E+04 -3.061459E+04  1.607149E+04
       288   8 -3.900235E+04  6.232515E+04  6.881159E+04 -7.233022E+04 -2.345998E+04  1.699061E+04
       288   9 -7.109089E+04  4.298756E+04  6.685575E+04 -8.966342E+04 -1.604661E+04  1.721704E+04
       288  10 -8.032672E+05 -2.335410E+05 -1.199325E+05 -2.900394E+05  1.686409E-11 -4.037164E-10
       288  11 -7.703194E+05 -2.089044E+05 -9.772827E+04 -2.746489E+05 -4.290509E-10 -6.015065E-11
       288  12 -7.305732E+05 -1.989057E+05 -8.281830E+04 -2.693319E+05 -4.102034E-10  2.496996E-10
       288  13 -4.016257E+05 -8.311826E+04 -2.764578E+04 -1.775878E+05  1.935078E-10 -3.259548E-10
       288  14 -4.047283E+05 -7.329499E+04 -1.445474E+04 -1.735167E+05  9.024523E-12 -8.925912E-11
       288  15 -4.008878E+05 -7.796352E+04 -7.978519E+03 -1.795195E+05 -7.143726E-11  3.044365E-10
       288  16  1.751676E+02  6.731666E+04  6.462943E+04 -6.507007E+04  3.046071E-10 -1.861407E-10
       288  17 -3.900302E+04  6.232469E+04  6.881001E+04 -7.232989E+04  1.397118E-10 -1.022814E-10
       288  18 -7.109125E+04  4.298717E+04  6.685471E+04 -8.966320E+04  7.570550E-12  3.812967E-10
       288  19 -8.032663E+05 -2.335405E+05 -1.199304E+05 -2.900398E+05  2.805352E+04 -1.703691E+04
       288  20 -7.703189E+05 -2.089039E+05 -9.772692E+04 -2.746492E+05  1.944631E+04 -1.850071E+04
       288  21 -7.305730E+05 -1.989053E+05 -8.281739E+04 -2.693321E+05  1.057935E+04 -1.927179E+04
       288  22 -4.016247E+05 -8.311774E+04 -2.764365E+04 -1.775882E+05  2.933361E+04 -1.655437E+04
       288  23 -4.047278E+05 -7.329453E+04 -1.445328E+04 -1.735170E+05  2.145250E+04 -1.774591E+04
       288  24 -4.008875E+05 -7.796312E+04 -7.977561E+03 -1.795197E+05  1.331219E+04 -1.824471E+04
       288  25  1.762432E+02  6.731719E+04  6.463167E+04 -6.507046E+04  3.061459E+04 -1.607149E+04
       288  26 -3.900235E+04  6.232515E+04  6.881159E+04 -7.233022E+04  2.345998E+04 -1.699061E+04
       288  27 -7.109089E+04  4.298756E+04  6.685575E+04 -8.966342E+04  1.604661E+04 -1.721704E+04
       289   1 -7.015011E+05 -1.894399E+05 -7.427410E+04 -2.619825E+05 -9.081069E+03  1.814144E+04
       289   2 -6.690343E+05 -1.706443E+05 -6.319668E+04 -2.462290E+05 -6.478807E+03  1.634217E+04
       289   3 -6.271496E+05 -1.618164E+05 -5.343366E+04 -2.415886E+05 -3.863655E+03  1.450630E+04
       289   4 -4.005273E+05 -7.834269E+04 -6.034307E+03 -1.792278E+05 -1.163059E+04  1.718350E+04
       289   5 -4.052217E+05 -7.326254E+04 -3.307541E+03 -1.737074E+05 -9.066060E+03  1.537052E+04
       289   6 -4.004920E+05 -7.814208E+04 -1.864738E+03 -1.793000E+05 -6.488759E+03  1.352090E+04
       289   7 -9.946258E+04  3.276131E+04  6.219959E+04 -9.643649E+04 -1.418145E+04  1.622507E+04
       289   8 -1.413400E+05  2.412415E+04  5.657684E+04 -1.011578E+05 -1.165450E+04  1.439842E+04
       289   9 -1.737843E+05  5.535592E+03  4.970045E+04 -1.169910E+05 -9.114886E+03  1.253513E+04
       289  10 -7.015013E+05 -1.894403E+05 -7.427487E+04 -2.619824E+05  6.787469E-10  4.102508E-10
       289  11 -6.690344E+05 -1.706446E+05 -6.319726E+04 -2.462290E+05  3.341863E-10 -1.755692E-11
       289  12 -6.271497E+05 -1.618167E+05 -5.343409E+04 -2.415886E+05 -3.094900E-10 -1.788958E-10
       289  13 -4.005275E+05 -7.834304E+04 -6.035116E+03 -1.792277E+05 -2.812313E-10  2.795326E-10
       289  14 -4.052218E+05 -7.326281E+04 -3.308140E+03 -1.737073E+05 -1.425458E-10 -1.426863E-10
       289  15 -4.004921E+05 -7.814228E+04 -1.865161E+03 -1.793000E+05 -2.254284E-11 -2.319457E-10
       289  16 -9.946287E+04  3.276097E+04  6.219872E+04 -9.643631E+04 -7.601564E-10  1.246502E-10
       289  17 -1.413402E+05  2.412389E+04  5.657620E+04 -1.011577E+05 -1.908457E-10 -1.469215E-10
       289  18 -1.737844E+05  5.535401E+03  4.970000E+04 -1.169909E+05  4.974814E-10 -5.925792E-11
       289  19 -7.015011E+05 -1.894399E+05 -7.427410E+04 -2.619825E+05  9.081069E+03 -1.814144E+04
       289  20 -6.690343E+05 -1.706443E+05 -6.319668E+04 -2.462290E+05  6.478807E+03 -1.634217E+04
       289  21 -6.271496E+05 -1.618164E+05 -5.343366E+04 -2.415886E+05  3.863655E+03 -1.450630E+04
       289  22 -4.005273E+05 -7.834269E+04 -6.034307E+03 -1.792278E+05  1.163059E+04 -1.718350E+04
       289  23 -4.052217E+05 -7.326254E+04 -3.307541E+03 -1.737074E+05  9.066060E+03 -1.537052E+04
       289  24 -4.004920E+05 -7.814208E+04 -1.864738E+03 -1.793000E+05  6.488759E+03 -1.352090E+04
       289  25 -9.946258E+04  3.276131E+04  6.219959E+04 -9.643649E+04  1.418145E+04 -1.622507E+04
       289  26 -1.413400E+05  2.412415E+04  5.657684E+04 -1.011578E+05  1.165450E+04 -1.439842E+04
       289  27 -1.737843E+05  5.535592E+03  4.970045E+04 -1.169910E+05  9.114886E+03 -1.253513E+04
       290   1 -5.988408E+05 -1.513879E+05 -4.634906E+04 -2.338545E+05 -3.053304E+03  1.315916E+04
       290   2 -5.663832E+05 -1.327672E+05 -3.746585E+04 -2.180205E+05 -1.671445E+03  1.084456E+04
       290   3 -5.242453E+05 -1.238999E+05 -2.891838E+04 -2.133481E+05 -2.887199E+02  8.526201E+03
       290   4 -4.004421E+05 -7.815818E+04 -1.436162E+03 -1.792868E+05 -5.672270E+03  1.217629E+04
       290   5 -4.052787E+05 -7.327720E+04 -8.962157E+02 -1.737064E+05 -4.294243E+03  9.860521E+03
       290   6 -4.004365E+05 -7.814905E+04 -6.891644E+02 -1.792883E+05 -2.915384E+03  7.540993E+03
       290   7 -2.020027E+05 -4.925030E+03  4.347456E+04 -1.247027E+05 -8.292160E+03  1.119308E+04
       290   8 -2.441476E+05 -1.378504E+04  3.567190E+04 -1.293817E+05 -6.917788E+03  8.876205E+03
       290   9 -2.766123E+05 -3.239704E+04  2.753908E+04 -1.452223E+05 -5.542616E+03  6.555572E+03
       290  10 -5.988408E+05 -1.513881E+05 -4.634941E+04 -2.338544E+05 -6.547109E-11  1.330684E-11
       290  11 -5.663832E+05 -1.327673E+05 -3.746608E+04 -2.180204E+05  1.802545E-10 -4.480676E-11
       290  12 -5.242453E+05 -1.239000E+05 -2.891852E+04 -2.133481E+05  2.901879E-12  5.021170E-11
       290  13 -4.004422E+05 -7.815835E+04 -1.436501E+03 -1.792867E+05 -1.932669E-10 -6.997765E-11
       290  14 -4.052788E+05 -7.327731E+04 -8.964330E+02 -1.737064E+05  2.288906E-10  2.389329E-11
       290  15 -4.004365E+05 -7.814911E+04 -6.892872E+02 -1.792883E+05 -6.678778E-11 -4.434076E-11
       290  16 -2.020028E+05 -4.925183E+03  4.347419E+04 -1.247027E+05  3.060720E-10 -1.451856E-10
       290  17 -2.441477E+05 -1.378513E+04  3.567166E+04 -1.293817E+05 -1.884414E-10 -1.461208E-10
       290  18 -2.766124E+05 -3.239709E+04  2.753894E+04 -1.452222E+05 -5.606884E-11 -2.647826E-11
       290  19 -5.988408E+05 -1.513879E+05 -4.634906E+04 -2.338545E+05  3.053304E+03 -1.315916E+04
       290  20 -5.663832E+05 -1.327672E+05 -3.746585E+04 -2.180205E+05  1.671445E+03 -1.084456E+04
       290  21 -5.242453E+05 -1.238999E+05 -2.891838E+04 -2.133481E+05  2.887199E+02 -8.526201E+03
       290  22 -4.004421E+05 -7.815818E+04 -1.436162E+03 -1.792868E+05  5.672270E+03 -1.217629E+04
       290  23 -4.052787E+05 -7.327720E+04 -8.962157E+02 -1.737064E+05  4.294243E+03 -9.860521E+03
       290  24 -4.004365E+05 -7.814905E+04 -6.891644E+02 -1.792883E+05  2.915384E+03 -7.540993E+03
       290  25 -2.020027E+05 -4.925030E+03  4.347456E+04 -1.247027E+05  8.292160E+03 -1.119308E+04
       290  26 -2.441476E+05 -1.378504E+04  3.567190E+04 -1.293817E+05  6.917788E+03 -8.876205E+03
       290  27 -2.766123E+05 -3.239704E+04  2.753908E+04 -1.452223E+05  5.542616E+03 -6.555572E+03
       291   1 -4.959384E+05 -1.134109E+05 -2.223871E+04 -2.055867E+05  3.702673E+02  7.120547E+03
       291   2 -4.634139E+05 -9.476537E+04 -1.405228E+04 -1.897288E+05  1.727852E+03  4.789498E+03
       291   3 -4.211996E+05 -8.588707E+04 -6.183972E+03 -1.850537E+05  3.085226E+03  2.458445E+03
       291   4 -4.004328E+05 -7.815170E+04 -6.817521E+02 -1.792926E+05 -2.257771E+03  6.134943E+03
       291   5 -4.052760E+05 -7.326455E+04 -8.510433E+02 -1.737019E+05 -9.001959E+02  3.803992E+03
       291   6 -4.004307E+05 -7.814474E+04 -1.338433E+03 -1.792947E+05  4.571456E+02  1.473026E+03
       291   7 -3.049186E+05 -4.289200E+04  2.087448E+04 -1.529949E+05 -4.886232E+03  5.149180E+03
       291   8 -3.471346E+05 -5.176346E+04  1.235000E+04 -1.576737E+05 -3.528510E+03  2.818385E+03
       291   9 -3.796612E+05 -7.040232E+04  3.507141E+03 -1.735354E+05 -2.171046E+03  4.875643E+02
       291  10 -4.959384E+05 -1.134110E+05 -2.223880E+04 -2.055867E+05  1.165355E-10 -4.725640E-11
       291  11 -4.634139E+05 -9.476540E+04 -1.405233E+04 -1.897288E+05  1.564399E-10 -6.900589E-11
       291  12 -4.211996E+05 -8.588708E+04 -6.184002E+03 -1.850537E+05  2.471160E-10  1.311451E-11
       291  13 -4.004328E+05 -7.815174E+04 -6.818324E+02 -1.792926E+05  1.385319E-10 -1.118033E-11
       291  14 -4.052760E+05 -7.326457E+04 -8.510720E+02 -1.737019E+05 -1.769623E-10 -1.041400E-10
       291  15 -4.004307E+05 -7.814474E+04 -1.338437E+03 -1.792947E+05 -1.518267E-10 -3.180228E-11
       291  16 -3.049186E+05 -4.289203E+04  2.087439E+04 -1.529948E+05 -1.853537E-10 -1.109785E-10
       291  17 -3.471346E+05 -5.176347E+04  1.234996E+04 -1.576737E+05 -2.753599E-10  4.086625E-11
       291  18 -3.796612E+05 -7.040232E+04  3.507132E+03 -1.735354E+05 -1.193283E-10 -1.919639E-10
       291  19 -4.959384E+05 -1.134109E+05 -2.223871E+04 -2.055867E+05 -3.702673E+02 -7.120547E+03
       291  20 -4.634139E+05 -9.476537E+04 -1.405228E+04 -1.897288E+05 -1.727852E+03 -4.789498E+03
       291  21 -4.211996E+05 -8.588707E+04 -6.183972E+03 -1.850537E+05 -3.085226E+03 -2.458445E+03
       291  22 -4.004328E+05 -7.815170E+04 -6.817521E+02 -1.792926E+05  2.257771E+03 -6.134943E+03
       291  23 -4.052760E+05 -7.326455E+04 -8.510433E+02 -1.737019E+05  9.001959E+02 -3.803992E+03
       291  24 -4.004307E+05 -7.814474E+04 -1.338433E+03 -1.792947E+05 -4.571456E+02 -1.473026E+03
       291  25 -3.049186E+05 -4.289200E+04  2.087448E+04 -1.529949E+05  4.886232E+03 -5.149180E+03
       291  26 -3.471346E+05 -5.176346E+04  1.235000E+04 -1.576737E+05  3.528510E+03 -2.818385E+03
       291  27 -3.796612E+05 -7.040232E+04  3.507141E+03 -1.735354E+05  2.171046E+03 -4.875643E+02
       292   1 -3.928817E+05 -7.540405E+04  9.996846E+01 -1.773326E+05  3.889041E+03  1.104499E+03
       292   2 -3.602563E+05 -5.673213E+04  7.136326E+03 -1.614397E+05  6.325381E+03 -8.161639E+02
       292   3 -3.181594E+05 -4.804800E+04  1.299586E+04 -1.567285E+05  8.754567E+03 -2.717213E+03
       292   4 -4.004717E+05 -7.813583E+04 -1.731780E+03 -1.793164E+05  1.255642E+03  1.170903E+02
       292   5 -4.052175E+05 -7.322489E+04 -3.055082E+03 -1.736937E+05  3.712463E+03 -1.795970E+03
       292   6 -4.004973E+05 -7.830592E+04 -5.571477E+03 -1.792534E+05  6.162026E+03 -3.689445E+03
       292   7 -4.080615E+05 -8.086760E+04 -3.563503E+03 -1.813002E+05 -1.377721E+03 -8.703062E+02
       292   8 -4.501765E+05 -8.971743E+04 -1.324655E+04 -1.859470E+05  1.099760E+03 -2.775698E+03
       292   9 -4.828278E+05 -1.085631E+05 -2.413908E+04 -2.017755E+05  3.569874E+03 -4.661532E+03
       292  10 -3.928817E+05 -7.540406E+04  9.993772E+01 -1.773326E+05  1.186713E-11 -3.699597E-11
       292  11 -3.602563E+05 -5.673214E+04  7.136250E+03 -1.614397E+05  2.037381E-10 -2.226527E-11
       292  12 -3.181595E+05 -4.804803E+04  1.299570E+04 -1.567285E+05  2.687314E-10 -4.647617E-11
       292  13 -4.004717E+05 -7.813583E+04 -1.731783E+03 -1.793164E+05  8.136391E-11 -7.197137E-11
       292  14 -4.052175E+05 -7.322489E+04 -3.055114E+03 -1.736937E+05 -3.278388E-10  1.203599E-10
       292  15 -4.004973E+05 -7.830595E+04 -5.571574E+03 -1.792534E+05 -6.532907E-11 -4.930653E-11
       292  16 -4.080615E+05 -8.086760E+04 -3.563508E+03 -1.813002E+05  7.709302E-11 -5.716516E-11
       292  17 -4.501765E+05 -8.971744E+04 -1.324657E+04 -1.859470E+05  4.490322E-11  1.822460E-11
       292  18 -4.828278E+05 -1.085632E+05 -2.413914E+04 -2.017755E+05 -3.120381E-10  2.322070E-11
       292  19 -3.928817E+05 -7.540405E+04  9.996846E+01 -1.773326E+05 -3.889041E+03 -1.104499E+03
       292  20 -3.602563E+05 -5.673213E+04  7.136326E+03 -1.614397E+05 -6.325381E+03  8.161639E+02
       292  21 -3.181594E+05 -4.804800E+04  1.299586E+04 -1.567285E+05 -8.754567E+03  2.717213E+03
       292  22 -4.004717E+05 -7.813583E+04 -1.731780E+03 -1.793164E+05 -1.255642E+03 -1.170903E+02
       292  23 -4.052175E+05 -7.322489E+04 -3.055082E+03 -1.736937E+05 -3.712463E+03  1.795970E+03
       292  24 -4.004973E+05 -7.830592E+04 -5.571477E+03 -1.792534E+05 -6.162026E+03  3.689445E+03
       292  25 -4.080615E+05 -8.086760E+04 -3.563503E+03 -1.813002E+05  1.377721E+03  8.703062E+02
       292  26 -4.501765E+05 -8.971743E+04 -1.324655E+04 -1.859470E+05 -1.099760E+03  2.775698E+03
       292  27 -4.828278E+05 -1.085631E+05 -2.413908E+04 -2.017755E+05 -3.569874E+03  4.661532E+03
       293   1 -2.896092E+05 -3.775394E+04  1.785963E+04 -1.498580E+05  1.045408E+04 -3.762137E+03
       293   2 -2.571824E+05 -1.834768E+04  2.032527E+04 -1.325296E+05  1.764962E+04 -3.751122E+03
       293   3 -2.174719E+05 -1.306625E+04  1.692149E+04 -1.254708E+05  2.469524E+04 -3.337824E+03
       293   4 -4.008220E+05 -7.796177E+04 -7.364758E+03 -1.795319E+05  7.753595E+03 -4.774937E+03
       293   5 -4.047574E+05 -7.322912E+04 -1.333492E+04 -1.735080E+05  1.537187E+04 -4.605655E+03
       293   6 -4.014956E+05 -8.270673E+04 -2.551105E+04 -1.777549E+05  2.283981E+04 -4.034217E+03
       293   7 -5.120231E+05 -1.181691E+05 -3.259011E+04 -2.092013E+05  5.053621E+03 -5.787555E+03
       293   8 -5.523110E+05 -1.281090E+05 -4.699666E+04 -2.144776E+05  1.309471E+04 -5.459968E+03
       293   9 -5.854853E+05 -1.523443E+05 -6.794586E+04 -2.300247E+05  2.098497E+04 -4.730374E+03
       293  10 -2.896093E+05 -3.775398E+04  1.785940E+04 -1.498580E+05 -1.738948E-10 -2.255680E-10
       293  11 -2.571827E+05 -1.834778E+04  2.032466E+04 -1.325295E+05 -2.526041E-10  4.760917E-11
       293  12 -2.174725E+05 -1.306643E+04  1.692032E+04 -1.254707E+05  7.569166E-11  1.523364E-10
       293  13 -4.008221E+05 -7.796181E+04 -7.364914E+03 -1.795319E+05  2.851625E-12 -4.964578E-11
       293  14 -4.047576E+05 -7.322921E+04 -1.333540E+04 -1.735079E+05  8.441339E-11  3.559689E-11
       293  15 -4.014961E+05 -8.270688E+04 -2.551206E+04 -1.777548E+05  3.422993E-10 -8.156708E-11
       293  16 -5.120232E+05 -1.181691E+05 -3.259022E+04 -2.092012E+05  1.801445E-10  1.794922E-10
       293  17 -5.523111E+05 -1.281091E+05 -4.699704E+04 -2.144776E+05  2.133213E-10  5.616022E-11
       293  18 -5.854858E+05 -1.523444E+05 -6.794673E+04 -2.300246E+05 -8.946282E-11 -1.080020E-10
       293  19 -2.896092E+05 -3.775394E+04  1.785963E+04 -1.498580E+05 -1.045408E+04  3.762137E+03
       293  20 -2.571824E+05 -1.834768E+04  2.032527E+04 -1.325296E+05 -1.764962E+04  3.751122E+03
       293  21 -2.174719E+05 -1.306625E+04  1.692149E+04 -1.254708E+05 -2.469524E+04  3.337824E+03
       293  22 -4.008220E+05 -7.796177E+04 -7.364758E+03 -1.795319E+05 -7.753595E+03  4.774937E+03
       293  23 -4.047574E+05 -7.322912E+04 -1.333492E+04 -1.735080E+05 -1.537187E+04  4.605655E+03
       293  24 -4.014956E+05 -8.270673E+04 -2.551105E+04 -1.777549E+05 -2.283981E+04  4.034217E+03
       293  25 -5.120231E+05 -1.181691E+05 -3.259011E+04 -2.092013E+05 -5.053621E+03  5.787555E+03
       293  26 -5.523110E+05 -1.281090E+05 -4.699666E+04 -2.144776E+05 -1.309471E+04  5.459968E+03
       293  27 -5.854853E+05 -1.523443E+05 -6.794586E+04 -2.300247E+05 -2.098497E+04  4.730374E+03
       294   1 -1.820135E+05 -5.932942E+03  1.610158E+04 -1.354751E+05  3.171041E+04 -2.974489E+03
       294   2 -1.626975E+05  3.019815E+04  2.868389E+01 -8.444212E+04  5.416637E+04  5.772924E+03
       294   3 -1.702922E+05 -3.187032E+04 -5.715200E+04 -2.120824E+04  7.347478E+04  2.291276E+04
       294   4 -4.056861E+05 -7.491294E+04 -3.263361E+04 -1.828375E+05  2.757011E+04 -4.527451E+03
       294   5 -3.986713E+05 -7.684131E+04 -5.898794E+04 -1.694620E+05  5.887430E+04  7.537144E+03
       294   6 -4.203390E+05 -1.787507E+05 -1.334751E+05 -1.438842E+05  8.702911E+04  2.799225E+04
       294   7 -6.293081E+05 -1.438925E+05 -8.137154E+04 -2.301859E+05  2.343144E+04 -6.080035E+03
       294   8 -6.345860E+05 -1.838672E+05 -1.180080E+05 -2.544488E+05  6.358023E+04  9.300245E+03
       294   9 -6.703128E+05 -3.255915E+05 -2.098014E+05 -2.665043E+05  1.005773E+05  3.306650E+04
       294  10 -1.820146E+05 -5.933221E+03  1.609967E+04 -1.354750E+05 -3.158487E-10 -5.847766E-11
       294  11 -1.627007E+05  3.019732E+04  2.310600E+01 -8.444238E+04 -2.067204E-10  1.613468E-10
       294  12 -1.702981E+05 -3.187234E+04 -5.716314E+04 -2.120959E+04 -1.074708E-10  8.165915E-11
       294  13 -4.056869E+05 -7.491317E+04 -3.263508E+04 -1.828374E+05 -1.304149E-10  5.004203E-11
       294  14 -3.986751E+05 -7.684230E+04 -5.899456E+04 -1.694623E+05  4.472657E-10  9.055665E-11
       294  15 -4.203474E+05 -1.787535E+05 -1.334908E+05 -1.438862E+05 -6.601428E-12 -1.122531E-10
       294  16 -6.293087E+05 -1.438927E+05 -8.137265E+04 -2.301858E+05  5.026786E-10 -3.528746E-11
       294  17 -6.345904E+05 -1.838684E+05 -1.180158E+05 -2.544492E+05  7.479295E-11  4.454911E-11
       294  18 -6.703240E+05 -3.255954E+05 -2.098225E+05 -2.665070E+05  9.311837E-11  1.780898E-12
       294  19 -1.820135E+05 -5.932942E+03  1.610158E+04 -1.354751E+05 -3.171041E+04  2.974489E+03
       294  20 -1.626975E+05  3.019815E+04  2.868389E+01 -8.444212E+04 -5.416637E+04 -5.772924E+03
       294  21 -1.702922E+05 -3.187032E+04 -5.715200E+04 -2.120824E+04 -7.347478E+04 -2.291276E+04
       294  22 -4.056861E+05 -7.491294E+04 -3.263361E+04 -1.828375E+05 -2.757011E+04  4.527451E+03
       294  23 -3.986713E+05 -7.684131E+04 -5.898794E+04 -1.694620E+05 -5.887430E+04 -7.537144E+03
       294  24 -4.203390E+05 -1.787507E+05 -1.334751E+05 -1.438842E+05 -8.702911E+04 -2.799225E+04
       294  25 -6.293081E+05 -1.438925E+05 -8.137154E+04 -2.301859E+05 -2.343144E+04  6.080035E+03
       294  26 -6.345860E+05 -1.838672E+05 -1.180080E+05 -2.544488E+05 -6.358023E+04 -9.300245E+03
       294  27 -6.703128E+05 -3.255915E+05 -2.098014E+05 -2.665043E+05 -1.005773E+05 -3.306650E+04
       295   1 -5.568156E+05 -1.427034E+05 -1.205559E+05 -2.087844E+04  2.480799E+04  1.258112E+04
       295   2 -4.745706E+05 -1.957465E+05 -1.310821E+05 -3.454583E+04  2.754879E+04  4.009747E+04
       295   3 -3.757745E+05 -1.819955E+05 -1.266609E+05 -7.734406E+04  3.030705E+04  4.336604E+04
       295   4  3.654556E+05  8.597061E+04  1.008012E+05 -6.630814E+04  6.956053E+04  1.260542E+04
       295   5  3.548526E+05  5.724350E+03  4.685017E+04 -5.172621E+04  4.494303E+04  4.009963E+04
       295   6  3.655161E+05 -3.029463E+03  2.682274E+04 -6.627089E+04  2.034414E+04  4.336094E+04
       295   7  1.288515E+06  3.145917E+05  3.221066E+05 -1.118057E+05  1.143793E+05  1.262315E+04
       295   8  1.184924E+06  2.071515E+05  2.247436E+05 -6.892991E+04  6.236016E+04  4.010083E+04
       295   9  1.107328E+06  1.759023E+05  1.802770E+05 -5.518426E+04  1.036952E+04  4.335548E+04
       295  10 -5.568163E+05 -1.427037E+05 -1.205574E+05 -2.087869E+04 -5.511023E-10  1.792367E-10
       295  11 -4.745718E+05 -1.957485E+05 -1.310865E+05 -3.454672E+04 -3.233821E-10 -1.473179E-11
       295  12 -3.757760E+05 -1.819978E+05 -1.266662E+05 -7.734512E+04 -4.499370E-10 -2.007045E-11
       295  13  3.654504E+05  8.596915E+04  1.007918E+05 -6.630884E+04 -2.269322E-11 -1.021513E-10
       295  14  3.548500E+05  5.722081E+03  4.684336E+04 -5.172766E+04 -2.678463E-10  1.388280E-10
       295  15  3.655152E+05 -3.031594E+03  2.681843E+04 -6.627160E+04 -5.113869E-10 -1.345320E-10
       295  16  1.288501E+06  3.145880E+05  3.220818E+05 -1.118069E+05  1.605237E-10  2.790954E-10
       295  17  1.184920E+06  2.071487E+05  2.247333E+05 -6.893192E+04  1.361952E-10 -6.201130E-11
       295  18  1.107328E+06  1.759002E+05  1.802733E+05 -5.518462E+04  8.740691E-11 -5.135546E-11
       295  19 -5.568156E+05 -1.427034E+05 -1.205559E+05 -2.087844E+04 -2.480799E+04 -1.258112E+04
       295  20 -4.745706E+05 -1.957465E+05 -1.310821E+05 -3.454583E+04 -2.754879E+04 -4.009747E+04
       295  21 -3.757745E+05 -1.819955E+05 -1.266609E+05 -7.734406E+04 -3.030705E+04 -4.336604E+04
       295  22  3.654556E+05  8.597061E+04  1.008012E+05 -6.630814E+04 -6.956053E+04 -1.260542E+04
       295  23  3.548526E+05  5.724350E+03  4.685017E+04 -5.172621E+04 -4.494303E+04 -4.009963E+04
       295  24  3.655161E+05 -3.029463E+03  2.682274E+04 -6.627089E+04 -2.034414E+04 -4.336094E+04
       295  25  1.288515E+06  3.145917E+05  3.221066E+05 -1.118057E+05 -1.143793E+05 -1.262315E+04
       295  26  1.184924E+06  2.071515E+05  2.247436E+05 -6.892991E+04 -6.236016E+04 -4.010083E+04
       295  27  1.107328E+06  1.759023E+05  1.802770E+05 -5.518426E+04 -1.036952E+04 -4.335548E+04
       296   1 -3.130544E+05 -1.593635E+05 -1.190269E+05 -6.539843E+04  2.053099E+04  3.881755E+04
       296   2 -2.237404E+05 -1.409188E+05 -1.089448E+05 -5.117129E+04  1.617372E+04  3.476516E+04
       296   3 -1.330056E+05 -1.194235E+05 -9.524200E+04 -6.718692E+04  1.181270E+04  2.946969E+04
       296   4  3.611753E+05  3.492664E+03  2.102275E+04 -6.652732E+04  1.667495E+04  3.881405E+04
       296   5  3.603655E+05 -6.217288E+00  1.154102E+04 -5.140711E+04  1.091007E+04  3.476311E+04
       296   6  3.612095E+05 -2.121888E+02  6.653670E+03 -6.652779E+04  5.142051E+03  2.946965E+04
       296   7  1.035836E+06  1.663200E+05  1.610476E+05 -6.765743E+04  1.281478E+04  3.881057E+04
       296   8  9.447950E+05  1.408848E+05  1.320086E+05 -5.164313E+04  5.641559E+03  3.476106E+04
       296   9  8.556564E+05  1.189837E+05  1.085363E+05 -6.586810E+04 -1.533815E+03  2.946959E+04
       296  10 -3.130553E+05 -1.593653E+05 -1.190306E+05 -6.539908E+04 -3.979398E-10 -1.314448E-10
       296  11 -2.237410E+05 -1.409202E+05 -1.089476E+05 -5.117174E+04 -4.081129E-10 -1.560241E-10
       296  12 -1.330060E+05 -1.194245E+05 -9.524389E+04 -6.718720E+04  2.436701E-10 -2.811266E-11
       296  13  3.611746E+05  3.490971E+03  2.101940E+04 -6.652784E+04 -8.151350E-11 -1.521728E-10
       296  14  3.603651E+05 -7.547162E+00  1.153853E+04 -5.140741E+04 -4.072757E-10 -2.030136E-10
       296  15  3.612093E+05 -2.131287E+02  6.651988E+03 -6.652791E+04 -5.879769E-10 -5.475386E-11
       296  16  1.035835E+06  1.663183E+05  1.610445E+05 -6.765783E+04  1.621425E-10 -1.211365E-10
       296  17  9.447946E+05  1.408835E+05  1.320063E+05 -5.164329E+04  5.747132E-10  3.950913E-11
       296  18  8.556562E+05  1.189828E+05  1.085347E+05 -6.586806E+04  1.333360E-10 -6.750984E-11
       296  19 -3.130544E+05 -1.593635E+05 -1.190269E+05 -6.539843E+04 -2.053099E+04 -3.881755E+04
       296  20 -2.237404E+05 -1.409188E+05 -1.089448E+05 -5.117129E+04 -1.617372E+04 -3.476516E+04
       296  21 -1.330056E+05 -1.194235E+05 -9.524200E+04 -6.718692E+04 -1.181270E+04 -2.946969E+04
       296  22  3.611753E+05  3.492664E+03  2.102275E+04 -6.652732E+04 -1.667495E+04 -3.881405E+04
       296  23  3.603655E+05 -6.217288E+00  1.154102E+04 -5.140711E+04 -1.091007E+04 -3.476311E+04
       296  24  3.612095E+05 -2.121888E+02  6.653670E+03 -6.652779E+04 -5.142051E+03 -2.946965E+04
       296  25  1.035836E+06  1.663200E+05  1.610476E+05 -6.765743E+04 -1.281478E+04 -3.881057E+04
       296  26  9.447950E+05  1.408848E+05  1.320086E+05 -5.164313E+04 -5.641559E+03 -3.476106E+04
       296  27  8.556564E+05  1.189837E+05  1.085363E+05 -6.586810E+04  1.533815E+03 -2.946959E+04
       297   1 -6.710159E+04 -1.030760E+05 -8.276031E+04 -6.660389E+04  1.045797E+04  2.605834E+04
       297   2  2.263561E+04 -8.156406E+04 -6.661018E+04 -5.144319E+04  9.075716E+03  2.039367E+04
       297   3  1.126062E+05 -5.988477E+04 -4.951759E+04 -6.652472E+04  7.691219E+03  1.466756E+04
       297   4  3.609077E+05  8.266229E+01  5.086572E+03 -6.652780E+04  4.104681E+03  2.605908E+04
       297   5  3.607985E+05 -3.632152E+01  2.933838E+03 -5.140723E+04  2.651786E+03  2.039548E+04
       297   6  3.609269E+05  2.457818E+01  1.772091E+03 -6.652789E+04  1.196841E+03  1.467049E+04
       297   7  7.890910E+05  1.032298E+05  9.292383E+04 -6.645164E+04 -2.252910E+03  2.605982E+04
       297   8  6.990699E+05  8.148423E+04  7.247188E+04 -5.137122E+04 -3.775581E+03  2.039729E+04
       297   9  6.093061E+05  5.993005E+04  5.305860E+04 -6.653104E+04 -5.300090E+03  1.467341E+04
       297  10 -6.710189E+04 -1.030767E+05 -8.276179E+04 -6.660410E+04  2.385008E-11 -1.630121E-10
       297  11  2.263541E+04 -8.156453E+04 -6.661111E+04 -5.144334E+04 -1.722162E-11 -3.944639E-11
       297  12  1.126061E+05 -5.988502E+04 -4.951811E+04 -6.652481E+04 -9.910710E-11 -2.368308E-10
       297  13  3.609075E+05  8.192843E+01  5.085264E+03 -6.652789E+04  2.861052E-10 -1.512243E-10
       297  14  3.607984E+05 -3.677017E+01  2.933043E+03 -5.140727E+04 -1.519553E-10  2.731109E-10
       297  15  3.609268E+05  2.434665E+01  1.771683E+03 -6.652790E+04 -1.498188E-10  2.733809E-10
       297  16  7.890908E+05  1.032291E+05  9.292255E+04 -6.645159E+04 -3.226326E-10 -1.358660E-10
       297  17  6.990698E+05  8.148378E+04  7.247107E+04 -5.137116E+04 -2.270772E-10 -1.797245E-10
       297  18  6.093060E+05  5.992981E+04  5.305814E+04 -6.653098E+04  6.539106E-11 -1.114717E-10
       297  19 -6.710159E+04 -1.030760E+05 -8.276031E+04 -6.660389E+04 -1.045797E+04 -2.605834E+04
       297  20  2.263561E+04 -8.156406E+04 -6.661018E+04 -5.144319E+04 -9.075716E+03 -2.039367E+04
       297  21  1.126062E+05 -5.988477E+04 -4.951759E+04 -6.652472E+04 -7.691219E+03 -1.466756E+04
       297  22  3.609077E+05  8.266229E+01  5.086572E+03 -6.652780E+04 -4.104681E+03 -2.605908E+04
       297  23  3.607985E+05 -3.632152E+01  2.933838E+03 -5.140723E+04 -2.651786E+03 -2.039548E+04
       297  24  3.609269E+05  2.457818E+01  1.772091E+03 -6.652789E+04 -1.196841E+03 -1.467049E+04
       297  25  7.890910E+05  1.032298E+05  9.292383E+04 -6.645164E+04  2.252910E+03 -2.605982E+04
       297  26  6.990699E+05  8.148423E+04  7.247188E+04 -5.137122E+04  3.775581E+03 -2.039729E+04
       297  27  6.093061E+05  5.993005E+04  5.305860E+04 -6.653104E+04  5.300090E+03 -1.467341E+04
       298   1  1.786577E+05 -4.384161E+04 -3.581643E+04 -6.650945E+04  7.383576E+03  1.131934E+04
       298   2  2.684194E+05 -2.225489E+04 -1.800806E+04 -5.140279E+04  6.891237E+03  5.577849E+03
       298   3  3.582285E+05 -6.320381E+02  1.207824E+02 -6.651242E+04  6.398276E+03 -1.660595E+02
       298   4  3.608893E+05  3.966420E+01  1.412222E+03 -6.652227E+04  9.067352E+02  1.132267E+04
       298   5  3.608712E+05  3.013938E+01  9.975971E+02 -5.141426E+04  4.111645E+02  5.581460E+03
       298   6  3.608945E+05  5.804833E+01  9.060797E+02 -6.652227E+04 -8.495907E+01 -1.621412E+02
       298   7  5.431526E+05  4.391888E+04  3.863928E+04 -6.653509E+04 -5.571971E+03  1.132600E+04
       298   8  4.533312E+05  2.231465E+04  2.000296E+04 -5.142573E+04 -6.069855E+03  5.585071E+03
       298   9  3.635607E+05  7.481567E+02  1.691534E+03 -6.653212E+04 -6.568223E+03 -1.582226E+02
       298  10  1.786576E+05 -4.384176E+04 -3.581678E+04 -6.650951E+04 -1.374712E-10 -4.001145E-11
       298  11  2.684193E+05 -2.225493E+04 -1.800821E+04 -5.140282E+04  2.061504E-10  4.310011E-11
       298  12  3.582284E+05 -6.320491E+02  1.207054E+02 -6.651242E+04 -6.148362E-11 -1.443844E-11
       298  13  3.608893E+05  3.952629E+01  1.411979E+03 -6.652228E+04 -4.398244E-10 -4.299653E-10
       298  14  3.608712E+05  3.010587E+01  9.975382E+02 -5.141426E+04 -7.053788E-11  1.371851E-10
       298  15  3.608945E+05  5.804830E+01  9.060796E+02 -6.652227E+04  6.323833E-10 -1.159655E-10
       298  16  5.431526E+05  4.391874E+04  3.863898E+04 -6.653504E+04  7.119753E-11  5.442958E-11
       298  17  4.533311E+05  2.231461E+04  2.000283E+04 -5.142570E+04 -5.456031E-10  6.560112E-12
       298  18  3.635606E+05  7.481451E+02  1.691453E+03 -6.653212E+04 -8.069967E-13 -2.565778E-10
       298  19  1.786577E+05 -4.384161E+04 -3.581643E+04 -6.650945E+04 -7.383576E+03 -1.131934E+04
       298  20  2.684194E+05 -2.225489E+04 -1.800806E+04 -5.140279E+04 -6.891237E+03 -5.577849E+03
       298  21  3.582285E+05 -6.320381E+02  1.207824E+02 -6.651242E+04 -6.398276E+03  1.660595E+02
       298  22  3.608893E+05  3.966420E+01  1.412222E+03 -6.652227E+04 -9.067352E+02 -1.132267E+04
       298  23  3.608712E+05  3.013938E+01  9.975971E+02 -5.141426E+04 -4.111645E+02 -5.581460E+03
       298  24  3.608945E+05  5.804833E+01  9.060797E+02 -6.652227E+04  8.495907E+01  1.621412E+02
       298  25  5.431526E+05  4.391888E+04  3.863928E+04 -6.653509E+04  5.571971E+03 -1.132600E+04
       298  26  4.533312E+05  2.231465E+04  2.000296E+04 -5.142573E+04  6.069855E+03 -5.585071E+03
       298  27  3.635607E+05  7.481567E+02  1.691534E+03 -6.653212E+04  6.568223E+03  1.582226E+02
       299   1  4.243120E+05  1.538865E+04  1.423619E+04 -6.653704E+04  6.226651E+03 -3.509755E+03
       299   2  5.140844E+05  3.694630E+04  3.280620E+04 -5.141502E+04  5.572817E+03 -9.253210E+03
       299   3  6.039341E+05  5.854590E+04  5.180440E+04 -6.651202E+04  4.919809E+03 -1.499457E+04
       299   4  3.608995E+05  5.752014E+01  9.647880E+02 -6.652304E+04 -2.572323E+02 -3.505894E+03
       299   5  3.608613E+05  1.827073E+01  1.312591E+03 -5.141330E+04 -9.090401E+02 -9.249850E+03
       299   6  3.608909E+05  2.072266E+01  2.086998E+03 -6.652303E+04 -1.559930E+03 -1.499168E+04
       299   7  2.974910E+05 -1.527384E+04 -1.230668E+04 -6.650904E+04 -6.740464E+03 -3.502034E+03
       299   8  2.076605E+05 -3.691121E+04 -3.018212E+04 -5.141157E+04 -7.389327E+03 -9.246489E+03
       299   9  1.179039E+05 -5.850813E+04 -4.763337E+04 -6.653403E+04 -8.037181E+03 -1.498879E+04
       299  10  4.243119E+05  1.538863E+04  1.423609E+04 -6.653703E+04  5.144704E-10  3.411212E-10
       299  11  5.140843E+05  3.694620E+04  3.280599E+04 -5.141498E+04 -1.969166E-10  7.078145E-10
       299  12  6.039340E+05  5.854565E+04  5.180393E+04 -6.651196E+04  5.007304E-10 -1.986000E-10
       299  13  3.608995E+05  5.750692E+01  9.647648E+02 -6.652304E+04  2.987678E-10  8.230638E-11
       299  14  3.608613E+05  1.817861E+01  1.312429E+03 -5.141330E+04 -3.215307E-10 -3.532849E-10
       299  15  3.608908E+05  2.048062E+01  2.086571E+03 -6.652305E+04  6.988891E-11  1.656087E-10
       299  16  2.974909E+05 -1.527387E+04 -1.230678E+04 -6.650906E+04  2.158738E-10  9.056779E-11
       299  17  2.076604E+05 -3.691132E+04 -3.018239E+04 -5.141163E+04  4.698801E-10 -2.772323E-10
       299  18  1.179037E+05 -5.850839E+04 -4.763392E+04 -6.653413E+04 -7.643445E-10  1.372258E-10
       299  19  4.243120E+05  1.538865E+04  1.423619E+04 -6.653704E+04 -6.226651E+03  3.509755E+03
       299  20  5.140844E+05  3.694630E+04  3.280620E+04 -5.141502E+04 -5.572817E+03  9.253210E+03
       299  21  6.039341E+05  5.854590E+04  5.180440E+04 -6.651202E+04 -4.919809E+03  1.499457E+04
       299  22  3.608995E+05  5.752014E+01  9.647880E+02 -6.652304E+04  2.572323E+02  3.505894E+03
       299  23  3.608613E+05  1.827073E+01  1.312591E+03 -5.141330E+04  9.090401E+02  9.249850E+03
       299  24  3.608909E+05  2.072266E+01  2.086998E+03 -6.652303E+04  1.559930E+03  1.499168E+04
       299  25  2.974910E+05 -1.527384E+04 -1.230668E+04 -6.650904E+04  6.740464E+03  3.502034E+03
       299  26  2.076605E+05 -3.691121E+04 -3.018212E+04 -5.141157E+04  7.389327E+03  9.246489E+03
       299  27  1.179039E+05 -5.850813E+04 -4.763337E+04 -6.653403E+04  8.037181E+03  1.498879E+04
       300   1  6.701329E+05  7.455361E+04  6.647632E+04 -6.648556E+04  4.505065E+03 -1.834288E+04
       300   2  7.598620E+05  9.609790E+04  8.663418E+04 -5.128498E+04  2.154115E+03 -2.406681E+04
       300   3  8.499937E+05  1.179250E+05  1.083946E+05 -6.633588E+04 -1.947567E+02 -2.972584E+04
       300   4  3.609530E+05 -1.647560E+00  2.696227E+03 -6.653043E+04 -1.994381E+03 -1.834052E+04
       300   5  3.607505E+05 -8.061233E+01  4.594593E+03 -5.140403E+04 -4.271156E+03 -2.406574E+04
       300   6  3.609303E+05  1.110491E+02  8.045062E+03 -6.653029E+04 -6.545523E+03 -2.972603E+04
       300   7  5.186380E+04 -7.456292E+04 -6.108887E+04 -6.657526E+04 -8.490649E+03 -1.833815E+04
       300   8 -3.820999E+04 -9.626913E+04 -7.745337E+04 -5.152297E+04 -1.069237E+04 -2.406468E+04
       300   9 -1.279062E+05 -1.177179E+05 -9.231712E+04 -6.672452E+04 -1.289138E+04 -2.972622E+04
       300  10  6.701328E+05  7.455324E+04  6.647565E+04 -6.648550E+04  1.443826E-10 -2.482135E-10
       300  11  7.598619E+05  9.609728E+04  8.663309E+04 -5.128494E+04 -3.743365E-10  8.656166E-11
       300  12  8.499934E+05  1.179241E+05  1.083930E+05 -6.633589E+04 -7.049275E-10  1.746777E-10
       300  13  3.609529E+05 -2.009901E+00  2.695587E+03 -6.653046E+04  4.693414E-10  2.189885E-10
       300  14  3.607503E+05 -8.123925E+01  4.593470E+03 -5.140411E+04 -9.405572E-10 -1.329646E-10
       300  15  3.609300E+05  1.100886E+02  8.043320E+03 -6.653045E+04  1.722035E-10 -2.520163E-11
       300  16  5.186364E+04 -7.456330E+04 -6.108963E+04 -6.657538E+04  5.794541E-10  1.986406E-10
       300  17 -3.821027E+04 -9.626978E+04 -7.745467E+04 -5.152318E+04  5.113396E-10  3.722840E-10
       300  18 -1.279066E+05 -1.177189E+05 -9.231910E+04 -6.672483E+04  3.355736E-10 -1.460593E-11
       300  19  6.701329E+05  7.455361E+04  6.647632E+04 -6.648556E+04 -4.505065E+03  1.834288E+04
       300  20  7.598620E+05  9.609790E+04  8.663418E+04 -5.128498E+04 -2.154115E+03  2.406681E+04
       300  21  8.499937E+05  1.179250E+05  1.083946E+05 -6.633588E+04  1.947567E+02  2.972584E+04
       300  22  3.609530E+05 -1.647560E+00  2.696227E+03 -6.653043E+04  1.994381E+03  1.834052E+04
       300  23  3.607505E+05 -8.061233E+01  4.594593E+03 -5.140403E+04  4.271156E+03  2.406574E+04
       300  24  3.609303E+05  1.110491E+02  8.045062E+03 -6.653029E+04  6.545523E+03  2.972603E+04
       300  25  5.186380E+04 -7.456292E+04 -6.108887E+04 -6.657526E+04  8.490649E+03  1.833815E+04
       300  26 -3.820999E+04 -9.626913E+04 -7.745337E+04 -5.152297E+04  1.069237E+04  2.406468E+04
       300  27 -1.279062E+05 -1.177179E+05 -9.231712E+04 -6.672452E+04  1.289138E+04  2.972622E+04
       301   1  9.167762E+05  1.335177E+05  1.249435E+05 -6.540244E+04 -1.497761E+03 -3.314116E+04
       301   2  1.005494E+06  1.555840E+05  1.513464E+05 -5.171493E+04 -1.215785E+04 -3.840692E+04
       301   3  1.097077E+06  1.831271E+05  1.860737E+05 -6.828274E+04 -2.281614E+04 -4.235214E+04
       301   4  3.614091E+05 -3.530003E+02  1.054385E+04 -6.653122E+04 -8.186982E+03 -3.314229E+04
       301   5  3.600885E+05  1.873735E+00  1.833007E+04 -5.140261E+04 -1.734714E+04 -3.841009E+04
       301   6  3.613706E+05  5.578029E+03  3.340659E+04 -6.653108E+04 -2.650401E+04 -4.235673E+04
       301   7 -1.936657E+05 -1.342431E+05 -1.038722E+05 -6.765893E+04 -1.487033E+04 -3.314340E+04
       301   8 -2.849220E+05 -1.556065E+05 -1.147086E+05 -5.109061E+04 -2.253113E+04 -3.841327E+04
       301   9 -3.738234E+05 -1.720053E+05 -1.192900E+05 -6.478152E+04 -3.018756E+04 -4.236133E+04
       301  10  9.167759E+05  1.335165E+05  1.249415E+05 -6.540248E+04 -7.253495E-11  1.718396E-10
       301  11  1.005493E+06  1.555823E+05  1.513433E+05 -5.171530E+04  2.241259E-10 -1.200802E-10
       301  12  1.097075E+06  1.831250E+05  1.860693E+05 -6.828352E+04  5.050083E-11 -3.247337E-10
       301  13  3.614087E+05 -3.541980E+02  1.054166E+04 -6.653143E+04 -2.734947E-10  5.594663E-11
       301  14  3.600878E+05  2.084326E-01  1.832673E+04 -5.140315E+04  1.053737E-10 -3.479720E-10
       301  15  3.613693E+05  5.575914E+03  3.340190E+04 -6.653198E+04 -5.174108E-10 -2.518142E-10
       301  16 -1.936662E+05 -1.342444E+05 -1.038747E+05 -6.765933E+04  2.805685E-10 -1.089485E-10
       301  17 -2.849230E+05 -1.556082E+05 -1.147123E+05 -5.109131E+04  1.020725E-10 -3.044071E-10
       301  18 -3.738248E+05 -1.720075E+05 -1.192951E+05 -6.478255E+04  8.352462E-11 -1.832624E-10
       301  19  9.167762E+05  1.335177E+05  1.249435E+05 -6.540244E+04  1.497761E+03  3.314116E+04
       301  20  1.005494E+06  1.555840E+05  1.513464E+05 -5.171493E+04  1.215785E+04  3.840692E+04
       301  21  1.097077E+06  1.831271E+05  1.860737E+05 -6.828274E+04  2.281614E+04  4.235214E+04
       301  22  3.614091E+05 -3.530003E+02  1.054385E+04 -6.653122E+04  8.186982E+03  3.314229E+04
       301  23  3.600885E+05  1.873735E+00  1.833007E+04 -5.140261E+04  1.734714E+04  3.841009E+04
       301  24  3.613706E+05  5.578029E+03  3.340659E+04 -6.653108E+04  2.650401E+04  4.235673E+04
       301  25 -1.936657E+05 -1.342431E+05 -1.038722E+05 -6.765893E+04  1.487033E+04  3.314340E+04
       301  26 -2.849220E+05 -1.556065E+05 -1.147086E+05 -5.109061E+04  2.253113E+04  3.841327E+04
       301  27 -3.738234E+05 -1.720053E+05 -1.192900E+05 -6.478152E+04  3.018756E+04  4.236133E+04
       302   1  1.171214E+06  1.888962E+05  2.086879E+05 -4.861483E+04 -2.214281E+04 -4.697633E+04
       302   2  1.242558E+06  2.253836E+05  2.653908E+05 -7.912033E+04 -9.040630E+04 -4.316256E+04
       302   3  1.352629E+06  3.804294E+05  3.961701E+05 -1.387407E+05 -1.587076E+05 -1.357793E+04
       302   4  3.682660E+05 -4.776654E+03  4.262627E+04 -6.625673E+04 -3.233386E+04 -4.698342E+04
       302   5  3.513739E+05  9.166264E+03  7.447842E+04 -5.174285E+04 -7.144017E+04 -4.316082E+04
       302   6  3.681940E+05  1.366956E+05  1.602291E+05 -6.633672E+04 -1.105709E+05 -1.356055E+04
       302   7 -4.340711E+05 -1.984891E+05 -1.234697E+05 -8.387548E+04 -4.251195E+04 -4.698994E+04
       302   8 -5.390615E+05 -2.070999E+05 -1.164784E+05 -2.440524E+04 -5.250078E+04 -4.315743E+04
       302   9 -6.153389E+05 -1.070875E+05 -7.576888E+04  5.952109E+03 -6.250998E+04 -1.353197E+04
       302  10  1.171213E+06  1.888937E+05  2.086828E+05 -4.861566E+04  4.405060E-13 -8.185631E-11
       302  11  1.242548E+06  2.253794E+05  2.653720E+05 -7.912347E+04 -4.806558E-10  2.738832E-11
       302  12  1.352602E+06  3.804224E+05  3.961225E+05 -1.387425E+05  4.816780E-10 -1.675792E-10
       302  13  3.682643E+05 -4.779305E+03  4.262015E+04 -6.625796E+04  1.270576E-10  2.853484E-10
       302  14  3.513680E+05  9.162894E+03  7.446533E+04 -5.174533E+04 -1.353187E-10  1.042896E-09
       302  15  3.681808E+05  1.366921E+05  1.602058E+05 -6.633792E+04 -4.645615E-10 -6.247164E-11
       302  16 -4.340736E+05 -1.984920E+05 -1.234773E+05 -8.387709E+04 -3.523607E-10  1.405985E-10
       302  17 -5.390649E+05 -2.071027E+05 -1.164871E+05 -2.440707E+04  1.298878E-10  2.554933E-10
       302  18 -6.153432E+05 -1.070887E+05 -7.577658E+04  5.951428E+03  7.092588E-11 -2.645189E-10
       302  19  1.171214E+06  1.888962E+05  2.086879E+05 -4.861483E+04  2.214281E+04  4.697633E+04
       302  20  1.242558E+06  2.253836E+05  2.653908E+05 -7.912033E+04  9.040630E+04  4.316256E+04
       302  21  1.352629E+06  3.804294E+05  3.961701E+05 -1.387407E+05  1.587076E+05  1.357793E+04
       302  22  3.682660E+05 -4.776654E+03  4.262627E+04 -6.625673E+04  3.233386E+04  4.698342E+04
       302  23  3.513739E+05  9.166264E+03  7.447842E+04 -5.174285E+04  7.144017E+04  4.316082E+04
       302  24  3.681940E+05  1.366956E+05  1.602291E+05 -6.633672E+04  1.105709E+05  1.356055E+04
       302  25 -4.340711E+05 -1.984891E+05 -1.234697E+05 -8.387548E+04  4.251195E+04  4.698994E+04
       302  26 -5.390615E+05 -2.070999E+05 -1.164784E+05 -2.440524E+04  5.250078E+04  4.315743E+04
       302  27 -6.153389E+05 -1.070875E+05 -7.576888E+04  5.952109E+03  6.250998E+04  1.353197E+04
       303   1  2.429903E+05  9.492177E+05  2.478221E+05 -2.180297E+05  7.698073E+03  7.296925E+04
       303   2  1.237326E+05  6.869294E+05  1.386233E+05 -1.569433E+05  2.081422E+04  3.255216E+04
       303   3  5.643875E+04  4.427944E+05  6.866699E+04 -1.798361E+05  1.273626E+04 -7.868458E+03
       303   4  5.773067E+04  2.034279E+05  6.720504E+04 -1.868201E+05  7.733116E+03  4.621813E+04
       303   5  4.212477E+03  1.964863E+05  3.138711E+04 -1.448660E+05  2.081954E+04  2.975301E+04
       303   6 -1.466863E+03  2.035097E+05  1.821797E+04 -1.868876E+05  1.270676E+04  1.326776E+04
       303   7 -1.275657E+05 -5.418508E+05 -1.134489E+05 -1.556478E+05  7.765500E+03  1.949898E+04
       303   8 -1.153231E+05 -2.937315E+05 -7.586349E+04 -1.327983E+05  2.082475E+04  2.695605E+04
       303   9 -5.937573E+04 -3.572000E+04 -3.223258E+04 -1.939363E+05  1.267677E+04  3.439596E+04
       303  10  2.429888E+05  9.492120E+05  2.478120E+05 -2.180302E+05  3.804168E-11  3.228036E-10
       303  11  1.237318E+05  6.869281E+05  1.386205E+05 -1.569438E+05 -3.148692E-10  1.260025E-10
       303  12  5.643856E+04  4.427943E+05  6.866657E+04 -1.798360E+05  3.677055E-10  3.173446E-10
       303  13  5.773004E+04  2.034256E+05  6.720091E+04 -1.868204E+05  3.845316E-10  1.559209E-10
       303  14  4.211774E+03  1.964852E+05  3.138463E+04 -1.448665E+05 -9.023430E-10  7.237436E-11
       303  15 -1.467084E+03  2.035094E+05  1.821733E+04 -1.868878E+05  5.960601E-12 -5.681768E-10
       303  16 -1.275659E+05 -5.418512E+05 -1.134497E+05 -1.556480E+05  3.147391E-10 -3.087967E-10
       303  17 -1.153238E+05 -2.937324E+05 -7.586567E+04 -1.327987E+05  1.658866E-10  5.367148E-10
       303  18 -5.937622E+04 -3.572132E+04 -3.223510E+04 -1.939367E+05 -2.256852E-10 -9.941295E-11
       303  19  2.429903E+05  9.492177E+05  2.478221E+05 -2.180297E+05 -7.698073E+03 -7.296925E+04
       303  20  1.237326E+05  6.869294E+05  1.386233E+05 -1.569433E+05 -2.081422E+04 -3.255216E+04
       303  21  5.643875E+04  4.427944E+05  6.866699E+04 -1.798361E+05 -1.273626E+04  7.868458E+03
       303  22  5.773067E+04  2.034279E+05  6.720504E+04 -1.868201E+05 -7.733116E+03 -4.621813E+04
       303  23  4.212477E+03  1.964863E+05  3.138711E+04 -1.448660E+05 -2.081954E+04 -2.975301E+04
       303  24 -1.466863E+03  2.035097E+05  1.821797E+04 -1.868876E+05 -1.270676E+04 -1.326776E+04
       303  25 -1.275657E+05 -5.418508E+05 -1.134489E+05 -1.556478E+05 -7.765500E+03 -1.949898E+04
       303  26 -1.153231E+05 -2.937315E+05 -7.586349E+04 -1.327983E+05 -2.082475E+04 -2.695605E+04
       303  27 -5.937573E+04 -3.572000E+04 -3.223258E+04 -1.939363E+05 -1.267677E+04 -3.439596E+04
       304   1  1.562524E+04  2.529927E+05  2.595338E+04 -1.879825E+05  2.189723E+03 -5.446222E+03
       304   2 -4.799501E+04 -4.352047E+02 -3.289556E+04 -1.445390E+05 -1.188486E+04 -9.121037E+03
       304   3 -1.090947E+05 -2.529039E+05 -8.878349E+04 -1.860867E+05 -2.543633E+04 -1.279078E+04
       304   4  2.857834E+03  2.006396E+05  1.447051E+04 -1.870975E+05  2.166409E+03  1.073409E+04
       304   5  3.918244E+02  2.001231E+05  8.501475E+03 -1.446044E+05 -1.190565E+04  6.466697E+03
       304   6  5.530331E+02  2.006087E+05  5.907629E+03 -1.871005E+05 -2.545487E+04  2.202942E+03
       304   7 -9.909611E+03  1.482896E+05  2.988450E+03 -1.862124E+05  2.143139E+03  2.691305E+04
       304   8  4.877625E+04  4.007200E+05  4.989725E+04 -1.446698E+05 -1.192644E+04  2.205938E+04
       304   9  1.101877E+05  6.543164E+05  1.005882E+05 -1.881150E+05 -2.547345E+04  1.720744E+04
       304  10  1.562523E+04  2.529927E+05  2.595331E+04 -1.879825E+05 -2.238984E-10 -2.900602E-10
       304  11 -4.799519E+04 -4.353320E+02 -3.289598E+04 -1.445391E+05  2.082319E-10 -2.607348E-10
       304  12 -1.090954E+05 -2.529042E+05 -8.878501E+04 -1.860870E+05 -5.012996E-10  1.973536E-10
       304  13  2.857798E+03  2.006395E+05  1.447028E+04 -1.870975E+05  7.341062E-11  2.611819E-10
       304  14  3.916609E+02  2.001230E+05  8.501130E+03 -1.446043E+05  5.661635E-10 -5.349780E-11
       304  15  5.523360E+02  2.006085E+05  5.906403E+03 -1.871005E+05  6.043787E-10 -6.430907E-10
       304  16 -9.909810E+03  1.482889E+05  2.987080E+03 -1.862125E+05  8.363432E-11  2.496180E-10
       304  17  4.877597E+04  4.007194E+05  4.989607E+04 -1.446695E+05 -8.428155E-10  8.416900E-10
       304  18  1.101869E+05  6.543159E+05  1.005864E+05 -1.881147E+05 -5.712463E-10  7.247146E-11
       304  19  1.562524E+04  2.529927E+05  2.595338E+04 -1.879825E+05 -2.189723E+03  5.446222E+03
       304  20 -4.799501E+04 -4.352047E+02 -3.289556E+04 -1.445390E+05  1.188486E+04  9.121037E+03
       304  21 -1.090947E+05 -2.529039E+05 -8.878349E+04 -1.860867E+05  2.543633E+04  1.279078E+04
       304  22  2.857834E+03  2.006396E+05  1.447051E+04 -1.870975E+05 -2.166409E+03 -1.073409E+04
       304  23  3.918244E+02  2.001231E+05  8.501475E+03 -1.446044E+05  1.190565E+04 -6.466697E+03
       304  24  5.530331E+02  2.006087E+05  5.907629E+03 -1.871005E+05  2.545487E+04 -2.202942E+03
       304  25 -9.909611E+03  1.482896E+05  2.988450E+03 -1.862124E+05 -2.143139E+03 -2.691305E+04
       304  26  4.877625E+04  4.007200E+05  4.989725E+04 -1.446698E+05  1.192644E+04 -2.205938E+04
       304  27  1.101877E+05  6.543164E+05  1.005882E+05 -1.881150E+05  2.547345E+04 -1.720744E+04
       305   1 -1.546575E+05 -4.398686E+05 -1.281274E+05 -1.869788E+05 -3.644862E+04 -2.140454E+04
       305   2 -2.162095E+05 -6.910183E+05 -1.875761E+05 -1.428907E+05 -4.085528E+04  1.136283E+04
       305   3 -2.777562E+05 -9.463271E+05 -2.683673E+05 -1.822968E+05 -1.381353E+04  4.413353E+04
       305   4  1.700399E+02  2.007731E+05  5.270812E+03 -1.867673E+05 -3.647396E+04  1.242773E+03
       305   5  5.542916E+02  1.997360E+05  5.187327E+03 -1.450211E+05 -4.083851E+04 -1.431638E+03
       305   6  7.101490E+03  2.006341E+05  8.385022E+03 -1.867613E+05 -1.377525E+04 -4.088549E+03
       305   7  1.549717E+05  8.418045E+05  1.386484E+05 -1.865555E+05 -3.649927E+04  2.391307E+04
       305   8  2.172658E+05  1.091236E+06  1.979043E+05 -1.471543E+05 -4.082168E+04 -1.424423E+04
       305   9  2.918644E+05  1.348804E+06  2.850520E+05 -1.912337E+05 -1.373632E+04 -5.239950E+04
       305  10 -1.546590E+05 -4.398695E+05 -1.281308E+05 -1.869794E+05  9.057933E-11  2.609019E-10
       305  11 -2.162114E+05 -6.910189E+05 -1.875795E+05 -1.428903E+05  2.780030E-11  8.357362E-11
       305  12 -2.777569E+05 -9.463293E+05 -2.683713E+05 -1.822963E+05 -3.554047E-11  1.452325E-10
       305  13  1.686108E+02  2.007727E+05  5.268309E+03 -1.867673E+05 -8.096500E-10  2.400341E-10
       305  14  5.525000E+02  1.997356E+05  5.184189E+03 -1.450211E+05  4.264263E-10 -6.741332E-11
       305  15  7.101282E+03  2.006341E+05  8.384634E+03 -1.867613E+05 -2.139866E-12 -2.620704E-10
       305  16  1.549701E+05  8.418035E+05  1.386449E+05 -1.865548E+05  2.258583E-10 -4.319767E-10
       305  17  2.172640E+05  1.091235E+06  1.979008E+05 -1.471548E+05  9.568488E-11  1.226571E-10
       305  18  2.918634E+05  1.348801E+06  2.850465E+05 -1.912343E+05 -3.877713E-10 -1.386380E-11
       305  19 -1.546575E+05 -4.398686E+05 -1.281274E+05 -1.869788E+05  3.644862E+04  2.140454E+04
       305  20 -2.162095E+05 -6.910183E+05 -1.875761E+05 -1.428907E+05  4.085528E+04 -1.136283E+04
       305  21 -2.777562E+05 -9.463271E+05 -2.683673E+05 -1.822968E+05  1.381353E+04 -4.413353E+04
       305  22  1.700399E+02  2.007731E+05  5.270812E+03 -1.867673E+05  3.647396E+04 -1.242773E+03
       305  23  5.542916E+02  1.997360E+05  5.187327E+03 -1.450211E+05  4.083851E+04  1.431638E+03
       305  24  7.101490E+03  2.006341E+05  8.385022E+03 -1.867613E+05  1.377525E+04  4.088549E+03
       305  25  1.549717E+05  8.418045E+05  1.386484E+05 -1.865555E+05  3.649927E+04 -2.391307E+04
       305  26  2.172658E+05  1.091236E+06  1.979043E+05 -1.471543E+05  4.082168E+04  1.424423E+04
       305  27  2.918644E+05  1.348804E+06  2.850520E+05 -1.912337E+05  1.373632E+04  5.239950E+04
       306   1 -1.283837E+06 -5.041503E+05 -3.039104E+05 -4.829147E+05 -1.394240E+05 -4.417785E+04
       306   2 -1.245670E+06 -3.218246E+05 -1.821780E+05 -4.718281E+05 -8.935363E+04 -7.354545E+03
       306   3 -1.251214E+06 -2.715037E+05 -1.355780E+05 -4.412122E+05 -3.408702E+04  1.566056E+04
       306   4 -8.517700E+05 -2.717128E+05 -1.762700E+05 -2.931263E+05 -1.155481E+05 -3.522518E+04
       306   5 -8.216625E+05 -1.386253E+05 -7.789562E+04 -3.286208E+05 -8.001669E+04 -3.852983E+03
       306   6 -8.323492E+05 -1.346150E+05 -4.308588E+04 -3.445965E+05 -3.929313E+04  1.370512E+04
       306   7 -4.195061E+05 -3.919575E+04 -4.864406E+04 -1.031982E+05 -9.165396E+04 -2.625888E+04
       306   8 -3.974739E+05  4.460545E+04  2.637335E+04 -1.853178E+05 -7.067283E+04 -3.478403E+02
       306   9 -4.133112E+05  2.277002E+03  4.939504E+04 -2.479258E+05 -4.450302E+04  1.174864E+04
       306  10 -1.283859E+06 -5.041577E+05 -3.039507E+05 -4.829196E+05 -6.070118E-10 -1.227957E-12
       306  11 -1.245679E+06 -3.218268E+05 -1.821931E+05 -4.718286E+05 -2.268932E-10  2.423162E-10
       306  12 -1.251215E+06 -2.715043E+05 -1.355807E+05 -4.412117E+05  1.957065E-10  5.810139E-11
       306  13 -8.517847E+05 -2.717178E+05 -1.762975E+05 -2.931296E+05  4.507878E-10 -7.252682E-11
       306  14 -8.216694E+05 -1.386271E+05 -7.790770E+04 -3.286210E+05  3.558045E-10 -1.507399E-10
       306  15 -8.323509E+05 -1.346156E+05 -4.308914E+04 -3.445960E+05  3.821265E-10 -1.681630E-10
       306  16 -4.195153E+05 -3.919875E+04 -4.866115E+04 -1.032002E+05 -1.370974E-10  3.248033E-10
       306  17 -3.974792E+05  4.460411E+04  2.636396E+04 -1.853179E+05  4.242485E-10  4.458029E-10
       306  18 -4.133134E+05  2.276322E+03  4.939106E+04 -2.479254E+05 -3.896705E-10 -8.859035E-11
       306  19 -1.283837E+06 -5.041503E+05 -3.039104E+05 -4.829147E+05  1.394240E+05  4.417785E+04
       306  20 -1.245670E+06 -3.218246E+05 -1.821780E+05 -4.718281E+05  8.935363E+04  7.354545E+03
       306  21 -1.251214E+06 -2.715037E+05 -1.355780E+05 -4.412122E+05  3.408702E+04 -1.566056E+04
       306  22 -8.517700E+05 -2.717128E+05 -1.762700E+05 -2.931263E+05  1.155481E+05  3.522518E+04
       306  23 -8.216625E+05 -1.386253E+05 -7.789562E+04 -3.286208E+05  8.001669E+04  3.852983E+03
       306  24 -8.323492E+05 -1.346150E+05 -4.308588E+04 -3.445965E+05  3.929313E+04 -1.370512E+04
       306  25 -4.195061E+05 -3.919575E+04 -4.864406E+04 -1.031982E+05  9.165396E+04  2.625888E+04
       306  26 -3.974739E+05  4.460545E+04  2.637335E+04 -1.853178E+05  7.067283E+04  3.478403E+02
       306  27 -4.133112E+05  2.277002E+03  4.939504E+04 -2.479258E+05  4.450302E+04 -1.174864E+04
       307   1 -1.201329E+06 -2.856811E+05 -1.198662E+05 -4.432042E+05 -3.168420E+04  1.383896E+04
       307   2 -1.166705E+06 -2.588813E+05 -9.441405E+04 -4.271482E+05 -2.145699E+04  1.573378E+04
       307   3 -1.125433E+06 -2.482363E+05 -7.770846E+04 -4.214928E+05 -1.097918E+04  1.696090E+04
       307   4 -8.267848E+05 -1.449471E+05 -3.368188E+04 -3.379290E+05 -3.313953E+04  1.329121E+04
       307   5 -8.297282E+05 -1.338011E+05 -1.760404E+04 -3.339031E+05 -2.361115E+04  1.492425E+04
       307   6 -8.258849E+05 -1.386687E+05 -9.714385E+03 -3.402782E+05 -1.383290E+04  1.588948E+04
       307   7 -4.520970E+05 -4.200630E+03  5.249365E+04 -2.325946E+05 -3.459581E+04  1.274309E+04
       307   8 -4.926359E+05 -8.711640E+03  5.919881E+04 -2.406113E+05 -2.576658E+04  1.411424E+04
       307   9 -5.262469E+05 -2.909472E+04  5.827389E+04 -2.590280E+05 -1.668812E+04  1.481750E+04
       307  10 -1.201331E+06 -2.856816E+05 -1.198684E+05 -4.432038E+05 -2.329824E-10 -3.217133E-10
       307  11 -1.166706E+06 -2.588817E+05 -9.441538E+04 -4.271480E+05  4.854302E-10  2.186216E-10
       307  12 -1.125433E+06 -2.482366E+05 -7.770923E+04 -4.214927E+05  5.946176E-10  1.523855E-10
       307  13 -8.267860E+05 -1.449476E+05 -3.368428E+04 -3.379287E+05  2.283200E-11 -1.081878E-10
       307  14 -8.297288E+05 -1.338015E+05 -1.760551E+04 -3.339028E+05 -5.023155E-10  1.887170E-10
       307  15 -8.258852E+05 -1.386690E+05 -9.715219E+03 -3.402781E+05 -1.936637E-10  7.344905E-11
       307  16 -4.520983E+05 -4.201126E+03  5.249110E+04 -2.325942E+05  1.162659E-10  3.478509E-11
       307  17 -4.926367E+05 -8.712032E+03  5.919719E+04 -2.406110E+05 -5.908620E-11  3.916161E-11
       307  18 -5.262473E+05 -2.909503E+04  5.827295E+04 -2.590278E+05 -3.348456E-10  4.955389E-11
       307  19 -1.201329E+06 -2.856811E+05 -1.198662E+05 -4.432042E+05  3.168420E+04 -1.383896E+04
       307  20 -1.166705E+06 -2.588813E+05 -9.441405E+04 -4.271482E+05  2.145699E+04 -1.573378E+04
       307  21 -1.125433E+06 -2.482363E+05 -7.770846E+04 -4.214928E+05  1.097918E+04 -1.696090E+04
       307  22 -8.267848E+05 -1.449471E+05 -3.368188E+04 -3.379290E+05  3.313953E+04 -1.329121E+04
       307  23 -8.297282E+05 -1.338011E+05 -1.760404E+04 -3.339031E+05  2.361115E+04 -1.492425E+04
       307  24 -8.258849E+05 -1.386687E+05 -9.714385E+03 -3.402782E+05  1.383290E+04 -1.588948E+04
       307  25 -4.520970E+05 -4.200630E+03  5.249365E+04 -2.325946E+05  3.459581E+04 -1.274309E+04
       307  26 -4.926359E+05 -8.711640E+03  5.919881E+04 -2.406113E+05  2.576658E+04 -1.411424E+04
       307  27 -5.262469E+05 -2.909472E+04  5.827389E+04 -2.590280E+05  1.668812E+04 -1.481750E+04
       308   1 -1.094759E+06 -2.384787E+05 -6.840827E+04 -4.138625E+05 -9.200021E+03  1.585669E+04
       308   2 -1.060607E+06 -2.187032E+05 -5.630528E+04 -3.973257E+05 -6.195382E+03  1.406322E+04
       308   3 -1.016621E+06 -2.094452E+05 -4.579804E+04 -3.924783E+05 -3.177323E+03  1.223205E+04
       308   4 -8.254406E+05 -1.391373E+05 -7.345402E+03 -3.399281E+05 -1.188167E+04  1.485012E+04
       308   5 -8.303411E+05 -1.337630E+05 -4.017779E+03 -3.341266E+05 -8.915896E+03  1.304248E+04
       308   6 -8.254008E+05 -1.388985E+05 -2.254545E+03 -3.400149E+05 -5.936825E+03  1.119711E+04
       308   7 -5.560505E+05 -3.979100E+04  5.371232E+04 -2.659647E+05 -1.456457E+04  1.384308E+04
       308   8 -6.000215E+05 -4.881891E+04  4.826628E+04 -2.709059E+05 -1.163751E+04  1.202134E+04
       308   9 -6.341429E+05 -6.834866E+04  4.128690E+04 -2.875363E+05 -8.697267E+03  1.016182E+04
       308  10 -1.094760E+06 -2.384790E+05 -6.840890E+04 -4.138624E+05  6.561598E-10  2.839775E-10
       308  11 -1.060607E+06 -2.187034E+05 -5.630572E+04 -3.973257E+05  9.146739E-10  1.769284E-10
       308  12 -1.016621E+06 -2.094454E+05 -4.579834E+04 -3.924783E+05  7.388759E-10  7.628393E-11
       308  13 -8.254408E+05 -1.391375E+05 -7.346082E+03 -3.399279E+05  4.673891E-10 -3.541205E-11
       308  14 -8.303412E+05 -1.337632E+05 -4.018248E+03 -3.341265E+05  4.838308E-10 -7.559413E-11
       308  15 -8.254009E+05 -1.388987E+05 -2.254847E+03 -3.400148E+05  2.314997E-10 -5.719327E-11
       308  16 -5.560508E+05 -3.979126E+04  5.371156E+04 -2.659646E+05 -3.413646E-10  2.958117E-11
       308  17 -6.000217E+05 -4.881910E+04  4.826576E+04 -2.709058E+05  2.626911E-10 -1.410609E-10
       308  18 -6.341430E+05 -6.834879E+04  4.128656E+04 -2.875362E+05 -3.753700E-10 -1.080815E-10
       308  19 -1.094759E+06 -2.384787E+05 -6.840827E+04 -4.138625E+05  9.200021E+03 -1.585669E+04
       308  20 -1.060607E+06 -2.187032E+05 -5.630528E+04 -3.973257E+05  6.195382E+03 -1.406322E+04
       308  21 -1.016621E+06 -2.094452E+05 -4.579804E+04 -3.924783E+05  3.177323E+03 -1.223205E+04
       308  22 -8.254406E+05 -1.391373E+05 -7.345402E+03 -3.399281E+05  1.188167E+04 -1.485012E+04
       308  23 -8.303411E+05 -1.337630E+05 -4.017779E+03 -3.341266E+05  8.915896E+03 -1.304248E+04
       308  24 -8.254008E+05 -1.388985E+05 -2.254545E+03 -3.400149E+05  5.936825E+03 -1.119711E+04
       308  25 -5.560505E+05 -3.979100E+04  5.371232E+04 -2.659647E+05  1.456457E+04 -1.384308E+04
       308  26 -6.000215E+05 -4.881891E+04  4.826628E+04 -2.709059E+05  1.163751E+04 -1.202134E+04
       308  27 -6.341429E+05 -6.834866E+04  4.128690E+04 -2.875363E+05  8.697267E+03 -1.016182E+04
       309   1 -9.868201E+05 -1.984885E+05 -3.826482E+04 -3.843560E+05 -2.280793E+03  1.083118E+04
       309   2 -9.526414E+05 -1.788960E+05 -2.880200E+04 -3.676969E+05 -7.727639E+02  8.414240E+03
       309   3 -9.082889E+05 -1.695698E+05 -1.973456E+04 -3.627951E+05  7.366230E+02  5.992431E+03
       309   4 -8.253349E+05 -1.389207E+05 -1.726121E+03 -3.400000E+05 -5.036344E+03  9.797917E+03
       309   5 -8.304195E+05 -1.337855E+05 -1.049863E+03 -3.341214E+05 -3.533300E+03  7.379327E+03
       309   6 -8.253308E+05 -1.389155E+05 -7.649046E+02 -3.400005E+05 -2.028940E+03  4.955866E+03
       309   7 -6.638234E+05 -7.935088E+04  3.481091E+04 -2.956335E+05 -7.792672E+03  8.764361E+03
       309   8 -7.081829E+05 -8.867408E+04  2.670122E+04 -3.005400E+05 -6.294418E+03  6.344196E+03
       309   9 -7.423663E+05 -1.082609E+05  1.820419E+04 -3.172032E+05 -4.794887E+03  3.919158E+03
       309  10 -9.868202E+05 -1.984886E+05 -3.826505E+04 -3.843560E+05  3.032191E-10 -1.774855E-10
       309  11 -9.526414E+05 -1.788961E+05 -2.880213E+04 -3.676969E+05 -7.600244E-11 -2.159717E-10
       309  12 -9.082889E+05 -1.695698E+05 -1.973463E+04 -3.627951E+05 -5.940759E-10  1.856415E-10
       309  13 -8.253349E+05 -1.389208E+05 -1.726349E+03 -3.400000E+05  5.745508E-10  6.584487E-11
       309  14 -8.304195E+05 -1.337856E+05 -1.049988E+03 -3.341214E+05  1.099667E-10  2.146966E-10
       309  15 -8.253308E+05 -1.389156E+05 -7.649585E+02 -3.400005E+05  8.287663E-14  7.523960E-10
       309  16 -6.638235E+05 -7.935098E+04  3.481065E+04 -2.956335E+05 -2.015239E-10 -1.211700E-10
       309  17 -7.081829E+05 -8.867414E+04  2.670107E+04 -3.005400E+05 -1.096613E-10  2.192388E-10
       309  18 -7.423664E+05 -1.082610E+05  1.820411E+04 -3.172032E+05  3.569949E-10  6.572818E-10
       309  19 -9.868201E+05 -1.984885E+05 -3.826482E+04 -3.843560E+05  2.280793E+03 -1.083118E+04
       309  20 -9.526414E+05 -1.788960E+05 -2.880200E+04 -3.676969E+05  7.727639E+02 -8.414240E+03
       309  21 -9.082889E+05 -1.695698E+05 -1.973456E+04 -3.627951E+05 -7.366230E+02 -5.992431E+03
       309  22 -8.253349E+05 -1.389207E+05 -1.726121E+03 -3.400000E+05  5.036344E+03 -9.797917E+03
       309  23 -8.304195E+05 -1.337855E+05 -1.049863E+03 -3.341214E+05  3.533300E+03 -7.379327E+03
       309  24 -8.253308E+05 -1.389155E+05 -7.649046E+02 -3.400005E+05  2.028940E+03 -4.955866E+03
       309  25 -6.638234E+05 -7.935088E+04  3.481091E+04 -2.956335E+05  7.792672E+03 -8.764361E+03
       309  26 -7.081829E+05 -8.867408E+04  2.670122E+04 -3.005400E+05  6.294418E+03 -6.344196E+03
       309  27 -7.423663E+05 -1.082609E+05  1.820419E+04 -3.172032E+05  4.794887E+03 -3.919158E+03
       310   1 -8.784619E+05 -1.585219E+05 -1.266761E+04 -3.546254E+05  1.435038E+03  4.513196E+03
       310   2 -8.442168E+05 -1.388947E+05 -3.991735E+03 -3.379320E+05  2.843639E+03  2.049746E+03
       310   3 -7.997687E+05 -1.295481E+05  4.364489E+03 -3.330187E+05  4.251944E+03 -4.129992E+02
       310   4 -8.253241E+05 -1.389193E+05 -7.307715E+02 -3.400053E+05 -1.332248E+03  3.476061E+03
       310   5 -8.304240E+05 -1.337776E+05 -8.560147E+02 -3.341151E+05  7.700472E+01  1.012870E+03
       310   6 -8.253234E+05 -1.389170E+05 -1.301661E+03 -3.400060E+05  1.485927E+03 -1.449617E+03
       310   7 -7.721831E+05 -1.193164E+05  1.120601E+04 -3.253839E+05 -4.099809E+03  2.438824E+03
       310   8 -8.166309E+05 -1.286604E+05  2.279739E+03 -3.302982E+05 -2.689706E+03 -2.403436E+01
       310   9 -8.508773E+05 -1.482857E+05 -6.967820E+03 -3.469930E+05 -1.279967E+03 -2.486190E+03
       310  10 -8.784619E+05 -1.585219E+05 -1.266765E+04 -3.546254E+05 -4.203213E-11  5.681395E-10
       310  11 -8.442168E+05 -1.388948E+05 -3.991758E+03 -3.379320E+05 -1.069413E-10  1.774453E-10
       310  12 -7.997688E+05 -1.295481E+05  4.364454E+03 -3.330187E+05  6.028243E-11 -1.453540E-10
       310  13 -8.253241E+05 -1.389193E+05 -7.307975E+02 -3.400053E+05 -4.528457E-10  4.753477E-10
       310  14 -8.304240E+05 -1.337776E+05 -8.560166E+02 -3.341151E+05  1.479431E-10  4.094411E-10
       310  15 -8.253234E+05 -1.389170E+05 -1.301669E+03 -3.400060E+05 -2.374218E-10 -2.555968E-11
       310  16 -7.721831E+05 -1.193164E+05  1.120597E+04 -3.253839E+05  1.312812E-10  5.205577E-10
       310  17 -8.166309E+05 -1.286604E+05  2.279725E+03 -3.302982E+05 -4.007402E-10 -4.213311E-11
       310  18 -8.508774E+05 -1.482858E+05 -6.967835E+03 -3.469930E+05 -9.539387E-11 -2.776885E-10
       310  19 -8.784619E+05 -1.585219E+05 -1.266761E+04 -3.546254E+05 -1.435038E+03 -4.513196E+03
       310  20 -8.442168E+05 -1.388947E+05 -3.991735E+03 -3.379320E+05 -2.843639E+03 -2.049746E+03
       310  21 -7.997687E+05 -1.295481E+05  4.364489E+03 -3.330187E+05 -4.251944E+03  4.129992E+02
       310  22 -8.253241E+05 -1.389193E+05 -7.307715E+02 -3.400053E+05  1.332248E+03 -3.476061E+03
       310  23 -8.304240E+05 -1.337776E+05 -8.560147E+02 -3.341151E+05 -7.700472E+01 -1.012870E+03
       310  24 -8.253234E+05 -1.389170E+05 -1.301661E+03 -3.400060E+05 -1.485927E+03  1.449617E+03
       310  25 -7.721831E+05 -1.193164E+05  1.120601E+04 -3.253839E+05  4.099809E+03 -2.438824E+03
       310  26 -8.166309E+05 -1.286604E+05  2.279739E+03 -3.302982E+05  2.689706E+03  2.403436E+01
       310  27 -8.508773E+05 -1.482857E+05 -6.967820E+03 -3.469930E+05  1.279967E+03  2.486190E+03
       311   1 -7.699562E+05 -1.185070E+05  1.102825E+04 -3.248860E+05  5.076250E+03 -1.847078E+03
       311   2 -7.356616E+05 -9.887488E+04  1.856789E+04 -3.081761E+05  7.489991E+03 -3.923551E+03
       311   3 -6.913786E+05 -8.972012E+04  2.498603E+04 -3.032287E+05  9.894560E+03 -5.974456E+03
       311   4 -8.253649E+05 -1.389058E+05 -1.670811E+03 -3.400233E+05  2.304872E+03 -2.885747E+03
       311   5 -8.303689E+05 -1.337481E+05 -2.926233E+03 -3.341110E+05  4.745180E+03 -4.952433E+03
       311   6 -8.253913E+05 -1.390732E+05 -5.324324E+03 -3.399619E+05  7.176228E+03 -6.993584E+03
       311   7 -8.807702E+05 -1.593043E+05 -1.436995E+04 -3.551593E+05 -4.662208E+02 -3.924310E+03
       311   8 -9.250671E+05 -1.686207E+05 -2.442090E+04 -3.600423E+05  2.000823E+03 -5.981146E+03
       311   9 -9.593868E+05 -1.884253E+05 -3.563604E+04 -3.766880E+05  4.458517E+03 -8.012480E+03
       311  10 -7.699562E+05 -1.185070E+05  1.102819E+04 -3.248860E+05 -4.024307E-10 -3.963529E-10
       311  11 -7.356617E+05 -9.887491E+04  1.856775E+04 -3.081761E+05 -2.648116E-10  4.044281E-11
       311  12 -6.913787E+05 -8.972018E+04  2.498578E+04 -3.032287E+05 -1.526785E-10 -3.229940E-12
       311  13 -8.253649E+05 -1.389058E+05 -1.670837E+03 -3.400233E+05  9.014134E-11 -1.171159E-10
       311  14 -8.303689E+05 -1.337481E+05 -2.926322E+03 -3.341110E+05  3.393216E-11 -5.103965E-11
       311  15 -8.253914E+05 -1.390733E+05 -5.324513E+03 -3.399619E+05 -8.970515E-11 -2.093354E-10
       311  16 -8.807702E+05 -1.593043E+05 -1.436998E+04 -3.551593E+05  4.559288E-10  1.667317E-10
       311  17 -9.250672E+05 -1.686207E+05 -2.442098E+04 -3.600423E+05  2.077265E-12 -1.542391E-10
       311  18 -9.593869E+05 -1.884254E+05 -3.563620E+04 -3.766880E+05 -1.583230E-10 -6.014280E-11
       311  19 -7.699562E+05 -1.185070E+05  1.102825E+04 -3.248860E+05 -5.076250E+03  1.847078E+03
       311  20 -7.356616E+05 -9.887488E+04  1.856789E+04 -3.081761E+05 -7.489991E+03  3.923551E+03
       311  21 -6.913786E+05 -8.972012E+04  2.498603E+04 -3.032287E+05 -9.894560E+03  5.974456E+03
       311  22 -8.253649E+05 -1.389058E+05 -1.670811E+03 -3.400233E+05 -2.304872E+03  2.885747E+03
       311  23 -8.303689E+05 -1.337481E+05 -2.926233E+03 -3.341110E+05 -4.745180E+03  4.952433E+03
       311  24 -8.253913E+05 -1.390732E+05 -5.324324E+03 -3.399619E+05 -7.176228E+03  6.993584E+03
       311  25 -8.807702E+05 -1.593043E+05 -1.436995E+04 -3.551593E+05  4.662208E+02  3.924310E+03
       311  26 -9.250671E+05 -1.686207E+05 -2.442090E+04 -3.600423E+05 -2.000823E+03  5.981146E+03
       311  27 -9.593868E+05 -1.884253E+05 -3.563604E+04 -3.766880E+05 -4.458517E+03  8.012480E+03
       312   1 -6.614147E+05 -7.887724E+04  3.026924E+04 -2.959180E+05  1.159642E+04 -7.108453E+03
       312   2 -6.274266E+05 -5.860049E+04  3.343205E+04 -2.778905E+05  1.843436E+04 -7.341908E+03
       312   3 -5.855508E+05 -5.270136E+04  3.107426E+04 -2.707144E+05  2.509036E+04 -7.087564E+03
       312   4 -8.257096E+05 -1.387375E+05 -7.034966E+03 -3.402194E+05  8.750396E+03 -8.175605E+03
       312   5 -8.299258E+05 -1.337666E+05 -1.273466E+04 -3.339445E+05  1.610071E+04 -8.217334E+03
       312   6 -8.263581E+05 -1.432764E+05 -2.436272E+04 -3.385220E+05  2.326863E+04 -7.771358E+03
       312   7 -9.899773E+05 -1.985959E+05 -4.434089E+04 -3.845100E+05  5.905193E+03 -9.242460E+03
       312   8 -1.032383E+06 -2.089293E+05 -5.890386E+04 -3.899816E+05  1.376790E+04 -9.092444E+03
       312   9 -1.067106E+06 -2.338461E+05 -7.980317E+04 -4.063050E+05  2.144769E+04 -8.454850E+03
       312  10 -6.614149E+05 -7.887733E+04  3.026889E+04 -2.959180E+05 -3.530766E-10 -4.834205E-11
       312  11 -6.274269E+05 -5.860064E+04  3.343131E+04 -2.778904E+05 -1.440969E-10 -1.392253E-10
       312  12 -5.855514E+05 -5.270159E+04  3.107298E+04 -2.707143E+05  3.059042E-10 -4.986274E-11
       312  13 -8.257097E+05 -1.387376E+05 -7.035235E+03 -3.402193E+05  1.703512E-10 -6.430655E-11
       312  14 -8.299261E+05 -1.337668E+05 -1.273527E+04 -3.339444E+05 -2.473044E-10 -2.588473E-10
       312  15 -8.263587E+05 -1.432766E+05 -2.436385E+04 -3.385219E+05  3.076595E-10 -1.577181E-10
       312  16 -9.899773E+05 -1.985960E+05 -4.434112E+04 -3.845100E+05 -1.585783E-11 -1.522318E-10
       312  17 -1.032383E+06 -2.089295E+05 -5.890437E+04 -3.899815E+05 -2.534186E-10 -7.185267E-11
       312  18 -1.067106E+06 -2.338463E+05 -7.980417E+04 -4.063048E+05 -1.610104E-10 -2.053212E-10
       312  19 -6.614147E+05 -7.887724E+04  3.026924E+04 -2.959180E+05 -1.159642E+04  7.108453E+03
       312  20 -6.274266E+05 -5.860049E+04  3.343205E+04 -2.778905E+05 -1.843436E+04  7.341908E+03
       312  21 -5.855508E+05 -5.270136E+04  3.107426E+04 -2.707144E+05 -2.509036E+04  7.087564E+03
       312  22 -8.257096E+05 -1.387375E+05 -7.034966E+03 -3.402194E+05 -8.750396E+03  8.175605E+03
       312  23 -8.299258E+05 -1.337666E+05 -1.273466E+04 -3.339445E+05 -1.610071E+04  8.217334E+03
       312  24 -8.263581E+05 -1.432764E+05 -2.436272E+04 -3.385220E+05 -2.326863E+04  7.771358E+03
       312  25 -9.899773E+05 -1.985959E+05 -4.434089E+04 -3.845100E+05 -5.905193E+03  9.242460E+03
       312  26 -1.032383E+06 -2.089293E+05 -5.890386E+04 -3.899816E+05 -1.376790E+04  9.092444E+03
       312  27 -1.067106E+06 -2.338461E+05 -7.980317E+04 -4.063050E+05 -2.144769E+04  8.454850E+03
       313   1 -5.490644E+05 -4.488253E+04  3.081771E+04 -2.794979E+05  3.245703E+04 -6.797655E+03
       313   2 -5.278808E+05 -8.746078E+03  1.669425E+04 -2.294943E+05  5.150914E+04  1.189394E+03
       313   3 -5.311731E+05 -6.674382E+04 -3.493698E+04 -1.687302E+05  6.676550E+04  1.929686E+04
       313   4 -8.303855E+05 -1.358014E+05 -3.116382E+04 -3.433419E+05  2.788509E+04 -8.512493E+03
       313   5 -8.240892E+05 -1.372551E+05 -5.633742E+04 -3.301261E+05  5.760337E+04  3.473453E+03
       313   6 -8.444045E+05 -2.349908E+05 -1.274912E+05 -3.061489E+05  8.352375E+04  2.557934E+04
       313   7 -1.111630E+06 -2.267195E+05 -9.315070E+04 -4.071619E+05  2.331536E+04 -1.022675E+04
       313   8 -1.120208E+06 -2.657479E+05 -1.293753E+05 -4.307106E+05  6.369443E+04  5.755858E+03
       313   9 -1.157529E+06 -4.031941E+05 -2.200518E+05 -4.434926E+05  1.002725E+05  3.185481E+04
       313  10 -5.490655E+05 -4.488287E+04  3.081564E+04 -2.794977E+05  2.717484E-10 -1.904420E-10
       313  11 -5.278836E+05 -8.746792E+03  1.668926E+04 -2.294943E+05  1.798739E-10 -2.793197E-10
       313  12 -5.311780E+05 -6.674542E+04 -3.494607E+04 -1.687312E+05 -1.706892E-10 -1.250783E-10
       313  13 -8.303863E+05 -1.358017E+05 -3.116542E+04 -3.433417E+05  5.402578E-11 -1.969823E-10
       313  14 -8.240927E+05 -1.372560E+05 -5.634368E+04 -3.301263E+05 -2.467246E-10 -1.658465E-11
       313  15 -8.444122E+05 -2.349934E+05 -1.275055E+05 -3.061506E+05 -1.294692E-10 -1.289706E-10
       313  16 -1.111630E+06 -2.267197E+05 -9.315192E+04 -4.071618E+05  1.068590E-10 -1.465005E-10
       313  17 -1.120212E+06 -2.657491E+05 -1.293830E+05 -4.307109E+05 -6.273509E-10  2.137327E-11
       313  18 -1.157540E+06 -4.031979E+05 -2.200727E+05 -4.434952E+05 -9.417006E-11 -3.536698E-11
       313  19 -5.490644E+05 -4.488253E+04  3.081771E+04 -2.794979E+05 -3.245703E+04  6.797655E+03
       313  20 -5.278808E+05 -8.746078E+03  1.669425E+04 -2.294943E+05 -5.150914E+04 -1.189394E+03
       313  21 -5.311731E+05 -6.674382E+04 -3.493698E+04 -1.687302E+05 -6.676550E+04 -1.929686E+04
       313  22 -8.303855E+05 -1.358014E+05 -3.116382E+04 -3.433419E+05 -2.788509E+04  8.512493E+03
       313  23 -8.240892E+05 -1.372551E+05 -5.633742E+04 -3.301261E+05 -5.760337E+04 -3.473453E+03
       313  24 -8.444045E+05 -2.349908E+05 -1.274912E+05 -3.061489E+05 -8.352375E+04 -2.557934E+04
       313  25 -1.111630E+06 -2.267195E+05 -9.315070E+04 -4.071619E+05 -2.331536E+04  1.022675E+04
       313  26 -1.120208E+06 -2.657479E+05 -1.293753E+05 -4.307106E+05 -6.369443E+04 -5.755858E+03
       313  27 -1.157529E+06 -4.031941E+05 -2.200518E+05 -4.434926E+05 -1.002725E+05 -3.185481E+04
       314   1 -3.593833E+05 -7.070412E+04 -2.671527E+04  2.522747E+04  1.122222E+05  1.520748E+04
       314   2 -2.675356E+05 -2.282545E+05 -1.020120E+05 -2.382386E+04  8.657204E+04  4.812835E+04
       314   3 -1.307849E+05 -2.208655E+05 -1.193069E+05 -1.097912E+05  6.093965E+04  5.175722E+04
       314   4  7.547060E+05  2.053034E+05  2.406184E+05 -8.358072E+04  1.660910E+05  1.522568E+04
       314   5  7.295041E+05  1.383389E+04  1.118654E+05 -6.507354E+04  1.073241E+05  4.812682E+04
       314   6  7.548486E+05 -7.112258E+03  6.402412E+04 -8.347242E+04  4.858356E+04  5.175161E+04
       314   7  1.869964E+06  4.812671E+05  5.078813E+05 -1.925851E+05  2.200558E+05  1.522500E+04
       314   8  1.727483E+06  2.558639E+05  3.256873E+05 -1.063905E+05  1.281089E+05  4.812253E+04
       314   9  1.641227E+06  2.065939E+05  2.473135E+05 -5.711546E+04  3.621011E+04  5.174495E+04
       314  10 -3.593969E+05 -7.070775E+04 -2.673938E+04  2.522610E+04 -2.847141E-10  3.145259E-10
       314  11 -2.675443E+05 -2.282590E+05 -1.020304E+05 -2.382721E+04 -4.288194E-10 -9.840474E-11
       314  12 -1.307896E+05 -2.208693E+05 -1.193189E+05 -1.097937E+05  3.698867E-10  1.241710E-10
       314  13  7.546764E+05  2.052957E+05  2.405662E+05 -8.358276E+04  8.334670E-12  1.053182E-10
       314  14  7.294911E+05  1.382831E+04  1.118394E+05 -6.507770E+04 -1.077307E-09 -6.176075E-10
       314  15  7.548453E+05 -7.115768E+03  6.401466E+04 -8.347444E+04  1.355177E-11  1.671377E-10
       314  16  1.869912E+06  4.812539E+05  5.077902E+05 -1.925878E+05 -6.059694E-11 -7.352260E-11
       314  17  1.727465E+06  2.558570E+05  3.256522E+05 -1.063955E+05  2.042276E-10 -1.827004E-10
       314  18  1.641225E+06  2.065907E+05  2.473060E+05 -5.711697E+04  2.381949E-11 -3.203398E-11
       314  19 -3.593833E+05 -7.070412E+04 -2.671527E+04  2.522747E+04 -1.122222E+05 -1.520748E+04
       314  20 -2.675356E+05 -2.282545E+05 -1.020120E+05 -2.382386E+04 -8.657204E+04 -4.812835E+04
       314  21 -1.307849E+05 -2.208655E+05 -1.193069E+05 -1.097912E+05 -6.093965E+04 -5.175722E+04
       314  22  7.547060E+05  2.053034E+05  2.406184E+05 -8.358072E+04 -1.660910E+05 -1.522568E+04
       314  23  7.295041E+05  1.383389E+04  1.118654E+05 -6.507354E+04 -1.073241E+05 -4.812682E+04
       314  24  7.548486E+05 -7.112258E+03  6.402412E+04 -8.347242E+04 -4.858356E+04 -5.175161E+04
       314  25  1.869964E+06  4.812671E+05  5.078813E+05 -1.925851E+05 -2.200558E+05 -1.522500E+04
       314  26  1.727483E+06  2.558639E+05  3.256873E+05 -1.063905E+05 -1.281089E+05 -4.812253E+04
       314  27  1.641227E+06  2.065939E+05  2.473135E+05 -5.711546E+04 -3.621011E+04 -5.174495E+04
       315   1 -5.669768E+04 -1.850292E+05 -1.161981E+05 -8.101799E+04  4.479580E+04  4.608812E+04
       315   2  5.484295E+04 -1.658087E+05 -1.142776E+05 -6.419113E+04  3.273668E+04  4.090008E+04
       315   3  1.699674E+05 -1.390397E+05 -1.025897E+05 -8.542315E+04  2.067125E+04  3.421575E+04
       315   4  7.444927E+05  8.428035E+03  5.017918E+04 -8.375367E+04  3.982306E+04  4.608299E+04
       315   5  7.425895E+05  4.838512E+01  2.754524E+04 -6.472635E+04  2.605955E+04  4.089723E+04
       315   6  7.445489E+05 -4.921843E+02  1.585158E+04 -8.375495E+04  1.229191E+04  3.421591E+04
       315   7  1.546291E+06  2.018445E+05  2.165214E+05 -8.649291E+04  3.484398E+04  4.607792E+04
       315   8  1.430784E+06  1.658756E+05  1.693427E+05 -6.526214E+04  1.937515E+04  4.089439E+04
       315   9  1.319444E+06  1.380346E+05  1.342753E+05 -8.208513E+04  3.904962E+03  3.421602E+04
       315  10 -5.670040E+04 -1.850320E+05 -1.162059E+05 -8.101965E+04  2.022399E-10 -1.252996E-10
       315  11  5.484135E+04 -1.658108E+05 -1.142827E+05 -6.419220E+04 -5.993142E-10 -1.079323E-10
       315  12  1.699666E+05 -1.390411E+05 -1.025927E+05 -8.542372E+04 -6.820856E-10 -1.008173E-11
       315  13  7.444904E+05  8.425329E+03  5.017221E+04 -8.375515E+04  4.210483E-11 -1.041728E-11
       315  14  7.425883E+05  4.640627E+01  2.754082E+04 -6.472721E+04  4.054369E-10 -1.399867E-10
       315  15  7.445484E+05 -4.934825E+02  1.584910E+04 -8.375529E+04 -1.888106E-10  1.912655E-10
       315  16  1.546289E+06  2.018419E+05  2.165152E+05 -8.649420E+04  3.426850E-10  2.121025E-11
       315  17  1.430784E+06  1.658737E+05  1.693389E+05 -6.526278E+04  4.099449E-10 -1.485219E-10
       315  18  1.319443E+06  1.380333E+05  1.342731E+05 -8.208524E+04  3.075961E-10  6.525235E-11
       315  19 -5.669768E+04 -1.850292E+05 -1.161981E+05 -8.101799E+04 -4.479580E+04 -4.608812E+04
       315  20  5.484295E+04 -1.658087E+05 -1.142776E+05 -6.419113E+04 -3.273668E+04 -4.090008E+04
       315  21  1.699674E+05 -1.390397E+05 -1.025897E+05 -8.542315E+04 -2.067125E+04 -3.421575E+04
       315  22  7.444927E+05  8.428035E+03  5.017918E+04 -8.375367E+04 -3.982306E+04 -4.608299E+04
       315  23  7.425895E+05  4.838512E+01  2.754524E+04 -6.472635E+04 -2.605955E+04 -4.089723E+04
       315  24  7.445489E+05 -4.921843E+02  1.585158E+04 -8.375495E+04 -1.229191E+04 -3.421591E+04
       315  25  1.546291E+06  2.018445E+05  2.165214E+05 -8.649291E+04 -3.484398E+04 -4.607792E+04
       315  26  1.430784E+06  1.658756E+05  1.693427E+05 -6.526214E+04 -1.937515E+04 -4.089439E+04
       315  27  1.319444E+06  1.380346E+05  1.342753E+05 -8.208513E+04 -3.904962E+03 -3.421602E+04
       316   1  2.524919E+05 -1.181693E+05 -8.867919E+04 -8.402744E+04  1.781357E+04  2.993023E+04
       316   2  3.651407E+05 -9.129448E+04 -7.085958E+04 -6.493891E+04  1.446301E+04  2.280863E+04
       316   3  4.783395E+05 -6.402815E+04 -5.076089E+04 -8.385061E+04  1.110894E+04  1.561579E+04
       316   4  7.438314E+05  2.019579E+02  1.210304E+04 -8.374212E+04  9.821535E+03  2.993150E+04
       316   5  7.435706E+05 -9.576347E+01  6.934584E+03 -6.474283E+04  6.387332E+03  2.281140E+04
       316   6  7.438595E+05  1.224927E+01  4.101197E+03 -8.374239E+04  2.950212E+03  1.562012E+04
       316   7  1.235400E+06  1.185581E+05  1.128727E+05 -8.345653E+04  1.823292E+03  2.993276E+04
       316   8  1.122136E+06  9.109397E+04  8.472133E+04 -6.454661E+04 -1.693175E+03  2.281417E+04
       316   9  1.009446E+06  6.404822E+04  5.895973E+04 -8.363411E+04 -5.211942E+03  1.562444E+04
       316  10  2.524913E+05 -1.181704E+05 -8.868147E+04 -8.402787E+04 -2.610404E-10 -1.767242E-10
       316  11  3.651403E+05 -9.129509E+04 -7.086095E+04 -6.493918E+04  7.022821E-10  8.214334E-11
       316  12  4.783393E+05 -6.402844E+04 -5.076159E+04 -8.385075E+04 -2.734325E-10  6.385026E-11
       316  13  7.438310E+05  2.009696E+02  1.210118E+04 -8.374236E+04  2.777811E-10  2.350736E-10
       316  14  7.435704E+05 -9.633340E+01  6.933529E+03 -6.474295E+04  7.662013E-10  6.598381E-11
       316  15  7.438594E+05  1.198484E+01  4.100722E+03 -8.374243E+04  1.157237E-10 -4.480517E-11
       316  16  1.235400E+06  1.185571E+05  1.128710E+05 -8.345658E+04  5.228590E-11  4.247537E-10
       316  17  1.122136E+06  9.109341E+04  8.472034E+04 -6.454657E+04  3.593049E-10  5.364527E-10
       316  18  1.009446E+06  6.404796E+04  5.895922E+04 -8.363405E+04 -4.925612E-10  8.149004E-10
       316  19  2.524919E+05 -1.181693E+05 -8.867919E+04 -8.402744E+04 -1.781357E+04 -2.993023E+04
       316  20  3.651407E+05 -9.129448E+04 -7.085958E+04 -6.493891E+04 -1.446301E+04 -2.280863E+04
       316  21  4.783395E+05 -6.402815E+04 -5.076089E+04 -8.385061E+04 -1.110894E+04 -1.561579E+04
       316  22  7.438314E+05  2.019579E+02  1.210304E+04 -8.374212E+04 -9.821535E+03 -2.993150E+04
       316  23  7.435706E+05 -9.576347E+01  6.934584E+03 -6.474283E+04 -6.387332E+03 -2.281140E+04
       316  24  7.438595E+05  1.224927E+01  4.101197E+03 -8.374239E+04 -2.950212E+03 -1.562012E+04
       316  25  1.235400E+06  1.185581E+05  1.128727E+05 -8.345653E+04 -1.823292E+03 -2.993276E+04
       316  26  1.122136E+06  9.109397E+04  8.472133E+04 -6.454661E+04  1.693175E+03 -2.281417E+04
       316  27  1.009446E+06  6.404822E+04  5.895973E+04 -8.363411E+04  5.211942E+03 -1.562444E+04
       317   1  5.612509E+05 -4.387581E+04 -3.400760E+04 -8.379472E+04  1.042225E+04  1.141183E+04
       317   2  6.739638E+05 -1.677852E+04 -1.224492E+04 -6.480556E+04  9.390164E+03  4.203256E+03
       317   3  7.867926E+05  1.037727E+04  1.019145E+04 -8.375812E+04  8.357369E+03 -3.008006E+03
       317   4  7.437685E+05  4.319769E+01  3.202986E+03 -8.372960E+04  2.286259E+03  1.141669E+04
       317   5  7.437189E+05  2.809373E+01  2.088711E+03 -6.475887E+04  1.250202E+03  4.208368E+03
       317   6  7.437737E+05  7.277771E+01  1.650807E+03 -8.372962E+04  2.136142E+02 -3.002594E+03
       317   7  9.263178E+05  4.396016E+04  4.041207E+04 -8.366445E+04 -5.852076E+03  1.142154E+04
       317   8  8.134788E+05  1.683444E+04  1.642233E+04 -6.471218E+04 -6.890659E+03  4.213478E+03
       317   9  7.007566E+05 -1.023179E+04 -6.889677E+03 -8.370111E+04 -7.929589E+03 -2.997184E+03
       317  10  5.612508E+05 -4.387598E+04 -3.400805E+04 -8.379481E+04  1.392368E-10 -2.050159E-10
       317  11  6.739637E+05 -1.677856E+04 -1.224512E+04 -6.480559E+04 -4.176438E-10  4.511651E-10
       317  12  7.867925E+05  1.037724E+04  1.019130E+04 -8.375810E+04 -6.836881E-10  3.814835E-10
       317  13  7.437684E+05  4.305628E+01  3.202731E+03 -8.372962E+04 -2.937754E-10  5.064186E-10
       317  14  7.437189E+05  2.807428E+01  2.088675E+03 -6.475888E+04 -2.689756E-10 -5.670681E-10
       317  15  7.437736E+05  7.276801E+01  1.650790E+03 -8.372962E+04 -1.811767E-10 -5.230269E-10
       317  16  9.263177E+05  4.396001E+04  4.041176E+04 -8.366440E+04  3.474274E-10 -5.245612E-10
       317  17  8.134787E+05  1.683441E+04  1.642221E+04 -6.471215E+04 -1.923538E-10 -3.156388E-10
       317  18  7.007565E+05 -1.023182E+04 -6.889812E+03 -8.370113E+04 -4.376817E-10 -8.870917E-10
       317  19  5.612509E+05 -4.387581E+04 -3.400760E+04 -8.379472E+04 -1.042225E+04 -1.141183E+04
       317  20  6.739638E+05 -1.677852E+04 -1.224492E+04 -6.480556E+04 -9.390164E+03 -4.203256E+03
       317  21  7.867926E+05  1.037727E+04  1.019145E+04 -8.375812E+04 -8.357369E+03  3.008006E+03
       317  22  7.437685E+05  4.319769E+01  3.202986E+03 -8.372960E+04 -2.286259E+03 -1.141669E+04
       317  23  7.437189E+05  2.809373E+01  2.088711E+03 -6.475887E+04 -1.250202E+03 -4.208368E+03
       317  24  7.437737E+05  7.277771E+01  1.650807E+03 -8.372962E+04 -2.136142E+02  3.002594E+03
       317  25  9.263178E+05  4.396016E+04  4.041207E+04 -8.366445E+04  5.852076E+03 -1.142154E+04
       317  26  8.134788E+05  1.683444E+04  1.642233E+04 -6.471218E+04  6.890659E+03 -4.213478E+03
       317  27  7.007566E+05 -1.023179E+04 -6.889677E+03 -8.370111E+04  7.929589E+03  2.997184E+03
       318   1  8.697756E+05  3.048509E+04  2.781225E+04 -8.379294E+04  8.058384E+03 -7.205985E+03
       318   2  9.825723E+05  5.755313E+04  5.103235E+04 -6.478015E+04  7.085286E+03 -1.441861E+04
       318   3  1.095492E+06  8.467557E+04  7.488952E+04 -8.373153E+04  6.113845E+03 -2.163102E+04
       318   4  7.437725E+05  7.058084E+01  1.628120E+03 -8.373486E+04 -8.756702E+01 -7.200776E+03
       318   5  7.437077E+05  1.268276E+01  1.960392E+03 -6.475233E+04 -1.060730E+03 -1.441438E+04
       318   6  7.437555E+05  1.033597E+01  2.930618E+03 -8.373485E+04 -2.032065E+03 -2.162771E+04
       318   7  6.177846E+05 -3.034490E+04 -2.455663E+04 -8.367679E+04 -8.231895E+03 -7.195569E+03
       318   8  5.048974E+05 -5.753132E+04 -4.711436E+04 -6.472450E+04 -9.203672E+03 -1.441014E+04
       318   9  3.921366E+05 -8.466261E+04 -6.903460E+04 -8.373814E+04 -1.017345E+04 -2.162440E+04
       318  10  8.697756E+05  3.048501E+04  2.781203E+04 -8.379289E+04  1.039665E-10 -2.293396E-11
       318  11  9.825722E+05  5.755289E+04  5.103186E+04 -6.478007E+04  3.873885E-10 -1.273921E-10
       318  12  1.095492E+06  8.467506E+04  7.488857E+04 -8.373143E+04  5.407041E-10 -1.778718E-10
       318  13  7.437725E+05  7.052514E+01  1.628022E+03 -8.373486E+04 -1.354234E-09  6.573025E-10
       318  14  7.437077E+05  1.245926E+01  1.960000E+03 -6.475234E+04 -1.412597E-11  6.958936E-10
       318  15  7.437554E+05  9.832387E+00  2.929731E+03 -8.373488E+04  1.161140E-09 -9.094232E-10
       318  16  6.177845E+05 -3.034497E+04 -2.455685E+04 -8.367683E+04 -1.426699E-10 -2.336346E-11
       318  17  5.048972E+05 -5.753156E+04 -4.711491E+04 -6.472461E+04 -7.831848E-10  7.146557E-10
       318  18  3.921363E+05 -8.466314E+04 -6.903567E+04 -8.373832E+04 -3.478452E-10 -2.457858E-10
       318  19  8.697756E+05  3.048509E+04  2.781225E+04 -8.379294E+04 -8.058384E+03  7.205985E+03
       318  20  9.825723E+05  5.755313E+04  5.103235E+04 -6.478015E+04 -7.085286E+03  1.441861E+04
       318  21  1.095492E+06  8.467557E+04  7.488952E+04 -8.373153E+04 -6.113845E+03  2.163102E+04
       318  22  7.437725E+05  7.058084E+01  1.628120E+03 -8.373486E+04  8.756702E+01  7.200776E+03
       318  23  7.437077E+05  1.268276E+01  1.960392E+03 -6.475233E+04  1.060730E+03  1.441438E+04
       318  24  7.437555E+05  1.033597E+01  2.930618E+03 -8.373485E+04  2.032065E+03  2.162771E+04
       318  25  6.177846E+05 -3.034490E+04 -2.455663E+04 -8.367679E+04  8.231895E+03  7.195569E+03
       318  26  5.048974E+05 -5.753132E+04 -4.711436E+04 -6.472450E+04  9.203672E+03  1.441014E+04
       318  27  3.921366E+05 -8.466261E+04 -6.903460E+04 -8.373814E+04  1.017345E+04  2.162440E+04
       319   1  1.178725E+06  1.047848E+05  9.335882E+04 -8.369849E+04  5.538560E+03 -2.583918E+04
       319   2  1.291626E+06  1.318696E+05  1.188618E+05 -6.454148E+04  2.343994E+03 -3.303597E+04
       319   3  1.405103E+06  1.593313E+05  1.465464E+05 -8.344090E+04 -8.470393E+02 -4.015312E+04
       319   4  7.438385E+05 -2.254687E+01  3.730476E+03 -8.375563E+04 -2.637063E+03 -2.583680E+04
       319   5  7.435444E+05 -1.386440E+02  6.262152E+03 -6.472629E+04 -5.739899E+03 -3.303583E+04
       319   6  7.437986E+05  1.070296E+02  1.091300E+04 -8.375543E+04 -8.838636E+03 -4.015513E+04
       319   7  3.091309E+05 -1.048418E+05 -8.590780E+04 -8.381270E+04 -1.080707E+04 -2.583443E+04
       319   8  1.957481E+05 -1.321657E+05 -1.063534E+05 -6.491090E+04 -1.381679E+04 -3.303568E+04
       319   9  8.290858E+04 -1.591447E+05 -1.247434E+05 -8.406958E+04 -1.682189E+04 -4.015713E+04
       319  10  1.178725E+06  1.047841E+05  9.335751E+04 -8.369838E+04 -1.077369E-09  3.058420E-10
       319  11  1.291625E+06  1.318684E+05  1.188598E+05 -6.454142E+04 -4.028394E-10  4.938547E-11
       319  12  1.405103E+06  1.593296E+05  1.465433E+05 -8.344093E+04 -3.819420E-10  4.575952E-10
       319  13  7.438383E+05 -2.326582E+01  3.729208E+03 -8.375569E+04  1.572613E-11 -5.606342E-10
       319  14  7.435441E+05 -1.398252E+02  6.260039E+03 -6.472644E+04 -3.600182E-10  1.031700E-11
       319  15  7.437981E+05  1.052766E+02  1.090982E+04 -8.375572E+04  8.882125E-11  4.805012E-11
       319  16  3.091306E+05 -1.048426E+05 -8.590927E+04 -8.381293E+04  1.326146E-09  5.733650E-11
       319  17  1.957476E+05 -1.321669E+05 -1.063558E+05 -6.491126E+04  1.754615E-10 -1.203643E-10
       319  18  8.290784E+04 -1.591465E+05 -1.247470E+05 -8.407013E+04 -2.896983E-10 -1.561511E-10
       319  19  1.178725E+06  1.047848E+05  9.335882E+04 -8.369849E+04 -5.538560E+03  2.583918E+04
       319  20  1.291626E+06  1.318696E+05  1.188618E+05 -6.454148E+04 -2.343994E+03  3.303597E+04
       319  21  1.405103E+06  1.593313E+05  1.465464E+05 -8.344090E+04  8.470393E+02  4.015312E+04
       319  22  7.438385E+05 -2.254687E+01  3.730476E+03 -8.375563E+04  2.637063E+03  2.583680E+04
       319  23  7.435444E+05 -1.386440E+02  6.262152E+03 -6.472629E+04  5.739899E+03  3.303583E+04
       319  24  7.437986E+05  1.070296E+02  1.091300E+04 -8.375543E+04  8.838636E+03  4.015513E+04
       319  25  3.091309E+05 -1.048418E+05 -8.590780E+04 -8.381270E+04  1.080707E+04  2.583443E+04
       319  26  1.957481E+05 -1.321657E+05 -1.063534E+05 -6.491090E+04  1.381679E+04  3.303568E+04
       319  27  8.290858E+04 -1.591447E+05 -1.247434E+05 -8.406958E+04  1.682189E+04  4.015713E+04
       320   1  1.489289E+06  1.789170E+05  1.676102E+05 -8.217843E+04 -2.624371E+03 -4.445742E+04
       320   2  1.601099E+06  2.067706E+05  2.016283E+05 -6.499554E+04 -1.697655E+04 -5.107543E+04
       320   3  1.716830E+06  2.420102E+05  2.468647E+05 -8.597161E+04 -3.132635E+04 -5.597784E+04
       320   4  7.444470E+05 -5.243492E+02  1.428908E+04 -8.377794E+04 -1.106415E+04 -4.446109E+04
       320   5  7.426246E+05 -5.634406E+01  2.480927E+04 -6.469761E+04 -2.346205E+04 -5.108217E+04
       320   6  7.443794E+05  7.466303E+03  4.520373E+04 -8.377912E+04 -3.585499E+04 -5.598658E+04
       320   7  1.300731E+02 -1.800006E+05 -1.390616E+05 -8.537547E+04 -1.949399E+04 -4.446472E+04
       320   8 -1.151521E+05 -2.069297E+05 -1.520492E+05 -6.440009E+04 -2.993873E+04 -5.108892E+04
       320   9 -2.271775E+05 -2.271375E+05 -1.565087E+05 -8.159015E+04 -4.037664E+04 -5.599535E+04
       320  10  1.489289E+06  1.789149E+05  1.676065E+05 -8.217852E+04  8.617567E-10  1.572572E-10
       320  11  1.601098E+06  2.067678E+05  2.016228E+05 -6.499623E+04 -4.433695E-10 -5.451914E-10
       320  12  1.716828E+06  2.420066E+05  2.468569E+05 -8.597302E+04 -1.376062E-09 -3.294244E-10
       320  13  7.444464E+05 -5.265055E+02  1.428513E+04 -8.377834E+04  2.609470E-10 -2.258537E-10
       320  14  7.426233E+05 -5.929475E+01  2.480334E+04 -6.469857E+04  3.160809E-10 -5.198576E-10
       320  15  7.443772E+05  7.462591E+03  4.519542E+04 -8.378074E+04  1.331629E-10 -1.504358E-10
       320  16  1.291338E+02 -1.800028E+05 -1.390660E+05 -8.537617E+04 -4.700117E-10 -7.308409E-10
       320  17 -1.151538E+05 -2.069328E+05 -1.520558E+05 -6.440133E+04  8.818576E-10 -1.051365E-09
       320  18 -2.271801E+05 -2.271413E+05 -1.565177E+05 -8.159197E+04  1.053690E-09  5.661459E-10
       320  19  1.489289E+06  1.789170E+05  1.676102E+05 -8.217843E+04  2.624371E+03  4.445742E+04
       320  20  1.601099E+06  2.067706E+05  2.016283E+05 -6.499554E+04  1.697655E+04  5.107543E+04
       320  21  1.716830E+06  2.420102E+05  2.468647E+05 -8.597161E+04  3.132635E+04  5.597784E+04
       320  22  7.444470E+05 -5.243492E+02  1.428908E+04 -8.377794E+04  1.106415E+04  4.446109E+04
       320  23  7.426246E+05 -5.634406E+01  2.480927E+04 -6.469761E+04  2.346205E+04  5.108217E+04
       320  24  7.443794E+05  7.466303E+03  4.520373E+04 -8.377912E+04  3.585499E+04  5.598658E+04
       320  25  1.300731E+02 -1.800006E+05 -1.390616E+05 -8.537547E+04  1.949399E+04  4.446472E+04
       320  26 -1.151521E+05 -2.069297E+05 -1.520492E+05 -6.440009E+04  2.993873E+04  5.108892E+04
       320  27 -2.271775E+05 -2.271375E+05 -1.565087E+05 -8.159015E+04  4.037664E+04  5.599535E+04
       321   1  1.811172E+06  2.483793E+05  2.762237E+05 -5.935436E+04 -3.071737E+04 -6.187231E+04
       321   2  1.899988E+06  2.957709E+05  3.510285E+05 -1.018652E+05 -1.217168E+05 -5.668751E+04
       321   3  2.041025E+06  5.032743E+05  5.250776E+05 -1.812627E+05 -2.127838E+05 -1.787702E+04
       321   4  7.537132E+05 -6.545350E+03  5.767681E+04 -8.345159E+04 -4.374487E+04 -6.188669E+04
       321   5  7.307920E+05  1.231240E+04  1.007540E+05 -6.510152E+04 -9.664986E+04 -5.668029E+04
       321   6  7.535658E+05  1.848297E+05  2.167536E+05 -8.362760E+04 -1.496009E+05 -1.783741E+04
       321   7 -3.026862E+05 -2.615384E+05 -1.609297E+05 -1.075073E+05 -5.675056E+04 -6.190008E+04
       321   8 -4.371169E+05 -2.712299E+05 -1.495968E+05 -2.840810E+04 -7.162925E+04 -5.667011E+04
       321   9 -5.323494E+05 -1.336966E+05 -9.166743E+04  1.380444E+04 -8.654798E+04 -1.777796E+04
       321  10  1.811170E+06  2.483749E+05  2.762147E+05 -5.935589E+04 -4.044132E-11  7.367536E-11
       321  11  1.899971E+06  2.957635E+05  3.509947E+05 -1.018708E+05  4.242535E-11  4.222488E-10
       321  12  2.040976E+06  5.032618E+05  5.249922E+05 -1.812658E+05  1.487598E-09  7.167572E-10
       321  13  7.537101E+05 -6.549977E+03  5.766601E+04 -8.345377E+04  3.606702E-11 -8.192631E-10
       321  14  7.307811E+05  1.230645E+04  1.007304E+05 -6.510593E+04 -8.164107E-10  4.721120E-10
       321  15  7.535417E+05  1.848234E+05  2.167110E+05 -8.362975E+04  3.899246E-10 -3.559907E-10
       321  16 -3.026907E+05 -2.615434E+05 -1.609429E+05 -1.075101E+05 -1.076230E-09  6.431416E-10
       321  17 -4.371232E+05 -2.712347E+05 -1.496125E+05 -2.841137E+04  3.383241E-10 -2.434131E-10
       321  18 -5.323575E+05 -1.336990E+05 -9.168211E+04  1.380320E+04 -4.215289E-11  1.151852E-09
       321  19  1.811172E+06  2.483793E+05  2.762237E+05 -5.935436E+04  3.071737E+04  6.187231E+04
       321  20  1.899988E+06  2.957709E+05  3.510285E+05 -1.018652E+05  1.217168E+05  5.668751E+04
       321  21  2.041025E+06  5.032743E+05  5.250776E+05 -1.812627E+05  2.127838E+05  1.787702E+04
       321  22  7.537132E+05 -6.545350E+03  5.767681E+04 -8.345159E+04  4.374487E+04  6.188669E+04
       321  23  7.307920E+05  1.231240E+04  1.007540E+05 -6.510152E+04  9.664986E+04  5.668029E+04
       321  24  7.535658E+05  1.848297E+05  2.167536E+05 -8.362760E+04  1.496009E+05  1.783741E+04
       321  25 -3.026862E+05 -2.615384E+05 -1.609297E+05 -1.075073E+05  5.675056E+04  6.190008E+04
       321  26 -4.371169E+05 -2.712299E+05 -1.495968E+05 -2.840810E+04  7.162925E+04  5.667011E+04
       321  27 -5.323494E+05 -1.336966E+05 -9.166743E+04  1.380444E+04  8.654798E+04  1.777796E+04
       322   1  3.431245E+05  1.189147E+06  3.606502E+05 -2.966039E+05  8.371930E+03  1.334875E+05
       322   2  1.404522E+05  8.660903E+05  1.930893E+05 -2.020712E+05  2.234459E+04  6.670119E+04
       322   3  5.317831E+04  5.804057E+05  9.774746E+04 -2.085442E+05  1.218145E+04 -7.980214E+01
       322   4  1.333668E+05  3.452582E+05  1.561271E+05 -2.247209E+05  8.428813E+03  1.041181E+05
       322   5  9.473607E+03  3.290148E+05  7.538595E+04 -1.743196E+05  2.235201E+04  6.463681E+04
       322   6 -3.692155E+03  3.453792E+05  4.798105E+04 -2.249071E+05  1.213939E+04  2.512757E+04
       322   7 -7.642346E+04 -4.979683E+05 -4.844132E+04 -1.529354E+05  8.478955E+03  7.478825E+04
       322   8 -1.215214E+05 -2.077895E+05 -4.233456E+04 -1.465922E+05  2.235924E+04  6.257417E+04
       322   9 -6.056483E+04  1.104068E+05 -1.785972E+03 -2.412637E+05  1.209600E+04  5.032556E+04
       322  10  3.431196E+05  1.189128E+06  3.606166E+05 -2.966048E+05  3.106659E-10  8.138384E-11
       322  11  1.404505E+05  8.660854E+05  1.930801E+05 -2.020724E+05  2.110188E-10 -1.448713E-09
       322  12  5.317815E+04  5.804057E+05  9.774718E+04 -2.085442E+05  7.142307E-10 -1.109760E-10
       322  13  1.333638E+05  3.452466E+05  1.561066E+05 -2.247216E+05  5.000712E-10 -6.865885E-11
       322  14  9.471949E+03  3.290101E+05  7.537716E+04 -1.743208E+05 -9.762920E-10  7.899047E-10
       322  15 -3.692483E+03  3.453785E+05  4.797958E+04 -2.249074E+05  2.288869E-10 -1.800458E-09
       322  16 -7.642504E+04 -4.979743E+05 -4.845198E+04 -1.529359E+05  3.621537E-11 -3.851648E-10
       322  17 -1.215230E+05 -2.077939E+05 -4.234286E+04 -1.465933E+05  5.509359E-10  8.148826E-10
       322  18 -6.056567E+04  1.104040E+05 -1.791007E+03 -2.412642E+05 -3.798449E-11 -1.175536E-10
       322  19  3.431245E+05  1.189147E+06  3.606502E+05 -2.966039E+05 -8.371930E+03 -1.334875E+05
       322  20  1.404522E+05  8.660903E+05  1.930893E+05 -2.020712E+05 -2.234459E+04 -6.670119E+04
       322  21  5.317831E+04  5.804057E+05  9.774746E+04 -2.085442E+05 -1.218145E+04  7.980214E+01
       322  22  1.333668E+05  3.452582E+05  1.561271E+05 -2.247209E+05 -8.428813E+03 -1.041181E+05
       322  23  9.473607E+03  3.290148E+05  7.538595E+04 -1.743196E+05 -2.235201E+04 -6.463681E+04
       322  24 -3.692155E+03  3.453792E+05  4.798105E+04 -2.249071E+05 -1.213939E+04 -2.512757E+04
       322  25 -7.642346E+04 -4.979683E+05 -4.844132E+04 -1.529354E+05 -8.478955E+03 -7.478825E+04
       322  26 -1.215214E+05 -2.077895E+05 -4.233456E+04 -1.465922E+05 -2.235924E+04 -6.257417E+04
       322  27 -6.056483E+04  1.104068E+05 -1.785972E+03 -2.412637E+05 -1.209600E+04 -5.032556E+04
       323   1  8.596272E+03  3.494382E+05  4.429635E+04 -2.280376E+05 -4.265280E+02 -1.536664E+03
       323   2 -7.019897E+04  4.314613E+04 -2.671287E+04 -1.737494E+05 -1.739347E+04 -1.764309E+04
       323   3 -1.391234E+05 -2.587775E+05 -8.485335E+04 -2.216372E+05 -3.359580E+04 -3.373558E+04
       323   4  5.944238E+03  3.391256E+05  4.140263E+04 -2.251292E+05 -4.599068E+02  1.807053E+04
       323   5  6.621567E+02  3.368829E+05  3.391095E+04 -1.740438E+05 -1.742246E+04  1.094104E+03
       323   6  5.404961E+03  3.390704E+05  3.989297E+04 -2.251298E+05 -3.362072E+04 -1.587597E+04
       323   7  3.292433E+03  3.288139E+05  3.851035E+04 -2.222209E+05 -4.931022E+02  3.767740E+04
       323   8  7.151802E+04  6.307023E+05  9.453142E+04 -1.743383E+05 -1.745147E+04  1.984001E+04
       323   9  1.499107E+05  9.372571E+05  1.646208E+05 -2.286257E+05 -3.364582E+04  2.000557E+03
       323  10  8.596271E+03  3.494382E+05  4.429634E+04 -2.280376E+05  2.845243E-11  7.573439E-10
       323  11 -7.019938E+04  4.314572E+04 -2.671402E+04 -1.737496E+05  1.091658E-09 -1.611769E-09
       323  12 -1.391249E+05 -2.587790E+05 -8.485762E+04 -2.216381E+05 -2.322997E-10 -5.701448E-10
       323  13  5.944150E+03  3.391252E+05  4.140202E+04 -2.251292E+05  2.293612E-10  1.156147E-10
       323  14  6.618304E+02  3.368829E+05  3.391037E+04 -1.740437E+05  1.138340E-09  6.257791E-10
       323  15  5.403679E+03  3.390698E+05  3.989037E+04 -2.251303E+05  1.220934E-09 -1.737125E-09
       323  16  3.292052E+03  3.288124E+05  3.850768E+04 -2.222209E+05 -1.026401E-10 -9.667749E-10
       323  17  7.151759E+04  6.307018E+05  9.453011E+04 -1.743380E+05 -5.040417E-10  9.651611E-10
       323  18  1.499095E+05  9.372568E+05  1.646186E+05 -2.286257E+05 -3.788284E-10  3.416295E-10
       323  19  8.596272E+03  3.494382E+05  4.429635E+04 -2.280376E+05  4.265280E+02  1.536664E+03
       323  20 -7.019897E+04  4.314613E+04 -2.671287E+04 -1.737494E+05  1.739347E+04  1.764309E+04
       323  21 -1.391234E+05 -2.587775E+05 -8.485335E+04 -2.216372E+05  3.359580E+04  3.373558E+04
       323  22  5.944238E+03  3.391256E+05  4.140263E+04 -2.251292E+05  4.599068E+02 -1.807053E+04
       323  23  6.621567E+02  3.368829E+05  3.391095E+04 -1.740438E+05  1.742246E+04 -1.094104E+03
       323  24  5.404961E+03  3.390704E+05  3.989297E+04 -2.251298E+05  3.362072E+04  1.587597E+04
       323  25  3.292433E+03  3.288139E+05  3.851035E+04 -2.222209E+05  4.931022E+02 -3.767740E+04
       323  26  7.151802E+04  6.307023E+05  9.453142E+04 -1.743383E+05  1.745147E+04 -1.984001E+04
       323  27  1.499107E+05  9.372571E+05  1.646208E+05 -2.286257E+05  3.364582E+04 -2.000557E+03
       324   1 -2.023881E+05 -4.780168E+05 -1.255278E+05 -2.394325E+05 -4.688504E+04 -5.006097E+04
       324   2 -2.648837E+05 -7.941309E+05 -1.722227E+05 -1.482968E+05 -5.167131E+04 -4.296644E+04
       324   3 -2.314163E+05 -1.086938E+06 -1.995222E+05 -1.575045E+05 -1.732587E+04 -3.585106E+04
       324   4 -3.592060E+03  3.448700E+05  4.571512E+04 -2.247438E+05 -4.692070E+04 -2.265731E+04
       324   5  8.541918E+03  3.293473E+05  7.075809E+04 -1.745247E+05 -5.164441E+04 -5.970879E+04
       324   6  1.242035E+05  3.446408E+05  1.458105E+05 -2.246201E+05 -1.726928E+04 -9.673727E+04
       324   7  1.951621E+05  1.168400E+06  2.169239E+05 -2.100350E+05 -4.695503E+04  4.782093E+03
       324   8  2.818869E+05  1.454013E+06  3.136655E+05 -2.008002E+05 -5.161613E+04 -7.648099E+04
       324   9  4.796925E+05  1.778114E+06  4.910129E+05 -2.918906E+05 -1.719960E+04 -1.577633E+05
       324  10 -2.023911E+05 -4.780201E+05 -1.255367E+05 -2.394344E+05  1.953946E-10  2.458672E-10
       324  11 -2.648870E+05 -7.941336E+05 -1.722312E+05 -1.482986E+05  1.643022E-10 -9.035986E-10
       324  12 -2.314170E+05 -1.086940E+06 -1.995251E+05 -1.575050E+05 -1.135878E-10 -1.442883E-10
       324  13 -3.594563E+03  3.448688E+05  4.571002E+04 -2.247447E+05 -7.004380E-10  6.480513E-11
       324  14  8.538096E+03  3.293427E+05  7.074638E+04 -1.745272E+05  3.147257E-10  3.854107E-10
       324  15  1.242007E+05  3.446307E+05  1.457924E+05 -2.246215E+05 -1.002432E-10 -6.444966E-10
       324  16  1.951597E+05  1.168400E+06  2.169197E+05 -2.100348E+05  2.706499E-10 -6.280464E-10
       324  17  2.818824E+05  1.454006E+06  3.136495E+05 -2.008034E+05  9.144250E-11  2.521949E-10
       324  18  4.796855E+05  1.778087E+06  4.909657E+05 -2.918928E+05 -2.907922E-10  7.456978E-11
       324  19 -2.023881E+05 -4.780168E+05 -1.255278E+05 -2.394325E+05  4.688504E+04  5.006097E+04
       324  20 -2.648837E+05 -7.941309E+05 -1.722227E+05 -1.482968E+05  5.167131E+04  4.296644E+04
       324  21 -2.314163E+05 -1.086938E+06 -1.995222E+05 -1.575045E+05  1.732587E+04  3.585106E+04
       324  22 -3.592060E+03  3.448700E+05  4.571512E+04 -2.247438E+05  4.692070E+04  2.265731E+04
       324  23  8.541918E+03  3.293473E+05  7.075809E+04 -1.745247E+05  5.164441E+04  5.970879E+04
       324  24  1.242035E+05  3.446408E+05  1.458105E+05 -2.246201E+05  1.726928E+04  9.673727E+04
       324  25  1.951621E+05  1.168400E+06  2.169239E+05 -2.100350E+05  4.695503E+04 -4.782093E+03
       324  26  2.818869E+05  1.454013E+06  3.136655E+05 -2.008002E+05  5.161613E+04  7.648099E+04
       324  27  4.796925E+05  1.778114E+06  4.910129E+05 -2.918906E+05  1.719960E+04  1.577633E+05
       325   1 -2.469766E+06 -9.560105E+05 -5.471507E+05 -9.637228E+05 -2.697201E+05 -8.849949E+04
       325   2 -2.400241E+06 -6.025542E+05 -3.113458E+05 -9.382862E+05 -1.709696E+05 -2.321685E+04
       325   3 -2.412834E+06 -4.909210E+05 -2.175800E+05 -8.760342E+05 -6.410405E+04  2.054438E+04
       325   4 -1.823302E+06 -5.641125E+05 -3.485406E+05 -6.345023E+05 -2.277439E+05 -7.280145E+04
       325   5 -1.765465E+06 -3.097009E+05 -1.559094E+05 -7.039593E+05 -1.544997E+05 -1.705144E+04
       325   6 -1.784587E+06 -2.919378E+05 -8.496270E+04 -7.366356E+05 -7.315006E+04  1.714729E+04
       325   7 -1.176379E+06 -1.719444E+05 -1.499617E+05 -3.049087E+05 -1.857207E+05 -5.706026E+04
       325   8 -1.130273E+06 -1.674856E+04 -5.014315E+02 -4.693903E+05 -1.380115E+05 -1.087528E+04
       325   9 -1.155933E+06 -9.294508E+04  4.763519E+04 -5.971168E+05 -8.220607E+04  1.374765E+04
       325  10 -2.469846E+06 -9.560386E+05 -5.473028E+05 -9.637421E+05  3.270105E-10  8.589751E-11
       325  11 -2.400272E+06 -6.025627E+05 -3.114019E+05 -9.382894E+05  1.456959E-11  8.441350E-11
       325  12 -2.412838E+06 -4.909226E+05 -2.175886E+05 -8.760332E+05 -4.116776E-10  1.581856E-10
       325  13 -1.823359E+06 -5.641321E+05 -3.486484E+05 -6.345157E+05  3.331083E-10  6.947384E-10
       325  14 -1.765491E+06 -3.097077E+05 -1.559550E+05 -7.039614E+05 -1.282758E-09  5.695116E-10
       325  15 -1.784593E+06 -2.919395E+05 -8.497333E+04 -7.366346E+05 -1.410019E-09  4.276475E-10
       325  16 -1.176417E+06 -1.719572E+05 -1.500327E+05 -3.049173E+05 -4.342710E-10 -1.713593E-12
       325  17 -1.130294E+06 -1.675381E+04 -5.375171E+02 -4.693916E+05 -5.968322E-11 -3.036553E-10
       325  18 -1.155940E+06 -9.294710E+04  4.762212E+04 -5.971159E+05 -2.563095E-10  3.053894E-10
       325  19 -2.469766E+06 -9.560105E+05 -5.471507E+05 -9.637228E+05  2.697201E+05  8.849949E+04
       325  20 -2.400241E+06 -6.025542E+05 -3.113458E+05 -9.382862E+05  1.709696E+05  2.321685E+04
       325  21 -2.412834E+06 -4.909210E+05 -2.175800E+05 -8.760342E+05  6.410405E+04 -2.054438E+04
       325  22 -1.823302E+06 -5.641125E+05 -3.485406E+05 -6.345023E+05  2.277439E+05  7.280145E+04
       325  23 -1.765465E+06 -3.097009E+05 -1.559094E+05 -7.039593E+05  1.544997E+05  1.705144E+04
       325  24 -1.784587E+06 -2.919378E+05 -8.496270E+04 -7.366356E+05  7.315006E+04 -1.714729E+04
       325  25 -1.176379E+06 -1.719444E+05 -1.499617E+05 -3.049087E+05  1.857207E+05  5.706026E+04
       325  26 -1.130273E+06 -1.674856E+04 -5.014315E+02 -4.693903E+05  1.380115E+05  1.087528E+04
       325  27 -1.155933E+06 -9.294508E+04  4.763519E+04 -5.971168E+05  8.220607E+04 -1.374765E+04
       326   1 -2.320628E+06 -5.135974E+05 -1.867643E+05 -8.798269E+05 -5.778692E+04  1.837123E+04
       326   2 -2.252043E+06 -4.640678E+05 -1.379309E+05 -8.495065E+05 -3.755914E+04  2.169496E+04
       326   3 -2.172068E+06 -4.422918E+05 -1.058299E+05 -8.374564E+05 -1.688869E+04  2.384011E+04
       326   4 -1.773784E+06 -3.082853E+05 -6.581624E+04 -7.252717E+05 -6.155889E+04  1.695188E+04
       326   5 -1.778809E+06 -2.889946E+05 -3.462632E+04 -7.182089E+05 -4.271550E+04  1.975769E+04
       326   6 -1.772169E+06 -2.971752E+05 -1.905668E+04 -7.294175E+05 -2.343207E+04  2.138430E+04
       326   7 -1.226637E+06 -1.029467E+05  5.511336E+04 -5.705900E+05 -6.533445E+04  1.553113E+04
       326   8 -1.305350E+06 -1.139037E+05  6.866446E+04 -5.868194E+05 -4.787609E+04  1.781883E+04
       326   9 -1.372110E+06 -1.520482E+05  6.770651E+04 -6.213157E+05 -2.997997E+04  1.892685E+04
       326  10 -2.320632E+06 -5.135987E+05 -1.867712E+05 -8.798260E+05 -3.123919E-10  3.417453E-10
       326  11 -2.252045E+06 -4.640687E+05 -1.379344E+05 -8.495058E+05 -9.402387E-10  1.168586E-10
       326  12 -2.172069E+06 -4.422925E+05 -1.058315E+05 -8.374561E+05  8.363649E-10 -5.331098E-10
       326  13 -1.773788E+06 -3.082866E+05 -6.582392E+04 -7.252709E+05 -2.871381E-10  2.707929E-10
       326  14 -1.778812E+06 -2.889955E+05 -3.463049E+04 -7.182082E+05  6.472366E-10  5.391732E-11
       326  15 -1.772170E+06 -2.971759E+05 -1.905857E+04 -7.294171E+05  4.975164E-10 -6.957898E-10
       326  16 -1.226641E+06 -1.029481E+05  5.510487E+04 -5.705892E+05 -5.632689E-10  3.963597E-10
       326  17 -1.305352E+06 -1.139047E+05  6.865955E+04 -5.868187E+05 -1.183736E-10 -2.278481E-10
       326  18 -1.372111E+06 -1.520488E+05  6.770415E+04 -6.213152E+05 -5.196988E-10 -1.082327E-09
       326  19 -2.320628E+06 -5.135974E+05 -1.867643E+05 -8.798269E+05  5.778692E+04 -1.837123E+04
       326  20 -2.252043E+06 -4.640678E+05 -1.379309E+05 -8.495065E+05  3.755914E+04 -2.169496E+04
       326  21 -2.172068E+06 -4.422918E+05 -1.058299E+05 -8.374564E+05  1.688869E+04 -2.384011E+04
       326  22 -1.773784E+06 -3.082853E+05 -6.581624E+04 -7.252717E+05  6.155889E+04 -1.695188E+04
       326  23 -1.778809E+06 -2.889946E+05 -3.462632E+04 -7.182089E+05  4.271550E+04 -1.975769E+04
       326  24 -1.772169E+06 -2.971752E+05 -1.905668E+04 -7.294175E+05  2.343207E+04 -2.138430E+04
       326  25 -1.226637E+06 -1.029467E+05  5.511336E+04 -5.705900E+05  6.533445E+04 -1.553113E+04
       326  26 -1.305350E+06 -1.139037E+05  6.866446E+04 -5.868194E+05  4.787609E+04 -1.781883E+04
       326  27 -1.372110E+06 -1.520482E+05  6.770651E+04 -6.213157E+05  2.997997E+04 -1.892685E+04
       327   1 -2.115142E+06 -4.238922E+05 -8.878371E+04 -8.231715E+05 -1.327777E+04  2.155991E+04
       327   2 -2.047233E+06 -3.866147E+05 -6.588466E+04 -7.920640E+05 -7.262238E+03  1.774664E+04
       327   3 -1.962261E+06 -3.675916E+05 -4.609854E+04 -7.813395E+05 -1.219741E+03  1.385844E+04
       327   4 -1.771345E+06 -2.978564E+05 -1.437636E+04 -7.288585E+05 -1.955554E+04  1.920455E+04
       327   5 -1.779849E+06 -2.885745E+05 -7.888253E+03 -7.187229E+05 -1.362712E+04  1.535960E+04
       327   6 -1.771280E+06 -2.975298E+05 -4.442871E+03 -7.289724E+05 -7.672293E+03  1.143956E+04
       327   7 -1.427426E+06 -1.718104E+05  6.002489E+04 -6.344968E+05 -2.583713E+04  1.684777E+04
       327   8 -1.512392E+06 -1.905284E+05  5.010438E+04 -6.453525E+05 -1.999500E+04  1.297144E+04
       327   9 -1.580262E+06 -2.274653E+05  3.721081E+04 -6.765905E+05 -1.412700E+04  9.019881E+03
       327  10 -2.115142E+06 -4.238928E+05 -8.878491E+04 -8.231713E+05 -3.344172E-10 -1.126642E-09
       327  11 -2.047233E+06 -3.866151E+05 -6.588535E+04 -7.920639E+05 -7.096888E-10 -6.232442E-10
       327  12 -1.962261E+06 -3.675918E+05 -4.609891E+04 -7.813395E+05  8.626177E-10  4.036777E-10
       327  13 -1.771346E+06 -2.978569E+05 -1.437777E+04 -7.288582E+05  9.058507E-10 -6.082564E-10
       327  14 -1.779850E+06 -2.885748E+05 -7.889045E+03 -7.187228E+05 -8.272769E-11 -5.395933E-10
       327  15 -1.771280E+06 -2.975300E+05 -4.443228E+03 -7.289724E+05 -7.280778E-10 -2.605292E-10
       327  16 -1.427426E+06 -1.718109E+05  6.002310E+04 -6.344965E+05  1.166183E-09 -4.755061E-10
       327  17 -1.512392E+06 -1.905287E+05  5.010331E+04 -6.453523E+05  2.274757E-10  6.160880E-11
       327  18 -1.580262E+06 -2.274654E+05  3.721028E+04 -6.765904E+05 -2.221268E-10 -1.625893E-10
       327  19 -2.115142E+06 -4.238922E+05 -8.878371E+04 -8.231715E+05  1.327777E+04 -2.155991E+04
       327  20 -2.047233E+06 -3.866147E+05 -6.588466E+04 -7.920640E+05  7.262238E+03 -1.774664E+04
       327  21 -1.962261E+06 -3.675916E+05 -4.609854E+04 -7.813395E+05  1.219741E+03 -1.385844E+04
       327  22 -1.771345E+06 -2.978564E+05 -1.437636E+04 -7.288585E+05  1.955554E+04 -1.920455E+04
       327  23 -1.779849E+06 -2.885745E+05 -7.888253E+03 -7.187229E+05  1.362712E+04 -1.535960E+04
       327  24 -1.771280E+06 -2.975298E+05 -4.442871E+03 -7.289724E+05  7.672293E+03 -1.143956E+04
       327  25 -1.427426E+06 -1.718104E+05  6.002489E+04 -6.344968E+05  2.583713E+04 -1.684777E+04
       327  26 -1.512392E+06 -1.905284E+05  5.010438E+04 -6.453525E+05  1.999500E+04 -1.297144E+04
       327  27 -1.580262E+06 -2.274653E+05  3.721081E+04 -6.765905E+05  1.412700E+04 -9.019881E+03
       328   1 -1.906833E+06 -3.472765E+05 -3.259297E+04 -7.661936E+05  6.101936E+02  1.093712E+04
       328   2 -1.838933E+06 -3.102396E+05 -1.489445E+04 -7.348711E+05  3.706190E+03  5.905126E+03
       328   3 -1.753368E+06 -2.910526E+05  2.007153E+03 -7.240001E+05  6.804102E+03  8.671529E+02
       328   4 -1.771162E+06 -2.975575E+05 -3.413703E+03 -7.289431E+05 -5.836142E+03  8.520959E+03
       328   5 -1.779991E+06 -2.886399E+05 -2.117145E+03 -7.187129E+05 -2.747407E+03  3.486475E+03
       328   6 -1.771160E+06 -2.975710E+05 -1.611560E+03 -7.289364E+05  3.431121E+02 -1.554041E+03
       328   7 -1.635472E+06 -2.478374E+05  2.576442E+04 -6.916854E+05 -1.228396E+04  6.104250E+03
       328   8 -1.721045E+06 -2.670398E+05  1.066013E+04 -7.025532E+05 -9.201667E+03  1.067577E+03
       328   9 -1.788951E+06 -3.040894E+05 -5.230143E+03 -7.338727E+05 -6.117722E+03 -3.975175E+03
       328  10 -1.906833E+06 -3.472766E+05 -3.259320E+04 -7.661936E+05 -3.643266E-10  4.635168E-10
       328  11 -1.838933E+06 -3.102397E+05 -1.489454E+04 -7.348711E+05  2.665962E-10  1.163033E-09
       328  12 -1.753368E+06 -2.910526E+05  2.007064E+03 -7.240001E+05  9.066672E-10  5.696664E-10
       328  13 -1.771162E+06 -2.975576E+05 -3.413903E+03 -7.289431E+05  6.077826E-11  4.234873E-10
       328  14 -1.779991E+06 -2.886399E+05 -2.117182E+03 -7.187129E+05 -1.573567E-09 -1.476899E-10
       328  15 -1.771160E+06 -2.975710E+05 -1.611565E+03 -7.289364E+05  3.433341E-11  2.059848E-10
       328  16 -1.635472E+06 -2.478375E+05  2.576407E+04 -6.916853E+05  1.069399E-10  1.413687E-10
       328  17 -1.721045E+06 -2.670398E+05  1.065997E+04 -7.025532E+05 -1.385132E-09  1.872857E-10
       328  18 -1.788951E+06 -3.040895E+05 -5.230243E+03 -7.338727E+05 -1.223967E-09 -1.291877E-10
       328  19 -1.906833E+06 -3.472765E+05 -3.259297E+04 -7.661936E+05 -6.101936E+02 -1.093712E+04
       328  20 -1.838933E+06 -3.102396E+05 -1.489445E+04 -7.348711E+05 -3.706190E+03 -5.905126E+03
       328  21 -1.753368E+06 -2.910526E+05  2.007153E+03 -7.240001E+05 -6.804102E+03 -8.671529E+02
       328  22 -1.771162E+06 -2.975575E+05 -3.413703E+03 -7.289431E+05  5.836142E+03 -8.520959E+03
       328  23 -1.779991E+06 -2.886399E+05 -2.117145E+03 -7.187129E+05  2.747407E+03 -3.486475E+03
       328  24 -1.771160E+06 -2.975710E+05 -1.611560E+03 -7.289364E+05 -3.431121E+02  1.554041E+03
       328  25 -1.635472E+06 -2.478374E+05  2.576442E+04 -6.916854E+05  1.228396E+04 -6.104250E+03
       328  26 -1.721045E+06 -2.670398E+05  1.066013E+04 -7.025532E+05  9.201667E+03 -1.067577E+03
       328  27 -1.788951E+06 -3.040894E+05 -5.230143E+03 -7.338727E+05  6.117722E+03  3.975175E+03
       329   1 -1.698020E+06 -2.706222E+05  1.453329E+04 -7.087898E+05  8.253987E+03 -2.199011E+03
       329   2 -1.630210E+06 -2.336208E+05  3.053656E+04 -6.774967E+05  1.124842E+04 -7.269873E+03
       329   3 -1.544738E+06 -2.144403E+05  4.582097E+04 -6.666248E+05  1.423984E+04 -1.232986E+04
       329   4 -1.771163E+06 -2.975671E+05 -1.581605E+03 -7.289296E+05  1.795153E+03 -4.619510E+03
       329   5 -1.779994E+06 -2.886578E+05 -1.951556E+03 -7.187186E+05  4.801706E+03 -9.686414E+03
       329   6 -1.771172E+06 -2.975724E+05 -3.049890E+03 -7.289315E+05  7.805094E+03 -1.474246E+04
       329   7 -1.844300E+06 -3.245115E+05 -1.769665E+04 -7.490672E+05 -4.662854E+03 -7.039699E+03
       329   8 -1.929755E+06 -3.436927E+05 -3.444066E+04 -7.599313E+05 -1.643306E+03 -1.210232E+04
       329   9 -1.997552E+06 -3.806999E+05 -5.192312E+04 -7.912169E+05  1.372934E+03 -1.715410E+04
       329  10 -1.698020E+06 -2.706222E+05  1.453316E+04 -7.087898E+05 -6.106742E-10 -5.542440E-10
       329  11 -1.630210E+06 -2.336209E+05  3.053622E+04 -6.774966E+05 -5.374123E-11  7.758571E-11
       329  12 -1.544738E+06 -2.144405E+05  4.582030E+04 -6.666246E+05  4.407682E-10 -4.653209E-10
       329  13 -1.771163E+06 -2.975671E+05 -1.581651E+03 -7.289296E+05 -7.371448E-11 -2.741689E-10
       329  14 -1.779994E+06 -2.886579E+05 -1.951776E+03 -7.187186E+05  1.002025E-09 -1.577443E-10
       329  15 -1.771172E+06 -2.975727E+05 -3.050412E+03 -7.289314E+05  5.004497E-11 -3.618893E-10
       329  16 -1.844300E+06 -3.245116E+05 -1.769678E+04 -7.490673E+05  9.075741E-10  1.054094E-10
       329  17 -1.929755E+06 -3.436929E+05 -3.444095E+04 -7.599313E+05  5.410880E-10 -4.551079E-10
       329  18 -1.997552E+06 -3.807002E+05 -5.192367E+04 -7.912169E+05 -4.407901E-10 -6.078387E-10
       329  19 -1.698020E+06 -2.706222E+05  1.453329E+04 -7.087898E+05 -8.253987E+03  2.199011E+03
       329  20 -1.630210E+06 -2.336208E+05  3.053656E+04 -6.774967E+05 -1.124842E+04  7.269873E+03
       329  21 -1.544738E+06 -2.144403E+05  4.582097E+04 -6.666248E+05 -1.423984E+04  1.232986E+04
       329  22 -1.771163E+06 -2.975671E+05 -1.581605E+03 -7.289296E+05 -1.795153E+03  4.619510E+03
       329  23 -1.779994E+06 -2.886578E+05 -1.951556E+03 -7.187186E+05 -4.801706E+03  9.686414E+03
       329  24 -1.771172E+06 -2.975724E+05 -3.049890E+03 -7.289315E+05 -7.805094E+03  1.474246E+04
       329  25 -1.844300E+06 -3.245115E+05 -1.769665E+04 -7.490672E+05  4.662854E+03  7.039699E+03
       329  26 -1.929755E+06 -3.436927E+05 -3.444066E+04 -7.599313E+05  1.643306E+03  1.210232E+04
       329  27 -1.997552E+06 -3.806999E+05 -5.192312E+04 -7.912169E+05 -1.372934E+03  1.715410E+04
       330   1 -1.489653E+06 -1.940926E+05  5.737841E+04 -6.515269E+05  1.600604E+04 -1.526604E+04
       330   2 -1.422084E+06 -1.572849E+05  7.064728E+04 -6.203840E+05  2.138716E+04 -1.937719E+04
       330   3 -1.337386E+06 -1.385640E+05  8.131980E+04 -6.095316E+05  2.673852E+04 -2.340123E+04
       330   4 -1.771286E+06 -2.975382E+05 -3.940479E+03 -7.289417E+05  9.567390E+03 -1.768070E+04
       330   5 -1.779870E+06 -2.886365E+05 -6.952495E+03 -7.187421E+05  1.504893E+04 -2.175559E+04
       330   6 -1.771352E+06 -2.978440E+05 -1.264218E+04 -7.288371E+05  2.050024E+04 -2.574347E+04
       330   7 -2.052841E+06 -4.009784E+05 -6.526448E+04 -8.063247E+05  3.131856E+03 -2.009420E+04
       330   8 -2.137527E+06 -4.199786E+05 -8.456003E+04 -8.170484E+05  8.714627E+03 -2.413252E+04
       330   9 -2.205126E+06 -4.571092E+05 -1.066151E+05 -8.480658E+05  1.426668E+04 -2.808396E+04
       330  10 -1.489653E+06 -1.940930E+05  5.737749E+04 -6.515267E+05 -5.775338E-10 -5.878423E-10
       330  11 -1.422085E+06 -1.572854E+05  7.064571E+04 -6.203836E+05  9.145798E-10  6.058441E-10
       330  12 -1.337387E+06 -1.385648E+05  8.131742E+04 -6.095311E+05  6.334332E-10  5.177386E-10
       330  13 -1.771287E+06 -2.975386E+05 -3.941238E+03 -7.289416E+05 -2.381197E-10 -2.545076E-10
       330  14 -1.779870E+06 -2.886371E+05 -6.953809E+03 -7.187418E+05  6.881761E-10  6.046134E-10
       330  15 -1.771352E+06 -2.978448E+05 -1.264422E+04 -7.288366E+05 -3.124157E-10  3.321903E-10
       330  16 -2.052841E+06 -4.009788E+05 -6.526525E+04 -8.063247E+05  5.216246E-10  3.828885E-11
       330  17 -2.137527E+06 -4.199792E+05 -8.456126E+04 -8.170483E+05 -8.039077E-10 -7.458758E-11
       330  18 -2.205127E+06 -4.571101E+05 -1.066170E+05 -8.480655E+05 -4.457364E-10  2.631891E-11
       330  19 -1.489653E+06 -1.940926E+05  5.737841E+04 -6.515269E+05 -1.600604E+04  1.526604E+04
       330  20 -1.422084E+06 -1.572849E+05  7.064728E+04 -6.203840E+05 -2.138716E+04  1.937719E+04
       330  21 -1.337386E+06 -1.385640E+05  8.131980E+04 -6.095316E+05 -2.673852E+04  2.340123E+04
       330  22 -1.771286E+06 -2.975382E+05 -3.940479E+03 -7.289417E+05 -9.567390E+03  1.768070E+04
       330  23 -1.779870E+06 -2.886365E+05 -6.952495E+03 -7.187421E+05 -1.504893E+04  2.175559E+04
       330  24 -1.771352E+06 -2.978440E+05 -1.264218E+04 -7.288371E+05 -2.050024E+04  2.574347E+04
       330  25 -2.052841E+06 -4.009784E+05 -6.526448E+04 -8.063247E+05 -3.131856E+03  2.009420E+04
       330  26 -2.137527E+06 -4.199786E+05 -8.456003E+04 -8.170484E+05 -8.714627E+03  2.413252E+04
       330  27 -2.205126E+06 -4.571092E+05 -1.066151E+05 -8.480658E+05 -1.426668E+04  2.808396E+04
       331   1 -1.282403E+06 -1.188130E+05  8.950850E+04 -5.961546E+05  3.058162E+04 -2.558112E+04
       331   2 -1.216079E+06 -8.105400E+04  9.230315E+04 -5.622599E+05  4.617582E+04 -2.524235E+04
       331   3 -1.137145E+06 -6.913711E+04  8.261270E+04 -5.467159E+05  6.128193E+04 -2.359086E+04
       331   4 -1.772094E+06 -2.972341E+05 -1.675122E+04 -7.293113E+05  2.404978E+04 -2.803452E+04
       331   5 -1.778954E+06 -2.890457E+05 -3.042833E+04 -7.183097E+05  4.118932E+04 -2.711784E+04
       331   6 -1.773522E+06 -3.070138E+05 -5.782687E+04 -7.256622E+05  5.783888E+04 -2.488858E+04
       331   7 -2.261538E+06 -4.756361E+05 -1.230240E+05 -8.623708E+05  1.752355E+04 -3.048585E+04
       331   8 -2.341508E+06 -4.970117E+05 -1.531787E+05 -8.742290E+05  3.620770E+04 -2.899148E+04
       331   9 -2.409494E+06 -5.448572E+05 -1.982925E+05 -9.044397E+05  5.439961E+04 -2.618484E+04
       331  10 -1.282405E+06 -1.188139E+05  8.950551E+04 -5.961540E+05  2.984095E-10 -5.541597E-12
       331  11 -1.216081E+06 -8.105526E+04  9.229794E+04 -5.622590E+05 -1.668973E-10 -4.014849E-10
       331  12 -1.137149E+06 -6.913871E+04  8.260459E+04 -5.467147E+05  6.185009E-11 -1.422610E-10
       331  13 -1.772095E+06 -2.972351E+05 -1.675378E+04 -7.293107E+05  2.001213E-10  2.273568E-11
       331  14 -1.778956E+06 -2.890470E+05 -3.043290E+04 -7.183088E+05 -8.663542E-10 -2.473654E-10
       331  15 -1.773526E+06 -3.070154E+05 -5.783433E+04 -7.256610E+05  7.179921E-10 -3.219551E-10
       331  16 -2.261539E+06 -4.756372E+05 -1.230263E+05 -8.623703E+05 -2.307575E-10 -1.776996E-11
       331  17 -2.341509E+06 -4.970130E+05 -1.531827E+05 -8.742282E+05 -6.630678E-10 -7.544538E-11
       331  18 -2.409497E+06 -5.448588E+05 -1.982993E+05 -9.044386E+05 -3.706322E-10  2.904729E-10
       331  19 -1.282403E+06 -1.188130E+05  8.950850E+04 -5.961546E+05 -3.058162E+04  2.558112E+04
       331  20 -1.216079E+06 -8.105400E+04  9.230315E+04 -5.622599E+05 -4.617582E+04  2.524235E+04
       331  21 -1.137145E+06 -6.913711E+04  8.261270E+04 -5.467159E+05 -6.128193E+04  2.359086E+04
       331  22 -1.772094E+06 -2.972341E+05 -1.675122E+04 -7.293113E+05 -2.404978E+04  2.803452E+04
       331  23 -1.778954E+06 -2.890457E+05 -3.042833E+04 -7.183097E+05 -4.118932E+04  2.711784E+04
       331  24 -1.773522E+06 -3.070138E+05 -5.782687E+04 -7.256622E+05 -5.783888E+04  2.488858E+04
       331  25 -2.261538E+06 -4.756361E+05 -1.230240E+05 -8.623708E+05 -1.752355E+04  3.048585E+04
       331  26 -2.341508E+06 -4.970117E+05 -1.531787E+05 -8.742290E+05 -3.620770E+04  2.899148E+04
       331  27 -2.409494E+06 -5.448572E+05 -1.982925E+05 -9.044397E+05 -5.439961E+04  2.618484E+04
       332   1 -1.068723E+06 -5.796392E+04  7.730788E+04 -5.681494E+05  7.754426E+04 -2.211924E+04
       332   2 -1.039157E+06  1.313840E+04  3.841913E+04 -4.528414E+05  1.200956E+05 -1.342058E+03
       332   3 -1.069683E+06 -1.195576E+05 -8.474201E+04 -3.072028E+05  1.536445E+05  4.338729E+04
       332   4 -1.783069E+06 -2.926010E+05 -7.464679E+04 -7.355779E+05  6.823425E+04 -2.561866E+04
       332   5 -1.767182E+06 -3.073291E+05 -1.369842E+05 -7.058731E+05  1.391851E+05  5.819241E+03
       332   6 -1.817139E+06 -5.316686E+05 -3.062203E+05 -6.458203E+05  2.011214E+05  6.120691E+04
       332   7 -2.496900E+06 -5.272238E+05 -2.266304E+05 -9.028411E+05  5.893580E+04 -2.911482E+04
       332   8 -2.494654E+06 -6.276860E+05 -3.124209E+05 -9.586068E+05  1.582501E+05  1.296734E+04
       332   9 -2.563975E+06 -9.435057E+05 -5.277322E+05 -9.839927E+05  2.485344E+05  7.897721E+04
       332  10 -1.068730E+06 -5.796606E+04  7.729565E+04 -5.681480E+05 -4.901894E-10  4.992098E-10
       332  11 -1.039172E+06  1.313452E+04  3.839198E+04 -4.528413E+05 -1.157899E-10  2.037493E-09
       332  12 -1.069709E+06 -1.195660E+05 -8.479000E+04 -3.072082E+05  4.034306E-10  3.367010E-10
       332  13 -1.783074E+06 -2.926029E+05 -7.465679E+04 -7.355765E+05 -8.247858E-11  3.276163E-11
       332  14 -1.767203E+06 -3.073343E+05 -1.370208E+05 -7.058737E+05  1.696476E-09 -6.317859E-11
       332  15 -1.817183E+06 -5.316836E+05 -3.063036E+05 -6.458302E+05 -2.087144E-10  7.267977E-10
       332  16 -2.496904E+06 -5.272256E+05 -2.266385E+05 -9.028397E+05 -7.611256E-10  8.231233E-10
       332  17 -2.494681E+06 -6.276929E+05 -3.124685E+05 -9.586084E+05  2.534527E-11 -5.395298E-10
       332  18 -2.564044E+06 -9.435291E+05 -5.278606E+05 -9.840086E+05 -1.927746E-09 -1.809971E-10
       332  19 -1.068723E+06 -5.796392E+04  7.730788E+04 -5.681494E+05 -7.754426E+04  2.211924E+04
       332  20 -1.039157E+06  1.313840E+04  3.841913E+04 -4.528414E+05 -1.200956E+05  1.342058E+03
       332  21 -1.069683E+06 -1.195576E+05 -8.474201E+04 -3.072028E+05 -1.536445E+05 -4.338729E+04
       332  22 -1.783069E+06 -2.926010E+05 -7.464679E+04 -7.355779E+05 -6.823425E+04  2.561866E+04
       332  23 -1.767182E+06 -3.073291E+05 -1.369842E+05 -7.058731E+05 -1.391851E+05 -5.819241E+03
       332  24 -1.817139E+06 -5.316686E+05 -3.062203E+05 -6.458203E+05 -2.011214E+05 -6.120691E+04
       332  25 -2.496900E+06 -5.272238E+05 -2.266304E+05 -9.028411E+05 -5.893580E+04  2.911482E+04
       332  26 -2.494654E+06 -6.276860E+05 -3.124209E+05 -9.586068E+05 -1.582501E+05 -1.296734E+04
       332  27 -2.563975E+06 -9.435057E+05 -5.277322E+05 -9.839927E+05 -2.485344E+05 -7.897721E+04
       333   1 -4.510991E+05 -1.066524E+05 -6.921043E+04  2.289106E+03  8.219903E+04  1.504899E+04
       333   2 -3.511621E+05 -2.280728E+05 -1.202198E+05 -3.358113E+04  6.717470E+04  4.752064E+04
       333   3 -2.155399E+05 -2.160374E+05 -1.280232E+05 -1.075708E+05  5.218431E+04  5.086356E+04
       333   4  6.547323E+05  1.672898E+05  1.961985E+05 -8.593434E+04  1.354168E+05  1.509979E+04
       333   5  6.341383E+05  1.116940E+04  9.120475E+04 -6.679435E+04  8.748480E+04  4.753081E+04
       333   6  6.548547E+05 -5.912115E+03  5.220198E+04 -8.576334E+04  3.959205E+04  5.085130E+04
       333   7  1.761707E+06  4.411743E+05  4.615356E+05 -1.743159E+05  1.887288E+05  1.513543E+04
       333   8  1.620355E+06  2.503525E+05  3.025749E+05 -1.000612E+05  1.078266E+05  4.753880E+04
       333   9  1.525969E+06  2.041670E+05  2.323868E+05 -6.392488E+04  2.698241E+04  5.083817E+04
       333  10 -4.511064E+05 -1.066545E+05 -6.922357E+04  2.288110E+03  7.821668E-10 -1.203599E-09
       333  11 -3.511675E+05 -2.280765E+05 -1.202326E+05 -3.358370E+04 -1.557983E-09  6.053186E-10
       333  12 -2.155436E+05 -2.160409E+05 -1.280332E+05 -1.075729E+05 -3.036335E-09 -1.141035E-10
       333  13  6.547126E+05  1.672847E+05  1.961636E+05 -8.593599E+04  4.909130E-10  1.004500E-09
       333  14  6.341295E+05  1.116492E+04  9.118613E+04 -6.679770E+04  1.926714E-10  3.359771E-10
       333  15  6.548524E+05 -5.915313E+03  5.219417E+04 -8.576496E+04 -5.548275E-10 -5.452071E-10
       333  16  1.761668E+06  4.411645E+05  4.614684E+05 -1.743182E+05 -1.174077E-09  9.723294E-10
       333  17  1.620342E+06  2.503469E+05  3.025488E+05 -1.000653E+05  2.162881E-09  5.331756E-10
       333  18  1.525967E+06  2.041641E+05  2.323806E+05 -6.392598E+04  3.715084E-09  1.453133E-09
       333  19 -4.510991E+05 -1.066524E+05 -6.921043E+04  2.289106E+03 -8.219903E+04 -1.504899E+04
       333  20 -3.511621E+05 -2.280728E+05 -1.202198E+05 -3.358113E+04 -6.717470E+04 -4.752064E+04
       333  21 -2.155399E+05 -2.160374E+05 -1.280232E+05 -1.075708E+05 -5.218431E+04 -5.086356E+04
       333  22  6.547323E+05  1.672898E+05  1.961985E+05 -8.593434E+04 -1.354168E+05 -1.509979E+04
       333  23  6.341383E+05  1.116940E+04  9.120475E+04 -6.679435E+04 -8.748480E+04 -4.753081E+04
       333  24  6.548547E+05 -5.912115E+03  5.220198E+04 -8.576334E+04 -3.959205E+04 -5.085130E+04
       333  25  1.761707E+06  4.411743E+05  4.615356E+05 -1.743159E+05 -1.887288E+05 -1.513543E+04
       333  26  1.620355E+06  2.503525E+05  3.025749E+05 -1.000612E+05 -1.078266E+05 -4.753880E+04
       333  27  1.525969E+06  2.041670E+05  2.323868E+05 -6.392488E+04 -2.698241E+04 -5.083817E+04
       334   1 -1.369837E+05 -1.824120E+05 -1.218035E+05 -8.412774E+04  3.770519E+04  4.506453E+04
       334   2 -2.156923E+04 -1.607632E+05 -1.149967E+05 -6.623714E+04  2.818470E+04  3.963334E+04
       334   3  9.677242E+04 -1.330474E+05 -1.004353E+05 -8.760764E+04  1.865875E+04  3.271245E+04
       334   4  6.464085E+05  6.767348E+03  4.091057E+04 -8.605988E+04  3.245299E+04  4.505713E+04
       334   5  6.448340E+05 -3.586700E+01  2.244994E+04 -6.642953E+04  2.123898E+04  3.962736E+04
       334   6  6.464624E+05 -4.824061E+02  1.291113E+04 -8.605737E+04  1.002126E+04  3.270863E+04
       334   7  1.430382E+06  1.959078E+05  2.035912E+05 -8.799454E+04  2.719426E+04  4.504977E+04
       334   8  1.311658E+06  1.606635E+05  1.598728E+05 -6.662216E+04  1.428592E+04  3.962139E+04
       334   9  1.196439E+06  1.320636E+05  1.262415E+05 -8.450569E+04  1.376251E+03  3.270478E+04
       334  10 -1.369858E+05 -1.824146E+05 -1.218100E+05 -8.412911E+04  4.742012E-10 -3.161390E-10
       334  11 -2.157051E+04 -1.607651E+05 -1.150011E+05 -6.623804E+04  6.301283E-11 -5.830471E-10
       334  12  9.677175E+04 -1.330487E+05 -1.004379E+05 -8.760813E+04 -1.406501E-09 -3.840323E-10
       334  13  6.464068E+05  6.764885E+03  4.090478E+04 -8.606106E+04 -7.623364E-11  1.062412E-09
       334  14  6.448331E+05 -3.767482E+01  2.244614E+04 -6.643021E+04 -3.305181E-10  1.494825E-10
       334  15  6.464620E+05 -4.835822E+02  1.290893E+04 -8.605763E+04 -8.375730E-10 -6.735752E-10
       334  16  1.430380E+06  1.959054E+05  2.035860E+05 -8.799552E+04 -9.646184E-10  6.791188E-10
       334  17  1.311658E+06  1.606617E+05  1.598695E+05 -6.662261E+04  3.074263E-10  3.849849E-11
       334  18  1.196439E+06  1.320624E+05  1.262395E+05 -8.450573E+04  1.050835E-09 -4.211279E-10
       334  19 -1.369837E+05 -1.824120E+05 -1.218035E+05 -8.412774E+04 -3.770519E+04 -4.506453E+04
       334  20 -2.156923E+04 -1.607632E+05 -1.149967E+05 -6.623714E+04 -2.818470E+04 -3.963334E+04
       334  21  9.677242E+04 -1.330474E+05 -1.004353E+05 -8.760764E+04 -1.865875E+04 -3.271245E+04
       334  22  6.464085E+05  6.767348E+03  4.091057E+04 -8.605988E+04 -3.245299E+04 -4.505713E+04
       334  23  6.448340E+05 -3.586700E+01  2.244994E+04 -6.642953E+04 -2.123898E+04 -3.962736E+04
       334  24  6.464624E+05 -4.824061E+02  1.291113E+04 -8.605737E+04 -1.002126E+04 -3.270863E+04
       334  25  1.430382E+06  1.959078E+05  2.035912E+05 -8.799454E+04 -2.719426E+04 -4.504977E+04
       334  26  1.311658E+06  1.606635E+05  1.598728E+05 -6.662216E+04 -1.428592E+04 -3.962139E+04
       334  27  1.196439E+06  1.320636E+05  1.262415E+05 -8.450569E+04 -1.376251E+03 -3.270478E+04
       335   1  1.820669E+05 -1.116595E+05 -8.527471E+04 -8.644143E+04  1.626598E+04  2.829224E+04
       335   2  2.983707E+05 -8.383348E+04 -6.577867E+04 -6.672507E+04  1.357019E+04  2.093708E+04
       335   3  4.151532E+05 -5.572681E+04 -4.444737E+04 -8.622338E+04  1.087126E+04  1.350968E+04
       335   4  6.458759E+05  8.603389E+01  9.849037E+03 -8.604822E+04  8.012130E+03  2.828972E+04
       335   5  6.456484E+05 -1.338892E+02  5.620039E+03 -6.644160E+04  5.232260E+03  2.093593E+04
       335   6  6.459022E+05 -5.777828E+01  3.283935E+03 -8.604835E+04  2.449747E+03  1.350998E+04
       335   7  1.109889E+06  1.118181E+05  1.049616E+05 -8.565470E+04 -2.477721E+02  2.828719E+04
       335   8  9.930406E+05  8.355815E+04  7.701255E+04 -6.615797E+04 -3.110247E+03  2.093478E+04
       335   9  8.767017E+05  5.560792E+04  5.101262E+04 -8.587326E+04 -5.974844E+03  1.351027E+04
       335  10  1.820664E+05 -1.116604E+05 -8.527671E+04 -8.644180E+04 -1.709687E-09 -1.023452E-10
       335  11  2.983704E+05 -8.383400E+04 -6.577984E+04 -6.672530E+04 -1.634768E-09  9.612996E-13
       335  12  4.151530E+05 -5.572704E+04 -4.444794E+04 -8.622350E+04  1.714645E-10 -3.370447E-10
       335  13  6.458756E+05  8.515698E+01  9.847412E+03 -8.604840E+04 -2.329140E-10 -7.348175E-11
       335  14  6.456482E+05 -1.343673E+02  5.619163E+03 -6.644169E+04 -1.120939E-09  2.808870E-10
       335  15  6.459021E+05 -5.797595E+01  3.283581E+03 -8.604838E+04 -6.057531E-10  2.625750E-11
       335  16  1.109889E+06  1.118172E+05  1.049601E+05 -8.565469E+04  5.305358E-10 -1.755538E-10
       335  17  9.930405E+05  8.355768E+04  7.701171E+04 -6.615791E+04  1.246657E-10  4.082252E-10
       335  18  8.767017E+05  5.560772E+04  5.101221E+04 -8.587319E+04 -2.819162E-10  3.206496E-10
       335  19  1.820669E+05 -1.116595E+05 -8.527471E+04 -8.644143E+04 -1.626598E+04 -2.829224E+04
       335  20  2.983707E+05 -8.383348E+04 -6.577867E+04 -6.672507E+04 -1.357019E+04 -2.093708E+04
       335  21  4.151532E+05 -5.572681E+04 -4.444737E+04 -8.622338E+04 -1.087126E+04 -1.350968E+04
       335  22  6.458759E+05  8.603389E+01  9.849037E+03 -8.604822E+04 -8.012130E+03 -2.828972E+04
       335  23  6.456484E+05 -1.338892E+02  5.620039E+03 -6.644160E+04 -5.232260E+03 -2.093593E+04
       335  24  6.459022E+05 -5.777828E+01  3.283935E+03 -8.604835E+04 -2.449747E+03 -1.350998E+04
       335  25  1.109889E+06  1.118181E+05  1.049616E+05 -8.565470E+04  2.477721E+02 -2.828719E+04
       335  26  9.930406E+05  8.355815E+04  7.701255E+04 -6.615797E+04  3.110247E+03 -2.093478E+04
       335  27  8.767017E+05  5.560792E+04  5.101262E+04 -8.587326E+04  5.974844E+03 -1.351027E+04
       336   1  5.007701E+05 -3.492631E+04 -2.697434E+04 -8.615679E+04  1.032262E+04  9.169308E+03
       336   2  6.171466E+05 -6.926063E+03 -4.320507E+03 -6.652218E+04  9.554894E+03  1.725581E+03
       336   3  7.336461E+05  2.108674E+04  1.883622E+04 -8.606470E+04  8.786793E+03 -5.721543E+03
       336   4  6.458263E+05 -3.236080E+01  2.531768E+03 -8.604029E+04  1.922661E+03  9.170071E+03
       336   5  6.457730E+05 -2.814148E+01  1.562922E+03 -6.645178E+04  1.150145E+03  1.726439E+03
       336   6  6.458286E+05 -1.032735E+01  1.099802E+03 -8.604032E+04  3.773940E+02 -5.720546E+03
       336   7  7.909027E+05  3.486032E+04  3.203704E+04 -8.592376E+04 -6.479223E+03  9.170831E+03
       336   8  6.744003E+05  6.869766E+03  7.446572E+03 -6.638139E+04 -7.254984E+03  1.727294E+03
       336   9  5.580186E+05 -2.110784E+04 -1.663675E+04 -8.601594E+04 -8.030839E+03 -5.719550E+03
       336  10  5.007699E+05 -3.492643E+04 -2.697470E+04 -8.615686E+04 -2.630598E-10 -3.521966E-10
       336  11  6.171465E+05 -6.926091E+03 -4.320684E+03 -6.652219E+04 -3.123658E-10  1.024578E-12
       336  12  7.336460E+05  2.108669E+04  1.883602E+04 -8.606466E+04 -1.408669E-09  4.202768E-11
       336  13  6.458263E+05 -3.245212E+01  2.531603E+03 -8.604030E+04 -5.470236E-10 -2.537936E-10
       336  14  6.457730E+05 -2.814504E+01  1.562914E+03 -6.645179E+04 -9.328041E-10  9.775523E-11
       336  15  6.458286E+05 -1.036254E+01  1.099740E+03 -8.604032E+04 -2.387938E-10  2.242485E-10
       336  16  7.909026E+05  3.486021E+04  3.203681E+04 -8.592371E+04 -4.015415E-11 -1.548601E-10
       336  17  6.744002E+05  6.869749E+03  7.446468E+03 -6.638138E+04  6.265942E-10  1.503260E-10
       336  18  5.580185E+05 -2.110789E+04 -1.663694E+04 -8.601598E+04  6.166708E-10  3.690225E-10
       336  19  5.007701E+05 -3.492631E+04 -2.697434E+04 -8.615679E+04 -1.032262E+04 -9.169308E+03
       336  20  6.171466E+05 -6.926063E+03 -4.320507E+03 -6.652218E+04 -9.554894E+03 -1.725581E+03
       336  21  7.336461E+05  2.108674E+04  1.883622E+04 -8.606470E+04 -8.786793E+03  5.721543E+03
       336  22  6.458263E+05 -3.236080E+01  2.531768E+03 -8.604029E+04 -1.922661E+03 -9.170071E+03
       336  23  6.457730E+05 -2.814148E+01  1.562922E+03 -6.645178E+04 -1.150145E+03 -1.726439E+03
       336  24  6.458286E+05 -1.032735E+01  1.099802E+03 -8.604032E+04 -3.773940E+02  5.720546E+03
       336  25  7.909027E+05  3.486032E+04  3.203704E+04 -8.592376E+04  6.479223E+03 -9.170831E+03
       336  26  6.744003E+05  6.869766E+03  7.446572E+03 -6.638139E+04  7.254984E+03 -1.727294E+03
       336  27  5.580186E+05 -2.110784E+04 -1.663675E+04 -8.601594E+04  8.030839E+03  5.719550E+03
       337   1  8.193394E+05  4.185243E+04  3.696127E+04 -8.607119E+04  8.597596E+03 -1.005702E+04
       337   2  9.358340E+05  6.983578E+04  6.062672E+04 -6.641208E+04  8.088475E+03 -1.750635E+04
       337   3  1.052441E+06  9.782005E+04  8.462937E+04 -8.595889E+04  7.581537E+03 -2.495539E+04
       337   4  6.458218E+05 -1.393815E+01  1.002766E+03 -8.604698E+04  1.854118E+02 -1.005635E+04
       337   5  6.457614E+05 -4.576862E+01  1.030007E+03 -6.644346E+04 -3.239139E+02 -1.750689E+04
       337   6  6.458008E+05 -7.591888E+01  1.394866E+03 -8.604697E+04 -8.309635E+02 -2.495710E+04
       337   7  4.723330E+05 -4.188218E+04 -3.495711E+04 -8.602278E+04 -8.224464E+03 -1.005568E+04
       337   8  3.557688E+05 -6.993257E+04 -5.857094E+04 -6.647482E+04 -8.732447E+03 -1.750743E+04
       337   9  2.393173E+05 -9.798222E+04 -8.184814E+04 -8.613499E+04 -9.238061E+03 -2.495880E+04
       337  10  8.193393E+05  4.185231E+04  3.696094E+04 -8.607112E+04 -4.931008E-10  2.625198E-10
       337  11  9.358338E+05  6.983544E+04  6.062602E+04 -6.641197E+04 -9.441539E-10  3.871795E-10
       337  12  1.052441E+06  9.781937E+04  8.462809E+04 -8.595874E+04 -1.409785E-09 -2.919218E-10
       337  13  6.458218E+05 -1.404679E+01  1.002576E+03 -8.604698E+04 -3.844994E-11  2.846070E-10
       337  14  6.457614E+05 -4.609786E+01  1.029431E+03 -6.644347E+04 -3.742927E-10  3.254880E-10
       337  15  6.458007E+05 -7.658811E+01  1.393694E+03 -8.604699E+04 -5.674171E-10  7.568206E-11
       337  16  4.723329E+05 -4.188231E+04 -3.495743E+04 -8.602285E+04  1.142939E-09  3.304905E-10
       337  17  3.557687E+05 -6.993292E+04 -5.857166E+04 -6.647495E+04  3.994827E-10 -5.944115E-11
       337  18  2.393171E+05 -9.798291E+04 -8.184947E+04 -8.613517E+04 -9.406687E-11  2.517055E-10
       337  19  8.193394E+05  4.185243E+04  3.696127E+04 -8.607119E+04 -8.597596E+03  1.005702E+04
       337  20  9.358340E+05  6.983578E+04  6.062672E+04 -6.641208E+04 -8.088475E+03  1.750635E+04
       337  21  1.052441E+06  9.782005E+04  8.462937E+04 -8.595889E+04 -7.581537E+03  2.495539E+04
       337  22  6.458218E+05 -1.393815E+01  1.002766E+03 -8.604698E+04 -1.854118E+02  1.005635E+04
       337  23  6.457614E+05 -4.576862E+01  1.030007E+03 -6.644346E+04  3.239139E+02  1.750689E+04
       337  24  6.458008E+05 -7.591888E+01  1.394866E+03 -8.604697E+04  8.309635E+02  2.495710E+04
       337  25  4.723330E+05 -4.188218E+04 -3.495711E+04 -8.602278E+04  8.224464E+03  1.005568E+04
       337  26  3.557688E+05 -6.993257E+04 -5.857094E+04 -6.647482E+04  8.732447E+03  1.750743E+04
       337  27  2.393173E+05 -9.798222E+04 -8.184814E+04 -8.613499E+04  9.238061E+03  2.495880E+04
       338   1  1.138353E+06  1.186008E+05  1.032148E+05 -8.592550E+04  7.330404E+03 -2.930172E+04
       338   2  1.255047E+06  1.466162E+05  1.280242E+05 -6.612103E+04  5.839728E+03 -3.673393E+04
       338   3  1.372112E+06  1.747767E+05  1.538672E+05 -8.562310E+04  4.353522E+03 -4.408034E+04
       338   4  6.458387E+05 -9.814883E+01  1.731146E+03 -8.606960E+04 -1.113404E+03 -2.930455E+04
       338   5  6.456445E+05 -1.723938E+02  2.817991E+03 -6.641512E+04 -2.506552E+03 -3.673927E+04
       338   6  6.457940E+05 -1.171870E+02  4.872341E+03 -8.606954E+04 -3.894960E+03 -4.408809E+04
       338   7  1.535538E+05 -1.188123E+05 -9.976529E+04 -8.621357E+04 -9.550641E+03 -2.930739E+04
       338   8  3.659405E+04 -1.469844E+05 -1.224078E+05 -6.670893E+04 -1.084480E+04 -3.674459E+04
       338   9 -8.002395E+04 -1.750442E+05 -1.441504E+05 -8.651546E+04 -1.213398E+04 -4.409583E+04
       338  10  1.138353E+06  1.185999E+05  1.032131E+05 -8.592533E+04 -1.273575E-09  7.095491E-11
       338  11  1.255047E+06  1.466148E+05  1.280216E+05 -6.612086E+04 -1.232981E-09 -5.802831E-10
       338  12  1.372112E+06  1.747746E+05  1.538636E+05 -8.562295E+04  9.395292E-10 -4.394267E-10
       338  13  6.458385E+05 -9.907160E+01  1.729530E+03 -8.606962E+04 -2.903831E-14 -1.840098E-11
       338  14  6.456442E+05 -1.738454E+02  2.815442E+03 -6.641520E+04 -3.505118E-10 -4.188101E-10
       338  15  6.457935E+05 -1.192790E+02  4.868659E+03 -8.606968E+04  9.742532E-10 -8.539989E-10
       338  16  1.535535E+05 -1.188133E+05 -9.976707E+04 -8.621379E+04  4.273186E-10 -6.189940E-11
       338  17  3.659356E+04 -1.469858E+05 -1.224105E+05 -6.670925E+04  5.690775E-11 -3.519536E-10
       338  18 -8.002463E+04 -1.750463E+05 -1.441544E+05 -8.651589E+04 -1.039568E-09 -1.819209E-10
       338  19  1.138353E+06  1.186008E+05  1.032148E+05 -8.592550E+04 -7.330404E+03  2.930172E+04
       338  20  1.255047E+06  1.466162E+05  1.280242E+05 -6.612103E+04 -5.839728E+03  3.673393E+04
       338  21  1.372112E+06  1.747767E+05  1.538672E+05 -8.562310E+04 -4.353522E+03  4.408034E+04
       338  22  6.458387E+05 -9.814883E+01  1.731146E+03 -8.606960E+04  1.113404E+03  2.930455E+04
       338  23  6.456445E+05 -1.723938E+02  2.817991E+03 -6.641512E+04  2.506552E+03  3.673927E+04
       338  24  6.457940E+05 -1.171870E+02  4.872341E+03 -8.606954E+04  3.894960E+03  4.408809E+04
       338  25  1.535538E+05 -1.188123E+05 -9.976529E+04 -8.621357E+04  9.550641E+03  2.930739E+04
       338  26  3.659405E+04 -1.469844E+05 -1.224078E+05 -6.670893E+04  1.084480E+04  3.674459E+04
       338  27 -8.002395E+04 -1.750442E+05 -1.441504E+05 -8.651546E+04  1.213398E+04  4.409583E+04
       339   1  1.458665E+06  1.953601E+05  1.736298E+05 -8.499254E+04  3.841186E+03 -4.852753E+04
       339   2  1.575028E+06  2.238028E+05  2.025488E+05 -6.596430E+04 -3.736826E+03 -5.534154E+04
       339   3  1.693549E+06  2.556988E+05  2.373239E+05 -8.631444E+04 -1.131181E+04 -6.032449E+04
       339   4  6.460866E+05 -4.109157E+02  6.371625E+03 -8.608495E+04 -4.884662E+03 -4.853747E+04
       339   5  6.451583E+05 -2.381889E+02  1.102066E+04 -6.639542E+04 -1.038598E+04 -5.535356E+04
       339   6  6.460162E+05  3.031459E+03  2.009094E+04 -8.608773E+04 -1.588283E+04 -6.033727E+04
       339   7 -1.658662E+05 -1.962235E+05 -1.609217E+05 -8.717595E+04 -1.359931E+04 -4.854738E+04
       339   8 -2.838930E+05 -2.243337E+05 -1.805538E+05 -6.682601E+04 -1.702536E+04 -5.536558E+04
       339   9 -4.004798E+05 -2.497055E+05 -1.972018E+05 -8.586162E+04 -2.044628E+04 -6.035007E+04
       339  10  1.458664E+06  1.953576E+05  1.736253E+05 -8.499239E+04  1.040506E-09 -7.098557E-10
       339  11  1.575027E+06  2.237995E+05  2.025430E+05 -6.596447E+04  3.017618E-10 -1.070719E-09
       339  12  1.693548E+06  2.556949E+05  2.373168E+05 -8.631499E+04  1.122203E-09 -1.347985E-09
       339  13  6.460860E+05 -4.134527E+02  6.367151E+03 -8.608514E+04  5.811775E-10 -8.291513E-10
       339  14  6.451574E+05 -2.415090E+02  1.101470E+04 -6.639588E+04  2.770950E-10 -8.326552E-10
       339  15  6.460150E+05  3.027480E+03  2.008362E+04 -8.608850E+04  6.367361E-11 -1.057980E-09
       339  16 -1.658670E+05 -1.962261E+05 -1.609265E+05 -8.717648E+04 -2.333348E-11 -1.599276E-10
       339  17 -2.838941E+05 -2.243370E+05 -1.805601E+05 -6.682677E+04  5.088442E-10  1.933758E-09
       339  18 -4.004812E+05 -2.497095E+05 -1.972094E+05 -8.586261E+04  1.753835E-10 -7.450030E-11
       339  19  1.458665E+06  1.953601E+05  1.736298E+05 -8.499254E+04 -3.841186E+03  4.852753E+04
       339  20  1.575028E+06  2.238028E+05  2.025488E+05 -6.596430E+04  3.736826E+03  5.534154E+04
       339  21  1.693549E+06  2.556988E+05  2.373239E+05 -8.631444E+04  1.131181E+04  6.032449E+04
       339  22  6.460866E+05 -4.109157E+02  6.371625E+03 -8.608495E+04  4.884662E+03  4.853747E+04
       339  23  6.451583E+05 -2.381889E+02  1.102066E+04 -6.639542E+04  1.038598E+04  5.535356E+04
       339  24  6.460162E+05  3.031459E+03  2.009094E+04 -8.608773E+04  1.588283E+04  6.033727E+04
       339  25 -1.658662E+05 -1.962235E+05 -1.609217E+05 -8.717595E+04  1.359931E+04  4.854738E+04
       339  26 -2.838930E+05 -2.243337E+05 -1.805538E+05 -6.682601E+04  1.702536E+04  5.536558E+04
       339  27 -4.004798E+05 -2.497055E+05 -1.972018E+05 -8.586162E+04  2.044628E+04  6.035007E+04
       340   1  1.785484E+06  2.704758E+05  2.602689E+05 -7.410874E+04 -5.752686E+03 -6.645494E+04
       340   2  1.890229E+06  3.083113E+05  3.123763E+05 -8.201893E+04 -6.979831E+04 -6.070479E+04
       340   3  2.022633E+06  4.214651E+05  4.250351E+05 -1.278452E+05 -1.339358E+05 -1.912613E+04
       340   4  6.501754E+05 -3.226157E+03  2.563747E+04 -8.572830E+04 -1.938468E+04 -6.648124E+04
       340   5  6.397852E+05  5.124490E+03  4.473987E+04 -6.684068E+04 -4.287497E+04 -6.067271E+04
       340   6  6.500600E+05  8.184301E+04  9.632224E+04 -8.586631E+04 -6.644191E+04 -1.900861E+04
       340   7 -4.839140E+05 -2.770090E+05 -2.090630E+05 -9.732660E+04 -3.299221E+04 -6.650707E+04
       340   8 -6.091893E+05 -2.981630E+05 -2.229845E+05 -5.169385E+04 -1.600488E+04 -6.063929E+04
       340   9 -7.207778E+05 -2.579062E+05 -2.325057E+05 -4.398104E+04  9.038739E+02 -1.888187E+04
       340  10  1.785483E+06  2.704710E+05  2.602605E+05 -7.410905E+04  1.405179E-09 -3.019490E-09
       340  11  1.890223E+06  3.083060E+05  3.123603E+05 -8.202234E+04 -1.688365E-09 -5.978442E-09
       340  12  2.022614E+06  4.214599E+05  4.250008E+05 -1.278473E+05 -3.897156E-09 -1.722359E-09
       340  13  6.501738E+05 -3.231005E+03  2.562845E+04 -8.572934E+04 -6.913386E-10 -7.011216E-09
       340  14  6.397823E+05  5.120043E+03  4.472949E+04 -6.684277E+04  4.848683E-10  2.351778E-09
       340  15  6.500551E+05  8.184144E+04  9.631328E+04 -8.586732E+04 -5.421357E-10 -7.469546E-10
       340  16 -4.839163E+05 -2.770140E+05 -2.090733E+05 -9.732836E+04 -1.592178E-09 -1.532765E-09
       340  17 -6.091906E+05 -2.981671E+05 -2.229919E+05 -5.169464E+04  1.525529E-09  1.295960E-09
       340  18 -7.207779E+05 -2.579066E+05 -2.325064E+05 -4.398102E+04  4.357059E-09 -2.310055E-09
       340  19  1.785484E+06  2.704758E+05  2.602689E+05 -7.410874E+04  5.752686E+03  6.645494E+04
       340  20  1.890229E+06  3.083113E+05  3.123763E+05 -8.201893E+04  6.979831E+04  6.070479E+04
       340  21  2.022633E+06  4.214651E+05  4.250351E+05 -1.278452E+05  1.339358E+05  1.912613E+04
       340  22  6.501754E+05 -3.226157E+03  2.563747E+04 -8.572830E+04  1.938468E+04  6.648124E+04
       340  23  6.397852E+05  5.124490E+03  4.473987E+04 -6.684068E+04  4.287497E+04  6.067271E+04
       340  24  6.500600E+05  8.184301E+04  9.632224E+04 -8.586631E+04  6.644191E+04  1.900861E+04
       340  25 -4.839140E+05 -2.770090E+05 -2.090630E+05 -9.732660E+04  3.299221E+04  6.650707E+04
       340  26 -6.091893E+05 -2.981630E+05 -2.229845E+05 -5.169385E+04  1.600488E+04  6.063929E+04
       340  27 -7.207778E+05 -2.579062E+05 -2.325057E+05 -4.398104E+04 -9.038739E+02  1.888187E+04
       341   1  6.878842E+05  2.545854E+06  6.767321E+05 -5.579687E+05  2.876343E+04  1.341716E+05
       341   2  4.573110E+05  1.813448E+06  4.306177E+05 -4.236334E+05  8.243950E+04  3.896002E+04
       341   3  2.792944E+05  1.106607E+06  2.593667E+05 -5.271216E+05  6.406248E+04 -5.627867E+04
       341   4  4.576153E+04 -4.309009E+04  5.181318E+04 -5.296006E+05  2.902950E+04  3.290098E+04
       341   5  4.447724E+03 -4.819765E+04  2.632087E+04 -4.107339E+05  8.251546E+04  1.929735E+04
       341   6  1.675852E+03 -4.226974E+04  1.923802E+04 -5.297167E+05  6.385535E+04  5.555044E+03
       341   7 -5.968424E+05 -2.625899E+06 -5.735470E+05 -5.013446E+05  2.928704E+04 -6.795029E+04
       341   8 -4.486443E+05 -1.906598E+06 -3.781815E+05 -3.978702E+05  8.259074E+04 -3.073157E+02
       341   9 -2.760249E+05 -1.189891E+06 -2.209495E+05 -5.323054E+05  6.364747E+04  6.727635E+04
       341  10  6.878784E+05  2.545835E+06  6.766968E+05 -5.579719E+05 -4.018031E-10 -1.495671E-10
       341  11  4.573033E+05  1.813445E+06  4.306021E+05 -4.236360E+05 -1.233837E-09  6.015361E-09
       341  12  2.792891E+05  1.106602E+06  2.593531E+05 -5.271187E+05  1.895947E-09  5.450489E-09
       341  13  4.576033E+04 -4.309148E+04  5.180956E+04 -5.296014E+05  4.361936E-10  9.889856E-12
       341  14  4.440312E+03 -4.819988E+04  2.630737E+04 -4.107352E+05 -1.395328E-09  1.172777E-09
       341  15  1.671465E+03 -4.227087E+04  1.923030E+04 -5.297170E+05  2.376422E-10 -4.659705E-09
       341  16 -5.968446E+05 -2.625904E+06 -5.735573E+05 -5.013430E+05 -1.093650E-09  1.230538E-10
       341  17 -4.486517E+05 -1.906600E+06 -3.781944E+05 -3.978702E+05 -5.577284E-10 -3.231095E-09
       341  18 -2.760305E+05 -1.189897E+06 -2.209656E+05 -5.323088E+05 -1.025438E-09 -2.557352E-09
       341  19  6.878842E+05  2.545854E+06  6.767321E+05 -5.579687E+05 -2.876343E+04 -1.341716E+05
       341  20  4.573110E+05  1.813448E+06  4.306177E+05 -4.236334E+05 -8.243950E+04 -3.896002E+04
       341  21  2.792944E+05  1.106607E+06  2.593667E+05 -5.271216E+05 -6.406248E+04  5.627867E+04
       341  22  4.576153E+04 -4.309009E+04  5.181318E+04 -5.296006E+05 -2.902950E+04 -3.290098E+04
       341  23  4.447724E+03 -4.819765E+04  2.632087E+04 -4.107339E+05 -8.251546E+04 -1.929735E+04
       341  24  1.675852E+03 -4.226974E+04  1.923802E+04 -5.297167E+05 -6.385535E+04 -5.555044E+03
       341  25 -5.968424E+05 -2.625899E+06 -5.735470E+05 -5.013446E+05 -2.928704E+04  6.795029E+04
       341  26 -4.486443E+05 -1.906598E+06 -3.781815E+05 -3.978702E+05 -8.259074E+04  3.073157E+02
       341  27 -2.760249E+05 -1.189891E+06 -2.209495E+05 -5.323054E+05 -6.364747E+04 -6.727635E+04
       342   1  1.542870E+05  5.730931E+05  1.479656E+05 -5.334365E+05  3.352447E+04 -4.219034E+04
       342   2 -2.172264E+04 -1.460909E+05 -1.676994E+03 -4.094147E+05 -5.819624E+03 -5.158522E+04
       342   3 -1.910381E+05 -8.634448E+05 -1.439722E+05 -5.267569E+05 -4.489517E+04 -6.096465E+04
       342   4  4.893005E+03 -4.421569E+04  1.819046E+04 -5.304724E+05  3.336441E+04  2.391782E+03
       342   5  2.690098E+03 -4.493357E+04  1.920389E+04 -4.097889E+05 -5.975356E+03 -7.328333E+03
       342   6  7.265211E+03 -4.426046E+04  2.780002E+04 -5.304637E+05 -4.504817E+04 -1.704339E+04
       342   7 -1.445244E+05 -6.611605E+05 -1.115986E+05 -5.275108E+05  3.320467E+04  4.693031E+04
       342   8  2.710324E+04  5.623771E+04  4.009159E+04 -4.101632E+05 -6.131127E+03  3.693564E+04
       342   9  2.055265E+05  7.755629E+05  1.995421E+05 -5.341746E+05 -4.520158E+04  2.693497E+04
       342  10  1.542853E+05  5.730909E+05  1.479601E+05 -5.334353E+05  8.799341E-10 -5.392980E-10
       342  11 -2.172339E+04 -1.460938E+05 -1.682060E+03 -4.094150E+05  1.209230E-09  6.311455E-09
       342  12 -1.910413E+05 -8.634493E+05 -1.439830E+05 -5.267591E+05  7.535529E-13  4.977159E-09
       342  13  4.891808E+03 -4.421599E+04  1.818835E+04 -5.304724E+05  4.935727E-10 -3.669577E-11
       342  14  2.690045E+03 -4.493363E+04  1.920373E+04 -4.097890E+05  1.554977E-09  1.517184E-09
       342  15  7.262953E+03 -4.426132E+04  2.779565E+04 -5.304643E+05  3.261850E-09 -4.743416E-09
       342  16 -1.445262E+05 -6.611631E+05 -1.116048E+05 -5.275121E+05 -3.247315E-10  5.459675E-10
       342  17  2.710283E+04  5.623624E+04  4.008896E+04 -4.101630E+05 -2.920187E-09 -3.288324E-09
       342  18  2.055242E+05  7.755616E+05  1.995369E+05 -5.341737E+05 -5.807705E-11 -1.730646E-09
       342  19  1.542870E+05  5.730931E+05  1.479656E+05 -5.334365E+05 -3.352447E+04  4.219034E+04
       342  20 -2.172264E+04 -1.460909E+05 -1.676994E+03 -4.094147E+05  5.819624E+03  5.158522E+04
       342  21 -1.910381E+05 -8.634448E+05 -1.439722E+05 -5.267569E+05  4.489517E+04  6.096465E+04
       342  22  4.893005E+03 -4.421569E+04  1.819046E+04 -5.304724E+05 -3.336441E+04 -2.391782E+03
       342  23  2.690098E+03 -4.493357E+04  1.920389E+04 -4.097889E+05  5.975356E+03  7.328333E+03
       342  24  7.265211E+03 -4.426046E+04  2.780002E+04 -5.304637E+05  4.504817E+04  1.704339E+04
       342  25 -1.445244E+05 -6.611605E+05 -1.115986E+05 -5.275108E+05 -3.320467E+04 -4.693031E+04
       342  26  2.710324E+04  5.623771E+04  4.009159E+04 -4.101632E+05  6.131127E+03 -3.693564E+04
       342  27  2.055265E+05  7.755629E+05  1.995421E+05 -5.341746E+05  4.520158E+04 -2.693497E+04
       343   1 -3.270067E+05 -1.389177E+06 -2.482392E+05 -5.392089E+05 -7.556844E+04 -8.442240E+04
       343   2 -4.941272E+05 -2.112264E+06 -3.919314E+05 -3.863714E+05 -9.259105E+04 -2.648017E+04
       343   3 -5.907296E+05 -2.824856E+06 -5.558753E+05 -4.711565E+05 -3.221154E+04  3.152967E+04
       343   4 -4.654064E+02 -3.924116E+04  3.379482E+04 -5.296723E+05 -7.577098E+04 -2.197505E+04
       343   5  8.088907E+03 -5.222937E+04  5.571203E+04 -4.107757E+05 -9.249910E+04 -5.117722E+04
       343   6  1.021975E+05 -4.014785E+04  1.179196E+05 -5.294173E+05 -3.194726E+04 -8.024556E+04
       343   7  3.259618E+05  1.312430E+06  3.157428E+05 -5.201126E+05 -7.597133E+04  4.060612E+04
       343   8  5.100257E+05  2.011796E+06  5.031044E+05 -4.352583E+05 -9.240539E+04 -7.595514E+04
       343   9  7.945746E+05  2.751703E+06  7.912058E+05 -5.879345E+05 -3.166272E+04 -1.925216E+05
       343  10 -3.270147E+05 -1.389187E+06 -2.482634E+05 -5.392140E+05  1.169660E-09 -7.562881E-10
       343  11 -4.941366E+05 -2.112267E+06 -3.919489E+05 -3.863734E+05 -8.800118E-11  4.146850E-09
       343  12 -5.907310E+05 -2.824858E+06 -5.558791E+05 -4.711557E+05 -6.771603E-10  2.929909E-09
       343  13 -4.717031E+02 -3.924323E+04  3.378312E+04 -5.296737E+05 -1.172800E-09 -5.805191E-12
       343  14  8.079012E+03 -5.223449E+04  5.569102E+04 -4.107795E+05  3.693927E-10  1.117886E-09
       343  15  1.021947E+05 -4.015504E+04  1.179056E+05 -5.294194E+05 -9.080936E-10 -2.512207E-09
       343  16  3.259552E+05  1.312427E+06  3.157289E+05 -5.201101E+05  1.588452E-09  8.528722E-10
       343  17  5.100150E+05  2.011788E+06  5.030776E+05 -4.352639E+05 -3.153713E-10 -2.007752E-09
       343  18  7.945637E+05  2.751663E+06  7.911346E+05 -5.879394E+05 -1.061050E-09 -1.210078E-09
       343  19 -3.270067E+05 -1.389177E+06 -2.482392E+05 -5.392089E+05  7.556844E+04  8.442240E+04
       343  20 -4.941272E+05 -2.112264E+06 -3.919314E+05 -3.863714E+05  9.259105E+04  2.648017E+04
       343  21 -5.907296E+05 -2.824856E+06 -5.558753E+05 -4.711565E+05  3.221154E+04 -3.152967E+04
       343  22 -4.654064E+02 -3.924116E+04  3.379482E+04 -5.296723E+05  7.577098E+04  2.197505E+04
       343  23  8.088907E+03 -5.222937E+04  5.571203E+04 -4.107757E+05  9.249910E+04  5.117722E+04
       343  24  1.021975E+05 -4.014785E+04  1.179196E+05 -5.294173E+05  3.194726E+04  8.024556E+04
       343  25  3.259618E+05  1.312430E+06  3.157428E+05 -5.201126E+05  7.597133E+04 -4.060612E+04
       343  26  5.100257E+05  2.011796E+06  5.031044E+05 -4.352583E+05  9.240539E+04  7.595514E+04
       343  27  7.945746E+05  2.751703E+06  7.912058E+05 -5.879345E+05  3.166272E+04  1.925216E+05
       344   1 -1.805752E+06 -7.113699E+05 -4.069241E+05 -6.993464E+05 -1.819928E+05 -5.610768E+04
       344   2 -1.735014E+06 -4.776714E+05 -2.458639E+05 -6.718723E+05 -1.154103E+05 -3.937716E+03
       344   3 -1.709721E+06 -4.010012E+05 -1.792772E+05 -6.294491E+05 -4.093366E+04  2.731755E+04
       344   4 -1.139542E+06 -3.690585E+05 -2.141084E+05 -4.233199E+05 -1.414330E+05 -4.087306E+04
       344   5 -1.107413E+06 -2.094890E+05 -9.580275E+04 -4.621918E+05 -9.966304E+04  1.976280E+03
       344   6 -1.115746E+06 -2.019497E+05 -5.220824E+04 -4.861361E+05 -5.001172E+04  2.390148E+04
       344   7 -4.728661E+05 -2.658674E+04 -2.132465E+04 -1.469828E+05 -1.008251E+05 -2.560525E+04
       344   8 -4.794071E+05  5.876281E+04  5.423243E+04 -2.523025E+05 -8.389836E+04  7.899101E+03
       344   9 -5.214136E+05 -2.885242E+03  7.484106E+04 -3.427035E+05 -5.909920E+04  2.048261E+04
       344  10 -1.805788E+06 -7.113822E+05 -4.069925E+05 -6.993546E+05  4.531843E-10  6.325549E-10
       344  11 -1.735028E+06 -4.776750E+05 -2.458891E+05 -6.718726E+05 -9.082364E-10 -1.304051E-10
       344  12 -1.709723E+06 -4.010024E+05 -1.792818E+05 -6.294482E+05 -3.967771E-10 -8.204110E-10
       344  13 -1.139564E+06 -3.690656E+05 -2.141492E+05 -4.233245E+05  3.774287E-10 -1.933294E-10
       344  14 -1.107423E+06 -2.094917E+05 -9.582146E+04 -4.621916E+05 -7.129276E-10 -9.028013E-10
       344  15 -1.115749E+06 -2.019510E+05 -5.221402E+04 -4.861351E+05  4.763547E-10 -1.140402E-09
       344  16 -4.728772E+05 -2.659018E+04 -2.134500E+04 -1.469849E+05 -9.265495E-10  2.774388E-10
       344  17 -4.794147E+05  5.876086E+04  5.421908E+04 -2.523019E+05 -1.014616E-10 -2.516026E-09
       344  18 -5.214175E+05 -2.886630E+03  7.483370E+04 -3.427025E+05 -1.775648E-11  1.991626E-09
       344  19 -1.805752E+06 -7.113699E+05 -4.069241E+05 -6.993464E+05  1.819928E+05  5.610768E+04
       344  20 -1.735014E+06 -4.776714E+05 -2.458639E+05 -6.718723E+05  1.154103E+05  3.937716E+03
       344  21 -1.709721E+06 -4.010012E+05 -1.792772E+05 -6.294491E+05  4.093366E+04 -2.731755E+04
       344  22 -1.139542E+06 -3.690585E+05 -2.141084E+05 -4.233199E+05  1.414330E+05  4.087306E+04
       344  23 -1.107413E+06 -2.094890E+05 -9.580275E+04 -4.621918E+05  9.966304E+04 -1.976280E+03
       344  24 -1.115746E+06 -2.019497E+05 -5.220824E+04 -4.861361E+05  5.001172E+04 -2.390148E+04
       344  25 -4.728661E+05 -2.658674E+04 -2.132465E+04 -1.469828E+05  1.008251E+05  2.560525E+04
       344  26 -4.794071E+05  5.876281E+04  5.423243E+04 -2.523025E+05  8.389836E+04 -7.899101E+03
       344  27 -5.214136E+05 -2.885242E+03  7.484106E+04 -3.427035E+05  5.909920E+04 -2.048261E+04
       345   1 -1.630841E+06 -4.068203E+05 -1.556076E+05 -6.256781E+05 -3.834841E+04  2.370584E+04
       345   2 -1.561810E+06 -3.615467E+05 -1.185946E+05 -5.946196E+05 -2.482798E+04  2.436636E+04
       345   3 -1.478795E+06 -3.404769E+05 -9.224571E+04 -5.828247E+05 -1.088092E+04  2.388988E+04
       345   4 -1.109047E+06 -2.120369E+05 -4.044515E+04 -4.792284E+05 -4.229390E+04  2.221966E+04
       345   5 -1.115673E+06 -1.966490E+05 -2.128645E+04 -4.708742E+05 -3.011583E+04  2.237706E+04
       345   6 -1.108049E+06 -2.051946E+05 -1.171911E+04 -4.817856E+05 -1.751280E+04  2.139723E+04
       345   7 -5.869802E+05 -1.723155E+04  7.469968E+04 -3.326658E+05 -4.624295E+04  2.073210E+04
       345   8 -6.693324E+05 -3.173504E+04  7.600990E+04 -3.470469E+05 -3.540780E+04  2.038620E+04
       345   9 -7.371606E+05 -6.990109E+04  6.880023E+04 -3.806905E+05 -2.414901E+04  1.890299E+04
       345  10 -1.630842E+06 -4.068213E+05 -1.556114E+05 -6.256774E+05  6.622050E-10 -2.350467E-10
       345  11 -1.561811E+06 -3.615475E+05 -1.185969E+05 -5.946191E+05 -4.112733E-10  1.015017E-09
       345  12 -1.478795E+06 -3.404776E+05 -9.224701E+04 -5.828245E+05  2.503674E-10 -1.162671E-10
       345  13 -1.109049E+06 -2.120379E+05 -4.044944E+04 -4.792277E+05 -1.245446E-12  3.789751E-10
       345  14 -1.115674E+06 -1.966497E+05 -2.128910E+04 -4.708737E+05  2.134976E-09 -1.689847E-09
       345  15 -1.108049E+06 -2.051952E+05 -1.172055E+04 -4.817853E+05  1.052337E-10  4.371516E-11
       345  16 -5.869826E+05 -1.723259E+04  7.469485E+04 -3.326651E+05 -5.575798E-10  5.130477E-10
       345  17 -6.693339E+05 -3.173583E+04  7.600676E+04 -3.470463E+05 -1.501324E-09  1.228206E-09
       345  18 -7.371613E+05 -6.990163E+04  6.879846E+04 -3.806901E+05 -3.221932E-10  1.123670E-09
       345  19 -1.630841E+06 -4.068203E+05 -1.556076E+05 -6.256781E+05  3.834841E+04 -2.370584E+04
       345  20 -1.561810E+06 -3.615467E+05 -1.185946E+05 -5.946196E+05  2.482798E+04 -2.436636E+04
       345  21 -1.478795E+06 -3.404769E+05 -9.224571E+04 -5.828247E+05  1.088092E+04 -2.388988E+04
       345  22 -1.109047E+06 -2.120369E+05 -4.044515E+04 -4.792284E+05  4.229390E+04 -2.221966E+04
       345  23 -1.115673E+06 -1.966490E+05 -2.128645E+04 -4.708742E+05  3.011583E+04 -2.237706E+04
       345  24 -1.108049E+06 -2.051946E+05 -1.171911E+04 -4.817856E+05  1.751280E+04 -2.139723E+04
       345  25 -5.869802E+05 -1.723155E+04  7.469968E+04 -3.326658E+05  4.624295E+04 -2.073210E+04
       345  26 -6.693324E+05 -3.173504E+04  7.600990E+04 -3.470469E+05  3.540780E+04 -2.038620E+04
       345  27 -7.371606E+05 -6.990109E+04  6.880023E+04 -3.806905E+05  2.414901E+04 -1.890299E+04
       346   1 -1.421919E+06 -3.210674E+05 -7.684846E+04 -5.679946E+05 -8.284180E+03  2.118366E+04
       346   2 -1.353364E+06 -2.834413E+05 -5.627185E+04 -5.364380E+05 -3.755147E+03  1.673619E+04
       346   3 -1.267255E+06 -2.641035E+05 -3.763245E+04 -5.254590E+05  7.980434E+02  1.222079E+04
       346   4 -1.107540E+06 -2.056114E+05 -8.844700E+03 -4.814441E+05 -1.465081E+04  1.879143E+04
       346   5 -1.116300E+06 -1.963694E+05 -4.864034E+03 -4.711911E+05 -1.020142E+04  1.431496E+04
       346   6 -1.107496E+06 -2.053994E+05 -2.756474E+03 -4.815174E+05 -5.728224E+03  9.770472E+03
       346   7 -7.930605E+05 -9.014762E+04  5.915341E+04 -3.948532E+05 -2.102093E+04  1.639791E+04
       346   8 -8.791798E+05 -1.092934E+05  4.654040E+04 -4.059216E+05 -1.665033E+04  1.189275E+04
       346   9 -9.477122E+05 -1.466937E+05  3.211785E+04 -4.375657E+05 -1.225626E+04  7.319494E+03
       346  10 -1.421919E+06 -3.210679E+05 -7.684943E+04 -5.679945E+05  3.662006E-10 -1.263139E-10
       346  11 -1.353364E+06 -2.834416E+05 -5.627240E+04 -5.364379E+05 -3.311015E-09 -1.931129E-09
       346  12 -1.267255E+06 -2.641037E+05 -3.763274E+04 -5.254591E+05 -2.254737E-09 -1.428776E-09
       346  13 -1.107540E+06 -2.056119E+05 -8.845767E+03 -4.814439E+05 -1.659721E-09 -2.798578E-10
       346  14 -1.116300E+06 -1.963697E+05 -4.864614E+03 -4.711910E+05 -4.296855E-09 -7.289692E-10
       346  15 -1.107496E+06 -2.053995E+05 -2.756714E+03 -4.815174E+05 -9.637954E-10 -1.079774E-09
       346  16 -7.930610E+05 -9.014802E+04  5.915207E+04 -3.948530E+05 -3.611535E-09 -1.877583E-10
       346  17 -8.791802E+05 -1.092936E+05  4.653961E+04 -4.059214E+05 -4.307028E-09 -1.353331E-09
       346  18 -9.477124E+05 -1.466938E+05  3.211746E+04 -4.375657E+05  4.840014E-11 -9.962231E-10
       346  19 -1.421919E+06 -3.210674E+05 -7.684846E+04 -5.679946E+05  8.284180E+03 -2.118366E+04
       346  20 -1.353364E+06 -2.834413E+05 -5.627185E+04 -5.364380E+05  3.755147E+03 -1.673619E+04
       346  21 -1.267255E+06 -2.641035E+05 -3.763245E+04 -5.254590E+05 -7.980434E+02 -1.222079E+04
       346  22 -1.107540E+06 -2.056114E+05 -8.844700E+03 -4.814441E+05  1.465081E+04 -1.879143E+04
       346  23 -1.116300E+06 -1.963694E+05 -4.864034E+03 -4.711911E+05  1.020142E+04 -1.431496E+04
       346  24 -1.107496E+06 -2.053994E+05 -2.756474E+03 -4.815174E+05  5.728224E+03 -9.770472E+03
       346  25 -7.930605E+05 -9.014762E+04  5.915341E+04 -3.948532E+05  2.102093E+04 -1.639791E+04
       346  26 -8.791798E+05 -1.092934E+05  4.654040E+04 -4.059216E+05  1.665033E+04 -1.189275E+04
       346  27 -9.477122E+05 -1.466937E+05  3.211785E+04 -4.375657E+05  1.225626E+04 -7.319494E+03
       347   1 -1.211312E+06 -2.435230E+05 -2.440741E+04 -5.101057E+05  2.392413E+03  9.174171E+03
       347   2 -1.142786E+06 -2.060759E+05 -7.083491E+03 -4.784293E+05  5.134084E+03  3.948664E+03
       347   3 -1.056345E+06 -1.866585E+05  9.727679E+03 -4.673682E+05  7.877047E+03 -1.280583E+03
       347   4 -1.107426E+06 -2.054148E+05 -2.132819E+03 -4.814989E+05 -4.123710E+03  6.727974E+03
       347   5 -1.116380E+06 -1.964039E+05 -1.363674E+03 -4.711878E+05 -1.386840E+03  1.500742E+03
       347   6 -1.107426E+06 -2.054229E+05 -1.103895E+03 -4.814950E+05  1.351219E+03 -3.730238E+03
       347   7 -1.003529E+06 -1.673055E+05  2.014154E+04 -4.528874E+05 -1.064106E+04  4.281321E+03
       347   8 -1.089973E+06 -1.867317E+05  4.356311E+03 -4.639460E+05 -7.908087E+03 -9.473009E+02
       347   9 -1.158503E+06 -2.241870E+05 -1.193544E+04 -4.956206E+05 -5.174030E+03 -6.179676E+03
       347  10 -1.211312E+06 -2.435230E+05 -2.440758E+04 -5.101057E+05 -1.083820E-09 -7.095609E-10
       347  11 -1.142786E+06 -2.060759E+05 -7.083570E+03 -4.784293E+05 -8.530641E-10 -1.969112E-10
       347  12 -1.056345E+06 -1.866585E+05  9.727559E+03 -4.673682E+05 -9.282661E-10 -2.435538E-10
       347  13 -1.107426E+06 -2.054149E+05 -2.132936E+03 -4.814989E+05  9.052337E-10 -1.044247E-09
       347  14 -1.116380E+06 -1.964039E+05 -1.363682E+03 -4.711878E+05  6.845152E-10 -8.043739E-10
       347  15 -1.107426E+06 -2.054229E+05 -1.103925E+03 -4.814950E+05  3.028091E-10 -1.197769E-10
       347  16 -1.003529E+06 -1.673056E+05  2.014129E+04 -4.528874E+05  1.228571E-09 -4.921477E-10
       347  17 -1.089973E+06 -1.867318E+05  4.356192E+03 -4.639460E+05  5.791017E-10  3.344934E-11
       347  18 -1.158503E+06 -2.241870E+05 -1.193556E+04 -4.956206E+05 -1.484294E-10  6.353070E-10
       347  19 -1.211312E+06 -2.435230E+05 -2.440741E+04 -5.101057E+05 -2.392413E+03 -9.174171E+03
       347  20 -1.142786E+06 -2.060759E+05 -7.083491E+03 -4.784293E+05 -5.134084E+03 -3.948664E+03
       347  21 -1.056345E+06 -1.866585E+05  9.727679E+03 -4.673682E+05 -7.877047E+03  1.280583E+03
       347  22 -1.107426E+06 -2.054148E+05 -2.132819E+03 -4.814989E+05  4.123710E+03 -6.727974E+03
       347  23 -1.116380E+06 -1.964039E+05 -1.363674E+03 -4.711878E+05  1.386840E+03 -1.500742E+03
       347  24 -1.107426E+06 -2.054229E+05 -1.103895E+03 -4.814950E+05 -1.351219E+03  3.730238E+03
       347  25 -1.003529E+06 -1.673055E+05  2.014154E+04 -4.528874E+05  1.064106E+04 -4.281321E+03
       347  26 -1.089973E+06 -1.867317E+05  4.356311E+03 -4.639460E+05  7.908087E+03  9.473009E+02
       347  27 -1.158503E+06 -2.241870E+05 -1.193544E+04 -4.956206E+05  5.174030E+03  6.179676E+03
       348   1 -1.000485E+06 -1.660216E+05  2.231339E+04 -4.519832E+05  9.259364E+03 -4.405275E+03
       348   2 -9.320398E+05 -1.286164E+05  3.848950E+04 -4.203360E+05  1.204065E+04 -9.613894E+03
       348   3 -8.457001E+05 -1.092192E+05  5.412449E+04 -4.092768E+05  1.481957E+04 -1.481277E+04
       348   4 -1.107433E+06 -2.054199E+05 -1.123399E+03 -4.814894E+05  2.735615E+03 -6.854329E+03
       348   5 -1.116382E+06 -1.964207E+05 -1.475266E+03 -4.711937E+05  5.527577E+03 -1.205966E+04
       348   6 -1.107444E+06 -2.054324E+05 -2.376643E+03 -4.814887E+05  8.317089E+03 -1.725527E+04
       348   7 -1.214368E+06 -2.448169E+05 -2.456050E+04 -5.109907E+05 -3.786874E+03 -9.302911E+03
       348   8 -1.300689E+06 -2.642223E+05 -4.144185E+04 -5.220375E+05 -9.834001E+02 -1.450463E+04
       348   9 -1.369120E+06 -3.016408E+05 -5.888210E+04 -5.536731E+05  1.817529E+03 -1.969668E+04
       348  10 -1.000486E+06 -1.660217E+05  2.231320E+04 -4.519831E+05 -6.156145E-10 -1.188330E-10
       348  11 -9.320400E+05 -1.286166E+05  3.848905E+04 -4.203359E+05 -1.566545E-10  2.260823E-10
       348  12 -8.457004E+05 -1.092194E+05  5.412367E+04 -4.092766E+05 -1.460652E-09  4.187473E-10
       348  13 -1.107433E+06 -2.054199E+05 -1.123501E+03 -4.814894E+05 -4.273299E-10  1.603549E-10
       348  14 -1.116382E+06 -1.964209E+05 -1.475597E+03 -4.711936E+05 -2.240367E-10 -4.636040E-11
       348  15 -1.107444E+06 -2.054327E+05 -2.377332E+03 -4.814886E+05  1.358620E-10  2.310518E-10
       348  16 -1.214368E+06 -2.448170E+05 -2.456069E+04 -5.109908E+05  8.523392E-10  3.190750E-10
       348  17 -1.300689E+06 -2.642225E+05 -4.144225E+04 -5.220375E+05  1.299373E-09  1.427850E-10
       348  18 -1.369120E+06 -3.016412E+05 -5.888283E+04 -5.536730E+05  1.525249E-09  6.294539E-10
       348  19 -1.000485E+06 -1.660216E+05  2.231339E+04 -4.519832E+05 -9.259364E+03  4.405275E+03
       348  20 -9.320398E+05 -1.286164E+05  3.848950E+04 -4.203360E+05 -1.204065E+04  9.613894E+03
       348  21 -8.457001E+05 -1.092192E+05  5.412449E+04 -4.092768E+05 -1.481957E+04  1.481277E+04
       348  22 -1.107433E+06 -2.054199E+05 -1.123399E+03 -4.814894E+05 -2.735615E+03  6.854329E+03
       348  23 -1.116382E+06 -1.964207E+05 -1.475266E+03 -4.711937E+05 -5.527577E+03  1.205966E+04
       348  24 -1.107444E+06 -2.054324E+05 -2.376643E+03 -4.814887E+05 -8.317089E+03  1.725527E+04
       348  25 -1.214368E+06 -2.448169E+05 -2.456050E+04 -5.109907E+05  3.786874E+03  9.302911E+03
       348  26 -1.300689E+06 -2.642223E+05 -4.144185E+04 -5.220375E+05  9.834001E+02  1.450463E+04
       348  27 -1.369120E+06 -3.016408E+05 -5.888210E+04 -5.536731E+05 -1.817529E+03  1.969668E+04
       349   1 -7.900475E+05 -8.865039E+04  6.597492E+04 -3.939799E+05  1.647823E+04 -1.782534E+04
       349   2 -7.217737E+05 -5.137636E+04  8.004346E+04 -3.624290E+05  2.115754E+04 -2.226355E+04
       349   3 -6.360113E+05 -3.233004E+04  9.207974E+04 -3.513716E+05  2.580772E+04 -2.661641E+04
       349   4 -1.107535E+06 -2.054098E+05 -3.091600E+03 -4.814995E+05  9.967364E+03 -2.027168E+04
       349   5 -1.116296E+06 -1.964145E+05 -5.491098E+03 -4.712077E+05  1.474548E+04 -2.467430E+04
       349   6 -1.107594E+06 -2.056679E+05 -1.000197E+04 -4.814128E+05  1.949409E+04 -2.899165E+04
       349   7 -1.424919E+06 -3.221613E+05 -7.216392E+04 -5.689778E+05  3.460098E+03 -2.271667E+04
       349   8 -1.510659E+06 -3.414396E+05 -9.103426E+04 -5.799224E+05  8.337852E+03 -2.708340E+04
       349   9 -1.578948E+06 -3.789869E+05 -1.120957E+05 -6.113622E+05  1.318570E+04 -3.136493E+04
       349  10 -7.900479E+05 -8.865080E+04  6.597382E+04 -3.939797E+05 -1.229282E-09  6.481314E-10
       349  11 -7.217743E+05 -5.137701E+04  8.004168E+04 -3.624286E+05 -1.861439E-10 -4.451773E-10
       349  12 -6.360122E+05 -3.233098E+04  9.207716E+04 -3.513710E+05 -7.486847E-10  7.274899E-10
       349  13 -1.107535E+06 -2.054103E+05 -3.092558E+03 -4.814993E+05 -1.760418E-09  1.001999E-09
       349  14 -1.116297E+06 -1.964152E+05 -5.492650E+03 -4.712074E+05 -1.108492E-09  1.247126E-09
       349  15 -1.107595E+06 -2.056689E+05 -1.000426E+04 -4.814123E+05 -5.651563E-10  6.893474E-10
       349  16 -1.424919E+06 -3.221618E+05 -7.216491E+04 -5.689778E+05  1.115818E-09  4.870977E-10
       349  17 -1.510659E+06 -3.414405E+05 -9.103577E+04 -5.799222E+05  7.898915E-10  1.437748E-10
       349  18 -1.578948E+06 -3.789880E+05 -1.120978E+05 -6.113619E+05  7.036695E-10  8.937842E-10
       349  19 -7.900475E+05 -8.865039E+04  6.597492E+04 -3.939799E+05 -1.647823E+04  1.782534E+04
       349  20 -7.217737E+05 -5.137636E+04  8.004346E+04 -3.624290E+05 -2.115754E+04  2.226355E+04
       349  21 -6.360113E+05 -3.233004E+04  9.207974E+04 -3.513716E+05 -2.580772E+04  2.661641E+04
       349  22 -1.107535E+06 -2.054098E+05 -3.091600E+03 -4.814995E+05 -9.967364E+03  2.027168E+04
       349  23 -1.116296E+06 -1.964145E+05 -5.491098E+03 -4.712077E+05 -1.474548E+04  2.467430E+04
       349  24 -1.107594E+06 -2.056679E+05 -1.000197E+04 -4.814128E+05 -1.949409E+04  2.899165E+04
       349  25 -1.424919E+06 -3.221613E+05 -7.216392E+04 -5.689778E+05 -3.460098E+03  2.271667E+04
       349  26 -1.510659E+06 -3.414396E+05 -9.103426E+04 -5.799224E+05 -8.337852E+03  2.708340E+04
       349  27 -1.578948E+06 -3.789869E+05 -1.120957E+05 -6.113622E+05 -1.318570E+04  3.136493E+04
       350   1 -5.803703E+05 -1.220384E+04  1.012773E+05 -3.374029E+05  2.920192E+04 -2.901269E+04
       350   2 -5.130415E+05  2.587725E+04  1.071863E+05 -3.036503E+05  4.155274E+04 -2.994191E+04
       350   3 -4.316972E+05  3.967937E+04  1.035417E+05 -2.888481E+05  5.339302E+04 -2.950055E+04
       350   4 -1.108177E+06 -2.051893E+05 -1.325536E+04 -4.817862E+05  2.257112E+04 -3.150828E+04
       350   5 -1.115588E+06 -1.967619E+05 -2.408788E+04 -4.708601E+05  3.653986E+04 -3.183136E+04
       350   6 -1.109316E+06 -2.129425E+05 -4.576594E+04 -4.788893E+05  4.999642E+04 -3.078373E+04
       350   7 -1.635704E+06 -3.981549E+05 -1.278054E+05 -6.260580E+05  1.594637E+04 -3.400163E+04
       350   8 -1.717768E+06 -4.193723E+05 -1.553843E+05 -6.379211E+05  3.153223E+04 -3.371883E+04
       350   9 -1.786470E+06 -4.655254E+05 -1.951016E+05 -6.687389E+05  4.660381E+04 -3.206538E+04
       350  10 -5.803715E+05 -1.220497E+04  1.012741E+05 -3.374022E+05 -5.121503E-10  1.217785E-09
       350  11 -5.130436E+05  2.587582E+04  1.071814E+05 -3.036493E+05  9.692981E-10 -8.465788E-10
       350  12 -4.317005E+05  3.967767E+04  1.035347E+05 -2.888468E+05  3.418248E-09  7.645467E-13
       350  13 -1.108177E+06 -2.051905E+05 -1.325818E+04 -4.817856E+05  1.985779E-09 -7.603437E-10
       350  14 -1.115590E+06 -1.967633E+05 -2.409229E+04 -4.708591E+05 -2.054680E-09  8.893819E-10
       350  15 -1.109319E+06 -2.129442E+05 -4.577242E+04 -4.788880E+05  1.450000E-09 -1.880945E-09
       350  16 -1.635704E+06 -3.981562E+05 -1.278080E+05 -6.260575E+05  8.471669E-10  3.236252E-10
       350  17 -1.717770E+06 -4.193738E+05 -1.553883E+05 -6.379202E+05 -6.229781E-10 -9.341093E-10
       350  18 -1.786473E+06 -4.655271E+05 -1.951077E+05 -6.687377E+05 -2.281030E-09 -7.582736E-10
       350  19 -5.803703E+05 -1.220384E+04  1.012773E+05 -3.374029E+05 -2.920192E+04  2.901269E+04
       350  20 -5.130415E+05  2.587725E+04  1.071863E+05 -3.036503E+05 -4.155274E+04  2.994191E+04
       350  21 -4.316972E+05  3.967937E+04  1.035417E+05 -2.888481E+05 -5.339302E+04  2.950055E+04
       350  22 -1.108177E+06 -2.051893E+05 -1.325536E+04 -4.817862E+05 -2.257112E+04  3.150828E+04
       350  23 -1.115588E+06 -1.967619E+05 -2.408788E+04 -4.708601E+05 -3.653986E+04  3.183136E+04
       350  24 -1.109316E+06 -2.129425E+05 -4.576594E+04 -4.788893E+05 -4.999642E+04  3.078373E+04
       350  25 -1.635704E+06 -3.981549E+05 -1.278054E+05 -6.260580E+05 -1.594637E+04  3.400163E+04
       350  26 -1.717768E+06 -4.193723E+05 -1.553843E+05 -6.379211E+05 -3.153223E+04  3.371883E+04
       350  27 -1.786470E+06 -4.655254E+05 -1.951016E+05 -6.687389E+05 -4.660381E+04  3.206538E+04
       351   1 -3.651605E+05  5.309792E+04  1.019259E+05 -3.022513E+05  6.816540E+04 -2.869670E+04
       351   2 -3.272922E+05  1.177676E+05  7.679033E+04 -2.044404E+05  9.395139E+04 -1.376531E+04
       351   3 -3.317369E+05  1.908419E+04 -9.098078E+03 -8.677550E+04  1.102573E+05  2.632650E+04
       351   4 -1.116910E+06 -2.015181E+05 -5.907657E+04 -4.866889E+05  5.858821E+04 -3.230536E+04
       351   5 -1.106236E+06 -2.113173E+05 -1.084102E+05 -4.610551E+05  1.142612E+05 -6.126204E+03
       351   6 -1.143894E+06 -3.905394E+05 -2.422725E+05 -4.155544E+05  1.604428E+05  4.522047E+04
       351   7 -1.868086E+06 -4.561105E+05 -2.201107E+05 -6.709307E+05  4.902358E+04 -3.591018E+04
       351   8 -1.884554E+06 -5.402990E+05 -2.936491E+05 -7.173532E+05  1.345431E+05  1.499056E+03
       351   9 -1.955357E+06 -7.999385E+05 -4.754918E+05 -7.438830E+05  2.105554E+05  6.406584E+04
       351  10 -3.651657E+05  5.309579E+04  1.019157E+05 -3.022497E+05  2.464187E-09 -1.609433E-09
       351  11 -3.273017E+05  1.177650E+05  7.677338E+04 -2.044394E+05 -3.719950E-09 -5.296927E-09
       351  12 -3.317501E+05  1.908018E+04 -9.122239E+03 -8.677784E+04 -5.263674E-09 -3.830692E-10
       351  13 -1.116914E+06 -2.015201E+05 -5.908499E+04 -4.866874E+05  6.357386E-10 -4.889946E-09
       351  14 -1.106250E+06 -2.113208E+05 -1.084348E+05 -4.610545E+05 -1.718230E-09 -3.275068E-09
       351  15 -1.143922E+06 -3.905485E+05 -2.423248E+05 -4.155602E+05 -1.577824E-09  4.847439E-10
       351  16 -1.868089E+06 -4.561125E+05 -2.201177E+05 -6.709292E+05 -3.616442E-09 -2.190188E-09
       351  17 -1.884574E+06 -5.403038E+05 -2.936832E+05 -7.173534E+05 -2.442815E-09 -2.033261E-09
       351  18 -1.955406E+06 -7.999548E+05 -4.755832E+05 -7.438939E+05  2.196577E-09  3.874159E-10
       351  19 -3.651605E+05  5.309792E+04  1.019259E+05 -3.022513E+05 -6.816540E+04  2.869670E+04
       351  20 -3.272922E+05  1.177676E+05  7.679033E+04 -2.044404E+05 -9.395139E+04  1.376531E+04
       351  21 -3.317369E+05  1.908419E+04 -9.098078E+03 -8.677550E+04 -1.102573E+05 -2.632650E+04
       351  22 -1.116910E+06 -2.015181E+05 -5.907657E+04 -4.866889E+05 -5.858821E+04  3.230536E+04
       351  23 -1.106236E+06 -2.113173E+05 -1.084102E+05 -4.610551E+05 -1.142612E+05  6.126204E+03
       351  24 -1.143894E+06 -3.905394E+05 -2.422725E+05 -4.155544E+05 -1.604428E+05 -4.522047E+04
       351  25 -1.868086E+06 -4.561105E+05 -2.201107E+05 -6.709307E+05 -4.902358E+04  3.591018E+04
       351  26 -1.884554E+06 -5.402990E+05 -2.936491E+05 -7.173532E+05 -1.345431E+05 -1.499056E+03
       351  27 -1.955357E+06 -7.999385E+05 -4.754918E+05 -7.438830E+05 -2.105554E+05 -6.406584E+04
       352   1  2.596045E+05  6.193728E+04  3.731436E+04 -2.226058E+04 -5.507913E+04 -9.895757E+03
       352   2  2.211927E+05  1.495892E+05  7.806460E+04  6.347684E+03 -4.372910E+04 -3.171028E+04
       352   3  1.591731E+05  1.486356E+05  8.931610E+04  5.089312E+04 -3.242119E+04 -3.529014E+04
       352   4 -4.400731E+05 -1.112378E+05 -1.303736E+05  3.581449E+04 -8.993814E+04 -9.981377E+03
       352   5 -4.264471E+05 -7.559852E+03 -6.062601E+04  2.770374E+04 -5.804165E+04 -3.174945E+04
       352   6 -4.400295E+05  3.888863E+03 -3.467418E+04  3.553268E+04 -2.618535E+04 -3.527561E+04
       352   7 -1.139292E+06 -2.844349E+05 -2.980897E+05  9.382360E+04 -1.247580E+05 -1.007357E+04
       352   8 -1.073691E+06 -1.647345E+05 -1.993400E+05  4.903695E+04 -7.233946E+04 -3.178964E+04
       352   9 -1.038891E+06 -1.408798E+05 -1.586837E+05  2.018709E+04 -1.995542E+04 -3.526138E+04
       352  10  2.596012E+05  6.193636E+04  3.730848E+04 -2.226102E+04  6.755269E-09 -6.429557E-10
       352  11  2.211904E+05  1.495876E+05  7.805912E+04  6.346568E+03 -1.532271E-08 -5.701777E-09
       352  12  1.591717E+05  1.486340E+05  8.931178E+04  5.089220E+04 -3.098959E-08 -7.663814E-09
       352  13 -4.400818E+05 -1.112401E+05 -1.303890E+05  3.581376E+04 -1.431396E-10  1.886056E-09
       352  14 -4.264510E+05 -7.561840E+03 -6.063424E+04  2.770225E+04 -6.375308E-10 -3.153544E-09
       352  15 -4.400306E+05  3.887343E+03 -3.467781E+04  3.553193E+04 -6.672631E-10 -3.178522E-09
       352  16 -1.139309E+06 -2.844392E+05 -2.981192E+05  9.382259E+04 -8.517037E-09  4.859280E-10
       352  17 -1.073697E+06 -1.647370E+05 -1.993517E+05  4.903510E+04  1.651111E-08 -7.237271E-09
       352  18 -1.038892E+06 -1.408813E+05 -1.586868E+05  2.018652E+04  3.236713E-08 -1.033577E-08
       352  19  2.596045E+05  6.193728E+04  3.731436E+04 -2.226058E+04  5.507913E+04  9.895757E+03
       352  20  2.211927E+05  1.495892E+05  7.806460E+04  6.347684E+03  4.372910E+04  3.171028E+04
       352  21  1.591731E+05  1.486356E+05  8.931610E+04  5.089312E+04  3.242119E+04  3.529014E+04
       352  22 -4.400731E+05 -1.112378E+05 -1.303736E+05  3.581449E+04  8.993814E+04  9.981377E+03
       352  23 -4.264471E+05 -7.559852E+03 -6.062601E+04  2.770374E+04  5.804165E+04  3.174945E+04
       352  24 -4.400295E+05  3.888863E+03 -3.467418E+04  3.553268E+04  2.618535E+04  3.527561E+04
       352  25 -1.139292E+06 -2.844349E+05 -2.980897E+05  9.382360E+04  1.247580E+05  1.007357E+04
       352  26 -1.073691E+06 -1.647345E+05 -1.993400E+05  4.903695E+04  7.233946E+04  3.178964E+04
       352  27 -1.038891E+06 -1.408798E+05 -1.586837E+05  2.018709E+04  1.995542E+04  3.526138E+04
       353   1  1.274507E+05  1.312117E+05  8.948666E+04  3.542615E+04 -2.309897E+04 -3.250786E+04
       353   2  7.825152E+04  1.234855E+05  9.059380E+04  2.819769E+04 -1.670369E+04 -3.057303E+04
       353   3  2.717753E+04  1.118124E+05  8.653917E+04  3.779831E+04 -1.031286E+04 -2.769444E+04
       353   4 -4.344363E+05 -4.509311E+03 -2.718013E+04  3.579951E+04 -2.145487E+04 -3.250571E+04
       353   5 -4.333958E+05  3.243103E+01 -1.492548E+04  2.737740E+04 -1.400097E+04 -3.056727E+04
       353   6 -4.344178E+05  4.413206E+02 -8.571470E+03  3.578529E+04 -6.550999E+03 -2.768472E+04
       353   7 -9.960241E+05 -1.402504E+05 -1.438642E+05  3.617233E+04 -1.981223E+04 -3.250355E+04
       353   8 -9.447946E+05 -1.234372E+05 -1.204588E+05  2.655761E+04 -1.130044E+04 -3.056152E+04
       353   9 -8.958108E+05 -1.109432E+05 -1.036935E+05  3.377363E+04 -2.791882E+03 -2.767503E+04
       353  10  1.274498E+05  1.312104E+05  8.948367E+04  3.542554E+04  2.593009E-08 -9.615205E-09
       353  11  7.825097E+04  1.234844E+05  9.059152E+04  2.819728E+04  1.214214E-08  9.781016E-10
       353  12  2.717721E+04  1.118115E+05  8.653753E+04  3.779808E+04 -6.642715E-09  3.626546E-09
       353  13 -4.344371E+05 -4.510569E+03 -2.718298E+04  3.579895E+04 -2.158327E-11 -8.033196E-09
       353  14 -4.333962E+05  3.137524E+01 -1.492760E+04  2.737705E+04 -4.786819E-10 -1.258639E-09
       353  15 -4.344180E+05  4.404863E+02 -8.572991E+03  3.578514E+04  2.683135E-10 -2.078497E-09
       353  16 -9.960248E+05 -1.402516E+05 -1.438669E+05  3.617181E+04 -2.840946E-08 -4.244689E-09
       353  17 -9.447950E+05 -1.234382E+05 -1.204608E+05  2.655733E+04 -1.177567E-08  7.131135E-10
       353  18 -8.958110E+05 -1.109440E+05 -1.036950E+05  3.377357E+04  9.021131E-09  1.685541E-09
       353  19  1.274507E+05  1.312117E+05  8.948666E+04  3.542615E+04  2.309897E+04  3.250786E+04
       353  20  7.825152E+04  1.234855E+05  9.059380E+04  2.819769E+04  1.670369E+04  3.057303E+04
       353  21  2.717753E+04  1.118124E+05  8.653917E+04  3.779831E+04  1.031286E+04  2.769444E+04
       353  22 -4.344363E+05 -4.509311E+03 -2.718013E+04  3.579951E+04  2.145487E+04  3.250571E+04
       353  23 -4.333958E+05  3.243103E+01 -1.492548E+04  2.737740E+04  1.400097E+04  3.056727E+04
       353  24 -4.344178E+05  4.413206E+02 -8.571470E+03  3.578529E+04  6.550999E+03  2.768472E+04
       353  25 -9.960241E+05 -1.402504E+05 -1.438642E+05  3.617233E+04  1.981223E+04  3.250355E+04
       353  26 -9.447946E+05 -1.234372E+05 -1.204588E+05  2.655761E+04  1.130044E+04  3.056152E+04
       353  27 -8.958108E+05 -1.109432E+05 -1.036935E+05  3.377363E+04  2.791882E+03  2.767503E+04
       354   1 -9.450574E+03  1.024723E+05  8.072011E+04  3.701415E+04 -8.751992E+03 -2.577271E+04
       354   2 -5.959415E+04  9.048716E+04  7.325207E+04  2.840611E+04 -6.964578E+03 -2.261444E+04
       354   3 -1.100890E+05  7.841912E+04  6.457498E+04  3.673383E+04 -5.178722E+03 -1.940404E+04
       354   4 -4.340334E+05  7.796825E+01 -6.544748E+03  3.581255E+04 -5.222651E+03 -2.576324E+04
       354   5 -4.338453E+05  2.132968E+02 -3.745264E+03  2.734408E+04 -3.377725E+03 -2.260413E+04
       354   6 -4.340212E+05  2.556285E+02 -2.195435E+03  3.581198E+04 -1.534215E+03 -1.939289E+04
       354   7 -8.584450E+05 -1.023277E+05 -9.381921E+04  3.461165E+04 -1.695680E+03 -2.575377E+04
       354   8 -8.079634E+05 -9.006939E+04 -8.075006E+04  2.628260E+04  2.070049E+02 -2.259384E+04
       354   9 -7.578537E+05 -7.791449E+04 -6.897145E+04  3.489054E+04  2.108423E+03 -1.938174E+04
       354  10 -9.450835E+03  1.024715E+05  8.071872E+04  3.701397E+04 -2.085178E-09  6.206700E-09
       354  11 -5.959434E+04  9.048660E+04  7.325102E+04  2.840598E+04  1.815218E-09  4.058741E-09
       354  12 -1.100891E+05  7.841871E+04  6.457422E+04  3.673375E+04  7.404806E-09 -1.305082E-09
       354  13 -4.340336E+05  7.724833E+01 -6.546046E+03  3.581244E+04  3.237849E-10 -3.217909E-09
       354  14 -4.338454E+05  2.127452E+02 -3.746246E+03  2.734402E+04 -1.121253E-09  5.237935E-09
       354  15 -4.340213E+05  2.552241E+02 -2.196146E+03  3.581196E+04 -4.678505E-10  5.542840E-09
       354  16 -8.584452E+05 -1.023284E+05 -9.382047E+04  3.461162E+04  8.298148E-10  3.306194E-09
       354  17 -8.079635E+05 -9.006994E+04 -8.075102E+04  2.628261E+04 -7.614606E-10  6.168619E-09
       354  18 -7.578538E+05 -7.791489E+04 -6.897216E+04  3.489058E+04 -5.046994E-09  1.151578E-09
       354  19 -9.450574E+03  1.024723E+05  8.072011E+04  3.701415E+04  8.751992E+03  2.577271E+04
       354  20 -5.959415E+04  9.048716E+04  7.325207E+04  2.840611E+04  6.964578E+03  2.261444E+04
       354  21 -1.100890E+05  7.841912E+04  6.457498E+04  3.673383E+04  5.178722E+03  1.940404E+04
       354  22 -4.340334E+05  7.796825E+01 -6.544748E+03  3.581255E+04  5.222651E+03  2.576324E+04
       354  23 -4.338453E+05  2.132968E+02 -3.745264E+03  2.734408E+04  3.377725E+03  2.260413E+04
       354  24 -4.340212E+05  2.556285E+02 -2.195435E+03  3.581198E+04  1.534215E+03  1.939289E+04
       354  25 -8.584450E+05 -1.023277E+05 -9.381921E+04  3.461165E+04  1.695680E+03  2.575377E+04
       354  26 -8.079634E+05 -9.006939E+04 -8.075006E+04  2.628260E+04 -2.070049E+02  2.259384E+04
       354  27 -7.578537E+05 -7.791449E+04 -6.897145E+04  3.489054E+04 -2.108423E+03  1.938174E+04
       355   1 -1.471501E+05  6.940639E+04  5.716668E+04  3.661828E+04 -4.822778E+03 -1.752291E+04
       355   2 -1.975198E+05  5.721746E+04  4.753762E+04  2.797605E+04 -4.301087E+03 -1.429573E+04
       355   3 -2.480578E+05  4.513130E+04  3.756271E+04  3.631742E+04 -3.780267E+03 -1.106374E+04
       355   4 -4.339738E+05  2.456094E+02 -1.706114E+03  3.582274E+04 -1.187442E+03 -1.751145E+04
       355   5 -4.338838E+05  2.007169E+02 -1.086738E+03  2.733075E+04 -6.607072E+02 -1.428384E+04
       355   6 -4.339662E+05  2.576417E+02 -8.170305E+02  3.582271E+04 -1.347996E+02 -1.105140E+04
       355   7 -7.207193E+05 -6.892034E+04 -6.058325E+04  3.502752E+04  2.446243E+03 -1.750000E+04
       355   8 -6.701946E+05 -5.681954E+04 -4.971405E+04  2.668565E+04  2.978311E+03 -1.427195E+04
       355   9 -6.198418E+05 -4.461820E+04 -3.919859E+04  3.532813E+04  3.509594E+03 -1.103907E+04
       355  10 -1.471502E+05  6.940606E+04  5.716606E+04  3.661821E+04 -3.051140E-10 -2.093827E-09
       355  11 -1.975199E+05  5.721723E+04  4.753720E+04  2.797600E+04  7.889769E-09  8.877283E-09
       355  12 -2.480579E+05  4.513117E+04  3.756246E+04  3.631738E+04  1.520868E-08  8.111828E-09
       355  13 -4.339739E+05  2.452798E+02 -1.706693E+03  3.582273E+04 -1.060975E-09 -1.727426E-11
       355  14 -4.338838E+05  2.004977E+02 -1.087122E+03  2.733074E+04 -1.760211E-09  7.134923E-09
       355  15 -4.339663E+05  2.575105E+02 -8.172600E+02  3.582271E+04 -2.068938E-10  3.034623E-09
       355  16 -7.207194E+05 -6.892067E+04 -6.058384E+04  3.502755E+04 -2.478582E-09 -2.798255E-10
       355  17 -6.701947E+05 -5.681976E+04 -4.971445E+04  2.668568E+04 -7.116248E-09  1.611700E-09
       355  18 -6.198418E+05 -4.461833E+04 -3.919884E+04  3.532817E+04 -1.411934E-08  2.416991E-10
       355  19 -1.471501E+05  6.940639E+04  5.716668E+04  3.661828E+04  4.822778E+03  1.752291E+04
       355  20 -1.975198E+05  5.721746E+04  4.753762E+04  2.797605E+04  4.301087E+03  1.429573E+04
       355  21 -2.480578E+05  4.513130E+04  3.756271E+04  3.631742E+04  3.780267E+03  1.106374E+04
       355  22 -4.339738E+05  2.456094E+02 -1.706114E+03  3.582274E+04  1.187442E+03  1.751145E+04
       355  23 -4.338838E+05  2.007169E+02 -1.086738E+03  2.733075E+04  6.607072E+02  1.428384E+04
       355  24 -4.339662E+05  2.576417E+02 -8.170305E+02  3.582271E+04  1.347996E+02  1.105140E+04
       355  25 -7.207193E+05 -6.892034E+04 -6.058325E+04  3.502752E+04 -2.446243E+03  1.750000E+04
       355  26 -6.701946E+05 -5.681954E+04 -4.971405E+04  2.668565E+04 -2.978311E+03  1.427195E+04
       355  27 -6.198418E+05 -4.461820E+04 -3.919859E+04  3.532813E+04 -3.509594E+03  1.103907E+04
       356   1 -2.852389E+05  3.611087E+04  2.968085E+04  3.622152E+04 -3.642851E+03 -9.181262E+03
       356   2 -3.356778E+05  2.390189E+04  1.930676E+04  2.755624E+04 -3.211159E+03 -5.945715E+03
       356   3 -3.862897E+05  1.179948E+04  8.641903E+03  3.590292E+04 -2.779829E+03 -2.710384E+03
       356   4 -4.339641E+05  2.596774E+02 -7.825112E+02  3.582897E+04  3.922596E+00 -9.168743E+03
       356   5 -4.338752E+05  2.127186E+02 -8.952355E+02  2.732290E+04  4.351951E+02 -5.933027E+03
       356   6 -4.339610E+05  2.727363E+02 -1.298223E+03  3.582894E+04  8.661400E+02 -2.697518E+03
       356   7 -5.826682E+05 -3.559290E+04 -3.124700E+04  3.543650E+04  3.649839E+03 -9.156228E+03
       356   8 -5.320635E+05 -2.347705E+04 -2.109770E+04  2.708959E+04  4.080982E+03 -5.920341E+03
       356   9 -4.816302E+05 -1.125415E+04 -1.123842E+04  3.575496E+04  4.511833E+03 -2.684653E+03
       356  10 -2.852389E+05  3.611078E+04  2.968067E+04  3.622149E+04 -7.859818E-09  1.123191E-09
       356  11 -3.356778E+05  2.390185E+04  1.930668E+04  2.755623E+04 -5.102061E-09 -1.606341E-10
       356  12 -3.862897E+05  1.179947E+04  8.641874E+03  3.590291E+04 -2.980030E-10 -4.215893E-09
       356  13 -4.339641E+05  2.595872E+02 -7.826692E+02  3.582897E+04  2.532398E-10  9.974979E-09
       356  14 -4.338752E+05  2.126807E+02 -8.953020E+02  2.732291E+04 -1.891263E-09  7.808022E-10
       356  15 -4.339610E+05  2.727283E+02 -1.298238E+03  3.582894E+04 -1.377012E-09 -4.633314E-09
       356  16 -5.826683E+05 -3.559299E+04 -3.124718E+04  3.543653E+04  5.146971E-09  4.093714E-09
       356  17 -5.320635E+05 -2.347710E+04 -2.109780E+04  2.708961E+04  4.612390E-09 -2.410574E-09
       356  18 -4.816302E+05 -1.125416E+04 -1.123848E+04  3.575497E+04  1.709135E-09 -4.922287E-09
       356  19 -2.852389E+05  3.611087E+04  2.968085E+04  3.622152E+04  3.642851E+03  9.181262E+03
       356  20 -3.356778E+05  2.390189E+04  1.930676E+04  2.755624E+04  3.211159E+03  5.945715E+03
       356  21 -3.862897E+05  1.179948E+04  8.641903E+03  3.590292E+04  2.779829E+03  2.710384E+03
       356  22 -4.339641E+05  2.596774E+02 -7.825112E+02  3.582897E+04 -3.922596E+00  9.168743E+03
       356  23 -4.338752E+05  2.127186E+02 -8.952355E+02  2.732290E+04 -4.351951E+02  5.933027E+03
       356  24 -4.339610E+05  2.727363E+02 -1.298223E+03  3.582894E+04 -8.661400E+02  2.697518E+03
       356  25 -5.826682E+05 -3.559290E+04 -3.124700E+04  3.543650E+04 -3.649839E+03  9.156228E+03
       356  26 -5.320635E+05 -2.347705E+04 -2.109770E+04  2.708959E+04 -4.080982E+03  5.920341E+03
       356  27 -4.816302E+05 -1.125415E+04 -1.123842E+04  3.575496E+04 -4.511833E+03  2.684653E+03
       357   1 -4.235350E+05  2.778971E+03  3.782951E+02  3.577192E+04 -2.527659E+03 -8.245871E+02
       357   2 -4.739031E+05 -9.426643E+03 -1.099205E+04  2.709422E+04 -1.153663E+03  2.407083E+03
       357   3 -5.246049E+05 -2.166819E+04 -2.330336E+04  3.543126E+04  2.204473E+02  5.612479E+03
       357   4 -4.339953E+05  2.830532E+02 -1.638951E+03  3.582937E+04  1.125010E+03 -8.116663E+02
       357   5 -4.338307E+05  2.439941E+02 -2.739154E+03  2.732223E+04  2.469337E+03  2.419824E+03
       357   6 -4.339969E+05  1.743216E+02 -4.759574E+03  3.582977E+04  3.813889E+03  5.625050E+03
       357   7 -4.444555E+05 -2.212864E+03 -3.656152E+03  3.588681E+04  4.777618E+03 -7.987447E+02
       357   8 -3.937567E+05  9.914536E+03  5.513702E+03  2.755026E+04  6.092568E+03  2.432567E+03
       357   9 -3.433812E+05  2.201633E+04  1.378383E+04  3.622833E+04  7.407845E+03  5.637624E+03
       357  10 -4.235350E+05  2.778968E+03  3.782818E+02  3.577192E+04 -6.270906E-09  1.481915E-09
       357  11 -4.739031E+05 -9.426649E+03 -1.099206E+04  2.709422E+04 -4.289916E-09  2.311793E-09
       357  12 -5.246049E+05 -2.166823E+04 -2.330342E+04  3.543126E+04 -3.659403E-09  2.955732E-09
       357  13 -4.339953E+05  2.830522E+02 -1.638955E+03  3.582937E+04 -5.258393E-10 -1.201427E-09
       357  14 -4.338307E+05  2.439861E+02 -2.739177E+03  2.732223E+04 -2.551958E-09  1.386635E-09
       357  15 -4.339970E+05  1.742837E+02 -4.759660E+03  3.582975E+04 -8.283323E-10  4.551761E-09
       357  16 -4.444555E+05 -2.212870E+03 -3.656196E+03  3.588682E+04  3.731673E-09  9.898297E-10
       357  17 -3.937568E+05  9.914520E+03  5.513621E+03  2.755025E+04  4.677625E-09 -1.033067E-08
       357  18 -3.433812E+05  2.201628E+04  1.378367E+04  3.622829E+04  4.365317E-09 -6.037193E-10
       357  19 -4.235350E+05  2.778971E+03  3.782951E+02  3.577192E+04  2.527659E+03  8.245871E+02
       357  20 -4.739031E+05 -9.426643E+03 -1.099205E+04  2.709422E+04  1.153663E+03 -2.407083E+03
       357  21 -5.246049E+05 -2.166819E+04 -2.330336E+04  3.543126E+04 -2.204473E+02 -5.612479E+03
       357  22 -4.339953E+05  2.830532E+02 -1.638951E+03  3.582937E+04 -1.125010E+03  8.116663E+02
       357  23 -4.338307E+05  2.439941E+02 -2.739154E+03  2.732223E+04 -2.469337E+03 -2.419824E+03
       357  24 -4.339969E+05  1.743216E+02 -4.759574E+03  3.582977E+04 -3.813889E+03 -5.625050E+03
       357  25 -4.444555E+05 -2.212864E+03 -3.656152E+03  3.588681E+04 -4.777618E+03  7.987447E+02
       357  26 -3.937567E+05  9.914536E+03  5.513702E+03  2.755026E+04 -6.092568E+03 -2.432567E+03
       357  27 -3.433812E+05  2.201633E+04  1.378383E+04  3.622833E+04 -7.407845E+03 -5.637624E+03
       358   1 -5.620885E+05 -3.043390E+04 -3.267686E+04  3.478097E+04  1.057072E+03  7.523239E+03
       358   2 -6.117426E+05 -4.290569E+04 -4.765437E+04  2.707601E+04  7.023643E+03  1.059001E+04
       358   3 -6.630736E+05 -5.843504E+04 -6.731761E+04  3.635019E+04  1.299187E+04  1.315073E+04
       358   4 -4.342763E+05  4.403859E+02 -6.226211E+03  3.581869E+04  4.776461E+03  7.536134E+03
       358   5 -4.334899E+05  1.324212E+02 -1.082348E+04  2.733539E+04  1.017392E+04  1.060062E+04
       358   6 -4.342838E+05 -3.133600E+03 -1.971003E+04  3.583101E+04  1.557352E+04  1.315912E+04
       358   7 -3.064485E+05  3.131364E+04  2.022361E+04  3.685660E+04  8.496602E+03  7.549039E+03
       358   8 -2.552070E+05  4.316853E+04  2.600573E+04  2.759482E+04  1.332508E+04  1.061123E+04
       358   9 -2.054445E+05  5.216451E+04  2.789470E+04  3.531159E+04  1.815610E+04  1.316750E+04
       358  10 -5.620885E+05 -3.043396E+04 -3.267697E+04  3.478097E+04 -7.084539E-09  7.224110E-09
       358  11 -6.117427E+05 -4.290583E+04 -4.765468E+04  2.707595E+04 -1.781232E-09  1.948428E-09
       358  12 -6.630738E+05 -5.843527E+04 -6.731826E+04  3.635005E+04  3.710017E-09  5.407184E-09
       358  13 -4.342763E+05  4.403188E+02 -6.226360E+03  3.581866E+04 -5.806787E-10  2.683697E-09
       358  14 -4.334900E+05  1.322728E+02 -1.082388E+04  2.733531E+04 -1.732455E-09  7.236702E-09
       358  15 -4.342841E+05 -3.133851E+03 -1.971082E+04  3.583084E+04 -8.091756E-10 -2.504116E-09
       358  16 -3.064486E+05  3.131356E+04  2.022336E+04  3.685655E+04  4.721923E-09  2.712091E-09
       358  17 -2.552072E+05  4.316836E+04  2.600519E+04  2.759471E+04  2.532054E-09 -7.641429E-10
       358  18 -2.054449E+05  5.216424E+04  2.789375E+04  3.531140E+04 -2.294392E-09 -9.102656E-09
       358  19 -5.620885E+05 -3.043390E+04 -3.267686E+04  3.478097E+04 -1.057072E+03 -7.523239E+03
       358  20 -6.117426E+05 -4.290569E+04 -4.765437E+04  2.707601E+04 -7.023643E+03 -1.059001E+04
       358  21 -6.630736E+05 -5.843504E+04 -6.731761E+04  3.635019E+04 -1.299187E+04 -1.315073E+04
       358  22 -4.342763E+05  4.403859E+02 -6.226211E+03  3.581869E+04 -4.776461E+03 -7.536134E+03
       358  23 -4.334899E+05  1.324212E+02 -1.082348E+04  2.733539E+04 -1.017392E+04 -1.060062E+04
       358  24 -4.342838E+05 -3.133600E+03 -1.971003E+04  3.583101E+04 -1.557352E+04 -1.315912E+04
       358  25 -3.064485E+05  3.131364E+04  2.022361E+04  3.685660E+04 -8.496602E+03 -7.549039E+03
       358  26 -2.552070E+05  4.316853E+04  2.600573E+04  2.759482E+04 -1.332508E+04 -1.061123E+04
       358  27 -2.054445E+05  5.216451E+04  2.789470E+04  3.531159E+04 -1.815610E+04 -1.316750E+04
       359   1 -7.044920E+05 -6.143803E+04 -8.038407E+04  2.473104E+04  1.395310E+04  1.551492E+04
       359   2 -7.442561E+05 -8.202647E+04 -1.118889E+05  4.308830E+04  4.808029E+04  1.520130E+04
       359   3 -8.057810E+05 -1.714059E+05 -1.828480E+05  7.802337E+04  8.223544E+04  5.084513E+03
       359   4 -4.383412E+05  2.959931E+03 -2.514352E+04  3.567627E+04  1.900131E+04  1.553161E+04
       359   5 -4.284383E+05 -5.358809E+03 -4.395326E+04  2.752226E+04  4.208818E+04  1.517986E+04
       359   6 -4.383690E+05 -8.053326E+04 -9.453406E+04  3.594797E+04  6.520620E+04  5.024269E+03
       359   7 -1.721229E+05  6.735382E+04  3.009331E+04  4.662623E+04  2.405165E+04  1.554848E+04
       359   8 -1.125260E+05  7.130327E+04  2.397677E+04  1.194811E+04  3.609306E+04  1.515873E+04
       359   9 -7.082871E+04  1.033647E+04 -6.227644E+03 -6.152549E+03  4.816689E+04  4.966355E+03
       359  10 -7.044922E+05 -6.143834E+04 -8.038488E+04  2.473086E+04 -4.130546E-09  3.326537E-09
       359  11 -7.442587E+05 -8.202734E+04 -1.118937E+05  4.308771E+04 -1.124228E-09 -2.921660E-09
       359  12 -8.057883E+05 -1.714077E+05 -1.828608E+05  7.802303E+04  8.042202E-10 -1.554993E-09
       359  13 -4.383416E+05  2.959575E+03 -2.514465E+04  3.567603E+04 -3.111796E-10  7.354207E-09
       359  14 -4.284403E+05 -5.359532E+03 -4.395703E+04  2.752174E+04 -1.365036E-11 -9.494424E-09
       359  15 -4.383736E+05 -8.053442E+04 -9.454210E+04  3.594770E+04 -3.527293E-10  3.873691E-09
       359  16 -1.721236E+05  6.735341E+04  3.009177E+04  4.662593E+04  1.642940E-09  1.160265E-09
       359  17 -1.125275E+05  7.130267E+04  2.397389E+04  1.194766E+04  1.455693E-09  4.621793E-09
       359  18 -7.083120E+04  1.033582E+04 -6.232051E+03 -6.152742E+03  1.757001E-09 -3.926462E-10
       359  19 -7.044920E+05 -6.143803E+04 -8.038407E+04  2.473104E+04 -1.395310E+04 -1.551492E+04
       359  20 -7.442561E+05 -8.202647E+04 -1.118889E+05  4.308830E+04 -4.808029E+04 -1.520130E+04
       359  21 -8.057810E+05 -1.714059E+05 -1.828480E+05  7.802337E+04 -8.223544E+04 -5.084513E+03
       359  22 -4.383412E+05  2.959931E+03 -2.514352E+04  3.567627E+04 -1.900131E+04 -1.553161E+04
       359  23 -4.284383E+05 -5.358809E+03 -4.395326E+04  2.752226E+04 -4.208818E+04 -1.517986E+04
       359  24 -4.383690E+05 -8.053326E+04 -9.453406E+04  3.594797E+04 -6.520620E+04 -5.024269E+03
       359  25 -1.721229E+05  6.735382E+04  3.009331E+04  4.662623E+04 -2.405165E+04 -1.554848E+04
       359  26 -1.125260E+05  7.130327E+04  2.397677E+04  1.194811E+04 -3.609306E+04 -1.515873E+04
       359  27 -7.082871E+04  1.033647E+04 -6.227644E+03 -6.152549E+03 -4.816689E+04 -4.966355E+03
       360   1  2.987557E+05  1.529393E+06  3.084109E+05 -2.422105E+05  8.789650E+03  1.002125E+05
       360   2  1.468521E+05  1.257295E+06  1.780890E+05 -1.693051E+05  2.484705E+04  4.600447E+04
       360   3  7.504157E+04  1.011881E+06  1.029464E+05 -1.820360E+05  1.738492E+04 -8.235960E+03
       360   4  9.103221E+04  6.933214E+05  1.062526E+05 -1.922838E+05  8.877950E+03  6.889155E+04
       360   5  6.819343E+03  6.823574E+05  5.283209E+04 -1.495883E+05  2.486268E+04  4.129324E+04
       360   6 -1.865615E+03  6.934417E+05  3.617925E+04 -1.925211E+05  1.732329E+04  1.363952E+04
       360   7 -1.167327E+05 -1.421050E+05 -9.595091E+04 -1.424240E+05  8.961291E+03  3.761248E+04
       360   8 -1.332339E+05  1.077296E+05 -7.244442E+04 -1.298898E+05  2.487802E+04  3.658629E+04
       360   9 -7.877861E+04  3.750996E+05 -3.059165E+04 -2.030006E+05  1.726089E+04  3.550397E+04
       360  10  2.987529E+05  1.529382E+06  3.083920E+05 -2.422112E+05  2.303512E-10 -2.325034E-09
       360  11  1.468508E+05  1.257293E+06  1.780839E+05 -1.693060E+05 -3.956585E-10 -1.305469E-09
       360  12  7.504123E+04  1.011881E+06  1.029457E+05 -1.820359E+05  5.283176E-10 -1.003592E-09
       360  13  9.103085E+04  6.933163E+05  1.062436E+05 -1.922843E+05  6.187573E-10  1.993091E-09
       360  14  6.818221E+03  6.823554E+05  5.282773E+04 -1.495892E+05  1.594406E-10 -2.285441E-09
       360  15 -1.865987E+03  6.934415E+05  3.617834E+04 -1.925213E+05  2.200170E-10  3.098615E-09
       360  16 -1.167332E+05 -1.421066E+05 -9.595372E+04 -1.424243E+05 -6.159013E-10  3.501140E-09
       360  17 -1.332350E+05  1.077280E+05 -7.244810E+04 -1.298905E+05  1.976099E-10  1.329246E-09
       360  18 -7.877926E+04  3.750982E+05 -3.059458E+04 -2.030011E+05 -6.492115E-10  2.585151E-09
       360  19  2.987557E+05  1.529393E+06  3.084109E+05 -2.422105E+05 -8.789650E+03 -1.002125E+05
       360  20  1.468521E+05  1.257295E+06  1.780890E+05 -1.693051E+05 -2.484705E+04 -4.600447E+04
       360  21  7.504157E+04  1.011881E+06  1.029464E+05 -1.820360E+05 -1.738492E+04  8.235960E+03
       360  22  9.103221E+04  6.933214E+05  1.062526E+05 -1.922838E+05 -8.877950E+03 -6.889155E+04
       360  23  6.819343E+03  6.823574E+05  5.283209E+04 -1.495883E+05 -2.486268E+04 -4.129324E+04
       360  24 -1.865615E+03  6.934417E+05  3.617925E+04 -1.925211E+05 -1.732329E+04 -1.363952E+04
       360  25 -1.167327E+05 -1.421050E+05 -9.595091E+04 -1.424240E+05 -8.961291E+03 -3.761248E+04
       360  26 -1.332339E+05  1.077296E+05 -7.244442E+04 -1.298898E+05 -2.487802E+04 -3.658629E+04
       360  27 -7.877861E+04  3.750996E+05 -3.059165E+04 -2.030006E+05 -1.726089E+04 -3.550397E+04
       361   1  3.533795E+04  8.167933E+05  6.005251E+04 -1.955583E+05  6.532400E+03 -8.234532E+03
       361   2 -3.063926E+04  5.563740E+05  4.826550E+03 -1.489161E+05 -7.703145E+03 -2.381360E+04
       361   3 -8.707045E+04  2.998938E+05 -3.801555E+04 -1.890722E+05 -2.159714E+04 -3.938362E+04
       361   4  4.461498E+03  6.894314E+05  3.301588E+04 -1.927286E+05  6.485304E+03  8.079219E+03
       361   5  9.674610E+02  6.874493E+05  3.186532E+04 -1.493268E+05 -7.747930E+03 -7.889503E+03
       361   6  7.089426E+03  6.894083E+05  4.336910E+04 -1.927210E+05 -2.163971E+04 -2.385541E+04
       361   7 -2.641584E+04  5.620854E+05  5.979322E+03 -1.898995E+05  6.438350E+03  2.438968E+04
       361   8  3.257324E+04  8.185415E+05  5.890411E+04 -1.497377E+05 -7.792730E+03  8.037893E+03
       361   9  1.012398E+05  1.079067E+06  1.247463E+05 -1.963720E+05 -2.168245E+04 -8.317613E+03
       361  10  3.533789E+04  8.167932E+05  6.005230E+04 -1.955583E+05 -6.929281E-10 -2.517991E-09
       361  11 -3.063948E+04  5.563733E+05  4.825373E+03 -1.489162E+05  1.391980E-09 -1.463618E-09
       361  12 -8.707137E+04  2.998920E+05 -3.801934E+04 -1.890729E+05 -6.505265E-10 -1.907512E-09
       361  13  4.461436E+03  6.894313E+05  3.301568E+04 -1.927287E+05  6.600085E-10  2.455626E-09
       361  14  9.673798E+02  6.874492E+05  3.186509E+04 -1.493269E+05  1.480816E-09 -3.314681E-09
       361  15  7.088771E+03  6.894076E+05  4.336715E+04 -1.927214E+05  2.615723E-09  3.081937E-09
       361  16 -2.641604E+04  5.620848E+05  5.978127E+03 -1.898996E+05  5.456838E-10  3.512347E-09
       361  17  3.257316E+04  8.185414E+05  5.890388E+04 -1.497377E+05 -7.307643E-10  2.001866E-09
       361  18  1.012393E+05  1.079067E+06  1.247452E+05 -1.963722E+05 -8.402157E-10  3.059268E-09
       361  19  3.533795E+04  8.167933E+05  6.005251E+04 -1.955583E+05 -6.532400E+03  8.234532E+03
       361  20 -3.063926E+04  5.563740E+05  4.826550E+03 -1.489161E+05  7.703145E+03  2.381360E+04
       361  21 -8.707045E+04  2.998938E+05 -3.801555E+04 -1.890722E+05  2.159714E+04  3.938362E+04
       361  22  4.461498E+03  6.894314E+05  3.301588E+04 -1.927286E+05 -6.485304E+03 -8.079219E+03
       361  23  9.674610E+02  6.874493E+05  3.186532E+04 -1.493268E+05  7.747930E+03  7.889503E+03
       361  24  7.089426E+03  6.894083E+05  4.336910E+04 -1.927210E+05  2.163971E+04  2.385541E+04
       361  25 -2.641584E+04  5.620854E+05  5.979322E+03 -1.898995E+05 -6.438350E+03 -2.438968E+04
       361  26  3.257324E+04  8.185415E+05  5.890411E+04 -1.497377E+05  7.792730E+03 -8.037893E+03
       361  27  1.012398E+05  1.079067E+06  1.247463E+05 -1.963720E+05  2.168245E+04  8.317613E+03
       362   1 -1.442413E+05  1.159558E+05 -6.910192E+04 -2.103629E+05 -3.272398E+04 -5.416657E+04
       362   2 -1.927697E+05 -1.583613E+05 -9.667008E+04 -1.173120E+05 -3.787260E+04 -6.436496E+04
       362   3 -1.210474E+05 -4.014888E+05 -8.759331E+04 -1.095710E+05 -1.280901E+04 -7.449382E+04
       362   4 -4.066147E+03  6.967180E+05  5.185406E+04 -1.924710E+05 -3.278595E+04 -3.132207E+04
       362   5  1.090652E+04  6.781388E+05  8.450324E+04 -1.496431E+05 -3.783761E+04 -7.564285E+04
       362   6  1.519518E+05  6.965360E+05  1.774336E+05 -1.920996E+05 -1.269377E+04 -1.198999E+05
       362   7  1.360891E+05  1.277801E+06  1.727936E+05 -1.745618E+05 -3.284657E+04 -8.456553E+03
       362   8  2.145404E+05  1.515298E+06  2.656360E+05 -1.820178E+05 -3.780148E+04 -8.693570E+04
       362   9  4.248891E+05  1.795682E+06  4.423854E+05 -2.747739E+05 -1.256658E+04 -1.653858E+05
       362  10 -1.442433E+05  1.159523E+05 -6.910945E+04 -2.103644E+05  3.179519E-10 -1.983743E-09
       362  11 -1.927724E+05 -1.583661E+05 -9.668057E+04 -1.173139E+05  5.253172E-10 -1.548946E-09
       362  12 -1.210491E+05 -4.014948E+05 -8.760405E+04 -1.095718E+05 -2.467352E-10 -1.224371E-09
       362  13 -4.067565E+03  6.967167E+05  5.185019E+04 -1.924718E+05 -1.380342E-09  2.987079E-09
       362  14  1.090344E+04  6.781323E+05  8.448981E+04 -1.496454E+05  1.072961E-09 -2.478610E-09
       362  15  1.519477E+05  6.965205E+05  1.774063E+05 -1.921008E+05 -2.811353E-10  2.535411E-09
       362  16  1.360879E+05  1.277801E+06  1.727915E+05 -1.745621E+05  7.332886E-10  2.828009E-09
       362  17  2.145368E+05  1.515289E+06  2.656191E+05 -1.820205E+05  1.029618E-09  1.085842E-09
       362  18  4.248816E+05  1.795652E+06  4.423338E+05 -2.747756E+05 -5.253902E-10  2.364083E-09
       362  19 -1.442413E+05  1.159558E+05 -6.910192E+04 -2.103629E+05  3.272398E+04  5.416657E+04
       362  20 -1.927697E+05 -1.583613E+05 -9.667008E+04 -1.173120E+05  3.787260E+04  6.436496E+04
       362  21 -1.210474E+05 -4.014888E+05 -8.759331E+04 -1.095710E+05  1.280901E+04  7.449382E+04
       362  22 -4.066147E+03  6.967180E+05  5.185406E+04 -1.924710E+05  3.278595E+04  3.132207E+04
       362  23  1.090652E+04  6.781388E+05  8.450324E+04 -1.496431E+05  3.783761E+04  7.564285E+04
       362  24  1.519518E+05  6.965360E+05  1.774336E+05 -1.920996E+05  1.269377E+04  1.198999E+05
       362  25  1.360891E+05  1.277801E+06  1.727936E+05 -1.745618E+05  3.284657E+04  8.456553E+03
       362  26  2.145404E+05  1.515298E+06  2.656360E+05 -1.820178E+05  3.780148E+04  8.693570E+04
       362  27  4.248891E+05  1.795682E+06  4.423854E+05 -2.747739E+05  1.256658E+04  1.653858E+05
       363   1  6.504633E+05  2.341024E+05  1.354751E+05  2.156961E+05  2.094084E+04 -2.005864E+03
       363   2  6.123639E+05  2.261240E+05  1.184038E+05  1.987249E+05  1.491316E+04 -2.618596E+04
       363   3  5.625772E+05  2.198913E+05  1.088039E+05  1.963750E+05  2.663352E+03 -3.388024E+04
       363   4  6.539536E+04  2.054265E+04 -1.764993E+04  6.236293E+04 -8.030438E+03 -1.294607E+04
       363   5  7.395353E+04  2.824576E+04 -7.813036E+03  5.246814E+04  3.369702E+03 -3.054919E+04
       363   6  6.736670E+04  3.423853E+04 -4.313737E+03  5.719620E+04  8.543781E+03 -3.165989E+04
       363   7 -5.193274E+05 -1.929957E+05 -1.707966E+05 -9.083855E+04 -3.697107E+04 -2.387553E+04
       363   8 -4.641618E+05 -1.696105E+05 -1.340477E+05 -9.367208E+04 -8.162729E+03 -3.490838E+04
       363   9 -4.275970E+05 -1.513937E+05 -1.174473E+05 -8.188041E+04  1.441912E+04 -2.944151E+04
       363  10  6.504628E+05  2.341022E+05  1.354743E+05  2.156962E+05  1.610726E-10  2.123356E-09
       363  11  6.123635E+05  2.261232E+05  1.184021E+05  1.987252E+05 -3.698282E-09 -7.692511E-09
       363  12  5.625769E+05  2.198901E+05  1.088018E+05  1.963751E+05 -2.857102E-09 -6.174328E-09
       363  13  6.539525E+04  2.054245E+04 -1.765037E+04  6.236284E+04  3.007569E-10  4.479779E-09
       363  14  7.395327E+04  2.824475E+04 -7.814811E+03  5.246822E+04 -3.632192E-09 -7.793339E-09
       363  15  6.736635E+04  3.423743E+04 -4.315758E+03  5.719642E+04 -1.769133E-09 -7.375852E-10
       363  16 -5.193290E+05 -1.929967E+05 -1.708002E+05 -9.083926E+04 -3.377607E-09 -1.142471E-09
       363  17 -4.641622E+05 -1.696118E+05 -1.340501E+05 -9.367231E+04 -2.537602E-09 -9.093934E-09
       363  18 -4.275975E+05 -1.513947E+05 -1.174493E+05 -8.188007E+04  6.221541E-10 -2.566351E-09
       363  19  6.504633E+05  2.341024E+05  1.354751E+05  2.156961E+05 -2.094084E+04  2.005864E+03
       363  20  6.123639E+05  2.261240E+05  1.184038E+05  1.987249E+05 -1.491316E+04  2.618596E+04
       363  21  5.625772E+05  2.198913E+05  1.088039E+05  1.963750E+05 -2.663352E+03  3.388024E+04
       363  22  6.539536E+04  2.054265E+04 -1.764993E+04  6.236293E+04  8.030438E+03  1.294607E+04
       363  23  7.395353E+04  2.824576E+04 -7.813036E+03  5.246814E+04 -3.369702E+03  3.054919E+04
       363  24  6.736670E+04  3.423853E+04 -4.313737E+03  5.719620E+04 -8.543781E+03  3.165989E+04
       363  25 -5.193274E+05 -1.929957E+05 -1.707966E+05 -9.083855E+04  3.697107E+04  2.387553E+04
       363  26 -4.641618E+05 -1.696105E+05 -1.340477E+05 -9.367208E+04  8.162729E+03  3.490838E+04
       363  27 -4.275970E+05 -1.513937E+05 -1.174473E+05 -8.188041E+04 -1.441912E+04  2.944151E+04
       364   1  5.327457E+05  2.058816E+05  1.030831E+05  1.867205E+05  6.681227E+03 -2.931804E+04
       364   2  4.969158E+05  1.858257E+05  9.463783E+04  1.691945E+05  6.101688E+03 -2.759636E+04
       364   3  4.501795E+05  1.761474E+05  8.604421E+04  1.640218E+05  5.223954E+03 -2.508987E+04
       364   4  6.777598E+04  3.336114E+04 -3.372257E+03  5.802787E+04  8.063167E+03 -2.879759E+04
       364   5  7.336432E+04  2.858323E+04 -1.764862E+03  5.172909E+04  8.312834E+03 -2.676177E+04
       364   6  6.788035E+04  3.401887E+04 -9.631921E+02  5.778362E+04  8.264217E+03 -2.394086E+04
       364   7 -3.969801E+05 -1.391440E+05 -1.098428E+05 -7.057756E+04  9.443995E+03 -2.827755E+04
       364   8 -3.500086E+05 -1.286459E+05 -9.817969E+04 -6.566342E+04  1.052235E+04 -2.592780E+04
       364   9 -3.142722E+05 -1.080982E+05 -8.798017E+04 -4.839471E+04  1.130245E+04 -2.279262E+04
       364  10  5.327454E+05  2.058807E+05  1.030814E+05  1.867206E+05  6.666041E-12 -2.618258E-09
       364  11  4.969156E+05  1.858249E+05  9.463633E+04  1.691946E+05  2.163373E-09  2.840214E-09
       364  12  4.501793E+05  1.761467E+05  8.604298E+04  1.640219E+05 -4.746940E-10  2.280216E-10
       364  13  6.777569E+04  3.336023E+04 -3.373937E+03  5.802806E+04  2.210529E-10 -4.720227E-09
       364  14  7.336405E+04  2.858244E+04 -1.766338E+03  5.172927E+04  2.012899E-09 -9.408457E-10
       364  15  6.788012E+04  3.401824E+04 -9.643976E+02  5.778378E+04  5.311228E-10 -1.676375E-09
       364  16 -3.969804E+05 -1.391449E+05 -1.098445E+05 -7.057735E+04  4.863330E-09 -9.619231E-10
       364  17 -3.500089E+05 -1.286466E+05 -9.818116E+04 -6.566320E+04  6.416926E-09  5.407636E-09
       364  18 -3.142725E+05 -1.080988E+05 -8.798139E+04 -4.839451E+04  2.149769E-09 -2.130234E-09
       364  19  5.327457E+05  2.058816E+05  1.030831E+05  1.867205E+05 -6.681227E+03  2.931804E+04
       364  20  4.969158E+05  1.858257E+05  9.463783E+04  1.691945E+05 -6.101688E+03  2.759636E+04
       364  21  4.501795E+05  1.761474E+05  8.604421E+04  1.640218E+05 -5.223954E+03  2.508987E+04
       364  22  6.777598E+04  3.336114E+04 -3.372257E+03  5.802787E+04 -8.063167E+03  2.879759E+04
       364  23  7.336432E+04  2.858323E+04 -1.764862E+03  5.172909E+04 -8.312834E+03  2.676177E+04
       364  24  6.788035E+04  3.401887E+04 -9.631921E+02  5.778362E+04 -8.264217E+03  2.394086E+04
       364  25 -3.969801E+05 -1.391440E+05 -1.098428E+05 -7.057756E+04 -9.443995E+03  2.827755E+04
       364  26 -3.500086E+05 -1.286459E+05 -9.817969E+04 -6.566342E+04 -1.052235E+04  2.592780E+04
       364  27 -3.142722E+05 -1.080982E+05 -8.798017E+04 -4.839471E+04 -1.130245E+04  2.279262E+04
       365   1  4.190796E+05  1.644226E+05  7.896338E+04  1.553467E+05  4.952298E+03 -2.331089E+04
       365   2  3.833687E+05  1.438132E+05  7.006431E+04  1.378120E+05  4.087314E+03 -2.056249E+04
       365   3  3.368459E+05  1.339976E+05  6.105324E+04  1.325183E+05  3.207439E+03 -1.777783E+04
       365   4  6.791701E+04  3.398089E+04 -7.244558E+02  5.782324E+04  7.776844E+03 -2.224308E+04
       365   5  7.333596E+04  2.861123E+04 -3.828787E+02  5.169588E+04  6.950201E+03 -1.947960E+04
       365   6  6.793296E+04  3.402816E+04 -1.839205E+02  5.780940E+04  6.108670E+03 -1.667983E+04
       365   7 -2.831196E+05 -9.645039E+04 -8.041971E+04 -3.964914E+04  1.059964E+04 -2.117594E+04
       365   8 -2.366003E+05 -8.658323E+04 -7.083632E+04 -3.438092E+04  9.811537E+03 -1.839730E+04
       365   9 -2.009090E+05 -6.593625E+04 -6.142624E+04 -1.687031E+04  9.008554E+03 -1.558233E+04
       365  10  4.190794E+05  1.644220E+05  7.896231E+04  1.553468E+05 -1.680225E-09 -1.199062E-09
       365  11  3.833685E+05  1.438127E+05  7.006349E+04  1.378121E+05  1.808296E-09  3.080270E-09
       365  12  3.368458E+05  1.339973E+05  6.105262E+04  1.325183E+05 -9.198536E-10 -3.516816E-09
       365  13  6.791681E+04  3.398034E+04 -7.254992E+02  5.782338E+04  1.636819E-09 -5.792947E-09
       365  14  7.333581E+04  2.861081E+04 -3.836826E+02  5.169599E+04  1.475777E-09 -6.494013E-10
       365  15  6.793284E+04  3.402785E+04 -1.845135E+02  5.780949E+04 -4.446400E-09  3.106990E-09
       365  16 -2.831198E+05 -9.645090E+04 -8.042077E+04 -3.964896E+04  2.433433E-10  2.867430E-09
       365  17 -2.366005E+05 -8.658362E+04 -7.083714E+04 -3.438077E+04 -3.547125E-09 -3.500728E-09
       365  18 -2.009092E+05 -6.593653E+04 -6.142685E+04 -1.687019E+04 -5.210499E-09  4.149969E-10
       365  19  4.190796E+05  1.644226E+05  7.896338E+04  1.553467E+05 -4.952298E+03  2.331089E+04
       365  20  3.833687E+05  1.438132E+05  7.006431E+04  1.378120E+05 -4.087314E+03  2.056249E+04
       365  21  3.368459E+05  1.339976E+05  6.105324E+04  1.325183E+05 -3.207439E+03  1.777783E+04
       365  22  6.791701E+04  3.398089E+04 -7.244558E+02  5.782324E+04 -7.776844E+03  2.224308E+04
       365  23  7.333596E+04  2.861123E+04 -3.828787E+02  5.169588E+04 -6.950201E+03  1.947960E+04
       365  24  6.793296E+04  3.402816E+04 -1.839205E+02  5.780940E+04 -6.108670E+03  1.667983E+04
       365  25 -2.831196E+05 -9.645039E+04 -8.041971E+04 -3.964914E+04 -1.059964E+04  2.117594E+04
       365  26 -2.366003E+05 -8.658323E+04 -7.083632E+04 -3.438092E+04 -9.811537E+03  1.839730E+04
       365  27 -2.009090E+05 -6.593625E+04 -6.142624E+04 -1.687031E+04 -9.008554E+03  1.558233E+04
       366   1  3.057113E+05  1.223823E+05  5.377403E+04  1.238881E+05  2.639119E+03 -1.616796E+04
       366   2  2.700407E+05  1.017513E+05  4.469053E+04  1.063610E+05  1.605483E+03 -1.343146E+04
       366   3  2.235713E+05  9.192967E+04  3.560742E+04  1.010585E+05  5.707690E+02 -1.069397E+04
       366   4  6.793983E+04  3.402765E+04 -1.183942E+02  5.780907E+04  5.529266E+03 -1.507386E+04
       366   5  7.334393E+04  2.863016E+04 -6.327067E+00  5.169553E+04  4.496675E+03 -1.233659E+04
       366   6  6.794686E+04  3.404161E+04  1.051441E+02  5.780602E+04  3.463006E+03 -9.598338E+03
       366   7 -1.697748E+05 -5.432251E+04 -5.401444E+04 -8.246829E+03  8.418210E+03 -1.398021E+04
       366   8 -1.233134E+05 -4.448772E+04 -4.470550E+04 -2.953905E+03  7.386863E+03 -1.124210E+04
       366   9 -8.765223E+04 -2.384418E+04 -3.539842E+04  1.456374E+04  6.354438E+03 -8.503007E+03
       366  10  3.057112E+05  1.223820E+05  5.377352E+04  1.238882E+05  2.247651E-09 -1.196711E-10
       366  11  2.700407E+05  1.017511E+05  4.469019E+04  1.063610E+05  5.135901E-10  1.592865E-09
       366  12  2.235712E+05  9.192955E+04  3.560720E+04  1.010585E+05 -7.043374E-09 -3.248479E-09
       366  13  6.793973E+04  3.402740E+04 -1.188787E+02  5.780914E+04 -3.141628E-09 -5.049759E-09
       366  14  7.334386E+04  2.862999E+04 -6.651076E+00  5.169558E+04  2.815222E-09  3.381527E-11
       366  15  6.794682E+04  3.404151E+04  1.049484E+02  5.780604E+04  2.471121E-11 -3.631671E-09
       366  16 -1.697749E+05 -5.432274E+04 -5.401494E+04 -8.246734E+03 -5.521216E-09  2.615412E-09
       366  17 -1.233135E+05 -4.448787E+04 -4.470584E+04 -2.953838E+03  1.520655E-09 -6.477793E-09
       366  18 -8.765230E+04 -2.384427E+04 -3.539863E+04  1.456378E+04  5.436479E-09  7.791145E-09
       366  19  3.057113E+05  1.223823E+05  5.377403E+04  1.238881E+05 -2.639119E+03  1.616796E+04
       366  20  2.700407E+05  1.017513E+05  4.469053E+04  1.063610E+05 -1.605483E+03  1.343146E+04
       366  21  2.235713E+05  9.192967E+04  3.560742E+04  1.010585E+05 -5.707690E+02  1.069397E+04
       366  22  6.793983E+04  3.402765E+04 -1.183942E+02  5.780907E+04 -5.529266E+03  1.507386E+04
       366  23  7.334393E+04  2.863016E+04 -6.327067E+00  5.169553E+04 -4.496675E+03  1.233659E+04
       366  24  6.794686E+04  3.404161E+04  1.051441E+02  5.780602E+04 -3.463006E+03  9.598338E+03
       366  25 -1.697748E+05 -5.432251E+04 -5.401444E+04 -8.246829E+03 -8.418210E+03  1.398021E+04
       366  26 -1.233134E+05 -4.448772E+04 -4.470550E+04 -2.953905E+03 -7.386863E+03  1.124210E+04
       366  27 -8.765223E+04 -2.384418E+04 -3.539842E+04  1.456374E+04 -6.354438E+03  8.503007E+03
       367   1  1.924587E+05  8.031979E+04  2.832825E+04  9.243267E+04 -5.494912E+01 -9.109327E+03
       367   2  1.567998E+05  5.968530E+04  1.932224E+04  7.491315E+04 -1.266078E+03 -6.439090E+03
       367   3  1.103603E+05  4.986786E+04  1.044748E+04  6.961633E+04 -2.477031E+03 -3.770080E+03
       367   4  6.795366E+04  3.404316E+04  1.690060E+02  5.780687E+04  2.836504E+03 -8.013824E+03
       367   5  7.334549E+04  2.863601E+04  3.533261E+02  5.169549E+04  1.624077E+03 -5.343917E+03
       367   6  6.795604E+04  3.404642E+04  6.701802E+02  5.780647E+04  4.118144E+02 -2.675237E+03
       367   7 -5.653656E+04 -1.223254E+04 -2.799143E+04  2.318721E+04  5.727345E+03 -6.918553E+03
       367   8 -1.010207E+04 -2.412839E+03 -1.861608E+04  2.848062E+04  4.513820E+03 -4.248899E+03
       367   9  2.555360E+04  1.822513E+04 -9.107210E+03  4.599735E+04  3.300446E+03 -1.580476E+03
       367  10  1.924587E+05  8.031970E+04  2.832810E+04  9.243267E+04 -5.171669E-09  2.126517E-09
       367  11  1.567998E+05  5.968526E+04  1.932216E+04  7.491315E+04  7.871121E-09  9.817682E-09
       367  12  1.103603E+05  4.986784E+04  1.044744E+04  6.961632E+04  1.666836E-08  5.085763E-09
       367  13  6.795364E+04  3.404309E+04  1.688702E+02  5.780688E+04  2.094044E-09  2.634029E-09
       367  14  7.334548E+04  2.863597E+04  3.532674E+02  5.169550E+04 -2.427010E-11 -4.831090E-09
       367  15  6.795604E+04  3.404641E+04  6.701664E+02  5.780647E+04  1.679544E-09  6.109824E-09
       367  16 -5.653661E+04 -1.223260E+04 -2.799158E+04  2.318724E+04  4.969171E-09  7.694457E-09
       367  17 -1.010210E+04 -2.412864E+03 -1.861616E+04  2.848063E+04 -3.361709E-09  2.494843E-09
       367  18  2.555359E+04  1.822513E+04 -9.107236E+03  4.599736E+04 -1.445821E-08 -2.585647E-10
       367  19  1.924587E+05  8.031979E+04  2.832825E+04  9.243267E+04  5.494912E+01  9.109327E+03
       367  20  1.567998E+05  5.968530E+04  1.932224E+04  7.491315E+04  1.266078E+03  6.439090E+03
       367  21  1.103603E+05  4.986786E+04  1.044748E+04  6.961633E+04  2.477031E+03  3.770080E+03
       367  22  6.795366E+04  3.404316E+04  1.690060E+02  5.780687E+04 -2.836504E+03  8.013824E+03
       367  23  7.334549E+04  2.863601E+04  3.533261E+02  5.169549E+04 -1.624077E+03  5.343917E+03
       367  24  6.795604E+04  3.404642E+04  6.701802E+02  5.780647E+04 -4.118144E+02  2.675237E+03
       367  25 -5.653656E+04 -1.223254E+04 -2.799143E+04  2.318721E+04 -5.727345E+03  6.918553E+03
       367  26 -1.010207E+04 -2.412839E+03 -1.861608E+04  2.848062E+04 -4.513820E+03  4.248899E+03
       367  27  2.555360E+04  1.822513E+04 -9.107210E+03  4.599735E+04 -3.300446E+03  1.580476E+03
       368   1  7.926557E+04  3.826801E+04  3.337424E+03  6.101933E+04 -3.216317E+03 -2.227545E+03
       368   2  4.355681E+04  1.761493E+04 -5.114779E+03  4.348678E+04 -5.049022E+03  1.999603E+02
       368   3 -2.808827E+03  7.897387E+03 -1.294211E+04  3.817542E+04 -6.874056E+03  2.607799E+03
       368   4  6.798011E+04  3.404178E+04  9.002573E+02  5.781826E+04 -3.222692E+02 -1.130703E+03
       368   5  7.331316E+04  2.861575E+04  1.642720E+03  5.169128E+04 -2.175934E+03  1.288795E+03
       368   6  6.799174E+04  3.412916E+04  3.026637E+03  5.778471E+04 -4.021994E+03  3.688618E+03
       368   7  5.669486E+04  2.981559E+04 -1.536862E+03  5.461727E+04  2.571704E+03 -3.388908E+01
       368   8  1.030704E+05  3.961664E+04  8.400196E+03  5.989615E+04  6.973042E+02  2.377686E+03
       368   9  1.387978E+05  6.036149E+04  1.899521E+04  7.739617E+04 -1.169562E+03  4.769576E+03
       368  10  7.926556E+04  3.826801E+04  3.337395E+03  6.101933E+04 -1.765101E-08 -1.166828E-08
       368  11  4.355678E+04  1.761493E+04 -5.114827E+03  4.348678E+04 -5.072930E-09 -4.189198E-09
       368  12 -2.808879E+03  7.897367E+03 -1.294221E+04  3.817544E+04  3.161480E-09 -3.823802E-11
       368  13  6.798011E+04  3.404178E+04  9.002547E+02  5.781826E+04  6.395420E-10  1.134075E-08
       368  14  7.331316E+04  2.861575E+04  1.642707E+03  5.169128E+04 -2.580637E-09 -3.033516E-09
       368  15  6.799172E+04  3.412914E+04  3.026581E+03  5.778473E+04 -2.119339E-09 -8.313486E-09
       368  16  5.669486E+04  2.981559E+04 -1.536874E+03  5.461727E+04  1.694617E-08  1.266597E-08
       368  17  1.030704E+05  3.961664E+04  8.400184E+03  5.989615E+04  6.889435E-09  5.890222E-09
       368  18  1.387978E+05  6.036146E+04  1.899517E+04  7.739618E+04 -6.151844E-09  4.708291E-10
       368  19  7.926557E+04  3.826801E+04  3.337424E+03  6.101933E+04  3.216317E+03  2.227545E+03
       368  20  4.355681E+04  1.761493E+04 -5.114779E+03  4.348678E+04  5.049022E+03 -1.999603E+02
       368  21 -2.808827E+03  7.897387E+03 -1.294211E+04  3.817542E+04  6.874056E+03 -2.607799E+03
       368  22  6.798011E+04  3.404178E+04  9.002573E+02  5.781826E+04  3.222692E+02  1.130703E+03
       368  23  7.331316E+04  2.861575E+04  1.642720E+03  5.169128E+04  2.175934E+03 -1.288795E+03
       368  24  6.799174E+04  3.412916E+04  3.026637E+03  5.778471E+04  4.021994E+03 -3.688618E+03
       368  25  5.669486E+04  2.981559E+04 -1.536862E+03  5.461727E+04 -2.571704E+03  3.388908E+01
       368  26  1.030704E+05  3.961664E+04  8.400196E+03  5.989615E+04 -6.973042E+02 -2.377686E+03
       368  27  1.387978E+05  6.036149E+04  1.899521E+04  7.739617E+04  1.169562E+03 -4.769576E+03
       369   1 -3.404891E+04 -3.598746E+03 -1.928384E+04  3.004247E+04 -8.165187E+03  3.970646E+03
       369   2 -6.968002E+04 -2.467567E+04 -2.531538E+04  1.173360E+04 -1.237915E+04  5.348258E+03
       369   3 -1.147998E+05 -3.259697E+04 -2.830908E+04  5.156820E+03 -1.643562E+04  6.312316E+03
       369   4  6.816824E+04  3.394277E+04  4.009177E+03  5.793990E+04 -5.200123E+03  5.094195E+03
       369   5  7.305236E+04  2.860294E+04  7.267829E+03  5.158818E+04 -9.851988E+03  6.305597E+03
       369   6  6.853240E+04  3.650465E+04  1.391093E+04  5.696758E+04 -1.434660E+04  7.103409E+03
       369   7  1.703959E+05  7.148502E+04  2.730154E+04  8.584150E+04 -2.234530E+03  6.217940E+03
       369   8  2.158047E+05  8.188300E+04  3.984959E+04  9.145103E+04 -7.324207E+03  7.263174E+03
       369   9  2.518971E+05  1.056087E+05  5.612839E+04  1.087921E+05 -1.225692E+04  7.894758E+03
       369  10 -3.404899E+04 -3.598781E+03 -1.928400E+04  3.004250E+04 -4.835688E-09  1.103232E-10
       369  11 -6.968019E+04 -2.467574E+04 -2.531572E+04  1.173365E+04 -1.363711E-09  1.075760E-08
       369  12 -1.148001E+05 -3.259709E+04 -2.830967E+04  5.156904E+03  3.275800E-09  9.716018E-10
       369  13  6.816820E+04  3.394273E+04  4.009077E+03  5.793992E+04 -1.483946E-10  7.537658E-09
       369  14  7.305224E+04  2.860287E+04  7.267572E+03  5.158823E+04 -3.640177E-09 -2.388887E-08
       369  15  6.853216E+04  3.650455E+04  1.391045E+04  5.696766E+04  2.389786E-09  8.992394E-09
       369  16  1.703958E+05  7.148498E+04  2.730146E+04  8.584151E+04  4.453736E-09  5.264106E-09
       369  17  2.158047E+05  8.188293E+04  3.984939E+04  9.145108E+04  1.684474E-09 -3.200662E-10
       369  18  2.518970E+05  1.056086E+05  5.612799E+04  1.087922E+05 -2.146236E-09  3.525255E-09
       369  19 -3.404891E+04 -3.598746E+03 -1.928384E+04  3.004247E+04  8.165187E+03 -3.970646E+03
       369  20 -6.968002E+04 -2.467567E+04 -2.531538E+04  1.173360E+04  1.237915E+04 -5.348258E+03
       369  21 -1.147998E+05 -3.259697E+04 -2.830908E+04  5.156820E+03  1.643562E+04 -6.312316E+03
       369  22  6.816824E+04  3.394277E+04  4.009177E+03  5.793990E+04  5.200123E+03 -5.094195E+03
       369  23  7.305236E+04  2.860294E+04  7.267829E+03  5.158818E+04  9.851988E+03 -6.305597E+03
       369  24  6.853240E+04  3.650465E+04  1.391093E+04  5.696758E+04  1.434660E+04 -7.103409E+03
       369  25  1.703959E+05  7.148502E+04  2.730154E+04  8.584150E+04  2.234530E+03 -6.217940E+03
       369  26  2.158047E+05  8.188300E+04  3.984959E+04  9.145103E+04  7.324207E+03 -7.263174E+03
       369  27  2.518971E+05  1.056087E+05  5.612839E+04  1.087921E+05  1.225692E+04 -7.894758E+03
       370   1 -1.499940E+05 -4.235875E+04 -3.139738E+04  6.128508E+03 -2.179019E+04  6.747616E+03
       370   2 -1.782345E+05 -7.267835E+04 -2.827044E+04 -3.029310E+04 -2.967560E+04  3.625319E+03
       370   3 -1.979054E+05 -4.498657E+04 -6.165137E+03 -6.745131E+04 -3.427323E+04 -8.179576E+03
       370   4  7.082999E+04  3.224286E+04  1.779756E+04  5.972929E+04 -1.733541E+04  8.434947E+03
       370   5  6.968574E+04  3.057066E+04  3.216664E+04  4.940253E+04 -3.439517E+04  1.836915E+03
       370   6  7.892072E+04  8.871488E+04  7.278393E+04  3.834074E+04 -4.816861E+04 -1.344277E+04
       370   7  2.917049E+05  1.068469E+05  6.699009E+04  1.133471E+05 -1.287886E+04  1.012281E+04
       370   8  3.176674E+05  1.338285E+05  9.259914E+04  1.291287E+05 -3.911677E+04  4.753390E+01
       370   9  3.558207E+05  2.224352E+05  1.517257E+05  1.441792E+05 -6.207061E+04 -1.871009E+04
       370  10 -1.499945E+05 -4.235893E+04 -3.139836E+04  6.128626E+03  1.394350E-09 -6.883010E-09
       370  11 -1.782355E+05 -7.267860E+04 -2.827212E+04 -3.029301E+04  2.187856E-10 -4.459948E-09
       370  12 -1.979067E+05 -4.498696E+04 -6.167471E+03 -6.745153E+04 -2.318632E-09 -2.962310E-09
       370  13  7.082965E+04  3.224271E+04  1.779686E+04  5.972941E+04  2.528235E-09 -1.012537E-08
       370  14  6.968447E+04  3.057034E+04  3.216441E+04  4.940258E+04  1.402138E-09 -7.181616E-10
       370  15  7.891818E+04  8.871407E+04  7.277923E+04  3.834022E+04 -7.578964E-10  1.792516E-10
       370  16  2.917046E+05  1.068467E+05  6.698958E+04  1.133472E+05  1.192519E-09  2.541413E-09
       370  17  3.176658E+05  1.338281E+05  9.259627E+04  1.291287E+05 -8.602419E-10  2.496389E-09
       370  18  3.558164E+05  2.224338E+05  1.517178E+05  1.441782E+05  2.542186E-10  2.244668E-09
       370  19 -1.499940E+05 -4.235875E+04 -3.139738E+04  6.128508E+03  2.179019E+04 -6.747616E+03
       370  20 -1.782345E+05 -7.267835E+04 -2.827044E+04 -3.029310E+04  2.967560E+04 -3.625319E+03
       370  21 -1.979054E+05 -4.498657E+04 -6.165137E+03 -6.745131E+04  3.427323E+04  8.179576E+03
       370  22  7.082999E+04  3.224286E+04  1.779756E+04  5.972929E+04  1.733541E+04 -8.434947E+03
       370  23  6.968574E+04  3.057066E+04  3.216664E+04  4.940253E+04  3.439517E+04 -1.836915E+03
       370  24  7.892072E+04  8.871488E+04  7.278393E+04  3.834074E+04  4.816861E+04  1.344277E+04
       370  25  2.917049E+05  1.068469E+05  6.699009E+04  1.133471E+05  1.287886E+04 -1.012281E+04
       370  26  3.176674E+05  1.338285E+05  9.259914E+04  1.291287E+05  3.911677E+04 -4.753390E+01
       370  27  3.558207E+05  2.224352E+05  1.517257E+05  1.441792E+05  6.207061E+04  1.871009E+04
       371   1  1.187790E+05  3.883394E+04  3.070844E+04  2.918532E+03 -1.305112E+04 -4.036823E+03
       371   2  9.395075E+04  6.181683E+04  3.819804E+04  9.398337E+03 -1.204337E+04 -1.280068E+04
       371   3  6.233326E+04  5.837066E+04  3.843193E+04  2.497683E+04 -1.105979E+04 -1.387018E+04
       371   4 -1.740587E+05 -3.365230E+04 -3.954033E+04  2.020143E+04 -2.727301E+04 -4.082259E+03
       371   5 -1.699047E+05 -2.222286E+03 -1.838578E+04  1.559561E+04 -1.758816E+04 -1.281911E+04
       371   6 -1.740510E+05  1.265454E+03 -1.051623E+04  2.008899E+04 -7.927272E+03 -1.386017E+04
       371   7 -4.668167E+05 -1.061435E+05 -1.097942E+05  3.747609E+04 -4.148822E+04 -4.128497E+03
       371   8 -4.336946E+05 -6.626579E+04 -7.497352E+04  2.179016E+04 -2.313061E+04 -1.283766E+04
       371   9 -4.103822E+05 -5.584321E+04 -5.946737E+04  1.520300E+04 -4.795923E+03 -1.385020E+04
       371  10  1.187788E+05  3.883388E+04  3.070809E+04  2.918489E+03 -1.004998E-08  1.880304E-09
       371  11  9.395055E+04  6.181662E+04  3.819746E+04  9.398213E+03  5.276429E-09  7.855855E-09
       371  12  6.233307E+04  5.837042E+04  3.843134E+04  2.497670E+04  1.790913E-08  2.665864E-09
       371  13 -1.740595E+05 -3.365251E+04 -3.954176E+04  2.020134E+04  1.202293E-10 -3.707384E-09
       371  14 -1.699051E+05 -2.222546E+03 -1.838667E+04  1.559543E+04  5.275112E-10 -1.166430E-08
       371  15 -1.740511E+05  1.265231E+03 -1.051671E+04  2.008890E+04 -3.745930E-10  3.912433E-09
       371  16 -4.668186E+05 -1.061440E+05 -1.097975E+05  3.747595E+04  8.459748E-09 -1.061810E-09
       371  17 -4.336952E+05 -6.626611E+04 -7.497483E+04  2.178992E+04 -5.138076E-09  7.448403E-09
       371  18 -4.103823E+05 -5.584342E+04 -5.946777E+04  1.520295E+04 -1.663247E-08 -5.429147E-10
       371  19  1.187790E+05  3.883394E+04  3.070844E+04  2.918532E+03  1.305112E+04  4.036823E+03
       371  20  9.395075E+04  6.181683E+04  3.819804E+04  9.398337E+03  1.204337E+04  1.280068E+04
       371  21  6.233326E+04  5.837066E+04  3.843193E+04  2.497683E+04  1.105979E+04  1.387018E+04
       371  22 -1.740587E+05 -3.365230E+04 -3.954033E+04  2.020143E+04  2.727301E+04  4.082259E+03
       371  23 -1.699047E+05 -2.222286E+03 -1.838578E+04  1.559561E+04  1.758816E+04  1.281911E+04
       371  24 -1.740510E+05  1.265454E+03 -1.051623E+04  2.008899E+04  7.927272E+03  1.386017E+04
       371  25 -4.668167E+05 -1.061435E+05 -1.097942E+05  3.747609E+04  4.148822E+04  4.128497E+03
       371  26 -4.336946E+05 -6.626579E+04 -7.497352E+04  2.179016E+04  2.313061E+04  1.283766E+04
       371  27 -4.103822E+05 -5.584321E+04 -5.946737E+04  1.520300E+04  4.795923E+03  1.385020E+04
       372   1  4.313311E+04  5.076919E+04  3.651932E+04  2.027405E+04 -7.689153E+03 -1.243472E+04
       372   2  1.530502E+04  4.527441E+04  3.411934E+04  1.586281E+04 -5.878813E+03 -1.117289E+04
       372   3 -1.311466E+04  3.863696E+04  3.023874E+04  2.089559E+04 -4.070215E+03 -9.514341E+03
       372   4 -1.723540E+05 -1.281865E+03 -8.242972E+03  2.019303E+04 -6.494788E+03 -1.243107E+04
       372   5 -1.720169E+05  7.695997E+01 -4.524873E+03  1.546839E+04 -4.237668E+03 -1.116760E+04
       372   6 -1.723504E+05  2.151999E+02 -2.598242E+03  2.018796E+04 -1.982216E+03 -9.507348E+03
       372   7 -3.877972E+05 -5.333587E+04 -5.300780E+04  2.011200E+04 -5.300830E+03 -1.242743E+04
       372   8 -3.593056E+05 -4.512271E+04 -4.317097E+04  1.507405E+04 -2.597009E+03 -1.116231E+04
       372   9 -3.315621E+05 -3.820815E+04 -3.543658E+04  1.948048E+04  1.052562E+02 -9.500358E+03
       372  10  4.313300E+04  5.076901E+04  3.651892E+04  2.027397E+04 -3.620010E-08 -4.940774E-09
       372  11  1.530495E+04  4.527427E+04  3.411904E+04  1.586276E+04 -6.977939E-09 -4.360342E-09
       372  12 -1.311470E+04  3.863685E+04  3.023854E+04  2.089556E+04  2.787808E-08  2.925454E-09
       372  13 -1.723541E+05 -1.282042E+03 -8.243342E+03  2.019296E+04 -6.616115E-10  1.077231E-08
       372  14 -1.720170E+05  7.682123E+01 -4.525141E+03  1.546835E+04  2.654347E-10 -2.182484E-08
       372  15 -1.723505E+05  2.151018E+02 -2.598420E+03  2.018794E+04 -7.234095E-10  5.482622E-09
       372  16 -3.877973E+05 -5.333605E+04 -5.300814E+04  2.011195E+04  3.475097E-08 -8.160966E-09
       372  17 -3.593056E+05 -4.512284E+04 -4.317122E+04  1.507403E+04  6.924604E-09 -1.119099E-08
       372  18 -3.315622E+05 -3.820825E+04 -3.543675E+04  1.948048E+04 -2.642913E-08 -2.385702E-09
       372  19  4.313311E+04  5.076919E+04  3.651932E+04  2.027405E+04  7.689153E+03  1.243472E+04
       372  20  1.530502E+04  4.527441E+04  3.411934E+04  1.586281E+04  5.878813E+03  1.117289E+04
       372  21 -1.311466E+04  3.863696E+04  3.023874E+04  2.089559E+04  4.070215E+03  9.514341E+03
       372  22 -1.723540E+05 -1.281865E+03 -8.242972E+03  2.019303E+04  6.494788E+03  1.243107E+04
       372  23 -1.720169E+05  7.695997E+01 -4.524873E+03  1.546839E+04  4.237668E+03  1.116760E+04
       372  24 -1.723504E+05  2.151999E+02 -2.598242E+03  2.018796E+04  1.982216E+03  9.507348E+03
       372  25 -3.877972E+05 -5.333587E+04 -5.300780E+04  2.011200E+04  5.300830E+03  1.242743E+04
       372  26 -3.593056E+05 -4.512271E+04 -4.317097E+04  1.507405E+04  2.597009E+03  1.116231E+04
       372  27 -3.315621E+05 -3.820815E+04 -3.543658E+04  1.948048E+04 -1.052562E+02  9.500358E+03
       373   1 -3.371976E+04  3.350028E+04  2.645727E+04  2.062501E+04 -3.570317E+03 -8.445145E+03
       373   2 -6.178935E+04  2.674605E+04  2.157426E+04  1.580179E+04 -3.039747E+03 -6.669942E+03
       373   3 -9.000539E+04  1.999979E+04  1.632804E+04  2.045170E+04 -2.509472E+03 -4.873939E+03
       373   4 -1.722336E+05  1.044299E+02 -1.982701E+03  2.019570E+04 -1.581578E+03 -8.438405E+03
       373   5 -1.721572E+05  1.269619E+02 -1.131156E+03  1.545900E+04 -1.027688E+03 -6.663014E+03
       373   6 -1.722316E+05  1.535398E+02 -6.589668E+02  2.019553E+04 -4.740682E+02 -4.866819E+03
       373   7 -3.107293E+05 -3.329263E+04 -3.042368E+04  1.976648E+04  4.067247E+02 -8.431667E+03
       373   8 -2.825134E+05 -2.649289E+04 -2.383721E+04  1.511626E+04  9.840202E+02 -6.656088E+03
       373   9 -2.544514E+05 -1.969313E+04 -1.764632E+04  1.993939E+04  1.561071E+03 -4.859700E+03
       373  10 -3.371980E+04  3.350020E+04  2.645711E+04  2.062499E+04  2.351919E-08 -8.285918E-09
       373  11 -6.178937E+04  2.674600E+04  2.157416E+04  1.580177E+04  7.701386E-09 -5.133075E-09
       373  12 -9.000540E+04  1.999976E+04  1.632798E+04  2.045169E+04 -9.430384E-09 -4.154987E-09
       373  13 -1.722336E+05  1.043528E+02 -1.982839E+03  2.019569E+04  5.746293E-10 -5.671586E-09
       373  14 -1.721572E+05  1.269139E+02 -1.131241E+03  1.545899E+04 -1.887614E-09 -2.541782E-10
       373  15 -1.722316E+05  1.535143E+02 -6.590117E+02  2.019553E+04 -1.171237E-09 -9.753051E-10
       373  16 -3.107293E+05 -3.329270E+04 -3.042381E+04  1.976648E+04 -2.477264E-08 -5.703022E-09
       373  17 -2.825135E+05 -2.649294E+04 -2.383729E+04  1.511626E+04 -7.335497E-09  8.300200E-09
       373  18 -2.544514E+05 -1.969316E+04 -1.764637E+04  1.993939E+04  1.056963E-08  1.200038E-08
       373  19 -3.371976E+04  3.350028E+04  2.645727E+04  2.062501E+04  3.570317E+03  8.445145E+03
       373  20 -6.178935E+04  2.674605E+04  2.157426E+04  1.580179E+04  3.039747E+03  6.669942E+03
       373  21 -9.000539E+04  1.999979E+04  1.632804E+04  2.045170E+04  2.509472E+03  4.873939E+03
       373  22 -1.722336E+05  1.044299E+02 -1.982701E+03  2.019570E+04  1.581578E+03  8.438405E+03
       373  23 -1.721572E+05  1.269619E+02 -1.131156E+03  1.545900E+04  1.027688E+03  6.663014E+03
       373  24 -1.722316E+05  1.535398E+02 -6.589668E+02  2.019553E+04  4.740682E+02  4.866819E+03
       373  25 -3.107293E+05 -3.329263E+04 -3.042368E+04  1.976648E+04 -4.067247E+02  8.431667E+03
       373  26 -2.825134E+05 -2.649289E+04 -2.383721E+04  1.511626E+04 -9.840202E+02  6.656088E+03
       373  27 -2.544514E+05 -1.969313E+04 -1.764632E+04  1.993939E+04 -1.561071E+03  4.859700E+03
       374   1 -1.107150E+05  1.496835E+04  1.206825E+04  2.038488E+04 -2.402780E+03 -3.823719E+03
       374   2 -1.388264E+05  8.160620E+03  6.546055E+03  1.556111E+04 -2.255665E+03 -2.022256E+03
       374   3 -1.670241E+05  1.415580E+03  9.230314E+02  2.021530E+04 -2.108623E+03 -2.196748E+02
       374   4 -1.722168E+05  1.498977E+02 -5.080348E+02  2.019664E+04 -3.722478E+02 -3.816572E+03
       374   5 -1.721729E+05  1.178657E+02 -3.129163E+02  1.545766E+04 -2.239265E+02 -2.015074E+03
       374   6 -1.722162E+05  1.483473E+02 -2.194675E+02  2.019665E+04 -7.567230E+01 -2.124537E+02
       374   7 -2.337151E+05 -1.466878E+04 -1.308450E+04  2.000842E+04  1.658087E+03 -3.809427E+03
       374   8 -2.055184E+05 -7.924957E+03 -7.171932E+03  1.535420E+04  1.807704E+03 -2.007892E+03
       374   9 -1.774084E+05 -1.118885E+03 -1.361952E+03  2.017800E+04  1.957261E+03 -2.052327E+02
       374  10 -1.107150E+05  1.496833E+04  1.206821E+04  2.038488E+04 -1.389639E-08 -7.080798E-09
       374  11 -1.388264E+05  8.160614E+03  6.546038E+03  1.556111E+04 -1.347080E-08 -3.074071E-09
       374  12 -1.670241E+05  1.415578E+03  9.230229E+02  2.021530E+04 -8.699404E-09 -2.479034E-10
       374  13 -1.722168E+05  1.498820E+02 -5.080625E+02  2.019664E+04 -1.586741E-09  3.212817E-09
       374  14 -1.721729E+05  1.178613E+02 -3.129240E+02  1.545766E+04 -1.608103E-09 -1.042427E-08
       374  15 -1.722162E+05  1.483472E+02 -2.194676E+02  2.019665E+04  5.517602E-11 -2.785177E-09
       374  16 -2.337151E+05 -1.466880E+04 -1.308453E+04  2.000843E+04  1.153458E-08  2.680725E-09
       374  17 -2.055184E+05 -7.924962E+03 -7.171945E+03  1.535421E+04  1.347898E-08  1.096245E-08
       374  18 -1.774084E+05 -1.118886E+03 -1.361960E+03  2.017800E+04  1.138381E-08  1.301233E-09
       374  19 -1.107150E+05  1.496835E+04  1.206825E+04  2.038488E+04  2.402780E+03  3.823719E+03
       374  20 -1.388264E+05  8.160620E+03  6.546055E+03  1.556111E+04  2.255665E+03  2.022256E+03
       374  21 -1.670241E+05  1.415580E+03  9.230314E+02  2.021530E+04  2.108623E+03  2.196748E+02
       374  22 -1.722168E+05  1.498977E+02 -5.080348E+02  2.019664E+04  3.722478E+02  3.816572E+03
       374  23 -1.721729E+05  1.178657E+02 -3.129163E+02  1.545766E+04  2.239265E+02  2.015074E+03
       374  24 -1.722162E+05  1.483473E+02 -2.194675E+02  2.019665E+04  7.567230E+01  2.124537E+02
       374  25 -2.337151E+05 -1.466878E+04 -1.308450E+04  2.000842E+04 -1.658087E+03  3.809427E+03
       374  26 -2.055184E+05 -7.924957E+03 -7.171932E+03  1.535420E+04 -1.807704E+03  2.007892E+03
       374  27 -1.774084E+05 -1.118885E+03 -1.361952E+03  2.017800E+04 -1.957261E+03  2.052327E+02
       375   1 -1.877491E+05 -3.613298E+03 -3.469400E+03  2.015755E+04 -2.074269E+03  8.296664E+02
       375   2 -2.158618E+05 -1.042169E+04 -9.192193E+03  1.533721E+04 -1.977407E+03  2.632086E+03
       375   3 -2.440533E+05 -1.716611E+04 -1.498268E+04  1.999482E+04 -1.880463E+03  4.433308E+03
       375   4 -1.722146E+05  1.483449E+02 -1.996468E+02  2.019663E+04 -4.135871E+01  8.368843E+02
       375   5 -1.721752E+05  1.153212E+02 -2.060762E+02  1.545768E+04  5.409981E+01  2.639255E+03
       375   6 -1.722154E+05  1.464437E+02 -2.793271E+02  2.019664E+04  1.496439E+02  4.440429E+03
       375   7 -1.566798E+05  3.909974E+03  3.070109E+03  2.023572E+04  1.991602E+03  8.441023E+02
       375   8 -1.284866E+05  1.065221E+04  8.779954E+03  1.557816E+04  2.085747E+03  2.646423E+03
       375   9 -1.003726E+05  1.745867E+04  1.442377E+04  2.039847E+04  2.179982E+03  4.447551E+03
       375  10 -1.877491E+05 -3.613300E+03 -3.469410E+03  2.015755E+04 -4.928415E-09 -2.104624E-10
       375  11 -2.158618E+05 -1.042170E+04 -9.192214E+03  1.533721E+04 -4.402965E-09 -1.497305E-09
       375  12 -2.440533E+05 -1.716613E+04 -1.498272E+04  1.999483E+04 -7.255831E-09 -1.882339E-09
       375  13 -1.722146E+05  1.483441E+02 -1.996481E+02  2.019663E+04 -1.350765E-10  8.434750E-09
       375  14 -1.721752E+05  1.153138E+02 -2.060893E+02  1.545768E+04 -2.008412E-09 -4.422058E-09
       375  15 -1.722154E+05  1.464225E+02 -2.793642E+02  2.019663E+04 -7.992644E-10 -6.379714E-09
       375  16 -1.566798E+05  3.909973E+03  3.070100E+03  2.023572E+04  3.266931E-09 -7.557444E-10
       375  17 -1.284867E+05  1.065220E+04  8.779933E+03  1.557816E+04  5.573659E-09 -1.550915E-08
       375  18 -1.003726E+05  1.745865E+04  1.442372E+04  2.039846E+04  8.957345E-09 -1.148254E-08
       375  19 -1.877491E+05 -3.613298E+03 -3.469400E+03  2.015755E+04  2.074269E+03 -8.296664E+02
       375  20 -2.158618E+05 -1.042169E+04 -9.192193E+03  1.533721E+04  1.977407E+03 -2.632086E+03
       375  21 -2.440533E+05 -1.716611E+04 -1.498268E+04  1.999482E+04  1.880463E+03 -4.433308E+03
       375  22 -1.722146E+05  1.483449E+02 -1.996468E+02  2.019663E+04  4.135871E+01 -8.368843E+02
       375  23 -1.721752E+05  1.153212E+02 -2.060762E+02  1.545768E+04 -5.409981E+01 -2.639255E+03
       375  24 -1.722154E+05  1.464437E+02 -2.793271E+02  2.019664E+04 -1.496439E+02 -4.440429E+03
       375  25 -1.566798E+05  3.909974E+03  3.070109E+03  2.023572E+04 -1.991602E+03 -8.441023E+02
       375  26 -1.284866E+05  1.065221E+04  8.779954E+03  1.557816E+04 -2.085747E+03 -2.646423E+03
       375  27 -1.003726E+05  1.745867E+04  1.442377E+04  2.039847E+04 -2.179982E+03 -4.447551E+03
       376   1 -2.647802E+05 -2.219230E+04 -1.945993E+04  1.993196E+04 -1.832526E+03  5.483386E+03
       376   2 -2.928616E+05 -2.899632E+04 -2.540032E+04  1.511800E+04 -1.533338E+03  7.278408E+03
       376   3 -3.210527E+05 -3.576935E+04 -3.154757E+04  1.977482E+04 -1.233857E+03  9.051869E+03
       376   4 -1.722219E+05  1.479665E+02 -3.459033E+02  2.019500E+04  2.025144E+02  5.490475E+03
       376   5 -1.721701E+05  1.163950E+02 -5.680428E+02  1.545971E+04  4.774135E+02  7.285291E+03
       376   6 -1.722241E+05  1.201871E+02 -9.800114E+02  2.019509E+04  7.526184E+02  9.058551E+03
       376   7 -7.965549E+04  2.248769E+04  1.876768E+04  2.045806E+04  2.237853E+03  5.497565E+03
       376   8 -5.146472E+04  2.922819E+04  2.426347E+04  1.580147E+04  2.488549E+03  7.292175E+03
       376   9 -2.337445E+04  3.600834E+04  2.958638E+04  2.061544E+04  2.739562E+03  9.065235E+03
       376  10 -2.647803E+05 -2.219233E+04 -1.946000E+04  1.993197E+04 -1.060266E-08 -8.469671E-10
       376  11 -2.928616E+05 -2.899638E+04 -2.540042E+04  1.511801E+04 -3.215239E-09 -1.016775E-08
       376  12 -3.210527E+05 -3.576944E+04 -3.154773E+04  1.977483E+04  4.718618E-09 -2.306961E-09
       376  13 -1.722219E+05  1.479341E+02 -3.459600E+02  2.019499E+04  3.252465E-12 -4.053074E-09
       376  14 -1.721701E+05  1.163379E+02 -5.681430E+02  1.545971E+04 -9.396010E-10  8.860747E-09
       376  15 -1.722241E+05  1.200988E+02 -9.801667E+02  2.019508E+04 -3.046381E-10  1.472849E-10
       376  16 -7.965550E+04  2.248766E+04  1.876761E+04  2.045805E+04  9.343414E-09  6.664768E-09
       376  17 -5.146474E+04  2.922814E+04  2.426336E+04  1.580146E+04  3.985137E-09  8.703201E-10
       376  18 -2.337448E+04  3.600825E+04  2.958621E+04  2.061542E+04 -3.410172E-09  6.373853E-09
       376  19 -2.647802E+05 -2.219230E+04 -1.945993E+04  1.993196E+04  1.832526E+03 -5.483386E+03
       376  20 -2.928616E+05 -2.899632E+04 -2.540032E+04  1.511800E+04  1.533338E+03 -7.278408E+03
       376  21 -3.210527E+05 -3.576935E+04 -3.154757E+04  1.977482E+04  1.233857E+03 -9.051869E+03
       376  22 -1.722219E+05  1.479665E+02 -3.459033E+02  2.019500E+04 -2.025144E+02 -5.490475E+03
       376  23 -1.721701E+05  1.163950E+02 -5.680428E+02  1.545971E+04 -4.774135E+02 -7.285291E+03
       376  24 -1.722241E+05  1.201871E+02 -9.800114E+02  2.019509E+04 -7.526184E+02 -9.058551E+03
       376  25 -7.965549E+04  2.248769E+04  1.876768E+04  2.045806E+04 -2.237853E+03 -5.497565E+03
       376  26 -5.146472E+04  2.922819E+04  2.426347E+04  1.580147E+04 -2.488549E+03 -7.292175E+03
       376  27 -2.337445E+04  3.600834E+04  2.958638E+04  2.061544E+04 -2.739562E+03 -9.065235E+03
       377   1 -3.418232E+05 -4.074028E+04 -3.624370E+04  1.960545E+04 -1.140463E+03  1.012037E+04
       377   2 -3.697166E+05 -4.760411E+04 -4.299730E+04  1.500744E+04  4.272552E+02  1.177315E+04
       377   3 -3.980456E+05 -5.511412E+04 -5.095089E+04  1.985180E+04  1.996598E+03  1.301566E+04
       377   4 -1.722810E+05  1.739306E+02 -1.279914E+03  2.018812E+04  9.484650E+02  1.012730E+04
       377   5 -1.721049E+05  8.708491E+01 -2.223296E+03  1.546827E+04  2.053905E+03  1.177834E+04
       377   6 -1.722847E+05 -5.654724E+02 -4.045270E+03  2.019061E+04  3.161039E+03  1.301916E+04
       377   7 -2.711539E+03  4.108633E+04  3.368233E+04  2.077094E+04  3.037954E+03  1.013424E+04
       377   8  2.554382E+04  4.777581E+04  3.854861E+04  1.592922E+04  3.681064E+03  1.178352E+04
       377   9  5.352456E+04  5.397993E+04  4.285756E+04  2.052950E+04  4.325897E+03  1.302265E+04
       377  10 -3.418232E+05 -4.074039E+04 -3.624389E+04  1.960546E+04  9.772621E-09 -4.840497E-10
       377  11 -3.697167E+05 -4.760426E+04 -4.299756E+04  1.500744E+04 -9.161972E-09  6.717842E-09
       377  12 -3.980456E+05 -5.511430E+04 -5.095121E+04  1.985178E+04 -2.017988E-08 -2.246095E-09
       377  13 -1.722810E+05  1.738202E+02 -1.280109E+03  2.018812E+04 -6.726523E-10 -1.096942E-08
       377  14 -1.721050E+05  8.693482E+01 -2.223564E+03  1.546825E+04 -1.630753E-09  1.447710E-08
       377  15 -1.722847E+05 -5.656571E+02 -4.045607E+03  2.019057E+04 -9.647204E-10 -5.218438E-09
       377  16 -2.711576E+03  4.108622E+04  3.368212E+04  2.077091E+04 -1.145234E-08 -3.088065E-09
       377  17  2.554377E+04  4.777566E+04  3.854832E+04  1.592918E+04  8.433060E-09 -9.675216E-09
       377  18  5.352450E+04  5.397975E+04  4.285721E+04  2.052946E+04  2.213795E-08 -2.693409E-09
       377  19 -3.418232E+05 -4.074028E+04 -3.624370E+04  1.960545E+04  1.140463E+03 -1.012037E+04
       377  20 -3.697166E+05 -4.760411E+04 -4.299730E+04  1.500744E+04 -4.272552E+02 -1.177315E+04
       377  21 -3.980456E+05 -5.511412E+04 -5.095089E+04  1.985180E+04 -1.996598E+03 -1.301566E+04
       377  22 -1.722810E+05  1.739306E+02 -1.279914E+03  2.018812E+04 -9.484650E+02 -1.012730E+04
       377  23 -1.721049E+05  8.708491E+01 -2.223296E+03  1.546827E+04 -2.053905E+03 -1.177834E+04
       377  24 -1.722847E+05 -5.654724E+02 -4.045270E+03  2.019061E+04 -3.161039E+03 -1.301916E+04
       377  25 -2.711539E+03  4.108633E+04  3.368233E+04  2.077094E+04 -3.037954E+03 -1.013424E+04
       377  26  2.554382E+04  4.777581E+04  3.854861E+04  1.592922E+04 -3.681064E+03 -1.178352E+04
       377  27  5.352456E+04  5.397993E+04  4.285756E+04  2.052950E+04 -4.325897E+03 -1.302265E+04
       378   1 -4.197851E+05 -5.890403E+04 -5.624331E+04  1.737273E+04  6.941350E+02  1.444849E+04
       378   2 -4.451352E+05 -6.761205E+04 -6.780594E+04  1.828204E+04  1.440640E+04  1.332264E+04
       378   3 -4.761337E+05 -9.155135E+04 -9.211584E+04  2.824451E+04  2.814225E+04  4.238651E+03
       378   4 -1.731162E+05  6.823548E+02 -5.159645E+03  2.009088E+04  3.861511E+03  1.445844E+04
       378   5 -1.710746E+05 -1.046510E+03 -9.020836E+03  1.559156E+04  8.604004E+03  1.330355E+04
       378   6 -1.731224E+05 -1.644534E+04 -1.939584E+04  2.014559E+04  1.337097E+04  4.191864E+03
       378   7  7.361052E+04  6.026491E+04  4.592076E+04  2.281008E+04  7.030123E+03  1.446841E+04
       378   8  1.030567E+05  6.551416E+04  4.976002E+04  1.289982E+04  2.799080E+03  1.328450E+04
       378   9  1.299735E+05  5.865438E+04  5.331851E+04  1.204263E+04 -1.407500E+03  4.145474E+03
       378  10 -4.197852E+05 -5.890425E+04 -5.624371E+04  1.737272E+04  2.008000E-08 -1.797628E-09
       378  11 -4.451355E+05 -6.761229E+04 -6.780666E+04  1.828189E+04  1.151682E-08 -2.107941E-09
       378  12 -4.761345E+05 -9.155158E+04 -9.211737E+04  2.824441E+04  1.609708E-09  7.627961E-09
       378  13 -1.731162E+05  6.821263E+02 -5.160066E+03  2.009083E+04  4.955809E-10  4.613258E-09
       378  14 -1.710748E+05 -1.046720E+03 -9.021308E+03  1.559147E+04 -5.599553E-11  3.254398E-09
       378  15 -1.731226E+05 -1.644541E+04 -1.939621E+04  2.014554E+04 -3.689037E-10  2.194843E-09
       378  16  7.361042E+04  6.026467E+04  4.592027E+04  2.281000E+04 -2.154781E-08  5.534953E-11
       378  17  1.030567E+05  6.551396E+04  4.975967E+04  1.289979E+04 -1.130632E-08  6.029049E-09
       378  18  1.299735E+05  5.865436E+04  5.331848E+04  1.204264E+04 -1.091565E-10  6.039543E-10
       378  19 -4.197851E+05 -5.890403E+04 -5.624331E+04  1.737273E+04 -6.941350E+02 -1.444849E+04
       378  20 -4.451352E+05 -6.761205E+04 -6.780594E+04  1.828204E+04 -1.440640E+04 -1.332264E+04
       378  21 -4.761337E+05 -9.155135E+04 -9.211584E+04  2.824451E+04 -2.814225E+04 -4.238651E+03
       378  22 -1.731162E+05  6.823548E+02 -5.159645E+03  2.009088E+04 -3.861511E+03 -1.445844E+04
       378  23 -1.710746E+05 -1.046510E+03 -9.020836E+03  1.559156E+04 -8.604004E+03 -1.330355E+04
       378  24 -1.731224E+05 -1.644534E+04 -1.939584E+04  2.014559E+04 -1.337097E+04 -4.191864E+03
       378  25  7.361052E+04  6.026491E+04  4.592076E+04  2.281008E+04 -7.030123E+03 -1.446841E+04
       378  26  1.030567E+05  6.551416E+04  4.976002E+04  1.289982E+04 -2.799080E+03 -1.328450E+04
       378  27  1.299735E+05  5.865438E+04  5.331851E+04  1.204263E+04  1.407500E+03 -4.145474E+03
       379   1 -2.306205E+05 -9.348367E+05 -2.257849E+05  1.958559E+05 -9.491808E+03 -5.344626E+04
       379   2 -1.531536E+05 -7.024481E+05 -1.411161E+05  1.556947E+05 -2.773119E+04 -1.909035E+04
       379   3 -9.515316E+04 -4.788021E+05 -8.363469E+04  1.823416E+05 -2.276043E+04  1.534871E+04
       379   4 -1.972232E+04 -8.569872E+04 -2.133747E+04  1.836846E+05 -9.593823E+03 -1.565515E+04
       379   5 -2.994039E+03 -8.382310E+04 -9.386447E+03  1.503071E+05 -2.775079E+04 -1.077868E+04
       379   6 -5.965163E+02 -8.560924E+04 -4.123334E+03  1.837363E+05 -2.270735E+04 -5.832631E+03
       379   7  1.911245E+05  7.641031E+05  1.830640E+05  1.714969E+05 -9.697256E+03  2.218753E+04
       379   8  1.471407E+05  5.351629E+05  1.223215E+05  1.449141E+05 -2.777052E+04 -2.458842E+03
       379   9  9.395078E+04  3.077320E+05  7.538172E+04  1.851318E+05 -2.265439E+04 -2.702713E+04
       379  10 -2.306214E+05 -9.348398E+05 -2.257904E+05  1.958555E+05 -3.582702E-10  4.022735E-09
       379  11 -1.531545E+05 -7.024487E+05 -1.411182E+05  1.556943E+05 -2.981695E-09  6.968728E-09
       379  12 -9.515378E+04 -4.788025E+05 -8.363611E+04  1.823419E+05 -2.942982E-10  2.803025E-09
       379  13 -1.972248E+04 -8.569901E+04 -2.133810E+04  1.836845E+05  2.058770E-09  1.307905E-11
       379  14 -2.994897E+03 -8.382343E+04 -9.388112E+03  1.503068E+05 -3.510527E-09  1.186944E-08
       379  15 -5.970790E+02 -8.560941E+04 -4.124367E+03  1.837362E+05 -8.374004E-10  2.705882E-09
       379  16  1.911243E+05  7.641025E+05  1.830629E+05  1.714971E+05  2.954562E-10  7.443584E-09
       379  17  1.471399E+05  5.351627E+05  1.223200E+05  1.449141E+05  7.626762E-10 -5.472556E-09
       379  18  9.395004E+04  3.077311E+05  7.537939E+04  1.851313E+05 -2.195634E-09 -2.001764E-09
       379  19 -2.306205E+05 -9.348367E+05 -2.257849E+05  1.958559E+05  9.491808E+03  5.344626E+04
       379  20 -1.531536E+05 -7.024481E+05 -1.411161E+05  1.556947E+05  2.773119E+04  1.909035E+04
       379  21 -9.515316E+04 -4.788021E+05 -8.363469E+04  1.823416E+05  2.276043E+04 -1.534871E+04
       379  22 -1.972232E+04 -8.569872E+04 -2.133747E+04  1.836846E+05  9.593823E+03  1.565515E+04
       379  23 -2.994039E+03 -8.382310E+04 -9.386447E+03  1.503071E+05  2.775079E+04  1.077868E+04
       379  24 -5.965163E+02 -8.560924E+04 -4.123334E+03  1.837363E+05  2.270735E+04  5.832631E+03
       379  25  1.911245E+05  7.641031E+05  1.830640E+05  1.714969E+05  9.697256E+03 -2.218753E+04
       379  26  1.471407E+05  5.351629E+05  1.223215E+05  1.449141E+05  2.777052E+04  2.458842E+03
       379  27  9.395078E+04  3.077320E+05  7.538172E+04  1.851318E+05  2.265439E+04  2.702713E+04
       380   1 -5.755425E+04 -3.166313E+05 -4.941018E+04  1.844300E+05 -1.317090E+04  1.100610E+04
       380   2 -1.716838E+03 -8.896698E+04  6.168481E+02  1.500750E+05 -2.812801E+02  1.035066E+04
       380   3  5.409958E+04  1.393027E+05  5.117567E+04  1.837707E+05  1.261994E+04  9.694960E+03
       380   4 -1.721128E+03 -8.465084E+04 -2.286380E+03  1.840006E+05 -1.313111E+04 -5.376047E+03
       380   5 -7.493629E+02 -8.493012E+04  1.414080E+03  1.499776E+05 -2.414049E+02 -6.048395E+03
       380   6  2.074966E+02 -8.465001E+04  5.659901E+03  1.840053E+05  1.265975E+04 -6.720767E+03
       380   7  5.410879E+04  1.473814E+05  4.483562E+04  1.835711E+05 -1.309131E+04 -2.176420E+04
       380   8  2.182562E+02 -8.089267E+04  2.212321E+03  1.498802E+05 -2.015246E+02 -2.244756E+04
       380   9 -5.368757E+04 -3.085544E+05 -3.985748E+04  1.842398E+05  1.269955E+04 -2.313068E+04
       380  10 -5.755447E+04 -3.166314E+05 -4.941074E+04  1.844302E+05  1.088562E-09  3.353158E-09
       380  11 -1.716867E+03 -8.896709E+04  6.166466E+02  1.500750E+05  7.068303E-10  7.192199E-09
       380  12  5.409939E+04  1.393025E+05  5.117520E+04  1.837706E+05  5.010117E-10  1.175298E-09
       380  13 -1.721321E+03 -8.465092E+04 -2.286758E+03  1.840006E+05 -5.188689E-11  1.069023E-09
       380  14 -7.493727E+02 -8.493016E+04  1.414011E+03  1.499776E+05  2.372805E-09  1.519986E-08
       380  15  2.073123E+02 -8.465010E+04  5.659515E+03  1.840054E+05  2.544810E-09  4.438500E-09
       380  16  5.410847E+04  1.473808E+05  4.483441E+04  1.835709E+05 -2.070051E-09  6.112240E-09
       380  17  2.181209E+02 -8.089322E+04  2.211374E+03  1.498802E+05 -1.454855E-09 -6.117570E-09
       380  18 -5.368789E+04 -3.085550E+05 -3.985879E+04  1.842401E+05 -5.685080E-10 -2.935463E-09
       380  19 -5.755425E+04 -3.166313E+05 -4.941018E+04  1.844300E+05  1.317090E+04 -1.100610E+04
       380  20 -1.716838E+03 -8.896698E+04  6.168481E+02  1.500750E+05  2.812801E+02 -1.035066E+04
       380  21  5.409958E+04  1.393027E+05  5.117567E+04  1.837707E+05 -1.261994E+04 -9.694960E+03
       380  22 -1.721128E+03 -8.465084E+04 -2.286380E+03  1.840006E+05  1.313111E+04  5.376047E+03
       380  23 -7.493629E+02 -8.493012E+04  1.414080E+03  1.499776E+05  2.414049E+02  6.048395E+03
       380  24  2.074966E+02 -8.465001E+04  5.659901E+03  1.840053E+05 -1.265975E+04  6.720767E+03
       380  25  5.410879E+04  1.473814E+05  4.483562E+04  1.835711E+05  1.309131E+04  2.176420E+04
       380  26  2.182562E+02 -8.089267E+04  2.212321E+03  1.498802E+05  2.015246E+02  2.244756E+04
       380  27 -5.368757E+04 -3.085544E+05 -3.985748E+04  1.842398E+05 -1.269955E+04  2.313068E+04
       381   1  9.106974E+04  3.020051E+05  8.593898E+04  1.796362E+05  2.218191E+04  1.346568E+04
       381   2  1.505586E+05  5.241635E+05  1.455520E+05  1.556723E+05  2.742216E+04 -2.389411E+04
       381   3  2.370567E+05  7.585383E+05  2.363425E+05  1.986063E+05  9.678882E+03 -6.133634E+04
       381   4 -1.566150E+03 -8.321549E+04  8.038965E+03  1.837307E+05  2.223487E+04 -7.705807E+03
       381   5  2.427705E+03 -8.681110E+04  1.551612E+04  1.503222E+05  2.740325E+04 -1.580438E+04
       381   6  2.837118E+04 -8.330131E+04  3.386891E+04  1.838121E+05  9.579002E+03 -2.397156E+04
       381   7 -9.421096E+04 -4.682938E+05 -6.986703E+04  1.878226E+05  2.228756E+04 -2.886441E+04
       381   8 -1.457273E+05 -6.974340E+05 -1.145409E+05  1.449776E+05  2.738419E+04 -7.722484E+03
       381   9 -1.803643E+05 -9.244892E+05 -1.686498E+05  1.690383E+05  9.477281E+03  1.334280E+04
       381  10  9.106917E+04  3.020048E+05  8.593771E+04  1.796360E+05  1.193488E-09  4.473515E-10
       381  11  1.505577E+05  5.241627E+05  1.455495E+05  1.556729E+05 -7.516707E-11  7.577450E-09
       381  12  2.370556E+05  7.585342E+05  2.363353E+05  1.986068E+05 -9.663256E-10  2.697140E-09
       381  13 -1.566697E+03 -8.321569E+04  8.037924E+03  1.837308E+05 -1.025037E-09  1.063324E-09
       381  14  2.426831E+03 -8.681157E+04  1.551424E+04  1.503225E+05  1.631796E-09  1.513066E-08
       381  15  2.837093E+04 -8.330195E+04  3.386766E+04  1.838123E+05 -5.592390E-10  2.205874E-09
       381  16 -9.421171E+04 -4.682948E+05 -6.986953E+04  1.878231E+05  7.242621E-10  5.394886E-09
       381  17 -1.457282E+05 -6.974343E+05 -1.145424E+05  1.449777E+05  1.832152E-09 -6.697488E-09
       381  18 -1.803644E+05 -9.244894E+05 -1.686503E+05  1.690382E+05 -3.995456E-10 -5.627270E-09
       381  19  9.106974E+04  3.020051E+05  8.593898E+04  1.796362E+05 -2.218191E+04 -1.346568E+04
       381  20  1.505586E+05  5.241635E+05  1.455520E+05  1.556723E+05 -2.742216E+04  2.389411E+04
       381  21  2.370567E+05  7.585383E+05  2.363425E+05  1.986063E+05 -9.678882E+03  6.133634E+04
       381  22 -1.566150E+03 -8.321549E+04  8.038965E+03  1.837307E+05 -2.223487E+04  7.705807E+03
       381  23  2.427705E+03 -8.681110E+04  1.551612E+04  1.503222E+05 -2.740325E+04  1.580438E+04
       381  24  2.837118E+04 -8.330131E+04  3.386891E+04  1.838121E+05 -9.579002E+03  2.397156E+04
       381  25 -9.421096E+04 -4.682938E+05 -6.986703E+04  1.878226E+05 -2.228756E+04  2.886441E+04
       381  26 -1.457273E+05 -6.974340E+05 -1.145409E+05  1.449776E+05 -2.738419E+04  7.722484E+03
       381  27 -1.803643E+05 -9.244892E+05 -1.686498E+05  1.690383E+05 -9.477281E+03 -1.334280E+04
       382   1  4.669079E+05  1.929622E+05  1.171752E+05  1.787104E+05  5.354671E+04  1.714004E+04
       382   2  4.499367E+05  1.215206E+05  6.973590E+04  1.734337E+05  3.421276E+04  2.999962E+03
       382   3  4.491121E+05  1.014754E+05  5.120819E+04  1.613810E+05  1.285205E+04 -5.783031E+03
       382   4  2.996114E+05  1.026916E+05  6.774994E+04  1.050554E+05  4.440557E+04  1.367633E+04
       382   5  2.883341E+05  5.126499E+04  2.994663E+04  1.184000E+05  3.073610E+04  1.682692E+03
       382   6  2.920854E+05  5.011850E+04  1.656999E+04  1.249672E+05  1.503893E+04 -4.954923E+03
       382   7  1.323475E+05  1.243471E+04  1.832351E+04  3.142273E+04  3.526730E+04  1.021470E+04
       382   8  1.267587E+05 -1.898547E+04 -9.844297E+03  6.338063E+04  2.726045E+04  3.659405E+02
       382   9  1.350821E+05 -1.238287E+03 -1.807004E+04  8.856088E+04  1.722524E+04 -4.126975E+03
       382  10  4.669047E+05  1.929611E+05  1.171692E+05  1.787097E+05 -1.338638E-09  3.550206E-09
       382  11  4.499354E+05  1.215203E+05  6.973368E+04  1.734337E+05 -1.242460E-09  3.422764E-09
       382  12  4.491119E+05  1.014753E+05  5.120782E+04  1.613811E+05  2.215948E-10  4.771492E-09
       382  13  2.996093E+05  1.026909E+05  6.774588E+04  1.050549E+05  7.849291E-10 -6.531096E-09
       382  14  2.883330E+05  5.126473E+04  2.994485E+04  1.184000E+05  2.887563E-09  7.931764E-09
       382  15  2.920852E+05  5.011841E+04  1.656952E+04  1.249672E+05 -1.919799E-09 -3.124242E-09
       382  16  1.323462E+05  1.243426E+04  1.832097E+04  3.142244E+04  3.186596E-09  3.286921E-10
       382  17  1.267579E+05 -1.898567E+04 -9.845694E+03  6.338063E+04  1.071311E-09  1.520515E-09
       382  18  1.350818E+05 -1.238385E+03 -1.807063E+04  8.856094E+04 -1.623394E-09 -3.783824E-09
       382  19  4.669079E+05  1.929622E+05  1.171752E+05  1.787104E+05 -5.354671E+04 -1.714004E+04
       382  20  4.499367E+05  1.215206E+05  6.973590E+04  1.734337E+05 -3.421276E+04 -2.999962E+03
       382  21  4.491121E+05  1.014754E+05  5.120819E+04  1.613810E+05 -1.285205E+04  5.783031E+03
       382  22  2.996114E+05  1.026916E+05  6.774994E+04  1.050554E+05 -4.440557E+04 -1.367633E+04
       382  23  2.883341E+05  5.126499E+04  2.994663E+04  1.184000E+05 -3.073610E+04 -1.682692E+03
       382  24  2.920854E+05  5.011850E+04  1.656999E+04  1.249672E+05 -1.503893E+04  4.954923E+03
       382  25  1.323475E+05  1.243471E+04  1.832351E+04  3.142273E+04 -3.526730E+04 -1.021470E+04
       382  26  1.267587E+05 -1.898547E+04 -9.844297E+03  6.338063E+04 -2.726045E+04 -3.659405E+02
       382  27  1.350821E+05 -1.238287E+03 -1.807004E+04  8.856088E+04 -1.722524E+04  4.126975E+03
       383   1  4.279933E+05  1.062105E+05  4.471942E+04  1.615357E+05  1.190463E+04 -4.976684E+03
       383   2  4.125655E+05  9.466040E+04  3.438941E+04  1.543108E+05  7.909618E+03 -5.557904E+03
       383   3  3.939311E+05  8.998744E+04  2.742330E+04  1.517895E+05  3.818263E+03 -5.884727E+03
       383   4  2.899699E+05  5.405906E+04  1.295309E+04  1.223693E+05  1.263002E+04 -4.702142E+03
       383   5  2.914295E+05  4.945136E+04  6.772490E+03  1.204710E+05  8.904571E+03 -5.181177E+03
       383   6  2.896290E+05  5.166768E+04  3.742691E+03  1.232761E+05  5.082672E+03 -5.405837E+03
       383   7  1.519657E+05  1.909251E+03 -1.881452E+04  8.321098E+04  1.335523E+04 -4.427670E+03
       383   8  1.703085E+05  4.243638E+03 -2.084528E+04  8.663737E+04  9.899311E+03 -4.804532E+03
       383   9  1.853384E+05  1.334894E+04 -1.993844E+04  9.476722E+04  6.346842E+03 -4.927034E+03
       383  10  4.279931E+05  1.062105E+05  4.471911E+04  1.615358E+05  4.317512E-09  3.385152E-09
       383  11  4.125654E+05  9.466035E+04  3.438923E+04  1.543109E+05  5.568852E-10  8.541158E-09
       383  12  3.939311E+05  8.998740E+04  2.742321E+04  1.517895E+05 -2.428379E-09  1.005014E-08
       383  13  2.899698E+05  5.405900E+04  1.295274E+04  1.223694E+05 -1.403375E-09 -1.130813E-08
       383  14  2.914294E+05  4.945131E+04  6.772291E+03  1.204711E+05  3.087880E-11  9.812005E-09
       383  15  2.896289E+05  5.166764E+04  3.742588E+03  1.232761E+05 -8.691031E-10 -1.931735E-09
       383  16  1.519655E+05  1.909182E+03 -1.881489E+04  8.321103E+04 -4.435071E-09 -3.709165E-09
       383  17  1.703084E+05  4.243587E+03 -2.084551E+04  8.663741E+04  3.626675E-09 -8.098835E-09
       383  18  1.853383E+05  1.334890E+04 -1.993856E+04  9.476725E+04  4.671670E-09 -8.213092E-10
       383  19  4.279933E+05  1.062105E+05  4.471942E+04  1.615357E+05 -1.190463E+04  4.976684E+03
       383  20  4.125655E+05  9.466040E+04  3.438941E+04  1.543108E+05 -7.909618E+03  5.557904E+03
       383  21  3.939311E+05  8.998744E+04  2.742330E+04  1.517895E+05 -3.818263E+03  5.884727E+03
       383  22  2.899699E+05  5.405906E+04  1.295309E+04  1.223693E+05 -1.263002E+04  4.702142E+03
       383  23  2.914295E+05  4.945136E+04  6.772490E+03  1.204710E+05 -8.904571E+03  5.181177E+03
       383  24  2.896290E+05  5.166768E+04  3.742691E+03  1.232761E+05 -5.082672E+03  5.405837E+03
       383  25  1.519657E+05  1.909251E+03 -1.881452E+04  8.321098E+04 -1.335523E+04  4.427670E+03
       383  26  1.703085E+05  4.243638E+03 -2.084528E+04  8.663737E+04 -9.899311E+03  4.804532E+03
       383  27  1.853384E+05  1.334894E+04 -1.993844E+04  9.476722E+04 -6.346842E+03  4.927034E+03
       384   1  3.803748E+05  8.554960E+04  2.343135E+04  1.483248E+05  3.100827E+03 -5.370514E+03
       384   2  3.652865E+05  7.676890E+04  1.827519E+04  1.409723E+05  1.882763E+03 -4.533282E+03
       384   3  3.457968E+05  7.266247E+04  1.373562E+04  1.387683E+05  6.602630E+02 -3.684602E+03
       384   4  2.894688E+05  5.183868E+04  2.832061E+03  1.231295E+05  4.294700E+03 -4.918298E+03
       384   5  2.916652E+05  4.946184E+04  1.555505E+03  1.205709E+05  3.088857E+03 -4.076375E+03
       384   6  2.894579E+05  5.175701E+04  8.860309E+02  1.231608E+05  1.878556E+03 -3.223013E+03
       384   7  1.985706E+05  1.812817E+04 -1.776792E+04  9.793744E+04  5.488391E+03 -4.466151E+03
       384   8  2.180491E+05  2.215510E+04 -1.516460E+04  1.001716E+05  4.294799E+03 -3.619526E+03
       384   9  2.331220E+05  3.085179E+04 -1.196377E+04  1.075546E+05  3.096729E+03 -2.761469E+03
       384  10  3.803747E+05  8.554957E+04  2.343128E+04  1.483248E+05  3.664727E-08  2.302834E-08
       384  11  3.652865E+05  7.676887E+04  1.827515E+04  1.409723E+05  4.519653E-09  8.101737E-10
       384  12  3.457968E+05  7.266245E+04  1.373560E+04  1.387683E+05 -3.418221E-08 -1.787396E-08
       384  13  2.894688E+05  5.183865E+04  2.831980E+03  1.231295E+05  1.834245E-09  7.050491E-09
       384  14  2.916652E+05  4.946182E+04  1.555456E+03  1.205709E+05  1.056282E-08  1.248488E-08
       384  15  2.894579E+05  5.175700E+04  8.860048E+02  1.231608E+05  3.065839E-09 -5.685218E-10
       384  16  1.985705E+05  1.812814E+04 -1.776801E+04  9.793746E+04 -2.754387E-08 -1.290653E-08
       384  17  2.180491E+05  2.215509E+04 -1.516466E+04  1.001716E+05  1.456826E-08  1.217969E-08
       384  18  2.331220E+05  3.085178E+04 -1.196380E+04  1.075546E+05  4.083930E-08  2.663788E-08
       384  19  3.803748E+05  8.554960E+04  2.343135E+04  1.483248E+05 -3.100827E+03  5.370514E+03
       384  20  3.652865E+05  7.676890E+04  1.827519E+04  1.409723E+05 -1.882763E+03  4.533282E+03
       384  21  3.457968E+05  7.266247E+04  1.373562E+04  1.387683E+05 -6.602630E+02  3.684602E+03
       384  22  2.894688E+05  5.183868E+04  2.832061E+03  1.231295E+05 -4.294700E+03  4.918298E+03
       384  23  2.916652E+05  4.946184E+04  1.555505E+03  1.205709E+05 -3.088857E+03  4.076375E+03
       384  24  2.894579E+05  5.175701E+04  8.860309E+02  1.231608E+05 -1.878556E+03  3.223013E+03
       384  25  1.985706E+05  1.812817E+04 -1.776792E+04  9.793744E+04 -5.488391E+03  4.466151E+03
       384  26  2.180491E+05  2.215510E+04 -1.516460E+04  1.001716E+05 -4.294799E+03  3.619526E+03
       384  27  2.331220E+05  3.085179E+04 -1.196377E+04  1.075546E+05 -3.096729E+03  2.761469E+03
       385   1  3.326817E+05  6.779996E+04  1.045191E+04  1.351456E+05  2.796132E+02 -3.062133E+03
       385   2  3.176745E+05  5.912972E+04  6.346742E+03  1.277847E+05 -3.780926E+02 -1.996720E+03
       385   3  2.981561E+05  5.501289E+04  2.408410E+03  1.255671E+05 -1.035931E+03 -9.310026E+02
       385   4  2.894385E+05  5.176061E+04  6.879357E+02  1.231484E+05  1.494152E+03 -2.601944E+03
       385   5  2.916946E+05  4.948485E+04  4.459967E+02  1.205765E+05  8.367677E+02 -1.536390E+03
       385   6  2.894392E+05  5.176244E+04  3.706506E+02  1.231479E+05  1.792417E+02 -4.705314E+02
       385   7  2.461974E+05  3.572151E+04 -9.076085E+03  1.111520E+05  2.708591E+03 -2.141792E+03
       385   8  2.657154E+05  3.984004E+04 -5.454786E+03  1.133686E+05  2.051573E+03 -1.076081E+03
       385   9  2.807222E+05  4.851198E+04 -1.667123E+03  1.207286E+05  1.394403E+03 -1.006442E+01
       385  10  3.326817E+05  6.779995E+04  1.045190E+04  1.351456E+05 -8.021991E-09 -2.533809E-09
       385  11  3.176745E+05  5.912972E+04  6.346734E+03  1.277847E+05 -7.831346E-09  1.682288E-08
       385  12  2.981561E+05  5.501289E+04  2.408407E+03  1.255671E+05 -8.349516E-09 -9.698474E-09
       385  13  2.894385E+05  5.176061E+04  6.879188E+02  1.231484E+05  4.483362E-10  2.829936E-09
       385  14  2.916946E+05  4.948485E+04  4.459909E+02  1.205765E+05 -9.845546E-11 -2.588383E-09
       385  15  2.894392E+05  5.176244E+04  3.706501E+02  1.231479E+05 -4.924519E-09 -1.238322E-08
       385  16  2.461974E+05  3.572150E+04 -9.076107E+03  1.111521E+05  7.495370E-09  5.569250E-09
       385  17  2.657154E+05  3.984004E+04 -5.454796E+03  1.133686E+05  3.800366E-09 -9.233673E-09
       385  18  2.807222E+05  4.851198E+04 -1.667126E+03  1.207286E+05  5.734238E-09  1.748537E-09
       385  19  3.326817E+05  6.779996E+04  1.045191E+04  1.351456E+05 -2.796132E+02  3.062133E+03
       385  20  3.176745E+05  5.912972E+04  6.346742E+03  1.277847E+05  3.780926E+02  1.996720E+03
       385  21  2.981561E+05  5.501289E+04  2.408410E+03  1.255671E+05  1.035931E+03  9.310026E+02
       385  22  2.894385E+05  5.176061E+04  6.879357E+02  1.231484E+05 -1.494152E+03  2.601944E+03
       385  23  2.916946E+05  4.948485E+04  4.459967E+02  1.205765E+05 -8.367677E+02  1.536390E+03
       385  24  2.894392E+05  5.176244E+04  3.706506E+02  1.231479E+05 -1.792417E+02  4.705314E+02
       385  25  2.461974E+05  3.572151E+04 -9.076085E+03  1.111520E+05 -2.708591E+03  2.141792E+03
       385  26  2.657154E+05  3.984004E+04 -5.454786E+03  1.133686E+05 -2.051573E+03  1.076081E+03
       385  27  2.807222E+05  4.851198E+04 -1.667123E+03  1.207286E+05 -1.394403E+03  1.006442E+01
       386   1  2.850837E+05  5.013685E+04 -6.638651E+02  1.219448E+05 -1.352279E+03 -2.854387E+02
       386   2  2.700742E+05  4.146542E+04 -4.396555E+03  1.145865E+05 -2.042541E+03  7.679657E+02
       386   3  2.505593E+05  3.734904E+04 -7.937770E+03  1.123725E+05 -2.732623E+03  1.821073E+03
       386   4  2.894404E+05  5.176259E+04  3.826154E+02  1.231481E+05 -1.371693E+02  1.750110E+02
       386   5  2.916929E+05  4.948358E+04  5.125224E+02  1.205766E+05 -8.277945E+02  1.228259E+03
       386   6  2.894398E+05  5.175961E+04  8.341650E+02  1.231492E+05 -1.518245E+03  2.281207E+03
       386   7  2.937971E+05  5.338833E+04  1.429101E+03  1.243515E+05  1.077949E+03  6.354642E+02
       386   8  3.133121E+05  5.750174E+04  5.421556E+03  1.265668E+05  3.869944E+02  1.688568E+03
       386   9  3.283215E+05  6.617021E+04  9.605942E+03  1.339264E+05 -3.037919E+02  2.741369E+03
       386  10  2.850837E+05  5.013685E+04 -6.638687E+02  1.219448E+05  6.394225E-09 -1.145460E-08
       386  11  2.700742E+05  4.146542E+04 -4.396564E+03  1.145865E+05  2.910522E-09 -3.083685E-10
       386  12  2.505593E+05  3.734904E+04 -7.937791E+03  1.123726E+05 -5.149913E-09 -6.111213E-10
       386  13  2.894404E+05  5.176259E+04  3.826154E+02  1.231481E+05 -3.087217E-09  2.391651E-09
       386  14  2.916929E+05  4.948357E+04  5.125183E+02  1.205766E+05 -8.866519E-10 -9.725236E-09
       386  15  2.894398E+05  5.175961E+04  8.341509E+02  1.231492E+05 -1.135194E-09  6.579872E-09
       386  16  2.937971E+05  5.338833E+04  1.429098E+03  1.243515E+05 -7.785605E-09 -1.950334E-09
       386  17  3.133121E+05  5.750174E+04  5.421550E+03  1.265668E+05 -6.532950E-10  3.873129E-09
       386  18  3.283215E+05  6.617020E+04  9.605927E+03  1.339264E+05  1.766353E-09 -3.266067E-09
       386  19  2.850837E+05  5.013685E+04 -6.638651E+02  1.219448E+05  1.352279E+03  2.854387E+02
       386  20  2.700742E+05  4.146542E+04 -4.396555E+03  1.145865E+05  2.042541E+03 -7.679657E+02
       386  21  2.505593E+05  3.734904E+04 -7.937770E+03  1.123725E+05  2.732623E+03 -1.821073E+03
       386  22  2.894404E+05  5.176259E+04  3.826154E+02  1.231481E+05  1.371693E+02 -1.750110E+02
       386  23  2.916929E+05  4.948358E+04  5.125224E+02  1.205766E+05  8.277945E+02 -1.228259E+03
       386  24  2.894398E+05  5.175961E+04  8.341650E+02  1.231492E+05  1.518245E+03 -2.281207E+03
       386  25  2.937971E+05  5.338833E+04  1.429101E+03  1.243515E+05 -1.077949E+03 -6.354642E+02
       386  26  3.133121E+05  5.750174E+04  5.421556E+03  1.265668E+05 -3.869944E+02 -1.688568E+03
       386  27  3.283215E+05  6.617021E+04  9.605942E+03  1.339264E+05  3.037919E+02 -2.741369E+03
       387   1  2.374859E+05  3.248162E+04 -1.077044E+04  1.087816E+05 -3.149433E+03  2.429813E+03
       387   2  2.223969E+05  2.378351E+04 -1.379661E+04  1.013972E+05 -4.534847E+03  3.216838E+03
       387   3  2.029388E+05  1.978403E+04 -1.607852E+04  9.916158E+04 -5.915863E+03  3.992602E+03
       387   4  2.894649E+05  5.175482E+04  1.087370E+03  1.231642E+05 -1.931421E+03  2.891302E+03
       387   5  2.916552E+05  4.945549E+04  1.930753E+03  1.205701E+05 -3.328872E+03  3.673713E+03
       387   6  2.894787E+05  5.185727E+04  3.527989E+03  1.231249E+05 -4.721953E+03  4.444854E+03
       387   7  3.414469E+05  7.102836E+04  1.294509E+04  1.375479E+05 -7.132897E+02  3.352836E+03
       387   8  3.609184E+05  7.512793E+04  1.765787E+04  1.397451E+05 -2.122748E+03  4.130645E+03
       387   9  3.760261E+05  8.393110E+04  2.313402E+04  1.470913E+05 -3.527862E+03  4.897174E+03
       387  10  2.374859E+05  3.248161E+04 -1.077047E+04  1.087816E+05 -1.414566E-08 -3.003611E-09
       387  11  2.223969E+05  2.378350E+04 -1.379667E+04  1.013972E+05 -4.202218E-09  5.171821E-09
       387  12  2.029387E+05  1.978401E+04 -1.607861E+04  9.916160E+04  6.627337E-09  1.845461E-09
       387  13  2.894649E+05  5.175481E+04  1.087347E+03  1.231642E+05 -5.736157E-09 -3.658901E-09
       387  14  2.916552E+05  4.945548E+04  1.930706E+03  1.205701E+05 -2.374823E-09 -5.792338E-09
       387  15  2.894786E+05  5.185725E+04  3.527910E+03  1.231249E+05 -4.172434E-12 -9.500507E-09
       387  16  3.414469E+05  7.102835E+04  1.294507E+04  1.375479E+05  9.817496E-09  6.968764E-09
       387  17  3.609184E+05  7.512791E+04  1.765783E+04  1.397451E+05  3.915848E-09  3.459735E-09
       387  18  3.760261E+05  8.393107E+04  2.313395E+04  1.470913E+05 -5.459379E-09 -9.054520E-09
       387  19  2.374859E+05  3.248162E+04 -1.077044E+04  1.087816E+05  3.149433E+03 -2.429813E+03
       387  20  2.223969E+05  2.378351E+04 -1.379661E+04  1.013972E+05  4.534847E+03 -3.216838E+03
       387  21  2.029388E+05  1.978403E+04 -1.607852E+04  9.916158E+04  5.915863E+03 -3.992602E+03
       387  22  2.894649E+05  5.175482E+04  1.087370E+03  1.231642E+05  1.931421E+03 -2.891302E+03
       387  23  2.916552E+05  4.945549E+04  1.930753E+03  1.205701E+05  3.328872E+03 -3.673713E+03
       387  24  2.894787E+05  5.185727E+04  3.527989E+03  1.231249E+05  4.721953E+03 -4.444854E+03
       387  25  3.414469E+05  7.102836E+04  1.294509E+04  1.375479E+05  7.132897E+02 -3.352836E+03
       387  26  3.609184E+05  7.512793E+04  1.765787E+04  1.397451E+05  2.122748E+03 -4.130645E+03
       387  27  3.760261E+05  8.393110E+04  2.313402E+04  1.470913E+05  3.527862E+03 -4.897174E+03
       388   1  1.896821E+05  1.503417E+04 -1.802111E+04  9.610816E+04 -6.902401E+03  4.404343E+03
       388   2  1.746522E+05  5.829791E+03 -1.817384E+04  8.779080E+04 -1.130666E+04  3.961057E+03
       388   3  1.566325E+05  3.962362E+03 -1.460363E+04  8.406868E+04 -1.561649E+04  3.269266E+03
       388   4  2.896796E+05  5.164451E+04  4.665755E+03  1.233085E+05 -5.639610E+03  4.882647E+03
       388   5  2.913615E+05  4.944262E+04  8.447396E+03  1.204451E+05 -1.030727E+04  4.339478E+03
       388   6  2.901051E+05  5.462926E+04  1.616020E+04  1.221766E+05 -1.488067E+04  3.547766E+03
       388   7  3.896865E+05  8.825533E+04  2.735181E+04  1.505126E+05 -4.376607E+03  5.361029E+03
       388   8  4.080844E+05  9.305655E+04  3.506773E+04  1.531050E+05 -9.307689E+03  4.717978E+03
       388   9  4.235963E+05  1.052981E+05  4.692306E+04  1.602924E+05 -1.414467E+04  3.826336E+03
       388  10  1.896820E+05  1.503414E+04 -1.802124E+04  9.610818E+04  2.340052E-09  3.345059E-09
       388  11  1.746521E+05  5.829740E+03 -1.817411E+04  8.779084E+04  1.456263E-09 -3.570987E-09
       388  12  1.566322E+05  3.962285E+03 -1.460411E+04  8.406872E+04  2.696091E-09  3.277988E-09
       388  13  2.896795E+05  5.164448E+04  4.665650E+03  1.233085E+05  5.719098E-10 -1.831715E-08
       388  14  2.913613E+05  4.944257E+04  8.447161E+03  1.204451E+05 -6.304708E-11  2.426657E-09
       388  15  2.901048E+05  5.462919E+04  1.615976E+04  1.221767E+05  3.938932E-09  2.505226E-09
       388  16  3.896865E+05  8.825529E+04  2.735172E+04  1.505127E+05  1.647314E-09 -1.474417E-08
       388  17  4.080843E+05  9.305650E+04  3.506753E+04  1.531051E+05 -2.071633E-10 -1.041777E-08
       388  18  4.235961E+05  1.052980E+05  4.692266E+04  1.602924E+05  3.052801E-09  6.972318E-09
       388  19  1.896821E+05  1.503417E+04 -1.802111E+04  9.610816E+04  6.902401E+03 -4.404343E+03
       388  20  1.746522E+05  5.829791E+03 -1.817384E+04  8.779080E+04  1.130666E+04 -3.961057E+03
       388  21  1.566325E+05  3.962362E+03 -1.460363E+04  8.406868E+04  1.561649E+04 -3.269266E+03
       388  22  2.896796E+05  5.164451E+04  4.665755E+03  1.233085E+05  5.639610E+03 -4.882647E+03
       388  23  2.913615E+05  4.944262E+04  8.447396E+03  1.204451E+05  1.030727E+04 -4.339478E+03
       388  24  2.901051E+05  5.462926E+04  1.616020E+04  1.221766E+05  1.488067E+04 -3.547766E+03
       388  25  3.896865E+05  8.825533E+04  2.735181E+04  1.505126E+05  4.376607E+03 -5.361029E+03
       388  26  4.080844E+05  9.305655E+04  3.506773E+04  1.531050E+05  9.307689E+03 -4.717978E+03
       388  27  4.235963E+05  1.052981E+05  4.692306E+04  1.602924E+05  1.414467E+04 -3.826336E+03
       389   1  1.388581E+05  1.264769E+03 -1.296690E+04  9.167326E+04 -1.995115E+04  2.783214E+03
       389   2  1.321277E+05 -1.872315E+04 -1.398071E+03  6.200589E+04 -3.407467E+04 -3.211703E+03
       389   3  1.441401E+05  2.185844E+04  3.626622E+04  2.266146E+04 -4.621666E+04 -1.443904E+04
       389   4  2.927336E+05  4.972400E+04  2.067321E+04  1.254295E+05 -1.778760E+04  3.602690E+03
       389   5  2.875143E+05  5.169315E+04  3.736336E+04  1.178466E+05 -3.744420E+04 -4.488608E+03
       389   6  3.021268E+05  1.153168E+05  8.453055E+04  1.005886E+05 -5.511961E+04 -1.781281E+04
       389   7  4.466333E+05  9.818373E+04  5.431211E+04  1.591929E+05 -1.562346E+04  4.422313E+03
       389   8  4.429240E+05  1.221141E+05  7.612258E+04  1.737006E+05 -4.081461E+04 -5.766017E+03
       389   9  4.601372E+05  2.087879E+05  1.327919E+05  1.785355E+05 -6.402483E+04 -2.118864E+04
       389  10  1.388577E+05  1.264654E+03 -1.296767E+04  9.167330E+04  1.295285E-08  1.025121E-08
       389  11  1.321265E+05 -1.872348E+04 -1.400272E+03  6.200580E+04  4.408340E-09  5.114775E-09
       389  12  1.441378E+05  2.185765E+04  3.626181E+04  2.266092E+04 -3.504120E-09  8.017662E-09
       389  13  2.927332E+05  4.972390E+04  2.067259E+04  1.254296E+05  3.851950E-09 -5.800783E-09
       389  14  2.875128E+05  5.169275E+04  3.736069E+04  1.178464E+05  1.341902E-09 -1.387796E-08
       389  15  3.021234E+05  1.153156E+05  8.452425E+04  1.005878E+05 -1.007048E-09  3.811652E-09
       389  16  4.466331E+05  9.818364E+04  5.431162E+04  1.591929E+05 -7.324059E-09 -2.434287E-09
       389  17  4.429222E+05  1.221136E+05  7.611939E+04  1.737005E+05 -4.807822E-09 -1.308553E-08
       389  18  4.601327E+05  2.087863E+05  1.327834E+05  1.785344E+05 -2.868045E-10  2.535091E-10
       389  19  1.388581E+05  1.264769E+03 -1.296690E+04  9.167326E+04  1.995115E+04 -2.783214E+03
       389  20  1.321277E+05 -1.872315E+04 -1.398071E+03  6.200589E+04  3.407467E+04  3.211703E+03
       389  21  1.441401E+05  2.185844E+04  3.626622E+04  2.266146E+04  4.621666E+04  1.443904E+04
       389  22  2.927336E+05  4.972400E+04  2.067321E+04  1.254295E+05  1.778760E+04 -3.602690E+03
       389  23  2.875143E+05  5.169315E+04  3.736336E+04  1.178466E+05  3.744420E+04  4.488608E+03
       389  24  3.021268E+05  1.153168E+05  8.453055E+04  1.005886E+05  5.511961E+04  1.781281E+04
       389  25  4.466333E+05  9.818373E+04  5.431211E+04  1.591929E+05  1.562346E+04 -4.422313E+03
       389  26  4.429240E+05  1.221141E+05  7.612258E+04  1.737006E+05  4.081461E+04  5.766017E+03
       389  27  4.601372E+05  2.087879E+05  1.327919E+05  1.785355E+05  6.402483E+04  2.118864E+04
       390   1 -1.130998E+05 -5.518879E+05 -1.120546E+05  9.151185E+04 -4.455974E+03 -2.521184E+04
       390   2 -7.164880E+04 -4.359024E+05 -6.992597E+04  6.845747E+04 -1.278624E+04 -8.831218E+03
       390   3 -4.280435E+04 -3.248943E+05 -4.157820E+04  8.296047E+04 -9.833878E+03  7.586563E+03
       390   4 -1.276542E+04 -1.482617E+05 -1.442243E+04  8.407607E+04 -4.501126E+03 -9.518841E+03
       390   5 -1.225377E+03 -1.468614E+05 -7.045109E+03  6.531579E+04 -1.279423E+04 -5.853632E+03
       390   6 -7.936936E+01 -1.482405E+05 -4.610952E+03  8.411269E+04 -9.806854E+03 -2.154546E+03
       390   7  8.755733E+04  2.555142E+05  8.319902E+04  7.663553E+04 -4.546641E+03  6.184335E+03
       390   8  6.919253E+04  1.422580E+05  5.583078E+04  6.217267E+04 -1.280225E+04 -2.874676E+03
       390   9  4.264367E+04  2.844305E+04  3.235492E+04  8.526525E+04 -9.779871E+03 -1.189838E+04
       390  10 -1.131000E+05 -5.518886E+05 -1.120559E+05  9.151176E+04  4.687517E-10 -3.117907E-09
       390  11 -7.164899E+04 -4.359025E+05 -6.992642E+04  6.845738E+04  3.256182E-10 -9.323022E-09
       390  12 -4.280447E+04 -3.248944E+05 -4.157849E+04  8.296054E+04  2.210001E-09 -2.136262E-09
       390  13 -1.276546E+04 -1.482618E+05 -1.442264E+04  8.407603E+04  4.024425E-10  1.726229E-11
       390  14 -1.225562E+03 -1.468615E+05 -7.045481E+03  6.531573E+04 -4.763160E-09  3.195907E-09
       390  15 -7.947387E+01 -1.482405E+05 -4.611142E+03  8.411267E+04 -1.502391E-11 -3.530918E-09
       390  16  8.755729E+04  2.555142E+05  8.319891E+04  7.663555E+04 -2.101743E-09  1.020091E-09
       390  17  6.919235E+04  1.422579E+05  5.583046E+04  6.217264E+04 -4.980964E-09  1.354466E-08
       390  18  4.264353E+04  2.844287E+04  3.235448E+04  8.526516E+04 -2.373307E-09  8.443835E-09
       390  19 -1.130998E+05 -5.518879E+05 -1.120546E+05  9.151185E+04  4.455974E+03  2.521184E+04
       390  20 -7.164880E+04 -4.359024E+05 -6.992597E+04  6.845747E+04  1.278624E+04  8.831218E+03
       390  21 -4.280435E+04 -3.248943E+05 -4.157820E+04  8.296047E+04  9.833878E+03 -7.586563E+03
       390  22 -1.276542E+04 -1.482617E+05 -1.442243E+04  8.407607E+04  4.501126E+03  9.518841E+03
       390  23 -1.225377E+03 -1.468614E+05 -7.045109E+03  6.531579E+04  1.279423E+04  5.853632E+03
       390  24 -7.936936E+01 -1.482405E+05 -4.610952E+03  8.411269E+04  9.806854E+03  2.154546E+03
       390  25  8.755733E+04  2.555142E+05  8.319902E+04  7.663553E+04  4.546641E+03 -6.184335E+03
       390  26  6.919253E+04  1.422580E+05  5.583078E+04  6.217267E+04  1.280225E+04  2.874676E+03
       390  27  4.264367E+04  2.844305E+04  3.235492E+04  8.526525E+04  9.779871E+03  1.189838E+04
       391   1 -2.341550E+04 -2.404443E+05 -2.360003E+04  8.472870E+04 -5.014681E+03  5.597345E+03
       391   2  4.608538E+03 -1.268559E+05  6.777067E+02  6.511661E+04  1.207312E+03  7.350368E+03
       391   3  3.138408E+04 -1.351675E+04  2.356711E+04  8.363088E+04  7.375171E+03  9.103682E+03
       391   4 -9.504650E+02 -1.476788E+05 -4.074336E+03  8.423072E+04 -4.995381E+03 -1.455374E+03
       391   5 -3.840531E+02 -1.475434E+05 -3.593654E+03  6.516728E+04  1.226542E+03  3.581963E+02
       391   6 -1.075945E+03 -1.476802E+05 -4.543036E+03  8.423038E+04  7.394292E+03  2.171751E+03
       391   7  2.151404E+04 -5.490495E+04  1.545106E+04  8.373268E+04 -4.976071E+03 -8.509130E+03
       391   8 -5.376645E+03 -1.682305E+05 -7.864854E+03  6.521796E+04  1.245772E+03 -6.633747E+03
       391   9 -3.353710E+04 -2.818266E+05 -3.265401E+04  8.482976E+04  7.413402E+03 -4.758705E+03
       391  10 -2.341554E+04 -2.404444E+05 -2.360014E+04  8.472872E+04  7.484099E-10 -1.810474E-09
       391  11  4.608522E+03 -1.268560E+05  6.776024E+02  6.511660E+04  8.103592E-10 -6.600544E-09
       391  12  3.138400E+04 -1.351686E+04  2.356685E+04  8.363083E+04 -3.309961E-10 -4.599564E-09
       391  13 -9.504924E+02 -1.476788E+05 -4.074387E+03  8.423072E+04  5.833619E-10 -2.145794E-09
       391  14 -3.840547E+02 -1.475434E+05 -3.593657E+03  6.516728E+04  2.608458E-09 -7.365395E-09
       391  15 -1.076005E+03 -1.476803E+05 -4.543148E+03  8.423037E+04  2.585807E-09  1.373742E-09
       391  16  2.151400E+04 -5.490503E+04  1.545088E+04  8.373264E+04  5.118872E-11  3.824531E-09
       391  17 -5.376659E+03 -1.682305E+05 -7.864940E+03  6.521796E+04 -7.667635E-10  1.011205E-08
       391  18 -3.353716E+04 -2.818266E+05 -3.265415E+04  8.482979E+04  7.026473E-10  6.809626E-09
       391  19 -2.341550E+04 -2.404443E+05 -2.360003E+04  8.472870E+04  5.014681E+03 -5.597345E+03
       391  20  4.608538E+03 -1.268559E+05  6.777067E+02  6.511661E+04 -1.207312E+03 -7.350368E+03
       391  21  3.138408E+04 -1.351675E+04  2.356711E+04  8.363088E+04 -7.375171E+03 -9.103682E+03
       391  22 -9.504650E+02 -1.476788E+05 -4.074336E+03  8.423072E+04  4.995381E+03  1.455374E+03
       391  23 -3.840531E+02 -1.475434E+05 -3.593654E+03  6.516728E+04 -1.226542E+03 -3.581963E+02
       391  24 -1.075945E+03 -1.476802E+05 -4.543036E+03  8.423038E+04 -7.394292E+03 -2.171751E+03
       391  25  2.151404E+04 -5.490495E+04  1.545106E+04  8.373268E+04  4.976071E+03  8.509130E+03
       391  26 -5.376645E+03 -1.682305E+05 -7.864854E+03  6.521796E+04 -1.245772E+03  6.633747E+03
       391  27 -3.353710E+04 -2.818266E+05 -3.265401E+04  8.482976E+04 -7.413402E+03  4.758705E+03
       392   1  5.272770E+04  6.971743E+04  4.020216E+04  8.551938E+04  1.222664E+04  1.285782E+04
       392   2  7.902431E+04  1.837602E+05  6.321294E+04  6.153703E+04  1.486156E+04  3.399122E+03
       392   3  9.506218E+04  2.967904E+05  8.988150E+04  7.504632E+04  5.164561E+03 -6.098585E+03
       392   4  1.137837E+01 -1.483903E+05 -5.319700E+03  8.410044E+04  1.225434E+04  2.957188E+03
       392   5 -1.424065E+03 -1.466823E+05 -8.479076E+03  6.533096E+04  1.485064E+04  7.410778E+03
       392   6 -1.553566E+04 -1.484145E+05 -1.764245E+04  8.405512E+04  5.111905E+03  1.182683E+04
       392   7 -5.270792E+04 -3.664528E+05 -5.084382E+04  8.268202E+04  1.228208E+04 -6.940022E+03
       392   8 -8.187962E+04 -4.770223E+05 -8.017753E+04  6.912290E+04  1.483977E+04  1.142033E+04
       392   9 -1.261475E+05 -5.934374E+05 -1.251794E+05  9.305756E+04  5.059750E+03  2.973943E+04
       392  10  5.272749E+04  6.971721E+04  4.020157E+04  8.551926E+04  2.843111E-09 -1.704489E-08
       392  11  7.902407E+04  1.837601E+05  6.321250E+04  6.153699E+04  5.319314E-09  1.210379E-11
       392  12  9.506214E+04  2.967903E+05  8.988138E+04  7.504635E+04  1.237499E-09  1.948547E-08
       392  13  1.121479E+01 -1.483903E+05 -5.319999E+03  8.410041E+04  3.642268E-10 -4.163869E-11
       392  14 -1.424316E+03 -1.466824E+05 -8.479593E+03  6.533087E+04  5.832313E-09 -1.085530E-09
       392  15 -1.553572E+04 -1.484147E+05 -1.764276E+04  8.405507E+04  1.179372E-09  1.889155E-09
       392  16 -5.270809E+04 -3.664528E+05 -5.084419E+04  8.268209E+04  2.050546E-09  2.449364E-08
       392  17 -8.187989E+04 -4.770225E+05 -8.017819E+04  6.912276E+04  4.981549E-09  1.128798E-08
       392  18 -1.261478E+05 -5.934383E+05 -1.251811E+05  9.305744E+04  9.980783E-10 -1.152610E-08
       392  19  5.272770E+04  6.971743E+04  4.020216E+04  8.551938E+04 -1.222664E+04 -1.285782E+04
       392  20  7.902431E+04  1.837602E+05  6.321294E+04  6.153703E+04 -1.486156E+04 -3.399122E+03
       392  21  9.506218E+04  2.967904E+05  8.988150E+04  7.504632E+04 -5.164561E+03  6.098585E+03
       392  22  1.137837E+01 -1.483903E+05 -5.319700E+03  8.410044E+04 -1.225434E+04 -2.957188E+03
       392  23 -1.424065E+03 -1.466823E+05 -8.479076E+03  6.533096E+04 -1.485064E+04 -7.410778E+03
       392  24 -1.553566E+04 -1.484145E+05 -1.764245E+04  8.405512E+04 -5.111905E+03 -1.182683E+04
       392  25 -5.270792E+04 -3.664528E+05 -5.084382E+04  8.268202E+04 -1.228208E+04  6.940022E+03
       392  26 -8.187962E+04 -4.770223E+05 -8.017753E+04  6.912290E+04 -1.483977E+04 -1.142033E+04
       392  27 -1.261475E+05 -5.934374E+05 -1.251794E+05  9.305756E+04 -5.059750E+03 -2.973943E+04
       393   1  9.487098E+04 -1.494844E+05 -1.407411E+05 -2.946179E+04 -1.859770E+04  9.370132E+03
       393   2  1.481040E+05 -1.497740E+05 -1.231223E+05 -2.689361E+04 -3.940811E+03  3.023347E+04
       393   3  2.025269E+05 -1.381702E+05 -1.120556E+05 -4.144886E+04  1.073538E+04  3.341653E+04
       393   4  7.721883E+05  1.836689E+04  2.161221E+04 -3.885535E+04  1.490726E+04  9.399949E+03
       393   5  7.698800E+05  1.146522E+03  1.003901E+04 -3.028702E+04  9.618123E+03  3.024126E+04
       393   6  7.722157E+05 -7.261354E+02  5.756292E+03 -3.884106E+04  4.346759E+03  3.341058E+04
       393   7  1.449928E+06  1.861858E+05  1.839374E+05 -4.825929E+04  4.844859E+04  9.428736E+03
       393   8  1.392020E+06  1.520419E+05  1.431785E+05 -3.368393E+04  2.319043E+04  3.024891E+04
       393   9  1.342212E+06  1.366975E+05  1.235508E+05 -3.623086E+04 -2.047619E+03  3.340458E+04
       393  10  9.487059E+04 -1.494846E+05 -1.407420E+05 -2.946165E+04  2.636613E-10  3.957704E-11
       393  11  1.481037E+05 -1.497750E+05 -1.231240E+05 -2.689352E+04 -7.143671E-10 -3.449394E-11
       393  12  2.025265E+05 -1.381715E+05 -1.120579E+05 -4.144915E+04  5.637534E-11  3.239518E-12
       393  13  7.721881E+05  1.836673E+04  2.161163E+04 -3.885547E+04  5.390811E-10  2.272187E-11
       393  14  7.698797E+05  1.145515E+03  1.003712E+04 -3.028725E+04 -1.862740E-10 -3.255159E-11
       393  15  7.722154E+05 -7.273396E+02  5.754158E+03 -3.884117E+04  1.120037E-10 -3.295807E-12
       393  16  1.449926E+06  1.861851E+05  1.839328E+05 -4.825965E+04  2.288737E-11  1.321518E-11
       393  17  1.392019E+06  1.520408E+05  1.431758E+05 -3.368449E+04  1.529656E-10 -2.781426E-11
       393  18  1.342212E+06  1.366963E+05  1.235487E+05 -3.623080E+04  5.694302E-11 -1.505144E-10
       393  19  9.487098E+04 -1.494844E+05 -1.407411E+05 -2.946179E+04  1.859770E+04 -9.370132E+03
       393  20  1.481040E+05 -1.497740E+05 -1.231223E+05 -2.689361E+04  3.940811E+03 -3.023347E+04
       393  21  2.025269E+05 -1.381702E+05 -1.120556E+05 -4.144886E+04 -1.073538E+04 -3.341653E+04
       393  22  7.721883E+05  1.836689E+04  2.161221E+04 -3.885535E+04 -1.490726E+04 -9.399949E+03
       393  23  7.698800E+05  1.146522E+03  1.003901E+04 -3.028702E+04 -9.618123E+03 -3.024126E+04
       393  24  7.722157E+05 -7.261354E+02  5.756292E+03 -3.884106E+04 -4.346759E+03 -3.341058E+04
       393  25  1.449928E+06  1.861858E+05  1.839374E+05 -4.825929E+04 -4.844859E+04 -9.428736E+03
       393  26  1.392020E+06  1.520419E+05  1.431785E+05 -3.368393E+04 -2.319043E+04 -3.024891E+04
       393  27  1.342212E+06  1.366975E+05  1.235508E+05 -3.623086E+04  2.047619E+03 -3.340458E+04
       394   1  2.414364E+05 -1.272226E+05 -1.054364E+05 -3.895816E+04  5.485239E+03  3.055813E+04
       394   2  2.945385E+05 -1.149540E+05 -9.573300E+04 -3.017157E+04  5.266670E+03  2.839877E+04
       394   3  3.478738E+05 -1.021633E+05 -8.573962E+04 -3.924387E+04  5.046995E+03  2.533719E+04
       394   4  7.712823E+05  6.784357E+02  4.513091E+03 -3.900795E+04  3.560081E+03  3.055519E+04
       394   5  7.710870E+05 -5.661807E+01  2.480977E+03 -3.007880E+04  2.322582E+03  2.839602E+04
       394   6  7.712988E+05 -9.285430E+01  1.445625E+03 -3.900769E+04  1.083996E+03  2.533497E+04
       394   7  1.301394E+06  1.285617E+05  1.144473E+05 -3.905781E+04  1.633308E+03  3.055226E+04
       394   8  1.247851E+06  1.148265E+05  1.006828E+05 -2.998597E+04 -6.237262E+02  2.839328E+04
       394   9  1.194894E+06  1.019663E+05  8.862130E+04 -3.877135E+04 -2.881658E+03  2.533275E+04
       394  10  2.414362E+05 -1.272236E+05 -1.054382E+05 -3.895830E+04  9.873087E-11  4.887143E-11
       394  11  2.945383E+05 -1.149549E+05 -9.573457E+04 -3.017169E+04 -3.611836E-10  5.295006E-12
       394  12  3.478736E+05 -1.021640E+05 -8.574087E+04 -3.924397E+04  5.133553E-11  7.470674E-11
       394  13  7.712820E+05  6.774293E+02  4.511312E+03 -3.900804E+04  3.626301E-10 -4.016443E-12
       394  14  7.710868E+05 -5.748570E+01  2.479451E+03 -3.007885E+04 -1.140463E-10  5.223102E-11
       394  15  7.712986E+05 -9.354411E+01  1.444416E+03 -3.900771E+04  7.471239E-11  1.002533E-10
       394  16  1.301394E+06  1.285607E+05  1.144455E+05 -3.905785E+04  1.286302E-10 -1.332741E-10
       394  17  1.247851E+06  1.148256E+05  1.006812E+05 -2.998596E+04  1.148065E-10  8.692761E-12
       394  18  1.194894E+06  1.019656E+05  8.862007E+04 -3.877129E+04  7.985233E-11 -4.786081E-11
       394  19  2.414364E+05 -1.272226E+05 -1.054364E+05 -3.895816E+04 -5.485239E+03 -3.055813E+04
       394  20  2.945385E+05 -1.149540E+05 -9.573300E+04 -3.017157E+04 -5.266670E+03 -2.839877E+04
       394  21  3.478738E+05 -1.021633E+05 -8.573962E+04 -3.924387E+04 -5.046995E+03 -2.533719E+04
       394  22  7.712823E+05  6.784357E+02  4.513091E+03 -3.900795E+04 -3.560081E+03 -3.055519E+04
       394  23  7.710870E+05 -5.661807E+01  2.480977E+03 -3.007880E+04 -2.322582E+03 -2.839602E+04
       394  24  7.712988E+05 -9.285430E+01  1.445625E+03 -3.900769E+04 -1.083996E+03 -2.533497E+04
       394  25  1.301394E+06  1.285617E+05  1.144473E+05 -3.905781E+04 -1.633308E+03 -3.055226E+04
       394  26  1.247851E+06  1.148265E+05  1.006828E+05 -2.998597E+04  6.237262E+02 -2.839328E+04
       394  27  1.194894E+06  1.019663E+05  8.862130E+04 -3.877135E+04  2.881658E+03 -2.533275E+04
       395   1  3.868505E+05 -9.263673E+04 -7.779713E+04 -3.908287E+04  4.584964E+03  2.331750E+04
       395   2  4.396996E+05 -7.992274E+04 -6.746757E+04 -3.014919E+04  4.302123E+03  1.999458E+04
       395   3  4.926256E+05 -6.718393E+04 -5.694009E+04 -3.900747E+04  4.018096E+03  1.663065E+04
       395   4  7.712334E+05 -2.661741E+01  1.114226E+03 -3.899296E+04  8.585321E+02  2.331579E+04
       395   5  7.711974E+05 -4.018874E+01  6.682699E+02 -3.009726E+04  5.291160E+02  1.999346E+04
       395   6  7.712444E+05 -2.051963E+01  4.527010E+02 -3.899296E+04  1.985383E+02  1.663015E+04
       395   7  1.155756E+06  9.257422E+04  8.001774E+04 -3.890299E+04 -2.870165E+03  2.331407E+04
       395   8  1.102799E+06  7.983546E+04  6.879828E+04 -3.004531E+04 -3.245868E+03  1.999235E+04
       395   9  1.049937E+06  6.713800E+04  5.784137E+04 -3.897844E+04 -3.622702E+03  1.662965E+04
       395  10  3.868503E+05 -9.263732E+04 -7.779819E+04 -3.908295E+04 -5.994447E-11 -5.454784E-11
       395  11  4.396995E+05 -7.992318E+04 -6.746835E+04 -3.014926E+04 -1.419596E-10 -7.747424E-11
       395  12  4.926255E+05 -6.718423E+04 -5.694064E+04 -3.900753E+04 -5.980497E-11 -3.915444E-11
       395  13  7.712332E+05 -2.720158E+01  1.113202E+03 -3.899297E+04  1.629818E-10 -6.422821E-11
       395  14  7.711973E+05 -4.061822E+01  6.675179E+02 -3.009727E+04 -1.973158E-11 -7.552354E-11
       395  15  7.712443E+05 -2.081673E+01  4.521810E+02 -3.899296E+04 -1.212485E-12 -2.808812E-11
       395  16  1.155756E+06  9.257363E+04  8.001671E+04 -3.890294E+04  1.685173E-10 -1.290829E-10
       395  17  1.102799E+06  7.983503E+04  6.879751E+04 -3.004525E+04  4.117745E-11  3.142483E-11
       395  18  1.049937E+06  6.713770E+04  5.784083E+04 -3.897839E+04  2.241459E-11  4.287456E-12
       395  19  3.868505E+05 -9.263673E+04 -7.779713E+04 -3.908287E+04 -4.584964E+03 -2.331750E+04
       395  20  4.396996E+05 -7.992274E+04 -6.746757E+04 -3.014919E+04 -4.302123E+03 -1.999458E+04
       395  21  4.926256E+05 -6.718393E+04 -5.694009E+04 -3.900747E+04 -4.018096E+03 -1.663065E+04
       395  22  7.712334E+05 -2.661741E+01  1.114226E+03 -3.899296E+04 -8.585321E+02 -2.331579E+04
       395  23  7.711974E+05 -4.018874E+01  6.682699E+02 -3.009726E+04 -5.291160E+02 -1.999346E+04
       395  24  7.712444E+05 -2.051963E+01  4.527010E+02 -3.899296E+04 -1.985383E+02 -1.663015E+04
       395  25  1.155756E+06  9.257422E+04  8.001774E+04 -3.890299E+04  2.870165E+03 -2.331407E+04
       395  26  1.102799E+06  7.983546E+04  6.879828E+04 -3.004531E+04  3.245868E+03 -1.999235E+04
       395  27  1.049937E+06  6.713800E+04  5.784137E+04 -3.897844E+04  3.622702E+03 -1.662965E+04
       396   1  5.314426E+05 -5.776662E+04 -4.873897E+04 -3.898023E+04  3.924603E+03  1.466353E+04
       396   2  5.841056E+05 -4.509606E+04 -3.807119E+04 -3.009982E+04  3.736937E+03  1.129463E+04
       396   3  6.368045E+05 -3.241960E+04 -2.727822E+04 -3.894639E+04  3.548588E+03  7.926745E+03
       396   4  7.712374E+05 -1.496397E+01  3.976712E+02 -3.897858E+04  1.215159E+02  1.466332E+04
       396   5  7.712243E+05 -1.060710E+01  3.783965E+02 -3.011524E+04 -6.523824E+01  1.129477E+04
       396   6  7.712434E+05 -5.756786E-01  4.834654E+02 -3.897858E+04 -2.526591E+02  7.927234E+03
       396   7  1.011087E+06  5.773309E+04  4.953131E+04 -3.897692E+04 -3.683012E+03  1.466312E+04
       396   8  9.583762E+05  4.507265E+04  3.882616E+04 -3.013067E+04 -3.868538E+03  1.129490E+04
       396   9  9.056996E+05  3.241732E+04  2.824423E+04 -3.901077E+04 -4.054715E+03  7.927722E+03
       396  10  5.314425E+05 -5.776686E+04 -4.873940E+04 -3.898028E+04 -1.243032E-10  5.300237E-12
       396  11  5.841056E+05 -4.509620E+04 -3.807145E+04 -3.009985E+04 -1.323492E-11  1.991846E-12
       396  12  6.368045E+05 -3.241967E+04 -2.727836E+04 -3.894641E+04 -9.483285E-12 -1.635793E-11
       396  13  7.712373E+05 -1.519495E+01  3.972670E+02 -3.897858E+04  2.078914E-11 -3.752035E-11
       396  14  7.712243E+05 -1.074414E+01  3.781566E+02 -3.011524E+04 -5.749997E-12  1.092301E-10
       396  15  7.712434E+05 -6.432003E-01  4.833471E+02 -3.897857E+04  7.839071E-11  1.086456E-10
       396  16  1.011087E+06  5.773286E+04  4.953088E+04 -3.897688E+04  1.479566E-10 -8.648924E-12
       396  17  9.583762E+05  4.507251E+04  3.882589E+04 -3.013064E+04  6.396635E-11  5.914717E-11
       396  18  9.056995E+05  3.241725E+04  2.824408E+04 -3.901074E+04 -2.565161E-12  3.762970E-11
       396  19  5.314426E+05 -5.776662E+04 -4.873897E+04 -3.898023E+04 -3.924603E+03 -1.466353E+04
       396  20  5.841056E+05 -4.509606E+04 -3.807119E+04 -3.009982E+04 -3.736937E+03 -1.129463E+04
       396  21  6.368045E+05 -3.241960E+04 -2.727822E+04 -3.894639E+04 -3.548588E+03 -7.926745E+03
       396  22  7.712374E+05 -1.496397E+01  3.976712E+02 -3.897858E+04 -1.215159E+02 -1.466332E+04
       396  23  7.712243E+05 -1.060710E+01  3.783965E+02 -3.011524E+04  6.523824E+01 -1.129477E+04
       396  24  7.712434E+05 -5.756786E-01  4.834654E+02 -3.897858E+04  2.526591E+02 -7.927234E+03
       396  25  1.011087E+06  5.773309E+04  4.953131E+04 -3.897692E+04  3.683012E+03 -1.466312E+04
       396  26  9.583762E+05  4.507265E+04  3.882616E+04 -3.013067E+04  3.868538E+03 -1.129490E+04
       396  27  9.056996E+05  3.241732E+04  2.824423E+04 -3.901077E+04  4.054715E+03 -7.927722E+03
       397   1  6.755280E+05 -2.303397E+04 -1.894085E+04 -3.893887E+04  3.448621E+03  5.967580E+03
       397   2  7.280892E+05 -1.040278E+04 -7.917083E+03 -3.006832E+04  2.978933E+03  2.603688E+03
       397   3  7.807135E+05  2.244601E+03  3.414767E+03 -3.889196E+04  2.509054E+03 -7.579300E+02
       397   4  7.712515E+05  9.606882E-01  5.877271E+02 -3.897134E+04 -3.504053E+02  5.968198E+03
       397   5  7.712221E+05 -1.110155E+01  9.445648E+02 -3.012428E+04 -8.176984E+02  2.604380E+03
       397   6  7.712527E+05 -7.239900E+00  1.607870E+03 -3.897133E+04 -1.285145E+03 -7.571538E+02
       397   7  8.669837E+05  2.303533E+04  2.011587E+04 -3.900382E+04 -4.150006E+03  5.968816E+03
       397   8  8.143568E+05  1.038047E+04  9.806167E+03 -3.018024E+04 -4.614589E+03  2.605073E+03
       397   9  7.617920E+05 -2.259078E+03 -1.989768E+02 -3.905070E+04 -5.079287E+03 -7.563767E+02
       397  10  6.755280E+05 -2.303402E+04 -1.894094E+04 -3.893889E+04  3.506749E-12 -5.951670E-11
       397  11  7.280892E+05 -1.040279E+04 -7.917113E+03 -3.006833E+04  2.783719E-10 -2.058449E-10
       397  12  7.807135E+05  2.244599E+03  3.414754E+03 -3.889196E+04 -8.339072E-11  4.261082E-11
       397  13  7.712515E+05  9.223927E-01  5.876599E+02 -3.897134E+04 -4.703039E-11  1.638390E-10
       397  14  7.712221E+05 -1.110902E+01  9.445508E+02 -3.012428E+04  9.166907E-11 -8.740208E-11
       397  15  7.712527E+05 -7.240958E+00  1.607866E+03 -3.897133E+04 -6.973900E-11 -3.485644E-11
       397  16  8.669837E+05  2.303529E+04  2.011577E+04 -3.900380E+04 -9.956068E-11 -7.250162E-11
       397  17  8.143568E+05  1.038046E+04  9.806115E+03 -3.018023E+04 -1.985310E-10 -1.234392E-10
       397  18  7.617920E+05 -2.259086E+03 -1.990263E+02 -3.905070E+04  1.627065E-10 -1.056222E-10
       397  19  6.755280E+05 -2.303397E+04 -1.894085E+04 -3.893887E+04 -3.448621E+03 -5.967580E+03
       397  20  7.280892E+05 -1.040278E+04 -7.917083E+03 -3.006832E+04 -2.978933E+03 -2.603688E+03
       397  21  7.807135E+05  2.244601E+03  3.414767E+03 -3.889196E+04 -2.509054E+03  7.579300E+02
       397  22  7.712515E+05  9.606882E-01  5.877271E+02 -3.897134E+04  3.504053E+02 -5.968198E+03
       397  23  7.712221E+05 -1.110155E+01  9.445648E+02 -3.012428E+04  8.176984E+02 -2.604380E+03
       397  24  7.712527E+05 -7.239900E+00  1.607870E+03 -3.897133E+04  1.285145E+03  7.571538E+02
       397  25  8.669837E+05  2.303533E+04  2.011587E+04 -3.900382E+04  4.150006E+03 -5.968816E+03
       397  26  8.143568E+05  1.038047E+04  9.806167E+03 -3.018024E+04  4.614589E+03 -2.605073E+03
       397  27  7.617920E+05 -2.259078E+03 -1.989768E+02 -3.905070E+04  5.079287E+03  7.563767E+02
       398   1  8.194584E+05  1.160847E+04  1.214116E+04 -3.885835E+04  2.180754E+03 -2.716912E+03
       398   2  8.719332E+05  2.422182E+04  2.436175E+04 -2.996306E+04  3.402859E+02 -6.069652E+03
       398   3  9.246993E+05  3.704395E+04  3.783034E+04 -3.876853E+04 -1.499953E+03 -9.393055E+03
       398   4  7.713019E+05 -2.083841E+01  2.107746E+03 -3.897286E+04 -1.621871E+03 -2.716167E+03
       398   5  7.711579E+05 -5.710010E+01  3.648730E+03 -3.012236E+04 -3.429054E+03 -6.069103E+03
       398   6  7.712977E+05  1.100714E+02  6.415118E+03 -3.897280E+04 -5.235858E+03 -9.392690E+03
       398   7  7.231477E+05 -1.165029E+04 -7.925744E+03 -3.908736E+04 -5.424206E+03 -2.715420E+03
       398   8  6.703923E+05 -2.433665E+04 -1.706478E+04 -3.028163E+04 -7.197793E+03 -6.068552E+03
       398   9  6.179185E+05 -3.682527E+04 -2.500130E+04 -3.917701E+04 -8.970857E+03 -9.392324E+03
       398  10  8.194584E+05  1.160846E+04  1.214114E+04 -3.885834E+04  8.466872E-12  5.743841E-11
       398  11  8.719332E+05  2.422178E+04  2.436168E+04 -2.996305E+04  1.871121E-10  3.966046E-11
       398  12  9.246993E+05  3.704385E+04  3.783017E+04 -3.876854E+04  1.095935E-10 -2.030178E-12
       398  13  7.713019E+05 -2.084704E+01  2.107727E+03 -3.897286E+04 -1.199178E-10  5.246254E-11
       398  14  7.711579E+05 -5.714282E+01  3.648639E+03 -3.012237E+04  5.600707E-11  1.497834E-10
       398  15  7.712977E+05  1.099693E+02  6.414901E+03 -3.897284E+04  9.523368E-11 -3.315762E-11
       398  16  7.231476E+05 -1.165030E+04 -7.925813E+03 -3.908737E+04  5.782015E-11 -2.385519E-11
       398  17  6.703922E+05 -2.433670E+04 -1.706494E+04 -3.028166E+04  7.163013E-11  4.714268E-11
       398  18  6.179184E+05 -3.682539E+04 -2.500162E+04 -3.917708E+04 -1.768346E-10 -2.483146E-11
       398  19  8.194584E+05  1.160847E+04  1.214116E+04 -3.885835E+04 -2.180754E+03  2.716912E+03
       398  20  8.719332E+05  2.422182E+04  2.436175E+04 -2.996306E+04 -3.402859E+02  6.069652E+03
       398  21  9.246993E+05  3.704395E+04  3.783034E+04 -3.876853E+04  1.499953E+03  9.393055E+03
       398  22  7.713019E+05 -2.083841E+01  2.107746E+03 -3.897286E+04  1.621871E+03  2.716167E+03
       398  23  7.711579E+05 -5.710010E+01  3.648730E+03 -3.012236E+04  3.429054E+03  6.069103E+03
       398  24  7.712977E+05  1.100714E+02  6.415118E+03 -3.897280E+04  5.235858E+03  9.392690E+03
       398  25  7.231477E+05 -1.165029E+04 -7.925744E+03 -3.908736E+04  5.424206E+03  2.715420E+03
       398  26  6.703923E+05 -2.433665E+04 -1.706478E+04 -3.028163E+04  7.197793E+03  6.068552E+03
       398  27  6.179185E+05 -3.682527E+04 -2.500130E+04 -3.917701E+04  8.970857E+03  9.392324E+03
       399   1  9.638593E+05  4.607223E+04  4.805156E+04 -3.804001E+04 -2.654771E+03 -1.138294E+04
       399   2  1.015564E+06  5.909026E+04  6.514033E+04 -3.039405E+04 -1.065636E+04 -1.452921E+04
       399   3  1.069396E+06  7.638635E+04  8.850483E+04 -4.046289E+04 -1.865802E+04 -1.707615E+04
       399   4  7.716779E+05 -2.537276E+02  8.413318E+03 -3.897597E+04 -6.545858E+03 -1.138275E+04
       399   5  7.706681E+05  6.227136E+01  1.464918E+04 -3.011827E+04 -1.386807E+04 -1.452951E+04
       399   6  7.716653E+05  4.539677E+03  2.669128E+04 -3.897568E+04 -2.118969E+04 -1.707686E+04
       399   7  5.795315E+05 -4.658201E+04 -3.122686E+04 -3.991163E+04 -1.043576E+04 -1.138254E+04
       399   8  5.258286E+05 -5.896949E+04 -3.584517E+04 -2.984260E+04 -1.707854E+04 -1.452982E+04
       399   9  4.740181E+05 -6.731261E+04 -3.512709E+04 -3.748919E+04 -2.372016E+04 -1.707758E+04
       399  10  9.638592E+05  4.607209E+04  4.805130E+04 -3.804003E+04 -1.871175E-10  5.326410E-11
       399  11  1.015564E+06  5.909000E+04  6.513972E+04 -3.039417E+04 -3.093989E-11 -3.519546E-11
       399  12  1.069396E+06  7.638595E+04  8.850363E+04 -4.046314E+04 -1.094462E-10  8.863959E-11
       399  13  7.716778E+05 -2.538783E+02  8.412994E+03 -3.897603E+04 -5.490033E-11  1.019639E-10
       399  14  7.706678E+05  6.199302E+01  1.464842E+04 -3.011843E+04 -2.826454E-11 -2.738723E-11
       399  15  7.716647E+05  4.539243E+03  2.668989E+04 -3.897597E+04 -9.427190E-11  6.257308E-11
       399  16  5.795314E+05 -4.658217E+04 -3.122731E+04 -3.991173E+04  1.732508E-10 -4.491204E-11
       399  17  5.258282E+05 -5.896980E+04 -3.584612E+04 -2.984280E+04  1.296332E-11 -1.530506E-11
       399  18  4.740174E+05 -6.731308E+04 -3.512869E+04 -3.748952E+04  1.648465E-10  8.068334E-11
       399  19  9.638593E+05  4.607223E+04  4.805156E+04 -3.804001E+04  2.654771E+03  1.138294E+04
       399  20  1.015564E+06  5.909026E+04  6.514033E+04 -3.039405E+04  1.065636E+04  1.452921E+04
       399  21  1.069396E+06  7.638635E+04  8.850483E+04 -4.046289E+04  1.865802E+04  1.707615E+04
       399  22  7.716779E+05 -2.537276E+02  8.413318E+03 -3.897597E+04  6.545858E+03  1.138275E+04
       399  23  7.706681E+05  6.227136E+01  1.464918E+04 -3.011827E+04  1.386807E+04  1.452951E+04
       399  24  7.716653E+05  4.539677E+03  2.669128E+04 -3.897568E+04  2.118969E+04  1.707686E+04
       399  25  5.795315E+05 -4.658201E+04 -3.122686E+04 -3.991163E+04  1.043576E+04  1.138254E+04
       399  26  5.258286E+05 -5.896949E+04 -3.584517E+04 -2.984260E+04  1.707854E+04  1.452982E+04
       399  27  4.740181E+05 -6.731261E+04 -3.512709E+04 -3.748919E+04  2.372016E+04  1.707758E+04
       400   1  1.114172E+06  7.756643E+04  1.038081E+05 -2.491732E+04 -2.035722E+04 -1.961891E+04
       400   2  1.152768E+06  1.018582E+05  1.429873E+05 -5.237477E+04 -6.487364E+04 -1.863264E+04
       400   3  1.220419E+06  2.190877E+05  2.343568E+05 -9.706572E+04 -1.093987E+05 -5.924168E+03
       400   4  7.771694E+05 -3.715389E+03  3.405559E+04 -3.886266E+04 -2.584895E+04 -1.961963E+04
       400   5  7.637566E+05  7.456394E+03  5.952100E+04 -3.025847E+04 -5.711205E+04 -1.863446E+04
       400   6  7.771152E+05  1.092950E+05  1.280009E+05 -3.888413E+04 -8.837905E+04 -5.928943E+03
       400   7  4.402747E+05 -8.500365E+04 -3.570287E+04 -5.280032E+04 -3.133776E+04 -1.962010E+04
       400   8  3.748886E+05 -8.695341E+04 -2.395363E+04 -8.156203E+03 -4.935524E+04 -1.863573E+04
       400   9  3.339994E+05 -4.988841E+02  2.163452E+04  1.925582E+04 -6.737427E+04 -5.929789E+03
       400  10  1.114172E+06  7.756591E+04  1.038066E+05 -2.491764E+04  2.530107E-12 -6.013626E-11
       400  11  1.152763E+06  1.018567E+05  1.429787E+05 -5.237575E+04 -6.026571E-10 -2.892059E-10
       400  12  1.220406E+06  2.190844E+05  2.343343E+05 -9.706624E+04 -1.751288E-10 -1.203640E-10
       400  13  7.771686E+05 -3.715981E+03  3.405362E+04 -3.886307E+04  1.295136E-10  9.733142E-11
       400  14  7.637530E+05  7.455146E+03  5.951423E+04 -3.025933E+04  2.325647E-10  2.052819E-10
       400  15  7.771068E+05  1.092929E+05  1.279862E+05 -3.888455E+04 -2.360798E-11 -4.437104E-11
       400  16  4.402735E+05 -8.500433E+04 -3.570543E+04 -5.280081E+04  2.352045E-10  6.653155E-11
       400  17  3.748859E+05 -8.695443E+04 -2.395886E+04 -8.156944E+03  3.106248E-10  1.950278E-10
       400  18  3.339945E+05 -5.001397E+02  2.162593E+04  1.925550E+04  1.023326E-10 -1.526597E-11
       400  19  1.114172E+06  7.756643E+04  1.038081E+05 -2.491732E+04  2.035722E+04  1.961891E+04
       400  20  1.152768E+06  1.018582E+05  1.429873E+05 -5.237477E+04  6.487364E+04  1.863264E+04
       400  21  1.220419E+06  2.190877E+05  2.343568E+05 -9.706572E+04  1.093987E+05  5.924168E+03
       400  22  7.771694E+05 -3.715389E+03  3.405559E+04 -3.886266E+04  2.584895E+04  1.961963E+04
       400  23  7.637566E+05  7.456394E+03  5.952100E+04 -3.025847E+04  5.711205E+04  1.863446E+04
       400  24  7.771152E+05  1.092950E+05  1.280009E+05 -3.888413E+04  8.837905E+04  5.928943E+03
       400  25  4.402747E+05 -8.500365E+04 -3.570287E+04 -5.280032E+04  3.133776E+04  1.962010E+04
       400  26  3.748886E+05 -8.695341E+04 -2.395363E+04 -8.156203E+03  4.935524E+04  1.863573E+04
       400  27  3.339994E+05 -4.988841E+02  2.163452E+04  1.925582E+04  6.737427E+04  5.929789E+03
       401   1 -2.657511E+05 -1.061942E+05 -1.026470E+05 -2.942801E+04 -2.062070E+04  5.871634E+03
       401   2 -2.243942E+05 -9.431085E+04 -8.304955E+04 -2.306178E+04 -8.010126E+03  1.879271E+04
       401   3 -1.851038E+05 -8.429337E+04 -7.212417E+04 -2.962629E+04  4.605188E+03  2.043024E+04
       401   4  1.638920E+05  3.614590E+02  4.550325E+02 -2.954956E+04  3.079141E+02  5.877442E+03
       401   5  1.638257E+05 -1.134382E+01  2.082191E+02 -2.308431E+04  1.961653E+02  1.879340E+04
       401   6  1.639015E+05 -4.032535E+01  1.262453E+02 -2.954948E+04  8.844814E+01  2.042899E+04
       401   7  5.937052E+05  1.069040E+05  1.035456E+05 -2.967121E+04  2.125096E+04  5.883240E+03
       401   8  5.521875E+05  9.427833E+04  8.345746E+04 -2.310685E+04  8.407517E+03  1.879408E+04
       401   9  5.130224E+05  8.420501E+04  7.237012E+04 -2.947263E+04 -4.430788E+03  2.042774E+04
       401  10 -2.657516E+05 -1.061944E+05 -1.026478E+05 -2.942791E+04  5.300322E-11  1.041572E-10
       401  11 -2.243944E+05 -9.431125E+04 -8.305034E+04 -2.306166E+04  5.815608E-11  2.393340E-11
       401  12 -1.851039E+05 -8.429383E+04 -7.212499E+04 -2.962637E+04  1.263941E-10 -7.607889E-11
       401  13  1.638920E+05  3.614219E+02  4.549674E+02 -2.954957E+04  2.530699E-10 -7.427698E-11
       401  14  1.638256E+05 -1.172313E+01  2.075552E+02 -2.308431E+04  7.101874E-11  2.410254E-11
       401  15  1.639014E+05 -4.077354E+01  1.254610E+02 -2.954948E+04  8.432859E-11 -3.012308E-11
       401  16  5.937047E+05  1.069038E+05  1.035447E+05 -2.967131E+04 -1.886985E-10 -1.148630E-10
       401  17  5.521874E+05  9.427793E+04  8.345666E+04 -2.310697E+04 -1.583859E-10 -3.451928E-11
       401  18  5.130222E+05  8.420456E+04  7.236930E+04 -2.947255E+04  1.541515E-10  7.036469E-11
       401  19 -2.657511E+05 -1.061942E+05 -1.026470E+05 -2.942801E+04  2.062070E+04 -5.871634E+03
       401  20 -2.243942E+05 -9.431085E+04 -8.304955E+04 -2.306178E+04  8.010126E+03 -1.879271E+04
       401  21 -1.851038E+05 -8.429337E+04 -7.212417E+04 -2.962629E+04 -4.605188E+03 -2.043024E+04
       401  22  1.638920E+05  3.614590E+02  4.550325E+02 -2.954956E+04 -3.079141E+02 -5.877442E+03
       401  23  1.638257E+05 -1.134382E+01  2.082191E+02 -2.308431E+04 -1.961653E+02 -1.879340E+04
       401  24  1.639015E+05 -4.032535E+01  1.262453E+02 -2.954948E+04 -8.844814E+01 -2.042899E+04
       401  25  5.937052E+05  1.069040E+05  1.035456E+05 -2.967121E+04 -2.125096E+04 -5.883240E+03
       401  26  5.521875E+05  9.427833E+04  8.345746E+04 -2.310685E+04 -8.407517E+03 -1.879408E+04
       401  27  5.130224E+05  8.420501E+04  7.237012E+04 -2.947263E+04  4.430788E+03 -2.042774E+04
       402   1 -1.551979E+05 -7.707659E+04 -6.617183E+04 -2.967960E+04  1.744788E+03  1.837951E+04
       402   2 -1.149901E+05 -6.728962E+04 -5.745761E+04 -2.292269E+04  2.368481E+03  1.660522E+04
       402   3 -7.486686E+04 -5.759745E+04 -4.916868E+04 -2.965629E+04  2.991564E+03  1.425119E+04
       402   4  1.638801E+05 -5.868257E+00  1.009215E+02 -2.967388E+04  7.075582E+01  1.837874E+04
       402   5  1.638701E+05 -1.455379E+01  6.179037E+01 -2.292881E+04  4.057314E+01  1.660474E+04
       402   6  1.638870E+05 -4.553110E+00  5.138650E+01 -2.967388E+04  9.731028E+00  1.425113E+04
       402   7  4.830545E+05  7.705838E+04  6.636811E+04 -2.966815E+04 -1.604122E+03  1.837796E+04
       402   8  4.428042E+05  6.725560E+04  5.757702E+04 -2.293493E+04 -2.288362E+03  1.660426E+04
       402   9  4.026950E+05  5.758475E+04  4.926842E+04 -2.969147E+04 -2.973228E+03  1.425108E+04
       402  10 -1.551980E+05 -7.707695E+04 -6.617247E+04 -2.967963E+04 -8.285331E-11 -3.720657E-11
       402  11 -1.149902E+05 -6.728992E+04 -5.745814E+04 -2.292272E+04  1.568701E-10  2.139690E-11
       402  12 -7.486692E+04 -5.759767E+04 -4.916908E+04 -2.965632E+04 -1.521269E-12 -6.483039E-11
       402  13  1.638800E+05 -6.231000E+00  1.002867E+02 -2.967388E+04  1.348258E-10 -9.058991E-11
       402  14  1.638701E+05 -1.484989E+01  6.127220E+01 -2.292881E+04  3.949194E-10 -6.690476E-11
       402  15  1.638870E+05 -4.771215E+00  5.100481E+01 -2.967388E+04  3.266911E-10 -1.350096E-13
       402  16  4.830544E+05  7.705802E+04  6.636748E+04 -2.966813E+04  3.439449E-10  6.078210E-11
       402  17  4.428041E+05  6.725530E+04  5.757650E+04 -2.293490E+04  1.734551E-10  1.992317E-11
       402  18  4.026949E+05  5.758452E+04  4.926802E+04 -2.969144E+04  1.908390E-10 -1.646967E-11
       402  19 -1.551979E+05 -7.707659E+04 -6.617183E+04 -2.967960E+04 -1.744788E+03 -1.837951E+04
       402  20 -1.149901E+05 -6.728962E+04 -5.745761E+04 -2.292269E+04 -2.368481E+03 -1.660522E+04
       402  21 -7.486686E+04 -5.759745E+04 -4.916868E+04 -2.965629E+04 -2.991564E+03 -1.425119E+04
       402  22  1.638801E+05 -5.868257E+00  1.009215E+02 -2.967388E+04 -7.075582E+01 -1.837874E+04
       402  23  1.638701E+05 -1.455379E+01  6.179037E+01 -2.292881E+04 -4.057314E+01 -1.660474E+04
       402  24  1.638870E+05 -4.553110E+00  5.138650E+01 -2.967388E+04 -9.731028E+00 -1.425113E+04
       402  25  4.830545E+05  7.705838E+04  6.636811E+04 -2.966815E+04  1.604122E+03 -1.837796E+04
       402  26  4.428042E+05  6.725560E+04  5.757702E+04 -2.293493E+04  2.288362E+03 -1.660426E+04
       402  27  4.026950E+05  5.758475E+04  4.926842E+04 -2.969147E+04  2.973228E+03 -1.425108E+04
       403   1 -4.530845E+04 -5.042714E+04 -4.289832E+04 -2.965493E+04  2.835260E+03  1.272723E+04
       403   2 -5.184880E+03 -4.076451E+04 -3.471295E+04 -2.289982E+04  2.838493E+03  1.019937E+04
       403   3  3.494146E+04 -3.110178E+04 -2.652933E+04 -2.964976E+04  2.841268E+03  7.642261E+03
       403   4  1.638854E+05 -1.069168E+00  5.021017E+01 -2.967715E+04  5.081981E-01  1.272734E+04
       403   5  1.638840E+05  1.137788E+00  6.021157E+01 -2.292473E+04 -2.933920E+01  1.019972E+04
       403   6  1.638896E+05  9.282527E+00  9.145869E+01 -2.967714E+04 -5.964526E+01  7.642864E+03
       403   7  3.731208E+05  5.042225E+04  4.299643E+04 -2.969937E+04 -2.835182E+03  1.272746E+04
       403   8  3.329801E+05  4.076499E+04  3.483187E+04 -2.294964E+04 -2.897939E+03  1.020008E+04
       403   9  2.928536E+05  3.111930E+04  2.671138E+04 -2.970453E+04 -2.961151E+03  7.643468E+03
       403  10 -4.530850E+04 -5.042731E+04 -4.289864E+04 -2.965496E+04 -1.214226E-10 -1.051801E-10
       403  11 -5.184916E+03 -4.076463E+04 -3.471316E+04 -2.289984E+04  2.974495E-10 -8.076896E-11
       403  12  3.494143E+04 -3.110184E+04 -2.652945E+04 -2.964978E+04  3.744067E-11 -1.297803E-10
       403  13  1.638854E+05 -1.243126E+00  4.990575E+01 -2.967715E+04  2.050084E-10  2.440250E-11
       403  14  1.638840E+05  1.026064E+00  6.001605E+01 -2.292473E+04  2.499319E-10 -1.713317E-10
       403  15  1.638896E+05  9.219795E+00  9.134891E+01 -2.967714E+04  2.045510E-10  1.483978E-10
       403  16  3.731208E+05  5.042207E+04  4.299611E+04 -2.969934E+04  1.581349E-10 -1.649916E-11
       403  17  3.329801E+05  4.076488E+04  3.483166E+04 -2.294962E+04 -9.128784E-12 -1.301157E-10
       403  18  2.928535E+05  3.111923E+04  2.671125E+04 -2.970451E+04 -6.565877E-11 -1.666185E-10
       403  19 -4.530845E+04 -5.042714E+04 -4.289832E+04 -2.965493E+04 -2.835260E+03 -1.272723E+04
       403  20 -5.184880E+03 -4.076451E+04 -3.471295E+04 -2.289982E+04 -2.838493E+03 -1.019937E+04
       403  21  3.494146E+04 -3.110178E+04 -2.652933E+04 -2.964976E+04 -2.841268E+03 -7.642261E+03
       403  22  1.638854E+05 -1.069168E+00  5.021017E+01 -2.967715E+04 -5.081981E-01 -1.272734E+04
       403  23  1.638840E+05  1.137788E+00  6.021157E+01 -2.292473E+04  2.933920E+01 -1.019972E+04
       403  24  1.638896E+05  9.282527E+00  9.145869E+01 -2.967714E+04  5.964526E+01 -7.642864E+03
       403  25  3.731208E+05  5.042225E+04  4.299643E+04 -2.969937E+04  2.835182E+03 -1.272746E+04
       403  26  3.329801E+05  4.076499E+04  3.483187E+04 -2.294964E+04  2.897939E+03 -1.020008E+04
       403  27  2.928536E+05  3.111930E+04  2.671138E+04 -2.970453E+04  2.961151E+03 -7.643468E+03
       404   1  6.446696E+04 -2.393954E+04 -2.022268E+04 -2.965258E+04  2.814147E+03  6.146466E+03
       404   2  1.045706E+05 -1.429427E+04 -1.200177E+04 -2.290334E+04  2.718846E+03  3.581375E+03
       404   3  1.446823E+05 -4.642332E+03 -3.719123E+03 -2.965336E+04  2.623379E+03  1.015035E+03
       404   4  1.638912E+05  1.055355E+01  1.158967E+02 -2.967589E+04 -7.889097E+01  6.147166E+03
       404   5  1.638882E+05  6.811266E+00  1.947857E+02 -2.292630E+04 -1.756711E+02  3.582156E+03
       404   6  1.638926E+05  1.022726E+01  3.366156E+02 -2.967589E+04 -2.726104E+02  1.015903E+03
       404   7  2.633248E+05  2.396003E+04  2.045398E+04 -2.969920E+04 -2.972383E+03  6.147866E+03
       404   8  2.232091E+05  1.430767E+04  1.239118E+04 -2.294926E+04 -3.070459E+03  3.582937E+03
       404   9  1.831033E+05  4.662767E+03  4.392365E+03 -2.969842E+04 -3.168688E+03  1.016772E+03
       404  10  6.446694E+04 -2.393958E+04 -2.022277E+04 -2.965259E+04 -4.428867E-10 -1.610571E-10
       404  11  1.045706E+05 -1.429428E+04 -1.200180E+04 -2.290334E+04  2.561315E-10  9.599288E-11
       404  12  1.446823E+05 -4.642335E+03 -3.719138E+03 -2.965336E+04  1.676811E-10 -4.174598E-11
       404  13  1.638912E+05  1.051297E+01  1.158257E+02 -2.967589E+04 -7.896384E-11 -2.194187E-10
       404  14  1.638882E+05  6.797477E+00  1.947615E+02 -2.292630E+04 -3.409706E-11  1.321370E-10
       404  15  1.638926E+05  1.022613E+01  3.366136E+02 -2.967589E+04  2.552463E-10 -8.281264E-11
       404  16  2.633247E+05  2.395999E+04  2.045389E+04 -2.969919E+04  3.096084E-10 -8.504840E-12
       404  17  2.232091E+05  1.430766E+04  1.239114E+04 -2.294925E+04  3.039755E-10  6.845094E-11
       404  18  1.831033E+05  4.662763E+03  4.392344E+03 -2.969841E+04 -1.577546E-10 -1.419792E-10
       404  19  6.446696E+04 -2.393954E+04 -2.022268E+04 -2.965258E+04 -2.814147E+03 -6.146466E+03
       404  20  1.045706E+05 -1.429427E+04 -1.200177E+04 -2.290334E+04 -2.718846E+03 -3.581375E+03
       404  21  1.446823E+05 -4.642332E+03 -3.719123E+03 -2.965336E+04 -2.623379E+03 -1.015035E+03
       404  22  1.638912E+05  1.055355E+01  1.158967E+02 -2.967589E+04  7.889097E+01 -6.147166E+03
       404  23  1.638882E+05  6.811266E+00  1.947857E+02 -2.292630E+04  1.756711E+02 -3.582156E+03
       404  24  1.638926E+05  1.022726E+01  3.366156E+02 -2.967589E+04  2.726104E+02 -1.015903E+03
       404  25  2.633248E+05  2.396003E+04  2.045398E+04 -2.969920E+04  2.972383E+03 -6.147866E+03
       404  26  2.232091E+05  1.430767E+04  1.239118E+04 -2.294926E+04  3.070459E+03 -3.582937E+03
       404  27  1.831033E+05  4.662767E+03  4.392365E+03 -2.969842E+04  3.168688E+03 -1.016772E+03
       405   1  1.742105E+05  2.516996E+03  2.668667E+03 -2.965706E+04  2.552086E+03 -4.789601E+02
       405   2  2.142959E+05  1.214968E+04  1.113504E+04 -2.289124E+04  2.170064E+03 -3.045040E+03
       405   3  2.544299E+05  2.179881E+04  1.985227E+04 -2.962434E+04  1.788149E+03 -5.609860E+03
       405   4  1.639013E+05  1.043529E+01  4.430219E+02 -2.967584E+04 -3.439415E+02 -4.780881E+02
       405   5  1.638775E+05 -5.024403E+00  7.689111E+02 -2.292635E+04 -7.246204E+02 -3.044242E+03
       405   6  1.639000E+05 -4.332042E+00  1.344604E+03 -2.967584E+04 -1.105169E+03 -5.609132E+03
       405   7  1.535922E+05 -2.496128E+03 -1.782598E+03 -2.969463E+04 -3.239921E+03 -4.772158E+02
       405   8  1.134616E+05 -1.215989E+04 -9.597323E+03 -2.296145E+04 -3.619074E+03 -3.043444E+03
       405   9  7.337792E+04 -2.180799E+04 -1.716346E+04 -2.972733E+04 -3.998072E+03 -5.608403E+03
       405  10  1.742105E+05  2.516994E+03  2.668655E+03 -2.965706E+04 -5.576931E-11 -1.833866E-11
       405  11  2.142959E+05  1.214967E+04  1.113501E+04 -2.289124E+04  4.535855E-10  1.338390E-10
       405  12  2.544299E+05  2.179878E+04  1.985220E+04 -2.962434E+04 -1.901666E-10 -3.374719E-10
       405  13  1.639013E+05  1.043501E+01  4.430213E+02 -2.967584E+04  1.430116E-10 -1.065457E-10
       405  14  1.638775E+05 -5.034497E+00  7.688927E+02 -2.292635E+04  4.587866E-10  1.304240E-10
       405  15  1.639000E+05 -4.366158E+00  1.344542E+03 -2.967585E+04 -1.686584E-10 -6.266016E-11
       405  16  1.535922E+05 -2.496131E+03 -1.782619E+03 -2.969463E+04  3.140472E-11 -1.432435E-10
       405  17  1.134615E+05 -1.215990E+04 -9.597365E+03 -2.296146E+04 -1.311712E-10  2.309057E-10
       405  18  7.337790E+04 -2.180802E+04 -1.716355E+04 -2.972735E+04  1.313399E-10 -1.540417E-10
       405  19  1.742105E+05  2.516996E+03  2.668667E+03 -2.965706E+04 -2.552086E+03  4.789601E+02
       405  20  2.142959E+05  1.214968E+04  1.113504E+04 -2.289124E+04 -2.170064E+03  3.045040E+03
       405  21  2.544299E+05  2.179881E+04  1.985227E+04 -2.962434E+04 -1.788149E+03  5.609860E+03
       405  22  1.639013E+05  1.043529E+01  4.430219E+02 -2.967584E+04  3.439415E+02  4.780881E+02
       405  23  1.638775E+05 -5.024403E+00  7.689111E+02 -2.292635E+04  7.246204E+02  3.044242E+03
       405  24  1.639000E+05 -4.332042E+00  1.344604E+03 -2.967584E+04  1.105169E+03  5.609132E+03
       405  25  1.535922E+05 -2.496128E+03 -1.782598E+03 -2.969463E+04  3.239921E+03  4.772158E+02
       405  26  1.134616E+05 -1.215989E+04 -9.597323E+03 -2.296145E+04  3.619074E+03  3.043444E+03
       405  27  7.337792E+04 -2.180799E+04 -1.716346E+04 -2.972733E+04  3.998072E+03  5.608403E+03
       406   1  2.840013E+05  2.894689E+04  2.656242E+04 -2.959543E+04  1.513534E+03 -7.105318E+03
       406   2  3.240071E+05  3.856654E+04  3.602587E+04 -2.280319E+04 -4.703629E+01 -9.661720E+03
       406   3  3.642631E+05  4.836649E+04  4.654979E+04 -2.951483E+04 -1.607273E+03 -1.218948E+04
       406   4  1.639424E+05 -1.651712E+01  1.773139E+03 -2.967698E+04 -1.387560E+03 -7.104678E+03
       406   5  1.638188E+05 -5.014721E+01  3.085478E+03 -2.292491E+04 -2.915532E+03 -9.661316E+03
       406   6  1.639383E+05  9.102408E+01  5.435912E+03 -2.967693E+04 -4.443073E+03 -1.218930E+04
       406   7  4.389727E+04 -2.898083E+04 -2.301689E+04 -2.975852E+04 -4.288103E+03 -7.104038E+03
       406   8  3.654851E+03 -3.866844E+04 -2.985626E+04 -2.304660E+04 -5.783302E+03 -9.660910E+03
       406   9 -3.634842E+04 -4.818696E+04 -3.568007E+04 -2.983898E+04 -7.277976E+03 -1.218912E+04
       406  10  2.840013E+05  2.894683E+04  2.656232E+04 -2.959542E+04 -2.818432E-10 -9.100897E-11
       406  11  3.240071E+05  3.856644E+04  3.602570E+04 -2.280319E+04 -1.648155E-10 -2.352341E-10
       406  12  3.642631E+05  4.836632E+04  4.654950E+04 -2.951485E+04 -3.152998E-10 -6.528377E-11
       406  13  1.639424E+05 -1.657184E+01  1.773040E+03 -2.967699E+04 -2.730220E-10 -1.961328E-11
       406  14  1.638188E+05 -5.024973E+01  3.085287E+03 -2.292493E+04 -3.306052E-10 -2.200045E-10
       406  15  1.639382E+05  9.085922E+01  5.435596E+03 -2.967698E+04 -1.781299E-10 -9.679802E-11
       406  16  4.389723E+04 -2.898089E+04 -2.301702E+04 -2.975855E+04  1.662642E-10  1.500944E-10
       406  17  3.654790E+03 -3.866855E+04 -2.985650E+04 -2.304664E+04  6.870357E-11  1.492822E-11
       406  18 -3.634852E+04 -4.818713E+04 -3.568045E+04 -2.983905E+04  2.493046E-10  1.319779E-10
       406  19  2.840013E+05  2.894689E+04  2.656242E+04 -2.959543E+04 -1.513534E+03  7.105318E+03
       406  20  3.240071E+05  3.856654E+04  3.602587E+04 -2.280319E+04  4.703629E+01  9.661720E+03
       406  21  3.642631E+05  4.836649E+04  4.654979E+04 -2.951483E+04  1.607273E+03  1.218948E+04
       406  22  1.639424E+05 -1.651712E+01  1.773139E+03 -2.967698E+04  1.387560E+03  7.104678E+03
       406  23  1.638188E+05 -5.014721E+01  3.085478E+03 -2.292491E+04  2.915532E+03  9.661316E+03
       406  24  1.639383E+05  9.102408E+01  5.435912E+03 -2.967693E+04  4.443073E+03  1.218930E+04
       406  25  4.389727E+04 -2.898083E+04 -2.301689E+04 -2.975852E+04  4.288103E+03  7.104038E+03
       406  26  3.654851E+03 -3.866844E+04 -2.985626E+04 -2.304660E+04  5.783302E+03  9.660910E+03
       406  27 -3.634842E+04 -4.818696E+04 -3.568007E+04 -2.983898E+04  7.277976E+03  1.218912E+04
       407   1  3.941556E+05  5.522261E+04  5.451657E+04 -2.888859E+04 -2.572871E+03 -1.371230E+04
       407   2  4.334201E+05  6.516956E+04  6.810257E+04 -2.316778E+04 -9.424153E+03 -1.606933E+04
       407   3  4.745043E+05  7.876162E+04  8.706163E+04 -3.093624E+04 -1.627517E+04 -1.785909E+04
       407   4  1.642612E+05 -2.180900E+02  7.132089E+03 -2.967376E+04 -5.552589E+03 -1.371228E+04
       407   5  1.634033E+05  4.901389E+01  1.242363E+04 -2.292882E+04 -1.176121E+04 -1.606975E+04
       407   6  1.642538E+05  3.851022E+03  2.264403E+04 -2.967346E+04 -1.796914E+04 -1.785982E+04
       407   7 -6.558302E+04 -5.566212E+04 -4.025520E+04 -3.045863E+04 -8.531224E+03 -1.371226E+04
       407   8 -1.065444E+05 -6.507613E+04 -4.325921E+04 -2.268996E+04 -1.409727E+04 -1.607016E+04
       407   9 -1.459056E+05 -7.106568E+04 -4.177882E+04 -2.841132E+04 -1.966227E+04 -1.786057E+04
       407  10  3.941556E+05  5.522241E+04  5.451620E+04 -2.888862E+04 -6.986795E-11  1.397782E-11
       407  11  4.334199E+05  6.516926E+04  6.810192E+04 -2.316790E+04  4.491707E-11 -1.340462E-11
       407  12  4.745040E+05  7.876120E+04  8.706053E+04 -3.093647E+04 -3.738824E-11 -1.929850E-12
       407  13  1.642612E+05 -2.183002E+02  7.131678E+03 -2.967382E+04 -1.764282E-10  4.974983E-11
       407  14  1.634031E+05  4.869944E+01  1.242289E+04 -2.292897E+04 -2.546782E-10  4.471620E-11
       407  15  1.642534E+05  3.850592E+03  2.264283E+04 -2.967371E+04 -6.402722E-11  3.619366E-11
       407  16 -6.558315E+04 -5.566234E+04 -4.025569E+04 -3.045872E+04 -3.133335E-11  4.048553E-11
       407  17 -1.065447E+05 -6.507646E+04 -4.326007E+04 -2.269014E+04 -9.848991E-11 -2.096267E-11
       407  18 -1.459061E+05 -7.106613E+04 -4.178014E+04 -2.841160E+04 -8.436580E-11  3.407839E-11
       407  19  3.941556E+05  5.522261E+04  5.451657E+04 -2.888859E+04  2.572871E+03  1.371230E+04
       407  20  4.334201E+05  6.516956E+04  6.810257E+04 -2.316778E+04  9.424153E+03  1.606933E+04
       407  21  4.745043E+05  7.876162E+04  8.706163E+04 -3.093624E+04  1.627517E+04  1.785909E+04
       407  22  1.642612E+05 -2.180900E+02  7.132089E+03 -2.967376E+04  5.552589E+03  1.371228E+04
       407  23  1.634033E+05  4.901389E+01  1.242363E+04 -2.292882E+04  1.176121E+04  1.606975E+04
       407  24  1.642538E+05  3.851022E+03  2.264403E+04 -2.967346E+04  1.796914E+04  1.785982E+04
       407  25 -6.558302E+04 -5.566212E+04 -4.025520E+04 -3.045863E+04  8.531224E+03  1.371226E+04
       407  26 -1.065444E+05 -6.507613E+04 -4.325921E+04 -2.268996E+04  1.409727E+04  1.607016E+04
       407  27 -1.459056E+05 -7.106568E+04 -4.177882E+04 -2.841132E+04  1.966227E+04  1.786057E+04
       408   1  5.091034E+05  7.893407E+04  9.929190E+04 -1.771887E+04 -1.744196E+04 -1.989809E+04
       408   2  5.369958E+05  9.843969E+04  1.318520E+05 -4.183314E+04 -5.644323E+04 -1.835292E+04
       408   3  5.897752E+05  1.970518E+05  2.095761E+05 -7.891038E+04 -9.545202E+04 -5.761138E+03
       408   4  1.689230E+05 -3.157493E+03  2.889307E+04 -2.955181E+04 -2.191991E+04 -1.989887E+04
       408   5  1.575486E+05  6.318697E+03  5.050385E+04 -2.308022E+04 -4.844171E+04 -1.835412E+04
       408   6  1.689068E+05  9.275860E+04  1.086299E+05 -2.956875E+04 -7.496749E+04 -5.763541E+03
       408   7 -1.711475E+05 -8.525585E+04 -4.151188E+04 -4.137815E+04 -2.639544E+04 -1.989949E+04
       408   8 -2.217623E+05 -8.581036E+04 -3.085227E+04 -4.338933E+03 -4.044500E+04 -1.835483E+04
       408   9 -2.517933E+05 -1.153811E+04  7.673994E+03  1.973932E+04 -5.449676E+04 -5.762694E+03
       408  10  5.091030E+05  7.893356E+04  9.929058E+04 -1.771915E+04 -3.390382E-11  8.866678E-12
       408  11  5.369923E+05  9.843847E+04  1.318454E+05 -4.183397E+04 -1.840216E-10 -2.584042E-11
       408  12  5.897654E+05  1.970494E+05  2.095589E+05 -7.891083E+04  1.059694E-10 -6.864853E-11
       408  13  1.689224E+05 -3.158047E+03  2.889143E+04 -2.955216E+04 -2.577281E-11  1.165575E-10
       408  14  1.575460E+05  6.317706E+03  5.049881E+04 -2.308094E+04 -1.142224E-10  3.241762E-10
       408  15  1.689008E+05  9.275706E+04  1.086193E+05 -2.956910E+04 -5.724327E-11 -4.683025E-11
       408  16 -1.711483E+05 -8.525646E+04 -4.151394E+04 -4.137857E+04  7.352965E-11  1.042666E-10
       408  17 -2.217641E+05 -8.581116E+04 -3.085597E+04 -4.339530E+03  2.573852E-12  9.683226E-11
       408  18 -2.517965E+05 -1.153895E+04  7.668349E+03  1.973906E+04  4.251810E-11 -1.127020E-10
       408  19  5.091034E+05  7.893407E+04  9.929190E+04 -1.771887E+04  1.744196E+04  1.989809E+04
       408  20  5.369958E+05  9.843969E+04  1.318520E+05 -4.183314E+04  5.644323E+04  1.835292E+04
       408  21  5.897752E+05  1.970518E+05  2.095761E+05 -7.891038E+04  9.545202E+04  5.761138E+03
       408  22  1.689230E+05 -3.157493E+03  2.889307E+04 -2.955181E+04  2.191991E+04  1.989887E+04
       408  23  1.575486E+05  6.318697E+03  5.050385E+04 -2.308022E+04  4.844171E+04  1.835412E+04
       408  24  1.689068E+05  9.275860E+04  1.086299E+05 -2.956875E+04  7.496749E+04  5.763541E+03
       408  25 -1.711475E+05 -8.525585E+04 -4.151188E+04 -4.137815E+04  2.639544E+04  1.989949E+04
       408  26 -2.217623E+05 -8.581036E+04 -3.085227E+04 -4.338933E+03  4.044500E+04  1.835483E+04
       408  27 -2.517933E+05 -1.153811E+04  7.673994E+03  1.973932E+04  5.449676E+04  5.762694E+03
       409   1 -1.615928E+06 -2.725545E+05 -2.848710E+05 -1.132155E+05 -1.161796E+05  9.085339E+03
       409   2 -1.522852E+06 -1.526430E+05 -1.851674E+05 -6.619083E+04 -6.622130E+04  2.875438E+04
       409   3 -1.458661E+06 -1.225031E+05 -1.404749E+05 -4.460332E+04 -1.624983E+04  3.042329E+04
       409   4 -9.376645E+05 -1.040462E+05 -1.217342E+05 -5.784963E+04 -8.396189E+04  9.080754E+03
       409   5 -9.249540E+05 -7.179652E+03 -5.659765E+04 -4.513263E+04 -5.424093E+04  2.875062E+04
       409   6 -9.375877E+05  3.478872E+03 -3.236555E+04 -5.785700E+04 -2.451461E+04  3.042267E+04
       409   7 -2.589703E+05  6.444057E+04  4.137534E+04 -2.422865E+03 -5.170904E+04  9.081935E+03
       409   8 -3.267183E+05  1.382619E+05  7.195196E+04 -2.405382E+04 -4.224915E+04  2.874769E+04
       409   9 -4.162558E+05  1.294442E+05  7.572931E+04 -7.112200E+04 -3.278622E+04  3.042241E+04
       409  10 -1.615942E+06 -2.725582E+05 -2.848966E+05 -1.132147E+05  2.645503E-10  5.975609E-11
       409  11 -1.522857E+06 -1.526451E+05 -1.851773E+05 -6.618929E+04  4.966057E-10  3.314998E-11
       409  12 -1.458662E+06 -1.225041E+05 -1.404771E+05 -4.460292E+04 -3.058192E-10  1.579293E-10
       409  13 -9.376721E+05 -1.040482E+05 -1.217477E+05 -5.784902E+04 -1.527006E-11 -8.702032E-11
       409  14 -9.249574E+05 -7.181330E+03 -5.660474E+04 -4.513138E+04  3.986174E-10 -1.599417E-10
       409  15 -9.375886E+05  3.477717E+03 -3.236842E+04 -5.785640E+04 -2.567140E-10  7.566749E-11
       409  16 -2.589732E+05  6.443977E+04  4.137015E+04 -2.422487E+03 -2.114063E-10 -1.431227E-10
       409  17 -3.267204E+05  1.382605E+05  7.194705E+04 -2.405284E+04  1.147291E-10 -2.278863E-10
       409  18 -4.162572E+05  1.294430E+05  7.572555E+04 -7.112120E+04  5.239560E-10  2.245768E-10
       409  19 -1.615928E+06 -2.725545E+05 -2.848710E+05 -1.132155E+05  1.161796E+05 -9.085339E+03
       409  20 -1.522852E+06 -1.526430E+05 -1.851674E+05 -6.619083E+04  6.622130E+04 -2.875438E+04
       409  21 -1.458661E+06 -1.225031E+05 -1.404749E+05 -4.460332E+04  1.624983E+04 -3.042329E+04
       409  22 -9.376645E+05 -1.040462E+05 -1.217342E+05 -5.784963E+04  8.396189E+04 -9.080754E+03
       409  23 -9.249540E+05 -7.179652E+03 -5.659765E+04 -4.513263E+04  5.424093E+04 -2.875062E+04
       409  24 -9.375877E+05  3.478872E+03 -3.236555E+04 -5.785700E+04  2.451461E+04 -3.042267E+04
       409  25 -2.589703E+05  6.444057E+04  4.137534E+04 -2.422865E+03  5.170904E+04 -9.081935E+03
       409  26 -3.267183E+05  1.382619E+05  7.195196E+04 -2.405382E+04  4.224915E+04 -2.874769E+04
       409  27 -4.162558E+05  1.294442E+05  7.572931E+04 -7.112200E+04  3.278622E+04 -3.042241E+04
       410   1 -1.394923E+06 -1.162491E+05 -1.216297E+05 -5.946397E+04 -1.634999E+04  2.660361E+04
       410   2 -1.314963E+06 -9.273335E+04 -9.317974E+04 -4.501617E+04 -8.346282E+03  2.281725E+04
       410   3 -1.237055E+06 -7.334432E+04 -7.097628E+04 -5.710685E+04 -3.436498E+02  1.809711E+04
       410   4 -9.323665E+05 -4.363641E+03 -2.536983E+04 -5.809890E+04 -2.009576E+04  2.660279E+04
       410   5 -9.314185E+05 -7.533003E+01 -1.392439E+04 -4.482936E+04 -1.313896E+04  2.281757E+04
       410   6 -9.323424E+05  2.709253E+02 -7.993385E+03 -5.809743E+04 -6.184210E+03  1.809881E+04
       410   7 -4.696074E+05  1.075082E+05  7.087835E+04 -5.673278E+04 -2.384428E+04  2.660196E+04
       410   8 -5.477339E+05  9.257338E+04  6.532308E+04 -4.464242E+04 -1.793455E+04  2.281788E+04
       410   9 -6.275411E+05  7.388031E+04  5.498461E+04 -5.908849E+04 -1.202759E+04  1.810054E+04
       410  10 -1.394923E+06 -1.162499E+05 -1.216315E+05 -5.946362E+04 -1.401864E-10  2.243485E-10
       410  11 -1.314964E+06 -9.273393E+04 -9.318085E+04 -4.501602E+04 -2.392429E-10  1.003953E-10
       410  12 -1.237055E+06 -7.334467E+04 -7.097690E+04 -5.710685E+04  1.259483E-10  3.587952E-12
       410  13 -9.323672E+05 -4.364509E+03 -2.537192E+04 -5.809847E+04 -3.766891E-11  2.301796E-10
       410  14 -9.314189E+05 -7.593526E+01 -1.392569E+04 -4.482912E+04 -1.465874E-10  1.888484E-10
       410  15 -9.323425E+05  2.705634E+02 -7.994072E+03 -5.809734E+04  1.557643E-10  1.377072E-10
       410  16 -4.696082E+05  1.075073E+05  7.087595E+04 -5.673227E+04 -1.453534E-10  2.421330E-10
       410  17 -5.477344E+05  9.257273E+04  6.532150E+04 -4.464209E+04  1.393827E-10  3.534460E-10
       410  18 -6.275414E+05  7.387992E+04  5.498372E+04 -5.908832E+04 -2.127989E-10 -1.457164E-10
       410  19 -1.394923E+06 -1.162491E+05 -1.216297E+05 -5.946397E+04  1.634999E+04 -2.660361E+04
       410  20 -1.314963E+06 -9.273335E+04 -9.317974E+04 -4.501617E+04  8.346282E+03 -2.281725E+04
       410  21 -1.237055E+06 -7.334432E+04 -7.097628E+04 -5.710685E+04  3.436498E+02 -1.809711E+04
       410  22 -9.323665E+05 -4.363641E+03 -2.536983E+04 -5.809890E+04  2.009576E+04 -2.660279E+04
       410  23 -9.314185E+05 -7.533003E+01 -1.392439E+04 -4.482936E+04  1.313896E+04 -2.281757E+04
       410  24 -9.323424E+05  2.709253E+02 -7.993385E+03 -5.809743E+04  6.184210E+03 -1.809881E+04
       410  25 -4.696074E+05  1.075082E+05  7.087835E+04 -5.673278E+04  2.384428E+04 -2.660196E+04
       410  26 -5.477339E+05  9.257338E+04  6.532308E+04 -4.464242E+04  1.793455E+04 -2.281788E+04
       410  27 -6.275411E+05  7.388031E+04  5.498461E+04 -5.908849E+04  1.202759E+04 -1.810054E+04
       411   1 -1.178424E+06 -5.953463E+04 -5.669489E+04 -5.784735E+04  6.710608E+02  1.510091E+04
       411   2 -1.099077E+06 -4.028102E+04 -3.792789E+04 -4.457383E+04  2.449417E+03  1.009195E+04
       411   3 -1.020020E+06 -2.120682E+04 -2.037032E+04 -5.798034E+04  4.227117E+03  5.031905E+03
       411   4 -9.319833E+05 -6.835299E+01 -6.100559E+03 -5.812929E+04 -4.942520E+03  1.510299E+04
       411   5 -9.318355E+05  9.528403E+01 -3.481413E+03 -4.478943E+04 -3.221444E+03  1.009451E+04
       411   6 -9.319740E+05  8.962986E+01 -2.031612E+03 -5.812916E+04 -1.501246E+03  5.034971E+03
       411   7 -6.854851E+05  5.939412E+04  4.449065E+04 -5.841134E+04 -1.055829E+04  1.510507E+04
       411   8 -7.645674E+05  4.046983E+04  3.096368E+04 -4.500508E+04 -8.893808E+03  1.009708E+04
       411   9 -8.439209E+05  2.138560E+04  1.630680E+04 -5.827800E+04 -7.230408E+03  5.038039E+03
       411  10 -1.178424E+06 -5.953488E+04 -5.669532E+04 -5.784736E+04 -1.156747E-09 -4.912658E-10
       411  11 -1.099077E+06 -4.028113E+04 -3.792809E+04 -4.457385E+04  2.847041E-10 -8.355995E-11
       411  12 -1.020020E+06 -2.120685E+04 -2.037040E+04 -5.798036E+04  3.887090E-10  2.945075E-10
       411  13 -9.319834E+05 -6.860438E+01 -6.101033E+03 -5.812923E+04 -1.394362E-10 -6.711234E-11
       411  14 -9.318356E+05  9.517187E+01 -3.481624E+03 -4.478940E+04 -3.589419E-11 -6.293561E-11
       411  15 -9.319740E+05  8.960205E+01 -2.031664E+03 -5.812916E+04 -9.800248E-11 -1.861743E-10
       411  16 -6.854853E+05  5.939384E+04  4.449001E+04 -5.841121E+04  5.676382E-10  1.685781E-10
       411  17 -7.645675E+05  4.046970E+04  3.096334E+04 -4.500501E+04 -8.715121E-11  3.415247E-10
       411  18 -8.439210E+05  2.138556E+04  1.630665E+04 -5.827797E+04 -2.345293E-10  1.876716E-10
       411  19 -1.178424E+06 -5.953463E+04 -5.669489E+04 -5.784735E+04 -6.710608E+02 -1.510091E+04
       411  20 -1.099077E+06 -4.028102E+04 -3.792789E+04 -4.457383E+04 -2.449417E+03 -1.009195E+04
       411  21 -1.020020E+06 -2.120682E+04 -2.037032E+04 -5.798034E+04 -4.227117E+03 -5.031905E+03
       411  22 -9.319833E+05 -6.835299E+01 -6.100559E+03 -5.812929E+04  4.942520E+03 -1.510299E+04
       411  23 -9.318355E+05  9.528403E+01 -3.481413E+03 -4.478943E+04  3.221444E+03 -1.009451E+04
       411  24 -9.319740E+05  8.962986E+01 -2.031612E+03 -5.812916E+04  1.501246E+03 -5.034971E+03
       411  25 -6.854851E+05  5.939412E+04  4.449065E+04 -5.841134E+04  1.055829E+04 -1.510507E+04
       411  26 -7.645674E+05  4.046983E+04  3.096368E+04 -4.500508E+04  8.893808E+03 -1.009708E+04
       411  27 -8.439209E+05  2.138560E+04  1.630680E+04 -5.827800E+04  7.230408E+03 -5.038039E+03
       412   1 -9.615971E+05 -7.042285E+03 -7.470122E+03 -5.805012E+04  4.540289E+03  2.073267E+03
       412   2 -8.822854E+05  1.203662E+04  9.233302E+03 -4.475877E+04  5.021715E+03 -3.002372E+03
       412   3 -8.030563E+05  3.112515E+04  2.561753E+04 -5.816782E+04  5.503465E+03 -8.079181E+03
       412   4 -9.319285E+05  7.802095E+01 -1.569448E+03 -5.813384E+04 -1.177646E+03  2.076429E+03
       412   5 -9.318855E+05  6.459008E+01 -9.764871E+02 -4.478357E+04 -6.978490E+02 -2.999359E+03
       412   6 -9.319307E+05  6.141069E+01 -7.014582E+02 -5.813383E+04 -2.177872E+02 -8.076296E+03
       412   7 -9.022590E+05  7.198291E+03  4.331304E+03 -5.821755E+04 -6.895848E+03  2.079591E+03
       412   8 -9.814831E+05 -1.190758E+04 -1.118628E+04 -4.480837E+04 -6.416963E+03 -2.996346E+03
       412   9 -1.060789E+06 -3.100336E+04 -2.702120E+04 -5.809984E+04 -5.937872E+03 -8.073411E+03
       412  10 -9.615971E+05 -7.042296E+03 -7.470169E+03 -5.805013E+04 -2.912094E-10  1.113430E-10
       412  11 -8.822855E+05  1.203661E+04  9.233237E+03 -4.475876E+04  6.395538E-10  6.862055E-10
       412  12 -8.030564E+05  3.112508E+04  2.561735E+04 -5.816779E+04 -2.819646E-10  2.932162E-10
       412  13 -9.319285E+05  7.801595E+01 -1.569459E+03 -5.813383E+04  1.772364E-10  3.815754E-10
       412  14 -9.318855E+05  6.458029E+01 -9.765049E+02 -4.478357E+04 -1.258959E-10 -2.431752E-10
       412  15 -9.319307E+05  6.134066E+01 -7.015808E+02 -5.813383E+04 -1.450634E-10 -2.555804E-10
       412  16 -9.022591E+05  7.198274E+03  4.331207E+03 -5.821754E+04 -5.334407E-11 -7.744183E-10
       412  17 -9.814832E+05 -1.190760E+04 -1.118638E+04 -4.480838E+04  6.025541E-11  6.117531E-11
       412  18 -1.060789E+06 -3.100344E+04 -2.702139E+04 -5.809988E+04 -5.396952E-11 -3.354986E-10
       412  19 -9.615971E+05 -7.042285E+03 -7.470122E+03 -5.805012E+04 -4.540289E+03 -2.073267E+03
       412  20 -8.822854E+05  1.203662E+04  9.233302E+03 -4.475877E+04 -5.021715E+03  3.002372E+03
       412  21 -8.030563E+05  3.112515E+04  2.561753E+04 -5.816782E+04 -5.503465E+03  8.079181E+03
       412  22 -9.319285E+05  7.802095E+01 -1.569448E+03 -5.813384E+04  1.177646E+03 -2.076429E+03
       412  23 -9.318855E+05  6.459008E+01 -9.764871E+02 -4.478357E+04  6.978490E+02  2.999359E+03
       412  24 -9.319307E+05  6.141069E+01 -7.014582E+02 -5.813383E+04  2.177872E+02  8.076296E+03
       412  25 -9.022590E+05  7.198291E+03  4.331304E+03 -5.821755E+04  6.895848E+03 -2.079591E+03
       412  26 -9.814831E+05 -1.190758E+04 -1.118628E+04 -4.480837E+04  6.416963E+03  2.996346E+03
       412  27 -1.060789E+06 -3.100336E+04 -2.702120E+04 -5.809984E+04  5.937872E+03  8.073411E+03
       413   1 -7.446990E+05  4.528894E+04  3.810135E+04 -5.818393E+04  5.621345E+03 -1.103346E+04
       413   2 -6.655536E+05  6.431810E+04  5.412584E+04 -4.488862E+04  5.954301E+03 -1.610263E+04
       413   3 -5.864484E+05  8.336001E+04  6.993388E+04 -5.824244E+04  6.288719E+03 -2.116269E+04
       413   4 -9.319254E+05  5.861406E+01 -6.485174E+02 -5.812256E+04 -9.692361E+01 -1.103085E+04
       413   5 -9.319086E+05  3.484551E+01 -6.986477E+02 -4.479766E+04  2.458842E+02 -1.610078E+04
       413   6 -9.319386E+05  2.271621E+01 -9.717419E+02 -5.812258E+04  5.901117E+02 -2.116158E+04
       413   7 -1.119118E+06 -4.517392E+04 -3.940017E+04 -5.806121E+04 -5.813496E+03 -1.102824E+04
       413   8 -1.198196E+06 -6.425288E+04 -5.552683E+04 -4.470673E+04 -5.460125E+03 -1.609892E+04
       413   9 -1.277315E+06 -8.332207E+04 -7.188361E+04 -5.800277E+04 -5.105379E+03 -2.116046E+04
       413  10 -7.446991E+05  4.528880E+04  3.810107E+04 -5.818388E+04 -7.485187E-10  3.439875E-11
       413  11 -6.655537E+05  6.431782E+04  5.412529E+04 -4.488854E+04 -1.040969E-10 -2.135512E-10
       413  12 -5.864486E+05  8.335952E+04  6.993296E+04 -5.824233E+04  1.049820E-10 -4.765615E-10
       413  13 -9.319255E+05  5.848345E+01 -6.487460E+02 -5.812257E+04  1.967752E-10  4.572482E-10
       413  14 -9.319087E+05  3.456724E+01 -6.991348E+02 -4.479766E+04  5.262571E-10  3.903549E-10
       413  15 -9.319387E+05  2.223545E+01 -9.725837E+02 -5.812257E+04 -5.150440E-10 -8.044149E-10
       413  16 -1.119119E+06 -4.517405E+04 -3.940046E+04 -5.806126E+04  5.041574E-10  8.899503E-11
       413  17 -1.198196E+06 -6.425316E+04 -5.552737E+04 -4.470680E+04  5.987643E-10  3.588341E-10
       413  18 -1.277315E+06 -8.332256E+04 -7.188450E+04 -5.800286E+04 -4.191151E-10 -2.421984E-10
       413  19 -7.446990E+05  4.528894E+04  3.810135E+04 -5.818393E+04 -5.621345E+03  1.103346E+04
       413  20 -6.655536E+05  6.431810E+04  5.412584E+04 -4.488862E+04 -5.954301E+03  1.610263E+04
       413  21 -5.864484E+05  8.336001E+04  6.993388E+04 -5.824244E+04 -6.288719E+03  2.116269E+04
       413  22 -9.319254E+05  5.861406E+01 -6.485174E+02 -5.812256E+04  9.692361E+01  1.103085E+04
       413  23 -9.319086E+05  3.484551E+01 -6.986477E+02 -4.479766E+04 -2.458842E+02  1.610078E+04
       413  24 -9.319386E+05  2.271621E+01 -9.717419E+02 -5.812258E+04 -5.901117E+02  2.116158E+04
       413  25 -1.119118E+06 -4.517392E+04 -3.940017E+04 -5.806121E+04  5.813496E+03  1.102824E+04
       413  26 -1.198196E+06 -6.425288E+04 -5.552683E+04 -4.470673E+04  5.460125E+03  1.609892E+04
       413  27 -1.277315E+06 -8.332207E+04 -7.188361E+04 -5.800277E+04  5.105379E+03  2.116046E+04
       414   1 -5.282960E+05  9.747980E+04  8.208241E+04 -5.823700E+04  6.494508E+03 -2.410993E+04
       414   2 -4.494858E+05  1.164200E+05  9.729456E+04 -4.496332E+04  7.401363E+03 -2.913326E+04
       414   3 -3.707568E+05  1.352799E+05  1.119069E+05 -5.820549E+04  8.310891E+03 -3.407774E+04
       414   4 -9.319605E+05  2.322196E+01 -1.210834E+03 -5.809308E+04  7.867131E+02 -2.410945E+04
       414   5 -9.319207E+05 -1.393534E+00 -2.011929E+03 -4.483456E+04  1.781402E+03 -2.913415E+04
       414   6 -9.319847E+05 -1.215647E+02 -3.474555E+03 -5.809314E+04  2.778654E+03 -3.407995E+04
       414   7 -1.335470E+06 -9.744365E+04 -8.451276E+04 -5.794924E+04 -4.917433E+03 -2.410897E+04
       414   8 -1.414134E+06 -1.164374E+05 -1.013308E+05 -4.470588E+04 -3.834266E+03 -2.913504E+04
       414   9 -1.492913E+06 -1.355429E+05 -1.188727E+05 -5.798088E+04 -2.748668E+03 -3.408216E+04
       414  10 -5.282962E+05  9.747916E+04  8.208124E+04 -5.823688E+04 -4.261213E-10 -1.071142E-10
       414  11 -4.494861E+05  1.164190E+05  9.729286E+04 -4.496314E+04 -1.847433E-10  3.957586E-11
       414  12 -3.707571E+05  1.352787E+05  1.119046E+05 -5.820526E+04  1.754070E-10 -1.020617E-10
       414  13 -9.319607E+05  2.259789E+01 -1.211927E+03 -5.809307E+04 -5.018309E-10 -4.356200E-10
       414  14 -9.319210E+05 -2.305446E+00 -2.013529E+03 -4.483452E+04 -5.208010E-10 -1.409231E-10
       414  15 -9.319851E+05 -1.228134E+02 -3.476751E+03 -5.809306E+04  1.686884E-10 -4.072818E-11
       414  16 -1.335470E+06 -9.744428E+04 -8.451389E+04 -5.794934E+04  8.294187E-10  7.883787E-11
       414  17 -1.414135E+06 -1.164383E+05 -1.013324E+05 -4.470597E+04 -3.863068E-10  1.091509E-12
       414  18 -1.492914E+06 -1.355441E+05 -1.188749E+05 -5.798095E+04 -6.408086E-10  9.528438E-11
       414  19 -5.282960E+05  9.747980E+04  8.208241E+04 -5.823700E+04 -6.494508E+03  2.410993E+04
       414  20 -4.494858E+05  1.164200E+05  9.729456E+04 -4.496332E+04 -7.401363E+03  2.913326E+04
       414  21 -3.707568E+05  1.352799E+05  1.119069E+05 -5.820549E+04 -8.310891E+03  3.407774E+04
       414  22 -9.319605E+05  2.322196E+01 -1.210834E+03 -5.809308E+04 -7.867131E+02  2.410945E+04
       414  23 -9.319207E+05 -1.393534E+00 -2.011929E+03 -4.483456E+04 -1.781402E+03  2.913415E+04
       414  24 -9.319847E+05 -1.215647E+02 -3.474555E+03 -5.809314E+04 -2.778654E+03  3.407995E+04
       414  25 -1.335470E+06 -9.744365E+04 -8.451276E+04 -5.794924E+04  4.917433E+03  2.410897E+04
       414  26 -1.414134E+06 -1.164374E+05 -1.013308E+05 -4.470588E+04  3.834266E+03  2.913504E+04
       414  27 -1.492913E+06 -1.355429E+05 -1.188727E+05 -5.798088E+04  2.748668E+03  3.408216E+04
       415   1 -3.130821E+05  1.494978E+05  1.231200E+05 -5.850597E+04  9.340993E+03 -3.706872E+04
       415   2 -2.345363E+05  1.681377E+05  1.359668E+05 -4.460056E+04  1.177771E+04 -4.158563E+04
       415   3 -1.566589E+05  1.848068E+05  1.467654E+05 -5.695031E+04  1.421740E+04 -4.475789E+04
       415   4 -9.321846E+05  6.235196E+01 -4.537977E+03 -5.803553E+04  3.486220E+03 -3.707193E+04
       415   5 -9.317338E+05 -1.627916E+02 -7.901210E+03 -4.490672E+04  7.435264E+03 -4.159039E+04
       415   6 -9.322215E+05 -2.622751E+03 -1.436593E+04 -5.803496E+04  1.138698E+04 -4.476347E+04
       415   7 -1.550923E+06 -1.493973E+05 -1.322164E+05 -5.756555E+04 -2.362815E+03 -3.707515E+04
       415   8 -1.628470E+06 -1.684940E+05 -1.517954E+05 -4.521254E+04  3.097610E+03 -4.159515E+04
       415   9 -1.707214E+06 -1.900906E+05 -1.755301E+05 -5.911828E+04  8.560034E+03 -4.476905E+04
       415  10 -3.130826E+05  1.494963E+05  1.231172E+05 -5.850569E+04  3.079924E-10 -3.095403E-10
       415  11 -2.345369E+05  1.681358E+05  1.359633E+05 -4.460017E+04 -8.867733E-10 -4.510963E-10
       415  12 -1.566597E+05  1.848046E+05  1.467612E+05 -5.694979E+04 -1.248361E-09  4.023065E-10
       415  13 -9.321850E+05  6.087356E+01 -4.540581E+03 -5.803543E+04  1.015506E-10 -4.463489E-10
       415  14 -9.317343E+05 -1.646631E+02 -7.904563E+03 -4.490647E+04 -2.612068E-10 -2.787791E-10
       415  15 -9.322222E+05 -2.624937E+03 -1.436994E+04 -5.803455E+04  2.463222E-10  5.461233E-10
       415  16 -1.550923E+06 -1.493988E+05 -1.322190E+05 -5.756562E+04 -6.139120E-10 -2.593190E-10
       415  17 -1.628470E+06 -1.684959E+05 -1.517987E+05 -4.521243E+04  4.238137E-10 -1.525013E-10
       415  18 -1.707214E+06 -1.900927E+05 -1.755340E+05 -5.911797E+04  1.013955E-09  1.177613E-09
       415  19 -3.130821E+05  1.494978E+05  1.231200E+05 -5.850597E+04 -9.340993E+03  3.706872E+04
       415  20 -2.345363E+05  1.681377E+05  1.359668E+05 -4.460056E+04 -1.177771E+04  4.158563E+04
       415  21 -1.566589E+05  1.848068E+05  1.467654E+05 -5.695031E+04 -1.421740E+04  4.475789E+04
       415  22 -9.321846E+05  6.235196E+01 -4.537977E+03 -5.803553E+04 -3.486220E+03  3.707193E+04
       415  23 -9.317338E+05 -1.627916E+02 -7.901210E+03 -4.490672E+04 -7.435264E+03  4.159039E+04
       415  24 -9.322215E+05 -2.622751E+03 -1.436593E+04 -5.803496E+04 -1.138698E+04  4.476347E+04
       415  25 -1.550923E+06 -1.493973E+05 -1.322164E+05 -5.756555E+04  2.362815E+03  3.707515E+04
       415  26 -1.628470E+06 -1.684940E+05 -1.517954E+05 -4.521254E+04 -3.097610E+03  4.159515E+04
       415  27 -1.707214E+06 -1.900906E+05 -1.755301E+05 -5.911828E+04 -8.560034E+03  4.476905E+04
       416   1 -1.014426E+05  2.031467E+05  1.542878E+05 -6.479184E+04  2.322113E+04 -4.892329E+04
       416   2 -1.929067E+04  2.165939E+05  1.627633E+05 -3.286366E+04  1.090929E+04 -4.426056E+04
       416   3  5.381374E+04  1.864200E+05  1.684045E+05 -2.557279E+04 -1.434518E+03 -1.374238E+04
       416   4 -9.351699E+05  1.798824E+03 -1.832126E+04 -5.768756E+04  1.389092E+04 -4.893337E+04
       416   5 -9.281371E+05 -4.253257E+03 -3.205745E+04 -4.534239E+04  3.073115E+04 -4.424940E+04
       416   6 -9.352400E+05 -5.902687E+04 -6.889872E+04 -5.763723E+04  4.753978E+04 -1.369207E+04
       416   7 -1.768237E+06 -1.995929E+05 -1.909678E+05 -5.059304E+04  4.573022E+03 -4.894367E+04
       416   8 -1.836205E+06 -2.251538E+05 -2.269247E+05 -5.780273E+04  5.052437E+04 -4.423903E+04
       416   9 -1.923390E+06 -3.045398E+05 -3.062618E+05 -8.965057E+04  9.643632E+04 -1.364678E+04
       416  10 -1.014438E+05  2.031440E+05  1.542823E+05 -6.479093E+04  1.148087E-09  9.803466E-10
       416  11 -1.929132E+04  2.165918E+05  1.627594E+05 -3.286327E+04 -3.897702E-10  6.391057E-10
       416  12  5.381369E+04  1.864198E+05  1.684041E+05 -2.557280E+04  5.847778E-10  6.740292E-10
       416  13 -9.351708E+05  1.796202E+03 -1.832612E+04 -5.768701E+04  9.800556E-10 -2.354505E-10
       416  14 -9.281386E+05 -4.255613E+03 -3.206290E+04 -4.534130E+04 -2.447519E-10  6.234030E-10
       416  15 -9.352425E+05 -5.902768E+04 -6.890333E+04 -5.763670E+04  3.219541E-10 -3.264953E-10
       416  16 -1.768238E+06 -1.995955E+05 -1.909723E+05 -5.059286E+04 -1.003365E-09  1.158644E-09
       416  17 -1.836208E+06 -2.251566E+05 -2.269332E+05 -5.780093E+04  9.444821E-11 -7.300483E-11
       416  18 -1.923400E+06 -3.045425E+05 -3.062797E+05 -8.964951E+04 -7.990161E-10  8.850344E-10
       416  19 -1.014426E+05  2.031467E+05  1.542878E+05 -6.479184E+04 -2.322113E+04  4.892329E+04
       416  20 -1.929067E+04  2.165939E+05  1.627633E+05 -3.286366E+04 -1.090929E+04  4.426056E+04
       416  21  5.381374E+04  1.864200E+05  1.684045E+05 -2.557279E+04  1.434518E+03  1.374238E+04
       416  22 -9.351699E+05  1.798824E+03 -1.832126E+04 -5.768756E+04 -1.389092E+04  4.893337E+04
       416  23 -9.281371E+05 -4.253257E+03 -3.205745E+04 -4.534239E+04 -3.073115E+04  4.424940E+04
       416  24 -9.352400E+05 -5.902687E+04 -6.889872E+04 -5.763723E+04 -4.753978E+04  1.369207E+04
       416  25 -1.768237E+06 -1.995929E+05 -1.909678E+05 -5.059304E+04 -4.573022E+03  4.894367E+04
       416  26 -1.836205E+06 -2.251538E+05 -2.269247E+05 -5.780273E+04 -5.052437E+04  4.423903E+04
       416  27 -1.923390E+06 -3.045398E+05 -3.062618E+05 -8.965057E+04 -9.643632E+04  1.364678E+04
       417   1  9.773874E+04  6.984775E+04  1.211095E+05  7.741326E+04  1.760720E+05  1.080567E+04
       417   2  1.537832E+05 -1.513660E+05 -5.684073E+03  4.461085E+03  1.238536E+05  3.366550E+04
       417   3  2.707000E+05 -1.571491E+05 -4.458149E+04 -9.656344E+04  7.164741E+04  3.583425E+04
       417   4  8.840084E+05  2.643300E+05  3.097262E+05 -6.281559E+04  2.138128E+05  1.080486E+04
       417   5  8.516632E+05  1.795863E+04  1.440259E+05 -4.865936E+04  1.381553E+05  3.366462E+04
       417   6  8.841547E+05 -9.079025E+03  8.240815E+04 -6.256823E+04  6.252047E+04  3.582916E+04
       417   7  1.670889E+06  4.588422E+05  4.983151E+05 -2.032228E+05  2.516011E+05  1.078704E+04
       417   8  1.550007E+06  1.872622E+05  2.937098E+05 -1.018404E+05  1.524727E+05  3.366130E+04
       417   9  1.497968E+06  1.389715E+05  2.093783E+05 -2.853892E+04  5.338465E+04  3.582307E+04
       417  10  9.770542E+04  6.983930E+04  1.210510E+05  7.741173E+04  1.792447E-09 -1.231339E-09
       417  11  1.537665E+05 -1.513714E+05 -5.715020E+03  4.457727E+03 -1.541904E-09  3.257706E-10
       417  12  2.706942E+05 -1.571518E+05 -4.459355E+04 -9.656550E+04 -3.026197E-09 -2.064441E-10
       417  13  8.839593E+05  2.643176E+05  3.096402E+05 -6.281746E+04  8.928178E-10  6.500630E-10
       417  14  8.516425E+05  1.795230E+04  1.439879E+05 -4.866311E+04  4.898384E-11 -8.086983E-11
       417  15  8.841502E+05 -9.081452E+03  8.239840E+04 -6.257004E+04 -1.641213E-10 -4.689143E-10
       417  16  1.670821E+06  4.588252E+05  4.981962E+05 -2.032250E+05 -9.456197E-10  5.547062E-10
       417  17  1.549982E+06  1.872548E+05  2.936641E+05 -1.018446E+05  1.485286E-09 -3.601533E-11
       417  18  1.497965E+06  1.389694E+05  2.093705E+05 -2.854046E+04  3.762138E-09  1.771933E-09
       417  19  9.773874E+04  6.984775E+04  1.211095E+05  7.741326E+04 -1.760720E+05 -1.080567E+04
       417  20  1.537832E+05 -1.513660E+05 -5.684073E+03  4.461085E+03 -1.238536E+05 -3.366550E+04
       417  21  2.707000E+05 -1.571491E+05 -4.458149E+04 -9.656344E+04 -7.164741E+04 -3.583425E+04
       417  22  8.840084E+05  2.643300E+05  3.097262E+05 -6.281559E+04 -2.138128E+05 -1.080486E+04
       417  23  8.516632E+05  1.795863E+04  1.440259E+05 -4.865936E+04 -1.381553E+05 -3.366462E+04
       417  24  8.841547E+05 -9.079025E+03  8.240815E+04 -6.256823E+04 -6.252047E+04 -3.582916E+04
       417  25  1.670889E+06  4.588422E+05  4.983151E+05 -2.032228E+05 -2.516011E+05 -1.078704E+04
       417  26  1.550007E+06  1.872622E+05  2.937098E+05 -1.018404E+05 -1.524727E+05 -3.366130E+04
       417  27  1.497968E+06  1.389715E+05  2.093783E+05 -2.853892E+04 -5.338465E+04 -3.582307E+04
       418   1  3.210879E+05 -1.218105E+05 -4.955777E+04 -5.942746E+04  5.515167E+04  3.161572E+04
       418   2  4.043458E+05 -1.118000E+05 -6.022214E+04 -4.792707E+04  3.863886E+04  2.758957E+04
       418   3  4.923130E+05 -9.195512E+04 -5.765687E+04 -6.517885E+04  2.212248E+04  2.250673E+04
       418   4  8.708348E+05  1.089300E+04  6.459017E+04 -6.278026E+04  5.124573E+04  3.161093E+04
       418   5  8.684002E+05  8.281636E+01  3.546025E+04 -4.840244E+04  3.352565E+04  2.758549E+04
       418   6  8.708713E+05 -6.889179E+02  2.038789E+04 -6.277502E+04  1.580422E+04  2.250359E+04
       418   7  1.420868E+06  1.435773E+05  1.787217E+05 -6.613611E+04  4.733638E+04  3.160619E+04
       418   8  1.332659E+06  1.119520E+05  1.311311E+05 -4.887818E+04  2.840868E+04  2.758141E+04
       418   9  1.249566E+06  9.056829E+04  9.842509E+04 -6.036971E+04  9.482175E+03  2.250040E+04
       418  10  3.210844E+05 -1.218124E+05 -4.956536E+04 -5.942886E+04  1.090686E-09 -1.191001E-10
       418  11  4.043440E+05 -1.118012E+05 -6.022637E+04 -4.792793E+04 -2.136249E-10  8.512990E-11
       418  12  4.923123E+05 -9.195580E+04 -5.765874E+04 -6.517925E+04 -9.360856E-10 -3.697938E-10
       418  13  8.708317E+05  1.089122E+04  6.458337E+04 -6.278156E+04  6.801067E-10  1.413136E-09
       418  14  8.683988E+05  8.169759E+01  3.545671E+04 -4.840318E+04  3.620710E-10  5.970903E-10
       418  15  8.708709E+05 -6.895290E+02  2.038647E+04 -6.277531E+04 -1.967687E-10 -8.101755E-10
       418  16  1.420865E+06  1.435757E+05  1.787156E+05 -6.613731E+04 -9.871669E-10  1.117687E-09
       418  17  1.332658E+06  1.119510E+05  1.311282E+05 -4.887881E+04  2.478552E-10  1.645775E-10
       418  18  1.249565E+06  9.056772E+04  9.842397E+04 -6.036988E+04  8.313064E-10 -3.945667E-10
       418  19  3.210879E+05 -1.218105E+05 -4.955777E+04 -5.942746E+04 -5.515167E+04 -3.161572E+04
       418  20  4.043458E+05 -1.118000E+05 -6.022214E+04 -4.792707E+04 -3.863886E+04 -2.758957E+04
       418  21  4.923130E+05 -9.195512E+04 -5.765687E+04 -6.517885E+04 -2.212248E+04 -2.250673E+04
       418  22  8.708348E+05  1.089300E+04  6.459017E+04 -6.278026E+04 -5.124573E+04 -3.161093E+04
       418  23  8.684002E+05  8.281636E+01  3.546025E+04 -4.840244E+04 -3.352565E+04 -2.758549E+04
       418  24  8.708713E+05 -6.889179E+02  2.038789E+04 -6.277502E+04 -1.580422E+04 -2.250359E+04
       418  25  1.420868E+06  1.435773E+05  1.787217E+05 -6.613611E+04 -4.733638E+04 -3.160619E+04
       418  26  1.332659E+06  1.119520E+05  1.311311E+05 -4.887818E+04 -2.840868E+04 -2.758141E+04
       418  27  1.249566E+06  9.056829E+04  9.842509E+04 -6.036971E+04 -9.482175E+03 -2.250040E+04
       419   1  5.542592E+05 -7.583856E+04 -4.914804E+04 -6.336855E+04  1.867384E+04  1.927280E+04
       419   2  6.391916E+05 -5.570655E+04 -3.845639E+04 -4.887359E+04  1.432939E+04  1.388827E+04
       419   3  7.248465E+05 -3.511983E+04 -2.481567E+04 -6.307130E+04  9.983156E+03  8.453231E+03
       419   4  8.699517E+05  1.929684E+02  1.556252E+04 -6.276359E+04  1.262972E+04  1.927031E+04
       419   5  8.695958E+05 -1.928421E+02  8.899212E+03 -4.841761E+04  8.225836E+03  1.388644E+04
       419   6  8.699663E+05 -1.133597E+02  5.225125E+03 -6.276368E+04  3.820746E+03  8.452085E+03
       419   7  1.185739E+06  7.621826E+04  8.026792E+04 -6.215833E+04  6.582588E+03  1.926782E+04
       419   8  1.100050E+06  5.531755E+04  5.625211E+04 -4.796146E+04  2.120059E+03  1.388460E+04
       419   9  1.015106E+06  3.489180E+04  3.526492E+04 -6.245598E+04 -2.343078E+03  8.450933E+03
       419  10  5.542587E+05 -7.583905E+04 -4.914939E+04 -6.336883E+04 -7.700546E-10 -2.942546E-10
       419  11  6.391913E+05 -5.570682E+04 -3.845714E+04 -4.887375E+04 -1.137328E-09 -7.045265E-10
       419  12  7.248464E+05 -3.511993E+04 -2.481600E+04 -6.307137E+04 -1.297366E-10 -4.593978E-11
       419  13  8.699514E+05  1.925267E+02  1.556152E+04 -6.276379E+04 -1.619444E-11 -3.128992E-10
       419  14  8.695957E+05 -1.930674E+02  8.898722E+03 -4.841770E+04 -3.090943E-11 -3.655546E-11
       419  15  8.699662E+05 -1.134404E+02  5.224963E+03 -6.276370E+04 -4.839375E-10 -4.094288E-10
       419  16  1.185739E+06  7.621785E+04  8.026714E+04 -6.215843E+04  3.223530E-10 -2.232471E-10
       419  17  1.100050E+06  5.531734E+04  5.625174E+04 -4.796149E+04  1.809127E-11  1.482162E-10
       419  18  1.015106E+06  3.489172E+04  3.526478E+04 -6.245597E+04  8.955223E-11  2.405151E-10
       419  19  5.542592E+05 -7.583856E+04 -4.914804E+04 -6.336855E+04 -1.867384E+04 -1.927280E+04
       419  20  6.391916E+05 -5.570655E+04 -3.845639E+04 -4.887359E+04 -1.432939E+04 -1.388827E+04
       419  21  7.248465E+05 -3.511983E+04 -2.481567E+04 -6.307130E+04 -9.983156E+03 -8.453231E+03
       419  22  8.699517E+05  1.929684E+02  1.556252E+04 -6.276359E+04 -1.262972E+04 -1.927031E+04
       419  23  8.695958E+05 -1.928421E+02  8.899212E+03 -4.841761E+04 -8.225836E+03 -1.388644E+04
       419  24  8.699663E+05 -1.133597E+02  5.225125E+03 -6.276368E+04 -3.820746E+03 -8.452085E+03
       419  25  1.185739E+06  7.621826E+04  8.026792E+04 -6.215833E+04 -6.582588E+03 -1.926782E+04
       419  26  1.100050E+06  5.531755E+04  5.625211E+04 -4.796146E+04 -2.120059E+03 -1.388460E+04
       419  27  1.015106E+06  3.489180E+04  3.526492E+04 -6.245598E+04  2.343078E+03 -8.450933E+03
       420   1  7.874273E+05 -1.989036E+04 -1.265614E+04 -6.295602E+04  9.127712E+03  5.278221E+03
       420   2  8.725304E+05  5.932546E+02  3.141498E+03 -4.853141E+04  7.861227E+03 -1.673664E+02
       420   3  9.578294E+05  2.109064E+04  1.977065E+04 -6.276828E+04  6.594573E+03 -5.615757E+03
       420   4  8.698498E+05 -7.882181E+01  4.054986E+03 -6.275693E+04  2.980971E+03  5.277283E+03
       420   5  8.697559E+05 -7.487917E+01  2.572287E+03 -4.842619E+04  1.710736E+03 -1.683269E+02
       420   6  8.698502E+05 -5.651519E+01  1.923266E+03 -6.275697E+04  4.405007E+02 -5.616716E+03
       420   7  9.522789E+05  1.973231E+04  2.076590E+04 -6.255781E+04 -3.166569E+03  5.276341E+03
       420   8  8.669815E+05 -7.429931E+02  2.003217E+03 -4.832098E+04 -4.439727E+03 -1.692895E+02
       420   9  7.818784E+05 -2.120413E+04 -1.592438E+04 -6.274566E+04 -5.712717E+03 -5.617675E+03
       420  10  7.874272E+05 -1.989041E+04 -1.265635E+04 -6.295606E+04  1.447926E-10 -2.854186E-11
       420  11  8.725303E+05  5.932380E+02  3.141382E+03 -4.853140E+04 -4.946828E-10 -1.022157E-10
       420  12  9.578293E+05  2.109060E+04  1.977051E+04 -6.276825E+04 -6.564000E-10 -1.487003E-10
       420  13  8.698498E+05 -7.885412E+01  4.054917E+03 -6.275694E+04  1.615781E-10  2.505606E-11
       420  14  8.697559E+05 -7.487998E+01  2.572281E+03 -4.842619E+04 -2.421841E-10 -3.045691E-10
       420  15  8.698502E+05 -5.654913E+01  1.923206E+03 -6.275697E+04  3.205358E-10  2.483059E-10
       420  16  9.522789E+05  1.973228E+04  2.076583E+04 -6.255779E+04  3.361661E-11  6.085151E-11
       420  17  8.669815E+05 -7.429984E+02  2.003180E+03 -4.832098E+04 -5.378558E-11 -3.613412E-10
       420  18  7.818783E+05 -2.120417E+04 -1.592450E+04 -6.274569E+04  5.265212E-10  1.387345E-10
       420  19  7.874273E+05 -1.989036E+04 -1.265614E+04 -6.295602E+04 -9.127712E+03 -5.278221E+03
       420  20  8.725304E+05  5.932546E+02  3.141498E+03 -4.853141E+04 -7.861227E+03  1.673664E+02
       420  21  9.578294E+05  2.109064E+04  1.977065E+04 -6.276828E+04 -6.594573E+03  5.615757E+03
       420  22  8.698498E+05 -7.882181E+01  4.054986E+03 -6.275693E+04 -2.980971E+03 -5.277283E+03
       420  23  8.697559E+05 -7.487917E+01  2.572287E+03 -4.842619E+04 -1.710736E+03  1.683269E+02
       420  24  8.698502E+05 -5.651519E+01  1.923266E+03 -6.275697E+04 -4.405007E+02  5.616716E+03
       420  25  9.522789E+05  1.973231E+04  2.076590E+04 -6.255781E+04  3.166569E+03 -5.276341E+03
       420  26  8.669815E+05 -7.429931E+02  2.003217E+03 -4.832098E+04  4.439727E+03  1.692895E+02
       420  27  7.818784E+05 -2.120413E+04 -1.592438E+04 -6.274566E+04  5.712717E+03  5.617675E+03
       421   1  1.020532E+06  3.628219E+04  3.300843E+04 -6.275317E+04  6.256601E+03 -8.787944E+03
       421   2  1.105766E+06  5.676260E+04  5.054627E+04 -4.830801E+04  5.237658E+03 -1.424001E+04
       421   3  1.191178E+06  7.724644E+04  6.875560E+04 -6.256068E+04  4.219934E+03 -1.969334E+04
       421   4  8.698434E+05 -5.896899E+01  1.830765E+03 -6.276519E+04  9.957423E+01 -8.789120E+03
       421   5  8.697511E+05 -8.347097E+01  2.067000E+03 -4.841593E+04 -9.208679E+02 -1.424191E+04
       421   6  8.698307E+05 -1.038591E+02  2.976052E+03 -6.276516E+04 -1.939955E+03 -1.969593E+04
       421   7  7.191759E+05 -3.640155E+04 -2.934799E+04 -6.277720E+04 -6.055986E+03 -8.790297E+03
       421   8  6.337889E+05 -5.693302E+04 -4.641510E+04 -4.852380E+04 -7.077098E+03 -1.424380E+04
       421   9  5.485810E+05 -7.746060E+04 -6.280884E+04 -6.296953E+04 -8.096718E+03 -1.969852E+04
       421  10  1.020532E+06  3.628210E+04  3.300822E+04 -6.275313E+04 -4.693144E-10  6.021587E-11
       421  11  1.105766E+06  5.676237E+04  5.054584E+04 -4.830795E+04 -1.415294E-10  5.258648E-10
       421  12  1.191178E+06  7.724602E+04  6.875484E+04 -6.256061E+04 -4.705186E-11  6.170724E-11
       421  13  8.698434E+05 -5.905198E+01  1.830620E+03 -6.276519E+04  8.931468E-10  8.927330E-10
       421  14  8.697511E+05 -8.368910E+01  2.066617E+03 -4.841594E+04  6.045101E-10  1.057533E-09
       421  15  8.698306E+05 -1.042768E+02  2.975316E+03 -6.276519E+04  1.565963E-10  3.988454E-10
       421  16  7.191758E+05 -3.640164E+04 -2.934821E+04 -6.277724E+04  5.562247E-10  4.250515E-10
       421  17  6.337888E+05 -5.693325E+04 -4.641558E+04 -4.852388E+04  8.806655E-11  2.793121E-10
       421  18  5.485808E+05 -7.746104E+04 -6.280969E+04 -6.296966E+04  1.154688E-10  2.470001E-10
       421  19  1.020532E+06  3.628219E+04  3.300843E+04 -6.275317E+04 -6.256601E+03  8.787944E+03
       421  20  1.105766E+06  5.676260E+04  5.054627E+04 -4.830801E+04 -5.237658E+03  1.424001E+04
       421  21  1.191178E+06  7.724644E+04  6.875560E+04 -6.256068E+04 -4.219934E+03  1.969334E+04
       421  22  8.698434E+05 -5.896899E+01  1.830765E+03 -6.276519E+04 -9.957423E+01  8.789120E+03
       421  23  8.697511E+05 -8.347097E+01  2.067000E+03 -4.841593E+04  9.208679E+02  1.424191E+04
       421  24  8.698307E+05 -1.038591E+02  2.976052E+03 -6.276516E+04  1.939955E+03  1.969593E+04
       421  25  7.191759E+05 -3.640155E+04 -2.934799E+04 -6.277720E+04  6.055986E+03  8.790297E+03
       421  26  6.337889E+05 -5.693302E+04 -4.641510E+04 -4.852380E+04  7.077098E+03  1.424380E+04
       421  27  5.485810E+05 -7.746060E+04 -6.280884E+04 -6.296953E+04  8.096718E+03  1.969852E+04
       422   1  1.254143E+06  9.244869E+04  8.289169E+04 -6.248666E+04  3.637453E+03 -2.287651E+04
       422   2  1.339505E+06  1.129611E+05  1.027668E+05 -4.791721E+04  4.784808E+02 -2.832239E+04
       422   3  1.425457E+06  1.337950E+05  1.247966E+05 -6.215287E+04 -2.678227E+03 -3.370664E+04
       422   4  8.699104E+05 -1.334220E+02  3.750598E+03 -6.278910E+04 -2.547778E+03 -2.287975E+04
       422   5  8.696106E+05 -2.049718E+02  6.240991E+03 -4.838587E+04 -5.635330E+03 -2.832703E+04
       422   6  8.698838E+05  3.366028E+01  1.083839E+04 -6.278908E+04 -8.720198E+03 -3.371262E+04
       422   7  4.858174E+05 -9.272482E+04 -7.539829E+04 -6.309135E+04 -8.729253E+03 -2.288300E+04
       422   8  3.999255E+05 -1.133849E+05 -9.029644E+04 -4.885418E+04 -1.174460E+04 -2.833166E+04
       422   9  3.146030E+05 -1.337471E+05 -1.031361E+05 -6.342474E+04 -1.475687E+04 -3.371859E+04
       422  10  1.254143E+06  9.244813E+04  8.289068E+04 -6.248660E+04 -2.553009E-10  4.528199E-10
       422  11  1.339505E+06  1.129603E+05  1.027652E+05 -4.791720E+04 -1.565628E-09 -9.412081E-10
       422  12  1.425457E+06  1.337938E+05  1.247944E+05 -6.215294E+04  8.359839E-10 -2.174867E-11
       422  13  8.699102E+05 -1.339861E+02  3.749601E+03 -6.278915E+04  1.869413E-10  2.866782E-10
       422  14  8.696104E+05 -2.058424E+02  6.239423E+03 -4.838599E+04 -5.467671E-10 -2.867306E-10
       422  15  8.698834E+05  3.241893E+01  1.083611E+04 -6.278932E+04 -9.726398E-11 -6.262017E-10
       422  16  4.858172E+05 -9.272540E+04 -7.539942E+04 -6.309151E+04  3.644456E-10 -3.101437E-10
       422  17  3.999251E+05 -1.133858E+05 -9.029821E+04 -4.885445E+04 -4.425015E-11 -1.901178E-10
       422  18  3.146025E+05 -1.337483E+05 -1.031387E+05 -6.342514E+04 -7.139131E-10 -1.694819E-11
       422  19  1.254143E+06  9.244869E+04  8.289169E+04 -6.248666E+04 -3.637453E+03  2.287651E+04
       422  20  1.339505E+06  1.129611E+05  1.027668E+05 -4.791721E+04 -4.784808E+02  2.832239E+04
       422  21  1.425457E+06  1.337950E+05  1.247966E+05 -6.215287E+04  2.678227E+03  3.370664E+04
       422  22  8.699104E+05 -1.334220E+02  3.750598E+03 -6.278910E+04  2.547778E+03  2.287975E+04
       422  23  8.696106E+05 -2.049718E+02  6.240991E+03 -4.838587E+04  5.635330E+03  2.832703E+04
       422  24  8.698838E+05  3.366028E+01  1.083839E+04 -6.278908E+04  8.720198E+03  3.371262E+04
       422  25  4.858174E+05 -9.272482E+04 -7.539829E+04 -6.309135E+04  8.729253E+03  2.288300E+04
       422  26  3.999255E+05 -1.133849E+05 -9.029644E+04 -4.885418E+04  1.174460E+04  2.833166E+04
       422  27  3.146030E+05 -1.337471E+05 -1.031361E+05 -6.342474E+04  1.475687E+04  3.371859E+04
       423   1  1.489352E+06  1.484860E+05  1.415285E+05 -6.087711E+04 -4.525290E+03 -3.697104E+04
       423   2  1.573672E+06  1.697554E+05  1.697882E+05 -4.831324E+04 -1.838179E+04 -4.196865E+04
       423   3  1.661787E+06  1.982385E+05  2.088997E+05 -6.466056E+04 -3.223840E+04 -4.559764E+04
       423   4  8.705238E+05 -5.855213E+02  1.417941E+04 -6.281084E+04 -1.092754E+04 -3.697833E+04
       423   5  8.687392E+05 -6.866554E+01  2.461338E+04 -4.835782E+04 -2.322479E+04 -4.197670E+04
       423   6  8.704778E+05  7.397248E+03  4.482640E+04 -6.281773E+04 -3.552026E+04 -4.560578E+04
       423   7  2.520582E+05 -1.496811E+05 -1.131901E+05 -6.474266E+04 -1.732353E+04 -3.698558E+04
       423   8  1.642773E+05 -1.699240E+05 -1.205881E+05 -4.840244E+04 -2.806240E+04 -4.198475E+04
       423   9  7.975988E+04 -1.834837E+05 -1.192810E+05 -6.097740E+04 -3.879799E+04 -4.561393E+04
       423  10  1.489352E+06  1.484846E+05  1.415259E+05 -6.087725E+04  5.405720E-10 -4.919856E-10
       423  11  1.573671E+06  1.697534E+05  1.697843E+05 -4.831386E+04 -1.290163E-10 -1.095405E-09
       423  12  1.661786E+06  1.982360E+05  2.088938E+05 -6.466175E+04  1.276306E-09 -1.590335E-09
       423  13  8.705233E+05 -5.870223E+02  1.417661E+04 -6.281117E+04  1.974155E-10 -4.064282E-10
       423  14  8.687382E+05 -7.070306E+01  2.460905E+04 -4.835861E+04 -3.680695E-10 -9.694823E-10
       423  15  8.704759E+05  7.394676E+03  4.482012E+04 -6.281903E+04  2.284836E-10 -8.391103E-10
       423  16  2.520575E+05 -1.496827E+05 -1.131933E+05 -6.474318E+04 -1.400314E-10  3.110600E-11
       423  17  1.642760E+05 -1.699261E+05 -1.205929E+05 -4.840339E+04 -5.047161E-11  1.801437E-09
       423  18  7.975771E+04 -1.834863E+05 -1.192877E+05 -6.097882E+04 -7.536231E-10  4.015126E-10
       423  19  1.489352E+06  1.484860E+05  1.415285E+05 -6.087711E+04  4.525290E+03  3.697104E+04
       423  20  1.573672E+06  1.697554E+05  1.697882E+05 -4.831324E+04  1.838179E+04  4.196865E+04
       423  21  1.661787E+06  1.982385E+05  2.088997E+05 -6.466056E+04  3.223840E+04  4.559764E+04
       423  22  8.705238E+05 -5.855213E+02  1.417941E+04 -6.281084E+04  1.092754E+04  3.697833E+04
       423  23  8.687392E+05 -6.866554E+01  2.461338E+04 -4.835782E+04  2.322479E+04  4.197670E+04
       423  24  8.704778E+05  7.397248E+03  4.482640E+04 -6.281773E+04  3.552026E+04  4.560578E+04
       423  25  2.520582E+05 -1.496811E+05 -1.131901E+05 -6.474266E+04  1.732353E+04  3.698558E+04
       423  26  1.642773E+05 -1.699240E+05 -1.205881E+05 -4.840244E+04  2.806240E+04  4.198475E+04
       423  27  7.975988E+04 -1.834837E+05 -1.192810E+05 -6.097740E+04  3.879799E+04  4.561393E+04
       424   1  1.735498E+06  1.998607E+05  2.340294E+05 -3.834950E+04 -3.326732E+04 -5.013697E+04
       424   2  1.797632E+06  2.402241E+05  3.011848E+05 -8.488136E+04 -1.161773E+05 -4.575521E+04
       424   3  1.910167E+06  4.379913E+05  4.616337E+05 -1.594239E+05 -1.991532E+05 -1.450181E+04
       424   4  8.797256E+05 -6.477187E+03  5.718948E+04 -6.254748E+04 -4.334187E+04 -5.015319E+04
       424   5  8.570695E+05  1.227359E+04  9.991737E+04 -4.868779E+04 -9.581728E+04 -4.573741E+04
       424   6  8.795988E+05  1.832689E+05  2.149071E+05 -6.282900E+04 -1.483428E+05 -1.444772E+04
       424   7  2.464724E+04 -2.128591E+05 -1.196894E+05 -8.671178E+04 -5.340277E+04 -5.016864E+04
       424   8 -8.265911E+04 -2.157294E+05 -1.013991E+05 -1.254996E+04 -7.548752E+04 -4.571724E+04
       424   9 -1.499727E+05 -7.149349E+04 -3.187981E+04  3.360495E+04 -9.761606E+04 -1.437783E+04
       424  10  1.735496E+06  1.998577E+05  2.340226E+05 -3.835084E+04  1.412399E-09 -2.668181E-09
       424  11  1.797617E+06  2.402183E+05  3.011556E+05 -8.488564E+04 -3.062800E-09 -4.342840E-09
       424  12  1.910124E+06  4.379804E+05  4.615590E+05 -1.594262E+05 -2.412400E-09 -1.342841E-09
       424  13  8.797229E+05 -6.480393E+03  5.718123E+04 -6.254923E+04 -6.024197E-10 -6.332168E-09
       424  14  8.570591E+05  1.226888E+04  9.989620E+04 -4.869131E+04  7.793971E-11  2.528997E-09
       424  15  8.795752E+05  1.832628E+05  2.148654E+05 -6.283073E+04  3.558473E-10 -1.731691E-10
       424  16  2.464350E+04 -2.128626E+05 -1.196995E+05 -8.671394E+04 -1.265777E-09 -1.116680E-09
       424  17 -8.266579E+04 -2.157332E+05 -1.014138E+05 -1.255274E+04  9.797844E-10  1.548153E-09
       424  18 -1.499830E+05 -7.149627E+04 -3.189811E+04  3.360382E+04  2.746259E-09 -2.080468E-09
       424  19  1.735498E+06  1.998607E+05  2.340294E+05 -3.834950E+04  3.326732E+04  5.013697E+04
       424  20  1.797632E+06  2.402241E+05  3.011848E+05 -8.488136E+04  1.161773E+05  4.575521E+04
       424  21  1.910167E+06  4.379913E+05  4.616337E+05 -1.594239E+05  1.991532E+05  1.450181E+04
       424  22  8.797256E+05 -6.477187E+03  5.718948E+04 -6.254748E+04  4.334187E+04  5.015319E+04
       424  23  8.570695E+05  1.227359E+04  9.991737E+04 -4.868779E+04  9.581728E+04  4.573741E+04
       424  24  8.795988E+05  1.832689E+05  2.149071E+05 -6.282900E+04  1.483428E+05  1.444772E+04
       424  25  2.464724E+04 -2.128591E+05 -1.196894E+05 -8.671178E+04  5.340277E+04  5.016864E+04
       424  26 -8.265911E+04 -2.157294E+05 -1.013991E+05 -1.254996E+04  7.548752E+04  4.571724E+04
       424  27 -1.499727E+05 -7.149349E+04 -3.187981E+04  3.360495E+04  9.761606E+04  1.437783E+04
       425   1  2.884070E+05  1.388922E+05  1.183886E+05  3.942202E+03 -1.293711E+04 -1.259816E+04
       425   2  2.338896E+05  1.892233E+05  1.275786E+05  2.233086E+04 -1.902881E+04 -4.119534E+04
       425   3  1.664221E+05  1.843813E+05  1.269904E+05  5.761163E+04 -2.516320E+04 -4.713274E+04
       425   4 -5.951482E+05 -7.972927E+04 -9.207512E+04  4.748250E+04 -6.366604E+04 -1.270357E+04
       425   5 -5.861308E+05 -8.904517E+03 -4.336340E+04  3.894394E+04 -4.094364E+04 -4.124887E+04
       425   6 -5.950941E+05  1.700436E+03 -2.446262E+04  4.729989E+04 -1.826391E+04 -4.712026E+04
       425   7 -1.477977E+06 -2.983984E+05 -3.025829E+05  9.096018E+04 -1.143231E+05 -1.281617E+04
       425   8 -1.405513E+06 -2.070738E+05 -2.143405E+05  5.553434E+04 -6.283000E+04 -4.130361E+04
       425   9 -1.356056E+06 -1.810155E+05 -1.759443E+05  3.700071E+04 -1.137289E+04 -4.710800E+04
       425  10  2.884067E+05  1.388920E+05  1.183880E+05  3.942070E+03  2.911175E-09 -1.303822E-09
       425  11  2.338888E+05  1.892213E+05  1.275748E+05  2.233023E+04  1.574570E-09 -5.293843E-09
       425  12  1.664208E+05  1.843787E+05  1.269850E+05  5.761068E+04  4.449686E-10 -4.186764E-09
       425  13 -5.951526E+05 -7.973053E+04 -9.208305E+04  4.748185E+04 -1.947154E-10  1.534483E-09
       425  14 -5.861331E+05 -8.906795E+03 -4.336975E+04  3.894257E+04 -6.442431E-11 -3.018115E-09
       425  15 -5.950950E+05  1.697962E+03 -2.446742E+04  4.729920E+04  1.585626E-09 -7.898774E-11
       425  16 -1.477991E+06 -2.984021E+05 -3.026078E+05  9.095900E+04 -2.079392E-09  6.913254E-10
       425  17 -1.405518E+06 -2.070767E+05 -2.143512E+05  5.553225E+04  2.011923E-10 -5.920075E-09
       425  18 -1.356056E+06 -1.810179E+05 -1.759487E+05  3.700028E+04 -1.551030E-09 -7.012269E-09
       425  19  2.884070E+05  1.388922E+05  1.183886E+05  3.942202E+03  1.293711E+04  1.259816E+04
       425  20  2.338896E+05  1.892233E+05  1.275786E+05  2.233086E+04  1.902881E+04  4.119534E+04
       425  21  1.664221E+05  1.843813E+05  1.269904E+05  5.761163E+04  2.516320E+04  4.713274E+04
       425  22 -5.951482E+05 -7.972927E+04 -9.207512E+04  4.748250E+04  6.366604E+04  1.270357E+04
       425  23 -5.861308E+05 -8.904517E+03 -4.336340E+04  3.894394E+04  4.094364E+04  4.124887E+04
       425  24 -5.950941E+05  1.700436E+03 -2.446262E+04  4.729989E+04  1.826391E+04  4.712026E+04
       425  25 -1.477977E+06 -2.983984E+05 -3.025829E+05  9.096018E+04  1.143231E+05  1.281617E+04
       425  26 -1.405513E+06 -2.070738E+05 -2.143405E+05  5.553434E+04  6.283000E+04  4.130361E+04
       425  27 -1.356056E+06 -1.810155E+05 -1.759443E+05  3.700071E+04  1.137289E+04  4.710800E+04
       426   1  1.265139E+05  1.693018E+05  1.239430E+05  4.801801E+04 -1.692471E+04 -4.419600E+04
       426   2  6.599450E+04  1.572558E+05  1.189820E+05  3.968979E+04 -1.342174E+04 -4.199514E+04
       426   3  4.432929E+03  1.430126E+05  1.111841E+05  4.954892E+04 -9.924679E+03 -3.843168E+04
       426   4 -5.913877E+05 -2.900714E+03 -1.901163E+04  4.762626E+04 -1.499069E+04 -4.419523E+04
       426   5 -5.907004E+05 -1.594766E+01 -1.049056E+04  3.852752E+04 -9.759578E+03 -4.198890E+04
       426   6 -5.913598E+05  3.701132E+02 -6.009675E+03  4.761736E+04 -4.533994E+03 -3.841930E+04
       426   7 -1.308797E+06 -1.751348E+05 -1.619920E+05  4.723465E+04 -1.305886E+04 -4.419446E+04
       426   8 -1.246982E+06 -1.573138E+05 -1.399842E+05  3.736623E+04 -6.101201E+03 -4.198268E+04
       426   9 -1.186812E+06 -1.422938E+05 -1.232206E+05  4.568745E+04  8.516281E+02 -3.840694E+04
       426  10  1.265131E+05  1.692996E+05  1.239388E+05  4.801740E+04 -5.358457E-09 -5.019166E-09
       426  11  6.599383E+04  1.572538E+05  1.189784E+05  3.968934E+04 -2.265374E-09  3.355226E-09
       426  12  4.432427E+03  1.430109E+05  1.111811E+05  4.954861E+04 -1.745212E-09  3.794388E-09
       426  13 -5.913885E+05 -2.902871E+03 -1.901572E+04  4.762572E+04  2.380520E-11 -3.439009E-09
       426  14 -5.907010E+05 -1.786595E+01 -1.049405E+04  3.852719E+04 -6.929194E-11  3.629790E-10
       426  15 -5.913602E+05  3.685231E+02 -6.012487E+03  4.761722E+04  2.729817E-09 -2.154216E-09
       426  16 -1.308797E+06 -1.751369E+05 -1.619960E+05  4.723419E+04  6.026832E-09 -7.040633E-10
       426  17 -1.246983E+06 -1.573157E+05 -1.399875E+05  3.736602E+04  3.326478E-09  2.723672E-09
       426  18 -1.186813E+06 -1.422954E+05 -1.232234E+05  4.568748E+04 -1.738289E-11  1.216736E-09
       426  19  1.265139E+05  1.693018E+05  1.239430E+05  4.801801E+04  1.692471E+04  4.419600E+04
       426  20  6.599450E+04  1.572558E+05  1.189820E+05  3.968979E+04  1.342174E+04  4.199514E+04
       426  21  4.432929E+03  1.430126E+05  1.111841E+05  4.954892E+04  9.924679E+03  3.843168E+04
       426  22 -5.913877E+05 -2.900714E+03 -1.901163E+04  4.762626E+04  1.499069E+04  4.419523E+04
       426  23 -5.907004E+05 -1.594766E+01 -1.049056E+04  3.852752E+04  9.759578E+03  4.198890E+04
       426  24 -5.913598E+05  3.701132E+02 -6.009675E+03  4.761736E+04  4.533994E+03  3.841930E+04
       426  25 -1.308797E+06 -1.751348E+05 -1.619920E+05  4.723465E+04  1.305886E+04  4.419446E+04
       426  26 -1.246982E+06 -1.573138E+05 -1.399842E+05  3.736623E+04  6.101201E+03  4.198268E+04
       426  27 -1.186812E+06 -1.422938E+05 -1.232206E+05  4.568745E+04 -8.516281E+02  3.840694E+04
       427   1 -3.841761E+04  1.324537E+05  1.038672E+05  4.906398E+04 -8.705985E+03 -3.597556E+04
       427   2 -9.960176E+04  1.178535E+05  9.384340E+04  3.974806E+04 -7.524260E+03 -3.192074E+04
       427   3 -1.610245E+05  1.032707E+05  8.303115E+04  4.877264E+04 -6.344812E+03 -2.777912E+04
       427   4 -5.911085E+05  1.834026E+02 -4.582244E+03  4.765332E+04 -3.605736E+03 -3.596322E+04
       427   5 -5.909679E+05  2.443231E+02 -2.629678E+03  3.848247E+04 -2.314887E+03 -3.190694E+04
       427   6 -5.910888E+05  3.036521E+02 -1.542020E+03  4.765297E+04 -1.026201E+03 -2.776383E+04
       427   7 -1.143506E+06 -1.321053E+05 -1.130463E+05  4.624373E+04  1.490071E+03 -3.595088E+04
       427   8 -1.082102E+06 -1.173794E+05 -9.911434E+04  3.721771E+04  2.890452E+03 -3.189316E+04
       427   9 -1.020976E+06 -1.026745E+05 -8.612407E+04  4.653394E+04  4.288804E+03 -2.774855E+04
       427  10 -3.841804E+04  1.324523E+05  1.038646E+05  4.906373E+04 -2.486083E-09  5.604563E-09
       427  11 -9.960209E+04  1.178524E+05  9.384138E+04  3.974787E+04  7.140470E-10  4.291224E-09
       427  12 -1.610247E+05  1.032698E+05  8.302962E+04  4.877250E+04  3.105139E-09  1.133937E-09
       427  13 -5.911088E+05  1.820106E+02 -4.584698E+03  4.765322E+04  5.782201E-10 -3.157332E-09
       427  14 -5.909682E+05  2.432288E+02 -2.631601E+03  3.848241E+04  3.234123E-10  4.978826E-09
       427  15 -5.910890E+05  3.028243E+02 -1.543470E+03  4.765295E+04  2.537808E-09  6.679270E-09
       427  16 -1.143507E+06 -1.321067E+05 -1.130488E+05  4.624377E+04  4.337397E-09  3.058725E-09
       427  17 -1.082103E+06 -1.173805E+05 -9.911627E+04  3.721779E+04  1.309199E-09  5.758647E-09
       427  18 -1.020976E+06 -1.026754E+05 -8.612555E+04  4.653404E+04 -4.772642E-09  1.753384E-09
       427  19 -3.841761E+04  1.324537E+05  1.038672E+05  4.906398E+04  8.705985E+03  3.597556E+04
       427  20 -9.960176E+04  1.178535E+05  9.384340E+04  3.974806E+04  7.524260E+03  3.192074E+04
       427  21 -1.610245E+05  1.032707E+05  8.303115E+04  4.877264E+04  6.344812E+03  2.777912E+04
       427  22 -5.911085E+05  1.834026E+02 -4.582244E+03  4.765332E+04  3.605736E+03  3.596322E+04
       427  23 -5.909679E+05  2.443231E+02 -2.629678E+03  3.848247E+04  2.314887E+03  3.190694E+04
       427  24 -5.910888E+05  3.036521E+02 -1.542020E+03  4.765297E+04  1.026201E+03  2.776383E+04
       427  25 -1.143506E+06 -1.321053E+05 -1.130463E+05  4.624373E+04 -1.490071E+03  3.595088E+04
       427  26 -1.082102E+06 -1.173794E+05 -9.911434E+04  3.721771E+04 -2.890452E+03  3.189316E+04
       427  27 -1.020976E+06 -1.026745E+05 -8.612407E+04  4.653394E+04 -4.288804E+03  2.774855E+04
       428   1 -2.042138E+05  9.286489E+04  7.458086E+04  4.866869E+04 -6.091290E+03 -2.534424E+04
       428   2 -2.656414E+05  7.812984E+04  6.308730E+04  3.930631E+04 -5.732584E+03 -2.116674E+04
       428   3 -3.272119E+05  6.351115E+04  5.135617E+04  4.834765E+04 -5.375228E+03 -1.698070E+04
       428   4 -5.910566E+05  3.024154E+02 -1.200942E+03  4.766705E+04 -7.852791E+02 -2.532841E+04
       428   5 -5.909755E+05  2.570862E+02 -7.723532E+02  3.846488E+04 -4.162070E+02 -2.115011E+04
       428   6 -5.910437E+05  3.262357E+02 -5.889301E+02  4.766700E+04 -4.844986E+01 -1.696327E+04
       428   7 -9.777558E+05 -9.226906E+04 -7.698985E+04  4.666593E+04  4.517497E+03 -2.531259E+04
       428   8 -9.162080E+05 -7.762204E+04 -6.463703E+04  3.762382E+04  4.897443E+03 -2.113350E+04
       428   9 -8.548088E+05 -6.286288E+04 -5.253731E+04  4.698658E+04  5.276112E+03 -1.694584E+04
       428  10 -2.042140E+05  9.286419E+04  7.457959E+04  4.866857E+04  1.683326E-09  1.669404E-09
       428  11 -2.656415E+05  7.812935E+04  6.308640E+04  3.930621E+04 -1.151676E-09  1.025871E-08
       428  12 -3.272120E+05  6.351084E+04  5.135557E+04  4.834758E+04 -5.119158E-09  7.363883E-09
       428  13 -5.910568E+05  3.017265E+02 -1.202149E+03  4.766704E+04  1.032615E-11  1.550343E-09
       428  14 -5.909756E+05  2.566059E+02 -7.731939E+02  3.846487E+04 -3.855408E-10  9.529364E-09
       428  15 -5.910438E+05  3.259268E+02 -5.894707E+02  4.766700E+04  3.092738E-09  2.201922E-09
       428  16 -9.777560E+05 -9.226976E+04 -7.699109E+04  4.666603E+04 -3.307130E-11  2.095403E-09
       428  17 -9.162081E+05 -7.762253E+04 -6.463791E+04  3.762390E+04  2.611872E-09  1.408313E-09
       428  18 -8.548089E+05 -6.286320E+04 -5.253791E+04  4.698665E+04  3.061935E-09 -8.364558E-10
       428  19 -2.042138E+05  9.286489E+04  7.458086E+04  4.866869E+04  6.091290E+03  2.534424E+04
       428  20 -2.656414E+05  7.812984E+04  6.308730E+04  3.930631E+04  5.732584E+03  2.116674E+04
       428  21 -3.272119E+05  6.351115E+04  5.135617E+04  4.834765E+04  5.375228E+03  1.698070E+04
       428  22 -5.910566E+05  3.024154E+02 -1.200942E+03  4.766705E+04  7.852791E+02  2.532841E+04
       428  23 -5.909755E+05  2.570862E+02 -7.723532E+02  3.846488E+04  4.162070E+02  2.115011E+04
       428  24 -5.910437E+05  3.262357E+02 -5.889301E+02  4.766700E+04  4.844986E+01  1.696327E+04
       428  25 -9.777558E+05 -9.226906E+04 -7.698985E+04  4.666593E+04 -4.517497E+03  2.531259E+04
       428  26 -9.162080E+05 -7.762204E+04 -6.463703E+04  3.762382E+04 -4.897443E+03  2.113350E+04
       428  27 -8.548088E+05 -6.286288E+04 -5.253731E+04  4.698658E+04 -5.276112E+03  1.694584E+04
       429   1 -3.705378E+05  5.308291E+04  4.255855E+04  4.824371E+04 -5.280464E+03 -1.454129E+04
       429   2 -4.320696E+05  3.831768E+04  3.052290E+04  3.884266E+04 -4.964679E+03 -1.034869E+04
       429   3 -4.937621E+05  2.367062E+04  1.827177E+04  4.788480E+04 -4.649548E+03 -6.156212E+03
       429   4 -5.910425E+05  3.302999E+02 -5.706293E+02  4.767570E+04  4.873392E+01 -1.452350E+04
       429   5 -5.909577E+05  2.825653E+02 -6.664078E+02  3.845394E+04  3.640721E+02 -1.033053E+04
       429   6 -5.910363E+05  3.535060E+02 -9.771353E+02  4.767564E+04  6.787877E+02 -6.137676E+03
       429   7 -8.115005E+05 -5.242523E+04 -4.370204E+04  4.710786E+04  5.376079E+03 -1.450572E+04
       429   8 -7.498216E+05 -3.775406E+04 -3.185683E+04  3.806530E+04  5.691488E+03 -1.031238E+04
       429   9 -6.883014E+05 -2.296417E+04 -2.022640E+04  4.746650E+04  6.006306E+03 -6.119142E+03
       429  10 -3.705379E+05  5.308268E+04  4.255810E+04  4.824364E+04 -3.533354E-08 -1.482404E-09
       429  11 -4.320697E+05  3.831756E+04  3.052266E+04  3.884262E+04  2.611713E-09 -5.989106E-09
       429  12 -4.937622E+05  2.367057E+04  1.827166E+04  4.788478E+04  3.956563E-08 -5.754481E-09
       429  13 -5.910426E+05  3.300735E+02 -5.710256E+02  4.767570E+04 -4.422056E-10  7.578044E-09
       429  14 -5.909578E+05  2.824507E+02 -6.666086E+02  3.845395E+04 -6.284517E-11 -2.710057E-09
       429  15 -5.910363E+05  3.534654E+02 -9.772069E+02  4.767564E+04  2.983738E-09 -4.144290E-09
       429  16 -8.115006E+05 -5.242546E+04 -4.370249E+04  4.710792E+04  3.688080E-08  1.836112E-09
       429  17 -7.498216E+05 -3.775418E+04 -3.185709E+04  3.806535E+04 -8.379479E-10 -3.777489E-09
       429  18 -6.883015E+05 -2.296422E+04 -2.022654E+04  4.746653E+04 -4.159663E-08 -4.898614E-09
       429  19 -3.705378E+05  5.308291E+04  4.255855E+04  4.824371E+04  5.280464E+03  1.454129E+04
       429  20 -4.320696E+05  3.831768E+04  3.052290E+04  3.884266E+04  4.964679E+03  1.034869E+04
       429  21 -4.937621E+05  2.367062E+04  1.827177E+04  4.788480E+04  4.649548E+03  6.156212E+03
       429  22 -5.910425E+05  3.302999E+02 -5.706293E+02  4.767570E+04 -4.873392E+01  1.452350E+04
       429  23 -5.909577E+05  2.825653E+02 -6.664078E+02  3.845394E+04 -3.640721E+02  1.033053E+04
       429  24 -5.910363E+05  3.535060E+02 -9.771353E+02  4.767564E+04 -6.787877E+02  6.137676E+03
       429  25 -8.115005E+05 -5.242523E+04 -4.370204E+04  4.710786E+04 -5.376079E+03  1.450572E+04
       429  26 -7.498216E+05 -3.775406E+04 -3.185683E+04  3.806530E+04 -5.691488E+03  1.031238E+04
       429  27 -6.883014E+05 -2.296417E+04 -2.022640E+04  4.746650E+04 -6.006306E+03  6.119142E+03
       430   1 -5.371630E+05  1.323212E+04  9.183726E+03  4.774867E+04 -4.466788E+03 -3.712431E+03
       430   2 -5.986631E+05 -1.540572E+03 -3.613235E+03  3.832028E+04 -3.405589E+03  4.712747E+02
       430   3 -6.604508E+05 -1.628963E+04 -1.713679E+04  4.734359E+04 -2.344336E+03  4.616957E+03
       430   4 -5.910615E+05  3.612132E+02 -1.238128E+03  4.767737E+04  8.706326E+02 -3.693755E+03
       430   5 -5.909205E+05  3.174198E+02 -2.076202E+03  3.845165E+04  1.883277E+03  4.897571E+02
       430   6 -5.910622E+05  3.059123E+02 -3.607052E+03  4.767759E+04  2.896079E+03  4.635257E+03
       430   7 -6.449572E+05 -1.250985E+04 -1.166001E+04  4.760608E+04  6.207600E+03 -3.675080E+03
       430   8 -5.831777E+05  2.175423E+03 -5.390673E+02  3.858302E+04  7.172208E+03  5.082416E+02
       430   9 -5.216689E+05  1.690118E+04  9.922558E+03  4.801162E+04  8.137067E+03  4.653562E+03
       430  10 -5.371631E+05  1.323210E+04  9.183663E+03  4.774865E+04 -8.760854E-11  2.431927E-09
       430  11 -5.986632E+05 -1.540575E+03 -3.613258E+03  3.832028E+04 -1.077385E-09  1.090657E-09
       430  12 -6.604508E+05 -1.628965E+04 -1.713684E+04  4.734360E+04 -3.140674E-09  5.501264E-09
       430  13 -5.910615E+05  3.611984E+02 -1.238156E+03  4.767738E+04  5.962342E-11 -2.182455E-10
       430  14 -5.909205E+05  3.174186E+02 -2.076210E+03  3.845165E+04 -2.535457E-10  3.370854E-09
       430  15 -5.910622E+05  3.058870E+02 -3.607108E+03  4.767758E+04  3.066280E-09  4.016655E-09
       430  16 -6.449572E+05 -1.250988E+04 -1.166011E+04  4.760610E+04  1.630900E-09  2.681497E-09
       430  17 -5.831778E+05  2.175409E+03 -5.391645E+02  3.858302E+04  3.548899E-09 -7.994167E-09
       430  18 -5.216690E+05  1.690114E+04  9.922393E+03  4.801159E+04  1.224341E-09 -1.116940E-09
       430  19 -5.371630E+05  1.323212E+04  9.183726E+03  4.774867E+04  4.466788E+03  3.712431E+03
       430  20 -5.986631E+05 -1.540572E+03 -3.613235E+03  3.832028E+04  3.405589E+03 -4.712747E+02
       430  21 -6.604508E+05 -1.628963E+04 -1.713679E+04  4.734359E+04  2.344336E+03 -4.616957E+03
       430  22 -5.910615E+05  3.612132E+02 -1.238128E+03  4.767737E+04 -8.706326E+02  3.693755E+03
       430  23 -5.909205E+05  3.174198E+02 -2.076202E+03  3.845165E+04 -1.883277E+03 -4.897571E+02
       430  24 -5.910622E+05  3.059123E+02 -3.607052E+03  4.767759E+04 -2.896079E+03 -4.635257E+03
       430  25 -6.449572E+05 -1.250985E+04 -1.166001E+04  4.760608E+04 -6.207600E+03  3.675080E+03
       430  26 -5.831777E+05  2.175423E+03 -5.390673E+02  3.858302E+04 -7.172208E+03 -5.082416E+02
       430  27 -5.216689E+05  1.690118E+04  9.922558E+03  4.801162E+04 -8.137067E+03 -4.653562E+03
       431   1 -7.040343E+05 -2.658825E+04 -2.707894E+04  4.685749E+04 -1.755922E+03  7.075613E+03
       431   2 -7.649861E+05 -4.163578E+04 -4.274374E+04  3.814228E+04  3.150689E+03  1.100553E+04
       431   3 -8.272407E+05 -5.875202E+04 -6.216155E+04  4.783489E+04  8.059481E+03  1.429752E+04
       431   4 -5.912601E+05  4.588640E+02 -4.727958E+03  4.766579E+04  3.622696E+03  7.094265E+03
       431   5 -5.906815E+05  1.538662E+02 -8.238421E+03  3.846638E+04  7.719449E+03  1.102099E+04
       431   6 -5.912690E+05 -2.078662E+03 -1.493837E+04  4.767453E+04  1.181887E+04  1.430987E+04
       431   7 -4.784737E+05  2.750522E+04  1.762251E+04  4.847422E+04  9.002271E+03  7.112930E+03
       431   8 -4.163477E+05  4.194168E+04  2.626548E+04  3.879055E+04  1.228946E+04  1.103645E+04
       431   9 -3.552440E+05  5.459128E+04  3.228205E+04  4.751407E+04  1.557965E+04  1.432222E+04
       431  10 -7.040344E+05 -2.658830E+04 -2.707904E+04  4.685750E+04 -3.211398E-09  1.091255E-08
       431  11 -7.649861E+05 -4.163592E+04 -4.274399E+04  3.814226E+04  1.492339E-09  1.645531E-09
       431  12 -8.272409E+05 -5.875225E+04 -6.216206E+04  4.783480E+04  5.209167E-09  5.597249E-09
       431  13 -5.912602E+05  4.588065E+02 -4.728077E+03  4.766577E+04  3.440421E-11  5.861866E-09
       431  14 -5.906816E+05  1.537198E+02 -8.238761E+03  3.846632E+04 -4.781433E-11  3.154071E-09
       431  15 -5.912692E+05 -2.078920E+03 -1.493902E+04  4.767440E+04  3.004252E-09 -3.631089E-09
       431  16 -4.784738E+05  2.750514E+04  1.762226E+04  4.847417E+04  5.060594E-09  2.626926E-09
       431  17 -4.163479E+05  4.194150E+04  2.626497E+04  3.879044E+04  6.882038E-10  7.112403E-12
       431  18 -3.552443E+05  5.459099E+04  3.228121E+04  4.751389E+04 -7.185270E-09 -7.488101E-09
       431  19 -7.040343E+05 -2.658825E+04 -2.707894E+04  4.685749E+04  1.755922E+03 -7.075613E+03
       431  20 -7.649861E+05 -4.163578E+04 -4.274374E+04  3.814228E+04 -3.150689E+03 -1.100553E+04
       431  21 -8.272407E+05 -5.875202E+04 -6.216155E+04  4.783489E+04 -8.059481E+03 -1.429752E+04
       431  22 -5.912601E+05  4.588640E+02 -4.727958E+03  4.766579E+04 -3.622696E+03 -7.094265E+03
       431  23 -5.906815E+05  1.538662E+02 -8.238421E+03  3.846638E+04 -7.719449E+03 -1.102099E+04
       431  24 -5.912690E+05 -2.078662E+03 -1.493837E+04  4.767453E+04 -1.181887E+04 -1.430987E+04
       431  25 -4.784737E+05  2.750522E+04  1.762251E+04  4.847422E+04 -9.002271E+03 -7.112930E+03
       431  26 -4.163477E+05  4.194168E+04  2.626548E+04  3.879055E+04 -1.228946E+04 -1.103645E+04
       431  27 -3.552440E+05  5.459128E+04  3.228205E+04  4.751407E+04 -1.557965E+04 -1.432222E+04
       432   1 -8.737903E+05 -6.566896E+04 -7.516112E+04  3.979446E+04  8.298834E+03  1.697531E+04
       432   2 -9.271852E+05 -8.907482E+04 -1.055499E+05  5.196921E+04  3.961189E+04  1.654764E+04
       432   3 -9.972091E+05 -1.621665E+05 -1.687900E+05  8.202061E+04  7.095497E+04  5.479305E+03
       432   4 -5.941840E+05  1.545972E+03 -1.922227E+04  4.751245E+04  1.438736E+04  1.699529E+04
       432   5 -5.870630E+05 -6.801768E+03 -3.406235E+04  3.867775E+04  3.218741E+04  1.652171E+04
       432   6 -5.942160E+05 -6.247309E+04 -7.235214E+04  4.772134E+04  5.002096E+04  5.407976E+03
       432   7 -3.145027E+05  6.875632E+04  3.671280E+04  5.523392E+04  2.047857E+04  1.701542E+04
       432   8 -2.468308E+05  7.546457E+04  3.741901E+04  2.537880E+04  2.475892E+04  1.649610E+04
       432   9 -1.910703E+05  3.721331E+04  2.407658E+04  1.339957E+04  2.907339E+04  5.338987E+03
       432  10 -8.737905E+05 -6.566929E+04 -7.516179E+04  3.979435E+04 -2.139696E-09  2.066636E-09
       432  11 -9.271869E+05 -8.907553E+04 -1.055533E+05  5.196868E+04 -3.992238E-10  1.728257E-10
       432  12 -9.972145E+05 -1.621679E+05 -1.687995E+05  8.202030E+04 -3.956053E-10  2.796965E-09
       432  13 -5.941843E+05  1.545606E+03 -1.922320E+04  4.751225E+04 -4.162938E-10  4.482854E-09
       432  14 -5.870642E+05 -6.802340E+03 -3.406481E+04  3.867732E+04  4.805480E-10 -7.758283E-09
       432  15 -5.942187E+05 -6.247380E+04 -7.235690E+04  4.772112E+04  2.506353E-09  2.285462E-09
       432  16 -3.145033E+05  6.875590E+04  3.671147E+04  5.523364E+04  3.599385E-09  9.796860E-10
       432  17 -2.468315E+05  7.546411E+04  3.741734E+04  2.537847E+04  2.276451E-09  2.307022E-09
       432  18 -1.910713E+05  3.721305E+04  2.407493E+04  1.339944E+04 -1.469800E-09 -2.099846E-09
       432  19 -8.737903E+05 -6.566896E+04 -7.516112E+04  3.979446E+04 -8.298834E+03 -1.697531E+04
       432  20 -9.271852E+05 -8.907482E+04 -1.055499E+05  5.196921E+04 -3.961189E+04 -1.654764E+04
       432  21 -9.972091E+05 -1.621665E+05 -1.687900E+05  8.202061E+04 -7.095497E+04 -5.479305E+03
       432  22 -5.941840E+05  1.545972E+03 -1.922227E+04  4.751245E+04 -1.438736E+04 -1.699529E+04
       432  23 -5.870630E+05 -6.801768E+03 -3.406235E+04  3.867775E+04 -3.218741E+04 -1.652171E+04
       432  24 -5.942160E+05 -6.247309E+04 -7.235214E+04  4.772134E+04 -5.002096E+04 -5.407976E+03
       432  25 -3.145027E+05  6.875632E+04  3.671280E+04  5.523392E+04 -2.047857E+04 -1.701542E+04
       432  26 -2.468308E+05  7.546457E+04  3.741901E+04  2.537880E+04 -2.475892E+04 -1.649610E+04
       432  27 -1.910703E+05  3.721331E+04  2.407658E+04  1.339957E+04 -2.907339E+04 -5.338987E+03
       433   1 -1.154082E+05  4.289167E+04  3.624693E+04  4.638692E+03 -7.287781E+03 -3.810800E+03
       433   2 -1.387068E+05  5.905724E+04  3.964267E+04  8.889826E+03 -8.093469E+03 -1.214331E+04
       433   3 -1.669108E+05  5.536921E+04  3.860704E+04  2.142548E+04 -8.921781E+03 -1.321262E+04
       433   4 -3.920363E+05 -2.562358E+04 -3.012624E+04  1.767813E+04 -2.077214E+04 -3.853517E+03
       433   5 -3.888662E+05 -1.681426E+03 -1.400879E+04  1.349304E+04 -1.338833E+04 -1.216075E+04
       433   6 -3.920271E+05  9.801816E+02 -8.013859E+03  1.759286E+04 -6.027083E+03 -1.320344E+04
       433   7 -6.685935E+05 -9.414363E+04 -9.650405E+04  3.071169E+04 -3.425051E+04 -3.896810E+03
       433   8 -6.389666E+05 -6.242409E+04 -6.766377E+04  1.809434E+04 -1.868109E+04 -1.217827E+04
       433   9 -6.170952E+05 -5.341200E+04 -5.463748E+04  1.376162E+04 -3.133418E+03 -1.319430E+04
       433  10 -1.154082E+05  4.289164E+04  3.624680E+04  4.638670E+03 -5.820463E-09 -1.024872E-09
       433  11 -1.387069E+05  5.905706E+04  3.964227E+04  8.889747E+03 -3.149467E-09  7.566115E-09
       433  12 -1.669110E+05  5.536900E+04  3.860657E+04  2.142538E+04  7.188386E-09  3.558751E-09
       433  13 -3.920368E+05 -2.562371E+04 -3.012708E+04  1.767807E+04  1.994639E-09 -2.838558E-09
       433  14 -3.888664E+05 -1.681633E+03 -1.400940E+04  1.349291E+04 -8.227172E-11 -1.781823E-08
       433  15 -3.920271E+05  9.799846E+02 -8.014255E+03  1.759280E+04  7.925666E-10  6.221780E-10
       433  16 -6.685948E+05 -9.414396E+04 -9.650629E+04  3.071158E+04  6.660772E-09 -1.299210E-09
       433  17 -6.389670E+05 -6.242434E+04 -6.766471E+04  1.809415E+04  4.637874E-10  6.049923E-09
       433  18 -6.170953E+05 -5.341219E+04 -5.463783E+04  1.376159E+04 -6.252493E-09 -1.279294E-09
       433  19 -1.154082E+05  4.289167E+04  3.624693E+04  4.638692E+03  7.287781E+03  3.810800E+03
       433  20 -1.387068E+05  5.905724E+04  3.964267E+04  8.889826E+03  8.093469E+03  1.214331E+04
       433  21 -1.669108E+05  5.536921E+04  3.860704E+04  2.142548E+04  8.921781E+03  1.321262E+04
       433  22 -3.920363E+05 -2.562358E+04 -3.012624E+04  1.767813E+04  2.077214E+04  3.853517E+03
       433  23 -3.888662E+05 -1.681426E+03 -1.400879E+04  1.349304E+04  1.338833E+04  1.216075E+04
       433  24 -3.920271E+05  9.801816E+02 -8.013859E+03  1.759286E+04  6.027083E+03  1.320344E+04
       433  25 -6.685935E+05 -9.414363E+04 -9.650405E+04  3.071169E+04  3.425051E+04  3.896810E+03
       433  26 -6.389666E+05 -6.242409E+04 -6.766377E+04  1.809434E+04  1.868109E+04  1.217827E+04
       433  27 -6.170952E+05 -5.341200E+04 -5.463748E+04  1.376162E+04  3.133418E+03  1.319430E+04
       434   1 -1.847278E+05  4.881329E+04  3.651818E+04  1.785606E+04 -6.003050E+03 -1.188981E+04
       434   2 -2.102273E+05  4.357142E+04  3.373893E+04  1.376430E+04 -4.704075E+03 -1.075288E+04
       434   3 -2.361716E+05  3.748276E+04  2.988723E+04  1.831051E+04 -3.406693E+03 -9.240652E+03
       434   4 -3.907346E+05 -9.604942E+02 -6.282878E+03  1.769212E+04 -4.936241E+03 -1.188658E+04
       434   5 -3.904732E+05  7.069194E+01 -3.452827E+03  1.337113E+04 -3.214569E+03 -1.074811E+04
       434   6 -3.907312E+05  1.814036E+02 -1.989287E+03  1.768828E+04 -1.494443E+03 -9.234300E+03
       434   7 -5.967013E+05 -5.073697E+04 -4.908626E+04  1.752820E+04 -3.869781E+03 -1.188335E+04
       434   8 -5.706883E+05 -4.343209E+04 -4.064633E+04  1.297805E+04 -1.725487E+03 -1.074335E+04
       434   9 -5.452680E+05 -3.712146E+04 -3.386708E+04  1.706619E+04  4.173403E+02 -9.227950E+03
       434  10 -1.847278E+05  4.881312E+04  3.651785E+04  1.785601E+04  1.648066E-08 -1.365656E-09
       434  11 -2.102274E+05  4.357129E+04  3.373867E+04  1.376426E+04  1.353919E-08  4.801391E-09
       434  12 -2.361717E+05  3.748266E+04  2.988705E+04  1.831048E+04  1.472725E-08  8.507983E-09
       434  13 -3.907347E+05 -9.606524E+02 -6.283189E+03  1.769207E+04  1.438825E-09  9.822217E-09
       434  14 -3.904733E+05  7.056514E+01 -3.453064E+03  1.337110E+04  2.361743E-11 -1.956602E-08
       434  15 -3.907312E+05  1.813115E+02 -1.989452E+03  1.768827E+04  1.669875E-10  1.087523E-08
       434  16 -5.967014E+05 -5.073713E+04 -4.908655E+04  1.752816E+04 -1.489504E-08 -7.514377E-09
       434  17 -5.706883E+05 -4.343222E+04 -4.064655E+04  1.297803E+04 -1.566492E-08 -1.322914E-09
       434  18 -5.452681E+05 -3.712155E+04 -3.386724E+04  1.706619E+04 -1.445518E-08  7.245051E-09
       434  19 -1.847278E+05  4.881329E+04  3.651818E+04  1.785606E+04  6.003050E+03  1.188981E+04
       434  20 -2.102273E+05  4.357142E+04  3.373893E+04  1.376430E+04  4.704075E+03  1.075288E+04
       434  21 -2.361716E+05  3.748276E+04  2.988723E+04  1.831051E+04  3.406693E+03  9.240652E+03
       434  22 -3.907346E+05 -9.604942E+02 -6.282878E+03  1.769212E+04  4.936241E+03  1.188658E+04
       434  23 -3.904732E+05  7.069194E+01 -3.452827E+03  1.337113E+04  3.214569E+03  1.074811E+04
       434  24 -3.907312E+05  1.814036E+02 -1.989287E+03  1.768828E+04  1.494443E+03  9.234300E+03
       434  25 -5.967013E+05 -5.073697E+04 -4.908626E+04  1.752820E+04  3.869781E+03  1.188335E+04
       434  26 -5.706883E+05 -4.343209E+04 -4.064633E+04  1.297805E+04  1.725487E+03  1.074335E+04
       434  27 -5.452680E+05 -3.712146E+04 -3.386708E+04  1.706619E+04 -4.173403E+02  9.227950E+03
       435   1 -2.550529E+05  3.279672E+04  2.632689E+04  1.810061E+04 -3.007101E+03 -8.261422E+03
       435   2 -2.807670E+05  2.660150E+04  2.171132E+04  1.368469E+04 -2.597191E+03 -6.636609E+03
       435   3 -3.066024E+05  2.042290E+04  1.681503E+04  1.794623E+04 -2.187550E+03 -4.991589E+03
       435   4 -3.906425E+05  9.712614E+01 -1.523714E+03  1.769802E+04 -1.187716E+03 -8.255308E+03
       435   5 -3.905788E+05  1.101625E+02 -8.850891E+02  1.335918E+04 -7.551287E+02 -6.630319E+03
       435   6 -3.906406E+05  1.359972E+02 -5.428851E+02  1.769788E+04 -3.227935E+02 -4.985120E+03
       435   7 -5.262146E+05 -3.260362E+04 -2.937529E+04  1.729550E+04  6.312788E+02 -8.249196E+03
       435   8 -5.003791E+05 -2.638193E+04 -2.348213E+04  1.303371E+04  1.086614E+03 -6.624030E+03
       435   9 -4.746721E+05 -2.015135E+04 -1.790117E+04  1.744957E+04  1.541715E+03 -4.978651E+03
       435  10 -2.550529E+05  3.279665E+04  2.632675E+04  1.810059E+04 -2.900622E-08 -4.236342E-09
       435  11 -2.807670E+05  2.660145E+04  2.171123E+04  1.368468E+04 -2.031269E-08 -1.002078E-08
       435  12 -3.066024E+05  2.042287E+04  1.681497E+04  1.794622E+04  1.559935E-09 -2.376918E-09
       435  13 -3.906425E+05  9.705259E+01 -1.523845E+03  1.769801E+04  1.705397E-09  4.422064E-09
       435  14 -3.905788E+05  1.101151E+02 -8.851728E+02  1.335917E+04 -6.664241E-10 -7.503655E-09
       435  15 -3.906406E+05  1.359705E+02 -5.429320E+02  1.769788E+04  9.735521E-10 -3.380219E-09
       435  16 -5.262147E+05 -3.260370E+04 -2.937542E+04  1.729550E+04  3.023974E-08 -2.426188E-09
       435  17 -5.003792E+05 -2.638198E+04 -2.348222E+04  1.303371E+04  1.802175E-08  5.661068E-09
       435  18 -4.746721E+05 -2.015137E+04 -1.790122E+04  1.744957E+04 -6.423336E-10  5.954494E-09
       435  19 -2.550529E+05  3.279672E+04  2.632689E+04  1.810061E+04  3.007101E+03  8.261422E+03
       435  20 -2.807670E+05  2.660150E+04  2.171132E+04  1.368469E+04  2.597191E+03  6.636609E+03
       435  21 -3.066024E+05  2.042290E+04  1.681503E+04  1.794623E+04  2.187550E+03  4.991589E+03
       435  22 -3.906425E+05  9.712614E+01 -1.523714E+03  1.769802E+04  1.187716E+03  8.255308E+03
       435  23 -3.905788E+05  1.101625E+02 -8.850891E+02  1.335918E+04  7.551287E+02  6.630319E+03
       435  24 -3.906406E+05  1.359972E+02 -5.428851E+02  1.769788E+04  3.227935E+02  4.985120E+03
       435  25 -5.262146E+05 -3.260362E+04 -2.937529E+04  1.729550E+04 -6.312788E+02  8.249196E+03
       435  26 -5.003791E+05 -2.638193E+04 -2.348213E+04  1.303371E+04 -1.086614E+03  6.624030E+03
       435  27 -4.746721E+05 -2.015135E+04 -1.790117E+04  1.744957E+04 -1.541715E+03  4.978651E+03
       436   1 -3.255838E+05  1.581161E+04  1.287382E+04  1.788855E+04 -2.097741E+03 -4.029082E+03
       436   2 -3.513474E+05  9.572248E+03  7.740738E+03  1.346561E+04 -1.940520E+03 -2.377758E+03
       436   3 -3.771925E+05  3.390169E+03  2.500737E+03  1.773079E+04 -1.783378E+03 -7.251431E+02
       436   4 -3.906304E+05  1.332339E+02 -4.411077E+02  1.770028E+04 -2.371563E+02 -4.022586E+03
       436   5 -3.905889E+05  1.055210E+02 -3.326804E+02  1.335621E+04 -7.852805E+01 -2.371222E+03
       436   6 -3.906298E+05  1.348790E+02 -3.321497E+02  1.770028E+04  8.002744E+01 -7.185656E+02
       436   7 -4.556730E+05 -1.554541E+04 -1.375625E+04  1.751203E+04  1.623237E+03 -4.016091E+03
       436   8 -4.298289E+05 -9.361301E+03 -8.406169E+03  1.324681E+04  1.783348E+03 -2.364687E+03
       436   9 -4.040669E+05 -3.120420E+03 -3.165034E+03  1.766977E+04  1.943393E+03 -7.119883E+02
       436  10 -3.255838E+05  1.581159E+04  1.287378E+04  1.788855E+04  3.385424E-09 -9.614167E-09
       436  11 -3.513474E+05  9.572241E+03  7.740721E+03  1.346561E+04 -9.080637E-09 -3.295578E-09
       436  12 -3.771925E+05  3.390167E+03  2.500730E+03  1.773079E+04 -1.083548E-08 -5.379692E-09
       436  13 -3.906304E+05  1.332166E+02 -4.411382E+02  1.770028E+04  1.854614E-09  3.181588E-11
       436  14 -3.905889E+05  1.055149E+02 -3.326910E+02  1.335621E+04 -5.859453E-10 -1.275758E-08
       436  15 -3.906298E+05  1.348785E+02 -3.321507E+02  1.770028E+04  9.270989E-10 -4.628500E-09
       436  16 -4.556731E+05 -1.554542E+04 -1.375628E+04  1.751204E+04 -2.091214E-09  4.034929E-12
       436  17 -4.298289E+05 -9.361308E+03 -8.406185E+03  1.324681E+04  6.241295E-09  6.367487E-09
       436  18 -4.040669E+05 -3.120422E+03 -3.165042E+03  1.766977E+04  1.174083E-08  3.138381E-09
       436  19 -3.255838E+05  1.581161E+04  1.287382E+04  1.788855E+04  2.097741E+03  4.029082E+03
       436  20 -3.513474E+05  9.572248E+03  7.740738E+03  1.346561E+04  1.940520E+03  2.377758E+03
       436  21 -3.771925E+05  3.390169E+03  2.500737E+03  1.773079E+04  1.783378E+03  7.251431E+02
       436  22 -3.906304E+05  1.332339E+02 -4.411077E+02  1.770028E+04  2.371563E+02  4.022586E+03
       436  23 -3.905889E+05  1.055210E+02 -3.326804E+02  1.335621E+04  7.852805E+01  2.371222E+03
       436  24 -3.906298E+05  1.348790E+02 -3.321497E+02  1.770028E+04 -8.002744E+01  7.185656E+02
       436  25 -4.556730E+05 -1.554541E+04 -1.375625E+04  1.751203E+04 -1.623237E+03  4.016091E+03
       436  26 -4.298289E+05 -9.361301E+03 -8.406169E+03  1.324681E+04 -1.783348E+03  2.364687E+03
       436  27 -4.040669E+05 -3.120420E+03 -3.165034E+03  1.766977E+04 -1.943393E+03  7.119883E+02
       437   1 -3.961972E+05 -1.221282E+03 -1.583077E+03  1.767696E+04 -1.723056E+03  2.370541E+02
       437   2 -4.219540E+05 -7.458055E+03 -6.990479E+03  1.324744E+04 -1.462490E+03  1.890164E+03
       437   3 -4.478066E+05 -1.364109E+04 -1.257303E+04  1.750676E+04 -1.201880E+03  3.542090E+03
       437   4 -3.906329E+05  1.348436E+02 -3.699121E+02  1.770042E+04  1.403584E+02  2.436338E+02
       437   5 -3.905849E+05  1.100333E+02 -5.363491E+02  1.335601E+04  3.995517E+02  1.896709E+03
       437   6 -3.906335E+05  1.391426E+02 -8.770643E+02  1.770041E+04  6.587997E+02  3.548603E+03
       437   7 -3.850685E+05  1.490969E+03  8.432644E+02  1.772389E+04  2.003789E+03  2.502135E+02
       437   8 -3.592149E+05  7.678062E+03  5.917741E+03  1.346459E+04  2.261686E+03  1.903255E+03
       437   9 -3.334572E+05  1.391917E+04  1.081874E+04  1.789407E+04  2.519648E+03  3.555117E+03
       437  10 -3.961972E+05 -1.221283E+03 -1.583083E+03  1.767696E+04  1.406524E-10  5.670068E-10
       437  11 -4.219540E+05 -7.458060E+03 -6.990490E+03  1.324744E+04 -4.061179E-09 -7.346320E-09
       437  12 -4.478066E+05 -1.364110E+04 -1.257305E+04  1.750676E+04 -2.005226E-09 -9.010328E-09
       437  13 -3.906329E+05  1.348435E+02 -3.699123E+02  1.770042E+04  1.682447E-09  7.006554E-09
       437  14 -3.905849E+05  1.100294E+02 -5.363561E+02  1.335601E+04 -9.301725E-10 -4.930743E-09
       437  15 -3.906335E+05  1.391290E+02 -8.770888E+02  1.770041E+04  7.866742E-10 -1.001601E-08
       437  16 -3.850685E+05  1.490968E+03  8.432567E+02  1.772389E+04  7.872841E-10  3.216051E-09
       437  17 -3.592149E+05  7.678056E+03  5.917725E+03  1.346459E+04  2.158441E-09 -1.762255E-08
       437  18 -3.334572E+05  1.391915E+04  1.081870E+04  1.789407E+04  3.129733E-09 -6.225181E-09
       437  19 -3.961972E+05 -1.221282E+03 -1.583077E+03  1.767696E+04  1.723056E+03 -2.370541E+02
       437  20 -4.219540E+05 -7.458055E+03 -6.990479E+03  1.324744E+04  1.462490E+03 -1.890164E+03
       437  21 -4.478066E+05 -1.364109E+04 -1.257303E+04  1.750676E+04  1.201880E+03 -3.542090E+03
       437  22 -3.906329E+05  1.348436E+02 -3.699121E+02  1.770042E+04 -1.403584E+02 -2.436338E+02
       437  23 -3.905849E+05  1.100333E+02 -5.363491E+02  1.335601E+04 -3.995517E+02 -1.896709E+03
       437  24 -3.906335E+05  1.391426E+02 -8.770643E+02  1.770041E+04 -6.587997E+02 -3.548603E+03
       437  25 -3.850685E+05  1.490969E+03  8.432644E+02  1.772389E+04 -2.003789E+03 -2.502135E+02
       437  26 -3.592149E+05  7.678062E+03  5.917741E+03  1.346459E+04 -2.261686E+03 -1.903255E+03
       437  27 -3.334572E+05  1.391917E+04  1.081874E+04  1.789407E+04 -2.519648E+03 -3.555117E+03
       438   1 -4.668240E+05 -1.824382E+04 -1.687931E+04  1.743167E+04 -1.026989E+03  4.505076E+03
       438   2 -4.924936E+05 -2.446633E+04 -2.293789E+04  1.300165E+04 -4.134158E+01  6.152779E+03
       438   3 -5.183771E+05 -3.073991E+04 -2.966955E+04  1.724935E+04  9.445227E+02  7.780847E+03
       438   4 -3.906593E+05  1.458584E+02 -1.139613E+03  1.769782E+04  8.377607E+02  4.511566E+03
       438   5 -3.905551E+05  1.293044E+02 -1.958592E+03  1.335915E+04  1.801396E+03  6.159099E+03
       438   6 -3.906612E+05  6.567099E+01 -3.435149E+03  1.769811E+04  2.765287E+03  7.787001E+03
       438   7 -3.144890E+05  1.853517E+04  1.459979E+04  1.796400E+04  2.702735E+03  4.518057E+03
       438   8 -2.886067E+05  2.472429E+04  1.902016E+04  1.371670E+04  3.644430E+03  6.165421E+03
       438   9 -2.629298E+05  3.087023E+04  2.279839E+04  1.814695E+04  4.586420E+03  7.793156E+03
       438  10 -4.668241E+05 -1.824384E+04 -1.687935E+04  1.743167E+04  5.224096E-09 -1.799563E-09
       438  11 -4.924936E+05 -2.446637E+04 -2.293796E+04  1.300165E+04  9.568131E-09 -2.558591E-09
       438  12 -5.183771E+05 -3.073998E+04 -2.966967E+04  1.724934E+04  1.736849E-08  4.024778E-09
       438  13 -3.906593E+05  1.458364E+02 -1.139653E+03  1.769782E+04  1.900192E-09 -6.142057E-09
       438  14 -3.905551E+05  1.292628E+02 -1.958670E+03  1.335914E+04 -9.037757E-10  4.053629E-09
       438  15 -3.906612E+05  6.560384E+01 -3.435277E+03  1.769809E+04  7.162282E-10  3.343938E-09
       438  16 -3.144890E+05  1.853514E+04  1.459973E+04  1.796399E+04 -4.350303E-09  4.538518E-09
       438  17 -2.886067E+05  2.472424E+04  1.902006E+04  1.371668E+04 -1.125366E-08 -4.529037E-09
       438  18 -2.629298E+05  3.087016E+04  2.279824E+04  1.814692E+04 -1.627570E-08  7.665937E-09
       438  19 -4.668240E+05 -1.824382E+04 -1.687931E+04  1.743167E+04  1.026989E+03 -4.505076E+03
       438  20 -4.924936E+05 -2.446633E+04 -2.293789E+04  1.300165E+04  4.134158E+01 -6.152779E+03
       438  21 -5.183771E+05 -3.073991E+04 -2.966955E+04  1.724935E+04 -9.445227E+02 -7.780847E+03
       438  22 -3.906593E+05  1.458584E+02 -1.139613E+03  1.769782E+04 -8.377607E+02 -4.511566E+03
       438  23 -3.905551E+05  1.293044E+02 -1.958592E+03  1.335915E+04 -1.801396E+03 -6.159099E+03
       438  24 -3.906612E+05  6.567099E+01 -3.435149E+03  1.769811E+04 -2.765287E+03 -7.787001E+03
       438  25 -3.144890E+05  1.853517E+04  1.459979E+04  1.796400E+04 -2.702735E+03 -4.518057E+03
       438  26 -2.886067E+05  2.472429E+04  1.902016E+04  1.371670E+04 -3.644430E+03 -6.165421E+03
       438  27 -2.629298E+05  3.087023E+04  2.279839E+04  1.814695E+04 -4.586420E+03 -7.793156E+03
       439   1 -5.375472E+05 -3.515157E+04 -3.476418E+04  1.680009E+04  1.551170E+03  8.760673E+03
       439   2 -5.626801E+05 -4.155949E+04 -4.341725E+04  1.307721E+04  5.874458E+03  1.028773E+04
       439   3 -5.890024E+05 -5.020869E+04 -5.546341E+04  1.799936E+04  1.019904E+04  1.144955E+04
       439   4 -3.908640E+05  2.586303E+02 -4.502397E+03  1.768859E+04  3.462286E+03  8.767061E+03
       439   5 -3.903069E+05  4.975058E+01 -7.840638E+03  1.337051E+04  7.374851E+03  1.029257E+04
       439   6 -3.908681E+05 -2.328593E+03 -1.428587E+04  1.769734E+04  1.128888E+04  1.145289E+04
       439   7 -2.441605E+05  3.566748E+04  2.575824E+04  1.857729E+04  5.373847E+03  8.773455E+03
       439   8 -2.179056E+05  4.165711E+04  2.773438E+04  1.366387E+04  8.875654E+03  1.029741E+04
       439   9 -1.926965E+05  4.554901E+04  2.688952E+04  1.739519E+04  1.237907E+04  1.145623E+04
       439  10 -5.375472E+05 -3.515166E+04 -3.476433E+04  1.680008E+04 -2.317896E-08  4.539783E-10
       439  11 -5.626802E+05 -4.155961E+04 -4.341751E+04  1.307716E+04 -1.809101E-08  2.914895E-09
       439  12 -5.890026E+05 -5.020886E+04 -5.546385E+04  1.799927E+04  1.944737E-09 -4.022807E-09
       439  13 -3.908641E+05  2.585445E+02 -4.502564E+03  1.768857E+04  2.179956E-09 -6.719232E-09
       439  14 -3.903070E+05  4.962223E+01 -7.840940E+03  1.337045E+04 -1.201200E-09  2.611657E-09
       439  15 -3.908683E+05 -2.328768E+03 -1.428636E+04  1.769724E+04  7.493351E-10 -1.143763E-09
       439  16 -2.441605E+05  3.566739E+04  2.575804E+04  1.857725E+04  2.428208E-08 -8.573216E-10
       439  17 -2.179057E+05  4.165698E+04  2.773403E+04  1.366380E+04  1.556622E-08 -1.619161E-08
       439  18 -1.926967E+05  4.554883E+04  2.688899E+04  1.739507E+04 -1.123722E-09 -4.737276E-09
       439  19 -5.375472E+05 -3.515157E+04 -3.476418E+04  1.680009E+04 -1.551170E+03 -8.760673E+03
       439  20 -5.626801E+05 -4.155949E+04 -4.341725E+04  1.307721E+04 -5.874458E+03 -1.028773E+04
       439  21 -5.890024E+05 -5.020869E+04 -5.546341E+04  1.799936E+04 -1.019904E+04 -1.144955E+04
       439  22 -3.908640E+05  2.586303E+02 -4.502397E+03  1.768859E+04 -3.462286E+03 -8.767061E+03
       439  23 -3.903069E+05  4.975058E+01 -7.840638E+03  1.337051E+04 -7.374851E+03 -1.029257E+04
       439  24 -3.908681E+05 -2.328593E+03 -1.428587E+04  1.769734E+04 -1.128888E+04 -1.145289E+04
       439  25 -2.441605E+05  3.566748E+04  2.575824E+04  1.857729E+04 -5.373847E+03 -8.773455E+03
       439  26 -2.179056E+05  4.165711E+04  2.773438E+04  1.366387E+04 -8.875654E+03 -1.029741E+04
       439  27 -1.926965E+05  4.554901E+04  2.688952E+04  1.739519E+04 -1.237907E+04 -1.145623E+04
       440   1 -6.110180E+05 -5.043827E+04 -6.323155E+04  9.597905E+03  1.090705E+04  1.275579E+04
       440   2 -6.289774E+05 -6.272826E+04 -8.385193E+04  2.476234E+04  3.560741E+04  1.184450E+04
       440   3 -6.626833E+05 -1.249055E+05 -1.330441E+05  4.828657E+04  6.032817E+04  3.865787E+03
       440   4 -3.938103E+05  2.090053E+03 -1.822627E+04  1.758674E+04  1.377493E+04  1.276504E+04
       440   5 -3.866387E+05 -3.924445E+03 -3.186348E+04  1.350382E+04  3.051364E+04  1.182702E+04
       440   6 -3.938260E+05 -5.843394E+04 -6.853452E+04  1.778193E+04  4.727424E+04  3.821283E+03
       440   7 -1.765577E+05  5.461561E+04  2.677651E+04  2.557839E+04  1.664380E+04  1.277436E+04
       440   8 -1.442443E+05  5.487604E+04  2.012171E+04  2.240792E+03  2.541791E+04  1.180972E+04
       440   9 -1.249000E+05  8.036067E+03 -4.028954E+03 -1.273603E+04  3.421466E+04  3.778073E+03
       440  10 -6.110182E+05 -5.043848E+04 -6.323208E+04  9.597793E+03  1.664549E-09 -3.259779E-09
       440  11 -6.289788E+05 -6.272876E+04 -8.385458E+04  2.476200E+04  2.012395E-09  9.634718E-10
       440  12 -6.626873E+05 -1.249065E+05 -1.330509E+05  4.828638E+04  6.307976E-09  7.696280E-09
       440  13 -3.938106E+05  2.089827E+03 -1.822693E+04  1.758660E+04  1.865844E-09  2.129384E-09
       440  14 -3.866397E+05 -3.924845E+03 -3.186550E+04  1.350353E+04 -7.558537E-10  2.569222E-09
       440  15 -3.938284E+05 -5.843456E+04 -6.853875E+04  1.778178E+04  4.822520E-10  8.393267E-09
       440  16 -1.765580E+05  5.461536E+04  2.677568E+04  2.557822E+04 -5.398460E-10  4.067447E-09
       440  17 -1.442451E+05  5.487571E+04  2.012023E+04  2.240550E+03 -4.063180E-09  1.346150E-08
       440  18 -1.249013E+05  8.035738E+03 -4.031181E+03 -1.273614E+04 -5.854679E-09 -1.756042E-09
       440  19 -6.110180E+05 -5.043827E+04 -6.323155E+04  9.597905E+03 -1.090705E+04 -1.275579E+04
       440  20 -6.289774E+05 -6.272826E+04 -8.385193E+04  2.476234E+04 -3.560741E+04 -1.184450E+04
       440  21 -6.626833E+05 -1.249055E+05 -1.330441E+05  4.828657E+04 -6.032817E+04 -3.865787E+03
       440  22 -3.938103E+05  2.090053E+03 -1.822627E+04  1.758674E+04 -1.377493E+04 -1.276504E+04
       440  23 -3.866387E+05 -3.924445E+03 -3.186348E+04  1.350382E+04 -3.051364E+04 -1.182702E+04
       440  24 -3.938260E+05 -5.843394E+04 -6.853452E+04  1.778193E+04 -4.727424E+04 -3.821283E+03
       440  25 -1.765577E+05  5.461561E+04  2.677651E+04  2.557839E+04 -1.664380E+04 -1.277436E+04
       440  26 -1.442443E+05  5.487604E+04  2.012171E+04  2.240792E+03 -2.541791E+04 -1.180972E+04
       440  27 -1.249000E+05  8.036067E+03 -4.028954E+03 -1.273603E+04 -3.421466E+04 -3.778073E+03
