
 stresses (elem, integ.pnt.,sxx,syy,szz,sxy,sxz,syz) for set ELALL and time  0.1000000E+01

         1   1  2.754008E+06  1.007939E+07  2.607541E+06 -1.963233E+06  1.253303E+05  1.006871E+06
         1   2  2.228041E+06  8.590149E+06  1.752080E+06 -1.815239E+06  4.233429E+05  4.615586E+05
         1   3  1.845552E+06  7.213035E+06  1.285037E+06 -1.892612E+06  4.960653E+05 -8.205957E+04
         1   4  1.086564E+05 -7.126252E+05  1.126470E+05 -1.860357E+06  1.287945E+05  7.320993E+04
         1   5  3.630493E+04 -7.194064E+05  6.041593E+04 -1.747912E+06  4.258309E+05  4.446509E+04
         1   6  1.958502E+04 -7.040189E+05  4.149201E+04 -1.860808E+06  4.960781E+05  1.598528E+04
         1   7 -2.544355E+06 -1.139621E+07 -2.386800E+06 -1.759028E+06  1.320020E+05 -8.445454E+05
         1   8 -2.160193E+06 -9.945025E+06 -1.634076E+06 -1.681417E+06  4.282572E+05 -3.666111E+05
         1   9 -1.809462E+06 -8.559023E+06 -1.203559E+06 -1.829250E+06  4.961005E+05  1.128360E+05
         1  10  2.753724E+06  1.007831E+07  2.605634E+06 -1.963335E+06  6.632399E-10  4.637173E-09
         1  11  2.227792E+06  8.589874E+06  1.751346E+06 -1.815396E+06  1.953320E-09  5.776275E-10
         1  12  1.845286E+06  7.212962E+06  1.284562E+06 -1.892580E+06  1.936307E-09 -3.675874E-09
         1  13  1.086371E+05 -7.126355E+05  1.126057E+05 -1.860365E+06  6.673046E-10 -8.480466E-11
         1  14  3.610968E+04 -7.194572E+05  6.007133E+04 -1.747928E+06 -6.883556E-09  1.264389E-10
         1  15  1.932076E+04 -7.040852E+05  4.102912E+04 -1.860814E+06  1.767594E-09  9.216876E-11
         1  16 -2.544568E+06 -1.139699E+07 -2.388196E+06 -1.758938E+06  6.042146E-09 -4.744318E-09
         1  17 -2.160426E+06 -9.945219E+06 -1.634675E+06 -1.681290E+06  6.618049E-10 -5.831660E-10
         1  18 -1.809730E+06 -8.559103E+06 -1.204046E+06 -1.829296E+06  2.226335E-09  3.955879E-09
         1  19  2.754008E+06  1.007939E+07  2.607541E+06 -1.963233E+06 -1.253303E+05 -1.006871E+06
         1  20  2.228041E+06  8.590149E+06  1.752080E+06 -1.815239E+06 -4.233429E+05 -4.615586E+05
         1  21  1.845552E+06  7.213035E+06  1.285037E+06 -1.892612E+06 -4.960653E+05  8.205957E+04
         1  22  1.086564E+05 -7.126252E+05  1.126470E+05 -1.860357E+06 -1.287945E+05 -7.320993E+04
         1  23  3.630493E+04 -7.194064E+05  6.041593E+04 -1.747912E+06 -4.258309E+05 -4.446509E+04
         1  24  1.958502E+04 -7.040189E+05  4.149201E+04 -1.860808E+06 -4.960781E+05 -1.598528E+04
         1  25 -2.544355E+06 -1.139621E+07 -2.386800E+06 -1.759028E+06 -1.320020E+05  8.445454E+05
         1  26 -2.160193E+06 -9.945025E+06 -1.634076E+06 -1.681417E+06 -4.282572E+05  3.666111E+05
         1  27 -1.809462E+06 -8.559023E+06 -1.203559E+06 -1.829250E+06 -4.961005E+05 -1.128360E+05
         2   1  1.631841E+06  6.304505E+06  1.106854E+06 -1.899471E+06  4.615267E+05 -9.801136E+04
         2   2  1.293816E+06  4.863532E+06  8.408027E+05 -1.766635E+06  4.005587E+05 -1.821989E+05
         2   3  9.831011E+05  3.442061E+06  6.359767E+05 -1.875768E+06  3.110896E+05 -2.665579E+05
         2   4  2.061134E+04 -7.051015E+05  3.734109E+04 -1.864530E+06  4.613215E+05  9.480136E+03
         2   5  2.228527E+04 -7.055755E+05  3.841783E+04 -1.743450E+06  3.996706E+05 -9.833215E+03
         2   6  4.022717E+04 -6.997273E+05  5.595648E+04 -1.864465E+06  3.093856E+05 -2.949946E+04
         2   7 -1.592969E+06 -7.665795E+06 -1.033190E+06 -1.829854E+06  4.611263E+05  1.158139E+05
         2   8 -1.250645E+06 -6.243453E+06 -7.643460E+05 -1.720390E+06  3.987895E+05  1.610609E+05
         2   9 -9.033804E+05 -4.824062E+06 -5.240755E+05 -1.853184E+06  3.076822E+05  2.060538E+05
         2  10  1.631610E+06  6.304438E+06  1.106437E+06 -1.899435E+06  2.914801E-09  3.736287E-11
         2  11  1.293636E+06  4.863454E+06  8.404403E+05 -1.766576E+06 -9.543314E-10 -1.643500E-09
         2  12  9.829786E+05  3.441960E+06  6.356632E+05 -1.875702E+06 -8.256153E-09 -3.014139E-09
         2  13  2.038286E+04 -7.051587E+05  3.694107E+04 -1.864533E+06  1.088436E-09 -7.488985E-12
         2  14  2.211380E+04 -7.056184E+05  3.811763E+04 -1.743447E+06 -5.053728E-09 -4.124823E-11
         2  15  4.012424E+04 -6.997538E+05  5.577517E+04 -1.864457E+06 -1.046267E-09 -2.508108E-11
         2  16 -1.593201E+06 -7.665866E+06 -1.033616E+06 -1.829897E+06  6.674197E-10  3.658824E-10
         2  17 -1.250823E+06 -6.243524E+06 -7.646947E+05 -1.720442E+06 -1.127619E-09  1.700490E-09
         2  18 -9.034938E+05 -4.824134E+06 -5.243346E+05 -1.853235E+06  2.562813E-09  3.277928E-09
         2  19  1.631841E+06  6.304505E+06  1.106854E+06 -1.899471E+06 -4.615267E+05  9.801136E+04
         2  20  1.293816E+06  4.863532E+06  8.408027E+05 -1.766635E+06 -4.005587E+05  1.821989E+05
         2  21  9.831011E+05  3.442061E+06  6.359767E+05 -1.875768E+06 -3.110896E+05  2.665579E+05
         2  22  2.061134E+04 -7.051015E+05  3.734109E+04 -1.864530E+06 -4.613215E+05 -9.480136E+03
         2  23  2.228527E+04 -7.055755E+05  3.841783E+04 -1.743450E+06 -3.996706E+05  9.833215E+03
         2  24  4.022717E+04 -6.997273E+05  5.595648E+04 -1.864465E+06 -3.093856E+05  2.949946E+04
         2  25 -1.592969E+06 -7.665795E+06 -1.033190E+06 -1.829854E+06 -4.611263E+05 -1.158139E+05
         2  26 -1.250645E+06 -6.243453E+06 -7.643460E+05 -1.720390E+06 -3.987895E+05 -1.610609E+05
         2  27 -9.033804E+05 -4.824062E+06 -5.240755E+05 -1.853184E+06 -3.076822E+05 -2.060538E+05
         3   1  7.872032E+05  2.557132E+06  5.198588E+05 -1.877967E+06  2.490793E+05 -2.775411E+05
         3   2  5.123365E+05  1.112819E+06  3.718236E+05 -1.673597E+06  1.433796E+05 -3.456935E+05
         3   3  3.396802E+05 -2.975491E+05  2.929399E+05 -1.713215E+06  3.556478E+04 -4.138309E+05
         3   4  4.807009E+04 -6.930386E+05  7.058284E+04 -1.864942E+06  2.472171E+05 -3.947416E+04
         3   5  1.001314E+05 -7.075630E+05  1.232348E+05 -1.742329E+06  1.413939E+05 -1.030269E+05
         3   6  2.537239E+05 -6.911885E+05  2.416754E+05 -1.863560E+06  3.347136E+04 -1.666971E+05
         3   7 -6.914978E+05 -3.932385E+06 -3.786038E+05 -1.851953E+06  2.453579E+05  1.974062E+05
         3   8 -3.121657E+05 -2.524437E+06 -1.251642E+05 -1.810841E+06  1.393504E+05  1.389617E+05
         3   9  1.678805E+05 -1.084488E+06  1.906522E+05 -2.013805E+06  3.125721E+04  8.028740E+04
         3  10  7.871163E+05  2.557033E+06  5.195991E+05 -1.877911E+06 -5.294150E-09  4.572222E-09
         3  11  5.122827E+05  1.112685E+06  3.715615E+05 -1.673557E+06  1.225152E-09  1.855998E-09
         3  12  3.396329E+05 -2.977333E+05  2.926157E+05 -1.713204E+06  5.492177E-10 -1.695911E-09
         3  13  4.800412E+04 -6.930567E+05  7.046525E+04 -1.864934E+06 -8.713392E-09  2.132005E-10
         3  14  1.001072E+05 -7.075797E+05  1.231775E+05 -1.742317E+06  5.806042E-10  2.885114E-10
         3  15  2.537153E+05 -6.912186E+05  2.416211E+05 -1.863555E+06 -7.328640E-10 -1.356435E-10
         3  16 -6.915731E+05 -3.932444E+06 -3.787913E+05 -1.851992E+06  2.956566E-09 -4.089384E-09
         3  17 -3.121918E+05 -2.524463E+06 -1.252374E+05 -1.810856E+06  3.583401E-09 -1.491538E-09
         3  18  1.678777E+05 -1.084495E+06  1.906382E+05 -2.013807E+06 -1.125164E-09  2.036698E-09
         3  19  7.872032E+05  2.557132E+06  5.198588E+05 -1.877967E+06 -2.490793E+05  2.775411E+05
         3  20  5.123365E+05  1.112819E+06  3.718236E+05 -1.673597E+06 -1.433796E+05  3.456935E+05
         3  21  3.396802E+05 -2.975491E+05  2.929399E+05 -1.713215E+06 -3.556478E+04  4.138309E+05
         3  22  4.807009E+04 -6.930386E+05  7.058284E+04 -1.864942E+06 -2.472171E+05  3.947416E+04
         3  23  1.001314E+05 -7.075630E+05  1.232348E+05 -1.742329E+06 -1.413939E+05  1.030269E+05
         3  24  2.537239E+05 -6.911885E+05  2.416754E+05 -1.863560E+06 -3.347136E+04  1.666971E+05
         3  25 -6.914978E+05 -3.932385E+06 -3.786038E+05 -1.851953E+06 -2.453579E+05 -1.974062E+05
         3  26 -3.121657E+05 -2.524437E+06 -1.251642E+05 -1.810841E+06 -1.393504E+05 -1.389617E+05
         3  27  1.678805E+05 -1.084488E+06  1.906522E+05 -2.013805E+06 -3.125721E+04 -8.028740E+04
         4   1 -1.062828E+07 -3.104104E+06 -2.197045E+06 -3.569077E+06 -1.424826E+06 -5.353345E+05
         4   2 -1.013789E+07 -1.049907E+06 -8.458140E+05 -4.031234E+06 -9.147523E+05 -3.476751E+05
         4   3 -1.053974E+07 -1.313469E+06 -5.027694E+05 -3.940890E+06 -4.060369E+05 -1.564678E+05
         4   4 -1.100100E+07 -3.075767E+06 -2.266579E+06 -3.495258E+06 -1.424905E+06 -5.358645E+05
         4   5 -1.043812E+07 -1.120768E+06 -9.204603E+05 -4.068151E+06 -9.146520E+05 -3.477194E+05
         4   6 -1.076788E+07 -1.484301E+06 -5.831057E+05 -4.088475E+06 -4.056862E+05 -1.562657E+05
         4   7 -1.137352E+07 -3.047355E+06 -2.336099E+06 -3.421497E+06 -1.424984E+06 -5.363947E+05
         4   8 -1.073826E+07 -1.191633E+06 -9.951121E+05 -4.105057E+06 -9.145516E+05 -3.477637E+05
         4   9 -1.099595E+07 -1.655065E+06 -6.634453E+05 -4.235994E+06 -4.053356E+05 -1.560637E+05
         4  10 -1.063058E+07 -3.104975E+06 -2.201484E+06 -3.569699E+06  3.627401E-09  7.089848E-11
         4  11 -1.013884E+07 -1.050269E+06 -8.476488E+05 -4.031493E+06  2.230132E-09  4.971092E-10
         4  12 -1.053993E+07 -1.313541E+06 -5.031323E+05 -3.940942E+06  1.654277E-09  4.035070E-09
         4  13 -1.100329E+07 -3.076639E+06 -2.271021E+06 -3.495881E+06  2.750441E-10  2.218839E-10
         4  14 -1.043907E+07 -1.121130E+06 -9.222957E+05 -4.068410E+06  6.701803E-09  2.808380E-10
         4  15 -1.076806E+07 -1.484372E+06 -5.834681E+05 -4.088526E+06  7.432196E-10  9.870608E-10
         4  16 -1.137581E+07 -3.048228E+06 -2.340545E+06 -3.422121E+06  3.597997E-10 -3.794766E-11
         4  17 -1.073921E+07 -1.191995E+06 -9.969481E+05 -4.105317E+06  5.754306E-09  4.398701E-11
         4  18 -1.099613E+07 -1.655137E+06 -6.638072E+05 -4.236046E+06 -4.292442E-09  2.903556E-09
         4  19 -1.062828E+07 -3.104104E+06 -2.197045E+06 -3.569077E+06  1.424826E+06  5.353345E+05
         4  20 -1.013789E+07 -1.049907E+06 -8.458140E+05 -4.031234E+06  9.147523E+05  3.476751E+05
         4  21 -1.053974E+07 -1.313469E+06 -5.027694E+05 -3.940890E+06  4.060369E+05  1.564678E+05
         4  22 -1.100100E+07 -3.075767E+06 -2.266579E+06 -3.495258E+06  1.424905E+06  5.358645E+05
         4  23 -1.043812E+07 -1.120768E+06 -9.204603E+05 -4.068151E+06  9.146520E+05  3.477194E+05
         4  24 -1.076788E+07 -1.484301E+06 -5.831057E+05 -4.088475E+06  4.056862E+05  1.562657E+05
         4  25 -1.137352E+07 -3.047355E+06 -2.336099E+06 -3.421497E+06  1.424984E+06  5.363947E+05
         4  26 -1.073826E+07 -1.191633E+06 -9.951121E+05 -4.105057E+06  9.145516E+05  3.477637E+05
         4  27 -1.099595E+07 -1.655065E+06 -6.634453E+05 -4.235994E+06  4.053356E+05  1.560637E+05
         5   1 -1.043848E+07 -1.654140E+06 -4.094539E+05 -3.869944E+06 -3.181401E+05 -1.231148E+05
         5   2 -1.036532E+07 -1.380881E+06 -1.509619E+05 -3.975257E+06 -2.039805E+05 -8.028870E+04
         5   3 -1.048112E+07 -1.407143E+06 -7.255959E+04 -3.942097E+06 -9.049901E+04 -3.566447E+04
         5   4 -1.071260E+07 -1.733963E+06 -4.807043E+05 -3.919157E+06 -3.182020E+05 -1.231544E+05
         5   5 -1.060023E+07 -1.464600E+06 -2.150590E+05 -4.033091E+06 -2.038166E+05 -8.022945E+04
         5   6 -1.067695E+07 -1.494887E+06 -1.297492E+05 -4.008539E+06 -9.010141E+04 -3.551178E+04
         5   7 -1.098664E+07 -1.813788E+06 -5.519604E+05 -3.968353E+06 -3.182638E+05 -1.231941E+05
         5   8 -1.083510E+07 -1.548318E+06 -2.791610E+05 -4.090906E+06 -2.036528E+05 -8.017021E+04
         5   9 -1.087273E+07 -1.582625E+06 -1.869425E+05 -4.074960E+06 -8.970394E+04 -3.535917E+04
         5  10 -1.043860E+07 -1.654184E+06 -4.096768E+05 -3.869975E+06  2.748417E-09  1.904521E-09
         5  11 -1.036536E+07 -1.380900E+06 -1.510540E+05 -3.975271E+06  7.201739E-09 -2.427997E-09
         5  12 -1.048113E+07 -1.407146E+06 -7.257772E+04 -3.942100E+06  4.206482E-09  8.870101E-10
         5  13 -1.071272E+07 -1.734007E+06 -4.809274E+05 -3.919189E+06  1.374949E-10  8.315324E-10
         5  14 -1.060028E+07 -1.464619E+06 -2.151509E+05 -4.033105E+06  4.722226E-09  1.289126E-09
         5  15 -1.067696E+07 -1.494891E+06 -1.297671E+05 -4.008542E+06 -6.838948E-09  1.893876E-09
         5  16 -1.098676E+07 -1.813832E+06 -5.521837E+05 -3.968385E+06 -2.555125E-10  1.215451E-09
         5  17 -1.083515E+07 -1.548336E+06 -2.792528E+05 -4.090919E+06  5.144856E-10 -3.539083E-11
         5  18 -1.087274E+07 -1.582629E+06 -1.869603E+05 -4.074962E+06 -6.522047E-09  3.941272E-09
         5  19 -1.043848E+07 -1.654140E+06 -4.094539E+05 -3.869944E+06  3.181401E+05  1.231148E+05
         5  20 -1.036532E+07 -1.380881E+06 -1.509619E+05 -3.975257E+06  2.039805E+05  8.028870E+04
         5  21 -1.048112E+07 -1.407143E+06 -7.255959E+04 -3.942097E+06  9.049901E+04  3.566447E+04
         5  22 -1.071260E+07 -1.733963E+06 -4.807043E+05 -3.919157E+06  3.182020E+05  1.231544E+05
         5  23 -1.060023E+07 -1.464600E+06 -2.150590E+05 -4.033091E+06  2.038166E+05  8.022945E+04
         5  24 -1.067695E+07 -1.494887E+06 -1.297492E+05 -4.008539E+06  9.010141E+04  3.551178E+04
         5  25 -1.098664E+07 -1.813788E+06 -5.519604E+05 -3.968353E+06  3.182638E+05  1.231941E+05
         5  26 -1.083510E+07 -1.548318E+06 -2.791610E+05 -4.090906E+06  2.036528E+05  8.017021E+04
         5  27 -1.087273E+07 -1.582625E+06 -1.869425E+05 -4.074960E+06  8.970394E+04  3.535917E+04
         6   1 -1.076733E+07 -1.572505E+06 -1.321465E+05 -4.012482E+06 -7.171880E+04 -2.696327E+04
         6   2 -1.075937E+07 -1.569678E+06 -8.768645E+04 -4.066575E+06 -4.623756E+04 -1.554888E+04
         6   3 -1.083418E+07 -1.558970E+06 -7.706411E+04 -4.039822E+06 -2.041288E+04 -5.045513E+03
         6   4 -1.066857E+07 -1.531207E+06 -1.038407E+05 -3.982000E+06 -7.141718E+04 -2.684973E+04
         6   5 -1.062449E+07 -1.517379E+06 -5.002665E+04 -4.029073E+06 -4.607336E+04 -1.548695E+04
         6   6 -1.066315E+07 -1.495639E+06 -2.993667E+04 -3.995303E+06 -2.038444E+04 -5.034753E+03
         6   7 -1.056979E+07 -1.489908E+06 -7.553590E+04 -3.951513E+06 -7.111551E+04 -2.673617E+04
         6   8 -1.048960E+07 -1.465080E+06 -1.236850E+04 -3.991563E+06 -4.590912E+04 -1.542500E+04
         6   9 -1.049210E+07 -1.432306E+06  1.718811E+04 -3.950773E+06 -2.035600E+04 -5.023989E+03
         6  10 -1.076733E+07 -1.572507E+06 -1.321577E+05 -4.012484E+06  3.371886E-09  1.652544E-09
         6  11 -1.075937E+07 -1.569679E+06 -8.769102E+04 -4.066575E+06 -2.462215E-09 -1.144353E-09
         6  12 -1.083418E+07 -1.558971E+06 -7.706495E+04 -4.039822E+06 -2.481483E-09 -1.784325E-09
         6  13 -1.066857E+07 -1.531209E+06 -1.038519E+05 -3.982002E+06  3.734871E-09  2.763308E-09
         6  14 -1.062450E+07 -1.517380E+06 -5.003117E+04 -4.029073E+06  3.804342E-09  1.464593E-09
         6  15 -1.066315E+07 -1.495639E+06 -2.993752E+04 -3.995304E+06  8.471523E-09  1.125570E-09
         6  16 -1.056980E+07 -1.489910E+06 -7.554696E+04 -3.951515E+06 -3.295609E-09  1.165899E-09
         6  17 -1.048960E+07 -1.465081E+06 -1.237300E+04 -3.991564E+06  6.738116E-09 -8.758956E-10
         6  18 -1.049210E+07 -1.432306E+06  1.718727E+04 -3.950773E+06  6.848895E-09  4.790449E-11
         6  19 -1.076733E+07 -1.572505E+06 -1.321465E+05 -4.012482E+06  7.171880E+04  2.696327E+04
         6  20 -1.075937E+07 -1.569678E+06 -8.768645E+04 -4.066575E+06  4.623756E+04  1.554888E+04
         6  21 -1.083418E+07 -1.558970E+06 -7.706411E+04 -4.039822E+06  2.041288E+04  5.045513E+03
         6  22 -1.066857E+07 -1.531207E+06 -1.038407E+05 -3.982000E+06  7.141718E+04  2.684973E+04
         6  23 -1.062449E+07 -1.517379E+06 -5.002665E+04 -4.029073E+06  4.607336E+04  1.548695E+04
         6  24 -1.066315E+07 -1.495639E+06 -2.993667E+04 -3.995303E+06  2.038444E+04  5.034753E+03
         6  25 -1.056979E+07 -1.489908E+06 -7.553590E+04 -3.951513E+06  7.111551E+04  2.673617E+04
         6  26 -1.048960E+07 -1.465080E+06 -1.236850E+04 -3.991563E+06  4.590912E+04  1.542500E+04
         6  27 -1.049210E+07 -1.432306E+06  1.718811E+04 -3.950773E+06  2.035600E+04  5.023989E+03
         7   1 -1.096034E+07 -1.637650E+06 -1.116878E+05 -4.095772E+06 -1.650705E+04 -2.808412E+03
         7   2 -1.095816E+07 -1.623136E+06 -9.986720E+04 -4.089768E+06 -9.471322E+03  8.239554E+02
         7   3 -1.094858E+07 -1.627662E+06 -9.569596E+04 -4.093246E+06 -1.644488E+03  2.353754E+03
         7   4 -1.064536E+07 -1.516893E+06 -2.390691E+04 -4.009632E+06 -1.621721E+04 -2.699261E+03
         7   5 -1.064874E+07 -1.505119E+06 -1.386154E+04 -4.005744E+06 -9.503593E+03  8.116526E+02
         7   6 -1.064466E+07 -1.512318E+06 -1.120339E+04 -4.011337E+06 -1.999134E+03  2.220469E+03
         7   7 -1.033028E+07 -1.396129E+06  6.386448E+04 -3.923452E+06 -1.592721E+04 -2.590047E+03
         7   8 -1.033923E+07 -1.387097E+06  7.213506E+04 -3.921681E+06 -9.535881E+03  7.993434E+02
         7   9 -1.034065E+07 -1.396969E+06  7.328055E+04 -3.929392E+06 -2.353975E+03  2.087111E+03
         7  10 -1.096034E+07 -1.637650E+06 -1.116883E+05 -4.095772E+06 -1.402468E-09  5.275811E-09
         7  11 -1.095816E+07 -1.623136E+06 -9.986737E+04 -4.089768E+06  1.391751E-09  3.937825E-09
         7  12 -1.094858E+07 -1.627662E+06 -9.569597E+04 -4.093246E+06 -6.281982E-10  2.411300E-09
         7  13 -1.064536E+07 -1.516893E+06 -2.390742E+04 -4.009632E+06  1.072105E-08  2.929053E-09
         7  14 -1.064874E+07 -1.505119E+06 -1.386172E+04 -4.005744E+06 -5.030850E-09  2.244362E-09
         7  15 -1.064466E+07 -1.512318E+06 -1.120341E+04 -4.011337E+06  9.030571E-10  1.934705E-09
         7  16 -1.033028E+07 -1.396129E+06  6.386399E+04 -3.923452E+06  3.921089E-09  1.854786E-09
         7  17 -1.033923E+07 -1.387097E+06  7.213489E+04 -3.921681E+06  1.883527E-09  7.572308E-09
         7  18 -1.034065E+07 -1.396969E+06  7.328053E+04 -3.929392E+06 -5.105329E-09  1.277717E-09
         7  19 -1.096034E+07 -1.637650E+06 -1.116878E+05 -4.095772E+06  1.650705E+04  2.808412E+03
         7  20 -1.095816E+07 -1.623136E+06 -9.986720E+04 -4.089768E+06  9.471322E+03 -8.239554E+02
         7  21 -1.094858E+07 -1.627662E+06 -9.569596E+04 -4.093246E+06  1.644488E+03 -2.353754E+03
         7  22 -1.064536E+07 -1.516893E+06 -2.390691E+04 -4.009632E+06  1.621721E+04  2.699261E+03
         7  23 -1.064874E+07 -1.505119E+06 -1.386154E+04 -4.005744E+06  9.503593E+03 -8.116526E+02
         7  24 -1.064466E+07 -1.512318E+06 -1.120339E+04 -4.011337E+06  1.999134E+03 -2.220469E+03
         7  25 -1.033028E+07 -1.396129E+06  6.386448E+04 -3.923452E+06  1.592721E+04  2.590047E+03
         7  26 -1.033923E+07 -1.387097E+06  7.213506E+04 -3.921681E+06  9.535881E+03 -7.993434E+02
         7  27 -1.034065E+07 -1.396969E+06  7.328055E+04 -3.929392E+06  2.353975E+03 -2.087111E+03
         8   1 -1.071142E+07 -1.555064E+06 -3.312752E+04 -4.047145E+06  3.636159E+02  1.951222E+03
         8   2 -1.070514E+07 -1.505339E+06 -2.501604E+04 -3.999170E+06  7.713379E+03  3.480897E+03
         8   3 -1.063737E+07 -1.530171E+06 -2.453814E+04 -4.024408E+06  1.517176E+04  4.721545E+03
         8   4 -1.063264E+07 -1.524749E+06 -1.124760E+04 -4.025456E+06  2.191644E+02  1.897005E+03
         8   5 -1.066373E+07 -1.489661E+06 -1.352970E+04 -3.988042E+06  7.524629E+03  3.410082E+03
         8   6 -1.063331E+07 -1.529120E+06 -2.340945E+04 -4.023840E+06  1.493825E+04  4.633959E+03
         8   7 -1.055385E+07 -1.494434E+06  1.063171E+04 -4.003766E+06  7.469263E+01  1.842781E+03
         8   8 -1.062231E+07 -1.473983E+06 -2.043522E+03 -3.976913E+06  7.335864E+03  3.339261E+03
         8   9 -1.062925E+07 -1.528068E+06 -2.228077E+04 -4.023273E+06  1.470473E+04  4.546373E+03
         8  10 -1.071142E+07 -1.555064E+06 -3.312753E+04 -4.047145E+06  1.750211E-09  3.034318E-09
         8  11 -1.070515E+07 -1.505339E+06 -2.501618E+04 -3.999170E+06 -9.614710E-10  1.853198E-09
         8  12 -1.063737E+07 -1.530171E+06 -2.453862E+04 -4.024408E+06  3.585554E-09  4.881558E-09
         8  13 -1.063264E+07 -1.524749E+06 -1.124761E+04 -4.025456E+06  1.680375E-09  1.730760E-09
         8  14 -1.066373E+07 -1.489661E+06 -1.352983E+04 -3.988042E+06 -3.287171E-10  1.338115E-09
         8  15 -1.063331E+07 -1.529120E+06 -2.340992E+04 -4.023840E+06 -1.532346E-09  2.080937E-10
         8  16 -1.055385E+07 -1.494434E+06  1.063171E+04 -4.003766E+06 -1.490489E-09  8.164072E-09
         8  17 -1.062231E+07 -1.473983E+06 -2.043646E+03 -3.976913E+06 -2.119919E-09  2.480706E-09
         8  18 -1.062925E+07 -1.528069E+06 -2.228122E+04 -4.023273E+06 -2.567659E-09  1.902094E-09
         8  19 -1.071142E+07 -1.555064E+06 -3.312752E+04 -4.047145E+06 -3.636159E+02 -1.951222E+03
         8  20 -1.070514E+07 -1.505339E+06 -2.501604E+04 -3.999170E+06 -7.713379E+03 -3.480897E+03
         8  21 -1.063737E+07 -1.530171E+06 -2.453814E+04 -4.024408E+06 -1.517176E+04 -4.721545E+03
         8  22 -1.063264E+07 -1.524749E+06 -1.124760E+04 -4.025456E+06 -2.191644E+02 -1.897005E+03
         8  23 -1.066373E+07 -1.489661E+06 -1.352970E+04 -3.988042E+06 -7.524629E+03 -3.410082E+03
         8  24 -1.063331E+07 -1.529120E+06 -2.340945E+04 -4.023840E+06 -1.493825E+04 -4.633959E+03
         8  25 -1.055385E+07 -1.494434E+06  1.063171E+04 -4.003766E+06 -7.469263E+01 -1.842781E+03
         8  26 -1.062231E+07 -1.473983E+06 -2.043522E+03 -3.976913E+06 -7.335864E+03 -3.339261E+03
         8  27 -1.062925E+07 -1.528068E+06 -2.228077E+04 -4.023273E+06 -1.470473E+04 -4.546373E+03
         9   1 -1.037166E+07 -1.413363E+06  4.613404E+04 -3.945633E+06  2.009212E+04  5.167266E+03
         9   2 -1.036369E+07 -1.384081E+06  3.065875E+04 -3.923465E+06  4.562572E+04  1.311022E+04
         9   3 -1.034981E+07 -1.432210E+06 -1.716983E+04 -3.919621E+06  7.044103E+04  2.296611E+04
         9   4 -1.064354E+07 -1.514884E+06 -2.912129E+04 -4.017230E+06  1.971448E+04  5.025567E+03
         9   5 -1.064908E+07 -1.493509E+06 -4.875981E+04 -4.001594E+06  4.553332E+04  1.307528E+04
         9   6 -1.064877E+07 -1.549618E+06 -1.009928E+05 -4.004280E+06  7.063308E+04  2.303784E+04
         9   7 -1.091536E+07 -1.616402E+06 -1.043835E+05 -4.088799E+06  1.933703E+04  4.883934E+03
         9   8 -1.093439E+07 -1.602932E+06 -1.281860E+05 -4.079689E+06  4.544097E+04  1.304035E+04
         9   9 -1.094764E+07 -1.667019E+06 -1.848242E+05 -4.088901E+06  7.082502E+04  2.310952E+04
         9  10 -1.037166E+07 -1.413363E+06  4.613322E+04 -3.945633E+06  2.179493E-09  1.220419E-10
         9  11 -1.036369E+07 -1.384081E+06  3.065444E+04 -3.923465E+06 -6.739765E-09  1.728206E-09
         9  12 -1.034982E+07 -1.432212E+06 -1.718034E+04 -3.919622E+06 -1.170460E-09  3.192949E-11
         9  13 -1.064355E+07 -1.514885E+06 -2.912209E+04 -4.017230E+06  2.758682E-09 -7.961211E-10
         9  14 -1.064908E+07 -1.493509E+06 -4.876411E+04 -4.001594E+06  4.819839E-10 -1.938341E-09
         9  15 -1.064877E+07 -1.549620E+06 -1.010034E+05 -4.004282E+06 -2.683806E-09 -1.237333E-10
         9  16 -1.091536E+07 -1.616403E+06 -1.043843E+05 -4.088799E+06 -2.929959E-09 -1.663144E-09
         9  17 -1.093439E+07 -1.602932E+06 -1.281903E+05 -4.079689E+06  5.299815E-09 -1.358417E-10
         9  18 -1.094764E+07 -1.667021E+06 -1.848349E+05 -4.088903E+06 -1.056026E-09 -9.519694E-10
         9  19 -1.037166E+07 -1.413363E+06  4.613404E+04 -3.945633E+06 -2.009212E+04 -5.167266E+03
         9  20 -1.036369E+07 -1.384081E+06  3.065875E+04 -3.923465E+06 -4.562572E+04 -1.311022E+04
         9  21 -1.034981E+07 -1.432210E+06 -1.716983E+04 -3.919621E+06 -7.044103E+04 -2.296611E+04
         9  22 -1.064354E+07 -1.514884E+06 -2.912129E+04 -4.017230E+06 -1.971448E+04 -5.025567E+03
         9  23 -1.064908E+07 -1.493509E+06 -4.875981E+04 -4.001594E+06 -4.553332E+04 -1.307528E+04
         9  24 -1.064877E+07 -1.549618E+06 -1.009928E+05 -4.004280E+06 -7.063308E+04 -2.303784E+04
         9  25 -1.091536E+07 -1.616402E+06 -1.043835E+05 -4.088799E+06 -1.933703E+04 -4.883934E+03
         9  26 -1.093439E+07 -1.602932E+06 -1.281860E+05 -4.079689E+06 -4.544097E+04 -1.304035E+04
         9  27 -1.094764E+07 -1.667019E+06 -1.848242E+05 -4.088901E+06 -7.082502E+04 -2.310952E+04
        10   1 -1.043456E+07 -1.413498E+06 -6.117448E+04 -3.953383E+06  8.924762E+04  3.048772E+04
        10   2 -1.039845E+07 -1.385161E+06 -1.521489E+05 -3.973987E+06  2.001810E+05  7.272691E+04
        10   3 -1.055353E+07 -1.641097E+06 -4.184377E+05 -3.851760E+06  3.106540E+05  1.161538E+05
        10   4 -1.067771E+07 -1.493799E+06 -1.262569E+05 -4.006746E+06  8.918673E+04  3.046693E+04
        10   5 -1.059950E+07 -1.467757E+06 -2.092163E+05 -4.034631E+06  2.002695E+05  7.275788E+04
        10   6 -1.071257E+07 -1.726083E+06 -4.676490E+05 -3.919668E+06  3.109003E+05  1.162315E+05
        10   7 -1.092079E+07 -1.574099E+06 -1.913445E+05 -4.060093E+06  8.912586E+04  3.044615E+04
        10   8 -1.080052E+07 -1.550348E+06 -2.662876E+05 -4.095256E+06  2.003580E+05  7.278884E+04
        10   9 -1.087158E+07 -1.811058E+06 -5.168629E+05 -3.987558E+06  3.111465E+05  1.163092E+05
        10  10 -1.043457E+07 -1.413502E+06 -6.119152E+04 -3.953385E+06 -2.433692E-09  3.643163E-09
        10  11 -1.039849E+07 -1.385178E+06 -1.522358E+05 -3.973999E+06  8.585275E-10 -5.871992E-09
        10  12 -1.055364E+07 -1.641139E+06 -4.186484E+05 -3.851790E+06 -6.837466E-10 -1.690451E-09
        10  13 -1.067772E+07 -1.493802E+06 -1.262740E+05 -4.006749E+06 -4.181058E-09  4.309593E-10
        10  14 -1.059955E+07 -1.467773E+06 -2.093033E+05 -4.034643E+06  3.185677E-09 -1.259602E-09
        10  15 -1.071268E+07 -1.726124E+06 -4.678602E+05 -3.919698E+06 -1.854758E-09 -2.194727E-10
        10  16 -1.092080E+07 -1.574102E+06 -1.913615E+05 -4.060095E+06 -2.525615E-09 -3.269865E-09
        10  17 -1.080057E+07 -1.550365E+06 -2.663747E+05 -4.095268E+06 -1.590171E-09  3.126151E-09
        10  18 -1.087169E+07 -1.811100E+06 -5.170745E+05 -3.987588E+06 -1.248312E-09 -1.111666E-09
        10  19 -1.043456E+07 -1.413498E+06 -6.117448E+04 -3.953383E+06 -8.924762E+04 -3.048772E+04
        10  20 -1.039845E+07 -1.385161E+06 -1.521489E+05 -3.973987E+06 -2.001810E+05 -7.272691E+04
        10  21 -1.055353E+07 -1.641097E+06 -4.184377E+05 -3.851760E+06 -3.106540E+05 -1.161538E+05
        10  22 -1.067771E+07 -1.493799E+06 -1.262569E+05 -4.006746E+06 -8.918673E+04 -3.046693E+04
        10  23 -1.059950E+07 -1.467757E+06 -2.092163E+05 -4.034631E+06 -2.002695E+05 -7.275788E+04
        10  24 -1.071257E+07 -1.726083E+06 -4.676490E+05 -3.919668E+06 -3.109003E+05 -1.162315E+05
        10  25 -1.092079E+07 -1.574099E+06 -1.913445E+05 -4.060093E+06 -8.912586E+04 -3.044615E+04
        10  26 -1.080052E+07 -1.550348E+06 -2.662876E+05 -4.095256E+06 -2.003580E+05 -7.278884E+04
        10  27 -1.087158E+07 -1.811058E+06 -5.168629E+05 -3.987558E+06 -3.111465E+05 -1.163092E+05
        11   1 -1.086194E+07 -1.576882E+06 -6.054967E+05 -4.168411E+06  3.948030E+05  1.498905E+05
        11   2 -1.061764E+07 -1.189929E+06 -9.422549E+05 -4.106007E+06  8.894013E+05  3.387691E+05
        11   3 -1.133406E+07 -2.967650E+06 -2.261101E+06 -3.402045E+06  1.385282E+06  5.243141E+05
        11   4 -1.078435E+07 -1.465324E+06 -5.673000E+05 -4.064010E+06  3.953676E+05  1.501703E+05
        11   5 -1.041858E+07 -1.156333E+06 -8.954696E+05 -4.095008E+06  8.895961E+05  3.387651E+05
        11   6 -1.101326E+07 -3.011566E+06 -2.205166E+06 -3.484445E+06  1.385219E+06  5.238161E+05
        11   7 -1.070674E+07 -1.353721E+06 -5.291007E+05 -3.959589E+06  3.959323E+05  1.504504E+05
        11   8 -1.021947E+07 -1.122737E+06 -8.486859E+05 -4.084010E+06  8.897909E+05  3.387610E+05
        11   9 -1.069230E+07 -3.055402E+06 -2.149216E+06 -3.566897E+06  1.385155E+06  5.233184E+05
        11  10 -1.086211E+07 -1.576950E+06 -6.058387E+05 -4.168459E+06 -1.557769E-10 -4.585985E-10
        11  11 -1.061854E+07 -1.190272E+06 -9.439917E+05 -4.106252E+06  2.092921E-09  2.091528E-09
        11  12 -1.133623E+07 -2.968478E+06 -2.265308E+06 -3.402637E+06  2.831308E-09  7.096672E-10
        11  13 -1.078453E+07 -1.465391E+06 -5.676430E+05 -4.064058E+06 -2.149723E-09  6.484774E-10
        11  14 -1.041947E+07 -1.156676E+06 -8.972066E+05 -4.095253E+06 -1.326772E-09  1.768751E-09
        11  15 -1.101543E+07 -3.012393E+06 -2.209370E+06 -3.485037E+06  4.582699E-09  9.054577E-10
        11  16 -1.070692E+07 -1.353788E+06 -5.294446E+05 -3.959638E+06 -2.400437E-09  9.410111E-11
        11  17 -1.022037E+07 -1.123080E+06 -8.504230E+05 -4.084255E+06 -1.350360E-09  7.313677E-10
        11  18 -1.069447E+07 -3.056228E+06 -2.153417E+06 -3.567489E+06 -7.875848E-10  1.741143E-09
        11  19 -1.086194E+07 -1.576882E+06 -6.054967E+05 -4.168411E+06 -3.948030E+05 -1.498905E+05
        11  20 -1.061764E+07 -1.189929E+06 -9.422549E+05 -4.106007E+06 -8.894013E+05 -3.387691E+05
        11  21 -1.133406E+07 -2.967650E+06 -2.261101E+06 -3.402045E+06 -1.385282E+06 -5.243141E+05
        11  22 -1.078435E+07 -1.465324E+06 -5.673000E+05 -4.064010E+06 -3.953676E+05 -1.501703E+05
        11  23 -1.041858E+07 -1.156333E+06 -8.954696E+05 -4.095008E+06 -8.895961E+05 -3.387651E+05
        11  24 -1.101326E+07 -3.011566E+06 -2.205166E+06 -3.484445E+06 -1.385219E+06 -5.238161E+05
        11  25 -1.070674E+07 -1.353721E+06 -5.291007E+05 -3.959589E+06 -3.959323E+05 -1.504504E+05
        11  26 -1.021947E+07 -1.122737E+06 -8.486859E+05 -4.084010E+06 -8.897909E+05 -3.387610E+05
        11  27 -1.069230E+07 -3.055402E+06 -2.149216E+06 -3.566897E+06 -1.385155E+06 -5.233184E+05
        12   1  1.801306E+04 -1.291944E+05  2.581295E+04 -3.091016E+02  3.231517E+02 -7.665603E+02
        12   2  1.591460E+04 -1.308486E+05  2.710828E+04  1.981166E+02  3.326353E+02 -5.778812E+03
        12   3  2.243795E+04 -1.294320E+05  3.387542E+04  7.873154E+01  3.114829E+02 -1.079117E+04
        12   4  6.389810E+02 -1.986903E+05  8.451069E+03 -1.401978E+02  3.231539E+02 -7.682561E+02
        12   5 -1.429558E+03 -2.002252E+05  9.776569E+03  1.747826E+02  3.326377E+02 -5.777813E+03
        12   6  5.123762E+03 -1.986896E+05  1.657241E+04 -1.368469E+02  3.114869E+02 -1.078747E+04
        12   7 -1.673546E+04 -2.681818E+05 -8.911173E+03  2.868717E+01  3.231561E+02 -7.699517E+02
        12   8 -1.877408E+04 -2.695975E+05 -7.555507E+03  1.514517E+02  3.326400E+02 -5.776813E+03
        12   9 -1.219079E+04 -2.679427E+05 -7.309593E+02 -3.524006E+02  3.114909E+02 -1.078378E+04
        12  10  1.801306E+04 -1.291944E+05  2.581295E+04 -3.091014E+02 -5.265328E-09  9.798949E-12
        12  11  1.591459E+04 -1.308486E+05  2.710822E+04  1.981181E+02 -5.134882E-09 -5.209596E-10
        12  12  2.243792E+04 -1.294322E+05  3.387520E+04  7.873425E+01 -6.636320E-09  2.815293E-10
        12  13  6.389807E+02 -1.986903E+05  8.451068E+03 -1.401976E+02 -6.361804E-09 -1.964000E-11
        12  14 -1.429567E+03 -2.002252E+05  9.776506E+03  1.747842E+02 -4.406975E-09 -2.392083E-12
        12  15  5.123731E+03 -1.986897E+05  1.657219E+04 -1.368442E+02 -1.234337E-09  1.391266E-10
        12  16 -1.673546E+04 -2.681818E+05 -8.911174E+03  2.868737E+01 -1.670293E-11 -1.892697E-12
        12  17 -1.877409E+04 -2.695975E+05 -7.555570E+03  1.514532E+02 -3.393487E-09  4.632487E-10
        12  18 -1.219082E+04 -2.679429E+05 -7.311781E+02 -3.523978E+02 -9.794110E-10 -3.250506E-10
        12  19  1.801306E+04 -1.291944E+05  2.581295E+04 -3.091016E+02 -3.231517E+02  7.665603E+02
        12  20  1.591460E+04 -1.308486E+05  2.710828E+04  1.981166E+02 -3.326353E+02  5.778812E+03
        12  21  2.243795E+04 -1.294320E+05  3.387542E+04  7.873154E+01 -3.114829E+02  1.079117E+04
        12  22  6.389810E+02 -1.986903E+05  8.451069E+03 -1.401978E+02 -3.231539E+02  7.682561E+02
        12  23 -1.429558E+03 -2.002252E+05  9.776569E+03  1.747826E+02 -3.326377E+02  5.777813E+03
        12  24  5.123762E+03 -1.986896E+05  1.657241E+04 -1.368469E+02 -3.114869E+02  1.078747E+04
        12  25 -1.673546E+04 -2.681818E+05 -8.911173E+03  2.868717E+01 -3.231561E+02  7.699517E+02
        12  26 -1.877408E+04 -2.695975E+05 -7.555507E+03  1.514517E+02 -3.326400E+02  5.776813E+03
        12  27 -1.219079E+04 -2.679427E+05 -7.309593E+02 -3.524006E+02 -3.114909E+02  1.078378E+04
        13   1  1.416144E+04 -1.359238E+05  3.515166E+04 -1.288699E+03  3.082348E+02 -1.411900E+04
        13   2  6.982806E+03 -1.434590E+05  4.616397E+04  8.222169E+02  3.209790E+02 -3.052439E+04
        13   3  4.805388E+04 -1.366029E+05  7.996073E+04  1.182247E+03  2.959575E+02 -4.692993E+04
        13   4 -9.028568E+02 -1.961740E+05  2.010004E+04 -4.032622E+02  3.082176E+02 -1.411937E+04
        13   5 -7.993563E+03 -2.033676E+05  3.119788E+04  4.945497E+02  3.209952E+02 -3.052065E+04
        13   6  3.316721E+04 -1.961691E+05  6.507885E+04 -3.585354E+02  2.960695E+02 -4.692210E+04
        13   7 -1.596743E+04 -2.564210E+05  5.048152E+03  4.820891E+02  3.082004E+02 -1.411973E+04
        13   8 -2.297020E+04 -2.632729E+05  1.623153E+04  1.669150E+02  3.210114E+02 -3.051692E+04
        13   9  1.828028E+04 -2.557322E+05  5.019670E+04 -1.899169E+03  2.961814E+02 -4.691428E+04
        13  10  1.416139E+04 -1.359240E+05  3.515128E+04 -1.288695E+03 -2.205568E-09  5.495580E-11
        13  11  6.982556E+03 -1.434600E+05  4.616222E+04  8.222248E+02 -1.897636E-09 -6.501874E-10
        13  12  4.805328E+04 -1.366052E+05  7.995659E+04  1.182259E+03 -6.328049E-10  4.054599E-10
        13  13 -9.029104E+02 -1.961743E+05  2.009967E+04 -4.032587E+02  9.598051E-10 -2.015150E-10
        13  14 -7.993814E+03 -2.033686E+05  3.119613E+04  4.945576E+02 -1.407229E-09  4.983980E-12
        13  15  3.316662E+04 -1.961715E+05  6.507471E+04 -3.585242E+02  1.553962E-09  2.707756E-10
        13  16 -1.596748E+04 -2.564212E+05  5.047777E+03  4.820926E+02  6.219047E-10 -8.237845E-11
        13  17 -2.297045E+04 -2.632739E+05  1.622978E+04  1.669229E+02 -1.440259E-09  5.314416E-10
        13  18  1.827969E+04 -2.557346E+05  5.019256E+04 -1.899158E+03  9.995108E-11 -4.700571E-10
        13  19  1.416144E+04 -1.359238E+05  3.515166E+04 -1.288699E+03 -3.082348E+02  1.411900E+04
        13  20  6.982806E+03 -1.434590E+05  4.616397E+04  8.222169E+02 -3.209790E+02  3.052439E+04
        13  21  4.805388E+04 -1.366029E+05  7.996073E+04  1.182247E+03 -2.959575E+02  4.692993E+04
        13  22 -9.028568E+02 -1.961740E+05  2.010004E+04 -4.032622E+02 -3.082176E+02  1.411937E+04
        13  23 -7.993563E+03 -2.033676E+05  3.119788E+04  4.945497E+02 -3.209952E+02  3.052065E+04
        13  24  3.316721E+04 -1.961691E+05  6.507885E+04 -3.585354E+02 -2.960695E+02  4.692210E+04
        13  25 -1.596743E+04 -2.564210E+05  5.048152E+03  4.820891E+02 -3.082004E+02  1.411973E+04
        13  26 -2.297020E+04 -2.632729E+05  1.623153E+04  1.669150E+02 -3.210114E+02  3.051692E+04
        13  27  1.828028E+04 -2.557322E+05  5.019670E+04 -1.899169E+03 -2.961814E+02  4.691428E+04
        14   1  4.002342E+03 -1.376049E+05  8.911286E+04 -6.006752E+03  3.197587E+02 -5.996841E+04
        14   2 -4.049985E+04 -1.808882E+05  1.293899E+05  3.340879E+03  4.238392E+02 -1.249891E+05
        14   3  2.232291E+05 -1.385470E+05  2.890982E+05  1.040726E+04  4.104097E+02 -1.900076E+05
        14   4 -6.701603E+03 -1.803439E+05  7.843358E+04 -6.370055E+02  3.192485E+02 -5.997053E+04
        14   5 -5.105237E+04 -2.231398E+05  1.188377E+05  7.008549E+02  4.243658E+02 -1.249790E+05
        14   6  2.128367E+05 -1.803079E+05  2.786702E+05 -2.428619E+02  4.136475E+02 -1.899854E+05
        14   7 -1.740558E+04 -2.230812E+05  6.775418E+04  4.732371E+03  3.187382E+02 -5.997265E+04
        14   8 -6.160500E+04 -2.653897E+05  1.082854E+05 -1.938988E+03  4.248923E+02 -1.249689E+05
        14   9  2.024446E+05 -2.220670E+05  2.682422E+05 -1.089227E+04  4.168846E+02 -1.899631E+05
        14  10  4.001377E+03 -1.376088E+05  8.910610E+04 -6.006736E+03 -4.188922E-09  3.154252E-10
        14  11 -4.050405E+04 -1.809050E+05  1.293606E+05  3.340921E+03  3.198795E-09 -8.020893E-10
        14  12  2.232194E+05 -1.385858E+05  2.890303E+05  1.040732E+04  9.030992E-10  2.844115E-10
        14  13 -6.702569E+03 -1.803478E+05  7.842682E+04 -6.369901E+02  4.173785E-09 -3.606566E-10
        14  14 -5.105657E+04 -2.231566E+05  1.188084E+05  7.008976E+02 -1.551837E-09 -2.005235E-11
        14  15  2.128270E+05 -1.803467E+05  2.786024E+05 -2.427987E+02 -4.965280E-11  3.536666E-10
        14  16 -1.740654E+04 -2.230851E+05  6.774741E+04  4.732387E+03 -1.336103E-09 -2.638369E-10
        14  17 -6.160919E+04 -2.654065E+05  1.082560E+05 -1.938946E+03 -4.540611E-09  6.125663E-10
        14  18  2.024349E+05 -2.221057E+05  2.681744E+05 -1.089221E+04  2.790192E-09 -2.870307E-10
        14  19  4.002342E+03 -1.376049E+05  8.911286E+04 -6.006752E+03 -3.197587E+02  5.996841E+04
        14  20 -4.049985E+04 -1.808882E+05  1.293899E+05  3.340879E+03 -4.238392E+02  1.249891E+05
        14  21  2.232291E+05 -1.385470E+05  2.890982E+05  1.040726E+04 -4.104097E+02  1.900076E+05
        14  22 -6.701603E+03 -1.803439E+05  7.843358E+04 -6.370055E+02 -3.192485E+02  5.997053E+04
        14  23 -5.105237E+04 -2.231398E+05  1.188377E+05  7.008549E+02 -4.243658E+02  1.249790E+05
        14  24  2.128367E+05 -1.803079E+05  2.786702E+05 -2.428619E+02 -4.136475E+02  1.899854E+05
        14  25 -1.740558E+04 -2.230812E+05  6.775418E+04  4.732371E+03 -3.187382E+02  5.997265E+04
        14  26 -6.160500E+04 -2.653897E+05  1.082854E+05 -1.938988E+03 -4.248923E+02  1.249689E+05
        14  27  2.024446E+05 -2.220670E+05  2.682422E+05 -1.089227E+04 -4.168846E+02  1.899631E+05
        15   1  1.455902E+05 -8.280179E+05  1.407565E+05 -3.292595E+02  1.846850E+04 -3.813504E+00
        15   2  1.451328E+05 -8.299857E+05  1.402723E+05  1.714126E+02  1.842596E+04  1.050795E+01
        15   3  1.447163E+05 -8.315616E+05  1.398697E+05 -6.614427E+02  1.832382E+04  2.471210E+01
        15   4 -5.760035E+01 -1.414741E+06 -4.326380E+01 -2.963596E+02  1.846966E+04  2.604496E+00
        15   5 -7.385116E+01 -1.414934E+06 -9.747105E+01  3.704549E+02  1.842710E+04  4.690547E+01
        15   6 -5.454250E+01 -1.414741E+06 -9.081655E+01 -2.963306E+02  1.832491E+04  9.108962E+01
        15   7 -1.457304E+05 -2.001148E+06 -1.408675E+05 -2.634828E+02  1.847082E+04  9.016448E+00
        15   8 -1.453054E+05 -1.999569E+06 -1.404915E+05  5.693440E+02  1.842823E+04  8.326879E+01
        15   9 -1.448502E+05 -1.997608E+06 -1.400755E+05  6.849935E+01  1.832600E+04  1.574049E+02
        15  10  1.455898E+05 -8.280180E+05  1.407559E+05 -3.292594E+02 -4.466441E-10  7.834830E-09
        15  11  1.451324E+05 -8.299857E+05  1.402716E+05  1.714124E+02 -4.327985E-09  4.582723E-09
        15  12  1.447160E+05 -8.315617E+05  1.398691E+05 -6.614431E+02 -3.768121E-09  6.400957E-10
        15  13 -5.796642E+01 -1.414741E+06 -4.390442E+01 -2.963596E+02  7.011411E-09  4.587494E-11
        15  14 -7.421555E+01 -1.414934E+06 -9.810873E+01  3.704542E+02 -2.066840E-09 -4.984259E-10
        15  15 -5.490286E+01 -1.414741E+06 -9.144718E+01 -2.963320E+02 -4.428356E-09  2.644810E-10
        15  16 -1.457308E+05 -2.001148E+06 -1.408681E+05 -2.634829E+02  4.944879E-10 -7.697621E-09
        15  17 -1.453058E+05 -1.999569E+06 -1.404922E+05  5.693428E+02 -6.161432E-09 -5.171485E-09
        15  18 -1.448505E+05 -1.997608E+06 -1.400762E+05  6.849702E+01  3.694496E-09 -8.174937E-10
        15  19  1.455902E+05 -8.280179E+05  1.407565E+05 -3.292595E+02 -1.846850E+04  3.813504E+00
        15  20  1.451328E+05 -8.299857E+05  1.402723E+05  1.714126E+02 -1.842596E+04 -1.050795E+01
        15  21  1.447163E+05 -8.315616E+05  1.398697E+05 -6.614427E+02 -1.832382E+04 -2.471210E+01
        15  22 -5.760035E+01 -1.414741E+06 -4.326380E+01 -2.963596E+02 -1.846966E+04 -2.604496E+00
        15  23 -7.385116E+01 -1.414934E+06 -9.747105E+01  3.704549E+02 -1.842710E+04 -4.690547E+01
        15  24 -5.454250E+01 -1.414741E+06 -9.081655E+01 -2.963306E+02 -1.832491E+04 -9.108962E+01
        15  25 -1.457304E+05 -2.001148E+06 -1.408675E+05 -2.634828E+02 -1.847082E+04 -9.016448E+00
        15  26 -1.453054E+05 -1.999569E+06 -1.404915E+05  5.693440E+02 -1.842823E+04 -8.326879E+01
        15  27 -1.448502E+05 -1.997608E+06 -1.400755E+05  6.849935E+01 -1.832600E+04 -1.574049E+02
        16   1  1.435259E+05 -8.363504E+05  1.386715E+05 -1.302991E+03  1.823961E+04  2.837187E+01
        16   2  1.421996E+05 -8.418157E+05  1.372796E+05  5.181330E+02  1.805292E+04  1.185089E+02
        16   3  1.409095E+05 -8.469275E+05  1.359132E+05 -1.611941E+03  1.780765E+04  2.083024E+02
        16   4 -5.409724E+01 -1.414748E+06 -1.202639E+02 -8.780761E+02  1.824066E+04  1.075254E+02
        16   5 -6.907104E+01 -1.414921E+06 -2.493561E+02  1.097649E+03  1.805388E+04  2.270675E+02
        16   6 -5.302716E+01 -1.414747E+06 -3.735149E+02 -8.780521E+02  1.780850E+04  3.462668E+02
        16   7 -1.436585E+05 -1.992838E+06 -1.389357E+05 -4.534819E+02  1.824171E+04  1.866054E+02
        16   8 -1.423616E+05 -1.987725E+06 -1.378016E+05  1.676728E+03  1.805484E+04  3.355261E+02
        16   9 -1.410390E+05 -1.982270E+06 -1.366831E+05 -1.447123E+02  1.780934E+04  4.841053E+02
        16  10  1.435256E+05 -8.363504E+05  1.386708E+05 -1.302991E+03 -4.959522E-09 -7.721118E-09
        16  11  1.421992E+05 -8.418158E+05  1.372790E+05  5.181313E+02  1.623525E-09  2.617691E-09
        16  12  1.409092E+05 -8.469276E+05  1.359126E+05 -1.611944E+03  1.249673E-09  1.284970E-08
        16  13 -5.445429E+01 -1.414748E+06 -1.208887E+02 -8.780777E+02  2.858828E-09  5.040668E-10
        16  14 -6.942082E+01 -1.414921E+06 -2.499683E+02  1.097646E+03  4.797057E-09 -1.321101E-09
        16  15 -5.336752E+01 -1.414747E+06 -3.741107E+02 -8.780571E+02 -2.860745E-10  6.413876E-10
        16  16 -1.436588E+05 -1.992838E+06 -1.389364E+05 -4.534847E+02  4.859298E-09  7.664495E-09
        16  17 -1.423620E+05 -1.987725E+06 -1.378023E+05  1.676724E+03  2.054249E-10 -4.302433E-09
        16  18 -1.410394E+05 -1.982270E+06 -1.366837E+05 -1.447192E+02 -2.900930E-11 -1.320628E-08
        16  19  1.435259E+05 -8.363504E+05  1.386715E+05 -1.302991E+03 -1.823961E+04 -2.837187E+01
        16  20  1.421996E+05 -8.418157E+05  1.372796E+05  5.181330E+02 -1.805292E+04 -1.185089E+02
        16  21  1.409095E+05 -8.469275E+05  1.359132E+05 -1.611941E+03 -1.780765E+04 -2.083024E+02
        16  22 -5.409724E+01 -1.414748E+06 -1.202639E+02 -8.780761E+02 -1.824066E+04 -1.075254E+02
        16  23 -6.907104E+01 -1.414921E+06 -2.493561E+02  1.097649E+03 -1.805388E+04 -2.270675E+02
        16  24 -5.302716E+01 -1.414747E+06 -3.735149E+02 -8.780521E+02 -1.780850E+04 -3.462668E+02
        16  25 -1.436585E+05 -1.992838E+06 -1.389357E+05 -4.534819E+02 -1.824171E+04 -1.866054E+02
        16  26 -1.423616E+05 -1.987725E+06 -1.378016E+05  1.676728E+03 -1.805484E+04 -3.355261E+02
        16  27 -1.410390E+05 -1.982270E+06 -1.366831E+05 -1.447123E+02 -1.780934E+04 -4.841053E+02
        17   1  1.385672E+05 -8.564094E+05  1.334793E+05 -2.206614E+03  1.764124E+04  2.724872E+02
        17   2  1.364051E+05 -8.652233E+05  1.310052E+05  8.927886E+02  1.731344E+04  6.858086E+02
        17   3  1.341705E+05 -8.738053E+05  1.283076E+05 -2.497257E+03  1.692601E+04  1.098569E+03
        17   4 -3.986142E+01 -1.414771E+06 -4.954716E+02 -1.442066E+03  1.764201E+04  4.218987E+02
        17   5 -4.683752E+01 -1.414883E+06 -8.996544E+02  1.802737E+03  1.731405E+04  8.648998E+02
        17   6 -1.317548E+02 -1.414769E+06 -1.548151E+03 -1.442273E+03  1.692645E+04  1.307345E+03
        17   7 -1.386696E+05 -1.972846E+06 -1.344924E+05 -6.780732E+02  1.764278E+04  5.711760E+02
        17   8 -1.365208E+05 -1.964266E+06 -1.328260E+05  2.712029E+03  1.731467E+04  1.043833E+03
        17   9 -1.344553E+05 -1.955465E+06 -1.314247E+05 -3.880420E+02  1.692689E+04  1.515939E+03
        17  10  1.385669E+05 -8.564095E+05  1.334787E+05 -2.206618E+03 -2.764993E-10 -8.804038E-09
        17  11  1.364048E+05 -8.652234E+05  1.310046E+05  8.927791E+02 -5.817356E-10 -8.051169E-09
        17  12  1.341702E+05 -8.738054E+05  1.283071E+05 -2.497272E+03 -1.511332E-10  2.658889E-09
        17  13 -4.019547E+01 -1.414771E+06 -4.960564E+02 -1.442072E+03  1.915283E-09  9.667802E-10
        17  14 -4.715942E+01 -1.414883E+06 -9.002188E+02  1.802725E+03  1.759355E-09 -2.367796E-09
        17  15 -1.320627E+02 -1.414769E+06 -1.548693E+03 -1.442291E+03 -7.353383E-10  9.884495E-10
        17  16 -1.386699E+05 -1.972846E+06 -1.344929E+05 -6.780814E+02 -2.612392E-09  8.796172E-09
        17  17 -1.365211E+05 -1.964266E+06 -1.328265E+05  2.712014E+03 -6.884976E-09  5.311017E-09
        17  18 -1.344556E+05 -1.955465E+06 -1.314253E+05 -3.880627E+02 -2.670160E-09 -3.110387E-09
        17  19  1.385672E+05 -8.564094E+05  1.334793E+05 -2.206614E+03 -1.764124E+04 -2.724872E+02
        17  20  1.364051E+05 -8.652233E+05  1.310052E+05  8.927886E+02 -1.731344E+04 -6.858086E+02
        17  21  1.341705E+05 -8.738053E+05  1.283076E+05 -2.497257E+03 -1.692601E+04 -1.098569E+03
        17  22 -3.986142E+01 -1.414771E+06 -4.954716E+02 -1.442066E+03 -1.764201E+04 -4.218987E+02
        17  23 -4.683752E+01 -1.414883E+06 -8.996544E+02  1.802737E+03 -1.731405E+04 -8.648998E+02
        17  24 -1.317548E+02 -1.414769E+06 -1.548151E+03 -1.442273E+03 -1.692645E+04 -1.307345E+03
        17  25 -1.386696E+05 -1.972846E+06 -1.344924E+05 -6.780732E+02 -1.764278E+04 -5.711760E+02
        17  26 -1.365208E+05 -1.964266E+06 -1.328260E+05  2.712029E+03 -1.731467E+04 -1.043833E+03
        17  27 -1.344553E+05 -1.955465E+06 -1.314247E+05 -3.880420E+02 -1.692689E+04 -1.515939E+03
        18   1  9.200074E+04  9.798932E+05  5.168240E+04 -4.307831E+00  3.229497E+04  2.347165E-01
        18   2  9.200604E+04  9.799172E+05  5.169086E+04 -2.487676E+01  3.229622E+04 -5.830626E+00
        18   3  9.201262E+04  9.799514E+05  5.170645E+04 -4.225156E+01  3.229875E+04 -1.189561E+01
        18   4 -3.375232E+01  5.710145E+05  1.628783E+01  7.101255E-01  3.229721E+04 -1.264076E+00
        18   5 -3.540064E+01  5.710092E+05  1.937881E+01 -8.866118E-01  3.229847E+04 -1.037654E+01
        18   6 -3.523142E+01  5.710145E+05  3.171983E+01  7.115513E-01  3.230100E+04 -1.948868E+01
        18   7 -9.207505E+04  1.623072E+05 -5.165036E+04  5.725241E+00  3.229946E+04 -2.761931E+00
        18   8 -9.208364E+04  1.622726E+05 -5.165263E+04  2.308974E+01  3.230072E+04 -1.491961E+01
        18   9 -9.208989E+04  1.622491E+05 -5.164354E+04  4.364991E+01  3.230325E+04 -2.707701E+01
        18  10  9.199962E+04  9.798929E+05  5.168044E+04 -4.307837E+00 -9.196478E-09  5.320824E-08
        18  11  9.200492E+04  9.799169E+05  5.168890E+04 -2.487661E+01 -3.786431E-09  5.954620E-08
        18  12  9.201150E+04  9.799511E+05  5.170449E+04 -4.225125E+01 -2.710700E-10  5.656081E-08
        18  13 -3.487274E+01  5.710142E+05  1.432710E+01  7.101580E-01  3.971473E-08 -1.881943E-11
        18  14 -3.652115E+01  5.710089E+05  1.741793E+01 -8.863422E-01  1.316844E-08 -1.345951E-10
        18  15 -3.635210E+01  5.710142E+05  2.975864E+01  7.120579E-01 -8.952177E-09  1.762090E-10
        18  16 -9.207617E+04  1.623069E+05 -5.165232E+04  5.725313E+00 -1.191784E-08 -5.313509E-08
        18  17 -9.208476E+04  1.622723E+05 -5.165459E+04  2.309013E+01 -5.559087E-09 -5.956341E-08
        18  18 -9.209101E+04  1.622488E+05 -5.164550E+04  4.365062E+01 -2.198205E-09 -5.645361E-08
        18  19  9.200074E+04  9.798932E+05  5.168240E+04 -4.307831E+00 -3.229497E+04 -2.347164E-01
        18  20  9.200604E+04  9.799172E+05  5.169086E+04 -2.487676E+01 -3.229622E+04  5.830626E+00
        18  21  9.201262E+04  9.799514E+05  5.170645E+04 -4.225156E+01 -3.229875E+04  1.189561E+01
        18  22 -3.375232E+01  5.710145E+05  1.628783E+01  7.101252E-01 -3.229721E+04  1.264076E+00
        18  23 -3.540064E+01  5.710092E+05  1.937881E+01 -8.866121E-01 -3.229847E+04  1.037654E+01
        18  24 -3.523142E+01  5.710145E+05  3.171983E+01  7.115510E-01 -3.230100E+04  1.948868E+01
        18  25 -9.207505E+04  1.623072E+05 -5.165036E+04  5.725241E+00 -3.229946E+04  2.761931E+00
        18  26 -9.208364E+04  1.622726E+05 -5.165263E+04  2.308974E+01 -3.230072E+04  1.491961E+01
        18  27 -9.208989E+04  1.622491E+05 -5.164354E+04  4.364991E+01 -3.230325E+04  2.707701E+01
        19   1  9.202012E+04  9.799879E+05  5.172100E+04 -5.063125E+01  3.230104E+04 -1.525168E+01
        19   2  9.203672E+04  9.800676E+05  5.176463E+04 -7.974014E+01  3.230487E+04 -5.127064E+01
        19   3  9.205624E+04  9.801618E+05  5.183528E+04 -9.505811E+01  3.230769E+04 -8.728874E+01
        19   4 -3.596998E+01  5.710152E+05  4.089099E+01  3.066537E+00  3.230328E+04 -2.566213E+01
        19   5 -3.984293E+01  5.710082E+05  6.884057E+01 -3.828863E+00  3.230712E+04 -5.921998E+01
        19   6 -4.123090E+01  5.710152E+05  1.221144E+02  3.067167E+00  3.230994E+04 -9.277697E+01
        19   7 -9.209886E+04  1.622140E+05 -5.163975E+04  5.673341E+01  3.230553E+04 -3.606606E+01
        19   8 -9.212321E+04  1.621203E+05 -5.162748E+04  7.203830E+01  3.230937E+04 -6.716434E+01
        19   9 -9.214551E+04  1.620402E+05 -5.159159E+04  1.011351E+02  3.231219E+04 -9.826176E+01
        19  10  9.201900E+04  9.799876E+05  5.171904E+04 -5.063085E+01  1.448506E-10 -6.446168E-08
        19  11  9.203560E+04  9.800674E+05  5.176267E+04 -7.973880E+01 -5.127449E-09 -3.719178E-08
        19  12  9.205511E+04  9.801615E+05  5.183332E+04 -9.505584E+01 -5.241482E-10 -4.941896E-09
        19  13 -3.709082E+01  5.710149E+05  3.892952E+01  3.067205E+00 -1.823852E-08  1.131717E-10
        19  14 -4.096403E+01  5.710079E+05  6.687863E+01 -3.827322E+00 -1.105121E-08 -4.914352E-10
        19  15 -4.235220E+01  5.710149E+05  1.201521E+02  3.069581E+00 -5.521564E-09  3.072220E-10
        19  16 -9.209998E+04  1.622137E+05 -5.164171E+04  5.673435E+01 -2.597688E-09  6.423201E-08
        19  17 -9.212433E+04  1.621201E+05 -5.162944E+04  7.204004E+01 -3.645135E-09  3.697952E-08
        19  18 -9.214663E+04  1.620399E+05 -5.159355E+04  1.011377E+02 -3.631110E-09  5.151494E-09
        19  19  9.202012E+04  9.799879E+05  5.172100E+04 -5.063125E+01 -3.230104E+04  1.525168E+01
        19  20  9.203672E+04  9.800676E+05  5.176463E+04 -7.974014E+01 -3.230487E+04  5.127064E+01
        19  21  9.205624E+04  9.801618E+05  5.183528E+04 -9.505811E+01 -3.230769E+04  8.728874E+01
        19  22 -3.596998E+01  5.710152E+05  4.089099E+01  3.066537E+00 -3.230328E+04  2.566213E+01
        19  23 -3.984293E+01  5.710082E+05  6.884057E+01 -3.828862E+00 -3.230712E+04  5.921998E+01
        19  24 -4.123090E+01  5.710152E+05  1.221144E+02  3.067167E+00 -3.230994E+04  9.277697E+01
        19  25 -9.209886E+04  1.622140E+05 -5.163975E+04  5.673341E+01 -3.230553E+04  3.606606E+01
        19  26 -9.212321E+04  1.621203E+05 -5.162748E+04  7.203830E+01 -3.230937E+04  6.716434E+01
        19  27 -9.214551E+04  1.620402E+05 -5.159159E+04  1.011351E+02 -3.231219E+04  9.826176E+01
        20   1  9.207180E+04  9.802386E+05  5.188912E+04 -1.075416E+02  3.230994E+04 -1.110250E+02
        20   2  9.210386E+04  9.803642E+05  5.205321E+04 -1.460657E+02  3.230378E+04 -2.932384E+02
        20   3  9.215895E+04  9.805283E+05  5.234443E+04 -1.614876E+02  3.227938E+04 -4.754559E+02
        20   4 -4.322100E+01  5.710189E+05  1.612168E+02  5.135103E+00  3.231219E+04 -1.179477E+02
        20   5 -4.836954E+01  5.710034E+05  2.803375E+02 -6.414678E+00  3.230602E+04 -2.562428E+02
        20   6 -3.810226E+01  5.710188E+05  4.961594E+02  5.137682E+00  3.228159E+04 -3.945427E+02
        20   7 -9.216505E+04  1.619710E+05 -5.156722E+04  1.177457E+02  3.231444E+04 -1.248660E+02
        20   8 -9.220742E+04  1.618145E+05 -5.149308E+04  1.331537E+02  3.230825E+04 -2.192704E+02
        20   9 -9.224199E+04  1.616812E+05 -5.135267E+04  1.716638E+02  3.228381E+04 -3.136801E+02
        20  10  9.207067E+04  9.802383E+05  5.188716E+04 -1.075387E+02  1.746710E-11 -2.668978E-08
        20  11  9.210274E+04  9.803639E+05  5.205125E+04 -1.460580E+02 -3.247774E-09 -3.047028E-08
        20  12  9.215783E+04  9.805280E+05  5.234247E+04 -1.614753E+02 -6.566123E-09 -2.791549E-08
        20  13 -4.434246E+01  5.710186E+05  1.592543E+02  5.138172E+00  4.817049E-09  3.149797E-10
        20  14 -4.949059E+01  5.710031E+05  2.783756E+02 -6.408012E+00  1.668431E-08 -7.009961E-10
        20  15 -3.922164E+01  5.710185E+05  4.942003E+02  5.147938E+00  2.546330E-08  4.686898E-10
        20  16 -9.216617E+04  1.619707E+05 -5.156918E+04  1.177489E+02 -1.597459E-09  2.628107E-08
        20  17 -9.220855E+04  1.618142E+05 -5.149504E+04  1.331594E+02 -6.871206E-09  3.018386E-08
        20  18 -9.224311E+04  1.616810E+05 -5.135463E+04  1.716720E+02 -1.109196E-08  2.806971E-08
        20  19  9.207180E+04  9.802386E+05  5.188912E+04 -1.075416E+02 -3.230994E+04  1.110250E+02
        20  20  9.210386E+04  9.803642E+05  5.205321E+04 -1.460657E+02 -3.230378E+04  2.932384E+02
        20  21  9.215895E+04  9.805283E+05  5.234443E+04 -1.614876E+02 -3.227938E+04  4.754559E+02
        20  22 -4.322100E+01  5.710189E+05  1.612168E+02  5.135103E+00 -3.231219E+04  1.179477E+02
        20  23 -4.836954E+01  5.710034E+05  2.803375E+02 -6.414678E+00 -3.230602E+04  2.562428E+02
        20  24 -3.810226E+01  5.710188E+05  4.961594E+02  5.137682E+00 -3.228159E+04  3.945427E+02
        20  25 -9.216505E+04  1.619710E+05 -5.156722E+04  1.177457E+02 -3.231444E+04  1.248660E+02
        20  26 -9.220742E+04  1.618145E+05 -5.149308E+04  1.331537E+02 -3.230825E+04  2.192704E+02
        20  27 -9.224199E+04  1.616812E+05 -5.135267E+04  1.716638E+02 -3.228381E+04  3.136801E+02
        21   1  2.869609E+05  2.568312E+04  3.760112E+05 -3.286383E+03 -1.511093E+03  2.563557E+05
        21   2 -6.942595E+04 -3.213067E+04  1.602743E+05 -1.428222E+03 -9.932211E+02  1.686658E+05
        21   3 -8.869391E+03  2.573506E+04  1.059006E+05  2.203245E+03 -4.763481E+02  8.097208E+04
        21   4  2.869041E+05  2.573996E+04  3.760112E+05  1.537460E+03 -1.509101E+03  2.563558E+05
        21   5 -6.944015E+04 -3.211637E+04  1.602743E+05 -2.197236E+02 -9.928927E+02  1.686658E+05
        21   6 -8.841039E+03  2.570679E+04  1.059006E+05 -2.033807E+02 -4.766619E+02  8.097208E+04
        21   7  2.868473E+05  2.579684E+04  3.760112E+05  6.361304E+03 -1.507109E+03  2.563558E+05
        21   8 -6.945436E+04 -3.210208E+04  1.602743E+05  9.887746E+02 -9.925644E+02  1.686658E+05
        21   9 -8.812665E+03  2.567853E+04  1.059006E+05 -2.610007E+03 -4.769759E+02  8.097208E+04
        21  10  2.869433E+05  2.561258E+04  3.758877E+05 -3.286071E+03 -2.617212E-06 -1.077735E-06
        21  11 -6.943360E+04 -3.216122E+04  1.602208E+05 -1.428087E+03 -1.163247E-05 -2.085910E-06
        21  12 -8.871191E+03  2.572802E+04  1.058883E+05  2.203277E+03 -2.063221E-05 -1.802523E-06
        21  13  2.868864E+05  2.566941E+04  3.758877E+05  1.537772E+03  3.273323E-06 -1.837637E-07
        21  14 -6.944779E+04 -3.214692E+04  1.602208E+05 -2.195888E+02  1.455270E-05 -8.151700E-07
        21  15 -8.842799E+03  2.569975E+04  1.058883E+05 -2.033495E+02  2.586351E-05 -1.446285E-06
        21  16  2.868297E+05  2.572630E+04  3.758877E+05  6.361615E+03 -2.642980E-06  8.843560E-07
        21  17 -6.946197E+04 -3.213261E+04  1.602209E+05  9.889092E+02 -1.166753E-05  1.228090E-06
        21  18 -8.814385E+03  2.567150E+04  1.058883E+05 -2.609976E+03 -2.064746E-05  2.805852E-07
        21  19  2.869609E+05  2.568312E+04  3.760112E+05 -3.286383E+03  1.511093E+03 -2.563557E+05
        21  20 -6.942599E+04 -3.213068E+04  1.602743E+05 -1.428222E+03  9.932211E+02 -1.686658E+05
        21  21 -8.869470E+03  2.573504E+04  1.059006E+05  2.203246E+03  4.763480E+02 -8.097208E+04
        21  22  2.869041E+05  2.573996E+04  3.760112E+05  1.537460E+03  1.509101E+03 -2.563558E+05
        21  23 -6.944015E+04 -3.211637E+04  1.602743E+05 -2.197237E+02  9.928927E+02 -1.686658E+05
        21  24 -8.841039E+03  2.570679E+04  1.059006E+05 -2.033806E+02  4.766620E+02 -8.097208E+04
        21  25  2.868474E+05  2.579685E+04  3.760112E+05  6.361304E+03  1.507109E+03 -2.563558E+05
        21  26 -6.945431E+04 -3.210207E+04  1.602743E+05  9.887742E+02  9.925643E+02 -1.686658E+05
        21  27 -8.812586E+03  2.567855E+04  1.059006E+05 -2.610007E+03  4.769758E+02 -8.097208E+04
        22   1  4.507748E+04  4.292322E+03  8.788592E+04 -4.880524E+02 -3.728643E+02  6.332702E+04
        22   2 -1.095345E+04 -5.368633E+03  4.207881E+04 -2.034268E+02 -2.425133E+02  4.119459E+04
        22   3 -1.191472E+03  4.303428E+03  2.713219E+04  3.547048E+02 -1.122033E+02  1.906234E+04
        22   4  4.506893E+04  4.300931E+03  8.788594E+04  2.399993E+02 -3.727900E+02  6.332702E+04
        22   5 -1.095544E+04 -5.366589E+03  4.207882E+04 -3.290151E+01 -2.425020E+02  4.119459E+04
        22   6 -1.186901E+03  4.298907E+03  2.713220E+04 -3.229439E+01 -1.122151E+02  1.906234E+04
        22   7  4.506038E+04  4.309541E+03  8.788595E+04  9.680510E+02 -3.727158E+02  6.332702E+04
        22   8 -1.095743E+04 -5.364544E+03  4.207884E+04  1.376239E+02 -2.424907E+02  4.119459E+04
        22   9 -1.182328E+03  4.294387E+03  2.713221E+04 -4.192936E+02 -1.122270E+02  1.906234E+04
        22  10  4.507636E+04  4.288006E+03  8.787838E+04 -4.880332E+02 -2.187225E-05 -3.862723E-07
        22  11 -1.095394E+04 -5.370464E+03  4.207562E+04 -2.034186E+02 -1.710496E-05  2.011475E-07
        22  12 -1.191594E+03  4.303032E+03  2.713150E+04  3.547067E+02 -1.234538E-05  2.913511E-07
        22  13  4.506785E+04  4.296625E+03  8.787840E+04  2.400183E+02  2.740671E-05 -1.541705E-06
        22  14 -1.095589E+04 -5.368411E+03  4.207564E+04 -3.289344E+01  2.139572E-05 -1.238784E-06
        22  15 -1.186998E+03  4.298517E+03  2.713152E+04 -3.229265E+01  1.539263E-05 -9.358862E-07
        22  16  4.505934E+04  4.305246E+03  8.787842E+04  9.680699E+02 -2.186497E-05 -1.233593E-06
        22  17 -1.095785E+04 -5.366358E+03  4.207565E+04  1.376318E+02 -1.709224E-05 -1.494341E-06
        22  18 -1.182402E+03  4.294003E+03  2.713153E+04 -4.192919E+02 -1.233665E-05 -1.257807E-06
        22  19  4.507739E+04  4.292301E+03  8.788590E+04 -4.880521E+02  3.728643E+02 -6.332702E+04
        22  20 -1.095351E+04 -5.368650E+03  4.207880E+04 -2.034265E+02  2.425133E+02 -4.119459E+04
        22  21 -1.191520E+03  4.303416E+03  2.713218E+04  3.547051E+02  1.122033E+02 -1.906234E+04
        22  22  4.506893E+04  4.300931E+03  8.788594E+04  2.399992E+02  3.727900E+02 -6.332702E+04
        22  23 -1.095544E+04 -5.366589E+03  4.207882E+04 -3.290147E+01  2.425020E+02 -4.119459E+04
        22  24 -1.186901E+03  4.298907E+03  2.713220E+04 -3.229437E+01  1.122152E+02 -1.906234E+04
        22  25  4.506046E+04  4.309562E+03  8.788597E+04  9.680507E+02  3.727157E+02 -6.332702E+04
        22  26 -1.095736E+04 -5.364528E+03  4.207885E+04  1.376237E+02  2.424907E+02 -4.119459E+04
        22  27 -1.182281E+03  4.294399E+03  2.713222E+04 -4.192937E+02  1.122270E+02 -1.906234E+04
        23   1  7.021220E+03  8.566921E+02  2.237600E+04 -7.950768E+01 -8.573483E+01  1.456358E+04
        23   2 -1.970787E+03 -1.064640E+03  1.320456E+04 -2.499596E+01 -4.591202E+01  7.799175E+03
        23   3  8.923512E+02  8.590010E+02  1.140109E+04  7.667100E+01 -6.092063E+00  1.034892E+03
        23   4  7.019865E+03  8.580669E+02  2.237600E+04  3.627450E+01 -8.573209E+01  1.456358E+04
        23   5 -1.971011E+03 -1.064397E+03  1.320456E+04 -5.337453E+00 -4.591176E+01  7.799175E+03
        23   6  8.932574E+02  8.581116E+02  1.140110E+04  2.071686E-01 -6.092176E+00  1.034892E+03
        23   7  7.018510E+03  8.594418E+02  2.237600E+04  1.520567E+02 -8.572940E+01  1.456358E+04
        23   8 -1.971236E+03 -1.064155E+03  1.320457E+04  1.432107E+01 -4.591153E+01  7.799175E+03
        23   9  8.941636E+02  8.572223E+02  1.140110E+04 -7.625665E+01 -6.092317E+00  1.034892E+03
        23  10  7.021143E+03  8.564594E+02  2.237559E+04 -7.950658E+01 -1.032371E-05 -7.079385E-08
        23  11 -1.970819E+03 -1.064709E+03  1.320444E+04 -2.499560E+01 -8.187662E-06 -1.102214E-07
        23  12  8.923392E+02  8.589969E+02  1.140109E+04  7.667115E+01 -6.127232E-06  5.184101E-07
        23  13  7.019808E+03  8.578392E+02  2.237560E+04  3.627551E+01  1.289364E-05 -8.056855E-07
        23  14 -1.971028E+03 -1.064463E+03  1.320445E+04 -5.337179E+00  1.027946E-05 -6.613537E-07
        23  15  8.932571E+02  8.581105E+02  1.140109E+04  2.072480E-01  7.594837E-06 -5.174012E-07
        23  16  7.018473E+03  8.592190E+02  2.237561E+04  1.520576E+02 -1.031897E-05 -7.559310E-07
        23  17 -1.971236E+03 -1.064216E+03  1.320446E+04  1.432129E+01 -8.183331E-06 -5.635405E-07
        23  18  8.941750E+02  8.572240E+02  1.140110E+04 -7.625661E+01 -6.107859E-06 -1.040146E-06
        23  19  7.021180E+03  8.566822E+02  2.237599E+04 -7.950748E+01  8.573481E+01 -1.456358E+04
        23  20 -1.970819E+03 -1.064648E+03  1.320455E+04 -2.499582E+01  4.591201E+01 -7.799175E+03
        23  21  8.923278E+02  8.589952E+02  1.140109E+04  7.667129E+01  6.092050E+00 -1.034892E+03
        23  22  7.019865E+03  8.580669E+02  2.237600E+04  3.627451E+01  8.573212E+01 -1.456358E+04
        23  23 -1.971011E+03 -1.064397E+03  1.320456E+04 -5.337481E+00  4.591178E+01 -7.799175E+03
        23  24  8.932573E+02  8.581116E+02  1.140110E+04  2.073172E-01  6.092192E+00 -1.034892E+03
        23  25  7.018550E+03  8.594517E+02  2.237601E+04  1.520566E+02  8.572938E+01 -1.456358E+04
        23  26 -1.971204E+03 -1.064147E+03  1.320457E+04  1.432094E+01  4.591151E+01 -7.799175E+03
        23  27  8.941870E+02  8.572281E+02  1.140111E+04 -7.625658E+01  6.092305E+00 -1.034892E+03
        24   1 -8.538568E+06 -2.680720E+06 -1.689744E+06 -3.038682E+06 -9.172110E+05 -3.371674E+05
        24   2 -8.364590E+06 -1.364971E+06 -8.543235E+05 -3.240252E+06 -5.926379E+05 -1.873980E+05
        24   3 -8.740245E+06 -1.336840E+06 -6.264891E+05 -3.087613E+06 -2.596681E+05 -5.967841E+04
        24   4 -7.799190E+06 -2.090120E+06 -1.425005E+06 -2.525353E+06 -9.021586E+05 -3.319957E+05
        24   5 -7.448061E+06 -9.280768E+05 -5.925643E+05 -2.899520E+06 -5.876417E+05 -1.856035E+05
        24   6 -7.643927E+06 -1.050669E+06 -3.590981E+05 -2.919731E+06 -2.646321E+05 -6.150276E+04
        24   7 -7.059037E+06 -1.498679E+06 -1.160292E+06 -2.011280E+06 -8.870861E+05 -3.267970E+05
        24   8 -6.530683E+06 -4.909765E+05 -3.308851E+05 -2.558277E+06 -5.826368E+05 -1.838038E+05
        24   9 -6.546401E+06 -7.645314E+05 -9.178370E+04 -2.751646E+06 -2.696055E+05 -6.332814E+04
        24  10 -8.539514E+06 -2.681074E+06 -1.691567E+06 -3.038933E+06  1.981131E-09  3.283926E-11
        24  11 -8.364981E+06 -1.365105E+06 -8.550610E+05 -3.240342E+06  1.152340E-09 -7.836010E-10
        24  12 -8.740320E+06 -1.336862E+06 -6.266247E+05 -3.087626E+06 -8.954782E-10 -8.565312E-10
        24  13 -7.800104E+06 -2.090462E+06 -1.426767E+06 -2.525596E+06 -7.281961E-09  7.364801E-11
        24  14 -7.448445E+06 -9.282086E+05 -5.932880E+05 -2.899609E+06 -8.525169E-09 -2.545260E-10
        24  15 -7.644004E+06 -1.050692E+06 -3.592388E+05 -2.919744E+06 -3.377209E-09 -1.053806E-09
        24  16 -7.059920E+06 -1.499009E+06 -1.161993E+06 -2.011515E+06  1.867089E-09  2.206700E-11
        24  17 -6.531060E+06 -4.911057E+05 -3.315952E+05 -2.558364E+06 -2.554360E-09  2.076319E-10
        24  18 -6.546481E+06 -7.645555E+05 -9.192959E+04 -2.751659E+06 -1.367493E-09 -2.044578E-09
        24  19 -8.538568E+06 -2.680720E+06 -1.689744E+06 -3.038682E+06  9.172110E+05  3.371674E+05
        24  20 -8.364590E+06 -1.364971E+06 -8.543235E+05 -3.240252E+06  5.926379E+05  1.873980E+05
        24  21 -8.740245E+06 -1.336840E+06 -6.264891E+05 -3.087613E+06  2.596681E+05  5.967841E+04
        24  22 -7.799190E+06 -2.090120E+06 -1.425005E+06 -2.525353E+06  9.021586E+05  3.319957E+05
        24  23 -7.448061E+06 -9.280768E+05 -5.925643E+05 -2.899520E+06  5.876417E+05  1.856035E+05
        24  24 -7.643927E+06 -1.050669E+06 -3.590981E+05 -2.919731E+06  2.646321E+05  6.150276E+04
        24  25 -7.059037E+06 -1.498679E+06 -1.160292E+06 -2.011280E+06  8.870861E+05  3.267970E+05
        24  26 -6.530683E+06 -4.909765E+05 -3.308851E+05 -2.558277E+06  5.826368E+05  1.838038E+05
        24  27 -6.546401E+06 -7.645314E+05 -9.178370E+04 -2.751646E+06  2.696055E+05  6.332814E+04
        25   1 -8.570518E+06 -1.607966E+06 -5.601676E+05 -3.139435E+06 -2.138801E+05 -4.560949E+04
        25   2 -8.532479E+06 -1.447018E+06 -4.010521E+05 -3.147019E+06 -1.409104E+05 -1.647934E+04
        25   3 -8.545040E+06 -1.442995E+06 -3.364197E+05 -3.132471E+06 -6.696305E+04  1.008784E+04
        25   4 -7.593209E+06 -1.204823E+06 -2.922033E+05 -2.839837E+06 -2.129302E+05 -4.526613E+04
        25   5 -7.559493E+06 -1.069220E+06 -1.394910E+05 -2.872474E+06 -1.410467E+05 -1.653739E+04
        25   6 -7.576063E+06 -1.090180E+06 -8.027701E+04 -2.883001E+06 -6.818680E+04  9.623149E+03
        25   7 -6.614961E+06 -8.015737E+05 -2.432777E+04 -2.539788E+06 -2.119784E+05 -4.492190E+04
        25   8 -6.585577E+06 -6.913514E+05  1.219855E+05 -2.597530E+06 -1.411831E+05 -1.659547E+04
        25   9 -6.606163E+06 -7.373245E+05  1.757855E+05 -2.633181E+06 -6.941261E+04  9.157759E+03
        25  10 -8.570568E+06 -1.607981E+06 -5.602588E+05 -3.139443E+06 -6.003181E-09 -1.517851E-09
        25  11 -8.532501E+06 -1.447024E+06 -4.010905E+05 -3.147021E+06 -2.914315E-09 -1.319225E-09
        25  12 -8.545045E+06 -1.442996E+06 -3.364284E+05 -3.132471E+06 -6.387754E-09 -1.140078E-09
        25  13 -7.593259E+06 -1.204838E+06 -2.922935E+05 -2.839844E+06 -5.499803E-09 -1.296835E-09
        25  14 -7.559514E+06 -1.069226E+06 -1.395294E+05 -2.872476E+06 -1.107227E-08 -1.476596E-09
        25  15 -7.576068E+06 -1.090181E+06 -8.028601E+04 -2.883001E+06 -8.592803E-09 -1.318049E-09
        25  16 -6.615010E+06 -8.015882E+05 -2.441706E+04 -2.539796E+06  4.166664E-09 -8.880555E-10
        25  17 -6.585599E+06 -6.913571E+05  1.219471E+05 -2.597532E+06  1.113003E-09 -1.593845E-09
        25  18 -6.606168E+06 -7.373259E+05  1.757762E+05 -2.633181E+06 -9.808093E-10 -1.765612E-09
        25  19 -8.570518E+06 -1.607966E+06 -5.601676E+05 -3.139435E+06  2.138801E+05  4.560949E+04
        25  20 -8.532479E+06 -1.447018E+06 -4.010521E+05 -3.147019E+06  1.409104E+05  1.647934E+04
        25  21 -8.545040E+06 -1.442995E+06 -3.364197E+05 -3.132471E+06  6.696305E+04 -1.008784E+04
        25  22 -7.593209E+06 -1.204823E+06 -2.922033E+05 -2.839837E+06  2.129302E+05  4.526613E+04
        25  23 -7.559493E+06 -1.069220E+06 -1.394910E+05 -2.872474E+06  1.410467E+05  1.653739E+04
        25  24 -7.576063E+06 -1.090180E+06 -8.027701E+04 -2.883001E+06  6.818680E+04 -9.623149E+03
        25  25 -6.614961E+06 -8.015737E+05 -2.432777E+04 -2.539788E+06  2.119784E+05  4.492190E+04
        25  26 -6.585577E+06 -6.913514E+05  1.219855E+05 -2.597530E+06  1.411831E+05  1.659547E+04
        25  27 -6.606163E+06 -7.373245E+05  1.757855E+05 -2.633181E+06  6.941261E+04 -9.157759E+03
        26   1 -8.461277E+06 -1.453872E+06 -3.025134E+05 -3.126443E+06 -5.542100E+04  1.298105E+04
        26   2 -8.416779E+06 -1.398000E+06 -2.564484E+05 -3.092707E+06 -3.786458E+04  1.721024E+04
        26   3 -8.344925E+06 -1.392605E+06 -2.270890E+05 -3.094484E+06 -2.000412E+04  2.062216E+04
        26   4 -7.565252E+06 -1.111213E+06 -6.270528E+04 -2.878942E+06 -5.625603E+04  1.266206E+04
        26   5 -7.578004E+06 -1.079701E+06 -3.239773E+04 -2.863540E+06 -3.905698E+04  1.675791E+04
        26   6 -7.563322E+06 -1.098576E+06 -1.848992E+04 -2.883648E+06 -2.155583E+04  2.003622E+04
        26   7 -6.668441E+06 -7.685005E+05  1.770317E+05 -2.631112E+06 -5.709235E+04  1.234256E+04
        26   8 -6.738541E+06 -7.613596E+05  1.915906E+05 -2.634088E+06 -4.025115E+04  1.630492E+04
        26   9 -6.781123E+06 -8.045125E+05  1.900549E+05 -2.672571E+06 -2.310971E+04  1.944949E+04
        26  10 -8.461280E+06 -1.453873E+06 -3.025195E+05 -3.126443E+06 -1.630146E-09 -1.782489E-09
        26  11 -8.416780E+06 -1.398000E+06 -2.564516E+05 -3.092707E+06  1.931389E-09 -1.136899E-09
        26  12 -8.344926E+06 -1.392605E+06 -2.270906E+05 -3.094483E+06  1.083270E-08  1.137546E-09
        26  13 -7.565256E+06 -1.111214E+06 -6.271158E+04 -2.878942E+06 -1.775008E-09 -1.737080E-09
        26  14 -7.578006E+06 -1.079702E+06 -3.240114E+04 -2.863539E+06 -3.510216E-09 -2.761227E-10
        26  15 -7.563323E+06 -1.098576E+06 -1.849155E+04 -2.883648E+06  6.591644E-09  3.548082E-09
        26  16 -6.668444E+06 -7.685016E+05  1.770253E+05 -2.631111E+06 -4.137991E-09 -3.157388E-09
        26  17 -6.738543E+06 -7.613604E+05  1.915870E+05 -2.634088E+06 -3.972680E-09 -4.423617E-09
        26  18 -6.781124E+06 -8.045130E+05  1.900532E+05 -2.672570E+06  1.254068E-09 -1.245882E-09
        26  19 -8.461277E+06 -1.453872E+06 -3.025134E+05 -3.126443E+06  5.542100E+04 -1.298105E+04
        26  20 -8.416779E+06 -1.398000E+06 -2.564484E+05 -3.092707E+06  3.786458E+04 -1.721024E+04
        26  21 -8.344925E+06 -1.392605E+06 -2.270890E+05 -3.094484E+06  2.000412E+04 -2.062216E+04
        26  22 -7.565252E+06 -1.111213E+06 -6.270528E+04 -2.878942E+06  5.625603E+04 -1.266206E+04
        26  23 -7.578004E+06 -1.079701E+06 -3.239773E+04 -2.863540E+06  3.905698E+04 -1.675791E+04
        26  24 -7.563322E+06 -1.098576E+06 -1.848992E+04 -2.883648E+06  2.155583E+04 -2.003622E+04
        26  25 -6.668441E+06 -7.685005E+05  1.770317E+05 -2.631112E+06  5.709235E+04 -1.234256E+04
        26  26 -6.738541E+06 -7.613596E+05  1.915906E+05 -2.634088E+06  4.025115E+04 -1.630492E+04
        26  27 -6.781123E+06 -8.045125E+05  1.900549E+05 -2.672571E+06  2.310971E+04 -1.944949E+04
        27   1 -8.228013E+06 -1.357381E+06 -1.928353E+05 -3.069166E+06 -1.654960E+04  1.967869E+04
        27   2 -8.164781E+06 -1.296061E+06 -1.635721E+05 -3.015563E+06 -1.063267E+04  1.775360E+04
        27   3 -8.050650E+06 -1.288360E+06 -1.381308E+05 -3.020725E+06 -4.543810E+03  1.535579E+04
        27   4 -7.558751E+06 -1.104137E+06 -1.446258E+04 -2.886971E+06 -1.814230E+04  1.907842E+04
        27   5 -7.584098E+06 -1.076647E+06 -8.666236E+03 -2.857845E+06 -1.244103E+04  1.707372E+04
        27   6 -7.558514E+06 -1.102729E+06 -6.515955E+03 -2.887483E+06 -6.568668E+03  1.459625E+04
        27   7 -6.889047E+06 -8.508642E+05  1.638717E+05 -2.704596E+06 -1.973691E+04  1.847744E+04
        27   8 -7.003085E+06 -8.572135E+05  1.462097E+05 -2.699992E+06 -1.425126E+04  1.639313E+04
        27   9 -7.066145E+06 -9.170856E+05  1.250764E+05 -2.754145E+06 -8.595296E+03  1.383606E+04
        27  10 -8.228014E+06 -1.357382E+06 -1.928366E+05 -3.069165E+06  4.137175E-10 -1.358517E-09
        27  11 -8.164781E+06 -1.296061E+06 -1.635729E+05 -3.015562E+06 -6.347267E-09 -3.733240E-09
        27  12 -8.050650E+06 -1.288361E+06 -1.381313E+05 -3.020725E+06 -1.810672E-09 -1.437650E-09
        27  13 -7.558752E+06 -1.104138E+06 -1.446388E+04 -2.886971E+06  6.998988E-09  4.034955E-09
        27  14 -7.584098E+06 -1.076647E+06 -8.667072E+03 -2.857845E+06  4.281286E-09  1.604703E-09
        27  15 -7.558514E+06 -1.102730E+06 -6.516435E+03 -2.887483E+06  4.474197E-09 -1.197999E-11
        27  16 -6.889048E+06 -8.508647E+05  1.638703E+05 -2.704596E+06  8.643815E-09  1.524392E-09
        27  17 -7.003085E+06 -8.572139E+05  1.462089E+05 -2.699992E+06  6.825192E-09  8.564421E-10
        27  18 -7.066145E+06 -9.170858E+05  1.250759E+05 -2.754145E+06 -5.525897E-10 -5.402849E-10
        27  19 -8.228013E+06 -1.357381E+06 -1.928353E+05 -3.069166E+06  1.654960E+04 -1.967869E+04
        27  20 -8.164781E+06 -1.296061E+06 -1.635721E+05 -3.015563E+06  1.063267E+04 -1.775360E+04
        27  21 -8.050650E+06 -1.288360E+06 -1.381308E+05 -3.020725E+06  4.543810E+03 -1.535579E+04
        27  22 -7.558751E+06 -1.104137E+06 -1.446258E+04 -2.886971E+06  1.814230E+04 -1.907842E+04
        27  23 -7.584098E+06 -1.076647E+06 -8.666236E+03 -2.857845E+06  1.244103E+04 -1.707372E+04
        27  24 -7.558514E+06 -1.102729E+06 -6.515955E+03 -2.887483E+06  6.568668E+03 -1.459625E+04
        27  25 -6.889047E+06 -8.508642E+05  1.638717E+05 -2.704596E+06  1.973691E+04 -1.847744E+04
        27  26 -7.003085E+06 -8.572135E+05  1.462097E+05 -2.699992E+06  1.425126E+04 -1.639313E+04
        27  27 -7.066145E+06 -9.170856E+05  1.250764E+05 -2.754145E+06  8.595296E+03 -1.383606E+04
        28   1 -7.901929E+06 -1.235535E+06 -9.818531E+04 -2.983927E+06 -2.479568E+03  1.320039E+04
        28   2 -7.826313E+06 -1.164206E+06 -7.152027E+04 -2.919589E+06  3.124037E+03  1.013224E+04
        28   3 -7.690157E+06 -1.156187E+06 -4.822680E+04 -2.925715E+06  8.791359E+03  6.887796E+03
        28   4 -7.556361E+06 -1.105018E+06 -6.375291E+03 -2.890020E+06 -4.553415E+03  1.242336E+04
        28   5 -7.586696E+06 -1.073799E+06 -7.636332E+03 -2.854627E+06  9.694194E+02  9.325618E+03
        28   6 -7.556485E+06 -1.105874E+06 -1.220263E+04 -2.889701E+06  6.555220E+03  6.051382E+03
        28   7 -7.210675E+06 -9.744931E+05  8.542465E+04 -2.796065E+06 -6.628551E+03  1.164584E+04
        28   8 -7.347021E+06 -9.833891E+05  5.624300E+04 -2.789641E+06 -1.186136E+03  8.518646E+03
        28   9 -7.422794E+06 -1.055560E+06  2.382028E+04 -2.853680E+06  4.318526E+03  5.214763E+03
        28  10 -7.901929E+06 -1.235535E+06 -9.818565E+04 -2.983927E+06  2.200589E-09 -8.096880E-10
        28  11 -7.826313E+06 -1.164206E+06 -7.152049E+04 -2.919589E+06  1.156494E-08  5.959157E-10
        28  12 -7.690157E+06 -1.156187E+06 -4.822703E+04 -2.925715E+06  1.141512E-08  2.463803E-09
        28  13 -7.556361E+06 -1.105018E+06 -6.375618E+03 -2.890020E+06  4.159687E-09 -7.225386E-10
        28  14 -7.586696E+06 -1.073799E+06 -7.636498E+03 -2.854627E+06  3.340277E-09  1.558368E-09
        28  15 -7.556485E+06 -1.105874E+06 -1.220279E+04 -2.889702E+06  4.045732E-09  4.793445E-09
        28  16 -7.210675E+06 -9.744933E+05  8.542432E+04 -2.796064E+06  6.769610E-10 -2.138167E-09
        28  17 -7.347021E+06 -9.833891E+05  5.624286E+04 -2.789641E+06 -2.197883E-09 -3.047182E-09
        28  18 -7.422794E+06 -1.055560E+06  2.382019E+04 -2.853680E+06 -2.303884E-09 -7.614827E-10
        28  19 -7.901929E+06 -1.235535E+06 -9.818531E+04 -2.983927E+06  2.479568E+03 -1.320039E+04
        28  20 -7.826313E+06 -1.164206E+06 -7.152027E+04 -2.919589E+06 -3.124037E+03 -1.013224E+04
        28  21 -7.690157E+06 -1.156187E+06 -4.822680E+04 -2.925715E+06 -8.791359E+03 -6.887796E+03
        28  22 -7.556361E+06 -1.105018E+06 -6.375291E+03 -2.890020E+06  4.553415E+03 -1.242336E+04
        28  23 -7.586696E+06 -1.073799E+06 -7.636332E+03 -2.854627E+06 -9.694194E+02 -9.325618E+03
        28  24 -7.556485E+06 -1.105874E+06 -1.220263E+04 -2.889701E+06 -6.555220E+03 -6.051382E+03
        28  25 -7.210675E+06 -9.744931E+05  8.542465E+04 -2.796065E+06  6.628551E+03 -1.164584E+04
        28  26 -7.347021E+06 -9.833891E+05  5.624300E+04 -2.789641E+06  1.186136E+03 -8.518646E+03
        28  27 -7.422794E+06 -1.055560E+06  2.382028E+04 -2.853680E+06 -4.318526E+03 -5.214763E+03
        29   1 -7.528951E+06 -1.095646E+06 -7.902736E+03 -2.884881E+06  1.214900E+04  4.914890E+03
        29   2 -7.450866E+06 -1.020620E+06  9.280730E+03 -2.817392E+06  2.739304E+04  5.187127E+03
        29   3 -7.316631E+06 -1.021732E+06  1.277333E+04 -2.819206E+06  4.255359E+04  5.693631E+03
        29   4 -7.556905E+06 -1.104792E+06 -1.548979E+04 -2.890914E+06  9.868816E+03  4.062161E+03
        29   5 -7.585736E+06 -1.071875E+06 -2.673904E+04 -2.854349E+06  2.521850E+04  4.373447E+03
        29   6 -7.558452E+06 -1.115120E+06 -5.176645E+04 -2.887093E+06  4.048219E+04  4.918022E+03
        29   7 -7.584858E+06 -1.113938E+06 -2.307684E+04 -2.896946E+06  7.588765E+03  3.209469E+03
        29   8 -7.720587E+06 -1.123128E+06 -6.276023E+04 -2.891298E+06  2.304451E+04  3.559971E+03
        29   9 -7.800215E+06 -1.208504E+06 -1.163113E+05 -2.954956E+06  3.841167E+04  4.142767E+03
        29  10 -7.528951E+06 -1.095646E+06 -7.903063E+03 -2.884881E+06 -3.607011E-09 -1.005271E-09
        29  11 -7.450866E+06 -1.020620E+06  9.279250E+03 -2.817392E+06 -9.846497E-09 -2.179749E-09
        29  12 -7.316633E+06 -1.021732E+06  1.276982E+04 -2.819206E+06 -4.158562E-10 -1.443907E-09
        29  13 -7.556905E+06 -1.104792E+06 -1.549001E+04 -2.890914E+06  1.353069E-10  5.915272E-09
        29  14 -7.585736E+06 -1.071875E+06 -2.674029E+04 -2.854349E+06 -4.450325E-09  2.228938E-09
        29  15 -7.558454E+06 -1.115120E+06 -5.176961E+04 -2.887093E+06  5.882909E-09 -8.354770E-10
        29  16 -7.584858E+06 -1.113939E+06 -2.307697E+04 -2.896946E+06  6.617458E-09  3.364750E-09
        29  17 -7.720588E+06 -1.123128E+06 -6.276126E+04 -2.891298E+06  8.068783E-09  1.021828E-09
        29  18 -7.800216E+06 -1.208504E+06 -1.163141E+05 -2.954956E+06  1.322272E-09 -1.421727E-09
        29  19 -7.528951E+06 -1.095646E+06 -7.902736E+03 -2.884881E+06 -1.214900E+04 -4.914890E+03
        29  20 -7.450866E+06 -1.020620E+06  9.280730E+03 -2.817392E+06 -2.739304E+04 -5.187127E+03
        29  21 -7.316631E+06 -1.021732E+06  1.277333E+04 -2.819206E+06 -4.255359E+04 -5.693631E+03
        29  22 -7.556905E+06 -1.104792E+06 -1.548979E+04 -2.890914E+06 -9.868816E+03 -4.062161E+03
        29  23 -7.585736E+06 -1.071875E+06 -2.673904E+04 -2.854349E+06 -2.521850E+04 -4.373447E+03
        29  24 -7.558452E+06 -1.115120E+06 -5.176645E+04 -2.887093E+06 -4.048219E+04 -4.918022E+03
        29  25 -7.584858E+06 -1.113938E+06 -2.307684E+04 -2.896946E+06 -7.588765E+03 -3.209469E+03
        29  26 -7.720587E+06 -1.123128E+06 -6.276023E+04 -2.891298E+06 -2.304451E+04 -3.559971E+03
        29  27 -7.800215E+06 -1.208504E+06 -1.163113E+05 -2.954956E+06 -3.841167E+04 -4.142767E+03
        30   1 -7.159974E+06 -9.596003E+05  3.971571E+04 -2.795973E+06  5.353066E+04  6.494201E+03
        30   2 -7.087037E+06 -8.701986E+05  1.595357E+04 -2.719662E+06  1.139598E+05  2.424572E+04
        30   3 -7.010875E+06 -9.551080E+05 -8.431858E+04 -2.677435E+06  1.736390E+05  4.403595E+04
        30   4 -7.565023E+06 -1.100116E+06 -6.623256E+04 -2.893062E+06  5.103149E+04  5.559208E+03
        30   5 -7.573474E+06 -1.060260E+06 -1.149239E+05 -2.858354E+06  1.123631E+05  2.364473E+04
        30   6 -7.578935E+06 -1.194970E+06 -2.409004E+05 -2.857734E+06  1.729358E+05  4.376203E+04
        30   7 -7.969913E+06 -1.240629E+06 -1.721949E+05 -2.990097E+06  4.853411E+04  4.624760E+03
        30   8 -8.059679E+06 -1.250304E+06 -2.458227E+05 -2.996946E+06  1.107677E+05  2.304429E+04
        30   9 -8.146677E+06 -1.434788E+06 -3.975121E+05 -3.037874E+06  1.722334E+05  4.348841E+04
        30  10 -7.159977E+06 -9.596011E+05  3.971018E+04 -2.795973E+06  5.212202E-11 -1.344316E-09
        30  11 -7.087051E+06 -8.702028E+05  1.592774E+04 -2.719664E+06  1.601676E-10  1.770705E-09
        30  12 -7.010908E+06 -9.551183E+05 -8.437965E+04 -2.677441E+06  6.269947E-09  1.794931E-09
        30  13 -7.565026E+06 -1.100117E+06 -6.623758E+04 -2.893063E+06 -3.997195E-09 -3.789037E-10
        30  14 -7.573488E+06 -1.060264E+06 -1.149490E+05 -2.858356E+06  4.556171E-09  1.874887E-09
        30  15 -7.578968E+06 -1.194980E+06 -2.409610E+05 -2.857741E+06  6.883830E-09  2.318554E-09
        30  16 -7.969916E+06 -1.240630E+06 -1.721994E+05 -2.990098E+06  4.447784E-09 -1.042825E-09
        30  17 -8.059693E+06 -1.250308E+06 -2.458471E+05 -2.996948E+06  2.645879E-09  3.903116E-10
        30  18 -8.146709E+06 -1.434799E+06 -3.975723E+05 -3.037880E+06  3.083698E-09  2.622629E-09
        30  19 -7.159974E+06 -9.596003E+05  3.971571E+04 -2.795973E+06 -5.353066E+04 -6.494201E+03
        30  20 -7.087037E+06 -8.701986E+05  1.595357E+04 -2.719662E+06 -1.139598E+05 -2.424572E+04
        30  21 -7.010875E+06 -9.551080E+05 -8.431858E+04 -2.677435E+06 -1.736390E+05 -4.403595E+04
        30  22 -7.565023E+06 -1.100116E+06 -6.623256E+04 -2.893062E+06 -5.103149E+04 -5.559208E+03
        30  23 -7.573474E+06 -1.060260E+06 -1.149239E+05 -2.858354E+06 -1.123631E+05 -2.364473E+04
        30  24 -7.578935E+06 -1.194970E+06 -2.409004E+05 -2.857734E+06 -1.729358E+05 -4.376203E+04
        30  25 -7.969913E+06 -1.240629E+06 -1.721949E+05 -2.990097E+06 -4.853411E+04 -4.624760E+03
        30  26 -8.059679E+06 -1.250304E+06 -2.458227E+05 -2.996946E+06 -1.107677E+05 -2.304429E+04
        30  27 -8.146677E+06 -1.434788E+06 -3.975121E+05 -3.037874E+06 -1.722334E+05 -4.348841E+04
        31   1 -6.832682E+06 -8.780810E+05 -1.068936E+05 -2.820178E+06  2.229117E+05  5.679686E+04
        31   2 -6.757946E+06 -5.971569E+05 -2.816474E+05 -2.608572E+06  4.814594E+05  1.509106E+05
        31   3 -7.079944E+06 -1.424204E+06 -9.421977E+05 -2.164519E+06  7.321607E+05  2.660140E+05
        31   4 -7.620178E+06 -1.068323E+06 -2.960070E+05 -2.924017E+06  2.165707E+05  5.446069E+04
        31   5 -7.483270E+06 -9.427271E+05 -4.885084E+05 -2.879245E+06  4.845586E+05  1.520048E+05
        31   6 -7.745625E+06 -1.927945E+06 -1.174834E+06 -2.601856E+06  7.447207E+05  2.703720E+05
        31   7 -8.407046E+06 -1.258584E+06 -4.851562E+05 -3.027776E+06  2.102385E+05  5.212510E+04
        31   8 -8.208062E+06 -1.288166E+06 -6.954189E+05 -3.149595E+06  4.876535E+05  1.530964E+05
        31   9 -8.410710E+06 -2.431097E+06 -1.407494E+06 -3.038634E+06  7.572656E+05  2.747110E+05
        31  10 -6.832737E+06 -8.780981E+05 -1.069944E+05 -2.820188E+06  1.325823E-09  1.017591E-09
        31  11 -6.758203E+06 -5.972448E+05 -2.821319E+05 -2.608631E+06 -2.245573E-09  6.387161E-10
        31  12 -7.080544E+06 -1.424426E+06 -9.433525E+05 -2.164677E+06 -6.265767E-10 -6.205328E-10
        31  13 -7.620229E+06 -1.068339E+06 -2.961020E+05 -2.924027E+06  3.849021E-09  1.600085E-09
        31  14 -7.483532E+06 -9.428164E+05 -4.889999E+05 -2.879304E+06 -2.408083E-09  1.547045E-10
        31  15 -7.746247E+06 -1.928176E+06 -1.176030E+06 -2.602020E+06  3.296111E-09  3.583189E-10
        31  16 -8.407094E+06 -1.258599E+06 -4.852457E+05 -3.027785E+06 -5.287353E-11  7.324838E-10
        31  17 -8.208327E+06 -1.288256E+06 -6.959174E+05 -3.149656E+06  1.769085E-09  6.611391E-10
        31  18 -8.411353E+06 -2.431336E+06 -1.408733E+06 -3.038803E+06  8.190941E-10  4.004157E-10
        31  19 -6.832682E+06 -8.780810E+05 -1.068936E+05 -2.820178E+06 -2.229117E+05 -5.679686E+04
        31  20 -6.757946E+06 -5.971569E+05 -2.816474E+05 -2.608572E+06 -4.814594E+05 -1.509106E+05
        31  21 -7.079944E+06 -1.424204E+06 -9.421977E+05 -2.164519E+06 -7.321607E+05 -2.660140E+05
        31  22 -7.620178E+06 -1.068323E+06 -2.960070E+05 -2.924017E+06 -2.165707E+05 -5.446069E+04
        31  23 -7.483270E+06 -9.427271E+05 -4.885084E+05 -2.879245E+06 -4.845586E+05 -1.520048E+05
        31  24 -7.745625E+06 -1.927945E+06 -1.174834E+06 -2.601856E+06 -7.447207E+05 -2.703720E+05
        31  25 -8.407046E+06 -1.258584E+06 -4.851562E+05 -3.027776E+06 -2.102385E+05 -5.212510E+04
        31  26 -8.208062E+06 -1.288166E+06 -6.954189E+05 -3.149595E+06 -4.876535E+05 -1.530964E+05
        31  27 -8.410710E+06 -2.431097E+06 -1.407494E+06 -3.038634E+06 -7.572656E+05 -2.747110E+05
        32   1  3.150292E+05  9.913708E+04  3.497159E+05 -2.169457E+05  4.091983E+02  2.151782E+05
        32   2  7.350364E+04  3.197748E+04  1.820374E+05 -1.140120E+05  1.971142E+03  1.237105E+05
        32   3  1.160547E+04  2.160821E+04  1.188283E+05 -1.998774E+04  8.690378E+02  3.224164E+04
        32   4  2.894404E+05 -3.375678E+02  3.256089E+05 -3.743948E+04  4.796301E+02  2.108858E+05
        32   5  5.848761E+04 -2.835933E+04  1.692093E+05 -3.326198E+04  1.987312E+03  1.236681E+05
        32   6  6.400360E+03 -3.386859E+02  1.143340E+05 -3.798022E+04  8.599187E+02  3.644331E+04
        32   7  2.639718E+05 -9.973405E+04  3.015185E+05  1.420378E+05  5.475892E+02  2.065941E+05
        32   8  4.349583E+04 -8.867873E+04  1.563845E+05  4.748007E+04  2.003473E+03  1.236256E+05
        32   9  1.196453E+03 -2.228439E+04  1.098399E+05 -5.597205E+04  8.505559E+02  4.064484E+04
        32  10  3.150168E+05  9.908738E+04  3.496289E+05 -2.169457E+05  8.336890E-10 -3.783192E-10
        32  11  7.349953E+04  3.196105E+04  1.820086E+05 -1.140122E+05  2.080906E-09 -1.523014E-09
        32  12  1.160519E+04  2.160710E+04  1.188264E+05 -1.998777E+04 -2.395470E-10 -2.410842E-09
        32  13  2.894284E+05 -3.853127E+02  3.255253E+05 -3.743956E+04 -3.529009E-10  4.807021E-10
        32  14  5.848351E+04 -2.837575E+04  1.691806E+05 -3.326217E+04  1.657643E-09 -5.401026E-10
        32  15  6.400003E+03 -3.401121E+02  1.143315E+05 -3.798024E+04  7.733632E-10  3.555459E-10
        32  16  2.639603E+05 -9.977988E+04  3.014383E+05  1.420377E+05 -2.404572E-09  7.169889E-10
        32  17  4.349173E+04 -8.869514E+04  1.563558E+05  4.747987E+04 -5.263646E-09  2.485219E-09
        32  18  1.196009E+03 -2.228617E+04  1.098368E+05 -5.597207E+04 -5.208051E-09  1.932464E-09
        32  19  3.150292E+05  9.913708E+04  3.497159E+05 -2.169457E+05 -4.091983E+02 -2.151782E+05
        32  20  7.350364E+04  3.197748E+04  1.820374E+05 -1.140120E+05 -1.971142E+03 -1.237105E+05
        32  21  1.160547E+04  2.160821E+04  1.188283E+05 -1.998774E+04 -8.690378E+02 -3.224164E+04
        32  22  2.894404E+05 -3.375678E+02  3.256089E+05 -3.743948E+04 -4.796301E+02 -2.108858E+05
        32  23  5.848761E+04 -2.835933E+04  1.692093E+05 -3.326198E+04 -1.987312E+03 -1.236681E+05
        32  24  6.400360E+03 -3.386859E+02  1.143340E+05 -3.798022E+04 -8.599187E+02 -3.644331E+04
        32  25  2.639718E+05 -9.973405E+04  3.015185E+05  1.420378E+05 -5.475892E+02 -2.065941E+05
        32  26  4.349583E+04 -8.867873E+04  1.563845E+05  4.748007E+04 -2.003473E+03 -1.236256E+05
        32  27  1.196453E+03 -2.228439E+04  1.098399E+05 -5.597205E+04 -8.505559E+02 -4.064484E+04
        33   1  1.111499E+04 -1.386412E+04  1.039866E+05 -4.712021E+04 -6.845051E+02  1.545907E+04
        33   2 -5.233966E+03 -5.960496E+04  9.834745E+04 -3.218534E+04 -2.921964E+03 -3.714672E+04
        33   3  4.577624E+03 -9.199091E+04  1.335014E+05 -2.649396E+04 -4.990823E+03 -8.975022E+04
        33   4  1.194545E+04 -9.816939E+03  1.043051E+05 -3.798272E+04 -6.918783E+02  1.935880E+04
        33   5  4.917513E+03 -1.651547E+04  1.059861E+05 -3.334954E+04 -2.928899E+03 -3.352342E+04
        33   6  2.409651E+04 -9.814496E+03  1.486501E+05 -3.795901E+04 -4.995587E+03 -8.640649E+04
        33   7  1.277623E+04 -5.769524E+03  1.046237E+05 -2.884517E+04 -6.991367E+02  2.325856E+04
        33   8  1.506890E+04  2.657586E+04  1.136246E+05 -3.451382E+04 -2.935848E+03 -2.989988E+04
        33   9  4.361550E+04  7.236877E+04  1.637986E+05 -4.942561E+04 -5.000474E+03 -8.306234E+04
        33  10  1.111493E+04 -1.386438E+04  1.039861E+05 -4.712020E+04  4.297347E-10  5.967729E-09
        33  11 -5.234346E+03 -5.960644E+04  9.834484E+04 -3.218543E+04  3.881379E-09 -3.098619E-11
        33  12  4.575435E+03 -9.199956E+04  1.334862E+05 -2.649432E+04  1.249527E-10 -4.638513E-09
        33  13  1.194535E+04 -9.817342E+03  1.043044E+05 -3.798271E+04  4.166955E-09  5.018873E-10
        33  14  4.917202E+03 -1.651668E+04  1.059839E+05 -3.334962E+04  4.145097E-09 -5.928908E-10
        33  15  2.409448E+04 -9.822519E+03  1.486360E+05 -3.795936E+04  2.798895E-09  2.176669E-10
        33  16  1.277608E+04 -5.770105E+03  1.046227E+05 -2.884516E+04  2.850609E-10 -5.619753E-09
        33  17  1.506865E+04  2.657490E+04  1.136230E+05 -3.451389E+04 -1.419983E-09  9.177238E-10
        33  18  4.361362E+04  7.236135E+04  1.637856E+05 -4.942595E+04  2.736241E-09  3.929547E-09
        33  19  1.111499E+04 -1.386412E+04  1.039866E+05 -4.712021E+04  6.845051E+02 -1.545907E+04
        33  20 -5.233966E+03 -5.960496E+04  9.834745E+04 -3.218534E+04  2.921964E+03  3.714672E+04
        33  21  4.577624E+03 -9.199091E+04  1.335014E+05 -2.649396E+04  4.990823E+03  8.975022E+04
        33  22  1.194545E+04 -9.816939E+03  1.043051E+05 -3.798272E+04  6.918783E+02 -1.935880E+04
        33  23  4.917513E+03 -1.651547E+04  1.059861E+05 -3.334954E+04  2.928899E+03  3.352342E+04
        33  24  2.409651E+04 -9.814496E+03  1.486501E+05 -3.795901E+04  4.995587E+03  8.640649E+04
        33  25  1.277623E+04 -5.769524E+03  1.046237E+05 -2.884517E+04  6.991367E+02 -2.325856E+04
        33  26  1.506890E+04  2.657586E+04  1.136246E+05 -3.451382E+04  2.935848E+03  2.989988E+04
        33  27  4.361550E+04  7.236877E+04  1.637986E+05 -4.942561E+04  5.000474E+03  8.306234E+04
        34   1 -1.344782E+04 -9.694123E+04  1.635296E+05 -7.591164E+04 -6.444583E+03 -1.153942E+05
        34   2  7.961466E+04 -1.890660E+05  2.842567E+05  1.233645E+05 -6.342622E+03 -2.699341E+05
        34   3  5.223235E+05 -1.735917E+05  5.931100E+05  3.141046E+05 -1.659768E+03 -4.244517E+05
        34   4  1.205567E+04  1.139168E+04  1.835882E+05 -3.796123E+04 -6.459128E+03 -1.114611E+05
        34   5  1.154097E+05 -4.300147E+04  3.138162E+05 -3.316112E+04 -6.267672E+03 -2.735524E+05
        34   6  5.695306E+05  1.139889E+04  6.373672E+05 -3.691414E+04 -1.398971E+03 -4.356328E+05
        34   7  3.756393E+04  1.197391E+05  2.036472E+05 -4.021237E+00 -6.473190E+03 -1.075273E+05
        34   8  1.512953E+05  1.031360E+05  3.433878E+05 -1.897244E+05 -6.190910E+03 -2.771715E+05
        34   9  6.171982E+05  1.966855E+05  6.816885E+05 -3.880384E+05 -1.125593E+03 -4.468172E+05
        34  10 -1.345144E+04 -9.695554E+04  1.635045E+05 -7.591224E+04  2.238999E-09  2.833017E-09
        34  11  7.959505E+04 -1.891443E+05  2.841197E+05  1.233631E+05  1.800228E-09  2.469782E-10
        34  12  5.222751E+05 -1.737851E+05  5.927713E+05  3.141040E+05  1.766527E-09 -1.914510E-09
        34  13  1.205229E+04  1.137833E+04  1.835648E+05 -3.796181E+04 -3.050424E-10  2.026292E-10
        34  14  1.153895E+05 -4.308181E+04  3.136755E+05 -3.316250E+04 -7.021090E-10 -5.707589E-10
        34  15  5.694796E+05  1.119520E+04  6.370105E+05 -3.691464E+04  2.996200E-09  2.427291E-10
        34  16  3.756078E+04  1.197267E+05  2.036254E+05 -4.581650E+00  1.200507E-09 -2.373955E-09
        34  17  1.512747E+05  1.030535E+05  3.432434E+05 -1.897258E+05 -1.707709E-09  5.151573E-10
        34  18  6.171446E+05  1.964713E+05  6.813134E+05 -3.880389E+05 -1.200006E-09  1.165609E-09
        34  19 -1.344782E+04 -9.694123E+04  1.635296E+05 -7.591164E+04  6.444583E+03  1.153942E+05
        34  20  7.961466E+04 -1.890660E+05  2.842567E+05  1.233645E+05  6.342622E+03  2.699341E+05
        34  21  5.223235E+05 -1.735917E+05  5.931100E+05  3.141046E+05  1.659768E+03  4.244517E+05
        34  22  1.205567E+04  1.139168E+04  1.835882E+05 -3.796123E+04  6.459128E+03  1.114611E+05
        34  23  1.154097E+05 -4.300147E+04  3.138162E+05 -3.316112E+04  6.267672E+03  2.735524E+05
        34  24  5.695306E+05  1.139889E+04  6.373672E+05 -3.691414E+04  1.398971E+03  4.356328E+05
        34  25  3.756393E+04  1.197391E+05  2.036472E+05 -4.021237E+00  6.473190E+03  1.075273E+05
        34  26  1.512953E+05  1.031360E+05  3.433878E+05 -1.897244E+05  6.190910E+03  2.771715E+05
        34  27  6.171982E+05  1.966855E+05  6.816885E+05 -3.880384E+05  1.125593E+03  4.468172E+05
        35   1 -4.448381E+06 -1.335140E+06 -7.782881E+05 -1.580952E+06 -3.352220E+05 -1.139714E+05
        35   2 -4.327440E+06 -8.157052E+05 -4.575802E+05 -1.597894E+06 -2.183459E+05 -4.562738E+04
        35   3 -4.348400E+06 -7.980913E+05 -3.551496E+05 -1.548490E+06 -9.221708E+04 -1.805319E+03
        35   4 -3.503295E+06 -8.702150E+05 -4.987109E+05 -1.214167E+06 -3.198162E+05 -1.082397E+05
        35   5 -3.407403E+06 -4.383336E+05 -2.077892E+05 -1.315794E+06 -2.142864E+05 -4.411761E+04
        35   6 -3.450886E+06 -5.056137E+05 -1.258535E+05 -1.351152E+06 -9.951775E+04 -4.540713E+03
        35   7 -2.557319E+06 -4.050430E+05 -2.192232E+05 -8.468153E+05 -3.043843E+05 -1.024914E+05
        35   8 -2.486543E+06 -6.086861E+04  4.192396E+04 -1.033299E+06 -2.102200E+05 -4.260474E+04
        35   9 -2.552589E+06 -2.131336E+05  1.033791E+05 -1.153577E+06 -1.068300E+05 -7.279101E+03
        35  10 -4.448506E+06 -1.335184E+06 -7.785256E+05 -1.580983E+06  2.483939E-09 -9.422853E-10
        35  11 -4.327492E+06 -8.157204E+05 -4.576744E+05 -1.597902E+06  4.485361E-09 -2.375428E-09
        35  12 -4.348409E+06 -7.980936E+05 -3.551657E+05 -1.548490E+06 -1.602062E-09 -4.244827E-10
        35  13 -3.503408E+06 -8.702553E+05 -4.989265E+05 -1.214195E+06  4.373611E-09 -1.041184E-09
        35  14 -3.407453E+06 -4.383481E+05 -2.078797E+05 -1.315801E+06  3.820712E-09 -1.630905E-09
        35  15 -3.450897E+06 -5.056164E+05 -1.258723E+05 -1.351153E+06 -1.086361E-09 -1.892014E-10
        35  16 -2.557422E+06 -4.050794E+05 -2.194180E+05 -8.468405E+05 -2.129283E-09 -6.298036E-10
        35  17 -2.486591E+06 -6.088250E+04  4.183711E+04 -1.033306E+06 -3.103271E-10 -8.215066E-10
        35  18 -2.552602E+06 -2.131367E+05  1.033575E+05 -1.153578E+06  2.229637E-09  1.817339E-10
        35  19 -4.448381E+06 -1.335140E+06 -7.782881E+05 -1.580952E+06  3.352220E+05  1.139714E+05
        35  20 -4.327440E+06 -8.157052E+05 -4.575802E+05 -1.597894E+06  2.183459E+05  4.562738E+04
        35  21 -4.348400E+06 -7.980913E+05 -3.551496E+05 -1.548490E+06  9.221708E+04  1.805319E+03
        35  22 -3.503295E+06 -8.702150E+05 -4.987109E+05 -1.214167E+06  3.198162E+05  1.082397E+05
        35  23 -3.407403E+06 -4.383336E+05 -2.077892E+05 -1.315794E+06  2.142864E+05  4.411761E+04
        35  24 -3.450886E+06 -5.056137E+05 -1.258535E+05 -1.351152E+06  9.951775E+04  4.540713E+03
        35  25 -2.557319E+06 -4.050430E+05 -2.192232E+05 -8.468153E+05  3.043843E+05  1.024914E+05
        35  26 -2.486543E+06 -6.086861E+04  4.192396E+04 -1.033299E+06  2.102200E+05  4.260474E+04
        35  27 -2.552589E+06 -2.131336E+05  1.033791E+05 -1.153577E+06  1.068300E+05  7.279101E+03
        36   1 -4.161634E+06 -8.450881E+05 -2.983140E+05 -1.532902E+06 -7.907210E+04 -3.331750E+03
        36   2 -4.086961E+06 -7.310512E+05 -2.194987E+05 -1.483103E+06 -5.183535E+04  4.616404E+03
        36   3 -3.979769E+06 -7.220729E+05 -1.741748E+05 -1.483197E+06 -2.377777E+04  1.037218E+04
        36   4 -3.432807E+06 -5.598813E+05 -1.024614E+05 -1.323653E+06 -7.954740E+04 -3.513771E+03
        36   5 -3.446277E+06 -4.873031E+05 -4.900968E+04 -1.306232E+06 -5.330979E+04  4.062309E+03
        36   6 -3.427015E+06 -5.195472E+05 -2.822184E+04 -1.338710E+06 -2.625597E+04  9.444702E+03
        36   7 -2.703461E+06 -2.746305E+05  9.334449E+04 -1.114175E+06 -8.002327E+04 -3.696024E+03
        36   8 -2.805193E+06 -2.435276E+05  1.214437E+05 -1.129195E+06 -5.478589E+04  3.507578E+03
        36   9 -2.873965E+06 -3.170073E+05  1.177050E+05 -1.194108E+06 -2.873659E+04  8.516369E+03
        36  10 -4.161641E+06 -8.450898E+05 -2.983259E+05 -1.532903E+06 -7.657129E-10  5.520925E-10
        36  11 -4.086964E+06 -7.310519E+05 -2.195038E+05 -1.483103E+06 -4.427569E-09 -1.098244E-09
        36  12 -3.979770E+06 -7.220731E+05 -1.741761E+05 -1.483197E+06 -3.304972E-09 -5.107737E-10
        36  13 -3.432814E+06 -5.598830E+05 -1.024734E+05 -1.323653E+06 -1.565333E-09  4.947478E-10
        36  14 -3.446280E+06 -4.873039E+05 -4.901508E+04 -1.306232E+06  2.369926E-09 -7.393413E-10
        36  15 -3.427016E+06 -5.195475E+05 -2.822330E+04 -1.338710E+06 -3.366492E-09 -3.134793E-10
        36  16 -2.703468E+06 -2.746322E+05  9.333238E+04 -1.114175E+06 -3.068267E-09  2.054840E-10
        36  17 -2.805196E+06 -2.435285E+05  1.214380E+05 -1.129195E+06  2.609172E-09  2.095872E-11
        36  18 -2.873966E+06 -3.170076E+05  1.177033E+05 -1.194108E+06 -1.250348E-09 -8.417675E-10
        36  19 -4.161634E+06 -8.450881E+05 -2.983140E+05 -1.532902E+06  7.907210E+04  3.331750E+03
        36  20 -4.086961E+06 -7.310512E+05 -2.194987E+05 -1.483103E+06  5.183535E+04 -4.616404E+03
        36  21 -3.979769E+06 -7.220729E+05 -1.741748E+05 -1.483197E+06  2.377777E+04 -1.037218E+04
        36  22 -3.432807E+06 -5.598813E+05 -1.024614E+05 -1.323653E+06  7.954740E+04  3.513771E+03
        36  23 -3.446277E+06 -4.873031E+05 -4.900968E+04 -1.306232E+06  5.330979E+04 -4.062309E+03
        36  24 -3.427015E+06 -5.195472E+05 -2.822184E+04 -1.338710E+06  2.625597E+04 -9.444702E+03
        36  25 -2.703461E+06 -2.746305E+05  9.334449E+04 -1.114175E+06  8.002327E+04  3.696024E+03
        36  26 -2.805193E+06 -2.435276E+05  1.214437E+05 -1.129195E+06  5.478589E+04 -3.507578E+03
        36  27 -2.873965E+06 -3.170073E+05  1.177050E+05 -1.194108E+06  2.873659E+04 -8.516369E+03
        37   1 -3.826904E+06 -6.786775E+05 -1.288359E+05 -1.446983E+06 -1.920846E+04  8.875998E+03
        37   2 -3.752601E+06 -6.046732E+05 -9.120288E+04 -1.385573E+06 -1.168029E+04  6.828966E+03
        37   3 -3.621582E+06 -5.957892E+05 -5.950433E+04 -1.391389E+06 -4.055275E+03  4.515834E+03
        37   4 -3.423851E+06 -5.263733E+05 -2.208345E+04 -1.336689E+06 -2.115468E+04  8.148097E+03
        37   5 -3.451890E+06 -4.915918E+05 -1.144056E+04 -1.303904E+06 -1.374761E+04  6.056643E+03
        37   6 -3.423199E+06 -5.219031E+05 -6.631644E+03 -1.338346E+06 -6.244791E+03  3.698773E+03
        37   7 -3.020641E+06 -3.740592E+05  8.465466E+04 -1.226331E+06 -2.310228E+04  7.419672E+03
        37   8 -3.151091E+06 -3.785049E+05  6.831393E+04 -1.222199E+06 -1.581604E+04  5.283906E+03
        37   9 -3.224776E+06 -4.480147E+05  4.623777E+04 -1.285289E+06 -8.435084E+03  2.881428E+03
        37  10 -3.826905E+06 -6.786777E+05 -1.288368E+05 -1.446983E+06 -3.017790E-09 -7.423663E-10
        37  11 -3.752601E+06 -6.046733E+05 -9.120323E+04 -1.385573E+06 -4.147171E-09 -1.818201E-09
        37  12 -3.621582E+06 -5.957892E+05 -5.950440E+04 -1.391389E+06  1.256587E-09 -1.986877E-09
        37  13 -3.423852E+06 -5.263735E+05 -2.208442E+04 -1.336689E+06 -2.446757E-09 -1.252960E-09
        37  14 -3.451890E+06 -4.915919E+05 -1.144099E+04 -1.303904E+06 -6.212445E-09  5.778210E-11
        37  15 -3.423199E+06 -5.219031E+05 -6.631743E+03 -1.338346E+06  6.307674E-11 -1.013186E-09
        37  16 -3.020642E+06 -3.740594E+05  8.465355E+04 -1.226331E+06 -2.921191E-09 -3.733580E-10
        37  17 -3.151091E+06 -3.785050E+05  6.831340E+04 -1.222199E+06 -1.217334E-09  1.170207E-09
        37  18 -3.224776E+06 -4.480148E+05  4.623762E+04 -1.285289E+06 -3.838052E-09 -7.571676E-10
        37  19 -3.826904E+06 -6.786775E+05 -1.288359E+05 -1.446983E+06  1.920846E+04 -8.875998E+03
        37  20 -3.752601E+06 -6.046732E+05 -9.120288E+04 -1.385573E+06  1.168029E+04 -6.828966E+03
        37  21 -3.621582E+06 -5.957892E+05 -5.950433E+04 -1.391389E+06  4.055275E+03 -4.515834E+03
        37  22 -3.423851E+06 -5.263733E+05 -2.208345E+04 -1.336689E+06  2.115468E+04 -8.148097E+03
        37  23 -3.451890E+06 -4.915918E+05 -1.144056E+04 -1.303904E+06  1.374761E+04 -6.056643E+03
        37  24 -3.423199E+06 -5.219031E+05 -6.631644E+03 -1.338346E+06  6.244791E+03 -3.698773E+03
        37  25 -3.020641E+06 -3.740592E+05  8.465466E+04 -1.226331E+06  2.310228E+04 -7.419672E+03
        37  26 -3.151091E+06 -3.785049E+05  6.831393E+04 -1.222199E+06  1.581604E+04 -5.283906E+03
        37  27 -3.224776E+06 -4.480147E+05  4.623777E+04 -1.285289E+06  8.435084E+03 -2.881428E+03
        38   1 -3.467006E+06 -5.394373E+05 -1.662112E+04 -1.350424E+06 -2.116236E+03  2.163026E+03
        38   2 -3.391921E+06 -4.690329E+05  1.280838E+04 -1.286952E+06  1.249537E+03 -1.792435E+03
        38   3 -3.256598E+06 -4.601072E+05  4.079719E+04 -1.293374E+06  4.612881E+03 -5.738599E+03
        38   4 -3.422646E+06 -5.227851E+05 -5.246452E+03 -1.338306E+06 -4.266800E+03  1.360740E+03
        38   5 -3.452734E+06 -4.918575E+05 -3.311047E+03 -1.303427E+06 -8.968264E+02 -2.593347E+03
        38   6 -3.422595E+06 -5.224102E+05 -2.818554E+03 -1.338446E+06  2.470379E+03 -6.538197E+03
        38   7 -3.378284E+06 -5.061327E+05  6.128091E+03 -1.326188E+06 -6.417537E+03  5.583902E+02
        38   8 -3.513543E+06 -5.146818E+05 -1.943069E+04 -1.319901E+06 -3.042948E+03 -3.394169E+03
        38   9 -3.588563E+06 -5.847110E+05 -4.643615E+04 -1.383507E+06  3.285310E+02 -7.337551E+03
        38  10 -3.467006E+06 -5.394373E+05 -1.662114E+04 -1.350424E+06  7.882193E-10 -1.468542E-09
        38  11 -3.391921E+06 -4.690329E+05  1.280837E+04 -1.286952E+06 -2.597043E-09 -2.391299E-10
        38  12 -3.256598E+06 -4.601072E+05  4.079709E+04 -1.293373E+06 -3.090904E-09  5.379032E-10
        38  13 -3.422646E+06 -5.227851E+05 -5.246490E+03 -1.338306E+06 -4.981806E-09 -1.789412E-09
        38  14 -3.452734E+06 -4.918575E+05 -3.311061E+03 -1.303427E+06 -1.277874E-08 -3.314595E-09
        38  15 -3.422595E+06 -5.224103E+05 -2.818645E+03 -1.338446E+06 -4.561171E-09 -2.441884E-11
        38  16 -3.378284E+06 -5.061327E+05  6.128013E+03 -1.326188E+06 -1.763486E-09 -1.564105E-09
        38  17 -3.513543E+06 -5.146818E+05 -1.943073E+04 -1.319901E+06 -5.398746E-09  1.971874E-11
        38  18 -3.588563E+06 -5.847110E+05 -4.643625E+04 -1.383507E+06 -1.266495E-09 -9.315523E-10
        38  19 -3.467006E+06 -5.394373E+05 -1.662112E+04 -1.350424E+06  2.116236E+03 -2.163026E+03
        38  20 -3.391921E+06 -4.690329E+05  1.280838E+04 -1.286952E+06 -1.249537E+03  1.792435E+03
        38  21 -3.256598E+06 -4.601072E+05  4.079719E+04 -1.293374E+06 -4.612881E+03  5.738599E+03
        38  22 -3.422646E+06 -5.227851E+05 -5.246452E+03 -1.338306E+06  4.266800E+03 -1.360740E+03
        38  23 -3.452734E+06 -4.918575E+05 -3.311047E+03 -1.303427E+06  8.968264E+02  2.593347E+03
        38  24 -3.422595E+06 -5.224102E+05 -2.818554E+03 -1.338446E+06 -2.470379E+03  6.538197E+03
        38  25 -3.378284E+06 -5.061327E+05  6.128091E+03 -1.326188E+06  6.417537E+03 -5.583902E+02
        38  26 -3.513543E+06 -5.146818E+05 -1.943069E+04 -1.319901E+06  3.042948E+03  3.394169E+03
        38  27 -3.588563E+06 -5.847110E+05 -4.643615E+04 -1.383507E+06 -3.285310E+02  7.337551E+03
        39   1 -3.104972E+06 -4.024227E+05  8.180448E+04 -1.251722E+06  6.061591E+03 -8.221517E+03
        39   2 -3.033372E+06 -3.353766E+05  1.070692E+05 -1.190717E+06  9.611693E+03 -1.196970E+04
        39   3 -2.903903E+06 -3.273387E+05  1.307536E+05 -1.196433E+06  1.310441E+04 -1.554921E+04
        39   4 -3.423133E+06 -5.217839E+05 -2.900028E+03 -1.337782E+06  3.929804E+03 -9.017607E+03
        39   5 -3.452115E+06 -4.926290E+05 -3.919309E+03 -1.304287E+06  7.557267E+03 -1.273810E+04
        39   6 -3.423251E+06 -5.225027E+05 -6.580585E+03 -1.337521E+06  1.112698E+04 -1.628995E+04
        39   7 -3.741199E+06 -6.411404E+05 -8.761414E+04 -1.423802E+06  1.799204E+03 -9.813255E+03
        39   8 -3.870692E+06 -6.498723E+05 -1.149239E+05 -1.417788E+06  5.504353E+03 -1.350593E+04
        39   9 -3.942341E+06 -7.176517E+05 -1.439390E+05 -1.478502E+06  9.151346E+03 -1.703001E+04
        39  10 -3.104972E+06 -4.024228E+05  8.180428E+04 -1.251722E+06 -3.479378E-10  7.918495E-10
        39  11 -3.033372E+06 -3.353768E+05  1.070687E+05 -1.190717E+06  1.723409E-09  2.575501E-09
        39  12 -2.903903E+06 -3.273390E+05  1.307528E+05 -1.196433E+06 -3.515622E-09 -1.320095E-10
        39  13 -3.423133E+06 -5.217840E+05 -2.900210E+03 -1.337782E+06 -6.821266E-09  2.988818E-10
        39  14 -3.452115E+06 -4.926292E+05 -3.919721E+03 -1.304286E+06  2.573863E-10 -1.061761E-09
        39  15 -3.423252E+06 -5.225030E+05 -6.581315E+03 -1.337521E+06  9.950143E-10  1.157593E-09
        39  16 -3.741199E+06 -6.411405E+05 -8.761432E+04 -1.423802E+06 -2.281247E-09 -9.530478E-10
        39  17 -3.870692E+06 -6.498725E+05 -1.149243E+05 -1.417788E+06 -3.121126E-09 -2.217615E-09
        39  18 -3.942341E+06 -7.176521E+05 -1.439397E+05 -1.478502E+06  1.888869E-09  9.247202E-10
        39  19 -3.104972E+06 -4.024227E+05  8.180448E+04 -1.251722E+06 -6.061591E+03  8.221517E+03
        39  20 -3.033372E+06 -3.353766E+05  1.070692E+05 -1.190717E+06 -9.611693E+03  1.196970E+04
        39  21 -2.903903E+06 -3.273387E+05  1.307536E+05 -1.196433E+06 -1.310441E+04  1.554921E+04
        39  22 -3.423133E+06 -5.217839E+05 -2.900028E+03 -1.337782E+06 -3.929804E+03  9.017607E+03
        39  23 -3.452115E+06 -4.926290E+05 -3.919309E+03 -1.304287E+06 -7.557267E+03  1.273810E+04
        39  24 -3.423251E+06 -5.225027E+05 -6.580585E+03 -1.337521E+06 -1.112698E+04  1.628995E+04
        39  25 -3.741199E+06 -6.411404E+05 -8.761414E+04 -1.423802E+06 -1.799204E+03  9.813255E+03
        39  26 -3.870692E+06 -6.498723E+05 -1.149239E+05 -1.417788E+06 -5.504353E+03  1.350593E+04
        39  27 -3.942341E+06 -7.176517E+05 -1.439390E+05 -1.478502E+06 -9.151346E+03  1.703001E+04
        40   1 -2.764639E+06 -2.728508E+05  1.668580E+05 -1.157909E+06  1.527746E+04 -1.755580E+04
        40   2 -2.700861E+06 -2.115985E+05  1.838689E+05 -1.102402E+06  2.407274E+04 -1.884913E+04
        40   3 -2.587984E+06 -2.093772E+05  1.936842E+05 -1.104598E+06  3.270167E+04 -1.967404E+04
        40   4 -3.424943E+06 -5.202765E+05 -8.399175E+03 -1.336377E+06  1.327291E+04 -1.830778E+04
        40   5 -3.449903E+06 -4.936813E+05 -1.478111E+04 -1.306427E+06  2.227859E+04 -1.952419E+04
        40   6 -3.425818E+06 -5.261688E+05 -2.853250E+04 -1.334186E+06  3.111674E+04 -2.027234E+04
        40   7 -4.084817E+06 -7.676745E+05 -1.836923E+05 -1.514672E+06  1.127073E+04 -1.905888E+04
        40   8 -4.198399E+06 -7.757294E+05 -2.134792E+05 -1.510228E+06  2.048683E+04 -2.019837E+04
        40   9 -4.262973E+06 -8.429179E+05 -2.508112E+05 -1.563494E+06  2.953414E+04 -2.086977E+04
        40  10 -2.764639E+06 -2.728512E+05  1.668570E+05 -1.157909E+06 -9.805904E-10  7.933146E-10
        40  11 -2.700861E+06 -2.115990E+05  1.838672E+05 -1.102401E+06  1.326512E-09  1.247223E-09
        40  12 -2.587985E+06 -2.093779E+05  1.936815E+05 -1.104598E+06 -1.113723E-09 -1.383584E-09
        40  13 -3.424943E+06 -5.202769E+05 -8.400134E+03 -1.336377E+06 -7.103786E-10  1.415919E-09
        40  14 -3.449904E+06 -4.936818E+05 -1.478276E+04 -1.306427E+06  1.999334E-11  3.530900E-11
        40  15 -3.425819E+06 -5.261695E+05 -2.853509E+04 -1.334186E+06  6.308152E-10 -1.258627E-09
        40  16 -4.084817E+06 -7.676750E+05 -1.836932E+05 -1.514672E+06  3.052849E-10  1.351285E-09
        40  17 -4.198399E+06 -7.757299E+05 -2.134808E+05 -1.510228E+06  2.418077E-09  5.335570E-10
        40  18 -4.262974E+06 -8.429186E+05 -2.508136E+05 -1.563493E+06  2.410648E-09  8.974150E-11
        40  19 -2.764639E+06 -2.728508E+05  1.668580E+05 -1.157909E+06 -1.527746E+04  1.755580E+04
        40  20 -2.700861E+06 -2.115985E+05  1.838689E+05 -1.102402E+06 -2.407274E+04  1.884913E+04
        40  21 -2.587984E+06 -2.093772E+05  1.936842E+05 -1.104598E+06 -3.270167E+04  1.967404E+04
        40  22 -3.424943E+06 -5.202765E+05 -8.399175E+03 -1.336377E+06 -1.327291E+04  1.830778E+04
        40  23 -3.449903E+06 -4.936813E+05 -1.478111E+04 -1.306427E+06 -2.227859E+04  1.952419E+04
        40  24 -3.425818E+06 -5.261688E+05 -2.853250E+04 -1.334186E+06 -3.111674E+04  2.027234E+04
        40  25 -4.084817E+06 -7.676745E+05 -1.836923E+05 -1.514672E+06 -1.127073E+04  1.905888E+04
        40  26 -4.198399E+06 -7.757294E+05 -2.134792E+05 -1.510228E+06 -2.048683E+04  2.019837E+04
        40  27 -4.262973E+06 -8.429179E+05 -2.508112E+05 -1.563494E+06 -2.953414E+04  2.086977E+04
        41   1 -2.467035E+06 -1.602951E+05  2.180517E+05 -1.080310E+06  3.948686E+04 -1.989583E+04
        41   2 -2.413486E+06 -9.727858E+04  2.100121E+05 -1.025647E+06  7.245681E+04 -1.123343E+04
        41   3 -2.344679E+06 -1.413013E+05  1.609330E+05 -1.002658E+06  1.043762E+05  2.451817E+02
        41   4 -3.430563E+06 -5.166491E+05 -3.648328E+04 -1.336048E+06  3.725683E+04 -2.073761E+04
        41   5 -3.441833E+06 -4.890210E+05 -6.349967E+04 -1.310417E+06  7.149651E+04 -1.160038E+04
        41   6 -3.438146E+06 -5.687625E+05 -1.326206E+05 -1.316460E+06  1.046810E+05  3.525527E+02
        41   7 -4.393192E+06 -8.729558E+05 -2.910981E+05 -1.591430E+06  3.503060E+04 -2.157804E+04
        41   8 -4.469151E+06 -8.806929E+05 -3.371034E+05 -1.594757E+06  7.053789E+04 -1.196669E+04
        41   9 -4.530447E+06 -9.961264E+05 -4.262795E+05 -1.629750E+06  1.049851E+05  4.596205E+02
        41  10 -2.467037E+06 -1.602959E+05  2.180480E+05 -1.080309E+06 -4.047945E-09 -7.069139E-10
        41  11 -2.413492E+06 -9.728013E+04  2.100020E+05 -1.025647E+06  9.731436E-10  4.447441E-09
        41  12 -2.344691E+06 -1.413043E+05  1.609124E+05 -1.002658E+06 -3.576533E-10  1.993799E-09
        41  13 -3.430565E+06 -5.166500E+05 -3.648670E+04 -1.336047E+06 -3.935933E-10  1.682399E-10
        41  14 -3.441838E+06 -4.890225E+05 -6.350957E+04 -1.310417E+06  1.541572E-09  1.327752E-09
        41  15 -3.438157E+06 -5.687655E+05 -1.326413E+05 -1.316460E+06  3.782917E-09 -7.988246E-12
        41  16 -4.393193E+06 -8.729567E+05 -2.911013E+05 -1.591429E+06  2.850278E-09  1.653158E-09
        41  17 -4.469157E+06 -8.806943E+05 -3.371131E+05 -1.594756E+06 -2.086790E-09  2.434735E-09
        41  18 -4.530459E+06 -9.961294E+05 -4.263004E+05 -1.629750E+06 -1.086632E-09  3.891809E-10
        41  19 -2.467035E+06 -1.602951E+05  2.180517E+05 -1.080310E+06 -3.948686E+04  1.989583E+04
        41  20 -2.413486E+06 -9.727858E+04  2.100121E+05 -1.025647E+06 -7.245681E+04  1.123343E+04
        41  21 -2.344679E+06 -1.413013E+05  1.609330E+05 -1.002658E+06 -1.043762E+05 -2.451817E+02
        41  22 -3.430563E+06 -5.166491E+05 -3.648328E+04 -1.336048E+06 -3.725683E+04  2.073761E+04
        41  23 -3.441833E+06 -4.890210E+05 -6.349967E+04 -1.310417E+06 -7.149651E+04  1.160038E+04
        41  24 -3.438146E+06 -5.687625E+05 -1.326206E+05 -1.316460E+06 -1.046810E+05 -3.525527E+02
        41  25 -4.393192E+06 -8.729558E+05 -2.910981E+05 -1.591430E+06 -3.503060E+04  2.157804E+04
        41  26 -4.469151E+06 -8.806929E+05 -3.371034E+05 -1.594757E+06 -7.053789E+04  1.196669E+04
        41  27 -4.530447E+06 -9.961264E+05 -4.262795E+05 -1.629750E+06 -1.049851E+05 -4.596205E+02
        42   1 -2.222912E+06 -8.942908E+04  1.540992E+05 -1.073075E+06  1.381055E+05  6.306006E+03
        42   2 -2.174630E+06  7.454883E+04  6.116312E+04 -9.483528E+05  2.717046E+05  5.488364E+04
        42   3 -2.333279E+06 -3.736840E+05 -2.906035E+05 -7.028715E+05  3.937562E+05  1.339249E+05
        42   4 -3.461689E+06 -4.984368E+05 -1.629230E+05 -1.351981E+06  1.299577E+05  3.233454E+03
        42   5 -3.390998E+06 -4.259802E+05 -2.690373E+05 -1.323204E+06  2.775995E+05  5.709110E+04
        42   6 -3.530507E+06 -9.692946E+05 -6.455649E+05 -1.173547E+06  4.136827E+05  1.413884E+05
        42   7 -4.698981E+06 -9.074343E+05 -4.800682E+05 -1.630422E+06  1.218275E+05  1.656457E+02
        42   8 -4.605919E+06 -9.263399E+05 -5.993710E+05 -1.697361E+06  2.834811E+05  5.929256E+04
        42   9 -4.726284E+06 -1.564482E+06 -1.000664E+06 -1.643292E+06  4.335659E+05  1.488241E+05
        42  10 -2.222932E+06 -8.943427E+04  1.540632E+05 -1.073075E+06 -7.718067E-09 -3.869468E-09
        42  11 -2.174710E+06  7.452566E+04  6.101814E+04 -9.483648E+05 -7.703199E-09 -3.365307E-09
        42  12 -2.333451E+06 -3.737452E+05 -2.909299E+05 -7.029141E+05  2.376382E-09 -1.380533E-09
        42  13 -3.461707E+06 -4.984414E+05 -1.629550E+05 -1.351981E+06 -2.902511E-09  1.980170E-10
        42  14 -3.391082E+06 -4.260046E+05 -2.691892E+05 -1.323217E+06 -3.687389E-09  1.986231E-09
        42  15 -3.530697E+06 -9.693625E+05 -6.459264E+05 -1.173594E+06  1.460040E-09 -1.730753E-09
        42  16 -4.698997E+06 -9.074383E+05 -4.800963E+05 -1.630422E+06  5.080161E-09 -3.210008E-10
        42  17 -4.606007E+06 -9.263655E+05 -5.995299E+05 -1.697374E+06 -5.247980E-09  1.252990E-09
        42  18 -4.726493E+06 -1.564557E+06 -1.001062E+06 -1.643344E+06 -2.643967E-09 -4.395210E-09
        42  19 -2.222912E+06 -8.942908E+04  1.540992E+05 -1.073075E+06 -1.381055E+05 -6.306006E+03
        42  20 -2.174630E+06  7.454883E+04  6.116312E+04 -9.483528E+05 -2.717046E+05 -5.488364E+04
        42  21 -2.333279E+06 -3.736840E+05 -2.906035E+05 -7.028715E+05 -3.937562E+05 -1.339249E+05
        42  22 -3.461689E+06 -4.984368E+05 -1.629230E+05 -1.351981E+06 -1.299577E+05 -3.233454E+03
        42  23 -3.390998E+06 -4.259802E+05 -2.690373E+05 -1.323204E+06 -2.775995E+05 -5.709110E+04
        42  24 -3.530507E+06 -9.692946E+05 -6.455649E+05 -1.173547E+06 -4.136827E+05 -1.413884E+05
        42  25 -4.698981E+06 -9.074343E+05 -4.800682E+05 -1.630422E+06 -1.218275E+05 -1.656457E+02
        42  26 -4.605919E+06 -9.263399E+05 -5.993710E+05 -1.697361E+06 -2.834811E+05 -5.929256E+04
        42  27 -4.726284E+06 -1.564482E+06 -1.000664E+06 -1.643292E+06 -4.335659E+05 -1.488241E+05
        43   1  1.308495E+05 -8.878699E+05  1.244203E+05 -2.891597E+03  1.668545E+04  1.417448E+03
        43   2  1.279818E+05 -8.996429E+05  1.200984E+05  1.270900E+03  1.621816E+04  3.125890E+03
        43   3  1.238760E+05 -9.117179E+05  1.144018E+05 -3.486988E+03  1.565207E+04  4.833471E+03
        43   4  2.307006E+01 -1.414885E+06 -2.023323E+03 -1.981261E+03  1.668582E+04  1.624570E+03
        43   5  1.078849E+02 -1.414729E+06 -3.512276E+03  2.477419E+03  1.621827E+04  3.381484E+03
        43   6 -1.054510E+03 -1.414884E+06 -6.410255E+03 -1.984745E+03  1.565189E+04  5.137570E+03
        43   7 -1.308236E+05 -1.941644E+06 -1.284867E+05 -1.071528E+03  1.668619E+04  1.831517E+03
        43   8 -1.277854E+05 -1.929571E+06 -1.271418E+05  3.683116E+03  1.621839E+04  3.636866E+03
        43   9 -1.260035E+05 -1.917818E+06 -1.272403E+05 -4.835307E+02  1.565170E+04  5.441422E+03
        43  10  1.308492E+05 -8.878700E+05  1.244198E+05 -2.891616E+03  3.425581E-09  2.278218E-09
        43  11  1.279816E+05 -8.996430E+05  1.200979E+05  1.270859E+03  5.200944E-09 -4.282159E-09
        43  12  1.238758E+05 -9.117180E+05  1.144013E+05 -3.487049E+03  1.608421E-10 -7.772592E-10
        43  13  2.277058E+01 -1.414885E+06 -2.023851E+03 -1.981283E+03  1.756197E-10  1.430055E-09
        43  14  1.075996E+02 -1.414729E+06 -3.512791E+03  2.477375E+03 -2.721285E-09 -3.180835E-09
        43  15 -1.054780E+03 -1.414884E+06 -6.410764E+03 -1.984810E+03  4.278818E-09  1.278318E-09
        43  16 -1.308239E+05 -1.941644E+06 -1.284872E+05 -1.071553E+03 -6.264909E-09 -2.153909E-09
        43  17 -1.277857E+05 -1.929571E+06 -1.271423E+05  3.683068E+03 -7.198052E-10  3.631136E-10
        43  18 -1.260038E+05 -1.917818E+06 -1.272409E+05 -4.835993E+02  4.260263E-09  1.664482E-10
        43  19  1.308495E+05 -8.878699E+05  1.244203E+05 -2.891597E+03 -1.668545E+04 -1.417448E+03
        43  20  1.279818E+05 -8.996429E+05  1.200984E+05  1.270900E+03 -1.621816E+04 -3.125890E+03
        43  21  1.238760E+05 -9.117179E+05  1.144018E+05 -3.486988E+03 -1.565207E+04 -4.833471E+03
        43  22  2.307006E+01 -1.414885E+06 -2.023323E+03 -1.981261E+03 -1.668582E+04 -1.624570E+03
        43  23  1.078849E+02 -1.414729E+06 -3.512276E+03  2.477419E+03 -1.621827E+04 -3.381484E+03
        43  24 -1.054510E+03 -1.414884E+06 -6.410255E+03 -1.984745E+03 -1.565189E+04 -5.137570E+03
        43  25 -1.308236E+05 -1.941644E+06 -1.284867E+05 -1.071528E+03 -1.668619E+04 -1.831517E+03
        43  26 -1.277854E+05 -1.929571E+06 -1.271418E+05  3.683116E+03 -1.621839E+04 -3.636866E+03
        43  27 -1.260035E+05 -1.917818E+06 -1.272403E+05 -4.835307E+02 -1.565170E+04 -5.441422E+03
        44   1  1.208990E+05 -9.306543E+05  1.081435E+05 -2.330428E+03  1.541178E+04  6.287875E+03
        44   2  1.181582E+05 -9.436581E+05  9.897931E+04  1.032840E+03  1.477875E+04  1.304153E+04
        44   3  1.029770E+05 -9.605119E+05  8.233295E+04 -6.799094E+03  1.348713E+04  1.979168E+04
        44   4  5.075264E+02 -1.415678E+06 -8.202640E+03 -2.474920E+03  1.541207E+04  6.425389E+03
        44   5  1.449314E+03 -1.413727E+06 -1.382719E+04  3.101799E+03  1.477773E+04  1.350589E+04
        44   6 -1.011135E+04 -1.415686E+06 -2.716502E+04 -2.517268E+03  1.348462E+04  2.058304E+04
        44   7 -1.199011E+05 -1.900485E+06 -1.245655E+05 -2.619107E+03  1.541237E+04  6.562795E+03
        44   8 -1.152757E+05 -1.883593E+06 -1.266494E+05  5.169376E+03  1.477672E+04  1.396990E+04
        44   9 -1.232148E+05 -1.870670E+06 -1.366777E+05  1.761595E+03  1.348212E+04  2.137382E+04
        44  10  1.208987E+05 -9.306544E+05  1.081430E+05 -2.330506E+03  3.917734E-10 -1.354913E-09
        44  11  1.181579E+05 -9.436584E+05  9.897858E+04  1.032685E+03  1.567884E-09 -6.315859E-09
        44  12  1.029767E+05 -9.605123E+05  8.233187E+04 -6.799309E+03 -3.926185E-10 -1.416525E-09
        44  13  5.072604E+02 -1.415678E+06 -8.203164E+03 -2.475000E+03  6.260969E-09  1.883942E-09
        44  14  1.449031E+03 -1.413727E+06 -1.382794E+04  3.101639E+03  3.754567E-09 -4.250615E-09
        44  15 -1.011166E+04 -1.415687E+06 -2.716616E+04 -2.517492E+03 -3.223106E-10  1.181909E-09
        44  16 -1.199013E+05 -1.900485E+06 -1.245660E+05 -2.619189E+03  3.356973E-09  1.167034E-09
        44  17 -1.152759E+05 -1.883593E+06 -1.266502E+05  5.169209E+03 -2.489899E-09  1.636270E-09
        44  18 -1.232151E+05 -1.870671E+06 -1.366789E+05  1.761363E+03 -1.243040E-09  5.855394E-10
        44  19  1.208990E+05 -9.306543E+05  1.081435E+05 -2.330428E+03 -1.541178E+04 -6.287875E+03
        44  20  1.181582E+05 -9.436581E+05  9.897931E+04  1.032840E+03 -1.477875E+04 -1.304153E+04
        44  21  1.029770E+05 -9.605119E+05  8.233295E+04 -6.799094E+03 -1.348713E+04 -1.979168E+04
        44  22  5.075264E+02 -1.415678E+06 -8.202640E+03 -2.474920E+03 -1.541207E+04 -6.425389E+03
        44  23  1.449314E+03 -1.413727E+06 -1.382719E+04  3.101799E+03 -1.477773E+04 -1.350589E+04
        44  24 -1.011135E+04 -1.415686E+06 -2.716502E+04 -2.517268E+03 -1.348462E+04 -2.058304E+04
        44  25 -1.199011E+05 -1.900485E+06 -1.245655E+05 -2.619107E+03 -1.541237E+04 -6.562795E+03
        44  26 -1.152757E+05 -1.883593E+06 -1.266494E+05  5.169376E+03 -1.477672E+04 -1.396990E+04
        44  27 -1.232148E+05 -1.870670E+06 -1.366777E+05  1.761595E+03 -1.348212E+04 -2.137382E+04
        45   1  1.123887E+05 -9.888434E+05  7.045843E+04  8.443204E+03  1.421267E+04  2.732061E+04
        45   2  1.169540E+05 -9.902412E+05  4.632656E+04 -6.438777E+03  1.311301E+04  5.196228E+04
        45   3  3.448414E+03 -1.024338E+06 -2.337370E+04 -3.509551E+04  3.827856E+03  7.656375E+04
        45   4  4.969207E+03 -1.422225E+06 -3.330458E+04 -2.917626E+03  1.421949E+04  2.574864E+04
        45   5  1.376174E+04 -1.405543E+06 -5.327870E+04  3.735049E+03  1.310290E+04  5.449381E+04
        45   6 -9.627348E+04 -1.422294E+06 -1.216957E+05 -3.389294E+03  3.800083E+03  8.319910E+04
        45   7 -1.024634E+05 -1.855434E+06 -1.370808E+05 -1.427030E+04  1.422637E+04  2.417776E+04
        45   8 -8.944274E+04 -1.820685E+06 -1.528961E+05  1.390221E+04  1.309286E+04  5.702363E+04
        45   9 -1.960036E+05 -1.820104E+06 -2.200288E+05  2.829671E+04  3.772982E+03  8.983018E+04
        45  10  1.123883E+05 -9.888443E+05  7.045665E+04  8.442891E+03  2.700622E-10 -5.859103E-09
        45  11  1.169531E+05 -9.902442E+05  4.632115E+04 -6.439326E+03  6.070744E-09 -6.702907E-09
        45  12  3.446821E+03 -1.024345E+06 -2.338476E+04 -3.509575E+04  1.624066E-09  4.037865E-09
        45  13  4.968811E+03 -1.422226E+06 -3.330621E+04 -2.917921E+03 -4.758482E-09  2.062173E-09
        45  14  1.376076E+04 -1.405546E+06 -5.328462E+04  3.734474E+03 -3.460101E-09 -5.214903E-09
        45  15 -9.627536E+04 -1.422302E+06 -1.217088E+05 -3.389549E+03  2.072022E-09  1.640090E-09
        45  16 -1.024638E+05 -1.855434E+06 -1.370823E+05 -1.427057E+04 -1.717270E-09  5.860826E-09
        45  17 -8.944380E+04 -1.820689E+06 -1.529026E+05  1.390161E+04 -3.261762E-09  8.956413E-10
        45  18 -1.960058E+05 -1.820113E+06 -2.200441E+05  2.829643E+04  9.762258E-10 -5.387123E-09
        45  19  1.123887E+05 -9.888434E+05  7.045843E+04  8.443204E+03 -1.421267E+04 -2.732061E+04
        45  20  1.169540E+05 -9.902412E+05  4.632656E+04 -6.438777E+03 -1.311301E+04 -5.196228E+04
        45  21  3.448414E+03 -1.024338E+06 -2.337370E+04 -3.509551E+04 -3.827856E+03 -7.656375E+04
        45  22  4.969207E+03 -1.422225E+06 -3.330458E+04 -2.917626E+03 -1.421949E+04 -2.574864E+04
        45  23  1.376174E+04 -1.405543E+06 -5.327870E+04  3.735049E+03 -1.310290E+04 -5.449381E+04
        45  24 -9.627348E+04 -1.422294E+06 -1.216957E+05 -3.389294E+03 -3.800083E+03 -8.319910E+04
        45  25 -1.024634E+05 -1.855434E+06 -1.370808E+05 -1.427030E+04 -1.422637E+04 -2.417776E+04
        45  26 -8.944274E+04 -1.820685E+06 -1.528961E+05  1.390221E+04 -1.309286E+04 -5.702363E+04
        45  27 -1.960036E+05 -1.820104E+06 -2.200288E+05  2.829671E+04 -3.772982E+03 -8.983018E+04
        46   1  9.219619E+04  9.806671E+05  5.255765E+04 -1.943926E+02  3.226421E+04 -5.856992E+02
        46   2  9.232683E+04  9.807781E+05  5.326862E+04 -1.619286E+02  3.215457E+04 -1.507886E+03
        46   3  9.268500E+04  9.810748E+05  5.463900E+04 -1.109417E+02  3.189929E+04 -2.430176E+03
        46   4 -3.508308E+01  5.710397E+05  6.561724E+02  4.104656E+00  3.226642E+04 -4.960111E+02
        46   5  1.778641E+01  5.709770E+05  1.151729E+03 -5.101004E+00  3.215659E+04 -1.067862E+03
        46   6  2.375187E+02  5.710394E+05  2.063871E+03  4.216567E+00  3.190107E+04 -1.639810E+03
        46   7 -9.227320E+04  1.615844E+05 -5.124588E+04  2.024820E+02  3.226863E+04 -4.063792E+02
        46   8 -9.229812E+04  1.613481E+05 -5.096580E+04  1.516376E+02  3.215861E+04 -6.281141E+02
        46   9 -9.221689E+04  1.611762E+05 -5.051202E+04  1.193168E+02  3.190287E+04 -8.499408E+02
        46  10  9.219507E+04  9.806668E+05  5.255570E+04 -1.943774E+02 -5.833812E-09  5.656195E-08
        46  11  9.232572E+04  9.807778E+05  5.326668E+04 -1.618896E+02  2.174694E-09  2.511055E-08
        46  12  9.268390E+04  9.810745E+05  5.463708E+04 -1.108792E+02  4.437725E-09 -9.401312E-09
        46  13 -3.620143E+01  5.710395E+05  6.542149E+02  4.117543E+00  2.315160E-08  4.268119E-10
        46  14  1.667542E+01  5.709767E+05  1.149783E+03 -5.073354E+00  6.391584E-09 -1.063115E-09
        46  15  2.364249E+02  5.710392E+05  2.061953E+03  4.258689E+00 -8.580198E-09  6.520660E-10
        46  16 -9.227432E+04  1.615841E+05 -5.124784E+04  2.024925E+02 -1.010943E-08 -5.717737E-08
        46  17 -9.229924E+04  1.613478E+05 -5.096774E+04  1.516539E+02 -7.594357E-09 -2.553124E-08
        46  18 -9.221798E+04  1.611759E+05 -5.051393E+04  1.193386E+02  5.120549E-09  9.674589E-09
        46  19  9.219619E+04  9.806671E+05  5.255765E+04 -1.943926E+02 -3.226421E+04  5.856992E+02
        46  20  9.232683E+04  9.807781E+05  5.326862E+04 -1.619286E+02 -3.215457E+04  1.507886E+03
        46  21  9.268500E+04  9.810748E+05  5.463900E+04 -1.109417E+02 -3.189929E+04  2.430176E+03
        46  22 -3.508308E+01  5.710397E+05  6.561724E+02  4.104656E+00 -3.226642E+04  4.960111E+02
        46  23  1.778641E+01  5.709770E+05  1.151729E+03 -5.101004E+00 -3.215659E+04  1.067862E+03
        46  24  2.375187E+02  5.710394E+05  2.063871E+03  4.216567E+00 -3.190107E+04  1.639810E+03
        46  25 -9.227320E+04  1.615844E+05 -5.124588E+04  2.024820E+02 -3.226863E+04  4.063792E+02
        46  26 -9.229812E+04  1.613481E+05 -5.096580E+04  1.516376E+02 -3.215861E+04  6.281141E+02
        46  27 -9.221689E+04  1.611762E+05 -5.051202E+04  1.193168E+02 -3.190287E+04  8.499408E+02
        47   1  9.290708E+04  9.814367E+05  5.562397E+04 -2.466733E+02  3.173804E+04 -2.917207E+03
        47   2  9.408204E+04  9.810990E+05  5.920663E+04  9.311725E+02  3.083353E+04 -7.985584E+03
        47   3  9.743416E+04  9.819732E+05  6.663205E+04  2.057224E+03  2.884141E+04 -1.305482E+04
        47   4  3.537413E+02  5.711803E+05  2.741156E+03 -1.157913E+01  3.173974E+04 -2.042598E+03
        47   5  1.236034E+03  5.708001E+05  4.895073E+03  1.527513E+01  3.083350E+04 -4.495771E+03
        47   6  3.842666E+03  5.711788E+05  9.078508E+03 -9.673368E+00  2.883929E+04 -6.949781E+03
        47   7 -9.220656E+04  1.610961E+05 -5.014249E+04  2.233753E+02  3.174144E+04 -1.168537E+03
        47   8 -9.161710E+04  1.606728E+05 -4.941771E+04 -8.999643E+02  3.083345E+04 -1.008154E+03
        47   9 -8.975630E+04  1.605553E+05 -4.847708E+04 -2.075118E+03  2.883713E+04 -8.485959E+02
        47  10  9.290599E+04  9.814364E+05  5.562206E+04 -2.465988E+02  6.571254E-09  4.980978E-08
        47  11  9.408101E+04  9.810987E+05  5.920473E+04  9.313707E+02  4.789792E-09  1.001635E-08
        47  12  9.743322E+04  9.819728E+05  6.663017E+04  2.057528E+03  1.527852E-09 -2.569644E-08
        47  13  3.526582E+02  5.711800E+05  2.739254E+03 -1.152692E+01 -7.394797E-09  6.221159E-10
        47  14  1.235008E+03  5.707998E+05  4.893248E+03  1.538674E+01 -2.112569E-09 -1.284434E-09
        47  15  3.841760E+03  5.711786E+05  9.076854E+03 -9.511983E+00 -3.628217E-09  8.341108E-10
        47  16 -9.220764E+04  1.610958E+05 -5.014439E+04  2.234052E+02  5.399516E-09 -5.075123E-08
        47  17 -9.161812E+04  1.606725E+05 -4.941949E+04 -8.999393E+02  3.080284E-09 -1.048793E-08
        47  18 -8.975720E+04  1.605551E+05 -4.847864E+04 -2.075099E+03  4.543748E-10  2.586075E-08
        47  19  9.290708E+04  9.814367E+05  5.562397E+04 -2.466733E+02 -3.173804E+04  2.917207E+03
        47  20  9.408204E+04  9.810990E+05  5.920663E+04  9.311725E+02 -3.083353E+04  7.985584E+03
        47  21  9.743416E+04  9.819732E+05  6.663205E+04  2.057224E+03 -2.884141E+04  1.305482E+04
        47  22  3.537413E+02  5.711803E+05  2.741156E+03 -1.157913E+01 -3.173974E+04  2.042598E+03
        47  23  1.236034E+03  5.708001E+05  4.895073E+03  1.527513E+01 -3.083350E+04  4.495771E+03
        47  24  3.842666E+03  5.711788E+05  9.078508E+03 -9.673368E+00 -2.883929E+04  6.949781E+03
        47  25 -9.220656E+04  1.610961E+05 -5.014249E+04  2.233753E+02 -3.174144E+04  1.168537E+03
        47  26 -9.161710E+04  1.606728E+05 -4.941771E+04 -8.999643E+02 -3.083345E+04  1.008154E+03
        47  27 -8.975630E+04  1.605553E+05 -4.847708E+04 -2.075118E+03 -2.883713E+04  8.485959E+02
        48   1  9.947359E+04  9.838403E+05  7.188750E+04  1.270689E+03  2.758249E+04 -1.528160E+04
        48   2  1.111558E+05  9.796687E+05  9.256818E+04  1.514257E+04  2.077097E+04 -4.610588E+04
        48   3  1.432276E+05  9.846085E+05  1.383948E+05  2.837783E+04  5.905138E+03 -7.693802E+04
        48   4  5.298314E+03  5.722898E+05  1.217489E+04 -1.414850E+02  2.757960E+04 -8.534920E+03
        48   5  1.519092E+04  5.694060E+05  2.250024E+04  1.896263E+02  2.075365E+04 -2.000121E+04
        48   6  4.212183E+04  5.722796E+05  4.454468E+04 -1.161729E+02  5.872293E+03 -3.147461E+04
        48   7 -8.888471E+04  1.609100E+05 -4.754032E+04 -1.552656E+03  2.757669E+04 -1.792522E+03
        48   8 -8.078166E+04  1.593104E+05 -4.757060E+04 -1.475311E+04  2.073507E+04  6.086780E+03
        48   9 -5.899150E+04  1.601143E+05 -4.930830E+04 -2.859109E+04  5.835270E+03  1.395892E+04
        48  10  9.947271E+04  9.838399E+05  7.188563E+04  1.271028E+03 -1.065866E-09  7.206882E-08
        48  11  1.111547E+05  9.796663E+05  9.256338E+04  1.514334E+04  2.368623E-10  2.673151E-10
        48  12  1.432260E+05  9.846022E+05  1.383836E+05  2.837820E+04 -6.367922E-10 -6.786520E-08
        48  13  5.297477E+03  5.722896E+05  1.217332E+04 -1.412955E+02 -2.327273E-09  8.126033E-10
        48  14  1.519035E+04  5.694054E+05  2.249868E+04  1.899606E+02  4.118009E-09 -1.464030E-09
        48  15  4.212152E+04  5.722785E+05  4.454275E+04 -1.160241E+02 -5.272504E-11  1.019491E-09
        48  16 -8.888552E+04  1.609098E+05 -4.754175E+04 -1.552617E+03  6.187571E-10 -7.305427E-08
        48  17 -8.078213E+04  1.593103E+05 -4.757148E+04 -1.475321E+04  2.892736E-10 -6.912030E-10
        48  18 -5.899159E+04  1.601141E+05 -4.930873E+04 -2.859115E+04  1.192192E-09  6.813206E-08
        48  19  9.947359E+04  9.838403E+05  7.188750E+04  1.270689E+03 -2.758249E+04  1.528160E+04
        48  20  1.111558E+05  9.796687E+05  9.256818E+04  1.514257E+04 -2.077097E+04  4.610588E+04
        48  21  1.432276E+05  9.846085E+05  1.383948E+05  2.837783E+04 -5.905138E+03  7.693802E+04
        48  22  5.298314E+03  5.722898E+05  1.217489E+04 -1.414850E+02 -2.757960E+04  8.534920E+03
        48  23  1.519092E+04  5.694060E+05  2.250024E+04  1.896263E+02 -2.075365E+04  2.000121E+04
        48  24  4.212183E+04  5.722796E+05  4.454468E+04 -1.161729E+02 -5.872293E+03  3.147461E+04
        48  25 -8.888471E+04  1.609100E+05 -4.754032E+04 -1.552656E+03 -2.757669E+04  1.792522E+03
        48  26 -8.078166E+04  1.593104E+05 -4.757060E+04 -1.475311E+04 -2.073507E+04 -6.086780E+03
        48  27 -5.899150E+04  1.601143E+05 -4.930830E+04 -2.859109E+04 -5.835270E+03 -1.395892E+04
        49   1 -8.585020E+06 -2.490734E+06 -1.450911E+06 -3.092336E+06 -7.745370E+05 -2.803422E+05
        49   2 -8.382390E+06 -1.327208E+06 -7.247439E+05 -3.209464E+06 -4.991481E+05 -1.546603E+05
        49   3 -8.593664E+06 -1.297518E+06 -5.115822E+05 -3.084555E+06 -2.154030E+05 -5.109423E+04
        49   4 -7.858115E+06 -1.958690E+06 -1.200165E+06 -2.633283E+06 -7.609462E+05 -2.756267E+05
        49   5 -7.588346E+06 -9.540528E+05 -4.990455E+05 -2.918745E+06 -4.956623E+05 -1.534256E+05
        49   6 -7.729930E+06 -1.080499E+06 -3.023683E+05 -2.962351E+06 -2.219972E+05 -5.352600E+04
        49   7 -7.130519E+06 -1.426008E+06 -9.494525E+05 -2.173592E+06 -7.473374E+05 -2.708897E+05
        49   8 -6.793666E+06 -5.807507E+05 -2.734069E+05 -2.627650E+06 -4.921712E+05 -1.521877E+05
        49   9 -6.865447E+06 -8.635022E+05 -9.320093E+04 -2.840038E+06 -2.286015E+05 -5.595862E+04
        49  10 -8.585694E+06 -2.490984E+06 -1.452206E+06 -3.092512E+06  9.590000E-10 -1.532311E-10
        49  11 -8.382668E+06 -1.327302E+06 -7.252651E+05 -3.209527E+06 -4.415964E-09 -1.534564E-09
        49  12 -8.593715E+06 -1.297534E+06 -5.116757E+05 -3.084564E+06  1.864219E-09 -5.020998E-10
        49  13 -7.858765E+06 -1.958931E+06 -1.201414E+06 -2.633453E+06 -6.820013E-10 -4.621290E-10
        49  14 -7.588619E+06 -9.541455E+05 -4.995586E+05 -2.918807E+06  2.385757E-09 -7.240471E-10
        49  15 -7.729984E+06 -1.080515E+06 -3.024677E+05 -2.962361E+06  5.029356E-10 -6.179861E-10
        49  16 -7.131145E+06 -1.426240E+06 -9.506551E+05 -2.173757E+06  1.538409E-09 -4.016386E-11
        49  17 -6.793935E+06 -5.808419E+05 -2.739120E+05 -2.627711E+06  2.032996E-10 -2.519654E-10
        49  18 -6.865505E+06 -8.635199E+05 -9.330635E+04 -2.840048E+06 -1.569640E-09  3.225503E-10
        49  19 -8.585020E+06 -2.490734E+06 -1.450911E+06 -3.092336E+06  7.745370E+05  2.803422E+05
        49  20 -8.382390E+06 -1.327208E+06 -7.247439E+05 -3.209464E+06  4.991481E+05  1.546603E+05
        49  21 -8.593664E+06 -1.297518E+06 -5.115822E+05 -3.084555E+06  2.154030E+05  5.109423E+04
        49  22 -7.858115E+06 -1.958690E+06 -1.200165E+06 -2.633283E+06  7.609462E+05  2.756267E+05
        49  23 -7.588346E+06 -9.540528E+05 -4.990455E+05 -2.918745E+06  4.956623E+05  1.534256E+05
        49  24 -7.729930E+06 -1.080499E+06 -3.023683E+05 -2.962351E+06  2.219972E+05  5.352600E+04
        49  25 -7.130519E+06 -1.426008E+06 -9.494525E+05 -2.173592E+06  7.473374E+05  2.708897E+05
        49  26 -6.793666E+06 -5.807507E+05 -2.734069E+05 -2.627650E+06  4.921712E+05  1.521877E+05
        49  27 -6.865447E+06 -8.635022E+05 -9.320093E+04 -2.840038E+06  2.286015E+05  5.595862E+04
        50   1 -8.334170E+06 -1.480486E+06 -4.239475E+05 -3.097205E+06 -1.768412E+05 -4.238555E+04
        50   2 -8.247634E+06 -1.294116E+06 -2.697871E+05 -3.057291E+06 -1.140931E+05 -2.124115E+04
        50   3 -8.160008E+06 -1.284464E+06 -1.953918E+05 -3.050074E+06 -5.050629E+04 -2.306455E+03
        50   4 -7.687402E+06 -1.210304E+06 -2.460764E+05 -2.895129E+06 -1.774252E+05 -4.261544E+04
        50   5 -7.680960E+06 -1.073611E+06 -1.173903E+05 -2.896816E+06 -1.156478E+05 -2.182642E+04
        50   6 -7.673188E+06 -1.113366E+06 -6.762266E+04 -2.931210E+06 -5.304088E+04 -3.254346E+03
        50   7 -7.040219E+06 -9.400703E+05 -6.824330E+04 -2.692850E+06 -1.780098E+05 -4.284560E+04
        50   8 -7.113971E+06 -8.530818E+05  3.497813E+04 -2.736204E+06 -1.172040E+05 -2.241231E+04
        50   9 -7.186136E+06 -9.422619E+05  6.012653E+04 -2.812264E+06 -5.557766E+04 -4.202927E+03
        50  10 -8.334204E+06 -1.480496E+06 -4.240106E+05 -3.097211E+06 -1.739842E-09 -4.426648E-10
        50  11 -8.247648E+06 -1.294120E+06 -2.698128E+05 -3.057293E+06  6.436245E-10 -1.867060E-09
        50  12 -8.160011E+06 -1.284465E+06 -1.953967E+05 -3.050075E+06  8.225956E-10 -1.523983E-10
        50  13 -7.687436E+06 -1.210315E+06 -2.461398E+05 -2.895135E+06 -1.018831E-09  3.165466E-10
        50  14 -7.680975E+06 -1.073616E+06 -1.174167E+05 -2.896818E+06 -4.014077E-09 -3.261769E-10
        50  15 -7.673191E+06 -1.113367E+06 -6.762803E+04 -2.931210E+06  1.599708E-09 -6.450431E-10
        50  16 -7.040254E+06 -9.400809E+05 -6.830710E+04 -2.692856E+06 -3.628454E-09 -5.046760E-10
        50  17 -7.113986E+06 -8.530861E+05  3.495103E+04 -2.736206E+06 -5.458822E-10 -1.706136E-09
        50  18 -7.186139E+06 -9.422628E+05  6.012062E+04 -2.812264E+06 -3.401561E-09 -1.632544E-09
        50  19 -8.334170E+06 -1.480486E+06 -4.239475E+05 -3.097205E+06  1.768412E+05  4.238555E+04
        50  20 -8.247634E+06 -1.294116E+06 -2.697871E+05 -3.057291E+06  1.140931E+05  2.124115E+04
        50  21 -8.160008E+06 -1.284464E+06 -1.953918E+05 -3.050074E+06  5.050629E+04  2.306455E+03
        50  22 -7.687402E+06 -1.210304E+06 -2.460764E+05 -2.895129E+06  1.774252E+05  4.261544E+04
        50  23 -7.680960E+06 -1.073611E+06 -1.173903E+05 -2.896816E+06  1.156478E+05  2.182642E+04
        50  24 -7.673188E+06 -1.113366E+06 -6.762266E+04 -2.931210E+06  5.304088E+04  3.254346E+03
        50  25 -7.040219E+06 -9.400703E+05 -6.824330E+04 -2.692850E+06  1.780098E+05  4.284560E+04
        50  26 -7.113971E+06 -8.530818E+05  3.497813E+04 -2.736204E+06  1.172040E+05  2.241231E+04
        50  27 -7.186136E+06 -9.422619E+05  6.012653E+04 -2.812264E+06  5.557766E+04  4.202927E+03
        51   1 -7.988592E+06 -1.252972E+06 -1.389378E+05 -3.015332E+06 -4.019887E+04 -1.794302E+03
        51   2 -7.907155E+06 -1.165685E+06 -8.415674E+04 -2.950227E+06 -2.451237E+04 -1.169525E+03
        51   3 -7.768333E+06 -1.156248E+06 -4.353388E+04 -2.956043E+06 -8.709441E+03 -8.549016E+02
        51   4 -7.666064E+06 -1.129131E+06 -5.284417E+04 -2.925609E+06 -4.228469E+04 -2.574810E+03
        51   5 -7.693973E+06 -1.084927E+06 -2.725410E+04 -2.892104E+06 -2.673596E+04 -2.000781E+03
        51   6 -7.664477E+06 -1.118540E+06 -1.570366E+04 -2.929521E+06 -1.107350E+04 -1.737920E+03
        51   7 -7.343434E+06 -1.005283E+06  3.324005E+04 -2.835843E+06 -4.437170E+04 -3.355784E+03
        51   8 -7.480745E+06 -1.004166E+06  2.964456E+04 -2.833961E+06 -2.896040E+04 -2.832358E+03
        51   9 -7.560610E+06 -1.080832E+06  1.212572E+04 -2.902996E+06 -1.343801E+04 -2.621090E+03
        51  10 -7.988594E+06 -1.252973E+06 -1.389409E+05 -3.015332E+06  1.300244E-09 -3.791010E-09
        51  11 -7.907156E+06 -1.165686E+06 -8.415789E+04 -2.950227E+06  3.229687E-09 -3.840200E-09
        51  12 -7.768333E+06 -1.156248E+06 -4.353402E+04 -2.956043E+06 -3.359180E-09 -1.063450E-09
        51  13 -7.666066E+06 -1.129132E+06 -5.284758E+04 -2.925609E+06 -1.295296E-09 -2.682104E-09
        51  14 -7.693973E+06 -1.084927E+06 -2.725547E+04 -2.892104E+06  3.509213E-09 -7.009830E-10
        51  15 -7.664477E+06 -1.118540E+06 -1.570389E+04 -2.929521E+06  2.626178E-10 -2.825314E-12
        51  16 -7.343436E+06 -1.005284E+06  3.323628E+04 -2.835843E+06 -1.613794E-09 -8.699319E-10
        51  17 -7.480746E+06 -1.004167E+06  2.964294E+04 -2.833961E+06 -4.941408E-10  7.313516E-10
        51  18 -7.560610E+06 -1.080832E+06  1.212536E+04 -2.902996E+06 -3.138262E-09  1.429464E-10
        51  19 -7.988592E+06 -1.252972E+06 -1.389378E+05 -3.015332E+06  4.019887E+04  1.794302E+03
        51  20 -7.907155E+06 -1.165685E+06 -8.415674E+04 -2.950227E+06  2.451237E+04  1.169525E+03
        51  21 -7.768333E+06 -1.156248E+06 -4.353388E+04 -2.956043E+06  8.709441E+03  8.549016E+02
        51  22 -7.666064E+06 -1.129131E+06 -5.284417E+04 -2.925609E+06  4.228469E+04  2.574810E+03
        51  23 -7.693973E+06 -1.084927E+06 -2.725410E+04 -2.892104E+06  2.673596E+04  2.000781E+03
        51  24 -7.664477E+06 -1.118540E+06 -1.570366E+04 -2.929521E+06  1.107350E+04  1.737920E+03
        51  25 -7.343434E+06 -1.005283E+06  3.324005E+04 -2.835843E+06  4.437170E+04  3.355784E+03
        51  26 -7.480745E+06 -1.004166E+06  2.964456E+04 -2.833961E+06  2.896040E+04  2.832358E+03
        51  27 -7.560610E+06 -1.080832E+06  1.212572E+04 -2.902996E+06  1.343801E+04  2.621090E+03
        52   1 -7.599676E+06 -1.096017E+06  5.146587E+03 -2.911605E+06 -5.368666E+03 -2.958505E+03
        52   2 -7.519997E+06 -1.020284E+06  3.922227E+04 -2.844335E+06  1.788652E+02 -6.490480E+03
        52   3 -7.376729E+06 -1.010905E+06  7.006838E+04 -2.851189E+06  5.680617E+03 -9.891592E+03
        52   4 -7.663678E+06 -1.120041E+06 -1.231564E+04 -2.928724E+06 -7.694440E+03 -3.827206E+03
        52   5 -7.695393E+06 -1.086397E+06 -7.522076E+03 -2.891830E+06 -2.086679E+03 -7.337243E+03
        52   6 -7.663541E+06 -1.119119E+06 -6.004891E+03 -2.929065E+06  3.474536E+03 -1.071663E+04
        52   7 -7.727675E+06 -1.144066E+06 -2.977821E+04 -2.945842E+06 -1.001995E+04 -4.695809E+03
        52   8 -7.870759E+06 -1.152508E+06 -5.426903E+04 -2.939312E+06 -4.351510E+03 -8.183739E+03
        52   9 -7.950272E+06 -1.227329E+06 -8.208508E+04 -3.006909E+06  1.269593E+03 -1.154123E+04
        52  10 -7.599676E+06 -1.096017E+06  5.146515E+03 -2.911605E+06 -1.774145E-09 -2.503293E-10
        52  11 -7.519997E+06 -1.020284E+06  3.922219E+04 -2.844335E+06 -2.290473E-09 -2.923643E-09
        52  12 -7.376730E+06 -1.010905E+06  7.006813E+04 -2.851189E+06  4.950801E-10 -9.828535E-10
        52  13 -7.663678E+06 -1.120041E+06 -1.231578E+04 -2.928724E+06 -4.471430E-09 -1.068567E-09
        52  14 -7.695393E+06 -1.086397E+06 -7.522185E+03 -2.891830E+06 -2.363044E-09 -3.599714E-09
        52  15 -7.663541E+06 -1.119120E+06 -6.005128E+03 -2.929065E+06  2.108431E-09 -9.859238E-10
        52  16 -7.727676E+06 -1.144066E+06 -2.977844E+04 -2.945842E+06 -4.354200E-09 -5.338393E-10
        52  17 -7.870759E+06 -1.152508E+06 -5.426920E+04 -2.939312E+06  3.037307E-09  5.633486E-10
        52  18 -7.950272E+06 -1.227329E+06 -8.208534E+04 -3.006909E+06 -1.007840E-09  1.074929E-10
        52  19 -7.599676E+06 -1.096017E+06  5.146587E+03 -2.911605E+06  5.368666E+03  2.958505E+03
        52  20 -7.519997E+06 -1.020284E+06  3.922227E+04 -2.844335E+06 -1.788652E+02  6.490480E+03
        52  21 -7.376729E+06 -1.010905E+06  7.006838E+04 -2.851189E+06 -5.680617E+03  9.891592E+03
        52  22 -7.663678E+06 -1.120041E+06 -1.231564E+04 -2.928724E+06  7.694440E+03  3.827206E+03
        52  23 -7.695393E+06 -1.086397E+06 -7.522076E+03 -2.891830E+06  2.086679E+03  7.337243E+03
        52  24 -7.663541E+06 -1.119119E+06 -6.004891E+03 -2.929065E+06 -3.474536E+03  1.071663E+04
        52  25 -7.727675E+06 -1.144066E+06 -2.977821E+04 -2.945842E+06  1.001995E+04  4.695809E+03
        52  26 -7.870759E+06 -1.152508E+06 -5.426903E+04 -2.939312E+06  4.351510E+03  8.183739E+03
        52  27 -7.950272E+06 -1.227329E+06 -8.208508E+04 -3.006909E+06 -1.269593E+03  1.154123E+04
        53   1 -7.222335E+06 -9.502068E+05  1.124816E+05 -2.807005E+06  7.642877E+03 -1.227629E+04
        53   2 -7.153921E+06 -8.855034E+05  1.360782E+05 -2.748420E+06  1.290916E+04 -1.533438E+04
        53   3 -7.030224E+06 -8.783305E+05  1.566234E+05 -2.753652E+06  1.801551E+04 -1.794644E+04
        53   4 -7.665420E+06 -1.117123E+06 -5.988702E+03 -2.926806E+06  5.478288E+03 -1.308659E+04
        53   5 -7.693139E+06 -1.088943E+06 -7.635404E+03 -2.894672E+06  1.094908E+04 -1.606966E+04
        53   6 -7.665626E+06 -1.118341E+06 -1.249898E+04 -2.926365E+06  1.625925E+04 -1.860671E+04
        53   7 -8.108315E+06 -1.284029E+06 -1.244767E+05 -3.046529E+06  3.315408E+03 -1.389625E+04
        53   8 -8.232074E+06 -1.292366E+06 -1.513748E+05 -3.040809E+06  8.990891E+03 -1.680423E+04
        53   9 -8.300632E+06 -1.358327E+06 -1.816567E+05 -3.098916E+06  1.450497E+04 -1.926622E+04
        53  10 -7.222335E+06 -9.502069E+05  1.124812E+05 -2.807005E+06 -4.666814E-10  6.896970E-11
        53  11 -7.153921E+06 -8.855037E+05  1.360775E+05 -2.748419E+06  4.454192E-09  2.954965E-10
        53  12 -7.030225E+06 -8.783309E+05  1.566222E+05 -2.753651E+06  2.006474E-09 -1.411662E-09
        53  13 -7.665421E+06 -1.117124E+06 -5.989079E+03 -2.926806E+06  2.147168E-10 -2.059422E-10
        53  14 -7.693140E+06 -1.088944E+06 -7.636112E+03 -2.894672E+06 -2.611512E-09 -9.616257E-10
        53  15 -7.665626E+06 -1.118342E+06 -1.250013E+04 -2.926365E+06  3.555922E-09 -1.118355E-09
        53  16 -8.108315E+06 -1.284029E+06 -1.244771E+05 -3.046529E+06 -2.594496E-09 -1.195304E-09
        53  17 -8.232075E+06 -1.292367E+06 -1.513755E+05 -3.040809E+06 -9.427031E-10 -6.725011E-10
        53  18 -8.300633E+06 -1.358328E+06 -1.816578E+05 -3.098916E+06 -2.928836E-09  3.178918E-10
        53  19 -7.222335E+06 -9.502068E+05  1.124816E+05 -2.807005E+06 -7.642877E+03  1.227629E+04
        53  20 -7.153921E+06 -8.855034E+05  1.360782E+05 -2.748420E+06 -1.290916E+04  1.533438E+04
        53  21 -7.030224E+06 -8.783305E+05  1.566234E+05 -2.753652E+06 -1.801551E+04  1.794644E+04
        53  22 -7.665420E+06 -1.117123E+06 -5.988702E+03 -2.926806E+06 -5.478288E+03  1.308659E+04
        53  23 -7.693139E+06 -1.088943E+06 -7.635404E+03 -2.894672E+06 -1.094908E+04  1.606966E+04
        53  24 -7.665626E+06 -1.118341E+06 -1.249898E+04 -2.926365E+06 -1.625925E+04  1.860671E+04
        53  25 -8.108315E+06 -1.284029E+06 -1.244767E+05 -3.046529E+06 -3.315408E+03  1.389625E+04
        53  26 -8.232074E+06 -1.292366E+06 -1.513748E+05 -3.040809E+06 -8.990891E+03  1.680423E+04
        53  27 -8.300632E+06 -1.358327E+06 -1.816567E+05 -3.098916E+06 -1.450497E+04  1.926622E+04
        54   1 -6.910574E+06 -8.277573E+05  1.865965E+05 -2.718250E+06  2.109959E+04 -1.926484E+04
        54   2 -6.862279E+06 -7.796549E+05  1.923374E+05 -2.675135E+06  3.602894E+04 -1.737019E+04
        54   3 -6.780628E+06 -7.843055E+05  1.843454E+05 -2.673586E+06  5.065877E+04 -1.465667E+04
        54   4 -7.669962E+06 -1.113130E+06 -1.590670E+04 -2.923002E+06  1.938019E+04 -1.991241E+04
        54   5 -7.687427E+06 -1.092142E+06 -2.777426E+04 -2.900198E+06  3.467308E+04 -1.788298E+04
        54   6 -7.671621E+06 -1.123998E+06 -5.368012E+04 -2.918964E+06  4.966469E+04 -1.503483E+04
        54   7 -8.428785E+06 -1.398468E+06 -2.184600E+05 -3.127524E+06  1.766313E+04 -2.055913E+04
        54   8 -8.511908E+06 -1.404588E+06 -2.479458E+05 -3.124986E+06  3.331921E+04 -1.839502E+04
        54   9 -8.561839E+06 -1.463640E+06 -2.917764E+05 -3.164019E+06  4.867215E+04 -1.541241E+04
        54  10 -6.910574E+06 -8.277579E+05  1.865949E+05 -2.718250E+06  2.083290E-09 -2.434097E-09
        54  11 -6.862280E+06 -7.796555E+05  1.923344E+05 -2.675134E+06 -3.356494E-09 -1.141860E-09
        54  12 -6.780631E+06 -7.843064E+05  1.843401E+05 -2.673585E+06 -2.729776E-09 -1.113948E-09
        54  13 -7.669963E+06 -1.113130E+06 -1.590815E+04 -2.923002E+06 -4.299239E-10 -1.660329E-09
        54  14 -7.687428E+06 -1.092143E+06 -2.777713E+04 -2.900197E+06 -6.328451E-11 -2.434652E-09
        54  15 -7.671623E+06 -1.123999E+06 -5.368522E+04 -2.918963E+06 -6.110252E-10 -1.104056E-09
        54  16 -8.428786E+06 -1.398468E+06 -2.184613E+05 -3.127524E+06 -3.686549E-09 -1.050050E-09
        54  17 -8.511910E+06 -1.404589E+06 -2.479485E+05 -3.124986E+06  8.138039E-10 -1.544525E-09
        54  18 -8.561841E+06 -1.463641E+06 -2.917813E+05 -3.164019E+06  1.511804E-09 -7.509842E-10
        54  19 -6.910574E+06 -8.277573E+05  1.865965E+05 -2.718250E+06 -2.109959E+04  1.926484E+04
        54  20 -6.862279E+06 -7.796549E+05  1.923374E+05 -2.675135E+06 -3.602894E+04  1.737019E+04
        54  21 -6.780628E+06 -7.843055E+05  1.843454E+05 -2.673586E+06 -5.065877E+04  1.465667E+04
        54  22 -7.669962E+06 -1.113130E+06 -1.590670E+04 -2.923002E+06 -1.938019E+04  1.991241E+04
        54  23 -7.687427E+06 -1.092142E+06 -2.777426E+04 -2.900198E+06 -3.467308E+04  1.788298E+04
        54  24 -7.671621E+06 -1.123998E+06 -5.368012E+04 -2.918964E+06 -4.966469E+04  1.503483E+04
        54  25 -8.428785E+06 -1.398468E+06 -2.184600E+05 -3.127524E+06 -1.766313E+04  2.055913E+04
        54  26 -8.511908E+06 -1.404588E+06 -2.479458E+05 -3.124986E+06 -3.331921E+04  1.839502E+04
        54  27 -8.561839E+06 -1.463640E+06 -2.917764E+05 -3.164019E+06 -4.867215E+04  1.541241E+04
        55   1 -6.707505E+06 -7.489705E+05  1.888899E+05 -2.668817E+06  6.143451E+04 -1.231778E+04
        55   2 -6.682459E+06 -7.024789E+05  1.456265E+05 -2.631771E+06  1.228488E+05  9.072467E+03
        55   3 -6.693667E+06 -7.958271E+05  2.341029E+04 -2.582921E+06  1.832576E+05  3.312802E+04
        55   4 -7.681639E+06 -1.105195E+06 -6.869892E+04 -2.921517E+06  6.003067E+04 -1.284989E+04
        55   5 -7.670677E+06 -1.084186E+06 -1.193839E+05 -2.908982E+06  1.225924E+05  8.969601E+03
        55   6 -7.696285E+06 -1.203379E+06 -2.500385E+05 -2.884627E+06  1.841462E+05  3.345083E+04
        55   7 -8.654846E+06 -1.461378E+06 -3.263697E+05 -3.173861E+06  5.862923E+04 -1.338117E+04
        55   8 -8.657938E+06 -1.465823E+06 -3.844806E+05 -3.185784E+06  1.223364E+05  8.866856E+03
        55   9 -8.697913E+06 -1.610826E+06 -5.235785E+05 -3.185871E+06  1.850330E+05  3.377284E+04
        55  10 -6.707509E+06 -7.489717E+05  1.888825E+05 -2.668817E+06 -2.080651E-09  6.294759E-10
        55  11 -6.682475E+06 -7.024831E+05  1.455977E+05 -2.631772E+06 -2.272033E-09  2.407387E-09
        55  12 -6.693704E+06 -7.958375E+05  2.334434E+04 -2.582926E+06  1.998268E-09  1.916227E-09
        55  13 -7.681643E+06 -1.105196E+06 -6.870607E+04 -2.921516E+06 -9.256893E-10 -1.147830E-10
        55  14 -7.670694E+06 -1.084191E+06 -1.194126E+05 -2.908983E+06  5.984089E-09  1.630473E-09
        55  15 -7.696322E+06 -1.203389E+06 -2.501052E+05 -2.884632E+06  3.961547E-10  2.074566E-10
        55  16 -8.654849E+06 -1.461379E+06 -3.263765E+05 -3.173860E+06 -9.481597E-11  1.454700E-10
        55  17 -8.657954E+06 -1.465827E+06 -3.845093E+05 -3.185785E+06  2.579450E-10  2.802913E-10
        55  18 -8.697950E+06 -1.610836E+06 -5.236460E+05 -3.185876E+06 -3.365330E-09 -1.183879E-09
        55  19 -6.707505E+06 -7.489705E+05  1.888899E+05 -2.668817E+06 -6.143451E+04  1.231778E+04
        55  20 -6.682459E+06 -7.024789E+05  1.456265E+05 -2.631771E+06 -1.228488E+05 -9.072467E+03
        55  21 -6.693667E+06 -7.958271E+05  2.341029E+04 -2.582921E+06 -1.832576E+05 -3.312802E+04
        55  22 -7.681639E+06 -1.105195E+06 -6.869892E+04 -2.921517E+06 -6.003067E+04  1.284989E+04
        55  23 -7.670677E+06 -1.084186E+06 -1.193839E+05 -2.908982E+06 -1.225924E+05 -8.969601E+03
        55  24 -7.696285E+06 -1.203379E+06 -2.500385E+05 -2.884627E+06 -1.841462E+05 -3.345083E+04
        55  25 -8.654846E+06 -1.461378E+06 -3.263697E+05 -3.173861E+06 -5.862923E+04  1.338117E+04
        55  26 -8.657938E+06 -1.465823E+06 -3.844806E+05 -3.185784E+06 -1.223364E+05 -8.866856E+03
        55  27 -8.697913E+06 -1.610826E+06 -5.235785E+05 -3.185871E+06 -1.850330E+05 -3.377284E+04
        56   1 -6.625737E+06 -7.588738E+05 -3.165501E+04 -2.760108E+06  2.340101E+05  4.852060E+04
        56   2 -6.610167E+06 -5.229574E+05 -2.355847E+05 -2.592683E+06  4.999982E+05  1.505361E+05
        56   3 -7.057399E+06 -1.384971E+06 -9.430222E+05 -2.124906E+06  7.570646E+05  2.760357E+05
        56   4 -7.740745E+06 -1.070384E+06 -3.072847E+05 -2.951734E+06  2.286921E+05  4.654962E+04
        56   5 -7.574174E+06 -9.646729E+05 -5.071825E+05 -2.933551E+06  5.051807E+05  1.524269E+05
        56   6 -7.873297E+06 -1.960207E+06 -1.219604E+06 -2.614754E+06  7.728055E+05  2.816281E+05
        56   7 -8.854523E+06 -1.381925E+06 -5.830012E+05 -3.143107E+06  2.233844E+05  4.458018E+04
        56   8 -8.537250E+06 -1.406198E+06 -7.788677E+05 -3.273889E+06  5.103538E+05  1.543123E+05
        56   9 -8.688359E+06 -2.534739E+06 -1.496233E+06 -3.103847E+06  7.885229E+05  2.871943E+05
        56  10 -6.625797E+06 -7.588913E+05 -3.176365E+04 -2.760118E+06 -1.022787E-09 -4.534536E-10
        56  11 -6.610444E+06 -5.230502E+05 -2.361035E+05 -2.592744E+06 -2.186928E-09  2.772915E-10
        56  12 -7.058041E+06 -1.385210E+06 -9.442577E+05 -2.125076E+06  1.713641E-09 -1.033016E-09
        56  13 -7.740802E+06 -1.070400E+06 -3.073885E+05 -2.951742E+06  2.169400E-09  1.357425E-09
        56  14 -7.574458E+06 -9.647679E+05 -5.077132E+05 -2.933614E+06 -4.861612E-09  5.807598E-09
        56  15 -7.873968E+06 -1.960456E+06 -1.220894E+06 -2.614931E+06  6.473683E-10 -8.417473E-10
        56  16 -8.854577E+06 -1.381941E+06 -5.831003E+05 -3.143115E+06  5.969907E-10 -1.659557E-09
        56  17 -8.537540E+06 -1.406296E+06 -7.794105E+05 -3.273954E+06 -3.522434E-09  3.571383E-09
        56  18 -8.689058E+06 -2.534999E+06 -1.497578E+06 -3.104032E+06  9.854880E-10 -6.356063E-10
        56  19 -6.625737E+06 -7.588738E+05 -3.165501E+04 -2.760108E+06 -2.340101E+05 -4.852060E+04
        56  20 -6.610167E+06 -5.229574E+05 -2.355847E+05 -2.592683E+06 -4.999982E+05 -1.505361E+05
        56  21 -7.057399E+06 -1.384971E+06 -9.430222E+05 -2.124906E+06 -7.570646E+05 -2.760357E+05
        56  22 -7.740745E+06 -1.070384E+06 -3.072847E+05 -2.951734E+06 -2.286921E+05 -4.654962E+04
        56  23 -7.574174E+06 -9.646729E+05 -5.071825E+05 -2.933551E+06 -5.051807E+05 -1.524269E+05
        56  24 -7.873297E+06 -1.960207E+06 -1.219604E+06 -2.614754E+06 -7.728055E+05 -2.816281E+05
        56  25 -8.854523E+06 -1.381925E+06 -5.830012E+05 -3.143107E+06 -2.233844E+05 -4.458018E+04
        56  26 -8.537250E+06 -1.406198E+06 -7.788677E+05 -3.273889E+06 -5.103538E+05 -1.543123E+05
        56  27 -8.688359E+06 -2.534739E+06 -1.496233E+06 -3.103847E+06 -7.885229E+05 -2.871943E+05
        57   1 -1.369835E+06 -2.091517E+05 -1.683922E+05 -4.285633E+03  9.893994E+04  1.447399E+04
        57   2 -1.311746E+06 -3.471102E+05 -2.380683E+05 -3.811911E+03  7.250563E+04  4.268004E+04
        57   3 -1.204944E+06 -3.142524E+05 -2.473404E+05 -6.431314E+04  4.619975E+04  4.027892E+04
        57   4  3.040932E+04  1.397787E+05  1.772402E+05 -4.366448E+04  1.210799E+05  1.456483E+04
        57   5  4.779083E+03 -2.060139E+04  7.737807E+04 -1.287046E+04  7.916539E+04  4.269752E+04
        57   6  3.044388E+04 -7.672664E+03  4.857641E+04 -4.304090E+04  3.738400E+04  4.024919E+04
        57   7  1.432444E+06  4.885696E+05  5.227303E+05 -8.313436E+04  1.432696E+05  1.465276E+04
        57   8  1.322894E+06  3.057820E+05  3.927021E+05 -2.194980E+04  8.583910E+04  4.271480E+04
        57   9  1.267233E+06  2.987979E+05  3.443857E+05 -2.172706E+04  2.855069E+04  4.021888E+04
        57  10 -1.369845E+06 -2.091545E+05 -1.684110E+05 -4.286787E+03 -1.981656E-09  1.302954E-09
        57  11 -1.311752E+06 -3.471135E+05 -2.380817E+05 -3.814406E+03  1.085260E-10 -1.832147E-09
        57  12 -1.204947E+06 -3.142547E+05 -2.473474E+05 -6.431464E+04 -3.095339E-09  8.935103E-10
        57  13  3.039352E+04  1.397746E+05  1.772123E+05 -4.366590E+04  1.237110E-09  2.219528E-10
        57  14  4.771865E+03 -2.060503E+04  7.736287E+04 -1.287318E+04  3.816299E-09 -5.225421E-09
        57  15  3.044195E+04 -7.674779E+03  4.857074E+04 -4.304211E+04  4.000736E-11  1.061614E-09
        57  16  1.432422E+06  4.885639E+05  5.226914E+05 -8.313605E+04 -6.950282E-10 -7.806995E-10
        57  17  1.322886E+06  3.057781E+05  3.926848E+05 -2.195275E+04  5.317992E-10 -1.131271E-09
        57  18  1.267232E+06  2.987959E+05  3.443811E+05 -2.172799E+04  3.910467E-09 -2.297229E-10
        57  19 -1.369835E+06 -2.091517E+05 -1.683922E+05 -4.285633E+03 -9.893994E+04 -1.447399E+04
        57  20 -1.311746E+06 -3.471102E+05 -2.380683E+05 -3.811911E+03 -7.250563E+04 -4.268004E+04
        57  21 -1.204944E+06 -3.142524E+05 -2.473404E+05 -6.431314E+04 -4.619975E+04 -4.027892E+04
        57  22  3.040932E+04  1.397787E+05  1.772402E+05 -4.366448E+04 -1.210799E+05 -1.456483E+04
        57  23  4.779083E+03 -2.060139E+04  7.737807E+04 -1.287046E+04 -7.916539E+04 -4.269752E+04
        57  24  3.044388E+04 -7.672664E+03  4.857641E+04 -4.304090E+04 -3.738400E+04 -4.024919E+04
        57  25  1.432444E+06  4.885696E+05  5.227303E+05 -8.313436E+04 -1.432696E+05 -1.465276E+04
        57  26  1.322894E+06  3.057820E+05  3.927021E+05 -2.194980E+04 -8.583910E+04 -4.271480E+04
        57  27  1.267233E+06  2.987979E+05  3.443857E+05 -2.172706E+04 -2.855069E+04 -4.021888E+04
        58   1 -1.104428E+06 -2.649724E+05 -2.307624E+05 -4.128107E+04  2.972862E+04  3.395309E+04
        58   2 -1.026206E+06 -2.612862E+05 -2.301582E+05 -1.319840E+04  2.061885E+04  3.294803E+04
        58   3 -9.407499E+05 -2.395482E+05 -2.187820E+05 -4.620640E+04  1.150676E+04  2.966599E+04
        58   4  2.076693E+04  1.426707E+04  3.959634E+04 -4.327550E+04  2.984392E+04  3.394913E+04
        58   5  1.707255E+04 -2.467690E+03  2.002013E+04 -1.271597E+04  1.957151E+04  3.294233E+04
        58   6  2.079873E+04 -9.646168E+02  1.201027E+04 -4.324043E+04  9.298003E+03  2.966021E+04
        58   7  1.147122E+06  2.934144E+05  3.098651E+05 -4.527425E+04  2.995938E+04  3.394517E+04
        58   8  1.061349E+06  2.562717E+05  2.701214E+05 -1.223319E+04  1.852239E+04  3.293664E+04
        58   9  9.831948E+05  2.375517E+05  2.427370E+05 -4.027009E+04  7.085823E+03  2.965441E+04
        58  10 -1.104429E+06 -2.649738E+05 -2.307663E+05 -4.128188E+04 -2.644701E-09 -1.141376E-10
        58  11 -1.026206E+06 -2.612874E+05 -2.301611E+05 -1.319895E+04 -2.761139E-09  1.553866E-09
        58  12 -9.407503E+05 -2.395492E+05 -2.187839E+05 -4.620667E+04 -5.850824E-10 -2.267909E-09
        58  13  2.076567E+04  1.426559E+04  3.959250E+04 -4.327631E+04  1.776280E-09  4.876764E-10
        58  14  1.707185E+04 -2.468959E+03  2.001737E+04 -1.271649E+04 -2.421419E-09 -1.220591E-10
        58  15  2.079840E+04 -9.655847E+02  1.200846E+04 -4.324065E+04  2.072714E-09 -1.626512E-09
        58  16  1.147121E+06  2.934129E+05  3.098613E+05 -4.527506E+04  3.440662E-09  1.739637E-09
        58  17  1.061348E+06  2.562704E+05  2.701187E+05 -1.223368E+04  3.924223E-09 -2.881094E-09
        58  18  9.831945E+05  2.375508E+05  2.427352E+05 -4.027025E+04  3.127189E-09  4.792888E-10
        58  19 -1.104428E+06 -2.649724E+05 -2.307624E+05 -4.128107E+04 -2.972862E+04 -3.395309E+04
        58  20 -1.026206E+06 -2.612862E+05 -2.301582E+05 -1.319840E+04 -2.061885E+04 -3.294803E+04
        58  21 -9.407499E+05 -2.395482E+05 -2.187820E+05 -4.620640E+04 -1.150676E+04 -2.966599E+04
        58  22  2.076693E+04  1.426707E+04  3.959634E+04 -4.327550E+04 -2.984392E+04 -3.394913E+04
        58  23  1.707255E+04 -2.467690E+03  2.002013E+04 -1.271597E+04 -1.957151E+04 -3.294233E+04
        58  24  2.079873E+04 -9.646168E+02  1.201027E+04 -4.324043E+04 -9.298003E+03 -2.966021E+04
        58  25  1.147122E+06  2.934144E+05  3.098651E+05 -4.527425E+04 -2.995938E+04 -3.394517E+04
        58  26  1.061349E+06  2.562717E+05  2.701214E+05 -1.223319E+04 -1.852239E+04 -3.293664E+04
        58  27  9.831948E+05  2.375517E+05  2.427370E+05 -4.027009E+04 -7.085823E+03 -2.965441E+04
        59   1 -8.318690E+05 -2.099020E+05 -1.946121E+05 -4.357891E+04  8.945807E+03  2.739505E+04
        59   2 -7.509031E+05 -1.912992E+05 -1.795288E+05 -1.299337E+04  6.508631E+03  2.423099E+04
        59   3 -6.683890E+05 -1.708083E+05 -1.622261E+05 -4.348977E+04  4.065824E+03  2.089890E+04
        59   4  1.955114E+04  1.260684E+03  9.360799E+03 -4.324993E+04  7.402980E+03  2.739110E+04
        59   5  1.878532E+04 -3.813151E+02  5.028682E+03 -1.271072E+04  4.877972E+03  2.422818E+04
        59   6  1.957475E+04 -1.210792E+02  2.974956E+03 -4.324877E+04  2.347651E+03  2.089734E+04
        59   7  8.716360E+05  2.123708E+05  2.132824E+05 -4.292064E+04  5.858038E+03  2.738715E+04
        59   8  7.890168E+05  1.904935E+05  1.895442E+05 -1.242779E+04  3.245295E+03  2.422537E+04
        59   9  7.079721E+05  1.705317E+05  1.681424E+05 -4.300749E+04  6.275800E+02  2.089578E+04
        59  10 -8.318693E+05 -2.099028E+05 -1.946136E+05 -4.357910E+04 -2.240981E-09 -1.172295E-09
        59  11 -7.509033E+05 -1.912998E+05 -1.795300E+05 -1.299350E+04 -2.551829E-09 -1.067403E-10
        59  12 -6.683891E+05 -1.708088E+05 -1.622269E+05 -4.348983E+04 -1.452836E-09 -3.718521E-11
        59  13  1.955088E+04  1.259864E+03  9.359286E+03 -4.325009E+04  2.431316E-09 -9.794201E-10
        59  14  1.878514E+04 -3.819519E+02  5.027534E+03 -1.271082E+04  6.388465E-09 -5.054096E-10
        59  15  1.957462E+04 -1.215497E+02  2.974125E+03 -4.324881E+04  8.782725E-10 -3.835988E-11
        59  16  8.716358E+05  2.123700E+05  2.132809E+05 -4.292077E+04  3.198142E-09  1.647912E-10
        59  17  7.890167E+05  1.904929E+05  1.895431E+05 -1.242785E+04  1.426604E-09 -1.347771E-09
        59  18  7.079720E+05  1.705313E+05  1.681416E+05 -4.300750E+04  1.887757E-09 -2.029526E-10
        59  19 -8.318690E+05 -2.099020E+05 -1.946121E+05 -4.357891E+04 -8.945807E+03 -2.739505E+04
        59  20 -7.509031E+05 -1.912992E+05 -1.795288E+05 -1.299337E+04 -6.508631E+03 -2.423099E+04
        59  21 -6.683890E+05 -1.708083E+05 -1.622261E+05 -4.348977E+04 -4.065824E+03 -2.089890E+04
        59  22  1.955114E+04  1.260684E+03  9.360799E+03 -4.324993E+04 -7.402980E+03 -2.739110E+04
        59  23  1.878532E+04 -3.813151E+02  5.028682E+03 -1.271072E+04 -4.877972E+03 -2.422818E+04
        59  24  1.957475E+04 -1.210792E+02  2.974956E+03 -4.324877E+04 -2.347651E+03 -2.089734E+04
        59  25  8.716360E+05  2.123708E+05  2.132824E+05 -4.292064E+04 -5.858038E+03 -2.738715E+04
        59  26  7.890168E+05  1.904935E+05  1.895442E+05 -1.242779E+04 -3.245295E+03 -2.422537E+04
        59  27  7.079721E+05  1.705317E+05  1.681424E+05 -4.300749E+04 -6.275800E+02 -2.089578E+04
        60   1 -5.585449E+05 -1.432101E+05 -1.360573E+05 -4.317370E+04  3.543541E+03  1.893329E+04
        60   2 -4.770164E+05 -1.231246E+05 -1.177504E+05 -1.257714E+04  2.946527E+03  1.561210E+04
        60   3 -3.951307E+05 -1.027911E+05 -9.894831E+04 -4.301564E+04  2.345913E+03  1.227959E+04
        60   4  1.934633E+04  6.748283E+01  2.249945E+03 -4.323902E+04  1.874713E+03  1.893246E+04
        60   5  1.917787E+04 -6.601419E+01  1.209528E+03 -1.272300E+04  1.271383E+03  1.561207E+04
        60   6  1.936154E+04  4.992451E+01  6.686192E+02 -4.323902E+04  6.645308E+02  1.228039E+04
        60   7  5.975438E+05  1.433209E+05  1.405336E+05 -4.330438E+04  2.043366E+02  1.893163E+04
        60   8  5.155978E+05  1.229747E+05  1.201520E+05 -1.286894E+04 -4.050958E+02  1.561204E+04
        60   9  4.340111E+05  1.028784E+05  1.002733E+05 -4.346251E+04 -1.017971E+03  1.228119E+04
        60  10 -5.585450E+05 -1.432105E+05 -1.360580E+05 -4.317376E+04  7.802081E-10  3.465964E-10
        60  11 -4.770165E+05 -1.231248E+05 -1.177508E+05 -1.257718E+04 -6.241854E-10  1.107846E-09
        60  12 -3.951308E+05 -1.027913E+05 -9.894860E+04 -4.301566E+04 -5.491821E-10  1.336719E-10
        60  13  1.934623E+04  6.709698E+01  2.249265E+03 -4.323905E+04  2.116331E-09  5.193528E-10
        60  14  1.917780E+04 -6.627636E+01  1.209067E+03 -1.272301E+04 -1.018146E-09 -9.971873E-11
        60  15  1.936150E+04  4.976245E+01  6.683350E+02 -4.323902E+04  2.509374E-09 -7.799137E-10
        60  16  5.975437E+05  1.433205E+05  1.405330E+05 -4.330438E+04  2.122739E-09  1.220175E-10
        60  17  5.155978E+05  1.229744E+05  1.201515E+05 -1.286894E+04  1.630661E-10  2.670862E-10
        60  18  4.340111E+05  1.028783E+05  1.002731E+05 -4.346250E+04  5.336557E-09 -6.210954E-10
        60  19 -5.585449E+05 -1.432101E+05 -1.360573E+05 -4.317370E+04 -3.543541E+03 -1.893329E+04
        60  20 -4.770164E+05 -1.231246E+05 -1.177504E+05 -1.257714E+04 -2.946527E+03 -1.561210E+04
        60  21 -3.951307E+05 -1.027911E+05 -9.894831E+04 -4.301564E+04 -2.345913E+03 -1.227959E+04
        60  22  1.934633E+04  6.748283E+01  2.249945E+03 -4.323902E+04 -1.874713E+03 -1.893246E+04
        60  23  1.917787E+04 -6.601419E+01  1.209528E+03 -1.272300E+04 -1.271383E+03 -1.561207E+04
        60  24  1.936154E+04  4.992451E+01  6.686192E+02 -4.323902E+04 -6.645308E+02 -1.228039E+04
        60  25  5.975438E+05  1.433209E+05  1.405336E+05 -4.330438E+04 -2.043366E+02 -1.893163E+04
        60  26  5.155978E+05  1.229747E+05  1.201520E+05 -1.286894E+04  4.050958E+02 -1.561204E+04
        60  27  4.340111E+05  1.028784E+05  1.002733E+05 -4.346251E+04  1.017971E+03 -1.228119E+04
        61   1 -2.851620E+05 -7.539615E+04 -7.228357E+04 -4.304632E+04  2.239755E+03  1.033716E+04
        61   2 -2.034380E+05 -5.521844E+04 -5.327227E+04 -1.257254E+04  2.172606E+03  7.005990E+03
        61   3 -1.217729E+05 -3.495081E+04 -3.421624E+04 -4.310664E+04  2.103875E+03  3.680558E+03
        61   4  1.929112E+04  5.116852E+01  4.495276E+02 -4.323335E+04  5.600620E+02  1.033837E+04
        61   5  1.932663E+04  1.929647E+01  1.256489E+02 -1.273008E+04  4.956717E+02  7.007557E+03
        61   6  1.929795E+04  7.762910E+01 -1.547567E+02 -4.323333E+04  4.297082E+02  3.682499E+03
        61   7  3.238292E+05  7.549178E+04  7.317610E+04 -4.342045E+04 -1.120452E+03  1.033959E+04
        61   8  2.421368E+05  5.525343E+04  5.352006E+04 -1.288766E+04 -1.181862E+03  7.009124E+03
        61   9  1.603870E+05  3.510462E+04  3.390531E+04 -4.336005E+04 -1.244838E+03  3.684440E+03
        61  10 -2.851620E+05 -7.539626E+04 -7.228378E+04 -4.304633E+04  1.003824E-10 -8.010473E-10
        61  11 -2.034381E+05 -5.521849E+04 -5.327237E+04 -1.257255E+04  2.831130E-09 -4.745191E-10
        61  12 -1.217729E+05 -3.495083E+04 -3.421627E+04 -4.310665E+04 -1.819201E-09 -7.376635E-10
        61  13  1.929109E+04  5.105366E+01  4.493262E+02 -4.323335E+04  1.920750E-09  7.643623E-10
        61  14  1.932662E+04  1.924368E+01  1.255562E+02 -1.273008E+04  1.201612E-09  1.229273E-09
        61  15  1.929794E+04  7.761449E+01 -1.547826E+02 -4.323334E+04 -2.716614E-09 -1.884546E-09
        61  16  3.238292E+05  7.549166E+04  7.317590E+04 -4.342044E+04  2.090935E-09 -7.770693E-12
        61  17  2.421368E+05  5.525338E+04  5.351997E+04 -1.288766E+04 -1.022598E-09  1.073424E-09
        61  18  1.603870E+05  3.510460E+04  3.390528E+04 -4.336005E+04 -2.079748E-10  1.284419E-11
        61  19 -2.851620E+05 -7.539615E+04 -7.228357E+04 -4.304632E+04 -2.239755E+03 -1.033716E+04
        61  20 -2.034380E+05 -5.521844E+04 -5.327227E+04 -1.257254E+04 -2.172606E+03 -7.005990E+03
        61  21 -1.217729E+05 -3.495081E+04 -3.421624E+04 -4.310664E+04 -2.103875E+03 -3.680558E+03
        61  22  1.929112E+04  5.116852E+01  4.495276E+02 -4.323335E+04 -5.600620E+02 -1.033837E+04
        61  23  1.932663E+04  1.929647E+01  1.256489E+02 -1.273008E+04 -4.956717E+02 -7.007557E+03
        61  24  1.929795E+04  7.762910E+01 -1.547567E+02 -4.323333E+04 -4.297082E+02 -3.682499E+03
        61  25  3.238292E+05  7.549178E+04  7.317610E+04 -4.342045E+04  1.120452E+03 -1.033959E+04
        61  26  2.421368E+05  5.525343E+04  5.352006E+04 -1.288766E+04  1.181862E+03 -7.009124E+03
        61  27  1.603870E+05  3.510462E+04  3.390531E+04 -4.336005E+04  1.244838E+03 -3.684440E+03
        62   1 -1.176648E+04 -7.535092E+03 -7.495960E+03 -4.324988E+04  2.166886E+03  1.729158E+03
        62   2  7.005867E+04  1.263067E+04  1.145444E+04 -1.277142E+04  2.466329E+03 -1.599528E+03
        62   3  1.516411E+05  3.262559E+04  3.013008E+04 -4.329404E+04  2.766267E+03 -4.842244E+03
        62   4  1.926024E+04  1.078197E+02 -3.075753E+02 -4.323210E+04  4.676940E+02  1.731229E+03
        62   5  1.938831E+04  6.847055E+01 -6.886149E+02 -1.273155E+04  8.103222E+02 -1.597604E+03
        62   6  1.925869E+04 -1.490980E+02 -1.374380E+03 -4.323239E+04  1.153406E+03 -4.840440E+03
        62   7  5.028785E+04  7.750665E+03  6.880756E+03 -4.321431E+04 -1.231582E+03  1.733299E+03
        62   8 -3.127969E+04 -1.249391E+04 -1.283184E+04 -1.269168E+04 -8.455503E+02 -1.595680E+03
        62   9 -1.131076E+05 -3.292505E+04 -3.288006E+04 -4.317076E+04 -4.591127E+02 -4.838637E+03
        62  10 -1.176649E+04 -7.535096E+03 -7.495975E+03 -4.324988E+04 -2.511099E-09  1.150033E-09
        62  11  7.005866E+04  1.263067E+04  1.145442E+04 -1.277141E+04 -2.748309E-09  4.583657E-10
        62  12  1.516410E+05  3.262556E+04  3.013002E+04 -4.329403E+04  3.952675E-10 -3.385539E-10
        62  13  1.926024E+04  1.078165E+02 -3.075813E+02 -4.323210E+04 -4.605298E-09 -1.367057E-09
        62  14  1.938831E+04  6.846763E+01 -6.886209E+02 -1.273155E+04 -3.071918E-09 -1.458665E-09
        62  15  1.925869E+04 -1.491235E+02 -1.374426E+03 -4.323239E+04 -4.206871E-10  4.122254E-10
        62  16  5.028785E+04  7.750661E+03  6.880748E+03 -4.321431E+04  1.961117E-09  6.020024E-10
        62  17 -3.127969E+04 -1.249392E+04 -1.283184E+04 -1.269168E+04 -1.067381E-09 -2.002689E-09
        62  18 -1.131076E+05 -3.292507E+04 -3.288010E+04 -4.317076E+04  8.859382E-10 -5.956866E-11
        62  19 -1.176648E+04 -7.535092E+03 -7.495960E+03 -4.324988E+04 -2.166886E+03 -1.729158E+03
        62  20  7.005867E+04  1.263067E+04  1.145444E+04 -1.277142E+04 -2.466329E+03  1.599528E+03
        62  21  1.516411E+05  3.262559E+04  3.013008E+04 -4.329404E+04 -2.766267E+03  4.842244E+03
        62  22  1.926024E+04  1.078197E+02 -3.075753E+02 -4.323210E+04 -4.676940E+02 -1.731229E+03
        62  23  1.938831E+04  6.847055E+01 -6.886149E+02 -1.273155E+04 -8.103222E+02  1.597604E+03
        62  24  1.925869E+04 -1.490980E+02 -1.374380E+03 -4.323239E+04 -1.153406E+03  4.840440E+03
        62  25  5.028785E+04  7.750665E+03  6.880756E+03 -4.321431E+04  1.231582E+03 -1.733299E+03
        62  26 -3.127969E+04 -1.249391E+04 -1.283184E+04 -1.269168E+04  8.455503E+02  1.595680E+03
        62  27 -1.131076E+05 -3.292505E+04 -3.288006E+04 -4.317076E+04  4.591127E+02  4.838637E+03
        63   1  2.615733E+05  6.035802E+04  5.655592E+04 -4.374979E+04  3.378538E+03 -6.944627E+03
        63   2  3.437091E+05  8.068438E+04  7.462284E+04 -1.278257E+04  4.352884E+03 -1.023604E+04
        63   3  4.250691E+05  9.842477E+04  9.140508E+04 -4.279971E+04  5.330338E+03 -1.237295E+04
        63   4  1.910813E+04  2.062515E+02 -1.772998E+03 -4.322827E+04  1.428049E+03 -6.942667E+03
        63   5  1.954489E+04  3.325932E+02 -3.043225E+03 -1.273599E+04  2.983702E+03 -1.023519E+04
        63   6  1.909824E+04 -2.228347E+03 -6.002061E+03 -4.323012E+04  4.542335E+03 -1.237293E+04
        63   7 -2.233032E+05 -5.994979E+04 -6.010609E+04 -4.270693E+04 -5.216825E+02 -6.940709E+03
        63   8 -3.045230E+05 -8.002681E+04 -8.071672E+04 -1.268941E+04  1.615230E+03 -1.023435E+04
        63   9 -3.867218E+05 -1.028934E+05 -1.034209E+05 -4.366021E+04  3.754845E+03 -1.237291E+04
        63  10  2.615733E+05  6.035796E+04  5.655581E+04 -4.374978E+04 -2.890596E-09 -1.955167E-09
        63  11  3.437090E+05  8.068426E+04  7.462261E+04 -1.278253E+04 -1.132246E-09  1.692511E-10
        63  12  4.250691E+05  9.842460E+04  9.140474E+04 -4.279966E+04  2.724023E-09 -9.793886E-10
        63  13  1.910811E+04  2.061992E+02 -1.773092E+03 -4.322826E+04  8.066440E-10 -7.525670E-11
        63  14  1.954485E+04  3.324783E+02 -3.043438E+03 -1.273596E+04  1.190220E-09 -3.465434E-10
        63  15  1.909818E+04 -2.228517E+03 -6.002387E+03 -4.323007E+04  1.484879E-09 -3.947039E-11
        63  16 -2.233033E+05 -5.994984E+04 -6.010618E+04 -4.270693E+04  1.281210E-09  6.355062E-10
        63  17 -3.045231E+05 -8.002693E+04 -8.071692E+04 -1.268939E+04  1.138637E-10  1.120366E-10
        63  18 -3.867218E+05 -1.028936E+05 -1.034212E+05 -4.366017E+04 -1.487895E-09  3.366938E-10
        63  19  2.615733E+05  6.035802E+04  5.655592E+04 -4.374979E+04 -3.378538E+03  6.944627E+03
        63  20  3.437091E+05  8.068438E+04  7.462284E+04 -1.278257E+04 -4.352884E+03  1.023604E+04
        63  21  4.250691E+05  9.842477E+04  9.140508E+04 -4.279971E+04 -5.330338E+03  1.237295E+04
        63  22  1.910813E+04  2.062515E+02 -1.772998E+03 -4.322827E+04 -1.428049E+03  6.942667E+03
        63  23  1.954489E+04  3.325932E+02 -3.043225E+03 -1.273599E+04 -2.983702E+03  1.023519E+04
        63  24  1.909824E+04 -2.228347E+03 -6.002061E+03 -4.323012E+04 -4.542335E+03  1.237293E+04
        63  25 -2.233032E+05 -5.994979E+04 -6.010609E+04 -4.270693E+04  5.216825E+02  6.940709E+03
        63  26 -3.045230E+05 -8.002681E+04 -8.071672E+04 -1.268941E+04 -1.615230E+03  1.023435E+04
        63  27 -3.867218E+05 -1.028934E+05 -1.034209E+05 -4.366021E+04 -3.754845E+03  1.237291E+04
        64   1  5.339306E+05  1.290516E+05  1.162577E+05 -4.618275E+04  1.098824E+04 -1.649872E+04
        64   2  6.186923E+05  1.510166E+05  1.311708E+05 -1.095744E+04  9.561502E+03 -1.928392E+04
        64   3  6.978339E+05  1.481910E+05  1.408938E+05 -3.635771E+04  8.134284E+03 -6.596116E+03
        64   4  1.771378E+04  1.118684E+03 -7.343328E+03 -4.314942E+04  5.677476E+03 -1.649669E+04
        64   5  2.119773E+04  2.966678E+03 -1.181896E+04 -1.283389E+04  1.205064E+04 -1.928558E+04
        64   6  1.769584E+04 -2.134211E+04 -2.690495E+04 -4.314801E+04  1.842331E+04 -6.594883E+03
        64   7 -4.982590E+05 -1.268335E+05 -1.309631E+05 -4.011858E+04  3.711086E+02 -1.649470E+04
        64   8 -5.759699E+05 -1.451091E+05 -1.548339E+05 -1.470851E+04  1.453738E+04 -1.928725E+04
        64   9 -6.620217E+05 -1.909095E+05 -1.947375E+05 -4.993088E+04  2.870107E+04 -6.593874E+03
        64  10  5.339304E+05  1.290513E+05  1.162570E+05 -4.618260E+04  1.916353E-09 -1.175773E-09
        64  11  6.186921E+05  1.510162E+05  1.311700E+05 -1.095730E+04 -1.777804E-09  2.048553E-10
        64  12  6.978338E+05  1.481909E+05  1.408936E+05 -3.635766E+04 -4.884452E-10  3.481872E-10
        64  13  1.771368E+04  1.118383E+03 -7.343900E+03 -4.314934E+04 -1.414530E-10  6.490423E-10
        64  14  2.119748E+04  2.966240E+03 -1.181993E+04 -1.283370E+04  2.166860E-09 -1.709893E-10
        64  15  1.769546E+04 -2.134225E+04 -2.690567E+04 -4.314791E+04  4.327381E-10 -1.225385E-10
        64  16 -4.982590E+05 -1.268338E+05 -1.309636E+05 -4.011858E+04 -9.406540E-10  5.357565E-10
        64  17 -5.759702E+05 -1.451095E+05 -1.548350E+05 -1.470828E+04 -5.831329E-10 -4.725957E-10
        64  18 -6.620225E+05 -1.909097E+05 -1.947392E+05 -4.993073E+04  1.335046E-09 -1.454367E-10
        64  19  5.339306E+05  1.290516E+05  1.162577E+05 -4.618275E+04 -1.098824E+04  1.649872E+04
        64  20  6.186923E+05  1.510166E+05  1.311708E+05 -1.095744E+04 -9.561502E+03  1.928392E+04
        64  21  6.978339E+05  1.481910E+05  1.408938E+05 -3.635771E+04 -8.134284E+03  6.596116E+03
        64  22  1.771378E+04  1.118684E+03 -7.343328E+03 -4.314942E+04 -5.677476E+03  1.649669E+04
        64  23  2.119773E+04  2.966678E+03 -1.181896E+04 -1.283389E+04 -1.205064E+04  1.928558E+04
        64  24  1.769584E+04 -2.134211E+04 -2.690495E+04 -4.314801E+04 -1.842331E+04  6.594883E+03
        64  25 -4.982590E+05 -1.268335E+05 -1.309631E+05 -4.011858E+04 -3.711086E+02  1.649470E+04
        64  26 -5.759699E+05 -1.451091E+05 -1.548339E+05 -1.470851E+04 -1.453738E+04  1.928725E+04
        64  27 -6.620217E+05 -1.909095E+05 -1.947375E+05 -4.993088E+04 -2.870107E+04  6.593874E+03
        65   1  1.051185E+06  3.439326E+06  1.011404E+06 -1.012762E+06  4.278775E+04  2.564408E+05
        65   2  7.349253E+05  2.428033E+06  6.441771E+05 -8.750180E+05  1.317577E+05  7.316553E+04
        65   3  4.866759E+05  1.456426E+06  4.126310E+05 -9.656714E+05  1.200300E+05 -1.103051E+05
        65   4  6.761248E+04 -5.365974E+05  6.560208E+04 -9.569811E+05  4.429324E+04  3.343162E+04
        65   5  2.083120E+04 -5.410278E+05  4.120505E+04 -8.429518E+05  1.322351E+05  1.298205E+04
        65   6  1.409968E+04 -5.347146E+05  3.989101E+04 -9.573476E+05  1.192717E+05 -7.963468E+03
        65   7 -9.170639E+05 -4.497948E+06 -8.811198E+05 -9.015236E+05  4.576455E+04 -1.881626E+05
        65   8 -6.938076E+05 -3.501708E+06 -5.622137E+05 -8.110219E+05  1.327077E+05 -4.691991E+04
        65   9 -4.587001E+05 -2.522002E+06 -3.329809E+05 -9.490415E+05  1.185147E+05  9.405874E+04
        65  10  1.051165E+06  3.439255E+06  1.011278E+06 -1.012771E+06  7.171750E-11  2.449974E-08
        65  11  7.349053E+05  2.428022E+06  6.441344E+05 -8.750257E+05 -1.094662E-10  7.175163E-09
        65  12  4.866572E+05  1.456409E+06  4.125813E+05 -9.656607E+05  7.071655E-10 -4.018498E-09
        65  13  6.761007E+04 -5.365992E+05  6.559628E+04 -9.569823E+05  1.465076E-09  2.716690E-09
        65  14  2.081238E+04 -5.410327E+05  4.117187E+04 -8.429532E+05 -6.162243E-09  3.193698E-09
        65  15  1.408440E+04 -5.347185E+05  3.986417E+04 -9.573469E+05 -8.710263E-09  2.424801E-09
        65  16 -9.170757E+05 -4.497987E+06 -8.811907E+05 -9.015166E+05 -1.184064E-09 -2.541057E-08
        65  17 -6.938271E+05 -3.501715E+06 -5.622510E+05 -8.110169E+05  2.086288E-09 -8.250828E-09
        65  18 -4.587176E+05 -2.522016E+06 -3.330240E+05 -9.490505E+05 -1.173741E-09  4.460312E-09
        65  19  1.051185E+06  3.439326E+06  1.011404E+06 -1.012762E+06 -4.278775E+04 -2.564408E+05
        65  20  7.349253E+05  2.428033E+06  6.441771E+05 -8.750180E+05 -1.317577E+05 -7.316553E+04
        65  21  4.866759E+05  1.456426E+06  4.126310E+05 -9.656714E+05 -1.200300E+05  1.103051E+05
        65  22  6.761248E+04 -5.365974E+05  6.560208E+04 -9.569811E+05 -4.429324E+04 -3.343162E+04
        65  23  2.083120E+04 -5.410278E+05  4.120505E+04 -8.429518E+05 -1.322351E+05 -1.298205E+04
        65  24  1.409968E+04 -5.347146E+05  3.989101E+04 -9.573476E+05 -1.192717E+05  7.963468E+03
        65  25 -9.170639E+05 -4.497948E+06 -8.811198E+05 -9.015236E+05 -4.576455E+04  1.881626E+05
        65  26 -6.938076E+05 -3.501708E+06 -5.622137E+05 -8.110219E+05 -1.327077E+05  4.691991E+04
        65  27 -4.587001E+05 -2.522002E+06 -3.329809E+05 -9.490415E+05 -1.185147E+05 -9.405874E+04
        66   1  3.319358E+05  7.977426E+05  2.933793E+05 -9.705515E+05  8.108306E+04 -1.049868E+05
        66   2  9.556554E+04 -1.953638E+05  1.240838E+05 -8.416607E+05  2.492535E+04 -1.390484E+05
        66   3 -1.217933E+05 -1.181849E+06 -1.926413E+04 -9.473241E+05 -3.256466E+04 -1.730841E+05
        66   4  1.534532E+04 -5.355083E+05  4.411135E+04 -9.586766E+05  8.038665E+04 -1.527104E+04
        66   5  1.486873E+04 -5.380246E+05  6.330744E+04 -8.413359E+05  2.420263E+04 -4.724391E+04
        66   6  3.308004E+04 -5.352704E+05  1.069768E+05 -9.585408E+05 -3.331519E+04 -7.924190E+04
        66   7 -3.013433E+05 -1.867023E+06 -2.052028E+05 -9.468233E+05  7.969275E+04  7.425709E+04
        66   8 -6.583001E+04 -8.805526E+05  2.558382E+03 -8.410110E+05  2.347976E+04  4.451133E+04
        66   9  1.879333E+05  1.117292E+05  2.332310E+05 -9.697685E+05 -3.406863E+04  1.469603E+04
        66  10  3.319258E+05  7.977290E+05  2.933463E+05 -9.705447E+05  3.763168E-09 -6.070483E-08
        66  11  9.555968E+04 -1.953847E+05  1.240463E+05 -8.416579E+05  4.359525E-09 -2.563409E-08
        66  12 -1.218025E+05 -1.181882E+06 -1.932256E+04 -9.473287E+05  5.102287E-09  2.530170E-08
        66  13  1.533833E+04 -5.355103E+05  4.409878E+04 -9.586756E+05 -7.812191E-09  3.896032E-09
        66  14  1.486750E+04 -5.380272E+05  6.330215E+04 -8.413349E+05 -1.072035E-08  3.453402E-09
        66  15  3.307716E+04 -5.352775E+05  1.069629E+05 -9.585429E+05  1.010871E-09  1.858632E-09
        66  16 -3.013516E+05 -1.867031E+06 -2.052252E+05 -9.468281E+05 -1.679292E-09  5.930036E-08
        66  17 -6.583114E+04 -8.805549E+05  2.553611E+03 -8.410119E+05 -5.766464E-10  2.177414E-08
        66  18  1.879320E+05  1.117287E+05  2.332284E+05 -9.697681E+05  2.892774E-09 -2.506627E-08
        66  19  3.319358E+05  7.977426E+05  2.933793E+05 -9.705515E+05 -8.108306E+04  1.049868E+05
        66  20  9.556554E+04 -1.953638E+05  1.240838E+05 -8.416607E+05 -2.492535E+04  1.390484E+05
        66  21 -1.217933E+05 -1.181849E+06 -1.926413E+04 -9.473241E+05  3.256466E+04  1.730841E+05
        66  22  1.534532E+04 -5.355083E+05  4.411135E+04 -9.586766E+05 -8.038665E+04  1.527104E+04
        66  23  1.486873E+04 -5.380246E+05  6.330744E+04 -8.413359E+05 -2.420263E+04  4.724391E+04
        66  24  3.308004E+04 -5.352704E+05  1.069768E+05 -9.585408E+05  3.331519E+04  7.924190E+04
        66  25 -3.013433E+05 -1.867023E+06 -2.052028E+05 -9.468233E+05 -7.969275E+04 -7.425709E+04
        66  26 -6.583001E+04 -8.805526E+05  2.558382E+03 -8.410110E+05 -2.347976E+04 -4.451133E+04
        66  27  1.879333E+05  1.117292E+05  2.332310E+05 -9.697685E+05  3.406863E+04 -1.469603E+04
        67   1 -2.873071E+05 -1.820347E+06 -1.109768E+05 -9.812971E+05 -7.185425E+04 -2.017425E+05
        67   2 -4.499697E+05 -2.837949E+06 -2.240544E+05 -7.057600E+05 -9.461539E+04 -1.929915E+05
        67   3 -3.522362E+05 -3.792912E+06 -2.783279E+05 -6.592134E+05 -3.274532E+04 -1.837791E+05
        67   4  2.285692E+04 -5.178389E+05  1.380242E+05 -9.576779E+05 -7.267669E+04 -9.783929E+04
        67   5  1.026031E+05 -5.609253E+05  2.461881E+05 -8.417830E+05 -9.431178E+04 -2.250815E+05
        67   6  4.657659E+05 -5.191595E+05  5.074285E+05 -9.545931E+05 -3.146253E+04 -3.518659E+05
        67   7  3.329295E+05  7.863328E+05  3.869894E+05 -9.340037E+05 -7.349014E+04  6.277402E+03
        67   8  6.549116E+05  1.721070E+06  7.161626E+05 -9.783038E+05 -9.399478E+04 -2.572864E+05
        67   9  1.283314E+06  2.764687E+06  1.292572E+06 -1.251522E+06 -3.002331E+04 -5.208358E+05
        67  10 -2.873237E+05 -1.820392E+06 -1.110633E+05 -9.813088E+05  5.871728E-09 -4.435796E-09
        67  11 -4.499893E+05 -2.837992E+06 -2.241416E+05 -7.057747E+05  3.324432E-09 -9.210391E-09
        67  12 -3.522465E+05 -3.792949E+06 -2.783938E+05 -6.592182E+05  1.392659E-09 -3.566316E-09
        67  13  2.284866E+04 -5.178506E+05  1.379962E+05 -9.576837E+05  3.668069E-09  3.485288E-09
        67  14  1.025799E+05 -5.609821E+05  2.460760E+05 -8.418001E+05 -8.647221E-09  2.811699E-09
        67  15  4.657315E+05 -5.192928E+05  5.071937E+05 -9.546021E+05  1.502809E-09  1.602582E-09
        67  16  3.329237E+05  7.863313E+05  3.869792E+05 -9.340034E+05  4.534573E-10  2.936496E-09
        67  17  6.548844E+05  1.720996E+06  7.160218E+05 -9.783233E+05  3.369949E-09  6.487915E-09
        67  18  1.283241E+06  2.764397E+06  1.292063E+06 -1.251534E+06  1.369123E-09  4.215033E-09
        67  19 -2.873071E+05 -1.820347E+06 -1.109768E+05 -9.812971E+05  7.185425E+04  2.017425E+05
        67  20 -4.499697E+05 -2.837949E+06 -2.240544E+05 -7.057600E+05  9.461539E+04  1.929915E+05
        67  21 -3.522362E+05 -3.792912E+06 -2.783279E+05 -6.592134E+05  3.274532E+04  1.837791E+05
        67  22  2.285692E+04 -5.178389E+05  1.380242E+05 -9.576779E+05  7.267669E+04  9.783929E+04
        67  23  1.026031E+05 -5.609253E+05  2.461881E+05 -8.417830E+05  9.431178E+04  2.250815E+05
        67  24  4.657659E+05 -5.191595E+05  5.074285E+05 -9.545931E+05  3.146253E+04  3.518659E+05
        67  25  3.329295E+05  7.863328E+05  3.869894E+05 -9.340037E+05  7.349014E+04 -6.277402E+03
        67  26  6.549116E+05  1.721070E+06  7.161626E+05 -9.783038E+05  9.399478E+04  2.572864E+05
        67  27  1.283314E+06  2.764687E+06  1.292572E+06 -1.251522E+06  3.002331E+04  5.208358E+05
        68   1 -3.678494E+06 -1.425518E+06 -8.124003E+05 -1.261895E+06 -2.148877E+05 -1.999621E+04
        68   2 -3.435169E+06 -1.365810E+06 -6.542407E+05 -1.176911E+06 -1.447584E+05  1.492615E+05
        68   3 -3.153518E+06 -1.321133E+06 -5.756283E+05 -1.151577E+06 -3.880183E+04  2.246088E+05
        68   4 -1.385721E+05 -1.349544E+05  9.781672E+04 -3.345855E+05  4.242586E+04  7.772452E+04
        68   5 -1.769333E+05 -1.795570E+05  4.465294E+04 -2.901975E+05 -2.806048E+04  1.933945E+05
        68   6 -1.490580E+05 -2.113128E+05  2.389196E+04 -3.054518E+05 -6.287492E+04  2.153948E+05
        68   7  3.413615E+06  1.156232E+06  1.007267E+06  5.974484E+05  3.013518E+05  1.760073E+05
        68   8  3.092140E+06  1.007493E+06  7.429882E+05  6.007822E+05  8.930143E+04  2.377699E+05
        68   9  2.864811E+06  8.993645E+05  6.229952E+05  5.445051E+05 -8.707459E+04  2.061325E+05
        68  10 -3.678544E+06 -1.425530E+06 -8.124883E+05 -1.261898E+06 -2.752886E-09  2.170174E-09
        68  11 -3.435198E+06 -1.365839E+06 -6.543220E+05 -1.176893E+06  3.393027E-09  4.003338E-09
        68  12 -3.153533E+06 -1.321187E+06 -5.757259E+05 -1.151570E+06 -2.456174E-10  3.289245E-09
        68  13 -1.385756E+05 -1.349613E+05  9.780197E+04 -3.345881E+05  2.201040E-09  5.244543E-10
        68  14 -1.769442E+05 -1.795974E+05  4.458118E+04 -2.901932E+05  4.690410E-09  2.488801E-09
        68  15 -1.490747E+05 -2.113637E+05  2.379736E+04 -3.054409E+05  6.314629E-09 -2.637602E-09
        68  16  3.413510E+06  1.156175E+06  1.007039E+06  5.974059E+05  2.909955E-09 -1.378686E-09
        68  17  3.092117E+06  1.007431E+06  7.428672E+05  6.007651E+05 -9.954945E-10 -5.312953E-09
        68  18  2.864791E+06  8.993168E+05  6.229011E+05  5.445195E+05 -4.380012E-09 -6.895613E-09
        68  19 -3.678494E+06 -1.425518E+06 -8.124003E+05 -1.261895E+06  2.148877E+05  1.999621E+04
        68  20 -3.435169E+06 -1.365810E+06 -6.542407E+05 -1.176911E+06  1.447584E+05 -1.492615E+05
        68  21 -3.153518E+06 -1.321133E+06 -5.756283E+05 -1.151577E+06  3.880183E+04 -2.246088E+05
        68  22 -1.385721E+05 -1.349544E+05  9.781672E+04 -3.345855E+05 -4.242586E+04 -7.772452E+04
        68  23 -1.769333E+05 -1.795570E+05  4.465294E+04 -2.901975E+05  2.806048E+04 -1.933945E+05
        68  24 -1.490580E+05 -2.113128E+05  2.389196E+04 -3.054518E+05  6.287492E+04 -2.153948E+05
        68  25  3.413615E+06  1.156232E+06  1.007267E+06  5.974484E+05 -3.013518E+05 -1.760073E+05
        68  26  3.092140E+06  1.007493E+06  7.429882E+05  6.007822E+05 -8.930143E+04 -2.377699E+05
        68  27  2.864811E+06  8.993645E+05  6.229952E+05  5.445051E+05  8.707459E+04 -2.061325E+05
        69   1 -2.992770E+06 -1.251147E+06 -5.456220E+05 -1.100891E+06 -5.409746E+04  2.075110E+05
        69   2 -2.769495E+06 -1.138207E+06 -4.954473E+05 -1.005995E+06 -4.513642E+04  2.009578E+05
        69   3 -2.500054E+06 -1.069987E+06 -4.489813E+05 -9.629329E+05 -3.360225E+04  1.874912E+05
        69   4 -1.508973E+05 -2.099684E+05  1.812596E+04 -3.088106E+05 -6.187552E+04  2.044723E+05
        69   5 -1.748947E+05 -1.896486E+05  9.431396E+03 -2.824131E+05 -6.328433E+04  1.940259E+05
        69   6 -1.507421E+05 -2.119843E+05  5.258640E+03 -3.078570E+05 -6.212831E+04  1.766814E+05
        69   7  2.699357E+06  8.319315E+05  5.814948E+05  4.866405E+05 -6.969240E+04  2.014193E+05
        69   8  2.426705E+06  7.595166E+05  5.140092E+05  4.439809E+05 -8.151412E+04  1.870634E+05
        69   9  2.204302E+06  6.465148E+05  4.592557E+05  3.495219E+05 -9.077042E+04  1.658279E+05
        69  10 -2.992785E+06 -1.251194E+06 -5.457084E+05 -1.100882E+06 -7.179576E-09 -2.307932E-09
        69  11 -2.769508E+06 -1.138251E+06 -4.955270E+05 -1.005988E+06  5.623508E-09  3.428924E-09
        69  12 -2.500064E+06 -1.070025E+06 -4.490495E+05 -9.629279E+05  1.599734E-08  2.470789E-09
        69  13 -1.509127E+05 -2.100143E+05  1.804020E+04 -3.088004E+05  2.557455E-09 -1.631203E-09
        69  14 -1.749091E+05 -1.896901E+05  9.353136E+03 -2.824032E+05  1.437964E-08  2.220215E-09
        69  15 -1.507546E+05 -2.120189E+05  5.192735E+03 -3.078482E+05  1.187586E-08  1.116236E-09
        69  16  2.699341E+06  8.318866E+05  5.814094E+05  4.866518E+05  9.287949E-09 -3.379868E-10
        69  17  2.426688E+06  7.594773E+05  5.139310E+05  4.439932E+05  1.208529E-08  2.109827E-09
        69  18  2.204286E+06  6.464831E+05  4.591886E+05  3.495340E+05  5.142370E-09  1.693235E-09
        69  19 -2.992770E+06 -1.251147E+06 -5.456220E+05 -1.100891E+06  5.409746E+04 -2.075110E+05
        69  20 -2.769495E+06 -1.138207E+06 -4.954473E+05 -1.005995E+06  4.513642E+04 -2.009578E+05
        69  21 -2.500054E+06 -1.069987E+06 -4.489813E+05 -9.629329E+05  3.360225E+04 -1.874912E+05
        69  22 -1.508973E+05 -2.099684E+05  1.812596E+04 -3.088106E+05  6.187552E+04 -2.044723E+05
        69  23 -1.748947E+05 -1.896486E+05  9.431396E+03 -2.824131E+05  6.328433E+04 -1.940259E+05
        69  24 -1.507421E+05 -2.119843E+05  5.258640E+03 -3.078570E+05  6.212831E+04 -1.766814E+05
        69  25  2.699357E+06  8.319315E+05  5.814948E+05  4.866405E+05  6.969240E+04 -2.014193E+05
        69  26  2.426705E+06  7.595166E+05  5.140092E+05  4.439809E+05  8.151412E+04 -1.870634E+05
        69  27  2.204302E+06  6.465148E+05  4.592557E+05  3.495219E+05  9.077042E+04 -1.658279E+05
        70   1 -2.335244E+06 -1.008498E+06 -4.168981E+05 -9.165682E+05 -3.130480E+04  1.756549E+05
        70   2 -2.111683E+06 -8.946758E+05 -3.709887E+05 -8.212935E+05 -2.455355E+04  1.570626E+05
        70   3 -1.841608E+06 -8.265108E+05 -3.247185E+05 -7.781257E+05 -1.764117E+04  1.379416E+05
        70   4 -1.508262E+05 -2.117903E+05  3.915449E+03 -3.081673E+05 -5.866211E+04  1.653038E+05
        70   5 -1.738945E+05 -1.886254E+05  2.059988E+03 -2.821882E+05 -5.270369E+04  1.464403E+05
        70   6 -1.503737E+05 -2.109608E+05  1.181669E+03 -3.083320E+05 -4.658441E+04  1.270493E+05
        70   7  2.038588E+06  5.853593E+05  4.245320E+05  3.022323E+05 -8.612328E+04  1.549137E+05
        70   8  1.767818E+06  5.177692E+05  3.749530E+05  2.584856E+05 -8.094845E+04  1.357826E+05
        70   9  1.543842E+06  4.048475E+05  3.269621E+05  1.626521E+05 -7.561239E+04  1.161253E+05
        70  10 -2.335253E+06 -1.008531E+06 -4.169580E+05 -9.165638E+05  1.327583E-08  7.094479E-11
        70  11 -2.111690E+06 -8.947024E+05 -3.710362E+05 -8.212904E+05  3.672233E-09  4.280315E-10
        70  12 -1.841614E+06 -8.265314E+05 -3.247549E+05 -7.781237E+05  1.399304E-09 -1.222058E-10
        70  13 -1.508372E+05 -2.118205E+05  3.857642E+03 -3.081595E+05  7.296967E-09  9.009266E-10
        70  14 -1.739032E+05 -1.886492E+05  2.014477E+03 -2.821820E+05  3.053664E-09 -2.390982E-10
        70  15 -1.503804E+05 -2.109787E+05  1.147263E+03 -3.083273E+05 -2.749191E-10 -2.015376E-09
        70  16  2.038573E+06  5.853316E+05  4.244730E+05  3.022430E+05  1.518554E-09  1.422982E-09
        70  17  1.767806E+06  5.177477E+05  3.749061E+05  2.584945E+05 -4.515055E-09 -9.307168E-10
        70  18  1.543833E+06  4.048315E+05  3.269260E+05  1.626591E+05 -1.372478E-09 -3.724206E-09
        70  19 -2.335244E+06 -1.008498E+06 -4.168981E+05 -9.165682E+05  3.130480E+04 -1.756549E+05
        70  20 -2.111683E+06 -8.946758E+05 -3.709887E+05 -8.212935E+05  2.455355E+04 -1.570626E+05
        70  21 -1.841608E+06 -8.265108E+05 -3.247185E+05 -7.781257E+05  1.764117E+04 -1.379416E+05
        70  22 -1.508262E+05 -2.117903E+05  3.915449E+03 -3.081673E+05  5.866211E+04 -1.653038E+05
        70  23 -1.738945E+05 -1.886254E+05  2.059988E+03 -2.821882E+05  5.270369E+04 -1.464403E+05
        70  24 -1.503737E+05 -2.109608E+05  1.181669E+03 -3.083320E+05  4.658441E+04 -1.270493E+05
        70  25  2.038588E+06  5.853593E+05  4.245320E+05  3.022323E+05  8.612328E+04 -1.549137E+05
        70  26  1.767818E+06  5.177692E+05  3.749530E+05  2.584856E+05  8.094845E+04 -1.357826E+05
        70  27  1.543842E+06  4.048475E+05  3.269621E+05  1.626521E+05  7.561239E+04 -1.161253E+05
        71   1 -1.676065E+06 -7.656636E+05 -2.917531E+05 -7.321094E+05 -1.365927E+04  1.266230E+05
        71   2 -1.451461E+06 -6.522904E+05 -2.451959E+05 -6.369562E+05 -6.552999E+03  1.073224E+05
        71   3 -1.180699E+06 -5.846391E+05 -1.984607E+05 -5.941923E+05  5.473005E+02  8.797005E+04
        71   4 -1.503440E+05 -2.108358E+05  8.557576E+02 -3.084101E+05 -4.253650E+04  1.157693E+05
        71   5 -1.732462E+05 -1.876774E+05  4.053497E+02 -2.822733E+05 -3.550810E+04  9.645786E+04
        71   6 -1.500466E+05 -2.102280E+05  1.873413E+02 -3.085453E+05 -2.848563E+04  7.709479E+04
        71   7  1.377792E+06  3.441973E+05  2.933655E+05  1.162541E+05 -7.148968E+04  1.048871E+05
        71   8  1.106672E+06  2.770827E+05  2.459402E+05  7.308855E+04 -6.452717E+04  8.556937E+04
        71   9  8.817221E+05  1.642819E+05  1.987956E+05 -2.245517E+04 -5.757051E+04  6.620009E+04
        71  10 -1.676070E+06 -7.656809E+05 -2.917836E+05 -7.321080E+05  2.694643E-09 -4.678896E-10
        71  11 -1.451464E+06 -6.523028E+05 -2.452176E+05 -6.369557E+05  5.080962E-09 -9.237541E-10
        71  12 -1.180701E+06 -5.846474E+05 -1.984753E+05 -5.941924E+05  5.845193E-09  2.281452E-12
        71  13 -1.503496E+05 -2.108507E+05  8.271761E+02 -3.084062E+05  8.444500E-10 -2.487342E-09
        71  14 -1.732501E+05 -1.876878E+05  3.854994E+02 -2.822706E+05  5.027472E-09 -2.068718E-09
        71  15 -1.500490E+05 -2.102346E+05  1.746493E+02 -3.085436E+05 -4.051666E-10 -2.169805E-09
        71  16  1.377784E+06  3.441842E+05  2.933352E+05  1.162601E+05 -1.237907E-09 -3.744319E-09
        71  17  1.106665E+06  2.770737E+05  2.459186E+05  7.309299E+04 -3.941159E-09 -3.853579E-09
        71  18  8.817174E+05  1.642763E+05  1.987811E+05 -2.245210E+04 -2.873772E-09 -3.608149E-09
        71  19 -1.676065E+06 -7.656636E+05 -2.917531E+05 -7.321094E+05  1.365927E+04 -1.266230E+05
        71  20 -1.451461E+06 -6.522904E+05 -2.451959E+05 -6.369562E+05  6.552999E+03 -1.073224E+05
        71  21 -1.180699E+06 -5.846391E+05 -1.984607E+05 -5.941923E+05 -5.473005E+02 -8.797005E+04
        71  22 -1.503440E+05 -2.108358E+05  8.557576E+02 -3.084101E+05  4.253650E+04 -1.157693E+05
        71  23 -1.732462E+05 -1.876774E+05  4.053497E+02 -2.822733E+05  3.550810E+04 -9.645786E+04
        71  24 -1.500466E+05 -2.102280E+05  1.873413E+02 -3.085453E+05  2.848563E+04 -7.709479E+04
        71  25  1.377792E+06  3.441973E+05  2.933655E+05  1.162541E+05  7.148968E+04 -1.048871E+05
        71  26  1.106672E+06  2.770827E+05  2.459402E+05  7.308855E+04  6.452717E+04 -8.556937E+04
        71  27  8.817221E+05  1.642819E+05  1.987956E+05 -2.245517E+04  5.757051E+04 -6.620009E+04
        72   1 -1.014679E+06 -5.239753E+05 -1.652654E+05 -5.482743E+05  4.744392E+03  7.671624E+04
        72   2 -7.894018E+05 -4.109121E+05 -1.184955E+05 -4.531756E+05  1.203861E+04  5.742478E+04
        72   3 -5.182073E+05 -3.436053E+05 -7.174956E+04 -4.106247E+05  1.931787E+04  3.814006E+04
        72   4 -1.500224E+05 -2.101540E+05  7.124866E+01 -3.085831E+05 -2.429953E+04  6.584498E+04
        72   5 -1.728726E+05 -1.871242E+05 -1.437539E+02 -2.823314E+05 -1.699787E+04  4.656515E+04
        72   6 -1.498753E+05 -2.098559E+05 -3.929857E+02 -3.086489E+05 -9.711249E+03  2.729218E+04
        72   7  7.154143E+05  1.037348E+05  1.653799E+05 -6.858152E+04 -5.338678E+04  5.495750E+04
        72   8  4.440510E+05  3.669716E+04  1.181946E+05 -1.113300E+05 -4.606511E+04  3.569400E+04
        72   9  2.185960E+05 -7.609498E+04  7.096031E+04 -2.066174E+05 -3.875856E+04  1.643749E+04
        72  10 -1.014680E+06 -5.239816E+05 -1.652765E+05 -5.482746E+05  3.206672E-09 -2.671202E-10
        72  11 -7.894028E+05 -4.109157E+05 -1.185020E+05 -4.531761E+05  3.387121E-08  1.175703E-08
        72  12 -5.182081E+05 -3.436070E+05 -7.175299E+04 -4.106253E+05  4.921827E-08  1.819157E-08
        72  13 -1.500242E+05 -2.101588E+05  6.199321E+01 -3.085819E+05 -2.005611E-09  1.895186E-09
        72  14 -1.728735E+05 -1.871266E+05 -1.483708E+02 -2.823307E+05 -2.082329E-09  8.352080E-09
        72  15 -1.498756E+05 -2.098567E+05 -3.945624E+02 -3.086486E+05 -1.039833E-08  1.292447E-08
        72  16  7.154105E+05  1.037308E+05  1.653688E+05 -6.857916E+04  1.459913E-10 -1.835009E-09
        72  17  4.440484E+05  3.669522E+04  1.181882E+05 -1.113287E+05 -2.637775E-08 -1.155129E-08
        72  18  2.185943E+05 -7.609568E+04  7.095698E+04 -2.066169E+05 -5.762684E-08 -2.391420E-08
        72  19 -1.014679E+06 -5.239753E+05 -1.652654E+05 -5.482743E+05 -4.744392E+03 -7.671624E+04
        72  20 -7.894018E+05 -4.109121E+05 -1.184955E+05 -4.531756E+05 -1.203861E+04 -5.742478E+04
        72  21 -5.182073E+05 -3.436053E+05 -7.174956E+04 -4.106247E+05 -1.931787E+04 -3.814006E+04
        72  22 -1.500224E+05 -2.101540E+05  7.124866E+01 -3.085831E+05  2.429953E+04 -6.584498E+04
        72  23 -1.728726E+05 -1.871242E+05 -1.437539E+02 -2.823314E+05  1.699787E+04 -4.656515E+04
        72  24 -1.498753E+05 -2.098559E+05 -3.929857E+02 -3.086489E+05  9.711249E+03 -2.729218E+04
        72  25  7.154143E+05  1.037348E+05  1.653799E+05 -6.858152E+04  5.338678E+04 -5.495750E+04
        72  26  4.440510E+05  3.669716E+04  1.181946E+05 -1.113300E+05  4.606511E+04 -3.569400E+04
        72  27  2.185960E+05 -7.609498E+04  7.096031E+04 -2.066174E+05  3.875856E+04 -1.643749E+04
        73   1 -3.518994E+05 -2.830361E+05 -3.859831E+04 -3.647225E+05  2.364812E+04  2.693745E+04
        73   2 -1.263275E+05 -1.701514E+05  7.956663E+03 -2.695921E+05  3.103547E+04  7.812578E+03
        73   3  1.450670E+05 -1.030203E+05  5.436107E+04 -2.270484E+05  3.833407E+04 -1.107304E+04
        73   4 -1.498880E+05 -2.098302E+05 -5.750276E+02 -3.086665E+05 -5.429206E+03  1.607401E+04
        73   5 -1.727358E+05 -1.869388E+05 -1.126295E+03 -2.823514E+05  2.311777E+03 -2.919528E+03
        73   6 -1.499019E+05 -2.098806E+05 -2.112428E+03 -3.086507E+05  9.963876E+03 -2.167369E+04
        73   7  5.216965E+04 -1.366191E+05  3.745074E+04 -2.525925E+05 -3.451691E+04  5.206679E+03
        73   8 -2.191402E+05 -2.037255E+05 -1.020588E+04 -2.951094E+05 -2.640975E+04 -1.365083E+04
        73   9 -4.447786E+05 -3.167326E+05 -5.858620E+04 -3.902166E+05 -1.839191E+04 -3.226895E+04
        73  10 -3.519002E+05 -2.830371E+05 -3.860073E+04 -3.647230E+05 -6.166120E-08 -2.240139E-08
        73  11 -1.263285E+05 -1.701517E+05  7.954738E+03 -2.695923E+05 -3.180626E-08 -1.196192E-08
        73  12  1.450654E+05 -1.030208E+05  5.435808E+04 -2.270480E+05  1.502779E-09 -1.865398E-09
        73  13 -1.498881E+05 -2.098305E+05 -5.755685E+02 -3.086664E+05 -8.096592E-09  1.305431E-08
        73  14 -1.727358E+05 -1.869388E+05 -1.126321E+03 -2.823514E+05  6.146814E-09  1.100215E-08
        73  15 -1.499021E+05 -2.098811E+05 -2.113497E+03 -3.086505E+05  9.740347E-09  2.275857E-09
        73  16  5.216836E+04 -1.366195E+05  3.744846E+04 -2.525924E+05  5.204463E-08  1.531003E-08
        73  17 -2.191410E+05 -2.037259E+05 -1.020754E+04 -2.951097E+05  3.451120E-08  7.065966E-09
        73  18 -4.447793E+05 -3.167338E+05 -5.858879E+04 -3.902171E+05  9.547222E-09  1.541228E-09
        73  19 -3.518994E+05 -2.830361E+05 -3.859831E+04 -3.647225E+05 -2.364812E+04 -2.693745E+04
        73  20 -1.263275E+05 -1.701514E+05  7.956663E+03 -2.695921E+05 -3.103547E+04 -7.812578E+03
        73  21  1.450670E+05 -1.030203E+05  5.436107E+04 -2.270484E+05 -3.833407E+04  1.107304E+04
        73  22 -1.498880E+05 -2.098302E+05 -5.750276E+02 -3.086665E+05  5.429206E+03 -1.607401E+04
        73  23 -1.727358E+05 -1.869388E+05 -1.126295E+03 -2.823514E+05 -2.311777E+03  2.919528E+03
        73  24 -1.499019E+05 -2.098806E+05 -2.112428E+03 -3.086507E+05 -9.963876E+03  2.167369E+04
        73  25  5.216965E+04 -1.366191E+05  3.745074E+04 -2.525925E+05  3.451691E+04 -5.206679E+03
        73  26 -2.191402E+05 -2.037255E+05 -1.020588E+04 -2.951094E+05  2.640975E+04  1.365083E+04
        73  27 -4.447786E+05 -3.167326E+05 -5.858620E+04 -3.902166E+05  1.839191E+04  3.226895E+04
        74   1  3.116012E+05 -4.249454E+04  8.705825E+04 -1.812306E+05  4.348585E+04 -2.191551E+04
        74   2  5.366903E+05  7.056359E+04  1.334435E+05 -8.565484E+04  4.777431E+04 -4.034828E+04
        74   3  8.076928E+05  1.376678E+05  1.814345E+05 -4.220436E+04  5.084928E+04 -5.551179E+04
        74   4 -1.500664E+05 -2.098272E+05 -2.824954E+03 -3.086724E+05  1.454428E+04 -3.273280E+04
        74   5 -1.727051E+05 -1.873623E+05 -5.216445E+03 -2.822458E+05  2.374865E+04 -4.933750E+04
        74   6 -1.504648E+05 -2.118340E+05 -9.894761E+03 -3.079735E+05  3.173972E+04 -6.267045E+04
        74   7 -6.115072E+05 -3.771392E+05 -9.271299E+04 -4.360249E+05 -1.437401E+04 -4.354142E+04
        74   8 -8.815783E+05 -4.452435E+05 -1.438966E+05 -4.786286E+05 -2.476094E+02 -5.831570E+04
        74   9 -1.107684E+06 -5.612590E+05 -2.012688E+05 -5.733656E+05  1.266161E+04 -6.981731E+04
        74  10  3.115990E+05 -4.249556E+04  8.705380E+04 -1.812299E+05  2.577889E-08  6.190061E-09
        74  11  5.366874E+05  7.056123E+04  1.334361E+05 -8.565329E+04  9.677273E-09 -1.514344E-09
        74  12  8.076892E+05  1.376638E+05  1.814238E+05 -4.220209E+04 -1.760868E-08 -9.651682E-09
        74  13 -1.500669E+05 -2.098284E+05 -2.827365E+03 -3.086720E+05  1.600839E-08  1.411341E-09
        74  14 -1.727064E+05 -1.873651E+05 -5.222078E+03 -2.822449E+05  1.153434E-08  3.870881E-09
        74  15 -1.504670E+05 -2.118385E+05 -9.904033E+03 -3.079719E+05  2.710483E-09  1.420201E-09
        74  16 -6.115080E+05 -3.771413E+05 -9.271694E+04 -4.360254E+05 -1.237284E-08 -3.772134E-09
        74  17 -8.815792E+05 -4.452472E+05 -1.439030E+05 -4.786286E+05  4.938526E-09  6.978769E-09
        74  18 -1.107685E+06 -5.612643E+05 -2.012783E+05 -5.733649E+05  2.413107E-08  1.217639E-08
        74  19  3.116012E+05 -4.249454E+04  8.705825E+04 -1.812306E+05 -4.348585E+04  2.191551E+04
        74  20  5.366903E+05  7.056359E+04  1.334435E+05 -8.565484E+04 -4.777431E+04  4.034828E+04
        74  21  8.076928E+05  1.376678E+05  1.814345E+05 -4.220436E+04 -5.084928E+04  5.551179E+04
        74  22 -1.500664E+05 -2.098272E+05 -2.824954E+03 -3.086724E+05 -1.454428E+04  3.273280E+04
        74  23 -1.727051E+05 -1.873623E+05 -5.216445E+03 -2.822458E+05 -2.374865E+04  4.933750E+04
        74  24 -1.504648E+05 -2.118340E+05 -9.894761E+03 -3.079735E+05 -3.173972E+04  6.267045E+04
        74  25 -6.115072E+05 -3.771392E+05 -9.271299E+04 -4.360249E+05  1.437401E+04  4.354142E+04
        74  26 -8.815783E+05 -4.452435E+05 -1.438966E+05 -4.786286E+05  2.476094E+02  5.831570E+04
        74  27 -1.107684E+06 -5.612590E+05 -2.012688E+05 -5.733656E+05 -1.266161E+04  6.981731E+04
        75   1  9.770260E+05  1.976663E+05  2.128626E+05  3.875083E+02  6.410191E+04 -6.266896E+04
        75   2  1.190742E+06  3.161099E+05  2.731743E+05  1.077418E+05  8.250579E+03 -7.853028E+04
        75   3  1.449403E+06  3.759530E+05  3.693309E+05  1.722409E+05 -6.433018E+04 -4.990913E+04
        75   4 -1.525011E+05 -2.103747E+05 -1.300564E+04 -3.085728E+05  3.720149E+04 -7.274966E+04
        75   5 -1.713541E+05 -1.952800E+05 -2.455874E+04 -2.793679E+05  4.845860E+04 -6.348515E+04
        75   6 -1.586094E+05 -2.521085E+05 -5.339147E+04 -2.930494E+05  4.299184E+04 -9.677097E+03
        75   7 -1.280719E+06 -6.183137E+05 -2.389340E+05 -6.170178E+05  1.035342E+04 -8.281115E+04
        75   8 -1.531547E+06 -7.064923E+05 -3.223908E+05 -6.656841E+05  8.857093E+04 -4.847773E+04
        75   9 -1.764033E+06 -8.799186E+05 -4.762706E+05 -7.572083E+05  1.500062E+05  3.042830E+04
        75  10  9.770206E+05  1.976610E+05  2.128475E+05  3.907415E+02  2.028304E-09 -2.809376E-09
        75  11  1.190741E+06  3.161033E+05  2.731626E+05  1.077423E+05  2.329387E-10 -2.699767E-09
        75  12  1.449398E+06  3.759492E+05  3.693185E+05  1.722383E+05 -2.801641E-09 -2.045120E-09
        75  13 -1.525040E+05 -2.103807E+05 -1.301818E+04 -3.085707E+05 -6.251388E-10 -4.189729E-10
        75  14 -1.713577E+05 -1.952850E+05 -2.457073E+04 -2.793655E+05 -1.472636E-09 -1.894332E-09
        75  15 -1.586114E+05 -2.521090E+05 -5.339512E+04 -2.930491E+05 -2.462993E-09 -7.415454E-10
        75  16 -1.280721E+06 -6.183211E+05 -2.389471E+05 -6.170171E+05 -9.451177E-10  8.766793E-10
        75  17 -1.531556E+06 -7.064969E+05 -3.224100E+05 -6.656806E+05  7.785631E-10 -1.489404E-09
        75  18 -1.764057E+06 -8.799257E+05 -4.763148E+05 -7.572120E+05  2.341223E-09  2.609369E-10
        75  19  9.770260E+05  1.976663E+05  2.128626E+05  3.875083E+02 -6.410191E+04  6.266896E+04
        75  20  1.190742E+06  3.161099E+05  2.731743E+05  1.077418E+05 -8.250579E+03  7.853028E+04
        75  21  1.449403E+06  3.759530E+05  3.693309E+05  1.722409E+05  6.433018E+04  4.990913E+04
        75  22 -1.525011E+05 -2.103747E+05 -1.300564E+04 -3.085728E+05 -3.720149E+04  7.274966E+04
        75  23 -1.713541E+05 -1.952800E+05 -2.455874E+04 -2.793679E+05 -4.845860E+04  6.348515E+04
        75  24 -1.586094E+05 -2.521085E+05 -5.339147E+04 -2.930494E+05 -4.299184E+04  9.677097E+03
        75  25 -1.280719E+06 -6.183137E+05 -2.389340E+05 -6.170178E+05 -1.035342E+04  8.281115E+04
        75  26 -1.531547E+06 -7.064923E+05 -3.223908E+05 -6.656841E+05 -8.857093E+04  4.847773E+04
        75  27 -1.764033E+06 -8.799186E+05 -4.762706E+05 -7.572083E+05 -1.500062E+05 -3.042830E+04
        76   1 -1.795424E+05 -9.130575E+04 -8.053991E+04 -6.800881E+04 -1.616164E+04  6.506666E+03
        76   2 -1.089286E+05 -9.692067E+04 -6.204965E+04 -7.717468E+04 -1.408940E+03  2.162265E+04
        76   3 -3.682839E+04 -8.901381E+04 -4.978383E+04 -9.688052E+04  1.335035E+04  2.548891E+04
        76   4  3.736732E+05  4.493192E+04  4.757370E+04 -9.858980E+04  3.361531E+04  6.516209E+03
        76   5  3.706067E+05  1.618314E+04  2.403006E+04 -9.331814E+04  2.137240E+04  2.162412E+04
        76   6  3.737030E+05  5.635186E+03  1.300439E+04 -9.858485E+04  9.134199E+03  2.548699E+04
        76   7  9.271787E+05  1.811529E+05  1.756766E+05 -1.291982E+05  8.343629E+04  6.520847E+03
        76   8  8.503678E+05  1.292754E+05  1.101030E+05 -1.094744E+05  4.417084E+04  2.162440E+04
        76   9  7.844031E+05  1.002761E+05  7.578902E+04 -1.002903E+05  4.915370E+03  2.548510E+04
        76  10 -1.795427E+05 -9.130586E+04 -8.054048E+04 -6.800873E+04  2.405723E-09 -1.129663E-10
        76  11 -1.089287E+05 -9.692117E+04 -6.205053E+04 -7.717465E+04  2.693273E-09 -3.272541E-10
        76  12 -3.682876E+04 -8.901456E+04 -4.978538E+04 -9.688080E+04  5.738371E-10 -4.029642E-10
        76  13  3.736719E+05  4.493157E+04  4.757149E+04 -9.858998E+04  1.214472E-09  1.642712E-10
        76  14  3.706061E+05  1.618251E+04  2.402833E+04 -9.331851E+04  2.323596E-09 -1.399923E-10
        76  15  3.737027E+05  5.634466E+03  1.300301E+04 -9.858504E+04  3.966653E-10 -3.580952E-10
        76  16  9.271712E+05  1.811510E+05  1.756635E+05 -1.291987E+05 -1.995876E-09  2.369298E-10
        76  17  8.503656E+05  1.292744E+05  1.100985E+05 -1.094752E+05 -7.923951E-10  1.496829E-10
        76  18  7.844029E+05  1.002754E+05  7.578775E+04 -1.002904E+05 -4.119510E-10  1.521929E-10
        76  19 -1.795424E+05 -9.130575E+04 -8.053991E+04 -6.800881E+04  1.616164E+04 -6.506666E+03
        76  20 -1.089286E+05 -9.692067E+04 -6.204965E+04 -7.717468E+04  1.408940E+03 -2.162265E+04
        76  21 -3.682839E+04 -8.901381E+04 -4.978383E+04 -9.688052E+04 -1.335035E+04 -2.548891E+04
        76  22  3.736732E+05  4.493192E+04  4.757370E+04 -9.858980E+04 -3.361531E+04 -6.516209E+03
        76  23  3.706067E+05  1.618314E+04  2.403006E+04 -9.331814E+04 -2.137240E+04 -2.162412E+04
        76  24  3.737030E+05  5.635186E+03  1.300439E+04 -9.858485E+04 -9.134199E+03 -2.548699E+04
        76  25  9.271787E+05  1.811529E+05  1.756766E+05 -1.291982E+05 -8.343629E+04 -6.520847E+03
        76  26  8.503678E+05  1.292754E+05  1.101030E+05 -1.094744E+05 -4.417084E+04 -2.162440E+04
        76  27  7.844031E+05  1.002761E+05  7.578902E+04 -1.002903E+05 -4.915370E+03 -2.548510E+04
        77   1  6.730880E+03 -7.985458E+04 -4.431707E+04 -9.636572E+04  1.255420E+04  2.394492E+04
        77   2  7.789335E+04 -6.563583E+04 -3.541243E+04 -9.191443E+04  1.358462E+04  2.105310E+04
        77   3  1.492386E+05 -5.021240E+04 -2.687446E+04 -9.883415E+04  1.461483E+04  1.664086E+04
        77   4  3.725198E+05  4.090800E+03  9.697144E+03 -9.877065E+04  7.441574E+03  2.394332E+04
        77   5  3.721220E+05  1.323819E+03  5.230203E+03 -9.308540E+04  4.821297E+03  2.105208E+04
        77   6  3.725350E+05  3.948523E+02  2.930364E+03 -9.877064E+04  2.200714E+03  1.664080E+04
        77   7  7.384433E+05  8.802996E+04  6.370903E+04 -1.011771E+05  2.326061E+03  2.394177E+04
        77   8  6.664387E+05  6.827971E+04  4.587213E+04 -9.425694E+04 -3.945989E+03  2.105110E+04
        77   9  5.958826E+05  5.100005E+04  3.273535E+04 -9.870711E+04 -1.021766E+04  1.664074E+04
        77  10  6.730556E+03 -7.985523E+04 -4.431844E+04 -9.636596E+04  2.096683E-09 -5.719941E-10
        77  11  7.789304E+04 -6.563636E+04 -3.541361E+04 -9.191466E+04  3.834185E-09 -1.641655E-09
        77  12  1.492383E+05 -5.021275E+04 -2.687538E+04 -9.883435E+04  2.504695E-09 -2.869583E-09
        77  13  3.725196E+05  4.090170E+03  9.695962E+03 -9.877079E+04 -9.557167E-10 -2.141179E-10
        77  14  3.721219E+05  1.323337E+03  5.229326E+03 -9.308548E+04 -1.936391E-09 -9.908605E-10
        77  15  3.725350E+05  3.945536E+02  2.929834E+03 -9.877067E+04 -3.906425E-10 -1.651224E-09
        77  16  7.384431E+05  8.802935E+04  6.370795E+04 -1.011771E+05 -2.579987E-09 -1.503935E-10
        77  17  6.664386E+05  6.827923E+04  4.587127E+04 -9.425687E+04 -1.387045E-09 -4.851732E-10
        77  18  5.958824E+05  5.099973E+04  3.273463E+04 -9.870697E+04 -6.059426E-09 -3.752111E-10
        77  19  6.730880E+03 -7.985458E+04 -4.431707E+04 -9.636572E+04 -1.255420E+04 -2.394492E+04
        77  20  7.789335E+04 -6.563583E+04 -3.541243E+04 -9.191443E+04 -1.358462E+04 -2.105310E+04
        77  21  1.492386E+05 -5.021240E+04 -2.687446E+04 -9.883415E+04 -1.461483E+04 -1.664086E+04
        77  22  3.725198E+05  4.090800E+03  9.697144E+03 -9.877065E+04 -7.441574E+03 -2.394332E+04
        77  23  3.721220E+05  1.323819E+03  5.230203E+03 -9.308540E+04 -4.821297E+03 -2.105208E+04
        77  24  3.725350E+05  3.948523E+02  2.930364E+03 -9.877064E+04 -2.200714E+03 -1.664080E+04
        77  25  7.384433E+05  8.802996E+04  6.370903E+04 -1.011771E+05 -2.326061E+03 -2.394177E+04
        77  26  6.664387E+05  6.827971E+04  4.587213E+04 -9.425694E+04  3.945989E+03 -2.105110E+04
        77  27  5.958826E+05  5.100005E+04  3.273535E+04 -9.870711E+04  1.021766E+04 -1.664074E+04
        78   1  1.931261E+05 -4.028664E+04 -2.140354E+04 -9.873895E+04  1.430472E+04  1.356054E+04
        78   2  2.643369E+05 -2.436399E+04 -1.288154E+04 -9.305969E+04  1.418371E+04  8.236468E+03
        78   3  3.355944E+05 -8.352586E+03 -4.257329E+03 -9.886148E+04  1.406242E+04  2.707739E+03
        78   4  3.723866E+05  2.761914E+02  2.207082E+03 -9.879523E+04  1.769691E+03  1.356089E+04
        78   5  3.723254E+05  4.910226E+01  1.234364E+03 -9.305478E+04  1.156581E+03  8.237224E+03
        78   6  3.723920E+05 -3.490622E+00  7.052291E+02 -9.879526E+04  5.432094E+02  2.708915E+03
        78   7  5.516802E+05  4.083775E+04  2.581807E+04 -9.885152E+04 -1.076879E+04  1.356123E+04
        78   8  4.803262E+05  2.446180E+04  1.535084E+04 -9.304988E+04 -1.187271E+04  8.237979E+03
        78   9  4.091914E+05  8.345645E+03  5.668461E+03 -9.872904E+04 -1.297676E+04  2.710087E+03
        78  10  1.931258E+05 -4.028689E+04 -2.140427E+04 -9.873911E+04  2.752346E-08 -2.698327E-09
        78  11  2.643367E+05 -2.436412E+04 -1.288205E+04 -9.305978E+04 -8.486711E-10 -2.600200E-09
        78  12  3.355942E+05 -8.352647E+03 -4.257714E+03 -9.886151E+04 -3.818343E-08 -5.102015E-09
        78  13  3.723865E+05  2.759930E+02  2.206731E+03 -9.879525E+04 -1.382522E-10  4.014573E-10
        78  14  3.723254E+05  4.902903E+01  1.234234E+03 -9.305479E+04 -2.142383E-09  6.945651E-09
        78  15  3.723920E+05 -3.498583E+00  7.052147E+02 -9.879527E+04  2.751242E-10  1.214911E-08
        78  16  5.516801E+05  4.083752E+04  2.581751E+04 -9.885141E+04 -2.715224E-08 -9.213741E-10
        78  17  4.803260E+05  2.446169E+04  1.535044E+04 -9.304980E+04  3.519506E-10 -3.257716E-09
        78  18  4.091912E+05  8.345592E+03  5.668131E+03 -9.872901E+04  3.706122E-08 -5.620510E-09
        78  19  1.931261E+05 -4.028664E+04 -2.140354E+04 -9.873895E+04 -1.430472E+04 -1.356054E+04
        78  20  2.643369E+05 -2.436399E+04 -1.288154E+04 -9.305969E+04 -1.418371E+04 -8.236468E+03
        78  21  3.355944E+05 -8.352586E+03 -4.257329E+03 -9.886148E+04 -1.406242E+04 -2.707739E+03
        78  22  3.723866E+05  2.761914E+02  2.207082E+03 -9.879523E+04 -1.769691E+03 -1.356089E+04
        78  23  3.723254E+05  4.910226E+01  1.234364E+03 -9.305478E+04 -1.156581E+03 -8.237224E+03
        78  24  3.723920E+05 -3.490622E+00  7.052291E+02 -9.879526E+04 -5.432094E+02 -2.708915E+03
        78  25  5.516802E+05  4.083775E+04  2.581807E+04 -9.885152E+04  1.076879E+04 -1.356123E+04
        78  26  4.803262E+05  2.446180E+04  1.535084E+04 -9.304988E+04  1.187271E+04 -8.237979E+03
        78  27  4.091914E+05  8.345645E+03  5.668461E+03 -9.872904E+04  1.297676E+04 -2.710087E+03
        79   1  3.795179E+05  1.599328E+03  1.418733E+03 -9.884246E+04  1.396890E+04 -5.789279E+02
        79   2  4.507464E+05  1.762306E+04  1.016744E+04 -9.308316E+04  1.387078E+04 -6.226901E+03
        79   3  5.219990E+05  3.365047E+04  1.898245E+04 -9.881959E+04  1.377289E+04 -1.189685E+04
        79   4  3.723699E+05 -6.376068E+00  5.348250E+02 -9.879857E+04  4.333475E+02 -5.777202E+02
        79   5  3.723545E+05 -1.995892E+01  3.064468E+02 -9.305067E+04  2.815894E+02 -6.225973E+03
        79   6  3.723661E+05 -2.076885E+01  1.807446E+02 -9.879858E+04  1.300632E+02 -1.189622E+04
        79   7  3.652223E+05 -1.611983E+03 -3.483948E+02 -9.875469E+04 -1.310205E+04 -5.765145E+02
        79   8  2.939693E+05 -1.766313E+04 -9.553870E+03 -9.301819E+04 -1.330598E+04 -6.225046E+03
        79   9  2.227565E+05 -3.369282E+04 -1.862032E+04 -9.877757E+04 -1.350965E+04 -1.189558E+04
        79  10  3.795177E+05  1.599275E+03  1.418366E+03 -9.884245E+04  1.108212E-07 -5.255209E-09
        79  11  4.507462E+05  1.762297E+04  1.016701E+04 -9.308310E+04  6.620104E-09 -2.247171E-09
        79  12  5.219988E+05  3.365027E+04  1.898183E+04 -9.881946E+04 -9.575688E-08 -3.483071E-10
        79  13  3.723699E+05 -6.376477E+00  5.348240E+02 -9.879857E+04  1.068108E-09  1.234721E-08
        79  14  3.723545E+05 -2.000058E+01  3.063738E+02 -9.305067E+04  3.181193E-09  7.961097E-09
        79  15  3.723660E+05 -2.092085E+01  1.804786E+02 -9.879858E+04  1.596377E-10  2.371752E-09
        79  16  3.652221E+05 -1.612030E+03 -3.487179E+02 -9.875469E+04 -1.107286E-07 -5.036248E-09
        79  17  2.939691E+05 -1.766322E+04 -9.554276E+03 -9.301825E+04 -1.032777E-08 -1.562763E-09
        79  18  2.227562E+05 -3.369302E+04 -1.862093E+04 -9.877770E+04  9.630724E-08  6.154686E-10
        79  19  3.795179E+05  1.599328E+03  1.418733E+03 -9.884246E+04 -1.396890E+04  5.789279E+02
        79  20  4.507464E+05  1.762306E+04  1.016744E+04 -9.308316E+04 -1.387078E+04  6.226901E+03
        79  21  5.219990E+05  3.365047E+04  1.898245E+04 -9.881959E+04 -1.377289E+04  1.189685E+04
        79  22  3.723699E+05 -6.376068E+00  5.348250E+02 -9.879857E+04 -4.333475E+02  5.777202E+02
        79  23  3.723545E+05 -1.995892E+01  3.064468E+02 -9.305067E+04 -2.815894E+02  6.225973E+03
        79  24  3.723661E+05 -2.076885E+01  1.807446E+02 -9.879858E+04 -1.300632E+02  1.189622E+04
        79  25  3.652223E+05 -1.611983E+03 -3.483948E+02 -9.875469E+04  1.310205E+04  5.765145E+02
        79  26  2.939693E+05 -1.766313E+04 -9.553870E+03 -9.301819E+04  1.330598E+04  6.225046E+03
        79  27  2.227565E+05 -3.369282E+04 -1.862032E+04 -9.877757E+04  1.350965E+04  1.189558E+04
        80   1  5.659404E+05  4.359349E+04  2.475237E+04 -9.881337E+04  1.374374E+04 -1.520548E+04
        80   2  6.371881E+05  5.961619E+04  3.365899E+04 -9.304854E+04  1.360430E+04 -2.086561E+04
        80   3  7.084722E+05  7.565451E+04  4.266293E+04 -9.878095E+04  1.346562E+04 -2.648575E+04
        80   4  3.723605E+05 -2.346315E+01  1.409427E+02 -9.879896E+04  1.009619E+02 -1.520522E+04
        80   5  3.723467E+05 -3.450422E+01  8.959412E+01 -9.305021E+04  5.682400E+01 -2.086632E+04
        80   6  3.723475E+05 -4.637509E+01  6.894432E+01 -9.879896E+04  1.345208E+01 -2.648744E+04
        80   7  1.788194E+05 -4.364185E+04 -2.446993E+04 -9.878456E+04 -1.353777E+04 -1.520496E+04
        80   8  1.075777E+05 -5.968796E+04 -3.347935E+04 -9.305187E+04 -1.348516E+04 -2.086703E+04
        80   9  3.633910E+04 -7.575177E+04 -4.252474E+04 -9.881696E+04 -1.343179E+04 -2.648913E+04
        80  10  5.659402E+05  4.359319E+04  2.475158E+04 -9.881320E+04 -2.805025E-09 -3.113943E-11
        80  11  6.371878E+05  5.961567E+04  3.365782E+04 -9.304831E+04 -3.151994E-09 -5.206423E-10
        80  12  7.084718E+05  7.565371E+04  4.266127E+04 -9.878066E+04  7.862187E-10 -1.881338E-09
        80  13  3.723604E+05 -2.371146E+01  1.405081E+02 -9.879896E+04  3.504641E-09  3.670827E-10
        80  14  3.723466E+05 -3.497185E+01  8.877576E+01 -9.305021E+04  3.515314E-09 -4.522360E-10
        80  15  3.723473E+05 -4.712860E+01  6.762568E+01 -9.879896E+04  2.881391E-10 -1.856076E-09
        80  16  1.788191E+05 -4.364214E+04 -2.447070E+04 -9.878472E+04  5.929981E-09  6.914664E-10
        80  17  1.075773E+05 -5.968848E+04 -3.348051E+04 -9.305209E+04  4.180361E-09 -6.268489E-10
        80  18  3.633872E+04 -7.575258E+04 -4.252640E+04 -9.881725E+04  2.416850E-10 -1.957327E-09
        80  19  5.659404E+05  4.359349E+04  2.475237E+04 -9.881337E+04 -1.374374E+04  1.520548E+04
        80  20  6.371881E+05  5.961619E+04  3.365899E+04 -9.304854E+04 -1.360430E+04  2.086561E+04
        80  21  7.084722E+05  7.565451E+04  4.266293E+04 -9.878095E+04 -1.346562E+04  2.648575E+04
        80  22  3.723605E+05 -2.346315E+01  1.409427E+02 -9.879896E+04 -1.009619E+02  1.520522E+04
        80  23  3.723467E+05 -3.450422E+01  8.959412E+01 -9.305021E+04 -5.682400E+01  2.086632E+04
        80  24  3.723475E+05 -4.637509E+01  6.894432E+01 -9.879896E+04 -1.345208E+01  2.648744E+04
        80  25  1.788194E+05 -4.364185E+04 -2.446993E+04 -9.878456E+04  1.353777E+04  1.520496E+04
        80  26  1.075777E+05 -5.968796E+04 -3.347935E+04 -9.305187E+04  1.348516E+04  2.086703E+04
        80  27  3.633910E+04 -7.575177E+04 -4.252474E+04 -9.881696E+04  1.343179E+04  2.648913E+04
        81   1  7.524581E+05  8.561207E+04  4.854157E+04 -9.876505E+04  1.343020E+04 -2.975399E+04
        81   2  8.236844E+05  1.016932E+05  5.786720E+04 -9.299663E+04  1.260861E+04 -3.517991E+04
        81   3  8.950769E+05  1.179158E+05  6.776811E+04 -9.870766E+04  1.178810E+04 -4.027888E+04
        81   4  3.723442E+05 -5.516974E+01  6.691770E+01 -9.879506E+04  1.757090E+00 -2.975644E+04
        81   5  3.723201E+05 -7.405194E+01  7.579734E+01 -9.305509E+04 -3.485297E+01 -3.518390E+04
        81   6  3.723221E+05 -8.726732E+01  1.152395E+02 -9.879505E+04 -7.030499E+01 -4.028429E+04
        81   7 -7.621360E+03 -8.572824E+04 -4.840763E+04 -9.882504E+04 -1.341888E+04 -2.975889E+04
        81   8 -7.883511E+04 -1.018496E+05 -5.771589E+04 -9.311349E+04 -1.266958E+04 -3.518789E+04
        81   9 -1.501530E+05 -1.181016E+05 -6.753857E+04 -9.888236E+04 -1.191922E+04 -4.028970E+04
        81  10  7.524577E+05  8.561108E+04  4.853956E+04 -9.876473E+04 -2.269474E-09 -1.769116E-09
        81  11  8.236839E+05  1.016919E+05  5.786458E+04 -9.299627E+04  4.857692E-10 -1.422058E-09
        81  12  8.950763E+05  1.179140E+05  6.776480E+04 -9.870728E+04  1.461549E-09 -1.413498E-09
        81  13  3.723439E+05 -5.612072E+01  6.525348E+01 -9.879506E+04  2.158920E-09 -1.975130E-09
        81  14  3.723198E+05 -7.538147E+01  7.347067E+01 -9.305509E+04 -9.480102E-11 -1.626899E-09
        81  15  3.723216E+05 -8.901026E+01  1.121893E+02 -9.879506E+04 -3.335408E-10 -2.243049E-09
        81  16 -7.621791E+03 -8.572924E+04 -4.840963E+04 -9.882536E+04  5.281017E-09 -2.238255E-09
        81  17 -7.883561E+04 -1.018510E+05 -5.771852E+04 -9.311385E+04  3.711521E-09 -2.055687E-09
        81  18 -1.501536E+05 -1.181034E+05 -6.754189E+04 -9.888275E+04 -2.037768E-09 -2.715598E-09
        81  19  7.524581E+05  8.561207E+04  4.854157E+04 -9.876505E+04 -1.343020E+04  2.975399E+04
        81  20  8.236844E+05  1.016932E+05  5.786720E+04 -9.299663E+04 -1.260861E+04  3.517991E+04
        81  21  8.950769E+05  1.179158E+05  6.776811E+04 -9.870766E+04 -1.178810E+04  4.027888E+04
        81  22  3.723442E+05 -5.516974E+01  6.691770E+01 -9.879506E+04 -1.757090E+00  2.975644E+04
        81  23  3.723201E+05 -7.405194E+01  7.579734E+01 -9.305509E+04  3.485297E+01  3.518390E+04
        81  24  3.723221E+05 -8.726732E+01  1.152395E+02 -9.879505E+04  7.030499E+01  4.028429E+04
        81  25 -7.621360E+03 -8.572824E+04 -4.840763E+04 -9.882504E+04  1.341888E+04  2.975889E+04
        81  26 -7.883511E+04 -1.018496E+05 -5.771589E+04 -9.311349E+04  1.266958E+04  3.518789E+04
        81  27 -1.501530E+05 -1.181016E+05 -6.753857E+04 -9.888236E+04  1.191922E+04  4.028970E+04
        82   1  9.392541E+05  1.280211E+05  7.424107E+04 -9.863778E+04  1.157619E+04 -4.321693E+04
        82   2  1.010091E+06  1.446010E+05  8.635537E+04 -9.299012E+04  5.617002E+03 -4.685899E+04
        82   3  1.082019E+06  1.622809E+05  1.026297E+05 -9.864337E+04 -3.429466E+02 -4.807238E+04
        82   4  3.723237E+05 -9.554826E+01  1.476987E+02 -9.875542E+04 -9.126654E+01 -4.322335E+04
        82   5  3.722716E+05 -7.943761E+01  2.499929E+02 -9.310462E+04 -2.136144E+02 -4.686559E+04
        82   6  3.722929E+05  2.461700E+01  4.631056E+02 -9.875546E+04 -3.359727E+02 -4.807784E+04
        82   7 -1.942781E+05 -1.282256E+05 -7.394719E+04 -9.887295E+04 -1.174859E+04 -4.322977E+04
        82   8 -2.651337E+05 -1.447774E+05 -8.585907E+04 -9.321901E+04 -6.038523E+03 -4.687219E+04
        82   9 -3.369249E+05 -1.622546E+05 -1.017114E+05 -9.886743E+04 -3.290062E+02 -4.808331E+04
        82  10  9.392534E+05  1.280191E+05  7.423731E+04 -9.863737E+04  2.639111E-10 -1.070889E-09
        82  11  1.010090E+06  1.445986E+05  8.635119E+04 -9.298991E+04  5.635286E-09 -1.260330E-10
        82  12  1.082018E+06  1.622784E+05  1.026254E+05 -9.864338E+04  4.794228E-09 -1.036399E-09
        82  13  3.723232E+05 -9.755480E+01  1.441873E+02 -9.875543E+04 -2.145163E-09 -2.064178E-09
        82  14  3.722710E+05 -8.179657E+01  2.458647E+02 -9.310463E+04  4.372859E-09 -1.088698E-09
        82  15  3.722923E+05  2.213441E+01  4.587609E+02 -9.875547E+04  8.132296E-11 -1.185482E-09
        82  16 -1.942787E+05 -1.282276E+05 -7.395096E+04 -9.887336E+04 -1.037581E-09 -2.858883E-09
        82  17 -2.651343E+05 -1.447798E+05 -8.586326E+04 -9.321923E+04 -1.555723E-09 -1.141221E-09
        82  18 -3.369255E+05 -1.622571E+05 -1.017157E+05 -9.886744E+04 -2.688092E-09 -1.093744E-09
        82  19  9.392541E+05  1.280211E+05  7.424107E+04 -9.863778E+04 -1.157619E+04  4.321693E+04
        82  20  1.010091E+06  1.446010E+05  8.635537E+04 -9.299012E+04 -5.617002E+03  4.685899E+04
        82  21  1.082019E+06  1.622809E+05  1.026297E+05 -9.864337E+04  3.429466E+02  4.807238E+04
        82  22  3.723237E+05 -9.554826E+01  1.476987E+02 -9.875542E+04  9.126654E+01  4.322335E+04
        82  23  3.722716E+05 -7.943761E+01  2.499929E+02 -9.310462E+04  2.136144E+02  4.686559E+04
        82  24  3.722929E+05  2.461700E+01  4.631056E+02 -9.875546E+04  3.359727E+02  4.807784E+04
        82  25 -1.942781E+05 -1.282256E+05 -7.394719E+04 -9.887295E+04  1.174859E+04  4.322977E+04
        82  26 -2.651337E+05 -1.447774E+05 -8.585907E+04 -9.321901E+04  6.038523E+03  4.687219E+04
        82  27 -3.369249E+05 -1.622546E+05 -1.017114E+05 -9.886743E+04  3.290062E+02  4.808331E+04
        83   1  1.127404E+06  1.735082E+05  1.133522E+05 -9.826792E+04 -1.855326E+03 -4.855620E+04
        83   2  1.195039E+06  1.939304E+05  1.457881E+05 -9.392036E+04 -4.562939E+04 -3.899133E+04
        83   3  1.270519E+06  2.227456E+05  2.087977E+05 -9.953859E+04 -8.942704E+04 -1.145567E+04
        83   4  3.723432E+05  8.379080E+01  6.214245E+02 -9.845830E+04 -4.171348E+02 -4.856136E+04
        83   5  3.721479E+05  5.752525E+02  1.137585E+03 -9.347632E+04 -9.875889E+02 -3.897235E+04
        83   6  3.723053E+05  1.971536E+03  2.258583E+03 -9.845921E+04 -1.575058E+03 -1.140168E+04
        83   7 -3.821457E+05 -1.733675E+05 -1.121203E+05 -9.864845E+04  1.019380E+03 -4.856652E+04
        83   8 -4.500778E+05 -1.928158E+05 -1.435300E+05 -9.303292E+04  4.359689E+04 -3.895329E+04
        83   9 -5.251470E+05 -2.188547E+05 -2.043050E+05 -9.738146E+04  8.615105E+04 -1.134736E+04
        83  10  1.127403E+06  1.735056E+05  1.133477E+05 -9.826800E+04  6.996306E-08 -1.906281E-09
        83  11  1.195037E+06  1.939282E+05  1.457813E+05 -9.392179E+04 -1.911171E-09 -2.663313E-09
        83  12  1.270511E+06  2.227433E+05  2.087825E+05 -9.953942E+04 -6.904395E-08 -8.409138E-10
        83  13  3.723426E+05  8.125801E+01  6.169919E+02 -9.845832E+04  3.908371E-09 -3.106648E-09
        83  14  3.721475E+05  5.736209E+02  1.134729E+03 -9.347635E+04  2.665425E-09  1.101087E-09
        83  15  3.723052E+05  1.971396E+03  2.258334E+03 -9.845923E+04  5.085528E-11  9.738199E-11
        83  16 -3.821463E+05 -1.733700E+05 -1.121247E+05 -9.864841E+04 -6.754968E-08 -8.888188E-10
        83  17 -4.500803E+05 -1.928179E+05 -1.435364E+05 -9.303155E+04 -2.395663E-10  1.450724E-09
        83  18 -5.251550E+05 -2.188568E+05 -2.043192E+05 -9.738067E+04  6.879706E-08 -3.704870E-10
        83  19  1.127404E+06  1.735082E+05  1.133522E+05 -9.826792E+04  1.855326E+03  4.855620E+04
        83  20  1.195039E+06  1.939304E+05  1.457881E+05 -9.392036E+04  4.562939E+04  3.899133E+04
        83  21  1.270519E+06  2.227456E+05  2.087977E+05 -9.953859E+04  8.942704E+04  1.145567E+04
        83  22  3.723432E+05  8.379080E+01  6.214245E+02 -9.845830E+04  4.171348E+02  4.856136E+04
        83  23  3.721479E+05  5.752525E+02  1.137585E+03 -9.347632E+04  9.875889E+02  3.897235E+04
        83  24  3.723053E+05  1.971536E+03  2.258583E+03 -9.845921E+04  1.575058E+03  1.140168E+04
        83  25 -3.821457E+05 -1.733675E+05 -1.121203E+05 -9.864845E+04 -1.019380E+03  4.856652E+04
        83  26 -4.500778E+05 -1.928158E+05 -1.435300E+05 -9.303292E+04 -4.359689E+04  3.895329E+04
        83  27 -5.251470E+05 -2.188547E+05 -2.043050E+05 -9.738146E+04 -8.615105E+04  1.134736E+04
        84   1  1.907170E+05  9.235313E+05  1.823176E+05 -2.568259E+05  7.277648E+03  5.339863E+04
        84   2  1.344744E+05  7.262358E+05  1.103217E+05 -2.394108E+05  2.195274E+04  1.490902E+04
        84   3  8.667361E+04  5.360777E+05  6.546672E+04 -2.537609E+05  2.034713E+04 -2.357320E+04
        84   4  4.495519E+03  1.695797E+05  4.698499E+03 -2.534127E+05  7.319756E+03  1.942613E+03
        84   5  1.750758E+03  1.692504E+05  3.410319E+03 -2.375307E+05  2.196710E+04  2.304923E+02
        84   6  1.074999E+03  1.696512E+05  3.749157E+03 -2.534152E+05  2.032717E+04 -1.486121E+03
        84   7 -1.817651E+05 -5.838438E+05 -1.729499E+05 -2.500034E+05  7.361336E+03 -4.945135E+04
        84   8 -1.309911E+05 -3.874362E+05 -1.035145E+05 -2.356522E+05  2.198138E+04 -1.443518E+04
        84   9 -8.453040E+04 -1.966421E+05 -5.797083E+04 -2.530697E+05  2.030722E+04  2.058835E+04
        84  10  1.907162E+05  9.235282E+05  1.823122E+05 -2.568262E+05  9.010744E-10  2.345774E-09
        84  11  1.344738E+05  7.262354E+05  1.103204E+05 -2.394111E+05  4.716918E-09 -4.418865E-10
        84  12  8.667301E+04  5.360770E+05  6.546490E+04 -2.537605E+05  3.413916E-09 -2.560063E-09
        84  13  4.495460E+03  1.695797E+05  4.698391E+03 -2.534127E+05  1.631227E-09 -4.661572E-10
        84  14  1.750240E+03  1.692502E+05  3.409412E+03 -2.375307E+05 -4.434523E-10 -1.960884E-10
        84  15  1.074555E+03  1.696511E+05  3.748376E+03 -2.534152E+05  3.082061E-09 -1.531903E-09
        84  16 -1.817659E+05 -5.838465E+05 -1.729546E+05 -2.500031E+05 -1.740058E-10 -2.820781E-09
        84  17 -1.309917E+05 -3.874366E+05 -1.035158E+05 -2.356520E+05 -1.709130E-09  5.609530E-10
        84  18 -8.453096E+04 -1.966426E+05 -5.797240E+04 -2.530701E+05 -1.760353E-09  3.248617E-09
        84  19  1.907170E+05  9.235313E+05  1.823176E+05 -2.568259E+05 -7.277648E+03 -5.339863E+04
        84  20  1.344744E+05  7.262358E+05  1.103217E+05 -2.394108E+05 -2.195274E+04 -1.490902E+04
        84  21  8.667361E+04  5.360777E+05  6.546672E+04 -2.537609E+05 -2.034713E+04  2.357320E+04
        84  22  4.495519E+03  1.695797E+05  4.698499E+03 -2.534127E+05 -7.319756E+03 -1.942613E+03
        84  23  1.750758E+03  1.692504E+05  3.410319E+03 -2.375307E+05 -2.196710E+04 -2.304923E+02
        84  24  1.074999E+03  1.696512E+05  3.749157E+03 -2.534152E+05 -2.032717E+04  1.486121E+03
        84  25 -1.817651E+05 -5.838438E+05 -1.729499E+05 -2.500034E+05 -7.361336E+03  4.945135E+04
        84  26 -1.309911E+05 -3.874362E+05 -1.035145E+05 -2.356522E+05 -2.198138E+04  1.443518E+04
        84  27 -8.453040E+04 -1.966421E+05 -5.797083E+04 -2.530697E+05 -2.030722E+04 -2.058835E+04
        85   1  5.820982E+04  4.146502E+05  4.521734E+04 -2.542079E+05  1.389778E+04 -2.485141E+04
        85   2  1.352653E+04  2.205183E+05  1.426060E+04 -2.362186E+05  3.715029E+03 -2.888511E+04
        85   3 -2.870454E+04  2.752463E+04 -1.347025E+04 -2.510707E+05 -6.731723E+03 -3.291810E+04
        85   4  1.073578E+03  1.697241E+05  4.382423E+03 -2.536541E+05  1.387608E+04 -2.158371E+03
        85   5  1.792379E+03  1.692286E+05  6.855431E+03 -2.372320E+05  3.692480E+03 -5.599585E+03
        85   6  4.861789E+03  1.697303E+05  1.214129E+04 -2.536510E+05 -6.755144E+03 -9.041251E+03
        85   7 -5.606551E+04 -7.514170E+04 -3.645239E+04 -2.531006E+05  1.385441E+04  2.052601E+04
        85   8 -9.941596E+03  1.179428E+05 -5.477389E+02 -2.382454E+05  3.669854E+03  1.768410E+04
        85   9  3.842732E+04  3.119569E+05  3.775418E+04 -2.562319E+05 -6.778760E+03  1.484091E+04
        85  10  5.820945E+04  4.146494E+05  4.521582E+04 -2.542076E+05 -2.131842E-10 -5.968552E-09
        85  11  1.352629E+04  2.205174E+05  1.425900E+04 -2.362185E+05  2.378504E-11  2.173912E-08
        85  12 -2.870488E+04  2.752346E+04 -1.347237E+04 -2.510709E+05 -3.767095E-09  4.884030E-08
        85  13  1.073370E+03  1.697240E+05  4.382053E+03 -2.536541E+05 -1.086529E-10 -6.199996E-10
        85  14  1.792356E+03  1.692286E+05  6.855346E+03 -2.372320E+05 -2.828486E-10 -3.149900E-10
        85  15  4.861718E+03  1.697302E+05  1.214105E+04 -2.536510E+05 -7.981918E-09 -1.608449E-09
        85  16 -5.606583E+04 -7.514220E+04 -3.645355E+04 -2.531008E+05 -1.305731E-09  5.360232E-09
        85  17 -9.941695E+03  1.179424E+05 -5.483519E+02 -2.382454E+05  4.531788E-09 -2.172775E-08
        85  18  3.842721E+04  3.119567E+05  3.775368E+04 -2.562318E+05  2.029220E-09 -4.802705E-08
        85  19  5.820982E+04  4.146502E+05  4.521734E+04 -2.542079E+05 -1.389778E+04  2.485141E+04
        85  20  1.352653E+04  2.205183E+05  1.426060E+04 -2.362186E+05 -3.715029E+03  2.888511E+04
        85  21 -2.870454E+04  2.752463E+04 -1.347025E+04 -2.510707E+05  6.731723E+03  3.291810E+04
        85  22  1.073578E+03  1.697241E+05  4.382423E+03 -2.536541E+05 -1.387608E+04  2.158371E+03
        85  23  1.792379E+03  1.692286E+05  6.855431E+03 -2.372320E+05 -3.692480E+03  5.599585E+03
        85  24  4.861789E+03  1.697303E+05  1.214129E+04 -2.536510E+05  6.755144E+03  9.041251E+03
        85  25 -5.606551E+04 -7.514170E+04 -3.645239E+04 -2.531006E+05 -1.385441E+04 -2.052601E+04
        85  26 -9.941596E+03  1.179428E+05 -5.477389E+02 -2.382454E+05 -3.669854E+03 -1.768410E+04
        85  27  3.842732E+04  3.119569E+05  3.775418E+04 -2.562319E+05  6.778760E+03 -1.484091E+04
        86   1 -5.561028E+04 -9.226281E+04 -2.999267E+04 -2.521862E+05 -1.343551E+04 -3.451061E+04
        86   2 -8.985713E+04 -2.870341E+05 -5.952535E+04 -2.181400E+05 -1.672423E+04 -1.757507E+04
        86   3 -1.057429E+05 -4.793960E+05 -9.550142E+04 -2.160339E+05 -5.835206E+03 -6.400366E+02
        86   4  6.313752E+03  1.712587E+05  1.610067E+04 -2.534508E+05 -1.345774E+04 -1.114952E+04
        86   5  1.884975E+04  1.672701E+05  2.947844E+04 -2.374655E+05 -1.671493E+04 -2.619356E+04
        86   6  5.528988E+04  1.711962E+05  5.861570E+04 -2.534129E+05 -5.800165E+03 -4.123274E+04
        86   7  6.823431E+04  4.348494E+05  6.219358E+04 -2.547160E+05 -1.348005E+04  1.222119E+04
        86   8  1.275456E+05  6.217732E+05  1.184728E+05 -2.568053E+05 -1.670509E+04 -3.481821E+04
        86   9  2.162983E+05  8.221840E+05  2.127103E+05 -2.908311E+05 -5.760260E+03 -8.186777E+04
        86  10 -5.561079E+04 -9.226413E+04 -2.999525E+04 -2.521866E+05 -5.447705E-09 -5.324711E-08
        86  11 -8.985751E+04 -2.870345E+05 -5.952646E+04 -2.181403E+05 -4.354478E-10 -2.179591E-08
        86  12 -1.057429E+05 -4.793960E+05 -9.550149E+04 -2.160339E+05  6.990125E-10  1.236114E-08
        86  13  6.313524E+03  1.712586E+05  1.610009E+04 -2.534510E+05 -1.813843E-09 -6.167431E-10
        86  14  1.884927E+04  1.672693E+05  2.947662E+04 -2.374658E+05 -6.896241E-10 -2.848736E-10
        86  15  5.528938E+04  1.711944E+05  5.861244E+04 -2.534131E+05 -1.758891E-09 -1.281435E-09
        86  16  6.823407E+04  4.348492E+05  6.219296E+04 -2.547159E+05  8.793649E-10  5.267267E-08
        86  17  1.275450E+05  6.217718E+05  1.184700E+05 -2.568057E+05 -1.835650E-09  2.189014E-08
        86  18  2.162965E+05  8.221768E+05  2.126977E+05 -2.908315E+05 -5.529761E-10 -1.173863E-08
        86  19 -5.561028E+04 -9.226281E+04 -2.999267E+04 -2.521862E+05  1.343551E+04  3.451061E+04
        86  20 -8.985713E+04 -2.870341E+05 -5.952535E+04 -2.181400E+05  1.672423E+04  1.757507E+04
        86  21 -1.057429E+05 -4.793960E+05 -9.550142E+04 -2.160339E+05  5.835206E+03  6.400366E+02
        86  22  6.313752E+03  1.712587E+05  1.610067E+04 -2.534508E+05  1.345774E+04  1.114952E+04
        86  23  1.884975E+04  1.672701E+05  2.947844E+04 -2.374655E+05  1.671493E+04  2.619356E+04
        86  24  5.528988E+04  1.711962E+05  5.861570E+04 -2.534129E+05  5.800165E+03  4.123274E+04
        86  25  6.823431E+04  4.348494E+05  6.219358E+04 -2.547160E+05  1.348005E+04 -1.222119E+04
        86  26  1.275456E+05  6.217732E+05  1.184728E+05 -2.568053E+05  1.670509E+04  3.481821E+04
        86  27  2.162983E+05  8.221840E+05  2.127103E+05 -2.908311E+05  5.760260E+03  8.186777E+04
        87   1 -3.814323E+05 -2.166654E+05 -1.348551E+05 -1.637233E+05 -6.689497E+04 -2.155022E+04
        87   2 -3.583859E+05 -1.350684E+05 -7.695710E+04 -1.528102E+05 -4.170687E+04 -4.202193E+03
        87   3 -3.507679E+05 -1.021272E+05 -5.169449E+04 -1.367067E+05 -1.431526E+04  7.282467E+03
        87   4 -1.931545E+05 -1.079262E+05 -7.877687E+04 -7.299910E+04 -5.207561E+04 -1.599291E+04
        87   5 -1.819961E+05 -5.383228E+04 -3.618855E+04 -8.709154E+04 -3.570903E+04 -1.952760E+03
        87   6 -1.845132E+05 -4.664074E+04 -1.923939E+04 -9.599634E+04 -1.714011E+04  6.222228E+03
        87   7 -4.840461E+03  8.313538E+02 -2.270163E+04  1.775364E+04 -3.725159E+04 -1.043156E+04
        87   8 -5.574526E+03  2.741156E+04  4.577971E+03 -2.135420E+04 -2.970939E+04  2.977513E+02
        87   9 -1.822916E+04  8.847330E+03  1.321477E+04 -5.527611E+04 -1.996578E+04  5.161737E+03
        87  10 -3.814373E+05 -2.166671E+05 -1.348644E+05 -1.637245E+05  3.448935E-08  1.222057E-08
        87  11 -3.583878E+05 -1.350689E+05 -7.696040E+04 -1.528103E+05  1.027713E-08  1.830406E-09
        87  12 -3.507681E+05 -1.021273E+05 -5.169498E+04 -1.367067E+05 -3.188669E-08 -1.572651E-08
        87  13 -1.931575E+05 -1.079272E+05 -7.878245E+04 -7.299977E+04  3.510497E-09  2.745107E-09
        87  14 -1.819975E+05 -5.383263E+04 -3.619095E+04 -8.709160E+04  1.194255E-08  6.944333E-09
        87  15 -1.845136E+05 -4.664086E+04 -1.924001E+04 -9.599626E+04  2.488122E-09  6.495634E-09
        87  16 -4.841980E+03  8.308644E+02 -2.270444E+04  1.775333E+04 -2.211094E-08 -9.977136E-09
        87  17 -5.575474E+03  2.741133E+04  4.576313E+03 -2.135420E+04  1.551112E-08  2.609794E-09
        87  18 -1.822959E+04  8.847194E+03  1.321397E+04 -5.527603E+04  4.061860E-08  1.159582E-08
        87  19 -3.814323E+05 -2.166654E+05 -1.348551E+05 -1.637233E+05  6.689497E+04  2.155022E+04
        87  20 -3.583859E+05 -1.350684E+05 -7.695710E+04 -1.528102E+05  4.170687E+04  4.202193E+03
        87  21 -3.507679E+05 -1.021272E+05 -5.169449E+04 -1.367067E+05  1.431526E+04 -7.282467E+03
        87  22 -1.931545E+05 -1.079262E+05 -7.877687E+04 -7.299910E+04  5.207561E+04  1.599291E+04
        87  23 -1.819961E+05 -5.383228E+04 -3.618855E+04 -8.709154E+04  3.570903E+04  1.952760E+03
        87  24 -1.845132E+05 -4.664074E+04 -1.923939E+04 -9.599634E+04  1.714011E+04 -6.222228E+03
        87  25 -4.840461E+03  8.313538E+02 -2.270163E+04  1.775364E+04  3.725159E+04  1.043156E+04
        87  26 -5.574526E+03  2.741156E+04  4.577971E+03 -2.135420E+04  2.970939E+04 -2.977513E+02
        87  27 -1.822916E+04  8.847330E+03  1.321477E+04 -5.527611E+04  1.996578E+04 -5.161737E+03
        88   1 -3.258830E+05 -1.016594E+05 -4.335490E+04 -1.351637E+05 -1.271388E+04  6.601675E+03
        88   2 -3.013732E+05 -8.665486E+04 -3.066692E+04 -1.250666E+05 -7.650473E+03  6.892868E+03
        88   3 -2.733262E+05 -7.865776E+04 -2.190705E+04 -1.202375E+05 -2.425636E+03  6.753897E+03
        88   4 -1.821491E+05 -4.832553E+04 -1.463027E+04 -9.434880E+04 -1.451404E+04  5.925931E+03
        88   5 -1.838035E+05 -4.362802E+04 -7.725442E+03 -9.218613E+04 -1.009719E+04  5.974674E+03
        88   6 -1.817927E+05 -4.580955E+04 -4.235624E+03 -9.529178E+04 -5.519098E+03  5.593216E+03
        88   7 -3.839518E+04  5.009839E+03  1.409304E+04 -5.352545E+04 -1.631463E+04  5.250020E+03
        88   8 -6.621950E+04 -5.999065E+02  1.521545E+04 -5.929989E+04 -1.254441E+04  5.056292E+03
        88   9 -9.024975E+04 -1.296035E+04  1.343569E+04 -7.034247E+04 -8.613075E+03  4.432348E+03
        88  10 -3.258831E+05 -1.016595E+05 -4.335529E+04 -1.351636E+05  1.229882E-08  1.493516E-10
        88  11 -3.013733E+05 -8.665493E+04 -3.066712E+04 -1.250665E+05  1.198959E-08 -6.804540E-10
        88  12 -2.733262E+05 -7.865781E+04 -2.190714E+04 -1.202375E+05  3.188027E-09 -4.408947E-09
        88  13 -1.821494E+05 -4.832563E+04 -1.463073E+04 -9.434873E+04  4.610231E-09  5.493594E-09
        88  14 -1.838037E+05 -4.362808E+04 -7.725701E+03 -9.218608E+04  7.992406E-09  3.414209E-09
        88  15 -1.817928E+05 -4.580959E+04 -4.235740E+03 -9.529176E+04  9.170710E-09 -2.604387E-10
        88  16 -3.839547E+04  5.009738E+03  1.409249E+04 -5.352538E+04 -1.047307E-08 -6.881267E-09
        88  17 -6.621968E+04 -5.999762E+02  1.521510E+04 -5.929984E+04  5.157714E-09 -1.598152E-09
        88  18 -9.024984E+04 -1.296039E+04  1.343552E+04 -7.034244E+04  5.445007E-09  1.788503E-09
        88  19 -3.258830E+05 -1.016594E+05 -4.335490E+04 -1.351637E+05  1.271388E+04 -6.601675E+03
        88  20 -3.013732E+05 -8.665486E+04 -3.066692E+04 -1.250666E+05  7.650473E+03 -6.892868E+03
        88  21 -2.733262E+05 -7.865776E+04 -2.190705E+04 -1.202375E+05  2.425636E+03 -6.753897E+03
        88  22 -1.821491E+05 -4.832553E+04 -1.463027E+04 -9.434880E+04  1.451404E+04 -5.925931E+03
        88  23 -1.838035E+05 -4.362802E+04 -7.725442E+03 -9.218613E+04  1.009719E+04 -5.974674E+03
        88  24 -1.817927E+05 -4.580955E+04 -4.235624E+03 -9.529178E+04  5.519098E+03 -5.593216E+03
        88  25 -3.839518E+04  5.009839E+03  1.409304E+04 -5.352545E+04  1.631463E+04 -5.250020E+03
        88  26 -6.621950E+04 -5.999065E+02  1.521545E+04 -5.929989E+04  1.254441E+04 -5.056292E+03
        88  27 -9.024975E+04 -1.296035E+04  1.343569E+04 -7.034247E+04  8.613075E+03 -4.432348E+03
        89   1 -2.551009E+05 -7.245881E+04 -1.727696E+04 -1.154557E+05 -1.457796E+03  5.749734E+03
        89   2 -2.308494E+05 -6.028677E+04 -1.075605E+04 -1.052817E+05  2.216452E+02  4.073846E+03
        89   3 -2.018391E+05 -5.313868E+04 -4.945189E+03 -1.007516E+05  1.912876E+03  2.366288E+03
        89   4 -1.816164E+05 -4.588882E+04 -3.185919E+03 -9.518968E+04 -4.476557E+03  4.617150E+03
        89   5 -1.839961E+05 -4.335672E+04 -1.751493E+03 -9.237673E+04 -2.844704E+03  2.923482E+03
        89   6 -1.816085E+05 -4.583910E+04 -9.893215E+02 -9.520791E+04 -1.201110E+03  1.198133E+03
        89   7 -1.081262E+05 -1.931836E+04  1.090493E+04 -7.492143E+04 -7.495700E+03  3.484424E+03
        89   8 -1.371408E+05 -2.642657E+04  7.252948E+03 -7.947095E+04 -5.911287E+03  1.773031E+03
        89   9 -1.613775E+05 -3.853954E+04  2.966518E+03 -8.966413E+04 -4.315176E+03  2.994916E+01
        89  10 -2.551009E+05 -7.245885E+04 -1.727703E+04 -1.154557E+05  1.511946E-08  1.644546E-09
        89  11 -2.308494E+05 -6.028679E+04 -1.075608E+04 -1.052817E+05  1.309423E-08  2.115638E-09
        89  12 -2.018391E+05 -5.313868E+04 -4.945206E+03 -1.007516E+05  1.191185E-08  2.301939E-09
        89  13 -1.816164E+05 -4.588885E+04 -3.185997E+03 -9.518966E+04  1.189964E-09 -9.395513E-11
        89  14 -1.839961E+05 -4.335674E+04 -1.751525E+03 -9.237672E+04 -1.169062E-09  6.690740E-09
        89  15 -1.816085E+05 -4.583910E+04 -9.893269E+02 -9.520791E+04  4.191382E-09  1.637922E-08
        89  16 -1.081263E+05 -1.931839E+04  1.090480E+04 -7.492141E+04 -1.310794E-08 -6.537240E-09
        89  17 -1.371409E+05 -2.642658E+04  7.252877E+03 -7.947094E+04 -1.107221E-08 -8.195446E-09
        89  18 -1.613775E+05 -3.853955E+04  2.966483E+03 -8.966413E+04  3.861954E-09 -4.404723E-09
        89  19 -2.551009E+05 -7.245881E+04 -1.727696E+04 -1.154557E+05  1.457796E+03 -5.749734E+03
        89  20 -2.308494E+05 -6.028677E+04 -1.075605E+04 -1.052817E+05 -2.216452E+02 -4.073846E+03
        89  21 -2.018391E+05 -5.313868E+04 -4.945189E+03 -1.007516E+05 -1.912876E+03 -2.366288E+03
        89  22 -1.816164E+05 -4.588882E+04 -3.185919E+03 -9.518968E+04  4.476557E+03 -4.617150E+03
        89  23 -1.839961E+05 -4.335672E+04 -1.751493E+03 -9.237673E+04  2.844704E+03 -2.923482E+03
        89  24 -1.816085E+05 -4.583910E+04 -9.893215E+02 -9.520791E+04  1.201110E+03 -1.198133E+03
        89  25 -1.081262E+05 -1.931836E+04  1.090493E+04 -7.492143E+04  7.495700E+03 -3.484424E+03
        89  26 -1.371408E+05 -2.642657E+04  7.252948E+03 -7.947095E+04  5.911287E+03 -1.773031E+03
        89  27 -1.613775E+05 -3.853954E+04  2.966518E+03 -8.966413E+04  4.315176E+03 -2.994916E+01
        90   1 -1.839905E+05 -4.665863E+04 -1.146949E+03 -9.582161E+04  2.504667E+03  1.214554E+03
        90   2 -1.598161E+05 -3.456011E+04  4.172789E+03 -8.562203E+04  3.520379E+03 -7.613688E+02
        90   3 -1.307589E+05 -2.738403E+04  9.312875E+03 -8.105970E+04  4.536860E+03 -2.739205E+03
        90   4 -1.815864E+05 -4.584303E+04 -7.616225E+02 -9.519731E+04 -6.039291E+02  4.843118E+01
        90   5 -1.840283E+05 -4.338728E+04 -4.773044E+02 -9.237650E+04  4.087946E+02 -1.928658E+03
        90   6 -1.815882E+05 -4.585374E+04 -3.704730E+02 -9.519344E+04  1.422273E+03 -3.907661E+03
        90   7 -1.791822E+05 -4.502741E+04 -3.762483E+02 -9.457299E+04 -3.712566E+03 -1.117706E+03
        90   8 -2.082400E+05 -5.221444E+04 -5.127413E+03 -9.913074E+04 -2.702675E+03 -3.095904E+03
        90   9 -2.324148E+05 -6.432321E+04 -1.005389E+04 -1.093261E+05 -1.692042E+03 -5.076014E+03
        90  10 -1.839906E+05 -4.665863E+04 -1.146964E+03 -9.582161E+04  2.444236E-08  7.031495E-09
        90  11 -1.598162E+05 -3.456011E+04  4.172765E+03 -8.562203E+04 -6.857061E-09 -5.213259E-09
        90  12 -1.307590E+05 -2.738404E+04  9.312822E+03 -8.105969E+04 -3.766619E-08 -1.617025E-08
        90  13 -1.815864E+05 -4.584303E+04 -7.616232E+02 -9.519731E+04  2.582751E-09  1.778959E-08
        90  14 -1.840283E+05 -4.338729E+04 -4.773117E+02 -9.237650E+04  8.350745E-09  1.009647E-08
        90  15 -1.815882E+05 -4.585375E+04 -3.705055E+02 -9.519343E+04  3.083852E-09  1.805515E-09
        90  16 -1.791822E+05 -4.502742E+04 -3.762766E+02 -9.457300E+04 -6.504305E-09 -6.495856E-09
        90  17 -2.082400E+05 -5.221445E+04 -5.127445E+03 -9.913075E+04  2.190007E-08  6.363282E-09
        90  18 -2.324148E+05 -6.432324E+04 -1.005395E+04 -1.093261E+05  3.856578E-08  1.505602E-08
        90  19 -1.839905E+05 -4.665863E+04 -1.146949E+03 -9.582161E+04 -2.504667E+03 -1.214554E+03
        90  20 -1.598161E+05 -3.456011E+04  4.172789E+03 -8.562203E+04 -3.520379E+03  7.613688E+02
        90  21 -1.307589E+05 -2.738403E+04  9.312875E+03 -8.105970E+04 -4.536860E+03  2.739205E+03
        90  22 -1.815864E+05 -4.584303E+04 -7.616225E+02 -9.519731E+04  6.039291E+02 -4.843118E+01
        90  23 -1.840283E+05 -4.338728E+04 -4.773044E+02 -9.237650E+04 -4.087946E+02  1.928658E+03
        90  24 -1.815882E+05 -4.585374E+04 -3.704730E+02 -9.519344E+04 -1.422273E+03  3.907661E+03
        90  25 -1.791822E+05 -4.502741E+04 -3.762483E+02 -9.457299E+04  3.712566E+03  1.117706E+03
        90  26 -2.082400E+05 -5.221444E+04 -5.127413E+03 -9.913074E+04  2.702675E+03  3.095904E+03
        90  27 -2.324148E+05 -6.432321E+04 -1.005389E+04 -1.093261E+05  1.692042E+03  5.076014E+03
        91   1 -1.129491E+05 -2.088942E+04  1.288466E+04 -7.612608E+04  5.050422E+03 -3.920431E+03
        91   2 -8.878324E+04 -8.785461E+03  1.782234E+04 -6.592977E+04  6.050354E+03 -5.903327E+03
        91   3 -5.973306E+04 -1.601114E+03  2.259282E+04 -6.136840E+04  7.049041E+03 -7.882431E+03
        91   4 -1.815889E+05 -4.585407E+04 -3.676842E+02 -9.519292E+04  1.935859E+03 -5.088929E+03
        91   5 -1.840306E+05 -4.339174E+04 -4.618215E+02 -9.237636E+04  2.941347E+03 -7.069883E+03
        91   6 -1.815897E+05 -4.585014E+04 -7.275389E+02 -9.519497E+04  3.945586E+03 -9.047054E+03
        91   7 -2.502232E+05 -7.081806E+04 -1.362002E+04 -1.142576E+05 -1.178309E+03 -6.257279E+03
        91   8 -2.792684E+05 -7.799720E+04 -1.874633E+04 -1.188192E+05 -1.671490E+02 -8.236247E+03
        91   9 -3.034319E+05 -9.009822E+04 -2.404878E+04 -1.290157E+05  8.427559E+02 -1.021144E+04
        91  10 -1.129491E+05 -2.088945E+04  1.288458E+04 -7.612606E+04 -3.813048E-09 -4.561299E-09
        91  11 -8.878329E+04 -8.785508E+03  1.782220E+04 -6.592974E+04 -3.194186E-09 -3.004913E-09
        91  12 -5.973313E+04 -1.601194E+03  2.259261E+04 -6.136835E+04 -1.836992E-09 -2.612308E-09
        91  13 -1.815889E+05 -4.585410E+04 -3.677399E+02 -9.519291E+04 -2.951668E-09 -1.266305E-09
        91  14 -1.840306E+05 -4.339180E+04 -4.619316E+02 -9.237634E+04 -1.522673E-09 -2.128266E-09
        91  15 -1.815897E+05 -4.585023E+04 -7.277219E+02 -9.519494E+04  3.153960E-10 -2.096589E-09
        91  16 -2.502232E+05 -7.081810E+04 -1.362010E+04 -1.142576E+05  3.085720E-09  1.721085E-09
        91  17 -2.792685E+05 -7.799727E+04 -1.874645E+04 -1.188192E+05 -9.012679E-10 -6.608696E-10
        91  18 -3.034319E+05 -9.009834E+04 -2.404898E+04 -1.290157E+05  2.286178E-09 -1.499961E-09
        91  19 -1.129491E+05 -2.088942E+04  1.288466E+04 -7.612608E+04 -5.050422E+03  3.920431E+03
        91  20 -8.878324E+04 -8.785461E+03  1.782234E+04 -6.592977E+04 -6.050354E+03  5.903327E+03
        91  21 -5.973306E+04 -1.601114E+03  2.259282E+04 -6.136840E+04 -7.049041E+03  7.882431E+03
        91  22 -1.815889E+05 -4.585407E+04 -3.676842E+02 -9.519292E+04 -1.935859E+03  5.088929E+03
        91  23 -1.840306E+05 -4.339174E+04 -4.618215E+02 -9.237636E+04 -2.941347E+03  7.069883E+03
        91  24 -1.815897E+05 -4.585014E+04 -7.275389E+02 -9.519497E+04 -3.945586E+03  9.047054E+03
        91  25 -2.502232E+05 -7.081806E+04 -1.362002E+04 -1.142576E+05  1.178309E+03  6.257279E+03
        91  26 -2.792684E+05 -7.799720E+04 -1.874633E+04 -1.188192E+05  1.671490E+02  8.236247E+03
        91  27 -3.034319E+05 -9.009822E+04 -2.404878E+04 -1.290157E+05 -8.427559E+02  1.021144E+04
        92   1 -4.194037E+04  4.884911E+03  2.594654E+04 -5.645706E+04  7.647086E+03 -9.030537E+03
        92   2 -1.773677E+04  1.699002E+04  3.027804E+04 -4.626756E+04  9.169960E+03 -1.078871E+04
        92   3  1.125411E+04  2.410446E+04  3.402946E+04 -4.171365E+04  1.067481E+04 -1.249797E+04
        92   4 -1.816123E+05 -4.584691E+04 -9.422637E+02 -9.520395E+04  4.535834E+03 -1.019821E+04
        92   5 -1.840039E+05 -4.337083E+04 -1.663778E+03 -9.237676E+04  6.131999E+03 -1.192913E+04
        92   6 -1.816234E+05 -4.590013E+04 -3.023522E+03 -9.518559E+04  7.710099E+03 -1.361114E+04
        92   7 -3.212638E+05 -9.657697E+04 -2.783185E+04 -1.339427E+05  1.425333E+03 -1.136560E+04
        92   8 -3.502416E+05 -1.037289E+05 -3.360652E+04 -1.384743E+05  3.094923E+03 -1.306922E+04
        92   9 -3.744605E+05 -1.159008E+05 -4.007758E+04 -1.486417E+05  4.746399E+03 -1.472394E+04
        92  10 -4.194045E+04  4.884808E+03  2.594627E+04 -5.645700E+04 -8.550406E-10 -2.297652E-09
        92  11 -1.773689E+04  1.698987E+04  3.027766E+04 -4.626748E+04 -2.983041E-09 -1.050273E-09
        92  12  1.125395E+04  2.410426E+04  3.402895E+04 -4.171354E+04 -1.913485E-09  1.913769E-10
        92  13 -1.816123E+05 -4.584703E+04 -9.424978E+02 -9.520391E+04 -1.802139E-09 -1.508375E-09
        92  14 -1.840040E+05 -4.337099E+04 -1.664116E+03 -9.237670E+04 -4.123668E-09 -9.289479E-10
        92  15 -1.816235E+05 -4.590035E+04 -3.023982E+03 -9.518550E+04 -5.410689E-10 -1.400523E-10
        92  16 -3.212639E+05 -9.657711E+04 -2.783210E+04 -1.339427E+05  2.803086E-09 -5.792791E-10
        92  17 -3.502416E+05 -1.037291E+05 -3.360686E+04 -1.384743E+05 -1.359563E-09 -6.734554E-10
        92  18 -3.744606E+05 -1.159010E+05 -4.007803E+04 -1.486416E+05 -1.249817E-09 -1.809859E-10
        92  19 -4.194037E+04  4.884911E+03  2.594654E+04 -5.645706E+04 -7.647086E+03  9.030537E+03
        92  20 -1.773677E+04  1.699002E+04  3.027804E+04 -4.626756E+04 -9.169960E+03  1.078871E+04
        92  21  1.125411E+04  2.410446E+04  3.402946E+04 -4.171365E+04 -1.067481E+04  1.249797E+04
        92  22 -1.816123E+05 -4.584691E+04 -9.422637E+02 -9.520395E+04 -4.535834E+03  1.019821E+04
        92  23 -1.840039E+05 -4.337083E+04 -1.663778E+03 -9.237676E+04 -6.131999E+03  1.192913E+04
        92  24 -1.816234E+05 -4.590013E+04 -3.023522E+03 -9.518559E+04 -7.710099E+03  1.361114E+04
        92  25 -3.212638E+05 -9.657697E+04 -2.783185E+04 -1.339427E+05 -1.425333E+03  1.136560E+04
        92  26 -3.502416E+05 -1.037289E+05 -3.360652E+04 -1.384743E+05 -3.094923E+03  1.306922E+04
        92  27 -3.744605E+05 -1.159008E+05 -4.007758E+04 -1.486417E+05 -4.746399E+03  1.472394E+04
        93   1  2.911122E+04  3.047286E+04  3.661658E+04 -3.710932E+04  1.179988E+04 -1.343753E+04
        93   2  5.307820E+04  4.281431E+04  3.869545E+04 -2.614262E+04  1.514119E+04 -1.413997E+04
        93   3  8.095755E+04  4.859710E+04  3.832228E+04 -2.043457E+04  1.823563E+04 -1.418337E+04
        93   4 -1.817932E+05 -4.582233E+04 -4.018403E+03 -9.527739E+04  8.721001E+03 -1.459373E+04
        93   5 -1.838216E+05 -4.364017E+04 -7.328891E+03 -9.219996E+04  1.305304E+04 -1.492461E+04
        93   6 -1.821355E+05 -4.821401E+04 -1.387740E+04 -9.438195E+04  1.713804E+04 -1.459636E+04
        93   7 -3.926533E+05 -1.221144E+05 -4.465580E+04 -1.534277E+05  5.643214E+03 -1.574952E+04
        93   8 -4.206643E+05 -1.300900E+05 -5.335601E+04 -1.582342E+05  1.096573E+04 -1.570893E+04
        93   9 -4.451570E+05 -1.450188E+05 -6.608036E+04 -1.683002E+05  1.604094E+04 -1.500915E+04
        93  10  2.911102E+04  3.047263E+04  3.661598E+04 -3.710919E+04 -3.091586E-09  1.547495E-10
        93  11  5.307790E+04  4.281403E+04  3.869464E+04 -2.614245E+04 -3.275446E-09  1.866832E-10
        93  12  8.095714E+04  4.859680E+04  3.832128E+04 -2.043436E+04  3.097396E-09 -6.149230E-10
        93  13 -1.817933E+05 -4.582258E+04 -4.018946E+03 -9.527729E+04 -2.913757E-10  2.629282E-10
        93  14 -1.838218E+05 -4.364045E+04 -7.329629E+03 -9.219980E+04  2.465841E-09  1.457795E-10
        93  15 -1.821359E+05 -4.821432E+04 -1.387836E+04 -9.438175E+04  1.592358E-09 -1.477956E-09
        93  16 -3.926534E+05 -1.221147E+05 -4.465633E+04 -1.534276E+05  6.840405E-10  3.504172E-10
        93  17 -4.206645E+05 -1.300903E+05 -5.335670E+04 -1.582341E+05  3.999829E-10 -1.994244E-10
        93  18 -4.451574E+05 -1.450191E+05 -6.608127E+04 -1.683000E+05 -1.515025E-09 -1.642218E-09
        93  19  2.911122E+04  3.047286E+04  3.661658E+04 -3.710932E+04 -1.179988E+04  1.343753E+04
        93  20  5.307820E+04  4.281431E+04  3.869545E+04 -2.614262E+04 -1.514119E+04  1.413997E+04
        93  21  8.095755E+04  4.859710E+04  3.832228E+04 -2.043457E+04 -1.823563E+04  1.418337E+04
        93  22 -1.817932E+05 -4.582233E+04 -4.018403E+03 -9.527739E+04 -8.721001E+03  1.459373E+04
        93  23 -1.838216E+05 -4.364017E+04 -7.328891E+03 -9.219996E+04 -1.305304E+04  1.492461E+04
        93  24 -1.821355E+05 -4.821401E+04 -1.387740E+04 -9.438195E+04 -1.713804E+04  1.459636E+04
        93  25 -3.926533E+05 -1.221144E+05 -4.465580E+04 -1.534277E+05 -5.643214E+03  1.574952E+04
        93  26 -4.206643E+05 -1.300900E+05 -5.335601E+04 -1.582342E+05 -1.096573E+04  1.570893E+04
        93  27 -4.451570E+05 -1.450188E+05 -6.608036E+04 -1.683002E+05 -1.604094E+04  1.500915E+04
        94   1  1.010897E+05  5.266486E+04  3.776175E+04 -2.176134E+04  2.230133E+04 -1.388751E+04
        94   2  1.139646E+05  7.099953E+04  3.173309E+04  1.057370E+04  2.575346E+04 -9.485009E+03
        94   3  1.166330E+05  4.747520E+04  1.210187E+04  4.775220E+04  2.583251E+04  3.896902E+03
        94   4 -1.844124E+05 -4.658277E+04 -1.824882E+04 -9.590451E+04  1.963403E+04 -1.488991E+04
        94   5 -1.820715E+05 -5.336552E+04 -3.432637E+04 -8.741683E+04  3.660110E+04 -5.412319E+03
        94   6 -1.926228E+05 -1.046984E+05 -7.472062E+04 -7.408504E+04  5.019373E+04  1.304619E+04
        94   7 -4.698300E+05 -1.458250E+05 -7.426297E+04 -1.700168E+05  1.696806E+04 -1.589186E+04
        94   8 -4.780131E+05 -1.777138E+05 -1.003895E+05 -1.853603E+05  4.744304E+04 -1.342462E+03
        94   9 -5.017728E+05 -2.568394E+05 -1.615469E+05 -1.958571E+05  7.454113E+04  2.218670E+04
        94  10  1.010891E+05  5.266452E+04  3.776046E+04 -2.176109E+04  6.248088E-10 -1.537446E-09
        94  11  1.139639E+05  7.099925E+04  3.173168E+04  1.057390E+04  1.538647E-09  1.407230E-09
        94  12  1.166323E+05  4.747501E+04  1.210059E+04  4.775212E+04  1.869894E-09  2.027944E-09
        94  13 -1.844129E+05 -4.658311E+04 -1.824996E+04 -9.590427E+04 -1.350884E-09 -9.180560E-10
        94  14 -1.820729E+05 -5.336591E+04 -3.432894E+04 -8.741667E+04  3.009423E-09 -8.006737E-11
        94  15 -1.926256E+05 -1.046993E+05 -7.472568E+04 -7.408556E+04  3.710193E-09  1.430652E-09
        94  16 -4.698304E+05 -1.458254E+05 -7.426399E+04 -1.700166E+05  1.841875E-09  6.292626E-10
        94  17 -4.780156E+05 -1.777144E+05 -1.003938E+05 -1.853603E+05 -1.210294E-09  2.118874E-09
        94  18 -5.017789E+05 -2.568414E+05 -1.615583E+05 -1.958585E+05 -2.319185E-09 -9.238566E-10
        94  19  1.010897E+05  5.266486E+04  3.776175E+04 -2.176134E+04 -2.230133E+04  1.388751E+04
        94  20  1.139646E+05  7.099953E+04  3.173309E+04  1.057370E+04 -2.575346E+04  9.485009E+03
        94  21  1.166330E+05  4.747520E+04  1.210187E+04  4.775220E+04 -2.583251E+04 -3.896902E+03
        94  22 -1.844124E+05 -4.658277E+04 -1.824882E+04 -9.590451E+04 -1.963403E+04  1.488991E+04
        94  23 -1.820715E+05 -5.336552E+04 -3.432637E+04 -8.741683E+04 -3.660110E+04  5.412319E+03
        94  24 -1.926228E+05 -1.046984E+05 -7.472062E+04 -7.408504E+04 -5.019373E+04 -1.304619E+04
        94  25 -4.698300E+05 -1.458250E+05 -7.426297E+04 -1.700168E+05 -1.696806E+04  1.589186E+04
        94  26 -4.780131E+05 -1.777138E+05 -1.003895E+05 -1.853603E+05 -4.744304E+04  1.342462E+03
        94  27 -5.017728E+05 -2.568394E+05 -1.615469E+05 -1.958571E+05 -7.454113E+04 -2.218670E+04
        95   1  8.618420E+05  1.341501E+05  1.194421E+05  1.683797E+04  3.760429E+04 -9.898517E+03
        95   2  8.259171E+05  1.476024E+05  9.817685E+04  2.935320E+04  1.617216E+04 -3.432366E+04
        95   3  7.893192E+05  1.471189E+05  8.738728E+04  4.679579E+04 -5.269201E+03 -4.369276E+04
        95   4  1.295165E+05 -4.584135E+04 -4.893576E+04  4.720415E+04 -3.449226E+04 -9.964291E+03
        95   5  1.328118E+05 -1.544950E+04 -2.455840E+04  4.471827E+04 -2.192299E+04 -3.436545E+04
        95   6  1.295294E+05 -4.903207E+03 -1.330567E+04  4.715946E+04 -9.364631E+03 -4.370182E+04
        95   7 -6.022999E+05 -2.258639E+05 -2.173290E+05  7.753414E+04 -1.065045E+05 -1.003715E+04
        95   8 -5.598210E+05 -1.785261E+05 -1.473059E+05  6.006557E+04 -5.997688E+04 -3.440915E+04
        95   9 -5.298249E+05 -1.569462E+05 -1.140079E+05  4.752261E+04 -1.345588E+04 -4.371089E+04
        95  10  8.618404E+05  1.341496E+05  1.194392E+05  1.683827E+04  1.059135E-08 -1.845786E-09
        95  11  8.259165E+05  1.476011E+05  9.817415E+04  2.935364E+04  7.124949E-09 -5.861109E-09
        95  12  7.893187E+05  1.471168E+05  8.738364E+04  4.679561E+04  3.150741E-09 -3.543150E-09
        95  13  1.295152E+05 -4.584177E+04 -4.893819E+04  4.720387E+04 -1.886407E-09 -6.930052E-10
        95  14  1.328110E+05 -1.545089E+04 -2.456152E+04  4.471766E+04 -2.278087E-09 -4.504065E-09
        95  15  1.295288E+05 -4.905282E+03 -1.330943E+04  4.715914E+04 -8.918136E-10 -1.541656E-09
        95  16 -6.023121E+05 -2.258671E+05 -2.173506E+05  7.753328E+04 -1.069282E-08 -9.005926E-10
        95  17 -5.598252E+05 -1.785284E+05 -1.473149E+05  6.006391E+04 -5.823374E-09 -5.881996E-09
        95  18 -5.298257E+05 -1.569483E+05 -1.140118E+05  4.752213E+04 -2.855439E-09 -4.264816E-09
        95  19  8.618420E+05  1.341501E+05  1.194421E+05  1.683797E+04 -3.760429E+04  9.898517E+03
        95  20  8.259171E+05  1.476024E+05  9.817685E+04  2.935320E+04 -1.617216E+04  3.432366E+04
        95  21  7.893192E+05  1.471189E+05  8.738728E+04  4.679579E+04  5.269201E+03  4.369276E+04
        95  22  1.295165E+05 -4.584135E+04 -4.893576E+04  4.720415E+04  3.449226E+04  9.964291E+03
        95  23  1.328118E+05 -1.544950E+04 -2.455840E+04  4.471827E+04  2.192299E+04  3.436545E+04
        95  24  1.295294E+05 -4.903207E+03 -1.330567E+04  4.715946E+04  9.364631E+03  4.370182E+04
        95  25 -6.022999E+05 -2.258639E+05 -2.173290E+05  7.753414E+04  1.065045E+05  1.003715E+04
        95  26 -5.598210E+05 -1.785261E+05 -1.473059E+05  6.006557E+04  5.997688E+04  3.440915E+04
        95  27 -5.298249E+05 -1.569462E+05 -1.140079E+05  4.752261E+04  1.345588E+04  4.371089E+04
        96   1  7.671596E+05  1.423709E+05  8.426470E+04  4.589381E+04 -4.163422E+03 -4.411200E+04
        96   2  7.310684E+05  1.356928E+05  7.885309E+04  4.399791E+04 -5.781497E+03 -4.469791E+04
        96   3  6.949394E+05  1.280004E+05  7.424373E+04  4.812807E+04 -7.402181E+03 -4.336965E+04
        96   4  1.308212E+05 -3.666611E+03 -9.952406E+03  4.740596E+04 -7.637548E+03 -4.412051E+04
        96   5  1.312225E+05 -1.061197E+03 -5.392162E+03  4.439045E+04 -4.934908E+03 -4.470121E+04
        96   6  1.308353E+05 -2.203734E+02 -3.029062E+03  4.740140E+04 -2.234892E+03 -4.336678E+04
        96   7 -5.051104E+05 -1.497231E+05 -1.041769E+05  4.891636E+04 -1.110826E+04 -4.412904E+04
        96   8 -4.682592E+05 -1.378313E+05 -8.964215E+04  4.478248E+04 -4.089099E+03 -4.470451E+04
        96   9 -4.329456E+05 -1.284550E+05 -8.030517E+04  4.667531E+04  2.927919E+03 -4.336391E+04
        96  10  7.671591E+05  1.423688E+05  8.426101E+04  4.589366E+04  2.605241E-08 -3.071175E-09
        96  11  7.310678E+05  1.356907E+05  7.884927E+04  4.399770E+04  3.510608E-08 -2.763806E-09
        96  12  6.949389E+05  1.279983E+05  7.424009E+04  4.812781E+04  2.947117E-08 -6.880566E-09
        96  13  1.308206E+05 -3.668718E+03 -9.956174E+03  4.740569E+04  2.960429E-10  1.976715E-09
        96  14  1.312219E+05 -1.063349E+03 -5.395963E+03  4.439027E+04 -2.302431E-09  1.539676E-08
        96  15  1.308347E+05 -2.223944E+02 -3.032606E+03  4.740133E+04  5.465100E-09  2.484138E-08
        96  16 -5.051111E+05 -1.497252E+05 -1.041808E+05  4.891597E+04 -2.629032E-08 -1.288743E-09
        96  17 -4.682597E+05 -1.378334E+05 -8.964593E+04  4.478233E+04 -3.177429E-08 -4.386367E-09
        96  18 -4.329462E+05 -1.284570E+05 -8.030872E+04  4.667542E+04 -2.656557E-08 -8.745684E-09
        96  19  7.671596E+05  1.423709E+05  8.426470E+04  4.589381E+04  4.163422E+03  4.411200E+04
        96  20  7.310684E+05  1.356928E+05  7.885309E+04  4.399791E+04  5.781497E+03  4.469791E+04
        96  21  6.949394E+05  1.280004E+05  7.424373E+04  4.812807E+04  7.402181E+03  4.336965E+04
        96  22  1.308212E+05 -3.666611E+03 -9.952406E+03  4.740596E+04  7.637548E+03  4.412051E+04
        96  23  1.312225E+05 -1.061197E+03 -5.392162E+03  4.439045E+04  4.934908E+03  4.470121E+04
        96  24  1.308353E+05 -2.203734E+02 -3.029062E+03  4.740140E+04  2.234892E+03  4.336678E+04
        96  25 -5.051104E+05 -1.497231E+05 -1.041769E+05  4.891636E+04  1.110826E+04  4.412904E+04
        96  26 -4.682592E+05 -1.378313E+05 -8.964215E+04  4.478248E+04  4.089099E+03  4.470451E+04
        96  27 -4.329456E+05 -1.284550E+05 -8.030517E+04  4.667531E+04 -2.927919E+03  4.336391E+04
        97   1  6.725446E+05  1.228687E+05  7.142937E+04  4.800122E+04 -7.031322E+03 -4.195693E+04
        97   2  6.364840E+05  1.147523E+05  6.699665E+04  4.494388E+04 -6.944409E+03 -3.951296E+04
        97   3  6.003988E+05  1.066003E+05  6.249723E+04  4.804688E+04 -6.858575E+03 -3.682606E+04
        97   4  1.309882E+05 -1.341454E+02 -2.285549E+03  4.743152E+04 -1.786190E+03 -4.195344E+04
        97   5  1.310549E+05  5.594440E+01 -1.283500E+03  4.435102E+04 -1.151329E+03 -3.950789E+04
        97   6  1.310006E+05  1.153914E+02 -7.287911E+02  4.743115E+04 -5.175423E+02 -3.681930E+04
        97   7 -4.102699E+05 -1.231497E+05 -7.600333E+04  4.686224E+04  3.454579E+03 -4.194997E+04
        97   8 -3.741141E+05 -1.146514E+05 -6.956593E+04  4.375857E+04  4.637255E+03 -3.950283E+04
        97   9 -3.381732E+05 -1.063789E+05 -6.395667E+04  4.681581E+04  5.818921E+03 -3.681255E+04
        97  10  6.725441E+05  1.228668E+05  7.142597E+04  4.800098E+04 -2.816426E-08 -6.785768E-09
        97  11  6.364835E+05  1.147506E+05  6.699363E+04  4.494366E+04 -3.085202E-08 -2.742953E-09
        97  12  6.003984E+05  1.065988E+05  6.249459E+04  4.804668E+04 -2.787588E-08 -6.611320E-10
        97  13  1.309878E+05 -1.360364E+02 -2.288862E+03  4.743146E+04  2.458827E-09  2.438810E-08
        97  14  1.310545E+05  5.426783E+01 -1.286435E+03  4.435099E+04  9.112777E-10  1.672828E-08
        97  15  1.310002E+05  1.139355E+02 -7.313393E+02  4.743113E+04  1.273660E-09  6.235277E-09
        97  16 -4.102704E+05 -1.231516E+05 -7.600666E+04  4.686235E+04  2.883711E-08 -7.748089E-09
        97  17 -3.741145E+05 -1.146531E+05 -6.956890E+04  4.375872E+04  2.958431E-08 -2.031685E-09
        97  18 -3.381736E+05 -1.063804E+05 -6.395928E+04  4.681599E+04  2.710314E-08 -5.615038E-10
        97  19  6.725446E+05  1.228687E+05  7.142937E+04  4.800122E+04  7.031322E+03  4.195693E+04
        97  20  6.364840E+05  1.147523E+05  6.699665E+04  4.494388E+04  6.944409E+03  3.951296E+04
        97  21  6.003988E+05  1.066003E+05  6.249723E+04  4.804688E+04  6.858575E+03  3.682606E+04
        97  22  1.309882E+05 -1.341454E+02 -2.285549E+03  4.743152E+04  1.786190E+03  4.195344E+04
        97  23  1.310549E+05  5.594440E+01 -1.283500E+03  4.435102E+04  1.151329E+03  3.950789E+04
        97  24  1.310006E+05  1.153914E+02 -7.287911E+02  4.743115E+04  5.175423E+02  3.681930E+04
        97  25 -4.102699E+05 -1.231497E+05 -7.600333E+04  4.686224E+04 -3.454579E+03  4.194997E+04
        97  26 -3.741141E+05 -1.146514E+05 -6.956593E+04  4.375857E+04 -4.637255E+03  3.950283E+04
        97  27 -3.381732E+05 -1.063789E+05 -6.395667E+04  4.681581E+04 -5.818921E+03  3.681255E+04
        98   1  5.780019E+05  1.014867E+05  5.949094E+04  4.801086E+04 -6.755745E+03 -3.518131E+04
        98   2  5.419581E+05  9.331139E+04  5.487748E+04  4.488510E+04 -6.676021E+03 -3.235346E+04
        98   3  5.058979E+05  8.515903E+04  5.021395E+04  4.793308E+04 -6.596992E+03 -2.949516E+04
        98   4  1.310246E+05  1.200165E+02 -5.495991E+02  4.743415E+04 -4.056409E+02 -3.517405E+04
        98   5  1.310448E+05  1.239181E+02 -3.068189E+02  4.434716E+04 -2.574541E+02 -3.234535E+04
        98   6  1.310348E+05  1.387560E+02 -1.619521E+02  4.743413E+04 -1.099591E+02 -2.948617E+04
        98   7 -3.157490E+05 -1.012552E+05 -6.059176E+04  4.685780E+04  5.940106E+03 -3.516679E+04
        98   8 -2.796964E+05 -9.307078E+04 -5.549245E+04  4.380953E+04  6.157064E+03 -3.233723E+04
        98   9 -2.436852E+05 -8.488753E+04 -5.053895E+04  4.693545E+04  6.373340E+03 -2.947719E+04
        98  10  5.780015E+05  1.014854E+05  5.948853E+04  4.801067E+04 -2.836413E-09 -6.915696E-10
        98  11  5.419578E+05  9.331025E+04  5.487543E+04  4.488493E+04 -3.958636E-09  1.760214E-09
        98  12  5.058977E+05  8.515808E+04  5.021224E+04  4.793292E+04 -4.273773E-09  1.379183E-09
        98  13  1.310243E+05  1.186878E+02 -5.519245E+02  4.743414E+04  4.098862E-10  1.487243E-10
        98  14  1.310445E+05  1.227945E+02 -3.087852E+02  4.434716E+04 -1.125003E-10  2.767344E-09
        98  15  1.310345E+05  1.378223E+02 -1.635861E+02  4.743413E+04 -3.622329E-09 -5.225764E-10
        98  16 -3.157494E+05 -1.012566E+05 -6.059415E+04  4.685797E+04  1.652939E-09 -1.574240E-14
        98  17 -2.796967E+05 -9.307192E+04 -5.549449E+04  4.380969E+04  3.911151E-09 -2.586066E-10
        98  18 -2.436855E+05 -8.488848E+04 -5.054066E+04  4.693560E+04  5.564314E-09 -1.621525E-09
        98  19  5.780019E+05  1.014867E+05  5.949094E+04  4.801086E+04  6.755745E+03  3.518131E+04
        98  20  5.419581E+05  9.331139E+04  5.487748E+04  4.488510E+04  6.676021E+03  3.235346E+04
        98  21  5.058979E+05  8.515903E+04  5.021395E+04  4.793308E+04  6.596992E+03  2.949516E+04
        98  22  1.310246E+05  1.200165E+02 -5.495991E+02  4.743415E+04  4.056409E+02  3.517405E+04
        98  23  1.310448E+05  1.239181E+02 -3.068189E+02  4.434716E+04  2.574541E+02  3.234535E+04
        98  24  1.310348E+05  1.387560E+02 -1.619521E+02  4.743413E+04  1.099591E+02  2.948617E+04
        98  25 -3.157490E+05 -1.012552E+05 -6.059176E+04  4.685780E+04 -5.940106E+03  3.516679E+04
        98  26 -2.796964E+05 -9.307078E+04 -5.549245E+04  4.380953E+04 -6.157064E+03  3.233723E+04
        98  27 -2.436852E+05 -8.488753E+04 -5.053895E+04  4.693545E+04 -6.373340E+03  2.947719E+04
        99   1  4.835082E+05  8.005724E+04  4.712681E+04  4.790833E+04 -6.575005E+03 -2.782154E+04
        99   2  4.474792E+05  7.189043E+04  4.242344E+04  4.477989E+04 -6.569449E+03 -2.494619E+04
        99   3  4.114365E+05  6.374811E+04  3.771633E+04  4.782791E+04 -6.564398E+03 -2.206785E+04
        99   4  1.310411E+05  1.410229E+02 -1.117171E+02  4.743474E+04 -8.751830E+01 -2.781216E+04
        99   5  1.310528E+05  1.347112E+02 -3.344581E+01  4.434641E+04 -7.534565E+01 -2.493622E+04
        99   6  1.310489E+05  1.519043E+02  3.655728E+01  4.743473E+04 -6.367695E+01 -2.205728E+04
        99   7 -2.212994E+05 -7.978050E+04 -4.735116E+04  4.696137E+04  6.396458E+03 -2.780279E+04
        99   8 -1.852715E+05 -7.162529E+04 -4.249104E+04  4.391312E+04  6.415603E+03 -2.492625E+04
        99   9 -1.492586E+05 -6.344766E+04 -3.764376E+04  4.704170E+04  6.434245E+03 -2.204671E+04
        99  10  4.835079E+05  8.005640E+04  4.712528E+04  4.790819E+04  6.734297E-09 -1.040184E-09
        99  11  4.474790E+05  7.188975E+04  4.242218E+04  4.477976E+04 -8.451141E-10 -1.706459E-09
        99  12  4.114363E+05  6.374758E+04  3.771534E+04  4.782779E+04 -7.657016E-09 -8.873973E-10
        99  13  1.310409E+05  1.401922E+02 -1.131708E+02  4.743473E+04  5.222551E-10  3.132483E-09
        99  14  1.310526E+05  1.340434E+02 -3.461440E+01  4.434641E+04  1.979058E-09 -7.242199E-11
        99  15  1.310487E+05  1.513818E+02  3.564295E+01  4.743473E+04 -4.954464E-09 -4.342987E-10
        99  16 -2.212996E+05 -7.978134E+04 -4.735269E+04  4.696151E+04 -4.712646E-09  4.783540E-10
        99  17 -1.852717E+05 -7.162596E+04 -4.249229E+04  4.391325E+04  3.107688E-09 -2.457718E-09
        99  18 -1.492588E+05 -6.344819E+04 -3.764475E+04  4.704181E+04  8.807690E-09 -1.721558E-09
        99  19  4.835082E+05  8.005724E+04  4.712681E+04  4.790833E+04  6.575005E+03  2.782154E+04
        99  20  4.474792E+05  7.189043E+04  4.242344E+04  4.477989E+04  6.569449E+03  2.494619E+04
        99  21  4.114365E+05  6.374811E+04  3.771633E+04  4.782791E+04  6.564398E+03  2.206785E+04
        99  22  1.310411E+05  1.410229E+02 -1.117171E+02  4.743474E+04  8.751830E+01  2.781216E+04
        99  23  1.310528E+05  1.347112E+02 -3.344581E+01  4.434641E+04  7.534565E+01  2.493622E+04
        99  24  1.310489E+05  1.519043E+02  3.655728E+01  4.743473E+04  6.367695E+01  2.205728E+04
        99  25 -2.212994E+05 -7.978050E+04 -4.735116E+04  4.696137E+04 -6.396458E+03  2.780279E+04
        99  26 -1.852715E+05 -7.162529E+04 -4.249104E+04  4.391312E+04 -6.415603E+03  2.492625E+04
        99  27 -1.492586E+05 -6.344766E+04 -3.764376E+04  4.704170E+04 -6.434245E+03  2.204671E+04
       100   1  3.890574E+05  5.864978E+04  3.462240E+04  4.780345E+04 -6.576155E+03 -2.039154E+04
       100   2  3.530345E+05  5.049146E+04  2.994258E+04  4.466506E+04 -6.655356E+03 -1.751405E+04
       100   3  3.170096E+05  4.237654E+04  2.531758E+04  4.770030E+04 -6.734896E+03 -1.464091E+04
       100   4  1.310542E+05  1.545830E+02  7.377356E+01  4.743409E+04 -7.607225E+01 -2.038068E+04
       100   5  1.310578E+05  1.536259E+02  1.698195E+02  4.434718E+04 -1.652493E+02 -1.750279E+04
       100   6  1.310597E+05  1.978276E+02  3.275003E+02  4.743402E+04 -2.547691E+02 -1.462926E+04
       100   7 -1.268810E+05 -5.834344E+04 -3.447527E+04  4.706487E+04  6.421436E+03 -2.036982E+04
       100   8 -9.086866E+04 -5.018630E+04 -2.960321E+04  4.402940E+04  6.322646E+03 -1.749154E+04
       100   9 -5.485489E+04 -4.198235E+04 -2.466273E+04  4.716781E+04  6.223508E+03 -1.461762E+04
       100  10  3.890572E+05  5.864932E+04  3.462154E+04  4.780334E+04 -2.012869E-09  2.305121E-09
       100  11  3.530344E+05  5.049112E+04  2.994192E+04  4.466497E+04 -3.134178E-09 -4.104944E-10
       100  12  3.170095E+05  4.237630E+04  2.531709E+04  4.770023E+04 -5.954988E-09 -7.200769E-10
       100  13  1.310541E+05  1.541369E+02  7.299294E+01  4.743409E+04  4.692211E-10  6.583394E-10
       100  14  1.310577E+05  1.532969E+02  1.692438E+02  4.434718E+04  1.918454E-09 -3.697365E-10
       100  15  1.310597E+05  1.975978E+02  3.270980E+02  4.743402E+04  2.604749E-09  3.370507E-10
       100  16 -1.268811E+05 -5.834390E+04 -3.447612E+04  4.706497E+04  4.306769E-10  1.103426E-09
       100  17 -9.086878E+04 -5.018664E+04 -2.960386E+04  4.402949E+04  3.013747E-09 -6.801258E-09
       100  18 -5.485499E+04 -4.198259E+04 -2.466320E+04  4.716788E+04  4.689842E-09 -2.545142E-09
       100  19  3.890574E+05  5.864978E+04  3.462240E+04  4.780345E+04  6.576155E+03  2.039154E+04
       100  20  3.530345E+05  5.049146E+04  2.994258E+04  4.466506E+04  6.655356E+03  1.751405E+04
       100  21  3.170096E+05  4.237654E+04  2.531758E+04  4.770030E+04  6.734896E+03  1.464091E+04
       100  22  1.310542E+05  1.545830E+02  7.377356E+01  4.743409E+04  7.607225E+01  2.038068E+04
       100  23  1.310578E+05  1.536259E+02  1.698195E+02  4.434718E+04  1.652493E+02  1.750279E+04
       100  24  1.310597E+05  1.978276E+02  3.275003E+02  4.743402E+04  2.547691E+02  1.462926E+04
       100  25 -1.268810E+05 -5.834344E+04 -3.447527E+04  4.706487E+04 -6.421436E+03  2.036982E+04
       100  26 -9.086866E+04 -5.018630E+04 -2.960321E+04  4.402940E+04 -6.322646E+03  1.749154E+04
       100  27 -5.485489E+04 -4.198235E+04 -2.466273E+04  4.716781E+04 -6.223508E+03  1.461762E+04
       101   1  2.946539E+05  3.728892E+04  2.229381E+04  4.769139E+04 -6.800870E+03 -1.296891E+04
       101   2  2.585969E+05  2.923926E+04  1.783697E+04  4.439045E+04 -7.121431E+03 -1.011721E+04
       101   3  2.226245E+05  2.146321E+04  1.364879E+04  4.725868E+04 -7.442105E+03 -7.301813E+03
       101   4  1.310831E+05  2.116922E+02  4.404118E+02  4.743309E+04 -3.226355E+02 -1.295708E+04
       101   5  1.310362E+05  3.245789E+02  7.938302E+02  4.434801E+04 -7.253115E+02 -1.010530E+04
       101   6  1.310862E+05  7.252278E+02  1.472659E+03  4.743215E+04 -1.128117E+03 -7.289831E+03
       101   7 -3.246040E+04 -3.686666E+04 -2.141305E+04  4.717486E+04  6.153973E+03 -1.294525E+04
       101   8  3.492064E+03 -2.859078E+04 -1.624929E+04  4.430558E+04  5.669555E+03 -1.009339E+04
       101   9  3.955643E+04 -2.001309E+04 -1.070338E+04  4.760559E+04  5.184984E+03 -7.277845E+03
       101  10  2.946538E+05  3.728873E+04  2.229341E+04  4.769131E+04 -4.250553E-09  2.660293E-09
       101  11  2.585969E+05  2.923914E+04  1.783668E+04  4.439040E+04  4.257155E-09 -1.025223E-09
       101  12  2.226245E+05  2.146314E+04  1.364858E+04  4.725864E+04  5.755809E-09  1.528769E-09
       101  13  1.310830E+05  2.115118E+02  4.400961E+02  4.743309E+04  4.910301E-10  2.074230E-09
       101  14  1.310361E+05  3.244691E+02  7.936373E+02  4.434801E+04 -2.401123E-09  2.191326E-09
       101  15  1.310861E+05  7.251704E+02  1.472557E+03  4.743214E+04 -9.128875E-10 -4.958208E-10
       101  16 -3.246049E+04 -3.686685E+04 -2.141344E+04  4.717492E+04  6.982893E-09  4.655145E-10
       101  17  3.492003E+03 -2.859090E+04 -1.624954E+04  4.430562E+04 -6.541390E-10  1.001453E-09
       101  18  3.955638E+04 -2.001315E+04 -1.070353E+04  4.760562E+04 -9.291831E-09 -5.323287E-09
       101  19  2.946539E+05  3.728892E+04  2.229381E+04  4.769139E+04  6.800870E+03  1.296891E+04
       101  20  2.585969E+05  2.923926E+04  1.783697E+04  4.439045E+04  7.121431E+03  1.011721E+04
       101  21  2.226245E+05  2.146321E+04  1.364879E+04  4.725868E+04  7.442105E+03  7.301813E+03
       101  22  1.310831E+05  2.116922E+02  4.404118E+02  4.743309E+04  3.226355E+02  1.295708E+04
       101  23  1.310362E+05  3.245789E+02  7.938302E+02  4.434801E+04  7.253115E+02  1.010530E+04
       101  24  1.310862E+05  7.252278E+02  1.472659E+03  4.743215E+04  1.128117E+03  7.289831E+03
       101  25 -3.246040E+04 -3.686666E+04 -2.141305E+04  4.717486E+04 -6.153973E+03  1.294525E+04
       101  26  3.492064E+03 -2.859078E+04 -1.624929E+04  4.430558E+04 -5.669555E+03  1.009339E+04
       101  27  3.955643E+04 -2.001309E+04 -1.070338E+04  4.760559E+04 -5.184984E+03  7.277845E+03
       102   1  2.004241E+05  1.653164E+04  1.095513E+04  4.739266E+04 -7.688642E+03 -5.664928E+03
       102   2  1.639975E+05  9.865953E+03  7.528731E+03  4.203966E+04 -8.908166E+03 -3.017038E+03
       102   3  1.284169E+05  6.060325E+03  5.602335E+03  4.283174E+04 -1.012719E+04 -6.542116E+02
       102   4  1.312779E+05  9.085755E+02  1.970570E+03  4.742754E+04 -1.386732E+03 -5.652881E+03
       102   5  1.307998E+05  2.460315E+03  3.638922E+03  4.434933E+04 -3.249589E+03 -3.006200E+03
       102   6  1.312784E+05  6.983975E+03  7.253995E+03  4.741611E+04 -5.112009E+03 -6.445997E+02
       102   7  6.213668E+04 -1.471466E+04 -7.013869E+03  4.746242E+04  4.914509E+03 -5.640833E+03
       102   8  9.760324E+04 -4.945328E+03 -2.507591E+02  4.665887E+04  2.408702E+03 -2.995319E+03
       102   9  1.341400E+05  7.907715E+03  8.905759E+03  5.200050E+04 -9.680680E+01 -6.349137E+02
       102  10  2.004241E+05  1.653159E+04  1.095496E+04  4.739263E+04 -1.417441E-09  7.495821E-10
       102  11  1.639974E+05  9.865922E+03  7.528565E+03  4.203964E+04  2.313388E-09 -1.957908E-09
       102  12  1.284168E+05  6.060297E+03  5.602142E+03  4.283173E+04 -1.006207E-09 -7.082839E-10
       102  13  1.312779E+05  9.085407E+02  1.970507E+03  4.742754E+04  2.745231E-09  1.717896E-09
       102  14  1.307998E+05  2.460302E+03  3.638885E+03  4.434932E+04  1.815489E-09 -4.063271E-09
       102  15  1.312783E+05  6.983967E+03  7.253945E+03  4.741611E+04  3.476618E-09  2.183735E-09
       102  16  6.213664E+04 -1.471470E+04 -7.013975E+03  4.746244E+04  3.655931E-09  2.249134E-10
       102  17  9.760323E+04 -4.945340E+03 -2.507868E+02  4.665888E+04 -7.689580E-10  1.034423E-09
       102  18  1.341400E+05  7.907714E+03  8.905758E+03  5.200050E+04 -1.084391E-09 -6.204159E-10
       102  19  2.004241E+05  1.653164E+04  1.095513E+04  4.739266E+04  7.688642E+03  5.664928E+03
       102  20  1.639975E+05  9.865953E+03  7.528731E+03  4.203966E+04  8.908166E+03  3.017038E+03
       102  21  1.284169E+05  6.060325E+03  5.602335E+03  4.283174E+04  1.012719E+04  6.542116E+02
       102  22  1.312779E+05  9.085755E+02  1.970570E+03  4.742754E+04  1.386732E+03  5.652881E+03
       102  23  1.307998E+05  2.460315E+03  3.638922E+03  4.434933E+04  3.249589E+03  3.006200E+03
       102  24  1.312784E+05  6.983975E+03  7.253995E+03  4.741611E+04  5.112009E+03  6.445997E+02
       102  25  6.213668E+04 -1.471466E+04 -7.013869E+03  4.746242E+04 -4.914509E+03  5.640833E+03
       102  26  9.760324E+04 -4.945328E+03 -2.507591E+02  4.665887E+04 -2.408702E+03  2.995319E+03
       102  27  1.341400E+05  7.907715E+03  8.905759E+03  5.200050E+04  9.680680E+01  6.349137E+02
       103   1  8.918550E+03  4.047765E+05  1.017869E+04 -3.952316E+04 -4.511289E+02  1.014717E+03
       103   2 -4.780032E+03  3.678576E+05  3.893494E+02 -3.309145E+04 -2.304044E+03 -2.076372E+03
       103   3 -1.441210E+04  3.323407E+05 -6.376550E+03 -3.523891E+04 -4.634816E+03 -5.167667E+03
       103   4  6.309061E+03  3.947458E+05  7.199181E+03 -3.554277E+04 -4.534112E+02  3.615613E+03
       103   5  1.293946E+03  3.941120E+05  4.535370E+03 -3.125581E+04 -2.306977E+03  1.293176E+03
       103   6  2.120945E+02  3.947461E+05  4.361636E+03 -3.554788E+04 -4.638371E+03 -1.029622E+03
       103   7  3.699627E+03  3.847153E+05  4.219694E+03 -3.156245E+04 -4.556601E+02  6.216466E+03
       103   8  7.367909E+03  4.203671E+05  8.681418E+03 -2.942008E+04 -2.309890E+03  4.662861E+03
       103   9  1.483609E+04  4.571554E+05  1.509976E+04 -3.585689E+04 -4.641930E+03  3.108825E+03
       103  10  8.918550E+03  4.047765E+05  1.017869E+04 -3.952316E+04  2.942447E-10 -1.453488E-09
       103  11 -4.780039E+03  3.678576E+05  3.893313E+02 -3.309146E+04 -3.401060E-10 -3.090863E-09
       103  12 -1.441213E+04  3.323407E+05 -6.376641E+03 -3.523893E+04 -1.457159E-09 -1.146334E-09
       103  13  6.309058E+03  3.947458E+05  7.199156E+03 -3.554277E+04 -1.385393E-11  4.013123E-11
       103  14  1.293940E+03  3.941120E+05  4.535357E+03 -3.125581E+04 -8.931717E-10 -8.658694E-10
       103  15  2.120711E+02  3.947461E+05  4.361594E+03 -3.554789E+04  8.513092E-10 -1.236318E-09
       103  16  3.699616E+03  3.847153E+05  4.219621E+03 -3.156245E+04 -1.336550E-09  1.741584E-09
       103  17  7.367897E+03  4.203671E+05  8.681367E+03 -2.942007E+04 -6.341602E-10  3.987915E-10
       103  18  1.483607E+04  4.571554E+05  1.509970E+04 -3.585688E+04 -1.270714E-09  1.304901E-09
       103  19  8.918550E+03  4.047765E+05  1.017869E+04 -3.952316E+04  4.511289E+02 -1.014717E+03
       103  20 -4.780032E+03  3.678576E+05  3.893494E+02 -3.309145E+04  2.304044E+03  2.076372E+03
       103  21 -1.441210E+04  3.323407E+05 -6.376550E+03 -3.523891E+04  4.634816E+03  5.167667E+03
       103  22  6.309061E+03  3.947458E+05  7.199181E+03 -3.554277E+04  4.534112E+02 -3.615613E+03
       103  23  1.293946E+03  3.941120E+05  4.535370E+03 -3.125581E+04  2.306977E+03 -1.293176E+03
       103  24  2.120945E+02  3.947461E+05  4.361636E+03 -3.554788E+04  4.638371E+03  1.029622E+03
       103  25  3.699627E+03  3.847153E+05  4.219694E+03 -3.156245E+04  4.556601E+02 -6.216466E+03
       103  26  7.367909E+03  4.203671E+05  8.681418E+03 -2.942008E+04  2.309890E+03 -4.662861E+03
       103  27  1.483609E+04  4.571554E+05  1.509976E+04 -3.585689E+04  4.641930E+03 -3.108825E+03
       104   1 -1.999334E+04  3.083548E+05 -1.026176E+04 -3.599401E+04 -6.172285E+03 -5.930627E+03
       104   2 -2.846206E+04  2.717511E+05 -1.472818E+04 -3.100680E+04 -8.501365E+03 -8.631155E+03
       104   3 -3.533090E+04  2.358852E+05 -1.704111E+04 -3.460385E+04 -1.034629E+04 -1.133096E+04
       104   4  2.793147E+02  3.946572E+05  4.838018E+03 -3.554854E+04 -6.175780E+03 -1.791340E+03
       104   5  3.625708E+02  3.942195E+05  6.969962E+03 -3.125566E+04 -8.504019E+03 -5.271352E+03
       104   6  2.180800E+03  3.946534E+05  1.179606E+04 -3.554691E+04 -1.034815E+04 -8.750797E+03
       104   7  2.055157E+04  4.809670E+05  1.993759E+04 -3.510300E+04 -6.179268E+03  2.348506E+03
       104   8  2.918639E+04  5.167027E+05  2.866759E+04 -3.150458E+04 -8.506676E+03 -1.910905E+03
       104   9  3.969109E+04  5.534462E+05  4.063225E+04 -3.649021E+04 -1.035001E+04 -6.169987E+03
       104  10 -1.999339E+04  3.083548E+05 -1.026189E+04 -3.599404E+04 -6.800524E-10  3.975828E-10
       104  11 -2.846216E+04  2.717510E+05 -1.472846E+04 -3.100686E+04  3.022260E-10 -3.667332E-09
       104  12 -3.533105E+04  2.358850E+05 -1.704155E+04 -3.460395E+04 -1.136830E-09 -4.584064E-09
       104  13  2.792728E+02  3.946572E+05  4.837940E+03 -3.554855E+04 -2.717935E-09  2.066489E-11
       104  14  3.624857E+02  3.942195E+05  6.969774E+03 -3.125570E+04 -4.088388E-09 -9.576259E-10
       104  15  2.180664E+03  3.946533E+05  1.179572E+04 -3.554698E+04 -3.583262E-09 -1.245043E-09
       104  16  2.055153E+04  4.809670E+05  1.993751E+04 -3.510299E+04  2.209871E-09  1.117336E-10
       104  17  2.918631E+04  5.167027E+05  2.866745E+04 -3.150459E+04 -4.436878E-09  1.448607E-09
       104  18  3.969097E+04  5.534461E+05  4.063198E+04 -3.649026E+04 -1.241192E-09  4.867828E-09
       104  19 -1.999334E+04  3.083548E+05 -1.026176E+04 -3.599401E+04  6.172285E+03  5.930627E+03
       104  20 -2.846206E+04  2.717511E+05 -1.472818E+04 -3.100680E+04  8.501365E+03  8.631155E+03
       104  21 -3.533090E+04  2.358852E+05 -1.704111E+04 -3.460385E+04  1.034629E+04  1.133096E+04
       104  22  2.793147E+02  3.946572E+05  4.838018E+03 -3.554854E+04  6.175780E+03  1.791340E+03
       104  23  3.625708E+02  3.942195E+05  6.969962E+03 -3.125566E+04  8.504019E+03  5.271352E+03
       104  24  2.180800E+03  3.946534E+05  1.179606E+04 -3.554691E+04  1.034815E+04  8.750797E+03
       104  25  2.055157E+04  4.809670E+05  1.993759E+04 -3.510300E+04  6.179268E+03 -2.348506E+03
       104  26  2.918639E+04  5.167027E+05  2.866759E+04 -3.150458E+04  8.506676E+03  1.910905E+03
       104  27  3.969109E+04  5.534462E+05  4.063225E+04 -3.649021E+04  1.035001E+04  6.169987E+03
       105   1 -4.217413E+04  2.136440E+05 -1.825415E+04 -3.877726E+04 -1.167592E+04 -1.417831E+04
       105   2 -4.214596E+04  1.734517E+05 -1.620335E+04 -1.749360E+04 -1.064470E+04 -1.810458E+04
       105   3 -1.296507E+04  1.410532E+05 -4.309231E+03 -4.395102E+03 -3.305682E+03 -2.202630E+04
       105   4  1.090986E+03  3.965810E+05  1.522768E+04 -3.546341E+04 -1.167842E+04 -1.076269E+04
       105   5  1.021760E+04  3.917992E+05  2.721373E+04 -3.135294E+04 -1.063894E+04 -2.483783E+04
       105   6  5.025125E+04  3.965665E+05  5.608526E+04 -3.542658E+04 -3.292467E+03 -3.890876E+04
       105   7  4.435425E+04  5.795505E+05  4.870820E+04 -3.214854E+04 -1.168089E+04 -7.346088E+03
       105   8  6.257899E+04  6.101928E+05  7.062871E+04 -4.521724E+04 -1.063288E+04 -3.157341E+04
       105   9  1.134667E+05  6.521424E+05  1.164768E+05 -6.647089E+04 -3.277569E+03 -5.579812E+04
       105  10 -4.217433E+04  2.136437E+05 -1.825478E+04 -3.877740E+04 -2.011744E-10 -2.801272E-08
       105  11 -4.214617E+04  1.734513E+05 -1.620418E+04 -1.749375E+04  3.562343E-09 -3.463333E-09
       105  12 -1.296521E+04  1.410527E+05 -4.310163E+03 -4.395161E+03  1.310699E-09  2.435608E-08
       105  13  1.090808E+03  3.965808E+05  1.522721E+04 -3.546351E+04 -3.006926E-09 -1.058496E-10
       105  14  1.021732E+04  3.917985E+05  2.721236E+04 -3.135315E+04  1.136862E-09 -5.558269E-10
       105  15  5.025083E+04  3.965648E+05  5.608240E+04 -3.542669E+04 -1.916279E-09 -9.886140E-10
       105  16  4.435409E+04  5.795505E+05  4.870784E+04 -3.214861E+04 -3.096372E-10  2.849894E-08
       105  17  6.257860E+04  6.101917E+05  7.062662E+04 -4.521751E+04  8.093143E-10  1.471229E-09
       105  18  1.134658E+05  6.521390E+05  1.164710E+05 -6.647104E+04 -7.418417E-10 -2.391904E-08
       105  19 -4.217413E+04  2.136440E+05 -1.825415E+04 -3.877726E+04  1.167592E+04  1.417831E+04
       105  20 -4.214596E+04  1.734517E+05 -1.620335E+04 -1.749360E+04  1.064470E+04  1.810458E+04
       105  21 -1.296507E+04  1.410532E+05 -4.309231E+03 -4.395102E+03  3.305682E+03  2.202630E+04
       105  22  1.090986E+03  3.965810E+05  1.522768E+04 -3.546341E+04  1.167842E+04  1.076269E+04
       105  23  1.021760E+04  3.917992E+05  2.721373E+04 -3.135294E+04  1.063894E+04  2.483783E+04
       105  24  5.025125E+04  3.965665E+05  5.608526E+04 -3.542658E+04  3.292467E+03  3.890876E+04
       105  25  4.435425E+04  5.795505E+05  4.870820E+04 -3.214854E+04  1.168089E+04  7.346088E+03
       105  26  6.257899E+04  6.101928E+05  7.062871E+04 -4.521724E+04  1.063288E+04  3.157341E+04
       105  27  1.134667E+05  6.521424E+05  1.164768E+05 -6.647089E+04  3.277569E+03  5.579812E+04
       106   1  9.170395E+05  3.276376E+05  1.630834E+05  3.419120E+05  6.393548E+04  1.320139E+04
       106   2  8.663222E+05  3.035051E+05  1.161939E+05  3.270917E+05  4.139009E+04 -2.119285E+04
       106   3  8.153668E+05  2.890590E+05  9.333603E+04  3.192676E+05  1.306129E+04 -4.018651E+04
       106   4  2.468753E+05  8.020594E+04 -6.010579E+03  1.616296E+05 -3.661655E+02 -1.098334E+04
       106   5  2.505495E+05  8.082772E+04 -2.873532E+03  1.572939E+05  9.665555E+03 -3.313126E+04
       106   6  2.475378E+05  8.469071E+04 -1.489689E+03  1.599541E+05  1.390664E+04 -3.987281E+04
       106   7 -4.228114E+05 -1.671847E+05 -1.751142E+05 -1.846768E+04 -6.458904E+04 -3.513933E+04
       106   8 -3.648128E+05 -1.418106E+05 -1.219491E+05 -1.234403E+04 -2.202452E+04 -4.505693E+04
       106   9 -3.199462E+05 -1.196445E+05 -9.632300E+04  7.773326E+02  1.475118E+04 -3.955942E+04
       106  10  9.170351E+05  3.276363E+05  1.630754E+05  3.419113E+05  4.831975E-09 -7.448686E-10
       106  11  8.663202E+05  3.035041E+05  1.161899E+05  3.270924E+05  1.098768E-08 -2.255929E-09
       106  12  8.153662E+05  2.890572E+05  9.333267E+04  3.192680E+05  3.458769E-09  1.682685E-09
       106  13  2.468753E+05  8.020581E+04 -6.010806E+03  1.616296E+05  3.781888E-10  6.458061E-10
       106  14  2.505491E+05  8.082651E+04 -2.875771E+03  1.572942E+05  3.194722E-09 -4.114319E-10
       106  15  2.475372E+05  8.468895E+04 -1.493040E+03  1.599546E+05  1.190485E-09 -5.519415E-10
       106  16 -4.228162E+05 -1.671871E+05 -1.751244E+05 -1.846951E+04 -4.136938E-10 -9.043623E-10
       106  17 -3.648139E+05 -1.418129E+05 -1.219539E+05 -1.234483E+04  5.135742E-09 -7.550377E-10
       106  18 -3.199468E+05 -1.196462E+05 -9.632635E+04  7.778027E+02  6.617678E-09 -3.939690E-10
       106  19  9.170395E+05  3.276376E+05  1.630834E+05  3.419120E+05 -6.393548E+04 -1.320139E+04
       106  20  8.663222E+05  3.035051E+05  1.161939E+05  3.270917E+05 -4.139009E+04  2.119285E+04
       106  21  8.153668E+05  2.890590E+05  9.333603E+04  3.192676E+05 -1.306129E+04  4.018651E+04
       106  22  2.468753E+05  8.020594E+04 -6.010579E+03  1.616296E+05  3.661655E+02  1.098334E+04
       106  23  2.505495E+05  8.082772E+04 -2.873532E+03  1.572939E+05 -9.665555E+03  3.313126E+04
       106  24  2.475378E+05  8.469071E+04 -1.489689E+03  1.599541E+05 -1.390664E+04  3.987281E+04
       106  25 -4.228114E+05 -1.671847E+05 -1.751142E+05 -1.846768E+04  6.458904E+04  3.513933E+04
       106  26 -3.648128E+05 -1.418106E+05 -1.219491E+05 -1.234403E+04  2.202452E+04  4.505693E+04
       106  27 -3.199462E+05 -1.196445E+05 -9.632300E+04  7.773326E+02 -1.475118E+04  3.955942E+04
       107   1  7.836529E+05  2.774069E+05  8.613578E+04  3.105963E+05  1.334320E+04 -3.921710E+04
       107   2  7.373994E+05  2.561413E+05  7.471718E+04  2.933426E+05  9.593253E+03 -3.940665E+04
       107   3  6.853407E+05  2.418501E+05  6.591851E+04  2.834708E+05  5.195069E+03 -3.787558E+04
       107   4  2.475293E+05  8.498937E+04 -1.105814E+03  1.601831E+05  1.378925E+04 -3.905337E+04
       107   5  2.508256E+05  8.204194E+04 -5.752182E+02  1.564278E+05  1.367843E+04 -3.787247E+04
       107   6  2.475951E+05  8.534915E+04 -3.056850E+02  1.600541E+05  1.291889E+04 -3.497023E+04
       107   7 -2.882938E+05 -1.074015E+05 -8.835556E+04  9.889628E+03  1.423490E+04 -3.888979E+04
       107   8 -2.354962E+05 -9.203358E+04 -7.587215E+04  1.961302E+04  1.776026E+04 -3.633956E+04
       107   9 -1.899433E+05 -7.113125E+04 -6.653216E+04  3.671934E+04  2.063696E+04 -3.206705E+04
       107  10  7.836523E+05  2.774052E+05  8.613255E+04  3.105967E+05  6.326072E-09  1.411105E-09
       107  11  7.373989E+05  2.561396E+05  7.471409E+04  2.933429E+05 -3.254951E-09 -5.782946E-10
       107  12  6.853403E+05  2.418486E+05  6.591576E+04  2.834709E+05 -9.719643E-09 -1.018413E-09
       107  13  2.475287E+05  8.498768E+04 -1.109038E+03  1.601835E+05  4.958667E-11  5.424847E-11
       107  14  2.508250E+05  8.204035E+04 -5.782656E+02  1.564282E+05 -4.245519E-09 -8.471574E-10
       107  15  2.475946E+05  8.534779E+04 -3.082971E+02  1.600545E+05 -2.647515E-09  5.368250E-11
       107  16 -2.882944E+05 -1.074031E+05 -8.835878E+04  9.890074E+03  9.175606E-10 -2.296912E-09
       107  17 -2.354969E+05 -9.203509E+04 -7.587523E+04  1.961354E+04  5.525347E-10  1.159111E-10
       107  18 -1.899440E+05 -7.113247E+04 -6.653489E+04  3.671988E+04  5.238648E-09  5.682782E-10
       107  19  7.836529E+05  2.774069E+05  8.613578E+04  3.105963E+05 -1.334320E+04  3.921710E+04
       107  20  7.373994E+05  2.561413E+05  7.471718E+04  2.933426E+05 -9.593253E+03  3.940665E+04
       107  21  6.853407E+05  2.418501E+05  6.591851E+04  2.834708E+05 -5.195069E+03  3.787558E+04
       107  22  2.475293E+05  8.498937E+04 -1.105814E+03  1.601831E+05 -1.378925E+04  3.905337E+04
       107  23  2.508256E+05  8.204194E+04 -5.752182E+02  1.564278E+05 -1.367843E+04  3.787247E+04
       107  24  2.475951E+05  8.534915E+04 -3.056850E+02  1.600541E+05 -1.291889E+04  3.497023E+04
       107  25 -2.882938E+05 -1.074015E+05 -8.835556E+04  9.889628E+03 -1.423490E+04  3.888979E+04
       107  26 -2.354962E+05 -9.203358E+04 -7.587215E+04  1.961302E+04 -1.776026E+04  3.633956E+04
       107  27 -1.899433E+05 -7.113125E+04 -6.653216E+04  3.671934E+04 -2.063696E+04  3.206705E+04
       108   1  6.545326E+05  2.307944E+05  6.091567E+04  2.748325E+05  4.460768E+03 -3.565863E+04
       108   2  6.087971E+05  2.100142E+05  5.334010E+04  2.573289E+05  2.711352E+03 -3.206320E+04
       108   3  5.566175E+05  1.958263E+05  4.604183E+04  2.472635E+05  8.890573E+02 -2.827670E+04
       108   4  2.475954E+05  8.538207E+04 -2.261934E+02  1.600775E+05  1.213762E+04 -3.277024E+04
       108   5  2.508700E+05  8.214931E+04 -1.142233E+02  1.563531E+05  1.079216E+04 -2.902157E+04
       108   6  2.476169E+05  8.542885E+04 -4.546851E+01  1.600664E+05  9.373754E+03 -2.508178E+04
       108   7 -1.591572E+05 -6.001039E+04 -6.136843E+04  4.539471E+04  1.980907E+04 -2.988387E+04
       108   8 -1.069180E+05 -4.570162E+04 -5.356973E+04  5.543215E+04  1.886805E+04 -2.598180E+04
       108   9 -6.128380E+04 -2.495959E+04 -4.613459E+04  7.290918E+04  1.785410E+04 -2.188849E+04
       108  10  6.545322E+05  2.307930E+05  6.091325E+04  2.748327E+05 -1.170766E-09  6.914544E-11
       108  11  6.087968E+05  2.100131E+05  5.333815E+04  2.573289E+05 -2.350032E-09 -3.642851E-09
       108  12  5.566173E+05  1.958254E+05  4.604033E+04  2.472635E+05 -4.849952E-09 -4.197974E-09
       108  13  2.475950E+05  8.538088E+04 -2.284887E+02  1.600778E+05  1.969767E-09  5.430526E-10
       108  14  2.508697E+05  8.214837E+04 -1.160252E+02  1.563533E+05 -1.904254E-09 -2.392885E-09
       108  15  2.476167E+05  8.542816E+04 -4.681603E+01  1.600666E+05  4.087631E-09  1.822575E-09
       108  16 -1.591579E+05 -6.001146E+04 -6.137085E+04  4.539518E+04  3.047115E-09  1.400019E-09
       108  17 -1.069186E+05 -4.570244E+04 -5.357167E+04  5.543254E+04  2.148504E-09  3.207038E-09
       108  18 -6.128427E+04 -2.496019E+04 -4.613609E+04  7.290950E+04  5.219888E-09  5.790523E-09
       108  19  6.545326E+05  2.307944E+05  6.091567E+04  2.748325E+05 -4.460768E+03  3.565863E+04
       108  20  6.087971E+05  2.100142E+05  5.334010E+04  2.573289E+05 -2.711352E+03  3.206320E+04
       108  21  5.566175E+05  1.958263E+05  4.604183E+04  2.472635E+05 -8.890573E+02  2.827670E+04
       108  22  2.475954E+05  8.538207E+04 -2.261934E+02  1.600775E+05 -1.213762E+04  3.277024E+04
       108  23  2.508700E+05  8.214931E+04 -1.142233E+02  1.563531E+05 -1.079216E+04  2.902157E+04
       108  24  2.476169E+05  8.542885E+04 -4.546851E+01  1.600664E+05 -9.373754E+03  2.508178E+04
       108  25 -1.591572E+05 -6.001039E+04 -6.136843E+04  4.539471E+04 -1.980907E+04  2.988387E+04
       108  26 -1.069180E+05 -4.570162E+04 -5.356973E+04  5.543215E+04 -1.886805E+04  2.598180E+04
       108  27 -6.128380E+04 -2.495959E+04 -4.613459E+04  7.290918E+04 -1.785410E+04  2.188849E+04
       109   1  5.259420E+05  1.848402E+05  4.126622E+04  2.386279E+05  1.917523E+01 -2.593018E+04
       109   2  4.802976E+05  1.641314E+05  3.410673E+04  2.211061E+05 -1.549296E+03 -2.193068E+04
       109   3  4.281374E+05  1.499619E+05  2.699059E+04  2.110259E+05 -3.125682E+03 -1.791175E+04
       109   4  2.476198E+05  8.543520E+04 -2.112772E+01  1.600672E+05  8.497032E+03 -2.273726E+04
       109   5  2.508880E+05  8.217711E+04  2.692345E+01  1.563458E+05  6.969411E+03 -1.872162E+04
       109   6  2.476295E+05  8.544978E+04  8.548830E+01  1.600650E+05  5.433876E+03 -1.468658E+04
       109   7 -3.061812E+04 -1.396124E+04 -4.130895E+04  8.153972E+04  1.697088E+04 -1.954585E+04
       109   8  2.153718E+04  2.291952E+02 -3.405272E+04  9.160858E+04  1.548475E+04 -1.551384E+04
       109   9  6.715940E+04  2.094218E+04 -2.681903E+04  1.091188E+05  1.399070E+04 -1.146243E+04
       109  10  5.259418E+05  1.848395E+05  4.126495E+04  2.386279E+05 -5.825500E-08 -2.047278E-08
       109  11  4.802975E+05  1.641309E+05  3.410582E+04  2.211061E+05 -1.634303E-08 -6.568499E-09
       109  12  4.281373E+05  1.499615E+05  2.698997E+04  2.110259E+05  4.394994E-08  1.788704E-08
       109  13  2.476196E+05  8.543463E+04 -2.223508E+01  1.600673E+05 -8.313412E-09 -1.396328E-09
       109  14  2.508878E+05  8.217672E+04  2.617340E+01  1.563459E+05 -1.997272E-08 -9.531792E-09
       109  15  2.476294E+05  8.544954E+04  8.502741E+01  1.600651E+05 -1.233488E-08 -5.645959E-09
       109  16 -3.061854E+04 -1.396173E+04 -4.131021E+04  8.153999E+04  4.026909E-08  1.823252E-08
       109  17  2.153685E+04  2.288723E+02 -3.405362E+04  9.160877E+04 -2.309814E-08 -2.813421E-09
       109  18  6.715915E+04  2.094199E+04 -2.681964E+04  1.091189E+05 -6.123085E-08 -2.473740E-08
       109  19  5.259420E+05  1.848402E+05  4.126622E+04  2.386279E+05 -1.917523E+01  2.593018E+04
       109  20  4.802976E+05  1.641314E+05  3.410673E+04  2.211061E+05  1.549296E+03  2.193068E+04
       109  21  4.281374E+05  1.499619E+05  2.699059E+04  2.110259E+05  3.125682E+03  1.791175E+04
       109  22  2.476198E+05  8.543520E+04 -2.112772E+01  1.600672E+05 -8.497032E+03  2.273726E+04
       109  23  2.508880E+05  8.217711E+04  2.692345E+01  1.563458E+05 -6.969411E+03  1.872162E+04
       109  24  2.476295E+05  8.544978E+04  8.548830E+01  1.600650E+05 -5.433876E+03  1.468658E+04
       109  25 -3.061812E+04 -1.396124E+04 -4.130895E+04  8.153972E+04 -1.697088E+04  1.954585E+04
       109  26  2.153718E+04  2.291952E+02 -3.405272E+04  9.160858E+04 -1.548475E+04  1.551384E+04
       109  27  6.715940E+04  2.094218E+04 -2.681903E+04  1.091188E+05 -1.399070E+04  1.146243E+04
       110   1  3.974917E+05  1.389825E+05  2.225858E+04  2.023950E+05 -4.030069E+03 -1.556003E+04
       110   2  3.518674E+05  1.182800E+05  1.521005E+04  1.848818E+05 -5.652966E+03 -1.155280E+04
       110   3  2.997290E+05  1.041135E+05  8.236039E+03  1.748100E+05 -7.272702E+03 -7.554654E+03
       110   4  2.476359E+05  8.545185E+04  1.232989E+02  1.600665E+05  4.527903E+03 -1.233513E+04
       110   5  2.508934E+05  8.218296E+04  2.375300E+02  1.563462E+05  2.885613E+03 -8.334860E+03
       110   6  2.476391E+05  8.545409E+04  4.417133E+02  1.600669E+05  1.246482E+03 -4.343686E+03
       110   7  9.780273E+04  3.192299E+04 -2.201243E+04  1.177471E+05  1.308380E+04 -9.111019E+03
       110   8  1.499300E+05  4.608686E+04 -1.473497E+04  1.278150E+05  1.142278E+04 -5.117450E+03
       110   9  1.955522E+05  6.679508E+04 -7.352340E+03  1.453249E+05  9.764917E+03 -1.133001E+03
       110  10  3.974916E+05  1.389822E+05  2.225810E+04  2.023949E+05 -4.742375E-08 -1.428215E-08
       110  11  3.518673E+05  1.182798E+05  1.520974E+04  1.848817E+05 -1.303425E-08  7.836009E-09
       110  12  2.997289E+05  1.041134E+05  8.235833E+03  1.748100E+05  5.290351E-08  4.026154E-08
       110  13  2.476358E+05  8.545168E+04  1.229744E+02  1.600665E+05 -9.432828E-09 -7.603650E-09
       110  14  2.508934E+05  8.218288E+04  2.373838E+02  1.563463E+05 -1.265797E-08 -1.854003E-08
       110  15  2.476391E+05  8.545407E+04  4.416750E+02  1.600669E+05  1.447608E-08 -2.031615E-08
       110  16  9.780253E+04  3.192285E+04 -2.201291E+04  1.177472E+05  3.015776E-08  8.964473E-09
       110  17  1.499298E+05  4.608679E+04 -1.473526E+04  1.278150E+05 -2.183075E-08 -6.054595E-09
       110  18  1.955521E+05  6.679505E+04 -7.352521E+03  1.453249E+05 -5.844174E-08 -1.647620E-08
       110  19  3.974917E+05  1.389825E+05  2.225858E+04  2.023950E+05  4.030069E+03  1.556003E+04
       110  20  3.518674E+05  1.182800E+05  1.521005E+04  1.848818E+05  5.652966E+03  1.155280E+04
       110  21  2.997290E+05  1.041135E+05  8.236039E+03  1.748100E+05  7.272702E+03  7.554654E+03
       110  22  2.476359E+05  8.545185E+04  1.232989E+02  1.600665E+05 -4.527903E+03  1.233513E+04
       110  23  2.508934E+05  8.218296E+04  2.375300E+02  1.563462E+05 -2.885613E+03  8.334860E+03
       110  24  2.476391E+05  8.545409E+04  4.417133E+02  1.600669E+05 -1.246482E+03  4.343686E+03
       110  25  9.780273E+04  3.192299E+04 -2.201243E+04  1.177471E+05 -1.308380E+04  9.111019E+03
       110  26  1.499300E+05  4.608686E+04 -1.473497E+04  1.278150E+05 -1.142278E+04  5.117450E+03
       110  27  1.955522E+05  6.679508E+04 -7.352340E+03  1.453249E+05 -9.764917E+03  1.133001E+03
       111   1  2.690953E+05  9.314250E+04  3.605875E+03  1.662014E+05 -8.244949E+03 -5.237075E+03
       111   2  2.234726E+05  7.242442E+04 -3.159441E+03  1.486579E+05 -1.007787E+04 -1.378914E+03
       111   3  1.714023E+05  5.831864E+04 -9.655563E+03  1.385397E+05 -1.187353E+04  2.380777E+03
       111   4  2.476586E+05  8.545251E+04  5.918113E+02  1.600735E+05  2.763179E+02 -2.025260E+03
       111   5  2.508731E+05  8.219906E+04  1.080916E+03  1.563335E+05 -1.765125E+03  1.754210E+03
       111   6  2.476782E+05  8.559868E+04  2.004021E+03  1.600178E+05 -3.769341E+03  5.435220E+03
       111   7  2.262229E+05  7.776274E+04 -2.421869E+03  1.539459E+05  8.797173E+03  1.186398E+03
       111   8  2.782745E+05  9.197383E+04  5.321558E+03  1.640096E+05  6.548011E+03  4.887478E+03
       111   9  3.239614E+05  1.128798E+05  1.366406E+04  1.814988E+05  4.335998E+03  8.490094E+03
       111  10  2.690952E+05  9.314245E+04  3.605696E+03  1.662014E+05 -6.532823E-08 -7.556590E-09
       111  11  2.234725E+05  7.242439E+04 -3.159635E+03  1.486578E+05 -8.107990E-09  8.674726E-10
       111  12  1.714021E+05  5.831860E+04 -9.655838E+03  1.385397E+05  4.893152E-08  1.852962E-08
       111  13  2.476586E+05  8.545251E+04  5.918035E+02  1.600735E+05  1.942180E-08 -1.741917E-08
       111  14  2.508731E+05  8.219905E+04  1.080904E+03  1.563335E+05  6.535580E-09 -1.376440E-08
       111  15  2.476781E+05  8.559864E+04  2.003939E+03  1.600179E+05  1.861982E-09 -8.606182E-09
       111  16  2.262228E+05  7.776272E+04 -2.422017E+03  1.539459E+05  7.533449E-08  3.860489E-08
       111  17  2.782744E+05  9.197380E+04  5.321432E+03  1.640096E+05  7.769838E-09  9.162617E-09
       111  18  3.239613E+05  1.128797E+05  1.366389E+04  1.814987E+05 -5.192668E-08 -1.689138E-08
       111  19  2.690953E+05  9.314250E+04  3.605875E+03  1.662014E+05  8.244949E+03  5.237075E+03
       111  20  2.234726E+05  7.242442E+04 -3.159441E+03  1.486579E+05  1.007787E+04  1.378914E+03
       111  21  1.714023E+05  5.831864E+04 -9.655563E+03  1.385397E+05  1.187353E+04 -2.380777E+03
       111  22  2.476586E+05  8.545251E+04  5.918113E+02  1.600735E+05 -2.763179E+02  2.025260E+03
       111  23  2.508731E+05  8.219906E+04  1.080916E+03  1.563335E+05  1.765125E+03 -1.754210E+03
       111  24  2.476782E+05  8.559868E+04  2.004021E+03  1.600178E+05  3.769341E+03 -5.435220E+03
       111  25  2.262229E+05  7.776274E+04 -2.421869E+03  1.539459E+05 -8.797173E+03 -1.186398E+03
       111  26  2.782745E+05  9.197383E+04  5.321558E+03  1.640096E+05 -6.548011E+03 -4.887478E+03
       111  27  3.239614E+05  1.128798E+05  1.366406E+04  1.814988E+05 -4.335998E+03 -8.490094E+03
       112   1  1.407419E+05  4.745290E+04 -1.389952E+04  1.300680E+05 -1.311139E+04  4.505160E+03
       112   2  9.564238E+04  2.654770E+04 -1.974082E+04  1.115591E+05 -1.503586E+04  7.668862E+03
       112   3  4.463800E+04  1.341493E+04 -2.475150E+04  1.001133E+05 -1.662728E+04  9.949738E+03
       112   4  2.478296E+05  8.563950E+04  2.683569E+03  1.600461E+05 -4.984266E+03  7.568092E+03
       112   5  2.507939E+05  8.296289E+04  4.967758E+03  1.559886E+05 -8.774939E+03  1.002800E+04
       112   6  2.482202E+05  8.842756E+04  9.560700E+03  1.589931E+05 -1.223265E+04  1.160519E+04
       112   7  3.549297E+05  1.238273E+05  1.926675E+04  1.900290E+05  3.144338E+03  1.063158E+04
       112   8  4.059704E+05  1.393804E+05  2.967576E+04  2.004283E+05 -2.512404E+03  1.238776E+04
       112   9  4.518441E+05  1.634439E+05  4.387120E+04  2.178904E+05 -7.836543E+03  1.326123E+04
       112  10  1.407417E+05  4.745283E+04 -1.389988E+04  1.300681E+05  3.881623E-10  8.007426E-10
       112  11  9.564212E+04  2.654758E+04 -1.974135E+04  1.115592E+05  6.964385E-09  1.975086E-09
       112  12  4.463768E+04  1.341475E+04 -2.475221E+04  1.001134E+05  1.008192E-08  7.857214E-09
       112  13  2.478295E+05  8.563943E+04  2.683415E+03  1.600461E+05  8.787031E-10  1.771266E-09
       112  14  2.507938E+05  8.296276E+04  4.967424E+03  1.559887E+05  3.869770E-10  4.517348E-09
       112  15  2.482200E+05  8.842738E+04  9.560166E+03  1.589932E+05 -1.343397E-09 -3.305268E-09
       112  16  3.549296E+05  1.238272E+05  1.926651E+04  1.900290E+05  5.068664E-09  5.736263E-10
       112  17  4.059704E+05  1.393802E+05  2.967546E+04  2.004284E+05  5.413691E-09  1.271125E-09
       112  18  4.518440E+05  1.634437E+05  4.387075E+04  2.178904E+05 -6.453854E-09 -9.506563E-10
       112  19  1.407419E+05  4.745290E+04 -1.389952E+04  1.300680E+05  1.311139E+04 -4.505160E+03
       112  20  9.564238E+04  2.654770E+04 -1.974082E+04  1.115591E+05  1.503586E+04 -7.668862E+03
       112  21  4.463800E+04  1.341493E+04 -2.475150E+04  1.001133E+05  1.662728E+04 -9.949738E+03
       112  22  2.478296E+05  8.563950E+04  2.683569E+03  1.600461E+05  4.984266E+03 -7.568092E+03
       112  23  2.507939E+05  8.296289E+04  4.967758E+03  1.559886E+05  8.774939E+03 -1.002800E+04
       112  24  2.482202E+05  8.842756E+04  9.560700E+03  1.589931E+05  1.223265E+04 -1.160519E+04
       112  25  3.549297E+05  1.238273E+05  1.926675E+04  1.900290E+05 -3.144338E+03 -1.063158E+04
       112  26  4.059704E+05  1.393804E+05  2.967576E+04  2.004283E+05  2.512404E+03 -1.238776E+04
       112  27  4.518441E+05  1.634439E+05  4.387120E+04  2.178904E+05  7.836543E+03 -1.326123E+04
       113   1  1.379112E+04  4.023720E+03 -2.763656E+04  9.286944E+04 -1.885899E+04  1.086298E+04
       113   2 -2.227746E+04 -1.913160E+04 -3.164404E+04  5.975497E+04 -1.429996E+04  1.055918E+04
       113   3 -5.821939E+04 -1.862709E+04 -3.367095E+04  2.853931E+04 -6.767112E+03  2.357568E+03
       113   4  2.497345E+05  8.926963E+04  1.287949E+04  1.591016E+05 -1.426163E+04  1.259462E+04
       113   5  2.507692E+05  9.519591E+04  2.477760E+04  1.508382E+05 -2.638757E+04  6.004078E+03
       113   6  2.552307E+05  1.280811E+05  5.187513E+04  1.444741E+05 -3.554082E+04 -8.482246E+03
       113   7  4.857413E+05  1.745228E+05  5.339524E+04  2.253584E+05 -9.662319E+03  1.432698E+04
       113   8  5.238934E+05  2.095366E+05  8.119591E+04  2.419606E+05 -3.848082E+04  1.446136E+03
       113   9  5.687737E+05  2.748098E+05  1.374139E+05  2.604650E+05 -6.432968E+04 -1.933116E+04
       113  10  1.379071E+04  4.023498E+03 -2.763745E+04  9.286961E+04 -5.180910E-09 -1.572201E-09
       113  11 -2.227771E+04 -1.913177E+04 -3.164464E+04  5.975509E+04  1.378838E-09  5.189121E-09
       113  12 -5.821944E+04 -1.862711E+04 -3.367105E+04  2.853933E+04  6.501851E-09  1.904010E-09
       113  13  2.497342E+05  8.926941E+04  1.287881E+04  1.591017E+05  3.887504E-10 -1.983647E-09
       113  14  2.507684E+05  9.519568E+04  2.477622E+04  1.508383E+05 -2.815334E-09  6.267406E-09
       113  15  2.552294E+05  1.280806E+05  5.187262E+04  1.444738E+05 -4.440760E-10  2.913441E-09
       113  16  4.857411E+05  1.745225E+05  5.339468E+04  2.253585E+05  1.854398E-09  3.158192E-09
       113  17  5.238918E+05  2.095362E+05  8.119313E+04  2.419607E+05 -5.659104E-09  6.713657E-09
       113  18  5.687691E+05  2.748083E+05  1.374054E+05  2.604640E+05 -6.206102E-09  1.066327E-09
       113  19  1.379112E+04  4.023720E+03 -2.763656E+04  9.286944E+04  1.885899E+04 -1.086298E+04
       113  20 -2.227746E+04 -1.913160E+04 -3.164404E+04  5.975497E+04  1.429996E+04 -1.055918E+04
       113  21 -5.821939E+04 -1.862709E+04 -3.367095E+04  2.853931E+04  6.767112E+03 -2.357568E+03
       113  22  2.497345E+05  8.926963E+04  1.287949E+04  1.591016E+05  1.426163E+04 -1.259462E+04
       113  23  2.507692E+05  9.519591E+04  2.477760E+04  1.508382E+05  2.638757E+04 -6.004078E+03
       113  24  2.552307E+05  1.280811E+05  5.187513E+04  1.444741E+05  3.554082E+04  8.482246E+03
       113  25  4.857413E+05  1.745228E+05  5.339524E+04  2.253584E+05  9.662319E+03 -1.432698E+04
       113  26  5.238934E+05  2.095366E+05  8.119591E+04  2.419606E+05  3.848082E+04 -1.446136E+03
       113  27  5.687737E+05  2.748098E+05  1.374139E+05  2.604650E+05  6.432968E+04  1.933116E+04
       114   1 -2.367607E+05 -1.098851E+06 -2.666119E+05  8.399023E+04 -4.367562E+03 -1.040933E+05
       114   2 -8.121988E+04 -9.911334E+05 -1.619508E+05  2.553430E+04 -1.270384E+04 -6.215081E+04
       114   3 -7.185554E+04 -9.250240E+05 -1.211018E+05  3.148669E+04 -9.656023E+03 -2.018414E+04
       114   4 -1.162484E+05 -6.167287E+05 -1.474149E+05  4.662592E+04 -4.372997E+03 -9.711247E+04
       114   5  1.674999E+04 -5.964087E+05 -6.736808E+04  1.451979E+04 -1.270413E+04 -6.087543E+04
       114   6  4.613447E+03 -6.166825E+05 -4.713392E+04  4.682446E+04 -9.650802E+03 -2.462049E+04
       114   7  4.251726E+03 -1.343916E+05 -2.823427E+04  9.232597E+03 -4.379274E+03 -9.012618E+04
       114   8  1.147090E+05 -2.015408E+05  2.720371E+04  3.498277E+03 -1.270447E+04 -5.959923E+04
       114   9  8.107643E+04 -3.082532E+05  2.682746E+04  6.216990E+04 -9.645801E+03 -2.905904E+04
       114  10 -2.367637E+05 -1.098863E+06 -2.666323E+05  8.398986E+04  3.004035E-09  4.546343E-09
       114  11 -8.122110E+04 -9.911376E+05 -1.619584E+05  2.553367E+04  5.703428E-09  7.711872E-09
       114  12 -7.185575E+04 -9.250244E+05 -1.211028E+05  3.148653E+04  3.121770E-09 -1.419959E-09
       114  13 -1.162510E+05 -6.167389E+05 -1.474327E+05  4.662558E+04  3.003924E-09  3.888159E-09
       114  14  1.674882E+04 -5.964128E+05 -6.737536E+04  1.451916E+04 -3.264506E-09 -2.276930E-09
       114  15  4.613184E+03 -6.166832E+05 -4.713524E+04  4.682426E+04 -3.316473E-09  3.637480E-09
       114  16  4.249524E+03 -1.344003E+05 -2.824958E+04  9.232280E+03  1.540115E-09 -8.290049E-09
       114  17  1.147079E+05 -2.015447E+05  2.719673E+04  3.497667E+03  4.088714E-09 -4.496033E-09
       114  18  8.107610E+04 -3.082542E+05  2.682569E+04  6.216968E+04 -2.591557E-09 -1.418618E-09
       114  19 -2.367607E+05 -1.098851E+06 -2.666119E+05  8.399023E+04  4.367562E+03  1.040933E+05
       114  20 -8.121988E+04 -9.911334E+05 -1.619508E+05  2.553430E+04  1.270384E+04  6.215081E+04
       114  21 -7.185554E+04 -9.250240E+05 -1.211018E+05  3.148669E+04  9.656023E+03  2.018414E+04
       114  22 -1.162484E+05 -6.167287E+05 -1.474149E+05  4.662592E+04  4.372997E+03  9.711247E+04
       114  23  1.674999E+04 -5.964087E+05 -6.736808E+04  1.451979E+04  1.270413E+04  6.087543E+04
       114  24  4.613447E+03 -6.166825E+05 -4.713392E+04  4.682446E+04  9.650802E+03  2.462049E+04
       114  25  4.251726E+03 -1.343916E+05 -2.823427E+04  9.232597E+03  4.379274E+03  9.012618E+04
       114  26  1.147090E+05 -2.015408E+05  2.720371E+04  3.498277E+03  1.270447E+04  5.959923E+04
       114  27  8.107643E+04 -3.082532E+05  2.682746E+04  6.216990E+04  9.645801E+03  2.905904E+04
       115   1 -5.901862E+04 -8.003027E+05 -8.770280E+04  5.229518E+04 -5.905539E+03 -1.569275E+04
       115   2 -2.199647E+04 -7.079821E+05 -5.728365E+04  1.440134E+04 -3.254169E+03  1.182461E+03
       115   3 -1.534724E+04 -6.252498E+05 -4.541264E+04  4.183375E+04 -2.755973E+02  1.805971E+04
       115   4 -1.172329E+04 -6.097787E+05 -4.197345E+04  4.696339E+04 -5.903856E+03 -1.695804E+04
       115   5  3.556105E+03 -6.049942E+05 -3.258468E+04  1.430081E+04 -3.252569E+03 -2.441895E+02
       115   6 -1.150598E+04 -6.097752E+05 -4.162855E+04  4.696454E+04 -2.738439E+02  1.646936E+04
       115   7  3.556950E+04 -4.192213E+05  3.753339E+03  4.162997E+04 -5.902151E+03 -1.822372E+04
       115   8  2.910791E+04 -5.019965E+05 -7.886448E+03  1.420026E+04 -3.250969E+03 -1.671076E+03
       115   9 -7.664638E+03 -5.943003E+05 -3.784444E+04  5.209546E+04 -2.721169E+02  1.487897E+04
       115  10 -5.901872E+04 -8.003030E+05 -8.770333E+04  5.229510E+04 -1.304956E-09  2.147588E-09
       115  11 -2.199648E+04 -7.079821E+05 -5.728368E+04  1.440134E+04  8.069126E-10  2.401208E-09
       115  12 -1.534733E+04 -6.252502E+05 -4.541326E+04  4.183376E+04  1.150148E-09 -2.940332E-09
       115  13 -1.172341E+04 -6.097790E+05 -4.197406E+04  4.696331E+04 -4.278482E-09  1.027729E-09
       115  14  3.556094E+03 -6.049942E+05 -3.258470E+04  1.430081E+04 -2.209181E-09 -3.495638E-09
       115  15 -1.150606E+04 -6.097755E+05 -4.162906E+04  4.696455E+04 -1.159161E-09  2.390871E-09
       115  16  3.556937E+04 -4.192217E+05  3.752649E+03  4.162989E+04 -4.026681E-09 -5.157963E-09
       115  17  2.910790E+04 -5.019965E+05 -7.886473E+03  1.420026E+04  3.104720E-09 -1.196557E-09
       115  18 -7.664697E+03 -5.943005E+05 -3.784486E+04  5.209546E+04  8.359106E-10 -5.353496E-10
       115  19 -5.901862E+04 -8.003027E+05 -8.770280E+04  5.229518E+04  5.905539E+03  1.569275E+04
       115  20 -2.199647E+04 -7.079821E+05 -5.728365E+04  1.440134E+04  3.254169E+03 -1.182461E+03
       115  21 -1.534724E+04 -6.252498E+05 -4.541264E+04  4.183375E+04  2.755973E+02 -1.805971E+04
       115  22 -1.172329E+04 -6.097787E+05 -4.197345E+04  4.696339E+04  5.903856E+03  1.695804E+04
       115  23  3.556105E+03 -6.049942E+05 -3.258468E+04  1.430081E+04  3.252569E+03  2.441895E+02
       115  24 -1.150598E+04 -6.097752E+05 -4.162855E+04  4.696454E+04  2.738439E+02 -1.646936E+04
       115  25  3.556950E+04 -4.192213E+05  3.753339E+03  4.162997E+04  5.902151E+03  1.822372E+04
       115  26  2.910791E+04 -5.019965E+05 -7.886448E+03  1.420026E+04  3.250969E+03  1.671076E+03
       115  27 -7.664638E+03 -5.943003E+05 -3.784444E+04  5.209546E+04  2.721169E+02 -1.487897E+04
       116   1  2.998273E+04 -5.138850E+05 -2.193992E+04  6.226193E+04  2.917423E+03  2.747596E+04
       116   2  6.365126E+04 -4.066803E+05 -2.100137E+04  3.788037E+03  6.130805E+03  5.970096E+04
       116   3 -4.509187E+04 -3.390294E+05 -7.659944E+04  1.028477E+04  2.300760E+03  9.192230E+04
       116   4  4.526601E+03 -6.165767E+05 -4.665495E+04  4.693578E+04  2.920268E+03  2.406171E+04
       116   5  1.654683E+04 -5.964995E+05 -6.645504E+04  1.437428E+04  6.131790E+03  5.982369E+04
       116   6 -1.144859E+05 -6.166157E+05 -1.452645E+05  4.678701E+04  2.301623E+03  9.557730E+04
       116   7 -2.092941E+04 -7.192583E+05 -7.137057E+04  3.161218E+04  2.923281E+03  2.064802E+04
       116   8 -3.055979E+04 -7.862854E+05 -1.119112E+05  2.495729E+04  6.132780E+03  5.994638E+04
       116   9 -1.838807E+05 -8.941292E+05 -2.139345E+05  8.327291E+04  2.302916E+03  9.923066E+04
       116  10  2.998252E+04 -5.138858E+05 -2.194135E+04  6.226187E+04  1.494288E-09  6.332288E-10
       116  11  6.365026E+04 -4.066841E+05 -2.100814E+04  3.787742E+03  1.471300E-09  4.587972E-09
       116  12 -4.509415E+04 -3.390384E+05 -7.661534E+04  1.028460E+04 -1.099698E-09 -1.173507E-09
       116  13  4.526436E+03 -6.165774E+05 -4.665606E+04  4.693573E+04 -1.788236E-09  2.456415E-09
       116  14  1.654583E+04 -5.965034E+05 -6.646184E+04  1.437399E+04 -2.117397E-09 -3.666530E-09
       116  15 -1.144883E+05 -6.166255E+05 -1.452817E+05  4.678683E+04  6.177398E-10  3.013280E-09
       116  16 -2.092953E+04 -7.192588E+05 -7.137138E+04  3.161213E+04 -1.069802E-09 -3.331576E-09
       116  17 -3.056080E+04 -7.862893E+05 -1.119180E+05  2.495699E+04  2.734003E-09 -2.875175E-09
       116  18 -1.838833E+05 -8.941397E+05 -2.139530E+05  8.327273E+04  1.973106E-09 -2.295929E-09
       116  19  2.998273E+04 -5.138850E+05 -2.193992E+04  6.226193E+04 -2.917423E+03 -2.747596E+04
       116  20  6.365126E+04 -4.066803E+05 -2.100137E+04  3.788037E+03 -6.130805E+03 -5.970096E+04
       116  21 -4.509187E+04 -3.390294E+05 -7.659944E+04  1.028477E+04 -2.300760E+03 -9.192230E+04
       116  22  4.526601E+03 -6.165767E+05 -4.665495E+04  4.693578E+04 -2.920268E+03 -2.406171E+04
       116  23  1.654683E+04 -5.964995E+05 -6.645504E+04  1.437428E+04 -6.131790E+03 -5.982369E+04
       116  24 -1.144859E+05 -6.166157E+05 -1.452645E+05  4.678701E+04 -2.301623E+03 -9.557730E+04
       116  25 -2.092941E+04 -7.192583E+05 -7.137057E+04  3.161218E+04 -2.923281E+03 -2.064802E+04
       116  26 -3.055979E+04 -7.862854E+05 -1.119112E+05  2.495729E+04 -6.132780E+03 -5.994638E+04
       116  27 -1.838807E+05 -8.941292E+05 -2.139345E+05  8.327291E+04 -2.302916E+03 -9.923066E+04
       117   1  4.849265E+05  1.670758E+05  1.006540E+05  1.794491E+05  4.753544E+04  1.630750E+04
       117   2  4.679656E+05  9.395706E+04  5.555011E+04  1.787082E+05  3.058633E+04  6.674738E+03
       117   3  4.696925E+05  8.497640E+04  3.985909E+04  1.694261E+05  1.244310E+04  2.095813E+02
       117   4  3.829555E+05  1.090426E+05  6.932850E+04  1.315545E+05  4.464849E+04  1.521679E+04
       117   5  3.701236E+05  5.119112E+04  2.942043E+04  1.456293E+05  2.976701E+04  6.365269E+03
       117   6  3.755737E+05  5.707306E+04  1.729082E+04  1.511618E+05  1.369100E+04  6.804931E+02
       117   7  2.809968E+05  5.101547E+04  3.800248E+04  8.366877E+04  4.176209E+04  1.412651E+04
       117   8  2.722915E+05  8.426951E+03  3.290013E+03  1.125554E+05  2.894783E+04  6.055874E+03
       117   9  2.814630E+05  2.916946E+04 -5.278164E+03  1.328996E+05  1.493869E+04  1.151367E+03
       117  10  4.849240E+05  1.670749E+05  1.006492E+05  1.794485E+05 -6.563513E-09  4.648344E-11
       117  11  4.679645E+05  9.395676E+04  5.554827E+04  1.787081E+05 -6.020221E-09  2.620029E-09
       117  12  4.696923E+05  8.497636E+04  3.985880E+04  1.694261E+05  3.818351E-09  4.492536E-09
       117  13  3.829533E+05  1.090418E+05  6.932432E+04  1.315539E+05 -5.892294E-10 -5.221024E-09
       117  14  3.701227E+05  5.119084E+04  2.941869E+04  1.456291E+05 -7.483780E-10  4.877505E-09
       117  15  3.755735E+05  5.707301E+04  1.729047E+04  1.511618E+05 -1.527311E-10 -2.526507E-09
       117  16  2.809949E+05  5.101479E+04  3.799882E+04  8.366830E+04  1.683814E-09  9.405174E-10
       117  17  2.722905E+05  8.426687E+03  3.288370E+03  1.125553E+05 -6.573189E-09 -6.597304E-09
       117  18  2.814628E+05  2.916940E+04 -5.278586E+03  1.328996E+05 -6.797871E-09 -8.010444E-09
       117  19  4.849265E+05  1.670758E+05  1.006540E+05  1.794491E+05 -4.753544E+04 -1.630750E+04
       117  20  4.679656E+05  9.395706E+04  5.555011E+04  1.787082E+05 -3.058633E+04 -6.674738E+03
       117  21  4.696925E+05  8.497640E+04  3.985909E+04  1.694261E+05 -1.244310E+04 -2.095813E+02
       117  22  3.829555E+05  1.090426E+05  6.932850E+04  1.315545E+05 -4.464849E+04 -1.521679E+04
       117  23  3.701236E+05  5.119112E+04  2.942043E+04  1.456293E+05 -2.976701E+04 -6.365269E+03
       117  24  3.755737E+05  5.707306E+04  1.729082E+04  1.511618E+05 -1.369100E+04 -6.804931E+02
       117  25  2.809968E+05  5.101547E+04  3.800248E+04  8.366877E+04 -4.176209E+04 -1.412651E+04
       117  26  2.722915E+05  8.426951E+03  3.290013E+03  1.125554E+05 -2.894783E+04 -6.055874E+03
       117  27  2.814630E+05  2.916946E+04 -5.278164E+03  1.328996E+05 -1.493869E+04 -1.151367E+03
       118   1  4.468737E+05  9.246281E+04  3.296135E+04  1.690455E+05  1.078170E+04  5.005302E+02
       118   2  4.354615E+05  7.909347E+04  2.246547E+04  1.626181E+05  6.930351E+03 -3.865445E+02
       118   3  4.206843E+05  7.642939E+04  1.605036E+04  1.615129E+05  3.013688E+03 -1.100342E+03
       118   4  3.733408E+05  6.344691E+04  1.391241E+04  1.473907E+05  1.104754E+04  6.007700E+02
       118   5  3.747261E+05  5.593251E+04  6.914900E+03  1.455499E+05  7.309562E+03 -2.434822E+02
       118   6  3.727240E+05  5.910119E+04  3.908725E+03  1.490312E+05  3.506199E+03 -9.144928E+02
       118   7  2.998133E+05  3.443152E+04 -5.136974E+03  1.257383E+05  1.131334E+04  7.009952E+02
       118   8  3.139944E+05  3.277187E+04 -8.635936E+03  1.284833E+05  7.688732E+03 -1.004361E+02
       118   9  3.247661E+05  4.177317E+04 -8.233038E+03  1.365504E+05  3.998666E+03 -7.286588E+02
       118  10  4.468735E+05  9.246277E+04  3.296113E+04  1.690455E+05  1.868095E-09  2.753930E-09
       118  11  4.354614E+05  7.909346E+04  2.246538E+04  1.626181E+05 -1.209197E-09  4.416058E-09
       118  12  4.206843E+05  7.642938E+04  1.605034E+04  1.615129E+05  1.613579E-09  6.674224E-09
       118  13  3.733407E+05  6.344687E+04  1.391218E+04  1.473907E+05  5.226388E-10 -8.009824E-10
       118  14  3.747260E+05  5.593250E+04  6.914800E+03  1.455499E+05 -4.914028E-10 -8.388579E-09
       118  15  3.727240E+05  5.910118E+04  3.908701E+03  1.490312E+05  3.909480E-09 -2.225386E-09
       118  16  2.998131E+05  3.443149E+04 -5.137216E+03  1.257383E+05  5.973926E-10 -4.320987E-09
       118  17  3.139944E+05  3.277185E+04 -8.636047E+03  1.284833E+05  3.302860E-09 -6.863252E-09
       118  18  3.247660E+05  4.177316E+04 -8.233069E+03  1.365504E+05  1.625726E-09  6.063605E-09
       118  19  4.468737E+05  9.246281E+04  3.296135E+04  1.690455E+05 -1.078170E+04 -5.005302E+02
       118  20  4.354615E+05  7.909347E+04  2.246547E+04  1.626181E+05 -6.930351E+03  3.865445E+02
       118  21  4.206843E+05  7.642939E+04  1.605036E+04  1.615129E+05 -3.013688E+03  1.100342E+03
       118  22  3.733408E+05  6.344691E+04  1.391241E+04  1.473907E+05 -1.104754E+04 -6.007700E+02
       118  23  3.747261E+05  5.593251E+04  6.914900E+03  1.455499E+05 -7.309562E+03  2.434822E+02
       118  24  3.727240E+05  5.910119E+04  3.908725E+03  1.490312E+05 -3.506199E+03  9.144928E+02
       118  25  2.998133E+05  3.443152E+04 -5.136974E+03  1.257383E+05 -1.131334E+04 -7.009952E+02
       118  26  3.139944E+05  3.277187E+04 -8.635936E+03  1.284833E+05 -7.688732E+03  1.004361E+02
       118  27  3.247661E+05  4.177317E+04 -8.233038E+03  1.365504E+05 -3.998666E+03  7.286588E+02
       119   1  4.058428E+05  7.219068E+04  1.148179E+04  1.579323E+05  2.354000E+03 -8.668224E+02
       119   2  3.950879E+05  6.384796E+04  6.690767E+03  1.510338E+05  1.279389E+03 -4.996171E+02
       119   3  3.789030E+05  6.163032E+04  2.622949E+03  1.505315E+05  2.013137E+02 -1.232823E+02
       119   4  3.724873E+05  5.961407E+04  3.013423E+03  1.486942E+05  2.792003E+03 -7.015347E+02
       119   5  3.751780E+05  5.637633E+04  1.616479E+03  1.455625E+05  1.723390E+03 -3.320560E+02
       119   6  3.724376E+05  5.926260E+04  9.381119E+02  1.488270E+05  6.512955E+02  4.654567E+01
       119   7  3.391328E+05  4.703748E+04 -5.455065E+03  1.394566E+05  3.229981E+03 -5.362561E+02
       119   8  3.552684E+05  4.890471E+04 -3.457852E+03  1.400913E+05  2.167376E+03 -1.645004E+02
       119   9  3.659723E+05  5.689489E+04 -7.467286E+02  1.471225E+05  1.101272E+03  2.163718E+02
       119  10  4.058428E+05  7.219067E+04  1.148178E+04  1.579323E+05  5.217778E-09  2.754620E-09
       119  11  3.950879E+05  6.384796E+04  6.690763E+03  1.510338E+05 -3.163223E-09 -7.184140E-10
       119  12  3.789030E+05  6.163032E+04  2.622949E+03  1.505315E+05 -4.414290E-09 -4.587869E-09
       119  13  3.724873E+05  5.961406E+04  3.013408E+03  1.486942E+05  4.621175E-09  1.057409E-09
       119  14  3.751780E+05  5.637633E+04  1.616473E+03  1.455625E+05  1.542958E-09  5.082267E-09
       119  15  3.724376E+05  5.926260E+04  9.381111E+02  1.488270E+05 -1.806427E-09 -7.218456E-09
       119  16  3.391328E+05  4.703748E+04 -5.455085E+03  1.394566E+05 -3.906638E-09  6.537086E-10
       119  17  3.552684E+05  4.890471E+04 -3.457861E+03  1.400913E+05 -1.876008E-09 -1.222210E-09
       119  18  3.659723E+05  5.689489E+04 -7.467309E+02  1.471225E+05  3.823252E-09  1.754564E-09
       119  19  4.058428E+05  7.219068E+04  1.148179E+04  1.579323E+05 -2.354000E+03  8.668224E+02
       119  20  3.950879E+05  6.384796E+04  6.690767E+03  1.510338E+05 -1.279389E+03  4.996171E+02
       119  21  3.789030E+05  6.163032E+04  2.622949E+03  1.505315E+05 -2.013137E+02  1.232823E+02
       119  22  3.724873E+05  5.961407E+04  3.013423E+03  1.486942E+05 -2.792003E+03  7.015347E+02
       119  23  3.751780E+05  5.637633E+04  1.616479E+03  1.455625E+05 -1.723390E+03  3.320560E+02
       119  24  3.724376E+05  5.926260E+04  9.381119E+02  1.488270E+05 -6.512955E+02 -4.654567E+01
       119  25  3.391328E+05  4.703748E+04 -5.455065E+03  1.394566E+05 -3.229981E+03  5.362561E+02
       119  26  3.552684E+05  4.890471E+04 -3.457852E+03  1.400913E+05 -2.167376E+03  1.645004E+02
       119  27  3.659723E+05  5.689489E+04 -7.467286E+02  1.471225E+05 -1.101272E+03 -2.163718E+02
       120   1  3.647961E+05  5.643074E+04 -1.247838E+03  1.467031E+05 -8.517989E+01  2.263586E+02
       120   2  3.541220E+05  4.849320E+04 -4.879615E+03  1.397596E+05 -5.946243E+02  8.179581E+02
       120   3  3.378012E+05  4.629462E+04 -8.314382E+03  1.392889E+05 -1.104385E+03  1.410523E+03
       120   4  3.724073E+05  5.930118E+04  7.424847E+02  1.487971E+05  3.618845E+02  3.950848E+02
       120   5  3.752290E+05  5.641953E+04  5.006458E+02  1.455654E+05 -1.469447E+02  9.869060E+02
       120   6  3.724037E+05  5.927668E+04  4.553485E+02  1.488063E+05 -6.560975E+02  1.579692E+03
       120   7  3.800186E+05  6.217162E+04  2.732796E+03  1.508911E+05  8.089533E+02  5.638127E+02
       120   8  3.963364E+05  6.434589E+04  5.880872E+03  1.513713E+05  3.007516E+02  1.155860E+03
       120   9  4.070075E+05  7.225887E+04  9.225019E+03  1.583242E+05 -2.077813E+02  1.748872E+03
       120  10  3.647961E+05  5.643074E+04 -1.247839E+03  1.467031E+05 -2.561148E-10 -3.037171E-09
       120  11  3.541220E+05  4.849319E+04 -4.879617E+03  1.397596E+05  7.274074E-09 -4.358905E-10
       120  12  3.378012E+05  4.629462E+04 -8.314388E+03  1.392889E+05  6.928366E-09 -2.158265E-09
       120  13  3.724073E+05  5.930118E+04  7.424841E+02  1.487971E+05  1.597861E-09 -2.870605E-09
       120  14  3.752290E+05  5.641953E+04  5.006440E+02  1.455654E+05  5.217118E-09  1.654101E-09
       120  15  3.724037E+05  5.927668E+04  4.553430E+02  1.488063E+05  3.009396E-09 -5.327404E-09
       120  16  3.800186E+05  6.217162E+04  2.732794E+03  1.508911E+05  5.231289E-09  3.943871E-09
       120  17  3.963364E+05  6.434589E+04  5.880869E+03  1.513713E+05  7.605275E-09 -3.941232E-09
       120  18  4.070075E+05  7.225887E+04  9.225013E+03  1.583242E+05  3.125556E-09 -9.062716E-10
       120  19  3.647961E+05  5.643074E+04 -1.247838E+03  1.467031E+05  8.517989E+01 -2.263586E+02
       120  20  3.541220E+05  4.849320E+04 -4.879615E+03  1.397596E+05  5.946243E+02 -8.179581E+02
       120  21  3.378012E+05  4.629462E+04 -8.314382E+03  1.392889E+05  1.104385E+03 -1.410523E+03
       120  22  3.724073E+05  5.930118E+04  7.424847E+02  1.487971E+05 -3.618845E+02 -3.950848E+02
       120  23  3.752290E+05  5.641953E+04  5.006458E+02  1.455654E+05  1.469447E+02 -9.869060E+02
       120  24  3.724037E+05  5.927668E+04  4.553485E+02  1.488063E+05  6.560975E+02 -1.579692E+03
       120  25  3.800186E+05  6.217162E+04  2.732796E+03  1.508911E+05 -8.089533E+02 -5.638127E+02
       120  26  3.963364E+05  6.434589E+04  5.880872E+03  1.513713E+05 -3.007516E+02 -1.155860E+03
       120  27  4.070075E+05  7.225887E+04  9.225019E+03  1.583242E+05  2.077813E+02 -1.748872E+03
       121   1  3.237337E+05  4.101463E+04 -1.196130E+04  1.354509E+05 -1.334553E+03  1.781116E+03
       121   2  3.130123E+05  3.306889E+04 -1.515527E+04  1.284703E+05 -1.944113E+03  2.337888E+03
       121   3  2.966492E+05  3.090801E+04 -1.807124E+04  1.279870E+05 -2.553776E+03  2.895248E+03
       121   4  3.724036E+05  5.928034E+04  4.911387E+02  1.488141E+05 -8.857075E+02  1.950484E+03
       121   5  3.752272E+05  5.640822E+04  6.994914E+02  1.455578E+05 -1.494940E+03  2.507351E+03
       121   6  3.724089E+05  5.932082E+04  1.185545E+03  1.487986E+05 -2.104284E+03  3.064804E+03
       121   7  4.210757E+05  7.754620E+04  1.294339E+04  1.621782E+05 -4.368233E+02  2.119867E+03
       121   8  4.374458E+05  7.974776E+04  1.655390E+04  1.626467E+05 -1.045719E+03  2.676832E+03
       121   9  4.481739E+05  8.773390E+04  2.044179E+04  1.696124E+05 -1.654734E+03  3.234381E+03
       121  10  3.237337E+05  4.101463E+04 -1.196131E+04  1.354509E+05  2.397323E-09 -7.604309E-10
       121  11  3.130123E+05  3.306888E+04 -1.515529E+04  1.284704E+05 -3.832185E-09  6.131164E-09
       121  12  2.966492E+05  3.090800E+04 -1.807127E+04  1.279870E+05 -7.651090E-10 -1.211562E-09
       121  13  3.724036E+05  5.928034E+04  4.911301E+02  1.488141E+05  3.718792E-09 -5.266595E-09
       121  14  3.752272E+05  5.640821E+04  6.994754E+02  1.455578E+05  6.520187E-10 -7.485580E-09
       121  15  3.724089E+05  5.932081E+04  1.185519E+03  1.487986E+05  1.854252E-09 -6.354245E-09
       121  16  4.210757E+05  7.754620E+04  1.294338E+04  1.621782E+05  1.184411E-10  5.427960E-09
       121  17  4.374458E+05  7.974775E+04  1.655389E+04  1.626467E+05  3.257633E-09  1.095382E-09
       121  18  4.481739E+05  8.773389E+04  2.044177E+04  1.696124E+05  1.037482E-09  6.006768E-09
       121  19  3.237337E+05  4.101463E+04 -1.196130E+04  1.354509E+05  1.334553E+03 -1.781116E+03
       121  20  3.130123E+05  3.306889E+04 -1.515527E+04  1.284703E+05  1.944113E+03 -2.337888E+03
       121  21  2.966492E+05  3.090801E+04 -1.807124E+04  1.279870E+05  2.553776E+03 -2.895248E+03
       121  22  3.724036E+05  5.928034E+04  4.911387E+02  1.488141E+05  8.857075E+02 -1.950484E+03
       121  23  3.752272E+05  5.640822E+04  6.994914E+02  1.455578E+05  1.494940E+03 -2.507351E+03
       121  24  3.724089E+05  5.932082E+04  1.185545E+03  1.487986E+05  2.104284E+03 -3.064804E+03
       121  25  4.210757E+05  7.754620E+04  1.294339E+04  1.621782E+05  4.368233E+02 -2.119867E+03
       121  26  4.374458E+05  7.974776E+04  1.655390E+04  1.626467E+05  1.045719E+03 -2.676832E+03
       121  27  4.481739E+05  8.773390E+04  2.044179E+04  1.696124E+05  1.654734E+03 -3.234381E+03
       122   1  2.824768E+05  2.560668E+04 -2.141675E+04  1.242602E+05 -2.936744E+03  3.213000E+03
       122   2  2.716026E+05  1.746824E+04 -2.365396E+04  1.170945E+05 -4.564820E+03  3.389119E+03
       122   3  2.554292E+05  1.582163E+04 -2.467760E+04  1.163482E+05 -6.187464E+03  3.551272E+03
       122   4  3.724544E+05  5.926492E+04  1.543412E+03  1.488615E+05 -2.481241E+03  3.384799E+03
       122   5  3.751451E+05  5.631794E+04  2.734820E+03  1.455385E+05 -4.118668E+03  3.557344E+03
       122   6  3.725386E+05  5.986463E+04  5.147138E+03  1.486348E+05 -5.750694E+03  3.715913E+03
       122   7  4.624402E+05  9.292380E+04  2.450302E+04  1.734662E+05 -2.025664E+03  3.556626E+03
       122   8  4.786983E+05  9.516843E+04  2.912279E+04  1.739868E+05 -3.672435E+03  3.725601E+03
       122   9  4.896614E+05  1.039086E+05  3.497077E+04  1.809270E+05 -5.313834E+03  3.880589E+03
       122  10  2.824768E+05  2.560667E+04 -2.141679E+04  1.242602E+05 -2.652233E-09 -1.806611E-09
       122  11  2.716025E+05  1.746822E+04 -2.365402E+04  1.170945E+05 -4.435131E-09  2.118127E-09
       122  12  2.554292E+05  1.582160E+04 -2.467769E+04  1.163482E+05 -2.212187E-09 -2.219069E-09
       122  13  3.724544E+05  5.926490E+04  1.543379E+03  1.488615E+05 -7.784144E-10 -4.803175E-09
       122  14  3.751451E+05  5.631793E+04  2.734764E+03  1.455385E+05 -9.111978E-09 -6.493663E-09
       122  15  3.725386E+05  5.986461E+04  5.147050E+03  1.486349E+05  6.206631E-10  5.788213E-09
       122  16  4.624402E+05  9.292378E+04  2.450298E+04  1.734662E+05 -2.321581E-09  5.629181E-09
       122  17  4.786983E+05  9.516841E+04  2.912274E+04  1.739868E+05 -7.660836E-09  1.123388E-08
       122  18  4.896613E+05  1.039085E+05  3.497069E+04  1.809270E+05 -4.212462E-09  3.905518E-09
       122  19  2.824768E+05  2.560668E+04 -2.141675E+04  1.242602E+05  2.936744E+03 -3.213000E+03
       122  20  2.716026E+05  1.746824E+04 -2.365396E+04  1.170945E+05  4.564820E+03 -3.389119E+03
       122  21  2.554292E+05  1.582163E+04 -2.467760E+04  1.163482E+05  6.187464E+03 -3.551272E+03
       122  22  3.724544E+05  5.926492E+04  1.543412E+03  1.488615E+05  2.481241E+03 -3.384799E+03
       122  23  3.751451E+05  5.631794E+04  2.734820E+03  1.455385E+05  4.118668E+03 -3.557344E+03
       122  24  3.725386E+05  5.986463E+04  5.147138E+03  1.486348E+05  5.750694E+03 -3.715913E+03
       122  25  4.624402E+05  9.292380E+04  2.450302E+04  1.734662E+05  2.025664E+03 -3.556626E+03
       122  26  4.786983E+05  9.516843E+04  2.912279E+04  1.739868E+05  3.672435E+03 -3.725601E+03
       122  27  4.896614E+05  1.039086E+05  3.497077E+04  1.809270E+05  5.313834E+03 -3.880589E+03
       123   1  2.406302E+05  1.051073E+04 -2.685745E+04  1.140777E+05 -7.396556E+03  3.602277E+03
       123   2  2.295777E+05  6.010033E+02 -2.517749E+04  1.050998E+05 -1.354066E+04  2.048098E+03
       123   3  2.166738E+05  4.998999E+03 -1.680360E+04  1.007398E+05 -1.957421E+04  2.014782E+02
       123   4  3.729401E+05  5.899245E+04  6.687809E+03  1.492208E+05 -6.866665E+03  3.802012E+03
       123   5  3.743748E+05  5.554590E+04  1.184683E+04  1.455067E+05 -1.320286E+04  2.175312E+03
       123   6  3.739952E+05  6.644352E+04  2.385072E+04  1.464102E+05 -1.942867E+04  2.561076E+02
       123   7  5.052665E+05  1.074749E+05  4.023153E+04  1.843704E+05 -6.336653E+03  4.001789E+03
       123   8  5.191924E+05  1.104923E+05  4.886944E+04  1.859221E+05 -1.286498E+04  2.302559E+03
       123   9  5.313414E+05  1.278904E+05  6.450314E+04  1.920915E+05 -1.928308E+04  3.107540E+02
       123  10  2.406302E+05  1.051070E+04 -2.685758E+04  1.140777E+05 -1.879429E-09 -1.723813E-09
       123  11  2.295775E+05  6.009495E+02 -2.517784E+04  1.050999E+05  3.893858E-09  2.850916E-09
       123  12  2.166734E+05  4.998896E+03 -1.680432E+04  1.007398E+05  5.813531E-09 -1.739248E-10
       123  13  3.729400E+05  5.899243E+04  6.687693E+03  1.492208E+05 -1.877869E-09 -5.855158E-09
       123  14  3.743746E+05  5.554585E+04  1.184649E+04  1.455067E+05 -2.721220E-09  5.780356E-10
       123  15  3.739948E+05  6.644342E+04  2.385001E+04  1.464102E+05  3.110812E-09  2.382016E-09
       123  16  5.052665E+05  1.074749E+05  4.023143E+04  1.843704E+05 -3.380963E-09  5.497236E-09
       123  17  5.191922E+05  1.104922E+05  4.886911E+04  1.859221E+05 -2.699273E-09  4.020566E-09
       123  18  5.313410E+05  1.278903E+05  6.450244E+04  1.920915E+05 -2.263699E-09 -1.983014E-09
       123  19  2.406302E+05  1.051073E+04 -2.685745E+04  1.140777E+05  7.396556E+03 -3.602277E+03
       123  20  2.295777E+05  6.010033E+02 -2.517749E+04  1.050998E+05  1.354066E+04 -2.048098E+03
       123  21  2.166738E+05  4.998999E+03 -1.680360E+04  1.007398E+05  1.957421E+04 -2.014782E+02
       123  22  3.729401E+05  5.899245E+04  6.687809E+03  1.492208E+05  6.866665E+03 -3.802012E+03
       123  23  3.743748E+05  5.554590E+04  1.184683E+04  1.455067E+05  1.320286E+04 -2.175312E+03
       123  24  3.739952E+05  6.644352E+04  2.385072E+04  1.464102E+05  1.942867E+04 -2.561076E+02
       123  25  5.052665E+05  1.074749E+05  4.023153E+04  1.843704E+05  6.336653E+03 -4.001789E+03
       123  26  5.191924E+05  1.104923E+05  4.886944E+04  1.859221E+05  1.286498E+04 -2.302559E+03
       123  27  5.313414E+05  1.278904E+05  6.450314E+04  1.920915E+05  1.928308E+04 -3.107540E+02
       124   1  1.950046E+05 -3.453866E+02 -1.448358E+04  1.157130E+05 -2.566481E+04 -8.476255E+02
       124   2  1.866464E+05 -3.038913E+04  2.568075E+03  8.566116E+04 -4.954529E+04 -9.730763E+03
       124   3  2.129185E+05  4.423793E+04  6.448661E+04  3.649297E+04 -7.140286E+04 -2.398184E+04
       124   4  3.778260E+05  5.551452E+04  2.964522E+04  1.528749E+05 -2.385358E+04 -1.646109E+02
       124   5  3.664858E+05  4.741049E+04  5.044337E+04  1.456383E+05 -5.124192E+04 -1.037118E+04
       124   6  3.904571E+05  1.446510E+05  1.188772E+05  1.192890E+05 -7.660753E+04 -2.594701E+04
       124   7  5.606804E+05  1.113744E+05  7.377181E+04  1.900456E+05 -2.204176E+04  5.185327E+02
       124   8  5.463560E+05  1.252149E+05  9.831556E+04  2.056318E+05 -5.293908E+04 -1.101186E+04
       124   9  5.680268E+05  2.450786E+05  1.732642E+05  2.021091E+05 -8.181375E+04 -2.791346E+04
       124  10  1.950039E+05 -3.455641E+02 -1.448481E+04  1.157130E+05  1.819365E-10  8.445181E-11
       124  11  1.866437E+05 -3.038989E+04  2.563286E+03  8.566077E+04 -3.435333E-09 -4.712666E-09
       124  12  2.129128E+05  4.423595E+04  6.447595E+04  3.649159E+04 -2.340156E-09 -1.351500E-09
       124  13  3.778253E+05  5.551437E+04  2.964415E+04  1.528749E+05  5.451627E-10 -2.407655E-09
       124  14  3.664829E+05  4.740967E+04  5.043823E+04  1.456378E+05 -6.045684E-09  4.903207E-10
       124  15  3.904507E+05  1.446487E+05  1.188649E+05  1.192874E+05 -2.151671E-09  1.221721E-09
       124  16  5.606799E+05  1.113742E+05  7.377090E+04  1.900456E+05 -8.130596E-10 -7.337558E-11
       124  17  5.463530E+05  1.252140E+05  9.831007E+04  2.056313E+05 -6.197039E-09 -3.508754E-10
       124  18  5.680194E+05  2.450760E+05  1.732502E+05  2.021073E+05 -4.702724E-09 -2.667263E-09
       124  19  1.950046E+05 -3.453866E+02 -1.448358E+04  1.157130E+05  2.566481E+04  8.476255E+02
       124  20  1.866464E+05 -3.038913E+04  2.568075E+03  8.566116E+04  4.954529E+04  9.730763E+03
       124  21  2.129185E+05  4.423793E+04  6.448661E+04  3.649297E+04  7.140286E+04  2.398184E+04
       124  22  3.778260E+05  5.551452E+04  2.964522E+04  1.528749E+05  2.385358E+04  1.646109E+02
       124  23  3.664858E+05  4.741049E+04  5.044337E+04  1.456383E+05  5.124192E+04  1.037118E+04
       124  24  3.904571E+05  1.446510E+05  1.188772E+05  1.192890E+05  7.660753E+04  2.594701E+04
       124  25  5.606804E+05  1.113744E+05  7.377181E+04  1.900456E+05  2.204176E+04 -5.185327E+02
       124  26  5.463560E+05  1.252149E+05  9.831556E+04  2.056318E+05  5.293908E+04  1.101186E+04
       124  27  5.680268E+05  2.450786E+05  1.732642E+05  2.021091E+05  8.181375E+04  2.791346E+04
       125   1 -2.575300E+02 -5.010453E+05 -2.423668E+03 -1.634431E+02 -5.394027E+01  1.747393E+02
       125   2 -6.135588E+02 -5.026649E+05 -3.341960E+03  3.065466E+02 -1.055373E+02  1.497675E+03
       125   3 -1.607641E+03 -5.046204E+05 -5.282421E+03 -3.452845E+02 -1.830921E+02  2.820588E+03
       125   4 -1.056408E+01 -5.000425E+05 -2.193725E+03 -2.491033E+02 -5.397206E+01  1.967524E+02
       125   5  7.662227E+01 -4.998733E+05 -2.684065E+03  3.114705E+02 -1.055914E+02  1.535258E+03
       125   6 -4.769400E+02 -5.000428E+05 -4.207382E+03 -2.497749E+02 -1.831681E+02  2.873745E+03
       125   7  2.364018E+02 -4.990396E+05 -1.963782E+03 -3.347637E+02 -5.400385E+01  2.187655E+02
       125   8  7.668028E+02 -4.970817E+05 -2.026170E+03  3.163945E+02 -1.056456E+02  1.572841E+03
       125   9  6.537593E+02 -4.954652E+05 -3.132345E+03 -1.542646E+02 -1.832441E+02  2.926902E+03
       125  10 -2.575300E+02 -5.010453E+05 -2.423668E+03 -1.634431E+02  2.225012E-09  2.069956E-09
       125  11 -6.135594E+02 -5.026649E+05 -3.341964E+03  3.065467E+02 -4.050976E-09  7.166785E-10
       125  12 -1.607643E+03 -5.046204E+05 -5.282436E+03 -3.452840E+02 -3.544798E-09 -2.859324E-09
       125  13 -1.056409E+01 -5.000425E+05 -2.193725E+03 -2.491033E+02 -1.178617E-09  2.171423E-09
       125  14  7.662163E+01 -4.998733E+05 -2.684069E+03  3.114707E+02 -1.445712E-09 -1.564921E-09
       125  15 -4.769422E+02 -5.000428E+05 -4.207398E+03 -2.497745E+02 -2.727674E-09  2.147322E-09
       125  16  2.364018E+02 -4.990396E+05 -1.963782E+03 -3.347637E+02  6.504529E-09 -1.533976E-09
       125  17  7.668021E+02 -4.970817E+05 -2.026175E+03  3.163946E+02  3.916858E-09 -5.075848E-09
       125  18  6.537570E+02 -4.954652E+05 -3.132361E+03 -1.542642E+02 -1.347571E-09  1.859271E-09
       125  19 -2.575300E+02 -5.010453E+05 -2.423668E+03 -1.634431E+02  5.394027E+01 -1.747393E+02
       125  20 -6.135588E+02 -5.026649E+05 -3.341960E+03  3.065466E+02  1.055373E+02 -1.497675E+03
       125  21 -1.607641E+03 -5.046204E+05 -5.282421E+03 -3.452845E+02  1.830921E+02 -2.820588E+03
       125  22 -1.056408E+01 -5.000425E+05 -2.193725E+03 -2.491033E+02  5.397206E+01 -1.967524E+02
       125  23  7.662227E+01 -4.998733E+05 -2.684065E+03  3.114705E+02  1.055914E+02 -1.535258E+03
       125  24 -4.769400E+02 -5.000428E+05 -4.207382E+03 -2.497749E+02  1.831681E+02 -2.873745E+03
       125  25  2.364018E+02 -4.990396E+05 -1.963782E+03 -3.347637E+02  5.400385E+01 -2.187655E+02
       125  26  7.668028E+02 -4.970817E+05 -2.026170E+03  3.163945E+02  1.056456E+02 -1.572841E+03
       125  27  6.537593E+02 -4.954652E+05 -3.132345E+03 -1.542646E+02  1.832441E+02 -2.926902E+03
       126   1 -1.333998E+03 -5.070319E+05 -6.806993E+03  6.024023E+02 -2.371791E+02  3.656286E+03
       126   2 -1.417122E+03 -5.077194E+05 -1.063035E+04 -1.150558E+02 -3.190076E+02  8.077715E+03
       126   3 -7.940769E+03 -5.105975E+05 -1.894491E+04 -1.954468E+03 -3.793354E+02  1.249915E+04
       126   4  2.964259E+02 -5.004536E+05 -5.251472E+03 -2.468495E+02 -2.372583E+02  3.708017E+03
       126   5  6.482117E+02 -4.993606E+05 -8.659841E+03  3.100239E+02 -3.190574E+02  8.116596E+03
       126   6 -5.438248E+03 -5.004558E+05 -1.655043E+04 -2.550576E+02 -3.793378E+02  1.252519E+04
       126   7  1.926850E+03 -4.938752E+05 -3.695954E+03 -1.096110E+03 -2.373377E+02  3.759748E+03
       126   8  2.713541E+03 -4.910016E+05 -6.689338E+03  7.351095E+02 -3.191071E+02  8.155478E+03
       126   9 -2.935722E+03 -4.903140E+05 -1.415597E+04  1.444381E+03 -3.793401E+02  1.255123E+04
       126  10 -1.334002E+03 -5.070319E+05 -6.807018E+03  6.024030E+02 -2.567589E-09 -3.065066E-09
       126  11 -1.417139E+03 -5.077195E+05 -1.063047E+04 -1.150537E+02  2.415027E-09 -7.133256E-09
       126  12 -7.940811E+03 -5.105977E+05 -1.894520E+04 -1.954464E+03  8.534552E-12 -6.805493E-09
       126  13  2.964221E+02 -5.004536E+05 -5.251498E+03 -2.468488E+02 -2.231313E-09  1.075095E-09
       126  14  6.481939E+02 -4.993606E+05 -8.659965E+03  3.100260E+02 -5.694031E-09 -6.288567E-10
       126  15 -5.438290E+03 -5.004560E+05 -1.655073E+04 -2.550538E+02 -7.943376E-10 -1.393424E-09
       126  16  1.926846E+03 -4.938752E+05 -3.695980E+03 -1.096110E+03 -1.842357E-09  4.149797E-09
       126  17  2.713523E+03 -4.910017E+05 -6.689463E+03  7.351116E+02 -4.440269E-09  3.740107E-09
       126  18 -2.935765E+03 -4.903142E+05 -1.415626E+04  1.444384E+03 -3.004699E-09  7.333039E-09
       126  19 -1.333998E+03 -5.070319E+05 -6.806993E+03  6.024023E+02  2.371791E+02 -3.656286E+03
       126  20 -1.417122E+03 -5.077194E+05 -1.063035E+04 -1.150558E+02  3.190076E+02 -8.077715E+03
       126  21 -7.940769E+03 -5.105975E+05 -1.894491E+04 -1.954468E+03  3.793354E+02 -1.249915E+04
       126  22  2.964259E+02 -5.004536E+05 -5.251472E+03 -2.468495E+02  2.372583E+02 -3.708017E+03
       126  23  6.482117E+02 -4.993606E+05 -8.659841E+03  3.100239E+02  3.190574E+02 -8.116596E+03
       126  24 -5.438248E+03 -5.004558E+05 -1.655043E+04 -2.550576E+02  3.793378E+02 -1.252519E+04
       126  25  1.926850E+03 -4.938752E+05 -3.695954E+03 -1.096110E+03  2.373377E+02 -3.759748E+03
       126  26  2.713541E+03 -4.910016E+05 -6.689338E+03  7.351095E+02  3.191071E+02 -8.155478E+03
       126  27 -2.935722E+03 -4.903140E+05 -1.415597E+04  1.444381E+03  3.793401E+02 -1.255123E+04
       127   1  2.237394E+02 -5.164671E+05 -2.321951E+04  8.274964E+03 -4.795325E+02  1.547859E+04
       127   2  3.225077E+03 -5.083692E+05 -3.629686E+04 -6.201733E+03 -5.508854E+02  3.345132E+04
       127   3 -6.366948E+04 -5.200945E+05 -7.855626E+04 -2.184200E+04 -2.430799E+02  5.142435E+04
       127   4  3.246044E+03 -5.043626E+05 -2.036432E+04 -2.320904E+02 -4.799454E+02  1.561984E+04
       127   5  6.637257E+03 -4.944783E+05 -3.302327E+04  3.053220E+02 -5.504105E+02  3.336505E+04
       127   6 -5.982790E+04 -5.043777E+05 -7.470582E+04 -3.213622E+02 -2.408510E+02  5.111061E+04
       127   7  6.268609E+03 -4.922577E+05 -1.750911E+04 -8.739312E+03 -4.803622E+02  1.576108E+04
       127   8  1.004958E+04 -4.805871E+05 -2.974966E+04  6.812523E+03 -5.499374E+02  3.327876E+04
       127   9 -5.598460E+04 -4.886596E+05 -7.085515E+04  2.119982E+04 -2.386438E+02  5.079686E+04
       127  10  2.236747E+02 -5.164674E+05 -2.321996E+04  8.274970E+03 -3.460423E-09  6.472416E-09
       127  11  3.224776E+03 -5.083704E+05 -3.629896E+04 -6.201718E+03 -2.880414E-09  6.549031E-09
       127  12 -6.367019E+04 -5.200974E+05 -7.856123E+04 -2.184199E+04 -1.450079E-10  1.036645E-09
       127  13  3.245978E+03 -5.043628E+05 -2.036478E+04 -2.320844E+02  1.195194E-09 -1.046451E-09
       127  14  6.636958E+03 -4.944795E+05 -3.302536E+04  3.053368E+02 -3.522928E-09 -1.170774E-09
       127  15 -5.982860E+04 -5.043805E+05 -7.471074E+04 -3.213523E+02  3.314745E-09 -6.790085E-10
       127  16  6.268542E+03 -4.922580E+05 -1.750958E+04 -8.739306E+03 -8.213588E-10 -9.185159E-09
       127  17  1.004929E+04 -4.805883E+05 -2.975175E+04  6.812538E+03  2.921613E-09 -8.390515E-09
       127  18 -5.598529E+04 -4.886624E+05 -7.086001E+04  2.119983E+04  1.670970E-09 -4.973601E-10
       127  19  2.237394E+02 -5.164671E+05 -2.321951E+04  8.274964E+03  4.795325E+02 -1.547859E+04
       127  20  3.225077E+03 -5.083692E+05 -3.629686E+04 -6.201733E+03  5.508854E+02 -3.345132E+04
       127  21 -6.366948E+04 -5.200945E+05 -7.855626E+04 -2.184200E+04  2.430799E+02 -5.142435E+04
       127  22  3.246044E+03 -5.043626E+05 -2.036432E+04 -2.320904E+02  4.799454E+02 -1.561984E+04
       127  23  6.637257E+03 -4.944783E+05 -3.302327E+04  3.053220E+02  5.504105E+02 -3.336505E+04
       127  24 -5.982790E+04 -5.043777E+05 -7.470582E+04 -3.213622E+02  2.408510E+02 -5.111061E+04
       127  25  6.268609E+03 -4.922577E+05 -1.750911E+04 -8.739312E+03  4.803622E+02 -1.576108E+04
       127  26  1.004958E+04 -4.805871E+05 -2.974966E+04  6.812523E+03  5.499374E+02 -3.327876E+04
       127  27 -5.598460E+04 -4.886596E+05 -7.085515E+04  2.119982E+04  2.386438E+02 -5.079686E+04
       128   1 -6.260156E+06 -1.986288E+06 -9.912968E+05 -2.272483E+06 -3.673741E+05 -8.412917E+04
       128   2 -6.085985E+06 -1.719230E+06 -7.123648E+05 -2.208563E+06 -2.421775E+05  9.322691E+04
       128   3 -5.948481E+06 -1.603584E+06 -5.921289E+05 -2.153169E+06 -8.508971E+04  1.872081E+05
       128   4 -3.220492E+06 -7.439845E+05 -1.829109E+05 -1.343544E+06 -1.363294E+05  3.707655E+03
       128   5 -3.204224E+06 -6.101251E+05 -8.416160E+04 -1.365965E+06 -1.353053E+05  1.337223E+05
       128   6 -3.199544E+06 -6.025410E+05 -4.459799E+04 -1.396981E+06 -1.025333E+05  1.805026E+05
       128   7 -1.716751E+05  4.993707E+05  6.248767E+05 -4.102751E+05  9.596350E+04  9.210299E+04
       128   8 -3.139068E+05  4.998551E+05  5.435927E+05 -5.196569E+05 -2.789219E+04  1.744401E+05
       128   9 -4.426899E+05  3.991551E+05  5.025853E+05 -6.376651E+05 -1.200610E+05  1.737663E+05
       128  10 -6.260304E+06 -1.986332E+06 -9.915667E+05 -2.272508E+06  6.250843E-09  2.714776E-09
       128  11 -6.086050E+06 -1.719255E+06 -7.124920E+05 -2.208545E+06 -3.928513E-10 -1.293142E-09
       128  12 -5.948498E+06 -1.603623E+06 -5.922082E+05 -2.153156E+06 -2.293903E-09 -1.896747E-10
       128  13 -3.220512E+06 -7.439895E+05 -1.829460E+05 -1.343543E+06  3.635762E-10 -1.187806E-09
       128  14 -3.204248E+06 -6.101492E+05 -8.422957E+04 -1.365950E+06  4.031485E-09 -1.142950E-09
       128  15 -3.199564E+06 -6.025787E+05 -4.467884E+04 -1.396966E+06  3.627693E-10 -3.098647E-09
       128  16 -1.716872E+05  4.993591E+05  6.248435E+05 -4.102822E+05 -3.223825E-09 -5.344706E-09
       128  17 -3.139158E+05  4.998223E+05  5.435341E+05 -5.196530E+05 -1.757099E-10 -8.032535E-09
       128  18 -4.427134E+05  3.991189E+05  5.025016E+05 -6.376483E+05  3.511704E-09 -4.021193E-09
       128  19 -6.260156E+06 -1.986288E+06 -9.912968E+05 -2.272483E+06  3.673741E+05  8.412917E+04
       128  20 -6.085985E+06 -1.719230E+06 -7.123648E+05 -2.208563E+06  2.421775E+05 -9.322691E+04
       128  21 -5.948481E+06 -1.603584E+06 -5.921289E+05 -2.153169E+06  8.508971E+04 -1.872081E+05
       128  22 -3.220492E+06 -7.439845E+05 -1.829109E+05 -1.343544E+06  1.363294E+05 -3.707655E+03
       128  23 -3.204224E+06 -6.101251E+05 -8.416160E+04 -1.365965E+06  1.353053E+05 -1.337223E+05
       128  24 -3.199544E+06 -6.025410E+05 -4.459799E+04 -1.396981E+06  1.025333E+05 -1.805026E+05
       128  25 -1.716751E+05  4.993707E+05  6.248767E+05 -4.102751E+05 -9.596350E+04 -9.210299E+04
       128  26 -3.139068E+05  4.998551E+05  5.435927E+05 -5.196569E+05  2.789219E+04 -1.744401E+05
       128  27 -4.426899E+05  3.991551E+05  5.025853E+05 -6.376651E+05  1.200610E+05 -1.737663E+05
       129   1 -5.805916E+06 -1.571202E+06 -5.544032E+05 -2.126431E+06 -9.158404E+04  1.764556E+05
       129   2 -5.636551E+06 -1.476354E+06 -4.922992E+05 -2.054985E+06 -7.124562E+04  1.782302E+05
       129   3 -5.436479E+06 -1.422083E+06 -4.453215E+05 -2.021520E+06 -4.856238E+04  1.737546E+05
       129   4 -3.193099E+06 -6.072124E+05 -3.393981E+04 -1.394288E+06 -9.470692E+04  1.751862E+05
       129   5 -3.208727E+06 -5.845683E+05 -1.802778E+04 -1.376465E+06 -8.365230E+04  1.734611E+05
       129   6 -3.191817E+06 -6.006217E+05 -9.799078E+03 -1.396626E+06 -7.026396E+04  1.654969E+05
       129   7 -5.731539E+05  3.574060E+05  4.862002E+05 -6.592546E+05 -9.784409E+04  1.739117E+05
       129   8 -7.747392E+05  3.077578E+05  4.559773E+05 -6.954594E+05 -9.611152E+04  1.686723E+05
       129   9 -9.418924E+05  2.212921E+05  4.254985E+05 -7.696191E+05 -9.205030E+04  1.572074E+05
       129  10 -5.805934E+06 -1.571237E+06 -5.544773E+05 -2.126418E+06 -3.192686E-09  2.649541E-10
       129  11 -5.636565E+06 -1.476390E+06 -4.923683E+05 -2.054975E+06 -4.463005E-09  2.137011E-09
       129  12 -5.436489E+06 -1.422116E+06 -4.453825E+05 -2.021513E+06  2.821166E-09  1.968306E-10
       129  13 -3.193117E+06 -6.072477E+05 -3.401421E+04 -1.394275E+06  2.830497E-10 -1.046717E-09
       129  14 -3.208743E+06 -5.846024E+05 -1.809735E+04 -1.376454E+06 -2.370315E-09 -3.942156E-10
       129  15 -3.191829E+06 -6.006524E+05 -9.859716E+03 -1.396616E+06  3.432611E-09 -2.292646E-09
       129  16 -5.731723E+05  3.573710E+05  4.861255E+05 -6.592409E+05  3.432215E-09 -2.351257E-09
       129  17 -7.747567E+05  3.077248E+05  4.559066E+05 -6.954464E+05  3.406376E-09 -1.862008E-09
       129  18 -9.419081E+05  2.212633E+05  4.254363E+05 -7.696075E+05 -9.291816E-10 -2.274056E-09
       129  19 -5.805916E+06 -1.571202E+06 -5.544032E+05 -2.126431E+06  9.158404E+04 -1.764556E+05
       129  20 -5.636551E+06 -1.476354E+06 -4.922992E+05 -2.054985E+06  7.124562E+04 -1.782302E+05
       129  21 -5.436479E+06 -1.422083E+06 -4.453215E+05 -2.021520E+06  4.856238E+04 -1.737546E+05
       129  22 -3.193099E+06 -6.072124E+05 -3.393981E+04 -1.394288E+06  9.470692E+04 -1.751862E+05
       129  23 -3.208727E+06 -5.845683E+05 -1.802778E+04 -1.376465E+06  8.365230E+04 -1.734611E+05
       129  24 -3.191817E+06 -6.006217E+05 -9.799078E+03 -1.396626E+06  7.026396E+04 -1.654969E+05
       129  25 -5.731539E+05  3.574060E+05  4.862002E+05 -6.592546E+05  9.784409E+04 -1.739117E+05
       129  26 -7.747392E+05  3.077578E+05  4.559773E+05 -6.954594E+05  9.611152E+04 -1.686723E+05
       129  27 -9.418924E+05  2.212921E+05  4.254985E+05 -7.696191E+05  9.205030E+04 -1.572074E+05
       130   1 -5.308863E+06 -1.375957E+06 -4.171951E+05 -1.986644E+06 -4.484504E+04  1.654179E+05
       130   2 -5.135898E+06 -1.287320E+06 -3.766799E+05 -1.912903E+06 -3.655075E+04  1.522993E+05
       130   3 -4.927222E+06 -1.234487E+06 -3.382467E+05 -1.879538E+06 -2.806685E+04  1.386038E+05
       130   4 -3.191121E+06 -6.009273E+05 -7.395307E+03 -1.396739E+06 -6.566565E+04  1.575067E+05
       130   5 -3.208848E+06 -5.827132E+05 -4.134062E+03 -1.376639E+06 -5.822271E+04  1.440879E+05
       130   6 -3.190743E+06 -6.001300E+05 -2.278687E+03 -1.396922E+06 -5.059152E+04  1.300931E+05
       130   7 -1.068656E+06  1.745214E+05  4.022164E+05 -8.049422E+05 -8.656329E+04  1.495666E+05
       130   8 -1.277894E+06  1.222370E+05  3.682551E+05 -8.388127E+05 -7.996751E+04  1.358493E+05
       130   9 -1.451102E+06  3.450147E+04  3.335603E+05 -9.130421E+05 -7.318428E+04  1.215569E+05
       130  10 -5.308872E+06 -1.375987E+06 -4.172502E+05 -1.986638E+06  1.542066E-11 -1.205372E-09
       130  11 -5.135905E+06 -1.287346E+06 -3.767259E+05 -1.912899E+06 -9.709100E-11 -8.363488E-10
       130  12 -4.927228E+06 -1.234508E+06 -3.382842E+05 -1.879535E+06 -2.732411E-10 -1.897880E-10
       130  13 -3.191133E+06 -6.009551E+05 -7.449931E+03 -1.396731E+06  1.633001E-09 -1.723104E-09
       130  14 -3.208857E+06 -5.827364E+05 -4.179366E+03 -1.376633E+06  6.500411E-10 -6.999396E-10
       130  15 -3.190750E+06 -6.001488E+05 -2.315235E+03 -1.396917E+06 -8.592372E-10 -5.961307E-10
       130  16 -1.068670E+06  1.744955E+05  4.021604E+05 -8.049318E+05  3.812114E-10 -1.004966E-09
       130  17 -1.277905E+06  1.222155E+05  3.682084E+05 -8.388039E+05 -6.244815E-11 -2.708369E-10
       130  18 -1.451112E+06  3.448420E+04  3.335226E+05 -9.130349E+05  8.983233E-10 -1.014350E-09
       130  19 -5.308863E+06 -1.375957E+06 -4.171951E+05 -1.986644E+06  4.484504E+04 -1.654179E+05
       130  20 -5.135898E+06 -1.287320E+06 -3.766799E+05 -1.912903E+06  3.655075E+04 -1.522993E+05
       130  21 -4.927222E+06 -1.234487E+06 -3.382467E+05 -1.879538E+06  2.806685E+04 -1.386038E+05
       130  22 -3.191121E+06 -6.009273E+05 -7.395307E+03 -1.396739E+06  6.566565E+04 -1.575067E+05
       130  23 -3.208848E+06 -5.827132E+05 -4.134062E+03 -1.376639E+06  5.822271E+04 -1.440879E+05
       130  24 -3.190743E+06 -6.001300E+05 -2.278687E+03 -1.396922E+06  5.059152E+04 -1.300931E+05
       130  25 -1.068656E+06  1.745214E+05  4.022164E+05 -8.049422E+05  8.656329E+04 -1.495666E+05
       130  26 -1.277894E+06  1.222370E+05  3.682551E+05 -8.388127E+05  7.996751E+04 -1.358493E+05
       130  27 -1.451102E+06  3.450147E+04  3.335603E+05 -9.130421E+05  7.318428E+04 -1.215569E+05
       131   1 -4.797558E+06 -1.186862E+06 -3.115764E+05 -1.843651E+06 -2.434887E+04  1.299525E+05
       131   2 -4.620759E+06 -1.097129E+06 -2.736942E+05 -1.768571E+06 -1.787653E+04  1.150668E+05
       131   3 -4.407460E+06 -1.043591E+06 -2.362832E+05 -1.734829E+06 -1.137757E+04  1.000521E+05
       131   4 -3.190493E+06 -6.001880E+05 -1.768226E+03 -1.397118E+06 -4.693860E+04  1.214287E+05
       131   5 -3.208612E+06 -5.818624E+05 -1.141457E+03 -1.376495E+06 -4.065604E+04  1.064878E+05
       131   6 -3.190238E+06 -5.996941E+05 -8.391218E+02 -1.397222E+06 -3.434715E+04  9.141808E+04
       131   7 -1.580733E+06 -1.328381E+04  3.079270E+05 -9.495054E+05 -6.959128E+04  1.128813E+05
       131   8 -1.794374E+06 -6.641461E+04  2.713273E+05 -9.835847E+05 -6.349148E+04  9.788797E+04
       131   9 -1.971453E+06 -1.556593E+05  2.345456E+05 -1.058993E+06 -5.736551E+04  8.276579E+04
       131  10 -4.797563E+06 -1.186881E+06 -3.116092E+05 -1.843649E+06  2.646559E-09  4.395076E-10
       131  11 -4.620763E+06 -1.097144E+06 -2.737197E+05 -1.768569E+06  8.906503E-10  5.134407E-10
       131  12 -4.407463E+06 -1.043602E+06 -2.363022E+05 -1.734828E+06 -1.017970E-11  7.055740E-10
       131  13 -3.190499E+06 -6.002044E+05 -1.800018E+03 -1.397113E+06  7.696113E-10 -2.027944E-10
       131  14 -3.208617E+06 -5.818750E+05 -1.165829E+03 -1.376492E+06  1.241974E-09  4.670233E-11
       131  15 -3.190241E+06 -5.997033E+05 -8.570117E+02 -1.397220E+06  2.623382E-11  7.931708E-10
       131  16 -1.580742E+06 -1.329876E+04  3.078940E+05 -9.494991E+05 -8.396367E-10  1.302835E-11
       131  17 -1.794381E+06 -6.642596E+04  2.713017E+05 -9.835797E+05 -1.797831E-09  2.832600E-10
       131  18 -1.971458E+06 -1.556675E+05  2.345266E+05 -1.058989E+06 -8.102306E-10  5.525874E-10
       131  19 -4.797558E+06 -1.186862E+06 -3.115764E+05 -1.843651E+06  2.434887E+04 -1.299525E+05
       131  20 -4.620759E+06 -1.097129E+06 -2.736942E+05 -1.768571E+06  1.787653E+04 -1.150668E+05
       131  21 -4.407460E+06 -1.043591E+06 -2.362832E+05 -1.734829E+06  1.137757E+04 -1.000521E+05
       131  22 -3.190493E+06 -6.001880E+05 -1.768226E+03 -1.397118E+06  4.693860E+04 -1.214287E+05
       131  23 -3.208612E+06 -5.818624E+05 -1.141457E+03 -1.376495E+06  4.065604E+04 -1.064878E+05
       131  24 -3.190238E+06 -5.996941E+05 -8.391218E+02 -1.397222E+06  3.434715E+04 -9.141808E+04
       131  25 -1.580733E+06 -1.328381E+04  3.079270E+05 -9.495054E+05  6.959128E+04 -1.128813E+05
       131  26 -1.794374E+06 -6.641461E+04  2.713273E+05 -9.835847E+05  6.349148E+04 -9.788797E+04
       131  27 -1.971453E+06 -1.556593E+05  2.345456E+05 -1.058993E+06  5.736551E+04 -8.276579E+04
       132   1 -4.275523E+06 -9.952665E+05 -2.096972E+05 -1.698414E+06 -7.780614E+03  9.118190E+04
       132   2 -4.095906E+06 -9.046234E+05 -1.722346E+05 -1.622466E+06 -1.373794E+03  7.597257E+04
       132   3 -3.879510E+06 -8.506491E+05 -1.351895E+05 -1.588521E+06  5.039249E+03  6.070923E+04
       132   4 -3.190103E+06 -5.997238E+05 -8.429971E+02 -1.397371E+06 -3.084533E+04  8.252014E+04
       132   5 -3.208391E+06 -5.812230E+05 -1.069674E+03 -1.376402E+06 -2.451884E+04  6.729099E+04
       132   6 -3.189931E+06 -5.993756E+05 -1.653544E+03 -1.397448E+06 -1.818639E+04  5.200788E+04
       132   7 -2.103447E+06 -2.040743E+05  2.079629E+05 -1.095835E+06 -5.395350E+04  7.384209E+04
       132   8 -2.320055E+06 -2.577528E+05  1.700624E+05 -1.130010E+06 -4.769944E+04  5.859609E+04
       132   9 -2.499860E+06 -3.480615E+05  1.318622E+05 -1.206178E+06 -4.143962E+04  4.329619E+04
       132  10 -4.275526E+06 -9.952754E+05 -2.097130E+05 -1.698414E+06 -1.296543E-09  4.671205E-10
       132  11 -4.095907E+06 -9.046296E+05 -1.722454E+05 -1.622466E+06  2.573262E-10  1.528145E-09
       132  12 -3.879511E+06 -8.506530E+05 -1.351965E+05 -1.588521E+06  2.657531E-10  8.494676E-10
       132  13 -3.190105E+06 -5.997314E+05 -8.575556E+02 -1.397369E+06  1.318815E-09  1.248761E-09
       132  14 -3.208393E+06 -5.812280E+05 -1.079296E+03 -1.376401E+06 -1.058096E-09 -2.547643E-10
       132  15 -3.189932E+06 -5.993786E+05 -1.659238E+03 -1.397447E+06 -1.912008E-09 -1.361760E-09
       132  16 -2.103451E+06 -2.040810E+05  2.079472E+05 -1.095832E+06  1.309147E-09  9.908851E-10
       132  17 -2.320058E+06 -2.577571E+05  1.700517E+05 -1.130008E+06  4.723652E-10  2.279314E-10
       132  18 -2.499862E+06 -3.480640E+05  1.318555E+05 -1.206177E+06 -2.032121E-10 -4.368966E-10
       132  19 -4.275523E+06 -9.952665E+05 -2.096972E+05 -1.698414E+06  7.780614E+03 -9.118190E+04
       132  20 -4.095906E+06 -9.046234E+05 -1.722346E+05 -1.622466E+06  1.373794E+03 -7.597257E+04
       132  21 -3.879510E+06 -8.506491E+05 -1.351895E+05 -1.588521E+06 -5.039249E+03 -6.070923E+04
       132  22 -3.190103E+06 -5.997238E+05 -8.429971E+02 -1.397371E+06  3.084533E+04 -8.252014E+04
       132  23 -3.208391E+06 -5.812230E+05 -1.069674E+03 -1.376402E+06  2.451884E+04 -6.729099E+04
       132  24 -3.189931E+06 -5.993756E+05 -1.653544E+03 -1.397448E+06  1.818639E+04 -5.200788E+04
       132  25 -2.103447E+06 -2.040743E+05  2.079629E+05 -1.095835E+06  5.395350E+04 -7.384209E+04
       132  26 -2.320055E+06 -2.577528E+05  1.700624E+05 -1.130010E+06  4.769944E+04 -5.859609E+04
       132  27 -2.499860E+06 -3.480615E+05  1.318622E+05 -1.206178E+06  4.143962E+04 -4.329619E+04
       133   1 -3.746072E+06 -8.019055E+05 -1.088151E+05 -1.551790E+06  8.820452E+03  5.180549E+04
       133   2 -3.564761E+06 -7.108005E+05 -7.247195E+04 -1.475350E+06  1.636396E+04  3.695175E+04
       133   3 -3.346744E+06 -6.567912E+05 -3.745828E+04 -1.441289E+06  2.386057E+04  2.220960E+04
       133   4 -3.189913E+06 -5.993846E+05 -2.155361E+03 -1.397555E+06 -1.448337E+04  4.307922E+04
       133   5 -3.208200E+06 -5.808034E+05 -3.818204E+03 -1.376353E+06 -6.774659E+03  2.829137E+04
       133   6 -3.189862E+06 -5.993560E+05 -6.945948E+03 -1.397546E+06  8.865456E+02  1.361496E+04
       133   7 -2.633424E+06 -3.968333E+05  1.044950E+05 -1.243190E+06 -3.780986E+04  3.434444E+04
       133   8 -2.851503E+06 -4.507938E+05  6.483285E+04 -1.277302E+06 -2.992768E+04  1.962558E+04
       133   9 -3.032954E+06 -5.419182E+05  2.356758E+04 -1.353792E+06 -2.209373E+04  5.017943E+03
       133  10 -3.746073E+06 -8.019084E+05 -1.088203E+05 -1.551790E+06  2.466868E-10 -9.797607E-11
       133  11 -3.564762E+06 -7.108020E+05 -7.247503E+04 -1.475350E+06 -9.770269E-10 -7.860086E-10
       133  12 -3.346745E+06 -6.567919E+05 -3.746028E+04 -1.441290E+06 -3.398015E-09 -7.768013E-10
       133  13 -3.189914E+06 -5.993866E+05 -2.159236E+03 -1.397555E+06 -1.329049E-09 -1.562799E-09
       133  14 -3.208201E+06 -5.808043E+05 -3.819792E+03 -1.376353E+06  2.558164E-09  2.605606E-09
       133  15 -3.189862E+06 -5.993562E+05 -6.946298E+03 -1.397546E+06  4.131522E-11  1.314902E-09
       133  16 -2.633426E+06 -3.968350E+05  1.044901E+05 -1.243189E+06 -5.171470E-10 -6.784047E-10
       133  17 -2.851504E+06 -4.507944E+05  6.483045E+04 -1.277301E+06 -9.446381E-10 -1.369022E-09
       133  18 -3.032954E+06 -5.419183E+05  2.356661E+04 -1.353792E+06  2.994353E-09  2.842331E-09
       133  19 -3.746072E+06 -8.019055E+05 -1.088151E+05 -1.551790E+06 -8.820452E+03 -5.180549E+04
       133  20 -3.564761E+06 -7.108005E+05 -7.247195E+04 -1.475350E+06 -1.636396E+04 -3.695175E+04
       133  21 -3.346744E+06 -6.567912E+05 -3.745828E+04 -1.441289E+06 -2.386057E+04 -2.220960E+04
       133  22 -3.189913E+06 -5.993846E+05 -2.155361E+03 -1.397555E+06  1.448337E+04 -4.307922E+04
       133  23 -3.208200E+06 -5.808034E+05 -3.818204E+03 -1.376353E+06  6.774659E+03 -2.829137E+04
       133  24 -3.189862E+06 -5.993560E+05 -6.945948E+03 -1.397546E+06 -8.865456E+02 -1.361496E+04
       133  25 -2.633424E+06 -3.968333E+05  1.044950E+05 -1.243190E+06  3.780986E+04 -3.434444E+04
       133  26 -2.851503E+06 -4.507938E+05  6.483285E+04 -1.277302E+06  2.992768E+04 -1.962558E+04
       133  27 -3.032954E+06 -5.419182E+05  2.356758E+04 -1.353792E+06  2.209373E+04 -5.017943E+03
       134   1 -3.212518E+06 -6.081256E+05 -1.272892E+04 -1.405060E+06  2.887771E+04  1.375466E+04
       134   2 -3.031417E+06 -5.164614E+05  1.862021E+04 -1.326722E+06  4.002526E+04  1.267324E+03
       134   3 -2.815534E+06 -4.654554E+05  4.472064E+04 -1.289953E+06  5.047216E+04 -9.338441E+03
       134   4 -3.190248E+06 -5.991740E+05 -9.242652E+03 -1.397773E+06  5.564962E+03  5.034006E+03
       134   5 -3.207751E+06 -5.813453E+05 -1.688693E+04 -1.375948E+06  1.952555E+04 -6.402942E+03
       134   6 -3.191076E+06 -6.047410E+05 -3.202153E+04 -1.395711E+06  3.278352E+04 -1.595874E+04
       134   7 -3.167977E+06 -5.902220E+05 -5.754104E+03 -1.390485E+06 -1.774847E+04 -3.687000E+03
       134   8 -3.384052E+06 -6.462260E+05 -5.239377E+04 -1.425161E+06 -9.678786E+02 -1.407082E+04
       134   9 -3.566475E+06 -7.440146E+05 -1.087704E+05 -1.501410E+06  1.510627E+04 -2.257462E+04
       134  10 -3.212519E+06 -6.081260E+05 -1.273085E+04 -1.405060E+06  9.430031E-11  6.495369E-10
       134  11 -3.031419E+06 -5.164619E+05  1.861718E+04 -1.326722E+06 -1.071073E-09 -1.817372E-09
       134  12 -2.815537E+06 -4.654562E+05  4.471567E+04 -1.289952E+06  1.096696E-09 -9.780019E-10
       134  13 -3.190248E+06 -5.991740E+05 -9.242758E+03 -1.397773E+06 -2.659018E-10  9.616343E-10
       134  14 -3.207752E+06 -5.813454E+05 -1.688772E+04 -1.375948E+06  4.273653E-10  4.606371E-10
       134  15 -3.191077E+06 -6.047416E+05 -3.202404E+04 -1.395711E+06  7.026474E-10 -3.120108E-10
       134  16 -3.167978E+06 -5.902221E+05 -5.754726E+03 -1.390485E+06 -1.253822E-09  5.546865E-10
       134  17 -3.384053E+06 -6.462262E+05 -5.239415E+04 -1.425161E+06  1.782479E-09  2.438802E-09
       134  18 -3.566475E+06 -7.440152E+05 -1.087718E+05 -1.501410E+06 -4.062306E-10  2.216452E-10
       134  19 -3.212518E+06 -6.081256E+05 -1.272892E+04 -1.405060E+06 -2.887771E+04 -1.375466E+04
       134  20 -3.031417E+06 -5.164614E+05  1.862021E+04 -1.326722E+06 -4.002526E+04 -1.267324E+03
       134  21 -2.815534E+06 -4.654554E+05  4.472064E+04 -1.289953E+06 -5.047216E+04  9.338441E+03
       134  22 -3.190248E+06 -5.991740E+05 -9.242652E+03 -1.397773E+06 -5.564962E+03 -5.034006E+03
       134  23 -3.207751E+06 -5.813453E+05 -1.688693E+04 -1.375948E+06 -1.952555E+04  6.402942E+03
       134  24 -3.191076E+06 -6.047410E+05 -3.202153E+04 -1.395711E+06 -3.278352E+04  1.595874E+04
       134  25 -3.167977E+06 -5.902220E+05 -5.754104E+03 -1.390485E+06  1.774847E+04  3.687000E+03
       134  26 -3.384052E+06 -6.462260E+05 -5.239377E+04 -1.425161E+06  9.678786E+02  1.407082E+04
       134  27 -3.566475E+06 -7.440146E+05 -1.087704E+05 -1.501410E+06 -1.510627E+04  2.257462E+04
       135   1 -2.676125E+06 -4.219616E+05  6.224670E+04 -1.267293E+06  6.300247E+04 -1.460427E+04
       135   2 -2.521827E+06 -3.169143E+05  7.709431E+04 -1.140361E+06  6.683355E+04 -1.536157E+04
       135   3 -2.364393E+06 -3.324737E+05  6.622060E+04 -1.031168E+06  6.105355E+04  9.522155E+03
       135   4 -3.196432E+06 -6.008720E+05 -4.211449E+04 -1.399120E+06  4.085298E+04 -2.289524E+04
       135   5 -3.203755E+06 -6.040497E+05 -7.930604E+04 -1.365091E+06  8.311967E+04 -9.271409E+03
       135   6 -3.215678E+06 -7.355701E+05 -1.728210E+05 -1.348828E+06  1.157662E+05  3.000589E+04
       135   7 -3.716462E+06 -7.797681E+05 -1.464875E+05 -1.530849E+06  1.872342E+04 -3.117977E+04
       135   8 -3.885194E+06 -8.911021E+05 -2.357324E+05 -1.589575E+06  9.938614E+04 -3.191012E+03
       135   9 -4.066197E+06 -1.138470E+06 -4.119073E+05 -1.666036E+06  1.703946E+05  5.043939E+04
       135  10 -2.676129E+06 -4.219629E+05  6.223882E+04 -1.267292E+06 -5.322238E-10 -1.532451E-09
       135  11 -2.521831E+06 -3.169157E+05  7.708545E+04 -1.140361E+06 -1.535858E-09 -1.069662E-09
       135  12 -2.364397E+06 -3.324748E+05  6.621340E+04 -1.031169E+06  7.879697E-10  5.400623E-10
       135  13 -3.196434E+06 -6.008730E+05 -4.211862E+04 -1.399119E+06  1.168092E-09  7.595070E-10
       135  14 -3.203762E+06 -6.040516E+05 -7.931924E+04 -1.365091E+06  2.152719E-09  2.107664E-09
       135  15 -3.215692E+06 -7.355747E+05 -1.728480E+05 -1.348831E+06  2.009105E-10  2.940156E-10
       135  16 -3.716463E+06 -7.797692E+05 -1.464900E+05 -1.530848E+06  1.886868E-09  1.723539E-09
       135  17 -3.885204E+06 -8.911048E+05 -2.357511E+05 -1.589575E+06 -5.527237E-11  6.374690E-10
       135  18 -4.066229E+06 -1.138481E+06 -4.119671E+05 -1.666043E+06 -1.016372E-09 -2.691282E-11
       135  19 -2.676125E+06 -4.219616E+05  6.224670E+04 -1.267293E+06 -6.300247E+04  1.460427E+04
       135  20 -2.521827E+06 -3.169143E+05  7.709431E+04 -1.140361E+06 -6.683355E+04  1.536157E+04
       135  21 -2.364393E+06 -3.324737E+05  6.622060E+04 -1.031168E+06 -6.105355E+04 -9.522155E+03
       135  22 -3.196432E+06 -6.008720E+05 -4.211449E+04 -1.399120E+06 -4.085298E+04  2.289524E+04
       135  23 -3.203755E+06 -6.040497E+05 -7.930604E+04 -1.365091E+06 -8.311967E+04  9.271409E+03
       135  24 -3.215678E+06 -7.355701E+05 -1.728210E+05 -1.348828E+06 -1.157662E+05 -3.000589E+04
       135  25 -3.716462E+06 -7.797681E+05 -1.464875E+05 -1.530849E+06 -1.872342E+04  3.117977E+04
       135  26 -3.885194E+06 -8.911021E+05 -2.357324E+05 -1.589575E+06 -9.938614E+04  3.191012E+03
       135  27 -4.066197E+06 -1.138470E+06 -4.119073E+05 -1.666036E+06 -1.703946E+05 -5.043939E+04
       136   1  1.709217E+05  3.418343E+04  5.180741E+04  1.465651E+04  5.482271E+04  1.267099E+03
       136   2  1.711399E+05 -3.784199E+04  8.866472E+03  4.248424E+03  3.663401E+04  3.710097E+03
       136   3  1.939643E+05 -2.900326E+04 -2.012858E+03 -1.467889E+04  1.844557E+04  3.334936E+03
       136   4  2.973104E+05  6.566944E+04  8.298357E+04 -5.982623E+03  5.677670E+04  1.266011E+03
       136   5  2.858911E+05 -9.408738E+03  3.633236E+04 -1.710639E+03  3.716337E+04  3.709868E+03
       136   6  2.973200E+05 -3.384482E+03  2.272709E+04 -5.957573E+03  1.755067E+04  3.334937E+03
       136   7  4.237146E+05  9.715586E+04  1.141588E+05 -2.662597E+04  5.873109E+04  1.264793E+03
       136   8  4.006544E+05  1.902370E+04  6.379735E+04 -7.670808E+03  3.769283E+04  3.709628E+03
       136   9  4.006857E+05  2.223381E+04  4.746632E+04  2.765199E+03  1.665562E+04  3.334912E+03
       136  10  1.709185E+05  3.418262E+04  5.180176E+04  1.465646E+04  6.793129E-10  7.403066E-11
       136  11  1.711385E+05 -3.784237E+04  8.863925E+03  4.248315E+03  4.402285E-10  7.678956E-10
       136  12  1.939640E+05 -2.900336E+04 -2.013518E+03 -1.467894E+04 -1.437105E-09 -1.470484E-09
       136  13  2.973069E+05  6.566857E+04  8.297751E+04 -5.982681E+03  2.468557E-09  7.748983E-10
       136  14  2.858896E+05 -9.409123E+03  3.632974E+04 -1.710750E+03 -1.062358E-09  7.835114E-10
       136  15  2.973197E+05 -3.384576E+03  2.272649E+04 -5.957620E+03  1.652022E-09 -1.435041E-09
       136  16  4.237109E+05  9.715493E+04  1.141523E+05 -2.662603E+04 -6.358502E-10  8.086294E-10
       136  17  4.006529E+05  1.902330E+04  6.379465E+04 -7.670921E+03 -8.104492E-10  9.871418E-10
       136  18  4.006854E+05  2.223372E+04  4.746578E+04  2.765154E+03  1.698665E-09 -5.287715E-10
       136  19  1.709217E+05  3.418343E+04  5.180741E+04  1.465651E+04 -5.482271E+04 -1.267099E+03
       136  20  1.711399E+05 -3.784199E+04  8.866472E+03  4.248424E+03 -3.663401E+04 -3.710097E+03
       136  21  1.939643E+05 -2.900326E+04 -2.012858E+03 -1.467889E+04 -1.844557E+04 -3.334936E+03
       136  22  2.973104E+05  6.566944E+04  8.298357E+04 -5.982623E+03 -5.677670E+04 -1.266011E+03
       136  23  2.858911E+05 -9.408738E+03  3.633236E+04 -1.710639E+03 -3.716337E+04 -3.709868E+03
       136  24  2.973200E+05 -3.384482E+03  2.272709E+04 -5.957573E+03 -1.755067E+04 -3.334937E+03
       136  25  4.237146E+05  9.715586E+04  1.141588E+05 -2.662597E+04 -5.873109E+04 -1.264793E+03
       136  26  4.006544E+05  1.902370E+04  6.379735E+04 -7.670808E+03 -3.769283E+04 -3.709628E+03
       136  27  4.006857E+05  2.223381E+04  4.746632E+04  2.765199E+03 -1.665562E+04 -3.334912E+03
       137   1  2.048817E+05 -1.491534E+04 -2.572415E+03 -4.014743E+03  1.409071E+04  2.664646E+03
       137   2  2.148591E+05 -2.001173E+04 -8.924665E+03 -1.237564E+03  9.362443E+03  2.417450E+03
       137   3  2.276057E+05 -1.653536E+04 -1.005381E+04 -6.936430E+03  4.634081E+03  1.961494E+03
       137   4  2.928605E+05  6.897605E+03  1.854259E+04 -5.956408E+03  1.402055E+04  2.664561E+03
       137   5  2.914680E+05 -1.023576E+03  9.429406E+03 -1.717710E+03  9.186402E+03  2.417392E+03
       137   6  2.928623E+05 -3.542454E+02  5.612270E+03 -5.954964E+03  4.352250E+03  1.961453E+03
       137   7  3.808465E+05  2.871000E+04  3.965704E+04 -7.898349E+03  1.395037E+04  2.664478E+03
       137   8  3.680822E+05  1.796415E+04  2.778306E+04 -2.197915E+03  9.010339E+03  2.417335E+03
       137   9  3.581229E+05  1.582656E+04  2.127805E+04 -4.973393E+03  4.070389E+03  1.961411E+03
       137  10  2.048814E+05 -1.491540E+04 -2.572802E+03 -4.014773E+03 -1.494828E-09 -1.132877E-09
       137  11  2.148590E+05 -2.001176E+04 -8.924840E+03 -1.237583E+03  1.102102E-09  1.385706E-09
       137  12  2.276057E+05 -1.653537E+04 -1.005386E+04 -6.936438E+03 -2.103159E-09  5.765874E-10
       137  13  2.928603E+05  6.897545E+03  1.854221E+04 -5.956438E+03 -8.461336E-10 -6.816655E-10
       137  14  2.914679E+05 -1.023605E+03  9.429236E+03 -1.717728E+03 -4.200072E-09  1.230836E-09
       137  15  2.928623E+05 -3.542546E+02  5.612228E+03 -5.954970E+03 -6.384753E-10  1.829884E-10
       137  16  3.808463E+05  2.870994E+04  3.965667E+04 -7.898379E+03  2.492822E-09 -8.404464E-10
       137  17  3.680821E+05  1.796412E+04  2.778290E+04 -2.197933E+03 -4.557378E-10  6.765393E-10
       137  18  3.581229E+05  1.582655E+04  2.127801E+04 -4.973400E+03  9.473318E-10  9.209775E-11
       137  19  2.048817E+05 -1.491534E+04 -2.572415E+03 -4.014743E+03 -1.409071E+04 -2.664646E+03
       137  20  2.148591E+05 -2.001173E+04 -8.924665E+03 -1.237564E+03 -9.362443E+03 -2.417450E+03
       137  21  2.276057E+05 -1.653536E+04 -1.005381E+04 -6.936430E+03 -4.634081E+03 -1.961494E+03
       137  22  2.928605E+05  6.897605E+03  1.854259E+04 -5.956408E+03 -1.402055E+04 -2.664561E+03
       137  23  2.914680E+05 -1.023576E+03  9.429406E+03 -1.717710E+03 -9.186402E+03 -2.417392E+03
       137  24  2.928623E+05 -3.542454E+02  5.612270E+03 -5.954964E+03 -4.352250E+03 -1.961453E+03
       137  25  3.808465E+05  2.871000E+04  3.965704E+04 -7.898349E+03 -1.395037E+04 -2.664478E+03
       137  26  3.680822E+05  1.796415E+04  2.778306E+04 -2.197915E+03 -9.010339E+03 -2.417335E+03
       137  27  3.581229E+05  1.582656E+04  2.127805E+04 -4.973393E+03 -4.070389E+03 -1.961411E+03
       138   1  2.423113E+05 -1.168078E+04 -7.562160E+03 -5.800564E+03  3.687347E+03  1.663156E+03
       138   2  2.534063E+05 -9.714221E+03 -6.880882E+03 -1.717919E+03  2.491494E+03  1.218661E+03
       138   3  2.648861E+05 -6.845225E+03 -5.194962E+03 -6.060878E+03  1.295603E+03  7.592853E+02
       138   4  2.923291E+05  7.108347E+02  4.392982E+03 -5.944244E+03  3.467239E+03  1.663124E+03
       138   5  2.921363E+05 -1.146011E+02  2.398883E+03 -1.731423E+03  2.263795E+03  1.218637E+03
       138   6  2.923296E+05 -3.627377E+01  1.414677E+03 -5.944175E+03  1.060333E+03  7.592703E+02
       138   7  3.423492E+05  1.310227E+04  1.634795E+04 -6.087936E+03  3.247114E+03  1.663092E+03
       138   8  3.308677E+05  9.484910E+03  1.167854E+04 -1.744929E+03  2.036081E+03  1.218613E+03
       138   9  3.197737E+05  6.772622E+03  8.024263E+03 -5.827466E+03  8.250529E+02  7.592551E+02
       138  10  2.423113E+05 -1.168079E+04 -7.562191E+03 -5.800569E+03 -3.078745E-09 -1.323559E-10
       138  11  2.534063E+05 -9.714224E+03 -6.880897E+03 -1.717921E+03 -2.999062E-09 -3.229796E-10
       138  12  2.648861E+05 -6.845226E+03 -5.194967E+03 -6.060879E+03  8.776615E-10 -1.014830E-09
       138  13  2.923291E+05  7.108285E+02  4.392954E+03 -5.944249E+03 -2.185554E-09 -1.237477E-10
       138  14  2.921363E+05 -1.146041E+02  2.398871E+03 -1.731426E+03  1.052634E-09  2.228214E-10
       138  15  2.923296E+05 -3.627469E+01  1.414674E+03 -5.944175E+03  3.239173E-10 -6.283507E-10
       138  16  3.423492E+05  1.310226E+04  1.634792E+04 -6.087940E+03  2.374242E-09 -3.913586E-11
       138  17  3.308677E+05  9.484907E+03  1.167853E+04 -1.744931E+03  3.450285E-09  4.932711E-10
       138  18  3.197737E+05  6.772622E+03  8.024260E+03 -5.827466E+03  1.826575E-10 -4.844784E-11
       138  19  2.423113E+05 -1.168078E+04 -7.562160E+03 -5.800564E+03 -3.687347E+03 -1.663156E+03
       138  20  2.534063E+05 -9.714221E+03 -6.880882E+03 -1.717919E+03 -2.491494E+03 -1.218661E+03
       138  21  2.648861E+05 -6.845225E+03 -5.194962E+03 -6.060878E+03 -1.295603E+03 -7.592853E+02
       138  22  2.923291E+05  7.108347E+02  4.392982E+03 -5.944244E+03 -3.467239E+03 -1.663124E+03
       138  23  2.921363E+05 -1.146011E+02  2.398883E+03 -1.731423E+03 -2.263795E+03 -1.218637E+03
       138  24  2.923296E+05 -3.627377E+01  1.414677E+03 -5.944175E+03 -1.060333E+03 -7.592703E+02
       138  25  3.423492E+05  1.310227E+04  1.634795E+04 -6.087936E+03 -3.247114E+03 -1.663092E+03
       138  26  3.308677E+05  9.484910E+03  1.167854E+04 -1.744929E+03 -2.036081E+03 -1.218613E+03
       138  27  3.197737E+05  6.772622E+03  8.024263E+03 -5.827466E+03 -8.250529E+02 -7.592551E+02
       139   1  2.799893E+05 -2.964730E+03 -1.805368E+03 -5.939200E+03  1.065177E+03  4.897500E+02
       139   2  2.912177E+05 -2.639556E+02  4.161375E+02 -1.742508E+03  7.389818E+02  3.175102E+01
       139   3  3.025141E+05  2.533228E+03  2.874318E+03 -5.953710E+03  4.127747E+02 -4.272953E+02
       139   4  2.922590E+05  6.959506E+01  1.100409E+03 -5.940270E+03  8.345469E+02  4.897381E+02
       139   5  2.922251E+05 -1.425840E+01  6.575089E+02 -1.736322E+03  5.078133E+02  3.173911E+01
       139   6  2.922591E+05 -1.645112E+00  4.516140E+02 -5.940267E+03  1.810741E+02 -4.273068E+02
       139   7  3.045289E+05  3.103909E+03  4.006176E+03 -5.941340E+03  6.039117E+02  4.897262E+02
       139   8  2.932325E+05  2.354388E+02  8.988805E+02 -1.730136E+03  2.766443E+02  3.172720E+01
       139   9  2.820041E+05 -2.536526E+03 -1.971097E+03 -5.926824E+03 -5.062278E+01 -4.273183E+02
       139  10  2.799893E+05 -2.964730E+03 -1.805370E+03 -5.939201E+03  2.927082E-11 -8.000802E-10
       139  11  2.912177E+05 -2.639558E+02  4.161365E+02 -1.742508E+03  8.230168E-10  3.186470E-10
       139  12  3.025141E+05  2.533228E+03  2.874317E+03 -5.953710E+03 -1.836584E-09 -1.392233E-10
       139  13  2.922590E+05  6.959462E+01  1.100408E+03 -5.940270E+03  3.266996E-11 -5.991588E-10
       139  14  2.922251E+05 -1.425847E+01  6.575085E+02 -1.736322E+03 -1.146035E-09  3.856727E-11
       139  15  2.922591E+05 -1.645317E+00  4.516136E+02 -5.940267E+03 -1.223632E-09  8.835067E-11
       139  16  3.045289E+05  3.103909E+03  4.006175E+03 -5.941340E+03 -2.125997E-09 -4.650484E-10
       139  17  2.932325E+05  2.354388E+02  8.988803E+02 -1.730136E+03  1.482946E-09 -1.631397E-10
       139  18  2.820041E+05 -2.536526E+03 -1.971097E+03 -5.926824E+03 -1.199672E-09  2.491391E-10
       139  19  2.799893E+05 -2.964730E+03 -1.805368E+03 -5.939200E+03 -1.065177E+03 -4.897500E+02
       139  20  2.912177E+05 -2.639556E+02  4.161375E+02 -1.742508E+03 -7.389818E+02 -3.175102E+01
       139  21  3.025141E+05  2.533228E+03  2.874318E+03 -5.953710E+03 -4.127747E+02  4.272953E+02
       139  22  2.922590E+05  6.959506E+01  1.100409E+03 -5.940270E+03 -8.345469E+02 -4.897381E+02
       139  23  2.922251E+05 -1.425840E+01  6.575089E+02 -1.736322E+03 -5.078133E+02 -3.173911E+01
       139  24  2.922591E+05 -1.645112E+00  4.516140E+02 -5.940267E+03 -1.810741E+02  4.273068E+02
       139  25  3.045289E+05  3.103909E+03  4.006176E+03 -5.941340E+03 -6.039117E+02 -4.897262E+02
       139  26  2.932325E+05  2.354388E+02  8.988805E+02 -1.730136E+03 -2.766443E+02 -3.172720E+01
       139  27  2.820041E+05 -2.536526E+03 -1.971097E+03 -5.926824E+03  5.062278E+01  4.273183E+02
       140   1  3.176802E+05  6.313242E+03  6.529883E+03 -5.940395E+03  3.357464E+02 -6.949199E+02
       140   2  3.289451E+05  9.091423E+03  9.188983E+03 -1.729361E+03  1.404052E+02 -1.154501E+03
       140   3  3.402503E+05  1.191581E+04  1.198743E+04 -5.942868E+03 -5.490368E+01 -1.613454E+03
       140   4  2.922528E+05  4.142614E+00  4.032062E+02 -5.943974E+03  1.038717E+02 -6.949343E+02
       140   5  2.922326E+05 -7.752432E+00  3.928689E+02 -1.731689E+03 -9.114608E+01 -1.154523E+03
       140   6  2.922526E+05  2.651621E+01  5.216671E+02 -5.943976E+03 -2.861280E+02 -1.613484E+03
       140   7  2.668259E+05 -6.305004E+03 -5.723517E+03 -5.947554E+03 -1.279935E+02 -6.949486E+02
       140   8  2.555213E+05 -9.107026E+03 -8.403341E+03 -1.734017E+03 -3.226837E+02 -1.154546E+03
       140   9  2.442570E+05 -1.186295E+04 -1.094426E+04 -5.945085E+03 -5.173346E+02 -1.613515E+03
       140  10  3.176802E+05  6.313242E+03  6.529882E+03 -5.940395E+03 -2.117332E-09 -7.721455E-10
       140  11  3.289451E+05  9.091422E+03  9.188981E+03 -1.729360E+03  1.002609E-10 -5.786865E-10
       140  12  3.402503E+05  1.191581E+04  1.198743E+04 -5.942868E+03 -2.073403E-09  8.500183E-10
       140  13  2.922528E+05  4.142092E+00  4.032052E+02 -5.943974E+03 -8.390174E-10 -5.877145E-12
       140  14  2.922326E+05 -7.753866E+00  3.928664E+02 -1.731689E+03 -8.853438E-10  6.889165E-11
       140  15  2.922526E+05  2.651339E+01  5.216621E+02 -5.943977E+03 -9.039689E-10  6.355245E-10
       140  16  2.668259E+05 -6.305005E+03 -5.723518E+03 -5.947554E+03  5.304234E-10  4.411790E-10
       140  17  2.555213E+05 -9.107027E+03 -8.403343E+03 -1.734018E+03  1.550459E-09  4.001192E-10
       140  18  2.442570E+05 -1.186295E+04 -1.094426E+04 -5.945085E+03  1.162695E-09  2.766426E-10
       140  19  3.176802E+05  6.313242E+03  6.529883E+03 -5.940395E+03 -3.357464E+02  6.949199E+02
       140  20  3.289451E+05  9.091423E+03  9.188983E+03 -1.729361E+03 -1.404052E+02  1.154501E+03
       140  21  3.402503E+05  1.191581E+04  1.198743E+04 -5.942868E+03  5.490368E+01  1.613454E+03
       140  22  2.922528E+05  4.142614E+00  4.032062E+02 -5.943974E+03 -1.038717E+02  6.949343E+02
       140  23  2.922326E+05 -7.752432E+00  3.928689E+02 -1.731689E+03  9.114608E+01  1.154523E+03
       140  24  2.922526E+05  2.651621E+01  5.216671E+02 -5.943976E+03  2.861280E+02  1.613484E+03
       140  25  2.668259E+05 -6.305004E+03 -5.723517E+03 -5.947554E+03  1.279935E+02  6.949486E+02
       140  26  2.555213E+05 -9.107026E+03 -8.403341E+03 -1.734017E+03  3.226837E+02  1.154546E+03
       140  27  2.442570E+05 -1.186295E+04 -1.094426E+04 -5.945085E+03  5.173346E+02  1.613515E+03
       141   1  3.555134E+05  1.566286E+04  1.581756E+04 -5.903925E+03 -1.526274E+02 -1.884640E+03
       141   2  3.667831E+05  1.843722E+04  1.888257E+04 -1.714892E+03 -6.697676E+02 -2.346162E+03
       141   3  3.782225E+05  2.158181E+04  2.237868E+04 -6.002677E+03 -1.186840E+03 -2.789232E+03
       141   4  2.922806E+05 -1.595065E+01  6.334794E+02 -5.955581E+03 -3.899287E+02 -1.884680E+03
       141   5  2.921963E+05 -4.863910E+01  1.012558E+03 -1.717170E+03 -8.977110E+02 -2.346218E+03
       141   6  2.922801E+05  2.873660E+02  1.816335E+03 -5.955639E+03 -1.405417E+03 -2.789303E+03
       141   7  2.290514E+05 -1.569505E+04 -1.455088E+04 -6.007233E+03 -6.272060E+02 -1.884721E+03
       141   8  2.176145E+05 -1.853490E+04 -1.685784E+04 -1.719447E+03 -1.125627E+03 -2.346274E+03
       141   9  2.063445E+05 -2.100761E+04 -1.874653E+04 -5.908607E+03 -1.623963E+03 -2.789374E+03
       141  10  3.555134E+05  1.566285E+04  1.581755E+04 -5.903925E+03 -3.215322E-10  1.014151E-09
       141  11  3.667831E+05  1.843721E+04  1.888255E+04 -1.714893E+03  4.244319E-09 -9.081226E-10
       141  12  3.782225E+05  2.158180E+04  2.237866E+04 -6.002680E+03 -7.243161E-10 -4.284273E-10
       141  13  2.922806E+05 -1.595450E+01  6.334724E+02 -5.955582E+03  1.133981E-09  5.109585E-10
       141  14  2.921963E+05 -4.864523E+01  1.012546E+03 -1.717171E+03  9.290261E-10 -6.643592E-10
       141  15  2.922801E+05  2.873571E+02  1.816316E+03 -5.955642E+03 -3.260787E-09 -6.428552E-10
       141  16  2.290514E+05 -1.569505E+04 -1.455089E+04 -6.007234E+03 -2.465814E-10 -6.802257E-11
       141  17  2.176145E+05 -1.853490E+04 -1.685786E+04 -1.719450E+03 -3.358909E-10 -4.281267E-10
       141  18  2.063445E+05 -2.100762E+04 -1.874655E+04 -5.908611E+03  1.264580E-11 -6.174592E-10
       141  19  3.555134E+05  1.566286E+04  1.581756E+04 -5.903925E+03  1.526274E+02  1.884640E+03
       141  20  3.667831E+05  1.843722E+04  1.888257E+04 -1.714892E+03  6.697676E+02  2.346162E+03
       141  21  3.782225E+05  2.158181E+04  2.237868E+04 -6.002677E+03  1.186840E+03  2.789232E+03
       141  22  2.922806E+05 -1.595065E+01  6.334794E+02 -5.955581E+03  3.899287E+02  1.884680E+03
       141  23  2.921963E+05 -4.863910E+01  1.012558E+03 -1.717170E+03  8.977110E+02  2.346218E+03
       141  24  2.922801E+05  2.873660E+02  1.816335E+03 -5.955639E+03  1.405417E+03  2.789303E+03
       141  25  2.290514E+05 -1.569505E+04 -1.455088E+04 -6.007233E+03  6.272060E+02  1.884721E+03
       141  26  2.176145E+05 -1.853490E+04 -1.685784E+04 -1.719447E+03  1.125627E+03  2.346274E+03
       141  27  2.063445E+05 -2.100761E+04 -1.874653E+04 -5.908607E+03  1.623963E+03  2.789374E+03
       142   1  3.938038E+05  2.496510E+04  2.661174E+04 -5.555731E+03 -1.473197E+03 -3.097791E+03
       142   2  4.046888E+05  2.752554E+04  3.088212E+04 -1.869619E+03 -3.590288E+03 -3.555612E+03
       142   3  4.167548E+05  3.362339E+04  3.741891E+04 -6.739429E+03 -5.707445E+03 -3.747334E+03
       142   4  2.924993E+05 -1.482327E+02  2.311714E+03 -5.972871E+03 -1.770668E+03 -3.097894E+03
       142   5  2.919199E+05 -4.222113E+02  3.867368E+03 -1.695392E+03 -3.753258E+03 -3.555707E+03
       142   6  2.924982E+05  2.818212E+03  7.596323E+03 -5.973912E+03 -5.735874E+03 -3.747402E+03
       142   7  1.912042E+05 -2.526231E+04 -2.198904E+04 -6.389943E+03 -2.068091E+03 -3.097998E+03
       142   8  1.791627E+05 -2.837088E+04 -2.314829E+04 -1.521197E+03 -3.916199E+03 -3.555801E+03
       142   9  1.682557E+05 -2.798809E+04 -2.222736E+04 -5.208550E+03 -5.764297E+03 -3.747469E+03
       142  10  3.938038E+05  2.496508E+04  2.661172E+04 -5.555735E+03 -3.734810E-09  2.248388E-11
       142  11  4.046888E+05  2.752552E+04  3.088207E+04 -1.869630E+03 -3.148985E-09 -8.221967E-11
       142  12  4.167547E+05  3.362337E+04  3.741882E+04 -6.739446E+03  6.117940E-10 -5.454686E-10
       142  13  2.924993E+05 -1.482439E+02  2.311690E+03 -5.972876E+03 -9.500476E-10 -5.826296E-11
       142  14  2.919199E+05 -4.222286E+02  3.867318E+03 -1.695403E+03 -2.240289E-09  3.096411E-10
       142  15  2.924981E+05  2.818188E+03  7.596235E+03 -5.973929E+03 -1.267309E-09 -9.351068E-10
       142  16  1.912042E+05 -2.526232E+04 -2.198907E+04 -6.389948E+03  1.635300E-09  7.721168E-11
       142  17  1.791627E+05 -2.837090E+04 -2.314834E+04 -1.521209E+03  1.157117E-09  1.632562E-09
       142  18  1.682556E+05 -2.798811E+04 -2.222745E+04 -5.208567E+03  7.157192E-12 -1.013661E-09
       142  19  3.938038E+05  2.496510E+04  2.661174E+04 -5.555731E+03  1.473197E+03  3.097791E+03
       142  20  4.046888E+05  2.752554E+04  3.088212E+04 -1.869619E+03  3.590288E+03  3.555612E+03
       142  21  4.167548E+05  3.362339E+04  3.741891E+04 -6.739429E+03  5.707445E+03  3.747334E+03
       142  22  2.924993E+05 -1.482327E+02  2.311714E+03 -5.972871E+03  1.770668E+03  3.097894E+03
       142  23  2.919199E+05 -4.222113E+02  3.867368E+03 -1.695392E+03  3.753258E+03  3.555707E+03
       142  24  2.924982E+05  2.818212E+03  7.596323E+03 -5.973912E+03  5.735874E+03  3.747402E+03
       142  25  1.912042E+05 -2.526231E+04 -2.198904E+04 -6.389943E+03  2.068091E+03  3.097998E+03
       142  26  1.791627E+05 -2.837088E+04 -2.314829E+04 -1.521197E+03  3.916199E+03  3.555801E+03
       142  27  1.682557E+05 -2.798809E+04 -2.222736E+04 -5.208550E+03  5.764297E+03  3.747469E+03
       143   1  4.341507E+05  3.325701E+04  4.276593E+04 -2.371486E+03 -6.101086E+03 -4.529725E+03
       143   2  4.409830E+05  3.364126E+04  5.109696E+04 -4.077949E+03 -1.594631E+04 -4.881441E+03
       143   3  4.575108E+05  6.754253E+04  7.422118E+04 -1.438962E+04 -2.579383E+04 -1.637135E+03
       143   4  2.943258E+05 -1.391592E+03  9.308922E+03 -5.979325E+03 -7.181837E+03 -4.530212E+03
       143   5  2.896321E+05 -3.857980E+03  1.487474E+04 -1.684811E+03 -1.521200E+04 -4.881205E+03
       143   6  2.943211E+05  2.688193E+04  3.397621E+04 -5.995470E+03 -2.324423E+04 -1.635977E+03
       143   7  1.545187E+05 -3.604156E+04 -2.414945E+04 -9.586350E+03 -8.262344E+03 -4.530687E+03
       143   8  1.383021E+05 -4.135886E+04 -2.134909E+04  7.077382E+02 -1.447786E+04 -4.880962E+03
       143   9  1.311558E+05 -1.378039E+04 -6.270672E+03  2.396466E+03 -2.069531E+04 -1.634749E+03
       143  10  4.341507E+05  3.325698E+04  4.276582E+04 -2.371508E+03 -2.685082E-10 -1.246844E-09
       143  11  4.409828E+05  3.364117E+04  5.109644E+04 -4.078012E+03 -5.868150E-10 -2.214850E-09
       143  12  4.575101E+05  6.754235E+04  7.421992E+04 -1.438965E+04 -1.067516E-09 -7.457982E-10
       143  13  2.943257E+05 -1.391628E+03  9.308787E+03 -5.979351E+03 -4.389832E-09 -2.974870E-09
       143  14  2.896318E+05 -3.858068E+03  1.487426E+04 -1.684871E+03 -3.065045E-09  8.970037E-10
       143  15  2.943205E+05  2.688178E+04  3.397519E+04 -5.995500E+03 -5.969917E-10 -1.268206E-10
       143  16  1.545186E+05 -3.604160E+04 -2.414962E+04 -9.586380E+03 -2.976955E-10 -1.820424E-09
       143  17  1.383018E+05 -4.135894E+04 -2.134953E+04  7.076813E+02 -1.257648E-10  9.799784E-10
       143  18  1.311553E+05 -1.378050E+04 -6.271482E+03  2.396439E+03  6.081580E-10 -1.960270E-10
       143  19  4.341507E+05  3.325701E+04  4.276593E+04 -2.371486E+03  6.101086E+03  4.529725E+03
       143  20  4.409830E+05  3.364126E+04  5.109696E+04 -4.077949E+03  1.594631E+04  4.881441E+03
       143  21  4.575108E+05  6.754253E+04  7.422118E+04 -1.438962E+04  2.579383E+04  1.637135E+03
       143  22  2.943258E+05 -1.391592E+03  9.308922E+03 -5.979325E+03  7.181837E+03  4.530212E+03
       143  23  2.896321E+05 -3.857980E+03  1.487474E+04 -1.684811E+03  1.521200E+04  4.881205E+03
       143  24  2.943211E+05  2.688193E+04  3.397621E+04 -5.995470E+03  2.324423E+04  1.635977E+03
       143  25  1.545187E+05 -3.604156E+04 -2.414945E+04 -9.586350E+03  8.262344E+03  4.530687E+03
       143  26  1.383021E+05 -4.135886E+04 -2.134909E+04  7.077382E+02  1.447786E+04  4.880962E+03
       143  27  1.311558E+05 -1.378039E+04 -6.270672E+03  2.396466E+03  2.069531E+04  1.634749E+03
       144   1  2.634224E+06  1.070699E+07  2.637187E+06 -1.295352E+06  9.041332E+04  1.900028E+05
       144   2  1.935468E+06  8.295888E+06  1.949576E+06 -3.779433E+05  2.477525E+05  4.331908E+04
       144   3  1.418198E+06  5.998136E+06  1.410241E+06 -1.285207E+06  1.637057E+05 -1.047162E+05
       144   4  8.021983E+04  4.014241E+05  1.063413E+05 -1.236007E+06  9.110318E+04  5.470402E+04
       144   5 -2.328389E+04  3.604971E+05  5.342476E+04 -3.229542E+05  2.481087E+05  2.602391E+04
       144   6  3.543467E+04  4.077914E+05  6.858922E+04 -1.236025E+06  1.623698E+05 -4.574368E+03
       144   7 -2.481621E+06 -9.808542E+06 -2.432242E+06 -1.177443E+06  9.177530E+04 -7.838727E+04
       144   8 -1.986574E+06 -7.517691E+06 -1.847163E+06 -2.685281E+05  2.484649E+05  8.945151E+03
       144   9 -1.349586E+06 -5.154104E+06 -1.275242E+06 -1.187157E+06  1.610432E+05  9.467590E+04
       144  10  2.634205E+06  1.070695E+07  2.637105E+06 -1.295366E+06 -4.371311E-09 -1.642827E-09
       144  11  1.935401E+06  8.295870E+06  1.949457E+06 -3.779519E+05 -1.056394E-08  4.678108E-09
       144  12  1.418166E+06  5.998117E+06  1.410170E+06 -1.285193E+06  7.755208E-09 -1.758722E-08
       144  13  8.021010E+04  4.014187E+05  1.063201E+05 -1.236011E+06 -4.410159E-10 -2.539863E-09
       144  14 -2.335019E+04  3.604798E+05  5.330777E+04 -3.229594E+05 -5.181554E-09  8.612271E-09
       144  15  3.540636E+04  4.077843E+05  6.853964E+04 -1.236024E+06  3.348121E-09 -5.048613E-09
       144  16 -2.481632E+06 -9.808550E+06 -2.432270E+06 -1.177437E+06 -1.181067E-09 -9.778589E-10
       144  17 -1.986641E+06 -7.517707E+06 -1.847279E+06 -2.685299E+05 -2.828496E-10  1.397717E-08
       144  18 -1.349616E+06 -5.154121E+06 -1.275308E+06 -1.187169E+06  1.132965E-09  5.546860E-09
       144  19  2.634224E+06  1.070699E+07  2.637187E+06 -1.295352E+06 -9.041332E+04 -1.900028E+05
       144  20  1.935468E+06  8.295888E+06  1.949576E+06 -3.779433E+05 -2.477525E+05 -4.331908E+04
       144  21  1.418198E+06  5.998136E+06  1.410241E+06 -1.285207E+06 -1.637057E+05  1.047162E+05
       144  22  8.021983E+04  4.014241E+05  1.063413E+05 -1.236007E+06 -9.110318E+04 -5.470402E+04
       144  23 -2.328389E+04  3.604971E+05  5.342476E+04 -3.229542E+05 -2.481087E+05 -2.602391E+04
       144  24  3.543467E+04  4.077914E+05  6.858922E+04 -1.236025E+06 -1.623698E+05  4.574368E+03
       144  25 -2.481621E+06 -9.808542E+06 -2.432242E+06 -1.177443E+06 -9.177530E+04  7.838727E+04
       144  26 -1.986574E+06 -7.517691E+06 -1.847163E+06 -2.685281E+05 -2.484649E+05 -8.945151E+03
       144  27 -1.349586E+06 -5.154104E+06 -1.275242E+06 -1.187157E+06 -1.610432E+05 -9.467590E+04
       145   1  5.946247E+05  2.644426E+06  6.101090E+05 -1.269089E+06  7.122391E+04 -5.409606E+04
       145   2 -1.862476E+04  3.245514E+05  7.382172E+04 -3.190229E+05 -8.369026E+02 -1.020714E+05
       145   3 -5.096005E+05 -2.015976E+06 -4.148411E+05 -1.193081E+06 -7.250144E+04 -1.498546E+05
       145   4  3.562795E+04  3.898399E+05  6.934468E+04 -1.235719E+06  7.068735E+04 -1.899457E+04
       145   5  8.938096E+02  4.026733E+05  9.262330E+04 -3.233295E+05 -1.357915E+03 -6.721837E+04
       145   6  8.880867E+04  3.897780E+05  1.639502E+05 -1.234930E+06 -7.301811E+04 -1.154246E+05
       145   7 -5.237350E+05 -1.860102E+06 -4.717753E+05 -1.202448E+06  7.015349E+04  1.598048E+04
       145   8  2.041265E+04  4.808034E+05  1.114290E+05 -3.276366E+05 -1.879377E+03 -3.236102E+04
       145   9  6.868001E+05  2.800843E+06  7.423340E+05 -1.276918E+06 -7.353835E+04 -8.086079E+04
       145  10  5.946185E+05  2.644421E+06  6.100940E+05 -1.269086E+06  6.003925E-09 -3.067317E-08
       145  11 -1.862756E+04  3.245402E+05  7.380215E+04 -3.190230E+05  3.280154E-09 -2.071428E-09
       145  12 -5.096122E+05 -2.016002E+06 -4.148934E+05 -1.193090E+06 -7.783504E-09 -2.029128E-08
       145  13  3.562249E+04  3.898381E+05  6.933462E+04 -1.235718E+06  4.148870E-09 -1.479160E-08
       145  14  8.925956E+02  4.026684E+05  9.261481E+04 -3.233296E+05  7.213483E-09  1.547824E-08
       145  15  8.879935E+04  3.897622E+05  1.639151E+05 -1.234937E+06  9.800555E-09 -5.674606E-09
       145  16 -5.237404E+05 -1.860104E+06 -4.717850E+05 -1.202449E+06  7.397411E-10  1.587682E-08
       145  17  2.041236E+04  4.808022E+05  1.114270E+05 -3.276367E+05 -1.291543E-08  3.296676E-08
       145  18  6.867925E+05  2.800834E+06  7.423116E+05 -1.276922E+06 -2.841674E-09  8.236308E-09
       145  19  5.946247E+05  2.644426E+06  6.101090E+05 -1.269089E+06 -7.122391E+04  5.409606E+04
       145  20 -1.862476E+04  3.245514E+05  7.382172E+04 -3.190229E+05  8.369026E+02  1.020714E+05
       145  21 -5.096005E+05 -2.015976E+06 -4.148411E+05 -1.193081E+06  7.250144E+04  1.498546E+05
       145  22  3.562795E+04  3.898399E+05  6.934468E+04 -1.235719E+06 -7.068735E+04  1.899457E+04
       145  23  8.938096E+02  4.026733E+05  9.262330E+04 -3.233295E+05  1.357915E+03  6.721837E+04
       145  24  8.880867E+04  3.897780E+05  1.639502E+05 -1.234930E+06  7.301811E+04  1.154246E+05
       145  25 -5.237350E+05 -1.860102E+06 -4.717753E+05 -1.202448E+06 -7.015349E+04 -1.598048E+04
       145  26  2.041265E+04  4.808034E+05  1.114290E+05 -3.276366E+05  1.879377E+03  3.236102E+04
       145  27  6.868001E+05  2.800843E+06  7.423340E+05 -1.276918E+06  7.353835E+04  8.086079E+04
       146   1 -1.415981E+06 -5.272702E+06 -1.178011E+06 -1.246702E+06 -1.636157E+05 -2.485597E+05
       146   2 -2.097463E+06 -7.719665E+06 -1.637387E+06 -2.283017E+05 -2.507479E+05 -2.943890E+05
       146   3 -2.050025E+06 -9.924068E+06 -1.875138E+06 -1.037663E+06 -9.171374E+04 -3.381568E+05
       146   4  5.764467E+03  4.446668E+05  2.028905E+05 -1.236950E+06 -1.649476E+05 -1.493749E+05
       146   5 -9.437056E+04  3.135488E+05  3.009217E+05 -3.227517E+05 -2.503452E+05 -3.141040E+05
       146   6  5.508294E+05  4.381489E+05  7.010837E+05 -1.234522E+06 -9.097036E+04 -4.769778E+05
       146   7  1.425129E+06  6.192110E+06  1.581491E+06 -1.226972E+06 -1.662696E+05 -4.926879E+04
       146   8  1.904015E+06  8.406262E+06  2.234618E+06 -4.183021E+05 -2.499401E+05 -3.340546E+05
       146   9  3.143730E+06  1.089895E+07  3.269354E+06 -1.434521E+06 -9.014731E+04 -6.180882E+05
       146  10 -1.416027E+06 -5.272776E+06 -1.178179E+06 -1.246735E+06  1.169058E-09 -2.454021E-08
       146  11 -2.097554E+06 -7.719776E+06 -1.637670E+06 -2.283615E+05  6.407368E-09  1.982535E-10
       146  12 -2.050065E+06 -9.924195E+06 -1.875373E+06 -1.037688E+06  1.848343E-09  2.480969E-10
       146  13  5.729189E+03  4.446355E+05  2.027972E+05 -1.236969E+06 -7.214848E-09 -1.303670E-08
       146  14 -9.446438E+04  3.134260E+05  3.006184E+05 -3.228150E+05  4.728586E-09  8.333406E-09
       146  15  5.507594E+05  4.379024E+05  7.006405E+05 -1.234557E+06 -4.144474E-10 -8.010188E-10
       146  16  1.425099E+06  6.192100E+06  1.581434E+06 -1.226979E+06  5.150355E-09  1.120783E-08
       146  17  1.903919E+06  8.406127E+06  2.234293E+06 -4.183690E+05 -1.012739E-09  1.581075E-08
       146  18  3.143620E+06  1.089854E+07  3.268633E+06 -1.434566E+06 -2.821199E-09 -2.004024E-09
       146  19 -1.415981E+06 -5.272702E+06 -1.178011E+06 -1.246702E+06  1.636157E+05  2.485597E+05
       146  20 -2.097463E+06 -7.719665E+06 -1.637387E+06 -2.283017E+05  2.507479E+05  2.943890E+05
       146  21 -2.050025E+06 -9.924068E+06 -1.875138E+06 -1.037663E+06  9.171374E+04  3.381568E+05
       146  22  5.764467E+03  4.446668E+05  2.028905E+05 -1.236950E+06  1.649476E+05  1.493749E+05
       146  23 -9.437056E+04  3.135488E+05  3.009217E+05 -3.227517E+05  2.503452E+05  3.141040E+05
       146  24  5.508294E+05  4.381489E+05  7.010837E+05 -1.234522E+06  9.097036E+04  4.769778E+05
       146  25  1.425129E+06  6.192110E+06  1.581491E+06 -1.226972E+06  1.662696E+05  4.926879E+04
       146  26  1.904015E+06  8.406262E+06  2.234618E+06 -4.183021E+05  2.499401E+05  3.340546E+05
       146  27  3.143730E+06  1.089895E+07  3.269354E+06 -1.434521E+06  9.014731E+04  6.180882E+05
       147   1 -5.182213E+05 -2.309065E+05 -1.161864E+05 -2.269784E+05 -5.751402E+04 -1.781189E+04
       147   2 -4.893196E+05 -1.734929E+05 -6.780635E+04 -2.140424E+05 -3.503894E+04 -7.491724E+02
       147   3 -4.684344E+05 -1.435191E+05 -4.457710E+04 -2.006240E+05 -1.034598E+04  1.041345E+04
       147   4 -2.883665E+05 -1.157043E+05 -5.212799E+04 -1.340512E+05 -3.533013E+04 -9.487812E+03
       147   5 -2.828379E+05 -8.369339E+04 -2.489491E+04 -1.416188E+05 -2.530802E+04  2.901947E+03
       147   6 -2.828546E+05 -7.665071E+04 -1.293771E+04 -1.487059E+05 -1.306972E+04  9.390766E+03
       147   7 -5.846147E+04 -4.871292E+02  1.192637E+04 -4.109033E+04 -1.313778E+04 -1.157924E+03
       147   8 -7.631238E+04  6.114756E+03  1.801442E+04 -6.917142E+04 -1.557370E+04  6.554918E+03
       147   9 -9.723667E+04 -9.778304E+03  1.870118E+04 -9.677283E+04 -1.579436E+04  8.367749E+03
       147  10 -5.182250E+05 -2.309077E+05 -1.161932E+05 -2.269792E+05 -1.581231E-09 -4.429619E-10
       147  11 -4.893209E+05 -1.734932E+05 -6.780866E+04 -2.140424E+05 -7.926112E-10  8.891152E-10
       147  12 -4.684345E+05 -1.435193E+05 -4.457750E+04 -2.006239E+05  7.737435E-10  2.312621E-09
       147  13 -2.883679E+05 -1.157048E+05 -5.213050E+04 -1.340515E+05  1.166479E-09  5.664275E-10
       147  14 -2.828386E+05 -8.369357E+04 -2.489613E+04 -1.416187E+05 -1.288766E-09  3.696822E-10
       147  15 -2.828548E+05 -7.665085E+04 -1.293820E+04 -1.487058E+05 -1.044842E-09 -1.550373E-10
       147  16 -5.846166E+04 -4.871769E+02  1.192605E+04 -4.109034E+04 -7.695071E-11  8.911333E-10
       147  17 -7.631265E+04  6.114644E+03  1.801388E+04 -6.917134E+04 -1.190264E-09 -4.360838E-10
       147  18 -9.723695E+04 -9.778446E+03  1.870057E+04 -9.677273E+04 -2.006454E-09 -1.796285E-09
       147  19 -5.182213E+05 -2.309065E+05 -1.161864E+05 -2.269784E+05  5.751402E+04  1.781189E+04
       147  20 -4.893196E+05 -1.734929E+05 -6.780635E+04 -2.140424E+05  3.503894E+04  7.491724E+02
       147  21 -4.684344E+05 -1.435191E+05 -4.457710E+04 -2.006240E+05  1.034598E+04 -1.041345E+04
       147  22 -2.883665E+05 -1.157043E+05 -5.212799E+04 -1.340512E+05  3.533013E+04  9.487812E+03
       147  23 -2.828379E+05 -8.369339E+04 -2.489491E+04 -1.416188E+05  2.530802E+04 -2.901947E+03
       147  24 -2.828546E+05 -7.665071E+04 -1.293771E+04 -1.487059E+05  1.306972E+04 -9.390766E+03
       147  25 -5.846147E+04 -4.871292E+02  1.192637E+04 -4.109033E+04  1.313778E+04  1.157924E+03
       147  26 -7.631238E+04  6.114756E+03  1.801442E+04 -6.917142E+04  1.557370E+04 -6.554918E+03
       147  27 -9.723667E+04 -9.778304E+03  1.870118E+04 -9.677283E+04  1.579436E+04 -8.367749E+03
       148   1 -4.450213E+05 -1.362316E+05 -3.700861E+04 -1.960851E+05 -8.686414E+03  9.950918E+03
       148   2 -4.145628E+05 -1.192623E+05 -2.581879E+04 -1.845146E+05 -4.192733E+03  9.872036E+03
       148   3 -3.810361E+05 -1.085184E+05 -1.805195E+04 -1.775255E+05  5.486909E+02  9.133123E+03
       148   4 -2.813498E+05 -7.577638E+04 -9.603679E+03 -1.485713E+05 -1.125728E+04  8.985724E+03
       148   5 -2.828214E+05 -7.139062E+04 -4.990728E+03 -1.468093E+05 -8.156409E+03  8.384354E+03
       148   6 -2.809494E+05 -7.295395E+04 -2.696234E+03 -1.496292E+05 -4.807995E+03  7.122948E+03
       148   7 -1.176517E+05 -1.531884E+04  1.780006E+04 -1.010463E+05 -1.382883E+04  8.020253E+03
       148   8 -1.510614E+05 -2.351692E+04  1.583709E+04 -1.090965E+05 -1.212098E+04  6.896328E+03
       148   9 -1.808505E+05 -3.738795E+04  1.265979E+04 -1.217283E+05 -1.016566E+04  5.112411E+03
       148  10 -4.450214E+05 -1.362317E+05 -3.700894E+04 -1.960850E+05 -5.976123E-09  1.511322E-09
       148  11 -4.145628E+05 -1.192625E+05 -2.581900E+04 -1.845146E+05  6.523815E-09  4.440616E-09
       148  12 -3.810361E+05 -1.085185E+05 -1.805210E+04 -1.775255E+05  9.693480E-09  3.270739E-09
       148  13 -2.813500E+05 -7.577650E+04 -9.604069E+03 -1.485713E+05  5.728895E-09  1.815838E-09
       148  14 -2.828215E+05 -7.139071E+04 -4.990985E+03 -1.468093E+05  9.980958E-09  3.987618E-09
       148  15 -2.809494E+05 -7.295401E+04 -2.696373E+03 -1.496292E+05  1.113434E-08  2.982959E-09
       148  16 -1.176519E+05 -1.531896E+04  1.779958E+04 -1.010462E+05  1.100048E-08  1.324088E-09
       148  17 -1.510615E+05 -2.351701E+04  1.583672E+04 -1.090964E+05  1.011113E-08  3.417120E-09
       148  18 -1.808506E+05 -3.738800E+04  1.265955E+04 -1.217282E+05 -6.606018E-10  2.773344E-09
       148  19 -4.450213E+05 -1.362316E+05 -3.700861E+04 -1.960851E+05  8.686414E+03 -9.950918E+03
       148  20 -4.145628E+05 -1.192623E+05 -2.581879E+04 -1.845146E+05  4.192733E+03 -9.872036E+03
       148  21 -3.810361E+05 -1.085184E+05 -1.805195E+04 -1.775255E+05 -5.486909E+02 -9.133123E+03
       148  22 -2.813498E+05 -7.577638E+04 -9.603679E+03 -1.485713E+05  1.125728E+04 -8.985724E+03
       148  23 -2.828214E+05 -7.139062E+04 -4.990728E+03 -1.468093E+05  8.156409E+03 -8.384354E+03
       148  24 -2.809494E+05 -7.295395E+04 -2.696234E+03 -1.496292E+05  4.807995E+03 -7.122948E+03
       148  25 -1.176517E+05 -1.531884E+04  1.780006E+04 -1.010463E+05  1.382883E+04 -8.020253E+03
       148  26 -1.510614E+05 -2.351692E+04  1.583709E+04 -1.090965E+05  1.212098E+04 -6.896328E+03
       148  27 -1.808505E+05 -3.738795E+04  1.265979E+04 -1.217283E+05  1.016566E+04 -5.112411E+03
       149   1 -3.603840E+05 -1.012866E+05 -1.408859E+04 -1.719232E+05  1.456311E+03  7.763426E+03
       149   2 -3.300265E+05 -8.738656E+04 -8.216018E+03 -1.603551E+05  3.120536E+03  5.460403E+03
       149   3 -2.954960E+05 -7.796232E+04 -2.904343E+03 -1.537229E+05  4.812342E+03  3.083621E+03
       149   4 -2.807979E+05 -7.290792E+04 -2.014830E+03 -1.495992E+05 -3.883806E+03  5.759573E+03
       149   5 -2.828879E+05 -7.060916E+04 -1.090998E+03 -1.471595E+05 -2.375327E+03  3.398214E+03
       149   6 -2.807753E+05 -7.275543E+04 -6.046553E+02 -1.496559E+05 -8.393100E+02  9.630906E+02
       149   7 -2.012049E+05 -4.452850E+04  1.005895E+04 -1.272725E+05 -9.224643E+03  3.755449E+03
       149   8 -2.357472E+05 -5.383163E+04  6.034037E+03 -1.339630E+05 -7.871595E+03  1.335873E+03
       149   9 -2.660544E+05 -6.754856E+04  1.695114E+03 -1.455889E+05 -6.491034E+03 -1.157466E+03
       149  10 -3.603840E+05 -1.012867E+05 -1.408870E+04 -1.719232E+05  7.956163E-09  5.172669E-10
       149  11 -3.300265E+05 -8.738659E+04 -8.216092E+03 -1.603551E+05  2.642451E-09 -1.627919E-09
       149  12 -2.954960E+05 -7.796234E+04 -2.904405E+03 -1.537229E+05  1.030416E-09 -3.355381E-09
       149  13 -2.807979E+05 -7.290796E+04 -2.014921E+03 -1.495992E+05  9.368764E-09  1.302666E-09
       149  14 -2.828880E+05 -7.060918E+04 -1.091030E+03 -1.471595E+05  4.616128E-09 -5.766243E-10
       149  15 -2.807753E+05 -7.275543E+04 -6.046584E+02 -1.496559E+05 -2.913993E-09 -3.703144E-09
       149  16 -2.012050E+05 -4.452854E+04  1.005877E+04 -1.272725E+05 -1.268420E-09  2.349610E-09
       149  17 -2.357473E+05 -5.383165E+04  6.033917E+03 -1.339629E+05 -2.535206E-09 -7.526056E-11
       149  18 -2.660544E+05 -6.754858E+04  1.695032E+03 -1.455889E+05 -8.319923E-09 -4.139585E-09
       149  19 -3.603840E+05 -1.012866E+05 -1.408859E+04 -1.719232E+05 -1.456311E+03 -7.763426E+03
       149  20 -3.300265E+05 -8.738656E+04 -8.216018E+03 -1.603551E+05 -3.120536E+03 -5.460403E+03
       149  21 -2.954960E+05 -7.796232E+04 -2.904343E+03 -1.537229E+05 -4.812342E+03 -3.083621E+03
       149  22 -2.807979E+05 -7.290792E+04 -2.014830E+03 -1.495992E+05  3.883806E+03 -5.759573E+03
       149  23 -2.828879E+05 -7.060916E+04 -1.090998E+03 -1.471595E+05  2.375327E+03 -3.398214E+03
       149  24 -2.807753E+05 -7.275543E+04 -6.046553E+02 -1.496559E+05  8.393100E+02 -9.630906E+02
       149  25 -2.012049E+05 -4.452850E+04  1.005895E+04 -1.272725E+05  9.224643E+03 -3.755449E+03
       149  26 -2.357472E+05 -5.383163E+04  6.034037E+03 -1.339630E+05  7.871595E+03 -1.335873E+03
       149  27 -2.660544E+05 -6.754856E+04  1.695114E+03 -1.455889E+05  6.491034E+03  1.157466E+03
       150   1 -2.751152E+05 -7.070330E+04  4.189608E+02 -1.480261E+05  5.482862E+03  1.555139E+03
       150   2 -2.448123E+05 -5.699739E+04  5.378563E+03 -1.364367E+05  6.634852E+03 -1.068808E+03
       150   3 -2.102086E+05 -4.762376E+04  1.022714E+04 -1.297975E+05  7.789372E+03 -3.699327E+03
       150   4 -2.807571E+05 -7.275724E+04 -4.579863E+02 -1.496489E+05 -1.669552E+02 -5.646974E+02
       150   5 -2.829088E+05 -7.059535E+04 -2.661673E+02 -1.471725E+05  9.709314E+02 -3.194032E+03
       150   6 -2.807587E+05 -7.276346E+04 -1.745565E+02 -1.496469E+05  2.111337E+03 -5.829937E+03
       150   7 -2.863990E+05 -7.481118E+04 -1.334817E+03 -1.512717E+05 -5.816789E+03 -2.684539E+03
       150   8 -3.210039E+05 -8.419323E+04 -5.910845E+03 -1.579076E+05 -4.692659E+03 -5.319132E+03
       150   9 -3.513035E+05 -9.790260E+04 -1.057617E+04 -1.694941E+05 -3.566020E+03 -7.960292E+03
       150  10 -2.751152E+05 -7.070331E+04  4.188997E+02 -1.480261E+05 -1.057967E-08 -5.833631E-09
       150  11 -2.448124E+05 -5.699741E+04  5.378478E+03 -1.364367E+05 -5.336637E-10  9.273323E-12
       150  12 -2.102086E+05 -4.762379E+04  1.022700E+04 -1.297975E+05  2.724570E-09 -1.154918E-10
       150  13 -2.807571E+05 -7.275724E+04 -4.579869E+02 -1.496489E+05 -6.697979E-09 -2.961789E-09
       150  14 -2.829088E+05 -7.059537E+04 -2.661882E+02 -1.471725E+05 -2.236696E-09  6.767221E-10
       150  15 -2.807587E+05 -7.276350E+04 -1.746288E+02 -1.496469E+05 -2.912529E-10  2.302615E-09
       150  16 -2.863990E+05 -7.481120E+04 -1.334894E+03 -1.512717E+05 -5.740183E-11 -3.350410E-10
       150  17 -3.210039E+05 -8.419326E+04 -5.910940E+03 -1.579076E+05  1.536888E-09  1.543308E-09
       150  18 -3.513035E+05 -9.790267E+04 -1.057631E+04 -1.694942E+05 -3.627021E-09  4.303043E-09
       150  19 -2.751152E+05 -7.070330E+04  4.189608E+02 -1.480261E+05 -5.482862E+03 -1.555139E+03
       150  20 -2.448123E+05 -5.699739E+04  5.378563E+03 -1.364367E+05 -6.634852E+03  1.068808E+03
       150  21 -2.102086E+05 -4.762376E+04  1.022714E+04 -1.297975E+05 -7.789372E+03  3.699327E+03
       150  22 -2.807571E+05 -7.275724E+04 -4.579863E+02 -1.496489E+05  1.669552E+02  5.646974E+02
       150  23 -2.829088E+05 -7.059535E+04 -2.661673E+02 -1.471725E+05 -9.709314E+02  3.194032E+03
       150  24 -2.807587E+05 -7.276346E+04 -1.745565E+02 -1.496469E+05 -2.111337E+03  5.829937E+03
       150  25 -2.863990E+05 -7.481118E+04 -1.334817E+03 -1.512717E+05  5.816789E+03  2.684539E+03
       150  26 -3.210039E+05 -8.419323E+04 -5.910845E+03 -1.579076E+05  4.692659E+03  5.319132E+03
       150  27 -3.513035E+05 -9.790260E+04 -1.057617E+04 -1.694941E+05  3.566020E+03  7.960292E+03
       151   1 -1.898639E+05 -4.035615E+04  1.341365E+04 -1.240925E+05  8.404131E+03 -5.254754E+03
       151   2 -1.595812E+05 -2.665465E+04  1.817470E+04 -1.125003E+05  9.459543E+03 -7.918605E+03
       151   3 -1.249821E+05 -1.727163E+04  2.290038E+04 -1.058549E+05  1.051031E+04 -1.056953E+04
       151   4 -2.807584E+05 -7.276523E+04 -1.542032E+02 -1.496454E+05  2.726305E+03 -7.385382E+03
       151   5 -2.829152E+05 -7.060793E+04 -1.521906E+02 -1.471705E+05  3.808776E+03 -1.003934E+04
       151   6 -2.807618E+05 -7.277446E+04 -2.069668E+02 -1.496428E+05  4.886606E+03 -1.268038E+04
       151   7 -3.716428E+05 -1.051730E+05 -1.372170E+04 -1.751944E+05 -2.950577E+03 -9.515656E+03
       151   8 -4.062326E+05 -1.145595E+05 -1.847911E+04 -1.818343E+05 -1.840806E+03 -1.215962E+04
       151   9 -4.365171E+05 -1.282754E+05 -2.331497E+04 -1.934209E+05 -7.356762E+02 -1.479070E+04
       151  10 -1.898640E+05 -4.035620E+04  1.341347E+04 -1.240925E+05  2.740839E-09 -3.115002E-10
       151  11 -1.595813E+05 -2.665474E+04  1.817442E+04 -1.125002E+05 -9.700196E-09 -3.960371E-09
       151  12 -1.249822E+05 -1.727178E+04  2.289996E+04 -1.058548E+05 -8.312837E-09 -4.077053E-09
       151  13 -2.807585E+05 -7.276529E+04 -1.543197E+02 -1.496454E+05 -1.011324E-08  1.313880E-09
       151  14 -2.829152E+05 -7.060804E+04 -1.524073E+02 -1.471705E+05 -1.760622E-08 -9.559489E-11
       151  15 -2.807619E+05 -7.277463E+04 -2.073138E+02 -1.496428E+05 -1.378909E-08 -8.830302E-10
       151  16 -3.716428E+05 -1.051731E+05 -1.372189E+04 -1.751944E+05 -1.459807E-08  2.759429E-09
       151  17 -4.062326E+05 -1.145597E+05 -1.847940E+04 -1.818343E+05 -1.174487E-08  2.132648E-09
       151  18 -4.365171E+05 -1.282756E+05 -2.331538E+04 -1.934209E+05  1.663659E-09  2.822405E-09
       151  19 -1.898639E+05 -4.035615E+04  1.341365E+04 -1.240925E+05 -8.404131E+03  5.254754E+03
       151  20 -1.595812E+05 -2.665465E+04  1.817470E+04 -1.125003E+05 -9.459543E+03  7.918605E+03
       151  21 -1.249821E+05 -1.727163E+04  2.290038E+04 -1.058549E+05 -1.051031E+04  1.056953E+04
       151  22 -2.807584E+05 -7.276523E+04 -1.542032E+02 -1.496454E+05 -2.726305E+03  7.385382E+03
       151  23 -2.829152E+05 -7.060793E+04 -1.521906E+02 -1.471705E+05 -3.808776E+03  1.003934E+04
       151  24 -2.807618E+05 -7.277446E+04 -2.069668E+02 -1.496428E+05 -4.886606E+03  1.268038E+04
       151  25 -3.716428E+05 -1.051730E+05 -1.372170E+04 -1.751944E+05  2.950577E+03  9.515656E+03
       151  26 -4.062326E+05 -1.145595E+05 -1.847911E+04 -1.818343E+05  1.840806E+03  1.215962E+04
       151  27 -4.365171E+05 -1.282754E+05 -2.331497E+04 -1.934209E+05  7.356762E+02  1.479070E+04
       152   1 -1.046457E+05 -1.000153E+04  2.603178E+04 -1.001541E+05  1.113427E+04 -1.210885E+04
       152   2 -7.439370E+04  3.709524E+03  3.071942E+04 -8.855965E+04  1.207959E+04 -1.472456E+04
       152   3 -3.982256E+04  1.310841E+04  3.543131E+04 -8.189628E+04  1.298019E+04 -1.722022E+04
       152   4 -2.807717E+05 -7.277495E+04 -2.584542E+02 -1.496432E+05  5.508360E+03 -1.422075E+04
       152   5 -2.829137E+05 -7.062978E+04 -4.422480E+02 -1.471651E+05  6.706962E+03 -1.674184E+04
       152   6 -2.807877E+05 -7.284721E+04 -8.025014E+02 -1.496186E+05  7.860826E+03 -1.914284E+04
       152   7 -4.568640E+05 -1.355450E+05 -2.654888E+04 -1.991190E+05 -1.158631E+02 -1.633202E+04
       152   8 -4.913852E+05 -1.449639E+05 -3.160391E+04 -2.057515E+05  1.336269E+03 -1.875838E+04
       152   9 -5.216868E+05 -1.587954E+05 -3.703605E+04 -2.173153E+05  2.743622E+03 -2.106465E+04
       152  10 -1.046459E+05 -1.000172E+04  2.603127E+04 -1.001540E+05 -5.784077E-08 -2.292114E-08
       152  11 -7.439391E+04  3.709252E+03  3.071874E+04 -8.855951E+04 -1.500949E-08 -5.666614E-09
       152  12 -3.982282E+04  1.310805E+04  3.543044E+04 -8.189610E+04  4.486996E-08  1.921078E-08
       152  13 -2.807718E+05 -7.277517E+04 -2.588912E+02 -1.496431E+05 -1.376986E-08 -3.133396E-09
       152  14 -2.829139E+05 -7.063010E+04 -4.428592E+02 -1.471650E+05 -1.777217E-08 -7.386947E-09
       152  15 -2.807879E+05 -7.284762E+04 -8.033060E+02 -1.496185E+05 -6.748891E-09 -4.225907E-09
       152  16 -4.568640E+05 -1.355453E+05 -2.654938E+04 -1.991190E+05  4.607365E-08  1.647371E-08
       152  17 -4.913852E+05 -1.449643E+05 -3.160458E+04 -2.057515E+05 -1.222795E-08 -9.404885E-09
       152  18 -5.216869E+05 -1.587959E+05 -3.703690E+04 -2.173153E+05 -5.342218E-08 -2.718935E-08
       152  19 -1.046457E+05 -1.000153E+04  2.603178E+04 -1.001541E+05 -1.113427E+04  1.210885E+04
       152  20 -7.439370E+04  3.709524E+03  3.071942E+04 -8.855965E+04 -1.207959E+04  1.472456E+04
       152  21 -3.982256E+04  1.310841E+04  3.543131E+04 -8.189628E+04 -1.298019E+04  1.722022E+04
       152  22 -2.807717E+05 -7.277495E+04 -2.584542E+02 -1.496432E+05 -5.508360E+03  1.422075E+04
       152  23 -2.829137E+05 -7.062978E+04 -4.422480E+02 -1.471651E+05 -6.706962E+03  1.674184E+04
       152  24 -2.807877E+05 -7.284721E+04 -8.025014E+02 -1.496186E+05 -7.860826E+03  1.914284E+04
       152  25 -4.568640E+05 -1.355450E+05 -2.654888E+04 -1.991190E+05  1.158631E+02  1.633202E+04
       152  26 -4.913852E+05 -1.449639E+05 -3.160391E+04 -2.057515E+05 -1.336269E+03  1.875838E+04
       152  27 -5.216868E+05 -1.587954E+05 -3.703605E+04 -2.173153E+05 -2.743622E+03  2.106465E+04
       153   1 -1.945657E+04  2.037559E+04  3.851666E+04 -7.623429E+04  1.369664E+04 -1.861058E+04
       153   2  1.047325E+04  3.421523E+04  4.352830E+04 -6.436138E+04  1.315122E+04 -2.098503E+04
       153   3  4.473856E+04  4.359564E+04  4.941354E+04 -5.722348E+04  1.220472E+04 -2.229077E+04
       153   4 -2.808572E+05 -7.285735E+04 -1.069468E+03 -1.496169E+05  8.550953E+03 -2.054337E+04
       153   5 -2.828838E+05 -7.096724E+04 -1.974796E+03 -1.470391E+05  1.026266E+04 -2.207093E+04
       153   6 -2.810238E+05 -7.398434E+04 -3.795327E+03 -1.491972E+05  1.157328E+04 -2.252942E+04
       153   7 -5.421871E+05 -1.660843E+05 -4.065731E+04 -2.229713E+05  3.407494E+03 -2.247534E+04
       153   8 -5.761499E+05 -1.761413E+05 -4.747976E+04 -2.296805E+05  7.375523E+03 -2.315629E+04
       153   9 -6.066726E+05 -1.915532E+05 -5.700657E+04 -2.411256E+05  1.094219E+04 -2.276794E+04
       153  10 -1.945687E+04  2.037516E+04  3.851566E+04 -7.623408E+04 -7.418809E-09  1.082915E-09
       153  11  1.047295E+04  3.421471E+04  4.352715E+04 -6.436116E+04  6.398016E-09  4.138300E-09
       153  12  4.473827E+04  4.359507E+04  4.941232E+04 -5.722326E+04  1.282362E-08  2.562361E-09
       153  13 -2.808574E+05 -7.285782E+04 -1.070399E+03 -1.496168E+05  4.727358E-09  3.751557E-10
       153  14 -2.828840E+05 -7.096779E+04 -1.975909E+03 -1.470389E+05  8.954778E-09  3.697353E-09
       153  15 -2.810241E+05 -7.398492E+04 -3.796532E+03 -1.491970E+05 -8.623368E-11  3.651276E-10
       153  16 -5.421872E+05 -1.660848E+05 -4.065828E+04 -2.229713E+05  1.330275E-08 -1.759365E-10
       153  17 -5.761501E+05 -1.761418E+05 -4.748087E+04 -2.296803E+05  8.331918E-09  3.866360E-09
       153  18 -6.066729E+05 -1.915538E+05 -5.700777E+04 -2.411254E+05 -6.868783E-09 -2.492845E-09
       153  19 -1.945657E+04  2.037559E+04  3.851666E+04 -7.623429E+04 -1.369664E+04  1.861058E+04
       153  20  1.047325E+04  3.421523E+04  4.352830E+04 -6.436138E+04 -1.315122E+04  2.098503E+04
       153  21  4.473856E+04  4.359564E+04  4.941354E+04 -5.722348E+04 -1.220472E+04  2.229077E+04
       153  22 -2.808572E+05 -7.285735E+04 -1.069468E+03 -1.496169E+05 -8.550953E+03  2.054337E+04
       153  23 -2.828838E+05 -7.096724E+04 -1.974796E+03 -1.470391E+05 -1.026266E+04  2.207093E+04
       153  24 -2.810238E+05 -7.398434E+04 -3.795327E+03 -1.491972E+05 -1.157328E+04  2.252942E+04
       153  25 -5.421871E+05 -1.660843E+05 -4.065731E+04 -2.229713E+05 -3.407494E+03  2.247534E+04
       153  26 -5.761499E+05 -1.761413E+05 -4.747976E+04 -2.296805E+05 -7.375523E+03  2.315629E+04
       153  27 -6.066726E+05 -1.915532E+05 -5.700657E+04 -2.411256E+05 -1.094219E+04  2.276794E+04
       154   1  6.548470E+04  5.064814E+04  5.299171E+04 -5.193184E+04  1.323941E+04 -2.254909E+04
       154   2  9.108939E+04  6.595235E+04  6.357468E+04 -3.518349E+04 -3.492012E+03 -2.385700E+04
       154   3  1.206883E+05  7.322997E+04  8.411381E+04 -2.072966E+04 -2.381407E+04 -1.561488E+04
       154   4 -2.817052E+05 -7.424688E+04 -5.111505E+03 -1.491518E+05  1.236122E+04 -2.288054E+04
       154   5 -2.827973E+05 -7.594408E+04 -9.836329E+03 -1.451116E+05  1.580718E+04 -1.660916E+04
       154   6 -2.838949E+05 -8.966785E+04 -2.059406E+04 -1.433666E+05  1.566264E+04 -7.842177E+02
       154   7 -6.287657E+05 -1.991295E+05 -6.321752E+04 -2.463207E+05  1.148354E+04 -2.321180E+04
       154   8 -6.565309E+05 -2.178217E+05 -8.325017E+04 -2.549749E+05  3.509358E+04 -9.366578E+03
       154   9 -6.883005E+05 -2.525411E+05 -1.253051E+05 -2.659235E+05  5.510993E+04  1.403354E+04
       154  10  6.548437E+04  5.064754E+04  5.299042E+04 -5.193160E+04 -6.541661E-10 -2.891843E-09
       154  11  9.108922E+04  6.595174E+04  6.357359E+04 -3.518356E+04 -2.137149E-09 -2.348492E-09
       154  12  1.206877E+05  7.322955E+04  8.411229E+04 -2.072996E+04 -1.865845E-09 -1.381622E-09
       154  13 -2.817055E+05 -7.424748E+04 -5.112776E+03 -1.491516E+05  5.968535E-10 -2.256407E-09
       154  14 -2.827976E+05 -7.594444E+04 -9.837317E+03 -1.451113E+05 -7.846894E-10 -9.928157E-10
       154  15 -2.838951E+05 -8.966791E+04 -2.059452E+04 -1.433666E+05 -9.504935E-10  5.158506E-10
       154  16 -6.287660E+05 -1.991301E+05 -6.321878E+04 -2.463204E+05  1.445780E-09 -8.686693E-10
       154  17 -6.565322E+05 -2.178222E+05 -8.325265E+04 -2.549746E+05  1.053458E-09 -1.715217E-09
       154  18 -6.883038E+05 -2.525421E+05 -1.253112E+05 -2.659242E+05  2.889485E-09  5.972633E-10
       154  19  6.548470E+04  5.064814E+04  5.299171E+04 -5.193184E+04 -1.323941E+04  2.254909E+04
       154  20  9.108939E+04  6.595235E+04  6.357468E+04 -3.518349E+04  3.492012E+03  2.385700E+04
       154  21  1.206883E+05  7.322997E+04  8.411381E+04 -2.072966E+04  2.381407E+04  1.561488E+04
       154  22 -2.817052E+05 -7.424688E+04 -5.111505E+03 -1.491518E+05 -1.236122E+04  2.288054E+04
       154  23 -2.827973E+05 -7.594408E+04 -9.836329E+03 -1.451116E+05 -1.580718E+04  1.660916E+04
       154  24 -2.838949E+05 -8.966785E+04 -2.059406E+04 -1.433666E+05 -1.566264E+04  7.842177E+02
       154  25 -6.287657E+05 -1.991295E+05 -6.321752E+04 -2.463207E+05 -1.148354E+04  2.321180E+04
       154  26 -6.565309E+05 -2.178217E+05 -8.325017E+04 -2.549749E+05 -3.509358E+04  9.366578E+03
       154  27 -6.883005E+05 -2.525411E+05 -1.253051E+05 -2.659235E+05 -5.510993E+04 -1.403354E+04
       155   1 -1.496501E+05 -2.386462E+04 -4.711420E+04 -1.961679E+04 -7.033678E+04 -2.539730E+03
       155   2 -1.494194E+05  7.036994E+04  8.580036E+03 -5.736002E+03 -4.741966E+04 -7.585223E+03
       155   3 -1.785262E+05  5.902224E+04  2.297145E+04  1.876465E+04 -2.450770E+04 -7.172561E+03
       155   4 -3.986078E+05 -8.591499E+04 -1.085461E+05  7.290064E+03 -7.424089E+04 -2.545580E+03
       155   5 -3.836861E+05  1.229815E+04 -4.752506E+04  1.946077E+03 -4.858309E+04 -7.586981E+03
       155   6 -3.985904E+05  4.430120E+03 -2.972259E+04  7.222436E+03 -2.292980E+04 -7.170735E+03
       155   7 -6.475075E+05 -1.479672E+05 -1.699821E+05  3.418611E+04 -7.814343E+04 -2.551771E+03
       155   8 -6.179023E+05 -4.577740E+04 -1.036340E+05  9.625234E+03 -4.974608E+04 -7.588767E+03
       155   9 -6.186099E+05 -5.016502E+04 -8.241998E+04 -4.315676E+03 -2.135246E+04 -7.168966E+03
       155  10 -1.496554E+05 -2.386596E+04 -4.712351E+04 -1.961694E+04 -6.569357E-10  5.210965E-10
       155  11 -1.494219E+05  7.036927E+04  8.575701E+03 -5.736292E+03 -5.895878E-10  2.291337E-10
       155  12 -1.785268E+05  5.902203E+04  2.297022E+04  1.876450E+04  1.552260E-09 -9.428983E-10
       155  13 -3.986137E+05 -8.591648E+04 -1.085564E+05  7.289912E+03 -8.420266E-10  1.356130E-09
       155  14 -3.836887E+05  1.229745E+04 -4.752960E+04  1.945780E+03 -3.452662E-09  8.921422E-10
       155  15 -3.985910E+05  4.429923E+03 -2.972368E+04  7.222303E+03 -8.285688E-10  3.489324E-10
       155  16 -6.475141E+05 -1.479689E+05 -1.699936E+05  3.418595E+04 -1.697746E-09  1.037454E-09
       155  17 -6.179050E+05 -4.577812E+04 -1.036388E+05  9.624930E+03  8.420376E-10 -6.674407E-10
       155  18 -6.186104E+05 -5.016520E+04 -8.242094E+04 -4.315799E+03 -9.887217E-10 -2.711539E-09
       155  19 -1.496501E+05 -2.386462E+04 -4.711420E+04 -1.961679E+04  7.033678E+04  2.539730E+03
       155  20 -1.494194E+05  7.036994E+04  8.580036E+03 -5.736002E+03  4.741966E+04  7.585223E+03
       155  21 -1.785262E+05  5.902224E+04  2.297145E+04  1.876465E+04  2.450770E+04  7.172561E+03
       155  22 -3.986078E+05 -8.591499E+04 -1.085461E+05  7.290064E+03  7.424089E+04  2.545580E+03
       155  23 -3.836861E+05  1.229815E+04 -4.752506E+04  1.946077E+03  4.858309E+04  7.586981E+03
       155  24 -3.985904E+05  4.430120E+03 -2.972259E+04  7.222436E+03  2.292980E+04  7.170735E+03
       155  25 -6.475075E+05 -1.479672E+05 -1.699821E+05  3.418611E+04  7.814343E+04  2.551771E+03
       155  26 -6.179023E+05 -4.577740E+04 -1.036340E+05  9.625234E+03  4.974608E+04  7.588767E+03
       155  27 -6.186099E+05 -5.016502E+04 -8.241998E+04 -4.315676E+03  2.135246E+04  7.168966E+03
       156   1 -1.923208E+05  4.070158E+04  2.389422E+04  4.930427E+03 -1.830568E+04 -6.053368E+03
       156   2 -2.052425E+05  4.739210E+04  3.218262E+04  1.355253E+03 -1.218792E+04 -5.871505E+03
       156   3 -2.217485E+05  4.290426E+04  3.369452E+04  8.762301E+03 -6.070846E+03 -5.276919E+03
       156   4 -3.927688E+05 -9.023905E+03 -2.425284E+04  7.332048E+03 -1.831725E+04 -6.053585E+03
       156   5 -3.909564E+05  1.334715E+03 -1.233879E+04  1.835627E+03 -1.199338E+04 -5.871408E+03
       156   6 -3.927651E+05  4.773013E+02 -7.345975E+03  7.321651E+03 -5.670049E+03 -5.276491E+03
       156   7 -5.931800E+05 -5.875229E+04 -7.240276E+04  9.732881E+03 -1.832883E+04 -6.053801E+03
       156   8 -5.766386E+05 -4.472518E+04 -5.686265E+04  2.315847E+03 -1.179891E+04 -5.871310E+03
       156   9 -5.637550E+05 -4.195178E+04 -4.838854E+04  5.881391E+03 -5.269362E+03 -5.276064E+03
       156  10 -1.923212E+05  4.070145E+04  2.389352E+04  4.930338E+03 -2.117255E-09 -2.981518E-09
       156  11 -2.052427E+05  4.739203E+04  3.218228E+04  1.355195E+03 -3.910200E-09 -8.379475E-10
       156  12 -2.217485E+05  4.290422E+04  3.369439E+04  8.762275E+03  4.649384E-10  1.022869E-09
       156  13 -3.927692E+05 -9.024034E+03 -2.425354E+04  7.331959E+03  5.737362E-10 -2.309082E-09
       156  14 -3.909565E+05  1.334640E+03 -1.233913E+04  1.835570E+03  7.647952E-10 -1.346648E-09
       156  15 -3.927652E+05  4.772628E+02 -7.346088E+03  7.321627E+03 -5.077052E-10 -1.214725E-09
       156  16 -5.931804E+05 -5.875242E+04 -7.240346E+04  9.732792E+03  7.598416E-10 -1.346171E-09
       156  17 -5.766387E+05 -4.472525E+04 -5.686298E+04  2.315791E+03  2.711664E-09 -1.359009E-10
       156  18 -5.637551E+05 -4.195181E+04 -4.838864E+04  5.881369E+03  1.069884E-10  5.947800E-10
       156  19 -1.923208E+05  4.070158E+04  2.389422E+04  4.930427E+03  1.830568E+04  6.053368E+03
       156  20 -2.052425E+05  4.739210E+04  3.218262E+04  1.355253E+03  1.218792E+04  5.871505E+03
       156  21 -2.217485E+05  4.290426E+04  3.369452E+04  8.762301E+03  6.070846E+03  5.276919E+03
       156  22 -3.927688E+05 -9.023905E+03 -2.425284E+04  7.332048E+03  1.831725E+04  6.053585E+03
       156  23 -3.909564E+05  1.334715E+03 -1.233879E+04  1.835627E+03  1.199338E+04  5.871408E+03
       156  24 -3.927651E+05  4.773013E+02 -7.345975E+03  7.321651E+03  5.670049E+03  5.276491E+03
       156  25 -5.931800E+05 -5.875229E+04 -7.240276E+04  9.732881E+03  1.832883E+04  6.053801E+03
       156  26 -5.766386E+05 -4.472518E+04 -5.686265E+04  2.315847E+03  1.179891E+04  5.871310E+03
       156  27 -5.637550E+05 -4.195178E+04 -4.838854E+04  5.881391E+03  5.269362E+03  5.276064E+03
       157   1 -2.410747E+05  3.652476E+04  3.041125E+04  7.327294E+03 -4.795421E+03 -4.865450E+03
       157   2 -2.557966E+05  3.388735E+04  2.945044E+04  1.899571E+03 -3.227686E+03 -4.286077E+03
       157   3 -2.710286E+05  3.009972E+04  2.717717E+04  7.656624E+03 -1.660208E+03 -3.672379E+03
       157   4 -3.920731E+05 -9.185841E+02 -5.757001E+03  7.370887E+03 -4.512475E+03 -4.865153E+03
       157   5 -3.918157E+05  1.513513E+02 -3.161572E+03  1.777748E+03 -2.927796E+03 -4.285717E+03
       157   6 -3.920718E+05  6.796722E+01 -1.890609E+03  7.369540E+03 -1.343336E+03 -3.671951E+03
       157   7 -5.430505E+05 -3.836359E+04 -4.192686E+04  7.414462E+03 -4.229598E+03 -4.864856E+03
       157   8 -5.278179E+05 -3.358599E+04 -3.577490E+04  1.655945E+03 -2.627971E+03 -4.285356E+03
       157   9 -5.131015E+05 -2.996485E+04 -3.095943E+04  7.082508E+03 -1.026525E+03 -3.671524E+03
       157  10 -2.410747E+05  3.652473E+04  3.041116E+04  7.327275E+03  5.258197E-09  2.756936E-09
       157  11 -2.557966E+05  3.388733E+04  2.945039E+04  1.899560E+03  1.648370E-10  3.052919E-09
       157  12 -2.710286E+05  3.009971E+04  2.717714E+04  7.656619E+03 -5.793735E-09  1.047149E-09
       157  13 -3.920731E+05 -9.186150E+02 -5.757084E+03  7.370869E+03  1.000009E-09 -1.022052E-09
       157  14 -3.918158E+05  1.513292E+02 -3.161623E+03  1.777738E+03  1.784773E-09  2.785471E-09
       157  15 -3.920718E+05  6.795226E+01 -1.890638E+03  7.369536E+03  1.006722E-10  4.661192E-09
       157  16 -5.430505E+05 -3.836362E+04 -4.192694E+04  7.414445E+03 -4.434539E-09  1.633725E-09
       157  17 -5.278179E+05 -3.358601E+04 -3.577494E+04  1.655936E+03 -1.261741E-09  2.794106E-09
       157  18 -5.131015E+05 -2.996487E+04 -3.095946E+04  7.082505E+03  5.537085E-09  2.667252E-09
       157  19 -2.410747E+05  3.652476E+04  3.041125E+04  7.327294E+03  4.795421E+03  4.865450E+03
       157  20 -2.557966E+05  3.388735E+04  2.945044E+04  1.899571E+03  3.227686E+03  4.286077E+03
       157  21 -2.710286E+05  3.009972E+04  2.717717E+04  7.656624E+03  1.660208E+03  3.672379E+03
       157  22 -3.920731E+05 -9.185841E+02 -5.757001E+03  7.370887E+03  4.512475E+03  4.865153E+03
       157  23 -3.918157E+05  1.513513E+02 -3.161572E+03  1.777748E+03  2.927796E+03  4.285717E+03
       157  24 -3.920718E+05  6.796722E+01 -1.890609E+03  7.369540E+03  1.343336E+03  3.671951E+03
       157  25 -5.430505E+05 -3.836359E+04 -4.192686E+04  7.414462E+03  4.229598E+03  4.864856E+03
       157  26 -5.278179E+05 -3.358599E+04 -3.577490E+04  1.655945E+03  2.627971E+03  4.285356E+03
       157  27 -5.131015E+05 -2.996485E+04 -3.095943E+04  7.082508E+03  1.026525E+03  3.671524E+03
       158   1 -2.912640E+05  2.490098E+04  2.260951E+04  7.512380E+03 -1.348918E+03 -3.309533E+03
       158   2 -3.063648E+05  2.124570E+04  1.955581E+04  1.846648E+03 -8.762036E+02 -2.694028E+03
       158   3 -3.215879E+05  1.749193E+04  1.616185E+04  7.503230E+03 -4.036269E+02 -2.073906E+03
       158   4 -3.919838E+05 -7.157421E+01 -1.494691E+03  7.400621E+03 -1.040230E+03 -3.309095E+03
       158   5 -3.919220E+05  2.467726E+01 -9.582329E+02  1.739343E+03 -5.652622E+02 -2.693561E+03
       158   6 -3.919832E+05  2.198160E+01 -7.636790E+02  7.400476E+03 -9.042109E+01 -2.073408E+03
       158   7 -4.926944E+05 -2.504487E+04 -2.559961E+04  7.288876E+03 -7.315916E+02 -3.308657E+03
       158   8 -4.774725E+05 -2.119688E+04 -2.147279E+04  1.632050E+03 -2.543635E+02 -2.693093E+03
       158   9 -4.623741E+05 -1.744832E+04 -1.768956E+04  7.297731E+03  2.227494E+02 -2.072910E+03
       158  10 -2.912640E+05  2.490097E+04  2.260949E+04  7.512377E+03  2.421428E-09  6.369096E-10
       158  11 -3.063648E+05  2.124570E+04  1.955579E+04  1.846646E+03 -2.227021E-09  3.431696E-09
       158  12 -3.215879E+05  1.749192E+04  1.616184E+04  7.503229E+03 -2.403419E-09  2.029766E-09
       158  13 -3.919838E+05 -7.158626E+01 -1.494713E+03  7.400618E+03  2.965364E-09  1.346868E-09
       158  14 -3.919220E+05  2.466938E+01 -9.582471E+02  1.739342E+03  3.705253E-10  1.733522E-09
       158  15 -3.919832E+05  2.197698E+01 -7.636871E+02  7.400475E+03 -1.110375E-10 -1.195091E-09
       158  16 -4.926944E+05 -2.504488E+04 -2.559963E+04  7.288874E+03 -4.080761E-10  1.396291E-09
       158  17 -4.774725E+05 -2.119689E+04 -2.147281E+04  1.632049E+03  7.924554E-10 -2.497121E-09
       158  18 -4.623741E+05 -1.744833E+04 -1.768957E+04  7.297731E+03  2.647470E-09 -2.176757E-09
       158  19 -2.912640E+05  2.490098E+04  2.260951E+04  7.512380E+03  1.348918E+03  3.309533E+03
       158  20 -3.063648E+05  2.124570E+04  1.955581E+04  1.846648E+03  8.762036E+02  2.694028E+03
       158  21 -3.215879E+05  1.749193E+04  1.616185E+04  7.503230E+03  4.036269E+02  2.073906E+03
       158  22 -3.919838E+05 -7.157421E+01 -1.494691E+03  7.400621E+03  1.040230E+03  3.309095E+03
       158  23 -3.919220E+05  2.467726E+01 -9.582329E+02  1.739343E+03  5.652622E+02  2.693561E+03
       158  24 -3.919832E+05  2.198160E+01 -7.636790E+02  7.400476E+03  9.042109E+01  2.073408E+03
       158  25 -4.926944E+05 -2.504487E+04 -2.559961E+04  7.288876E+03  7.315916E+02  3.308657E+03
       158  26 -4.774725E+05 -2.119688E+04 -2.147279E+04  1.632050E+03  2.543635E+02  2.693093E+03
       158  27 -4.623741E+05 -1.744832E+04 -1.768956E+04  7.297731E+03 -2.227494E+02  2.072910E+03
       159   1 -3.421044E+05  1.238292E+04  1.115786E+04  7.465672E+03 -2.672084E+02 -1.711641E+03
       159   2 -3.573025E+05  8.611643E+03  7.390353E+03  1.756538E+03  1.838475E+02 -1.089130E+03
       159   3 -3.726276E+05  4.752079E+03  3.297024E+03  7.446585E+03  6.348532E+02 -4.667047E+02
       159   4 -3.919835E+05  2.033597E+01 -7.554860E+02  7.417549E+03  4.604778E+01 -1.711130E+03
       159   5 -3.919198E+05  2.513271E+01 -9.101276E+02  1.718005E+03  4.970358E+02 -1.088609E+03
       159   6 -3.919833E+05 -5.827317E+01 -1.390481E+03  7.417683E+03  9.479845E+02 -4.661730E+02
       159   7 -4.418602E+05 -1.234243E+04 -1.266901E+04  7.369429E+03  3.592789E+02 -1.710619E+03
       159   8 -4.265361E+05 -8.561465E+03 -9.210692E+03  1.679475E+03  8.102066E+02 -1.088089E+03
       159   9 -4.113387E+05 -4.868653E+03 -6.078012E+03  7.388782E+03  1.261106E+03 -4.656414E+02
       159  10 -3.421044E+05  1.238292E+04  1.115785E+04  7.465671E+03  6.444052E-09  1.406715E-09
       159  11 -3.573025E+05  8.611642E+03  7.390350E+03  1.756538E+03 -6.580472E-10  1.767509E-09
       159  12 -3.726276E+05  4.752079E+03  3.297023E+03  7.446586E+03 -8.181352E-09 -1.627055E-09
       159  13 -3.919835E+05  2.033282E+01 -7.554915E+02  7.417549E+03 -1.551561E-09  4.438847E-09
       159  14 -3.919198E+05  2.513137E+01 -9.101303E+02  1.718006E+03 -5.795138E-10  2.712466E-09
       159  15 -3.919833E+05 -5.827365E+01 -1.390483E+03  7.417684E+03 -7.902111E-10 -1.933645E-09
       159  16 -4.418602E+05 -1.234243E+04 -1.266901E+04  7.369430E+03 -8.870273E-09  1.790294E-09
       159  17 -4.265361E+05 -8.561466E+03 -9.210696E+03  1.679476E+03 -1.347255E-09  1.440061E-09
       159  18 -4.113387E+05 -4.868654E+03 -6.078016E+03  7.388782E+03  7.416731E-09 -1.434159E-09
       159  19 -3.421044E+05  1.238292E+04  1.115786E+04  7.465672E+03  2.672084E+02  1.711641E+03
       159  20 -3.573025E+05  8.611643E+03  7.390353E+03  1.756538E+03 -1.838475E+02  1.089130E+03
       159  21 -3.726276E+05  4.752079E+03  3.297024E+03  7.446585E+03 -6.348532E+02  4.667047E+02
       159  22 -3.919835E+05  2.033597E+01 -7.554860E+02  7.417549E+03 -4.604778E+01  1.711130E+03
       159  23 -3.919198E+05  2.513271E+01 -9.101276E+02  1.718005E+03 -4.970358E+02  1.088609E+03
       159  24 -3.919833E+05 -5.827317E+01 -1.390481E+03  7.417683E+03 -9.479845E+02  4.661730E+02
       159  25 -4.418602E+05 -1.234243E+04 -1.266901E+04  7.369429E+03 -3.592789E+02  1.710619E+03
       159  26 -4.265361E+05 -8.561465E+03 -9.210692E+03  1.679475E+03 -8.102066E+02  1.088089E+03
       159  27 -4.113387E+05 -4.868653E+03 -6.078012E+03  7.388782E+03 -1.261106E+03  4.656414E+02
       160   1 -3.933038E+05 -2.481785E+02 -2.094254E+03  7.280054E+03  9.112029E+02 -1.009017E+02
       160   2 -4.083300E+05 -3.951797E+03 -6.870271E+03  1.714241E+03  2.378544E+03  5.242945E+02
       160   3 -4.238584E+05 -8.709031E+03 -1.287573E+04  7.559214E+03  3.845898E+03  1.132224E+03
       160   4 -3.920663E+05  6.865912E+01 -1.750994E+03  7.419675E+03  1.229256E+03 -1.003595E+02
       160   5 -3.918161E+05  1.443338E+02 -2.910671E+03  1.715049E+03  2.687933E+03  5.248163E+02
       160   6 -3.920668E+05 -8.320579E+02 -5.293714E+03  7.421194E+03  4.146658E+03  1.132726E+03
       160   7 -3.908287E+05  3.854967E+02 -1.407734E+03  7.559296E+03  1.547310E+03 -9.981719E+01
       160   8 -3.753020E+05  4.240445E+03  1.048910E+03  1.715857E+03  2.997330E+03  5.253380E+02
       160   9 -3.602743E+05  7.044843E+03  2.288233E+03  7.283167E+03  4.447434E+03  1.133227E+03
       160  10 -3.933038E+05 -2.481787E+02 -2.094256E+03  7.280054E+03 -1.075880E-08 -5.045214E-10
       160  11 -4.083300E+05 -3.951799E+03 -6.870282E+03  1.714240E+03 -2.906766E-09 -8.502159E-10
       160  12 -4.238584E+05 -8.709037E+03 -1.287576E+04  7.559210E+03  4.843665E-09 -4.181206E-10
       160  13 -3.920663E+05  6.865871E+01 -1.750997E+03  7.419675E+03 -1.662127E-10 -1.259635E-09
       160  14 -3.918161E+05  1.443315E+02 -2.910685E+03  1.715048E+03 -4.679345E-10 -1.500840E-09
       160  15 -3.920668E+05 -8.320639E+02 -5.293749E+03  7.421190E+03  1.025293E-10  6.872708E-10
       160  16 -3.908287E+05  3.854961E+02 -1.407739E+03  7.559296E+03  8.727172E-09 -1.176797E-09
       160  17 -3.753020E+05  4.240443E+03  1.048892E+03  1.715856E+03  8.132744E-10 -6.468089E-09
       160  18 -3.602743E+05  7.044836E+03  2.288194E+03  7.283163E+03 -5.814073E-09 -1.513482E-09
       160  19 -3.933038E+05 -2.481785E+02 -2.094254E+03  7.280054E+03 -9.112029E+02  1.009017E+02
       160  20 -4.083300E+05 -3.951797E+03 -6.870271E+03  1.714241E+03 -2.378544E+03 -5.242945E+02
       160  21 -4.238584E+05 -8.709031E+03 -1.287573E+04  7.559214E+03 -3.845898E+03 -1.132224E+03
       160  22 -3.920663E+05  6.865912E+01 -1.750994E+03  7.419675E+03 -1.229256E+03  1.003595E+02
       160  23 -3.918161E+05  1.443338E+02 -2.910671E+03  1.715049E+03 -2.687933E+03 -5.248163E+02
       160  24 -3.920668E+05 -8.320579E+02 -5.293714E+03  7.421194E+03 -4.146658E+03 -1.132726E+03
       160  25 -3.908287E+05  3.854967E+02 -1.407734E+03  7.559296E+03 -1.547310E+03  9.981719E+01
       160  26 -3.753020E+05  4.240445E+03  1.048910E+03  1.715857E+03 -2.997330E+03 -5.253380E+02
       160  27 -3.602743E+05  7.044843E+03  2.288233E+03  7.283167E+03 -4.447434E+03 -1.133227E+03
       161   1 -4.450494E+05 -1.254807E+04 -1.934795E+04  6.167637E+03  4.844555E+03  1.527941E+03
       161   2 -4.585678E+05 -1.551815E+04 -2.753005E+04  2.237753E+03  1.076785E+04  2.150664E+03
       161   3 -4.754781E+05 -2.880357E+04 -4.215813E+04  9.671085E+03  1.669132E+04  2.545696E+03
       161   4 -3.927050E+05  4.494280E+02 -6.753393E+03  7.405215E+03  5.210975E+03  1.528553E+03
       161   5 -3.910205E+05  1.234501E+03 -1.133547E+04  1.730588E+03  1.102013E+04  2.151048E+03
       161   6 -3.927078E+05 -8.275317E+03 -2.228370E+04  7.419168E+03  1.682961E+04  2.545830E+03
       161   7 -3.403581E+05  1.344673E+04  5.840973E+03  8.642896E+03  5.577426E+03  1.529167E+03
       161   8 -3.234689E+05  1.798682E+04  4.858793E+03  1.223366E+03  1.127244E+04  2.151432E+03
       161   9 -3.099313E+05  1.225246E+04 -2.409744E+03  5.166946E+03  1.696792E+04  2.545963E+03
       161  10 -4.450494E+05 -1.254808E+04 -1.934800E+04  6.167631E+03 -5.242635E-09  3.438786E-09
       161  11 -4.585680E+05 -1.551819E+04 -2.753028E+04  2.237734E+03 -3.726357E-09  3.169576E-09
       161  12 -4.754784E+05 -2.880365E+04 -4.215867E+04  9.671051E+03  1.237649E-09  1.780932E-09
       161  13 -3.927050E+05  4.494182E+02 -6.753449E+03  7.405208E+03  8.995097E-10  2.006848E-09
       161  14 -3.910206E+05  1.234464E+03 -1.133570E+04  1.730569E+03 -2.590223E-09  3.312530E-09
       161  15 -3.927081E+05 -8.275400E+03 -2.228424E+04  7.419133E+03 -4.809001E-10 -2.311104E-10
       161  16 -3.403581E+05  1.344672E+04  5.840910E+03  8.642889E+03  2.775867E-09  1.815213E-09
       161  17 -3.234691E+05  1.798678E+04  4.858545E+03  1.223346E+03  6.363728E-09  1.437743E-09
       161  18 -3.099316E+05  1.225237E+04 -2.410298E+03  5.166911E+03 -1.681141E-10 -1.127390E-09
       161  19 -4.450494E+05 -1.254807E+04 -1.934795E+04  6.167637E+03 -4.844555E+03 -1.527941E+03
       161  20 -4.585678E+05 -1.551815E+04 -2.753005E+04  2.237753E+03 -1.076785E+04 -2.150664E+03
       161  21 -4.754781E+05 -2.880357E+04 -4.215813E+04  9.671085E+03 -1.669132E+04 -2.545696E+03
       161  22 -3.927050E+05  4.494280E+02 -6.753393E+03  7.405215E+03 -5.210975E+03 -1.528553E+03
       161  23 -3.910205E+05  1.234501E+03 -1.133547E+04  1.730588E+03 -1.102013E+04 -2.151048E+03
       161  24 -3.927078E+05 -8.275317E+03 -2.228370E+04  7.419168E+03 -1.682961E+04 -2.545830E+03
       161  25 -3.403581E+05  1.344673E+04  5.840973E+03  8.642896E+03 -5.577426E+03 -1.529167E+03
       161  26 -3.234689E+05  1.798682E+04  4.858793E+03  1.223366E+03 -1.127244E+04 -2.151432E+03
       161  27 -3.099313E+05  1.225246E+04 -2.409744E+03  5.166946E+03 -1.696792E+04 -2.545963E+03
       162   1 -5.012148E+05 -2.154019E+04 -5.203535E+04 -3.224905E+03  2.004746E+04  3.336142E+03
       162   2 -5.024896E+05 -1.796586E+04 -7.195672E+04  8.839666E+03  4.513543E+04  3.882389E+03
       162   3 -5.314970E+05 -1.121214E+05 -1.326580E+05  3.215913E+04  7.022761E+04  1.401990E+03
       162   4 -3.980588E+05  4.085533E+03 -2.730937E+04  7.348210E+03  2.106783E+04  3.338030E+03
       162   5 -3.843351E+05  1.131059E+04 -4.365991E+04  1.780113E+03  4.463462E+04  3.881076E+03
       162   6 -3.980745E+05 -7.892101E+04 -9.972800E+04  7.467334E+03  6.820627E+04  1.396304E+03
       162   7 -2.948928E+05  2.971090E+04 -2.584085E+03  1.792309E+04  2.208836E+04  3.339954E+03
       162   8 -2.661676E+05  4.058621E+04 -1.536406E+04 -5.280795E+03  4.413371E+04  3.879775E+03
       162   9 -2.646345E+05 -4.571960E+04 -6.679894E+04 -1.722978E+04  6.618450E+04  1.390779E+03
       162  10 -5.012152E+05 -2.154031E+04 -5.203612E+04 -3.224959E+03 -1.854799E-09  7.192655E-10
       162  11 -5.024918E+05 -1.796642E+04 -7.196058E+04  8.839524E+03 -1.889102E-10  1.778454E-10
       162  12 -5.315023E+05 -1.121228E+05 -1.326673E+05  3.215905E+04 -2.460517E-10  3.047297E-11
       162  13 -3.980593E+05  4.085402E+03 -2.731023E+04  7.348153E+03  1.631232E-09  2.029098E-09
       162  14 -3.843372E+05  1.131003E+04 -4.366368E+04  1.779973E+03 -4.422799E-09 -1.796892E-09
       162  15 -3.980795E+05 -7.892226E+04 -9.973675E+04  7.467258E+03 -3.316897E-09  1.343434E-09
       162  16 -2.948933E+05  2.971076E+04 -2.585024E+03  1.792303E+04  8.336128E-10  4.521014E-10
       162  17 -2.661697E+05  4.058567E+04 -1.536775E+04 -5.280933E+03  3.429493E-09  6.936508E-10
       162  18 -2.646392E+05 -4.572078E+04 -6.680718E+04 -1.722985E+04 -8.399139E-10 -1.000177E-09
       162  19 -5.012148E+05 -2.154019E+04 -5.203535E+04 -3.224905E+03 -2.004746E+04 -3.336142E+03
       162  20 -5.024896E+05 -1.796586E+04 -7.195672E+04  8.839666E+03 -4.513543E+04 -3.882389E+03
       162  21 -5.314970E+05 -1.121214E+05 -1.326580E+05  3.215913E+04 -7.022761E+04 -1.401990E+03
       162  22 -3.980588E+05  4.085533E+03 -2.730937E+04  7.348210E+03 -2.106783E+04 -3.338030E+03
       162  23 -3.843351E+05  1.131059E+04 -4.365991E+04  1.780113E+03 -4.463462E+04 -3.881076E+03
       162  24 -3.980745E+05 -7.892101E+04 -9.972800E+04  7.467334E+03 -6.820627E+04 -1.396304E+03
       162  25 -2.948928E+05  2.971090E+04 -2.584085E+03  1.792309E+04 -2.208836E+04 -3.339954E+03
       162  26 -2.661676E+05  4.058621E+04 -1.536406E+04 -5.280795E+03 -4.413371E+04 -3.879775E+03
       162  27 -2.646345E+05 -4.571960E+04 -6.679894E+04 -1.722978E+04 -6.618450E+04 -1.390779E+03
       163   1  1.738203E+05  9.743347E+05  1.898120E+05 -9.164339E+04  4.157440E+03  7.166031E+04
       163   2  6.753014E+04  8.670827E+05  1.127084E+05 -4.635825E+04  1.186620E+04  3.857125E+04
       163   3  4.422682E+04  7.848269E+05  7.786171E+04 -4.574584E+04  9.033090E+03  5.478600E+03
       163   4  7.816378E+04  5.898860E+05  9.594904E+04 -5.703575E+04  4.169565E+03  6.136931E+04
       163   5 -3.447145E+03  5.781283E+05  4.666183E+04 -3.473361E+04  1.186896E+04  3.665167E+04
       163   6 -3.501602E+03  5.899228E+05  3.384011E+04 -5.710172E+04  9.026754E+03  1.192527E+04
       163   7 -1.749910E+04  2.055747E+05  2.076371E+03 -2.244954E+04  4.180549E+03  5.108466E+04
       163   8 -7.442973E+04  2.892514E+05 -1.939015E+04 -2.311441E+04  1.187165E+04  3.473298E+04
       163   9 -5.123212E+04  3.950543E+05 -1.018370E+04 -6.845400E+04  9.020182E+03  1.836993E+04
       163  10  1.738189E+05  9.743292E+05  1.898023E+05 -9.164363E+04 -1.611852E-09  7.160967E-09
       163  11  6.752959E+04  8.670811E+05  1.127054E+05 -4.635862E+04 -1.560022E-09 -3.475738E-10
       163  12  4.422673E+04  7.848268E+05  7.786150E+04 -4.574588E+04 -3.128852E-09 -7.777684E-09
       163  13  7.816275E+04  5.898820E+05  9.594194E+04 -5.703596E+04 -2.202969E-09 -9.611533E-10
       163  14 -3.447656E+03  5.781268E+05  4.665905E+04 -3.473396E+04 -4.121082E-09  9.199946E-10
       163  15 -3.501727E+03  5.899226E+05  3.383969E+04 -5.710181E+04 -3.378419E-09 -7.984025E-10
       163  16 -1.749982E+04  2.055719E+05  2.071436E+03 -2.244971E+04 -1.582688E-09 -6.788989E-09
       163  17 -7.443020E+04  2.892501E+05 -1.939268E+04 -2.311474E+04 -3.776497E-09 -1.601652E-10
       163  18 -5.123230E+04  3.950539E+05 -1.018449E+04 -6.845413E+04 -3.815972E-09  8.084114E-09
       163  19  1.738203E+05  9.743347E+05  1.898120E+05 -9.164339E+04 -4.157440E+03 -7.166031E+04
       163  20  6.753014E+04  8.670827E+05  1.127084E+05 -4.635825E+04 -1.186620E+04 -3.857125E+04
       163  21  4.422682E+04  7.848269E+05  7.786171E+04 -4.574584E+04 -9.033090E+03 -5.478600E+03
       163  22  7.816378E+04  5.898860E+05  9.594904E+04 -5.703575E+04 -4.169565E+03 -6.136931E+04
       163  23 -3.447145E+03  5.781283E+05  4.666183E+04 -3.473361E+04 -1.186896E+04 -3.665167E+04
       163  24 -3.501602E+03  5.899228E+05  3.384011E+04 -5.710172E+04 -9.026754E+03 -1.192527E+04
       163  25 -1.749910E+04  2.055747E+05  2.076371E+03 -2.244954E+04 -4.180549E+03 -5.108466E+04
       163  26 -7.442973E+04  2.892514E+05 -1.939015E+04 -2.311441E+04 -1.187165E+04 -3.473298E+04
       163  27 -5.123212E+04  3.950543E+05 -1.018370E+04 -6.845400E+04 -9.020182E+03 -1.836993E+04
       164   1  3.179027E+04  6.962763E+05  5.658090E+04 -6.075576E+04  4.988038E+03  3.134872E+03
       164   2  3.015231E+03  5.988296E+05  3.423887E+04 -3.430070E+04  7.416821E+02 -1.237445E+04
       164   3 -9.927543E+03  5.072613E+05  2.592096E+04 -5.284749E+04 -3.540007E+03 -2.788170E+04
       164   4  4.745347E+03  5.859942E+05  3.160266E+04 -5.715665E+04  4.984646E+03  6.498570E+03
       164   5 -8.482045E+02  5.830611E+05  3.067539E+04 -3.465364E+04  7.382296E+02 -8.982080E+03
       164   6  9.386181E+03  5.859927E+05  4.375298E+04 -5.715192E+04 -3.543355E+03 -2.446295E+04
       164   7 -2.230036E+04  4.757235E+05  6.623685E+03 -5.355819E+04  4.981293E+03  9.861676E+03
       164   8 -4.711650E+03  5.672928E+05  2.711193E+04 -3.500656E+04  7.347732E+02 -5.589794E+03
       164   9  2.869955E+04  6.647298E+05  6.158466E+04 -6.145690E+04 -3.546750E+03 -2.104377E+04
       164  10  3.179024E+04  6.962763E+05  5.658083E+04 -6.075577E+04 -8.651873E-10 -3.090542E-10
       164  11  3.015189E+03  5.988294E+05  3.423859E+04 -3.430070E+04  5.028914E-09 -3.792388E-10
       164  12 -9.927765E+03  5.072605E+05  2.591947E+04 -5.284757E+04 -1.726549E-09  1.735005E-09
       164  13  4.745309E+03  5.859942E+05  3.160253E+04 -5.715668E+04 -3.382668E-09 -9.293718E-10
       164  14 -8.482267E+02  5.830610E+05  3.067524E+04 -3.465363E+04 -1.599152E-10  9.525159E-10
       164  15  9.386007E+03  5.859920E+05  4.375183E+04 -5.715199E+04 -1.128760E-09 -7.825922E-10
       164  16 -2.230041E+04  4.757234E+05  6.623455E+03 -5.355823E+04 -2.341201E-09  7.980658E-10
       164  17 -4.711659E+03  5.672928E+05  2.711187E+04 -3.500656E+04 -6.679295E-10 -3.572120E-10
       164  18  2.869942E+04  6.647294E+05  6.158380E+04 -6.145696E+04 -8.213630E-10 -1.151572E-09
       164  19  3.179027E+04  6.962763E+05  5.658090E+04 -6.075576E+04 -4.988038E+03 -3.134872E+03
       164  20  3.015231E+03  5.988296E+05  3.423887E+04 -3.430070E+04 -7.416821E+02  1.237445E+04
       164  21 -9.927543E+03  5.072613E+05  2.592096E+04 -5.284749E+04  3.540007E+03  2.788170E+04
       164  22  4.745347E+03  5.859942E+05  3.160266E+04 -5.715665E+04 -4.984646E+03 -6.498570E+03
       164  23 -8.482045E+02  5.830611E+05  3.067539E+04 -3.465364E+04 -7.382296E+02  8.982080E+03
       164  24  9.386181E+03  5.859927E+05  4.375298E+04 -5.715192E+04  3.543355E+03  2.446295E+04
       164  25 -2.230036E+04  4.757235E+05  6.623685E+03 -5.355819E+04 -4.981293E+03 -9.861676E+03
       164  26 -4.711650E+03  5.672928E+05  2.711193E+04 -3.500656E+04 -7.347732E+02  5.589794E+03
       164  27  2.869955E+04  6.647298E+05  6.158466E+04 -6.145690E+04  3.546750E+03  2.104377E+04
       165   1 -4.728751E+04  4.309158E+05  1.472390E+04 -7.826184E+04 -7.494886E+03 -3.849180E+04
       165   2 -6.955622E+04  3.154342E+05  2.229910E+04 -1.364159E+04 -1.048186E+04 -7.391034E+04
       165   3  5.642748E+04  2.415835E+05  8.998310E+04  6.325834E+03 -3.719082E+03 -1.093141E+05
       165   4 -7.311653E+03  5.942341E+05  5.163342E+04 -5.711288E+04 -7.502420E+03 -3.224381E+04
       165   5 -6.302407E+03  5.727393E+05  8.116326E+04 -3.472571E+04 -1.047772E+04 -7.540681E+04
       165   6  1.442611E+05  5.941808E+05  1.761551E+05 -5.698510E+04 -3.700255E+03 -1.185607E+05
       165   7  3.266408E+04  7.575782E+05  8.854162E+04 -3.595831E+04 -7.509527E+03 -2.599418E+04
       165   8  5.694847E+04  8.301066E+05  1.400233E+05 -5.581863E+04 -1.047348E+04 -7.690388E+04
       165   9  2.321007E+05  9.469000E+05  2.623206E+05 -1.203320E+05 -3.679551E+03 -1.278126E+05
       165  10 -4.728797E+04  4.309142E+05  1.472101E+04 -7.826207E+04 -1.775526E-09  1.205794E-08
       165  11 -6.955781E+04  3.154283E+05  2.228863E+04 -1.364221E+04  2.064782E-09  1.148868E-09
       165  12  5.642426E+04  2.415707E+05  8.996062E+04  6.325506E+03  8.496247E-10 -7.868433E-09
       165  13 -7.311992E+03  5.942329E+05  5.163137E+04 -5.711308E+04 -2.958634E-09 -4.775593E-10
       165  14 -6.304050E+03  5.727331E+05  8.115238E+04 -3.472635E+04 -1.371540E-09  1.122355E-09
       165  15  1.442574E+05  5.941657E+05  1.761287E+05 -5.698546E+04 -4.243725E-10 -2.403791E-10
       165  16  3.266384E+04  7.575774E+05  8.854025E+04 -3.595846E+04 -6.532314E-10 -1.159823E-08
       165  17  5.694677E+04  8.301002E+05  1.400120E+05 -5.581927E+04 -1.358724E-10 -1.780169E-09
       165  18  2.320963E+05  9.468825E+05  2.622899E+05 -1.203324E+05  3.236687E-10  8.335621E-09
       165  19 -4.728751E+04  4.309158E+05  1.472390E+04 -7.826184E+04  7.494886E+03  3.849180E+04
       165  20 -6.955622E+04  3.154342E+05  2.229910E+04 -1.364159E+04  1.048186E+04  7.391034E+04
       165  21  5.642748E+04  2.415835E+05  8.998310E+04  6.325834E+03  3.719082E+03  1.093141E+05
       165  22 -7.311653E+03  5.942341E+05  5.163342E+04 -5.711288E+04  7.502420E+03  3.224381E+04
       165  23 -6.302407E+03  5.727393E+05  8.116326E+04 -3.472571E+04  1.047772E+04  7.540681E+04
       165  24  1.442611E+05  5.941808E+05  1.761551E+05 -5.698510E+04  3.700255E+03  1.185607E+05
       165  25  3.266408E+04  7.575782E+05  8.854162E+04 -3.595831E+04  7.509527E+03  2.599418E+04
       165  26  5.694847E+04  8.301066E+05  1.400233E+05 -5.581863E+04  1.047348E+04  7.690388E+04
       165  27  2.321007E+05  9.469000E+05  2.623206E+05 -1.203320E+05  3.679551E+03  1.278126E+05
       166   1  9.128958E+04  3.499042E+04  1.698951E+04 -7.466739E+03 -4.801066E+04 -5.021918E+03
       166   2  6.534599E+04  9.977727E+04  5.065471E+04  1.902908E+03 -3.483706E+04 -1.525042E+04
       166   3  1.893641E+04  8.948762E+04  5.699137E+04  3.048257E+04 -2.168006E+04 -1.496308E+04
       166   4 -3.286886E+05 -6.947039E+04 -8.575399E+04  1.991726E+04 -5.877578E+04 -5.040041E+03
       166   5 -3.178042E+05  5.389807E+03 -3.825408E+04  1.025469E+04 -3.829460E+04 -1.525717E+04
       166   6 -3.286705E+05  3.877969E+03 -2.317207E+04  1.980348E+04 -1.782895E+04 -1.495638E+04
       166   7 -7.485042E+05 -1.739413E+05 -1.885095E+05  4.728263E+04 -6.953363E+04 -5.059122E+03
       166   8 -7.008186E+05 -8.900772E+04 -1.271727E+05  1.860122E+04 -4.175001E+04 -1.526402E+04
       166   9 -6.761653E+05 -8.173973E+04 -1.033434E+05  9.130371E+03 -1.397997E+04 -1.494981E+04
       166  10  9.128710E+04  3.498977E+04  1.698513E+04 -7.466933E+03 -3.140240E-09  1.020992E-09
       166  11  6.534463E+04  9.977669E+04  5.065200E+04  1.902480E+03 -4.203745E-09  3.264813E-09
       166  12  1.893584E+04  8.948725E+04  5.699006E+04  3.048231E+04  3.854568E-09  3.333534E-09
       166  13 -3.286923E+05 -6.947135E+04 -8.576053E+04  1.991702E+04 -1.925785E-09 -2.064745E-09
       166  14 -3.178058E+05  5.389163E+03 -3.825727E+04  1.025421E+04  9.932690E-10 -5.313786E-09
       166  15 -3.286709E+05  3.877644E+03 -2.317309E+04  1.980327E+04 -4.283766E-09  4.419357E-10
       166  16 -7.485094E+05 -1.739427E+05 -1.885187E+05  4.728235E+04  2.417346E-09  1.417571E-09
       166  17 -7.008205E+05 -8.900843E+04 -1.271764E+05  1.860070E+04  2.681176E-09  5.125693E-09
       166  18 -6.761655E+05 -8.174002E+04 -1.033442E+05  9.130203E+03 -2.990242E-09 -2.263396E-09
       166  19  9.128958E+04  3.499042E+04  1.698951E+04 -7.466739E+03  4.801066E+04  5.021918E+03
       166  20  6.534599E+04  9.977727E+04  5.065471E+04  1.902908E+03  3.483706E+04  1.525042E+04
       166  21  1.893641E+04  8.948762E+04  5.699137E+04  3.048257E+04  2.168006E+04  1.496308E+04
       166  22 -3.286886E+05 -6.947039E+04 -8.575399E+04  1.991726E+04  5.877578E+04  5.040041E+03
       166  23 -3.178042E+05  5.389807E+03 -3.825408E+04  1.025469E+04  3.829460E+04  1.525717E+04
       166  24 -3.286705E+05  3.877969E+03 -2.317207E+04  1.980348E+04  1.782895E+04  1.495638E+04
       166  25 -7.485042E+05 -1.739413E+05 -1.885095E+05  4.728263E+04  6.953363E+04  5.059122E+03
       166  26 -7.008186E+05 -8.900772E+04 -1.271727E+05  1.860122E+04  4.175001E+04  1.526402E+04
       166  27 -6.761653E+05 -8.173973E+04 -1.033434E+05  9.130371E+03  1.397997E+04  1.494981E+04
       167   1 -1.242390E+04  7.147928E+04  5.357234E+04  1.856444E+04 -1.500275E+04 -1.266797E+04
       167   2 -4.764464E+04  6.837635E+04  5.385937E+04  1.006961E+04 -1.039630E+04 -1.151883E+04
       167   3 -8.499688E+04  5.934476E+04  4.965478E+04  2.121875E+04 -5.791918E+03 -9.828120E+03
       167   4 -3.243224E+05 -5.356020E+03 -1.868757E+04  1.994052E+04 -1.439262E+04 -1.266731E+04
       167   5 -3.232192E+05  5.126309E+02 -9.837660E+03  1.011262E+04 -9.411552E+03 -1.151722E+04
       167   6 -3.243156E+05  3.858552E+02 -5.741432E+03  1.992934E+04 -4.432291E+03 -9.825487E+03
       167   7 -6.361309E+05 -8.219816E+04 -9.095400E+04  2.131586E+04 -1.378279E+04 -1.266664E+04
       167   8 -5.987235E+05 -6.735642E+04 -7.353976E+04  1.015558E+04 -8.427235E+03 -1.151562E+04
       167   9 -5.635814E+05 -5.857708E+04 -6.114147E+04  1.864039E+04 -3.073184E+03 -9.822860E+03
       167  10 -1.242419E+04  7.147905E+04  5.357161E+04  1.856429E+04 -3.072625E-10 -1.389455E-09
       167  11 -4.764479E+04  6.837618E+04  5.385892E+04  1.006952E+04 -1.918984E-09 -9.570756E-10
       167  12 -8.499695E+04  5.934465E+04  4.965454E+04  2.121871E+04  2.695840E-09  5.397029E-09
       167  13 -3.243226E+05 -5.356248E+03 -1.868826E+04  1.994037E+04 -1.324599E-09  4.731766E-09
       167  14 -3.232193E+05  5.124647E+02 -9.838076E+03  1.011253E+04 -5.223413E-09 -1.394596E-08
       167  15 -3.243157E+05  3.857462E+02 -5.741650E+03  1.992930E+04 -2.812274E-10  4.882381E-09
       167  16 -6.361312E+05 -8.219838E+04 -9.095466E+04  2.131571E+04 -1.310941E-09 -7.571831E-09
       167  17 -5.987236E+05 -6.735658E+04 -7.354014E+04  1.015550E+04 -1.490839E-09 -2.578209E-09
       167  18 -5.635814E+05 -5.857718E+04 -6.114167E+04  1.864037E+04 -1.062117E-09  2.917552E-11
       167  19 -1.242390E+04  7.147928E+04  5.357234E+04  1.856444E+04  1.500275E+04  1.266797E+04
       167  20 -4.764464E+04  6.837635E+04  5.385937E+04  1.006961E+04  1.039630E+04  1.151883E+04
       167  21 -8.499688E+04  5.934476E+04  4.965478E+04  2.121875E+04  5.791918E+03  9.828120E+03
       167  22 -3.243224E+05 -5.356020E+03 -1.868757E+04  1.994052E+04  1.439262E+04  1.266731E+04
       167  23 -3.232192E+05  5.126309E+02 -9.837660E+03  1.011262E+04  9.411552E+03  1.151722E+04
       167  24 -3.243156E+05  3.858552E+02 -5.741432E+03  1.992934E+04  4.432291E+03  9.825487E+03
       167  25 -6.361309E+05 -8.219816E+04 -9.095400E+04  2.131586E+04  1.378279E+04  1.266664E+04
       167  26 -5.987235E+05 -6.735642E+04 -7.353976E+04  1.015558E+04  8.427235E+03  1.151562E+04
       167  27 -5.635814E+05 -5.857708E+04 -6.114147E+04  1.864039E+04  3.073184E+03  9.822860E+03
       168   1 -1.203979E+05  4.977404E+04  4.249187E+04  2.024488E+04 -4.734489E+03 -8.736654E+03
       168   2 -1.566766E+05  4.123399E+04  3.611825E+04  1.038383E+04 -3.521324E+03 -7.002268E+03
       168   3 -1.933037E+05  3.230261E+04  2.883596E+04  2.028125E+04 -2.308751E+03 -5.238060E+03
       168   4 -3.239014E+05 -3.237959E+02 -4.442268E+03  1.995863E+04 -3.539017E+03 -8.734249E+03
       168   5 -3.237233E+05  9.440020E+01 -2.485223E+03  1.007874E+04 -2.305494E+03 -6.999670E+03
       168   6 -3.238979E+05  1.178309E+02 -1.451039E+03  1.995764E+04 -1.072492E+03 -5.235262E+03
       168   7 -5.273666E+05 -5.042453E+04 -5.137916E+04  1.967244E+04 -2.343935E+03 -8.731844E+03
       168   8 -4.907442E+05 -4.104715E+04 -4.109055E+04  9.773711E+03 -1.089988E+03 -6.997073E+03
       168   9 -4.544765E+05 -3.206815E+04 -3.173917E+04  1.963410E+04  1.635085E+02 -5.232465E+03
       168  10 -1.203979E+05  4.977395E+04  4.249169E+04  2.024485E+04  4.356258E-09 -1.554954E-09
       168  11 -1.566766E+05  4.123394E+04  3.611813E+04  1.038381E+04 -3.010128E-09 -4.917865E-09
       168  12 -1.933037E+05  3.230258E+04  2.883589E+04  2.028124E+04  8.202778E-10 -4.735709E-09
       168  13 -3.239014E+05 -3.238811E+02 -4.442434E+03  1.995860E+04  1.074859E-09 -5.074932E-10
       168  14 -3.237233E+05  9.434616E+01 -2.485325E+03  1.007872E+04  2.875275E-09 -4.219533E-09
       168  15 -3.238979E+05  1.178012E+02 -1.451092E+03  1.995764E+04 -1.715559E-10 -3.397699E-09
       168  16 -5.273666E+05 -5.042462E+04 -5.137931E+04  1.967243E+04 -4.606087E-09 -5.078524E-09
       168  17 -4.907442E+05 -4.104720E+04 -4.109064E+04  9.773705E+03  5.166987E-10  1.827222E-09
       168  18 -4.544765E+05 -3.206818E+04 -3.173922E+04  1.963410E+04  7.910033E-10  4.725301E-09
       168  19 -1.203979E+05  4.977404E+04  4.249187E+04  2.024488E+04  4.734489E+03  8.736654E+03
       168  20 -1.566766E+05  4.123399E+04  3.611825E+04  1.038383E+04  3.521324E+03  7.002268E+03
       168  21 -1.933037E+05  3.230261E+04  2.883596E+04  2.028125E+04  2.308751E+03  5.238060E+03
       168  22 -3.239014E+05 -3.237959E+02 -4.442268E+03  1.995863E+04  3.539017E+03  8.734249E+03
       168  23 -3.237233E+05  9.440020E+01 -2.485223E+03  1.007874E+04  2.305494E+03  6.999670E+03
       168  24 -3.238979E+05  1.178309E+02 -1.451039E+03  1.995764E+04  1.072492E+03  5.235262E+03
       168  25 -5.273666E+05 -5.042453E+04 -5.137916E+04  1.967244E+04  2.343935E+03  8.731844E+03
       168  26 -4.907442E+05 -4.104715E+04 -4.109055E+04  9.773711E+03  1.089988E+03  6.997073E+03
       168  27 -4.544765E+05 -3.206815E+04 -3.173917E+04  1.963410E+04 -1.635085E+02  5.232465E+03
       169   1 -2.291970E+05  2.335754E+04  2.064429E+04  2.015525E+04 -2.072402E+03 -4.205616E+03
       169   2 -2.656674E+05  1.436920E+04  1.274728E+04  1.018308E+04 -1.740246E+03 -2.438012E+03
       169   3 -3.022813E+05  5.432811E+03  4.621354E+03  2.001826E+04 -1.408281E+03 -6.682871E+02
       169   4 -3.238498E+05  6.724578E+01 -1.122773E+03  1.996880E+04 -8.437227E+02 -4.202770E+03
       169   5 -3.237767E+05  5.732810E+01 -6.820031E+02  1.006503E+04 -5.101698E+02 -2.435112E+03
       169   6 -3.238486E+05  9.919632E+01 -4.710944E+02  1.996872E+04 -1.767890E+02 -6.653285E+02
       169   7 -4.184942E+05 -2.322367E+04 -2.289042E+04  1.978237E+04  3.847711E+02 -4.199923E+03
       169   8 -3.818828E+05 -1.425478E+04 -1.411151E+04  9.946992E+03  7.197919E+02 -2.432212E+03
       169   9 -3.454154E+05 -5.234451E+03 -5.563569E+03  1.991918E+04  1.054660E+03 -6.623700E+02
       169  10 -2.291970E+05  2.335752E+04  2.064425E+04  2.015524E+04  2.235806E-09 -6.617770E-09
       169  11 -2.656675E+05  1.436919E+04  1.274726E+04  1.018308E+04 -6.849250E-09  4.121882E-09
       169  12 -3.022813E+05  5.432810E+03  4.621349E+03  2.001826E+04 -3.805468E-09  1.919848E-10
       169  13 -3.238498E+05  6.722662E+01 -1.122808E+03  1.996879E+04 -1.070293E-09  8.130044E-10
       169  14 -3.237767E+05  5.732166E+01 -6.820148E+02  1.006503E+04 -2.364612E-09 -5.068915E-09
       169  15 -3.238486E+05  9.919584E+01 -4.710953E+02  1.996872E+04  1.256951E-09 -3.215051E-10
       169  16 -4.184942E+05 -2.322369E+04 -2.289046E+04  1.978237E+04 -8.632969E-10  1.485500E-09
       169  17 -3.818828E+05 -1.425478E+04 -1.411152E+04  9.946993E+03  5.379084E-09  7.621131E-09
       169  18 -3.454154E+05 -5.234451E+03 -5.563572E+03  1.991918E+04  6.691576E-09  4.033708E-09
       169  19 -2.291970E+05  2.335754E+04  2.064429E+04  2.015525E+04  2.072402E+03  4.205616E+03
       169  20 -2.656674E+05  1.436920E+04  1.274728E+04  1.018308E+04  1.740246E+03  2.438012E+03
       169  21 -3.022813E+05  5.432811E+03  4.621354E+03  2.001826E+04  1.408281E+03  6.682871E+02
       169  22 -3.238498E+05  6.724578E+01 -1.122773E+03  1.996880E+04  8.437227E+02  4.202770E+03
       169  23 -3.237767E+05  5.732810E+01 -6.820031E+02  1.006503E+04  5.101698E+02  2.435112E+03
       169  24 -3.238486E+05  9.919632E+01 -4.710944E+02  1.996872E+04  1.767890E+02  6.653285E+02
       169  25 -4.184942E+05 -2.322367E+04 -2.289042E+04  1.978237E+04 -3.847711E+02  4.199923E+03
       169  26 -3.818828E+05 -1.425478E+04 -1.411151E+04  9.946992E+03 -7.197919E+02  2.432212E+03
       169  27 -3.454154E+05 -5.234451E+03 -5.563569E+03  1.991918E+04 -1.054660E+03  6.623700E+02
       170   1 -3.382608E+05 -3.474660E+03 -3.863575E+03  1.994438E+04 -1.329919E+03  3.622347E+02
       170   2 -3.747417E+05 -1.249761E+04 -1.220226E+04  9.971467E+03 -1.122622E+03  2.131860E+03
       170   3 -4.113451E+05 -2.144925E+04 -2.068389E+04  1.980806E+04 -9.151883E+02  3.899469E+03
       170   4 -3.238439E+05  9.784565E+01 -4.235970E+02  1.996917E+04 -9.843487E+01  3.651955E+02
       170   5 -3.237823E+05  5.405138E+01 -4.245831E+02  1.006448E+04  1.074297E+02  2.134768E+03
       170   6 -3.238449E+05  8.177755E+01 -5.675864E+02  1.996920E+04  3.134426E+02  3.902330E+03
       170   7 -3.094268E+05  3.670337E+03  3.016372E+03  1.999395E+04  1.133078E+03  3.681563E+02
       170   8 -2.728206E+05  1.260554E+04  1.135293E+04  1.015750E+04  1.337581E+03  2.137677E+03
       170   9 -2.363376E+05  2.161227E+04  1.954821E+04  2.013036E+04  1.542245E+03  3.905192E+03
       170  10 -3.382608E+05 -3.474660E+03 -3.863578E+03  1.994438E+04 -3.982380E-09  9.390032E-10
       170  11 -3.747417E+05 -1.249762E+04 -1.220227E+04  9.971469E+03 -8.011634E-09 -1.518740E-09
       170  12 -4.113451E+05 -2.144926E+04 -2.068392E+04  1.980807E+04 -9.410757E-09 -2.282816E-09
       170  13 -3.238439E+05  9.784550E+01 -4.235972E+02  1.996917E+04  1.935474E-09  6.595185E-09
       170  14 -3.237823E+05  5.404648E+01 -4.245917E+02  1.006448E+04  1.704862E-09 -2.543507E-09
       170  15 -3.238449E+05  8.176117E+01 -5.676152E+02  1.996920E+04 -1.086996E-09 -8.111302E-09
       170  16 -3.094268E+05  3.670336E+03  3.016369E+03  1.999395E+04  4.496470E-09  2.944746E-09
       170  17 -2.728206E+05  1.260553E+04  1.135292E+04  1.015750E+04  6.723604E-09 -6.631716E-09
       170  18 -2.363376E+05  2.161225E+04  1.954818E+04  2.013036E+04  8.483999E-09 -6.093697E-09
       170  19 -3.382608E+05 -3.474660E+03 -3.863575E+03  1.994438E+04  1.329919E+03 -3.622347E+02
       170  20 -3.747417E+05 -1.249761E+04 -1.220226E+04  9.971467E+03  1.122622E+03 -2.131860E+03
       170  21 -4.113451E+05 -2.144925E+04 -2.068389E+04  1.980806E+04  9.151883E+02 -3.899469E+03
       170  22 -3.238439E+05  9.784565E+01 -4.235970E+02  1.996917E+04  9.843487E+01 -3.651955E+02
       170  23 -3.237823E+05  5.405138E+01 -4.245831E+02  1.006448E+04 -1.074297E+02 -2.134768E+03
       170  24 -3.238449E+05  8.177755E+01 -5.675864E+02  1.996920E+04 -3.134426E+02 -3.902330E+03
       170  25 -3.094268E+05  3.670337E+03  3.016372E+03  1.999395E+04 -1.133078E+03 -3.681563E+02
       170  26 -2.728206E+05  1.260554E+04  1.135293E+04  1.015750E+04 -1.337581E+03 -2.137677E+03
       170  27 -2.363376E+05  2.161227E+04  1.954821E+04  2.013036E+04 -1.542245E+03 -3.905192E+03
       171   1 -4.473041E+05 -3.032274E+04 -2.933352E+04  1.970065E+04 -8.115430E+02  4.931862E+03
       171   2 -4.836574E+05 -3.931967E+04 -3.808916E+04  9.798701E+03 -2.322222E+02  6.695456E+03
       171   3 -5.202134E+05 -4.844604E+04 -4.727625E+04  1.965696E+04  3.475948E+02  8.429795E+03
       171   4 -3.238635E+05  1.045810E+02 -6.953620E+02  1.995805E+04  4.245097E+02  4.934679E+03
       171   5 -3.237653E+05  6.565943E+01 -1.131744E+03  1.007833E+04  9.835883E+02  6.698079E+03
       171   6 -3.238667E+05 -9.892405E+01 -1.985216E+03  1.995850E+04  1.543196E+03  8.432233E+03
       171   7 -2.004089E+05  3.053083E+04  2.794177E+04  2.021549E+04  1.660806E+03  4.937496E+03
       171   8 -1.638495E+05  3.944919E+04  3.582397E+04  1.035801E+04  2.199710E+03  6.700703E+03
       171   9 -1.274844E+05  4.824549E+04  4.330325E+04  2.026012E+04  2.739173E+03  8.434672E+03
       171  10 -4.473041E+05 -3.032277E+04 -2.933356E+04  1.970065E+04  5.233278E-10 -3.876219E-09
       171  11 -4.836575E+05 -3.931971E+04 -3.808924E+04  9.798702E+03  4.588557E-09 -8.528952E-09
       171  12 -5.202134E+05 -4.844611E+04 -4.727638E+04  1.965695E+04  3.399351E-09 -1.752179E-09
       171  13 -3.238635E+05  1.045548E+02 -6.954081E+02  1.995804E+04  5.084824E-12 -6.033353E-09
       171  14 -3.237653E+05  6.561100E+01 -1.131830E+03  1.007832E+04  4.897349E-09 -3.105888E-10
       171  15 -3.238667E+05 -9.900103E+01 -1.985354E+03  1.995849E+04 -2.981847E-09  2.688732E-09
       171  16 -2.004090E+05  3.053080E+04  2.794172E+04  2.021548E+04 -9.747074E-11  2.572432E-09
       171  17 -1.638495E+05  3.944914E+04  3.582387E+04  1.035800E+04 -5.358102E-09 -1.422425E-09
       171  18 -1.274844E+05  4.824541E+04  4.330311E+04  2.026010E+04 -3.857152E-09  6.681502E-09
       171  19 -4.473041E+05 -3.032274E+04 -2.933352E+04  1.970065E+04  8.115430E+02 -4.931862E+03
       171  20 -4.836574E+05 -3.931967E+04 -3.808916E+04  9.798701E+03  2.322222E+02 -6.695456E+03
       171  21 -5.202134E+05 -4.844604E+04 -4.727625E+04  1.965696E+04 -3.475948E+02 -8.429795E+03
       171  22 -3.238635E+05  1.045810E+02 -6.953620E+02  1.995805E+04 -4.245097E+02 -4.934679E+03
       171  23 -3.237653E+05  6.565943E+01 -1.131744E+03  1.007833E+04 -9.835883E+02 -6.698079E+03
       171  24 -3.238667E+05 -9.892405E+01 -1.985216E+03  1.995850E+04 -1.543196E+03 -8.432233E+03
       171  25 -2.004089E+05  3.053083E+04  2.794177E+04  2.021549E+04 -1.660806E+03 -4.937496E+03
       171  26 -1.638495E+05  3.944919E+04  3.582397E+04  1.035801E+04 -2.199710E+03 -6.700703E+03
       171  27 -1.274844E+05  4.824549E+04  4.330325E+04  2.026012E+04 -2.739173E+03 -8.434672E+03
       172   1 -5.562070E+05 -5.699375E+04 -5.631236E+04  1.915749E+04  5.833146E+02  9.519129E+03
       172   2 -5.919626E+05 -6.587983E+04 -6.642928E+04  9.906300E+03  3.161087E+03  1.120845E+04
       172   3 -6.287769E+05 -7.743967E+04 -7.890691E+04  2.030754E+04  5.740442E+03  1.236529E+04
       172   4 -3.240473E+05  2.158817E+02 -2.555390E+03  1.993275E+04  1.940136E+03  9.521786E+03
       172   5 -3.235525E+05  2.425975E+02 -4.367450E+03  1.010930E+04  4.148427E+03  1.121010E+04
       172   6 -3.240530E+05 -2.339468E+03 -8.282689E+03  1.993778E+04  6.358450E+03  1.236605E+04
       172   7 -9.183767E+04  5.742173E+04  5.119798E+04  2.070828E+04  3.297462E+03  9.524446E+03
       172   8 -5.507583E+04  6.635996E+04  5.768958E+04  1.031235E+04  5.136191E+03  1.121176E+04
       172   9 -1.924329E+04  7.275420E+04  6.233530E+04  1.956779E+04  6.976758E+03  1.236680E+04
       172  10 -5.562070E+05 -5.699385E+04 -5.631253E+04  1.915748E+04  2.821666E-09  9.739942E-10
       172  11 -5.919626E+05 -6.587997E+04 -6.642954E+04  9.906272E+03 -1.216561E-09  4.284798E-09
       172  12 -6.287770E+05 -7.743984E+04 -7.890726E+04  2.030749E+04  1.038836E-09 -1.646651E-09
       172  13 -3.240473E+05  2.157834E+02 -2.555567E+03  1.993274E+04 -1.915079E-09 -2.820709E-09
       172  14 -3.235526E+05  2.424579E+02 -4.367719E+03  1.010926E+04 -4.127877E-09  7.226416E-09
       172  15 -3.240531E+05 -2.339643E+03 -8.283053E+03  1.993771E+04  1.389679E-09 -1.291892E-09
       172  16 -9.183771E+04  5.742163E+04  5.119779E+04  2.070826E+04 -6.533975E-09 -2.808317E-09
       172  17 -5.507589E+04  6.635982E+04  5.768929E+04  1.031230E+04 -4.463422E-09 -6.781623E-09
       172  18 -1.924338E+04  7.275402E+04  6.233492E+04  1.956772E+04 -9.019518E-10 -1.556122E-09
       172  19 -5.562070E+05 -5.699375E+04 -5.631236E+04  1.915749E+04 -5.833146E+02 -9.519129E+03
       172  20 -5.919626E+05 -6.587983E+04 -6.642928E+04  9.906300E+03 -3.161087E+03 -1.120845E+04
       172  21 -6.287769E+05 -7.743967E+04 -7.890691E+04  2.030754E+04 -5.740442E+03 -1.236529E+04
       172  22 -3.240473E+05  2.158817E+02 -2.555390E+03  1.993275E+04 -1.940136E+03 -9.521786E+03
       172  23 -3.235525E+05  2.425975E+02 -4.367450E+03  1.010930E+04 -4.148427E+03 -1.121010E+04
       172  24 -3.240530E+05 -2.339468E+03 -8.282689E+03  1.993778E+04 -6.358450E+03 -1.236605E+04
       172  25 -9.183767E+04  5.742173E+04  5.119798E+04  2.070828E+04 -3.297462E+03 -9.524446E+03
       172  26 -5.507583E+04  6.635996E+04  5.768958E+04  1.031235E+04 -5.136191E+03 -1.121176E+04
       172  27 -1.924329E+04  7.275420E+04  6.233530E+04  1.956779E+04 -6.976758E+03 -1.236680E+04
       173   1 -6.664216E+05 -8.210732E+04 -8.880798E+04  1.483135E+04  4.074575E+03  1.462574E+04
       173   2 -6.971333E+05 -9.028893E+04 -1.042395E+05  1.368501E+04  2.033388E+04  1.494712E+04
       173   3 -7.387195E+05 -1.335065E+05 -1.390223E+05  3.172912E+04  3.660737E+04  4.921583E+03
       173   4 -3.259744E+05  1.749654E+03 -1.026689E+04  1.981687E+04  7.878591E+03  1.463215E+04
       173   5 -3.211702E+05  2.390118E+03 -1.695377E+04  1.024731E+04  1.694772E+04  1.494078E+04
       173   6 -3.259865E+05 -3.074512E+04 -3.798926E+04  1.986822E+04  2.603224E+04  4.904841E+03
       173   7  1.458014E+04  8.559860E+04  6.826656E+04  2.480511E+04  1.168468E+04  1.463862E+04
       173   8  5.492364E+04  9.505925E+04  7.032250E+04  6.807452E+03  1.355952E+04  1.493448E+04
       173   9  8.690239E+04  7.200423E+04  6.303179E+04  7.999355E+03  1.545009E+04  4.888509E+03
       173  10 -6.664217E+05 -8.210756E+04 -8.880842E+04  1.483130E+04  2.162631E-09 -2.362940E-09
       173  11 -6.971338E+05 -9.028928E+04 -1.042407E+05  1.368477E+04  3.200861E-09  6.382214E-10
       173  12 -7.387209E+05 -1.335069E+05 -1.390248E+05  3.172898E+04  1.455873E-09  3.528613E-09
       173  13 -3.259745E+05  1.749408E+03 -1.026741E+04  1.981678E+04 -3.228808E-09  1.434738E-09
       173  14 -3.211705E+05  2.389801E+03 -1.695473E+04  1.024710E+04 -2.797363E-09  1.981425E-09
       173  15 -3.259872E+05 -3.074532E+04 -3.799058E+04  1.986812E+04  2.108372E-09  6.023541E-09
       173  16  1.457994E+04  8.559833E+04  6.826590E+04  2.480497E+04 -4.362465E-09  7.438827E-10
       173  17  5.492338E+04  9.505896E+04  7.032174E+04  6.807289E+03 -6.123043E-09  4.209807E-09
       173  18  8.690213E+04  7.200414E+04  6.303130E+04  7.999294E+03 -3.175173E-09 -8.500739E-10
       173  19 -6.664216E+05 -8.210732E+04 -8.880798E+04  1.483135E+04 -4.074575E+03 -1.462574E+04
       173  20 -6.971333E+05 -9.028893E+04 -1.042395E+05  1.368501E+04 -2.033388E+04 -1.494712E+04
       173  21 -7.387195E+05 -1.335065E+05 -1.390223E+05  3.172912E+04 -3.660737E+04 -4.921583E+03
       173  22 -3.259744E+05  1.749654E+03 -1.026689E+04  1.981687E+04 -7.878591E+03 -1.463215E+04
       173  23 -3.211702E+05  2.390118E+03 -1.695377E+04  1.024731E+04 -1.694772E+04 -1.494078E+04
       173  24 -3.259865E+05 -3.074512E+04 -3.798926E+04  1.986822E+04 -2.603224E+04 -4.904841E+03
       173  25  1.458014E+04  8.559860E+04  6.826656E+04  2.480511E+04 -1.168468E+04 -1.463862E+04
       173  26  5.492364E+04  9.505925E+04  7.032250E+04  6.807452E+03 -1.355952E+04 -1.493448E+04
       173  27  8.690239E+04  7.200423E+04  6.303179E+04  7.999355E+03 -1.545009E+04 -4.888509E+03
       174   1 -2.348705E+05 -8.918078E+05 -2.290112E+05  2.052902E+05 -9.633299E+03 -6.976495E+04
       174   2 -1.607902E+05 -6.918500E+05 -1.433132E+05  1.739323E+05 -2.926288E+04 -2.894470E+04
       174   3 -1.084236E+05 -5.024218E+05 -8.962851E+04  1.874065E+05 -2.756914E+04  1.191886E+04
       174   4 -2.614423E+04 -4.943214E+04 -2.845038E+04  1.889844E+05 -9.680441E+03 -2.118713E+04
       174   5 -5.642972E+03 -4.708754E+04 -1.270911E+04  1.665806E+05 -2.927334E+04 -1.460414E+04
       174   6 -8.922937E+02 -4.935050E+04 -5.175716E+03  1.890093E+05 -2.755188E+04 -7.992015E+03
       174   7  1.825331E+05  7.936009E+05  1.720697E+05  1.726565E+05 -9.730112E+03  2.745637E+04
       174   8  1.494787E+05  5.980716E+05  1.178742E+05  1.592211E+05 -2.928415E+04 -2.489599E+02
       174   9  1.066274E+05  4.039205E+05  7.926981E+04  1.906132E+05 -2.753472E+04 -2.791706E+04
       174  10 -2.348719E+05 -8.918131E+05 -2.290205E+05  2.052896E+05 -2.138791E-09 -3.586572E-09
       174  11 -1.607914E+05 -6.918511E+05 -1.433164E+05  1.739316E+05 -2.993685E-10 -4.973010E-10
       174  12 -1.084245E+05 -5.024221E+05 -8.963020E+04  1.874068E+05 -1.640472E-09  1.085952E-09
       174  13 -2.614445E+04 -4.943265E+04 -2.845140E+04  1.889843E+05  2.721137E-11  2.891305E-09
       174  14 -5.643949E+03 -4.708799E+04 -1.271112E+04  1.665802E+05  1.798405E-09 -2.390817E-09
       174  15 -8.931259E+02 -4.935077E+04 -5.177262E+03  1.890091E+05 -3.006252E-09  9.914698E-10
       174  16  1.825328E+05  7.936000E+05  1.720681E+05  1.726567E+05  5.463566E-10  1.603828E-09
       174  17  1.494778E+05  5.980714E+05  1.178726E+05  1.592211E+05 -1.001996E-09 -1.614515E-10
       174  18  1.066264E+05  4.039194E+05  7.926693E+04  1.906126E+05  1.075799E-09 -3.374400E-09
       174  19 -2.348705E+05 -8.918078E+05 -2.290112E+05  2.052902E+05  9.633299E+03  6.976495E+04
       174  20 -1.607902E+05 -6.918500E+05 -1.433132E+05  1.739323E+05  2.926288E+04  2.894470E+04
       174  21 -1.084236E+05 -5.024218E+05 -8.962851E+04  1.874065E+05  2.756914E+04 -1.191886E+04
       174  22 -2.614423E+04 -4.943214E+04 -2.845038E+04  1.889844E+05  9.680441E+03  2.118713E+04
       174  23 -5.642972E+03 -4.708754E+04 -1.270911E+04  1.665806E+05  2.927334E+04  1.460414E+04
       174  24 -8.922937E+02 -4.935050E+04 -5.175716E+03  1.890093E+05  2.755188E+04  7.992015E+03
       174  25  1.825331E+05  7.936009E+05  1.720697E+05  1.726565E+05  9.730112E+03 -2.745637E+04
       174  26  1.494787E+05  5.980716E+05  1.178742E+05  1.592211E+05  2.928415E+04  2.489599E+02
       174  27  1.066274E+05  4.039205E+05  7.926981E+04  1.906132E+05  2.753472E+04  2.791706E+04
       175   1 -7.831003E+04 -3.721013E+05 -6.257633E+04  1.895229E+05 -1.996297E+04  9.727377E+03
       175   2 -3.059792E+04 -1.776636E+05 -2.003644E+04  1.666097E+05 -8.990332E+03  9.128120E+03
       175   3  1.758624E+04  1.713607E+04  2.304054E+04  1.898204E+05  2.493155E+03  8.528053E+03
       175   4 -1.493072E+03 -4.820304E+04 -2.472626E+03  1.892913E+05 -1.994941E+04 -7.500306E+03
       175   5 -1.653143E+02 -4.842928E+04  2.871759E+03  1.662309E+05 -8.977001E+03 -8.922842E+03
       175   6  1.779659E+03 -4.818631E+04  9.326246E+03  1.892938E+05  2.506121E+03 -1.034601E+04
       175   7  7.531802E+04  2.757975E+05  5.762777E+04  1.890596E+05 -1.993584E+04 -2.473675E+04
       175   8  3.026655E+04  8.082203E+04  2.578057E+04  1.658521E+05 -8.963649E+03 -2.697745E+04
       175   9 -1.402701E+04 -1.135039E+05 -4.386952E+03  1.887672E+05  2.519120E+03 -2.921813E+04
       175  10 -7.831048E+04 -3.721015E+05 -6.257726E+04  1.895231E+05 -2.231887E-09  1.648611E-09
       175  11 -3.059803E+04 -1.776637E+05 -2.003675E+04  1.666098E+05 -1.183966E-09  2.326800E-10
       175  12  1.758622E+04  1.713599E+04  2.304040E+04  1.898203E+05 -5.064475E-09 -5.816535E-09
       175  13 -1.493514E+03 -4.820321E+04 -2.473479E+03  1.892912E+05  1.123071E-09  1.186727E-09
       175  14 -1.654222E+02 -4.842938E+04  2.871458E+03  1.662309E+05  4.658437E-11 -1.480449E-11
       175  15  1.779624E+03 -4.818642E+04  9.326033E+03  1.892938E+05 -2.177248E-09  2.575411E-09
       175  16  7.531743E+04  2.757967E+05  5.762588E+04  1.890592E+05  5.805202E-10 -3.601636E-09
       175  17  3.026627E+04  8.082123E+04  2.577905E+04  1.658519E+05  1.503677E-09 -2.327540E-10
       175  18 -1.402724E+04 -1.135048E+05 -4.388568E+03  1.887673E+05  1.232732E-09  5.550881E-09
       175  19 -7.831003E+04 -3.721013E+05 -6.257633E+04  1.895229E+05  1.996297E+04 -9.727377E+03
       175  20 -3.059792E+04 -1.776636E+05 -2.003644E+04  1.666097E+05  8.990332E+03 -9.128120E+03
       175  21  1.758624E+04  1.713607E+04  2.304054E+04  1.898204E+05 -2.493155E+03 -8.528053E+03
       175  22 -1.493072E+03 -4.820304E+04 -2.472626E+03  1.892913E+05  1.994941E+04  7.500306E+03
       175  23 -1.653143E+02 -4.842928E+04  2.871759E+03  1.662309E+05  8.977001E+03  8.922842E+03
       175  24  1.779659E+03 -4.818631E+04  9.326246E+03  1.892938E+05 -2.506121E+03  1.034601E+04
       175  25  7.531802E+04  2.757975E+05  5.762777E+04  1.890596E+05  1.993584E+04  2.473675E+04
       175  26  3.026655E+04  8.082203E+04  2.578057E+04  1.658521E+05  8.963649E+03  2.697745E+04
       175  27 -1.402701E+04 -1.135039E+05 -4.386952E+03  1.887672E+05 -2.519120E+03  2.921813E+04
       176   1  4.708107E+04  1.480685E+05  5.101161E+04  1.855495E+05  1.031319E+04  8.702447E+03
       176   2  1.030269E+05  3.360638E+05  1.061419E+05  1.794990E+05  1.562070E+04 -2.900240E+04
       176   3  1.931514E+05  5.376868E+05  1.943846E+05  2.187452E+05  5.774648E+03 -6.673686E+04
       176   4  6.675878E+02 -4.621384E+04  1.324595E+04  1.891017E+05  1.032800E+04 -1.197295E+04
       176   5  9.590556E+03 -5.092479E+04  2.574905E+04  1.664762E+05  1.561913E+04 -2.529686E+04
       176   6  4.847521E+04 -4.626131E+04  5.444648E+04  1.891443E+05  5.754391E+03 -3.863845E+04
       176   7 -4.574788E+04 -2.404590E+05 -2.451989E+04  1.926527E+05  1.034257E+04 -3.264202E+04
       176   8 -8.385465E+04 -4.377712E+05 -5.465181E+04  1.534617E+05  1.561741E+04 -2.159359E+04
       176   9 -9.622199E+04 -6.298936E+05 -8.551235E+04  1.595714E+05  5.731450E+03 -1.056634E+04
       176  10  4.708094E+04  1.480684E+05  5.101127E+04  1.855495E+05 -3.064950E-09 -9.312476E-11
       176  11  1.030264E+05  3.360628E+05  1.061398E+05  1.794994E+05 -8.677421E-10  1.551968E-09
       176  12  1.931502E+05  5.376820E+05  1.943762E+05  2.187455E+05  8.800867E-11  1.772073E-09
       176  13  6.674347E+02 -4.621403E+04  1.324548E+04  1.891018E+05 -1.641812E-09  2.701604E-09
       176  14  9.590122E+03 -5.092554E+04  2.574739E+04  1.664766E+05 -7.745991E-10 -8.956056E-10
       176  15  4.847477E+04 -4.626292E+04  5.444361E+04  1.891445E+05  7.665345E-11  2.126649E-10
       176  16 -4.574828E+04 -2.404602E+05 -2.452209E+04  1.926530E+05  1.699657E-10 -1.267615E-09
       176  17 -8.385504E+04 -4.377717E+05 -5.465315E+04  1.534620E+05  1.002205E-09 -2.990604E-09
       176  18 -9.622205E+04 -6.298937E+05 -8.551262E+04  1.595714E+05  3.920337E-10 -3.652457E-09
       176  19  4.708107E+04  1.480685E+05  5.101161E+04  1.855495E+05 -1.031319E+04 -8.702447E+03
       176  20  1.030269E+05  3.360638E+05  1.061419E+05  1.794990E+05 -1.562070E+04  2.900240E+04
       176  21  1.931514E+05  5.376868E+05  1.943846E+05  2.187452E+05 -5.774648E+03  6.673686E+04
       176  22  6.675878E+02 -4.621384E+04  1.324595E+04  1.891017E+05 -1.032800E+04  1.197295E+04
       176  23  9.590556E+03 -5.092479E+04  2.574905E+04  1.664762E+05 -1.561913E+04  2.529686E+04
       176  24  4.847521E+04 -4.626131E+04  5.444648E+04  1.891443E+05 -5.754391E+03  3.863845E+04
       176  25 -4.574788E+04 -2.404590E+05 -2.451989E+04  1.926527E+05 -1.034257E+04  3.264202E+04
       176  26 -8.385465E+04 -4.377712E+05 -5.465181E+04  1.534617E+05 -1.561741E+04  2.159359E+04
       176  27 -9.622199E+04 -6.298936E+05 -8.551235E+04  1.595714E+05 -5.731450E+03  1.056634E+04
       177   1  7.704535E+05  2.856763E+05  1.781387E+05  2.780094E+05  7.280016E+04  2.285050E+04
       177   2  7.430538E+05  1.802627E+05  1.109912E+05  2.733704E+05  4.726738E+04  3.672539E+03
       177   3  7.402682E+05  1.627903E+05  8.679840E+04  2.588188E+05  1.859313E+04 -7.159683E+03
       177   4  4.907484E+05  1.499768E+05  9.723252E+04  1.705096E+05  6.346904E+04  1.933140E+04
       177   5  4.738293E+05  6.974806E+04  4.164190E+04  1.893604E+05  4.414048E+04  2.493053E+03
       177   6  4.803091E+05  7.625169E+04  2.410636E+04  1.982951E+05  2.166872E+04 -6.000548E+03
       177   7  2.111254E+05  1.430021E+04  1.632038E+04  6.306009E+04  5.414263E+04  1.581522E+04
       177   8  2.046773E+05 -4.075719E+04 -2.771308E+04  1.053852E+05  4.101507E+04  1.314250E+03
       177   9  2.204147E+05 -1.028616E+04 -3.859094E+04  1.377924E+05  2.474292E+04 -4.841803E+03
       177  10  7.704476E+05  2.856743E+05  1.781278E+05  2.780080E+05 -2.876589E-09 -1.330811E-09
       177  11  7.430514E+05  1.802621E+05  1.109870E+05  2.733702E+05 -9.901198E-10  3.849649E-09
       177  12  7.402678E+05  1.627901E+05  8.679766E+04  2.588189E+05  3.076692E-09 -2.524066E-10
       177  13  4.907440E+05  1.499753E+05  9.722426E+04  1.705086E+05 -2.925328E-09  5.267000E-12
       177  14  4.738273E+05  6.974753E+04  4.163823E+04  1.893603E+05 -4.850780E-09 -5.528039E-09
       177  15  4.803086E+05  7.625152E+04  2.410541E+04  1.982952E+05 -2.295849E-09  2.736337E-09
       177  16  2.111222E+05  1.429915E+04  1.631440E+04  6.305940E+04  3.207397E-10 -9.339305E-11
       177  17  2.046755E+05 -4.075765E+04 -2.771624E+04  1.053852E+05 -2.379952E-09  1.159433E-09
       177  18  2.204141E+05 -1.028635E+04 -3.859213E+04  1.377925E+05 -1.275529E-09  2.019454E-09
       177  19  7.704535E+05  2.856763E+05  1.781387E+05  2.780094E+05 -7.280016E+04 -2.285050E+04
       177  20  7.430538E+05  1.802627E+05  1.109912E+05  2.733704E+05 -4.726738E+04 -3.672539E+03
       177  21  7.402682E+05  1.627903E+05  8.679840E+04  2.588188E+05 -1.859313E+04  7.159683E+03
       177  22  4.907484E+05  1.499768E+05  9.723252E+04  1.705096E+05 -6.346904E+04 -1.933140E+04
       177  23  4.738293E+05  6.974806E+04  4.164190E+04  1.893604E+05 -4.414048E+04 -2.493053E+03
       177  24  4.803091E+05  7.625169E+04  2.410636E+04  1.982951E+05 -2.166872E+04  6.000548E+03
       177  25  2.111254E+05  1.430021E+04  1.632038E+04  6.306009E+04 -5.414263E+04 -1.581522E+04
       177  26  2.046773E+05 -4.075719E+04 -2.771308E+04  1.053852E+05 -4.101507E+04 -1.314250E+03
       177  27  2.204147E+05 -1.028616E+04 -3.859094E+04  1.377924E+05 -2.474292E+04  4.841803E+03
       178   1  7.050841E+05  1.716164E+05  7.658928E+04  2.578717E+05  1.734709E+04 -5.646629E+03
       178   2  6.844664E+05  1.514754E+05  6.082242E+04  2.466502E+05  1.175612E+04 -6.774189E+03
       178   3  6.577544E+05  1.461949E+05  5.056328E+04  2.443368E+05  6.014367E+03 -7.502223E+03
       178   4  4.771832E+05  8.451603E+04  1.927326E+04  1.933405E+05  1.783234E+04 -5.464087E+03
       178   5  4.798845E+05  7.445738E+04  9.727784E+03  1.898897E+05  1.253972E+04 -6.478986E+03
       178   6  4.764327E+05  7.920143E+04  5.455293E+03  1.953468E+05  7.096100E+03 -7.094397E+03
       178   7  2.493333E+05 -2.580218E+03 -3.804687E+04  1.288310E+05  1.831739E+04 -5.281623E+03
       178   8  2.753441E+05 -2.557490E+03 -4.137000E+04  1.331464E+05  1.332304E+04 -6.183891E+03
       178   9  2.951440E+05  1.221029E+04 -3.965503E+04  1.463698E+05  8.177482E+03 -6.686698E+03
       178  10  7.050838E+05  1.716163E+05  7.658866E+04  2.578718E+05  6.725587E-09  7.692835E-09
       178  11  6.844663E+05  1.514753E+05  6.082207E+04  2.466503E+05 -3.742461E-09  5.150707E-09
       178  12  6.577543E+05  1.461948E+05  5.056310E+04  2.443368E+05 -9.881143E-09 -6.857568E-11
       178  13  4.771829E+05  8.451591E+04  1.927261E+04  1.933406E+05  4.578557E-10  2.015687E-09
       178  14  4.798843E+05  7.445730E+04  9.727410E+03  1.898898E+05  1.190963E-09 -1.018516E-08
       178  15  4.764326E+05  7.920136E+04  5.455103E+03  1.953468E+05 -3.352847E-09 -2.043472E-09
       178  16  2.493329E+05 -2.580338E+03 -3.804755E+04  1.288311E+05 -8.539881E-09 -6.307980E-09
       178  17  2.753439E+05 -2.557579E+03 -4.137041E+04  1.331465E+05  4.994562E-10 -3.822689E-09
       178  18  2.951439E+05  1.221023E+04 -3.965524E+04  1.463698E+05  8.143388E-09  6.478357E-09
       178  19  7.050841E+05  1.716164E+05  7.658928E+04  2.578717E+05 -1.734709E+04  5.646629E+03
       178  20  6.844664E+05  1.514754E+05  6.082242E+04  2.466502E+05 -1.175612E+04  6.774189E+03
       178  21  6.577544E+05  1.461949E+05  5.056328E+04  2.443368E+05 -6.014367E+03  7.502223E+03
       178  22  4.771832E+05  8.451603E+04  1.927326E+04  1.933405E+05 -1.783234E+04  5.464087E+03
       178  23  4.798845E+05  7.445738E+04  9.727784E+03  1.898897E+05 -1.253972E+04  6.478986E+03
       178  24  4.764327E+05  7.920143E+04  5.455293E+03  1.953468E+05 -7.096100E+03  7.094397E+03
       178  25  2.493333E+05 -2.580218E+03 -3.804687E+04  1.288310E+05 -1.831739E+04  5.281623E+03
       178  26  2.753441E+05 -2.557490E+03 -4.137000E+04  1.331464E+05 -1.332304E+04  6.183891E+03
       178  27  2.951440E+05  1.221029E+04 -3.965503E+04  1.463698E+05 -8.177482E+03  6.686698E+03
       179   1  6.341848E+05  1.389398E+05  4.350391E+04  2.384850E+05  5.063697E+03 -6.930153E+03
       179   2  6.144692E+05  1.250542E+05  3.566751E+04  2.268441E+05  3.430998E+03 -6.068186E+03
       179   3  5.861489E+05  1.205386E+05  2.880018E+04  2.252880E+05  1.791873E+03 -5.189972E+03
       179   4  4.761408E+05  7.976065E+04  4.179023E+03  1.949429E+05  6.017407E+03 -6.570530E+03
       179   5  4.804199E+05  7.489796E+04  2.257346E+03  1.899684E+05  4.397080E+03 -5.703779E+03
       179   6  4.760919E+05  7.940322E+04  1.295301E+03  1.950787E+05  2.770279E+03 -4.820798E+03
       179   7  3.181205E+05  2.058289E+04 -3.514799E+04  1.514107E+05  6.970856E+03 -6.211005E+03
       179   8  3.463879E+05  2.474282E+04 -3.115430E+04  1.530998E+05  5.362935E+03 -5.339458E+03
       179   9  3.660467E+05  3.826863E+04 -2.621053E+04  1.648741E+05  3.748496E+03 -4.451694E+03
       179  10  6.341848E+05  1.389398E+05  4.350377E+04  2.384850E+05 -3.273251E-09  5.049081E-10
       179  11  6.144691E+05  1.250542E+05  3.566742E+04  2.268441E+05 -4.070168E-09 -3.566146E-10
       179  12  5.861489E+05  1.205386E+05  2.880013E+04  2.252880E+05 -2.357916E-09 -3.563677E-09
       179  13  4.761407E+05  7.976059E+04  4.178874E+03  1.949429E+05 -3.263816E-09  7.810751E-11
       179  14  4.804198E+05  7.489792E+04  2.257248E+03  1.899684E+05 -5.629950E-10  1.346278E-09
       179  15  4.760919E+05  7.940319E+04  1.295243E+03  1.950787E+05 -2.325087E-09 -6.026161E-09
       179  16  3.181204E+05  2.058283E+04 -3.514816E+04  1.514107E+05 -4.982106E-10  2.255927E-09
       179  17  3.463879E+05  2.474278E+04 -3.115441E+04  1.530998E+05 -5.219124E-10  5.168965E-09
       179  18  3.660467E+05  3.826861E+04 -2.621060E+04  1.648741E+05 -3.999044E-09 -5.876813E-10
       179  19  6.341848E+05  1.389398E+05  4.350391E+04  2.384850E+05 -5.063697E+03  6.930153E+03
       179  20  6.144692E+05  1.250542E+05  3.566751E+04  2.268441E+05 -3.430998E+03  6.068186E+03
       179  21  5.861489E+05  1.205386E+05  2.880018E+04  2.252880E+05 -1.791873E+03  5.189972E+03
       179  22  4.761408E+05  7.976065E+04  4.179023E+03  1.949429E+05 -6.017407E+03  6.570530E+03
       179  23  4.804199E+05  7.489796E+04  2.257346E+03  1.899684E+05 -4.397080E+03  5.703779E+03
       179  24  4.760919E+05  7.940322E+04  1.295301E+03  1.950787E+05 -2.770279E+03  4.820798E+03
       179  25  3.181205E+05  2.058289E+04 -3.514799E+04  1.514107E+05 -6.970856E+03  6.211005E+03
       179  26  3.463879E+05  2.474282E+04 -3.115430E+04  1.530998E+05 -5.362935E+03  5.339458E+03
       179  27  3.660467E+05  3.826863E+04 -2.621053E+04  1.648741E+05 -3.748496E+03  4.451694E+03
       180   1  5.636356E+05  1.121846E+05  2.275345E+04  2.191355E+05  1.320615E+03 -4.493842E+03
       180   2  5.441317E+05  9.878562E+04  1.652824E+04  2.075090E+05  4.981278E+02 -3.310108E+03
       180   3  5.158056E+05  9.430588E+04  1.055670E+04  2.059775E+05 -3.242426E+02 -2.127019E+03
       180   4  4.760627E+05  7.942769E+04  1.012606E+03  1.950345E+05  2.291418E+03 -4.127483E+03
       180   5  4.804734E+05  7.495967E+04  6.607103E+02  1.899905E+05  1.468496E+03 -2.943862E+03
       180   6  4.760613E+05  7.941100E+04  5.628885E+02  1.950413E+05  6.456723E+02 -1.760887E+03
       180   7  3.884976E+05  4.667149E+04 -2.072873E+04  1.709367E+05  3.262069E+03 -3.761182E+03
       180   8  4.168191E+05  5.113399E+04 -1.520713E+04  1.724735E+05  2.438755E+03 -2.577657E+03
       180   9  4.363185E+05  6.451617E+04 -9.431089E+03  1.841057E+05  1.615523E+03 -1.394778E+03
       180  10  5.636356E+05  1.121845E+05  2.275341E+04  2.191356E+05 -1.136273E-08 -8.612820E-09
       180  11  5.441317E+05  9.878561E+04  1.652821E+04  2.075090E+05  7.930616E-10  3.481130E-09
       180  12  5.158056E+05  9.430587E+04  1.055669E+04  2.059775E+05  1.162718E-08  1.107002E-08
       180  13  4.760627E+05  7.942767E+04  1.012564E+03  1.950345E+05 -4.041842E-09 -6.092873E-10
       180  14  4.804734E+05  7.495966E+04  6.606899E+02  1.899905E+05 -3.800677E-09 -3.935264E-09
       180  15  4.760613E+05  7.941100E+04  5.628818E+02  1.950413E+05 -6.455704E-10 -3.088129E-10
       180  16  3.884976E+05  4.667147E+04 -2.072877E+04  1.709367E+05  3.995383E-09  3.433246E-09
       180  17  4.168191E+05  5.113398E+04 -1.520715E+04  1.724735E+05 -3.267994E-09 -7.163151E-09
       180  18  4.363185E+05  6.451616E+04 -9.431097E+03  1.841057E+05 -9.373409E-09 -1.018942E-08
       180  19  5.636356E+05  1.121846E+05  2.275345E+04  2.191355E+05 -1.320615E+03  4.493842E+03
       180  20  5.441317E+05  9.878562E+04  1.652824E+04  2.075090E+05 -4.981278E+02  3.310108E+03
       180  21  5.158056E+05  9.430588E+04  1.055670E+04  2.059775E+05  3.242426E+02  2.127019E+03
       180  22  4.760627E+05  7.942769E+04  1.012606E+03  1.950345E+05 -2.291418E+03  4.127483E+03
       180  23  4.804734E+05  7.495967E+04  6.607103E+02  1.899905E+05 -1.468496E+03  2.943862E+03
       180  24  4.760613E+05  7.941100E+04  5.628885E+02  1.950413E+05 -6.456723E+02  1.760887E+03
       180  25  3.884976E+05  4.667149E+04 -2.072873E+04  1.709367E+05 -3.262069E+03  3.761182E+03
       180  26  4.168191E+05  5.113399E+04 -1.520713E+04  1.724735E+05 -2.438755E+03  2.577657E+03
       180  27  4.363185E+05  6.451617E+04 -9.431089E+03  1.841057E+05 -1.615523E+03  1.394778E+03
       181   1  4.934464E+05  8.590965E+04  4.835804E+03  1.998397E+05 -7.063221E+02 -1.402475E+03
       181   2  4.739727E+05  7.254693E+04 -8.145872E+02  1.882226E+05 -1.598583E+03 -2.472222E+02
       181   3  4.457020E+05  6.810143E+04 -6.156470E+03  1.866843E+05 -2.490585E+03  9.075191E+02
       181   4  4.760668E+05  7.940768E+04  5.879284E+02  1.950388E+05  2.630120E+02 -1.036545E+03
       181   5  4.804675E+05  7.496276E+04  8.016799E+02  1.899944E+05 -6.296676E+02  1.185419E+02
       181   6  4.760706E+05  7.943502E+04  1.324251E+03  1.950285E+05 -1.522105E+03  1.273112E+03
       181   7  4.586875E+05  7.290574E+04 -3.659965E+03  1.902381E+05  1.232316E+03 -6.706265E+02
       181   8  4.869623E+05  7.737858E+04  2.417944E+03  1.917662E+05  3.392563E+02  4.843093E+02
       181   9  5.064399E+05  9.076861E+04  8.804868E+03  2.033729E+05 -5.535781E+02  1.638723E+03
       181  10  4.934464E+05  8.590965E+04  4.835800E+03  1.998397E+05  1.024548E-08  6.254192E-09
       181  11  4.739727E+05  7.254692E+04 -8.145922E+02  1.882226E+05  5.927297E-09 -8.817957E-11
       181  12  4.457020E+05  6.810143E+04 -6.156483E+03  1.866843E+05  2.578202E-09 -5.230019E-09
       181  13  4.760668E+05  7.940768E+04  5.879263E+02  1.950388E+05 -1.699684E-10  8.463920E-10
       181  14  4.804675E+05  7.496276E+04  8.016791E+02  1.899944E+05  2.745293E-09  5.290744E-09
       181  15  4.760706E+05  7.943501E+04  1.324244E+03  1.950285E+05  5.626597E-09 -2.516950E-09
       181  16  4.586875E+05  7.290574E+04 -3.659969E+03  1.902381E+05 -1.121841E-08 -5.431956E-10
       181  17  4.869623E+05  7.737858E+04  2.417943E+03  1.917662E+05  5.485851E-09  4.802436E-09
       181  18  5.064399E+05  9.076861E+04  8.804863E+03  2.033729E+05  7.423443E-09 -3.383258E-09
       181  19  4.934464E+05  8.590965E+04  4.835804E+03  1.998397E+05  7.063221E+02  1.402475E+03
       181  20  4.739727E+05  7.254693E+04 -8.145872E+02  1.882226E+05  1.598583E+03  2.472222E+02
       181  21  4.457020E+05  6.810143E+04 -6.156470E+03  1.866843E+05  2.490585E+03 -9.075191E+02
       181  22  4.760668E+05  7.940768E+04  5.879284E+02  1.950388E+05 -2.630120E+02  1.036545E+03
       181  23  4.804675E+05  7.496276E+04  8.016799E+02  1.899944E+05  6.296676E+02 -1.185419E+02
       181  24  4.760706E+05  7.943502E+04  1.324251E+03  1.950285E+05  1.522105E+03 -1.273112E+03
       181  25  4.586875E+05  7.290574E+04 -3.659965E+03  1.902381E+05 -1.232316E+03  6.706265E+02
       181  26  4.869623E+05  7.737858E+04  2.417944E+03  1.917662E+05 -3.392563E+02 -4.843093E+02
       181  27  5.064399E+05  9.076861E+04  8.804868E+03  2.033729E+05  5.535781E+02 -1.638723E+03
       182   1  4.233182E+05  5.971952E+04 -1.150721E+04  1.806612E+05 -3.034790E+03  1.573137E+03
       182   2  4.037241E+05  4.622147E+04 -1.605744E+04  1.689031E+05 -5.047003E+03  2.305388E+03
       182   3  3.756650E+05  4.220726E+04 -1.932066E+04  1.671572E+05 -7.053658E+03  3.023545E+03
       182   4  4.761202E+05  7.939210E+04  1.721836E+03  1.950774E+05 -2.060754E+03  1.940804E+03
       182   5  4.803861E+05  7.489533E+04  3.050209E+03  1.899780E+05 -4.083661E+03  2.668955E+03
       182   6  4.761888E+05  7.988456E+04  5.674075E+03  1.948908E+05 -6.101069E+03  3.382989E+03
       182   7  5.289252E+05  9.906495E+04  1.495073E+04  2.094946E+05 -1.086624E+03  2.308508E+03
       182   8  5.570540E+05  1.035697E+05  2.215745E+04  2.110554E+05 -3.120186E+03  3.032571E+03
       182   9  5.767226E+05  1.175626E+05  3.066803E+04  2.226285E+05 -5.148312E+03  3.742498E+03
       182  10  4.233182E+05  5.971952E+04 -1.150723E+04  1.806612E+05  1.991827E-09 -5.919007E-09
       182  11  4.037241E+05  4.622146E+04 -1.605749E+04  1.689031E+05  3.026762E-09 -3.464434E-09
       182  12  3.756649E+05  4.220723E+04 -1.932077E+04  1.671572E+05  2.860326E-09  4.201834E-10
       182  13  4.761202E+05  7.939210E+04  1.721821E+03  1.950774E+05  7.719468E-09  1.349705E-09
       182  14  4.803861E+05  7.489532E+04  3.050164E+03  1.899780E+05  1.847982E-09  5.189908E-09
       182  15  4.761888E+05  7.988454E+04  5.673983E+03  1.948908E+05 -5.863390E-09 -1.225576E-09
       182  16  5.289252E+05  9.906494E+04  1.495072E+04  2.094946E+05  1.066542E-08 -2.090605E-09
       182  17  5.570540E+05  1.035696E+05  2.215741E+04  2.110554E+05  5.788210E-10  1.214776E-08
       182  18  5.767225E+05  1.175625E+05  3.066796E+04  2.226285E+05 -9.029767E-09  4.149697E-11
       182  19  4.233182E+05  5.971952E+04 -1.150721E+04  1.806612E+05  3.034790E+03 -1.573137E+03
       182  20  4.037241E+05  4.622147E+04 -1.605744E+04  1.689031E+05  5.047003E+03 -2.305388E+03
       182  21  3.756650E+05  4.220726E+04 -1.932066E+04  1.671572E+05  7.053658E+03 -3.023545E+03
       182  22  4.761202E+05  7.939210E+04  1.721836E+03  1.950774E+05  2.060754E+03 -1.940804E+03
       182  23  4.803861E+05  7.489533E+04  3.050209E+03  1.899780E+05  4.083661E+03 -2.668955E+03
       182  24  4.761888E+05  7.988456E+04  5.674075E+03  1.948908E+05  6.101069E+03 -3.382989E+03
       182  25  5.289252E+05  9.906495E+04  1.495073E+04  2.094946E+05  1.086624E+03 -2.308508E+03
       182  26  5.570540E+05  1.035697E+05  2.215745E+04  2.110554E+05  3.120186E+03 -3.032571E+03
       182  27  5.767226E+05  1.175626E+05  3.066803E+04  2.226285E+05  5.148312E+03 -3.742498E+03
       183   1  3.527058E+05  3.391237E+04 -2.333330E+04  1.625585E+05 -8.507227E+03  3.390588E+03
       183   2  3.330418E+05  1.879462E+04 -2.345156E+04  1.488859E+05 -1.549968E+04  2.193805E+03
       183   3  3.082478E+05  2.046706E+04 -1.659053E+04  1.435688E+05 -2.236907E+04  6.724025E+02
       183   4  4.765968E+05  7.911393E+04  7.413401E+03  1.954292E+05 -7.451158E+03  3.789037E+03
       183   5  4.796507E+05  7.431433E+04  1.323258E+04  1.898853E+05 -1.468617E+04  2.500573E+03
       183   6  4.776213E+05  8.635126E+04  2.622184E+04  1.926963E+05 -2.179841E+04  8.873761E+02
       183   7  6.005024E+05  1.243161E+05  3.815877E+04  2.283057E+05 -6.394862E+03  4.187566E+03
       183   8  6.262808E+05  1.298356E+05  4.991503E+04  2.308935E+05 -1.387244E+04  2.807422E+03
       183   9  6.470238E+05  1.522383E+05  6.903211E+04  2.418364E+05 -2.122758E+04  1.102421E+03
       183  10  3.527057E+05  3.391234E+04 -2.333345E+04  1.625585E+05 -8.701377E-09  1.946090E-10
       183  11  3.330415E+05  1.879455E+04 -2.345202E+04  1.488859E+05 -4.906822E-09  1.266703E-08
       183  12  3.082472E+05  2.046693E+04 -1.659147E+04  1.435688E+05  1.175536E-09  8.631533E-09
       183  13  4.765968E+05  7.911390E+04  7.413270E+03  1.954292E+05 -7.357271E-09 -3.429389E-09
       183  14  4.796505E+05  7.431426E+04  1.323216E+04  1.898853E+05  4.440497E-10  9.269497E-09
       183  15  4.776208E+05  8.635113E+04  2.622095E+04  1.926963E+05  1.291284E-09  3.934526E-09
       183  16  6.005024E+05  1.243161E+05  3.815866E+04  2.283057E+05  3.302203E-09  4.633759E-09
       183  17  6.262806E+05  1.298356E+05  4.991466E+04  2.308935E+05  1.502088E-09 -2.980942E-09
       183  18  6.470233E+05  1.522382E+05  6.903126E+04  2.418364E+05  8.772233E-10 -2.827325E-09
       183  19  3.527058E+05  3.391237E+04 -2.333330E+04  1.625585E+05  8.507227E+03 -3.390588E+03
       183  20  3.330418E+05  1.879462E+04 -2.345156E+04  1.488859E+05  1.549968E+04 -2.193805E+03
       183  21  3.082478E+05  2.046706E+04 -1.659053E+04  1.435688E+05  2.236907E+04 -6.724025E+02
       183  22  4.765968E+05  7.911393E+04  7.413401E+03  1.954292E+05  7.451158E+03 -3.789037E+03
       183  23  4.796507E+05  7.431433E+04  1.323258E+04  1.898853E+05  1.468617E+04 -2.500573E+03
       183  24  4.776213E+05  8.635126E+04  2.622184E+04  1.926963E+05  2.179841E+04 -8.873761E+02
       183  25  6.005024E+05  1.243161E+05  3.815877E+04  2.283057E+05  6.394862E+03 -4.187566E+03
       183  26  6.262808E+05  1.298356E+05  4.991503E+04  2.308935E+05  1.387244E+04 -2.807422E+03
       183  27  6.470238E+05  1.522383E+05  6.903211E+04  2.418364E+05  2.122758E+04 -1.102421E+03
       184   1  2.773927E+05  1.314078E+04 -1.543077E+04  1.581152E+05 -2.938334E+04 -2.052746E+02
       184   2  2.632574E+05 -2.334307E+04  1.956371E+03  1.182721E+05 -5.501909E+04 -9.616728E+03
       184   3  2.832102E+05  5.394210E+04  6.714073E+04  6.121233E+04 -7.810127E+04 -2.579807E+04
       184   4  4.818576E+05  7.512335E+04  3.279826E+04  1.994528E+05 -2.671151E+04  8.029552E+02
       184   5  4.714374E+05  6.789980E+04  5.666371E+04  1.891483E+05 -5.738104E+04 -1.050899E+04
       184   6  4.960845E+05  1.754152E+05  1.323013E+05  1.616312E+05 -8.549769E+04 -2.859254E+04
       184   7  6.863642E+05  1.371059E+05  8.102466E+04  2.408012E+05 -2.403872E+04  1.811394E+03
       184   8  6.796590E+05  1.591497E+05  1.113670E+05  2.600471E+05 -5.974384E+04 -1.140170E+04
       184   9  7.090038E+05  2.969099E+05  1.974569E+05  2.620853E+05 -9.289674E+04 -3.138925E+04
       184  10  2.773918E+05  1.314055E+04 -1.543239E+04  1.581152E+05 -3.108593E-10  2.389080E-09
       184  11  2.632542E+05 -2.334398E+04  1.950512E+03  1.182717E+05 -4.495586E-09 -3.296688E-09
       184  12  2.832035E+05  5.393975E+04  6.712803E+04  6.121071E+04  1.505165E-09  2.568537E-09
       184  13  4.818569E+05  7.512316E+04  3.279692E+04  1.994528E+05  1.440936E-09  2.406286E-10
       184  14  4.714338E+05  6.789880E+04  5.665732E+04  1.891478E+05 -4.454560E-09 -3.678683E-09
       184  15  4.960764E+05  1.754123E+05  1.322860E+05  1.616292E+05 -1.084107E-09  4.620645E-09
       184  16  6.863636E+05  1.371057E+05  8.102357E+04  2.408012E+05 -8.953922E-11 -2.175356E-09
       184  17  6.796551E+05  1.591486E+05  1.113601E+05  2.600466E+05 -3.560795E-09 -1.826760E-09
       184  18  7.089943E+05  2.969066E+05  1.974388E+05  2.620830E+05 -5.011216E-09 -1.360350E-09
       184  19  2.773927E+05  1.314078E+04 -1.543077E+04  1.581152E+05  2.938334E+04  2.052746E+02
       184  20  2.632574E+05 -2.334307E+04  1.956371E+03  1.182721E+05  5.501909E+04  9.616728E+03
       184  21  2.832102E+05  5.394210E+04  6.714073E+04  6.121233E+04  7.810127E+04  2.579807E+04
       184  22  4.818576E+05  7.512335E+04  3.279826E+04  1.994528E+05  2.671151E+04 -8.029552E+02
       184  23  4.714374E+05  6.789980E+04  5.666371E+04  1.891483E+05  5.738104E+04  1.050899E+04
       184  24  4.960845E+05  1.754152E+05  1.323013E+05  1.616312E+05  8.549769E+04  2.859254E+04
       184  25  6.863642E+05  1.371059E+05  8.102466E+04  2.408012E+05  2.403872E+04 -1.811394E+03
       184  26  6.796590E+05  1.591497E+05  1.113670E+05  2.600471E+05  5.974384E+04  1.140170E+04
       184  27  7.090038E+05  2.969099E+05  1.974569E+05  2.620853E+05  9.289674E+04  3.138925E+04
       185   1 -1.288465E+05 -6.852299E+05 -1.299129E+05  8.965171E+04 -4.773301E+03 -2.296565E+04
       185   2 -7.801993E+04 -5.440424E+05 -8.173460E+04  5.260599E+04 -1.298516E+04 -8.250749E+03
       185   3 -4.414191E+04 -4.087427E+05 -4.734082E+04  8.091903E+04 -8.326500E+03  6.483495E+03
       185   4 -1.465866E+04 -2.268248E+05 -1.772196E+04  8.288659E+04 -4.786987E+03 -1.139317E+04
       185   5  5.063407E+02 -2.247446E+05 -8.573289E+03  5.021686E+04 -1.298623E+04 -6.859697E+03
       185   6  4.974389E+02 -2.267987E+05 -6.129418E+03  8.290486E+04 -8.317708E+03 -2.310372E+03
       185   7  9.951386E+04  2.317724E+05  9.445413E+04  7.611652E+04 -4.800921E+03  1.878431E+02
       185   8  7.902553E+04  9.464784E+04  6.458133E+04  4.782651E+04 -1.298731E+04 -5.467935E+03
       185   9  4.513456E+04 -4.482379E+04  3.508014E+04  8.489128E+04 -8.308973E+03 -1.110679E+04
       185  10 -1.288467E+05 -6.852304E+05 -1.299139E+05  8.965162E+04  2.365770E-09  3.327593E-10
       185  11 -7.802013E+04 -5.440425E+05 -8.173505E+04  5.260590E+04  4.057913E-09  7.417160E-09
       185  12 -4.414199E+04 -4.087428E+05 -4.734103E+04  8.091907E+04  4.448286E-09  1.099820E-08
       185  13 -1.465872E+04 -2.268249E+05 -1.772224E+04  8.288655E+04 -2.444809E-10 -1.033789E-09
       185  14  5.061470E+02 -2.247446E+05 -8.573694E+03  5.021679E+04  4.280962E-09 -4.572342E-09
       185  15  4.973632E+02 -2.267988E+05 -6.129558E+03  8.290484E+04  1.227163E-09 -8.245033E-09
       185  16  9.951384E+04  2.317724E+05  9.445409E+04  7.611652E+04  7.336588E-10 -4.499724E-09
       185  17  7.902534E+04  9.464776E+04  6.458096E+04  4.782646E+04  1.239918E-09 -7.589143E-09
       185  18  4.513445E+04 -4.482394E+04  3.507978E+04  8.489121E+04  9.328012E-10 -1.156015E-08
       185  19 -1.288465E+05 -6.852299E+05 -1.299129E+05  8.965171E+04  4.773301E+03  2.296565E+04
       185  20 -7.801993E+04 -5.440424E+05 -8.173460E+04  5.260599E+04  1.298516E+04  8.250749E+03
       185  21 -4.414191E+04 -4.087427E+05 -4.734082E+04  8.091903E+04  8.326500E+03 -6.483495E+03
       185  22 -1.465866E+04 -2.268248E+05 -1.772196E+04  8.288659E+04  4.786987E+03  1.139317E+04
       185  23  5.063407E+02 -2.247446E+05 -8.573289E+03  5.021686E+04  1.298623E+04  6.859697E+03
       185  24  4.974389E+02 -2.267987E+05 -6.129418E+03  8.290486E+04  8.317708E+03  2.310372E+03
       185  25  9.951386E+04  2.317724E+05  9.445413E+04  7.611652E+04  4.800921E+03 -1.878431E+02
       185  26  7.902553E+04  9.464784E+04  6.458133E+04  4.782651E+04  1.298731E+04  5.467935E+03
       185  27  4.513456E+04 -4.482379E+04  3.508014E+04  8.489128E+04  8.308973E+03  1.110679E+04
       186   1 -1.533625E+04 -2.843435E+05 -1.888093E+04  8.368697E+04 -2.662062E+03  3.776005E+03
       186   2  1.966266E+04 -1.456932E+05  1.269009E+04  4.995954E+04  3.692860E+03  6.357058E+03
       186   3  5.175610E+04 -7.896725E+03  4.189344E+04  8.209199E+04  9.864427E+03  8.939228E+03
       186   4 -1.036886E+03 -2.260726E+05 -5.679420E+03  8.301147E+04 -2.657194E+03 -1.330343E+03
       186   5  5.634036E+01 -2.256272E+05 -5.390224E+03  5.008079E+04  3.697896E+03  1.395273E+03
       186   6 -1.780021E+03 -2.260789E+05 -7.568440E+03  8.301070E+04  9.869559E+03  4.121446E+03
       186   7  1.326226E+04 -1.677985E+05  7.521970E+03  8.233591E+04 -2.652315E+03 -6.437165E+03
       186   8 -1.955041E+04 -3.055553E+05 -2.347085E+04  5.020203E+04  3.702929E+03 -3.565880E+03
       186   9 -5.531941E+04 -4.442167E+05 -5.703330E+04  8.392910E+04  9.874678E+03 -6.946582E+02
       186  10 -1.533626E+04 -2.843435E+05 -1.888097E+04  8.368698E+04  9.699353E-10 -2.429522E-09
       186  11  1.966264E+04 -1.456932E+05  1.268999E+04  4.995952E+04  1.127878E-10  2.141642E-09
       186  12  5.175597E+04 -7.896837E+03  4.189311E+04  8.209192E+04  9.129720E-10  1.423515E-08
       186  13 -1.036894E+03 -2.260726E+05 -5.679437E+03  8.301147E+04  4.090548E-11 -2.134074E-09
       186  14  5.632516E+01 -2.256272E+05 -5.390253E+03  5.008079E+04 -1.226043E-09  7.441288E-10
       186  15 -1.780130E+03 -2.260789E+05 -7.568654E+03  8.301067E+04 -2.366987E-09 -2.764993E-09
       186  16  1.326224E+04 -1.677985E+05  7.521879E+03  8.233590E+04 -1.057508E-09  7.163944E-10
       186  17 -1.955043E+04 -3.055553E+05 -2.347090E+04  5.020204E+04  8.737138E-10 -2.858193E-09
       186  18 -5.531951E+04 -4.442168E+05 -5.703349E+04  8.392910E+04 -1.222701E-09 -1.300416E-08
       186  19 -1.533625E+04 -2.843435E+05 -1.888093E+04  8.368697E+04  2.662062E+03 -3.776005E+03
       186  20  1.966266E+04 -1.456932E+05  1.269009E+04  4.995954E+04 -3.692860E+03 -6.357058E+03
       186  21  5.175610E+04 -7.896725E+03  4.189344E+04  8.209199E+04 -9.864427E+03 -8.939228E+03
       186  22 -1.036886E+03 -2.260726E+05 -5.679420E+03  8.301147E+04  2.657194E+03  1.330343E+03
       186  23  5.634036E+01 -2.256272E+05 -5.390224E+03  5.008079E+04 -3.697896E+03 -1.395273E+03
       186  24 -1.780021E+03 -2.260789E+05 -7.568440E+03  8.301070E+04 -9.869559E+03 -4.121446E+03
       186  25  1.326226E+04 -1.677985E+05  7.521970E+03  8.233591E+04  2.652315E+03  6.437165E+03
       186  26 -1.955041E+04 -3.055553E+05 -2.347085E+04  5.020203E+04 -3.702929E+03  3.565880E+03
       186  27 -5.531941E+04 -4.442167E+05 -5.703330E+04  8.392910E+04 -9.874678E+03  6.946582E+02
       187   1  8.490139E+04  1.144800E+05  6.838032E+04  8.621848E+04  1.592095E+04  1.523654E+04
       187   2  1.186358E+05  2.551132E+05  9.559129E+04  4.621087E+04  1.983788E+04  9.319190E+03
       187   3  1.289687E+05  3.910210E+05  1.208730E+05  7.134913E+04  6.919038E+03  3.376616E+03
       187   4  1.064284E+03 -2.274648E+05 -8.890923E+03  8.286350E+04  1.593198E+04  5.467221E+03
       187   5  9.084653E+02 -2.239533E+05 -1.393882E+04  5.027040E+04  1.983443E+04  1.288396E+04
       187   6 -2.497249E+04 -2.275042E+05 -3.017945E+04  8.282764E+04  6.895164E+03  2.027647E+04
       187   7 -8.278076E+04 -5.693007E+05 -8.616931E+04  7.951041E+04  1.594313E+04 -4.296765E+03
       187   8 -1.168347E+05 -7.028071E+05 -1.234839E+05  5.432683E+04  1.983102E+04  1.644600E+04
       187   9 -1.789413E+05 -8.456798E+05 -1.812586E+05  9.429480E+04  6.871904E+03  3.715952E+04
       187  10  8.490105E+04  1.144797E+05  6.837941E+04  8.621828E+04  7.370939E-10 -1.349478E-09
       187  11  1.186353E+05  2.551130E+05  9.559038E+04  4.621073E+04 -4.701123E-10 -1.270764E-09
       187  12  1.289686E+05  3.910210E+05  1.208728E+05  7.134911E+04 -1.011712E-09  1.063505E-09
       187  13  1.064003E+03 -2.274649E+05 -8.891456E+03  8.286343E+04 -5.721702E-09 -2.711627E-11
       187  14  9.079983E+02 -2.239536E+05 -1.393987E+04  5.027020E+04 -4.270950E-09  2.099003E-09
       187  15 -2.497265E+04 -2.275046E+05 -3.018031E+04  8.282753E+04 -1.465045E-09 -4.782670E-09
       187  16 -8.278104E+04 -5.693008E+05 -8.616982E+04  7.951047E+04 -1.446722E-09  2.783759E-09
       187  17 -1.168352E+05 -7.028075E+05 -1.234852E+05  5.432657E+04  1.737120E-09  6.763283E-09
       187  18 -1.789417E+05 -8.456813E+05 -1.812613E+05  9.429459E+04 -6.408703E-10 -2.901278E-10
       187  19  8.490139E+04  1.144800E+05  6.838032E+04  8.621848E+04 -1.592095E+04 -1.523654E+04
       187  20  1.186358E+05  2.551132E+05  9.559129E+04  4.621087E+04 -1.983788E+04 -9.319190E+03
       187  21  1.289687E+05  3.910210E+05  1.208730E+05  7.134913E+04 -6.919038E+03 -3.376616E+03
       187  22  1.064284E+03 -2.274648E+05 -8.890923E+03  8.286350E+04 -1.593198E+04 -5.467221E+03
       187  23  9.084653E+02 -2.239533E+05 -1.393882E+04  5.027040E+04 -1.983443E+04 -1.288396E+04
       187  24 -2.497249E+04 -2.275042E+05 -3.017945E+04  8.282764E+04 -6.895164E+03 -2.027647E+04
       187  25 -8.278076E+04 -5.693007E+05 -8.616931E+04  7.951041E+04 -1.594313E+04  4.296765E+03
       187  26 -1.168347E+05 -7.028071E+05 -1.234839E+05  5.432683E+04 -1.983102E+04 -1.644600E+04
       187  27 -1.789413E+05 -8.456798E+05 -1.812586E+05  9.429480E+04 -6.871904E+03 -3.715952E+04
       188   1  2.722895E+05  1.411228E+05  1.284501E+05  3.519031E+04  2.696240E+04 -9.947493E+03
       188   2  2.165819E+05  1.484785E+05  1.078977E+05  4.146245E+04  7.911793E+03 -3.328275E+04
       188   3  1.595317E+05  1.404324E+05  9.591231E+04  5.917383E+04 -1.114753E+04 -3.968079E+04
       188   4 -4.417951E+05 -3.515698E+04 -3.901770E+04  5.679126E+04 -2.720465E+04 -9.991608E+03
       188   5 -4.385978E+05 -7.924481E+03 -1.897947E+04  5.105477E+04 -1.738579E+04 -3.330907E+04
       188   6 -4.417644E+05 -1.116365E+03 -1.042691E+04  5.675834E+04 -7.577705E+03 -3.968038E+04
       188   7 -1.155403E+06 -2.114696E+05 -2.065091E+05  7.836711E+04 -8.130979E+04 -1.003952E+04
       188   8 -1.093363E+06 -1.643524E+05 -1.458743E+05  6.063663E+04 -4.265728E+04 -3.333618E+04
       188   9 -1.042707E+06 -1.426850E+05 -1.167794E+05  5.434514E+04 -4.011229E+03 -3.968000E+04
       188  10  2.722887E+05  1.411224E+05  1.284486E+05  3.519052E+04  2.410386E-08 -1.737082E-09
       188  11  2.165816E+05  1.484773E+05  1.078955E+05  4.146266E+04 -5.822829E-09 -6.819852E-09
       188  12  1.595311E+05  1.404307E+05  9.590912E+04  5.917348E+04 -3.588230E-08 -8.126598E-09
       188  13 -4.417959E+05 -3.515728E+04 -3.901928E+04  5.679104E+04 -1.196531E-09  1.610321E-09
       188  14 -4.385984E+05 -7.925753E+03 -1.898212E+04  5.105430E+04 -2.593207E-09  4.567620E-09
       188  15 -4.417648E+05 -1.118071E+03 -1.042997E+04  5.675809E+04 -9.552167E-11  1.114658E-08
       188  16 -1.155410E+06 -2.114715E+05 -2.065217E+05  7.836645E+04 -2.376841E-08 -5.178782E-10
       188  17 -1.093366E+06 -1.643541E+05 -1.458798E+05  6.063548E+04  5.505534E-09 -6.456650E-09
       188  18 -1.042707E+06 -1.426867E+05 -1.167824E+05  5.434501E+04  3.712852E-08 -8.521947E-09
       188  19  2.722895E+05  1.411228E+05  1.284501E+05  3.519031E+04 -2.696240E+04  9.947493E+03
       188  20  2.165819E+05  1.484785E+05  1.078977E+05  4.146245E+04 -7.911793E+03  3.328275E+04
       188  21  1.595317E+05  1.404324E+05  9.591231E+04  5.917383E+04  1.114753E+04  3.968079E+04
       188  22 -4.417951E+05 -3.515698E+04 -3.901770E+04  5.679126E+04  2.720465E+04  9.991608E+03
       188  23 -4.385978E+05 -7.924481E+03 -1.897947E+04  5.105477E+04  1.738579E+04  3.330907E+04
       188  24 -4.417644E+05 -1.116365E+03 -1.042691E+04  5.675834E+04  7.577705E+03  3.968038E+04
       188  25 -1.155403E+06 -2.114696E+05 -2.065091E+05  7.836711E+04  8.130979E+04  1.003952E+04
       188  26 -1.093363E+06 -1.643524E+05 -1.458743E+05  6.063663E+04  4.265728E+04  3.333618E+04
       188  27 -1.042707E+06 -1.426850E+05 -1.167794E+05  5.434514E+04  4.011229E+03  3.968000E+04
       189   1  1.233723E+05  1.309628E+05  9.077087E+04  5.681909E+04 -7.971822E+03 -3.811872E+04
       189   2  6.707596E+04  1.185945E+05  8.218358E+04  5.098112E+04 -8.413402E+03 -3.632630E+04
       189   3  1.067916E+04  1.056156E+05  7.373021E+04  5.771223E+04 -8.857801E+03 -3.299532E+04
       189   4 -4.404666E+05 -1.562583E+03 -7.933844E+03  5.701344E+04 -6.223074E+03 -3.811986E+04
       189   5 -4.401776E+05 -1.858849E+02 -4.366774E+03  5.072751E+04 -4.044127E+03 -3.632373E+04
       189   6 -4.404469E+05  1.251327E+02 -2.486416E+03  5.701133E+04 -1.867991E+03 -3.298842E+04
       189   7 -1.003994E+06 -1.341052E+05 -1.066499E+05  5.720751E+04 -4.475865E+03 -3.812099E+04
       189   8 -9.471781E+05 -1.189799E+05 -9.092556E+04  5.047404E+04  3.216935E+02 -3.632117E+04
       189   9 -8.913723E+05 -1.053761E+05 -7.870938E+04  5.631089E+04  5.116905E+03 -3.298153E+04
       189  10  1.233718E+05  1.309612E+05  9.076802E+04  5.681885E+04  3.040337E-08 -7.665769E-09
       189  11  6.707553E+04  1.185930E+05  8.218097E+04  5.098087E+04  1.975536E-09 -1.502105E-09
       189  12  1.067878E+04  1.056144E+05  7.372802E+04  5.771200E+04 -2.490709E-08  1.053172E-09
       189  13 -4.404670E+05 -1.564154E+03 -7.936647E+03  5.701325E+04  1.086522E-09  1.041254E-08
       189  14 -4.401780E+05 -1.873058E+02 -4.369283E+03  5.072739E+04 -4.692043E-11  7.524863E-09
       189  15 -4.404472E+05  1.239634E+02 -2.488467E+03  5.701128E+04  3.453753E-10  5.037510E-10
       189  16 -1.003995E+06 -1.341068E+05 -1.066527E+05  5.720738E+04 -2.988856E-08 -5.659776E-09
       189  17 -9.471784E+05 -1.189813E+05 -9.092804E+04  5.047404E+04  6.639515E-10 -2.010252E-09
       189  18 -8.913727E+05 -1.053772E+05 -7.871147E+04  5.631103E+04  2.477667E-08 -7.414138E-10
       189  19  1.233723E+05  1.309628E+05  9.077087E+04  5.681909E+04  7.971822E+03  3.811872E+04
       189  20  6.707596E+04  1.185945E+05  8.218358E+04  5.098112E+04  8.413402E+03  3.632630E+04
       189  21  1.067916E+04  1.056156E+05  7.373021E+04  5.771223E+04  8.857801E+03  3.299532E+04
       189  22 -4.404666E+05 -1.562583E+03 -7.933844E+03  5.701344E+04  6.223074E+03  3.811986E+04
       189  23 -4.401776E+05 -1.858849E+02 -4.366774E+03  5.072751E+04  4.044127E+03  3.632373E+04
       189  24 -4.404469E+05  1.251327E+02 -2.486416E+03  5.701133E+04  1.867991E+03  3.298842E+04
       189  25 -1.003994E+06 -1.341052E+05 -1.066499E+05  5.720751E+04  4.475865E+03  3.812099E+04
       189  26 -9.471781E+05 -1.189799E+05 -9.092556E+04  5.047404E+04 -3.216935E+02  3.632117E+04
       189  27 -8.913723E+05 -1.053761E+05 -7.870938E+04  5.631089E+04 -5.116905E+03  3.298153E+04
       190   1 -2.595858E+04  9.693754E+04  6.782377E+04  5.754876E+04 -8.316161E+03 -3.057631E+04
       190   2 -8.235003E+04  8.377627E+04  5.904204E+04  5.114195E+04 -8.025155E+03 -2.649902E+04
       190   3 -1.387994E+05  7.063520E+04  5.006818E+04  5.742234E+04 -7.735432E+03 -2.228049E+04
       190   4 -4.403396E+05  9.699664E+01 -1.889842E+03  5.703783E+04 -1.488766E+03 -3.056899E+04
       190   5 -4.402813E+05  1.440381E+02 -1.081900E+03  5.069397E+04 -9.577085E+02 -2.649049E+04
       190   6 -4.403260E+05  1.696722E+02 -6.331346E+02  5.703773E+04 -4.279096E+02 -2.227070E+04
       190   7 -8.545512E+05 -9.675254E+04 -7.160869E+04  5.652718E+04  5.334222E+03 -3.056168E+04
       190   8 -7.980862E+05 -8.349488E+04 -6.120967E+04  5.024620E+04  6.105796E+03 -2.648196E+04
       190   9 -7.417628E+05 -7.030060E+04 -5.133711E+04  5.665327E+04  6.876179E+03 -2.226092E+04
       190  10 -2.595891E+04  9.693652E+04  6.782188E+04  5.754856E+04 -1.281884E-10  2.014207E-09
       190  11 -8.235029E+04  8.377549E+04  5.904060E+04  5.114178E+04 -1.201616E-08  3.768675E-10
       190  12 -1.387996E+05  7.063465E+04  5.006714E+04  5.742220E+04 -2.399786E-08 -1.053801E-09
       190  13 -4.403398E+05  9.599281E+01 -1.891602E+03  5.703779E+04 -2.905359E-09 -2.144407E-09
       190  14 -4.402815E+05  1.432845E+02 -1.083220E+03  5.069395E+04  9.075891E-10  3.154723E-10
       190  15 -4.403261E+05  1.691396E+02 -6.340668E+02  5.703772E+04  1.983870E-09  1.080832E-09
       190  16 -8.545514E+05 -9.675355E+04 -7.161050E+04  5.652731E+04 -3.002221E-09 -2.738134E-10
       190  17 -7.980864E+05 -8.349564E+04 -6.121106E+04  5.024633E+04  1.225041E-08  3.736886E-10
       190  18 -7.417630E+05 -7.030115E+04 -5.133813E+04  5.665340E+04  2.222064E-08 -1.410602E-09
       190  19 -2.595858E+04  9.693754E+04  6.782377E+04  5.754876E+04  8.316161E+03  3.057631E+04
       190  20 -8.235003E+04  8.377627E+04  5.904204E+04  5.114195E+04  8.025155E+03  2.649902E+04
       190  21 -1.387994E+05  7.063520E+04  5.006818E+04  5.742234E+04  7.735432E+03  2.228049E+04
       190  22 -4.403396E+05  9.699664E+01 -1.889842E+03  5.703783E+04  1.488766E+03  3.056899E+04
       190  23 -4.402813E+05  1.440381E+02 -1.081900E+03  5.069397E+04  9.577085E+02  2.649049E+04
       190  24 -4.403260E+05  1.696722E+02 -6.331346E+02  5.703773E+04  4.279096E+02  2.227070E+04
       190  25 -8.545512E+05 -9.675254E+04 -7.160869E+04  5.652718E+04 -5.334222E+03  3.056168E+04
       190  26 -7.980862E+05 -8.349488E+04 -6.120967E+04  5.024620E+04 -6.105796E+03  2.648196E+04
       190  27 -7.417628E+05 -7.030060E+04 -5.133711E+04  5.665327E+04 -6.876179E+03  2.226092E+04
       191   1 -1.755023E+05  6.200941E+04  4.380126E+04  5.737556E+04 -7.624317E+03 -1.978098E+04
       191   2 -2.319539E+05  4.882546E+04  3.461374E+04  5.094721E+04 -7.497233E+03 -1.549257E+04
       191   3 -2.884497E+05  3.568050E+04  2.534167E+04  5.722764E+04 -7.370822E+03 -1.119104E+04
       191   4 -4.403107E+05  1.703933E+02 -4.919786E+02  5.704250E+04 -3.296870E+02 -1.977077E+04
       191   5 -4.402807E+05  1.585234E+02 -3.135175E+02  5.068799E+04 -1.806871E+02 -1.548179E+04
       191   6 -4.403029E+05  1.817006E+02 -2.352413E+02  5.704249E+04 -3.234901E+01 -1.117969E+04
       191   7 -7.050497E+05 -6.167226E+04 -4.478718E+04  5.670957E+04  6.961934E+03 -1.976057E+04
       191   8 -6.485646E+05 -4.851066E+04 -3.524192E+04  5.042884E+04  7.133484E+03 -1.547102E+04
       191   9 -5.921332E+05 -3.531828E+04 -2.581268E+04  5.685738E+04  7.304387E+03 -1.116835E+04
       191  10 -1.755025E+05  6.200897E+04  4.380041E+04  5.737543E+04  2.274875E-08 -4.597969E-10
       191  11 -2.319540E+05  4.882519E+04  3.461318E+04  5.094712E+04  9.274870E-09  4.635140E-09
       191  12 -2.884498E+05  3.568035E+04  2.534134E+04  5.722757E+04 -4.763842E-09  3.660707E-09
       191  13 -4.403108E+05  1.699736E+02 -4.927132E+02  5.704250E+04  1.064142E-09 -7.612259E-10
       191  14 -4.402808E+05  1.582661E+02 -3.139679E+02  5.068799E+04  1.593180E-09  3.007633E-09
       191  15 -4.403029E+05  1.815664E+02 -2.354761E+02  5.704249E+04  3.231016E-09  6.293072E-10
       191  16 -7.050499E+05 -6.167269E+04 -4.478801E+04  5.670968E+04 -2.496025E-08 -1.719187E-09
       191  17 -6.485647E+05 -4.851093E+04 -3.524247E+04  5.042893E+04 -8.178054E-09 -2.056375E-10
       191  18 -5.921333E+05 -3.531843E+04 -2.581302E+04  5.685745E+04  6.485618E-09  7.249222E-10
       191  19 -1.755023E+05  6.200941E+04  4.380126E+04  5.737556E+04  7.624317E+03  1.978098E+04
       191  20 -2.319539E+05  4.882546E+04  3.461374E+04  5.094721E+04  7.497233E+03  1.549257E+04
       191  21 -2.884497E+05  3.568050E+04  2.534167E+04  5.722764E+04  7.370822E+03  1.119104E+04
       191  22 -4.403107E+05  1.703933E+02 -4.919786E+02  5.704250E+04  3.296870E+02  1.977077E+04
       191  23 -4.402807E+05  1.585234E+02 -3.135175E+02  5.068799E+04  1.806871E+02  1.548179E+04
       191  24 -4.403029E+05  1.817006E+02 -2.352413E+02  5.704249E+04  3.234901E+01  1.117969E+04
       191  25 -7.050497E+05 -6.167226E+04 -4.478718E+04  5.670957E+04 -6.961934E+03  1.976057E+04
       191  26 -6.485646E+05 -4.851066E+04 -3.524192E+04  5.042884E+04 -7.133484E+03  1.547102E+04
       191  27 -5.921332E+05 -3.531828E+04 -2.581268E+04  5.685738E+04 -7.304387E+03  1.116835E+04
       192   1 -3.251850E+05  2.705193E+04  1.894700E+04  5.718208E+04 -7.333191E+03 -8.682799E+03
       192   2 -3.816543E+05  1.386328E+04  9.561000E+03  5.074385E+04 -7.201147E+03 -4.377267E+03
       192   3 -4.381775E+05  7.087781E+02  8.369357E+01  5.702253E+04 -7.069283E+03 -7.831234E+01
       192   4 -4.403014E+05  1.840066E+02 -2.252128E+02  5.704426E+04  5.628504E+00 -8.671247E+03
       192   5 -4.402732E+05  1.702710E+02 -2.574295E+02  5.068577E+04  1.261952E+02 -4.365583E+03
       192   6 -4.402993E+05  1.930101E+02 -3.728625E+02  5.704425E+04  2.465926E+02 -6.649406E+01
       192   7 -5.554046E+05 -2.668457E+04 -1.939762E+04  5.690647E+04  7.343132E+03 -8.659697E+03
       192   8 -4.988886E+05 -1.352289E+04 -1.007576E+04  5.062769E+04  7.452868E+03 -4.353900E+03
       192   9 -4.424209E+05 -3.227295E+02 -8.292174E+02  5.706598E+04  7.562444E+03 -5.467525E+01
       192  10 -3.251851E+05  2.705183E+04  1.894675E+04  5.718203E+04  4.314531E-09  6.707952E-10
       192  11 -3.816543E+05  1.386324E+04  9.560867E+03  5.074382E+04  2.584725E-10 -4.255488E-10
       192  12 -4.381775E+05  7.087647E+02  8.359958E+01  5.702253E+04 -3.247275E-09 -6.776838E-10
       192  13 -4.403015E+05  1.839259E+02 -2.253541E+02  5.704426E+04 -1.419725E-09  5.112086E-09
       192  14 -4.402732E+05  1.702506E+02 -2.574654E+02  5.068577E+04  6.437444E-10  4.615502E-10
       192  15 -4.402993E+05  1.930101E+02 -3.728626E+02  5.704425E+04 -2.323670E-10 -2.095873E-09
       192  16 -5.554047E+05 -2.668467E+04 -1.939787E+04  5.690652E+04 -5.061321E-09  2.753683E-09
       192  17 -4.988886E+05 -1.352292E+04 -1.007590E+04  5.062772E+04  1.143210E-09 -9.714886E-10
       192  18 -4.424210E+05 -3.227448E+02 -8.293250E+02  5.706598E+04  3.936122E-09 -2.274351E-09
       192  19 -3.251850E+05  2.705193E+04  1.894700E+04  5.718208E+04  7.333191E+03  8.682799E+03
       192  20 -3.816543E+05  1.386328E+04  9.561000E+03  5.074385E+04  7.201147E+03  4.377267E+03
       192  21 -4.381775E+05  7.087781E+02  8.369357E+01  5.702253E+04  7.069283E+03  7.831234E+01
       192  22 -4.403014E+05  1.840066E+02 -2.252128E+02  5.704426E+04 -5.628504E+00  8.671247E+03
       192  23 -4.402732E+05  1.702710E+02 -2.574295E+02  5.068577E+04 -1.261952E+02  4.365583E+03
       192  24 -4.402993E+05  1.930101E+02 -3.728625E+02  5.704425E+04 -2.465926E+02  6.649406E+01
       192  25 -5.554046E+05 -2.668457E+04 -1.939762E+04  5.690647E+04 -7.343132E+03  8.659697E+03
       192  26 -4.988886E+05 -1.352289E+04 -1.007576E+04  5.062769E+04 -7.452868E+03  4.353900E+03
       192  27 -4.424209E+05 -3.227295E+02 -8.292174E+02  5.706598E+04 -7.562444E+03  5.467525E+01
       193   1 -4.749292E+05 -7.922765E+03 -6.425406E+03  5.696407E+04 -7.006164E+03  2.426898E+03
       193   2 -5.313570E+05 -2.112270E+04 -1.614723E+04  5.052641E+04 -6.471037E+03  6.684566E+03
       193   3 -5.879057E+05 -3.435251E+04 -2.623870E+04  5.679920E+04 -5.935550E+03  1.085319E+04
       193   4 -4.403091E+05  1.960177E+02 -4.707879E+02  5.704276E+04  3.187846E+02  2.438706E+03
       193   5 -4.402620E+05  1.787272E+02 -7.878903E+02  5.068762E+04  7.020200E+02  6.695896E+03
       193   6 -4.403127E+05  1.580728E+02 -1.369160E+03  5.704282E+04  1.085661E+03  1.086405E+04
       193   7 -4.056878E+05  8.314765E+03  5.483991E+03  5.712145E+04  7.644129E+03  2.450516E+03
       193   8 -3.491588E+05  2.147975E+04  1.457138E+04  5.084886E+04  7.876096E+03  6.707230E+03
       193   9 -2.926980E+05  3.466754E+04  2.349988E+04  5.728650E+04  8.108489E+03  1.087492E+04
       193  10 -4.749292E+05 -7.922785E+03 -6.425509E+03  5.696408E+04 -4.176267E-08  3.066240E-09
       193  11 -5.313570E+05 -2.112276E+04 -1.614740E+04  5.052644E+04  2.343898E-09  3.947069E-09
       193  12 -5.879058E+05 -3.435265E+04 -2.623899E+04  5.679925E+04  4.509160E-08  4.404250E-09
       193  13 -4.403091E+05  1.960113E+02 -4.707993E+02  5.704276E+04 -1.075482E-09 -1.210265E-09
       193  14 -4.402620E+05  1.786789E+02 -7.879755E+02  5.068762E+04  1.313284E-09 -2.479675E-09
       193  15 -4.403127E+05  1.579458E+02 -1.369384E+03  5.704281E+04  4.791097E-09 -4.214269E-09
       193  16 -4.056879E+05  8.314743E+03  5.483870E+03  5.712144E+04  4.189646E-08  2.772233E-10
       193  17 -3.491589E+05  2.147968E+04  1.457118E+04  5.084882E+04 -1.288698E-09 -2.942273E-09
       193  18 -2.926981E+05  3.466740E+04  2.349953E+04  5.728643E+04 -4.413005E-08  2.070595E-09
       193  19 -4.749292E+05 -7.922765E+03 -6.425406E+03  5.696407E+04  7.006164E+03 -2.426898E+03
       193  20 -5.313570E+05 -2.112270E+04 -1.614723E+04  5.052641E+04  6.471037E+03 -6.684566E+03
       193  21 -5.879057E+05 -3.435251E+04 -2.623870E+04  5.679920E+04  5.935550E+03 -1.085319E+04
       193  22 -4.403091E+05  1.960177E+02 -4.707879E+02  5.704276E+04 -3.187846E+02 -2.438706E+03
       193  23 -4.402620E+05  1.787272E+02 -7.878903E+02  5.068762E+04 -7.020200E+02 -6.695896E+03
       193  24 -4.403127E+05  1.580728E+02 -1.369160E+03  5.704282E+04 -1.085661E+03 -1.086405E+04
       193  25 -4.056878E+05  8.314765E+03  5.483991E+03  5.712145E+04 -7.644129E+03 -2.450516E+03
       193  26 -3.491588E+05  2.147975E+04  1.457138E+04  5.084886E+04 -7.876096E+03 -6.707230E+03
       193  27 -2.926980E+05  3.466754E+04  2.349988E+04  5.728650E+04 -8.108489E+03 -1.087492E+04
       194   1 -6.247512E+05 -4.298379E+04 -3.314412E+04  5.662054E+04 -5.766651E+03  1.330866E+04
       194   2 -6.808482E+05 -5.647658E+04 -4.448854E+04  5.057929E+04 -2.531032E+03  1.700870E+04
       194   3 -7.376642E+05 -7.101711E+04 -5.821404E+04  5.717864E+04  7.062302E+02  1.972971E+04
       194   4 -4.403895E+05  1.812179E+02 -1.799475E+03  5.702699E+04  1.358336E+03  1.331943E+04
       194   5 -4.401778E+05 -4.469347E+01 -3.155151E+03  5.070775E+04  2.927394E+03  1.701638E+04
       194   6 -4.403991E+05 -1.028621E+03 -5.733595E+03  5.702883E+04  4.498402E+03  1.973447E+04
       194   7 -2.559943E+05  4.334445E+04  2.954425E+04  5.743354E+04  8.485373E+03  1.333022E+04
       194   8 -1.994504E+05  5.638411E+04  3.817639E+04  5.083623E+04  8.387871E+03  1.702405E+04
       194   9 -1.430476E+05  6.895502E+04  4.674366E+04  5.687892E+04  8.292337E+03  1.973923E+04
       194  10 -6.247513E+05 -4.298399E+04 -3.314452E+04  5.662060E+04 -2.043605E-08  6.326526E-09
       194  11 -6.808483E+05 -5.647689E+04 -4.448909E+04  5.057933E+04 -2.398529E-09  3.536208E-09
       194  12 -7.376643E+05 -7.101752E+04 -5.821477E+04  5.717863E+04  1.376544E-08  3.474540E-09
       194  13 -4.403896E+05  1.810269E+02 -1.799812E+03  5.702697E+04  3.502690E-13 -4.137723E-09
       194  14 -4.401779E+05 -4.500664E+01 -3.155711E+03  5.070771E+04 -2.394386E-09 -1.471707E-09
       194  15 -4.403992E+05 -1.029044E+03 -5.734365E+03  5.702876E+04  1.565331E-09  4.209245E-10
       194  16 -2.559944E+05  4.334424E+04  2.954378E+04  5.743345E+04  1.749397E-08  4.650173E-09
       194  17 -1.994506E+05  5.638378E+04  3.817572E+04  5.083612E+04  3.582671E-09  3.101334E-09
       194  18 -1.430477E+05  6.895459E+04  4.674280E+04  5.687879E+04 -1.598361E-08 -3.654103E-09
       194  19 -6.247512E+05 -4.298379E+04 -3.314412E+04  5.662054E+04  5.766651E+03 -1.330866E+04
       194  20 -6.808482E+05 -5.647658E+04 -4.448854E+04  5.057929E+04  2.531032E+03 -1.700870E+04
       194  21 -7.376642E+05 -7.101711E+04 -5.821404E+04  5.717864E+04 -7.062302E+02 -1.972971E+04
       194  22 -4.403895E+05  1.812179E+02 -1.799475E+03  5.702699E+04 -1.358336E+03 -1.331943E+04
       194  23 -4.401778E+05 -4.469347E+01 -3.155151E+03  5.070775E+04 -2.927394E+03 -1.701638E+04
       194  24 -4.403991E+05 -1.028621E+03 -5.733595E+03  5.702883E+04 -4.498402E+03 -1.973447E+04
       194  25 -2.559943E+05  4.334445E+04  2.954425E+04  5.743354E+04 -8.485373E+03 -1.333022E+04
       194  26 -1.994504E+05  5.638411E+04  3.817639E+04  5.083623E+04 -8.387871E+03 -1.702405E+04
       194  27 -1.430476E+05  6.895502E+04  4.674366E+04  5.687892E+04 -8.292337E+03 -1.973923E+04
       195   1 -7.758246E+05 -7.958964E+04 -6.721340E+04  5.510020E+04  5.255100E+02  2.163834E+04
       195   2 -8.284083E+05 -9.877457E+04 -8.987687E+04  5.777991E+04  2.596327E+04  1.918872E+04
       195   3 -8.888187E+05 -1.359154E+05 -1.336067E+05  7.238964E+04  5.141118E+04  5.954068E+03
       195   4 -4.413370E+05 -7.039954E+02 -7.535306E+03  5.686664E+04  5.475614E+03  2.164446E+04
       195   5 -4.390291E+05 -5.631842E+03 -1.371335E+04  5.091826E+04  1.255851E+04  1.916910E+04
       195   6 -4.413565E+05 -2.532021E+04 -2.819735E+04  5.690038E+04  1.965407E+04  5.911104E+03
       195   7 -1.067401E+05  7.817548E+04  5.213864E+04  5.863402E+04  1.042831E+04  2.165061E+04
       195   8 -4.950395E+04  8.750204E+04  6.244359E+04  4.405215E+04 -8.544840E+02  1.914979E+04
       195   9  6.292928E+03  8.526212E+04  7.720214E+04  4.139981E+04 -1.212583E+04  5.869744E+03
       195  10 -7.758247E+05 -7.959015E+04 -6.721428E+04  5.510019E+04 -1.629671E-09  3.383221E-09
       195  11 -8.284091E+05 -9.877515E+04 -8.987883E+04  5.777951E+04  1.226812E-09  1.794679E-09
       195  12 -8.888216E+05 -1.359161E+05 -1.336117E+05  7.238939E+04  2.488406E-09  3.333195E-10
       195  13 -4.413372E+05 -7.045064E+02 -7.536242E+03  5.686654E+04 -1.397585E-09  3.716433E-09
       195  14 -4.390294E+05 -5.632279E+03 -1.371434E+04  5.091806E+04 -3.768609E-10 -1.013169E-09
       195  15 -4.413569E+05 -2.532036E+04 -2.819814E+04  5.690028E+04 -6.022244E-10  2.645253E-09
       195  16 -1.067403E+05  7.817494E+04  5.213756E+04  5.863383E+04  7.372048E-10  4.079731E-10
       195  17 -4.950405E+04  8.750164E+04  6.244290E+04  4.405216E+04  1.814025E-09  1.705228E-09
       195  18  6.292761E+03  8.526204E+04  7.720180E+04  4.139986E+04 -1.607088E-09  6.119993E-10
       195  19 -7.758246E+05 -7.958964E+04 -6.721340E+04  5.510020E+04 -5.255100E+02 -2.163834E+04
       195  20 -8.284083E+05 -9.877457E+04 -8.987687E+04  5.777991E+04 -2.596327E+04 -1.918872E+04
       195  21 -8.888187E+05 -1.359154E+05 -1.336067E+05  7.238964E+04 -5.141118E+04 -5.954068E+03
       195  22 -4.413370E+05 -7.039954E+02 -7.535306E+03  5.686664E+04 -5.475614E+03 -2.164446E+04
       195  23 -4.390291E+05 -5.631842E+03 -1.371335E+04  5.091826E+04 -1.255851E+04 -1.916910E+04
       195  24 -4.413565E+05 -2.532021E+04 -2.819735E+04  5.690038E+04 -1.965407E+04 -5.911104E+03
       195  25 -1.067401E+05  7.817548E+04  5.213864E+04  5.863402E+04 -1.042831E+04 -2.165061E+04
       195  26 -4.950395E+04  8.750204E+04  6.244359E+04  4.405215E+04  8.544840E+02 -1.914979E+04
       195  27  6.292928E+03  8.526212E+04  7.720214E+04  4.139981E+04  1.212583E+04 -5.869744E+03
       196   1 -9.016641E+04  7.603515E+04  6.308039E+04  2.050024E+03 -2.424507E+04 -6.264060E+03
       196   2 -1.229124E+05  1.143153E+05  7.815904E+04  6.903254E+03 -2.042750E+04 -1.945604E+04
       196   3 -1.679331E+05  1.053337E+05  7.895738E+04  2.974934E+04 -1.662650E+04 -1.989507E+04
       196   4 -5.868206E+05 -4.746706E+04 -5.790101E+04  2.229772E+04 -3.972348E+04 -6.284989E+03
       196   5 -5.797890E+05  2.081057E+03 -2.608196E+04  1.326587E+04 -2.581542E+04 -1.946506E+04
       196   6 -5.867967E+05  2.595024E+03 -1.556322E+04  2.222818E+04 -1.192342E+04 -1.988817E+04
       196   7 -1.083248E+06 -1.709858E+05 -1.788992E+05  4.252910E+04 -5.518953E+04 -6.306938E+03
       196   8 -1.036472E+06 -1.101675E+05 -1.303365E+05  1.962368E+04 -3.119940E+04 -1.947421E+04
       196   9 -1.005497E+06 -1.001555E+05 -1.100950E+05  1.471208E+04 -7.223472E+03 -1.988138E+04
       196  10 -9.016706E+04  7.603495E+04  6.307921E+04  2.049902E+03  1.433677E-09  5.963003E-10
       196  11 -1.229130E+05  1.143148E+05  7.815755E+04  6.902934E+03  1.864346E-09  1.617960E-09
       196  12 -1.679335E+05  1.053332E+05  7.895612E+04  2.974908E+04 -1.606506E-09 -2.057999E-09
       196  13 -5.868223E+05 -4.746752E+04 -5.790406E+04  2.229752E+04 -1.319976E-09 -9.583038E-10
       196  14 -5.797898E+05  2.080471E+03 -2.608393E+04  1.326546E+04  1.046809E-09 -4.100415E-10
       196  15 -5.867970E+05  2.594561E+03 -1.556423E+04  2.222799E+04 -2.073207E-09  5.363456E-09
       196  16 -1.083252E+06 -1.709866E+05 -1.789050E+05  4.252882E+04 -1.445213E-09 -5.940096E-10
       196  17 -1.036473E+06 -1.101682E+05 -1.303390E+05  1.962319E+04 -1.392705E-09  1.295773E-09
       196  18 -1.005497E+06 -1.001559E+05 -1.100958E+05  1.471196E+04  5.288735E-10 -4.323527E-09
       196  19 -9.016641E+04  7.603515E+04  6.308039E+04  2.050024E+03  2.424507E+04  6.264060E+03
       196  20 -1.229124E+05  1.143153E+05  7.815904E+04  6.903254E+03  2.042750E+04  1.945604E+04
       196  21 -1.679331E+05  1.053337E+05  7.895738E+04  2.974934E+04  1.662650E+04  1.989507E+04
       196  22 -5.868206E+05 -4.746706E+04 -5.790101E+04  2.229772E+04  3.972348E+04  6.284989E+03
       196  23 -5.797890E+05  2.081057E+03 -2.608196E+04  1.326587E+04  2.581542E+04  1.946506E+04
       196  24 -5.867967E+05  2.595024E+03 -1.556322E+04  2.222818E+04  1.192342E+04  1.988817E+04
       196  25 -1.083248E+06 -1.709858E+05 -1.788992E+05  4.252910E+04  5.518953E+04  6.306938E+03
       196  26 -1.036472E+06 -1.101675E+05 -1.303365E+05  1.962368E+04  3.119940E+04  1.947421E+04
       196  27 -1.005497E+06 -1.001555E+05 -1.100950E+05  1.471208E+04  7.223472E+03  1.988138E+04
       197   1 -2.001270E+05  9.110290E+04  7.459244E+04  2.180009E+04 -1.049635E+04 -1.734005E+04
       197   2 -2.387184E+05  8.476077E+04  7.128110E+04  1.327266E+04 -7.607355E+03 -1.599422E+04
       197   3 -2.785162E+05  7.520968E+04  6.528032E+04  2.341127E+04 -4.720549E+03 -1.405297E+04
       197   4 -5.839598E+05 -3.105795E+03 -1.247432E+04  2.240094E+04 -9.666333E+03 -1.733940E+04
       197   5 -5.833097E+05  2.228429E+02 -6.665453E+03  1.306452E+04 -6.307773E+03 -1.599246E+04
       197   6 -5.839505E+05  2.597491E+02 -3.873695E+03  2.239486E+04 -2.951233E+03 -1.404995E+04
       197   7 -9.676558E+05 -9.732465E+04 -9.955060E+04  2.300135E+04 -8.836818E+03 -1.733875E+04
       197   8 -9.277906E+05 -8.432326E+04 -8.461963E+04  1.285645E+04 -5.008904E+03 -1.599069E+04
       197   9 -8.892980E+05 -7.469661E+04 -7.303371E+04  2.137890E+04 -1.182780E+03 -1.404693E+04
       197  10 -2.001272E+05  9.110254E+04  7.459167E+04  2.179995E+04  3.630536E-09 -4.432845E-09
       197  11 -2.387185E+05  8.476048E+04  7.128051E+04  1.327256E+04 -2.755835E-09  1.487795E-09
       197  12 -2.785163E+05  7.520946E+04  6.527990E+04  2.341122E+04 -5.430293E-09  4.744413E-09
       197  13 -5.839600E+05 -3.106143E+03 -1.247506E+04  2.240081E+04  8.718645E-10  1.159253E-08
       197  14 -5.833098E+05  2.225577E+02 -6.666009E+03  1.306444E+04  2.895587E-09 -6.614773E-09
       197  15 -5.839505E+05  2.595348E+02 -3.874082E+03  2.239482E+04 -1.764388E-10  5.527308E-09
       197  16 -9.676559E+05 -9.732500E+04 -9.955131E+04  2.300123E+04 -2.030291E-10 -7.297349E-09
       197  17 -9.277907E+05 -8.432354E+04 -8.462016E+04  1.285638E+04 -5.661132E-10 -3.748723E-09
       197  18 -8.892980E+05 -7.469682E+04 -7.303408E+04  2.137889E+04  4.107781E-09  1.871707E-10
       197  19 -2.001270E+05  9.110290E+04  7.459244E+04  2.180009E+04  1.049635E+04  1.734005E+04
       197  20 -2.387184E+05  8.476077E+04  7.128110E+04  1.327266E+04  7.607355E+03  1.599422E+04
       197  21 -2.785162E+05  7.520968E+04  6.528032E+04  2.341127E+04  4.720549E+03  1.405297E+04
       197  22 -5.839598E+05 -3.105795E+03 -1.247432E+04  2.240094E+04  9.666333E+03  1.733940E+04
       197  23 -5.833097E+05  2.228429E+02 -6.665453E+03  1.306452E+04  6.307773E+03  1.599246E+04
       197  24 -5.839505E+05  2.597491E+02 -3.873695E+03  2.239486E+04  2.951233E+03  1.404995E+04
       197  25 -9.676558E+05 -9.732465E+04 -9.955060E+04  2.300135E+04  8.836818E+03  1.733875E+04
       197  26 -9.277906E+05 -8.432326E+04 -8.461963E+04  1.285645E+04  5.008904E+03  1.599069E+04
       197  27 -8.892980E+05 -7.469661E+04 -7.303371E+04  2.137890E+04  1.182780E+03  1.404693E+04
       198   1 -3.134597E+05  6.616320E+04  5.801165E+04  2.285709E+04 -3.944650E+03 -1.279183E+04
       198   2 -3.528707E+05  5.667703E+04  5.045431E+04  1.340940E+04 -3.123702E+03 -1.076077E+04
       198   3 -3.924992E+05  4.704405E+04  4.230844E+04  2.281387E+04 -2.303548E+03 -8.697733E+03
       198   4 -5.837084E+05 -1.147783E+02 -2.992296E+03  2.243815E+04 -2.349994E+03 -1.278895E+04
       198   5 -5.835943E+05  7.443138E+01 -1.711385E+03  1.301162E+04 -1.504090E+03 -1.075761E+04
       198   6 -5.837030E+05  1.126604E+02 -1.036330E+03  2.243767E+04 -6.589281E+02 -8.694261E+03
       198   7 -8.538892E+05 -6.639777E+04 -6.400091E+04  2.201935E+04 -7.560260E+02 -1.278608E+04
       198   8 -8.142684E+05 -5.653183E+04 -5.388049E+04  1.261395E+04  1.149254E+02 -1.075444E+04
       198   9 -7.748729E+05 -4.682125E+04 -4.438346E+04  2.206157E+04  9.851898E+02 -8.690789E+03
       198  10 -3.134598E+05  6.616302E+04  5.801131E+04  2.285705E+04 -3.566012E-10 -3.719737E-09
       198  11 -3.528708E+05  5.667690E+04  5.045407E+04  1.340938E+04  1.225625E-09 -5.594004E-09
       198  12 -3.924992E+05  4.704397E+04  4.230829E+04  2.281385E+04 -1.823791E-10 -3.684338E-09
       198  13 -5.837085E+05 -1.149553E+02 -2.992614E+03  2.243812E+04 -1.839159E-11 -1.950096E-09
       198  14 -5.835944E+05  7.430653E+01 -1.711607E+03  1.301160E+04 -1.399335E-09 -5.125080E-09
       198  15 -5.837030E+05  1.125791E+02 -1.036473E+03  2.243766E+04 -5.956508E-10 -7.534735E-10
       198  16 -8.538892E+05 -6.639795E+04 -6.400122E+04  2.201935E+04  1.304468E-09 -4.225606E-09
       198  17 -8.142685E+05 -5.653195E+04 -5.388071E+04  1.261396E+04 -2.558995E-09  2.608361E-09
       198  18 -7.748729E+05 -4.682133E+04 -4.438360E+04  2.206157E+04 -1.371310E-09  7.192034E-09
       198  19 -3.134597E+05  6.616320E+04  5.801165E+04  2.285709E+04  3.944650E+03  1.279183E+04
       198  20 -3.528707E+05  5.667703E+04  5.045431E+04  1.340940E+04  3.123702E+03  1.076077E+04
       198  21 -3.924992E+05  4.704405E+04  4.230844E+04  2.281387E+04  2.303548E+03  8.697733E+03
       198  22 -5.837084E+05 -1.147783E+02 -2.992296E+03  2.243815E+04  2.349994E+03  1.278895E+04
       198  23 -5.835943E+05  7.443138E+01 -1.711385E+03  1.301162E+04  1.504090E+03  1.075761E+04
       198  24 -5.837030E+05  1.126604E+02 -1.036330E+03  2.243767E+04  6.589281E+02  8.694261E+03
       198  25 -8.538892E+05 -6.639777E+04 -6.400091E+04  2.201935E+04  7.560260E+02  1.278608E+04
       198  26 -8.142684E+05 -5.653183E+04 -5.388049E+04  1.261395E+04 -1.149254E+02  1.075444E+04
       198  27 -7.748729E+05 -4.682125E+04 -4.438346E+04  2.206157E+04 -9.851898E+02  8.690789E+03
       199   1 -4.278891E+05  3.828860E+04  3.427578E+04  2.274022E+04 -2.132290E+03 -7.489212E+03
       199   2 -4.675492E+05  2.854311E+04  2.564280E+04  1.319208E+04 -1.842873E+03 -5.416297E+03
       199   3 -5.073304E+05  1.886501E+04  1.681487E+04  2.259221E+04 -1.553832E+03 -3.339753E+03
       199   4 -5.836779E+05  9.062822E+01 -8.342429E+02  2.245914E+04 -4.932903E+02 -7.485632E+03
       199   5 -5.836151E+05  6.724590E+01 -6.001243E+02  1.298487E+04 -2.011094E+02 -5.412589E+03
       199   6 -5.836753E+05  1.108627E+02 -5.628401E+02  2.245910E+04  9.071339E+01 -3.335910E+03
       199   7 -7.394442E+05 -3.810900E+04 -3.594581E+04  2.217811E+04  1.145302E+03 -7.482054E+03
       199   8 -6.996685E+05 -2.840954E+04 -2.684390E+04  1.277770E+04  1.440350E+03 -5.408881E+03
       199   9 -6.600148E+05 -1.864369E+04 -1.794092E+04  2.232600E+04  1.735059E+03 -3.332067E+03
       199  10 -4.278891E+05  3.828853E+04  3.427567E+04  2.274021E+04  5.735941E-09 -5.237771E-09
       199  11 -4.675492E+05  2.854307E+04  2.564273E+04  1.319207E+04 -4.417868E-09 -1.171390E-10
       199  12 -5.073304E+05  1.886500E+04  1.681485E+04  2.259220E+04 -1.070589E-08 -1.559803E-09
       199  13 -5.836780E+05  9.056800E+01 -8.343486E+02  2.245913E+04  9.237543E-10  9.895410E-10
       199  14 -5.836151E+05  6.721444E+01 -6.001794E+02  1.298487E+04  3.662880E-09 -1.344599E-09
       199  15 -5.836753E+05  1.108508E+02 -5.628610E+02  2.245910E+04 -3.779489E-10  1.298599E-09
       199  16 -7.394442E+05 -3.810906E+04 -3.594591E+04  2.217812E+04 -6.185242E-09  3.298924E-09
       199  17 -6.996685E+05 -2.840957E+04 -2.684396E+04  1.277771E+04  1.220937E-09  5.273558E-09
       199  18 -6.600148E+05 -1.864370E+04 -1.794095E+04  2.232600E+04  9.659269E-09 -7.743830E-10
       199  19 -4.278891E+05  3.828860E+04  3.427578E+04  2.274022E+04  2.132290E+03  7.489212E+03
       199  20 -4.675492E+05  2.854311E+04  2.564280E+04  1.319208E+04  1.842873E+03  5.416297E+03
       199  21 -5.073304E+05  1.886501E+04  1.681487E+04  2.259221E+04  1.553832E+03  3.339753E+03
       199  22 -5.836779E+05  9.062822E+01 -8.342429E+02  2.245914E+04  4.932903E+02  7.485632E+03
       199  23 -5.836151E+05  6.724590E+01 -6.001243E+02  1.298487E+04  2.011094E+02  5.412589E+03
       199  24 -5.836753E+05  1.108627E+02 -5.628401E+02  2.245910E+04 -9.071339E+01  3.335910E+03
       199  25 -7.394442E+05 -3.810900E+04 -3.594581E+04  2.217811E+04 -1.145302E+03  7.482054E+03
       199  26 -6.996685E+05 -2.840954E+04 -2.684390E+04  1.277770E+04 -1.440350E+03  5.408881E+03
       199  27 -6.600148E+05 -1.864369E+04 -1.794092E+04  2.232600E+04 -1.735059E+03  3.332067E+03
       200   1 -5.428677E+05  1.010186E+04  8.503257E+03  2.252838E+04 -1.451384E+03 -2.129798E+03
       200   2 -5.825794E+05  3.264576E+02 -6.202227E+02  1.295510E+04 -1.034115E+03 -5.040976E+01
       200   3 -6.224403E+05 -9.392838E+03 -1.002686E+04  2.236289E+04 -6.168796E+02  2.028105E+03
       200   4 -5.836806E+05  1.113503E+02 -6.100162E+02  2.246633E+04  1.939497E+02 -2.125912E+03
       200   5 -5.836051E+05  7.494319E+01 -8.520534E+02  1.297582E+04  6.104668E+02 -4.652774E+01
       200   6 -5.836807E+05  9.472455E+01 -1.376812E+03  2.246638E+04  1.026976E+03  2.031989E+03
       200   7 -6.244919E+05 -9.879271E+03 -9.723384E+03  2.240429E+04  1.839176E+03 -2.122026E+03
       200   8 -5.846307E+05 -1.765699E+02 -1.083874E+03  1.299653E+04  2.255046E+03 -4.264560E+01
       200   9 -5.449197E+05  9.582187E+03  7.273155E+03  2.256987E+04  2.670934E+03  2.035874E+03
       200  10 -5.428677E+05  1.010185E+04  8.503244E+03  2.252838E+04  7.613641E-10 -2.151328E-09
       200  11 -5.825794E+05  3.264574E+02 -6.202247E+02  1.295510E+04 -7.743679E-10 -5.117281E-09
       200  12 -6.224403E+05 -9.392843E+03 -1.002687E+04  2.236290E+04 -4.403031E-09 -4.516026E-09
       200  13 -5.836806E+05  1.113455E+02 -6.100247E+02  2.246633E+04 -4.918720E-09  6.701910E-09
       200  14 -5.836051E+05  7.494309E+01 -8.520541E+02  1.297582E+04 -5.289919E-10 -2.406123E-10
       200  15 -5.836807E+05  9.471983E+01 -1.376822E+03  2.246638E+04  6.868803E-10 -3.777191E-09
       200  16 -6.244919E+05 -9.879276E+03 -9.723399E+03  2.240429E+04 -1.839930E-10 -1.259519E-09
       200  17 -5.846307E+05 -1.765712E+02 -1.083884E+03  1.299653E+04  7.212644E-10 -8.858566E-09
       200  18 -5.449197E+05  9.582181E+03  7.273134E+03  2.256986E+04  5.771616E-09 -4.237134E-09
       200  19 -5.428677E+05  1.010186E+04  8.503257E+03  2.252838E+04  1.451384E+03  2.129798E+03
       200  20 -5.825794E+05  3.264576E+02 -6.202227E+02  1.295510E+04  1.034115E+03  5.040976E+01
       200  21 -6.224403E+05 -9.392838E+03 -1.002686E+04  2.236289E+04  6.168796E+02 -2.028105E+03
       200  22 -5.836806E+05  1.113503E+02 -6.100162E+02  2.246633E+04 -1.939497E+02  2.125912E+03
       200  23 -5.836051E+05  7.494319E+01 -8.520534E+02  1.297582E+04 -6.104668E+02  4.652774E+01
       200  24 -5.836807E+05  9.472455E+01 -1.376812E+03  2.246638E+04 -1.026976E+03 -2.031989E+03
       200  25 -6.244919E+05 -9.879271E+03 -9.723384E+03  2.240429E+04 -1.839176E+03  2.122026E+03
       200  26 -5.846307E+05 -1.765699E+02 -1.083874E+03  1.299653E+04 -2.255046E+03  4.264560E+01
       200  27 -5.449197E+05  9.582187E+03  7.273155E+03  2.256987E+04 -2.670934E+03 -2.035874E+03
       201   1 -6.580226E+05 -1.811768E+04 -1.869190E+04  2.222242E+04 -3.414492E+02  3.240603E+03
       201   2 -6.975485E+05 -2.786528E+04 -2.882125E+04  1.273148E+04  1.181334E+03  5.316524E+03
       201   3 -7.374588E+05 -3.795159E+04 -4.005121E+04  2.218867E+04  2.704436E+03  7.368937E+03
       201   4 -5.837329E+05  1.344083E+02 -1.777671E+03  2.245871E+04  1.307922E+03  3.244462E+03
       201   5 -5.835435E+05  1.094196E+02 -3.039147E+03  1.298520E+04  2.812323E+03  5.320213E+03
       201   6 -5.837361E+05 -2.507472E+02 -5.388038E+03  2.245961E+04  4.317138E+03  7.372465E+03
       201   7 -5.094382E+05  1.838612E+04  1.513621E+04  2.269503E+04  2.957489E+03  3.248321E+03
       201   8 -4.695265E+05  2.808323E+04  2.274213E+04  1.323896E+04  4.443608E+03  5.323903E+03
       201   9 -4.299914E+05  3.744847E+04  2.927363E+04  2.273060E+04  5.930236E+03  7.375994E+03
       201  10 -6.580226E+05 -1.811769E+04 -1.869192E+04  2.222242E+04 -7.995784E-09 -2.436548E-09
       201  11 -6.975485E+05 -2.786531E+04 -2.882131E+04  1.273148E+04  6.572802E-10 -4.258648E-09
       201  12 -7.374588E+05 -3.795165E+04 -4.005132E+04  2.218865E+04  9.200415E-09 -5.128972E-10
       201  13 -5.837330E+05  1.343965E+02 -1.777694E+03  2.245871E+04 -2.337841E-09 -1.353622E-09
       201  14 -5.835435E+05  1.093871E+02 -3.039215E+03  1.298519E+04  1.071784E-09  2.173744E-09
       201  15 -5.837361E+05 -2.508106E+02 -5.388175E+03  2.245958E+04 -3.394365E-10  2.710735E-10
       201  16 -5.094382E+05  1.838610E+04  1.513617E+04  2.269502E+04  1.060449E-08  3.572942E-09
       201  17 -4.695265E+05  2.808319E+04  2.274204E+04  1.323895E+04 -2.524572E-09 -2.453062E-09
       201  18 -4.299914E+05  3.744840E+04  2.927346E+04  2.273056E+04 -1.139788E-08  5.576733E-09
       201  19 -6.580226E+05 -1.811768E+04 -1.869190E+04  2.222242E+04  3.414492E+02 -3.240603E+03
       201  20 -6.975485E+05 -2.786528E+04 -2.882125E+04  1.273148E+04 -1.181334E+03 -5.316524E+03
       201  21 -7.374588E+05 -3.795159E+04 -4.005121E+04  2.218867E+04 -2.704436E+03 -7.368937E+03
       201  22 -5.837329E+05  1.344083E+02 -1.777671E+03  2.245871E+04 -1.307922E+03 -3.244462E+03
       201  23 -5.835435E+05  1.094196E+02 -3.039147E+03  1.298520E+04 -2.812323E+03 -5.320213E+03
       201  24 -5.837361E+05 -2.507472E+02 -5.388038E+03  2.245961E+04 -4.317138E+03 -7.372465E+03
       201  25 -5.094382E+05  1.838612E+04  1.513621E+04  2.269503E+04 -2.957489E+03 -3.248321E+03
       201  26 -4.695265E+05  2.808323E+04  2.274213E+04  1.323896E+04 -4.443608E+03 -5.323903E+03
       201  27 -4.299914E+05  3.744847E+04  2.927363E+04  2.273060E+04 -5.930236E+03 -7.375994E+03
       202   1 -7.733138E+05 -4.600901E+04 -4.987338E+04  2.109975E+04  3.653793E+03  8.625362E+03
       202   2 -8.116226E+05 -5.570170E+04 -6.379217E+04  1.313494E+04  1.009133E+04  1.061760E+04
       202   3 -8.523667E+05 -7.147959E+04 -8.344498E+04  2.401338E+04  1.653002E+04  1.214717E+04
       202   4 -5.841811E+05  4.283269E+02 -6.995678E+03  2.243213E+04  5.403106E+03  8.629083E+03
       202   5 -5.829990E+05  4.050064E+02 -1.205465E+04  1.301707E+04  1.147656E+04  1.062027E+04
       202   6 -5.841894E+05 -5.638733E+03 -2.259289E+04  2.244492E+04  1.755156E+04  1.214884E+04
       202   7 -3.950150E+05  4.686320E+04  3.587973E+04  2.376489E+04  7.152947E+03  8.632811E+03
       202   8 -3.543269E+05  5.650811E+04  3.967952E+04  1.289912E+04  1.286229E+04  1.062294E+04
       202   9 -3.159452E+05  6.019717E+04  3.825456E+04  2.087575E+04  1.857354E+04  1.215051E+04
       202  10 -7.733138E+05 -4.600909E+04 -4.987355E+04  2.109973E+04  2.301423E-09 -6.689541E-10
       202  11 -8.116227E+05 -5.570185E+04 -6.379257E+04  1.313485E+04  3.033291E-11  1.499987E-09
       202  12 -8.523670E+05 -7.147982E+04 -8.344577E+04  2.401322E+04  6.487073E-10 -3.326283E-09
       202  13 -5.841811E+05  4.282391E+02 -6.995873E+03  2.243209E+04 -1.801769E-09 -4.114320E-09
       202  14 -5.829992E+05  4.048499E+02 -1.205511E+04  1.301697E+04 -8.895592E-11  6.143178E-09
       202  15 -5.841897E+05 -5.638975E+03 -2.259375E+04  2.244475E+04 -1.745020E-09  3.580175E-09
       202  16 -3.950151E+05  4.686311E+04  3.587949E+04  2.376484E+04 -1.419866E-09 -2.563714E-10
       202  17 -3.543271E+05  5.650795E+04  3.967900E+04  1.289901E+04 -2.866124E-09 -6.948308E-09
       202  18 -3.159456E+05  6.019692E+04  3.825363E+04  2.087557E+04 -3.044222E-09  1.732599E-09
       202  19 -7.733138E+05 -4.600901E+04 -4.987338E+04  2.109975E+04 -3.653793E+03 -8.625362E+03
       202  20 -8.116226E+05 -5.570170E+04 -6.379217E+04  1.313494E+04 -1.009133E+04 -1.061760E+04
       202  21 -8.523667E+05 -7.147959E+04 -8.344498E+04  2.401338E+04 -1.653002E+04 -1.214717E+04
       202  22 -5.841811E+05  4.283269E+02 -6.995678E+03  2.243213E+04 -5.403106E+03 -8.629083E+03
       202  23 -5.829990E+05  4.050064E+02 -1.205465E+04  1.301707E+04 -1.147656E+04 -1.062027E+04
       202  24 -5.841894E+05 -5.638733E+03 -2.259289E+04  2.244492E+04 -1.755156E+04 -1.214884E+04
       202  25 -3.950150E+05  4.686320E+04  3.587973E+04  2.376489E+04 -7.152947E+03 -8.632811E+03
       202  26 -3.543269E+05  5.650811E+04  3.967952E+04  1.289912E+04 -1.286229E+04 -1.062294E+04
       202  27 -3.159452E+05  6.019717E+04  3.825456E+04  2.087575E+04 -1.857354E+04 -1.215051E+04
       203   1 -8.928099E+05 -6.981705E+04 -9.673018E+04  9.145491E+03  1.760960E+04  1.440445E+04
       203   2 -9.187344E+05 -8.025315E+04 -1.253597E+05  2.512087E+04  5.061017E+04  1.459575E+04
       203   3 -9.715796E+05 -1.810062E+05 -1.980809E+05  5.949690E+04  8.362488E+04  4.861056E+03
       203   4 -5.893388E+05  4.696414E+03 -2.819393E+04  2.229361E+04  2.164365E+04  1.441233E+04
       203   5 -5.765823E+05  3.805600E+03 -4.723578E+04  1.317410E+04  4.680228E+04  1.458712E+04
       203   6 -5.893714E+05 -8.601477E+04 -1.049041E+05  2.245724E+04  7.197772E+04  4.835688E+03
       203   7 -2.857816E+05  7.920419E+04  4.033657E+04  3.544819E+04  2.567965E+04  1.442039E+04
       203   8 -2.343211E+05  8.785679E+04  3.088064E+04  1.220621E+03  4.299231E+04  1.457865E+04
       203   9 -2.070265E+05  8.971198E+03 -1.173659E+04 -1.460537E+04  6.032339E+04  4.811721E+03
       203  10 -8.928103E+05 -6.981736E+04 -9.673116E+04  9.145286E+03 -5.253856E-10 -3.239968E-09
       203  11 -9.187372E+05 -8.025407E+04 -1.253649E+05  2.512027E+04 -4.200087E-10 -3.157602E-09
       203  12 -9.715871E+05 -1.810081E+05 -1.980941E+05  5.949658E+04 -5.771081E-10  2.133850E-09
       203  13 -5.893393E+05  4.696065E+03 -2.819520E+04  2.229336E+04  2.540125E-11  6.994326E-09
       203  14 -5.765847E+05  3.804783E+03 -4.724030E+04  1.317355E+04 -7.622808E-14  4.375868E-09
       203  15 -5.893770E+05 -8.601618E+04 -1.049139E+05  2.245696E+04 -1.650531E-09  2.186271E-09
       203  16 -2.857823E+05  7.920379E+04  4.033494E+04  3.544789E+04  2.185635E-09  2.821111E-09
       203  17 -2.343232E+05  8.785606E+04  3.087677E+04  1.220116E+03 -6.051724E-10  6.973799E-09
       203  18 -2.070304E+05  8.970196E+03 -1.174348E+04 -1.460560E+04 -6.908411E-10  1.566599E-09
       203  19 -8.928099E+05 -6.981705E+04 -9.673018E+04  9.145491E+03 -1.760960E+04 -1.440445E+04
       203  20 -9.187344E+05 -8.025315E+04 -1.253597E+05  2.512087E+04 -5.061017E+04 -1.459575E+04
       203  21 -9.715796E+05 -1.810062E+05 -1.980809E+05  5.949690E+04 -8.362488E+04 -4.861056E+03
       203  22 -5.893388E+05  4.696414E+03 -2.819393E+04  2.229361E+04 -2.164365E+04 -1.441233E+04
       203  23 -5.765823E+05  3.805600E+03 -4.723578E+04  1.317410E+04 -4.680228E+04 -1.458712E+04
       203  24 -5.893714E+05 -8.601477E+04 -1.049041E+05  2.245724E+04 -7.197772E+04 -4.835688E+03
       203  25 -2.857816E+05  7.920419E+04  4.033657E+04  3.544819E+04 -2.567965E+04 -1.442039E+04
       203  26 -2.343211E+05  8.785679E+04  3.088064E+04  1.220621E+03 -4.299231E+04 -1.457865E+04
       203  27 -2.070265E+05  8.971198E+03 -1.173659E+04 -1.460537E+04 -6.032339E+04 -4.811721E+03
