    1C
    1UUSER                                                              
    1UDATE              11.october.2022                                 
    1UTIME              18:05:37                                        
    1UHOST                                                              
    1UPGM               CalculiX                                        
    1UVERSION           Version 2.20                             
    1UCOMPILETIME       Sun Jul 31 18:08:37 CEST 2022                    
    1UDIR                                                               
    1UDBN                                                               
    1UMAT    1MESH_MATERIAL                                             
    2C                           394                                     1
 -1         1 0.00000E+00 0.00000E+00 0.00000E+00
 -1         2 1.66667E-02 0.00000E+00 0.00000E+00
 -1         3 3.33333E-02 0.00000E+00 0.00000E+00
 -1         5 6.66667E-02 0.00000E+00 0.00000E+00
 -1         8 0.00000E+00 6.25000E-03 0.00000E+00
 -1         9 1.66667E-02 6.25000E-03 0.00000E+00
 -1        10 3.33333E-02 6.25000E-03 0.00000E+00
 -1        12 6.66667E-02 6.25000E-03 0.00000E+00
 -1        15 0.00000E+00 1.25000E-02 0.00000E+00
 -1        16 1.66667E-02 1.25000E-02 0.00000E+00
 -1        17 3.33333E-02 1.25000E-02 0.00000E+00
 -1        18 5.00000E-02 1.25000E-02 0.00000E+00
 -1        19 6.66667E-02 1.25000E-02 0.00000E+00
 -1        20 8.33333E-02 1.25000E-02 0.00000E+00
 -1        21 1.00000E-01 1.25000E-02 0.00000E+00
 -1        24 3.33333E-02 1.87500E-02 0.00000E+00
 -1        25 5.00000E-02 1.87500E-02 0.00000E+00
 -1        26 6.66667E-02 1.87500E-02 0.00000E+00
 -1        27 8.33333E-02 1.87500E-02 0.00000E+00
 -1        28 1.00000E-01 1.87500E-02 0.00000E+00
 -1        32 5.00000E-02 2.50000E-02 0.00000E+00
 -1        33 6.66667E-02 2.50000E-02 0.00000E+00
 -1        34 8.33333E-02 2.50000E-02 0.00000E+00
 -1        35 1.00000E-01 2.50000E-02 0.00000E+00
 -1        51 0.00000E+00 1.04167E-03 0.00000E+00
 -1        52 0.00000E+00 2.08333E-03 0.00000E+00
 -1        53 0.00000E+00 3.12500E-03 0.00000E+00
 -1        54 0.00000E+00 4.16667E-03 0.00000E+00
 -1        55 0.00000E+00 5.20833E-03 0.00000E+00
 -1        56 1.04167E-03 3.90630E-04 0.00000E+00
 -1        57 2.08333E-03 7.81250E-04 0.00000E+00
 -1        58 3.12500E-03 1.17188E-03 0.00000E+00
 -1        59 4.16667E-03 1.56250E-03 0.00000E+00
 -1        60 5.20833E-03 1.95312E-03 0.00000E+00
 -1        61 6.25000E-03 2.34375E-03 0.00000E+00
 -1        62 7.29167E-03 2.73438E-03 0.00000E+00
 -1        63 8.33333E-03 3.12500E-03 0.00000E+00
 -1        64 9.37500E-03 3.51563E-03 0.00000E+00
 -1        65 1.04167E-02 3.90625E-03 0.00000E+00
 -1        66 1.14583E-02 4.29688E-03 0.00000E+00
 -1        67 1.25000E-02 4.68750E-03 0.00000E+00
 -1        68 1.35417E-02 5.07813E-03 0.00000E+00
 -1        69 1.45833E-02 5.46875E-03 0.00000E+00
 -1        70 1.56250E-02 5.85938E-03 0.00000E+00
 -1        86 1.66667E-02 1.04167E-03 0.00000E+00
 -1        87 1.66667E-02 2.08333E-03 0.00000E+00
 -1        88 1.66667E-02 3.12500E-03 0.00000E+00
 -1        89 1.66667E-02 4.16667E-03 0.00000E+00
 -1        90 1.66667E-02 5.20833E-03 0.00000E+00
 -1       121 3.33333E-02 1.04167E-03 0.00000E+00
 -1       122 3.33333E-02 2.08333E-03 0.00000E+00
 -1       123 3.33333E-02 3.12500E-03 0.00000E+00
 -1       124 3.33333E-02 4.16667E-03 0.00000E+00
 -1       125 3.33333E-02 5.20833E-03 0.00000E+00
 -1       191 6.66667E-02 1.04167E-03 0.00000E+00
 -1       192 6.66667E-02 2.08333E-03 0.00000E+00
 -1       193 6.66667E-02 3.12500E-03 0.00000E+00
 -1       194 6.66667E-02 4.16667E-03 0.00000E+00
 -1       195 6.66667E-02 5.20833E-03 0.00000E+00
 -1       266 0.00000E+00 7.29167E-03 0.00000E+00
 -1       267 0.00000E+00 8.33333E-03 0.00000E+00
 -1       268 0.00000E+00 9.37500E-03 0.00000E+00
 -1       269 0.00000E+00 1.04167E-02 0.00000E+00
 -1       270 0.00000E+00 1.14583E-02 0.00000E+00
 -1       271 1.04167E-03 6.64063E-03 0.00000E+00
 -1       272 2.08333E-03 7.03125E-03 0.00000E+00
 -1       273 3.12500E-03 7.42188E-03 0.00000E+00
 -1       274 4.16667E-03 7.81250E-03 0.00000E+00
 -1       275 5.20833E-03 8.20313E-03 0.00000E+00
 -1       276 6.25000E-03 8.59375E-03 0.00000E+00
 -1       277 7.29167E-03 8.98438E-03 0.00000E+00
 -1       278 8.33333E-03 9.37500E-03 0.00000E+00
 -1       279 9.37500E-03 9.76562E-03 0.00000E+00
 -1       280 1.04167E-02 1.01562E-02 0.00000E+00
 -1       281 1.14583E-02 1.05469E-02 0.00000E+00
 -1       282 1.25000E-02 1.09375E-02 0.00000E+00
 -1       283 1.35417E-02 1.13281E-02 0.00000E+00
 -1       284 1.45833E-02 1.17188E-02 0.00000E+00
 -1       285 1.56250E-02 1.21094E-02 0.00000E+00
 -1       301 1.66667E-02 7.29167E-03 0.00000E+00
 -1       302 1.66667E-02 8.33333E-03 0.00000E+00
 -1       303 1.66667E-02 9.37500E-03 0.00000E+00
 -1       304 1.66667E-02 1.04167E-02 0.00000E+00
 -1       305 1.66667E-02 1.14583E-02 0.00000E+00
 -1       306 1.77083E-02 6.64063E-03 0.00000E+00
 -1       307 1.87500E-02 7.03125E-03 0.00000E+00
 -1       308 1.97917E-02 7.42188E-03 0.00000E+00
 -1       309 2.08333E-02 7.81250E-03 0.00000E+00
 -1       310 2.18750E-02 8.20313E-03 0.00000E+00
 -1       311 2.29167E-02 8.59375E-03 0.00000E+00
 -1       312 2.39583E-02 8.98438E-03 0.00000E+00
 -1       313 2.50000E-02 9.37500E-03 0.00000E+00
 -1       314 2.60417E-02 9.76562E-03 0.00000E+00
 -1       315 2.70833E-02 1.01562E-02 0.00000E+00
 -1       316 2.81250E-02 1.05469E-02 0.00000E+00
 -1       317 2.91667E-02 1.09375E-02 0.00000E+00
 -1       318 3.02083E-02 1.13281E-02 0.00000E+00
 -1       319 3.12500E-02 1.17188E-02 0.00000E+00
 -1       320 3.22917E-02 1.21094E-02 0.00000E+00
 -1       336 3.33333E-02 7.29167E-03 0.00000E+00
 -1       337 3.33333E-02 8.33333E-03 0.00000E+00
 -1       338 3.33333E-02 9.37500E-03 0.00000E+00
 -1       339 3.33333E-02 1.04167E-02 0.00000E+00
 -1       340 3.33333E-02 1.14583E-02 0.00000E+00
 -1       406 6.66667E-02 7.29167E-03 0.00000E+00
 -1       407 6.66667E-02 8.33333E-03 0.00000E+00
 -1       408 6.66667E-02 9.37500E-03 0.00000E+00
 -1       409 6.66667E-02 1.04167E-02 0.00000E+00
 -1       410 6.66667E-02 1.14583E-02 0.00000E+00
 -1       521 1.77083E-02 1.28906E-02 0.00000E+00
 -1       522 1.87500E-02 1.32813E-02 0.00000E+00
 -1       523 1.97917E-02 1.36719E-02 0.00000E+00
 -1       524 2.08333E-02 1.40625E-02 0.00000E+00
 -1       525 2.18750E-02 1.44531E-02 0.00000E+00
 -1       526 2.29167E-02 1.48437E-02 0.00000E+00
 -1       527 2.39583E-02 1.52344E-02 0.00000E+00
 -1       528 2.50000E-02 1.56250E-02 0.00000E+00
 -1       529 2.60417E-02 1.60156E-02 0.00000E+00
 -1       530 2.70833E-02 1.64062E-02 0.00000E+00
 -1       531 2.81250E-02 1.67969E-02 0.00000E+00
 -1       532 2.91667E-02 1.71875E-02 0.00000E+00
 -1       533 3.02083E-02 1.75781E-02 0.00000E+00
 -1       534 3.12500E-02 1.79687E-02 0.00000E+00
 -1       535 3.22917E-02 1.83594E-02 0.00000E+00
 -1       536 3.43750E-02 1.25000E-02 0.00000E+00
 -1       537 3.54167E-02 1.25000E-02 0.00000E+00
 -1       538 3.64583E-02 1.25000E-02 0.00000E+00
 -1       539 3.75000E-02 1.25000E-02 0.00000E+00
 -1       540 3.85417E-02 1.25000E-02 0.00000E+00
 -1       541 3.95833E-02 1.25000E-02 0.00000E+00
 -1       542 4.06250E-02 1.25000E-02 0.00000E+00
 -1       543 4.16667E-02 1.25000E-02 0.00000E+00
 -1       544 4.27083E-02 1.25000E-02 0.00000E+00
 -1       545 4.37500E-02 1.25000E-02 0.00000E+00
 -1       546 4.47917E-02 1.25000E-02 0.00000E+00
 -1       547 4.58333E-02 1.25000E-02 0.00000E+00
 -1       548 4.68750E-02 1.25000E-02 0.00000E+00
 -1       549 4.79167E-02 1.25000E-02 0.00000E+00
 -1       550 4.89583E-02 1.25000E-02 0.00000E+00
 -1       551 3.33333E-02 1.35417E-02 0.00000E+00
 -1       552 3.33333E-02 1.45833E-02 0.00000E+00
 -1       553 3.33333E-02 1.56250E-02 0.00000E+00
 -1       554 3.33333E-02 1.66667E-02 0.00000E+00
 -1       555 3.33333E-02 1.77083E-02 0.00000E+00
 -1       556 3.43750E-02 1.28906E-02 0.00000E+00
 -1       557 3.54167E-02 1.32813E-02 0.00000E+00
 -1       558 3.64583E-02 1.36719E-02 0.00000E+00
 -1       559 3.75000E-02 1.40625E-02 0.00000E+00
 -1       560 3.85417E-02 1.44531E-02 0.00000E+00
 -1       561 3.95833E-02 1.48437E-02 0.00000E+00
 -1       562 4.06250E-02 1.52344E-02 0.00000E+00
 -1       563 4.16667E-02 1.56250E-02 0.00000E+00
 -1       564 4.27083E-02 1.60156E-02 0.00000E+00
 -1       565 4.37500E-02 1.64062E-02 0.00000E+00
 -1       566 4.47917E-02 1.67969E-02 0.00000E+00
 -1       567 4.58333E-02 1.71875E-02 0.00000E+00
 -1       568 4.68750E-02 1.75781E-02 0.00000E+00
 -1       569 4.79167E-02 1.79687E-02 0.00000E+00
 -1       570 4.89583E-02 1.83594E-02 0.00000E+00
 -1       571 5.10417E-02 1.25000E-02 0.00000E+00
 -1       572 5.20833E-02 1.25000E-02 0.00000E+00
 -1       573 5.31250E-02 1.25000E-02 0.00000E+00
 -1       574 5.41667E-02 1.25000E-02 0.00000E+00
 -1       575 5.52083E-02 1.25000E-02 0.00000E+00
 -1       576 5.62500E-02 1.25000E-02 0.00000E+00
 -1       577 5.72917E-02 1.25000E-02 0.00000E+00
 -1       578 5.83333E-02 1.25000E-02 0.00000E+00
 -1       579 5.93750E-02 1.25000E-02 0.00000E+00
 -1       580 6.04167E-02 1.25000E-02 0.00000E+00
 -1       581 6.14583E-02 1.25000E-02 0.00000E+00
 -1       582 6.25000E-02 1.25000E-02 0.00000E+00
 -1       583 6.35417E-02 1.25000E-02 0.00000E+00
 -1       584 6.45833E-02 1.25000E-02 0.00000E+00
 -1       585 6.56250E-02 1.25000E-02 0.00000E+00
 -1       586 5.00000E-02 1.35417E-02 0.00000E+00
 -1       587 5.00000E-02 1.45833E-02 0.00000E+00
 -1       588 5.00000E-02 1.56250E-02 0.00000E+00
 -1       589 5.00000E-02 1.66667E-02 0.00000E+00
 -1       590 5.00000E-02 1.77083E-02 0.00000E+00
 -1       591 5.10417E-02 1.28906E-02 0.00000E+00
 -1       592 5.20833E-02 1.32813E-02 0.00000E+00
 -1       593 5.31250E-02 1.36719E-02 0.00000E+00
 -1       594 5.41667E-02 1.40625E-02 0.00000E+00
 -1       595 5.52083E-02 1.44531E-02 0.00000E+00
 -1       596 5.62500E-02 1.48437E-02 0.00000E+00
 -1       597 5.72917E-02 1.52344E-02 0.00000E+00
 -1       598 5.83333E-02 1.56250E-02 0.00000E+00
 -1       599 5.93750E-02 1.60156E-02 0.00000E+00
 -1       600 6.04167E-02 1.64062E-02 0.00000E+00
 -1       601 6.14583E-02 1.67969E-02 0.00000E+00
 -1       602 6.25000E-02 1.71875E-02 0.00000E+00
 -1       603 6.35417E-02 1.75781E-02 0.00000E+00
 -1       604 6.45833E-02 1.79687E-02 0.00000E+00
 -1       605 6.56250E-02 1.83594E-02 0.00000E+00
 -1       606 6.77083E-02 1.25000E-02 0.00000E+00
 -1       607 6.87500E-02 1.25000E-02 0.00000E+00
 -1       608 6.97917E-02 1.25000E-02 0.00000E+00
 -1       609 7.08333E-02 1.25000E-02 0.00000E+00
 -1       610 7.18750E-02 1.25000E-02 0.00000E+00
 -1       611 7.29167E-02 1.25000E-02 0.00000E+00
 -1       612 7.39583E-02 1.25000E-02 0.00000E+00
 -1       613 7.50000E-02 1.25000E-02 0.00000E+00
 -1       614 7.60417E-02 1.25000E-02 0.00000E+00
 -1       615 7.70833E-02 1.25000E-02 0.00000E+00
 -1       616 7.81250E-02 1.25000E-02 0.00000E+00
 -1       617 7.91667E-02 1.25000E-02 0.00000E+00
 -1       618 8.02083E-02 1.25000E-02 0.00000E+00
 -1       619 8.12500E-02 1.25000E-02 0.00000E+00
 -1       620 8.22917E-02 1.25000E-02 0.00000E+00
 -1       621 6.66667E-02 1.35417E-02 0.00000E+00
 -1       622 6.66667E-02 1.45833E-02 0.00000E+00
 -1       623 6.66667E-02 1.56250E-02 0.00000E+00
 -1       624 6.66667E-02 1.66667E-02 0.00000E+00
 -1       625 6.66667E-02 1.77083E-02 0.00000E+00
 -1       626 6.77083E-02 1.28906E-02 0.00000E+00
 -1       627 6.87500E-02 1.32813E-02 0.00000E+00
 -1       628 6.97917E-02 1.36719E-02 0.00000E+00
 -1       629 7.08333E-02 1.40625E-02 0.00000E+00
 -1       630 7.18750E-02 1.44531E-02 0.00000E+00
 -1       631 7.29167E-02 1.48437E-02 0.00000E+00
 -1       632 7.39583E-02 1.52344E-02 0.00000E+00
 -1       633 7.50000E-02 1.56250E-02 0.00000E+00
 -1       634 7.60417E-02 1.60156E-02 0.00000E+00
 -1       635 7.70833E-02 1.64062E-02 0.00000E+00
 -1       636 7.81250E-02 1.67969E-02 0.00000E+00
 -1       637 7.91667E-02 1.71875E-02 0.00000E+00
 -1       638 8.02083E-02 1.75781E-02 0.00000E+00
 -1       639 8.12500E-02 1.79687E-02 0.00000E+00
 -1       640 8.22917E-02 1.83594E-02 0.00000E+00
 -1       656 8.33333E-02 1.35417E-02 0.00000E+00
 -1       657 8.33333E-02 1.45833E-02 0.00000E+00
 -1       658 8.33333E-02 1.56250E-02 0.00000E+00
 -1       659 8.33333E-02 1.66667E-02 0.00000E+00
 -1       660 8.33333E-02 1.77083E-02 0.00000E+00
 -1       661 8.43750E-02 1.28906E-02 0.00000E+00
 -1       662 8.54167E-02 1.32813E-02 0.00000E+00
 -1       663 8.64583E-02 1.36719E-02 0.00000E+00
 -1       664 8.75000E-02 1.40625E-02 0.00000E+00
 -1       665 8.85417E-02 1.44531E-02 0.00000E+00
 -1       666 8.95833E-02 1.48437E-02 0.00000E+00
 -1       667 9.06250E-02 1.52344E-02 0.00000E+00
 -1       668 9.16667E-02 1.56250E-02 0.00000E+00
 -1       669 9.27083E-02 1.60156E-02 0.00000E+00
 -1       670 9.37500E-02 1.64062E-02 0.00000E+00
 -1       671 9.47917E-02 1.67969E-02 0.00000E+00
 -1       672 9.58333E-02 1.71875E-02 0.00000E+00
 -1       673 9.68750E-02 1.75781E-02 0.00000E+00
 -1       674 9.79167E-02 1.79687E-02 0.00000E+00
 -1       675 9.89583E-02 1.83594E-02 0.00000E+00
 -1       676 1.00000E-01 1.35417E-02 0.00000E+00
 -1       677 1.00000E-01 1.45833E-02 0.00000E+00
 -1       678 1.00000E-01 1.56250E-02 0.00000E+00
 -1       679 1.00000E-01 1.66667E-02 0.00000E+00
 -1       680 1.00000E-01 1.77083E-02 0.00000E+00
 -1       771 3.43750E-02 1.91406E-02 0.00000E+00
 -1       772 3.54167E-02 1.95312E-02 0.00000E+00
 -1       773 3.64583E-02 1.99219E-02 0.00000E+00
 -1       774 3.75000E-02 2.03125E-02 0.00000E+00
 -1       775 3.85417E-02 2.07031E-02 0.00000E+00
 -1       776 3.95833E-02 2.10938E-02 0.00000E+00
 -1       777 4.06250E-02 2.14844E-02 0.00000E+00
 -1       778 4.16667E-02 2.18750E-02 0.00000E+00
 -1       779 4.27083E-02 2.22656E-02 0.00000E+00
 -1       780 4.37500E-02 2.26563E-02 0.00000E+00
 -1       781 4.47917E-02 2.30469E-02 0.00000E+00
 -1       782 4.58333E-02 2.34375E-02 0.00000E+00
 -1       783 4.68750E-02 2.38281E-02 0.00000E+00
 -1       784 4.79167E-02 2.42187E-02 0.00000E+00
 -1       785 4.89583E-02 2.46094E-02 0.00000E+00
 -1       786 5.10417E-02 1.87500E-02 0.00000E+00
 -1       787 5.20833E-02 1.87500E-02 0.00000E+00
 -1       788 5.31250E-02 1.87500E-02 0.00000E+00
 -1       789 5.41667E-02 1.87500E-02 0.00000E+00
 -1       790 5.52083E-02 1.87500E-02 0.00000E+00
 -1       791 5.62500E-02 1.87500E-02 0.00000E+00
 -1       792 5.72917E-02 1.87500E-02 0.00000E+00
 -1       793 5.83333E-02 1.87500E-02 0.00000E+00
 -1       794 5.93750E-02 1.87500E-02 0.00000E+00
 -1       795 6.04167E-02 1.87500E-02 0.00000E+00
 -1       796 6.14583E-02 1.87500E-02 0.00000E+00
 -1       797 6.25000E-02 1.87500E-02 0.00000E+00
 -1       798 6.35417E-02 1.87500E-02 0.00000E+00
 -1       799 6.45833E-02 1.87500E-02 0.00000E+00
 -1       800 6.56250E-02 1.87500E-02 0.00000E+00
 -1       801 5.00000E-02 1.97917E-02 0.00000E+00
 -1       802 5.00000E-02 2.08333E-02 0.00000E+00
 -1       803 5.00000E-02 2.18750E-02 0.00000E+00
 -1       804 5.00000E-02 2.29167E-02 0.00000E+00
 -1       805 5.00000E-02 2.39583E-02 0.00000E+00
 -1       806 5.10417E-02 1.91406E-02 0.00000E+00
 -1       807 5.20833E-02 1.95312E-02 0.00000E+00
 -1       808 5.31250E-02 1.99219E-02 0.00000E+00
 -1       809 5.41667E-02 2.03125E-02 0.00000E+00
 -1       810 5.52083E-02 2.07031E-02 0.00000E+00
 -1       811 5.62500E-02 2.10938E-02 0.00000E+00
 -1       812 5.72917E-02 2.14844E-02 0.00000E+00
 -1       813 5.83333E-02 2.18750E-02 0.00000E+00
 -1       814 5.93750E-02 2.22656E-02 0.00000E+00
 -1       815 6.04167E-02 2.26563E-02 0.00000E+00
 -1       816 6.14583E-02 2.30469E-02 0.00000E+00
 -1       817 6.25000E-02 2.34375E-02 0.00000E+00
 -1       818 6.35417E-02 2.38281E-02 0.00000E+00
 -1       819 6.45833E-02 2.42187E-02 0.00000E+00
 -1       820 6.56250E-02 2.46094E-02 0.00000E+00
 -1       821 6.77083E-02 1.87500E-02 0.00000E+00
 -1       822 6.87500E-02 1.87500E-02 0.00000E+00
 -1       823 6.97917E-02 1.87500E-02 0.00000E+00
 -1       824 7.08333E-02 1.87500E-02 0.00000E+00
 -1       825 7.18750E-02 1.87500E-02 0.00000E+00
 -1       826 7.29167E-02 1.87500E-02 0.00000E+00
 -1       827 7.39583E-02 1.87500E-02 0.00000E+00
 -1       828 7.50000E-02 1.87500E-02 0.00000E+00
 -1       829 7.60417E-02 1.87500E-02 0.00000E+00
 -1       830 7.70833E-02 1.87500E-02 0.00000E+00
 -1       831 7.81250E-02 1.87500E-02 0.00000E+00
 -1       832 7.91667E-02 1.87500E-02 0.00000E+00
 -1       833 8.02083E-02 1.87500E-02 0.00000E+00
 -1       834 8.12500E-02 1.87500E-02 0.00000E+00
 -1       835 8.22917E-02 1.87500E-02 0.00000E+00
 -1       836 6.66667E-02 1.97917E-02 0.00000E+00
 -1       837 6.66667E-02 2.08333E-02 0.00000E+00
 -1       838 6.66667E-02 2.18750E-02 0.00000E+00
 -1       839 6.66667E-02 2.29167E-02 0.00000E+00
 -1       840 6.66667E-02 2.39583E-02 0.00000E+00
 -1       856 8.43750E-02 1.87500E-02 0.00000E+00
 -1       857 8.54167E-02 1.87500E-02 0.00000E+00
 -1       858 8.64583E-02 1.87500E-02 0.00000E+00
 -1       859 8.75000E-02 1.87500E-02 0.00000E+00
 -1       860 8.85417E-02 1.87500E-02 0.00000E+00
 -1       861 8.95833E-02 1.87500E-02 0.00000E+00
 -1       862 9.06250E-02 1.87500E-02 0.00000E+00
 -1       863 9.16667E-02 1.87500E-02 0.00000E+00
 -1       864 9.27083E-02 1.87500E-02 0.00000E+00
 -1       865 9.37500E-02 1.87500E-02 0.00000E+00
 -1       866 9.47917E-02 1.87500E-02 0.00000E+00
 -1       867 9.58333E-02 1.87500E-02 0.00000E+00
 -1       868 9.68750E-02 1.87500E-02 0.00000E+00
 -1       869 9.79167E-02 1.87500E-02 0.00000E+00
 -1       870 9.89583E-02 1.87500E-02 0.00000E+00
 -1       871 8.33333E-02 1.97917E-02 0.00000E+00
 -1       872 8.33333E-02 2.08333E-02 0.00000E+00
 -1       873 8.33333E-02 2.18750E-02 0.00000E+00
 -1       874 8.33333E-02 2.29167E-02 0.00000E+00
 -1       875 8.33333E-02 2.39583E-02 0.00000E+00
 -1       876 8.43750E-02 1.91406E-02 0.00000E+00
 -1       877 8.54167E-02 1.95312E-02 0.00000E+00
 -1       878 8.64583E-02 1.99219E-02 0.00000E+00
 -1       879 8.75000E-02 2.03125E-02 0.00000E+00
 -1       880 8.85417E-02 2.07031E-02 0.00000E+00
 -1       881 8.95833E-02 2.10938E-02 0.00000E+00
 -1       882 9.06250E-02 2.14844E-02 0.00000E+00
 -1       883 9.16667E-02 2.18750E-02 0.00000E+00
 -1       884 9.27083E-02 2.22656E-02 0.00000E+00
 -1       885 9.37500E-02 2.26563E-02 0.00000E+00
 -1       886 9.47917E-02 2.30469E-02 0.00000E+00
 -1       887 9.58333E-02 2.34375E-02 0.00000E+00
 -1       888 9.68750E-02 2.38281E-02 0.00000E+00
 -1       889 9.79167E-02 2.42187E-02 0.00000E+00
 -1       890 9.89583E-02 2.46094E-02 0.00000E+00
 -1       891 1.00000E-01 1.97917E-02 0.00000E+00
 -1       892 1.00000E-01 2.08333E-02 0.00000E+00
 -1       893 1.00000E-01 2.18750E-02 0.00000E+00
 -1       894 1.00000E-01 2.29167E-02 0.00000E+00
 -1       895 1.00000E-01 2.39583E-02 0.00000E+00
 -1       956 6.77083E-02 2.50000E-02 0.00000E+00
 -1       957 6.87500E-02 2.50000E-02 0.00000E+00
 -1       958 6.97917E-02 2.50000E-02 0.00000E+00
 -1       959 7.08333E-02 2.50000E-02 0.00000E+00
 -1       960 7.18750E-02 2.50000E-02 0.00000E+00
 -1       961 7.29167E-02 2.50000E-02 0.00000E+00
 -1       962 7.39583E-02 2.50000E-02 0.00000E+00
 -1       963 7.50000E-02 2.50000E-02 0.00000E+00
 -1       964 7.60417E-02 2.50000E-02 0.00000E+00
 -1       965 7.70833E-02 2.50000E-02 0.00000E+00
 -1       966 7.81250E-02 2.50000E-02 0.00000E+00
 -1       967 7.91667E-02 2.50000E-02 0.00000E+00
 -1       968 8.02083E-02 2.50000E-02 0.00000E+00
 -1       969 8.12500E-02 2.50000E-02 0.00000E+00
 -1       970 8.22917E-02 2.50000E-02 0.00000E+00
 -1       971 8.43750E-02 2.50000E-02 0.00000E+00
 -1       972 8.54167E-02 2.50000E-02 0.00000E+00
 -1       973 8.64583E-02 2.50000E-02 0.00000E+00
 -1       974 8.75000E-02 2.50000E-02 0.00000E+00
 -1       975 8.85417E-02 2.50000E-02 0.00000E+00
 -1       976 8.95833E-02 2.50000E-02 0.00000E+00
 -1       977 9.06250E-02 2.50000E-02 0.00000E+00
 -1       978 9.16667E-02 2.50000E-02 0.00000E+00
 -1       979 9.27083E-02 2.50000E-02 0.00000E+00
 -1       980 9.37500E-02 2.50000E-02 0.00000E+00
 -1       981 9.47917E-02 2.50000E-02 0.00000E+00
 -1       982 9.58333E-02 2.50000E-02 0.00000E+00
 -1       983 9.68750E-02 2.50000E-02 0.00000E+00
 -1       984 9.79167E-02 2.50000E-02 0.00000E+00
 -1       985 9.89583E-02 2.50000E-02 0.00000E+00
 -3
    3C                           203                                     1
 -1         1   12    0    1
 -2         1        52        51
 -1         2   12    0    1
 -2        52        54        53
 -1         3   12    0    1
 -2        54         8        55
 -1         4   12    0    1
 -2         1        57        56
 -1         5   12    0    1
 -2        57        59        58
 -1         6   12    0    1
 -2        59        61        60
 -1         7   12    0    1
 -2        61        63        62
 -1         8   12    0    1
 -2        63        65        64
 -1         9   12    0    1
 -2        65        67        66
 -1        10   12    0    1
 -2        67        69        68
 -1        11   12    0    1
 -2        69         9        70
 -1        12   12    0    1
 -2         2        87        86
 -1        13   12    0    1
 -2        87        89        88
 -1        14   12    0    1
 -2        89         9        90
 -1        15   12    0    1
 -2         3       122       121
 -1        16   12    0    1
 -2       122       124       123
 -1        17   12    0    1
 -2       124        10       125
 -1        18   12    0    1
 -2         5       192       191
 -1        19   12    0    1
 -2       192       194       193
 -1        20   12    0    1
 -2       194        12       195
 -1        21   12    0    1
 -2         8       267       266
 -1        22   12    0    1
 -2       267       269       268
 -1        23   12    0    1
 -2       269        15       270
 -1        24   12    0    1
 -2         8       272       271
 -1        25   12    0    1
 -2       272       274       273
 -1        26   12    0    1
 -2       274       276       275
 -1        27   12    0    1
 -2       276       278       277
 -1        28   12    0    1
 -2       278       280       279
 -1        29   12    0    1
 -2       280       282       281
 -1        30   12    0    1
 -2       282       284       283
 -1        31   12    0    1
 -2       284        16       285
 -1        32   12    0    1
 -2         9       302       301
 -1        33   12    0    1
 -2       302       304       303
 -1        34   12    0    1
 -2       304        16       305
 -1        35   12    0    1
 -2         9       307       306
 -1        36   12    0    1
 -2       307       309       308
 -1        37   12    0    1
 -2       309       311       310
 -1        38   12    0    1
 -2       311       313       312
 -1        39   12    0    1
 -2       313       315       314
 -1        40   12    0    1
 -2       315       317       316
 -1        41   12    0    1
 -2       317       319       318
 -1        42   12    0    1
 -2       319        17       320
 -1        43   12    0    1
 -2        10       337       336
 -1        44   12    0    1
 -2       337       339       338
 -1        45   12    0    1
 -2       339        17       340
 -1        46   12    0    1
 -2        12       407       406
 -1        47   12    0    1
 -2       407       409       408
 -1        48   12    0    1
 -2       409        19       410
 -1        49   12    0    1
 -2        16       522       521
 -1        50   12    0    1
 -2       522       524       523
 -1        51   12    0    1
 -2       524       526       525
 -1        52   12    0    1
 -2       526       528       527
 -1        53   12    0    1
 -2       528       530       529
 -1        54   12    0    1
 -2       530       532       531
 -1        55   12    0    1
 -2       532       534       533
 -1        56   12    0    1
 -2       534        24       535
 -1        57   12    0    1
 -2        17       537       536
 -1        58   12    0    1
 -2       537       539       538
 -1        59   12    0    1
 -2       539       541       540
 -1        60   12    0    1
 -2       541       543       542
 -1        61   12    0    1
 -2       543       545       544
 -1        62   12    0    1
 -2       545       547       546
 -1        63   12    0    1
 -2       547       549       548
 -1        64   12    0    1
 -2       549        18       550
 -1        65   12    0    1
 -2        17       552       551
 -1        66   12    0    1
 -2       552       554       553
 -1        67   12    0    1
 -2       554        24       555
 -1        68   12    0    1
 -2        17       557       556
 -1        69   12    0    1
 -2       557       559       558
 -1        70   12    0    1
 -2       559       561       560
 -1        71   12    0    1
 -2       561       563       562
 -1        72   12    0    1
 -2       563       565       564
 -1        73   12    0    1
 -2       565       567       566
 -1        74   12    0    1
 -2       567       569       568
 -1        75   12    0    1
 -2       569        25       570
 -1        76   12    0    1
 -2        18       572       571
 -1        77   12    0    1
 -2       572       574       573
 -1        78   12    0    1
 -2       574       576       575
 -1        79   12    0    1
 -2       576       578       577
 -1        80   12    0    1
 -2       578       580       579
 -1        81   12    0    1
 -2       580       582       581
 -1        82   12    0    1
 -2       582       584       583
 -1        83   12    0    1
 -2       584        19       585
 -1        84   12    0    1
 -2        18       587       586
 -1        85   12    0    1
 -2       587       589       588
 -1        86   12    0    1
 -2       589        25       590
 -1        87   12    0    1
 -2        18       592       591
 -1        88   12    0    1
 -2       592       594       593
 -1        89   12    0    1
 -2       594       596       595
 -1        90   12    0    1
 -2       596       598       597
 -1        91   12    0    1
 -2       598       600       599
 -1        92   12    0    1
 -2       600       602       601
 -1        93   12    0    1
 -2       602       604       603
 -1        94   12    0    1
 -2       604        26       605
 -1        95   12    0    1
 -2        19       607       606
 -1        96   12    0    1
 -2       607       609       608
 -1        97   12    0    1
 -2       609       611       610
 -1        98   12    0    1
 -2       611       613       612
 -1        99   12    0    1
 -2       613       615       614
 -1       100   12    0    1
 -2       615       617       616
 -1       101   12    0    1
 -2       617       619       618
 -1       102   12    0    1
 -2       619        20       620
 -1       103   12    0    1
 -2        19       622       621
 -1       104   12    0    1
 -2       622       624       623
 -1       105   12    0    1
 -2       624        26       625
 -1       106   12    0    1
 -2        19       627       626
 -1       107   12    0    1
 -2       627       629       628
 -1       108   12    0    1
 -2       629       631       630
 -1       109   12    0    1
 -2       631       633       632
 -1       110   12    0    1
 -2       633       635       634
 -1       111   12    0    1
 -2       635       637       636
 -1       112   12    0    1
 -2       637       639       638
 -1       113   12    0    1
 -2       639        27       640
 -1       114   12    0    1
 -2        20       657       656
 -1       115   12    0    1
 -2       657       659       658
 -1       116   12    0    1
 -2       659        27       660
 -1       117   12    0    1
 -2        20       662       661
 -1       118   12    0    1
 -2       662       664       663
 -1       119   12    0    1
 -2       664       666       665
 -1       120   12    0    1
 -2       666       668       667
 -1       121   12    0    1
 -2       668       670       669
 -1       122   12    0    1
 -2       670       672       671
 -1       123   12    0    1
 -2       672       674       673
 -1       124   12    0    1
 -2       674        28       675
 -1       125   12    0    1
 -2        21       677       676
 -1       126   12    0    1
 -2       677       679       678
 -1       127   12    0    1
 -2       679        28       680
 -1       128   12    0    1
 -2        24       772       771
 -1       129   12    0    1
 -2       772       774       773
 -1       130   12    0    1
 -2       774       776       775
 -1       131   12    0    1
 -2       776       778       777
 -1       132   12    0    1
 -2       778       780       779
 -1       133   12    0    1
 -2       780       782       781
 -1       134   12    0    1
 -2       782       784       783
 -1       135   12    0    1
 -2       784        32       785
 -1       136   12    0    1
 -2        25       787       786
 -1       137   12    0    1
 -2       787       789       788
 -1       138   12    0    1
 -2       789       791       790
 -1       139   12    0    1
 -2       791       793       792
 -1       140   12    0    1
 -2       793       795       794
 -1       141   12    0    1
 -2       795       797       796
 -1       142   12    0    1
 -2       797       799       798
 -1       143   12    0    1
 -2       799        26       800
 -1       144   12    0    1
 -2        25       802       801
 -1       145   12    0    1
 -2       802       804       803
 -1       146   12    0    1
 -2       804        32       805
 -1       147   12    0    1
 -2        25       807       806
 -1       148   12    0    1
 -2       807       809       808
 -1       149   12    0    1
 -2       809       811       810
 -1       150   12    0    1
 -2       811       813       812
 -1       151   12    0    1
 -2       813       815       814
 -1       152   12    0    1
 -2       815       817       816
 -1       153   12    0    1
 -2       817       819       818
 -1       154   12    0    1
 -2       819        33       820
 -1       155   12    0    1
 -2        26       822       821
 -1       156   12    0    1
 -2       822       824       823
 -1       157   12    0    1
 -2       824       826       825
 -1       158   12    0    1
 -2       826       828       827
 -1       159   12    0    1
 -2       828       830       829
 -1       160   12    0    1
 -2       830       832       831
 -1       161   12    0    1
 -2       832       834       833
 -1       162   12    0    1
 -2       834        27       835
 -1       163   12    0    1
 -2        26       837       836
 -1       164   12    0    1
 -2       837       839       838
 -1       165   12    0    1
 -2       839        33       840
 -1       166   12    0    1
 -2        27       857       856
 -1       167   12    0    1
 -2       857       859       858
 -1       168   12    0    1
 -2       859       861       860
 -1       169   12    0    1
 -2       861       863       862
 -1       170   12    0    1
 -2       863       865       864
 -1       171   12    0    1
 -2       865       867       866
 -1       172   12    0    1
 -2       867       869       868
 -1       173   12    0    1
 -2       869        28       870
 -1       174   12    0    1
 -2        27       872       871
 -1       175   12    0    1
 -2       872       874       873
 -1       176   12    0    1
 -2       874        34       875
 -1       177   12    0    1
 -2        27       877       876
 -1       178   12    0    1
 -2       877       879       878
 -1       179   12    0    1
 -2       879       881       880
 -1       180   12    0    1
 -2       881       883       882
 -1       181   12    0    1
 -2       883       885       884
 -1       182   12    0    1
 -2       885       887       886
 -1       183   12    0    1
 -2       887       889       888
 -1       184   12    0    1
 -2       889        35       890
 -1       185   12    0    1
 -2        28       892       891
 -1       186   12    0    1
 -2       892       894       893
 -1       187   12    0    1
 -2       894        35       895
 -1       188   12    0    1
 -2        33       957       956
 -1       189   12    0    1
 -2       957       959       958
 -1       190   12    0    1
 -2       959       961       960
 -1       191   12    0    1
 -2       961       963       962
 -1       192   12    0    1
 -2       963       965       964
 -1       193   12    0    1
 -2       965       967       966
 -1       194   12    0    1
 -2       967       969       968
 -1       195   12    0    1
 -2       969        34       970
 -1       196   12    0    1
 -2        34       972       971
 -1       197   12    0    1
 -2       972       974       973
 -1       198   12    0    1
 -2       974       976       975
 -1       199   12    0    1
 -2       976       978       977
 -1       200   12    0    1
 -2       978       980       979
 -1       201   12    0    1
 -2       980       982       981
 -1       202   12    0    1
 -2       982       984       983
 -1       203   12    0    1
 -2       984        35       985
 -3
    1PSTEP                         1           1           1          
  100CL  101 1.000000000         394                     0    1           1
 -4  DISP        4    1
 -5  D1          1    2    1    0
 -5  D2          1    2    2    0
 -5  D3          1    2    3    0
 -5  ALL         1    2    0    0    1ALL
 -1         1 1.69754E-04 0.00000E+00 0.00000E+00
 -1         2 9.87599E-05 2.55199E-30 0.00000E+00
 -1         3 1.01472E-04-1.80476E-26 0.00000E+00
 -1         5 7.65857E-05 4.63327E-25 6.61744E-24
 -1         8 1.36118E-04-1.60668E-06 0.00000E+00
 -1         9 9.23354E-05-4.56239E-07 0.00000E+00
 -1        10 9.30519E-05-2.97732E-06 0.00000E+00
 -1        12 7.53002E-05 1.19694E-06 0.00000E+00
 -1        15 9.93272E-05-1.76055E-06 0.00000E+00
 -1        16 8.05025E-05-6.35965E-07 0.00000E+00
 -1        17 6.93039E-05-5.97850E-06 0.00000E+00
 -1        18 6.93693E-05-7.00822E-07 0.00000E+00
 -1        19 7.14418E-05 2.38529E-06 0.00000E+00
 -1        20 7.21615E-05 2.82771E-05 0.00000E+00
 -1        21 7.14076E-05 6.23592E-05 0.00000E+00
 -1        24 2.69570E-05-7.31131E-06 0.00000E+00
 -1        25 6.48602E-05-3.56935E-07 0.00000E+00
 -1        26 6.64790E-05 3.20119E-06 0.00000E+00
 -1        27 6.42949E-05 2.70327E-05 0.00000E+00
 -1        28 6.24638E-05 6.13134E-05 0.00000E+00
 -1        32 0.00000E+00 0.00000E+00 0.00000E+00
 -1        33 6.08362E-05 4.38987E-06 0.00000E+00
 -1        34 5.83684E-05 2.69239E-05 0.00000E+00
 -1        35 5.50894E-05 6.08409E-05 0.00000E+00
 -1        51 1.67279E-04-2.63843E-07 0.00000E+00
 -1        52 1.63104E-04-5.21361E-07 0.00000E+00
 -1        53 1.57556E-04-7.80692E-07 0.00000E+00
 -1        54 1.50979E-04-1.04499E-06 0.00000E+00
 -1        55 1.43717E-04-1.31658E-06-4.96308E-24
 -1        56 1.65524E-04-1.18604E-06 0.00000E+00
 -1        57 1.60842E-04-1.65269E-06 0.00000E+00
 -1        58 1.55877E-04-1.33506E-06 0.00000E+00
 -1        59 1.50632E-04-3.59673E-07-5.29396E-23
 -1        60 1.45330E-04 7.64280E-07 0.00000E+00
 -1        61 1.40171E-04 1.49363E-06 0.00000E+00
 -1        62 1.35274E-04 1.52791E-06 1.05879E-22
 -1        63 1.30713E-04 6.64739E-07-5.29396E-23
 -1        64 1.26359E-04-7.46620E-07 0.00000E+00
 -1        65 1.22050E-04-2.27756E-06 0.00000E+00
 -1        66 1.17598E-04-3.42628E-06 1.05879E-22
 -1        67 1.12840E-04-3.74451E-06 5.29396E-23
 -1        68 1.07793E-04-3.29554E-06 0.00000E+00
 -1        69 1.02549E-04-2.24122E-06 5.29396E-23
 -1        70 9.72728E-05-1.13373E-06 0.00000E+00
 -1        86 9.85639E-05-7.02978E-08 0.00000E+00
 -1        87 9.79764E-05-1.41311E-07 0.00000E+00
 -1        88 9.70236E-05-2.12670E-07 0.00000E+00
 -1        89 9.57327E-05-2.87960E-07 0.00000E+00
 -1        90 9.41533E-05-3.62432E-07 0.00000E+00
 -1       121 1.01235E-04-4.95032E-07 0.00000E+00
 -1       122 1.00524E-04-9.90272E-07 6.61744E-24
 -1       123 9.93430E-05-1.48594E-06-1.32349E-23
 -1       124 9.76981E-05-1.98222E-06 0.00000E+00
 -1       125 9.55975E-05-2.47930E-06 1.32349E-23
 -1       191 7.65500E-05 1.99527E-07 0.00000E+00
 -1       192 7.64429E-05 3.99047E-07-3.30872E-24
 -1       193 7.62644E-05 5.98558E-07 6.61744E-24
 -1       194 7.60145E-05 7.98050E-07 0.00000E+00
 -1       195 7.56931E-05 9.97514E-07 6.61744E-24
 -1       266 1.29987E-04-1.65508E-06-1.32349E-23
 -1       267 1.23855E-04-1.67794E-06-3.30872E-24
 -1       268 1.17723E-04-1.70246E-06-3.30872E-24
 -1       269 1.11591E-04-1.72214E-06-8.27181E-25
 -1       270 1.05459E-04-1.74173E-06 0.00000E+00
 -1       271 1.31055E-04 2.95342E-06 0.00000E+00
 -1       272 1.26249E-04 6.52952E-06-5.29396E-23
 -1       273 1.21812E-04 9.14485E-06 0.00000E+00
 -1       274 1.17717E-04 1.08104E-05 0.00000E+00
 -1       275 1.13957E-04 1.15830E-05 1.05879E-22
 -1       276 1.10500E-04 1.15456E-05 0.00000E+00
 -1       277 1.07303E-04 1.08113E-05 1.05879E-22
 -1       278 1.04317E-04 9.51719E-06 5.29396E-23
 -1       279 1.01481E-04 7.82060E-06-1.05879E-22
 -1       280 9.87317E-05 5.89324E-06 0.00000E+00
 -1       281 9.60022E-05 3.91483E-06 1.05879E-22
 -1       282 9.32261E-05 2.06740E-06-5.29396E-23
 -1       283 9.03362E-05 5.27541E-07 0.00000E+00
 -1       284 8.72818E-05-5.34448E-07 5.29396E-23
 -1       285 8.39909E-05-9.75278E-07-5.29396E-23
 -1       301 9.03578E-05-4.95056E-07 0.00000E+00
 -1       302 8.83646E-05-5.11588E-07 0.00000E+00
 -1       303 8.63691E-05-5.25698E-07 6.61744E-24
 -1       304 8.43847E-05-5.42337E-07 0.00000E+00
 -1       305 8.24248E-05-5.66357E-07 0.00000E+00
 -1       306 9.04586E-05 4.67560E-07-2.64698E-23
 -1       307 8.88854E-05 4.76037E-07 0.00000E+00
 -1       308 8.76005E-05-2.80107E-07 0.00000E+00
 -1       309 8.65404E-05-1.65330E-06 0.00000E+00
 -1       310 8.56499E-05-3.48184E-06 5.29396E-23
 -1       311 8.48660E-05-5.59854E-06 0.00000E+00
 -1       312 8.41252E-05-7.83104E-06 0.00000E+00
 -1       313 8.33625E-05-1.00054E-05-2.64698E-23
 -1       314 8.25135E-05-1.19486E-05 5.29396E-23
 -1       315 8.15151E-05-1.34912E-05 0.00000E+00
 -1       316 8.03061E-05-1.44707E-05 0.00000E+00
 -1       317 7.88297E-05-1.47332E-05 0.00000E+00
 -1       318 7.70313E-05-1.41370E-05 2.64698E-23
 -1       319 7.48685E-05-1.25521E-05 0.00000E+00
 -1       320 7.22890E-05-9.86970E-06 0.00000E+00
 -1       336 9.00741E-05-3.47641E-06-1.32349E-23
 -1       337 8.66794E-05-3.97653E-06 0.00000E+00
 -1       338 8.28848E-05-4.47785E-06 1.32349E-23
 -1       339 7.87096E-05-4.97929E-06 0.00000E+00
 -1       340 7.41750E-05-5.48241E-06 1.32349E-23
 -1       406 7.48359E-05 1.39631E-06 0.00000E+00
 -1       407 7.43000E-05 1.59556E-06-3.30872E-24
 -1       408 7.36925E-05 1.79463E-06 6.61744E-24
 -1       409 7.30135E-05 1.99322E-06 0.00000E+00
 -1       410 7.22631E-05 2.19084E-06-6.61744E-24
 -1       521 7.69847E-05-3.41946E-07 0.00000E+00
 -1       522 7.36881E-05-8.96728E-07 5.29396E-23
 -1       523 7.06557E-05-2.14706E-06-1.05879E-22
 -1       524 6.78167E-05-3.95308E-06 5.29396E-23
 -1       525 6.51206E-05-6.14483E-06 0.00000E+00
 -1       526 6.24991E-05-8.54311E-06 0.00000E+00
 -1       527 5.98842E-05-1.09602E-05 0.00000E+00
 -1       528 5.72058E-05-1.32085E-05 0.00000E+00
 -1       529 5.43962E-05-1.51062E-05 0.00000E+00
 -1       530 5.13925E-05-1.64843E-05 0.00000E+00
 -1       531 4.81380E-05-1.71929E-05 0.00000E+00
 -1       532 4.45868E-05-1.71053E-05-5.29396E-23
 -1       533 4.07006E-05-1.61250E-05 1.05879E-22
 -1       534 3.64660E-05-1.41828E-05-5.29396E-23
 -1       535 3.18544E-05-1.12543E-05 0.00000E+00
 -1       536 6.92860E-05-1.53427E-06 6.61744E-24
 -1       537 6.92845E-05 1.84554E-06 0.00000E+00
 -1       538 6.92855E-05 4.27109E-06 0.00000E+00
 -1       539 6.92901E-05 5.85325E-06 0.00000E+00
 -1       540 6.92959E-05 6.70262E-06 0.00000E+00
 -1       541 6.93023E-05 6.92984E-06 0.00000E+00
 -1       542 6.93089E-05 6.64548E-06 0.00000E+00
 -1       543 6.93153E-05 5.96008E-06 0.00000E+00
 -1       544 6.93216E-05 4.98417E-06-1.55096E-25
 -1       545 6.93278E-05 3.82823E-06 0.00000E+00
 -1       546 6.93338E-05 2.60276E-06 0.00000E+00
 -1       547 6.93400E-05 1.41824E-06 0.00000E+00
 -1       548 6.93464E-05 3.85141E-07 0.00000E+00
 -1       549 6.93533E-05-3.86059E-07 0.00000E+00
 -1       550 6.93604E-05-7.84787E-07 1.65436E-24
 -1       551 6.30263E-05-6.18904E-06 4.96308E-24
 -1       552 5.59898E-05-6.39983E-06 1.24077E-24
 -1       553 4.85268E-05-6.61371E-06 0.00000E+00
 -1       554 4.09756E-05-6.83175E-06-6.61744E-24
 -1       555 3.36744E-05-7.05477E-06 0.00000E+00
 -1       556 6.75414E-05-1.72240E-06 2.64698E-23
 -1       557 6.61591E-05 1.55405E-06 0.00000E+00
 -1       558 6.51144E-05 3.94171E-06 0.00000E+00
 -1       559 6.43687E-05 5.53997E-06 6.61744E-24
 -1       560 6.38832E-05 6.44822E-06 0.00000E+00
 -1       561 6.36196E-05 6.76668E-06 0.00000E+00
 -1       562 6.35399E-05 6.59573E-06 0.00000E+00
 -1       563 6.36060E-05 6.03591E-06 0.00000E+00
 -1       564 6.37801E-05 5.18788E-06 0.00000E+00
 -1       565 6.40244E-05 4.15236E-06 0.00000E+00
 -1       566 6.43011E-05 3.03014E-06 3.30872E-24
 -1       567 6.45727E-05 1.92204E-06 8.27181E-25
 -1       568 6.48014E-05 9.28828E-07-2.06795E-24
 -1       569 6.49499E-05 1.51173E-07 8.27181E-25
 -1       570 6.49806E-05-3.10344E-07 3.30872E-24
 -1       571 6.94943E-05-4.49359E-07 0.00000E+00
 -1       572 6.96227E-05-2.80547E-07 1.24077E-24
 -1       573 6.97520E-05-1.79075E-07-1.65436E-24
 -1       574 6.98818E-05-1.28858E-07 8.27181E-25
 -1       575 7.00118E-05-1.13743E-07 0.00000E+00
 -1       576 7.01419E-05-1.17473E-07 1.65436E-24
 -1       577 7.02720E-05-1.23785E-07 3.30872E-24
 -1       578 7.04021E-05-1.16401E-07-3.30872E-24
 -1       579 7.05322E-05-7.90395E-08 0.00000E+00
 -1       580 7.06623E-05 4.57905E-09 0.00000E+00
 -1       581 7.07924E-05 1.50734E-07 6.61744E-24
 -1       582 7.09224E-05 3.75692E-07 0.00000E+00
 -1       583 7.10525E-05 6.95704E-07 0.00000E+00
 -1       584 7.11824E-05 1.12685E-06 0.00000E+00
 -1       585 7.13122E-05 1.68514E-06 0.00000E+00
 -1       586 6.87186E-05-6.42243E-07-3.30872E-24
 -1       587 6.79660E-05-5.83500E-07 0.00000E+00
 -1       588 6.71574E-05-5.24888E-07-1.65436E-24
 -1       589 6.63392E-05-4.66800E-07 0.00000E+00
 -1       590 6.55582E-05-4.09818E-07 0.00000E+00
 -1       591 6.91754E-05-4.02332E-07 0.00000E+00
 -1       592 6.89971E-05-1.62936E-07 0.00000E+00
 -1       593 6.88352E-05 2.95983E-08-3.30872E-24
 -1       594 6.86862E-05 1.86141E-07 0.00000E+00
 -1       595 6.85464E-05 3.17604E-07 3.30872E-24
 -1       596 6.84119E-05 4.34813E-07-1.65436E-24
 -1       597 6.82785E-05 5.48580E-07-1.65436E-24
 -1       598 6.81424E-05 6.69706E-07 0.00000E+00
 -1       599 6.79995E-05 8.08993E-07 1.65436E-24
 -1       600 6.78458E-05 9.77235E-07 0.00000E+00
 -1       601 6.76771E-05 1.18523E-06-1.65436E-24
 -1       602 6.74896E-05 1.44378E-06 0.00000E+00
 -1       603 6.72793E-05 1.76368E-06 8.27181E-25
 -1       604 6.70425E-05 2.15582E-06 0.00000E+00
 -1       605 6.67754E-05 2.63103E-06 4.13590E-25
 -1       606 7.14923E-05 3.34633E-06 0.00000E+00
 -1       607 7.15393E-05 4.43449E-06 0.00000E+00
 -1       608 7.15852E-05 5.64228E-06 0.00000E+00
 -1       609 7.16305E-05 6.96113E-06 0.00000E+00
 -1       610 7.16755E-05 8.38247E-06 0.00000E+00
 -1       611 7.17203E-05 9.89755E-06 0.00000E+00
 -1       612 7.17650E-05 1.14976E-05 3.30872E-24
 -1       613 7.18095E-05 1.31739E-05 0.00000E+00
 -1       614 7.18539E-05 1.49176E-05 3.30872E-24
 -1       615 7.18982E-05 1.67201E-05 1.65436E-24
 -1       616 7.19424E-05 1.85725E-05 0.00000E+00
 -1       617 7.19865E-05 2.04661E-05 0.00000E+00
 -1       618 7.20306E-05 2.23921E-05-1.65436E-24
 -1       619 7.20745E-05 2.43418E-05 8.27181E-25
 -1       620 7.21183E-05 2.63064E-05-3.30872E-24
 -1       621 7.05565E-05 2.52205E-06 3.30872E-24
 -1       622 6.96781E-05 2.65923E-06-1.65436E-24
 -1       623 6.88188E-05 2.79635E-06 0.00000E+00
 -1       624 6.79910E-05 2.93309E-06 0.00000E+00
 -1       625 6.72071E-05 3.06915E-06-1.65436E-24
 -1       626 7.11902E-05 3.41050E-06 0.00000E+00
 -1       627 7.08882E-05 4.56853E-06 6.61744E-24
 -1       628 7.05409E-05 5.84676E-06 0.00000E+00
 -1       629 7.01535E-05 7.23132E-06 0.00000E+00
 -1       630 6.97313E-05 8.70831E-06 0.00000E+00
 -1       631 6.92795E-05 1.02637E-05 0.00000E+00
 -1       632 6.88036E-05 1.18833E-05 6.61744E-24
 -1       633 6.83087E-05 1.35532E-05 0.00000E+00
 -1       634 6.78002E-05 1.52593E-05 0.00000E+00
 -1       635 6.72833E-05 1.69875E-05 1.65436E-24
 -1       636 6.67633E-05 1.87238E-05 0.00000E+00
 -1       637 6.62456E-05 2.04540E-05 1.65436E-24
 -1       638 6.57352E-05 2.21642E-05-1.65436E-24
 -1       639 6.52372E-05 2.38401E-05 1.65436E-24
 -1       640 6.47564E-05 2.54678E-05 8.27181E-25
 -1       656 7.04455E-05 2.80757E-05 0.00000E+00
 -1       657 6.90488E-05 2.78647E-05 0.00000E+00
 -1       658 6.78539E-05 2.76545E-05-6.61744E-24
 -1       659 6.67422E-05 2.74444E-05 0.00000E+00
 -1       660 6.55953E-05 2.72337E-05 0.00000E+00
 -1       661 7.15629E-05 3.03082E-05 0.00000E+00
 -1       662 7.09428E-05 3.24118E-05 0.00000E+00
 -1       663 7.03013E-05 3.45717E-05 0.00000E+00
 -1       664 6.96447E-05 3.67739E-05 0.00000E+00
 -1       665 6.89776E-05 3.90042E-05 3.30872E-24
 -1       666 6.83055E-05 4.12481E-05-1.65436E-24
 -1       667 6.76335E-05 4.34918E-05 0.00000E+00
 -1       668 6.69671E-05 4.57208E-05-1.65436E-24
 -1       669 6.63115E-05 4.79211E-05 3.30872E-24
 -1       670 6.56720E-05 5.00784E-05-1.65436E-24
 -1       671 6.50541E-05 5.21785E-05 3.30872E-24
 -1       672 6.44630E-05 5.42071E-05-1.65436E-24
 -1       673 6.39040E-05 5.61498E-05 0.00000E+00
 -1       674 6.33817E-05 5.79917E-05 0.00000E+00
 -1       675 6.29027E-05 5.97189E-05 1.65436E-24
 -1       676 6.99059E-05 6.21835E-05 0.00000E+00
 -1       677 6.84061E-05 6.20079E-05 3.30872E-24
 -1       678 6.69101E-05 6.18324E-05 0.00000E+00
 -1       679 6.54198E-05 6.16576E-05 1.65436E-24
 -1       680 6.39371E-05 6.14829E-05 0.00000E+00
 -1       771 2.37803E-05-2.86387E-06 0.00000E+00
 -1       772 2.09270E-05 6.92592E-07 0.00000E+00
 -1       773 1.83817E-05 3.43026E-06 0.00000E+00
 -1       774 1.61162E-05 5.42439E-06 0.00000E+00
 -1       775 1.41023E-05 6.75115E-06 0.00000E+00
 -1       776 1.23103E-05 7.48819E-06-2.64698E-23
 -1       777 1.07107E-05 7.71390E-06 0.00000E+00
 -1       778 9.27342E-06 7.50766E-06 2.64698E-23
 -1       779 7.96824E-06 6.94941E-06 5.29396E-23
 -1       780 6.76488E-06 6.11979E-06-2.64698E-23
 -1       781 5.63296E-06 5.09981E-06 5.29396E-23
 -1       782 4.54212E-06 3.97088E-06 2.64698E-23
 -1       783 3.46199E-06 2.81453E-06 0.00000E+00
 -1       784 2.36300E-06 1.71255E-06 1.32349E-23
 -1       785 1.21532E-06 7.46545E-07 2.64698E-23
 -1       786 6.49552E-05 2.43460E-08 8.27181E-25
 -1       787 6.50561E-05 3.12932E-07-8.27181E-25
 -1       788 6.51569E-05 5.24244E-07 0.00000E+00
 -1       789 6.52586E-05 6.73676E-07-1.65436E-24
 -1       790 6.53605E-05 7.76548E-07 0.00000E+00
 -1       791 6.54625E-05 8.48139E-07 0.00000E+00
 -1       792 6.55646E-05 9.03689E-07-3.30872E-24
 -1       793 6.56667E-05 9.58425E-07 0.00000E+00
 -1       794 6.57688E-05 1.02757E-06 0.00000E+00
 -1       795 6.58709E-05 1.12637E-06 0.00000E+00
 -1       796 6.59730E-05 1.27010E-06 3.30872E-24
 -1       797 6.60750E-05 1.47406E-06 0.00000E+00
 -1       798 6.61769E-05 1.75365E-06 0.00000E+00
 -1       799 6.62784E-05 2.12432E-06 1.65436E-24
 -1       800 6.63800E-05 2.60163E-06 1.65436E-24
 -1       801 5.95260E-05-2.45031E-07 0.00000E+00
 -1       802 4.74879E-05-1.77211E-07 0.00000E+00
 -1       803 3.21312E-05-1.48944E-07 0.00000E+00
 -1       804 1.68410E-05-1.26449E-07 0.00000E+00
 -1       805 5.00159E-06-6.31917E-08 0.00000E+00
 -1       806 6.46021E-05-2.84615E-08-3.30872E-24
 -1       807 6.43579E-05 2.51602E-07 0.00000E+00
 -1       808 6.41271E-05 4.93138E-07 3.30872E-24
 -1       809 6.39067E-05 7.05573E-07-1.65436E-24
 -1       810 6.36936E-05 8.98302E-07 0.00000E+00
 -1       811 6.34842E-05 1.08069E-06-1.65436E-24
 -1       812 6.32752E-05 1.26208E-06 0.00000E+00
 -1       813 6.30631E-05 1.45182E-06 1.65436E-24
 -1       814 6.28443E-05 1.65926E-06 0.00000E+00
 -1       815 6.26153E-05 1.89373E-06-8.27181E-25
 -1       816 6.23727E-05 2.16457E-06 0.00000E+00
 -1       817 6.21130E-05 2.48111E-06 0.00000E+00
 -1       818 6.18327E-05 2.85269E-06 1.65436E-24
 -1       819 6.15284E-05 3.28856E-06-4.13590E-25
 -1       820 6.11970E-05 3.79799E-06 1.65436E-24
 -1       821 6.63509E-05 3.97323E-06-1.65436E-24
 -1       822 6.62150E-05 4.93467E-06 0.00000E+00
 -1       823 6.60790E-05 6.06606E-06 0.00000E+00
 -1       824 6.59417E-05 7.34758E-06 0.00000E+00
 -1       825 6.58041E-05 8.75927E-06 0.00000E+00
 -1       826 6.56661E-05 1.02809E-05-1.65436E-24
 -1       827 6.55279E-05 1.18922E-05 3.30872E-24
 -1       828 6.53896E-05 1.35727E-05 1.65436E-24
 -1       829 6.52511E-05 1.53018E-05 0.00000E+00
 -1       830 6.51127E-05 1.70588E-05 0.00000E+00
 -1       831 6.49743E-05 1.88232E-05 0.00000E+00
 -1       832 6.48361E-05 2.05743E-05 1.65436E-24
 -1       833 6.46982E-05 2.22913E-05 0.00000E+00
 -1       834 6.45614E-05 2.39537E-05-1.65436E-24
 -1       835 6.44246E-05 2.55410E-05-1.65436E-24
 -1       836 6.56762E-05 3.39665E-06 0.00000E+00
 -1       837 6.47246E-05 3.59848E-06 0.00000E+00
 -1       838 6.36942E-05 3.80003E-06 0.00000E+00
 -1       839 6.26558E-05 4.00082E-06 0.00000E+00
 -1       840 6.16797E-05 4.20152E-06 0.00000E+00
 -1       856 6.41880E-05 2.86017E-05-8.27181E-25
 -1       857 6.40746E-05 3.03954E-05 1.65436E-24
 -1       858 6.39608E-05 3.23824E-05 0.00000E+00
 -1       859 6.38458E-05 3.45312E-05 0.00000E+00
 -1       860 6.37304E-05 3.68099E-05 0.00000E+00
 -1       861 6.36146E-05 3.91866E-05 0.00000E+00
 -1       862 6.34986E-05 4.16293E-05 0.00000E+00
 -1       863 6.33825E-05 4.41062E-05-1.65436E-24
 -1       864 6.32664E-05 4.65851E-05 3.30872E-24
 -1       865 6.31504E-05 4.90342E-05 1.65436E-24
 -1       866 6.30345E-05 5.14213E-05 3.30872E-24
 -1       867 6.29189E-05 5.37147E-05 0.00000E+00
 -1       868 6.28037E-05 5.58823E-05 0.00000E+00
 -1       869 6.26891E-05 5.78924E-05 1.65436E-24
 -1       870 6.25749E-05 5.97132E-05 3.30872E-24
 -1       871 6.31141E-05 2.70178E-05 0.00000E+00
 -1       872 6.20982E-05 2.70009E-05 0.00000E+00
 -1       873 6.11821E-05 2.69836E-05 0.00000E+00
 -1       874 6.02993E-05 2.69656E-05-4.13590E-25
 -1       875 5.93833E-05 2.69468E-05-1.65436E-24
 -1       876 6.39035E-05 2.86374E-05-3.30872E-24
 -1       877 6.34560E-05 3.04126E-05 0.00000E+00
 -1       878 6.29535E-05 3.23339E-05 0.00000E+00
 -1       879 6.24050E-05 3.43801E-05 0.00000E+00
 -1       880 6.18178E-05 3.65292E-05 0.00000E+00
 -1       881 6.12000E-05 3.87597E-05 0.00000E+00
 -1       882 6.05597E-05 4.10503E-05 6.61744E-24
 -1       883 5.99048E-05 4.33796E-05 3.30872E-24
 -1       884 5.92433E-05 4.57262E-05-6.61744E-24
 -1       885 5.85833E-05 4.80689E-05 3.30872E-24
 -1       886 5.79327E-05 5.03863E-05 0.00000E+00
 -1       887 5.72995E-05 5.26570E-05 0.00000E+00
 -1       888 5.66917E-05 5.48598E-05 0.00000E+00
 -1       889 5.61164E-05 5.69728E-05 0.00000E+00
 -1       890 5.55828E-05 5.89748E-05-3.30872E-24
 -1       891 6.11661E-05 6.12352E-05 3.30872E-24
 -1       892 6.00332E-05 6.11559E-05-8.27181E-25
 -1       893 5.89622E-05 6.10767E-05 1.65436E-24
 -1       894 5.78500E-05 6.09976E-05 8.27181E-25
 -1       895 5.65932E-05 6.09184E-05 8.27181E-25
 -1       956 6.06858E-05 5.23713E-06-1.65436E-24
 -1       957 6.05325E-05 6.24295E-06 1.65436E-24
 -1       958 6.03785E-05 7.39034E-06 0.00000E+00
 -1       959 6.02240E-05 8.66123E-06-1.65436E-24
 -1       960 6.00693E-05 1.00376E-05 0.00000E+00
 -1       961 5.99145E-05 1.15011E-05 1.65436E-24
 -1       962 5.97595E-05 1.30337E-05 0.00000E+00
 -1       963 5.96044E-05 1.46170E-05-1.65436E-24
 -1       964 5.94493E-05 1.62329E-05 0.00000E+00
 -1       965 5.92941E-05 1.78630E-05-3.30872E-24
 -1       966 5.91390E-05 1.94892E-05-6.61744E-24
 -1       967 5.89839E-05 2.10932E-05-3.30872E-24
 -1       968 5.88290E-05 2.26568E-05 0.00000E+00
 -1       969 5.86744E-05 2.41617E-05-3.30872E-24
 -1       970 5.85203E-05 2.55899E-05 0.00000E+00
 -1       971 5.81685E-05 2.83013E-05-3.30872E-24
 -1       972 5.79642E-05 2.99146E-05 3.30872E-24
 -1       973 5.77594E-05 3.17351E-05 0.00000E+00
 -1       974 5.75537E-05 3.37335E-05 3.30872E-24
 -1       975 5.73476E-05 3.58806E-05 0.00000E+00
 -1       976 5.71411E-05 3.81469E-05-3.30872E-24
 -1       977 5.69345E-05 4.05028E-05 6.61744E-24
 -1       978 5.67276E-05 4.29186E-05 0.00000E+00
 -1       979 5.65207E-05 4.53647E-05 0.00000E+00
 -1       980 5.63139E-05 4.78113E-05-3.30872E-24
 -1       981 5.61072E-05 5.02287E-05-6.61744E-24
 -1       982 5.59008E-05 5.25872E-05 3.30872E-24
 -1       983 5.56948E-05 5.48572E-05-6.61744E-24
 -1       984 5.54900E-05 5.70091E-05 0.00000E+00
 -1       985 5.52858E-05 5.90133E-05 0.00000E+00
 -3
    1PSTEP                         2           1           1          
  100CL  101 1.000000000         394                     0    1           1
 -4  STRESS      6    1
 -5  SXX         1    4    1    1
 -5  SYY         1    4    2    2
 -5  SZZ         1    4    3    3
 -5  SXY         1    4    1    2
 -5  SYZ         1    4    2    3
 -5  SZX         1    4    3    1
 -1         1-5.59853E+06-2.34489E+06-1.35732E+06-2.58050E+06-3.20142E-10-8.64384E-09
 -1         2 2.86003E+03-1.97655E+05 9.09205E+03-3.49575E+02-3.82158E-10 1.20955E-08
 -1         3-6.68711E+01-1.41429E+06-3.60364E+01-7.40882E+02 4.73787E-10-3.13412E-09
 -1         5-3.78497E+01 5.71138E+05 1.79909E+01 1.77519E+00 3.11789E-10-4.57894E-08
 -1         8-2.40534E+06-1.09519E+06-3.40205E+05-1.43038E+06 8.10057E-10 1.18356E-09
 -1         9-3.54579E+06-1.29497E+06-6.63086E+05-1.09965E+06 8.41101E-09-8.45830E-09
 -1        10-2.20612E+02-1.41457E+06-1.83518E+03-4.28049E+03 5.04258E-09 1.07366E-09
 -1        12-3.06186E+01 5.71176E+05 5.84484E+02 1.14470E+01 5.32026E-10-3.51174E-08
 -1        15 3.95346E+03 2.13972E+03 1.22595E+04 1.06782E+01-8.10005E-08-1.37463E-05
 -1        16-5.04675E+06-1.61236E+06-7.32149E+05-1.67346E+06-5.69950E-10 4.38922E-09
 -1        17-7.45469E+05-6.19161E+05-1.08411E+05-5.13319E+05 3.46336E-09-3.40515E-09
 -1        18 4.96046E+04 1.52953E+04-1.67954E+04-1.24341E+05 5.02496E-10 1.78625E-09
 -1        19 1.61485E+05 1.98838E+05-2.97459E+02 1.45381E+04-8.18181E-10-6.95727E-09
 -1        20 1.13164E+05-1.61110E+05-2.90369E+04 8.11185E+04 5.81197E-09-2.21310E-09
 -1        21-1.56284E+02-5.00135E+05-2.24495E+03-6.22943E+02 5.45792E-09 1.73569E-08
 -1        24-3.54720E+06-1.24768E+06-3.77934E+05-1.61042E+06-7.38752E-09-4.34617E-09
 -1        25 1.42580E+04 7.66607E+04 3.44284E+04-5.10813E+05-2.29193E-10 1.76442E-09
 -1        26-2.48217E+04 1.55460E+05 2.82148E+02-3.54735E+04 8.57108E-10-3.73611E-09
 -1        27-3.33687E+04-9.61695E+04-4.33137E+04 1.02679E+05 1.71106E-09 3.24386E-09
 -1        28-9.79727E+03-1.48241E+05-3.25286E+03 5.95633E+04 4.92037E-10-3.95774E-09
 -1        32-1.17393E+06-9.22033E+04 3.28320E+05-1.59637E+06-3.57250E-09 1.72486E-09
 -1        33-1.70456E+05 1.55248E+05 4.80724E+04-5.15041E+04-1.95049E-09 1.50067E-09
 -1        34-3.22869E+05-4.92612E+04-1.31107E+04 9.78088E+04 2.33153E-10-2.57266E-09
 -1        35-4.17456E+04-4.33732E+04-6.43869E+02 9.45114E+04 7.38988E-09 1.27329E-10
 -1        51 3.22516E+04-6.48951E+05 5.83087E+04-1.74871E+06-2.91038E-11 8.73115E-09
 -1        52 2.22566E+04-6.54122E+05 4.05116E+04-1.94068E+06 5.82077E-11 2.92202E-08
 -1        53 2.11845E+04-6.78901E+05 3.82604E+04-1.74365E+06 3.34694E-10 8.28004E-09
 -1        54 4.98690E+04-6.79255E+05 6.60593E+04-1.94575E+06 5.09317E-10-9.60426E-09
 -1        55 1.00064E+05-7.03960E+05 1.23461E+05-1.74230E+06 7.85803E-10-1.07175E-08
 -1        56-1.04377E+07-1.12051E+06-9.18916E+05-4.06812E+06-2.13913E-09 9.72068E-09
 -1        57-1.09058E+07-1.94704E+06-6.33280E+05-3.92512E+06 5.49335E-10-2.61934E-09
 -1        58-1.06007E+07-1.46466E+06-2.14995E+05-4.03326E+06 4.28190E-09 1.20344E-08
 -1        59-1.07154E+07-1.54680E+06-1.32319E+05-3.96408E+06-6.40284E-10 1.46410E-08
 -1        60-1.06250E+07-1.51745E+06-5.00269E+04-4.02927E+06 2.02726E-09-8.07995E-09
 -1        61-1.06660E+07-1.50579E+06-2.93255E+04-3.99124E+06-1.01454E-09-9.14952E-09
 -1        62-1.06492E+07-1.50519E+06-1.38697E+04-4.00591E+06 2.53289E-09-1.15460E-09
 -1        63-1.06266E+07-1.53341E+06-1.19173E+04-4.03224E+06-2.00498E-09-2.05347E-09
 -1        64-1.06643E+07-1.48974E+06-1.35305E+04-3.98824E+06-3.13094E-09 2.66800E-09
 -1        65-1.06264E+07-1.54507E+06-2.86219E+04-4.03644E+06 3.18335E-09 1.67392E-09
 -1        66-1.06495E+07-1.49358E+06-4.87652E+04-4.00177E+06-4.57203E-09-8.54379E-09
 -1        67-1.06915E+07-1.56758E+06-1.28702E+05-3.98997E+06-3.45972E-09-1.17689E-09
 -1        68-1.06000E+07-1.46781E+06-2.09156E+05-4.03481E+06-3.68527E-09 1.98634E-09
 -1        69-1.09259E+07-1.90815E+06-6.16110E+05-3.89678E+06-4.90036E-09 1.66401E-08
 -1        70-1.04183E+07-1.15609E+06-8.94006E+05-4.09500E+06 4.07454E-10-2.79397E-09
 -1        86-1.42984E+03-2.00232E+05 9.77688E+03 1.74787E+02 1.13687E-11-2.84712E-09
 -1        87 9.43654E+03-1.94511E+05 2.03624E+04-6.69352E+02-1.47338E-10-1.05427E-08
 -1        88-7.99349E+03-2.03374E+05 3.12009E+04 4.94579E+02-2.74667E-10-6.26054E-09
 -1        89 5.91537E+04-1.71580E+05 8.41575E+04-1.19542E+03-1.69166E-10 7.66818E-11
 -1        90-5.10483E+04-2.23134E+05 1.18870E+05 7.00989E+02-4.43833E-10-3.67905E-09
 -1       121-9.43772E+01-1.41474E+06-1.17305E+02 3.70333E+02 7.86619E-10 8.70386E-10
 -1       122-6.33416E+01-1.41431E+06-9.91829E+01-1.46829E+03 1.91953E-09 5.99357E-10
 -1       123-8.87747E+01-1.41474E+06-2.68404E+02 1.09730E+03 2.38264E-09-3.92174E-09
 -1       124-6.65467E+01-1.41436E+06-4.34611E+02-2.90070E+03 3.55853E-09-2.86946E-10
 -1       125-6.49630E+01-1.41472E+06-9.17212E+02 1.80222E+03 3.69485E-09-8.93215E-09
 -1       191-4.03235E+01 5.71181E+05 2.02455E+01-8.98300E-01 3.91162E-10-1.39335E-08
 -1       192-3.95288E+01 5.71139E+05 3.81454E+01 4.69689E+00 5.73031E-10 6.49015E-09
 -1       193-4.47705E+01 5.71180E+05 6.97087E+01-3.86671E+00 6.47587E-10-1.98270E-10
 -1       194-4.49243E+01 5.71145E+05 1.44402E+02 1.01973E+01 4.75938E-10-1.30694E-09
 -1       195-5.33104E+01 5.71175E+05 2.81205E+02-6.48808E+00 9.96451E-10-1.50012E-08
 -1       266-6.94330E+04-3.20909E+04 1.60329E+05-2.19831E+02-1.70745E-07-2.91134E-05
 -1       267 8.04176E+04 3.75020E+04 1.13692E+05 2.52643E+02-3.42467E-07-5.81992E-05
 -1       268-1.09549E+04-5.36510E+03 4.20840E+04-3.29072E+01-2.52070E-07-4.27719E-05
 -1       269 1.29381E+04 6.44118E+03 2.75025E+04 3.82480E+01-1.60948E-07-2.73469E-05
 -1       270-1.97097E+03-1.06434E+03 1.32054E+04-5.33756E+00-1.20556E-07-2.04878E-05
 -1       271-7.44735E+06-9.27777E+05-5.92023E+05-2.89916E+06-6.69388E-10-3.43425E-09
 -1       272-7.70687E+06-1.30065E+06-3.79052E+05-2.84231E+06-5.64796E-10 4.71482E-09
 -1       273-7.55908E+06-1.06921E+06-1.39536E+05-2.87228E+06-1.55342E-09-2.28465E-09
 -1       274-7.57233E+06-1.12769E+06-7.76678E+04-2.88561E+06-1.74578E-09 1.16597E-08
 -1       275-7.57781E+06-1.07972E+06-3.24490E+04-2.86345E+06-4.17549E-09-2.37924E-09
 -1       276-7.54712E+06-1.11780E+06-1.72158E+04-2.90104E+06-1.38971E-09 7.39647E-09
 -1       277-7.58420E+06-1.07668E+06-8.69122E+03-2.85788E+06-2.40379E-09-4.37103E-09
 -1       278-7.53839E+06-1.12313E+06-6.61469E+03-2.91018E+06-1.97679E-09-5.44901E-10
 -1       279-7.58702E+06-1.07385E+06-7.64078E+03-2.85475E+06-2.06592E-09-4.47608E-09
 -1       280-7.53685E+06-1.12784E+06-1.44774E+04-2.91374E+06-2.68381E-09 5.97834E-09
 -1       281-7.58610E+06-1.07193E+06-2.67409E+04-2.85448E+06-4.94765E-10 2.18824E-09
 -1       282-7.55060E+06-1.14321E+06-6.41148E+04-2.90946E+06-2.62253E-09 1.74168E-09
 -1       283-7.57364E+06-1.06029E+06-1.14927E+05-2.85841E+06 9.73159E-11-6.79574E-09
 -1       284-7.65680E+06-1.29022E+06-3.12467E+05-2.87847E+06 2.76032E-09-7.04676E-09
 -1       285-7.48295E+06-9.42542E+05-4.88142E+05-2.87906E+06-1.23691E-10 7.47968E-09
 -1       301 5.85288E+04-2.83219E+04 1.69252E+05-3.32724E+04 6.18456E-10-3.88343E-09
 -1       302 2.18670E+04 6.48710E+03 1.14458E+05-4.10422E+04 8.77208E-10 2.30131E-09
 -1       303 4.91876E+03-1.65112E+04 1.05997E+05-3.33515E+04 6.31189E-10 7.91556E-09
 -1       304 4.12036E+04 2.11383E+04 1.75352E+05-4.09900E+04 1.06229E-09 3.28691E-09
 -1       305 1.15560E+05-4.28420E+04 3.13977E+05-3.31978E+04 7.71252E-10 2.01180E-09
 -1       306-3.40684E+06-4.38258E+05-2.07788E+05-1.31552E+06-1.48611E-09-2.89583E-09
 -1       307-3.45554E+06-6.09793E+05-1.32753E+05-1.34331E+06 6.75129E-10 2.95404E-09
 -1       308-3.44611E+06-4.87304E+05-4.90379E+04-1.30616E+06 7.37828E-10-2.04454E-09
 -1       309-3.40983E+06-5.48641E+05-2.73071E+04-1.35807E+06 8.02174E-10-1.10867E-09
 -1       310-3.45199E+06-4.91612E+05-1.14477E+04-1.30394E+06-1.79170E-10-2.37105E-09
 -1       311-3.40324E+06-5.43121E+05-6.20476E+03-1.36123E+06-2.35957E-09 2.14095E-09
 -1       312-3.45290E+06-4.91882E+05-3.31162E+03-1.30349E+06 1.92085E-09-8.50309E-09
 -1       313-3.40299E+06-5.42079E+05-2.93288E+03-1.36084E+06-1.29421E-09-4.47903E-09
 -1       314-3.45214E+06-4.92646E+05-3.93288E+03-1.30429E+06-5.56156E-10 1.99634E-10
 -1       315-3.40581E+06-5.40660E+05-7.81836E+03-1.35766E+06 1.04546E-09 3.75621E-09
 -1       316-3.44962E+06-4.93677E+05-1.48211E+04-1.30631E+06 8.83119E-10 7.37327E-09
 -1       317-3.41624E+06-5.45732E+05-3.52809E+04-1.35096E+06-7.38055E-10-3.94721E-10
 -1       318-3.44114E+06-4.88986E+05-6.35721E+04-1.31012E+06 1.71485E-09 3.03407E-09
 -1       319-3.47675E+06-6.23616E+05-1.71838E+05-1.33047E+06 2.09855E-09-4.14730E-09
 -1       320-3.38989E+06-4.25827E+05-2.69032E+05-1.32267E+06-5.38421E-10-1.46974E-08
 -1       336 9.19639E+01-1.41460E+06-3.52783E+03 2.47680E+03 5.33805E-09 9.76979E-09
 -1       337-1.88557E+03-1.41574E+06-7.78024E+03-5.57984E+03 6.36794E-09-4.22006E-09
 -1       338 1.43605E+03-1.41363E+06-1.38405E+04 3.10081E+03 6.92398E-09-1.93995E-09
 -1       339-1.78777E+04-1.42497E+06-3.45532E+04-6.84434E+03 8.27140E-09 1.49266E-08
 -1       340 1.37523E+04-1.40548E+06-5.32871E+04 3.72994E+03 8.49832E-09 1.43373E-08
 -1       406 1.27968E+01 5.71149E+05 1.15255E+03-5.19358E+00 1.36390E-09-7.45968E-09
 -1       407 3.71782E+02 5.71378E+05 2.45211E+03-9.56254E+00 1.40915E-10 2.30466E-08
 -1       408 1.23081E+03 5.70972E+05 4.89544E+03 1.57520E+01 1.54250E-09 1.09394E-08
 -1       409 5.26626E+03 5.72941E+05 1.10225E+04-1.92220E+02-2.01226E-10 2.87400E-09
 -1       410 1.51859E+04 5.69574E+05 2.25006E+04 1.97971E+02 1.70257E-09-3.71983E-09
 -1       521-7.58794E+06-9.53850E+05-4.98669E+05-2.91852E+06-1.72440E-09-7.85803E-10
 -1       522-7.76792E+06-1.30647E+06-3.19183E+05-2.91499E+06-8.64020E-11-1.28057E-09
 -1       523-7.68107E+06-1.07364E+06-1.17398E+05-2.89684E+06-2.75577E-10 6.09725E-09
 -1       524-7.65848E+06-1.15730E+06-6.54562E+04-2.94786E+06-5.34328E-12-1.45519E-11
 -1       525-7.69432E+06-1.08498E+06-2.72581E+04-2.89223E+06-1.64829E-09 1.06047E-09
 -1       526-7.64351E+06-1.14257E+06-1.46518E+04-2.95344E+06-3.68175E-10-3.68721E-09
 -1       527-7.69575E+06-1.08645E+06-7.52487E+03-2.89196E+06-1.17507E-09 3.08989E-09
 -1       528-7.64424E+06-1.13857E+06-6.15540E+03-2.95083E+06-1.20053E-10 2.09820E-09
 -1       529-7.69328E+06-1.08898E+06-7.65702E+03-2.89472E+06 3.39787E-09 5.78348E-09
 -1       530-7.65223E+06-1.13337E+06-1.48384E+04-2.94223E+06 1.68257E-11 4.54384E-09
 -1       531-7.68725E+06-1.09216E+06-2.78237E+04-2.90011E+06-9.52241E-10-4.36557E-09
 -1       532-7.67521E+06-1.14034E+06-6.64748E+04-2.92719E+06 2.83353E-09-5.29508E-09
 -1       533-7.67025E+06-1.08418E+06-1.19438E+05-2.90878E+06-4.13365E-10 1.13505E-09
 -1       534-7.79240E+06-1.28617E+06-3.24338E+05-2.88756E+06-4.91946E-09-4.54020E-09
 -1       535-7.57350E+06-9.64436E+05-5.06814E+05-2.93320E+06-1.41154E-09-5.58794E-09
 -1       536 6.11294E+03-2.07027E+04 7.72911E+04-1.28895E+04 1.27147E-09 1.65164E-09
 -1       537 3.64536E+04 2.55196E+04 5.04215E+04-6.34315E+04-4.45561E-09 3.63343E-09
 -1       538 1.79077E+04-2.53291E+03 1.99586E+04-1.27167E+04-6.22094E-10 2.69029E-09
 -1       539 2.22963E+04 2.44811E+03 1.14028E+04-6.35990E+04 2.67028E-09 1.94859E-10
 -1       540 1.92410E+04-4.16909E+02 4.99461E+03-1.27117E+04 6.91216E-11-4.07454E-10
 -1       541 2.00820E+04 2.08770E+02 2.70277E+03-6.35939E+04-9.19499E-10-5.47084E-09
 -1       542 1.93690E+04-8.08917E+01 1.19524E+03-1.27243E+04 4.66571E-10 5.71163E-10
 -1       543 1.94705E+04 9.63896E+01 5.71153E+02-6.35747E+04-8.08541E-10 5.91217E-09
 -1       544 1.93675E+04 1.61807E+01 1.22658E+02-1.27314E+04 3.45153E-10 3.91287E-09
 -1       545 1.92286E+04 9.83949E+01-2.41315E+02-6.35660E+04-1.38340E-09-5.52518E-11
 -1       546 1.93933E+04 6.81680E+01-6.88932E+02-1.27328E+04 7.76595E-10-4.98972E-10
 -1       547 1.90176E+04-2.92492E+02-1.67762E+03-6.35603E+04-2.10412E-09 1.77454E-09
 -1       548 1.96281E+04 3.26137E+02-3.04961E+03-1.27372E+04-2.14686E-09-2.64777E-09
 -1       549 1.72544E+04-3.91753E+03-7.61857E+03-6.34596E+04-8.00810E-10-9.65747E-09
 -1       550 2.14732E+04 2.94486E+03-1.18406E+04-1.28335E+04-3.24690E-10-6.59475E-09
 -1       551 2.03466E+04-5.33785E+05 4.08313E+04-8.43121E+05 2.41562E-09 1.78989E-09
 -1       552 1.92467E+04-5.30494E+05 4.34589E+04-1.03517E+06 1.12050E-09 1.61726E-08
 -1       553 1.48525E+04-5.37622E+05 6.33296E+04-8.41385E+05 1.97178E-09 8.44466E-09
 -1       554 4.73632E+04-5.11076E+05 1.29804E+05-1.03538E+06-1.68802E-09 8.62019E-09
 -1       555 1.02403E+05-5.56454E+05 2.46055E+05-8.42320E+05 2.04454E-09-3.60524E-09
 -1       556-1.67897E+05-1.78898E+05 4.42282E+04-2.86654E+05-5.52973E-10-3.49246E-10
 -1       557-1.24272E+05-2.20288E+05 2.24635E+04-3.20646E+05 1.61526E-09-7.76436E-09
 -1       558-1.69041E+05-1.89125E+05 9.22850E+03-2.80083E+05 3.76167E-09 1.00063E-08
 -1       559-1.30566E+05-2.26368E+05 4.62811E+03-3.23474E+05 4.99494E-09 4.68435E-09
 -1       560-1.70605E+05-1.88330E+05 1.96040E+03-2.80891E+05 1.41881E-09 3.00133E-10
 -1       561-1.32680E+05-2.25876E+05 1.00013E+03-3.24904E+05-1.83354E-09-1.21008E-09
 -1       562-1.71811E+05-1.87556E+05 3.62964E+02-2.81716E+05-2.49565E-09 4.59750E-10
 -1       563-1.33937E+05-2.25336E+05 1.27807E+02-3.25755E+05-2.28465E-09 6.96696E-09
 -1       564-1.72529E+05-1.87102E+05-1.51883E+02-2.82207E+05-8.11997E-09-1.55524E-10
 -1       565-1.34569E+05-2.25072E+05-4.82799E+02-3.26167E+05-2.08784E-08-4.76211E-09
 -1       566-1.72719E+05-1.86946E+05-1.12356E+03-2.82356E+05-6.69297E-09 1.03864E-09
 -1       567-1.34760E+05-2.25156E+05-2.51896E+03-3.26123E+05-1.66710E-09-4.21824E-09
 -1       568-1.72257E+05-1.87332E+05-5.23109E+03-2.82079E+05 8.87667E-10 5.55519E-09
 -1       569-1.37409E+05-2.27943E+05-1.23197E+04-3.24828E+05-1.88447E-09 6.40284E-09
 -1       570-1.69758E+05-1.95140E+05-2.46379E+04-2.78712E+05-2.67755E-09-9.79526E-10
 -1       571 3.70815E+05 1.61747E+04 2.40272E+04-9.33340E+04-4.00178E-11 4.24916E-09
 -1       572 3.74384E+05 5.60711E+03 1.17734E+04-1.02324E+05-5.36602E-10-2.67391E-09
 -1       573 3.72216E+05 1.32096E+03 5.23036E+03-9.30906E+04-1.22691E-09-1.21145E-09
 -1       574 3.72635E+05 4.21300E+02 2.62131E+03-1.02588E+05-1.77124E-09-2.75941E-09
 -1       575 3.72356E+05 4.87760E+01 1.23504E+03-9.30595E+04-9.47784E-09 1.95269E-09
 -1       576 3.72390E+05 7.12954E+00 6.28106E+02-1.02622E+05-1.94492E-08-2.81852E-09
 -1       577 3.72380E+05-2.00970E+01 3.07151E+02-9.30554E+04-8.43738E-09 6.50198E-09
 -1       578 3.72379E+05-2.02148E+01 1.63264E+02-1.02627E+05 4.54293E-10 4.09909E-09
 -1       579 3.72427E+05-3.65394E+01 9.05885E+01-9.30550E+04-7.26686E-10-4.83942E-09
 -1       580 3.72446E+05-5.29287E+01 7.05747E+01-1.02623E+05-1.87720E-09 3.87263E-09
 -1       581 3.72515E+05-8.01547E+01 7.71221E+01-9.30598E+04-2.14459E-09 3.88263E-09
 -1       582 3.72576E+05-9.56410E+01 1.37149E+02-1.02568E+05-2.88583E-09-7.08133E-09
 -1       583 3.72637E+05-9.27644E+01 2.49245E+02-9.31093E+04-1.09321E-09-8.52197E-10
 -1       584 3.72824E+05 7.29635E+01 5.60680E+02-1.02147E+05-3.35149E-09-4.65866E-09
 -1       585 3.72723E+05 5.45244E+02 1.12595E+03-9.34816E+04 7.16682E-10-4.20187E-09
 -1       586 1.73436E+03 1.69519E+05 3.39942E+03-2.37544E+05 1.97178E-09 3.05408E-09
 -1       587 1.28424E+03 1.70034E+05 4.17272E+03-2.64293E+05 1.26056E-09 1.72804E-09
 -1       588 1.79208E+03 1.69253E+05 6.85736E+03-2.37244E+05 2.29011E-09 6.84190E-09
 -1       589 6.67508E+03 1.71995E+05 1.46886E+04-2.64337E+05 1.54068E-09 2.82125E-09
 -1       590 1.88411E+04 1.67456E+05 2.94732E+04-2.37491E+05 2.26919E-09 1.58252E-09
 -1       591-1.81977E+05-5.38279E+04-3.61902E+04-8.70799E+04-1.11459E-09 1.26074E-08
 -1       592-1.84369E+05-5.21686E+04-1.82020E+04-9.67802E+04-1.06929E-08-9.72295E-09
 -1       593-1.83800E+05-4.36292E+04-7.72620E+03-9.21859E+04-4.02906E-09 1.02686E-08
 -1       594-1.80260E+05-4.76496E+04-3.79538E+03-9.71207E+04-1.89061E-09 6.54524E-09
 -1       595-1.84003E+05-4.33588E+04-1.75165E+03-9.23806E+04-9.78366E-09 3.37741E-09
 -1       596-1.79981E+05-4.74910E+04-8.85679E+02-9.70809E+04-1.30310E-08 1.01084E-08
 -1       597-1.84037E+05-4.33894E+04-4.77328E+02-9.23809E+04-5.70839E-09 9.36393E-09
 -1       598-1.79951E+05-4.74933E+04-3.72563E+02-9.70666E+04-1.38783E-09 3.68937E-09
 -1       599-1.84032E+05-4.33932E+04-4.62084E+02-9.23778E+04-2.27169E-09 4.67344E-09
 -1       600-1.79970E+05-4.74958E+04-8.45192E+02-9.70701E+04-2.37742E-09 3.50656E-09
 -1       601-1.83988E+05-4.33706E+04-1.66441E+03-9.23717E+04-1.18325E-09-2.54749E-09
 -1       602-1.80227E+05-4.76465E+04-3.60207E+03-9.70937E+04-4.30191E-10-8.55607E-10
 -1       603-1.83783E+05-4.36383E+04-7.33112E+03-9.21854E+04-4.17458E-10 6.10544E-09
 -1       604-1.84158E+05-5.18896E+04-1.72660E+04-9.67077E+04-1.74259E-09 3.94448E-09
 -1       605-1.82001E+05-5.33535E+04-3.43292E+04-8.73815E+04 6.66205E-10-3.08864E-09
 -1       606 1.33213E+05-1.54705E+04-2.45672E+04 4.47058E+04-1.01263E-08-1.51886E-09
 -1       607 1.29294E+05-5.17344E+03-1.20981E+04 4.91049E+04-1.84264E-09 4.56521E-09
 -1       608 1.31533E+05-1.07339E+03-5.39416E+03 4.43924E+04-1.22673E-08 1.15733E-10
 -1       609 1.31014E+05-2.70186E+02-2.70754E+03 4.94461E+04-3.94175E-08-4.25462E-09
 -1       610 1.31279E+05 4.78602E+01-1.28353E+03 4.43537E+04-2.56114E-08-1.16552E-09
 -1       611 1.31160E+05 1.07998E+02-6.44776E+02 4.94869E+04-1.43291E-08 6.73936E-09
 -1       612 1.31195E+05 1.18637E+02-3.06626E+02 4.43497E+04-8.01447E-09 5.99039E-09
 -1       613 1.31137E+05 1.42094E+02-1.36914E+02 4.94912E+04-1.25146E-08 9.27685E-11
 -1       614 1.31145E+05 1.31591E+02-3.32500E+01 4.43488E+04-3.97176E-09 2.16642E-09
 -1       615 1.31105E+05 1.60097E+02 5.65531E+01 4.94911E+04 7.86304E-09 2.80124E-10
 -1       616 1.31107E+05 1.52100E+02 1.70003E+02 4.43495E+04-5.77620E-09 1.71894E-09
 -1       617 1.31108E+05 2.25105E+02 3.91953E+02 4.94890E+04-5.00222E-10-1.60162E-09
 -1       618 1.31057E+05 3.24099E+02 7.94033E+02 4.43503E+04-3.34012E-09 3.37786E-09
 -1       619 1.31358E+05 9.55316E+02 1.79107E+03 4.94811E+04 7.47605E-10 7.16182E-09
 -1       620 1.30808E+05 2.46047E+03 3.63927E+03 4.43516E+04 3.56511E-09 2.87991E-09
 -1       621 1.29403E+03 3.94133E+05 4.53565E+03-3.12574E+04 5.07407E-09-6.43138E-09
 -1       622 6.08263E+02 3.95047E+05 4.75092E+03-3.84078E+04 1.48839E-09 6.02120E-09
 -1       623 3.61956E+02 3.94252E+05 6.97003E+03-3.12573E+04 4.88080E-09 4.48881E-09
 -1       624 3.63636E+03 3.97362E+05 1.43073E+04-3.82999E+04 1.66665E-09 2.43199E-09
 -1       625 1.02171E+04 3.91858E+05 2.72147E+04-3.13590E+04 4.40741E-09 1.87083E-09
 -1       626 2.50905E+05 8.08644E+04-2.87870E+03 1.57435E+05-8.35826E-09 9.49512E-09
 -1       627 2.45632E+05 8.67455E+04-1.36736E+03 1.62452E+05-4.40741E-09 3.86854E-09
 -1       628 2.51049E+05 8.20669E+04-5.77299E+02 1.56519E+05 3.23234E-09 3.07728E-09
 -1       629 2.45576E+05 8.75309E+04-2.70559E+02 1.62584E+05 1.03137E-08 2.48201E-09
 -1       630 2.51000E+05 8.21659E+04-1.13958E+02 1.56407E+05-2.11185E-09 4.79764E-09
 -1       631 2.45508E+05 8.76122E+04-3.36627E+01 1.62569E+05-3.00133E-09 5.72095E-09
 -1       632 2.50950E+05 8.21869E+04 2.75658E+01 1.56373E+05-7.22321E-09-1.93286E-08
 -1       633 2.45474E+05 8.76294E+04 1.06042E+02 1.62549E+05 7.04040E-09 3.81215E-09
 -1       634 2.50915E+05 8.21880E+04 2.37662E+02 1.56358E+05 1.62677E-08-2.31571E-08
 -1       635 2.45484E+05 8.76384E+04 5.24794E+02 1.62545E+05 4.71146E-08-6.30507E-09
 -1       636 2.50887E+05 8.22035E+04 1.08130E+03 1.56342E+05 1.42213E-08-8.44784E-09
 -1       637 2.45733E+05 8.78901E+04 2.40361E+03 1.62515E+05 1.68154E-09-1.18598E-09
 -1       638 2.50828E+05 8.29692E+04 4.96772E+03 1.56005E+05 9.27776E-09 1.02036E-08
 -1       639 2.48288E+05 9.20781E+04 1.18004E+04 1.61539E+05-9.07676E-10-1.31922E-09
 -1       640 2.50847E+05 9.52124E+04 2.47773E+04 1.50879E+05 8.59472E-11-8.25457E-09
 -1       656 1.67418E+04-5.96313E+05-6.73750E+04 1.45143E+04-1.19580E-08 5.44787E-09
 -1       657-2.40267E+04-6.21518E+05-5.03260E+04 6.85344E+04-1.06934E-08 2.75122E-11
 -1       658 3.55525E+03-6.05014E+05-3.25869E+04 1.43019E+04-5.74335E-09 1.68802E-09
 -1       659-2.37138E+04-6.21443E+05-4.98482E+04 6.86787E+04-9.74069E-09-4.45311E-09
 -1       660 1.65459E+04-5.96496E+05-6.64550E+04 1.43718E+04-8.17090E-09 6.60111E-09
 -1       661 3.70151E+05 5.11964E+04 2.94231E+04 1.45641E+05 1.78989E-09-9.61700E-09
 -1       662 3.76438E+05 6.91952E+04 1.78370E+04 1.50042E+05-9.68079E-10 6.59202E-09
 -1       663 3.74748E+05 5.59357E+04 6.91514E+03 1.45559E+05 1.56706E-09 5.67525E-10
 -1       664 3.71081E+05 6.18659E+04 3.66897E+03 1.50920E+05-6.47788E-09-4.05055E-09
 -1       665 3.75197E+05 5.63792E+04 1.61653E+03 1.45570E+05 5.35030E-09 1.63590E-09
 -1       666 3.70558E+05 6.12329E+04 8.62682E+02 1.50960E+05 6.80669E-09 1.02998E-08
 -1       667 3.75248E+05 5.64224E+04 5.00645E+02 1.45573E+05 1.63494E-08 1.40408E-08
 -1       668 3.70508E+05 6.11922E+04 4.80765E+02 1.50968E+05-6.29143E-09 3.50320E-09
 -1       669 3.75249E+05 5.64113E+04 6.99244E+02 1.45566E+05 3.40697E-09-4.64581E-09
 -1       670 3.70593E+05 6.12966E+04 1.40208E+03 1.50995E+05 1.68370E-10 1.10570E-08
 -1       671 3.75173E+05 5.63215E+04 2.73433E+03 1.45549E+05-1.18002E-08-9.66111E-09
 -1       672 3.71481E+05 6.24013E+04 6.27390E+03 1.50954E+05 7.24515E-09-4.07567E-10
 -1       673 3.74411E+05 5.55501E+04 1.18463E+04 1.45521E+05 5.88250E-09-3.12684E-09
 -1       674 3.80661E+05 7.49818E+04 3.05814E+04 1.49467E+05 9.41604E-09 8.92942E-09
 -1       675 3.66533E+05 4.74195E+04 5.04483E+04 1.45660E+05 2.07183E-09-5.50608E-09
 -1       676 7.66199E+01-4.99898E+05-2.68420E+03 3.11475E+02-4.67293E-09 7.61889E-09
 -1       677-8.86790E+02-5.00649E+05-4.97287E+03-6.21729E+02 8.21910E-09-4.36700E-10
 -1       678 6.48193E+02-4.99385E+05-8.66022E+03 3.10033E+02-1.64027E-09-6.61200E-09
 -1       679-9.64005E+03-5.06050E+05-2.09094E+04-6.18785E+02 9.43146E-09-4.44945E-09
 -1       680 6.63755E+03-4.94502E+05-3.30234E+04 3.05457E+02 9.96806E-10-7.79255E-09
 -1       771-3.19724E+06-6.09419E+05-8.44996E+04-1.36294E+06-3.92902E-09 4.56930E-09
 -1       772-3.18495E+06-6.21990E+05-4.23238E+04-1.40459E+06 3.32511E-09 1.23691E-09
 -1       773-3.20373E+06-5.84126E+05-1.82082E+04-1.37447E+06 1.62981E-09 4.51109E-10
 -1       774-3.17573E+06-6.12336E+05-8.85823E+03-1.40819E+06 2.81943E-09-5.21868E-09
 -1       775-3.20574E+06-5.82440E+05-4.23500E+03-1.37541E+06-8.36735E-10-2.05364E-09
 -1       776-3.17601E+06-6.11859E+05-2.08517E+03-1.40963E+06-2.29193E-10 2.27692E-09
 -1       777-3.20701E+06-5.81732E+05-1.19555E+03-1.37587E+06 2.91038E-11 1.95996E-10
 -1       778-3.17668E+06-6.11704E+05-8.61022E+02-1.41068E+06 1.38243E-10-9.37916E-12
 -1       779-3.20785E+06-5.81189E+05-1.09070E+03-1.37619E+06 1.10231E-09 1.10390E-09
 -1       780-3.17724E+06-6.11602E+05-1.92705E+03-1.41139E+06 7.13044E-10 1.38152E-09
 -1       781-3.20823E+06-5.80820E+05-3.81958E+03-1.37637E+06 1.00590E-09 2.92857E-10
 -1       782-3.17808E+06-6.11895E+05-8.27548E+03-1.41176E+06-1.09958E-09-3.60887E-09
 -1       783-3.20787E+06-5.81371E+05-1.68875E+04-1.37600E+06-1.07912E-09-1.13323E-09
 -1       784-3.18720E+06-6.21647E+05-3.98559E+04-1.41071E+06 8.77435E-10 2.13186E-09
 -1       785-3.20349E+06-6.04002E+05-7.93219E+04-1.36494E+06-7.58519E-10-1.47338E-09
 -1       786 2.85917E+05-9.40850E+03 3.63360E+04-1.71179E+03 1.19235E-09 1.07320E-10
 -1       787 2.99359E+05 1.22084E+04 2.35804E+04-8.78672E+03-2.55346E-09-2.55386E-09
 -1       788 2.91487E+05-1.02387E+03 9.42972E+03-1.71793E+03 8.48445E-10 2.78806E-09
 -1       789 2.93115E+05 1.28722E+03 5.32913E+03-8.76618E+03-3.90855E-10-8.25253E-10
 -1       790 2.92152E+05-1.14689E+02 2.39893E+03-1.73159E+03 3.80226E-10 5.53439E-09
 -1       791 2.92359E+05 1.34172E+02 1.29580E+03-8.74761E+03-8.65057E-10 3.08296E-09
 -1       792 2.92240E+05-1.42610E+01 6.57542E+02-1.73649E+03 3.22787E-10 2.43506E-09
 -1       793 2.92262E+05 1.81937E+01 4.34243E+02-8.74735E+03 8.68283E-12-2.82739E-09
 -1       794 2.92248E+05-7.83574E+00 3.92810E+02-1.73186E+03-4.78281E-10-2.99265E-09
 -1       795 2.92292E+05 5.38039E+01 5.93904E+02-8.76650E+03 1.46247E-09 2.43036E-09
 -1       796 2.92215E+05-4.89730E+01 1.01229E+03-1.71734E+03-1.05001E-09 4.13402E-09
 -1       797 2.92606E+05 5.22471E+02 2.19800E+03-8.80278E+03-7.19297E-10-2.74827E-09
 -1       798 2.91944E+05-4.22957E+02 3.86687E+03-1.69559E+03 5.03178E-10 7.13726E-09
 -1       799 2.95170E+05 4.99116E+03 9.65920E+03-8.83507E+03-2.97075E-09 6.94865E-09
 -1       800 2.89664E+05-3.85911E+03 1.48747E+04-1.68549E+03 3.31056E-10-4.30191E-10
 -1       801-2.72217E+04 4.09801E+05 4.95863E+04-3.23452E+05 1.69894E-08-1.20781E-08
 -1       802 7.51278E+04 4.19635E+05 7.79841E+04-1.84439E+06 5.00804E-08-9.99717E-09
 -1       803 7.69524E+02 4.04362E+05 9.25186E+04-3.23402E+05 3.13448E-08 1.22607E-08
 -1       804 1.55330E+05 4.66909E+05 2.11629E+05-1.84411E+06 5.08444E-08 1.88957E-08
 -1       805-9.84076E+04 3.64857E+05 2.97110E+05-3.23804E+05 1.57743E-08 1.83791E-08
 -1       806-2.82815E+05-8.36901E+04-2.48970E+04-1.41606E+05 7.77277E-10 1.65528E-10
 -1       807-2.82059E+05-7.87252E+04-1.18543E+04-1.50295E+05 3.42425E-10 6.29825E-11
 -1       808-2.82820E+05-7.13926E+04-4.99109E+03-1.46810E+05 3.62388E-09 8.76116E-09
 -1       809-2.79570E+05-7.44652E+04-2.41449E+03-1.51265E+05 1.94268E-09 3.93720E-09
 -1       810-2.82900E+05-7.06125E+04-1.09099E+03-1.47166E+05-4.43833E-10-1.79989E-09
 -1       811-2.79336E+05-7.42045E+04-5.38853E+02-1.51299E+05-3.71654E-09 1.66892E-09
 -1       812-2.82921E+05-7.05988E+04-2.66091E+02-1.47179E+05 1.40884E-09-4.56112E-10
 -1       813-2.79306E+05-7.42027E+04-1.65786E+02-1.51288E+05 1.53659E-09-2.58797E-09
 -1       814-2.82915E+05-7.06100E+04-1.52100E+02-1.47172E+05-1.44519E-09-1.27784E-09
 -1       815-2.79302E+05-7.42128E+04-2.36020E+02-1.51276E+05 1.00590E-09 4.55816E-09
 -1       816-2.82887E+05-7.06287E+04-4.41837E+02-1.47157E+05-7.26504E-09-1.01518E-08
 -1       817-2.79385E+05-7.43118E+04-9.59088E+02-1.51230E+05-3.80169E-10 3.08955E-09
 -1       818-2.82822E+05-7.09634E+04-1.97580E+03-1.47016E+05 3.67527E-09 8.63292E-09
 -1       819-2.80458E+05-7.58852E+04-4.68451E+03-1.50692E+05-1.04274E-09 1.10276E-09
 -1       820-2.82683E+05-7.59322E+04-9.83843E+03-1.45065E+05-9.74978E-10 5.12500E-09
 -1       821-3.83661E+05 1.22956E+04-4.75272E+04 1.94379E+03-2.88810E-09 2.25737E-09
 -1       822-4.01204E+05-1.59671E+04-3.08411E+04 1.08756E+04-2.45359E-09 3.90946E-09
 -1       823-3.90949E+05 1.33264E+03-1.23413E+04 1.83572E+03 3.22871E-09-3.45153E-10
 -1       824-3.93073E+05-1.66425E+03-6.97822E+03 1.10402E+04-1.89266E-09-2.17005E-09
 -1       825-3.91821E+05 1.50237E+02-3.16280E+03 1.77797E+03-6.93080E-09 8.79936E-10
 -1       826-3.92109E+05-1.46275E+02-1.74289E+03 1.11360E+04-1.20837E-08-1.14881E-09
 -1       827-3.91936E+05 2.42344E+01-9.58711E+02 1.73955E+03-8.95625E-09-2.02533E-10
 -1       828-3.92007E+05 2.28164E+00-7.71637E+02 1.11957E+04-1.11147E-08 1.80114E-09
 -1       829-3.91938E+05 2.50562E+01-9.10250E+02 1.71821E+03 2.00163E-09 3.03236E-09
 -1       830-3.92114E+05-1.25038E+02-1.61729E+03 1.12200E+04 5.32347E-09 1.25681E-09
 -1       831-3.91835E+05 1.44311E+02-2.91084E+03 1.71525E+03-7.23901E-09 1.47111E-10
 -1       832-3.93014E+05-1.51333E+03-6.41615E+03 1.12078E+04-2.96700E-09-3.25372E-09
 -1       833-3.91036E+05 1.23421E+03-1.13362E+04 1.73074E+03-1.98042E-10 3.96221E-09
 -1       834-4.00499E+05-1.46495E+04-2.83378E+04 1.11466E+04-2.33069E-09-4.82714E-09
 -1       835-3.84342E+05 1.13103E+04-4.36600E+04 1.77909E+03 3.21052E-09 9.33142E-10
 -1       836-3.45017E+03 5.78226E+05 4.66624E+04-3.47414E+04-4.54747E-09 2.75850E-09
 -1       837 1.05723E+04 5.92854E+05 3.57274E+04-7.20749E+04-7.95501E-09 5.74346E-10
 -1       838-8.48212E+02 5.83094E+05 3.06773E+04-3.46560E+04-5.18048E-09 4.40045E-09
 -1       839 1.79102E+04 5.98234E+05 5.27584E+04-7.20761E+04-7.62157E-09 3.23189E-09
 -1       840-6.30036E+03 5.72830E+05 8.11741E+04-3.47372E+04-4.29281E-09-1.13823E-09
 -1       856-3.17705E+05 5.38168E+03-3.82620E+04 1.02508E+04-6.29916E-09 4.49108E-09
 -1       857-3.30391E+05-9.55420E+03-2.35187E+04 2.63436E+04-7.35736E-09-2.14095E-09
 -1       858-3.23176E+05 5.08234E+02-9.84215E+03 1.01133E+04-1.02018E-08 7.52607E-10
 -1       859-3.24483E+05-6.51141E+02-5.31602E+03 2.65101E+04-1.83445E-09-3.69482E-11
 -1       860-3.23718E+05 9.27766E+01-2.48686E+03 1.00795E+04-2.74486E-09-8.03993E-10
 -1       861-3.23934E+05 6.44923E+01-1.30939E+03 2.65569E+04-6.54336E-09-1.64459E-09
 -1       862-3.23790E+05 5.71103E+01-6.82240E+02 1.00657E+04 8.01901E-09-2.48201E-09
 -1       863-3.23879E+05 1.22602E+02-4.51377E+02 2.65711E+04 1.88112E-08-4.20130E-09
 -1       864-3.23796E+05 5.38782E+01-4.24764E+02 1.00652E+04 1.40326E-08-4.97738E-09
 -1       865-3.23887E+05 9.71929E+01-6.41817E+02 2.65578E+04 1.28302E-08-3.04397E-09
 -1       866-3.23761E+05 6.41696E+01-1.13319E+03 1.00791E+04 2.11776E-09 1.10771E-09
 -1       867-3.24108E+05-2.28738E+02-2.36980E+03 2.65134E+04 4.34738E-10-4.55543E-10
 -1       868-3.23513E+05 2.38423E+02-4.37155E+03 1.01101E+04 6.94808E-09 2.18290E-09
 -1       869-3.26690E+05-4.18654E+03-1.04215E+04 2.63487E+04-3.81169E-09 9.15918E-10
 -1       870-3.21077E+05 2.38176E+03-1.69621E+04 1.02461E+04 8.22547E-09-1.79170E-10
 -1       871-5.66585E+03-4.67482E+04-1.27268E+04 1.66582E+05-8.12361E-09 2.52840E-10
 -1       872-2.12073E+03-4.93539E+04-4.17406E+03 2.04306E+05-4.70118E-09 2.10093E-09
 -1       873-1.66509E+02-4.84052E+04 2.87227E+03 1.66240E+05-8.22820E-09 2.45109E-10
 -1       874 3.08033E+03-4.55563E+04 1.20322E+04 2.04422E+05-6.92035E-09-2.50668E-09
 -1       875 9.58330E+03-5.07966E+04 2.57444E+04 1.66494E+05-7.89805E-09 2.35559E-10
 -1       876 4.73916E+05 6.97616E+04 4.16428E+04 1.89399E+05-6.55064E-09-5.30963E-09
 -1       877 4.80945E+05 9.23267E+04 2.45911E+04 1.97534E+05-1.88629E-09 5.72982E-10
 -1       878 4.79943E+05 7.44640E+04 9.72596E+03 1.89914E+05 7.48378E-09 1.47247E-09
 -1       879 4.73780E+05 8.31472E+04 5.05843E+03 1.98448E+05 2.19952E-08 4.98540E-09
 -1       880 4.80458E+05 7.49027E+04 2.25628E+03 1.89984E+05-2.73599E-09 1.22748E-09
 -1       881 4.73158E+05 8.24361E+04 1.17858E+03 1.98425E+05 4.66446E-09-5.54812E-09
 -1       882 4.80501E+05 7.49638E+04 6.60497E+02 1.90001E+05-4.53770E-09-4.63146E-09
 -1       883 4.73108E+05 8.23758E+04 5.82851E+02 1.98396E+05-1.02954E-08-5.97502E-09
 -1       884 4.80492E+05 7.49666E+04 8.01705E+02 1.90004E+05-6.47070E-09-6.91978E-09
 -1       885 4.73196E+05 8.24439E+04 1.55631E+03 1.98407E+05 3.21461E-09 2.85922E-09
 -1       886 4.80415E+05 7.48996E+04 3.05005E+03 1.89990E+05-5.52677E-09 2.93790E-09
 -1       887 4.74056E+05 8.33930E+04 6.87264E+03 1.98403E+05-1.52618E-08-5.83532E-09
 -1       888 4.79693E+05 7.43196E+04 1.32322E+04 1.89902E+05-1.73578E-08-4.37285E-09
 -1       889 4.83787E+05 9.58930E+04 3.34591E+04 1.97152E+05-1.00775E-09-3.23780E-10
 -1       890 4.71500E+05 6.79125E+04 5.66693E+04 1.89177E+05 4.50927E-09 5.49335E-10
 -1       891 4.99800E+02-2.24671E+05-8.57973E+03 5.02187E+04-5.70662E-09-1.17780E-09
 -1       892-2.13027E+03-2.27260E+05-6.45188E+03 1.04827E+05-6.91944E-09-5.21675E-09
 -1       893 5.55595E+01-2.25628E+05-5.39111E+03 5.00839E+04-2.58615E-09 9.10404E-10
 -1       894-3.29693E+03-2.28034E+05-9.09759E+03 1.04773E+05-1.08212E-08 1.04887E-09
 -1       895 8.94538E+02-2.23782E+05-1.39522E+04 5.02705E+04-9.95169E-09 7.07587E-10
 -1       956-4.38274E+05-7.94559E+03-1.89935E+04 5.10486E+04-1.70949E-08 5.64796E-10
 -1       957-4.41974E+05-2.58107E+03-9.69960E+03 6.08857E+04-2.11794E-08-1.81899E-09
 -1       958-4.39987E+05-1.96497E+02-4.37255E+03 5.07303E+04-4.16912E-09-1.23100E-09
 -1       959-4.40333E+05 4.00470E+01-2.22750E+03 6.12322E+04-3.44426E-09-1.67438E-09
 -1       960-4.40197E+05 1.38923E+02-1.08428E+03 5.06968E+04-1.08812E-08 2.26100E-09
 -1       961-4.40262E+05 1.73673E+02-5.67671E+02 6.12708E+04-1.64596E-08 2.56023E-09
 -1       962-4.40266E+05 1.56793E+02-3.14192E+02 5.06907E+04-6.59929E-09-5.23960E-09
 -1       963-4.40289E+05 1.94316E+02-2.31508E+02 6.12789E+04-7.23162E-09 1.54614E-11
 -1       964-4.40291E+05 1.70128E+02-2.57337E+02 5.06884E+04-1.78420E-09-2.68528E-09
 -1       965-4.40313E+05 2.03519E+02-4.24895E+02 6.12792E+04 7.33786E-09-4.21778E-09
 -1       966-4.40276E+05 1.78385E+02-7.87936E+02 5.06903E+04-1.87174E-09-5.03996E-09
 -1       967-4.40400E+05 1.27008E+02-1.61153E+03 6.12578E+04 8.62747E-09 1.53068E-09
 -1       968-4.40151E+05-4.71422E+01-3.15655E+03 5.07105E+04 6.77846E-09 5.00222E-11
 -1       969-4.41614E+05-1.75374E+03-7.00754E+03 6.10395E+04 2.23417E-09-3.83989E-09
 -1       970-4.38928E+05-5.63962E+03-1.37190E+04 5.09170E+04 4.30919E-09 3.78714E-09
 -1       971-5.79656E+05 2.06911E+03-2.60935E+04 1.32626E+04-1.18043E-08-1.41790E-09
 -1       972-5.87784E+05-5.58770E+03-1.56245E+04 2.84226E+04-1.30403E-08 2.98269E-09
 -1       973-5.83246E+05 2.16156E+02-6.67184E+03 1.30655E+04-1.01491E-08-1.11504E-09
 -1       974-5.83994E+05-2.77555E+02-3.55739E+03 2.86689E+04-9.49512E-10 2.88810E-09
 -1       975-5.83582E+05 7.14323E+01-1.71420E+03 1.30126E+04-3.29646E-09 3.54726E-09
 -1       976-5.83702E+05 1.01087E+02-9.47948E+02 2.87478E+04-1.01165E-08 3.03771E-10
 -1       977-5.83633E+05 6.64668E+01-6.00860E+02 1.29857E+04 5.05020E-09-1.05126E-09
 -1       978-5.83698E+05 1.34172E+02-5.90919E+02 2.87835E+04 1.53796E-08-6.89624E-10
 -1       979-5.83634E+05 7.49160E+01-8.52117E+02 1.29767E+04 9.00873E-09-4.98858E-10
 -1       980-5.83770E+05 9.47465E+01-1.59876E+03 2.87832E+04 1.30848E-08 8.21393E-09
 -1       981-5.83562E+05 1.08667E+02-3.03998E+03 1.29861E+04-1.37811E-09 1.55069E-09
 -1       982-5.84372E+05-5.58675E+02-6.41537E+03 2.87430E+04-3.87627E-09 3.83909E-09
 -1       983-5.82987E+05 4.02040E+02-1.20578E+04 1.30179E+04 2.86900E-09 2.32831E-10
 -1       984-5.91329E+05-1.01422E+04-2.83012E+04 2.85694E+04-8.09746E-09-3.33398E-09
 -1       985-5.76518E+05 3.79985E+03-4.72411E+04 1.31690E+04 2.24372E-09-2.97587E-09
 -3
 9999
