
 stresses (elem, integ.pnt.,sxx,syy,szz,sxy,sxz,syz) for set ELALL and time  0.1000000E+01

         1   1 -2.570669E+06 -1.581786E+05 -1.945112E+05 -6.467683E+04 -1.331302E+05  1.392409E+01
         1   2 -2.546084E+06  1.096860E+04 -8.689987E+04 -2.070620E+04 -8.671689E+04  2.903604E+00
         1   3 -2.570466E+06  8.680963E+03 -5.245060E+04  2.326715E+04 -4.030337E+04 -1.516474E+00
         1   4 -2.570674E+06 -1.581865E+05 -1.945123E+05 -5.814163E-10 -1.331302E+05 -5.268855E-10
         1   5 -2.546085E+06  1.096779E+04 -8.689999E+04 -1.862514E-08 -8.671689E+04 -9.929754E-10
         1   6 -2.570466E+06  8.679942E+03 -5.245075E+04  4.226004E-09 -4.030337E+04  5.464990E-10
         1   7 -2.570669E+06 -1.581786E+05 -1.945112E+05  6.467683E+04 -1.331302E+05 -1.392409E+01
         1   8 -2.546084E+06  1.096860E+04 -8.689987E+04  2.070620E+04 -8.671689E+04 -2.903604E+00
         1   9 -2.570466E+06  8.680963E+03 -5.245060E+04 -2.326715E+04 -4.030337E+04  1.516474E+00
         1  10 -2.570688E+06 -1.581834E+05 -1.945446E+05 -6.467682E+04  1.041281E-09 -3.209422E-10
         1  11 -2.546092E+06  1.096657E+04 -8.691406E+04 -2.070620E+04 -1.936702E-09 -6.933372E-10
         1  12 -2.570468E+06  8.680525E+03 -5.245366E+04  2.326715E+04 -1.639407E-09 -9.121926E-11
         1  13 -2.570693E+06 -1.581913E+05 -1.945458E+05 -1.374933E-08 -2.151515E-09 -5.057930E-10
         1  14 -2.546093E+06  1.096576E+04 -8.691418E+04 -1.210884E-08  3.179481E-09 -9.755800E-10
         1  15 -2.570468E+06  8.679503E+03 -5.245381E+04 -2.948338E-09  5.461358E-10  4.950109E-10
         1  16 -2.570688E+06 -1.581834E+05 -1.945446E+05  6.467682E+04  7.500692E-11 -6.541166E-10
         1  17 -2.546092E+06  1.096657E+04 -8.691406E+04  2.070620E+04  2.470307E-09 -1.190016E-09
         1  18 -2.570468E+06  8.680525E+03 -5.245366E+04 -2.326715E+04  3.238383E-09  7.832362E-10
         1  19 -2.570669E+06 -1.581786E+05 -1.945112E+05 -6.467683E+04  1.331302E+05 -1.392409E+01
         1  20 -2.546084E+06  1.096860E+04 -8.689987E+04 -2.070620E+04  8.671689E+04 -2.903604E+00
         1  21 -2.570466E+06  8.680963E+03 -5.245060E+04  2.326715E+04  4.030337E+04  1.516474E+00
         1  22 -2.570674E+06 -1.581865E+05 -1.945123E+05 -1.018149E-09  1.331302E+05 -5.140385E-10
         1  23 -2.546085E+06  1.096779E+04 -8.689999E+04 -9.896209E-09  8.671689E+04 -1.079688E-09
         1  24 -2.570466E+06  8.679942E+03 -5.245075E+04  3.019793E-08  4.030337E+04  4.980613E-10
         1  25 -2.570669E+06 -1.581786E+05 -1.945112E+05  6.467683E+04  1.331302E+05  1.392409E+01
         1  26 -2.546084E+06  1.096860E+04 -8.689987E+04  2.070620E+04  8.671689E+04  2.903604E+00
         1  27 -2.570466E+06  8.680963E+03 -5.245060E+04 -2.326715E+04  4.030337E+04 -1.516474E+00
         2   1 -2.560683E+06 -1.184822E+04 -4.223060E+04 -4.008611E+03 -3.257220E+04  2.111468E-01
         2   2 -2.558288E+06  9.856341E+02 -2.230396E+04 -9.997670E+02 -2.129642E+04  3.443091E-02
         2   3 -2.560655E+06  6.774349E+02 -1.302595E+04  2.009062E+03 -1.002051E+04 -3.255578E-02
         2   4 -2.560683E+06 -1.184825E+04 -4.223060E+04  7.128897E-09 -3.257220E+04  1.476957E-09
         2   5 -2.558288E+06  9.856322E+02 -2.230396E+04 -1.400389E-09 -2.129642E+04  8.632781E-10
         2   6 -2.560655E+06  6.774272E+02 -1.302595E+04 -1.045917E-08 -1.002051E+04 -1.438376E-09
         2   7 -2.560683E+06 -1.184822E+04 -4.223060E+04  4.008611E+03 -3.257220E+04 -2.111468E-01
         2   8 -2.558288E+06  9.856341E+02 -2.230396E+04  9.997670E+02 -2.129642E+04 -3.443091E-02
         2   9 -2.560655E+06  6.774349E+02 -1.302595E+04 -2.009062E+03 -1.002051E+04  3.255577E-02
         2  10 -2.560685E+06 -1.184851E+04 -4.223260E+04 -4.008611E+03  1.732341E-09  6.379505E-10
         2  11 -2.558288E+06  9.855117E+02 -2.230481E+04 -9.997670E+02 -7.731772E-10  5.104619E-10
         2  12 -2.560655E+06  6.774078E+02 -1.302614E+04  2.009062E+03 -3.385634E-10 -6.329980E-10
         2  13 -2.560685E+06 -1.184854E+04 -4.223260E+04  2.720497E-09 -9.509376E-10  1.017545E-09
         2  14 -2.558288E+06  9.855098E+02 -2.230481E+04 -1.008083E-08  1.220150E-09  2.153410E-10
         2  15 -2.560655E+06  6.774001E+02 -1.302614E+04 -4.554505E-09  1.156355E-09 -2.877003E-10
         2  16 -2.560685E+06 -1.184851E+04 -4.223260E+04  4.008611E+03 -1.177631E-09  1.377757E-09
         2  17 -2.558288E+06  9.855117E+02 -2.230481E+04  9.997670E+02 -3.873305E-09 -3.474340E-11
         2  18 -2.560655E+06  6.774078E+02 -1.302614E+04 -2.009062E+03 -3.074644E-10 -5.735174E-11
         2  19 -2.560683E+06 -1.184822E+04 -4.223060E+04 -4.008611E+03  3.257220E+04 -2.111468E-01
         2  20 -2.558288E+06  9.856341E+02 -2.230396E+04 -9.997670E+02  2.129642E+04 -3.443091E-02
         2  21 -2.560655E+06  6.774349E+02 -1.302595E+04  2.009062E+03  1.002051E+04  3.255578E-02
         2  22 -2.560683E+06 -1.184825E+04 -4.223060E+04  6.965215E-09  3.257220E+04  5.192386E-10
         2  23 -2.558288E+06  9.856322E+02 -2.230396E+04 -3.711663E-09  2.129642E+04 -3.727114E-10
         2  24 -2.560655E+06  6.774272E+02 -1.302595E+04  6.595181E-09  1.002051E+04  9.101559E-10
         2  25 -2.560683E+06 -1.184822E+04 -4.223060E+04  4.008611E+03  3.257220E+04  2.111468E-01
         2  26 -2.558288E+06  9.856341E+02 -2.230396E+04  9.997670E+02  2.129642E+04  3.443091E-02
         2  27 -2.560655E+06  6.774349E+02 -1.302595E+04 -2.009062E+03  1.002051E+04 -3.255578E-02
         3   1 -2.559738E+06 -8.395126E+02 -1.008338E+04 -7.378693E+01 -7.991971E+03  9.536229E-04
         3   2 -2.559423E+06  1.126596E+02 -5.710132E+03  6.460010E+01 -5.153744E+03 -5.383949E-04
         3   3 -2.559732E+06  5.643912E+01 -3.442431E+03  2.029847E+02 -2.315548E+03 -7.600830E-04
         3   4 -2.559738E+06 -8.395126E+02 -1.008338E+04 -2.122451E-09 -7.991971E+03 -2.319723E-09
         3   5 -2.559423E+06  1.126596E+02 -5.710132E+03  4.337053E-09 -5.153744E+03 -1.474884E-09
         3   6 -2.559732E+06  5.643904E+01 -3.442431E+03  5.383639E-09 -2.315548E+03  5.624734E-10
         3   7 -2.559738E+06 -8.395126E+02 -1.008338E+04  7.378693E+01 -7.991971E+03 -9.536274E-04
         3   8 -2.559423E+06  1.126596E+02 -5.710132E+03 -6.460010E+01 -5.153744E+03  5.383915E-04
         3   9 -2.559732E+06  5.643912E+01 -3.442431E+03 -2.029847E+02 -2.315548E+03  7.600836E-04
         3  10 -2.559738E+06 -8.395299E+02 -1.008350E+04 -7.378693E+01 -6.178331E-10 -9.901727E-10
         3  11 -2.559423E+06  1.126525E+02 -5.710182E+03  6.460010E+01 -1.183438E-09 -6.544652E-10
         3  12 -2.559732E+06  5.643767E+01 -3.442441E+03  2.029847E+02 -2.394797E-09  9.958759E-10
         3  13 -2.559738E+06 -8.395299E+02 -1.008350E+04 -6.616951E-09 -2.026716E-09 -8.613436E-10
         3  14 -2.559423E+06  1.126524E+02 -5.710182E+03  1.259478E-10 -1.075858E-09 -1.058772E-09
         3  15 -2.559732E+06  5.643760E+01 -3.442441E+03  1.455928E-09  6.388262E-10  8.118998E-10
         3  16 -2.559738E+06 -8.395299E+02 -1.008350E+04  7.378693E+01 -2.410124E-09 -9.566399E-10
         3  17 -2.559423E+06  1.126525E+02 -5.710182E+03 -6.460010E+01  1.718957E-12 -1.490603E-09
         3  18 -2.559732E+06  5.643767E+01 -3.442441E+03 -2.029847E+02  9.321394E-10  8.706846E-10
         3  19 -2.559738E+06 -8.395126E+02 -1.008338E+04 -7.378693E+01  7.991971E+03 -9.536248E-04
         3  20 -2.559423E+06  1.126596E+02 -5.710132E+03  6.460010E+01  5.153744E+03  5.383944E-04
         3  21 -2.559732E+06  5.643912E+01 -3.442431E+03  2.029847E+02  2.315548E+03  7.600853E-04
         3  22 -2.559738E+06 -8.395126E+02 -1.008338E+04  6.201084E-09  7.991971E+03  5.775655E-10
         3  23 -2.559423E+06  1.126596E+02 -5.710132E+03  4.544858E-09  5.153744E+03 -7.196390E-10
         3  24 -2.559732E+06  5.643904E+01 -3.442431E+03 -2.486476E-09  2.315548E+03  1.009176E-09
         3  25 -2.559738E+06 -8.395126E+02 -1.008338E+04  7.378693E+01  7.991971E+03  9.536257E-04
         3  26 -2.559423E+06  1.126596E+02 -5.710132E+03 -6.460010E+01  5.153744E+03 -5.383956E-04
         3  27 -2.559732E+06  5.643912E+01 -3.442431E+03 -2.029847E+02  2.315548E+03 -7.600831E-04
         4   1 -2.559626E+06 -4.652573E+01 -2.748551E+03  4.407925E+01 -1.759731E+03 -1.254360E-04
         4   2 -2.559553E+06  2.284668E+01 -1.913448E+03  2.299987E+01 -8.138370E+02 -3.027010E-05
         4   3 -2.559625E+06  5.804663E+00 -1.717679E+03  1.920197E+00  1.320719E+02  4.114337E-07
         4   4 -2.559626E+06 -4.652574E+01 -2.748551E+03  6.795362E-09 -1.759731E+03  7.210140E-10
         4   5 -2.559553E+06  2.284667E+01 -1.913448E+03  7.641188E-09 -8.138370E+02 -1.091694E-10
         4   6 -2.559625E+06  5.804663E+00 -1.717679E+03  4.429435E-09  1.320719E+02  1.201225E-09
         4   7 -2.559626E+06 -4.652573E+01 -2.748551E+03 -4.407925E+01 -1.759731E+03  1.254376E-04
         4   8 -2.559553E+06  2.284668E+01 -1.913448E+03 -2.299987E+01 -8.138370E+02  3.026941E-05
         4   9 -2.559625E+06  5.804663E+00 -1.717679E+03 -1.920197E+00  1.320719E+02 -4.089957E-07
         4  10 -2.559626E+06 -4.652657E+01 -2.748557E+03  4.407925E+01  2.556020E-09  5.338895E-10
         4  11 -2.559553E+06  2.284650E+01 -1.913449E+03  2.299987E+01  1.366423E-09 -1.080762E-09
         4  12 -2.559625E+06  5.804659E+00 -1.717679E+03  1.920197E+00 -1.506172E-09  5.579170E-11
         4  13 -2.559626E+06 -4.652657E+01 -2.748557E+03 -1.078161E-08 -1.191540E-09  8.073889E-10
         4  14 -2.559553E+06  2.284650E+01 -1.913449E+03  9.774022E-09  1.156804E-10 -6.966614E-10
         4  15 -2.559625E+06  5.804659E+00 -1.717679E+03 -8.619959E-10  2.920829E-09  2.486327E-10
         4  16 -2.559626E+06 -4.652657E+01 -2.748557E+03 -4.407925E+01 -1.579047E-09  1.213974E-09
         4  17 -2.559553E+06  2.284650E+01 -1.913449E+03 -2.299987E+01 -3.269415E-09 -4.367831E-11
         4  18 -2.559625E+06  5.804659E+00 -1.717679E+03 -1.920197E+00  5.184716E-09  5.168897E-10
         4  19 -2.559626E+06 -4.652573E+01 -2.748551E+03  4.407925E+01  1.759731E+03  1.254370E-04
         4  20 -2.559553E+06  2.284668E+01 -1.913448E+03  2.299987E+01  8.138370E+02  3.026829E-05
         4  21 -2.559625E+06  5.804663E+00 -1.717679E+03  1.920197E+00 -1.320719E+02 -4.113081E-07
         4  22 -2.559626E+06 -4.652574E+01 -2.748551E+03  3.936231E-09  1.759731E+03  8.819898E-10
         4  23 -2.559553E+06  2.284667E+01 -1.913448E+03  7.578213E-09  8.138370E+02 -1.408979E-09
         4  24 -2.559625E+06  5.804663E+00 -1.717679E+03  1.364299E-08 -1.320719E+02 -7.522032E-10
         4  25 -2.559626E+06 -4.652573E+01 -2.748551E+03 -4.407925E+01  1.759731E+03 -1.254354E-04
         4  26 -2.559553E+06  2.284668E+01 -1.913448E+03 -2.299987E+01  8.138370E+02 -3.027096E-05
         4  27 -2.559625E+06  5.804663E+00 -1.717679E+03 -1.920197E+00 -1.320719E+02  4.095615E-07
         5   1 -2.559635E+06  8.072182E+00 -1.818487E+03 -2.738757E+01  4.514207E+02 -1.999095E-05
         5   2 -2.559541E+06  3.011461E+01 -2.459248E+03 -5.107800E+01  1.667404E+03 -1.377263E-04
         5   3 -2.559637E+06 -7.159132E+01 -3.925053E+03 -7.476846E+01  2.883385E+03 -3.486311E-04
         5   4 -2.559635E+06  8.072180E+00 -1.818487E+03 -1.526308E-09  4.514207E+02  1.752020E-09
         5   5 -2.559541E+06  3.011461E+01 -2.459248E+03 -8.096820E-09  1.667404E+03  8.629540E-10
         5   6 -2.559637E+06 -7.159133E+01 -3.925053E+03 -1.437109E-08  2.883385E+03 -6.327981E-10
         5   7 -2.559635E+06  8.072182E+00 -1.818487E+03  2.738757E+01  4.514207E+02  1.999444E-05
         5   8 -2.559541E+06  3.011461E+01 -2.459248E+03  5.107800E+01  1.667404E+03  1.377272E-04
         5   9 -2.559637E+06 -7.159132E+01 -3.925053E+03  7.476846E+01  2.883385E+03  3.486302E-04
         5  10 -2.559635E+06  8.072127E+00 -1.818487E+03 -2.738757E+01  4.849938E-10  9.568480E-10
         5  11 -2.559541E+06  3.011386E+01 -2.459253E+03 -5.107800E+01  1.123959E-09  5.145989E-10
         5  12 -2.559637E+06 -7.159356E+01 -3.925068E+03 -7.476846E+01  8.293927E-10 -9.734186E-10
         5  13 -2.559635E+06  8.072125E+00 -1.818487E+03  2.636503E-09  2.349486E-09  7.997331E-10
         5  14 -2.559541E+06  3.011386E+01 -2.459253E+03 -1.677720E-08 -9.601856E-10  2.705578E-10
         5  15 -2.559637E+06 -7.159357E+01 -3.925068E+03 -9.294317E-09  2.842007E-10 -9.319860E-11
         5  16 -2.559635E+06  8.072127E+00 -1.818487E+03  2.738757E+01  1.171718E-09  6.361037E-10
         5  17 -2.559541E+06  3.011386E+01 -2.459253E+03  5.107800E+01 -5.739033E-10  2.238212E-10
         5  18 -2.559637E+06 -7.159356E+01 -3.925068E+03  7.476846E+01  1.154465E-09  8.643686E-10
         5  19 -2.559635E+06  8.072182E+00 -1.818487E+03 -2.738757E+01 -4.514207E+02  1.999296E-05
         5  20 -2.559541E+06  3.011461E+01 -2.459248E+03 -5.107800E+01 -1.667404E+03  1.377271E-04
         5  21 -2.559637E+06 -7.159132E+01 -3.925053E+03 -7.476846E+01 -2.883385E+03  3.486300E-04
         5  22 -2.559635E+06  8.072180E+00 -1.818487E+03  1.118254E-08 -4.514207E+02 -1.261598E-10
         5  23 -2.559541E+06  3.011461E+01 -2.459248E+03 -8.237463E-09 -1.667404E+03 -3.009169E-10
         5  24 -2.559637E+06 -7.159133E+01 -3.925053E+03 -7.239150E-09 -2.883385E+03  3.605456E-10
         5  25 -2.559635E+06  8.072182E+00 -1.818487E+03  2.738757E+01 -4.514207E+02 -1.999361E-05
         5  26 -2.559541E+06  3.011461E+01 -2.459248E+03  5.107800E+01 -1.667404E+03 -1.377279E-04
         5  27 -2.559637E+06 -7.159132E+01 -3.925053E+03  7.476846E+01 -2.883385E+03 -3.486297E-04
         6   1 -2.559804E+06  8.451565E+01 -5.045134E+03 -3.157591E+02  3.688322E+03 -1.883343E-03
         6   2 -2.559337E+06  1.705037E+02 -8.583386E+03 -1.025537E+02  7.955165E+03 -1.319303E-03
         6   3 -2.559812E+06 -1.278671E+03 -1.529184E+04  1.106493E+02  1.222192E+04  2.186916E-03
         6   4 -2.559804E+06  8.451546E+01 -5.045134E+03 -7.396332E-09  3.688322E+03 -6.702940E-10
         6   5 -2.559337E+06  1.705037E+02 -8.583386E+03 -4.912580E-09  7.955165E+03  4.274178E-11
         6   6 -2.559812E+06 -1.278671E+03 -1.529184E+04  7.541844E-09  1.222192E+04 -5.322769E-10
         6   7 -2.559804E+06  8.451565E+01 -5.045134E+03  3.157591E+02  3.688322E+03  1.883342E-03
         6   8 -2.559337E+06  1.705037E+02 -8.583386E+03  1.025537E+02  7.955165E+03  1.319303E-03
         6   9 -2.559812E+06 -1.278671E+03 -1.529184E+04 -1.106493E+02  1.222192E+04 -2.186917E-03
         6  10 -2.559804E+06  8.451198E+01 -5.045160E+03 -3.157591E+02 -1.152056E-09 -9.446286E-10
         6  11 -2.559337E+06  1.704867E+02 -8.583505E+03 -1.025537E+02 -8.159176E-10  3.006599E-12
         6  12 -2.559812E+06 -1.278711E+03 -1.529212E+04  1.106493E+02 -1.934660E-09 -3.281829E-10
         6  13 -2.559804E+06  8.451179E+01 -5.045160E+03 -5.240403E-09  7.438762E-10 -1.178383E-10
         6  14 -2.559337E+06  1.704866E+02 -8.583505E+03 -1.136988E-08 -8.027352E-10 -6.324296E-11
         6  15 -2.559812E+06 -1.278711E+03 -1.529212E+04  4.017989E-09 -1.735521E-10 -2.744826E-10
         6  16 -2.559804E+06  8.451198E+01 -5.045160E+03  3.157591E+02 -5.827683E-12  5.373190E-10
         6  17 -2.559337E+06  1.704867E+02 -8.583505E+03  1.025537E+02  5.846959E-10 -1.314037E-10
         6  18 -2.559812E+06 -1.278711E+03 -1.529212E+04 -1.106493E+02 -4.837786E-11 -2.211172E-10
         6  19 -2.559804E+06  8.451565E+01 -5.045134E+03 -3.157591E+02 -3.688322E+03  1.883342E-03
         6  20 -2.559337E+06  1.705037E+02 -8.583386E+03 -1.025537E+02 -7.955165E+03  1.319304E-03
         6  21 -2.559812E+06 -1.278671E+03 -1.529184E+04  1.106493E+02 -1.222192E+04 -2.186916E-03
         6  22 -2.559804E+06  8.451546E+01 -5.045134E+03  3.435786E-09 -3.688322E+03  3.411167E-10
         6  23 -2.559337E+06  1.705037E+02 -8.583386E+03  3.681759E-09 -7.955165E+03 -1.441546E-10
         6  24 -2.559812E+06 -1.278671E+03 -1.529184E+04  1.173617E-08 -1.222192E+04 -7.694014E-11
         6  25 -2.559804E+06  8.451565E+01 -5.045134E+03  3.157591E+02 -3.688322E+03 -1.883341E-03
         6  26 -2.559337E+06  1.705037E+02 -8.583386E+03  1.025537E+02 -7.955165E+03 -1.319304E-03
         6  27 -2.559812E+06 -1.278671E+03 -1.529184E+04 -1.106493E+02 -1.222192E+04  2.186916E-03
         7   1 -2.561211E+06  1.031302E+03 -1.978898E+04 -3.061439E+03  1.530120E+04 -7.575234E-02
         7   2 -2.557606E+06  1.500822E+03 -3.393950E+04  1.521628E+03  3.246010E+04  7.987311E-02
         7   3 -2.561253E+06 -1.804472E+04 -6.429771E+04  6.104800E+03  4.961893E+04  4.898487E-01
         7   4 -2.561211E+06  1.031285E+03 -1.978898E+04  5.034111E-09  1.530120E+04  3.505434E-11
         7   5 -2.557606E+06  1.500818E+03 -3.393950E+04 -2.531796E-09  3.246010E+04  1.217437E-09
         7   6 -2.561253E+06 -1.804479E+04 -6.429772E+04  1.757852E-09  4.961893E+04 -8.680444E-10
         7   7 -2.561211E+06  1.031302E+03 -1.978898E+04  3.061439E+03  1.530120E+04  7.575234E-02
         7   8 -2.557606E+06  1.500822E+03 -3.393950E+04 -1.521628E+03  3.246010E+04 -7.987310E-02
         7   9 -2.561253E+06 -1.804472E+04 -6.429771E+04 -6.104800E+03  4.961893E+04 -4.898487E-01
         7  10 -2.561211E+06  1.031239E+03 -1.978942E+04 -3.061439E+03 -6.261350E-10 -5.927639E-11
         7  11 -2.557607E+06  1.500538E+03 -3.394149E+04  1.521628E+03  5.496182E-10  3.321805E-10
         7  12 -2.561256E+06 -1.804538E+04 -6.430236E+04  6.104800E+03  7.484187E-10 -1.421448E-09
         7  13 -2.561211E+06  1.031221E+03 -1.978942E+04 -1.351846E-09  1.373641E-09 -9.475749E-11
         7  14 -2.557607E+06  1.500533E+03 -3.394149E+04  6.041621E-09 -6.532291E-10  2.138532E-10
         7  15 -2.561256E+06 -1.804545E+04 -6.430237E+04  5.497654E-10 -1.570473E-09 -5.308754E-10
         7  16 -2.561211E+06  1.031239E+03 -1.978942E+04  3.061439E+03  2.104203E-11  1.713861E-10
         7  17 -2.557607E+06  1.500538E+03 -3.394149E+04 -1.521628E+03  1.352414E-09 -2.060994E-10
         7  18 -2.561256E+06 -1.804538E+04 -6.430236E+04 -6.104800E+03  6.636522E-10  3.030934E-10
         7  19 -2.561211E+06  1.031302E+03 -1.978898E+04 -3.061439E+03 -1.530120E+04  7.575234E-02
         7  20 -2.557606E+06  1.500822E+03 -3.393950E+04  1.521628E+03 -3.246010E+04 -7.987310E-02
         7  21 -2.561253E+06 -1.804472E+04 -6.429771E+04  6.104800E+03 -4.961893E+04 -4.898487E-01
         7  22 -2.561211E+06  1.031285E+03 -1.978898E+04  9.321450E-10 -1.530120E+04 -2.223572E-10
         7  23 -2.557606E+06  1.500818E+03 -3.393950E+04  1.708738E-09 -3.246010E+04 -8.907190E-10
         7  24 -2.561253E+06 -1.804479E+04 -6.429772E+04 -7.234231E-10 -4.961893E+04 -1.696047E-10
         7  25 -2.561211E+06  1.031302E+03 -1.978898E+04  3.061439E+03 -1.530120E+04 -7.575234E-02
         7  26 -2.557606E+06  1.500822E+03 -3.393950E+04 -1.521628E+03 -3.246010E+04  7.987310E-02
         7  27 -2.561253E+06 -1.804472E+04 -6.429771E+04 -6.104800E+03 -4.961893E+04  4.898487E-01
         8   1 -2.576150E+06  1.322169E+04 -7.986466E+04 -3.543535E+04  6.138962E+04 -3.517915E+00
         8   2 -2.539018E+06  1.670527E+04 -1.323257E+05  3.153538E+04  1.320743E+05  6.735091E+00
         8   3 -2.576454E+06 -2.408917E+05 -2.962003E+05  9.850129E+04  2.027600E+05  3.229714E+01
         8   4 -2.576152E+06  1.321933E+04 -7.986500E+04  1.109092E-08  6.138962E+04 -1.236243E-09
         8   5 -2.539019E+06  1.670339E+04 -1.323259E+05  8.528317E-09  1.320743E+05  6.593946E-10
         8   6 -2.576464E+06 -2.409100E+05 -2.962029E+05  1.680966E-09  2.027600E+05  3.683833E-10
         8   7 -2.576150E+06  1.322169E+04 -7.986466E+04  3.543535E+04  6.138962E+04  3.517915E+00
         8   8 -2.539018E+06  1.670527E+04 -1.323257E+05 -3.153538E+04  1.320743E+05 -6.735091E+00
         8   9 -2.576454E+06 -2.408917E+05 -2.962003E+05 -9.850129E+04  2.027600E+05 -3.229714E+01
         8  10 -2.576154E+06  1.322068E+04 -7.987178E+04 -3.543535E+04 -2.730501E-10 -1.487705E-09
         8  11 -2.539037E+06  1.670056E+04 -1.323586E+05  3.153538E+04  4.645705E-10  7.084164E-10
         8  12 -2.576498E+06 -2.409028E+05 -2.962779E+05  9.850129E+04  7.976415E-10  4.853921E-10
         8  13 -2.576156E+06  1.321831E+04 -7.987211E+04  1.334354E-08 -1.142949E-09 -6.023223E-10
         8  14 -2.539038E+06  1.669869E+04 -1.323589E+05  4.270658E-09  1.189458E-09  6.862674E-11
         8  15 -2.576508E+06 -2.409211E+05 -2.962805E+05 -2.200293E-08  2.067914E-10  1.181584E-10
         8  16 -2.576154E+06  1.322068E+04 -7.987178E+04  3.543535E+04 -4.922089E-10  4.248148E-10
         8  17 -2.539037E+06  1.670056E+04 -1.323586E+05 -3.153538E+04 -3.226101E-09 -5.245073E-10
         8  18 -2.576498E+06 -2.409028E+05 -2.962779E+05 -9.850129E+04 -2.241303E-09 -2.268763E-10
         8  19 -2.576150E+06  1.322169E+04 -7.986466E+04 -3.543535E+04 -6.138962E+04  3.517915E+00
         8  20 -2.539018E+06  1.670527E+04 -1.323257E+05  3.153538E+04 -1.320743E+05 -6.735091E+00
         8  21 -2.576454E+06 -2.408917E+05 -2.962003E+05  9.850129E+04 -2.027600E+05 -3.229714E+01
         8  22 -2.576152E+06  1.321933E+04 -7.986500E+04  2.750363E-09 -6.138962E+04 -2.320368E-12
         8  23 -2.539019E+06  1.670339E+04 -1.323259E+05 -1.718938E-08 -1.320743E+05 -4.636764E-10
         8  24 -2.576464E+06 -2.409100E+05 -2.962029E+05 -6.433571E-09 -2.027600E+05 -9.527186E-11
         8  25 -2.576150E+06  1.322169E+04 -7.986466E+04  3.543535E+04 -6.138962E+04 -3.517915E+00
         8  26 -2.539018E+06  1.670527E+04 -1.323257E+05 -3.153538E+04 -1.320743E+05  6.735091E+00
         8  27 -2.576454E+06 -2.408917E+05 -2.962003E+05 -9.850129E+04 -2.027600E+05  3.229714E+01
         9   1  1.939223E+06  6.487904E+06  1.882276E+06 -1.172872E+06  8.860078E+04  6.384156E+05
         9   2  1.472032E+06  5.409963E+06  1.285018E+06 -9.925764E+05  2.881991E+05  2.932644E+05
         9   3  1.179954E+06  4.424243E+06  9.554584E+05 -1.034749E+06  3.176528E+05 -5.121010E+04
         9   4  2.045962E+05 -5.529965E+05  2.264088E+05 -1.032750E+06  8.978194E+04  1.568871E+05
         9   5  4.378368E+04 -5.720382E+05  1.100644E+05 -9.218303E+05  2.890352E+05  1.008712E+05
         9   6  9.087078E+03 -5.491054E+05  6.232198E+04 -1.033341E+06  3.174691E+05  4.489050E+04
         9   7 -1.533369E+06 -7.548027E+06 -1.431995E+06 -8.941565E+05  9.075783E+04 -3.192623E+05
         9   8 -1.386589E+06 -6.519847E+06 -1.066487E+06 -8.517281E+05  2.898334E+05 -8.972308E+04
         9   9 -1.163150E+06 -5.498430E+06 -8.317371E+05 -1.031902E+06  3.172847E+05  1.402459E+05
         9  10  1.939106E+06  6.487468E+06  1.881503E+06 -1.172917E+06 -3.914218E-10  6.008225E-10
         9  11  1.471920E+06  5.409849E+06  1.284701E+06 -9.926443E+05 -3.354068E-10 -2.059823E-10
         9  12  1.179845E+06  4.424213E+06  9.552641E+05 -1.034736E+06 -2.033218E-09 -5.267975E-10
         9  13  2.045809E+05 -5.530251E+05  2.263473E+05 -1.032761E+06  1.224768E-09 -1.778357E-11
         9  14  4.369120E+04 -5.720716E+05  1.098882E+05 -9.218538E+05 -4.017169E-09 -1.675188E-11
         9  15  8.978307E+03 -5.491346E+05  6.212874E+04 -1.033352E+06  2.551715E-09 -1.277578E-11
         9  16 -1.533406E+06 -7.548140E+06 -1.432204E+06 -8.941331E+05  6.774115E-10 -7.473490E-10
         9  17 -1.386681E+06 -6.519878E+06 -1.066660E+06 -8.517071E+05  2.179967E-09  1.049757E-10
         9  18 -1.163264E+06 -5.498478E+06 -8.319638E+05 -1.031938E+06  1.541056E-09  4.571569E-10
         9  19  1.939223E+06  6.487904E+06  1.882276E+06 -1.172872E+06 -8.860078E+04 -6.384156E+05
         9  20  1.472032E+06  5.409963E+06  1.285018E+06 -9.925764E+05 -2.881991E+05 -2.932644E+05
         9  21  1.179954E+06  4.424243E+06  9.554584E+05 -1.034749E+06 -3.176528E+05  5.121010E+04
         9  22  2.045962E+05 -5.529965E+05  2.264088E+05 -1.032750E+06 -8.978194E+04 -1.568871E+05
         9  23  4.378368E+04 -5.720382E+05  1.100644E+05 -9.218303E+05 -2.890352E+05 -1.008712E+05
         9  24  9.087078E+03 -5.491054E+05  6.232198E+04 -1.033341E+06 -3.174691E+05 -4.489050E+04
         9  25 -1.533369E+06 -7.548027E+06 -1.431995E+06 -8.941565E+05 -9.075783E+04  3.192623E+05
         9  26 -1.386589E+06 -6.519847E+06 -1.066487E+06 -8.517281E+05 -2.898334E+05  8.972308E+04
         9  27 -1.163150E+06 -5.498430E+06 -8.317371E+05 -1.031902E+06 -3.172847E+05 -1.402459E+05
        10   1  1.023192E+06  3.734646E+06  8.117048E+05 -1.052936E+06  2.811022E+05 -4.040331E+04
        10   2  7.708315E+05  2.699522E+06  5.922680E+05 -9.310140E+05  2.289569E+05 -7.777012E+04
        10   3  5.318639E+05  1.672859E+06  4.001695E+05 -1.042594E+06  1.633704E+05 -1.152719E+05
        10   4  1.387725E+04 -5.564473E+05  4.828910E+04 -1.035763E+06  2.809094E+05  3.641306E+04
        10   5  7.693825E+03 -5.571112E+05  2.916526E+04 -9.189924E+05  2.285444E+05  2.176278E+04
        10   6  1.105534E+04 -5.542434E+05  2.171411E+04 -1.035794E+06  1.627013E+05  6.918279E+03
        10   7 -9.964497E+05 -4.829615E+06 -7.157981E+05 -1.018677E+06  2.807200E+05  1.127155E+05
        10   8 -7.560087E+05 -3.803343E+06 -5.342669E+05 -9.070156E+05  2.281343E+05  1.207911E+05
        10   9 -5.100079E+05 -2.776440E+06 -3.568473E+05 -1.029009E+06  1.620334E+05  1.286850E+05
        10  10  1.023107E+06  3.734623E+06  8.115534E+05 -1.052927E+06 -1.899834E-09 -1.911680E-09
        10  11  7.707736E+05  2.699502E+06  5.921583E+05 -9.309998E+05 -2.107309E-09  8.970368E-09
        10  12  5.318317E+05  1.672838E+06  4.000946E+05 -1.042579E+06 -2.530979E-09  1.847731E-08
        10  13  1.379216E+04 -5.564699E+05  4.813828E+04 -1.035771E+06  1.581947E-09  8.496375E-11
        10  14  7.637614E+03 -5.571258E+05  2.906620E+04 -9.189964E+05  1.416479E-09  1.985459E-10
        10  15  1.102690E+04 -5.542506E+05  2.166428E+04 -1.035795E+06  1.282437E-10  3.138443E-11
        10  16 -9.965379E+05 -4.829650E+06 -7.159705E+05 -1.018703E+06  2.367622E-09  2.195188E-09
        10  17 -7.560686E+05 -3.803373E+06 -5.343925E+05 -9.070379E+05  3.351411E-09 -9.053163E-09
        10  18 -5.100406E+05 -2.776465E+06 -3.569281E+05 -1.029026E+06 -1.310600E-09 -1.845888E-08
        10  19  1.023192E+06  3.734646E+06  8.117048E+05 -1.052936E+06 -2.811022E+05  4.040331E+04
        10  20  7.708315E+05  2.699522E+06  5.922680E+05 -9.310140E+05 -2.289569E+05  7.777012E+04
        10  21  5.318639E+05  1.672859E+06  4.001695E+05 -1.042594E+06 -1.633704E+05  1.152719E+05
        10  22  1.387725E+04 -5.564473E+05  4.828910E+04 -1.035763E+06 -2.809094E+05 -3.641306E+04
        10  23  7.693825E+03 -5.571112E+05  2.916526E+04 -9.189924E+05 -2.285444E+05 -2.176278E+04
        10  24  1.105534E+04 -5.542434E+05  2.171411E+04 -1.035794E+06 -1.627013E+05 -6.918279E+03
        10  25 -9.964497E+05 -4.829615E+06 -7.157981E+05 -1.018677E+06 -2.807200E+05 -1.127155E+05
        10  26 -7.560087E+05 -3.803343E+06 -5.342669E+05 -9.070156E+05 -2.281343E+05 -1.207911E+05
        10  27 -5.100079E+05 -2.776440E+06 -3.568473E+05 -1.029009E+06 -1.620334E+05 -1.286850E+05
        11   1  3.735857E+05  9.994997E+05  2.783460E+05 -1.043400E+06  1.197147E+05 -1.194531E+05
        11   2  1.362504E+05 -3.030669E+04  9.404866E+04 -9.109060E+05  5.582051E+04 -1.006300E+05
        11   3 -8.394573E+04 -1.059597E+06 -9.892661E+04 -1.011765E+06  1.028716E+04 -8.180149E+04
        11   4  1.143731E+04 -5.534651E+05  2.033519E+04 -1.035757E+06  1.189918E+05  3.217854E+03
        11   5  1.707517E+04 -5.556906E+05  2.304895E+04 -9.190035E+05  5.526572E+04 -8.893185E+03
        11   6  4.526811E+04 -5.530954E+05  3.854426E+04 -1.035583E+06  9.905639E+03 -2.096738E+04
        11   7 -3.508281E+05 -2.104017E+06 -2.376921E+05 -1.028129E+06  1.182708E+05  1.255926E+05
        11   8 -1.021071E+05 -1.080775E+06 -4.792166E+04 -9.270933E+05  5.470823E+04  8.276959E+04
        11   9  1.744649E+05 -4.635756E+04  1.760076E+05 -1.059420E+06  9.519628E+03  3.991685E+04
        11  10  3.735665E+05  9.994806E+05  2.782924E+05 -1.043388E+06 -3.604986E-09 -2.283998E-08
        11  11  1.362443E+05 -3.031839E+04  9.402381E+04 -9.109014E+05 -1.097066E-09 -9.544511E-09
        11  12 -8.394765E+04 -1.059604E+06 -9.893940E+04 -1.011764E+06 -4.938758E-10  5.010162E-09
        11  13  1.142210E+04 -5.534689E+05  2.030857E+04 -1.035757E+06 -3.377441E-09 -4.864659E-11
        11  14  1.707187E+04 -5.556915E+05  2.304306E+04 -9.190031E+05 -4.353323E-09  1.519388E-10
        11  15  4.526789E+04 -5.530959E+05  3.854325E+04 -1.035583E+06  1.863206E-10  3.590799E-11
        11  16 -3.508474E+05 -2.104037E+06 -2.377482E+05 -1.028141E+06 -2.632151E-09  2.282977E-08
        11  17 -1.021122E+05 -1.080783E+06 -4.794021E+04 -9.270969E+05 -1.611539E-09  9.778588E-09
        11  18  1.744644E+05 -4.635929E+04  1.760044E+05 -1.059420E+06  4.236360E-10 -4.812592E-09
        11  19  3.735857E+05  9.994997E+05  2.783460E+05 -1.043400E+06 -1.197147E+05  1.194531E+05
        11  20  1.362504E+05 -3.030669E+04  9.404866E+04 -9.109060E+05 -5.582051E+04  1.006300E+05
        11  21 -8.394573E+04 -1.059597E+06 -9.892661E+04 -1.011765E+06 -1.028716E+04  8.180149E+04
        11  22  1.143731E+04 -5.534651E+05  2.033519E+04 -1.035757E+06 -1.189918E+05 -3.217854E+03
        11  23  1.707517E+04 -5.556906E+05  2.304895E+04 -9.190035E+05 -5.526572E+04  8.893185E+03
        11  24  4.526811E+04 -5.530954E+05  3.854426E+04 -1.035583E+06 -9.905639E+03  2.096738E+04
        11  25 -3.508281E+05 -2.104017E+06 -2.376921E+05 -1.028129E+06 -1.182708E+05 -1.255926E+05
        11  26 -1.021071E+05 -1.080775E+06 -4.792166E+04 -9.270933E+05 -5.470823E+04 -8.276959E+04
        11  27  1.744649E+05 -4.635756E+04  1.760076E+05 -1.059420E+06 -9.519628E+03 -3.991685E+04
        12   1 -3.403099E+06 -9.465831E+05 -4.836671E+05 -1.285861E+06 -2.809136E+05 -1.028123E+05
        12   2 -3.336006E+06 -5.176101E+05 -2.210532E+05 -1.302547E+06 -1.789433E+05 -6.014577E+04
        12   3 -3.402362E+06 -4.654579E+05 -1.345062E+05 -1.244814E+06 -7.498200E+04 -2.276623E+04
        12   4 -3.310625E+06 -7.872536E+05 -4.341499E+05 -1.132625E+06 -2.765185E+05 -1.012357E+05
        12   5 -3.220984E+06 -4.356190E+05 -1.844280E+05 -1.231027E+06 -1.781072E+05 -5.984652E+04
        12   6 -3.264058E+06 -4.600870E+05 -1.079212E+05 -1.255027E+06 -7.770061E+04 -2.377818E+04
        12   7 -3.218105E+06 -6.278261E+05 -3.846257E+05 -9.793528E+05 -2.721228E+05 -9.965653E+04
        12   8 -3.105945E+06 -3.536128E+05 -1.478035E+05 -1.159492E+06 -1.772709E+05 -5.954708E+04
        12   9 -3.125731E+06 -4.547123E+05 -8.133549E+04 -1.265245E+06 -8.041990E+04 -2.478987E+04
        12  10 -3.403187E+06 -9.466159E+05 -4.838363E+05 -1.285885E+06 -8.028742E-10 -6.238327E-10
        12  11 -3.336041E+06 -5.176227E+05 -2.211206E+05 -1.302555E+06  1.361892E-09 -5.306766E-10
        12  12 -3.402368E+06 -4.654600E+05 -1.345178E+05 -1.244816E+06  5.787622E-10  1.001042E-09
        12  13 -3.310711E+06 -7.872853E+05 -4.343138E+05 -1.132648E+06 -1.273047E-09 -3.743680E-10
        12  14 -3.221019E+06 -4.356314E+05 -1.844947E+05 -1.231036E+06 -2.744361E-09 -1.373590E-09
        12  15 -3.264065E+06 -4.600893E+05 -1.079336E+05 -1.255029E+06 -4.843360E-09 -1.620580E-09
        12  16 -3.218187E+06 -6.278568E+05 -3.847845E+05 -9.793747E+05  1.437999E-10 -8.471257E-11
        12  17 -3.105980E+06 -3.536251E+05 -1.478696E+05 -1.159501E+06 -1.114814E-08 -2.115336E-09
        12  18 -3.125738E+06 -4.547147E+05 -8.134887E+04 -1.265246E+06 -6.537711E-09 -4.277190E-09
        12  19 -3.403099E+06 -9.465831E+05 -4.836671E+05 -1.285861E+06  2.809136E+05  1.028123E+05
        12  20 -3.336006E+06 -5.176101E+05 -2.210532E+05 -1.302547E+06  1.789433E+05  6.014577E+04
        12  21 -3.402362E+06 -4.654579E+05 -1.345062E+05 -1.244814E+06  7.498200E+04  2.276623E+04
        12  22 -3.310625E+06 -7.872536E+05 -4.341499E+05 -1.132625E+06  2.765185E+05  1.012357E+05
        12  23 -3.220984E+06 -4.356190E+05 -1.844280E+05 -1.231027E+06  1.781072E+05  5.984652E+04
        12  24 -3.264058E+06 -4.600870E+05 -1.079212E+05 -1.255027E+06  7.770061E+04  2.377818E+04
        12  25 -3.218105E+06 -6.278261E+05 -3.846257E+05 -9.793528E+05  2.721228E+05  9.965653E+04
        12  26 -3.105945E+06 -3.536128E+05 -1.478035E+05 -1.159492E+06  1.772709E+05  5.954708E+04
        12  27 -3.125731E+06 -4.547123E+05 -8.133549E+04 -1.265245E+06  8.041990E+04  2.478987E+04
        13   1 -3.308003E+06 -5.298008E+05 -1.030540E+05 -1.256657E+06 -6.145832E+04 -1.980716E+04
        13   2 -3.271909E+06 -4.739246E+05 -4.938681E+04 -1.239537E+06 -3.846550E+04 -1.319725E+04
        13   3 -3.233661E+06 -4.641914E+05 -2.050616E+04 -1.234104E+06 -1.536378E+04 -6.871367E+03
        13   4 -3.250038E+06 -4.994788E+05 -8.669380E+04 -1.231953E+06 -6.254587E+04 -2.021579E+04
        13   5 -3.249238E+06 -4.632010E+05 -4.319777E+04 -1.231048E+06 -3.974227E+04 -1.367587E+04
        13   6 -3.246245E+06 -4.730276E+05 -2.433483E+04 -1.241831E+06 -1.683120E+04 -7.421075E+03
        13   7 -3.192070E+06 -4.691554E+05 -7.033387E+04 -1.207247E+06 -6.363353E+04 -2.062450E+04
        13   8 -3.226566E+06 -4.524774E+05 -3.700880E+04 -1.222559E+06 -4.101908E+04 -1.415452E+04
        13   9 -3.258828E+06 -4.818635E+05 -2.816346E+04 -1.249557E+06 -1.829857E+04 -7.970742E+03
        13  10 -3.308007E+06 -5.298023E+05 -1.030619E+05 -1.256658E+06 -9.003438E-09 -2.431611E-09
        13  11 -3.271911E+06 -4.739251E+05 -4.938993E+04 -1.239537E+06 -2.146093E-09 -1.127053E-09
        13  12 -3.233662E+06 -4.641915E+05 -2.050669E+04 -1.234104E+06 -2.038773E-10  3.578741E-10
        13  13 -3.250043E+06 -4.994803E+05 -8.670197E+04 -1.231954E+06 -1.741588E-09 -9.188733E-10
        13  14 -3.249240E+06 -4.632017E+05 -4.320111E+04 -1.231048E+06  1.218625E-09  8.697248E-11
        13  15 -3.246245E+06 -4.730277E+05 -2.433547E+04 -1.241831E+06  2.065894E-10 -6.264294E-10
        13  16 -3.192075E+06 -4.691570E+05 -7.034233E+04 -1.207248E+06  6.005479E-09  8.479695E-10
        13  17 -3.226568E+06 -4.524781E+05 -3.701236E+04 -1.222559E+06  3.280673E-09  1.044643E-09
        13  18 -3.258828E+06 -4.818637E+05 -2.816421E+04 -1.249557E+06  1.213224E-10 -1.906253E-09
        13  19 -3.308003E+06 -5.298008E+05 -1.030540E+05 -1.256657E+06  6.145832E+04  1.980716E+04
        13  20 -3.271909E+06 -4.739246E+05 -4.938681E+04 -1.239537E+06  3.846550E+04  1.319725E+04
        13  21 -3.233661E+06 -4.641914E+05 -2.050616E+04 -1.234104E+06  1.536378E+04  6.871367E+03
        13  22 -3.250038E+06 -4.994788E+05 -8.669380E+04 -1.231953E+06  6.254587E+04  2.021579E+04
        13  23 -3.249238E+06 -4.632010E+05 -4.319777E+04 -1.231048E+06  3.974227E+04  1.367587E+04
        13  24 -3.246245E+06 -4.730276E+05 -2.433483E+04 -1.241831E+06  1.683120E+04  7.421075E+03
        13  25 -3.192070E+06 -4.691554E+05 -7.033387E+04 -1.207247E+06  6.363353E+04  2.062450E+04
        13  26 -3.226566E+06 -4.524774E+05 -3.700880E+04 -1.222559E+06  4.101908E+04  1.415452E+04
        13  27 -3.258828E+06 -4.818635E+05 -2.816346E+04 -1.249557E+06  1.829857E+04  7.970742E+03
        14   1 -3.188403E+06 -4.552782E+05 -4.300475E+03 -1.224799E+06 -1.155071E+04 -6.863221E+03
        14   2 -3.156244E+06 -4.298989E+05  1.430300E+04 -1.205053E+06 -5.742184E+03 -7.025076E+03
        14   3 -3.109568E+06 -4.231046E+05  2.848397E+04 -1.203333E+06  6.531544E+01 -7.182100E+03
        14   4 -3.244801E+06 -4.760707E+05 -1.872139E+04 -1.239811E+06 -1.292727E+04 -7.379059E+03
        14   5 -3.251910E+06 -4.657521E+05 -1.003405E+04 -1.231180E+06 -7.116067E+03 -7.540043E+03
        14   6 -3.244502E+06 -4.740192E+05 -5.770999E+03 -1.240575E+06 -1.306250E+03 -7.696326E+03
        14   7 -3.301196E+06 -4.968632E+05 -3.314269E+04 -1.254822E+06 -1.430371E+04 -7.894852E+03
        14   8 -3.347567E+06 -5.016049E+05 -3.437202E+04 -1.257303E+06 -8.489726E+03 -8.054925E+03
        14   9 -3.379420E+06 -5.249328E+05 -4.002762E+04 -1.277810E+06 -2.677494E+03 -8.210430E+03
        14  10 -3.188404E+06 -4.552783E+05 -4.300817E+03 -1.224799E+06 -4.058583E-09 -2.872789E-10
        14  11 -3.156244E+06 -4.298990E+05  1.430284E+04 -1.205053E+06  3.844999E-10  1.653091E-09
        14  12 -3.109568E+06 -4.231047E+05  2.848388E+04 -1.203333E+06 -8.536402E-10  2.370493E-09
        14  13 -3.244801E+06 -4.760708E+05 -1.872181E+04 -1.239811E+06  2.161029E-09 -2.529927E-10
        14  14 -3.251910E+06 -4.657522E+05 -1.003426E+04 -1.231180E+06  4.526858E-09  2.049978E-09
        14  15 -3.244502E+06 -4.740193E+05 -5.771114E+03 -1.240575E+06  5.664177E-10  1.272635E-09
        14  16 -3.301196E+06 -4.968633E+05 -3.314319E+04 -1.254822E+06  6.062326E-09  5.385575E-10
        14  17 -3.347567E+06 -5.016049E+05 -3.437228E+04 -1.257303E+06  3.196920E-09  2.112682E-09
        14  18 -3.379420E+06 -5.249328E+05 -4.002776E+04 -1.277810E+06 -2.333833E-10  5.593380E-10
        14  19 -3.188403E+06 -4.552782E+05 -4.300475E+03 -1.224799E+06  1.155071E+04  6.863221E+03
        14  20 -3.156244E+06 -4.298989E+05  1.430300E+04 -1.205053E+06  5.742184E+03  7.025076E+03
        14  21 -3.109568E+06 -4.231046E+05  2.848397E+04 -1.203333E+06 -6.531544E+01  7.182100E+03
        14  22 -3.244801E+06 -4.760707E+05 -1.872139E+04 -1.239811E+06  1.292727E+04  7.379059E+03
        14  23 -3.251910E+06 -4.657521E+05 -1.003405E+04 -1.231180E+06  7.116067E+03  7.540043E+03
        14  24 -3.244502E+06 -4.740192E+05 -5.770999E+03 -1.240575E+06  1.306250E+03  7.696326E+03
        14  25 -3.301196E+06 -4.968632E+05 -3.314269E+04 -1.254822E+06  1.430371E+04  7.894852E+03
        14  26 -3.347567E+06 -5.016049E+05 -3.437202E+04 -1.257303E+06  8.489726E+03  8.054925E+03
        14  27 -3.379420E+06 -5.249328E+05 -4.002762E+04 -1.277810E+06  2.677494E+03  8.210430E+03
        15   1 -3.069777E+06 -4.086137E+05  4.005425E+04 -1.192548E+06  1.332395E+03 -8.055560E+03
        15   2 -3.039376E+06 -3.864950E+05  5.112947E+04 -1.173323E+06  3.536755E+03 -9.504507E+03
        15   3 -2.993756E+06 -3.800685E+05  6.106743E+04 -1.171813E+06  5.727791E+03 -1.091525E+04
        15   4 -3.244453E+06 -4.740968E+05 -4.528855E+03 -1.240238E+06 -1.882218E+01 -8.562294E+03
        15   5 -3.252053E+06 -4.661924E+05 -2.970830E+03 -1.231403E+06  2.210582E+03 -1.000212E+04
        15   6 -3.244441E+06 -4.739858E+05 -2.570165E+03 -1.240282E+06  4.426570E+03 -1.140378E+04
        15   7 -3.419098E+06 -5.395774E+05 -4.911409E+04 -1.287916E+06 -1.369611E+03 -9.068868E+03
        15   8 -3.464686E+06 -5.458868E+05 -5.707465E+04 -1.289463E+06  8.849121E+02 -1.049955E+04
        15   9 -3.495065E+06 -5.678993E+05 -6.621301E+04 -1.308725E+06  3.125923E+03 -1.189209E+04
        15  10 -3.069777E+06 -4.086138E+05  4.005413E+04 -1.192548E+06 -1.464319E-09  9.780231E-10
        15  11 -3.039376E+06 -3.864951E+05  5.112927E+04 -1.173323E+06  4.006335E-10 -2.419820E-10
        15  12 -2.993756E+06 -3.800686E+05  6.106715E+04 -1.171813E+06  2.760927E-12 -3.077677E-09
        15  13 -3.244453E+06 -4.740969E+05 -4.528993E+03 -1.240238E+06  4.304672E-09  6.686658E-10
        15  14 -3.252053E+06 -4.661925E+05 -2.971027E+03 -1.231403E+06  7.333974E-09  7.060318E-10
        15  15 -3.244441E+06 -4.739860E+05 -2.570446E+03 -1.240281E+06  3.218345E-09 -1.414592E-09
        15  16 -3.419098E+06 -5.395775E+05 -4.911425E+04 -1.287916E+06  3.383831E-09  3.859820E-10
        15  17 -3.464686E+06 -5.458869E+05 -5.707486E+04 -1.289463E+06  4.259219E-09  1.935385E-09
        15  18 -3.495065E+06 -5.678994E+05 -6.621330E+04 -1.308725E+06  9.751330E-10  6.635925E-10
        15  19 -3.069777E+06 -4.086137E+05  4.005425E+04 -1.192548E+06 -1.332395E+03  8.055560E+03
        15  20 -3.039376E+06 -3.864950E+05  5.112947E+04 -1.173323E+06 -3.536755E+03  9.504507E+03
        15  21 -2.993756E+06 -3.800685E+05  6.106743E+04 -1.171813E+06 -5.727791E+03  1.091525E+04
        15  22 -3.244453E+06 -4.740968E+05 -4.528855E+03 -1.240238E+06  1.882218E+01  8.562294E+03
        15  23 -3.252053E+06 -4.661924E+05 -2.970830E+03 -1.231403E+06 -2.210582E+03  1.000212E+04
        15  24 -3.244441E+06 -4.739858E+05 -2.570165E+03 -1.240282E+06 -4.426570E+03  1.140378E+04
        15  25 -3.419098E+06 -5.395774E+05 -4.911409E+04 -1.287916E+06  1.369611E+03  9.068868E+03
        15  26 -3.464686E+06 -5.458868E+05 -5.707465E+04 -1.289463E+06 -8.849121E+02  1.049955E+04
        15  27 -3.495065E+06 -5.678993E+05 -6.621301E+04 -1.308725E+06 -3.125923E+03  1.189209E+04
        16   1 -2.956600E+06 -3.658189E+05  7.070986E+04 -1.161409E+06  6.555330E+03 -1.187913E+04
        16   2 -2.928354E+06 -3.453398E+05  7.851590E+04 -1.143449E+06  9.081106E+03 -1.306072E+04
        16   3 -2.885998E+06 -3.395550E+05  8.489953E+04 -1.141940E+06  1.158498E+04 -1.418038E+04
        16   4 -3.244690E+06 -4.737388E+05 -2.703602E+03 -1.240013E+06  5.281413E+03 -1.235764E+04
        16   5 -3.251762E+06 -4.665035E+05 -3.741665E+03 -1.231746E+06  7.847625E+03 -1.352444E+04
        16   6 -3.244731E+06 -4.739709E+05 -6.234737E+03 -1.239930E+06  1.039183E+04 -1.462934E+04
        16   7 -3.532698E+06 -5.816530E+05 -7.612350E+04 -1.318584E+06  4.008150E+03 -1.283590E+04
        16   8 -3.575066E+06 -5.876603E+05 -8.600770E+04 -1.320001E+06  6.614850E+03 -1.398790E+04
        16   9 -3.603340E+06 -6.083790E+05 -9.737979E+04 -1.337869E+06  9.199421E+03 -1.507801E+04
        16  10 -2.956600E+06 -3.658190E+05  7.070952E+04 -1.161409E+06  4.281204E-09 -6.559927E-10
        16  11 -2.928355E+06 -3.453400E+05  7.851542E+04 -1.143449E+06 -3.199664E-09  1.402368E-09
        16  12 -2.885998E+06 -3.395553E+05  8.489890E+04 -1.141939E+06 -4.357456E-09  1.517119E-10
        16  13 -3.244690E+06 -4.737390E+05 -2.703941E+03 -1.240013E+06 -1.409759E-09 -1.670289E-09
        16  14 -3.251762E+06 -4.665037E+05 -3.742124E+03 -1.231746E+06 -4.675123E-09 -3.374777E-10
        16  15 -3.244731E+06 -4.739712E+05 -6.235341E+03 -1.239930E+06 -1.774062E-09 -4.326209E-11
        16  16 -3.532698E+06 -5.816532E+05 -7.612384E+04 -1.318584E+06 -9.717753E-09 -3.057422E-09
        16  17 -3.575066E+06 -5.876605E+05 -8.600815E+04 -1.320001E+06 -2.515394E-09 -2.536980E-09
        16  18 -3.603340E+06 -6.083793E+05 -9.738037E+04 -1.337869E+06 -1.496832E-09  8.123930E-10
        16  19 -2.956600E+06 -3.658189E+05  7.070986E+04 -1.161409E+06 -6.555330E+03  1.187913E+04
        16  20 -2.928354E+06 -3.453398E+05  7.851590E+04 -1.143449E+06 -9.081106E+03  1.306072E+04
        16  21 -2.885998E+06 -3.395550E+05  8.489953E+04 -1.141940E+06 -1.158498E+04  1.418038E+04
        16  22 -3.244690E+06 -4.737388E+05 -2.703602E+03 -1.240013E+06 -5.281413E+03  1.235764E+04
        16  23 -3.251762E+06 -4.665035E+05 -3.741665E+03 -1.231746E+06 -7.847625E+03  1.352444E+04
        16  24 -3.244731E+06 -4.739709E+05 -6.234737E+03 -1.239930E+06 -1.039183E+04  1.462934E+04
        16  25 -3.532698E+06 -5.816530E+05 -7.612350E+04 -1.318584E+06 -4.008150E+03  1.283590E+04
        16  26 -3.575066E+06 -5.876603E+05 -8.600770E+04 -1.320001E+06 -6.614850E+03  1.398790E+04
        16  27 -3.603340E+06 -6.083790E+05 -9.737979E+04 -1.337869E+06 -9.199421E+03  1.507801E+04
        17   1 -2.852140E+06 -3.264374E+05  9.195894E+04 -1.132918E+06  1.311846E+04 -1.477304E+04
        17   2 -2.826593E+06 -3.074323E+05  9.359693E+04 -1.116152E+06  2.088306E+04 -1.376573E+04
        17   3 -2.790289E+06 -3.048705E+05  8.899214E+04 -1.113464E+06  2.860232E+04 -1.263322E+04
        17   4 -3.245337E+06 -4.733162E+05 -8.095532E+03 -1.239798E+06  1.195017E+04 -1.521293E+04
        17   5 -3.250931E+06 -4.665882E+05 -1.436084E+04 -1.232199E+06  1.979377E+04 -1.417640E+04
        17   6 -3.245786E+06 -4.763219E+05 -2.693495E+04 -1.238679E+06  2.759160E+04 -1.301480E+04
        17   7 -3.638382E+06 -6.201852E+05 -1.081625E+05 -1.346617E+06  1.078270E+04 -1.565252E+04
        17   8 -3.675091E+06 -6.257320E+05 -1.223330E+05 -1.348173E+06  1.870529E+04 -1.458677E+04
        17   9 -3.701078E+06 -6.477587E+05 -1.428784E+05 -1.363809E+06  2.658169E+04 -1.339607E+04
        17  10 -2.852141E+06 -3.264377E+05  9.195821E+04 -1.132918E+06 -1.635723E-09  1.584429E-10
        17  11 -2.826593E+06 -3.074327E+05  9.359575E+04 -1.116152E+06 -2.246469E-09  5.078986E-10
        17  12 -2.790290E+06 -3.048709E+05  8.899030E+04 -1.113464E+06  6.084335E-10 -9.739886E-11
        17  13 -3.245337E+06 -4.733165E+05 -8.096235E+03 -1.239798E+06  4.586052E-10  1.574778E-10
        17  14 -3.250931E+06 -4.665885E+05 -1.436195E+04 -1.232199E+06 -1.306630E-09  2.567465E-11
        17  15 -3.245787E+06 -4.763223E+05 -2.693671E+04 -1.238679E+06 -1.188587E-09  3.106216E-10
        17  16 -3.638382E+06 -6.201855E+05 -1.081632E+05 -1.346617E+06 -8.070679E-10  1.099115E-10
        17  17 -3.675091E+06 -6.257323E+05 -1.223340E+05 -1.348173E+06 -4.596372E-10 -2.345176E-10
        17  18 -3.701078E+06 -6.477591E+05 -1.428801E+05 -1.363809E+06  1.830389E-09  7.657114E-10
        17  19 -2.852140E+06 -3.264374E+05  9.195894E+04 -1.132918E+06 -1.311846E+04  1.477304E+04
        17  20 -2.826593E+06 -3.074323E+05  9.359693E+04 -1.116152E+06 -2.088306E+04  1.376573E+04
        17  21 -2.790289E+06 -3.048705E+05  8.899214E+04 -1.113464E+06 -2.860232E+04  1.263322E+04
        17  22 -3.245337E+06 -4.733162E+05 -8.095532E+03 -1.239798E+06 -1.195017E+04  1.521293E+04
        17  23 -3.250931E+06 -4.665882E+05 -1.436084E+04 -1.232199E+06 -1.979377E+04  1.417640E+04
        17  24 -3.245786E+06 -4.763219E+05 -2.693495E+04 -1.238679E+06 -2.759160E+04  1.301480E+04
        17  25 -3.638382E+06 -6.201852E+05 -1.081625E+05 -1.346617E+06 -1.078270E+04  1.565252E+04
        17  26 -3.675091E+06 -6.257320E+05 -1.223330E+05 -1.348173E+06 -1.870529E+04  1.458677E+04
        17  27 -3.701078E+06 -6.477587E+05 -1.428784E+05 -1.363809E+06 -2.658169E+04  1.339607E+04
        18   1 -2.758265E+06 -2.934808E+05  8.864754E+04 -1.113041E+06  3.414070E+04 -1.168551E+04
        18   2 -2.736396E+06 -2.686835E+05  6.816418E+04 -1.089557E+06  6.593429E+04 -1.233446E+03
        18   3 -2.723509E+06 -2.977057E+05  1.272970E+04 -1.068490E+06  9.736606E+04  1.018542E+04
        18   4 -3.248322E+06 -4.714609E+05 -3.504167E+04 -1.241054E+06  3.291081E+04 -1.214955E+04
        18   5 -3.246526E+06 -4.635393E+05 -6.229147E+04 -1.232690E+06  6.532684E+04 -1.464290E+03
        18   6 -3.253852E+06 -5.095867E+05 -1.250103E+05 -1.226742E+06  9.737974E+04  1.018654E+04
        18   7 -3.738146E+06 -6.494300E+05 -1.587506E+05 -1.368978E+06  3.168197E+04 -1.261322E+04
        18   8 -3.756400E+06 -6.583761E+05 -1.927687E+05 -1.375715E+06  6.471992E+04 -1.694928E+03
        18   9 -3.783919E+06 -7.214392E+05 -2.627740E+05 -1.384866E+06  9.739338E+04  1.018764E+04
        18  10 -2.758266E+06 -2.934813E+05  8.864509E+04 -1.113041E+06 -8.169228E-10  3.261349E-10
        18  11 -2.736401E+06 -2.686847E+05  6.815598E+04 -1.089557E+06 -6.089606E-10 -2.592111E-10
        18  12 -2.723519E+06 -2.977084E+05  1.271160E+04 -1.068491E+06  1.134229E-09 -2.473074E-10
        18  13 -3.248324E+06 -4.714614E+05 -3.504399E+04 -1.241054E+06 -1.361281E-09  5.590203E-10
        18  14 -3.246530E+06 -4.635405E+05 -6.229954E+04 -1.232690E+06  2.991043E-09  5.310666E-10
        18  15 -3.253863E+06 -5.095894E+05 -1.250284E+05 -1.226743E+06 -1.000821E-09 -6.375312E-10
        18  16 -3.738147E+06 -6.494304E+05 -1.587527E+05 -1.368977E+06 -2.181274E-09  7.392580E-10
        18  17 -3.756405E+06 -6.583772E+05 -1.927767E+05 -1.375715E+06  1.643208E-09 -6.883101E-11
        18  18 -3.783929E+06 -7.214419E+05 -2.627921E+05 -1.384867E+06 -1.674057E-09 -6.557138E-10
        18  19 -2.758265E+06 -2.934808E+05  8.864754E+04 -1.113041E+06 -3.414070E+04  1.168551E+04
        18  20 -2.736396E+06 -2.686835E+05  6.816418E+04 -1.089557E+06 -6.593429E+04  1.233446E+03
        18  21 -2.723509E+06 -2.977057E+05  1.272970E+04 -1.068490E+06 -9.736606E+04 -1.018542E+04
        18  22 -3.248322E+06 -4.714609E+05 -3.504167E+04 -1.241054E+06 -3.291081E+04  1.214955E+04
        18  23 -3.246526E+06 -4.635393E+05 -6.229147E+04 -1.232690E+06 -6.532684E+04  1.464290E+03
        18  24 -3.253852E+06 -5.095867E+05 -1.250103E+05 -1.226742E+06 -9.737974E+04 -1.018654E+04
        18  25 -3.738146E+06 -6.494300E+05 -1.587506E+05 -1.368978E+06 -3.168197E+04  1.261322E+04
        18  26 -3.756400E+06 -6.583761E+05 -1.927687E+05 -1.375715E+06 -6.471992E+04  1.694928E+03
        18  27 -3.783919E+06 -7.214392E+05 -2.627740E+05 -1.384866E+06 -9.739338E+04 -1.018764E+04
        19   1 -2.661106E+06 -2.893573E+05 -1.234139E+04 -1.160498E+06  1.241782E+05  1.716589E+04
        19   2 -2.661512E+06 -1.632450E+05 -1.165754E+05 -1.026104E+06  2.569625E+05  6.834307E+04
        19   3 -2.865738E+06 -5.618878E+05 -4.617399E+05 -7.670909E+05  3.835745E+05  1.358937E+05
        19   4 -3.274367E+06 -4.524732E+05 -1.556220E+05 -1.259673E+06  1.192371E+05  1.531605E+04
        19   5 -3.205251E+06 -4.243278E+05 -2.659612E+05 -1.233279E+06  2.628635E+05  7.054000E+04
        19   6 -3.342350E+06 -9.234478E+05 -6.260256E+05 -1.082195E+06  4.003284E+05  1.420830E+05
        19   7 -3.887250E+06 -6.155973E+05 -2.989248E+05 -1.358778E+06  1.143013E+05  1.346688E+04
        19   8 -3.748690E+06 -6.853311E+05 -4.153727E+05 -1.440269E+06  2.687588E+05  7.273339E+04
        19   9 -3.818656E+06 -1.284703E+06 -7.903226E+05 -1.397011E+06  4.170683E+05  1.482546E+05
        19  10 -2.661122E+06 -2.893618E+05 -1.237106E+04 -1.160500E+06 -1.952432E-09 -3.017455E-10
        19  11 -2.661584E+06 -1.632678E+05 -1.167089E+05 -1.026118E+06 -3.730967E-09  2.215137E-09
        19  12 -2.865901E+06 -5.619475E+05 -4.620526E+05 -7.671330E+05  4.973638E-10  6.881298E-10
        19  13 -3.274382E+06 -4.524773E+05 -1.556494E+05 -1.259674E+06 -2.351855E-09  1.412202E-10
        19  14 -3.205327E+06 -4.243519E+05 -2.661013E+05 -1.233294E+06 -5.391372E-09  2.823868E-09
        19  15 -3.342528E+06 -9.235129E+05 -6.263668E+05 -1.082241E+06 -7.959024E-10  2.110976E-10
        19  16 -3.887265E+06 -6.156011E+05 -2.989498E+05 -1.358780E+06  9.256993E-10  1.961310E-11
        19  17 -3.748769E+06 -6.853563E+05 -4.155194E+05 -1.440285E+06  3.549165E-09  2.823728E-10
        19  18 -3.818850E+06 -1.284774E+06 -7.906934E+05 -1.397061E+06  9.943676E-10  9.665578E-11
        19  19 -2.661106E+06 -2.893573E+05 -1.234139E+04 -1.160498E+06 -1.241782E+05 -1.716589E+04
        19  20 -2.661512E+06 -1.632450E+05 -1.165754E+05 -1.026104E+06 -2.569625E+05 -6.834307E+04
        19  21 -2.865738E+06 -5.618878E+05 -4.617399E+05 -7.670909E+05 -3.835745E+05 -1.358937E+05
        19  22 -3.274367E+06 -4.524732E+05 -1.556220E+05 -1.259673E+06 -1.192371E+05 -1.531605E+04
        19  23 -3.205251E+06 -4.243278E+05 -2.659612E+05 -1.233279E+06 -2.628635E+05 -7.054000E+04
        19  24 -3.342350E+06 -9.234478E+05 -6.260256E+05 -1.082195E+06 -4.003284E+05 -1.420830E+05
        19  25 -3.887250E+06 -6.155973E+05 -2.989248E+05 -1.358778E+06 -1.143013E+05 -1.346688E+04
        19  26 -3.748690E+06 -6.853311E+05 -4.153727E+05 -1.440269E+06 -2.687588E+05 -7.273339E+04
        19  27 -3.818656E+06 -1.284703E+06 -7.903226E+05 -1.397011E+06 -4.170683E+05 -1.482546E+05
        20   1 -9.328717E+05  3.564511E+04  4.383993E+04  1.459919E+04  3.004174E+04  7.074683E-01
        20   2 -9.383924E+05 -2.464981E+03  1.959277E+04  4.674378E+03  1.957483E+04  1.475968E-01
        20   3 -9.328896E+05 -1.955745E+03  1.182278E+04 -5.250184E+03  9.108062E+03 -7.713503E-02
        20   4 -9.328720E+05  3.564471E+04  4.383987E+04  1.000324E-08  3.004174E+04 -4.082329E-10
        20   5 -9.383925E+05 -2.465023E+03  1.959277E+04 -6.383278E-10  1.957483E+04 -5.383464E-10
        20   6 -9.328897E+05 -1.955797E+03  1.182277E+04 -6.161893E-09  9.108062E+03  1.023207E-09
        20   7 -9.328717E+05  3.564511E+04  4.383993E+04 -1.459919E+04  3.004174E+04 -7.074683E-01
        20   8 -9.383924E+05 -2.464981E+03  1.959277E+04 -4.674378E+03  1.957483E+04 -1.475968E-01
        20   9 -9.328896E+05 -1.955745E+03  1.182278E+04  5.250184E+03  9.108062E+03  7.713503E-02
        20  10 -9.328727E+05  3.564487E+04  4.383823E+04  1.459919E+04  1.131119E-09 -2.578064E-10
        20  11 -9.383928E+05 -2.465084E+03  1.959205E+04  4.674378E+03  9.058218E-10 -5.998159E-10
        20  12 -9.328897E+05 -1.955767E+03  1.182262E+04 -5.250184E+03 -1.930920E-09 -3.761484E-10
        20  13 -9.328729E+05  3.564447E+04  4.383817E+04  3.503830E-09  1.178522E-09 -7.344626E-11
        20  14 -9.383929E+05 -2.465126E+03  1.959204E+04  4.392880E-10 -3.768048E-09 -1.650818E-10
        20  15 -9.328898E+05 -1.955819E+03  1.182261E+04  3.834136E-09 -5.966760E-10 -2.777311E-11
        20  16 -9.328727E+05  3.564487E+04  4.383823E+04 -1.459919E+04  8.055889E-10  1.233597E-10
        20  17 -9.383928E+05 -2.465084E+03  1.959205E+04 -4.674378E+03 -2.867489E-09  3.606857E-10
        20  18 -9.328897E+05 -1.955767E+03  1.182262E+04  5.250184E+03  6.670617E-11  3.581225E-10
        20  19 -9.328717E+05  3.564511E+04  4.383993E+04  1.459919E+04 -3.004174E+04 -7.074683E-01
        20  20 -9.383924E+05 -2.464981E+03  1.959277E+04  4.674378E+03 -1.957483E+04 -1.475968E-01
        20  21 -9.328896E+05 -1.955745E+03  1.182278E+04 -5.250184E+03 -9.108062E+03  7.713503E-02
        20  22 -9.328720E+05  3.564471E+04  4.383987E+04  9.943344E-09 -3.004174E+04  2.459446E-10
        20  23 -9.383925E+05 -2.465023E+03  1.959277E+04  1.520045E-09 -1.957483E+04  1.707658E-10
        20  24 -9.328897E+05 -1.955797E+03  1.182277E+04 -1.252203E-09 -9.108062E+03 -1.103458E-09
        20  25 -9.328717E+05  3.564511E+04  4.383993E+04 -1.459919E+04 -3.004174E+04  7.074683E-01
        20  26 -9.383924E+05 -2.464981E+03  1.959277E+04 -4.674378E+03 -1.957483E+04  1.475968E-01
        20  27 -9.328896E+05 -1.955745E+03  1.182278E+04  5.250184E+03 -9.108062E+03 -7.713503E-02
        21   1 -9.350980E+05  2.667806E+03  9.516116E+03  9.035788E+02  7.362894E+03  1.073167E-02
        21   2 -9.356346E+05 -2.214065E+02  5.018324E+03  2.247448E+02  4.824517E+03  1.749026E-03
        21   3 -9.351004E+05 -1.523462E+02  2.914629E+03 -4.541002E+02  2.286109E+03 -1.674560E-03
        21   4 -9.350980E+05  2.667804E+03  9.516116E+03  5.211468E-09  7.362894E+03  9.359919E-10
        21   5 -9.356346E+05 -2.214065E+02  5.018324E+03 -4.703231E-10  4.824517E+03 -4.420655E-10
        21   6 -9.351004E+05 -1.523466E+02  2.914629E+03  2.998716E-09  2.286109E+03  8.359987E-10
        21   7 -9.350980E+05  2.667806E+03  9.516116E+03 -9.035788E+02  7.362894E+03 -1.073167E-02
        21   8 -9.356346E+05 -2.214065E+02  5.018324E+03 -2.247448E+02  4.824517E+03 -1.749027E-03
        21   9 -9.351004E+05 -1.523462E+02  2.914629E+03  4.541002E+02  2.286109E+03  1.674562E-03
        21  10 -9.350980E+05  2.667791E+03  9.516014E+03  9.035788E+02  2.095933E-10  2.586511E-11
        21  11 -9.356346E+05 -2.214127E+02  5.018280E+03  2.247448E+02 -6.947455E-10  5.556828E-10
        21  12 -9.351004E+05 -1.523476E+02  2.914619E+03 -4.541002E+02 -4.011304E-10  8.336976E-10
        21  13 -9.350980E+05  2.667790E+03  9.516013E+03 -5.586783E-09  1.692802E-10 -7.053672E-11
        21  14 -9.356346E+05 -2.214128E+02  5.018280E+03  2.831891E-09 -1.953421E-09  4.665407E-11
        21  15 -9.351004E+05 -1.523480E+02  2.914619E+03 -5.974497E-09 -3.174923E-09  9.830370E-10
        21  16 -9.350980E+05  2.667791E+03  9.516014E+03 -9.035788E+02 -1.879106E-09 -4.975439E-11
        21  17 -9.356346E+05 -2.214127E+02  5.018280E+03 -2.247448E+02  3.240057E-10 -3.590790E-10
        21  18 -9.351004E+05 -1.523476E+02  2.914619E+03  4.541002E+02  1.463034E-09  1.015524E-09
        21  19 -9.350980E+05  2.667806E+03  9.516116E+03  9.035788E+02 -7.362894E+03 -1.073167E-02
        21  20 -9.356346E+05 -2.214065E+02  5.018324E+03  2.247448E+02 -4.824517E+03 -1.749025E-03
        21  21 -9.351004E+05 -1.523462E+02  2.914629E+03 -4.541002E+02 -2.286109E+03  1.674563E-03
        21  22 -9.350980E+05  2.667804E+03  9.516116E+03  8.463495E-10 -7.362894E+03 -1.064583E-09
        21  23 -9.356346E+05 -2.214065E+02  5.018324E+03 -7.866509E-09 -4.824517E+03  5.404390E-10
        21  24 -9.351004E+05 -1.523466E+02  2.914629E+03  5.763594E-09 -2.286109E+03  1.131808E-09
        21  25 -9.350980E+05  2.667806E+03  9.516116E+03 -9.035788E+02 -7.362894E+03  1.073167E-02
        21  26 -9.356346E+05 -2.214065E+02  5.018324E+03 -2.247448E+02 -4.824517E+03  1.749026E-03
        21  27 -9.351004E+05 -1.523462E+02  2.914629E+03  4.541002E+02 -2.286109E+03 -1.674560E-03
        22   1 -9.353078E+05  1.889160E+02  2.242401E+03  1.551841E+01  1.832933E+03  4.588393E-05
        22   2 -9.353763E+05 -2.479188E+01  1.230685E+03 -1.687759E+01  1.220679E+03 -3.323166E-05
        22   3 -9.353083E+05 -1.196367E+01  6.746607E+02 -4.927361E+01  6.084253E+02 -4.835902E-05
        22   4 -9.353078E+05  1.889160E+02  2.242401E+03  2.735792E-10  1.832933E+03  1.572088E-09
        22   5 -9.353763E+05 -2.479188E+01  1.230685E+03  9.123824E-10  1.220679E+03  7.297524E-10
        22   6 -9.353083E+05 -1.196368E+01  6.746607E+02 -6.239218E-09  6.084253E+02 -4.567235E-10
        22   7 -9.353078E+05  1.889160E+02  2.242401E+03 -1.551841E+01  1.832933E+03 -4.588080E-05
        22   8 -9.353763E+05 -2.479188E+01  1.230685E+03  1.687759E+01  1.220679E+03  3.323280E-05
        22   9 -9.353083E+05 -1.196367E+01  6.746607E+02  4.927361E+01  6.084253E+02  4.835839E-05
        22  10 -9.353078E+05  1.889151E+02  2.242395E+03  1.551841E+01 -2.361778E-09  8.833927E-10
        22  11 -9.353763E+05 -2.479228E+01  1.230682E+03 -1.687759E+01 -7.718047E-10  2.606293E-10
        22  12 -9.353083E+05 -1.196377E+01  6.746600E+02 -4.927361E+01 -3.609693E-10 -8.387543E-10
        22  13 -9.353078E+05  1.889151E+02  2.242395E+03 -6.374997E-09 -1.042940E-09  1.009387E-09
        22  14 -9.353763E+05 -2.479228E+01  1.230682E+03  1.049114E-08 -2.846290E-10 -5.724044E-11
        22  15 -9.353083E+05 -1.196378E+01  6.746600E+02 -7.088681E-09 -1.823576E-09 -6.442190E-10
        22  16 -9.353078E+05  1.889151E+02  2.242395E+03 -1.551841E+01 -1.482124E-09  1.099082E-09
        22  17 -9.353763E+05 -2.479228E+01  1.230682E+03  1.687759E+01 -3.047646E-10 -4.514008E-10
        22  18 -9.353083E+05 -1.196377E+01  6.746600E+02  4.927361E+01  1.102702E-09 -4.910229E-10
        22  19 -9.353078E+05  1.889160E+02  2.242401E+03  1.551841E+01 -1.832933E+03 -4.588198E-05
        22  20 -9.353763E+05 -2.479188E+01  1.230685E+03 -1.687759E+01 -1.220679E+03  3.323227E-05
        22  21 -9.353083E+05 -1.196367E+01  6.746607E+02 -4.927361E+01 -6.084253E+02  4.835760E-05
        22  22 -9.353078E+05  1.889160E+02  2.242401E+03  2.049424E-09 -1.832933E+03  4.645895E-10
        22  23 -9.353763E+05 -2.479188E+01  1.230685E+03  1.576468E-08 -1.220679E+03 -8.564785E-10
        22  24 -9.353083E+05 -1.196368E+01  6.746607E+02 -6.336955E-09 -6.084253E+02 -8.374442E-10
        22  25 -9.353078E+05  1.889160E+02  2.242401E+03 -1.551841E+01 -1.832933E+03  4.588295E-05
        22  26 -9.353763E+05 -2.479188E+01  1.230685E+03  1.687759E+01 -1.220679E+03 -3.323386E-05
        22  27 -9.353083E+05 -1.196367E+01  6.746607E+02  4.927361E+01 -6.084253E+02 -4.835949E-05
        23   1 -9.353350E+05  1.082498E+01  4.849320E+02 -1.399065E+01  5.043507E+02 -1.138284E-05
        23   2 -9.353432E+05 -2.715517E+00  1.952673E+02 -1.359849E+01  4.076311E+02 -8.941181E-06
        23   3 -9.353351E+05 -9.000165E-01 -2.752131E+01 -1.320633E+01  3.109130E+02 -6.622703E-06
        23   4 -9.353350E+05  1.082498E+01  4.849320E+02  1.400903E-09  5.043507E+02 -5.110662E-10
        23   5 -9.353432E+05 -2.715517E+00  1.952673E+02 -5.667167E-09  4.076311E+02  1.999334E-10
        23   6 -9.353351E+05 -9.000168E-01 -2.752131E+01  1.093560E-08  3.109130E+02 -1.794760E-10
        23   7 -9.353350E+05  1.082498E+01  4.849320E+02  1.399065E+01  5.043507E+02  1.138196E-05
        23   8 -9.353432E+05 -2.715517E+00  1.952673E+02  1.359849E+01  4.076311E+02  8.941210E-06
        23   9 -9.353351E+05 -9.000165E-01 -2.752131E+01  1.320633E+01  3.109130E+02  6.622411E-06
        23  10 -9.353350E+05  1.082491E+01  4.849315E+02 -1.399065E+01 -1.024864E-09 -7.646416E-10
        23  11 -9.353432E+05 -2.715561E+00  1.952670E+02 -1.359849E+01  1.241446E-09  1.897325E-10
        23  12 -9.353351E+05 -9.000425E-01 -2.752149E+01 -1.320633E+01 -3.468083E-10  4.621258E-10
        23  13 -9.353350E+05  1.082491E+01  4.849315E+02 -7.094988E-09 -1.254039E-09 -4.559508E-10
        23  14 -9.353432E+05 -2.715562E+00  1.952670E+02  4.052425E-09  1.245630E-09  6.905762E-11
        23  15 -9.353351E+05 -9.000428E-01 -2.752149E+01  1.299843E-10 -6.689417E-10 -3.571251E-11
        23  16 -9.353350E+05  1.082491E+01  4.849315E+02  1.399065E+01  1.252779E-09 -7.957912E-11
        23  17 -9.353432E+05 -2.715561E+00  1.952670E+02  1.359849E+01 -1.072385E-09 -1.857532E-10
        23  18 -9.353351E+05 -9.000425E-01 -2.752149E+01  1.320633E+01  5.753265E-10 -5.665247E-10
        23  19 -9.353350E+05  1.082498E+01  4.849320E+02 -1.399065E+01 -5.043507E+02  1.138147E-05
        23  20 -9.353432E+05 -2.715517E+00  1.952673E+02 -1.359849E+01 -4.076311E+02  8.941821E-06
        23  21 -9.353351E+05 -9.000165E-01 -2.752131E+01 -1.320633E+01 -3.109130E+02  6.624116E-06
        23  22 -9.353350E+05  1.082498E+01  4.849320E+02 -5.084152E-10 -5.043507E+02 -4.107223E-10
        23  23 -9.353432E+05 -2.715517E+00  1.952673E+02 -3.455178E-09 -4.076311E+02 -1.360223E-11
        23  24 -9.353351E+05 -9.000169E-01 -2.752131E+01  1.352929E-08 -3.109130E+02  1.139820E-10
        23  25 -9.353350E+05  1.082498E+01  4.849320E+02  1.399065E+01 -5.043507E+02 -1.138227E-05
        23  26 -9.353432E+05 -2.715517E+00  1.952673E+02  1.359849E+01 -4.076311E+02 -8.941729E-06
        23  27 -9.353351E+05 -9.000165E-01 -2.752131E+01  1.320633E+01 -3.109130E+02 -6.623700E-06
        24   1 -9.353459E+05  1.550117E+00 -1.373254E+02 -1.456839E+01  3.258222E+02 -7.656925E-06
        24   2 -9.353299E+05  5.180386E+00 -3.990606E+02 -1.705827E+01  5.233543E+02 -1.440124E-05
        24   3 -9.353460E+05 -1.628937E+01 -7.958157E+02 -1.954818E+01  7.208892E+02 -2.273144E-05
        24   4 -9.353459E+05  1.550116E+00 -1.373254E+02 -1.307849E-09  3.258222E+02 -3.407672E-10
        24   5 -9.353299E+05  5.180385E+00 -3.990606E+02  9.685079E-09  5.233543E+02  8.706761E-12
        24   6 -9.353460E+05 -1.628937E+01 -7.958157E+02  1.839109E-09  7.208892E+02  4.812896E-10
        24   7 -9.353459E+05  1.550117E+00 -1.373254E+02  1.456839E+01  3.258222E+02  7.656022E-06
        24   8 -9.353299E+05  5.180386E+00 -3.990606E+02  1.705827E+01  5.233543E+02  1.440100E-05
        24   9 -9.353460E+05 -1.628937E+01 -7.958157E+02  1.954818E+01  7.208892E+02  2.273241E-05
        24  10 -9.353459E+05  1.550088E+00 -1.373256E+02 -1.456839E+01 -1.224859E-09  1.893544E-10
        24  11 -9.353299E+05  5.180312E+00 -3.990611E+02 -1.705827E+01  6.560600E-10 -4.705114E-10
        24  12 -9.353460E+05 -1.628951E+01 -7.958167E+02 -1.954818E+01  2.516534E-09 -7.627573E-10
        24  13 -9.353459E+05  1.550088E+00 -1.373256E+02 -5.591001E-09 -1.042938E-09 -6.331889E-11
        24  14 -9.353299E+05  5.180312E+00 -3.990611E+02  5.369346E-09 -4.021544E-09  8.982349E-11
        24  15 -9.353460E+05 -1.628951E+01 -7.958167E+02 -6.271939E-09 -6.092433E-10 -1.913159E-10
        24  16 -9.353459E+05  1.550088E+00 -1.373256E+02  1.456839E+01  1.456952E-09 -3.160031E-10
        24  17 -9.353299E+05  5.180312E+00 -3.990611E+02  1.705827E+01 -1.832733E-09  6.214579E-10
        24  18 -9.353460E+05 -1.628951E+01 -7.958167E+02  1.954818E+01 -1.806265E-09  4.767830E-10
        24  19 -9.353459E+05  1.550117E+00 -1.373254E+02 -1.456839E+01 -3.258222E+02  7.657229E-06
        24  20 -9.353299E+05  5.180386E+00 -3.990606E+02 -1.705827E+01 -5.233543E+02  1.440047E-05
        24  21 -9.353460E+05 -1.628937E+01 -7.958157E+02 -1.954818E+01 -7.208892E+02  2.273016E-05
        24  22 -9.353459E+05  1.550116E+00 -1.373254E+02  5.229331E-09 -3.258222E+02  2.262867E-10
        24  23 -9.353299E+05  5.180385E+00 -3.990606E+02 -1.401624E-08 -5.233543E+02  1.409973E-10
        24  24 -9.353460E+05 -1.628937E+01 -7.958157E+02 -7.151880E-09 -7.208892E+02 -8.579179E-10
        24  25 -9.353459E+05  1.550117E+00 -1.373254E+02  1.456839E+01 -3.258222E+02 -7.656784E-06
        24  26 -9.353299E+05  5.180386E+00 -3.990606E+02  1.705827E+01 -5.233543E+02 -1.440014E-05
        24  27 -9.353460E+05 -1.628937E+01 -7.958157E+02  1.954818E+01 -7.208892E+02 -2.273191E-05
        25   1 -9.353854E+05  1.851252E+01 -1.069989E+03 -7.341355E+01  8.884372E+02 -1.052090E-04
        25   2 -9.352812E+05  3.793312E+01 -1.896176E+03 -2.471529E+01  1.831680E+03 -7.302344E-05
        25   3 -9.353861E+05 -2.871579E+02 -3.423271E+03  2.398302E+01  2.774922E+03  1.073512E-04
        25   4 -9.353854E+05  1.851251E+01 -1.069989E+03  1.962678E-09  8.884372E+02  7.504604E-10
        25   5 -9.352812E+05  3.793312E+01 -1.896176E+03 -3.731817E-09  1.831680E+03  7.438516E-10
        25   6 -9.353861E+05 -2.871579E+02 -3.423271E+03  4.304149E-09  2.774922E+03  6.266068E-11
        25   7 -9.353854E+05  1.851252E+01 -1.069989E+03  7.341355E+01  8.884372E+02  1.052104E-04
        25   8 -9.352812E+05  3.793312E+01 -1.896176E+03  2.471529E+01  1.831680E+03  7.302462E-05
        25   9 -9.353861E+05 -2.871579E+02 -3.423271E+03 -2.398302E+01  2.774922E+03 -1.073511E-04
        25  10 -9.353854E+05  1.851231E+01 -1.069991E+03 -7.341355E+01  8.373334E-10 -2.564019E-10
        25  11 -9.352812E+05  3.793222E+01 -1.896182E+03 -2.471529E+01  3.372995E-10  6.076316E-10
        25  12 -9.353861E+05 -2.871599E+02 -3.423286E+03  2.398302E+01 -2.475828E-10  8.106878E-11
        25  13 -9.353854E+05  1.851230E+01 -1.069991E+03 -6.555288E-09 -8.991844E-10 -8.720292E-11
        25  14 -9.352812E+05  3.793222E+01 -1.896182E+03 -1.554570E-08 -1.783825E-09  4.686318E-10
        25  15 -9.353861E+05 -2.871599E+02 -3.423286E+03 -3.008937E-09 -2.545471E-09  3.479863E-10
        25  16 -9.353854E+05  1.851231E+01 -1.069991E+03  7.341355E+01 -8.163146E-10  1.134877E-10
        25  17 -9.352812E+05  3.793222E+01 -1.896182E+03  2.471529E+01  2.697928E-10  2.304209E-10
        25  18 -9.353861E+05 -2.871599E+02 -3.423286E+03 -2.398302E+01 -1.142986E-09  5.914890E-10
        25  19 -9.353854E+05  1.851252E+01 -1.069989E+03 -7.341355E+01 -8.884372E+02  1.052085E-04
        25  20 -9.352812E+05  3.793312E+01 -1.896176E+03 -2.471529E+01 -1.831680E+03  7.302496E-05
        25  21 -9.353861E+05 -2.871579E+02 -3.423271E+03  2.398302E+01 -2.774922E+03 -1.073506E-04
        25  22 -9.353854E+05  1.851251E+01 -1.069989E+03 -1.289489E-08 -8.884372E+02 -9.577392E-10
        25  23 -9.352812E+05  3.793312E+01 -1.896176E+03 -1.444286E-08 -1.831680E+03  1.862455E-10
        25  24 -9.353861E+05 -2.871579E+02 -3.423271E+03  6.355345E-09 -2.774922E+03  6.792067E-10
        25  25 -9.353854E+05  1.851252E+01 -1.069989E+03  7.341355E+01 -8.884372E+02 -1.052106E-04
        25  26 -9.352812E+05  3.793312E+01 -1.896176E+03  2.471529E+01 -1.831680E+03 -7.302455E-05
        25  27 -9.353861E+05 -2.871579E+02 -3.423271E+03 -2.398302E+01 -2.774922E+03  1.073520E-04
        26   1 -9.357012E+05  2.317015E+02 -4.441580E+03 -6.899296E+02  3.466118E+03 -3.857454E-03
        26   2 -9.348888E+05  3.366452E+02 -7.634592E+03  3.418975E+02  7.327952E+03  4.041387E-03
        26   3 -9.357047E+05 -4.055509E+03 -1.446887E+04  1.373711E+03  1.118971E+04  2.479514E-02
        26   4 -9.357012E+05  2.317006E+02 -4.441580E+03  3.394527E-10  3.466118E+03 -5.336442E-10
        26   5 -9.348888E+05  3.366450E+02 -7.634592E+03 -4.228043E-09  7.327952E+03 -5.804218E-10
        26   6 -9.357047E+05 -4.055512E+03 -1.446887E+04  5.188357E-09  1.118971E+04  7.762356E-10
        26   7 -9.357012E+05  2.317015E+02 -4.441580E+03  6.899296E+02  3.466118E+03  3.857453E-03
        26   8 -9.348888E+05  3.366452E+02 -7.634592E+03 -3.418975E+02  7.327952E+03 -4.041389E-03
        26   9 -9.357047E+05 -4.055509E+03 -1.446887E+04 -1.373711E+03  1.118971E+04 -2.479514E-02
        26  10 -9.357012E+05  2.316982E+02 -4.441603E+03 -6.899296E+02 -5.538188E-10 -9.549642E-11
        26  11 -9.348889E+05  3.366307E+02 -7.634693E+03  3.418975E+02 -8.279733E-10  3.245110E-10
        26  12 -9.357048E+05 -4.055542E+03 -1.446910E+04  1.373711E+03  9.559756E-10  2.731718E-10
        26  13 -9.357012E+05  2.316973E+02 -4.441603E+03 -8.364540E-09 -1.068157E-09  2.348401E-11
        26  14 -9.348889E+05  3.366305E+02 -7.634693E+03 -8.532226E-09  1.413975E-09 -2.306156E-10
        26  15 -9.357048E+05 -4.055546E+03 -1.446910E+04 -1.702165E-09 -5.677743E-10  1.416115E-10
        26  16 -9.357012E+05  2.316982E+02 -4.441603E+03  6.899296E+02 -9.895636E-10  1.910762E-10
        26  17 -9.348889E+05  3.366307E+02 -7.634693E+03 -3.418975E+02 -8.129654E-10 -6.815773E-10
        26  18 -9.357048E+05 -4.055542E+03 -1.446910E+04 -1.373711E+03 -1.586856E-09  4.024459E-11
        26  19 -9.357012E+05  2.317015E+02 -4.441580E+03 -6.899296E+02 -3.466118E+03  3.857454E-03
        26  20 -9.348888E+05  3.366452E+02 -7.634592E+03  3.418975E+02 -7.327952E+03 -4.041387E-03
        26  21 -9.357047E+05 -4.055509E+03 -1.446887E+04  1.373711E+03 -1.118971E+04 -2.479514E-02
        26  22 -9.357012E+05  2.317006E+02 -4.441580E+03  2.339156E-09 -3.466118E+03  5.716703E-10
        26  23 -9.348888E+05  3.366450E+02 -7.634592E+03 -8.518564E-09 -7.327952E+03  6.876324E-11
        26  24 -9.357047E+05 -4.055512E+03 -1.446887E+04 -5.930674E-09 -1.118971E+04 -5.215105E-10
        26  25 -9.357012E+05  2.317015E+02 -4.441580E+03  6.899296E+02 -3.466118E+03 -3.857453E-03
        26  26 -9.348888E+05  3.366452E+02 -7.634592E+03 -3.418975E+02 -7.327952E+03  4.041387E-03
        26  27 -9.357047E+05 -4.055509E+03 -1.446887E+04 -1.373711E+03 -1.118971E+04  2.479514E-02
        27   1 -9.390614E+05  2.973358E+03 -1.797397E+04 -7.981072E+03  1.384287E+04 -1.782140E-01
        27   2 -9.306961E+05  3.747353E+03 -2.978173E+04  7.106133E+03  2.975493E+04  3.410679E-01
        27   3 -9.390869E+05 -5.418411E+04 -6.663595E+04  2.219332E+04  4.566729E+04  1.634854E+00
        27   4 -9.390614E+05  2.973238E+03 -1.797399E+04  6.024031E-09  1.384287E+04  9.056538E-10
        27   5 -9.306961E+05  3.747258E+03 -2.978174E+04 -5.553114E-09  2.975493E+04 -8.137178E-11
        27   6 -9.390874E+05 -5.418504E+04 -6.663609E+04  5.482090E-09  4.566729E+04 -2.324560E-10
        27   7 -9.390614E+05  2.973358E+03 -1.797397E+04  7.981072E+03  1.384287E+04  1.782140E-01
        27   8 -9.306961E+05  3.747353E+03 -2.978173E+04 -7.106133E+03  2.975493E+04 -3.410679E-01
        27   9 -9.390869E+05 -5.418411E+04 -6.663595E+04 -2.219332E+04  4.566729E+04 -1.634854E+00
        27  10 -9.390616E+05  2.973306E+03 -1.797433E+04 -7.981072E+03  7.919379E-10 -4.148617E-11
        27  11 -9.306970E+05  3.747115E+03 -2.978339E+04  7.106133E+03 -1.702632E-09 -3.186037E-10
        27  12 -9.390892E+05 -5.418468E+04 -6.663988E+04  2.219332E+04 -6.575939E-10 -1.614143E-10
        27  13 -9.390616E+05  2.973186E+03 -1.797435E+04 -6.968470E-09  7.336073E-10  2.125102E-10
        27  14 -9.306971E+05  3.747020E+03 -2.978340E+04 -3.416755E-09 -5.018032E-10 -1.046867E-10
        27  15 -9.390897E+05 -5.418560E+04 -6.664001E+04  1.199025E-09 -3.702903E-10 -7.615501E-11
        27  16 -9.390616E+05  2.973306E+03 -1.797433E+04  7.981072E+03 -1.118503E-09  3.776171E-10
        27  17 -9.306970E+05  3.747115E+03 -2.978339E+04 -7.106133E+03  3.275627E-09  1.716000E-10
        27  18 -9.390892E+05 -5.418468E+04 -6.663988E+04 -2.219332E+04  2.993651E-11 -4.281109E-12
        27  19 -9.390614E+05  2.973358E+03 -1.797397E+04 -7.981072E+03 -1.384287E+04  1.782140E-01
        27  20 -9.306961E+05  3.747353E+03 -2.978173E+04  7.106133E+03 -2.975493E+04 -3.410679E-01
        27  21 -9.390869E+05 -5.418411E+04 -6.663595E+04  2.219332E+04 -4.566729E+04 -1.634854E+00
        27  22 -9.390614E+05  2.973238E+03 -1.797399E+04  3.752116E-09 -1.384287E+04 -4.990751E-10
        27  23 -9.306961E+05  3.747258E+03 -2.978174E+04  4.100436E-09 -2.975493E+04 -1.015766E-10
        27  24 -9.390874E+05 -5.418504E+04 -6.663609E+04  9.836634E-09 -4.566729E+04  6.128565E-11
        27  25 -9.390614E+05  2.973358E+03 -1.797397E+04  7.981072E+03 -1.384287E+04 -1.782140E-01
        27  26 -9.306961E+05  3.747353E+03 -2.978173E+04 -7.106133E+03 -2.975493E+04  3.410679E-01
        27  27 -9.390869E+05 -5.418411E+04 -6.663595E+04 -2.219332E+04 -4.566729E+04  1.634854E+00
        28   1  6.032063E+05  1.866934E+06  6.686522E+05 -1.871600E+05  1.431946E+04  2.816104E+05
        28   2  2.494169E+05  1.709095E+06  4.261492E+05 -7.507165E+04  4.422493E+04  1.676755E+05
        28   3  2.284483E+05  1.649774E+06  3.410116E+05 -1.862872E+04  4.365293E+04  5.375349E+04
        28   4  3.022288E+05  6.560852E+05  3.731605E+05 -6.232144E+04  1.438583E+04  2.487779E+05
        28   5 -2.121853E+04  6.087388E+05  1.722231E+05 -3.458598E+04  4.424848E+04  1.569826E+05
        28   6 -1.538607E+04  6.562298E+05  1.134857E+05 -6.248023E+04  4.364050E+04  6.517636E+04
        28   7  1.202035E+03 -5.533943E+05  7.757446E+04  6.227385E+04  1.443914E+04  2.160089E+05
        28   8 -2.919325E+05 -4.904965E+05 -8.178233E+04  5.827753E+03  4.427067E+04  1.463083E+05
        28   9 -2.592816E+05 -3.363972E+05 -1.141034E+05 -1.062608E+05  4.362645E+04  7.658107E+04
        28  10  6.031848E+05  1.866849E+06  6.685032E+05 -1.871633E+05 -6.130771E-10 -2.101402E-10
        28  11  2.494072E+05  1.709064E+06  4.260929E+05 -7.507761E+04 -4.537655E-09 -9.211307E-10
        28  12  2.284455E+05  1.649770E+06  3.410026E+05 -1.863060E+04 -2.480980E-09 -1.058314E-09
        28  13  3.022119E+05  6.560188E+05  3.730439E+05 -6.232432E+04  1.062177E-09  8.836054E-11
        28  14 -2.122724E+04  6.087118E+05  1.721731E+05 -3.459158E+04 -2.149596E-09  2.987840E-12
        28  15 -1.538926E+04  6.562247E+05  1.134742E+05 -6.248252E+04 -3.868629E-10  3.964163E-10
        28  16  1.189273E+03 -5.534445E+05  7.748631E+04  6.227134E+04  4.522507E-10  2.090163E-10
        28  17 -2.919404E+05 -4.905200E+05 -8.182626E+04  5.822535E+03 -1.866906E-09  8.766798E-10
        28  18 -2.592853E+05 -3.364040E+05 -1.141181E+05 -1.062635E+05 -2.008478E-09  1.249043E-09
        28  19  6.032063E+05  1.866934E+06  6.686522E+05 -1.871600E+05 -1.431946E+04 -2.816104E+05
        28  20  2.494169E+05  1.709095E+06  4.261492E+05 -7.507165E+04 -4.422493E+04 -1.676755E+05
        28  21  2.284483E+05  1.649774E+06  3.410116E+05 -1.862872E+04 -4.365293E+04 -5.375349E+04
        28  22  3.022288E+05  6.560852E+05  3.731605E+05 -6.232144E+04 -1.438583E+04 -2.487779E+05
        28  23 -2.121853E+04  6.087388E+05  1.722231E+05 -3.458598E+04 -4.424848E+04 -1.569826E+05
        28  24 -1.538607E+04  6.562298E+05  1.134857E+05 -6.248023E+04 -4.364050E+04 -6.517636E+04
        28  25  1.202035E+03 -5.533943E+05  7.757446E+04  6.227385E+04 -1.443914E+04 -2.160089E+05
        28  26 -2.919325E+05 -4.904965E+05 -8.178233E+04  5.827753E+03 -4.427067E+04 -1.463083E+05
        28  27 -2.592816E+05 -3.363972E+05 -1.141034E+05 -1.062608E+05 -4.362645E+04 -7.658107E+04
        29   1  2.404192E+05  1.528661E+06  3.031631E+05 -7.399225E+04  3.703034E+04  4.574669E+04
        29   2  1.890441E+05  1.413556E+06  2.534571E+05 -3.596256E+04  3.348874E+04  7.060218E+03
        29   3  1.820628E+05  1.314691E+06  2.400228E+05 -5.386782E+04  2.810416E+04 -3.162847E+04
        29   4  2.165777E+04  6.387408E+05  9.835193E+04 -6.248032E+04  3.703215E+04  4.763139E+04
        29   5 -3.289033E+03  6.307584E+05  7.369718E+04 -3.451423E+04  3.348609E+04  1.031894E+04
        29   6  1.595238E+04  6.387876E+05  8.439446E+04 -6.248571E+04  2.809720E+04 -2.700222E+04
        29   7 -1.971585E+05 -2.504480E+05 -1.065116E+05 -5.098470E+04  3.703402E+04  4.951337E+04
        29   8 -1.956649E+05 -1.514731E+05 -1.061031E+05 -3.306748E+04  3.348345E+04  1.357359E+04
        29   9 -1.501897E+05 -3.669345E+04 -7.126404E+04 -7.109393E+04  2.809012E+04 -2.238096E+04
        29  10  2.404172E+05  1.528658E+06  3.031565E+05 -7.399361E+04 -3.170045E-09  4.680284E-10
        29  11  1.890429E+05  1.413556E+06  2.534549E+05 -3.596275E+04 -2.202283E-09 -8.030630E-10
        29  12  1.820617E+05  1.314690E+06  2.400195E+05 -5.386710E+04 -1.245690E-09 -1.151137E-09
        29  13  2.165569E+04  6.387380E+05  9.834509E+04 -6.248174E+04  6.897963E-10  7.265231E-10
        29  14 -3.290265E+03  6.307580E+05  7.369487E+04 -3.451451E+04 -2.606922E-10 -2.585959E-11
        29  15  1.595134E+04  6.387867E+05  8.439161E+04 -6.248510E+04 -1.090731E-09  6.990078E-10
        29  16 -1.971606E+05 -2.504510E+05 -1.065188E+05 -5.098618E+04 -1.556729E-09 -6.566330E-10
        29  17 -1.956661E+05 -1.514736E+05 -1.061056E+05 -3.306785E+04  1.248396E-09  4.763836E-10
        29  18 -1.501906E+05 -3.669420E+04 -7.126647E+04 -7.109343E+04 -2.092270E-09  1.470379E-09
        29  19  2.404192E+05  1.528661E+06  3.031631E+05 -7.399225E+04 -3.703034E+04 -4.574669E+04
        29  20  1.890441E+05  1.413556E+06  2.534571E+05 -3.596256E+04 -3.348874E+04 -7.060218E+03
        29  21  1.820628E+05  1.314691E+06  2.400228E+05 -5.386782E+04 -2.810416E+04  3.162847E+04
        29  22  2.165777E+04  6.387408E+05  9.835193E+04 -6.248032E+04 -3.703215E+04 -4.763139E+04
        29  23 -3.289033E+03  6.307584E+05  7.369718E+04 -3.451423E+04 -3.348609E+04 -1.031894E+04
        29  24  1.595238E+04  6.387876E+05  8.439446E+04 -6.248571E+04 -2.809720E+04  2.700222E+04
        29  25 -1.971585E+05 -2.504480E+05 -1.065116E+05 -5.098470E+04 -3.703402E+04 -4.951337E+04
        29  26 -1.956649E+05 -1.514731E+05 -1.061031E+05 -3.306748E+04 -3.348345E+04 -1.357359E+04
        29  27 -1.501897E+05 -3.669345E+04 -7.126404E+04 -7.109393E+04 -2.809012E+04  2.238096E+04
        30   1  1.303854E+05  1.224982E+06  2.244602E+05 -9.718443E+04  2.578815E+04 -4.362424E+04
        30   2  9.903317E+04  1.083181E+06  2.410303E+05 -5.212224E+03  1.966115E+04 -1.200989E+05
        30   3  3.175224E+05  1.013585E+06  3.697599E+05  3.140810E+04  5.958560E+03 -1.965825E+05
        30   4 -1.071044E+04  6.511112E+05  9.315809E+04 -6.252312E+04  2.578338E+04 -4.179305E+04
        30   5 -1.579186E+04  6.154608E+05  1.333371E+05 -3.455983E+04  1.965046E+04 -1.127706E+05
        30   6  2.280944E+05  6.510750E+05  2.819039E+05 -6.194371E+04  5.955039E+03 -1.837687E+05
        30   7 -1.518247E+05  7.754792E+04 -3.816500E+04 -2.789388E+04  2.577881E+04 -3.996351E+04
        30   8 -1.306288E+05  1.479448E+05  2.563002E+04 -6.388507E+04  1.963908E+04 -1.054478E+05
        30   9  1.386898E+05  2.887038E+05  1.940438E+05 -1.552409E+05  5.947675E+03 -1.709623E+05
        30  10  1.303841E+05  1.224979E+06  2.244554E+05 -9.718353E+04 -5.721365E-10 -4.779368E-09
        30  11  9.902890E+04  1.083165E+06  2.410025E+05 -5.210324E+03 -4.843230E-10 -4.867675E-10
        30  12  3.175120E+05  1.013544E+06  3.696873E+05  3.140905E+04 -2.035638E-10  4.998759E-09
        30  13 -1.071162E+04  6.511091E+05  9.315356E+04 -6.252225E+04 -1.221250E-09  1.111310E-09
        30  14 -1.579568E+04  6.154471E+05  1.333125E+05 -3.455805E+04  4.257652E-10 -7.516223E-11
        30  15  2.280853E+05  6.510388E+05  2.818405E+05 -6.194283E+04  6.997438E-10  8.651936E-10
        30  16 -1.518259E+05  7.754603E+04 -3.816925E+04 -2.789305E+04 -2.357367E-09  4.426392E-09
        30  17 -1.306322E+05  1.479328E+05  2.560841E+04 -6.388340E+04 -4.646258E-10  8.743514E-11
        30  18  1.386819E+05  2.886725E+05  1.939889E+05 -1.552401E+05 -2.495927E-10 -4.718009E-09
        30  19  1.303854E+05  1.224982E+06  2.244602E+05 -9.718443E+04 -2.578815E+04  4.362424E+04
        30  20  9.903317E+04  1.083181E+06  2.410303E+05 -5.212224E+03 -1.966115E+04  1.200989E+05
        30  21  3.175224E+05  1.013585E+06  3.697599E+05  3.140810E+04 -5.958560E+03  1.965825E+05
        30  22 -1.071044E+04  6.511112E+05  9.315809E+04 -6.252312E+04 -2.578338E+04  4.179305E+04
        30  23 -1.579186E+04  6.154608E+05  1.333371E+05 -3.455983E+04 -1.965046E+04  1.127706E+05
        30  24  2.280944E+05  6.510750E+05  2.819039E+05 -6.194371E+04 -5.955039E+03  1.837687E+05
        30  25 -1.518247E+05  7.754792E+04 -3.816500E+04 -2.789388E+04 -2.577881E+04  3.996351E+04
        30  26 -1.306288E+05  1.479448E+05  2.563002E+04 -6.388507E+04 -1.963908E+04  1.054478E+05
        30  27  1.386898E+05  2.887038E+05  1.940438E+05 -1.552409E+05 -5.947675E+03  1.709623E+05
        31   1 -1.565800E+06 -3.572678E+05 -1.396596E+05 -5.884753E+05 -7.431069E+04 -2.645862E+04
        31   2 -1.542792E+06 -2.422746E+05 -6.922819E+04 -5.892347E+05 -4.743621E+04 -1.369414E+04
        31   3 -1.551571E+06 -2.275507E+05 -4.503257E+04 -5.740213E+05 -1.947809E+04 -3.818395E+03
        31   4 -1.487165E+06 -2.954478E+05 -1.121140E+05 -5.339399E+05 -7.175769E+04 -2.550617E+04
        31   5 -1.465495E+06 -2.032859E+05 -4.765789E+04 -5.577421E+05 -4.682492E+04 -1.346594E+04
        31   6 -1.475223E+06 -2.110019E+05 -2.789198E+04 -5.655733E+05 -2.080850E+04 -4.316698E+03
        31   7 -1.408522E+06 -2.336192E+05 -8.456903E+04 -4.793970E+05 -6.920438E+04 -2.455327E+04
        31   8 -1.388193E+06 -1.642955E+05 -2.608828E+04 -5.262457E+05 -4.621354E+04 -1.323769E+04
        31   9 -1.398869E+06 -1.944534E+05 -1.075168E+04 -5.571247E+05 -2.213909E+04 -4.815003E+03
        31  10 -1.565806E+06 -3.572701E+05 -1.396713E+05 -5.884769E+05 -2.525284E-10 -8.038396E-11
        31  11 -1.542794E+06 -2.422754E+05 -6.923278E+04 -5.892353E+05 -2.073650E-09 -7.719832E-10
        31  12 -1.551571E+06 -2.275508E+05 -4.503331E+04 -5.740213E+05 -4.720656E-10 -1.742328E-11
        31  13 -1.487170E+06 -2.954499E+05 -1.121249E+05 -5.339414E+05 -1.988146E-09 -1.349515E-10
        31  14 -1.465498E+06 -2.032867E+05 -4.766236E+04 -5.577427E+05  1.419135E-09 -7.674215E-11
        31  15 -1.475224E+06 -2.110021E+05 -2.789283E+04 -5.655733E+05  3.813797E-09  3.323894E-10
        31  16 -1.408527E+06 -2.336212E+05 -8.457919E+04 -4.793984E+05 -3.020921E-10 -2.432564E-10
        31  17 -1.388196E+06 -1.642963E+05 -2.609264E+04 -5.262462E+05 -2.829488E-09 -7.143537E-11
        31  18 -1.398870E+06 -1.944535E+05 -1.075265E+04 -5.571248E+05 -6.415418E-10  6.640401E-10
        31  19 -1.565800E+06 -3.572678E+05 -1.396596E+05 -5.884753E+05  7.431069E+04  2.645862E+04
        31  20 -1.542792E+06 -2.422746E+05 -6.922819E+04 -5.892347E+05  4.743621E+04  1.369414E+04
        31  21 -1.551571E+06 -2.275507E+05 -4.503257E+04 -5.740213E+05  1.947809E+04  3.818395E+03
        31  22 -1.487165E+06 -2.954478E+05 -1.121140E+05 -5.339399E+05  7.175769E+04  2.550617E+04
        31  23 -1.465495E+06 -2.032859E+05 -4.765789E+04 -5.577421E+05  4.682492E+04  1.346594E+04
        31  24 -1.475223E+06 -2.110019E+05 -2.789198E+04 -5.655733E+05  2.080850E+04  4.316698E+03
        31  25 -1.408522E+06 -2.336192E+05 -8.456903E+04 -4.793970E+05  6.920438E+04  2.455327E+04
        31  26 -1.388193E+06 -1.642955E+05 -2.608828E+04 -5.262457E+05  4.621354E+04  1.323769E+04
        31  27 -1.398869E+06 -1.944534E+05 -1.075168E+04 -5.571247E+05  2.213909E+04  4.815003E+03
        32   1 -1.519988E+06 -2.415106E+05 -3.513190E+04 -5.751410E+05 -1.629253E+04 -3.627918E+03
        32   2 -1.505003E+06 -2.229910E+05 -1.945339E+04 -5.671244E+05 -1.018273E+04 -2.171485E+03
        32   3 -1.486585E+06 -2.192659E+05 -1.021566E+04 -5.654285E+05 -4.014156E+03 -8.708778E+02
        32   4 -1.471581E+06 -2.211764E+05 -2.240699E+04 -5.596276E+05 -1.673269E+04 -3.792995E+03
        32   5 -1.472824E+06 -2.103789E+05 -1.117468E+04 -5.577435E+05 -1.072734E+04 -2.375640E+03
        32   6 -1.470613E+06 -2.143551E+05 -6.299809E+03 -5.621803E+05 -4.663435E+03 -1.114224E+03
        32   7 -1.423171E+06 -2.008417E+05 -9.682196E+03 -5.441129E+05 -1.717289E+04 -3.958091E+03
        32   8 -1.440644E+06 -1.977668E+05 -2.896076E+03 -5.483622E+05 -1.127197E+04 -2.579809E+03
        32   9 -1.454641E+06 -2.094443E+05 -2.384021E+03 -5.589321E+05 -5.312724E+03 -1.357571E+03
        32  10 -1.519988E+06 -2.415107E+05 -3.513243E+04 -5.751410E+05  2.885504E-10  2.230448E-10
        32  11 -1.505003E+06 -2.229910E+05 -1.945359E+04 -5.671244E+05  2.934099E-10 -6.107908E-10
        32  12 -1.486585E+06 -2.192659E+05 -1.021569E+04 -5.654285E+05  7.531397E-10  1.055403E-09
        32  13 -1.471581E+06 -2.211765E+05 -2.240755E+04 -5.596276E+05 -1.255087E-10  2.351209E-10
        32  14 -1.472824E+06 -2.103789E+05 -1.117491E+04 -5.577435E+05  8.833879E-10 -3.485863E-10
        32  15 -1.470613E+06 -2.143551E+05 -6.299852E+03 -5.621803E+05  4.807780E-09  1.591327E-09
        32  16 -1.423172E+06 -2.008418E+05 -9.682781E+03 -5.441130E+05 -2.698202E-09 -4.312017E-11
        32  17 -1.440644E+06 -1.977668E+05 -2.896328E+03 -5.483622E+05  2.946465E-09 -9.134356E-11
        32  18 -1.454641E+06 -2.094443E+05 -2.384078E+03 -5.589321E+05  3.804558E-09  1.960600E-09
        32  19 -1.519988E+06 -2.415106E+05 -3.513190E+04 -5.751410E+05  1.629253E+04  3.627918E+03
        32  20 -1.505003E+06 -2.229910E+05 -1.945339E+04 -5.671244E+05  1.018273E+04  2.171485E+03
        32  21 -1.486585E+06 -2.192659E+05 -1.021566E+04 -5.654285E+05  4.014156E+03  8.708778E+02
        32  22 -1.471581E+06 -2.211764E+05 -2.240699E+04 -5.596276E+05  1.673269E+04  3.792995E+03
        32  23 -1.472824E+06 -2.103789E+05 -1.117468E+04 -5.577435E+05  1.072734E+04  2.375640E+03
        32  24 -1.470613E+06 -2.143551E+05 -6.299809E+03 -5.621803E+05  4.663435E+03  1.114224E+03
        32  25 -1.423171E+06 -2.008417E+05 -9.682196E+03 -5.441129E+05  1.717289E+04  3.958091E+03
        32  26 -1.440644E+06 -1.977668E+05 -2.896076E+03 -5.483622E+05  1.127197E+04  2.579809E+03
        32  27 -1.454641E+06 -2.094443E+05 -2.384021E+03 -5.589321E+05  5.312724E+03  1.357571E+03
        33   1 -1.467640E+06 -2.142630E+05 -4.148921E+03 -5.610630E+05 -2.963912E+03 -1.101890E+03
        33   2 -1.453563E+06 -2.035450E+05  2.462697E+03 -5.523027E+05 -1.312928E+03 -1.507580E+03
        33   3 -1.432805E+06 -2.005602E+05  7.924918E+03 -5.515617E+05  3.402545E+02 -1.918905E+03
        33   4 -1.470228E+06 -2.151516E+05 -4.849050E+03 -5.616731E+05 -3.566324E+03 -1.327676E+03
        33   5 -1.473531E+06 -2.110203E+05 -2.606258E+03 -5.577624E+05 -1.919160E+03 -1.734813E+03
        33   6 -1.470152E+06 -2.146214E+05 -1.509735E+03 -5.618711E+05 -2.698322E+02 -2.147599E+03
        33   7 -1.472816E+06 -2.160402E+05 -5.549183E+03 -5.622831E+05 -4.168737E+03 -1.553462E+03
        33   8 -1.493498E+06 -2.184956E+05 -7.675292E+03 -5.632219E+05 -2.525377E+03 -1.962040E+03
        33   9 -1.507498E+06 -2.286826E+05 -1.094463E+04 -5.721801E+05 -8.798864E+02 -2.376280E+03
        33  10 -1.467640E+06 -2.142630E+05 -4.148939E+03 -5.610630E+05  2.310847E-09  2.373346E-09
        33  11 -1.453563E+06 -2.035450E+05  2.462689E+03 -5.523027E+05  9.325197E-10 -1.902045E-10
        33  12 -1.432805E+06 -2.005602E+05  7.924911E+03 -5.515617E+05 -9.634506E-10 -6.961553E-10
        33  13 -1.470228E+06 -2.151516E+05 -4.849078E+03 -5.616731E+05  3.609019E-09  1.901361E-09
        33  14 -1.473531E+06 -2.110203E+05 -2.606271E+03 -5.577624E+05 -9.907194E-10  5.309170E-10
        33  15 -1.470152E+06 -2.146214E+05 -1.509744E+03 -5.618711E+05 -1.425441E-09 -7.981781E-10
        33  16 -1.472816E+06 -2.160402E+05 -5.549220E+03 -5.622831E+05  2.247054E-09  1.444656E-09
        33  17 -1.493498E+06 -2.184956E+05 -7.675312E+03 -5.632219E+05 -3.548164E-09  8.078035E-10
        33  18 -1.507498E+06 -2.286826E+05 -1.094464E+04 -5.721801E+05  4.811215E-10 -3.441803E-10
        33  19 -1.467640E+06 -2.142630E+05 -4.148921E+03 -5.610630E+05  2.963912E+03  1.101890E+03
        33  20 -1.453563E+06 -2.035450E+05  2.462697E+03 -5.523027E+05  1.312928E+03  1.507580E+03
        33  21 -1.432805E+06 -2.005602E+05  7.924918E+03 -5.515617E+05 -3.402545E+02  1.918905E+03
        33  22 -1.470228E+06 -2.151516E+05 -4.849050E+03 -5.616731E+05  3.566324E+03  1.327676E+03
        33  23 -1.473531E+06 -2.110203E+05 -2.606258E+03 -5.577624E+05  1.919160E+03  1.734813E+03
        33  24 -1.470152E+06 -2.146214E+05 -1.509735E+03 -5.618711E+05  2.698322E+02  2.147599E+03
        33  25 -1.472816E+06 -2.160402E+05 -5.549183E+03 -5.622831E+05  4.168737E+03  1.553462E+03
        33  26 -1.493498E+06 -2.184956E+05 -7.675292E+03 -5.632219E+05  2.525377E+03  1.962040E+03
        33  27 -1.507498E+06 -2.286826E+05 -1.094463E+04 -5.721801E+05  8.798864E+02  2.376280E+03
        34   1 -1.415145E+06 -1.940759E+05  1.282619E+04 -5.467869E+05  7.547947E+02 -2.363623E+03
        34   2 -1.401369E+06 -1.840932E+05  1.752475E+04 -5.380687E+05  1.489438E+03 -3.111611E+03
        34   3 -1.380664E+06 -1.811756E+05  2.191167E+04 -5.373789E+05  2.222303E+03 -3.854520E+03
        34   4 -1.470124E+06 -2.146584E+05 -1.193300E+03 -5.618040E+05  1.494217E+02 -2.590568E+03
        34   5 -1.473587E+06 -2.111101E+05 -8.049076E+02 -5.577958E+05  8.874244E+02 -3.337334E+03
        34   6 -1.470120E+06 -2.146275E+05 -7.307332E+02 -5.618158E+05  1.623639E+03 -4.079027E+03
        34   7 -1.525099E+06 -2.352404E+05 -1.521286E+04 -5.768198E+05 -4.558857E+02 -2.817488E+03
        34   8 -1.545798E+06 -2.381264E+05 -1.913485E+04 -5.775206E+05  2.854918E+02 -3.563027E+03
        34   9 -1.559568E+06 -2.480788E+05 -2.337374E+04 -5.862495E+05  1.025071E+03 -4.303498E+03
        34  10 -1.415145E+06 -1.940759E+05  1.282618E+04 -5.467869E+05 -5.501145E-10 -2.816578E-10
        34  11 -1.401369E+06 -1.840932E+05  1.752472E+04 -5.380687E+05 -3.729367E-09 -9.385849E-10
        34  12 -1.380664E+06 -1.811756E+05  2.191164E+04 -5.373789E+05 -4.403293E-09 -1.002596E-09
        34  13 -1.470124E+06 -2.146584E+05 -1.193312E+03 -5.618040E+05 -2.872227E-09 -6.812825E-10
        34  14 -1.473587E+06 -2.111101E+05 -8.049300E+02 -5.577958E+05 -4.010157E-09 -5.444247E-10
        34  15 -1.470120E+06 -2.146275E+05 -7.307694E+02 -5.618158E+05 -1.775834E-09 -2.722974E-11
        34  16 -1.525099E+06 -2.352404E+05 -1.521288E+04 -5.768198E+05 -3.069861E-09 -1.039826E-09
        34  17 -1.545798E+06 -2.381264E+05 -1.913487E+04 -5.775206E+05 -3.057930E-09 -1.223915E-09
        34  18 -1.559568E+06 -2.480788E+05 -2.337378E+04 -5.862495E+05  7.906073E-10  2.218231E-10
        34  19 -1.415145E+06 -1.940759E+05  1.282619E+04 -5.467869E+05 -7.547947E+02  2.363623E+03
        34  20 -1.401369E+06 -1.840932E+05  1.752475E+04 -5.380687E+05 -1.489438E+03  3.111611E+03
        34  21 -1.380664E+06 -1.811756E+05  2.191167E+04 -5.373789E+05 -2.222303E+03  3.854520E+03
        34  22 -1.470124E+06 -2.146584E+05 -1.193300E+03 -5.618040E+05 -1.494217E+02  2.590568E+03
        34  23 -1.473587E+06 -2.111101E+05 -8.049076E+02 -5.577958E+05 -8.874244E+02  3.337334E+03
        34  24 -1.470120E+06 -2.146275E+05 -7.307332E+02 -5.618158E+05 -1.623639E+03  4.079027E+03
        34  25 -1.525099E+06 -2.352404E+05 -1.521286E+04 -5.768198E+05  4.558857E+02  2.817488E+03
        34  26 -1.545798E+06 -2.381264E+05 -1.913485E+04 -5.775206E+05 -2.854918E+02  3.563027E+03
        34  27 -1.559568E+06 -2.480788E+05 -2.337374E+04 -5.862495E+05 -1.025071E+03  4.303498E+03
        35   1 -1.363418E+06 -1.746630E+05  2.636633E+04 -5.326414E+05  2.537026E+03 -4.325202E+03
        35   2 -1.349992E+06 -1.649616E+05  3.022773E+04 -5.241253E+05  3.419348E+03 -4.995009E+03
        35   3 -1.329840E+06 -1.621788E+05  3.365571E+04 -5.234254E+05  4.297605E+03 -5.653314E+03
        35   4 -1.470165E+06 -2.145852E+05 -7.867966E+02 -5.617728E+05  1.942847E+03 -4.548065E+03
        35   5 -1.473533E+06 -2.111585E+05 -1.123870E+03 -5.578524E+05  2.832757E+03 -5.215099E+03
        35   6 -1.470176E+06 -2.146523E+05 -1.900506E+03 -5.617484E+05  3.718584E+03 -5.870634E+03
        35   7 -1.576901E+06 -2.545067E+05 -2.794096E+04 -5.908999E+05  1.348778E+03 -4.770887E+03
        35   8 -1.597059E+06 -2.573545E+05 -3.247677E+04 -5.915734E+05  2.246293E+03 -5.435141E+03
        35   9 -1.610493E+06 -2.671244E+05 -3.745832E+04 -6.000636E+05  3.139707E+03 -6.087899E+03
        35  10 -1.363418E+06 -1.746630E+05  2.636628E+04 -5.326414E+05 -9.565552E-10 -5.763196E-10
        35  11 -1.349993E+06 -1.649617E+05  3.022766E+04 -5.241253E+05  4.436013E-10 -1.887065E-10
        35  12 -1.329840E+06 -1.621789E+05  3.365562E+04 -5.234254E+05 -8.338354E-10  4.856285E-10
        35  13 -1.470165E+06 -2.145852E+05 -7.868425E+02 -5.617728E+05 -2.409884E-09 -3.732625E-10
        35  14 -1.473533E+06 -2.111585E+05 -1.123936E+03 -5.578524E+05 -5.773731E-10 -3.382968E-11
        35  15 -1.470176E+06 -2.146523E+05 -1.900597E+03 -5.617484E+05 -1.141921E-09  2.194661E-10
        35  16 -1.576901E+06 -2.545068E+05 -2.794101E+04 -5.908999E+05 -2.061945E-09 -1.329951E-10
        35  17 -1.597059E+06 -2.573545E+05 -3.247683E+04 -5.915734E+05 -6.104159E-10 -8.496620E-10
        35  18 -1.610493E+06 -2.671245E+05 -3.745840E+04 -6.000635E+05 -6.640978E-12 -5.437108E-10
        35  19 -1.363418E+06 -1.746630E+05  2.636633E+04 -5.326414E+05 -2.537026E+03  4.325202E+03
        35  20 -1.349992E+06 -1.649616E+05  3.022773E+04 -5.241253E+05 -3.419348E+03  4.995009E+03
        35  21 -1.329840E+06 -1.621788E+05  3.365571E+04 -5.234254E+05 -4.297605E+03  5.653314E+03
        35  22 -1.470165E+06 -2.145852E+05 -7.867966E+02 -5.617728E+05 -1.942847E+03  4.548065E+03
        35  23 -1.473533E+06 -2.111585E+05 -1.123870E+03 -5.578524E+05 -2.832757E+03  5.215099E+03
        35  24 -1.470176E+06 -2.146523E+05 -1.900506E+03 -5.617484E+05 -3.718584E+03  5.870634E+03
        35  25 -1.576901E+06 -2.545067E+05 -2.794096E+04 -5.908999E+05 -1.348778E+03  4.770887E+03
        35  26 -1.597059E+06 -2.573545E+05 -3.247677E+04 -5.915734E+05 -2.246293E+03  5.435141E+03
        35  27 -1.610493E+06 -2.671244E+05 -3.745832E+04 -6.000636E+05 -3.139707E+03  6.087899E+03
        36   1 -1.313168E+06 -1.558685E+05  3.743995E+04 -5.190112E+05  4.844598E+03 -6.020151E+03
        36   2 -1.300175E+06 -1.463424E+05  3.954964E+04 -5.106179E+05  7.348607E+03 -6.041092E+03
        36   3 -1.281292E+06 -1.444661E+05  3.974500E+04 -5.095444E+05  9.839598E+03 -6.026395E+03
        36   4 -1.470319E+06 -2.144964E+05 -2.475288E+03 -5.617584E+05  4.265834E+03 -6.237427E+03
        36   5 -1.473328E+06 -2.111266E+05 -4.398307E+03 -5.579276E+05  6.793160E+03 -6.249714E+03
        36   6 -1.470452E+06 -2.154114E+05 -8.254569E+03 -5.614166E+05  9.307414E+03 -6.226381E+03
        36   7 -1.627445E+06 -2.731226E+05 -4.239235E+04 -6.044955E+05  3.687233E+03 -6.454642E+03
        36   8 -1.646451E+06 -2.759089E+05 -4.834867E+04 -6.052252E+05  6.237883E+03 -6.458273E+03
        36   9 -1.659576E+06 -2.863547E+05 -5.625722E+04 -6.132747E+05  8.775405E+03 -6.426300E+03
        36  10 -1.313168E+06 -1.558685E+05  3.743984E+04 -5.190112E+05  2.306281E-10  9.950313E-10
        36  11 -1.300175E+06 -1.463424E+05  3.954947E+04 -5.106179E+05  3.087082E-09  1.355320E-09
        36  12 -1.281293E+06 -1.444661E+05  3.974475E+04 -5.095443E+05  2.980025E-09  8.924611E-10
        36  13 -1.470319E+06 -2.144965E+05 -2.475395E+03 -5.617583E+05  1.761194E-09  5.948007E-10
        36  14 -1.473328E+06 -2.111267E+05 -4.398467E+03 -5.579275E+05  4.595362E-09  1.323504E-09
        36  15 -1.470452E+06 -2.154115E+05 -8.254805E+03 -5.614165E+05  4.577293E-10  7.576828E-10
        36  16 -1.627445E+06 -2.731227E+05 -4.239246E+04 -6.044955E+05  2.908313E-09  5.937771E-10
        36  17 -1.646451E+06 -2.759090E+05 -4.834883E+04 -6.052252E+05  2.615666E-09  1.360562E-09
        36  18 -1.659576E+06 -2.863548E+05 -5.625744E+04 -6.132746E+05  1.145203E-09  9.565796E-10
        36  19 -1.313168E+06 -1.558685E+05  3.743995E+04 -5.190112E+05 -4.844598E+03  6.020151E+03
        36  20 -1.300175E+06 -1.463424E+05  3.954964E+04 -5.106179E+05 -7.348607E+03  6.041092E+03
        36  21 -1.281292E+06 -1.444661E+05  3.974500E+04 -5.095444E+05 -9.839598E+03  6.026395E+03
        36  22 -1.470319E+06 -2.144964E+05 -2.475288E+03 -5.617584E+05 -4.265834E+03  6.237427E+03
        36  23 -1.473328E+06 -2.111266E+05 -4.398307E+03 -5.579276E+05 -6.793160E+03  6.249714E+03
        36  24 -1.470452E+06 -2.154114E+05 -8.254569E+03 -5.614166E+05 -9.307414E+03  6.226381E+03
        36  25 -1.627445E+06 -2.731226E+05 -4.239235E+04 -6.044955E+05 -3.687233E+03  6.454642E+03
        36  26 -1.646451E+06 -2.759089E+05 -4.834867E+04 -6.052252E+05 -6.237883E+03  6.458273E+03
        36  27 -1.659576E+06 -2.863547E+05 -5.625722E+04 -6.132747E+05 -8.775405E+03  6.426300E+03
        37   1 -1.264665E+06 -1.384970E+05  4.139095E+04 -5.076280E+05  1.166910E+04 -5.937556E+03
        37   2 -1.252361E+06 -1.268946E+05  3.687432E+04 -4.969040E+05  2.146035E+04 -3.116133E+03
        37   3 -1.239964E+06 -1.345757E+05  2.172879E+04 -4.901971E+05  3.109576E+04  1.213270E+02
        37   4 -1.471183E+06 -2.139750E+05 -1.074058E+04 -5.621975E+05  1.102323E+04 -6.180260E+03
        37   5 -1.472031E+06 -2.101316E+05 -1.908421E+04 -5.580040E+05  2.109097E+04 -3.255194E+03
        37   6 -1.472845E+06 -2.256300E+05 -3.827915E+04 -5.578276E+05  3.100260E+04  8.578244E+01
        37   7 -1.677659E+06 -2.894507E+05 -6.287549E+04 -6.167507E+05  1.037758E+04 -6.422881E+03
        37   8 -1.691654E+06 -2.933650E+05 -7.504653E+04 -6.190841E+05  2.072173E+04 -3.394200E+03
        37   9 -1.705671E+06 -3.166792E+05 -9.829132E+04 -6.254344E+05  3.090948E+04  5.025299E+01
        37  10 -1.264665E+06 -1.384971E+05  4.139063E+04 -5.076279E+05  1.375013E-09  1.953040E-10
        37  11 -1.252361E+06 -1.268947E+05  3.687344E+04 -4.969040E+05  9.598566E-10 -2.002481E-10
        37  12 -1.239965E+06 -1.345760E+05  2.172697E+04 -4.901971E+05 -4.956837E-11 -1.787013E-10
        37  13 -1.471183E+06 -2.139751E+05 -1.074088E+04 -5.621974E+05 -2.999903E-09  4.650483E-10
        37  14 -1.472032E+06 -2.101317E+05 -1.908507E+04 -5.580039E+05  2.803321E-09 -1.351098E-10
        37  15 -1.472846E+06 -2.256303E+05 -3.828096E+04 -5.578276E+05 -4.105371E-10  3.001988E-10
        37  16 -1.677659E+06 -2.894508E+05 -6.287577E+04 -6.167507E+05 -7.129140E-12  6.246524E-10
        37  17 -1.691655E+06 -2.933652E+05 -7.504736E+04 -6.190841E+05  2.481970E-09  4.610633E-10
        37  18 -1.705672E+06 -3.166794E+05 -9.829312E+04 -6.254344E+05  3.048001E-09  2.312538E-10
        37  19 -1.264665E+06 -1.384970E+05  4.139095E+04 -5.076280E+05 -1.166910E+04  5.937556E+03
        37  20 -1.252361E+06 -1.268946E+05  3.687432E+04 -4.969040E+05 -2.146035E+04  3.116133E+03
        37  21 -1.239964E+06 -1.345757E+05  2.172879E+04 -4.901971E+05 -3.109576E+04 -1.213270E+02
        37  22 -1.471183E+06 -2.139750E+05 -1.074058E+04 -5.621975E+05 -1.102323E+04  6.180260E+03
        37  23 -1.472031E+06 -2.101316E+05 -1.908421E+04 -5.580040E+05 -2.109097E+04  3.255194E+03
        37  24 -1.472845E+06 -2.256300E+05 -3.827915E+04 -5.578276E+05 -3.100260E+04 -8.578244E+01
        37  25 -1.677659E+06 -2.894507E+05 -6.287549E+04 -6.167507E+05 -1.037758E+04  6.422881E+03
        37  26 -1.691654E+06 -2.933650E+05 -7.504653E+04 -6.190841E+05 -2.072173E+04  3.394200E+03
        37  27 -1.705671E+06 -3.166792E+05 -9.829132E+04 -6.254344E+05 -3.090948E+04 -5.025299E+01
        38   1 -1.213498E+06 -1.292848E+05  1.582310E+04 -5.164046E+05  4.030703E+04  2.020758E+03
        38   2 -1.207536E+06 -8.646546E+04 -1.405710E+04 -4.714122E+05  7.931226E+04  1.691307E+04
        38   3 -1.260448E+06 -2.069495E+05 -1.162740E+05 -3.918964E+05  1.155028E+05  3.929800E+04
        38   4 -1.479124E+06 -2.081881E+05 -4.765204E+04 -5.679197E+05  3.791311E+04  1.122354E+03
        38   5 -1.459423E+06 -1.981083E+05 -8.142874E+04 -5.581060E+05  8.194091E+04  1.789813E+04
        38   6 -1.499623E+06 -3.523765E+05 -1.915521E+05 -5.137615E+05  1.231539E+05  4.216227E+04
        38   7 -1.744681E+06 -2.870924E+05 -1.111322E+05 -6.194179E+05  3.552030E+04  2.241678E+02
        38   8 -1.711247E+06 -3.097397E+05 -1.488060E+05 -6.447653E+05  8.456840E+04  1.888256E+04
        38   9 -1.738734E+06 -4.977659E+05 -2.668349E+05 -6.355749E+05  1.308018E+05  4.502360E+04
        38  10 -1.213500E+06 -1.292852E+05  1.582003E+04 -5.164047E+05  8.926980E-11 -4.049820E-11
        38  11 -1.207543E+06 -8.646747E+04 -1.406948E+04 -4.714133E+05  2.069206E-09  1.146781E-10
        38  12 -1.260463E+06 -2.069547E+05 -1.163020E+05 -3.919001E+05  4.190261E-10 -5.620366E-10
        38  13 -1.479125E+06 -2.081885E+05 -4.765475E+04 -5.679198E+05  1.231785E-09  9.587532E-11
        38  14 -1.459431E+06 -1.981105E+05 -8.144199E+04 -5.581071E+05 -1.837384E-09  2.440982E-09
        38  15 -1.499640E+06 -3.523825E+05 -1.915840E+05 -5.137657E+05  3.234612E-10  6.624120E-10
        38  16 -1.744683E+06 -2.870928E+05 -1.111346E+05 -6.194179E+05  1.372280E-10  6.851780E-10
        38  17 -1.711255E+06 -3.097420E+05 -1.488201E+05 -6.447666E+05 -1.115629E-09  1.476844E-09
        38  18 -1.738753E+06 -4.977727E+05 -2.668710E+05 -6.355797E+05  2.178817E-09 -2.237644E-10
        38  19 -1.213498E+06 -1.292848E+05  1.582310E+04 -5.164046E+05 -4.030703E+04 -2.020758E+03
        38  20 -1.207536E+06 -8.646546E+04 -1.405710E+04 -4.714122E+05 -7.931226E+04 -1.691307E+04
        38  21 -1.260448E+06 -2.069495E+05 -1.162740E+05 -3.918964E+05 -1.155028E+05 -3.929800E+04
        38  22 -1.479124E+06 -2.081881E+05 -4.765204E+04 -5.679197E+05 -3.791311E+04 -1.122354E+03
        38  23 -1.459423E+06 -1.981083E+05 -8.142874E+04 -5.581060E+05 -8.194091E+04 -1.789813E+04
        38  24 -1.499623E+06 -3.523765E+05 -1.915521E+05 -5.137615E+05 -1.231539E+05 -4.216227E+04
        38  25 -1.744681E+06 -2.870924E+05 -1.111322E+05 -6.194179E+05 -3.552030E+04 -2.241678E+02
        38  26 -1.711247E+06 -3.097397E+05 -1.488060E+05 -6.447653E+05 -8.456840E+04 -1.888256E+04
        38  27 -1.738734E+06 -4.977659E+05 -2.668349E+05 -6.355749E+05 -1.308018E+05 -4.502360E+04
        39   1 -1.936206E+05  7.107218E+04  8.741515E+04  2.913175E+04  5.993297E+04  2.813143E+00
        39   2 -2.046102E+05 -4.909444E+03  3.907744E+04  9.328329E+03  3.905322E+04  5.869808E-01
        39   3 -1.936297E+05 -3.899521E+03  2.358614E+04 -1.047467E+04  1.817338E+04 -3.067125E-01
        39   4 -1.936215E+05  7.107058E+04  8.741492E+04  3.843882E-09  5.993297E+04  6.512784E-10
        39   5 -2.046103E+05 -4.909608E+03  3.907742E+04 -2.589108E-09  3.905322E+04  1.411288E-09
        39   6 -1.936299E+05 -3.899728E+03  2.358611E+04  5.520620E-09  1.817338E+04 -8.961197E-10
        39   7 -1.936206E+05  7.107218E+04  8.741515E+04 -2.913175E+04  5.993297E+04 -2.813143E+00
        39   8 -2.046102E+05 -4.909444E+03  3.907744E+04 -9.328329E+03  3.905322E+04 -5.869808E-01
        39   9 -1.936297E+05 -3.899521E+03  2.358614E+04  1.047467E+04  1.817338E+04  3.067124E-01
        39  10 -1.936245E+05  7.107121E+04  8.740840E+04  2.913175E+04  2.615000E-10  5.162388E-11
        39  11 -2.046118E+05 -4.909854E+03  3.907457E+04  9.328329E+03 -6.526546E-10 -1.850275E-10
        39  12 -1.936301E+05 -3.899610E+03  2.358552E+04 -1.047467E+04 -9.250062E-10 -1.186542E-09
        39  13 -1.936254E+05  7.106962E+04  8.740817E+04 -4.096499E-10 -8.412604E-12  1.620279E-10
        39  14 -2.046119E+05 -4.910017E+03  3.907455E+04  9.193261E-09  1.146345E-10  1.436569E-10
        39  15 -1.936302E+05 -3.899816E+03  2.358549E+04  3.182857E-09 -1.224715E-09 -7.933756E-10
        39  16 -1.936245E+05  7.107121E+04  8.740840E+04 -2.913175E+04  8.196373E-10  2.293301E-10
        39  17 -2.046118E+05 -4.909854E+03  3.907457E+04 -9.328329E+03 -1.419423E-09  4.205724E-10
        39  18 -1.936301E+05 -3.899610E+03  2.358552E+04  1.047467E+04 -6.893234E-10 -4.012052E-10
        39  19 -1.936206E+05  7.107218E+04  8.741515E+04  2.913175E+04 -5.993297E+04 -2.813143E+00
        39  20 -2.046102E+05 -4.909444E+03  3.907744E+04  9.328329E+03 -3.905322E+04 -5.869808E-01
        39  21 -1.936297E+05 -3.899521E+03  2.358614E+04 -1.047467E+04 -1.817338E+04  3.067124E-01
        39  22 -1.936215E+05  7.107058E+04  8.741492E+04  3.960064E-09 -5.993297E+04 -3.292407E-10
        39  23 -2.046103E+05 -4.909608E+03  3.907742E+04 -2.714250E-09 -3.905322E+04 -1.141937E-09
        39  24 -1.936299E+05 -3.899728E+03  2.358611E+04  2.993587E-09 -1.817338E+04 -6.944781E-10
        39  25 -1.936206E+05  7.107218E+04  8.741515E+04 -2.913175E+04 -5.993297E+04  2.813143E+00
        39  26 -2.046102E+05 -4.909444E+03  3.907744E+04 -9.328329E+03 -3.905322E+04  5.869808E-01
        39  27 -1.936297E+05 -3.899521E+03  2.358614E+04  1.047467E+04 -1.817338E+04 -3.067124E-01
        40   1 -1.980362E+05  5.317555E+03  1.898794E+04  1.802400E+03  1.468934E+04  4.265914E-02
        40   2 -1.991041E+05 -4.410672E+02  1.002484E+04  4.486495E+02  9.617497E+03  6.952292E-03
        40   3 -1.980373E+05 -3.039202E+02  5.838504E+03 -9.050843E+02  4.545754E+03 -6.629073E-03
        40   4 -1.980362E+05  5.317549E+03  1.898794E+04  2.219884E-08  1.468934E+04 -1.254351E-09
        40   5 -1.991041E+05 -4.410675E+02  1.002484E+04 -1.326280E-08  9.617497E+03  6.887497E-10
        40   6 -1.980373E+05 -3.039217E+02  5.838504E+03 -5.599279E-08  4.545754E+03  1.413578E-09
        40   7 -1.980362E+05  5.317555E+03  1.898794E+04 -1.802400E+03  1.468934E+04 -4.265914E-02
        40   8 -1.991041E+05 -4.410672E+02  1.002484E+04 -4.486495E+02  9.617497E+03 -6.952291E-03
        40   9 -1.980373E+05 -3.039202E+02  5.838504E+03  9.050843E+02  4.545754E+03  6.629076E-03
        40  10 -1.980364E+05  5.317497E+03  1.898754E+04  1.802400E+03 -2.561292E-09 -1.284460E-09
        40  11 -1.991042E+05 -4.410920E+02  1.002466E+04  4.486495E+02  4.550395E-09  1.223222E-10
        40  12 -1.980373E+05 -3.039257E+02  5.838465E+03 -9.050843E+02  9.711373E-09  1.847970E-09
        40  13 -1.980364E+05  5.317491E+03  1.898754E+04  7.203705E-09 -2.158011E-09 -9.704780E-10
        40  14 -1.991042E+05 -4.410924E+02  1.002466E+04 -3.488367E-09 -1.072690E-09  1.584919E-10
        40  15 -1.980373E+05 -3.039273E+02  5.838465E+03  3.586556E-09 -2.247197E-09  1.612345E-09
        40  16 -1.980364E+05  5.317497E+03  1.898754E+04 -1.802400E+03  1.977335E-09 -6.538280E-10
        40  17 -1.991042E+05 -4.410920E+02  1.002466E+04 -4.486495E+02 -5.609128E-09  2.022019E-10
        40  18 -1.980373E+05 -3.039257E+02  5.838465E+03  9.050843E+02 -1.044005E-08  1.380197E-09
        40  19 -1.980362E+05  5.317555E+03  1.898794E+04  1.802400E+03 -1.468934E+04 -4.265914E-02
        40  20 -1.991041E+05 -4.410672E+02  1.002484E+04  4.486495E+02 -9.617497E+03 -6.952292E-03
        40  21 -1.980373E+05 -3.039202E+02  5.838504E+03 -9.050843E+02 -4.545754E+03  6.629077E-03
        40  22 -1.980362E+05  5.317549E+03  1.898794E+04 -1.640335E-08 -1.468934E+04 -6.929829E-10
        40  23 -1.991041E+05 -4.410675E+02  1.002484E+04  1.274685E-08 -9.617497E+03 -3.704426E-10
        40  24 -1.980373E+05 -3.039217E+02  5.838504E+03  6.316616E-08 -4.545754E+03  1.809712E-09
        40  25 -1.980362E+05  5.317555E+03  1.898794E+04 -1.802400E+03 -1.468934E+04  4.265914E-02
        40  26 -1.991041E+05 -4.410672E+02  1.002484E+04 -4.486495E+02 -9.617497E+03  6.952291E-03
        40  27 -1.980373E+05 -3.039202E+02  5.838504E+03  9.050843E+02 -4.545754E+03 -6.629073E-03
        41   1 -1.984503E+05  3.763462E+02  4.504713E+03  3.157242E+01  3.636024E+03  1.849674E-04
        41   2 -1.985882E+05 -4.991201E+01  2.509026E+03 -3.182544E+01  2.387702E+03 -1.224370E-04
        41   3 -1.984505E+05 -2.452581E+01  1.439181E+03 -9.522430E+01  1.139363E+03 -1.748102E-04
        41   4 -1.984503E+05  3.763462E+02  4.504713E+03  5.103314E-08  3.636024E+03  7.746188E-10
        41   5 -1.985882E+05 -4.991201E+01  2.509026E+03  8.111645E-09  2.387702E+03 -2.827953E-10
        41   6 -1.984505E+05 -2.452582E+01  1.439181E+03 -1.569632E-08  1.139363E+03  3.871328E-10
        41   7 -1.984503E+05  3.763462E+02  4.504713E+03 -3.157242E+01  3.636024E+03 -1.849659E-04
        41   8 -1.985882E+05 -4.991201E+01  2.509026E+03  3.182544E+01  2.387702E+03  1.224364E-04
        41   9 -1.984505E+05 -2.452581E+01  1.439181E+03  9.522430E+01  1.139363E+03  1.748110E-04
        41  10 -1.984504E+05  3.763427E+02  4.504688E+03  3.157242E+01 -1.189506E-08  1.697746E-09
        41  11 -1.985882E+05 -4.991354E+01  2.509015E+03 -3.182544E+01 -8.046301E-09  2.249080E-11
        41  12 -1.984505E+05 -2.452616E+01  1.439178E+03 -9.522430E+01 -3.559047E-10 -5.726196E-10
        41  13 -1.984504E+05  3.763427E+02  4.504688E+03  5.636014E-09 -1.081098E-09  1.378574E-09
        41  14 -1.985882E+05 -4.991354E+01  2.509015E+03 -2.699889E-09  5.024695E-10 -2.606284E-10
        41  15 -1.984505E+05 -2.452617E+01  1.439178E+03  1.349458E-09 -9.644724E-10 -5.977610E-10
        41  16 -1.984504E+05  3.763427E+02  4.504688E+03 -3.157242E+01  1.130802E-08  1.030457E-09
        41  17 -1.985882E+05 -4.991354E+01  2.509015E+03  3.182544E+01  5.874533E-09 -5.356792E-10
        41  18 -1.984505E+05 -2.452616E+01  1.439178E+03  9.522430E+01 -1.251192E-09 -6.449884E-10
        41  19 -1.984503E+05  3.763462E+02  4.504713E+03  3.157242E+01 -3.636024E+03 -1.849640E-04
        41  20 -1.985882E+05 -4.991201E+01  2.509026E+03 -3.182544E+01 -2.387702E+03  1.224371E-04
        41  21 -1.984505E+05 -2.452581E+01  1.439181E+03 -9.522430E+01 -1.139363E+03  1.748091E-04
        41  22 -1.984503E+05  3.763462E+02  4.504713E+03 -5.268257E-08 -3.636024E+03  1.977447E-09
        41  23 -1.985882E+05 -4.991201E+01  2.509026E+03 -1.566599E-08 -2.387702E+03 -2.412235E-10
        41  24 -1.984505E+05 -2.452582E+01  1.439181E+03  2.323558E-08 -1.139363E+03 -1.585625E-09
        41  25 -1.984503E+05  3.763462E+02  4.504713E+03 -3.157242E+01 -3.636024E+03  1.849680E-04
        41  26 -1.985882E+05 -4.991201E+01  2.509026E+03  3.182544E+01 -2.387702E+03 -1.224376E-04
        41  27 -1.984505E+05 -2.452581E+01  1.439181E+03  9.522430E+01 -1.139363E+03 -1.748124E-04
        42   1 -1.985012E+05  2.120271E+01  1.090156E+03 -2.439032E+01  9.120218E+02 -3.584072E-05
        42   2 -1.985250E+05 -7.603720E+00  6.027637E+02 -1.964659E+01  6.136514E+02 -1.942536E-05
        42   3 -1.985013E+05 -2.170745E+00  3.182307E+02 -1.490287E+01  3.152811E+02 -7.568740E-06
        42   4 -1.985012E+05  2.120271E+01  1.090156E+03 -8.083807E-09  9.120218E+02  4.138883E-10
        42   5 -1.985250E+05 -7.603721E+00  6.027637E+02 -7.147209E-09  6.136514E+02 -1.361470E-10
        42   6 -1.985013E+05 -2.170746E+00  3.182307E+02  8.596598E-09  3.152811E+02  1.190398E-09
        42   7 -1.985012E+05  2.120271E+01  1.090156E+03  2.439032E+01  9.120218E+02  3.584156E-05
        42   8 -1.985250E+05 -7.603720E+00  6.027637E+02  1.964659E+01  6.136514E+02  1.942507E-05
        42   9 -1.985013E+05 -2.170745E+00  3.182307E+02  1.490287E+01  3.152811E+02  7.571190E-06
        42  10 -1.985012E+05  2.120248E+01  1.090154E+03 -2.439032E+01  7.013374E-10 -6.442083E-10
        42  11 -1.985250E+05 -7.603821E+00  6.027630E+02 -1.964659E+01 -2.629540E-11 -3.533954E-10
        42  12 -1.985013E+05 -2.170772E+00  3.182306E+02 -1.490287E+01  1.392135E-09  9.690325E-10
        42  13 -1.985012E+05  2.120248E+01  1.090154E+03 -5.959213E-09  1.150786E-09 -5.416654E-10
        42  14 -1.985250E+05 -7.603822E+00  6.027630E+02 -9.238680E-09 -5.743410E-10 -4.049249E-10
        42  15 -1.985013E+05 -2.170772E+00  3.182306E+02 -3.905673E-09  3.595239E-10  4.114026E-10
        42  16 -1.985012E+05  2.120248E+01  1.090154E+03  2.439032E+01  8.590994E-10 -4.475352E-10
        42  17 -1.985250E+05 -7.603821E+00  6.027630E+02  1.964659E+01 -1.721848E-10 -4.607865E-10
        42  18 -1.985013E+05 -2.170772E+00  3.182306E+02  1.490287E+01  1.694102E-09 -1.253137E-10
        42  19 -1.985012E+05  2.120271E+01  1.090156E+03 -2.439032E+01 -9.120218E+02  3.583949E-05
        42  20 -1.985250E+05 -7.603720E+00  6.027637E+02 -1.964659E+01 -6.136514E+02  1.942468E-05
        42  21 -1.985013E+05 -2.170745E+00  3.182307E+02 -1.490287E+01 -3.152811E+02  7.570749E-06
        42  22 -1.985012E+05  2.120271E+01  1.090156E+03 -3.829360E-09 -9.120218E+02 -1.501027E-09
        42  23 -1.985250E+05 -7.603721E+00  6.027637E+02 -7.023125E-09 -6.136514E+02 -6.758920E-10
        42  24 -1.985013E+05 -2.170746E+00  3.182307E+02  6.743570E-09 -3.152811E+02 -3.677405E-10
        42  25 -1.985012E+05  2.120271E+01  1.090156E+03  2.439032E+01 -9.120218E+02 -3.584245E-05
        42  26 -1.985250E+05 -7.603720E+00  6.027637E+02  1.964659E+01 -6.136514E+02 -1.942605E-05
        42  27 -1.985013E+05 -2.170745E+00  3.182307E+02  1.490287E+01 -3.152811E+02 -7.571487E-06
        43   1 -1.985111E+05  5.880987E-02  2.179436E+02 -1.047939E+01  2.667607E+02 -4.502563E-06
        43   2 -1.985127E+05 -4.001242E-01  6.001499E+01 -8.383750E+00  2.371776E+02 -3.204320E-06
        43   3 -1.985111E+05 -3.485557E+00 -7.930723E+01 -6.288140E+00  2.075950E+02 -2.103285E-06
        43   4 -1.985111E+05  5.880967E-02  2.179436E+02  3.530011E-09  2.667607E+02  1.200013E-09
        43   5 -1.985127E+05 -4.001243E-01  6.001499E+01 -1.808170E-09  2.371776E+02 -1.950695E-10
        43   6 -1.985111E+05 -3.485557E+00 -7.930723E+01 -1.495563E-08  2.075950E+02  2.102525E-10
        43   7 -1.985111E+05  5.880987E-02  2.179436E+02  1.047939E+01  2.667607E+02  4.504922E-06
        43   8 -1.985127E+05 -4.001242E-01  6.001499E+01  8.383750E+00  2.371776E+02  3.203844E-06
        43   9 -1.985111E+05 -3.485557E+00 -7.930723E+01  6.288140E+00  2.075950E+02  2.103720E-06
        43  10 -1.985111E+05  5.879075E-02  2.179435E+02 -1.047939E+01  1.747172E-09  8.973045E-10
        43  11 -1.985127E+05 -4.001393E-01  6.001488E+01 -8.383750E+00  3.112252E-09 -3.520597E-10
        43  12 -1.985111E+05 -3.485569E+00 -7.930731E+01 -6.288140E+00 -1.936871E-09 -1.762866E-10
        43  13 -1.985111E+05  5.879055E-02  2.179435E+02  1.254516E-09 -1.000931E-09  4.728770E-10
        43  14 -1.985127E+05 -4.001394E-01  6.001488E+01 -9.370835E-09 -1.545685E-09 -8.829234E-11
        43  15 -1.985111E+05 -3.485569E+00 -7.930731E+01 -6.534034E-09  1.594942E-10  9.108305E-11
        43  16 -1.985111E+05  5.879076E-02  2.179435E+02  1.047939E+01 -1.206624E-09  3.976485E-11
        43  17 -1.985127E+05 -4.001393E-01  6.001488E+01  8.383750E+00  1.553394E-10  1.798698E-10
        43  18 -1.985111E+05 -3.485569E+00 -7.930731E+01  6.288139E+00 -2.775223E-10  3.559434E-10
        43  19 -1.985111E+05  5.880986E-02  2.179436E+02 -1.047939E+01 -2.667607E+02  4.504424E-06
        43  20 -1.985127E+05 -4.001242E-01  6.001499E+01 -8.383750E+00 -2.371776E+02  3.203629E-06
        43  21 -1.985111E+05 -3.485557E+00 -7.930723E+01 -6.288140E+00 -2.075950E+02  2.102956E-06
        43  22 -1.985111E+05  5.880963E-02  2.179436E+02 -1.016772E-09 -2.667607E+02 -2.568267E-10
        43  23 -1.985127E+05 -4.001243E-01  6.001499E+01 -8.317607E-09 -2.371776E+02  1.634955E-11
        43  24 -1.985111E+05 -3.485557E+00 -7.930723E+01 -3.302295E-12 -2.075950E+02 -2.704723E-11
        43  25 -1.985111E+05  5.880986E-02  2.179436E+02  1.047939E+01 -2.667607E+02 -4.504898E-06
        43  26 -1.985127E+05 -4.001242E-01  6.001499E+01  8.383750E+00 -2.371776E+02 -3.203614E-06
        43  27 -1.985111E+05 -3.485557E+00 -7.930723E+01  6.288139E+00 -2.075950E+02 -2.103114E-06
        44   1 -1.985206E+05  3.267010E+00 -1.538409E+02 -1.677319E+01  2.284301E+02 -6.173332E-06
        44   2 -1.985008E+05  7.266598E+00 -3.456830E+02 -6.264264E+00  4.005546E+02 -4.043819E-06
        44   3 -1.985207E+05 -5.755482E+01 -6.668157E+02  4.244825E+00  5.726816E+02  3.915247E-06
        44   4 -1.985206E+05  3.267009E+00 -1.538409E+02 -7.143885E-09  2.284301E+02  1.758874E-10
        44   5 -1.985008E+05  7.266598E+00 -3.456830E+02  1.227945E-08  4.005546E+02 -1.073979E-09
        44   6 -1.985207E+05 -5.755482E+01 -6.668157E+02  1.635898E-08  5.726816E+02 -1.673584E-09
        44   7 -1.985206E+05  3.267010E+00 -1.538409E+02  1.677319E+01  2.284301E+02  6.173663E-06
        44   8 -1.985008E+05  7.266598E+00 -3.456830E+02  6.264264E+00  4.005546E+02  4.041653E-06
        44   9 -1.985207E+05 -5.755482E+01 -6.668157E+02 -4.244825E+00  5.726816E+02 -3.918505E-06
        44  10 -1.985206E+05  3.266996E+00 -1.538410E+02 -1.677319E+01  1.397570E-09  1.159735E-10
        44  11 -1.985008E+05  7.266555E+00 -3.456833E+02 -6.264264E+00  4.308558E-10 -5.987448E-11
        44  12 -1.985207E+05 -5.755491E+01 -6.668163E+02  4.244825E+00  1.098589E-09 -3.391076E-10
        44  13 -1.985206E+05  3.266995E+00 -1.538410E+02  1.415750E-09 -6.751042E-11  1.676890E-10
        44  14 -1.985008E+05  7.266555E+00 -3.456833E+02  1.473242E-09 -2.261351E-09 -1.583476E-10
        44  15 -1.985207E+05 -5.755491E+01 -6.668163E+02  1.929992E-08  8.429723E-10 -4.037389E-10
        44  16 -1.985206E+05  3.266996E+00 -1.538410E+02  1.677319E+01  3.200269E-10  2.061388E-10
        44  17 -1.985008E+05  7.266555E+00 -3.456833E+02  6.264264E+00 -4.325468E-09 -2.765295E-10
        44  18 -1.985207E+05 -5.755491E+01 -6.668163E+02 -4.244825E+00  1.472875E-10 -4.739705E-10
        44  19 -1.985206E+05  3.267010E+00 -1.538409E+02 -1.677319E+01 -2.284301E+02  6.173592E-06
        44  20 -1.985008E+05  7.266598E+00 -3.456830E+02 -6.264264E+00 -4.005546E+02  4.043772E-06
        44  21 -1.985207E+05 -5.755482E+01 -6.668157E+02  4.244825E+00 -5.726816E+02 -3.915870E-06
        44  22 -1.985206E+05  3.267009E+00 -1.538409E+02  1.367115E-09 -2.284301E+02  1.543397E-10
        44  23 -1.985008E+05  7.266598E+00 -3.456830E+02 -7.178652E-10 -4.005546E+02  7.503673E-10
        44  24 -1.985207E+05 -5.755482E+01 -6.668157E+02  9.851643E-09 -5.726816E+02  8.717479E-10
        44  25 -1.985206E+05  3.267010E+00 -1.538409E+02  1.677319E+01 -2.284301E+02 -6.173258E-06
        44  26 -1.985008E+05  7.266598E+00 -3.456830E+02  6.264264E+00 -4.005546E+02 -4.042244E-06
        44  27 -1.985207E+05 -5.755482E+01 -6.668157E+02 -4.244825E+00 -5.726816E+02  3.917583E-06
        45   1 -1.985842E+05  4.629769E+01 -8.759386E+02 -1.388918E+02  7.082582E+02 -1.584994E-04
        45   2 -1.984215E+05  6.732641E+01 -1.522789E+03  6.820858E+01  1.478809E+03  1.625225E-04
        45   3 -1.985844E+05 -8.126782E+02 -2.896676E+03  2.753090E+02  2.249359E+03  9.977863E-04
        45   4 -1.985842E+05  4.629765E+01 -8.759386E+02  1.385979E-08  7.082582E+02 -3.738319E-10
        45   5 -1.984215E+05  6.732640E+01 -1.522789E+03 -2.540275E-10  1.478809E+03  1.887755E-09
        45   6 -1.985844E+05 -8.126784E+02 -2.896676E+03  3.669513E-09  2.249359E+03  4.702488E-10
        45   7 -1.985842E+05  4.629769E+01 -8.759386E+02  1.388918E+02  7.082582E+02  1.584986E-04
        45   8 -1.984215E+05  6.732641E+01 -1.522789E+03 -6.820858E+01  1.478809E+03 -1.625188E-04
        45   9 -1.985844E+05 -8.126782E+02 -2.896676E+03 -2.753090E+02  2.249359E+03 -9.977853E-04
        45  10 -1.985842E+05  4.629756E+01 -8.759396E+02 -1.388918E+02 -1.400878E-09 -1.298166E-10
        45  11 -1.984215E+05  6.732582E+01 -1.522793E+03  6.820858E+01 -9.097391E-10  2.359412E-10
        45  12 -1.985844E+05 -8.126796E+02 -2.896686E+03  2.753090E+02  9.384660E-10 -4.629067E-10
        45  13 -1.985842E+05  4.629752E+01 -8.759396E+02  9.706813E-09 -2.155878E-09 -4.694580E-11
        45  14 -1.984215E+05  6.732581E+01 -1.522793E+03 -5.664237E-09 -3.804907E-09  4.566011E-10
        45  15 -1.985844E+05 -8.126797E+02 -2.896686E+03  6.426952E-09 -1.731499E-09 -4.273879E-10
        45  16 -1.985842E+05  4.629756E+01 -8.759396E+02  1.388918E+02  1.333477E-09  4.426071E-11
        45  17 -1.984215E+05  6.732582E+01 -1.522793E+03 -6.820858E+01  1.020740E-10  6.733092E-10
        45  18 -1.985844E+05 -8.126796E+02 -2.896686E+03 -2.753090E+02 -1.618098E-09 -3.825297E-10
        45  19 -1.985842E+05  4.629769E+01 -8.759386E+02 -1.388918E+02 -7.082582E+02  1.584992E-04
        45  20 -1.984215E+05  6.732641E+01 -1.522789E+03  6.820858E+01 -1.478809E+03 -1.625221E-04
        45  21 -1.985844E+05 -8.126782E+02 -2.896676E+03  2.753090E+02 -2.249359E+03 -9.977872E-04
        45  22 -1.985842E+05  4.629765E+01 -8.759386E+02  1.417473E-08 -7.082582E+02  2.747638E-10
        45  23 -1.984215E+05  6.732640E+01 -1.522789E+03  8.310870E-09 -1.478809E+03 -9.863590E-10
        45  24 -1.985844E+05 -8.126784E+02 -2.896676E+03  7.563278E-09 -2.249359E+03 -1.323103E-09
        45  25 -1.985842E+05  4.629769E+01 -8.759386E+02  1.388918E+02 -7.082582E+02 -1.584986E-04
        45  26 -1.984215E+05  6.732641E+01 -1.522789E+03 -6.820858E+01 -1.478809E+03  1.625201E-04
        45  27 -1.985844E+05 -8.126782E+02 -2.896676E+03 -2.753090E+02 -2.249359E+03  9.977845E-04
        46   1 -1.992578E+05  5.959802E+02 -3.600722E+03 -1.601011E+03  2.780953E+03 -7.173753E-03
        46   2 -1.975797E+05  7.503302E+02 -5.969751E+03  1.425585E+03  5.971205E+03  1.371552E-02
        46   3 -1.992589E+05 -1.086149E+04 -1.335779E+04  4.452126E+03  9.161412E+03  6.571851E-02
        46   4 -1.992579E+05  5.959754E+02 -3.600722E+03 -9.561356E-09  2.780953E+03 -9.476393E-10
        46   5 -1.975797E+05  7.503264E+02 -5.969752E+03 -8.252045E-09  5.971205E+03 -1.292903E-09
        46   6 -1.992590E+05 -1.086152E+04 -1.335779E+04 -3.443314E-09  9.161412E+03 -4.725011E-10
        46   7 -1.992578E+05  5.959802E+02 -3.600722E+03  1.601011E+03  2.780953E+03  7.173751E-03
        46   8 -1.975797E+05  7.503302E+02 -5.969751E+03 -1.425585E+03  5.971205E+03 -1.371552E-02
        46   9 -1.992589E+05 -1.086149E+04 -1.335779E+04 -4.452126E+03  9.161412E+03 -6.571851E-02
        46  10 -1.992579E+05  5.959781E+02 -3.600736E+03 -1.601011E+03 -1.669250E-09 -6.871147E-10
        46  11 -1.975798E+05  7.503206E+02 -5.969818E+03  1.425585E+03  3.026740E-10 -2.344639E-10
        46  12 -1.992590E+05 -1.086151E+04 -1.335795E+04  4.452126E+03  9.712655E-10 -1.950058E-11
        46  13 -1.992579E+05  5.959733E+02 -3.600737E+03 -1.159788E-08 -3.090693E-09 -6.547388E-10
        46  14 -1.975798E+05  7.503168E+02 -5.969819E+03 -1.035811E-08 -2.694311E-09 -2.629909E-11
        46  15 -1.992590E+05 -1.086155E+04 -1.335795E+04 -3.733826E-09  3.126875E-09  7.255298E-11
        46  16 -1.992579E+05  5.959781E+02 -3.600736E+03  1.601011E+03 -1.530093E-09 -6.173169E-10
        46  17 -1.975798E+05  7.503206E+02 -5.969818E+03 -1.425585E+03  5.582610E-10  1.864833E-10
        46  18 -1.992590E+05 -1.086151E+04 -1.335795E+04 -4.452126E+03  9.553575E-10  1.674369E-10
        46  19 -1.992578E+05  5.959802E+02 -3.600722E+03 -1.601011E+03 -2.780953E+03  7.173751E-03
        46  20 -1.975797E+05  7.503302E+02 -5.969751E+03  1.425585E+03 -5.971205E+03 -1.371552E-02
        46  21 -1.992589E+05 -1.086149E+04 -1.335779E+04  4.452126E+03 -9.161412E+03 -6.571851E-02
        46  22 -1.992579E+05  5.959754E+02 -3.600722E+03 -5.014694E-09 -2.780953E+03 -3.668412E-10
        46  23 -1.975797E+05  7.503264E+02 -5.969752E+03 -6.002438E-09 -5.971205E+03  1.247839E-09
        46  24 -1.992590E+05 -1.086152E+04 -1.335779E+04 -3.487876E-09 -9.161412E+03  6.182287E-10
        46  25 -1.992578E+05  5.959802E+02 -3.600722E+03  1.601011E+03 -2.780953E+03 -7.173752E-03
        46  26 -1.975797E+05  7.503302E+02 -5.969751E+03 -1.425585E+03 -5.971205E+03  1.371552E-02
        46  27 -1.992589E+05 -1.086149E+04 -1.335779E+04 -4.452126E+03 -9.161412E+03  6.571851E-02
        47   1  1.915494E+05  1.601413E+05  1.893564E+05 -6.729131E+04  8.618545E+03  2.166059E+04
        47   2  1.568022E+05  4.315690E+04  1.503546E+05 -3.656415E+04  2.559103E+04  6.064021E+03
        47   3  1.289371E+05 -6.989250E+04  1.232635E+05 -6.527971E+04  2.295599E+04 -9.534494E+03
        47   4  3.757030E+03 -5.941064E+05  4.797552E+03 -6.556619E+04  8.623133E+03  2.379404E+03
        47   5 -3.388476E+02 -5.948248E+05  2.811956E+03 -3.584369E+04  2.559516E+04  9.070172E+02
        47   6 -6.346576E-02 -5.940688E+05  2.931493E+03 -6.556732E+04  2.295073E+04 -5.700777E+02
        47   7 -1.840773E+05 -1.347835E+06 -1.798015E+05 -6.384312E+04  8.627618E+03 -1.687841E+04
        47   8 -1.575085E+05 -1.232430E+06 -1.447578E+05 -3.512393E+04  2.559927E+04 -4.244727E+03
        47   9 -1.289564E+05 -1.117990E+06 -1.174183E+05 -6.585464E+04  2.294546E+04  8.386831E+03
        47  10  1.915492E+05  1.601408E+05  1.893553E+05 -6.729146E+04  8.611911E-10  1.790981E-09
        47  11  1.568015E+05  4.315669E+04  1.503533E+05 -3.656428E+04  1.828383E-09 -3.556959E-10
        47  12  1.289366E+05 -6.989274E+04  1.232623E+05 -6.527953E+04  1.120789E-09 -1.691467E-09
        47  13  3.756949E+03 -5.941065E+05  4.797401E+03 -6.556620E+04 -2.329197E-10 -2.008857E-11
        47  14 -3.395512E+02 -5.948250E+05  2.810723E+03 -3.584371E+04  2.095447E-09 -4.018189E-10
        47  15 -6.290138E-01 -5.940689E+05  2.930503E+03 -6.556731E+04  1.796320E-09 -6.638899E-10
        47  16 -1.840775E+05 -1.347835E+06 -1.798022E+05 -6.384300E+04  1.959393E-09 -1.851573E-09
        47  17 -1.575092E+05 -1.232430E+06 -1.447591E+05 -3.512384E+04  8.502811E-10 -4.234037E-11
        47  18 -1.289570E+05 -1.117991E+06 -1.174194E+05 -6.585479E+04 -1.568455E-10  1.422170E-09
        47  19  1.915494E+05  1.601413E+05  1.893564E+05 -6.729131E+04 -8.618545E+03 -2.166059E+04
        47  20  1.568022E+05  4.315690E+04  1.503546E+05 -3.656415E+04 -2.559103E+04 -6.064021E+03
        47  21  1.289371E+05 -6.989250E+04  1.232635E+05 -6.527971E+04 -2.295599E+04  9.534494E+03
        47  22  3.757030E+03 -5.941064E+05  4.797552E+03 -6.556619E+04 -8.623133E+03 -2.379404E+03
        47  23 -3.388476E+02 -5.948248E+05  2.811956E+03 -3.584369E+04 -2.559516E+04 -9.070172E+02
        47  24 -6.346575E-02 -5.940688E+05  2.931493E+03 -6.556732E+04 -2.295073E+04  5.700777E+02
        47  25 -1.840773E+05 -1.347835E+06 -1.798015E+05 -6.384312E+04 -8.627618E+03  1.687841E+04
        47  26 -1.575085E+05 -1.232430E+06 -1.447578E+05 -3.512393E+04 -2.559927E+04  4.244727E+03
        47  27 -1.289564E+05 -1.117990E+06 -1.174183E+05 -6.585464E+04 -2.294546E+04 -8.386831E+03
        48   1  1.020074E+05 -1.807250E+05  9.853447E+04 -6.650906E+04  1.731333E+04 -4.112365E+03
        48   2  7.316644E+04 -2.966969E+05  7.301913E+04 -3.560789E+04  1.277958E+04 -6.905965E+03
        48   3  4.720149E+04 -4.116540E+05  5.002326E+04 -6.517435E+04  7.527119E+03 -9.702127E+03
        48   4  2.255363E+02 -5.941681E+05  3.244883E+03 -6.579478E+04  1.731156E+04 -1.105448E+03
        48   5 -1.514423E+02 -5.946147E+05  4.491110E+03 -3.555912E+04  1.277664E+04 -3.380992E+03
        48   6  2.259132E+03 -5.941488E+05  7.898040E+03 -6.579277E+04  7.522814E+03 -5.659604E+03
        48   7 -1.015683E+05 -1.007453E+06 -9.205603E+04 -6.508093E+04  1.730979E+04  1.899481E+03
        48   8 -7.347552E+04 -8.924503E+05 -6.404274E+04 -3.551035E+04  1.277370E+04  1.423027E+02
        48   9 -4.268555E+04 -7.766129E+05 -3.422933E+04 -6.641099E+04  7.518500E+03 -1.618261E+03
        48  10  1.020071E+05 -1.807251E+05  9.853387E+04 -6.650901E+04  6.717102E-10  1.141146E-09
        48  11  7.316625E+04 -2.966970E+05  7.301874E+04 -3.560782E+04 -1.064926E-09 -1.473891E-09
        48  12  4.720140E+04 -4.116541E+05  5.002297E+04 -6.517429E+04 -5.593884E-11 -2.290123E-09
        48  13  2.252143E+02 -5.941682E+05  3.244318E+03 -6.579476E+04  1.849565E-09  2.232785E-11
        48  14 -1.516206E+02 -5.946148E+05  4.490782E+03 -3.555908E+04  1.630207E-09 -9.255537E-10
        48  15  2.259063E+03 -5.941489E+05  7.897873E+03 -6.579273E+04 -8.014606E-10 -1.137591E-09
        48  16 -1.015686E+05 -1.007453E+06 -9.205660E+04 -6.508096E+04 -8.195368E-10 -1.486582E-09
        48  17 -7.347570E+04 -8.924504E+05 -6.404305E+04 -3.551035E+04  8.668087E-10  5.821570E-10
        48  18 -4.268561E+04 -7.766129E+05 -3.422945E+04 -6.641098E+04 -1.390995E-09  1.806747E-09
        48  19  1.020074E+05 -1.807250E+05  9.853447E+04 -6.650906E+04 -1.731333E+04  4.112365E+03
        48  20  7.316644E+04 -2.966969E+05  7.301913E+04 -3.560789E+04 -1.277958E+04  6.905965E+03
        48  21  4.720149E+04 -4.116540E+05  5.002326E+04 -6.517435E+04 -7.527119E+03  9.702127E+03
        48  22  2.255363E+02 -5.941681E+05  3.244883E+03 -6.579478E+04 -1.731156E+04  1.105448E+03
        48  23 -1.514423E+02 -5.946147E+05  4.491110E+03 -3.555912E+04 -1.277664E+04  3.380992E+03
        48  24  2.259132E+03 -5.941488E+05  7.898040E+03 -6.579277E+04 -7.522814E+03  5.659604E+03
        48  25 -1.015683E+05 -1.007453E+06 -9.205603E+04 -6.508093E+04 -1.730979E+04 -1.899481E+03
        48  26 -7.347552E+04 -8.924503E+05 -6.404274E+04 -3.551035E+04 -1.277370E+04 -1.423027E+02
        48  27 -4.268555E+04 -7.766129E+05 -3.422933E+04 -6.641099E+04 -7.518500E+03  1.618261E+03
        49   1  1.618741E+04 -5.208095E+05  2.596196E+04 -7.005082E+04  3.482524E+03 -1.245742E+04
        49   2 -1.271921E+04 -6.404934E+05  5.496392E+03 -3.178948E+04 -1.365111E+03 -1.717272E+04
        49   3 -1.119342E+04 -7.520865E+05 -4.322529E+03 -5.392282E+04 -1.040745E+03 -2.188187E+04
        49   4 -1.410104E+03 -5.924085E+05  9.674640E+03 -6.578595E+04  3.476382E+03 -7.105227E+03
        49   5 -1.899248E+03 -5.967656E+05  1.578904E+04 -3.557372E+04 -1.366784E+03 -1.554272E+04
        49   6  2.868906E+04 -5.924021E+05  3.513517E+04 -6.575430E+04 -1.038012E+03 -2.397491E+04
        49   7 -1.900789E+04 -6.640025E+05 -6.612897E+03 -6.152159E+04  3.470313E+03 -1.753641E+03
        49   8  8.920634E+03 -5.530360E+05  2.608157E+04 -3.935822E+04 -1.368478E+03 -1.391262E+04
        49   9  6.857015E+04 -4.326941E+05  7.459107E+04 -7.758881E+04 -1.035200E+03 -2.606848E+04
        49  10  1.618735E+04 -5.208097E+05  2.596165E+04 -7.005078E+04 -1.204417E-09 -2.451349E-10
        49  11 -1.271929E+04 -6.404937E+05  5.495834E+03 -3.178950E+04 -6.467685E-10 -1.546951E-09
        49  12 -1.119355E+04 -7.520870E+05 -4.323432E+03 -5.392284E+04  3.683211E-10 -7.553749E-10
        49  13 -1.410130E+03 -5.924085E+05  9.674523E+03 -6.578593E+04 -1.567263E-10 -1.188007E-11
        49  14 -1.899315E+03 -5.967658E+05  1.578858E+04 -3.557373E+04 -8.120564E-10 -1.054668E-09
        49  15  2.868890E+04 -5.924027E+05  3.513409E+04 -6.575432E+04 -2.442188E-11 -1.153331E-09
        49  16 -1.900790E+04 -6.640025E+05 -6.612926E+03 -6.152158E+04 -2.295876E-09 -1.635086E-10
        49  17  8.920580E+03 -5.530362E+05  2.608120E+04 -3.935823E+04 -2.481005E-10  4.712069E-10
        49  18  6.856997E+04 -4.326949E+05  7.458979E+04 -7.758883E+04  7.970908E-10  3.489534E-10
        49  19  1.618741E+04 -5.208095E+05  2.596196E+04 -7.005082E+04 -3.482524E+03  1.245742E+04
        49  20 -1.271921E+04 -6.404934E+05  5.496392E+03 -3.178948E+04  1.365111E+03  1.717272E+04
        49  21 -1.119342E+04 -7.520865E+05 -4.322529E+03 -5.392282E+04  1.040745E+03  2.188187E+04
        49  22 -1.410104E+03 -5.924085E+05  9.674640E+03 -6.578595E+04 -3.476382E+03  7.105227E+03
        49  23 -1.899248E+03 -5.967656E+05  1.578904E+04 -3.557372E+04  1.366784E+03  1.554272E+04
        49  24  2.868906E+04 -5.924021E+05  3.513517E+04 -6.575430E+04  1.038012E+03  2.397491E+04
        49  25 -1.900789E+04 -6.640025E+05 -6.612897E+03 -6.152159E+04 -3.470313E+03  1.753641E+03
        49  26  8.920634E+03 -5.530360E+05  2.608157E+04 -3.935822E+04  1.368478E+03  1.391262E+04
        49  27  6.857015E+04 -4.326941E+05  7.459107E+04 -7.758881E+04  1.035200E+03  2.606848E+04
        50   1 -7.328505E+05 -1.555368E+05 -5.043292E+04 -2.742376E+05 -1.835491E+04 -5.538482E+03
        50   2 -7.188158E+05 -1.239899E+05 -3.118255E+04 -2.688430E+05 -1.178740E+04 -4.604291E+02
        50   3 -7.074807E+05 -1.188903E+05 -2.306127E+04 -2.650950E+05 -4.199365E+03  1.896485E+03
        50   4 -6.409544E+05 -1.139568E+05 -2.428494E+04 -2.420508E+05 -1.589573E+04 -4.616628E+03
        50   5 -6.384977E+05 -9.177028E+04 -1.032726E+04 -2.446547E+05 -1.116009E+04 -2.253205E+02
        50   6 -6.383762E+05 -9.566651E+04 -6.045155E+03 -2.489058E+05 -5.404097E+03  1.444849E+03
        50   7 -5.490510E+05 -7.237555E+04  1.861946E+03 -2.098596E+05 -1.343618E+04 -3.694565E+03
        50   8 -5.581734E+05 -5.955009E+04  1.052741E+04 -2.204636E+05 -1.053268E+04  9.826182E+00
        50   9 -5.692666E+05 -7.244247E+04  1.097071E+04 -2.327149E+05 -6.608984E+03  9.931690E+02
        50  10 -7.328509E+05 -1.555369E+05 -5.043361E+04 -2.742377E+05  5.859107E-10  1.224614E-13
        50  11 -7.188160E+05 -1.239899E+05 -3.118281E+04 -2.688430E+05  3.787111E-09  1.460365E-09
        50  12 -7.074808E+05 -1.188903E+05 -2.306131E+04 -2.650950E+05  5.654395E-09  6.413091E-10
        50  13 -6.409547E+05 -1.139568E+05 -2.428545E+04 -2.420508E+05  1.903508E-09  6.685399E-10
        50  14 -6.384978E+05 -9.177031E+04 -1.032750E+04 -2.446547E+05  5.222183E-09  1.584262E-09
        50  15 -6.383762E+05 -9.566652E+04 -6.045214E+03 -2.489058E+05  3.497679E-09  4.992930E-10
        50  16 -5.490512E+05 -7.237561E+04  1.861580E+03 -2.098596E+05  2.207619E-09  1.358474E-09
        50  17 -5.581735E+05 -5.955012E+04  1.052720E+04 -2.204636E+05  3.366677E-09  2.065184E-09
        50  18 -5.692666E+05 -7.244248E+04  1.097063E+04 -2.327149E+05 -1.091849E-09  4.206379E-10
        50  19 -7.328505E+05 -1.555368E+05 -5.043292E+04 -2.742376E+05  1.835491E+04  5.538482E+03
        50  20 -7.188158E+05 -1.239899E+05 -3.118255E+04 -2.688430E+05  1.178740E+04  4.604291E+02
        50  21 -7.074807E+05 -1.188903E+05 -2.306127E+04 -2.650950E+05  4.199365E+03 -1.896485E+03
        50  22 -6.409544E+05 -1.139568E+05 -2.428494E+04 -2.420508E+05  1.589573E+04  4.616628E+03
        50  23 -6.384977E+05 -9.177028E+04 -1.032726E+04 -2.446547E+05  1.116009E+04  2.253205E+02
        50  24 -6.383762E+05 -9.566651E+04 -6.045155E+03 -2.489058E+05  5.404097E+03 -1.444849E+03
        50  25 -5.490510E+05 -7.237555E+04  1.861946E+03 -2.098596E+05  1.343618E+04  3.694565E+03
        50  26 -5.581734E+05 -5.955009E+04  1.052741E+04 -2.204636E+05  1.053268E+04 -9.826182E+00
        50  27 -5.692666E+05 -7.244247E+04  1.097071E+04 -2.327149E+05  6.608984E+03 -9.931690E+02
        51   1 -6.893245E+05 -1.177177E+05 -1.809996E+04 -2.622690E+05 -3.933215E+03  1.099426E+03
        51   2 -6.771649E+05 -1.072597E+05 -1.184989E+04 -2.548831E+05 -2.360926E+03  9.904123E+02
        51   3 -6.597442E+05 -1.045499E+05 -7.055375E+03 -2.540595E+05 -7.339513E+02  7.354396E+02
        51   4 -6.375700E+05 -9.788625E+04 -4.857430E+03 -2.476369E+05 -4.296686E+03  9.631570E+02
        51   5 -6.401056E+05 -9.328303E+04 -2.426011E+03 -2.446325E+05 -2.822589E+03  8.173546E+02
        51   6 -6.373611E+05 -9.640836E+04 -1.372174E+03 -2.481904E+05 -1.293854E+03  5.255836E+02
        51   7 -5.858127E+05 -7.805451E+04  8.384913E+03 -2.330037E+05 -4.660191E+03  8.268744E+02
        51   8 -6.030453E+05 -7.930636E+04  6.997689E+03 -2.343814E+05 -3.284278E+03  6.442865E+02
        51   9 -6.149778E+05 -8.826697E+04  4.310895E+03 -2.423211E+05 -1.853770E+03  3.157230E+02
        51  10 -6.893245E+05 -1.177178E+05 -1.809999E+04 -2.622689E+05 -1.373951E-09 -5.150725E-10
        51  11 -6.771649E+05 -1.072597E+05 -1.184990E+04 -2.548831E+05 -2.212177E-09  5.600947E-10
        51  12 -6.597442E+05 -1.045499E+05 -7.055377E+03 -2.540595E+05 -2.233445E-09  1.391738E-10
        51  13 -6.375700E+05 -9.788626E+04 -4.857466E+03 -2.476369E+05  1.288367E-09  2.891500E-10
        51  14 -6.401056E+05 -9.328303E+04 -2.426027E+03 -2.446325E+05 -1.184412E-09  7.128579E-10
        51  15 -6.373611E+05 -9.640836E+04 -1.372178E+03 -2.481904E+05 -2.770056E-09  4.044328E-10
        51  16 -5.858127E+05 -7.805451E+04  8.384871E+03 -2.330037E+05 -8.568323E-10  5.782379E-10
        51  17 -6.030453E+05 -7.930636E+04  6.997668E+03 -2.343814E+05 -5.042233E-10  7.415807E-10
        51  18 -6.149778E+05 -8.826697E+04  4.310888E+03 -2.423211E+05  1.288968E-09  8.128653E-11
        51  19 -6.893245E+05 -1.177177E+05 -1.809996E+04 -2.622690E+05  3.933215E+03 -1.099426E+03
        51  20 -6.771649E+05 -1.072597E+05 -1.184989E+04 -2.548831E+05  2.360926E+03 -9.904123E+02
        51  21 -6.597442E+05 -1.045499E+05 -7.055375E+03 -2.540595E+05  7.339513E+02 -7.354396E+02
        51  22 -6.375700E+05 -9.788625E+04 -4.857430E+03 -2.476369E+05  4.296686E+03 -9.631570E+02
        51  23 -6.401056E+05 -9.328303E+04 -2.426011E+03 -2.446325E+05  2.822589E+03 -8.173546E+02
        51  24 -6.373611E+05 -9.640836E+04 -1.372174E+03 -2.481904E+05  1.293854E+03 -5.255836E+02
        51  25 -5.858127E+05 -7.805451E+04  8.384913E+03 -2.330037E+05  4.660191E+03 -8.268744E+02
        51  26 -6.030453E+05 -7.930636E+04  6.997689E+03 -2.343814E+05  3.284278E+03 -6.442865E+02
        51  27 -6.149778E+05 -8.826697E+04  4.310895E+03 -2.423211E+05  1.853770E+03 -3.157230E+02
        52   1 -6.443090E+05 -9.922299E+04 -2.796105E+03 -2.500283E+05 -4.072203E+02  3.213212E+02
        52   2 -6.323364E+05 -9.045492E+04  1.428259E+03 -2.424673E+05  1.777786E+02 -3.362563E+02
        52   3 -6.143769E+05 -8.790415E+04  5.394667E+03 -2.418502E+05  7.654234E+02 -1.000783E+03
        52   4 -6.372758E+05 -9.658348E+04 -1.059987E+03 -2.480837E+05 -9.227293E+02  1.281091E+02
        52   5 -6.402614E+05 -9.341793E+04 -5.809992E+02 -2.446330E+05 -3.424223E+02 -5.312367E+02
        52   6 -6.372595E+05 -9.646890E+04 -3.562662E+02 -2.481265E+05  2.405216E+02 -1.197533E+03
        52   7 -6.302425E+05 -9.394393E+04  6.761529E+02 -2.461390E+05 -1.438251E+03 -6.510788E+01
        52   8 -6.481865E+05 -9.638097E+04 -2.590285E+03 -2.467987E+05 -8.626216E+02 -7.262164E+02
        52   9 -6.601417E+05 -1.050337E+05 -6.107296E+03 -2.544026E+05 -2.843638E+02 -1.394277E+03
        52  10 -6.443090E+05 -9.922299E+04 -2.796105E+03 -2.500283E+05 -2.962924E-09 -5.570170E-10
        52  11 -6.323364E+05 -9.045492E+04  1.428258E+03 -2.424673E+05 -6.811662E-09 -1.878602E-09
        52  12 -6.143769E+05 -8.790415E+04  5.394664E+03 -2.418502E+05 -1.407238E-09 -8.697097E-10
        52  13 -6.372758E+05 -9.658348E+04 -1.059989E+03 -2.480837E+05 -2.753208E-09 -3.427599E-10
        52  14 -6.402614E+05 -9.341793E+04 -5.810000E+02 -2.446330E+05 -4.329283E-09 -1.354076E-09
        52  15 -6.372595E+05 -9.646890E+04 -3.562690E+02 -2.481265E+05 -4.122215E-09 -1.141201E-09
        52  16 -6.302425E+05 -9.394393E+04  6.761490E+02 -2.461390E+05  1.596508E-09 -3.764175E-10
        52  17 -6.481865E+05 -9.638097E+04 -2.590287E+03 -2.467987E+05 -1.787002E-09 -1.051855E-09
        52  18 -6.601417E+05 -1.050337E+05 -6.107300E+03 -2.544026E+05 -7.204135E-10 -1.013689E-09
        52  19 -6.443090E+05 -9.922299E+04 -2.796105E+03 -2.500283E+05  4.072203E+02 -3.213212E+02
        52  20 -6.323364E+05 -9.045492E+04  1.428259E+03 -2.424673E+05 -1.777786E+02  3.362563E+02
        52  21 -6.143769E+05 -8.790415E+04  5.394667E+03 -2.418502E+05 -7.654234E+02  1.000783E+03
        52  22 -6.372758E+05 -9.658348E+04 -1.059987E+03 -2.480837E+05  9.227293E+02 -1.281091E+02
        52  23 -6.402614E+05 -9.341793E+04 -5.809992E+02 -2.446330E+05  3.424223E+02  5.312367E+02
        52  24 -6.372595E+05 -9.646890E+04 -3.562662E+02 -2.481265E+05 -2.405216E+02  1.197533E+03
        52  25 -6.302425E+05 -9.394393E+04  6.761529E+02 -2.461390E+05  1.438251E+03  6.510788E+01
        52  26 -6.481865E+05 -9.638097E+04 -2.590285E+03 -2.467987E+05  8.626216E+02  7.262164E+02
        52  27 -6.601417E+05 -1.050337E+05 -6.107296E+03 -2.544026E+05  2.843638E+02  1.394277E+03
        53   1 -5.992396E+05 -8.225807E+04  9.395966E+03 -2.377313E+05  9.860135E+02 -1.434342E+03
        53   2 -5.873396E+05 -7.365554E+04  1.317535E+04 -2.301840E+05  1.397357E+03 -2.163292E+03
        53   3 -5.694060E+05 -7.112361E+04  1.686089E+04 -2.295780E+05  1.808252E+03 -2.890839E+03
        53   4 -6.372554E+05 -9.647596E+04 -2.972905E+02 -2.481113E+05  4.639651E+02 -1.630032E+03
        53   5 -6.402718E+05 -9.343842E+04 -2.445443E+02 -2.446415E+05  8.762265E+02 -2.358660E+03
        53   6 -6.372549E+05 -9.647154E+04 -2.863398E+02 -2.481130E+05  1.288039E+03 -3.085890E+03
        53   7 -6.752691E+05 -1.106935E+05 -9.990505E+03 -2.584905E+05 -5.804049E+01 -1.825705E+03
        53   8 -6.932009E+05 -1.132210E+05 -1.366460E+04 -2.590979E+05  3.551474E+02 -2.554009E+03
        53   9 -7.050998E+05 -1.218193E+05 -1.743405E+04 -2.666464E+05  7.678859E+02 -3.280918E+03
        53  10 -5.992396E+05 -8.225808E+04  9.395960E+03 -2.377313E+05 -1.894136E-10  2.312920E-10
        53  11 -5.873396E+05 -7.365555E+04  1.317534E+04 -2.301840E+05  3.380530E-10  7.323887E-10
        53  12 -5.694060E+05 -7.112362E+04  1.686087E+04 -2.295780E+05 -1.502981E-09  3.993071E-10
        53  13 -6.372554E+05 -9.647596E+04 -2.972959E+02 -2.481113E+05  1.116245E-09 -1.027968E-10
        53  14 -6.402718E+05 -9.343842E+04 -2.445561E+02 -2.446415E+05  2.185661E-10  3.608590E-10
        53  15 -6.372550E+05 -9.647155E+04 -2.863608E+02 -2.481130E+05 -8.282529E-10  6.929205E-11
        53  16 -6.752691E+05 -1.106935E+05 -9.990511E+03 -2.584905E+05  9.022291E-10 -4.137648E-10
        53  17 -6.932009E+05 -1.132210E+05 -1.366461E+04 -2.590979E+05 -1.279192E-09  2.049495E-10
        53  18 -7.050998E+05 -1.218193E+05 -1.743407E+04 -2.666464E+05  9.994371E-10 -5.815012E-11
        53  19 -5.992396E+05 -8.225807E+04  9.395966E+03 -2.377313E+05 -9.860135E+02  1.434342E+03
        53  20 -5.873396E+05 -7.365554E+04  1.317535E+04 -2.301840E+05 -1.397357E+03  2.163292E+03
        53  21 -5.694060E+05 -7.112361E+04  1.686089E+04 -2.295780E+05 -1.808252E+03  2.890839E+03
        53  22 -6.372554E+05 -9.647596E+04 -2.972905E+02 -2.481113E+05 -4.639651E+02  1.630032E+03
        53  23 -6.402718E+05 -9.343842E+04 -2.445443E+02 -2.446415E+05 -8.762265E+02  2.358660E+03
        53  24 -6.372549E+05 -9.647154E+04 -2.863398E+02 -2.481130E+05 -1.288039E+03  3.085890E+03
        53  25 -6.752691E+05 -1.106935E+05 -9.990505E+03 -2.584905E+05  5.804049E+01  1.825705E+03
        53  26 -6.932009E+05 -1.132210E+05 -1.366460E+04 -2.590979E+05 -3.551474E+02  2.554009E+03
        53  27 -7.050998E+05 -1.218193E+05 -1.743405E+04 -2.666464E+05 -7.678859E+02  3.280918E+03
        54   1 -5.543935E+05 -6.547892E+04  2.072509E+04 -2.254748E+05  2.027080E+03 -3.320817E+03
        54   2 -5.426055E+05 -5.696233E+04  2.420188E+04 -2.179929E+05  2.588042E+03 -3.986270E+03
        54   3 -5.248712E+05 -5.449025E+04  2.746422E+04 -2.173799E+05  3.147501E+03 -4.647319E+03
        54   4 -6.372737E+05 -9.645625E+04 -3.408907E+02 -2.481009E+05  1.508351E+03 -3.515336E+03
        54   5 -6.402496E+05 -9.345198E+04 -5.526029E+02 -2.446597E+05  2.072219E+03 -4.179749E+03
        54   6 -6.372799E+05 -9.649286E+04 -9.810480E+02 -2.480876E+05  2.634574E+03 -4.839757E+03
        54   7 -7.201472E+05 -1.274331E+05 -2.140742E+04 -2.707242E+05  9.896980E+02 -3.709828E+03
        54   8 -7.378843E+05 -1.299409E+05 -2.530780E+04 -2.713227E+05  1.556485E+03 -4.373194E+03
        54   9 -7.496758E+05 -1.384945E+05 -2.942720E+04 -2.787901E+05  2.121751E+03 -5.032158E+03
        54  10 -5.543935E+05 -6.547893E+04  2.072506E+04 -2.254748E+05  1.650361E-09 -3.349275E-10
        54  11 -5.426055E+05 -5.696235E+04  2.420184E+04 -2.179929E+05 -3.906316E-10 -4.998105E-10
        54  12 -5.248712E+05 -5.449027E+04  2.746416E+04 -2.173799E+05 -5.835057E-10 -1.800473E-10
        54  13 -6.372737E+05 -9.645626E+04 -3.409182E+02 -2.481009E+05  1.525804E-10 -4.252863E-10
        54  14 -6.402496E+05 -9.345200E+04 -5.526438E+02 -2.446597E+05  1.763429E-09 -6.221239E-10
        54  15 -6.372799E+05 -9.649289E+04 -9.811051E+02 -2.480876E+05 -3.502498E-10  2.126503E-10
        54  16 -7.201472E+05 -1.274331E+05 -2.140745E+04 -2.707242E+05  8.587993E-10 -3.799748E-10
        54  17 -7.378843E+05 -1.299410E+05 -2.530784E+04 -2.713227E+05 -3.216839E-10 -5.675581E-10
        54  18 -7.496758E+05 -1.384945E+05 -2.942726E+04 -2.787901E+05  3.378628E-10  4.565007E-10
        54  19 -5.543935E+05 -6.547892E+04  2.072509E+04 -2.254748E+05 -2.027080E+03  3.320817E+03
        54  20 -5.426055E+05 -5.696233E+04  2.420188E+04 -2.179929E+05 -2.588042E+03  3.986270E+03
        54  21 -5.248712E+05 -5.449025E+04  2.746422E+04 -2.173799E+05 -3.147501E+03  4.647319E+03
        54  22 -6.372737E+05 -9.645625E+04 -3.408907E+02 -2.481009E+05 -1.508351E+03  3.515336E+03
        54  23 -6.402496E+05 -9.345198E+04 -5.526029E+02 -2.446597E+05 -2.072219E+03  4.179749E+03
        54  24 -6.372799E+05 -9.649286E+04 -9.810480E+02 -2.480876E+05 -2.634574E+03  4.839757E+03
        54  25 -7.201472E+05 -1.274331E+05 -2.140742E+04 -2.707242E+05 -9.896980E+02  3.709828E+03
        54  26 -7.378843E+05 -1.299409E+05 -2.530780E+04 -2.713227E+05 -1.556485E+03  4.373194E+03
        54  27 -7.496758E+05 -1.384945E+05 -2.942720E+04 -2.787901E+05 -2.121751E+03  5.032158E+03
        55   1 -5.100386E+05 -4.891252E+04  3.102422E+04 -2.134172E+05  3.504261E+03 -5.021382E+03
        55   2 -4.983874E+05 -4.042174E+04  3.363182E+04 -2.059425E+05  4.934819E+03 -5.345185E+03
        55   3 -4.811831E+05 -3.840425E+04  3.523684E+04 -2.051245E+05  6.356807E+03 -5.645418E+03
        55   4 -6.373449E+05 -9.642059E+04 -1.289811E+03 -2.481039E+05  2.988103E+03 -5.215071E+03
        55   5 -6.401546E+05 -9.342384E+04 -2.312669E+03 -2.446851E+05  4.434232E+03 -5.533105E+03
        55   6 -6.374147E+05 -9.690386E+04 -4.350692E+03 -2.479233E+05  5.871758E+03 -5.827576E+03
        55   7 -7.646359E+05 -1.439278E+05 -3.360528E+04 -2.827842E+05  2.472060E+03 -5.408718E+03
        55   8 -7.819024E+05 -1.464248E+05 -3.825885E+04 -2.834198E+05  3.933769E+03 -5.720978E+03
        55   9 -7.936225E+05 -1.554019E+05 -4.394019E+04 -2.907125E+05  5.386843E+03 -6.009684E+03
        55  10 -5.100386E+05 -4.891255E+04  3.102415E+04 -2.134172E+05  5.010647E-11  4.142192E-10
        55  11 -4.983874E+05 -4.042177E+04  3.363172E+04 -2.059425E+05  1.945864E-09 -1.073261E-10
        55  12 -4.811832E+05 -3.840430E+04  3.523670E+04 -2.051244E+05 -8.759186E-10 -4.068765E-10
        55  13 -6.373449E+05 -9.642062E+04 -1.289878E+03 -2.481039E+05  9.570771E-10  5.232141E-10
        55  14 -6.401546E+05 -9.342388E+04 -2.312763E+03 -2.446851E+05  5.190570E-11 -1.437436E-11
        55  15 -6.374148E+05 -9.690391E+04 -4.350821E+03 -2.479233E+05 -9.947742E-10 -3.168770E-10
        55  16 -7.646359E+05 -1.439279E+05 -3.360535E+04 -2.827842E+05  1.126799E-09  5.517437E-10
        55  17 -7.819024E+05 -1.464248E+05 -3.825894E+04 -2.834197E+05 -1.302172E-10  3.545107E-10
        55  18 -7.936225E+05 -1.554019E+05 -4.394031E+04 -2.907125E+05  1.864209E-10 -4.469358E-10
        55  19 -5.100386E+05 -4.891252E+04  3.102422E+04 -2.134172E+05 -3.504261E+03  5.021382E+03
        55  20 -4.983874E+05 -4.042174E+04  3.363182E+04 -2.059425E+05 -4.934819E+03  5.345185E+03
        55  21 -4.811831E+05 -3.840425E+04  3.523684E+04 -2.051245E+05 -6.356807E+03  5.645418E+03
        55  22 -6.373449E+05 -9.642059E+04 -1.289811E+03 -2.481039E+05 -2.988103E+03  5.215071E+03
        55  23 -6.401546E+05 -9.342384E+04 -2.312669E+03 -2.446851E+05 -4.434232E+03  5.533105E+03
        55  24 -6.374147E+05 -9.690386E+04 -4.350692E+03 -2.479233E+05 -5.871758E+03  5.827576E+03
        55  25 -7.646359E+05 -1.439278E+05 -3.360528E+04 -2.827842E+05 -2.472060E+03  5.408718E+03
        55  26 -7.819024E+05 -1.464248E+05 -3.825885E+04 -2.834198E+05 -3.933769E+03  5.720978E+03
        55  27 -7.936225E+05 -1.554019E+05 -4.394019E+04 -2.907125E+05 -5.386843E+03  6.009684E+03
        56   1 -4.662413E+05 -3.296208E+04  3.769933E+04 -2.024461E+05  7.440660E+03 -5.782713E+03
        56   2 -4.548384E+05 -2.329023E+04  3.686256E+04 -1.936666E+05  1.263139E+04 -4.629571E+03
        56   3 -4.408574E+05 -2.626411E+04  3.049632E+04 -1.898705E+05  1.769080E+04 -3.125677E+03
        56   4 -6.377872E+05 -9.616000E+04 -5.663439E+03 -2.483497E+05  6.852318E+03 -6.003676E+03
        56   5 -6.394877E+05 -9.288500E+04 -1.006683E+04 -2.447058E+05  1.227778E+04 -4.762536E+03
        56   6 -6.386577E+05 -1.023037E+05 -2.018707E+04 -2.460452E+05  1.757180E+04 -3.170658E+03
        56   7 -8.093038E+05 -1.593560E+05 -4.902838E+04 -2.942417E+05  6.264156E+03 -6.224574E+03
        56   8 -8.241036E+05 -1.624774E+05 -5.699898E+04 -2.957312E+05  1.192428E+04 -4.895458E+03
        56   9 -8.364206E+05 -1.783404E+05 -7.087389E+04 -3.022037E+05  1.745285E+04 -3.215622E+03
        56  10 -4.662413E+05 -3.296213E+04  3.769916E+04 -2.024461E+05  2.757128E-10 -3.089098E-10
        56  11 -4.548386E+05 -2.329030E+04  3.686222E+04 -1.936666E+05 -1.206672E-09  5.717447E-10
        56  12 -4.408577E+05 -2.626421E+04  3.049572E+04 -1.898704E+05  2.186602E-11  5.593253E-10
        56  13 -6.377873E+05 -9.616005E+04 -5.663595E+03 -2.483497E+05  1.199325E-09 -3.373252E-10
        56  14 -6.394879E+05 -9.288506E+04 -1.006716E+04 -2.447058E+05 -1.343610E-09  2.795790E-10
        56  15 -6.386581E+05 -1.023038E+05 -2.018767E+04 -2.460451E+05 -2.172462E-09  1.622350E-10
        56  16 -8.093039E+05 -1.593561E+05 -4.902852E+04 -2.942417E+05  2.311419E-09 -5.951992E-10
        56  17 -8.241038E+05 -1.624775E+05 -5.699929E+04 -2.957312E+05  2.778396E-09 -2.942953E-11
        56  18 -8.364209E+05 -1.783405E+05 -7.087448E+04 -3.022037E+05  8.276660E-10  2.538358E-10
        56  19 -4.662413E+05 -3.296208E+04  3.769933E+04 -2.024461E+05 -7.440660E+03  5.782713E+03
        56  20 -4.548384E+05 -2.329023E+04  3.686256E+04 -1.936666E+05 -1.263139E+04  4.629571E+03
        56  21 -4.408574E+05 -2.626411E+04  3.049632E+04 -1.898705E+05 -1.769080E+04  3.125677E+03
        56  22 -6.377872E+05 -9.616000E+04 -5.663439E+03 -2.483497E+05 -6.852318E+03  6.003676E+03
        56  23 -6.394877E+05 -9.288500E+04 -1.006683E+04 -2.447058E+05 -1.227778E+04  4.762536E+03
        56  24 -6.386577E+05 -1.023037E+05 -2.018707E+04 -2.460452E+05 -1.757180E+04  3.170658E+03
        56  25 -8.093038E+05 -1.593560E+05 -4.902838E+04 -2.942417E+05 -6.264156E+03  6.224574E+03
        56  26 -8.241036E+05 -1.624774E+05 -5.699898E+04 -2.957312E+05 -1.192428E+04  4.895458E+03
        56  27 -8.364206E+05 -1.783404E+05 -7.087389E+04 -3.022037E+05 -1.745285E+04  3.215622E+03
        57   1 -4.205593E+05 -2.112527E+04  2.887999E+04 -2.019501E+05  2.352677E+04 -2.329303E+03
        57   2 -4.124506E+05  5.055846E+03  1.483517E+04 -1.750719E+05  4.239903E+04  4.872693E+03
        57   3 -4.324962E+05 -5.701485E+04 -3.597809E+04 -1.328801E+05  5.883878E+04  1.854946E+04
        57   4 -6.419729E+05 -9.311290E+04 -2.512996E+04 -2.513666E+05  2.140773E+04 -3.124982E+03
        57   5 -6.328378E+05 -8.655118E+04 -4.293995E+04 -2.447508E+05  4.463421E+04  5.711400E+03
        57   6 -6.527327E+05 -1.691245E+05 -1.009809E+05 -2.228183E+05  6.542749E+04  2.102207E+04
        57   7 -8.633386E+05 -1.651001E+05 -7.914345E+04 -3.007685E+05  1.928951E+04 -3.920443E+03
        57   8 -8.531766E+05 -1.781516E+05 -1.007190E+05 -3.144060E+05  4.686852E+04  6.549696E+03
        57   9 -8.729189E+05 -2.812176E+05 -1.659878E+05 -3.127233E+05  7.201359E+04  2.349292E+04
        57  10 -4.205599E+05 -2.112543E+04  2.887894E+04 -2.019500E+05  2.021468E-09  7.114716E-11
        57  11 -4.124526E+05  5.055338E+03  1.483174E+04 -1.750721E+05  2.174526E-10 -4.758162E-10
        57  12 -4.325000E+05 -5.701615E+04 -3.598524E+04 -1.328810E+05  4.639478E-10  1.650317E-10
        57  13 -6.419734E+05 -9.311303E+04 -2.513084E+04 -2.513665E+05  2.587356E-10 -5.009976E-10
        57  14 -6.328399E+05 -8.655175E+04 -4.294376E+04 -2.447510E+05  2.475790E-09 -1.053083E-09
        57  15 -6.527374E+05 -1.691262E+05 -1.009898E+05 -2.228194E+05 -1.348078E-09 -9.645583E-11
        57  16 -8.633390E+05 -1.651002E+05 -7.914418E+04 -3.007684E+05 -2.386375E-11  6.988353E-11
        57  17 -8.531790E+05 -1.781523E+05 -1.007233E+05 -3.144062E+05  4.087310E-10 -1.651734E-09
        57  18 -8.729246E+05 -2.812196E+05 -1.659986E+05 -3.127246E+05  6.600384E-10  4.106416E-10
        57  19 -4.205593E+05 -2.112527E+04  2.887999E+04 -2.019501E+05 -2.352677E+04  2.329303E+03
        57  20 -4.124506E+05  5.055846E+03  1.483517E+04 -1.750719E+05 -4.239903E+04 -4.872693E+03
        57  21 -4.324962E+05 -5.701485E+04 -3.597809E+04 -1.328801E+05 -5.883878E+04 -1.854946E+04
        57  22 -6.419729E+05 -9.311290E+04 -2.512996E+04 -2.513666E+05 -2.140773E+04  3.124982E+03
        57  23 -6.328378E+05 -8.655118E+04 -4.293995E+04 -2.447508E+05 -4.463421E+04 -5.711400E+03
        57  24 -6.527327E+05 -1.691245E+05 -1.009809E+05 -2.228183E+05 -6.542749E+04 -2.102207E+04
        57  25 -8.633386E+05 -1.651001E+05 -7.914345E+04 -3.007685E+05 -1.928951E+04  3.920443E+03
        57  26 -8.531766E+05 -1.781516E+05 -1.007190E+05 -3.144060E+05 -4.686852E+04 -6.549696E+03
        57  27 -8.729189E+05 -2.812176E+05 -1.659878E+05 -3.127233E+05 -7.201359E+04 -2.349292E+04
        58   1  9.463339E+03  2.419063E+04  2.975121E+04  9.917764E+03  2.040810E+04  3.260142E-01
        58   2  5.725043E+03 -1.670540E+03  1.329636E+04  3.175714E+03  1.330250E+04  6.804496E-02
        58   3  9.463237E+03 -1.327291E+03  8.018910E+03 -3.566388E+03  6.196776E+03 -3.559699E-02
        58   4  9.463233E+03  2.419044E+04  2.975118E+04 -1.210827E-09  2.040810E+04 -2.887488E-11
        58   5  5.725032E+03 -1.670559E+03  1.329636E+04 -4.097825E-10  1.330250E+04  4.354738E-10
        58   6  9.463224E+03 -1.327315E+03  8.018907E+03 -4.453447E-09  6.196776E+03  1.400665E-09
        58   7  9.463339E+03  2.419063E+04  2.975121E+04 -9.917764E+03  2.040810E+04 -3.260142E-01
        58   8  5.725043E+03 -1.670540E+03  1.329636E+04 -3.175714E+03  1.330250E+04 -6.804496E-02
        58   9  9.463237E+03 -1.327291E+03  8.018910E+03  3.566388E+03  6.196776E+03  3.559699E-02
        58  10  9.462891E+03  2.419052E+04  2.975043E+04  9.917764E+03  4.826149E-10 -7.547538E-12
        58  11  5.724853E+03 -1.670587E+03  1.329603E+04  3.175714E+03  6.805202E-11 -1.375741E-10
        58  12  9.463196E+03 -1.327302E+03  8.018838E+03 -3.566388E+03 -1.512042E-10 -4.623278E-10
        58  13  9.462786E+03  2.419033E+04  2.975040E+04  9.526119E-10 -2.154862E-09  3.082335E-11
        58  14  5.724842E+03 -1.670606E+03  1.329602E+04 -2.576215E-09  5.397231E-10  2.616738E-11
        58  15  9.463182E+03 -1.327326E+03  8.018835E+03 -3.950858E-09 -1.484341E-09 -1.574446E-10
        58  16  9.462891E+03  2.419052E+04  2.975043E+04 -9.917764E+03 -4.804234E-10  6.156428E-11
        58  17  5.724853E+03 -1.670587E+03  1.329603E+04 -3.175714E+03 -8.721969E-10  1.913158E-10
        58  18  9.463196E+03 -1.327302E+03  8.018838E+03  3.566388E+03 -5.885957E-10  1.513576E-10
        58  19  9.463339E+03  2.419063E+04  2.975121E+04  9.917764E+03 -2.040810E+04 -3.260142E-01
        58  20  5.725043E+03 -1.670540E+03  1.329636E+04  3.175714E+03 -1.330250E+04 -6.804496E-02
        58  21  9.463237E+03 -1.327291E+03  8.018910E+03 -3.566388E+03 -6.196776E+03  3.559699E-02
        58  22  9.463233E+03  2.419044E+04  2.975118E+04  9.647054E-10 -2.040810E+04  8.883427E-11
        58  23  5.725032E+03 -1.670559E+03  1.329636E+04 -4.343673E-10 -1.330250E+04 -3.827113E-10
        58  24  9.463224E+03 -1.327315E+03  8.018907E+03  4.091483E-09 -6.196776E+03 -1.714436E-09
        58  25  9.463339E+03  2.419063E+04  2.975121E+04 -9.917764E+03 -2.040810E+04  3.260142E-01
        58  26  5.725043E+03 -1.670540E+03  1.329636E+04 -3.175714E+03 -1.330250E+04  6.804496E-02
        58  27  9.463237E+03 -1.327291E+03  8.018910E+03  3.566388E+03 -6.196776E+03 -3.559699E-02
        59   1  7.962869E+03  1.809800E+03  6.450215E+03  6.131492E+02  5.012751E+03  4.950650E-03
        59   2  7.600414E+03 -1.498657E+02  3.388698E+03  1.517808E+02  3.297887E+03  8.062548E-04
        59   3  7.962871E+03 -1.030496E+02  1.945259E+03 -3.095880E+02  1.583026E+03 -7.893896E-04
        59   4  7.962868E+03  1.809799E+03  6.450215E+03  2.464349E-09  5.012751E+03  1.008736E-09
        59   5  7.600414E+03 -1.498657E+02  3.388698E+03 -4.450830E-09  3.297887E+03 -2.596293E-10
        59   6  7.962871E+03 -1.030498E+02  1.945259E+03  1.071199E-08  1.583026E+03  5.248840E-10
        59   7  7.962869E+03  1.809800E+03  6.450215E+03 -6.131492E+02  5.012751E+03 -4.950648E-03
        59   8  7.600414E+03 -1.498657E+02  3.388698E+03 -1.517808E+02  3.297887E+03 -8.062554E-04
        59   9  7.962871E+03 -1.030496E+02  1.945259E+03  3.095880E+02  1.583026E+03  7.893907E-04
        59  10  7.962842E+03  1.809793E+03  6.450168E+03  6.131492E+02  6.476831E-10 -3.121498E-10
        59  11  7.600402E+03 -1.498686E+02  3.388678E+03  1.517808E+02 -1.036972E-10  3.411071E-10
        59  12  7.962869E+03 -1.030503E+02  1.945254E+03 -3.095880E+02  2.302610E-09  5.007786E-10
        59  13  7.962841E+03  1.809792E+03  6.450168E+03 -1.037900E-08  2.775634E-12 -4.539041E-11
        59  14  7.600402E+03 -1.498686E+02  3.388678E+03 -1.196975E-08 -5.347212E-10  3.379570E-10
        59  15  7.962869E+03 -1.030505E+02  1.945254E+03  2.594166E-09 -8.094584E-10  2.596375E-10
        59  16  7.962842E+03  1.809793E+03  6.450168E+03 -6.131492E+02  1.503710E-09  2.200531E-10
        59  17  7.600402E+03 -1.498686E+02  3.388678E+03 -1.517808E+02 -1.508136E-09  3.359013E-10
        59  18  7.962869E+03 -1.030503E+02  1.945254E+03  3.095880E+02 -1.629469E-09  1.832892E-11
        59  19  7.962869E+03  1.809800E+03  6.450215E+03  6.131492E+02 -5.012751E+03 -4.950651E-03
        59  20  7.600414E+03 -1.498657E+02  3.388698E+03  1.517808E+02 -3.297887E+03 -8.062542E-04
        59  21  7.962871E+03 -1.030496E+02  1.945259E+03 -3.095880E+02 -1.583026E+03  7.893905E-04
        59  22  7.962868E+03  1.809799E+03  6.450215E+03  4.778901E-09 -5.012751E+03 -1.099945E-09
        59  23  7.600414E+03 -1.498657E+02  3.388698E+03 -1.302681E-08 -3.297887E+03  9.357724E-10
        59  24  7.962871E+03 -1.030498E+02  1.945259E+03  4.438505E-09 -1.583026E+03 -5.910484E-12
        59  25  7.962869E+03  1.809800E+03  6.450215E+03 -6.131492E+02 -5.012751E+03  4.950649E-03
        59  26  7.600414E+03 -1.498657E+02  3.388698E+03 -1.517808E+02 -3.297887E+03  8.062561E-04
        59  27  7.962871E+03 -1.030496E+02  1.945259E+03  3.095880E+02 -1.583026E+03 -7.893906E-04
        60   1  7.821185E+03  1.281724E+02  1.477476E+03  9.221591E+00  1.282222E+03  1.904664E-05
        60   2  7.777522E+03 -1.604687E+01  7.562138E+02 -1.448092E+01  9.055976E+02 -2.112213E-05
        60   3  7.821187E+03 -7.097069E+00  3.184338E+02 -3.818309E+01  5.289793E+02 -3.253385E-05
        60   4  7.821185E+03  1.281724E+02  1.477476E+03  1.038215E-08  1.282222E+03  1.178310E-09
        60   5  7.777522E+03 -1.604687E+01  7.562138E+02 -6.464559E-09  9.055976E+02  8.340969E-10
        60   6  7.821187E+03 -7.097071E+00  3.184338E+02  4.959269E-09  5.289793E+02 -2.310675E-10
        60   7  7.821185E+03  1.281724E+02  1.477476E+03 -9.221591E+00  1.282222E+03 -1.904428E-05
        60   8  7.777522E+03 -1.604687E+01  7.562138E+02  1.448092E+01  9.055976E+02  2.112381E-05
        60   9  7.821187E+03 -7.097069E+00  3.184338E+02  3.818309E+01  5.289793E+02  3.253340E-05
        60  10  7.821183E+03  1.281720E+02  1.477473E+03  9.221591E+00  3.572476E-10  4.085482E-10
        60  11  7.777521E+03 -1.604709E+01  7.562122E+02 -1.448092E+01 -1.591687E-09 -6.346001E-12
        60  12  7.821187E+03 -7.097144E+00  3.184333E+02 -3.818309E+01 -4.356136E-10 -8.173719E-10
        60  13  7.821183E+03  1.281720E+02  1.477473E+03 -3.536964E-10 -2.156592E-09  2.543287E-10
        60  14  7.777521E+03 -1.604709E+01  7.562122E+02 -6.520425E-09 -1.076995E-09  1.695438E-10
        60  15  7.821187E+03 -7.097146E+00  3.184333E+02  1.531422E-08  5.330401E-10 -6.020335E-10
        60  16  7.821183E+03  1.281720E+02  1.477473E+03 -9.221591E+00 -3.610467E-10  1.001483E-10
        60  17  7.777521E+03 -1.604709E+01  7.562122E+02  1.448092E+01 -1.648184E-09  3.457406E-10
        60  18  7.821187E+03 -7.097144E+00  3.184333E+02  3.818309E+01 -6.421645E-10 -3.867347E-10
        60  19  7.821185E+03  1.281724E+02  1.477476E+03  9.221591E+00 -1.282222E+03 -1.904581E-05
        60  20  7.777522E+03 -1.604687E+01  7.562138E+02 -1.448092E+01 -9.055976E+02  2.112212E-05
        60  21  7.821187E+03 -7.097069E+00  3.184338E+02 -3.818309E+01 -5.289793E+02  3.253223E-05
        60  22  7.821185E+03  1.281724E+02  1.477476E+03  6.141921E-09 -1.282222E+03 -6.696457E-10
        60  23  7.777522E+03 -1.604687E+01  7.562138E+02  9.625420E-10 -9.055976E+02 -4.949712E-10
        60  24  7.821187E+03 -7.097071E+00  3.184338E+02  1.355330E-08 -5.289793E+02 -9.727256E-10
        60  25  7.821185E+03  1.281724E+02  1.477476E+03 -9.221591E+00 -1.282222E+03  1.904452E-05
        60  26  7.777522E+03 -1.604687E+01  7.562138E+02  1.448092E+01 -9.055976E+02 -2.112313E-05
        60  27  7.821187E+03 -7.097069E+00  3.184338E+02  3.818309E+01 -5.289793E+02 -3.253417E-05
        61   1  7.799347E+03  7.851085E+00  1.445975E+02 -1.495584E+01  4.876681E+02 -1.174840E-05
        61   2  7.804825E+03  1.467013E+00 -1.896044E+02 -2.066097E+01  5.812063E+02 -1.934227E-05
        61   3  7.799348E+03 -2.579771E-02 -5.834774E+02 -2.636617E+01  6.747459E+02 -2.865599E-05
        61   4  7.799347E+03  7.851085E+00  1.445975E+02  3.482389E-09  4.876681E+02 -5.557598E-10
        61   5  7.804825E+03  1.467012E+00 -1.896044E+02  6.739680E-10  5.812063E+02 -2.418466E-10
        61   6  7.799348E+03 -2.579899E-02 -5.834774E+02  1.365708E-09  6.747459E+02 -9.320911E-11
        61   7  7.799347E+03  7.851085E+00  1.445975E+02  1.495584E+01  4.876681E+02  1.174728E-05
        61   8  7.804825E+03  1.467013E+00 -1.896044E+02  2.066097E+01  5.812063E+02  1.934178E-05
        61   9  7.799348E+03 -2.579768E-02 -5.834774E+02  2.636617E+01  6.747459E+02  2.865581E-05
        61  10  7.799346E+03  7.851021E+00  1.445970E+02 -1.495584E+01 -1.750005E-09 -4.619559E-10
        61  11  7.804824E+03  1.466922E+00 -1.896051E+02 -2.066097E+01 -8.601235E-10  4.787825E-10
        61  12  7.799348E+03 -2.591990E-02 -5.834782E+02 -2.636617E+01 -1.382233E-09 -6.706261E-10
        61  13  7.799346E+03  7.851021E+00  1.445970E+02  1.555667E-09  1.076912E-09 -3.782015E-10
        61  14  7.804824E+03  1.466921E+00 -1.896051E+02  1.760296E-09 -1.078395E-09  5.288134E-10
        61  15  7.799348E+03 -2.592121E-02 -5.834782E+02  6.811342E-09 -4.305245E-09 -2.336154E-10
        61  16  7.799346E+03  7.851021E+00  1.445970E+02  1.495584E+01  2.289615E-09 -2.945546E-10
        61  17  7.804824E+03  1.466922E+00 -1.896051E+02  2.066097E+01  1.934267E-09  5.794389E-10
        61  18  7.799348E+03 -2.591991E-02 -5.834782E+02  2.636617E+01 -1.176539E-09  2.032090E-10
        61  19  7.799347E+03  7.851085E+00  1.445975E+02 -1.495584E+01 -4.876681E+02  1.174747E-05
        61  20  7.804825E+03  1.467013E+00 -1.896044E+02 -2.066097E+01 -5.812063E+02  1.934323E-05
        61  21  7.799348E+03 -2.579768E-02 -5.834774E+02 -2.636617E+01 -6.747459E+02  2.865465E-05
        61  22  7.799347E+03  7.851085E+00  1.445975E+02  1.255258E-08 -4.876681E+02 -2.009062E-10
        61  23  7.804825E+03  1.467012E+00 -1.896044E+02  6.077697E-09 -5.812063E+02  1.299158E-09
        61  24  7.799348E+03 -2.579898E-02 -5.834774E+02  7.410774E-09 -6.747459E+02 -3.741186E-10
        61  25  7.799347E+03  7.851085E+00  1.445975E+02  1.495584E+01 -4.876681E+02 -1.174788E-05
        61  26  7.804825E+03  1.467013E+00 -1.896044E+02  2.066097E+01 -5.812063E+02 -1.934063E-05
        61  27  7.799348E+03 -2.579770E-02 -5.834774E+02  2.636617E+01 -6.747459E+02 -2.865539E-05
        62   1  7.774404E+03  5.630214E+00 -8.381070E+02 -3.809072E+01  8.034135E+02 -4.929234E-05
        62   2  7.836010E+03  1.975185E+01 -1.567593E+03 -5.052915E+01  1.579432E+03 -1.285464E-04
        62   3  7.774410E+03 -5.478288E+01 -2.824456E+03 -6.296760E+01  2.355450E+03 -2.388966E-04
        62   4  7.774404E+03  5.630211E+00 -8.381070E+02  1.147972E-08  8.034135E+02  5.316542E-10
        62   5  7.836010E+03  1.975185E+01 -1.567593E+03 -2.257559E-09  1.579432E+03  1.234061E-09
        62   6  7.774410E+03 -5.478289E+01 -2.824456E+03  2.852214E-09  2.355450E+03 -2.490394E-10
        62   7  7.774404E+03  5.630214E+00 -8.381070E+02  3.809072E+01  8.034135E+02  4.929341E-05
        62   8  7.836010E+03  1.975185E+01 -1.567593E+03  5.052915E+01  1.579432E+03  1.285488E-04
        62   9  7.774410E+03 -5.478288E+01 -2.824456E+03  6.296760E+01  2.355450E+03  2.388961E-04
        62  10  7.774403E+03  5.630040E+00 -8.381082E+02 -3.809072E+01 -6.726591E-10 -1.144726E-09
        62  11  7.836007E+03  1.975118E+01 -1.567597E+03 -5.052915E+01 -2.532059E-09 -3.000107E-10
        62  12  7.774404E+03 -5.478437E+01 -2.824466E+03 -6.296760E+01 -2.782064E-09  4.958645E-10
        62  13  7.774403E+03  5.630038E+00 -8.381082E+02  7.297873E-09 -1.072798E-09 -4.542783E-10
        62  14  7.836007E+03  1.975118E+01 -1.567597E+03  9.940064E-10 -1.071089E-09  1.069518E-10
        62  15  7.774404E+03 -5.478438E+01 -2.824466E+03  9.767837E-09 -4.172306E-09 -1.392545E-10
        62  16  7.774403E+03  5.630040E+00 -8.381082E+02  3.809072E+01 -4.027143E-10  2.352311E-10
        62  17  7.836007E+03  1.975118E+01 -1.567597E+03  5.052915E+01 -1.505130E-09  5.128629E-10
        62  18  7.774404E+03 -5.478437E+01 -2.824466E+03  6.296760E+01 -1.999511E-09 -7.748889E-10
        62  19  7.774404E+03  5.630214E+00 -8.381070E+02 -3.809072E+01 -8.034135E+02  4.929004E-05
        62  20  7.836010E+03  1.975185E+01 -1.567593E+03 -5.052915E+01 -1.579432E+03  1.285458E-04
        62  21  7.774410E+03 -5.478288E+01 -2.824456E+03 -6.296760E+01 -2.355450E+03  2.388976E-04
        62  22  7.774404E+03  5.630211E+00 -8.381070E+02  1.173156E-08 -8.034135E+02 -1.440203E-09
        62  23  7.836010E+03  1.975185E+01 -1.567593E+03  2.091511E-09 -1.579432E+03 -1.021342E-09
        62  24  7.774410E+03 -5.478289E+01 -2.824456E+03  1.506798E-08 -2.355450E+03 -3.484373E-11
        62  25  7.774404E+03  5.630214E+00 -8.381070E+02  3.809072E+01 -8.034135E+02 -4.929296E-05
        62  26  7.836010E+03  1.975185E+01 -1.567593E+03  5.052915E+01 -1.579432E+03 -1.285478E-04
        62  27  7.774410E+03 -5.478288E+01 -2.824456E+03  6.296760E+01 -2.355450E+03 -2.388977E-04
        63   1  7.643471E+03  6.344514E+01 -3.725924E+03 -2.461480E+02  2.944322E+03 -1.167351E-03
        63   2  7.999715E+03  1.290621E+02 -6.490970E+03 -8.229292E+01  6.174123E+03 -8.183845E-04
        63   3  7.643528E+03 -9.729059E+02 -1.165057E+04  8.156020E+01  9.403860E+03  1.235391E-03
        63   4  7.643471E+03  6.344503E+01 -3.725924E+03 -8.125792E-09  2.944322E+03 -1.119440E-09
        63   5  7.999715E+03  1.290621E+02 -6.490970E+03  1.125935E-09  6.174123E+03 -4.975225E-10
        63   6  7.643528E+03 -9.729059E+02 -1.165057E+04  3.646401E-09  9.403860E+03  1.174070E-09
        63   7  7.643471E+03  6.344514E+01 -3.725924E+03  2.461480E+02  2.944322E+03  1.167349E-03
        63   8  7.999715E+03  1.290621E+02 -6.490970E+03  8.229292E+01  6.174123E+03  8.183834E-04
        63   9  7.643528E+03 -9.729059E+02 -1.165057E+04 -8.156020E+01  9.403860E+03 -1.235388E-03
        63  10  7.643462E+03  6.344282E+01 -3.725941E+03 -2.461480E+02  1.425986E-10  3.268781E-10
        63  11  7.999674E+03  1.290519E+02 -6.491042E+03 -8.229292E+01  4.371530E-10 -1.540105E-10
        63  12  7.643433E+03 -9.729296E+02 -1.165074E+04  8.156020E+01 -6.637282E-10  7.066177E-10
        63  13  7.643462E+03  6.344270E+01 -3.725941E+03 -3.843435E-09  2.629344E-13 -4.513170E-10
        63  14  7.999674E+03  1.290519E+02 -6.491042E+03 -2.036855E-09 -3.350907E-12 -2.903095E-10
        63  15  7.643433E+03 -9.729296E+02 -1.165074E+04 -2.384280E-09 -9.453369E-10  5.914942E-10
        63  16  7.643462E+03  6.344282E+01 -3.725941E+03  2.461480E+02 -1.761708E-09 -1.232496E-09
        63  17  7.999674E+03  1.290519E+02 -6.491042E+03  8.229292E+01 -2.062532E-09 -4.228779E-10
        63  18  7.643433E+03 -9.729296E+02 -1.165074E+04 -8.156020E+01  2.013322E-09  4.740773E-10
        63  19  7.643471E+03  6.344514E+01 -3.725924E+03 -2.461480E+02 -2.944322E+03  1.167352E-03
        63  20  7.999715E+03  1.290621E+02 -6.490970E+03 -8.229292E+01 -6.174123E+03  8.183843E-04
        63  21  7.643528E+03 -9.729059E+02 -1.165057E+04  8.156020E+01 -9.403860E+03 -1.235389E-03
        63  22  7.643471E+03  6.344503E+01 -3.725924E+03 -6.023198E-09 -2.944322E+03  2.169095E-10
        63  23  7.999715E+03  1.290621E+02 -6.490970E+03 -7.353698E-09 -6.174123E+03 -8.239124E-11
        63  24  7.643528E+03 -9.729059E+02 -1.165057E+04  4.700272E-10 -9.403860E+03  3.389306E-11
        63  25  7.643471E+03  6.344514E+01 -3.725924E+03  2.461480E+02 -2.944322E+03 -1.167351E-03
        63  26  7.999715E+03  1.290621E+02 -6.490970E+03  8.229292E+01 -6.174123E+03 -8.183845E-04
        63  27  7.643528E+03 -9.729059E+02 -1.165057E+04 -8.156020E+01 -9.403860E+03  1.235389E-03
        64   1  6.575597E+03  7.858645E+02 -1.509921E+04 -2.340556E+03  1.175702E+04 -4.432375E-02
        64   2  9.334987E+03  1.140199E+03 -2.592250E+04  1.160165E+03  2.487370E+04  4.648128E-02
        64   3  6.576313E+03 -1.374807E+04 -4.909474E+04  4.660958E+03  3.799039E+04  2.852119E-01
        64   4  6.575591E+03  7.858542E+02 -1.509922E+04 -1.033591E-08  1.175702E+04  1.577518E-09
        64   5  9.334986E+03  1.140197E+03 -2.592250E+04 -1.111552E-08  2.487370E+04  2.814327E-10
        64   6  6.576290E+03 -1.374811E+04 -4.909474E+04 -1.663151E-09  3.799039E+04 -1.675014E-09
        64   7  6.575597E+03  7.858645E+02 -1.509921E+04  2.340556E+03  1.175702E+04  4.432376E-02
        64   8  9.334987E+03  1.140199E+03 -2.592250E+04 -1.160165E+03  2.487370E+04 -4.648128E-02
        64   9  6.576313E+03 -1.374807E+04 -4.909474E+04 -4.660958E+03  3.799039E+04 -2.852119E-01
        64  10  6.575449E+03  7.858274E+02 -1.509947E+04 -2.340556E+03  3.418616E-12  8.590860E-10
        64  11  9.334323E+03  1.140033E+03 -2.592366E+04  1.160165E+03  6.722907E-10 -1.327120E-10
        64  12  6.574763E+03 -1.374846E+04 -4.909745E+04  4.660958E+03 -6.931239E-10 -7.852440E-10
        64  13  6.575443E+03  7.858171E+02 -1.509948E+04 -8.284295E-09 -1.065395E-09  7.450035E-10
        64  14  9.334322E+03  1.140031E+03 -2.592366E+04 -1.226792E-08 -2.692388E-09  6.402736E-11
        64  15  6.574740E+03 -1.374850E+04 -4.909746E+04  2.057265E-09 -2.424740E-09 -4.037897E-10
        64  16  6.575449E+03  7.858274E+02 -1.509947E+04  2.340556E+03 -5.482582E-10  6.340289E-10
        64  17  9.334323E+03  1.140033E+03 -2.592366E+04 -1.160165E+03 -3.083055E-09  2.682640E-10
        64  18  6.574763E+03 -1.374846E+04 -4.909745E+04 -4.660958E+03 -3.030988E-10 -3.204428E-11
        64  19  6.575597E+03  7.858645E+02 -1.509921E+04 -2.340556E+03 -1.175702E+04  4.432376E-02
        64  20  9.334987E+03  1.140199E+03 -2.592250E+04  1.160165E+03 -2.487370E+04 -4.648128E-02
        64  21  6.576313E+03 -1.374807E+04 -4.909474E+04  4.660958E+03 -3.799039E+04 -2.852119E-01
        64  22  6.575591E+03  7.858542E+02 -1.509922E+04 -4.078310E-09 -1.175702E+04 -8.461520E-11
        64  23  9.334986E+03  1.140197E+03 -2.592250E+04 -9.112202E-09 -2.487370E+04 -1.520510E-10
        64  24  6.576290E+03 -1.374811E+04 -4.909474E+04 -1.760115E-09 -3.799039E+04  8.740787E-10
        64  25  6.575597E+03  7.858645E+02 -1.509921E+04  2.340556E+03 -1.175702E+04 -4.432376E-02
        64  26  9.334987E+03  1.140199E+03 -2.592250E+04 -1.160165E+03 -2.487370E+04  4.648128E-02
        64  27  6.576313E+03 -1.374807E+04 -4.909474E+04 -4.660958E+03 -3.799039E+04  2.852119E-01
        65   1 -4.816367E+03  1.008547E+04 -6.097999E+04 -2.708869E+04  4.699817E+04 -2.050669E+00
        65   2  2.358191E+04  1.269156E+04 -1.010103E+05  2.412789E+04  1.009951E+05  3.924878E+00
        65   3 -4.804060E+03 -1.837437E+05 -2.259445E+05  7.534166E+04  1.549927E+05  1.880887E+01
        65   4 -4.817155E+03  1.008409E+04 -6.098019E+04  4.678054E-09  4.699817E+04 -1.646818E-09
        65   5  2.358128E+04  1.269046E+04 -1.010105E+05 -1.872602E-09  1.009951E+05 -2.972935E-11
        65   6 -4.810156E+03 -1.837544E+05 -2.259460E+05 -6.511639E-11  1.549927E+05 -6.188224E-10
        65   7 -4.816367E+03  1.008547E+04 -6.097999E+04  2.708869E+04  4.699817E+04  2.050669E+00
        65   8  2.358191E+04  1.269156E+04 -1.010103E+05 -2.412789E+04  1.009951E+05 -3.924878E+00
        65   9 -4.804060E+03 -1.837437E+05 -2.259445E+05 -7.534166E+04  1.549927E+05 -1.880887E+01
        65  10 -4.818739E+03  1.008488E+04 -6.098414E+04 -2.708869E+04 -5.266722E-10 -6.695348E-10
        65  11  2.357095E+04  1.268882E+04 -1.010295E+05  2.412789E+04 -9.607152E-10 -1.179439E-10
        65  12 -4.829860E+03 -1.837502E+05 -2.259896E+05  7.534166E+04 -9.216202E-10 -1.190266E-10
        65  13 -4.819527E+03  1.008350E+04 -6.098434E+04  3.619364E-10 -4.364988E-09 -5.171945E-10
        65  14  2.357033E+04  1.268772E+04 -1.010296E+05  2.461063E-09 -1.049011E-09 -4.409638E-10
        65  15 -4.835956E+03 -1.837608E+05 -2.259912E+05  4.017484E-09 -1.121913E-10 -1.262338E-10
        65  16 -4.818739E+03  1.008488E+04 -6.098414E+04  2.708869E+04 -1.128568E-09 -3.610700E-10
        65  17  2.357095E+04  1.268882E+04 -1.010295E+05 -2.412789E+04  9.756313E-10 -8.126824E-10
        65  18 -4.829860E+03 -1.837502E+05 -2.259896E+05 -7.534166E+04  7.540004E-10 -2.665834E-10
        65  19 -4.816367E+03  1.008547E+04 -6.097999E+04 -2.708869E+04 -4.699817E+04  2.050669E+00
        65  20  2.358191E+04  1.269156E+04 -1.010103E+05  2.412789E+04 -1.009951E+05 -3.924878E+00
        65  21 -4.804060E+03 -1.837437E+05 -2.259445E+05  7.534166E+04 -1.549927E+05 -1.880887E+01
        65  22 -4.817155E+03  1.008409E+04 -6.098019E+04  2.514153E-09 -4.699817E+04  6.226286E-10
        65  23  2.358128E+04  1.269046E+04 -1.010105E+05  3.332821E-10 -1.009951E+05 -8.352274E-10
        65  24 -4.810156E+03 -1.837544E+05 -2.259460E+05 -2.646685E-09 -1.549927E+05 -4.400674E-12
        65  25 -4.816367E+03  1.008547E+04 -6.097999E+04  2.708869E+04 -4.699817E+04 -2.050669E+00
        65  26  2.358191E+04  1.269156E+04 -1.010103E+05 -2.412789E+04 -1.009951E+05  3.924878E+00
        65  27 -4.804060E+03 -1.837437E+05 -2.259445E+05 -7.534166E+04 -1.549927E+05  1.880887E+01
        66   1  1.150564E+05  3.217930E+05  1.123690E+05 -3.363071E+04  5.519892E+03  9.309692E+03
        66   2  1.018752E+05  2.604521E+05  9.418122E+04 -1.879646E+04  1.660998E+04  1.219445E+03
        66   3  8.702131E+04  1.998257E+05  8.085748E+04 -3.539840E+04  1.548993E+04 -6.871735E+03
        66   4 -3.114703E+03 -1.530180E+05 -3.732220E+03 -3.482803E+04  5.521572E+03 -3.073089E+03
        66   5  1.768823E+02 -1.526038E+05 -1.288494E+03 -1.910895E+04  1.661174E+04 -2.368104E+03
        66   6  2.688230E+02 -1.530045E+05 -8.710600E+01 -3.482734E+04  1.548813E+04 -1.664720E+03
        66   7 -1.213024E+05 -6.276233E+05 -1.198493E+05 -3.602442E+04  5.523301E+03 -1.544642E+04
        66   8 -1.015334E+05 -5.655020E+05 -9.676954E+04 -1.942122E+04  1.661350E+04 -5.953284E+03
        66   9 -8.649233E+04 -5.057194E+05 -8.103979E+04 -3.425658E+04  1.548633E+04  3.539360E+03
        66  10  1.150563E+05  3.217929E+05  1.123687E+05 -3.363075E+04 -2.943566E-10  7.530168E-09
        66  11  1.018749E+05  2.604521E+05  9.418069E+04 -1.879648E+04 -4.385305E-09 -1.246445E-09
        66  12  8.702104E+04  1.998256E+05  8.085694E+04 -3.539832E+04  1.803796E-10 -9.898047E-09
        66  13 -3.114738E+03 -1.530180E+05 -3.732295E+03 -3.482802E+04  2.466216E-10 -6.383315E-11
        66  14  1.765845E+02 -1.526038E+05 -1.289023E+03 -1.910892E+04  4.570332E-10 -2.660939E-10
        66  15  2.685647E+02 -1.530046E+05 -8.756196E+01 -3.482732E+04  8.239706E-10 -1.150312E-09
        66  16 -1.213025E+05 -6.276235E+05 -1.198498E+05 -3.602436E+04  7.998804E-10 -7.522657E-09
        66  17 -1.015337E+05 -5.655021E+05 -9.677013E+04 -1.942114E+04 -8.723053E-10  1.100703E-09
        66  18 -8.649259E+04 -5.057195E+05 -8.104027E+04 -3.425662E+04 -4.913888E-10  1.040020E-08
        66  19  1.150564E+05  3.217930E+05  1.123690E+05 -3.363071E+04 -5.519892E+03 -9.309692E+03
        66  20  1.018752E+05  2.604521E+05  9.418122E+04 -1.879646E+04 -1.660998E+04 -1.219445E+03
        66  21  8.702131E+04  1.998257E+05  8.085748E+04 -3.539840E+04 -1.548993E+04  6.871735E+03
        66  22 -3.114703E+03 -1.530180E+05 -3.732220E+03 -3.482803E+04 -5.521572E+03  3.073089E+03
        66  23  1.768823E+02 -1.526038E+05 -1.288494E+03 -1.910895E+04 -1.661174E+04  2.368104E+03
        66  24  2.688230E+02 -1.530045E+05 -8.710600E+01 -3.482734E+04 -1.548813E+04  1.664720E+03
        66  25 -1.213024E+05 -6.276233E+05 -1.198493E+05 -3.602442E+04 -5.523301E+03  1.544642E+04
        66  26 -1.015334E+05 -5.655020E+05 -9.676954E+04 -1.942122E+04 -1.661350E+04  5.953284E+03
        66  27 -8.649233E+04 -5.057194E+05 -8.103979E+04 -3.425658E+04 -1.548633E+04 -3.539360E+03
        67   1  7.213072E+04  1.415407E+05  6.823157E+04 -3.517848E+04  1.230228E+04 -3.166164E+03
        67   2  5.731042E+04  8.033869E+04  5.542129E+04 -1.896006E+04  9.999112E+03 -4.477751E+03
        67   3  4.367038E+04  1.959005E+04  4.375623E+04 -3.466544E+04  7.135460E+03 -5.790549E+03
        67   4 -2.834247E+02 -1.527298E+05  4.303442E+02 -3.493612E+04  1.230190E+04 -1.708410E+03
        67   5 -6.767840E+01 -1.529158E+05  1.791741E+03 -1.897337E+04  9.998204E+03 -2.616183E+03
        67   6  1.258642E+03 -1.527221E+05  4.018237E+03 -3.493513E+04  7.133925E+03 -3.525293E+03
        67   7 -7.270363E+04 -4.469202E+05 -6.737662E+04 -3.469386E+04  1.230151E+04 -2.513408E+02
        67   8 -5.744958E+04 -3.861200E+05 -5.184139E+04 -1.898666E+04  9.997295E+03 -7.553090E+02
        67   9 -4.115517E+04 -3.250067E+05 -3.572171E+04 -3.520474E+04  7.132387E+03 -1.260660E+03
        67  10  7.213055E+04  1.415406E+05  6.823126E+04 -3.517845E+04 -1.800025E-10 -2.339840E-09
        67  11  5.731031E+04  8.033864E+04  5.542106E+04 -1.896002E+04 -5.229883E-10 -1.673784E-09
        67  12  4.367032E+04  1.959000E+04  4.375607E+04 -3.466540E+04 -2.341596E-09  1.078568E-09
        67  13 -2.835880E+02 -1.527299E+05  4.300544E+02 -3.493610E+04 -7.765536E-10 -5.146022E-10
        67  14 -6.778757E+01 -1.529159E+05  1.791540E+03 -1.897335E+04  1.929404E-09 -6.461299E-10
        67  15  1.258584E+03 -1.527221E+05  4.018118E+03 -3.493511E+04  6.147846E-10 -1.926134E-09
        67  16 -7.270379E+04 -4.469202E+05 -6.737690E+04 -3.469386E+04 -1.273819E-09  2.332232E-09
        67  17 -5.744969E+04 -3.861200E+05 -5.184158E+04 -1.898665E+04  7.530351E-10  1.338218E-09
        67  18 -4.115523E+04 -3.250067E+05 -3.572181E+04 -3.520473E+04 -6.312433E-10 -2.355064E-10
        67  19  7.213072E+04  1.415407E+05  6.823157E+04 -3.517848E+04 -1.230228E+04  3.166164E+03
        67  20  5.731042E+04  8.033869E+04  5.542129E+04 -1.896006E+04 -9.999112E+03  4.477751E+03
        67  21  4.367038E+04  1.959005E+04  4.375623E+04 -3.466544E+04 -7.135460E+03  5.790549E+03
        67  22 -2.834247E+02 -1.527298E+05  4.303442E+02 -3.493612E+04 -1.230190E+04  1.708410E+03
        67  23 -6.767840E+01 -1.529158E+05  1.791741E+03 -1.897337E+04 -9.998204E+03  2.616183E+03
        67  24  1.258642E+03 -1.527221E+05  4.018237E+03 -3.493513E+04 -7.133925E+03  3.525293E+03
        67  25 -7.270363E+04 -4.469202E+05 -6.737662E+04 -3.469386E+04 -1.230151E+04  2.513408E+02
        67  26 -5.744958E+04 -3.861200E+05 -5.184139E+04 -1.898666E+04 -9.997295E+03  7.553090E+02
        67  27 -4.115517E+04 -3.250067E+05 -3.572171E+04 -3.520474E+04 -7.132387E+03  1.260660E+03
        68   1  2.713321E+04 -3.786975E+04  3.114576E+04 -3.736406E+04  5.206583E+03 -6.631392E+03
        68   2  1.192145E+04 -1.012790E+05  2.082709E+04 -1.689957E+04  2.372334E+03 -1.066045E+04
        68   3  1.396893E+04 -1.599008E+05  1.743398E+04 -2.836650E+04  4.169325E+02 -1.468867E+04
        68   4 -8.480112E+02 -1.517154E+05  5.118829E+03 -3.494081E+04  5.204796E+03 -4.271952E+03
        68   5 -1.075023E+03 -1.541601E+05  8.713865E+03 -1.896873E+04  2.371029E+03 -8.933598E+03
        68   6  1.606754E+04 -1.517123E+05  1.967375E+04 -3.492773E+04  4.161906E+02 -1.359477E+04
        68   7 -2.883011E+04 -2.655490E+05 -2.090893E+04 -3.251800E+04  5.203027E+03 -1.912942E+03
        68   8 -1.407167E+04 -2.070387E+05 -3.399533E+03 -2.103770E+04  2.369713E+03 -7.206890E+03
        68   9  1.816630E+04 -1.435237E+05  2.191353E+04 -4.148905E+04  4.154257E+02 -1.250086E+04
        68  10  2.713317E+04 -3.786981E+04  3.114563E+04 -3.736403E+04 -2.704079E-09 -1.876009E-10
        68  11  1.192141E+04 -1.012791E+05  2.082687E+04 -1.689955E+04 -5.904190E-10 -1.541542E-09
        68  12  1.396888E+04 -1.599010E+05  1.743358E+04 -2.836650E+04 -6.230298E-11  5.988883E-10
        68  13 -8.480451E+02 -1.517154E+05  5.118744E+03 -3.494079E+04  4.820032E-10 -7.671717E-10
        68  14 -1.075050E+03 -1.541602E+05  8.713705E+03 -1.896871E+04 -1.153573E-09 -8.185349E-10
        68  15  1.606749E+04 -1.517125E+05  1.967340E+04 -3.492773E+04 -9.197197E-10 -2.156546E-09
        68  16 -2.883014E+04 -2.655490E+05 -2.090899E+04 -3.251799E+04  4.149754E-10  2.180476E-10
        68  17 -1.407169E+04 -2.070387E+05 -3.399641E+03 -2.103769E+04  1.065043E-09  1.124427E-09
        68  18  1.816626E+04 -1.435239E+05  2.191323E+04 -4.148905E+04  5.076105E-10  3.383562E-10
        68  19  2.713321E+04 -3.786975E+04  3.114576E+04 -3.736406E+04 -5.206583E+03  6.631392E+03
        68  20  1.192145E+04 -1.012790E+05  2.082709E+04 -1.689957E+04 -2.372334E+03  1.066045E+04
        68  21  1.396893E+04 -1.599008E+05  1.743398E+04 -2.836650E+04 -4.169325E+02  1.468867E+04
        68  22 -8.480112E+02 -1.517154E+05  5.118829E+03 -3.494081E+04 -5.204796E+03  4.271952E+03
        68  23 -1.075023E+03 -1.541601E+05  8.713865E+03 -1.896873E+04 -2.371029E+03  8.933598E+03
        68  24  1.606754E+04 -1.517123E+05  1.967375E+04 -3.492773E+04 -4.161906E+02  1.359477E+04
        68  25 -2.883011E+04 -2.655490E+05 -2.090893E+04 -3.251800E+04 -5.203027E+03  1.912942E+03
        68  26 -1.407167E+04 -2.070387E+05 -3.399533E+03 -2.103770E+04 -2.369713E+03  7.206890E+03
        68  27  1.816630E+04 -1.435237E+05  2.191353E+04 -4.148905E+04 -4.154257E+02  1.250086E+04
        69   1 -1.897762E+05 -4.804741E+04 -1.885994E+04 -7.417816E+04 -8.252641E+03 -2.787977E+03
        69   2 -1.816494E+05 -3.166593E+04 -9.315447E+03 -7.069532E+04 -5.127527E+03 -1.138084E+03
        69   3 -1.741148E+05 -2.888764E+04 -4.950546E+03 -6.878314E+04 -1.709081E+03 -2.701525E+02
        69   4 -1.667123E+05 -3.592673E+04 -1.195089E+04 -6.436390E+04 -7.706809E+03 -2.583353E+03
        69   5 -1.658352E+05 -2.467771E+04 -5.084734E+03 -6.526565E+04 -5.108656E+03 -1.131020E+03
        69   6 -1.654460E+05 -2.692741E+04 -2.980546E+03 -6.773819E+04 -2.217212E+03 -4.606816E+02
        69   7 -1.436480E+05 -2.380593E+04 -5.041946E+03 -5.454933E+04 -7.160959E+03 -2.378715E+03
        69   8 -1.500209E+05 -1.768945E+04 -8.540533E+02 -5.983585E+04 -5.089785E+03 -1.123956E+03
        69   9 -1.567770E+05 -2.496717E+04 -1.010543E+03 -6.669324E+04 -2.725353E+03 -6.512115E+02
        69  10 -1.897763E+05 -4.804744E+04 -1.886009E+04 -7.417818E+04  4.137111E-10 -6.281298E-11
        69  11 -1.816494E+05 -3.166594E+04 -9.315499E+03 -7.069533E+04  9.902564E-10 -8.620043E-10
        69  12 -1.741148E+05 -2.888764E+04 -4.950552E+03 -6.878314E+04  2.909006E-10 -3.899665E-10
        69  13 -1.667124E+05 -3.592675E+04 -1.195102E+04 -6.436392E+04  1.502607E-10 -4.236349E-10
        69  14 -1.658353E+05 -2.467772E+04 -5.084786E+03 -6.526565E+04  2.966613E-10 -9.146827E-10
        69  15 -1.654460E+05 -2.692741E+04 -2.980556E+03 -6.773820E+04  5.807897E-10  2.457394E-10
        69  16 -1.436481E+05 -2.380595E+04 -5.042053E+03 -5.454935E+04 -6.632845E-10 -7.971553E-10
        69  17 -1.500209E+05 -1.768946E+04 -8.541044E+02 -5.983585E+04 -2.462850E-10 -8.542849E-10
        69  18 -1.567770E+05 -2.496718E+04 -1.010558E+03 -6.669324E+04 -1.248001E-10  7.129808E-10
        69  19 -1.897762E+05 -4.804741E+04 -1.885994E+04 -7.417816E+04  8.252641E+03  2.787977E+03
        69  20 -1.816494E+05 -3.166593E+04 -9.315447E+03 -7.069532E+04  5.127527E+03  1.138084E+03
        69  21 -1.741148E+05 -2.888764E+04 -4.950546E+03 -6.878314E+04  1.709081E+03  2.701525E+02
        69  22 -1.667123E+05 -3.592673E+04 -1.195089E+04 -6.436390E+04  7.706809E+03  2.583353E+03
        69  23 -1.658352E+05 -2.467771E+04 -5.084734E+03 -6.526565E+04  5.108656E+03  1.131020E+03
        69  24 -1.654460E+05 -2.692741E+04 -2.980546E+03 -6.773819E+04  2.217212E+03  4.606816E+02
        69  25 -1.436480E+05 -2.380593E+04 -5.041946E+03 -5.454933E+04  7.160959E+03  2.378715E+03
        69  26 -1.500209E+05 -1.768945E+04 -8.540533E+02 -5.983585E+04  5.089785E+03  1.123956E+03
        69  27 -1.567770E+05 -2.496717E+04 -1.010543E+03 -6.669324E+04  2.725353E+03  6.512115E+02
        70   1 -1.636105E+05 -2.770728E+04 -2.066973E+03 -6.695524E+04 -1.413232E+03 -5.760497E+02
        70   2 -1.563960E+05 -2.167487E+04  1.370646E+03 -6.253703E+04 -6.106316E+02 -7.484450E+02
        70   3 -1.459622E+05 -2.007960E+04  4.103335E+03 -6.206692E+04  2.075326E+02 -9.622890E+02
        70   4 -1.650569E+05 -2.801155E+04 -2.397726E+03 -6.710445E+04 -1.678959E+03 -6.756890E+02
        70   5 -1.666182E+05 -2.543260E+04 -1.206921E+03 -6.526654E+04 -9.042994E+02 -8.585631E+02
        70   6 -1.649548E+05 -2.728529E+04 -6.989163E+02 -6.737678E+04 -1.140885E+02 -1.082890E+03
        70   7 -1.665033E+05 -2.831581E+04 -2.728478E+03 -6.725366E+04 -1.944685E+03 -7.753283E+02
        70   8 -1.768402E+05 -2.919031E+04 -3.784483E+03 -6.799600E+04 -1.197961E+03 -9.686789E+02
        70   9 -1.839468E+05 -3.449090E+04 -5.501157E+03 -7.268645E+04 -4.356964E+02 -1.203486E+03
        70  10 -1.636105E+05 -2.770728E+04 -2.066978E+03 -6.695524E+04  1.417185E-09  5.057528E-10
        70  11 -1.563960E+05 -2.167487E+04  1.370644E+03 -6.253703E+04  7.672204E-11 -4.609497E-10
        70  12 -1.459622E+05 -2.007960E+04  4.103333E+03 -6.206692E+04  6.313024E-10 -5.243324E-10
        70  13 -1.650569E+05 -2.801155E+04 -2.397732E+03 -6.710445E+04  9.867009E-10  2.448698E-10
        70  14 -1.666182E+05 -2.543261E+04 -1.206924E+03 -6.526654E+04  1.763962E-09 -7.207819E-10
        70  15 -1.649548E+05 -2.728529E+04 -6.989185E+02 -6.737678E+04  5.227867E-10 -2.582251E-10
        70  16 -1.665033E+05 -2.831581E+04 -2.728486E+03 -6.725366E+04 -2.693727E-09 -3.798479E-11
        70  17 -1.768402E+05 -2.919031E+04 -3.784488E+03 -6.799600E+04  8.439566E-10 -9.192971E-10
        70  18 -1.839468E+05 -3.449090E+04 -5.501160E+03 -7.268645E+04  5.134669E-10  6.989139E-11
        70  19 -1.636105E+05 -2.770728E+04 -2.066973E+03 -6.695524E+04  1.413232E+03  5.760497E+02
        70  20 -1.563960E+05 -2.167487E+04  1.370646E+03 -6.253703E+04  6.106316E+02  7.484450E+02
        70  21 -1.459622E+05 -2.007960E+04  4.103335E+03 -6.206692E+04 -2.075326E+02  9.622890E+02
        70  22 -1.650569E+05 -2.801155E+04 -2.397726E+03 -6.710445E+04  1.678959E+03  6.756890E+02
        70  23 -1.666182E+05 -2.543260E+04 -1.206921E+03 -6.526654E+04  9.042994E+02  8.585631E+02
        70  24 -1.649548E+05 -2.728529E+04 -6.989163E+02 -6.737678E+04  1.140885E+02  1.082890E+03
        70  25 -1.665033E+05 -2.831581E+04 -2.728478E+03 -6.725366E+04  1.944685E+03  7.753283E+02
        70  26 -1.768402E+05 -2.919031E+04 -3.784483E+03 -6.799600E+04  1.197961E+03  9.686789E+02
        70  27 -1.839468E+05 -3.449090E+04 -5.501157E+03 -7.268645E+04  4.356964E+02  1.203486E+03
        71   1 -1.368340E+05 -1.688030E+04  6.592521E+03 -5.966026E+04  3.976652E+02 -1.203269E+03
        71   2 -1.297303E+05 -1.169072E+04  9.023258E+03 -5.516995E+04  7.429481E+02 -1.597079E+03
        71   3 -1.190657E+05 -1.017826E+04  1.130720E+04 -5.480262E+04  1.088935E+03 -1.992659E+03
        71   4 -1.649154E+05 -2.736904E+04 -5.528792E+02 -6.732136E+04  8.904878E+01 -1.318998E+03
        71   5 -1.666921E+05 -2.550255E+04 -3.427036E+02 -6.527038E+04  4.331265E+02 -1.713274E+03
        71   6 -1.649076E+05 -2.731294E+04 -2.783219E+02 -6.734244E+04  7.779048E+02 -2.109319E+03
        71   7 -1.929962E+05 -3.785782E+04 -7.698410E+03 -7.498221E+04 -2.195551E+02 -1.434723E+03
        71   8 -2.036528E+05 -3.931439E+04 -9.708843E+03 -7.537034E+04  1.233230E+02 -1.829461E+03
        71   9 -2.107477E+05 -4.444758E+04 -1.186407E+04 -7.988149E+04  4.668984E+02 -2.225970E+03
        71  10 -1.368340E+05 -1.688030E+04  6.592518E+03 -5.966026E+04  3.142209E-10 -1.418359E-10
        71  11 -1.297303E+05 -1.169073E+04  9.023252E+03 -5.516995E+04 -1.365852E-09 -1.268930E-10
        71  12 -1.190657E+05 -1.017826E+04  1.130719E+04 -5.480262E+04 -2.026774E-09  7.592943E-10
        71  13 -1.649154E+05 -2.736904E+04 -5.528824E+02 -6.732136E+04  3.116324E-11 -9.833152E-11
        71  14 -1.666921E+05 -2.550256E+04 -3.427094E+02 -6.527038E+04 -2.110441E-09 -2.951619E-11
        71  15 -1.649076E+05 -2.731295E+04 -2.783313E+02 -6.734244E+04 -1.068941E-09  9.932330E-10
        71  16 -1.929962E+05 -3.785783E+04 -7.698414E+03 -7.498221E+04 -1.883627E-09 -6.648998E-11
        71  17 -2.036528E+05 -3.931440E+04 -9.708850E+03 -7.537034E+04  5.327467E-10  3.753516E-11
        71  18 -2.107477E+05 -4.444758E+04 -1.186408E+04 -7.988149E+04 -3.296774E-10  1.248882E-09
        71  19 -1.368340E+05 -1.688030E+04  6.592521E+03 -5.966026E+04 -3.976652E+02  1.203269E+03
        71  20 -1.297303E+05 -1.169072E+04  9.023258E+03 -5.516995E+04 -7.429481E+02  1.597079E+03
        71  21 -1.190657E+05 -1.017826E+04  1.130720E+04 -5.480262E+04 -1.088935E+03  1.992659E+03
        71  22 -1.649154E+05 -2.736904E+04 -5.528792E+02 -6.732136E+04 -8.904878E+01  1.318998E+03
        71  23 -1.666921E+05 -2.550255E+04 -3.427036E+02 -6.527038E+04 -4.331265E+02  1.713274E+03
        71  24 -1.649076E+05 -2.731294E+04 -2.783219E+02 -6.734244E+04 -7.779048E+02  2.109319E+03
        71  25 -1.929962E+05 -3.785782E+04 -7.698410E+03 -7.498221E+04  2.195551E+02  1.434723E+03
        71  26 -2.036528E+05 -3.931439E+04 -9.708843E+03 -7.537034E+04 -1.233230E+02  1.829461E+03
        71  27 -2.107477E+05 -4.444758E+04 -1.186407E+04 -7.988149E+04 -4.668984E+02  2.225970E+03
        72   1 -1.100847E+05 -6.825304E+03  1.364089E+04 -5.235710E+04  1.235123E+03 -2.243821E+03
        72   2 -1.030055E+05 -1.714536E+03  1.576752E+04 -4.787275E+04  1.591728E+03 -2.634585E+03
        72   3 -9.235698E+04 -2.177364E+02  1.775397E+04 -4.751248E+04  1.948198E+03 -3.024820E+03
        72   4 -1.649088E+05 -2.731695E+04 -2.838239E+02 -6.733612E+04  9.250073E+02 -2.360148E+03
        72   5 -1.666935E+05 -2.551046E+04 -3.700830E+02 -6.527392E+04  1.281937E+03 -2.750807E+03
        72   6 -1.649091E+05 -2.731801E+04 -5.968174E+02 -6.733580E+04  1.638730E+03 -3.140941E+03
        72   7 -2.197296E+05 -4.780826E+04 -1.420867E+04 -8.231383E+04  6.149241E+02 -2.476462E+03
        72   8 -2.303774E+05 -4.930607E+04 -1.650797E+04 -8.267343E+04  9.721810E+02 -2.867017E+03
        72   9 -2.374563E+05 -5.441801E+04 -1.894807E+04 -8.715708E+04  1.329300E+03 -3.257046E+03
        72  10 -1.100847E+05 -6.825310E+03  1.364088E+04 -5.235710E+04 -3.734410E-10  1.381575E-09
        72  11 -1.030056E+05 -1.714544E+03  1.576750E+04 -4.787275E+04 -9.154607E-10  6.442491E-11
        72  12 -9.235698E+04 -2.177473E+02  1.775394E+04 -4.751247E+04  1.736252E-09  1.279028E-10
        72  13 -1.649088E+05 -2.731696E+04 -2.838360E+02 -6.733612E+04 -2.428743E-09  9.320451E-10
        72  14 -1.666935E+05 -2.551047E+04 -3.701003E+02 -6.527391E+04  5.926354E-10 -6.254513E-11
        72  15 -1.649091E+05 -2.731802E+04 -5.968410E+02 -6.733580E+04  2.466076E-09  3.052038E-10
        72  16 -2.197296E+05 -4.780827E+04 -1.420868E+04 -8.231383E+04 -1.906959E-09  4.858347E-10
        72  17 -2.303774E+05 -4.930608E+04 -1.650799E+04 -8.267343E+04 -4.395501E-10 -3.183898E-11
        72  18 -2.374563E+05 -5.441802E+04 -1.894810E+04 -8.715708E+04  2.742943E-09  6.293083E-10
        72  19 -1.100847E+05 -6.825304E+03  1.364089E+04 -5.235710E+04 -1.235123E+03  2.243821E+03
        72  20 -1.030055E+05 -1.714536E+03  1.576752E+04 -4.787275E+04 -1.591728E+03  2.634585E+03
        72  21 -9.235698E+04 -2.177364E+02  1.775397E+04 -4.751248E+04 -1.948198E+03  3.024820E+03
        72  22 -1.649088E+05 -2.731695E+04 -2.838239E+02 -6.733612E+04 -9.250073E+02  2.360148E+03
        72  23 -1.666935E+05 -2.551046E+04 -3.700830E+02 -6.527392E+04 -1.281937E+03  2.750807E+03
        72  24 -1.649091E+05 -2.731801E+04 -5.968174E+02 -6.733580E+04 -1.638730E+03  3.140941E+03
        72  25 -2.197296E+05 -4.780826E+04 -1.420867E+04 -8.231383E+04 -6.149241E+02  2.476462E+03
        72  26 -2.303774E+05 -4.930607E+04 -1.650797E+04 -8.267343E+04 -9.721810E+02  2.867017E+03
        72  27 -2.374563E+05 -5.441801E+04 -1.894807E+04 -8.715708E+04 -1.329300E+03  3.257046E+03
        73   1 -8.342464E+04  3.132653E+03  1.990636E+04 -4.509285E+04  2.161996E+03 -3.249319E+03
        73   2 -7.633606E+04  8.237891E+03  2.151183E+04 -4.060944E+04  3.018648E+03 -3.450317E+03
        73   3 -6.579463E+04  9.632551E+03  2.257750E+04 -4.022777E+04  3.874784E+03 -3.649694E+03
        73   4 -1.649312E+05 -2.730896E+04 -7.754126E+02 -6.734251E+04  1.852744E+03 -3.365374E+03
        73   5 -1.666638E+05 -2.549745E+04 -1.373012E+03 -6.527525E+04  2.710374E+03 -3.566030E+03
        73   6 -1.649439E+05 -2.739670E+04 -2.511232E+03 -6.730973E+04  3.567481E+03 -3.765070E+03
        73   7 -2.464310E+05 -5.775004E+04 -2.145764E+04 -8.958944E+04  1.543537E+03 -3.481411E+03
        73   8 -2.569836E+05 -5.923226E+04 -2.425850E+04 -8.993782E+04  2.402150E+03 -3.681725E+03
        73   9 -2.640840E+05 -6.442546E+04 -2.760085E+04 -9.438789E+04  3.260231E+03 -3.880426E+03
        73  10 -8.342465E+04  3.132640E+03  1.990634E+04 -4.509285E+04  3.989754E-09  6.092606E-10
        73  11 -7.633607E+04  8.237875E+03  2.151179E+04 -4.060943E+04  3.842508E-09 -6.108854E-10
        73  12 -6.579465E+04  9.632533E+03  2.257744E+04 -4.022776E+04 -4.839000E-10 -6.790988E-10
        73  13 -1.649312E+05 -2.730898E+04 -7.754403E+02 -6.734251E+04  1.982913E-09  3.540909E-10
        73  14 -1.666638E+05 -2.549746E+04 -1.373049E+03 -6.527524E+04 -2.280770E-10 -8.637204E-10
        73  15 -1.649439E+05 -2.739672E+04 -2.511282E+03 -6.730972E+04 -1.215081E-09 -4.357769E-10
        73  16 -2.464310E+05 -5.775005E+04 -2.145767E+04 -8.958944E+04  6.576017E-10 -6.499039E-11
        73  17 -2.569836E+05 -5.923228E+04 -2.425854E+04 -8.993781E+04 -1.046430E-09 -3.812599E-10
        73  18 -2.640840E+05 -6.442548E+04 -2.760090E+04 -9.438788E+04 -4.719569E-10  1.636878E-11
        73  19 -8.342464E+04  3.132653E+03  1.990636E+04 -4.509285E+04 -2.161996E+03  3.249319E+03
        73  20 -7.633606E+04  8.237891E+03  2.151183E+04 -4.060944E+04 -3.018648E+03  3.450317E+03
        73  21 -6.579463E+04  9.632551E+03  2.257750E+04 -4.022777E+04 -3.874784E+03  3.649694E+03
        73  22 -1.649312E+05 -2.730896E+04 -7.754126E+02 -6.734251E+04 -1.852744E+03  3.365374E+03
        73  23 -1.666638E+05 -2.549745E+04 -1.373012E+03 -6.527525E+04 -2.710374E+03  3.566030E+03
        73  24 -1.649439E+05 -2.739670E+04 -2.511232E+03 -6.730973E+04 -3.567481E+03  3.765070E+03
        73  25 -2.464310E+05 -5.775004E+04 -2.145764E+04 -8.958944E+04 -1.543537E+03  3.481411E+03
        73  26 -2.569836E+05 -5.923226E+04 -2.425850E+04 -8.993782E+04 -2.402150E+03  3.681725E+03
        73  27 -2.640840E+05 -6.442546E+04 -2.760085E+04 -9.438789E+04 -3.260231E+03  3.880426E+03
        74   1 -5.686368E+04  1.294671E+04  2.408510E+04 -3.808185E+04  4.458036E+03 -3.735664E+03
        74   2 -4.966863E+04  1.830126E+04  2.361588E+04 -3.334064E+04  7.627856E+03 -3.063388E+03
        74   3 -3.984181E+04  1.859513E+04  2.052227E+04 -3.242646E+04  1.079225E+04 -2.376345E+03
        74   4 -1.650660E+05 -2.726197E+04 -3.321823E+03 -6.741230E+04  4.147091E+03 -3.852425E+03
        74   5 -1.664687E+05 -2.535036E+04 -5.981253E+03 -6.526631E+04  7.326302E+03 -3.176661E+03
        74   6 -1.652417E+05 -2.850161E+04 -1.127288E+04 -6.694746E+04  1.050003E+04 -2.486148E+03
        74   7 -2.732569E+05 -6.746992E+04 -3.072968E+04 -9.673815E+04  3.836207E+03 -3.969165E+03
        74   8 -2.832553E+05 -6.900102E+04 -3.557941E+04 -9.718648E+04  7.024811E+03 -3.289910E+03
        74   9 -2.906258E+05 -7.559710E+04 -4.306915E+04 -1.014620E+05  1.020788E+04 -2.595927E+03
        74  10 -5.686370E+04  1.294669E+04  2.408503E+04 -3.808184E+04 -2.238167E-10  4.528882E-10
        74  11 -4.966870E+04  1.830124E+04  2.361575E+04 -3.334062E+04  2.262370E-10  2.038336E-10
        74  12 -3.984194E+04  1.859509E+04  2.052204E+04 -3.242644E+04  2.313218E-09 -4.491673E-10
        74  13 -1.650660E+05 -2.726199E+04 -3.321884E+03 -6.741229E+04 -2.322416E-09  5.884485E-10
        74  14 -1.664688E+05 -2.535039E+04 -5.981372E+03 -6.526629E+04  2.967715E-09  7.943665E-10
        74  15 -1.652418E+05 -2.850164E+04 -1.127310E+04 -6.694743E+04  1.869811E-09 -2.875702E-10
        74  16 -2.732569E+05 -6.746994E+04 -3.072974E+04 -9.673813E+04 -6.589597E-10  6.234915E-10
        74  17 -2.832553E+05 -6.900105E+04 -3.557953E+04 -9.718646E+04 -2.261371E-10  1.084876E-10
        74  18 -2.906259E+05 -7.559713E+04 -4.306936E+04 -1.014620E+05 -3.746903E-10  3.878080E-10
        74  19 -5.686368E+04  1.294671E+04  2.408510E+04 -3.808185E+04 -4.458036E+03  3.735664E+03
        74  20 -4.966863E+04  1.830126E+04  2.361588E+04 -3.334064E+04 -7.627856E+03  3.063388E+03
        74  21 -3.984181E+04  1.859513E+04  2.052227E+04 -3.242646E+04 -1.079225E+04  2.376345E+03
        74  22 -1.650660E+05 -2.726197E+04 -3.321823E+03 -6.741230E+04 -4.147091E+03  3.852425E+03
        74  23 -1.664687E+05 -2.535036E+04 -5.981253E+03 -6.526631E+04 -7.326302E+03  3.176661E+03
        74  24 -1.652417E+05 -2.850161E+04 -1.127288E+04 -6.694746E+04 -1.050003E+04  2.486148E+03
        74  25 -2.732569E+05 -6.746992E+04 -3.072968E+04 -9.673815E+04 -3.836207E+03  3.969165E+03
        74  26 -2.832553E+05 -6.900102E+04 -3.557941E+04 -9.718648E+04 -7.024811E+03  3.289910E+03
        74  27 -2.906258E+05 -7.559710E+04 -4.306915E+04 -1.014620E+05 -1.020788E+04  2.595927E+03
        75   1 -2.992436E+04  2.178951E+04  1.940489E+04 -3.345616E+04  1.305933E+04 -1.861515E+03
        75   2 -2.272393E+04  3.064201E+04  1.018026E+04 -2.494149E+04  2.643269E+04  2.681901E+03
        75   3 -2.038201E+04  1.804682E+04 -1.372764E+04 -1.629129E+04  3.971059E+04  7.480632E+03
        75   4 -1.661376E+05 -2.664694E+04 -1.467924E+04 -6.813376E+04  1.268931E+04 -2.000497E+03
        75   5 -1.648133E+05 -2.385466E+04 -2.608919E+04 -6.521637E+04  2.623158E+04  2.606184E+03
        75   6 -1.683830E+05 -4.254665E+04 -5.231891E+04 -6.216349E+04  3.967822E+04  7.467942E+03
        75   7 -3.023333E+05 -7.508282E+04 -4.876497E+04 -1.028048E+05  1.231938E+04 -2.139450E+03
        75   8 -3.068832E+05 -7.834985E+04 -6.236035E+04 -1.054829E+05  2.603052E+04  2.530486E+03
        75   9 -3.163625E+05 -1.031375E+05 -9.091202E+04 -1.080254E+05  3.964587E+04  7.455256E+03
        75  10 -2.992455E+04  2.178946E+04  1.940456E+04 -3.345614E+04 -1.505277E-09 -1.401685E-09
        75  11 -2.272468E+04  3.064181E+04  1.017893E+04 -2.494154E+04  1.963154E-09  1.209841E-09
        75  12 -2.038372E+04  1.804634E+04 -1.373071E+04 -1.629153E+04 -8.438201E-11  9.385128E-10
        75  13 -1.661378E+05 -2.664698E+04 -1.467955E+04 -6.813374E+04  1.238974E-09 -8.368826E-10
        75  14 -1.648140E+05 -2.385485E+04 -2.609049E+04 -6.521643E+04  1.159993E-09  1.188245E-09
        75  15 -1.683847E+05 -4.254713E+04 -5.232197E+04 -6.216373E+04  9.282925E-10 -3.804284E-10
        75  16 -3.023335E+05 -7.508287E+04 -4.876526E+04 -1.028048E+05  1.461867E-09  1.355274E-09
        75  17 -3.068839E+05 -7.835004E+04 -6.236164E+04 -1.054830E+05 -5.000095E-10  7.557518E-10
        75  18 -3.163642E+05 -1.031380E+05 -9.091508E+04 -1.080256E+05 -1.256329E-09 -4.142334E-10
        75  19 -2.992436E+04  2.178951E+04  1.940489E+04 -3.345616E+04 -1.305933E+04  1.861515E+03
        75  20 -2.272393E+04  3.064201E+04  1.018026E+04 -2.494149E+04 -2.643269E+04 -2.681901E+03
        75  21 -2.038201E+04  1.804682E+04 -1.372764E+04 -1.629129E+04 -3.971059E+04 -7.480632E+03
        75  22 -1.661376E+05 -2.664694E+04 -1.467924E+04 -6.813376E+04 -1.268931E+04  2.000497E+03
        75  23 -1.648133E+05 -2.385466E+04 -2.608919E+04 -6.521637E+04 -2.623158E+04 -2.606184E+03
        75  24 -1.683830E+05 -4.254665E+04 -5.231891E+04 -6.216349E+04 -3.967822E+04 -7.467942E+03
        75  25 -3.023333E+05 -7.508282E+04 -4.876497E+04 -1.028048E+05 -1.231938E+04  2.139450E+03
        75  26 -3.068832E+05 -7.834985E+04 -6.236035E+04 -1.054829E+05 -2.603052E+04 -2.530486E+03
        75  27 -3.163625E+05 -1.031375E+05 -9.091202E+04 -1.080254E+05 -3.964587E+04 -7.455256E+03
        76   1  4.240972E+03  2.073210E+04 -2.452604E+04 -5.553703E+04  5.025864E+04  1.047271E+04
        76   2  4.097196E+03  7.317181E+04 -6.827105E+04  7.611629E+02  1.073017E+05  3.209142E+04
        76   3 -8.138021E+04 -9.395700E+04 -2.137010E+05  1.089934E+05  1.625557E+05  5.847767E+04
        76   4 -1.768265E+05 -1.888986E+04 -6.512892E+04 -7.613466E+04  4.875216E+04  9.909317E+03
        76   5 -1.477411E+05 -7.240615E+03 -1.112576E+05 -6.510262E+04  1.089890E+05  3.272025E+04
        76   6 -2.046525E+05 -2.158373E+05 -2.616217E+05 -2.127952E+03  1.674388E+05  6.028821E+04
        76   7 -3.578605E+05 -5.851256E+04 -1.057333E+05 -9.672923E+04  4.724617E+04  9.345936E+03
        76   8 -2.995543E+05 -8.764313E+04 -1.542457E+05 -1.309491E+05  1.106758E+05  3.334875E+04
        76   9 -3.278941E+05 -3.376724E+05 -3.095409E+05 -1.132195E+05  1.723208E+05  6.209684E+04
        76  10  4.238230E+03  2.073130E+04 -2.453099E+04 -5.553746E+04  1.191359E-10 -7.462747E-10
        76  11  4.084555E+03  7.316761E+04 -6.829462E+04  7.583895E+02  6.845596E-09  7.271318E-11
        76  12 -8.140951E+04 -9.396777E+04 -2.137571E+05  1.089857E+05  3.664890E-09  4.875976E-10
        76  13 -1.768291E+05 -1.889060E+04 -6.513357E+04 -7.613505E+04  1.168544E-09 -6.986238E-10
        76  14 -1.477541E+05 -7.244955E+03 -1.112819E+05 -6.510550E+04  5.468693E-09  6.021413E-10
        76  15 -2.046836E+05 -2.158487E+05 -2.616812E+05 -2.136085E+03  2.452303E-09  1.645172E-09
        76  16 -3.578630E+05 -5.851325E+04 -1.057377E+05 -9.672958E+04  3.607351E-09  8.678514E-10
        76  17 -2.995677E+05 -8.764761E+04 -1.542709E+05 -1.309521E+05  4.943723E-09  3.134276E-09
        76  18 -3.279271E+05 -3.376846E+05 -3.096040E+05 -1.132281E+05 -2.620291E-10  6.416504E-10
        76  19  4.240972E+03  2.073210E+04 -2.452604E+04 -5.553703E+04 -5.025864E+04 -1.047271E+04
        76  20  4.097196E+03  7.317181E+04 -6.827105E+04  7.611629E+02 -1.073017E+05 -3.209142E+04
        76  21 -8.138021E+04 -9.395700E+04 -2.137010E+05  1.089934E+05 -1.625557E+05 -5.847767E+04
        76  22 -1.768265E+05 -1.888986E+04 -6.512892E+04 -7.613466E+04 -4.875216E+04 -9.909317E+03
        76  23 -1.477411E+05 -7.240615E+03 -1.112576E+05 -6.510262E+04 -1.089890E+05 -3.272025E+04
        76  24 -2.046525E+05 -2.158373E+05 -2.616217E+05 -2.127952E+03 -1.674388E+05 -6.028821E+04
        76  25 -3.578605E+05 -5.851256E+04 -1.057333E+05 -9.672923E+04 -4.724617E+04 -9.345936E+03
        76  26 -2.995543E+05 -8.764313E+04 -1.542457E+05 -1.309491E+05 -1.106758E+05 -3.334875E+04
        76  27 -3.278941E+05 -3.376724E+05 -3.095409E+05 -1.132195E+05 -1.723208E+05 -6.209684E+04
        77   1  2.092248E+05  2.033296E+06  2.105451E+05 -4.362525E+04  8.364328E+03  1.018663E+05
        77   2  1.462962E+05  2.028072E+06  1.468508E+05 -1.877014E+04  2.896273E+04  5.864185E+04
        77   3  1.316530E+05  2.040555E+06  1.233168E+05  7.806743E+03  3.689646E+04  1.541943E+04
        77   4  7.539459E+04  1.489579E+06  8.403714E+04  3.741132E+03  8.373590E+03  5.649204E+04
        77   5  1.653055E+04  1.482594E+06  4.244000E+04  2.872959E+03  2.896980E+04  3.461038E+04
        77   6  2.274250E+03  1.489629E+06  2.622548E+04  3.727135E+03  3.689982E+04  1.272965E+04
        77   7 -5.844696E+04  9.461436E+05 -4.248184E+04  5.106587E+04  8.375954E+03  1.115716E+04
        77   8 -1.132506E+05  9.374039E+05 -6.198196E+04  2.449666E+04  2.897521E+04  1.059947E+04
        77   9 -1.271210E+05  9.389997E+05 -7.087696E+04 -3.487431E+02  3.690323E+04  1.004217E+04
        77  10  2.092220E+05  2.033284E+06  2.105255E+05 -4.362594E+04  1.384840E-09  5.180338E-09
        77  11  1.462944E+05  2.028068E+06  1.468428E+05 -1.877151E+04 -1.925767E-09 -1.030609E-08
        77  12  1.316514E+05  2.040554E+06  1.233138E+05  7.806285E+03  1.981253E-09 -2.405316E-08
        77  13  7.539366E+04  1.489576E+06  8.403102E+04  3.740751E+03  2.734385E-10 -3.365663E-11
        77  14  1.652933E+04  1.482593E+06  4.243617E+04  2.872152E+03  1.113661E-09  5.890328E-11
        77  15  2.272743E+03  1.489629E+06  2.622261E+04  3.726757E+03  8.371020E-10 -2.896809E-10
        77  16 -5.844707E+04  9.461435E+05 -4.248220E+04  5.106579E+04  7.477782E-10 -5.228398E-09
        77  17 -1.132515E+05  9.374035E+05 -6.198375E+04  2.449641E+04  1.820497E-09  1.011738E-08
        77  18 -1.271224E+05  9.389992E+05 -7.087971E+04 -3.490415E+02  1.732075E-09  2.371491E-08
        77  19  2.092248E+05  2.033296E+06  2.105451E+05 -4.362525E+04 -8.364328E+03 -1.018663E+05
        77  20  1.462962E+05  2.028072E+06  1.468508E+05 -1.877014E+04 -2.896273E+04 -5.864185E+04
        77  21  1.316530E+05  2.040555E+06  1.233168E+05  7.806743E+03 -3.689646E+04 -1.541943E+04
        77  22  7.539459E+04  1.489579E+06  8.403714E+04  3.741132E+03 -8.373590E+03 -5.649204E+04
        77  23  1.653055E+04  1.482594E+06  4.244000E+04  2.872959E+03 -2.896980E+04 -3.461038E+04
        77  24  2.274250E+03  1.489629E+06  2.622548E+04  3.727135E+03 -3.689982E+04 -1.272965E+04
        77  25 -5.844696E+04  9.461436E+05 -4.248184E+04  5.106587E+04 -8.375954E+03 -1.115716E+04
        77  26 -1.132506E+05  9.374039E+05 -6.198196E+04  2.449666E+04 -2.897521E+04 -1.059947E+04
        77  27 -1.271210E+05  9.389997E+05 -7.087696E+04 -3.487431E+02 -3.690323E+04 -1.004217E+04
        78   1  1.330262E+05  2.039946E+06  1.190545E+05  1.453151E+03  3.765748E+04  1.328413E+04
        78   2  1.313387E+05  2.042471E+06  1.150975E+05  2.942307E+03  3.904428E+04 -3.541537E+01
        78   3  1.351290E+05  2.048128E+06  1.211709E+05  5.359159E+03  3.813658E+04 -1.335584E+04
        78   4  3.320266E+03  1.487056E+06  2.230464E+04  3.551591E+03  3.766168E+04  9.016966E+03
        78   5  9.994156E+02  1.485824E+06  1.892346E+04  3.087487E+03  3.904755E+04 -4.300549E+02
        78   6  3.488382E+03  1.487055E+06  2.289372E+04  3.551118E+03  3.813799E+04 -9.877870E+03
        78   7 -1.264022E+05  9.344651E+05 -7.445606E+04  5.648131E+03  3.766585E+04  4.753474E+03
        78   8 -1.293565E+05  9.294798E+05 -7.726130E+04  3.232560E+03  3.905082E+04 -8.243523E+02
        78   9 -1.281693E+05  9.262886E+05 -7.539469E+04  1.744789E+03  3.813937E+04 -6.402938E+03
        78  10  1.330246E+05  2.039945E+06  1.190515E+05  1.452748E+03  1.018413E-09  2.114683E-08
        78  11  1.313371E+05  2.042471E+06  1.150947E+05  2.942308E+03 -3.107189E-09  6.848537E-09
        78  12  1.351274E+05  2.048127E+06  1.211678E+05  5.359569E+03 -1.341654E-09 -6.727197E-09
        78  13  3.318720E+03  1.487056E+06  2.230182E+04  3.551318E+03 -8.349444E-11  1.459110E-11
        78  14  9.977772E+02  1.485824E+06  1.892059E+04  3.087500E+03  1.251059E-09 -6.674383E-11
        78  15  3.486793E+03  1.487054E+06  2.289080E+04  3.551421E+03  1.314947E-09 -7.514167E-10
        78  16 -1.264037E+05  9.344647E+05 -7.445877E+04  5.647987E+03  9.572255E-10 -2.093967E-08
        78  17 -1.293581E+05  9.294794E+05 -7.726417E+04  3.232585E+03 -2.684753E-10 -7.532666E-09
        78  18 -1.281709E+05  9.262882E+05 -7.539751E+04  1.744986E+03 -7.213687E-10  5.918971E-09
        78  19  1.330262E+05  2.039946E+06  1.190545E+05  1.453151E+03 -3.765748E+04 -1.328413E+04
        78  20  1.313387E+05  2.042471E+06  1.150975E+05  2.942307E+03 -3.904428E+04  3.541537E+01
        78  21  1.351290E+05  2.048128E+06  1.211709E+05  5.359159E+03 -3.813658E+04  1.335584E+04
        78  22  3.320266E+03  1.487056E+06  2.230464E+04  3.551591E+03 -3.766168E+04 -9.016966E+03
        78  23  9.994156E+02  1.485824E+06  1.892346E+04  3.087487E+03 -3.904755E+04  4.300549E+02
        78  24  3.488382E+03  1.487055E+06  2.289372E+04  3.551118E+03 -3.813799E+04  9.877870E+03
        78  25 -1.264022E+05  9.344651E+05 -7.445606E+04  5.648131E+03 -3.766585E+04 -4.753474E+03
        78  26 -1.293565E+05  9.294798E+05 -7.726130E+04  3.232560E+03 -3.905082E+04  8.243523E+02
        78  27 -1.281693E+05  9.262886E+05 -7.539469E+04  1.744789E+03 -3.813937E+04  6.402938E+03
        79   1  1.349741E+05  2.054251E+06  1.267594E+05 -1.278064E+03  3.769547E+04 -1.551928E+04
        79   2  1.522751E+05  2.049550E+06  1.531638E+05  2.568989E+04  2.993693E+04 -6.101084E+04
        79   3  2.202834E+05  2.063454E+06  2.218041E+05  5.277267E+04  8.763986E+03 -1.065156E+05
        79   4  2.380343E+03  1.489778E+06  2.714861E+04  3.363253E+03  3.769738E+04 -1.369712E+04
        79   5  1.734989E+04  1.482399E+06  4.437094E+04  3.328598E+03  2.992561E+04 -3.658267E+04
        79   6  7.913219E+04  1.489722E+06  8.817682E+04  3.407879E+03  8.737784E+03 -5.947968E+04
        79   7 -1.302308E+05  9.256160E+05 -7.247385E+04  8.000279E+03  3.769931E+04 -1.187657E+04
        79   8 -1.175920E+05  9.155593E+05 -6.443415E+04 -1.901181E+04  2.991253E+04 -1.217624E+04
        79   9 -6.203183E+04  9.163033E+05 -4.546311E+04 -4.591107E+04  8.704114E+03 -1.248678E+04
        79  10  1.349725E+05  2.054251E+06  1.267563E+05 -1.277593E+03  7.771547E-10  9.564910E-10
        79  11  1.522731E+05  2.049545E+06  1.531551E+05  2.569136E+04  9.767936E-10 -1.063738E-09
        79  12  2.202802E+05  2.063442E+06  2.217827E+05  5.277342E+04  7.142202E-10 -1.177843E-09
        79  13  2.378766E+03  1.489778E+06  2.714559E+04  3.363669E+03 -3.647594E-10 -1.007590E-10
        79  14  1.734857E+04  1.482397E+06  4.436675E+04  3.329479E+03 -3.104603E-10  3.382458E-11
        79  15  7.913116E+04  1.489719E+06  8.817004E+04  3.408298E+03 -8.065061E-10 -1.087206E-09
        79  16 -1.302323E+05  9.256155E+05 -7.247679E+04  8.000640E+03  6.672544E-10 -1.025448E-09
        79  17 -1.175931E+05  9.155589E+05 -6.443611E+04 -1.901152E+04 -7.394424E-10  3.210058E-10
        79  18 -6.203195E+04  9.163032E+05 -4.546354E+04 -4.591098E+04 -1.513534E-09  1.612071E-10
        79  19  1.349741E+05  2.054251E+06  1.267594E+05 -1.278064E+03 -3.769547E+04  1.551928E+04
        79  20  1.522751E+05  2.049550E+06  1.531638E+05  2.568989E+04 -2.993693E+04  6.101084E+04
        79  21  2.202834E+05  2.063454E+06  2.218041E+05  5.277267E+04 -8.763986E+03  1.065156E+05
        79  22  2.380343E+03  1.489778E+06  2.714861E+04  3.363253E+03 -3.769738E+04  1.369712E+04
        79  23  1.734989E+04  1.482399E+06  4.437094E+04  3.328598E+03 -2.992561E+04  3.658267E+04
        79  24  7.913219E+04  1.489722E+06  8.817682E+04  3.407879E+03 -8.737784E+03  5.947968E+04
        79  25 -1.302308E+05  9.256160E+05 -7.247385E+04  8.000279E+03 -3.769931E+04  1.187657E+04
        79  26 -1.175920E+05  9.155593E+05 -6.443415E+04 -1.901181E+04 -2.991253E+04  1.217624E+04
        79  27 -6.203183E+04  9.163033E+05 -4.546311E+04 -4.591107E+04 -8.704114E+03  1.248678E+04
        80   1 -2.224421E+06 -4.531972E+05 -4.041463E+05 -5.433188E+04  6.909839E+04  2.996325E+04
        80   2 -2.048986E+06 -5.703723E+05 -4.349071E+05 -4.604780E+04  6.623978E+04  9.176004E+04
        80   3 -1.827322E+06 -5.192427E+05 -4.210777E+05 -1.397835E+05  6.363304E+04  9.148616E+04
        80   4  2.408711E+05  1.604035E+05  1.988618E+05 -1.130618E+05  1.361336E+05  3.022404E+04
        80   5  2.140996E+05 -1.268984E+04  8.854318E+04 -6.176145E+04  8.856624E+04  9.180612E+04
        80   6  2.411174E+05 -1.004384E+04  5.373390E+04 -1.124489E+05  4.125445E+04  9.141802E+04
        80   7  2.711733E+06  7.735714E+05  8.014451E+05 -1.720314E+05  2.034344E+05  3.047163E+04
        80   8  2.481930E+06  5.446343E+05  6.116535E+05 -7.753650E+04  1.109732E+05  9.185101E+04
        80   9  2.313527E+06  4.988592E+05  5.282656E+05 -8.502399E+04  1.880156E+04  9.134804E+04
        80  10 -2.224426E+06 -4.531995E+05 -4.041570E+05 -5.433355E+04 -1.562486E-09  1.561155E-10
        80  11 -2.048993E+06 -5.703826E+05 -4.349312E+05 -4.605271E+04  1.375710E-09  2.197988E-10
        80  12 -1.827328E+06 -5.192527E+05 -4.211011E+05 -1.397882E+05  8.288815E-10 -1.492375E-10
        80  13  2.408509E+05  1.603975E+05  1.988252E+05 -1.130652E+05 -2.154857E-09  4.676061E-11
        80  14  2.140889E+05 -1.270100E+04  8.851260E+04 -6.176800E+04  2.356001E-10 -2.268947E-11
        80  15  2.411133E+05 -1.005327E+04  5.371500E+04 -1.124519E+05  3.001529E-10 -3.680349E-10
        80  16  2.711688E+06  7.735593E+05  8.013659E+05 -1.720364E+05  1.564054E-09  8.191974E-11
        80  17  2.481914E+06  5.446219E+05  6.116146E+05 -7.754470E+04 -4.624535E-10  4.468388E-11
        80  18  2.313524E+06  4.988502E+05  5.282493E+05 -8.502537E+04  1.496581E-10 -2.969435E-10
        80  19 -2.224421E+06 -4.531972E+05 -4.041463E+05 -5.433188E+04 -6.909839E+04 -2.996325E+04
        80  20 -2.048986E+06 -5.703723E+05 -4.349071E+05 -4.604780E+04 -6.623978E+04 -9.176004E+04
        80  21 -1.827322E+06 -5.192427E+05 -4.210777E+05 -1.397835E+05 -6.363304E+04 -9.148616E+04
        80  22  2.408711E+05  1.604035E+05  1.988618E+05 -1.130618E+05 -1.361336E+05 -3.022404E+04
        80  23  2.140996E+05 -1.268984E+04  8.854318E+04 -6.176145E+04 -8.856624E+04 -9.180612E+04
        80  24  2.411174E+05 -1.004384E+04  5.373390E+04 -1.124489E+05 -4.125445E+04 -9.141802E+04
        80  25  2.711733E+06  7.735714E+05  8.014451E+05 -1.720314E+05 -2.034344E+05 -3.047163E+04
        80  26  2.481930E+06  5.446343E+05  6.116535E+05 -7.753650E+04 -1.109732E+05 -9.185101E+04
        80  27  2.313527E+06  4.988592E+05  5.282656E+05 -8.502399E+04 -1.880156E+04 -9.134804E+04
        81   1 -1.648183E+06 -4.517998E+05 -3.901985E+05 -1.113309E+05  3.661026E+04  7.847401E+04
        81   2 -1.454695E+06 -4.158442E+05 -3.643343E+05 -6.174968E+04  2.736597E+04  7.226296E+04
        81   3 -1.254815E+06 -3.668633E+05 -3.287667E+05 -1.152427E+05  1.809992E+04  6.300392E+04
        81   4  2.308390E+05  1.100384E+04  4.320302E+04 -1.128631E+05  3.332180E+04  7.845165E+04
        81   5  2.275641E+05 -1.730630E+03  2.268654E+04 -6.132676E+04  2.185575E+04  7.224350E+04
        81   6  2.310161E+05 -1.071438E+03  1.339634E+04 -1.128467E+05  1.037085E+04  6.299118E+04
        81   7  2.113131E+06  4.735601E+05  4.763699E+05 -1.144011E+05  3.002332E+04  7.842935E+04
        81   8  1.912445E+06  4.121851E+05  4.095202E+05 -6.090323E+04  1.633063E+04  7.222406E+04
        81   9  1.718892E+06  3.645660E+05  3.554132E+05 -1.104450E+05  2.623376E+03  6.297840E+04
        81  10 -1.648186E+06 -4.518068E+05 -3.902126E+05 -1.113332E+05 -2.536618E-09 -2.188087E-12
        81  11 -1.454697E+06 -4.158500E+05 -3.643456E+05 -6.175128E+04  1.364914E-09  9.505189E-10
        81  12 -1.254817E+06 -3.668676E+05 -3.287748E+05 -1.152436E+05  5.565761E-10  1.025878E-10
        81  13  2.308361E+05  1.099693E+04  4.318937E+04 -1.128652E+05 -2.141425E-09 -3.465658E-10
        81  14  2.275621E+05 -1.736363E+03  2.267583E+04 -6.132803E+04  1.144559E-09  3.022980E-10
        81  15  2.310149E+05 -1.075729E+03  1.338868E+04 -1.128473E+05 -3.984134E-10  3.128007E-10
        81  16  2.113129E+06  4.735532E+05  4.763566E+05 -1.144030E+05  6.881690E-10 -3.262976E-10
        81  17  1.912443E+06  4.121795E+05  4.095099E+05 -6.090418E+04 -9.989483E-10  7.232214E-11
        81  18  1.718891E+06  3.645617E+05  3.554058E+05 -1.104452E+05 -7.479388E-10  7.172444E-10
        81  19 -1.648183E+06 -4.517998E+05 -3.901985E+05 -1.113309E+05 -3.661026E+04 -7.847401E+04
        81  20 -1.454695E+06 -4.158442E+05 -3.643343E+05 -6.174968E+04 -2.736597E+04 -7.226296E+04
        81  21 -1.254815E+06 -3.668633E+05 -3.287667E+05 -1.152427E+05 -1.809992E+04 -6.300392E+04
        81  22  2.308390E+05  1.100384E+04  4.320302E+04 -1.128631E+05 -3.332180E+04 -7.845165E+04
        81  23  2.275641E+05 -1.730630E+03  2.268654E+04 -6.132676E+04 -2.185575E+04 -7.224350E+04
        81  24  2.310161E+05 -1.071438E+03  1.339634E+04 -1.128467E+05 -1.037085E+04 -6.299118E+04
        81  25  2.113131E+06  4.735601E+05  4.763699E+05 -1.144011E+05 -3.002332E+04 -7.842935E+04
        81  26  1.912445E+06  4.121851E+05  4.095202E+05 -6.090323E+04 -1.633063E+04 -7.222406E+04
        81  27  1.718892E+06  3.645660E+05  3.554132E+05 -1.104450E+05 -2.623376E+03 -6.297840E+04
        82   1 -1.067982E+06 -3.188468E+05 -2.876185E+05 -1.127650E+05  1.506062E+04  5.699497E+04
        82   2 -8.726454E+05 -2.714761E+05 -2.475876E+05 -6.117248E+04  1.230312E+04  4.748070E+04
        82   3 -6.760380E+05 -2.229865E+05 -2.053492E+05 -1.123292E+05  9.528011E+03  3.782589E+04
        82   4  2.299285E+05  4.589943E+02  1.031209E+04 -1.127803E+05  8.280874E+03  5.698694E+04
        82   5  2.293585E+05 -3.138376E+02  5.766175E+03 -6.141133E+04  5.415929E+03  4.747803E+04
        82   6  2.300433E+05  5.299242E+01  3.501349E+03 -1.127805E+05  2.534244E+03  3.782885E+04
        82   7  1.529401E+06  3.196473E+05  3.081318E+05 -1.127955E+05  1.487041E+03  5.697892E+04
        82   8  1.332487E+06  2.707636E+05  2.590398E+05 -6.165042E+04 -1.483404E+03  4.747537E+04
        82   9  1.136884E+06  2.230350E+05  2.122975E+05 -1.132322E+05 -4.469662E+03  3.783182E+04
        82  10 -1.067984E+06 -3.188503E+05 -2.876250E+05 -1.127657E+05 -6.775252E-10 -8.010802E-10
        82  11 -8.726462E+05 -2.714786E+05 -2.475921E+05 -6.117295E+04 -2.419748E-09 -5.508375E-10
        82  12 -6.760385E+05 -2.229881E+05 -2.053520E+05 -1.123295E+05 -3.384541E-09 -4.489036E-11
        82  13  2.299276E+05  4.554881E+02  1.030586E+04 -1.127807E+05  1.084573E-09 -6.290312E-11
        82  14  2.293579E+05 -3.162664E+02  5.761883E+03 -6.141153E+04 -2.220488E-11 -8.468815E-10
        82  15  2.300429E+05  5.145384E+01  3.498648E+03 -1.127806E+05  1.137549E-10  6.233019E-10
        82  16  1.529400E+06  3.196438E+05  3.081257E+05 -1.127956E+05 -9.336258E-10  1.301606E-10
        82  17  1.332487E+06  2.707612E+05  2.590356E+05 -6.165036E+04 -2.313190E-10 -4.958121E-10
        82  18  1.136884E+06  2.230335E+05  2.122948E+05 -1.132320E+05  2.733297E-09  9.282721E-10
        82  19 -1.067982E+06 -3.188468E+05 -2.876185E+05 -1.127650E+05 -1.506062E+04 -5.699497E+04
        82  20 -8.726454E+05 -2.714761E+05 -2.475876E+05 -6.117248E+04 -1.230312E+04 -4.748070E+04
        82  21 -6.760380E+05 -2.229865E+05 -2.053492E+05 -1.123292E+05 -9.528011E+03 -3.782589E+04
        82  22  2.299285E+05  4.589943E+02  1.031209E+04 -1.127803E+05 -8.280874E+03 -5.698694E+04
        82  23  2.293585E+05 -3.138376E+02  5.766175E+03 -6.141133E+04 -5.415929E+03 -4.747803E+04
        82  24  2.300433E+05  5.299242E+01  3.501349E+03 -1.127805E+05 -2.534244E+03 -3.782885E+04
        82  25  1.529401E+06  3.196473E+05  3.081318E+05 -1.127955E+05 -1.487041E+03 -5.697892E+04
        82  26  1.332487E+06  2.707636E+05  2.590398E+05 -6.165042E+04  1.483404E+03 -4.747537E+04
        82  27  1.136884E+06  2.230350E+05  2.122975E+05 -1.132322E+05  4.469662E+03 -3.783182E+04
        83   1 -4.888214E+05 -1.765390E+05 -1.618845E+05 -1.122032E+05  8.908538E+03  3.218130E+04
        83   2 -2.932619E+05 -1.285900E+05 -1.184365E+05 -6.100582E+04  8.021458E+03  2.252989E+04
        83   3 -9.762528E+04 -8.033763E+04 -7.437261E+04 -1.123407E+05  7.126108E+03  1.287619E+04
        83   4  2.298479E+05  1.428887E+02  2.724664E+03 -1.127335E+05  1.964844E+03  3.218681E+04
        83   5  2.298556E+05  8.463712E+01  1.784590E+03 -6.146998E+04  1.074180E+03  2.253794E+04
        83   6  2.299021E+05  3.319647E+02  1.463350E+03 -1.127333E+05  1.755198E+02  1.288691E+04
        83   7  9.489959E+05  1.767889E+05  1.673000E+05 -1.132642E+05 -4.986827E+03  3.219234E+04
        83   8  7.532264E+05  1.287402E+05  1.219878E+05 -6.193443E+04 -5.878908E+03  2.254599E+04
        83   9  5.575287E+05  8.099405E+04  7.729232E+04 -1.131262E+05 -6.778709E+03  1.289764E+04
        83  10 -4.888217E+05 -1.765402E+05 -1.618866E+05 -1.122034E+05  1.341232E-11  4.391889E-10
        83  11 -2.932621E+05 -1.285906E+05 -1.184376E+05 -6.100596E+04 -1.304571E-10 -2.653756E-10
        83  12 -9.762538E+04 -8.033782E+04 -7.437302E+04 -1.123407E+05 -6.296987E-10 -1.022130E-09
        83  13  2.298476E+05  1.417750E+02  2.722709E+03 -1.127335E+05  1.743324E-11  6.183264E-10
        83  14  2.298554E+05  8.409129E+01  1.783633E+03 -6.146999E+04 -1.703055E-09  3.650543E-10
        83  15  2.299021E+05  3.317863E+02  1.463037E+03 -1.127333E+05 -2.188124E-09 -5.496952E-10
        83  16  9.489956E+05  1.767878E+05  1.672981E+05 -1.132641E+05 -9.350630E-10  1.315121E-09
        83  17  7.532263E+05  1.287396E+05  1.219868E+05 -6.193432E+04 -7.715005E-10 -1.998400E-10
        83  18  5.575286E+05  8.099386E+04  7.729192E+04 -1.131261E+05 -1.837131E-09 -7.673390E-10
        83  19 -4.888214E+05 -1.765390E+05 -1.618845E+05 -1.122032E+05 -8.908538E+03 -3.218130E+04
        83  20 -2.932619E+05 -1.285900E+05 -1.184365E+05 -6.100582E+04 -8.021458E+03 -2.252989E+04
        83  21 -9.762528E+04 -8.033763E+04 -7.437261E+04 -1.123407E+05 -7.126108E+03 -1.287619E+04
        83  22  2.298479E+05  1.428887E+02  2.724664E+03 -1.127335E+05 -1.964844E+03 -3.218681E+04
        83  23  2.298556E+05  8.463712E+01  1.784590E+03 -6.146998E+04 -1.074180E+03 -2.253794E+04
        83  24  2.299021E+05  3.319647E+02  1.463350E+03 -1.127333E+05 -1.755198E+02 -1.288691E+04
        83  25  9.489959E+05  1.767889E+05  1.673000E+05 -1.132642E+05  4.986827E+03 -3.219234E+04
        83  26  7.532264E+05  1.287402E+05  1.219878E+05 -6.193443E+04  5.878908E+03 -2.254599E+04
        83  27  5.575287E+05  8.099405E+04  7.729232E+04 -1.131262E+05  6.778709E+03 -1.289764E+04
        84   1  8.958408E+04 -3.405852E+04 -3.021087E+04 -1.125526E+05  6.849756E+03  7.258087E+03
        84   2  2.851973E+05  1.375520E+04  1.447184E+04 -6.152317E+04  5.951407E+03 -2.388434E+03
        84   3  4.806780E+05  6.190385E+04  5.973398E+04 -1.129483E+05  5.053632E+03 -1.202974E+04
        84   4  2.298775E+05  3.275953E+02  1.448822E+03 -1.127174E+05 -1.000655E+02  7.269559E+03
        84   5  2.299589E+05  1.726275E+02  1.781304E+03 -6.148984E+04 -9.956055E+02 -2.377313E+03
        84   6  2.298717E+05  3.545862E+02  2.693079E+03 -1.127174E+05 -1.890297E+03 -1.201882E+04
        84   7  3.701893E+05  3.471239E+04  3.310744E+04 -1.128823E+05 -7.051442E+03  7.281034E+03
        84   8  1.747235E+05 -1.341013E+04 -1.090925E+04 -6.145652E+04 -7.942005E+03 -2.366193E+03
        84   9 -2.087611E+04 -6.119900E+04 -5.435172E+04 -1.124865E+05 -8.831447E+03 -1.200791E+04
        84  10  8.958401E+04 -3.405859E+04 -3.021106E+04 -1.125526E+05 -2.039222E-09 -8.854111E-10
        84  11  2.851973E+05  1.375519E+04  1.447176E+04 -6.152315E+04 -6.194529E-10  3.276207E-10
        84  12  4.806779E+05  6.190369E+04  5.973366E+04 -1.129483E+05  1.490383E-09  6.046874E-10
        84  13  2.298775E+05  3.275385E+02  1.448723E+03 -1.127174E+05 -2.177412E-09 -1.436937E-10
        84  14  2.299589E+05  1.726211E+02  1.781292E+03 -6.148984E+04 -1.724095E-09  6.238213E-10
        84  15  2.298717E+05  3.544301E+02  2.692801E+03 -1.127174E+05 -4.595721E-10  3.685932E-10
        84  16  3.701893E+05  3.471232E+04  3.310725E+04 -1.128823E+05  9.073277E-11 -5.223839E-10
        84  17  1.747234E+05 -1.341016E+04 -1.090938E+04 -6.145653E+04  1.080987E-09  4.146922E-10
        84  18 -2.087623E+04 -6.119917E+04 -5.435214E+04 -1.124865E+05 -1.002080E-09 -7.420646E-10
        84  19  8.958408E+04 -3.405852E+04 -3.021087E+04 -1.125526E+05 -6.849756E+03 -7.258087E+03
        84  20  2.851973E+05  1.375520E+04  1.447184E+04 -6.152317E+04 -5.951407E+03  2.388434E+03
        84  21  4.806780E+05  6.190385E+04  5.973398E+04 -1.129483E+05 -5.053632E+03  1.202974E+04
        84  22  2.298775E+05  3.275953E+02  1.448822E+03 -1.127174E+05  1.000655E+02 -7.269559E+03
        84  23  2.299589E+05  1.726275E+02  1.781304E+03 -6.148984E+04  9.956055E+02  2.377313E+03
        84  24  2.298717E+05  3.545862E+02  2.693079E+03 -1.127174E+05  1.890297E+03  1.201882E+04
        84  25  3.701893E+05  3.471239E+04  3.310744E+04 -1.128823E+05  7.051442E+03 -7.281034E+03
        84  26  1.747235E+05 -1.341013E+04 -1.090925E+04 -6.145652E+04  7.942005E+03  2.366193E+03
        84  27 -2.087611E+04 -6.119900E+04 -5.435172E+04 -1.124865E+05  8.831447E+03  1.200791E+04
        85   1  6.681875E+05  1.080888E+05  1.046445E+05 -1.130448E+05  4.531564E+03 -1.765957E+04
        85   2  8.636602E+05  1.557902E+05  1.513213E+05 -6.193692E+04  1.585507E+03 -2.729030E+04
        85   3  1.059804E+06  2.047218E+05  2.001993E+05 -1.133777E+05 -1.351682E+03 -3.680381E+04
        85   4  2.300162E+05  2.577779E+02  3.433488E+03 -1.127399E+05 -2.453207E+03 -1.764970E+04
        85   5  2.296711E+05 -4.814576E+01  5.717030E+03 -6.146190E+04 -5.313039E+03 -2.728377E+04
        85   6  2.299502E+05  8.652297E+02  1.014632E+04 -1.127390E+05 -8.163096E+03 -3.680041E+04
        85   7 -2.079776E+05 -1.075867E+05 -9.779012E+04 -1.124351E+05 -9.433090E+03 -1.763983E+04
        85   8 -4.039463E+05 -1.559145E+05 -1.399136E+05 -6.098723E+04 -1.220460E+04 -2.727724E+04
        85   9 -5.992661E+05 -2.030392E+05 -1.799517E+05 -1.121009E+05 -1.496549E+04 -3.679702E+04
        85  10  6.681874E+05  1.080885E+05  1.046439E+05 -1.130447E+05 -3.907112E-10 -7.434408E-11
        85  11  8.636600E+05  1.557894E+05  1.513199E+05 -6.193689E+04  1.916449E-09 -1.744956E-10
        85  12  1.059803E+06  2.047203E+05  2.001967E+05 -1.133778E+05 -1.784219E-11  2.263992E-10
        85  13  2.300161E+05  2.574418E+02  3.432891E+03 -1.127399E+05  1.103668E-09 -6.034317E-10
        85  14  2.296709E+05 -4.895280E+01  5.715578E+03 -6.146202E+04 -5.972479E-09 -2.007513E-11
        85  15  2.299498E+05  8.637573E+02  1.014365E+04 -1.127392E+05 -1.750251E-09 -1.606143E-11
        85  16 -2.079778E+05 -1.075870E+05 -9.779088E+04 -1.124353E+05  4.475156E-11 -5.133211E-10
        85  17 -4.039466E+05 -1.559153E+05 -1.399153E+05 -6.098750E+04 -9.698562E-10  3.542007E-10
        85  18 -5.992667E+05 -2.030407E+05 -1.799547E+05 -1.121014E+05 -2.415421E-10  2.942039E-10
        85  19  6.681875E+05  1.080888E+05  1.046445E+05 -1.130448E+05 -4.531564E+03  1.765957E+04
        85  20  8.636602E+05  1.557902E+05  1.513213E+05 -6.193692E+04 -1.585507E+03  2.729030E+04
        85  21  1.059804E+06  2.047218E+05  2.001993E+05 -1.133777E+05  1.351682E+03  3.680381E+04
        85  22  2.300162E+05  2.577779E+02  3.433488E+03 -1.127399E+05  2.453207E+03  1.764970E+04
        85  23  2.296711E+05 -4.814576E+01  5.717030E+03 -6.146190E+04  5.313039E+03  2.728377E+04
        85  24  2.299502E+05  8.652297E+02  1.014632E+04 -1.127390E+05  8.163096E+03  3.680041E+04
        85  25 -2.079776E+05 -1.075867E+05 -9.779012E+04 -1.124351E+05  9.433090E+03  1.763983E+04
        85  26 -4.039463E+05 -1.559145E+05 -1.399136E+05 -6.098723E+04  1.220460E+04  2.727724E+04
        85  27 -5.992661E+05 -2.030392E+05 -1.799517E+05 -1.121009E+05  1.496549E+04  3.679702E+04
        86   1  1.248660E+06  2.495467E+05  2.473300E+05 -1.113398E+05 -2.635148E+03 -4.272146E+04
        86   2  1.442100E+06  2.970521E+05  3.012022E+05 -6.254803E+04 -1.578433E+04 -5.200901E+04
        86   3  1.641482E+06  3.581659E+05  3.671857E+05 -1.164620E+05 -2.892112E+04 -5.881437E+04
        86   4  2.309717E+05 -6.452680E+02  1.315851E+04 -1.127759E+05 -1.022280E+04 -4.272042E+04
        86   5  2.281064E+05 -1.271276E+03  2.238768E+04 -6.141709E+04 -2.156206E+04 -5.201480E+04
        86   6  2.308438E+05  1.141439E+04  4.249055E+04 -1.127755E+05 -3.288482E+04 -5.882478E+04
        86   7 -7.857598E+05 -2.509095E+05 -2.210814E+05 -1.142094E+05 -1.779812E+04 -4.271934E+04
        86   8 -9.845247E+05 -2.996974E+05 -2.565240E+05 -6.028823E+04 -2.732858E+04 -5.202063E+04
        86   9 -1.177957E+06 -3.354761E+05 -2.823364E+05 -1.090975E+05 -3.683953E+04 -5.883525E+04
        86  10  1.248660E+06  2.495447E+05  2.473266E+05 -1.113399E+05 -1.114848E-09  1.317997E-10
        86  11  1.442099E+06  2.970491E+05  3.011967E+05 -6.254869E+04 -8.436348E-12 -3.341543E-10
        86  12  1.641480E+06  3.581620E+05  3.671777E+05 -1.164634E+05  4.195666E-10 -3.262867E-10
        86  13  2.309711E+05 -6.472561E+02  1.315488E+04 -1.127763E+05 -1.812174E-11  2.123580E-10
        86  14  2.281052E+05 -1.274306E+03  2.238172E+04 -6.141799E+04 -3.222784E-09  8.738338E-12
        86  15  2.308417E+05  1.141039E+04  4.248201E+04 -1.127771E+05 -2.438900E-09 -1.333353E-10
        86  16 -7.857606E+05 -2.509115E+05 -2.210854E+05 -1.142100E+05  1.008415E-10 -3.665624E-11
        86  17 -9.845262E+05 -2.997005E+05 -2.565305E+05 -6.028938E+04 -1.154273E-09  4.539810E-10
        86  18 -1.177959E+06 -3.354802E+05 -2.823455E+05 -1.090992E+05 -2.014198E-09  8.226798E-11
        86  19  1.248660E+06  2.495467E+05  2.473300E+05 -1.113398E+05  2.635148E+03  4.272146E+04
        86  20  1.442100E+06  2.970521E+05  3.012022E+05 -6.254803E+04  1.578433E+04  5.200901E+04
        86  21  1.641482E+06  3.581659E+05  3.671857E+05 -1.164620E+05  2.892112E+04  5.881437E+04
        86  22  2.309717E+05 -6.452680E+02  1.315851E+04 -1.127759E+05  1.022280E+04  4.272042E+04
        86  23  2.281064E+05 -1.271276E+03  2.238768E+04 -6.141709E+04  2.156206E+04  5.201480E+04
        86  24  2.308438E+05  1.141439E+04  4.249055E+04 -1.127755E+05  3.288482E+04  5.882478E+04
        86  25 -7.857598E+05 -2.509095E+05 -2.210814E+05 -1.142094E+05  1.779812E+04  4.271934E+04
        86  26 -9.845247E+05 -2.996974E+05 -2.565240E+05 -6.028823E+04  2.732858E+04  5.202063E+04
        86  27 -1.177957E+06 -3.354761E+05 -2.823364E+05 -1.090975E+05  3.683953E+04  5.883525E+04
        87   1  1.840747E+06  3.836589E+05  4.193134E+05 -8.817608E+04 -2.113216E+04 -7.038412E+04
        87   2  2.009812E+06  4.293820E+05  5.013826E+05 -8.074112E+04 -1.042701E+05 -7.243575E+04
        87   3  2.236522E+06  6.539057E+05  6.826084E+05 -1.749739E+05 -1.875445E+05 -2.403469E+04
        87   4  2.408922E+05 -9.255625E+03  5.283165E+04 -1.124663E+05 -4.069883E+04 -7.040799E+04
        87   5  2.150784E+05 -1.186279E+04  8.720711E+04 -6.177716E+04 -8.729513E+04 -7.242968E+04
        87   6  2.406932E+05  1.582687E+05  1.955576E+05 -1.127567E+05 -1.339976E+05 -2.394533E+04
        87   7 -1.356595E+06 -4.023458E+05 -3.138166E+05 -1.366937E+05 -6.021550E+04 -7.043037E+04
        87   8 -1.576683E+06 -4.533315E+05 -3.271814E+05 -4.286920E+04 -7.036851E+04 -7.242257E+04
        87   9 -1.751497E+06 -3.376453E+05 -2.917702E+05 -5.074102E+04 -8.062141E+04 -2.384516E+04
        87  10  1.840745E+06  3.836535E+05  4.193033E+05 -8.817728E+04 -2.743685E-10  1.527645E-10
        87  11  2.009799E+06  4.293734E+05  5.013523E+05 -8.074720E+04  1.650563E-09  4.442527E-10
        87  12  2.236484E+06  6.538957E+05  6.825414E+05 -1.749775E+05 -5.392342E-10 -1.359863E-10
        87  13  2.408891E+05 -9.261394E+03  5.281922E+04 -1.124686E+05 -1.065665E-09 -5.142312E-11
        87  14  2.150688E+05 -1.187047E+04  8.718293E+04 -6.178225E+04 -2.054328E-09 -5.493680E-11
        87  15  2.406738E+05  1.582633E+05  1.955228E+05 -1.127593E+05  8.519866E-10  1.417382E-10
        87  16 -1.356600E+06 -4.023521E+05 -3.138328E+05 -1.366971E+05  1.614782E-10 -1.265633E-10
        87  17 -1.576689E+06 -4.533384E+05 -3.272006E+05 -4.287331E+04  4.230791E-10  4.719483E-10
        87  18 -1.751505E+06 -3.376477E+05 -2.917835E+05 -5.074257E+04  2.821107E-10 -3.872497E-11
        87  19  1.840747E+06  3.836589E+05  4.193134E+05 -8.817608E+04  2.113216E+04  7.038412E+04
        87  20  2.009812E+06  4.293820E+05  5.013826E+05 -8.074112E+04  1.042701E+05  7.243575E+04
        87  21  2.236522E+06  6.539057E+05  6.826084E+05 -1.749739E+05  1.875445E+05  2.403469E+04
        87  22  2.408922E+05 -9.255625E+03  5.283165E+04 -1.124663E+05  4.069883E+04  7.040799E+04
        87  23  2.150784E+05 -1.186279E+04  8.720711E+04 -6.177716E+04  8.729513E+04  7.242968E+04
        87  24  2.406932E+05  1.582687E+05  1.955576E+05 -1.127567E+05  1.339976E+05  2.394533E+04
        87  25 -1.356595E+06 -4.023458E+05 -3.138166E+05 -1.366937E+05  6.021550E+04  7.043037E+04
        87  26 -1.576683E+06 -4.533315E+05 -3.271814E+05 -4.286920E+04  7.036851E+04  7.242257E+04
        87  27 -1.751497E+06 -3.376453E+05 -2.917702E+05 -5.074102E+04  8.062141E+04  2.384516E+04
        88   1  8.851447E+04 -2.047830E+05  1.078036E+05 -1.536802E+05 -2.136217E+03  7.061809E+04
        88   2 -5.760326E+04 -4.248261E+05 -1.149559E+03 -7.461920E+04 -9.566778E+03  4.356033E+04
        88   3 -1.071882E+05 -6.183743E+05 -6.862193E+04 -1.036628E+05 -1.918838E+04  1.650417E+04
        88   4  8.929267E+04 -1.992748E+05  1.082583E+05 -1.176361E+05 -2.154484E+03  7.528225E+04
        88   5 -5.481911E+03 -2.123875E+05  4.756491E+04 -6.380513E+04 -9.594844E+03  4.980069E+04
        88   6 -4.007867E+03 -1.993114E+05  2.726410E+04 -1.180679E+05 -1.922387E+04  2.431213E+04
        88   7  9.007577E+04 -1.937637E+05  1.087139E+05 -8.159172E+04 -2.172210E+03  7.994644E+04
        88   8  4.663678E+04  9.325040E+01  9.627663E+04 -5.298729E+04 -9.622688E+03  5.604317E+04
        88   9  9.916095E+04  2.199149E+05  1.231389E+05 -1.324826E+05 -1.925972E+04  3.212532E+04
        88  10  8.851312E+04 -2.047884E+05  1.077942E+05 -1.536800E+05  7.768218E-10  1.231221E-09
        88  11 -5.760386E+04 -4.248282E+05 -1.153299E+03 -7.461886E+04  1.891858E-10 -3.361026E-10
        88  12 -1.071886E+05 -6.183747E+05 -6.862313E+04 -1.036625E+05 -2.125354E-10 -1.612997E-09
        88  13  8.929114E+04 -1.992809E+05  1.082476E+05 -1.176360E+05 -1.113411E-09  7.555622E-11
        88  14 -5.482676E+03 -2.123902E+05  4.756008E+04 -6.380475E+04  4.670913E-09  1.014574E-10
        88  15 -4.008423E+03 -1.993121E+05  2.726230E+04 -1.180675E+05  1.877285E-09  1.230382E-10
        88  16  9.007405E+04 -1.937706E+05  1.087018E+05 -8.159158E+04 -8.257627E-10 -1.135359E-09
        88  17  4.663583E+04  8.985321E+01  9.627055E+04 -5.298685E+04  1.985936E-10  2.465507E-10
        88  18  9.916027E+04  2.199137E+05  1.231363E+05 -1.324821E+05  2.784787E-10  1.571258E-09
        88  19  8.851447E+04 -2.047830E+05  1.078036E+05 -1.536802E+05  2.136217E+03 -7.061809E+04
        88  20 -5.760326E+04 -4.248261E+05 -1.149559E+03 -7.461920E+04  9.566778E+03 -4.356033E+04
        88  21 -1.071882E+05 -6.183743E+05 -6.862193E+04 -1.036628E+05  1.918838E+04 -1.650417E+04
        88  22  8.929267E+04 -1.992748E+05  1.082583E+05 -1.176361E+05  2.154484E+03 -7.528225E+04
        88  23 -5.481911E+03 -2.123875E+05  4.756491E+04 -6.380513E+04  9.594844E+03 -4.980069E+04
        88  24 -4.007867E+03 -1.993114E+05  2.726410E+04 -1.180679E+05  1.922387E+04 -2.431213E+04
        88  25  9.007577E+04 -1.937637E+05  1.087139E+05 -8.159172E+04  2.172210E+03 -7.994644E+04
        88  26  4.663678E+04  9.325040E+01  9.627663E+04 -5.298729E+04  9.622688E+03 -5.604317E+04
        88  27  9.916095E+04  2.199149E+05  1.231389E+05 -1.324826E+05  1.925972E+04 -3.212532E+04
        89   1 -1.442951E+05 -8.223378E+05 -1.215565E+05 -1.176867E+05 -2.562935E+04  1.262058E+04
        89   2 -2.027904E+05 -1.029505E+06 -1.819224E+05 -6.211210E+04 -3.537583E+04  1.012877E+04
        89   3 -2.560609E+05 -1.235694E+06 -2.395271E+05 -1.148234E+05 -4.314260E+04  7.657661E+03
        89   4  7.746934E+03 -2.049157E+05  2.090223E+04 -1.179650E+05 -2.566233E+04  2.036605E+04
        89   5  3.906621E+01 -2.055551E+05  7.652395E+03 -6.384717E+04 -3.539845E+04  1.644763E+04
        89   6 -2.195299E+03 -2.050081E+05 -1.841918E+03 -1.180059E+05 -4.315619E+04  1.254914E+04
        89   7  1.597623E+05  4.128595E+05  1.633358E+05 -1.182432E+05 -2.569530E+04  2.811917E+04
        89   8  2.028210E+05  6.190234E+05  1.971824E+05 -6.558390E+04 -3.542109E+04  2.277482E+04
        89   9  2.515959E+05  8.266623E+05  2.357727E+05 -1.211927E+05 -4.316982E+04  1.744868E+04
        89  10 -1.442959E+05 -8.223382E+05 -1.215580E+05 -1.176864E+05 -1.987971E-09  1.552866E-10
        89  11 -2.027917E+05 -1.029505E+06 -1.819250E+05 -6.211182E+04 -1.590548E-09  5.337662E-13
        89  12 -2.560629E+05 -1.235695E+06 -2.395307E+05 -1.148232E+05  5.552986E-10 -8.335303E-11
        89  13  7.746116E+03 -2.049163E+05  2.090021E+04 -1.179646E+05  1.824950E-09  6.549052E-11
        89  14  3.764824E+01 -2.055557E+05  7.649532E+03 -6.384670E+04 -1.048097E-10  7.729776E-11
        89  15 -2.197341E+03 -2.050087E+05 -1.845713E+03 -1.180055E+05  7.105722E-10  8.664588E-11
        89  16  1.597614E+05  4.128585E+05  1.633330E+05 -1.182427E+05 -8.779798E-10 -1.980785E-11
        89  17  2.028196E+05  6.190226E+05  1.971791E+05 -6.558325E+04 -6.454032E-10 -6.838147E-12
        89  18  2.515938E+05  8.266615E+05  2.357686E+05 -1.211921E+05 -1.184896E-09  2.649959E-10
        89  19 -1.442951E+05 -8.223378E+05 -1.215565E+05 -1.176867E+05  2.562935E+04 -1.262058E+04
        89  20 -2.027904E+05 -1.029505E+06 -1.819224E+05 -6.211210E+04  3.537583E+04 -1.012877E+04
        89  21 -2.560609E+05 -1.235694E+06 -2.395271E+05 -1.148234E+05  4.314260E+04 -7.657661E+03
        89  22  7.746934E+03 -2.049157E+05  2.090223E+04 -1.179650E+05  2.566233E+04 -2.036605E+04
        89  23  3.906621E+01 -2.055551E+05  7.652395E+03 -6.384717E+04  3.539845E+04 -1.644763E+04
        89  24 -2.195299E+03 -2.050081E+05 -1.841918E+03 -1.180059E+05  4.315619E+04 -1.254914E+04
        89  25  1.597623E+05  4.128595E+05  1.633358E+05 -1.182432E+05  2.569530E+04 -2.811917E+04
        89  26  2.028210E+05  6.190234E+05  1.971824E+05 -6.558390E+04  3.542109E+04 -2.277482E+04
        89  27  2.515959E+05  8.266623E+05  2.357727E+05 -1.211927E+05  4.316982E+04 -1.744868E+04
        90   1 -2.996640E+05 -1.436415E+06 -2.879361E+05 -1.095686E+05 -5.399618E+04 -4.807304E+03
        90   2 -3.510349E+05 -1.635720E+06 -3.474112E+05 -6.553071E+04 -5.780043E+04  3.409998E+04
        90   3 -4.416870E+05 -1.849479E+06 -4.419986E+05 -1.280859E+05 -1.932164E+04  7.309267E+04
        90   4  2.875468E+03 -2.074218E+05 -5.695037E+03 -1.175868E+05 -5.405145E+04  1.304293E+04
        90   5  2.130146E+03 -2.029090E+05 -1.586697E+04 -6.434197E+04 -5.775510E+04  2.159405E+04
        90   6 -3.256765E+04 -2.075810E+05 -4.001209E+04 -1.176793E+05 -1.921796E+04  3.024481E+04
        90   7  3.053098E+05  1.022973E+06  2.764476E+05 -1.256198E+05 -5.410712E+04  3.092826E+04
        90   8  3.551509E+05  1.231803E+06  3.155406E+05 -6.314902E+04 -5.770987E+04  9.059361E+03
        90   9  3.763535E+05  1.436783E+06  3.617841E+05 -1.072434E+05 -1.911586E+04 -1.271647E+04
        90  10 -2.996671E+05 -1.436416E+06 -2.879416E+05 -1.095688E+05 -1.138218E-09 -2.538779E-10
        90  11 -3.510388E+05 -1.635722E+06 -3.474197E+05 -6.552912E+04 -1.126109E-09 -1.652966E-10
        90  12 -4.416889E+05 -1.849485E+06 -4.420094E+05 -1.280848E+05  2.765989E-11  2.263025E-10
        90  13  2.872286E+03 -2.074228E+05 -5.700846E+03 -1.175863E+05 -1.437737E-09  4.575524E-11
        90  14  2.126440E+03 -2.029104E+05 -1.587411E+04 -6.434097E+04 -1.828025E-09  3.073525E-11
        90  15 -3.256829E+04 -2.075821E+05 -4.001450E+04 -1.176788E+05 -6.395029E-11 -3.136852E-11
        90  16  3.053064E+05  1.022971E+06  2.764403E+05 -1.256184E+05 -8.781154E-10  4.192842E-10
        90  17  3.551473E+05  1.231802E+06  3.155342E+05 -6.314860E+04 -4.314765E-10  1.923041E-10
        90  18  3.763530E+05  1.436782E+06  3.617831E+05 -1.072436E+05  3.352239E-10 -2.595848E-10
        90  19 -2.996640E+05 -1.436415E+06 -2.879361E+05 -1.095686E+05  5.399618E+04  4.807304E+03
        90  20 -3.510349E+05 -1.635720E+06 -3.474112E+05 -6.553071E+04  5.780043E+04 -3.409998E+04
        90  21 -4.416870E+05 -1.849479E+06 -4.419986E+05 -1.280859E+05  1.932164E+04 -7.309267E+04
        90  22  2.875468E+03 -2.074218E+05 -5.695037E+03 -1.175868E+05  5.405145E+04 -1.304293E+04
        90  23  2.130146E+03 -2.029090E+05 -1.586697E+04 -6.434197E+04  5.775510E+04 -2.159405E+04
        90  24 -3.256765E+04 -2.075810E+05 -4.001209E+04 -1.176793E+05  1.921796E+04 -3.024481E+04
        90  25  3.053098E+05  1.022973E+06  2.764476E+05 -1.256198E+05  5.410712E+04 -3.092826E+04
        90  26  3.551509E+05  1.231803E+06  3.155406E+05 -6.314902E+04  5.770987E+04 -9.059361E+03
        90  27  3.763535E+05  1.436783E+06  3.617841E+05 -1.072434E+05  1.911586E+04  1.271647E+04
        91   1 -4.070934E+06 -1.453459E+06 -8.962208E+05 -1.432071E+06 -3.096047E+05 -9.018867E+04
        91   2 -3.933171E+06 -1.003775E+06 -6.077190E+05 -1.402344E+06 -2.040857E+05  6.880303E+03
        91   3 -3.884416E+06 -9.385855E+05 -5.031723E+05 -1.345166E+06 -7.939055E+04  5.356939E+04
        91   4 -2.302880E+06 -6.663865E+05 -3.949510E+05 -8.297072E+05 -2.598097E+05 -7.135152E+04
        91   5 -2.240308E+06 -3.293684E+05 -1.681184E+05 -8.995535E+05 -1.878134E+05  1.301441E+04
        91   6 -2.259708E+06 -3.696265E+05 -9.817401E+04 -9.420526E+05 -9.669043E+04  4.702066E+04
        91   7 -5.317615E+05  1.212252E+05  1.060271E+05 -2.256684E+05 -2.098571E+05 -5.243125E+04
        91   8 -5.446254E+05  3.453214E+05  2.712413E+05 -3.954782E+05 -1.714916E+05  1.916965E+04
        91   9 -6.324038E+05  1.994236E+05  3.066224E+05 -5.380141E+05 -1.140400E+05  4.045615E+04
        91  10 -4.071039E+06 -1.453494E+06 -8.964177E+05 -1.432094E+06 -4.891775E-10  4.987936E-11
        91  11 -3.933216E+06 -1.003787E+06 -6.077978E+05 -1.402343E+06  3.453677E-09  1.699993E-09
        91  12 -3.884423E+06 -9.385903E+05 -5.031896E+05 -1.345163E+06  3.039669E-09  1.711711E-09
        91  13 -2.302954E+06 -6.664102E+05 -3.950880E+05 -8.297221E+05  3.194033E-10  7.528538E-10
        91  14 -2.240346E+06 -3.293780E+05 -1.681853E+05 -8.995515E+05  5.952605E-09  2.075469E-09
        91  15 -2.259718E+06 -3.696313E+05 -9.819576E+04 -9.420490E+05  2.158647E-09  1.208093E-09
        91  16 -5.318096E+05  1.212104E+05  1.059391E+05 -2.256773E+05  2.007785E-09  1.231448E-09
        91  17 -5.446571E+05  3.453131E+05  2.711853E+05 -3.954756E+05  5.656688E-09  2.044728E-09
        91  18 -6.324182E+05  1.994183E+05  3.065949E+05 -5.380104E+05  3.187819E-10  7.322233E-10
        91  19 -4.070934E+06 -1.453459E+06 -8.962208E+05 -1.432071E+06  3.096047E+05  9.018867E+04
        91  20 -3.933171E+06 -1.003775E+06 -6.077190E+05 -1.402344E+06  2.040857E+05 -6.880303E+03
        91  21 -3.884416E+06 -9.385855E+05 -5.031723E+05 -1.345166E+06  7.939055E+04 -5.356939E+04
        91  22 -2.302880E+06 -6.663865E+05 -3.949510E+05 -8.297072E+05  2.598097E+05  7.135152E+04
        91  23 -2.240308E+06 -3.293684E+05 -1.681184E+05 -8.995535E+05  1.878134E+05 -1.301441E+04
        91  24 -2.259708E+06 -3.696265E+05 -9.817401E+04 -9.420526E+05  9.669043E+04 -4.702066E+04
        91  25 -5.317615E+05  1.212252E+05  1.060271E+05 -2.256684E+05  2.098571E+05  5.243125E+04
        91  26 -5.446254E+05  3.453214E+05  2.712413E+05 -3.954782E+05  1.714916E+05 -1.916965E+04
        91  27 -6.324038E+05  1.994236E+05  3.066224E+05 -5.380141E+05  1.140400E+05 -4.045615E+04
        92   1 -3.697722E+06 -9.605790E+05 -4.511048E+05 -1.328894E+06 -7.775691E+04  4.247471E+04
        92   2 -3.583875E+06 -8.492034E+05 -3.750990E+05 -1.260955E+06 -5.411116E+04  4.664952E+04
        92   3 -3.425097E+06 -8.218578E+05 -3.227169E+05 -1.251008E+06 -2.940067E+04  4.796927E+04
        92   4 -2.246037E+06 -4.064866E+05 -7.890988E+04 -9.223253E+05 -7.967939E+04  4.173542E+04
        92   5 -2.266884E+06 -3.524457E+05 -3.945718E+04 -8.979064E+05 -5.790001E+04  4.521145E+04
        92   6 -2.242419E+06 -3.820171E+05 -2.209895E+04 -9.314844E+05 -3.506221E+04  4.583298E+04
        92   7 -7.922894E+05  1.477594E+05  2.931103E+05 -5.148849E+05 -8.160670E+04  4.099427E+04
        92   8 -9.481890E+05  1.444300E+05  2.960437E+05 -5.341548E+05 -6.169765E+04  4.377006E+04
        92   9 -1.058364E+06  5.791002E+04  2.784073E+05 -6.114082E+05 -4.073562E+04  4.369233E+04
        92  10 -3.697729E+06 -9.605826E+05 -4.511196E+05 -1.328892E+06  1.757788E-09  1.016980E-09
        92  11 -3.583879E+06 -8.492066E+05 -3.751086E+05 -1.260953E+06 -9.161401E-10  4.307866E-10
        92  12 -3.425099E+06 -8.218605E+05 -3.227228E+05 -1.251007E+06 -4.517111E-10 -2.170000E-11
        92  13 -2.246045E+06 -4.064902E+05 -7.892510E+04 -9.223226E+05 -5.193384E-10  3.645351E-10
        92  14 -2.266888E+06 -3.524488E+05 -3.946732E+04 -8.979043E+05  1.083803E-09  5.836737E-10
        92  15 -2.242421E+06 -3.820197E+05 -2.210520E+04 -9.314831E+05  5.904843E-10  1.824814E-10
        92  16 -7.922970E+05  1.477558E+05  2.930947E+05 -5.148822E+05  6.629201E-10  3.771768E-10
        92  17 -9.481936E+05  1.444269E+05  2.960329E+05 -5.341526E+05 -1.729791E-09 -3.422652E-12
        92  18 -1.058366E+06  5.790753E+04  2.784006E+05 -6.114068E+05 -1.488591E-10  4.538125E-10
        92  19 -3.697722E+06 -9.605790E+05 -4.511048E+05 -1.328894E+06  7.775691E+04 -4.247471E+04
        92  20 -3.583875E+06 -8.492034E+05 -3.750990E+05 -1.260955E+06  5.411116E+04 -4.664952E+04
        92  21 -3.425097E+06 -8.218578E+05 -3.227169E+05 -1.251008E+06  2.940067E+04 -4.796927E+04
        92  22 -2.246037E+06 -4.064866E+05 -7.890988E+04 -9.223253E+05  7.967939E+04 -4.173542E+04
        92  23 -2.266884E+06 -3.524457E+05 -3.945718E+04 -8.979064E+05  5.790001E+04 -4.521145E+04
        92  24 -2.242419E+06 -3.820171E+05 -2.209895E+04 -9.314844E+05  3.506221E+04 -4.583298E+04
        92  25 -7.922894E+05  1.477594E+05  2.931103E+05 -5.148849E+05  8.160670E+04 -4.099427E+04
        92  26 -9.481890E+05  1.444300E+05  2.960437E+05 -5.341548E+05  6.169765E+04 -4.377006E+04
        92  27 -1.058364E+06  5.791002E+04  2.784073E+05 -6.114082E+05  4.073562E+04 -4.369233E+04
        93   1 -3.274758E+06 -7.734916E+05 -2.797009E+05 -1.213573E+06 -2.526570E+04  4.417884E+04
        93   2 -3.157451E+06 -6.858516E+05 -2.348367E+05 -1.139246E+06 -1.770148E+04  3.853288E+04
        93   3 -2.981156E+06 -6.602583E+05 -1.939950E+05 -1.132905E+06 -1.005186E+04  3.262468E+04
        93   4 -2.240481E+06 -3.855630E+05 -1.703672E+04 -9.305261E+05 -3.018298E+04  4.232572E+04
        93   5 -2.269784E+06 -3.534459E+05 -9.162197E+03 -8.969334E+05 -2.278616E+04  3.662122E+04
        93   6 -2.240089E+06 -3.833339E+05 -5.170630E+03 -9.313282E+05 -1.530527E+04  3.065429E+04
        93   7 -1.205153E+06  2.435758E+03  2.455411E+05 -6.470502E+05 -3.510926E+04  4.046922E+04
        93   8 -1.381345E+06 -2.098996E+04  2.164482E+05 -6.543064E+05 -2.787881E+04  3.470657E+04
        93   9 -1.498487E+06 -1.063760E+05  1.836084E+05 -7.295334E+05 -2.056555E+04  2.868134E+04
        93  10 -3.274759E+06 -7.734939E+05 -2.797058E+05 -1.213572E+06  5.000169E-10  1.316868E-10
        93  11 -3.157451E+06 -6.858533E+05 -2.348401E+05 -1.139245E+06 -1.902727E-09 -8.589622E-10
        93  12 -2.981157E+06 -6.602594E+05 -1.939972E+05 -1.132905E+06 -2.406127E-09  5.745226E-10
        93  13 -2.240482E+06 -3.855652E+05 -1.704179E+04 -9.305251E+05  1.094390E-09 -1.527393E-10
        93  14 -2.269784E+06 -3.534474E+05 -9.165689E+03 -8.969328E+05  1.225616E-09 -2.226411E-10
        93  15 -2.240090E+06 -3.833350E+05 -5.172833E+03 -9.313278E+05 -3.506023E-10  4.604068E-10
        93  16 -1.205155E+06  2.433672E+03  2.455357E+05 -6.470491E+05 -3.187372E-10 -2.450974E-10
        93  17 -1.381347E+06 -2.099146E+04  2.164445E+05 -6.543057E+05  1.678773E-10 -3.889405E-10
        93  18 -1.498488E+06 -1.063770E+05  1.836061E+05 -7.295330E+05  5.252441E-10  2.328404E-10
        93  19 -3.274758E+06 -7.734916E+05 -2.797009E+05 -1.213573E+06  2.526570E+04 -4.417884E+04
        93  20 -3.157451E+06 -6.858516E+05 -2.348367E+05 -1.139246E+06  1.770148E+04 -3.853288E+04
        93  21 -2.981156E+06 -6.602583E+05 -1.939950E+05 -1.132905E+06  1.005186E+04 -3.262468E+04
        93  22 -2.240481E+06 -3.855630E+05 -1.703672E+04 -9.305261E+05  3.018298E+04 -4.232572E+04
        93  23 -2.269784E+06 -3.534459E+05 -9.162197E+03 -8.969334E+05  2.278616E+04 -3.662122E+04
        93  24 -2.240089E+06 -3.833339E+05 -5.170630E+03 -9.313282E+05  1.530527E+04 -3.065429E+04
        93  25 -1.205153E+06  2.435758E+03  2.455411E+05 -6.470502E+05  3.510926E+04 -4.046922E+04
        93  26 -1.381345E+06 -2.098996E+04  2.164482E+05 -6.543064E+05  2.787881E+04 -3.470657E+04
        93  27 -1.498487E+06 -1.063760E+05  1.836084E+05 -7.295334E+05  2.056555E+04 -2.868134E+04
        94   1 -2.828426E+06 -6.040575E+05 -1.531351E+05 -1.092142E+06 -7.584910E+03  2.834531E+04
        94   2 -2.707346E+06 -5.162399E+05 -1.136086E+05 -1.015337E+06 -3.308258E+03  2.098275E+04
        94   3 -2.524721E+06 -4.902817E+05 -7.510436E+04 -1.009321E+06  9.862036E+02  1.355418E+04
        94   4 -2.239572E+06 -3.839813E+05 -4.058740E+03 -9.316735E+05 -1.284382E+04  2.637507E+04
        94   5 -2.270292E+06 -3.529026E+05 -2.584535E+03 -8.963255E+05 -8.610203E+03  1.899858E+04
        94   6 -2.239489E+06 -3.836737E+05 -2.098046E+03 -9.317712E+05 -4.359203E+03  1.155609E+04
        94   7 -1.650374E+06 -1.638814E+05  1.449910E+05 -7.710657E+05 -1.810823E+04  2.440278E+04
        94   8 -1.833052E+06 -1.895534E+05  1.084239E+05 -7.772376E+05 -1.391623E+04  1.701288E+04
        94   9 -1.954181E+06 -2.770618E+05  7.090086E+04 -8.541899E+05 -9.707247E+03  9.557017E+03
        94  10 -2.828426E+06 -6.040584E+05 -1.531368E+05 -1.092142E+06 -2.068130E-10  8.926640E-10
        94  11 -2.707346E+06 -5.162404E+05 -1.136094E+05 -1.015337E+06  2.913896E-10 -6.882215E-10
        94  12 -2.524721E+06 -4.902819E+05 -7.510471E+04 -1.009321E+06 -2.855235E-09  1.589524E-10
        94  13 -2.239572E+06 -3.839821E+05 -4.060356E+03 -9.316732E+05 -1.251294E-09  1.846303E-10
        94  14 -2.270293E+06 -3.529030E+05 -2.585351E+03 -8.963253E+05 -7.319783E-10 -4.290235E-10
        94  15 -2.239490E+06 -3.836739E+05 -2.098333E+03 -9.317712E+05 -2.842325E-09  5.289611E-10
        94  16 -1.650374E+06 -1.638822E+05  1.449892E+05 -7.710653E+05 -1.193846E-09 -1.828196E-10
        94  17 -1.833053E+06 -1.895538E+05  1.084230E+05 -7.772374E+05  2.026092E-11 -3.439101E-10
        94  18 -1.954182E+06 -2.770620E+05  7.090051E+04 -8.541898E+05  1.003438E-09  9.962771E-10
        94  19 -2.828426E+06 -6.040575E+05 -1.531351E+05 -1.092142E+06  7.584910E+03 -2.834531E+04
        94  20 -2.707346E+06 -5.162399E+05 -1.136086E+05 -1.015337E+06  3.308258E+03 -2.098275E+04
        94  21 -2.524721E+06 -4.902817E+05 -7.510436E+04 -1.009321E+06 -9.862036E+02 -1.355418E+04
        94  22 -2.239572E+06 -3.839813E+05 -4.058740E+03 -9.316735E+05  1.284382E+04 -2.637507E+04
        94  23 -2.270292E+06 -3.529026E+05 -2.584535E+03 -8.963255E+05  8.610203E+03 -1.899858E+04
        94  24 -2.239489E+06 -3.836737E+05 -2.098046E+03 -9.317712E+05  4.359203E+03 -1.155609E+04
        94  25 -1.650374E+06 -1.638814E+05  1.449910E+05 -7.710657E+05  1.810823E+04 -2.440278E+04
        94  26 -1.833052E+06 -1.895534E+05  1.084239E+05 -7.772376E+05  1.391623E+04 -1.701288E+04
        94  27 -1.954181E+06 -2.770618E+05  7.090086E+04 -8.541899E+05  9.707247E+03 -9.557017E+03
        95   1 -2.369323E+06 -4.322909E+05 -3.460078E+04 -9.673790E+05  3.086474E+03  9.050095E+03
        95   2 -2.246878E+06 -3.439280E+05  3.099157E+03 -8.897829E+05  7.487104E+03  1.607062E+03
        95   3 -2.062506E+06 -3.180340E+05  3.966576E+04 -8.837237E+05  1.188495E+04 -5.826032E+03
        95   4 -2.239389E+06 -3.838107E+05 -2.160047E+03 -9.319320E+05 -2.275018E+03  7.046712E+03
        95   5 -2.270353E+06 -3.526544E+05 -2.854292E+03 -8.961292E+05  2.131491E+03 -3.943347E+02
        95   6 -2.239412E+06 -3.839700E+05 -4.684978E+03 -9.318731E+05  6.534805E+03 -7.825496E+03
        95   7 -2.109437E+06 -3.353292E+05  3.027966E+04 -8.964781E+05 -7.637766E+03  5.042858E+03
        95   8 -2.293827E+06 -3.613808E+05 -8.807719E+03 -9.024753E+05 -3.223946E+03 -2.395667E+03
        95   9 -2.416290E+06 -4.499048E+05 -4.903868E+04 -9.800106E+05  1.186268E+03 -9.824362E+03
        95  10 -2.369323E+06 -4.322910E+05 -3.460095E+04 -9.673790E+05 -4.648761E-10  1.203090E-09
        95  11 -2.246878E+06 -3.439280E+05  3.099047E+03 -8.897829E+05 -2.913845E-10 -6.783012E-10
        95  12 -2.062506E+06 -3.180340E+05  3.966543E+04 -8.837237E+05 -1.728460E-09 -1.138696E-09
        95  13 -2.239389E+06 -3.838108E+05 -2.160150E+03 -9.319320E+05 -3.079376E-09  3.598912E-10
        95  14 -2.270353E+06 -3.526544E+05 -2.854300E+03 -8.961292E+05 -1.397110E-11 -1.192063E-09
        95  15 -2.239412E+06 -3.839701E+05 -4.685174E+03 -9.318731E+05 -1.503216E-09  5.634861E-12
        95  16 -2.109438E+06 -3.353293E+05  3.027950E+04 -8.964781E+05 -1.357262E-09 -2.701102E-10
        95  17 -2.293827E+06 -3.613808E+05 -8.807749E+03 -9.024753E+05 -1.356245E-09 -1.199908E-09
        95  18 -2.416290E+06 -4.499049E+05 -4.903887E+04 -9.800106E+05  6.205349E-10  9.217602E-10
        95  19 -2.369323E+06 -4.322909E+05 -3.460078E+04 -9.673790E+05 -3.086474E+03 -9.050095E+03
        95  20 -2.246878E+06 -3.439280E+05  3.099157E+03 -8.897829E+05 -7.487104E+03 -1.607062E+03
        95  21 -2.062506E+06 -3.180340E+05  3.966576E+04 -8.837237E+05 -1.188495E+04  5.826032E+03
        95  22 -2.239389E+06 -3.838107E+05 -2.160047E+03 -9.319320E+05  2.275018E+03 -7.046712E+03
        95  23 -2.270353E+06 -3.526544E+05 -2.854292E+03 -8.961292E+05 -2.131491E+03  3.943347E+02
        95  24 -2.239412E+06 -3.839700E+05 -4.684978E+03 -9.318731E+05 -6.534805E+03  7.825496E+03
        95  25 -2.109437E+06 -3.353292E+05  3.027966E+04 -8.964781E+05  7.637766E+03 -5.042858E+03
        95  26 -2.293827E+06 -3.613808E+05 -8.807719E+03 -9.024753E+05  3.223946E+03  2.395667E+03
        95  27 -2.416290E+06 -4.499048E+05 -4.903868E+04 -9.800106E+05 -1.186268E+03  9.824362E+03
        96   1 -1.907499E+06 -2.598316E+05  7.878475E+04 -8.419332E+05  1.451837E+04 -1.013629E+04
        96   2 -1.786389E+06 -1.720119E+05  1.120466E+05 -7.646216E+05  2.274495E+04 -1.605563E+04
        96   3 -1.605269E+06 -1.483524E+05  1.407031E+05 -7.574734E+05  3.091321E+04 -2.179432E+04
        96   4 -2.239755E+06 -3.835658E+05 -6.052241E+03 -9.318720E+05  9.150089E+03 -1.214339E+04
        96   5 -2.269933E+06 -3.526780E+05 -1.072155E+04 -8.963441E+05  1.749213E+04 -1.802205E+04
        96   6 -2.240143E+06 -3.859787E+05 -2.008919E+04 -9.309913E+05  2.577442E+04 -2.372045E+04
        96   7 -2.571900E+06 -5.072919E+05 -9.089705E+04 -1.021766E+06  3.785023E+03 -1.414930E+04
        96   8 -2.753244E+06 -5.333280E+05 -1.335076E+05 -1.027973E+06  1.224382E+04 -1.998679E+04
        96   9 -2.874621E+06 -6.235783E+05 -1.809135E+05 -1.104348E+06  2.064139E+04 -2.564441E+04
        96  10 -1.907499E+06 -2.598318E+05  7.878416E+04 -8.419331E+05 -1.051396E-09  6.917082E-11
        96  11 -1.786390E+06 -1.720123E+05  1.120452E+05 -7.646213E+05 -1.311892E-09  5.401644E-10
        96  12 -1.605270E+06 -1.483532E+05  1.407004E+05 -7.574728E+05 -3.916235E-09 -1.676844E-10
        96  13 -2.239755E+06 -3.835660E+05 -6.052675E+03 -9.318719E+05 -1.746081E-09  1.004333E-09
        96  14 -2.269933E+06 -3.526784E+05 -1.072273E+04 -8.963439E+05 -2.490223E-09 -1.334973E-10
        96  15 -2.240144E+06 -3.859795E+05 -2.009149E+04 -9.309908E+05  5.541680E-10  8.467277E-10
        96  16 -2.571900E+06 -5.072921E+05 -9.089746E+04 -1.021766E+06 -9.933595E-10  1.239332E-09
        96  17 -2.753244E+06 -5.333285E+05 -1.335087E+05 -1.027972E+06  6.379638E-10  8.347331E-10
        96  18 -2.874622E+06 -6.235791E+05 -1.809155E+05 -1.104347E+06  3.507122E-09  1.322999E-09
        96  19 -1.907499E+06 -2.598316E+05  7.878475E+04 -8.419332E+05 -1.451837E+04  1.013629E+04
        96  20 -1.786389E+06 -1.720119E+05  1.120466E+05 -7.646216E+05 -2.274495E+04  1.605563E+04
        96  21 -1.605269E+06 -1.483524E+05  1.407031E+05 -7.574734E+05 -3.091321E+04  2.179432E+04
        96  22 -2.239755E+06 -3.835658E+05 -6.052241E+03 -9.318720E+05 -9.150089E+03  1.214339E+04
        96  23 -2.269933E+06 -3.526780E+05 -1.072155E+04 -8.963441E+05 -1.749213E+04  1.802205E+04
        96  24 -2.240143E+06 -3.859787E+05 -2.008919E+04 -9.309913E+05 -2.577442E+04  2.372045E+04
        96  25 -2.571900E+06 -5.072919E+05 -9.089705E+04 -1.021766E+06 -3.785023E+03  1.414930E+04
        96  26 -2.753244E+06 -5.333280E+05 -1.335076E+05 -1.027973E+06 -1.224382E+04  1.998679E+04
        96  27 -2.874621E+06 -6.235783E+05 -1.809135E+05 -1.104348E+06 -2.064139E+04  2.564441E+04
        97   1 -1.452040E+06 -9.115223E+04  1.741781E+05 -7.217063E+05  3.702469E+04 -2.497316E+04
        97   2 -1.335351E+06  2.157943E+02  1.905679E+05 -6.399849E+05  6.209873E+04 -2.400107E+04
        97   3 -1.173226E+06  4.914193E+02  1.819045E+05 -6.187884E+05  8.632194E+04 -2.070928E+04
        97   4 -2.242114E+06 -3.821904E+05 -2.609792E+04 -9.325647E+05  3.125895E+04 -2.713624E+04
        97   5 -2.266748E+06 -3.508294E+05 -4.647496E+04 -8.969340E+05  5.785494E+04 -2.559871E+04
        97   6 -2.246292E+06 -4.109076E+05 -9.314559E+04 -9.218442E+05  8.359390E+04 -2.174238E+04
        97   7 -3.031581E+06 -6.731948E+05 -2.264249E+05 -1.143182E+06  2.550122E+04 -2.929643E+04
        97   8 -3.197297E+06 -7.018162E+05 -2.835886E+05 -1.153532E+06  5.361809E+04 -2.719372E+04
        97   9 -3.318230E+06 -8.222178E+05 -3.682903E+05 -1.224419E+06  8.087094E+04 -2.277348E+04
        97  10 -1.452042E+06 -9.115326E+04  1.741744E+05 -7.217056E+05 -1.482052E-08 -5.665035E-09
        97  11 -1.335355E+06  2.141410E+02  1.905595E+05 -6.399837E+05 -2.163329E-10 -3.238518E-09
        97  12 -1.173234E+06  4.889574E+02  1.818897E+05 -6.187869E+05  1.242815E-08  4.036785E-09
        97  13 -2.242115E+06 -3.821915E+05 -2.610114E+04 -9.325640E+05  4.035261E-11 -9.659184E-10
        97  14 -2.266752E+06 -3.508310E+05 -4.648249E+04 -8.969328E+05 -6.640618E-10 -2.886257E-09
        97  15 -2.246300E+06 -4.109100E+05 -9.315964E+04 -9.218427E+05 -3.033560E-10 -1.075985E-09
        97  16 -3.031582E+06 -6.731959E+05 -2.264277E+05 -1.143182E+06  1.389999E-08  3.678971E-09
        97  17 -3.197300E+06 -7.018177E+05 -2.835954E+05 -1.153531E+06 -9.848242E-11 -2.299724E-09
        97  18 -3.318237E+06 -8.222202E+05 -3.683036E+05 -1.224417E+06 -1.333782E-08 -5.842359E-09
        97  19 -1.452040E+06 -9.115223E+04  1.741781E+05 -7.217063E+05 -3.702469E+04  2.497316E+04
        97  20 -1.335351E+06  2.157943E+02  1.905679E+05 -6.399849E+05 -6.209873E+04  2.400107E+04
        97  21 -1.173226E+06  4.914193E+02  1.819045E+05 -6.187884E+05 -8.632194E+04  2.070928E+04
        97  22 -2.242114E+06 -3.821904E+05 -2.609792E+04 -9.325647E+05 -3.125895E+04  2.713624E+04
        97  23 -2.266748E+06 -3.508294E+05 -4.647496E+04 -8.969340E+05 -5.785494E+04  2.559871E+04
        97  24 -2.246292E+06 -4.109076E+05 -9.314559E+04 -9.218442E+05 -8.359390E+04  2.174238E+04
        97  25 -3.031581E+06 -6.731948E+05 -2.264249E+05 -1.143182E+06 -2.550122E+04  2.929643E+04
        97  26 -3.197297E+06 -7.018162E+05 -2.835886E+05 -1.153532E+06 -5.361809E+04  2.719372E+04
        97  27 -3.318230E+06 -8.222178E+05 -3.682903E+05 -1.224419E+06 -8.087094E+04  2.277348E+04
        98   1 -1.000323E+06  5.490840E+04  1.946788E+05 -6.517118E+05  1.180329E+05 -1.951386E+04
        98   2 -9.051046E+05  2.189739E+05  1.488854E+05 -4.899369E+05  1.986045E+05  8.511567E+03
        98   3 -9.070294E+05 -5.200779E+04 -6.026642E+04 -2.911698E+05  2.636268E+05  7.781529E+04
        98   4 -2.262050E+06 -3.678262E+05 -1.159062E+05 -9.456603E+05  1.026550E+05 -2.529576E+04
        98   5 -2.235779E+06 -3.227219E+05 -1.982796E+05 -8.981321E+05  2.107940E+05  1.307837E+04
        98   6 -2.312491E+06 -7.187141E+05 -4.661983E+05 -8.135503E+05  3.033509E+05  9.273936E+04
        98   7 -3.522214E+06 -7.905301E+05 -4.266081E+05 -1.239099E+06  8.731126E+04 -3.106794E+04
        98   8 -3.564711E+06 -8.642140E+05 -5.455936E+05 -1.305500E+06  2.229544E+05  1.763211E+04
        98   9 -3.715989E+06 -1.384946E+06 -8.723148E+05 -1.334747E+06  3.429756E+05  1.076040E+05
        98  10 -1.000338E+06  5.490425E+04  1.946518E+05 -6.517099E+05  1.203370E-09  1.876073E-09
        98  11 -9.051471E+05  2.189632E+05  1.488110E+05 -4.899383E+05 -7.902052E-10  2.587196E-09
        98  12 -9.071057E+05 -5.203300E+04 -6.040863E+04 -2.911863E+05  3.644702E-10  5.696086E-10
        98  13 -2.262062E+06 -3.678298E+05 -1.159272E+05 -9.456582E+05 -1.491644E-09  1.043023E-09
        98  14 -2.235827E+06 -3.227340E+05 -1.983637E+05 -8.981343E+05 -1.825393E-09  2.795815E-09
        98  15 -2.312592E+06 -7.187482E+05 -4.663882E+05 -8.135730E+05  8.294700E-11  3.435088E-10
        98  16 -3.522222E+06 -7.905332E+05 -4.266243E+05 -1.239097E+06 -1.147700E-09 -3.160993E-10
        98  17 -3.564765E+06 -8.642278E+05 -5.456881E+05 -1.305504E+06 -2.355496E-10  5.909394E-10
        98  18 -3.716119E+06 -1.384991E+06 -8.725593E+05 -1.334777E+06 -9.790902E-11  1.590415E-10
        98  19 -1.000323E+06  5.490840E+04  1.946788E+05 -6.517118E+05 -1.180329E+05  1.951386E+04
        98  20 -9.051046E+05  2.189739E+05  1.488854E+05 -4.899369E+05 -1.986045E+05 -8.511567E+03
        98  21 -9.070294E+05 -5.200779E+04 -6.026642E+04 -2.911698E+05 -2.636268E+05 -7.781529E+04
        98  22 -2.262050E+06 -3.678262E+05 -1.159062E+05 -9.456603E+05 -1.026550E+05  2.529576E+04
        98  23 -2.235779E+06 -3.227219E+05 -1.982796E+05 -8.981321E+05 -2.107940E+05 -1.307837E+04
        98  24 -2.312491E+06 -7.187141E+05 -4.661983E+05 -8.135503E+05 -3.033509E+05 -9.273936E+04
        98  25 -3.522214E+06 -7.905301E+05 -4.266081E+05 -1.239099E+06 -8.731126E+04  3.106794E+04
        98  26 -3.564711E+06 -8.642140E+05 -5.455936E+05 -1.305500E+06 -2.229544E+05 -1.763211E+04
        98  27 -3.715989E+06 -1.384946E+06 -8.723148E+05 -1.334747E+06 -3.429756E+05 -1.076040E+05
        99   1 -1.482931E+06 -2.460483E+05 -2.144447E+05 -2.059910E+04  5.271470E+04  1.729431E+04
        99   2 -1.388748E+06 -3.311535E+05 -2.437019E+05 -2.206913E+04  4.655965E+04  5.315394E+04
        99   3 -1.264141E+06 -3.027459E+05 -2.403517E+05 -7.955070E+04  4.048418E+04  5.324029E+04
        99   4 -5.977503E+04  1.081933E+05  1.335640E+05 -6.268910E+04  9.149650E+04  1.737641E+04
        99   5 -7.715259E+04 -7.999750E+03  5.958890E+04 -3.457536E+04  5.957476E+04  5.316787E+04
        99   6 -5.970684E+04 -6.334944E+03  3.606566E+04 -6.246319E+04  2.773555E+04  5.321918E+04
        99   7  1.365237E+06  4.622929E+05  4.814315E+05 -1.048769E+05  1.303670E+05  1.745315E+04
        99   8  1.236036E+06  3.150339E+05  3.627656E+05 -4.710892E+04  7.261709E+04  5.318127E+04
        99   9  1.146074E+06  2.899760E+05  3.123881E+05 -4.534253E+04  1.496231E+04  5.319738E+04
        99  10 -1.482934E+06 -2.460494E+05 -2.144505E+05 -2.059983E+04  7.173467E-10  3.628123E-10
        99  11 -1.388751E+06 -3.311571E+05 -2.437113E+05 -2.207112E+04  1.467854E-09 -6.024285E-10
        99  12 -1.264144E+06 -3.027494E+05 -2.403601E+05 -7.955244E+04  1.800324E-10 -4.307860E-10
        99  13 -5.978410E+04  1.081907E+05  1.335477E+05 -6.269038E+04  8.828760E-12 -8.334517E-10
        99  14 -7.715716E+04 -8.003739E+03  5.957692E+04 -3.457791E+04  6.633517E-10 -4.300003E-10
        99  15 -5.970843E+04 -6.338192E+03  3.605889E+04 -6.246438E+04  1.607446E-10 -4.353392E-10
        99  16  1.365219E+06  4.622880E+05  4.813990E+05 -1.048788E+05  1.278070E-10  5.221761E-10
        99  17  1.236029E+06  3.150294E+05  3.627504E+05 -4.711202E+04 -5.409997E-11 -1.458813E-09
        99  18  1.146073E+06  2.899729E+05  3.123824E+05 -4.534317E+04  2.546208E-09 -3.442318E-10
        99  19 -1.482931E+06 -2.460483E+05 -2.144447E+05 -2.059910E+04 -5.271470E+04 -1.729431E+04
        99  20 -1.388748E+06 -3.311535E+05 -2.437019E+05 -2.206913E+04 -4.655965E+04 -5.315394E+04
        99  21 -1.264141E+06 -3.027459E+05 -2.403517E+05 -7.955070E+04 -4.048418E+04 -5.324029E+04
        99  22 -5.977503E+04  1.081933E+05  1.335640E+05 -6.268910E+04 -9.149650E+04 -1.737641E+04
        99  23 -7.715259E+04 -7.999750E+03  5.958890E+04 -3.457536E+04 -5.957476E+04 -5.316787E+04
        99  24 -5.970684E+04 -6.334944E+03  3.606566E+04 -6.246319E+04 -2.773555E+04 -5.321918E+04
        99  25  1.365237E+06  4.622929E+05  4.814315E+05 -1.048769E+05 -1.303670E+05 -1.745315E+04
        99  26  1.236036E+06  3.150339E+05  3.627656E+05 -4.710892E+04 -7.261709E+04 -5.318127E+04
        99  27  1.146074E+06  2.899760E+05  3.123881E+05 -4.534253E+04 -1.496231E+04 -5.319738E+04
       100   1 -1.166058E+06 -2.630061E+05 -2.245625E+05 -6.081781E+04  2.415627E+04  4.589097E+04
       100   2 -1.058750E+06 -2.446733E+05 -2.125265E+05 -3.391537E+04  1.771199E+04  4.253239E+04
       100   3 -9.477563E+05 -2.175325E+05 -1.939476E+05 -6.420235E+04  1.126022E+04  3.740441E+04
       100   4 -6.652080E+04  7.775129E+03  2.901898E+04 -6.279038E+04  2.240850E+04  4.588367E+04
       100   5 -6.843816E+04 -9.150460E+02  1.528367E+04 -3.419591E+04  1.467962E+04  4.252615E+04
       100   6 -6.646441E+04 -5.820857E+02  8.975088E+03 -6.278491E+04  6.944342E+03  3.740051E+04
       100   7  1.034136E+06  2.784716E+05  2.825201E+05 -6.476666E+04  2.065762E+04  4.587639E+04
       100   8  9.227828E+05  2.427746E+05  2.430290E+05 -3.447699E+04  1.164242E+04  4.251992E+04
       100   9  8.155468E+05  2.163140E+05  2.118464E+05 -6.136542E+04  2.622378E+03  3.739659E+04
       100  10 -1.166059E+06 -2.630085E+05 -2.245675E+05 -6.081871E+04 -8.810777E-10 -3.034655E-10
       100  11 -1.058751E+06 -2.446753E+05 -2.125305E+05 -3.391598E+04  2.202270E-09  2.901730E-11
       100  12 -9.477568E+05 -2.175341E+05 -1.939505E+05 -6.420268E+04  1.276475E-09 -5.664063E-10
       100  13 -6.652190E+04  7.772734E+03  2.901408E+04 -6.279120E+04 -1.068316E-09 -4.183532E-10
       100  14 -6.843888E+04 -9.170458E+02  1.527987E+04 -3.419642E+04 -5.249931E-10  9.246755E-10
       100  15 -6.646484E+04 -5.836007E+02  8.972369E+03 -6.278512E+04 -1.064064E-09  2.156050E-10
       100  16  1.034135E+06  2.784693E+05  2.825153E+05 -6.476742E+04  7.369227E-10  5.972567E-10
       100  17  9.227821E+05  2.427726E+05  2.430254E+05 -3.447739E+04  1.119228E-10  8.454369E-10
       100  18  8.155465E+05  2.163125E+05  2.118437E+05 -6.136550E+04 -3.688715E-10  7.300585E-10
       100  19 -1.166058E+06 -2.630061E+05 -2.245625E+05 -6.081781E+04 -2.415627E+04 -4.589097E+04
       100  20 -1.058750E+06 -2.446733E+05 -2.125265E+05 -3.391537E+04 -1.771199E+04 -4.253239E+04
       100  21 -9.477563E+05 -2.175325E+05 -1.939476E+05 -6.420235E+04 -1.126022E+04 -3.740441E+04
       100  22 -6.652080E+04  7.775129E+03  2.901898E+04 -6.279038E+04 -2.240850E+04 -4.588367E+04
       100  23 -6.843816E+04 -9.150460E+02  1.528367E+04 -3.419591E+04 -1.467962E+04 -4.252615E+04
       100  24 -6.646441E+04 -5.820857E+02  8.975088E+03 -6.278491E+04 -6.944342E+03 -3.740051E+04
       100  25  1.034136E+06  2.784716E+05  2.825201E+05 -6.476666E+04 -2.065762E+04 -4.587639E+04
       100  26  9.227828E+05  2.427746E+05  2.430290E+05 -3.447699E+04 -1.164242E+04 -4.251992E+04
       100  27  8.155468E+05  2.163140E+05  2.118464E+05 -6.136542E+04 -2.622378E+03 -3.739659E+04
       101   1 -8.438070E+05 -1.906268E+05 -1.713804E+05 -6.270810E+04  9.317807E+03  3.405500E+04
       101   2 -7.348343E+05 -1.643739E+05 -1.495554E+05 -3.402918E+04  7.449582E+03  2.875756E+04
       101   3 -6.252206E+05 -1.373852E+05 -1.262845E+05 -6.265375E+04  5.575353E+03  2.337131E+04
       101   4 -6.714406E+04  4.518964E+02  6.926389E+03 -6.281208E+04  5.543848E+03  3.405259E+04
       101   5 -6.744510E+04 -1.429826E+02  3.889850E+03 -3.416232E+04  3.609248E+03  2.875697E+04
       101   6 -6.710555E+04  9.720860E+00  2.344384E+03 -6.281226E+04  1.668967E+03  2.337264E+04
       101   7  7.100780E+05  1.914885E+05  1.851935E+05 -6.291616E+04  1.765198E+03  3.405019E+04
       101   8  6.003567E+05  1.640568E+05  1.573057E+05 -3.429554E+04 -2.351869E+02  2.875639E+04
       101   9  4.912979E+05  1.373828E+05  1.309527E+05 -6.297084E+04 -2.240905E+03  2.337397E+04
       101  10 -8.438074E+05 -1.906281E+05 -1.713828E+05 -6.270835E+04  8.709869E-10 -4.773649E-10
       101  11 -7.348345E+05 -1.643748E+05 -1.495571E+05 -3.402935E+04  4.760994E-10  5.601703E-10
       101  12 -6.252208E+05 -1.373858E+05 -1.262856E+05 -6.265386E+04  2.020313E-10 -6.994707E-10
       101  13 -6.714440E+04  4.506429E+02  6.924152E+03 -6.281224E+04 -2.152850E-09 -2.851940E-11
       101  14 -6.744534E+04 -1.438740E+02  3.888271E+03 -3.416240E+04  5.368612E-10  2.326834E-10
       101  15 -6.710570E+04  9.133516E+00  2.343352E+03 -6.281229E+04  6.874024E-10 -4.343066E-11
       101  16  7.100776E+05  1.914873E+05  1.851913E+05 -6.291621E+04  1.798371E-10  4.363038E-10
       101  17  6.003564E+05  1.640559E+05  1.573041E+05 -3.429554E+04 -4.342186E-10 -5.759402E-10
       101  18  4.912977E+05  1.373822E+05  1.309516E+05 -6.297080E+04 -7.588796E-10 -1.082627E-09
       101  19 -8.438070E+05 -1.906268E+05 -1.713804E+05 -6.270810E+04 -9.317807E+03 -3.405500E+04
       101  20 -7.348343E+05 -1.643739E+05 -1.495554E+05 -3.402918E+04 -7.449582E+03 -2.875756E+04
       101  21 -6.252206E+05 -1.373852E+05 -1.262845E+05 -6.265375E+04 -5.575353E+03 -2.337131E+04
       101  22 -6.714406E+04  4.518964E+02  6.926389E+03 -6.281208E+04 -5.543848E+03 -3.405259E+04
       101  23 -6.744510E+04 -1.429826E+02  3.889850E+03 -3.416232E+04 -3.609248E+03 -2.875697E+04
       101  24 -6.710555E+04  9.720860E+00  2.344384E+03 -6.281226E+04 -1.668967E+03 -2.337264E+04
       101  25  7.100780E+05  1.914885E+05  1.851935E+05 -6.291616E+04 -1.765198E+03 -3.405019E+04
       101  26  6.003567E+05  1.640568E+05  1.573057E+05 -3.429554E+04  2.351869E+02 -2.875639E+04
       101  27  4.912979E+05  1.373828E+05  1.309527E+05 -6.297084E+04  2.240905E+03 -2.337397E+04
       102   1 -5.205896E+05 -1.114141E+05 -1.020667E+05 -6.258653E+04  5.170193E+03  2.021762E+04
       102   2 -4.112253E+05 -8.460846E+04 -7.785650E+04 -3.393543E+04  4.568734E+03  1.482129E+04
       102   3 -3.017945E+05 -5.765240E+04 -5.323158E+04 -6.262723E+04  3.964240E+03  9.419887E+03
       102   4 -6.720904E+04  7.502456E+01  1.838811E+03 -6.282136E+04  1.289227E+03  2.021984E+04
       102   5 -6.722792E+04  2.552973E+01  1.217608E+03 -3.415087E+04  6.834496E+02  1.482445E+04
       102   6 -6.718912E+04  1.283852E+02  1.014810E+03 -6.282133E+04  7.474186E+01  9.424025E+03
       102   7  3.863620E+05  1.115498E+05  1.057309E+05 -6.305630E+04 -2.594552E+03  2.022205E+04
       102   8  2.768791E+05  8.465127E+04  8.028394E+04 -3.436640E+04 -3.203971E+03  1.482760E+04
       102   9  1.674672E+05  5.790532E+04  5.525758E+04 -6.301549E+04 -3.816216E+03  9.428164E+03
       102  10 -5.205897E+05 -1.114145E+05 -1.020676E+05 -6.258662E+04 -1.121339E-09  9.848524E-13
       102  11 -4.112254E+05 -8.460871E+04 -7.785695E+04 -3.393548E+04  1.719936E-09  8.979565E-10
       102  12 -3.017946E+05 -5.765250E+04 -5.323178E+04 -6.262726E+04  1.453827E-09 -8.959295E-10
       102  13 -6.720915E+04  7.458510E+01  1.838039E+03 -6.282138E+04 -1.376286E-11 -6.841893E-10
       102  14 -6.722798E+04  2.529362E+01  1.217194E+03 -3.415088E+04  1.031305E-09  9.395581E-10
       102  15 -6.718915E+04  1.282899E+02  1.014643E+03 -6.282133E+04 -1.368831E-09 -1.090909E-09
       102  16  3.863619E+05  1.115494E+05  1.057301E+05 -6.305626E+04  1.225134E-09 -4.006355E-10
       102  17  2.768790E+05  8.465103E+04  8.028351E+04 -3.436636E+04 -2.734968E-10  2.062776E-10
       102  18  1.674672E+05  5.790522E+04  5.525739E+04 -6.301546E+04 -1.103662E-09 -1.685504E-09
       102  19 -5.205896E+05 -1.114141E+05 -1.020667E+05 -6.258653E+04 -5.170193E+03 -2.021762E+04
       102  20 -4.112253E+05 -8.460846E+04 -7.785650E+04 -3.393543E+04 -4.568734E+03 -1.482129E+04
       102  21 -3.017945E+05 -5.765240E+04 -5.323158E+04 -6.262723E+04 -3.964240E+03 -9.419887E+03
       102  22 -6.720904E+04  7.502456E+01  1.838811E+03 -6.282136E+04 -1.289227E+03 -2.021984E+04
       102  23 -6.722792E+04  2.552973E+01  1.217608E+03 -3.415087E+04 -6.834496E+02 -1.482445E+04
       102  24 -6.718912E+04  1.283852E+02  1.014810E+03 -6.282133E+04 -7.474186E+01 -9.424025E+03
       102  25  3.863620E+05  1.115498E+05  1.057309E+05 -6.305630E+04  2.594552E+03 -2.022205E+04
       102  26  2.768791E+05  8.465127E+04  8.028394E+04 -3.436640E+04  3.203971E+03 -1.482760E+04
       102  27  1.674672E+05  5.790532E+04  5.525758E+04 -6.301549E+04  3.816216E+03 -9.428164E+03
       103   1 -1.969843E+05 -3.173666E+04 -2.848655E+04 -6.270952E+04  3.775766E+03  6.274614E+03
       103   2 -8.752834E+04 -4.941358E+03 -3.388465E+03 -3.410584E+04  3.131566E+03  8.733034E+02
       103   3  2.191354E+04  2.202474E+04  2.213589E+04 -6.286210E+04  2.487075E+03 -4.524961E+03
       103   4 -6.719858E+04  1.262487E+02  1.021550E+03 -6.282554E+04 -1.140518E+02  6.279080E+03
       103   5 -6.718440E+04  6.294721E+01  1.286902E+03 -3.414560E+04 -7.564271E+02  8.778010E+02
       103   6 -6.719738E+04  1.704853E+02  1.977395E+03 -6.282547E+04 -1.398983E+03 -4.520387E+03
       103   7  6.260278E+04  3.198800E+04  3.052861E+04 -6.294157E+04 -4.004676E+03  6.283546E+03
       103   8 -4.684005E+04  5.067231E+03  5.962299E+03 -3.418536E+04 -4.644547E+03  8.822990E+02
       103   9 -1.563009E+05 -2.168431E+04 -1.818156E+04 -6.278885E+04 -5.284488E+03 -4.515812E+03
       103  10 -1.969843E+05 -3.173671E+04 -2.848665E+04 -6.270954E+04 -2.952693E-09 -7.594288E-10
       103  11 -8.752835E+04 -4.941361E+03 -3.388485E+03 -3.410584E+04  7.398550E-09  1.456089E-09
       103  12  2.191353E+04  2.202471E+04  2.213584E+04 -6.286209E+04  1.346374E-08  9.503762E-10
       103  13 -6.719859E+04  1.262064E+02  1.021476E+03 -6.282554E+04 -1.076768E-09 -1.309327E-09
       103  14 -6.718441E+04  6.294623E+01  1.286900E+03 -3.414560E+04 -9.016167E-11 -7.406624E-10
       103  15 -6.719739E+04  1.704629E+02  1.977353E+03 -6.282548E+04 -1.099735E-09  1.788954E-09
       103  16  6.260276E+04  3.198796E+04  3.052851E+04 -6.294155E+04  3.648864E-09 -1.348298E-09
       103  17 -4.684007E+04  5.067225E+03  5.962257E+03 -3.418535E+04 -5.078782E-09 -4.686413E-10
       103  18 -1.563009E+05 -2.168434E+04 -1.818165E+04 -6.278887E+04 -1.306448E-08  1.528472E-09
       103  19 -1.969843E+05 -3.173666E+04 -2.848655E+04 -6.270952E+04 -3.775766E+03 -6.274614E+03
       103  20 -8.752834E+04 -4.941358E+03 -3.388465E+03 -3.410584E+04 -3.131566E+03 -8.733034E+02
       103  21  2.191354E+04  2.202474E+04  2.213589E+04 -6.286210E+04 -2.487075E+03  4.524961E+03
       103  22 -6.719858E+04  1.262487E+02  1.021550E+03 -6.282554E+04  1.140518E+02 -6.279080E+03
       103  23 -6.718440E+04  6.294721E+01  1.286902E+03 -3.414560E+04  7.564271E+02 -8.778010E+02
       103  24 -6.719738E+04  1.704853E+02  1.977395E+03 -6.282547E+04  1.398983E+03  4.520387E+03
       103  25  6.260278E+04  3.198800E+04  3.052861E+04 -6.294157E+04  4.004676E+03 -6.283546E+03
       103  26 -4.684005E+04  5.067231E+03  5.962299E+03 -3.418536E+04  4.644547E+03 -8.822990E+02
       103  27 -1.563009E+05 -2.168431E+04 -1.818156E+04 -6.278885E+04  5.284488E+03  4.515812E+03
       104   1  1.268563E+05  4.786483E+04  4.741416E+04 -6.283915E+04  2.097988E+03 -7.676396E+03
       104   2  2.360936E+05  7.458565E+04  7.396095E+04 -3.431662E+04 -6.640171E+01 -1.306546E+04
       104   3  3.457573E+05  1.021636E+05  1.021097E+05 -6.313815E+04 -2.228535E+03 -1.838788E+04
       104   4 -6.710812E+04  9.541483E+01  2.522377E+03 -6.282256E+04 -1.808265E+03 -7.672053E+03
       104   5 -6.732052E+04 -3.490471E+01  4.240252E+03 -3.414937E+04 -3.924020E+03 -1.306203E+04
       104   6 -6.712558E+04  6.845979E+02  7.527627E+03 -6.282193E+04 -6.037146E+03 -1.838531E+04
       104   7 -2.610377E+05 -4.767664E+04 -4.237186E+04 -6.280597E+04 -5.713306E+03 -7.667710E+03
       104   8 -3.706494E+05 -7.466188E+04 -6.548648E+04 -3.398218E+04 -7.779769E+03 -1.305861E+04
       104   9 -4.798506E+05 -1.008063E+05 -8.706564E+04 -6.250589E+04 -9.843245E+03 -1.838275E+04
       104  10  1.268563E+05  4.786477E+04  4.741404E+04 -6.283914E+04 -1.093444E-08  7.251005E-10
       104  11  2.360935E+05  7.458546E+04  7.396063E+04 -3.431662E+04 -6.370368E-09  4.152194E-11
       104  12  3.457572E+05  1.021633E+05  1.021091E+05 -6.313818E+04 -2.530778E-10  2.642899E-11
       104  13 -6.710814E+04  9.535074E+01  2.522261E+03 -6.282257E+04 -1.074828E-09  1.696847E-09
       104  14 -6.732058E+04 -3.509206E+01  4.239902E+03 -3.414941E+04 -1.149730E-09 -5.866062E-10
       104  15 -6.712571E+04  6.842252E+02  7.526924E+03 -6.282202E+04 -3.439144E-11 -5.616850E-10
       104  16 -2.610378E+05 -4.767671E+04 -4.237203E+04 -6.280601E+04  1.060975E-08  1.462577E-09
       104  17 -3.706495E+05 -7.466208E+04 -6.548691E+04 -3.398226E+04  3.677916E-09  8.686205E-10
       104  18 -4.798508E+05 -1.008067E+05 -8.706646E+04 -6.250604E+04  2.054572E-10  2.831540E-12
       104  19  1.268563E+05  4.786483E+04  4.741416E+04 -6.283915E+04 -2.097988E+03  7.676396E+03
       104  20  2.360936E+05  7.458565E+04  7.396095E+04 -3.431662E+04  6.640171E+01  1.306546E+04
       104  21  3.457573E+05  1.021636E+05  1.021097E+05 -6.313815E+04  2.228535E+03  1.838788E+04
       104  22 -6.710812E+04  9.541483E+01  2.522377E+03 -6.282256E+04  1.808265E+03  7.672053E+03
       104  23 -6.732052E+04 -3.490471E+01  4.240252E+03 -3.414937E+04  3.924020E+03  1.306203E+04
       104  24 -6.712558E+04  6.845979E+02  7.527627E+03 -6.282193E+04  6.037146E+03  1.838531E+04
       104  25 -2.610377E+05 -4.767664E+04 -4.237186E+04 -6.280597E+04  5.713306E+03  7.667710E+03
       104  26 -3.706494E+05 -7.466188E+04 -6.548648E+04 -3.398218E+04  7.779769E+03  1.305861E+04
       104  27 -4.798506E+05 -1.008063E+05 -8.706564E+04 -6.250589E+04  9.843245E+03  1.838275E+04
       105   1  4.513313E+05  1.269264E+05  1.289833E+05 -6.160633E+04 -3.342095E+03 -2.168596E+04
       105   2  5.587895E+05  1.534216E+05  1.607785E+05 -3.512960E+04 -1.274242E+04 -2.687434E+04
       105   3  6.701456E+05  1.899487E+05  2.012283E+05 -6.591506E+04 -2.213895E+04 -3.073004E+04
       105   4 -6.641227E+04 -4.427623E+02  9.745972E+03 -6.280561E+04 -7.560542E+03 -2.168390E+04
       105   5 -6.829263E+04 -7.825355E+02  1.665691E+04 -3.417105E+04 -1.599310E+04 -2.687463E+04
       105   6 -6.644771E+04  8.748884E+03  3.155810E+04 -6.280191E+04 -2.442024E+04 -3.073210E+04
       105   7 -5.839079E+05 -1.278306E+05 -1.095091E+05 -6.400382E+04 -1.177550E+04 -2.168182E+04
       105   8 -6.950109E+05 -1.550141E+05 -1.274906E+05 -3.321341E+04 -1.924051E+04 -2.687493E+04
       105   9 -8.025393E+05 -1.724888E+05 -1.381480E+05 -5.969242E+04 -2.669883E+04 -3.073417E+04
       105  10  4.513311E+05  1.269259E+05  1.289824E+05 -6.160639E+04  5.718144E-10  1.422865E-10
       105  11  5.587891E+05  1.534208E+05  1.607768E+05 -3.512988E+04  1.449300E-09 -1.226432E-09
       105  12  6.701448E+05  1.899475E+05  2.012256E+05 -6.591561E+04 -1.189846E-09 -2.042799E-10
       105  13 -6.641245E+04 -4.432826E+02  9.744981E+03 -6.280574E+04  2.139179E-09  8.148850E-11
       105  14 -6.829310E+04 -7.833797E+02  1.665507E+04 -3.417139E+04 -1.615929E-09 -1.500407E-10
       105  15 -6.644860E+04  8.747709E+03  3.155521E+04 -6.280251E+04 -8.169456E-10 -1.012535E-10
       105  16 -5.839081E+05 -1.278312E+05 -1.095102E+05 -6.400402E+04 -5.748924E-10 -8.758695E-11
       105  17 -6.950115E+05 -1.550150E+05 -1.274927E+05 -3.321383E+04 -2.127516E-10 -7.671178E-10
       105  18 -8.025404E+05 -1.724900E+05 -1.381512E+05 -5.969308E+04  1.595466E-09  1.830350E-10
       105  19  4.513313E+05  1.269264E+05  1.289833E+05 -6.160633E+04  3.342095E+03  2.168596E+04
       105  20  5.587895E+05  1.534216E+05  1.607785E+05 -3.512960E+04  1.274242E+04  2.687434E+04
       105  21  6.701456E+05  1.899487E+05  2.012283E+05 -6.591506E+04  2.213895E+04  3.073004E+04
       105  22 -6.641227E+04 -4.427623E+02  9.745972E+03 -6.280561E+04  7.560542E+03  2.168390E+04
       105  23 -6.829263E+04 -7.825355E+02  1.665691E+04 -3.417105E+04  1.599310E+04  2.687463E+04
       105  24 -6.644771E+04  8.748884E+03  3.155810E+04 -6.280191E+04  2.442024E+04  3.073210E+04
       105  25 -5.839079E+05 -1.278306E+05 -1.095091E+05 -6.400382E+04  1.177550E+04  2.168182E+04
       105  26 -6.950109E+05 -1.550141E+05 -1.274906E+05 -3.321341E+04  1.924051E+04  2.687493E+04
       105  27 -8.025393E+05 -1.724888E+05 -1.381480E+05 -5.969242E+04  2.669883E+04  3.073417E+04
       106   1  7.826928E+05  2.002952E+05  2.321978E+05 -4.517630E+04 -1.963119E+04 -3.703097E+04
       106   2  8.720679E+05  2.253317E+05  2.842362E+05 -4.969655E+04 -7.374849E+04 -3.829781E+04
       106   3  1.001876E+06  3.817437E+05  4.044338E+05 -1.105339E+05 -1.278970E+05 -1.263619E+04
       106   4 -5.907136E+04 -6.580269E+03  3.921287E+04 -6.257662E+04 -3.021839E+04 -3.703327E+04
       106   5 -7.764731E+04 -8.380271E+03  6.487193E+04 -3.445231E+04 -6.487939E+04 -3.830048E+04
       106   6 -5.911895E+04  1.179242E+05  1.452463E+05 -6.264272E+04 -9.956018E+04 -1.262659E+04
       106   7 -9.001789E+05 -2.135039E+05 -1.538181E+05 -7.995313E+04 -4.079134E+04 -3.703498E+04
       106   8 -1.026529E+06 -2.421546E+05 -1.545520E+05 -1.923159E+04 -5.602367E+04 -3.830273E+04
       106   9 -1.119082E+06 -1.459694E+05 -1.140190E+05 -1.483356E+04 -7.127155E+04 -1.261262E+04
       106  10  7.826920E+05  2.002937E+05  2.321945E+05 -4.517689E+04 -8.001126E-11  2.542159E-10
       106  11  8.720617E+05  2.253287E+05  2.842232E+05 -4.969883E+04  1.461001E-09  1.570388E-11
       106  12  1.001858E+06  3.817392E+05  4.044028E+05 -1.105352E+05  5.234120E-10 -2.405163E-10
       106  13 -5.907270E+04 -6.581987E+03  3.920857E+04 -6.257752E+04 -1.088219E-09  3.063872E-10
       106  14 -7.765222E+04 -8.382976E+03  6.486126E+04 -3.445431E+04 -1.094730E-09  7.546836E-10
       106  15 -5.912964E+04  1.179213E+05  1.452274E+05 -6.264374E+04 -1.584420E-09 -2.153399E-10
       106  16 -9.001811E+05 -2.135058E+05 -1.538238E+05 -7.995435E+04 -1.105537E-09  3.692027E-10
       106  17 -1.026532E+06 -2.421570E+05 -1.545607E+05 -1.923332E+04 -2.522872E-09  6.387105E-11
       106  18 -1.119087E+06 -1.459709E+05 -1.140289E+05 -1.483429E+04 -9.561750E-10 -3.682471E-10
       106  19  7.826928E+05  2.002952E+05  2.321978E+05 -4.517630E+04  1.963119E+04  3.703097E+04
       106  20  8.720679E+05  2.253317E+05  2.842362E+05 -4.969655E+04  7.374849E+04  3.829781E+04
       106  21  1.001876E+06  3.817437E+05  4.044338E+05 -1.105339E+05  1.278970E+05  1.263619E+04
       106  22 -5.907136E+04 -6.580269E+03  3.921287E+04 -6.257662E+04  3.021839E+04  3.703327E+04
       106  23 -7.764731E+04 -8.380271E+03  6.487193E+04 -3.445231E+04  6.487939E+04  3.830048E+04
       106  24 -5.911895E+04  1.179242E+05  1.452463E+05 -6.264272E+04  9.956018E+04  1.262659E+04
       106  25 -9.001789E+05 -2.135039E+05 -1.538181E+05 -7.995313E+04  4.079134E+04  3.703498E+04
       106  26 -1.026529E+06 -2.421546E+05 -1.545520E+05 -1.923159E+04  5.602367E+04  3.830273E+04
       106  27 -1.119082E+06 -1.459694E+05 -1.140190E+05 -1.483356E+04  7.127155E+04  1.261262E+04
       107   1  4.073022E+05  1.128553E+06  4.138893E+05 -3.693382E+05  1.009844E+04  1.770611E+05
       107   2  2.104403E+05  8.452348E+05  2.346490E+05 -2.851707E+05  3.097362E+04  8.969484E+04
       107   3  1.156485E+05  5.985040E+05  1.376978E+05 -2.595383E+05  2.699107E+04  2.303978E+03
       107   4  1.613481E+05  1.376517E+05  1.778738E+05 -2.670448E+05  1.029721E+04  1.214218E+05
       107   5  3.648194E+04  1.230580E+05  8.834173E+04 -2.380225E+05  3.102640E+04  7.592085E+04
       107   6  6.493448E+03  1.377841E+05  5.211473E+04 -2.675146E+05  2.690007E+04  3.035560E+04
       107   7 -8.463669E+04 -8.523218E+05 -5.819357E+04 -1.649143E+05  1.047785E+04  6.587065E+04
       107   8 -1.375007E+05 -5.986179E+05 -5.799085E+04 -1.909296E+05  3.107714E+04  6.216253E+04
       107   9 -1.026731E+05 -3.227286E+05 -3.347429E+04 -2.754847E+05  2.680830E+04  5.838696E+04
       107  10  4.072937E+05  1.128519E+06  4.138303E+05 -3.693396E+05 -1.097549E-10  5.533261E-08
       107  11  2.104371E+05  8.452259E+05  2.346321E+05 -2.851729E+05  1.065028E-09 -2.657338E-10
       107  12  1.156478E+05  5.985038E+05  1.376964E+05 -2.595383E+05  9.907279E-10 -5.779239E-08
       107  13  1.613440E+05  1.376358E+05  1.778459E+05 -2.670458E+05 -9.371300E-11  2.129016E-09
       107  14  3.647936E+04  1.230515E+05  8.832908E+04 -2.380244E+05 -1.441752E-09  5.636010E-11
       107  15  6.492423E+03  1.377829E+05  5.211164E+04 -2.675153E+05  3.729721E-09 -6.855946E-11
       107  16 -8.463797E+04 -8.523265E+05 -5.820194E+04 -1.649149E+05 -8.382562E-10 -5.489259E-08
       107  17 -1.375027E+05 -5.986223E+05 -5.799994E+04 -1.909312E+05 -7.382189E-11  1.435251E-09
       107  18 -1.026748E+05 -3.227324E+05 -3.348205E+04 -2.754860E+05  1.706185E-09  5.734365E-08
       107  19  4.073022E+05  1.128553E+06  4.138893E+05 -3.693382E+05 -1.009844E+04 -1.770611E+05
       107  20  2.104403E+05  8.452348E+05  2.346490E+05 -2.851707E+05 -3.097362E+04 -8.969484E+04
       107  21  1.156485E+05  5.985040E+05  1.376978E+05 -2.595383E+05 -2.699107E+04 -2.303978E+03
       107  22  1.613481E+05  1.376517E+05  1.778738E+05 -2.670448E+05 -1.029721E+04 -1.214218E+05
       107  23  3.648194E+04  1.230580E+05  8.834173E+04 -2.380225E+05 -3.102640E+04 -7.592085E+04
       107  24  6.493448E+03  1.377841E+05  5.211473E+04 -2.675146E+05 -2.690007E+04 -3.035560E+04
       107  25 -8.463669E+04 -8.523218E+05 -5.819357E+04 -1.649143E+05 -1.047785E+04 -6.587065E+04
       107  26 -1.375007E+05 -5.986179E+05 -5.799085E+04 -1.909296E+05 -3.107714E+04 -6.216253E+04
       107  27 -1.026731E+05 -3.227286E+05 -3.347429E+04 -2.754847E+05 -2.680830E+04 -5.838696E+04
       108   1  7.680320E+04  4.185298E+05  9.585926E+04 -2.721312E+05  1.669341E+04 -2.273079E+03
       108   2  8.248386E+03  1.515887E+05  3.519352E+04 -2.381138E+05  1.558706E+03 -1.819158E+04
       108   3 -5.193590E+04 -1.115467E+05 -1.313900E+04 -2.642360E+05 -1.366506E+04 -3.410411E+04
       108   4  8.841166E+03  1.321173E+05  4.252606E+04 -2.678144E+05  1.660896E+04  2.317253E+04
       108   5  3.242726E+03  1.302626E+05  3.150071E+04 -2.377501E+05  1.473634E+03  7.403015E+03
       108   6  5.993402E+03  1.321212E+05  3.270876E+04 -2.678239E+05 -1.375071E+04 -8.366923E+03
       108   7 -5.912518E+04 -1.542145E+05 -1.080819E+04 -2.634996E+05  1.652485E+04  4.860670E+04
       108   8 -1.762606E+03  1.089384E+05  2.781034E+04 -2.373865E+05  1.388591E+03  3.299676E+04
       108   9  6.391966E+04  3.758479E+05  7.855642E+04 -2.714132E+05 -1.383663E+04  1.738012E+04
       108  10  7.680290E+04  4.185297E+05  9.585873E+04 -2.721312E+05  2.073148E-09  2.752017E-09
       108  11  8.248294E+03  1.515884E+05  3.519290E+04 -2.381138E+05  2.832450E-09  1.403886E-09
       108  12 -5.193642E+04 -1.115480E+05 -1.314154E+04 -2.642363E+05  3.297258E-09 -1.985762E-09
       108  13  8.840726E+03  1.321166E+05  4.252453E+04 -2.678147E+05  4.808441E-09  2.334515E-09
       108  14  3.242709E+03  1.302626E+05  3.150060E+04 -2.377501E+05  4.875011E-09  1.691465E-10
       108  15  5.993180E+03  1.321210E+05  3.270827E+04 -2.678240E+05  2.447864E-09  5.702003E-11
       108  16 -5.912611E+04 -1.542171E+05 -1.081315E+04 -2.635003E+05  5.512176E-10 -2.429713E-09
       108  17 -1.762900E+03  1.089372E+05  2.780829E+04 -2.373865E+05  2.942626E-09  4.638574E-11
       108  18  6.391937E+04  3.758475E+05  7.855549E+04 -2.714130E+05  1.564863E-09  1.889877E-09
       108  19  7.680320E+04  4.185298E+05  9.585926E+04 -2.721312E+05 -1.669341E+04  2.273079E+03
       108  20  8.248386E+03  1.515887E+05  3.519352E+04 -2.381138E+05 -1.558706E+03  1.819158E+04
       108  21 -5.193590E+04 -1.115467E+05 -1.313900E+04 -2.642360E+05  1.366506E+04  3.410411E+04
       108  22  8.841166E+03  1.321173E+05  4.252606E+04 -2.678144E+05 -1.660896E+04 -2.317253E+04
       108  23  3.242726E+03  1.302626E+05  3.150071E+04 -2.377501E+05 -1.473634E+03 -7.403015E+03
       108  24  5.993402E+03  1.321212E+05  3.270876E+04 -2.678239E+05  1.375071E+04  8.366923E+03
       108  25 -5.912518E+04 -1.542145E+05 -1.080819E+04 -2.634996E+05 -1.652485E+04 -4.860670E+04
       108  26 -1.762606E+03  1.089384E+05  2.781034E+04 -2.373865E+05 -1.388591E+03 -3.299676E+04
       108  27  6.391966E+04  3.758479E+05  7.855642E+04 -2.714132E+05  1.383663E+04 -1.738012E+04
       109   1 -9.447143E+04 -2.825209E+05 -4.130639E+04 -2.717365E+05 -2.400220E+04 -4.200127E+04
       109   2 -1.409962E+05 -5.529968E+05 -8.200210E+04 -2.084972E+05 -2.891569E+04 -3.081939E+04
       109   3 -1.362948E+05 -8.123782E+05 -1.172530E+05 -2.039202E+05 -9.954985E+03 -1.957960E+04
       109   4  4.666317E+03  1.352659E+05  3.673401E+04 -2.675272E+05 -2.409475E+04 -1.378461E+04
       109   5  2.272826E+04  1.262245E+05  5.615399E+04 -2.380612E+05 -2.887414E+04 -4.270565E+04
       109   6  9.894448E+04  1.351440E+05  1.088553E+05 -2.672399E+05 -9.792517E+03 -7.156443E+04
       109   7  1.037945E+05  5.532235E+05  1.147699E+05 -2.633148E+05 -2.418688E+04  1.445056E+04
       109   8  1.864271E+05  8.058869E+05  1.942869E+05 -2.676577E+05 -2.883148E+04 -5.460467E+04
       109   9  3.341349E+05  1.083504E+06  3.349127E+05 -3.306560E+05 -9.619579E+03 -1.236283E+05
       109  10 -9.447253E+04 -2.825230E+05 -4.131079E+04 -2.717374E+05 -7.895955E-10  5.738111E-08
       109  11 -1.409973E+05 -5.529981E+05 -8.200546E+04 -2.084979E+05 -2.287922E-09  2.171169E-09
       109  12 -1.362950E+05 -8.123787E+05 -1.172539E+05 -2.039204E+05  4.930150E-10 -5.391900E-08
       109  13  4.665642E+03  1.352656E+05  3.673257E+04 -2.675275E+05  1.250612E-10  2.347948E-09
       109  14  2.272687E+04  1.262223E+05  5.614900E+04 -2.380621E+05 -1.820939E-09  5.289822E-11
       109  15  9.894301E+04  1.351384E+05  1.088455E+05 -2.672405E+05  5.867919E-10  3.808364E-11
       109  16  1.037938E+05  5.532231E+05  1.147685E+05 -2.633146E+05  6.375110E-10 -5.688310E-08
       109  17  1.864254E+05  8.058834E+05  1.942797E+05 -2.676589E+05 -2.810687E-10 -1.016017E-09
       109  18  3.341307E+05  1.083488E+06  3.348838E+05 -3.306570E+05 -3.140257E-10  5.374901E-08
       109  19 -9.447143E+04 -2.825209E+05 -4.130639E+04 -2.717365E+05  2.400220E+04  4.200127E+04
       109  20 -1.409962E+05 -5.529968E+05 -8.200210E+04 -2.084972E+05  2.891569E+04  3.081939E+04
       109  21 -1.362948E+05 -8.123782E+05 -1.172530E+05 -2.039202E+05  9.954985E+03  1.957960E+04
       109  22  4.666317E+03  1.352659E+05  3.673401E+04 -2.675272E+05  2.409475E+04  1.378461E+04
       109  23  2.272826E+04  1.262245E+05  5.615399E+04 -2.380612E+05  2.887414E+04  4.270565E+04
       109  24  9.894448E+04  1.351440E+05  1.088553E+05 -2.672399E+05  9.792517E+03  7.156443E+04
       109  25  1.037945E+05  5.532235E+05  1.147699E+05 -2.633148E+05  2.418688E+04 -1.445056E+04
       109  26  1.864271E+05  8.058869E+05  1.942869E+05 -2.676577E+05  2.883148E+04  5.460467E+04
       109  27  3.341349E+05  1.083504E+06  3.349127E+05 -3.306560E+05  9.619579E+03  1.236283E+05
       110   1 -3.563274E+06 -1.228975E+06 -7.504054E+05 -1.279594E+06 -3.165518E+05 -1.026452E+05
       110   2 -3.459810E+06 -7.655915E+05 -4.580661E+05 -1.276821E+06 -2.058420E+05 -2.584837E+04
       110   3 -3.478655E+06 -7.045899E+05 -3.582553E+05 -1.216220E+06 -8.336504E+04  1.985115E+04
       110   4 -2.513205E+06 -7.037137E+05 -4.413991E+05 -8.622535E+05 -2.858810E+05 -9.114543E+04
       110   5 -2.430347E+06 -3.387137E+05 -1.876679E+05 -9.536769E+05 -1.958860E+05 -2.211649E+04
       110   6 -2.465436E+06 -3.716248E+05 -1.097473E+05 -9.873428E+05 -9.414252E+04  1.579438E+04
       110   7 -1.462017E+06 -1.781143E+05 -1.324948E+05 -4.441881E+05 -2.551526E+05 -7.960787E+04
       110   8 -1.399837E+06  8.829883E+04  8.263972E+04 -6.300209E+05 -1.859116E+05 -1.837605E+04
       110   9 -1.451212E+06 -3.864878E+04  1.386841E+05 -7.581518E+05 -1.049392E+05  1.173245E+04
       110  10 -3.563385E+06 -1.229014E+06 -7.506149E+05 -1.279620E+06  1.073989E-09  4.263216E-10
       110  11 -3.459856E+06 -7.656037E+05 -4.581474E+05 -1.276826E+06  2.639156E-09  2.512685E-09
       110  12 -3.478662E+06 -7.045922E+05 -3.582691E+05 -1.216219E+06  1.463806E-09  1.662361E-10
       110  13 -2.513295E+06 -7.037447E+05 -4.415690E+05 -8.622746E+05  2.735893E-09  2.750613E-10
       110  14 -2.430388E+06 -3.387246E+05 -1.877412E+05 -9.536804E+05  4.588236E-09  1.023979E-09
       110  15 -2.465445E+06 -3.716275E+05 -1.097645E+05 -9.873416E+05  9.558052E-10  4.195877E-10
       110  16 -1.462088E+06 -1.781386E+05 -1.326294E+05 -4.442045E+05  2.002483E-09  1.625937E-09
       110  17 -1.399874E+06  8.828916E+04  8.257397E+04 -6.300237E+05  3.690388E-09  1.721808E-09
       110  18 -1.451224E+06 -3.865189E+04  1.386631E+05 -7.581508E+05  4.031430E-10  2.008510E-10
       110  19 -3.563274E+06 -1.228975E+06 -7.504054E+05 -1.279594E+06  3.165518E+05  1.026452E+05
       110  20 -3.459810E+06 -7.655915E+05 -4.580661E+05 -1.276821E+06  2.058420E+05  2.584837E+04
       110  21 -3.478655E+06 -7.045899E+05 -3.582553E+05 -1.216220E+06  8.336504E+04 -1.985115E+04
       110  22 -2.513205E+06 -7.037137E+05 -4.413991E+05 -8.622535E+05  2.858810E+05  9.114543E+04
       110  23 -2.430347E+06 -3.387137E+05 -1.876679E+05 -9.536769E+05  1.958860E+05  2.211649E+04
       110  24 -2.465436E+06 -3.716248E+05 -1.097473E+05 -9.873428E+05  9.414252E+04 -1.579438E+04
       110  25 -1.462017E+06 -1.781143E+05 -1.324948E+05 -4.441881E+05  2.551526E+05  7.960787E+04
       110  26 -1.399837E+06  8.829883E+04  8.263972E+04 -6.300209E+05  1.859116E+05  1.837605E+04
       110  27 -1.451212E+06 -3.864878E+04  1.386841E+05 -7.581518E+05  1.049392E+05 -1.173245E+04
       111   1 -3.336084E+06 -7.535160E+05 -3.157817E+05 -1.216025E+06 -7.574714E+04  1.541572E+04
       111   2 -3.261419E+06 -6.685221E+05 -2.483740E+05 -1.174230E+06 -5.103252E+04  2.163014E+04
       111   3 -3.164709E+06 -6.500905E+05 -2.068361E+05 -1.166475E+06 -2.565529E+04  2.607734E+04
       111   4 -2.450581E+06 -4.123076E+05 -8.817960E+04 -9.646487E+05 -7.702912E+04  1.492759E+04
       111   5 -2.459765E+06 -3.656389E+05 -4.399250E+04 -9.526863E+05 -5.346857E+04  2.071071E+04
       111   6 -2.446664E+06 -3.852740E+05 -2.472791E+04 -9.747665E+05 -2.924941E+04  2.472579E+04
       111   7 -1.564304E+06 -7.103536E+04  1.393587E+05 -7.129402E+05 -7.831305E+04  1.443868E+04
       111   8 -1.657478E+06 -6.271065E+04  1.603372E+05 -7.308804E+05 -5.590805E+04  1.978996E+04
       111   9 -1.728114E+06 -1.204284E+05  1.573388E+05 -7.828583E+05 -3.284809E+04  2.337258E+04
       111  10 -3.336091E+06 -7.535178E+05 -3.157930E+05 -1.216024E+06 -2.096378E-09 -9.506714E-10
       111  11 -3.261422E+06 -6.685233E+05 -2.483798E+05 -1.174229E+06 -7.148867E-10  5.779846E-10
       111  12 -3.164710E+06 -6.500914E+05 -2.068386E+05 -1.166474E+06  2.970779E-09  4.816703E-10
       111  13 -2.450588E+06 -4.123094E+05 -8.819121E+04 -9.646478E+05 -2.383896E-10 -2.234884E-10
       111  14 -2.459768E+06 -3.656401E+05 -4.399869E+04 -9.526854E+05  2.349224E-09  9.142657E-10
       111  15 -2.446665E+06 -3.852749E+05 -2.473067E+04 -9.747659E+05  1.419591E-09  6.229845E-10
       111  16 -1.564311E+06 -7.103723E+04  1.393468E+05 -7.129393E+05  1.770400E-09  8.745487E-10
       111  17 -1.657481E+06 -6.271191E+04  1.603305E+05 -7.308795E+05  2.019455E-09  3.472772E-10
       111  18 -1.728115E+06 -1.204293E+05  1.573358E+05 -7.828577E+05  1.607593E-09  6.256916E-10
       111  19 -3.336084E+06 -7.535160E+05 -3.157817E+05 -1.216025E+06  7.574714E+04 -1.541572E+04
       111  20 -3.261419E+06 -6.685221E+05 -2.483740E+05 -1.174230E+06  5.103252E+04 -2.163014E+04
       111  21 -3.164709E+06 -6.500905E+05 -2.068361E+05 -1.166475E+06  2.565529E+04 -2.607734E+04
       111  22 -2.450581E+06 -4.123076E+05 -8.817960E+04 -9.646487E+05  7.702912E+04 -1.492759E+04
       111  23 -2.459765E+06 -3.656389E+05 -4.399250E+04 -9.526863E+05  5.346857E+04 -2.071071E+04
       111  24 -2.446664E+06 -3.852740E+05 -2.472791E+04 -9.747665E+05  2.924941E+04 -2.472579E+04
       111  25 -1.564304E+06 -7.103536E+04  1.393587E+05 -7.129402E+05  7.831305E+04 -1.443868E+04
       111  26 -1.657478E+06 -6.271065E+04  1.603372E+05 -7.308804E+05  5.590805E+04 -1.978996E+04
       111  27 -1.728114E+06 -1.204284E+05  1.573388E+05 -7.828583E+05  3.284809E+04 -2.337258E+04
       112   1 -3.066758E+06 -6.221206E+05 -1.769644E+05 -1.143473E+06 -2.150305E+04  2.424103E+04
       112   2 -2.991563E+06 -5.652893E+05 -1.445590E+05 -1.096274E+06 -1.450112E+04  2.145950E+04
       112   3 -2.879664E+06 -5.490911E+05 -1.166772E+05 -1.092286E+06 -7.442399E+03  1.851461E+04
       112   4 -2.444744E+06 -3.888772E+05 -1.903028E+04 -9.732943E+05 -2.464013E+04  2.306220E+04
       112   5 -2.462929E+06 -3.674572E+05 -1.018654E+04 -9.520979E+05 -1.774252E+04  2.024319E+04
       112   6 -2.444396E+06 -3.866464E+05 -5.779312E+03 -9.741148E+05 -1.078899E+04  1.726060E+04
       112   7 -1.822353E+06 -1.556095E+05  1.388720E+05 -8.029607E+05 -2.778065E+04  2.188207E+04
       112   8 -1.934020E+06 -1.696072E+05  1.241634E+05 -8.078105E+05 -2.098695E+04  1.902574E+04
       112   9 -2.008941E+06 -2.241893E+05  1.051037E+05 -8.558680E+05 -1.413817E+04  1.600562E+04
       112  10 -3.066759E+06 -6.221213E+05 -1.769664E+05 -1.143473E+06  3.521013E-09  8.464972E-11
       112  11 -2.991563E+06 -5.652898E+05 -1.445603E+05 -1.096273E+06  5.606953E-10  6.269072E-11
       112  12 -2.879664E+06 -5.490915E+05 -1.166779E+05 -1.092286E+06 -2.778430E-09 -7.883265E-10
       112  13 -2.444745E+06 -3.888780E+05 -1.903242E+04 -9.732938E+05  7.320935E-10  7.945982E-10
       112  14 -2.462929E+06 -3.674578E+05 -1.018790E+04 -9.520976E+05 -8.690771E-10  4.157716E-10
       112  15 -2.444396E+06 -3.866468E+05 -5.780090E+03 -9.741147E+05 -3.500244E-09 -4.295587E-10
       112  16 -1.822354E+06 -1.556102E+05  1.388696E+05 -8.029602E+05  1.421114E-09  1.233165E-09
       112  17 -1.934020E+06 -1.696077E+05  1.241619E+05 -8.078102E+05 -1.866739E-09  3.683434E-10
       112  18 -2.008941E+06 -2.241896E+05  1.051028E+05 -8.558679E+05 -3.986206E-09 -1.794877E-09
       112  19 -3.066758E+06 -6.221206E+05 -1.769644E+05 -1.143473E+06  2.150305E+04 -2.424103E+04
       112  20 -2.991563E+06 -5.652893E+05 -1.445590E+05 -1.096274E+06  1.450112E+04 -2.145950E+04
       112  21 -2.879664E+06 -5.490911E+05 -1.166772E+05 -1.092286E+06  7.442399E+03 -1.851461E+04
       112  22 -2.444744E+06 -3.888772E+05 -1.903028E+04 -9.732943E+05  2.464013E+04 -2.306220E+04
       112  23 -2.462929E+06 -3.674572E+05 -1.018654E+04 -9.520979E+05  1.774252E+04 -2.024319E+04
       112  24 -2.444396E+06 -3.866464E+05 -5.779312E+03 -9.741148E+05  1.078899E+04 -1.726060E+04
       112  25 -1.822353E+06 -1.556095E+05  1.388720E+05 -8.029607E+05  2.778065E+04 -2.188207E+04
       112  26 -1.934020E+06 -1.696072E+05  1.241634E+05 -8.078105E+05  2.098695E+04 -1.902574E+04
       112  27 -2.008941E+06 -2.241893E+05  1.051037E+05 -8.558680E+05  1.413817E+04 -1.600562E+04
       113   1 -2.782137E+06 -5.135017E+05 -9.008024E+04 -1.066373E+06 -5.509698E+03  1.592478E+04
       113   2 -2.704950E+06 -4.575473E+05 -6.417165E+04 -1.017488E+06 -2.202097E+03  1.145510E+04
       113   3 -2.588734E+06 -4.410841E+05 -3.938368E+04 -1.013685E+06  1.117961E+03  6.945788E+03
       113   4 -2.443967E+06 -3.871401E+05 -4.501009E+03 -9.742431E+05 -8.859583E+03  1.467035E+04
       113   5 -2.463457E+06 -3.672953E+05 -2.820486E+03 -9.517360E+05 -5.577829E+03  1.019177E+04
       113   6 -2.443924E+06 -3.869354E+05 -2.239167E+03 -9.743131E+05 -2.283900E+03  5.673525E+03
       113   7 -2.105685E+06 -2.607709E+05  8.106930E+04 -8.820674E+05 -1.221148E+04  1.341517E+04
       113   8 -2.221909E+06 -2.770403E+05  5.852558E+04 -8.859612E+05 -8.954981E+03  8.927904E+03
       113   9 -2.299096E+06 -3.327863E+05  3.490306E+04 -9.349331E+05 -5.686580E+03  4.400957E+03
       113  10 -2.782137E+06 -5.135020E+05 -9.008077E+04 -1.066373E+06 -4.230044E-09 -1.591906E-09
       113  11 -2.704950E+06 -4.575474E+05 -6.417190E+04 -1.017488E+06  2.725931E-12 -1.743541E-10
       113  12 -2.588734E+06 -4.410841E+05 -3.938377E+04 -1.013685E+06  2.418310E-10  3.456622E-10
       113  13 -2.443968E+06 -3.871404E+05 -4.501560E+03 -9.742430E+05 -3.864194E-09 -1.221534E-09
       113  14 -2.463457E+06 -3.672955E+05 -2.820740E+03 -9.517359E+05 -7.425729E-10 -1.217919E-09
       113  15 -2.443924E+06 -3.869355E+05 -2.239238E+03 -9.743131E+05  1.388612E-09  2.090870E-09
       113  16 -2.105685E+06 -2.607711E+05  8.106868E+04 -8.820672E+05 -1.708297E-09 -7.224703E-10
       113  17 -2.221909E+06 -2.770404E+05  5.852528E+04 -8.859611E+05 -3.929607E-10 -7.324861E-11
       113  18 -2.299096E+06 -3.327864E+05  3.490296E+04 -9.349331E+05  1.641515E-09  1.662242E-09
       113  19 -2.782137E+06 -5.135017E+05 -9.008024E+04 -1.066373E+06  5.509698E+03 -1.592478E+04
       113  20 -2.704950E+06 -4.575473E+05 -6.417165E+04 -1.017488E+06  2.202097E+03 -1.145510E+04
       113  21 -2.588734E+06 -4.410841E+05 -3.938368E+04 -1.013685E+06 -1.117961E+03 -6.945788E+03
       113  22 -2.443967E+06 -3.871401E+05 -4.501009E+03 -9.742431E+05  8.859583E+03 -1.467035E+04
       113  23 -2.463457E+06 -3.672953E+05 -2.820486E+03 -9.517360E+05  5.577829E+03 -1.019177E+04
       113  24 -2.443924E+06 -3.869354E+05 -2.239167E+03 -9.743131E+05  2.283900E+03 -5.673525E+03
       113  25 -2.105685E+06 -2.607709E+05  8.106930E+04 -8.820674E+05  1.221148E+04 -1.341517E+04
       113  26 -2.221909E+06 -2.770403E+05  5.852558E+04 -8.859612E+05  8.954981E+03 -8.927904E+03
       113  27 -2.299096E+06 -3.327863E+05  3.490306E+04 -9.349331E+05  5.686580E+03 -4.400957E+03
       114   1 -2.489821E+06 -4.041503E+05 -1.357827E+04 -9.869668E+05  2.601233E+03  4.134688E+03
       114   2 -2.412015E+06 -3.479836E+05  1.016791E+04 -9.376571E+05  5.939092E+03 -3.948007E+02
       114   3 -2.294946E+06 -3.316034E+05  3.277432E+04 -9.337866E+05  9.273165E+03 -4.911643E+03
       114   4 -2.443869E+06 -3.870024E+05 -2.258546E+03 -9.743915E+05 -8.084566E+02  2.859707E+03
       114   5 -2.463507E+06 -3.671885E+05 -2.904607E+03 -9.516398E+05  2.537394E+03 -1.667019E+03
       114   6 -2.443894E+06 -3.871643E+05 -4.696636E+03 -9.743323E+05  5.879193E+03 -6.181146E+03
       114   7 -2.397914E+06 -3.698542E+05  9.061231E+03 -9.618151E+05 -4.218466E+03  1.584606E+03
       114   8 -2.514998E+06 -3.863933E+05 -1.597744E+04 -9.656217E+05 -8.640313E+02 -2.939136E+03
       114   9 -2.592823E+06 -4.427243E+05 -4.216968E+04 -1.014869E+06  2.486084E+03 -7.450327E+03
       114  10 -2.489821E+06 -4.041503E+05 -1.357832E+04 -9.869668E+05 -4.200283E-10 -2.539032E-10
       114  11 -2.412015E+06 -3.479836E+05  1.016784E+04 -9.376571E+05 -4.500199E-09 -1.196363E-09
       114  12 -2.294946E+06 -3.316034E+05  3.277412E+04 -9.337865E+05 -4.709957E-09 -8.679131E-10
       114  13 -2.443869E+06 -3.870024E+05 -2.258562E+03 -9.743915E+05 -2.177431E-10 -8.694115E-10
       114  14 -2.463507E+06 -3.671885E+05 -2.904624E+03 -9.516398E+05 -1.474065E-09 -6.324248E-10
       114  15 -2.443894E+06 -3.871643E+05 -4.696772E+03 -9.743322E+05 -3.450363E-09 -5.182340E-10
       114  16 -2.397914E+06 -3.698542E+05  9.061193E+03 -9.618151E+05 -2.985975E-09 -6.079686E-10
       114  17 -2.514998E+06 -3.863934E+05 -1.597746E+04 -9.656217E+05 -3.593915E-09 -2.381922E-09
       114  18 -2.592823E+06 -4.427243E+05 -4.216980E+04 -1.014869E+06  1.163647E-09  2.068986E-10
       114  19 -2.489821E+06 -4.041503E+05 -1.357827E+04 -9.869668E+05 -2.601233E+03 -4.134688E+03
       114  20 -2.412015E+06 -3.479836E+05  1.016791E+04 -9.376571E+05 -5.939092E+03  3.948007E+02
       114  21 -2.294946E+06 -3.316034E+05  3.277432E+04 -9.337866E+05 -9.273165E+03  4.911643E+03
       114  22 -2.443869E+06 -3.870024E+05 -2.258546E+03 -9.743915E+05  8.084566E+02 -2.859707E+03
       114  23 -2.463507E+06 -3.671885E+05 -2.904607E+03 -9.516398E+05 -2.537394E+03  1.667019E+03
       114  24 -2.443894E+06 -3.871643E+05 -4.696636E+03 -9.743323E+05 -5.879193E+03  6.181146E+03
       114  25 -2.397914E+06 -3.698542E+05  9.061231E+03 -9.618151E+05  4.218466E+03 -1.584606E+03
       114  26 -2.514998E+06 -3.863933E+05 -1.597744E+04 -9.656217E+05  8.640313E+02  2.939136E+03
       114  27 -2.592823E+06 -4.427243E+05 -4.216968E+04 -1.014869E+06 -2.486084E+03  7.450327E+03
       115   1 -2.196670E+06 -2.946559E+05  5.709926E+04 -9.074178E+05  1.126527E+04 -7.525655E+03
       115   2 -2.119881E+06 -2.388537E+05  7.649183E+04 -8.583051E+05  1.842194E+04 -1.054681E+04
       115   3 -2.005723E+06 -2.246443E+05  9.125904E+04 -8.534471E+05  2.553639E+04 -1.344331E+04
       115   4 -2.444221E+06 -3.867926E+05 -6.054286E+03 -9.743647E+05  7.862553E+03 -8.798842E+03
       115   5 -2.463067E+06 -3.671330E+05 -1.067349E+04 -9.518123E+05  1.509917E+04 -1.179120E+04
       115   6 -2.444570E+06 -3.890845E+05 -1.998312E+04 -9.735189E+05  2.229271E+04 -1.465918E+04
       115   7 -2.691709E+06 -4.789242E+05 -6.921173E+04 -1.041286E+06  4.461379E+03 -1.007146E+04
       115   8 -2.806137E+06 -4.954042E+05 -9.784786E+04 -1.045272E+06  1.177842E+04 -1.303483E+04
       115   9 -2.883231E+06 -5.535131E+05 -1.312415E+05 -1.093514E+06  1.905152E+04 -1.587411E+04
       115  10 -2.196670E+06 -2.946560E+05  5.709891E+04 -9.074177E+05  2.826168E-10  1.433422E-09
       115  11 -2.119881E+06 -2.388539E+05  7.649099E+04 -8.583050E+05 -2.710395E-10 -4.320987E-10
       115  12 -2.005724E+06 -2.246446E+05  9.125747E+04 -8.534468E+05 -5.277270E-10 -3.413287E-10
       115  13 -2.444222E+06 -3.867927E+05 -6.054547E+03 -9.743646E+05 -1.709117E-09 -2.280664E-10
       115  14 -2.463068E+06 -3.671332E+05 -1.067418E+04 -9.518122E+05 -2.679178E-09 -1.002067E-09
       115  15 -2.444571E+06 -3.890848E+05 -1.998446E+04 -9.735186E+05 -1.388760E-09 -2.857862E-10
       115  16 -2.691709E+06 -4.789243E+05 -6.921196E+04 -1.041286E+06 -7.263066E-10  5.804848E-10
       115  17 -2.806137E+06 -4.954044E+05 -9.784844E+04 -1.045272E+06  7.204371E-10  2.096731E-10
       115  18 -2.883231E+06 -5.535134E+05 -1.312427E+05 -1.093514E+06  5.710063E-10 -5.574015E-10
       115  19 -2.196670E+06 -2.946559E+05  5.709926E+04 -9.074178E+05 -1.126527E+04  7.525655E+03
       115  20 -2.119881E+06 -2.388537E+05  7.649183E+04 -8.583051E+05 -1.842194E+04  1.054681E+04
       115  21 -2.005723E+06 -2.246443E+05  9.125904E+04 -8.534471E+05 -2.553639E+04  1.344331E+04
       115  22 -2.444221E+06 -3.867926E+05 -6.054286E+03 -9.743647E+05 -7.862553E+03  8.798842E+03
       115  23 -2.463067E+06 -3.671330E+05 -1.067349E+04 -9.518123E+05 -1.509917E+04  1.179120E+04
       115  24 -2.444570E+06 -3.890845E+05 -1.998312E+04 -9.735189E+05 -2.229271E+04  1.465918E+04
       115  25 -2.691709E+06 -4.789242E+05 -6.921173E+04 -1.041286E+06 -4.461379E+03  1.007146E+04
       115  26 -2.806137E+06 -4.954042E+05 -9.784786E+04 -1.045272E+06 -1.177842E+04  1.303483E+04
       115  27 -2.883231E+06 -5.535131E+05 -1.312415E+05 -1.093514E+06 -1.905152E+04  1.587411E+04
       116   1 -1.908377E+06 -1.885682E+05  1.101958E+05 -8.330688E+05  3.074867E+04 -1.495024E+04
       116   2 -1.834671E+06 -1.285792E+05  1.131306E+05 -7.790260E+05  5.517133E+04 -1.109881E+04
       116   3 -1.737992E+06 -1.376506E+05  9.064657E+04 -7.604248E+05  7.903144E+04 -5.723842E+03
       116   4 -2.446456E+06 -3.854520E+05 -2.597638E+04 -9.752371E+05  2.710023E+04 -1.631855E+04
       116   5 -2.459875E+06 -3.649937E+05 -4.618325E+04 -9.522131E+05  5.252198E+04 -1.209500E+04
       116   6 -2.450543E+06 -4.138206E+05 -9.262383E+04 -9.646363E+05  7.737737E+04 -6.349082E+03
       116   7 -2.984251E+06 -5.823205E+05 -1.621716E+05 -1.117295E+06  2.345526E+04 -1.768563E+04
       116   8 -3.084695E+06 -6.013803E+05 -2.055285E+05 -1.125241E+06  4.987555E+04 -1.309008E+04
       116   9 -3.162593E+06 -6.899471E+05 -2.759354E+05 -1.168630E+06  7.572535E+04 -6.973494E+03
       116  10 -1.908378E+06 -1.885687E+05  1.101936E+05 -8.330684E+05 -1.221824E-09 -8.477503E-11
       116  11 -1.834674E+06 -1.285802E+05  1.131247E+05 -7.790255E+05  1.912330E-09 -3.677051E-10
       116  12 -1.737998E+06 -1.376523E+05  9.063475E+04 -7.604244E+05  7.981442E-10  4.480170E-11
       116  13 -2.446457E+06 -3.854525E+05 -2.597826E+04 -9.752367E+05 -2.010940E-09  1.058059E-10
       116  14 -2.459878E+06 -3.649946E+05 -4.618873E+04 -9.522126E+05  6.120502E-10 -2.557987E-10
       116  15 -2.450549E+06 -4.138222E+05 -9.263520E+04 -9.646359E+05 -1.736401E-09 -5.668790E-10
       116  16 -2.984251E+06 -5.823210E+05 -1.621733E+05 -1.117294E+06  6.731645E-10 -3.954341E-10
       116  17 -3.084698E+06 -6.013812E+05 -2.055335E+05 -1.125240E+06 -9.634763E-10 -5.479812E-10
       116  18 -3.162599E+06 -6.899487E+05 -2.759463E+05 -1.168630E+06 -8.362907E-10 -1.014735E-09
       116  19 -1.908377E+06 -1.885682E+05  1.101958E+05 -8.330688E+05 -3.074867E+04  1.495024E+04
       116  20 -1.834671E+06 -1.285792E+05  1.131306E+05 -7.790260E+05 -5.517133E+04  1.109881E+04
       116  21 -1.737992E+06 -1.376506E+05  9.064657E+04 -7.604248E+05 -7.903144E+04  5.723842E+03
       116  22 -2.446456E+06 -3.854520E+05 -2.597638E+04 -9.752371E+05 -2.710023E+04  1.631855E+04
       116  23 -2.459875E+06 -3.649937E+05 -4.618325E+04 -9.522131E+05 -5.252198E+04  1.209500E+04
       116  24 -2.450543E+06 -4.138206E+05 -9.262383E+04 -9.646363E+05 -7.737737E+04  6.349082E+03
       116  25 -2.984251E+06 -5.823205E+05 -1.621716E+05 -1.117295E+06 -2.345526E+04  1.768563E+04
       116  26 -3.084695E+06 -6.013803E+05 -2.055285E+05 -1.125241E+06 -4.987555E+04  1.309008E+04
       116  27 -3.162593E+06 -6.899471E+05 -2.759354E+05 -1.168630E+06 -7.572535E+04  6.973494E+03
       117   1 -1.619297E+06 -1.038101E+05  9.022179E+04 -8.083326E+05  1.050025E+05 -2.852031E+03
       117   2 -1.564084E+06  2.981446E+04  3.131499E+04 -6.732214E+05  1.941542E+05  2.939141E+04
       117   3 -1.628718E+06 -2.512640E+05 -1.978444E+05 -4.783202E+05  2.731608E+05  8.864299E+04
       117   4 -2.466013E+06 -3.712337E+05 -1.152834E+05 -9.886488E+05  9.509195E+04 -6.569285E+03
       117   5 -2.429152E+06 -3.364377E+05 -1.970834E+05 -9.529910E+05  2.022547E+05  3.241802E+04
       117   6 -2.515962E+06 -7.203098E+05 -4.636401E+05 -8.574985E+05  2.992576E+05  9.839664E+04
       117   7 -3.312030E+06 -6.386578E+05 -3.208407E+05 -1.168765E+06  8.519617E+04 -1.028301E+04
       117   8 -3.293478E+06 -7.025810E+05 -4.255453E+05 -1.232385E+06  2.103426E+05  3.543851E+04
       117   9 -3.402384E+06 -1.189047E+06 -7.295055E+05 -1.236106E+06  3.253129E+05  1.081204E+05
       117  10 -1.619309E+06 -1.038131E+05  9.020101E+04 -8.083324E+05  1.117909E-09 -3.312127E-10
       117  11 -1.564124E+06  2.980337E+04  3.124232E+04 -6.732260E+05  1.258488E-09 -1.234403E-09
       117  12 -1.628800E+06 -2.512925E+05 -1.979998E+05 -4.783397E+05  1.402217E-09 -8.946991E-10
       117  13 -2.466023E+06 -3.712362E+05 -1.153005E+05 -9.886483E+05  1.293340E-09 -7.208925E-10
       117  14 -2.429196E+06 -3.364499E+05 -1.971626E+05 -9.529963E+05 -1.967247E-09  1.340014E-09
       117  15 -2.516061E+06 -7.203444E+05 -4.638274E+05 -8.575223E+05 -8.593623E-10  4.181637E-10
       117  16 -3.312038E+06 -6.386599E+05 -3.208546E+05 -1.168764E+06 -2.448889E-10 -8.092978E-10
       117  17 -3.293526E+06 -7.025944E+05 -4.256313E+05 -1.232391E+06 -9.109555E-11  2.697253E-10
       117  18 -3.402501E+06 -1.189088E+06 -7.297277E+05 -1.236135E+06  1.739095E-09 -4.805440E-10
       117  19 -1.619297E+06 -1.038101E+05  9.022179E+04 -8.083326E+05 -1.050025E+05  2.852031E+03
       117  20 -1.564084E+06  2.981446E+04  3.131499E+04 -6.732214E+05 -1.941542E+05 -2.939141E+04
       117  21 -1.628718E+06 -2.512640E+05 -1.978444E+05 -4.783202E+05 -2.731608E+05 -8.864299E+04
       117  22 -2.466013E+06 -3.712337E+05 -1.152834E+05 -9.886488E+05 -9.509195E+04  6.569285E+03
       117  23 -2.429152E+06 -3.364377E+05 -1.970834E+05 -9.529910E+05 -2.022547E+05 -3.241802E+04
       117  24 -2.515962E+06 -7.203098E+05 -4.636401E+05 -8.574985E+05 -2.992576E+05 -9.839664E+04
       117  25 -3.312030E+06 -6.386578E+05 -3.208407E+05 -1.168765E+06 -8.519617E+04  1.028301E+04
       117  26 -3.293478E+06 -7.025810E+05 -4.255453E+05 -1.232385E+06 -2.103426E+05 -3.543851E+04
       117  27 -3.402384E+06 -1.189047E+06 -7.295055E+05 -1.236106E+06 -3.253129E+05 -1.081204E+05
       118   1 -4.507185E+05  7.787571E+03  4.354115E+04  3.237274E+04  1.072217E+05  6.708253E+03
       118   2 -4.256934E+05 -1.340130E+05 -3.669515E+04  4.146613E+03  7.467619E+04  2.038909E+04
       118   3 -3.574106E+05 -1.205513E+05 -5.687423E+04 -4.802744E+04  4.213897E+04  2.020020E+04
       118   4  1.001652E+05  1.447776E+05  1.781652E+05 -2.664129E+04  1.221565E+05  6.710467E+03
       118   5  7.769575E+04 -1.007637E+04  7.963624E+04 -1.461163E+04  7.959464E+04  2.038890E+04
       118   6  1.001804E+05 -8.003445E+03  4.808325E+04 -2.652765E+04  3.704439E+04  2.019839E+04
       118   7  6.513338E+05  2.817585E+05  3.127698E+05 -8.570788E+04  1.371045E+05  6.709844E+03
       118   8  5.813200E+05  1.138439E+05  1.959510E+05 -3.338525E+04  8.451703E+04  2.038841E+04
       118   9  5.579663E+05  1.045316E+05  1.530273E+05 -5.011900E+03  3.194607E+04  2.019622E+04
       118  10 -4.507309E+05  7.784434E+03  4.351945E+04  3.237216E+04 -4.601030E-10  1.518726E-10
       118  11 -4.256995E+05 -1.340150E+05 -3.670642E+04  4.145387E+03 -2.202460E-10 -6.027738E-10
       118  12 -3.574126E+05 -1.205522E+05 -5.687833E+04 -4.802812E+04 -2.327118E-09  2.113638E-10
       118  13  1.001492E+05  1.447736E+05  1.781370E+05 -2.664195E+04 -2.154142E-09 -1.161374E-10
       118  14  7.768883E+04 -1.007851E+04  7.962356E+04 -1.461294E+04  1.098302E-09 -1.145979E-09
       118  15  1.001788E+05 -8.004252E+03  4.807991E+04 -2.652825E+04  1.523723E-10  5.884724E-10
       118  16  6.513136E+05  2.817534E+05  3.127344E+05 -8.570862E+04  3.042293E-10 -2.859939E-10
       118  17  5.813122E+05  1.138415E+05  1.959368E+05 -3.338664E+04  1.404612E-09 -3.230873E-10
       118  18  5.579651E+05  1.045309E+05  1.530246E+05 -5.012420E+03 -7.657026E-10  7.685193E-10
       118  19 -4.507185E+05  7.787571E+03  4.354115E+04  3.237274E+04 -1.072217E+05 -6.708253E+03
       118  20 -4.256934E+05 -1.340130E+05 -3.669515E+04  4.146613E+03 -7.467619E+04 -2.038909E+04
       118  21 -3.574106E+05 -1.205513E+05 -5.687423E+04 -4.802744E+04 -4.213897E+04 -2.020020E+04
       118  22  1.001652E+05  1.447776E+05  1.781652E+05 -2.664129E+04 -1.221565E+05 -6.710467E+03
       118  23  7.769575E+04 -1.007637E+04  7.963624E+04 -1.461163E+04 -7.959464E+04 -2.038890E+04
       118  24  1.001804E+05 -8.003445E+03  4.808325E+04 -2.652765E+04 -3.704439E+04 -2.019839E+04
       118  25  6.513338E+05  2.817585E+05  3.127698E+05 -8.570788E+04 -1.371045E+05 -6.709844E+03
       118  26  5.813200E+05  1.138439E+05  1.959510E+05 -3.338525E+04 -8.451703E+04 -2.038841E+04
       118  27  5.579663E+05  1.045316E+05  1.530273E+05 -5.011900E+03 -3.194607E+04 -2.019622E+04
       119   1 -3.217812E+05 -9.085486E+04 -5.647193E+04 -2.307098E+04  3.075934E+04  1.723426E+04
       119   2 -2.775761E+05 -9.110535E+04 -6.383530E+04 -1.363492E+04  2.091703E+04  1.573163E+04
       119   3 -2.290153E+05 -7.942488E+04 -6.178564E+04 -2.848079E+04  1.107325E+04  1.354525E+04
       119   4  9.118467E+04  1.078365E+04  3.870855E+04 -2.663462E+04  2.993957E+04  1.723302E+04
       119   5  8.897056E+04 -9.323241E+02  2.043914E+04 -1.449283E+04  1.959883E+04  1.573071E+04
       119   6  9.119420E+04 -6.348649E+02  1.192437E+04 -2.663191E+04  9.257339E+03  1.354476E+04
       119   7  5.043083E+05  1.124103E+05  1.338777E+05 -3.020067E+04  2.911927E+04  1.723178E+04
       119   8  4.556416E+05  8.923133E+04  1.047047E+05 -1.535126E+04  1.827986E+04  1.572980E+04
       119   9  4.114986E+05  7.814800E+04  8.562760E+04 -2.478207E+04  7.440502E+03  1.354426E+04
       119  10 -3.217823E+05 -9.085544E+04 -5.647427E+04 -2.307141E+04 -1.608972E-10 -3.289171E-10
       119  11 -2.775767E+05 -9.110574E+04 -6.383658E+04 -1.363518E+04  2.922789E-10 -8.353464E-10
       119  12 -2.290155E+05 -7.942511E+04 -6.178622E+04 -2.848091E+04 -1.035423E-09 -4.113437E-10
       119  13  9.118363E+04  1.078309E+04  3.870631E+04 -2.663504E+04 -1.077196E-09  4.066287E-10
       119  14  8.897008E+04 -9.326929E+02  2.043795E+04 -1.449308E+04  2.169247E-09 -4.997033E-10
       119  15  9.119406E+04 -6.350849E+02  1.192386E+04 -2.663201E+04 -2.443395E-09 -5.639781E-10
       119  16  5.043073E+05  1.124097E+05  1.338756E+05 -3.020107E+04 -1.949065E-09  1.240041E-09
       119  17  4.556412E+05  8.923097E+04  1.047036E+05 -1.535149E+04 -8.102803E-10 -2.155804E-10
       119  18  4.114985E+05  7.814779E+04  8.562715E+04 -2.478215E+04  9.724975E-10 -6.938144E-10
       119  19 -3.217812E+05 -9.085486E+04 -5.647193E+04 -2.307098E+04 -3.075934E+04 -1.723426E+04
       119  20 -2.775761E+05 -9.110535E+04 -6.383530E+04 -1.363492E+04 -2.091703E+04 -1.573163E+04
       119  21 -2.290153E+05 -7.942488E+04 -6.178564E+04 -2.848079E+04 -1.107325E+04 -1.354525E+04
       119  22  9.118467E+04  1.078365E+04  3.870855E+04 -2.663462E+04 -2.993957E+04 -1.723302E+04
       119  23  8.897056E+04 -9.323241E+02  2.043914E+04 -1.449283E+04 -1.959883E+04 -1.573071E+04
       119  24  9.119420E+04 -6.348649E+02  1.192437E+04 -2.663191E+04 -9.257339E+03 -1.354476E+04
       119  25  5.043083E+05  1.124103E+05  1.338777E+05 -3.020067E+04 -2.911927E+04 -1.723178E+04
       119  26  4.556416E+05  8.923133E+04  1.047047E+05 -1.535126E+04 -1.827986E+04 -1.572980E+04
       119  27  4.114986E+05  7.814800E+04  8.562760E+04 -2.478207E+04 -7.440502E+03 -1.354426E+04
       120   1 -1.854740E+05 -6.707137E+04 -5.406328E+04 -2.656012E+04  9.001935E+03  1.213276E+04
       120   2 -1.394530E+05 -5.656126E+04 -4.758780E+04 -1.453688E+04  6.461050E+03  9.884981E+03
       120   3 -9.284436E+04 -4.512806E+04 -3.922169E+04 -2.678880E+04  3.919124E+03  7.604287E+03
       120   4  9.034532E+04  7.504995E+02  9.208299E+03 -2.663119E+04  7.397767E+03  1.213246E+04
       120   5  9.005378E+04 -1.091894E+02  5.156899E+03 -1.449395E+04  4.832075E+03  9.884956E+03
       120   6  9.035109E+04 -4.183720E+01  3.012558E+03 -2.663131E+04  2.265526E+03  7.604540E+03
       120   7  3.662351E+05  6.856707E+04  7.247487E+04 -2.670230E+04  5.792892E+03  1.213217E+04
       120   8  3.196093E+05  5.633920E+04  5.789813E+04 -1.445101E+04  3.202501E+03  9.884931E+03
       120   9  2.735776E+05  4.504204E+04  4.524459E+04 -2.647377E+04  6.114444E+02  7.604793E+03
       120  10 -1.854741E+05 -6.707155E+04 -5.406371E+04 -2.656020E+04 -1.785880E-09 -2.171458E-12
       120  11 -1.394531E+05 -5.656137E+04 -4.758806E+04 -1.453693E+04  1.539180E-09 -1.203259E-10
       120  12 -9.284439E+04 -4.512812E+04 -3.922183E+04 -2.678882E+04  7.437324E-10 -1.442504E-10
       120  13  9.034522E+04  7.503267E+02  9.207919E+03 -2.663127E+04  1.081758E-09 -3.233289E-10
       120  14  9.005372E+04 -1.093006E+02  5.156671E+03 -1.449399E+04 -5.281513E-10 -2.522795E-10
       120  15  9.035106E+04 -4.190068E+01  3.012439E+03 -2.663132E+04  9.449844E-10 -2.143277E-10
       120  16  3.662350E+05  6.856690E+04  7.247453E+04 -2.670236E+04  1.772287E-09 -6.713446E-10
       120  17  3.196093E+05  5.633909E+04  5.789792E+04 -1.445104E+04 -1.768496E-09 -2.678447E-10
       120  18  2.735776E+05  4.504197E+04  4.524448E+04 -2.647377E+04 -1.083091E-09  1.042513E-10
       120  19 -1.854740E+05 -6.707137E+04 -5.406328E+04 -2.656012E+04 -9.001935E+03 -1.213276E+04
       120  20 -1.394530E+05 -5.656126E+04 -4.758780E+04 -1.453688E+04 -6.461050E+03 -9.884981E+03
       120  21 -9.284436E+04 -4.512806E+04 -3.922169E+04 -2.678880E+04 -3.919124E+03 -7.604287E+03
       120  22  9.034532E+04  7.504995E+02  9.208299E+03 -2.663119E+04 -7.397767E+03 -1.213246E+04
       120  23  9.005378E+04 -1.091894E+02  5.156899E+03 -1.449395E+04 -4.832075E+03 -9.884956E+03
       120  24  9.035109E+04 -4.183720E+01  3.012558E+03 -2.663131E+04 -2.265526E+03 -7.604540E+03
       120  25  3.662351E+05  6.856707E+04  7.247487E+04 -2.670230E+04 -5.792892E+03 -1.213217E+04
       120  26  3.196093E+05  5.633920E+04  5.789813E+04 -1.445101E+04 -3.202501E+03 -9.884931E+03
       120  27  2.735776E+05  4.504204E+04  4.524459E+04 -2.647377E+04 -6.114444E+02 -7.604793E+03
       121   1 -4.860995E+04 -3.407450E+04 -2.945021E+04 -2.664648E+04  3.428063E+03  6.270299E+03
       121   2 -2.375466E+03 -2.277827E+04 -1.986840E+04 -1.451273E+04  2.733733E+03  3.987576E+03
       121   3  4.396040E+04 -1.139789E+04 -9.816428E+03 -2.663474E+04  2.039018E+03  1.703588E+03
       121   4  9.024586E+04  5.091316E+01  2.323439E+03 -2.662704E+04  1.785131E+03  6.270672E+03
       121   5  9.019724E+04 -1.005783E+01  1.404133E+03 -1.449928E+04  1.089692E+03  3.988053E+03
       121   6  9.024815E+04  1.341035E+01  9.557508E+02 -2.662706E+04  3.939206E+02  1.704178E+03
       121   7  2.291195E+05  3.417498E+04  3.409583E+04 -2.660759E+04  1.418334E+02  6.271044E+03
       121   8  1.827779E+05  2.275755E+04  2.267611E+04 -1.448582E+04 -5.545911E+02  3.988531E+03
       121   9  1.365379E+05  1.142456E+04  1.172779E+04 -2.661937E+04 -1.251298E+03  1.704769E+03
       121  10 -4.860997E+04 -3.407454E+04 -2.945030E+04 -2.664649E+04 -4.308540E-10  2.017301E-10
       121  11 -2.375479E+03 -2.277828E+04 -1.986844E+04 -1.451274E+04  1.149484E-09  1.173144E-09
       121  12  4.396040E+04 -1.139790E+04 -9.816441E+03 -2.663474E+04 -1.177125E-10  7.332878E-10
       121  13  9.024584E+04  5.087008E+01  2.323360E+03 -2.662704E+04 -1.108410E-09  3.175176E-10
       121  14  9.019724E+04 -1.007523E+01  1.404101E+03 -1.449928E+04  1.073750E-09  3.028285E-10
       121  15  9.024815E+04  1.340719E+01  9.557450E+02 -2.662706E+04 -2.546835E-09  3.157783E-10
       121  16  2.291195E+05  3.417494E+04  3.409576E+04 -2.660759E+04  1.065687E-09 -3.441823E-10
       121  17  1.827779E+05  2.275754E+04  2.267608E+04 -1.448582E+04  1.008962E-09  1.009340E-10
       121  18  1.365379E+05  1.142456E+04  1.172779E+04 -2.661937E+04  7.873426E-10  1.497631E-10
       121  19 -4.860995E+04 -3.407450E+04 -2.945021E+04 -2.664648E+04 -3.428063E+03 -6.270299E+03
       121  20 -2.375466E+03 -2.277827E+04 -1.986840E+04 -1.451273E+04 -2.733733E+03 -3.987576E+03
       121  21  4.396040E+04 -1.139789E+04 -9.816428E+03 -2.663474E+04 -2.039018E+03 -1.703588E+03
       121  22  9.024586E+04  5.091316E+01  2.323439E+03 -2.662704E+04 -1.785131E+03 -6.270672E+03
       121  23  9.019724E+04 -1.005783E+01  1.404133E+03 -1.449928E+04 -1.089692E+03 -3.988053E+03
       121  24  9.024815E+04  1.341035E+01  9.557508E+02 -2.662706E+04 -3.939206E+02 -1.704178E+03
       121  25  2.291195E+05  3.417498E+04  3.409583E+04 -2.660759E+04 -1.418334E+02 -6.271044E+03
       121  26  1.827779E+05  2.275755E+04  2.267611E+04 -1.448582E+04  5.545911E+02 -3.988531E+03
       121  27  1.365379E+05  1.142456E+04  1.172779E+04 -2.661937E+04  1.251298E+03 -1.704769E+03
       122   1  8.827455E+04 -4.397705E+02  5.332525E+02 -2.663309E+04  1.875067E+03  3.738820E+02
       122   2  1.345341E+05  1.089968E+04  1.100805E+04 -1.450671E+04  1.465690E+03 -1.909831E+03
       122   3  1.808424E+05  2.228481E+04  2.175633E+04 -2.663330E+04  1.056450E+03 -4.192267E+03
       122   4  9.023706E+04  1.568381E+01  8.482399E+02 -2.662651E+04  2.299900E+02  3.744909E+02
       122   5  9.021290E+04 -2.179630E-01  8.241573E+02 -1.449996E+04 -1.784957E+02 -1.909278E+03
       122   6  9.023597E+04  2.973120E+01  1.073225E+03 -2.662650E+04 -5.868152E+02 -4.191763E+03
       122   7  9.219958E+04  4.711393E+02  1.163237E+03 -2.661992E+04 -1.415092E+03  3.750997E+02
       122   8  4.589350E+04 -1.090025E+04 -9.359857E+03 -1.449322E+04 -1.822565E+03 -1.908726E+03
       122   9 -3.628141E+02 -2.222592E+04 -1.961041E+04 -2.661970E+04 -2.229842E+03 -4.191259E+03
       122  10  8.827455E+04 -4.397716E+02  5.332456E+02 -2.663309E+04  2.428570E-09 -2.605326E-11
       122  11  1.345341E+05  1.089967E+04  1.100804E+04 -1.450671E+04  5.344940E-10 -3.509772E-10
       122  12  1.808424E+05  2.228479E+04  2.175630E+04 -2.663329E+04 -1.223239E-09  5.308876E-10
       122  13  9.023706E+04  1.568365E+01  8.482395E+02 -2.662651E+04  1.042422E-09  4.153113E-10
       122  14  9.021290E+04 -2.218862E-01  8.241504E+02 -1.449996E+04  3.177047E-09 -3.233169E-11
       122  15  9.023596E+04  2.971224E+01  1.073191E+03 -2.662650E+04  1.794293E-09  1.430510E-10
       122  16  9.219957E+04  4.711387E+02  1.163233E+03 -2.661992E+04 -1.318234E-09  7.872020E-11
       122  17  4.589350E+04 -1.090025E+04 -9.359870E+03 -1.449322E+04  1.374447E-09 -2.610786E-10
       122  18 -3.628242E+02 -2.222594E+04 -1.961045E+04 -2.661971E+04  6.994963E-10  6.658934E-10
       122  19  8.827455E+04 -4.397705E+02  5.332525E+02 -2.663309E+04 -1.875067E+03 -3.738820E+02
       122  20  1.345341E+05  1.089968E+04  1.100805E+04 -1.450671E+04 -1.465690E+03  1.909831E+03
       122  21  1.808424E+05  2.228481E+04  2.175633E+04 -2.663330E+04 -1.056450E+03  4.192267E+03
       122  22  9.023706E+04  1.568381E+01  8.482399E+02 -2.662651E+04 -2.299900E+02 -3.744909E+02
       122  23  9.021290E+04 -2.179630E-01  8.241573E+02 -1.449996E+04  1.784957E+02  1.909278E+03
       122  24  9.023597E+04  2.973120E+01  1.073225E+03 -2.662650E+04  5.868152E+02  4.191763E+03
       122  25  9.219958E+04  4.711393E+02  1.163237E+03 -2.661992E+04  1.415092E+03 -3.750997E+02
       122  26  4.589350E+04 -1.090025E+04 -9.359857E+03 -1.449322E+04  1.822565E+03  1.908726E+03
       122  27 -3.628141E+02 -2.222592E+04 -1.961041E+04 -2.661970E+04  2.229842E+03  4.191259E+03
       123   1  2.252231E+05  3.320551E+04  3.244970E+04 -2.658788E+04  8.512814E+02 -5.525439E+03
       123   2  2.714145E+05  4.453193E+04  4.375243E+04 -1.450169E+04 -2.191593E+02 -7.805451E+03
       123   3  3.178493E+05  5.623546E+04  5.584723E+04 -2.667741E+04 -1.289039E+03 -1.005507E+04
       123   4  9.027567E+04 -7.163999E+00  1.308951E+03 -2.662858E+04 -8.018573E+02 -5.525018E+03
       123   5  9.015494E+04 -4.166689E+01  2.105940E+03 -1.449737E+04 -1.850198E+03 -7.805253E+03
       123   6  9.027118E+04  2.971620E+02  3.679761E+03 -2.662851E+04 -2.897899E+03 -1.005508E+04
       123   7 -4.465488E+04 -3.322111E+04 -2.983300E+04 -2.666926E+04 -2.454639E+03 -5.524596E+03
       123   8 -9.107419E+04 -4.461756E+04 -3.954271E+04 -1.449306E+04 -3.480764E+03 -7.805054E+03
       123   9 -1.372590E+05 -5.564475E+04 -4.849111E+04 -2.657963E+04 -4.506173E+03 -1.005509E+04
       123  10  2.252231E+05  3.320548E+04  3.244964E+04 -2.658788E+04  3.019288E-09  6.552403E-10
       123  11  2.714145E+05  4.453187E+04  4.375232E+04 -1.450169E+04 -3.126146E-10 -8.607302E-10
       123  12  3.178492E+05  5.623536E+04  5.584704E+04 -2.667742E+04 -6.717062E-10 -3.621182E-10
       123  13  9.027567E+04 -7.196953E+00  1.308892E+03 -2.662858E+04 -1.048674E-09  2.865912E-10
       123  14  9.015492E+04 -4.173323E+01  2.105819E+03 -1.449739E+04  5.749474E-10 -9.393901E-10
       123  15  9.027114E+04  2.970512E+02  3.679555E+03 -2.662853E+04 -6.891280E-10  2.747015E-11
       123  16 -4.465489E+04 -3.322115E+04 -2.983307E+04 -2.666928E+04  7.335699E-10  9.242697E-10
       123  17 -9.107422E+04 -4.461762E+04 -3.954285E+04 -1.449308E+04  6.180017E-10 -7.319305E-10
       123  18 -1.372590E+05 -5.564486E+04 -4.849133E+04 -2.657966E+04  2.025611E-09  2.372308E-10
       123  19  2.252231E+05  3.320551E+04  3.244970E+04 -2.658788E+04 -8.512814E+02  5.525439E+03
       123  20  2.714145E+05  4.453193E+04  4.375243E+04 -1.450169E+04  2.191593E+02  7.805451E+03
       123  21  3.178493E+05  5.623546E+04  5.584723E+04 -2.667741E+04  1.289039E+03  1.005507E+04
       123  22  9.027567E+04 -7.163999E+00  1.308951E+03 -2.662858E+04  8.018573E+02  5.525018E+03
       123  23  9.015494E+04 -4.166689E+01  2.105940E+03 -1.449737E+04  1.850198E+03  7.805253E+03
       123  24  9.027118E+04  2.971620E+02  3.679761E+03 -2.662851E+04  2.897899E+03  1.005508E+04
       123  25 -4.465488E+04 -3.322111E+04 -2.983300E+04 -2.666926E+04  2.454639E+03  5.524596E+03
       123  26 -9.107419E+04 -4.461756E+04 -3.954271E+04 -1.449306E+04  3.480764E+03  7.805054E+03
       123  27 -1.372590E+05 -5.564475E+04 -4.849111E+04 -2.657963E+04  4.506173E+03  1.005509E+04
       124   1  3.625792E+05  6.664939E+04  6.734842E+04 -2.592018E+04 -1.836552E+03 -1.145942E+04
       124   2  4.080238E+05  7.789604E+04  8.125202E+04 -1.483996E+04 -6.387096E+03 -1.365038E+04
       124   3  4.553316E+05  9.397426E+04  9.933750E+04 -2.803004E+04 -1.093702E+04 -1.521424E+04
       124   4  9.060946E+04 -2.505252E+02  4.745891E+03 -2.663036E+04 -3.639730E+03 -1.145961E+04
       124   5  8.971360E+04 -3.785235E+02  8.096529E+03 -1.449508E+04 -7.736659E+03 -1.365095E+04
       124   6  9.060136E+04  4.247935E+03  1.531580E+04 -2.663081E+04 -1.183263E+04 -1.521504E+04
       124   7 -1.812918E+05 -6.715561E+04 -5.786153E+04 -2.734022E+04 -5.442126E+03 -1.145978E+04
       124   8 -2.285029E+05 -7.866016E+04 -6.506565E+04 -1.415039E+04 -9.085535E+03 -1.365151E+04
       124   9 -2.740059E+05 -8.548769E+04 -6.871472E+04 -2.523240E+04 -1.272772E+04 -1.521585E+04
       124  10  3.625791E+05  6.664925E+04  6.734816E+04 -2.592020E+04 -3.104970E-10 -1.156801E-10
       124  11  4.080237E+05  7.789583E+04  8.125159E+04 -1.484003E+04 -5.804368E-10 -2.990805E-10
       124  12  4.553314E+05  9.397398E+04  9.933684E+04 -2.803018E+04 -2.250164E-09 -4.316797E-10
       124  13  9.060941E+04 -2.506698E+02  4.745619E+03 -2.663039E+04  1.055809E-12  1.499096E-10
       124  14  8.971349E+04 -3.787397E+02  8.096066E+03 -1.449517E+04  5.617558E-10 -3.042988E-10
       124  15  9.060115E+04  4.247649E+03  1.531510E+04 -2.663095E+04  7.964572E-10  2.974283E-12
       124  16 -1.812919E+05 -6.715576E+04 -5.786183E+04 -2.734027E+04 -1.799969E-09  3.853696E-10
       124  17 -2.285030E+05 -7.866038E+04 -6.506616E+04 -1.415049E+04  7.330151E-10 -4.190079E-10
       124  18 -2.740062E+05 -8.548798E+04 -6.871546E+04 -2.523256E+04  5.585454E-10  6.865381E-10
       124  19  3.625792E+05  6.664939E+04  6.734842E+04 -2.592018E+04  1.836552E+03  1.145942E+04
       124  20  4.080238E+05  7.789604E+04  8.125202E+04 -1.483996E+04  6.387096E+03  1.365038E+04
       124  21  4.553316E+05  9.397426E+04  9.933750E+04 -2.803004E+04  1.093702E+04  1.521424E+04
       124  22  9.060946E+04 -2.505252E+02  4.745891E+03 -2.663036E+04  3.639730E+03  1.145961E+04
       124  23  8.971360E+04 -3.785235E+02  8.096529E+03 -1.449508E+04  7.736659E+03  1.365095E+04
       124  24  9.060136E+04  4.247935E+03  1.531580E+04 -2.663081E+04  1.183263E+04  1.521504E+04
       124  25 -1.812918E+05 -6.715561E+04 -5.786153E+04 -2.734022E+04  5.442126E+03  1.145978E+04
       124  26 -2.285029E+05 -7.866016E+04 -6.506565E+04 -1.415039E+04  9.085535E+03  1.365151E+04
       124  27 -2.740059E+05 -8.548769E+04 -6.871472E+04 -2.523240E+04  1.272772E+04  1.521585E+04
       125   1  5.035365E+05  9.743890E+04  1.128759E+05 -1.800414E+04 -9.829131E+03 -1.803669E+04
       125   2  5.404187E+05  1.080094E+05  1.366261E+05 -2.196493E+04 -3.581785E+04 -1.838471E+04
       125   3  5.967329E+05  1.822200E+05  1.932260E+05 -4.982726E+04 -6.181675E+04 -6.028465E+03
       125   4  9.416471E+04 -3.183540E+03  1.902213E+04 -2.653942E+04 -1.464377E+04 -1.803869E+04
       125   5  8.523103E+04 -4.014821E+03  3.148443E+04 -1.460547E+04 -3.146838E+04 -1.838401E+04
       125   6  9.415156E+04  5.722824E+04  7.044914E+04 -2.657283E+04 -4.830100E+04 -6.022247E+03
       125   7 -3.150518E+05 -1.038174E+05 -7.484251E+04 -3.506904E+04 -1.945526E+04 -1.804057E+04
       125   8 -3.697651E+05 -1.160533E+05 -7.367095E+04 -7.251457E+03 -2.712207E+04 -1.838321E+04
       125   9 -4.081982E+05 -6.778001E+04 -5.234518E+04 -3.337277E+03 -3.479616E+04 -6.015016E+03
       125  10  5.035363E+05  9.743853E+04  1.128751E+05 -1.800428E+04  1.574995E-10 -2.769928E-10
       125  11  5.404172E+05  1.080087E+05  1.366231E+05 -2.196546E+04  9.511436E-10  3.211354E-11
       125  12  5.967288E+05  1.822189E+05  1.932188E+05 -4.982756E+04  5.232365E-10  3.742490E-10
       125  13  9.416439E+04 -3.183947E+03  1.902111E+04 -2.653963E+04 -1.136924E-09 -3.006904E-10
       125  14  8.522988E+04 -4.015449E+03  3.148194E+04 -1.460593E+04  5.741183E-10  2.622389E-11
       125  15  9.414904E+04  5.722757E+04  7.044469E+04 -2.657306E+04  9.443429E-10 -2.878086E-10
       125  16 -3.150523E+05 -1.038178E+05 -7.484383E+04 -3.506932E+04  2.551295E-10  7.523595E-10
       125  17 -3.697659E+05 -1.160539E+05 -7.367297E+04 -7.251859E+03 -1.003485E-09 -3.777101E-10
       125  18 -4.081995E+05 -6.778037E+04 -5.234752E+04 -3.337446E+03  6.434153E-10  3.915698E-10
       125  19  5.035365E+05  9.743890E+04  1.128759E+05 -1.800414E+04  9.829131E+03  1.803669E+04
       125  20  5.404187E+05  1.080094E+05  1.366261E+05 -2.196493E+04  3.581785E+04  1.838471E+04
       125  21  5.967329E+05  1.822200E+05  1.932260E+05 -4.982726E+04  6.181675E+04  6.028465E+03
       125  22  9.416471E+04 -3.183540E+03  1.902213E+04 -2.653942E+04  1.464377E+04  1.803869E+04
       125  23  8.523103E+04 -4.014821E+03  3.148443E+04 -1.460547E+04  3.146838E+04  1.838401E+04
       125  24  9.415156E+04  5.722824E+04  7.044914E+04 -2.657283E+04  4.830100E+04  6.022247E+03
       125  25 -3.150518E+05 -1.038174E+05 -7.484251E+04 -3.506904E+04  1.945526E+04  1.804057E+04
       125  26 -3.697651E+05 -1.160533E+05 -7.367095E+04 -7.251457E+03  2.712207E+04  1.838321E+04
       125  27 -4.081982E+05 -6.778001E+04 -5.234518E+04 -3.337277E+03  3.479616E+04  6.015016E+03
       126   1  5.351079E+05  1.434323E+06  5.320613E+05 -2.779681E+05  2.198769E+04  7.046292E+04
       126   2  3.868095E+05  9.614008E+05  3.786452E+05 -1.502469E+05  6.258674E+04  2.363562E+04
       126   3  2.743956E+05  5.039890E+05  2.647042E+05 -2.637858E+05  4.835178E+04 -2.325563E+04
       126   4  2.576256E+04 -6.123231E+05  3.103834E+04 -2.650396E+05  2.207485E+04  2.142994E+04
       126   5 -1.682834E+03 -6.163785E+05  1.366491E+04 -1.444175E+05  6.261889E+04  1.418885E+04
       126   6 -4.529248E+01 -6.119453E+05  8.354236E+03 -2.650877E+05  4.826796E+04  6.848450E+03
       126   7 -4.838912E+05 -2.655151E+06 -4.702822E+05 -2.521513E+05  2.216015E+04 -2.744208E+04
       126   8 -3.903500E+05 -2.191858E+06 -3.514815E+05 -1.386014E+05  6.265091E+04  4.765854E+03
       126   9 -2.745726E+05 -1.726725E+06 -2.480746E+05 -2.663862E+05  4.818393E+04  3.689887E+04
       126  10  5.351061E+05  1.434318E+06  5.320510E+05 -2.779694E+05 -2.494487E-11 -6.612726E-10
       126  11  3.868052E+05  9.613991E+05  3.786368E+05 -1.502481E+05 -4.009216E-12 -3.163385E-09
       126  12  2.743929E+05  5.039878E+05  2.646988E+05 -2.637849E+05 -1.294612E-09 -1.425512E-09
       126  13  2.576191E+04 -6.123238E+05  3.103656E+04 -2.650400E+05 -2.308177E-09 -2.334331E-12
       126  14 -1.687098E+03 -6.163798E+05  1.365717E+04 -1.444182E+05 -1.947105E-09 -2.161013E-09
       126  15 -4.780636E+01 -6.119459E+05  8.349770E+03 -2.650880E+05 -2.796589E-09 -2.821194E-09
       126  16 -4.838919E+05 -2.655152E+06 -4.702845E+05 -2.521508E+05 -5.361834E-10 -9.502358E-11
       126  17 -3.903542E+05 -2.191859E+06 -3.514889E+05 -1.386017E+05 -3.305390E-09  1.083423E-09
       126  18 -2.745755E+05 -1.726727E+06 -2.480815E+05 -2.663876E+05 -1.325387E-09  3.913311E-10
       126  19  5.351079E+05  1.434323E+06  5.320613E+05 -2.779681E+05 -2.198769E+04 -7.046292E+04
       126  20  3.868095E+05  9.614008E+05  3.786452E+05 -1.502469E+05 -6.258674E+04 -2.363562E+04
       126  21  2.743956E+05  5.039890E+05  2.647042E+05 -2.637858E+05 -4.835178E+04  2.325563E+04
       126  22  2.576256E+04 -6.123231E+05  3.103834E+04 -2.650396E+05 -2.207485E+04 -2.142994E+04
       126  23 -1.682834E+03 -6.163785E+05  1.366491E+04 -1.444175E+05 -6.261889E+04 -1.418885E+04
       126  24 -4.529248E+01 -6.119453E+05  8.354236E+03 -2.650877E+05 -4.826796E+04 -6.848450E+03
       126  25 -4.838912E+05 -2.655151E+06 -4.702822E+05 -2.521513E+05 -2.216015E+04  2.744208E+04
       126  26 -3.903500E+05 -2.191858E+06 -3.514815E+05 -1.386014E+05 -6.265091E+04 -4.765854E+03
       126  27 -2.745726E+05 -1.726725E+06 -2.480746E+05 -2.663862E+05 -4.818393E+04 -3.689887E+04
       127   1  1.679663E+05  5.513449E+04  1.606404E+05 -2.677319E+05  2.823882E+04 -8.316804E+03
       127   2  5.077232E+04 -4.102162E+05  5.000315E+04 -1.443500E+05  8.746055E+03 -1.036655E+04
       127   3 -6.322296E+04 -8.759953E+05 -5.890897E+04 -2.648010E+05 -1.123777E+04 -1.242292E+04
       127   4  3.323928E+03 -6.137878E+05  6.585968E+03 -2.656346E+05  2.819644E+04  5.541079E+03
       127   5  7.569489E+02 -6.134188E+05  3.257496E+03 -1.437193E+05  8.700814E+03  3.842133E+03
       127   6  1.343125E+03 -6.137389E+05  1.423504E+03 -2.656410E+05 -1.128667E+04  2.135082E+03
       127   7 -1.613497E+05 -1.282295E+06 -1.474974E+05 -2.635392E+05  2.815412E+04  1.938414E+04
       127   8 -4.926120E+04 -8.165826E+05 -4.349013E+04 -1.430888E+05  8.655595E+03  1.804620E+04
       127   9  6.590451E+04 -3.514183E+05  6.175222E+04 -2.664813E+05 -1.133560E+04  1.669919E+04
       127  10  1.679655E+05  5.513420E+04  1.606387E+05 -2.677317E+05 -2.421059E-09 -5.892471E-10
       127  11  5.077221E+04 -4.102163E+05  5.000280E+04 -1.443499E+05 -1.201194E-09 -7.291215E-10
       127  12 -6.322314E+04 -8.759955E+05 -5.890950E+04 -2.648011E+05 -2.387153E-09  4.091236E-09
       127  13  3.323066E+03 -6.137880E+05  6.584416E+03 -2.656347E+05  1.147707E-09  8.498758E-11
       127  14  7.568636E+02 -6.134188E+05  3.257326E+03 -1.437193E+05  1.437983E-09 -3.097156E-09
       127  15  1.342987E+03 -6.137389E+05  1.423256E+03 -2.656410E+05 -1.451410E-09 -3.218456E-09
       127  16 -1.613507E+05 -1.282296E+06 -1.474996E+05 -2.635396E+05 -4.875455E-10 -9.628738E-10
       127  17 -4.926137E+04 -8.165830E+05 -4.349089E+04 -1.430889E+05  9.210055E-11 -2.186494E-09
       127  18  6.590430E+04 -3.514186E+05  6.175146E+04 -2.664811E+05 -1.875425E-09 -5.294332E-09
       127  19  1.679663E+05  5.513449E+04  1.606404E+05 -2.677319E+05 -2.823882E+04  8.316804E+03
       127  20  5.077232E+04 -4.102162E+05  5.000315E+04 -1.443500E+05 -8.746055E+03  1.036655E+04
       127  21 -6.322296E+04 -8.759953E+05 -5.890897E+04 -2.648010E+05  1.123777E+04  1.242292E+04
       127  22  3.323928E+03 -6.137878E+05  6.585968E+03 -2.656346E+05 -2.819644E+04 -5.541079E+03
       127  23  7.569489E+02 -6.134188E+05  3.257496E+03 -1.437193E+05 -8.700814E+03 -3.842133E+03
       127  24  1.343125E+03 -6.137389E+05  1.423504E+03 -2.656410E+05  1.128667E+04 -2.135082E+03
       127  25 -1.613497E+05 -1.282295E+06 -1.474974E+05 -2.635392E+05 -2.815412E+04 -1.938414E+04
       127  26 -4.926120E+04 -8.165826E+05 -4.349013E+04 -1.430888E+05 -8.655595E+03 -1.804620E+04
       127  27  6.590451E+04 -3.514183E+05  6.175222E+04 -2.664813E+05  1.133560E+04 -1.669919E+04
       128   1 -1.727340E+05 -1.322705E+06 -1.624092E+05 -2.631798E+05 -3.018830E+04 -2.576196E+04
       128   2 -2.882062E+05 -1.784416E+06 -2.721786E+05 -1.422773E+05 -4.616356E+04  6.982583E+03
       128   3 -4.101322E+05 -2.252440E+06 -4.051029E+05 -2.633885E+05 -1.704830E+04  3.980899E+04
       128   4  1.839342E+03 -6.138865E+05  8.033797E+02 -2.652257E+05 -3.027594E+04  1.847853E+03
       128   5  5.865937E+02 -6.135931E+05 -6.943271E+02 -1.442365E+05 -4.614477E+04  2.199449E+03
       128   6 -1.467240E+03 -6.141751E+05 -2.801535E+03 -2.652332E+05 -1.696092E+04  2.658068E+03
       128   7  1.763780E+05  9.539976E+04  1.639855E+05 -2.672734E+05 -3.036370E+04  2.948899E+04
       128   8  2.892827E+05  5.584992E+05  2.706980E+05 -1.461984E+05 -4.612596E+04 -2.592663E+03
       128   9  4.069989E+05  1.026543E+06  3.993076E+05 -2.670808E+05 -1.687346E+04 -3.459099E+04
       128  10 -1.727352E+05 -1.322706E+06 -1.624121E+05 -2.631804E+05 -1.568474E-09 -5.195047E-09
       128  11 -2.882085E+05 -1.784417E+06 -2.721827E+05 -1.422770E+05 -2.733831E-10 -5.543324E-09
       128  12 -4.101329E+05 -2.252442E+06 -4.051064E+05 -2.633880E+05  4.991364E-10  3.552145E-11
       128  13  1.838357E+03 -6.138867E+05  8.016514E+02 -2.652256E+05 -1.797121E-09  1.466581E-10
       128  14  5.843065E+02 -6.135937E+05 -6.983364E+02 -1.442364E+05 -7.757874E-10 -2.739767E-09
       128  15 -1.467551E+03 -6.141752E+05 -2.802088E+03 -2.652331E+05  1.189387E-09 -2.141043E-09
       128  16  1.763767E+05  9.539858E+04  1.639821E+05 -2.672727E+05 -2.685846E-09  3.873797E-09
       128  17  2.892804E+05  5.584986E+05  2.706940E+05 -1.461985E+05 -1.668138E-09  3.066304E-09
       128  18  4.069982E+05  1.026542E+06  3.993048E+05 -2.670813E+05 -4.765921E-10 -9.417812E-10
       128  19 -1.727340E+05 -1.322705E+06 -1.624092E+05 -2.631798E+05  3.018830E+04  2.576196E+04
       128  20 -2.882062E+05 -1.784416E+06 -2.721786E+05 -1.422773E+05  4.616356E+04 -6.982583E+03
       128  21 -4.101322E+05 -2.252440E+06 -4.051029E+05 -2.633885E+05  1.704830E+04 -3.980899E+04
       128  22  1.839342E+03 -6.138865E+05  8.033797E+02 -2.652257E+05  3.027594E+04 -1.847853E+03
       128  23  5.865937E+02 -6.135931E+05 -6.943271E+02 -1.442365E+05  4.614477E+04 -2.199449E+03
       128  24 -1.467240E+03 -6.141751E+05 -2.801535E+03 -2.652332E+05  1.696092E+04 -2.658068E+03
       128  25  1.763780E+05  9.539976E+04  1.639855E+05 -2.672734E+05  3.036370E+04 -2.948899E+04
       128  26  2.892827E+05  5.584992E+05  2.706980E+05 -1.461984E+05  4.612596E+04  2.592663E+03
       128  27  4.069989E+05  1.026543E+06  3.993076E+05 -2.670808E+05  1.687346E+04  3.459099E+04
       129   1 -1.870845E+06 -5.594472E+05 -3.047975E+05 -6.838988E+05 -1.352090E+05 -4.474355E+04
       129   2 -1.825985E+06 -3.582561E+05 -1.789159E+05 -6.824261E+05 -8.749195E+04 -1.428827E+04
       129   3 -1.834061E+06 -3.318798E+05 -1.356323E+05 -6.561248E+05 -3.548486E+04  4.768735E+03
       129   4 -1.492811E+06 -3.615128E+05 -1.919607E+05 -5.241154E+05 -1.240501E+05 -4.056308E+04
       129   5 -1.456850E+06 -2.026340E+05 -8.161193E+04 -5.636575E+05 -8.397583E+04 -1.297068E+04
       129   6 -1.472270E+06 -2.170000E+05 -4.775615E+04 -5.783827E+05 -3.961405E+04  3.218410E+03
       129   7 -1.114632E+06 -1.635256E+05 -7.913744E+04 -3.642312E+05 -1.128839E+05 -3.637729E+04
       129   8 -1.087581E+06 -4.699251E+04  1.568049E+04 -4.448209E+05 -8.045740E+04 -1.165198E+04
       129   9 -1.110349E+06 -1.021194E+05  4.011105E+04 -5.006032E+05 -4.374590E+04  1.667433E+03
       129  10 -1.870865E+06 -5.594543E+05 -3.048358E+05 -6.839036E+05  1.407592E-09  1.284231E-10
       129  11 -1.825993E+06 -3.582584E+05 -1.789307E+05 -6.824272E+05  2.365446E-09  7.529907E-11
       129  12 -1.834063E+06 -3.318802E+05 -1.356347E+05 -6.561246E+05 -3.153024E-10  2.866286E-10
       129  13 -1.492828E+06 -3.615187E+05 -1.919928E+05 -5.241195E+05 -2.526695E-10  1.366505E-10
       129  14 -1.456858E+06 -2.026360E+05 -8.162553E+04 -5.636584E+05  2.364595E-09  5.347871E-10
       129  15 -1.472272E+06 -2.170004E+05 -4.775913E+04 -5.783826E+05  5.510126E-11 -1.203210E-10
       129  16 -1.114646E+06 -1.635305E+05 -7.916392E+04 -3.642345E+05  1.393223E-09 -1.710223E-10
       129  17 -1.087588E+06 -4.699439E+04  1.566804E+04 -4.448217E+05 -2.055562E-10  4.107474E-11
       129  18 -1.110351E+06 -1.021199E+05  4.010744E+04 -5.006031E+05 -2.763634E-10 -5.520182E-10
       129  19 -1.870845E+06 -5.594472E+05 -3.047975E+05 -6.838988E+05  1.352090E+05  4.474355E+04
       129  20 -1.825985E+06 -3.582561E+05 -1.789159E+05 -6.824261E+05  8.749195E+04  1.428827E+04
       129  21 -1.834061E+06 -3.318798E+05 -1.356323E+05 -6.561248E+05  3.548486E+04 -4.768735E+03
       129  22 -1.492811E+06 -3.615128E+05 -1.919607E+05 -5.241154E+05  1.240501E+05  4.056308E+04
       129  23 -1.456850E+06 -2.026340E+05 -8.161193E+04 -5.636575E+05  8.397583E+04  1.297068E+04
       129  24 -1.472270E+06 -2.170000E+05 -4.775615E+04 -5.783827E+05  3.961405E+04 -3.218410E+03
       129  25 -1.114632E+06 -1.635256E+05 -7.913744E+04 -3.642312E+05  1.128839E+05  3.637729E+04
       129  26 -1.087581E+06 -4.699251E+04  1.568049E+04 -4.448209E+05  8.045740E+04  1.165198E+04
       129  27 -1.110349E+06 -1.021194E+05  4.011105E+04 -5.006032E+05  4.374590E+04 -1.667433E+03
       130   1 -1.773078E+06 -3.534047E+05 -1.172970E+05 -6.562405E+05 -3.163954E+04  3.358823E+03
       130   2 -1.741746E+06 -3.174885E+05 -8.846048E+04 -6.388988E+05 -2.094567E+04  5.972302E+03
       130   3 -1.701620E+06 -3.098479E+05 -7.083198E+04 -6.356645E+05 -1.001623E+04  7.957657E+03
       130   4 -1.465925E+06 -2.345375E+05 -3.836771E+04 -5.683372E+05 -3.226401E+04  3.123572E+03
       130   5 -1.469530E+06 -2.145938E+05 -1.914106E+04 -5.634745E+05 -2.198774E+04  5.580698E+03
       130   6 -1.464255E+06 -2.228383E+05 -1.078620E+04 -5.727196E+05 -1.147661E+04  7.409486E+03
       130   7 -1.158679E+06 -1.156625E+05  4.055375E+04 -4.803938E+05 -3.288881E+04  2.888185E+03
       130   8 -1.197241E+06 -1.116942E+05  5.017219E+04 -4.880203E+05 -2.303031E+04  5.188903E+03
       130   9 -1.226836E+06 -1.358260E+05  4.925482E+04 -5.097533E+05 -1.293760E+04  6.861100E+03
       130  10 -1.773079E+06 -3.534050E+05 -1.172989E+05 -6.562404E+05 -2.017040E-09 -4.011218E-10
       130  11 -1.741747E+06 -3.174886E+05 -8.846138E+04 -6.388987E+05  1.711980E-09  1.587223E-09
       130  12 -1.701620E+06 -3.098480E+05 -7.083229E+04 -6.356644E+05  4.751874E-09  1.774466E-09
       130  13 -1.465926E+06 -2.345378E+05 -3.836969E+04 -5.683371E+05  1.233659E-09 -2.286869E-10
       130  14 -1.469530E+06 -2.145939E+05 -1.914203E+04 -5.634744E+05  2.757846E-10  3.180826E-10
       130  15 -1.464255E+06 -2.228384E+05 -1.078655E+04 -5.727195E+05 -4.035154E-09 -1.791466E-10
       130  16 -1.158680E+06 -1.156628E+05  4.055170E+04 -4.803937E+05  2.036405E-09  1.785749E-10
       130  17 -1.197241E+06 -1.116943E+05  5.017114E+04 -4.880202E+05 -3.669002E-09 -7.848627E-10
       130  18 -1.226836E+06 -1.358261E+05  4.925442E+04 -5.097532E+05 -1.036657E-08 -2.310392E-09
       130  19 -1.773078E+06 -3.534047E+05 -1.172970E+05 -6.562405E+05  3.163954E+04 -3.358823E+03
       130  20 -1.741746E+06 -3.174885E+05 -8.846048E+04 -6.388988E+05  2.094567E+04 -5.972302E+03
       130  21 -1.701620E+06 -3.098479E+05 -7.083198E+04 -6.356645E+05  1.001623E+04 -7.957657E+03
       130  22 -1.465925E+06 -2.345375E+05 -3.836771E+04 -5.683372E+05  3.226401E+04 -3.123572E+03
       130  23 -1.469530E+06 -2.145938E+05 -1.914106E+04 -5.634745E+05  2.198774E+04 -5.580698E+03
       130  24 -1.464255E+06 -2.228383E+05 -1.078620E+04 -5.727196E+05  1.147661E+04 -7.409486E+03
       130  25 -1.158679E+06 -1.156625E+05  4.055375E+04 -4.803938E+05  3.288881E+04 -2.888185E+03
       130  26 -1.197241E+06 -1.116942E+05  5.017219E+04 -4.880203E+05  2.303031E+04 -5.188903E+03
       130  27 -1.226836E+06 -1.358260E+05  4.925482E+04 -5.097533E+05  1.293760E+04 -6.861100E+03
       131   1 -1.661418E+06 -2.984723E+05 -5.845628E+04 -6.261781E+05 -8.212467E+03  7.253794E+03
       131   2 -1.630904E+06 -2.754415E+05 -4.510314E+04 -6.070909E+05 -5.212756E+03  6.178833E+03
       131   3 -1.585649E+06 -2.689393E+05 -3.373421E+04 -6.054838E+05 -2.196483E+03  5.058517E+03
       131   4 -1.463519E+06 -2.242896E+05 -8.305664E+03 -5.719505E+05 -9.495810E+03  6.772194E+03
       131   5 -1.470823E+06 -2.155651E+05 -4.468328E+03 -5.633825E+05 -6.525899E+03  5.686252E+03
       131   6 -1.463383E+06 -2.233632E+05 -2.591139E+03 -5.722952E+05 -3.539587E+03  4.554910E+03
       131   7 -1.265581E+06 -1.501041E+05  4.184203E+04 -5.177069E+05 -1.077961E+04  6.290422E+03
       131   8 -1.310717E+06 -1.556870E+05  3.616452E+04 -5.196639E+05 -7.839417E+03  5.193531E+03
       131   9 -1.341102E+06 -1.777862E+05  2.855073E+04 -5.391006E+05 -4.882980E+03  4.051195E+03
       131  10 -1.661418E+06 -2.984724E+05 -5.845651E+04 -6.261780E+05 -9.590192E-09 -3.058680E-09
       131  11 -1.630904E+06 -2.754415E+05 -4.510327E+04 -6.070908E+05 -9.762787E-09 -2.476141E-09
       131  12 -1.585649E+06 -2.689394E+05 -3.373426E+04 -6.054838E+05 -3.707520E-09 -4.325331E-10
       131  13 -1.463519E+06 -2.242897E+05 -8.305920E+03 -5.719504E+05 -4.581870E-09 -8.807115E-10
       131  14 -1.470823E+06 -2.155652E+05 -4.468469E+03 -5.633825E+05 -4.837615E-09 -1.345872E-09
       131  15 -1.463383E+06 -2.233632E+05 -2.591201E+03 -5.722952E+05 -9.226533E-10 -5.814544E-10
       131  16 -1.265581E+06 -1.501041E+05  4.184174E+04 -5.177069E+05 -2.350845E-09  1.158228E-09
       131  17 -1.310717E+06 -1.556871E+05  3.616435E+04 -5.196639E+05  1.111534E-09 -5.264107E-10
       131  18 -1.341102E+06 -1.777862E+05  2.855065E+04 -5.391006E+05 -1.634416E-09  1.032040E-10
       131  19 -1.661418E+06 -2.984723E+05 -5.845628E+04 -6.261781E+05  8.212467E+03 -7.253794E+03
       131  20 -1.630904E+06 -2.754415E+05 -4.510314E+04 -6.070909E+05  5.212756E+03 -6.178833E+03
       131  21 -1.585649E+06 -2.689393E+05 -3.373421E+04 -6.054838E+05  2.196483E+03 -5.058517E+03
       131  22 -1.463519E+06 -2.242896E+05 -8.305664E+03 -5.719505E+05  9.495810E+03 -6.772194E+03
       131  23 -1.470823E+06 -2.155651E+05 -4.468328E+03 -5.633825E+05  6.525899E+03 -5.686252E+03
       131  24 -1.463383E+06 -2.233632E+05 -2.591139E+03 -5.722952E+05  3.539587E+03 -4.554910E+03
       131  25 -1.265581E+06 -1.501041E+05  4.184203E+04 -5.177069E+05  1.077961E+04 -6.290422E+03
       131  26 -1.310717E+06 -1.556870E+05  3.616452E+04 -5.196639E+05  7.839417E+03 -5.193531E+03
       131  27 -1.341102E+06 -1.777862E+05  2.855073E+04 -5.391006E+05  4.882980E+03 -4.051195E+03
       132   1 -1.546674E+06 -2.546594E+05 -2.308250E+04 -5.950333E+05 -1.384809E+03  4.038193E+03
       132   2 -1.515985E+06 -2.324275E+05 -1.281260E+04 -5.756031E+05  6.228024E+01  2.308946E+03
       132   3 -1.469817E+06 -2.259130E+05 -3.091167E+03 -5.740668E+05  1.511357E+03  5.739750E+02
       132   4 -1.463262E+06 -2.235027E+05 -2.053416E+03 -5.722667E+05 -2.722913E+03  3.536548E+03
       132   5 -1.470996E+06 -2.156126E+05 -1.396005E+03 -5.633312E+05 -1.279615E+03  1.805936E+03
       132   6 -1.463252E+06 -2.234392E+05 -1.283994E+03 -5.722901E+05  1.656164E+02  6.959319E+01
       132   7 -1.379844E+06 -1.923456E+05  1.897509E+04 -5.494975E+05 -4.061212E+03  3.034829E+03
       132   8 -1.426006E+06 -1.987977E+05  1.002038E+04 -5.510586E+05 -2.621612E+03  1.302889E+03
       132   9 -1.456688E+06 -2.209655E+05  5.231684E+02 -5.705133E+05 -1.180130E+03 -4.347908E+02
       132  10 -1.546674E+06 -2.546595E+05 -2.308253E+04 -5.950332E+05  7.738047E-11  2.059389E-10
       132  11 -1.515985E+06 -2.324275E+05 -1.281261E+04 -5.756031E+05  2.114809E-09 -8.798137E-11
       132  12 -1.469817E+06 -2.259130E+05 -3.091171E+03 -5.740668E+05  3.489154E-10 -9.314340E-10
       132  13 -1.463262E+06 -2.235027E+05 -2.053453E+03 -5.722667E+05 -1.296157E-10  1.910028E-10
       132  14 -1.470996E+06 -2.156126E+05 -1.396015E+03 -5.633312E+05 -1.809248E-09 -2.987635E-10
       132  15 -1.463252E+06 -2.234392E+05 -1.283994E+03 -5.722901E+05  3.616416E-10 -9.837012E-10
       132  16 -1.379844E+06 -1.923456E+05  1.897504E+04 -5.494975E+05 -1.483820E-10  4.558192E-10
       132  17 -1.426006E+06 -1.987977E+05  1.002037E+04 -5.510586E+05  1.873958E-10 -5.186562E-11
       132  18 -1.456688E+06 -2.209655E+05  5.231654E+02 -5.705133E+05 -1.256755E-09 -1.219589E-09
       132  19 -1.546674E+06 -2.546594E+05 -2.308250E+04 -5.950333E+05  1.384809E+03 -4.038193E+03
       132  20 -1.515985E+06 -2.324275E+05 -1.281260E+04 -5.756031E+05 -6.228024E+01 -2.308946E+03
       132  21 -1.469817E+06 -2.259130E+05 -3.091167E+03 -5.740668E+05 -1.511357E+03 -5.739750E+02
       132  22 -1.463262E+06 -2.235027E+05 -2.053416E+03 -5.722667E+05  2.722913E+03 -3.536548E+03
       132  23 -1.470996E+06 -2.156126E+05 -1.396005E+03 -5.633312E+05  1.279615E+03 -1.805936E+03
       132  24 -1.463252E+06 -2.234392E+05 -1.283994E+03 -5.722901E+05 -1.656164E+02 -6.959319E+01
       132  25 -1.379844E+06 -1.923456E+05  1.897509E+04 -5.494975E+05  4.061212E+03 -3.034829E+03
       132  26 -1.426006E+06 -1.987977E+05  1.002038E+04 -5.510586E+05  2.621612E+03 -1.302889E+03
       132  27 -1.456688E+06 -2.209655E+05  5.231684E+02 -5.705133E+05  1.180130E+03  4.347908E+02
       133   1 -1.430830E+06 -2.113064E+05  6.977136E+03 -5.634763E+05  2.168700E+03 -5.076493E+02
       133   2 -1.400176E+06 -1.891658E+05  1.595747E+04 -5.440417E+05  3.911806E+03 -2.129718E+03
       133   3 -1.354127E+06 -1.827833E+05  2.415361E+04 -5.424682E+05  5.652200E+03 -3.743558E+03
       133   4 -1.463269E+06 -2.234302E+05 -1.392221E+03 -5.722899E+05  8.235415E+02 -1.011824E+03
       133   5 -1.470975E+06 -2.156096E+05 -2.004477E+03 -5.633373E+05  2.571998E+03 -2.631991E+03
       133   6 -1.463288E+06 -2.235483E+05 -3.404986E+03 -5.722465E+05  4.317669E+03 -4.243946E+03
       133   7 -1.495707E+06 -2.355539E+05 -9.761736E+03 -5.811032E+05 -5.215511E+02 -1.515975E+03
       133   8 -1.541769E+06 -2.420532E+05 -1.996696E+04 -5.826310E+05  1.232348E+03 -3.134205E+03
       133   9 -1.572437E+06 -2.643127E+05 -3.096467E+04 -6.020202E+05  2.983389E+03 -4.744242E+03
       133  10 -1.430830E+06 -2.113064E+05  6.977127E+03 -5.634763E+05 -7.863139E-10 -1.200129E-09
       133  11 -1.400176E+06 -1.891658E+05  1.595744E+04 -5.440417E+05 -4.744176E-10  3.698088E-10
       133  12 -1.354127E+06 -1.827834E+05  2.415352E+04 -5.424682E+05  3.168776E-10  6.386822E-10
       133  13 -1.463269E+06 -2.234302E+05 -1.392225E+03 -5.722899E+05 -7.066044E-10 -9.047061E-10
       133  14 -1.470975E+06 -2.156096E+05 -2.004502E+03 -5.633373E+05 -3.323882E-09 -4.297270E-10
       133  15 -1.463288E+06 -2.235483E+05 -3.405055E+03 -5.722465E+05 -1.108100E-09 -2.154952E-10
       133  16 -1.495707E+06 -2.355539E+05 -9.761741E+03 -5.811032E+05  1.027269E-10 -7.126423E-10
       133  17 -1.541769E+06 -2.420532E+05 -1.996698E+04 -5.826310E+05 -1.444954E-09 -7.274467E-11
       133  18 -1.572437E+06 -2.643128E+05 -3.096473E+04 -6.020202E+05  3.621569E-10 -1.277659E-09
       133  19 -1.430830E+06 -2.113064E+05  6.977136E+03 -5.634763E+05 -2.168700E+03  5.076493E+02
       133  20 -1.400176E+06 -1.891658E+05  1.595747E+04 -5.440417E+05 -3.911806E+03  2.129718E+03
       133  21 -1.354127E+06 -1.827833E+05  2.415361E+04 -5.424682E+05 -5.652200E+03  3.743558E+03
       133  22 -1.463269E+06 -2.234302E+05 -1.392221E+03 -5.722899E+05 -8.235415E+02  1.011824E+03
       133  23 -1.470975E+06 -2.156096E+05 -2.004477E+03 -5.633373E+05 -2.571998E+03  2.631991E+03
       133  24 -1.463288E+06 -2.235483E+05 -3.404986E+03 -5.722465E+05 -4.317669E+03  4.243946E+03
       133  25 -1.495707E+06 -2.355539E+05 -9.761736E+03 -5.811032E+05  5.215511E+02  1.515975E+03
       133  26 -1.541769E+06 -2.420532E+05 -1.996696E+04 -5.826310E+05 -1.232348E+03  3.134205E+03
       133  27 -1.572437E+06 -2.643127E+05 -3.096467E+04 -6.020202E+05 -2.983389E+03  4.744242E+03
       134   1 -1.315508E+06 -1.682777E+05  3.319898E+04 -5.322620E+05  6.734612E+03 -4.658084E+03
       134   2 -1.285142E+06 -1.461033E+05  3.919341E+04 -5.127374E+05  1.140714E+04 -5.146952E+03
       134   3 -1.240635E+06 -1.412446E+05  4.174211E+04 -5.104615E+05  1.606215E+04 -5.586246E+03
       134   4 -1.463490E+06 -2.233228E+05 -4.438118E+03 -5.723266E+05  5.395378E+03 -5.160341E+03
       134   5 -1.470676E+06 -2.154855E+05 -7.890916E+03 -5.633946E+05  1.009988E+04 -5.637458E+03
       134   6 -1.463730E+06 -2.249709E+05 -1.481575E+04 -5.717120E+05  1.478661E+04 -6.065086E+03
       134   7 -1.611450E+06 -2.783662E+05 -4.207668E+04 -6.123823E+05  4.056503E+03 -5.662465E+03
       134   8 -1.656176E+06 -2.848652E+05 -5.497789E+04 -6.140379E+05  8.793044E+03 -6.127802E+03
       134   9 -1.686777E+06 -3.086942E+05 -7.137777E+04 -6.329426E+05  1.351157E+04 -6.543738E+03
       134  10 -1.315508E+06 -1.682777E+05  3.319885E+04 -5.322619E+05  8.781315E-10  4.604424E-10
       134  11 -1.285142E+06 -1.461034E+05  3.919311E+04 -5.127374E+05  3.006864E-09  9.007346E-10
       134  12 -1.240635E+06 -1.412447E+05  4.174157E+04 -5.104614E+05  9.814763E-10 -4.274254E-11
       134  13 -1.463490E+06 -2.233229E+05 -4.438223E+03 -5.723266E+05  2.038052E-09  3.092962E-10
       134  14 -1.470676E+06 -2.154855E+05 -7.891167E+03 -5.633945E+05  2.945254E-09  6.860966E-10
       134  15 -1.463730E+06 -2.249710E+05 -1.481623E+04 -5.717119E+05 -1.953168E-09 -3.366639E-10
       134  16 -1.611450E+06 -2.783663E+05 -4.207677E+04 -6.123823E+05  2.808981E-09  6.354111E-11
       134  17 -1.656176E+06 -2.848653E+05 -5.497810E+04 -6.140378E+05  4.357412E-09  1.570942E-09
       134  18 -1.686777E+06 -3.086943E+05 -7.137819E+04 -6.329425E+05 -3.739072E-09 -6.057786E-10
       134  19 -1.315508E+06 -1.682777E+05  3.319898E+04 -5.322620E+05 -6.734612E+03  4.658084E+03
       134  20 -1.285142E+06 -1.461033E+05  3.919341E+04 -5.127374E+05 -1.140714E+04  5.146952E+03
       134  21 -1.240635E+06 -1.412446E+05  4.174211E+04 -5.104615E+05 -1.606215E+04  5.586246E+03
       134  22 -1.463490E+06 -2.233228E+05 -4.438118E+03 -5.723266E+05 -5.395378E+03  5.160341E+03
       134  23 -1.470676E+06 -2.154855E+05 -7.890916E+03 -5.633946E+05 -1.009988E+04  5.637458E+03
       134  24 -1.463730E+06 -2.249709E+05 -1.481575E+04 -5.717120E+05 -1.478661E+04  6.065086E+03
       134  25 -1.611450E+06 -2.783662E+05 -4.207668E+04 -6.123823E+05 -4.056503E+03  5.662465E+03
       134  26 -1.656176E+06 -2.848652E+05 -5.497789E+04 -6.140379E+05 -8.793044E+03  6.127802E+03
       134  27 -1.686777E+06 -3.086942E+05 -7.137777E+04 -6.329426E+05 -1.351157E+04  6.543738E+03
       135   1 -1.201520E+06 -1.271202E+05  4.710766E+04 -5.045677E+05  1.942785E+04 -5.699844E+03
       135   2 -1.171991E+06 -1.009174E+05  4.133218E+04 -4.805872E+05  3.724524E+04 -1.105569E+03
       135   3 -1.138505E+06 -1.131306E+05  1.643616E+04 -4.681603E+05  5.481494E+04  4.153596E+03
       135   4 -1.464994E+06 -2.224375E+05 -1.927718E+04 -5.731660E+05  1.796574E+04 -6.248782E+03
       135   5 -1.468417E+06 -2.136499E+05 -3.425541E+04 -5.634656E+05  3.622179E+04 -1.490451E+03
       135   6 -1.467978E+06 -2.433740E+05 -6.870981E+04 -5.653192E+05  5.422916E+04  3.932232E+03
       135   7 -1.728399E+06 -3.177512E+05 -8.566724E+04 -6.417381E+05  1.650432E+04 -6.797483E+03
       135   8 -1.764758E+06 -3.263761E+05 -1.098502E+05 -6.463078E+05  3.519887E+04 -1.875125E+03
       135   9 -1.797347E+06 -3.736074E+05 -1.538652E+05 -6.624305E+05  5.364372E+04  3.711008E+03
       135  10 -1.201521E+06 -1.271204E+05  4.710689E+04 -5.045677E+05 -3.140989E-09 -1.148925E-09
       135  11 -1.171992E+06 -1.009177E+05  4.132957E+04 -4.805872E+05  1.616168E-10 -2.708761E-10
       135  12 -1.138508E+06 -1.131315E+05  1.643047E+04 -4.681604E+05  1.984650E-09 -8.664592E-10
       135  13 -1.464994E+06 -2.224377E+05 -1.927786E+04 -5.731659E+05 -2.855718E-09 -8.902627E-10
       135  14 -1.468419E+06 -2.136503E+05 -3.425789E+04 -5.634655E+05 -3.192897E-09 -4.829007E-10
       135  15 -1.467981E+06 -2.433748E+05 -6.871538E+04 -5.653194E+05 -4.185588E-10 -9.254549E-10
       135  16 -1.728399E+06 -3.177513E+05 -8.566784E+04 -6.417380E+05 -2.409259E-09 -5.833477E-10
       135  17 -1.764759E+06 -3.263764E+05 -1.098525E+05 -6.463078E+05  6.491149E-10 -5.844856E-10
       135  18 -1.797350E+06 -3.736082E+05 -1.538706E+05 -6.624307E+05 -1.500497E-09 -3.520186E-10
       135  19 -1.201520E+06 -1.271202E+05  4.710766E+04 -5.045677E+05 -1.942785E+04  5.699844E+03
       135  20 -1.171991E+06 -1.009174E+05  4.133218E+04 -4.805872E+05 -3.724524E+04  1.105569E+03
       135  21 -1.138505E+06 -1.131306E+05  1.643616E+04 -4.681603E+05 -5.481494E+04 -4.153596E+03
       135  22 -1.464994E+06 -2.224375E+05 -1.927718E+04 -5.731660E+05 -1.796574E+04  6.248782E+03
       135  23 -1.468417E+06 -2.136499E+05 -3.425541E+04 -5.634656E+05 -3.622179E+04  1.490451E+03
       135  24 -1.467978E+06 -2.433740E+05 -6.870981E+04 -5.653192E+05 -5.422916E+04 -3.932232E+03
       135  25 -1.728399E+06 -3.177512E+05 -8.566724E+04 -6.417381E+05 -1.650432E+04  6.797483E+03
       135  26 -1.764758E+06 -3.263761E+05 -1.098502E+05 -6.463078E+05 -3.519887E+04  1.875125E+03
       135  27 -1.797347E+06 -3.736074E+05 -1.538652E+05 -6.624305E+05 -5.364372E+04 -3.711008E+03
       136   1 -1.081325E+06 -1.000378E+05  8.440502E+03 -5.126307E+05  7.095632E+04  7.284595E+03
       136   2 -1.062881E+06 -1.754464E+04 -4.282860E+04 -4.268898E+05  1.421993E+05  3.371346E+04
       136   3 -1.146272E+06 -2.322975E+05 -2.246747E+05 -2.837201E+05  2.089218E+05  7.218186E+04
       136   4 -1.479207E+06 -2.121045E+05 -8.553071E+04 -5.834802E+05  6.667251E+04  5.679195E+03
       136   5 -1.445851E+06 -1.920283E+05 -1.461478E+05 -5.635902E+05  1.459635E+05  3.511898E+04
       136   6 -1.516013E+06 -4.709277E+05 -3.437941E+05 -4.862519E+05  2.207325E+05  7.658234E+04
       136   7 -1.876933E+06 -3.241743E+05 -1.795123E+05 -6.542961E+05  6.239169E+04  4.074279E+03
       136   8 -1.828671E+06 -3.664797E+05 -2.494789E+05 -7.002059E+05  1.497251E+05  3.652304E+04
       136   9 -1.885590E+06 -7.094435E+05 -4.629221E+05 -6.886450E+05  2.325352E+05  8.097507E+04
       136  10 -1.081331E+06 -1.000393E+05  8.430923E+03 -5.126312E+05  9.071591E-10 -1.428928E-09
       136  11 -1.062903E+06 -1.755131E+04 -4.286882E+04 -4.268937E+05  4.291683E-10 -6.952368E-11
       136  12 -1.146320E+06 -2.323149E+05 -2.247667E+05 -2.837323E+05  1.110123E-09  1.029770E-09
       136  13 -1.479212E+06 -2.121057E+05 -8.553915E+04 -5.834805E+05 -2.560549E-10 -9.938794E-10
       136  14 -1.445874E+06 -1.920354E+05 -1.461902E+05 -5.635943E+05  1.123901E-09 -1.550017E-09
       136  15 -1.516067E+06 -4.709471E+05 -3.438970E+05 -4.862655E+05  7.312623E-10  4.834688E-10
       136  16 -1.876938E+06 -3.241754E+05 -1.795196E+05 -6.542963E+05 -2.523368E-10  1.137762E-11
       136  17 -1.828696E+06 -3.664872E+05 -2.495236E+05 -7.002103E+05  2.532035E-10 -3.736217E-10
       136  18 -1.885650E+06 -7.094652E+05 -4.630364E+05 -6.886602E+05 -1.168303E-09  8.165003E-10
       136  19 -1.081325E+06 -1.000378E+05  8.440502E+03 -5.126307E+05 -7.095632E+04 -7.284595E+03
       136  20 -1.062881E+06 -1.754464E+04 -4.282860E+04 -4.268898E+05 -1.421993E+05 -3.371346E+04
       136  21 -1.146272E+06 -2.322975E+05 -2.246747E+05 -2.837201E+05 -2.089218E+05 -7.218186E+04
       136  22 -1.479207E+06 -2.121045E+05 -8.553071E+04 -5.834802E+05 -6.667251E+04 -5.679195E+03
       136  23 -1.445851E+06 -1.920283E+05 -1.461478E+05 -5.635902E+05 -1.459635E+05 -3.511898E+04
       136  24 -1.516013E+06 -4.709277E+05 -3.437941E+05 -4.862519E+05 -2.207325E+05 -7.658234E+04
       136  25 -1.876933E+06 -3.241743E+05 -1.795123E+05 -6.542961E+05 -6.239169E+04 -4.074279E+03
       136  26 -1.828671E+06 -3.664797E+05 -2.494789E+05 -7.002059E+05 -1.497251E+05 -3.652304E+04
       136  27 -1.885590E+06 -7.094435E+05 -4.629221E+05 -6.886450E+05 -2.325352E+05 -8.097507E+04
       137   1 -1.713159E+05 -1.700235E+04  1.729991E+03  1.162519E+04  5.281703E+04  4.426084E+03
       137   2 -1.494348E+05 -8.732670E+04 -3.623991E+04 -5.988253E+02  3.765305E+04  1.349721E+04
       137   3 -1.056339E+05 -7.824067E+04 -4.446518E+04 -2.967516E+04  2.249399E+04  1.329868E+04
       137   4  1.958306E+05  7.431665E+04  9.144810E+04 -1.866920E+04  6.271719E+04  4.430110E+03
       137   5  1.843041E+05 -5.169077E+03  4.087372E+04 -1.021986E+04  4.086877E+04  1.349789E+04
       137   6  1.958427E+05 -4.108967E+03  2.467280E+04 -1.862143E+04  1.902628E+04  1.329723E+04
       137   7  5.631021E+05  1.656292E+05  1.811572E+05 -4.898157E+04  7.262319E+04  4.433169E+03
       137   8  5.181462E+05  7.698109E+04  1.179800E+05 -1.984611E+04  4.408621E+04  1.349847E+04
       137   9  4.974037E+05  7.001686E+04  9.380490E+04 -7.562284E+03  1.555690E+04  1.329565E+04
       137  10 -1.713189E+05 -1.700312E+04  1.724710E+03  1.162500E+04  7.845304E-11 -7.344883E-10
       137  11 -1.494363E+05 -8.732728E+04 -3.624292E+04 -5.992346E+02 -3.406954E-10 -2.751119E-11
       137  12 -1.056345E+05 -7.824099E+04 -4.446647E+04 -2.967540E+04  3.844503E-10 -7.299096E-10
       137  13  1.958263E+05  7.431558E+04  9.144068E+04 -1.866942E+04 -1.008836E-09  4.440401E-10
       137  14  1.843023E+05 -5.169721E+03  4.087023E+04 -1.022030E+04 -4.352826E-10 -1.205994E-10
       137  15  1.958422E+05 -4.109254E+03  2.467178E+04 -1.862163E+04  3.305684E-09 -5.983607E-10
       137  16  5.630965E+05  1.656278E+05  1.811473E+05 -4.898183E+04 -5.192772E-10  4.301524E-10
       137  17  5.181440E+05  7.698037E+04  1.179760E+05 -1.984659E+04  6.379773E-10  8.213123E-11
       137  18  4.974034E+05  7.001661E+04  9.380411E+04 -7.562450E+03  9.554036E-10  9.712294E-10
       137  19 -1.713159E+05 -1.700235E+04  1.729991E+03  1.162519E+04 -5.281703E+04 -4.426084E+03
       137  20 -1.494348E+05 -8.732670E+04 -3.623991E+04 -5.988253E+02 -3.765305E+04 -1.349721E+04
       137  21 -1.056339E+05 -7.824067E+04 -4.446518E+04 -2.967516E+04 -2.249399E+04 -1.329868E+04
       137  22  1.958306E+05  7.431665E+04  9.144810E+04 -1.866920E+04 -6.271719E+04 -4.430110E+03
       137  23  1.843041E+05 -5.169077E+03  4.087372E+04 -1.021986E+04 -4.086877E+04 -1.349789E+04
       137  24  1.958427E+05 -4.108967E+03  2.467280E+04 -1.862143E+04 -1.902628E+04 -1.329723E+04
       137  25  5.631021E+05  1.656292E+05  1.811572E+05 -4.898157E+04 -7.262319E+04 -4.433169E+03
       137  26  5.181462E+05  7.698109E+04  1.179800E+05 -1.984611E+04 -4.408621E+04 -1.349847E+04
       137  27  4.974037E+05  7.001686E+04  9.380490E+04 -7.562284E+03 -1.555690E+04 -1.329565E+04
       138   1 -7.885430E+04 -6.092410E+04 -4.237730E+04 -1.686924E+04  1.599079E+04  1.127104E+04
       138   2 -4.736202E+04 -5.888190E+04 -4.411484E+04 -9.726502E+03  1.102435E+04  1.018845E+04
       138   3 -1.365239E+04 -5.073397E+04 -4.108261E+04 -1.965075E+04  6.057259E+03  8.649349E+03
       138   4  1.912250E+05  5.534488E+03  1.985742E+04 -1.868344E+04  1.538138E+04  1.127045E+04
       138   5  1.900912E+05 -4.778318E+02  1.046943E+04 -1.014939E+04  1.008415E+04  1.018794E+04
       138   6  1.912300E+05 -3.284016E+02  6.079316E+03 -1.868183E+04  4.786541E+03  8.648990E+03
       138   7  4.613719E+05  7.198799E+04  8.208730E+04 -2.049845E+04  1.477171E+04  1.126986E+04
       138   8  4.275966E+05  5.792230E+04  6.504997E+04 -1.057243E+04  9.143606E+03  1.018744E+04
       138   9  3.961513E+05  5.007423E+04  5.323847E+04 -1.771259E+04  3.515407E+03  8.648627E+03
       138  10 -7.885461E+04 -6.092431E+04 -4.237802E+04 -1.686938E+04  2.600173E-10 -4.572251E-10
       138  11 -4.736218E+04 -5.888204E+04 -4.411526E+04 -9.726592E+03  1.825203E-09  3.209070E-11
       138  12 -1.365245E+04 -5.073406E+04 -4.108282E+04 -1.965079E+04 -2.676826E-10 -6.931080E-10
       138  13  1.912248E+05  5.534288E+03  1.985674E+04 -1.868358E+04  2.219909E-09  5.064476E-10
       138  14  1.900911E+05 -4.779706E+02  1.046904E+04 -1.014947E+04  2.274162E-09  2.532474E-10
       138  15  1.912300E+05 -3.284881E+02  6.079133E+03 -1.868186E+04 -1.151568E-09 -5.576866E-10
       138  16  4.613716E+05  7.198779E+04  8.208666E+04 -2.049858E+04  1.309704E-09  5.896854E-10
       138  17  4.275965E+05  5.792216E+04  6.504962E+04 -1.057251E+04  3.557224E-10  2.697496E-11
       138  18  3.961513E+05  5.007415E+04  5.323830E+04 -1.771261E+04  7.131459E-11 -8.235845E-11
       138  19 -7.885430E+04 -6.092410E+04 -4.237730E+04 -1.686924E+04 -1.599079E+04 -1.127104E+04
       138  20 -4.736202E+04 -5.888190E+04 -4.411484E+04 -9.726502E+03 -1.102435E+04 -1.018845E+04
       138  21 -1.365239E+04 -5.073397E+04 -4.108261E+04 -1.965075E+04 -6.057259E+03 -8.649349E+03
       138  22  1.912250E+05  5.534488E+03  1.985742E+04 -1.868344E+04 -1.538138E+04 -1.127045E+04
       138  23  1.900912E+05 -4.778318E+02  1.046943E+04 -1.014939E+04 -1.008415E+04 -1.018794E+04
       138  24  1.912300E+05 -3.284016E+02  6.079316E+03 -1.868183E+04 -4.786541E+03 -8.648990E+03
       138  25  4.613719E+05  7.198799E+04  8.208730E+04 -2.049845E+04 -1.477171E+04 -1.126986E+04
       138  26  4.275966E+05  5.792230E+04  6.504997E+04 -1.057243E+04 -9.143606E+03 -1.018744E+04
       138  27  3.961513E+05  5.007423E+04  5.323847E+04 -1.771259E+04 -3.515407E+03 -8.648627E+03
       139   1  1.708544E+04 -4.232178E+04 -3.516010E+04 -1.865701E+04  4.969497E+03  7.660324E+03
       139   2  4.945070E+04 -3.478086E+04 -2.989352E+04 -1.019938E+04  3.716206E+03  6.081034E+03
       139   3  8.211028E+04 -2.677260E+04 -2.369128E+04 -1.877666E+04  2.462517E+03  4.480174E+03
       139   4  1.907937E+05  3.824716E+02  4.671594E+03 -1.867523E+04  3.840898E+03  7.660076E+03
       139   5  1.906468E+05 -5.641246E+01  2.550531E+03 -1.015788E+04  2.571729E+03  6.080898E+03
       139   6  1.907963E+05 -2.511145E+01  1.376094E+03 -1.867521E+04  1.302226E+03  4.480156E+03
       139   7  3.645299E+05  4.308463E+04  4.450131E+04 -1.869344E+04  2.711986E+03  7.659827E+03
       139   8  3.318613E+05  3.466664E+04  3.499327E+04 -1.011637E+04  1.426993E+03  6.080762E+03
       139   9  2.994933E+05  2.672155E+04  2.644268E+04 -1.857375E+04  1.417329E+02  4.480139E+03
       139  10  1.708540E+04 -4.232185E+04 -3.516026E+04 -1.865704E+04 -2.093876E-09 -6.476284E-10
       139  11  4.945068E+04 -3.478090E+04 -2.989361E+04 -1.019939E+04  9.929522E-10  9.293472E-11
       139  12  8.211027E+04 -2.677262E+04 -2.369132E+04 -1.877667E+04 -1.603827E-09 -1.811522E-10
       139  13  1.907937E+05  3.824046E+02  4.671456E+03 -1.867525E+04 -5.817405E-11 -2.733794E-10
       139  14  1.906468E+05 -5.645394E+01  2.550449E+03 -1.015789E+04  1.619787E-09  1.803794E-10
       139  15  1.907963E+05 -2.513346E+01  1.376054E+03 -1.867522E+04  1.339901E-10 -4.519111E-11
       139  16  3.645299E+05  4.308456E+04  4.450118E+04 -1.869346E+04  8.672079E-10  5.280793E-11
       139  17  3.318613E+05  3.466660E+04  3.499319E+04 -1.011638E+04  9.388404E-10  9.495330E-11
       139  18  2.994933E+05  2.672152E+04  2.644265E+04 -1.857375E+04 -1.796039E-09  9.498641E-11
       139  19  1.708544E+04 -4.232178E+04 -3.516010E+04 -1.865701E+04 -4.969497E+03 -7.660324E+03
       139  20  4.945070E+04 -3.478086E+04 -2.989352E+04 -1.019938E+04 -3.716206E+03 -6.081034E+03
       139  21  8.211028E+04 -2.677260E+04 -2.369128E+04 -1.877666E+04 -2.462517E+03 -4.480174E+03
       139  22  1.907937E+05  3.824716E+02  4.671594E+03 -1.867523E+04 -3.840898E+03 -7.660076E+03
       139  23  1.906468E+05 -5.641246E+01  2.550531E+03 -1.015788E+04 -2.571729E+03 -6.080898E+03
       139  24  1.907963E+05 -2.511145E+01  1.376094E+03 -1.867521E+04 -1.302226E+03 -4.480156E+03
       139  25  3.645299E+05  4.308463E+04  4.450131E+04 -1.869344E+04 -2.711986E+03 -7.659827E+03
       139  26  3.318613E+05  3.466664E+04  3.499327E+04 -1.011637E+04 -1.426993E+03 -6.080762E+03
       139  27  2.994933E+05  2.672155E+04  2.644268E+04 -1.857375E+04 -1.417329E+02 -4.480139E+03
       140   1  1.131626E+05 -1.903642E+04 -1.676131E+04 -1.869944E+04  2.244476E+03  3.544390E+03
       140   2  1.456192E+05 -1.109601E+04 -1.003451E+04 -1.019283E+04  2.082009E+03  1.942909E+03
       140   3  1.781056E+05 -3.124680E+03 -3.194360E+03 -1.870155E+04  1.919416E+03  3.406873E+02
       140   4  1.907382E+05  2.196143E+01  9.678716E+02 -1.867090E+04  1.091581E+03  3.544422E+03
       140   5  1.907244E+05 -3.974132E+00  3.288843E+02 -1.016328E+04  9.285143E+02  1.942976E+03
       140   6  1.907390E+05  1.052969E+00 -1.964511E+02 -1.867091E+04  7.653315E+02  3.407937E+02
       140   7  2.683194E+05  1.907993E+04  1.869666E+04 -1.864235E+04 -6.145811E+01  3.544454E+03
       140   8  2.358315E+05  1.108792E+04  1.069215E+04 -1.013372E+04 -2.250632E+02  1.943043E+03
       140   9  2.033725E+05  3.126775E+03  2.801452E+03 -1.864026E+04 -3.887763E+02  3.409000E+02
       140  10  1.131626E+05 -1.903644E+04 -1.676134E+04 -1.869945E+04 -4.931660E-10 -5.340266E-10
       140  11  1.456192E+05 -1.109602E+04 -1.003452E+04 -1.019284E+04  1.789878E-10 -2.616858E-10
       140  12  1.781056E+05 -3.124681E+03 -3.194367E+03 -1.870155E+04 -1.059318E-09  6.306992E-10
       140  13  1.907382E+05  2.194762E+01  9.678458E+02 -1.867090E+04  1.079157E-09 -4.711097E-10
       140  14  1.907244E+05 -3.978418E+00  3.288756E+02 -1.016328E+04 -2.729738E-09 -6.268972E-10
       140  15  1.907390E+05  1.052687E+00 -1.964524E+02 -1.867091E+04  1.424984E-09  2.824178E-10
       140  16  2.683194E+05  1.907991E+04  1.869664E+04 -1.864235E+04 -2.141404E-09 -5.149395E-10
       140  17  2.358315E+05  1.108792E+04  1.069214E+04 -1.013372E+04 -2.342829E-10 -1.093452E-09
       140  18  2.033725E+05  3.126775E+03  2.801452E+03 -1.864026E+04  5.219772E-10  1.661312E-10
       140  19  1.131626E+05 -1.903642E+04 -1.676131E+04 -1.869944E+04 -2.244476E+03 -3.544390E+03
       140  20  1.456192E+05 -1.109601E+04 -1.003451E+04 -1.019283E+04 -2.082009E+03 -1.942909E+03
       140  21  1.781056E+05 -3.124680E+03 -3.194360E+03 -1.870155E+04 -1.919416E+03 -3.406873E+02
       140  22  1.907382E+05  2.196143E+01  9.678716E+02 -1.867090E+04 -1.091581E+03 -3.544422E+03
       140  23  1.907244E+05 -3.974132E+00  3.288843E+02 -1.016328E+04 -9.285143E+02 -1.942976E+03
       140  24  1.907390E+05  1.052969E+00 -1.964511E+02 -1.867091E+04 -7.653315E+02 -3.407937E+02
       140  25  2.683194E+05  1.907993E+04  1.869666E+04 -1.864235E+04  6.145811E+01 -3.544454E+03
       140  26  2.358315E+05  1.108792E+04  1.069215E+04 -1.013372E+04  2.250632E+02 -1.943043E+03
       140  27  2.033725E+05  3.126775E+03  2.801452E+03 -1.864026E+04  3.887763E+02 -3.409000E+02
       141   1  2.091718E+05  4.565523E+03  3.866003E+03 -1.871008E+04  1.979679E+03 -5.920429E+02
       141   2  2.416924E+05  1.254038E+04  1.054818E+04 -1.021036E+04  2.550525E+03 -2.194244E+03
       141   3  2.741222E+05  2.044555E+04  1.684117E+04 -1.872617E+04  3.121528E+03 -3.795774E+03
       141   4  1.907122E+05  7.142830E+00 -4.704288E+02 -1.867099E+04  8.255403E+02 -5.919380E+02
       141   5  1.907578E+05  1.551544E+01 -1.153918E+03 -1.016318E+04  1.396792E+03 -2.194183E+03
       141   6  1.907115E+05 -4.582249E+01 -2.226871E+03 -1.867100E+04  1.968172E+03 -3.795753E+03
       141   7  1.722530E+05 -4.551261E+03 -4.806879E+03 -1.863190E+04 -3.285644E+02 -5.918333E+02
       141   8  1.398256E+05 -1.250953E+04 -1.285618E+04 -1.011601E+04  2.431529E+02 -2.194122E+03
       141   9  1.073071E+05 -2.053768E+04 -2.129537E+04 -1.861583E+04  8.149691E+02 -3.795732E+03
       141  10  2.091718E+05  4.565522E+03  3.865995E+03 -1.871008E+04 -9.237404E-10  5.567560E-10
       141  11  2.416924E+05  1.254038E+04  1.054816E+04 -1.021035E+04  9.374816E-10 -2.988980E-10
       141  12  2.741222E+05  2.044554E+04  1.684113E+04 -1.872616E+04 -1.804318E-09  2.377440E-10
       141  13  1.907122E+05  7.142271E+00 -4.704308E+02 -1.867099E+04 -9.326791E-10  4.420698E-10
       141  14  1.907578E+05  1.550975E+01 -1.153931E+03 -1.016318E+04 -4.028950E-10 -1.913544E-10
       141  15  1.907115E+05 -4.583900E+01 -2.226905E+03 -1.867099E+04 -1.594147E-09  2.928177E-10
       141  16  1.722530E+05 -4.551261E+03 -4.806880E+03 -1.863190E+04 -1.600472E-10  5.678496E-10
       141  17  1.398256E+05 -1.250954E+04 -1.285619E+04 -1.011601E+04 -8.929440E-11  2.008005E-10
       141  18  1.073071E+05 -2.053770E+04 -2.129539E+04 -1.861583E+04  1.352320E-09  3.566917E-10
       141  19  2.091718E+05  4.565523E+03  3.866003E+03 -1.871008E+04 -1.979679E+03  5.920429E+02
       141  20  2.416924E+05  1.254038E+04  1.054818E+04 -1.021036E+04 -2.550525E+03  2.194244E+03
       141  21  2.741222E+05  2.044555E+04  1.684117E+04 -1.872617E+04 -3.121528E+03  3.795774E+03
       141  22  1.907122E+05  7.142830E+00 -4.704288E+02 -1.867099E+04 -8.255403E+02  5.919380E+02
       141  23  1.907578E+05  1.551544E+01 -1.153918E+03 -1.016318E+04 -1.396792E+03  2.194183E+03
       141  24  1.907115E+05 -4.582249E+01 -2.226871E+03 -1.867100E+04 -1.968172E+03  3.795753E+03
       141  25  1.722530E+05 -4.551261E+03 -4.806879E+03 -1.863190E+04  3.285644E+02  5.918333E+02
       141  26  1.398256E+05 -1.250953E+04 -1.285618E+04 -1.011601E+04 -2.431529E+02  2.194122E+03
       141  27  1.073071E+05 -2.053768E+04 -2.129537E+04 -1.861583E+04 -8.149691E+02  3.795732E+03
       142   1  3.051346E+05  2.823103E+04  2.343081E+04 -1.888034E+04  3.596781E+03 -4.731533E+03
       142   2  3.379363E+05  3.625705E+04  2.853615E+04 -1.021796E+04  6.192609E+03 -6.331932E+03
       142   3  3.701789E+05  4.333526E+04  3.171824E+04 -1.859493E+04  8.788891E+03 -7.910245E+03
       142   4  1.906054E+05  5.034695E+01 -2.975623E+03 -1.867634E+04  2.435732E+03 -4.731564E+03
       142   5  1.908856E+05  9.911337E+01 -5.247333E+03 -1.015652E+04  5.046889E+03 -6.332087E+03
       142   6  1.906033E+05 -8.025992E+02 -9.453149E+03 -1.867631E+04  7.658366E+03 -7.910518E+03
       142   7  7.608827E+04 -2.813125E+04 -2.938292E+04 -1.847238E+04  1.274896E+03 -4.731595E+03
       142   8  4.385484E+04 -3.606033E+04 -3.903224E+04 -1.009510E+04  3.901438E+03 -6.332241E+03
       142   9  1.105747E+04 -4.494270E+04 -5.062666E+04 -1.875767E+04  6.528164E+03 -7.910791E+03
       142  10  3.051346E+05  2.823100E+04  2.343074E+04 -1.888033E+04 -4.455939E-10  2.458404E-10
       142  11  3.379362E+05  3.625700E+04  2.853600E+04 -1.021793E+04 -3.973126E-10 -3.391513E-10
       142  12  3.701788E+05  4.333517E+04  3.171798E+04 -1.859487E+04 -4.801955E-10  1.251152E-10
       142  13  1.906054E+05  5.032132E+01 -2.975676E+03 -1.867633E+04  1.079151E-09  3.499228E-10
       142  14  1.908855E+05  9.906348E+01 -5.247456E+03 -1.015650E+04 -6.448561E-11 -2.594681E-10
       142  15  1.906032E+05 -8.026822E+02 -9.453377E+03 -1.867626E+04  1.185594E-09 -2.157577E-10
       142  16  7.608826E+04 -2.813128E+04 -2.938297E+04 -1.847237E+04 -1.155922E-09  2.789153E-10
       142  17  4.385481E+04 -3.606038E+04 -3.903234E+04 -1.009508E+04  6.218961E-10 -1.894082E-10
       142  18  1.105741E+04 -4.494278E+04 -5.062686E+04 -1.875763E+04  2.352688E-10 -3.374696E-10
       142  19  3.051346E+05  2.823103E+04  2.343081E+04 -1.888034E+04 -3.596781E+03  4.731533E+03
       142  20  3.379363E+05  3.625705E+04  2.853615E+04 -1.021796E+04 -6.192609E+03  6.331932E+03
       142  21  3.701789E+05  4.333526E+04  3.171824E+04 -1.859493E+04 -8.788891E+03  7.910245E+03
       142  22  1.906054E+05  5.034695E+01 -2.975623E+03 -1.867634E+04 -2.435732E+03  4.731564E+03
       142  23  1.908856E+05  9.911337E+01 -5.247333E+03 -1.015652E+04 -5.046889E+03  6.332087E+03
       142  24  1.906033E+05 -8.025992E+02 -9.453149E+03 -1.867631E+04 -7.658366E+03  7.910518E+03
       142  25  7.608827E+04 -2.813125E+04 -2.938292E+04 -1.847238E+04 -1.274896E+03  4.731595E+03
       142  26  4.385484E+04 -3.606033E+04 -3.903224E+04 -1.009510E+04 -3.901438E+03  6.332241E+03
       142  27  1.105747E+04 -4.494270E+04 -5.062666E+04 -1.875767E+04 -6.528164E+03  7.910791E+03
       143   1  4.005075E+05  5.246608E+04  3.624327E+04 -2.056198E+04  1.084439E+04 -8.899288E+03
       143   2  4.353155E+05  6.074816E+04  3.485923E+04 -9.156986E+03  2.117269E+04 -1.043225E+04
       143   3  4.657449E+05  5.669969E+04  2.368257E+04 -1.481364E+04  3.150198E+04 -1.149920E+04
       143   4  1.897385E+05  6.268727E+02 -1.225904E+04 -1.868235E+04  9.568614E+03 -8.899652E+03
       143   5  1.919575E+05  9.085634E+02 -2.106642E+04 -1.014949E+04  2.022877E+04 -1.043281E+04
       143   6  1.897367E+05 -1.120090E+04 -3.989986E+04 -1.867890E+04  3.088937E+04 -1.149996E+04
       143   7 -2.098947E+04 -5.121543E+04 -6.076428E+04 -1.680336E+04  8.293266E+03 -8.900024E+03
       143   8 -5.134565E+04 -5.893516E+04 -7.699598E+04 -1.114160E+04  1.928521E+04 -1.043337E+04
       143   9 -8.620112E+04 -7.910676E+04 -1.034873E+05 -2.254244E+04  3.027703E+04 -1.150072E+04
       143  10  4.005073E+05  5.246597E+04  3.624290E+04 -2.056190E+04 -1.137160E-09  3.549336E-10
       143  11  4.353150E+05  6.074792E+04  3.485818E+04 -9.156808E+03  3.543152E-10  6.297389E-11
       143  12  4.657438E+05  5.669928E+04  2.368046E+04 -1.481335E+04 -4.385450E-10 -5.259253E-10
       143  13  1.897383E+05  6.267631E+02 -1.225936E+04 -1.868228E+04 -1.089678E-09  2.135133E-11
       143  14  1.919571E+05  9.083367E+02 -2.106740E+04 -1.014932E+04  5.618804E-10 -1.377137E-11
       143  15  1.897356E+05 -1.120130E+04 -3.990190E+04 -1.867861E+04 -9.672698E-11 -3.727108E-10
       143  16 -2.098956E+04 -5.121553E+04 -6.076456E+04 -1.680330E+04  6.596102E-10 -2.003426E-10
       143  17 -5.134608E+04 -5.893538E+04 -7.699689E+04 -1.114144E+04 -8.335650E-10  7.106340E-10
       143  18 -8.620214E+04 -7.910715E+04 -1.034893E+05 -2.254216E+04 -1.325305E-09  1.176177E-10
       143  19  4.005075E+05  5.246608E+04  3.624327E+04 -2.056198E+04 -1.084439E+04  8.899288E+03
       143  20  4.353155E+05  6.074816E+04  3.485923E+04 -9.156986E+03 -2.117269E+04  1.043225E+04
       143  21  4.657449E+05  5.669969E+04  2.368257E+04 -1.481364E+04 -3.150198E+04  1.149920E+04
       143  22  1.897385E+05  6.268727E+02 -1.225904E+04 -1.868235E+04 -9.568614E+03  8.899652E+03
       143  23  1.919575E+05  9.085634E+02 -2.106642E+04 -1.014949E+04 -2.022877E+04  1.043281E+04
       143  24  1.897367E+05 -1.120090E+04 -3.989986E+04 -1.867890E+04 -3.088937E+04  1.149996E+04
       143  25 -2.098947E+04 -5.121543E+04 -6.076428E+04 -1.680336E+04 -8.293266E+03  8.900024E+03
       143  26 -5.134565E+04 -5.893516E+04 -7.699598E+04 -1.114160E+04 -1.928521E+04  1.043337E+04
       143  27 -8.620112E+04 -7.910676E+04 -1.034873E+05 -2.254244E+04 -3.027703E+04  1.150072E+04
       144   1  4.879627E+05  8.371157E+04  2.092517E+04 -4.055454E+04  4.173448E+04 -1.353762E+04
       144   2  5.432004E+05  9.390009E+04 -3.645004E+03  9.542012E+03  7.885133E+04 -1.367167E+04
       144   3  5.535868E+05 -5.643619E+04 -9.246796E+04  4.292412E+04  1.159645E+05 -4.368769E+03
       144   4  1.804813E+05  8.164746E+03 -4.955939E+04 -1.863125E+04  3.821169E+04 -1.353810E+04
       144   5  2.035166E+05  1.027336E+04 -8.210657E+04 -1.022386E+04  8.210351E+04 -1.367281E+04
       144   6  1.804945E+05 -1.493726E+05 -1.836352E+05 -1.853167E+04  1.259891E+05 -4.373254E+03
       144   7 -1.269115E+05 -6.738684E+04 -1.200499E+05  3.281093E+03  3.469063E+04 -1.353883E+04
       144   8 -1.360597E+05 -7.335999E+04 -1.605756E+05 -2.997885E+04  8.535392E+04 -1.367416E+04
       144   9 -1.924629E+05 -2.423051E+05 -2.748101E+05 -7.995050E+04  1.360076E+05 -4.379727E+03
       144  10  4.879607E+05  8.371091E+04  2.092156E+04 -4.055408E+04 -1.115351E-09 -1.166903E-09
       144  11  5.431936E+05  9.389822E+04 -3.657030E+03  9.542880E+03  2.329940E-09 -2.105507E-09
       144  12  5.535724E+05 -5.643981E+04 -9.249324E+04  4.292453E+04 -1.519138E-09 -5.262011E-10
       144  13  1.804797E+05  8.164157E+03 -4.956248E+04 -1.863083E+04 -1.324760E-09 -2.436820E-09
       144  14  2.035093E+05  1.027135E+04 -8.211958E+04 -1.022295E+04  1.896583E-09  5.937959E-10
       144  15  1.804774E+05 -1.493769E+05 -1.836650E+05 -1.853123E+04 -4.751124E-10 -1.988280E-10
       144  16 -1.269129E+05 -6.738736E+04 -1.200525E+05  3.281471E+03  4.260950E-10 -7.447533E-10
       144  17 -1.360676E+05 -7.336215E+04 -1.605896E+05 -2.997791E+04 -8.299301E-10 -1.138494E-10
       144  18 -1.924827E+05 -2.423101E+05 -2.748449E+05 -7.995002E+04  2.661344E-09 -8.776793E-10
       144  19  4.879627E+05  8.371157E+04  2.092517E+04 -4.055454E+04 -4.173448E+04  1.353762E+04
       144  20  5.432004E+05  9.390009E+04 -3.645004E+03  9.542012E+03 -7.885133E+04  1.367167E+04
       144  21  5.535868E+05 -5.643619E+04 -9.246796E+04  4.292412E+04 -1.159645E+05  4.368769E+03
       144  22  1.804813E+05  8.164746E+03 -4.955939E+04 -1.863125E+04 -3.821169E+04  1.353810E+04
       144  23  2.035166E+05  1.027336E+04 -8.210657E+04 -1.022386E+04 -8.210351E+04  1.367281E+04
       144  24  1.804945E+05 -1.493726E+05 -1.836352E+05 -1.853167E+04 -1.259891E+05  4.373254E+03
       144  25 -1.269115E+05 -6.738684E+04 -1.200499E+05  3.281093E+03 -3.469063E+04  1.353883E+04
       144  26 -1.360597E+05 -7.335999E+04 -1.605756E+05 -2.997885E+04 -8.535392E+04  1.367416E+04
       144  27 -1.924629E+05 -2.423051E+05 -2.748101E+05 -7.995050E+04 -1.360076E+05  4.379727E+03
       145   1  3.624753E+05  1.238677E+06  3.600606E+05 -1.938841E+05  1.489918E+04  4.704154E+04
       145   2  2.609972E+05  9.082743E+05  2.541865E+05 -1.050199E+05  4.217738E+04  1.578691E+04
       145   3  1.819254E+05  5.876833E+05  1.742508E+05 -1.850259E+05  3.205650E+04 -1.550149E+04
       145   4  1.602174E+04 -1.536044E+05  1.923107E+04 -1.861668E+05  1.494282E+04  1.390202E+04
       145   5 -1.011111E+03 -1.560419E+05  8.013679E+03 -1.017352E+05  4.219238E+04  9.630864E+03
       145   6 -2.888078E+02 -1.534236E+05  4.037962E+03 -1.861892E+05  3.201480E+04  5.309571E+03
       145   7 -3.305745E+05 -1.544119E+06 -3.217362E+05 -1.784661E+05  1.498569E+04 -1.916347E+04
       145   8 -2.630990E+05 -1.219312E+06 -2.382347E+05 -9.845562E+04  4.220733E+04  3.485266E+03
       145   9 -1.825411E+05 -8.940213E+05 -1.662095E+05 -1.873508E+05  3.197299E+04  2.609601E+04
       145  10  3.624745E+05  1.238675E+06  3.600561E+05 -1.938847E+05 -4.505056E-11  1.175944E-09
       145  11  2.609953E+05  9.082735E+05  2.541827E+05 -1.050204E+05 -7.757179E-10 -2.944297E-09
       145  12  1.819242E+05  5.876828E+05  1.742484E+05 -1.850255E+05 -2.791512E-09  1.583718E-10
       145  13  1.602144E+04 -1.536046E+05  1.923029E+04 -1.861670E+05  3.937193E-10 -1.046964E-09
       145  14 -1.013048E+03 -1.560425E+05  8.010159E+03 -1.017355E+05  1.912587E-09 -1.569106E-09
       145  15 -2.899160E+02 -1.534239E+05  4.035982E+03 -1.861894E+05  1.161280E-09 -5.159984E-09
       145  16 -3.305749E+05 -1.544120E+06 -3.217373E+05 -1.784658E+05  5.137953E-10 -1.195173E-09
       145  17 -2.631009E+05 -1.219312E+06 -2.382381E+05 -9.845574E+04  1.531253E-09  2.077355E-09
       145  18 -1.825423E+05 -8.940223E+05 -1.662127E+05 -1.873515E+05  1.337400E-10  2.020039E-09
       145  19  3.624753E+05  1.238677E+06  3.600606E+05 -1.938841E+05 -1.489918E+04 -4.704154E+04
       145  20  2.609972E+05  9.082743E+05  2.541865E+05 -1.050199E+05 -4.217738E+04 -1.578691E+04
       145  21  1.819254E+05  5.876833E+05  1.742508E+05 -1.850259E+05 -3.205650E+04  1.550149E+04
       145  22  1.602174E+04 -1.536044E+05  1.923107E+04 -1.861668E+05 -1.494282E+04 -1.390202E+04
       145  23 -1.011111E+03 -1.560419E+05  8.013679E+03 -1.017352E+05 -4.219238E+04 -9.630864E+03
       145  24 -2.888078E+02 -1.534236E+05  4.037962E+03 -1.861892E+05 -3.201480E+04 -5.309571E+03
       145  25 -3.305745E+05 -1.544119E+06 -3.217362E+05 -1.784661E+05 -1.498569E+04  1.916347E+04
       145  26 -2.630990E+05 -1.219312E+06 -2.382347E+05 -9.845562E+04 -4.220733E+04 -3.485266E+03
       145  27 -1.825411E+05 -8.940213E+05 -1.662095E+05 -1.873508E+05 -3.197299E+04 -2.609601E+04
       146   1  1.075121E+05  2.742772E+05  1.012936E+05 -1.872895E+05  1.811485E+04 -5.001323E+03
       146   2  2.598604E+04 -5.054114E+04  2.313256E+04 -1.017509E+05  4.454322E+03 -4.847767E+03
       146   3 -5.534339E+04 -3.760742E+05 -5.528290E+04 -1.864777E+05 -9.456220E+03 -4.697193E+03
       146   4  1.985780E+03 -1.546446E+05  2.558086E+03 -1.864867E+05  1.809352E+04  4.744419E+03
       146   5  4.796984E+02 -1.542146E+05 -7.061366E+02 -1.013564E+05  4.432005E+03  5.076418E+03
       146   6 -8.532963E+02 -1.546272E+05 -4.342097E+03 -1.864931E+05 -9.479892E+03  5.405523E+03
       146   7 -1.035533E+05 -5.833960E+05 -9.618923E+04 -1.856843E+05  1.807219E+04  1.448348E+04
       146   8 -2.502734E+04 -2.578780E+05 -2.454517E+04 -1.009619E+05  4.409699E+03  1.499896E+04
       146   9  5.363343E+04  6.686535E+04  4.659584E+04 -1.865084E+05 -9.503560E+03  1.551181E+04
       146  10  1.075117E+05  2.742771E+05  1.012929E+05 -1.872894E+05 -1.214546E-09  2.859610E-09
       146  11  2.598601E+04 -5.054117E+04  2.313248E+04 -1.017509E+05 -2.703148E-09 -6.489519E-09
       146  12 -5.534350E+04 -3.760742E+05 -5.528311E+04 -1.864777E+05 -2.020299E-09 -4.430848E-09
       146  13  1.985422E+03 -1.546447E+05  2.557428E+03 -1.864868E+05 -6.246601E-10 -2.036746E-09
       146  14  4.796704E+02 -1.542147E+05 -7.062220E+02 -1.013564E+05  1.636955E-09 -2.240810E-09
       146  15 -8.534006E+02 -1.546273E+05 -4.342321E+03 -1.864930E+05  6.229638E-10 -5.824818E-09
       146  16 -1.035537E+05 -5.833964E+05 -9.619024E+04 -1.856846E+05 -8.000711E-10 -2.827796E-09
       146  17 -2.502742E+04 -2.578782E+05 -2.454563E+04 -1.009620E+05  2.247465E-09  5.390289E-09
       146  18  5.363327E+04  6.686507E+04  4.659522E+04 -1.865083E+05  2.627947E-10  6.938604E-09
       146  19  1.075121E+05  2.742772E+05  1.012936E+05 -1.872895E+05 -1.811485E+04  5.001323E+03
       146  20  2.598604E+04 -5.054114E+04  2.313256E+04 -1.017509E+05 -4.454322E+03  4.847767E+03
       146  21 -5.534339E+04 -3.760742E+05 -5.528290E+04 -1.864777E+05  9.456220E+03  4.697193E+03
       146  22  1.985780E+03 -1.546446E+05  2.558086E+03 -1.864867E+05 -1.809352E+04 -4.744419E+03
       146  23  4.796984E+02 -1.542146E+05 -7.061366E+02 -1.013564E+05 -4.432005E+03 -5.076418E+03
       146  24 -8.532963E+02 -1.546272E+05 -4.342097E+03 -1.864931E+05  9.479892E+03 -5.405523E+03
       146  25 -1.035533E+05 -5.833960E+05 -9.618923E+04 -1.856843E+05 -1.807219E+04 -1.448348E+04
       146  26 -2.502734E+04 -2.578780E+05 -2.454517E+04 -1.009619E+05 -4.409699E+03 -1.499896E+04
       146  27  5.363343E+04  6.686535E+04  4.659584E+04 -1.865084E+05  9.503560E+03 -1.551181E+04
       147   1 -1.292637E+05 -6.892477E+05 -1.286977E+05 -1.822337E+05 -2.280269E+04 -1.333539E+04
       147   2 -2.094262E+05 -1.009159E+06 -2.096174E+05 -1.032954E+05 -3.380876E+04  1.594994E+04
       147   3 -3.156170E+05 -1.339564E+06 -3.162120E+05 -1.935077E+05 -1.239854E+04  4.527197E+04
       147   4  2.006104E+03 -1.559486E+05 -6.006077E+03 -1.862289E+05 -2.284566E+04  6.197457E+03
       147   5  1.644429E+03 -1.527575E+05 -1.120475E+04 -1.016776E+05 -3.379851E+04  1.217975E+04
       147   6 -2.067026E+04 -1.560971E+05 -2.586561E+04 -1.862656E+05 -1.235445E+04  1.821471E+04
       147   7  1.332563E+05  3.776148E+05  1.166682E+05 -1.902274E+05 -2.288885E+04  2.574696E+04
       147   8  2.126635E+05  7.043220E+05  1.871588E+05 -1.000571E+05 -3.378830E+04  8.404388E+03
       147   9  2.741732E+05  1.028649E+06  2.643808E+05 -1.790089E+05 -1.231103E+04 -8.894151E+03
       147  10 -1.292643E+05 -6.892480E+05 -1.286991E+05 -1.822340E+05 -2.051308E-09  7.297868E-09
       147  11 -2.094275E+05 -1.009159E+06 -2.096201E+05 -1.032950E+05  8.994601E-10  7.986063E-10
       147  12 -3.156177E+05 -1.339566E+06 -3.162162E+05 -1.935073E+05  6.890597E-10 -2.900993E-10
       147  13  2.005533E+03 -1.559487E+05 -6.007129E+03 -1.862288E+05 -2.140099E-09 -2.134321E-09
       147  14  1.643163E+03 -1.527580E+05 -1.120718E+04 -1.016772E+05 -1.059602E-09 -1.841458E-09
       147  15 -2.067052E+04 -1.560975E+05 -2.586652E+04 -1.862654E+05  1.886316E-10 -3.521763E-09
       147  16  1.332556E+05  3.776139E+05  1.166660E+05 -1.902269E+05  9.232597E-10 -7.304672E-09
       147  17  2.126623E+05  7.043216E+05  1.871566E+05 -1.000569E+05  2.875150E-10 -1.699474E-09
       147  18  2.741730E+05  1.028649E+06  2.643803E+05 -1.790090E+05 -2.072760E-11  1.741432E-09
       147  19 -1.292637E+05 -6.892477E+05 -1.286977E+05 -1.822337E+05  2.280269E+04  1.333539E+04
       147  20 -2.094262E+05 -1.009159E+06 -2.096174E+05 -1.032954E+05  3.380876E+04 -1.594994E+04
       147  21 -3.156170E+05 -1.339564E+06 -3.162120E+05 -1.935077E+05  1.239854E+04 -4.527197E+04
       147  22  2.006104E+03 -1.559486E+05 -6.006077E+03 -1.862289E+05  2.284566E+04 -6.197457E+03
       147  23  1.644429E+03 -1.527575E+05 -1.120475E+04 -1.016776E+05  3.379851E+04 -1.217975E+04
       147  24 -2.067026E+04 -1.560971E+05 -2.586561E+04 -1.862656E+05  1.235445E+04 -1.821471E+04
       147  25  1.332563E+05  3.776148E+05  1.166682E+05 -1.902274E+05  2.288885E+04 -2.574696E+04
       147  26  2.126635E+05  7.043220E+05  1.871588E+05 -1.000571E+05  3.378830E+04 -8.404388E+03
       147  27  2.741732E+05  1.028649E+06  2.643808E+05 -1.790089E+05  1.231103E+04  8.894151E+03
       148   1 -9.530634E+05 -3.253715E+05 -1.907910E+05 -3.471245E+05 -7.267283E+04 -2.236192E+04
       148   2 -9.137095E+05 -2.110800E+05 -1.196385E+05 -3.361237E+05 -4.710467E+04 -2.786611E+03
       148   3 -8.934629E+05 -1.941709E+05 -9.237988E+04 -3.219224E+05 -1.795024E+04  7.252844E+03
       148   4 -6.270739E+05 -1.744149E+05 -9.740293E+04 -2.294551E+05 -6.360295E+04 -1.895802E+04
       148   5 -6.129726E+05 -8.970462E+04 -4.142612E+04 -2.448206E+05 -4.444443E+04 -1.788731E+03
       148   6 -6.166925E+05 -1.010832E+05 -2.424342E+04 -2.569908E+05 -2.170223E+04  5.844085E+03
       148   7 -3.009779E+05 -2.343455E+04 -4.024294E+03 -1.117240E+05 -5.452779E+04 -1.555109E+04
       148   8 -3.121463E+05  3.168098E+04  3.677882E+04 -1.534758E+05 -4.178277E+04 -7.902215E+02
       148   9 -3.398472E+05 -7.993919E+03  4.388737E+04 -1.920345E+05 -2.545606E+04  4.434798E+03
       148  10 -9.530692E+05 -3.253735E+05 -1.908019E+05 -3.471258E+05 -6.241422E-09 -2.255164E-09
       148  11 -9.137119E+05 -2.110806E+05 -1.196426E+05 -3.361238E+05  2.697357E-09 -5.208866E-10
       148  12 -8.934633E+05 -1.941711E+05 -9.238058E+04 -3.219223E+05  8.772912E-09  2.694640E-09
       148  13 -6.270783E+05 -1.744163E+05 -9.741122E+04 -2.294561E+05 -2.250798E-09 -3.818336E-10
       148  14 -6.129747E+05 -8.970515E+04 -4.142984E+04 -2.448207E+05  1.004012E-09 -4.250888E-10
       148  15 -6.166930E+05 -1.010833E+05 -2.424437E+04 -2.569907E+05  2.020778E-09  1.150762E-10
       148  16 -3.009812E+05 -2.343561E+04 -4.030339E+03 -1.117247E+05  7.208883E-09  1.858399E-09
       148  17 -3.121481E+05  3.168051E+04  3.677554E+04 -1.534758E+05  2.022087E-09 -1.717451E-09
       148  18 -3.398479E+05 -7.994114E+03  4.388611E+04 -1.920344E+05 -5.240101E-09 -1.125342E-09
       148  19 -9.530634E+05 -3.253715E+05 -1.907910E+05 -3.471245E+05  7.267283E+04  2.236192E+04
       148  20 -9.137095E+05 -2.110800E+05 -1.196385E+05 -3.361237E+05  4.710467E+04  2.786611E+03
       148  21 -8.934629E+05 -1.941709E+05 -9.237988E+04 -3.219224E+05  1.795024E+04 -7.252844E+03
       148  22 -6.270739E+05 -1.744149E+05 -9.740293E+04 -2.294551E+05  6.360295E+04  1.895802E+04
       148  23 -6.129726E+05 -8.970462E+04 -4.142612E+04 -2.448206E+05  4.444443E+04  1.788731E+03
       148  24 -6.166925E+05 -1.010832E+05 -2.424342E+04 -2.569908E+05  2.170223E+04 -5.844085E+03
       148  25 -3.009779E+05 -2.343455E+04 -4.024294E+03 -1.117240E+05  5.452779E+04  1.555109E+04
       148  26 -3.121463E+05  3.168098E+04  3.677882E+04 -1.534758E+05  4.178277E+04  7.902215E+02
       148  27 -3.398472E+05 -7.993919E+03  4.388737E+04 -1.920345E+05  2.545606E+04 -4.434798E+03
       149   1 -8.419498E+05 -1.974141E+05 -7.794617E+04 -3.163565E+05 -1.675781E+04  5.022445E+03
       149   2 -8.099596E+05 -1.675456E+05 -5.816437E+04 -2.973537E+05 -1.088193E+04  5.576499E+03
       149   3 -7.653451E+05 -1.602327E+05 -4.417498E+04 -2.948827E+05 -4.813796E+03  5.617430E+03
       149   4 -6.134736E+05 -1.099759E+05 -1.948019E+04 -2.518913E+05 -1.756322E+04  4.719772E+03
       149   5 -6.193979E+05 -9.576334E+04 -9.726092E+03 -2.447381E+05 -1.203104E+04  5.145073E+03
       149   6 -6.126302E+05 -1.040366E+05 -5.490053E+03 -2.541172E+05 -6.306974E+03  5.057175E+03
       149   7 -3.849472E+05 -2.253405E+04  3.898128E+04 -1.874046E+05 -1.836895E+04  4.416972E+03
       149   8 -4.288008E+05 -2.397856E+04  3.870925E+04 -1.921078E+05 -1.318054E+04  4.713500E+03
       149   9 -4.598919E+05 -4.783905E+04  3.319317E+04 -2.133425E+05 -7.800559E+03  4.496774E+03
       149  10 -8.419501E+05 -1.974142E+05 -7.794675E+04 -3.163565E+05  4.857050E-09  1.243946E-09
       149  11 -8.099597E+05 -1.675457E+05 -5.816465E+04 -2.973537E+05 -1.919795E-09  1.297855E-10
       149  12 -7.653451E+05 -1.602327E+05 -4.417508E+04 -2.948827E+05  4.028926E-10 -6.705300E-10
       149  13 -6.134739E+05 -1.099760E+05 -1.948081E+04 -2.518913E+05  7.176573E-10  8.633034E-10
       149  14 -6.193981E+05 -9.576341E+04 -9.726414E+03 -2.447380E+05 -2.080573E-10 -1.466897E-11
       149  15 -6.126302E+05 -1.040367E+05 -5.490176E+03 -2.541172E+05  2.137283E-09 -5.569569E-10
       149  16 -3.849476E+05 -2.253417E+04  3.898060E+04 -1.874046E+05 -7.675675E-10  5.919158E-10
       149  17 -4.288009E+05 -2.397863E+04  3.870889E+04 -1.921077E+05 -2.286680E-10 -4.325083E-10
       149  18 -4.598920E+05 -4.783908E+04  3.319302E+04 -2.133425E+05 -5.433748E-10 -4.573700E-10
       149  19 -8.419498E+05 -1.974141E+05 -7.794617E+04 -3.163565E+05  1.675781E+04 -5.022445E+03
       149  20 -8.099596E+05 -1.675456E+05 -5.816437E+04 -2.973537E+05  1.088193E+04 -5.576499E+03
       149  21 -7.653451E+05 -1.602327E+05 -4.417498E+04 -2.948827E+05  4.813796E+03 -5.617430E+03
       149  22 -6.134736E+05 -1.099759E+05 -1.948019E+04 -2.518913E+05  1.756322E+04 -4.719772E+03
       149  23 -6.193979E+05 -9.576334E+04 -9.726092E+03 -2.447381E+05  1.203104E+04 -5.145073E+03
       149  24 -6.126302E+05 -1.040366E+05 -5.490053E+03 -2.541172E+05  6.306974E+03 -5.057175E+03
       149  25 -3.849472E+05 -2.253405E+04  3.898128E+04 -1.874046E+05  1.836895E+04 -4.416972E+03
       149  26 -4.288008E+05 -2.397856E+04  3.870925E+04 -1.921078E+05  1.318054E+04 -4.713500E+03
       149  27 -4.598919E+05 -4.783905E+04  3.319317E+04 -2.133425E+05  7.800559E+03 -4.496774E+03
       150   1 -7.247101E+05 -1.468490E+05 -3.263256E+04 -2.845189E+05 -3.723043E+03  4.607836E+03
       150   2 -6.933350E+05 -1.236847E+05 -2.088852E+04 -2.647503E+05 -1.795920E+03  3.046625E+03
       150   3 -6.464003E+05 -1.169978E+05 -1.016779E+04 -2.631157E+05  1.420321E+02  1.455831E+03
       150   4 -6.122786E+05 -1.047515E+05 -4.234784E+03 -2.537024E+05 -5.061988E+03  4.105545E+03
       150   5 -6.200256E+05 -9.628017E+04 -2.299454E+03 -2.447228E+05 -3.154579E+03  2.537032E+03
       150   6 -6.122105E+05 -1.042821E+05 -1.371476E+03 -2.538776E+05 -1.236427E+03  9.389170E+02
       150   7 -4.998347E+05 -6.265322E+04  2.416198E+04 -2.228809E+05 -6.401199E+03  3.603153E+03
       150   8 -5.467111E+05 -6.887538E+04  1.628914E+04 -2.246933E+05 -4.513410E+03  2.027375E+03
       150   9 -5.780197E+05 -9.156645E+04  7.424709E+03 -2.446390E+05 -2.614964E+03  4.219741E+02
       150  10 -7.247101E+05 -1.468490E+05 -3.263262E+04 -2.845189E+05 -1.184707E-09 -5.197269E-10
       150  11 -6.933350E+05 -1.236847E+05 -2.088854E+04 -2.647503E+05 -1.878859E-09  6.086388E-10
       150  12 -6.464003E+05 -1.169978E+05 -1.016779E+04 -2.631157E+05 -1.520188E-09  3.685599E-10
       150  13 -6.122786E+05 -1.047516E+05 -4.234864E+03 -2.537024E+05  1.070130E-09 -1.149475E-10
       150  14 -6.200256E+05 -9.628018E+04 -2.299485E+03 -2.447228E+05 -2.173810E-09  4.598043E-10
       150  15 -6.122105E+05 -1.042821E+05 -1.371480E+03 -2.538776E+05 -2.334562E-09 -5.777901E-11
       150  16 -4.998347E+05 -6.265325E+04  2.416188E+04 -2.228808E+05  1.693774E-09  1.853488E-10
       150  17 -5.467111E+05 -6.887539E+04  1.628909E+04 -2.246933E+05 -1.749654E-09  2.529786E-10
       150  18 -5.780197E+05 -9.156645E+04  7.424696E+03 -2.446390E+05 -9.501494E-10 -4.037770E-10
       150  19 -7.247101E+05 -1.468490E+05 -3.263256E+04 -2.845189E+05  3.723043E+03 -4.607836E+03
       150  20 -6.933350E+05 -1.236847E+05 -2.088852E+04 -2.647503E+05  1.795920E+03 -3.046625E+03
       150  21 -6.464003E+05 -1.169978E+05 -1.016779E+04 -2.631157E+05 -1.420321E+02 -1.455831E+03
       150  22 -6.122786E+05 -1.047515E+05 -4.234784E+03 -2.537024E+05  5.061988E+03 -4.105545E+03
       150  23 -6.200256E+05 -9.628017E+04 -2.299454E+03 -2.447228E+05  3.154579E+03 -2.537032E+03
       150  24 -6.122105E+05 -1.042821E+05 -1.371476E+03 -2.538776E+05  1.236427E+03 -9.389170E+02
       150  25 -4.998347E+05 -6.265322E+04  2.416198E+04 -2.228809E+05  6.401199E+03 -3.603153E+03
       150  26 -5.467111E+05 -6.887538E+04  1.628914E+04 -2.246933E+05  4.513410E+03 -2.027375E+03
       150  27 -5.780197E+05 -9.156645E+04  7.424709E+03 -2.446390E+05  2.614964E+03 -4.219741E+02
       151   1 -6.066002E+05 -1.022220E+05  4.404507E+02 -2.523243E+05  7.843456E+02  3.406788E+02
       151   2 -5.753055E+05 -7.958395E+04  1.051329E+04 -2.324836E+05  1.967675E+03 -1.536117E+03
       151   3 -5.281606E+05 -7.293117E+04  2.025858E+04 -2.308876E+05  3.151128E+03 -3.412661E+03
       151   4 -6.121692E+05 -1.043343E+05 -1.116407E+03 -2.538420E+05 -5.860929E+02 -1.732166E+02
       151   5 -6.200921E+05 -9.632956E+04 -8.426044E+02 -2.447238E+05  5.973142E+02 -2.050048E+03
       151   6 -6.121672E+05 -1.043108E+05 -8.966267E+02 -2.538514E+05  1.780807E+03 -3.926625E+03
       151   7 -6.177383E+05 -1.064465E+05 -2.673269E+03 -2.553597E+05 -1.956527E+03 -6.871102E+02
       151   8 -6.648766E+05 -1.130750E+05 -1.219863E+04 -2.569632E+05 -7.729350E+02 -2.563938E+03
       151   9 -6.961659E+05 -1.356895E+05 -2.205212E+04 -2.768121E+05  4.107043E+02 -4.440507E+03
       151  10 -6.066002E+05 -1.022220E+05  4.404494E+02 -2.523243E+05 -1.047168E-09 -3.316794E-10
       151  11 -5.753055E+05 -7.958395E+04  1.051328E+04 -2.324836E+05 -3.473234E-09 -1.006264E-09
       151  12 -5.281606E+05 -7.293118E+04  2.025854E+04 -2.308876E+05 -5.021678E-09 -3.906316E-10
       151  13 -6.121692E+05 -1.043343E+05 -1.116407E+03 -2.538420E+05 -1.706258E-09 -4.718072E-10
       151  14 -6.200921E+05 -9.632957E+04 -8.426130E+02 -2.447238E+05 -4.946560E-09 -7.530358E-10
       151  15 -6.121672E+05 -1.043108E+05 -8.966617E+02 -2.538514E+05 -5.417128E-09 -2.885402E-10
       151  16 -6.177383E+05 -1.064465E+05 -2.673277E+03 -2.553597E+05 -8.000479E-10 -7.312726E-10
       151  17 -6.648766E+05 -1.130750E+05 -1.219864E+04 -2.569632E+05 -5.781019E-09 -5.766435E-10
       151  18 -6.961659E+05 -1.356896E+05 -2.205216E+04 -2.768121E+05 -3.414079E-09 -2.357603E-10
       151  19 -6.066002E+05 -1.022220E+05  4.404507E+02 -2.523243E+05 -7.843456E+02 -3.406788E+02
       151  20 -5.753055E+05 -7.958395E+04  1.051329E+04 -2.324836E+05 -1.967675E+03  1.536117E+03
       151  21 -5.281606E+05 -7.293117E+04  2.025858E+04 -2.308876E+05 -3.151128E+03  3.412661E+03
       151  22 -6.121692E+05 -1.043343E+05 -1.116407E+03 -2.538420E+05  5.860929E+02  1.732166E+02
       151  23 -6.200921E+05 -9.632956E+04 -8.426044E+02 -2.447238E+05 -5.973142E+02  2.050048E+03
       151  24 -6.121672E+05 -1.043108E+05 -8.966267E+02 -2.538514E+05 -1.780807E+03  3.926625E+03
       151  25 -6.177383E+05 -1.064465E+05 -2.673269E+03 -2.553597E+05  1.956527E+03  6.871102E+02
       151  26 -6.648766E+05 -1.130750E+05 -1.219863E+04 -2.569632E+05  7.729350E+02  2.563938E+03
       151  27 -6.961659E+05 -1.356895E+05 -2.205212E+04 -2.768121E+05 -4.107043E+02  4.440507E+03
       152   1 -4.885509E+05 -5.806608E+04  3.045691E+04 -2.200887E+05  3.752884E+03 -4.536818E+03
       152   2 -4.574046E+05 -3.555367E+04  3.962692E+04 -2.003125E+05  5.311383E+03 -6.264767E+03
       152   3 -4.105409E+05 -2.903142E+04  4.817281E+04 -1.986780E+05  6.867499E+03 -7.984298E+03
       152   4 -6.121950E+05 -1.042877E+05 -1.031201E+03 -2.538384E+05  2.384266E+03 -5.050229E+03
       152   5 -6.200621E+05 -9.634747E+04 -1.609097E+03 -2.447469E+05  3.948090E+03 -6.776406E+03
       152   6 -6.122136E+05 -1.043988E+05 -2.815249E+03 -2.537980E+05  5.509479E+03 -8.494179E+03
       152   7 -7.358248E+05 -1.505085E+05 -3.252071E+04 -2.875822E+05  1.015939E+03 -5.563532E+03
       152   8 -7.826951E+05 -1.571401E+05 -4.284763E+04 -2.891712E+05  2.585176E+03 -7.287903E+03
       152   9 -8.138491E+05 -1.797645E+05 -5.380726E+04 -3.089024E+05  4.151925E+03 -9.003886E+03
       152  10 -4.885509E+05 -5.806611E+04  3.045684E+04 -2.200887E+05 -4.208911E-09  1.393256E-10
       152  11 -4.574047E+05 -3.555372E+04  3.962679E+04 -2.003125E+05  1.198174E-09 -5.399015E-10
       152  12 -4.105410E+05 -2.903150E+04  4.817260E+04 -1.986779E+05  2.083240E-10 -2.771887E-10
       152  13 -6.121950E+05 -1.042877E+05 -1.031260E+03 -2.538384E+05 -4.502566E-09 -2.299701E-10
       152  14 -6.200621E+05 -9.634752E+04 -1.609213E+03 -2.447469E+05 -2.663246E-09 -6.032524E-10
       152  15 -6.122136E+05 -1.043989E+05 -2.815441E+03 -2.537979E+05  5.869696E-10 -2.841524E-10
       152  16 -7.358248E+05 -1.505085E+05 -3.252077E+04 -2.875821E+05 -4.163628E-09 -5.565821E-10
       152  17 -7.826951E+05 -1.571402E+05 -4.284775E+04 -2.891712E+05 -1.740477E-10 -4.364175E-10
       152  18 -8.138491E+05 -1.797646E+05 -5.380745E+04 -3.089024E+05  1.841377E-09  2.919151E-11
       152  19 -4.885509E+05 -5.806608E+04  3.045691E+04 -2.200887E+05 -3.752884E+03  4.536818E+03
       152  20 -4.574046E+05 -3.555367E+04  3.962692E+04 -2.003125E+05 -5.311383E+03  6.264767E+03
       152  21 -4.105409E+05 -2.903142E+04  4.817281E+04 -1.986780E+05 -6.867499E+03  7.984298E+03
       152  22 -6.121950E+05 -1.042877E+05 -1.031201E+03 -2.538384E+05 -2.384266E+03  5.050229E+03
       152  23 -6.200621E+05 -9.634747E+04 -1.609097E+03 -2.447469E+05 -3.948090E+03  6.776406E+03
       152  24 -6.122136E+05 -1.043988E+05 -2.815249E+03 -2.537980E+05 -5.509479E+03  8.494179E+03
       152  25 -7.358248E+05 -1.505085E+05 -3.252071E+04 -2.875822E+05 -1.015939E+03  5.563532E+03
       152  26 -7.826951E+05 -1.571401E+05 -4.284763E+04 -2.891712E+05 -2.585176E+03  7.287903E+03
       152  27 -8.138491E+05 -1.797645E+05 -5.380726E+04 -3.089024E+05 -4.151925E+03  9.003886E+03
       153   1 -3.712499E+05 -1.427868E+04  5.753993E+04 -1.882240E+05  7.852485E+03 -8.958594E+03
       153   2 -3.403148E+05  8.309616E+03  6.426963E+04 -1.683344E+05  1.189156E+04 -9.725750E+03
       153   3 -2.946736E+05  1.357318E+04  6.813076E+04 -1.660961E+05  1.591243E+04 -1.044094E+04
       153   4 -6.123778E+05 -1.042153E+05 -3.691093E+03 -2.538723E+05  6.485886E+03 -9.471883E+03
       153   5 -6.198284E+05 -9.624511E+04 -6.603736E+03 -2.447866E+05  1.055830E+04 -1.022688E+04
       153   6 -6.125810E+05 -1.056069E+05 -1.241216E+04 -2.533528E+05  1.461230E+04 -1.092998E+04
       153   7 -8.534461E+05 -1.941473E+05 -6.492604E+04 -3.194968E+05  5.119884E+03 -9.984950E+03
       153   8 -8.992639E+05 -2.007941E+05 -7.748288E+04 -3.212071E+05  9.225707E+03 -1.072776E+04
       153   9 -9.303891E+05 -2.247800E+05 -9.296305E+04 -3.405688E+05  1.331291E+04 -1.141874E+04
       153  10 -3.712500E+05 -1.427878E+04  5.753966E+04 -1.882240E+05  3.652709E-10  1.923939E-10
       153  11 -3.403150E+05  8.309476E+03  6.426918E+04 -1.683343E+05  9.262567E-11 -1.037973E-09
       153  12 -2.946739E+05  1.357299E+04  6.813008E+04 -1.660960E+05  2.056032E-10 -6.286293E-10
       153  13 -6.123778E+05 -1.042155E+05 -3.691341E+03 -2.538722E+05 -1.223457E-09  1.764128E-10
       153  14 -6.198286E+05 -9.624526E+04 -6.604142E+03 -2.447865E+05 -1.662041E-10 -1.218169E-10
       153  15 -6.125813E+05 -1.056070E+05 -1.241278E+04 -2.533527E+05  2.615433E-10 -2.968786E-10
       153  16 -8.534462E+05 -1.941474E+05 -6.492628E+04 -3.194967E+05 -2.511535E-10  1.494403E-11
       153  17 -8.992640E+05 -2.007943E+05 -7.748325E+04 -3.212070E+05 -7.901480E-10 -2.248264E-11
       153  18 -9.303894E+05 -2.247802E+05 -9.296363E+04 -3.405687E+05 -7.226582E-10  8.595083E-10
       153  19 -3.712499E+05 -1.427868E+04  5.753993E+04 -1.882240E+05 -7.852485E+03  8.958594E+03
       153  20 -3.403148E+05  8.309616E+03  6.426963E+04 -1.683344E+05 -1.189156E+04  9.725750E+03
       153  21 -2.946736E+05  1.357318E+04  6.813076E+04 -1.660961E+05 -1.591243E+04  1.044094E+04
       153  22 -6.123778E+05 -1.042153E+05 -3.691093E+03 -2.538723E+05 -6.485886E+03  9.471883E+03
       153  23 -6.198284E+05 -9.624511E+04 -6.603736E+03 -2.447866E+05 -1.055830E+04  1.022688E+04
       153  24 -6.125810E+05 -1.056069E+05 -1.241216E+04 -2.533528E+05 -1.461230E+04  1.092998E+04
       153  25 -8.534461E+05 -1.941473E+05 -6.492604E+04 -3.194968E+05 -5.119884E+03  9.984950E+03
       153  26 -8.992639E+05 -2.007941E+05 -7.748288E+04 -3.212071E+05 -9.225707E+03  1.072776E+04
       153  27 -9.303891E+05 -2.247800E+05 -9.296305E+04 -3.405688E+05 -1.331291E+04  1.141874E+04
       154   1 -2.547747E+05  2.805683E+04  7.445420E+04 -1.592122E+05  1.890544E+04 -1.074601E+04
       154   2 -2.243671E+05  5.417923E+04  7.140804E+04 -1.354576E+05  3.380785E+04 -7.283186E+03
       154   3 -1.876182E+05  4.526376E+04  5.249775E+04 -1.246754E+05  4.841224E+04 -3.021084E+03
       154   4 -6.136118E+05 -1.035073E+05 -1.615209E+04 -2.545938E+05  1.736921E+04 -1.132398E+04
       154   5 -6.179749E+05 -9.469671E+04 -2.871481E+04 -2.448142E+05  3.280055E+04 -7.662988E+03
       154   6 -6.161091E+05 -1.210389E+05 -5.756929E+04 -2.480082E+05  4.793287E+04 -3.203046E+03
       154   7 -9.723246E+05 -2.350650E+05 -1.067690E+05 -3.499264E+05  1.583395E+04 -1.190159E+04
       154   8 -1.011432E+06 -2.435621E+05 -1.288504E+05 -3.541079E+05  3.179393E+04 -8.042525E+03
       154   9 -1.044421E+06 -2.873261E+05 -1.676515E+05 -3.712626E+05  4.745385E+04 -3.384864E+03
       154  10 -2.547751E+05  2.805661E+04  7.445331E+04 -1.592120E+05  7.139357E-10 -9.160090E-10
       154  11 -2.243683E+05  5.417886E+04  7.140579E+04 -1.354574E+05 -8.942936E-10  7.730473E-10
       154  12 -1.876207E+05  4.526313E+04  5.249333E+04 -1.246753E+05  6.918619E-10  1.163326E-09
       154  13 -6.136121E+05 -1.035075E+05 -1.615290E+04 -2.545936E+05  5.721901E-10 -1.386511E-09
       154  14 -6.179760E+05 -9.469707E+04 -2.871695E+04 -2.448140E+05 -4.319612E-10  5.615099E-10
       154  15 -6.161116E+05 -1.210396E+05 -5.757363E+04 -2.480081E+05  9.578435E-10 -2.272431E-11
       154  16 -9.723249E+05 -2.350652E+05 -1.067698E+05 -3.499263E+05  3.044506E-10  6.877143E-10
       154  17 -1.011433E+06 -2.435624E+05 -1.288525E+05 -3.541077E+05  4.891016E-10 -4.335821E-10
       154  18 -1.044423E+06 -2.873267E+05 -1.676557E+05 -3.712625E+05 -1.660825E-09  1.355255E-09
       154  19 -2.547747E+05  2.805683E+04  7.445420E+04 -1.592122E+05 -1.890544E+04  1.074601E+04
       154  20 -2.243671E+05  5.417923E+04  7.140804E+04 -1.354576E+05 -3.380785E+04  7.283186E+03
       154  21 -1.876182E+05  4.526376E+04  5.249775E+04 -1.246754E+05 -4.841224E+04  3.021084E+03
       154  22 -6.136118E+05 -1.035073E+05 -1.615209E+04 -2.545938E+05 -1.736921E+04  1.132398E+04
       154  23 -6.179749E+05 -9.469671E+04 -2.871481E+04 -2.448142E+05 -3.280055E+04  7.662988E+03
       154  24 -6.161091E+05 -1.210389E+05 -5.756929E+04 -2.480082E+05 -4.793287E+04  3.203046E+03
       154  25 -9.723246E+05 -2.350650E+05 -1.067690E+05 -3.499264E+05 -1.583395E+04  1.190159E+04
       154  26 -1.011432E+06 -2.435621E+05 -1.288504E+05 -3.541079E+05 -3.179393E+04  8.042525E+03
       154  27 -1.044421E+06 -2.873261E+05 -1.676515E+05 -3.712626E+05 -4.745385E+04  3.384864E+03
       155   1 -1.321188E+05  5.893158E+04  4.747219E+04 -1.598346E+05  6.369949E+04 -6.369543E+02
       155   2 -1.108927E+05  1.324736E+05  6.658135E+03 -8.423038E+04  1.201756E+05  2.056721E+04
       155   3 -1.712492E+05 -4.511319E+04 -1.409510E+05  3.618417E+04  1.711030E+05  5.651212E+04
       155   4 -6.254883E+05 -9.489476E+04 -7.166055E+04 -2.632572E+05  5.866737E+04 -2.528784E+03
       155   5 -5.990912E+05 -7.659944E+04 -1.224485E+05 -2.448790E+05  1.250240E+05  2.238592E+04
       155   6 -6.563195E+05 -3.115246E+05 -2.879325E+05 -1.816716E+05  1.858285E+05  6.203365E+04
       155   7 -1.118619E+06 -2.487213E+05 -1.908102E+05 -3.666134E+05  5.363962E+04 -4.419599E+03
       155   8 -1.087051E+06 -2.856344E+05 -2.515747E+05 -4.054047E+05  1.298681E+05  2.420251E+04
       155   9 -1.141137E+06 -5.778269E+05 -4.349335E+05 -3.993449E+05  2.005411E+05  6.754538E+04
       155  10 -1.321232E+05  5.893049E+04  4.746457E+04 -1.598346E+05  1.765093E-09  1.668356E-10
       155  11 -1.109083E+05  1.324693E+05  6.630193E+03 -8.423237E+04 -1.993930E-09 -1.753462E-09
       155  12 -1.712815E+05 -4.512448E+04 -1.410120E+05  3.617638E+04  6.630540E-10 -7.007549E-10
       155  13 -6.254920E+05 -9.489569E+04 -7.166704E+04 -2.632571E+05  7.264230E-10 -5.143565E-10
       155  14 -5.991081E+05 -7.660418E+04 -1.224789E+05 -2.448812E+05 -5.499901E-10 -1.128469E-09
       155  15 -6.563576E+05 -3.115380E+05 -2.880047E+05 -1.816809E+05 -1.306045E-11  2.282311E-09
       155  16 -1.118622E+06 -2.487221E+05 -1.908157E+05 -3.666132E+05 -1.987889E-09  1.240225E-09
       155  17 -1.087069E+06 -2.856396E+05 -2.516075E+05 -4.054072E+05  9.098770E-10  3.569923E-09
       155  18 -1.141182E+06 -5.778426E+05 -4.350178E+05 -3.993558E+05  1.063048E-09  4.788008E-10
       155  19 -1.321188E+05  5.893158E+04  4.747219E+04 -1.598346E+05 -6.369949E+04  6.369543E+02
       155  20 -1.108927E+05  1.324736E+05  6.658135E+03 -8.423038E+04 -1.201756E+05 -2.056721E+04
       155  21 -1.712492E+05 -4.511319E+04 -1.409510E+05  3.618417E+04 -1.711030E+05 -5.651212E+04
       155  22 -6.254883E+05 -9.489476E+04 -7.166055E+04 -2.632572E+05 -5.866737E+04  2.528784E+03
       155  23 -5.990912E+05 -7.659944E+04 -1.224485E+05 -2.448790E+05 -1.250240E+05 -2.238592E+04
       155  24 -6.563195E+05 -3.115246E+05 -2.879325E+05 -1.816716E+05 -1.858285E+05 -6.203365E+04
       155  25 -1.118619E+06 -2.487213E+05 -1.908102E+05 -3.666134E+05 -5.363962E+04  4.419599E+03
       155  26 -1.087051E+06 -2.856344E+05 -2.515747E+05 -4.054047E+05 -1.298681E+05 -2.420251E+04
       155  27 -1.141137E+06 -5.778269E+05 -4.349335E+05 -3.993449E+05 -2.005411E+05 -6.754538E+04
       156   1  2.411936E+05  2.139334E+06  2.403905E+05 -3.647027E+04  1.058169E+04  1.101391E+05
       156   2  1.810422E+05  2.140584E+06  1.750837E+05 -1.370913E+04  3.700208E+04  6.151539E+04
       156   3  1.683027E+05  2.160052E+06  1.532446E+05  1.255497E+04  4.745880E+04  1.288177E+04
       156   4  7.205483E+04  1.452406E+06  8.065791E+04  9.440999E+03  1.063719E+04  5.223331E+04
       156   5  1.572068E+04  1.445642E+06  4.222923E+04  7.653190E+03  3.703650E+04  3.051763E+04
       156   6  2.162591E+03  1.452448E+06  2.863804E+04  9.369227E+03  4.746780E+04  8.791165E+03
       156   7 -9.710755E+04  7.659242E+05 -7.909282E+04  5.530135E+04  1.068418E+04 -5.609096E+03
       156   8 -1.496270E+05  7.511658E+05 -9.064340E+04  2.899121E+04  3.706881E+04 -4.463521E+02
       156   9 -1.640048E+05  7.453320E+05 -9.598674E+04  6.187335E+03  4.747686E+04  4.705064E+03
       156  10  2.411903E+05  2.139321E+06  2.403676E+05 -3.647121E+04  8.263747E-10  1.515044E-09
       156  11  1.810397E+05  2.140579E+06  1.750741E+05 -1.371096E+04 -1.610863E-09 -2.171584E-09
       156  12  1.683003E+05  2.160051E+06  1.532401E+05  1.255447E+04  1.036453E-09 -2.038024E-09
       156  13  7.205398E+04  1.452403E+06  8.065259E+04  9.440551E+03  2.152543E-10  1.491870E-10
       156  14  1.571896E+04  1.445640E+06  4.222491E+04  7.652280E+03  3.839156E-09 -1.142149E-10
       156  15  2.160149E+03  1.452447E+06  2.863366E+04  9.368891E+03  1.275266E-09 -1.658621E-09
       156  16 -9.710768E+04  7.659242E+05 -7.909309E+04  5.530140E+04  1.306011E-09 -1.389101E-09
       156  17 -1.496285E+05  7.511654E+05 -9.064598E+04  2.899123E+04 -3.206459E-10  8.418225E-10
       156  18 -1.640072E+05  7.453313E+05 -9.599102E+04  6.187155E+03  2.351040E-09  5.539345E-10
       156  19  2.411936E+05  2.139334E+06  2.403905E+05 -3.647027E+04 -1.058169E+04 -1.101391E+05
       156  20  1.810422E+05  2.140584E+06  1.750837E+05 -1.370913E+04 -3.700208E+04 -6.151539E+04
       156  21  1.683027E+05  2.160052E+06  1.532446E+05  1.255497E+04 -4.745880E+04 -1.288177E+04
       156  22  7.205483E+04  1.452406E+06  8.065791E+04  9.440999E+03 -1.063719E+04 -5.223331E+04
       156  23  1.572068E+04  1.445642E+06  4.222923E+04  7.653190E+03 -3.703650E+04 -3.051763E+04
       156  24  2.162591E+03  1.452448E+06  2.863804E+04  9.369227E+03 -4.746780E+04 -8.791165E+03
       156  25 -9.710755E+04  7.659242E+05 -7.909282E+04  5.530135E+04 -1.068418E+04  5.609096E+03
       156  26 -1.496270E+05  7.511658E+05 -9.064340E+04  2.899121E+04 -3.706881E+04  4.463521E+02
       156  27 -1.640048E+05  7.453320E+05 -9.598674E+04  6.187335E+03 -4.747686E+04 -4.705064E+03
       157   1  1.705238E+05  2.164033E+06  1.510393E+05  6.062667E+03  4.866829E+04  1.059585E+04
       157   2  1.709743E+05  2.172750E+06  1.520616E+05  7.585469E+03  5.080951E+04 -7.885840E+03
       157   3  1.791345E+05  2.185855E+06  1.670328E+05  1.158470E+04  4.996637E+04 -2.637144E+04
       157   4  3.079272E+03  1.450208E+06  2.619854E+04  9.148919E+03  4.868018E+04  4.507201E+03
       157   5  1.387106E+03  1.448443E+06  2.692668E+04  7.912335E+03  5.081612E+04 -8.932477E+03
       157   6  6.536680E+03  1.450197E+06  3.811860E+04  9.152324E+03  4.996613E+04 -2.237573E+04
       157   7 -1.643928E+05  7.368809E+05 -9.866027E+04  1.223166E+04  4.869201E+04 -1.574676E+03
       157   8 -1.682282E+05  7.246492E+05 -9.822634E+04  8.238963E+03  5.082273E+04 -9.977929E+03
       157   9 -1.660905E+05  7.150676E+05 -9.081504E+04  6.723078E+03  4.996586E+04 -1.838459E+04
       157  10  1.705212E+05  2.164032E+06  1.510346E+05  6.062252E+03  4.716597E-11 -2.737400E-09
       157  11  1.709715E+05  2.172749E+06  1.520566E+05  7.585792E+03 -1.135242E-09 -4.627374E-09
       157  12  1.791317E+05  2.185854E+06  1.670268E+05  1.158576E+04  3.595707E-10 -1.464355E-09
       157  13  3.076721E+03  1.450208E+06  2.619404E+04  9.148743E+03  5.078834E-10  1.739819E-11
       157  14  1.384310E+03  1.448442E+06  2.692167E+04  7.912701E+03 -2.801502E-09 -2.506341E-10
       157  15  6.533863E+03  1.450196E+06  3.811297E+04  9.153224E+03 -1.025680E-10 -2.227430E-09
       157  16 -1.643954E+05  7.368802E+05 -9.866473E+04  1.223172E+04  5.615621E-10  2.954206E-09
       157  17 -1.682310E+05  7.246484E+05 -9.823138E+04  8.239371E+03 -1.118026E-10  2.766574E-09
       157  18 -1.660933E+05  7.150665E+05 -9.082037E+04  6.723817E+03 -1.481825E-09 -7.381369E-10
       157  19  1.705238E+05  2.164033E+06  1.510393E+05  6.062667E+03 -4.866829E+04 -1.059585E+04
       157  20  1.709743E+05  2.172750E+06  1.520616E+05  7.585469E+03 -5.080951E+04  7.885840E+03
       157  21  1.791345E+05  2.185855E+06  1.670328E+05  1.158470E+04 -4.996637E+04  2.637144E+04
       157  22  3.079272E+03  1.450208E+06  2.619854E+04  9.148919E+03 -4.868018E+04 -4.507201E+03
       157  23  1.387106E+03  1.448443E+06  2.692668E+04  7.912335E+03 -5.081612E+04  8.932477E+03
       157  24  6.536680E+03  1.450197E+06  3.811860E+04  9.152324E+03 -4.996613E+04  2.237573E+04
       157  25 -1.643928E+05  7.368809E+05 -9.866027E+04  1.223166E+04 -4.869201E+04  1.574676E+03
       157  26 -1.682282E+05  7.246492E+05 -9.822634E+04  8.238963E+03 -5.082273E+04  9.977929E+03
       157  27 -1.660905E+05  7.150676E+05 -9.081504E+04  6.723078E+03 -4.996586E+04  1.838459E+04
       158   1  1.791168E+05  2.199216E+06  1.786393E+05 -3.996961E+02  4.961456E+04 -3.060007E+04
       158   2  2.114254E+05  2.194602E+06  2.258496E+05  4.943670E+04  3.969208E+04 -1.028547E+05
       158   3  3.362584E+05  2.222544E+06  3.431365E+05  1.007359E+05  1.180763E+04 -1.751484E+05
       158   4  4.387640E+03  1.455496E+06  4.731398E+04  8.893451E+03  4.961670E+04 -2.880842E+04
       158   5  3.242528E+04  1.441775E+06  8.130544E+04  8.273409E+03  3.965117E+04 -7.077912E+04
       158   6  1.477912E+05  1.455391E+06  1.644191E+05  9.113449E+03  1.172541E+04 -1.127838E+05
       158   7 -1.703715E+05  7.123156E+05 -8.403168E+04  1.817536E+04  4.961890E+04 -2.701884E+04
       158   8 -1.466013E+05  6.894976E+05 -6.325998E+04 -3.283877E+04  3.960599E+04 -3.874136E+04
       158   9 -4.068355E+04  6.888053E+05 -1.431899E+04 -8.239522E+04  1.162480E+04 -5.049554E+04
       158  10  1.791139E+05  2.199214E+06  1.786329E+05 -3.984746E+02 -7.029748E-10 -4.021399E-10
       158  11  2.114209E+05  2.194590E+06  2.258268E+05  4.943998E+04  7.197820E-10 -3.756396E-09
       158  12  3.362500E+05  2.222511E+06  3.430788E+05  1.007376E+05  1.836493E-10 -1.616842E-09
       158  13  4.384773E+03  1.455495E+06  4.730780E+04  8.894601E+03  3.630416E-10  1.947202E-10
       158  14  3.242225E+04  1.441769E+06  8.129310E+04  8.275668E+03 -3.596753E-10  6.058785E-11
       158  15  1.477877E+05  1.455377E+06  1.643950E+05  9.114513E+03  4.906614E-10 -2.527047E-09
       158  16 -1.703743E+05  7.123142E+05 -8.403768E+04  1.817644E+04 -9.634533E-10  5.679102E-11
       158  17 -1.466034E+05  6.894955E+05 -6.326575E+04 -3.283753E+04  4.700062E-10  1.517337E-09
       158  18 -4.068438E+04  6.888025E+05 -1.432403E+04 -8.239475E+04  2.585660E-09 -1.003444E-09
       158  19  1.791168E+05  2.199216E+06  1.786393E+05 -3.996961E+02 -4.961456E+04  3.060007E+04
       158  20  2.114254E+05  2.194602E+06  2.258496E+05  4.943670E+04 -3.969208E+04  1.028547E+05
       158  21  3.362584E+05  2.222544E+06  3.431365E+05  1.007359E+05 -1.180763E+04  1.751484E+05
       158  22  4.387640E+03  1.455496E+06  4.731398E+04  8.893451E+03 -4.961670E+04  2.880842E+04
       158  23  3.242528E+04  1.441775E+06  8.130544E+04  8.273409E+03 -3.965117E+04  7.077912E+04
       158  24  1.477912E+05  1.455391E+06  1.644191E+05  9.113449E+03 -1.172541E+04  1.127838E+05
       158  25 -1.703715E+05  7.123156E+05 -8.403168E+04  1.817536E+04 -4.961890E+04  2.701884E+04
       158  26 -1.466013E+05  6.894976E+05 -6.325998E+04 -3.283877E+04 -3.960599E+04  3.874136E+04
       158  27 -4.068355E+04  6.888053E+05 -1.431899E+04 -8.239522E+04 -1.162480E+04  5.049554E+04
       159   1 -1.248226E+05 -1.215218E+05 -7.133969E+04  9.472903E+03  1.291393E+05  1.527194E+04
       159   2 -3.154595E+04 -2.947596E+05 -1.575480E+05 -1.249045E+04  9.541518E+04  4.617219E+04
       159   3  1.185356E+05 -2.622125E+05 -1.701633E+05 -9.707159E+04  6.173309E+04  4.508516E+04
       159   4  1.141107E+06  1.930305E+05  2.378496E+05 -6.829393E+04  1.631696E+05  1.530937E+04
       159   5  1.110856E+06 -1.370730E+04  1.062812E+05 -3.685065E+04  1.063174E+05  4.617539E+04
       159   6  1.141286E+06 -1.086472E+04  6.424288E+04 -6.801087E+04  4.951606E+04  4.507451E+04
       159   7  2.408512E+06  5.074883E+05  5.469299E+05 -1.462202E+05  1.972689E+05  1.533826E+04
       159   8  2.254464E+06  2.672560E+05  3.700243E+05 -6.125632E+04  1.172394E+05  4.617773E+04
       159   9  2.165007E+06  2.404135E+05  2.985814E+05 -3.890201E+04  3.727902E+04  4.506272E+04
       159  10 -1.248406E+05 -1.215265E+05 -7.137148E+04  9.471314E+03 -4.106898E-10  3.486619E-12
       159  11 -3.155630E+04 -2.947643E+05 -1.575691E+05 -1.249400E+04 -5.896384E-10  2.929652E-11
       159  12  1.185310E+05 -2.622157E+05 -1.701743E+05 -9.707383E+04 -6.438968E-10  1.560535E-10
       159  13  1.141078E+06  1.930231E+05  2.377992E+05 -6.829594E+04  4.653894E-12  4.600312E-11
       159  14  1.110843E+06 -1.371261E+04  1.062560E+05 -3.685460E+04  4.594079E-10  1.822238E-10
       159  15  1.141283E+06 -1.086756E+04  6.423446E+04 -6.801267E+04  2.232081E-10  2.638902E-10
       159  16  2.408470E+06  5.074777E+05  5.468566E+05 -1.462226E+05  1.017751E-09  1.157410E-10
       159  17  2.254449E+06  2.672500E+05  3.699946E+05 -6.126067E+04 -5.585125E-10  2.831635E-10
       159  18  2.165005E+06  2.404109E+05  2.985749E+05 -3.890336E+04  1.372046E-10  1.856270E-10
       159  19 -1.248226E+05 -1.215218E+05 -7.133969E+04  9.472903E+03 -1.291393E+05 -1.527194E+04
       159  20 -3.154595E+04 -2.947596E+05 -1.575480E+05 -1.249045E+04 -9.541518E+04 -4.617219E+04
       159  21  1.185356E+05 -2.622125E+05 -1.701633E+05 -9.707159E+04 -6.173309E+04 -4.508516E+04
       159  22  1.141107E+06  1.930305E+05  2.378496E+05 -6.829393E+04 -1.631696E+05 -1.530937E+04
       159  23  1.110856E+06 -1.370730E+04  1.062812E+05 -3.685065E+04 -1.063174E+05 -4.617539E+04
       159  24  1.141286E+06 -1.086472E+04  6.424288E+04 -6.801087E+04 -4.951606E+04 -4.507451E+04
       159  25  2.408512E+06  5.074883E+05  5.469299E+05 -1.462202E+05 -1.972689E+05 -1.533826E+04
       159  26  2.254464E+06  2.672560E+05  3.700243E+05 -6.125632E+04 -1.172394E+05 -4.617773E+04
       159  27  2.165007E+06  2.404135E+05  2.985814E+05 -3.890201E+04 -3.727902E+04 -4.506272E+04
       160   1  2.214445E+05 -2.089997E+05 -1.573175E+05 -6.341533E+04  4.233313E+04  3.787448E+04
       160   2  3.370973E+05 -1.952780E+05 -1.539433E+05 -3.581678E+04  2.964510E+04  3.382122E+04
       160   3  4.587651E+05 -1.656952E+05 -1.382594E+05 -7.032695E+04  1.694872E+04  2.822298E+04
       160   4  1.129209E+06  1.422455E+04  5.171086E+04 -6.797804E+04  4.001312E+04  3.786929E+04
       160   5  1.126147E+06 -1.339909E+03  2.731070E+04 -3.692451E+04  2.619372E+04  3.381770E+04
       160   6  1.129273E+06 -8.587345E+02  1.599153E+04 -6.797416E+04  1.236838E+04  2.822193E+04
       160   7  2.037734E+06  2.373913E+05  2.606847E+05 -7.254751E+04  3.768971E+04  3.786413E+04
       160   8  1.915771E+06  1.925548E+05  2.085236E+05 -3.803366E+04  2.273798E+04  3.381420E+04
       160   9  1.800196E+06  1.639464E+05  1.702128E+05 -6.561876E+04  7.783119E+03  2.822085E+04
       160  10  2.214422E+05 -2.090017E+05 -1.573236E+05 -6.341663E+04 -3.059855E-11  8.889490E-11
       160  11  3.370961E+05 -1.952794E+05 -1.539471E+05 -3.581759E+04 -3.844346E-10 -2.525156E-10
       160  12  4.587646E+05 -1.656962E+05 -1.382615E+05 -7.032734E+04 -2.521938E-10 -1.186090E-10
       160  13  1.129206E+06  1.422258E+04  5.170516E+04 -6.797926E+04 -5.978074E-10  6.789286E-11
       160  14  1.126145E+06 -1.341322E+03  2.730726E+04 -3.692522E+04 -1.279796E-10 -9.031336E-11
       160  15  1.129272E+06 -8.596313E+02  1.598975E+04 -6.797444E+04 -8.163671E-10  2.393057E-11
       160  16  2.037732E+06  2.373894E+05  2.606793E+05 -7.254866E+04  1.497575E-10  7.763309E-11
       160  17  1.915770E+06  1.925534E+05  2.085205E+05 -3.803428E+04 -2.983628E-10  9.773803E-11
       160  18  1.800196E+06  1.639455E+05  1.702112E+05 -6.561894E+04 -3.009011E-10  5.278105E-11
       160  19  2.214445E+05 -2.089997E+05 -1.573175E+05 -6.341533E+04 -4.233313E+04 -3.787448E+04
       160  20  3.370973E+05 -1.952780E+05 -1.539433E+05 -3.581678E+04 -2.964510E+04 -3.382122E+04
       160  21  4.587651E+05 -1.656952E+05 -1.382594E+05 -7.032695E+04 -1.694872E+04 -2.822298E+04
       160  22  1.129209E+06  1.422455E+04  5.171086E+04 -6.797804E+04 -4.001312E+04 -3.786929E+04
       160  23  1.126147E+06 -1.339909E+03  2.731070E+04 -3.692451E+04 -2.619372E+04 -3.381770E+04
       160  24  1.129273E+06 -8.587345E+02  1.599153E+04 -6.797416E+04 -1.236838E+04 -2.822193E+04
       160  25  2.037734E+06  2.373913E+05  2.606847E+05 -7.254751E+04 -3.768971E+04 -3.786413E+04
       160  26  1.915771E+06  1.925548E+05  2.085236E+05 -3.803366E+04 -2.273798E+04 -3.381420E+04
       160  27  1.800196E+06  1.639464E+05  1.702128E+05 -6.561876E+04 -7.783119E+03 -2.822085E+04
       161   1  5.702242E+05 -1.360452E+05 -1.154177E+05 -6.757544E+04  1.394444E+04  2.465797E+04
       161   2  6.868398E+05 -1.084716E+05 -9.422616E+04 -3.707462E+04  1.050936E+04  1.896587E+04
       161   3  8.042735E+05 -7.962542E+04 -7.047371E+04 -6.786260E+04  7.069693E+03  1.321583E+04
       161   4  1.128111E+06  9.860653E+02  1.236391E+04 -6.779327E+04  9.868740E+03  2.465793E+04
       161   5  1.127719E+06 -1.394524E+02  6.991230E+03 -3.715050E+04  6.388720E+03  1.896712E+04
       161   6  1.128141E+06  1.586670E+01  4.209678E+03 -6.779383E+04  2.904747E+03  1.321844E+04
       161   7  1.686286E+06  1.379957E+05  1.401251E+05 -6.801126E+04  5.789404E+03  2.465789E+04
       161   8  1.568779E+06  1.081792E+05  1.081959E+05 -3.722641E+04  2.265177E+03  1.896837E+04
       161   9  1.452106E+06  7.964983E+04  7.888616E+04 -6.772501E+04 -1.262352E+03  1.322104E+04
       161  10  5.702238E+05 -1.360459E+05 -1.154192E+05 -6.757572E+04 -9.631402E-10 -2.351692E-11
       161  11  6.868396E+05 -1.084720E+05 -9.422704E+04 -3.707478E+04  6.120066E-11  2.448354E-12
       161  12  8.042734E+05 -7.962562E+04 -7.047413E+04 -6.786267E+04  5.736452E-10 -2.487436E-10
       161  13  1.128111E+06  9.853859E+02  1.236258E+04 -6.779347E+04 -1.591103E-09  6.850832E-11
       161  14  1.127719E+06 -1.398499E+02  6.990477E+03 -3.715060E+04  4.017074E-10 -2.148011E-11
       161  15  1.128141E+06  1.567671E+01  4.209334E+03 -6.779386E+04  3.875357E-10 -5.728802E-11
       161  16  1.686286E+06  1.379951E+05  1.401239E+05 -6.801137E+04 -8.314044E-10  5.114471E-11
       161  17  1.568778E+06  1.081788E+05  1.081952E+05 -3.722644E+04 -5.939770E-10 -1.020777E-10
       161  18  1.452106E+06  7.964964E+04  7.888583E+04 -6.772500E+04  3.368034E-10  8.480294E-11
       161  19  5.702242E+05 -1.360452E+05 -1.154177E+05 -6.757544E+04 -1.394444E+04 -2.465797E+04
       161  20  6.868398E+05 -1.084716E+05 -9.422616E+04 -3.707462E+04 -1.050936E+04 -1.896587E+04
       161  21  8.042735E+05 -7.962542E+04 -7.047371E+04 -6.786260E+04 -7.069693E+03 -1.321583E+04
       161  22  1.128111E+06  9.860653E+02  1.236391E+04 -6.779327E+04 -9.868740E+03 -2.465793E+04
       161  23  1.127719E+06 -1.394524E+02  6.991230E+03 -3.715050E+04 -6.388720E+03 -1.896712E+04
       161  24  1.128141E+06  1.586670E+01  4.209678E+03 -6.779383E+04 -2.904747E+03 -1.321844E+04
       161  25  1.686286E+06  1.379957E+05  1.401251E+05 -6.801126E+04 -5.789404E+03 -2.465789E+04
       161  26  1.568779E+06  1.081792E+05  1.081959E+05 -3.722641E+04 -2.265177E+03 -1.896837E+04
       161  27  1.452106E+06  7.964983E+04  7.888616E+04 -6.772501E+04  1.262352E+03 -1.322104E+04
       162   1  9.156356E+05 -5.196654E+04 -4.506575E+04 -6.765096E+04  6.354921E+03  9.862647E+03
       162   2  1.031916E+06 -2.356268E+04 -1.976399E+04 -3.722889E+04  5.223274E+03  4.128856E+03
       162   3  1.148297E+06  5.018390E+03  6.292892E+03 -6.772574E+04  4.090534E+03 -1.604290E+03
       162   4  1.127994E+06  1.380365E+02  3.338288E+03 -6.771193E+04  2.221377E+03  9.865737E+03
       162   5  1.127954E+06  3.065524E+01  2.279358E+03 -3.725279E+04  1.089496E+03  4.132203E+03
       162   6  1.128001E+06  1.008710E+02  1.975614E+03 -6.771199E+04 -4.327051E+01 -1.600636E+03
       162   7  1.340394E+06  5.223951E+04  5.173945E+04 -6.777291E+04 -1.913568E+03  9.868826E+03
       162   8  1.224001E+06  2.362336E+04  2.432216E+04 -3.727670E+04 -3.044916E+03  4.135550E+03
       162   9  1.107705E+06 -4.816665E+03 -2.341622E+03 -6.769824E+04 -4.176942E+03 -1.596981E+03
       162  10  9.156356E+05 -5.196666E+04 -4.506600E+04 -6.765101E+04  5.259476E-11 -2.475624E-10
       162  11  1.031916E+06 -2.356271E+04 -1.976407E+04 -3.722891E+04  5.235299E-10 -6.813308E-11
       162  12  1.148297E+06  5.018383E+03  6.292856E+03 -6.772573E+04 -7.201490E-11 -1.699617E-10
       162  13  1.127994E+06  1.379306E+02  3.338096E+03 -6.771195E+04 -4.878527E-10 -9.731556E-11
       162  14  1.127954E+06  3.063657E+01  2.279323E+03 -3.725280E+04 -3.953487E-10  2.815859E-10
       162  15  1.128000E+06  1.008682E+02  1.975610E+03 -6.771199E+04 -3.736995E-10  6.201988E-11
       162  16  1.340394E+06  5.223940E+04  5.173926E+04 -6.777290E+04 -3.302779E-11  1.599002E-10
       162  17  1.224001E+06  2.362334E+04  2.432211E+04 -3.727669E+04  2.001517E-10  1.371127E-10
       162  18  1.107705E+06 -4.816673E+03 -2.341660E+03 -6.769825E+04 -5.722238E-11 -1.111289E-10
       162  19  9.156356E+05 -5.196654E+04 -4.506575E+04 -6.765096E+04 -6.354921E+03 -9.862647E+03
       162  20  1.031916E+06 -2.356268E+04 -1.976399E+04 -3.722889E+04 -5.223274E+03 -4.128856E+03
       162  21  1.148297E+06  5.018390E+03  6.292892E+03 -6.772574E+04 -4.090534E+03  1.604290E+03
       162  22  1.127994E+06  1.380365E+02  3.338288E+03 -6.771193E+04 -2.221377E+03 -9.865737E+03
       162  23  1.127954E+06  3.065524E+01  2.279358E+03 -3.725279E+04 -1.089496E+03 -4.132203E+03
       162  24  1.128001E+06  1.008710E+02  1.975614E+03 -6.771199E+04  4.327051E+01  1.600636E+03
       162  25  1.340394E+06  5.223951E+04  5.173945E+04 -6.777291E+04  1.913568E+03 -9.868826E+03
       162  26  1.224001E+06  2.362336E+04  2.432216E+04 -3.727670E+04  3.044916E+03 -4.135550E+03
       162  27  1.107705E+06 -4.816665E+03 -2.341622E+03 -6.769824E+04  4.176942E+03  1.596981E+03
       163   1  1.259605E+06  3.249128E+04  3.259377E+04 -6.779894E+04  3.724237E+03 -4.941278E+03
       163   2  1.376080E+06  6.095857E+04  5.963708E+04 -3.729797E+04  2.392343E+03 -1.067989E+04
       163   3  1.492726E+06  8.962337E+04  8.757805E+04 -6.781987E+04  1.062450E+03 -1.642579E+04
       163   4  1.128013E+06  1.000860E+02  2.054395E+03 -6.773555E+04 -4.122546E+02 -4.937766E+03
       163   5  1.127925E+06  8.176600E+00  2.691060E+03 -3.722333E+04 -1.749297E+03 -1.067714E+04
       163   6  1.127997E+06  1.156143E+02  4.229885E+03 -6.773549E+04 -3.084094E+03 -1.642373E+04
       163   7  9.964367E+05 -3.229231E+04 -2.848608E+04 -6.767218E+04 -4.547877E+03 -4.934253E+03
       163   8  8.798273E+05 -6.094650E+04 -5.425895E+04 -3.714872E+04 -5.889298E+03 -1.067438E+04
       163   9  7.633907E+05 -8.940135E+04 -7.912692E+04 -6.765113E+04 -7.228227E+03 -1.642168E+04
       163  10  1.259605E+06  3.249125E+04  3.259370E+04 -6.779892E+04 -4.372446E-10 -8.957066E-11
       163  11  1.376080E+06  6.095845E+04  5.963685E+04 -3.729795E+04  1.428958E-10  4.620043E-10
       163  12  1.492725E+06  8.962308E+04  8.757754E+04 -6.781986E+04 -6.616089E-10  1.876432E-10
       163  13  1.128013E+06  1.000598E+02  2.054349E+03 -6.773556E+04 -6.742549E-10  1.483483E-10
       163  14  1.127925E+06  8.053296E+00  2.690840E+03 -3.722335E+04 -6.869324E-10  4.360033E-10
       163  15  1.127997E+06  1.153219E+02  4.229360E+03 -6.773553E+04 -9.129167E-12 -2.245573E-11
       163  16  9.964366E+05 -3.229234E+04 -2.848617E+04 -6.767220E+04  9.898919E-10 -1.980974E-10
       163  17  8.798272E+05 -6.094663E+04 -5.425923E+04 -3.714877E+04 -2.543784E-10  2.299258E-10
       163  18  7.633906E+05 -8.940165E+04 -7.912752E+04 -6.765123E+04  7.450667E-11 -3.819050E-10
       163  19  1.259605E+06  3.249128E+04  3.259377E+04 -6.779894E+04 -3.724237E+03  4.941278E+03
       163  20  1.376080E+06  6.095857E+04  5.963708E+04 -3.729797E+04 -2.392343E+03  1.067989E+04
       163  21  1.492726E+06  8.962337E+04  8.757805E+04 -6.781987E+04 -1.062450E+03  1.642579E+04
       163  22  1.128013E+06  1.000860E+02  2.054395E+03 -6.773555E+04  4.122546E+02  4.937766E+03
       163  23  1.127925E+06  8.176600E+00  2.691060E+03 -3.722333E+04  1.749297E+03  1.067714E+04
       163  24  1.127997E+06  1.156143E+02  4.229885E+03 -6.773549E+04  3.084094E+03  1.642373E+04
       163  25  9.964367E+05 -3.229231E+04 -2.848608E+04 -6.767218E+04  4.547877E+03  4.934253E+03
       163  26  8.798273E+05 -6.094650E+04 -5.425895E+04 -3.714872E+04  5.889298E+03  1.067438E+04
       163  27  7.633907E+05 -8.940135E+04 -7.912692E+04 -6.765113E+04  7.228227E+03  1.642168E+04
       164   1  1.604897E+06  1.170903E+05  1.151425E+05 -6.773108E+04  2.290973E+02 -1.979064E+04
       164   2  1.722012E+06  1.457342E+05  1.455426E+05 -3.704853E+04 -4.381540E+03 -2.556350E+04
       164   3  1.840318E+06  1.760414E+05  1.793864E+05 -6.797928E+04 -8.987571E+03 -3.127668E+04
       164   4  1.128199E+06 -4.470462E+01  5.428991E+03 -6.786728E+04 -3.956814E+03 -1.978936E+04
       164   5  1.127592E+06 -2.343676E+02  9.161569E+03 -3.705865E+04 -8.520770E+03 -2.556404E+04
       164   6  1.128159E+06  1.233828E+03  1.630916E+04 -6.786691E+04 -1.307926E+04 -3.127894E+04
       164   7  6.517103E+05 -1.171956E+05 -1.042995E+05 -6.800334E+04 -8.139542E+03 -1.978809E+04
       164   8  5.334977E+05 -1.462275E+05 -1.272427E+05 -3.706872E+04 -1.265607E+04 -2.556457E+04
       164   9  4.164673E+05 -1.736090E+05 -1.468013E+05 -6.775463E+04 -1.716631E+04 -3.128121E+04
       164  10  1.604897E+06  1.170899E+05  1.151418E+05 -6.773108E+04 -3.853695E-10 -4.663887E-11
       164  11  1.722012E+06  1.457335E+05  1.455414E+05 -3.704863E+04  5.439539E-10  1.357024E-10
       164  12  1.840318E+06  1.760403E+05  1.793844E+05 -6.797951E+04 -8.841241E-10 -1.667698E-12
       164  13  1.128199E+06 -4.512958E+01  5.428225E+03 -6.786734E+04  6.740228E-10 -2.854927E-10
       164  14  1.127591E+06 -2.350892E+02  9.160204E+03 -3.705882E+04  1.497012E-09 -1.205393E-10
       164  15  1.128158E+06  1.232731E+03  1.630700E+04 -6.786724E+04  4.774066E-10 -1.754682E-10
       164  16  6.517102E+05 -1.171960E+05 -1.043004E+05 -6.800347E+04  1.018732E-09 -2.751809E-10
       164  17  5.334974E+05 -1.462282E+05 -1.272442E+05 -3.706898E+04 -5.424794E-12 -3.634702E-11
       164  18  4.164667E+05 -1.736101E+05 -1.468037E+05 -6.775507E+04 -2.638576E-12 -2.002853E-10
       164  19  1.604897E+06  1.170903E+05  1.151425E+05 -6.773108E+04 -2.290973E+02  1.979064E+04
       164  20  1.722012E+06  1.457342E+05  1.455426E+05 -3.704853E+04  4.381540E+03  2.556350E+04
       164  21  1.840318E+06  1.760414E+05  1.793864E+05 -6.797928E+04  8.987571E+03  3.127668E+04
       164  22  1.128199E+06 -4.470462E+01  5.428991E+03 -6.786728E+04  3.956814E+03  1.978936E+04
       164  23  1.127592E+06 -2.343676E+02  9.161569E+03 -3.705865E+04  8.520770E+03  2.556404E+04
       164  24  1.128159E+06  1.233828E+03  1.630916E+04 -6.786691E+04  1.307926E+04  3.127894E+04
       164  25  6.517103E+05 -1.171956E+05 -1.042995E+05 -6.800334E+04  8.139542E+03  1.978809E+04
       164  26  5.334977E+05 -1.462275E+05 -1.272427E+05 -3.706872E+04  1.265607E+04  2.556457E+04
       164  27  4.164673E+05 -1.736090E+05 -1.468013E+05 -6.775463E+04  1.716631E+04  3.128121E+04
       165   1  1.955403E+06  2.015892E+05  2.108289E+05 -6.474417E+04 -1.171591E+04 -3.488700E+04
       165   2  2.070969E+06  2.303199E+05  2.530510E+05 -3.796413E+04 -3.126033E+04 -4.050744E+04
       165   3  2.195024E+06  2.804423E+05  3.134406E+05 -7.381045E+04 -5.080245E+04 -4.440246E+04
       165   4  1.129694E+06 -1.206735E+03  2.111825E+04 -6.808871E+04 -1.637689E+04 -3.489076E+04
       165   5  1.125520E+06 -1.813815E+03  3.610404E+04 -3.678001E+04 -3.465103E+04 -4.051367E+04
       165   6  1.129615E+06  1.877025E+04  6.839731E+04 -6.810263E+04 -5.291915E+04 -4.441020E+04
       165   7  3.046138E+05 -2.040501E+05 -1.686373E+05 -7.142878E+04 -2.103172E+04 -3.489448E+04
       165   8  1.808965E+05 -2.340097E+05 -1.809017E+05 -3.559779E+04 -3.803659E+04 -4.051992E+04
       165   9  6.525256E+04 -2.429808E+05 -1.767210E+05 -6.240484E+04 -5.503219E+04 -4.441799E+04
       165  10  1.955402E+06  2.015878E+05  2.108263E+05 -6.474450E+04 -3.006661E-10  1.050032E-11
       165  11  2.070968E+06  2.303179E+05  2.530460E+05 -3.796515E+04 -6.882200E-10  1.150444E-10
       165  12  2.195021E+06  2.804395E+05  3.134321E+05 -7.381226E+04  3.643754E-10 -7.543435E-11
       165  13  1.129693E+06 -1.208115E+03  2.111546E+04 -6.808917E+04  9.596941E-10 -2.425135E-10
       165  14  1.125519E+06 -1.815900E+03  3.609870E+04 -3.678114E+04  6.984933E-10  5.274162E-11
       165  15  1.129611E+06  1.876738E+04  6.838834E+04 -6.810452E+04 -6.451633E-10 -1.003226E-10
       165  16  3.046130E+05 -2.040515E+05 -1.686404E+05 -7.142937E+04  1.675559E-10 -2.177666E-10
       165  17  1.808945E+05 -2.340119E+05 -1.809075E+05 -3.559903E+04 -1.871676E-10 -3.000216E-10
       165  18  6.524878E+04 -2.429837E+05 -1.767304E+05 -6.240681E+04 -7.648028E-10 -7.507823E-11
       165  19  1.955403E+06  2.015892E+05  2.108289E+05 -6.474417E+04  1.171591E+04  3.488700E+04
       165  20  2.070969E+06  2.303199E+05  2.530510E+05 -3.796413E+04  3.126033E+04  4.050744E+04
       165  21  2.195024E+06  2.804423E+05  3.134406E+05 -7.381045E+04  5.080245E+04  4.440246E+04
       165  22  1.129694E+06 -1.206735E+03  2.111825E+04 -6.808871E+04  1.637689E+04  3.489076E+04
       165  23  1.125520E+06 -1.813815E+03  3.610404E+04 -3.678001E+04  3.465103E+04  4.051367E+04
       165  24  1.129615E+06  1.877025E+04  6.839731E+04 -6.810263E+04  5.291915E+04  4.441020E+04
       165  25  3.046138E+05 -2.040501E+05 -1.686373E+05 -7.142878E+04  2.103172E+04  3.489448E+04
       165  26  1.808965E+05 -2.340097E+05 -1.809017E+05 -3.559779E+04  3.803659E+04  4.051992E+04
       165  27  6.525256E+04 -2.429808E+05 -1.767210E+05 -6.240484E+04  5.503219E+04  4.441799E+04
       166   1  2.327355E+06  2.756809E+05  3.554516E+05 -2.924221E+04 -5.225029E+04 -5.210017E+04
       166   2  2.408397E+06  3.019050E+05  4.410579E+05 -6.858587E+04 -1.533925E+05 -5.276845E+04
       166   3  2.574065E+06  6.095401E+05  6.629444E+05 -1.713669E+05 -2.546406E+05 -1.760648E+04
       166   4  1.145583E+06 -1.441822E+04  8.497608E+04 -6.812403E+04 -6.548610E+04 -5.211977E+04
       166   5  1.105333E+06 -1.814023E+04  1.406054E+05 -3.668075E+04 -1.406246E+05 -5.276167E+04
       166   6  1.145361E+06  2.553443E+05  3.146679E+05 -6.866318E+04 -2.158445E+05 -1.756288E+04
       166   7 -3.489696E+04 -3.046087E+05 -1.855897E+05 -1.069318E+05 -7.869690E+04 -5.213774E+04
       166   8 -1.961624E+05 -3.383000E+05 -1.599585E+05 -4.843523E+03 -1.278829E+05 -5.275358E+04
       166   9 -2.814618E+05 -9.896062E+04 -3.374536E+04  3.380350E+04 -1.771367E+05 -1.750646E+04
       166  10  2.327351E+06  2.756773E+05  3.554414E+05 -2.924440E+04 -1.421829E-09  4.666352E-10
       166  11  2.408371E+06  3.018957E+05  4.410086E+05 -6.859238E+04 -5.533207E-10  3.556415E-10
       166  12  2.573996E+06  6.095225E+05  6.628225E+05 -1.713705E+05  4.147597E-10 -2.342053E-10
       166  13  1.145577E+06 -1.442229E+04  8.496293E+04 -6.812678E+04  5.302310E-10  1.539070E-10
       166  14  1.105311E+06 -1.814851E+04  1.405631E+05 -3.668672E+04 -3.025892E-10 -2.824376E-11
       166  15  1.145311E+06  2.553315E+05  3.145799E+05 -6.866623E+04  1.372937E-11  1.530550E-10
       166  16 -3.490435E+04 -3.046133E+05 -1.856064E+05 -1.069351E+05  6.455424E-10  3.640919E-11
       166  17 -1.961808E+05 -3.383074E+05 -1.599945E+05 -4.848958E+03 -3.880438E-10  8.507289E-10
       166  18 -2.814956E+05 -9.896937E+04 -3.380492E+04  3.380101E+04 -3.772601E-10  7.218055E-11
       166  19  2.327355E+06  2.756809E+05  3.554516E+05 -2.924221E+04  5.225029E+04  5.210017E+04
       166  20  2.408397E+06  3.019050E+05  4.410579E+05 -6.858587E+04  1.533925E+05  5.276845E+04
       166  21  2.574065E+06  6.095401E+05  6.629444E+05 -1.713669E+05  2.546406E+05  1.760648E+04
       166  22  1.145583E+06 -1.441822E+04  8.497608E+04 -6.812403E+04  6.548610E+04  5.211977E+04
       166  23  1.105333E+06 -1.814023E+04  1.406054E+05 -3.668075E+04  1.406246E+05  5.276167E+04
       166  24  1.145361E+06  2.553443E+05  3.146679E+05 -6.866318E+04  2.158445E+05  1.756288E+04
       166  25 -3.489696E+04 -3.046087E+05 -1.855897E+05 -1.069318E+05  7.869690E+04  5.213774E+04
       166  26 -1.961624E+05 -3.383000E+05 -1.599585E+05 -4.843523E+03  1.278829E+05  5.275358E+04
       166  27 -2.814618E+05 -9.896062E+04 -3.374536E+04  3.380350E+04  1.771367E+05  1.750646E+04
       167   1  1.220551E+05  5.836333E+05  1.335325E+05 -9.126035E+04  2.309920E+03  5.101796E+04
       167   2  3.317922E+04  4.567284E+05  6.540870E+04 -4.507336E+04  5.613177E+03  2.897992E+04
       167   3  5.189251E+03  3.476230E+05  2.678541E+04 -6.032691E+04  1.098339E+03  6.929798E+03
       167   4  5.522892E+04  3.157462E+05  6.770661E+04 -6.826726E+04  2.322476E+03  4.584490E+04
       167   5 -3.656744E+03  3.073456E+05  3.073206E+04 -3.760691E+04  5.612633E+03  2.944582E+04
       167   6 -2.624719E+03  3.157636E+05  1.935406E+04 -6.838507E+04  1.084942E+03  1.303051E+04
       167   7 -1.160061E+04  4.792554E+04  1.875861E+03 -4.528406E+04  2.334653E+03  4.067406E+04
       167   8 -4.049408E+04  1.579836E+05 -3.946049E+03 -3.014225E+04  5.612099E+03  2.991162E+04
       167   9 -1.043850E+04  2.839054E+05  1.192282E+04 -7.644281E+04  1.071386E+03  1.913091E+04
       167  10  1.220544E+05  5.836305E+05  1.335276E+05 -9.126044E+04  7.204460E-10  2.851080E-10
       167  11  3.317896E+04  4.567275E+05  6.540706E+04 -4.507350E+04 -1.036161E-09 -3.365012E-10
       167  12  5.189237E+03  3.476229E+05  2.678532E+04 -6.032692E+04 -6.224511E-10 -8.378776E-10
       167  13  5.522835E+04  3.157440E+05  6.770266E+04 -6.826734E+04  7.386812E-10 -3.482165E-11
       167  14 -3.657010E+03  3.073447E+05  3.073037E+04 -3.760704E+04  6.774205E-11  1.016322E-10
       167  15 -2.624766E+03  3.157634E+05  1.935374E+04 -6.838508E+04 -7.040266E-11  1.007389E-11
       167  16 -1.160106E+04  4.792377E+04  1.872742E+03 -4.528414E+04  3.197646E-10 -2.759857E-10
       167  17 -4.049435E+04  1.579826E+05 -3.947789E+03 -3.014239E+04  1.995506E-09  4.124092E-10
       167  18 -1.043860E+04  2.839050E+05  1.192213E+04 -7.644283E+04 -3.860386E-10  8.367597E-10
       167  19  1.220551E+05  5.836333E+05  1.335325E+05 -9.126035E+04 -2.309920E+03 -5.101796E+04
       167  20  3.317922E+04  4.567284E+05  6.540870E+04 -4.507336E+04 -5.613177E+03 -2.897992E+04
       167  21  5.189251E+03  3.476230E+05  2.678541E+04 -6.032691E+04 -1.098339E+03 -6.929798E+03
       167  22  5.522892E+04  3.157462E+05  6.770661E+04 -6.826726E+04 -2.322476E+03 -4.584490E+04
       167  23 -3.656744E+03  3.073456E+05  3.073206E+04 -3.760691E+04 -5.612633E+03 -2.944582E+04
       167  24 -2.624719E+03  3.157636E+05  1.935406E+04 -6.838507E+04 -1.084942E+03 -1.303051E+04
       167  25 -1.160061E+04  4.792554E+04  1.875861E+03 -4.528406E+04 -2.334653E+03 -4.067406E+04
       167  26 -4.049408E+04  1.579836E+05 -3.946049E+03 -3.014225E+04 -5.612099E+03 -2.991162E+04
       167  27 -1.043850E+04  2.839054E+05  1.192282E+04 -7.644281E+04 -1.071386E+03 -1.913091E+04
       168   1 -1.567391E+04  2.312074E+05 -2.588811E+03 -6.992897E+04 -3.309910E+03  6.150659E+03
       168   2 -4.931115E+04  1.122347E+05 -3.541905E+04 -3.745611E+04 -8.538117E+03  1.231466E+03
       168   3 -7.658223E+04 -4.776958E+03 -6.352187E+04 -6.675404E+04 -1.329071E+04 -3.684197E+03
       168   4  4.317895E+03  3.124693E+05  1.617366E+04 -6.842031E+04 -3.318449E+03  1.009614E+04
       168   5 -3.168027E+02  3.114596E+05  1.037454E+04 -3.753868E+04 -8.545372E+03  4.833410E+03
       168   6  1.474343E+03  3.124576E+05  9.541839E+03 -6.842630E+04 -1.329677E+04 -4.267004E+02
       168   7  2.430926E+04  3.937372E+05  3.493574E+04 -6.691145E+04 -3.326968E+03  1.404214E+04
       168   8  4.867478E+04  5.107213E+05  5.616555E+04 -3.762125E+04 -8.552626E+03  8.436501E+03
       168   9  7.952390E+04  6.297852E+05  8.259892E+04 -7.009938E+04 -1.330285E+04  2.832448E+03
       168  10 -1.567394E+04  2.312074E+05 -2.588903E+03 -6.992896E+04 -1.007838E-09 -2.527426E-11
       168  11 -4.931122E+04  1.122347E+05 -3.541919E+04 -3.745611E+04 -5.221789E-10 -1.996758E-10
       168  12 -7.658243E+04 -4.777020E+03 -6.352223E+04 -6.675408E+04 -1.664280E-10 -8.573844E-11
       168  13  4.317856E+03  3.124691E+05  1.617344E+04 -6.842029E+04 -1.904438E-10 -7.246789E-11
       168  14 -3.168874E+02  3.114596E+05  1.037436E+04 -3.753864E+04  2.725442E-10  2.570521E-12
       168  15  1.474154E+03  3.124575E+05  9.541506E+03 -6.842631E+04 -5.917646E-10 -1.557244E-11
       168  16  2.430919E+04  3.937370E+05  3.493535E+04 -6.691142E+04 -5.949550E-10  8.463894E-11
       168  17  4.867468E+04  5.107212E+05  5.616528E+04 -3.762119E+04 -8.212013E-10  2.614670E-10
       168  18  7.952370E+04  6.297852E+05  8.259857E+04 -7.009935E+04  1.545302E-10  4.819002E-11
       168  19 -1.567391E+04  2.312074E+05 -2.588811E+03 -6.992897E+04  3.309910E+03 -6.150659E+03
       168  20 -4.931115E+04  1.122347E+05 -3.541905E+04 -3.745611E+04  8.538117E+03 -1.231466E+03
       168  21 -7.658223E+04 -4.776958E+03 -6.352187E+04 -6.675404E+04  1.329071E+04  3.684197E+03
       168  22  4.317895E+03  3.124693E+05  1.617366E+04 -6.842031E+04  3.318449E+03 -1.009614E+04
       168  23 -3.168027E+02  3.114596E+05  1.037454E+04 -3.753868E+04  8.545372E+03 -4.833410E+03
       168  24  1.474343E+03  3.124576E+05  9.541839E+03 -6.842630E+04  1.329677E+04  4.267004E+02
       168  25  2.430926E+04  3.937372E+05  3.493574E+04 -6.691145E+04  3.326968E+03 -1.404214E+04
       168  26  4.867478E+04  5.107213E+05  5.616555E+04 -3.762125E+04  8.552626E+03 -8.436501E+03
       168  27  7.952390E+04  6.297852E+05  8.259892E+04 -7.009938E+04  1.330285E+04 -2.832448E+03
       169   1 -1.064153E+05 -1.172002E+05 -8.909405E+04 -7.063153E+04 -1.877088E+04 -1.060895E+04
       169   2 -1.362591E+05 -2.376358E+05 -1.144578E+05 -3.437012E+04 -2.189400E+04 -4.486065E+03
       169   3 -1.463841E+05 -3.539964E+05 -1.388959E+05 -5.941424E+04 -7.489085E+03  1.661861E+03
       169   4 -5.540716E+02  3.133792E+05  9.729747E+03 -6.833073E+04 -1.878640E+04 -2.061779E+03
       169   5 -1.333770E+03  3.102378E+05  1.224393E+04 -3.766441E+04 -2.188589E+04 -8.559064E+03
       169   6  1.978710E+04  3.133423E+05  2.444310E+04 -6.829933E+04 -7.464312E+03 -1.503003E+04
       169   7  1.052943E+05  7.441305E+05  1.085416E+05 -6.602822E+04 -1.880185E+04  6.491272E+03
       169   8  1.335705E+05  8.583888E+05  1.389257E+05 -4.096151E+04 -2.187773E+04 -1.263563E+04
       169   9  1.859257E+05  9.810876E+05  1.877506E+05 -7.719383E+04 -7.439075E+03 -3.173983E+04
       169  10 -1.064157E+05 -1.172004E+05 -8.909492E+04 -7.063169E+04 -3.451927E-10  4.952752E-10
       169  11 -1.362596E+05 -2.376360E+05 -1.144587E+05 -3.437020E+04  5.283473E-10  1.655025E-10
       169  12 -1.463841E+05 -3.539964E+05 -1.388960E+05 -5.941423E+04 -1.388532E-10 -4.821472E-10
       169  13 -5.544517E+02  3.133791E+05  9.729075E+03 -6.833076E+04  7.053518E-10 -5.649579E-11
       169  14 -1.334304E+03  3.102376E+05  1.224289E+04 -3.766456E+04  5.095341E-10 -6.630408E-11
       169  15  1.978698E+04  3.133421E+05  2.444257E+04 -6.829942E+04  7.317177E-11  2.025944E-11
       169  16  1.052939E+05  7.441303E+05  1.085409E+05 -6.602812E+04 -3.963370E-10 -4.352658E-10
       169  17  1.335700E+05  8.583885E+05  1.389245E+05 -4.096173E+04  8.068667E-10 -2.881318E-10
       169  18  1.859254E+05  9.810865E+05  1.877486E+05 -7.719402E+04  6.523625E-10  3.977005E-10
       169  19 -1.064153E+05 -1.172002E+05 -8.909405E+04 -7.063153E+04  1.877088E+04  1.060895E+04
       169  20 -1.362591E+05 -2.376358E+05 -1.144578E+05 -3.437012E+04  2.189400E+04  4.486065E+03
       169  21 -1.463841E+05 -3.539964E+05 -1.388959E+05 -5.941424E+04  7.489085E+03 -1.661861E+03
       169  22 -5.540716E+02  3.133792E+05  9.729747E+03 -6.833073E+04  1.878640E+04  2.061779E+03
       169  23 -1.333770E+03  3.102378E+05  1.224393E+04 -3.766441E+04  2.188589E+04  8.559064E+03
       169  24  1.978710E+04  3.133423E+05  2.444310E+04 -6.829933E+04  7.464312E+03  1.503003E+04
       169  25  1.052943E+05  7.441305E+05  1.085416E+05 -6.602822E+04  1.880185E+04 -6.491272E+03
       169  26  1.335705E+05  8.583888E+05  1.389257E+05 -4.096151E+04  2.187773E+04  1.263563E+04
       169  27  1.859257E+05  9.810876E+05  1.877506E+05 -7.719383E+04  7.439075E+03  3.173983E+04
       170   1 -1.715882E+06 -6.596127E+05 -4.333085E+05 -6.093482E+05 -1.847641E+05 -6.008555E+04
       170   2 -1.657940E+06 -3.906603E+05 -2.635790E+05 -6.091530E+05 -1.201504E+05 -1.581990E+04
       170   3 -1.672724E+06 -3.555845E+05 -2.060456E+05 -5.738938E+05 -4.890367E+04  1.087645E+04
       170   4 -1.120379E+06 -3.600185E+05 -2.580373E+05 -3.703266E+05 -1.672347E+05 -5.350460E+04
       170   5 -1.071377E+06 -1.472380E+05 -1.097323E+05 -4.243980E+05 -1.143895E+05 -1.365723E+04
       170   6 -1.092684E+06 -1.658838E+05 -6.420297E+04 -4.434309E+05 -5.491691E+04  8.613616E+03
       170   7 -5.245214E+05 -6.031448E+04 -8.279990E+04 -1.310714E+05 -1.496869E+05 -4.691138E+04
       170   8 -4.844752E+05  9.622815E+04  4.408489E+04 -2.394769E+05 -1.086226E+05 -1.149175E+04
       170   9 -5.123129E+05  2.382103E+04  7.761547E+04 -3.128657E+05 -6.093631E+04  6.349136E+03
       170  10 -1.715920E+06 -6.596258E+05 -4.333797E+05 -6.093572E+05  8.444093E-11  2.752231E-11
       170  11 -1.657956E+06 -3.906645E+05 -2.636067E+05 -6.091545E+05 -7.538525E-10 -1.326280E-10
       170  12 -1.672727E+06 -3.555852E+05 -2.060503E+05 -5.738934E+05 -2.354208E-10 -5.275934E-11
       170  13 -1.120410E+06 -3.600291E+05 -2.580953E+05 -3.703338E+05  4.318270E-11 -1.264241E-10
       170  14 -1.071391E+06 -1.472418E+05 -1.097573E+05 -4.243992E+05 -3.481069E-11 -3.508027E-10
       170  15 -1.092687E+06 -1.658847E+05 -6.420879E+04 -4.434305E+05  2.563460E-10  1.171896E-10
       170  16 -5.245461E+05 -6.032287E+04 -8.284618E+04 -1.310770E+05 -7.258091E-10 -3.346582E-10
       170  17 -4.844879E+05  9.622484E+04  4.406245E+04 -2.394779E+05 -6.074981E-10 -4.506868E-10
       170  18 -5.123169E+05  2.381999E+04  7.760841E+04 -3.128654E+05 -3.369421E-10  4.374916E-10
       170  19 -1.715882E+06 -6.596127E+05 -4.333085E+05 -6.093482E+05  1.847641E+05  6.008555E+04
       170  20 -1.657940E+06 -3.906603E+05 -2.635790E+05 -6.091530E+05  1.201504E+05  1.581990E+04
       170  21 -1.672724E+06 -3.555845E+05 -2.060456E+05 -5.738938E+05  4.890367E+04 -1.087645E+04
       170  22 -1.120379E+06 -3.600185E+05 -2.580373E+05 -3.703266E+05  1.672347E+05  5.350460E+04
       170  23 -1.071377E+06 -1.472380E+05 -1.097323E+05 -4.243980E+05  1.143895E+05  1.365723E+04
       170  24 -1.092684E+06 -1.658838E+05 -6.420297E+04 -4.434309E+05  5.491691E+04 -8.613616E+03
       170  25 -5.245214E+05 -6.031448E+04 -8.279990E+04 -1.310714E+05  1.496869E+05  4.691138E+04
       170  26 -4.844752E+05  9.622815E+04  4.408489E+04 -2.394769E+05  1.086226E+05  1.149175E+04
       170  27 -5.123129E+05  2.382103E+04  7.761547E+04 -3.128657E+05  6.093631E+04 -6.349136E+03
       171   1 -1.593986E+06 -3.857352E+05 -1.823774E+05 -5.748247E+05 -4.436351E+04  8.543721E+03
       171   2 -1.554557E+06 -3.392744E+05 -1.443631E+05 -5.531519E+05 -3.002450E+04  1.240101E+04
       171   3 -1.504551E+06 -3.295018E+05 -1.214532E+05 -5.488669E+05 -1.532368E+04  1.529440E+04
       171   4 -1.084175E+06 -1.894352E+05 -5.158102E+04 -4.299040E+05 -4.496623E+04  8.315022E+03
       171   5 -1.088404E+06 -1.632902E+05 -2.573512E+04 -4.241626E+05 -3.126490E+04  1.193330E+04
       171   6 -1.081924E+06 -1.736975E+05 -1.447756E+04 -4.358102E+05 -1.720291E+04  1.458745E+04
       171   7 -5.741121E+05  6.884774E+03  7.919338E+04 -2.848744E+05 -4.556947E+04  8.086112E+03
       171   8 -6.220386E+05  1.270903E+04  9.287526E+04 -2.950851E+05 -3.250632E+04  1.146521E+04
       171   9 -6.591221E+05 -1.788235E+04  9.248420E+04 -3.226839E+05 -1.908354E+04  1.388000E+04
       171  10 -1.593988E+06 -3.857358E+05 -1.823812E+05 -5.748244E+05  5.058246E-10  1.216451E-10
       171  11 -1.554558E+06 -3.392748E+05 -1.443651E+05 -5.531516E+05 -1.938070E-10 -1.446960E-10
       171  12 -1.504551E+06 -3.295021E+05 -1.214541E+05 -5.488667E+05  5.898047E-10 -1.948843E-10
       171  13 -1.084178E+06 -1.894358E+05 -5.158496E+04 -4.299037E+05 -3.521990E-10  2.282939E-10
       171  14 -1.088405E+06 -1.632906E+05 -2.573723E+04 -4.241623E+05 -1.968498E-09 -8.267547E-11
       171  15 -1.081925E+06 -1.736978E+05 -1.447852E+04 -4.358100E+05 -3.374682E-11 -1.801637E-10
       171  16 -5.741143E+05  6.884146E+03  7.918935E+04 -2.848741E+05 -3.911671E-10  4.065560E-10
       171  17 -6.220398E+05  1.270860E+04  9.287302E+04 -2.950848E+05 -1.214064E-10 -2.361169E-11
       171  18 -6.591226E+05 -1.788265E+04  9.248316E+04 -3.226837E+05  1.271465E-10 -1.111269E-10
       171  19 -1.593986E+06 -3.857352E+05 -1.823774E+05 -5.748247E+05  4.436351E+04 -8.543721E+03
       171  20 -1.554557E+06 -3.392744E+05 -1.443631E+05 -5.531519E+05  3.002450E+04 -1.240101E+04
       171  21 -1.504551E+06 -3.295018E+05 -1.214532E+05 -5.488669E+05  1.532368E+04 -1.529440E+04
       171  22 -1.084175E+06 -1.894352E+05 -5.158102E+04 -4.299040E+05  4.496623E+04 -8.315022E+03
       171  23 -1.088404E+06 -1.632902E+05 -2.573512E+04 -4.241626E+05  3.126490E+04 -1.193330E+04
       171  24 -1.081924E+06 -1.736975E+05 -1.447756E+04 -4.358102E+05  1.720291E+04 -1.458745E+04
       171  25 -5.741121E+05  6.884774E+03  7.919338E+04 -2.848744E+05  4.556947E+04 -8.086112E+03
       171  26 -6.220386E+05  1.270903E+04  9.287526E+04 -2.950851E+05  3.250632E+04 -1.146521E+04
       171  27 -6.591221E+05 -1.788235E+04  9.248420E+04 -3.226839E+05  1.908354E+04 -1.388000E+04
       172   1 -1.453903E+06 -3.154614E+05 -1.057001E+05 -5.370062E+05 -1.297199E+04  1.441958E+04
       172   2 -1.415535E+06 -2.863449E+05 -8.853722E+04 -5.129816E+05 -9.027683E+03  1.314585E+04
       172   3 -1.358609E+06 -2.781175E+05 -7.400953E+04 -5.109022E+05 -5.058363E+03  1.180161E+04
       172   4 -1.080938E+06 -1.756491E+05 -1.113470E+04 -4.347760E+05 -1.457610E+04  1.381635E+04
       172   5 -1.090126E+06 -1.645777E+05 -5.951280E+03 -4.240383E+05 -1.067732E+04  1.252603E+04
       172   6 -1.080748E+06 -1.743848E+05 -3.365424E+03 -4.352457E+05 -6.753800E+03  1.116514E+04
       172   7 -7.078361E+05 -3.582764E+04  8.341946E+04 -3.324901E+05 -1.618125E+04  1.321272E+04
       172   8 -7.646133E+05 -4.280380E+04  7.662595E+04 -3.350530E+05 -1.232790E+04  1.190586E+04
       172   9 -8.028137E+05 -7.064761E+04  6.727215E+04 -3.595589E+05 -8.450063E+03  1.052837E+04
       172  10 -1.453903E+06 -3.154617E+05 -1.057008E+05 -5.370060E+05  1.692221E-10 -1.579721E-10
       172  11 -1.415535E+06 -2.863451E+05 -8.853770E+04 -5.129815E+05  7.522929E-10 -1.544312E-10
       172  12 -1.358609E+06 -2.781177E+05 -7.400984E+04 -5.109021E+05  3.611881E-10  1.441124E-10
       172  13 -1.080938E+06 -1.756494E+05 -1.113546E+04 -4.347758E+05  2.486938E-10 -4.191818E-11
       172  14 -1.090126E+06 -1.645779E+05 -5.951789E+03 -4.240382E+05  6.609342E-10  1.661583E-11
       172  15 -1.080748E+06 -1.743849E+05 -3.365743E+03 -4.352457E+05 -2.796552E-10  1.765635E-10
       172  16 -7.078364E+05 -3.582790E+04  8.341864E+04 -3.324899E+05 -5.342828E-10  8.184259E-12
       172  17 -7.646135E+05 -4.280399E+04  7.662540E+04 -3.350529E+05 -1.362172E-10  1.238217E-10
       172  18 -8.028138E+05 -7.064775E+04  6.727180E+04 -3.595588E+05 -3.163435E-10  8.931513E-11
       172  19 -1.453903E+06 -3.154614E+05 -1.057001E+05 -5.370062E+05  1.297199E+04 -1.441958E+04
       172  20 -1.415535E+06 -2.863449E+05 -8.853722E+04 -5.129816E+05  9.027683E+03 -1.314585E+04
       172  21 -1.358609E+06 -2.781175E+05 -7.400953E+04 -5.109022E+05  5.058363E+03 -1.180161E+04
       172  22 -1.080938E+06 -1.756491E+05 -1.113470E+04 -4.347760E+05  1.457610E+04 -1.381635E+04
       172  23 -1.090126E+06 -1.645777E+05 -5.951280E+03 -4.240383E+05  1.067732E+04 -1.252603E+04
       172  24 -1.080748E+06 -1.743848E+05 -3.365424E+03 -4.352457E+05  6.753800E+03 -1.116514E+04
       172  25 -7.078361E+05 -3.582764E+04  8.341946E+04 -3.324901E+05  1.618125E+04 -1.321272E+04
       172  26 -7.646133E+05 -4.280380E+04  7.662595E+04 -3.350530E+05  1.232790E+04 -1.190586E+04
       172  27 -8.028137E+05 -7.064761E+04  6.727215E+04 -3.595589E+05  8.450063E+03 -1.052837E+04
       173   1 -1.309428E+06 -2.601438E+05 -6.049800E+04 -4.977409E+05 -4.025234E+03  1.051734E+04
       173   2 -1.270628E+06 -2.319929E+05 -4.732682E+04 -4.731522E+05 -2.276723E+03  8.303054E+03
       173   3 -1.212206E+06 -2.237255E+05 -3.478288E+04 -4.711860E+05 -5.239363E+02  6.075007E+03
       173   4 -1.080569E+06 -1.745948E+05 -2.605300E+03 -4.352319E+05 -5.714224E+03  9.883564E+03
       173   5 -1.090369E+06 -1.646009E+05 -1.594270E+03 -4.239389E+05 -3.974664E+03  7.666201E+03
       173   6 -1.080548E+06 -1.744889E+05 -1.203403E+03 -4.352692E+05 -2.230905E+03  5.435068E+03
       173   7 -8.516575E+05 -8.904209E+04  5.528347E+04 -3.727018E+05 -7.403902E+03  9.249526E+03
       173   8 -9.100775E+05 -9.720672E+04  4.413577E+04 -3.747127E+05 -5.673149E+03  7.029143E+03
       173   9 -9.488740E+05 -1.252511E+05  3.237468E+04 -3.993456E+05 -3.938271E+03  4.794981E+03
       173  10 -1.309428E+06 -2.601439E+05 -6.049824E+04 -4.977409E+05 -5.726953E-10  1.514914E-10
       173  11 -1.270628E+06 -2.319929E+05 -4.732696E+04 -4.731522E+05 -4.303167E-11  3.255662E-10
       173  12 -1.212206E+06 -2.237256E+05 -3.478295E+04 -4.711860E+05  4.999465E-10  2.191084E-10
       173  13 -1.080569E+06 -1.745949E+05 -2.605545E+03 -4.352319E+05 -2.899480E-10  1.430138E-10
       173  14 -1.090369E+06 -1.646010E+05 -1.594410E+03 -4.239389E+05 -3.649936E-11  4.901791E-10
       173  15 -1.080548E+06 -1.744889E+05 -1.203468E+03 -4.352692E+05  3.903292E-10  1.550686E-10
       173  16 -8.516576E+05 -8.904219E+04  5.528320E+04 -3.727017E+05 -1.855386E-10  1.571393E-10
       173  17 -9.100776E+05 -9.720678E+04  4.413562E+04 -3.747126E+05 -7.018655E-11  2.520661E-10
       173  18 -9.488741E+05 -1.252511E+05  3.237461E+04 -3.993456E+05 -1.158703E-10  1.356877E-10
       173  19 -1.309428E+06 -2.601438E+05 -6.049800E+04 -4.977409E+05  4.025234E+03 -1.051734E+04
       173  20 -1.270628E+06 -2.319929E+05 -4.732682E+04 -4.731522E+05  2.276723E+03 -8.303054E+03
       173  21 -1.212206E+06 -2.237255E+05 -3.478288E+04 -4.711860E+05  5.239363E+02 -6.075007E+03
       173  22 -1.080569E+06 -1.745948E+05 -2.605300E+03 -4.352319E+05  5.714224E+03 -9.883564E+03
       173  23 -1.090369E+06 -1.646009E+05 -1.594270E+03 -4.239389E+05  3.974664E+03 -7.666201E+03
       173  24 -1.080548E+06 -1.744889E+05 -1.203403E+03 -4.352692E+05  2.230905E+03 -5.435068E+03
       173  25 -8.516575E+05 -8.904209E+04  5.528347E+04 -3.727018E+05  7.403902E+03 -9.249526E+03
       173  26 -9.100775E+05 -9.720672E+04  4.413577E+04 -3.747127E+05  5.673149E+03 -7.029143E+03
       173  27 -9.488740E+05 -1.252511E+05  3.237468E+04 -3.993456E+05  3.938271E+03 -4.794981E+03
       174   1 -1.162691E+06 -2.052291E+05 -2.184703E+04 -4.577693E+05  2.307886E+02  4.671970E+03
       174   2 -1.123589E+06 -1.769773E+05 -9.856444E+03 -4.329728E+05  1.899315E+03  2.398473E+03
       174   3 -1.064732E+06 -1.687347E+05  1.571384E+03 -4.309789E+05  3.567847E+03  1.245707E+02
       174   4 -1.080517E+06 -1.745236E+05 -1.177028E+03 -4.353057E+05 -1.479900E+03  4.030754E+03
       174   5 -1.090398E+06 -1.645508E+05 -1.433193E+03 -4.238918E+05  1.883437E+02  1.757203E+03
       174   6 -1.080526E+06 -1.745872E+05 -2.251785E+03 -4.352816E+05  1.856533E+03 -5.167702E+02
       174   7 -9.983373E+05 -1.438179E+05  1.949236E+04 -4.128394E+05 -3.190830E+03  3.389448E+03
       174   8 -1.057205E+06 -1.521242E+05  6.989982E+03 -4.148105E+05 -1.522728E+03  1.115895E+03
       174   9 -1.096319E+06 -1.804398E+05 -6.074976E+03 -4.395843E+05  1.452605E+02 -1.158096E+03
       174  10 -1.162691E+06 -2.052291E+05 -2.184707E+04 -4.577693E+05  1.134065E-09  2.721184E-10
       174  11 -1.123589E+06 -1.769773E+05 -9.856461E+03 -4.329728E+05 -1.267389E-10  2.485118E-10
       174  12 -1.064732E+06 -1.687347E+05  1.571360E+03 -4.309789E+05 -6.863204E-10  2.236351E-10
       174  13 -1.080517E+06 -1.745237E+05 -1.177062E+03 -4.353057E+05  1.329765E-09  2.584298E-10
       174  14 -1.090398E+06 -1.645508E+05 -1.433198E+03 -4.238918E+05  2.492091E-11  1.489084E-10
       174  15 -1.080526E+06 -1.745872E+05 -2.251792E+03 -4.352816E+05 -8.250090E-10  2.728184E-10
       174  16 -9.983373E+05 -1.438179E+05  1.949232E+04 -4.128394E+05  1.078175E-10  1.299263E-10
       174  17 -1.057205E+06 -1.521242E+05  6.989976E+03 -4.148105E+05  2.052392E-10  1.731573E-10
       174  18 -1.096319E+06 -1.804398E+05 -6.074979E+03 -4.395843E+05  1.728773E-10  2.040306E-10
       174  19 -1.162691E+06 -2.052291E+05 -2.184703E+04 -4.577693E+05 -2.307886E+02 -4.671970E+03
       174  20 -1.123589E+06 -1.769773E+05 -9.856444E+03 -4.329728E+05 -1.899315E+03 -2.398473E+03
       174  21 -1.064732E+06 -1.687347E+05  1.571384E+03 -4.309789E+05 -3.567847E+03 -1.245707E+02
       174  22 -1.080517E+06 -1.745236E+05 -1.177028E+03 -4.353057E+05  1.479900E+03 -4.030754E+03
       174  23 -1.090398E+06 -1.645508E+05 -1.433193E+03 -4.238918E+05 -1.883437E+02 -1.757203E+03
       174  24 -1.080526E+06 -1.745872E+05 -2.251785E+03 -4.352816E+05 -1.856533E+03  5.167702E+02
       174  25 -9.983373E+05 -1.438179E+05  1.949236E+04 -4.128394E+05  3.190830E+03 -3.389448E+03
       174  26 -1.057205E+06 -1.521242E+05  6.989982E+03 -4.148105E+05  1.522728E+03 -1.115895E+03
       174  27 -1.096319E+06 -1.804398E+05 -6.074976E+03 -4.395843E+05 -1.452605E+02  1.158096E+03
       175   1 -1.015122E+06 -1.501522E+05  1.387261E+04 -4.176959E+05  4.555833E+03 -1.199030E+03
       175   2 -9.760211E+05 -1.217593E+05  2.391882E+04 -3.927239E+05  8.018525E+03 -2.791939E+03
       175   3 -9.178649E+05 -1.144507E+05  3.176497E+04 -3.902744E+05  1.146622E+04 -4.342782E+03
       175   4 -1.080632E+06 -1.744652E+05 -2.886951E+03 -4.353556E+05  2.835134E+03 -1.843933E+03
       175   5 -1.090233E+06 -1.644448E+05 -5.051116E+03 -4.238983E+05  6.325515E+03 -3.426656E+03
       175   6 -1.080785E+06 -1.755149E+05 -9.437488E+03 -4.349645E+05  9.800672E+03 -4.967381E+03
       175   7 -1.146138E+06 -1.987779E+05 -1.964684E+04 -4.530137E+05  1.114634E+03 -2.488762E+03
       175   8 -1.204431E+06 -2.071295E+05 -3.402203E+04 -4.550674E+05  4.632851E+03 -4.061244E+03
       175   9 -1.243679E+06 -2.365772E+05 -5.064188E+04 -4.796438E+05  8.135613E+03 -5.591797E+03
       175  10 -1.015122E+06 -1.501522E+05  1.387257E+04 -4.176959E+05 -2.116299E-10  3.082810E-10
       175  11 -9.760212E+05 -1.217593E+05  2.391868E+04 -3.927239E+05  4.858121E-10 -3.151723E-10
       175  12 -9.178650E+05 -1.144507E+05  3.176469E+04 -3.902743E+05 -8.071210E-11 -1.114045E-10
       175  13 -1.080632E+06 -1.744652E+05 -2.886972E+03 -4.353556E+05 -3.193727E-10  1.964361E-10
       175  14 -1.090233E+06 -1.644449E+05 -5.051214E+03 -4.238983E+05 -3.809144E-10 -3.969338E-10
       175  15 -1.080785E+06 -1.755150E+05 -9.437715E+03 -4.349645E+05 -2.880898E-10 -4.822811E-11
       175  16 -1.146138E+06 -1.987779E+05 -1.964686E+04 -4.530137E+05 -4.567324E-11 -1.386580E-10
       175  17 -1.204431E+06 -2.071295E+05 -3.402210E+04 -4.550673E+05  1.174733E-09 -6.982151E-11
       175  18 -1.243679E+06 -2.365772E+05 -5.064207E+04 -4.796438E+05 -7.125128E-11  2.077511E-10
       175  19 -1.015122E+06 -1.501522E+05  1.387261E+04 -4.176959E+05 -4.555833E+03  1.199030E+03
       175  20 -9.760211E+05 -1.217593E+05  2.391882E+04 -3.927239E+05 -8.018525E+03  2.791939E+03
       175  21 -9.178649E+05 -1.144507E+05  3.176497E+04 -3.902744E+05 -1.146622E+04  4.342782E+03
       175  22 -1.080632E+06 -1.744652E+05 -2.886951E+03 -4.353556E+05 -2.835134E+03  1.843933E+03
       175  23 -1.090233E+06 -1.644448E+05 -5.051116E+03 -4.238983E+05 -6.325515E+03  3.426656E+03
       175  24 -1.080785E+06 -1.755149E+05 -9.437488E+03 -4.349645E+05 -9.800672E+03  4.967381E+03
       175  25 -1.146138E+06 -1.987779E+05 -1.964684E+04 -4.530137E+05 -1.114634E+03  2.488762E+03
       175  26 -1.204431E+06 -2.071295E+05 -3.402203E+04 -4.550674E+05 -4.632851E+03  4.061244E+03
       175  27 -1.243679E+06 -2.365772E+05 -5.064188E+04 -4.796438E+05 -8.135613E+03  5.591797E+03
       176   1 -8.677993E+05 -9.603361E+04  4.173708E+04 -3.796637E+05  1.398217E+04 -5.167807E+03
       176   2 -8.292037E+05 -6.505188E+04  4.430365E+04 -3.518290E+05  2.561412E+04 -3.572802E+03
       176   3 -7.779478E+05 -6.853896E+04  3.485727E+04 -3.429077E+05  3.699463E+04 -1.301362E+03
       176   4 -1.081581E+06 -1.739080E+05 -1.226710E+04 -4.358901E+05  1.211878E+04 -5.866745E+03
       176   5 -1.088811E+06 -1.632839E+05 -2.178178E+04 -4.239387E+05  2.420107E+04 -4.103355E+03
       176   6 -1.083476E+06 -1.872238E+05 -4.367115E+04 -4.309028E+05  3.603099E+04 -1.663845E+03
       176   7 -1.295320E+06 -2.517804E+05 -6.627514E+04 -4.920994E+05  1.025608E+04 -6.565438E+03
       176   8 -1.348353E+06 -2.615113E+05 -8.787282E+04 -4.960211E+05  2.278867E+04 -4.633661E+03
       176   9 -1.388912E+06 -3.059008E+05 -1.222073E+05 -5.188578E+05  3.506787E+04 -2.026117E+03
       176  10 -8.677995E+05 -9.603369E+04  4.173666E+04 -3.796636E+05  3.577138E-10  1.549789E-10
       176  11 -8.292044E+05 -6.505207E+04  4.430239E+04 -3.518289E+05  5.861927E-10 -1.247543E-10
       176  12 -7.779493E+05 -6.853933E+04  3.485469E+04 -3.429077E+05  2.553996E-10  6.407440E-11
       176  13 -1.081582E+06 -1.739081E+05 -1.226744E+04 -4.358900E+05 -4.299745E-10  1.852534E-11
       176  14 -1.088812E+06 -1.632840E+05 -2.178292E+04 -4.239387E+05 -3.418196E-10  1.804586E-11
       176  15 -1.083477E+06 -1.872242E+05 -4.367360E+04 -4.309027E+05 -8.006848E-11  7.877586E-11
       176  16 -1.295320E+06 -2.517804E+05 -6.627542E+04 -4.920994E+05 -2.544477E-11 -1.118473E-10
       176  17 -1.348354E+06 -2.615115E+05 -8.787384E+04 -4.960211E+05 -5.105041E-10  9.796532E-11
       176  18 -1.388914E+06 -3.059011E+05 -1.222096E+05 -5.188578E+05  6.000235E-10  1.833686E-10
       176  19 -8.677993E+05 -9.603361E+04  4.173708E+04 -3.796637E+05 -1.398217E+04  5.167807E+03
       176  20 -8.292037E+05 -6.505188E+04  4.430365E+04 -3.518290E+05 -2.561412E+04  3.572802E+03
       176  21 -7.779478E+05 -6.853896E+04  3.485727E+04 -3.429077E+05 -3.699463E+04  1.301362E+03
       176  22 -1.081581E+06 -1.739080E+05 -1.226710E+04 -4.358901E+05 -1.211878E+04  5.866745E+03
       176  23 -1.088811E+06 -1.632839E+05 -2.178178E+04 -4.239387E+05 -2.420107E+04  4.103355E+03
       176  24 -1.083476E+06 -1.872238E+05 -4.367115E+04 -4.309028E+05 -3.603099E+04  1.663845E+03
       176  25 -1.295320E+06 -2.517804E+05 -6.627514E+04 -4.920994E+05 -1.025608E+04  6.565438E+03
       176  26 -1.348353E+06 -2.615113E+05 -8.787282E+04 -4.960211E+05 -2.278867E+04  4.633661E+03
       176  27 -1.388912E+06 -3.059008E+05 -1.222073E+05 -5.188578E+05 -3.506787E+04  2.026117E+03
       177   1 -7.164352E+05 -5.075846E+04  3.606484E+04 -3.642243E+05  4.924089E+04 -9.840498E+01
       177   2 -6.851428E+05  1.583288E+04  9.906231E+03 -2.973024E+05  9.156179E+04  1.478966E+04
       177   3 -7.078825E+05 -1.157315E+05 -9.664310E+04 -2.052927E+05  1.292186E+05  4.210352E+04
       177   4 -1.090651E+06 -1.673176E+05 -5.435794E+04 -4.423934E+05  4.444713E+04 -1.896633E+03
       177   5 -1.074445E+06 -1.496157E+05 -9.288795E+04 -4.240643E+05  9.510314E+04  1.611547E+04
       177   6 -1.113977E+06 -3.318049E+05 -2.184616E+05 -3.806377E+05  1.410918E+05  4.654930E+04
       177   7 -1.464728E+06 -2.838765E+05 -1.447901E+05 -5.205241E+05  3.965656E+04 -3.694122E+03
       177   8 -1.463597E+06 -3.150417E+05 -1.956950E+05 -5.507496E+05  9.864205E+04  1.744008E+04
       177   9 -1.519903E+06 -5.478131E+05 -3.402955E+05 -5.558631E+05  1.529564E+05  5.098885E+04
       177  10 -7.164378E+05 -5.075911E+04  3.606027E+04 -3.642243E+05 -2.387042E-11  3.401808E-10
       177  11 -6.851519E+05  1.583039E+04  9.890046E+03 -2.973035E+05 -3.580459E-10  3.650892E-10
       177  12 -7.079009E+05 -1.157379E+05 -9.667785E+04 -2.052971E+05  1.717511E-10 -8.931379E-11
       177  13 -1.090653E+06 -1.673181E+05 -5.436167E+04 -4.423933E+05  1.173217E-10  1.654908E-10
       177  14 -1.074455E+06 -1.496184E+05 -9.290547E+04 -4.240655E+05  3.609880E-10  5.015624E-10
       177  15 -1.113999E+06 -3.318126E+05 -2.185031E+05 -3.806430E+05  5.254972E-10  2.456728E-11
       177  16 -1.464730E+06 -2.838769E+05 -1.447931E+05 -5.205239E+05 -1.917790E-10  1.453585E-10
       177  17 -1.463608E+06 -3.150446E+05 -1.957140E+05 -5.507510E+05 -5.887320E-10 -2.483281E-10
       177  18 -1.519929E+06 -5.478222E+05 -3.403445E+05 -5.558694E+05  1.269302E-10 -4.787908E-11
       177  19 -7.164352E+05 -5.075846E+04  3.606484E+04 -3.642243E+05 -4.924089E+04  9.840498E+01
       177  20 -6.851428E+05  1.583288E+04  9.906231E+03 -2.973024E+05 -9.156179E+04 -1.478966E+04
       177  21 -7.078825E+05 -1.157315E+05 -9.664310E+04 -2.052927E+05 -1.292186E+05 -4.210352E+04
       177  22 -1.090651E+06 -1.673176E+05 -5.435794E+04 -4.423934E+05 -4.444713E+04  1.896633E+03
       177  23 -1.074445E+06 -1.496157E+05 -9.288795E+04 -4.240643E+05 -9.510314E+04 -1.611547E+04
       177  24 -1.113977E+06 -3.318049E+05 -2.184616E+05 -3.806377E+05 -1.410918E+05 -4.654930E+04
       177  25 -1.464728E+06 -2.838765E+05 -1.447901E+05 -5.205241E+05 -3.965656E+04  3.694122E+03
       177  26 -1.463597E+06 -3.150417E+05 -1.956950E+05 -5.507496E+05 -9.864205E+04 -1.744008E+04
       177  27 -1.519903E+06 -5.478131E+05 -3.402955E+05 -5.558631E+05 -1.529564E+05 -5.098885E+04
       178   1 -1.202062E+06 -2.715226E+05 -2.323029E+05 -2.416482E+04  7.125263E+04  1.986697E+04
       178   2 -1.084480E+06 -3.799626E+05 -2.717639E+05 -2.628649E+04  6.068864E+04  6.079408E+04
       178   3 -9.278936E+05 -3.443133E+05 -2.680275E+05 -9.873266E+04  5.021372E+04  6.038235E+04
       178   4  4.392450E+05  1.368235E+05  1.689169E+05 -7.771440E+04  1.157645E+05  1.995762E+04
       178   5  4.172804E+05 -1.011636E+04  7.536792E+04 -4.242130E+04  7.539615E+04  6.080647E+04
       178   6  4.393793E+05 -7.983170E+03  4.562595E+04 -7.743755E+04  3.512187E+04  6.035976E+04
       178   7  2.083020E+06  5.449828E+05  5.699492E+05 -1.314073E+05  1.603936E+05  2.004047E+04
       178   8  1.921128E+06  3.595728E+05  4.223503E+05 -5.859627E+04  9.013884E+04  6.081809E+04
       178   9  1.808386E+06  3.282185E+05  3.591573E+05 -5.609542E+04  1.999694E+04  6.033616E+04
       178  10 -1.202067E+06 -2.715244E+05 -2.323132E+05 -2.416596E+04 -1.905524E-09  2.938283E-10
       178  11 -1.084485E+06 -3.799676E+05 -2.717778E+05 -2.628947E+04 -1.038675E-09 -5.613466E-10
       178  12 -9.278973E+05 -3.443179E+05 -2.680391E+05 -9.873511E+04 -1.220585E-09 -4.361071E-10
       178  13  4.392305E+05  1.368195E+05  1.688909E+05 -7.771626E+04 -5.663902E-10 -6.485535E-10
       178  14  4.172733E+05 -1.012185E+04  7.535030E+04 -4.242499E+04 -2.030508E-10  4.557108E-11
       178  15  4.393770E+05 -7.987414E+03  4.561678E+04 -7.743926E+04  2.856515E-10 -4.210912E-10
       178  16  2.082992E+06  5.449755E+05  5.699002E+05 -1.314099E+05  6.285209E-10  9.675361E-10
       178  17  1.921118E+06  3.595667E+05  4.223281E+05 -5.860067E+04  2.409797E-10 -4.738433E-10
       178  18  1.808384E+06  3.282145E+05  3.591497E+05 -5.609639E+04  2.312464E-10 -3.149072E-10
       178  19 -1.202062E+06 -2.715226E+05 -2.323029E+05 -2.416482E+04 -7.125263E+04 -1.986697E+04
       178  20 -1.084480E+06 -3.799626E+05 -2.717639E+05 -2.628649E+04 -6.068864E+04 -6.079408E+04
       178  21 -9.278936E+05 -3.443133E+05 -2.680275E+05 -9.873266E+04 -5.021372E+04 -6.038235E+04
       178  22  4.392450E+05  1.368235E+05  1.689169E+05 -7.771440E+04 -1.157645E+05 -1.995762E+04
       178  23  4.172804E+05 -1.011636E+04  7.536792E+04 -4.242130E+04 -7.539615E+04 -6.080647E+04
       178  24  4.393793E+05 -7.983170E+03  4.562595E+04 -7.743755E+04 -3.512187E+04 -6.035976E+04
       178  25  2.083020E+06  5.449828E+05  5.699492E+05 -1.314073E+05 -1.603936E+05 -2.004047E+04
       178  26  1.921128E+06  3.595728E+05  4.223503E+05 -5.859627E+04 -9.013884E+04 -6.081809E+04
       178  27  1.808386E+06  3.282185E+05  3.591573E+05 -5.609542E+04 -1.999694E+04 -6.033616E+04
       179   1 -8.059745E+05 -2.945591E+05 -2.483651E+05 -7.483579E+04  3.072846E+04  5.160807E+04
       179   2 -6.730389E+05 -2.720967E+05 -2.338991E+05 -4.158759E+04  2.241779E+04  4.726906E+04
       179   3 -5.354638E+05 -2.384405E+05 -2.110551E+05 -7.919057E+04  1.409576E+04  4.090716E+04
       179   4  4.307463E+05  9.860828E+03  3.670965E+04 -7.763306E+04  2.837685E+04  5.159920E+04
       179   5  4.283538E+05 -1.128070E+03  1.934296E+04 -4.220944E+04  1.859331E+04  4.726230E+04
       179   6  4.308288E+05 -6.785983E+02  1.136446E+04 -7.762873E+04  8.800175E+03  4.090414E+04
       179   7  1.668882E+06  3.141738E+05  3.216829E+05 -8.043610E+04  2.602055E+04  5.159035E+04
       179   8  1.530869E+06  2.697559E+05  2.725049E+05 -4.283242E+04  1.476207E+04  4.725555E+04
       179   9  1.397986E+06  2.370180E+05  2.337223E+05 -7.606434E+04  3.496397E+03  4.090109E+04
       179  10 -8.059763E+05 -2.945623E+05 -2.483719E+05 -7.483706E+04 -5.254734E-10 -2.306067E-10
       179  11 -6.730401E+05 -2.720992E+05 -2.339043E+05 -4.158845E+04  6.493992E-10 -1.186098E-10
       179  12 -5.354644E+05 -2.384423E+05 -2.110586E+05 -7.919104E+04 -1.084127E-10 -5.396895E-10
       179  13  4.307447E+05  9.857752E+03  3.670313E+04 -7.763423E+04  4.578041E-10 -2.892901E-10
       179  14  4.283528E+05 -1.130562E+03  1.933811E+04 -4.221014E+04  5.443238E-11  3.206018E-10
       179  15  4.308283E+05 -6.804162E+02  1.136117E+04 -7.762902E+04 -1.087618E-09 -2.554863E-10
       179  16  1.668881E+06  3.141707E+05  3.216766E+05 -8.043718E+04  2.906983E-10  3.680103E-11
       179  17  1.530869E+06  2.697534E+05  2.725003E+05 -4.283298E+04 -1.258353E-09 -3.516347E-11
       179  18  1.397985E+06  2.370162E+05  2.337191E+05 -7.606445E+04 -1.589591E-10  7.337718E-11
       179  19 -8.059745E+05 -2.945591E+05 -2.483651E+05 -7.483579E+04 -3.072846E+04 -5.160807E+04
       179  20 -6.730389E+05 -2.720967E+05 -2.338991E+05 -4.158759E+04 -2.241779E+04 -4.726906E+04
       179  21 -5.354638E+05 -2.384405E+05 -2.110551E+05 -7.919057E+04 -1.409576E+04 -4.090716E+04
       179  22  4.307463E+05  9.860828E+03  3.670965E+04 -7.763306E+04 -2.837685E+04 -5.159920E+04
       179  23  4.283538E+05 -1.128070E+03  1.934296E+04 -4.220944E+04 -1.859331E+04 -4.726230E+04
       179  24  4.308288E+05 -6.785983E+02  1.136446E+04 -7.762873E+04 -8.800175E+03 -4.090414E+04
       179  25  1.668882E+06  3.141738E+05  3.216829E+05 -8.043610E+04 -2.602055E+04 -5.159035E+04
       179  26  1.530869E+06  2.697559E+05  2.725049E+05 -4.283242E+04 -1.476207E+04 -4.725555E+04
       179  27  1.397986E+06  2.370180E+05  2.337223E+05 -7.606434E+04 -3.496397E+03 -4.090109E+04
       180   1 -4.073190E+05 -2.052489E+05 -1.833031E+05 -7.721349E+04  1.168170E+04  3.679407E+04
       180   2 -2.733315E+05 -1.730307E+05 -1.565949E+05 -4.202371E+04  9.288638E+03  3.027073E+04
       180   3 -1.386105E+05 -1.398447E+05 -1.280509E+05 -7.725416E+04  6.887697E+03  2.365907E+04
       180   4  4.299656E+05  6.279515E+02  8.772765E+03 -7.753450E+04  7.024283E+03  3.679284E+04
       180   5  4.296273E+05 -1.388948E+02  4.942121E+03 -4.232705E+04  4.564187E+03  3.027186E+04
       180   6  4.300163E+05  7.404305E+01  2.992599E+03 -7.753493E+04  2.096722E+03  2.366270E+04
       180   7  1.267900E+06  2.064560E+05  2.008025E+05 -7.785584E+04  2.360628E+03  3.679161E+04
       180   8  1.133043E+06  1.727184E+05  1.664465E+05 -4.263064E+04 -1.655739E+02  3.027301E+04
       180   9  9.989421E+05  1.399702E+05  1.340147E+05 -7.781587E+04 -2.698608E+03  2.366632E+04
       180  10 -4.073195E+05 -2.052504E+05 -1.833059E+05 -7.721383E+04 -7.954433E-10 -6.266972E-10
       180  11 -2.733318E+05 -1.730317E+05 -1.565967E+05 -4.202394E+04 -1.492971E-09  2.868861E-10
       180  12 -1.386107E+05 -1.398453E+05 -1.280520E+05 -7.725429E+04  4.234300E-11 -7.297625E-10
       180  13  4.299652E+05  6.264843E+02  8.770128E+03 -7.753471E+04 -5.554439E-10 -2.542167E-10
       180  14  4.296270E+05 -1.398846E+02  4.940359E+03 -4.232717E+04 -1.296894E-09  4.147284E-10
       180  15  4.300161E+05  7.344048E+01  2.991538E+03 -7.753497E+04 -8.022072E-10  5.103454E-10
       180  16  1.267899E+06  2.064545E+05  2.008000E+05 -7.785591E+04  1.663939E-09  5.647920E-11
       180  17  1.133043E+06  1.727175E+05  1.664448E+05 -4.263064E+04  4.516117E-10 -7.892597E-10
       180  18  9.989419E+05  1.399696E+05  1.340136E+05 -7.781582E+04 -6.649186E-10 -6.472576E-10
       180  19 -4.073190E+05 -2.052489E+05 -1.833031E+05 -7.721349E+04 -1.168170E+04 -3.679407E+04
       180  20 -2.733315E+05 -1.730307E+05 -1.565949E+05 -4.202371E+04 -9.288638E+03 -3.027073E+04
       180  21 -1.386105E+05 -1.398447E+05 -1.280509E+05 -7.725416E+04 -6.887697E+03 -2.365907E+04
       180  22  4.299656E+05  6.279515E+02  8.772765E+03 -7.753450E+04 -7.024283E+03 -3.679284E+04
       180  23  4.296273E+05 -1.388948E+02  4.942121E+03 -4.232705E+04 -4.564187E+03 -3.027186E+04
       180  24  4.300163E+05  7.404305E+01  2.992599E+03 -7.753493E+04 -2.096722E+03 -2.366270E+04
       180  25  1.267900E+06  2.064560E+05  2.008025E+05 -7.785584E+04 -2.360628E+03 -3.679161E+04
       180  26  1.133043E+06  1.727184E+05  1.664465E+05 -4.263064E+04  1.655739E+02 -3.027301E+04
       180  27  9.989421E+05  1.399702E+05  1.340147E+05 -7.781587E+04  2.698608E+03 -2.366632E+04
       181   1 -1.040350E+04 -1.080364E+05 -9.840489E+04 -7.714167E+04  6.364113E+03  1.979626E+04
       181   2  1.234609E+05 -7.527981E+04 -6.879689E+04 -4.214086E+04  5.565635E+03  1.319250E+04
       181   3  2.573443E+05 -4.229846E+04 -3.865019E+04 -7.728717E+04  4.763804E+03  6.589275E+03
       181   4  4.298874E+05  1.566274E+02  2.361146E+03 -7.747471E+04  1.609073E+03  1.980095E+04
       181   5  4.298962E+05  6.935032E+01  1.601985E+03 -4.240221E+04  8.100739E+02  1.319820E+04
       181   6  4.299092E+05  2.085356E+02  1.382900E+03 -7.747469E+04  7.890171E+00  6.596053E+03
       181   7  8.703579E+05  1.083362E+05  1.031146E+05 -7.780792E+04 -3.149312E+03  1.980565E+04
       181   8  7.364184E+05  7.541198E+04  7.199475E+04 -4.266365E+04 -3.947816E+03  1.320391E+04
       181   9  6.025016E+05  4.271345E+04  4.141408E+04 -7.766225E+04 -4.749336E+03  6.602833E+03
       181  10 -1.040365E+04 -1.080368E+05 -9.840571E+04 -7.714177E+04  1.380176E-10 -3.651585E-10
       181  11  1.234608E+05 -7.528001E+04 -6.879728E+04 -4.214092E+04 -6.862816E-11  5.517138E-10
       181  12  2.573443E+05 -4.229851E+04 -3.865032E+04 -7.728720E+04  9.763174E-10 -2.504890E-10
       181  13  4.298873E+05  1.562056E+02  2.360405E+03 -7.747473E+04 -4.912830E-10 -1.027000E-09
       181  14  4.298962E+05  6.916305E+01  1.601657E+03 -4.240222E+04  2.447561E-10  6.655690E-10
       181  15  4.299092E+05  2.084888E+02  1.382818E+03 -7.747469E+04 -8.382721E-10 -2.773834E-10
       181  16  8.703578E+05  1.083357E+05  1.031138E+05 -7.780787E+04  3.214446E-10 -4.753598E-11
       181  17  7.364184E+05  7.541178E+04  7.199439E+04 -4.266361E+04 -2.544585E-10  6.664508E-11
       181  18  6.025016E+05  4.271340E+04  4.141395E+04 -7.766222E+04 -1.536253E-09 -2.516164E-10
       181  19 -1.040350E+04 -1.080364E+05 -9.840489E+04 -7.714167E+04 -6.364113E+03 -1.979626E+04
       181  20  1.234609E+05 -7.527981E+04 -6.879689E+04 -4.214086E+04 -5.565635E+03 -1.319250E+04
       181  21  2.573443E+05 -4.229846E+04 -3.865019E+04 -7.728717E+04 -4.763804E+03 -6.589275E+03
       181  22  4.298874E+05  1.566274E+02  2.361146E+03 -7.747471E+04 -1.609073E+03 -1.980095E+04
       181  23  4.298962E+05  6.935032E+01  1.601985E+03 -4.240221E+04 -8.100739E+02 -1.319820E+04
       181  24  4.299092E+05  2.085356E+02  1.382900E+03 -7.747469E+04 -7.890171E+00 -6.596053E+03
       181  25  8.703579E+05  1.083362E+05  1.031146E+05 -7.780792E+04  3.149312E+03 -1.980565E+04
       181  26  7.364184E+05  7.541198E+04  7.199475E+04 -4.266365E+04  3.947816E+03 -1.320391E+04
       181  27  6.025016E+05  4.271345E+04  4.141408E+04 -7.766225E+04  4.749336E+03 -6.602833E+03
       182   1  3.854255E+05 -1.065096E+04 -8.399049E+03 -7.740467E+04  4.501693E+03  2.747054E+03
       182   2  5.192338E+05  2.204913E+04  2.236785E+04 -4.247285E+04  3.573251E+03 -3.850969E+03
       182   3  6.530200E+05  5.500239E+04  5.374907E+04 -7.762948E+04  2.645534E+03 -1.044641E+04
       182   4  4.299060E+05  2.060799E+02  1.425217E+03 -7.746228E+04 -2.532869E+02  2.754069E+03
       182   5  4.299232E+05  9.392849E+01  1.854891E+03 -4.241772E+04 -1.180267E+03 -3.844294E+03
       182   6  4.298995E+05  2.353703E+02  2.898261E+03 -7.746220E+04 -2.106326E+03 -1.044001E+04
       182   7  4.743884E+05  1.106300E+04  1.124945E+04 -7.751989E+04 -5.008603E+03  2.761084E+03
       182   8  3.406201E+05 -2.186182E+04 -1.865851E+04 -4.236259E+04 -5.933106E+03 -3.837619E+03
       182   9  2.068252E+05 -5.453509E+04 -4.795570E+04 -7.729497E+04 -6.856496E+03 -1.043361E+04
       182  10  3.854255E+05 -1.065098E+04 -8.399101E+03 -7.740468E+04  7.469170E-10  4.262162E-10
       182  11  5.192337E+05  2.204911E+04  2.236780E+04 -4.247284E+04 -5.206114E-11  1.871868E-09
       182  12  6.530200E+05  5.500227E+04  5.374885E+04 -7.762945E+04  1.579700E-09 -1.440871E-09
       182  13  4.299060E+05  2.060718E+02  1.425203E+03 -7.746228E+04 -5.468265E-10  1.677131E-10
       182  14  4.299232E+05  9.391224E+01  1.854861E+03 -4.241772E+04 -1.154519E-09 -9.642027E-10
       182  15  4.298995E+05  2.352520E+02  2.898048E+03 -7.746222E+04 -9.244647E-10 -1.530188E-10
       182  16  4.743884E+05  1.106299E+04  1.124938E+04 -7.751988E+04 -7.439069E-10  5.593598E-10
       182  17  3.406200E+05 -2.186184E+04 -1.865861E+04 -4.236261E+04 -6.593354E-10 -8.421092E-10
       182  18  2.068251E+05 -5.453521E+04 -4.795599E+04 -7.729502E+04 -2.103745E-09 -1.381726E-10
       182  19  3.854255E+05 -1.065096E+04 -8.399049E+03 -7.740467E+04 -4.501693E+03 -2.747054E+03
       182  20  5.192338E+05  2.204913E+04  2.236785E+04 -4.247285E+04 -3.573251E+03  3.850969E+03
       182  21  6.530200E+05  5.500239E+04  5.374907E+04 -7.762948E+04 -2.645534E+03  1.044641E+04
       182  22  4.299060E+05  2.060799E+02  1.425217E+03 -7.746228E+04  2.532869E+02 -2.754069E+03
       182  23  4.299232E+05  9.392849E+01  1.854891E+03 -4.241772E+04  1.180267E+03  3.844294E+03
       182  24  4.298995E+05  2.353703E+02  2.898261E+03 -7.746220E+04  2.106326E+03  1.044001E+04
       182  25  4.743884E+05  1.106300E+04  1.124945E+04 -7.751989E+04  5.008603E+03 -2.761084E+03
       182  26  3.406201E+05 -2.186182E+04 -1.865851E+04 -4.236259E+04  5.933106E+03  3.837619E+03
       182  27  2.068252E+05 -5.453509E+04 -4.795570E+04 -7.729497E+04  6.856496E+03  1.043361E+04
       183   1  7.813784E+05  8.655935E+04  8.478843E+04 -7.762168E+04  2.074221E+03 -1.429934E+04
       183   2  9.151540E+05  1.192338E+05  1.177411E+05 -4.267940E+04 -1.109626E+03 -2.089262E+04
       183   3  1.049630E+06  1.531648E+05  1.530635E+05 -7.797476E+04 -4.289038E+03 -2.740689E+04
       183   4  4.300404E+05  1.260188E+02  3.716335E+03 -7.749630E+04 -2.708091E+03 -1.429353E+04
       183   5  4.296856E+05 -8.108477E+01  6.261995E+03 -4.237532E+04 -5.833231E+03 -2.088855E+04
       183   6  4.300051E+05  9.599620E+02  1.113906E+04 -7.749531E+04 -8.953263E+03 -2.740449E+04
       183   7  7.881636E+04 -8.631594E+04 -7.736389E+04 -7.737095E+04 -7.487719E+03 -1.428771E+04
       183   8 -5.556497E+04 -1.194124E+05 -1.052326E+05 -4.207140E+04 -1.055318E+04 -2.088450E+04
       183   9 -1.892646E+05 -1.512715E+05 -1.308105E+05 -7.701624E+04 -1.361288E+04 -2.740209E+04
       183  10  7.813784E+05  8.655913E+04  8.478804E+04 -7.762165E+04  3.448120E-10 -1.613412E-09
       183  11  9.151539E+05  1.192334E+05  1.177403E+05 -4.267942E+04 -2.080916E-10  1.748338E-10
       183  12  1.049630E+06  1.531640E+05  1.530620E+05 -7.797486E+04 -5.739174E-10  4.382633E-10
       183  13  4.300403E+05  1.257974E+02  3.715937E+03 -7.749633E+04 -2.227961E-09  1.699084E-11
       183  14  4.296854E+05 -8.156254E+01  6.261111E+03 -4.237541E+04 -1.268808E-09 -3.982931E-10
       183  15  4.300048E+05  9.591339E+02  1.113750E+04 -7.749551E+04 -9.522232E-10 -4.198140E-10
       183  16  7.881625E+04 -8.631617E+04 -7.736438E+04 -7.737104E+04 -6.391779E-10  3.394549E-10
       183  17 -5.556521E+04 -1.194129E+05 -1.052336E+05 -4.207158E+04 -5.592107E-10  1.550813E-09
       183  18 -1.892650E+05 -1.512724E+05 -1.308123E+05 -7.701654E+04 -5.053819E-10  1.926660E-10
       183  19  7.813784E+05  8.655935E+04  8.478843E+04 -7.762168E+04 -2.074221E+03  1.429934E+04
       183  20  9.151540E+05  1.192338E+05  1.177411E+05 -4.267940E+04  1.109626E+03  2.089262E+04
       183  21  1.049630E+06  1.531648E+05  1.530635E+05 -7.797476E+04  4.289038E+03  2.740689E+04
       183  22  4.300404E+05  1.260188E+02  3.716335E+03 -7.749630E+04  2.708091E+03  1.429353E+04
       183  23  4.296856E+05 -8.108477E+01  6.261995E+03 -4.237532E+04  5.833231E+03  2.088855E+04
       183  24  4.300051E+05  9.599620E+02  1.113906E+04 -7.749531E+04  8.953263E+03  2.740449E+04
       183  25  7.881636E+04 -8.631594E+04 -7.736389E+04 -7.737095E+04  7.487719E+03  1.428771E+04
       183  26 -5.556497E+04 -1.194124E+05 -1.052326E+05 -4.207140E+04  1.055318E+04  2.088450E+04
       183  27 -1.892646E+05 -1.512715E+05 -1.308105E+05 -7.701624E+04  1.361288E+04  2.740209E+04
       184   1  1.179463E+06  1.832629E+05  1.865969E+05 -7.576390E+04 -5.989247E+03 -3.147181E+04
       184   2  1.311387E+06  2.158065E+05  2.274798E+05 -4.359038E+04 -1.975232E+04 -3.783510E+04
       184   3  1.449196E+06  2.631468E+05  2.810868E+05 -8.196605E+04 -3.350957E+04 -4.244087E+04
       184   4  4.310699E+05 -7.066126E+02  1.442941E+04 -7.756668E+04 -1.120864E+04 -3.147047E+04
       184   5  4.282068E+05 -1.218911E+03  2.464892E+04 -4.228778E+04 -2.368841E+04 -3.783746E+04
       184   6  4.310023E+05  1.285705E+04  4.671702E+04 -7.756365E+04 -3.615944E+04 -4.244589E+04
       184   7 -3.168061E+05 -1.847152E+05 -1.577750E+05 -7.936715E+04 -1.642180E+04 -3.146910E+04
       184   8 -4.542523E+05 -2.182987E+05 -1.782333E+05 -4.098696E+04 -2.761895E+04 -3.783985E+04
       184   9 -5.862343E+05 -2.375051E+05 -1.877214E+05 -7.316845E+04 -3.880497E+04 -4.245095E+04
       184  10  1.179463E+06  1.832618E+05  1.865949E+05 -7.576405E+04 -6.132049E-10  4.833339E-10
       184  11  1.311386E+06  2.158049E+05  2.274763E+05 -4.359098E+04  7.993224E-10  1.130091E-10
       184  12  1.449195E+06  2.631446E+05  2.810813E+05 -8.196719E+04 -7.703321E-10  1.510975E-11
       184  13  4.310695E+05 -7.077101E+02  1.442731E+04 -7.756696E+04 -1.072802E-09  1.371592E-10
       184  14  4.282058E+05 -1.220599E+03  2.464517E+04 -4.228851E+04 -8.960967E-10  4.867354E-11
       184  15  4.310004E+05  1.285477E+04  4.671118E+04 -7.756488E+04 -1.956832E-09 -2.570002E-10
       184  16 -3.168066E+05 -1.847163E+05 -1.577774E+05 -7.936756E+04 -4.154801E-10  5.692505E-11
       184  17 -4.542535E+05 -2.183004E+05 -1.782375E+05 -4.098781E+04 -6.930401E-10 -2.824071E-10
       184  18 -5.862364E+05 -2.375074E+05 -1.877276E+05 -7.316978E+04  7.931608E-10 -5.048014E-10
       184  19  1.179463E+06  1.832629E+05  1.865969E+05 -7.576390E+04  5.989247E+03  3.147181E+04
       184  20  1.311387E+06  2.158065E+05  2.274798E+05 -4.359038E+04  1.975232E+04  3.783510E+04
       184  21  1.449196E+06  2.631468E+05  2.810868E+05 -8.196605E+04  3.350957E+04  4.244087E+04
       184  22  4.310699E+05 -7.066126E+02  1.442941E+04 -7.756668E+04  1.120864E+04  3.147047E+04
       184  23  4.282068E+05 -1.218911E+03  2.464892E+04 -4.228778E+04  2.368841E+04  3.783746E+04
       184  24  4.310023E+05  1.285705E+04  4.671702E+04 -7.756365E+04  3.615944E+04  4.244589E+04
       184  25 -3.168061E+05 -1.847152E+05 -1.577750E+05 -7.936715E+04  1.642180E+04  3.146910E+04
       184  26 -4.542523E+05 -2.182987E+05 -1.782333E+05 -4.098696E+04  2.761895E+04  3.783985E+04
       184  27 -5.862343E+05 -2.375051E+05 -1.877214E+05 -7.316845E+04  3.880497E+04  4.245095E+04
       185   1  1.590278E+06  2.721951E+05  3.211051E+05 -5.135083E+04 -3.099734E+04 -5.054250E+04
       185   2  1.696916E+06  3.028728E+05  3.920215E+05 -6.464623E+04 -1.082811E+05 -5.176708E+04
       185   3  1.863103E+06  5.274494E+05  5.618544E+05 -1.479962E+05 -1.856330E+05 -1.710913E+04
       185   4  4.419379E+05 -9.832531E+03  5.805257E+04 -7.740325E+04 -4.474584E+04 -5.055119E+04
       185   5  4.143040E+05 -1.249453E+04  9.601100E+04 -4.247512E+04 -9.604785E+04 -5.176839E+04
       185   6  4.418131E+05  1.744456E+05  2.149861E+05 -7.759607E+04 -1.473977E+05 -1.708206E+04
       185   7 -7.051816E+05 -2.919492E+05 -2.050856E+05 -1.034072E+05 -5.846910E+04 -5.055874E+04
       185   8 -8.667888E+05 -3.279751E+05 -2.001081E+05 -2.035031E+04 -8.383945E+04 -5.176884E+04
       185   9 -9.776245E+05 -1.786874E+05 -1.320210E+05 -7.357578E+03 -1.092491E+05 -1.704633E+04
       185  10  1.590276E+06  2.721921E+05  3.210985E+05 -5.135209E+04 -1.215802E-09  2.424146E-10
       185  11  1.696903E+06  3.028668E+05  3.919945E+05 -6.465074E+04 -2.231048E-10 -3.766762E-12
       185  12  1.863066E+06  5.274398E+05  5.617892E+05 -1.479988E+05  4.113029E-10 -2.130539E-10
       185  13  4.419350E+05 -9.835813E+03  5.804401E+04 -7.740507E+04 -3.953242E-10  4.456229E-10
       185  14  4.142934E+05 -1.249989E+04  9.598864E+04 -4.247912E+04 -1.935476E-09  1.369182E-09
       185  15  4.417897E+05  1.744395E+05  2.149448E+05 -7.759810E+04  5.611145E-10 -4.239747E-11
       185  16 -7.051860E+05 -2.919529E+05 -2.050968E+05 -1.034096E+05  5.718338E-10  1.418615E-12
       185  17 -8.667971E+05 -3.279798E+05 -2.001264E+05 -2.035381E+04 -1.379332E-10  4.840206E-10
       185  18 -9.776374E+05 -1.786910E+05 -1.320440E+05 -7.359079E+03 -9.803944E-10 -3.277098E-10
       185  19  1.590278E+06  2.721951E+05  3.211051E+05 -5.135083E+04  3.099734E+04  5.054250E+04
       185  20  1.696916E+06  3.028728E+05  3.920215E+05 -6.464623E+04  1.082811E+05  5.176708E+04
       185  21  1.863103E+06  5.274494E+05  5.618544E+05 -1.479962E+05  1.856330E+05  1.710913E+04
       185  22  4.419379E+05 -9.832531E+03  5.805257E+04 -7.740325E+04  4.474584E+04  5.055119E+04
       185  23  4.143040E+05 -1.249453E+04  9.601100E+04 -4.247512E+04  9.604785E+04  5.176839E+04
       185  24  4.418131E+05  1.744456E+05  2.149861E+05 -7.759607E+04  1.473977E+05  1.708206E+04
       185  25 -7.051816E+05 -2.919492E+05 -2.050856E+05 -1.034072E+05  5.846910E+04  5.055874E+04
       185  26 -8.667888E+05 -3.279751E+05 -2.001081E+05 -2.035031E+04  8.383945E+04  5.176884E+04
       185  27 -9.776245E+05 -1.786874E+05 -1.320210E+05 -7.357578E+03  1.092491E+05  1.704633E+04
       186   1  2.424792E+05  7.814956E+05  2.626846E+05 -2.025504E+05  4.647825E+03  9.213920E+04
       186   2  6.539016E+04  4.862530E+05  1.239239E+05 -1.017115E+05  1.073069E+04  4.987573E+04
       186   3 -1.002457E+03  2.232760E+05  4.012599E+04 -1.462544E+05 -1.612170E+02  7.582315E+03
       186   4  9.994754E+04  2.103675E+05  1.222418E+05 -1.605423E+05  4.684648E+03  8.169323E+04
       186   5 -6.388668E+03  1.953404E+05  5.630783E+04 -8.800435E+04  1.072669E+04  5.168630E+04
       186   6 -4.115755E+03  2.104182E+05  3.686982E+04 -1.608394E+05 -2.058525E+02  2.163046E+04
       186   7 -4.260185E+04 -3.604602E+05 -1.822378E+04 -1.185726E+05  4.720079E+03  7.125682E+04
       186   8 -7.817279E+04 -9.549385E+04 -1.131387E+04 -7.430355E+04  1.072276E+04  5.349602E+04
       186   9 -7.228159E+03  1.975613E+05  3.361448E+04 -1.754242E+05 -2.511483E+02  3.567831E+04
       186  10  2.424769E+05  7.814865E+05  2.626686E+05 -2.025507E+05  1.079847E-09  1.156330E-09
       186  11  6.538937E+04  4.862503E+05  1.239190E+05 -1.017120E+05  4.968026E-10 -1.597132E-09
       186  12 -1.002472E+03  2.232760E+05  4.012588E+04 -1.462544E+05 -7.707866E-10 -2.340050E-09
       186  13  9.994573E+04  2.103603E+05  1.222292E+05 -1.605426E+05  1.899253E-09  1.469474E-09
       186  14 -6.389509E+03  1.953375E+05  5.630260E+04 -8.800479E+04  1.222602E-09  6.595084E-12
       186  15 -4.115881E+03  2.104177E+05  3.686894E+04 -1.608394E+05  3.643095E-10  9.786770E-10
       186  16 -4.260324E+04 -3.604657E+05 -1.823337E+04 -1.185729E+05 -4.806844E-10 -1.446454E-09
       186  17 -7.817368E+04 -9.549695E+04 -1.131946E+04 -7.430401E+04  2.745594E-09  1.530255E-09
       186  18 -7.228501E+03  1.975600E+05  3.361209E+04 -1.754242E+05 -1.418997E-09  2.697737E-09
       186  19  2.424792E+05  7.814956E+05  2.626846E+05 -2.025504E+05 -4.647825E+03 -9.213920E+04
       186  20  6.539016E+04  4.862530E+05  1.239239E+05 -1.017115E+05 -1.073069E+04 -4.987573E+04
       186  21 -1.002457E+03  2.232760E+05  4.012599E+04 -1.462544E+05  1.612170E+02 -7.582315E+03
       186  22  9.994754E+04  2.103675E+05  1.222418E+05 -1.605423E+05 -4.684648E+03 -8.169323E+04
       186  23 -6.388668E+03  1.953404E+05  5.630783E+04 -8.800435E+04 -1.072669E+04 -5.168630E+04
       186  24 -4.115755E+03  2.104182E+05  3.686982E+04 -1.608394E+05  2.058525E+02 -2.163046E+04
       186  25 -4.260185E+04 -3.604602E+05 -1.822378E+04 -1.185726E+05 -4.720079E+03 -7.125682E+04
       186  26 -7.817279E+04 -9.549385E+04 -1.131387E+04 -7.430355E+04 -1.072276E+04 -5.349602E+04
       186  27 -7.228159E+03  1.975613E+05  3.361448E+04 -1.754242E+05  2.511483E+02 -3.567831E+04
       187   1 -5.458784E+04 -5.003194E+04 -2.698077E+04 -1.636897E+05 -1.042161E+04  6.473580E+03
       187   2 -1.318942E+05 -3.312227E+05 -9.934064E+04 -8.694836E+04 -2.285795E+04 -4.468623E+03
       187   3 -1.946778E+05 -6.080882E+05 -1.611399E+05 -1.563283E+05 -3.402082E+04 -1.539210E+04
       187   4  8.088977E+03  2.046906E+05  3.181453E+04 -1.609099E+05 -1.045087E+04  1.591481E+04
       187   5 -6.058230E+02  2.024460E+05  2.336777E+04 -8.785816E+04 -2.288087E+04  4.048365E+03
       187   6  5.381758E+03  2.046121E+05  2.612384E+04 -1.609183E+05 -3.403803E+04 -7.804133E+03
       187   7  7.076133E+04  4.594733E+05  9.060585E+04 -1.581289E+05 -1.048005E+04  2.535988E+04
       187   8  1.306627E+05  7.363785E+05  1.460576E+05 -8.876855E+04 -2.290380E+04  1.257262E+04
       187   9  2.053952E+05  1.017924E+06  2.133440E+05 -1.655139E+05 -3.405533E+04 -2.062999E+02
       187  10 -5.458797E+04 -5.003202E+04 -2.698105E+04 -1.636896E+05 -1.914465E-09  8.630231E-10
       187  11 -1.318948E+05 -3.312228E+05 -9.934166E+04 -8.694844E+04 -2.809337E-10 -9.495267E-10
       187  12 -1.946792E+05 -6.080888E+05 -1.611426E+05 -1.563287E+05  2.139193E-10 -2.297004E-10
       187  13  8.088792E+03  2.046903E+05  3.181385E+04 -1.609098E+05 -6.018166E-10  1.566585E-09
       187  14 -6.063896E+02  2.024459E+05  2.336675E+04 -8.785808E+04  1.551521E-09  7.618621E-11
       187  15  5.380498E+03  2.046118E+05  2.612155E+04 -1.609185E+05 -6.471783E-10  7.234251E-10
       187  16  7.076104E+04  4.594725E+05  9.060443E+04 -1.581287E+05 -1.230611E-09 -1.244446E-09
       187  17  1.306621E+05  7.363782E+05  1.460563E+05 -8.876831E+04 -1.318370E-09  6.606715E-10
       187  18  2.053940E+05  1.017924E+06  2.133418E+05 -1.655139E+05 -5.047495E-11  7.676595E-10
       187  19 -5.458784E+04 -5.003194E+04 -2.698077E+04 -1.636897E+05  1.042161E+04 -6.473580E+03
       187  20 -1.318942E+05 -3.312227E+05 -9.934064E+04 -8.694836E+04  2.285795E+04  4.468623E+03
       187  21 -1.946778E+05 -6.080882E+05 -1.611399E+05 -1.563283E+05  3.402082E+04  1.539210E+04
       187  22  8.088977E+03  2.046906E+05  3.181453E+04 -1.609099E+05  1.045087E+04 -1.591481E+04
       187  23 -6.058230E+02  2.024460E+05  2.336777E+04 -8.785816E+04  2.288087E+04 -4.048365E+03
       187  24  5.381758E+03  2.046121E+05  2.612384E+04 -1.609183E+05  3.403803E+04  7.804133E+03
       187  25  7.076133E+04  4.594733E+05  9.060585E+04 -1.581289E+05  1.048005E+04 -2.535988E+04
       187  26  1.306627E+05  7.363785E+05  1.460576E+05 -8.876855E+04  2.290380E+04 -1.257262E+04
       187  27  2.053952E+05  1.017924E+06  2.133440E+05 -1.655139E+05  3.405533E+04  2.062999E+02
       188   1 -2.684434E+05 -8.721851E+05 -2.194473E+05 -1.689266E+05 -4.714064E+04 -3.298600E+04
       188   2 -3.394784E+05 -1.160414E+06 -2.737325E+05 -7.727784E+04 -5.430365E+04 -2.356524E+04
       188   3 -3.395017E+05 -1.431576E+06 -3.163146E+05 -1.305062E+05 -1.848535E+04 -1.408757E+04
       188   4 -2.648825E+03  2.084686E+05  2.867899E+04 -1.606739E+05 -4.718591E+04 -1.241633E+04
       188   5 -4.918792E+03  1.972064E+05  4.040462E+04 -8.819373E+04 -5.427621E+04 -3.393134E+04
       188   6  6.911436E+04  2.082627E+05  8.528943E+04 -1.605636E+05 -1.842756E+04 -5.538559E+04
       188   7  2.630649E+05  1.290205E+06  2.767299E+05 -1.524060E+05 -4.723058E+04  8.188900E+03
       188   8  3.295117E+05  1.556533E+06  3.544190E+05 -9.913281E+04 -5.424844E+04 -4.431991E+04
       188   9  4.775354E+05  1.850560E+06  4.867034E+05 -1.906996E+05 -1.836585E+04 -9.679249E+04
       188  10 -2.684461E+05 -8.721869E+05 -2.194535E+05 -1.689279E+05 -2.015261E-10  5.605525E-10
       188  11 -3.394817E+05 -1.160416E+06 -2.737391E+05 -7.727887E+04  5.949518E-10 -2.564427E-10
       188  12 -3.395021E+05 -1.431576E+06 -3.163156E+05 -1.305064E+05  4.291761E-10 -1.301581E-10
       188  13 -2.651258E+03  2.084678E+05  2.867452E+04 -1.606744E+05  8.985401E-10  1.141564E-09
       188  14 -4.922265E+03  1.972044E+05  4.039692E+04 -8.819521E+04  1.237889E-11  2.150966E-11
       188  15  6.911318E+04  2.082593E+05  8.528303E+04 -1.605644E+05  3.989155E-11  3.696858E-10
       188  16  2.630625E+05  1.290205E+06  2.767255E+05 -1.524057E+05 -1.215782E-09 -7.637121E-10
       188  17  3.295080E+05  1.556530E+06  3.544098E+05 -9.913475E+04  9.481761E-10 -9.340474E-11
       188  18  4.775325E+05  1.850549E+06  4.866852E+05 -1.907010E+05  1.585637E-10  1.721814E-10
       188  19 -2.684434E+05 -8.721851E+05 -2.194473E+05 -1.689266E+05  4.714064E+04  3.298600E+04
       188  20 -3.394784E+05 -1.160414E+06 -2.737325E+05 -7.727784E+04  5.430365E+04  2.356524E+04
       188  21 -3.395017E+05 -1.431576E+06 -3.163146E+05 -1.305062E+05  1.848535E+04  1.408757E+04
       188  22 -2.648825E+03  2.084686E+05  2.867899E+04 -1.606739E+05  4.718591E+04  1.241633E+04
       188  23 -4.918792E+03  1.972064E+05  4.040462E+04 -8.819373E+04  5.427621E+04  3.393134E+04
       188  24  6.911436E+04  2.082627E+05  8.528943E+04 -1.605636E+05  1.842756E+04  5.538559E+04
       188  25  2.630649E+05  1.290205E+06  2.767299E+05 -1.524060E+05  4.723058E+04 -8.188900E+03
       188  26  3.295117E+05  1.556533E+06  3.544190E+05 -9.913281E+04  5.424844E+04  4.431991E+04
       188  27  4.775354E+05  1.850560E+06  4.867034E+05 -1.906996E+05  1.836585E+04  9.679249E+04
       189   1 -3.242060E+06 -1.181383E+06 -7.453298E+05 -1.154889E+06 -3.011761E+05 -9.560032E+04
       189   2 -3.133521E+06 -7.391349E+05 -4.657920E+05 -1.145008E+06 -1.962533E+05 -1.844363E+04
       189   3 -3.133912E+06 -6.794464E+05 -3.685682E+05 -1.087624E+06 -7.865757E+04  2.522202E+04
       189   4 -2.098390E+06 -6.289927E+05 -4.127538E+05 -7.202859E+05 -2.682041E+05 -8.322246E+04
       189   5 -2.023963E+06 -2.848458E+05 -1.755373E+05 -8.024977E+05 -1.856042E+05 -1.444998E+04
       189   6 -2.053783E+06 -3.184615E+05 -1.026395E+05 -8.372767E+05 -9.035435E+04  2.081828E+04
       189   7 -9.534083E+05 -7.625929E+04 -8.029910E+04 -2.848724E+05 -2.351646E+05 -7.080308E+04
       189   8 -9.131918E+05  1.695886E+05  1.146128E+05 -4.594066E+05 -1.749340E+05 -1.044671E+04
       189   9 -9.725133E+05  4.254206E+04  1.632015E+05 -5.865602E+05 -1.020734E+05  1.640826E+04
       189  10 -3.242160E+06 -1.181418E+06 -7.455185E+05 -1.154912E+06  4.392080E-10 -2.606280E-11
       189  11 -3.133563E+06 -7.391457E+05 -4.658654E+05 -1.145011E+06 -1.624289E-09 -5.669267E-11
       189  12 -3.133919E+06 -6.794487E+05 -3.685811E+05 -1.087622E+06 -5.704160E-10 -3.945020E-10
       189  13 -2.098470E+06 -6.290195E+05 -4.129025E+05 -7.203039E+05  3.472541E-10 -7.077316E-10
       189  14 -2.024000E+06 -2.848553E+05 -1.756026E+05 -8.024999E+05 -1.209622E-09 -1.027538E-09
       189  15 -2.053792E+06 -3.184642E+05 -1.026556E+05 -8.372752E+05  1.048424E-09 -3.205571E-10
       189  16 -9.534691E+05 -7.627955E+04 -8.041264E+04 -2.848859E+05 -7.863919E-10  3.897436E-10
       189  17 -9.132247E+05  1.695803E+05  1.145550E+05 -4.594081E+05  6.167284E-11  1.379383E-10
       189  18 -9.725245E+05  4.253897E+04  1.631813E+05 -5.865589E+05  1.998167E-10 -2.637921E-10
       189  19 -3.242060E+06 -1.181383E+06 -7.453298E+05 -1.154889E+06  3.011761E+05  9.560032E+04
       189  20 -3.133521E+06 -7.391349E+05 -4.657920E+05 -1.145008E+06  1.962533E+05  1.844363E+04
       189  21 -3.133912E+06 -6.794464E+05 -3.685682E+05 -1.087624E+06  7.865757E+04 -2.522202E+04
       189  22 -2.098390E+06 -6.289927E+05 -4.127538E+05 -7.202859E+05  2.682041E+05  8.322246E+04
       189  23 -2.023963E+06 -2.848458E+05 -1.755373E+05 -8.024977E+05  1.856042E+05  1.444998E+04
       189  24 -2.053783E+06 -3.184615E+05 -1.026395E+05 -8.372767E+05  9.035435E+04 -2.081828E+04
       189  25 -9.534083E+05 -7.625929E+04 -8.029910E+04 -2.848724E+05  2.351646E+05  7.080308E+04
       189  26 -9.131918E+05  1.695886E+05  1.146128E+05 -4.594066E+05  1.749340E+05  1.044671E+04
       189  27 -9.725133E+05  4.254206E+04  1.632015E+05 -5.865602E+05  1.020734E+05 -1.640826E+04
       190   1 -2.986008E+06 -7.197247E+05 -3.253070E+05 -1.083426E+06 -7.252834E+04  1.958078E+04
       190   2 -2.904886E+06 -6.319621E+05 -2.585777E+05 -1.037109E+06 -4.907113E+04  2.497337E+04
       190   3 -2.797294E+06 -6.122289E+05 -2.161360E+05 -1.029226E+06 -2.490923E+04  2.848313E+04
       190   4 -2.039898E+06 -3.564985E+05 -8.247326E+04 -8.160634E+05 -7.397589E+04  1.902999E+04
       190   5 -2.051426E+06 -3.099630E+05 -4.115785E+04 -8.015805E+05 -5.175075E+04  2.396225E+04
       190   6 -2.036232E+06 -3.311827E+05 -2.312119E+04 -8.255355E+05 -2.882510E+04  2.701106E+04
       190   7 -1.092905E+06  6.798697E+03  1.602879E+05 -5.483244E+05 -7.542580E+04  1.847826E+04
       190   8 -1.197250E+06  1.208664E+04  1.762034E+05 -5.657564E+05 -5.443438E+04  2.294961E+04
       190   9 -1.274603E+06 -5.010336E+04  1.698471E+05 -6.216202E+05 -3.274624E+04  2.553708E+04
       190  10 -2.986014E+06 -7.197266E+05 -3.253177E+05 -1.083425E+06 -3.793842E-10  3.675951E-10
       190  11 -2.904888E+06 -6.319634E+05 -2.585835E+05 -1.037108E+06  3.877019E-11  2.646067E-10
       190  12 -2.797295E+06 -6.122300E+05 -2.161387E+05 -1.029225E+06  5.522904E-10  1.979096E-11
       190  13 -2.039904E+06 -3.565003E+05 -8.248424E+04 -8.160623E+05 -4.732443E-11  6.949704E-11
       190  14 -2.051429E+06 -3.099643E+05 -4.116397E+04 -8.015795E+05  1.352615E-11  2.570767E-10
       190  15 -2.036233E+06 -3.311837E+05 -2.312412E+04 -8.255349E+05 -9.033134E-10 -2.172805E-10
       190  16 -1.092911E+06  6.796803E+03  1.602765E+05 -5.483233E+05  4.701245E-10  1.566534E-10
       190  17 -1.197253E+06  1.208528E+04  1.761968E+05 -5.657554E+05  7.736953E-11  3.798496E-10
       190  18 -1.274604E+06 -5.010435E+04  1.698439E+05 -6.216195E+05 -1.016918E-09 -3.108772E-10
       190  19 -2.986008E+06 -7.197247E+05 -3.253070E+05 -1.083426E+06  7.252834E+04 -1.958078E+04
       190  20 -2.904886E+06 -6.319621E+05 -2.585777E+05 -1.037109E+06  4.907113E+04 -2.497337E+04
       190  21 -2.797294E+06 -6.122289E+05 -2.161360E+05 -1.029226E+06  2.490923E+04 -2.848313E+04
       190  22 -2.039898E+06 -3.564985E+05 -8.247326E+04 -8.160634E+05  7.397589E+04 -1.902999E+04
       190  23 -2.051426E+06 -3.099630E+05 -4.115785E+04 -8.015805E+05  5.175075E+04 -2.396225E+04
       190  24 -2.036232E+06 -3.311827E+05 -2.312119E+04 -8.255355E+05  2.882510E+04 -2.701106E+04
       190  25 -1.092905E+06  6.798697E+03  1.602879E+05 -5.483244E+05  7.542580E+04 -1.847826E+04
       190  26 -1.197250E+06  1.208664E+04  1.762034E+05 -5.657564E+05  5.443438E+04 -2.294961E+04
       190  27 -1.274603E+06 -5.010336E+04  1.698471E+05 -6.216202E+05  3.274624E+04 -2.553708E+04
       191   1 -2.691451E+06 -5.806983E+05 -1.844918E+05 -1.003799E+06 -2.093051E+04  2.628168E+04
       191   2 -2.609979E+06 -5.194775E+05 -1.506744E+05 -9.525701E+05 -1.411503E+04  2.296444E+04
       191   3 -2.488478E+06 -5.019173E+05 -1.210769E+05 -9.482680E+05 -7.244292E+03  1.948585E+04
       191   4 -2.034467E+06 -3.345325E+05 -1.779258E+04 -8.241372E+05 -2.434372E+04  2.499960E+04
       191   5 -2.054321E+06 -3.116575E+05 -9.513190E+03 -8.010608E+05 -1.763129E+04  2.164561E+04
       191   6 -2.034134E+06 -3.324194E+05 -5.367689E+03 -8.249125E+05 -1.086448E+04  1.813003E+04
       191   7 -1.377063E+06 -8.833940E+04  1.488712E+05 -6.443034E+05 -2.776087E+04  2.371604E+04
       191   8 -1.498359E+06 -1.038178E+05  1.316231E+05 -6.494282E+05 -2.115099E+04  2.032548E+04
       191   9 -1.579586E+06 -1.629080E+05  1.103253E+05 -7.014747E+05 -1.448760E+04  1.677313E+04
       191  10 -2.691452E+06 -5.806992E+05 -1.844939E+05 -1.003798E+06 -1.716648E-10 -7.903006E-10
       191  11 -2.609979E+06 -5.194781E+05 -1.506758E+05 -9.525699E+05  6.010384E-10 -1.646024E-10
       191  12 -2.488478E+06 -5.019177E+05 -1.210777E+05 -9.482678E+05  6.298688E-10  6.835086E-12
       191  13 -2.034468E+06 -3.345333E+05 -1.779487E+04 -8.241367E+05 -3.952136E-10 -2.238526E-10
       191  14 -2.054321E+06 -3.116581E+05 -9.514653E+03 -8.010605E+05  1.192038E-10 -3.217849E-11
       191  15 -2.034134E+06 -3.324198E+05 -5.368528E+03 -8.249124E+05  1.383346E-09  4.038222E-10
       191  16 -1.377064E+06 -8.834021E+04  1.488686E+05 -6.443028E+05 -3.906593E-10 -4.043569E-10
       191  17 -1.498360E+06 -1.038183E+05  1.316215E+05 -6.494279E+05  1.268418E-09 -8.429164E-10
       191  18 -1.579587E+06 -1.629083E+05  1.103243E+05 -7.014745E+05 -1.128575E-10 -9.329820E-10
       191  19 -2.691451E+06 -5.806983E+05 -1.844918E+05 -1.003799E+06  2.093051E+04 -2.628168E+04
       191  20 -2.609979E+06 -5.194775E+05 -1.506744E+05 -9.525701E+05  1.411503E+04 -2.296444E+04
       191  21 -2.488478E+06 -5.019173E+05 -1.210769E+05 -9.482680E+05  7.244292E+03 -1.948585E+04
       191  22 -2.034467E+06 -3.345325E+05 -1.779258E+04 -8.241372E+05  2.434372E+04 -2.499960E+04
       191  23 -2.054321E+06 -3.116575E+05 -9.513190E+03 -8.010608E+05  1.763129E+04 -2.164561E+04
       191  24 -2.034134E+06 -3.324194E+05 -5.367689E+03 -8.249125E+05  1.086448E+04 -1.813003E+04
       191  25 -1.377063E+06 -8.833940E+04  1.488712E+05 -6.443034E+05  2.776087E+04 -2.371604E+04
       191  26 -1.498359E+06 -1.038178E+05  1.316231E+05 -6.494282E+05  2.115099E+04 -2.032548E+04
       191  27 -1.579586E+06 -1.629080E+05  1.103253E+05 -7.014747E+05  1.448760E+04 -1.677313E+04
       192   1 -2.383237E+06 -4.633678E+05 -9.253395E+04 -9.201997E+05 -5.292245E+03  1.663755E+04
       192   2 -2.300019E+06 -4.031054E+05 -6.481469E+04 -8.674994E+05 -1.977688E+03  1.172239E+04
       192   3 -2.174710E+06 -3.853528E+05 -3.810804E+04 -8.633992E+05  1.347053E+03  6.772939E+03
       192   4 -2.033755E+06 -3.328656E+05 -4.161464E+03 -8.250134E+05 -8.909938E+03  1.528359E+04
       192   5 -2.054775E+06 -3.115120E+05 -2.547791E+03 -8.007465E+05 -5.617706E+03  1.036092E+04
       192   6 -2.033711E+06 -3.326630E+05 -1.927882E+03 -8.250824E+05 -2.315552E+03  5.403917E+03
       192   7 -1.684153E+06 -2.023555E+05  8.420128E+04 -7.297784E+05 -1.252986E+04  1.392879E+04
       192   8 -1.809472E+06 -2.199151E+05  5.971417E+04 -7.339699E+05 -9.259295E+03  8.998853E+03
       192   9 -1.892694E+06 -2.799722E+05  3.425054E+04 -7.867578E+05 -5.979055E+03  4.034560E+03
       192  10 -2.383237E+06 -4.633681E+05 -9.253452E+04 -9.201996E+05  1.436842E-09 -3.635305E-11
       192  11 -2.300019E+06 -4.031055E+05 -6.481495E+04 -8.674994E+05 -3.031067E-10 -1.111552E-09
       192  12 -2.174710E+06 -3.853529E+05 -3.810813E+04 -8.633992E+05 -2.277810E-10 -5.253173E-10
       192  13 -2.033755E+06 -3.328658E+05 -4.162051E+03 -8.250133E+05  4.581798E-10 -1.216997E-10
       192  14 -2.054775E+06 -3.115122E+05 -2.548052E+03 -8.007465E+05  1.683802E-09  1.049892E-09
       192  15 -2.033711E+06 -3.326630E+05 -1.927947E+03 -8.250824E+05  3.142140E-10  1.597833E-09
       192  16 -1.684153E+06 -2.023558E+05  8.420062E+04 -7.297782E+05  3.351812E-10 -3.488823E-11
       192  17 -1.809472E+06 -2.199152E+05  5.971385E+04 -7.339698E+05 -1.587026E-09  5.423509E-10
       192  18 -1.892694E+06 -2.799722E+05  3.425044E+04 -7.867578E+05  7.442406E-10  2.388869E-10
       192  19 -2.383237E+06 -4.633678E+05 -9.253395E+04 -9.201997E+05  5.292245E+03 -1.663755E+04
       192  20 -2.300019E+06 -4.031054E+05 -6.481469E+04 -8.674994E+05  1.977688E+03 -1.172239E+04
       192  21 -2.174710E+06 -3.853528E+05 -3.810804E+04 -8.633992E+05 -1.347053E+03 -6.772939E+03
       192  22 -2.033755E+06 -3.328656E+05 -4.161464E+03 -8.250134E+05  8.909938E+03 -1.528359E+04
       192  23 -2.054775E+06 -3.115120E+05 -2.547791E+03 -8.007465E+05  5.617706E+03 -1.036092E+04
       192  24 -2.033711E+06 -3.326630E+05 -1.927882E+03 -8.250824E+05  2.315552E+03 -5.403917E+03
       192  25 -1.684153E+06 -2.023555E+05  8.420128E+04 -7.297784E+05  1.252986E+04 -1.392879E+04
       192  26 -1.809472E+06 -2.199151E+05  5.971417E+04 -7.339699E+05  9.259295E+03 -8.998853E+03
       192  27 -1.892694E+06 -2.799722E+05  3.425054E+04 -7.867578E+05  5.979055E+03 -4.034560E+03
       193   1 -2.068358E+06 -3.456343E+05 -1.031633E+04 -8.346379E+05  2.855059E+03  3.717034E+03
       193   2 -1.984663E+06 -2.852575E+05  1.548837E+04 -7.816015E+05  6.040709E+03 -1.304787E+03
       193   3 -1.858679E+06 -2.675826E+05  4.038568E+04 -7.774462E+05  9.222620E+03 -6.313889E+03
       193   4 -2.033665E+06 -3.327173E+05 -1.890866E+03 -8.251397E+05 -8.135224E+02  2.345983E+03
       193   5 -2.054814E+06 -3.114305E+05 -2.314961E+03 -8.006728E+05  2.380115E+03 -2.673137E+03
       193   6 -2.033688E+06 -3.328492E+05 -3.652841E+03 -8.250925E+05  5.569782E+03 -7.679563E+03
       193   7 -1.998971E+06 -3.198002E+05  6.534602E+03 -8.156410E+05 -4.482342E+03  9.748417E+02
       193   8 -2.124961E+06 -3.376032E+05 -2.011867E+04 -8.197423E+05 -1.280032E+03 -4.041320E+03
       193   9 -2.208668E+06 -3.981138E+05 -4.769375E+04 -8.727267E+05  1.918072E+03 -9.044816E+03
       193  10 -2.068358E+06 -3.456343E+05 -1.031637E+04 -8.346379E+05 -3.220582E-10 -2.977591E-10
       193  11 -1.984663E+06 -2.852575E+05  1.548829E+04 -7.816015E+05  4.178746E-10  1.318779E-09
       193  12 -1.858679E+06 -2.675827E+05  4.038545E+04 -7.774461E+05  3.616283E-10  5.168602E-10
       193  13 -2.033665E+06 -3.327174E+05 -1.890878E+03 -8.251397E+05 -7.115770E-10 -8.122980E-10
       193  14 -2.054814E+06 -3.114305E+05 -2.314985E+03 -8.006728E+05  6.869518E-10 -1.991334E-09
       193  15 -2.033688E+06 -3.328492E+05 -3.653010E+03 -8.250925E+05  1.629061E-09  2.213158E-09
       193  16 -1.998971E+06 -3.198002E+05  6.534563E+03 -8.156410E+05 -1.083822E-09 -1.264520E-09
       193  17 -2.124961E+06 -3.376032E+05 -2.011870E+04 -8.197423E+05  6.574723E-10  1.119472E-09
       193  18 -2.208668E+06 -3.981138E+05 -4.769391E+04 -8.727267E+05 -1.278689E-09 -1.292607E-09
       193  19 -2.068358E+06 -3.456343E+05 -1.031633E+04 -8.346379E+05 -2.855059E+03 -3.717034E+03
       193  20 -1.984663E+06 -2.852575E+05  1.548837E+04 -7.816015E+05 -6.040709E+03  1.304787E+03
       193  21 -1.858679E+06 -2.675826E+05  4.038568E+04 -7.774462E+05 -9.222620E+03  6.313889E+03
       193  22 -2.033665E+06 -3.327173E+05 -1.890866E+03 -8.251397E+05  8.135224E+02 -2.345983E+03
       193  23 -2.054814E+06 -3.114305E+05 -2.314961E+03 -8.006728E+05 -2.380115E+03  2.673137E+03
       193  24 -2.033688E+06 -3.328492E+05 -3.652841E+03 -8.250925E+05 -5.569782E+03  7.679563E+03
       193  25 -1.998971E+06 -3.198002E+05  6.534602E+03 -8.156410E+05  4.482342E+03 -9.748417E+02
       193  26 -2.124961E+06 -3.376032E+05 -2.011867E+04 -8.197423E+05  1.280032E+03  4.041320E+03
       193  27 -2.208668E+06 -3.981138E+05 -4.769375E+04 -8.727267E+05 -1.918072E+03  9.044816E+03
       194   1 -1.752909E+06 -2.278407E+05  6.698320E+04 -7.489287E+05  1.110228E+04 -9.224817E+03
       194   2 -1.670269E+06 -1.679054E+05  8.931019E+04 -6.961664E+05  1.716286E+04 -1.309357E+04
       194   3 -1.546854E+06 -1.519309E+05  1.081065E+05 -6.912181E+05  2.317999E+04 -1.683276E+04
       194   4 -2.033957E+06 -3.325358E+05 -4.680032E+03 -8.250846E+05  7.438175E+03 -1.059522E+04
       194   5 -2.054471E+06 -3.114439E+05 -8.216062E+03 -8.008444E+05  1.358238E+04 -1.443406E+04
       194   6 -2.034236E+06 -3.343327E+05 -1.535042E+04 -8.244243E+05  1.968241E+04 -1.814354E+04
       194   7 -2.314927E+06 -4.372256E+05 -7.634932E+04 -9.012090E+05  3.775908E+03 -1.196494E+04
       194   8 -2.438528E+06 -4.549729E+05 -1.057542E+05 -9.054636E+05  1.000434E+04 -1.577365E+04
       194   9 -2.521388E+06 -5.167199E+05 -1.388269E+05 -9.575361E+05  1.618782E+04 -1.945319E+04
       194  10 -1.752909E+06 -2.278408E+05  6.698280E+04 -7.489286E+05  4.182265E-10  9.567715E-10
       194  11 -1.670269E+06 -1.679057E+05  8.930931E+04 -6.961662E+05  5.707756E-11  2.066274E-10
       194  12 -1.546855E+06 -1.519313E+05  1.081049E+05 -6.912178E+05 -5.290700E-10  5.234168E-10
       194  13 -2.033957E+06 -3.325359E+05 -4.680346E+03 -8.250845E+05 -3.011634E-10 -6.932948E-10
       194  14 -2.054471E+06 -3.114441E+05 -8.216800E+03 -8.008443E+05 -1.817963E-09 -4.707745E-10
       194  15 -2.034237E+06 -3.343332E+05 -1.535177E+04 -8.244240E+05 -1.075738E-09  3.543796E-10
       194  16 -2.314927E+06 -4.372258E+05 -7.634962E+04 -9.012089E+05 -1.084061E-09 -7.993191E-11
       194  17 -2.438529E+06 -4.549732E+05 -1.057548E+05 -9.054635E+05 -3.555141E-10  9.905935E-10
       194  18 -2.521389E+06 -5.167204E+05 -1.388281E+05 -9.575358E+05  4.452722E-10  3.341289E-10
       194  19 -1.752909E+06 -2.278407E+05  6.698320E+04 -7.489287E+05 -1.110228E+04  9.224817E+03
       194  20 -1.670269E+06 -1.679054E+05  8.931019E+04 -6.961664E+05 -1.716286E+04  1.309357E+04
       194  21 -1.546854E+06 -1.519309E+05  1.081065E+05 -6.912181E+05 -2.317999E+04  1.683276E+04
       194  22 -2.033957E+06 -3.325358E+05 -4.680032E+03 -8.250846E+05 -7.438175E+03  1.059522E+04
       194  23 -2.054471E+06 -3.114439E+05 -8.216062E+03 -8.008444E+05 -1.358238E+04  1.443406E+04
       194  24 -2.034236E+06 -3.343327E+05 -1.535042E+04 -8.244243E+05 -1.968241E+04  1.814354E+04
       194  25 -2.314927E+06 -4.372256E+05 -7.634932E+04 -9.012090E+05 -3.775908E+03  1.196494E+04
       194  26 -2.438528E+06 -4.549729E+05 -1.057542E+05 -9.054636E+05 -1.000434E+04  1.577365E+04
       194  27 -2.521388E+06 -5.167199E+05 -1.388269E+05 -9.575361E+05 -1.618782E+04  1.945319E+04
       195   1 -1.442303E+06 -1.129856E+05  1.304113E+05 -6.673597E+05  2.767779E+04 -1.888587E+04
       195   2 -1.362603E+06 -5.014768E+04  1.399584E+05 -6.110826E+05  4.665683E+04 -1.750910E+04
       195   3 -1.253247E+06 -5.202852E+04  1.302893E+05 -5.955310E+05  6.502557E+04 -1.447958E+04
       195   4 -2.035725E+06 -3.314874E+05 -1.994188E+04 -8.256749E+05  2.372998E+04 -2.036635E+04
       195   5 -2.052008E+06 -3.099192E+05 -3.546477E+04 -8.012334E+05  4.379950E+04 -1.858351E+04
       195   6 -2.038873E+06 -3.533095E+05 -7.108696E+04 -8.175241E+05  6.325545E+04 -1.514844E+04
       195   7 -2.628802E+06 -5.499695E+05 -1.703233E+05 -9.838540E+05  1.978630E+04 -2.184534E+04
       195   8 -2.740946E+06 -5.696578E+05 -2.109261E+05 -9.911914E+05  4.094564E+04 -1.965660E+04
       195   9 -2.823891E+06 -6.545415E+05 -2.725131E+05 -1.039258E+06  6.148777E+04 -1.581635E+04
       195  10 -1.442304E+06 -1.129862E+05  1.304092E+05 -6.673592E+05 -2.281197E-10  3.383500E-10
       195  11 -1.362605E+06 -5.014860E+04  1.399537E+05 -6.110819E+05  4.175581E-10  8.618842E-11
       195  12 -1.253252E+06 -5.202988E+04  1.302810E+05 -5.955302E+05  3.742770E-10 -2.715648E-10
       195  13 -2.035726E+06 -3.314880E+05 -1.994372E+04 -8.256745E+05  8.763958E-10  6.320624E-10
       195  14 -2.052010E+06 -3.099201E+05 -3.546903E+04 -8.012327E+05 -3.638512E-10 -3.517598E-11
       195  15 -2.038877E+06 -3.533108E+05 -7.109493E+04 -8.175233E+05 -5.741820E-11 -4.911503E-10
       195  16 -2.628803E+06 -5.499701E+05 -1.703249E+05 -9.838537E+05  1.219323E-10  1.266401E-11
       195  17 -2.740948E+06 -5.696586E+05 -2.109299E+05 -9.911908E+05 -1.728131E-09 -4.479845E-10
       195  18 -2.823895E+06 -6.545428E+05 -2.725207E+05 -1.039257E+06  2.018151E-10 -9.597526E-10
       195  19 -1.442303E+06 -1.129856E+05  1.304113E+05 -6.673597E+05 -2.767779E+04  1.888587E+04
       195  20 -1.362603E+06 -5.014768E+04  1.399584E+05 -6.110826E+05 -4.665683E+04  1.750910E+04
       195  21 -1.253247E+06 -5.202852E+04  1.302893E+05 -5.955310E+05 -6.502557E+04  1.447958E+04
       195  22 -2.035725E+06 -3.314874E+05 -1.994188E+04 -8.256749E+05 -2.372998E+04  2.036635E+04
       195  23 -2.052008E+06 -3.099192E+05 -3.546477E+04 -8.012334E+05 -4.379950E+04  1.858351E+04
       195  24 -2.038873E+06 -3.533095E+05 -7.108696E+04 -8.175241E+05 -6.325545E+04  1.514844E+04
       195  25 -2.628802E+06 -5.499695E+05 -1.703233E+05 -9.838540E+05 -1.978630E+04  2.184534E+04
       195  26 -2.740946E+06 -5.696578E+05 -2.109261E+05 -9.911914E+05 -4.094564E+04  1.965660E+04
       195  27 -2.823891E+06 -6.545415E+05 -2.725131E+05 -1.039258E+06 -6.148777E+04  1.581635E+04
       196   1 -1.133035E+06 -1.502140E+04  1.370617E+05 -6.240674E+05  8.842572E+04 -1.320869E+04
       196   2 -1.068669E+06  1.036922E+05  9.931783E+04 -5.062382E+05  1.510463E+05  8.942041E+03
       196   3 -1.083483E+06 -1.056836E+05 -6.422782E+04 -3.553420E+05  2.025527E+05  6.065172E+04
       196   4 -2.050857E+06 -3.205124E+05 -8.846772E+04 -8.357898E+05  7.759099E+04 -1.727731E+04
       196   5 -2.028352E+06 -2.882569E+05 -1.512819E+05 -8.020113E+05  1.599842E+05  1.228943E+04
       196   6 -2.089153E+06 -5.883359E+05 -3.557599E+05 -7.351344E+05  2.312463E+05  7.141714E+04
       196   7 -2.967860E+06 -6.259915E+05 -3.140608E+05 -1.047248E+06  6.677371E+04 -2.134106E+04
       196   8 -2.987127E+06 -6.800973E+05 -4.019589E+05 -1.097351E+06  1.689068E+05  1.562989E+04
       196   9 -3.093803E+06 -1.070726E+06 -6.473832E+05 -1.114304E+06  2.598883E+05  8.215112E+04
       196  10 -1.133043E+06 -1.502369E+04  1.370466E+05 -6.240665E+05 -5.502502E-10 -6.651882E-10
       196  11 -1.068693E+06  1.036860E+05  9.927473E+04 -5.062393E+05 -2.053943E-09 -2.740699E-10
       196  12 -1.083528E+06 -1.056986E+05 -6.431200E+04 -3.553519E+05 -2.341539E-11 -6.041736E-10
       196  13 -2.050863E+06 -3.205143E+05 -8.847962E+04 -8.357887E+05  5.390131E-10 -5.984554E-10
       196  14 -2.028379E+06 -2.882640E+05 -1.513305E+05 -8.020128E+05 -1.794514E-09  2.281346E-09
       196  15 -2.089212E+06 -5.883558E+05 -3.558704E+05 -7.351477E+05 -7.165469E-10  7.737215E-10
       196  16 -2.967864E+06 -6.259932E+05 -3.140701E+05 -1.047247E+06  1.192509E-09 -2.786463E-10
       196  17 -2.987158E+06 -6.801052E+05 -4.020133E+05 -1.097353E+06 -1.684088E-10  4.793748E-10
       196  18 -3.093878E+06 -1.070751E+06 -6.475236E+05 -1.114321E+06 -1.083601E-10 -2.301521E-11
       196  19 -1.133035E+06 -1.502140E+04  1.370617E+05 -6.240674E+05 -8.842572E+04  1.320869E+04
       196  20 -1.068669E+06  1.036922E+05  9.931783E+04 -5.062382E+05 -1.510463E+05 -8.942041E+03
       196  21 -1.083483E+06 -1.056836E+05 -6.422782E+04 -3.553420E+05 -2.025527E+05 -6.065172E+04
       196  22 -2.050857E+06 -3.205124E+05 -8.846772E+04 -8.357898E+05 -7.759099E+04  1.727731E+04
       196  23 -2.028352E+06 -2.882569E+05 -1.512819E+05 -8.020113E+05 -1.599842E+05 -1.228943E+04
       196  24 -2.089153E+06 -5.883359E+05 -3.557599E+05 -7.351344E+05 -2.312463E+05 -7.141714E+04
       196  25 -2.967860E+06 -6.259915E+05 -3.140608E+05 -1.047248E+06 -6.677371E+04  2.134106E+04
       196  26 -2.987127E+06 -6.800973E+05 -4.019589E+05 -1.097351E+06 -1.689068E+05 -1.562989E+04
       196  27 -3.093803E+06 -1.070726E+06 -6.473832E+05 -1.114304E+06 -2.598883E+05 -8.215112E+04
       197   1  7.984378E+04  4.292148E+04  1.070331E+05  6.477606E+04  1.971428E+05  1.088293E+04
       197   2  1.151317E+05 -2.164770E+05 -4.199094E+04  1.136682E+04  1.361549E+05  3.268508E+04
       197   3  2.291839E+05 -1.946105E+05 -8.088374E+04 -8.044644E+04  7.518809E+04  3.235565E+04
       197   4  9.616503E+05  2.618307E+05  3.223224E+05 -4.172672E+04  2.211072E+05  1.088275E+04
       197   5  9.210132E+05 -1.826178E+04  1.440953E+05 -2.235191E+04  1.440778E+05  3.268360E+04
       197   6  9.617980E+05 -1.452500E+04  8.701978E+04 -4.137562E+04  6.707959E+04  3.235137E+04
       197   7  1.844191E+06  4.807259E+05  5.375634E+05 -1.483813E+05  2.451052E+05  1.087437E+04
       197   8  1.727497E+06  1.799123E+05  3.301391E+05 -5.611489E+04  1.520109E+05  3.268126E+04
       197   9  1.694912E+06  1.655289E+05  2.548891E+05 -2.258415E+03  5.896157E+04  3.234606E+04
       197  10  7.980203E+04  4.291092E+04  1.069599E+05  6.477433E+04 -2.575965E-10  3.340743E-10
       197  11  1.151115E+05 -2.164831E+05 -4.202777E+04  1.136324E+04 -1.622112E-10 -7.503026E-10
       197  12  2.291776E+05 -1.946132E+05 -8.089633E+04 -8.044840E+04 -7.847071E-10  4.189882E-10
       197  13  9.615978E+05  2.618175E+05  3.222305E+05 -4.172865E+04 -5.220369E-10  6.385665E-11
       197  14  9.209907E+05 -1.826849E+04  1.440543E+05 -2.235570E+04  1.193138E-12 -1.591174E-09
       197  15  9.617929E+05 -1.452733E+04  8.700937E+04 -4.137737E+04  2.347733E-09  4.548290E-10
       197  16  1.844127E+06  4.807097E+05  5.374506E+05 -1.483834E+05  6.270639E-10 -1.011781E-10
       197  17  1.727472E+06  1.799050E+05  3.300938E+05 -5.611889E+04  1.194159E-09 -1.581278E-10
       197  18  1.694908E+06  1.655268E+05  2.548806E+05 -2.259950E+03  6.822810E-10 -6.770051E-11
       197  19  7.984378E+04  4.292148E+04  1.070331E+05  6.477606E+04 -1.971428E+05 -1.088293E+04
       197  20  1.151317E+05 -2.164770E+05 -4.199094E+04  1.136682E+04 -1.361549E+05 -3.268508E+04
       197  21  2.291839E+05 -1.946105E+05 -8.088374E+04 -8.044644E+04 -7.518809E+04 -3.235565E+04
       197  22  9.616503E+05  2.618307E+05  3.223224E+05 -4.172672E+04 -2.211072E+05 -1.088275E+04
       197  23  9.210132E+05 -1.826178E+04  1.440953E+05 -2.235191E+04 -1.440778E+05 -3.268360E+04
       197  24  9.617980E+05 -1.452500E+04  8.701978E+04 -4.137562E+04 -6.707959E+04 -3.235137E+04
       197  25  1.844191E+06  4.807259E+05  5.375634E+05 -1.483813E+05 -2.451052E+05 -1.087437E+04
       197  26  1.727497E+06  1.799123E+05  3.301391E+05 -5.611489E+04 -1.520109E+05 -3.268126E+04
       197  27  1.694912E+06  1.655289E+05  2.548891E+05 -2.258415E+03 -5.896157E+04 -3.234606E+04
       198   1  2.833398E+05 -1.433800E+05 -8.243400E+04 -3.507460E+04  5.546958E+04  2.763146E+04
       198   2  3.520662E+05 -1.465927E+05 -9.839985E+04 -2.089733E+04  3.753474E+04  2.528443E+04
       198   3  4.287645E+05 -1.282165E+05 -9.724225E+04 -4.476939E+04  1.959599E+04  2.186742E+04
       198   4  9.455016E+05  1.945374E+04  7.005454E+04 -4.139881E+04  5.421106E+04  2.762807E+04
       198   5  9.414734E+05 -1.713518E+03  3.700120E+04 -2.237077E+04  3.548719E+04  2.528190E+04
       198   6  9.455405E+05 -1.167072E+03  2.160537E+04 -4.138931E+04  1.676149E+04  2.186595E+04
       198   7  1.608069E+06  1.822570E+05  2.225140E+05 -4.772986E+04  5.295119E+04  2.762470E+04
       198   8  1.531202E+06  1.431415E+05  1.723793E+05 -2.384565E+04  3.343770E+04  2.527938E+04
       198   9  1.462563E+06  1.258638E+05  1.404354E+05 -3.800639E+04  1.392465E+04  2.186445E+04
       198  10  2.833363E+05 -1.433816E+05 -8.244122E+04 -3.507584E+04 -1.012058E-09 -1.513029E-12
       198  11  3.520646E+05 -1.465938E+05 -9.840370E+04 -2.089809E+04 -9.781187E-11 -1.999937E-10
       198  12  4.287640E+05 -1.282171E+05 -9.724387E+04 -4.476973E+04  3.633041E-10 -8.059517E-10
       198  13  9.454983E+05  1.945214E+04  7.004759E+04 -4.140002E+04  1.060477E-09  1.675044E-10
       198  14  9.414719E+05 -1.714542E+03  3.699763E+04 -2.237149E+04  6.820510E-10 -3.313767E-10
       198  15  9.455401E+05 -1.167661E+03  2.160394E+04 -4.138960E+04 -8.689240E-10 -8.592092E-10
       198  16  1.608065E+06  1.822554E+05  2.225074E+05 -4.773104E+04  4.776729E-10  5.157094E-10
       198  17  1.531200E+06  1.431405E+05  1.723760E+05 -2.384633E+04 -1.761483E-10 -7.042280E-10
       198  18  1.462563E+06  1.258632E+05  1.404341E+05 -3.800663E+04 -9.781501E-10 -8.448522E-10
       198  19  2.833398E+05 -1.433800E+05 -8.243400E+04 -3.507460E+04 -5.546958E+04 -2.763146E+04
       198  20  3.520662E+05 -1.465927E+05 -9.839985E+04 -2.089733E+04 -3.753474E+04 -2.528443E+04
       198  21  4.287645E+05 -1.282165E+05 -9.724225E+04 -4.476939E+04 -1.959599E+04 -2.186742E+04
       198  22  9.455016E+05  1.945374E+04  7.005454E+04 -4.139881E+04 -5.421106E+04 -2.762807E+04
       198  23  9.414734E+05 -1.713518E+03  3.700120E+04 -2.237077E+04 -3.548719E+04 -2.528190E+04
       198  24  9.455405E+05 -1.167072E+03  2.160537E+04 -4.138931E+04 -1.676149E+04 -2.186595E+04
       198  25  1.608069E+06  1.822570E+05  2.225140E+05 -4.772986E+04 -5.295119E+04 -2.762470E+04
       198  26  1.531202E+06  1.431415E+05  1.723793E+05 -2.384565E+04 -3.343770E+04 -2.527938E+04
       198  27  1.462563E+06  1.258638E+05  1.404354E+05 -3.800639E+04 -1.392465E+04 -2.186445E+04
       199   1  4.962180E+05 -1.086772E+05 -8.594658E+04 -4.116768E+04  1.587483E+04  1.966759E+04
       199   2  5.672913E+05 -9.265506E+04 -7.700430E+04 -2.259639E+04  1.124320E+04  1.618875E+04
       199   3  6.394612E+05 -7.496209E+04 -6.461491E+04 -4.154547E+04  6.608929E+03  1.267067E+04
       199   4  9.440000E+05  1.336846E+03  1.669117E+04 -4.127457E+04  1.338890E+04  1.966662E+04
       199   5  9.434611E+05 -2.080041E+02  9.370862E+03 -2.251520E+04  8.725785E+03  1.618845E+04
       199   6  9.440173E+05 -7.744144E+01  5.517381E+03 -4.127479E+04  4.060539E+03  1.267106E+04
       199   7  1.391967E+06  1.113370E+05  1.193158E+05 -4.138152E+04  1.090120E+04  1.966565E+04
       199   8  1.319762E+06  9.222920E+04  9.573671E+04 -2.243396E+04  6.206851E+03  1.618815E+04
       199   9  1.248659E+06  7.480073E+04  7.564355E+04 -4.100396E+04  1.510910E+03  1.267146E+04
       199  10  4.962176E+05 -1.086777E+05 -8.594778E+04 -4.116793E+04 -1.223270E-09 -4.798752E-10
       199  11  5.672911E+05 -9.265538E+04 -7.700503E+04 -2.259654E+04  2.421392E-09  3.301924E-10
       199  12  6.394611E+05 -7.496227E+04 -6.461530E+04 -4.154553E+04  5.382907E-09  8.254270E-10
       199  13  9.439997E+05  1.336383E+03  1.669010E+04 -4.127478E+04  2.526282E-11 -4.757390E-10
       199  14  9.434610E+05 -2.083060E+02  9.370227E+03 -2.251532E+04  9.935341E-10  3.364193E-10
       199  15  9.440173E+05 -7.761835E+01  5.517048E+03 -4.127483E+04 -8.154245E-10  4.100548E-10
       199  16  1.391967E+06  1.113365E+05  1.193148E+05 -4.138170E+04  1.617227E-09 -5.680308E-10
       199  17  1.319762E+06  9.222891E+04  9.573615E+04 -2.243404E+04 -3.899450E-09  4.296314E-10
       199  18  1.248659E+06  7.480055E+04  7.564324E+04 -4.100398E+04 -5.142365E-09  3.660599E-10
       199  19  4.962180E+05 -1.086772E+05 -8.594658E+04 -4.116768E+04 -1.587483E+04 -1.966759E+04
       199  20  5.672913E+05 -9.265506E+04 -7.700430E+04 -2.259639E+04 -1.124320E+04 -1.618875E+04
       199  21  6.394612E+05 -7.496209E+04 -6.461491E+04 -4.154547E+04 -6.608929E+03 -1.267067E+04
       199  22  9.440000E+05  1.336846E+03  1.669117E+04 -4.127457E+04 -1.338890E+04 -1.966662E+04
       199  23  9.434611E+05 -2.080041E+02  9.370862E+03 -2.251520E+04 -8.725785E+03 -1.618845E+04
       199  24  9.440173E+05 -7.744144E+01  5.517381E+03 -4.127479E+04 -4.060539E+03 -1.267106E+04
       199  25  1.391967E+06  1.113370E+05  1.193158E+05 -4.138152E+04 -1.090120E+04 -1.966565E+04
       199  26  1.319762E+06  9.222920E+04  9.573671E+04 -2.243396E+04 -6.206851E+03 -1.618815E+04
       199  27  1.248659E+06  7.480073E+04  7.564355E+04 -4.100396E+04 -1.510910E+03 -1.267146E+04
       200   1  7.074583E+05 -5.795254E+04 -4.977223E+04 -4.122378E+04  5.702387E+03  1.061918E+04
       200   2  7.783857E+05 -4.064895E+04 -3.528109E+04 -2.260961E+04  4.372685E+03  7.116038E+03
       200   3  8.495098E+05 -2.318650E+04 -1.989044E+04 -4.119581E+04  3.041921E+03  3.616670E+03
       200   4  9.438257E+05  8.975382E+01  4.286926E+03 -4.120378E+04  3.176927E+03  1.061988E+04
       200   5  9.437333E+05 -1.872671E+01  2.679839E+03 -2.260393E+04  1.849363E+03  7.117026E+03
       200   6  9.438325E+05  3.152263E+01  1.970697E+03 -4.120384E+04  5.208872E+02  3.617964E+03
       200   7  1.180245E+06  5.812817E+04  5.834244E+04 -4.118378E+04  6.505143E+02  1.062058E+04
       200   8  1.109106E+06  4.060960E+04  4.063899E+04 -2.259825E+04 -6.746247E+02  7.118014E+03
       200   9  1.038163E+06  2.324892E+04  2.383127E+04 -4.121187E+04 -2.000526E+03  3.619257E+03
       200  10  7.074583E+05 -5.795267E+04 -4.977250E+04 -4.122383E+04 -6.483891E-09  6.118713E-10
       200  11  7.783857E+05 -4.064901E+04 -3.528122E+04 -2.260964E+04 -2.870948E-09  5.736845E-10
       200  12  8.495098E+05 -2.318651E+04 -1.989049E+04 -4.119582E+04  1.490607E-09 -8.030808E-11
       200  13  9.438256E+05  8.962995E+01  4.286695E+03 -4.120381E+04  7.181731E-10  7.855849E-10
       200  14  9.437333E+05 -1.878204E+01  2.679737E+03 -2.260394E+04  2.735495E-10 -5.723490E-12
       200  15  9.438325E+05  3.150849E+01  1.970672E+03 -4.120384E+04 -3.978690E-10 -6.847257E-10
       200  16  1.180245E+06  5.812805E+04  5.834223E+04 -4.118378E+04  7.172376E-09 -2.173188E-10
       200  17  1.109106E+06  4.060954E+04  4.063890E+04 -2.259824E+04  3.034010E-09  3.949748E-10
       200  18  1.038163E+06  2.324891E+04  2.383123E+04 -4.121186E+04 -1.143371E-09 -9.653960E-10
       200  19  7.074583E+05 -5.795254E+04 -4.977223E+04 -4.122378E+04 -5.702387E+03 -1.061918E+04
       200  20  7.783857E+05 -4.064895E+04 -3.528109E+04 -2.260961E+04 -4.372685E+03 -7.116038E+03
       200  21  8.495098E+05 -2.318650E+04 -1.989044E+04 -4.119581E+04 -3.041921E+03 -3.616670E+03
       200  22  9.438257E+05  8.975382E+01  4.286926E+03 -4.120378E+04 -3.176927E+03 -1.061988E+04
       200  23  9.437333E+05 -1.872671E+01  2.679839E+03 -2.260393E+04 -1.849363E+03 -7.117026E+03
       200  24  9.438325E+05  3.152263E+01  1.970697E+03 -4.120384E+04 -5.208872E+02 -3.617964E+03
       200  25  1.180245E+06  5.812817E+04  5.834244E+04 -4.118378E+04 -6.505143E+02 -1.062058E+04
       200  26  1.109106E+06  4.060960E+04  4.063899E+04 -2.259825E+04  6.746247E+02 -7.118014E+03
       200  27  1.038163E+06  2.324892E+04  2.383127E+04 -4.121187E+04  2.000526E+03 -3.619257E+03
       201   1  9.173418E+05 -6.430195E+03 -4.019072E+03 -4.117925E+04  2.692877E+03  1.581902E+03
       201   2  9.881793E+05  1.091221E+04  1.223675E+04 -2.261599E+04  1.681507E+03 -1.912758E+03
       201   3  1.059141E+06  2.837239E+04  2.916943E+04 -4.118158E+04  6.702830E+02 -5.406939E+03
       201   4  9.438186E+05  3.371030E+01  1.851051E+03 -4.118811E+04  1.732624E+02  1.583265E+03
       201   5  9.437576E+05 -1.987979E+00  2.039508E+03 -2.262359E+04 -8.378350E+02 -1.911485E+03
       201   6  9.438167E+05  8.065769E+01  2.905183E+03 -4.118808E+04 -1.848673E+03 -5.405736E+03
       201   7  9.702962E+05  6.497572E+03  7.721154E+03 -4.119698E+04 -2.346458E+03  1.584627E+03
       201   8  8.993378E+05 -1.091632E+04 -8.157837E+03 -2.263119E+04 -3.356998E+03 -1.910212E+03
       201   9  8.285051E+05 -2.821199E+04 -2.335990E+04 -4.119457E+04 -4.367165E+03 -5.404533E+03
       201  10  9.173418E+05 -6.430200E+03 -4.019090E+03 -4.117925E+04  4.606802E-10 -4.515519E-10
       201  11  9.881793E+05  1.091220E+04  1.223673E+04 -2.261599E+04  3.521611E-10 -2.550344E-10
       201  12  1.059141E+06  2.837236E+04  2.916937E+04 -4.118158E+04 -9.359976E-12 -8.644659E-12
       201  13  9.438186E+05  3.370760E+01  1.851046E+03 -4.118811E+04 -8.038988E-10 -4.043298E-12
       201  14  9.437576E+05 -1.992093E+00  2.039500E+03 -2.262359E+04  3.187455E-10  4.357673E-10
       201  15  9.438167E+05  8.062538E+01  2.905122E+03 -4.118809E+04 -1.840159E-09 -5.984957E-10
       201  16  9.702962E+05  6.497568E+03  7.721139E+03 -4.119698E+04 -5.571773E-10 -6.571058E-10
       201  17  8.993378E+05 -1.091632E+04 -8.157865E+03 -2.263119E+04 -2.013595E-09  3.479605E-10
       201  18  8.285051E+05 -2.821203E+04 -2.335999E+04 -4.119459E+04 -4.485292E-10 -6.450731E-11
       201  19  9.173418E+05 -6.430195E+03 -4.019072E+03 -4.117925E+04 -2.692877E+03 -1.581902E+03
       201  20  9.881793E+05  1.091221E+04  1.223675E+04 -2.261599E+04 -1.681507E+03  1.912758E+03
       201  21  1.059141E+06  2.837239E+04  2.916943E+04 -4.118158E+04 -6.702830E+02  5.406939E+03
       201  22  9.438186E+05  3.371030E+01  1.851051E+03 -4.118811E+04 -1.732624E+02 -1.583265E+03
       201  23  9.437576E+05 -1.987979E+00  2.039508E+03 -2.262359E+04  8.378350E+02  1.911485E+03
       201  24  9.438167E+05  8.065769E+01  2.905183E+03 -4.118808E+04  1.848673E+03  5.405736E+03
       201  25  9.702962E+05  6.497572E+03  7.721154E+03 -4.119698E+04  2.346458E+03 -1.584627E+03
       201  26  8.993378E+05 -1.091632E+04 -8.157837E+03 -2.263119E+04  3.356998E+03  1.910212E+03
       201  27  8.285051E+05 -2.821199E+04 -2.335990E+04 -4.119457E+04  4.367165E+03  5.404533E+03
       202   1  1.127213E+06  4.504262E+04  4.590773E+04 -4.107873E+04  9.821753E+01 -7.449212E+03
       202   2  1.198119E+06  6.241217E+04  6.442288E+04 -2.256754E+04 -2.917543E+03 -1.094898E+04
       202   3  1.269700E+06  8.085724E+04  8.516819E+04 -4.135489E+04 -5.932285E+03 -1.441188E+04
       202   4  9.439328E+05 -2.554863E+01  3.632920E+03 -4.122606E+04 -2.438832E+03 -7.448174E+03
       202   5  9.435945E+05 -1.157104E+02  6.001424E+03 -2.257616E+04 -5.427055E+03 -1.094842E+04
       202   6  9.439212E+05  8.653020E+02  1.058175E+04 -4.122573E+04 -8.413919E+03 -1.441178E+04
       202   7  7.606840E+05 -4.509606E+04 -3.864410E+04 -4.137334E+04 -4.975140E+03 -7.447135E+03
       202   8  6.891299E+05 -6.264810E+04 -5.242427E+04 -2.258477E+04 -7.935547E+03 -1.094786E+04
       202   9  6.182401E+05 -7.913401E+04 -6.401164E+04 -4.109662E+04 -1.089426E+04 -1.441167E+04
       202  10  1.127213E+06  4.504256E+04  4.590763E+04 -4.107873E+04 -1.531423E-10  6.397664E-10
       202  11  1.198119E+06  6.241204E+04  6.442263E+04 -2.256757E+04  5.037947E-10  2.224709E-10
       202  12  1.269700E+06  8.085701E+04  8.516773E+04 -4.135496E+04 -1.234933E-09  1.862783E-10
       202  13  9.439328E+05 -2.560982E+01  3.632805E+03 -4.122607E+04 -1.258731E-09 -3.328726E-10
       202  14  9.435944E+05 -1.158471E+02  6.001143E+03 -2.257621E+04 -4.812196E-10 -4.399891E-10
       202  15  9.439211E+05  8.650599E+02  1.058122E+04 -4.122582E+04  5.684737E-10  2.101977E-10
       202  16  7.606840E+05 -4.509613E+04 -3.864425E+04 -4.137337E+04 -5.155241E-10  1.650256E-10
       202  17  6.891298E+05 -6.264825E+04 -5.242462E+04 -2.258484E+04 -1.635347E-09 -6.070686E-10
       202  18  6.182399E+05 -7.913426E+04 -6.401225E+04 -4.109675E+04  3.687940E-10 -5.997782E-11
       202  19  1.127213E+06  4.504262E+04  4.590773E+04 -4.107873E+04 -9.821753E+01  7.449212E+03
       202  20  1.198119E+06  6.241217E+04  6.442288E+04 -2.256754E+04  2.917543E+03  1.094898E+04
       202  21  1.269700E+06  8.085724E+04  8.516819E+04 -4.135489E+04  5.932285E+03  1.441188E+04
       202  22  9.439328E+05 -2.554863E+01  3.632920E+03 -4.122606E+04  2.438832E+03  7.448174E+03
       202  23  9.435945E+05 -1.157104E+02  6.001424E+03 -2.257616E+04  5.427055E+03  1.094842E+04
       202  24  9.439212E+05  8.653020E+02  1.058175E+04 -4.122573E+04  8.413919E+03  1.441178E+04
       202  25  7.606840E+05 -4.509606E+04 -3.864410E+04 -4.137334E+04  4.975140E+03  7.447135E+03
       202  26  6.891299E+05 -6.264810E+04 -5.242427E+04 -2.258477E+04  7.935547E+03  1.094786E+04
       202  27  6.182401E+05 -7.913401E+04 -6.401164E+04 -4.109662E+04  1.089426E+04  1.441167E+04
       203   1  1.339200E+06  9.617960E+04  1.043490E+05 -3.925681E+04 -7.768906E+03 -1.657608E+04
       203   2  1.408657E+06  1.134808E+05  1.304303E+05 -2.348560E+04 -2.027199E+04 -1.997535E+04
       203   3  1.483327E+06  1.446060E+05  1.681210E+05 -4.540742E+04 -3.277440E+04 -2.244909E+04
       203   4  9.448944E+05 -7.146735E+02  1.367126E+04 -4.131331E+04 -1.055050E+04 -1.657632E+04
       203   5  9.423327E+05 -1.072579E+03  2.336872E+04 -2.246683E+04 -2.237816E+04 -1.997652E+04
       203   6  9.448661E+05  1.228299E+04  4.421405E+04 -4.131478E+04 -3.420372E+04 -2.245098E+04
       203   7  5.507327E+05 -9.761977E+04 -7.701670E+04 -4.336849E+04 -1.333035E+04 -1.657654E+04
       203   8  4.762089E+05 -1.156411E+05 -8.370716E+04 -2.144882E+04 -2.448276E+04 -1.997769E+04
       203   9  4.066727E+05 -1.200602E+05 -7.971207E+04 -3.722572E+04 -3.563180E+04 -2.245289E+04
       203  10  1.339200E+06  9.617929E+04  1.043483E+05 -3.925691E+04 -6.449703E-10 -2.956395E-10
       203  11  1.408657E+06  1.134803E+05  1.304288E+05 -2.348592E+04 -1.876125E-09 -2.085289E-10
       203  12  1.483326E+06  1.446052E+05  1.681180E+05 -4.540801E+04 -1.177167E-09 -9.732847E-11
       203  13  9.448942E+05 -7.149985E+02  1.367054E+04 -4.131345E+04  3.367016E-11 -1.645062E-10
       203  14  9.423321E+05 -1.073142E+03  2.336703E+04 -2.246719E+04  1.409183E-10 -3.602288E-10
       203  15  9.448647E+05  1.228214E+04  4.421090E+04 -4.131540E+04 -1.526762E-09  9.232350E-11
       203  16  5.507325E+05 -9.762011E+04 -7.701755E+04 -4.336867E+04  5.535369E-10 -1.596552E-10
       203  17  4.762081E+05 -1.156417E+05 -8.370903E+04 -2.144922E+04 -5.595874E-11 -3.597903E-10
       203  18  4.066712E+05 -1.200610E+05 -7.971540E+04 -3.722637E+04 -1.095284E-09  7.423594E-10
       203  19  1.339200E+06  9.617960E+04  1.043490E+05 -3.925681E+04  7.768906E+03  1.657608E+04
       203  20  1.408657E+06  1.134808E+05  1.304303E+05 -2.348560E+04  2.027199E+04  1.997535E+04
       203  21  1.483327E+06  1.446060E+05  1.681210E+05 -4.540742E+04  3.277440E+04  2.244909E+04
       203  22  9.448944E+05 -7.146735E+02  1.367126E+04 -4.131331E+04  1.055050E+04  1.657632E+04
       203  23  9.423327E+05 -1.072579E+03  2.336872E+04 -2.246683E+04  2.237816E+04  1.997652E+04
       203  24  9.448661E+05  1.228299E+04  4.421405E+04 -4.131478E+04  3.420372E+04  2.245098E+04
       203  25  5.507327E+05 -9.761977E+04 -7.701670E+04 -4.336849E+04  1.333035E+04  1.657654E+04
       203  26  4.762089E+05 -1.156411E+05 -8.370716E+04 -2.144882E+04  2.448276E+04  1.997769E+04
       203  27  4.066727E+05 -1.200602E+05 -7.971207E+04 -3.722572E+04  3.563180E+04  2.245289E+04
       204   1  1.563396E+06  1.401996E+05  1.942142E+05 -1.672819E+04 -3.498545E+04 -2.677783E+04
       204   2  1.610084E+06  1.557872E+05  2.479732E+05 -4.385446E+04 -9.738223E+04 -2.747791E+04
       204   3  1.710520E+06  3.527811E+05  3.877006E+05 -1.088149E+05 -1.598042E+05 -9.094038E+03
       204   4  9.551540E+05 -9.158927E+03  5.491641E+04 -4.130723E+04 -4.232572E+04 -2.678096E+04
       204   5  9.293995E+05 -1.153306E+04  9.091225E+04 -2.246098E+04 -9.091258E+04 -2.747907E+04
       204   6  9.550512E+05  1.652056E+05  2.033595E+05 -4.144436E+04 -1.395160E+05 -9.093138E+03
       204   7  3.472557E+05 -1.585409E+05 -8.440511E+04 -6.586207E+04 -4.965885E+04 -2.678352E+04
       204   8  2.491433E+05 -1.788840E+05 -6.617908E+04 -1.091140E+03 -8.444991E+04 -2.747978E+04
       204   9  2.001126E+05 -2.239452E+04  1.898095E+04  2.584414E+04 -1.192523E+05 -9.087853E+03
       204  10  1.563394E+06  1.401985E+05  1.942105E+05 -1.672895E+04  3.522959E-10 -1.115578E-10
       204  11  1.610074E+06  1.557838E+05  2.479540E+05 -4.385662E+04  1.558412E-10 -2.567440E-10
       204  12  1.710492E+06  3.527742E+05  3.876526E+05 -1.088161E+05 -1.868210E-11  3.165621E-10
       204  13  9.551519E+05 -9.160178E+03  5.491170E+04 -4.130815E+04 -3.344976E-09 -5.656000E-10
       204  14  9.293904E+05 -1.153608E+04  9.089533E+04 -2.246299E+04 -1.265459E-09 -2.065120E-10
       204  15  9.550303E+05  1.652003E+05  2.033228E+05 -4.144538E+04 -6.300052E-10 -4.871161E-10
       204  16  3.472528E+05 -1.585423E+05 -8.441109E+04 -6.586314E+04 -2.615581E-09  5.798072E-10
       204  17  2.491354E+05 -1.788867E+05 -6.619390E+04 -1.093009E+03 -1.755381E-09 -5.140892E-10
       204  18  2.000973E+05 -2.239842E+04  1.895408E+04  2.584327E+04 -1.515575E-09  6.902828E-10
       204  19  1.563396E+06  1.401996E+05  1.942142E+05 -1.672819E+04  3.498545E+04  2.677783E+04
       204  20  1.610084E+06  1.557872E+05  2.479732E+05 -4.385446E+04  9.738223E+04  2.747791E+04
       204  21  1.710520E+06  3.527811E+05  3.877006E+05 -1.088149E+05  1.598042E+05  9.094038E+03
       204  22  9.551540E+05 -9.158927E+03  5.491641E+04 -4.130723E+04  4.232572E+04  2.678096E+04
       204  23  9.293995E+05 -1.153306E+04  9.091225E+04 -2.246098E+04  9.091258E+04  2.747907E+04
       204  24  9.550512E+05  1.652056E+05  2.033595E+05 -4.144436E+04  1.395160E+05  9.093138E+03
       204  25  3.472557E+05 -1.585409E+05 -8.440511E+04 -6.586207E+04  4.965885E+04  2.678352E+04
       204  26  2.491433E+05 -1.788840E+05 -6.617908E+04 -1.091140E+03  8.444991E+04  2.747978E+04
       204  27  2.001126E+05 -2.239452E+04  1.898095E+04  2.584414E+04  1.192523E+05  9.087853E+03
       205   1  5.339135E+05  1.641036E+06  5.227781E+05 -5.395746E+05  1.959029E+04  1.601019E+05
       205   2  3.436776E+05  1.140496E+06  3.159562E+05 -4.596246E+05  5.870354E+04  6.057272E+04
       205   3  2.117738E+05  6.673786E+05  1.883576E+05 -4.872456E+05  5.155844E+04 -3.895208E+04
       205   4  7.653181E+04 -2.065258E+05  8.311534E+04 -4.893716E+05  1.986974E+04  5.569578E+04
       205   5  1.818387E+04 -2.131961E+05  4.209830E+04 -4.356800E+05  5.878791E+04  3.410758E+04
       205   6  4.743812E+03 -2.061065E+05  2.631911E+04 -4.895531E+05  5.140980E+04  1.244313E+04
       205   7 -3.810813E+05 -2.050932E+06 -3.567444E+05 -4.393153E+05  2.013285E+04 -4.840195E+04
       205   8 -3.074212E+05 -1.565142E+06 -2.318516E+05 -4.117867E+05  5.887037E+04  7.698918E+03
       205   9 -2.023285E+05 -1.078847E+06 -1.357416E+05 -4.918564E+05  5.126065E+04  6.376794E+04
       205  10  5.339062E+05  1.641009E+06  5.227293E+05 -5.395771E+05  7.800393E-10  2.165669E-09
       205  11  3.436729E+05  1.140491E+06  3.159428E+05 -4.596275E+05  9.334303E-10 -6.118427E-11
       205  12  2.117706E+05  6.673763E+05  1.883498E+05 -4.872440E+05  1.073243E-09 -5.857369E-10
       205  13  7.653055E+04 -2.065293E+05  8.310876E+04 -4.893725E+05  1.446564E-09  9.899326E-10
       205  14  1.817985E+04 -2.131982E+05  4.208961E+04 -4.356816E+05  1.084462E-09 -2.179489E-09
       205  15  4.740932E+03 -2.061074E+05  2.631385E+04 -4.895536E+05  9.851896E-10  4.740375E-10
       205  16 -3.810823E+05 -2.050935E+06 -3.567496E+05 -4.393146E+05  2.556616E-10 -1.616922E-09
       205  17 -3.074250E+05 -1.565143E+06 -2.318582E+05 -4.117871E+05  2.253534E-09 -2.313419E-10
       205  18 -2.023324E+05 -1.078852E+06 -1.357542E+05 -4.918590E+05 -5.936518E-10  3.681497E-10
       205  19  5.339135E+05  1.641036E+06  5.227781E+05 -5.395746E+05 -1.959029E+04 -1.601019E+05
       205  20  3.436776E+05  1.140496E+06  3.159562E+05 -4.596246E+05 -5.870354E+04 -6.057272E+04
       205  21  2.117738E+05  6.673786E+05  1.883576E+05 -4.872456E+05 -5.155844E+04  3.895208E+04
       205  22  7.653181E+04 -2.065258E+05  8.311534E+04 -4.893716E+05 -1.986974E+04 -5.569578E+04
       205  23  1.818387E+04 -2.131961E+05  4.209830E+04 -4.356800E+05 -5.878791E+04 -3.410758E+04
       205  24  4.743812E+03 -2.061065E+05  2.631911E+04 -4.895531E+05 -5.140980E+04 -1.244313E+04
       205  25 -3.810813E+05 -2.050932E+06 -3.567444E+05 -4.393153E+05 -2.013285E+04  4.840195E+04
       205  26 -3.074212E+05 -1.565142E+06 -2.318516E+05 -4.117867E+05 -5.887037E+04 -7.698918E+03
       205  27 -2.023285E+05 -1.078847E+06 -1.357416E+05 -4.918564E+05 -5.126065E+04 -6.376794E+04
       206   1  1.371986E+05  3.450080E+05  1.253610E+05 -4.933170E+05  3.265774E+04 -3.788706E+04
       206   2  1.917723E+04 -1.425052E+05  3.120413E+04 -4.350532E+05  4.866875E+03 -4.818335E+04
       206   3 -9.328474E+04 -6.276427E+05 -5.503624E+04 -4.871742E+05 -2.320132E+04 -5.847413E+04
       206   4  5.906042E+03 -2.086176E+05  2.255592E+04 -4.901584E+05  3.251617E+04  8.626975E+03
       206   5  3.422658E+03 -2.096395E+05  1.957547E+04 -4.349661E+05  4.723110E+03 -1.216319E+03
       206   6  6.431375E+03 -2.085959E+05  2.419723E+04 -4.901570E+05 -2.334769E+04 -1.106168E+04
       206   7 -1.254030E+05 -7.619416E+05 -8.025400E+04 -4.870024E+05  3.237500E+04  5.510061E+04
       206   8 -1.233097E+04 -2.767646E+05  7.954949E+03 -4.348789E+05  4.579348E+03  4.574579E+04
       206   9  1.061385E+05  2.106255E+05  1.034314E+05 -4.931416E+05 -2.349445E+04  3.638201E+04
       206  10  1.371971E+05  3.450062E+05  1.253563E+05 -4.933160E+05  3.517714E-10  2.316981E-09
       206  11  1.917658E+04 -1.425077E+05  3.119972E+04 -4.350530E+05  1.139125E-09 -2.320616E-10
       206  12 -9.328624E+04 -6.276466E+05 -5.504369E+04 -4.871753E+05  1.038536E-09 -1.204784E-11
       206  13  5.904886E+03 -2.086179E+05  2.255379E+04 -4.901586E+05 -8.174010E-10  1.326332E-09
       206  14  3.422634E+03 -2.096395E+05  1.957542E+04 -4.349660E+05 -3.441019E-09 -2.500200E-09
       206  15  6.430756E+03 -2.085961E+05  2.419598E+04 -4.901572E+05  3.441967E-10  5.344883E-10
       206  16 -1.254049E+05 -7.619452E+05 -8.026169E+04 -4.870038E+05  4.269355E-10 -1.886708E-09
       206  17 -1.233156E+04 -2.767668E+05  7.950975E+03 -4.348791E+05 -8.471700E-11 -1.147919E-09
       206  18  1.061375E+05  2.106239E+05  1.034279E+05 -4.931409E+05  1.169918E-09 -2.339231E-10
       206  19  1.371986E+05  3.450080E+05  1.253610E+05 -4.933170E+05 -3.265774E+04  3.788706E+04
       206  20  1.917723E+04 -1.425052E+05  3.120413E+04 -4.350532E+05 -4.866875E+03  4.818335E+04
       206  21 -9.328474E+04 -6.276427E+05 -5.503624E+04 -4.871742E+05  2.320132E+04  5.847413E+04
       206  22  5.906042E+03 -2.086176E+05  2.255592E+04 -4.901584E+05 -3.251617E+04 -8.626975E+03
       206  23  3.422658E+03 -2.096395E+05  1.957547E+04 -4.349661E+05 -4.723110E+03  1.216319E+03
       206  24  6.431375E+03 -2.085959E+05  2.419723E+04 -4.901570E+05  2.334769E+04  1.106168E+04
       206  25 -1.254030E+05 -7.619416E+05 -8.025400E+04 -4.870024E+05 -3.237500E+04 -5.510061E+04
       206  26 -1.233097E+04 -2.767646E+05  7.954949E+03 -4.348789E+05 -4.579348E+03 -4.574579E+04
       206  27  1.061385E+05  2.106255E+05  1.034314E+05 -4.931416E+05  2.349445E+04 -3.638201E+04
       207   1 -1.702831E+05 -9.440321E+05 -1.094007E+05 -4.928033E+05 -4.223212E+04 -6.704881E+04
       207   2 -2.730640E+05 -1.431710E+06 -2.007250E+05 -4.090071E+05 -5.172318E+04 -1.905283E+04
       207   3 -3.373882E+05 -1.916122E+06 -3.138213E+05 -4.330239E+05 -1.802509E+04  2.898070E+04
       207   4  5.122512E+03 -2.056606E+05  2.888692E+04 -4.896030E+05 -4.238694E+04 -1.517293E+04
       207   5  2.058893E+04 -2.136460E+05  4.748071E+04 -4.356088E+05 -5.165700E+04 -3.963331E+04
       207   6  8.706355E+04 -2.060367E+05  9.464490E+04 -4.893921E+05 -1.778132E+04 -6.401856E+04
       207   7  1.804981E+05  5.332447E+05  1.671612E+05 -4.863982E+05 -4.254111E+04  3.676317E+04
       207   8  3.141517E+05  1.005833E+06  2.956104E+05 -4.622623E+05 -5.158913E+04 -6.025343E+04
       207   9  5.113194E+05  1.506761E+06  5.029392E+05 -5.459139E+05 -1.752106E+04 -1.572733E+05
       207  10 -1.702863E+05 -9.440374E+05 -1.094126E+05 -4.928056E+05  1.290948E-09  1.625107E-09
       207  11 -2.730670E+05 -1.431711E+06 -2.007307E+05 -4.090079E+05  2.605035E-09 -3.807317E-10
       207  12 -3.373887E+05 -1.916123E+06 -3.138235E+05 -4.330235E+05  2.271646E-10 -4.565074E-10
       207  13  5.120521E+03 -2.056613E+05  2.888311E+04 -4.896035E+05  1.242186E-09  1.319400E-09
       207  14  2.058564E+04 -2.136484E+05  4.747274E+04 -4.356104E+05 -7.070410E-10 -2.119306E-09
       207  15  8.706211E+04 -2.060411E+05  9.463659E+04 -4.893930E+05  6.701127E-10  2.719539E-10
       207  16  1.804958E+05  5.332427E+05  1.671553E+05 -4.863969E+05  9.179418E-12 -9.013555E-10
       207  17  3.141479E+05  1.005829E+06  2.955985E+05 -4.622648E+05  1.883442E-09 -4.458072E-10
       207  18  5.113124E+05  1.506734E+06  5.028922E+05 -5.459162E+05  6.665786E-10  3.086119E-10
       207  19 -1.702831E+05 -9.440321E+05 -1.094007E+05 -4.928033E+05  4.223212E+04  6.704881E+04
       207  20 -2.730640E+05 -1.431710E+06 -2.007250E+05 -4.090071E+05  5.172318E+04  1.905283E+04
       207  21 -3.373882E+05 -1.916122E+06 -3.138213E+05 -4.330239E+05  1.802509E+04 -2.898070E+04
       207  22  5.122512E+03 -2.056606E+05  2.888692E+04 -4.896030E+05  4.238694E+04  1.517293E+04
       207  23  2.058893E+04 -2.136460E+05  4.748071E+04 -4.356088E+05  5.165700E+04  3.963331E+04
       207  24  8.706355E+04 -2.060367E+05  9.464490E+04 -4.893921E+05  1.778132E+04  6.401856E+04
       207  25  1.804981E+05  5.332447E+05  1.671612E+05 -4.863982E+05  4.254111E+04 -3.676317E+04
       207  26  3.141517E+05  1.005833E+06  2.956104E+05 -4.622623E+05  5.158913E+04  6.025343E+04
       207  27  5.113194E+05  1.506761E+06  5.029392E+05 -5.459139E+05  1.752106E+04  1.572733E+05
       208   1 -2.334059E+06 -9.102580E+05 -4.901121E+05 -8.890289E+05 -1.864840E+05 -4.473666E+04
       208   2 -2.205526E+06 -7.470793E+05 -3.355180E+05 -8.395628E+05 -1.185424E+05  3.914365E+04
       208   3 -2.090379E+06 -6.718797E+05 -2.635419E+05 -8.019446E+05 -3.562209E+04  8.337051E+04
       208   4 -8.784914E+05 -3.118411E+05 -1.036285E+05 -4.379955E+05 -7.540855E+04 -2.939755E+03
       208   5 -8.722377E+05 -2.338797E+05 -4.787491E+04 -4.471406E+05 -6.957933E+04  5.754160E+04
       208   6 -8.669747E+05 -2.314796E+05 -2.532159E+04 -4.681567E+05 -4.881113E+04  7.839514E+04
       208   7  5.791424E+05  2.868222E+05  2.827127E+05  1.403520E+04  3.595013E+04  3.898698E+04
       208   8  4.628677E+05  2.795105E+05  2.396728E+05 -5.392389E+04 -2.050285E+04  7.598678E+04
       208   9  3.580013E+05  2.090497E+05  2.128371E+05 -1.337573E+05 -6.202829E+04  7.340954E+04
       208  10 -2.334097E+06 -9.102695E+05 -4.901815E+05 -8.890356E+05  1.141193E-08  3.046604E-09
       208  11 -2.205541E+06 -7.470847E+05 -3.355473E+05 -8.395591E+05 -1.561033E-08 -7.935205E-09
       208  12 -2.090382E+06 -6.718875E+05 -2.635574E+05 -8.019422E+05 -4.317514E-08 -1.775321E-08
       208  13 -8.784976E+05 -3.118427E+05 -1.036393E+05 -4.379957E+05  1.300553E-09  2.759769E-10
       208  14 -8.722437E+05 -2.338845E+05 -4.789023E+04 -4.471373E+05  9.734019E-10 -1.395565E-09
       208  15 -8.669789E+05 -2.314868E+05 -2.533761E+04 -4.681536E+05  4.005098E-10 -2.729328E-09
       208  16  5.791406E+05  2.868202E+05  2.827074E+05  1.403407E+04 -8.332177E-09 -3.656762E-09
       208  17  4.628657E+05  2.795042E+05  2.396612E+05 -5.392264E+04  1.898334E-08  5.753469E-09
       208  18  3.579957E+05  2.090428E+05  2.128197E+05 -1.337536E+05  4.012421E-08  1.356981E-08
       208  19 -2.334059E+06 -9.102580E+05 -4.901121E+05 -8.890289E+05  1.864840E+05  4.473666E+04
       208  20 -2.205526E+06 -7.470793E+05 -3.355180E+05 -8.395628E+05  1.185424E+05 -3.914365E+04
       208  21 -2.090379E+06 -6.718797E+05 -2.635419E+05 -8.019446E+05  3.562209E+04 -8.337051E+04
       208  22 -8.784914E+05 -3.118411E+05 -1.036285E+05 -4.379955E+05  7.540855E+04  2.939755E+03
       208  23 -8.722377E+05 -2.338797E+05 -4.787491E+04 -4.471406E+05  6.957933E+04 -5.754160E+04
       208  24 -8.669747E+05 -2.314796E+05 -2.532159E+04 -4.681567E+05  4.881113E+04 -7.839514E+04
       208  25  5.791424E+05  2.868222E+05  2.827127E+05  1.403520E+04 -3.595013E+04 -3.898698E+04
       208  26  4.628677E+05  2.795105E+05  2.396728E+05 -5.392389E+04  2.050285E+04 -7.598678E+04
       208  27  3.580013E+05  2.090497E+05  2.128371E+05 -1.337573E+05  6.202829E+04 -7.340954E+04
       209   1 -1.989642E+06 -6.454135E+05 -2.381280E+05 -7.810708E+05 -3.701403E+04  7.682670E+04
       209   2 -1.864580E+06 -5.788314E+05 -1.981881E+05 -7.296080E+05 -2.480761E+04  7.460691E+04
       209   3 -1.717897E+06 -5.398362E+05 -1.665596E+05 -7.051332E+05 -1.144145E+04  6.928495E+04
       209   4 -8.635178E+05 -2.334731E+05 -1.919630E+04 -4.666537E+05 -4.394889E+04  7.420534E+04
       209   5 -8.744930E+05 -2.183266E+05 -1.014465E+04 -4.538258E+05 -3.659762E+04  7.016722E+04
       209   6 -8.629010E+05 -2.297977E+05 -5.542181E+03 -4.679897E+05 -2.808999E+04  6.302880E+04
       209   7  2.639270E+05  1.785832E+05  1.996793E+05 -1.517054E+05 -5.089726E+04  7.157889E+04
       209   8  1.166142E+05  1.422665E+05  1.778576E+05 -1.776350E+05 -4.840774E+04  6.571997E+04
       209   9 -7.147221E+03  8.030427E+04  1.554448E+05 -2.305444E+05 -4.476296E+04  5.676353E+04
       209  10 -1.989645E+06 -6.454202E+05 -2.381417E+05 -7.810685E+05  3.924390E-08  1.455850E-08
       209  11 -1.864582E+06 -5.788375E+05 -1.981997E+05 -7.296065E+05  1.809022E-08  7.216333E-09
       209  12 -1.717899E+06 -5.398414E+05 -1.665689E+05 -7.051326E+05 -8.137896E-09 -2.018112E-09
       209  13 -8.635213E+05 -2.334795E+05 -1.921027E+04 -4.666510E+05 -2.001561E-09 -1.817004E-09
       209  14 -8.744958E+05 -2.183322E+05 -1.015642E+04 -4.538237E+05  1.494878E-09 -2.781054E-10
       209  15 -8.629029E+05 -2.298021E+05 -5.551124E+03 -4.679883E+05  1.075873E-09  9.945869E-10
       209  16  2.639228E+05  1.785770E+05  1.996648E+05 -1.517025E+05 -4.362667E-08 -1.798103E-08
       209  17  1.166105E+05  1.422613E+05  1.778451E+05 -1.776324E+05 -1.640043E-08 -7.005416E-09
       209  18 -7.150236E+03  8.030027E+04  1.554350E+05 -2.305424E+05  9.040751E-09  4.183642E-09
       209  19 -1.989642E+06 -6.454135E+05 -2.381280E+05 -7.810708E+05  3.701403E+04 -7.682670E+04
       209  20 -1.864580E+06 -5.788314E+05 -1.981881E+05 -7.296080E+05  2.480761E+04 -7.460691E+04
       209  21 -1.717897E+06 -5.398362E+05 -1.665596E+05 -7.051332E+05  1.144145E+04 -6.928495E+04
       209  22 -8.635178E+05 -2.334731E+05 -1.919630E+04 -4.666537E+05  4.394889E+04 -7.420534E+04
       209  23 -8.744930E+05 -2.183266E+05 -1.014465E+04 -4.538258E+05  3.659762E+04 -7.016722E+04
       209  24 -8.629010E+05 -2.297977E+05 -5.542181E+03 -4.679897E+05  2.808999E+04 -6.302880E+04
       209  25  2.639270E+05  1.785832E+05  1.996793E+05 -1.517054E+05  5.089726E+04 -7.157889E+04
       209  26  1.166142E+05  1.422665E+05  1.778576E+05 -1.776350E+05  4.840774E+04 -6.571997E+04
       209  27 -7.147221E+03  8.030427E+04  1.554448E+05 -2.305444E+05  4.476296E+04 -5.676353E+04
       210   1 -1.626717E+06 -5.071287E+05 -1.473678E+05 -6.802202E+05 -8.806367E+03  6.319080E+04
       210   2 -1.501869E+06 -4.451205E+05 -1.198237E+05 -6.283045E+05 -3.342515E+03  5.333645E+04
       210   3 -1.352958E+06 -4.075586E+05 -9.346162E+04 -6.041564E+05  2.209798E+03  4.322996E+04
       210   4 -8.626146E+05 -2.298950E+05 -4.175486E+03 -4.679279E+05 -2.498638E+04  5.711425E+04
       210   5 -8.746259E+05 -2.175962E+05 -2.310550E+03 -4.540699E+05 -1.991725E+04  4.711679E+04
       210   6 -8.625202E+05 -2.296669E+05 -1.316326E+03 -4.679861E+05 -1.476011E+04  3.686724E+04
       210   7 -9.789254E+04  4.739506E+04  1.389969E+05 -2.553901E+05 -4.118788E+04  5.102966E+04
       210   8 -2.469668E+05  9.965538E+03  1.151891E+05 -2.796704E+05 -3.651001E+04  4.089039E+04
       210   9 -3.718301E+05 -5.175286E+04  9.082065E+04 -3.317155E+05 -3.174438E+04  3.049914E+04
       210  10 -1.626719E+06 -5.071330E+05 -1.473755E+05 -6.802198E+05  2.046064E-09  1.314733E-09
       210  11 -1.501870E+06 -4.451235E+05 -1.198291E+05 -6.283044E+05  1.126991E-09  6.208015E-10
       210  12 -1.352958E+06 -4.075606E+05 -9.346514E+04 -6.041565E+05  3.026120E-10  4.632078E-10
       210  13 -8.626162E+05 -2.298987E+05 -4.182786E+03 -4.679268E+05 -9.271720E-10  1.019208E-09
       210  14 -8.746269E+05 -2.175987E+05 -2.315464E+03 -4.540692E+05 -8.725843E-11  3.141615E-10
       210  15 -8.625208E+05 -2.296684E+05 -1.319288E+03 -4.679857E+05 -2.422097E-09 -5.340234E-11
       210  16 -9.789506E+04  4.739181E+04  1.389888E+05 -2.553885E+05 -3.205528E-09  5.662367E-10
       210  17 -2.469687E+05  9.963386E+03  1.151834E+05 -2.796692E+05 -1.726528E-09  2.518624E-10
       210  18 -3.718314E+05 -5.175413E+04  9.081701E+04 -3.317147E+05 -2.595695E-10 -5.417743E-10
       210  19 -1.626717E+06 -5.071287E+05 -1.473678E+05 -6.802202E+05  8.806367E+03 -6.319080E+04
       210  20 -1.501869E+06 -4.451205E+05 -1.198237E+05 -6.283045E+05  3.342515E+03 -5.333645E+04
       210  21 -1.352958E+06 -4.075586E+05 -9.346162E+04 -6.041564E+05 -2.209798E+03 -4.322996E+04
       210  22 -8.626146E+05 -2.298950E+05 -4.175486E+03 -4.679279E+05  2.498638E+04 -5.711425E+04
       210  23 -8.746259E+05 -2.175962E+05 -2.310550E+03 -4.540699E+05  1.991725E+04 -4.711679E+04
       210  24 -8.625202E+05 -2.296669E+05 -1.316326E+03 -4.679861E+05  1.476011E+04 -3.686724E+04
       210  25 -9.789254E+04  4.739506E+04  1.389969E+05 -2.553901E+05  4.118788E+04 -5.102966E+04
       210  26 -2.469668E+05  9.965538E+03  1.151891E+05 -2.796704E+05  3.651001E+04 -4.089039E+04
       210  27 -3.718301E+05 -5.175286E+04  9.082065E+04 -3.317155E+05  3.174438E+04 -3.049914E+04
       211   1 -1.262106E+06 -3.745026E+05 -7.542816E+04 -5.790076E+05  4.738110E+03  3.699713E+04
       211   2 -1.137027E+06 -3.126383E+05 -4.977706E+04 -5.269637E+05  9.170481E+03  2.633858E+04
       211   3 -9.876732E+05 -2.750799E+05 -2.440939E+04 -5.027696E+05  1.360853E+04  1.565737E+04
       211   4 -8.624723E+05 -2.296630E+05 -1.032165E+03 -4.679927E+05 -1.220612E+04  3.064621E+04
       211   5 -8.745873E+05 -2.174843E+05 -6.962046E+02 -4.540697E+05 -7.810397E+03  1.997609E+04
       211   6 -8.624406E+05 -2.296059E+05 -6.157025E+02 -4.680037E+05 -3.409083E+03  9.283251E+03
       211   7 -4.626743E+05 -8.480975E+04  7.335788E+04 -3.569120E+05 -2.916186E+04  2.429098E+04
       211   8 -6.120750E+05 -1.223238E+05  4.838318E+04 -3.811468E+05 -2.479896E+04  1.361072E+04
       211   9 -7.371897E+05 -1.841298E+05  2.317889E+04 -4.332307E+05 -2.043052E+04  2.907692E+03
       211  10 -1.262106E+06 -3.745041E+05 -7.543078E+04 -5.790077E+05  4.236101E-11  7.474923E-10
       211  11 -1.137027E+06 -3.126390E+05 -4.977852E+04 -5.269639E+05  1.099716E-09 -4.205503E-10
       211  12 -9.876735E+05 -2.750802E+05 -2.441020E+04 -5.027698E+05  4.631216E-11 -3.635927E-11
       211  13 -8.624728E+05 -2.296640E+05 -1.034208E+03 -4.679924E+05 -1.884376E-09 -5.896861E-10
       211  14 -8.745875E+05 -2.174847E+05 -6.970687E+02 -4.540695E+05 -4.652259E-10 -3.308106E-10
       211  15 -8.624406E+05 -2.296060E+05 -6.158862E+02 -4.680036E+05  5.441845E-10  2.892930E-10
       211  16 -4.626754E+05 -8.481061E+04  7.335517E+04 -3.569115E+05 -4.440203E-10 -1.007168E-09
       211  17 -6.120757E+05 -1.223241E+05  4.838168E+04 -3.811465E+05  2.852895E-10 -6.654319E-10
       211  18 -7.371902E+05 -1.841300E+05  2.317809E+04 -4.332307E+05  3.876448E-10  5.461609E-10
       211  19 -1.262106E+06 -3.745026E+05 -7.542816E+04 -5.790076E+05 -4.738110E+03 -3.699713E+04
       211  20 -1.137027E+06 -3.126383E+05 -4.977706E+04 -5.269637E+05 -9.170481E+03 -2.633858E+04
       211  21 -9.876732E+05 -2.750799E+05 -2.440939E+04 -5.027696E+05 -1.360853E+04 -1.565737E+04
       211  22 -8.624723E+05 -2.296630E+05 -1.032165E+03 -4.679927E+05  1.220612E+04 -3.064621E+04
       211  23 -8.745873E+05 -2.174843E+05 -6.962046E+02 -4.540697E+05  7.810397E+03 -1.997609E+04
       211  24 -8.624406E+05 -2.296059E+05 -6.157025E+02 -4.680037E+05  3.409083E+03 -9.283251E+03
       211  25 -4.626743E+05 -8.480975E+04  7.335788E+04 -3.569120E+05  2.916186E+04 -2.429098E+04
       211  26 -6.120750E+05 -1.223238E+05  4.838318E+04 -3.811468E+05  2.479896E+04 -1.361072E+04
       211  27 -7.371897E+05 -1.841298E+05  2.317889E+04 -4.332307E+05  2.043052E+04 -2.907692E+03
       212   1 -8.967329E+05 -2.419928E+05 -6.692907E+03 -4.775831E+05  1.608014E+04  9.390849E+03
       212   2 -7.715524E+05 -1.801549E+05  1.832578E+04 -4.255140E+05  2.057742E+04 -1.268951E+03
       212   3 -6.221081E+05 -1.426246E+05  4.301610E+04 -4.013138E+05  2.506924E+04 -1.191160E+04
       212   4 -8.624410E+05 -2.296036E+05 -6.595475E+02 -4.680085E+05 -9.404392E+02  3.015981E+03
       212   5 -8.745663E+05 -2.174471E+05 -9.360773E+02 -4.540722E+05  3.581576E+03 -7.635388E+03
       212   6 -8.624522E+05 -2.296052E+05 -1.561201E+03 -4.680127E+05  8.098018E+03 -1.826960E+04
       212   7 -8.281472E+05 -2.172142E+05  5.375016E+03 -4.584333E+05 -1.796202E+04 -3.359261E+03
       212   8 -9.775679E+05 -2.547379E+05 -2.019697E+04 -4.826256E+05 -1.341117E+04 -1.400067E+04
       212   9 -1.102733E+06 -3.165795E+05 -4.613884E+04 -5.346868E+05 -8.866024E+03 -2.462492E+04
       212  10 -8.967332E+05 -2.419929E+05 -6.693560E+03 -4.775832E+05  1.186482E-09  8.254814E-10
       212  11 -7.715528E+05 -1.801550E+05  1.832498E+04 -4.255140E+05  1.743550E-09  4.860303E-10
       212  12 -6.221088E+05 -1.426249E+05  4.301465E+04 -4.013136E+05  3.766376E-10  3.229439E-10
       212  13 -8.624410E+05 -2.296036E+05 -6.595662E+02 -4.680085E+05  1.533855E-09  4.098931E-10
       212  14 -8.745663E+05 -2.174472E+05 -9.362109E+02 -4.540721E+05  1.018205E-09  1.562269E-10
       212  15 -8.624524E+05 -2.296056E+05 -1.561951E+03 -4.680126E+05 -3.630036E-10  3.169826E-11
       212  16 -8.281476E+05 -2.172143E+05  5.374388E+03 -4.584333E+05 -8.085983E-10  8.200592E-11
       212  17 -9.775682E+05 -2.547382E+05 -2.019768E+04 -4.826258E+05 -8.427216E-10  7.609618E-11
       212  18 -1.102733E+06 -3.165802E+05 -4.614013E+04 -5.346870E+05 -8.994180E-10 -6.685203E-10
       212  19 -8.967329E+05 -2.419928E+05 -6.692907E+03 -4.775831E+05 -1.608014E+04 -9.390849E+03
       212  20 -7.715524E+05 -1.801549E+05  1.832578E+04 -4.255140E+05 -2.057742E+04  1.268951E+03
       212  21 -6.221081E+05 -1.426246E+05  4.301610E+04 -4.013138E+05 -2.506924E+04  1.191160E+04
       212  22 -8.624410E+05 -2.296036E+05 -6.595475E+02 -4.680085E+05  9.404392E+02 -3.015981E+03
       212  23 -8.745663E+05 -2.174471E+05 -9.360773E+02 -4.540722E+05 -3.581576E+03  7.635388E+03
       212  24 -8.624522E+05 -2.296052E+05 -1.561201E+03 -4.680127E+05 -8.098018E+03  1.826960E+04
       212  25 -8.281472E+05 -2.172142E+05  5.375016E+03 -4.584333E+05  1.796202E+04  3.359261E+03
       212  26 -9.775679E+05 -2.547379E+05 -2.019697E+04 -4.826256E+05  1.341117E+04  1.400067E+04
       212  27 -1.102733E+06 -3.165795E+05 -4.613884E+04 -5.346868E+05  8.866024E+03  2.462492E+04
       213   1 -5.312015E+05 -1.095621E+05  6.029019E+04 -3.761484E+05  2.775695E+04 -1.808712E+04
       213   2 -4.060870E+05 -4.779412E+04  8.404443E+04 -3.241000E+05  3.325126E+04 -2.823420E+04
       213   3 -2.568948E+05 -1.042957E+04  1.066729E+05 -2.998699E+05  3.866662E+04 -3.815697E+04
       213   4 -8.625121E+05 -2.296011E+05 -2.046523E+03 -4.680212E+05  1.075742E+04 -2.445710E+04
       213   5 -8.745444E+05 -2.174770E+05 -3.668493E+03 -4.540740E+05  1.659952E+04 -3.447771E+04
       213   6 -8.625901E+05 -2.298301E+05 -6.693879E+03 -4.679557E+05  2.236228E+04 -4.427399E+04
       213   7 -1.193710E+06 -3.496312E+05 -6.438727E+04 -5.598491E+05 -6.232552E+03 -3.082352E+04
       213   8 -1.342774E+06 -3.871405E+05 -9.138953E+04 -5.839573E+05 -3.885268E+01 -4.071623E+04
       213   9 -1.467901E+06 -4.491971E+05 -1.200741E+05 -6.358889E+05  6.074937E+03 -5.038465E+04
       213  10 -5.312024E+05 -1.095626E+05  6.028813E+04 -3.761480E+05  2.654189E-10  5.726941E-10
       213  11 -4.060884E+05 -4.779527E+04  8.404085E+04 -3.240992E+05  9.917751E-10  1.243576E-10
       213  12 -2.568968E+05 -1.043153E+04  1.066674E+05 -2.998687E+05  1.551725E-09  5.303947E-11
       213  13 -8.625123E+05 -2.296018E+05 -2.047863E+03 -4.680210E+05 -5.870255E-12  9.831663E-11
       213  14 -8.745450E+05 -2.174783E+05 -3.671243E+03 -4.540735E+05  1.424141E-09  3.205224E-10
       213  15 -8.625912E+05 -2.298323E+05 -6.698500E+03 -4.679549E+05  8.213882E-10  1.082994E-10
       213  16 -1.193711E+06 -3.496323E+05 -6.438913E+04 -5.598493E+05  8.063622E-10 -2.521462E-10
       213  17 -1.342774E+06 -3.871423E+05 -9.139264E+04 -5.839573E+05 -1.045631E-09 -6.909386E-10
       213  18 -1.467902E+06 -4.491998E+05 -1.200789E+05 -6.358887E+05 -1.166473E-09 -2.476213E-10
       213  19 -5.312015E+05 -1.095621E+05  6.029019E+04 -3.761484E+05 -2.775695E+04  1.808712E+04
       213  20 -4.060870E+05 -4.779412E+04  8.404443E+04 -3.241000E+05 -3.325126E+04  2.823420E+04
       213  21 -2.568948E+05 -1.042957E+04  1.066729E+05 -2.998699E+05 -3.866662E+04  3.815697E+04
       213  22 -8.625121E+05 -2.296011E+05 -2.046523E+03 -4.680212E+05 -1.075742E+04  2.445710E+04
       213  23 -8.745444E+05 -2.174770E+05 -3.668493E+03 -4.540740E+05 -1.659952E+04  3.447771E+04
       213  24 -8.625901E+05 -2.298301E+05 -6.693879E+03 -4.679557E+05 -2.236228E+04  4.427399E+04
       213  25 -1.193710E+06 -3.496312E+05 -6.438727E+04 -5.598491E+05  6.232552E+03  3.082352E+04
       213  26 -1.342774E+06 -3.871405E+05 -9.138953E+04 -5.839573E+05  3.885268E+01  4.071623E+04
       213  27 -1.467901E+06 -4.491971E+05 -1.200741E+05 -6.358889E+05 -6.074937E+03  5.038465E+04
       214   1 -1.659802E+05  2.236400E+04  1.222889E+05 -2.753293E+05  4.266857E+04 -4.375105E+04
       214   2 -4.196963E+04  8.457570E+04  1.417683E+05 -2.216045E+05  4.998271E+04 -5.155451E+04
       214   3  1.044916E+05  1.193589E+05  1.575113E+05 -1.946874E+05  5.626107E+04 -5.657814E+04
       214   4 -8.630145E+05 -2.296842E+05 -8.906248E+03 -4.681160E+05  2.593835E+04 -5.003078E+04
       214   5 -8.742413E+05 -2.184031E+05 -1.629405E+04 -4.536491E+05  3.761109E+04 -5.620546E+04
       214   6 -8.639029E+05 -2.354217E+05 -3.087921E+04 -4.659996E+05  4.824640E+04 -5.959860E+04
       214   7 -1.559534E+06 -4.816865E+05 -1.401179E+05 -6.607001E+05  9.228386E+03 -5.630298E+04
       214   8 -1.705790E+06 -5.213181E+05 -1.743844E+05 -6.854043E+05  2.525721E+04 -6.084973E+04
       214   9 -1.831332E+06 -5.901190E+05 -2.193136E+05 -7.369205E+05  4.024503E+04 -6.261401E+04
       214  10 -1.659827E+05  2.236146E+04  1.222818E+05 -2.753278E+05 -4.700786E-10 -1.747378E-10
       214  11 -4.197302E+04  8.457218E+04  1.417586E+05 -2.216024E+05 -2.111590E-09  4.125512E-10
       214  12  1.044873E+05  1.193546E+05  1.574994E+05 -1.946849E+05 -4.503555E-10  6.458557E-10
       214  13 -8.630158E+05 -2.296871E+05 -8.912213E+03 -4.681150E+05  4.108806E-10  4.413466E-11
       214  14 -8.742437E+05 -2.184069E+05 -1.630264E+04 -4.536474E+05  1.745505E-09  4.124336E-10
       214  15 -8.639063E+05 -2.354262E+05 -3.089026E+04 -4.659973E+05  1.303795E-09  5.898331E-10
       214  16 -1.559535E+06 -4.816899E+05 -1.401240E+05 -6.606997E+05 -2.253823E-10  2.786827E-10
       214  17 -1.705792E+06 -5.213223E+05 -1.743925E+05 -6.854031E+05 -3.274270E-10  5.522400E-10
       214  18 -1.831335E+06 -5.901237E+05 -2.193240E+05 -7.369185E+05  5.969309E-11  8.285166E-10
       214  19 -1.659802E+05  2.236400E+04  1.222889E+05 -2.753293E+05 -4.266857E+04  4.375105E+04
       214  20 -4.196963E+04  8.457570E+04  1.417683E+05 -2.216045E+05 -4.998271E+04  5.155451E+04
       214  21  1.044916E+05  1.193589E+05  1.575113E+05 -1.946874E+05 -5.626107E+04  5.657814E+04
       214  22 -8.630145E+05 -2.296842E+05 -8.906248E+03 -4.681160E+05 -2.593835E+04  5.003078E+04
       214  23 -8.742413E+05 -2.184031E+05 -1.629405E+04 -4.536491E+05 -3.761109E+04  5.620546E+04
       214  24 -8.639029E+05 -2.354217E+05 -3.087921E+04 -4.659996E+05 -4.824640E+04  5.959860E+04
       214  25 -1.559534E+06 -4.816865E+05 -1.401179E+05 -6.607001E+05 -9.228386E+03  5.630298E+04
       214  26 -1.705790E+06 -5.213181E+05 -1.743844E+05 -6.854043E+05 -2.525721E+04  6.084973E+04
       214  27 -1.831332E+06 -5.901190E+05 -2.193136E+05 -7.369205E+05 -4.024503E+04  6.261401E+04
       215   1  2.001132E+05  1.474053E+05  1.667987E+05 -1.818587E+05  6.855373E+04 -5.810736E+04
       215   2  2.967176E+05  2.224283E+05  1.775033E+05 -8.181491E+04  4.951487E+04 -5.483795E+04
       215   3  3.893790E+05  2.000008E+05  1.790603E+05  1.412498E+04  1.709424E+04 -1.602905E+04
       215   4 -8.691431E+05 -2.324742E+05 -4.074142E+04 -4.687872E+05  5.490646E+04 -6.324529E+04
       215   5 -8.708179E+05 -2.428400E+05 -7.698708E+04 -4.424676E+05  9.175985E+04 -3.897603E+04
       215   6 -8.875912E+05 -3.618455E+05 -1.667323E+05 -4.202509E+05  1.152175E+05  2.086980E+04
       215   7 -1.937215E+06 -6.122668E+05 -2.483314E+05 -7.552636E+05  4.128438E+04 -6.837431E+04
       215   8 -2.036946E+06 -7.079250E+05 -3.315482E+05 -8.024682E+05  1.339189E+05 -2.315264E+04
       215   9 -2.162916E+06 -9.233927E+05 -5.126244E+05 -8.537462E+05  2.131189E+05  5.765231E+04
       215  10  2.001072E+05  1.474004E+05  1.667835E+05 -1.818555E+05 -7.526469E-10  8.514081E-10
       215  11  2.967142E+05  2.224244E+05  1.774930E+05 -8.181272E+04 -1.576029E-09  6.169517E-10
       215  12  3.893786E+05  2.000004E+05  1.790593E+05  1.412520E+04  4.442545E-10  3.517296E-10
       215  13 -8.691474E+05 -2.324793E+05 -4.075460E+04 -4.687844E+05 -5.055388E-10  3.078437E-10
       215  14 -8.708274E+05 -2.428439E+05 -7.700577E+04 -4.424647E+05 -4.681677E-10 -2.099972E-10
       215  15 -8.876056E+05 -3.618496E+05 -1.667581E+05 -4.202529E+05 -1.348276E-10  8.065355E-10
       215  16 -1.937218E+06 -6.122722E+05 -2.483434E+05 -7.552613E+05  5.262004E-11  7.161967E-10
       215  17 -2.036965E+06 -7.079304E+05 -3.315830E+05 -8.024657E+05 -6.661874E-10  3.480621E-10
       215  18 -2.162966E+06 -9.234086E+05 -5.127163E+05 -8.537562E+05 -6.665306E-10 -1.739917E-10
       215  19  2.001132E+05  1.474053E+05  1.667987E+05 -1.818587E+05 -6.855373E+04  5.810736E+04
       215  20  2.967176E+05  2.224283E+05  1.775033E+05 -8.181491E+04 -4.951487E+04  5.483795E+04
       215  21  3.893790E+05  2.000008E+05  1.790603E+05  1.412498E+04 -1.709424E+04  1.602905E+04
       215  22 -8.691431E+05 -2.324742E+05 -4.074142E+04 -4.687872E+05 -5.490646E+04  6.324529E+04
       215  23 -8.708179E+05 -2.428400E+05 -7.698708E+04 -4.424676E+05 -9.175985E+04  3.897603E+04
       215  24 -8.875912E+05 -3.618455E+05 -1.667323E+05 -4.202509E+05 -1.152175E+05 -2.086980E+04
       215  25 -1.937215E+06 -6.122668E+05 -2.483314E+05 -7.552636E+05 -4.128438E+04  6.837431E+04
       215  26 -2.036946E+06 -7.079250E+05 -3.315482E+05 -8.024682E+05 -1.339189E+05  2.315264E+04
       215  27 -2.162916E+06 -9.233927E+05 -5.126244E+05 -8.537462E+05 -2.131189E+05 -5.765231E+04
       216   1 -4.555754E+05 -1.541334E+05 -1.216391E+05 -4.361622E+04  3.233740E+04  1.702939E+04
       216   2 -3.238772E+05 -2.332918E+05 -1.335483E+05 -8.251861E+04  3.935056E+04  5.573777E+04
       216   3 -1.715860E+05 -2.273625E+05 -1.287291E+05 -1.516724E+05  4.639768E+04  6.393200E+04
       216   4  8.118450E+05  1.587152E+05  1.765306E+05 -1.420820E+05  1.231054E+05  1.709470E+04
       216   5  7.972170E+05  3.465423E+04  8.570702E+04 -1.269165E+05  7.882813E+04  5.575081E+04
       216   6  8.120074E+05  4.484766E+03  4.717673E+04 -1.419919E+05  3.458589E+04  6.391921E+04
       216   7  2.080782E+06  4.714903E+05  4.746261E+05 -2.407501E+05  2.140575E+05  1.713116E+04
       216   8  1.919524E+06  3.025330E+05  3.049090E+05 -1.713965E+05  1.183754E+05  5.575821E+04
       216   9  1.796544E+06  2.362789E+05  2.230462E+05 -1.322955E+05  2.275589E+04  6.390607E+04
       216  10 -4.555766E+05 -1.541340E+05 -1.216416E+05 -4.361667E+04  1.168634E-09 -6.487021E-10
       216  11 -3.238797E+05 -2.332955E+05 -1.335570E+05 -8.252038E+04  1.282892E-10  9.879680E-10
       216  12 -1.715894E+05 -2.273675E+05 -1.287408E+05 -1.516748E+05 -2.567739E-09 -8.969228E-11
       216  13  8.118287E+05  1.587108E+05  1.765016E+05 -1.420837E+05  5.530212E-10  6.956133E-10
       216  14  7.972095E+05  3.464923E+04  8.568951E+04 -1.269201E+05  3.944794E-10  2.836053E-10
       216  15  8.120050E+05  4.480056E+03  4.716680E+04 -1.419937E+05  1.798631E-09  3.209750E-11
       216  16  2.080733E+06  4.714777E+05  4.745397E+05 -2.407531E+05 -6.325291E-10  4.555448E-10
       216  17  1.919508E+06  3.025259E+05  3.048769E+05 -1.714018E+05 -9.149315E-10  1.438777E-11
       216  18  1.796543E+06  2.362743E+05  2.230376E+05 -1.322967E+05  3.074783E-09  1.843662E-09
       216  19 -4.555754E+05 -1.541334E+05 -1.216391E+05 -4.361622E+04 -3.233740E+04 -1.702939E+04
       216  20 -3.238772E+05 -2.332918E+05 -1.335483E+05 -8.251861E+04 -3.935056E+04 -5.573777E+04
       216  21 -1.715860E+05 -2.273625E+05 -1.287291E+05 -1.516724E+05 -4.639768E+04 -6.393200E+04
       216  22  8.118450E+05  1.587152E+05  1.765306E+05 -1.420820E+05 -1.231054E+05 -1.709470E+04
       216  23  7.972170E+05  3.465423E+04  8.570702E+04 -1.269165E+05 -7.882813E+04 -5.575081E+04
       216  24  8.120074E+05  4.484766E+03  4.717673E+04 -1.419919E+05 -3.458589E+04 -6.391921E+04
       216  25  2.080782E+06  4.714903E+05  4.746261E+05 -2.407501E+05 -2.140575E+05 -1.713116E+04
       216  26  1.919524E+06  3.025330E+05  3.049090E+05 -1.713965E+05 -1.183754E+05 -5.575821E+04
       216  27  1.796544E+06  2.362789E+05  2.230462E+05 -1.322955E+05 -2.275589E+04 -6.390607E+04
       217   1 -8.381000E+04 -2.024934E+05 -1.216676E+05 -1.398113E+05  3.677751E+04  5.924936E+04
       217   2  5.662124E+04 -1.744912E+05 -1.093306E+05 -1.257127E+05  3.148688E+04  5.291056E+04
       217   3  1.988951E+05 -1.423443E+05 -9.248625E+04 -1.436676E+05  2.619170E+04  4.386187E+04
       217   4  8.060782E+05  6.934022E+03  3.592219E+04 -1.424115E+05  2.843628E+04  5.923928E+04
       217   5  8.048110E+05  8.964994E+02  1.976151E+04 -1.263858E+05  1.857983E+04  5.290263E+04
       217   6  8.061544E+05 -2.073125E+02  1.126953E+04 -1.424109E+05  8.720027E+03  4.385772E+04
       217   7  1.696740E+06  2.163180E+05  1.934829E+05 -1.450155E+05  2.008341E+04  5.922929E+04
       217   8  1.553550E+06  1.762543E+05  1.488350E+05 -1.270598E+05  5.657700E+03  5.289474E+04
       217   9  1.413777E+06  1.419103E+05  1.150142E+05 -1.411528E+05 -8.768192E+03  4.385350E+04
       217  10 -8.381239E+04 -2.024975E+05 -1.216767E+05 -1.398130E+05  1.075740E-09 -1.149311E-11
       217  11  5.661942E+04 -1.744945E+05 -1.093377E+05 -1.257140E+05  5.579943E-10  4.805289E-10
       217  12  1.988939E+05 -1.423466E+05 -9.249115E+04 -1.436686E+05 -6.288795E-10 -7.317341E-11
       217  13  8.060764E+05  6.930035E+03  3.591407E+04 -1.424129E+05  6.588970E-10  1.227836E-09
       217  14  8.048099E+05  8.934002E+02  1.975559E+04 -1.263866E+05  1.025586E-09  5.090248E-10
       217  15  8.061538E+05 -2.093993E+02  1.126577E+04 -1.424112E+05 -8.587588E-10 -2.599278E-10
       217  16  1.696739E+06  2.163141E+05  1.934755E+05 -1.450165E+05 -1.338711E-09  1.478490E-09
       217  17  1.553549E+06  1.762513E+05  1.488297E+05 -1.270600E+05 -6.289957E-10  1.254020E-10
       217  18  1.413776E+06  1.419082E+05  1.150104E+05 -1.411525E+05  6.678001E-10 -1.417588E-10
       217  19 -8.381000E+04 -2.024934E+05 -1.216676E+05 -1.398113E+05 -3.677751E+04 -5.924936E+04
       217  20  5.662124E+04 -1.744912E+05 -1.093306E+05 -1.257127E+05 -3.148688E+04 -5.291056E+04
       217  21  1.988951E+05 -1.423443E+05 -9.248625E+04 -1.436676E+05 -2.619170E+04 -4.386187E+04
       217  22  8.060782E+05  6.934022E+03  3.592219E+04 -1.424115E+05 -2.843628E+04 -5.923928E+04
       217  23  8.048110E+05  8.964994E+02  1.976151E+04 -1.263858E+05 -1.857983E+04 -5.290263E+04
       217  24  8.061544E+05 -2.073125E+02  1.126953E+04 -1.424109E+05 -8.720027E+03 -4.385772E+04
       217  25  1.696740E+06  2.163180E+05  1.934829E+05 -1.450155E+05 -2.008341E+04 -5.922929E+04
       217  26  1.553550E+06  1.762543E+05  1.488350E+05 -1.270598E+05 -5.657700E+03 -5.289474E+04
       217  27  1.413777E+06  1.419103E+05  1.150142E+05 -1.411528E+05  8.768192E+03 -4.385350E+04
       218   1  2.906071E+05 -1.204343E+05 -7.883652E+04 -1.429090E+05  2.414515E+04  3.775853E+04
       218   2  4.315720E+05 -8.758781E+04 -5.854794E+04 -1.266986E+05  2.214194E+04  2.742833E+04
       218   3  5.728905E+05 -5.456212E+04 -3.690300E+04 -1.426615E+05  2.013553E+04  1.686003E+04
       218   4  8.056844E+05 -2.765051E+00  8.553657E+03 -1.424383E+05  6.987655E+03  3.775641E+04
       218   5  8.054999E+05 -1.708189E+02  4.866271E+03 -1.263523E+05  4.580681E+03  2.742854E+04
       218   6  8.057206E+05 -8.874859E+01  2.813997E+03 -1.424385E+05  2.170952E+03  1.686266E+04
       218   7  1.321023E+06  1.204149E+05  9.593633E+04 -1.419671E+05 -1.018362E+04  3.775427E+04
       218   8  1.179566E+06  8.723896E+04  6.827710E+04 -1.260058E+05 -1.299081E+04  2.742872E+04
       218   9  1.038605E+06  5.438192E+04  4.253041E+04 -1.422154E+05 -1.580014E+04  1.686527E+04
       218  10  2.906061E+05 -1.204360E+05 -7.884030E+04 -1.429098E+05  8.326960E-10 -6.843379E-11
       218  11  4.315712E+05 -8.758875E+04 -5.855027E+04 -1.266991E+05 -1.751686E-09  1.227543E-10
       218  12  5.728900E+05 -5.456253E+04 -3.690429E+04 -1.426617E+05 -4.129513E-10 -2.899349E-10
       218  13  8.056840E+05 -4.309589E+00  8.550886E+03 -1.424385E+05  7.081991E-10 -1.935677E-10
       218  14  8.054996E+05 -1.716327E+02  4.864818E+03 -1.263524E+05 -2.137269E-09 -1.110677E-10
       218  15  8.057205E+05 -8.905533E+01  2.813453E+03 -1.424385E+05 -1.358673E-09  2.711207E-10
       218  16  1.321023E+06  1.204134E+05  9.593345E+04 -1.419668E+05  3.242977E-10 -2.327451E-10
       218  17  1.179566E+06  8.723810E+04  6.827537E+04 -1.260055E+05 -1.306692E-10 -4.424027E-10
       218  18  1.038604E+06  5.438155E+04  4.252941E+04 -1.422152E+05  2.559136E-10  5.966603E-10
       218  19  2.906071E+05 -1.204343E+05 -7.883652E+04 -1.429090E+05 -2.414515E+04 -3.775853E+04
       218  20  4.315720E+05 -8.758781E+04 -5.854794E+04 -1.266986E+05 -2.214194E+04 -2.742833E+04
       218  21  5.728905E+05 -5.456212E+04 -3.690300E+04 -1.426615E+05 -2.013553E+04 -1.686003E+04
       218  22  8.056844E+05 -2.765051E+00  8.553657E+03 -1.424383E+05 -6.987655E+03 -3.775641E+04
       218  23  8.054999E+05 -1.708189E+02  4.866271E+03 -1.263523E+05 -4.580681E+03 -2.742854E+04
       218  24  8.057206E+05 -8.874859E+01  2.813997E+03 -1.424385E+05 -2.170952E+03 -1.686266E+04
       218  25  1.321023E+06  1.204149E+05  9.593633E+04 -1.419671E+05  1.018362E+04 -3.775427E+04
       218  26  1.179566E+06  8.723896E+04  6.827710E+04 -1.260058E+05  1.299081E+04 -2.742872E+04
       218  27  1.038605E+06  5.438192E+04  4.253041E+04 -1.422154E+05  1.580014E+04 -1.686527E+04
       219   1  6.648270E+05 -3.290860E+04 -2.139299E+04 -1.426014E+05  1.965723E+04  1.063671E+04
       219   2  8.058732E+05  1.605886E+01  1.287685E+03 -1.264627E+05  1.906730E+04 -3.991524E+01
       219   3  9.470266E+05  3.294386E+04  2.435448E+04 -1.424966E+05  1.847725E+04 -1.073569E+04
       219   4  8.056575E+05 -5.798670E+01  2.146490E+03 -1.424386E+05  1.721128E+03  1.064003E+04
       219   5  8.056121E+05 -4.121622E+01  1.261713E+03 -1.263523E+05  1.096784E+03 -3.659727E+01
       219   6  8.056577E+05 -1.526086E+01  7.853732E+02 -1.424386E+05  4.724374E+02 -1.073236E+04
       219   7  9.465082E+05  3.279177E+04  2.568656E+04 -1.422758E+05 -1.621891E+04  1.064335E+04
       219   8  8.053518E+05 -9.831813E+01  1.236954E+03 -1.262419E+05 -1.687373E+04 -3.328567E+01
       219   9  6.643093E+05 -3.297524E+04 -2.278313E+04 -1.423807E+05 -1.752841E+04 -1.072903E+04
       219  10  6.648265E+05 -3.290883E+04 -2.139393E+04 -1.426015E+05  6.587355E-10 -1.819017E-10
       219  11  8.058728E+05  1.596141E+01  1.287002E+03 -1.264627E+05 -8.743850E-10  5.103742E-10
       219  12  9.470262E+05  3.294364E+04  2.435363E+04 -1.424965E+05 -1.102056E-09  3.025634E-10
       219  13  8.056574E+05 -5.810912E+01  2.146272E+03 -1.424386E+05 -1.155590E-09  2.452925E-10
       219  14  8.056121E+05 -4.121654E+01  1.261711E+03 -1.263523E+05 -1.756100E-09  5.015800E-10
       219  15  8.056577E+05 -1.538465E+01  7.851562E+02 -1.424386E+05  4.770880E-11  4.912157E-10
       219  16  9.465079E+05  3.279158E+04  2.568586E+04 -1.422756E+05 -9.287835E-10  6.893834E-10
       219  17  8.053515E+05 -9.839444E+01  1.236419E+03 -1.262419E+05 -1.009782E-10  3.461041E-10
       219  18  6.643089E+05 -3.297545E+04 -2.278393E+04 -1.423808E+05  2.284997E-10  9.630091E-10
       219  19  6.648270E+05 -3.290860E+04 -2.139299E+04 -1.426014E+05 -1.965723E+04 -1.063671E+04
       219  20  8.058732E+05  1.605886E+01  1.287685E+03 -1.264627E+05 -1.906730E+04  3.991524E+01
       219  21  9.470266E+05  3.294386E+04  2.435448E+04 -1.424966E+05 -1.847725E+04  1.073569E+04
       219  22  8.056575E+05 -5.798670E+01  2.146490E+03 -1.424386E+05 -1.721128E+03 -1.064003E+04
       219  23  8.056121E+05 -4.121622E+01  1.261713E+03 -1.263523E+05 -1.096784E+03  3.659727E+01
       219  24  8.056577E+05 -1.526086E+01  7.853732E+02 -1.424386E+05 -4.724374E+02  1.073236E+04
       219  25  9.465082E+05  3.279177E+04  2.568656E+04 -1.422758E+05  1.621891E+04 -1.064335E+04
       219  26  8.053518E+05 -9.831813E+01  1.236954E+03 -1.262419E+05  1.687373E+04  3.328567E+01
       219  27  6.643093E+05 -3.297524E+04 -2.278313E+04 -1.423807E+05  1.752841E+04  1.072903E+04
       220   1  1.039034E+06  5.455413E+04  4.037620E+04 -1.424972E+05  1.835059E+04 -1.696774E+04
       220   2  1.180200E+06  8.743616E+04  6.378774E+04 -1.263559E+05  1.806979E+04 -2.766196E+04
       220   3  1.321453E+06  1.203205E+05  8.738870E+04 -1.424030E+05  1.779183E+04 -3.833444E+04
       220   4  8.056444E+05 -2.058170E+01  6.448630E+02 -1.424424E+05  3.410506E+02 -1.696513E+04
       220   5  8.055965E+05 -5.693473E+01  4.967414E+02 -1.263476E+05  9.500526E+01 -2.766176E+04
       220   6  8.056094E+05 -9.634968E+01  5.132066E+02 -1.424424E+05 -1.481412E+02 -3.833661E+04
       220   7  5.723088E+05 -5.459801E+04 -3.908704E+04 -1.423876E+05 -1.766194E+04 -1.696251E+04
       220   8  4.311315E+05 -8.755724E+04 -6.279755E+04 -1.263393E+05 -1.786930E+04 -2.766155E+04
       220   9  2.900281E+05 -1.205269E+05 -8.636953E+04 -1.424817E+05 -1.807372E+04 -3.833878E+04
       220  10  1.039034E+06  5.455373E+04  4.037502E+04 -1.424970E+05 -5.890364E-10  1.761765E-10
       220  11  1.180200E+06  8.743525E+04  6.378569E+04 -1.263555E+05  1.240413E-09  3.899297E-10
       220  12  1.321452E+06  1.203188E+05  8.738535E+04 -1.424025E+05 -1.494114E-09  5.718012E-11
       220  13  8.056443E+05 -2.089091E+01  6.443217E+02 -1.424424E+05  1.659871E-09  5.588905E-10
       220  14  8.055963E+05 -5.775671E+01  4.953029E+02 -1.263476E+05  2.215366E-09  5.908405E-10
       220  15  8.056090E+05 -9.792848E+01  5.104436E+02 -1.424424E+05 -1.972330E-09  4.737602E-10
       220  16  5.723084E+05 -5.459840E+04 -3.908817E+04 -1.423879E+05  1.268841E-09  1.149599E-09
       220  17  4.311309E+05 -8.755815E+04 -6.279959E+04 -1.263397E+05 -1.668045E-09  7.587246E-10
       220  18  2.900273E+05 -1.205286E+05 -8.637290E+04 -1.424823E+05  2.754374E-10  7.859864E-10
       220  19  1.039034E+06  5.455413E+04  4.037620E+04 -1.424972E+05 -1.835059E+04  1.696774E+04
       220  20  1.180200E+06  8.743616E+04  6.378774E+04 -1.263559E+05 -1.806979E+04  2.766196E+04
       220  21  1.321453E+06  1.203205E+05  8.738870E+04 -1.424030E+05 -1.779183E+04  3.833444E+04
       220  22  8.056444E+05 -2.058170E+01  6.448630E+02 -1.424424E+05 -3.410506E+02  1.696513E+04
       220  23  8.055965E+05 -5.693473E+01  4.967414E+02 -1.263476E+05 -9.500526E+01  2.766176E+04
       220  24  8.056094E+05 -9.634968E+01  5.132066E+02 -1.424424E+05  1.481412E+02  3.833661E+04
       220  25  5.723088E+05 -5.459801E+04 -3.908704E+04 -1.423876E+05  1.766194E+04  1.696251E+04
       220  26  4.311315E+05 -8.755724E+04 -6.279755E+04 -1.263393E+05  1.786930E+04  2.766155E+04
       220  27  2.900281E+05 -1.205269E+05 -8.636953E+04 -1.424817E+05  1.807372E+04  3.833878E+04
       221   1  1.413620E+06  1.419341E+05  1.036525E+05 -1.423728E+05  1.773850E+04 -4.455805E+04
       221   2  1.554957E+06  1.748478E+05  1.276899E+05 -1.261311E+05  1.681647E+04 -5.509148E+04
       221   3  1.696557E+06  2.078769E+05  1.523786E+05 -1.421110E+05  1.589982E+04 -6.532179E+04
       221   4  8.056107E+05 -1.256984E+02  5.805576E+02 -1.424500E+05 -2.462697E+02 -4.456235E+04
       221   5  8.054972E+05 -2.085152E+02  8.403787E+02 -1.263381E+05 -6.592822E+02 -5.510048E+04
       221   6  8.055404E+05 -2.629092E+02  1.398829E+03 -1.424500E+05 -1.066724E+03 -6.533526E+04
       221   7  1.979653E+05 -1.422048E+05 -1.025022E+05 -1.425272E+05 -1.821402E+04 -4.456665E+04
       221   8  5.658972E+04 -1.752943E+05 -1.260261E+05 -1.265448E+05 -1.811466E+04 -5.510946E+04
       221   9 -8.469588E+04 -2.084444E+05 -1.496056E+05 -1.427884E+05 -1.800975E+04 -6.534872E+04
       221  10  1.413619E+06  1.419319E+05  1.036482E+05 -1.423722E+05 -1.916969E-09  5.881114E-10
       221  11  1.554956E+06  1.748445E+05  1.276837E+05 -1.261304E+05 -2.220973E-09  1.978913E-10
       221  12  1.696556E+06  2.078722E+05  1.523701E+05 -1.421102E+05 -1.421707E-09 -1.041169E-09
       221  13  8.056101E+05 -1.278317E+02  5.768243E+02 -1.424500E+05 -1.163832E-09  6.405748E-10
       221  14  8.054964E+05 -2.117768E+02  8.346704E+02 -1.263381E+05 -1.306798E-09  3.306674E-10
       221  15  8.055393E+05 -2.674951E+02  1.390802E+03 -1.424500E+05  1.651499E-09 -1.047437E-09
       221  16  1.979644E+05 -1.422071E+05 -1.025065E+05 -1.425278E+05  3.321891E-09  6.438923E-10
       221  17  5.658855E+04 -1.752976E+05 -1.260325E+05 -1.265456E+05 -2.222532E-09  1.620637E-11
       221  18 -8.469737E+04 -2.084491E+05 -1.496143E+05 -1.427894E+05  8.240024E-10 -4.675562E-10
       221  19  1.413620E+06  1.419341E+05  1.036525E+05 -1.423728E+05 -1.773850E+04  4.455805E+04
       221  20  1.554957E+06  1.748478E+05  1.276899E+05 -1.261311E+05 -1.681647E+04  5.509148E+04
       221  21  1.696557E+06  2.078769E+05  1.523786E+05 -1.421110E+05 -1.589982E+04  6.532179E+04
       221  22  8.056107E+05 -1.256984E+02  5.805576E+02 -1.424500E+05  2.462697E+02  4.456235E+04
       221  23  8.054972E+05 -2.085152E+02  8.403787E+02 -1.263381E+05  6.592822E+02  5.510048E+04
       221  24  8.055404E+05 -2.629092E+02  1.398829E+03 -1.424500E+05  1.066724E+03  6.533526E+04
       221  25  1.979653E+05 -1.422048E+05 -1.025022E+05 -1.425272E+05  1.821402E+04  4.456665E+04
       221  26  5.658972E+04 -1.752943E+05 -1.260261E+05 -1.265448E+05  1.811466E+04  5.510946E+04
       221  27 -8.469588E+04 -2.084444E+05 -1.496056E+05 -1.427884E+05  1.800975E+04  6.534872E+04
       222   1  1.789177E+06  2.295670E+05  1.692527E+05 -1.418620E+05  1.603596E+04 -7.139270E+04
       222   2  1.930258E+06  2.630485E+05  1.964606E+05 -1.258982E+05  8.610755E+03 -7.997475E+04
       222   3  2.072977E+06  2.983163E+05  2.289902E+05 -1.420041E+05  1.187452E+03 -8.507224E+04
       222   4  8.056056E+05 -3.360092E+02  1.823327E+03 -1.424164E+05 -1.343926E+03 -7.140975E+04
       222   5  8.052523E+05 -2.587696E+02  3.135613E+03 -1.263800E+05 -2.898294E+03 -7.999478E+04
       222   6  8.054998E+05  5.893759E+02  5.702228E+03 -1.424169E+05 -4.449032E+03 -8.509206E+04
       222   7 -1.770161E+05 -2.302901E+05 -1.656368E+05 -1.429699E+05 -1.869722E+04 -7.142678E+04
       222   8 -3.185138E+05 -2.636335E+05 -1.902317E+05 -1.268610E+05 -1.438719E+04 -8.001481E+04
       222   9 -4.604112E+05 -2.972253E+05 -2.176444E+05 -1.428289E+05 -1.007437E+04 -8.511190E+04
       222  10  1.789176E+06  2.295615E+05  1.692427E+05 -1.418610E+05 -5.771029E-08 -2.201398E-09
       222  11  1.930257E+06  2.630416E+05  1.964484E+05 -1.258976E+05  7.856926E-10 -2.702968E-09
       222  12  2.072975E+06  2.983086E+05  2.289766E+05 -1.420040E+05  5.679074E-08 -2.786688E-09
       222  13  8.056042E+05 -3.414876E+02  1.813737E+03 -1.424164E+05 -1.676738E-10 -1.990410E-09
       222  14  8.052506E+05 -2.656461E+02  3.123567E+03 -1.263802E+05  2.785889E-09 -2.722277E-09
       222  15  8.054978E+05  5.815923E+02  5.688579E+03 -1.424172E+05  2.878363E-10 -2.317461E-09
       222  16 -1.770178E+05 -2.302957E+05 -1.656470E+05 -1.429709E+05  5.773540E-08 -1.394801E-09
       222  17 -3.185158E+05 -2.636405E+05 -1.902442E+05 -1.268619E+05 -1.371519E-09 -9.707207E-10
       222  18 -4.604133E+05 -2.972331E+05 -2.176582E+05 -1.428296E+05 -5.701362E-08 -1.307503E-09
       222  19  1.789177E+06  2.295670E+05  1.692527E+05 -1.418620E+05 -1.603596E+04  7.139270E+04
       222  20  1.930258E+06  2.630485E+05  1.964606E+05 -1.258982E+05 -8.610755E+03  7.997475E+04
       222  21  2.072977E+06  2.983163E+05  2.289902E+05 -1.420041E+05 -1.187452E+03  8.507224E+04
       222  22  8.056056E+05 -3.360092E+02  1.823327E+03 -1.424164E+05  1.343926E+03  7.140975E+04
       222  23  8.052523E+05 -2.587696E+02  3.135613E+03 -1.263800E+05  2.898294E+03  7.999478E+04
       222  24  8.054998E+05  5.893759E+02  5.702228E+03 -1.424169E+05  4.449032E+03  8.509206E+04
       222  25 -1.770161E+05 -2.302901E+05 -1.656368E+05 -1.429699E+05  1.869722E+04  7.142678E+04
       222  26 -3.185138E+05 -2.636335E+05 -1.902317E+05 -1.268610E+05  1.438719E+04  8.001481E+04
       222  27 -4.604112E+05 -2.972253E+05 -2.176444E+05 -1.428289E+05  1.007437E+04  8.511190E+04
       223   1  2.168569E+06  3.205504E+05  2.497442E+05 -1.393069E+05  4.711056E+03 -8.931099E+04
       223   2  2.303068E+06  3.624130E+05  3.048919E+05 -1.328003E+05 -6.843521E+04 -7.577591E+04
       223   3  2.454037E+06  4.307684E+05  4.142429E+05 -1.559666E+05 -1.416782E+05 -2.298677E+04
       223   4  8.064345E+05  1.413331E+02  7.490350E+03 -1.418779E+05 -5.422854E+03 -8.933772E+04
       223   5  8.038550E+05  4.867457E+03  1.355497E+04 -1.270569E+05 -1.239867E+04 -7.572259E+04
       223   6  8.062900E+05  2.465346E+04  2.798404E+04 -1.419066E+05 -1.945056E+04 -2.281206E+04
       223   7 -5.538941E+05 -3.203699E+05 -2.348328E+05 -1.444435E+05 -1.553522E+04 -8.936440E+04
       223   8 -6.931997E+05 -3.528105E+05 -2.778764E+05 -1.213281E+05  4.350597E+04 -7.566819E+04
       223   9 -8.389322E+05 -3.816454E+05 -3.584042E+05 -1.278847E+05  1.024557E+05 -2.263163E+04
       223  10  2.168567E+06  3.205418E+05  2.497291E+05 -1.393065E+05  1.924640E-09 -3.109066E-09
       223  11  2.303061E+06  3.624056E+05  3.048723E+05 -1.328045E+05 -4.222188E-10 -4.080102E-09
       223  12  2.454015E+06  4.307625E+05  4.142044E+05 -1.559692E+05 -2.925219E-09 -1.077873E-09
       223  13  8.064324E+05  1.327514E+02  7.475291E+03 -1.418783E+05 -1.154428E-09 -6.074505E-09
       223  14  8.038533E+05  4.861256E+03  1.354390E+04 -1.270576E+05  1.601462E-09  2.369180E-09
       223  15  8.062894E+05  2.465280E+04  2.798235E+04 -1.419070E+05 -1.118622E-09 -5.943545E-11
       223  16 -5.538965E+05 -3.203785E+05 -2.348483E+05 -1.444446E+05 -1.620246E-09 -1.674524E-09
       223  17 -6.932033E+05 -3.528172E+05 -2.778908E+05 -1.213254E+05 -2.214517E-09  1.061346E-09
       223  18 -8.389436E+05 -3.816487E+05 -3.584249E+05 -1.278828E+05  2.791884E-09 -1.752304E-09
       223  19  2.168569E+06  3.205504E+05  2.497442E+05 -1.393069E+05 -4.711056E+03  8.931099E+04
       223  20  2.303068E+06  3.624130E+05  3.048919E+05 -1.328003E+05  6.843521E+04  7.577591E+04
       223  21  2.454037E+06  4.307684E+05  4.142429E+05 -1.559666E+05  1.416782E+05  2.298677E+04
       223  22  8.064345E+05  1.413331E+02  7.490350E+03 -1.418779E+05  5.422854E+03  8.933772E+04
       223  23  8.038550E+05  4.867457E+03  1.355497E+04 -1.270569E+05  1.239867E+04  7.572259E+04
       223  24  8.062900E+05  2.465346E+04  2.798404E+04 -1.419066E+05  1.945056E+04  2.281206E+04
       223  25 -5.538941E+05 -3.203699E+05 -2.348328E+05 -1.444435E+05  1.553522E+04  8.936440E+04
       223  26 -6.931997E+05 -3.528105E+05 -2.778764E+05 -1.213281E+05 -4.350597E+04  7.566819E+04
       223  27 -8.389322E+05 -3.816454E+05 -3.584042E+05 -1.278847E+05 -1.024557E+05  2.263163E+04
       224   1  5.318949E+05  2.150213E+06  5.144941E+05 -5.439881E+05  2.187043E+04  1.368655E+05
       224   2  3.676998E+05  1.621067E+06  3.201188E+05 -4.759728E+05  6.553129E+04  4.258704E+04
       224   3  2.366208E+05  1.112545E+06  1.952348E+05 -5.224726E+05  5.863904E+04 -5.166721E+04
       224   4  3.125214E+04  1.258612E+05  3.329164E+04 -5.221990E+05  2.211670E+04  2.106711E+04
       224   5  7.950487E+03  1.232836E+05  1.783788E+04 -4.649672E+05  6.561403E+04  1.199562E+04
       224   6  3.061429E+03  1.263655E+05  1.286021E+04 -5.222578E+05  5.850557E+04  2.868062E+03
       224   7 -4.696768E+05 -1.894709E+06 -4.481467E+05 -5.004778E+05  2.235539E+04 -9.435666E+04
       224   8 -3.519368E+05 -1.372364E+06 -2.845550E+05 -4.539866E+05  6.569582E+04 -1.852358E+04
       224   9 -2.305519E+05 -8.588657E+05 -1.695439E+05 -5.220423E+05  5.837201E+04  5.731908E+04
       224  10  5.318893E+05  2.150193E+06  5.144581E+05 -5.439905E+05  6.759384E-10 -8.769603E-11
       224  11  3.676947E+05  1.621063E+06  3.201073E+05 -4.759751E+05  7.162358E-10 -3.147905E-09
       224  12  2.366164E+05  1.112541E+06  1.952234E+05 -5.224701E+05  1.004136E-10 -2.790404E-09
       224  13  3.125150E+04  1.258606E+05  3.328989E+04 -5.221994E+05  1.108899E-10 -1.273551E-09
       224  14  7.945824E+03  1.232823E+05  1.782951E+04 -4.649678E+05  3.845559E-10 -1.565274E-09
       224  15  3.057751E+03  1.263646E+05  1.285377E+04 -5.222579E+05  5.644395E-10 -7.306429E-10
       224  16 -4.696797E+05 -1.894719E+06 -4.481644E+05 -5.004761E+05 -1.303913E-10 -1.142335E-09
       224  17 -3.519415E+05 -1.372365E+06 -2.845638E+05 -4.539856E+05  2.439973E-09  2.801231E-09
       224  18 -2.305565E+05 -8.588702E+05 -1.695565E+05 -5.220450E+05 -1.440339E-09  1.477812E-09
       224  19  5.318949E+05  2.150213E+06  5.144941E+05 -5.439881E+05 -2.187043E+04 -1.368655E+05
       224  20  3.676998E+05  1.621067E+06  3.201188E+05 -4.759728E+05 -6.553129E+04 -4.258704E+04
       224  21  2.366208E+05  1.112545E+06  1.952348E+05 -5.224726E+05 -5.863904E+04  5.166721E+04
       224  22  3.125214E+04  1.258612E+05  3.329164E+04 -5.221990E+05 -2.211670E+04 -2.106711E+04
       224  23  7.950487E+03  1.232836E+05  1.783788E+04 -4.649672E+05 -6.561403E+04 -1.199562E+04
       224  24  3.061429E+03  1.263655E+05  1.286021E+04 -5.222578E+05 -5.850557E+04 -2.868062E+03
       224  25 -4.696768E+05 -1.894709E+06 -4.481467E+05 -5.004778E+05 -2.235539E+04  9.435666E+04
       224  26 -3.519368E+05 -1.372364E+06 -2.845550E+05 -4.539866E+05 -6.569582E+04  1.852358E+04
       224  27 -2.305519E+05 -8.588657E+05 -1.695439E+05 -5.220423E+05 -5.837201E+04 -5.731908E+04
       225   1  1.564410E+05  7.709274E+05  1.314312E+05 -5.252292E+05  3.857041E+04 -4.834868E+04
       225   2  3.266194E+04  2.519801E+05  3.560044E+04 -4.641121E+05  9.082747E+03 -5.606213E+04
       225   3 -8.707727E+04 -2.651740E+05 -5.435125E+04 -5.205480E+05 -2.092917E+04 -6.377339E+04
       225   4  3.573937E+03  1.255202E+05  1.220548E+04 -5.229253E+05  3.844182E+04  8.184426E+02
       225   5  2.842307E+03  1.248525E+05  1.359215E+04 -4.641459E+05  8.949898E+03 -6.030854E+03
       225   6  6.012399E+03  1.255634E+05  2.025524E+04 -5.229192E+05 -2.106683E+04 -1.288402E+04
       225   7 -1.493156E+05 -5.194783E+05 -1.070285E+05 -5.206233E+05  3.831351E+04  4.993583E+04
       225   8 -2.697685E+04 -2.253876E+03 -8.407297E+03 -4.641796E+05  8.817025E+03  4.399049E+04
       225   9  9.909448E+04  5.164534E+05  9.486456E+04 -5.252918E+05 -2.120482E+04  3.803664E+04
       225  10  1.564387E+05  7.709245E+05  1.314240E+05 -5.252277E+05  6.683653E-10  2.651745E-09
       225  11  3.266101E+04  2.519767E+05  3.559439E+04 -4.641117E+05  9.539423E-10 -2.450898E-09
       225  12 -8.707883E+04 -2.651785E+05 -5.435973E+04 -5.205490E+05 -6.690803E-11 -4.226041E-09
       225  13  3.572350E+03  1.255198E+05  1.220270E+04 -5.229253E+05 -1.426769E-09 -1.958777E-09
       225  14  2.842212E+03  1.248524E+05  1.359193E+04 -4.641458E+05  3.934227E-10 -1.917058E-09
       225  15  6.011877E+03  1.255631E+05  2.025409E+04 -5.229194E+05 -1.322981E-09 -6.909617E-10
       225  16 -1.493178E+05 -5.194814E+05 -1.070360E+05 -5.206249E+05 -5.754026E-10 -4.607803E-09
       225  17 -2.697745E+04 -2.255976E+03 -8.411081E+03 -4.641799E+05 -1.125966E-10  2.005746E-09
       225  18  9.909361E+04  5.164517E+05  9.486100E+04 -5.252911E+05  4.395099E-10  2.674718E-09
       225  19  1.564410E+05  7.709274E+05  1.314312E+05 -5.252292E+05 -3.857041E+04  4.834868E+04
       225  20  3.266194E+04  2.519801E+05  3.560044E+04 -4.641121E+05 -9.082747E+03  5.606213E+04
       225  21 -8.707727E+04 -2.651740E+05 -5.435125E+04 -5.205480E+05  2.092917E+04  6.377339E+04
       225  22  3.573937E+03  1.255202E+05  1.220548E+04 -5.229253E+05 -3.844182E+04 -8.184426E+02
       225  23  2.842307E+03  1.248525E+05  1.359215E+04 -4.641459E+05 -8.949898E+03  6.030854E+03
       225  24  6.012399E+03  1.255634E+05  2.025524E+04 -5.229192E+05  2.106683E+04  1.288402E+04
       225  25 -1.493156E+05 -5.194783E+05 -1.070285E+05 -5.206233E+05 -3.831351E+04 -4.993583E+04
       225  26 -2.697685E+04 -2.253876E+03 -8.407297E+03 -4.641796E+05 -8.817025E+03 -4.399049E+04
       225  27  9.909448E+04  5.164534E+05  9.486456E+04 -5.252918E+05  2.120482E+04 -3.803664E+04
       226   1 -1.689455E+05 -6.023096E+05 -1.119367E+05 -5.256900E+05 -4.125849E+04 -7.186298E+04
       226   2 -2.799726E+05 -1.121209E+06 -2.094183E+05 -4.398381E+05 -5.213384E+04 -1.968126E+04
       226   3 -3.555504E+05 -1.638004E+06 -3.321199E+05 -4.689325E+05 -1.832909E+04  3.251439E+04
       226   4  4.713475E+03  1.284819E+05  2.546404E+04 -5.223515E+05 -4.140304E+04 -1.638103E+04
       226   5  1.945079E+04  1.208518E+05  4.423080E+04 -4.648129E+05 -5.207818E+04 -3.918384E+04
       226   6  8.262704E+04  1.280595E+05  8.985768E+04 -5.221832E+05 -1.811889E+04 -6.192917E+04
       226   7  1.783432E+05  8.597963E+05  1.628531E+05 -5.190086E+05 -4.154689E+04  3.916467E+04
       226   8  3.187799E+05  1.364383E+06  2.978002E+05 -4.898373E+05 -5.202101E+04 -5.872472E+04
       226   9  5.205935E+05  1.897012E+06  5.116505E+05 -5.755838E+05 -1.789286E+04 -1.566405E+05
       226  10 -1.689488E+05 -6.023156E+05 -1.119496E+05 -5.256923E+05  4.435515E-10  7.914940E-10
       226  11 -2.799756E+05 -1.121211E+06 -2.094242E+05 -4.398389E+05  2.667919E-09 -2.107854E-09
       226  12 -3.555510E+05 -1.638005E+06 -3.321226E+05 -4.689320E+05  1.147398E-09 -2.168369E-09
       226  13  4.711561E+03  1.284811E+05  2.546031E+04 -5.223521E+05  9.983863E-10 -1.950384E-09
       226  14  1.944747E+04  1.208495E+05  4.422282E+04 -4.648145E+05  1.082328E-10 -1.691634E-09
       226  15  8.262566E+04  1.280553E+05  8.984986E+04 -5.221841E+05  7.741346E-10 -6.084100E-10
       226  16  1.783409E+05  8.597942E+05  1.628470E+05 -5.190072E+05 -9.042182E-10 -2.554545E-09
       226  17  3.187761E+05  1.364379E+06  2.977887E+05 -4.898398E+05 -2.459668E-09  2.239972E-09
       226  18  5.205866E+05  1.896986E+06  5.116039E+05 -5.755861E+05 -1.393768E-09  1.286257E-09
       226  19 -1.689455E+05 -6.023096E+05 -1.119367E+05 -5.256900E+05  4.125849E+04  7.186298E+04
       226  20 -2.799726E+05 -1.121209E+06 -2.094183E+05 -4.398381E+05  5.213384E+04  1.968126E+04
       226  21 -3.555504E+05 -1.638004E+06 -3.321199E+05 -4.689325E+05  1.832909E+04 -3.251439E+04
       226  22  4.713475E+03  1.284819E+05  2.546404E+04 -5.223515E+05  4.140304E+04  1.638103E+04
       226  23  1.945079E+04  1.208518E+05  4.423080E+04 -4.648129E+05  5.207818E+04  3.918384E+04
       226  24  8.262704E+04  1.280595E+05  8.985768E+04 -5.221832E+05  1.811889E+04  6.192917E+04
       226  25  1.783432E+05  8.597963E+05  1.628531E+05 -5.190086E+05  4.154689E+04 -3.916467E+04
       226  26  3.187799E+05  1.364383E+06  2.978002E+05 -4.898373E+05  5.202101E+04  5.872472E+04
       226  27  5.205935E+05  1.897012E+06  5.116505E+05 -5.755838E+05  1.789286E+04  1.566405E+05
       227   1 -1.313363E+06 -6.052045E+05 -3.448548E+05 -5.342407E+05 -1.537399E+05 -4.490885E+04
       227   2 -1.235904E+06 -4.368360E+05 -2.129309E+05 -5.010579E+05 -9.605107E+04  5.836842E+03
       227   3 -1.183324E+06 -3.638783E+05 -1.531059E+05 -4.654497E+05 -3.057241E+04  3.592440E+04
       227   4 -5.911988E+05 -2.625985E+05 -1.443437E+05 -2.632559E+05 -9.759837E+04 -2.382038E+04
       227   5 -5.740451E+05 -1.621374E+05 -6.664297E+04 -2.854909E+05 -7.232168E+04  1.474668E+04
       227   6 -5.753047E+05 -1.506115E+05 -3.528293E+04 -3.053161E+05 -3.926947E+04  3.265271E+04
       227   7  1.314854E+05  8.013616E+04  5.613079E+04  8.043894E+03 -4.138622E+04 -2.689033E+03
       227   8  8.826348E+04  1.126313E+05  7.962022E+04 -6.970024E+04 -4.856511E+04  2.366977E+04
       227   9  3.310118E+04  6.268242E+04  8.252502E+04 -1.450389E+05 -4.797574E+04  2.937788E+04
       227  10 -1.313389E+06 -6.052130E+05 -3.449032E+05 -5.342463E+05 -2.268784E-13  5.516707E-10
       227  11 -1.235914E+06 -4.368386E+05 -2.129483E+05 -5.010575E+05  1.551979E-10 -1.526931E-09
       227  12 -1.183325E+06 -3.638800E+05 -1.531101E+05 -4.654489E+05 -3.242475E-10 -1.312556E-09
       227  13 -5.912092E+05 -2.626017E+05 -1.443627E+05 -2.632578E+05 -7.690091E-10  5.565406E-10
       227  14 -5.740508E+05 -1.621390E+05 -6.665322E+04 -2.854900E+05  9.390018E-10 -1.260732E-09
       227  15 -5.753067E+05 -1.506130E+05 -3.528783E+04 -3.053150E+05 -5.761172E-11 -7.223560E-10
       227  16  1.314835E+05  8.013569E+04  5.612756E+04  8.043804E+03 -1.399609E-09  1.282464E-10
       227  17  8.826080E+04  1.126301E+05  7.961474E+04 -6.969932E+04  2.437495E-09 -2.113234E-09
       227  18  3.309847E+04  6.268088E+04  8.251907E+04 -1.450377E+05  3.670386E-11 -5.773098E-10
       227  19 -1.313363E+06 -6.052045E+05 -3.448548E+05 -5.342407E+05  1.537399E+05  4.490885E+04
       227  20 -1.235904E+06 -4.368360E+05 -2.129309E+05 -5.010579E+05  9.605107E+04 -5.836842E+03
       227  21 -1.183324E+06 -3.638783E+05 -1.531059E+05 -4.654497E+05  3.057241E+04 -3.592440E+04
       227  22 -5.911988E+05 -2.625985E+05 -1.443437E+05 -2.632559E+05  9.759837E+04  2.382038E+04
       227  23 -5.740451E+05 -1.621374E+05 -6.664297E+04 -2.854909E+05  7.232168E+04 -1.474668E+04
       227  24 -5.753047E+05 -1.506115E+05 -3.528293E+04 -3.053161E+05  3.926947E+04 -3.265271E+04
       227  25  1.314854E+05  8.013616E+04  5.613079E+04  8.043894E+03  4.138622E+04  2.689033E+03
       227  26  8.826348E+04  1.126313E+05  7.962022E+04 -6.970024E+04  4.856511E+04 -2.366977E+04
       227  27  3.310118E+04  6.268242E+04  8.252502E+04 -1.450389E+05  4.797574E+04 -2.937788E+04
       228   1 -1.113723E+06 -3.527482E+05 -1.326226E+05 -4.555480E+05 -2.853904E+04  3.278694E+04
       228   2 -1.034875E+06 -3.082672E+05 -1.012191E+05 -4.232651E+05 -1.731238E+04  3.214791E+04
       228   3 -9.436444E+05 -2.830660E+05 -7.807016E+04 -4.076235E+05 -5.480866E+03  2.989649E+04
       228   4 -5.708909E+05 -1.530713E+05 -2.674067E+04 -3.027582E+05 -3.396721E+04  3.074426E+04
       228   5 -5.769729E+05 -1.412503E+05 -1.411125E+04 -2.953434E+05 -2.526692E+04  2.915806E+04
       228   6 -5.701763E+05 -1.482058E+05 -7.727400E+03 -3.045724E+05 -1.596335E+04  2.595957E+04
       228   7 -2.775735E+04  4.663156E+04  7.912680E+04 -1.498452E+05 -3.940042E+04  2.869965E+04
       228   8 -1.188521E+05  2.578603E+04  7.298818E+04 -1.673338E+05 -3.322775E+04  2.616583E+04
       228   9 -1.965589E+05 -1.333202E+04  6.261115E+04 -2.014628E+05 -2.645269E+04  2.202012E+04
       228  10 -1.113724E+06 -3.527496E+05 -1.326261E+05 -4.555472E+05 -4.518645E-09 -3.394813E-09
       228  11 -1.034875E+06 -3.082684E+05 -1.012216E+05 -4.232646E+05  1.082010E-08  3.211503E-09
       228  12 -9.436446E+05 -2.830669E+05 -7.807189E+04 -4.076234E+05  1.838083E-08  7.911060E-09
       228  13 -5.708924E+05 -1.530726E+05 -2.674461E+04 -3.027574E+05  5.312131E-10 -2.959216E-10
       228  14 -5.769738E+05 -1.412514E+05 -1.411405E+04 -2.953428E+05 -4.683615E-10  1.229899E-09
       228  15 -5.701768E+05 -1.482066E+05 -7.729145E+03 -3.045721E+05 -7.323211E-09 -1.243553E-09
       228  16 -2.775924E+04  4.663026E+04  7.912234E+04 -1.498443E+05  6.240343E-09  2.546187E-09
       228  17 -1.188534E+05  2.578500E+04  7.298481E+04 -1.673331E+05 -1.175467E-08 -2.913965E-09
       228  18 -1.965598E+05 -1.333273E+04  6.260892E+04 -2.014623E+05 -3.274407E-08 -1.046348E-08
       228  19 -1.113723E+06 -3.527482E+05 -1.326226E+05 -4.555480E+05  2.853904E+04 -3.278694E+04
       228  20 -1.034875E+06 -3.082672E+05 -1.012191E+05 -4.232651E+05  1.731238E+04 -3.214791E+04
       228  21 -9.436444E+05 -2.830660E+05 -7.807016E+04 -4.076235E+05  5.480866E+03 -2.989649E+04
       228  22 -5.708909E+05 -1.530713E+05 -2.674067E+04 -3.027582E+05  3.396721E+04 -3.074426E+04
       228  23 -5.769729E+05 -1.412503E+05 -1.411125E+04 -2.953434E+05  2.526692E+04 -2.915806E+04
       228  24 -5.701763E+05 -1.482058E+05 -7.727400E+03 -3.045724E+05  1.596335E+04 -2.595957E+04
       228  25 -2.775735E+04  4.663156E+04  7.912680E+04 -1.498452E+05  3.940042E+04 -2.869965E+04
       228  26 -1.188521E+05  2.578603E+04  7.298818E+04 -1.673338E+05  3.322775E+04 -2.616583E+04
       228  27 -1.965589E+05 -1.333202E+04  6.261115E+04 -2.014628E+05  2.645269E+04 -2.202012E+04
       229   1 -8.860511E+05 -2.628719E+05 -6.499899E+04 -3.921413E+05 -3.188278E+03  2.630782E+04
       229   2 -8.076609E+05 -2.240090E+05 -4.635407E+04 -3.596256E+05  1.079203E+03  2.040624E+04
       229   3 -7.143604E+05 -2.005766E+05 -2.909802E+04 -3.445274E+05  5.393350E+03  1.437682E+04
       229   4 -5.698326E+05 -1.483335E+05 -5.813307E+03 -3.044102E+05 -1.342146E+04  2.246550E+04
       229   5 -5.772872E+05 -1.405710E+05 -3.204444E+03 -2.957223E+05 -9.354387E+03  1.648985E+04
       229   6 -5.697994E+05 -1.481994E+05 -1.825307E+03 -3.044541E+05 -5.240928E+03  1.038632E+04
       229   7 -2.535094E+05 -3.378593E+04  5.336885E+04 -2.166376E+05 -2.366023E+04  1.862110E+04
       229   8 -3.468588E+05 -5.712855E+04  3.994324E+04 -2.317972E+05 -1.979207E+04  1.257194E+04
       229   9 -4.252176E+05 -9.582075E+04  2.544666E+04 -2.643725E+05 -1.587776E+04  6.394869E+03
       229  10 -8.860513E+05 -2.628727E+05 -6.500031E+04 -3.921412E+05 -3.223282E-08 -1.068509E-08
       229  11 -8.076610E+05 -2.240094E+05 -4.635486E+04 -3.596257E+05 -1.137736E-08 -2.567244E-09
       229  12 -7.143605E+05 -2.005769E+05 -2.909846E+04 -3.445274E+05  6.290054E-09  2.082283E-09
       229  13 -5.698330E+05 -1.483341E+05 -5.814594E+03 -3.044100E+05 -8.326871E-09 -1.683437E-09
       229  14 -5.772873E+05 -1.405713E+05 -3.205120E+03 -2.957222E+05 -2.034095E-09  2.906776E-10
       229  15 -5.697994E+05 -1.481995E+05 -1.825561E+03 -3.044541E+05 -7.999820E-10  3.455724E-10
       229  16 -2.535101E+05 -3.378646E+04  5.336714E+04 -2.166372E+05  1.805546E-08  7.212238E-09
       229  17 -3.468592E+05 -5.712883E+04  3.994221E+04 -2.317970E+05  1.027315E-08  2.986699E-09
       229  18 -4.252179E+05 -9.582086E+04  2.544611E+04 -2.643724E+05 -4.476206E-09 -1.702593E-09
       229  19 -8.860511E+05 -2.628719E+05 -6.499899E+04 -3.921413E+05  3.188278E+03 -2.630782E+04
       229  20 -8.076609E+05 -2.240090E+05 -4.635407E+04 -3.596256E+05 -1.079203E+03 -2.040624E+04
       229  21 -7.143604E+05 -2.005766E+05 -2.909802E+04 -3.445274E+05 -5.393350E+03 -1.437682E+04
       229  22 -5.698326E+05 -1.483335E+05 -5.813307E+03 -3.044102E+05  1.342146E+04 -2.246550E+04
       229  23 -5.772872E+05 -1.405710E+05 -3.204444E+03 -2.957223E+05  9.354387E+03 -1.648985E+04
       229  24 -5.697994E+05 -1.481994E+05 -1.825307E+03 -3.044541E+05  5.240928E+03 -1.038632E+04
       229  25 -2.535094E+05 -3.378593E+04  5.336885E+04 -2.166376E+05  2.366023E+04 -1.862110E+04
       229  26 -3.468588E+05 -5.712855E+04  3.994324E+04 -2.317972E+05  1.979207E+04 -1.257194E+04
       229  27 -4.252176E+05 -9.582075E+04  2.544666E+04 -2.643725E+05  1.587776E+04 -6.394869E+03
       230   1 -6.574283E+05 -1.799013E+05 -1.758507E+04 -3.287619E+05  7.123555E+03  1.053092E+04
       230   2 -5.791269E+05 -1.412100E+05 -1.268261E+03 -2.961762E+05  1.013839E+04  3.950436E+03
       230   3 -4.856667E+05 -1.177480E+05  1.469167E+04 -2.810153E+05  1.315650E+04 -2.638730E+03
       230   4 -5.697567E+05 -1.482066E+05 -1.420141E+03 -3.044388E+05 -3.493242E+03  6.547336E+03
       230   5 -5.773334E+05 -1.406000E+05 -9.312966E+02 -2.957217E+05 -4.928619E+02 -3.859548E+01
       230   6 -5.697582E+05 -1.482215E+05 -7.887796E+02 -3.044330E+05  2.510714E+03 -6.633210E+03
       230   7 -4.820760E+05 -1.165109E+05  1.474521E+04 -2.801123E+05 -1.411174E+04  2.563116E+03
       230   8 -5.755396E+05 -1.399899E+05 -5.938452E+02 -2.952671E+05 -1.112420E+04 -4.027656E+03
       230   9 -6.538420E+05 -1.786942E+05 -1.626901E+04 -3.278476E+05 -8.133535E+03 -1.062711E+04
       230  10 -6.574284E+05 -1.799014E+05 -1.758538E+04 -3.287619E+05 -3.314195E-10 -5.035043E-10
       230  11 -5.791270E+05 -1.412100E+05 -1.268483E+03 -2.961762E+05  2.178929E-09 -4.691932E-10
       230  12 -4.856669E+05 -1.177480E+05  1.469133E+04 -2.810153E+05  2.121106E-09 -1.062847E-09
       230  13 -5.697568E+05 -1.482067E+05 -1.420245E+03 -3.044388E+05 -5.617369E-10 -2.429049E-10
       230  14 -5.773334E+05 -1.406000E+05 -9.312971E+02 -2.957217E+05 -6.372174E-10 -4.741290E-10
       230  15 -5.697582E+05 -1.482215E+05 -7.888741E+02 -3.044330E+05  8.748627E-10 -3.828546E-10
       230  16 -4.820762E+05 -1.165109E+05  1.474483E+04 -2.801123E+05 -3.366737E-10  5.135205E-10
       230  17 -5.755398E+05 -1.399900E+05 -5.941086E+02 -2.952671E+05  1.199421E-09  4.553529E-12
       230  18 -6.538421E+05 -1.786944E+05 -1.626935E+04 -3.278477E+05 -2.185823E-09  1.206590E-10
       230  19 -6.574283E+05 -1.799013E+05 -1.758507E+04 -3.287619E+05 -7.123555E+03 -1.053092E+04
       230  20 -5.791269E+05 -1.412100E+05 -1.268261E+03 -2.961762E+05 -1.013839E+04 -3.950436E+03
       230  21 -4.856667E+05 -1.177480E+05  1.469167E+04 -2.810153E+05 -1.315650E+04  2.638730E+03
       230  22 -5.697567E+05 -1.482066E+05 -1.420141E+03 -3.044388E+05  3.493242E+03 -6.547336E+03
       230  23 -5.773334E+05 -1.406000E+05 -9.312966E+02 -2.957217E+05  4.928619E+02  3.859548E+01
       230  24 -5.697582E+05 -1.482215E+05 -7.887796E+02 -3.044330E+05 -2.510714E+03  6.633210E+03
       230  25 -4.820760E+05 -1.165109E+05  1.474521E+04 -2.801123E+05  1.411174E+04 -2.563116E+03
       230  26 -5.755396E+05 -1.399899E+05 -5.938452E+02 -2.952671E+05  1.112420E+04  4.027656E+03
       230  27 -6.538420E+05 -1.786942E+05 -1.626901E+04 -3.278476E+05  8.133535E+03  1.062711E+04
       231   1 -4.288018E+05 -9.704797E+04  2.575953E+04 -2.652355E+05  1.476978E+04 -6.530715E+03
       231   2 -3.505291E+05 -5.836926E+04  4.126833E+04 -2.326588E+05  1.784547E+04 -1.309318E+04
       231   3 -2.571068E+05 -3.491003E+04  5.637851E+04 -2.174988E+05  2.091713E+04 -1.964096E+04
       231   4 -5.697649E+05 -1.482231E+05 -8.226079E+02 -3.044315E+05  4.124736E+03 -1.052525E+04
       231   5 -5.773407E+05 -1.406152E+05 -1.121955E+03 -2.957228E+05  7.222152E+03 -1.708071E+04
       231   6 -5.697787E+05 -1.482319E+05 -1.837227E+03 -3.044338E+05  1.031546E+04 -2.362152E+04
       231   7 -7.107057E+05 -1.993959E+05 -2.740471E+04 -3.436189E+05 -6.517622E+03 -1.451877E+04
       231   8 -8.040983E+05 -2.228563E+05 -4.351378E+04 -3.587652E+05 -3.397015E+03 -2.106667E+04
       231   9 -8.823508E+05 -2.615457E+05 -6.005706E+04 -3.913288E+05 -2.805835E+02 -2.759998E+04
       231  10 -4.288021E+05 -9.704807E+04  2.575904E+04 -2.652354E+05  2.824467E-09 -9.992118E-10
       231  11 -3.505294E+05 -5.836953E+04  4.126741E+04 -2.326586E+05 -6.362839E-09 -1.402454E-09
       231  12 -2.571074E+05 -3.491056E+04  5.637696E+04 -2.174984E+05 -4.172698E-09  2.231857E-10
       231  13 -5.697650E+05 -1.482233E+05 -8.228480E+02 -3.044315E+05 -3.548561E-09 -1.087366E-09
       231  14 -5.773408E+05 -1.406155E+05 -1.122601E+03 -2.957227E+05 -5.513723E-09 -2.412086E-09
       231  15 -5.697789E+05 -1.482325E+05 -1.838475E+03 -3.044336E+05 -1.872901E-09 -9.061393E-10
       231  16 -7.107058E+05 -1.993962E+05 -2.740518E+04 -3.436190E+05 -7.271179E-09 -1.481269E-09
       231  17 -8.040984E+05 -2.228568E+05 -4.351463E+04 -3.587653E+05 -8.940657E-09 -2.118055E-09
       231  18 -8.823510E+05 -2.615466E+05 -6.005849E+04 -3.913288E+05  6.305625E-10 -2.004107E-09
       231  19 -4.288018E+05 -9.704797E+04  2.575953E+04 -2.652355E+05 -1.476978E+04  6.530715E+03
       231  20 -3.505291E+05 -5.836926E+04  4.126833E+04 -2.326588E+05 -1.784547E+04  1.309318E+04
       231  21 -2.571068E+05 -3.491003E+04  5.637851E+04 -2.174988E+05 -2.091713E+04  1.964096E+04
       231  22 -5.697649E+05 -1.482231E+05 -8.226079E+02 -3.044315E+05 -4.124736E+03  1.052525E+04
       231  23 -5.773407E+05 -1.406152E+05 -1.121955E+03 -2.957228E+05 -7.222152E+03  1.708071E+04
       231  24 -5.697787E+05 -1.482319E+05 -1.837227E+03 -3.044338E+05 -1.031546E+04  2.362152E+04
       231  25 -7.107057E+05 -1.993959E+05 -2.740471E+04 -3.436189E+05  6.517622E+03  1.451877E+04
       231  26 -8.040983E+05 -2.228563E+05 -4.351378E+04 -3.587652E+05  3.397015E+03  2.106667E+04
       231  27 -8.823508E+05 -2.615457E+05 -6.005706E+04 -3.913288E+05  2.805835E+02  2.759998E+04
       232   1 -2.003188E+05 -1.424130E+04  6.691174E+04 -2.017720E+05  2.276659E+04 -2.343487E+04
       232   2 -1.220540E+05  2.440530E+04  8.090409E+04 -1.692209E+05  2.714832E+04 -2.940203E+04
       232   3 -2.888463E+04  4.766867E+04  9.346237E+04 -1.540582E+05  3.147093E+04 -3.520357E+04
       232   4 -5.698445E+05 -1.482260E+05 -2.399408E+03 -3.044513E+05  1.214439E+04 -2.742418E+04
       232   5 -5.772966E+05 -1.406087E+05 -4.277188E+03 -2.957237E+05  1.678352E+04 -3.329699E+04
       232   6 -5.699022E+05 -1.484273E+05 -7.793808E+03 -3.043887E+05  2.136322E+04 -3.900420E+04
       232   7 -9.392271E+05 -2.821981E+05 -7.171546E+04 -4.070736E+05  1.528951E+03 -3.141097E+04
       232   8 -1.032320E+06 -3.056028E+05 -8.946556E+04 -4.221397E+05  6.426894E+03 -3.718890E+04
       232   9 -1.110608E+06 -3.444945E+05 -1.090597E+05 -4.545960E+05  1.126501E+04 -4.280127E+04
       232  10 -2.003195E+05 -1.424203E+04  6.690973E+04 -2.017716E+05  2.375950E-08  1.114636E-08
       232  11 -1.220551E+05  2.440418E+04  8.090108E+04 -1.692203E+05  4.473713E-09  2.865768E-09
       232  12 -2.888603E+04  4.766707E+04  9.345818E+04 -1.540574E+05 -2.266379E-08 -7.140435E-09
       232  13 -5.698448E+05 -1.482268E+05 -2.401098E+03 -3.044510E+05  2.548129E-09  1.613124E-09
       232  14 -5.772972E+05 -1.406099E+05 -4.279800E+03 -2.957233E+05  4.801911E-09  2.987159E-09
       232  15 -5.699031E+05 -1.484290E+05 -7.797523E+03 -3.043880E+05  2.036418E-09  1.366577E-09
       232  16 -9.392273E+05 -2.821992E+05 -7.171732E+04 -4.070736E+05 -1.980878E-08 -8.999293E-09
       232  17 -1.032320E+06 -3.056043E+05 -8.946823E+04 -4.221395E+05  6.841963E-09  2.450832E-09
       232  18 -1.110609E+06 -3.444965E+05 -1.090634E+05 -4.545956E+05  2.527010E-08  1.215628E-08
       232  19 -2.003188E+05 -1.424130E+04  6.691174E+04 -2.017720E+05 -2.276659E+04  2.343487E+04
       232  20 -1.220540E+05  2.440530E+04  8.090409E+04 -1.692209E+05 -2.714832E+04  2.940203E+04
       232  21 -2.888463E+04  4.766867E+04  9.346237E+04 -1.540582E+05 -3.147093E+04  3.520357E+04
       232  22 -5.698445E+05 -1.482260E+05 -2.399408E+03 -3.044513E+05 -1.214439E+04  2.742418E+04
       232  23 -5.772966E+05 -1.406087E+05 -4.277188E+03 -2.957237E+05 -1.678352E+04  3.329699E+04
       232  24 -5.699022E+05 -1.484273E+05 -7.793808E+03 -3.043887E+05 -2.136322E+04  3.900420E+04
       232  25 -9.392271E+05 -2.821981E+05 -7.171546E+04 -4.070736E+05 -1.528951E+03  3.141097E+04
       232  26 -1.032320E+06 -3.056028E+05 -8.946556E+04 -4.221397E+05 -6.426894E+03  3.718890E+04
       232  27 -1.110608E+06 -3.444945E+05 -1.090597E+05 -4.545960E+05 -1.126501E+04  4.280127E+04
       233   1  2.798086E+04  6.801293E+04  1.020396E+05 -1.390939E+05  3.469409E+04 -3.841767E+04
       233   2  1.053244E+05  1.072176E+05  1.104515E+05 -1.044639E+05  4.309979E+04 -4.164323E+04
       233   3  1.953950E+05  1.271012E+05  1.130529E+05 -8.616602E+04  5.073436E+04 -4.280594E+04
       233   4 -5.703621E+05 -1.482567E+05 -1.036686E+04 -3.046017E+05  2.426772E+04 -4.233965E+04
       233   5 -5.768844E+05 -1.415426E+05 -1.894780E+04 -2.952141E+05  3.590677E+04 -4.435323E+04
       233   6 -5.713322E+05 -1.547974E+05 -3.590888E+04 -3.021642E+05  4.677332E+04 -4.430308E+04
       233   7 -1.168337E+06 -3.644964E+05 -1.227888E+05 -4.699631E+05  1.385200E+04 -4.625769E+04
       233   8 -1.258611E+06 -3.902607E+05 -1.483669E+05 -4.857703E+05  2.872218E+04 -4.706006E+04
       233   9 -1.337449E+06 -4.366404E+05 -1.848966E+05 -5.179140E+05  4.281750E+04 -4.579821E+04
       233  10  2.797917E+04  6.801102E+04  1.020346E+05 -1.390929E+05  1.170384E-09  5.990708E-10
       233  11  1.053219E+05  1.072152E+05  1.104447E+05 -1.044625E+05  2.892671E-10 -1.777187E-09
       233  12  1.953917E+05  1.270985E+05  1.130446E+05 -8.616427E+04 -8.131574E-10 -1.315579E-09
       233  13 -5.703632E+05 -1.482587E+05 -1.037133E+04 -3.046009E+05  1.597192E-11 -7.162168E-10
       233  14 -5.768863E+05 -1.415450E+05 -1.895391E+04 -2.952128E+05  1.550674E-09 -1.822287E-09
       233  15 -5.713351E+05 -1.548001E+05 -3.591668E+04 -3.021625E+05  1.230000E-09 -2.444583E-09
       233  16 -1.168337E+06 -3.644987E+05 -1.227932E+05 -4.699626E+05 -1.098422E-10  1.383827E-09
       233  17 -1.258612E+06 -3.902633E+05 -1.483726E+05 -4.857692E+05  1.787471E-09 -1.195943E-09
       233  18 -1.337451E+06 -4.366432E+05 -1.849040E+05 -5.179124E+05  1.222239E-09 -2.104540E-09
       233  19  2.798086E+04  6.801293E+04  1.020396E+05 -1.390939E+05 -3.469409E+04  3.841767E+04
       233  20  1.053244E+05  1.072176E+05  1.104515E+05 -1.044639E+05 -4.309979E+04  4.164323E+04
       233  21  1.953950E+05  1.271012E+05  1.130529E+05 -8.616602E+04 -5.073436E+04  4.280594E+04
       233  22 -5.703621E+05 -1.482567E+05 -1.036686E+04 -3.046017E+05 -2.426772E+04  4.233965E+04
       233  23 -5.768844E+05 -1.415426E+05 -1.894780E+04 -2.952141E+05 -3.590677E+04  4.435323E+04
       233  24 -5.713322E+05 -1.547974E+05 -3.590888E+04 -3.021642E+05 -4.677332E+04  4.430308E+04
       233  25 -1.168337E+06 -3.644964E+05 -1.227888E+05 -4.699631E+05 -1.385200E+04  4.625769E+04
       233  26 -1.258611E+06 -3.902607E+05 -1.483669E+05 -4.857703E+05 -2.872218E+04  4.706006E+04
       233  27 -1.337449E+06 -4.366404E+05 -1.848966E+05 -5.179140E+05 -4.281750E+04  4.579821E+04
       234   1  2.574476E+05  1.414758E+05  1.137295E+05 -8.515771E+04  6.154609E+04 -4.246334E+04
       234   2  3.045763E+05  1.952350E+05  1.035589E+05  4.911300E+03  6.381259E+04 -3.241604E+04
       234   3  3.300864E+05  1.431175E+05  6.411573E+04  1.041796E+05  5.613074E+04  4.040608E+03
       234   4 -5.772421E+05 -1.515093E+05 -4.738008E+04 -3.056154E+05  5.339605E+04 -4.553653E+04
       234   5 -5.729842E+05 -1.695628E+05 -8.949541E+04 -2.819596E+05  9.717629E+04 -1.987016E+04
       234   6 -5.986383E+05 -3.018236E+05 -1.938342E+05 -2.490977E+05  1.309970E+05  3.222207E+04
       234   7 -1.411209E+06 -4.444448E+05 -2.085195E+05 -5.258036E+05  4.525775E+04 -4.860570E+04
       234   8 -1.449736E+06 -5.342284E+05 -2.825870E+05 -5.684304E+05  1.304887E+05 -7.349307E+03
       234   9 -1.526457E+06 -7.465209E+05 -4.518300E+05 -6.018294E+05  2.057389E+05  6.032752E+04
       234  10  2.574430E+05  1.414728E+05  1.137190E+05 -8.515561E+04 -2.462733E-09 -2.430624E-09
       234  11  3.045716E+05  1.952328E+05  1.035493E+05  4.912965E+03 -1.290591E-09 -1.999963E-09
       234  12  3.300830E+05  1.431166E+05  6.410978E+04  1.041794E+05 -1.763914E-10 -7.436599E-10
       234  13 -5.772457E+05 -1.515123E+05 -4.738934E+04 -3.056135E+05  1.386740E-10 -2.206606E-09
       234  14 -5.729945E+05 -1.695658E+05 -8.951391E+04 -2.819581E+05 -1.053164E-09  3.572760E-09
       234  15 -5.986571E+05 -3.018294E+05 -1.938684E+05 -2.491011E+05 -5.916293E-10  2.314820E-09
       234  16 -1.411212E+06 -4.444479E+05 -2.085278E+05 -5.258018E+05  2.734841E-09 -5.359260E-10
       234  17 -1.449754E+06 -5.342330E+05 -2.826191E+05 -5.684296E+05 -2.754896E-10  9.925722E-10
       234  18 -1.526504E+06 -7.465362E+05 -4.519166E+05 -6.018394E+05  9.736888E-11 -1.289722E-09
       234  19  2.574476E+05  1.414758E+05  1.137295E+05 -8.515771E+04 -6.154609E+04  4.246334E+04
       234  20  3.045763E+05  1.952350E+05  1.035589E+05  4.911300E+03 -6.381259E+04  3.241604E+04
       234  21  3.300864E+05  1.431175E+05  6.411573E+04  1.041796E+05 -5.613074E+04 -4.040608E+03
       234  22 -5.772421E+05 -1.515093E+05 -4.738008E+04 -3.056154E+05 -5.339605E+04  4.553653E+04
       234  23 -5.729842E+05 -1.695628E+05 -8.949541E+04 -2.819596E+05 -9.717629E+04  1.987016E+04
       234  24 -5.986383E+05 -3.018236E+05 -1.938342E+05 -2.490977E+05 -1.309970E+05 -3.222207E+04
       234  25 -1.411209E+06 -4.444448E+05 -2.085195E+05 -5.258036E+05 -4.525775E+04  4.860570E+04
       234  26 -1.449736E+06 -5.342284E+05 -2.825870E+05 -5.684304E+05 -1.304887E+05  7.349307E+03
       234  27 -1.526457E+06 -7.465209E+05 -4.518300E+05 -6.018294E+05 -2.057389E+05 -6.032752E+04
       235   1  1.237465E+06  1.653152E+05  1.432374E+05  4.620386E+03  1.272579E+04 -1.457522E+04
       235   2  1.186034E+06  2.092115E+05  1.390283E+05  2.805860E+04 -3.877601E+03 -4.929340E+04
       235   3  1.126093E+06  2.101895E+05  1.349412E+05  6.246336E+04 -2.052122E+04 -6.002798E+04
       235   4  2.224533E+05 -8.478588E+04 -9.428354E+04  5.609861E+04 -6.574379E+04 -1.472903E+04
       235   5  2.302289E+05 -1.863807E+04 -4.579592E+04  5.052454E+04 -4.201043E+04 -4.938074E+04
       235   6  2.224771E+05 -2.445956E+03 -2.518895E+04  5.591783E+04 -1.831819E+04 -6.003041E+04
       235   7 -7.915911E+05 -3.349466E+05 -3.318500E+05  1.074918E+05 -1.440860E+05 -1.489596E+04
       235   8 -7.246948E+05 -2.465392E+05 -2.306570E+05  7.295468E+04 -8.008592E+04 -4.947091E+04
       235   9 -6.803426E+05 -2.151262E+05 -1.853494E+05  4.938162E+04 -1.611825E+04 -6.003289E+04
       235  10  1.237464E+06  1.653150E+05  1.432367E+05  4.620536E+03  4.621109E-09 -1.016080E-09
       235  11  1.186033E+06  2.092089E+05  1.390237E+05  2.805845E+04  3.415553E-09 -5.474304E-09
       235  12  1.126092E+06  2.101855E+05  1.349336E+05  6.246237E+04  8.908129E-10 -4.208730E-09
       235  13  2.224486E+05 -8.478727E+04 -9.429207E+04  5.609783E+04 -1.473800E-09  5.979655E-10
       235  14  2.302263E+05 -1.864116E+04 -4.580381E+04  5.052286E+04 -2.579608E-10 -3.693034E-09
       235  15  2.224758E+05 -2.449916E+03 -2.519635E+04  5.591695E+04 -6.494899E-10 -7.620035E-10
       235  16 -7.916135E+05 -3.349524E+05 -3.318895E+05  1.074901E+05 -5.844966E-09 -2.524480E-10
       235  17 -7.247023E+05 -2.465436E+05 -2.306737E+05  7.295149E+04 -4.916857E-09 -7.916166E-09
       235  18 -6.803438E+05 -2.151301E+05 -1.853567E+05  4.938084E+04  9.556698E-10 -7.360511E-09
       235  19  1.237465E+06  1.653152E+05  1.432374E+05  4.620386E+03 -1.272579E+04  1.457522E+04
       235  20  1.186034E+06  2.092115E+05  1.390283E+05  2.805860E+04  3.877601E+03  4.929340E+04
       235  21  1.126093E+06  2.101895E+05  1.349412E+05  6.246336E+04  2.052122E+04  6.002798E+04
       235  22  2.224533E+05 -8.478588E+04 -9.428354E+04  5.609861E+04  6.574379E+04  1.472903E+04
       235  23  2.302289E+05 -1.863807E+04 -4.579592E+04  5.052454E+04  4.201043E+04  4.938074E+04
       235  24  2.224771E+05 -2.445956E+03 -2.518895E+04  5.591783E+04  1.831819E+04  6.003041E+04
       235  25 -7.915911E+05 -3.349466E+05 -3.318500E+05  1.074918E+05  1.440860E+05  1.489596E+04
       235  26 -7.246948E+05 -2.465392E+05 -2.306570E+05  7.295468E+04  8.008592E+04  4.947091E+04
       235  27 -6.803426E+05 -2.151262E+05 -1.853494E+05  4.938162E+04  1.611825E+04  6.003289E+04
       236   1  1.092020E+06  1.998516E+05  1.329617E+05  5.630877E+04 -1.449621E+04 -5.880684E+04
       236   2  1.037102E+06  1.893957E+05  1.285079E+05  5.115235E+04 -1.280417E+04 -5.806835E+04
       236   3  9.814777E+05  1.770056E+05  1.224734E+05  5.844618E+04 -1.111908E+04 -5.519762E+04
       236   4  2.256444E+05 -3.712218E+03 -1.918306E+04  5.627181E+04 -1.503903E+04 -5.881542E+04
       236   5  2.263244E+05 -4.535324E+02 -1.056050E+04  5.004094E+04 -9.765981E+03 -5.806744E+04
       236   6  2.256727E+05  2.480638E+02 -6.006488E+03  5.626141E+04 -4.499657E+03 -5.518585E+04
       236   7 -6.399976E+05 -2.073170E+05 -1.713549E+05  5.623444E+04 -1.558111E+04 -5.882402E+04
       236   8 -5.838084E+05 -1.903379E+05 -1.496510E+05  4.893061E+04 -6.731624E+03 -5.806656E+04
       236   9 -5.295709E+05 -1.765397E+05 -1.345049E+05  5.407899E+04  2.111973E+03 -5.517411E+04
       236  10  1.092019E+06  1.998479E+05  1.329548E+05  5.630809E+04 -6.902763E-09 -4.799934E-09
       236  11  1.037101E+06  1.893921E+05  1.285013E+05  5.115175E+04 -1.906322E-09  2.701201E-09
       236  12  9.814768E+05  1.770023E+05  1.224674E+05  5.844569E+04  5.211183E-10  3.089779E-09
       236  13  2.256432E+05 -3.715994E+03 -1.918998E+04  5.627109E+04 -1.716596E-09 -2.895417E-09
       236  14  2.263233E+05 -4.571791E+02 -1.056701E+04  5.004048E+04 -2.098960E-10  7.551854E-10
       236  15  2.256718E+05  2.447877E+02 -6.012249E+03  5.626121E+04  2.974682E-10 -2.175180E-09
       236  16 -6.399988E+05 -2.073208E+05 -1.713619E+05  5.623370E+04  7.364201E-09 -1.680155E-10
       236  17 -5.838094E+05 -1.903415E+05 -1.496575E+05  4.893030E+04  1.137441E-09  2.173607E-09
       236  18 -5.295717E+05 -1.765430E+05 -1.345106E+05  5.407908E+04 -1.108659E-09  8.165101E-11
       236  19  1.092020E+06  1.998516E+05  1.329617E+05  5.630877E+04  1.449621E+04  5.880684E+04
       236  20  1.037102E+06  1.893957E+05  1.285079E+05  5.115235E+04  1.280417E+04  5.806835E+04
       236  21  9.814777E+05  1.770056E+05  1.224734E+05  5.844618E+04  1.111908E+04  5.519762E+04
       236  22  2.256444E+05 -3.712218E+03 -1.918306E+04  5.627181E+04  1.503903E+04  5.881542E+04
       236  23  2.263244E+05 -4.535324E+02 -1.056050E+04  5.004094E+04  9.765981E+03  5.806744E+04
       236  24  2.256727E+05  2.480638E+02 -6.006488E+03  5.626141E+04  4.499657E+03  5.518585E+04
       236  25 -6.399976E+05 -2.073170E+05 -1.713549E+05  5.623444E+04  1.558111E+04  5.882402E+04
       236  26 -5.838084E+05 -1.903379E+05 -1.496510E+05  4.893061E+04  6.731624E+03  5.806656E+04
       236  27 -5.295709E+05 -1.765397E+05 -1.345049E+05  5.407899E+04 -2.111973E+03  5.517411E+04
       237   1  9.456264E+05  1.684148E+05  1.174530E+05  5.803313E+04 -9.952859E+03 -5.286604E+04
       237   2  8.905474E+05  1.555798E+05  1.098829E+05  5.164037E+04 -8.994942E+03 -4.898313E+04
       237   3  8.353052E+05  1.427442E+05  1.016788E+05  5.781069E+04 -8.039585E+03 -4.491229E+04
       237   4  2.259297E+05  1.671498E+02 -4.556922E+03  5.628802E+04 -3.581171E+03 -5.285391E+04
       237   5  2.260524E+05  2.687067E+02 -2.586475E+03  5.000588E+04 -2.308725E+03 -4.896855E+04
       237   6  2.259538E+05  3.150445E+02 -1.469122E+03  5.628761E+04 -1.038756E+03 -4.489516E+04
       237   7 -4.932575E+05 -1.681078E+05 -1.265834E+05  5.454464E+04  2.783378E+03 -5.284181E+04
       237   8 -4.380083E+05 -1.550657E+05 -1.150699E+05  4.837288E+04  4.370576E+03 -4.895401E+04
       237   9 -3.830322E+05 -1.421337E+05 -1.046289E+05  5.476579E+04  5.955430E+03 -4.487806E+04
       237  10  9.456256E+05  1.684118E+05  1.174475E+05  5.803270E+04 -1.872208E-09  4.537697E-09
       237  11  8.905467E+05  1.555772E+05  1.098782E+05  5.164001E+04  1.779031E-09  4.354724E-09
       237  12  8.353046E+05  1.427421E+05  1.016749E+05  5.781040E+04  2.843238E-09  7.940477E-11
       237  13  2.259290E+05  1.641463E+02 -4.562196E+03  5.628787E+04 -1.979846E-09 -3.796700E-09
       237  14  2.260517E+05  2.661301E+02 -2.590992E+03  5.000579E+04  3.650729E-10  2.577917E-09
       237  15  2.259533E+05  3.128796E+02 -1.472912E+03  5.628757E+04 -3.264337E-10  5.901675E-09
       237  16 -4.932583E+05 -1.681108E+05 -1.265887E+05  5.454476E+04  2.378086E-09  1.156798E-09
       237  17 -4.380089E+05 -1.550682E+05 -1.150745E+05  4.837306E+04 -3.818125E-09  3.975031E-09
       237  18 -3.830327E+05 -1.421359E+05 -1.046327E+05  5.476600E+04 -4.470762E-09  1.390867E-09
       237  19  9.456264E+05  1.684148E+05  1.174530E+05  5.803313E+04  9.952859E+03  5.286604E+04
       237  20  8.905474E+05  1.555798E+05  1.098829E+05  5.164037E+04  8.994942E+03  4.898313E+04
       237  21  8.353052E+05  1.427442E+05  1.016788E+05  5.781069E+04  8.039585E+03  4.491229E+04
       237  22  2.259297E+05  1.671498E+02 -4.556922E+03  5.628802E+04  3.581171E+03  5.285391E+04
       237  23  2.260524E+05  2.687067E+02 -2.586475E+03  5.000588E+04  2.308725E+03  4.896855E+04
       237  24  2.259538E+05  3.150445E+02 -1.469122E+03  5.628761E+04  1.038756E+03  4.489516E+04
       237  25 -4.932575E+05 -1.681078E+05 -1.265834E+05  5.454464E+04 -2.783378E+03  5.284181E+04
       237  26 -4.380083E+05 -1.550657E+05 -1.150699E+05  4.837288E+04 -4.370576E+03  4.895401E+04
       237  27 -3.830322E+05 -1.421337E+05 -1.046289E+05  5.476579E+04 -5.955430E+03  4.487806E+04
       238   1  7.993847E+05  1.342929E+05  9.571519E+04  5.771594E+04 -7.788533E+03 -4.248609E+04
       238   2  7.443368E+05  1.214100E+05  8.699539E+04  5.131483E+04 -7.523859E+03 -3.832972E+04
       238   3  6.892098E+05  1.086090E+05  7.810492E+04  5.747149E+04 -7.260825E+03 -3.415819E+04
       238   4  2.259918E+05  3.142232E+02 -1.105121E+03  5.628650E+04 -8.121620E+02 -4.246817E+04
       238   5  2.260450E+05  2.852344E+02 -6.080239E+02  5.000731E+04 -5.225987E+02 -3.831043E+04
       238   6  2.260107E+05  3.335909E+02 -2.993768E+02  5.628649E+04 -2.346532E+02 -3.413752E+04
       238   7 -3.470775E+05 -1.336817E+05 -9.793577E+04  5.485816E+04  6.157982E+03 -4.245026E+04
       238   8 -2.919825E+05 -1.208537E+05 -8.821987E+04  4.870070E+04  6.473011E+03 -3.829116E+04
       238   9 -2.369773E+05 -1.079531E+05 -7.871040E+04  5.510223E+04  6.786450E+03 -3.411688E+04
       238  10  7.993841E+05  1.342909E+05  9.571169E+04  5.771568E+04  2.082108E-09  1.450630E-09
       238  11  7.443364E+05  1.214084E+05  8.699252E+04  5.131460E+04  2.818036E-09  1.102405E-08
       238  12  6.892095E+05  1.086078E+05  7.810263E+04  5.747129E+04  2.587421E-09  7.037263E-09
       238  13  2.259913E+05  3.122861E+02 -1.108512E+03  5.628647E+04 -2.975034E-09  1.925545E-09
       238  14  2.260446E+05  2.836581E+02 -6.107827E+02  5.000729E+04 -1.589335E-09  7.492084E-09
       238  15  2.260104E+05  3.323393E+02 -3.015671E+02  5.628648E+04 -1.953232E-10  2.368123E-09
       238  16 -3.470780E+05 -1.336836E+05 -9.793923E+04  5.485837E+04 -1.834957E-09 -8.048541E-11
       238  17 -2.919829E+05 -1.208553E+05 -8.822271E+04  4.870090E+04 -4.249862E-09  7.462464E-10
       238  18 -2.369776E+05 -1.079544E+05 -7.871268E+04  5.510241E+04 -1.405156E-09 -1.199723E-10
       238  19  7.993847E+05  1.342929E+05  9.571519E+04  5.771594E+04  7.788533E+03  4.248609E+04
       238  20  7.443368E+05  1.214100E+05  8.699539E+04  5.131483E+04  7.523859E+03  3.832972E+04
       238  21  6.892098E+05  1.086090E+05  7.810492E+04  5.747149E+04  7.260825E+03  3.415819E+04
       238  22  2.259918E+05  3.142232E+02 -1.105121E+03  5.628650E+04  8.121620E+02  4.246817E+04
       238  23  2.260450E+05  2.852344E+02 -6.080239E+02  5.000731E+04  5.225987E+02  3.831043E+04
       238  24  2.260107E+05  3.335909E+02 -2.993768E+02  5.628649E+04  2.346532E+02  3.413752E+04
       238  25 -3.470775E+05 -1.336817E+05 -9.793577E+04  5.485816E+04 -6.157982E+03  4.245026E+04
       238  26 -2.919825E+05 -1.208537E+05 -8.821987E+04  4.870070E+04 -6.473011E+03  3.829116E+04
       238  27 -2.369773E+05 -1.079531E+05 -7.871040E+04  5.510223E+04 -6.786450E+03  3.411688E+04
       239   1  6.533123E+05  1.001763E+05  7.190663E+04  5.739063E+04 -7.219943E+03 -3.172615E+04
       239   2  5.983130E+05  8.730521E+04  6.291227E+04  5.099284E+04 -7.229148E+03 -2.755062E+04
       239   3  5.432490E+05  7.452056E+04  5.392021E+04  5.714702E+04 -7.239474E+03 -2.337701E+04
       239   4  2.260216E+05  3.390195E+02 -1.878865E+02  5.628517E+04 -1.975429E+02 -3.170484E+04
       239   5  2.260615E+05  3.044506E+02 -3.170186E-02  5.000897E+04 -2.102362E+02 -2.752839E+04
       239   6  2.260352E+05  3.572288E+02  1.926596E+02  5.628516E+04 -2.240506E+02 -2.335386E+04
       239   7 -2.010893E+05 -9.950782E+04 -7.228804E+04  5.518035E+04  6.820185E+03 -3.168354E+04
       239   8 -1.460535E+05 -8.670358E+04 -6.291659E+04  4.902559E+04  6.804607E+03 -2.750617E+04
       239   9 -9.107953E+04 -7.381139E+04 -5.353796E+04  5.542366E+04  6.787906E+03 -2.333073E+04
       239  10  6.533120E+05  1.001752E+05  7.190464E+04  5.739044E+04  1.392169E-08  1.621093E-10
       239  11  5.983127E+05  8.730438E+04  6.291074E+04  5.099268E+04  4.528223E-09 -1.314070E-09
       239  12  5.432488E+05  7.451996E+04  5.391909E+04  5.714688E+04 -7.693260E-09 -3.092735E-09
       239  13  2.260213E+05  3.379400E+02 -1.897757E+02  5.628517E+04  3.623218E-10  8.570811E-09
       239  14  2.260613E+05  3.036368E+02 -1.456010E+00  5.000896E+04 -1.089331E-09 -1.168681E-11
       239  15  2.260351E+05  3.566430E+02  1.916345E+02  5.628515E+04  6.952080E-10 -2.196603E-09
       239  16 -2.010896E+05 -9.950892E+04 -7.229002E+04  5.518052E+04 -1.280768E-08  4.406635E-09
       239  17 -1.460538E+05 -8.670441E+04 -6.291810E+04  4.902574E+04 -6.496335E-09 -4.800476E-09
       239  18 -9.107973E+04 -7.381198E+04 -5.353907E+04  5.542379E+04  6.927807E-09 -2.810772E-09
       239  19  6.533123E+05  1.001763E+05  7.190663E+04  5.739063E+04  7.219943E+03  3.172615E+04
       239  20  5.983130E+05  8.730521E+04  6.291227E+04  5.099284E+04  7.229148E+03  2.755062E+04
       239  21  5.432490E+05  7.452056E+04  5.392021E+04  5.714702E+04  7.239474E+03  2.337701E+04
       239  22  2.260216E+05  3.390195E+02 -1.878865E+02  5.628517E+04  1.975429E+02  3.170484E+04
       239  23  2.260615E+05  3.044506E+02 -3.170186E-02  5.000897E+04  2.102362E+02  2.752839E+04
       239  24  2.260352E+05  3.572288E+02  1.926596E+02  5.628516E+04  2.240506E+02  2.335386E+04
       239  25 -2.010893E+05 -9.950782E+04 -7.228804E+04  5.518035E+04 -6.820185E+03  3.168354E+04
       239  26 -1.460535E+05 -8.670358E+04 -6.291659E+04  4.902559E+04 -6.804607E+03  2.750617E+04
       239  27 -9.107953E+04 -7.381139E+04 -5.353796E+04  5.542366E+04 -6.787906E+03  2.333073E+04
       240   1  5.073853E+05  6.609059E+04  4.772724E+04  5.706444E+04 -7.293733E+03 -2.094735E+04
       240   2  4.524099E+05  5.321872E+04  3.884521E+04  5.066596E+04 -7.567083E+03 -1.678733E+04
       240   3  3.973982E+05  4.046081E+04  3.014049E+04  5.680869E+04 -7.841005E+03 -1.265336E+04
       240   4  2.260470E+05  3.592963E+02  3.052119E+02  5.628276E+04 -2.770201E+02 -2.092375E+04
       240   5  2.260670E+05  3.186738E+02  6.130130E+02  5.001197E+04 -5.943706E+02 -1.676332E+04
       240   6  2.260552E+05  3.997655E+02  1.128571E+03  5.628264E+04 -9.123163E+02 -1.262895E+04
       240   7 -5.521318E+04 -6.537613E+04 -4.711915E+04  5.550138E+04  6.736619E+03 -2.090017E+04
       240   8 -2.253786E+02 -5.258404E+04 -3.762065E+04  4.935818E+04  6.375883E+03 -1.673933E+04
       240   9  5.474129E+04 -3.966281E+04 -2.788412E+04  5.575672E+04  6.014523E+03 -1.260454E+04
       240  10  5.073851E+05  6.609011E+04  4.772632E+04  5.706432E+04 -2.810779E-09  2.523662E-09
       240  11  4.524097E+05  5.321840E+04  3.884458E+04  5.066586E+04 -1.220526E-09 -1.668487E-10
       240  12  3.973981E+05  4.046063E+04  3.014008E+04  5.680861E+04 -2.353078E-09  3.900700E-09
       240  13  2.260469E+05  3.588261E+02  3.043889E+02  5.628276E+04 -1.999203E-09  1.188738E-09
       240  14  2.260669E+05  3.183720E+02  6.124842E+02  5.001196E+04 -1.160360E-09  2.653674E-09
       240  15  2.260552E+05  3.995940E+02  1.128270E+03  5.628264E+04  1.942308E-09  4.335025E-09
       240  16 -5.521335E+04 -6.537661E+04 -4.712006E+04  5.550150E+04  3.050370E-09  5.231837E-09
       240  17 -2.254975E+02 -5.258435E+04 -3.762125E+04  4.935826E+04  4.345288E-10 -8.489889E-09
       240  18  5.474121E+04 -3.966299E+04 -2.788448E+04  5.575678E+04  3.800541E-09  5.478121E-10
       240  19  5.073853E+05  6.609059E+04  4.772724E+04  5.706444E+04  7.293733E+03  2.094735E+04
       240  20  4.524099E+05  5.321872E+04  3.884521E+04  5.066596E+04  7.567083E+03  1.678733E+04
       240  21  3.973982E+05  4.046081E+04  3.014049E+04  5.680869E+04  7.841005E+03  1.265336E+04
       240  22  2.260470E+05  3.592963E+02  3.052119E+02  5.628276E+04  2.770201E+02  2.092375E+04
       240  23  2.260670E+05  3.186738E+02  6.130130E+02  5.001197E+04  5.943706E+02  1.676332E+04
       240  24  2.260552E+05  3.997655E+02  1.128571E+03  5.628264E+04  9.123163E+02  1.262895E+04
       240  25 -5.521318E+04 -6.537613E+04 -4.711915E+04  5.550138E+04 -6.736619E+03  2.090017E+04
       240  26 -2.253786E+02 -5.258404E+04 -3.762065E+04  4.935818E+04 -6.375883E+03  1.673933E+04
       240  27  5.474129E+04 -3.966281E+04 -2.788412E+04  5.575672E+04 -6.014523E+03  1.260454E+04
       241   1  3.615962E+05  3.200565E+04  2.419097E+04  5.680995E+04 -8.110857E+03 -1.023876E+04
       241   2  3.065388E+05  1.926745E+04  1.598891E+04  5.012635E+04 -8.967244E+03 -6.243748E+03
       241   3  2.516540E+05  7.199328E+03  8.481181E+03  5.595997E+04 -9.822797E+03 -2.535215E+03
       241   4  2.261205E+05  3.785038E+02  1.499628E+03  5.627784E+04 -1.150373E+03 -1.021400E+04
       241   5  2.259957E+05  4.966247E+02  2.653013E+03  5.001745E+04 -2.488445E+03 -6.220531E+03
       241   6  2.261232E+05  1.368331E+03  4.834775E+03  5.627431E+04 -3.825745E+03 -2.513553E+03
       241   7  9.066294E+04 -3.124958E+04 -2.119210E+04  5.574584E+04  5.808644E+03 -1.018926E+04
       241   8  1.454590E+05 -1.827451E+04 -1.068292E+04  4.990855E+04  3.989543E+03 -6.197316E+03
       241   9  2.005931E+05 -4.462676E+03  1.188494E+03  5.658864E+04  2.171070E+03 -2.491884E+03
       241  10  3.615961E+05  3.200552E+04  2.419065E+04  5.680988E+04 -5.829992E-09  8.521466E-09
       241  11  3.065387E+05  1.926739E+04  1.598868E+04  5.012630E+04  3.070731E-09 -1.247502E-09
       241  12  2.516539E+05  7.199295E+03  8.480988E+03  5.595995E+04  1.091141E-08  6.660522E-09
       241  13  2.261205E+05  3.783914E+02  1.499430E+03  5.627783E+04  1.197368E-09  5.819364E-09
       241  14  2.259957E+05  4.965815E+02  2.652929E+03  5.001743E+04  9.945761E-10  5.805580E-09
       241  15  2.261232E+05  1.368320E+03  4.834735E+03  5.627431E+04  2.081081E-09  1.491330E-10
       241  16  9.066287E+04 -3.124970E+04 -2.119236E+04  5.574589E+04  7.133370E-09  3.422320E-09
       241  17  1.454590E+05 -1.827456E+04 -1.068302E+04  4.990857E+04 -3.661721E-09  1.683072E-09
       241  18  2.005931E+05 -4.462684E+03  1.188473E+03  5.658865E+04 -8.845698E-09 -9.229659E-09
       241  19  3.615962E+05  3.200565E+04  2.419097E+04  5.680995E+04  8.110857E+03  1.023876E+04
       241  20  3.065388E+05  1.926745E+04  1.598891E+04  5.012635E+04  8.967244E+03  6.243748E+03
       241  21  2.516540E+05  7.199328E+03  8.481181E+03  5.595997E+04  9.822797E+03  2.535215E+03
       241  22  2.261205E+05  3.785038E+02  1.499628E+03  5.627784E+04  1.150373E+03  1.021400E+04
       241  23  2.259957E+05  4.966247E+02  2.653013E+03  5.001745E+04  2.488445E+03  6.220531E+03
       241  24  2.261232E+05  1.368331E+03  4.834775E+03  5.627431E+04  3.825745E+03  2.513553E+03
       241  25  9.066294E+04 -3.124958E+04 -2.119210E+04  5.574584E+04 -5.808644E+03  1.018926E+04
       241  26  1.454590E+05 -1.827451E+04 -1.068292E+04  4.990855E+04 -3.989543E+03  6.197316E+03
       241  27  2.005931E+05 -4.462676E+03  1.188494E+03  5.658864E+04 -2.171070E+03  2.491884E+03
       242   1  2.164399E+05 -1.616829E+03  3.476728E+03  5.746028E+04 -1.102436E+04 -2.752184E+02
       242   2  1.600416E+05 -1.079283E+04 -2.571188E+03  4.382270E+04 -1.159114E+04  1.901735E+03
       242   3  1.065597E+05 -8.177270E+03 -5.328800E+03  4.246539E+04 -1.214666E+04  8.626111E+02
       242   4  2.269232E+05  1.043670E+03  6.351966E+03  5.623207E+04 -4.661256E+03 -2.521889E+02
       242   5  2.249954E+05  5.072008E+03  1.154898E+04  5.005518E+04 -1.063280E+04  1.905056E+03
       242   6  2.269189E+05  2.182930E+04  2.378830E+04  5.615794E+04 -1.659323E+04  8.463655E+02
       242   7  2.374067E+05  3.704188E+03  9.227347E+03  5.500384E+04  1.701953E+03 -2.291847E+02
       242   8  2.899532E+05  2.093671E+04  2.566893E+04  5.628831E+04 -9.674364E+03  1.908396E+03
       242   9  3.472917E+05  5.183550E+04  5.290452E+04  6.985315E+04 -2.104066E+04  8.299255E+02
       242  10  2.164398E+05 -1.616862E+03  3.476500E+03  5.746028E+04 -1.724246E-09  5.833157E-09
       242  11  1.600415E+05 -1.079287E+04 -2.571447E+03  4.382272E+04  1.094775E-09 -3.038876E-09
       242  12  1.065596E+05 -8.177310E+03 -5.329079E+03  4.246540E+04  1.146615E-09 -9.870015E-10
       242  13  2.269232E+05  1.043664E+03  6.351925E+03  5.623207E+04  1.355119E-09  6.973359E-09
       242  14  2.249953E+05  5.071974E+03  1.154876E+04  5.005519E+04 -2.367064E-09 -9.865321E-09
       242  15  2.269186E+05  2.182922E+04  2.378778E+04  5.615795E+04  2.866304E-09  3.651243E-09
       242  16  2.374067E+05  3.704187E+03  9.227341E+03  5.500384E+04  3.426607E-09  4.731663E-10
       242  17  2.899531E+05  2.093668E+04  2.566874E+04  5.628833E+04 -3.096801E-09  2.936153E-09
       242  18  3.472913E+05  5.183539E+04  5.290369E+04  6.985316E+04 -9.977849E-11 -1.373839E-09
       242  19  2.164399E+05 -1.616829E+03  3.476728E+03  5.746028E+04  1.102436E+04  2.752184E+02
       242  20  1.600416E+05 -1.079283E+04 -2.571188E+03  4.382270E+04  1.159114E+04 -1.901735E+03
       242  21  1.065597E+05 -8.177270E+03 -5.328800E+03  4.246539E+04  1.214666E+04 -8.626111E+02
       242  22  2.269232E+05  1.043670E+03  6.351966E+03  5.623207E+04  4.661256E+03  2.521889E+02
       242  23  2.249954E+05  5.072008E+03  1.154898E+04  5.005518E+04  1.063280E+04 -1.905056E+03
       242  24  2.269189E+05  2.182930E+04  2.378830E+04  5.615794E+04  1.659323E+04 -8.463655E+02
       242  25  2.374067E+05  3.704188E+03  9.227347E+03  5.500384E+04 -1.701953E+03  2.291847E+02
       242  26  2.899532E+05  2.093671E+04  2.566893E+04  5.628831E+04  9.674364E+03 -1.908396E+03
       242  27  3.472917E+05  5.183550E+04  5.290452E+04  6.985315E+04  2.104066E+04 -8.299255E+02
       243   1  1.398224E+05  1.287611E+06  1.414432E+05 -1.771739E+05  3.335470E+03  4.761814E+04
       243   2  6.788540E+04  1.135653E+06  7.644116E+04 -1.459782E+05  8.765877E+03  1.732992E+04
       243   3  2.463653E+04  9.946753E+05  3.827533E+04 -1.474143E+05  4.218477E+03 -1.296946E+04
       243   4  4.371035E+04  9.002344E+05  4.845108E+04 -1.492944E+05  3.373766E+03  3.018650E+04
       243   5  9.957110E+03  8.962253E+05  2.626949E+04 -1.330219E+05  8.767825E+03  1.669223E+04
       243   6  1.988933E+03  9.002741E+05  1.928565E+04 -1.493784E+05  4.183754E+03  3.179784E+03
       243   7 -5.240959E+04  5.129971E+05 -4.455016E+04 -1.214323E+05  3.410514E+03  1.276567E+04
       243   8 -4.797424E+04  6.568517E+05 -2.390528E+04 -1.200705E+05  8.769747E+03  1.605479E+04
       243   9 -2.065906E+04  8.058820E+05  2.965025E+02 -1.513423E+05  4.148926E+03  1.932662E+04
       243  10  1.398218E+05  1.287609E+06  1.414389E+05 -1.771740E+05  2.071936E-09  6.235847E-11
       243  11  6.788524E+04  1.135653E+06  7.644045E+04 -1.459784E+05 -4.548844E-10 -5.151704E-09
       243  12  2.463646E+04  9.946751E+05  3.827498E+04 -1.474142E+05  2.203516E-10 -4.527411E-09
       243  13  4.371009E+04  9.002334E+05  4.844935E+04 -1.492945E+05  1.758949E-09  1.895786E-10
       243  14  9.956952E+03  8.962250E+05  2.626882E+04 -1.330220E+05 -7.366482E-10 -2.292222E-10
       243  15  1.988911E+03  9.002741E+05  1.928560E+04 -1.493784E+05  7.083817E-10 -2.661817E-09
       243  16 -5.240964E+04  5.129969E+05 -4.455048E+04 -1.214323E+05  1.214122E-10  9.796106E-11
       243  17 -4.797439E+04  6.568514E+05 -2.390591E+04 -1.200707E+05  1.614159E-09  2.967928E-09
       243  18 -2.065918E+04  8.058815E+05  2.957691E+02 -1.513423E+05 -1.633821E-09  1.756644E-09
       243  19  1.398224E+05  1.287611E+06  1.414432E+05 -1.771739E+05 -3.335470E+03 -4.761814E+04
       243  20  6.788540E+04  1.135653E+06  7.644116E+04 -1.459782E+05 -8.765877E+03 -1.732992E+04
       243  21  2.463653E+04  9.946753E+05  3.827533E+04 -1.474143E+05 -4.218477E+03  1.296946E+04
       243  22  4.371035E+04  9.002344E+05  4.845108E+04 -1.492944E+05 -3.373766E+03 -3.018650E+04
       243  23  9.957110E+03  8.962253E+05  2.626949E+04 -1.330219E+05 -8.767825E+03 -1.669223E+04
       243  24  1.988933E+03  9.002741E+05  1.928565E+04 -1.493784E+05 -4.183754E+03 -3.179784E+03
       243  25 -5.240959E+04  5.129971E+05 -4.455016E+04 -1.214323E+05 -3.410514E+03 -1.276567E+04
       243  26 -4.797424E+04  6.568517E+05 -2.390528E+04 -1.200705E+05 -8.769747E+03 -1.605479E+04
       243  27 -2.065906E+04  8.058820E+05  2.965025E+02 -1.513423E+05 -4.148926E+03 -1.932662E+04
       244   1  2.459661E+03  8.974279E+05  2.003985E+04 -1.513057E+05 -1.643889E+03 -1.500946E+04
       244   2 -3.296034E+04  7.497787E+05 -4.154007E+03 -1.322158E+05 -1.033737E+04 -2.469756E+04
       244   3 -6.299276E+04  6.046062E+05 -2.074086E+04 -1.463338E+05 -1.841903E+04 -3.438149E+04
       244   4  2.493043E+03  8.990688E+05  1.861385E+04 -1.494972E+05 -1.676712E+03  1.591783E+02
       244   5  1.726441E+03  8.977431E+05  2.143811E+04 -1.328895E+05 -1.036711E+04 -1.056140E+04
       244   6  6.526336E+03  8.990504E+05  3.258359E+04 -1.494885E+05 -1.844573E+04 -2.127997E+04
       244   7  2.526561E+03  9.007102E+05  1.718871E+04 -1.476886E+05 -1.709446E+03  1.532784E+04
       244   8  3.641216E+04  1.045729E+06  4.703023E+04 -1.335632E+05 -1.039688E+04  3.578014E+03
       244   9  7.604069E+04  1.193579E+06  8.590526E+04 -1.526446E+05 -1.847255E+04 -8.172405E+03
       244  10  2.459598E+03  8.974277E+05  2.003942E+04 -1.513057E+05  1.357449E-10  9.928148E-10
       244  11 -3.296062E+04  7.497780E+05 -4.155353E+03 -1.322160E+05  1.196833E-09 -4.455652E-09
       244  12 -6.299344E+04  6.046048E+05 -2.074372E+04 -1.463343E+05  1.170552E-09 -2.672679E-09
       244  13  2.493040E+03  8.990688E+05  1.861384E+04 -1.494972E+05 -1.513724E-09  3.939019E-10
       244  14  1.726296E+03  8.977429E+05  2.143770E+04 -1.328895E+05  2.206411E-10 -4.021310E-11
       244  15  6.525849E+03  8.990499E+05  3.258210E+04 -1.494888E+05 -4.395334E-10 -3.048411E-09
       244  16  2.526495E+03  9.007100E+05  1.718827E+04 -1.476886E+05 -2.895448E-09 -5.918979E-10
       244  17  3.641204E+04  1.045729E+06  4.703000E+04 -1.335632E+05 -2.849197E-09  2.172451E-09
       244  18  7.604031E+04  1.193579E+06  8.590449E+04 -1.526447E+05  2.136587E-10 -3.971314E-11
       244  19  2.459661E+03  8.974279E+05  2.003985E+04 -1.513057E+05  1.643889E+03  1.500946E+04
       244  20 -3.296034E+04  7.497787E+05 -4.154007E+03 -1.322158E+05  1.033737E+04  2.469756E+04
       244  21 -6.299276E+04  6.046062E+05 -2.074086E+04 -1.463338E+05  1.841903E+04  3.438149E+04
       244  22  2.493043E+03  8.990688E+05  1.861385E+04 -1.494972E+05  1.676712E+03 -1.591783E+02
       244  23  1.726441E+03  8.977431E+05  2.143811E+04 -1.328895E+05  1.036711E+04  1.056140E+04
       244  24  6.526336E+03  8.990504E+05  3.258359E+04 -1.494885E+05  1.844573E+04  2.127997E+04
       244  25  2.526561E+03  9.007102E+05  1.718871E+04 -1.476886E+05  1.709446E+03 -1.532784E+04
       244  26  3.641216E+04  1.045729E+06  4.703023E+04 -1.335632E+05  1.039688E+04 -3.578014E+03
       244  27  7.604069E+04  1.193579E+06  8.590526E+04 -1.526446E+05  1.847255E+04  8.172405E+03
       245   1 -8.777041E+04  5.130166E+05 -3.015534E+04 -1.562921E+05 -2.394928E+04 -4.174642E+04
       245   2 -9.894961E+04  3.568423E+05 -3.482245E+04 -9.490227E+04 -2.436977E+04 -5.048280E+04
       245   3 -3.699314E+04  2.200177E+05 -1.553763E+04 -6.564629E+04 -7.873866E+03 -5.918851E+04
       245   4  4.563984E+03  9.038424E+05  4.117376E+04 -1.492799E+05 -2.397941E+04 -2.681432E+04
       245   5  2.949283E+04  8.916728E+05  7.206573E+04 -1.330960E+05 -2.433854E+04 -6.400797E+04
       245   6  1.324496E+05  9.037360E+05  1.466348E+05 -1.490352E+05 -7.786681E+03 -1.011741E+05
       245   7  9.689008E+04  1.294817E+06  1.124976E+05 -1.422630E+05 -2.400919E+04 -1.187307E+04
       245   8  1.579232E+05  1.426779E+06  1.789409E+05 -1.713230E+05 -2.430567E+04 -7.754453E+04
       245   9  3.018855E+05  1.587902E+06  3.087850E+05 -2.325161E+05 -7.688281E+03 -1.432055E+05
       245  10 -8.777150E+04  5.130146E+05 -3.015969E+04 -1.562929E+05  6.976747E-10 -3.438988E-10
       245  11 -9.895093E+04  3.568394E+05 -3.482835E+04 -9.490326E+04  1.279325E-09 -4.734164E-09
       245  12 -3.699415E+04  2.200139E+05 -1.554432E+04 -6.564667E+04  1.964798E-09 -2.156044E-09
       245  13  4.563173E+03  9.038415E+05  4.117133E+04 -1.492804E+05  1.237199E-09 -9.492633E-11
       245  14  2.949109E+04  8.916682E+05  7.205693E+04 -1.330972E+05  5.624493E-10 -6.641446E-11
       245  15  1.324468E+05  9.037250E+05  1.466155E+05 -1.490358E+05  2.394693E-10 -2.401936E-09
       245  16  9.688943E+04  1.294817E+06  1.124962E+05 -1.422633E+05  7.586911E-10  6.237860E-10
       245  17  1.579210E+05  1.426773E+06  1.789286E+05 -1.713245E+05 -1.685445E-09  2.636076E-09
       245  18  3.018800E+05  1.587880E+06  3.087465E+05 -2.325169E+05 -1.988160E-10  1.840446E-10
       245  19 -8.777041E+04  5.130166E+05 -3.015534E+04 -1.562921E+05  2.394928E+04  4.174642E+04
       245  20 -9.894961E+04  3.568423E+05 -3.482245E+04 -9.490227E+04  2.436977E+04  5.048280E+04
       245  21 -3.699314E+04  2.200177E+05 -1.553763E+04 -6.564629E+04  7.873866E+03  5.918851E+04
       245  22  4.563984E+03  9.038424E+05  4.117376E+04 -1.492799E+05  2.397941E+04  2.681432E+04
       245  23  2.949283E+04  8.916728E+05  7.206573E+04 -1.330960E+05  2.433854E+04  6.400797E+04
       245  24  1.324496E+05  9.037360E+05  1.466348E+05 -1.490352E+05  7.786681E+03  1.011741E+05
       245  25  9.689008E+04  1.294817E+06  1.124976E+05 -1.422630E+05  2.400919E+04  1.187307E+04
       245  26  1.579232E+05  1.426779E+06  1.789409E+05 -1.713230E+05  2.430567E+04  7.754453E+04
       245  27  3.018855E+05  1.587902E+06  3.087850E+05 -2.325161E+05  7.688281E+03  1.432055E+05
       246   1  1.379106E+06  4.418781E+05  2.178204E+05  4.896154E+05  5.736035E+04  4.635579E+03
       246   2  1.304941E+06  4.295153E+05  1.751280E+05  4.650962E+05  3.824730E+04 -4.196174E+04
       246   3  1.219184E+06  4.187873E+05  1.533218E+05  4.585270E+05  9.407467E+03 -6.274225E+04
       246   4  3.843938E+05  8.575296E+04 -3.538752E+04  2.344128E+05 -1.729696E+04 -2.353195E+04
       246   5  3.961965E+05  1.026585E+05 -1.635759E+04  2.202769E+05  4.279973E+03 -5.479134E+04
       246   6  3.883434E+05  1.131367E+05 -8.650980E+03  2.240938E+05  1.611738E+04 -6.021640E+04
       246   7 -6.093140E+05 -2.703145E+05 -2.886419E+05 -2.041920E+04 -9.182076E+04 -5.165441E+04
       246   8 -5.116898E+05 -2.241324E+05 -2.078794E+05 -2.421232E+04 -2.963314E+04 -6.760155E+04
       246   9 -4.417799E+05 -1.924481E+05 -1.706540E+05 -1.004781E+04  2.281767E+04 -5.769424E+04
       246  10  1.379103E+06  4.418772E+05  2.178142E+05  4.896152E+05 -1.491316E-09  1.142902E-09
       246  11  1.304939E+06  4.295130E+05  1.751220E+05  4.650974E+05  1.474192E-09  1.819780E-09
       246  12  1.219183E+06  4.187830E+05  1.533143E+05  4.585274E+05  1.151030E-09 -3.344513E-09
       246  13  3.843934E+05  8.575229E+04 -3.538912E+04  2.344125E+05  5.814502E-10  4.608483E-09
       246  14  3.961956E+05  1.026552E+05 -1.636326E+04  2.202771E+05 -1.596600E-09 -1.952650E-09
       246  15  3.883421E+05  1.131328E+05 -8.658284E+03  2.240945E+05 -1.236695E-10  1.583643E-09
       246  16 -6.093238E+05 -2.703197E+05 -2.886628E+05 -2.042302E+04  1.836815E-09  1.364963E-09
       246  17 -5.116920E+05 -2.241376E+05 -2.078896E+05 -2.421394E+04 -1.568603E-09 -3.886220E-09
       246  18 -4.417814E+05 -1.924518E+05 -1.706612E+05 -1.004675E+04 -7.345323E-10  4.304797E-09
       246  19  1.379106E+06  4.418781E+05  2.178204E+05  4.896154E+05 -5.736035E+04 -4.635579E+03
       246  20  1.304941E+06  4.295153E+05  1.751280E+05  4.650962E+05 -3.824730E+04  4.196174E+04
       246  21  1.219184E+06  4.187873E+05  1.533218E+05  4.585270E+05 -9.407467E+03  6.274225E+04
       246  22  3.843938E+05  8.575296E+04 -3.538752E+04  2.344128E+05  1.729696E+04  2.353195E+04
       246  23  3.961965E+05  1.026585E+05 -1.635759E+04  2.202769E+05 -4.279973E+03  5.479134E+04
       246  24  3.883434E+05  1.131367E+05 -8.650980E+03  2.240938E+05 -1.611738E+04  6.021640E+04
       246  25 -6.093140E+05 -2.703145E+05 -2.886419E+05 -2.041920E+04  9.182076E+04  5.165441E+04
       246  26 -5.116898E+05 -2.241324E+05 -2.078794E+05 -2.421232E+04  2.963314E+04  6.760155E+04
       246  27 -4.417799E+05 -1.924481E+05 -1.706540E+05 -1.004781E+04 -2.281767E+04  5.769424E+04
       247   1  1.171798E+06  3.983079E+05  1.448190E+05  4.435380E+05  1.346788E+04 -5.809399E+04
       247   2  1.104518E+06  3.657308E+05  1.306601E+05  4.157646E+05  1.105577E+04 -5.597598E+04
       247   3  1.024407E+06  3.458789E+05  1.174892E+05  4.028791E+05  7.883695E+03 -5.185432E+04
       247   4  3.891147E+05  1.128728E+05 -6.556887E+03  2.250744E+05  1.607334E+04 -5.711735E+04
       247   5  3.959517E+05  1.074533E+05 -3.462904E+03  2.173995E+05  1.681739E+04 -5.380488E+04
       247   6  3.893279E+05  1.141345E+05 -1.881011E+03  2.246118E+05  1.680088E+04 -4.848752E+04
       247   7 -3.929409E+05 -1.725098E+05 -1.579616E+05  6.863364E+03  1.867532E+04 -5.614202E+04
       247   8 -3.120952E+05 -1.507790E+05 -1.376072E+05  1.924337E+04  2.257201E+04 -5.163642E+04
       247   9 -2.453306E+05 -1.175720E+05 -1.212671E+05  4.651383E+04  2.570833E+04 -4.512442E+04
       247  10  1.171797E+06  3.983042E+05  1.448123E+05  4.435386E+05 -4.970277E-09 -4.003006E-09
       247  11  1.104517E+06  3.657274E+05  1.306539E+05  4.157651E+05 -2.465673E-10  6.535599E-09
       247  12  1.024407E+06  3.458760E+05  1.174841E+05  4.028794E+05  6.324301E-09  2.803936E-10
       247  13  3.891136E+05  1.128693E+05 -6.563505E+03  2.250751E+05 -2.922993E-09 -1.858119E-09
       247  14  3.959506E+05  1.074501E+05 -3.468877E+03  2.174003E+05 -3.408850E-09 -6.670395E-09
       247  15  3.893270E+05  1.141319E+05 -1.885961E+03  2.246125E+05 -4.286974E-09 -3.631774E-09
       247  16 -3.929421E+05 -1.725132E+05 -1.579681E+05  6.864209E+03  4.974337E-09  5.221654E-09
       247  17 -3.120965E+05 -1.507820E+05 -1.376132E+05  1.924431E+04 -2.323589E-09  1.449291E-09
       247  18 -2.453319E+05 -1.175744E+05 -1.212722E+05  4.651476E+04 -7.233344E-09 -1.332993E-09
       247  19  1.171798E+06  3.983079E+05  1.448190E+05  4.435380E+05 -1.346788E+04  5.809399E+04
       247  20  1.104518E+06  3.657308E+05  1.306601E+05  4.157646E+05 -1.105577E+04  5.597598E+04
       247  21  1.024407E+06  3.458789E+05  1.174892E+05  4.028791E+05 -7.883695E+03  5.185432E+04
       247  22  3.891147E+05  1.128728E+05 -6.556887E+03  2.250744E+05 -1.607334E+04  5.711735E+04
       247  23  3.959517E+05  1.074533E+05 -3.462904E+03  2.173995E+05 -1.681739E+04  5.380488E+04
       247  24  3.893279E+05  1.141345E+05 -1.881011E+03  2.246118E+05 -1.680088E+04  4.848752E+04
       247  25 -3.929409E+05 -1.725098E+05 -1.579616E+05  6.863364E+03 -1.867532E+04  5.614202E+04
       247  26 -3.120952E+05 -1.507790E+05 -1.376072E+05  1.924337E+04 -2.257201E+04  5.163642E+04
       247  27 -2.453306E+05 -1.175720E+05 -1.212671E+05  4.651383E+04 -2.570833E+04  4.512442E+04
       248   1  9.759184E+05  3.280042E+05  1.084081E+05  3.892398E+05  7.220154E+03 -4.832029E+04
       248   2  9.091960E+05  2.948529E+05  9.529615E+04  3.613129E+05  5.268121E+03 -4.273934E+04
       248   3  8.294528E+05  2.747575E+05  8.209426E+04  3.481662E+05  3.256017E+03 -3.700691E+04
       248   4  3.893959E+05  1.141356E+05 -1.408446E+03  2.246685E+05  1.581126E+04 -4.507530E+04
       248   5  3.959542E+05  1.076764E+05 -7.541554E+02  2.172681E+05  1.409773E+04 -3.940197E+04
       248   6  3.894372E+05  1.142262E+05 -3.797994E+02  2.246467E+05  1.232411E+04 -3.357706E+04
       248   7 -1.967618E+05 -9.969851E+04 -1.112368E+05  6.024303E+04  2.439362E+04 -4.183362E+04
       248   8 -1.170122E+05 -7.947508E+04 -9.681450E+04  7.333383E+04  2.291954E+04 -3.606756E+04
       248   9 -5.038006E+04 -4.628830E+04 -8.286228E+04  1.012074E+05  2.138542E+04 -3.014978E+04
       248  10  9.759177E+05  3.280017E+05  1.084037E+05  3.892401E+05 -3.776600E-09 -5.539496E-09
       248  11  9.091954E+05  2.948509E+05  9.529266E+04  3.613131E+05 -3.744371E-09  2.985075E-11
       248  12  8.294524E+05  2.747561E+05  8.209167E+04  3.481663E+05 -5.991209E-09  3.865234E-09
       248  13  3.893951E+05  1.141334E+05 -1.412735E+03  2.246691E+05  2.096181E-10 -2.993096E-09
       248  14  3.959536E+05  1.076747E+05 -7.574471E+02  2.172685E+05 -1.137588E-09 -7.415609E-10
       248  15  3.894367E+05  1.142250E+05 -3.822040E+02  2.246470E+05 -2.460181E-09  4.763155E-09
       248  16 -1.967629E+05 -9.970055E+04 -1.112412E+05  6.024386E+04  4.836402E-09  1.603677E-11
       248  17 -1.170131E+05 -7.947662E+04 -9.681794E+04  7.333450E+04  1.607587E-09  1.555744E-09
       248  18 -5.038079E+04 -4.628940E+04 -8.286485E+04  1.012079E+05  3.211990E-09  5.346486E-09
       248  19  9.759184E+05  3.280042E+05  1.084081E+05  3.892398E+05 -7.220154E+03  4.832029E+04
       248  20  9.091960E+05  2.948529E+05  9.529615E+04  3.613129E+05 -5.268121E+03  4.273934E+04
       248  21  8.294528E+05  2.747575E+05  8.209426E+04  3.481662E+05 -3.256017E+03  3.700691E+04
       248  22  3.893959E+05  1.141356E+05 -1.408446E+03  2.246685E+05 -1.581126E+04  4.507530E+04
       248  23  3.959542E+05  1.076764E+05 -7.541554E+02  2.172681E+05 -1.409773E+04  3.940197E+04
       248  24  3.894372E+05  1.142262E+05 -3.797994E+02  2.246467E+05 -1.232411E+04  3.357706E+04
       248  25 -1.967618E+05 -9.969851E+04 -1.112368E+05  6.024303E+04 -2.439362E+04  4.183362E+04
       248  26 -1.170122E+05 -7.947508E+04 -9.681450E+04  7.333383E+04 -2.291954E+04  3.606756E+04
       248  27 -5.038006E+04 -4.628830E+04 -8.286228E+04  1.012074E+05 -2.138542E+04  3.014978E+04
       249   1  7.810367E+05  2.570402E+05  7.275856E+04  3.346035E+05  2.070690E+03 -3.362439E+04
       249   2  7.144657E+05  2.239240E+05  5.947512E+04  3.067025E+05 -8.306260E+01 -2.787345E+04
       249   3  6.348736E+05  2.038485E+05  4.618116E+04  2.935592E+05 -2.241760E+03 -2.211386E+04
       249   4  3.894541E+05  1.142317E+05 -2.591812E+02  2.246449E+05  1.110897E+04 -3.020474E+04
       249   5  3.959792E+05  1.077284E+05 -6.640324E+01  2.172647E+05  8.968614E+03 -2.444735E+04
       249   6  3.894741E+05  1.142625E+05  1.045058E+02  2.246402E+05  6.823318E+03 -1.868133E+04
       249   7 -1.967930E+03 -2.856212E+04 -7.328250E+04  1.147508E+05  2.014115E+04 -2.678740E+04
       249   8  7.760039E+04 -8.456922E+03 -5.961113E+04  1.278700E+05  1.801528E+04 -2.102316E+04
       249   9  1.441401E+05  2.468311E+04 -4.597356E+04  1.557471E+05  1.588448E+04 -1.525028E+04
       249  10  7.810363E+05  2.570389E+05  7.275642E+04  3.346035E+05  8.576643E-09  7.253318E-09
       249  11  7.144655E+05  2.239232E+05  5.947366E+04  3.067025E+05  4.566602E-09  1.966891E-09
       249  12  6.348735E+05  2.038480E+05  4.618024E+04  2.935592E+05 -1.957253E-10 -1.641538E-09
       249  13  3.894537E+05  1.142307E+05 -2.611281E+02  2.246451E+05 -8.160837E-11  2.535157E-09
       249  14  3.959789E+05  1.077278E+05 -6.767783E+01  2.172649E+05  2.057553E-09  2.547125E-09
       249  15  3.894740E+05  1.142621E+05  1.037623E+02  2.246403E+05  2.072318E-10  2.703461E-09
       249  16 -1.968558E+03 -2.856300E+04 -7.328461E+04  1.147512E+05 -1.115147E-08 -5.939348E-09
       249  17  7.759993E+04 -8.457484E+03 -5.961257E+04  1.278703E+05 -3.400364E-09 -8.437760E-09
       249  18  1.441397E+05  2.468279E+04 -4.597447E+04  1.557473E+05  3.388580E-10 -2.571600E-10
       249  19  7.810367E+05  2.570402E+05  7.275856E+04  3.346035E+05 -2.070690E+03  3.362439E+04
       249  20  7.144657E+05  2.239240E+05  5.947512E+04  3.067025E+05  8.306260E+01  2.787345E+04
       249  21  6.348736E+05  2.038485E+05  4.618116E+04  2.935592E+05  2.241760E+03  2.211386E+04
       249  22  3.894541E+05  1.142317E+05 -2.591812E+02  2.246449E+05 -1.110897E+04  3.020474E+04
       249  23  3.959792E+05  1.077284E+05 -6.640324E+01  2.172647E+05 -8.968614E+03  2.444735E+04
       249  24  3.894741E+05  1.142625E+05  1.045058E+02  2.246402E+05 -6.823318E+03  1.868133E+04
       249  25 -1.967930E+03 -2.856212E+04 -7.328250E+04  1.147508E+05 -2.014115E+04  2.678740E+04
       249  26  7.760039E+04 -8.456922E+03 -5.961113E+04  1.278700E+05 -1.801528E+04  2.102316E+04
       249  27  1.441401E+05  2.468311E+04 -4.597356E+04  1.557471E+05 -1.588448E+04  1.525028E+04
       250   1  5.865273E+05  1.861474E+05  3.683094E+04  2.800131E+05 -3.532126E+03 -1.877134E+04
       250   2  5.200126E+05  1.530426E+05  2.363095E+04  2.521443E+05 -5.919791E+03 -1.309863E+04
       250   3  4.405022E+05  1.329751E+05  1.058749E+04  2.390266E+05 -8.305392E+03 -7.433005E+03
       250   4  3.894873E+05  1.142658E+05  1.954761E+02  2.246401E+05  5.529107E+03 -1.533969E+04
       250   5  3.959886E+05  1.077444E+05  4.442109E+02  2.172672E+05  3.129980E+03 -9.670759E+03
       250   6  3.894923E+05  1.142627E+05  8.587060E+02  2.246438E+05  7.328941E+02 -4.008934E+03
       250   7  1.924862E+05  4.238733E+04 -3.644165E+04  1.692830E+05  1.458735E+04 -1.190917E+04
       250   8  2.719803E+05  6.244747E+04 -2.274295E+04  1.823965E+05  1.217786E+04 -6.243607E+03
       250   9  3.384854E+05  9.555060E+04 -8.869841E+03  2.102621E+05  9.770388E+03 -5.851666E+02
       250  10  5.865272E+05  1.861470E+05  3.683026E+04  2.800131E+05  2.438400E-08  1.180171E-08
       250  11  5.200125E+05  1.530424E+05  2.363056E+04  2.521443E+05 -2.844721E-09  2.172330E-09
       250  12  4.405021E+05  1.329750E+05  1.058726E+04  2.390265E+05 -2.431372E-08 -1.670720E-08
       250  13  3.894872E+05  1.142656E+05  1.949764E+02  2.246402E+05 -4.825221E-09 -1.026331E-09
       250  14  3.959886E+05  1.077443E+05  4.440167E+02  2.172672E+05 -2.733996E-10 -1.774309E-09
       250  15  3.894923E+05  1.142627E+05  8.586748E+02  2.246438E+05  4.445291E-10 -9.236325E-10
       250  16  1.924859E+05  4.238712E+04 -3.644231E+04  1.692832E+05 -2.749750E-08 -9.730520E-09
       250  17  2.719802E+05  6.244739E+04 -2.274330E+04  1.823965E+05 -2.963126E-09  5.232966E-09
       250  18  3.384853E+05  9.555057E+04 -8.870021E+03  2.102621E+05  2.608188E-08  6.158980E-09
       250  19  5.865273E+05  1.861474E+05  3.683094E+04  2.800131E+05  3.532126E+03  1.877134E+04
       250  20  5.200126E+05  1.530426E+05  2.363095E+04  2.521443E+05  5.919791E+03  1.309863E+04
       250  21  4.405022E+05  1.329751E+05  1.058749E+04  2.390266E+05  8.305392E+03  7.433005E+03
       250  22  3.894873E+05  1.142658E+05  1.954761E+02  2.246401E+05 -5.529107E+03  1.533969E+04
       250  23  3.959886E+05  1.077444E+05  4.442109E+02  2.172672E+05 -3.129980E+03  9.670759E+03
       250  24  3.894923E+05  1.142627E+05  8.587060E+02  2.246438E+05 -7.328941E+02  4.008934E+03
       250  25  1.924862E+05  4.238733E+04 -3.644165E+04  1.692830E+05 -1.458735E+04  1.190917E+04
       250  26  2.719803E+05  6.244747E+04 -2.274295E+04  1.823965E+05 -1.217786E+04  6.243607E+03
       250  27  3.384854E+05  9.555060E+04 -8.869841E+03  2.102621E+05 -9.770388E+03  5.851666E+02
       251   1  3.921943E+05  1.152889E+05  1.448561E+03  2.255207E+05 -9.753865E+03 -4.153747E+03
       251   2  3.256145E+05  8.216910E+04 -1.108728E+04  1.976690E+05 -1.283542E+04  1.205595E+03
       251   3  2.461702E+05  6.217957E+04 -2.291509E+04  1.845742E+05 -1.588370E+04  6.478634E+03
       251   4  3.895229E+05  1.142573E+05  1.158360E+03  2.246570E+05 -7.026101E+02 -7.247031E+02
       251   5  3.959463E+05  1.077061E+05  2.119952E+03  2.172687E+05 -3.920854E+03  4.582538E+03
       251   6  3.895265E+05  1.143113E+05  3.897484E+03  2.246347E+05 -7.105952E+03  9.803469E+03
       251   7  3.868517E+05  1.132257E+05  8.685179E+02  2.237934E+05  8.348524E+03  2.704291E+03
       251   8  4.662835E+05  1.332435E+05  1.532733E+04  2.368704E+05  4.994797E+03  7.959886E+03
       251   9  5.329057E+05  1.664455E+05  3.070994E+04  2.647041E+05  1.674043E+03  1.312915E+04
       251  10  3.921942E+05  1.152889E+05  1.448350E+03  2.255207E+05 -1.255798E-08 -1.203419E-08
       251  11  3.256143E+05  8.216906E+04 -1.108759E+04  1.976690E+05  9.068089E-09  1.098066E-08
       251  12  2.461700E+05  6.217946E+04 -2.291564E+04  1.845743E+05  2.465185E-08  7.527851E-09
       251  13  3.895229E+05  1.142573E+05  1.158358E+03  2.246570E+05  2.078785E-10  3.832682E-09
       251  14  3.959463E+05  1.077060E+05  2.119883E+03  2.172687E+05  4.208187E-09  5.393707E-09
       251  15  3.895264E+05  1.143112E+05  3.897208E+03  2.246347E+05  9.666799E-10 -9.597486E-09
       251  16  3.868516E+05  1.132257E+05  8.683733E+02  2.237934E+05  1.299970E-08  3.668713E-09
       251  17  4.662835E+05  1.332435E+05  1.532716E+04  2.368704E+05 -7.590116E-09 -7.754875E-09
       251  18  5.329056E+05  1.664453E+05  3.070961E+04  2.647041E+05 -2.548594E-08 -1.560166E-08
       251  19  3.921943E+05  1.152889E+05  1.448561E+03  2.255207E+05  9.753865E+03  4.153747E+03
       251  20  3.256145E+05  8.216910E+04 -1.108728E+04  1.976690E+05  1.283542E+04 -1.205595E+03
       251  21  2.461702E+05  6.217957E+04 -2.291509E+04  1.845742E+05  1.588370E+04 -6.478634E+03
       251  22  3.895229E+05  1.142573E+05  1.158360E+03  2.246570E+05  7.026101E+02  7.247031E+02
       251  23  3.959463E+05  1.077061E+05  2.119952E+03  2.172687E+05  3.920854E+03 -4.582538E+03
       251  24  3.895265E+05  1.143113E+05  3.897484E+03  2.246347E+05  7.105952E+03 -9.803469E+03
       251  25  3.868517E+05  1.132257E+05  8.685179E+02  2.237934E+05 -8.348524E+03 -2.704291E+03
       251  26  4.662835E+05  1.332435E+05  1.532733E+04  2.368704E+05 -4.994797E+03 -7.959886E+03
       251  27  5.329057E+05  1.664455E+05  3.070994E+04  2.647041E+05 -1.674043E+03 -1.312915E+04
       252   1  1.977386E+05  4.464014E+04 -3.110372E+04  1.714583E+05 -1.804437E+04  9.460122E+03
       252   2  1.314456E+05  1.117130E+04 -4.094812E+04  1.425563E+05 -2.300591E+04  1.345238E+04
       252   3  5.337268E+04 -7.183387E+03 -4.797332E+04  1.279272E+05 -2.754377E+04  1.633007E+04
       252   4  3.897490E+05  1.142197E+05  5.194464E+03  2.247541E+05 -9.088582E+03  1.285199E+04
       252   5  3.956898E+05  1.080841E+05  9.494554E+03  2.170121E+05 -1.580678E+04  1.617784E+04
       252   6  3.901923E+05  1.174087E+05  1.800487E+04  2.235401E+05 -2.210175E+04  1.838925E+04
       252   7  5.817979E+05  1.838027E+05  4.149147E+04  2.780652E+05 -1.298326E+02  1.624496E+04
       252   8  6.600056E+05  2.050030E+05  5.993416E+04  2.914970E+05 -8.604402E+03  1.890454E+04
       252   9  7.271266E+05  2.420106E+05  8.397717E+04  3.192003E+05 -1.665661E+04  2.044964E+04
       252  10  1.977382E+05  4.463996E+04 -3.110450E+04  1.714585E+05 -3.024533E-08 -1.106826E-08
       252  11  1.314450E+05  1.117096E+04 -4.094945E+04  1.425566E+05 -1.002317E-08  8.746771E-10
       252  12  5.337179E+04 -7.183877E+03 -4.797524E+04  1.279276E+05  1.030311E-08  2.285896E-09
       252  13  3.897489E+05  1.142195E+05  5.193999E+03  2.247542E+05 -2.383138E-09 -8.764165E-09
       252  14  3.956895E+05  1.080837E+05  9.493593E+03  2.170123E+05  1.229792E-09 -1.524221E-09
       252  15  3.901917E+05  1.174082E+05  1.800332E+04  2.235404E+05  3.772175E-09 -8.905859E-10
       252  16  5.817979E+05  1.838024E+05  4.149098E+04  2.780652E+05  2.866914E-08  8.288329E-09
       252  17  6.600054E+05  2.050026E+05  5.993335E+04  2.914971E+05  1.230783E-08  6.599580E-09
       252  18  7.271262E+05  2.420101E+05  8.397586E+04  3.192006E+05 -9.832529E-09 -8.924249E-10
       252  19  1.977386E+05  4.464014E+04 -3.110372E+04  1.714583E+05  1.804437E+04 -9.460122E+03
       252  20  1.314456E+05  1.117130E+04 -4.094812E+04  1.425563E+05  2.300591E+04 -1.345238E+04
       252  21  5.337268E+04 -7.183387E+03 -4.797332E+04  1.279272E+05  2.754377E+04 -1.633007E+04
       252  22  3.897490E+05  1.142197E+05  5.194464E+03  2.247541E+05  9.088582E+03 -1.285199E+04
       252  23  3.956898E+05  1.080841E+05  9.494554E+03  2.170121E+05  1.580678E+04 -1.617784E+04
       252  24  3.901923E+05  1.174087E+05  1.800487E+04  2.235401E+05  2.210175E+04 -1.838925E+04
       252  25  5.817979E+05  1.838027E+05  4.149147E+04  2.780652E+05  1.298326E+02 -1.624496E+04
       252  26  6.600056E+05  2.050030E+05  5.993416E+04  2.914970E+05  8.604402E+03 -1.890454E+04
       252  27  7.271266E+05  2.420106E+05  8.397717E+04  3.192003E+05  1.665661E+04 -2.044964E+04
       253   1  2.123899E+03 -2.175648E+04 -5.227587E+04  1.217769E+05 -3.365813E+04  1.743976E+04
       253   2 -4.912531E+04 -6.274980E+04 -5.352314E+04  6.515756E+04 -3.366213E+04  1.485325E+04
       253   3 -9.512757E+04 -4.549654E+04 -4.145833E+04  9.976116E+03 -2.824037E+04 -2.077398E+03
       253   4  3.931419E+05  1.157496E+05  2.376077E+04  2.252848E+05 -2.594512E+04  2.035838E+04
       253   5  3.936584E+05  1.220006E+05  4.485933E+04  2.103272E+05 -4.852277E+04  9.225842E+03
       253   6  4.038766E+05  1.909457E+05  9.715500E+04  1.968088E+05 -6.567810E+04 -1.624596E+04
       253   7  7.843235E+05  2.532684E+05  9.979228E+04  3.288531E+05 -1.822679E+04  2.327884E+04
       253   8  8.366434E+05  3.067829E+05  1.432306E+05  3.555976E+05 -6.339479E+04  3.592850E+03
       253   9  9.031245E+05  4.274468E+05  2.357493E+05  3.837897E+05 -1.031480E+05 -3.043402E+04
       253  10  2.122600E+03 -2.175711E+04 -5.227857E+04  1.217774E+05  1.814045E-09 -5.645032E-09
       253  11 -4.912658E+04 -6.275034E+04 -5.352568E+04  6.515796E+04  1.753478E-09  1.040421E-09
       253  12 -9.512843E+04 -4.549676E+04 -4.145984E+04  9.976069E+03 -1.368462E-09  5.492782E-09
       253  13  3.931411E+05  1.157490E+05  2.375872E+04  2.252852E+05  3.117462E-10 -1.889422E-09
       253  14  3.936559E+05  1.219999E+05  4.485474E+04  2.103276E+05  3.682325E-10  1.896994E-08
       253  15  4.038719E+05  1.909443E+05  9.714641E+04  1.968080E+05  2.297686E-09  2.068489E-09
       253  16  7.843230E+05  2.532677E+05  9.979063E+04  3.288534E+05 -9.869039E-10  7.909481E-10
       253  17  8.366391E+05  3.067818E+05  1.432230E+05  3.555978E+05 -3.071532E-09 -2.304004E-09
       253  18  9.031129E+05  4.274429E+05  2.357276E+05  3.837871E+05  8.630303E-10  4.861804E-10
       253  19  2.123899E+03 -2.175648E+04 -5.227587E+04  1.217769E+05  3.365813E+04 -1.743976E+04
       253  20 -4.912531E+04 -6.274980E+04 -5.352314E+04  6.515756E+04  3.366213E+04 -1.485325E+04
       253  21 -9.512757E+04 -4.549654E+04 -4.145833E+04  9.976116E+03  2.824037E+04  2.077398E+03
       253  22  3.931419E+05  1.157496E+05  2.376077E+04  2.252848E+05  2.594512E+04 -2.035838E+04
       253  23  3.936584E+05  1.220006E+05  4.485933E+04  2.103272E+05  4.852277E+04 -9.225842E+03
       253  24  4.038766E+05  1.909457E+05  9.715500E+04  1.968088E+05  6.567810E+04  1.624596E+04
       253  25  7.843235E+05  2.532684E+05  9.979228E+04  3.288531E+05  1.822679E+04 -2.327884E+04
       253  26  8.366434E+05  3.067829E+05  1.432306E+05  3.555976E+05  6.339479E+04 -3.592850E+03
       253  27  9.031245E+05  4.274468E+05  2.357493E+05  3.837897E+05  1.031480E+05  3.043402E+04
       254   1  1.119182E+05  7.925907E+03  3.463807E+03 -9.494678E+01 -1.204139E+04 -1.240282E+03
       254   2  1.027123E+05  2.341301E+04  1.123093E+04  1.672726E+03 -8.777939E+03 -3.662223E+03
       254   3  8.839617E+04  2.034888E+04  1.223187E+04  9.521133E+03 -5.523767E+03 -3.474861E+03
       254   4  9.821226E+03 -1.742263E+04 -2.148479E+04  6.798010E+03 -1.473144E+04 -1.249901E+03
       254   5  1.254016E+04  1.231242E+03 -9.604733E+03  3.724982E+03 -9.589803E+03 -3.665178E+03
       254   6  9.821892E+03  1.006269E+03 -5.795923E+03  6.732806E+03 -4.457358E+03 -3.471034E+03
       254   7 -9.226615E+04 -4.277176E+04 -4.643409E+04  1.368982E+04 -1.742106E+04 -1.259581E+03
       254   8 -7.762441E+04 -2.095107E+04 -3.044093E+04  5.776932E+03 -1.040155E+04 -3.668139E+03
       254   9 -6.874665E+04 -1.833675E+04 -2.382411E+04  3.944829E+03 -3.391083E+03 -3.467216E+03
       254  10  1.119181E+05  7.925866E+03  3.463532E+03 -9.495881E+01 -9.176694E-09 -6.057631E-11
       254  11  1.027122E+05  2.341297E+04  1.123076E+04  1.672700E+03 -2.943236E-09  1.282752E-08
       254  12  8.839614E+04  2.034886E+04  1.223179E+04  9.521118E+03  8.161115E-10  6.544121E-09
       254  13  9.820992E+03 -1.742269E+04 -2.148520E+04  6.797995E+03 -1.088264E-09 -5.477953E-09
       254  14  1.254006E+04  1.231203E+03 -9.604931E+03  3.724954E+03 -3.671092E-09 -7.858627E-09
       254  15  9.821868E+03  1.006250E+03 -5.795983E+03  6.732793E+03  3.161610E-09  2.275323E-09
       254  16 -9.226648E+04 -4.277184E+04 -4.643466E+04  1.368981E+04  8.451797E-09  1.658385E-09
       254  17 -7.762453E+04 -2.095112E+04 -3.044116E+04  5.776901E+03 -5.893498E-10  9.769376E-09
       254  18 -6.874667E+04 -1.833676E+04 -2.382416E+04  3.944819E+03 -2.193549E-09 -1.316555E-09
       254  19  1.119182E+05  7.925907E+03  3.463807E+03 -9.494678E+01  1.204139E+04  1.240282E+03
       254  20  1.027123E+05  2.341301E+04  1.123093E+04  1.672726E+03  8.777939E+03  3.662223E+03
       254  21  8.839617E+04  2.034888E+04  1.223187E+04  9.521133E+03  5.523767E+03  3.474861E+03
       254  22  9.821226E+03 -1.742263E+04 -2.148479E+04  6.798010E+03  1.473144E+04  1.249901E+03
       254  23  1.254016E+04  1.231242E+03 -9.604733E+03  3.724982E+03  9.589803E+03  3.665178E+03
       254  24  9.821892E+03  1.006269E+03 -5.795923E+03  6.732806E+03  4.457358E+03  3.471034E+03
       254  25 -9.226615E+04 -4.277176E+04 -4.643409E+04  1.368982E+04  1.742106E+04  1.259581E+03
       254  26 -7.762441E+04 -2.095107E+04 -3.044093E+04  5.776932E+03  1.040155E+04  3.668139E+03
       254  27 -6.874665E+04 -1.833675E+04 -2.382411E+04  3.944829E+03  3.391083E+03  3.467216E+03
       255   1  7.825465E+04  1.531072E+04  1.085211E+04  6.505213E+03 -3.865774E+03 -2.827199E+03
       255   2  6.682886E+04  1.382035E+04  1.033136E+04  3.740949E+03 -2.715265E+03 -2.394690E+03
       255   3  5.485258E+04  1.094178E+04  8.702924E+03  7.104046E+03 -1.565306E+03 -1.833064E+03
       255   4  1.090450E+04 -1.259025E+03 -4.665246E+03  6.765015E+03 -3.603566E+03 -2.826276E+03
       255   5  1.118817E+04  1.347006E+02 -2.460255E+03  3.698802E+03 -2.360213E+03 -2.393415E+03
       255   6  1.090485E+04  1.239964E+02 -1.427552E+03  6.759995E+03 -1.117391E+03 -1.831433E+03
       255   7 -5.644146E+04 -1.782909E+04 -2.018291E+04  7.024784E+03 -3.341386E+03 -2.825352E+03
       255   8 -4.444966E+04 -1.355116E+04 -1.525207E+04  3.656656E+03 -2.005192E+03 -2.392140E+03
       255   9 -3.304109E+04 -1.069393E+04 -1.155816E+04  6.415966E+03 -6.695066E+02 -1.829802E+03
       255  10  7.825463E+04  1.531071E+04  1.085207E+04  6.505204E+03 -2.387331E-09 -1.951680E-09
       255  11  6.682885E+04  1.382034E+04  1.033133E+04  3.740944E+03  3.555456E-11  3.506336E-09
       255  12  5.485258E+04  1.094178E+04  8.702913E+03  7.104044E+03  3.517472E-10  1.150958E-08
       255  13  1.090448E+04 -1.259037E+03 -4.665286E+03  6.765006E+03 -1.854008E-11  1.261222E-08
       255  14  1.118816E+04  1.346930E+02 -2.460276E+03  3.698798E+03 -2.044461E-09 -1.888475E-08
       255  15  1.090485E+04  1.239924E+02 -1.427561E+03  6.759993E+03  1.442475E-09  1.306557E-08
       255  16 -5.644147E+04 -1.782910E+04 -2.018294E+04  7.024777E+03  3.297986E-09 -8.760668E-09
       255  17 -4.444967E+04 -1.355117E+04 -1.525209E+04  3.656653E+03  6.872235E-11 -1.483038E-09
       255  18 -3.304109E+04 -1.069393E+04 -1.155816E+04  6.415965E+03 -1.426897E-09  3.013602E-09
       255  19  7.825465E+04  1.531072E+04  1.085211E+04  6.505213E+03  3.865774E+03  2.827199E+03
       255  20  6.682886E+04  1.382035E+04  1.033136E+04  3.740949E+03  2.715265E+03  2.394690E+03
       255  21  5.485258E+04  1.094178E+04  8.702924E+03  7.104046E+03  1.565306E+03  1.833064E+03
       255  22  1.090450E+04 -1.259025E+03 -4.665246E+03  6.765015E+03  3.603566E+03  2.826276E+03
       255  23  1.118817E+04  1.347006E+02 -2.460255E+03  3.698802E+03  2.360213E+03  2.393415E+03
       255  24  1.090485E+04  1.239964E+02 -1.427552E+03  6.759995E+03  1.117391E+03  1.831433E+03
       255  25 -5.644146E+04 -1.782909E+04 -2.018291E+04  7.024784E+03  3.341386E+03  2.825352E+03
       255  26 -4.444966E+04 -1.355116E+04 -1.525207E+04  3.656656E+03  2.005192E+03  2.392140E+03
       255  27 -3.304109E+04 -1.069393E+04 -1.155816E+04  6.415966E+03  6.695066E+02  1.829802E+03
       256   1  4.375036E+04  8.004538E+03  6.396592E+03  6.845048E+03 -1.304720E+03 -1.481001E+03
       256   2  3.210971E+04  5.216488E+03  4.238028E+03  3.764092E+03 -1.013240E+03 -9.100022E+02
       256   3  2.035855E+04  2.363119E+03  1.860784E+03  6.812152E+03 -7.218030E+02 -3.326283E+02
       256   4  1.100633E+04 -4.315759E+01 -1.097257E+03  6.762042E+03 -8.966259E+02 -1.479509E+03
       256   5  1.106203E+04  3.931793E+01 -5.990172E+02  3.697342E+03 -6.005713E+02 -9.084873E+02
       256   6  1.100646E+04  5.572836E+01 -3.225950E+02  6.761672E+03 -3.045545E+02 -3.310899E+02
       256   7 -2.173670E+04 -8.090928E+03 -8.591175E+03  6.679040E+03 -4.885534E+02 -1.478017E+03
       256   8 -9.985234E+03 -5.137883E+03 -5.436091E+03  3.630594E+03 -1.879167E+02 -9.069723E+02
       256   9  1.654459E+03 -2.251669E+03 -2.505979E+03  6.711192E+03  1.126878E+02 -3.295516E+02
       256  10  4.375036E+04  8.004535E+03  6.396584E+03  6.845047E+03  1.168124E-08 -2.064429E-10
       256  11  3.210971E+04  5.216487E+03  4.238024E+03  3.764091E+03  1.216847E-09 -1.114002E-09
       256  12  2.035855E+04  2.363119E+03  1.860783E+03  6.812152E+03 -1.337808E-08 -4.269102E-09
       256  13  1.100633E+04 -4.316015E+01 -1.097262E+03  6.762041E+03  2.183182E-12  1.559615E-09
       256  14  1.106203E+04  3.931695E+01 -5.990194E+02  3.697342E+03  1.221898E-10 -5.434543E-09
       256  15  1.100646E+04  5.572821E+01 -3.225953E+02  6.761672E+03  1.208129E-09 -1.320976E-09
       256  16 -2.173670E+04 -8.090930E+03 -8.591180E+03  6.679040E+03 -1.427013E-08 -7.281547E-09
       256  17 -9.985235E+03 -5.137884E+03 -5.436092E+03  3.630594E+03 -2.418067E-09  1.309891E-09
       256  18  1.654459E+03 -2.251669E+03 -2.505979E+03  6.711192E+03  1.147708E-08  1.338013E-08
       256  19  4.375036E+04  8.004538E+03  6.396592E+03  6.845048E+03  1.304720E+03  1.481001E+03
       256  20  3.210971E+04  5.216488E+03  4.238028E+03  3.764092E+03  1.013240E+03  9.100022E+02
       256  21  2.035855E+04  2.363119E+03  1.860784E+03  6.812152E+03  7.218030E+02  3.326283E+02
       256  22  1.100633E+04 -4.315759E+01 -1.097257E+03  6.762042E+03  8.966259E+02  1.479509E+03
       256  23  1.106203E+04  3.931793E+01 -5.990172E+02  3.697342E+03  6.005713E+02  9.084873E+02
       256  24  1.100646E+04  5.572836E+01 -3.225950E+02  6.761672E+03  3.045545E+02  3.310899E+02
       256  25 -2.173670E+04 -8.090928E+03 -8.591175E+03  6.679040E+03  4.885534E+02  1.478017E+03
       256  26 -9.985234E+03 -5.137883E+03 -5.436091E+03  3.630594E+03  1.879167E+02  9.069723E+02
       256  27  1.654459E+03 -2.251669E+03 -2.505979E+03  6.711192E+03 -1.126878E+02  3.295516E+02
       257   1  9.169544E+03 -4.172662E+02 -6.861681E+02  6.763785E+03 -6.717455E+02  4.283027E+00
       257   2 -2.500126E+03 -3.303342E+03 -3.189255E+03  3.667150E+03 -6.361586E+02  5.813471E+02
       257   3 -1.422129E+04 -6.151721E+03 -5.718716E+03  6.699380E+03 -6.005610E+02  1.158706E+03
       257   4  1.101973E+04  4.459926E+01 -2.268046E+02  6.761757E+03 -2.564676E+02  5.814817E+00
       257   5  1.104552E+04  2.843902E+01 -7.643999E+01  3.697315E+03 -2.206728E+02  5.828754E+02
       257   6  1.101964E+04  4.994782E+01  4.741101E+01  6.761730E+03 -1.848668E+02  1.160231E+03
       257   7  1.286992E+04  5.064646E+02  2.325593E+02  6.759729E+03  1.588117E+02  7.346602E+00
       257   8  2.459133E+04  3.360207E+03  3.036364E+03  3.727480E+03  1.948219E+02  5.844036E+02
       257   9  3.626117E+04  6.251572E+03  5.813497E+03  6.824081E+03  2.308442E+02  1.161756E+03
       257  10  9.169543E+03 -4.172664E+02 -6.861690E+02  6.763785E+03 -2.054183E-09 -1.114977E-08
       257  11 -2.500127E+03 -3.303343E+03 -3.189257E+03  3.667150E+03 -9.887127E-09 -1.024108E-09
       257  12 -1.422129E+04 -6.151722E+03 -5.718719E+03  6.699381E+03 -1.762074E-08  2.380693E-10
       257  13  1.101973E+04  4.459924E+01 -2.268047E+02  6.761757E+03 -1.088370E-09  3.030303E-09
       257  14  1.104552E+04  2.843864E+01 -7.644072E+01  3.697315E+03  9.118560E-11 -4.652083E-09
       257  15  1.101964E+04  4.994637E+01  4.740841E+01  6.761730E+03  6.415920E-10 -1.660009E-09
       257  16  1.286992E+04  5.064646E+02  2.325592E+02  6.759729E+03 -5.672111E-10  6.595222E-09
       257  17  2.459133E+04  3.360207E+03  3.036363E+03  3.727480E+03  6.457828E-09  1.513692E-08
       257  18  3.626117E+04  6.251571E+03  5.813494E+03  6.824080E+03  1.513738E-08  3.528251E-10
       257  19  9.169544E+03 -4.172662E+02 -6.861681E+02  6.763785E+03  6.717455E+02 -4.283027E+00
       257  20 -2.500126E+03 -3.303342E+03 -3.189255E+03  3.667150E+03  6.361586E+02 -5.813471E+02
       257  21 -1.422129E+04 -6.151721E+03 -5.718716E+03  6.699380E+03  6.005610E+02 -1.158706E+03
       257  22  1.101973E+04  4.459926E+01 -2.268046E+02  6.761757E+03  2.564676E+02 -5.814817E+00
       257  23  1.104552E+04  2.843902E+01 -7.643999E+01  3.697315E+03  2.206728E+02 -5.828754E+02
       257  24  1.101964E+04  4.994782E+01  4.741101E+01  6.761730E+03  1.848668E+02 -1.160231E+03
       257  25  1.286992E+04  5.064646E+02  2.325593E+02  6.759729E+03 -1.588117E+02 -7.346602E+00
       257  26  2.459133E+04  3.360207E+03  3.036364E+03  3.727480E+03 -1.948219E+02 -5.844036E+02
       257  27  3.626117E+04  6.251572E+03  5.813497E+03  6.824081E+03 -2.308442E+02 -1.161756E+03
       258   1 -2.541711E+04 -8.922402E+03 -8.297093E+03  6.669966E+03 -6.163030E+02  1.494736E+03
       258   2 -3.710224E+04 -1.181791E+04 -1.078930E+04  3.575608E+03 -7.534598E+02  2.071479E+03
       258   3 -4.880865E+04 -1.465226E+04 -1.318915E+04  6.610998E+03 -8.905666E+02  2.647762E+03
       258   4  1.102617E+04  4.854467E+01  1.121777E+02  6.761943E+03 -2.005491E+02  1.496255E+03
       258   5  1.103678E+04  2.309024E+01  2.734669E+02  3.697060E+03 -3.380535E+02  2.072982E+03
       258   6  1.102586E+04  5.881514E+01  5.273092E+02  6.761896E+03 -4.755103E+02  2.649250E+03
       258   7  4.747068E+04  9.019399E+03  8.521360E+03  6.853923E+03  2.152290E+02  1.497775E+03
       258   8  5.917794E+04  1.186393E+04  1.133608E+04  3.818520E+03  7.738485E+01  2.074486E+03
       258   9  7.086367E+04  1.476964E+04  1.424353E+04  6.912806E+03 -6.041425E+01  2.650739E+03
       258  10 -2.541711E+04 -8.922405E+03 -8.297098E+03  6.669967E+03 -6.599378E-09  1.218077E-09
       258  11 -3.710224E+04 -1.181792E+04 -1.078931E+04  3.575609E+03  1.609512E-09 -6.127377E-09
       258  12 -4.880865E+04 -1.465227E+04 -1.318916E+04  6.611000E+03  2.719696E-09 -9.087559E-09
       258  13  1.102617E+04  4.854225E+01  1.121734E+02  6.761943E+03 -3.645756E-11  9.596239E-09
       258  14  1.103677E+04  2.308559E+01  2.734586E+02  3.697060E+03 -1.528388E-09 -5.643390E-09
       258  15  1.102585E+04  5.880755E+01  5.272956E+02  6.761897E+03  1.462168E-09 -9.150867E-09
       258  16  4.747067E+04  9.019396E+03  8.521356E+03  6.853923E+03  4.758718E-09  1.891772E-09
       258  17  5.917793E+04  1.186393E+04  1.133607E+04  3.818520E+03 -4.216644E-09 -1.693057E-08
       258  18  7.086367E+04  1.476964E+04  1.424352E+04  6.912806E+03 -3.627608E-09 -1.132853E-08
       258  19 -2.541711E+04 -8.922402E+03 -8.297093E+03  6.669966E+03  6.163030E+02 -1.494736E+03
       258  20 -3.710224E+04 -1.181791E+04 -1.078930E+04  3.575608E+03  7.534598E+02 -2.071479E+03
       258  21 -4.880865E+04 -1.465226E+04 -1.318915E+04  6.610998E+03  8.905666E+02 -2.647762E+03
       258  22  1.102617E+04  4.854467E+01  1.121777E+02  6.761943E+03  2.005491E+02 -1.496255E+03
       258  23  1.103678E+04  2.309024E+01  2.734669E+02  3.697060E+03  3.380535E+02 -2.072982E+03
       258  24  1.102586E+04  5.881514E+01  5.273092E+02  6.761896E+03  4.755103E+02 -2.649250E+03
       258  25  4.747068E+04  9.019399E+03  8.521360E+03  6.853923E+03 -2.152290E+02 -1.497775E+03
       258  26  5.917794E+04  1.186393E+04  1.133608E+04  3.818520E+03 -7.738485E+01 -2.074486E+03
       258  27  7.086367E+04  1.476964E+04  1.424353E+04  6.912806E+03  6.041425E+01 -2.650739E+03
       259   1 -5.998633E+04 -1.744419E+04 -1.565460E+04  6.616149E+03 -1.005656E+03  2.984566E+03
       259   2 -7.173147E+04 -2.035080E+04 -1.777244E+04  3.490618E+03 -1.618223E+03  3.558272E+03
       259   3 -8.338115E+04 -2.299006E+04 -1.943610E+04  6.493736E+03 -2.230677E+03  4.121983E+03
       259   4  1.105177E+04  3.618021E+01  7.048364E+02  6.761890E+03 -5.874918E+02  2.986054E+03
       259   5  1.100313E+04  3.537612E-01  1.241509E+03  3.697235E+03 -1.207329E+03  3.559709E+03
       259   6  1.105124E+04  2.331690E+02  2.237408E+03  6.761178E+03 -1.827065E+03  4.123369E+03
       259   7  8.209455E+04  1.751620E+04  1.706394E+04  6.907644E+03 -1.692799E+02  2.987541E+03
       259   8  9.374408E+04  2.035103E+04  2.025500E+04  3.903873E+03 -7.963805E+02  3.561145E+03
       259   9  1.054919E+05  2.345578E+04  2.391032E+04  7.028654E+03 -1.423392E+03  4.124756E+03
       259  10 -5.998633E+04 -1.744420E+04 -1.565462E+04  6.616151E+03 -9.042608E-09 -2.133785E-09
       259  11 -7.173148E+04 -2.035081E+04 -1.777246E+04  3.490622E+03 -4.556878E-09 -8.975627E-09
       259  12 -8.338116E+04 -2.299008E+04 -1.943614E+04  6.493743E+03 -1.804541E-09 -1.412656E-09
       259  13  1.105177E+04  3.617055E+01  7.048190E+02  6.761891E+03 -1.061368E-09 -6.424705E-09
       259  14  1.100313E+04  3.397628E-01  1.241483E+03  3.697238E+03 -2.576134E-09  1.106059E-10
       259  15  1.105123E+04  2.331498E+02  2.237369E+03  6.761184E+03  2.612251E-09  4.769065E-09
       259  16  8.209454E+04  1.751619E+04  1.706393E+04  6.907644E+03  6.537841E-09  1.285804E-09
       259  17  9.374407E+04  2.035102E+04  2.025498E+04  3.903876E+03  2.546367E-09 -9.191223E-09
       259  18  1.054919E+05  2.345576E+04  2.391029E+04  7.028658E+03  9.643771E-10  7.558354E-09
       259  19 -5.998633E+04 -1.744419E+04 -1.565460E+04  6.616149E+03  1.005656E+03 -2.984566E+03
       259  20 -7.173147E+04 -2.035080E+04 -1.777244E+04  3.490618E+03  1.618223E+03 -3.558272E+03
       259  21 -8.338115E+04 -2.299006E+04 -1.943610E+04  6.493736E+03  2.230677E+03 -4.121983E+03
       259  22  1.105177E+04  3.618021E+01  7.048364E+02  6.761890E+03  5.874918E+02 -2.986054E+03
       259  23  1.100313E+04  3.537612E-01  1.241509E+03  3.697235E+03  1.207329E+03 -3.559709E+03
       259  24  1.105124E+04  2.331690E+02  2.237408E+03  6.761178E+03  1.827065E+03 -4.123369E+03
       259  25  8.209455E+04  1.751620E+04  1.706394E+04  6.907644E+03  1.692799E+02 -2.987541E+03
       259  26  9.374408E+04  2.035103E+04  2.025500E+04  3.903873E+03  7.963805E+02 -3.561145E+03
       259  27  1.054919E+05  2.345578E+04  2.391032E+04  7.028654E+03  1.423392E+03 -4.124756E+03
       260   1 -9.438581E+04 -2.609359E+04 -2.140488E+04  6.932056E+03 -2.746610E+03  4.480103E+03
       260   2 -1.065838E+05 -2.906119E+04 -2.198873E+04  3.169055E+03 -5.124171E+03  5.018236E+03
       260   3 -1.177799E+05 -2.907823E+04 -2.029696E+04  5.523795E+03 -7.500901E+03  5.353421E+03
       260   4  1.125741E+04 -1.050697E+02  2.902126E+03  6.762005E+03 -2.280425E+03  4.481692E+03
       260   5  1.074352E+04 -1.964847E+02  4.984803E+03  3.698355E+03 -4.804522E+03  5.019276E+03
       260   6  1.125669E+04  2.687783E+03  9.444542E+03  6.752362E+03 -7.327831E+03  5.353924E+03
       260   7  1.169110E+05  2.588267E+04  2.720840E+04  6.591915E+03 -1.814162E+03  4.483281E+03
       260   8  1.280836E+05  2.866726E+04  3.195742E+04  4.227746E+03 -4.484812E+03  5.020316E+03
       260   9  1.403086E+05  3.445263E+04  3.918494E+04  7.981173E+03 -7.154725E+03  5.354428E+03
       260  10 -9.438583E+04 -2.609361E+04 -2.140494E+04  6.932066E+03  4.070046E-09  2.017765E-10
       260  11 -1.065839E+05 -2.906122E+04 -2.198883E+04  3.169075E+03 -8.442969E-10  6.550222E-09
       260  12 -1.177799E+05 -2.907827E+04 -2.029712E+04  5.523827E+03 -6.106722E-09 -9.886800E-09
       260  13  1.125740E+04 -1.050926E+02  2.902078E+03  6.762013E+03  6.416914E-12 -1.158499E-08
       260  14  1.074349E+04 -1.965180E+02  4.984712E+03  3.698375E+03  1.227167E-09  4.108037E-09
       260  15  1.125663E+04  2.687737E+03  9.444388E+03  6.752393E+03  2.565384E-09 -4.867906E-09
       260  16  1.169110E+05  2.588265E+04  2.720835E+04  6.591922E+03 -4.244543E-09 -5.721039E-09
       260  17  1.280836E+05  2.866723E+04  3.195734E+04  4.227764E+03  5.564760E-10 -1.587305E-08
       260  18  1.403086E+05  3.445258E+04  3.918479E+04  7.981204E+03  3.672136E-09 -1.660820E-09
       260  19 -9.438581E+04 -2.609359E+04 -2.140488E+04  6.932056E+03  2.746610E+03 -4.480103E+03
       260  20 -1.065838E+05 -2.906119E+04 -2.198873E+04  3.169055E+03  5.124171E+03 -5.018236E+03
       260  21 -1.177799E+05 -2.907823E+04 -2.029696E+04  5.523795E+03  7.500901E+03 -5.353421E+03
       260  22  1.125741E+04 -1.050697E+02  2.902126E+03  6.762005E+03  2.280425E+03 -4.481692E+03
       260  23  1.074352E+04 -1.964847E+02  4.984803E+03  3.698355E+03  4.804522E+03 -5.019276E+03
       260  24  1.125669E+04  2.687783E+03  9.444542E+03  6.752362E+03  7.327831E+03 -5.353924E+03
       260  25  1.169110E+05  2.588267E+04  2.720840E+04  6.591915E+03  1.814162E+03 -4.483281E+03
       260  26  1.280836E+05  2.866726E+04  3.195742E+04  4.227746E+03  4.484812E+03 -5.020316E+03
       260  27  1.403086E+05  3.445263E+04  3.918494E+04  7.981173E+03  7.154725E+03 -5.354428E+03
       261   1 -1.268983E+05 -3.636324E+04 -2.044411E+04  1.159650E+04 -1.050186E+04  6.160535E+03
       261   2 -1.437722E+05 -3.983179E+04 -1.563930E+04 -1.284641E+03 -1.793045E+04  6.082641E+03
       261   3 -1.502558E+05 -5.470239E+03  3.453913E+03 -8.271777E+03 -2.534534E+04  1.899927E+03
       261   4  1.345000E+04 -1.897203E+03  1.173222E+04  6.744002E+03 -9.063920E+03  6.165395E+03
       261   5  7.999394E+03 -2.421470E+03  1.943542E+04  3.735710E+03 -1.944975E+04  6.077359E+03
       261   6  1.344946E+04  3.539242E+04  4.347819E+04  6.621133E+03 -2.982205E+04  1.884714E+03
       261   7  1.538166E+05  3.256756E+04  4.390727E+04  1.890382E+03 -7.625658E+03  6.170231E+03
       261   8  1.597923E+05  3.498732E+04  5.450863E+04  8.757280E+03 -2.096943E+04  6.072053E+03
       261   9  1.771797E+05  7.625391E+04  8.350071E+04  2.151796E+04 -3.429994E+04  1.869289E+03
       261  10 -1.268984E+05 -3.636331E+04 -2.044438E+04  1.159655E+04  2.537845E-09 -4.490231E-09
       261  11 -1.437726E+05 -3.983191E+04 -1.563998E+04 -1.284553E+03  4.804941E-09 -9.865506E-10
       261  12 -1.502565E+05 -5.470415E+03  3.452699E+03 -8.271738E+03  4.161117E-09  5.024457E-09
       261  13  1.344991E+04 -1.897266E+03  1.173199E+04  6.744047E+03 -2.130496E-11 -2.335395E-09
       261  14  7.998977E+03 -2.421611E+03  1.943464E+04  3.735805E+03 -3.634301E-10  6.280443E-10
       261  15  1.344851E+04  3.539217E+04  4.347652E+04  6.621178E+03  1.008221E-09  3.792899E-09
       261  16  1.538165E+05  3.256750E+04  4.390709E+04  1.890420E+03 -2.985092E-09  5.515940E-10
       261  17  1.597919E+05  3.498716E+04  5.450773E+04  8.757383E+03 -6.775667E-09  2.943748E-09
       261  18  1.771784E+05  7.625359E+04  8.349849E+04  2.151801E+04 -4.748287E-09 -1.974216E-09
       261  19 -1.268983E+05 -3.636324E+04 -2.044411E+04  1.159650E+04  1.050186E+04 -6.160535E+03
       261  20 -1.437722E+05 -3.983179E+04 -1.563930E+04 -1.284641E+03  1.793045E+04 -6.082641E+03
       261  21 -1.502558E+05 -5.470239E+03  3.453913E+03 -8.271777E+03  2.534534E+04 -1.899927E+03
       261  22  1.345000E+04 -1.897203E+03  1.173222E+04  6.744002E+03  9.063920E+03 -6.165395E+03
       261  23  7.999394E+03 -2.421470E+03  1.943542E+04  3.735710E+03  1.944975E+04 -6.077359E+03
       261  24  1.344946E+04  3.539242E+04  4.347819E+04  6.621133E+03  2.982205E+04 -1.884714E+03
       261  25  1.538166E+05  3.256756E+04  4.390727E+04  1.890382E+03  7.625658E+03 -6.170231E+03
       261  26  1.597923E+05  3.498732E+04  5.450863E+04  8.757280E+03  2.096943E+04 -6.072053E+03
       261  27  1.771797E+05  7.625391E+04  8.350071E+04  2.151796E+04  3.429994E+04 -1.869289E+03
       262   1 -3.153250E+05 -1.339415E+06 -3.340371E+05  1.380605E+05 -9.284760E+03 -1.025299E+05
       262   2 -1.656576E+05 -1.158907E+06 -2.184213E+05  6.759105E+04 -2.772854E+04 -5.591234E+04
       262   3 -1.272525E+05 -1.011372E+06 -1.608766E+05  8.198506E+04 -2.331059E+04 -9.208431E+03
       262   4 -9.980880E+04 -4.760434E+05 -1.223967E+05  9.520866E+04 -9.346088E+03 -8.122814E+04
       262   5  6.483387E+03 -4.609492E+05 -5.681835E+04  5.293828E+04 -2.773979E+04 -5.100558E+04
       262   6  4.432531E+03 -4.759601E+05 -3.786406E+04  9.553437E+04 -2.327896E+04 -2.071017E+04
       262   7  1.156589E+05  3.880130E+05  8.919166E+04  5.229748E+04 -9.410324E+03 -5.989669E+04
       262   8  1.785908E+05  2.374601E+05  1.047522E+05  3.826919E+04 -2.775127E+04 -4.609332E+04
       262   9  1.360983E+05  5.971858E+04  8.513012E+04  1.090956E+05 -2.324785E+04 -3.222175E+04
       262  10 -3.153279E+05 -1.339426E+06 -3.340571E+05  1.380597E+05  1.030954E-09  3.762437E-09
       262  11 -1.656593E+05 -1.158911E+06 -2.184286E+05  6.758980E+04  2.745423E-10  1.907394E-09
       262  12 -1.272531E+05 -1.011373E+06 -1.608778E+05  8.198489E+04 -1.046176E-09 -1.531259E-09
       262  13 -9.981066E+04 -4.760506E+05 -1.224093E+05  9.520805E+04  2.104847E-09 -1.028065E-09
       262  14  6.481862E+03 -4.609522E+05 -5.682469E+04  5.293714E+04  2.093610E-09  5.250942E-10
       262  15  4.431834E+03 -4.759607E+05 -3.786588E+04  9.553398E+04 -1.746878E-09  7.097054E-09
       262  16  1.156579E+05  3.880092E+05  8.918475E+04  5.229703E+04  1.026260E-09 -8.336527E-10
       262  17  1.785894E+05  2.374576E+05  1.047467E+05  3.826816E+04  4.670163E-09 -2.592366E-09
       262  18  1.360975E+05  5.971733E+04  8.512716E+04  1.090950E+05 -3.433154E-09  1.799615E-09
       262  19 -3.153250E+05 -1.339415E+06 -3.340371E+05  1.380605E+05  9.284760E+03  1.025299E+05
       262  20 -1.656576E+05 -1.158907E+06 -2.184213E+05  6.759105E+04  2.772854E+04  5.591234E+04
       262  21 -1.272525E+05 -1.011372E+06 -1.608766E+05  8.198506E+04  2.331059E+04  9.208431E+03
       262  22 -9.980880E+04 -4.760434E+05 -1.223967E+05  9.520866E+04  9.346088E+03  8.122814E+04
       262  23  6.483387E+03 -4.609492E+05 -5.681835E+04  5.293828E+04  2.773979E+04  5.100558E+04
       262  24  4.432531E+03 -4.759601E+05 -3.786406E+04  9.553437E+04  2.327896E+04  2.071017E+04
       262  25  1.156589E+05  3.880130E+05  8.919166E+04  5.229748E+04  9.410324E+03  5.989669E+04
       262  26  1.785908E+05  2.374601E+05  1.047522E+05  3.826919E+04  2.775127E+04  4.609332E+04
       262  27  1.360983E+05  5.971858E+04  8.513012E+04  1.090956E+05  2.324785E+04  3.222175E+04
       263   1 -1.005812E+05 -8.478867E+05 -1.201861E+05  1.000875E+05 -1.583231E+04 -1.016005E+04
       263   2 -5.155294E+04 -6.808296E+05 -7.480763E+04  5.313412E+04 -9.143244E+03  3.282405E+03
       263   3 -1.846693E+04 -5.188952E+05 -4.204814E+04  9.233447E+04 -1.938036E+03  1.672720E+04
       263   4 -7.591399E+03 -4.703690E+05 -3.316201E+04  9.572107E+04 -1.581978E+04 -1.481566E+04
       263   5  8.798533E+02 -4.678186E+05 -2.580126E+04  5.264614E+04 -9.130578E+03 -1.739337E+03
       263   6 -6.522363E+03 -4.703500E+05 -3.079945E+04  9.572411E+04 -1.925240E+03  1.133586E+04
       263   7  8.538846E+04 -9.271921E+04  5.385271E+04  9.135204E+04 -1.580719E+04 -1.947408E+04
       263   8  5.330948E+04 -2.547655E+05  2.320220E+04  5.215800E+04 -9.117906E+03 -6.762790E+03
       263   9  5.422101E+03 -4.218026E+05 -1.955080E+04  9.911401E+04 -1.912503E+03  5.944091E+03
       263  10 -1.005815E+05 -8.478868E+05 -1.201868E+05  1.000874E+05 -1.302369E-09  4.684792E-09
       263  11 -5.155303E+04 -6.808296E+05 -7.480781E+04  5.313415E+04  1.347914E-09  4.285178E-09
       263  12 -1.846701E+04 -5.188955E+05 -4.204867E+04  9.233450E+04  3.504760E-10  1.884849E-09
       263  13 -7.591727E+03 -4.703693E+05 -3.316289E+04  9.572088E+04 -4.012307E-10 -1.093361E-09
       263  14  8.797630E+02 -4.678186E+05 -2.580142E+04  5.264612E+04 -8.791229E-10  3.927027E-10
       263  15 -6.522402E+03 -4.703502E+05 -3.079970E+04  9.572412E+04 -1.634411E-09  3.935537E-09
       263  16  8.538809E+04 -9.271968E+04  5.385153E+04  9.135179E+04 -2.882695E-09 -4.865449E-09
       263  17  5.330938E+04 -2.547655E+05  2.320196E+04  5.215795E+04  1.334251E-09 -6.381400E-09
       263  18  5.422087E+03 -4.218026E+05 -1.955088E+04  9.911402E+04 -1.820725E-09  1.830417E-09
       263  19 -1.005812E+05 -8.478867E+05 -1.201861E+05  1.000875E+05  1.583231E+04  1.016005E+04
       263  20 -5.155294E+04 -6.808296E+05 -7.480763E+04  5.313412E+04  9.143244E+03 -3.282405E+03
       263  21 -1.846693E+04 -5.188952E+05 -4.204814E+04  9.233447E+04  1.938036E+03 -1.672720E+04
       263  22 -7.591399E+03 -4.703690E+05 -3.316201E+04  9.572107E+04  1.581978E+04  1.481566E+04
       263  23  8.798533E+02 -4.678186E+05 -2.580126E+04  5.264614E+04  9.130578E+03  1.739337E+03
       263  24 -6.522363E+03 -4.703500E+05 -3.079945E+04  9.572411E+04  1.925240E+03 -1.133586E+04
       263  25  8.538846E+04 -9.271921E+04  5.385271E+04  9.135204E+04  1.580719E+04  1.947408E+04
       263  26  5.330948E+04 -2.547655E+05  2.320220E+04  5.215800E+04  9.117906E+03  6.762790E+03
       263  27  5.422101E+03 -4.218026E+05 -1.955080E+04  9.911401E+04  1.912503E+03 -5.944091E+03
       264   1  3.064570E+04 -3.656621E+05 -9.164377E+03  1.082704E+05  4.375670E+03  2.567725E+04
       264   2  7.317136E+04 -1.886517E+05  1.316192E+04  4.079776E+04  1.045746E+04  4.345273E+04
       264   3  2.241913E+04 -3.663343E+04  7.269186E+02  5.889102E+04  4.037824E+03  6.120063E+04
       264   4  3.757801E+03 -4.751293E+05 -3.444970E+04  9.566767E+04  4.396243E+03  1.676535E+04
       264   5  5.763828E+03 -4.618528E+05 -5.022562E+04  5.276259E+04  1.045839E+04  4.352796E+04
       264   6 -8.709341E+04 -4.751730E+05 -1.070203E+05  9.543127E+04  4.018053E+03  7.025797E+04
       264   7 -2.313029E+04 -5.845849E+05 -5.973543E+04  8.306716E+04  4.417181E+03  7.855014E+03
       264   8 -6.164845E+04 -7.349847E+05 -1.136181E+05  6.472216E+04  1.045933E+04  4.360317E+04
       264   9 -1.966153E+05 -9.135345E+05 -2.147808E+05  1.319458E+05  3.999341E+03  7.930890E+04
       264  10  3.064550E+04 -3.656629E+05 -9.165653E+03  1.082703E+05  5.262265E-10  4.676787E-09
       264  11  7.317074E+04 -1.886537E+05  1.315816E+04  4.079739E+04  3.086202E-09  6.038194E-09
       264  12  2.241810E+04 -3.663745E+04  7.198490E+02  5.889082E+04 -4.865143E-10  1.142490E-09
       264  13  3.757704E+03 -4.751296E+05 -3.445026E+04  9.566761E+04  1.693833E-10  4.760268E-11
       264  14  5.763201E+03 -4.618549E+05 -5.022939E+04  5.276222E+04 -6.557941E-10  1.988016E-09
       264  15 -8.709475E+04 -4.751783E+05 -1.070297E+05  9.543105E+04  1.141369E-09  4.606678E-09
       264  16 -2.313033E+04 -5.845850E+05 -5.973558E+04  8.306713E+04 -3.406135E-09 -4.450795E-09
       264  17 -6.164908E+04 -7.349867E+05 -1.136219E+05  6.472179E+04  3.454144E-09 -1.279965E-09
       264  18 -1.966170E+05 -9.135412E+05 -2.147926E+05  1.319455E+05  1.466149E-09  1.741156E-09
       264  19  3.064570E+04 -3.656621E+05 -9.164377E+03  1.082704E+05 -4.375670E+03 -2.567725E+04
       264  20  7.317136E+04 -1.886517E+05  1.316192E+04  4.079776E+04 -1.045746E+04 -4.345273E+04
       264  21  2.241913E+04 -3.663343E+04  7.269186E+02  5.889102E+04 -4.037824E+03 -6.120063E+04
       264  22  3.757801E+03 -4.751293E+05 -3.444970E+04  9.566767E+04 -4.396243E+03 -1.676535E+04
       264  23  5.763828E+03 -4.618528E+05 -5.022562E+04  5.276259E+04 -1.045839E+04 -4.352796E+04
       264  24 -8.709341E+04 -4.751730E+05 -1.070203E+05  9.543127E+04 -4.018053E+03 -7.025797E+04
       264  25 -2.313029E+04 -5.845849E+05 -5.973543E+04  8.306716E+04 -4.417181E+03 -7.855014E+03
       264  26 -6.164845E+04 -7.349847E+05 -1.136181E+05  6.472216E+04 -1.045933E+04 -4.360317E+04
       264  27 -1.966153E+05 -9.135345E+05 -2.147808E+05  1.319458E+05 -3.999341E+03 -7.930890E+04
       265   1  4.738298E+05  1.589024E+05  9.298956E+04  1.794786E+05  4.938851E+04  1.776154E+04
       265   2  4.594669E+05  8.325010E+04  4.654845E+04  1.807203E+05  3.158466E+04  9.137799E+03
       265   3  4.666803E+05  7.356348E+04  3.076158E+04  1.707143E+05  1.305013E+04  2.443034E+03
       265   4  4.205118E+05  1.170902E+05  7.437663E+04  1.428062E+05  4.762974E+04  1.709279E+04
       265   5  4.058462E+05  5.631021E+04  3.163659E+04  1.590179E+05  3.112786E+04  8.964215E+03
       265   6  4.125010E+05  6.124014E+04  1.852080E+04  1.639812E+05  1.389511E+04  2.763534E+03
       265   7  3.671984E+05  7.528264E+04  5.576382E+04  1.061381E+05  4.587115E+04  1.642425E+04
       265   8  3.522287E+05  2.937134E+04  1.672453E+04  1.373175E+05  3.067111E+04  8.790660E+03
       265   9  3.583244E+05  4.891665E+04  6.279812E+03  1.572484E+05  1.474001E+04  3.084033E+03
       265  10  4.738271E+05  1.589015E+05  9.298438E+04  1.794779E+05  4.395529E-09  6.625646E-09
       265  11  4.594658E+05  8.324974E+04  4.654642E+04  1.807200E+05  3.517106E-09 -1.316957E-08
       265  12  4.666801E+05  7.356342E+04  3.076125E+04  1.707143E+05 -2.233635E-09  3.705729E-09
       265  13  4.205093E+05  1.170893E+05  7.437182E+04  1.428056E+05  1.355460E-09 -1.128056E-08
       265  14  4.058452E+05  5.630986E+04  3.163461E+04  1.590177E+05  3.194223E-09 -8.376236E-09
       265  15  4.125008E+05  6.124008E+04  1.852043E+04  1.639812E+05  2.153236E-09  2.692852E-09
       265  16  3.671961E+05  7.528179E+04  5.575936E+04  1.061375E+05 -4.740898E-10 -2.161449E-09
       265  17  3.522277E+05  2.937101E+04  1.672261E+04  1.373173E+05  7.303727E-09  6.973431E-09
       265  18  3.583242E+05  4.891659E+04  6.279386E+03  1.572484E+05  3.277407E-09 -2.416148E-09
       265  19  4.738298E+05  1.589024E+05  9.298956E+04  1.794786E+05 -4.938851E+04 -1.776154E+04
       265  20  4.594669E+05  8.325010E+04  4.654845E+04  1.807203E+05 -3.158466E+04 -9.137799E+03
       265  21  4.666803E+05  7.356348E+04  3.076158E+04  1.707143E+05 -1.305013E+04 -2.443034E+03
       265  22  4.205118E+05  1.170902E+05  7.437663E+04  1.428062E+05 -4.762974E+04 -1.709279E+04
       265  23  4.058462E+05  5.631021E+04  3.163659E+04  1.590179E+05 -3.112786E+04 -8.964215E+03
       265  24  4.125010E+05  6.124014E+04  1.852080E+04  1.639812E+05 -1.389511E+04 -2.763534E+03
       265  25  3.671984E+05  7.528264E+04  5.576382E+04  1.061381E+05 -4.587115E+04 -1.642425E+04
       265  26  3.522287E+05  2.937134E+04  1.672453E+04  1.373175E+05 -3.067111E+04 -8.790660E+03
       265  27  3.583244E+05  4.891665E+04  6.279812E+03  1.572484E+05 -1.474001E+04 -3.084033E+03
       266   1  4.469721E+05  8.329346E+04  2.452595E+04  1.716755E+05  1.095171E+04  2.275103E+03
       266   2  4.380986E+05  7.173352E+04  1.445290E+04  1.670210E+05  6.919153E+03  1.222372E+03
       266   3  4.274484E+05  6.947583E+04  8.649339E+03  1.659114E+05  2.848078E+03  2.715127E+02
       266   4  4.101260E+05  6.793376E+04  1.487917E+04  1.599777E+05  1.119772E+04  2.368324E+03
       266   5  4.106983E+05  6.103686E+04  7.426286E+03  1.590597E+05  7.234065E+03  1.341749E+03
       266   6  4.094803E+05  6.342869E+04  4.188477E+03  1.616864E+05  3.231838E+03  4.170082E+02
       266   7  3.732811E+05  5.257425E+04  5.232278E+03  1.482807E+05  1.144371E+04  2.461538E+03
       266   8  3.832988E+05  5.034030E+04  3.996226E+02  1.510987E+05  7.548962E+03  1.461119E+03
       266   9  3.915126E+05  5.738158E+04 -2.723887E+02  1.574616E+05  3.615584E+03  5.624995E+02
       266  10  4.469720E+05  8.329342E+04  2.452572E+04  1.716754E+05  1.238303E-08  1.224455E-08
       266  11  4.380986E+05  7.173350E+04  1.445281E+04  1.670210E+05  3.745684E-09  4.906508E-09
       266  12  4.274484E+05  6.947583E+04  8.649324E+03  1.659114E+05 -6.218345E-09  5.681672E-10
       266  13  4.101258E+05  6.793372E+04  1.487892E+04  1.599777E+05 -2.431727E-09 -6.026327E-09
       266  14  4.106983E+05  6.103685E+04  7.426185E+03  1.590597E+05  3.946892E-09  1.570896E-08
       266  15  4.094803E+05  6.342869E+04  4.188457E+03  1.616864E+05 -3.393757E-10  1.247793E-08
       266  16  3.732810E+05  5.257421E+04  5.232021E+03  1.482806E+05 -1.173328E-08 -7.277353E-09
       266  17  3.832987E+05  5.034029E+04  3.995116E+02  1.510987E+05 -5.468672E-10 -1.041694E-08
       266  18  3.915126E+05  5.738157E+04 -2.724139E+02  1.574616E+05  1.009553E-08  1.083881E-08
       266  19  4.469721E+05  8.329346E+04  2.452595E+04  1.716755E+05 -1.095171E+04 -2.275103E+03
       266  20  4.380986E+05  7.173352E+04  1.445290E+04  1.670210E+05 -6.919153E+03 -1.222372E+03
       266  21  4.274484E+05  6.947583E+04  8.649339E+03  1.659114E+05 -2.848078E+03 -2.715127E+02
       266  22  4.101260E+05  6.793376E+04  1.487917E+04  1.599777E+05 -1.119772E+04 -2.368324E+03
       266  23  4.106983E+05  6.103686E+04  7.426286E+03  1.590597E+05 -7.234065E+03 -1.341749E+03
       266  24  4.094803E+05  6.342869E+04  4.188477E+03  1.616864E+05 -3.231838E+03 -4.170082E+02
       266  25  3.732811E+05  5.257425E+04  5.232278E+03  1.482807E+05 -1.144371E+04 -2.461538E+03
       266  26  3.832988E+05  5.034030E+04  3.996226E+02  1.510987E+05 -7.548962E+03 -1.461119E+03
       266  27  3.915126E+05  5.738158E+04 -2.723887E+02  1.574616E+05 -3.615584E+03 -5.624995E+02
       267   1  4.162936E+05  6.666138E+04  4.992622E+03  1.633569E+05  2.164613E+03  3.800556E+02
       267   2  4.080509E+05  6.028875E+04  9.426559E+02  1.582128E+05  1.090919E+03  5.727209E+02
       267   3  3.958878E+05  5.853383E+04 -2.343690E+03  1.577309E+05  1.515906E+01  7.708572E+02
       267   4  4.092309E+05  6.395039E+04  3.224135E+03  1.613434E+05  2.516466E+03  5.134533E+02
       267   5  4.111664E+05  6.146647E+04  1.733984E+03  1.590788E+05  1.446473E+03  7.075217E+02
       267   6  4.091808E+05  6.359962E+04  1.004602E+03  1.614765E+05  3.744008E+02  9.070555E+02
       267   7  4.021683E+05  6.123939E+04  1.455636E+03  1.593299E+05  2.868316E+03  6.468499E+02
       267   8  4.142819E+05  6.264420E+04  2.525313E+03  1.599448E+05  1.802031E+03  8.423235E+02
       267   9  4.224740E+05  6.866543E+04  4.352880E+03  1.652221E+05  7.336510E+02  1.043257E+03
       267  10  4.162936E+05  6.666138E+04  4.992613E+03  1.633569E+05 -9.759389E-10 -8.430694E-09
       267  11  4.080509E+05  6.028875E+04  9.426531E+02  1.582128E+05 -4.153040E-09 -1.564976E-08
       267  12  3.958878E+05  5.853383E+04 -2.343691E+03  1.577309E+05 -1.250271E-08 -1.222375E-08
       267  13  4.092309E+05  6.395039E+04  3.224122E+03  1.613434E+05  1.417755E-09 -1.215018E-09
       267  14  4.111664E+05  6.146647E+04  1.733979E+03  1.590788E+05  1.845541E-09  7.023526E-09
       267  15  4.091808E+05  6.359962E+04  1.004600E+03  1.614765E+05 -4.327454E-09  2.843984E-09
       267  16  4.021683E+05  6.123939E+04  1.455620E+03  1.593299E+05  2.139106E-09  2.819458E-09
       267  17  4.142819E+05  6.264420E+04  2.525306E+03  1.599448E+05  2.952986E-09  9.278586E-09
       267  18  4.224740E+05  6.866543E+04  4.352877E+03  1.652221E+05  8.630439E-09  6.905578E-09
       267  19  4.162936E+05  6.666138E+04  4.992622E+03  1.633569E+05 -2.164613E+03 -3.800556E+02
       267  20  4.080509E+05  6.028875E+04  9.426559E+02  1.582128E+05 -1.090919E+03 -5.727209E+02
       267  21  3.958878E+05  5.853383E+04 -2.343690E+03  1.577309E+05 -1.515906E+01 -7.708572E+02
       267  22  4.092309E+05  6.395039E+04  3.224135E+03  1.613434E+05 -2.516466E+03 -5.134533E+02
       267  23  4.111664E+05  6.146647E+04  1.733984E+03  1.590788E+05 -1.446473E+03 -7.075217E+02
       267  24  4.091808E+05  6.359962E+04  1.004602E+03  1.614765E+05 -3.744008E+02 -9.070555E+02
       267  25  4.021683E+05  6.123939E+04  1.455636E+03  1.593299E+05 -2.868316E+03 -6.468499E+02
       267  26  4.142819E+05  6.264420E+04  2.525313E+03  1.599448E+05 -1.802031E+03 -8.423235E+02
       267  27  4.224740E+05  6.866543E+04  4.352880E+03  1.652221E+05 -7.336510E+02 -1.043257E+03
       268   1  3.854707E+05  5.471651E+04 -5.252255E+03  1.549055E+05 -2.486595E+02  1.024864E+03
       268   2  3.772921E+05  4.873526E+04 -8.075020E+03  1.497058E+05 -7.172020E+02  1.454585E+03
       268   3  3.649637E+05  4.699714E+04 -1.068851E+04  1.492534E+05 -1.186092E+03  1.885359E+03
       268   4  4.091474E+05  6.363897E+04  7.939986E+02  1.614489E+05  1.091930E+02  1.160531E+03
       268   5  4.112207E+05  6.150569E+04  5.345206E+02  1.590797E+05 -3.586586E+02  1.590502E+03
       268   6  4.091438E+05  6.361536E+04  4.837791E+02  1.614577E+05 -8.268645E+02  2.021524E+03
       268   7  4.328246E+05  7.256142E+04  6.840182E+03  1.679924E+05  4.670591E+02  1.296203E+03
       268   8  4.451503E+05  7.427620E+04  9.143969E+03  1.684540E+05 -9.374518E-02  1.726426E+03
       268   9  4.533260E+05  8.023379E+04  1.165596E+04  1.736628E+05 -4.676072E+02  2.157701E+03
       268  10  3.854707E+05  5.471651E+04 -5.252258E+03  1.549055E+05 -1.384380E-08 -1.372063E-09
       268  11  3.772921E+05  4.873526E+04 -8.075025E+03  1.497058E+05 -8.238496E-09  1.014596E-08
       268  12  3.649637E+05  4.699713E+04 -1.068852E+04  1.492534E+05 -2.687322E-09  5.380880E-09
       268  13  4.091474E+05  6.363897E+04  7.939960E+02  1.614489E+05 -4.104941E-09  1.575216E-09
       268  14  4.112207E+05  6.150569E+04  5.345156E+02  1.590797E+05 -3.779218E-09  3.211024E-09
       268  15  4.091438E+05  6.361536E+04  4.837702E+02  1.614577E+05 -1.580162E-09 -1.974980E-09
       268  16  4.328246E+05  7.256142E+04  6.840179E+03  1.679924E+05  7.407328E-09  7.075815E-09
       268  17  4.451503E+05  7.427620E+04  9.143964E+03  1.684540E+05  1.967207E-09  7.347383E-09
       268  18  4.533260E+05  8.023378E+04  1.165595E+04  1.736628E+05  1.516018E-09 -5.034328E-09
       268  19  3.854707E+05  5.471651E+04 -5.252255E+03  1.549055E+05  2.486595E+02 -1.024864E+03
       268  20  3.772921E+05  4.873526E+04 -8.075020E+03  1.497058E+05  7.172020E+02 -1.454585E+03
       268  21  3.649637E+05  4.699714E+04 -1.068851E+04  1.492534E+05  1.186092E+03 -1.885359E+03
       268  22  4.091474E+05  6.363897E+04  7.939986E+02  1.614489E+05 -1.091930E+02 -1.160531E+03
       268  23  4.112207E+05  6.150569E+04  5.345206E+02  1.590797E+05  3.586586E+02 -1.590502E+03
       268  24  4.091438E+05  6.361536E+04  4.837791E+02  1.614577E+05  8.268645E+02 -2.021524E+03
       268  25  4.328246E+05  7.256142E+04  6.840182E+03  1.679924E+05 -4.670591E+02 -1.296203E+03
       268  26  4.451503E+05  7.427620E+04  9.143969E+03  1.684540E+05  9.374520E-02 -1.726426E+03
       268  27  4.533260E+05  8.023379E+04  1.165596E+04  1.736628E+05  4.676072E+02 -2.157701E+03
       269   1  3.545721E+05  4.309283E+04 -1.336113E+04  1.464118E+05 -1.387720E+03  2.163795E+03
       269   2  3.463369E+05  3.709639E+04 -1.572046E+04  1.411702E+05 -1.959834E+03  2.557780E+03
       269   3  3.339518E+05  3.539133E+04 -1.778771E+04  1.407051E+05 -2.532196E+03  2.952670E+03
       269   4  4.091427E+05  6.362010E+04  5.206959E+02  1.614663E+05 -1.027770E+03  2.300223E+03
       269   5  4.112203E+05  6.149347E+04  7.398403E+02  1.590708E+05 -1.599330E+03  2.694396E+03
       269   6  4.091478E+05  6.365807E+04  1.250602E+03  1.614518E+05 -2.171144E+03  3.089470E+03
       269   7  4.637162E+05  8.414757E+04  1.440227E+04  1.765221E+05 -6.677848E+02  2.436664E+03
       269   8  4.761077E+05  8.589078E+04  1.719977E+04  1.769731E+05 -1.238785E+03  2.831026E+03
       269   9  4.843490E+05  9.192507E+04  2.028838E+04  1.822006E+05 -1.810045E+03  3.226287E+03
       269  10  3.545721E+05  4.309283E+04 -1.336114E+04  1.464118E+05 -2.434417E-09  4.541666E-09
       269  11  3.463369E+05  3.709638E+04 -1.572048E+04  1.411702E+05 -3.210628E-09 -8.569876E-09
       269  12  3.339518E+05  3.539132E+04 -1.778774E+04  1.407051E+05 -1.395925E-10 -1.035026E-08
       269  13  4.091427E+05  6.362010E+04  5.206840E+02  1.614663E+05 -2.302353E-10  8.080005E-09
       269  14  4.112203E+05  6.149346E+04  7.398218E+02  1.590708E+05 -2.776485E-10 -2.085794E-09
       269  15  4.091478E+05  6.365806E+04  1.250575E+03  1.614518E+05  4.216360E-10  9.297389E-09
       269  16  4.637162E+05  8.414756E+04  1.440226E+04  1.765221E+05  3.142970E-09  5.557045E-10
       269  17  4.761077E+05  8.589077E+04  1.719975E+04  1.769731E+05  3.423983E-09  1.543496E-08
       269  18  4.843490E+05  9.192506E+04  2.028835E+04  1.822006E+05  4.647897E-10  3.988855E-09
       269  19  3.545721E+05  4.309283E+04 -1.336113E+04  1.464118E+05  1.387720E+03 -2.163795E+03
       269  20  3.463369E+05  3.709639E+04 -1.572046E+04  1.411702E+05  1.959834E+03 -2.557780E+03
       269  21  3.339518E+05  3.539133E+04 -1.778771E+04  1.407051E+05  2.532196E+03 -2.952670E+03
       269  22  4.091427E+05  6.362010E+04  5.206959E+02  1.614663E+05  1.027770E+03 -2.300223E+03
       269  23  4.112203E+05  6.149347E+04  7.398403E+02  1.590708E+05  1.599330E+03 -2.694396E+03
       269  24  4.091478E+05  6.365807E+04  1.250602E+03  1.614518E+05  2.171144E+03 -3.089470E+03
       269  25  4.637162E+05  8.414757E+04  1.440227E+04  1.765221E+05  6.677848E+02 -2.436664E+03
       269  26  4.761077E+05  8.589078E+04  1.719977E+04  1.769731E+05  1.238785E+03 -2.831026E+03
       269  27  4.843490E+05  9.192507E+04  2.028838E+04  1.822006E+05  1.810045E+03 -3.226287E+03
       270   1  3.234538E+05  3.146558E+04 -2.014065E+04  1.379705E+05 -2.892980E+03  3.175379E+03
       270   2  3.150639E+05  2.527998E+04 -2.148519E+04  1.325438E+05 -4.541166E+03  3.165630E+03
       270   3  3.028680E+05  2.407827E+04 -2.156342E+04  1.318198E+05 -6.185213E+03  3.145239E+03
       270   4  4.091943E+05  6.360514E+04  1.628926E+03  1.615136E+05 -2.526879E+03  3.314074E+03
       270   5  4.111383E+05  6.140686E+04  2.889012E+03  1.590505E+05 -4.182476E+03  3.301484E+03
       270   6  4.092779E+05  6.419392E+04  5.421207E+03  1.612901E+05 -5.833958E+03  3.278242E+03
       270   7  4.949423E+05  9.574531E+04  2.339800E+04  1.850598E+05 -2.160720E+03  3.452791E+03
       270   8  5.072219E+05  9.753443E+04  2.726253E+04  1.855610E+05 -3.823725E+03  3.437361E+03
       270   9  5.156987E+05  1.043103E+05  3.240493E+04  1.907650E+05 -5.482637E+03  3.411270E+03
       270  10  3.234538E+05  3.146556E+04 -2.014068E+04  1.379705E+05  6.235068E-09 -3.416210E-09
       270  11  3.150639E+05  2.527996E+04 -2.148525E+04  1.325438E+05  2.058507E-09 -4.473554E-09
       270  12  3.028680E+05  2.407825E+04 -2.156351E+04  1.318198E+05 -7.024191E-09 -6.246455E-09
       270  13  4.091943E+05  6.360513E+04  1.628893E+03  1.615136E+05  8.414836E-11  2.584169E-10
       270  14  4.111383E+05  6.140684E+04  2.888959E+03  1.590505E+05  3.278215E-09  1.042070E-08
       270  15  4.092778E+05  6.419390E+04  5.421123E+03  1.612901E+05 -1.917100E-09 -9.994081E-09
       270  16  4.949423E+05  9.574530E+04  2.339797E+04  1.850598E+05 -5.061769E-09  5.493002E-09
       270  17  5.072219E+05  9.753441E+04  2.726248E+04  1.855610E+05  1.706583E-09  3.849055E-09
       270  18  5.156987E+05  1.043103E+05  3.240485E+04  1.907650E+05  6.437322E-09  1.015019E-08
       270  19  3.234538E+05  3.146558E+04 -2.014065E+04  1.379705E+05  2.892980E+03 -3.175379E+03
       270  20  3.150639E+05  2.527998E+04 -2.148519E+04  1.325438E+05  4.541166E+03 -3.165630E+03
       270  21  3.028680E+05  2.407827E+04 -2.156342E+04  1.318198E+05  6.185213E+03 -3.145239E+03
       270  22  4.091943E+05  6.360514E+04  1.628926E+03  1.615136E+05  2.526879E+03 -3.314074E+03
       270  23  4.111383E+05  6.140686E+04  2.889012E+03  1.590505E+05  4.182476E+03 -3.301484E+03
       270  24  4.092779E+05  6.419392E+04  5.421207E+03  1.612901E+05  5.833958E+03 -3.278242E+03
       270  25  4.949423E+05  9.574531E+04  2.339800E+04  1.850598E+05  2.160720E+03 -3.452791E+03
       270  26  5.072219E+05  9.753443E+04  2.726253E+04  1.855610E+05  3.823725E+03 -3.437361E+03
       270  27  5.156987E+05  1.043103E+05  3.240493E+04  1.907650E+05  5.482637E+03 -3.411270E+03
       271   1  2.917366E+05  2.017154E+04 -2.267890E+04  1.305739E+05 -7.392165E+03  3.084203E+03
       271   2  2.832114E+05  1.220177E+04 -1.986118E+04  1.232586E+05 -1.384385E+04  1.230274E+03
       271   3  2.744082E+05  1.712031E+04 -1.005702E+04  1.188182E+05 -2.020459E+04 -8.632234E+02
       271   4  4.096906E+05  6.332411E+04  7.054365E+03  1.618810E+05 -6.964081E+03  3.246299E+03
       271   5  4.103572E+05  6.066589E+04  1.252390E+04  1.590031E+05 -1.357867E+04  1.330591E+03
       271   6  4.107773E+05  7.092687E+04  2.510788E+04  1.590000E+05 -2.010246E+04 -8.247547E+02
       271   7  5.276577E+05  1.064773E+05  3.678640E+04  1.931933E+05 -6.535909E+03  3.408426E+03
       271   8  5.375188E+05  1.091312E+05  4.490767E+04  1.947543E+05 -1.331344E+04  1.430931E+03
       271   9  5.471650E+05  1.247354E+05  6.027137E+04  1.991902E+05 -2.000030E+04 -7.862754E+02
       271  10  2.917365E+05  2.017151E+04 -2.267902E+04  1.305739E+05  4.289479E-09 -2.404442E-09
       271  11  2.832112E+05  1.220172E+04 -1.986154E+04  1.232586E+05  4.447106E-10  3.732305E-09
       271  12  2.744078E+05  1.712020E+04 -1.005779E+04  1.188182E+05 -1.152562E-09 -3.572765E-09
       271  13  4.096905E+05  6.332409E+04  7.054254E+03  1.618810E+05 -1.621750E-09 -9.700146E-09
       271  14  4.103570E+05  6.066584E+04  1.252355E+04  1.590031E+05  4.333037E-09  6.453809E-09
       271  15  4.107768E+05  7.092676E+04  2.510712E+04  1.590000E+05  2.005424E-09 -2.467470E-09
       271  16  5.276576E+05  1.064772E+05  3.678630E+04  1.931933E+05 -5.574725E-09 -4.024786E-09
       271  17  5.375186E+05  1.091312E+05  4.490733E+04  1.947543E+05  1.975596E-10 -7.106638E-09
       271  18  5.471646E+05  1.247353E+05  6.027062E+04  1.991902E+05  3.076118E-09 -7.423188E-09
       271  19  2.917366E+05  2.017154E+04 -2.267890E+04  1.305739E+05  7.392165E+03 -3.084203E+03
       271  20  2.832114E+05  1.220177E+04 -1.986118E+04  1.232586E+05  1.384385E+04 -1.230274E+03
       271  21  2.744082E+05  1.712031E+04 -1.005702E+04  1.188182E+05  2.020459E+04  8.632234E+02
       271  22  4.096906E+05  6.332411E+04  7.054365E+03  1.618810E+05  6.964081E+03 -3.246299E+03
       271  23  4.103572E+05  6.066589E+04  1.252390E+04  1.590031E+05  1.357867E+04 -1.330591E+03
       271  24  4.107773E+05  7.092687E+04  2.510788E+04  1.590000E+05  2.010246E+04  8.247547E+02
       271  25  5.276577E+05  1.064773E+05  3.678640E+04  1.931933E+05  6.535909E+03 -3.408426E+03
       271  26  5.375188E+05  1.091312E+05  4.490767E+04  1.947543E+05  1.331344E+04 -1.430931E+03
       271  27  5.471650E+05  1.247354E+05  6.027137E+04  1.991902E+05  2.000030E+04  7.862754E+02
       272   1  2.559190E+05  1.349362E+04 -6.446715E+03  1.358126E+05 -2.616425E+04 -2.105262E+03
       272   2  2.509142E+05 -1.558262E+04  1.277536E+04  1.055870E+05 -5.196708E+04 -1.189646E+04
       272   3  2.840471E+05  6.292345E+04  7.956094E+04  5.330024E+04 -7.603971E+04 -2.625718E+04
       272   4  4.147915E+05  5.962604E+04  3.125585E+04  1.657520E+05 -2.464071E+04 -1.527899E+03
       272   5  4.021665E+05  5.268528E+04  5.339241E+04  1.589318E+05 -5.353341E+04 -1.249066E+04
       272   6  4.282789E+05  1.539199E+05  1.255326E+05  1.300540E+05 -8.069574E+04 -2.802477E+04
       272   7  5.736891E+05  1.057582E+05  6.895686E+04  1.956973E+05 -2.311674E+04 -9.504554E+02
       272   8  5.534405E+05  1.209573E+05  9.400721E+04  2.122889E+05 -5.510014E+04 -1.308509E+04
       272   9  5.725322E+05  2.449304E+05  1.715018E+05  2.068265E+05 -8.535287E+04 -2.979347E+04
       272  10  2.559183E+05  1.349343E+04 -6.448009E+03  1.358126E+05  3.482443E-09  3.950068E-09
       272  11  2.509113E+05 -1.558350E+04  1.277002E+04  1.055865E+05  7.977459E-11 -4.145842E-09
       272  12  2.840407E+05  6.292116E+04  7.954879E+04  5.329863E+04 -1.133663E-09  8.036748E-09
       272  13  4.147908E+05  5.962587E+04  3.125471E+04  1.657520E+05  1.732046E-09 -1.213382E-08
       272  14  4.021633E+05  5.268434E+04  5.338674E+04  1.589312E+05 -1.317046E-09  1.998026E-09
       272  15  4.282717E+05  1.539173E+05  1.255188E+05  1.300522E+05  7.253222E-10  8.273215E-09
       272  16  5.736886E+05  1.057581E+05  6.895586E+04  1.956972E+05 -3.739907E-09 -8.388169E-09
       272  17  5.534372E+05  1.209563E+05  9.400119E+04  2.122884E+05 -1.008062E-10 -1.119617E-08
       272  18  5.725241E+05  2.449275E+05  1.714865E+05  2.068245E+05  1.551423E-09  2.283345E-10
       272  19  2.559190E+05  1.349362E+04 -6.446715E+03  1.358126E+05  2.616425E+04  2.105262E+03
       272  20  2.509142E+05 -1.558262E+04  1.277536E+04  1.055870E+05  5.196708E+04  1.189646E+04
       272  21  2.840471E+05  6.292345E+04  7.956094E+04  5.330024E+04  7.603971E+04  2.625718E+04
       272  22  4.147915E+05  5.962604E+04  3.125585E+04  1.657520E+05  2.464071E+04  1.527899E+03
       272  23  4.021665E+05  5.268528E+04  5.339241E+04  1.589318E+05  5.353341E+04  1.249066E+04
       272  24  4.282789E+05  1.539199E+05  1.255326E+05  1.300540E+05  8.069574E+04  2.802477E+04
       272  25  5.736891E+05  1.057582E+05  6.895686E+04  1.956973E+05  2.311674E+04  9.504554E+02
       272  26  5.534405E+05  1.209573E+05  9.400721E+04  2.122889E+05  5.510014E+04  1.308509E+04
       272  27  5.725322E+05  2.449304E+05  1.715018E+05  2.068265E+05  8.535287E+04  2.979347E+04
       273   1 -7.622257E+04 -5.728804E+05 -8.397748E+04  2.876950E+04 -1.739563E+03 -3.350175E+04
       273   2 -3.144733E+04 -5.456856E+05 -5.309737E+04  1.312623E+04 -5.475312E+03 -1.924130E+04
       273   3 -2.698085E+04 -5.303332E+05 -4.157319E+04  8.401570E+03 -5.100592E+03 -4.967050E+03
       273   4 -3.646734E+04 -4.137416E+05 -4.501109E+04  1.338931E+04 -1.751888E+03 -2.937210E+04
       273   5  2.494213E+03 -4.080734E+05 -2.126245E+04  7.990009E+03 -5.478760E+03 -1.806672E+04
       273   6  1.664887E+03 -4.137323E+05 -1.481339E+04  1.350981E+04 -5.095096E+03 -6.748119E+03
       273   7  3.286893E+03 -2.545791E+05 -6.046369E+03 -1.994830E+03 -1.764416E+03 -2.524139E+04
       273   8  3.643452E+04 -2.704437E+05  1.057123E+04  2.852652E+03 -5.482227E+03 -1.689187E+04
       273   9  3.030978E+04 -2.971188E+05  1.194555E+04  1.861902E+04 -5.089631E+03 -8.529521E+03
       273  10 -7.622288E+04 -5.728816E+05 -8.397960E+04  2.876946E+04  2.034963E-10 -7.960197E-09
       273  11 -3.144746E+04 -5.456860E+05 -5.309812E+04  1.312615E+04 -2.510127E-09 -8.312773E-09
       273  12 -2.698088E+04 -5.303332E+05 -4.157329E+04  8.401550E+03 -6.747520E-10 -4.322821E-09
       273  13 -3.646758E+04 -4.137425E+05 -4.501272E+04  1.338926E+04  2.594329E-10  3.178275E-11
       273  14  2.494093E+03 -4.080738E+05 -2.126312E+04  7.989929E+03 -9.254712E-10  3.206427E-09
       273  15  1.664847E+03 -4.137324E+05 -1.481352E+04  1.350978E+04  2.706540E-10 -8.665830E-09
       273  16  3.286719E+03 -2.545798E+05 -6.047572E+03 -1.994866E+03 -5.694066E-11 -1.098048E-09
       273  17  3.643441E+04 -2.704440E+05  1.057064E+04  2.852577E+03  6.938638E-10  1.260528E-08
       273  18  3.030973E+04 -2.971189E+05  1.194537E+04  1.861899E+04 -1.954609E-09  1.272979E-08
       273  19 -7.622257E+04 -5.728804E+05 -8.397748E+04  2.876950E+04  1.739563E+03  3.350175E+04
       273  20 -3.144733E+04 -5.456856E+05 -5.309737E+04  1.312623E+04  5.475312E+03  1.924130E+04
       273  21 -2.698085E+04 -5.303332E+05 -4.157319E+04  8.401570E+03  5.100592E+03  4.967050E+03
       273  22 -3.646734E+04 -4.137416E+05 -4.501109E+04  1.338931E+04  1.751888E+03  2.937210E+04
       273  23  2.494213E+03 -4.080734E+05 -2.126245E+04  7.990009E+03  5.478760E+03  1.806672E+04
       273  24  1.664887E+03 -4.137323E+05 -1.481339E+04  1.350981E+04  5.095096E+03  6.748119E+03
       273  25  3.286893E+03 -2.545791E+05 -6.046369E+03 -1.994830E+03  1.764416E+03  2.524139E+04
       273  26  3.643452E+04 -2.704437E+05  1.057123E+04  2.852652E+03  5.482227E+03  1.689187E+04
       273  27  3.030978E+04 -2.971188E+05  1.194555E+04  1.861902E+04  5.089631E+03  8.529521E+03
       274   1 -2.626027E+04 -5.077897E+05 -3.553229E+04  1.528578E+04 -4.005950E+03 -3.875527E+03
       274   2 -1.789527E+04 -4.851741E+05 -2.879859E+04  8.038591E+03 -3.206583E+03  2.142140E+03
       274   3 -1.656551E+04 -4.650129E+05 -2.772438E+04  1.198569E+04 -2.226876E+03  8.160439E+03
       274   4 -2.603603E+03 -4.117562E+05 -1.339213E+04  1.353463E+04 -4.004302E+03 -4.399454E+03
       274   5  4.728012E+02 -4.105399E+05 -1.163056E+04  7.936226E+03 -3.204585E+03  1.489129E+03
       274   6 -3.463119E+03 -4.117557E+05 -1.543829E+04  1.353209E+04 -2.224508E+03  7.378142E+03
       274   7  2.105243E+04 -3.157141E+05  8.747413E+03  1.178321E+04 -4.002651E+03 -4.923462E+03
       274   8  1.884048E+04 -3.359005E+05  5.537098E+03  7.833853E+03 -3.202587E+03  8.360402E+02
       274   9  9.639083E+03 -3.584958E+05 -3.152378E+03  1.507862E+04 -2.222144E+03  6.595778E+03
       274  10 -2.626029E+04 -5.077897E+05 -3.553235E+04  1.528576E+04 -1.184248E-09 -1.285888E-08
       274  11 -1.789528E+04 -4.851741E+05 -2.879861E+04  8.038596E+03  1.720332E-12 -1.111387E-08
       274  12 -1.656553E+04 -4.650130E+05 -2.772452E+04  1.198571E+04  1.222335E-09 -8.677062E-09
       274  13 -2.603626E+03 -4.117562E+05 -1.339220E+04  1.353461E+04  3.415999E-11 -4.100484E-12
       274  14  4.727896E+02 -4.105399E+05 -1.163058E+04  7.936230E+03  3.021747E-09  3.252466E-09
       274  15 -3.463139E+03 -4.117557E+05 -1.543840E+04  1.353210E+04  1.518791E-10 -1.643520E-08
       274  16  2.105240E+04 -3.157142E+05  8.747338E+03  1.178319E+04 -2.539757E-09  2.991533E-09
       274  17  1.884047E+04 -3.359005E+05  5.537078E+03  7.833855E+03  2.407466E-09  1.013311E-08
       274  18  9.639066E+03 -3.584958E+05 -3.152469E+03  1.507863E+04  9.594724E-10  1.086119E-08
       274  19 -2.626027E+04 -5.077897E+05 -3.553229E+04  1.528578E+04  4.005950E+03  3.875527E+03
       274  20 -1.789527E+04 -4.851741E+05 -2.879859E+04  8.038591E+03  3.206583E+03 -2.142140E+03
       274  21 -1.656551E+04 -4.650129E+05 -2.772438E+04  1.198569E+04  2.226876E+03 -8.160439E+03
       274  22 -2.603603E+03 -4.117562E+05 -1.339213E+04  1.353463E+04  4.004302E+03  4.399454E+03
       274  23  4.728012E+02 -4.105399E+05 -1.163056E+04  7.936226E+03  3.204585E+03 -1.489129E+03
       274  24 -3.463119E+03 -4.117557E+05 -1.543829E+04  1.353209E+04  2.224508E+03 -7.378142E+03
       274  25  2.105243E+04 -3.157141E+05  8.747413E+03  1.178321E+04  4.002651E+03  4.923462E+03
       274  26  1.884048E+04 -3.359005E+05  5.537098E+03  7.833853E+03  3.202587E+03 -8.360402E+02
       274  27  9.639083E+03 -3.584958E+05 -3.152378E+03  1.507862E+04  2.222144E+03 -6.595778E+03
       275   1 -5.756149E+03 -4.471390E+05 -2.526260E+04  2.061803E+04 -1.537230E+03  1.100032E+04
       275   2  5.109468E+02 -4.184700E+05 -2.953763E+04  1.721963E+03 -6.086787E+02  2.502810E+04
       275   3 -4.470919E+04 -4.044178E+05 -5.580242E+04 -6.064440E+03 -1.665589E+02  3.905471E+04
       275   4  2.324981E+03 -4.144746E+05 -1.778732E+04  1.356011E+04 -1.534754E+03  1.012719E+04
       275   5  3.248279E+03 -4.071403E+05 -2.696352E+04  7.931285E+03 -6.068713E+02  2.450478E+04
       275   6 -4.737668E+04 -4.144845E+05 -5.837261E+04  1.341218E+04 -1.648189E+02  3.888073E+04
       275   7  1.040622E+04 -3.818091E+05 -1.031208E+04  6.501821E+03 -1.532257E+03  9.254021E+03
       275   8  5.985748E+03 -3.958104E+05 -2.438940E+04  1.414072E+04 -6.050744E+02  2.398146E+04
       275   9 -5.004275E+04 -4.245502E+05 -6.094261E+04  3.288848E+04 -1.630899E+02  3.870676E+04
       275  10 -5.756184E+03 -4.471391E+05 -2.526283E+04  2.061804E+04  2.164736E-09 -9.743574E-09
       275  11  5.107781E+02 -4.184706E+05 -2.953880E+04  1.721975E+03  2.871466E-09 -9.644779E-09
       275  12 -4.470960E+04 -4.044195E+05 -5.580529E+04 -6.064435E+03  2.047796E-10 -2.081246E-09
       275  13  2.324951E+03 -4.144747E+05 -1.778752E+04  1.356012E+04  1.780890E-09  4.471107E-11
       275  14  3.248117E+03 -4.071409E+05 -2.696465E+04  7.931297E+03  1.330310E-09 -5.376677E-09
       275  15 -4.737708E+04 -4.144861E+05 -5.837546E+04  1.341218E+04  1.203076E-09 -1.016907E-08
       275  16  1.040620E+04 -3.818092E+05 -1.031225E+04  6.501832E+03  8.509983E-10  1.218185E-09
       275  17  5.985593E+03 -3.958110E+05 -2.439048E+04  1.414073E+04  3.223420E-09  3.821778E-09
       275  18 -5.004315E+04 -4.245519E+05 -6.094543E+04  3.288848E+04  5.805190E-10  8.609257E-09
       275  19 -5.756149E+03 -4.471390E+05 -2.526260E+04  2.061803E+04  1.537230E+03 -1.100032E+04
       275  20  5.109468E+02 -4.184700E+05 -2.953763E+04  1.721963E+03  6.086787E+02 -2.502810E+04
       275  21 -4.470919E+04 -4.044178E+05 -5.580242E+04 -6.064440E+03  1.665589E+02 -3.905471E+04
       275  22  2.324981E+03 -4.144746E+05 -1.778732E+04  1.356011E+04  1.534754E+03 -1.012719E+04
       275  23  3.248279E+03 -4.071403E+05 -2.696352E+04  7.931285E+03  6.068713E+02 -2.450478E+04
       275  24 -4.737668E+04 -4.144845E+05 -5.837261E+04  1.341218E+04  1.648189E+02 -3.888073E+04
       275  25  1.040622E+04 -3.818091E+05 -1.031208E+04  6.501821E+03  1.532257E+03 -9.254021E+03
       275  26  5.985748E+03 -3.958104E+05 -2.438940E+04  1.414072E+04  6.050744E+02 -2.398146E+04
       275  27 -5.004275E+04 -4.245502E+05 -6.094261E+04  3.288848E+04  1.630899E+02 -3.870676E+04
       276   1 -1.362605E+05 -1.060630E+05 -9.215169E+04 -9.587444E+03  2.384869E+04  7.466942E+03
       276   2 -9.161152E+04 -1.431289E+05 -1.046350E+05 -9.747700E+03  2.092084E+04  2.294949E+04
       276   3 -3.376055E+04 -1.298944E+05 -1.025949E+05 -3.614144E+04  1.801020E+04  2.283089E+04
       276   4  4.835181E+05  4.809963E+04  5.926732E+04 -2.882578E+04  4.063977E+04  7.484805E+03
       276   5  4.759633E+05 -3.425395E+03  2.647925E+04 -1.568466E+04  2.647019E+04  2.295287E+04
       276   6  4.835449E+05 -2.724532E+03  1.600688E+04 -2.877465E+04  1.231818E+04  2.282602E+04
       276   7  1.103648E+06  2.022355E+05  2.106596E+05 -4.808346E+04  5.744755E+04  7.501620E+03
       276   8  1.043836E+06  1.362557E+05  1.575722E+05 -2.162714E+04  3.202456E+04  2.295615E+04
       276   9  1.001098E+06  1.244269E+05  1.345912E+05 -2.140171E+04  6.621456E+03  2.282101E+04
       276  10 -1.362611E+05 -1.060632E+05 -9.215287E+04 -9.587588E+03 -5.950674E-11 -1.199852E-11
       276  11 -9.161213E+04 -1.431296E+05 -1.046368E+05 -9.748087E+03 -1.422798E-10 -6.938769E-11
       276  12 -3.376104E+04 -1.298951E+05 -1.025965E+05 -3.614177E+04  1.632135E-11 -2.747393E-11
       276  13  4.835163E+05  4.809913E+04  5.926411E+04 -2.882603E+04  3.721372E-10 -5.932476E-11
       276  14  4.759624E+05 -3.426149E+03  2.647694E+04 -1.568514E+04 -3.756811E-10 -1.105195E-10
       276  15  4.835446E+05 -2.725132E+03  1.600562E+04 -2.877487E+04 -2.044865E-10  4.303109E-11
       276  16  1.103645E+06  2.022345E+05  2.106533E+05 -4.808381E+04 -2.845495E-10 -1.021133E-10
       276  17  1.043835E+06  1.362548E+05  1.575693E+05 -2.162773E+04  1.436351E-10 -1.894104E-10
       276  18  1.001098E+06  1.244264E+05  1.345901E+05 -2.140183E+04  2.730820E-10  6.594930E-11
       276  19 -1.362605E+05 -1.060630E+05 -9.215169E+04 -9.587444E+03 -2.384869E+04 -7.466942E+03
       276  20 -9.161152E+04 -1.431289E+05 -1.046350E+05 -9.747700E+03 -2.092084E+04 -2.294949E+04
       276  21 -3.376055E+04 -1.298944E+05 -1.025949E+05 -3.614144E+04 -1.801020E+04 -2.283089E+04
       276  22  4.835181E+05  4.809963E+04  5.926732E+04 -2.882578E+04 -4.063977E+04 -7.484805E+03
       276  23  4.759633E+05 -3.425395E+03  2.647925E+04 -1.568466E+04 -2.647019E+04 -2.295287E+04
       276  24  4.835449E+05 -2.724532E+03  1.600688E+04 -2.877465E+04 -1.231818E+04 -2.282602E+04
       276  25  1.103648E+06  2.022355E+05  2.106596E+05 -4.808346E+04 -5.744755E+04 -7.501620E+03
       276  26  1.043836E+06  1.362557E+05  1.575722E+05 -2.162714E+04 -3.202456E+04 -2.295615E+04
       276  27  1.001098E+06  1.244269E+05  1.345912E+05 -2.140171E+04 -6.621456E+03 -2.282101E+04
       277   1  1.205304E+04 -1.117298E+05 -9.504832E+04 -2.781191E+04  1.082955E+04  1.953876E+04
       277   2  6.182946E+04 -1.031200E+05 -8.924138E+04 -1.543541E+04  7.937856E+03  1.793071E+04
       277   3  1.130830E+05 -9.061623E+04 -8.055092E+04 -2.949886E+04  5.044806E+03  1.555901E+04
       277   4  4.805394E+05  3.529315E+03  1.288660E+04 -2.883581E+04  9.952827E+03  1.953724E+04
       277   5  4.797611E+05 -3.475137E+02  6.807953E+03 -1.561560E+04  6.508924E+03  1.792934E+04
       277   6  4.805522E+05 -2.360141E+02  3.994566E+03 -2.883417E+04  3.063901E+03  1.555801E+04
       277   7  9.492287E+05  1.187731E+05  1.208070E+05 -2.986051E+04  9.075443E+03  1.953573E+04
       277   8  8.978543E+05  1.024128E+05  1.028458E+05 -1.579592E+04  5.079038E+03  1.792796E+04
       277   9  8.481462E+05  9.013477E+04  8.853113E+04 -2.816908E+04  1.081832E+03  1.555700E+04
       277  10  1.205282E+04 -1.117302E+05 -9.504926E+04 -2.781208E+04 -4.329051E-10  4.101871E-11
       277  11  6.182930E+04 -1.031203E+05 -8.924211E+04 -1.543552E+04 -1.078690E-11 -9.069265E-11
       277  12  1.130829E+05 -9.061650E+04 -8.055142E+04 -2.949892E+04  2.023406E-10 -2.688960E-10
       277  13  4.805392E+05  3.528878E+03  1.288569E+04 -2.883597E+04  3.298651E-10  2.040201E-10
       277  14  4.797610E+05 -3.478704E+02  6.807269E+03 -1.561569E+04 -5.163250E-10 -1.805695E-10
       277  15  4.805521E+05 -2.362766E+02  3.994093E+03 -2.883421E+04  1.824364E-10 -2.716464E-11
       277  16  9.492285E+05  1.187726E+05  1.208061E+05 -2.986065E+04 -3.346192E-10  1.292187E-10
       277  17  8.978542E+05  1.024124E+05  1.028451E+05 -1.579599E+04 -4.300924E-13  2.801310E-11
       277  18  8.481462E+05  9.013451E+04  8.853067E+04 -2.816910E+04  1.223855E-10  1.377471E-10
       277  19  1.205304E+04 -1.117298E+05 -9.504832E+04 -2.781191E+04 -1.082955E+04 -1.953876E+04
       277  20  6.182946E+04 -1.031200E+05 -8.924138E+04 -1.543541E+04 -7.937856E+03 -1.793071E+04
       277  21  1.130830E+05 -9.061623E+04 -8.055092E+04 -2.949886E+04 -5.044806E+03 -1.555901E+04
       277  22  4.805394E+05  3.529315E+03  1.288660E+04 -2.883581E+04 -9.952827E+03 -1.953724E+04
       277  23  4.797611E+05 -3.475137E+02  6.807953E+03 -1.561560E+04 -6.508924E+03 -1.792934E+04
       277  24  4.805522E+05 -2.360141E+02  3.994566E+03 -2.883417E+04 -3.063901E+03 -1.555801E+04
       277  25  9.492287E+05  1.187731E+05  1.208070E+05 -2.986051E+04 -9.075443E+03 -1.953573E+04
       277  26  8.978543E+05  1.024128E+05  1.028458E+05 -1.579592E+04 -5.079038E+03 -1.792796E+04
       277  27  8.481462E+05  9.013477E+04  8.853113E+04 -2.816908E+04 -1.081832E+03 -1.555700E+04
       278   1  1.609472E+05 -7.826285E+04 -7.013293E+04 -2.880251E+04  4.178640E+03  1.402385E+04
       278   2  2.109518E+05 -6.623752E+04 -6.007350E+04 -1.568984E+04  3.324023E+03  1.159152E+04
       278   3  2.611880E+05 -5.390965E+04 -4.937290E+04 -2.883420E+04  2.468309E+03  9.126297E+03
       278   4  4.802634E+05  2.241546E+02  3.095158E+03 -2.879409E+04  2.439737E+03  1.402317E+04
       278   5  4.801501E+05 -4.972966E+01  1.767390E+03 -1.566592E+04  1.560965E+03  1.159118E+04
       278   6  4.802708E+05 -1.664513E+01  1.097600E+03 -2.879408E+04  6.811622E+02  9.126297E+03
       278   7  7.996740E+05  7.870406E+04  7.631654E+04 -2.878566E+04  6.999471E+02  1.402249E+04
       278   8  7.494155E+05  6.613300E+04  6.360351E+04 -1.564199E+04 -2.028523E+02  1.159083E+04
       278   9  6.993980E+05  5.387300E+04  5.156492E+04 -2.875396E+04 -1.106610E+03  9.126296E+03
       278  10  1.609471E+05 -7.826306E+04 -7.013333E+04 -2.880255E+04 -4.826592E-10 -2.451047E-10
       278  11  2.109518E+05 -6.623766E+04 -6.007377E+04 -1.568987E+04 -2.424464E-10  8.186542E-11
       278  12  2.611880E+05 -5.390974E+04 -4.937306E+04 -2.883422E+04  2.727415E-10 -1.231838E-10
       278  13  4.802633E+05  2.239418E+02  3.094777E+03 -2.879411E+04  6.467690E-11  1.307737E-10
       278  14  4.801501E+05 -4.987463E+01  1.767133E+03 -1.566593E+04  3.811234E-10  1.104320E-10
       278  15  4.802708E+05 -1.673471E+01  1.097443E+03 -2.879409E+04 -2.658174E-10 -1.545553E-10
       278  16  7.996740E+05  7.870385E+04  7.631617E+04 -2.878567E+04  2.290730E-10  1.215308E-10
       278  17  7.494154E+05  6.613286E+04  6.360325E+04 -1.564199E+04  1.616630E-10  8.411801E-11
       278  18  6.993980E+05  5.387291E+04  5.156476E+04 -2.875395E+04 -3.655533E-10 -2.190662E-10
       278  19  1.609472E+05 -7.826285E+04 -7.013293E+04 -2.880251E+04 -4.178640E+03 -1.402385E+04
       278  20  2.109518E+05 -6.623752E+04 -6.007350E+04 -1.568984E+04 -3.324023E+03 -1.159152E+04
       278  21  2.611880E+05 -5.390965E+04 -4.937290E+04 -2.883420E+04 -2.468309E+03 -9.126297E+03
       278  22  4.802634E+05  2.241546E+02  3.095158E+03 -2.879409E+04 -2.439737E+03 -1.402317E+04
       278  23  4.801501E+05 -4.972966E+01  1.767390E+03 -1.566592E+04 -1.560965E+03 -1.159118E+04
       278  24  4.802708E+05 -1.664513E+01  1.097600E+03 -2.879408E+04 -6.811622E+02 -9.126297E+03
       278  25  7.996740E+05  7.870406E+04  7.631654E+04 -2.878566E+04 -6.999471E+02 -1.402249E+04
       278  26  7.494155E+05  6.613300E+04  6.360351E+04 -1.564199E+04  2.028523E+02 -1.159083E+04
       278  27  6.993980E+05  5.387300E+04  5.156492E+04 -2.875396E+04  1.106610E+03 -9.126296E+03
       279   1  3.090079E+05 -4.205364E+04 -3.828885E+04 -2.876247E+04  2.274238E+03  7.686365E+03
       279   2  3.588828E+05 -2.983271E+04 -2.718809E+04 -1.568335E+04  1.937048E+03  5.224983E+03
       279   3  4.088103E+05 -1.757660E+04 -1.585991E+04 -2.874953E+04  1.599354E+03  2.764162E+03
       279   4  4.802344E+05  1.384646E+01  8.960739E+02 -2.876935E+04  5.012120E+02  7.686523E+03
       279   5  4.802113E+05 -4.482703E+00  6.805968E+02 -1.569685E+04  1.642740E+02  5.225289E+03
       279   6  4.802376E+05  1.228936E+01  6.922369E+02 -2.876935E+04 -1.731407E+02  2.764627E+03
       279   7  6.514880E+05  4.207930E+04  4.007909E+04 -2.877622E+04 -1.272298E+03  7.686680E+03
       279   8  6.015534E+05  2.982272E+04  2.854832E+04 -1.571035E+04 -1.608843E+03  5.225596E+03
       279   9  5.516697E+05  1.760082E+04  1.724405E+04 -2.878916E+04 -1.945838E+03  2.765091E+03
       279  10  3.090079E+05 -4.205370E+04 -3.828897E+04 -2.876249E+04 -6.131789E-10 -1.667691E-10
       279  11  3.588828E+05 -2.983274E+04 -2.718815E+04 -1.568335E+04  4.480856E-10  2.251130E-10
       279  12  4.088103E+05 -1.757661E+04 -1.585993E+04 -2.874953E+04  1.707159E-10 -8.741468E-11
       279  13  4.802344E+05  1.378294E+01  8.959624E+02 -2.876935E+04 -3.454000E-10 -1.482451E-10
       279  14  4.802113E+05 -4.512036E+00  6.805455E+02 -1.569685E+04  6.997407E-11  1.447455E-10
       279  15  4.802376E+05  1.228115E+01  6.922225E+02 -2.876935E+04 -1.706336E-10  9.722958E-11
       279  16  6.514880E+05  4.207923E+04  4.007897E+04 -2.877621E+04 -1.543531E-10 -2.553161E-10
       279  17  6.015534E+05  2.982269E+04  2.854827E+04 -1.571034E+04 -1.607163E-10 -7.022341E-11
       279  18  5.516697E+05  1.760081E+04  1.724403E+04 -2.878916E+04 -4.385867E-10  5.739701E-11
       279  19  3.090079E+05 -4.205364E+04 -3.828885E+04 -2.876247E+04 -2.274238E+03 -7.686365E+03
       279  20  3.588828E+05 -2.983271E+04 -2.718809E+04 -1.568335E+04 -1.937048E+03 -5.224983E+03
       279  21  4.088103E+05 -1.757660E+04 -1.585991E+04 -2.874953E+04 -1.599354E+03 -2.764162E+03
       279  22  4.802344E+05  1.384646E+01  8.960739E+02 -2.876935E+04 -5.012120E+02 -7.686523E+03
       279  23  4.802113E+05 -4.482703E+00  6.805968E+02 -1.569685E+04 -1.642740E+02 -5.225289E+03
       279  24  4.802376E+05  1.228936E+01  6.922369E+02 -2.876935E+04  1.731407E+02 -2.764627E+03
       279  25  6.514880E+05  4.207930E+04  4.007909E+04 -2.877622E+04  1.272298E+03 -7.686680E+03
       279  26  6.015534E+05  2.982272E+04  2.854832E+04 -1.571035E+04  1.608843E+03 -5.225596E+03
       279  27  5.516697E+05  1.760082E+04  1.724405E+04 -2.878916E+04  1.945838E+03 -2.765091E+03
       280   1  4.565465E+05 -5.786240E+03 -4.521971E+03 -2.874252E+04  1.465328E+03  1.332444E+03
       280   2  5.063598E+05  6.423271E+03  7.137301E+03 -1.568277E+04  9.044704E+02 -1.126414E+03
       280   3  5.562509E+05  1.869997E+04  1.917465E+04 -2.873852E+04  3.436699E+02 -3.584256E+03
       280   4  4.802445E+05  1.021676E+01  7.746463E+02 -2.876281E+04 -3.065406E+02  1.332947E+03
       280   5  4.802064E+05 -5.891703E+00  1.130444E+03 -1.570502E+04 -8.667090E+02 -1.125949E+03
       280   6  4.802437E+05  4.523876E+01  1.863985E+03 -2.876279E+04 -1.426776E+03 -3.583819E+03
       280   7  5.039430E+05  5.806637E+03  6.071240E+03 -2.878309E+04 -2.078476E+03  1.333450E+03
       280   8  4.540536E+05 -6.435101E+03 -4.876447E+03 -1.572726E+04 -2.637814E+03 -1.125484E+03
       280   9  4.042417E+05 -1.860989E+04 -1.544705E+04 -2.878706E+04 -3.197007E+03 -3.583382E+03
       280  10  4.565465E+05 -5.786242E+03 -4.521978E+03 -2.874253E+04  3.609744E-10 -1.267691E-10
       280  11  5.063598E+05  6.423270E+03  7.137297E+03 -1.568277E+04 -5.532977E-12  2.271936E-11
       280  12  5.562509E+05  1.869996E+04  1.917463E+04 -2.873852E+04 -1.953224E-10  1.526985E-10
       280  13  4.802445E+05  1.021482E+01  7.746428E+02 -2.876281E+04 -1.941014E-10  6.381525E-11
       280  14  4.802064E+05 -5.893266E+00  1.130440E+03 -1.570502E+04  1.062686E-10 -8.855058E-11
       280  15  4.802437E+05  4.522442E+01  1.863957E+03 -2.876280E+04 -3.677874E-10  6.391772E-11
       280  16  5.039430E+05  5.806633E+03  6.071228E+03 -2.878309E+04 -3.281296E-10 -1.059730E-10
       280  17  4.540536E+05 -6.435104E+03 -4.876462E+03 -1.572726E+04 -2.691118E-10 -2.776004E-10
       280  18  4.042417E+05 -1.860991E+04 -1.544709E+04 -2.878707E+04  3.283424E-10 -8.073734E-11
       280  19  4.565465E+05 -5.786240E+03 -4.521971E+03 -2.874252E+04 -1.465328E+03 -1.332444E+03
       280  20  5.063598E+05  6.423271E+03  7.137301E+03 -1.568277E+04 -9.044704E+02  1.126414E+03
       280  21  5.562509E+05  1.869997E+04  1.917465E+04 -2.873852E+04 -3.436699E+02  3.584256E+03
       280  22  4.802445E+05  1.021676E+01  7.746463E+02 -2.876281E+04  3.065406E+02 -1.332947E+03
       280  23  4.802064E+05 -5.891703E+00  1.130444E+03 -1.570502E+04  8.667090E+02  1.125949E+03
       280  24  4.802437E+05  4.523876E+01  1.863985E+03 -2.876279E+04  1.426776E+03  3.583819E+03
       280  25  5.039430E+05  5.806637E+03  6.071240E+03 -2.878309E+04  2.078476E+03 -1.333450E+03
       280  26  4.540536E+05 -6.435101E+03 -4.876447E+03 -1.572726E+04  2.637814E+03  1.125484E+03
       280  27  4.042417E+05 -1.860989E+04 -1.544705E+04 -2.878706E+04  3.197007E+03  3.583382E+03
       281   1  6.040996E+05  3.042444E+04  3.098573E+04 -2.864546E+04 -3.058209E+01 -5.020085E+03
       281   2  6.538362E+05  4.262347E+04  4.403341E+04 -1.565483E+04 -2.108313E+03 -7.478195E+03
       281   3  7.040400E+05  5.556756E+04  5.862019E+04 -2.883942E+04 -4.185507E+03 -9.907392E+03
       281   4  4.803273E+05 -2.904478E+01  2.414750E+03 -2.877618E+04 -1.812247E+03 -5.019727E+03
       281   5  4.800935E+05 -8.326933E+01  4.131211E+03 -1.568830E+04 -3.868669E+03 -7.478066E+03
       281   6  4.803220E+05  6.044050E+02  7.372674E+03 -2.877607E+04 -5.924391E+03 -9.907479E+03
       281   7  3.565691E+05 -3.048361E+04 -2.615724E+04 -2.890686E+04 -3.593560E+03 -5.019369E+03
       281   8  3.063788E+05 -4.279211E+04 -3.577297E+04 -1.572175E+04 -5.628537E+03 -7.477937E+03
       281   9  2.566503E+05 -5.436222E+04 -4.387812E+04 -2.871274E+04 -7.662654E+03 -9.907566E+03
       281  10  6.040996E+05  3.042442E+04  3.098569E+04 -2.864546E+04 -1.923772E-10 -3.569432E-11
       281  11  6.538362E+05  4.262341E+04  4.403330E+04 -1.565485E+04  1.156803E-10 -9.341418E-11
       281  12  7.040399E+05  5.556744E+04  5.861997E+04 -2.883945E+04 -2.033520E-10 -2.661101E-11
       281  13  4.803272E+05 -2.907273E+01  2.414697E+03 -2.877619E+04 -3.095519E-10  5.391862E-11
       281  14  4.800935E+05 -8.333340E+01  4.131078E+03 -1.568832E+04 -2.617947E-11 -5.723891E-11
       281  15  4.803219E+05  6.042901E+02  7.372424E+03 -2.877612E+04  5.703314E-11 -6.271600E-11
       281  16  3.565691E+05 -3.048364E+04 -2.615731E+04 -2.890688E+04 -3.060182E-10  1.618829E-10
       281  17  3.063788E+05 -4.279218E+04 -3.577314E+04 -1.572178E+04  6.665142E-10  7.485895E-11
       281  18  2.566502E+05 -5.436235E+04 -4.387841E+04 -2.871280E+04  1.827750E-10 -6.257388E-11
       281  19  6.040996E+05  3.042444E+04  3.098573E+04 -2.864546E+04  3.058209E+01  5.020085E+03
       281  20  6.538362E+05  4.262347E+04  4.403341E+04 -1.565483E+04  2.108313E+03  7.478195E+03
       281  21  7.040400E+05  5.556756E+04  5.862019E+04 -2.883942E+04  4.185507E+03  9.907392E+03
       281  22  4.803273E+05 -2.904478E+01  2.414750E+03 -2.877618E+04  1.812247E+03  5.019727E+03
       281  23  4.800935E+05 -8.326933E+01  4.131211E+03 -1.568830E+04  3.868669E+03  7.478066E+03
       281  24  4.803220E+05  6.044050E+02  7.372674E+03 -2.877607E+04  5.924391E+03  9.907479E+03
       281  25  3.565691E+05 -3.048361E+04 -2.615724E+04 -2.890686E+04  3.593560E+03  5.019369E+03
       281  26  3.063788E+05 -4.279211E+04 -3.577297E+04 -1.572175E+04  5.628537E+03  7.477937E+03
       281  27  2.566503E+05 -5.436222E+04 -4.387812E+04 -2.871274E+04  7.662654E+03  9.907566E+03
       282   1  7.526906E+05  6.629987E+04  7.206707E+04 -2.733253E+04 -5.470283E+03 -1.142202E+04
       282   2  8.011394E+05  7.838286E+04  9.031437E+04 -1.635413E+04 -1.422032E+04 -1.379849E+04
       282   3  8.532177E+05  1.001553E+05  1.166895E+05 -3.167249E+04 -2.297022E+04 -1.552764E+04
       282   4  4.810020E+05 -5.038369E+02  9.546948E+03 -2.880278E+04 -7.413881E+03 -1.142229E+04
       282   5  4.792223E+05 -7.441694E+02  1.636173E+04 -1.565481E+04 -1.569358E+04 -1.379917E+04
       282   6  4.809897E+05  8.626399E+03  3.098107E+04 -2.880425E+04 -2.397245E+04 -1.552864E+04
       282   7  2.093816E+05 -6.731269E+04 -5.297804E+04 -3.027238E+04 -9.356636E+03 -1.142255E+04
       282   8  1.574010E+05 -7.987842E+04 -5.759774E+04 -1.495586E+04 -1.716609E+04 -1.379985E+04
       282   9  1.088898E+05 -8.291219E+04 -5.473651E+04 -2.593774E+04 -2.497409E+04 -1.552964E+04
       282  10  7.526905E+05  6.629972E+04  7.206676E+04 -2.733258E+04  1.227526E-10  7.640247E-11
       282  11  8.011392E+05  7.838260E+04  9.031363E+04 -1.635429E+04  1.668467E-10  1.392142E-10
       282  12  8.532171E+05  1.001549E+05  1.166880E+05 -3.167278E+04  1.670763E-10 -2.029031E-10
       282  13  4.810019E+05 -5.039918E+02  9.546599E+03 -2.880285E+04  7.676797E-10  5.572005E-11
       282  14  4.792220E+05 -7.444399E+02  1.636091E+04 -1.565499E+04 -7.402477E-10  1.019761E-10
       282  15  4.809891E+05  8.625986E+03  3.097953E+04 -2.880455E+04 -1.869395E-10 -1.835255E-10
       282  16  2.093815E+05 -6.731285E+04 -5.297845E+04 -3.027246E+04  4.115769E-10 -3.730967E-11
       282  17  1.574006E+05 -7.987870E+04 -5.759865E+04 -1.495605E+04  1.150272E-11 -9.669057E-12
       282  18  1.088891E+05 -8.291261E+04 -5.473814E+04 -2.593805E+04 -2.152132E-10 -5.062805E-11
       282  19  7.526906E+05  6.629987E+04  7.206707E+04 -2.733253E+04  5.470283E+03  1.142202E+04
       282  20  8.011394E+05  7.838286E+04  9.031437E+04 -1.635413E+04  1.422032E+04  1.379849E+04
       282  21  8.532177E+05  1.001553E+05  1.166895E+05 -3.167249E+04  2.297022E+04  1.552764E+04
       282  22  4.810020E+05 -5.038369E+02  9.546948E+03 -2.880278E+04  7.413881E+03  1.142229E+04
       282  23  4.792223E+05 -7.441694E+02  1.636173E+04 -1.565481E+04  1.569358E+04  1.379917E+04
       282  24  4.809897E+05  8.626399E+03  3.098107E+04 -2.880425E+04  2.397245E+04  1.552864E+04
       282  25  2.093816E+05 -6.731269E+04 -5.297804E+04 -3.027238E+04  9.356636E+03  1.142255E+04
       282  26  1.574010E+05 -7.987842E+04 -5.759774E+04 -1.495586E+04  1.716609E+04  1.379985E+04
       282  27  1.088898E+05 -8.291219E+04 -5.473651E+04 -2.593774E+04  2.497409E+04  1.552964E+04
       283   1  9.089192E+05  9.697023E+04  1.349011E+05 -1.153814E+04 -2.457390E+04 -1.852924E+04
       283   2  9.409822E+05  1.077407E+05  1.724322E+05 -3.075141E+04 -6.818076E+04 -1.901281E+04
       283   3  1.010656E+06  2.456876E+05  2.701512E+05 -7.610820E+04 -1.118013E+05 -6.276771E+03
       283   4  4.881933E+05 -6.406579E+03  3.848411E+04 -2.874786E+04 -2.966088E+04 -1.853114E+04
       283   5  4.701840E+05 -8.064677E+03  6.373028E+04 -1.571572E+04 -6.371818E+04 -1.901305E+04
       283   6  4.881541E+05  1.158458E+05  1.425666E+05 -2.882451E+04 -9.778485E+04 -6.275398E+03
       283   7  6.763174E+04 -1.097946E+05 -5.794431E+04 -4.594585E+04 -3.474443E+04 -1.853277E+04
       283   8 -4.090829E+02 -1.238847E+05 -4.498619E+04 -6.915203E+02 -5.925893E+04 -1.901307E+04
       283   9 -3.409388E+04 -1.400766E+04  1.496409E+04  1.841932E+04 -8.378015E+04 -6.271895E+03
       283  10  9.089185E+05  9.696970E+04  1.348994E+05 -1.153851E+04  3.788409E-10 -1.623371E-10
       283  11  9.409771E+05  1.077390E+05  1.724228E+05 -3.075246E+04  2.774268E-10 -1.101427E-10
       283  12  1.010643E+06  2.456842E+05  2.701276E+05 -7.610877E+04  4.211964E-10 -1.059512E-10
       283  13  4.881923E+05 -6.407184E+03  3.848181E+04 -2.874830E+04  2.097651E-10 -1.865111E-10
       283  14  4.701795E+05 -8.066154E+03  6.372198E+04 -1.571669E+04 -3.414573E-10 -1.783824E-10
       283  15  4.881439E+05  1.158431E+05  1.425486E+05 -2.882500E+04 -5.143509E-10 -1.165474E-11
       283  16  6.763036E+04 -1.097953E+05 -5.794722E+04 -4.594637E+04  1.976245E-10 -9.509872E-11
       283  17 -4.129509E+02 -1.238860E+05 -4.499347E+04 -6.924278E+02 -7.496510E-10  1.544267E-10
       283  18 -3.410143E+04 -1.400959E+04  1.495082E+04  1.841889E+04 -1.250593E-10  2.251502E-11
       283  19  9.089192E+05  9.697023E+04  1.349011E+05 -1.153814E+04  2.457390E+04  1.852924E+04
       283  20  9.409822E+05  1.077407E+05  1.724322E+05 -3.075141E+04  6.818076E+04  1.901281E+04
       283  21  1.010656E+06  2.456876E+05  2.701512E+05 -7.610820E+04  1.118013E+05  6.276771E+03
       283  22  4.881933E+05 -6.406579E+03  3.848411E+04 -2.874786E+04  2.966088E+04  1.853114E+04
       283  23  4.701840E+05 -8.064677E+03  6.373028E+04 -1.571572E+04  6.371818E+04  1.901305E+04
       283  24  4.881541E+05  1.158458E+05  1.425666E+05 -2.882451E+04  9.778485E+04  6.275398E+03
       283  25  6.763174E+04 -1.097946E+05 -5.794431E+04 -4.594585E+04  3.474443E+04  1.853277E+04
       283  26 -4.090829E+02 -1.238847E+05 -4.498619E+04 -6.915203E+02  5.925893E+04  1.901307E+04
       283  27 -3.409388E+04 -1.400766E+04  1.496409E+04  1.841932E+04  8.378015E+04  6.271895E+03
       284   1  1.370720E+05  8.568878E+05  1.486614E+05 -7.947838E+04  3.183985E+03  5.599338E+04
       284   2  5.124630E+04  7.516158E+05  8.264000E+04 -3.857918E+04  8.724532E+03  3.311319E+04
       284   3  2.843514E+04  6.649274E+05  4.722609E+04 -4.754859E+04  5.426773E+03  1.022383E+04
       284   4  5.729007E+04  5.366035E+05  7.016911E+04 -5.573604E+04  3.196171E+03  4.882489E+04
       284   5 -3.853394E+03  5.278767E+05  3.085356E+04 -3.084482E+04  8.726307E+03  3.232238E+04
       284   6 -3.074804E+03  5.366302E+05  1.773148E+04 -5.582082E+04  5.417894E+03  1.580712E+04
       284   7 -2.249738E+04  2.164138E+05 -8.330199E+03 -3.200593E+04  3.207814E+03  4.166008E+04
       284   8 -5.895639E+04  3.041839E+05 -2.093620E+04 -2.311324E+04  8.728062E+03  3.153185E+04
       284   9 -3.458561E+04  4.083485E+05 -1.176406E+04 -6.409133E+04  5.408866E+03  2.138926E+04
       284  10  1.370712E+05  8.568844E+05  1.486555E+05 -7.947852E+04 -1.453578E-10 -2.499990E-10
       284  11  5.124593E+04  7.516146E+05  8.263780E+04 -3.857942E+04 -3.356764E-10 -7.807391E-11
       284  12  2.843508E+04  6.649273E+05  4.722584E+04 -4.754863E+04  8.306100E-10  7.173027E-11
       284  13  5.728942E+04  5.366010E+05  7.016462E+04 -5.573617E+04  4.368526E-10 -9.818218E-11
       284  14 -3.853756E+03  5.278755E+05  3.085145E+04 -3.084505E+04 -1.914875E-09  2.002624E-10
       284  15 -3.074902E+03  5.366299E+05  1.773096E+04 -5.582089E+04  4.048641E-10  4.747005E-11
       284  16 -2.249785E+04  2.164120E+05 -8.333479E+03 -3.200603E+04 -5.319318E-11  1.903747E-10
       284  17 -5.895674E+04  3.041828E+05 -2.093821E+04 -2.311346E+04 -2.154434E-10  1.478293E-10
       284  18 -3.458577E+04  4.083480E+05 -1.176497E+04 -6.409142E+04 -2.880568E-10 -1.205917E-10
       284  19  1.370720E+05  8.568878E+05  1.486614E+05 -7.947838E+04 -3.183985E+03 -5.599338E+04
       284  20  5.124630E+04  7.516158E+05  8.264000E+04 -3.857918E+04 -8.724532E+03 -3.311319E+04
       284  21  2.843514E+04  6.649274E+05  4.722609E+04 -4.754859E+04 -5.426773E+03 -1.022383E+04
       284  22  5.729007E+04  5.366035E+05  7.016911E+04 -5.573604E+04 -3.196171E+03 -4.882489E+04
       284  23 -3.853394E+03  5.278767E+05  3.085356E+04 -3.084482E+04 -8.726307E+03 -3.232238E+04
       284  24 -3.074804E+03  5.366302E+05  1.773148E+04 -5.582082E+04 -5.417894E+03 -1.580712E+04
       284  25 -2.249738E+04  2.164138E+05 -8.330199E+03 -3.200593E+04 -3.207814E+03 -4.166008E+04
       284  26 -5.895639E+04  3.041839E+05 -2.093620E+04 -2.311324E+04 -8.728062E+03 -3.153185E+04
       284  27 -3.458561E+04  4.083485E+05 -1.176406E+04 -6.409133E+04 -5.408866E+03 -2.138926E+04
       285   1  1.347541E+04  5.693313E+05  2.195295E+04 -5.708131E+04  1.568063E+03  1.022483E+04
       285   2 -1.474834E+04  4.730302E+05 -8.549106E+03 -3.119723E+04 -2.558378E+03  7.732349E+03
       285   3 -3.980126E+04  3.776700E+05 -3.667978E+04 -5.547155E+04 -6.543647E+03  5.240872E+03
       285   4  4.531380E+03  5.329575E+05  1.360709E+04 -5.585597E+04  1.563247E+03  1.325162E+04
       285   5 -1.341047E+02  5.324821E+05  5.111695E+03 -3.078174E+04 -2.562902E+03  1.065774E+04
       285   6 -1.610342E+03  5.329574E+05 -9.405742E+02 -5.586549E+04 -6.547911E+03  8.064477E+03
       285   7 -4.412735E+03  4.965851E+05  5.261173E+03 -5.463070E+04  1.558443E+03  1.627824E+04
       285   8  1.447989E+04  5.919373E+05  1.877230E+04 -3.036620E+04 -2.567422E+03  1.358340E+04
       285   9  3.657890E+04  6.882672E+05  3.479706E+04 -5.625952E+04 -6.552178E+03  1.088878E+04
       285  10  1.347538E+04  5.693311E+05  2.195275E+04 -5.708132E+04  1.383332E-10 -5.267521E-10
       285  11 -1.474836E+04  4.730301E+05 -8.549231E+03 -3.119721E+04  2.410695E-10 -3.184070E-10
       285  12 -3.980132E+04  3.776699E+05 -3.667991E+04 -5.547153E+04 -6.072916E-10 -3.599132E-13
       285  13  4.531330E+03  5.329573E+05  1.360675E+04 -5.585598E+04  1.544860E-10  5.071750E-11
       285  14 -1.341423E+02  5.324820E+05  5.111470E+03 -3.078172E+04  9.636961E-10 -1.435604E-10
       285  15 -1.610406E+03  5.329573E+05 -9.407769E+02 -5.586545E+04  1.104231E-09 -1.675478E-10
       285  16 -4.412808E+03  4.965848E+05  5.260671E+03 -5.463072E+04 -1.953869E-10  6.128465E-10
       285  17  1.447983E+04  5.919371E+05  1.877194E+04 -3.036617E+04 -7.691148E-10  2.945199E-10
       285  18  3.657882E+04  6.882670E+05  3.479676E+04 -5.625946E+04 -4.011354E-10 -2.897936E-11
       285  19  1.347541E+04  5.693313E+05  2.195295E+04 -5.708131E+04 -1.568063E+03 -1.022483E+04
       285  20 -1.474834E+04  4.730302E+05 -8.549106E+03 -3.119723E+04  2.558378E+03 -7.732349E+03
       285  21 -3.980126E+04  3.776700E+05 -3.667978E+04 -5.547155E+04  6.543647E+03 -5.240872E+03
       285  22  4.531380E+03  5.329575E+05  1.360709E+04 -5.585597E+04 -1.563247E+03 -1.325162E+04
       285  23 -1.341047E+02  5.324821E+05  5.111695E+03 -3.078174E+04  2.562902E+03 -1.065774E+04
       285  24 -1.610342E+03  5.329574E+05 -9.405742E+02 -5.586549E+04  6.547911E+03 -8.064477E+03
       285  25 -4.412735E+03  4.965851E+05  5.261173E+03 -5.463070E+04 -1.558443E+03 -1.627824E+04
       285  26  1.447989E+04  5.919373E+05  1.877230E+04 -3.036620E+04  2.567422E+03 -1.358340E+04
       285  27  3.657890E+04  6.882672E+05  3.479706E+04 -5.625952E+04  6.552178E+03 -1.088878E+04
       286   1 -5.921893E+04  2.840960E+05 -6.017257E+04 -5.253245E+04 -1.072230E+04  2.046390E+03
       286   2 -8.293659E+04  1.917164E+05 -8.895027E+04 -3.315316E+04 -1.364060E+04  1.573074E+04
       286   3 -1.297065E+05  9.170871E+04 -1.324201E+05 -6.368866E+04 -4.814212E+03  2.942726E+04
       286   4  1.577687E+03  5.313657E+05 -3.404780E+03 -5.579964E+04 -1.073149E+04  8.365787E+03
       286   5  1.426709E+03  5.344431E+05 -9.687340E+03 -3.085636E+04 -1.363716E+04  1.359494E+04
       286   6 -2.030189E+04  5.313546E+05 -2.478824E+04 -5.582719E+04 -4.800774E+03  1.883862E+04
       286   7  6.237010E+04  7.786919E+05  5.335913E+04 -5.906811E+04 -1.074075E+04  1.468768E+04
       286   8  8.578179E+04  8.772783E+05  6.956777E+04 -2.855825E+04 -1.363374E+04  1.145798E+04
       286   9  8.908875E+04  9.711768E+05  8.282993E+04 -4.796007E+04 -4.787610E+03  8.242495E+03
       286  10 -5.921906E+04  2.840960E+05 -6.017279E+04 -5.253244E+04  1.402728E-11 -4.568640E-11
       286  11 -8.293686E+04  1.917161E+05 -8.895108E+04 -3.315299E+04  2.422482E-10 -3.737181E-11
       286  12 -1.297068E+05  9.170777E+04 -1.324218E+05 -6.368855E+04 -1.672378E-10  1.072595E-10
       286  13  1.577544E+03  5.313655E+05 -3.405128E+03 -5.579957E+04 -1.133970E-09  1.128880E-10
       286  14  1.426459E+03  5.344428E+05 -9.688036E+03 -3.085622E+04  4.098241E-10 -8.830282E-11
       286  15 -2.030201E+04  5.313542E+05 -2.478895E+04 -5.582711E+04 -2.827383E-10  4.030766E-11
       286  16  6.236992E+04  7.786917E+05  5.335851E+04 -5.906798E+04  1.982226E-10 -2.967201E-11
       286  17  8.578156E+04  8.772781E+05  6.956717E+04 -2.855813E+04 -6.182830E-11 -6.766728E-11
       286  18  8.908871E+04  9.711768E+05  8.282976E+04 -4.796004E+04 -4.754606E-10 -1.958289E-11
       286  19 -5.921893E+04  2.840960E+05 -6.017257E+04 -5.253245E+04  1.072230E+04 -2.046390E+03
       286  20 -8.293659E+04  1.917164E+05 -8.895027E+04 -3.315316E+04  1.364060E+04 -1.573074E+04
       286  21 -1.297065E+05  9.170871E+04 -1.324201E+05 -6.368866E+04  4.814212E+03 -2.942726E+04
       286  22  1.577687E+03  5.313657E+05 -3.404780E+03 -5.579964E+04  1.073149E+04 -8.365787E+03
       286  23  1.426709E+03  5.344431E+05 -9.687340E+03 -3.085636E+04  1.363716E+04 -1.359494E+04
       286  24 -2.030189E+04  5.313546E+05 -2.478824E+04 -5.582719E+04  4.800774E+03 -1.883862E+04
       286  25  6.237010E+04  7.786919E+05  5.335913E+04 -5.906811E+04  1.074075E+04 -1.468768E+04
       286  26  8.578179E+04  8.772783E+05  6.956777E+04 -2.855825E+04  1.363374E+04 -1.145798E+04
       286  27  8.908875E+04  9.711768E+05  8.282993E+04 -4.796007E+04  4.787610E+03 -8.242495E+03
       287   1 -8.353054E+05 -3.634852E+05 -2.557957E+05 -2.913831E+05 -1.081386E+05 -3.493368E+04
       287   2 -8.016509E+05 -2.069095E+05 -1.568017E+05 -2.912789E+05 -7.039090E+04 -8.708469E+03
       287   3 -8.104632E+05 -1.865291E+05 -1.233142E+05 -2.707491E+05 -2.866962E+04  6.967346E+03
       287   4 -4.752619E+05 -1.842806E+05 -1.502930E+05 -1.486301E+05 -9.753278E+04 -3.095178E+04
       287   5 -4.467245E+05 -6.035578E+04 -6.392034E+04 -1.801078E+05 -6.687188E+04 -7.387378E+03
       287   6 -4.592209E+05 -7.118106E+04 -3.740715E+04 -1.911692E+05 -3.223935E+04  5.625370E+03
       287   7 -1.150900E+05 -5.038144E+03 -4.480309E+04 -5.793641E+03 -8.692028E+04 -2.696549E+04
       287   8 -9.167488E+04  8.621343E+04  2.895013E+04 -6.887654E+04 -6.335066E+04 -6.065264E+03
       287   9 -1.078571E+05  4.416880E+04  4.849111E+04 -1.115514E+05 -3.581131E+04  4.282794E+03
       287  10 -8.353183E+05 -3.634896E+05 -2.558200E+05 -2.913862E+05 -7.263357E-11 -1.340672E-11
       287  11 -8.016562E+05 -2.069109E+05 -1.568111E+05 -2.912794E+05 -5.888578E-10 -4.950479E-11
       287  12 -8.104641E+05 -1.865294E+05 -1.233158E+05 -2.707489E+05  2.043062E-10  7.618612E-11
       287  13 -4.752724E+05 -1.842842E+05 -1.503127E+05 -1.486326E+05  9.423318E-10 -6.199271E-12
       287  14 -4.467293E+05 -6.035704E+04 -6.392886E+04 -1.801082E+05  7.427390E-10 -2.350892E-11
       287  15 -4.592220E+05 -7.118137E+04 -3.740916E+04 -1.911691E+05 -3.297662E-10  1.400060E-10
       287  16 -1.150983E+05 -5.040954E+03 -4.481866E+04 -5.795529E+03 -3.937811E-10 -2.148139E-11
       287  17 -9.167920E+04  8.621232E+04  2.894252E+04 -6.887685E+04  3.526767E-10 -8.285769E-12
       287  18 -1.078585E+05  4.416844E+04  4.848867E+04 -1.115513E+05  2.571382E-10  2.272546E-10
       287  19 -8.353054E+05 -3.634852E+05 -2.557957E+05 -2.913831E+05  1.081386E+05  3.493368E+04
       287  20 -8.016509E+05 -2.069095E+05 -1.568017E+05 -2.912789E+05  7.039090E+04  8.708469E+03
       287  21 -8.104632E+05 -1.865291E+05 -1.233142E+05 -2.707491E+05  2.866962E+04 -6.967346E+03
       287  22 -4.752619E+05 -1.842806E+05 -1.502930E+05 -1.486301E+05  9.753278E+04  3.095178E+04
       287  23 -4.467245E+05 -6.035578E+04 -6.392034E+04 -1.801078E+05  6.687188E+04  7.387378E+03
       287  24 -4.592209E+05 -7.118106E+04 -3.740715E+04 -1.911692E+05  3.223935E+04 -5.625370E+03
       287  25 -1.150900E+05 -5.038144E+03 -4.480309E+04 -5.793641E+03  8.692028E+04  2.696549E+04
       287  26 -9.167488E+04  8.621343E+04  2.895013E+04 -6.887654E+04  6.335066E+04  6.065264E+03
       287  27 -1.078571E+05  4.416880E+04  4.849111E+04 -1.115514E+05  3.581131E+04 -4.282794E+03
       288   1 -7.651068E+05 -2.042425E+05 -1.096795E+05 -2.713995E+05 -2.611903E+04  5.541465E+03
       288   2 -7.426888E+05 -1.776346E+05 -8.771653E+04 -2.591511E+05 -1.777430E+04  7.843621E+03
       288   3 -7.144464E+05 -1.720913E+05 -7.456057E+04 -2.567021E+05 -9.216166E+03  9.577187E+03
       288   4 -4.543017E+05 -8.484784E+04 -3.005235E+04 -1.832352E+05 -2.642736E+04  5.424869E+03
       288   5 -4.566029E+05 -6.977928E+04 -1.499532E+04 -1.800528E+05 -1.846174E+04  7.584839E+03
       288   6 -4.530027E+05 -7.569689E+04 -8.441323E+03 -1.866704E+05 -1.028308E+04  9.176156E+03
       288   7 -1.434033E+05  3.455400E+04  4.956660E+04 -9.503069E+04 -2.673584E+04  5.308207E+03
       288   8 -1.704369E+05  3.808168E+04  5.771926E+04 -1.009214E+05 -1.914952E+04  7.325925E+03
       288   9 -1.914912E+05  2.070179E+04  5.767274E+04 -1.166119E+05 -1.135050E+04  8.774945E+03
       288  10 -7.651075E+05 -2.042428E+05 -1.096809E+05 -2.713994E+05  3.720345E-10  1.753675E-10
       288  11 -7.426892E+05 -1.776348E+05 -8.771724E+04 -2.591510E+05 -4.159534E-11 -1.698629E-10
       288  12 -7.144465E+05 -1.720914E+05 -7.456090E+04 -2.567020E+05  2.484054E-10 -2.080409E-11
       288  13 -4.543024E+05 -8.484806E+04 -3.005371E+04 -1.832351E+05 -4.896028E-10  1.969870E-10
       288  14 -4.566033E+05 -6.977944E+04 -1.499607E+04 -1.800527E+05  2.681495E-10 -1.313239E-10
       288  15 -4.530028E+05 -7.569700E+04 -8.441680E+03 -1.866703E+05 -5.818240E-12  4.930531E-11
       288  16 -1.434041E+05  3.455377E+04  4.956520E+04 -9.503058E+04 -6.382452E-10  9.830368E-11
       288  17 -1.704373E+05  3.808153E+04  5.771847E+04 -1.009213E+05 -5.456933E-10 -1.342805E-10
       288  18 -1.914914E+05  2.070168E+04  5.767235E+04 -1.166119E+05  1.496167E-10  1.240006E-10
       288  19 -7.651068E+05 -2.042425E+05 -1.096795E+05 -2.713995E+05  2.611903E+04 -5.541465E+03
       288  20 -7.426888E+05 -1.776346E+05 -8.771653E+04 -2.591511E+05  1.777430E+04 -7.843621E+03
       288  21 -7.144464E+05 -1.720913E+05 -7.456057E+04 -2.567021E+05  9.216166E+03 -9.577187E+03
       288  22 -4.543017E+05 -8.484784E+04 -3.005235E+04 -1.832352E+05  2.642736E+04 -5.424869E+03
       288  23 -4.566029E+05 -6.977928E+04 -1.499532E+04 -1.800528E+05  1.846174E+04 -7.584839E+03
       288  24 -4.530027E+05 -7.569689E+04 -8.441323E+03 -1.866704E+05  1.028308E+04 -9.176156E+03
       288  25 -1.434033E+05  3.455400E+04  4.956660E+04 -9.503069E+04  2.673584E+04 -5.308207E+03
       288  26 -1.704369E+05  3.808168E+04  5.771926E+04 -1.009214E+05  1.914952E+04 -7.325925E+03
       288  27 -1.914912E+05  2.070179E+04  5.767274E+04 -1.166119E+05  1.135050E+04 -8.774945E+03
       289   1 -6.859694E+05 -1.642581E+05 -6.565065E+04 -2.500241E+05 -7.864352E+03  9.092436E+03
       289   2 -6.645261E+05 -1.479842E+05 -5.594965E+04 -2.366185E+05 -5.588865E+03  8.409254E+03
       289   3 -6.327623E+05 -1.434022E+05 -4.778517E+04 -2.354565E+05 -3.300598E+03  7.690584E+03
       289   4 -4.524627E+05 -7.679368E+04 -6.492197E+03 -1.860236E+05 -8.761231E+03  8.755382E+03
       289   5 -4.575720E+05 -7.058728E+04 -3.472687E+03 -1.800373E+05 -6.508944E+03  8.063673E+03
       289   6 -4.523567E+05 -7.606750E+04 -1.970782E+03 -1.862945E+05 -4.243966E+03  7.336453E+03
       289   7 -2.189028E+05  1.067426E+04  5.266187E+04 -1.220012E+05 -9.658479E+03  8.418190E+03
       289   8 -2.505765E+05  6.812273E+03  4.900071E+04 -1.234392E+05 -7.429356E+03  7.717967E+03
       289   9 -2.719201E+05 -8.730972E+03  4.384079E+04 -1.371197E+05 -5.187629E+03  6.982212E+03
       289  10 -6.859695E+05 -1.642582E+05 -6.565092E+04 -2.500240E+05 -2.324771E-10  7.859055E-11
       289  11 -6.645262E+05 -1.479843E+05 -5.594984E+04 -2.366185E+05 -5.113680E-10 -2.219002E-11
       289  12 -6.327623E+05 -1.434023E+05 -4.778530E+04 -2.354565E+05 -1.404219E-10  2.007775E-11
       289  13 -4.524628E+05 -7.679378E+04 -6.492485E+03 -1.860235E+05 -8.269307E-12  1.606828E-10
       289  14 -4.575721E+05 -7.058736E+04 -3.472889E+03 -1.800373E+05  1.358481E-10  6.873381E-11
       289  15 -4.523567E+05 -7.606756E+04 -1.970917E+03 -1.862945E+05 -1.875917E-10  6.330548E-11
       289  16 -2.189029E+05  1.067416E+04  5.266156E+04 -1.220012E+05 -2.244169E-10  2.937382E-11
       289  17 -2.505766E+05  6.812194E+03  4.900050E+04 -1.234391E+05 -1.895475E-11 -2.475267E-11
       289  18 -2.719201E+05 -8.731031E+03  4.384065E+04 -1.371197E+05  3.174140E-11  7.866405E-12
       289  19 -6.859694E+05 -1.642581E+05 -6.565065E+04 -2.500241E+05  7.864352E+03 -9.092436E+03
       289  20 -6.645261E+05 -1.479842E+05 -5.594965E+04 -2.366185E+05  5.588865E+03 -8.409254E+03
       289  21 -6.327623E+05 -1.434022E+05 -4.778517E+04 -2.354565E+05  3.300598E+03 -7.690584E+03
       289  22 -4.524627E+05 -7.679368E+04 -6.492197E+03 -1.860236E+05  8.761231E+03 -8.755382E+03
       289  23 -4.575720E+05 -7.058728E+04 -3.472687E+03 -1.800373E+05  6.508944E+03 -8.063673E+03
       289  24 -4.523567E+05 -7.606750E+04 -1.970782E+03 -1.862945E+05  4.243966E+03 -7.336453E+03
       289  25 -2.189028E+05  1.067426E+04  5.266187E+04 -1.220012E+05  9.658479E+03 -8.418190E+03
       289  26 -2.505765E+05  6.812273E+03  4.900071E+04 -1.234392E+05  7.429356E+03 -7.717967E+03
       289  27 -2.719201E+05 -8.730972E+03  4.384079E+04 -1.371197E+05  5.187629E+03 -6.982212E+03
       290   1 -6.054822E+05 -1.334193E+05 -4.027397E+04 -2.281275E+05 -2.714767E+03  6.982563E+03
       290   2 -5.840068E+05 -1.178474E+05 -3.297020E+04 -2.145213E+05 -1.715914E+03  5.768620E+03
       290   3 -5.516834E+05 -1.132785E+05 -2.603733E+04 -2.134271E+05 -7.155843E+02  4.549814E+03
       290   4 -4.522738E+05 -7.616575E+04 -1.529207E+03 -1.862594E+05 -3.651373E+03  6.631068E+03
       290   5 -4.576924E+05 -7.063614E+04 -9.479908E+02 -1.800135E+05 -2.655669E+03  5.416052E+03
       290   6 -4.522637E+05 -7.610905E+04 -7.352321E+02 -1.862797E+05 -1.658514E+03  4.196172E+03
       290   7 -2.990419E+05 -1.891043E+04  3.721384E+04 -1.443818E+05 -4.588235E+03  6.279476E+03
       290   8 -3.313621E+05 -2.342378E+04  3.107302E+04 -1.454993E+05 -3.595635E+03  5.063406E+03
       290   9 -3.528343E+05 -3.893895E+04  2.456608E+04 -1.591285E+05 -2.601609E+03  3.842467E+03
       290  10 -6.054822E+05 -1.334194E+05 -4.027407E+04 -2.281274E+05 -4.023574E-11  1.553369E-11
       290  11 -5.840068E+05 -1.178474E+05 -3.297027E+04 -2.145213E+05 -1.031677E-10 -6.467295E-11
       290  12 -5.516834E+05 -1.132785E+05 -2.603737E+04 -2.134271E+05  5.625001E-11 -6.480619E-11
       290  13 -4.522738E+05 -7.616580E+04 -1.529315E+03 -1.862594E+05 -1.667517E-11  9.002349E-11
       290  14 -4.576924E+05 -7.063617E+04 -9.480592E+02 -1.800135E+05  9.652308E-11 -1.596510E-10
       290  15 -4.522637E+05 -7.610907E+04 -7.352703E+02 -1.862797E+05 -2.019412E-10 -6.657144E-11
       290  16 -2.990419E+05 -1.891047E+04  3.721373E+04 -1.443818E+05  3.427948E-10 -1.047950E-10
       290  17 -3.313621E+05 -2.342381E+04  3.107294E+04 -1.454993E+05 -2.006334E-11  4.625814E-11
       290  18 -3.528343E+05 -3.893896E+04  2.456603E+04 -1.591285E+05  3.250431E-11  5.528053E-11
       290  19 -6.054822E+05 -1.334193E+05 -4.027397E+04 -2.281275E+05  2.714767E+03 -6.982563E+03
       290  20 -5.840068E+05 -1.178474E+05 -3.297020E+04 -2.145213E+05  1.715914E+03 -5.768620E+03
       290  21 -5.516834E+05 -1.132785E+05 -2.603733E+04 -2.134271E+05  7.155843E+02 -4.549814E+03
       290  22 -4.522738E+05 -7.616575E+04 -1.529207E+03 -1.862594E+05  3.651373E+03 -6.631068E+03
       290  23 -4.576924E+05 -7.063614E+04 -9.479908E+02 -1.800135E+05  2.655669E+03 -5.416052E+03
       290  24 -4.522637E+05 -7.610905E+04 -7.352321E+02 -1.862797E+05  1.658514E+03 -4.196172E+03
       290  25 -2.990419E+05 -1.891043E+04  3.721384E+04 -1.443818E+05  4.588235E+03 -6.279476E+03
       290  26 -3.313621E+05 -2.342378E+04  3.107302E+04 -1.454993E+05  3.595635E+03 -5.063406E+03
       290  27 -3.528343E+05 -3.893895E+04  2.456608E+04 -1.591285E+05  2.601609E+03 -3.842467E+03
       291   1 -5.243735E+05 -1.030702E+05 -1.891608E+04 -2.060136E+05 -2.873035E+02  3.780436E+03
       291   2 -5.027943E+05 -8.748459E+04 -1.234910E+04 -1.923306E+05  6.954979E+02  2.550304E+03
       291   3 -4.703283E+05 -8.294647E+04 -6.140659E+03 -1.912211E+05  1.678310E+03  1.319798E+03
       291   4 -4.522540E+05 -7.612078E+04 -7.304428E+02 -1.862923E+05 -1.231380E+03  3.426415E+03
       291   5 -4.576998E+05 -7.061760E+04 -9.153384E+02 -1.799975E+05 -2.488034E+02  2.196239E+03
       291   6 -4.522594E+05 -7.616196E+04 -1.458573E+03 -1.862766E+05  7.337645E+02  9.656834E+02
       291   7 -3.801298E+05 -4.917108E+04  1.745471E+04 -1.665689E+05 -2.175574E+03  3.072351E+03
       291   8 -4.126032E+05 -5.375047E+04  1.051826E+04 -1.676636E+05 -1.193180E+03  1.842147E+03
       291   9 -4.341901E+05 -6.937740E+04  3.223510E+03 -1.813320E+05 -2.108149E+02  6.115557E+02
       291  10 -5.243735E+05 -1.030703E+05 -1.891611E+04 -2.060136E+05 -6.653925E-11 -1.113214E-10
       291  11 -5.027943E+05 -8.748459E+04 -1.234911E+04 -1.923306E+05  2.650618E-10  3.059049E-10
       291  12 -4.703283E+05 -8.294648E+04 -6.140668E+03 -1.912211E+05 -9.821562E-11  1.517475E-10
       291  13 -4.522540E+05 -7.612079E+04 -7.304677E+02 -1.862923E+05 -1.415601E-10  2.979018E-11
       291  14 -4.576998E+05 -7.061760E+04 -9.153476E+02 -1.799975E+05  5.443334E-11  2.549412E-12
       291  15 -4.522594E+05 -7.616196E+04 -1.458575E+03 -1.862766E+05 -2.181688E-10  6.967036E-11
       291  16 -3.801298E+05 -4.917109E+04  1.745468E+04 -1.665689E+05 -6.251031E-11  1.434822E-12
       291  17 -4.126032E+05 -5.375048E+04  1.051825E+04 -1.676636E+05 -1.313952E-10  9.505431E-12
       291  18 -4.341901E+05 -6.937740E+04  3.223509E+03 -1.813320E+05 -1.988892E-10 -2.269177E-11
       291  19 -5.243735E+05 -1.030702E+05 -1.891608E+04 -2.060136E+05  2.873035E+02 -3.780436E+03
       291  20 -5.027943E+05 -8.748459E+04 -1.234910E+04 -1.923306E+05 -6.954979E+02 -2.550304E+03
       291  21 -4.703283E+05 -8.294647E+04 -6.140659E+03 -1.912211E+05 -1.678310E+03 -1.319798E+03
       291  22 -4.522540E+05 -7.612078E+04 -7.304428E+02 -1.862923E+05  1.231380E+03 -3.426415E+03
       291  23 -4.576998E+05 -7.061760E+04 -9.153384E+02 -1.799975E+05  2.488034E+02 -2.196239E+03
       291  24 -4.522594E+05 -7.616196E+04 -1.458573E+03 -1.862766E+05 -7.337645E+02 -9.656834E+02
       291  25 -3.801298E+05 -4.917108E+04  1.745471E+04 -1.665689E+05  2.175574E+03 -3.072351E+03
       291  26 -4.126032E+05 -5.375047E+04  1.051826E+04 -1.676636E+05  1.193180E+03 -1.842147E+03
       291  27 -4.341901E+05 -6.937740E+04  3.223510E+03 -1.813320E+05  2.108149E+02 -6.115557E+02
       292   1 -4.429488E+05 -7.270684E+04  5.735622E+02 -1.839210E+05  2.264948E+03  6.055099E+02
       292   2 -4.212869E+05 -5.697368E+04  5.911496E+03 -1.700794E+05  4.433598E+03 -1.791203E+02
       292   3 -3.891647E+05 -5.302905E+04  9.811286E+03 -1.686767E+05  6.595488E+03 -9.453206E+02
       292   4 -4.523214E+05 -7.609146E+04 -1.876421E+03 -1.863350E+05  1.314926E+03  2.493440E+02
       292   5 -4.575982E+05 -7.053418E+04 -3.291516E+03 -1.799888E+05  3.495859E+03 -5.307156E+02
       292   6 -4.524177E+05 -7.676795E+04 -6.154510E+03 -1.860819E+05  5.669949E+03 -1.292371E+03
       292   7 -4.616939E+05 -7.947607E+04 -4.326407E+03 -1.887490E+05  3.649198E+02 -1.068165E+02
       292   8 -4.939081E+05 -8.409456E+04 -1.249461E+04 -1.898978E+05  2.558181E+03 -8.822878E+02
       292   9 -5.156665E+05 -1.005065E+05 -2.212055E+04 -2.034855E+05  4.744516E+03 -1.639382E+03
       292  10 -4.429488E+05 -7.270684E+04  5.735519E+02 -1.839210E+05 -9.399989E-11  2.777449E-11
       292  11 -4.212869E+05 -5.697369E+04  5.911459E+03 -1.700794E+05 -2.545291E-10  1.853455E-10
       292  12 -3.891648E+05 -5.302907E+04  9.811203E+03 -1.686767E+05 -3.742339E-10 -3.666247E-11
       292  13 -4.523214E+05 -7.609146E+04 -1.876424E+03 -1.863350E+05 -2.757354E-11 -6.773787E-14
       292  14 -4.575982E+05 -7.053418E+04 -3.291540E+03 -1.799888E+05 -3.681597E-11 -8.235633E-11
       292  15 -4.524177E+05 -7.676796E+04 -6.154574E+03 -1.860819E+05  1.772055E-10  1.731331E-10
       292  16 -4.616939E+05 -7.947607E+04 -4.326407E+03 -1.887490E+05  7.202959E-11  5.681152E-11
       292  17 -4.939081E+05 -8.409457E+04 -1.249462E+04 -1.898978E+05  2.909949E-11  1.095999E-10
       292  18 -5.156665E+05 -1.005065E+05 -2.212060E+04 -2.034855E+05  3.787430E-10  2.765488E-10
       292  19 -4.429488E+05 -7.270684E+04  5.735622E+02 -1.839210E+05 -2.264948E+03 -6.055099E+02
       292  20 -4.212869E+05 -5.697368E+04  5.911496E+03 -1.700794E+05 -4.433598E+03  1.791203E+02
       292  21 -3.891647E+05 -5.302905E+04  9.811286E+03 -1.686767E+05 -6.595488E+03  9.453206E+02
       292  22 -4.523214E+05 -7.609146E+04 -1.876421E+03 -1.863350E+05 -1.314926E+03 -2.493440E+02
       292  23 -4.575982E+05 -7.053418E+04 -3.291516E+03 -1.799888E+05 -3.495859E+03  5.307156E+02
       292  24 -4.524177E+05 -7.676795E+04 -6.154510E+03 -1.860819E+05 -5.669949E+03  1.292371E+03
       292  25 -4.616939E+05 -7.947607E+04 -4.326407E+03 -1.887490E+05 -3.649198E+02  1.068165E+02
       292  26 -4.939081E+05 -8.409456E+04 -1.249461E+04 -1.898978E+05 -2.558181E+03  8.822878E+02
       292  27 -5.156665E+05 -1.005065E+05 -2.212055E+04 -2.034855E+05 -4.744516E+03  1.639382E+03
       293   1 -3.612726E+05 -4.284709E+04  1.506498E+04 -1.630938E+05  8.151630E+03 -1.338335E+03
       293   2 -3.396774E+05 -2.525660E+04  1.560271E+04 -1.472368E+05  1.572476E+04 -4.533759E+01
       293   3 -3.116983E+05 -2.831762E+04  8.248711E+03 -1.416205E+05  2.317343E+04  1.581584E+03
       293   4 -4.529122E+05 -7.574972E+04 -8.002352E+03 -1.867180E+05  7.124711E+03 -1.723426E+03
       293   5 -4.566930E+05 -6.973333E+04 -1.420529E+04 -1.799734E+05  1.492129E+04 -3.467814E+02
       293   6 -4.541364E+05 -8.441467E+04 -2.847851E+04 -1.834703E+05  2.259307E+04  1.363642E+03
       293   7 -5.445439E+05 -1.086521E+05 -3.107044E+04 -2.103392E+05  6.097954E+03 -2.108461E+03
       293   8 -5.736955E+05 -1.142092E+05 -4.401446E+04 -2.127045E+05  1.411798E+04 -6.481614E+02
       293   9 -5.965546E+05 -1.405098E+05 -6.520742E+04 -2.253112E+05  2.201285E+04  1.145761E+03
       293  10 -3.612727E+05 -4.284711E+04  1.506485E+04 -1.630938E+05 -9.885282E-11 -6.622672E-12
       293  11 -3.396777E+05 -2.525666E+04  1.560225E+04 -1.472368E+05  2.398799E-11 -5.714016E-11
       293  12 -3.116989E+05 -2.831777E+04  8.247696E+03 -1.416205E+05 -3.014519E-10 -1.104733E-10
       293  13 -4.529122E+05 -7.574974E+04 -8.002453E+03 -1.867180E+05  6.278160E-11  1.245409E-10
       293  14 -4.566933E+05 -6.973339E+04 -1.420570E+04 -1.799734E+05 -4.241988E-11 -4.503118E-11
       293  15 -4.541370E+05 -8.441481E+04 -2.847948E+04 -1.834703E+05 -3.338564E-10 -1.925628E-11
       293  16 -5.445439E+05 -1.086521E+05 -3.107052E+04 -2.103391E+05 -6.477138E-11  4.116308E-11
       293  17 -5.736957E+05 -1.142092E+05 -4.401484E+04 -2.127045E+05 -4.348920E-11 -1.250842E-10
       293  18 -5.965551E+05 -1.405100E+05 -6.520834E+04 -2.253112E+05  3.129959E-10  1.385431E-10
       293  19 -3.612726E+05 -4.284709E+04  1.506498E+04 -1.630938E+05 -8.151630E+03  1.338335E+03
       293  20 -3.396774E+05 -2.525660E+04  1.560271E+04 -1.472368E+05 -1.572476E+04  4.533759E+01
       293  21 -3.116983E+05 -2.831762E+04  8.248711E+03 -1.416205E+05 -2.317343E+04 -1.581584E+03
       293  22 -4.529122E+05 -7.574972E+04 -8.002352E+03 -1.867180E+05 -7.124711E+03  1.723426E+03
       293  23 -4.566930E+05 -6.973333E+04 -1.420529E+04 -1.799734E+05 -1.492129E+04  3.467814E+02
       293  24 -4.541364E+05 -8.441467E+04 -2.847851E+04 -1.834703E+05 -2.259307E+04 -1.363642E+03
       293  25 -5.445439E+05 -1.086521E+05 -3.107044E+04 -2.103392E+05 -6.097954E+03  2.108461E+03
       293  26 -5.736955E+05 -1.142092E+05 -4.401446E+04 -2.127045E+05 -1.411798E+04  6.481614E+02
       293  27 -5.965546E+05 -1.405098E+05 -6.520742E+04 -2.253112E+05 -2.201285E+04 -1.145761E+03
       294   1 -2.759383E+05 -1.842537E+04  7.995176E+03 -1.568071E+05  3.045691E+04  2.512379E+03
       294   2 -2.585941E+05  2.269317E+04 -1.014559E+04 -1.151376E+05  5.931587E+04  1.265900E+04
       294   3 -2.783382E+05 -6.407970E+04 -8.169901E+04 -5.534663E+04  8.583990E+04  2.903256E+04
       294   4 -4.587706E+05 -7.149449E+04 -3.544905E+04 -1.910244E+05  2.795047E+04  1.572740E+03
       294   5 -4.473709E+05 -6.074210E+04 -6.056332E+04 -1.799676E+05  6.099454E+04  1.328726E+04
       294   6 -4.739065E+05 -1.787374E+05 -1.424207E+05 -1.507870E+05  9.170264E+04  3.122612E+04
       294   7 -6.415698E+05 -1.245641E+05 -7.889542E+04 -2.252341E+05  2.544484E+04  6.332492E+02
       294   8 -6.361111E+05 -1.441703E+05 -1.109838E+05 -2.447780E+05  6.267265E+04  1.391523E+04
       294   9 -6.694310E+05 -2.933717E+05 -2.031449E+05 -2.461937E+05  9.756330E+04  3.341793E+04
       294  10 -2.759393E+05 -1.842562E+04  7.993421E+03 -1.568072E+05 -1.556944E-10  9.814180E-11
       294  11 -2.585979E+05  2.269205E+04 -1.015251E+04 -1.151382E+05 -1.379049E-10  2.940405E-10
       294  12 -2.783464E+05 -6.408259E+04 -8.171445E+04 -5.534864E+04 -4.414570E-12 -4.007904E-11
       294  13 -4.587714E+05 -7.149471E+04 -3.545052E+04 -1.910245E+05 -4.983929E-11  3.682868E-11
       294  14 -4.473749E+05 -6.074328E+04 -6.057065E+04 -1.799683E+05 -1.027253E-10 -2.467477E-11
       294  15 -4.739158E+05 -1.787407E+05 -1.424383E+05 -1.507893E+05 -1.033939E-10 -1.556994E-10
       294  16 -6.415705E+05 -1.245642E+05 -7.889664E+04 -2.252341E+05  1.267190E-10  2.103698E-11
       294  17 -6.361154E+05 -1.441716E+05 -1.109916E+05 -2.447787E+05  1.358330E-10 -1.964592E-10
       294  18 -6.694415E+05 -2.933755E+05 -2.031649E+05 -2.461963E+05  1.792728E-10 -1.048312E-10
       294  19 -2.759383E+05 -1.842537E+04  7.995176E+03 -1.568071E+05 -3.045691E+04 -2.512379E+03
       294  20 -2.585941E+05  2.269317E+04 -1.014559E+04 -1.151376E+05 -5.931587E+04 -1.265900E+04
       294  21 -2.783382E+05 -6.407970E+04 -8.169901E+04 -5.534663E+04 -8.583990E+04 -2.903256E+04
       294  22 -4.587706E+05 -7.149449E+04 -3.544905E+04 -1.910244E+05 -2.795047E+04 -1.572740E+03
       294  23 -4.473709E+05 -6.074210E+04 -6.056332E+04 -1.799676E+05 -6.099454E+04 -1.328726E+04
       294  24 -4.739065E+05 -1.787374E+05 -1.424207E+05 -1.507870E+05 -9.170264E+04 -3.122612E+04
       294  25 -6.415698E+05 -1.245641E+05 -7.889542E+04 -2.252341E+05 -2.544484E+04 -6.332492E+02
       294  26 -6.361111E+05 -1.441703E+05 -1.109838E+05 -2.447780E+05 -6.267265E+04 -1.391523E+04
       294  27 -6.694310E+05 -2.933717E+05 -2.031449E+05 -2.461937E+05 -9.756330E+04 -3.341793E+04
       295   1 -5.196397E+05 -1.282510E+05 -1.006289E+05 -1.070019E+04  6.122555E+04  1.102180E+04
       295   2 -4.428767E+05 -2.120456E+05 -1.362396E+05 -1.540348E+04  4.818252E+04  3.357503E+04
       295   3 -3.370364E+05 -1.881302E+05 -1.363366E+05 -6.701525E+04  3.515155E+04  3.268205E+04
       295   4  4.049987E+05  1.018237E+05  1.253891E+05 -5.205721E+04  8.598324E+04  1.103259E+04
       295   5  3.890474E+05 -7.206776E+03  5.601837E+04 -2.858137E+04  5.603238E+04  3.357334E+04
       295   6  4.050578E+05 -5.672871E+03  3.386154E+04 -5.200776E+04  2.609670E+04  3.268069E+04
       295   7  1.330422E+06  3.318421E+05  3.513479E+05 -9.347609E+04  1.107777E+05  1.104008E+04
       295   8  1.221612E+06  1.975842E+05  2.482305E+05 -4.177710E+04  6.389264E+04  3.357132E+04
       295   9  1.147663E+06  1.767470E+05  2.040238E+05 -3.698216E+04  1.703110E+04  3.267889E+04
       295  10 -5.196437E+05 -1.282522E+05 -1.006362E+05 -1.070073E+04 -1.958470E-10  6.110072E-11
       295  11 -4.428795E+05 -2.120475E+05 -1.362461E+05 -1.540479E+04 -1.359609E-10 -3.758499E-10
       295  12 -3.370380E+05 -1.881316E+05 -1.363409E+05 -6.701617E+04 -4.969995E-11 -1.088589E-10
       295  13  4.049907E+05  1.018216E+05  1.253749E+05 -5.205797E+04  3.589402E-10 -2.568561E-10
       295  14  3.890437E+05 -7.208829E+03  5.601036E+04 -2.858289E+04 -3.430932E-10 -3.876892E-11
       295  15  4.050567E+05 -5.674201E+03  3.385825E+04 -5.200845E+04 -2.374537E-10 -1.555007E-10
       295  16  1.330408E+06  3.318387E+05  3.513246E+05 -9.347708E+04 -3.965672E-10  1.722789E-10
       295  17  1.221607E+06  1.975819E+05  2.482208E+05 -4.177883E+04  3.795541E-11 -1.133334E-10
       295  18  1.147662E+06  1.767457E+05  2.040213E+05 -3.698261E+04 -3.475255E-10 -9.522993E-11
       295  19 -5.196397E+05 -1.282510E+05 -1.006289E+05 -1.070019E+04 -6.122555E+04 -1.102180E+04
       295  20 -4.428767E+05 -2.120456E+05 -1.362396E+05 -1.540348E+04 -4.818252E+04 -3.357503E+04
       295  21 -3.370364E+05 -1.881302E+05 -1.363366E+05 -6.701525E+04 -3.515155E+04 -3.268205E+04
       295  22  4.049987E+05  1.018237E+05  1.253891E+05 -5.205721E+04 -8.598324E+04 -1.103259E+04
       295  23  3.890474E+05 -7.206776E+03  5.601837E+04 -2.858137E+04 -5.603238E+04 -3.357334E+04
       295  24  4.050578E+05 -5.672871E+03  3.386154E+04 -5.200776E+04 -2.609670E+04 -3.268069E+04
       295  25  1.330422E+06  3.318421E+05  3.513479E+05 -9.347609E+04 -1.107777E+05 -1.104008E+04
       295  26  1.221612E+06  1.975842E+05  2.482305E+05 -4.177710E+04 -6.389264E+04 -3.357132E+04
       295  27  1.147663E+06  1.767470E+05  2.040238E+05 -3.698216E+04 -1.703110E+04 -3.267889E+04
       296   1 -2.562443E+05 -1.536073E+05 -1.236562E+05 -4.943639E+04  2.291188E+04  2.732715E+04
       296   2 -1.673808E+05 -1.395130E+05 -1.153623E+05 -2.763040E+04  1.646210E+04  2.419907E+04
       296   3 -7.544069E+04 -1.170457E+05 -1.007444E+05 -5.316412E+04  1.000735E+04  1.992082E+04
       296   4  3.986938E+05  7.557788E+03  2.725644E+04 -5.211469E+04  2.108792E+04  2.732547E+04
       296   5  3.971042E+05 -6.746614E+02  1.439689E+04 -2.844775E+04  1.380311E+04  2.419871E+04
       296   6  3.987235E+05 -3.936178E+02  8.435769E+03 -5.211757E+04  6.514249E+03  1.992224E+04
       296   7  1.054029E+06  1.686929E+05  1.781406E+05 -5.479580E+04  1.926203E+04  2.732381E+04
       296   8  9.618841E+05  1.381415E+05  1.441350E+05 -2.926582E+04  1.114171E+04  2.419836E+04
       296   9  8.730956E+05  1.162427E+05  1.176011E+05 -5.107017E+04  3.018500E+03  1.992365E+04
       296  10 -2.562451E+05 -1.536082E+05 -1.236586E+05 -4.943689E+04 -2.277420E-11  6.437269E-11
       296  11 -1.673813E+05 -1.395137E+05 -1.153639E+05 -2.763072E+04 -5.874131E-10 -9.205484E-11
       296  12 -7.544090E+04 -1.170461E+05 -1.007453E+05 -5.316428E+04 -5.253276E-10  3.632139E-10
       296  13  3.986932E+05  7.556867E+03  2.725420E+04 -5.211515E+04 -9.538852E-10  1.723025E-11
       296  14  3.971039E+05 -6.753415E+02  1.439543E+04 -2.844802E+04  2.023737E-10 -4.141711E-10
       296  15  3.987233E+05 -3.940555E+02  8.434943E+03 -5.211768E+04 -2.600640E-10  1.551541E-10
       296  16  1.054028E+06  1.686920E+05  1.781385E+05 -5.479622E+04 -4.945766E-10 -1.577526E-10
       296  17  9.618839E+05  1.381408E+05  1.441337E+05 -2.926603E+04 -2.982177E-10 -1.391183E-10
       296  18  8.730955E+05  1.162423E+05  1.176003E+05 -5.107022E+04  6.027623E-10  6.326900E-11
       296  19 -2.562443E+05 -1.536073E+05 -1.236562E+05 -4.943639E+04 -2.291188E+04 -2.732715E+04
       296  20 -1.673808E+05 -1.395130E+05 -1.153623E+05 -2.763040E+04 -1.646210E+04 -2.419907E+04
       296  21 -7.544069E+04 -1.170457E+05 -1.007444E+05 -5.316412E+04 -1.000735E+04 -1.992082E+04
       296  22  3.986938E+05  7.557788E+03  2.725644E+04 -5.211469E+04 -2.108792E+04 -2.732547E+04
       296  23  3.971042E+05 -6.746614E+02  1.439689E+04 -2.844775E+04 -1.380311E+04 -2.419871E+04
       296  24  3.987235E+05 -3.936178E+02  8.435769E+03 -5.211757E+04 -6.514249E+03 -1.992224E+04
       296  25  1.054029E+06  1.686929E+05  1.781406E+05 -5.479580E+04 -1.926203E+04 -2.732381E+04
       296  26  9.618841E+05  1.381415E+05  1.441350E+05 -2.926582E+04 -1.114171E+04 -2.419836E+04
       296  27  8.730956E+05  1.162427E+05  1.176011E+05 -5.107017E+04 -3.018500E+03 -1.992365E+04
       297   1  1.028568E+04 -9.474396E+04 -8.234459E+04 -5.180662E+04  8.326279E+03  1.719545E+04
       297   2  1.001019E+05 -7.327563E+04 -6.471916E+04 -2.834350E+04  6.518081E+03  1.281818E+04
       297   3  1.902907E+05 -5.108878E+04 -4.574876E+04 -5.204084E+04  4.707507E+03  8.388416E+03
       297   4  3.981110E+05  5.796103E+02  6.527555E+03 -5.207689E+04  5.194434E+03  1.719724E+04
       297   5  3.979326E+05 -3.973718E+01  3.707395E+03 -2.849761E+04  3.347166E+03  1.282066E+04
       297   6  3.981257E+05  6.641499E+01  2.258917E+03 -5.207739E+04  1.497780E+03  8.391625E+03
       297   7  7.860756E+05  9.589271E+04  9.538985E+04 -5.234729E+04  2.060648E+03  1.719902E+04
       297   8  6.958454E+05  7.318997E+04  7.212813E+04 -2.865177E+04  1.747424E+02  1.282314E+04
       297   9  6.060005E+05  5.121859E+04  5.026376E+04 -5.211393E+04 -1.713013E+03  8.394834E+03
       297  10  1.028552E+04 -9.474429E+04 -8.234528E+04 -5.180673E+04  1.569681E-10  1.008483E-10
       297  11  1.001018E+05 -7.327582E+04 -6.471955E+04 -2.834356E+04  7.740204E-10  2.350677E-10
       297  12  1.902907E+05 -5.108886E+04 -4.574894E+04 -5.204087E+04 -3.312533E-10 -6.327314E-10
       297  13  3.981109E+05  5.792854E+02  6.526948E+03 -5.207696E+04 -9.476706E-10  1.471147E-10
       297  14  3.979326E+05 -3.991673E+01  3.707065E+03 -2.849764E+04 -3.292035E-10  5.257178E-10
       297  15  3.981256E+05  6.633875E+01  2.258780E+03 -5.207740E+04  3.563384E-10  5.756780E-10
       297  16  7.860755E+05  9.589240E+04  9.538929E+04 -5.234732E+04 -9.887865E-11 -1.770955E-11
       297  17  6.958454E+05  7.318979E+04  7.212782E+04 -2.865177E+04  2.720897E-10 -6.723795E-10
       297  18  6.060005E+05  5.121851E+04  5.026362E+04 -5.211392E+04  2.581051E-10 -4.476487E-10
       297  19  1.028568E+04 -9.474396E+04 -8.234459E+04 -5.180662E+04 -8.326279E+03 -1.719545E+04
       297  20  1.001019E+05 -7.327563E+04 -6.471916E+04 -2.834350E+04 -6.518081E+03 -1.281818E+04
       297  21  1.902907E+05 -5.108878E+04 -4.574876E+04 -5.204084E+04 -4.707507E+03 -8.388416E+03
       297  22  3.981110E+05  5.796103E+02  6.527555E+03 -5.207689E+04 -5.194434E+03 -1.719724E+04
       297  23  3.979326E+05 -3.973718E+01  3.707395E+03 -2.849761E+04 -3.347166E+03 -1.282066E+04
       297  24  3.981257E+05  6.641499E+01  2.258917E+03 -5.207739E+04 -1.497780E+03 -8.391625E+03
       297  25  7.860756E+05  9.589271E+04  9.538985E+04 -5.234729E+04 -2.060648E+03 -1.719902E+04
       297  26  6.958454E+05  7.318997E+04  7.212813E+04 -2.865177E+04 -1.747424E+02 -1.282314E+04
       297  27  6.060005E+05  5.121859E+04  5.026376E+04 -5.211393E+04  1.713013E+03 -8.394834E+03
       298   1  2.762861E+05 -2.975426E+04 -2.589478E+04 -5.199225E+04  4.318511E+03  5.800363E+03
       298   2  3.661451E+05 -7.798229E+03 -6.032107E+03 -2.850783E+04  3.674300E+03  1.369953E+03
       298   3  4.560098E+05  1.430026E+04  1.425712E+04 -5.210241E+04  3.029781E+03 -3.062680E+03
       298   4  3.980501E+05  1.312548E+02  1.813730E+03 -5.205939E+04  1.127794E+03  5.803794E+03
       298   5  3.980509E+05  4.603091E+01  1.296888E+03 -2.851999E+04  4.817025E+02  1.373443E+03
       298   6  3.980516E+05  1.044194E+02  1.208545E+03 -5.205943E+04 -1.646049E+02 -3.059099E+03
       298   7  5.198278E+05  3.001575E+04  2.952131E+04 -5.212655E+04 -2.063543E+03  5.807225E+03
       298   8  4.299577E+05  7.890225E+03  8.625854E+03 -2.853215E+04 -2.711057E+03  1.376933E+03
       298   9  3.400966E+05 -1.409164E+04 -1.184021E+04 -5.201646E+04 -3.358696E+03 -3.055519E+03
       298  10  2.762861E+05 -2.975430E+04 -2.589488E+04 -5.199227E+04  3.461635E-10 -2.392745E-10
       298  11  3.661451E+05 -7.798235E+03 -6.032136E+03 -2.850783E+04  2.169970E-10  1.325000E-10
       298  12  4.560098E+05  1.430024E+04  1.425709E+04 -5.210240E+04 -4.762046E-11  4.311213E-11
       298  13  3.980500E+05  1.312183E+02  1.813665E+03 -5.205940E+04 -1.920315E-10 -9.585774E-10
       298  14  3.980509E+05  4.602882E+01  1.296884E+03 -2.851999E+04  6.109095E-10  2.302467E-10
       298  15  3.980516E+05  1.044093E+02  1.208528E+03 -5.205943E+04  1.991484E-10 -4.158889E-10
       298  16  5.198277E+05  3.001571E+04  2.952124E+04 -5.212654E+04  3.532838E-10 -1.582686E-11
       298  17  4.299577E+05  7.890221E+03  8.625837E+03 -2.853215E+04 -1.179066E-11 -2.574522E-10
       298  18  3.400966E+05 -1.409166E+04 -1.184025E+04 -5.201647E+04 -1.128308E-10 -8.136522E-10
       298  19  2.762861E+05 -2.975426E+04 -2.589478E+04 -5.199225E+04 -4.318511E+03 -5.800363E+03
       298  20  3.661451E+05 -7.798229E+03 -6.032107E+03 -2.850783E+04 -3.674300E+03 -1.369953E+03
       298  21  4.560098E+05  1.430026E+04  1.425712E+04 -5.210241E+04 -3.029781E+03  3.062680E+03
       298  22  3.980501E+05  1.312548E+02  1.813730E+03 -5.205939E+04 -1.127794E+03 -5.803794E+03
       298  23  3.980509E+05  4.603091E+01  1.296888E+03 -2.851999E+04 -4.817025E+02 -1.373443E+03
       298  24  3.980516E+05  1.044194E+02  1.208545E+03 -5.205943E+04  1.646049E+02  3.059099E+03
       298  25  5.198278E+05  3.001575E+04  2.952131E+04 -5.212655E+04  2.063543E+03 -5.807225E+03
       298  26  4.299577E+05  7.890225E+03  8.625854E+03 -2.853215E+04  2.711057E+03 -1.376933E+03
       298  27  3.400966E+05 -1.409164E+04 -1.184021E+04 -5.201646E+04  3.358696E+03  3.055519E+03
       299   1  5.420876E+05  3.556094E+04  3.464719E+04 -5.216921E+04  2.800194E+03 -5.643610E+03
       299   2  6.320159E+05  5.754228E+04  5.554423E+04 -2.863336E+04  1.903385E+03 -1.007851E+04
       299   3  7.220349E+05  7.969501E+04  7.704855E+04 -5.222326E+04  1.008074E+03 -1.451393E+04
       299   4  3.980656E+05  1.032353E+02  1.304775E+03 -5.207010E+04 -3.956334E+02 -5.640177E+03
       299   5  3.980190E+05  2.186290E+01  1.802670E+03 -2.850666E+04 -1.292766E+03 -1.007562E+04
       299   6  3.980543E+05  1.121632E+02  2.908279E+03 -5.207006E+04 -2.188272E+03 -1.451157E+04
       299   7  2.540628E+05 -3.535592E+04 -3.203899E+04 -5.197101E+04 -3.590725E+03 -5.636745E+03
       299   8  1.640727E+05 -5.750237E+04 -5.194247E+04 -2.838000E+04 -4.487722E+03 -1.007274E+04
       299   9  7.417097E+04 -7.947797E+04 -7.123884E+04 -5.191692E+04 -5.382966E+03 -1.450920E+04
       299  10  5.420876E+05  3.556090E+04  3.464711E+04 -5.216920E+04 -2.106568E-11  6.615452E-10
       299  11  6.320158E+05  5.754217E+04  5.554403E+04 -2.863334E+04  3.552056E-10  1.477627E-09
       299  12  7.220348E+05  7.969478E+04  7.704816E+04 -5.222324E+04  9.294899E-10 -7.059364E-10
       299  13  3.980656E+05  1.032010E+02  1.304715E+03 -5.207010E+04 -5.168146E-10  2.710085E-10
       299  14  3.980189E+05  2.175342E+01  1.802476E+03 -2.850667E+04  7.313872E-10 -3.770171E-10
       299  15  3.980543E+05  1.119358E+02  2.907874E+03 -5.207009E+04  4.163496E-12 -2.412765E-10
       299  16  2.540628E+05 -3.535596E+04 -3.203907E+04 -5.197102E+04  8.293706E-10  6.780434E-11
       299  17  1.640727E+05 -5.750248E+04 -5.194269E+04 -2.838003E+04  5.499050E-10 -1.850835E-10
       299  18  7.417088E+04 -7.947820E+04 -7.123929E+04 -5.191698E+04 -6.220254E-10 -1.980713E-10
       299  19  5.420876E+05  3.556094E+04  3.464719E+04 -5.216921E+04 -2.800194E+03  5.643610E+03
       299  20  6.320159E+05  5.754228E+04  5.554423E+04 -2.863336E+04 -1.903385E+03  1.007851E+04
       299  21  7.220349E+05  7.969501E+04  7.704855E+04 -5.222326E+04 -1.008074E+03  1.451393E+04
       299  22  3.980656E+05  1.032353E+02  1.304775E+03 -5.207010E+04  3.956334E+02  5.640177E+03
       299  23  3.980190E+05  2.186290E+01  1.802670E+03 -2.850666E+04  1.292766E+03  1.007562E+04
       299  24  3.980543E+05  1.121632E+02  2.908279E+03 -5.207006E+04  2.188272E+03  1.451157E+04
       299  25  2.540628E+05 -3.535592E+04 -3.203899E+04 -5.197101E+04  3.590725E+03  5.636745E+03
       299  26  1.640727E+05 -5.750237E+04 -5.194247E+04 -2.838000E+04  4.487722E+03  1.007274E+04
       299  27  7.417097E+04 -7.947797E+04 -7.123884E+04 -5.191692E+04  5.382966E+03  1.450920E+04
       300   1  8.084724E+05  1.008941E+05  9.823347E+04 -5.212743E+04  4.308849E+02 -1.710817E+04
       300   2  8.984064E+05  1.228952E+05  1.213332E+05 -2.858304E+04 -2.790715E+03 -2.154675E+04
       300   3  9.891445E+05  1.460965E+05  1.468427E+05 -5.234535E+04 -6.009258E+03 -2.592453E+04
       300   4  3.981960E+05 -1.936897E-02  3.754804E+03 -5.211073E+04 -2.790613E+03 -1.710633E+04
       300   5  3.977889E+05 -1.456969E+02  6.373364E+03 -2.845595E+04 -5.966293E+03 -2.154610E+04
       300   6  3.981712E+05  9.019620E+02  1.137164E+04 -5.211020E+04 -9.138455E+03 -2.592502E+04
       300   7 -1.192486E+04 -1.009059E+05 -9.073499E+04 -5.209400E+04 -6.010000E+03 -1.710449E+04
       300   8 -1.025969E+05 -1.232041E+05 -1.086030E+05 -2.832892E+04 -9.139331E+03 -2.154545E+04
       300   9 -1.924791E+05 -1.443168E+05 -1.241223E+05 -5.187522E+04 -1.226470E+04 -2.592551E+04
       300  10  8.084723E+05  1.008938E+05  9.823292E+04 -5.212743E+04 -1.340992E-10 -7.521148E-10
       300  11  8.984063E+05  1.228947E+05  1.213323E+05 -2.858309E+04 -1.461006E-10  1.102328E-10
       300  12  9.891443E+05  1.460957E+05  1.468413E+05 -5.234547E+04 -9.665006E-10  7.484315E-10
       300  13  3.981959E+05 -3.357517E-01  3.754240E+03 -5.211077E+04 -7.412619E-10  2.341331E-12
       300  14  3.977887E+05 -1.462050E+02  6.372425E+03 -2.845605E+04  7.599667E-11 -3.488051E-10
       300  15  3.981709E+05  9.012177E+02  1.137022E+04 -5.211039E+04  1.145153E-10  3.496382E-10
       300  16 -1.192498E+04 -1.009062E+05 -9.073560E+04 -5.209409E+04  5.703537E-10 -1.167482E-10
       300  17 -1.025971E+05 -1.232046E+05 -1.086040E+05 -2.832908E+04  8.495013E-10  9.017159E-10
       300  18 -1.924794E+05 -1.443176E+05 -1.241239E+05 -5.187548E+04  1.169080E-09  4.722392E-10
       300  19  8.084724E+05  1.008941E+05  9.823347E+04 -5.212743E+04 -4.308849E+02  1.710817E+04
       300  20  8.984064E+05  1.228952E+05  1.213332E+05 -2.858304E+04  2.790715E+03  2.154675E+04
       300  21  9.891445E+05  1.460965E+05  1.468427E+05 -5.234535E+04  6.009258E+03  2.592453E+04
       300  22  3.981960E+05 -1.936896E-02  3.754804E+03 -5.211073E+04  2.790613E+03  1.710633E+04
       300  23  3.977889E+05 -1.456969E+02  6.373364E+03 -2.845595E+04  5.966293E+03  2.154610E+04
       300  24  3.981712E+05  9.019620E+02  1.137164E+04 -5.211020E+04  9.138455E+03  2.592502E+04
       300  25 -1.192486E+04 -1.009059E+05 -9.073499E+04 -5.209400E+04  6.010000E+03  1.710449E+04
       300  26 -1.025969E+05 -1.232041E+05 -1.086030E+05 -2.832892E+04  9.139331E+03  2.154545E+04
       300  27 -1.924791E+05 -1.443168E+05 -1.241223E+05 -5.187522E+04  1.226470E+04  2.592551E+04
       301   1  1.077006E+06  1.658019E+05  1.705756E+05 -5.001626E+04 -7.868586E+03 -2.868972E+04
       301   2  1.165018E+06  1.876627E+05  2.017398E+05 -2.942521E+04 -2.163773E+04 -3.295428E+04
       301   3  1.258924E+06  2.245341E+05  2.456821E+05 -5.641738E+04 -3.540429E+04 -3.582933E+04
       301   4  3.992401E+05 -8.038888E+02  1.472948E+04 -5.217143E+04 -1.143725E+04 -2.869101E+04
       301   5  3.963598E+05 -1.238428E+03  2.519805E+04 -2.837974E+04 -2.419034E+04 -3.295742E+04
       301   6  3.991987E+05  1.317321E+04  4.775189E+04 -5.217448E+04 -3.693888E+04 -3.583364E+04
       301   7 -2.781011E+05 -1.674417E+05 -1.411470E+05 -5.432420E+04 -1.500205E+04 -2.869228E+04
       301   8 -3.717524E+05 -1.901807E+05 -1.513827E+05 -2.733557E+04 -2.673981E+04 -3.296057E+04
       301   9 -4.598438E+05 -1.982393E+05 -1.502273E+05 -4.793754E+04 -3.847134E+04 -3.583798E+04
       301  10  1.077006E+06  1.658010E+05  1.705740E+05 -5.001644E+04  5.614123E-10  6.467715E-10
       301  11  1.165017E+06  1.876614E+05  2.017369E+05 -2.942578E+04 -2.976105E-09  9.279515E-12
       301  12  1.258922E+06  2.245324E+05  2.456773E+05 -5.641840E+04 -5.755170E-09 -6.640349E-10
       301  13  3.992397E+05 -8.048080E+02  1.472768E+04 -5.217170E+04  4.622524E-10  7.750540E-10
       301  14  3.963589E+05 -1.239752E+03  2.519491E+04 -2.838038E+04  1.685131E-10 -4.676568E-11
       301  15  3.991969E+05  1.317146E+04  4.774691E+04 -5.217555E+04  3.785178E-10 -4.524086E-10
       301  16 -2.781016E+05 -1.674426E+05 -1.411490E+05 -5.432455E+04 -7.612521E-10  6.453869E-10
       301  17 -3.717534E+05 -1.901821E+05 -1.513861E+05 -2.733628E+04  3.143403E-09 -4.537917E-10
       301  18 -4.598457E+05 -1.982411E+05 -1.502325E+05 -4.793865E+04  5.878777E-09 -6.994903E-10
       301  19  1.077006E+06  1.658019E+05  1.705756E+05 -5.001626E+04  7.868586E+03  2.868972E+04
       301  20  1.165018E+06  1.876627E+05  2.017398E+05 -2.942521E+04  2.163773E+04  3.295428E+04
       301  21  1.258924E+06  2.245341E+05  2.456821E+05 -5.641738E+04  3.540429E+04  3.582933E+04
       301  22  3.992401E+05 -8.038888E+02  1.472948E+04 -5.217143E+04  1.143725E+04  2.869101E+04
       301  23  3.963598E+05 -1.238428E+03  2.519805E+04 -2.837974E+04  2.419034E+04  3.295742E+04
       301  24  3.991987E+05  1.317321E+04  4.775189E+04 -5.217448E+04  3.693888E+04  3.583364E+04
       301  25 -2.781011E+05 -1.674417E+05 -1.411470E+05 -5.432420E+04  1.500205E+04  2.869228E+04
       301  26 -3.717524E+05 -1.901807E+05 -1.513827E+05 -2.733557E+04  2.673981E+04  3.296057E+04
       301  27 -4.598438E+05 -1.982393E+05 -1.502273E+05 -4.793754E+04  3.847134E+04  3.583798E+04
       302   1  1.357912E+06  2.227706E+05  2.764007E+05 -2.519604E+04 -3.539494E+04 -4.178994E+04
       302   2  1.420378E+06  2.426266E+05  3.377662E+05 -5.116146E+04 -1.084124E+05 -4.201215E+04
       302   3  1.542295E+06  4.595474E+05  4.960141E+05 -1.243681E+05 -1.814867E+05 -1.383730E+04
       302   4  4.103347E+05 -1.000962E+04  5.932652E+04 -5.203090E+04 -4.570912E+04 -4.179938E+04
       302   5  3.823085E+05 -1.262891E+04  9.818346E+04 -2.853235E+04 -9.817115E+04 -4.200994E+04
       302   6  4.102538E+05  1.784204E+05  2.197599E+05 -5.226888E+04 -1.506765E+05 -1.381393E+04
       302   7 -5.364110E+05 -2.428496E+05 -1.578059E+05 -7.882463E+04 -5.600768E+04 -4.180794E+04
       302   8 -6.547650E+05 -2.679578E+05 -1.414703E+05 -5.941549E+03 -8.794679E+04 -4.200700E+04
       302   9 -7.206077E+05 -1.027807E+05 -5.658105E+04  1.969847E+04 -1.199220E+05 -1.378341E+04
       302  10  1.357911E+06  2.227684E+05  2.763951E+05 -2.519723E+04  5.293750E-09 -6.711135E-11
       302  11  1.420365E+06  2.426215E+05  3.377409E+05 -5.116512E+04  2.935608E-09  5.888745E-11
       302  12  1.542260E+06  4.595384E+05  4.959520E+05 -1.243701E+05  6.570963E-12 -1.720274E-10
       302  13  4.103320E+05 -1.001206E+04  5.931931E+04 -5.203244E+04  2.524870E-10  3.353628E-10
       302  14  3.822976E+05 -1.263339E+04  9.816205E+04 -2.853567E+04 -1.634354E-10  2.001948E-09
       302  15  4.102294E+05  1.784141E+05  2.197169E+05 -5.227055E+04 -9.025640E-10 -7.528423E-11
       302  16 -5.364149E+05 -2.428523E+05 -1.578151E+05 -7.882651E+04 -6.111960E-09 -1.656487E-10
       302  17 -6.547738E+05 -2.679618E+05 -1.414882E+05 -5.944526E+03 -3.498653E-09  2.123439E-10
       302  18 -7.206232E+05 -1.027848E+05 -5.660846E+04  1.969714E+04  7.183025E-10 -4.856145E-10
       302  19  1.357912E+06  2.227706E+05  2.764007E+05 -2.519604E+04  3.539494E+04  4.178994E+04
       302  20  1.420378E+06  2.426266E+05  3.377662E+05 -5.116146E+04  1.084124E+05  4.201215E+04
       302  21  1.542295E+06  4.595474E+05  4.960141E+05 -1.243681E+05  1.814867E+05  1.383730E+04
       302  22  4.103347E+05 -1.000962E+04  5.932652E+04 -5.203090E+04  4.570912E+04  4.179938E+04
       302  23  3.823085E+05 -1.262891E+04  9.818346E+04 -2.853235E+04  9.817115E+04  4.200994E+04
       302  24  4.102538E+05  1.784204E+05  2.197599E+05 -5.226888E+04  1.506765E+05  1.381393E+04
       302  25 -5.364110E+05 -2.428496E+05 -1.578059E+05 -7.882463E+04  5.600768E+04  4.180794E+04
       302  26 -6.547650E+05 -2.679578E+05 -1.414703E+05 -5.941549E+03  8.794679E+04  4.200700E+04
       302  27 -7.206077E+05 -1.027807E+05 -5.658105E+04  1.969847E+04  1.199220E+05  1.378341E+04
       303   1  2.277940E+05  8.431510E+05  2.407277E+05 -1.415624E+05  6.415943E+03  7.135318E+04
       303   2  1.045714E+05  6.344714E+05  1.400742E+05 -7.130392E+04  1.731141E+04  3.853716E+04
       303   3  5.738073E+04  4.489174E+05  7.973515E+04 -1.035249E+05  1.044949E+04  5.711040E+03
       303   4  6.805775E+04  2.016662E+05  8.348992E+04 -1.131830E+05  6.435359E+03  5.709630E+04
       303   5 -4.582735E+03  1.912453E+05  3.745514E+04 -6.198444E+04  1.731461E+04  3.709767E+04
       303   6 -3.380090E+03  2.017183E+05  2.286812E+04 -1.132637E+05  1.043285E+04  1.707839E+04
       303   7 -9.170592E+04 -4.394421E+05 -7.377689E+04 -8.483285E+04  6.453484E+03  4.285408E+04
       303   8 -1.137504E+05 -2.517992E+05 -6.517706E+04 -5.267159E+04  1.731778E+04  3.565919E+04
       303   9 -6.414474E+04 -4.542389E+04 -3.400242E+04 -1.229986E+05  1.041585E+04  2.844125E+04
       303  10  2.277926E+05  8.431455E+05  2.407181E+05 -1.415628E+05  2.223925E-10  1.595112E-10
       303  11  1.045707E+05  6.344697E+05  1.400709E+05 -7.130445E+04  1.565640E-10 -5.305439E-10
       303  12  5.738060E+04  4.489173E+05  7.973488E+04 -1.035249E+05  5.463169E-10 -2.014405E-10
       303  13  6.805683E+04  2.016627E+05  8.348371E+04 -1.131833E+05  4.764803E-10  4.822471E-10
       303  14 -4.583427E+03  1.912438E+05  3.745199E+04 -6.198495E+04 -1.228371E-09  3.476139E-11
       303  15 -3.380285E+03  2.017179E+05  2.286737E+04 -1.132639E+05  1.213794E-11  4.932930E-10
       303  16 -9.170646E+04 -4.394441E+05 -7.378042E+04 -8.483307E+04  9.525257E-11 -2.800713E-10
       303  17 -1.137510E+05 -2.518006E+05 -6.518001E+04 -5.267209E+04 -1.638867E-10  4.154658E-10
       303  18 -6.414508E+04 -4.542478E+04 -3.400414E+04 -1.229989E+05 -4.865465E-10  3.283878E-10
       303  19  2.277940E+05  8.431510E+05  2.407277E+05 -1.415624E+05 -6.415943E+03 -7.135318E+04
       303  20  1.045714E+05  6.344714E+05  1.400742E+05 -7.130392E+04 -1.731141E+04 -3.853716E+04
       303  21  5.738073E+04  4.489174E+05  7.973515E+04 -1.035249E+05 -1.044949E+04 -5.711040E+03
       303  22  6.805775E+04  2.016662E+05  8.348992E+04 -1.131830E+05 -6.435359E+03 -5.709630E+04
       303  23 -4.582735E+03  1.912453E+05  3.745514E+04 -6.198444E+04 -1.731461E+04 -3.709767E+04
       303  24 -3.380090E+03  2.017183E+05  2.286812E+04 -1.132637E+05 -1.043285E+04 -1.707839E+04
       303  25 -9.170592E+04 -4.394421E+05 -7.377689E+04 -8.483285E+04 -6.453484E+03 -4.285408E+04
       303  26 -1.137504E+05 -2.517992E+05 -6.517706E+04 -5.267159E+04 -1.731778E+04 -3.565919E+04
       303  27 -6.414474E+04 -4.542389E+04 -3.400242E+04 -1.229986E+05 -1.041585E+04 -2.844125E+04
       304   1  1.970896E+04  2.558538E+05  3.195466E+04 -1.152219E+05  2.562734E+03  7.418488E+03
       304   2 -3.436036E+04  5.801203E+04 -2.148766E+04 -6.208018E+04 -5.938741E+03  2.403389E+03
       304   3 -8.206455E+04 -1.378649E+05 -7.015215E+04 -1.120064E+05 -1.410985E+04 -2.607787E+03
       304   4  5.365318E+03  1.975260E+05  1.858212E+04 -1.133668E+05  2.553284E+03  1.366562E+04
       304   5 -2.922192E+02  1.965335E+05  1.035556E+04 -6.183721E+04 -5.947174E+03  8.412378E+03
       304   6  4.591950E+02  1.975124E+05  7.075435E+03 -1.133737E+05 -1.411741E+04  3.161514E+03
       304   7 -8.978523E+03  1.392015E+05  5.209509E+03 -1.115118E+05  2.543871E+03  1.991217E+04
       304   8  3.377461E+04  3.350729E+05  4.219765E+04 -6.159418E+04 -5.955600E+03  1.442270E+04
       304   9  8.297510E+04  5.329938E+05  8.429568E+04 -1.147417E+05 -1.412499E+04  8.933908E+03
       304  10  1.970893E+04  2.558538E+05  3.195454E+04 -1.152219E+05 -1.403449E-10  3.163606E-10
       304  11 -3.436040E+04  5.801201E+04 -2.148774E+04 -6.208017E+04  4.464965E-10 -6.534977E-10
       304  12 -8.206477E+04 -1.378649E+05 -7.015253E+04 -1.120065E+05 -5.412134E-10 -2.151889E-10
       304  13  5.365261E+03  1.975258E+05  1.858176E+04 -1.133668E+05 -9.342982E-11  8.068217E-10
       304  14 -2.922762E+02  1.965335E+05  1.035536E+04 -6.183717E+04  7.439912E-10 -5.217859E-11
       304  15  4.589783E+02  1.975123E+05  7.075042E+03 -1.133737E+05  8.855145E-10  3.906352E-10
       304  16 -8.978637E+03  1.392010E+05  5.208752E+03 -1.115118E+05 -5.597412E-10 -3.650926E-10
       304  17  3.377451E+04  3.350727E+05  4.219720E+04 -6.159411E+04 -1.003597E-09  4.513371E-10
       304  18  8.297486E+04  5.329937E+05  8.429516E+04 -1.147416E+05 -5.392294E-10  4.286281E-10
       304  19  1.970896E+04  2.558538E+05  3.195466E+04 -1.152219E+05 -2.562734E+03 -7.418488E+03
       304  20 -3.436036E+04  5.801203E+04 -2.148766E+04 -6.208018E+04  5.938741E+03 -2.403389E+03
       304  21 -8.206455E+04 -1.378649E+05 -7.015215E+04 -1.120064E+05  1.410985E+04  2.607787E+03
       304  22  5.365318E+03  1.975260E+05  1.858212E+04 -1.133668E+05 -2.553284E+03 -1.366562E+04
       304  23 -2.922192E+02  1.965335E+05  1.035556E+04 -6.183721E+04  5.947174E+03 -8.412378E+03
       304  24  4.591950E+02  1.975124E+05  7.075435E+03 -1.133737E+05  1.411741E+04 -3.161514E+03
       304  25 -8.978523E+03  1.392015E+05  5.209509E+03 -1.115118E+05 -2.543871E+03 -1.991217E+04
       304  26  3.377461E+04  3.350729E+05  4.219765E+04 -6.159418E+04  5.955600E+03 -1.442270E+04
       304  27  8.297510E+04  5.329938E+05  8.429568E+04 -1.147417E+05  1.412499E+04 -8.933908E+03
       305   1 -1.287041E+05 -3.267179E+05 -1.142572E+05 -1.137052E+05 -2.273625E+04 -1.105919E+04
       305   2 -1.778418E+05 -5.236294E+05 -1.612204E+05 -6.063786E+04 -2.864760E+04  3.769342E+03
       305   3 -2.221982E+05 -7.211540E+05 -2.166367E+05 -1.099226E+05 -1.003611E+04  1.861141E+04
       305   4  2.454392E+02  1.975706E+05  6.162185E+03 -1.132131E+05 -2.275187E+04  2.006246E+03
       305   5 -4.964657E+02  1.963270E+05  5.380710E+03 -6.203849E+04 -2.864096E+04 -8.112311E+02
       305   6  6.605975E+03  1.974954E+05  8.403798E+03 -1.132082E+05 -1.001992E+04 -3.610164E+03
       305   7  1.291759E+05  7.221139E+05  1.265641E+05 -1.127204E+05 -2.276746E+04  1.508263E+04
       305   8  1.768125E+05  9.167626E+05  1.719473E+05 -6.344061E+04 -2.863429E+04 -5.397080E+03
       305   9  2.353479E+05  1.116915E+06  2.333844E+05 -1.164985E+05 -1.000351E+04 -2.586458E+04
       305  10 -1.287047E+05 -3.267182E+05 -1.142584E+05 -1.137054E+05 -3.035179E-11  4.148620E-10
       305  11 -1.778427E+05 -5.236296E+05 -1.612220E+05 -6.063778E+04  1.513654E-10 -1.657491E-10
       305  12 -2.221984E+05 -7.211544E+05 -2.166376E+05 -1.099225E+05  1.065151E-10 -8.603194E-11
       305  13  2.448822E+02  1.975704E+05  6.161204E+03 -1.132130E+05 -5.825051E-10  6.138621E-10
       305  14 -4.973468E+02  1.963268E+05  5.379167E+03 -6.203851E+04  4.518640E-10 -3.509656E-11
       305  15  6.605863E+03  1.974953E+05  8.403584E+03 -1.132082E+05 -1.901542E-10  1.936013E-10
       305  16  1.291753E+05  7.221136E+05  1.265627E+05 -1.127202E+05  9.048638E-11 -4.750678E-10
       305  17  1.768116E+05  9.167624E+05  1.719457E+05 -6.344074E+04  1.929766E-10 -1.009547E-10
       305  18  2.353476E+05  1.116914E+06  2.333829E+05 -1.164987E+05 -1.923921E-10  1.811220E-10
       305  19 -1.287041E+05 -3.267179E+05 -1.142572E+05 -1.137052E+05  2.273625E+04  1.105919E+04
       305  20 -1.778418E+05 -5.236294E+05 -1.612204E+05 -6.063786E+04  2.864760E+04 -3.769342E+03
       305  21 -2.221982E+05 -7.211540E+05 -2.166367E+05 -1.099226E+05  1.003611E+04 -1.861141E+04
       305  22  2.454392E+02  1.975706E+05  6.162185E+03 -1.132131E+05  2.275187E+04 -2.006246E+03
       305  23 -4.964657E+02  1.963270E+05  5.380710E+03 -6.203849E+04  2.864096E+04  8.112311E+02
       305  24  6.605975E+03  1.974954E+05  8.403798E+03 -1.132082E+05  1.001992E+04  3.610164E+03
       305  25  1.291759E+05  7.221139E+05  1.265641E+05 -1.127204E+05  2.276746E+04 -1.508263E+04
       305  26  1.768125E+05  9.167626E+05  1.719473E+05 -6.344061E+04  2.863429E+04  5.397080E+03
       305  27  2.353479E+05  1.116915E+06  2.333844E+05 -1.164985E+05  1.000351E+04  2.586458E+04
       306   1 -1.444861E+06 -5.102134E+05 -3.193647E+05 -5.208054E+05 -1.454414E+05 -4.859750E+04
       306   2 -1.403417E+06 -2.974179E+05 -1.858569E+05 -5.236060E+05 -9.417811E+04 -1.675050E+04
       306   3 -1.422725E+06 -2.703361E+05 -1.412142E+05 -4.954463E+05 -3.871077E+04  3.921078E+03
       306   4 -1.075393E+06 -3.109660E+05 -2.080178E+05 -3.585845E+05 -1.343141E+05 -4.443290E+04
       306   5 -1.034678E+06 -1.405780E+05 -8.844952E+04 -4.034603E+05 -9.054726E+04 -1.539080E+04
       306   6 -1.053188E+06 -1.543593E+05 -5.175934E+04 -4.173879E+05 -4.257848E+04  2.469718E+03
       306   7 -7.057833E+05 -1.116610E+05 -9.668319E+04 -1.962619E+05 -1.231795E+05 -4.026284E+04
       306   8 -6.658055E+05  1.628192E+04  8.946091E+03 -2.832461E+05 -8.691404E+04 -1.402992E+04
       306   9 -6.835190E+05 -3.838291E+04  3.768552E+04 -3.392920E+05 -4.644869E+04  1.017769E+03
       306  10 -1.444885E+06 -5.102216E+05 -3.194090E+05 -5.208111E+05  5.467753E-11 -9.255635E-11
       306  11 -1.403426E+06 -2.974206E+05 -1.858742E+05 -5.236073E+05 -3.119242E-10 -9.489312E-11
       306  12 -1.422726E+06 -2.703365E+05 -1.412171E+05 -4.954462E+05 -2.856664E-10  1.690241E-10
       306  13 -1.075413E+06 -3.109730E+05 -2.080555E+05 -3.585893E+05  1.117089E-09 -1.409558E-10
       306  14 -1.034687E+06 -1.405804E+05 -8.846540E+04 -4.034615E+05  1.193393E-10 -1.550354E-10
       306  15 -1.053190E+06 -1.543598E+05 -5.176277E+04 -4.173878E+05 -2.088750E-10 -1.053119E-10
       306  16 -7.058000E+05 -1.116668E+05 -9.671479E+04 -1.962659E+05 -6.608427E-11  1.896255E-10
       306  17 -6.658137E+05  1.627968E+04  8.931508E+03 -2.832471E+05  1.050043E-10  5.467739E-11
       306  18 -6.835213E+05 -3.838349E+04  3.768146E+04 -3.392920E+05  4.648035E-10 -2.910360E-10
       306  19 -1.444861E+06 -5.102134E+05 -3.193647E+05 -5.208054E+05  1.454414E+05  4.859750E+04
       306  20 -1.403417E+06 -2.974179E+05 -1.858569E+05 -5.236060E+05  9.417811E+04  1.675050E+04
       306  21 -1.422725E+06 -2.703361E+05 -1.412142E+05 -4.954463E+05  3.871077E+04 -3.921078E+03
       306  22 -1.075393E+06 -3.109660E+05 -2.080178E+05 -3.585845E+05  1.343141E+05  4.443290E+04
       306  23 -1.034678E+06 -1.405780E+05 -8.844952E+04 -4.034603E+05  9.054726E+04  1.539080E+04
       306  24 -1.053188E+06 -1.543593E+05 -5.175934E+04 -4.173879E+05  4.257848E+04 -2.469718E+03
       306  25 -7.057833E+05 -1.116610E+05 -9.668319E+04 -1.962619E+05  1.231795E+05  4.026284E+04
       306  26 -6.658055E+05  1.628192E+04  8.946091E+03 -2.832461E+05  8.691404E+04  1.402992E+04
       306  27 -6.835190E+05 -3.838291E+04  3.768552E+04 -3.392920E+05  4.644869E+04 -1.017769E+03
       307   1 -1.365907E+06 -2.970740E+05 -1.236848E+05 -4.980537E+05 -3.434264E+04  2.948039E+03
       307   2 -1.339391E+06 -2.635534E+05 -9.480436E+04 -4.839747E+05 -2.295471E+04  6.172933E+03
       307   3 -1.307126E+06 -2.568679E+05 -7.802725E+04 -4.808510E+05 -1.133724E+04  8.786586E+03
       307   4 -1.046355E+06 -1.733130E+05 -4.158167E+04 -4.064463E+05 -3.476661E+04  2.788042E+03
       307   5 -1.048370E+06 -1.536027E+05 -2.073932E+04 -4.033417E+05 -2.378468E+04  5.860990E+03
       307   6 -1.044554E+06 -1.606424E+05 -1.167329E+04 -4.111931E+05 -1.257384E+04  8.322487E+03
       307   7 -7.267027E+05 -4.954301E+04  4.051335E+04 -3.147950E+05 -3.519081E+04  2.627949E+03
       307   8 -7.572664E+05 -4.364588E+04  5.331902E+04 -3.226742E+05 -2.461507E+04  5.548883E+03
       307   9 -7.819153E+05 -6.441314E+04  5.467518E+04 -3.415088E+05 -1.381102E+04  7.858183E+03
       307  10 -1.365908E+06 -2.970744E+05 -1.236870E+05 -4.980537E+05 -1.807044E-10  5.692646E-10
       307  11 -1.339391E+06 -2.635535E+05 -9.480542E+04 -4.839746E+05  3.158721E-09  9.637286E-10
       307  12 -1.307126E+06 -2.568681E+05 -7.802764E+04 -4.808510E+05  3.243184E-09 -5.723317E-11
       307  13 -1.046357E+06 -1.733134E+05 -4.158396E+04 -4.064462E+05  1.480487E-09  4.034982E-10
       307  14 -1.048371E+06 -1.536029E+05 -2.074045E+04 -4.033416E+05  3.189736E-09  1.146381E-09
       307  15 -1.044555E+06 -1.606425E+05 -1.167372E+04 -4.111930E+05  9.672127E-10  7.723833E-11
       307  16 -7.267040E+05 -4.954335E+04  4.051101E+04 -3.147949E+05  2.686115E-09  5.380747E-10
       307  17 -7.572670E+05 -4.364608E+04  5.331782E+04 -3.226740E+05  3.450727E-09  1.278150E-09
       307  18 -7.819155E+05 -6.441326E+04  5.467471E+04 -3.415087E+05  1.723866E-10  3.978279E-10
       307  19 -1.365907E+06 -2.970740E+05 -1.236848E+05 -4.980537E+05  3.434264E+04 -2.948039E+03
       307  20 -1.339391E+06 -2.635534E+05 -9.480436E+04 -4.839747E+05  2.295471E+04 -6.172933E+03
       307  21 -1.307126E+06 -2.568679E+05 -7.802725E+04 -4.808510E+05  1.133724E+04 -8.786586E+03
       307  22 -1.046355E+06 -1.733130E+05 -4.158167E+04 -4.064463E+05  3.476661E+04 -2.788042E+03
       307  23 -1.048370E+06 -1.536027E+05 -2.073932E+04 -4.033417E+05  2.378468E+04 -5.860990E+03
       307  24 -1.044554E+06 -1.606424E+05 -1.167329E+04 -4.111931E+05  1.257384E+04 -8.322487E+03
       307  25 -7.267027E+05 -4.954301E+04  4.051335E+04 -3.147950E+05  3.519081E+04 -2.627949E+03
       307  26 -7.572664E+05 -4.364588E+04  5.331902E+04 -3.226742E+05  2.461507E+04 -5.548883E+03
       307  27 -7.819153E+05 -6.441314E+04  5.467518E+04 -3.415088E+05  1.381102E+04 -7.858183E+03
       308   1 -1.273227E+06 -2.481392E+05 -6.712659E+04 -4.731713E+05 -9.479791E+03  8.324530E+03
       308   2 -1.247805E+06 -2.287233E+05 -5.503742E+04 -4.573409E+05 -6.442746E+03  7.642741E+03
       308   3 -1.210303E+06 -2.233061E+05 -4.507320E+04 -4.559833E+05 -3.389935E+03  6.917459E+03
       308   4 -1.043778E+06 -1.621887E+05 -8.975622E+03 -4.103298E+05 -1.054094E+04  7.926362E+03
       308   5 -1.049747E+06 -1.546910E+05 -4.792771E+03 -4.032801E+05 -7.532259E+03  7.234149E+03
       308   6 -1.043632E+06 -1.611861E+05 -2.711691E+03 -4.107034E+05 -4.507937E+03  6.498402E+03
       308   7 -8.142786E+05 -7.623507E+04  4.917087E+04 -3.474674E+05 -1.160252E+04  7.528035E+03
       308   8 -8.516517E+05 -8.065628E+04  4.544873E+04 -3.492036E+05 -8.622152E+03  6.825415E+03
       308   9 -8.769340E+05 -9.906414E+04  3.964775E+04 -3.654123E+05 -5.626272E+03  6.079222E+03
       308  10 -1.273227E+06 -2.481393E+05 -6.712689E+04 -4.731712E+05 -8.387156E-10 -1.246180E-09
       308  11 -1.247805E+06 -2.287234E+05 -5.503761E+04 -4.573409E+05  1.660085E-09  1.424684E-09
       308  12 -1.210303E+06 -2.233062E+05 -4.507331E+04 -4.559833E+05  6.204311E-09  3.052100E-09
       308  13 -1.043778E+06 -1.621888E+05 -8.975949E+03 -4.103297E+05 -4.157796E-10 -3.804015E-10
       308  14 -1.049748E+06 -1.546911E+05 -4.792976E+03 -4.032800E+05  2.086974E-10 -1.811173E-12
       308  15 -1.043633E+06 -1.611862E+05 -2.711808E+03 -4.107034E+05  1.830811E-09  1.387448E-09
       308  16 -8.142787E+05 -7.623517E+04  4.917051E+04 -3.474673E+05  5.230799E-10  3.033484E-10
       308  17 -8.516517E+05 -8.065635E+04  4.544850E+04 -3.492036E+05 -2.587753E-09 -1.303667E-09
       308  18 -8.769341E+05 -9.906419E+04  3.964763E+04 -3.654123E+05 -3.093711E-09 -1.127527E-09
       308  19 -1.273227E+06 -2.481392E+05 -6.712659E+04 -4.731713E+05  9.479791E+03 -8.324530E+03
       308  20 -1.247805E+06 -2.287233E+05 -5.503742E+04 -4.573409E+05  6.442746E+03 -7.642741E+03
       308  21 -1.210303E+06 -2.233061E+05 -4.507320E+04 -4.559833E+05  3.389935E+03 -6.917459E+03
       308  22 -1.043778E+06 -1.621887E+05 -8.975622E+03 -4.103298E+05  1.054094E+04 -7.926362E+03
       308  23 -1.049747E+06 -1.546910E+05 -4.792771E+03 -4.032801E+05  7.532259E+03 -7.234149E+03
       308  24 -1.043632E+06 -1.611861E+05 -2.711691E+03 -4.107034E+05  4.507937E+03 -6.498402E+03
       308  25 -8.142786E+05 -7.623507E+04  4.917087E+04 -3.474674E+05  1.160252E+04 -7.528035E+03
       308  26 -8.516517E+05 -8.065628E+04  4.544873E+04 -3.492036E+05  8.622152E+03 -6.825415E+03
       308  27 -8.769340E+05 -9.906414E+04  3.964775E+04 -3.654123E+05  5.626272E+03 -6.079222E+03
       309   1 -1.177844E+06 -2.115033E+05 -3.605452E+04 -4.473194E+05 -2.638176E+03  6.097537E+03
       309   2 -1.152262E+06 -1.929686E+05 -2.722827E+04 -4.311335E+05 -1.374943E+03  4.680563E+03
       309   3 -1.113800E+06 -1.875354E+05 -1.890498E+04 -4.298547E+05 -1.091185E+02  3.255724E+03
       309   4 -1.043502E+06 -1.613347E+05 -2.095605E+03 -4.106687E+05 -3.751396E+03  5.680376E+03
       309   5 -1.049935E+06 -1.547468E+05 -1.276100E+03 -4.032287E+05 -2.493303E+03  4.261585E+03
       309   6 -1.043489E+06 -1.612594E+05 -9.552919E+02 -4.106959E+05 -1.232658E+03  2.834921E+03
       309   7 -9.091410E+05 -1.111648E+05  3.186186E+04 -3.740107E+05 -4.864881E+03  5.263116E+03
       309   8 -9.475985E+05 -1.165245E+05  2.467517E+04 -3.753198E+05 -3.611863E+03  3.842532E+03
       309   9 -9.731736E+05 -1.349832E+05  1.699392E+04 -3.915353E+05 -2.356333E+03  2.414068E+03
       309  10 -1.177844E+06 -2.115034E+05 -3.605460E+04 -4.473194E+05 -2.636675E-09 -7.653492E-10
       309  11 -1.152262E+06 -1.929686E+05 -2.722831E+04 -4.311335E+05 -2.231647E-09 -1.291777E-09
       309  12 -1.113800E+06 -1.875355E+05 -1.890500E+04 -4.298547E+05  5.630413E-10 -1.070764E-10
       309  13 -1.043502E+06 -1.613347E+05 -2.095692E+03 -4.106687E+05  2.034273E-09  1.184382E-09
       309  14 -1.049935E+06 -1.547469E+05 -1.276146E+03 -4.032287E+05 -1.052654E-10  7.218558E-10
       309  15 -1.043489E+06 -1.612594E+05 -9.553099E+02 -4.106959E+05  3.256558E-10  1.949600E-10
       309  16 -9.091410E+05 -1.111648E+05  3.186176E+04 -3.740107E+05  5.911381E-09  3.052145E-09
       309  17 -9.475986E+05 -1.165245E+05  2.467512E+04 -3.753198E+05  1.965664E-09  1.373498E-09
       309  18 -9.731736E+05 -1.349832E+05  1.699390E+04 -3.915353E+05 -1.416142E-10 -8.496673E-10
       309  19 -1.177844E+06 -2.115033E+05 -3.605452E+04 -4.473194E+05  2.638176E+03 -6.097537E+03
       309  20 -1.152262E+06 -1.929686E+05 -2.722827E+04 -4.311335E+05  1.374943E+03 -4.680563E+03
       309  21 -1.113800E+06 -1.875354E+05 -1.890498E+04 -4.298547E+05  1.091185E+02 -3.255724E+03
       309  22 -1.043502E+06 -1.613347E+05 -2.095605E+03 -4.106687E+05  3.751396E+03 -5.680376E+03
       309  23 -1.049935E+06 -1.547468E+05 -1.276100E+03 -4.032287E+05  2.493303E+03 -4.261585E+03
       309  24 -1.043489E+06 -1.612594E+05 -9.552919E+02 -4.106959E+05  1.232658E+03 -2.834921E+03
       309  25 -9.091410E+05 -1.111648E+05  3.186186E+04 -3.740107E+05  4.864881E+03 -5.263116E+03
       309  26 -9.475985E+05 -1.165245E+05  2.467517E+04 -3.753198E+05  3.611863E+03 -3.842532E+03
       309  27 -9.731736E+05 -1.349832E+05  1.699392E+04 -3.915353E+05  2.356333E+03 -2.414068E+03
       310   1 -1.081213E+06 -1.753679E+05 -1.038390E+04 -4.210281E+05  4.127553E+02  2.342222E+03
       310   2 -1.055498E+06 -1.568106E+05 -2.526029E+03 -4.047326E+05  1.595776E+03  8.797380E+02
       310   3 -1.016826E+06 -1.514071E+05  4.894462E+03 -4.034304E+05  2.778443E+03 -5.817687E+02
       310   4 -1.043472E+06 -1.612767E+05 -9.279390E+02 -4.107128E+05 -7.125043E+02  1.920814E+03
       310   5 -1.049954E+06 -1.547257E+05 -1.117293E+03 -4.032062E+05  4.711426E+02  4.585646E+02
       310   6 -1.043479E+06 -1.613288E+05 -1.744663E+03 -4.106934E+05  1.654402E+03 -1.002713E+03
       310   7 -1.005729E+06 -1.471855E+05  8.527960E+03 -4.003970E+05 -1.837843E+03  1.499375E+03
       310   8 -1.044409E+06 -1.526407E+05  2.914480E+02 -4.016797E+05 -6.535040E+02  3.738612E+01
       310   9 -1.070132E+06 -1.712505E+05 -8.383838E+03 -4.179560E+05  5.304126E+02 -1.423638E+03
       310  10 -1.081213E+06 -1.753679E+05 -1.038391E+04 -4.210281E+05 -2.341306E-10 -4.368736E-10
       310  11 -1.055498E+06 -1.568106E+05 -2.526035E+03 -4.047326E+05  4.174283E-09  1.495031E-09
       310  12 -1.016826E+06 -1.514071E+05  4.894447E+03 -4.034304E+05  3.075064E-09  8.096850E-10
       310  13 -1.043472E+06 -1.612767E+05 -9.279469E+02 -4.107128E+05  1.969907E-09 -3.530620E-10
       310  14 -1.049954E+06 -1.547257E+05 -1.117294E+03 -4.032062E+05  4.189721E-09  1.534781E-09
       310  15 -1.043479E+06 -1.613288E+05 -1.744670E+03 -4.106934E+05  1.686406E-09  2.923950E-10
       310  16 -1.005729E+06 -1.471855E+05  8.527950E+03 -4.003969E+05  3.891682E-09  1.413787E-10
       310  17 -1.044409E+06 -1.526407E+05  2.914472E+02 -4.016797E+05  3.600977E-09  5.503243E-10
       310  18 -1.070132E+06 -1.712505E+05 -8.383843E+03 -4.179560E+05 -1.846686E-10 -1.857123E-10
       310  19 -1.081213E+06 -1.753679E+05 -1.038390E+04 -4.210281E+05 -4.127553E+02 -2.342222E+03
       310  20 -1.055498E+06 -1.568106E+05 -2.526029E+03 -4.047326E+05 -1.595776E+03 -8.797380E+02
       310  21 -1.016826E+06 -1.514071E+05  4.894462E+03 -4.034304E+05 -2.778443E+03  5.817687E+02
       310  22 -1.043472E+06 -1.612767E+05 -9.279390E+02 -4.107128E+05  7.125043E+02 -1.920814E+03
       310  23 -1.049954E+06 -1.547257E+05 -1.117293E+03 -4.032062E+05 -4.711426E+02 -4.585646E+02
       310  24 -1.043479E+06 -1.613288E+05 -1.744663E+03 -4.106934E+05 -1.654402E+03  1.002713E+03
       310  25 -1.005729E+06 -1.471855E+05  8.527960E+03 -4.003970E+05  1.837843E+03 -1.499375E+03
       310  26 -1.044409E+06 -1.526407E+05  2.914480E+02 -4.016797E+05  6.535040E+02 -3.738612E+01
       310  27 -1.070132E+06 -1.712505E+05 -8.383838E+03 -4.179560E+05 -5.304126E+02  1.423638E+03
       311   1 -9.842453E+05 -1.392079E+05  1.289966E+04 -3.947359E+05  3.476753E+03 -1.432603E+03
       311   2 -9.585526E+05 -1.205538E+05  1.924442E+04 -3.783201E+05  6.042958E+03 -2.368705E+03
       311   3 -9.204534E+05 -1.158730E+05  2.388876E+04 -3.766692E+05  8.598470E+03 -3.275159E+03
       311   4 -1.043564E+06 -1.612320E+05 -2.233546E+03 -4.107477E+05  2.346531E+03 -1.855890E+03
       311   5 -1.049823E+06 -1.546467E+05 -3.902110E+03 -4.032146E+05  4.932315E+03 -2.784759E+03
       311   6 -1.043680E+06 -1.620389E+05 -7.286817E+03 -4.104468E+05  7.507304E+03 -3.684015E+03
       311   7 -1.102879E+06 -1.832557E+05 -1.736697E+04 -4.267581E+05  1.216431E+03 -2.279132E+03
       311   8 -1.141085E+06 -1.887391E+05 -2.704931E+04 -4.281058E+05  3.821850E+03 -3.200746E+03
       311   9 -1.166893E+06 -2.082040E+05 -3.846373E+04 -4.442185E+05  6.416371E+03 -4.092783E+03
       311  10 -9.842454E+05 -1.392079E+05  1.289964E+04 -3.947359E+05  6.014884E-10  2.795592E-10
       311  11 -9.585527E+05 -1.205538E+05  1.924435E+04 -3.783201E+05  1.792067E-10  3.240669E-12
       311  12 -9.204535E+05 -1.158730E+05  2.388860E+04 -3.766691E+05  5.813168E-10  2.635002E-10
       311  13 -1.043564E+06 -1.612320E+05 -2.233562E+03 -4.107477E+05  5.738168E-10  1.046795E-09
       311  14 -1.049823E+06 -1.546467E+05 -3.902171E+03 -4.032146E+05 -3.270821E-12 -2.926406E-10
       311  15 -1.043680E+06 -1.620389E+05 -7.286949E+03 -4.104468E+05 -7.753546E-11  1.483232E-10
       311  16 -1.102879E+06 -1.832557E+05 -1.736698E+04 -4.267581E+05 -1.771348E-10  3.250774E-10
       311  17 -1.141085E+06 -1.887391E+05 -2.704936E+04 -4.281058E+05  4.677183E-10  6.700045E-10
       311  18 -1.166893E+06 -2.082040E+05 -3.846384E+04 -4.442185E+05 -2.335376E-10  5.917662E-11
       311  19 -9.842453E+05 -1.392079E+05  1.289966E+04 -3.947359E+05 -3.476753E+03  1.432603E+03
       311  20 -9.585526E+05 -1.205538E+05  1.924442E+04 -3.783201E+05 -6.042958E+03  2.368705E+03
       311  21 -9.204534E+05 -1.158730E+05  2.388876E+04 -3.766692E+05 -8.598470E+03  3.275159E+03
       311  22 -1.043564E+06 -1.612320E+05 -2.233546E+03 -4.107477E+05 -2.346531E+03  1.855890E+03
       311  23 -1.049823E+06 -1.546467E+05 -3.902110E+03 -4.032146E+05 -4.932315E+03  2.784759E+03
       311  24 -1.043680E+06 -1.620389E+05 -7.286817E+03 -4.104468E+05 -7.507304E+03  3.684015E+03
       311  25 -1.102879E+06 -1.832557E+05 -1.736697E+04 -4.267581E+05 -1.216431E+03  2.279132E+03
       311  26 -1.141085E+06 -1.887391E+05 -2.704931E+04 -4.281058E+05 -3.821850E+03  3.200746E+03
       311  27 -1.166893E+06 -2.082040E+05 -3.846373E+04 -4.442185E+05 -6.416371E+03  4.092783E+03
       312   1 -8.875251E+05 -1.038114E+05  3.009550E+04 -3.700506E+05  1.045787E+04 -3.741254E+03
       312   2 -8.621811E+05 -8.314124E+04  3.067332E+04 -3.514103E+05  1.936734E+04 -2.213862E+03
       312   3 -8.293730E+05 -8.680597E+04  2.194404E+04 -3.447790E+05  2.810306E+04 -2.204116E+02
       312   4 -1.044294E+06 -1.608029E+05 -9.471902E+03 -4.111662E+05  9.230530E+03 -4.201201E+03
       312   5 -1.048722E+06 -1.537387E+05 -1.681389E+04 -4.032394E+05  1.845107E+04 -2.557499E+03
       312   6 -1.045750E+06 -1.710740E+05 -3.371198E+04 -4.073223E+05  2.749737E+04 -4.479179E+02
       312   7 -1.201040E+06 -2.177932E+05 -4.904125E+04 -4.522726E+05  8.003526E+03 -4.661028E+03
       312   8 -1.235229E+06 -2.243336E+05 -6.430382E+04 -4.550543E+05  1.753509E+04 -2.901019E+03
       312   9 -1.262081E+06 -2.553375E+05 -8.937163E+04 -4.698453E+05  2.689192E+04 -6.753290E+02
       312  10 -8.875253E+05 -1.038114E+05  3.009527E+04 -3.700506E+05  5.162888E-10  1.204958E-10
       312  11 -8.621815E+05 -8.314135E+04  3.067261E+04 -3.514102E+05  2.896737E-10  1.991668E-10
       312  12 -8.293738E+05 -8.680618E+04  2.194256E+04 -3.447790E+05  1.745299E-10  2.262965E-10
       312  13 -1.044295E+06 -1.608029E+05 -9.472095E+03 -4.111662E+05  2.535961E-10  1.543354E-10
       312  14 -1.048723E+06 -1.537388E+05 -1.681455E+04 -4.032394E+05  4.315760E-10  5.066221E-11
       312  15 -1.045751E+06 -1.710742E+05 -3.371340E+04 -4.073223E+05 -1.020334E-10 -4.844762E-11
       312  16 -1.201040E+06 -2.177932E+05 -4.904141E+04 -4.522726E+05 -6.292159E-10 -2.297078E-10
       312  17 -1.235230E+06 -2.243337E+05 -6.430441E+04 -4.550543E+05 -7.902568E-11 -2.312136E-10
       312  18 -1.262082E+06 -2.553377E+05 -8.937299E+04 -4.698453E+05 -1.196236E-10 -2.210782E-10
       312  19 -8.875251E+05 -1.038114E+05  3.009550E+04 -3.700506E+05 -1.045787E+04  3.741254E+03
       312  20 -8.621811E+05 -8.314124E+04  3.067332E+04 -3.514103E+05 -1.936734E+04  2.213862E+03
       312  21 -8.293730E+05 -8.680597E+04  2.194404E+04 -3.447790E+05 -2.810306E+04  2.204116E+02
       312  22 -1.044294E+06 -1.608029E+05 -9.471902E+03 -4.111662E+05 -9.230530E+03  4.201201E+03
       312  23 -1.048722E+06 -1.537387E+05 -1.681389E+04 -4.032394E+05 -1.845107E+04  2.557499E+03
       312  24 -1.045750E+06 -1.710740E+05 -3.371198E+04 -4.073223E+05 -2.749737E+04  4.479179E+02
       312  25 -1.201040E+06 -2.177932E+05 -4.904125E+04 -4.522726E+05 -8.003526E+03  4.661028E+03
       312  26 -1.235229E+06 -2.243336E+05 -6.430382E+04 -4.550543E+05 -1.753509E+04  2.901019E+03
       312  27 -1.262081E+06 -2.553375E+05 -8.937163E+04 -4.698453E+05 -2.689192E+04  6.753290E+02
       313   1 -7.875420E+05 -7.519516E+04  2.146232E+04 -3.628120E+05  3.713274E+04  8.810787E+02
       313   2 -7.676629E+05 -2.699128E+04 -1.519269E+02 -3.139115E+05  7.042701E+04  1.277040E+04
       313   3 -7.918631E+05 -1.297243E+05 -8.437989E+04 -2.431705E+05  1.005092E+05  3.323003E+04
       313   4 -1.051284E+06 -1.557162E+05 -4.196290E+04 -4.162010E+05  3.388535E+04 -3.356922E+02
       313   5 -1.037637E+06 -1.431587E+05 -7.170238E+04 -4.033148E+05  7.293272E+04  1.370781E+04
       313   6 -1.069239E+06 -2.827244E+05 -1.686409E+05 -3.685843E+05  1.087663E+05  3.631866E+04
       313   7 -1.314959E+06 -2.362380E+05 -1.053933E+05 -4.695721E+05  3.063945E+04 -1.552142E+03
       313   8 -1.307539E+06 -2.593143E+05 -1.432590E+05 -4.926804E+05  7.543723E+04  1.464461E+04
       313   9 -1.346532E+06 -4.356878E+05 -2.529081E+05 -4.939376E+05  1.170194E+05  3.940411E+04
       313  10 -7.875435E+05 -7.519554E+04  2.145972E+04 -3.628120E+05 -2.329540E-11  4.525715E-11
       313  11 -7.676683E+05 -2.699279E+04 -1.615676E+02 -3.139122E+05  5.406297E-11 -4.388689E-10
       313  12 -7.918743E+05 -1.297282E+05 -8.440098E+04 -2.431732E+05 -3.775140E-11 -2.048582E-10
       313  13 -1.051285E+06 -1.557165E+05 -4.196507E+04 -4.162009E+05 -9.305323E-11  1.126896E-10
       313  14 -1.037643E+06 -1.431603E+05 -7.171275E+04 -4.033156E+05 -9.741411E-10 -1.989533E-10
       313  15 -1.069253E+06 -2.827290E+05 -1.686657E+05 -3.685875E+05  6.995632E-11  6.605076E-11
       313  16 -1.314960E+06 -2.362383E+05 -1.053951E+05 -4.695721E+05 -2.655921E-10 -1.774362E-10
       313  17 -1.307545E+06 -2.593161E+05 -1.432701E+05 -4.926813E+05  5.628321E-11  8.099813E-11
       313  18 -1.346548E+06 -4.356932E+05 -2.529368E+05 -4.939413E+05  3.733406E-10  1.042771E-10
       313  19 -7.875420E+05 -7.519516E+04  2.146232E+04 -3.628120E+05 -3.713274E+04 -8.810787E+02
       313  20 -7.676629E+05 -2.699128E+04 -1.519269E+02 -3.139115E+05 -7.042701E+04 -1.277040E+04
       313  21 -7.918631E+05 -1.297243E+05 -8.437989E+04 -2.431705E+05 -1.005092E+05 -3.323003E+04
       313  22 -1.051284E+06 -1.557162E+05 -4.196290E+04 -4.162010E+05 -3.388535E+04  3.356922E+02
       313  23 -1.037637E+06 -1.431587E+05 -7.170238E+04 -4.033148E+05 -7.293272E+04 -1.370781E+04
       313  24 -1.069239E+06 -2.827244E+05 -1.686409E+05 -3.685843E+05 -1.087663E+05 -3.631866E+04
       313  25 -1.314959E+06 -2.362380E+05 -1.053933E+05 -4.695721E+05 -3.063945E+04  1.552142E+03
       313  26 -1.307539E+06 -2.593143E+05 -1.432590E+05 -4.926804E+05 -7.543723E+04 -1.464461E+04
       313  27 -1.346532E+06 -4.356878E+05 -2.529081E+05 -4.939376E+05 -1.170194E+05 -3.940411E+04
       314   1  5.276911E+05  1.229428E+05  2.087510E+05  9.964079E+04  2.747061E+05  1.168589E+04
       314   2  5.556664E+05 -2.347120E+05 -1.565035E+03  2.207711E+04  1.872293E+05  3.468229E+04
       314   3  6.912161E+05 -2.098900E+05 -5.919901E+04 -9.760997E+04  9.977127E+04  3.418628E+04
       314   4  1.465055E+06  3.553548E+05  4.374600E+05 -4.517999E+04  3.001807E+05  1.165947E+04
       314   5  1.410020E+06 -2.471857E+04  1.956091E+05 -2.386919E+04  1.956206E+05  3.467498E+04
       314   6  1.465336E+06 -1.967649E+04  1.181248E+05 -4.467648E+04  9.109426E+04  3.418464E+04
       314   7  2.403267E+06  5.877816E+05  6.661191E+05 -1.902200E+05  3.256934E+05  1.162125E+04
       314   8  2.265053E+06  1.852319E+05  3.927362E+05 -6.987933E+04  2.040231E+05  3.466644E+04
       314   9  2.240016E+06  1.705059E+05  2.954111E+05  8.323387E+03  8.240648E+04  3.418151E+04
       314  10  5.276101E+05  1.229224E+05  2.086090E+05  9.963821E+04 -5.105157E-10  5.445044E-10
       314  11  5.556284E+05 -2.347227E+05 -1.633105E+03  2.207188E+04 -1.184603E-09 -4.027708E-10
       314  12  6.912052E+05 -2.098940E+05 -5.921989E+04 -9.761271E+04  4.261404E-10 -3.353050E-11
       314  13  1.464959E+06  3.553305E+05  4.372909E+05 -4.518280E+04  6.310478E-10  2.692504E-10
       314  14  1.409979E+06 -2.473011E+04  1.955351E+05 -2.387465E+04 -1.578212E-09 -1.559750E-09
       314  15  1.465327E+06 -1.967996E+04  1.181071E+05 -4.467899E+04  6.956750E-11 -2.490028E-10
       314  16  2.403153E+06  5.877531E+05  6.659202E+05 -1.902230E+05  1.738007E-10 -1.234738E-10
       314  17  2.265008E+06  1.852194E+05  3.926560E+05 -6.988502E+04  1.838018E-10 -2.304010E-10
       314  18  2.240009E+06  1.705028E+05  2.953962E+05  8.321121E+03 -2.038673E-10 -5.921771E-10
       314  19  5.276911E+05  1.229428E+05  2.087510E+05  9.964079E+04 -2.747061E+05 -1.168589E+04
       314  20  5.556664E+05 -2.347120E+05 -1.565035E+03  2.207711E+04 -1.872293E+05 -3.468229E+04
       314  21  6.912161E+05 -2.098900E+05 -5.919901E+04 -9.760997E+04 -9.977127E+04 -3.418628E+04
       314  22  1.465055E+06  3.553548E+05  4.374600E+05 -4.517999E+04 -3.001807E+05 -1.165947E+04
       314  23  1.410020E+06 -2.471857E+04  1.956091E+05 -2.386919E+04 -1.956206E+05 -3.467498E+04
       314  24  1.465336E+06 -1.967649E+04  1.181248E+05 -4.467648E+04 -9.109426E+04 -3.418464E+04
       314  25  2.403267E+06  5.877816E+05  6.661191E+05 -1.902200E+05 -3.256934E+05 -1.162125E+04
       314  26  2.265053E+06  1.852319E+05  3.927362E+05 -6.987933E+04 -2.040231E+05 -3.466644E+04
       314  27  2.240016E+06  1.705059E+05  2.954111E+05  8.323387E+03 -8.240648E+04 -3.418151E+04
       315   1  7.456389E+05 -1.450209E+05 -6.545411E+04 -3.595135E+04  7.500097E+04  2.911090E+04
       315   2  8.189672E+05 -1.543277E+05 -9.183201E+04 -2.197250E+04  5.040564E+04  2.653548E+04
       315   3  9.030935E+05 -1.343053E+05 -9.481789E+04 -4.917765E+04  2.580547E+04  2.283681E+04
       315   4  1.443216E+06  2.642576E+04  9.509982E+04 -4.461361E+04  7.361655E+04  2.910667E+04
       315   5  1.437784E+06 -2.301300E+03  5.024861E+04 -2.401646E+04  4.818535E+04  2.653258E+04
       315   6  1.443276E+06 -1.571815E+03  2.934959E+04 -4.459997E+04  2.275238E+04  2.283525E+04
       315   7  2.141243E+06  1.978387E+05  2.556216E+05 -5.328572E+04  7.223056E+04  2.910248E+04
       315   8  2.056954E+06  1.496984E+05  1.923040E+05 -2.606251E+04  4.596285E+04  2.652971E+04
       315   9  1.983728E+06  1.311414E+05  1.534978E+05 -4.001829E+04  1.969666E+04  2.283365E+04
       315  10  7.456327E+05 -1.450233E+05 -6.546626E+04 -3.595311E+04 -6.262866E-10 -6.074455E-10
       315  11  8.189643E+05 -1.543291E+05 -9.183810E+04 -2.197357E+04 -5.096799E-10  1.258658E-10
       315  12  9.030926E+05 -1.343060E+05 -9.482012E+04 -4.917813E+04  4.323930E-10 -8.911246E-11
       315  13  1.443210E+06  2.642340E+04  9.508806E+04 -4.461533E+04  7.360104E-10 -4.115936E-10
       315  14  1.437781E+06 -2.302678E+03  5.024293E+04 -2.401749E+04  1.948879E-11 -2.271004E-10
       315  15  1.443275E+06 -1.572514E+03  2.934763E+04 -4.460039E+04 -3.624538E-10 -2.697542E-10
       315  16  2.141237E+06  1.978364E+05  2.556102E+05 -5.328741E+04  1.158495E-09 -1.025817E-10
       315  17  2.056951E+06  1.496971E+05  1.922987E+05 -2.606349E+04 -4.562363E-10 -7.130445E-10
       315  18  1.983727E+06  1.311407E+05  1.534961E+05 -4.001865E+04 -2.626282E-10 -2.599120E-10
       315  19  7.456389E+05 -1.450209E+05 -6.545411E+04 -3.595135E+04 -7.500097E+04 -2.911090E+04
       315  20  8.189672E+05 -1.543277E+05 -9.183201E+04 -2.197250E+04 -5.040564E+04 -2.653548E+04
       315  21  9.030935E+05 -1.343053E+05 -9.481789E+04 -4.917765E+04 -2.580547E+04 -2.283681E+04
       315  22  1.443216E+06  2.642576E+04  9.509982E+04 -4.461361E+04 -7.361655E+04 -2.910667E+04
       315  23  1.437784E+06 -2.301300E+03  5.024861E+04 -2.401646E+04 -4.818535E+04 -2.653258E+04
       315  24  1.443276E+06 -1.571815E+03  2.934959E+04 -4.459997E+04 -2.275238E+04 -2.283525E+04
       315  25  2.141243E+06  1.978387E+05  2.556216E+05 -5.328572E+04 -7.223056E+04 -2.910248E+04
       315  26  2.056954E+06  1.496984E+05  1.923040E+05 -2.606251E+04 -4.596285E+04 -2.652971E+04
       315  27  1.983728E+06  1.311414E+05  1.534978E+05 -4.001829E+04 -1.969666E+04 -2.283365E+04
       316   1  9.753656E+05 -1.125574E+05 -8.402114E+04 -4.426567E+04  2.084463E+04  2.046760E+04
       316   2  1.051621E+06 -9.578603E+04 -7.647102E+04 -2.437380E+04  1.452023E+04  1.672512E+04
       316   3  1.129347E+06 -7.675008E+04 -6.422502E+04 -4.480033E+04  8.192715E+03  1.294852E+04
       316   4  1.441190E+06  1.825556E+03  2.268510E+04 -4.441163E+04  1.816790E+04  2.046654E+04
       316   5  1.440467E+06 -2.757940E+02  1.276580E+04 -2.425337E+04  1.181439E+04  1.672481E+04
       316   6  1.441212E+06 -1.087172E+02  7.559569E+03 -4.441193E+04  5.458519E+03  1.294898E+04
       316   7  1.907215E+06  1.161934E+05  1.293771E+05 -4.455769E+04  1.548918E+04  2.046547E+04
       316   8  1.829453E+06  9.522392E+04  1.019927E+05 -2.413286E+04  9.106862E+03  1.672449E+04
       316   9  1.753167E+06  7.652587E+04  7.933775E+04 -4.402332E+04  2.722963E+03  1.294944E+04
       316  10  9.753650E+05 -1.125580E+05 -8.402274E+04 -4.426601E+04  4.302034E-10 -6.193766E-11
       316  11  1.051621E+06 -9.578638E+04 -7.647194E+04 -2.437400E+04  4.191283E-10 -9.558733E-11
       316  12  1.129347E+06 -7.675028E+04 -6.422546E+04 -4.480042E+04 -3.647198E-10  2.656259E-10
       316  13  1.441189E+06  1.825017E+03  2.268369E+04 -4.441193E+04  2.281943E-10  4.865279E-11
       316  14  1.440467E+06 -2.761319E+02  1.276501E+04 -2.425353E+04 -5.032291E-10  1.080590E-10
       316  15  1.441212E+06 -1.089054E+02  7.559198E+03 -4.441199E+04  2.636437E-10 -5.016041E-11
       316  16  1.907214E+06  1.161929E+05  1.293759E+05 -4.455794E+04 -4.852197E-10 -1.317325E-11
       316  17  1.829453E+06  9.522360E+04  1.019920E+05 -2.413299E+04 -6.108885E-10  4.465762E-10
       316  18  1.753167E+06  7.652569E+04  7.933742E+04 -4.402335E+04 -8.579257E-10  3.786745E-10
       316  19  9.753656E+05 -1.125574E+05 -8.402114E+04 -4.426567E+04 -2.084463E+04 -2.046760E+04
       316  20  1.051621E+06 -9.578603E+04 -7.647102E+04 -2.437380E+04 -1.452023E+04 -1.672512E+04
       316  21  1.129347E+06 -7.675008E+04 -6.422502E+04 -4.480033E+04 -8.192715E+03 -1.294852E+04
       316  22  1.441190E+06  1.825556E+03  2.268510E+04 -4.441163E+04 -1.816790E+04 -2.046654E+04
       316  23  1.440467E+06 -2.757940E+02  1.276580E+04 -2.425337E+04 -1.181439E+04 -1.672481E+04
       316  24  1.441212E+06 -1.087172E+02  7.559569E+03 -4.441193E+04 -5.458519E+03 -1.294898E+04
       316  25  1.907215E+06  1.161934E+05  1.293771E+05 -4.455769E+04 -1.548918E+04 -2.046547E+04
       316  26  1.829453E+06  9.522392E+04  1.019927E+05 -2.413286E+04 -9.106862E+03 -1.672449E+04
       316  27  1.753167E+06  7.652587E+04  7.933775E+04 -4.402332E+04 -2.722963E+03 -1.294944E+04
       317   1  1.202182E+06 -5.847955E+04 -4.865422E+04 -4.434757E+04  6.950756E+03  1.075000E+04
       317   2  1.278102E+06 -3.999284E+04 -3.354126E+04 -2.441191E+04  5.066250E+03  6.999056E+03
       317   3  1.354302E+06 -2.129545E+04 -1.715645E+04 -4.429889E+04  3.180561E+03  3.254898E+03
       317   4  1.440957E+06  1.187299E+02  5.911620E+03 -4.430188E+04  4.244090E+03  1.075079E+04
       317   5  1.440824E+06 -3.005570E+01  3.795961E+03 -2.439091E+04  2.363697E+03  7.000142E+03
       317   6  1.440964E+06  3.137670E+01  2.949119E+03 -4.430196E+04  4.823465E+02  3.256305E+03
       317   7  1.679784E+06  5.871306E+04  6.047376E+04 -4.425617E+04  1.536393E+03  1.075158E+04
       317   8  1.603570E+06  3.993089E+04  4.113147E+04 -2.436991E+04 -3.395584E+02  7.001228E+03
       317   9  1.527634E+06  2.135768E+04  2.305421E+04 -4.430502E+04 -2.216241E+03  3.257713E+03
       317  10  1.202182E+06 -5.847969E+04 -4.865453E+04 -4.434763E+04 -5.649575E-10  3.398719E-10
       317  11  1.278102E+06 -3.999290E+04 -3.354140E+04 -2.441194E+04  9.657494E-11  7.998503E-10
       317  12  1.354301E+06 -2.129546E+04 -1.715649E+04 -4.429890E+04 -5.911535E-10  3.028585E-10
       317  13  1.440957E+06  1.186008E+02  5.911369E+03 -4.430192E+04 -7.068972E-10  4.184098E-10
       317  14  1.440824E+06 -3.010985E+01  3.795858E+03 -2.439093E+04  2.142790E-10 -3.704565E-10
       317  15  1.440964E+06  3.136525E+01  2.949098E+03 -4.430196E+04 -2.812941E-10 -5.329575E-10
       317  16  1.679784E+06  5.871294E+04  6.047354E+04 -4.425618E+04  8.712740E-10 -7.566587E-10
       317  17  1.603570E+06  3.993084E+04  4.113138E+04 -2.436991E+04  4.409013E-10 -4.356905E-10
       317  18  1.527634E+06  2.135766E+04  2.305418E+04 -4.430502E+04  4.101584E-10 -9.004222E-10
       317  19  1.202182E+06 -5.847955E+04 -4.865422E+04 -4.434757E+04 -6.950756E+03 -1.075000E+04
       317  20  1.278102E+06 -3.999284E+04 -3.354126E+04 -2.441191E+04 -5.066250E+03 -6.999056E+03
       317  21  1.354302E+06 -2.129545E+04 -1.715645E+04 -4.429889E+04 -3.180561E+03 -3.254898E+03
       317  22  1.440957E+06  1.187299E+02  5.911620E+03 -4.430188E+04 -4.244090E+03 -1.075079E+04
       317  23  1.440824E+06 -3.005570E+01  3.795961E+03 -2.439091E+04 -2.363697E+03 -7.000142E+03
       317  24  1.440964E+06  3.137670E+01  2.949119E+03 -4.430196E+04 -4.823465E+02 -3.256305E+03
       317  25  1.679784E+06  5.871306E+04  6.047376E+04 -4.425617E+04 -1.536393E+03 -1.075158E+04
       317  26  1.603570E+06  3.993089E+04  4.113147E+04 -2.436991E+04  3.395584E+02 -7.001228E+03
       317  27  1.527634E+06  2.135768E+04  2.305421E+04 -4.430502E+04  2.216241E+03 -3.257713E+03
       318   1  1.426864E+06 -3.383191E+03 -1.366328E+02 -4.426449E+04  2.649503E+03  1.078848E+03
       318   2  1.502648E+06  1.515946E+04  1.757581E+04 -2.438686E+04  9.673327E+02 -2.659281E+03
       318   3  1.578659E+06  3.388709E+04  3.641704E+04 -4.424108E+04 -7.146523E+02 -6.398603E+03
       318   4  1.440955E+06  3.261668E+01  2.874033E+03 -4.428198E+04 -4.692294E+01  1.080317E+03
       318   5  1.440842E+06 -1.737156E+01  3.396014E+03 -2.441589E+04 -1.729968E+03 -2.657942E+03
       318   6  1.440952E+06  1.184717E+02  5.048059E+03 -4.428191E+04 -3.412625E+03 -6.397370E+03
       318   7  1.455046E+06  3.448416E+03  5.884714E+03 -4.429947E+04 -2.743409E+03  1.081786E+03
       318   8  1.379040E+06 -1.519446E+04 -1.078400E+04 -2.444492E+04 -4.427002E+03 -2.656602E+03
       318   9  1.303263E+06 -3.365145E+04 -2.632213E+04 -4.432272E+04 -6.110006E+03 -6.396138E+03
       318  10  1.426864E+06 -3.383195E+03 -1.366482E+02 -4.426449E+04  6.173152E-12 -1.495652E-11
       318  11  1.502648E+06  1.515945E+04  1.757579E+04 -2.438686E+04  7.821658E-10  7.949135E-11
       318  12  1.578659E+06  3.388705E+04  3.641696E+04 -4.424109E+04  8.913170E-10  1.830761E-10
       318  13  1.440955E+06  3.261542E+01  2.874031E+03 -4.428198E+04 -7.874442E-10  4.665492E-10
       318  14  1.440842E+06 -1.737995E+01  3.395995E+03 -2.441590E+04 -5.531036E-10  8.846340E-10
       318  15  1.440952E+06  1.184246E+02  5.047960E+03 -4.428193E+04  1.485943E-09 -6.155928E-10
       318  16  1.455046E+06  3.448412E+03  5.884698E+03 -4.429946E+04  1.124759E-10 -1.715421E-10
       318  17  1.379039E+06 -1.519447E+04 -1.078405E+04 -2.444493E+04 -3.719751E-10  7.217281E-10
       318  18  1.303263E+06 -3.365151E+04 -2.632227E+04 -4.432275E+04  9.738217E-11 -1.558329E-10
       318  19  1.426864E+06 -3.383191E+03 -1.366328E+02 -4.426449E+04 -2.649503E+03 -1.078848E+03
       318  20  1.502648E+06  1.515946E+04  1.757581E+04 -2.438686E+04 -9.673327E+02  2.659281E+03
       318  21  1.578659E+06  3.388709E+04  3.641704E+04 -4.424108E+04  7.146523E+02  6.398603E+03
       318  22  1.440955E+06  3.261668E+01  2.874033E+03 -4.428198E+04  4.692294E+01 -1.080317E+03
       318  23  1.440842E+06 -1.737156E+01  3.396014E+03 -2.441589E+04  1.729968E+03  2.657942E+03
       318  24  1.440952E+06  1.184717E+02  5.048059E+03 -4.428191E+04  3.412625E+03  6.397370E+03
       318  25  1.455046E+06  3.448416E+03  5.884714E+03 -4.429947E+04  2.743409E+03 -1.081786E+03
       318  26  1.379040E+06 -1.519446E+04 -1.078400E+04 -2.444492E+04  4.427002E+03  2.656602E+03
       318  27  1.303263E+06 -3.365145E+04 -2.632213E+04 -4.432272E+04  6.110006E+03  6.396138E+03
       319   1  1.651657E+06  5.165687E+04  5.488940E+04 -4.403882E+04 -1.723409E+03 -8.585783E+03
       319   2  1.727563E+06  7.025508E+04  7.649923E+04 -2.426556E+04 -7.058152E+03 -1.233851E+04
       319   3  1.804661E+06  9.075083E+04  1.020524E+05 -4.452958E+04 -1.239195E+04 -1.605711E+04
       319   4  1.441159E+06 -7.115344E+01  6.381204E+03 -4.435014E+04 -4.443621E+03 -8.584755E+03
       319   5  1.440559E+06 -2.113669E+02  1.066093E+04 -2.433068E+04 -9.751689E+03 -1.233806E+04
       319   6  1.441142E+06  1.542175E+03  1.886707E+04 -4.434959E+04 -1.505817E+04 -1.605720E+04
       319   7  1.230702E+06 -5.180227E+04 -4.212990E+04 -4.466134E+04 -7.162920E+03 -8.583725E+03
       319   8  1.153631E+06 -7.068354E+04 -5.518277E+04 -2.439575E+04 -1.244399E+04 -1.233761E+04
       319   9  1.077744E+06 -8.767564E+04 -6.432691E+04 -4.416971E+04 -1.772284E+04 -1.605730E+04
       319  10  1.651657E+06  5.165679E+04  5.488925E+04 -4.403884E+04 -9.095627E-10  4.077370E-10
       319  11  1.727562E+06  7.025491E+04  7.649885E+04 -2.426563E+04 -4.453889E-10 -3.159196E-11
       319  12  1.804661E+06  9.075051E+04  1.020516E+05 -4.452974E+04 -1.252348E-09  2.479509E-10
       319  13  1.441159E+06 -7.123792E+01  6.381029E+03 -4.435017E+04  2.698759E-10 -2.513978E-10
       319  14  1.440559E+06 -2.115560E+02  1.066046E+04 -2.433077E+04  9.137146E-10 -3.388516E-10
       319  15  1.441142E+06  1.541838E+03  1.886616E+04 -4.434979E+04 -2.777738E-10 -6.119049E-11
       319  16  1.230702E+06 -5.180236E+04 -4.213014E+04 -4.466139E+04  8.573660E-10  3.150529E-10
       319  17  1.153631E+06 -7.068375E+04 -5.518335E+04 -2.439588E+04  2.310731E-09 -1.281335E-10
       319  18  1.077744E+06 -8.767600E+04 -6.432798E+04 -4.416994E+04  1.499881E-09 -5.117105E-10
       319  19  1.651657E+06  5.165687E+04  5.488940E+04 -4.403882E+04  1.723409E+03  8.585783E+03
       319  20  1.727563E+06  7.025508E+04  7.649923E+04 -2.426556E+04  7.058152E+03  1.233851E+04
       319  21  1.804661E+06  9.075083E+04  1.020524E+05 -4.452958E+04  1.239195E+04  1.605711E+04
       319  22  1.441159E+06 -7.115344E+01  6.381204E+03 -4.435014E+04  4.443621E+03  8.584755E+03
       319  23  1.440559E+06 -2.113669E+02  1.066093E+04 -2.433068E+04  9.751689E+03  1.233806E+04
       319  24  1.441142E+06  1.542175E+03  1.886707E+04 -4.434959E+04  1.505817E+04  1.605720E+04
       319  25  1.230702E+06 -5.180227E+04 -4.212990E+04 -4.466134E+04  7.162920E+03  8.583725E+03
       319  26  1.153631E+06 -7.068354E+04 -5.518277E+04 -2.439575E+04  1.244399E+04  1.233761E+04
       319  27  1.077744E+06 -8.767564E+04 -6.432691E+04 -4.416971E+04  1.772284E+04  1.605730E+04
       320   1  1.880147E+06  1.061111E+05  1.248831E+05 -4.077716E+04 -1.586998E+04 -1.838875E+04
       320   2  1.953453E+06  1.245759E+05  1.599251E+05 -2.594608E+04 -3.773207E+04 -2.205627E+04
       320   3  2.035906E+06  1.676213E+05  2.153478E+05 -5.184235E+04 -5.959473E+04 -2.472164E+04
       320   4  1.442872E+06 -1.278440E+03  2.439060E+04 -4.450210E+04 -1.886977E+04 -1.838922E+04
       320   5  1.438335E+06 -1.889534E+03  4.173155E+04 -2.413998E+04 -3.999309E+04 -2.205792E+04
       320   6  1.442822E+06  2.196457E+04  7.895443E+04 -4.450665E+04 -6.111429E+04 -2.472447E+04
       320   7  1.005773E+06 -1.086813E+05 -7.611449E+04 -4.822439E+04 -2.186748E+04 -1.838964E+04
       320   8  9.234628E+05 -1.283734E+05 -7.647945E+04 -2.233540E+04 -4.225225E+04 -2.205958E+04
       320   9  8.500630E+05 -1.237165E+05 -5.746220E+04 -3.717802E+04 -6.263239E+04 -2.472734E+04
       320  10  1.880147E+06  1.061107E+05  1.248820E+05 -4.077739E+04  4.623693E-10 -9.912303E-11
       320  11  1.953451E+06  1.245750E+05  1.599215E+05 -2.594675E+04  3.081598E-10 -5.902658E-10
       320  12  2.035902E+06  1.676197E+05  2.153400E+05 -5.184353E+04 -5.038614E-10 -3.316155E-10
       320  13  1.442871E+06 -1.278899E+03  2.438930E+04 -4.450238E+04  4.889739E-10 -2.599660E-10
       320  14  1.438334E+06 -1.890485E+03  4.172764E+04 -2.414069E+04  4.271625E-10 -1.355599E-10
       320  15  1.442818E+06  2.196291E+04  7.894627E+04 -4.450787E+04  5.356066E-10 -2.866985E-10
       320  16  1.005772E+06 -1.086818E+05 -7.611602E+04 -4.822472E+04 -2.532592E-10 -5.478216E-10
       320  17  9.234607E+05 -1.283744E+05 -7.648371E+04 -2.233615E+04  4.796199E-10 -2.058529E-10
       320  18  8.500586E+05 -1.237182E+05 -5.747071E+04 -3.717927E+04  5.552463E-10  3.534200E-10
       320  19  1.880147E+06  1.061111E+05  1.248831E+05 -4.077716E+04  1.586998E+04  1.838875E+04
       320  20  1.953453E+06  1.245759E+05  1.599251E+05 -2.594608E+04  3.773207E+04  2.205627E+04
       320  21  2.035906E+06  1.676213E+05  2.153478E+05 -5.184235E+04  5.959473E+04  2.472164E+04
       320  22  1.442872E+06 -1.278440E+03  2.439060E+04 -4.450210E+04  1.886977E+04  1.838922E+04
       320  23  1.438335E+06 -1.889534E+03  4.173155E+04 -2.413998E+04  3.999309E+04  2.205792E+04
       320  24  1.442822E+06  2.196457E+04  7.895443E+04 -4.450665E+04  6.111429E+04  2.472447E+04
       320  25  1.005773E+06 -1.086813E+05 -7.611449E+04 -4.822439E+04  2.186748E+04  1.838964E+04
       320  26  9.234628E+05 -1.283734E+05 -7.647945E+04 -2.233540E+04  4.225225E+04  2.205958E+04
       320  27  8.500630E+05 -1.237165E+05 -5.746220E+04 -3.717802E+04  6.263239E+04  2.472734E+04
       321   1  2.129944E+06  1.478429E+05  2.511291E+05 -7.375865E+02 -6.761626E+04 -2.945308E+04
       321   2  2.163177E+06  1.631974E+05  3.348390E+05 -6.239909E+04 -1.695666E+05 -3.022373E+04
       321   3  2.290501E+06  5.007060E+05  5.653902E+05 -1.654725E+05 -2.715526E+05 -1.008141E+04
       321   4  1.461185E+06 -1.630733E+04  9.806540E+04 -4.457426E+04 -7.562471E+04 -2.945434E+04
       321   5  1.415284E+06 -2.050106E+04  1.623797E+05 -2.402078E+04 -1.624029E+05 -3.023103E+04
       321   6  1.460947E+06  2.950165E+05  3.631331E+05 -4.486564E+04 -2.492010E+05 -1.011048E+04
       321   7  7.928434E+05 -1.804814E+05 -5.502641E+04 -8.836349E+04 -8.362460E+04 -2.945448E+04
       321   8  6.679109E+05 -2.042330E+05 -1.011572E+04  1.431100E+04 -1.552476E+05 -3.023745E+04
       321   9  6.320509E+05  8.933150E+04  1.608358E+05  7.558004E+04 -2.268789E+05 -1.013094E+04
       321  10  2.129938E+06  1.478408E+05  2.511189E+05 -7.391887E+02 -6.373845E-10 -1.692789E-10
       321  11  2.163145E+06  1.631887E+05  3.347835E+05 -6.240321E+04 -3.328848E-10  9.698400E-11
       321  12  2.290422E+06  5.006862E+05  5.652519E+05 -1.654747E+05  7.996904E-10  5.358053E-10
       321  13  1.461179E+06 -1.630979E+04  9.805305E+04 -4.457605E+04 -2.300276E-09 -8.095172E-10
       321  14  1.415256E+06 -2.050910E+04  1.623286E+05 -2.402473E+04 -7.399619E-10  5.417725E-11
       321  15  1.460880E+06  2.949998E+05  3.630165E+05 -4.486767E+04  1.236128E-10 -4.470624E-10
       321  16  7.928356E+05 -1.804842E+05 -5.504117E+04 -8.836548E+04 -3.776311E-10 -7.182431E-11
       321  17  6.678848E+05 -2.042404E+05 -1.016267E+04  1.430722E+04 -1.058061E-09 -6.174594E-10
       321  18  6.319957E+05  8.931759E+04  1.607390E+05  7.557819E+04  5.416902E-10  9.333130E-10
       321  19  2.129944E+06  1.478429E+05  2.511291E+05 -7.375865E+02  6.761626E+04  2.945308E+04
       321  20  2.163177E+06  1.631974E+05  3.348390E+05 -6.239909E+04  1.695666E+05  3.022373E+04
       321  21  2.290501E+06  5.007060E+05  5.653902E+05 -1.654725E+05  2.715526E+05  1.008141E+04
       321  22  1.461185E+06 -1.630733E+04  9.806540E+04 -4.457426E+04  7.562471E+04  2.945434E+04
       321  23  1.415284E+06 -2.050106E+04  1.623797E+05 -2.402078E+04  1.624029E+05  3.023103E+04
       321  24  1.460947E+06  2.950165E+05  3.631331E+05 -4.486564E+04  2.492010E+05  1.011048E+04
       321  25  7.928434E+05 -1.804814E+05 -5.502641E+04 -8.836349E+04  8.362460E+04  2.945448E+04
       321  26  6.679109E+05 -2.042330E+05 -1.011572E+04  1.431100E+04  1.552476E+05  3.023745E+04
       321  27  6.320509E+05  8.933150E+04  1.608358E+05  7.558004E+04  2.268789E+05  1.013094E+04
       322   1  1.909136E+05  4.723687E+05  2.343930E+05 -1.427743E+05 -1.056993E+03  1.514334E+05
       322   2 -3.710265E+04  3.294728E+05  8.367611E+04 -6.091261E+04 -4.595442E+03  9.353734E+04
       322   3 -6.169487E+04  2.447204E+05  2.143651E+04 -3.847236E+04 -9.788142E+03  3.564794E+04
       322   4  1.867963E+05  4.576094E+05  2.302837E+05 -6.596198E+04 -1.042046E+03  1.534836E+05
       322   5 -1.284010E+04  4.286599E+05  1.063665E+05 -3.642917E+04 -4.597425E+03  9.677466E+04
       322   6 -9.278403E+03  4.576391E+05  7.010783E+04 -6.630535E+04 -9.797238E+03  4.006221E+04
       322   7  1.827011E+05  4.428629E+05  2.261776E+05  1.084851E+04 -1.026591E+03  1.555337E+05
       322   8  1.142403E+04  5.278575E+05  1.290567E+05 -1.194180E+04 -4.599152E+03  1.000125E+05
       322   9  4.313781E+04  6.706016E+05  1.187767E+05 -9.414794E+04 -9.806728E+03  4.447797E+04
       322  10  1.909074E+05  4.723441E+05  2.343499E+05 -1.427742E+05 -7.768481E-11 -1.388538E-09
       322  11 -3.710501E+04  3.294634E+05  8.365964E+04 -6.091226E+04 -9.084492E-10 -1.824511E-09
       322  12 -6.169532E+04  2.447190E+05  2.143394E+04 -3.847208E+04  4.047831E-10  1.035654E-09
       322  13  1.867900E+05  4.575841E+05  2.302395E+05 -6.596186E+04  7.769793E-10  6.105050E-11
       322  14 -1.284263E+04  4.286499E+05  1.063489E+05 -3.642882E+04 -6.671820E-10 -1.771614E-09
       322  15 -9.278936E+03  4.576374E+05  7.010463E+04 -6.630503E+04  7.625990E-10 -1.768958E-09
       322  16  1.826946E+05  4.428369E+05  2.261322E+05  1.084864E+04 -1.614674E-10  4.334645E-10
       322  17  1.142133E+04  5.278467E+05  1.290379E+05 -1.194143E+04  5.747878E-10  2.576873E-12
       322  18  4.313718E+04  6.705994E+05  1.187728E+05 -9.414759E+04 -2.189103E-11 -1.737279E-09
       322  19  1.909136E+05  4.723687E+05  2.343930E+05 -1.427743E+05  1.056993E+03 -1.514334E+05
       322  20 -3.710265E+04  3.294728E+05  8.367611E+04 -6.091261E+04  4.595442E+03 -9.353734E+04
       322  21 -6.169487E+04  2.447204E+05  2.143651E+04 -3.847236E+04  9.788142E+03 -3.564794E+04
       322  22  1.867963E+05  4.576094E+05  2.302837E+05 -6.596198E+04  1.042046E+03 -1.534836E+05
       322  23 -1.284010E+04  4.286599E+05  1.063665E+05 -3.642917E+04  4.597425E+03 -9.677466E+04
       322  24 -9.278403E+03  4.576391E+05  7.010783E+04 -6.630535E+04  9.797238E+03 -4.006221E+04
       322  25  1.827011E+05  4.428629E+05  2.261776E+05  1.084851E+04  1.026591E+03 -1.555337E+05
       322  26  1.142403E+04  5.278575E+05  1.290567E+05 -1.194180E+04  4.599152E+03 -1.000125E+05
       322  27  4.313781E+04  6.706016E+05  1.187767E+05 -9.414794E+04  9.806728E+03 -4.447797E+04
       323   1 -6.571153E+04  1.246130E+05 -1.347521E+04 -7.243194E+04 -1.337682E+04  2.497506E+04
       323   2 -1.093098E+05  5.529674E+03 -5.463820E+04 -3.619456E+04 -1.870248E+04  2.593161E+03
       323   3 -1.256014E+05 -1.039026E+05 -7.442958E+04 -5.976839E+04 -2.299374E+04 -1.977967E+04
       323   4  1.356208E+04  4.469134E+05  6.081811E+04 -6.628858E+04 -1.338325E+04  2.922157E+04
       323   5 -1.965696E+03  4.420184E+05  4.569165E+04 -3.638826E+04 -1.870673E+04  6.082305E+03
       323   6  9.935210E+03  4.468882E+05  5.245522E+04 -6.629540E+04 -2.299574E+04 -1.705190E+04
       323   7  9.282858E+04  7.693099E+05  1.351046E+05 -6.014195E+04 -1.338960E+04  3.347025E+04
       323   8  1.053651E+05  8.786835E+05  1.460090E+05 -3.658203E+04 -1.871099E+04  9.573882E+03
       323   9  1.454507E+05  9.979595E+05  1.793199E+05 -7.282815E+04 -2.299780E+04 -1.432172E+04
       323  10 -6.571189E+04  1.246123E+05 -1.347672E+04 -7.243167E+04  1.300792E-10 -8.385882E-10
       323  11 -1.093102E+05  5.529573E+03 -5.463887E+04 -3.619452E+04  1.038009E-10 -1.953820E-09
       323  12 -1.256021E+05 -1.039031E+05 -7.443131E+04 -5.976875E+04 -5.872243E-10  3.372239E-10
       323  13  1.356166E+04  4.469124E+05  6.081617E+04 -6.628826E+04  3.068271E-10  7.410852E-11
       323  14 -1.966082E+03  4.420183E+05  4.569092E+04 -3.638817E+04  8.095170E-10 -1.574219E-09
       323  15  9.934564E+03  4.468877E+05  5.245368E+04 -6.629572E+04  6.879852E-10 -1.482307E-09
       323  16  9.282809E+04  7.693087E+05  1.351022E+05 -6.014159E+04  3.076293E-10  1.232229E-10
       323  17  1.053647E+05  8.786833E+05  1.460081E+05 -3.658189E+04 -1.197186E-09  6.467513E-10
       323  18  1.454501E+05  9.979592E+05  1.793186E+05 -7.282841E+04 -2.071334E-10 -8.427214E-10
       323  19 -6.571153E+04  1.246130E+05 -1.347521E+04 -7.243194E+04  1.337682E+04 -2.497506E+04
       323  20 -1.093098E+05  5.529674E+03 -5.463820E+04 -3.619456E+04  1.870248E+04 -2.593161E+03
       323  21 -1.256014E+05 -1.039026E+05 -7.442958E+04 -5.976839E+04  2.299374E+04  1.977967E+04
       323  22  1.356208E+04  4.469134E+05  6.081811E+04 -6.628858E+04  1.338325E+04 -2.922157E+04
       323  23 -1.965696E+03  4.420184E+05  4.569165E+04 -3.638826E+04  1.870673E+04 -6.082305E+03
       323  24  9.935210E+03  4.468882E+05  5.245522E+04 -6.629540E+04  2.299574E+04  1.705190E+04
       323  25  9.282858E+04  7.693099E+05  1.351046E+05 -6.014195E+04  1.338960E+04 -3.347025E+04
       323  26  1.053651E+05  8.786835E+05  1.460090E+05 -3.658203E+04  1.871099E+04 -9.573882E+03
       323  27  1.454507E+05  9.979595E+05  1.793199E+05 -7.282815E+04  2.299780E+04  1.432172E+04
       324   1 -1.691241E+05 -2.061703E+05 -9.359345E+04 -8.665881E+04 -2.895937E+04 -3.601881E+04
       324   2 -2.007210E+05 -3.422258E+05 -9.597280E+04 -1.725146E+04 -3.108063E+04 -6.370087E+04
       324   3 -7.976025E+04 -4.362730E+05 -4.212423E+04 -7.183289E+03 -1.031286E+04 -9.136307E+04
       324   4 -6.716449E+03  4.546474E+05  5.798138E+04 -6.622359E+04 -2.896989E+04 -2.625497E+04
       324   5 -9.994529E+03  4.322098E+05  8.304175E+04 -3.650886E+04 -3.107046E+04 -7.045809E+04
       324   6  1.420435E+05  4.545723E+05  1.757465E+05 -6.612310E+04 -1.029116E+04 -1.146474E+05
       324   7  1.556624E+05  1.115870E+06  2.095281E+05 -4.576630E+04 -2.897976E+04 -1.648080E+04
       324   8  1.806913E+05  1.207201E+06  2.620166E+05 -5.579033E+04 -3.105988E+04 -7.722364E+04
       324   9  3.638019E+05  1.346150E+06  3.935631E+05 -1.251476E+05 -1.026506E+04 -1.379651E+05
       324  10 -1.691253E+05 -2.061719E+05 -9.359747E+04 -8.665965E+04 -2.343660E-10 -3.594497E-10
       324  11 -2.007231E+05 -3.422304E+05 -9.598225E+04 -1.725306E+04 -1.226648E-10 -9.409861E-10
       324  12 -7.976261E+04 -4.362820E+05 -4.214013E+04 -7.184048E+03 -1.669176E-10  7.579933E-11
       324  13 -6.717536E+03  4.546464E+05  5.797851E+04 -6.622421E+04 -4.894377E-10  1.424438E-10
       324  14 -9.996898E+03  4.322042E+05  8.303061E+04 -3.651062E+04  1.536063E-10 -8.584906E-10
       324  15  1.420399E+05  4.545582E+05  1.757216E+05 -6.612405E+04 -3.623751E-10 -4.614542E-10
       324  16  1.556615E+05  1.115870E+06  2.095260E+05 -4.576669E+04  5.604319E-10 -2.308084E-10
       324  17  1.806886E+05  1.207194E+06  2.620036E+05 -5.579227E+04 -6.845906E-10  3.933309E-11
       324  18  3.637967E+05  1.346129E+06  3.935273E+05 -1.251487E+05 -5.102387E-10 -1.698362E-10
       324  19 -1.691241E+05 -2.061703E+05 -9.359345E+04 -8.665881E+04  2.895937E+04  3.601881E+04
       324  20 -2.007210E+05 -3.422258E+05 -9.597280E+04 -1.725146E+04  3.108063E+04  6.370087E+04
       324  21 -7.976025E+04 -4.362730E+05 -4.212423E+04 -7.183289E+03  1.031286E+04  9.136307E+04
       324  22 -6.716449E+03  4.546474E+05  5.798138E+04 -6.622359E+04  2.896989E+04  2.625497E+04
       324  23 -9.994529E+03  4.322098E+05  8.304175E+04 -3.650886E+04  3.107046E+04  7.045809E+04
       324  24  1.420435E+05  4.545723E+05  1.757465E+05 -6.612310E+04  1.029116E+04  1.146474E+05
       324  25  1.556624E+05  1.115870E+06  2.095281E+05 -4.576630E+04  2.897976E+04  1.648080E+04
       324  26  1.806913E+05  1.207201E+06  2.620166E+05 -5.579033E+04  3.105988E+04  7.722364E+04
       324  27  3.638019E+05  1.346150E+06  3.935631E+05 -1.251476E+05  1.026506E+04  1.379651E+05
       325   1 -2.739380E+06 -1.045502E+06 -5.685054E+05 -1.060479E+06 -2.722164E+05 -8.306583E+04
       325   2 -2.668069E+06 -7.603517E+05 -3.477112E+05 -1.027141E+06 -1.733593E+05 -8.111452E+02
       325   3 -2.656281E+06 -6.427871E+05 -2.536981E+05 -9.725238E+05 -6.336605E+04  5.198752E+04
       325   4 -1.726248E+06 -5.256140E+05 -2.802719E+05 -6.406209E+05 -1.874732E+05 -5.121717E+04
       325   5 -1.685592E+06 -3.377823E+05 -1.293559E+05 -6.920998E+05 -1.347176E+05  1.370840E+04
       325   6 -1.695194E+06 -3.082474E+05 -6.847057E+04 -7.223347E+05 -7.084787E+04  4.916256E+04
       325   7 -7.120628E+05 -5.370363E+03  7.893351E+03 -2.200559E+05 -1.025806E+05 -1.926426E+04
       325   8 -7.021121E+05  8.497175E+04  8.894663E+04 -3.565327E+05 -9.601005E+04  2.826239E+04
       325   9 -7.331337E+05  2.635794E+04  1.167205E+05 -4.717908E+05 -7.834222E+04  4.633341E+04
       325  10 -2.739462E+06 -1.045529E+06 -5.686584E+05 -1.060497E+06  8.529934E-10  4.386687E-10
       325  11 -2.668102E+06 -7.603598E+05 -3.477679E+05 -1.027141E+06 -2.961017E-09  2.545733E-10
       325  12 -2.656286E+06 -6.427911E+05 -2.537108E+05 -9.725211E+05  3.893889E-09  1.184754E-09
       325  13 -1.726286E+06 -5.256263E+05 -2.803431E+05 -6.406286E+05 -6.918751E-10  2.426097E-10
       325  14 -1.685612E+06 -3.377874E+05 -1.293905E+05 -6.920983E+05 -7.275385E-10 -1.375361E-10
       325  15 -1.695200E+06 -3.082514E+05 -6.848455E+04 -7.223319E+05  1.026788E-08  2.889119E-09
       325  16 -7.120742E+05 -5.373592E+03  7.872854E+03 -2.200575E+05 -3.226419E-09 -1.367741E-09
       325  17 -7.021222E+05  8.496841E+04  8.892779E+04 -3.565305E+05  2.420454E-09  1.140258E-10
       325  18 -7.331409E+05  2.635399E+04  1.167049E+05 -4.717878E+05  1.577510E-08  6.075450E-09
       325  19 -2.739380E+06 -1.045502E+06 -5.685054E+05 -1.060479E+06  2.722164E+05  8.306583E+04
       325  20 -2.668069E+06 -7.603517E+05 -3.477112E+05 -1.027141E+06  1.733593E+05  8.111452E+02
       325  21 -2.656281E+06 -6.427871E+05 -2.536981E+05 -9.725238E+05  6.336605E+04 -5.198752E+04
       325  22 -1.726248E+06 -5.256140E+05 -2.802719E+05 -6.406209E+05  1.874732E+05  5.121717E+04
       325  23 -1.685592E+06 -3.377823E+05 -1.293559E+05 -6.920998E+05  1.347176E+05 -1.370840E+04
       325  24 -1.695194E+06 -3.082474E+05 -6.847057E+04 -7.223347E+05  7.084787E+04 -4.916256E+04
       325  25 -7.120628E+05 -5.370363E+03  7.893351E+03 -2.200559E+05  1.025806E+05  1.926426E+04
       325  26 -7.021121E+05  8.497175E+04  8.894663E+04 -3.565327E+05  9.601005E+04 -2.826239E+04
       325  27 -7.331337E+05  2.635794E+04  1.167205E+05 -4.717908E+05  7.834222E+04 -4.633341E+04
       326   1 -2.577442E+06 -6.416246E+05 -2.252473E+05 -9.687363E+05 -5.907966E+04  5.012000E+04
       326   2 -2.500977E+06 -5.933161E+05 -1.812411E+05 -9.377822E+05 -4.059305E+04  5.371205E+04
       326   3 -2.414995E+06 -5.673724E+05 -1.522340E+05 -9.221890E+05 -2.123670E+04  5.498898E+04
       326   4 -1.686722E+06 -3.129584E+05 -5.189046E+04 -7.172565E+05 -6.191680E+04  4.904244E+04
       326   5 -1.691139E+06 -2.974264E+05 -2.737569E+04 -7.113316E+05 -4.703859E+04  5.128010E+04
       326   6 -1.685322E+06 -3.035329E+05 -1.497703E+04 -7.207684E+05 -3.129380E+04  5.120320E+04
       326   7 -7.951733E+05  1.578396E+04  1.214312E+05 -4.654388E+05 -6.475830E+04  4.796322E+04
       326   8 -8.806185E+05 -1.476836E+03  1.264617E+05 -4.846059E+05 -5.349313E+04  4.884475E+04
       326   9 -9.550977E+05 -3.964861E+04  1.222572E+05 -5.191293E+05 -4.136349E+04  4.741277E+04
       326  10 -2.577447E+06 -6.416282E+05 -2.252586E+05 -9.687339E+05  1.843570E-08  5.483977E-09
       326  11 -2.500980E+06 -5.933197E+05 -1.812496E+05 -9.377805E+05  3.070655E-09 -7.953349E-10
       326  12 -2.414996E+06 -5.673758E+05 -1.522406E+05 -9.221881E+05 -2.463151E-09 -1.891901E-09
       326  13 -1.686726E+06 -3.129620E+05 -5.190218E+04 -7.172541E+05  9.692545E-09  3.402015E-09
       326  14 -1.691143E+06 -2.974298E+05 -2.738479E+04 -7.113296E+05 -1.528177E-09 -9.013536E-10
       326  15 -1.685324E+06 -3.035360E+05 -1.498379E+04 -7.207671E+05 -8.549059E-10 -9.427033E-10
       326  16 -7.951785E+05  1.578037E+04  1.214190E+05 -4.654363E+05  2.050490E-09  1.252072E-09
       326  17 -8.806222E+05 -1.480162E+03  1.264519E+05 -4.846038E+05 -4.321399E-09  2.065712E-10
       326  18 -9.551001E+05 -3.965148E+04  1.222497E+05 -5.191277E+05 -2.810796E-10  7.142429E-10
       326  19 -2.577442E+06 -6.416246E+05 -2.252473E+05 -9.687363E+05  5.907966E+04 -5.012000E+04
       326  20 -2.500977E+06 -5.933161E+05 -1.812411E+05 -9.377822E+05  4.059305E+04 -5.371205E+04
       326  21 -2.414995E+06 -5.673724E+05 -1.522340E+05 -9.221890E+05  2.123670E+04 -5.498898E+04
       326  22 -1.686722E+06 -3.129584E+05 -5.189046E+04 -7.172565E+05  6.191680E+04 -4.904244E+04
       326  23 -1.691139E+06 -2.974264E+05 -2.737569E+04 -7.113316E+05  4.703859E+04 -5.128010E+04
       326  24 -1.685322E+06 -3.035329E+05 -1.497703E+04 -7.207684E+05  3.129380E+04 -5.120320E+04
       326  25 -7.951733E+05  1.578396E+04  1.214312E+05 -4.654388E+05  6.475830E+04 -4.796322E+04
       326  26 -8.806185E+05 -1.476836E+03  1.264617E+05 -4.846059E+05  5.349313E+04 -4.884475E+04
       326  27 -9.550977E+05 -3.964861E+04  1.222572E+05 -5.191293E+05  4.136349E+04 -4.741277E+04
       327   1 -2.358536E+06 -5.483034E+05 -1.376719E+05 -9.074929E+05 -1.807215E+04  5.188829E+04
       327   2 -2.282346E+06 -5.103743E+05 -1.168981E+05 -8.759780E+05 -1.231492E+04  4.686599E+04
       327   3 -2.191905E+06 -4.876368E+05 -9.873600E+04 -8.613982E+05 -6.486810E+03  4.164670E+04
       327   4 -1.684648E+06 -3.037952E+05 -1.126153E+04 -7.204708E+05 -2.779414E+04  4.823040E+04
       327   5 -1.691759E+06 -2.960903E+05 -6.189568E+03 -7.120458E+05 -2.234246E+04  4.309617E+04
       327   6 -1.684569E+06 -3.035162E+05 -3.485672E+03 -7.205580E+05 -1.682045E+04  3.776487E+04
       327   7 -1.010276E+06 -5.924305E+04  1.151330E+05 -5.332575E+05 -3.752754E+04  4.456826E+04
       327   8 -1.100803E+06 -8.177327E+04  1.045064E+05 -5.479674E+05 -3.238029E+04  3.932250E+04
       327   9 -1.176962E+06 -1.193720E+05  9.175493E+04 -5.796104E+05 -2.716316E+04  3.387964E+04
       327  10 -2.358537E+06 -5.483064E+05 -1.376776E+05 -9.074922E+05 -9.925422E-10  5.211924E-11
       327  11 -2.282347E+06 -5.103767E+05 -1.169025E+05 -8.759775E+05 -3.272982E-10  7.141354E-12
       327  12 -2.191906E+06 -4.876387E+05 -9.873934E+04 -8.613980E+05 -1.192295E-09  2.396681E-10
       327  13 -1.684649E+06 -3.037979E+05 -1.126735E+04 -7.204697E+05 -5.881823E-10  1.593105E-11
       327  14 -1.691760E+06 -2.960924E+05 -6.193992E+03 -7.120450E+05  1.566322E-11 -1.939627E-10
       327  15 -1.684570E+06 -3.035178E+05 -3.488881E+03 -7.205575E+05  1.149028E-10  4.168662E-10
       327  16 -1.010278E+06 -5.924556E+04  1.151266E+05 -5.332562E+05  4.368997E-10 -5.890995E-11
       327  17 -1.100804E+06 -8.177521E+04  1.045015E+05 -5.479664E+05  2.750869E-10  3.014925E-10
       327  18 -1.176963E+06 -1.193734E+05  9.175139E+04 -5.796097E+05  1.010207E-09  5.707590E-10
       327  19 -2.358536E+06 -5.483034E+05 -1.376719E+05 -9.074929E+05  1.807215E+04 -5.188829E+04
       327  20 -2.282346E+06 -5.103743E+05 -1.168981E+05 -8.759780E+05  1.231492E+04 -4.686599E+04
       327  21 -2.191905E+06 -4.876368E+05 -9.873600E+04 -8.613982E+05  6.486810E+03 -4.164670E+04
       327  22 -1.684648E+06 -3.037952E+05 -1.126153E+04 -7.204708E+05  2.779414E+04 -4.823040E+04
       327  23 -1.691759E+06 -2.960903E+05 -6.189568E+03 -7.120458E+05  2.234246E+04 -4.309617E+04
       327  24 -1.684569E+06 -3.035162E+05 -3.485672E+03 -7.205580E+05  1.682045E+04 -3.776487E+04
       327  25 -1.010276E+06 -5.924305E+04  1.151330E+05 -5.332575E+05  3.752754E+04 -4.456826E+04
       327  26 -1.100803E+06 -8.177327E+04  1.045064E+05 -5.479674E+05  3.238029E+04 -3.932250E+04
       327  27 -1.176962E+06 -1.193720E+05  9.175493E+04 -5.796104E+05  2.716316E+04 -3.387964E+04
       328   1 -2.136396E+06 -4.675127E+05 -8.709347E+04 -8.460797E+05 -4.541477E+03  3.799477E+04
       328   2 -2.059942E+06 -4.296959E+05 -7.059258E+04 -8.142922E+05 -1.192781E+03  3.172571E+04
       328   3 -1.968715E+06 -4.067712E+05 -5.473918E+04 -7.995458E+05  2.163106E+03  2.543127E+04
       328   4 -1.684463E+06 -3.035385E+05 -2.681614E+03 -7.205475E+05 -1.486758E+04  3.411721E+04
       328   5 -1.691838E+06 -2.960858E+05 -1.674380E+03 -7.120252E+05 -1.155825E+04  2.783522E+04
       328   6 -1.684439E+06 -3.035179E+05 -1.283649E+03 -7.205464E+05 -8.241850E+03  2.152781E+04
       328   7 -1.232319E+06 -1.395470E+05  8.172158E+04 -5.949311E+05 -2.520165E+04  3.023666E+04
       328   8 -1.323591E+06 -1.624632E+05  6.723894E+04 -6.097015E+05 -2.193032E+04  2.394227E+04
       328   9 -1.400077E+06 -2.002560E+05  5.216983E+04 -6.415124E+05 -1.865201E+04  1.762239E+04
       328  10 -2.136396E+06 -4.675143E+05 -8.709622E+04 -8.460796E+05 -1.429376E-09  3.295335E-10
       328  11 -2.059942E+06 -4.296970E+05 -7.059447E+04 -8.142922E+05 -8.573722E-10 -7.136764E-11
       328  12 -1.968715E+06 -4.067719E+05 -5.474040E+04 -7.995458E+05 -1.002509E-09 -2.241511E-09
       328  13 -1.684463E+06 -3.035398E+05 -2.684214E+03 -7.205471E+05 -5.944450E-10  5.948081E-10
       328  14 -1.691838E+06 -2.960867E+05 -1.676085E+03 -7.120249E+05 -2.407201E-10  4.909148E-10
       328  15 -1.684440E+06 -3.035184E+05 -1.284646E+03 -7.205462E+05  4.081318E-10  1.855228E-11
       328  16 -1.232320E+06 -1.395482E+05  8.171867E+04 -5.949305E+05  9.590221E-10  8.507548E-10
       328  17 -1.323592E+06 -1.624640E+05  6.723697E+04 -6.097010E+05  1.136938E-09  1.320598E-09
       328  18 -1.400077E+06 -2.002564E+05  5.216860E+04 -6.415122E+05  1.561635E-09  2.158466E-09
       328  19 -2.136396E+06 -4.675127E+05 -8.709347E+04 -8.460797E+05  4.541477E+03 -3.799477E+04
       328  20 -2.059942E+06 -4.296959E+05 -7.059258E+04 -8.142922E+05  1.192781E+03 -3.172571E+04
       328  21 -1.968715E+06 -4.067712E+05 -5.473918E+04 -7.995458E+05 -2.163106E+03 -2.543127E+04
       328  22 -1.684463E+06 -3.035385E+05 -2.681614E+03 -7.205475E+05  1.486758E+04 -3.411721E+04
       328  23 -1.691838E+06 -2.960858E+05 -1.674380E+03 -7.120252E+05  1.155825E+04 -2.783522E+04
       328  24 -1.684439E+06 -3.035179E+05 -1.283649E+03 -7.205464E+05  8.241850E+03 -2.152781E+04
       328  25 -1.232319E+06 -1.395470E+05  8.172158E+04 -5.949311E+05  2.520165E+04 -3.023666E+04
       328  26 -1.323591E+06 -1.624632E+05  6.723894E+04 -6.097015E+05  2.193032E+04 -2.394227E+04
       328  27 -1.400077E+06 -2.002560E+05  5.216983E+04 -6.415124E+05  1.865201E+04 -1.762239E+04
       329   1 -1.913046E+06 -3.865025E+05 -4.383825E+04 -7.841401E+05  3.835246E+03  2.165145E+04
       329   2 -1.836298E+06 -3.485648E+05 -2.862705E+04 -7.522629E+05  7.107597E+03  1.530698E+04
       329   3 -1.744734E+06 -3.255591E+05 -1.399945E+04 -7.374912E+05  1.037838E+04  8.964137E+03
       329   4 -1.684424E+06 -3.035213E+05 -1.267646E+03 -7.205604E+05 -6.579938E+03  1.774491E+04
       329   5 -1.691820E+06 -2.960284E+05 -1.577505E+03 -7.120147E+05 -3.305269E+03  1.140203E+04
       329   6 -1.684409E+06 -3.034684E+05 -2.473174E+03 -7.205769E+05 -3.228554E+01  5.060775E+03
       329   7 -1.455747E+06 -2.205351E+05  4.130138E+04 -6.569589E+05 -1.699923E+04  1.383682E+04
       329   8 -1.547321E+06 -2.434902E+05  2.547148E+04 -6.717578E+05 -1.372068E+04  7.496129E+03
       329   9 -1.624080E+06 -2.813775E+05  9.053259E+03 -7.036610E+05 -1.044394E+04  1.157036E+03
       329  10 -1.913046E+06 -3.865030E+05 -4.383916E+04 -7.841401E+05 -4.836169E-08 -2.126372E-08
       329  11 -1.836298E+06 -3.485650E+05 -2.862758E+04 -7.522630E+05 -9.360087E-09 -6.359094E-09
       329  12 -1.744734E+06 -3.255593E+05 -1.399981E+04 -7.374913E+05  4.243077E-08  1.526467E-08
       329  13 -1.684424E+06 -3.035216E+05 -1.268318E+03 -7.205603E+05 -3.813048E-09 -2.762895E-09
       329  14 -1.691820E+06 -2.960285E+05 -1.577769E+03 -7.120147E+05 -1.012680E-08 -6.524298E-09
       329  15 -1.684409E+06 -3.034685E+05 -2.473222E+03 -7.205769E+05 -3.827126E-09 -3.566318E-09
       329  16 -1.455747E+06 -2.205354E+05  4.130048E+04 -6.569587E+05  4.124864E-08  1.584454E-08
       329  17 -1.547321E+06 -2.434903E+05  2.547103E+04 -6.717577E+05 -9.896308E-09 -6.598594E-09
       329  18 -1.624080E+06 -2.813775E+05  9.053052E+03 -7.036610E+05 -5.001593E-08 -2.242218E-08
       329  19 -1.913046E+06 -3.865025E+05 -4.383825E+04 -7.841401E+05 -3.835246E+03 -2.165145E+04
       329  20 -1.836298E+06 -3.485648E+05 -2.862705E+04 -7.522629E+05 -7.107597E+03 -1.530698E+04
       329  21 -1.744734E+06 -3.255591E+05 -1.399945E+04 -7.374912E+05 -1.037838E+04 -8.964137E+03
       329  22 -1.684424E+06 -3.035213E+05 -1.267646E+03 -7.205604E+05  6.579938E+03 -1.774491E+04
       329  23 -1.691820E+06 -2.960284E+05 -1.577505E+03 -7.120147E+05  3.305269E+03 -1.140203E+04
       329  24 -1.684409E+06 -3.034684E+05 -2.473174E+03 -7.205769E+05  3.228554E+01 -5.060775E+03
       329  25 -1.455747E+06 -2.205351E+05  4.130138E+04 -6.569589E+05  1.699923E+04 -1.383682E+04
       329  26 -1.547321E+06 -2.434902E+05  2.547148E+04 -6.717578E+05  1.372068E+04 -7.496129E+03
       329  27 -1.624080E+06 -2.813775E+05  9.053259E+03 -7.036610E+05  1.044394E+04 -1.157036E+03
       330   1 -1.688970E+06 -3.052749E+05 -3.816050E+03 -7.221243E+05  1.231657E+04  5.278289E+03
       330   2 -1.611976E+06 -2.673165E+05  9.311336E+03 -6.902271E+05  1.744779E+04 -3.188588E+02
       330   3 -1.520507E+06 -2.445780E+05  2.038903E+04 -6.754614E+05  2.254169E+04 -5.814071E+03
       330   4 -1.684479E+06 -3.034552E+05 -3.201277E+03 -7.206144E+05  1.888459E+03  1.368487E+03
       330   5 -1.691713E+06 -2.959210E+05 -5.650837E+03 -7.120139E+05  7.178107E+03 -4.169679E+03
       330   6 -1.684513E+06 -3.036401E+05 -1.027723E+04 -7.205485E+05  1.243004E+04 -9.606023E+03
       330   7 -1.679989E+06 -3.016354E+05 -2.586023E+03 -7.191044E+05 -8.539829E+03 -2.541392E+03
       330   8 -1.771444E+06 -3.245250E+05 -2.061292E+04 -7.337980E+05 -3.090209E+03 -8.020003E+03
       330   9 -1.848490E+06 -3.626998E+05 -4.094413E+04 -7.656246E+05  2.321252E+03 -1.339692E+04
       330  10 -1.688970E+06 -3.052749E+05 -3.816388E+03 -7.221243E+05  4.673921E-10  8.535312E-10
       330  11 -1.611976E+06 -2.673166E+05  9.310762E+03 -6.902271E+05 -3.810523E-10  1.163514E-09
       330  12 -1.520508E+06 -2.445782E+05  2.038801E+04 -6.754613E+05  9.869449E-10  1.594844E-09
       330  13 -1.684479E+06 -3.034552E+05 -3.201287E+03 -7.206144E+05 -2.521404E-11 -6.972467E-10
       330  14 -1.691713E+06 -2.959211E+05 -5.650966E+03 -7.120138E+05  6.225749E-10  1.239649E-09
       330  15 -1.684513E+06 -3.036402E+05 -1.027770E+04 -7.205485E+05  7.195325E-11  1.299869E-09
       330  16 -1.679989E+06 -3.016354E+05 -2.586173E+03 -7.191044E+05  4.004408E-10 -2.183209E-09
       330  17 -1.771444E+06 -3.245251E+05 -2.061306E+04 -7.337981E+05 -1.666912E-09  8.869948E-11
       330  18 -1.848490E+06 -3.627000E+05 -4.094448E+04 -7.656246E+05 -2.240320E-09  5.190038E-10
       330  19 -1.688970E+06 -3.052749E+05 -3.816050E+03 -7.221243E+05 -1.231657E+04 -5.278289E+03
       330  20 -1.611976E+06 -2.673165E+05  9.311336E+03 -6.902271E+05 -1.744779E+04  3.188588E+02
       330  21 -1.520507E+06 -2.445780E+05  2.038903E+04 -6.754614E+05 -2.254169E+04  5.814071E+03
       330  22 -1.684479E+06 -3.034552E+05 -3.201277E+03 -7.206144E+05 -1.888459E+03 -1.368487E+03
       330  23 -1.691713E+06 -2.959210E+05 -5.650837E+03 -7.120139E+05 -7.178107E+03  4.169679E+03
       330  24 -1.684513E+06 -3.036401E+05 -1.027723E+04 -7.205485E+05 -1.243004E+04  9.606023E+03
       330  25 -1.679989E+06 -3.016354E+05 -2.586023E+03 -7.191044E+05  8.539829E+03  2.541392E+03
       330  26 -1.771444E+06 -3.245250E+05 -2.061292E+04 -7.337980E+05  3.090209E+03  8.020003E+03
       330  27 -1.848490E+06 -3.626998E+05 -4.094413E+04 -7.656246E+05 -2.321252E+03  1.339692E+04
       331   1 -1.464587E+06 -2.247494E+05  2.794440E+04 -6.611342E+05  2.608113E+04 -8.861105E+03
       331   2 -1.388539E+06 -1.861049E+05  3.290698E+04 -6.263628E+05  3.884414E+04 -1.082704E+04
       331   3 -1.301267E+06 -1.683898E+05  2.839823E+04 -6.074534E+05  5.112593E+04 -1.150267E+04
       331   4 -1.685101E+06 -3.034175E+05 -1.366878E+04 -7.208591E+05  1.577277E+04 -1.272733E+04
       331   5 -1.691126E+06 -2.970226E+05 -2.496645E+04 -7.113318E+05  3.055347E+04 -1.393802E+04
       331   6 -1.686338E+06 -3.119614E+05 -4.734193E+04 -7.176702E+05  4.485144E+04 -1.385869E+04
       331   7 -1.905562E+06 -3.820807E+05 -5.528292E+04 -7.805640E+05  5.468421E+03 -1.659211E+04
       331   8 -1.993618E+06 -4.079315E+05 -8.284343E+04 -7.962621E+05  2.226713E+04 -1.704735E+04
       331   9 -2.071259E+06 -4.555194E+05 -1.230897E+05 -8.278238E+05  3.858107E+04 -1.621308E+04
       331  10 -1.464588E+06 -2.247497E+05  2.794298E+04 -6.611340E+05 -2.737225E-11  1.176759E-09
       331  11 -1.388541E+06 -1.861055E+05  3.290392E+04 -6.263624E+05  1.409730E-10  1.016894E-09
       331  12 -1.301270E+06 -1.683906E+05  2.839307E+04 -6.074529E+05  1.368083E-09  5.526369E-10
       331  13 -1.685101E+06 -3.034177E+05 -1.366955E+04 -7.208590E+05 -2.602565E-10  1.003949E-09
       331  14 -1.691128E+06 -2.970230E+05 -2.496857E+04 -7.113315E+05 -8.162725E-10  4.891219E-10
       331  15 -1.686341E+06 -3.119622E+05 -4.734608E+04 -7.176697E+05 -1.909245E-11 -2.477948E-10
       331  16 -1.905562E+06 -3.820810E+05 -5.528350E+04 -7.805639E+05 -7.327015E-10  9.066338E-10
       331  17 -1.993619E+06 -4.079319E+05 -8.284491E+04 -7.962618E+05 -3.533470E-10  4.529455E-10
       331  18 -2.071261E+06 -4.555201E+05 -1.230930E+05 -8.278233E+05 -1.034555E-09 -9.024865E-10
       331  19 -1.464587E+06 -2.247494E+05  2.794440E+04 -6.611342E+05 -2.608113E+04  8.861105E+03
       331  20 -1.388539E+06 -1.861049E+05  3.290698E+04 -6.263628E+05 -3.884414E+04  1.082704E+04
       331  21 -1.301267E+06 -1.683898E+05  2.839823E+04 -6.074534E+05 -5.112593E+04  1.150267E+04
       331  22 -1.685101E+06 -3.034175E+05 -1.366878E+04 -7.208591E+05 -1.577277E+04  1.272733E+04
       331  23 -1.691126E+06 -2.970226E+05 -2.496645E+04 -7.113318E+05 -3.055347E+04  1.393802E+04
       331  24 -1.686338E+06 -3.119614E+05 -4.734193E+04 -7.176702E+05 -4.485144E+04  1.385869E+04
       331  25 -1.905562E+06 -3.820807E+05 -5.528292E+04 -7.805640E+05 -5.468421E+03  1.659211E+04
       331  26 -1.993618E+06 -4.079315E+05 -8.284343E+04 -7.962621E+05 -2.226713E+04  1.704735E+04
       331  27 -2.071259E+06 -4.555194E+05 -1.230897E+05 -8.278238E+05 -3.858107E+04  1.621308E+04
       332   1 -1.239152E+06 -1.569811E+05  2.481295E+04 -6.119767E+05  6.213298E+04 -1.130576E+04
       332   2 -1.201261E+06 -1.000304E+05 -5.195299E+03 -5.022843E+05  9.699095E+04  4.763328E+03
       332   3 -1.201964E+06 -1.845809E+05 -9.680967E+04 -3.757838E+05  1.256573E+05  3.734024E+04
       332   4 -1.693946E+06 -3.077663E+05 -6.247060E+04 -7.224421E+05  5.324912E+04 -1.463993E+04
       332   5 -1.686145E+06 -3.336599E+05 -1.180057E+05 -6.936409E+05  1.139761E+05  1.112644E+04
       332   6 -1.722140E+06 -5.062855E+05 -2.557216E+05 -6.480300E+05  1.685027E+05  5.339477E+04
       332   7 -2.148527E+06 -4.585429E+05 -1.497634E+05 -8.328369E+05  4.437220E+04 -1.797205E+04
       332   8 -2.170770E+06 -5.672111E+05 -2.308264E+05 -8.848390E+05  1.309466E+05  1.748024E+04
       332   9 -2.241984E+06 -8.277834E+05 -4.146404E+05 -9.200116E+05  2.113074E+05  6.941194E+04
       332  10 -1.239156E+06 -1.569823E+05  2.480544E+04 -6.119761E+05 -7.079072E-10 -2.700713E-10
       332  11 -1.201271E+06 -1.000329E+05 -5.213055E+03 -5.022847E+05  3.513821E-11  2.933595E-10
       332  12 -1.201982E+06 -1.845866E+05 -9.684203E+04 -3.757876E+05  4.689092E-10  2.965202E-10
       332  13 -1.693949E+06 -3.077673E+05 -6.247634E+04 -7.224415E+05  4.464862E-10 -2.991216E-10
       332  14 -1.686159E+06 -3.336635E+05 -1.180304E+05 -6.936419E+05  1.784376E-10  1.906187E-11
       332  15 -1.722172E+06 -5.062962E+05 -2.557805E+05 -6.480373E+05 -3.932112E-10  2.680369E-10
       332  16 -2.148530E+06 -4.585438E+05 -1.497677E+05 -8.328362E+05  4.573169E-10 -3.639638E-10
       332  17 -2.170788E+06 -5.672161E+05 -2.308594E+05 -8.848409E+05  7.519672E-10  1.485706E-11
       332  18 -2.242033E+06 -8.278007E+05 -4.147338E+05 -9.200235E+05 -9.233711E-10 -1.018112E-10
       332  19 -1.239152E+06 -1.569811E+05  2.481295E+04 -6.119767E+05 -6.213298E+04  1.130576E+04
       332  20 -1.201261E+06 -1.000304E+05 -5.195299E+03 -5.022843E+05 -9.699095E+04 -4.763328E+03
       332  21 -1.201964E+06 -1.845809E+05 -9.680967E+04 -3.757838E+05 -1.256573E+05 -3.734024E+04
       332  22 -1.693946E+06 -3.077663E+05 -6.247060E+04 -7.224421E+05 -5.324912E+04  1.463993E+04
       332  23 -1.686145E+06 -3.336599E+05 -1.180057E+05 -6.936409E+05 -1.139761E+05 -1.112644E+04
       332  24 -1.722140E+06 -5.062855E+05 -2.557216E+05 -6.480300E+05 -1.685027E+05 -5.339477E+04
       332  25 -2.148527E+06 -4.585429E+05 -1.497634E+05 -8.328369E+05 -4.437220E+04  1.797205E+04
       332  26 -2.170770E+06 -5.672111E+05 -2.308264E+05 -8.848390E+05 -1.309466E+05 -1.748024E+04
       332  27 -2.241984E+06 -8.277834E+05 -4.146404E+05 -9.200116E+05 -2.113074E+05 -6.941194E+04
       333   1  3.770746E+05  6.696458E+04  1.177363E+05  5.482700E+04  1.617266E+05  7.050078E+03
       333   2  4.007388E+05 -1.423456E+05 -4.475150E+03  1.076150E+04  1.105155E+05  2.105243E+04
       333   3  4.877304E+05 -1.259411E+05 -3.687522E+04 -6.180543E+04  5.931368E+04  2.052513E+04
       333   4  9.528091E+05  2.098804E+05  2.583031E+05 -3.081272E+04  1.772133E+05  7.045163E+03
       333   5  9.203220E+05 -1.457142E+04  1.154927E+05 -1.644854E+04  1.154791E+05  2.105103E+04
       333   6  9.529190E+05 -1.159957E+04  6.973555E+04 -3.058218E+04  5.375992E+04  2.052302E+04
       333   7  1.528862E+06  3.527996E+05  3.988507E+05 -1.165321E+05  1.927144E+05  7.035990E+03
       333   8  1.440156E+06  1.131867E+05  2.354431E+05 -4.368156E+04  1.204468E+05  2.104920E+04
       333   9  1.418310E+06  1.027306E+05  1.763327E+05  6.646073E+02  4.820202E+04  2.052036E+04
       333  10  3.770465E+05  6.695751E+04  1.176871E+05  5.482608E+04  9.180407E-10 -1.326548E-09
       333  11  4.007256E+05 -1.423493E+05 -4.498919E+03  1.075963E+04 -1.467879E-09  1.000652E-11
       333  12  4.877266E+05 -1.259425E+05 -3.688262E+04 -6.180641E+04 -2.411851E-09 -4.903167E-10
       333  13  9.527754E+05  2.098720E+05  2.582441E+05 -3.081372E+04  4.332975E-10  6.506784E-10
       333  14  9.203076E+05 -1.457547E+04  1.154668E+05 -1.645049E+04  3.361796E-10 -3.775040E-10
       333  15  9.529157E+05 -1.160080E+04  6.972933E+04 -3.058307E+04 -2.799701E-10 -6.814382E-10
       333  16  1.528822E+06  3.527896E+05  3.987810E+05 -1.165331E+05 -8.359837E-10  5.707854E-10
       333  17  1.440140E+06  1.131823E+05  2.354150E+05 -4.368360E+04  1.190009E-09 -1.551802E-10
       333  18  1.418307E+06  1.027295E+05  1.763276E+05  6.638113E+02  2.862795E-09  1.719188E-09
       333  19  3.770746E+05  6.696458E+04  1.177363E+05  5.482700E+04 -1.617266E+05 -7.050078E+03
       333  20  4.007388E+05 -1.423456E+05 -4.475150E+03  1.076150E+04 -1.105155E+05 -2.105243E+04
       333  21  4.877304E+05 -1.259411E+05 -3.687522E+04 -6.180543E+04 -5.931368E+04 -2.052513E+04
       333  22  9.528091E+05  2.098804E+05  2.583031E+05 -3.081272E+04 -1.772133E+05 -7.045163E+03
       333  23  9.203220E+05 -1.457142E+04  1.154927E+05 -1.644854E+04 -1.154791E+05 -2.105103E+04
       333  24  9.529190E+05 -1.159957E+04  6.973555E+04 -3.058218E+04 -5.375992E+04 -2.052302E+04
       333  25  1.528862E+06  3.527996E+05  3.988507E+05 -1.165321E+05 -1.927144E+05 -7.035990E+03
       333  26  1.440156E+06  1.131867E+05  2.354431E+05 -4.368156E+04 -1.204468E+05 -2.104920E+04
       333  27  1.418310E+06  1.027306E+05  1.763327E+05  6.646073E+02 -4.820202E+04 -2.052036E+04
       334   1  5.269798E+05 -8.588912E+04 -3.892292E+04 -2.547958E+04  4.450427E+04  1.724348E+04
       334   2  5.778971E+05 -8.952250E+04 -5.275186E+04 -1.526112E+04  3.001173E+04  1.538999E+04
       334   3  6.351375E+05 -7.585258E+04 -5.280015E+04 -3.334457E+04  1.551721E+04  1.283196E+04
       334   4  9.398701E+05  1.562836E+04  5.614294E+04 -3.060731E+04  4.344833E+04  1.724166E+04
       334   5  9.366793E+05 -1.344064E+03  2.966040E+04 -1.645269E+04  2.843891E+04  1.538856E+04
       334   6  9.398935E+05 -9.297002E+02  1.731010E+04 -3.059860E+04  1.342875E+04  1.283094E+04
       334   7  1.352918E+06  1.171340E+05  1.511975E+05 -3.573849E+04  4.239169E+04  1.723986E+04
       334   8  1.295580E+06  8.682541E+04  1.120642E+05 -1.764496E+04  2.686520E+04  1.538715E+04
       334   9  1.244735E+06  7.398673E+04  8.741422E+04 -2.785127E+04  1.133928E+04  1.282990E+04
       334  10  5.269776E+05 -8.588998E+04 -3.892720E+04 -2.548019E+04  6.541463E-10 -2.008384E-10
       334  11  5.778961E+05 -8.952300E+04 -5.275400E+04 -1.526149E+04  2.269601E-10  8.963155E-11
       334  12  6.351372E+05 -7.585282E+04 -5.280091E+04 -3.334473E+04 -2.594841E-10 -5.544977E-10
       334  13  9.398680E+05  1.562753E+04  5.613884E+04 -3.060791E+04  1.582353E-10  1.344658E-09
       334  14  9.366783E+05 -1.344535E+03  2.965843E+04 -1.645304E+04  1.033084E-09  3.293344E-10
       334  15  9.398932E+05 -9.299254E+02  1.730945E+04 -3.059874E+04 -1.393739E-09 -8.091099E-10
       334  16  1.352916E+06  1.171332E+05  1.511936E+05 -3.573908E+04 -1.044291E-09  1.061465E-09
       334  17  1.295580E+06  8.682496E+04  1.120624E+05 -1.764530E+04  8.432725E-10 -6.107982E-11
       334  18  1.244735E+06  7.398652E+04  8.741367E+04 -2.785139E+04 -3.961999E-10 -5.177439E-10
       334  19  5.269798E+05 -8.588912E+04 -3.892292E+04 -2.547958E+04 -4.450427E+04 -1.724348E+04
       334  20  5.778971E+05 -8.952250E+04 -5.275186E+04 -1.526112E+04 -3.001173E+04 -1.538999E+04
       334  21  6.351375E+05 -7.585258E+04 -5.280015E+04 -3.334457E+04 -1.551721E+04 -1.283196E+04
       334  22  9.398701E+05  1.562836E+04  5.614294E+04 -3.060731E+04 -4.344833E+04 -1.724166E+04
       334  23  9.366793E+05 -1.344064E+03  2.966040E+04 -1.645269E+04 -2.843891E+04 -1.538856E+04
       334  24  9.398935E+05 -9.297002E+02  1.731010E+04 -3.059860E+04 -1.342875E+04 -1.283094E+04
       334  25  1.352918E+06  1.171340E+05  1.511975E+05 -3.573849E+04 -4.239169E+04 -1.723986E+04
       334  26  1.295580E+06  8.682541E+04  1.120642E+05 -1.764496E+04 -2.686520E+04 -1.538715E+04
       334  27  1.244735E+06  7.398673E+04  8.741422E+04 -2.785127E+04 -1.133928E+04 -1.282990E+04
       335   1  6.853086E+05 -6.115461E+04 -4.465730E+04 -3.048995E+04  1.258766E+04  1.120464E+04
       335   2  7.383316E+05 -4.928753E+04 -3.839002E+04 -1.665784E+04  8.873068E+03  8.604333E+03
       335   3  7.922063E+05 -3.610286E+04 -2.936893E+04 -3.081673E+04  5.157411E+03  5.976159E+03
       335   4  9.386657E+05  1.077877E+03  1.337419E+04 -3.053231E+04  1.072730E+04  1.120387E+04
       335   5  9.382432E+05 -1.622843E+02  7.508898E+03 -1.653700E+04  6.991154E+03  8.603823E+03
       335   6  9.386739E+05 -8.117250E+01  4.411694E+03 -3.053213E+04  3.254263E+03  5.975923E+03
       335   7  1.192082E+06  6.330591E+04  7.140147E+04 -3.057469E+04  8.866182E+03  1.120310E+04
       335   8  1.138192E+06  4.896018E+04  5.340519E+04 -1.641612E+04  5.108640E+03  8.603312E+03
       335   9  1.085161E+06  3.593901E+04  3.819090E+04 -3.024746E+04  1.350670E+03  5.975685E+03
       335  10  6.853084E+05 -6.115479E+04 -4.465783E+04 -3.049007E+04 -1.253956E-09 -3.686113E-10
       335  11  7.383314E+05 -4.928763E+04 -3.839030E+04 -1.665790E+04 -1.399631E-09  5.396078E-11
       335  12  7.922063E+05 -3.610290E+04 -2.936904E+04 -3.081676E+04  5.285505E-10 -1.395434E-10
       335  13  9.386656E+05  1.077711E+03  1.337373E+04 -3.053241E+04 -7.495477E-10 -1.635209E-10
       335  14  9.382432E+05 -1.623770E+02  7.508667E+03 -1.653705E+04  6.920061E-10  6.048936E-10
       335  15  9.386739E+05 -8.121370E+01  4.411607E+03 -3.053214E+04 -1.285324E-09 -1.211862E-10
       335  16  1.192082E+06  6.330575E+04  7.140108E+04 -3.057477E+04  8.328826E-10  2.921848E-11
       335  17  1.138192E+06  4.896009E+04  5.340500E+04 -1.641616E+04 -3.490261E-10  3.933527E-10
       335  18  1.085161E+06  3.593897E+04  3.819083E+04 -3.024746E+04 -1.414435E-09  1.969455E-10
       335  19  6.853086E+05 -6.115461E+04 -4.465730E+04 -3.048995E+04 -1.258766E+04 -1.120464E+04
       335  20  7.383316E+05 -4.928753E+04 -3.839002E+04 -1.665784E+04 -8.873068E+03 -8.604333E+03
       335  21  7.922063E+05 -3.610286E+04 -2.936893E+04 -3.081673E+04 -5.157411E+03 -5.976159E+03
       335  22  9.386657E+05  1.077877E+03  1.337419E+04 -3.053231E+04 -1.072730E+04 -1.120387E+04
       335  23  9.382432E+05 -1.622843E+02  7.508898E+03 -1.653700E+04 -6.991154E+03 -8.603823E+03
       335  24  9.386739E+05 -8.117250E+01  4.411694E+03 -3.053213E+04 -3.254263E+03 -5.975923E+03
       335  25  1.192082E+06  6.330591E+04  7.140147E+04 -3.057469E+04 -8.866182E+03 -1.120310E+04
       335  26  1.138192E+06  4.896018E+04  5.340519E+04 -1.641612E+04 -5.108640E+03 -8.603312E+03
       335  27  1.085161E+06  3.593901E+04  3.819090E+04 -3.024746E+04 -1.350670E+03 -5.975685E+03
       336   1  8.430315E+05 -2.337952E+04 -1.834173E+04 -3.057385E+04  4.438132E+03  4.443276E+03
       336   2  8.961284E+05 -1.042450E+04 -7.583606E+03 -1.662334E+04  3.384232E+03  1.821413E+03
       336   3  9.493974E+05  2.629842E+03  3.886102E+03 -3.052573E+04  2.330054E+03 -8.005513E+02
       336   4  9.385248E+05  5.368979E+01  3.425259E+03 -3.050161E+04  2.548713E+03  4.443144E+03
       336   5  9.384413E+05 -2.779838E+01  2.130087E+03 -1.657522E+04  1.494507E+03  1.821333E+03
       336   6  9.385265E+05 -9.965773E+00  1.546502E+03 -3.050162E+04  4.401112E+02 -8.005692E+02
       336   7  1.034027E+06  2.348627E+04  2.519167E+04 -3.042936E+04  6.590076E+02  4.443012E+03
       336   8  9.807559E+05  1.036878E+04  1.184368E+04 -1.652710E+04 -3.953455E+02  1.821252E+03
       336   9  9.276557E+05 -2.649780E+03 -7.930920E+02 -3.047752E+04 -1.449799E+03 -8.005873E+02
       336  10  8.430314E+05 -2.337955E+04 -1.834180E+04 -3.057387E+04 -7.401090E-10 -3.626796E-10
       336  11  8.961284E+05 -1.042451E+04 -7.583634E+03 -1.662334E+04 -4.667204E-10 -2.107020E-11
       336  12  9.493974E+05  2.629840E+03  3.886091E+03 -3.052572E+04 -1.167970E-09 -3.570574E-10
       336  13  9.385248E+05  5.366684E+01  3.425210E+03 -3.050162E+04  5.680003E-10 -1.856101E-10
       336  14  9.384413E+05 -2.780254E+01  2.130077E+03 -1.657522E+04 -4.837439E-10 -1.780339E-10
       336  15  9.385265E+05 -9.966514E+00  1.546500E+03 -3.050162E+04 -1.480102E-09 -5.676770E-11
       336  16  1.034027E+06  2.348625E+04  2.519163E+04 -3.042936E+04  9.711628E-11 -1.079943E-10
       336  17  9.807559E+05  1.036878E+04  1.184367E+04 -1.652710E+04  1.700275E-09  1.093829E-11
       336  18  9.276557E+05 -2.649781E+03 -7.930972E+02 -3.047752E+04  4.958051E-10  6.923584E-11
       336  19  8.430315E+05 -2.337952E+04 -1.834173E+04 -3.057385E+04 -4.438132E+03 -4.443276E+03
       336  20  8.961284E+05 -1.042450E+04 -7.583606E+03 -1.662334E+04 -3.384232E+03 -1.821413E+03
       336  21  9.493974E+05  2.629842E+03  3.886102E+03 -3.052573E+04 -2.330054E+03  8.005513E+02
       336  22  9.385248E+05  5.368979E+01  3.425259E+03 -3.050161E+04 -2.548713E+03 -4.443144E+03
       336  23  9.384413E+05 -2.779838E+01  2.130087E+03 -1.657522E+04 -1.494507E+03 -1.821333E+03
       336  24  9.385265E+05 -9.965773E+00  1.546502E+03 -3.050162E+04 -4.401112E+02  8.005692E+02
       336  25  1.034027E+06  2.348627E+04  2.519167E+04 -3.042936E+04 -6.590076E+02 -4.443012E+03
       336  26  9.807559E+05  1.036878E+04  1.184368E+04 -1.652710E+04  3.953455E+02 -1.821252E+03
       336  27  9.276557E+05 -2.649780E+03 -7.930920E+02 -3.047752E+04  1.449799E+03  8.005873E+02
       337   1  1.000279E+06  1.519803E+04  1.577490E+04 -3.051193E+04  2.060197E+03 -2.326726E+03
       337   2  1.053481E+06  2.823763E+04  2.796613E+04 -1.653787E+04  1.289339E+03 -4.951071E+03
       337   3  1.106817E+06  4.133618E+04  4.067623E+04 -3.045847E+04  5.188925E+02 -7.577929E+03
       337   4  9.385173E+05 -7.454104E+00  1.441960E+03 -3.051100E+04  1.692305E+02 -2.326775E+03
       337   5  9.384500E+05 -2.396166E+01  1.561244E+03 -1.656351E+04 -6.034030E+02 -4.951281E+03
       337   6  9.385138E+05  1.897360E+01  2.200828E+03 -3.051100E+04 -1.375559E+03 -7.578289E+03
       337   7  8.767595E+05 -1.521320E+04 -1.289122E+04 -3.051006E+04 -1.721549E+03 -2.326825E+03
       337   8  8.234309E+05 -2.828648E+04 -2.484450E+04 -1.658914E+04 -2.495797E+03 -4.951491E+03
       337   9  7.702365E+05 -4.130019E+04 -3.627641E+04 -3.056351E+04 -3.269503E+03 -7.578650E+03
       337  10  1.000279E+06  1.519802E+04  1.577488E+04 -3.051193E+04 -1.520862E-09 -6.057686E-11
       337  11  1.053481E+06  2.823761E+04  2.796608E+04 -1.653786E+04  2.361889E-10  5.107756E-10
       337  12  1.106817E+06  4.133611E+04  4.067612E+04 -3.045846E+04  4.033949E-10 -5.469814E-11
       337  13  9.385173E+05 -7.459927E+00  1.441949E+03 -3.051100E+04  1.256754E-09  1.996744E-10
       337  14  9.384500E+05 -2.398810E+01  1.561197E+03 -1.656351E+04  6.200826E-10  1.691877E-10
       337  15  9.385138E+05  1.891139E+01  2.200716E+03 -3.051100E+04 -7.754219E-10 -4.244781E-11
       337  16  8.767595E+05 -1.521321E+04 -1.289124E+04 -3.051007E+04  1.056956E-09 -5.998822E-11
       337  17  8.234309E+05 -2.828650E+04 -2.484456E+04 -1.658915E+04  8.056063E-10  1.051780E-11
       337  18  7.702364E+05 -4.130026E+04 -3.627654E+04 -3.056353E+04  3.186317E-10 -4.328449E-10
       337  19  1.000279E+06  1.519803E+04  1.577490E+04 -3.051193E+04 -2.060197E+03  2.326726E+03
       337  20  1.053481E+06  2.823763E+04  2.796613E+04 -1.653787E+04 -1.289339E+03  4.951071E+03
       337  21  1.106817E+06  4.133618E+04  4.067623E+04 -3.045847E+04 -5.188925E+02  7.577929E+03
       337  22  9.385173E+05 -7.454104E+00  1.441960E+03 -3.051100E+04 -1.692305E+02  2.326775E+03
       337  23  9.384500E+05 -2.396166E+01  1.561244E+03 -1.656351E+04  6.034030E+02  4.951281E+03
       337  24  9.385138E+05  1.897360E+01  2.200828E+03 -3.051100E+04  1.375559E+03  7.578289E+03
       337  25  8.767595E+05 -1.521320E+04 -1.289122E+04 -3.051006E+04  1.721549E+03  2.326825E+03
       337  26  8.234309E+05 -2.828648E+04 -2.484450E+04 -1.658914E+04  2.495797E+03  4.951491E+03
       337  27  7.702365E+05 -4.130019E+04 -3.627641E+04 -3.056351E+04  3.269503E+03  7.578650E+03
       338   1  1.158050E+06  5.388204E+04  5.326915E+04 -3.037518E+04  9.059571E+01 -9.115719E+03
       338   2  1.211478E+06  6.699073E+04  6.721656E+04 -1.638425E+04 -2.180354E+03 -1.175310E+04
       338   3  1.265461E+06  8.087641E+04  8.284787E+04 -3.051509E+04 -4.450344E+03 -1.436091E+04
       338   4  9.386022E+05 -6.075487E+01  2.744890E+03 -3.056149E+04 -1.820953E+03 -9.116252E+03
       338   5  9.383223E+05 -1.137531E+02  4.519459E+03 -1.650033E+04 -4.069752E+03 -1.175400E+04
       338   6  9.385930E+05  6.070561E+02  7.963516E+03 -3.056169E+04 -6.317399E+03 -1.436217E+04
       338   7  7.191990E+05 -5.400691E+04 -4.778255E+04 -3.074774E+04 -3.731831E+03 -9.116783E+03
       338   8  6.652359E+05 -6.722343E+04 -5.818254E+04 -1.661636E+04 -5.958326E+03 -1.175490E+04
       338   9  6.118234E+05 -7.966972E+04 -6.692785E+04 -3.060826E+04 -8.183480E+03 -1.436342E+04
       338  10  1.158050E+06  5.388195E+04  5.326899E+04 -3.037518E+04 -1.455196E-09  4.789076E-11
       338  11  1.211478E+06  6.699058E+04  6.721629E+04 -1.638427E+04 -1.031750E-09 -3.097393E-10
       338  12  1.265461E+06  8.087618E+04  8.284745E+04 -3.051514E+04  1.475064E-09 -1.166784E-10
       338  13  9.386021E+05 -6.084504E+01  2.744728E+03 -3.056150E+04  6.229874E-10 -7.201316E-11
       338  14  9.383223E+05 -1.139060E+02  4.519168E+03 -1.650037E+04 -7.881501E-10  2.209798E-10
       338  15  9.385929E+05  6.068238E+02  7.963053E+03 -3.056176E+04 -2.177229E-09 -2.747257E-10
       338  16  7.191989E+05 -5.400700E+04 -4.778273E+04 -3.074777E+04  1.848433E-09 -1.785907E-10
       338  17  6.652358E+05 -6.722359E+04 -5.818287E+04 -1.661642E+04 -2.309898E-10  7.316461E-10
       338  18  6.118232E+05 -7.966996E+04 -6.692836E+04 -3.060836E+04 -1.767455E-09  1.717647E-10
       338  19  1.158050E+06  5.388204E+04  5.326915E+04 -3.037518E+04 -9.059571E+01  9.115719E+03
       338  20  1.211478E+06  6.699073E+04  6.721656E+04 -1.638425E+04  2.180354E+03  1.175310E+04
       338  21  1.265461E+06  8.087641E+04  8.284787E+04 -3.051509E+04  4.450344E+03  1.436091E+04
       338  22  9.386022E+05 -6.075487E+01  2.744890E+03 -3.056149E+04  1.820953E+03  9.116252E+03
       338  23  9.383223E+05 -1.137531E+02  4.519459E+03 -1.650033E+04  4.069752E+03  1.175400E+04
       338  24  9.385930E+05  6.070561E+02  7.963516E+03 -3.056169E+04  6.317399E+03  1.436217E+04
       338  25  7.191990E+05 -5.400691E+04 -4.778255E+04 -3.074774E+04  3.731831E+03  9.116783E+03
       338  26  6.652359E+05 -6.722343E+04 -5.818254E+04 -1.661636E+04  5.958326E+03  1.175490E+04
       338  27  6.118234E+05 -7.966972E+04 -6.692785E+04 -3.060826E+04  8.183480E+03  1.436342E+04
       339   1  1.317937E+06  9.245237E+04  9.731660E+04 -2.892392E+04 -5.798221E+03 -1.600745E+04
       339   2  1.370452E+06  1.055546E+05  1.170064E+05 -1.695521E+04 -1.527179E+04 -1.856787E+04
       339   3  1.426949E+06  1.290363E+05  1.454820E+05 -3.348965E+04 -2.474536E+04 -2.033415E+04
       339   4  9.393249E+05 -5.815908E+02  1.028649E+04 -3.064431E+04 -7.924151E+03 -1.600913E+04
       339   5  9.373739E+05 -8.326727E+02  1.757833E+04 -1.639583E+04 -1.681947E+04 -1.856982E+04
       339   6  9.393045E+05  9.199683E+03  3.325935E+04 -3.065150E+04 -2.571396E+04 -2.033619E+04
       339   7  5.608453E+05 -9.362554E+04 -7.675307E+04 -3.236366E+04 -1.004880E+04 -1.601080E+04
       339   8  5.044693E+05 -1.072330E+05 -8.186210E+04 -1.583687E+04 -1.836608E+04 -1.857178E+04
       339   9  4.518797E+05 -1.106535E+05 -7.897902E+04 -2.781564E+04 -2.668179E+04 -2.033824E+04
       339  10  1.317937E+06  9.245209E+04  9.731605E+04 -2.892399E+04 -1.063880E-09 -3.377957E-10
       339  11  1.370451E+06  1.055542E+05  1.170053E+05 -1.695544E+04  1.820558E-09 -4.468463E-10
       339  12  1.426948E+06  1.290357E+05  1.454801E+05 -3.349006E+04  1.764414E-09 -1.052690E-09
       339  13  9.393247E+05 -5.818830E+02  1.028589E+04 -3.064441E+04 -1.310476E-09 -2.493585E-10
       339  14  9.373735E+05 -8.331189E+02  1.757715E+04 -1.639608E+04 -1.194697E-09 -4.996801E-10
       339  15  9.393036E+05  9.199061E+03  3.325733E+04 -3.065192E+04 -2.361590E-10 -1.014944E-09
       339  16  5.608452E+05 -9.362584E+04 -7.675374E+04 -3.236379E+04 -1.151487E-11 -1.427114E-10
       339  17  5.044689E+05 -1.072335E+05 -8.186338E+04 -1.583715E+04 -8.798065E-10  1.659014E-09
       339  18  4.518788E+05 -1.106541E+05 -7.898113E+04 -2.781608E+04 -2.626822E-09 -3.460935E-10
       339  19  1.317937E+06  9.245237E+04  9.731660E+04 -2.892392E+04  5.798221E+03  1.600745E+04
       339  20  1.370452E+06  1.055546E+05  1.170064E+05 -1.695521E+04  1.527179E+04  1.856787E+04
       339  21  1.426949E+06  1.290363E+05  1.454820E+05 -3.348965E+04  2.474536E+04  2.033415E+04
       339  22  9.393249E+05 -5.815908E+02  1.028649E+04 -3.064431E+04  7.924151E+03  1.600913E+04
       339  23  9.373739E+05 -8.326727E+02  1.757833E+04 -1.639583E+04  1.681947E+04  1.856982E+04
       339  24  9.393045E+05  9.199683E+03  3.325935E+04 -3.065150E+04  2.571396E+04  2.033619E+04
       339  25  5.608453E+05 -9.362554E+04 -7.675307E+04 -3.236366E+04  1.004880E+04  1.601080E+04
       339  26  5.044693E+05 -1.072330E+05 -8.186210E+04 -1.583687E+04  1.836608E+04  1.857178E+04
       339  27  4.518797E+05 -1.106535E+05 -7.897902E+04 -2.781564E+04  2.668179E+04  2.033824E+04
       340   1  1.487546E+06  1.258236E+05  1.650914E+05 -1.188038E+04 -2.577411E+04 -2.384032E+04
       340   2  1.523052E+06  1.376474E+05  2.057561E+05 -3.218586E+04 -7.417657E+04 -2.410282E+04
       340   3  1.599281E+06  2.861614E+05  3.121104E+05 -8.116612E+04 -1.226082E+05 -7.971625E+03
       340   4  9.470412E+05 -6.929813E+03  4.130860E+04 -3.063601E+04 -3.182108E+04 -2.384686E+04
       340   5  9.276519E+05 -8.695446E+03  6.838316E+04 -1.638738E+04 -6.836962E+04 -2.409921E+04
       340   6  9.469658E+05  1.242405E+05  1.529658E+05 -3.081074E+04 -1.049420E+05 -7.956267E+03
       340   7  4.068069E+05 -1.397022E+05 -8.249307E+04 -4.937527E+04 -3.786284E+04 -2.385303E+04
       340   8  3.325797E+05 -1.550622E+05 -6.901304E+04 -6.042220E+02 -6.256815E+04 -2.409531E+04
       340   9  2.950443E+05 -3.770192E+04 -6.207083E+03  1.949160E+04 -8.729422E+04 -7.938045E+03
       340  10  1.487545E+06  1.258228E+05  1.650891E+05 -1.188087E+04  1.488411E-10 -2.162261E-09
       340  11  1.523046E+06  1.376453E+05  2.057447E+05 -3.218730E+04 -1.467716E-09 -4.161546E-09
       340  12  1.599264E+06  2.861573E+05  3.120821E+05 -8.116691E+04 -1.464399E-09 -8.785093E-10
       340  13  9.470400E+05 -6.930695E+03  4.130563E+04 -3.063662E+04 -1.487205E-09 -5.328043E-09
       340  14  9.276467E+05 -8.697322E+03  6.837330E+04 -1.638870E+04 -5.038585E-10  1.977860E-09
       340  15  9.469540E+05  1.242375E+05  1.529450E+05 -3.081141E+04 -6.947777E-10 -2.043914E-10
       340  16  4.068052E+05 -1.397032E+05 -8.249683E+04 -4.937600E+04 -1.026026E-09 -1.460109E-09
       340  17  3.325754E+05 -1.550638E+05 -6.902149E+04 -6.054362E+02  4.771947E-10  1.867504E-09
       340  18  2.950361E+05 -3.770403E+04 -6.221514E+03  1.949104E+04  1.345677E-09 -1.300454E-09
       340  19  1.487546E+06  1.258236E+05  1.650914E+05 -1.188038E+04  2.577411E+04  2.384032E+04
       340  20  1.523052E+06  1.376474E+05  2.057561E+05 -3.218586E+04  7.417657E+04  2.410282E+04
       340  21  1.599281E+06  2.861614E+05  3.121104E+05 -8.116612E+04  1.226082E+05  7.971625E+03
       340  22  9.470412E+05 -6.929813E+03  4.130860E+04 -3.063601E+04  3.182108E+04  2.384686E+04
       340  23  9.276519E+05 -8.695446E+03  6.838316E+04 -1.638738E+04  6.836962E+04  2.409921E+04
       340  24  9.469658E+05  1.242405E+05  1.529658E+05 -3.081074E+04  1.049420E+05  7.956267E+03
       340  25  4.068069E+05 -1.397022E+05 -8.249307E+04 -4.937527E+04  3.786284E+04  2.385303E+04
       340  26  3.325797E+05 -1.550622E+05 -6.901304E+04 -6.042220E+02  6.256815E+04  2.409531E+04
       340  27  2.950443E+05 -3.770192E+04 -6.207083E+03  1.949160E+04  8.729422E+04  7.938045E+03
       341   1  9.511750E+05  3.698862E+06  9.578177E+05 -5.753692E+05  3.566561E+04  1.520984E+05
       341   2  6.141759E+05  2.750874E+06  6.370902E+05 -3.089361E+05  9.911955E+04  5.532653E+04
       341   3  3.932841E+05  1.845450E+06  4.081340E+05 -5.231774E+05  6.873325E+04 -4.156319E+04
       341   4  9.258270E+04  2.437178E+05  1.129426E+05 -5.309665E+05  3.589286E+04  7.224995E+04
       341   5 -5.932445E+03  2.292306E+05  5.434235E+04 -2.907171E+05  9.918891E+04  4.352217E+04
       341   6  2.038870E+02  2.449535E+05  4.065951E+04 -5.312242E+05  6.848313E+04  1.453027E+04
       341   7 -7.668814E+05 -3.200575E+06 -7.327799E+05 -4.867990E+05  3.610955E+04 -7.157959E+03
       341   8 -6.264855E+05 -2.286553E+06 -5.288292E+05 -2.725661E+05  9.925775E+04  3.176495E+04
       341   9 -3.930528E+05 -1.353169E+06 -3.269721E+05 -5.392465E+05  6.823120E+04  7.048058E+04
       341  10  9.511674E+05  3.698837E+06  9.577721E+05 -5.753736E+05  1.180635E-10  1.343830E-09
       341  11  6.141645E+05  2.750868E+06  6.370660E+05 -3.089405E+05  3.166783E-10 -4.715690E-09
       341  12  3.932786E+05  1.845447E+06  4.081219E+05 -5.231751E+05  8.029513E-11  3.186792E-09
       341  13  9.257992E+04  2.437118E+05  1.129303E+05 -5.309686E+05  1.287115E-09 -1.861117E-09
       341  14 -5.943521E+03  2.292259E+05  5.432029E+04 -2.907205E+05 -2.640444E-09 -3.145157E-09
       341  15  1.987925E+02  2.449520E+05  4.065030E+04 -5.312250E+05 -1.302029E-09 -1.081943E-08
       341  16 -7.668828E+05 -3.200575E+06 -7.327824E+05 -4.867988E+05  7.984777E-10 -1.288259E-09
       341  17 -6.264964E+05 -2.286556E+06 -5.288496E+05 -2.725686E+05  2.491264E-09  3.467280E-09
       341  18 -3.930591E+05 -1.353176E+06 -3.269903E+05 -5.392504E+05 -1.348565E-09  1.150517E-09
       341  19  9.511750E+05  3.698862E+06  9.578177E+05 -5.753692E+05 -3.566561E+04 -1.520984E+05
       341  20  6.141759E+05  2.750874E+06  6.370902E+05 -3.089361E+05 -9.911955E+04 -5.532653E+04
       341  21  3.932841E+05  1.845450E+06  4.081340E+05 -5.231774E+05 -6.873325E+04  4.156319E+04
       341  22  9.258270E+04  2.437178E+05  1.129426E+05 -5.309665E+05 -3.589286E+04 -7.224995E+04
       341  23 -5.932445E+03  2.292306E+05  5.434235E+04 -2.907171E+05 -9.918891E+04 -4.352217E+04
       341  24  2.038870E+02  2.449535E+05  4.065951E+04 -5.312242E+05 -6.848313E+04 -1.453027E+04
       341  25 -7.668814E+05 -3.200575E+06 -7.327799E+05 -4.867990E+05 -3.610955E+04  7.157959E+03
       341  26 -6.264855E+05 -2.286553E+06 -5.288292E+05 -2.725661E+05 -9.925775E+04 -3.176495E+04
       341  27 -3.930528E+05 -1.353169E+06 -3.269721E+05 -5.392465E+05 -6.823120E+04 -7.048058E+04
       342   1  1.859913E+05  9.528010E+05  2.019096E+05 -5.385623E+05  3.046849E+04 -2.088616E+04
       342   2 -5.084497E+04  2.676888E+04 -1.166939E+04 -2.887872E+05 -8.847975E+03 -3.928269E+04
       342   3 -2.627107E+05 -8.945631E+05 -2.082220E+05 -5.226124E+05 -4.765368E+04 -5.763698E+04
       342   4  1.060260E+04  2.396212E+05  3.796371E+04 -5.317714E+05  3.032853E+04  7.683468E+03
       342   5  1.014777E+03  2.375869E+05  3.679242E+04 -2.899680E+05 -8.980072E+03 -1.109747E+04
       342   6  1.651473E+04  2.395174E+05  5.295266E+04 -5.317440E+05 -4.778050E+04 -2.986271E+04
       342   7 -1.648210E+05 -4.730866E+05 -1.260127E+05 -5.249876E+05  3.018911E+04  3.622058E+04
       342   8  5.287185E+04  4.484478E+05  8.525429E+04 -2.911491E+05 -9.112252E+03  1.709723E+04
       342   9  2.956508E+05  1.374790E+06  3.140449E+05 -5.408906E+05 -4.790800E+04 -2.038007E+03
       342  10  1.859902E+05  9.528003E+05  2.019071E+05 -5.385618E+05 -1.163498E-09  2.508015E-09
       342  11 -5.084546E+04  2.676720E+04 -1.167244E+04 -2.887875E+05  1.819288E-09 -6.300117E-09
       342  12 -2.627140E+05 -8.945673E+05 -2.082325E+05 -5.226146E+05 -9.856152E-10  3.719968E-09
       342  13  1.060160E+04  2.396209E+05  3.796187E+04 -5.317716E+05 -1.606249E-09 -4.411654E-09
       342  14  1.014658E+03  2.375868E+05  3.679204E+04 -2.899681E+05  2.786130E-09 -4.598899E-09
       342  15  1.651203E+04  2.395159E+05  5.294669E+04 -5.317452E+05  3.690878E-09 -1.115358E-08
       342  16 -1.648224E+05 -4.730883E+05 -1.260169E+05 -5.249885E+05 -1.628041E-09 -2.435402E-09
       342  17  5.287168E+04  4.484475E+05  8.525358E+04 -2.911490E+05 -2.207724E-09  3.966157E-09
       342  18  2.956483E+05  1.374790E+06  3.140406E+05 -5.408907E+05 -5.911385E-10  1.128956E-09
       342  19  1.859913E+05  9.528010E+05  2.019096E+05 -5.385623E+05 -3.046849E+04  2.088616E+04
       342  20 -5.084497E+04  2.676888E+04 -1.166939E+04 -2.887872E+05  8.847975E+03  3.928269E+04
       342  21 -2.627107E+05 -8.945631E+05 -2.082220E+05 -5.226124E+05  4.765368E+04  5.763698E+04
       342  22  1.060260E+04  2.396212E+05  3.796371E+04 -5.317714E+05 -3.032853E+04 -7.683468E+03
       342  23  1.014777E+03  2.375869E+05  3.679242E+04 -2.899680E+05  8.980072E+03  1.109747E+04
       342  24  1.651473E+04  2.395174E+05  5.295266E+04 -5.317440E+05  4.778050E+04  2.986271E+04
       342  25 -1.648210E+05 -4.730866E+05 -1.260127E+05 -5.249876E+05 -3.018911E+04 -3.622058E+04
       342  26  5.287185E+04  4.484478E+05  8.525429E+04 -2.911491E+05  9.112252E+03 -1.709723E+04
       342  27  2.956508E+05  1.374790E+06  3.140449E+05 -5.408906E+05  4.790800E+04  2.038007E+03
       343   1 -5.019917E+05 -1.768918E+06 -4.018208E+05 -5.500479E+05 -8.682679E+04 -9.812532E+04
       343   2 -7.366759E+05 -2.714883E+06 -5.845408E+05 -2.621685E+05 -1.163066E+05 -7.434374E+04
       343   3 -7.928178E+05 -3.616241E+06 -7.378021E+05 -4.549991E+05 -4.136402E+04 -5.036199E+04
       343   4 -5.070899E+03  2.505288E+05  6.254318E+04 -5.312112E+05 -8.706907E+04 -3.966688E+04
       343   5 -1.219144E+04  2.215143E+05  9.606307E+04 -2.907580E+05 -1.162162E+05 -9.101356E+04
       343   6  1.718706E+05  2.490817E+05  2.110779E+05 -5.308095E+05 -4.116413E+04 -1.421285E+05
       343   7  4.915686E+05  2.273765E+06  5.266507E+05 -5.123069E+05 -8.730735E+04  1.898075E+04
       343   8  7.116884E+05  3.165899E+06  7.760903E+05 -3.194766E+05 -1.161245E+05 -1.077611E+05
       343   9  1.135474E+06  4.128087E+06  1.158895E+06 -6.070831E+05 -4.094260E+04 -2.344655E+05
       343  10 -5.020024E+05 -1.768931E+06 -4.018532E+05 -5.500548E+05  2.429749E-10  6.620627E-10
       343  11 -7.366920E+05 -2.714892E+06 -5.845766E+05 -2.621755E+05  8.456933E-10 -3.637547E-09
       343  12 -7.928204E+05 -3.616244E+06 -7.378101E+05 -4.550008E+05  2.544899E-11  8.275898E-10
       343  13 -5.079467E+03  2.505251E+05  6.252596E+04 -5.312140E+05 -2.488235E-09 -3.724165E-09
       343  14 -1.220817E+04  2.215018E+05  9.602210E+04 -2.907665E+05  1.634232E-09 -2.759673E-09
       343  15  1.718633E+05  2.490596E+05  2.110368E+05 -5.308143E+05 -3.129565E-10 -3.052149E-09
       343  16  4.915603E+05  2.273763E+06  5.266357E+05 -5.123056E+05  1.274934E-09 -6.960451E-10
       343  17  7.116708E+05  3.165883E+06  7.760433E+05 -3.194866E+05  7.535309E-10  2.002454E-09
       343  18  1.135457E+06  4.128028E+06  1.158789E+06 -6.070908E+05 -5.336931E-10  4.786178E-10
       343  19 -5.019917E+05 -1.768918E+06 -4.018208E+05 -5.500479E+05  8.682679E+04  9.812532E+04
       343  20 -7.366759E+05 -2.714883E+06 -5.845408E+05 -2.621685E+05  1.163066E+05  7.434374E+04
       343  21 -7.928178E+05 -3.616241E+06 -7.378021E+05 -4.549991E+05  4.136402E+04  5.036199E+04
       343  22 -5.070899E+03  2.505288E+05  6.254318E+04 -5.312112E+05  8.706907E+04  3.966688E+04
       343  23 -1.219144E+04  2.215143E+05  9.606307E+04 -2.907580E+05  1.162162E+05  9.101356E+04
       343  24  1.718706E+05  2.490817E+05  2.110779E+05 -5.308095E+05  4.116413E+04  1.421285E+05
       343  25  4.915686E+05  2.273765E+06  5.266507E+05 -5.123069E+05  8.730735E+04 -1.898075E+04
       343  26  7.116884E+05  3.165899E+06  7.760903E+05 -3.194766E+05  1.161245E+05  1.077611E+05
       343  27  1.135474E+06  4.128087E+06  1.158895E+06 -6.070831E+05  4.094260E+04  2.344655E+05
       344   1 -1.686751E+06 -6.991996E+05 -3.794963E+05 -6.834258E+05 -1.780458E+05 -5.445960E+04
       344   2 -1.612670E+06 -4.975567E+05 -2.272391E+05 -6.501974E+05 -1.112627E+05 -1.170288E+03
       344   3 -1.572813E+06 -4.118599E+05 -1.593751E+05 -6.089327E+05 -3.690894E+04  3.206323E+04
       344   4 -1.002388E+06 -3.505357E+05 -1.848777E+05 -4.021220E+05 -1.236372E+05 -3.402223E+04
       344   5 -9.782165E+05 -2.239967E+05 -8.534117E+04 -4.330739E+05 -8.830526E+04  7.451845E+03
       344   6 -9.819824E+05 -2.071099E+05 -4.518070E+04 -4.560074E+05 -4.541772E+04  2.886089E+04
       344   7 -3.175284E+05 -1.704450E+03  9.714046E+03 -1.204920E+05 -6.916231E+04 -1.353967E+04
       344   8 -3.433396E+05  4.964358E+04  5.653579E+04 -2.157284E+05 -6.532233E+04  1.608732E+04
       344   9 -3.907896E+05 -2.337502E+03  6.899874E+04 -3.029505E+05 -5.393521E+04  2.565566E+04
       344  10 -1.686786E+06 -6.992113E+05 -3.795617E+05 -6.834337E+05  8.339518E-10  5.987569E-10
       344  11 -1.612684E+06 -4.975600E+05 -2.272624E+05 -6.501975E+05 -1.691712E-09 -1.702844E-09
       344  12 -1.572815E+06 -4.118614E+05 -1.593796E+05 -6.089318E+05 -1.820054E-10 -7.980591E-11
       344  13 -1.002404E+06 -3.505410E+05 -1.849086E+05 -4.021253E+05  8.759481E-11  6.339348E-10
       344  14 -9.782249E+05 -2.239988E+05 -8.535595E+04 -4.330733E+05  2.218967E-10 -6.990080E-10
       344  15 -9.819848E+05 -2.071113E+05 -4.518615E+04 -4.560063E+05  5.099163E-09  1.890240E-09
       344  16 -3.175336E+05 -1.705932E+03  9.704707E+03 -1.204928E+05 -1.871038E-09  1.909211E-10
       344  17 -3.433442E+05  4.964216E+04  5.652728E+04 -2.157276E+05  3.591889E-09 -1.004869E-09
       344  18 -3.907929E+05 -2.338989E+03  6.899203E+04 -3.029494E+05  1.035175E-08  3.445217E-09
       344  19 -1.686751E+06 -6.991996E+05 -3.794963E+05 -6.834258E+05  1.780458E+05  5.445960E+04
       344  20 -1.612670E+06 -4.975567E+05 -2.272391E+05 -6.501974E+05  1.112627E+05  1.170288E+03
       344  21 -1.572813E+06 -4.118599E+05 -1.593751E+05 -6.089327E+05  3.690894E+04 -3.206323E+04
       344  22 -1.002388E+06 -3.505357E+05 -1.848777E+05 -4.021220E+05  1.236372E+05  3.402223E+04
       344  23 -9.782165E+05 -2.239967E+05 -8.534117E+04 -4.330739E+05  8.830526E+04 -7.451845E+03
       344  24 -9.819824E+05 -2.071099E+05 -4.518070E+04 -4.560074E+05  4.541772E+04 -2.886089E+04
       344  25 -3.175284E+05 -1.704450E+03  9.714046E+03 -1.204920E+05  6.916231E+04  1.353967E+04
       344  26 -3.433396E+05  4.964358E+04  5.653579E+04 -2.157284E+05  6.532233E+04 -1.608732E+04
       344  27 -3.907896E+05 -2.337502E+03  6.899874E+04 -3.029505E+05  5.393521E+04 -2.565566E+04
       345   1 -1.501278E+06 -4.039891E+05 -1.367760E+05 -6.010381E+05 -3.368205E+04  2.946038E+04
       345   2 -1.424103E+06 -3.589301E+05 -1.022671E+05 -5.695220E+05 -2.057037E+04  2.962330E+04
       345   3 -1.335508E+06 -3.338356E+05 -7.771400E+04 -5.540766E+05 -6.869807E+03  2.821848E+04
       345   4 -9.763975E+05 -2.102077E+05 -3.424098E+04 -4.526546E+05 -3.901911E+04  2.745092E+04
       345   5 -9.818953E+05 -1.973666E+05 -1.806455E+04 -4.457771E+05 -2.836112E+04  2.669337E+04
       345   6 -9.754897E+05 -2.040002E+05 -9.890316E+03 -4.549727E+05 -1.711601E+04  2.436803E+04
       345   7 -4.512354E+05 -1.640154E+04  6.828051E+04 -3.041551E+05 -4.436096E+04  2.543960E+04
       345   8 -5.394833E+05 -3.578477E+04  6.613012E+04 -3.219499E+05 -3.615781E+04  2.376119E+04
       345   9 -6.153323E+05 -7.415218E+04  5.792950E+04 -3.558146E+05 -2.736868E+04  2.051520E+04
       345  10 -1.501279E+06 -4.039904E+05 -1.367798E+05 -6.010373E+05  9.124396E-09  2.145495E-09
       345  11 -1.424103E+06 -3.589312E+05 -1.022695E+05 -5.695215E+05  1.122707E-09 -8.895344E-10
       345  12 -1.335508E+06 -3.338365E+05 -7.771559E+04 -5.540765E+05 -2.485087E-09 -1.037752E-09
       345  13 -9.763993E+05 -2.102089E+05 -3.424525E+04 -4.526537E+05  5.442585E-09  1.493548E-09
       345  14 -9.818963E+05 -1.973676E+05 -1.806740E+04 -4.457765E+05  9.872572E-11  1.094892E-09
       345  15 -9.754902E+05 -2.040009E+05 -9.891981E+03 -4.549724E+05 -1.061794E-09  9.417294E-10
       345  16 -4.512377E+05 -1.640276E+04  6.827559E+04 -3.041541E+05  1.638130E-09  7.034477E-10
       345  17 -5.394849E+05 -3.578573E+04  6.612660E+04 -3.219492E+05 -9.315714E-10  5.596672E-10
       345  18 -6.153332E+05 -7.415283E+04  5.792731E+04 -3.558142E+05  2.220356E-10  2.911853E-09
       345  19 -1.501278E+06 -4.039891E+05 -1.367760E+05 -6.010381E+05  3.368205E+04 -2.946038E+04
       345  20 -1.424103E+06 -3.589301E+05 -1.022671E+05 -5.695220E+05  2.057037E+04 -2.962330E+04
       345  21 -1.335508E+06 -3.338356E+05 -7.771400E+04 -5.540766E+05  6.869807E+03 -2.821848E+04
       345  22 -9.763975E+05 -2.102077E+05 -3.424098E+04 -4.526546E+05  3.901911E+04 -2.745092E+04
       345  23 -9.818953E+05 -1.973666E+05 -1.806455E+04 -4.457771E+05  2.836112E+04 -2.669337E+04
       345  24 -9.754897E+05 -2.040002E+05 -9.890316E+03 -4.549727E+05  1.711601E+04 -2.436803E+04
       345  25 -4.512354E+05 -1.640154E+04  6.828051E+04 -3.041551E+05  4.436096E+04 -2.543960E+04
       345  26 -5.394833E+05 -3.578477E+04  6.613012E+04 -3.219499E+05  3.615781E+04 -2.376119E+04
       345  27 -6.153323E+05 -7.415218E+04  5.792950E+04 -3.558146E+05  2.736868E+04 -2.051520E+04
       346   1 -1.278981E+06 -3.142435E+05 -6.434773E+04 -5.390235E+05 -4.297513E+03  2.483243E+04
       346   2 -1.202274E+06 -2.761852E+05 -4.531317E+04 -5.072361E+05  3.570148E+02  1.923796E+04
       346   3 -1.111057E+06 -2.532881E+05 -2.800772E+04 -4.924918E+05  5.057523E+03  1.351799E+04
       346   4 -9.750542E+05 -2.041640E+05 -7.438013E+03 -4.547599E+05 -1.430457E+04  2.107277E+04
       346   5 -9.823073E+05 -1.965235E+05 -4.093473E+03 -4.462639E+05 -9.846485E+03  1.540559E+04
       346   6 -9.750176E+05 -2.040052E+05 -2.321743E+03 -4.548131E+05 -5.342762E+03  9.612853E+03
       346   7 -6.710310E+05 -9.407605E+04  4.946846E+04 -3.704579E+05 -2.431687E+04  1.731114E+04
       346   8 -7.622903E+05 -1.168577E+05  3.712446E+04 -3.852719E+05 -2.005381E+04  1.157180E+04
       346   9 -8.389599E+05 -1.547211E+05  2.336359E+04 -4.171271E+05 -1.574539E+04  5.706842E+03
       346  10 -1.278981E+06 -3.142441E+05 -6.434892E+04 -5.390234E+05  1.098345E-09  5.335282E-10
       346  11 -1.202275E+06 -2.761856E+05 -4.531387E+04 -5.072361E+05 -5.911018E-11  4.766380E-10
       346  12 -1.111057E+06 -2.532883E+05 -2.800811E+04 -4.924919E+05  9.598089E-10 -4.977659E-10
       346  13 -9.750546E+05 -2.041645E+05 -7.439232E+03 -4.547596E+05 -3.120161E-10  1.086398E-09
       346  14 -9.823074E+05 -1.965238E+05 -4.094100E+03 -4.462638E+05 -3.024164E-10  6.779356E-10
       346  15 -9.750177E+05 -2.040053E+05 -2.321970E+03 -4.548131E+05 -9.012356E-10 -2.290478E-10
       346  16 -6.710317E+05 -9.407653E+04  4.946678E+04 -3.704576E+05 -1.258201E-09  1.256876E-09
       346  17 -7.622908E+05 -1.168580E+05  3.712345E+04 -3.852717E+05 -1.337028E-09  1.962702E-10
       346  18 -8.389601E+05 -1.547212E+05  2.336306E+04 -4.171270E+05  1.089330E-10 -8.736721E-10
       346  19 -1.278981E+06 -3.142435E+05 -6.434773E+04 -5.390235E+05  4.297513E+03 -2.483243E+04
       346  20 -1.202274E+06 -2.761852E+05 -4.531317E+04 -5.072361E+05 -3.570148E+02 -1.923796E+04
       346  21 -1.111057E+06 -2.532881E+05 -2.800772E+04 -4.924918E+05 -5.057523E+03 -1.351799E+04
       346  22 -9.750542E+05 -2.041640E+05 -7.438013E+03 -4.547599E+05  1.430457E+04 -2.107277E+04
       346  23 -9.823073E+05 -1.965235E+05 -4.093473E+03 -4.462639E+05  9.846485E+03 -1.540559E+04
       346  24 -9.750176E+05 -2.040052E+05 -2.321743E+03 -4.548131E+05  5.342762E+03 -9.612853E+03
       346  25 -6.710310E+05 -9.407605E+04  4.946846E+04 -3.704579E+05  2.431687E+04 -1.731114E+04
       346  26 -7.622903E+05 -1.168577E+05  3.712446E+04 -3.852719E+05  2.005381E+04 -1.157180E+04
       346  27 -8.389599E+05 -1.547211E+05  2.336359E+04 -4.171271E+05  1.574539E+04 -5.706842E+03
       347   1 -1.055340E+06 -2.330598E+05 -1.660964E+04 -4.770680E+05  6.830756E+03  9.784244E+03
       347   2 -9.787403E+05 -1.951948E+05 -4.748113E+02 -4.451898E+05  9.903329E+03  3.389871E+03
       347   3 -8.873166E+05 -1.722438E+05  1.522026E+04 -4.303622E+05  1.297908E+04 -3.012769E+03
       347   4 -9.749626E+05 -2.040157E+05 -1.797603E+03 -4.547929E+05 -3.553502E+03  5.885446E+03
       347   5 -9.823727E+05 -1.965701E+05 -1.154806E+03 -4.462616E+05 -4.947062E+02 -5.141475E+02
       347   6 -9.749652E+05 -2.040375E+05 -9.416925E+02 -4.547845E+05  2.567174E+03 -6.922019E+03
       347   7 -8.945776E+05 -1.749706E+05  1.301487E+04 -4.325148E+05 -1.393930E+04  1.986077E+03
       347   8 -9.860048E+05 -1.979454E+05 -1.834341E+03 -4.473333E+05 -1.089273E+04 -4.418158E+03
       347   9 -1.062606E+06 -2.358305E+05 -1.710347E+04 -4.792034E+05 -7.843163E+03 -1.083068E+04
       347  10 -1.055340E+06 -2.330600E+05 -1.660991E+04 -4.770680E+05 -6.904209E-10 -1.089446E-09
       347  11 -9.787404E+05 -1.951948E+05 -4.750176E+02 -4.451898E+05  3.007759E-10 -2.705485E-10
       347  12 -8.873168E+05 -1.722438E+05  1.521992E+04 -4.303622E+05 -6.087982E-10 -2.061967E-10
       347  13 -9.749626E+05 -2.040157E+05 -1.797691E+03 -4.547929E+05  3.635623E-10 -1.122847E-09
       347  14 -9.823727E+05 -1.965701E+05 -1.154807E+03 -4.462616E+05  3.542990E-10 -8.653642E-10
       347  15 -9.749653E+05 -2.040376E+05 -9.417948E+02 -4.547844E+05  2.747278E-10  1.014400E-10
       347  16 -8.945778E+05 -1.749707E+05  1.301449E+04 -4.325148E+05  6.641466E-10 -6.179827E-10
       347  17 -9.860050E+05 -1.979455E+05 -1.834601E+03 -4.473333E+05  1.456694E-09 -1.530973E-10
       347  18 -1.062606E+06 -2.358306E+05 -1.710381E+04 -4.792035E+05  7.053646E-10  6.432720E-10
       347  19 -1.055340E+06 -2.330598E+05 -1.660964E+04 -4.770680E+05 -6.830756E+03 -9.784244E+03
       347  20 -9.787403E+05 -1.951948E+05 -4.748113E+02 -4.451898E+05 -9.903329E+03 -3.389871E+03
       347  21 -8.873166E+05 -1.722438E+05  1.522026E+04 -4.303622E+05 -1.297908E+04  3.012769E+03
       347  22 -9.749626E+05 -2.040157E+05 -1.797603E+03 -4.547929E+05  3.553502E+03 -5.885446E+03
       347  23 -9.823727E+05 -1.965701E+05 -1.154806E+03 -4.462616E+05  4.947062E+02  5.141475E+02
       347  24 -9.749652E+05 -2.040375E+05 -9.416925E+02 -4.547845E+05 -2.567174E+03  6.922019E+03
       347  25 -8.945776E+05 -1.749706E+05  1.301487E+04 -4.325148E+05  1.393930E+04 -1.986077E+03
       347  26 -9.860048E+05 -1.979454E+05 -1.834341E+03 -4.473333E+05  1.089273E+04  4.418158E+03
       347  27 -1.062606E+06 -2.358305E+05 -1.710347E+04 -4.792034E+05  7.843163E+03  1.083068E+04
       348   1 -8.316904E+05 -1.519806E+05  2.606711E+04 -4.149201E+05  1.458479E+04 -6.811373E+03
       348   2 -7.551527E+05 -1.141358E+05  4.122494E+04 -3.830624E+05  1.767851E+04 -1.320038E+04
       348   3 -6.638000E+05 -9.118800E+04  5.593066E+04 -3.682393E+05  2.076764E+04 -1.957328E+04
       348   4 -9.749721E+05 -2.040381E+05 -9.620243E+02 -4.547811E+05  4.174753E+03 -1.072025E+04
       348   5 -9.823804E+05 -1.965902E+05 -1.270278E+03 -4.462638E+05  7.292428E+03 -1.710139E+04
       348   6 -9.749854E+05 -2.040447E+05 -2.049746E+03 -4.547841E+05  1.040544E+04 -2.346647E+04
       348   7 -1.118231E+06 -2.560931E+05 -2.799116E+04 -4.946332E+05 -6.232614E+03 -1.462813E+04
       348   8 -1.209554E+06 -2.790397E+05 -4.376707E+04 -5.094435E+05 -3.089585E+03 -2.100087E+04
       348   9 -1.286072E+06 -3.168935E+05 -6.003423E+04 -5.412892E+05  4.869672E+01 -2.735760E+04
       348  10 -8.316906E+05 -1.519807E+05  2.606662E+04 -4.149200E+05 -7.037021E-11 -2.338430E-10
       348  11 -7.551531E+05 -1.141361E+05  4.122403E+04 -3.830622E+05  7.221619E-10  1.163180E-09
       348  12 -6.638005E+05 -9.118852E+04  5.592913E+04 -3.682390E+05  1.686958E-10  9.835693E-10
       348  13 -9.749721E+05 -2.040383E+05 -9.622729E+02 -4.547811E+05 -6.305015E-10  8.293703E-10
       348  14 -9.823806E+05 -1.965905E+05 -1.270927E+03 -4.462637E+05 -5.825970E-10  2.299590E-11
       348  15 -9.749857E+05 -2.040453E+05 -2.050983E+03 -4.547839E+05 -1.177198E-10  2.965019E-10
       348  16 -1.118231E+06 -2.560934E+05 -2.799164E+04 -4.946333E+05  6.161529E-10  8.577064E-10
       348  17 -1.209554E+06 -2.790401E+05 -4.376791E+04 -5.094436E+05 -1.214044E-09  1.294959E-09
       348  18 -1.286072E+06 -3.168943E+05 -6.003564E+04 -5.412892E+05 -9.235641E-10 -1.118902E-10
       348  19 -8.316904E+05 -1.519806E+05  2.606711E+04 -4.149201E+05 -1.458479E+04  6.811373E+03
       348  20 -7.551527E+05 -1.141358E+05  4.122494E+04 -3.830624E+05 -1.767851E+04  1.320038E+04
       348  21 -6.638000E+05 -9.118800E+04  5.593066E+04 -3.682393E+05 -2.076764E+04  1.957328E+04
       348  22 -9.749721E+05 -2.040381E+05 -9.620243E+02 -4.547811E+05 -4.174753E+03  1.072025E+04
       348  23 -9.823804E+05 -1.965902E+05 -1.270278E+03 -4.462638E+05 -7.292428E+03  1.710139E+04
       348  24 -9.749854E+05 -2.040447E+05 -2.049746E+03 -4.547841E+05 -1.040544E+04  2.346647E+04
       348  25 -1.118231E+06 -2.560931E+05 -2.799116E+04 -4.946332E+05  6.232614E+03  1.462813E+04
       348  26 -1.209554E+06 -2.790397E+05 -4.376707E+04 -5.094435E+05  3.089585E+03  2.100087E+04
       348  27 -1.286072E+06 -3.168935E+05 -6.003423E+04 -5.412892E+05 -4.869672E+01  2.735760E+04
       349   1 -6.082962E+05 -7.097004E+04  6.616504E+04 -3.528661E+05  2.262133E+04 -2.326632E+04
       349   2 -5.318302E+05 -3.319492E+04  7.960058E+04 -3.210674E+05  2.717921E+04 -2.899513E+04
       349   3 -4.408399E+05 -1.049124E+04  9.142251E+04 -3.062594E+05  3.167781E+04 -3.455819E+04
       349   4 -9.750601E+05 -2.040341E+05 -2.668488E+03 -4.548007E+05  1.224230E+04 -2.716684E+04
       349   5 -9.823230E+05 -1.965787E+05 -4.742116E+03 -4.462697E+05  1.705751E+04 -3.280118E+04
       349   6 -9.751195E+05 -2.042475E+05 -8.634311E+03 -4.547335E+05  2.181311E+04 -3.826980E+04
       349   7 -1.341683E+06 -3.370857E+05 -7.150687E+04 -5.566792E+05  1.869834E+03 -3.106491E+04
       349   8 -1.432601E+06 -3.599430E+05 -8.909177E+04 -5.713870E+05  6.943725E+03 -3.660428E+04
       349   9 -1.509095E+06 -3.979756E+05 -1.087006E+05 -6.030872E+05  1.195758E+04 -4.197799E+04
       349  10 -6.082969E+05 -7.097075E+04  6.616307E+04 -3.528657E+05 -2.980866E-10  4.915961E-10
       349  11 -5.318312E+05 -3.319602E+04  7.959761E+04 -3.210667E+05 -4.832554E-10 -2.296366E-10
       349  12 -4.408413E+05 -1.049279E+04  9.141838E+04 -3.062586E+05 -5.451463E-10 -1.173468E-09
       349  13 -9.750605E+05 -2.040349E+05 -2.670156E+03 -4.548004E+05 -6.271648E-10  7.340745E-10
       349  14 -9.823236E+05 -1.965799E+05 -4.744683E+03 -4.462693E+05 -1.923316E-12 -4.669424E-12
       349  15 -9.751204E+05 -2.042492E+05 -8.637956E+03 -4.547328E+05  8.163518E-10 -1.099275E-09
       349  16 -1.341683E+06 -3.370868E+05 -7.150869E+04 -5.566791E+05 -8.272272E-10  3.106241E-10
       349  17 -1.432602E+06 -3.599445E+05 -8.909438E+04 -5.713868E+05  2.023065E-09 -1.273598E-09
       349  18 -1.509096E+06 -3.979775E+05 -1.087042E+05 -6.030868E+05  1.801138E-10  2.174200E-09
       349  19 -6.082962E+05 -7.097004E+04  6.616504E+04 -3.528661E+05 -2.262133E+04  2.326632E+04
       349  20 -5.318302E+05 -3.319492E+04  7.960058E+04 -3.210674E+05 -2.717921E+04  2.899513E+04
       349  21 -4.408399E+05 -1.049124E+04  9.142251E+04 -3.062594E+05 -3.167781E+04  3.455819E+04
       349  22 -9.750601E+05 -2.040341E+05 -2.668488E+03 -4.548007E+05 -1.224230E+04  2.716684E+04
       349  23 -9.823230E+05 -1.965787E+05 -4.742116E+03 -4.462697E+05 -1.705751E+04  3.280118E+04
       349  24 -9.751195E+05 -2.042475E+05 -8.634311E+03 -4.547335E+05 -2.181311E+04  3.826980E+04
       349  25 -1.341683E+06 -3.370857E+05 -7.150687E+04 -5.566792E+05 -1.869834E+03  3.106491E+04
       349  26 -1.432601E+06 -3.599430E+05 -8.909177E+04 -5.713870E+05 -6.943725E+03  3.660428E+04
       349  27 -1.509095E+06 -3.979756E+05 -1.087006E+05 -6.030872E+05 -1.195758E+04  4.197799E+04
       350   1 -3.853216E+05  9.336291E+03  9.946521E+04 -2.917562E+05  3.501137E+04 -3.762634E+04
       350   2 -3.099556E+05  4.766375E+04  1.065453E+05 -2.576826E+05  4.444341E+04 -4.030351E+04
       350   3 -2.225686E+05  6.649023E+04  1.068656E+05 -2.394223E+05  5.311641E+04 -4.095118E+04
       350   4 -9.756305E+05 -2.040541E+05 -1.148359E+04 -4.549685E+05  2.483910E+04 -4.145516E+04
       350   5 -9.818557E+05 -1.976000E+05 -2.098599E+04 -4.457105E+05  3.744921E+04 -4.294028E+04
       350   6 -9.767020E+05 -2.112845E+05 -3.977628E+04 -4.522713E+05  4.929875E+04 -4.239510E+04
       350   7 -1.565580E+06 -4.174154E+05 -1.224474E+05 -6.180382E+05  1.467709E+04 -4.528018E+04
       350   8 -1.653288E+06 -4.428228E+05 -1.485365E+05 -6.335498E+05  3.046307E+04 -4.557399E+04
       350   9 -1.730244E+06 -4.890051E+05 -1.864434E+05 -6.648792E+05  4.548605E+04 -4.383712E+04
       350  10 -3.853233E+05  9.334443E+03  9.946024E+04 -2.917552E+05 -2.182174E-08 -1.002925E-08
       350  11 -3.099582E+05  4.766147E+04  1.065385E+05 -2.576811E+05 -2.243270E-09 -3.692991E-09
       350  12 -2.225720E+05  6.648767E+04  1.068572E+05 -2.394206E+05  2.181099E-08  8.773281E-09
       350  13 -9.756316E+05 -2.040561E+05 -1.148798E+04 -4.549676E+05 -5.168737E-10 -2.905293E-09
       350  14 -9.818577E+05 -1.976023E+05 -2.099209E+04 -4.457092E+05 -3.761657E-09 -4.509010E-09
       350  15 -9.767051E+05 -2.112871E+05 -3.978422E+04 -4.522696E+05 -4.043017E-10 -2.755490E-09
       350  16 -1.565581E+06 -4.174177E+05 -1.224517E+05 -6.180377E+05  1.775601E-08  8.110583E-09
       350  17 -1.653289E+06 -4.428252E+05 -1.485422E+05 -6.335487E+05 -7.359985E-09 -4.867200E-09
       350  18 -1.730247E+06 -4.890078E+05 -1.864509E+05 -6.648775E+05 -2.432227E-08 -1.204102E-08
       350  19 -3.853216E+05  9.336291E+03  9.946521E+04 -2.917562E+05 -3.501137E+04  3.762634E+04
       350  20 -3.099556E+05  4.766375E+04  1.065453E+05 -2.576826E+05 -4.444341E+04  4.030351E+04
       350  21 -2.225686E+05  6.649023E+04  1.068656E+05 -2.394223E+05 -5.311641E+04  4.095118E+04
       350  22 -9.756305E+05 -2.040541E+05 -1.148359E+04 -4.549685E+05 -2.483910E+04  4.145516E+04
       350  23 -9.818557E+05 -1.976000E+05 -2.098599E+04 -4.457105E+05 -3.744921E+04  4.294028E+04
       350  24 -9.767020E+05 -2.112845E+05 -3.977628E+04 -4.522713E+05 -4.929875E+04  4.239510E+04
       350  25 -1.565580E+06 -4.174154E+05 -1.224474E+05 -6.180382E+05 -1.467709E+04  4.528018E+04
       350  26 -1.653288E+06 -4.428228E+05 -1.485365E+05 -6.335498E+05 -3.046307E+04  4.557399E+04
       350  27 -1.730244E+06 -4.890051E+05 -1.864434E+05 -6.648792E+05 -4.548605E+04  4.383712E+04
       351   1 -1.615080E+05  7.956029E+04  1.060044E+05 -2.404844E+05  6.439261E+04 -4.033337E+04
       351   2 -1.194962E+05  1.338286E+05  9.056674E+04 -1.447506E+05  7.249886E+04 -2.819269E+04
       351   3 -1.043851E+05  7.158922E+04  3.853016E+04 -3.667166E+04  7.083028E+04  9.886028E+03
       351   4 -9.832182E+05 -2.076622E+05 -5.248389E+04 -4.561320E+05  5.646701E+04 -4.332354E+04
       351   5 -9.775722E+05 -2.285771E+05 -9.914042E+04 -4.309883E+05  1.053133E+05 -1.584705E+04
       351   6 -1.006980E+06 -3.741932E+05 -2.147591E+05 -3.934914E+05  1.443729E+05  3.758143E+04
       351   7 -1.804227E+06 -4.948381E+05 -2.110010E+05 -6.715204E+05  4.855267E+04 -4.630989E+04
       351   8 -1.834872E+06 -5.908464E+05 -2.888831E+05 -7.168325E+05  1.380784E+05 -3.526255E+03
       351   9 -1.908711E+06 -8.197140E+05 -4.680908E+05 -7.497685E+05  2.177967E+05  6.520027E+04
       351  10 -1.615129E+05  7.955743E+04  1.059936E+05 -2.404823E+05  2.781159E-08  1.099469E-08
       351  11 -1.195020E+05  1.338263E+05  9.055537E+04 -1.447489E+05 -5.485659E-10 -1.713525E-09
       351  12 -1.043905E+05  7.158776E+04  3.852055E+04 -3.667222E+04 -2.646966E-08 -9.310998E-09
       351  13 -9.832222E+05 -2.076651E+05 -5.249341E+04 -4.561300E+05 -8.969659E-10 -1.778079E-09
       351  14 -9.775842E+05 -2.285803E+05 -9.916176E+04 -4.309870E+05 -1.010848E-09  4.282527E-09
       351  15 -1.007003E+06 -3.742003E+05 -2.148010E+05 -3.934958E+05 -8.336541E-10  2.623852E-09
       351  16 -1.804230E+06 -4.948410E+05 -2.110095E+05 -6.715186E+05 -2.795646E-08 -1.278962E-08
       351  17 -1.834892E+06 -5.908515E+05 -2.889191E+05 -7.168322E+05 -4.898578E-09 -1.477836E-09
       351  18 -1.908763E+06 -8.197314E+05 -4.681883E+05 -7.497800E+05  2.470742E-08  9.511500E-09
       351  19 -1.615080E+05  7.956029E+04  1.060044E+05 -2.404844E+05 -6.439261E+04  4.033337E+04
       351  20 -1.194962E+05  1.338286E+05  9.056674E+04 -1.447506E+05 -7.249886E+04  2.819269E+04
       351  21 -1.043851E+05  7.158922E+04  3.853016E+04 -3.667166E+04 -7.083028E+04 -9.886028E+03
       351  22 -9.832182E+05 -2.076622E+05 -5.248389E+04 -4.561320E+05 -5.646701E+04  4.332354E+04
       351  23 -9.775722E+05 -2.285771E+05 -9.914042E+04 -4.309883E+05 -1.053133E+05  1.584705E+04
       351  24 -1.006980E+06 -3.741932E+05 -2.147591E+05 -3.934914E+05 -1.443729E+05 -3.758143E+04
       351  25 -1.804227E+06 -4.948381E+05 -2.110010E+05 -6.715204E+05 -4.855267E+04  4.630989E+04
       351  26 -1.834872E+06 -5.908464E+05 -2.888831E+05 -7.168325E+05 -1.380784E+05  3.526255E+03
       351  27 -1.908711E+06 -8.197140E+05 -4.680908E+05 -7.497685E+05 -2.177967E+05 -6.520027E+04
       352   1 -3.489544E+04  6.679544E+03 -2.765247E+04 -3.515105E+04 -1.007507E+05 -7.256286E+03
       352   2 -5.289096E+04  1.435258E+05  4.965280E+04 -6.472513E+03 -7.053155E+04 -2.218274E+04
       352   3 -1.117229E+05  1.324160E+05  7.033827E+04  4.181039E+04 -4.034071E+04 -2.248958E+04
       352   4 -6.185984E+05 -1.384034E+05 -1.702590E+05  2.084770E+04 -1.167171E+05 -7.293195E+03
       352   5 -5.972217E+05  9.549932E+03 -7.612714E+04  1.091005E+04 -7.600753E+04 -2.219671E+04
       352   6 -6.185464E+05  7.648819E+03 -4.594154E+04  2.057896E+04 -3.532364E+04 -2.247866E+04
       352   7 -1.201983E+06 -2.834994E+05 -3.128878E+05  7.679354E+04 -1.326685E+05 -7.333007E+03
       352   8 -1.141278E+06 -1.244456E+05 -2.019266E+05  2.827711E+04 -8.147873E+04 -2.221100E+04
       352   9 -1.125131E+06 -1.171346E+05 -1.622380E+05 -6.351097E+02 -3.031062E+04 -2.246807E+04
       352  10 -3.490635E+04  6.676762E+03 -2.767164E+04 -3.515164E+04 -3.529532E-10  6.435338E-11
       352  11 -5.289644E+04  1.435240E+05  4.964252E+04 -6.473773E+03 -7.524917E-10 -2.683984E-09
       352  12 -1.117248E+05  1.324150E+05  7.033426E+04  4.180966E+04  2.200501E-09 -3.552363E-09
       352  13 -6.186130E+05 -1.384071E+05 -1.702848E+05  2.084701E+04  6.868557E-10  1.536296E-09
       352  14 -5.972281E+05  9.547850E+03 -7.613893E+04  1.090869E+04 -1.019603E-09 -1.315187E-09
       352  15 -6.185478E+05  7.647941E+03 -4.594484E+04  2.057832E+04 -9.244303E-10  1.010740E-10
       352  16 -1.202002E+06 -2.835042E+05 -3.129210E+05  7.679276E+04 -1.058024E-09  9.021327E-10
       352  17 -1.141285E+06 -1.244479E+05 -2.019400E+05  2.827566E+04  7.242760E-10 -4.668460E-09
       352  18 -1.125132E+06 -1.171354E+05 -1.622407E+05 -6.356585E+02 -1.973167E-09 -6.088381E-09
       352  19 -3.489544E+04  6.679544E+03 -2.765247E+04 -3.515105E+04  1.007507E+05  7.256286E+03
       352  20 -5.289096E+04  1.435258E+05  4.965280E+04 -6.472513E+03  7.053155E+04  2.218274E+04
       352  21 -1.117229E+05  1.324160E+05  7.033827E+04  4.181039E+04  4.034071E+04  2.248958E+04
       352  22 -6.185984E+05 -1.384034E+05 -1.702590E+05  2.084770E+04  1.167171E+05  7.293195E+03
       352  23 -5.972217E+05  9.549932E+03 -7.612714E+04  1.091005E+04  7.600753E+04  2.219671E+04
       352  24 -6.185464E+05  7.648819E+03 -4.594154E+04  2.057896E+04  3.532364E+04  2.247866E+04
       352  25 -1.201983E+06 -2.834994E+05 -3.128878E+05  7.679354E+04  1.326685E+05  7.333007E+03
       352  26 -1.141278E+06 -1.244456E+05 -2.019266E+05  2.827711E+04  8.147873E+04  2.221100E+04
       352  27 -1.125131E+06 -1.171346E+05 -1.622380E+05 -6.351097E+02  3.031062E+04  2.246807E+04
       353   1 -1.402005E+05  1.053334E+05  7.131786E+04  1.812928E+04 -2.907161E+04 -1.964959E+04
       353   2 -1.770174E+05  1.069041E+05  7.954122E+04  1.057222E+04 -1.970668E+04 -1.855223E+04
       353   3 -2.178929E+05  9.719575E+04  7.884372E+04  2.335848E+04 -1.034500E+04 -1.671948E+04
       353   4 -6.099803E+05 -1.030494E+04 -3.699251E+04  2.083844E+04 -2.854709E+04 -1.964959E+04
       353   5 -6.078961E+05  8.771570E+02 -1.955036E+04  1.065311E+04 -1.865958E+04 -1.855058E+04
       353   6 -6.099657E+05  6.847036E+02 -1.139702E+04  2.081210E+04 -8.774716E+03 -1.671602E+04
       353   7 -1.079556E+06 -1.259587E+05 -1.453176E+05  2.354542E+04 -2.802296E+04 -1.964958E+04
       353   8 -1.038603E+06 -1.051628E+05 -1.186542E+05  1.073384E+04 -1.761319E+04 -1.854892E+04
       353   9 -1.001896E+06 -9.583707E+04 -1.016479E+05  1.826726E+04 -7.205412E+03 -1.671257E+04
       353  10 -1.402015E+05  1.053327E+05  7.131555E+04  1.812882E+04 -1.489157E-09 -5.043902E-09
       353  11 -1.770179E+05  1.069037E+05  7.953985E+04  1.057192E+04 -1.830003E-09  1.726290E-09
       353  12 -2.178931E+05  9.719542E+04  7.884299E+04  2.335834E+04 -2.037748E-09  2.888265E-09
       353  13 -6.099813E+05 -1.030557E+04 -3.699477E+04  2.083799E+04  1.742818E-09 -4.270413E-09
       353  14 -6.078966E+05  8.766940E+02 -1.955166E+04  1.065283E+04 -1.045212E-09 -9.276937E-10
       353  15 -6.099659E+05  6.843830E+02 -1.139769E+04  2.081199E+04 -5.175458E-10 -2.209111E-09
       353  16 -1.079557E+06 -1.259593E+05 -1.453198E+05  2.354498E+04 -2.512714E-10 -1.187015E-09
       353  17 -1.038603E+06 -1.051633E+05 -1.186555E+05  1.073357E+04  1.193753E-10  7.281059E-10
       353  18 -1.001896E+06 -9.583739E+04 -1.016486E+05  1.826716E+04  2.570581E-09  1.286956E-09
       353  19 -1.402005E+05  1.053334E+05  7.131786E+04  1.812928E+04  2.907161E+04  1.964959E+04
       353  20 -1.770174E+05  1.069041E+05  7.954122E+04  1.057222E+04  1.970668E+04  1.855223E+04
       353  21 -2.178929E+05  9.719575E+04  7.884372E+04  2.335848E+04  1.034500E+04  1.671948E+04
       353  22 -6.099803E+05 -1.030494E+04 -3.699251E+04  2.083844E+04  2.854709E+04  1.964959E+04
       353  23 -6.078961E+05  8.771570E+02 -1.955036E+04  1.065311E+04  1.865958E+04  1.855058E+04
       353  24 -6.099657E+05  6.847036E+02 -1.139702E+04  2.081210E+04  8.774716E+03  1.671602E+04
       353  25 -1.079556E+06 -1.259587E+05 -1.453176E+05  2.354542E+04  2.802296E+04  1.964958E+04
       353  26 -1.038603E+06 -1.051628E+05 -1.186542E+05  1.073384E+04  1.761319E+04  1.854892E+04
       353  27 -1.001896E+06 -9.583707E+04 -1.016479E+05  1.826726E+04  7.205412E+03  1.671257E+04
       354   1 -2.545975E+05  8.659328E+04  7.261466E+04  2.155044E+04 -8.354231E+03 -1.550584E+04
       354   2 -2.936665E+05  7.771034E+04  6.751005E+04  1.130398E+04 -5.921683E+03 -1.360118E+04
       354   3 -3.333305E+05  6.807517E+04  6.061272E+04  2.169041E+04 -3.490364E+03 -1.165260E+04
       354   4 -6.091701E+05 -6.416744E+02 -8.812960E+03  2.088553E+04 -7.001250E+03 -1.550275E+04
       354   5 -6.088651E+05  1.428230E+02 -4.961357E+03  1.056761E+04 -4.538402E+03 -1.359769E+04
       354   6 -6.091624E+05  1.695521E+02 -2.924269E+03  2.088323E+04 -2.076631E+03 -1.164870E+04
       354   7 -9.636262E+05 -8.788541E+04 -9.024888E+04  2.022093E+04 -5.649034E+03 -1.549965E+04
       354   8 -9.239717E+05 -7.743163E+04 -7.743934E+04  9.831546E+03 -3.155817E+03 -1.359420E+04
       354   9 -8.849239E+05 -6.774139E+04 -6.646631E+04  2.007635E+04 -6.635215E+02 -1.164481E+04
       354  10 -2.545977E+05  8.659300E+04  7.261408E+04  2.155034E+04 -1.196834E-09  4.693701E-09
       354  11 -2.936666E+05  7.771013E+04  6.750964E+04  1.130391E+04 -1.926357E-09  1.965535E-09
       354  12 -3.333306E+05  6.807502E+04  6.061245E+04  2.169038E+04  3.442219E-09 -2.080715E-09
       354  13 -6.091702E+05 -6.419456E+02 -8.813504E+03  2.088545E+04  1.346669E-09 -2.505424E-09
       354  14 -6.088652E+05  1.426190E+02 -4.961743E+03  1.056756E+04 -4.673579E-10  4.198700E-09
       354  15 -6.091625E+05  1.694052E+02 -2.924532E+03  2.088321E+04 -1.362968E-09  5.579599E-09
       354  16 -9.636263E+05 -8.788567E+04 -9.024939E+04  2.022086E+04 -5.367297E-10  3.329132E-09
       354  17 -9.239718E+05 -7.743183E+04 -7.743970E+04  9.831512E+03  2.535885E-11  5.406925E-09
       354  18 -8.849239E+05 -6.774154E+04 -6.646656E+04  2.007634E+04 -1.881795E-09  1.769156E-09
       354  19 -2.545975E+05  8.659328E+04  7.261466E+04  2.155044E+04  8.354231E+03  1.550584E+04
       354  20 -2.936665E+05  7.771034E+04  6.751005E+04  1.130398E+04  5.921683E+03  1.360118E+04
       354  21 -3.333305E+05  6.807517E+04  6.061272E+04  2.169041E+04  3.490364E+03  1.165260E+04
       354  22 -6.091701E+05 -6.416744E+02 -8.812960E+03  2.088553E+04  7.001250E+03  1.550275E+04
       354  23 -6.088651E+05  1.428230E+02 -4.961357E+03  1.056761E+04  4.538402E+03  1.359769E+04
       354  24 -6.091624E+05  1.695521E+02 -2.924269E+03  2.088323E+04  2.076631E+03  1.164870E+04
       354  25 -9.636262E+05 -8.788541E+04 -9.024888E+04  2.022093E+04  5.649034E+03  1.549965E+04
       354  26 -9.239717E+05 -7.743163E+04 -7.743934E+04  9.831546E+03  3.155817E+03  1.359420E+04
       354  27 -8.849239E+05 -6.774139E+04 -6.646631E+04  2.007635E+04  6.635215E+02  1.164481E+04
       355   1 -3.711695E+05  5.860501E+04  5.229895E+04  2.151705E+04 -3.018442E+03 -1.050970E+04
       355   2 -4.107954E+05  4.885201E+04  4.410261E+04  1.100911E+04 -2.305230E+03 -8.550138E+03
       355   3 -4.506384E+05  3.915912E+04  3.542522E+04  2.132709E+04 -1.592709E+03 -6.583886E+03
       355   4 -6.090727E+05  7.932898E+01 -2.287235E+03  2.092685E+04 -1.611765E+03 -1.050566E+04
       355   5 -6.089605E+05  8.185241E+01 -1.462396E+03  1.051358E+04 -8.940353E+02 -8.545885E+03
       355   6 -6.090683E+05  1.436085E+02 -1.121971E+03  2.092663E+04 -1.769506E+02 -6.579415E+03
       355   7 -8.469234E+05 -5.845030E+04 -5.687714E+04  2.033684E+04 -2.056229E+02 -1.050162E+04
       355   8 -8.070892E+05 -4.869105E+04 -4.702999E+04  1.001818E+04  5.167128E+02 -8.541633E+03
       355   9 -7.674749E+05 -3.887367E+04 -3.767083E+04  2.052626E+04  1.238449E+03 -6.574945E+03
       355  10 -3.711695E+05  5.860489E+04  5.229872E+04  2.151703E+04  3.547997E-09 -6.754190E-10
       355  11 -4.107955E+05  4.885193E+04  4.410246E+04  1.100909E+04 -1.557014E-10  7.545647E-09
       355  12 -4.506384E+05  3.915908E+04  3.542514E+04  2.132708E+04 -9.245339E-12  7.560451E-09
       355  13 -6.090727E+05  7.920980E+01 -2.287448E+03  2.092684E+04  1.644510E-09 -8.808869E-10
       355  14 -6.089605E+05  8.177379E+01 -1.462535E+03  1.051357E+04 -2.934602E-09  5.943460E-09
       355  15 -6.090683E+05  1.435620E+02 -1.122052E+03  2.092663E+04 -2.849023E-09  1.771675E-09
       355  16 -8.469234E+05 -5.845042E+04 -5.687735E+04  2.033684E+04 -5.227895E-09  1.308616E-09
       355  17 -8.070892E+05 -4.869113E+04 -4.703013E+04  1.001819E+04 -2.220768E-09 -1.876960E-09
       355  18 -7.674749E+05 -3.887371E+04 -3.767091E+04  2.052627E+04  9.113811E-10 -2.312273E-09
       355  19 -3.711695E+05  5.860501E+04  5.229895E+04  2.151705E+04  3.018442E+03  1.050970E+04
       355  20 -4.107954E+05  4.885201E+04  4.410261E+04  1.100911E+04  2.305230E+03  8.550138E+03
       355  21 -4.506384E+05  3.915912E+04  3.542522E+04  2.132709E+04  1.592709E+03  6.583886E+03
       355  22 -6.090727E+05  7.932898E+01 -2.287235E+03  2.092685E+04  1.611765E+03  1.050566E+04
       355  23 -6.089605E+05  8.185241E+01 -1.462396E+03  1.051358E+04  8.940353E+02  8.545885E+03
       355  24 -6.090683E+05  1.436085E+02 -1.121971E+03  2.092663E+04  1.769506E+02  6.579415E+03
       355  25 -8.469234E+05 -5.845030E+04 -5.687714E+04  2.033684E+04  2.056229E+02  1.050162E+04
       355  26 -8.070892E+05 -4.869105E+04 -4.702999E+04  1.001818E+04 -5.167128E+02  8.541633E+03
       355  27 -7.674749E+05 -3.887367E+04 -3.767083E+04  2.052626E+04 -1.238449E+03  6.574945E+03
       356   1 -4.888388E+05  2.970990E+04  2.644036E+04  2.124092E+04 -1.398440E+03 -5.437245E+03
       356   2 -5.286562E+05  1.985260E+04  1.718970E+04  1.066357E+04 -7.750430E+02 -3.464473E+03
       356   3 -5.687030E+05  1.007166E+04  7.514114E+03  2.102083E+04 -1.519310E+02 -1.490560E+03
       356   4 -6.090680E+05  1.424880E+02 -1.088905E+03  2.095074E+04  1.920707E+01 -5.432676E+03
       356   5 -6.089520E+05  8.986501E+01 -1.274300E+03  1.048340E+04  6.433150E+02 -3.459823E+03
       356   6 -6.090664E+05  1.137387E+02 -1.884923E+03  2.095083E+04  1.267178E+03 -1.485824E+03
       356   7 -7.292838E+05 -2.942593E+04 -2.861911E+04  2.066062E+04  1.436582E+03 -5.428109E+03
       356   8 -6.892418E+05 -1.967332E+04 -1.973872E+04  1.030325E+04  2.061491E+03 -3.455174E+03
       356   9 -6.494283E+05 -9.844302E+03 -1.128406E+04  2.088083E+04  2.686195E+03 -1.481087E+03
       356  10 -4.888388E+05  2.970987E+04  2.644030E+04  2.124091E+04  7.552751E-09  2.289646E-09
       356  11 -5.286562E+05  1.985258E+04  1.718968E+04  1.066357E+04  7.739611E-10 -1.551231E-09
       356  12 -5.687030E+05  1.007166E+04  7.514110E+03  2.102083E+04 -5.787111E-10 -2.879840E-09
       356  13 -6.090680E+05  1.424563E+02 -1.088960E+03  2.095074E+04  1.316931E-09  8.706316E-09
       356  14 -6.089520E+05  8.985204E+01 -1.274324E+03  1.048340E+04 -2.522250E-09  2.818209E-09
       356  15 -6.090664E+05  1.137359E+02 -1.884930E+03  2.095083E+04 -2.714542E-09 -4.064607E-09
       356  16 -7.292838E+05 -2.942596E+04 -2.861917E+04  2.066062E+04 -8.203172E-09  2.967112E-09
       356  17 -6.892418E+05 -1.967333E+04 -1.973875E+04  1.030326E+04 -2.995337E-09 -8.113450E-10
       356  18 -6.494283E+05 -9.844306E+03 -1.128408E+04  2.088083E+04  1.168541E-09 -4.556277E-09
       356  19 -4.888388E+05  2.970990E+04  2.644036E+04  2.124092E+04  1.398440E+03  5.437245E+03
       356  20 -5.286562E+05  1.985260E+04  1.718970E+04  1.066357E+04  7.750430E+02  3.464473E+03
       356  21 -5.687030E+05  1.007166E+04  7.514114E+03  2.102083E+04  1.519310E+02  1.490560E+03
       356  22 -6.090680E+05  1.424880E+02 -1.088905E+03  2.095074E+04 -1.920707E+01  5.432676E+03
       356  23 -6.089520E+05  8.986501E+01 -1.274300E+03  1.048340E+04 -6.433150E+02  3.459823E+03
       356  24 -6.090664E+05  1.137387E+02 -1.884923E+03  2.095083E+04 -1.267178E+03  1.485824E+03
       356  25 -7.292838E+05 -2.942593E+04 -2.861911E+04  2.066062E+04 -1.436582E+03  5.428109E+03
       356  26 -6.892418E+05 -1.967332E+04 -1.973872E+04  1.030325E+04 -2.061491E+03  3.455174E+03
       356  27 -6.494283E+05 -9.844302E+03 -1.128406E+04  2.088083E+04 -2.686195E+03  1.481087E+03
       357   1 -6.070852E+05  6.667453E+02 -2.023736E+03  2.081536E+04  2.211552E+02 -3.378855E+02
       357   2 -6.467606E+05 -9.175796E+03 -1.269342E+04  1.033883E+04  2.206965E+03  1.639723E+03
       357   3 -6.870079E+05 -1.958656E+04 -2.483789E+04  2.081287E+04  4.192829E+03  3.596731E+03
       357   4 -6.091416E+05  1.852138E+02 -2.379223E+03  2.095361E+04  1.646623E+03 -3.331135E+02
       357   5 -6.088571E+05  1.544800E+02 -3.975879E+03  1.047941E+04  3.617688E+03  1.644405E+03
       357   6 -6.091433E+05 -4.417523E+02 -7.036850E+03  2.095570E+04  5.588933E+03  3.601328E+03
       357   7 -6.111980E+05 -2.963167E+02 -2.734703E+03  2.109186E+04  3.072086E+03 -3.283408E+02
       357   8 -5.709522E+05  9.484656E+03  4.741579E+03  1.062000E+04  5.028496E+03  1.649087E+03
       357   9 -5.312730E+05  1.870264E+04  1.076380E+04  2.109855E+04  6.985211E+03  3.605926E+03
       357  10 -6.070852E+05  6.667452E+02 -2.023736E+03  2.081536E+04 -4.504471E-09  1.774196E-09
       357  11 -6.467606E+05 -9.175800E+03 -1.269344E+04  1.033883E+04 -3.164091E-09  1.520120E-09
       357  12 -6.870079E+05 -1.958658E+04 -2.483795E+04  2.081285E+04  4.465673E-10  1.641037E-09
       357  13 -6.091416E+05  1.852130E+02 -2.379228E+03  2.095361E+04  1.780272E-09 -2.968521E-10
       357  14 -6.088571E+05  1.544735E+02 -3.975909E+03  1.047941E+04 -1.501977E-09  2.157377E-09
       357  15 -6.091433E+05 -4.417746E+02 -7.036933E+03  2.095568E+04 -9.858774E-10  3.501040E-09
       357  16 -6.111980E+05 -2.963193E+02 -2.734721E+03  2.109186E+04  2.856221E-09  2.271458E-09
       357  17 -5.709523E+05  9.484646E+03  4.741526E+03  1.061999E+04  1.274279E-09 -7.472881E-09
       357  18 -5.312731E+05  1.870261E+04  1.076368E+04  2.109853E+04  1.521472E-09 -1.073152E-09
       357  19 -6.070852E+05  6.667453E+02 -2.023736E+03  2.081536E+04 -2.211552E+02  3.378855E+02
       357  20 -6.467606E+05 -9.175796E+03 -1.269342E+04  1.033883E+04 -2.206965E+03 -1.639723E+03
       357  21 -6.870079E+05 -1.958656E+04 -2.483789E+04  2.081287E+04 -4.192829E+03 -3.596731E+03
       357  22 -6.091416E+05  1.852138E+02 -2.379223E+03  2.095361E+04 -1.646623E+03  3.331135E+02
       357  23 -6.088571E+05  1.544800E+02 -3.975879E+03  1.047941E+04 -3.617688E+03 -1.644405E+03
       357  24 -6.091433E+05 -4.417523E+02 -7.036850E+03  2.095570E+04 -5.588933E+03 -3.601328E+03
       357  25 -6.111980E+05 -2.963167E+02 -2.734703E+03  2.109186E+04 -3.072086E+03  3.283408E+02
       357  26 -5.709522E+05  9.484656E+03  4.741579E+03  1.062000E+04 -5.028496E+03 -1.649087E+03
       357  27 -5.312730E+05  1.870264E+04  1.076380E+04  2.109855E+04 -6.985211E+03 -3.605926E+03
       358   1 -7.258938E+05 -2.800000E+04 -3.590697E+04  1.923985E+04  5.485664E+03  4.795194E+03
       358   2 -7.639882E+05 -3.762534E+04 -5.145230E+04  1.082510E+04  1.364689E+04  6.728587E+03
       358   3 -8.055670E+05 -5.632187E+04 -7.461811E+04  2.329211E+04  2.180915E+04  8.259019E+03
       358   4 -6.097813E+05  6.147769E+02 -9.093639E+03  2.093097E+04  7.003201E+03  4.800140E+03
       358   5 -6.080677E+05  7.541341E+02 -1.557592E+04  1.050413E+04  1.487631E+04  6.732411E+03
       358   6 -6.097892E+05 -8.126218E+03 -2.947690E+04  2.095887E+04  2.275096E+04  8.261717E+03
       358   7 -4.936562E+05  2.922862E+04  1.771881E+04  2.262239E+04  8.521020E+03  4.805093E+03
       358   8 -4.521246E+05  3.913191E+04  2.029885E+04  1.018305E+04  1.610603E+04  6.736232E+03
       358   9 -4.139759E+05  4.006677E+04  1.566176E+04  1.862486E+04  2.369306E+04  8.264407E+03
       358  10 -7.258939E+05 -2.800003E+04 -3.590707E+04  1.923983E+04 -6.693448E-09  6.374764E-09
       358  11 -7.639884E+05 -3.762544E+04 -5.145274E+04  1.082503E+04 -9.648065E-10  2.541273E-09
       358  12 -8.055675E+05 -5.632207E+04 -7.461913E+04  2.329197E+04  6.023247E-09  6.060431E-09
       358  13 -6.097813E+05  6.147390E+02 -9.093775E+03  2.093094E+04  2.258425E-09  3.817246E-09
       358  14 -6.080679E+05  7.540260E+02 -1.557642E+04  1.050405E+04 -2.000459E-09  6.560067E-09
       358  15 -6.097898E+05 -8.126430E+03 -2.947801E+04  2.095872E+04 -3.188498E-10  1.742161E-09
       358  16 -4.936563E+05  2.922857E+04  1.771863E+04  2.262236E+04  3.609046E-09  2.215313E-09
       358  17 -4.521249E+05  3.913179E+04  2.029828E+04  1.018296E+04 -4.151586E-10  9.429024E-10
       358  18 -4.139765E+05  4.006655E+04  1.566058E+04  1.862470E+04 -4.205975E-09 -6.755426E-09
       358  19 -7.258938E+05 -2.800000E+04 -3.590697E+04  1.923985E+04 -5.485664E+03 -4.795194E+03
       358  20 -7.639882E+05 -3.762534E+04 -5.145230E+04  1.082510E+04 -1.364689E+04 -6.728587E+03
       358  21 -8.055670E+05 -5.632187E+04 -7.461811E+04  2.329211E+04 -2.180915E+04 -8.259019E+03
       358  22 -6.097813E+05  6.147769E+02 -9.093639E+03  2.093097E+04 -7.003201E+03 -4.800140E+03
       358  23 -6.080677E+05  7.541341E+02 -1.557592E+04  1.050413E+04 -1.487631E+04 -6.732411E+03
       358  24 -6.097892E+05 -8.126218E+03 -2.947690E+04  2.095887E+04 -2.275096E+04 -8.261717E+03
       358  25 -4.936562E+05  2.922862E+04  1.771881E+04  2.262239E+04 -8.521020E+03 -4.805093E+03
       358  26 -4.521246E+05  3.913191E+04  2.029885E+04  1.018305E+04 -1.610603E+04 -6.736232E+03
       358  27 -4.139759E+05  4.006677E+04  1.566176E+04  1.862486E+04 -2.369306E+04 -8.264407E+03
       359   1 -8.504411E+05 -5.148759E+04 -9.032142E+04  3.996672E+03  2.472940E+04  1.035170E+04
       359   2 -8.726298E+05 -5.951323E+04 -1.237999E+05  2.449447E+04  6.292486E+04  1.118228E+04
       359   3 -9.300212E+05 -1.879412E+05 -2.122930E+05  6.564271E+04  1.011416E+05  3.948487E+03
       359   4 -6.166187E+05  6.180700E+03 -3.660719E+04  2.079203E+04  2.814986E+04  1.036271E+04
       359   5 -5.995474E+05  7.677658E+03 -6.064482E+04  1.063644E+04  6.055540E+04  1.117341E+04
       359   6 -6.166584E+05 -1.101958E+05 -1.356568E+05  2.113321E+04  9.298495E+04  3.917532E+03
       359   7 -3.827449E+05  6.384621E+04  1.710361E+04  3.759374E+04  3.157161E+04  1.037389E+04
       359   8 -3.263954E+05  7.486406E+04  2.505417E+03 -3.227797E+03  5.818491E+04  1.116464E+04
       359   9 -3.032014E+05 -3.245012E+04 -5.902652E+04 -2.339888E+04  8.482420E+04  3.887758E+03
       359  10 -8.504418E+05 -5.148787E+04 -9.032277E+04  3.996465E+03 -2.488323E-09  2.154378E-09
       359  11 -8.726341E+05 -5.951443E+04 -1.238076E+05  2.449390E+04  7.440118E-10 -2.643249E-09
       359  12 -9.300322E+05 -1.879439E+05 -2.123122E+05  6.564239E+04  2.651769E-09  7.207000E-10
       359  13 -6.166196E+05  6.180372E+03 -3.660888E+04  2.079180E+04  1.208977E-09  5.892153E-09
       359  14 -5.995513E+05  7.676538E+03 -6.065195E+04  1.063589E+04 -1.690115E-09 -3.917339E-09
       359  15 -6.166677E+05 -1.101981E+05 -1.356731E+05  2.113292E+04 -1.133364E-09  4.102796E-09
       359  16 -3.827460E+05  6.384583E+04  1.710154E+04  3.759348E+04  1.881326E-09  4.337648E-09
       359  17 -3.263991E+05  7.486302E+04  2.498817E+03 -3.228320E+03 -1.511973E-09  4.611718E-09
       359  18 -3.032091E+05 -3.245207E+04 -5.904007E+04 -2.339915E+04 -2.296291E-09  4.484694E-10
       359  19 -8.504411E+05 -5.148759E+04 -9.032142E+04  3.996672E+03 -2.472940E+04 -1.035170E+04
       359  20 -8.726298E+05 -5.951323E+04 -1.237999E+05  2.449447E+04 -6.292486E+04 -1.118228E+04
       359  21 -9.300212E+05 -1.879412E+05 -2.122930E+05  6.564271E+04 -1.011416E+05 -3.948487E+03
       359  22 -6.166187E+05  6.180700E+03 -3.660719E+04  2.079203E+04 -2.814986E+04 -1.036271E+04
       359  23 -5.995474E+05  7.677658E+03 -6.064482E+04  1.063644E+04 -6.055540E+04 -1.117341E+04
       359  24 -6.166584E+05 -1.101958E+05 -1.356568E+05  2.113321E+04 -9.298495E+04 -3.917532E+03
       359  25 -3.827449E+05  6.384621E+04  1.710361E+04  3.759374E+04 -3.157161E+04 -1.037389E+04
       359  26 -3.263954E+05  7.486406E+04  2.505417E+03 -3.227797E+03 -5.818491E+04 -1.116464E+04
       359  27 -3.032014E+05 -3.245012E+04 -5.902652E+04 -2.339888E+04 -8.482420E+04 -3.887758E+03
       360   1  5.567467E+05  2.804103E+06  5.941100E+05 -2.893189E+05  1.539979E+04  1.858175E+05
       360   2  2.632352E+05  2.411048E+06  3.683322E+05 -1.431806E+05  4.408988E+04  9.879607E+04
       360   3  1.793756E+05  2.081372E+06  2.513740E+05 -1.843414E+05  3.283819E+04  1.173632E+04
       360   4  1.871620E+05  1.317874E+06  2.307867E+05 -2.098126E+05  1.549993E+04  1.505993E+05
       360   5 -1.272977E+04  1.288841E+06  1.091403E+05 -1.163879E+05  4.411500E+04  9.255724E+04
       360   6 -7.768075E+03  1.318203E+06  7.640414E+04 -2.102504E+05  3.277092E+04  3.442447E+04
       360   7 -1.825620E+05 -1.663345E+05 -1.326899E+05 -1.304949E+05  1.559123E+04  1.154645E+05
       360   8 -2.887804E+05  1.677953E+05 -1.501351E+05 -8.964314E+04  4.413961E+04  8.632945E+04
       360   9 -1.949493E+05  5.555744E+05 -9.860168E+04 -2.361268E+05  3.270172E+04  5.708501E+04
       360  10  5.567372E+05  2.804066E+06  5.940450E+05 -2.893212E+05  7.269954E-10  1.704715E-09
       360  11  2.632305E+05  2.411037E+06  3.683103E+05 -1.431841E+05 -6.170276E-10 -6.214539E-10
       360  12  1.793744E+05  2.081371E+06  2.513717E+05 -1.843417E+05  4.960232E-10  2.934288E-09
       360  13  1.871557E+05  1.317850E+06  2.307437E+05 -2.098144E+05  4.032993E-10  1.502524E-09
       360  14 -1.273416E+04  1.288831E+06  1.091205E+05 -1.163912E+05 -2.800664E-09  3.095359E-10
       360  15 -7.769547E+03  1.318201E+06  7.639989E+04 -2.102513E+05 -2.948539E-10  4.019256E-09
       360  16 -1.825658E+05 -1.663489E+05 -1.327154E+05 -1.304963E+05 -7.425211E-11 -8.621258E-10
       360  17 -2.887845E+05  1.677868E+05 -1.501528E+05 -8.964621E+04  8.412445E-10  1.961615E-09
       360  18 -1.949513E+05  5.555707E+05 -9.860981E+04 -2.361283E+05 -1.812706E-09 -1.437452E-09
       360  19  5.567467E+05  2.804103E+06  5.941100E+05 -2.893189E+05 -1.539979E+04 -1.858175E+05
       360  20  2.632352E+05  2.411048E+06  3.683322E+05 -1.431806E+05 -4.408988E+04 -9.879607E+04
       360  21  1.793756E+05  2.081372E+06  2.513740E+05 -1.843414E+05 -3.283819E+04 -1.173632E+04
       360  22  1.871620E+05  1.317874E+06  2.307867E+05 -2.098126E+05 -1.549993E+04 -1.505993E+05
       360  23 -1.272977E+04  1.288841E+06  1.091403E+05 -1.163879E+05 -4.411500E+04 -9.255724E+04
       360  24 -7.768075E+03  1.318203E+06  7.640414E+04 -2.102504E+05 -3.277092E+04 -3.442447E+04
       360  25 -1.825620E+05 -1.663345E+05 -1.326899E+05 -1.304949E+05 -1.559123E+04 -1.154645E+05
       360  26 -2.887804E+05  1.677953E+05 -1.501351E+05 -8.964314E+04 -4.413961E+04 -8.632945E+04
       360  27 -1.949493E+05  5.555744E+05 -9.860168E+04 -2.361268E+05 -3.270172E+04 -5.708501E+04
       361   1  1.168415E+05  1.726040E+06  1.652682E+05 -2.191036E+05  1.761050E+04  1.137452E+04
       361   2  1.247107E+04  1.360817E+06  7.401385E+04 -1.160537E+05  2.577662E+03 -1.941196E+04
       361   3 -5.487421E+04  1.007622E+06  1.170963E+04 -2.008621E+05 -1.259141E+04 -5.018315E+04
       361   4  1.408551E+04  1.307945E+06  6.918693E+04 -2.102385E+05  1.757661E+04  2.223254E+04
       361   5 -1.972175E+03  1.302003E+06  6.051215E+04 -1.163037E+05  2.543061E+03 -8.449477E+03
       361   6  1.898773E+04  1.307951E+06  8.072644E+04 -2.102229E+05 -1.262630E+04 -3.913353E+04
       361   7 -8.868237E+04  8.900118E+05 -2.690542E+04 -2.013793E+05  1.754302E+04  3.308332E+04
       361   8 -1.641560E+04  1.243193E+06  4.701068E+04 -1.165536E+05  2.508449E+03  2.511982E+03
       361   9  9.284376E+04  1.608364E+06  1.497378E+05 -2.195883E+05 -1.266151E+04 -2.807860E+04
       361  10  1.168412E+05  1.726040E+06  1.652674E+05 -2.191037E+05 -2.775838E-10  4.529253E-09
       361  11  1.247097E+04  1.360817E+06  7.401313E+04 -1.160537E+05  1.662662E-09 -3.608523E-10
       361  12 -5.487506E+04  1.007619E+06  1.170461E+04 -2.008626E+05 -4.244908E-10  3.435027E-09
       361  13  1.408505E+04  1.307944E+06  6.918542E+04 -2.102388E+05 -4.389923E-10  2.793026E-09
       361  14 -1.972201E+03  1.302003E+06  6.051201E+04 -1.163037E+05  1.475822E-09 -4.975288E-10
       361  15  1.898715E+04  1.307949E+06  8.072327E+04 -2.102233E+05  3.001732E-09  4.059884E-09
       361  16 -8.868299E+04  8.900106E+05 -2.690805E+04 -2.013798E+05 -7.203405E-10 -2.857675E-09
       361  17 -1.641561E+04  1.243193E+06  4.701066E+04 -1.165536E+05 -1.252793E-09  2.167291E-09
       361  18  9.284338E+04  1.608363E+06  1.497360E+05 -2.195886E+05 -6.581631E-10 -1.194037E-09
       361  19  1.168415E+05  1.726040E+06  1.652682E+05 -2.191036E+05 -1.761050E+04 -1.137452E+04
       361  20  1.247107E+04  1.360817E+06  7.401385E+04 -1.160537E+05 -2.577662E+03  1.941196E+04
       361  21 -5.487421E+04  1.007622E+06  1.170963E+04 -2.008621E+05  1.259141E+04  5.018315E+04
       361  22  1.408551E+04  1.307945E+06  6.918693E+04 -2.102385E+05 -1.757661E+04 -2.223254E+04
       361  23 -1.972175E+03  1.302003E+06  6.051215E+04 -1.163037E+05 -2.543061E+03  8.449477E+03
       361  24  1.898773E+04  1.307951E+06  8.072644E+04 -2.102229E+05  1.262630E+04  3.913353E+04
       361  25 -8.868237E+04  8.900118E+05 -2.690542E+04 -2.013793E+05 -1.754302E+04 -3.308332E+04
       361  26 -1.641560E+04  1.243193E+06  4.701068E+04 -1.165536E+05 -2.508449E+03 -2.511982E+03
       361  27  9.284376E+04  1.608364E+06  1.497378E+05 -2.195883E+05  1.266151E+04  2.807860E+04
       362   1 -1.695954E+05  6.774698E+05 -5.485979E+04 -2.454070E+05 -2.741542E+04 -7.551214E+04
       362   2 -2.639092E+05  2.806646E+05 -9.072861E+04 -8.175005E+04 -3.922855E+04 -1.240671E+05
       362   3 -9.160923E+04 -4.351818E+04 -2.843968E+04 -1.052307E+05 -1.395217E+04 -1.725007E+05
       362   4 -1.141669E+04  1.322365E+06  9.316281E+04 -2.102562E+05 -2.748678E+04 -5.359275E+04
       362   5 -1.684327E+04  1.283708E+06  1.413129E+05 -1.164033E+05 -3.920465E+04 -1.289758E+05
       362   6  2.487404E+05  1.322021E+06  3.060925E+05 -2.096337E+05 -1.384876E+04 -2.042676E+05
       362   7  1.467381E+05  1.967649E+06  2.411605E+05 -1.750683E+05 -2.755563E+04 -3.165078E+04
       362   8  2.301564E+05  2.287682E+06  3.732879E+05 -1.511122E+05 -3.918023E+04 -1.338922E+05
       362   9  5.889927E+05  2.689283E+06  6.404975E+05 -3.142656E+05 -1.373482E+04 -2.361040E+05
       362  10 -1.695977E+05  6.774635E+05 -5.487191E+04 -2.454087E+05  3.049175E-10  3.237038E-09
       362  11 -2.639150E+05  2.806477E+05 -9.076042E+04 -8.175397E+04  2.072212E-10  1.577649E-10
       362  12 -9.161743E+04 -4.355019E+04 -2.849596E+04 -1.052326E+05 -4.973249E-10  2.105110E-09
       362  13 -1.141827E+04  1.322362E+06  9.315600E+04 -2.102574E+05 -2.339925E-09  3.747750E-09
       362  14 -1.684938E+04  1.283689E+06  1.412788E+05 -1.164074E+05  8.300846E-10  4.466503E-10
       362  15  2.487290E+05  1.321977E+06  3.060139E+05 -2.096360E+05 -4.245579E-10  3.370150E-09
       362  16  1.467370E+05  1.967648E+06  2.411572E+05 -1.750690E+05  4.953122E-10 -1.275541E-09
       362  17  2.301499E+05  2.287662E+06  3.732515E+05 -1.511164E+05  8.444062E-11  1.437068E-09
       362  18  5.889776E+05  2.689223E+06  6.403929E+05 -3.142682E+05 -5.879027E-10 -1.177304E-09
       362  19 -1.695954E+05  6.774698E+05 -5.485979E+04 -2.454070E+05  2.741542E+04  7.551214E+04
       362  20 -2.639092E+05  2.806646E+05 -9.072861E+04 -8.175005E+04  3.922855E+04  1.240671E+05
       362  21 -9.160923E+04 -4.351818E+04 -2.843968E+04 -1.052307E+05  1.395217E+04  1.725007E+05
       362  22 -1.141669E+04  1.322365E+06  9.316281E+04 -2.102562E+05  2.748678E+04  5.359275E+04
       362  23 -1.684327E+04  1.283708E+06  1.413129E+05 -1.164033E+05  3.920465E+04  1.289758E+05
       362  24  2.487404E+05  1.322021E+06  3.060925E+05 -2.096337E+05  1.384876E+04  2.042676E+05
       362  25  1.467381E+05  1.967649E+06  2.411605E+05 -1.750683E+05  2.755563E+04  3.165078E+04
       362  26  2.301564E+05  2.287682E+06  3.732879E+05 -1.511122E+05  3.918023E+04  1.338922E+05
       362  27  5.889927E+05  2.689283E+06  6.404975E+05 -3.142656E+05  1.373482E+04  2.361040E+05
       363   1  4.092665E+05  1.348371E+05  7.370075E+04  1.215331E+05 -2.578349E+04 -1.736372E+04
       363   2  3.847420E+05  1.749529E+05  9.490013E+04  9.835133E+04 -1.461053E+04 -2.909223E+04
       363   3  3.253333E+05  1.759776E+05  9.709365E+04  1.055309E+05 -8.727336E+03 -2.679069E+04
       363   4 -1.259454E+05 -4.796544E+04 -6.665970E+04 -5.117165E+03 -3.990228E+04 -2.268755E+04
       363   5 -1.039857E+05 -2.407147E+03 -2.836903E+04 -2.974961E+04 -1.927633E+04 -3.085395E+04
       363   6 -1.188030E+05  2.162536E+03 -1.658951E+04 -2.401497E+04 -3.941387E+03 -2.498506E+04
       363   7 -6.608742E+05 -2.307604E+05 -2.070411E+05 -1.316730E+05 -5.400744E+04 -2.800735E+04
       363   8 -5.924769E+05 -1.797541E+05 -1.516560E+05 -1.577600E+05 -2.393807E+04 -3.261424E+04
       363   9 -5.627457E+05 -1.716345E+05 -1.302886E+05 -1.534751E+05  8.408174E+02 -2.318098E+04
       363  10  4.092657E+05  1.348366E+05  7.369894E+04  1.215327E+05 -2.275735E-09 -1.095425E-09
       363  11  3.847415E+05  1.749520E+05  9.489814E+04  9.835098E+04 -1.153437E-10 -1.767520E-09
       363  12  3.253330E+05  1.759768E+05  9.709216E+04  1.055307E+05  6.066044E-09 -1.158825E-09
       363  13 -1.259472E+05 -4.796642E+04 -6.666366E+04 -5.117894E+03  2.883551E-10  4.772696E-09
       363  14 -1.039864E+05 -2.408269E+03 -2.837151E+04 -2.975009E+04  9.530529E-10  1.455831E-09
       363  15 -1.188032E+05  2.161862E+03 -1.659071E+04 -2.401505E+04 -3.438755E-10 -9.558888E-10
       363  16 -6.608775E+05 -2.307621E+05 -2.070480E+05 -1.316742E+05  2.222011E-09  2.020786E-09
       363  17 -5.924778E+05 -1.797554E+05 -1.516591E+05 -1.577607E+05 -1.078145E-09 -1.398664E-09
       363  18 -5.627458E+05 -1.716351E+05 -1.302896E+05 -1.534751E+05 -2.328097E-09 -2.779545E-09
       363  19  4.092665E+05  1.348371E+05  7.370075E+04  1.215331E+05  2.578349E+04  1.736372E+04
       363  20  3.847420E+05  1.749529E+05  9.490013E+04  9.835133E+04  1.461053E+04  2.909223E+04
       363  21  3.253333E+05  1.759776E+05  9.709365E+04  1.055309E+05  8.727336E+03  2.679069E+04
       363  22 -1.259454E+05 -4.796544E+04 -6.665970E+04 -5.117165E+03  3.990228E+04  2.268755E+04
       363  23 -1.039857E+05 -2.407147E+03 -2.836903E+04 -2.974961E+04  1.927633E+04  3.085395E+04
       363  24 -1.188030E+05  2.162536E+03 -1.658951E+04 -2.401497E+04  3.941387E+03  2.498506E+04
       363  25 -6.608742E+05 -2.307604E+05 -2.070411E+05 -1.316730E+05  5.400744E+04  2.800735E+04
       363  26 -5.924769E+05 -1.797541E+05 -1.516560E+05 -1.577600E+05  2.393807E+04  3.261424E+04
       363  27 -5.627457E+05 -1.716345E+05 -1.302886E+05 -1.534751E+05 -8.408174E+02  2.318098E+04
       364   1  2.972858E+05  1.503919E+05  9.175936E+04  9.218790E+04 -3.209890E+03 -2.149672E+04
       364   2  2.693521E+05  1.346900E+05  8.907000E+04  7.363589E+04 -6.826940E+02 -1.938564E+04
       364   3  2.248880E+05  1.291221E+05  8.302807E+04  7.271676E+04  1.560847E+03 -1.652743E+04
       364   4 -1.167734E+05 -3.748717E+03 -1.332855E+04 -2.033366E+04 -2.774191E+03 -2.133324E+04
       364   5 -1.081627E+05 -6.726999E+03 -6.654648E+03 -2.991880E+04  2.548726E+02 -1.903227E+04
       364   6 -1.161846E+05  3.280442E+02 -3.732885E+03 -2.187061E+04  3.000384E+03 -1.598389E+04
       364   7 -5.306671E+05 -1.578794E+05 -1.184307E+05 -1.327881E+05 -2.338806E+03 -2.116988E+04
       364   8 -4.855393E+05 -1.481350E+05 -1.023910E+05 -1.334168E+05  1.191819E+03 -1.867914E+04
       364   9 -4.571437E+05 -1.284579E+05 -9.050326E+04 -1.164108E+05  4.439056E+03 -1.544068E+04
       364  10  2.972856E+05  1.503914E+05  9.175847E+04  9.218784E+04 -3.106850E-09 -2.563333E-09
       364  11  2.693520E+05  1.346896E+05  8.906929E+04  7.363588E+04 -2.496789E-09  7.258621E-09
       364  12  2.248879E+05  1.291218E+05  8.302755E+04  7.271678E+04 -1.738294E-10 -5.144831E-10
       364  13 -1.167736E+05 -3.749208E+03 -1.332942E+04 -2.033370E+04  1.489940E-09 -1.815077E-10
       364  14 -1.081628E+05 -6.727388E+03 -6.655329E+03 -2.991879E+04 -1.191091E-09 -4.366712E-10
       364  15 -1.161847E+05  3.277674E+02 -3.733382E+03 -2.187057E+04 -7.278750E-10 -3.322917E-09
       364  16 -5.306672E+05 -1.578799E+05 -1.184316E+05 -1.327882E+05  4.527548E-09 -4.101561E-09
       364  17 -4.855394E+05 -1.481353E+05 -1.023916E+05 -1.334168E+05  3.960215E-09  1.664169E-09
       364  18 -4.571438E+05 -1.284582E+05 -9.050375E+04 -1.164108E+05  1.691806E-09 -2.682958E-09
       364  19  2.972858E+05  1.503919E+05  9.175936E+04  9.218790E+04  3.209890E+03  2.149672E+04
       364  20  2.693521E+05  1.346900E+05  8.907000E+04  7.363589E+04  6.826940E+02  1.938564E+04
       364  21  2.248880E+05  1.291221E+05  8.302807E+04  7.271676E+04 -1.560847E+03  1.652743E+04
       364  22 -1.167734E+05 -3.748717E+03 -1.332855E+04 -2.033366E+04  2.774191E+03  2.133324E+04
       364  23 -1.081627E+05 -6.726999E+03 -6.654648E+03 -2.991880E+04 -2.548726E+02  1.903227E+04
       364  24 -1.161846E+05  3.280442E+02 -3.732885E+03 -2.187061E+04 -3.000384E+03  1.598389E+04
       364  25 -5.306671E+05 -1.578794E+05 -1.184307E+05 -1.327881E+05  2.338806E+03  2.116988E+04
       364  26 -4.855393E+05 -1.481350E+05 -1.023910E+05 -1.334168E+05 -1.191819E+03  1.867914E+04
       364  27 -4.571437E+05 -1.284579E+05 -9.050326E+04 -1.164108E+05 -4.439056E+03  1.544068E+04
       365   1  1.894076E+05  1.145422E+05  7.449843E+04  6.252502E+04  1.875754E+03 -1.506899E+04
       365   2  1.609780E+05  9.419902E+04  6.686970E+04  4.432304E+04  1.927110E+03 -1.297790E+04
       365   3  1.177151E+05  8.813624E+04  5.860549E+04  4.278923E+04  1.961965E+03 -1.084602E+04
       365   4 -1.159807E+05 -1.310445E+02 -2.867783E+03 -2.155276E+04  3.085054E+03 -1.461225E+04
       365   5 -1.085331E+05 -7.098556E+03 -1.520001E+03 -2.995007E+04  3.163645E+03 -1.251054E+04
       365   6 -1.159262E+05  2.093383E+02 -8.295833E+02 -2.167898E+04  3.225775E+03 -1.036801E+04
       365   7 -4.212768E+05 -1.147976E+05 -8.024115E+04 -1.055928E+05  4.293699E+03 -1.415576E+04
       365   8 -3.779733E+05 -1.083913E+05 -6.991555E+04 -1.041940E+05  4.399591E+03 -1.204341E+04
       365   9 -3.495152E+05 -8.771425E+04 -6.026932E+04 -8.612548E+04  4.489069E+03 -9.890202E+03
       365  10  1.894076E+05  1.145420E+05  7.449799E+04  6.252504E+04 -2.745359E-09 -1.187556E-09
       365  11  1.609779E+05  9.419884E+04  6.686938E+04  4.432306E+04 -9.840062E-10  1.646169E-09
       365  12  1.177150E+05  8.813612E+04  5.860526E+04  4.278925E+04  1.908731E-09  4.699085E-09
       365  13 -1.159808E+05 -1.312764E+02 -2.868202E+03 -2.155273E+04 -1.672139E-09 -4.396867E-11
       365  14 -1.085332E+05 -7.098727E+03 -1.520314E+03 -2.995003E+04 -2.328992E-09  2.476851E-09
       365  15 -1.159263E+05  2.092200E+02 -8.298049E+02 -2.167896E+04 -1.743258E-09  1.693570E-09
       365  16 -4.212768E+05 -1.147979E+05 -8.024157E+04 -1.055928E+05  2.737041E-09  2.431662E-09
       365  17 -3.779734E+05 -1.083914E+05 -6.991586E+04 -1.041940E+05 -2.554614E-09  5.095344E-09
       365  18 -3.495152E+05 -8.771436E+04 -6.026954E+04 -8.612544E+04 -1.176626E-09  3.337105E-10
       365  19  1.894076E+05  1.145422E+05  7.449843E+04  6.252502E+04 -1.875754E+03  1.506899E+04
       365  20  1.609780E+05  9.419902E+04  6.686970E+04  4.432304E+04 -1.927110E+03  1.297790E+04
       365  21  1.177151E+05  8.813624E+04  5.860549E+04  4.278923E+04 -1.961965E+03  1.084602E+04
       365  22 -1.159807E+05 -1.310445E+02 -2.867783E+03 -2.155276E+04 -3.085054E+03  1.461225E+04
       365  23 -1.085331E+05 -7.098556E+03 -1.520001E+03 -2.995007E+04 -3.163645E+03  1.251054E+04
       365  24 -1.159262E+05  2.093383E+02 -8.295833E+02 -2.167898E+04 -3.225775E+03  1.036801E+04
       365  25 -4.212768E+05 -1.147976E+05 -8.024115E+04 -1.055928E+05 -4.293699E+03  1.415576E+04
       365  26 -3.779733E+05 -1.083913E+05 -6.991555E+04 -1.041940E+05 -4.399591E+03  1.204341E+04
       365  27 -3.495152E+05 -8.771425E+04 -6.026932E+04 -8.612548E+04 -4.489069E+03  9.890202E+03
       366   1  8.152850E+04  7.440397E+04  4.935683E+04  3.280933E+04  1.680933E+03 -9.709424E+03
       366   2  5.300856E+04  5.363881E+04  4.069011E+04  1.460191E+04  1.133605E+03 -7.791984E+03
       366   3  9.789239E+03  4.752724E+04  3.190276E+04  1.301206E+04  5.846311E+02 -5.871808E+03
       366   4 -1.159076E+05  1.805595E+02 -6.209391E+02 -2.164602E+04  2.933098E+03 -9.235656E+03
       366   5 -1.085526E+05 -7.127038E+03 -3.162344E+02 -2.996114E+04  2.387596E+03 -7.317334E+03
       366   6 -1.158991E+05  2.185487E+02 -1.337047E+02 -2.165906E+04  1.840456E+03 -5.396268E+03
       366   7 -3.133056E+05 -7.404022E+04 -5.060182E+04 -7.608569E+04  4.184827E+03 -8.762052E+03
       366   8 -2.700880E+05 -6.789101E+04 -4.132459E+04 -7.451359E+04  3.641227E+03 -6.842820E+03
       366   9 -2.415715E+05 -4.708890E+04 -3.217131E+04 -5.632370E+04  3.095997E+03 -4.920836E+03
       366  10  8.152847E+04  7.440387E+04  4.935664E+04  3.280935E+04 -2.114814E-09  1.836242E-09
       366  11  5.300854E+04  5.363875E+04  4.069000E+04  1.460191E+04 -5.783575E-10  8.218635E-09
       366  12  9.789229E+03  4.752720E+04  3.190269E+04  1.301206E+04  3.881497E-09  2.676564E-10
       366  13 -1.159076E+05  1.804656E+02 -6.211156E+02 -2.164600E+04 -6.272245E-10 -3.647848E-09
       366  14 -1.085527E+05 -7.127097E+03 -3.163457E+02 -2.996112E+04  3.172437E-10  9.126113E-09
       366  15 -1.158991E+05  2.185165E+02 -1.337657E+02 -2.165906E+04 -2.395172E-09 -4.388370E-09
       366  16 -3.133056E+05 -7.404030E+04 -5.060199E+04 -7.608566E+04  2.871101E-09  4.992836E-10
       366  17 -2.700880E+05 -6.789106E+04 -4.132470E+04 -7.451357E+04 -2.152080E-09  7.179276E-09
       366  18 -2.415716E+05 -4.708893E+04 -3.217137E+04 -5.632369E+04 -4.610329E-09 -4.688192E-09
       366  19  8.152850E+04  7.440397E+04  4.935683E+04  3.280933E+04 -1.680933E+03  9.709424E+03
       366  20  5.300856E+04  5.363881E+04  4.069011E+04  1.460191E+04 -1.133605E+03  7.791984E+03
       366  21  9.789239E+03  4.752724E+04  3.190276E+04  1.301206E+04 -5.846311E+02  5.871808E+03
       366  22 -1.159076E+05  1.805595E+02 -6.209391E+02 -2.164602E+04 -2.933098E+03  9.235656E+03
       366  23 -1.085526E+05 -7.127038E+03 -3.162344E+02 -2.996114E+04 -2.387596E+03  7.317334E+03
       366  24 -1.158991E+05  2.185487E+02 -1.337047E+02 -2.165906E+04 -1.840456E+03  5.396268E+03
       366  25 -3.133056E+05 -7.404022E+04 -5.060182E+04 -7.608569E+04 -4.184827E+03  8.762052E+03
       366  26 -2.700880E+05 -6.789101E+04 -4.132459E+04 -7.451359E+04 -3.641227E+03  6.842820E+03
       366  27 -2.415715E+05 -4.708890E+04 -3.217131E+04 -5.632370E+04 -3.095997E+03  4.920836E+03
       367   1 -2.649044E+04  3.383484E+04  2.249492E+04  3.028024E+03  1.905916E+02 -4.781283E+03
       367   2 -5.503426E+04  1.300738E+04  1.364191E+04 -1.519790E+04 -5.426062E+02 -2.929403E+03
       367   3 -9.827251E+04  6.890526E+03  4.811510E+03 -1.679933E+04 -1.275646E+03 -1.078447E+03
       367   4 -1.158972E+05  2.190247E+02 -6.850909E+01 -2.165180E+04  1.446409E+03 -4.305661E+03
       367   5 -1.085482E+05 -7.129148E+03  5.696837E+01 -2.996651E+04  7.125843E+02 -2.453954E+03
       367   6 -1.158942E+05  2.336775E+02  2.058101E+02 -2.165696E+04 -2.108521E+01 -6.031674E+02
       367   7 -2.052964E+05 -3.339639E+04 -2.263267E+04 -4.632849E+04  2.702033E+03 -3.830113E+03
       367   8 -1.620594E+05 -2.726553E+04 -1.352823E+04 -4.473401E+04  1.967659E+03 -1.978549E+03
       367   9 -1.335155E+05 -6.423150E+03 -4.399910E+03 -2.651446E+04  1.233437E+03 -1.279026E+02
       367  10 -2.649044E+04  3.383482E+04  2.249488E+04  3.028025E+03 -4.668077E-10  3.670426E-09
       367  11 -5.503426E+04  1.300737E+04  1.364189E+04 -1.519790E+04  1.520722E-09  1.102677E-08
       367  12 -9.827251E+04  6.890524E+03  4.811505E+03 -1.679933E+04  9.075027E-09  7.089202E-09
       367  13 -1.158972E+05  2.190042E+02 -6.854786E+01 -2.165179E+04  5.802445E-11 -1.569740E-09
       367  14 -1.085482E+05 -7.129155E+03  5.695610E+01 -2.996651E+04  2.200293E-10  5.271020E-09
       367  15 -1.158942E+05  2.336771E+02  2.058094E+02 -2.165696E+04  1.575572E-09  1.381700E-09
       367  16 -2.052964E+05 -3.339641E+04 -2.263271E+04 -4.632848E+04  2.837763E-10 -1.047732E-09
       367  17 -1.620594E+05 -2.726553E+04 -1.352824E+04 -4.473400E+04 -6.745274E-10 -1.293018E-08
       367  18 -1.335155E+05 -6.423151E+03 -4.399913E+03 -2.651446E+04 -3.415390E-09 -7.976135E-09
       367  19 -2.649044E+04  3.383484E+04  2.249492E+04  3.028024E+03 -1.905916E+02  4.781283E+03
       367  20 -5.503426E+04  1.300738E+04  1.364191E+04 -1.519790E+04  5.426062E+02  2.929403E+03
       367  21 -9.827251E+04  6.890526E+03  4.811510E+03 -1.679933E+04  1.275646E+03  1.078447E+03
       367  22 -1.158972E+05  2.190247E+02 -6.850909E+01 -2.165180E+04 -1.446409E+03  4.305661E+03
       367  23 -1.085482E+05 -7.129148E+03  5.696837E+01 -2.996651E+04 -7.125843E+02  2.453954E+03
       367  24 -1.158942E+05  2.336775E+02  2.058101E+02 -2.165696E+04  2.108521E+01  6.031674E+02
       367  25 -2.052964E+05 -3.339639E+04 -2.263267E+04 -4.632849E+04 -2.702033E+03  3.830113E+03
       367  26 -1.620594E+05 -2.726553E+04 -1.352823E+04 -4.473401E+04 -1.967659E+03  1.978549E+03
       367  27 -1.335155E+05 -6.423150E+03 -4.399910E+03 -2.651446E+04 -1.233437E+03  1.279026E+02
       368   1 -1.345685E+05 -6.806437E+03 -4.573483E+03 -2.676631E+04 -1.736207E+03 -9.544916E+00
       368   2 -1.631290E+05 -2.766748E+04 -1.327545E+04 -4.501596E+04 -2.713577E+03  1.747207E+03
       368   3 -2.062986E+05 -3.368273E+04 -2.173587E+04 -4.666548E+04 -3.681571E+03  3.479889E+03
       368   4 -1.158808E+05  2.208735E+02  2.973179E+02 -2.164600E+04 -4.743519E+02  4.684962E+02
       368   5 -1.085695E+05 -7.145157E+03  5.750767E+02 -2.996809E+04 -1.468039E+03  2.218996E+03
       368   6 -1.158652E+05  3.376129E+02  1.107399E+03 -2.169072E+04 -2.452372E+03  3.945429E+03
       368   7 -9.719286E+04  7.248180E+03  5.168077E+03 -1.652556E+04  7.875398E+02  9.465511E+02
       368   8 -5.400706E+04  1.337737E+04  1.442537E+04 -1.491903E+04 -2.223815E+02  2.690830E+03
       368   9 -2.542338E+04  3.435865E+04  2.395012E+04  3.287425E+03 -1.222972E+03  4.411045E+03
       368  10 -1.345685E+05 -6.806438E+03 -4.573489E+03 -2.676631E+04 -9.724953E-09  3.501655E-09
       368  11 -1.631290E+05 -2.766748E+04 -1.327547E+04 -4.501596E+04 -9.787559E-09  4.689984E-09
       368  12 -2.062986E+05 -3.368275E+04 -2.173592E+04 -4.666547E+04 -4.871363E-10  4.901037E-09
       368  13 -1.158808E+05  2.208732E+02  2.973170E+02 -2.164600E+04  1.018102E-09  7.095390E-09
       368  14 -1.085695E+05 -7.145163E+03  5.750634E+02 -2.996809E+04 -1.487466E-09  4.097864E-09
       368  15 -1.158652E+05  3.375946E+02  1.107358E+03 -2.169071E+04 -5.713333E-10 -3.032046E-09
       368  16 -9.719286E+04  7.248179E+03  5.168074E+03 -1.652556E+04  1.037249E-08  3.413857E-09
       368  17 -5.400706E+04  1.337736E+04  1.442536E+04 -1.491903E+04  3.924076E-09 -9.338992E-09
       368  18 -2.542339E+04  3.435863E+04  2.395008E+04  3.287430E+03 -3.232416E-09  3.102886E-09
       368  19 -1.345685E+05 -6.806437E+03 -4.573483E+03 -2.676631E+04  1.736207E+03  9.544916E+00
       368  20 -1.631290E+05 -2.766748E+04 -1.327545E+04 -4.501596E+04  2.713577E+03 -1.747207E+03
       368  21 -2.062986E+05 -3.368273E+04 -2.173587E+04 -4.666548E+04  3.681571E+03 -3.479889E+03
       368  22 -1.158808E+05  2.208735E+02  2.973179E+02 -2.164600E+04  4.743519E+02 -4.684962E+02
       368  23 -1.085695E+05 -7.145157E+03  5.750767E+02 -2.996809E+04  1.468039E+03 -2.218996E+03
       368  24 -1.158652E+05  3.376129E+02  1.107399E+03 -2.169072E+04  2.452372E+03 -3.945429E+03
       368  25 -9.719286E+04  7.248180E+03  5.168077E+03 -1.652556E+04 -7.875398E+02 -9.465511E+02
       368  26 -5.400706E+04  1.337737E+04  1.442537E+04 -1.491903E+04  2.223815E+02 -2.690830E+03
       368  27 -2.542338E+04  3.435865E+04  2.395012E+04  3.287425E+03  1.222972E+03 -4.411045E+03
       369   1 -2.426802E+05 -4.735997E+04 -3.084202E+04 -5.631808E+04 -4.456605E+03  4.489306E+03
       369   2 -2.712246E+05 -6.854192E+04 -3.870460E+04 -7.490545E+04 -6.158908E+03  5.908772E+03
       369   3 -3.136403E+05 -7.332797E+04 -4.533510E+04 -7.729979E+04 -7.690338E+03  6.878736E+03
       369   4 -1.157686E+05  1.514173E+02  1.448976E+03 -2.157646E+04 -3.088629E+03  5.007323E+03
       369   5 -1.087520E+05 -7.297997E+03  2.579091E+03 -2.996780E+04 -5.094319E+03  6.311702E+03
       369   6 -1.155482E+05  1.707912E+03  5.181676E+03 -2.216695E+04 -6.929218E+03  7.166618E+03
       369   7  1.115872E+04  4.766383E+04  3.373867E+04  1.317156E+04 -1.720347E+03  5.525455E+03
       369   8  5.374596E+04  5.394760E+04  4.386056E+04  1.498042E+04 -4.029426E+03  6.714747E+03
       369   9  8.258146E+04  7.674626E+04  5.569505E+04  3.298166E+04 -6.167835E+03  7.454601E+03
       369  10 -2.426802E+05 -4.736000E+04 -3.084210E+04 -5.631806E+04 -3.793718E-09  8.612842E-10
       369  11 -2.712246E+05 -6.854197E+04 -3.870474E+04 -7.490542E+04 -2.068422E-09  7.407065E-09
       369  12 -3.136404E+05 -7.332804E+04 -4.533530E+04 -7.729975E+04  3.358447E-09  3.986912E-09
       369  13 -1.157686E+05  1.513878E+02  1.448911E+03 -2.157645E+04  7.525596E-10 -5.866788E-09
       369  14 -1.087521E+05 -7.298047E+03  2.578967E+03 -2.996777E+04 -2.082246E-09  1.472122E-08
       369  15 -1.155483E+05  1.707844E+03  5.181490E+03 -2.216691E+04  7.433559E-10 -6.247976E-09
       369  16  1.115871E+04  4.766380E+04  3.373861E+04  1.317157E+04  4.274287E-09  3.541662E-09
       369  17  5.374593E+04  5.394755E+04  4.386045E+04  1.498044E+04  2.224682E-09 -8.189027E-09
       369  18  8.258140E+04  7.674619E+04  5.569487E+04  3.298170E+04 -7.173848E-10 -4.142717E-09
       369  19 -2.426802E+05 -4.735997E+04 -3.084202E+04 -5.631808E+04  4.456605E+03 -4.489306E+03
       369  20 -2.712246E+05 -6.854192E+04 -3.870460E+04 -7.490545E+04  6.158908E+03 -5.908772E+03
       369  21 -3.136403E+05 -7.332797E+04 -4.533510E+04 -7.729979E+04  7.690338E+03 -6.878736E+03
       369  22 -1.157686E+05  1.514173E+02  1.448976E+03 -2.157646E+04  3.088629E+03 -5.007323E+03
       369  23 -1.087520E+05 -7.297997E+03  2.579091E+03 -2.996780E+04  5.094319E+03 -6.311702E+03
       369  24 -1.155482E+05  1.707912E+03  5.181676E+03 -2.216695E+04  6.929218E+03 -7.166618E+03
       369  25  1.115872E+04  4.766383E+04  3.373867E+04  1.317156E+04  1.720347E+03 -5.525455E+03
       369  26  5.374596E+04  5.394760E+04  4.386056E+04  1.498042E+04  4.029426E+03 -6.714747E+03
       369  27  8.258146E+04  7.674626E+04  5.569505E+04  3.298166E+04  6.167835E+03 -7.454601E+03
       370   1 -3.515029E+05 -8.691324E+04 -5.303162E+04 -8.325533E+04 -1.198248E+04  7.687109E+03
       370   2 -3.790299E+05 -1.122305E+05 -5.784214E+04 -1.062738E+05 -1.254747E+04  8.378431E+03
       370   3 -4.131659E+05 -1.027564E+05 -5.682616E+04 -1.184986E+05 -9.914854E+03  6.151161E+02
       370   4 -1.146626E+05 -6.786043E+02  6.453930E+03 -2.082975E+04 -8.602184E+03  8.966186E+03
       370   5 -1.105299E+05 -8.901441E+03  1.101762E+04 -2.990971E+04 -1.486570E+04  7.500915E+03
       370   6 -1.118800E+05  1.879151E+04  2.592553E+04 -2.819553E+04 -1.793248E+04 -2.417234E+03
       370   7  1.222339E+05  8.555942E+04  6.593547E+04  4.161740E+04 -5.220456E+03  1.024577E+04
       370   8  1.580402E+05  9.443321E+04  7.987139E+04  4.648454E+04 -1.718503E+04  6.622963E+03
       370   9  1.894913E+05  1.403474E+05  1.086685E+05  6.214761E+04 -2.595433E+04 -5.451424E+03
       370  10 -3.515031E+05 -8.691334E+04 -5.303200E+04 -8.325525E+04 -1.092226E-09  3.790727E-09
       370  11 -3.790301E+05 -1.122306E+05 -5.784256E+04 -1.062737E+05  5.847077E-10  2.272143E-09
       370  12 -4.131660E+05 -1.027565E+05 -5.682635E+04 -1.184986E+05  2.554176E-09 -1.396940E-09
       370  13 -1.146627E+05 -6.787105E+02  6.453640E+03 -2.082968E+04  3.703505E-10 -6.482351E-09
       370  14 -1.105302E+05 -8.901561E+03  1.101710E+04 -2.990962E+04 -1.834740E-09  1.035168E-08
       370  15 -1.118803E+05  1.879141E+04  2.592491E+04 -2.819557E+04  3.733715E-10  1.654870E-09
       370  16  1.222339E+05  8.555930E+04  6.593523E+04  4.161744E+04  1.192513E-09  2.562759E-09
       370  17  1.580399E+05  9.443308E+04  7.987075E+04  4.648463E+04 -3.761686E-09  1.021716E-08
       370  18  1.894906E+05  1.403472E+05  1.086672E+05  6.214749E+04 -4.763888E-09  2.087922E-10
       370  19 -3.515029E+05 -8.691324E+04 -5.303162E+04 -8.325533E+04  1.198248E+04 -7.687109E+03
       370  20 -3.790299E+05 -1.122305E+05 -5.784214E+04 -1.062738E+05  1.254747E+04 -8.378431E+03
       370  21 -4.131659E+05 -1.027564E+05 -5.682616E+04 -1.184986E+05  9.914854E+03 -6.151161E+02
       370  22 -1.146626E+05 -6.786043E+02  6.453930E+03 -2.082975E+04  8.602184E+03 -8.966186E+03
       370  23 -1.105299E+05 -8.901441E+03  1.101762E+04 -2.990971E+04  1.486570E+04 -7.500915E+03
       370  24 -1.118800E+05  1.879151E+04  2.592553E+04 -2.819553E+04  1.793248E+04  2.417234E+03
       370  25  1.222339E+05  8.555942E+04  6.593547E+04  4.161740E+04  5.220456E+03 -1.024577E+04
       370  26  1.580402E+05  9.443321E+04  7.987139E+04  4.648454E+04  1.718503E+04 -6.622963E+03
       370  27  1.894913E+05  1.403474E+05  1.086685E+05  6.214761E+04  2.595433E+04  5.451424E+03
       371   1  7.308420E+04  4.283608E+04  2.426563E+04 -7.551895E+03 -4.822963E+04 -5.679149E+03
       371   2  4.490783E+04  1.089611E+05  5.801031E+04  2.460166E+03 -3.540685E+04 -1.718274E+04
       371   3 -4.067642E+03  9.872869E+04  6.433453E+04  3.228539E+04 -2.261899E+04 -1.704125E+04
       371   4 -3.886624E+05 -7.189392E+04 -8.855128E+04  2.095946E+04 -6.070038E+04 -5.717792E+03
       371   5 -3.775158E+05  5.007126E+03 -3.959717E+04  1.093852E+04 -3.950617E+04 -1.719664E+04
       371   6 -3.886396E+05  4.067165E+03 -2.389363E+04  2.073227E+04 -1.834573E+04 -1.702771E+04
       371   7 -8.502124E+05 -1.866364E+05 -2.013827E+05  4.944942E+04 -7.316187E+04 -5.757596E+03
       371   8 -7.997741E+05 -9.895907E+04 -1.372164E+05  1.941093E+04 -4.360272E+04 -1.721066E+04
       371   9 -7.730743E+05 -9.060420E+04 -1.121314E+05  9.186255E+03 -1.407509E+04 -1.701432E+04
       371  10  7.308169E+04  4.283542E+04  2.426120E+04 -7.552115E+03 -6.341130E-09 -3.763223E-10
       371  11  4.490640E+04  1.089604E+05  5.800740E+04  2.459676E+03 -1.997819E-09  1.058498E-08
       371  12 -4.068269E+03  9.872825E+04  6.433302E+04  3.228508E+04  2.705908E-09  4.043178E-09
       371  13 -3.886664E+05 -7.189494E+04 -8.855827E+04  2.095918E+04  1.259141E-09 -4.731160E-09
       371  14 -3.775175E+05  5.006389E+03 -3.960066E+04  1.093797E+04 -1.503602E-09 -9.585212E-09
       371  15 -3.886401E+05  4.066763E+03 -2.389481E+04  2.073202E+04 -1.043435E-09 -4.013360E-10
       371  16 -8.502182E+05 -1.866379E+05 -2.013928E+05  4.944908E+04  5.170996E-09  2.401219E-09
       371  17 -7.997762E+05 -9.895990E+04 -1.372206E+05  1.941032E+04  5.008987E-10  8.875312E-09
       371  18 -7.730746E+05 -9.060457E+04 -1.121323E+05  9.186062E+03 -2.464971E-09  5.986514E-10
       371  19  7.308420E+04  4.283608E+04  2.426563E+04 -7.551895E+03  4.822963E+04  5.679149E+03
       371  20  4.490783E+04  1.089611E+05  5.801031E+04  2.460166E+03  3.540685E+04  1.718274E+04
       371  21 -4.067642E+03  9.872869E+04  6.433453E+04  3.228539E+04  2.261899E+04  1.704125E+04
       371  22 -3.886624E+05 -7.189392E+04 -8.855128E+04  2.095946E+04  6.070038E+04  5.717792E+03
       371  23 -3.775158E+05  5.007126E+03 -3.959717E+04  1.093852E+04  3.950617E+04  1.719664E+04
       371  24 -3.886396E+05  4.067165E+03 -2.389363E+04  2.073227E+04  1.834573E+04  1.702771E+04
       371  25 -8.502124E+05 -1.866364E+05 -2.013827E+05  4.944942E+04  7.316187E+04  5.757596E+03
       371  26 -7.997741E+05 -9.895907E+04 -1.372164E+05  1.941093E+04  4.360272E+04  1.721066E+04
       371  27 -7.730743E+05 -9.060420E+04 -1.121314E+05  9.186255E+03  1.407509E+04  1.701432E+04
       372   1 -3.663044E+04  8.026921E+04  6.087142E+04  1.995155E+04 -1.551557E+04 -1.454867E+04
       372   2 -7.422735E+04  7.648961E+04  6.084672E+04  1.111895E+04 -1.079204E+04 -1.329175E+04
       372   3 -1.139965E+05  6.695672E+04  5.628300E+04  2.253798E+04 -6.071656E+03 -1.145339E+04
       372   4 -3.841866E+05 -5.268292E+03 -1.923969E+04  2.090762E+04 -1.482573E+04 -1.454697E+04
       372   5 -3.830585E+05  5.063205E+02 -1.016701E+04  1.077168E+04 -9.686224E+03 -1.328839E+04
       372   6 -3.841783E+05  4.535365E+02 -5.924377E+03  2.088809E+04 -4.549583E+03 -1.144825E+04
       372   7 -7.316310E+05 -9.081425E+04 -9.935882E+04  2.186307E+04 -1.413627E+04 -1.454528E+04
       372   8 -6.918014E+05 -7.548363E+04 -8.118705E+04  1.042450E+04 -8.580954E+03 -1.328503E+04
       372   9 -6.542925E+05 -6.605475E+04 -6.813659E+04  1.923886E+04 -3.028167E+03 -1.144311E+04
       372  10 -3.663076E+04  8.026892E+04  6.087057E+04  1.995136E+04  1.106878E-09  1.407502E-10
       372  11 -7.422752E+04  7.648938E+04  6.084617E+04  1.111883E+04 -7.490676E-10  3.813388E-09
       372  12 -1.139966E+05  6.695657E+04  5.628269E+04  2.253792E+04  4.383347E-09  1.073838E-08
       372  13 -3.841869E+05 -5.268578E+03 -1.924050E+04  2.090745E+04  2.003724E-09  1.068688E-08
       372  14 -3.830587E+05  5.061057E+02 -1.016752E+04  1.077157E+04 -9.884189E-10 -2.682150E-08
       372  15 -3.841783E+05  4.533902E+02 -5.924662E+03  2.088804E+04 -1.420666E-09  1.087803E-08
       372  16 -7.316312E+05 -9.081453E+04 -9.935960E+04  2.186290E+04 -1.223087E-09 -8.194318E-09
       372  17 -6.918015E+05 -7.548384E+04 -8.118752E+04  1.042441E+04 -1.365129E-09 -6.609490E-09
       372  18 -6.542925E+05 -6.605489E+04 -6.813685E+04  1.923883E+04 -3.622975E-09  2.353032E-10
       372  19 -3.663044E+04  8.026921E+04  6.087142E+04  1.995155E+04  1.551557E+04  1.454867E+04
       372  20 -7.422735E+04  7.648961E+04  6.084672E+04  1.111895E+04  1.079204E+04  1.329175E+04
       372  21 -1.139965E+05  6.695672E+04  5.628300E+04  2.253798E+04  6.071656E+03  1.145339E+04
       372  22 -3.841866E+05 -5.268292E+03 -1.923969E+04  2.090762E+04  1.482573E+04  1.454697E+04
       372  23 -3.830585E+05  5.063205E+02 -1.016701E+04  1.077168E+04  9.686224E+03  1.328839E+04
       372  24 -3.841783E+05  4.535365E+02 -5.924377E+03  2.088809E+04  4.549583E+03  1.144825E+04
       372  25 -7.316310E+05 -9.081425E+04 -9.935882E+04  2.186307E+04  1.413627E+04  1.454528E+04
       372  26 -6.918014E+05 -7.548363E+04 -8.118705E+04  1.042450E+04  8.580954E+03  1.328503E+04
       372  27 -6.542925E+05 -6.605475E+04 -6.813659E+04  1.923886E+04  3.028167E+03  1.144311E+04
       373   1 -1.507621E+05  5.707318E+04  4.888438E+04  2.153206E+04 -4.977067E+03 -1.026746E+04
       373   2 -1.894524E+05  4.788893E+04  4.205002E+04  1.130587E+04 -3.726728E+03 -8.377342E+03
       373   3 -2.285488E+05  3.840289E+04  3.428820E+04  2.146531E+04 -2.477147E+03 -6.455622E+03
       373   4 -3.837656E+05 -2.362037E+02 -4.579608E+03  2.092445E+04 -3.630247E+03 -1.026279E+04
       373   5 -3.835579E+05  1.287230E+02 -2.571744E+03  1.073065E+04 -2.357621E+03 -8.372409E+03
       373   6 -3.837612E+05  1.880983E+02 -1.506906E+03  2.092286E+04 -1.085677E+03 -6.450409E+03
       373   7 -6.167189E+05 -5.754937E+04 -5.804717E+04  2.031703E+04 -2.283927E+03 -1.025813E+04
       373   8 -5.776286E+05 -4.763411E+04 -4.719599E+04  1.015557E+04 -9.889392E+02 -8.367477E+03
       373   9 -5.389513E+05 -3.802838E+04 -3.730360E+04  2.038053E+04  3.054482E+02 -6.445197E+03
       373  10 -1.507622E+05  5.707306E+04  4.888414E+04  2.153201E+04  8.970883E-09 -7.019525E-09
       373  11 -1.894525E+05  4.788885E+04  4.204986E+04  1.130584E+04  5.807199E-10 -8.877468E-09
       373  12 -2.285489E+05  3.840284E+04  3.428811E+04  2.146530E+04 -2.963236E-09 -6.080988E-09
       373  13 -3.837657E+05 -2.363203E+02 -4.579830E+03  2.092442E+04  1.399481E-09 -3.173652E-10
       373  14 -3.835580E+05  1.286463E+02 -2.571886E+03  1.073063E+04 -2.637227E-09 -1.002034E-08
       373  15 -3.837612E+05  1.880533E+02 -1.506986E+03  2.092286E+04 -1.526806E-09 -6.952755E-09
       373  16 -6.167189E+05 -5.754948E+04 -5.804738E+04  2.031701E+04 -9.831975E-09 -5.947011E-09
       373  17 -5.776286E+05 -4.763419E+04 -4.719613E+04  1.015557E+04 -2.936811E-09  3.540037E-09
       373  18 -5.389513E+05 -3.802842E+04 -3.730368E+04  2.038053E+04  3.763194E-09  8.824756E-09
       373  19 -1.507621E+05  5.707318E+04  4.888438E+04  2.153206E+04  4.977067E+03  1.026746E+04
       373  20 -1.894524E+05  4.788893E+04  4.205002E+04  1.130587E+04  3.726728E+03  8.377342E+03
       373  21 -2.285488E+05  3.840289E+04  3.428820E+04  2.146531E+04  2.477147E+03  6.455622E+03
       373  22 -3.837656E+05 -2.362037E+02 -4.579608E+03  2.092445E+04  3.630247E+03  1.026279E+04
       373  23 -3.835579E+05  1.287230E+02 -2.571744E+03  1.073065E+04  2.357621E+03  8.372409E+03
       373  24 -3.837612E+05  1.880983E+02 -1.506906E+03  2.092286E+04  1.085677E+03  6.450409E+03
       373  25 -6.167189E+05 -5.754937E+04 -5.804717E+04  2.031703E+04  2.283927E+03  1.025813E+04
       373  26 -5.776286E+05 -4.763411E+04 -4.719599E+04  1.015557E+04  9.889392E+02  8.367477E+03
       373  27 -5.389513E+05 -3.802838E+04 -3.730360E+04  2.038053E+04 -3.054482E+02  6.445197E+03
       374   1 -2.658428E+05  2.912243E+04  2.581266E+04  2.130152E+04 -2.233349E+03 -5.331533E+03
       374   2 -3.047530E+05  1.950080E+04  1.740105E+04  1.095825E+04 -1.882465E+03 -3.406148E+03
       374   3 -3.438719E+05  9.999029E+03  8.747266E+03  2.106444E+04 -1.531853E+03 -1.478199E+03
       374   4 -3.837142E+05  1.412204E+02 -1.171016E+03  2.093752E+04 -8.493564E+02 -5.326261E+03
       374   5 -3.836081E+05  9.690396E+01 -7.272978E+02  1.071266E+04 -4.967275E+02 -3.400794E+03
       374   6 -3.837124E+05  1.722320E+02 -5.269381E+02  2.093739E+04 -1.443483E+02 -1.472758E+03
       374   7 -5.015727E+05 -2.884096E+04 -2.815559E+04  2.057358E+04  5.343757E+02 -5.320991E+03
       374   8 -4.624574E+05 -1.930742E+04 -1.885605E+04  1.046708E+04  8.888356E+02 -3.395441E+03
       374   9 -4.235515E+05 -9.654677E+03 -9.801242E+03  2.081036E+04  1.243068E+03 -1.467316E+03
       374  10 -2.658428E+05  2.912240E+04  2.581259E+04  2.130151E+04  1.052425E-08 -1.394674E-08
       374  11 -3.047530E+05  1.950079E+04  1.740102E+04  1.095825E+04 -6.380622E-09 -1.091418E-09
       374  12 -3.438719E+05  9.999027E+03  8.747257E+03  2.106444E+04 -1.849912E-08  9.038592E-10
       374  13 -3.837142E+05  1.411898E+02 -1.171071E+03  2.093752E+04  2.596736E-09 -1.750276E-09
       374  14 -3.836081E+05  9.689148E+01 -7.273200E+02  1.071265E+04 -2.285467E-09 -1.487656E-08
       374  15 -3.837124E+05  1.722296E+02 -5.269422E+02  2.093739E+04 -1.666087E-09 -7.716562E-09
       374  16 -5.015727E+05 -2.884099E+04 -2.815565E+04  2.057358E+04 -1.202920E-08  3.245686E-09
       374  17 -4.624574E+05 -1.930744E+04 -1.885607E+04  1.046709E+04  3.544088E-09  8.353316E-09
       374  18 -4.235515E+05 -9.654679E+03 -9.801249E+03  2.081036E+04  1.872623E-08  3.005838E-09
       374  19 -2.658428E+05  2.912243E+04  2.581266E+04  2.130152E+04  2.233349E+03  5.331533E+03
       374  20 -3.047530E+05  1.950080E+04  1.740105E+04  1.095825E+04  1.882465E+03  3.406148E+03
       374  21 -3.438719E+05  9.999029E+03  8.747266E+03  2.106444E+04  1.531853E+03  1.478199E+03
       374  22 -3.837142E+05  1.412204E+02 -1.171016E+03  2.093752E+04  8.493564E+02  5.326261E+03
       374  23 -3.836081E+05  9.690396E+01 -7.272978E+02  1.071266E+04  4.967275E+02  3.400794E+03
       374  24 -3.837124E+05  1.722320E+02 -5.269381E+02  2.093739E+04  1.443483E+02  1.472758E+03
       374  25 -5.015727E+05 -2.884096E+04 -2.815559E+04  2.057358E+04 -5.343757E+02  5.320991E+03
       374  26 -4.624574E+05 -1.930742E+04 -1.885605E+04  1.046708E+04 -8.888356E+02  3.395441E+03
       374  27 -4.235515E+05 -9.654677E+03 -9.801242E+03  2.081036E+04 -1.243068E+03  1.467316E+03
       375   1 -3.812742E+05  7.476521E+02 -4.613092E+01  2.094663E+04 -1.444385E+03 -3.555722E+02
       375   2 -4.202065E+05 -8.909924E+03 -8.946229E+03  1.059678E+04 -1.187165E+03  1.572769E+03
       375   3 -4.593355E+05 -1.843415E+04 -1.802505E+04  2.070691E+04 -9.298471E+02  3.499321E+03
       375   4 -3.837094E+05  1.713742E+02 -4.911777E+02  2.093969E+04 -5.674105E+01 -3.501163E+02
       375   5 -3.836105E+05  9.588928E+01 -5.324011E+02  1.070978E+04  1.991512E+02  1.578180E+03
       375   6 -3.837102E+05  1.539384E+02 -7.515040E+02  2.093976E+04  4.551578E+02  3.504694E+03
       375   7 -3.861445E+05 -4.049030E+02 -9.362175E+02  2.093276E+04  1.330897E+03 -3.446605E+02
       375   8 -3.470133E+05  9.101610E+03  7.881345E+03  1.082279E+04  1.585548E+03  1.583592E+03
       375   9 -3.080795E+05  1.874163E+04  1.652168E+04  2.117263E+04  1.840330E+03  3.510067E+03
       375  10 -3.812742E+05  7.476514E+02 -4.613508E+01  2.094663E+04  7.123379E-09  7.820102E-10
       375  11 -4.202065E+05 -8.909927E+03 -8.946236E+03  1.059678E+04 -2.673460E-09 -1.084078E-08
       375  12 -4.593355E+05 -1.843416E+04 -1.802508E+04  2.070691E+04 -1.325574E-08 -5.800000E-09
       375  13 -3.837094E+05  1.713741E+02 -4.911780E+02  2.093969E+04  1.817114E-09  3.191416E-09
       375  14 -3.836105E+05  9.588659E+01 -5.324058E+02  1.070978E+04 -2.300013E-09 -7.798284E-09
       375  15 -3.837102E+05  1.539252E+02 -7.515275E+02  2.093976E+04 -9.209349E-10 -3.939443E-09
       375  16 -3.861445E+05 -4.049036E+02 -9.362211E+02  2.093276E+04 -8.508661E-09  1.624231E-09
       375  17 -3.470133E+05  9.101607E+03  7.881336E+03  1.082279E+04  7.194443E-11 -1.789830E-08
       375  18 -3.080795E+05  1.874162E+04  1.652165E+04  2.117263E+04  1.534212E-08 -1.068136E-08
       375  19 -3.812742E+05  7.476521E+02 -4.613092E+01  2.094663E+04  1.444385E+03  3.555722E+02
       375  20 -4.202065E+05 -8.909924E+03 -8.946229E+03  1.059678E+04  1.187165E+03 -1.572769E+03
       375  21 -4.593355E+05 -1.843415E+04 -1.802505E+04  2.070691E+04  9.298471E+02 -3.499321E+03
       375  22 -3.837094E+05  1.713742E+02 -4.911777E+02  2.093969E+04  5.674105E+01  3.501163E+02
       375  23 -3.836105E+05  9.588928E+01 -5.324011E+02  1.070978E+04 -1.991512E+02 -1.578180E+03
       375  24 -3.837102E+05  1.539384E+02 -7.515040E+02  2.093976E+04 -4.551578E+02 -3.504694E+03
       375  25 -3.861445E+05 -4.049030E+02 -9.362175E+02  2.093276E+04 -1.330897E+03  3.446605E+02
       375  26 -3.470133E+05  9.101610E+03  7.881345E+03  1.082279E+04 -1.585548E+03 -1.583592E+03
       375  27 -3.080795E+05  1.874163E+04  1.652168E+04  2.117263E+04 -1.840330E+03 -3.510067E+03
       376   1 -4.967319E+05 -2.764935E+04 -2.703029E+04  2.054400E+04 -7.895804E+02  4.624006E+03
       376   2 -5.355190E+05 -3.727910E+04 -3.648219E+04  1.027190E+04 -7.158579E+00  6.547345E+03
       376   3 -5.746181E+05 -4.702958E+04 -4.651493E+04  2.041262E+04  7.757921E+02  8.442232E+03
       376   4 -3.837365E+05  1.818661E+02 -9.358999E+02  2.092891E+04  6.024702E+02  4.629346E+03
       376   5 -3.835836E+05  1.129057E+02 -1.547180E+03  1.072314E+04  1.364562E+03  6.552453E+03
       376   6 -3.837399E+05 -7.295018E+01 -2.724817E+03  2.092988E+04  2.127230E+03  8.447118E+03
       376   7 -2.707293E+05  2.801219E+04  2.515764E+04  2.131388E+04  1.994772E+03  4.634686E+03
       376   8 -2.316268E+05  3.750330E+04  3.338631E+04  1.117447E+04  2.736615E+03  6.557563E+03
       376   9 -1.928280E+05  4.688114E+04  4.106290E+04  2.144726E+04  3.479081E+03  8.452005E+03
       376  10 -4.967319E+05 -2.764937E+04 -2.703033E+04  2.054400E+04 -1.104454E-08  4.955801E-11
       376  11 -5.355190E+05 -3.727915E+04 -3.648227E+04  1.027190E+04 -6.403705E-09 -5.873937E-09
       376  12 -5.746181E+05 -4.702965E+04 -4.651506E+04  2.041261E+04  2.111692E-09 -2.409148E-10
       376  13 -3.837365E+05  1.818430E+02 -9.359408E+02  2.092891E+04  2.065016E-09 -2.098099E-09
       376  14 -3.835836E+05  1.128591E+02 -1.547264E+03  1.072313E+04 -2.045351E-09  3.830070E-09
       376  15 -3.837399E+05 -7.302801E+01 -2.724960E+03  2.092986E+04 -1.598359E-09  4.756686E-09
       376  16 -2.707293E+05  2.801217E+04  2.515760E+04  2.131387E+04  9.856265E-09  3.957437E-09
       376  17 -2.316268E+05  3.750325E+04  3.338622E+04  1.117445E+04  4.906585E-09 -5.528596E-10
       376  18 -1.928280E+05  4.688106E+04  4.106274E+04  2.144724E+04 -7.616832E-10  1.004829E-08
       376  19 -4.967319E+05 -2.764935E+04 -2.703029E+04  2.054400E+04  7.895804E+02 -4.624006E+03
       376  20 -5.355190E+05 -3.727910E+04 -3.648219E+04  1.027190E+04  7.158579E+00 -6.547345E+03
       376  21 -5.746181E+05 -4.702958E+04 -4.651493E+04  2.041262E+04 -7.757921E+02 -8.442232E+03
       376  22 -3.837365E+05  1.818661E+02 -9.358999E+02  2.092891E+04 -6.024702E+02 -4.629346E+03
       376  23 -3.835836E+05  1.129057E+02 -1.547180E+03  1.072314E+04 -1.364562E+03 -6.552453E+03
       376  24 -3.837399E+05 -7.295018E+01 -2.724817E+03  2.092988E+04 -2.127230E+03 -8.447118E+03
       376  25 -2.707293E+05  2.801219E+04  2.515764E+04  2.131388E+04 -1.994772E+03 -4.634686E+03
       376  26 -2.316268E+05  3.750330E+04  3.338631E+04  1.117447E+04 -2.736615E+03 -6.557563E+03
       376  27 -1.928280E+05  4.688114E+04  4.106290E+04  2.144726E+04 -3.479081E+03 -8.452005E+03
       377   1 -6.120973E+05 -5.583183E+04 -5.607082E+04  1.972394E+04  1.160192E+03  9.622388E+03
       377   2 -6.501331E+05 -6.534450E+04 -6.740497E+04  1.030918E+04  4.581393E+03  1.146950E+04
       377   3 -6.896184E+05 -7.831041E+04 -8.186359E+04  2.119790E+04  8.004975E+03  1.278586E+04
       377   4 -3.839825E+05  3.354139E+02 -3.516595E+03  2.090147E+04  2.671645E+03  9.627732E+03
       377   5 -3.832938E+05  3.316683E+02 -6.024101E+03  1.075597E+04  5.712179E+03  1.147320E+04
       377   6 -3.839892E+05 -3.058155E+03 -1.139050E+04  2.091346E+04  8.755305E+03  1.278802E+04
       377   7 -1.558195E+05  5.649901E+04  4.903419E+04  2.207939E+04  4.183649E+03  9.633082E+03
       377   8 -1.163886E+05  6.600286E+04  5.535206E+04  1.120289E+04  6.843447E+03  1.147690E+04
       377   9 -7.827353E+04  7.218756E+04  5.907637E+04  2.062880E+04  9.506001E+03  1.279017E+04
       377  10 -6.120973E+05 -5.583192E+04 -5.607100E+04  1.972393E+04  1.989238E-08  1.612917E-09
       377  11 -6.501331E+05 -6.534464E+04 -6.740526E+04  1.030913E+04  2.719012E-09  3.203134E-09
       377  12 -6.896185E+05 -7.831061E+04 -8.186402E+04  2.119782E+04 -9.350494E-09 -7.256458E-09
       377  13 -3.839826E+05  3.353124E+02 -3.516783E+03  2.090145E+04  2.235975E-09 -8.301479E-09
       377  14 -3.832939E+05  3.315183E+02 -6.024409E+03  1.075591E+04 -2.573815E-09  1.048658E-08
       377  15 -3.839894E+05 -3.058351E+03 -1.139096E+04  2.091337E+04 -1.652260E-09  2.215097E-09
       377  16 -1.558196E+05  5.649891E+04  4.903398E+04  2.207936E+04 -2.111285E-08  5.228535E-09
       377  17 -1.163887E+05  6.600270E+04  5.535172E+04  1.120283E+04 -4.284742E-09 -4.193787E-09
       377  18 -7.827368E+04  7.218736E+04  5.907590E+04  2.062870E+04  1.007077E-08  2.436107E-09
       377  19 -6.120973E+05 -5.583183E+04 -5.607082E+04  1.972394E+04 -1.160192E+03 -9.622388E+03
       377  20 -6.501331E+05 -6.534450E+04 -6.740497E+04  1.030918E+04 -4.581393E+03 -1.146950E+04
       377  21 -6.896184E+05 -7.831041E+04 -8.186359E+04  2.119790E+04 -8.004975E+03 -1.278586E+04
       377  22 -3.839825E+05  3.354139E+02 -3.516595E+03  2.090147E+04 -2.671645E+03 -9.627732E+03
       377  23 -3.832938E+05  3.316683E+02 -6.024101E+03  1.075597E+04 -5.712179E+03 -1.147320E+04
       377  24 -3.839892E+05 -3.058155E+03 -1.139050E+04  2.091346E+04 -8.755305E+03 -1.278802E+04
       377  25 -1.558195E+05  5.649901E+04  4.903419E+04  2.207939E+04 -4.183649E+03 -9.633082E+03
       377  26 -1.163886E+05  6.600286E+04  5.535206E+04  1.120289E+04 -6.843447E+03 -1.147690E+04
       377  27 -7.827353E+04  7.218756E+04  5.907637E+04  2.062880E+04 -9.506001E+03 -1.279017E+04
       378   1 -7.293670E+05 -8.191487E+04 -9.281157E+04  1.361650E+04  6.813972E+03  1.513712E+04
       378   2 -7.607351E+05 -9.076930E+04 -1.114622E+05  1.557235E+04  2.698629E+04  1.546933E+04
       378   3 -8.066511E+05 -1.469704E+05 -1.551096E+05  3.739561E+04  4.718955E+04  5.160652E+03
       378   4 -3.866218E+05  2.465916E+03 -1.414324E+04  2.076819E+04  1.083567E+04  1.515025E+04
       378   5 -3.800239E+05  2.987247E+03 -2.343994E+04  1.090526E+04  2.336053E+04  1.545675E+04
       378   6 -3.866382E+05 -4.249433E+04 -5.241017E+04  2.091012E+04  3.591793E+04  5.124485E+03
       378   7 -4.376760E+04  8.683869E+04  6.451743E+04  2.792376E+04  1.485957E+04  1.516348E+04
       378   8  8.215762E+02  9.673372E+04  6.457275E+04  6.235187E+03  1.973256E+04  1.544422E+04
       378   9  3.353655E+04  6.196988E+04  5.027697E+04  4.413315E+03  2.463868E+04  5.088929E+03
       378  10 -7.293671E+05 -8.191513E+04 -9.281209E+04  1.361642E+04  1.650576E-09 -6.464064E-09
       378  11 -7.607360E+05 -9.076976E+04 -1.114641E+05  1.557201E+04  3.424096E-09 -1.991279E-09
       378  12 -8.066535E+05 -1.469711E+05 -1.551138E+05  3.739541E+04  4.126349E-09  6.337746E-09
       378  13 -3.866220E+05  2.465638E+03 -1.414389E+04  2.076805E+04  7.212585E-10  5.395040E-09
       378  14 -3.800245E+05  2.986844E+03 -2.344142E+04  1.090497E+04 -2.805866E-09  3.414999E-09
       378  15 -3.866396E+05 -4.249471E+04 -5.241265E+04  2.090997E+04 -1.218818E-09  1.946970E-09
       378  16 -4.376790E+04  8.683838E+04  6.451658E+04  2.792358E+04 -3.146261E-09  4.123952E-09
       378  17  8.210941E+02  9.673336E+04  6.457157E+04  6.234941E+03 -4.987251E-09  6.190920E-09
       378  18  3.353589E+04  6.196969E+04  5.027578E+04  4.413214E+03 -3.433249E-09 -1.860872E-09
       378  19 -7.293670E+05 -8.191487E+04 -9.281157E+04  1.361650E+04 -6.813972E+03 -1.513712E+04
       378  20 -7.607351E+05 -9.076930E+04 -1.114622E+05  1.557235E+04 -2.698629E+04 -1.546933E+04
       378  21 -8.066511E+05 -1.469704E+05 -1.551096E+05  3.739561E+04 -4.718955E+04 -5.160652E+03
       378  22 -3.866218E+05  2.465916E+03 -1.414324E+04  2.076819E+04 -1.083567E+04 -1.515025E+04
       378  23 -3.800239E+05  2.987247E+03 -2.343994E+04  1.090526E+04 -2.336053E+04 -1.545675E+04
       378  24 -3.866382E+05 -4.249433E+04 -5.241017E+04  2.091012E+04 -3.591793E+04 -5.124485E+03
       378  25 -4.376760E+04  8.683869E+04  6.451743E+04  2.792376E+04 -1.485957E+04 -1.516348E+04
       378  26  8.215762E+02  9.673372E+04  6.457275E+04  6.235187E+03 -1.973256E+04 -1.544422E+04
       378  27  3.353655E+04  6.196988E+04  5.027697E+04  4.413315E+03 -2.463868E+04 -5.088929E+03
       379   1 -1.863143E+05 -7.273497E+05 -1.802978E+05  1.804365E+05 -7.482479E+03 -5.317288E+04
       379   2 -1.276811E+05 -5.556631E+05 -1.111955E+05  1.561001E+05 -2.271597E+04 -2.050594E+04
       379   3 -8.363386E+04 -3.915792E+05 -6.699864E+04  1.688089E+05 -2.088032E+04  1.221861E+04
       379   4 -1.703344E+04 -4.415362E+04 -1.773614E+04  1.691947E+05 -7.580112E+03 -1.341920E+04
       379   5 -4.368957E+03 -4.280102E+04 -7.827010E+03  1.506915E+05 -2.274114E+04 -9.395311E+03
       379   6 -1.306406E+03 -4.409738E+04 -2.913511E+03  1.692335E+05 -2.083887E+04 -5.323588E+03
       379   7  1.522150E+05  6.394748E+05  1.447989E+05  1.579406E+05 -7.679136E+03  2.637806E+04
       379   8  1.189271E+05  4.703122E+05  9.552847E+04  1.452785E+05 -2.276649E+04  1.724323E+03
       379   9  8.101433E+04  3.035023E+05  6.116776E+04  1.696584E+05 -2.079746E+04 -2.287535E+04
       379  10 -1.863151E+05 -7.273527E+05 -1.803033E+05  1.804362E+05 -7.719554E-10  1.772936E-10
       379  11 -1.276818E+05 -5.556637E+05 -1.111973E+05  1.560997E+05 -2.517296E-09  5.527870E-09
       379  12 -8.363437E+04 -3.915795E+05 -6.699974E+04  1.688091E+05  3.656905E-09  2.371112E-09
       379  13 -1.703355E+04 -4.415383E+04 -1.773658E+04  1.691946E+05  1.126050E-09 -2.143627E-09
       379  14 -4.369536E+03 -4.280125E+04 -7.828148E+03  1.506913E+05 -6.541791E-10 -1.077337E-09
       379  15 -1.306880E+03 -4.409753E+04 -2.914380E+03  1.692334E+05  1.296531E-09  1.124748E-09
       379  16  1.522148E+05  6.394740E+05  1.447975E+05  1.579408E+05  5.706520E-10 -2.628609E-09
       379  17  1.189266E+05  4.703121E+05  9.552749E+04  1.452785E+05  3.064851E-09 -4.718874E-09
       379  18  8.101372E+04  3.035016E+05  6.116597E+04  1.696580E+05 -1.232530E-09 -2.682888E-09
       379  19 -1.863143E+05 -7.273497E+05 -1.802978E+05  1.804365E+05  7.482479E+03  5.317288E+04
       379  20 -1.276811E+05 -5.556631E+05 -1.111955E+05  1.561001E+05  2.271597E+04  2.050594E+04
       379  21 -8.363386E+04 -3.915792E+05 -6.699864E+04  1.688089E+05  2.088032E+04 -1.221861E+04
       379  22 -1.703344E+04 -4.415362E+04 -1.773614E+04  1.691947E+05  7.580112E+03  1.341920E+04
       379  23 -4.368957E+03 -4.280102E+04 -7.827010E+03  1.506915E+05  2.274114E+04  9.395311E+03
       379  24 -1.306406E+03 -4.409738E+04 -2.913511E+03  1.692335E+05  2.083887E+04  5.323588E+03
       379  25  1.522150E+05  6.394748E+05  1.447989E+05  1.579406E+05  7.679136E+03 -2.637806E+04
       379  26  1.189271E+05  4.703122E+05  9.552847E+04  1.452785E+05  2.276649E+04 -1.724323E+03
       379  27  8.101433E+04  3.035023E+05  6.116776E+04  1.696584E+05  2.079746E+04  2.287535E+04
       380   1 -5.773235E+04 -2.805272E+05 -4.466627E+04  1.698875E+05 -1.440174E+04  1.065407E+04
       380   2 -1.683870E+04 -1.129265E+05 -9.385412E+03  1.508104E+05 -4.893174E+03  9.857623E+03
       380   3  2.444060E+04  5.515333E+04  2.657301E+04  1.698293E+05  4.902032E+03  9.061184E+03
       380   4 -1.577173E+03 -4.337729E+04 -1.092559E+03  1.694604E+05 -1.436551E+04 -5.072799E+03
       380   5 -5.793806E+02 -4.364145E+04  2.610371E+03  1.504154E+05 -4.856239E+03 -6.352432E+03
       380   6  8.895074E+02 -4.336946E+04  7.327034E+03  1.694660E+05  4.939610E+03 -7.631849E+03
       380   7  5.457494E+04  1.938278E+05  4.247977E+04  1.690331E+05 -1.432928E+04 -2.080552E+04
       380   8  1.567982E+04  2.564883E+04  1.460697E+04  1.500203E+05 -4.819285E+03 -2.256424E+04
       380   9 -2.266202E+04 -1.418824E+05 -1.191836E+04  1.691029E+05  4.977211E+03 -2.432229E+04
       380  10 -5.773260E+04 -2.805274E+05 -4.466687E+04  1.698876E+05  4.769417E-09 -2.902600E-09
       380  11 -1.683875E+04 -1.129266E+05 -9.385639E+03  1.508105E+05  1.185747E-09  2.335594E-09
       380  12  2.444055E+04  5.515324E+04  2.657281E+04  1.698292E+05  9.385117E-10 -3.081807E-09
       380  13 -1.577401E+03 -4.337737E+04 -1.092995E+03  1.694603E+05  1.717835E-09 -1.076028E-09
       380  14 -5.794168E+02 -4.364150E+04  2.610251E+03  1.504153E+05  2.982852E-09  5.546237E-10
       380  15  8.894656E+02 -4.336953E+04  7.326878E+03  1.694661E+05  1.499852E-09 -6.415389E-10
       380  16  5.457460E+04  1.938272E+05  4.247857E+04  1.690329E+05 -1.791086E-09 -2.539864E-09
       380  17  1.567966E+04  2.564828E+04  1.460597E+04  1.500202E+05 -7.066656E-10 -4.463600E-09
       380  18 -2.266220E+04 -1.418830E+05 -1.191952E+04  1.691030E+05 -8.623417E-10  2.803110E-09
       380  19 -5.773235E+04 -2.805272E+05 -4.466627E+04  1.698875E+05  1.440174E+04 -1.065407E+04
       380  20 -1.683870E+04 -1.129265E+05 -9.385412E+03  1.508104E+05  4.893174E+03 -9.857623E+03
       380  21  2.444060E+04  5.515333E+04  2.657301E+04  1.698293E+05 -4.902032E+03 -9.061184E+03
       380  22 -1.577173E+03 -4.337729E+04 -1.092559E+03  1.694604E+05  1.436551E+04  5.072799E+03
       380  23 -5.793806E+02 -4.364145E+04  2.610371E+03  1.504154E+05  4.856239E+03  6.352432E+03
       380  24  8.895074E+02 -4.336946E+04  7.327034E+03  1.694660E+05 -4.939610E+03  7.631849E+03
       380  25  5.457494E+04  1.938278E+05  4.247977E+04  1.690331E+05  1.432928E+04  2.080552E+04
       380  26  1.567982E+04  2.564883E+04  1.460697E+04  1.500203E+05  4.819285E+03  2.256424E+04
       380  27 -2.266202E+04 -1.418824E+05 -1.191836E+04  1.691029E+05 -4.977211E+03  2.432229E+04
       381   1  4.996367E+04  1.668110E+05  4.982855E+04  1.666597E+05  1.152609E+04  9.214730E+03
       381   2  9.772128E+04  3.292932E+05  9.657180E+04  1.604965E+05  1.547701E+04 -2.419865E+04
       381   3  1.713733E+05  5.028835E+05  1.715915E+05  1.916684E+05  5.621440E+03 -5.765832E+04
       381   4  2.954202E+02 -4.192536E+04  1.027523E+04  1.692830E+05  1.156746E+04 -8.894127E+03
       381   5  7.479312E+03 -4.547723E+04  1.977547E+04  1.506605E+05  1.546618E+04 -1.909977E+04
       381   6  3.654041E+04 -4.196513E+04  4.144576E+04  1.693712E+05  5.555938E+03 -2.934261E+04
       381   7 -4.937518E+04 -2.506190E+05 -2.927880E+04  1.719055E+05  1.160867E+04 -2.699704E+04
       381   8 -8.277108E+04 -4.201140E+05 -5.702818E+04  1.408306E+05  1.545518E+04 -1.400391E+04
       381   9 -9.831163E+04 -5.865389E+05 -8.871755E+04  1.470938E+05  5.488378E+03 -1.051615E+03
       381  10  4.996351E+04  1.668109E+05  4.982814E+04  1.666596E+05  2.057221E-09  2.526788E-11
       381  11  9.772087E+04  3.292925E+05  9.657025E+04  1.604968E+05 -2.002053E-10  6.271655E-09
       381  12  1.713724E+05  5.028800E+05  1.715852E+05  1.916686E+05 -1.118911E-09 -3.895033E-11
       381  13  2.952552E+02 -4.192548E+04  1.027483E+04  1.692831E+05 -1.143393E-09 -2.294762E-11
       381  14  7.478957E+03 -4.547768E+04  1.977433E+04  1.506607E+05  9.287832E-10  2.164720E-09
       381  15  3.654015E+04 -4.196607E+04  4.144408E+04  1.693713E+05 -5.750945E-10 -3.105554E-10
       381  16 -4.937552E+04 -2.506198E+05 -2.928042E+04  1.719057E+05 -1.438200E-09 -5.445807E-09
       381  17 -8.277139E+04 -4.201143E+05 -5.702900E+04  1.408307E+05  1.271882E-09 -7.513203E-09
       381  18 -9.831166E+04 -5.865389E+05 -8.871761E+04  1.470938E+05 -2.364470E-10 -1.119479E-09
       381  19  4.996367E+04  1.668110E+05  4.982855E+04  1.666597E+05 -1.152609E+04 -9.214730E+03
       381  20  9.772128E+04  3.292932E+05  9.657180E+04  1.604965E+05 -1.547701E+04  2.419865E+04
       381  21  1.713733E+05  5.028835E+05  1.715915E+05  1.916684E+05 -5.621440E+03  5.765832E+04
       381  22  2.954202E+02 -4.192536E+04  1.027523E+04  1.692830E+05 -1.156746E+04  8.894127E+03
       381  23  7.479312E+03 -4.547723E+04  1.977547E+04  1.506605E+05 -1.546618E+04  1.909977E+04
       381  24  3.654041E+04 -4.196513E+04  4.144576E+04  1.693712E+05 -5.555938E+03  2.934261E+04
       381  25 -4.937518E+04 -2.506190E+05 -2.927880E+04  1.719055E+05 -1.160867E+04  2.699704E+04
       381  26 -8.277108E+04 -4.201140E+05 -5.702818E+04  1.408306E+05 -1.545518E+04  1.400391E+04
       381  27 -9.831163E+04 -5.865389E+05 -8.871755E+04  1.470938E+05 -5.488378E+03  1.051615E+03
       382   1  7.881790E+05  2.999643E+05  1.927155E+05  2.819025E+05  7.802617E+04  2.487087E+04
       382   2  7.583864E+05  1.845418E+05  1.199715E+05  2.783575E+05  5.080553E+04  4.969091E+03
       382   3  7.560932E+05  1.688169E+05  9.434263E+04  2.635553E+05  2.032291E+04 -6.304483E+03
       382   4  4.912449E+05  1.566888E+05  1.066912E+05  1.688032E+05  6.942314E+04  2.161152E+04
       382   5  4.723410E+05  6.733234E+04  4.537514E+04  1.896022E+05  4.803590E+04  3.919542E+03
       382   6  4.797968E+05  7.654187E+04  2.656828E+04  1.991400E+05  2.338484E+04 -5.145295E+03
       382   7  1.944023E+05  1.343796E+04  2.065980E+04  5.575955E+04  6.082471E+04  1.835499E+04
       382   8  1.863768E+05 -4.986689E+04 -2.922786E+04  1.008859E+05  4.526768E+04  2.870631E+03
       382   9  2.035733E+05 -1.573233E+04 -4.121210E+04  1.347485E+05  2.644529E+04 -3.986523E+03
       382  10  7.881723E+05  2.999621E+05  1.927029E+05  2.819009E+05  5.570055E-09  4.476945E-09
       382  11  7.583836E+05  1.845410E+05  1.199666E+05  2.783573E+05  3.208106E-10 -1.659512E-08
       382  12  7.560928E+05  1.688168E+05  9.434178E+04  2.635555E+05 -2.778269E-09  3.254457E-09
       382  13  4.912396E+05  1.566870E+05  1.066813E+05  1.688020E+05  2.103484E-09 -8.761549E-09
       382  14  4.723385E+05  6.733171E+04  4.537078E+04  1.896021E+05  2.976272E-09 -8.409708E-09
       382  15  4.797962E+05  7.654169E+04  2.656721E+04  1.991401E+05  2.322188E-09  4.346219E-09
       382  16  1.943982E+05  1.343660E+04  2.065222E+04  5.575865E+04 -3.242614E-09 -3.212193E-09
       382  17  1.863746E+05 -4.986745E+04 -2.923173E+04  1.008858E+05  1.284241E-09  6.337016E-09
       382  18  2.035726E+05 -1.573254E+04 -4.121345E+04  1.347486E+05  5.931734E-09 -1.436601E-09
       382  19  7.881790E+05  2.999643E+05  1.927155E+05  2.819025E+05 -7.802617E+04 -2.487087E+04
       382  20  7.583864E+05  1.845418E+05  1.199715E+05  2.783575E+05 -5.080553E+04 -4.969091E+03
       382  21  7.560932E+05  1.688169E+05  9.434263E+04  2.635553E+05 -2.032291E+04  6.304483E+03
       382  22  4.912449E+05  1.566888E+05  1.066912E+05  1.688032E+05 -6.942314E+04 -2.161152E+04
       382  23  4.723410E+05  6.733234E+04  4.537514E+04  1.896022E+05 -4.803590E+04 -3.919542E+03
       382  24  4.797968E+05  7.654187E+04  2.656828E+04  1.991400E+05 -2.338484E+04  5.145295E+03
       382  25  1.944023E+05  1.343796E+04  2.065980E+04  5.575955E+04 -6.082471E+04 -1.835499E+04
       382  26  1.863768E+05 -4.986689E+04 -2.922786E+04  1.008859E+05 -4.526768E+04 -2.870631E+03
       382  27  2.035733E+05 -1.573233E+04 -4.121210E+04  1.347485E+05 -2.644529E+04  3.986523E+03
       383   1  7.169913E+05  1.787753E+05  8.293825E+04  2.619641E+05  1.873976E+04 -4.806490E+03
       383   2  6.958625E+05  1.560964E+05  6.568458E+04  2.499800E+05  1.267488E+04 -6.196901E+03
       383   3  6.679720E+05  1.510893E+05  5.472416E+04  2.479381E+05  6.438660E+03 -7.135324E+03
       383   4  4.763749E+05  8.615315E+04  2.134224E+04  1.934053E+05  1.911801E+04 -4.663664E+03
       383   5  4.793260E+05  7.412151E+04  1.064745E+04  1.896573E+05  1.336023E+04 -5.937585E+03
       383   6  4.754551E+05  7.970244E+04  6.004457E+03  1.958511E+05  7.430841E+03 -6.759565E+03
       383   7  2.358151E+05 -6.464344E+03 -4.025850E+04  1.248708E+05  1.949611E+04 -4.520902E+03
       383   8  2.628357E+05 -7.849933E+03 -4.439334E+04  1.293538E+05  1.404532E+04 -5.678371E+03
       383   9  2.829751E+05  8.318124E+03 -4.271800E+04  1.437788E+05  8.422681E+03 -6.383931E+03
       383  10  7.169909E+05  1.787752E+05  8.293755E+04  2.619642E+05  1.142990E-08  1.437483E-08
       383  11  6.958623E+05  1.560963E+05  6.568421E+04  2.499801E+05  5.621584E-09  5.168529E-09
       383  12  6.679720E+05  1.510892E+05  5.472399E+04  2.479381E+05  3.958531E-09  1.955244E-09
       383  13  4.763745E+05  8.615303E+04  2.134151E+04  1.934054E+05  2.254984E-09 -3.904493E-09
       383  14  4.793258E+05  7.412142E+04  1.064705E+04  1.896574E+05  1.085083E-09 -1.553373E-08
       383  15  4.754550E+05  7.970238E+04  6.004268E+03  1.958511E+05  1.570302E-09 -8.388707E-09
       383  16  2.358147E+05 -6.464468E+03 -4.025925E+04  1.248709E+05 -8.874962E-09 -5.608550E-09
       383  17  2.628355E+05 -7.850020E+03 -4.439377E+04  1.293539E+05 -3.256314E-09 -3.135847E-09
       383  18  2.829750E+05  8.318061E+03 -4.271821E+04  1.437788E+05 -2.477694E-10  7.974652E-09
       383  19  7.169913E+05  1.787753E+05  8.293825E+04  2.619641E+05 -1.873976E+04  4.806490E+03
       383  20  6.958625E+05  1.560964E+05  6.568458E+04  2.499800E+05 -1.267488E+04  6.196901E+03
       383  21  6.679720E+05  1.510893E+05  5.472416E+04  2.479381E+05 -6.438660E+03  7.135324E+03
       383  22  4.763749E+05  8.615315E+04  2.134224E+04  1.934053E+05 -1.911801E+04  4.663664E+03
       383  23  4.793260E+05  7.412151E+04  1.064745E+04  1.896573E+05 -1.336023E+04  5.937585E+03
       383  24  4.754551E+05  7.970244E+04  6.004457E+03  1.958511E+05 -7.430841E+03  6.759565E+03
       383  25  2.358151E+05 -6.464344E+03 -4.025850E+04  1.248708E+05 -1.949611E+04  4.520902E+03
       383  26  2.628357E+05 -7.849933E+03 -4.439334E+04  1.293538E+05 -1.404532E+04  5.678371E+03
       383  27  2.829751E+05  8.318124E+03 -4.271800E+04  1.437788E+05 -8.422681E+03  6.383931E+03
       384   1  6.415143E+05  1.430904E+05  4.676463E+04  2.413703E+05  5.425107E+03 -6.590566E+03
       384   2  6.215340E+05  1.280137E+05  3.838037E+04  2.287928E+05  3.688053E+03 -5.800280E+03
       384   3  5.917475E+05  1.237606E+05  3.109620E+04  2.276480E+05  1.942981E+03 -4.989725E+03
       384   4  4.751148E+05  8.043005E+04  4.618047E+03  1.953362E+05  6.272342E+03 -6.269642E+03
       384   5  4.799849E+05  7.477289E+04  2.473665E+03  1.897137E+05  4.549325E+03 -5.473917E+03
       384   6  4.750461E+05  7.993692E+04  1.418659E+03  1.955241E+05  2.818237E+03 -4.657940E+03
       384   7  3.087416E+05  1.777139E+04 -3.753094E+04  1.493130E+05  7.119332E+03 -5.948811E+03
       384   8  3.384551E+05  2.153336E+04 -3.343473E+04  1.506427E+05  5.410385E+03 -5.147635E+03
       384   9  3.583579E+05  3.611419E+04 -2.825999E+04  1.634056E+05  3.693314E+03 -4.326223E+03
       384  10  6.415143E+05  1.430903E+05  4.676449E+04  2.413703E+05  1.688247E-09 -3.153446E-09
       384  11  6.215340E+05  1.280136E+05  3.838028E+04  2.287928E+05 -2.160382E-09 -6.460458E-09
       384  12  5.917475E+05  1.237605E+05  3.109615E+04  2.276480E+05 -8.483116E-09 -1.233371E-08
       384  13  4.751147E+05  8.043000E+04  4.617899E+03  1.953362E+05  2.040521E-09 -2.983968E-10
       384  14  4.799849E+05  7.477285E+04  2.473570E+03  1.897138E+05  4.094850E-09 -1.589877E-09
       384  15  4.750460E+05  7.993690E+04  1.418603E+03  1.955241E+05 -1.584646E-09 -5.040646E-10
       384  16  3.087415E+05  1.777133E+04 -3.753110E+04  1.493131E+05  3.660787E-09  2.966630E-10
       384  17  3.384551E+05  2.153332E+04 -3.343483E+04  1.506427E+05  5.265718E-09  7.782708E-09
       384  18  3.583579E+05  3.611416E+04 -2.826005E+04  1.634056E+05  1.097864E-08  8.314696E-09
       384  19  6.415143E+05  1.430904E+05  4.676463E+04  2.413703E+05 -5.425107E+03  6.590566E+03
       384  20  6.215340E+05  1.280137E+05  3.838037E+04  2.287928E+05 -3.688053E+03  5.800280E+03
       384  21  5.917475E+05  1.237606E+05  3.109620E+04  2.276480E+05 -1.942981E+03  4.989725E+03
       384  22  4.751148E+05  8.043005E+04  4.618047E+03  1.953362E+05 -6.272342E+03  6.269642E+03
       384  23  4.799849E+05  7.477289E+04  2.473665E+03  1.897137E+05 -4.549325E+03  5.473917E+03
       384  24  4.750461E+05  7.993692E+04  1.418659E+03  1.955241E+05 -2.818237E+03  4.657940E+03
       384  25  3.087416E+05  1.777139E+04 -3.753094E+04  1.493130E+05 -7.119332E+03  5.948811E+03
       384  26  3.384551E+05  2.153336E+04 -3.343473E+04  1.506427E+05 -5.410385E+03  5.147635E+03
       384  27  3.583579E+05  3.611419E+04 -2.825999E+04  1.634056E+05 -3.693314E+03  4.326223E+03
       385   1  5.665716E+05  1.144002E+05  2.424306E+04  2.207497E+05  1.459220E+03 -4.313025E+03
       385   2  5.468503E+05  9.998665E+04  1.765614E+04  2.081843E+05  6.187679E+02 -3.163556E+03
       385   3  5.170500E+05  9.577803E+04  1.134656E+04  2.070783E+05 -2.215913E+02 -2.014715E+03
       385   4  4.750124E+05  7.997522E+04  1.107595E+03  1.954641E+05  2.325384E+03 -3.984631E+03
       385   5  4.800507E+05  7.485838E+04  7.101931E+02  1.897401E+05  1.484559E+03 -2.835252E+03
       385   6  4.750094E+05  7.994662E+04  5.905057E+02  1.954755E+05  6.438076E+02 -1.686501E+03
       385   7  3.834618E+05  4.555098E+04 -2.202845E+04  1.701820E+05  3.191405E+03 -3.656292E+03
       385   8  4.132555E+05  4.973041E+04 -1.623611E+04  1.712978E+05  2.350248E+03 -2.506986E+03
       385   9  4.329704E+05  6.411526E+04 -1.016574E+04  1.838734E+05  1.509146E+03 -1.358310E+03
       385  10  5.665716E+05  1.144001E+05  2.424303E+04  2.207498E+05 -1.472454E-09  1.950427E-09
       385  11  5.468503E+05  9.998664E+04  1.765612E+04  2.081843E+05  4.343469E-10  1.095675E-08
       385  12  5.170500E+05  9.577803E+04  1.134656E+04  2.070783E+05 -3.675781E-09  3.932688E-09
       385  13  4.750124E+05  7.997520E+04  1.107554E+03  1.954642E+05  1.762648E-09 -3.789804E-10
       385  14  4.800507E+05  7.485837E+04  7.101738E+02  1.897402E+05  4.678023E-09  1.304040E-08
       385  15  4.750094E+05  7.994661E+04  5.904996E+02  1.954755E+05  2.604181E-09 -1.642652E-09
       385  16  3.834618E+05  4.555096E+04 -2.202849E+04  1.701820E+05  3.494809E-09  6.505950E-09
       385  17  4.132555E+05  4.973041E+04 -1.623613E+04  1.712978E+05  4.111218E-09  2.399051E-09
       385  18  4.329704E+05  6.411525E+04 -1.016575E+04  1.838734E+05  7.615168E-09  1.441155E-09
       385  19  5.665716E+05  1.144002E+05  2.424306E+04  2.207497E+05 -1.459220E+03  4.313025E+03
       385  20  5.468503E+05  9.998665E+04  1.765614E+04  2.081843E+05 -6.187679E+02  3.163556E+03
       385  21  5.170500E+05  9.577803E+04  1.134656E+04  2.070783E+05  2.215913E+02  2.014715E+03
       385  22  4.750124E+05  7.997522E+04  1.107595E+03  1.954641E+05 -2.325384E+03  3.984631E+03
       385  23  4.800507E+05  7.485838E+04  7.101931E+02  1.897401E+05 -1.484559E+03  2.835252E+03
       385  24  4.750094E+05  7.994662E+04  5.905057E+02  1.954755E+05 -6.438076E+02  1.686501E+03
       385  25  3.834618E+05  4.555098E+04 -2.202845E+04  1.701820E+05 -3.191405E+03  3.656292E+03
       385  26  4.132555E+05  4.973041E+04 -1.623611E+04  1.712978E+05 -2.350248E+03  2.506986E+03
       385  27  4.329704E+05  6.411526E+04 -1.016574E+04  1.838734E+05 -1.509146E+03  1.358310E+03
       386   1  4.920723E+05  8.635570E+04  4.846945E+03  2.002006E+05 -6.034622E+02 -1.305898E+03
       386   2  4.723913E+05  7.199568E+04 -1.128365E+03  1.876442E+05 -1.493545E+03 -1.775849E+02
       386   3  4.426581E+05  6.783357E+04 -6.786542E+03  1.865244E+05 -2.383287E+03  9.500139E+02
       386   4  4.750152E+05  7.994191E+04  6.083054E+02  1.954717E+05  2.613405E+02 -9.778925E+02
       386   5  4.800445E+05  7.486342E+04  8.111630E+02  1.897457E+05 -6.292607E+02  1.502148E+02
       386   6  4.750210E+05  7.998278E+04  1.331546E+03  1.954562E+05 -1.519539E+03  1.277603E+03
       386   7  4.579584E+05  7.352815E+04 -3.630353E+03  1.907429E+05  1.126117E+03 -6.498974E+02
       386   8  4.876978E+05  7.773115E+04  2.750685E+03  1.918473E+05  2.350333E+02  4.780182E+02
       386   9  5.073847E+05  9.213202E+04  9.449519E+03  2.043883E+05 -6.557447E+02  1.605210E+03
       386  10  4.920723E+05  8.635569E+04  4.846941E+03  2.002006E+05  4.969593E-09  1.010547E-09
       386  11  4.723913E+05  7.199568E+04 -1.128369E+03  1.876442E+05 -5.695608E-09 -1.364695E-08
       386  12  4.426581E+05  6.783357E+04 -6.786555E+03  1.865244E+05 -5.942708E-09 -1.338261E-08
       386  13  4.750152E+05  7.994191E+04  6.083035E+02  1.954717E+05  2.056630E-10  7.886064E-09
       386  14  4.800445E+05  7.486342E+04  8.111622E+02  1.897457E+05  2.832883E-09 -6.404820E-09
       386  15  4.750210E+05  7.998278E+04  1.331539E+03  1.954562E+05 -5.046083E-10  2.883332E-09
       386  16  4.579584E+05  7.352815E+04 -3.630356E+03  1.907429E+05 -3.046353E-09 -1.838098E-09
       386  17  4.876978E+05  7.773115E+04  2.750685E+03  1.918473E+05  8.624649E-09 -4.028254E-09
       386  18  5.073847E+05  9.213202E+04  9.449514E+03  2.043883E+05  7.395932E-09  1.471788E-09
       386  19  4.920723E+05  8.635570E+04  4.846945E+03  2.002006E+05  6.034622E+02  1.305898E+03
       386  20  4.723913E+05  7.199568E+04 -1.128365E+03  1.876442E+05  1.493545E+03  1.775849E+02
       386  21  4.426581E+05  6.783357E+04 -6.786542E+03  1.865244E+05  2.383287E+03 -9.500139E+02
       386  22  4.750152E+05  7.994191E+04  6.083054E+02  1.954717E+05 -2.613405E+02  9.778925E+02
       386  23  4.800445E+05  7.486342E+04  8.111630E+02  1.897457E+05  6.292607E+02 -1.502148E+02
       386  24  4.750210E+05  7.998278E+04  1.331546E+03  1.954562E+05  1.519539E+03 -1.277603E+03
       386  25  4.579584E+05  7.352815E+04 -3.630353E+03  1.907429E+05 -1.126117E+03  6.498974E+02
       386  26  4.876978E+05  7.773115E+04  2.750685E+03  1.918473E+05 -2.350333E+02 -4.780182E+02
       386  27  5.073847E+05  9.213202E+04  9.449519E+03  2.043883E+05  6.557447E+02 -1.605210E+03
       387   1  4.176428E+05  5.842089E+04 -1.291468E+04  1.797864E+05 -2.925279E+03  1.601098E+03
       387   2  3.978321E+05  4.388439E+04 -1.779435E+04  1.670572E+05 -4.927252E+03  2.308120E+03
       387   3  3.683457E+05  4.025499E+04 -2.134632E+04  1.656696E+05 -6.922284E+03  2.997550E+03
       387   4  4.750734E+05  7.992380E+04  1.724169E+03  1.955171E+05 -2.054729E+03  1.931243E+03
       387   5  4.799535E+05  7.477662E+04  3.040764E+03  1.897294E+05 -4.068818E+03  2.633603E+03
       387   6  4.751602E+05  8.053895E+04  5.694677E+03  1.952831E+05 -6.076029E+03  3.318348E+03
       387   7  5.325074E+05  1.014270E+05  1.636282E+04  2.112491E+05 -1.184087E+03  2.261422E+03
       387   8  5.620816E+05  1.056694E+05  2.387538E+04  2.124043E+05 -3.210257E+03  2.959133E+03
       387   9  5.819858E+05  1.208237E+05  3.273476E+04  2.249012E+05 -5.229614E+03  3.639207E+03
       387  10  4.176428E+05  5.842088E+04 -1.291470E+04  1.797864E+05  6.105866E-09 -4.790240E-09
       387  11  3.978320E+05  4.388438E+04 -1.779440E+04  1.670572E+05  1.929892E-09  1.724468E-09
       387  12  3.683457E+05  4.025496E+04 -2.134642E+04  1.656696E+05 -6.138277E-09 -1.304754E-08
       387  13  4.750734E+05  7.992379E+04  1.724154E+03  1.955171E+05  1.486281E-10 -3.259389E-09
       387  14  4.799534E+05  7.477661E+04  3.040720E+03  1.897294E+05 -1.714996E-09 -3.850340E-09
       387  15  4.751601E+05  8.053893E+04  5.694587E+03  1.952831E+05 -4.448609E-09 -1.126421E-08
       387  16  5.325074E+05  1.014270E+05  1.636281E+04  2.112491E+05 -6.614025E-09  1.366356E-08
       387  17  5.620816E+05  1.056694E+05  2.387534E+04  2.124043E+05  5.241699E-10  1.315651E-08
       387  18  5.819858E+05  1.208237E+05  3.273469E+04  2.249012E+05  4.255488E-09  6.937613E-09
       387  19  4.176428E+05  5.842089E+04 -1.291468E+04  1.797864E+05  2.925279E+03 -1.601098E+03
       387  20  3.978321E+05  4.388439E+04 -1.779435E+04  1.670572E+05  4.927252E+03 -2.308120E+03
       387  21  3.683457E+05  4.025499E+04 -2.134632E+04  1.656696E+05  6.922284E+03 -2.997550E+03
       387  22  4.750734E+05  7.992380E+04  1.724169E+03  1.955171E+05  2.054729E+03 -1.931243E+03
       387  23  4.799535E+05  7.477662E+04  3.040764E+03  1.897294E+05  4.068818E+03 -2.633603E+03
       387  24  4.751602E+05  8.053895E+04  5.694677E+03  1.952831E+05  6.076029E+03 -3.318348E+03
       387  25  5.325074E+05  1.014270E+05  1.636282E+04  2.112491E+05  1.184087E+03 -2.261422E+03
       387  26  5.620816E+05  1.056694E+05  2.387538E+04  2.124043E+05  3.210257E+03 -2.959133E+03
       387  27  5.819858E+05  1.208237E+05  3.273476E+04  2.249012E+05  5.229614E+03 -3.639207E+03
       388   1  3.426658E+05  3.087361E+04 -2.616336E+04  1.605036E+05 -8.391186E+03  3.351598E+03
       388   2  3.226863E+05  1.445099E+04 -2.668404E+04  1.457852E+05 -1.535088E+04  2.138236E+03
       388   3  2.967212E+05  1.722515E+04 -1.993301E+04  1.405032E+05 -2.217007E+04  5.558874E+02
       388   4  4.755925E+05  7.962879E+04  7.408483E+03  1.959062E+05 -7.427172E+03  3.716993E+03
       388   5  4.791307E+05  7.399225E+04  1.314694E+04  1.896763E+05 -1.463754E+04  2.408441E+03
       388   6  4.767316E+05  8.760017E+04  2.635430E+04  1.928824E+05 -2.170771E+04  7.307920E+02
       388   7  6.085359E+05  1.283847E+05  4.097878E+04  2.313154E+05 -6.462936E+03  4.082467E+03
       388   8  6.355991E+05  1.335353E+05  5.297594E+04  2.335776E+05 -1.392401E+04  2.678723E+03
       388   9  6.567744E+05  1.579783E+05  7.263913E+04  2.452759E+05 -2.124521E+04  9.057582E+02
       388  10  3.426658E+05  3.087357E+04 -2.616351E+04  1.605036E+05  3.292750E-09 -5.747710E-09
       388  11  3.226860E+05  1.445092E+04 -2.668449E+04  1.457852E+05  1.951678E-09  9.321117E-10
       388  12  2.967207E+05  1.722502E+04 -1.993394E+04  1.405032E+05  3.348598E-09 -8.049503E-10
       388  13  4.755924E+05  7.962876E+04  7.408353E+03  1.959062E+05  2.751585E-09 -1.102261E-08
       388  14  4.791305E+05  7.399219E+04  1.314653E+04  1.896764E+05  2.520320E-09  6.433490E-09
       388  15  4.767311E+05  8.760005E+04  2.635341E+04  1.928825E+05  6.918212E-10 -4.370902E-09
       388  16  6.085358E+05  1.283847E+05  4.097867E+04  2.313154E+05 -6.747017E-09 -4.781044E-09
       388  17  6.355989E+05  1.335353E+05  5.297556E+04  2.335776E+05 -2.140483E-10 -7.665210E-09
       388  18  6.567739E+05  1.579782E+05  7.263828E+04  2.452759E+05 -4.715208E-09 -1.276993E-08
       388  19  3.426658E+05  3.087361E+04 -2.616336E+04  1.605036E+05  8.391186E+03 -3.351598E+03
       388  20  3.226863E+05  1.445099E+04 -2.668404E+04  1.457852E+05  1.535088E+04 -2.138236E+03
       388  21  2.967212E+05  1.722515E+04 -1.993301E+04  1.405032E+05  2.217007E+04 -5.558874E+02
       388  22  4.755925E+05  7.962879E+04  7.408483E+03  1.959062E+05  7.427172E+03 -3.716993E+03
       388  23  4.791307E+05  7.399225E+04  1.314694E+04  1.896763E+05  1.463754E+04 -2.408441E+03
       388  24  4.767316E+05  8.760017E+04  2.635430E+04  1.928824E+05  2.170771E+04 -7.307920E+02
       388  25  6.085359E+05  1.283847E+05  4.097878E+04  2.313154E+05  6.462936E+03 -4.082467E+03
       388  26  6.355991E+05  1.335353E+05  5.297594E+04  2.335776E+05  1.392401E+04 -2.678723E+03
       388  27  6.567744E+05  1.579783E+05  7.263913E+04  2.452759E+05  2.124521E+04 -9.057582E+02
       389   1  2.632265E+05  8.133687E+03 -1.968166E+04  1.544462E+05 -2.938494E+04 -3.157838E+02
       389   2  2.469292E+05 -3.046055E+04 -3.117465E+03  1.157095E+05 -5.512143E+04 -9.583535E+03
       389   3  2.647300E+05  4.923723E+04  6.217989E+04  6.021750E+04 -7.819392E+04 -2.588246E+04
       389   4  4.809484E+05  7.573954E+04  3.280802E+04  1.999699E+05 -2.673585E+04  6.883902E+02
       389   5  4.705188E+05  6.561192E+04  5.603822E+04  1.896046E+05 -5.722603E+04 -1.038221E+04
       389   6  4.951103E+05  1.746894E+05  1.317555E+05  1.624881E+05 -8.505303E+04 -2.848545E+04
       389   7  6.987174E+05  1.433455E+05  8.529455E+04  2.455066E+05 -2.408573E+04  1.692800E+03
       389   8  6.941563E+05  1.616916E+05  1.151892E+05  2.635248E+05 -5.933144E+04 -1.118129E+04
       389   9  7.255426E+05  3.001627E+05  2.013252E+05  2.647971E+05 -9.191482E+04 -3.109051E+04
       389  10  2.632255E+05  8.133455E+03 -1.968329E+04  1.544461E+05  8.423019E-09  6.916450E-09
       389  11  2.469259E+05 -3.046146E+04 -3.123345E+03  1.157090E+05  4.524170E-09 -4.566323E-09
       389  12  2.647232E+05  4.923487E+04  6.216715E+04  6.021587E+04 -7.064320E-09  4.456083E-09
       389  13  4.809477E+05  7.573935E+04  3.280668E+04  1.999700E+05 -2.416859E-10 -1.221699E-08
       389  14  4.705153E+05  6.561093E+04  5.603187E+04  1.896041E+05  7.227567E-09 -3.133904E-09
       389  15  4.951024E+05  1.746866E+05  1.317404E+05  1.624861E+05  2.234536E-09 -1.839557E-08
       389  16  6.987167E+05  1.433453E+05  8.529346E+04  2.455067E+05 -8.514980E-09 -1.839087E-08
       389  17  6.941525E+05  1.616905E+05  1.151824E+05  2.635243E+05  1.728753E-09 -2.538388E-08
       389  18  7.255333E+05  3.001594E+05  2.013075E+05  2.647948E+05  7.850107E-09 -4.961255E-09
       389  19  2.632265E+05  8.133687E+03 -1.968166E+04  1.544462E+05  2.938494E+04  3.157838E+02
       389  20  2.469292E+05 -3.046055E+04 -3.117465E+03  1.157095E+05  5.512143E+04  9.583535E+03
       389  21  2.647300E+05  4.923723E+04  6.217989E+04  6.021750E+04  7.819392E+04  2.588246E+04
       389  22  4.809484E+05  7.573954E+04  3.280802E+04  1.999699E+05  2.673585E+04 -6.883902E+02
       389  23  4.705188E+05  6.561192E+04  5.603822E+04  1.896046E+05  5.722603E+04  1.038221E+04
       389  24  4.951103E+05  1.746894E+05  1.317555E+05  1.624881E+05  8.505303E+04  2.848545E+04
       389  25  6.987174E+05  1.433455E+05  8.529455E+04  2.455066E+05  2.408573E+04 -1.692800E+03
       389  26  6.941563E+05  1.616916E+05  1.151892E+05  2.635248E+05  5.933144E+04  1.118129E+04
       389  27  7.255426E+05  3.001627E+05  2.013252E+05  2.647971E+05  9.191482E+04  3.109051E+04
       390   1 -1.509076E+05 -7.655516E+05 -1.518987E+05  9.203985E+04 -5.596974E+03 -2.469549E+04
       390   2 -9.647138E+04 -6.159713E+05 -1.004729E+05  4.935750E+04 -1.555027E+04 -9.250688E+03
       390   3 -6.099134E+04 -4.725152E+05 -6.374929E+04  8.283669E+04 -1.068922E+04  6.238712E+03
       390   4 -1.579918E+04 -2.235019E+05 -1.895354E+04  8.459173E+04 -5.631017E+03 -1.224401E+04
       390   5  7.901662E+02 -2.213407E+05 -9.064251E+03  4.653390E+04 -1.555431E+04 -7.451010E+03
       390   6  2.817209E+02 -2.234697E+05 -6.468848E+03  8.463580E+04 -1.066723E+04 -2.617313E+03
       390   7  1.192877E+05  3.188161E+05  1.139707E+05  7.713725E+04 -5.665344E+03  2.183378E+02
       390   8  9.804078E+04  1.734339E+05  8.233395E+04  4.370858E+04 -1.555837E+04 -5.650195E+03
       390   9  6.155050E+04  2.563355E+04  5.080778E+04  8.643568E+04 -1.064529E+04 -1.147686E+04
       390  10 -1.509078E+05 -7.655523E+05 -1.518999E+05  9.203974E+04 -5.932491E-10 -3.010327E-09
       390  11 -9.647166E+04 -6.159715E+05 -1.004735E+05  4.935739E+04 -2.143014E-09 -6.793394E-09
       390  12 -6.099147E+04 -4.725153E+05 -6.374958E+04  8.283674E+04  2.344695E-09 -4.603368E-09
       390  13 -1.579925E+04 -2.235021E+05 -1.895388E+04  8.459167E+04  4.552866E-10 -2.111224E-09
       390  14  7.898915E+02 -2.213409E+05 -9.064810E+03  4.653381E+04 -4.080097E-09  4.221440E-09
       390  15  2.815969E+02 -2.234697E+05 -6.469075E+03  8.463578E+04 -2.263952E-10 -1.367368E-08
       390  16  1.192877E+05  3.188161E+05  1.139706E+05  7.713725E+04 -3.375765E-10 -2.223253E-09
       390  17  9.804051E+04  1.734338E+05  8.233344E+04  4.370851E+04 -1.042692E-10  5.656815E-09
       390  18  6.155034E+04  2.563338E+04  5.080732E+04  8.643558E+04 -1.996317E-09  1.015871E-08
       390  19 -1.509076E+05 -7.655516E+05 -1.518987E+05  9.203985E+04  5.596974E+03  2.469549E+04
       390  20 -9.647138E+04 -6.159713E+05 -1.004729E+05  4.935750E+04  1.555027E+04  9.250688E+03
       390  21 -6.099134E+04 -4.725152E+05 -6.374929E+04  8.283669E+04  1.068922E+04 -6.238712E+03
       390  22 -1.579918E+04 -2.235019E+05 -1.895354E+04  8.459173E+04  5.631017E+03  1.224401E+04
       390  23  7.901662E+02 -2.213407E+05 -9.064251E+03  4.653390E+04  1.555431E+04  7.451010E+03
       390  24  2.817209E+02 -2.234697E+05 -6.468848E+03  8.463580E+04  1.066723E+04  2.617313E+03
       390  25  1.192877E+05  3.188161E+05  1.139707E+05  7.713725E+04  5.665344E+03 -2.183378E+02
       390  26  9.804078E+04  1.734339E+05  8.233395E+04  4.370858E+04  1.555837E+04  5.650195E+03
       390  27  6.155050E+04  2.563355E+04  5.080778E+04  8.643568E+04  1.064529E+04  1.147686E+04
       391   1 -2.816026E+04 -3.311306E+05 -3.091421E+04  8.565477E+04 -4.634509E+03  2.969719E+03
       391   2  9.383450E+03 -1.842173E+05  3.277279E+03  4.625595E+04  1.617938E+03  5.692525E+03
       391   3  4.325629E+04 -3.805998E+04  3.488351E+04  8.358797E+04  7.778863E+03  8.416115E+03
       391   4 -1.467826E+03 -2.226793E+05 -5.960863E+03  8.474992E+04 -4.623552E+03 -1.568355E+03
       391   5  1.627008E+01 -2.222871E+05 -5.477570E+03  4.638336E+04  1.628902E+03  1.219924E+03
       391   6 -2.180591E+03 -2.226824E+05 -7.624005E+03  8.474815E+04  7.789767E+03  4.008362E+03
       391   7  2.522380E+04 -1.142171E+05  1.899178E+04  8.384491E+04 -4.612584E+03 -6.107215E+03
       391   8 -9.351001E+03 -2.603556E+05 -1.423244E+04  4.651075E+04  1.639864E+03 -3.252405E+03
       391   9 -4.761984E+04 -4.072733E+05 -5.013371E+04  8.590801E+04  7.800656E+03 -3.980897E+02
       391  10 -2.816028E+04 -3.311306E+05 -3.091427E+04  8.565478E+04  2.030082E-09 -1.489210E-08
       391  11  9.383439E+03 -1.842173E+05  3.277214E+03  4.625595E+04  6.465249E-10 -6.086711E-09
       391  12  4.325620E+04 -3.806007E+04  3.488327E+04  8.358791E+04 -1.053875E-09 -2.807985E-09
       391  13 -1.467849E+03 -2.226794E+05 -5.960908E+03  8.474991E+04  2.249150E-10 -4.301332E-09
       391  14  1.626683E+01 -2.222872E+05 -5.477578E+03  4.638335E+04  1.919443E-09 -3.166883E-09
       391  15 -2.180660E+03 -2.226825E+05 -7.624149E+03  8.474813E+04  2.507060E-09 -1.034055E-08
       391  16  2.522376E+04 -1.142172E+05  1.899167E+04  8.384489E+04 -1.270376E-09  3.994540E-09
       391  17 -9.351006E+03 -2.603556E+05 -1.423247E+04  4.651076E+04  3.179730E-11  3.396594E-09
       391  18 -4.761990E+04 -4.072733E+05 -5.013382E+04  8.590801E+04  8.558163E-10  8.906664E-09
       391  19 -2.816026E+04 -3.311306E+05 -3.091421E+04  8.565477E+04  4.634509E+03 -2.969719E+03
       391  20  9.383450E+03 -1.842173E+05  3.277279E+03  4.625595E+04 -1.617938E+03 -5.692525E+03
       391  21  4.325629E+04 -3.805998E+04  3.488351E+04  8.358797E+04 -7.778863E+03 -8.416115E+03
       391  22 -1.467826E+03 -2.226793E+05 -5.960863E+03  8.474992E+04  4.623552E+03  1.568355E+03
       391  23  1.627008E+01 -2.222871E+05 -5.477570E+03  4.638336E+04 -1.628902E+03 -1.219924E+03
       391  24 -2.180591E+03 -2.226824E+05 -7.624005E+03  8.474815E+04 -7.789767E+03 -4.008362E+03
       391  25  2.522380E+04 -1.142171E+05  1.899178E+04  8.384491E+04  4.612584E+03  6.107215E+03
       391  26 -9.351001E+03 -2.603556E+05 -1.423244E+04  4.651075E+04 -1.639864E+03  3.252405E+03
       391  27 -4.761984E+04 -4.072733E+05 -5.013371E+04  8.590801E+04 -7.800656E+03  3.980897E+02
       392   1  8.079121E+04  1.012222E+05  6.585472E+04  8.756679E+04  1.401367E+04  1.470943E+04
       392   2  1.173497E+05  2.502052E+05  9.525427E+04  4.239361E+04  1.864282E+04  1.003717E+04
       392   3  1.293641E+05  3.943475E+05  1.216987E+05  7.326386E+04  6.616359E+03  5.316510E+03
       392   4  8.020494E+02 -2.240681E+05 -8.882525E+03  8.461897E+04  1.403739E+04  5.384045E+03
       392   5  1.374508E+03 -2.206143E+05 -1.370028E+04  4.655862E+04  1.863658E+04  1.270334E+04
       392   6 -2.468779E+04 -2.241073E+05 -2.980438E+04  8.454671E+04  6.574435E+03  1.997505E+04
       392   7 -7.919442E+04 -5.492603E+05 -8.362643E+04  8.167276E+04  1.406120E+04 -3.936492E+03
       392   8 -1.146162E+05 -6.912290E+05 -1.226696E+05  5.072058E+04  1.863037E+04  1.536751E+04
       392   9 -1.787674E+05 -8.422131E+05 -1.813346E+05  9.581853E+04  6.533024E+03  3.461902E+04
       392  10  8.079094E+04  1.012219E+05  6.585394E+04  8.756663E+04  1.067959E-09 -6.732387E-09
       392  11  1.173493E+05  2.502050E+05  9.525342E+04  4.239346E+04  2.527331E-09 -6.241675E-10
       392  12  1.293640E+05  3.943475E+05  1.216986E+05  7.326384E+04  4.480636E-10 -1.632475E-09
       392  13  8.018300E+02 -2.240682E+05 -8.882950E+03  8.461891E+04 -2.109692E-10 -4.348472E-09
       392  14  1.374091E+03 -2.206146E+05 -1.370124E+04  4.655843E+04  3.361089E-09 -1.029585E-09
       392  15 -2.468795E+04 -2.241078E+05 -2.980521E+04  8.454661E+04  2.810209E-10 -1.419110E-08
       392  16 -7.919463E+04 -5.492604E+05 -8.362683E+04  8.167280E+04  2.017205E-09 -1.209577E-11
       392  17 -1.146167E+05 -6.912293E+05 -1.226707E+05  5.072035E+04  2.920903E-09  8.789956E-09
       392  18 -1.787678E+05 -8.422144E+05 -1.813370E+05  9.581835E+04  1.355874E-10  9.511685E-09
       392  19  8.079121E+04  1.012222E+05  6.585472E+04  8.756679E+04 -1.401367E+04 -1.470943E+04
       392  20  1.173497E+05  2.502052E+05  9.525427E+04  4.239361E+04 -1.864282E+04 -1.003717E+04
       392  21  1.293641E+05  3.943475E+05  1.216987E+05  7.326386E+04 -6.616359E+03 -5.316510E+03
       392  22  8.020494E+02 -2.240681E+05 -8.882525E+03  8.461897E+04 -1.403739E+04 -5.384045E+03
       392  23  1.374508E+03 -2.206143E+05 -1.370028E+04  4.655862E+04 -1.863658E+04 -1.270334E+04
       392  24 -2.468779E+04 -2.241073E+05 -2.980438E+04  8.454671E+04 -6.574435E+03 -1.997505E+04
       392  25 -7.919442E+04 -5.492603E+05 -8.362643E+04  8.167276E+04 -1.406120E+04  3.936492E+03
       392  26 -1.146162E+05 -6.912290E+05 -1.226696E+05  5.072058E+04 -1.863037E+04 -1.536751E+04
       392  27 -1.787674E+05 -8.422131E+05 -1.813346E+05  9.581853E+04 -6.533024E+03 -3.461902E+04
       393   1  3.134265E+05 -9.492100E+04 -8.778945E+04 -1.109293E+04  5.510468E+03  5.653731E+03
       393   2  3.462899E+05 -1.079259E+05 -8.792398E+04 -7.977037E+03  7.606013E+03  1.747792E+04
       393   3  3.845260E+05 -9.891548E+04 -8.389528E+04 -2.300137E+04  9.713181E+03  1.754885E+04
       393   4  7.820284E+05  2.160896E+04  2.663982E+04 -1.964039E+04  1.826769E+04  5.665836E+03
       393   5  7.786190E+05 -1.552586E+03  1.190126E+04 -1.056081E+04  1.189461E+04  1.748048E+04
       393   6  7.820452E+05 -1.237991E+03  7.199078E+03 -1.962041E+04  5.533002E+03  1.754555E+04
       393   7  1.250831E+06  1.381231E+05  1.410537E+05 -2.819436E+04  3.103450E+04  5.677585E+03
       393   8  1.211121E+06  1.048077E+05  1.117141E+05 -1.314643E+04  1.618617E+04  1.748301E+04
       393   9  1.179711E+06  9.642855E+04  9.828312E+04 -1.623728E+04  1.350170E+03  1.754222E+04
       393  10  3.134264E+05 -9.492105E+04 -8.778956E+04 -1.109295E+04 -2.714998E-10  1.144339E-10
       393  11  3.462897E+05 -1.079263E+05 -8.792466E+04 -7.977144E+03 -2.181257E-10  1.689876E-10
       393  12  3.845258E+05 -9.891583E+04 -8.389604E+04 -2.300151E+04  4.174473E-11  8.705556E-11
       393  13  7.820281E+05  2.160884E+04  2.663913E+04 -1.964047E+04  1.023693E-11  1.187527E-10
       393  14  7.786187E+05 -1.552952E+03  1.190042E+04 -1.056098E+04 -4.355890E-10  2.324329E-10
       393  15  7.820451E+05 -1.238330E+03  7.198442E+03 -1.962048E+04 -9.770922E-11  6.907530E-12
       393  16  1.250830E+06  1.381228E+05  1.410519E+05 -2.819450E+04 -2.449386E-10  4.950042E-11
       393  17  1.211120E+06  1.048073E+05  1.117131E+05 -1.314665E+04  1.908694E-10  2.565223E-10
       393  18  1.179711E+06  9.642822E+04  9.828254E+04 -1.623730E+04 -2.204691E-10 -1.044541E-10
       393  19  3.134265E+05 -9.492100E+04 -8.778945E+04 -1.109293E+04 -5.510468E+03 -5.653731E+03
       393  20  3.462899E+05 -1.079259E+05 -8.792398E+04 -7.977037E+03 -7.606013E+03 -1.747792E+04
       393  21  3.845260E+05 -9.891548E+04 -8.389528E+04 -2.300137E+04 -9.713181E+03 -1.754885E+04
       393  22  7.820284E+05  2.160896E+04  2.663982E+04 -1.964039E+04 -1.826769E+04 -5.665836E+03
       393  23  7.786190E+05 -1.552586E+03  1.190126E+04 -1.056081E+04 -1.189461E+04 -1.748048E+04
       393  24  7.820452E+05 -1.237991E+03  7.199078E+03 -1.962041E+04 -5.533002E+03 -1.754555E+04
       393  25  1.250831E+06  1.381231E+05  1.410537E+05 -2.819436E+04 -3.103450E+04 -5.677585E+03
       393  26  1.211121E+06  1.048077E+05  1.117141E+05 -1.314643E+04 -1.618617E+04 -1.748301E+04
       393  27  1.179711E+06  9.642855E+04  9.828312E+04 -1.623728E+04 -1.350170E+03 -1.754222E+04
       394   1  4.168841E+05 -8.789747E+04 -7.798954E+04 -1.922942E+04  5.015471E+03  1.516174E+04
       394   2  4.512758E+05 -8.105111E+04 -7.252693E+04 -1.051215E+04  3.876852E+03  1.411443E+04
       394   3  4.863255E+05 -7.248613E+04 -6.587639E+04 -1.996017E+04  2.737634E+03  1.249566E+04
       394   4  7.806925E+05  1.573639E+03  5.797193E+03 -1.963204E+04  4.469059E+03  1.516084E+04
       394   5  7.803321E+05 -1.654021E+02  3.066359E+03 -1.054932E+04  2.917970E+03  1.411354E+04
       394   6  7.806997E+05 -1.147453E+02  1.809154E+03 -1.963130E+04  1.366346E+03  1.249492E+04
       394   7  1.144623E+06  9.103550E+04  8.957515E+04 -2.003490E+04  3.922329E+03  1.515994E+04
       394   8  1.109489E+06  8.071276E+04  7.865250E+04 -1.058653E+04  1.958584E+03  1.411265E+04
       394   9  1.075154E+06  7.225060E+04  6.948897E+04 -1.930227E+04 -5.587446E+00  1.249418E+04
       394  10  4.168840E+05 -8.789773E+04 -7.799002E+04 -1.922948E+04 -3.820635E-10 -7.627705E-11
       394  11  4.512758E+05 -8.105133E+04 -7.252733E+04 -1.051219E+04 -2.047881E-10  3.382133E-11
       394  12  4.863255E+05 -7.248630E+04 -6.587669E+04 -1.996020E+04  9.549387E-11  2.245223E-11
       394  13  7.806924E+05  1.573386E+03  5.796723E+03 -1.963209E+04 -4.281722E-11 -1.508575E-10
       394  14  7.803321E+05 -1.656184E+02  3.065969E+03 -1.054936E+04 -2.270781E-10  6.467165E-11
       394  15  7.806997E+05 -1.149135E+02  1.808857E+03 -1.963131E+04 -2.299406E-12  5.201428E-11
       394  16  1.144623E+06  9.103525E+04  8.957469E+04 -2.003495E+04  3.198690E-11 -1.882883E-10
       394  17  1.109488E+06  8.071254E+04  7.865212E+04 -1.058655E+04  1.499784E-10  1.448016E-10
       394  18  1.075154E+06  7.225043E+04  6.948868E+04 -1.930227E+04 -1.374695E-10 -1.984102E-11
       394  19  4.168841E+05 -8.789747E+04 -7.798954E+04 -1.922942E+04 -5.015471E+03 -1.516174E+04
       394  20  4.512758E+05 -8.105111E+04 -7.252693E+04 -1.051215E+04 -3.876852E+03 -1.411443E+04
       394  21  4.863255E+05 -7.248613E+04 -6.587639E+04 -1.996017E+04 -2.737634E+03 -1.249566E+04
       394  22  7.806925E+05  1.573639E+03  5.797193E+03 -1.963204E+04 -4.469059E+03 -1.516084E+04
       394  23  7.803321E+05 -1.654021E+02  3.066359E+03 -1.054932E+04 -2.917970E+03 -1.411354E+04
       394  24  7.806997E+05 -1.147453E+02  1.809154E+03 -1.963130E+04 -1.366346E+03 -1.249492E+04
       394  25  1.144623E+06  9.103550E+04  8.957515E+04 -2.003490E+04 -3.922329E+03 -1.515994E+04
       394  26  1.109489E+06  8.071276E+04  7.865250E+04 -1.058653E+04 -1.958584E+03 -1.411265E+04
       394  27  1.075154E+06  7.225060E+04  6.948897E+04 -1.930227E+04  5.587446E+00 -1.249418E+04
       395   1  5.191558E+05 -6.414242E+04 -5.853654E+04 -1.960291E+04  2.269362E+03  1.143886E+04
       395   2  5.532985E+05 -5.587294E+04 -5.135374E+04 -1.064435E+04  1.876136E+03  9.780920E+03
       395   3  5.875600E+05 -4.747005E+04 -4.387439E+04 -1.959852E+04  1.482295E+03  8.101381E+03
       395   4  7.805692E+05  9.204074E+01  1.408446E+03 -1.957543E+04  1.083019E+03  1.143832E+04
       395   5  7.805109E+05 -2.839490E+01  8.229862E+02 -1.061927E+04  6.740593E+02  9.780568E+03
       395   6  7.805735E+05 -1.253343E+01  5.450814E+02 -1.957542E+04  2.645070E+02  8.101227E+03
       395   7  1.042046E+06  6.432175E+04  6.134893E+04 -1.954795E+04 -1.038198E+02  1.143778E+04
       395   8  1.007771E+06  5.581255E+04  5.299631E+04 -1.059417E+04 -5.284532E+02  9.780216E+03
       395   9  9.736214E+05  4.744238E+04  4.496209E+04 -1.955232E+04 -9.536563E+02  8.101073E+03
       395  10  5.191558E+05 -6.414256E+04 -5.853679E+04 -1.960293E+04 -2.351878E-10 -2.930360E-11
       395  11  5.532984E+05 -5.587304E+04 -5.135392E+04 -1.064436E+04 -5.029467E-11 -6.178122E-12
       395  12  5.875600E+05 -4.747012E+04 -4.387452E+04 -1.959853E+04  6.945385E-11  1.309753E-10
       395  13  7.805692E+05  9.189988E+01  1.408198E+03 -1.957544E+04 -8.495160E-11 -2.078834E-11
       395  14  7.805108E+05 -2.849779E+01  8.228055E+02 -1.061927E+04 -1.210191E-10  2.121264E-10
       395  15  7.805735E+05 -1.260395E+01  5.449579E+02 -1.957542E+04  1.132977E-11  5.453109E-11
       395  16  1.042046E+06  6.432161E+04  6.134869E+04 -1.954795E+04  4.471210E-11 -1.015786E-10
       395  17  1.007771E+06  5.581245E+04  5.299613E+04 -1.059417E+04  7.957526E-11  5.952394E-11
       395  18  9.736214E+05  4.744231E+04  4.496197E+04 -1.955231E+04 -8.764138E-11  1.354666E-10
       395  19  5.191558E+05 -6.414242E+04 -5.853654E+04 -1.960291E+04 -2.269362E+03 -1.143886E+04
       395  20  5.532985E+05 -5.587294E+04 -5.135374E+04 -1.064435E+04 -1.876136E+03 -9.780920E+03
       395  21  5.875600E+05 -4.747005E+04 -4.387439E+04 -1.959852E+04 -1.482295E+03 -8.101381E+03
       395  22  7.805692E+05  9.204074E+01  1.408446E+03 -1.957543E+04 -1.083019E+03 -1.143832E+04
       395  23  7.805109E+05 -2.839490E+01  8.229862E+02 -1.061927E+04 -6.740593E+02 -9.780568E+03
       395  24  7.805735E+05 -1.253343E+01  5.450814E+02 -1.957542E+04 -2.645070E+02 -8.101227E+03
       395  25  1.042046E+06  6.432175E+04  6.134893E+04 -1.954795E+04  1.038198E+02 -1.143778E+04
       395  26  1.007771E+06  5.581255E+04  5.299631E+04 -1.059417E+04  5.284532E+02 -9.780216E+03
       395  27  9.736214E+05  4.744238E+04  4.496209E+04 -1.955232E+04  9.536563E+02 -8.101073E+03
       396   1  6.200978E+05 -3.941508E+04 -3.627515E+04 -1.953656E+04  1.378156E+03  7.121673E+03
       396   2  6.539538E+05 -3.111645E+04 -2.864346E+04 -1.065461E+04  1.166995E+03  5.450121E+03
       396   3  6.878487E+05 -2.280029E+04 -2.086883E+04 -1.951821E+04  9.554855E+02  3.781202E+03
       396   4  7.805576E+05  1.184788E+00  4.704429E+02 -1.953831E+04  1.728126E+02  7.121617E+03
       396   5  7.805403E+05 -5.907543E+00  4.232269E+02 -1.066565E+04 -3.653291E+01  5.450172E+03
       396   6  7.805599E+05  4.156582E+00  5.175997E+02 -1.953831E+04 -2.462155E+02  3.781363E+03
       396   7  9.410412E+05  3.941566E+04  3.721435E+04 -1.954007E+04 -1.032839E+03  7.121561E+03
       396   8  9.071415E+05  3.110352E+04  2.948887E+04 -1.067670E+04 -1.240304E+03  5.450223E+03
       396   9  8.732790E+05  2.280800E+04  2.190346E+04 -1.955842E+04 -1.448094E+03  3.781524E+03
       396  10  6.200978E+05 -3.941514E+04 -3.627525E+04 -1.953657E+04 -1.020639E-11 -4.687662E-11
       396  11  6.539538E+05 -3.111648E+04 -2.864352E+04 -1.065461E+04 -1.379063E-11 -1.273107E-10
       396  12  6.878487E+05 -2.280031E+04 -2.086885E+04 -1.951821E+04 -3.075911E-11 -2.970595E-10
       396  13  7.805576E+05  1.130299E+00  4.703475E+02 -1.953831E+04 -8.258460E-11 -3.706185E-11
       396  14  7.805403E+05 -5.939452E+00  4.231711E+02 -1.066565E+04 -9.465673E-11  2.757887E-11
       396  15  7.805599E+05  4.141206E+00  5.175727E+02 -1.953831E+04 -1.192313E-10  1.177126E-10
       396  16  9.410412E+05  3.941561E+04  3.721425E+04 -1.954006E+04  4.991114E-11 -2.461980E-11
       396  17  9.071415E+05  3.110349E+04  2.948881E+04 -1.067669E+04  4.884166E-11  9.795152E-11
       396  18  8.732790E+05  2.280799E+04  2.190343E+04 -1.955842E+04  7.487295E-11  1.185386E-10
       396  19  6.200978E+05 -3.941508E+04 -3.627515E+04 -1.953656E+04 -1.378156E+03 -7.121673E+03
       396  20  6.539538E+05 -3.111645E+04 -2.864346E+04 -1.065461E+04 -1.166995E+03 -5.450121E+03
       396  21  6.878487E+05 -2.280029E+04 -2.086883E+04 -1.951821E+04 -9.554855E+02 -3.781202E+03
       396  22  7.805576E+05  1.184788E+00  4.704429E+02 -1.953831E+04 -1.728126E+02 -7.121617E+03
       396  23  7.805403E+05 -5.907543E+00  4.232269E+02 -1.066565E+04  3.653291E+01 -5.450172E+03
       396  24  7.805599E+05  4.156582E+00  5.175997E+02 -1.953831E+04  2.462155E+02 -3.781363E+03
       396  25  9.410412E+05  3.941566E+04  3.721435E+04 -1.954007E+04  1.032839E+03 -7.121561E+03
       396  26  9.071415E+05  3.110352E+04  2.948887E+04 -1.067670E+04  1.240304E+03 -5.450223E+03
       396  27  8.732790E+05  2.280800E+04  2.190346E+04 -1.955842E+04  1.448094E+03 -3.781524E+03
       397   1  7.201889E+05 -1.481713E+04 -1.314447E+04 -1.949638E+04  8.505294E+02  2.811414E+03
       397   2  7.538891E+05 -6.556182E+03 -5.136484E+03 -1.065678E+04  3.633251E+02  1.147163E+03
       397   3  7.876612E+05  1.761636E+03  3.200938E+03 -1.948710E+04 -1.239753E+02 -5.153326E+02
       397   4  7.805686E+05  1.616775E+00  6.199171E+02 -1.952155E+04 -3.494951E+02  2.811617E+03
       397   5  7.805334E+05 -8.346023E+00  9.811275E+02 -1.068661E+04 -8.354807E+02  1.147387E+03
       397   6  7.805688E+05  3.843220E+01  1.670982E+03 -1.952154E+04 -1.321536E+03 -5.150842E+02
       397   7  8.409516E+05  1.482011E+04  1.438407E+04 -1.954672E+04 -1.549635E+03  2.811821E+03
       397   8  8.071783E+05  6.539442E+03  7.098698E+03 -1.071644E+04 -2.034338E+03  1.147610E+03
       397   9  7.734765E+05 -1.684775E+03  1.410297E+02 -1.955597E+04 -2.519084E+03 -5.148358E+02
       397  10  7.201889E+05 -1.481713E+04 -1.314449E+04 -1.949638E+04  1.447301E-11 -9.761096E-11
       397  11  7.538891E+05 -6.556184E+03 -5.136487E+03 -1.065678E+04 -6.924296E-11 -1.252678E-11
       397  12  7.876612E+05  1.761636E+03  3.200937E+03 -1.948710E+04 -2.472143E-10  2.062438E-11
       397  13  7.805686E+05  1.608250E+00  6.199020E+02 -1.952155E+04 -1.041517E-10  6.323975E-11
       397  14  7.805334E+05 -8.347625E+00  9.811238E+02 -1.068661E+04  5.124133E-11 -1.341720E-10
       397  15  7.805688E+05  3.843144E+01  1.670979E+03 -1.952154E+04  2.440227E-11  9.294617E-11
       397  16  8.409515E+05  1.482010E+04  1.438405E+04 -1.954672E+04 -4.681111E-11  1.068293E-10
       397  17  8.071783E+05  6.539439E+03  7.098687E+03 -1.071643E+04  5.593377E-11 -4.008622E-11
       397  18  7.734765E+05 -1.684777E+03  1.410173E+02 -1.955597E+04  1.160595E-10 -3.235400E-12
       397  19  7.201889E+05 -1.481713E+04 -1.314447E+04 -1.949638E+04 -8.505294E+02 -2.811414E+03
       397  20  7.538891E+05 -6.556182E+03 -5.136484E+03 -1.065678E+04 -3.633251E+02 -1.147163E+03
       397  21  7.876612E+05  1.761636E+03  3.200938E+03 -1.948710E+04  1.239753E+02  5.153326E+02
       397  22  7.805686E+05  1.616775E+00  6.199171E+02 -1.952155E+04  3.494951E+02 -2.811617E+03
       397  23  7.805334E+05 -8.346023E+00  9.811275E+02 -1.068661E+04  8.354807E+02 -1.147387E+03
       397  24  7.805688E+05  3.843220E+01  1.670982E+03 -1.952154E+04  1.321536E+03  5.150842E+02
       397  25  8.409516E+05  1.482011E+04  1.438407E+04 -1.954672E+04  1.549635E+03 -2.811821E+03
       397  26  8.071783E+05  6.539442E+03  7.098698E+03 -1.071644E+04  2.034338E+03 -1.147610E+03
       397  27  7.734765E+05 -1.684775E+03  1.410297E+02 -1.955597E+04  2.519084E+03  5.148358E+02
       398   1  8.200233E+05  9.667297E+03  1.131869E+04 -1.939238E+04 -4.642477E+02 -1.485598E+03
       398   2  8.535985E+05  1.790626E+04  2.055238E+04 -1.064173E+04 -2.345571E+03 -3.147372E+03
       398   3  8.875848E+05  2.682178E+04  3.117770E+04 -1.958326E+04 -4.226777E+03 -4.792160E+03
       398   4  7.806435E+05 -2.951024E+01  2.178972E+03 -1.952655E+04 -1.668220E+03 -1.485361E+03
       398   5  7.804381E+05 -7.201699E+01  3.754537E+03 -1.068035E+04 -3.537116E+03 -3.147202E+03
       398   6  7.806412E+05  5.601593E+02  6.713473E+03 -1.952645E+04 -5.405795E+03 -4.792052E+03
       398   7  7.412652E+05 -9.726426E+03 -6.960841E+03 -1.966072E+04 -2.872116E+03 -1.485123E+03
       398   8  7.072826E+05 -1.805067E+04 -1.304365E+04 -1.071896E+04 -4.728522E+03 -3.147032E+03
       398   9  6.737081E+05 -2.570226E+04 -1.775150E+04 -1.946964E+04 -6.584612E+03 -4.791945E+03
       398  10  8.200233E+05  9.667295E+03  1.131868E+04 -1.939238E+04  2.310867E-10 -1.345080E-10
       398  11  8.535985E+05  1.790625E+04  2.055235E+04 -1.064173E+04 -2.530152E-10 -1.316076E-10
       398  12  8.875848E+05  2.682175E+04  3.117763E+04 -1.958328E+04 -3.337022E-10  6.336577E-10
       398  13  7.806435E+05 -2.951336E+01  2.178963E+03 -1.952656E+04 -1.374410E-11 -2.245595E-10
       398  14  7.804380E+05 -7.203098E+01  3.754495E+03 -1.068035E+04  1.685342E-10 -9.884909E-11
       398  15  7.806411E+05  5.601268E+02  6.713375E+03 -1.952647E+04  1.104257E-10  5.571320E-10
       398  16  7.412652E+05 -9.726431E+03 -6.960861E+03 -1.966072E+04 -1.802185E-11 -1.122393E-10
       398  17  7.072825E+05 -1.805068E+04 -1.304371E+04 -1.071897E+04  5.110218E-11 -6.853459E-11
       398  18  6.737080E+05 -2.570229E+04 -1.775162E+04 -1.946967E+04  4.320474E-10  5.713571E-10
       398  19  8.200233E+05  9.667297E+03  1.131869E+04 -1.939238E+04  4.642477E+02  1.485598E+03
       398  20  8.535985E+05  1.790626E+04  2.055238E+04 -1.064173E+04  2.345571E+03  3.147372E+03
       398  21  8.875848E+05  2.682178E+04  3.117770E+04 -1.958326E+04  4.226777E+03  4.792160E+03
       398  22  7.806435E+05 -2.951024E+01  2.178972E+03 -1.952655E+04  1.668220E+03  1.485361E+03
       398  23  7.804381E+05 -7.201699E+01  3.754537E+03 -1.068035E+04  3.537116E+03  3.147202E+03
       398  24  7.806412E+05  5.601593E+02  6.713473E+03 -1.952645E+04  5.405795E+03  4.792052E+03
       398  25  7.412652E+05 -9.726426E+03 -6.960841E+03 -1.966072E+04  2.872116E+03  1.485123E+03
       398  26  7.072826E+05 -1.805067E+04 -1.304365E+04 -1.071896E+04  4.728522E+03  3.147032E+03
       398  27  6.737081E+05 -2.570226E+04 -1.775150E+04 -1.946964E+04  6.584612E+03  4.791945E+03
       399   1  9.206269E+05  3.381419E+04  4.078071E+04 -1.821521E+04 -5.460856E+03 -5.809761E+03
       399   2  9.530219E+05  4.194219E+04  5.473144E+04 -1.132062E+04 -1.328723E+04 -7.424369E+03
       399   3  9.886527E+05  5.887572E+04  7.597649E+04 -2.222190E+04 -2.111379E+04 -8.654815E+03
       399   4  7.812571E+05 -4.499488E+02  8.695335E+03 -1.954958E+04 -6.762530E+03 -5.809696E+03
       399   5  7.796592E+05 -6.603146E+02  1.491364E+04 -1.065153E+04 -1.431013E+04 -7.424496E+03
       399   6  7.812483E+05  7.887970E+03  2.823441E+04 -1.954954E+04 -2.185749E+04 -8.655132E+03
       399   7  6.419052E+05 -3.471544E+04 -2.339132E+04 -2.088364E+04 -8.063913E+03 -5.809625E+03
       399   8  6.063242E+05 -4.326491E+04 -2.490614E+04 -9.982635E+03 -1.533275E+04 -7.424626E+03
       399   9  5.738837E+05 -4.310276E+04 -1.951051E+04 -1.687808E+04 -2.260094E+04 -8.655456E+03
       399  10  9.206268E+05  3.381415E+04  4.078059E+04 -1.821524E+04  2.074298E-09  9.319164E-10
       399  11  9.530217E+05  4.194208E+04  5.473101E+04 -1.132069E+04 -5.856729E-09 -9.523190E-11
       399  12  9.886522E+05  5.887552E+04  7.597551E+04 -2.222204E+04 -1.095751E-08 -1.571084E-09
       399  13  7.812570E+05 -4.499973E+02  8.695186E+03 -1.954961E+04  5.601441E-11  8.764684E-10
       399  14  7.796589E+05 -6.604287E+02  1.491315E+04 -1.065162E+04  3.571894E-11 -8.971895E-11
       399  15  7.812478E+05  7.887762E+03  2.823337E+04 -1.954969E+04  1.193941E-12 -1.515417E-09
       399  16  6.419051E+05 -3.471549E+04 -2.339151E+04 -2.088368E+04 -1.916091E-09  8.033859E-10
       399  17  6.063239E+05 -4.326503E+04 -2.490669E+04 -9.982727E+03  5.767586E-09 -9.070365E-12
       399  18  5.738831E+05 -4.310298E+04 -1.951161E+04 -1.687824E+04  1.090247E-08 -1.455740E-09
       399  19  9.206269E+05  3.381419E+04  4.078071E+04 -1.821521E+04  5.460856E+03  5.809761E+03
       399  20  9.530219E+05  4.194219E+04  5.473144E+04 -1.132062E+04  1.328723E+04  7.424369E+03
       399  21  9.886527E+05  5.887572E+04  7.597649E+04 -2.222190E+04  2.111379E+04  8.654815E+03
       399  22  7.812571E+05 -4.499488E+02  8.695335E+03 -1.954958E+04  6.762530E+03  5.809696E+03
       399  23  7.796592E+05 -6.603146E+02  1.491364E+04 -1.065153E+04  1.431013E+04  7.424496E+03
       399  24  7.812483E+05  7.887970E+03  2.823441E+04 -1.954954E+04  2.185749E+04  8.655132E+03
       399  25  6.419052E+05 -3.471544E+04 -2.339132E+04 -2.088364E+04  8.063913E+03  5.809625E+03
       399  26  6.063242E+05 -4.326491E+04 -2.490614E+04 -9.982635E+03  1.533275E+04  7.424626E+03
       399  27  5.738837E+05 -4.310276E+04 -1.951051E+04 -1.687808E+04  2.260094E+04  8.655456E+03
       400   1  1.028055E+06  5.320686E+04  9.012114E+04 -3.934392E+03 -2.386353E+04 -1.056139E+04
       400   2  1.045726E+06  6.015237E+04  1.214117E+05 -2.450380E+04 -6.059663E+04 -1.104816E+04
       400   3  1.097054E+06  1.824644E+05  2.054415E+05 -6.284167E+04 -9.733441E+04 -3.659120E+03
       400   4  7.878078E+05 -5.807928E+03  3.507047E+04 -1.953523E+04 -2.704285E+04 -1.056136E+04
       400   5  7.714433E+05 -7.306506E+03  5.808754E+04 -1.066665E+04 -5.808825E+04 -1.104931E+04
       400   6  7.877617E+05  1.055997E+05  1.299133E+05 -1.956447E+04 -8.913591E+04 -3.663389E+03
       400   7  5.476146E+05 -6.482581E+04 -1.998382E+04 -3.512999E+04 -3.022096E+04 -1.056117E+04
       400   8  4.972300E+05 -7.476992E+04 -5.241458E+03  3.164334E+03 -5.558097E+04 -1.105036E+04
       400   9  4.785607E+05  2.873496E+04  5.437939E+04  2.369115E+04 -8.094148E+04 -3.666519E+03
       400  10  1.028054E+06  5.320658E+04  9.011986E+04 -3.934595E+03  1.087484E-08 -1.411883E-09
       400  11  1.045722E+06  6.015125E+04  1.214045E+05 -2.450433E+04  6.222767E-09 -1.829652E-10
       400  12  1.097044E+06  1.824619E+05  2.054237E+05 -6.284195E+04 -1.216380E-09  1.907422E-10
       400  13  7.878070E+05 -5.808244E+03  3.506889E+04 -1.953546E+04 -1.189730E-10 -1.420371E-09
       400  14  7.714396E+05 -7.307542E+03  5.808098E+04 -1.066717E+04 -4.342331E-10 -8.567552E-11
       400  15  7.877532E+05  1.055975E+05  1.298984E+05 -1.956473E+04 -8.240831E-11  1.588238E-10
       400  16  5.476136E+05 -6.482617E+04 -1.998574E+04 -3.513025E+04 -1.087264E-08 -1.368311E-09
       400  17  4.972267E+05 -7.477088E+04 -5.247488E+03  3.163839E+03 -6.171889E-09  2.513009E-10
       400  18  4.785536E+05  2.873318E+04  5.436706E+04  2.369092E+04  1.152409E-09  2.702059E-10
       400  19  1.028055E+06  5.320686E+04  9.012114E+04 -3.934392E+03  2.386353E+04  1.056139E+04
       400  20  1.045726E+06  6.015237E+04  1.214117E+05 -2.450380E+04  6.059663E+04  1.104816E+04
       400  21  1.097054E+06  1.824644E+05  2.054415E+05 -6.284167E+04  9.733441E+04  3.659120E+03
       400  22  7.878078E+05 -5.807928E+03  3.507047E+04 -1.953523E+04  2.704285E+04  1.056136E+04
       400  23  7.714433E+05 -7.306506E+03  5.808754E+04 -1.066665E+04  5.808825E+04  1.104931E+04
       400  24  7.877617E+05  1.055997E+05  1.299133E+05 -1.956447E+04  8.913591E+04  3.663389E+03
       400  25  5.476146E+05 -6.482581E+04 -1.998382E+04 -3.512999E+04  3.022096E+04  1.056117E+04
       400  26  4.972300E+05 -7.476992E+04 -5.241458E+03  3.164334E+03  5.558097E+04  1.105036E+04
       400  27  4.785607E+05  2.873496E+04  5.437939E+04  2.369115E+04  8.094148E+04  3.666519E+03
       401   1 -2.072792E+05 -9.442743E+04 -9.096100E+04 -1.730358E+04 -5.076241E+03  4.878995E+03
       401   2 -1.724925E+05 -9.202590E+04 -8.201867E+04 -1.019365E+04  2.636380E+02  1.501379E+04
       401   3 -1.367259E+05 -8.326486E+04 -7.494756E+04 -2.113175E+04  5.606918E+03  1.486216E+04
       401   4  2.002924E+05  7.007826E+03  8.645740E+03 -2.009581E+04  5.922777E+03  4.882205E+03
       401   5  1.991642E+05 -5.193627E+02  3.857823E+03 -1.107130E+04  3.857850E+03  1.501374E+04
       401   6  2.003000E+05 -4.033647E+02  2.340455E+03 -2.009416E+04  1.796143E+03  1.486163E+04
       401   7  6.080157E+05  1.084309E+05  1.082408E+05 -2.288989E+04  1.692900E+04  4.885316E+03
       401   8  5.709487E+05  9.097749E+04  8.972515E+04 -1.194948E+04  7.454198E+03  1.501368E+04
       401   9  5.374311E+05  8.245023E+04  7.962105E+04 -1.905600E+04 -2.016685E+03  1.486108E+04
       401  10 -2.072792E+05 -9.442746E+04 -9.096110E+04 -1.730356E+04 -1.270053E-11  1.424807E-10
       401  11 -1.724926E+05 -9.202614E+04 -8.201909E+04 -1.019365E+04  2.372765E-10  2.049218E-11
       401  12 -1.367260E+05 -8.326510E+04 -7.494804E+04 -2.113181E+04  4.468655E-10  8.171829E-11
       401  13  2.002924E+05  7.007791E+03  8.645629E+03 -2.009584E+04 -1.525843E-10  1.775693E-11
       401  14  1.991642E+05 -5.196088E+02  3.857372E+03 -1.107134E+04 -3.245616E-11  1.655510E-10
       401  15  2.002999E+05 -4.036028E+02  2.340034E+03 -2.009418E+04  1.382109E-10 -3.809963E-11
       401  16  6.080154E+05  1.084308E+05  1.082402E+05 -2.288996E+04  1.470934E-11  1.394295E-10
       401  17  5.709486E+05  9.097724E+04  8.972463E+04 -1.194957E+04 -1.186779E-10  9.112280E-11
       401  18  5.374311E+05  8.244999E+04  7.962063E+04 -1.905597E+04 -3.282410E-10 -1.229420E-10
       401  19 -2.072792E+05 -9.442743E+04 -9.096100E+04 -1.730358E+04  5.076241E+03 -4.878995E+03
       401  20 -1.724925E+05 -9.202590E+04 -8.201867E+04 -1.019365E+04 -2.636380E+02 -1.501379E+04
       401  21 -1.367259E+05 -8.326486E+04 -7.494756E+04 -2.113175E+04 -5.606918E+03 -1.486216E+04
       401  22  2.002924E+05  7.007826E+03  8.645740E+03 -2.009581E+04 -5.922777E+03 -4.882205E+03
       401  23  1.991642E+05 -5.193627E+02  3.857823E+03 -1.107130E+04 -3.857850E+03 -1.501374E+04
       401  24  2.003000E+05 -4.033647E+02  2.340455E+03 -2.009416E+04 -1.796143E+03 -1.486163E+04
       401  25  6.080157E+05  1.084309E+05  1.082408E+05 -2.288989E+04 -1.692900E+04 -4.885316E+03
       401  26  5.709487E+05  9.097749E+04  8.972515E+04 -1.194948E+04 -7.454198E+03 -1.501368E+04
       401  27  5.374311E+05  8.245023E+04  7.962105E+04 -1.905600E+04  2.016685E+03 -1.486108E+04
       402   1 -1.034107E+05 -7.411750E+04 -6.799904E+04 -1.996462E+04  2.088927E+03  1.264890E+04
       402   2 -6.848021E+04 -6.602602E+04 -6.065444E+04 -1.091067E+04  1.947368E+03  1.150641E+04
       402   3 -3.336413E+04 -5.740293E+04 -5.307745E+04 -2.019316E+04  1.805069E+03  9.857030E+03
       402   4  1.998570E+05  5.105881E+02  1.885558E+03 -2.015864E+04  1.449370E+03  1.264853E+04
       402   5  1.997359E+05 -5.479510E+01  1.001685E+03 -1.099071E+04  9.426708E+02  1.150625E+04
       402   6  1.998620E+05 -2.536777E+01  6.035345E+02 -2.015872E+04  4.352334E+02  9.857198E+03
       402   7  5.032097E+05  7.513224E+04  7.176405E+04 -2.035275E+04  8.095038E+02  1.264815E+04
       402   8  4.680186E+05  6.591141E+04  6.265305E+04 -1.107078E+04 -6.245731E+01  1.150610E+04
       402   9  4.331385E+05  5.734840E+04  5.428092E+04 -2.012426E+04 -9.351131E+02  9.857365E+03
       402  10 -1.034108E+05 -7.411767E+04 -6.799935E+04 -1.996464E+04  1.206695E-11 -6.805402E-12
       402  11 -6.848025E+04 -6.602617E+04 -6.065469E+04 -1.091069E+04 -6.552017E-11 -7.590601E-11
       402  12 -3.336416E+04 -5.740304E+04 -5.307764E+04 -2.019317E+04 -1.186629E-10  1.058220E-10
       402  13  1.998569E+05  5.104158E+02  1.885253E+03 -2.015865E+04 -2.763906E-11  6.923188E-11
       402  14  1.997359E+05 -5.493752E+01  1.001435E+03 -1.099072E+04  2.251268E-10 -2.493036E-10
       402  15  1.998620E+05 -2.547217E+01  6.033515E+02 -2.015872E+04  2.073852E-10  2.276729E-10
       402  16  5.032097E+05  7.513207E+04  7.176375E+04 -2.035276E+04  4.430427E-11 -2.495526E-10
       402  17  4.680186E+05  6.591127E+04  6.265281E+04 -1.107078E+04  1.331029E-10 -3.016196E-11
       402  18  4.331385E+05  5.734829E+04  5.428074E+04 -2.012426E+04  1.698536E-10  1.795292E-10
       402  19 -1.034107E+05 -7.411750E+04 -6.799904E+04 -1.996462E+04 -2.088927E+03 -1.264890E+04
       402  20 -6.848021E+04 -6.602602E+04 -6.065444E+04 -1.091067E+04 -1.947368E+03 -1.150641E+04
       402  21 -3.336413E+04 -5.740293E+04 -5.307745E+04 -2.019316E+04 -1.805069E+03 -9.857030E+03
       402  22  1.998570E+05  5.105881E+02  1.885558E+03 -2.015864E+04 -1.449370E+03 -1.264853E+04
       402  23  1.997359E+05 -5.479510E+01  1.001685E+03 -1.099071E+04 -9.426708E+02 -1.150625E+04
       402  24  1.998620E+05 -2.536777E+01  6.035345E+02 -2.015872E+04 -4.352334E+02 -9.857198E+03
       402  25  5.032097E+05  7.513224E+04  7.176405E+04 -2.035275E+04 -8.095038E+02 -1.264815E+04
       402  26  4.680186E+05  6.591141E+04  6.265305E+04 -1.107078E+04  6.245731E+01 -1.150610E+04
       402  27  4.331385E+05  5.734840E+04  5.428092E+04 -2.012426E+04  9.351131E+02 -9.857365E+03
       403   1  7.969931E+01 -4.906341E+04 -4.532977E+04 -2.009417E+04  1.551388E+03  8.793098E+03
       403   2  3.498366E+04 -4.053630E+04 -3.756955E+04 -1.095178E+04  1.417633E+03  7.097913E+03
       403   3  6.991737E+04 -3.195205E+04 -2.970876E+04 -2.010718E+04  1.283415E+03  5.378892E+03
       403   4  1.998177E+05  4.159394E+01  4.775781E+02 -2.015014E+04  3.394745E+02  8.793341E+03
       403   5  1.998034E+05 -1.905371E+00  3.028692E+02 -1.100140E+04  1.884847E+02  7.098304E+03
       403   6  1.998207E+05  1.479012E+01  2.407308E+02 -2.015015E+04  3.703926E+01  5.379439E+03
       403   7  3.995926E+05  4.914382E+04  4.628231E+04 -2.020613E+04 -8.728254E+02  8.793583E+03
       403   8  3.646483E+05  4.053060E+04  3.817350E+04 -1.105103E+04 -1.040987E+03  7.098695E+03
       403   9  3.297397E+05  3.198045E+04  3.018911E+04 -2.019313E+04 -1.209595E+03  5.379987E+03
       403  10  7.967596E+01 -4.906350E+04 -4.532992E+04 -2.009418E+04  2.170700E-10  1.333255E-11
       403  11  3.498365E+04 -4.053636E+04 -3.756965E+04 -1.095179E+04  1.758255E-10  3.733757E-11
       403  12  6.991736E+04 -3.195208E+04 -2.970882E+04 -2.010719E+04 -1.314590E-10 -2.025219E-10
       403  13  1.998177E+05  4.151087E+01  4.774326E+02 -2.015014E+04  2.123074E-12  9.673474E-11
       403  14  1.998034E+05 -1.959492E+00  3.027744E+02 -1.100141E+04  1.606490E-10  2.005901E-10
       403  15  1.998207E+05  1.475905E+01  2.406764E+02 -2.015015E+04 -1.117907E-10  3.900728E-10
       403  16  3.995926E+05  4.914374E+04  4.628216E+04 -2.020612E+04  7.507976E-11  7.061136E-11
       403  17  3.646483E+05  4.053054E+04  3.817341E+04 -1.105103E+04 -7.627557E-12 -2.570839E-10
       403  18  3.297397E+05  3.198042E+04  3.018905E+04 -2.019312E+04  1.281791E-10  8.257828E-12
       403  19  7.969931E+01 -4.906341E+04 -4.532977E+04 -2.009417E+04 -1.551388E+03 -8.793098E+03
       403  20  3.498366E+04 -4.053630E+04 -3.756955E+04 -1.095178E+04 -1.417633E+03 -7.097913E+03
       403  21  6.991737E+04 -3.195205E+04 -2.970876E+04 -2.010718E+04 -1.283415E+03 -5.378892E+03
       403  22  1.998177E+05  4.159394E+01  4.775781E+02 -2.015014E+04 -3.394745E+02 -8.793341E+03
       403  23  1.998034E+05 -1.905371E+00  3.028692E+02 -1.100140E+04 -1.884847E+02 -7.098304E+03
       403  24  1.998207E+05  1.479012E+01  2.407308E+02 -2.015015E+04 -3.703926E+01 -5.379439E+03
       403  25  3.995926E+05  4.914382E+04  4.628231E+04 -2.020613E+04  8.728254E+02 -8.793583E+03
       403  26  3.646483E+05  4.053060E+04  3.817350E+04 -1.105103E+04  1.040987E+03 -7.098695E+03
       403  27  3.297397E+05  3.198045E+04  3.018911E+04 -2.019313E+04  1.209595E+03 -5.379987E+03
       404   1  1.033208E+05 -2.369050E+04 -2.183300E+04 -2.010543E+04  1.231447E+03  4.373906E+03
       404   2  1.381864E+05 -1.514740E+04 -1.387669E+04 -1.097857E+04  1.091153E+03  2.654309E+03
       404   3  1.730554E+05 -6.579498E+03 -5.827960E+03 -2.012125E+04  9.506854E+02  9.340231E+02
       404   4  1.998162E+05  1.929133E+01  2.363003E+02 -2.014391E+04 -6.645200E+00  4.374514E+03
       404   5  1.998153E+05  8.103695E+00  2.831986E+02 -1.100920E+04 -1.474714E+02  2.654970E+03
       404   6  1.998173E+05  2.201943E+01  4.230696E+02 -2.014391E+04 -2.884634E+02  9.347406E+02
       404   7  2.963202E+05  2.372843E+04  2.230500E+04 -2.018240E+04 -1.244929E+03  4.375122E+03
       404   8  2.614478E+05  1.516334E+04  1.444284E+04 -1.103983E+04 -1.386218E+03  2.655630E+03
       404   9  2.265800E+05  6.623487E+03  6.674057E+03 -2.016657E+04 -1.527665E+03  9.354583E+02
       404  10  1.033208E+05 -2.369052E+04 -2.183304E+04 -2.010543E+04  1.490944E-10 -5.172527E-11
       404  11  1.381864E+05 -1.514741E+04 -1.387670E+04 -1.097857E+04  1.913040E-10  5.898933E-11
       404  12  1.730554E+05 -6.579500E+03 -5.827964E+03 -2.012125E+04  9.672517E-11  4.657118E-12
       404  13  1.998162E+05  1.927078E+01  2.362644E+02 -2.014391E+04 -2.395839E-10 -3.546621E-10
       404  14  1.998153E+05  8.096119E+00  2.831853E+02 -1.100920E+04  1.083114E-10  1.222034E-10
       404  15  1.998173E+05  2.201847E+01  4.230678E+02 -2.014391E+04 -2.023003E-10 -1.422107E-10
       404  16  2.963202E+05  2.372841E+04  2.230496E+04 -2.018240E+04  2.305062E-11  1.766999E-10
       404  17  2.614478E+05  1.516333E+04  1.444282E+04 -1.103983E+04 -4.523617E-10 -7.348068E-11
       404  18  2.265800E+05  6.623486E+03  6.674051E+03 -2.016657E+04 -2.407036E-10 -2.736510E-10
       404  19  1.033208E+05 -2.369050E+04 -2.183300E+04 -2.010543E+04 -1.231447E+03 -4.373906E+03
       404  20  1.381864E+05 -1.514740E+04 -1.387669E+04 -1.097857E+04 -1.091153E+03 -2.654309E+03
       404  21  1.730554E+05 -6.579498E+03 -5.827960E+03 -2.012125E+04 -9.506854E+02 -9.340231E+02
       404  22  1.998162E+05  1.929133E+01  2.363003E+02 -2.014391E+04  6.645200E+00 -4.374514E+03
       404  23  1.998153E+05  8.103695E+00  2.831986E+02 -1.100920E+04  1.474714E+02 -2.654970E+03
       404  24  1.998173E+05  2.201943E+01  4.230696E+02 -2.014391E+04  2.884634E+02 -9.347406E+02
       404  25  2.963202E+05  2.372843E+04  2.230500E+04 -2.018240E+04  1.244929E+03 -4.375122E+03
       404  26  2.614478E+05  1.516334E+04  1.444284E+04 -1.103983E+04  1.386218E+03 -2.655630E+03
       404  27  2.265800E+05  6.623487E+03  6.674057E+03 -2.016657E+04  1.527665E+03 -9.354583E+02
       405   1  2.064499E+05  1.668159E+03  2.161216E+03 -2.012837E+04  8.630054E+02 -6.737351E+01
       405   2  2.412879E+05  1.020189E+04  1.043454E+04 -1.100070E+04  4.143174E+02 -1.787256E+03
       405   3  2.761795E+05  1.880318E+04  1.901141E+04 -2.014008E+04 -3.428913E+01 -3.506338E+03
       405   4  1.998284E+05  1.944296E+01  5.375563E+02 -2.014341E+04 -3.760990E+02 -6.665022E+01
       405   5  1.998021E+05  5.537671E-01  9.033222E+02 -1.100983E+04 -8.242225E+02 -1.786572E+03
       405   6  1.998275E+05  4.907959E+01  1.572196E+03 -2.014339E+04 -1.272240E+03 -3.505688E+03
       405   7  1.932069E+05 -1.629276E+03 -1.086101E+03 -2.015845E+04 -1.615190E+03 -6.592686E+01
       405   8  1.583178E+05 -1.020090E+04 -8.628003E+03 -1.101897E+04 -2.062680E+03 -1.785888E+03
       405   9  1.234810E+05 -1.870542E+04 -1.586740E+04 -2.014669E+04 -2.510040E+03 -3.505039E+03
       405  10  2.064499E+05  1.668159E+03  2.161215E+03 -2.012837E+04  1.540300E-10  3.428769E-10
       405  11  2.412879E+05  1.020189E+04  1.043453E+04 -1.100069E+04  5.715082E-12  7.097754E-10
       405  12  2.761795E+05  1.880316E+04  1.901139E+04 -2.014008E+04  5.807966E-10 -4.004703E-10
       405  13  1.998284E+05  1.944292E+01  5.375560E+02 -2.014341E+04  6.355866E-12  9.169805E-11
       405  14  1.998021E+05  5.501570E-01  9.033149E+02 -1.100983E+04  6.759491E-11 -3.823755E-10
       405  15  1.998275E+05  4.906596E+01  1.572169E+03 -2.014339E+04 -1.332430E-10  8.829559E-11
       405  16  1.932069E+05 -1.629277E+03 -1.086106E+03 -2.015845E+04  8.654906E-11  1.399550E-10
       405  17  1.583178E+05 -1.020091E+04 -8.628017E+03 -1.101897E+04 -1.955739E-10 -2.788093E-10
       405  18  1.234810E+05 -1.870544E+04 -1.586743E+04 -2.014670E+04 -4.643019E-10  1.191109E-10
       405  19  2.064499E+05  1.668159E+03  2.161216E+03 -2.012837E+04 -8.630054E+02  6.737351E+01
       405  20  2.412879E+05  1.020189E+04  1.043454E+04 -1.100070E+04 -4.143174E+02  1.787256E+03
       405  21  2.761795E+05  1.880318E+04  1.901141E+04 -2.014008E+04  3.428913E+01  3.506338E+03
       405  22  1.998284E+05  1.944296E+01  5.375563E+02 -2.014341E+04  3.760990E+02  6.665022E+01
       405  23  1.998021E+05  5.537671E-01  9.033222E+02 -1.100983E+04  8.242225E+02  1.786572E+03
       405  24  1.998275E+05  4.907959E+01  1.572196E+03 -2.014339E+04  1.272240E+03  3.505688E+03
       405  25  1.932069E+05 -1.629276E+03 -1.086101E+03 -2.015845E+04  1.615190E+03  6.592686E+01
       405  26  1.583178E+05 -1.020090E+04 -8.628003E+03 -1.101897E+04  2.062680E+03  1.785888E+03
       405  27  1.234810E+05 -1.870542E+04 -1.586740E+04 -2.014669E+04  2.510040E+03  3.505039E+03
       406   1  3.096576E+05  2.699295E+04  2.737709E+04 -2.005802E+04 -3.537434E+02 -4.510669E+03
       406   2  3.443737E+05  3.550664E+04  3.679955E+04 -1.100687E+04 -2.144701E+03 -6.228273E+03
       406   3  3.794802E+05  4.467786E+04  4.754972E+04 -2.024539E+04 -3.935361E+03 -7.923187E+03
       406   4  1.999004E+05 -1.536979E+01  2.060253E+03 -2.014854E+04 -1.599520E+03 -4.510069E+03
       406   5  1.997057E+05 -6.513259E+01  3.563802E+03 -1.100345E+04 -3.373790E+03 -6.227811E+03
       406   6  1.998975E+05  5.399425E+02  6.383797E+03 -2.014828E+04 -5.147664E+03 -7.922857E+03
       406   7  9.015436E+04 -2.702454E+04 -2.325738E+04 -2.023904E+04 -2.845078E+03 -4.509468E+03
       406   8  5.505703E+04 -3.563837E+04 -2.967333E+04 -1.100002E+04 -4.602596E+03 -6.227349E+03
       406   9  2.034462E+04 -4.360022E+04 -3.478425E+04 -2.005119E+04 -6.359620E+03 -7.922528E+03
       406  10  3.096576E+05  2.699293E+04  2.737705E+04 -2.005803E+04  3.328332E-10 -4.645783E-10
       406  11  3.443737E+05  3.550660E+04  3.679947E+04 -1.100689E+04 -1.073224E-10 -1.635862E-11
       406  12  3.794802E+05  4.467779E+04  4.754958E+04 -2.024542E+04 -5.039703E-10  1.689106E-10
       406  13  1.999004E+05 -1.539232E+01  2.060210E+03 -2.014855E+04 -4.440911E-10  1.555642E-10
       406  14  1.997057E+05 -6.517730E+01  3.563708E+03 -1.100346E+04  1.989430E-10 -2.946969E-10
       406  15  1.998974E+05  5.398679E+02  6.383629E+03 -2.014831E+04  6.842043E-11 -4.518920E-11
       406  16  9.015435E+04 -2.702456E+04 -2.325744E+04 -2.023905E+04 -1.255031E-10  1.461331E-10
       406  17  5.505700E+04 -3.563841E+04 -2.967344E+04 -1.100004E+04 -1.073912E-10  4.742127E-10
       406  18  2.034456E+04 -4.360029E+04 -3.478444E+04 -2.005123E+04  5.162099E-10  2.555734E-10
       406  19  3.096576E+05  2.699295E+04  2.737709E+04 -2.005802E+04  3.537434E+02  4.510669E+03
       406  20  3.443737E+05  3.550664E+04  3.679955E+04 -1.100687E+04  2.144701E+03  6.228273E+03
       406  21  3.794802E+05  4.467786E+04  4.754972E+04 -2.024539E+04  3.935361E+03  7.923187E+03
       406  22  1.999004E+05 -1.536979E+01  2.060253E+03 -2.014854E+04  1.599520E+03  4.510069E+03
       406  23  1.997057E+05 -6.513259E+01  3.563802E+03 -1.100345E+04  3.373790E+03  6.227811E+03
       406  24  1.998975E+05  5.399425E+02  6.383797E+03 -2.014828E+04  5.147664E+03  7.922857E+03
       406  25  9.015436E+04 -2.702454E+04 -2.325738E+04 -2.023904E+04  2.845078E+03  4.509468E+03
       406  26  5.505703E+04 -3.563837E+04 -2.967333E+04 -1.100002E+04  4.602596E+03  6.227349E+03
       406  27  2.034462E+04 -4.360022E+04 -3.478425E+04 -2.005119E+04  6.359620E+03  7.922528E+03
       407   1  4.135508E+05  5.198217E+04  5.730689E+04 -1.893237E+04 -5.075211E+03 -8.983304E+03
       407   2  4.470064E+05  6.036056E+04  7.119165E+04 -1.167161E+04 -1.260487E+04 -1.063346E+04
       407   3  4.835686E+05  7.715028E+04  9.208367E+04 -2.273412E+04 -2.013418E+04 -1.180222E+04
       407   4  2.004856E+05 -4.219453E+02  8.271537E+03 -2.015643E+04 -6.437584E+03 -8.983022E+03
       407   5  1.989592E+05 -6.314363E+02  1.418916E+04 -1.099379E+04 -1.361788E+04 -1.063352E+04
       407   6  2.004797E+05  7.512012E+03  2.687382E+04 -2.015478E+04 -2.079742E+04 -1.180257E+04
       407   7 -1.253769E+04 -5.282923E+04 -4.076682E+04 -2.138007E+04 -7.799494E+03 -8.982735E+03
       407   8 -4.903113E+04 -6.162772E+04 -4.281740E+04 -1.031623E+04 -1.463049E+04 -1.063358E+04
       407   9 -8.253498E+04 -6.213184E+04 -3.834134E+04 -1.757662E+04 -2.146036E+04 -1.180294E+04
       407  10  4.135508E+05  5.198208E+04  5.730669E+04 -1.893240E+04  2.807557E-10  2.956600E-10
       407  11  4.470062E+05  6.036039E+04  7.119114E+04 -1.167172E+04  1.212440E-10 -3.569894E-10
       407  12  4.835681E+05  7.715002E+04  9.208265E+04 -2.273432E+04 -4.182978E-10 -1.447576E-10
       407  13  2.004855E+05 -4.220431E+02  8.271308E+03 -2.015648E+04 -1.408696E-10  2.807341E-10
       407  14  1.989589E+05 -6.316075E+02  1.418860E+04 -1.099390E+04 -1.576011E-10  5.457330E-11
       407  15  2.004792E+05  7.511747E+03  2.687275E+04 -2.015498E+04 -1.417831E-10 -4.971771E-11
       407  16 -1.253778E+04 -5.282933E+04 -4.076708E+04 -2.138013E+04 -1.189634E-10  3.219150E-10
       407  17 -4.903139E+04 -6.162790E+04 -4.281801E+04 -1.031635E+04 -1.768235E-10 -1.518704E-10
       407  18 -8.253552E+04 -6.213211E+04 -3.834247E+04 -1.757682E+04  3.465258E-10  4.989567E-11
       407  19  4.135508E+05  5.198217E+04  5.730689E+04 -1.893237E+04  5.075211E+03  8.983304E+03
       407  20  4.470064E+05  6.036056E+04  7.119165E+04 -1.167161E+04  1.260487E+04  1.063346E+04
       407  21  4.835686E+05  7.715028E+04  9.208367E+04 -2.273412E+04  2.013418E+04  1.180222E+04
       407  22  2.004856E+05 -4.219453E+02  8.271537E+03 -2.015643E+04  6.437584E+03  8.983022E+03
       407  23  1.989592E+05 -6.314363E+02  1.418916E+04 -1.099379E+04  1.361788E+04  1.063352E+04
       407  24  2.004797E+05  7.512012E+03  2.687382E+04 -2.015478E+04  2.079742E+04  1.180257E+04
       407  25 -1.253769E+04 -5.282923E+04 -4.076682E+04 -2.138007E+04  7.799494E+03  8.982735E+03
       407  26 -4.903113E+04 -6.162772E+04 -4.281740E+04 -1.031623E+04  1.463049E+04  1.063358E+04
       407  27 -8.253498E+04 -6.213184E+04 -3.834134E+04 -1.757662E+04  2.146036E+04  1.180294E+04
       408   1  5.235499E+05  7.233199E+04  1.060109E+05 -5.280677E+03 -2.205051E+04 -1.395735E+04
       408   2  5.426174E+05  7.952919E+04  1.364746E+05 -2.425540E+04 -5.865632E+04 -1.418730E+04
       408   3  5.940512E+05  1.968766E+05  2.183094E+05 -6.130100E+04 -9.526720E+04 -4.636559E+03
       408   4  2.067236E+05 -5.530634E+03  3.338258E+04 -2.009565E+04 -2.573147E+04 -1.395705E+04
       408   5  1.911376E+05 -6.971375E+03  5.529295E+04 -1.106891E+04 -5.527759E+04 -1.418882E+04
       408   6  2.067084E+05  1.005437E+05  1.236920E+05 -2.011081E+04 -8.482613E+04 -4.640741E+03
       408   7 -1.100093E+05 -8.339941E+04 -3.925214E+04 -3.490301E+04 -2.941055E+04 -1.395657E+04
       408   8 -1.602276E+05 -9.347994E+04 -2.589676E+04  2.110058E+03 -5.190074E+04 -1.419020E+04
       408   9 -1.804937E+05  4.206283E+03  2.906496E+04  2.105365E+04 -7.439154E+04 -4.643541E+03
       408  10  5.235493E+05  7.233165E+04  1.060096E+05 -5.280924E+03 -4.262113E-11 -9.623592E-11
       408  11  5.426136E+05  7.952805E+04  1.364677E+05 -2.425607E+04 -3.238701E-11 -2.496776E-11
       408  12  5.940414E+05  1.968741E+05  2.182924E+05 -6.130136E+04 -7.921826E-11 -4.898010E-11
       408  13  2.067228E+05 -5.531020E+03  3.338097E+04 -2.009594E+04 -7.221600E-11 -1.217860E-10
       408  14  1.911343E+05 -6.972411E+03  5.528683E+04 -1.106954E+04 -1.582070E-10  2.702885E-10
       408  15  2.067007E+05  1.005418E+05  1.236785E+05 -2.011112E+04 -4.306893E-11 -7.089236E-11
       408  16 -1.100103E+05 -8.339985E+04 -3.925413E+04 -3.490334E+04 -1.179220E-10  6.534021E-11
       408  17 -1.602306E+05 -9.348088E+04 -2.590220E+04  2.109465E+03 -2.315432E-10 -3.266206E-11
       408  18 -1.804997E+05  4.204773E+03  2.905452E+04  2.105337E+04 -4.372376E-11 -1.762135E-10
       408  19  5.235499E+05  7.233199E+04  1.060109E+05 -5.280677E+03  2.205051E+04  1.395735E+04
       408  20  5.426174E+05  7.952919E+04  1.364746E+05 -2.425540E+04  5.865632E+04  1.418730E+04
       408  21  5.940512E+05  1.968766E+05  2.183094E+05 -6.130100E+04  9.526720E+04  4.636559E+03
       408  22  2.067236E+05 -5.530634E+03  3.338258E+04 -2.009565E+04  2.573147E+04  1.395705E+04
       408  23  1.911376E+05 -6.971375E+03  5.529295E+04 -1.106891E+04  5.527759E+04  1.418882E+04
       408  24  2.067084E+05  1.005437E+05  1.236920E+05 -2.011081E+04  8.482613E+04  4.640741E+03
       408  25 -1.100093E+05 -8.339941E+04 -3.925214E+04 -3.490301E+04  2.941055E+04  1.395657E+04
       408  26 -1.602276E+05 -9.347994E+04 -2.589676E+04  2.110058E+03  5.190074E+04  1.419020E+04
       408  27 -1.804937E+05  4.206283E+03  2.906496E+04  2.105365E+04  7.439154E+04  4.643541E+03
       409   1 -1.155302E+06 -1.422777E+05 -1.642908E+05 -5.106292E+04 -8.824748E+04  2.026597E+03
       409   2 -1.121833E+06 -3.118960E+04 -9.027316E+04 -1.885611E+04 -5.593626E+04  6.222360E+03
       409   3 -1.119602E+06 -2.822252E+04 -6.434558E+04  4.207763E+03 -2.362294E+04  6.020981E+03
       409   4 -9.828748E+05 -9.928461E+04 -1.220841E+05 -1.037427E+04 -8.366711E+04  2.021988E+03
       409   5 -9.675078E+05  6.858905E+03 -5.456606E+04 -5.814184E+03 -5.451195E+04  6.221368E+03
       409   6 -9.828244E+05  5.442036E+03 -3.293523E+04 -1.039851E+04 -2.535583E+04  6.021211E+03
       409   7 -8.104170E+05 -5.628750E+04 -7.987868E+04  3.032571E+04 -7.908546E+04  2.017982E+03
       409   8 -8.131605E+05  4.490638E+04 -1.886046E+04  7.231009E+03 -5.308729E+04  6.220437E+03
       409   9 -8.460287E+05  3.910609E+04 -1.526001E+03 -2.500803E+04 -2.708909E+04  6.021523E+03
       409  10 -1.155310E+06 -1.422798E+05 -1.643055E+05 -5.106277E+04 -2.003103E-10  7.675197E-11
       409  11 -1.121836E+06 -3.119049E+04 -9.027912E+04 -1.885582E+04  2.451538E-10  1.182093E-11
       409  12 -1.119603E+06 -2.822271E+04 -6.434670E+04  4.207877E+03 -2.340680E-10 -3.184987E-11
       409  13 -9.828824E+05 -9.928649E+04 -1.220973E+05 -1.037414E+04 -2.521858E-11  2.309406E-11
       409  14 -9.675110E+05  6.858064E+03 -5.457172E+04 -5.813910E+03  4.014040E-10 -2.751326E-10
       409  15 -9.828251E+05  5.441824E+03 -3.293651E+04 -1.039839E+04  2.371288E-10 -3.831488E-11
       409  16 -8.104238E+05 -5.628919E+04 -7.989045E+04  3.032584E+04  1.571323E-11 -7.513919E-11
       409  17 -8.131636E+05  4.490558E+04 -1.886583E+04  7.231275E+03  2.811522E-10 -3.316305E-10
       409  18 -8.460295E+05  3.910586E+04 -1.527450E+03 -2.500790E+04  3.867926E-10 -1.364435E-10
       409  19 -1.155302E+06 -1.422777E+05 -1.642908E+05 -5.106292E+04  8.824748E+04 -2.026597E+03
       409  20 -1.121833E+06 -3.118960E+04 -9.027316E+04 -1.885611E+04  5.593626E+04 -6.222360E+03
       409  21 -1.119602E+06 -2.822252E+04 -6.434558E+04  4.207763E+03  2.362294E+04 -6.020981E+03
       409  22 -9.828748E+05 -9.928461E+04 -1.220841E+05 -1.037427E+04  8.366711E+04 -2.021988E+03
       409  23 -9.675078E+05  6.858905E+03 -5.456606E+04 -5.814184E+03  5.451195E+04 -6.221368E+03
       409  24 -9.828244E+05  5.442036E+03 -3.293523E+04 -1.039851E+04  2.535583E+04 -6.021211E+03
       409  25 -8.104170E+05 -5.628750E+04 -7.987868E+04  3.032571E+04  7.908546E+04 -2.017982E+03
       409  26 -8.131605E+05  4.490638E+04 -1.886046E+04  7.231009E+03  5.308729E+04 -6.220437E+03
       409  27 -8.460287E+05  3.910609E+04 -1.526001E+03 -2.500803E+04  2.708909E+04 -6.021523E+03
       410   1 -1.096164E+06 -3.687531E+04 -5.408274E+04 -1.299220E+04 -2.011098E+04  4.991360E+03
       410   2 -1.076568E+06 -2.435315E+04 -3.733645E+04 -6.359898E+03 -1.287064E+04  4.351374E+03
       410   3 -1.059976E+06 -2.010007E+04 -2.737559E+04 -9.203898E+03 -5.630262E+03  3.489699E+03
       410   4 -9.766761E+05 -7.436038E+03 -2.651620E+04 -1.046525E+04 -2.049449E+04  4.991172E+03
       410   5 -9.751839E+05  6.140265E+02 -1.400123E+04 -5.727451E+03 -1.341233E+04  4.351276E+03
       410   6 -9.766685E+05  4.234522E+02 -8.160601E+03 -1.046588E+04 -6.330340E+03  3.489666E+03
       410   7 -8.571752E+05  2.200226E+04  1.049405E+03 -7.937814E+03 -2.087808E+04  4.990981E+03
       410   8 -8.737906E+05  2.558049E+04  9.333315E+03 -5.094899E+03 -1.395411E+04  4.351178E+03
       410   9 -8.933540E+05  2.094650E+04  1.105393E+04 -1.172803E+04 -7.030510E+03  3.489635E+03
       410  10 -1.096164E+06 -3.687545E+04 -5.408355E+04 -1.299212E+04 -1.659842E-11 -6.785080E-11
       410  11 -1.076568E+06 -2.435322E+04 -3.733680E+04 -6.359853E+03 -4.395796E-11  9.806030E-11
       410  12 -1.059977E+06 -2.010009E+04 -2.737567E+04 -9.203882E+03  2.762095E-10 -1.326718E-10
       410  13 -9.766766E+05 -7.436178E+03 -2.651703E+04 -1.046517E+04  1.681313E-11  9.538597E-12
       410  14 -9.751841E+05  6.139578E+02 -1.400160E+04 -5.727404E+03  3.017753E-10  4.654187E-11
       410  15 -9.766685E+05  4.234283E+02 -8.160700E+03 -1.046586E+04  1.247071E-10 -2.167807E-10
       410  16 -8.571757E+05  2.200212E+04  1.048538E+03 -7.937730E+03  1.314353E-10  1.068095E-10
       410  17 -8.737908E+05  2.558041E+04  9.332913E+03 -5.094850E+03  3.765683E-10 -1.537368E-11
       410  18 -8.933541E+05  2.094647E+04  1.105381E+04 -1.172801E+04 -2.662140E-10 -1.411242E-10
       410  19 -1.096164E+06 -3.687531E+04 -5.408274E+04 -1.299220E+04  2.011098E+04 -4.991360E+03
       410  20 -1.076568E+06 -2.435315E+04 -3.733645E+04 -6.359898E+03  1.287064E+04 -4.351374E+03
       410  21 -1.059976E+06 -2.010007E+04 -2.737559E+04 -9.203898E+03  5.630262E+03 -3.489699E+03
       410  22 -9.766761E+05 -7.436038E+03 -2.651620E+04 -1.046525E+04  2.049449E+04 -4.991172E+03
       410  23 -9.751839E+05  6.140265E+02 -1.400123E+04 -5.727451E+03  1.341233E+04 -4.351276E+03
       410  24 -9.766685E+05  4.234522E+02 -8.160601E+03 -1.046588E+04  6.330340E+03 -3.489666E+03
       410  25 -8.571752E+05  2.200226E+04  1.049405E+03 -7.937814E+03  2.087808E+04 -4.990981E+03
       410  26 -8.737906E+05  2.558049E+04  9.333315E+03 -5.094899E+03  1.395411E+04 -4.351178E+03
       410  27 -8.933540E+05  2.094650E+04  1.105393E+04 -1.172803E+04  7.030510E+03 -3.489635E+03
       411   1 -1.041956E+06 -1.673618E+04 -2.140872E+04 -1.053329E+04 -4.424120E+03  2.941023E+03
       411   2 -1.023500E+06 -1.165155E+04 -1.448006E+04 -5.656077E+03 -2.660249E+03  2.052181E+03
       411   3 -1.005432E+06 -7.200168E+03 -8.859258E+03 -1.035579E+04 -8.963640E+02  1.150685E+03
       411   4 -9.760925E+05 -5.274861E+02 -6.302859E+03 -1.048807E+04 -5.059053E+03  2.941001E+03
       411   5 -9.758989E+05  6.973107E+01 -3.528306E+03 -5.699623E+03 -3.304120E+03  2.052181E+03
       411   6 -9.760908E+05  3.526499E+01 -2.055319E+03 -1.048806E+04 -1.549225E+03  1.150708E+03
       411   7 -9.102253E+05  1.568090E+04  8.802718E+03 -1.044285E+04 -5.694053E+03  2.940979E+03
       411   8 -9.282954E+05  1.179085E+04  7.423299E+03 -5.743172E+03 -3.948041E+03  2.052181E+03
       411   9 -9.467493E+05  7.270638E+03  4.748564E+03 -1.062034E+04 -2.202116E+03  1.150731E+03
       411  10 -1.041956E+06 -1.673619E+04 -2.140877E+04 -1.053328E+04 -4.645045E-10 -1.772923E-10
       411  11 -1.023500E+06 -1.165156E+04 -1.448008E+04 -5.656072E+03 -8.709187E-11 -1.450205E-10
       411  12 -1.005432E+06 -7.200170E+03 -8.859262E+03 -1.035579E+04  2.693609E-10  1.263447E-10
       411  13 -9.760926E+05 -5.275023E+02 -6.302924E+03 -1.048806E+04 -1.598119E-10 -1.707040E-10
       411  14 -9.758989E+05  6.972362E+01 -3.528335E+03 -5.699617E+03  2.625892E-11 -9.677140E-11
       411  15 -9.760908E+05  3.526292E+01 -2.055326E+03 -1.048806E+04 -2.717276E-10 -1.099325E-10
       411  16 -9.102254E+05  1.568088E+04  8.802641E+03 -1.044284E+04  1.736202E-10 -1.689537E-10
       411  17 -9.282954E+05  1.179084E+04  7.423262E+03 -5.743165E+03 -9.806958E-11  7.051226E-11
       411  18 -9.467493E+05  7.270635E+03  4.748552E+03 -1.062033E+04  1.139784E-10 -4.681700E-11
       411  19 -1.041956E+06 -1.673618E+04 -2.140872E+04 -1.053329E+04  4.424120E+03 -2.941023E+03
       411  20 -1.023500E+06 -1.165155E+04 -1.448006E+04 -5.656077E+03  2.660249E+03 -2.052181E+03
       411  21 -1.005432E+06 -7.200168E+03 -8.859258E+03 -1.035579E+04  8.963640E+02 -1.150685E+03
       411  22 -9.760925E+05 -5.274861E+02 -6.302859E+03 -1.048807E+04  5.059053E+03 -2.941001E+03
       411  23 -9.758989E+05  6.973107E+01 -3.528306E+03 -5.699623E+03  3.304120E+03 -2.052181E+03
       411  24 -9.760908E+05  3.526499E+01 -2.055319E+03 -1.048806E+04  1.549225E+03 -1.150708E+03
       411  25 -9.102253E+05  1.568090E+04  8.802718E+03 -1.044285E+04  5.694053E+03 -2.940979E+03
       411  26 -9.282954E+05  1.179085E+04  7.423299E+03 -5.743172E+03  3.948041E+03 -2.052181E+03
       411  27 -9.467493E+05  7.270638E+03  4.748564E+03 -1.062034E+04  2.202116E+03 -1.150731E+03
       412   1 -9.878141E+05 -2.921884E+03 -4.243071E+03 -1.046129E+04 -5.722538E+02  6.229459E+02
       412   2 -9.694671E+05  1.616874E+03  5.490332E+02 -5.669322E+03 -1.019586E+02 -2.811351E+02
       412   3 -9.511940E+05  6.105916E+03  5.021971E+03 -1.047925E+04  3.683600E+02 -1.185443E+03
       412   4 -9.760214E+05 -2.887409E+01 -1.583655E+03 -1.049362E+04 -1.222327E+03  6.229749E+02
       412   5 -9.759842E+05  1.217641E+01 -9.502386E+02 -5.692670E+03 -7.521943E+02 -2.811097E+02
       412   6 -9.760212E+05  3.566005E+00 -6.358468E+02 -1.049362E+04 -2.820517E+02 -1.185420E+03
       412   7 -9.642287E+05  2.864126E+03  1.075753E+03 -1.052595E+04 -1.872413E+03  6.230041E+02
       412   8 -9.825013E+05 -1.592524E+03 -2.449512E+03 -5.716017E+03 -1.402423E+03 -2.810843E+02
       412   9 -1.000848E+06 -6.098826E+03 -6.293703E+03 -1.050798E+04 -9.324375E+02 -1.185397E+03
       412  10 -9.878141E+05 -2.921884E+03 -4.243073E+03 -1.046129E+04  1.978086E-10 -1.795859E-11
       412  11 -9.694671E+05  1.616874E+03  5.490330E+02 -5.669322E+03  3.022702E-10  9.267074E-11
       412  12 -9.511940E+05  6.105914E+03  5.021968E+03 -1.047925E+04  2.670180E-10 -2.880359E-11
       412  13 -9.760214E+05 -2.887491E+01 -1.583659E+03 -1.049362E+04  2.181912E-10  1.650486E-12
       412  14 -9.759842E+05  1.217618E+01 -9.502398E+02 -5.692670E+03 -1.972885E-10  9.066277E-11
       412  15 -9.760212E+05  3.564475E+00 -6.358496E+02 -1.049362E+04 -3.516165E-10 -4.935322E-14
       412  16 -9.642287E+05  2.864125E+03  1.075746E+03 -1.052595E+04 -3.877622E-10 -1.248581E-11
       412  17 -9.825013E+05 -1.592524E+03 -2.449515E+03 -5.716017E+03 -5.046075E-11  1.347770E-10
       412  18 -1.000848E+06 -6.098828E+03 -6.293707E+03 -1.050798E+04 -4.757819E-10 -1.034873E-11
       412  19 -9.878141E+05 -2.921884E+03 -4.243071E+03 -1.046129E+04  5.722538E+02 -6.229459E+02
       412  20 -9.694671E+05  1.616874E+03  5.490332E+02 -5.669322E+03  1.019586E+02  2.811351E+02
       412  21 -9.511940E+05  6.105916E+03  5.021971E+03 -1.047925E+04 -3.683600E+02  1.185443E+03
       412  22 -9.760214E+05 -2.887409E+01 -1.583655E+03 -1.049362E+04  1.222327E+03 -6.229749E+02
       412  23 -9.759842E+05  1.217641E+01 -9.502386E+02 -5.692670E+03  7.521943E+02  2.811097E+02
       412  24 -9.760212E+05  3.566005E+00 -6.358468E+02 -1.049362E+04  2.820517E+02  1.185420E+03
       412  25 -9.642287E+05  2.864126E+03  1.075753E+03 -1.052595E+04  1.872413E+03 -6.230041E+02
       412  26 -9.825013E+05 -1.592524E+03 -2.449512E+03 -5.716017E+03  1.402423E+03  2.810843E+02
       412  27 -1.000848E+06 -6.098826E+03 -6.293703E+03 -1.050798E+04  9.324375E+02  1.185397E+03
       413   1 -9.336517E+05  1.044305E+04  9.242256E+03 -1.048070E+04  4.754074E+02 -1.711609E+03
       413   2 -9.154012E+05  1.492480E+04  1.341453E+04 -5.705150E+03  7.327509E+02 -2.613328E+03
       413   3 -8.971870E+05  1.938572E+04  1.741425E+04 -1.049108E+04  9.901842E+02 -3.511947E+03
       413   4 -9.760132E+05  1.869038E+00 -5.570825E+02 -1.048465E+04 -1.742141E+02 -1.711596E+03
       413   5 -9.759951E+05  5.351402E+00 -5.249213E+02 -5.703879E+03  8.533620E+01 -2.613344E+03
       413   6 -9.760138E+05 -1.228630E+01 -6.667717E+02 -1.048465E+04  3.449689E+02 -3.511990E+03
       413   7 -1.018373E+06 -1.043944E+04 -1.035654E+04 -1.048860E+04 -8.237917E+02 -1.711583E+03
       413   8 -1.036586E+06 -1.491435E+04 -1.446462E+04 -5.702608E+03 -5.620157E+02 -2.613360E+03
       413   9 -1.054835E+06 -1.941072E+04 -1.874821E+04 -1.047822E+04 -3.001651E+02 -3.512034E+03
       413  10 -9.336517E+05  1.044305E+04  9.242250E+03 -1.048070E+04 -1.740635E-10 -4.406706E-11
       413  11 -9.154012E+05  1.492479E+04  1.341452E+04 -5.705149E+03 -3.128812E-10  1.576527E-10
       413  12 -8.971870E+05  1.938570E+04  1.741423E+04 -1.049108E+04  2.013029E-11 -1.150884E-10
       413  13 -9.760132E+05  1.865886E+00 -5.570881E+02 -1.048465E+04  1.509179E-10  5.537264E-11
       413  14 -9.759951E+05  5.344069E+00 -5.249342E+02 -5.703879E+03  1.439464E-10 -1.059771E-11
       413  15 -9.760138E+05 -1.229957E+01 -6.667950E+02 -1.048465E+04 -6.999509E-10  1.391868E-11
       413  16 -1.018373E+06 -1.043944E+04 -1.035655E+04 -1.048860E+04 -9.396826E-11  4.279742E-11
       413  17 -1.036586E+06 -1.491436E+04 -1.446463E+04 -5.702609E+03  3.378563E-10  1.455855E-11
       413  18 -1.054835E+06 -1.941074E+04 -1.874823E+04 -1.047822E+04 -3.953706E-10  1.319725E-10
       413  19 -9.336517E+05  1.044305E+04  9.242256E+03 -1.048070E+04 -4.754074E+02  1.711609E+03
       413  20 -9.154012E+05  1.492480E+04  1.341453E+04 -5.705150E+03 -7.327509E+02  2.613328E+03
       413  21 -8.971870E+05  1.938572E+04  1.741425E+04 -1.049108E+04 -9.901842E+02  3.511947E+03
       413  22 -9.760132E+05  1.869038E+00 -5.570825E+02 -1.048465E+04  1.742141E+02  1.711596E+03
       413  23 -9.759951E+05  5.351402E+00 -5.249213E+02 -5.703879E+03 -8.533620E+01  2.613344E+03
       413  24 -9.760138E+05 -1.228630E+01 -6.667717E+02 -1.048465E+04 -3.449689E+02  3.511990E+03
       413  25 -1.018373E+06 -1.043944E+04 -1.035654E+04 -1.048860E+04  8.237917E+02  1.711583E+03
       413  26 -1.036586E+06 -1.491435E+04 -1.446462E+04 -5.702608E+03  5.620157E+02  2.613360E+03
       413  27 -1.054835E+06 -1.941072E+04 -1.874821E+04 -1.047822E+04  3.001651E+02  3.512034E+03
       414   1 -8.798078E+05  2.371405E+04  2.138397E+04 -1.050098E+04  1.124918E+03 -4.035597E+03
       414   2 -8.617141E+05  2.815289E+04  2.499403E+04 -5.738861E+03  1.752837E+03 -4.926158E+03
       414   3 -8.437472E+05  3.237016E+04  2.814161E+04 -1.042934E+04  2.380940E+03 -5.797619E+03
       414   4 -9.760352E+05  1.072802E+01 -8.060055E+02 -1.046047E+04  4.774385E+02 -4.035667E+03
       414   5 -9.759710E+05  2.132813E+01 -1.290182E+03 -5.734110E+03  1.118977E+03 -4.926280E+03
       414   6 -9.760367E+05 -1.920859E+02 -2.246443E+03 -1.046045E+04  1.760683E+03 -5.797791E+03
       414   7 -1.072254E+06 -2.369325E+04 -2.299660E+04 -1.041997E+04 -1.699409E+02 -4.035736E+03
       414   8 -1.090216E+06 -2.811115E+04 -2.757526E+04 -5.729360E+03  4.852341E+02 -4.926402E+03
       414   9 -1.108310E+06 -3.275556E+04 -3.263565E+04 -1.049156E+04  1.140557E+03 -5.797962E+03
       414  10 -8.798078E+05  2.371404E+04  2.138394E+04 -1.050097E+04  1.925250E-10 -1.573516E-10
       414  11 -8.617141E+05  2.815287E+04  2.499398E+04 -5.738854E+03 -2.933676E-11  2.675848E-10
       414  12 -8.437472E+05  3.237013E+04  2.814153E+04 -1.042933E+04  3.408770E-10 -2.012199E-10
       414  13 -9.760352E+05  1.071048E+01 -8.060365E+02 -1.046047E+04 -6.386482E-10  7.663573E-11
       414  14 -9.759711E+05  2.130174E+01 -1.290230E+03 -5.734106E+03 -6.546274E-10  3.371207E-10
       414  15 -9.760368E+05 -1.921228E+02 -2.246512E+03 -1.046044E+04  1.385765E-10 -2.510077E-10
       414  16 -1.072254E+06 -2.369327E+04 -2.299663E+04 -1.041997E+04  8.479618E-11  7.253646E-11
       414  17 -1.090216E+06 -2.811118E+04 -2.757531E+04 -5.729358E+03 -6.159346E-10  2.199712E-10
       414  18 -1.108310E+06 -3.275559E+04 -3.263571E+04 -1.049155E+04 -5.910684E-10  1.548275E-11
       414  19 -8.798078E+05  2.371405E+04  2.138397E+04 -1.050098E+04 -1.124918E+03  4.035597E+03
       414  20 -8.617141E+05  2.815289E+04  2.499403E+04 -5.738861E+03 -1.752837E+03  4.926158E+03
       414  21 -8.437472E+05  3.237016E+04  2.814161E+04 -1.042934E+04 -2.380940E+03  5.797619E+03
       414  22 -9.760352E+05  1.072802E+01 -8.060055E+02 -1.046047E+04 -4.774385E+02  4.035667E+03
       414  23 -9.759710E+05  2.132813E+01 -1.290182E+03 -5.734110E+03 -1.118977E+03  4.926280E+03
       414  24 -9.760367E+05 -1.920859E+02 -2.246443E+03 -1.046045E+04 -1.760683E+03  5.797791E+03
       414  25 -1.072254E+06 -2.369325E+04 -2.299660E+04 -1.041997E+04  1.699409E+02  4.035736E+03
       414  26 -1.090216E+06 -2.811115E+04 -2.757526E+04 -5.729360E+03 -4.852341E+02  4.926402E+03
       414  27 -1.108310E+06 -3.275556E+04 -3.263565E+04 -1.049156E+04 -1.140557E+03  5.797962E+03
       415   1 -8.267973E+05  3.694535E+04  3.152899E+04 -1.084518E+04  2.919789E+03 -6.346206E+03
       415   2 -8.085955E+05  4.135933E+04  3.351517E+04 -5.531036E+03  5.204484E+03 -7.178134E+03
       415   3 -7.913864E+05  4.290731E+04  3.330067E+04 -9.488219E+03  7.489360E+03 -7.709564E+03
       415   4 -9.762379E+05  1.430319E+02 -2.893523E+03 -1.042041E+04  2.212629E+03 -6.346432E+03
       415   5 -9.757245E+05  2.086923E+02 -4.943181E+03 -5.784285E+03  4.712862E+03 -7.178392E+03
       415   6 -9.762419E+05 -2.629550E+03 -9.343808E+03 -1.041966E+04  7.213211E+03 -7.709821E+03
       415   7 -1.125658E+06 -3.666085E+04 -3.731751E+04 -9.995742E+03  1.505637E+03 -6.346659E+03
       415   8 -1.142828E+06 -4.094390E+04 -4.340338E+04 -6.037466E+03  4.221370E+03 -7.178649E+03
       415   9 -1.161066E+06 -4.816881E+04 -5.199056E+04 -1.135083E+04  6.937144E+03 -7.710077E+03
       415  10 -8.267973E+05  3.694530E+04  3.152889E+04 -1.084516E+04 -2.303051E-10 -8.767670E-11
       415  11 -8.085956E+05  4.135927E+04  3.351502E+04 -5.531006E+03 -5.026223E-11 -1.620916E-10
       415  12 -7.913865E+05  4.290723E+04  3.330045E+04 -9.488172E+03 -3.087136E-10  2.088093E-10
       415  13 -9.762379E+05  1.429873E+02 -2.893608E+03 -1.042040E+04  3.370227E-11 -2.733859E-10
       415  14 -9.757246E+05  2.086310E+02 -4.943319E+03 -5.784257E+03 -2.833192E-10  3.423549E-13
       415  15 -9.762420E+05 -2.629628E+03 -9.344017E+03 -1.041962E+04  1.517535E-10  1.471526E-10
       415  16 -1.125658E+06 -3.666089E+04 -3.731759E+04 -9.995735E+03 -3.256933E-10 -2.882689E-10
       415  17 -1.142828E+06 -4.094396E+04 -4.340351E+04 -6.037442E+03 -1.277059E-11 -9.378482E-11
       415  18 -1.161066E+06 -4.816888E+04 -5.199076E+04 -1.135078E+04  1.553355E-10  4.077842E-10
       415  19 -8.267973E+05  3.694535E+04  3.152899E+04 -1.084518E+04 -2.919789E+03  6.346206E+03
       415  20 -8.085955E+05  4.135933E+04  3.351517E+04 -5.531036E+03 -5.204484E+03  7.178134E+03
       415  21 -7.913864E+05  4.290731E+04  3.330067E+04 -9.488219E+03 -7.489360E+03  7.709564E+03
       415  22 -9.762379E+05  1.430319E+02 -2.893523E+03 -1.042041E+04 -2.212629E+03  6.346432E+03
       415  23 -9.757245E+05  2.086923E+02 -4.943181E+03 -5.784285E+03 -4.712862E+03  7.178392E+03
       415  24 -9.762419E+05 -2.629550E+03 -9.343808E+03 -1.041966E+04 -7.213211E+03  7.709821E+03
       415  25 -1.125658E+06 -3.666085E+04 -3.731751E+04 -9.995742E+03 -1.505637E+03  6.346659E+03
       415  26 -1.142828E+06 -4.094390E+04 -4.340338E+04 -6.037466E+03 -4.221370E+03  7.178649E+03
       415  27 -1.161066E+06 -4.816881E+04 -5.199056E+04 -1.135083E+04 -6.937144E+03  7.710077E+03
       416   1 -7.766755E+05  5.154589E+04  3.470188E+04 -1.541726E+04  1.102501E+04 -8.906595E+03
       416   2 -7.543617E+05  5.629597E+04  3.134834E+04 -1.246683E+03  1.702283E+04 -8.847859E+03
       416   3 -7.420754E+05  2.392374E+04  1.481416E+04  4.110181E+03  2.301758E+04 -2.847261E+03
       416   4 -9.784052E+05  1.904519E+03 -1.160211E+04 -1.032346E+04  8.926330E+03 -8.907463E+03
       416   5 -9.730280E+05  2.402180E+03 -1.922071E+04 -5.907421E+03  1.919536E+04 -8.847208E+03
       416   6 -9.784249E+05 -3.497214E+04 -4.299272E+04 -1.030527E+04  2.946100E+04 -2.844345E+03
       416   7 -1.180097E+06 -4.773959E+04 -5.790875E+04 -5.231330E+03  6.828325E+03 -8.908367E+03
       416   8 -1.191650E+06 -5.149489E+04 -6.979293E+04 -1.056651E+04  2.136713E+04 -8.846589E+03
       416   9 -1.214723E+06 -9.387135E+04 -1.008034E+05 -2.471523E+04  3.590197E+04 -2.841728E+03
       416  10 -7.766757E+05  5.154577E+04  3.470151E+04 -1.541718E+04  8.493243E-11  3.152246E-10
       416  11 -7.543620E+05  5.629581E+04  3.134765E+04 -1.246562E+03  8.239621E-11  2.623345E-10
       416  12 -7.420759E+05  2.392358E+04  1.481315E+04  4.110233E+03  2.232958E-11  3.641905E-10
       416  13 -9.784053E+05  1.904412E+03 -1.160241E+04 -1.032339E+04  7.347130E-10 -3.440866E-10
       416  14 -9.730285E+05  2.401997E+03 -1.922155E+04 -5.907284E+03 -2.709533E-10  3.882506E-10
       416  15 -9.784258E+05 -3.497238E+04 -4.299437E+04 -1.030521E+04  7.034019E-11 -9.778087E-11
       416  16 -1.180097E+06 -4.773969E+04 -5.790899E+04 -5.231281E+03 -9.117032E-11  5.157699E-10
       416  17 -1.191651E+06 -5.149510E+04 -6.979394E+04 -1.056636E+04  1.854987E-10  1.283645E-10
       416  18 -1.214724E+06 -9.387171E+04 -1.008059E+05 -2.471515E+04 -5.743753E-10  5.572554E-10
       416  19 -7.766755E+05  5.154589E+04  3.470188E+04 -1.541726E+04 -1.102501E+04  8.906595E+03
       416  20 -7.543617E+05  5.629597E+04  3.134834E+04 -1.246683E+03 -1.702283E+04  8.847859E+03
       416  21 -7.420754E+05  2.392374E+04  1.481416E+04  4.110181E+03 -2.301758E+04  2.847261E+03
       416  22 -9.784052E+05  1.904519E+03 -1.160211E+04 -1.032346E+04 -8.926330E+03  8.907463E+03
       416  23 -9.730280E+05  2.402180E+03 -1.922071E+04 -5.907421E+03 -1.919536E+04  8.847208E+03
       416  24 -9.784249E+05 -3.497214E+04 -4.299272E+04 -1.030527E+04 -2.946100E+04  2.844345E+03
       416  25 -1.180097E+06 -4.773959E+04 -5.790875E+04 -5.231330E+03 -6.828325E+03  8.908367E+03
       416  26 -1.191650E+06 -5.149489E+04 -6.979293E+04 -1.056651E+04 -2.136713E+04  8.846589E+03
       416  27 -1.214723E+06 -9.387135E+04 -1.008034E+05 -2.471523E+04 -3.590197E+04  2.841728E+03
       417   1  1.642137E+06  3.873003E+05  4.898515E+05  1.638210E+05  3.673954E+05  2.827849E+03
       417   2  1.606301E+06 -7.660605E+04  1.997530E+05  4.893134E+04  2.415941E+05  7.662173E+03
       417   3  1.706262E+06 -6.273941E+04  1.109184E+05 -8.254176E+04  1.157826E+05  6.883355E+03
       417   4  1.862462E+06  4.417313E+05  5.435869E+05 -1.751979E+04  3.731205E+05  2.723749E+03
       417   5  1.794443E+06 -3.043713E+04  2.431531E+05 -9.108018E+03  2.431918E+05  7.640199E+03
       417   6  1.862853E+06 -2.425551E+04  1.467865E+05 -1.728753E+04  1.132603E+05  6.894416E+03
       417   7  2.082901E+06  4.962822E+05  5.973365E+05 -1.989249E+05  3.788477E+05  2.616345E+03
       417   8  1.982625E+06  1.574196E+04  2.865527E+05 -6.716505E+04  2.447901E+05  7.617932E+03
       417   9  2.019477E+06  1.424264E+04  1.826552E+05  4.798326E+04  1.107374E+05  6.904946E+03
       417  10  1.641992E+06  3.872641E+05  4.895985E+05  1.638202E+05  4.824458E-10 -8.161511E-10
       417  11  1.606238E+06 -7.662173E+04  1.996435E+05  4.892985E+04  3.536672E-10 -1.652346E-10
       417  12  1.706247E+06 -6.274305E+04  1.108932E+05 -8.254240E+04 -1.871921E-09 -3.048512E-10
       417  13  1.862313E+06  4.416941E+05  5.433260E+05 -1.752061E+04  5.689180E-10  1.820019E-10
       417  14  1.794380E+06 -3.045301E+04  2.430422E+05 -9.109513E+03  3.846107E-10 -4.845754E-10
       417  15  1.862840E+06 -2.425899E+04  1.467623E+05 -1.728816E+04 -7.112069E-10 -3.164012E-10
       417  16  2.082748E+06  4.962438E+05  5.970676E+05 -1.989257E+05 -3.578882E-10 -6.589595E-12
       417  17  1.982561E+06  1.572587E+04  2.864404E+05 -6.716656E+04  1.256639E-09 -2.147547E-10
       417  18  2.019464E+06  1.423931E+04  1.826322E+05  4.798264E+04  2.448906E-09  1.053668E-09
       417  19  1.642137E+06  3.873003E+05  4.898515E+05  1.638210E+05 -3.673954E+05 -2.827849E+03
       417  20  1.606301E+06 -7.660605E+04  1.997530E+05  4.893134E+04 -2.415941E+05 -7.662173E+03
       417  21  1.706262E+06 -6.273941E+04  1.109184E+05 -8.254176E+04 -1.157826E+05 -6.883355E+03
       417  22  1.862462E+06  4.417313E+05  5.435869E+05 -1.751979E+04 -3.731205E+05 -2.723749E+03
       417  23  1.794443E+06 -3.043713E+04  2.431531E+05 -9.108018E+03 -2.431918E+05 -7.640199E+03
       417  24  1.862853E+06 -2.425551E+04  1.467865E+05 -1.728753E+04 -1.132603E+05 -6.894416E+03
       417  25  2.082901E+06  4.962822E+05  5.973365E+05 -1.989249E+05 -3.788477E+05 -2.616345E+03
       417  26  1.982625E+06  1.574196E+04  2.865527E+05 -6.716505E+04 -2.447901E+05 -7.617932E+03
       417  27  2.019477E+06  1.424264E+04  1.826552E+05  4.798326E+04 -1.107374E+05 -6.904946E+03
       418   1  1.708799E+06  1.921591E+03  8.907935E+04 -6.113803E+03  9.229675E+04  5.321431E+03
       418   2  1.733323E+06 -2.617798E+04  4.056550E+04 -6.377338E+03  6.087628E+04  4.096888E+03
       418   3  1.771082E+06 -1.772109E+04  2.161524E+04 -2.292157E+04  2.945520E+04  2.599620E+03
       418   4  1.835402E+06  3.300396E+04  1.181850E+05 -1.729042E+04  9.153223E+04  5.319433E+03
       418   5  1.828797E+06 -2.741152E+03  6.247394E+04 -9.144769E+03  5.990830E+04  4.096274E+03
       418   6  1.835457E+06 -1.898717E+03  3.646225E+04 -1.727912E+04  2.828532E+04  2.599562E+03
       418   7  1.962020E+06  6.408569E+04  1.472896E+05 -2.846932E+04  9.076755E+04  5.317463E+03
       418   8  1.924279E+06  2.069507E+04  8.438178E+04 -1.191263E+04  5.894018E+04  4.095668E+03
       418   9  1.899837E+06  1.392348E+04  5.130900E+04 -1.163608E+04  2.711531E+04  2.599483E+03
       418  10  1.708790E+06  1.919281E+03  8.906334E+04 -6.114199E+03 -3.174299E-10 -1.104380E-11
       418  11  1.733319E+06 -2.617899E+04  4.055853E+04 -6.377539E+03  4.266558E-10  3.607522E-10
       418  12  1.771081E+06 -1.772133E+04  2.161360E+04 -2.292164E+04 -2.404691E-10 -5.912706E-10
       418  13  1.835393E+06  3.300169E+04  1.181692E+05 -1.729081E+04  5.550737E-10  8.366429E-10
       418  14  1.828793E+06 -2.742130E+03  6.246718E+04 -9.144966E+03  7.199880E-10  2.662098E-10
       418  15  1.835457E+06 -1.898938E+03  3.646074E+04 -1.727918E+04 -9.034075E-10 -6.700686E-10
       418  16  1.962011E+06  6.408345E+04  1.472741E+05 -2.846971E+04 -2.818531E-10  7.192109E-10
       418  17  1.924275E+06  2.069413E+04  8.437524E+04 -1.191282E+04  5.170333E-10 -1.830986E-10
       418  18  1.899836E+06  1.392328E+04  5.130761E+04 -1.163614E+04 -1.502461E-10 -3.641459E-10
       418  19  1.708799E+06  1.921591E+03  8.907935E+04 -6.113803E+03 -9.229675E+04 -5.321431E+03
       418  20  1.733323E+06 -2.617798E+04  4.056550E+04 -6.377338E+03 -6.087628E+04 -4.096888E+03
       418  21  1.771082E+06 -1.772109E+04  2.161524E+04 -2.292157E+04 -2.945520E+04 -2.599620E+03
       418  22  1.835402E+06  3.300396E+04  1.181850E+05 -1.729042E+04 -9.153223E+04 -5.319433E+03
       418  23  1.828797E+06 -2.741152E+03  6.247394E+04 -9.144769E+03 -5.990830E+04 -4.096274E+03
       418  24  1.835457E+06 -1.898717E+03  3.646225E+04 -1.727912E+04 -2.828532E+04 -2.599562E+03
       418  25  1.962020E+06  6.408569E+04  1.472896E+05 -2.846932E+04 -9.076755E+04 -5.317463E+03
       418  26  1.924279E+06  2.069507E+04  8.438178E+04 -1.191263E+04 -5.894018E+04 -4.095668E+03
       418  27  1.899837E+06  1.392348E+04  5.130900E+04 -1.163608E+04 -2.711531E+04 -2.599483E+03
       419   1  1.798104E+06 -6.198004E+03  2.029278E+04 -1.706879E+04  2.366998E+04  1.678290E+03
       419   2  1.828137E+06 -1.272286E+03  1.496690E+04 -9.366155E+03  1.578547E+04  1.700278E+02
       419   3  1.859903E+06  6.444214E+03  1.546354E+04 -1.783202E+04  7.900768E+03 -1.352214E+03
       419   4  1.832891E+06  2.324229E+03  2.818777E+04 -1.725806E+04  2.258865E+04  1.678006E+03
       419   5  1.832029E+06 -3.166623E+02  1.586011E+04 -9.173534E+03  1.469355E+04  1.697550E+02
       419   6  1.832901E+06 -1.649479E+02  9.361908E+03 -1.725748E+04  6.798664E+03 -1.352482E+03
       419   7  1.867679E+06  1.084638E+04  3.608270E+04 -1.744735E+04  2.150725E+04  1.677723E+03
       419   8  1.835921E+06  6.389613E+02  1.675332E+04 -8.980911E+03  1.360164E+04  1.694814E+02
       419   9  1.805901E+06 -6.774158E+03  3.260232E+03 -1.668297E+04  5.696608E+03 -1.352752E+03
       419  10  1.798104E+06 -6.198157E+03  2.029172E+04 -1.706882E+04 -8.832114E-10 -6.937274E-10
       419  11  1.828137E+06 -1.272353E+03  1.496644E+04 -9.366157E+03 -1.783168E-09 -3.222374E-10
       419  12  1.859903E+06  6.444195E+03  1.546342E+04 -1.783201E+04 -2.092859E-11 -7.389754E-11
       419  13  1.832891E+06  2.324089E+03  2.818681E+04 -1.725809E+04 -7.448966E-10 -4.648903E-10
       419  14  1.832029E+06 -3.167201E+02  1.585971E+04 -9.173536E+03 -1.176009E-10 -1.929417E-11
       419  15  1.832901E+06 -1.649622E+02  9.361818E+03 -1.725748E+04 -1.298061E-09 -4.162707E-10
       419  16  1.867679E+06  1.084625E+04  3.608183E+04 -1.744737E+04 -2.604926E-10  2.328214E-11
       419  17  1.835921E+06  6.389118E+02  1.675298E+04 -8.980913E+03 -3.217256E-10 -3.360383E-11
       419  18  1.805901E+06 -6.774168E+03  3.260168E+03 -1.668297E+04 -9.912667E-11  3.143658E-10
       419  19  1.798104E+06 -6.198004E+03  2.029278E+04 -1.706879E+04 -2.366998E+04 -1.678290E+03
       419  20  1.828137E+06 -1.272286E+03  1.496690E+04 -9.366155E+03 -1.578547E+04 -1.700278E+02
       419  21  1.859903E+06  6.444214E+03  1.546354E+04 -1.783202E+04 -7.900768E+03  1.352214E+03
       419  22  1.832891E+06  2.324229E+03  2.818777E+04 -1.725806E+04 -2.258865E+04 -1.678006E+03
       419  23  1.832029E+06 -3.166623E+02  1.586011E+04 -9.173534E+03 -1.469355E+04 -1.697550E+02
       419  24  1.832901E+06 -1.649479E+02  9.361908E+03 -1.725748E+04 -6.798664E+03  1.352482E+03
       419  25  1.867679E+06  1.084638E+04  3.608270E+04 -1.744735E+04 -2.150725E+04 -1.677723E+03
       419  26  1.835921E+06  6.389613E+02  1.675332E+04 -8.980911E+03 -1.360164E+04 -1.694814E+02
       419  27  1.805901E+06 -6.774158E+03  3.260232E+03 -1.668297E+04 -5.696608E+03  1.352752E+03
       420   1  1.889175E+06  1.402470E+04  2.037476E+04 -1.740573E+04  6.396653E+03 -2.240602E+03
       420   2  1.920068E+06  2.145073E+04  2.475354E+04 -9.217745E+03  4.098200E+03 -3.768411E+03
       420   3  1.951332E+06  2.909227E+04  3.068307E+04 -1.729257E+04  1.799820E+03 -5.303528E+03
       420   4  1.832598E+06  1.200938E+02  7.310957E+03 -1.727871E+04  5.296752E+03 -2.240897E+03
       420   5  1.832413E+06 -6.375891E+01  4.652646E+03 -9.147220E+03  2.993173E+03 -3.768778E+03
       420   6  1.832598E+06 -3.127870E+01  3.548589E+03 -1.727868E+04  6.897805E+02 -5.303964E+03
       420   7  1.776024E+06 -1.378473E+04 -5.753057E+03 -1.715170E+04  4.196949E+03 -2.241192E+03
       420   8  1.744765E+06 -2.157879E+04 -1.544875E+04 -9.076706E+03  1.888301E+03 -3.769146E+03
       420   9  1.713878E+06 -2.915581E+04 -2.358681E+04 -1.726480E+04 -4.200489E+02 -5.304401E+03
       420  10  1.889175E+06  1.402468E+04  2.037468E+04 -1.740571E+04 -8.329665E-11 -3.600420E-10
       420  11  1.920068E+06  2.145072E+04  2.475348E+04 -9.217733E+03 -5.421598E-10 -1.950178E-11
       420  12  1.951332E+06  2.909224E+04  3.068301E+04 -1.729256E+04 -8.707155E-10 -2.894342E-10
       420  13  1.832598E+06  1.200809E+02  7.310895E+03 -1.727870E+04  5.797267E-14 -1.246347E-10
       420  14  1.832413E+06 -6.377657E+01  4.652602E+03 -9.147211E+03 -6.749043E-10 -3.616659E-10
       420  15  1.832598E+06 -3.130907E+01  3.548535E+03 -1.727868E+04  3.661685E-10  3.534634E-10
       420  16  1.776024E+06 -1.378474E+04 -5.753099E+03 -1.715169E+04  2.018864E-10  1.090334E-10
       420  17  1.744765E+06 -2.157880E+04 -1.544878E+04 -9.076700E+03 -1.926890E-10 -2.912247E-10
       420  18  1.713877E+06 -2.915584E+04 -2.358686E+04 -1.726480E+04  5.877449E-10  8.551831E-11
       420  19  1.889175E+06  1.402470E+04  2.037476E+04 -1.740573E+04 -6.396653E+03  2.240602E+03
       420  20  1.920068E+06  2.145073E+04  2.475354E+04 -9.217745E+03 -4.098200E+03  3.768411E+03
       420  21  1.951332E+06  2.909227E+04  3.068307E+04 -1.729257E+04 -1.799820E+03  5.303528E+03
       420  22  1.832598E+06  1.200938E+02  7.310957E+03 -1.727871E+04 -5.296752E+03  2.240897E+03
       420  23  1.832413E+06 -6.375891E+01  4.652646E+03 -9.147220E+03 -2.993173E+03  3.768778E+03
       420  24  1.832598E+06 -3.127870E+01  3.548589E+03 -1.727868E+04 -6.897805E+02  5.303964E+03
       420  25  1.776024E+06 -1.378473E+04 -5.753057E+03 -1.715170E+04 -4.196949E+03  2.241192E+03
       420  26  1.744765E+06 -2.157879E+04 -1.544875E+04 -9.076706E+03 -1.888301E+03  3.769146E+03
       420  27  1.713878E+06 -2.915581E+04 -2.358681E+04 -1.726480E+04  4.200489E+02  5.304401E+03
       421   1  1.981264E+06  3.648031E+04  3.760402E+04 -1.729352E+04  1.174824E+03 -6.201288E+03
       421   2  2.012758E+06  4.419836E+04  4.531007E+04 -8.944432E+03 -7.759386E+02 -7.755170E+03
       421   3  2.044585E+06  5.208101E+04  5.433230E+04 -1.716331E+04 -2.726353E+03 -9.321074E+03
       421   4  1.832588E+06 -2.807345E+01  3.421363E+03 -1.734653E+04  5.817406E+01 -6.201796E+03
       421   5  1.832419E+06 -6.248591E+01  3.957452E+03 -9.062418E+03 -1.900811E+03 -7.755826E+03
       421   6  1.832584E+06  6.925366E+01  5.815726E+03 -1.734657E+04 -3.859349E+03 -9.321876E+03
       421   7  1.683933E+06 -3.653799E+04 -3.076275E+04 -1.739953E+04 -1.058212E+03 -6.202303E+03
       421   8  1.652111E+06 -4.432559E+04 -3.739730E+04 -9.180372E+03 -3.025360E+03 -7.756482E+03
       421   9  1.620625E+06 -5.194562E+04 -4.270379E+04 -1.752978E+04 -4.991963E+03 -9.322678E+03
       421  10  1.981264E+06  3.648027E+04  3.760395E+04 -1.729352E+04 -1.280787E-09  5.495965E-11
       421  11  2.012758E+06  4.419830E+04  4.530996E+04 -8.944437E+03  3.022691E-10  1.083556E-09
       421  12  2.044585E+06  5.208091E+04  5.433213E+04 -1.716333E+04 -1.935391E-10 -1.331846E-10
       421  13  1.832588E+06 -2.811479E+01  3.421291E+03 -1.734653E+04  1.053552E-09  1.248648E-09
       421  14  1.832419E+06 -6.255152E+01  3.957332E+03 -9.062430E+03  9.339710E-10  1.585379E-09
       421  15  1.832584E+06  6.915628E+01  5.815535E+03 -1.734660E+04 -1.086850E-10  7.379121E-12
       421  16  1.683933E+06 -3.653804E+04 -3.076283E+04 -1.739953E+04  1.090508E-09  7.704813E-10
       421  17  1.652111E+06 -4.432566E+04 -3.739743E+04 -9.180391E+03 -1.065756E-10  7.451127E-11
       421  18  1.620625E+06 -5.194572E+04 -4.270400E+04 -1.752981E+04 -4.539582E-10 -4.703729E-10
       421  19  1.981264E+06  3.648031E+04  3.760402E+04 -1.729352E+04 -1.174824E+03  6.201288E+03
       421  20  2.012758E+06  4.419836E+04  4.531007E+04 -8.944432E+03  7.759386E+02  7.755170E+03
       421  21  2.044585E+06  5.208101E+04  5.433230E+04 -1.716331E+04  2.726353E+03  9.321074E+03
       421  22  1.832588E+06 -2.807345E+01  3.421363E+03 -1.734653E+04 -5.817406E+01  6.201796E+03
       421  23  1.832419E+06 -6.248591E+01  3.957452E+03 -9.062418E+03  1.900811E+03  7.755826E+03
       421  24  1.832584E+06  6.925366E+01  5.815726E+03 -1.734657E+04  3.859349E+03  9.321876E+03
       421  25  1.683933E+06 -3.653799E+04 -3.076275E+04 -1.739953E+04  1.058212E+03  6.202303E+03
       421  26  1.652111E+06 -4.432559E+04 -3.739730E+04 -9.180372E+03  3.025360E+03  7.756482E+03
       421  27  1.620625E+06 -5.194562E+04 -4.270379E+04 -1.752978E+04  4.991963E+03  9.322678E+03
       422   1  2.075511E+06  5.943323E+04  6.306717E+04 -1.692038E+04 -3.889975E+03 -1.024529E+04
       422   2  2.107461E+06  6.730792E+04  7.534537E+04 -8.628582E+03 -9.976468E+03 -1.184348E+04
       422   3  2.140805E+06  7.730406E+04  9.212229E+04 -1.742436E+04 -1.606255E+04 -1.343154E+04
       422   4  1.832816E+06 -1.483453E+02  7.327529E+03 -1.746163E+04 -5.043258E+03 -1.024622E+04
       422   5  1.832114E+06 -2.679804E+02  1.220892E+04 -8.918278E+03 -1.112006E+04 -1.184463E+04
       422   6  1.832803E+06  1.733072E+03  2.158400E+04 -1.746296E+04 -1.719615E+04 -1.343291E+04
       422   7  1.590175E+06 -5.973402E+04 -4.841599E+04 -1.800267E+04 -6.196095E+03 -1.024715E+04
       422   8  1.556836E+06 -6.784915E+04 -5.093251E+04 -9.207856E+03 -1.226316E+04 -1.184578E+04
       422   9  1.524889E+06 -7.384450E+04 -4.896051E+04 -1.750156E+04 -1.832918E+04 -1.343428E+04
       422  10  2.075511E+06  5.943311E+04  6.306694E+04 -1.692041E+04 -1.057979E-09  8.231809E-10
       422  11  2.107461E+06  6.730775E+04  7.534492E+04 -8.628677E+03 -1.751968E-09 -5.126484E-10
       422  12  2.140805E+06  7.730380E+04  9.212147E+04 -1.742453E+04  6.968660E-10  1.229665E-10
       422  13  1.832816E+06 -1.484650E+02  7.327284E+03 -1.746167E+04 -8.950705E-14  2.115321E-10
       422  14  1.832114E+06 -2.681642E+02  1.220843E+04 -8.918384E+03 -1.048995E-09  3.393929E-11
       422  15  1.832803E+06  1.732799E+03  2.158310E+04 -1.746314E+04 -6.224873E-10 -3.113747E-10
       422  16  1.590175E+06 -5.973414E+04 -4.841626E+04 -1.800272E+04  2.841912E-10 -8.094437E-10
       422  17  1.556836E+06 -6.784934E+04 -5.093305E+04 -9.207973E+03 -3.777674E-10  2.717842E-10
       422  18  1.524889E+06 -7.384478E+04 -4.896148E+04 -1.750175E+04 -2.908954E-10  3.017849E-10
       422  19  2.075511E+06  5.943323E+04  6.306717E+04 -1.692038E+04  3.889975E+03  1.024529E+04
       422  20  2.107461E+06  6.730792E+04  7.534537E+04 -8.628582E+03  9.976468E+03  1.184348E+04
       422  21  2.140805E+06  7.730406E+04  9.212229E+04 -1.742436E+04  1.606255E+04  1.343154E+04
       422  22  1.832816E+06 -1.483453E+02  7.327529E+03 -1.746163E+04  5.043258E+03  1.024622E+04
       422  23  1.832114E+06 -2.679804E+02  1.220892E+04 -8.918278E+03  1.112006E+04  1.184463E+04
       422  24  1.832803E+06  1.733072E+03  2.158400E+04 -1.746296E+04  1.719615E+04  1.343291E+04
       422  25  1.590175E+06 -5.973402E+04 -4.841599E+04 -1.800267E+04  6.196095E+03  1.024715E+04
       422  26  1.556836E+06 -6.784915E+04 -5.093251E+04 -9.207856E+03  1.226316E+04  1.184578E+04
       422  27  1.524889E+06 -7.384450E+04 -4.896051E+04 -1.750156E+04  1.832918E+04  1.343428E+04
       423   1  2.174610E+06  8.193338E+04  1.058899E+05 -1.309150E+04 -2.021202E+04 -1.446460E+04
       423   2  2.203514E+06  8.961814E+04  1.334787E+05 -1.055622E+04 -4.481676E+04 -1.605851E+04
       423   3  2.242728E+06  1.252942E+05  1.840716E+05 -2.583861E+04 -6.942362E+04 -1.705050E+04
       423   4  1.834768E+06 -1.491917E+03  2.789114E+04 -1.761596E+04 -2.155564E+04 -1.446619E+04
       423   5  1.829624E+06 -2.136861E+03  4.772632E+04 -8.721585E+03 -4.571315E+04 -1.606026E+04
       423   6  1.834719E+06  2.514182E+04  9.026573E+04 -1.764518E+04 -6.987143E+04 -1.705276E+04
       423   7  1.495032E+06 -8.492517E+04 -5.011520E+04 -2.213795E+04 -2.289853E+04 -1.446776E+04
       423   8  1.455863E+06 -9.390156E+04 -3.803522E+04 -6.888094E+03 -4.660900E+04 -1.606203E+04
       423   9  1.426864E+06 -7.502193E+04 -3.551063E+03 -9.457189E+03 -7.031895E+04 -1.705503E+04
       423  10  2.174609E+06  8.193305E+04  1.058887E+05 -1.309174E+04 -5.526665E-10 -3.932728E-10
       423  11  2.203512E+06  8.961733E+04  1.334744E+05 -1.055680E+04 -5.675002E-10 -1.210285E-09
       423  12  2.242723E+06  1.252926E+05  1.840620E+05 -2.583957E+04  6.518721E-10 -2.098833E-09
       423  13  1.834767E+06 -1.492266E+03  2.788988E+04 -1.761621E+04  1.706512E-11 -3.352913E-10
       423  14  1.829622E+06 -2.137697E+03  4.772192E+04 -8.722176E+03 -9.980456E-10 -5.099771E-10
       423  15  1.834714E+06  2.514020E+04  9.025603E+04 -1.764613E+04 -1.390683E-10 -1.372372E-09
       423  16  1.495031E+06 -8.492554E+04 -5.011657E+04 -2.213822E+04  3.487866E-10  5.121203E-11
       423  17  1.455861E+06 -9.390242E+04 -3.803977E+04 -6.888696E+03  1.424081E-09  2.750288E-09
       423  18  1.426858E+06 -7.502356E+04 -3.560881E+03 -9.458154E+03 -9.373040E-11 -3.905826E-10
       423  19  2.174610E+06  8.193338E+04  1.058899E+05 -1.309150E+04  2.021202E+04  1.446460E+04
       423  20  2.203514E+06  8.961814E+04  1.334787E+05 -1.055622E+04  4.481676E+04  1.605851E+04
       423  21  2.242728E+06  1.252942E+05  1.840716E+05 -2.583861E+04  6.942362E+04  1.705050E+04
       423  22  1.834768E+06 -1.491917E+03  2.789114E+04 -1.761596E+04  2.155564E+04  1.446619E+04
       423  23  1.829624E+06 -2.136861E+03  4.772632E+04 -8.721585E+03  4.571315E+04  1.606026E+04
       423  24  1.834719E+06  2.514182E+04  9.026573E+04 -1.764518E+04  6.987143E+04  1.705276E+04
       423  25  1.495032E+06 -8.492517E+04 -5.011520E+04 -2.213795E+04  2.289853E+04  1.446776E+04
       423  26  1.455863E+06 -9.390156E+04 -3.803522E+04 -6.888094E+03  4.660900E+04  1.606203E+04
       423  27  1.426864E+06 -7.502193E+04 -3.551063E+03 -9.457189E+03  7.031895E+04  1.705503E+04
       424   1  2.297111E+06  8.984942E+04  2.131016E+05  3.257669E+04 -8.204107E+04 -1.958191E+04
       424   2  2.280329E+06  9.369277E+04  2.955700E+05 -5.243642E+04 -1.905479E+05 -1.950957E+04
       424   3  2.369443E+06  4.643366E+05  5.402570E+05 -1.562370E+05 -2.990826E+05 -6.642057E+03
       424   4  1.855690E+06 -1.859122E+04  1.121036E+05 -1.768193E+04 -8.646316E+04 -1.958204E+04
       424   5  1.803358E+06 -2.331129E+04  1.856588E+05 -8.576860E+03 -1.856879E+05 -1.951686E+04
       424   6  1.855378E+06  3.372799E+05  4.150784E+05 -1.824542E+04 -2.849321E+05 -6.684936E+03
       424   7  1.414454E+06 -1.270360E+05  1.109421E+04 -6.790468E+04 -9.088213E+04 -1.958145E+04
       424   8  1.326601E+06 -1.403239E+05  7.573371E+04  3.524878E+04 -1.808315E+05 -1.952347E+04
       424   9  1.341594E+06  2.102756E+05  2.898917E+05  1.196320E+05 -2.707932E+05 -6.721583E+03
       424  10  2.297103E+06  8.984721E+04  2.130883E+05  3.257539E+04 -7.342365E-10 -3.379094E-09
       424  11  2.280290E+06  9.368266E+04  2.955013E+05 -5.243941E+04 -2.006114E-09 -5.074285E-09
       424  12  2.369348E+06  4.643126E+05  5.400894E+05 -1.562386E+05 -1.708822E-09 -1.265575E-09
       424  13  1.855681E+06 -1.859363E+04  1.120889E+05 -1.768329E+04 -1.945751E-09 -7.303898E-09
       424  14  1.803321E+06 -2.332092E+04  1.855935E+05 -8.579777E+03  4.184158E-10  3.026204E-09
       424  15  1.855291E+06  3.372582E+05  4.149262E+05 -1.824695E+04 -1.457859E-10 -8.868894E-11
       424  16  1.414445E+06 -1.270386E+05  1.107800E+04 -6.790611E+04 -3.062184E-11 -2.063391E-09
       424  17  1.326566E+06 -1.403331E+05  7.567168E+04  3.524594E+04  1.844215E-09  2.148456E-09
       424  18  1.341516E+06  2.102560E+05  2.897541E+05  1.196305E+05  1.120311E-09 -1.694690E-09
       424  19  2.297111E+06  8.984942E+04  2.131016E+05  3.257669E+04  8.204107E+04  1.958191E+04
       424  20  2.280329E+06  9.369277E+04  2.955700E+05 -5.243642E+04  1.905479E+05  1.950957E+04
       424  21  2.369443E+06  4.643366E+05  5.402570E+05 -1.562370E+05  2.990826E+05  6.642057E+03
       424  22  1.855690E+06 -1.859122E+04  1.121036E+05 -1.768193E+04  8.646316E+04  1.958204E+04
       424  23  1.803358E+06 -2.331129E+04  1.856588E+05 -8.576860E+03  1.856879E+05  1.951686E+04
       424  24  1.855378E+06  3.372799E+05  4.150784E+05 -1.824542E+04  2.849321E+05  6.684936E+03
       424  25  1.414454E+06 -1.270360E+05  1.109421E+04 -6.790468E+04  9.088213E+04  1.958145E+04
       424  26  1.326601E+06 -1.403239E+05  7.573371E+04  3.524878E+04  1.808315E+05  1.952347E+04
       424  27  1.341594E+06  2.102756E+05  2.898917E+05  1.196320E+05  2.707932E+05  6.721583E+03
       425   1  5.413868E+05  1.842920E+05  1.686928E+05  4.075310E+04  3.817521E+04 -1.269948E+04
       425   2  4.773311E+05  1.913715E+05  1.413588E+05  4.748156E+04  1.298451E+04 -4.274378E+04
       425   3  4.124029E+05  1.817561E+05  1.262849E+05  6.735918E+04 -1.224006E+04 -5.127210E+04
       425   4 -3.634746E+05 -3.898738E+04 -4.350369E+04  6.383377E+04 -3.030963E+04 -1.283245E+04
       425   5 -3.598731E+05 -8.499264E+03 -2.113249E+04  5.721811E+04 -1.933009E+04 -4.281590E+04
       425   6 -3.634338E+05 -9.985868E+02 -1.161957E+04  6.375240E+04 -8.387549E+03 -5.126901E+04
       425   7 -1.267571E+06 -2.623204E+05 -2.557382E+05  8.688024E+04 -9.869530E+04 -1.297061E+04
       425   8 -1.196402E+06 -2.084109E+05 -1.836528E+05  6.694088E+04 -5.160210E+04 -4.288909E+04
       425   9 -1.138683E+06 -1.837864E+05 -1.495465E+05  6.014991E+04 -4.539702E+03 -5.126596E+04
       425  10  5.413852E+05  1.842915E+05  1.686897E+05  4.075349E+04  3.528015E-09 -1.007812E-09
       425  11  4.773304E+05  1.913695E+05  1.413551E+05  4.748201E+04  2.281273E-09 -5.276364E-09
       425  12  4.124020E+05  1.817532E+05  1.262797E+05  6.735868E+04  1.936718E-09 -4.876040E-09
       425  13 -3.634756E+05 -3.898780E+04 -4.350573E+04  6.383346E+04  8.566506E-10  5.727148E-10
       425  14 -3.598740E+05 -8.501333E+03 -2.113663E+04  5.721744E+04 -1.200398E-09 -4.365900E-09
       425  15 -3.634346E+05 -1.001428E+03 -1.162464E+04  6.375206E+04 -1.018133E-10 -1.359079E-09
       425  16 -1.267581E+06 -2.623232E+05 -2.557569E+05  8.687921E+04 -4.268502E-09 -5.654495E-11
       425  17 -1.196405E+06 -2.084136E+05 -1.836613E+05  6.693910E+04 -3.670954E-09 -7.491150E-09
       425  18 -1.138684E+06 -1.837893E+05 -1.495515E+05  6.014972E+04 -3.483483E-09 -7.478599E-09
       425  19  5.413868E+05  1.842920E+05  1.686928E+05  4.075310E+04 -3.817521E+04  1.269948E+04
       425  20  4.773311E+05  1.913715E+05  1.413588E+05  4.748156E+04 -1.298451E+04  4.274378E+04
       425  21  4.124029E+05  1.817561E+05  1.262849E+05  6.735918E+04  1.224006E+04  5.127210E+04
       425  22 -3.634746E+05 -3.898738E+04 -4.350369E+04  6.383377E+04  3.030963E+04  1.283245E+04
       425  23 -3.598731E+05 -8.499264E+03 -2.113249E+04  5.721811E+04  1.933009E+04  4.281590E+04
       425  24 -3.634338E+05 -9.985868E+02 -1.161957E+04  6.375240E+04  8.387549E+03  5.126901E+04
       425  25 -1.267571E+06 -2.623204E+05 -2.557382E+05  8.688024E+04  9.869530E+04  1.297061E+04
       425  26 -1.196402E+06 -2.084109E+05 -1.836528E+05  6.694088E+04  5.160210E+04  4.288909E+04
       425  27 -1.138683E+06 -1.837864E+05 -1.495465E+05  6.014991E+04  4.539702E+03  5.126596E+04
       426   1  3.708401E+05  1.707932E+05  1.201998E+05  6.465521E+04 -8.277098E+03 -4.952616E+04
       426   2  3.064765E+05  1.565170E+05  1.099630E+05  5.782074E+04 -9.064522E+03 -4.774116E+04
       426   3  2.420373E+05  1.416655E+05  1.000882E+05  6.554095E+04 -9.858075E+03 -4.403949E+04
       426   4 -3.619724E+05 -1.573907E+03 -8.850539E+03  6.407572E+04 -6.878471E+03 -4.952807E+04
       426   5 -3.616388E+05 -7.672285E+01 -4.875793E+03  5.679556E+04 -4.446564E+03 -4.773447E+04
       426   6 -3.619433E+05  2.859150E+02 -2.775425E+03  6.407109E+04 -2.020811E+03 -4.402316E+04
       426   7 -1.094260E+06 -1.739704E+05 -1.379204E+05  6.349663E+04 -5.481442E+03 -4.952999E+04
       426   8 -1.029316E+06 -1.566944E+05 -1.197296E+05  5.577125E+04  1.665832E+02 -4.772780E+04
       426   9 -9.655649E+05 -1.411130E+05 -1.056508E+05  6.260246E+04  5.809075E+03 -4.400686E+04
       426  10  3.708394E+05  1.707905E+05  1.201950E+05  6.465488E+04 -3.969934E-09 -6.020171E-09
       426  11  3.064758E+05  1.565146E+05  1.099586E+05  5.782039E+04 -1.086880E-09  5.367519E-10
       426  12  2.420367E+05  1.416634E+05  1.000843E+05  6.554060E+04  1.777416E-09  3.497427E-09
       426  13 -3.619731E+05 -1.576553E+03 -8.855237E+03  6.407545E+04  9.564632E-10 -4.057471E-09
       426  14 -3.616395E+05 -7.917453E+01 -4.880111E+03  5.679539E+04 -1.261646E-09 -3.258308E-10
       426  15 -3.619438E+05  2.838331E+02 -2.779073E+03  6.407102E+04  7.785372E-10 -3.172313E-09
       426  16 -1.094260E+06 -1.739730E+05 -1.379251E+05  6.349641E+04  3.051667E-09 -1.170152E-09
       426  17 -1.029316E+06 -1.566968E+05 -1.197339E+05  5.577126E+04 -1.950883E-09  1.523817E-09
       426  18 -9.655655E+05 -1.411151E+05 -1.056545E+05  6.260267E+04 -3.929467E-09  9.882386E-10
       426  19  3.708401E+05  1.707932E+05  1.201998E+05  6.465521E+04  8.277098E+03  4.952616E+04
       426  20  3.064765E+05  1.565170E+05  1.099630E+05  5.782074E+04  9.064522E+03  4.774116E+04
       426  21  2.420373E+05  1.416655E+05  1.000882E+05  6.554095E+04  9.858075E+03  4.403949E+04
       426  22 -3.619724E+05 -1.573907E+03 -8.850539E+03  6.407572E+04  6.878471E+03  4.952807E+04
       426  23 -3.616388E+05 -7.672285E+01 -4.875793E+03  5.679556E+04  4.446564E+03  4.773447E+04
       426  24 -3.619433E+05  2.859150E+02 -2.775425E+03  6.407109E+04  2.020811E+03  4.402316E+04
       426  25 -1.094260E+06 -1.739704E+05 -1.379204E+05  6.349663E+04  5.481442E+03  4.952999E+04
       426  26 -1.029316E+06 -1.566944E+05 -1.197296E+05  5.577125E+04 -1.665832E+02  4.772780E+04
       426  27 -9.655649E+05 -1.411130E+05 -1.056508E+05  6.260246E+04 -5.809075E+03  4.400686E+04
       427   1  2.000298E+05  1.317064E+05  9.323340E+04  6.532859E+04 -9.222198E+03 -4.128769E+04
       427   2  1.355919E+05  1.166274E+05  8.306415E+04  5.785698E+04 -8.923774E+03 -3.666566E+04
       427   3  7.106635E+04  1.016188E+05  7.269902E+04  6.508350E+04 -8.627552E+03 -3.187112E+04
       427   4 -3.618236E+05  2.551190E+02 -2.109720E+03  6.410360E+04 -1.600183E+03 -4.127096E+04
       427   5 -3.617418E+05  2.915961E+02 -1.207853E+03  5.675408E+04 -1.012696E+03 -3.664677E+04
       427   6 -3.618022E+05  3.483674E+02 -7.030241E+02  6.410338E+04 -4.273805E+02 -3.184999E+04
       427   7 -9.233661E+05 -1.312129E+05 -9.746288E+04  6.287954E+04  6.015158E+03 -4.125424E+04
       427   8 -8.588319E+05 -1.160572E+05 -8.548762E+04  5.565192E+04  6.892250E+03 -3.662789E+04
       427   9 -7.944860E+05 -1.009319E+05 -7.411089E+04  6.312382E+04  7.767258E+03 -3.182888E+04
       427  10  2.000293E+05  1.317046E+05  9.323004E+04  6.532828E+04  5.363789E-08  5.653441E-09
       427  11  1.355914E+05  1.166259E+05  8.306148E+04  5.785672E+04  1.593706E-09  6.384126E-09
       427  12  7.106599E+04  1.016177E+05  7.269698E+04  6.508328E+04 -5.026172E-08  3.161226E-10
       427  13 -3.618241E+05  2.532896E+02 -2.112925E+03  6.410355E+04  1.377557E-09 -2.778893E-09
       427  14 -3.617422E+05  2.901540E+02 -1.210378E+03  5.675405E+04 -1.616672E-09  6.633010E-09
       427  15 -3.618024E+05  3.472782E+02 -7.049304E+02  6.410336E+04  5.435654E-11  6.951357E-09
       427  16 -9.233666E+05 -1.312147E+05 -9.746615E+04  6.287974E+04 -5.424140E-08  3.944216E-09
       427  17 -8.588323E+05 -1.160587E+05 -8.549023E+04  5.565212E+04 -4.355088E-09  6.377333E-09
       427  18 -7.944864E+05 -1.009330E+05 -7.411291E+04  6.312402E+04  4.740537E-08  1.698826E-09
       427  19  2.000298E+05  1.317064E+05  9.323340E+04  6.532859E+04  9.222198E+03  4.128769E+04
       427  20  1.355919E+05  1.166274E+05  8.306415E+04  5.785698E+04  8.923774E+03  3.666566E+04
       427  21  7.106635E+04  1.016188E+05  7.269902E+04  6.508350E+04  8.627552E+03  3.187112E+04
       427  22 -3.618236E+05  2.551190E+02 -2.109720E+03  6.410360E+04  1.600183E+03  4.127096E+04
       427  23 -3.617418E+05  2.915961E+02 -1.207853E+03  5.675408E+04  1.012696E+03  3.664677E+04
       427  24 -3.618022E+05  3.483674E+02 -7.030241E+02  6.410338E+04  4.273805E+02  3.184999E+04
       427  25 -9.233661E+05 -1.312129E+05 -9.746288E+04  6.287954E+04 -6.015158E+03  4.125424E+04
       427  26 -8.588319E+05 -1.160572E+05 -8.548762E+04  5.565192E+04 -6.892250E+03  3.662789E+04
       427  27 -7.944860E+05 -1.009319E+05 -7.411089E+04  6.312382E+04 -7.767258E+03  3.182888E+04
       428   1  2.899272E+04  9.172254E+04  6.544680E+04  6.499358E+04 -8.505355E+03 -2.902681E+04
       428   2 -3.551236E+04  7.662126E+04  5.484693E+04  5.748811E+04 -8.376193E+03 -2.414783E+04
       428   3 -1.001005E+05  6.160720E+04  4.415887E+04  6.470701E+04 -8.248248E+03 -1.925277E+04
       428   4 -3.617845E+05  3.521613E+02 -5.442332E+02  6.410919E+04 -3.221202E+02 -2.900501E+04
       428   5 -3.617310E+05  3.233657E+02 -3.411374E+02  5.674677E+04 -1.664955E+02 -2.412501E+04
       428   6 -3.617705E+05  3.770644E+02 -2.451134E+02  6.410915E+04 -1.207558E+01 -1.922891E+04
       428   7 -7.524111E+05 -9.102623E+04 -6.653989E+04  6.322527E+04  7.856131E+03 -2.898323E+04
       428   8 -6.878447E+05 -7.598011E+04 -5.553237E+04  5.600575E+04  8.039027E+03 -2.410220E+04
       428   9 -6.233729E+05 -6.085666E+04 -4.465106E+04  6.351150E+04  8.220737E+03 -1.920506E+04
       428  10  2.899241E+04  9.172161E+04  6.544508E+04  6.499338E+04 -3.112726E-10  1.972688E-10
       428  11 -3.551259E+04  7.662062E+04  5.484570E+04  5.748795E+04 -8.343665E-10  8.730518E-09
       428  12 -1.001007E+05  6.160678E+04  4.415804E+04  6.470688E+04 -2.518274E-09  4.815384E-09
       428  13 -3.617847E+05  3.512581E+02 -5.458141E+02  6.410919E+04  1.487154E-09  1.719736E-09
       428  14 -3.617312E+05  3.227408E+02 -3.422310E+02  5.674677E+04 -2.061351E-09  6.087750E-09
       428  15 -3.617706E+05  3.766675E+02 -2.458082E+02  6.410915E+04  9.042921E-10 -3.571907E-11
       428  16 -7.524114E+05 -9.102714E+04 -6.654159E+04  6.322546E+04 -7.425904E-10  6.447966E-10
       428  17 -6.878450E+05 -7.598075E+04 -5.553358E+04  5.600591E+04 -2.209052E-09 -6.253537E-10
       428  18 -6.233730E+05 -6.085707E+04 -4.465188E+04  6.351163E+04 -1.455011E-10 -3.947947E-10
       428  19  2.899272E+04  9.172254E+04  6.544680E+04  6.499358E+04  8.505355E+03  2.902681E+04
       428  20 -3.551236E+04  7.662126E+04  5.484693E+04  5.748811E+04  8.376193E+03  2.414783E+04
       428  21 -1.001005E+05  6.160720E+04  4.415887E+04  6.470701E+04  8.248248E+03  1.925277E+04
       428  22 -3.617845E+05  3.521613E+02 -5.442332E+02  6.410919E+04  3.221202E+02  2.900501E+04
       428  23 -3.617310E+05  3.233657E+02 -3.411374E+02  5.674677E+04  1.664955E+02  2.412501E+04
       428  24 -3.617705E+05  3.770644E+02 -2.451134E+02  6.410915E+04  1.207558E+01  1.922891E+04
       428  25 -7.524111E+05 -9.102623E+04 -6.653989E+04  6.322527E+04 -7.856131E+03  2.898323E+04
       428  26 -6.878447E+05 -7.598011E+04 -5.553237E+04  5.600575E+04 -8.039027E+03  2.410220E+04
       428  27 -6.233729E+05 -6.085666E+04 -4.465106E+04  6.351150E+04 -8.220737E+03  1.920506E+04
       429   1 -1.422143E+05  5.170582E+04  3.676734E+04  6.461361E+04 -8.213900E+03 -1.639818E+04
       429   2 -2.067475E+05  3.659458E+04  2.595941E+04  5.708838E+04 -8.096750E+03 -1.149679E+04
       429   3 -2.713783E+05  2.156654E+04  1.506572E+04  6.430043E+04 -7.980147E+03 -6.600620E+03
       429   4 -3.617679E+05  3.819204E+02 -2.285330E+02  6.411197E+04  2.267389E+01 -1.637390E+04
       429   5 -3.617150E+05  3.486758E+02 -2.474768E+02  5.674321E+04  1.306891E+02 -1.147209E+04
       429   6 -3.617613E+05  4.006095E+02 -3.457278E+02  6.411193E+04  2.381699E+02 -6.575485E+03
       429   7 -5.812739E+05 -5.094448E+04 -3.722568E+04  6.361047E+04  8.256430E+03 -1.634963E+04
       429   8 -5.166587E+05 -3.589846E+04 -2.645488E+04  5.639810E+04  8.356140E+03 -1.144739E+04
       429   9 -4.521361E+05 -2.076572E+04 -1.575719E+04  6.392345E+04  8.455328E+03 -6.550353E+03
       429  10 -1.422145E+05  5.170551E+04  3.676671E+04  6.461350E+04  1.132447E-08 -8.038323E-11
       429  11 -2.067476E+05  3.659442E+04  2.595904E+04  5.708831E+04  2.762766E-09 -2.105979E-09
       429  12 -2.713784E+05  2.156647E+04  1.506552E+04  6.430039E+04 -6.813805E-09 -2.403354E-09
       429  13 -3.617680E+05  3.816326E+02 -2.290367E+02  6.411197E+04  1.539646E-09  8.455199E-09
       429  14 -3.617151E+05  3.485345E+02 -2.477241E+02  5.674321E+04 -1.440133E-09  1.389479E-09
       429  15 -3.617613E+05  4.005631E+02 -3.458091E+02  6.411193E+04  4.540123E-10 -4.387033E-09
       429  16 -5.812740E+05 -5.094478E+04 -3.722631E+04  6.361058E+04 -1.210015E-08  3.066099E-09
       429  17 -5.166588E+05 -3.589862E+04 -2.645526E+04  5.639818E+04 -5.623006E-09 -2.920389E-09
       429  18 -4.521362E+05 -2.076578E+04 -1.575741E+04  6.392349E+04  4.111950E-09 -3.418742E-09
       429  19 -1.422143E+05  5.170582E+04  3.676734E+04  6.461361E+04  8.213900E+03  1.639818E+04
       429  20 -2.067475E+05  3.659458E+04  2.595941E+04  5.708838E+04  8.096750E+03  1.149679E+04
       429  21 -2.713783E+05  2.156654E+04  1.506572E+04  6.430043E+04  7.980147E+03  6.600620E+03
       429  22 -3.617679E+05  3.819204E+02 -2.285330E+02  6.411197E+04 -2.267389E+01  1.637390E+04
       429  23 -3.617150E+05  3.486758E+02 -2.474768E+02  5.674321E+04 -1.306891E+02  1.147209E+04
       429  24 -3.617613E+05  4.006095E+02 -3.457278E+02  6.411193E+04 -2.381699E+02  6.575485E+03
       429  25 -5.812739E+05 -5.094448E+04 -3.722568E+04  6.361047E+04 -8.256430E+03  1.634963E+04
       429  26 -5.166587E+05 -3.589846E+04 -2.645488E+04  5.639810E+04 -8.356140E+03  1.144739E+04
       429  27 -4.521361E+05 -2.076572E+04 -1.575719E+04  6.392345E+04 -8.455328E+03  6.550353E+03
       430   1 -3.135157E+05  1.165889E+04  7.563204E+03  6.419074E+04 -7.927881E+03 -3.747594E+03
       430   2 -3.780231E+05 -3.468625E+03 -3.558717E+03  5.665853E+04 -7.449564E+03  1.112457E+03
       430   3 -4.426921E+05 -1.856966E+04 -1.501682E+04  6.386081E+04 -6.971000E+03  5.890673E+03
       430   4 -3.617697E+05  4.050523E+02 -4.328085E+02  6.411122E+04  2.998014E+02 -3.722309E+03
       430   5 -3.616991E+05  3.662433E+02 -7.177324E+02  5.674404E+04  6.403062E+02  1.137269E+03
       430   6 -3.617704E+05  3.780016E+02 -1.243214E+03  6.411131E+04  9.811053E+02  5.915019E+03
       430   7 -4.100211E+05 -1.084886E+04 -8.428636E+03  6.403171E+04  8.526866E+03 -3.697026E+03
       430   8 -3.453747E+05  4.201132E+03  2.123489E+03  5.682956E+04  8.730382E+03  1.162083E+03
       430   9 -2.808422E+05  1.932535E+04  1.253041E+04  6.436184E+04  8.934215E+03  5.939369E+03
       430  10 -3.135158E+05  1.165885E+04  7.563059E+03  6.419071E+04 -7.168060E-10  4.045436E-09
       430  11 -3.780231E+05 -3.468641E+03 -3.558823E+03  5.665854E+04 -2.852280E-09  2.440471E-10
       430  12 -4.426921E+05 -1.856971E+04 -1.501697E+04  6.386085E+04 -5.462797E-09  3.035751E-09
       430  13 -3.617697E+05  4.050374E+02 -4.328347E+02  6.411122E+04  1.323519E-09  2.488574E-10
       430  14 -3.616991E+05  3.662418E+02 -7.177356E+02  5.674404E+04 -2.002587E-09  1.482241E-09
       430  15 -3.617705E+05  3.779638E+02 -1.243281E+03  6.411131E+04  4.521144E-10  3.221499E-09
       430  16 -4.100212E+05 -1.084890E+04 -8.428798E+03  6.403174E+04 -4.856249E-10  3.246152E-09
       430  17 -3.453748E+05  4.201110E+03  2.123343E+03  5.682955E+04 -1.267022E-11 -8.386300E-09
       430  18 -2.808423E+05  1.932529E+04  1.253020E+04  6.436180E+04  2.681091E-09 -3.026362E-09
       430  19 -3.135157E+05  1.165889E+04  7.563204E+03  6.419074E+04  7.927881E+03  3.747594E+03
       430  20 -3.780231E+05 -3.468625E+03 -3.558717E+03  5.665853E+04  7.449564E+03 -1.112457E+03
       430  21 -4.426921E+05 -1.856966E+04 -1.501682E+04  6.386081E+04  6.971000E+03 -5.890673E+03
       430  22 -3.617697E+05  4.050523E+02 -4.328085E+02  6.411122E+04 -2.998014E+02  3.722309E+03
       430  23 -3.616991E+05  3.662433E+02 -7.177324E+02  5.674404E+04 -6.403062E+02 -1.137269E+03
       430  24 -3.617704E+05  3.780016E+02 -1.243214E+03  6.411131E+04 -9.811053E+02 -5.915019E+03
       430  25 -4.100211E+05 -1.084886E+04 -8.428636E+03  6.403171E+04 -8.526866E+03  3.697026E+03
       430  26 -3.453747E+05  4.201132E+03  2.123489E+03  5.682956E+04 -8.730382E+03 -1.162083E+03
       430  27 -2.808422E+05  1.932535E+04  1.253041E+04  6.436184E+04 -8.934215E+03 -5.939369E+03
       431   1 -4.849224E+05 -2.847884E+04 -2.287934E+04  6.363877E+04 -6.832572E+03  8.701060E+03
       431   2 -5.491397E+05 -4.386993E+04 -3.548118E+04  5.645586E+04 -3.870767E+03  1.304755E+04
       431   3 -6.140661E+05 -6.015704E+04 -5.026530E+04  6.394576E+04 -9.060859E+02  1.647221E+04
       431   4 -3.618395E+05  4.013297E+02 -1.632819E+03  6.409704E+04  1.223711E+03  8.725551E+03
       431   5 -3.616212E+05  1.783155E+02 -2.860213E+03  5.676238E+04  2.637932E+03  1.306685E+04
       431   6 -3.618479E+05 -6.717643E+02 -5.194556E+03  6.410027E+04  4.055349E+03  1.648646E+04
       431   7 -2.387416E+05  2.928072E+04  1.961342E+04  6.455539E+04  9.281542E+03  8.750051E+03
       431   8 -1.740681E+05  4.422468E+04  2.975968E+04  5.706897E+04  9.148539E+03  1.308615E+04
       431   9 -1.095676E+05  5.881000E+04  3.987386E+04  6.425480E+04  9.018743E+03  1.650071E+04
       431  10 -4.849225E+05 -2.847893E+04 -2.287957E+04  6.363882E+04 -4.345057E-09  7.752444E-09
       431  11 -5.491397E+05 -4.387012E+04 -3.548153E+04  5.645590E+04  4.564874E-10  8.627109E-10
       431  12 -6.140662E+05 -6.015733E+04 -5.026581E+04  6.394577E+04  5.132896E-09  4.426004E-09
       431  13 -3.618395E+05  4.012476E+02 -1.632965E+03  6.409703E+04  1.561845E-09  5.604130E-09
       431  14 -3.616212E+05  1.781303E+02 -2.860547E+03  5.676236E+04 -1.448988E-09  4.339566E-09
       431  15 -3.618480E+05 -6.720605E+02 -5.195098E+03  6.410022E+04  9.051890E-10 -1.083346E-09
       431  16 -2.387417E+05  2.928061E+04  1.961312E+04  6.455533E+04  3.647251E-09  1.849954E-09
       431  17 -1.740682E+05  4.422447E+04  2.975920E+04  5.706888E+04 -3.751865E-09  1.671504E-09
       431  18 -1.095678E+05  5.880968E+04  3.987319E+04  6.425468E+04 -8.145469E-09 -4.810735E-09
       431  19 -4.849224E+05 -2.847884E+04 -2.287934E+04  6.363877E+04  6.832572E+03 -8.701060E+03
       431  20 -5.491397E+05 -4.386993E+04 -3.548118E+04  5.645586E+04  3.870767E+03 -1.304755E+04
       431  21 -6.140661E+05 -6.015704E+04 -5.026530E+04  6.394576E+04  9.060859E+02 -1.647221E+04
       431  22 -3.618395E+05  4.013297E+02 -1.632819E+03  6.409704E+04 -1.223711E+03 -8.725551E+03
       431  23 -3.616212E+05  1.783155E+02 -2.860213E+03  5.676238E+04 -2.637932E+03 -1.306685E+04
       431  24 -3.618479E+05 -6.717643E+02 -5.194556E+03  6.410027E+04 -4.055349E+03 -1.648646E+04
       431  25 -2.387416E+05  2.928072E+04  1.961342E+04  6.455539E+04 -9.281542E+03 -8.750051E+03
       431  26 -1.740681E+05  4.422468E+04  2.975968E+04  5.706897E+04 -9.148539E+03 -1.308615E+04
       431  27 -1.095676E+05  5.881000E+04  3.987386E+04  6.425480E+04 -9.018743E+03 -1.650071E+04
       432   1 -6.575185E+05 -6.997680E+04 -6.000865E+04  6.193929E+04 -1.204607E+03  1.879492E+04
       432   2 -7.185099E+05 -9.047207E+04 -8.303314E+04  6.268441E+04  2.258721E+04  1.734324E+04
       432   3 -7.868095E+05 -1.274687E+05 -1.256981E+05  7.744141E+04  4.640442E+04  5.533510E+03
       432   4 -3.627059E+05 -3.299448E+02 -6.820014E+03  6.394455E+04  4.936158E+03  1.881233E+04
       432   5 -3.605718E+05 -4.754964E+03 -1.239888E+04  5.697057E+04  1.134525E+04  1.730971E+04
       432   6 -3.627249E+05 -2.265601E+04 -2.553518E+04  6.400888E+04  1.778231E+04  5.451173E+03
       432   7 -6.780841E+04  6.931208E+04  4.636537E+04  6.595072E+04  1.107976E+04  1.882977E+04
       432   8 -2.510508E+03  8.095457E+04  5.822959E+04  5.125326E+04  9.692701E+01  1.727639E+04
       432   9  6.152747E+04  8.214500E+04  7.461846E+04  5.056699E+04 -1.085927E+04  5.370105E+03
       432  10 -6.575186E+05 -6.997718E+04 -6.000931E+04  6.193931E+04 -3.682778E-09  2.895238E-09
       432  11 -7.185105E+05 -9.047253E+04 -8.303466E+04  6.268410E+04 -1.287613E-09 -1.357698E-09
       432  12 -7.868119E+05 -1.274694E+05 -1.257022E+05  7.744121E+04 -3.171749E-10 -6.640720E-10
       432  13 -3.627060E+05 -3.303313E+02 -6.820725E+03  6.394447E+04  1.822724E-09  6.478577E-09
       432  14 -3.605720E+05 -4.755320E+03 -1.239969E+04  5.697041E+04 -1.499948E-09 -5.935538E-09
       432  15 -3.627253E+05 -2.265613E+04 -2.553583E+04  6.400880E+04  2.859783E-10  3.996389E-09
       432  16 -6.780863E+04  6.931167E+04  4.636447E+04  6.595055E+04  2.851509E-09  1.277045E-09
       432  17 -2.510589E+03  8.095425E+04  5.822903E+04  5.125326E+04 -1.258030E-09  2.281789E-09
       432  18  6.152733E+04  8.214494E+04  7.461818E+04  5.056703E+04 -1.980650E-09 -8.996390E-11
       432  19 -6.575185E+05 -6.997680E+04 -6.000865E+04  6.193929E+04  1.204607E+03 -1.879492E+04
       432  20 -7.185099E+05 -9.047207E+04 -8.303314E+04  6.268441E+04 -2.258721E+04 -1.734324E+04
       432  21 -7.868095E+05 -1.274687E+05 -1.256981E+05  7.744141E+04 -4.640442E+04 -5.533510E+03
       432  22 -3.627059E+05 -3.299448E+02 -6.820014E+03  6.394455E+04 -4.936158E+03 -1.881233E+04
       432  23 -3.605718E+05 -4.754964E+03 -1.239888E+04  5.697057E+04 -1.134525E+04 -1.730971E+04
       432  24 -3.627249E+05 -2.265601E+04 -2.553518E+04  6.400888E+04 -1.778231E+04 -5.451173E+03
       432  25 -6.780841E+04  6.931208E+04  4.636537E+04  6.595072E+04 -1.107976E+04 -1.882977E+04
       432  26 -2.510508E+03  8.095457E+04  5.822959E+04  5.125326E+04 -9.692701E+01 -1.727639E+04
       432  27  6.152747E+04  8.214500E+04  7.461846E+04  5.056699E+04  1.085927E+04 -5.370105E+03
       433   1 -1.229582E+05  5.725897E+04  4.185377E+04 -3.812658E+03 -3.635078E+04 -5.684886E+03
       433   2 -1.508945E+05  1.090279E+05  6.663980E+04  2.979674E+03 -2.764221E+04 -1.733447E+04
       433   3 -1.953064E+05  9.953876E+04  7.045899E+04  2.830919E+04 -1.896700E+04 -1.732253E+04
       433   4 -5.863687E+05 -5.795426E+04 -7.139339E+04  1.900411E+04 -4.892672E+04 -5.721678E+03
       433   5 -5.773827E+05  4.035126E+03 -3.192691E+04  9.646279E+03 -3.183384E+04 -1.734806E+04
       433   6 -5.863429E+05  3.286179E+03 -1.926449E+04  1.882697E+04 -1.477355E+04 -1.730981E+04
       433   7 -1.049582E+06 -1.731813E+05 -1.846553E+05  4.180366E+04 -6.149328E+04 -5.759410E+03
       433   8 -1.003702E+06 -1.009703E+05 -1.305057E+05  1.630814E+04 -3.602261E+04 -1.736175E+04
       433   9 -9.772375E+05 -9.297675E+04 -1.089980E+05  9.350656E+03 -1.058271E+04 -1.729720E+04
       433  10 -1.229596E+05  5.725858E+04  4.185122E+04 -3.812824E+03 -7.613345E-09  1.448905E-09
       433  11 -1.508954E+05  1.090274E+05  6.663780E+04  2.979288E+03 -8.616218E-11  1.191633E-08
       433  12 -1.953069E+05  9.953834E+04  7.045775E+04  2.830892E+04  5.080118E-09  5.095633E-09
       433  13 -5.863712E+05 -5.795494E+04 -7.139796E+04  1.900388E+04  6.903643E-10 -3.874419E-09
       433  14 -5.773838E+05  4.034530E+03 -3.192938E+04  9.645834E+03 -4.159389E-10 -6.751870E-09
       433  15 -5.863433E+05  3.285798E+03 -1.926547E+04  1.882676E+04 -2.180371E-10  2.559682E-09
       433  16 -1.049586E+06 -1.731823E+05 -1.846625E+05  4.180338E+04  6.261957E-09  1.446924E-09
       433  17 -1.003704E+06 -1.009709E+05 -1.305087E+05  1.630764E+04 -9.282036E-11  8.552239E-09
       433  18 -9.772377E+05 -9.297710E+04 -1.089987E+05  9.350508E+03 -5.573078E-09 -1.761614E-09
       433  19 -1.229582E+05  5.725897E+04  4.185377E+04 -3.812658E+03  3.635078E+04  5.684886E+03
       433  20 -1.508945E+05  1.090279E+05  6.663980E+04  2.979674E+03  2.764221E+04  1.733447E+04
       433  21 -1.953064E+05  9.953876E+04  7.045899E+04  2.830919E+04  1.896700E+04  1.732253E+04
       433  22 -5.863687E+05 -5.795426E+04 -7.139339E+04  1.900411E+04  4.892672E+04  5.721678E+03
       433  23 -5.773827E+05  4.035126E+03 -3.192691E+04  9.646279E+03  3.183384E+04  1.734806E+04
       433  24 -5.863429E+05  3.286179E+03 -1.926449E+04  1.882697E+04  1.477355E+04  1.730981E+04
       433  25 -1.049582E+06 -1.731813E+05 -1.846553E+05  4.180366E+04  6.149328E+04  5.759410E+03
       433  26 -1.003702E+06 -1.009703E+05 -1.305057E+05  1.630814E+04  3.602261E+04  1.736175E+04
       433  27 -9.772375E+05 -9.297675E+04 -1.089980E+05  9.350656E+03  1.058271E+04  1.729720E+04
       434   1 -2.265778E+05  8.344240E+04  6.660472E+04  1.840804E+04 -1.254548E+04 -1.489609E+04
       434   2 -2.622002E+05  7.907073E+04  6.531135E+04  9.895603E+03 -8.817864E+03 -1.375274E+04
       434   3 -2.995612E+05  7.009258E+04  6.041736E+04  2.048737E+04 -5.093258E+03 -1.202458E+04
       434   4 -5.827553E+05 -4.239713E+03 -1.551390E+04  1.901383E+04 -1.193705E+04 -1.489474E+04
       434   5 -5.818439E+05  4.096166E+02 -8.203792E+03  9.453711E+03 -7.790666E+03 -1.374977E+04
       434   6 -5.827467E+05  3.781476E+02 -4.786967E+03  1.899848E+04 -3.647076E+03 -1.201987E+04
       434   7 -9.388153E+05 -9.193071E+04 -9.764095E+04  1.961917E+04 -1.132897E+04 -1.489338E+04
       434   8 -9.013929E+05 -7.825864E+04 -8.172569E+04  9.011969E+03 -6.763992E+03 -1.374680E+04
       434   9 -8.658579E+05 -6.934189E+04 -6.999660E+04  1.751022E+04 -2.201550E+03 -1.201516E+04
       434  10 -2.265781E+05  8.344212E+04  6.660401E+04  1.840789E+04 -3.373379E-09 -3.931026E-09
       434  11 -2.622004E+05  7.907051E+04  6.531085E+04  9.895505E+03 -3.378492E-10  3.000541E-09
       434  12 -2.995612E+05  7.009242E+04  6.041704E+04  2.048732E+04  4.525546E-09  9.018153E-09
       434  13 -5.827555E+05 -4.239990E+03 -1.551459E+04  1.901369E+04 -2.689003E-10  6.844166E-09
       434  14 -5.818440E+05  4.093974E+02 -8.204261E+03  9.453624E+03 -1.836019E-10 -2.062185E-08
       434  15 -5.827467E+05  3.779889E+02 -4.787264E+03  1.899845E+04 -3.478709E-10  7.750999E-09
       434  16 -9.388155E+05 -9.193098E+04 -9.764161E+04  1.961903E+04  2.611464E-09 -1.052976E-08
       434  17 -9.013930E+05 -7.825886E+04 -8.172613E+04  9.011894E+03  4.123442E-10 -2.815380E-09
       434  18 -8.658579E+05 -6.934205E+04 -6.999688E+04  1.751020E+04 -5.818913E-09 -1.128262E-09
       434  19 -2.265778E+05  8.344240E+04  6.660472E+04  1.840804E+04  1.254548E+04  1.489609E+04
       434  20 -2.622002E+05  7.907073E+04  6.531135E+04  9.895603E+03  8.817864E+03  1.375274E+04
       434  21 -2.995612E+05  7.009258E+04  6.041736E+04  2.048737E+04  5.093258E+03  1.202458E+04
       434  22 -5.827553E+05 -4.239713E+03 -1.551390E+04  1.901383E+04  1.193705E+04  1.489474E+04
       434  23 -5.818439E+05  4.096166E+02 -8.203792E+03  9.453711E+03  7.790666E+03  1.374977E+04
       434  24 -5.827467E+05  3.781476E+02 -4.786967E+03  1.899848E+04  3.647076E+03  1.201987E+04
       434  25 -9.388153E+05 -9.193071E+04 -9.764095E+04  1.961917E+04  1.132897E+04  1.489338E+04
       434  26 -9.013929E+05 -7.825864E+04 -8.172569E+04  9.011969E+03  6.763992E+03  1.374680E+04
       434  27 -8.658579E+05 -6.934189E+04 -6.999660E+04  1.751022E+04  2.201550E+03  1.201516E+04
       435   1 -3.343912E+05  6.084132E+04  5.322827E+04  1.968966E+04 -4.176516E+03 -1.089972E+04
       435   2 -3.710646E+05  5.208014E+04  4.645515E+04  9.996882E+03 -3.161422E+03 -9.112525E+03
       435   3 -4.080766E+05  4.309589E+04  3.893117E+04  1.961761E+04 -2.147098E+03 -7.291720E+03
       435   4 -5.824155E+05 -1.780370E+02 -3.707263E+03  1.905017E+04 -2.904224E+03 -1.089547E+04
       435   5 -5.822413E+05  1.087359E+02 -2.101201E+03  9.392576E+03 -1.865343E+03 -9.107994E+03
       435   6 -5.824109E+05  1.684116E+02 -1.262576E+03  1.904889E+04 -8.271709E+02 -7.286900E+03
       435   7 -8.303827E+05 -6.120169E+04 -6.064685E+04  1.841088E+04 -1.632437E+03 -1.089122E+04
       435   8 -7.933768E+05 -5.186579E+04 -5.066050E+04  8.788440E+03 -5.697018E+02 -9.103465E+03
       435   9 -7.567170E+05 -4.276119E+04 -4.145833E+04  1.848031E+04  4.923878E+02 -7.282082E+03
       435  10 -3.343913E+05  6.084119E+04  5.322801E+04  1.968962E+04  1.350711E-09 -3.126204E-09
       435  11 -3.710646E+05  5.208005E+04  4.645498E+04  9.996859E+03  2.983736E-09 -4.661541E-09
       435  12 -4.080766E+05  4.309583E+04  3.893106E+04  1.961760E+04  4.616397E-09  1.689290E-10
       435  13 -5.824155E+05 -1.781667E+02 -3.707502E+03  1.905014E+04  2.721576E-10  2.382472E-10
       435  14 -5.822414E+05  1.086459E+02 -2.101364E+03  9.392563E+03 -1.804815E-09 -1.691504E-09
       435  15 -5.824109E+05  1.683544E+02 -1.262677E+03  1.904889E+04  2.233025E-10  2.007018E-09
       435  16 -8.303827E+05 -6.120181E+04 -6.064708E+04  1.841087E+04 -2.766200E-09 -7.437870E-09
       435  17 -7.933768E+05 -5.186588E+04 -5.066065E+04  8.788436E+03 -3.100222E-09  7.436501E-09
       435  18 -7.567170E+05 -4.276125E+04 -4.145843E+04  1.848031E+04 -5.494487E-09  9.426962E-09
       435  19 -3.343912E+05  6.084132E+04  5.322827E+04  1.968966E+04  4.176516E+03  1.089972E+04
       435  20 -3.710646E+05  5.208014E+04  4.645515E+04  9.996882E+03  3.161422E+03  9.112525E+03
       435  21 -4.080766E+05  4.309589E+04  3.893117E+04  1.961761E+04  2.147098E+03  7.291720E+03
       435  22 -5.824155E+05 -1.780370E+02 -3.707263E+03  1.905017E+04  2.904224E+03  1.089547E+04
       435  23 -5.822413E+05  1.087359E+02 -2.101201E+03  9.392576E+03  1.865343E+03  9.107994E+03
       435  24 -5.824109E+05  1.684116E+02 -1.262576E+03  1.904889E+04  8.271709E+02  7.286900E+03
       435  25 -8.303827E+05 -6.120169E+04 -6.064685E+04  1.841088E+04  1.632437E+03  1.089122E+04
       435  26 -7.933768E+05 -5.186579E+04 -5.066050E+04  8.788440E+03  5.697018E+02  9.103465E+03
       435  27 -7.567170E+05 -4.276119E+04 -4.145833E+04  1.848031E+04 -4.923878E+02  7.282082E+03
       436   1 -4.434746E+05  3.429433E+04  3.082302E+04  1.948638E+04 -1.940614E+03 -6.224948E+03
       436   2 -4.804346E+05  2.515208E+04  2.272000E+04  9.662867E+03 -1.604824E+03 -4.396639E+03
       436   3 -5.175878E+05  1.612566E+04  1.438689E+04  1.926496E+04 -1.269364E+03 -2.564569E+03
       436   4 -5.823751E+05  1.304074E+02 -1.007727E+03  1.907417E+04 -6.271497E+02 -6.220057E+03
       436   5 -5.822765E+05  8.672823E+01 -6.977556E+02  9.361213E+03 -2.887548E+02 -4.391644E+03
       436   6 -5.823730E+05  1.585083E+02 -6.196586E+02  1.907405E+04  4.933131E+01 -2.559466E+03
       436   7 -7.212577E+05 -3.403486E+04 -3.283974E+04  1.866204E+04  6.860228E+02 -6.215167E+03
       436   8 -6.841089E+05 -2.497934E+04 -2.411619E+04  9.059600E+03  1.027101E+03 -4.386651E+03
       436   9 -6.471543E+05 -1.580893E+04 -1.562648E+04  1.888316E+04  1.367890E+03 -2.554363E+03
       436  10 -4.434746E+05  3.429429E+04  3.082294E+04  1.948637E+04 -3.536371E-09 -3.590077E-09
       436  11 -4.804346E+05  2.515205E+04  2.271996E+04  9.662862E+03 -1.010502E-08  8.761205E-10
       436  12 -5.175878E+05  1.612565E+04  1.438688E+04  1.926495E+04 -1.172740E-08 -2.772189E-09
       436  13 -5.823751E+05  1.303657E+02 -1.007801E+03  1.907417E+04 -1.348494E-10  6.477529E-09
       436  14 -5.822765E+05  8.670750E+01 -6.977920E+02  9.361212E+03 -1.683028E-09 -5.648895E-09
       436  15 -5.823730E+05  1.585013E+02 -6.196709E+02  1.907405E+04 -3.188948E-10 -3.302367E-09
       436  16 -7.212577E+05 -3.403490E+04 -3.283981E+04  1.866204E+04  1.933398E-09  5.103329E-09
       436  17 -6.841089E+05 -2.497936E+04 -2.411623E+04  9.059604E+03  8.899753E-09  1.252212E-08
       436  18 -6.471543E+05 -1.580894E+04 -1.562650E+04  1.888316E+04  1.031968E-08  4.460411E-10
       436  19 -4.434746E+05  3.429433E+04  3.082302E+04  1.948638E+04  1.940614E+03  6.224948E+03
       436  20 -4.804346E+05  2.515208E+04  2.272000E+04  9.662867E+03  1.604824E+03  4.396639E+03
       436  21 -5.175878E+05  1.612566E+04  1.438689E+04  1.926496E+04  1.269364E+03  2.564569E+03
       436  22 -5.823751E+05  1.304074E+02 -1.007727E+03  1.907417E+04  6.271497E+02  6.220057E+03
       436  23 -5.822765E+05  8.672823E+01 -6.977556E+02  9.361213E+03  2.887548E+02  4.391644E+03
       436  24 -5.823730E+05  1.585083E+02 -6.196586E+02  1.907405E+04 -4.933131E+01  2.559466E+03
       436  25 -7.212577E+05 -3.403486E+04 -3.283974E+04  1.866204E+04 -6.860228E+02  6.215167E+03
       436  26 -6.841089E+05 -2.497934E+04 -2.411619E+04  9.059600E+03 -1.027101E+03  4.386651E+03
       436  27 -6.471543E+05 -1.580893E+04 -1.562648E+04  1.888316E+04 -1.367890E+03  2.554363E+03
       437   1 -5.531565E+05  7.329353E+03  5.956911E+03  1.915715E+04 -1.159051E+03 -1.497061E+03
       437   2 -5.901672E+05 -1.851942E+03 -2.693647E+03  9.310708E+03 -7.311253E+02  3.376091E+02
       437   3 -6.273941E+05 -1.092865E+04 -1.163907E+04  1.892403E+04 -3.032042E+02  2.171033E+03
       437   4 -5.823772E+05  1.591499E+02 -6.533412E+02  1.908158E+04  1.602485E+02 -1.491927E+03
       437   5 -5.822685E+05  9.241228E+01 -8.771891E+02  9.351763E+03  5.872354E+02  3.427295E+02
       437   6 -5.823775E+05  1.303786E+02 -1.395322E+03  1.908169E+04  1.014243E+03  2.176145E+03
       437   7 -6.115972E+05 -7.011111E+03 -7.263642E+03  1.900601E+04  1.479486E+03 -1.486793E+03
       437   8 -5.743696E+05  2.036763E+03  9.392716E+02  9.392818E+03  1.905613E+03  3.478501E+02
       437   9 -5.373590E+05  1.118927E+04  8.848303E+03  1.923936E+04  2.331785E+03  2.181258E+03
       437  10 -5.531565E+05  7.329350E+03  5.956905E+03  1.915715E+04 -2.297054E-09 -3.741102E-09
       437  11 -5.901672E+05 -1.851942E+03 -2.693649E+03  9.310708E+03  1.302439E-09 -4.577281E-09
       437  12 -6.273941E+05 -1.092865E+04 -1.163908E+04  1.892403E+04 -4.272477E-09 -5.158467E-09
       437  13 -5.823772E+05  1.591475E+02 -6.533455E+02  1.908158E+04 -5.859602E-10  9.955394E-09
       437  14 -5.822685E+05  9.241206E+01 -8.771899E+02  9.351763E+03 -2.528584E-09  4.515549E-11
       437  15 -5.823775E+05  1.303733E+02 -1.395333E+03  1.908169E+04 -3.294217E-10 -1.436518E-09
       437  16 -6.115972E+05 -7.011114E+03 -7.263650E+03  1.900601E+04 -1.691776E-10 -2.821139E-09
       437  17 -5.743696E+05  2.036762E+03  9.392646E+02  9.392818E+03 -4.123630E-10 -1.540998E-08
       437  18 -5.373590E+05  1.118926E+04  8.848283E+03  1.923935E+04  3.282002E-09 -6.749869E-09
       437  19 -5.531565E+05  7.329353E+03  5.956911E+03  1.915715E+04  1.159051E+03  1.497061E+03
       437  20 -5.901672E+05 -1.851942E+03 -2.693647E+03  9.310708E+03  7.311253E+02 -3.376091E+02
       437  21 -6.273941E+05 -1.092865E+04 -1.163907E+04  1.892403E+04  3.032042E+02 -2.171033E+03
       437  22 -5.823772E+05  1.591499E+02 -6.533412E+02  1.908158E+04 -1.602485E+02  1.491927E+03
       437  23 -5.822685E+05  9.241228E+01 -8.771891E+02  9.351763E+03 -5.872354E+02 -3.427295E+02
       437  24 -5.823775E+05  1.303786E+02 -1.395322E+03  1.908169E+04 -1.014243E+03 -2.176145E+03
       437  25 -6.115972E+05 -7.011111E+03 -7.263642E+03  1.900601E+04 -1.479486E+03  1.486793E+03
       437  26 -5.743696E+05  2.036763E+03  9.392716E+02  9.392818E+03 -1.905613E+03 -3.478501E+02
       437  27 -5.373590E+05  1.118927E+04  8.848303E+03  1.923936E+04 -2.331785E+03 -2.181258E+03
       438   1 -6.630025E+05 -1.966862E+04 -2.042843E+04  1.872345E+04 -2.711378E+01  3.241347E+03
       438   2 -6.997958E+05 -2.880929E+04 -3.009114E+04  8.991750E+03  1.499591E+03  5.073954E+03
       438   3 -7.370642E+05 -3.834905E+04 -4.088843E+04  1.867330E+04  3.026661E+03  6.880600E+03
       438   4 -5.824352E+05  1.856070E+02 -1.791500E+03  1.907067E+04  1.296487E+03  3.246445E+03
       438   5 -5.822005E+05  1.375478E+02 -3.046382E+03  9.365105E+03  2.804751E+03  5.078868E+03
       438   6 -5.824382E+05 -3.060602E+02 -5.422611E+03  1.907256E+04  4.313472E+03  6.885337E+03
       438   7 -5.018619E+05  2.003938E+04  1.684500E+04  1.941793E+04  2.620258E+03  3.251544E+03
       438   8 -4.645923E+05  2.908342E+04  2.399747E+04  9.738518E+03  4.110158E+03  5.083782E+03
       438   9 -4.277900E+05  3.773526E+04  3.004163E+04  1.947190E+04  5.600600E+03  6.890074E+03
       438  10 -6.630025E+05 -1.966863E+04 -2.042845E+04  1.872345E+04 -1.469494E-08  5.860628E-11
       438  11 -6.997958E+05 -2.880932E+04 -3.009120E+04  8.991744E+03 -5.924821E-09 -1.123435E-08
       438  12 -7.370643E+05 -3.834910E+04 -4.088853E+04  1.867328E+04  2.342790E-09 -6.047558E-09
       438  13 -5.824352E+05  1.855952E+02 -1.791523E+03  1.907067E+04  4.565987E-11  3.306708E-09
       438  14 -5.822005E+05  1.375180E+02 -3.046445E+03  9.365093E+03 -1.909034E-09  1.700762E-09
       438  15 -5.824382E+05 -3.061161E+02 -5.422735E+03  1.907253E+04 -6.497909E-11 -4.841789E-09
       438  16 -5.018619E+05  2.003936E+04  1.684497E+04  1.941792E+04  1.220481E-08  8.333019E-09
       438  17 -4.645923E+05  2.908339E+04  2.399739E+04  9.738501E+03  7.249490E-09 -2.213901E-09
       438  18 -4.277900E+05  3.773520E+04  3.004149E+04  1.947187E+04 -2.950802E-09  6.024129E-10
       438  19 -6.630025E+05 -1.966862E+04 -2.042843E+04  1.872345E+04  2.711378E+01 -3.241347E+03
       438  20 -6.997958E+05 -2.880929E+04 -3.009114E+04  8.991750E+03 -1.499591E+03 -5.073954E+03
       438  21 -7.370642E+05 -3.834905E+04 -4.088843E+04  1.867330E+04 -3.026661E+03 -6.880600E+03
       438  22 -5.824352E+05  1.856070E+02 -1.791500E+03  1.907067E+04 -1.296487E+03 -3.246445E+03
       438  23 -5.822005E+05  1.375478E+02 -3.046382E+03  9.365105E+03 -2.804751E+03 -5.078868E+03
       438  24 -5.824382E+05 -3.060602E+02 -5.422611E+03  1.907256E+04 -4.313472E+03 -6.885337E+03
       438  25 -5.018619E+05  2.003938E+04  1.684500E+04  1.941793E+04 -2.620258E+03 -3.251544E+03
       438  26 -4.645923E+05  2.908342E+04  2.399747E+04  9.738518E+03 -4.110158E+03 -5.083782E+03
       438  27 -4.277900E+05  3.773526E+04  3.004163E+04  1.947190E+04 -5.600600E+03 -6.890074E+03
       439   1 -7.729455E+05 -4.629395E+04 -5.081461E+04  1.741777E+04  3.974437E+03  8.000678E+03
       439   2 -8.083880E+05 -5.523274E+04 -6.421079E+04  9.325627E+03  1.039282E+04  9.771785E+03
       439   3 -8.465605E+05 -7.116262E+04 -8.357037E+04  2.052176E+04  1.681307E+04  1.106944E+04
       439   4 -5.829295E+05  5.103184E+02 -7.014918E+03  1.903653E+04  5.402744E+03  8.005845E+03
       439   5 -5.815979E+05  5.946924E+02 -1.203156E+04  9.404711E+03  1.148256E+04  9.775482E+03
       439   6 -5.829375E+05 -6.251513E+03 -2.277454E+04  1.906083E+04  1.756462E+04  1.107172E+04
       439   7 -3.928801E+05  4.731206E+04  3.678238E+04  2.065575E+04  6.831485E+03  8.011019E+03
       439   8 -3.547602E+05  5.641853E+04  4.014427E+04  9.483781E+03  1.257269E+04  9.779178E+03
       439   9 -3.192501E+05  5.865473E+04  3.801666E+04  1.759921E+04  1.831648E+04  1.107399E+04
       439  10 -7.729455E+05 -4.629402E+04 -5.081476E+04  1.741774E+04  1.851510E-09  3.339572E-10
       439  11 -8.083881E+05 -5.523287E+04 -6.421118E+04  9.325545E+03 -4.784671E-10  8.884484E-09
       439  12 -8.465608E+05 -7.116283E+04 -8.357113E+04  2.052161E+04  1.288622E-09 -7.637209E-09
       439  13 -5.829296E+05  5.102417E+02 -7.015093E+03  1.903649E+04  7.174642E-10 -1.395179E-08
       439  14 -5.815981E+05  5.945544E+02 -1.203199E+04  9.404620E+03 -2.577546E-09  6.481557E-09
       439  15 -5.829378E+05 -6.251728E+03 -2.277535E+04  1.906067E+04 -2.081401E-10 -2.818432E-09
       439  16 -3.928802E+05  4.731198E+04  3.678218E+04  2.065571E+04 -3.592807E-09 -5.739179E-09
       439  17 -3.547604E+05  5.641838E+04  4.014379E+04  9.483682E+03  3.754234E-10 -7.416948E-09
       439  18 -3.192505E+05  5.865451E+04  3.801580E+04  1.759904E+04 -2.239889E-09  4.585618E-09
       439  19 -7.729455E+05 -4.629395E+04 -5.081461E+04  1.741777E+04 -3.974437E+03 -8.000678E+03
       439  20 -8.083880E+05 -5.523274E+04 -6.421079E+04  9.325627E+03 -1.039282E+04 -9.771785E+03
       439  21 -8.465605E+05 -7.116262E+04 -8.357037E+04  2.052176E+04 -1.681307E+04 -1.106944E+04
       439  22 -5.829295E+05  5.103184E+02 -7.014918E+03  1.903653E+04 -5.402744E+03 -8.005845E+03
       439  23 -5.815979E+05  5.946924E+02 -1.203156E+04  9.404711E+03 -1.148256E+04 -9.775482E+03
       439  24 -5.829375E+05 -6.251513E+03 -2.277454E+04  1.906083E+04 -1.756462E+04 -1.107172E+04
       439  25 -3.928801E+05  4.731206E+04  3.678238E+04  2.065575E+04 -6.831485E+03 -8.011019E+03
       439  26 -3.547602E+05  5.641853E+04  4.014427E+04  9.483781E+03 -1.257269E+04 -9.779178E+03
       439  27 -3.192501E+05  5.865473E+04  3.801666E+04  1.759921E+04 -1.831648E+04 -1.107399E+04
       440   1 -8.869742E+05 -6.882767E+04 -9.688788E+04  5.548964E+03  1.807650E+04  1.323215E+04
       440   2 -9.098398E+05 -7.648000E+04 -1.242862E+05  1.990330E+04  4.990934E+04  1.368765E+04
       440   3 -9.603089E+05 -1.775337E+05 -1.957996E+05  5.320028E+04  8.176976E+04  4.687449E+03
       440   4 -5.882124E+05  4.802389E+03 -2.828465E+04  1.888452E+04  2.173307E+04  1.324477E+04
       440   5 -5.750230E+05  5.937565E+03 -4.686566E+04  9.558997E+03  4.677600E+04  1.367584E+04
       440   6 -5.882445E+05 -8.512349E+04 -1.048277E+05  1.917783E+04  7.184888E+04  4.651046E+03
       440   7 -2.893675E+05  7.842686E+04  4.031282E+04  3.222649E+04  2.539139E+04  1.325754E+04
       440   8 -2.401022E+05  8.834769E+04  3.054747E+04 -7.910215E+02  4.364098E+04  1.366413E+04
       440   9 -2.160510E+05  7.280972E+03 -1.386485E+04 -1.486518E+04  6.192204E+04  4.615743E+03
       440  10 -8.869746E+05 -6.882795E+04 -9.688882E+04  5.548771E+03  3.125185E-09 -7.127763E-09
       440  11 -9.098425E+05 -7.648087E+04 -1.242912E+05  1.990275E+04  5.032009E-09  2.670674E-09
       440  12 -9.603161E+05 -1.775355E+05 -1.958122E+05  5.319997E+04  3.743298E-09  8.917800E-09
       440  13 -5.882130E+05  4.802074E+03 -2.828587E+04  1.888429E+04 -2.733419E-10  3.678024E-09
       440  14 -5.750254E+05  5.936776E+03 -4.687012E+04  9.558482E+03 -1.854694E-09  3.768093E-09
       440  15 -5.882501E+05 -8.512490E+04 -1.048374E+05  1.917756E+04 -5.900629E-10  2.941003E-09
       440  16 -2.893682E+05  7.842650E+04  4.031128E+04  3.222622E+04 -5.019211E-09  6.597739E-09
       440  17 -2.401043E+05  8.834698E+04  3.054354E+04 -7.915017E+02 -5.349763E-09  1.415576E-08
       440  18 -2.160551E+05  7.279920E+03 -1.387210E+04 -1.486541E+04 -5.222494E-09  1.896904E-09
       440  19 -8.869742E+05 -6.882767E+04 -9.688788E+04  5.548964E+03 -1.807650E+04 -1.323215E+04
       440  20 -9.098398E+05 -7.648000E+04 -1.242862E+05  1.990330E+04 -4.990934E+04 -1.368765E+04
       440  21 -9.603089E+05 -1.775337E+05 -1.957996E+05  5.320028E+04 -8.176976E+04 -4.687449E+03
       440  22 -5.882124E+05  4.802389E+03 -2.828465E+04  1.888452E+04 -2.173307E+04 -1.324477E+04
       440  23 -5.750230E+05  5.937565E+03 -4.686566E+04  9.558997E+03 -4.677600E+04 -1.367584E+04
       440  24 -5.882445E+05 -8.512349E+04 -1.048277E+05  1.917783E+04 -7.184888E+04 -4.651046E+03
       440  25 -2.893675E+05  7.842686E+04  4.031282E+04  3.222649E+04 -2.539139E+04 -1.325754E+04
       440  26 -2.401022E+05  8.834769E+04  3.054747E+04 -7.910215E+02 -4.364098E+04 -1.366413E+04
       440  27 -2.160510E+05  7.280972E+03 -1.386485E+04 -1.486518E+04 -6.192204E+04 -4.615743E+03
