    1C
    1UUSER                                                              
    1UDATE              11.october.2022                                 
    1UTIME              17:33:07                                        
    1UHOST                                                              
    1UPGM               CalculiX                                        
    1UVERSION           Version 2.20                             
    1UCOMPILETIME       Sun Jul 31 18:08:37 CEST 2022                    
    1UDIR                                                               
    1UDBN                                                               
    1UMAT    1MESH_MATERIAL                                             
    2C                           841                                     1
 -1         1 0.00000E+00 0.00000E+00 0.00000E+00
 -1         2 1.66667E-02 0.00000E+00 0.00000E+00
 -1         3 3.33333E-02 0.00000E+00 0.00000E+00
 -1         4 5.00000E-02 0.00000E+00 0.00000E+00
 -1         5 6.66667E-02 0.00000E+00 0.00000E+00
 -1         8 0.00000E+00 6.25000E-03 0.00000E+00
 -1         9 1.66667E-02 6.25000E-03 0.00000E+00
 -1        10 3.33333E-02 6.25000E-03 0.00000E+00
 -1        11 5.00000E-02 6.25000E-03 0.00000E+00
 -1        12 6.66667E-02 6.25000E-03 0.00000E+00
 -1        15 0.00000E+00 1.25000E-02 0.00000E+00
 -1        16 1.66667E-02 1.25000E-02 0.00000E+00
 -1        17 3.33333E-02 1.25000E-02 0.00000E+00
 -1        18 5.00000E-02 1.25000E-02 0.00000E+00
 -1        19 6.66667E-02 1.25000E-02 0.00000E+00
 -1        20 8.33333E-02 1.25000E-02 0.00000E+00
 -1        21 1.00000E-01 1.25000E-02 0.00000E+00
 -1        22 0.00000E+00 1.87500E-02 0.00000E+00
 -1        23 1.66667E-02 1.87500E-02 0.00000E+00
 -1        24 3.33333E-02 1.87500E-02 0.00000E+00
 -1        25 5.00000E-02 1.87500E-02 0.00000E+00
 -1        26 6.66667E-02 1.87500E-02 0.00000E+00
 -1        27 8.33333E-02 1.87500E-02 0.00000E+00
 -1        28 1.00000E-01 1.87500E-02 0.00000E+00
 -1        29 0.00000E+00 2.50000E-02 0.00000E+00
 -1        30 1.66667E-02 2.50000E-02 0.00000E+00
 -1        31 3.33333E-02 2.50000E-02 0.00000E+00
 -1        32 5.00000E-02 2.50000E-02 0.00000E+00
 -1        33 6.66667E-02 2.50000E-02 0.00000E+00
 -1        34 8.33333E-02 2.50000E-02 0.00000E+00
 -1        35 1.00000E-01 2.50000E-02 0.00000E+00
 -1        36 1.04167E-03 0.00000E+00 0.00000E+00
 -1        37 2.08333E-03 0.00000E+00 0.00000E+00
 -1        38 3.12500E-03 0.00000E+00 0.00000E+00
 -1        39 4.16667E-03 0.00000E+00 0.00000E+00
 -1        40 5.20833E-03 0.00000E+00 0.00000E+00
 -1        41 6.25000E-03 0.00000E+00 0.00000E+00
 -1        42 7.29167E-03 0.00000E+00 0.00000E+00
 -1        43 8.33333E-03 0.00000E+00 0.00000E+00
 -1        44 9.37500E-03 0.00000E+00 0.00000E+00
 -1        45 1.04167E-02 0.00000E+00 0.00000E+00
 -1        46 1.14583E-02 0.00000E+00 0.00000E+00
 -1        47 1.25000E-02 0.00000E+00 0.00000E+00
 -1        48 1.35417E-02 0.00000E+00 0.00000E+00
 -1        49 1.45833E-02 0.00000E+00 0.00000E+00
 -1        50 1.56250E-02 0.00000E+00 0.00000E+00
 -1        51 0.00000E+00 1.04167E-03 0.00000E+00
 -1        52 0.00000E+00 2.08333E-03 0.00000E+00
 -1        53 0.00000E+00 3.12500E-03 0.00000E+00
 -1        54 0.00000E+00 4.16667E-03 0.00000E+00
 -1        55 0.00000E+00 5.20833E-03 0.00000E+00
 -1        56 1.04167E-03 3.90630E-04 0.00000E+00
 -1        57 2.08333E-03 7.81250E-04 0.00000E+00
 -1        58 3.12500E-03 1.17188E-03 0.00000E+00
 -1        59 4.16667E-03 1.56250E-03 0.00000E+00
 -1        60 5.20833E-03 1.95312E-03 0.00000E+00
 -1        61 6.25000E-03 2.34375E-03 0.00000E+00
 -1        62 7.29167E-03 2.73438E-03 0.00000E+00
 -1        63 8.33333E-03 3.12500E-03 0.00000E+00
 -1        64 9.37500E-03 3.51563E-03 0.00000E+00
 -1        65 1.04167E-02 3.90625E-03 0.00000E+00
 -1        66 1.14583E-02 4.29688E-03 0.00000E+00
 -1        67 1.25000E-02 4.68750E-03 0.00000E+00
 -1        68 1.35417E-02 5.07813E-03 0.00000E+00
 -1        69 1.45833E-02 5.46875E-03 0.00000E+00
 -1        70 1.56250E-02 5.85938E-03 0.00000E+00
 -1        71 1.77083E-02 0.00000E+00 0.00000E+00
 -1        72 1.87500E-02 0.00000E+00 0.00000E+00
 -1        73 1.97917E-02 0.00000E+00 0.00000E+00
 -1        74 2.08333E-02 0.00000E+00 0.00000E+00
 -1        75 2.18750E-02 0.00000E+00 0.00000E+00
 -1        76 2.29167E-02 0.00000E+00 0.00000E+00
 -1        77 2.39583E-02 0.00000E+00 0.00000E+00
 -1        78 2.50000E-02 0.00000E+00 0.00000E+00
 -1        79 2.60417E-02 0.00000E+00 0.00000E+00
 -1        80 2.70833E-02 0.00000E+00 0.00000E+00
 -1        81 2.81250E-02 0.00000E+00 0.00000E+00
 -1        82 2.91667E-02 0.00000E+00 0.00000E+00
 -1        83 3.02083E-02 0.00000E+00 0.00000E+00
 -1        84 3.12500E-02 0.00000E+00 0.00000E+00
 -1        85 3.22917E-02 0.00000E+00 0.00000E+00
 -1        86 1.66667E-02 1.04167E-03 0.00000E+00
 -1        87 1.66667E-02 2.08333E-03 0.00000E+00
 -1        88 1.66667E-02 3.12500E-03 0.00000E+00
 -1        89 1.66667E-02 4.16667E-03 0.00000E+00
 -1        90 1.66667E-02 5.20833E-03 0.00000E+00
 -1        91 1.77083E-02 3.90630E-04 0.00000E+00
 -1        92 1.87500E-02 7.81250E-04 0.00000E+00
 -1        93 1.97917E-02 1.17188E-03 0.00000E+00
 -1        94 2.08333E-02 1.56250E-03 0.00000E+00
 -1        95 2.18750E-02 1.95312E-03 0.00000E+00
 -1        96 2.29167E-02 2.34375E-03 0.00000E+00
 -1        97 2.39583E-02 2.73438E-03 0.00000E+00
 -1        98 2.50000E-02 3.12500E-03 0.00000E+00
 -1        99 2.60417E-02 3.51563E-03 0.00000E+00
 -1       100 2.70833E-02 3.90625E-03 0.00000E+00
 -1       101 2.81250E-02 4.29688E-03 0.00000E+00
 -1       102 2.91667E-02 4.68750E-03 0.00000E+00
 -1       103 3.02083E-02 5.07813E-03 0.00000E+00
 -1       104 3.12500E-02 5.46875E-03 0.00000E+00
 -1       105 3.22917E-02 5.85938E-03 0.00000E+00
 -1       106 3.43750E-02 0.00000E+00 0.00000E+00
 -1       107 3.54167E-02 0.00000E+00 0.00000E+00
 -1       108 3.64583E-02 0.00000E+00 0.00000E+00
 -1       109 3.75000E-02 0.00000E+00 0.00000E+00
 -1       110 3.85417E-02 0.00000E+00 0.00000E+00
 -1       111 3.95833E-02 0.00000E+00 0.00000E+00
 -1       112 4.06250E-02 0.00000E+00 0.00000E+00
 -1       113 4.16667E-02 0.00000E+00 0.00000E+00
 -1       114 4.27083E-02 0.00000E+00 0.00000E+00
 -1       115 4.37500E-02 0.00000E+00 0.00000E+00
 -1       116 4.47917E-02 0.00000E+00 0.00000E+00
 -1       117 4.58333E-02 0.00000E+00 0.00000E+00
 -1       118 4.68750E-02 0.00000E+00 0.00000E+00
 -1       119 4.79167E-02 0.00000E+00 0.00000E+00
 -1       120 4.89583E-02 0.00000E+00 0.00000E+00
 -1       121 3.33333E-02 1.04167E-03 0.00000E+00
 -1       122 3.33333E-02 2.08333E-03 0.00000E+00
 -1       123 3.33333E-02 3.12500E-03 0.00000E+00
 -1       124 3.33333E-02 4.16667E-03 0.00000E+00
 -1       125 3.33333E-02 5.20833E-03 0.00000E+00
 -1       126 3.43750E-02 3.90630E-04 0.00000E+00
 -1       127 3.54167E-02 7.81250E-04 0.00000E+00
 -1       128 3.64583E-02 1.17188E-03 0.00000E+00
 -1       129 3.75000E-02 1.56250E-03 0.00000E+00
 -1       130 3.85417E-02 1.95312E-03 0.00000E+00
 -1       131 3.95833E-02 2.34375E-03 0.00000E+00
 -1       132 4.06250E-02 2.73438E-03 0.00000E+00
 -1       133 4.16667E-02 3.12500E-03 0.00000E+00
 -1       134 4.27083E-02 3.51563E-03 0.00000E+00
 -1       135 4.37500E-02 3.90625E-03 0.00000E+00
 -1       136 4.47917E-02 4.29688E-03 0.00000E+00
 -1       137 4.58333E-02 4.68750E-03 0.00000E+00
 -1       138 4.68750E-02 5.07813E-03 0.00000E+00
 -1       139 4.79167E-02 5.46875E-03 0.00000E+00
 -1       140 4.89583E-02 5.85938E-03 0.00000E+00
 -1       141 5.10417E-02 0.00000E+00 0.00000E+00
 -1       142 5.20833E-02 0.00000E+00 0.00000E+00
 -1       143 5.31250E-02 0.00000E+00 0.00000E+00
 -1       144 5.41667E-02 0.00000E+00 0.00000E+00
 -1       145 5.52083E-02 0.00000E+00 0.00000E+00
 -1       146 5.62500E-02 0.00000E+00 0.00000E+00
 -1       147 5.72917E-02 0.00000E+00 0.00000E+00
 -1       148 5.83333E-02 0.00000E+00 0.00000E+00
 -1       149 5.93750E-02 0.00000E+00 0.00000E+00
 -1       150 6.04167E-02 0.00000E+00 0.00000E+00
 -1       151 6.14583E-02 0.00000E+00 0.00000E+00
 -1       152 6.25000E-02 0.00000E+00 0.00000E+00
 -1       153 6.35417E-02 0.00000E+00 0.00000E+00
 -1       154 6.45833E-02 0.00000E+00 0.00000E+00
 -1       155 6.56250E-02 0.00000E+00 0.00000E+00
 -1       156 5.00000E-02 1.04167E-03 0.00000E+00
 -1       157 5.00000E-02 2.08333E-03 0.00000E+00
 -1       158 5.00000E-02 3.12500E-03 0.00000E+00
 -1       159 5.00000E-02 4.16667E-03 0.00000E+00
 -1       160 5.00000E-02 5.20833E-03 0.00000E+00
 -1       161 5.10417E-02 3.90630E-04 0.00000E+00
 -1       162 5.20833E-02 7.81250E-04 0.00000E+00
 -1       163 5.31250E-02 1.17188E-03 0.00000E+00
 -1       164 5.41667E-02 1.56250E-03 0.00000E+00
 -1       165 5.52083E-02 1.95312E-03 0.00000E+00
 -1       166 5.62500E-02 2.34375E-03 0.00000E+00
 -1       167 5.72917E-02 2.73438E-03 0.00000E+00
 -1       168 5.83333E-02 3.12500E-03 0.00000E+00
 -1       169 5.93750E-02 3.51563E-03 0.00000E+00
 -1       170 6.04167E-02 3.90625E-03 0.00000E+00
 -1       171 6.14583E-02 4.29688E-03 0.00000E+00
 -1       172 6.25000E-02 4.68750E-03 0.00000E+00
 -1       173 6.35417E-02 5.07813E-03 0.00000E+00
 -1       174 6.45833E-02 5.46875E-03 0.00000E+00
 -1       175 6.56250E-02 5.85938E-03 0.00000E+00
 -1       191 6.66667E-02 1.04167E-03 0.00000E+00
 -1       192 6.66667E-02 2.08333E-03 0.00000E+00
 -1       193 6.66667E-02 3.12500E-03 0.00000E+00
 -1       194 6.66667E-02 4.16667E-03 0.00000E+00
 -1       195 6.66667E-02 5.20833E-03 0.00000E+00
 -1       251 1.04167E-03 6.25000E-03 0.00000E+00
 -1       252 2.08333E-03 6.25000E-03 0.00000E+00
 -1       253 3.12500E-03 6.25000E-03 0.00000E+00
 -1       254 4.16667E-03 6.25000E-03 0.00000E+00
 -1       255 5.20833E-03 6.25000E-03 0.00000E+00
 -1       256 6.25000E-03 6.25000E-03 0.00000E+00
 -1       257 7.29167E-03 6.25000E-03 0.00000E+00
 -1       258 8.33333E-03 6.25000E-03 0.00000E+00
 -1       259 9.37500E-03 6.25000E-03 0.00000E+00
 -1       260 1.04167E-02 6.25000E-03 0.00000E+00
 -1       261 1.14583E-02 6.25000E-03 0.00000E+00
 -1       262 1.25000E-02 6.25000E-03 0.00000E+00
 -1       263 1.35417E-02 6.25000E-03 0.00000E+00
 -1       264 1.45833E-02 6.25000E-03 0.00000E+00
 -1       265 1.56250E-02 6.25000E-03 0.00000E+00
 -1       266 0.00000E+00 7.29167E-03 0.00000E+00
 -1       267 0.00000E+00 8.33333E-03 0.00000E+00
 -1       268 0.00000E+00 9.37500E-03 0.00000E+00
 -1       269 0.00000E+00 1.04167E-02 0.00000E+00
 -1       270 0.00000E+00 1.14583E-02 0.00000E+00
 -1       271 1.04167E-03 6.64063E-03 0.00000E+00
 -1       272 2.08333E-03 7.03125E-03 0.00000E+00
 -1       273 3.12500E-03 7.42188E-03 0.00000E+00
 -1       274 4.16667E-03 7.81250E-03 0.00000E+00
 -1       275 5.20833E-03 8.20313E-03 0.00000E+00
 -1       276 6.25000E-03 8.59375E-03 0.00000E+00
 -1       277 7.29167E-03 8.98438E-03 0.00000E+00
 -1       278 8.33333E-03 9.37500E-03 0.00000E+00
 -1       279 9.37500E-03 9.76562E-03 0.00000E+00
 -1       280 1.04167E-02 1.01562E-02 0.00000E+00
 -1       281 1.14583E-02 1.05469E-02 0.00000E+00
 -1       282 1.25000E-02 1.09375E-02 0.00000E+00
 -1       283 1.35417E-02 1.13281E-02 0.00000E+00
 -1       284 1.45833E-02 1.17188E-02 0.00000E+00
 -1       285 1.56250E-02 1.21094E-02 0.00000E+00
 -1       286 1.77083E-02 6.25000E-03 0.00000E+00
 -1       287 1.87500E-02 6.25000E-03 0.00000E+00
 -1       288 1.97917E-02 6.25000E-03 0.00000E+00
 -1       289 2.08333E-02 6.25000E-03 0.00000E+00
 -1       290 2.18750E-02 6.25000E-03 0.00000E+00
 -1       291 2.29167E-02 6.25000E-03 0.00000E+00
 -1       292 2.39583E-02 6.25000E-03 0.00000E+00
 -1       293 2.50000E-02 6.25000E-03 0.00000E+00
 -1       294 2.60417E-02 6.25000E-03 0.00000E+00
 -1       295 2.70833E-02 6.25000E-03 0.00000E+00
 -1       296 2.81250E-02 6.25000E-03 0.00000E+00
 -1       297 2.91667E-02 6.25000E-03 0.00000E+00
 -1       298 3.02083E-02 6.25000E-03 0.00000E+00
 -1       299 3.12500E-02 6.25000E-03 0.00000E+00
 -1       300 3.22917E-02 6.25000E-03 0.00000E+00
 -1       301 1.66667E-02 7.29167E-03 0.00000E+00
 -1       302 1.66667E-02 8.33333E-03 0.00000E+00
 -1       303 1.66667E-02 9.37500E-03 0.00000E+00
 -1       304 1.66667E-02 1.04167E-02 0.00000E+00
 -1       305 1.66667E-02 1.14583E-02 0.00000E+00
 -1       306 1.77083E-02 6.64063E-03 0.00000E+00
 -1       307 1.87500E-02 7.03125E-03 0.00000E+00
 -1       308 1.97917E-02 7.42188E-03 0.00000E+00
 -1       309 2.08333E-02 7.81250E-03 0.00000E+00
 -1       310 2.18750E-02 8.20313E-03 0.00000E+00
 -1       311 2.29167E-02 8.59375E-03 0.00000E+00
 -1       312 2.39583E-02 8.98438E-03 0.00000E+00
 -1       313 2.50000E-02 9.37500E-03 0.00000E+00
 -1       314 2.60417E-02 9.76562E-03 0.00000E+00
 -1       315 2.70833E-02 1.01562E-02 0.00000E+00
 -1       316 2.81250E-02 1.05469E-02 0.00000E+00
 -1       317 2.91667E-02 1.09375E-02 0.00000E+00
 -1       318 3.02083E-02 1.13281E-02 0.00000E+00
 -1       319 3.12500E-02 1.17188E-02 0.00000E+00
 -1       320 3.22917E-02 1.21094E-02 0.00000E+00
 -1       321 3.43750E-02 6.25000E-03 0.00000E+00
 -1       322 3.54167E-02 6.25000E-03 0.00000E+00
 -1       323 3.64583E-02 6.25000E-03 0.00000E+00
 -1       324 3.75000E-02 6.25000E-03 0.00000E+00
 -1       325 3.85417E-02 6.25000E-03 0.00000E+00
 -1       326 3.95833E-02 6.25000E-03 0.00000E+00
 -1       327 4.06250E-02 6.25000E-03 0.00000E+00
 -1       328 4.16667E-02 6.25000E-03 0.00000E+00
 -1       329 4.27083E-02 6.25000E-03 0.00000E+00
 -1       330 4.37500E-02 6.25000E-03 0.00000E+00
 -1       331 4.47917E-02 6.25000E-03 0.00000E+00
 -1       332 4.58333E-02 6.25000E-03 0.00000E+00
 -1       333 4.68750E-02 6.25000E-03 0.00000E+00
 -1       334 4.79167E-02 6.25000E-03 0.00000E+00
 -1       335 4.89583E-02 6.25000E-03 0.00000E+00
 -1       336 3.33333E-02 7.29167E-03 0.00000E+00
 -1       337 3.33333E-02 8.33333E-03 0.00000E+00
 -1       338 3.33333E-02 9.37500E-03 0.00000E+00
 -1       339 3.33333E-02 1.04167E-02 0.00000E+00
 -1       340 3.33333E-02 1.14583E-02 0.00000E+00
 -1       341 3.43750E-02 6.64063E-03 0.00000E+00
 -1       342 3.54167E-02 7.03125E-03 0.00000E+00
 -1       343 3.64583E-02 7.42188E-03 0.00000E+00
 -1       344 3.75000E-02 7.81250E-03 0.00000E+00
 -1       345 3.85417E-02 8.20313E-03 0.00000E+00
 -1       346 3.95833E-02 8.59375E-03 0.00000E+00
 -1       347 4.06250E-02 8.98438E-03 0.00000E+00
 -1       348 4.16667E-02 9.37500E-03 0.00000E+00
 -1       349 4.27083E-02 9.76562E-03 0.00000E+00
 -1       350 4.37500E-02 1.01562E-02 0.00000E+00
 -1       351 4.47917E-02 1.05469E-02 0.00000E+00
 -1       352 4.58333E-02 1.09375E-02 0.00000E+00
 -1       353 4.68750E-02 1.13281E-02 0.00000E+00
 -1       354 4.79167E-02 1.17188E-02 0.00000E+00
 -1       355 4.89583E-02 1.21094E-02 0.00000E+00
 -1       356 5.10417E-02 6.25000E-03 0.00000E+00
 -1       357 5.20833E-02 6.25000E-03 0.00000E+00
 -1       358 5.31250E-02 6.25000E-03 0.00000E+00
 -1       359 5.41667E-02 6.25000E-03 0.00000E+00
 -1       360 5.52083E-02 6.25000E-03 0.00000E+00
 -1       361 5.62500E-02 6.25000E-03 0.00000E+00
 -1       362 5.72917E-02 6.25000E-03 0.00000E+00
 -1       363 5.83333E-02 6.25000E-03 0.00000E+00
 -1       364 5.93750E-02 6.25000E-03 0.00000E+00
 -1       365 6.04167E-02 6.25000E-03 0.00000E+00
 -1       366 6.14583E-02 6.25000E-03 0.00000E+00
 -1       367 6.25000E-02 6.25000E-03 0.00000E+00
 -1       368 6.35417E-02 6.25000E-03 0.00000E+00
 -1       369 6.45833E-02 6.25000E-03 0.00000E+00
 -1       370 6.56250E-02 6.25000E-03 0.00000E+00
 -1       371 5.00000E-02 7.29167E-03 0.00000E+00
 -1       372 5.00000E-02 8.33333E-03 0.00000E+00
 -1       373 5.00000E-02 9.37500E-03 0.00000E+00
 -1       374 5.00000E-02 1.04167E-02 0.00000E+00
 -1       375 5.00000E-02 1.14583E-02 0.00000E+00
 -1       376 5.10417E-02 6.64063E-03 0.00000E+00
 -1       377 5.20833E-02 7.03125E-03 0.00000E+00
 -1       378 5.31250E-02 7.42188E-03 0.00000E+00
 -1       379 5.41667E-02 7.81250E-03 0.00000E+00
 -1       380 5.52083E-02 8.20313E-03 0.00000E+00
 -1       381 5.62500E-02 8.59375E-03 0.00000E+00
 -1       382 5.72917E-02 8.98438E-03 0.00000E+00
 -1       383 5.83333E-02 9.37500E-03 0.00000E+00
 -1       384 5.93750E-02 9.76562E-03 0.00000E+00
 -1       385 6.04167E-02 1.01562E-02 0.00000E+00
 -1       386 6.14583E-02 1.05469E-02 0.00000E+00
 -1       387 6.25000E-02 1.09375E-02 0.00000E+00
 -1       388 6.35417E-02 1.13281E-02 0.00000E+00
 -1       389 6.45833E-02 1.17188E-02 0.00000E+00
 -1       390 6.56250E-02 1.21094E-02 0.00000E+00
 -1       406 6.66667E-02 7.29167E-03 0.00000E+00
 -1       407 6.66667E-02 8.33333E-03 0.00000E+00
 -1       408 6.66667E-02 9.37500E-03 0.00000E+00
 -1       409 6.66667E-02 1.04167E-02 0.00000E+00
 -1       410 6.66667E-02 1.14583E-02 0.00000E+00
 -1       466 1.04167E-03 1.25000E-02 0.00000E+00
 -1       467 2.08333E-03 1.25000E-02 0.00000E+00
 -1       468 3.12500E-03 1.25000E-02 0.00000E+00
 -1       469 4.16667E-03 1.25000E-02 0.00000E+00
 -1       470 5.20833E-03 1.25000E-02 0.00000E+00
 -1       471 6.25000E-03 1.25000E-02 0.00000E+00
 -1       472 7.29167E-03 1.25000E-02 0.00000E+00
 -1       473 8.33333E-03 1.25000E-02 0.00000E+00
 -1       474 9.37500E-03 1.25000E-02 0.00000E+00
 -1       475 1.04167E-02 1.25000E-02 0.00000E+00
 -1       476 1.14583E-02 1.25000E-02 0.00000E+00
 -1       477 1.25000E-02 1.25000E-02 0.00000E+00
 -1       478 1.35417E-02 1.25000E-02 0.00000E+00
 -1       479 1.45833E-02 1.25000E-02 0.00000E+00
 -1       480 1.56250E-02 1.25000E-02 0.00000E+00
 -1       481 0.00000E+00 1.35417E-02 0.00000E+00
 -1       482 0.00000E+00 1.45833E-02 0.00000E+00
 -1       483 0.00000E+00 1.56250E-02 0.00000E+00
 -1       484 0.00000E+00 1.66667E-02 0.00000E+00
 -1       485 0.00000E+00 1.77083E-02 0.00000E+00
 -1       486 1.04167E-03 1.28906E-02 0.00000E+00
 -1       487 2.08333E-03 1.32813E-02 0.00000E+00
 -1       488 3.12500E-03 1.36719E-02 0.00000E+00
 -1       489 4.16667E-03 1.40625E-02 0.00000E+00
 -1       490 5.20833E-03 1.44531E-02 0.00000E+00
 -1       491 6.25000E-03 1.48437E-02 0.00000E+00
 -1       492 7.29167E-03 1.52344E-02 0.00000E+00
 -1       493 8.33333E-03 1.56250E-02 0.00000E+00
 -1       494 9.37500E-03 1.60156E-02 0.00000E+00
 -1       495 1.04167E-02 1.64062E-02 0.00000E+00
 -1       496 1.14583E-02 1.67969E-02 0.00000E+00
 -1       497 1.25000E-02 1.71875E-02 0.00000E+00
 -1       498 1.35417E-02 1.75781E-02 0.00000E+00
 -1       499 1.45833E-02 1.79687E-02 0.00000E+00
 -1       500 1.56250E-02 1.83594E-02 0.00000E+00
 -1       501 1.77083E-02 1.25000E-02 0.00000E+00
 -1       502 1.87500E-02 1.25000E-02 0.00000E+00
 -1       503 1.97917E-02 1.25000E-02 0.00000E+00
 -1       504 2.08333E-02 1.25000E-02 0.00000E+00
 -1       505 2.18750E-02 1.25000E-02 0.00000E+00
 -1       506 2.29167E-02 1.25000E-02 0.00000E+00
 -1       507 2.39583E-02 1.25000E-02 0.00000E+00
 -1       508 2.50000E-02 1.25000E-02 0.00000E+00
 -1       509 2.60417E-02 1.25000E-02 0.00000E+00
 -1       510 2.70833E-02 1.25000E-02 0.00000E+00
 -1       511 2.81250E-02 1.25000E-02 0.00000E+00
 -1       512 2.91667E-02 1.25000E-02 0.00000E+00
 -1       513 3.02083E-02 1.25000E-02 0.00000E+00
 -1       514 3.12500E-02 1.25000E-02 0.00000E+00
 -1       515 3.22917E-02 1.25000E-02 0.00000E+00
 -1       516 1.66667E-02 1.35417E-02 0.00000E+00
 -1       517 1.66667E-02 1.45833E-02 0.00000E+00
 -1       518 1.66667E-02 1.56250E-02 0.00000E+00
 -1       519 1.66667E-02 1.66667E-02 0.00000E+00
 -1       520 1.66667E-02 1.77083E-02 0.00000E+00
 -1       521 1.77083E-02 1.28906E-02 0.00000E+00
 -1       522 1.87500E-02 1.32813E-02 0.00000E+00
 -1       523 1.97917E-02 1.36719E-02 0.00000E+00
 -1       524 2.08333E-02 1.40625E-02 0.00000E+00
 -1       525 2.18750E-02 1.44531E-02 0.00000E+00
 -1       526 2.29167E-02 1.48437E-02 0.00000E+00
 -1       527 2.39583E-02 1.52344E-02 0.00000E+00
 -1       528 2.50000E-02 1.56250E-02 0.00000E+00
 -1       529 2.60417E-02 1.60156E-02 0.00000E+00
 -1       530 2.70833E-02 1.64062E-02 0.00000E+00
 -1       531 2.81250E-02 1.67969E-02 0.00000E+00
 -1       532 2.91667E-02 1.71875E-02 0.00000E+00
 -1       533 3.02083E-02 1.75781E-02 0.00000E+00
 -1       534 3.12500E-02 1.79687E-02 0.00000E+00
 -1       535 3.22917E-02 1.83594E-02 0.00000E+00
 -1       536 3.43750E-02 1.25000E-02 0.00000E+00
 -1       537 3.54167E-02 1.25000E-02 0.00000E+00
 -1       538 3.64583E-02 1.25000E-02 0.00000E+00
 -1       539 3.75000E-02 1.25000E-02 0.00000E+00
 -1       540 3.85417E-02 1.25000E-02 0.00000E+00
 -1       541 3.95833E-02 1.25000E-02 0.00000E+00
 -1       542 4.06250E-02 1.25000E-02 0.00000E+00
 -1       543 4.16667E-02 1.25000E-02 0.00000E+00
 -1       544 4.27083E-02 1.25000E-02 0.00000E+00
 -1       545 4.37500E-02 1.25000E-02 0.00000E+00
 -1       546 4.47917E-02 1.25000E-02 0.00000E+00
 -1       547 4.58333E-02 1.25000E-02 0.00000E+00
 -1       548 4.68750E-02 1.25000E-02 0.00000E+00
 -1       549 4.79167E-02 1.25000E-02 0.00000E+00
 -1       550 4.89583E-02 1.25000E-02 0.00000E+00
 -1       551 3.33333E-02 1.35417E-02 0.00000E+00
 -1       552 3.33333E-02 1.45833E-02 0.00000E+00
 -1       553 3.33333E-02 1.56250E-02 0.00000E+00
 -1       554 3.33333E-02 1.66667E-02 0.00000E+00
 -1       555 3.33333E-02 1.77083E-02 0.00000E+00
 -1       556 3.43750E-02 1.28906E-02 0.00000E+00
 -1       557 3.54167E-02 1.32813E-02 0.00000E+00
 -1       558 3.64583E-02 1.36719E-02 0.00000E+00
 -1       559 3.75000E-02 1.40625E-02 0.00000E+00
 -1       560 3.85417E-02 1.44531E-02 0.00000E+00
 -1       561 3.95833E-02 1.48437E-02 0.00000E+00
 -1       562 4.06250E-02 1.52344E-02 0.00000E+00
 -1       563 4.16667E-02 1.56250E-02 0.00000E+00
 -1       564 4.27083E-02 1.60156E-02 0.00000E+00
 -1       565 4.37500E-02 1.64062E-02 0.00000E+00
 -1       566 4.47917E-02 1.67969E-02 0.00000E+00
 -1       567 4.58333E-02 1.71875E-02 0.00000E+00
 -1       568 4.68750E-02 1.75781E-02 0.00000E+00
 -1       569 4.79167E-02 1.79687E-02 0.00000E+00
 -1       570 4.89583E-02 1.83594E-02 0.00000E+00
 -1       571 5.10417E-02 1.25000E-02 0.00000E+00
 -1       572 5.20833E-02 1.25000E-02 0.00000E+00
 -1       573 5.31250E-02 1.25000E-02 0.00000E+00
 -1       574 5.41667E-02 1.25000E-02 0.00000E+00
 -1       575 5.52083E-02 1.25000E-02 0.00000E+00
 -1       576 5.62500E-02 1.25000E-02 0.00000E+00
 -1       577 5.72917E-02 1.25000E-02 0.00000E+00
 -1       578 5.83333E-02 1.25000E-02 0.00000E+00
 -1       579 5.93750E-02 1.25000E-02 0.00000E+00
 -1       580 6.04167E-02 1.25000E-02 0.00000E+00
 -1       581 6.14583E-02 1.25000E-02 0.00000E+00
 -1       582 6.25000E-02 1.25000E-02 0.00000E+00
 -1       583 6.35417E-02 1.25000E-02 0.00000E+00
 -1       584 6.45833E-02 1.25000E-02 0.00000E+00
 -1       585 6.56250E-02 1.25000E-02 0.00000E+00
 -1       586 5.00000E-02 1.35417E-02 0.00000E+00
 -1       587 5.00000E-02 1.45833E-02 0.00000E+00
 -1       588 5.00000E-02 1.56250E-02 0.00000E+00
 -1       589 5.00000E-02 1.66667E-02 0.00000E+00
 -1       590 5.00000E-02 1.77083E-02 0.00000E+00
 -1       591 5.10417E-02 1.28906E-02 0.00000E+00
 -1       592 5.20833E-02 1.32813E-02 0.00000E+00
 -1       593 5.31250E-02 1.36719E-02 0.00000E+00
 -1       594 5.41667E-02 1.40625E-02 0.00000E+00
 -1       595 5.52083E-02 1.44531E-02 0.00000E+00
 -1       596 5.62500E-02 1.48437E-02 0.00000E+00
 -1       597 5.72917E-02 1.52344E-02 0.00000E+00
 -1       598 5.83333E-02 1.56250E-02 0.00000E+00
 -1       599 5.93750E-02 1.60156E-02 0.00000E+00
 -1       600 6.04167E-02 1.64062E-02 0.00000E+00
 -1       601 6.14583E-02 1.67969E-02 0.00000E+00
 -1       602 6.25000E-02 1.71875E-02 0.00000E+00
 -1       603 6.35417E-02 1.75781E-02 0.00000E+00
 -1       604 6.45833E-02 1.79687E-02 0.00000E+00
 -1       605 6.56250E-02 1.83594E-02 0.00000E+00
 -1       606 6.77083E-02 1.25000E-02 0.00000E+00
 -1       607 6.87500E-02 1.25000E-02 0.00000E+00
 -1       608 6.97917E-02 1.25000E-02 0.00000E+00
 -1       609 7.08333E-02 1.25000E-02 0.00000E+00
 -1       610 7.18750E-02 1.25000E-02 0.00000E+00
 -1       611 7.29167E-02 1.25000E-02 0.00000E+00
 -1       612 7.39583E-02 1.25000E-02 0.00000E+00
 -1       613 7.50000E-02 1.25000E-02 0.00000E+00
 -1       614 7.60417E-02 1.25000E-02 0.00000E+00
 -1       615 7.70833E-02 1.25000E-02 0.00000E+00
 -1       616 7.81250E-02 1.25000E-02 0.00000E+00
 -1       617 7.91667E-02 1.25000E-02 0.00000E+00
 -1       618 8.02083E-02 1.25000E-02 0.00000E+00
 -1       619 8.12500E-02 1.25000E-02 0.00000E+00
 -1       620 8.22917E-02 1.25000E-02 0.00000E+00
 -1       621 6.66667E-02 1.35417E-02 0.00000E+00
 -1       622 6.66667E-02 1.45833E-02 0.00000E+00
 -1       623 6.66667E-02 1.56250E-02 0.00000E+00
 -1       624 6.66667E-02 1.66667E-02 0.00000E+00
 -1       625 6.66667E-02 1.77083E-02 0.00000E+00
 -1       626 6.77083E-02 1.28906E-02 0.00000E+00
 -1       627 6.87500E-02 1.32813E-02 0.00000E+00
 -1       628 6.97917E-02 1.36719E-02 0.00000E+00
 -1       629 7.08333E-02 1.40625E-02 0.00000E+00
 -1       630 7.18750E-02 1.44531E-02 0.00000E+00
 -1       631 7.29167E-02 1.48437E-02 0.00000E+00
 -1       632 7.39583E-02 1.52344E-02 0.00000E+00
 -1       633 7.50000E-02 1.56250E-02 0.00000E+00
 -1       634 7.60417E-02 1.60156E-02 0.00000E+00
 -1       635 7.70833E-02 1.64062E-02 0.00000E+00
 -1       636 7.81250E-02 1.67969E-02 0.00000E+00
 -1       637 7.91667E-02 1.71875E-02 0.00000E+00
 -1       638 8.02083E-02 1.75781E-02 0.00000E+00
 -1       639 8.12500E-02 1.79687E-02 0.00000E+00
 -1       640 8.22917E-02 1.83594E-02 0.00000E+00
 -1       641 8.43750E-02 1.25000E-02 0.00000E+00
 -1       642 8.54167E-02 1.25000E-02 0.00000E+00
 -1       643 8.64583E-02 1.25000E-02 0.00000E+00
 -1       644 8.75000E-02 1.25000E-02 0.00000E+00
 -1       645 8.85417E-02 1.25000E-02 0.00000E+00
 -1       646 8.95833E-02 1.25000E-02 0.00000E+00
 -1       647 9.06250E-02 1.25000E-02 0.00000E+00
 -1       648 9.16667E-02 1.25000E-02 0.00000E+00
 -1       649 9.27083E-02 1.25000E-02 0.00000E+00
 -1       650 9.37500E-02 1.25000E-02 0.00000E+00
 -1       651 9.47917E-02 1.25000E-02 0.00000E+00
 -1       652 9.58333E-02 1.25000E-02 0.00000E+00
 -1       653 9.68750E-02 1.25000E-02 0.00000E+00
 -1       654 9.79167E-02 1.25000E-02 0.00000E+00
 -1       655 9.89583E-02 1.25000E-02 0.00000E+00
 -1       656 8.33333E-02 1.35417E-02 0.00000E+00
 -1       657 8.33333E-02 1.45833E-02 0.00000E+00
 -1       658 8.33333E-02 1.56250E-02 0.00000E+00
 -1       659 8.33333E-02 1.66667E-02 0.00000E+00
 -1       660 8.33333E-02 1.77083E-02 0.00000E+00
 -1       661 8.43750E-02 1.28906E-02 0.00000E+00
 -1       662 8.54167E-02 1.32813E-02 0.00000E+00
 -1       663 8.64583E-02 1.36719E-02 0.00000E+00
 -1       664 8.75000E-02 1.40625E-02 0.00000E+00
 -1       665 8.85417E-02 1.44531E-02 0.00000E+00
 -1       666 8.95833E-02 1.48437E-02 0.00000E+00
 -1       667 9.06250E-02 1.52344E-02 0.00000E+00
 -1       668 9.16667E-02 1.56250E-02 0.00000E+00
 -1       669 9.27083E-02 1.60156E-02 0.00000E+00
 -1       670 9.37500E-02 1.64062E-02 0.00000E+00
 -1       671 9.47917E-02 1.67969E-02 0.00000E+00
 -1       672 9.58333E-02 1.71875E-02 0.00000E+00
 -1       673 9.68750E-02 1.75781E-02 0.00000E+00
 -1       674 9.79167E-02 1.79687E-02 0.00000E+00
 -1       675 9.89583E-02 1.83594E-02 0.00000E+00
 -1       676 1.00000E-01 1.35417E-02 0.00000E+00
 -1       677 1.00000E-01 1.45833E-02 0.00000E+00
 -1       678 1.00000E-01 1.56250E-02 0.00000E+00
 -1       679 1.00000E-01 1.66667E-02 0.00000E+00
 -1       680 1.00000E-01 1.77083E-02 0.00000E+00
 -1       681 1.04167E-03 1.87500E-02 0.00000E+00
 -1       682 2.08333E-03 1.87500E-02 0.00000E+00
 -1       683 3.12500E-03 1.87500E-02 0.00000E+00
 -1       684 4.16667E-03 1.87500E-02 0.00000E+00
 -1       685 5.20833E-03 1.87500E-02 0.00000E+00
 -1       686 6.25000E-03 1.87500E-02 0.00000E+00
 -1       687 7.29167E-03 1.87500E-02 0.00000E+00
 -1       688 8.33333E-03 1.87500E-02 0.00000E+00
 -1       689 9.37500E-03 1.87500E-02 0.00000E+00
 -1       690 1.04167E-02 1.87500E-02 0.00000E+00
 -1       691 1.14583E-02 1.87500E-02 0.00000E+00
 -1       692 1.25000E-02 1.87500E-02 0.00000E+00
 -1       693 1.35417E-02 1.87500E-02 0.00000E+00
 -1       694 1.45833E-02 1.87500E-02 0.00000E+00
 -1       695 1.56250E-02 1.87500E-02 0.00000E+00
 -1       696 0.00000E+00 1.97917E-02 0.00000E+00
 -1       697 0.00000E+00 2.08333E-02 0.00000E+00
 -1       698 0.00000E+00 2.18750E-02 0.00000E+00
 -1       699 0.00000E+00 2.29167E-02 0.00000E+00
 -1       700 0.00000E+00 2.39583E-02 0.00000E+00
 -1       701 1.04167E-03 1.91406E-02 0.00000E+00
 -1       702 2.08333E-03 1.95312E-02 0.00000E+00
 -1       703 3.12500E-03 1.99219E-02 0.00000E+00
 -1       704 4.16667E-03 2.03125E-02 0.00000E+00
 -1       705 5.20833E-03 2.07031E-02 0.00000E+00
 -1       706 6.25000E-03 2.10938E-02 0.00000E+00
 -1       707 7.29167E-03 2.14844E-02 0.00000E+00
 -1       708 8.33333E-03 2.18750E-02 0.00000E+00
 -1       709 9.37500E-03 2.22656E-02 0.00000E+00
 -1       710 1.04167E-02 2.26563E-02 0.00000E+00
 -1       711 1.14583E-02 2.30469E-02 0.00000E+00
 -1       712 1.25000E-02 2.34375E-02 0.00000E+00
 -1       713 1.35417E-02 2.38281E-02 0.00000E+00
 -1       714 1.45833E-02 2.42187E-02 0.00000E+00
 -1       715 1.56250E-02 2.46094E-02 0.00000E+00
 -1       716 1.77083E-02 1.87500E-02 0.00000E+00
 -1       717 1.87500E-02 1.87500E-02 0.00000E+00
 -1       718 1.97917E-02 1.87500E-02 0.00000E+00
 -1       719 2.08333E-02 1.87500E-02 0.00000E+00
 -1       720 2.18750E-02 1.87500E-02 0.00000E+00
 -1       721 2.29167E-02 1.87500E-02 0.00000E+00
 -1       722 2.39583E-02 1.87500E-02 0.00000E+00
 -1       723 2.50000E-02 1.87500E-02 0.00000E+00
 -1       724 2.60417E-02 1.87500E-02 0.00000E+00
 -1       725 2.70833E-02 1.87500E-02 0.00000E+00
 -1       726 2.81250E-02 1.87500E-02 0.00000E+00
 -1       727 2.91667E-02 1.87500E-02 0.00000E+00
 -1       728 3.02083E-02 1.87500E-02 0.00000E+00
 -1       729 3.12500E-02 1.87500E-02 0.00000E+00
 -1       730 3.22917E-02 1.87500E-02 0.00000E+00
 -1       731 1.66667E-02 1.97917E-02 0.00000E+00
 -1       732 1.66667E-02 2.08333E-02 0.00000E+00
 -1       733 1.66667E-02 2.18750E-02 0.00000E+00
 -1       734 1.66667E-02 2.29167E-02 0.00000E+00
 -1       735 1.66667E-02 2.39583E-02 0.00000E+00
 -1       736 1.77083E-02 1.91406E-02 0.00000E+00
 -1       737 1.87500E-02 1.95312E-02 0.00000E+00
 -1       738 1.97917E-02 1.99219E-02 0.00000E+00
 -1       739 2.08333E-02 2.03125E-02 0.00000E+00
 -1       740 2.18750E-02 2.07031E-02 0.00000E+00
 -1       741 2.29167E-02 2.10938E-02 0.00000E+00
 -1       742 2.39583E-02 2.14844E-02 0.00000E+00
 -1       743 2.50000E-02 2.18750E-02 0.00000E+00
 -1       744 2.60417E-02 2.22656E-02 0.00000E+00
 -1       745 2.70833E-02 2.26563E-02 0.00000E+00
 -1       746 2.81250E-02 2.30469E-02 0.00000E+00
 -1       747 2.91667E-02 2.34375E-02 0.00000E+00
 -1       748 3.02083E-02 2.38281E-02 0.00000E+00
 -1       749 3.12500E-02 2.42187E-02 0.00000E+00
 -1       750 3.22917E-02 2.46094E-02 0.00000E+00
 -1       751 3.43750E-02 1.87500E-02 0.00000E+00
 -1       752 3.54167E-02 1.87500E-02 0.00000E+00
 -1       753 3.64583E-02 1.87500E-02 0.00000E+00
 -1       754 3.75000E-02 1.87500E-02 0.00000E+00
 -1       755 3.85417E-02 1.87500E-02 0.00000E+00
 -1       756 3.95833E-02 1.87500E-02 0.00000E+00
 -1       757 4.06250E-02 1.87500E-02 0.00000E+00
 -1       758 4.16667E-02 1.87500E-02 0.00000E+00
 -1       759 4.27083E-02 1.87500E-02 0.00000E+00
 -1       760 4.37500E-02 1.87500E-02 0.00000E+00
 -1       761 4.47917E-02 1.87500E-02 0.00000E+00
 -1       762 4.58333E-02 1.87500E-02 0.00000E+00
 -1       763 4.68750E-02 1.87500E-02 0.00000E+00
 -1       764 4.79167E-02 1.87500E-02 0.00000E+00
 -1       765 4.89583E-02 1.87500E-02 0.00000E+00
 -1       766 3.33333E-02 1.97917E-02 0.00000E+00
 -1       767 3.33333E-02 2.08333E-02 0.00000E+00
 -1       768 3.33333E-02 2.18750E-02 0.00000E+00
 -1       769 3.33333E-02 2.29167E-02 0.00000E+00
 -1       770 3.33333E-02 2.39583E-02 0.00000E+00
 -1       771 3.43750E-02 1.91406E-02 0.00000E+00
 -1       772 3.54167E-02 1.95312E-02 0.00000E+00
 -1       773 3.64583E-02 1.99219E-02 0.00000E+00
 -1       774 3.75000E-02 2.03125E-02 0.00000E+00
 -1       775 3.85417E-02 2.07031E-02 0.00000E+00
 -1       776 3.95833E-02 2.10938E-02 0.00000E+00
 -1       777 4.06250E-02 2.14844E-02 0.00000E+00
 -1       778 4.16667E-02 2.18750E-02 0.00000E+00
 -1       779 4.27083E-02 2.22656E-02 0.00000E+00
 -1       780 4.37500E-02 2.26563E-02 0.00000E+00
 -1       781 4.47917E-02 2.30469E-02 0.00000E+00
 -1       782 4.58333E-02 2.34375E-02 0.00000E+00
 -1       783 4.68750E-02 2.38281E-02 0.00000E+00
 -1       784 4.79167E-02 2.42187E-02 0.00000E+00
 -1       785 4.89583E-02 2.46094E-02 0.00000E+00
 -1       786 5.10417E-02 1.87500E-02 0.00000E+00
 -1       787 5.20833E-02 1.87500E-02 0.00000E+00
 -1       788 5.31250E-02 1.87500E-02 0.00000E+00
 -1       789 5.41667E-02 1.87500E-02 0.00000E+00
 -1       790 5.52083E-02 1.87500E-02 0.00000E+00
 -1       791 5.62500E-02 1.87500E-02 0.00000E+00
 -1       792 5.72917E-02 1.87500E-02 0.00000E+00
 -1       793 5.83333E-02 1.87500E-02 0.00000E+00
 -1       794 5.93750E-02 1.87500E-02 0.00000E+00
 -1       795 6.04167E-02 1.87500E-02 0.00000E+00
 -1       796 6.14583E-02 1.87500E-02 0.00000E+00
 -1       797 6.25000E-02 1.87500E-02 0.00000E+00
 -1       798 6.35417E-02 1.87500E-02 0.00000E+00
 -1       799 6.45833E-02 1.87500E-02 0.00000E+00
 -1       800 6.56250E-02 1.87500E-02 0.00000E+00
 -1       801 5.00000E-02 1.97917E-02 0.00000E+00
 -1       802 5.00000E-02 2.08333E-02 0.00000E+00
 -1       803 5.00000E-02 2.18750E-02 0.00000E+00
 -1       804 5.00000E-02 2.29167E-02 0.00000E+00
 -1       805 5.00000E-02 2.39583E-02 0.00000E+00
 -1       806 5.10417E-02 1.91406E-02 0.00000E+00
 -1       807 5.20833E-02 1.95312E-02 0.00000E+00
 -1       808 5.31250E-02 1.99219E-02 0.00000E+00
 -1       809 5.41667E-02 2.03125E-02 0.00000E+00
 -1       810 5.52083E-02 2.07031E-02 0.00000E+00
 -1       811 5.62500E-02 2.10938E-02 0.00000E+00
 -1       812 5.72917E-02 2.14844E-02 0.00000E+00
 -1       813 5.83333E-02 2.18750E-02 0.00000E+00
 -1       814 5.93750E-02 2.22656E-02 0.00000E+00
 -1       815 6.04167E-02 2.26563E-02 0.00000E+00
 -1       816 6.14583E-02 2.30469E-02 0.00000E+00
 -1       817 6.25000E-02 2.34375E-02 0.00000E+00
 -1       818 6.35417E-02 2.38281E-02 0.00000E+00
 -1       819 6.45833E-02 2.42187E-02 0.00000E+00
 -1       820 6.56250E-02 2.46094E-02 0.00000E+00
 -1       821 6.77083E-02 1.87500E-02 0.00000E+00
 -1       822 6.87500E-02 1.87500E-02 0.00000E+00
 -1       823 6.97917E-02 1.87500E-02 0.00000E+00
 -1       824 7.08333E-02 1.87500E-02 0.00000E+00
 -1       825 7.18750E-02 1.87500E-02 0.00000E+00
 -1       826 7.29167E-02 1.87500E-02 0.00000E+00
 -1       827 7.39583E-02 1.87500E-02 0.00000E+00
 -1       828 7.50000E-02 1.87500E-02 0.00000E+00
 -1       829 7.60417E-02 1.87500E-02 0.00000E+00
 -1       830 7.70833E-02 1.87500E-02 0.00000E+00
 -1       831 7.81250E-02 1.87500E-02 0.00000E+00
 -1       832 7.91667E-02 1.87500E-02 0.00000E+00
 -1       833 8.02083E-02 1.87500E-02 0.00000E+00
 -1       834 8.12500E-02 1.87500E-02 0.00000E+00
 -1       835 8.22917E-02 1.87500E-02 0.00000E+00
 -1       836 6.66667E-02 1.97917E-02 0.00000E+00
 -1       837 6.66667E-02 2.08333E-02 0.00000E+00
 -1       838 6.66667E-02 2.18750E-02 0.00000E+00
 -1       839 6.66667E-02 2.29167E-02 0.00000E+00
 -1       840 6.66667E-02 2.39583E-02 0.00000E+00
 -1       841 6.77083E-02 1.91406E-02 0.00000E+00
 -1       842 6.87500E-02 1.95312E-02 0.00000E+00
 -1       843 6.97917E-02 1.99219E-02 0.00000E+00
 -1       844 7.08333E-02 2.03125E-02 0.00000E+00
 -1       845 7.18750E-02 2.07031E-02 0.00000E+00
 -1       846 7.29167E-02 2.10938E-02 0.00000E+00
 -1       847 7.39583E-02 2.14844E-02 0.00000E+00
 -1       848 7.50000E-02 2.18750E-02 0.00000E+00
 -1       849 7.60417E-02 2.22656E-02 0.00000E+00
 -1       850 7.70833E-02 2.26563E-02 0.00000E+00
 -1       851 7.81250E-02 2.30469E-02 0.00000E+00
 -1       852 7.91667E-02 2.34375E-02 0.00000E+00
 -1       853 8.02083E-02 2.38281E-02 0.00000E+00
 -1       854 8.12500E-02 2.42187E-02 0.00000E+00
 -1       855 8.22917E-02 2.46094E-02 0.00000E+00
 -1       856 8.43750E-02 1.87500E-02 0.00000E+00
 -1       857 8.54167E-02 1.87500E-02 0.00000E+00
 -1       858 8.64583E-02 1.87500E-02 0.00000E+00
 -1       859 8.75000E-02 1.87500E-02 0.00000E+00
 -1       860 8.85417E-02 1.87500E-02 0.00000E+00
 -1       861 8.95833E-02 1.87500E-02 0.00000E+00
 -1       862 9.06250E-02 1.87500E-02 0.00000E+00
 -1       863 9.16667E-02 1.87500E-02 0.00000E+00
 -1       864 9.27083E-02 1.87500E-02 0.00000E+00
 -1       865 9.37500E-02 1.87500E-02 0.00000E+00
 -1       866 9.47917E-02 1.87500E-02 0.00000E+00
 -1       867 9.58333E-02 1.87500E-02 0.00000E+00
 -1       868 9.68750E-02 1.87500E-02 0.00000E+00
 -1       869 9.79167E-02 1.87500E-02 0.00000E+00
 -1       870 9.89583E-02 1.87500E-02 0.00000E+00
 -1       871 8.33333E-02 1.97917E-02 0.00000E+00
 -1       872 8.33333E-02 2.08333E-02 0.00000E+00
 -1       873 8.33333E-02 2.18750E-02 0.00000E+00
 -1       874 8.33333E-02 2.29167E-02 0.00000E+00
 -1       875 8.33333E-02 2.39583E-02 0.00000E+00
 -1       876 8.43750E-02 1.91406E-02 0.00000E+00
 -1       877 8.54167E-02 1.95312E-02 0.00000E+00
 -1       878 8.64583E-02 1.99219E-02 0.00000E+00
 -1       879 8.75000E-02 2.03125E-02 0.00000E+00
 -1       880 8.85417E-02 2.07031E-02 0.00000E+00
 -1       881 8.95833E-02 2.10938E-02 0.00000E+00
 -1       882 9.06250E-02 2.14844E-02 0.00000E+00
 -1       883 9.16667E-02 2.18750E-02 0.00000E+00
 -1       884 9.27083E-02 2.22656E-02 0.00000E+00
 -1       885 9.37500E-02 2.26563E-02 0.00000E+00
 -1       886 9.47917E-02 2.30469E-02 0.00000E+00
 -1       887 9.58333E-02 2.34375E-02 0.00000E+00
 -1       888 9.68750E-02 2.38281E-02 0.00000E+00
 -1       889 9.79167E-02 2.42187E-02 0.00000E+00
 -1       890 9.89583E-02 2.46094E-02 0.00000E+00
 -1       891 1.00000E-01 1.97917E-02 0.00000E+00
 -1       892 1.00000E-01 2.08333E-02 0.00000E+00
 -1       893 1.00000E-01 2.18750E-02 0.00000E+00
 -1       894 1.00000E-01 2.29167E-02 0.00000E+00
 -1       895 1.00000E-01 2.39583E-02 0.00000E+00
 -1       896 1.04167E-03 2.50000E-02 0.00000E+00
 -1       897 2.08333E-03 2.50000E-02 0.00000E+00
 -1       898 3.12500E-03 2.50000E-02 0.00000E+00
 -1       899 4.16667E-03 2.50000E-02 0.00000E+00
 -1       900 5.20833E-03 2.50000E-02 0.00000E+00
 -1       901 6.25000E-03 2.50000E-02 0.00000E+00
 -1       902 7.29167E-03 2.50000E-02 0.00000E+00
 -1       903 8.33333E-03 2.50000E-02 0.00000E+00
 -1       904 9.37500E-03 2.50000E-02 0.00000E+00
 -1       905 1.04167E-02 2.50000E-02 0.00000E+00
 -1       906 1.14583E-02 2.50000E-02 0.00000E+00
 -1       907 1.25000E-02 2.50000E-02 0.00000E+00
 -1       908 1.35417E-02 2.50000E-02 0.00000E+00
 -1       909 1.45833E-02 2.50000E-02 0.00000E+00
 -1       910 1.56250E-02 2.50000E-02 0.00000E+00
 -1       911 1.77083E-02 2.50000E-02 0.00000E+00
 -1       912 1.87500E-02 2.50000E-02 0.00000E+00
 -1       913 1.97917E-02 2.50000E-02 0.00000E+00
 -1       914 2.08333E-02 2.50000E-02 0.00000E+00
 -1       915 2.18750E-02 2.50000E-02 0.00000E+00
 -1       916 2.29167E-02 2.50000E-02 0.00000E+00
 -1       917 2.39583E-02 2.50000E-02 0.00000E+00
 -1       918 2.50000E-02 2.50000E-02 0.00000E+00
 -1       919 2.60417E-02 2.50000E-02 0.00000E+00
 -1       920 2.70833E-02 2.50000E-02 0.00000E+00
 -1       921 2.81250E-02 2.50000E-02 0.00000E+00
 -1       922 2.91667E-02 2.50000E-02 0.00000E+00
 -1       923 3.02083E-02 2.50000E-02 0.00000E+00
 -1       924 3.12500E-02 2.50000E-02 0.00000E+00
 -1       925 3.22917E-02 2.50000E-02 0.00000E+00
 -1       926 3.43750E-02 2.50000E-02 0.00000E+00
 -1       927 3.54167E-02 2.50000E-02 0.00000E+00
 -1       928 3.64583E-02 2.50000E-02 0.00000E+00
 -1       929 3.75000E-02 2.50000E-02 0.00000E+00
 -1       930 3.85417E-02 2.50000E-02 0.00000E+00
 -1       931 3.95833E-02 2.50000E-02 0.00000E+00
 -1       932 4.06250E-02 2.50000E-02 0.00000E+00
 -1       933 4.16667E-02 2.50000E-02 0.00000E+00
 -1       934 4.27083E-02 2.50000E-02 0.00000E+00
 -1       935 4.37500E-02 2.50000E-02 0.00000E+00
 -1       936 4.47917E-02 2.50000E-02 0.00000E+00
 -1       937 4.58333E-02 2.50000E-02 0.00000E+00
 -1       938 4.68750E-02 2.50000E-02 0.00000E+00
 -1       939 4.79167E-02 2.50000E-02 0.00000E+00
 -1       940 4.89583E-02 2.50000E-02 0.00000E+00
 -1       941 5.10417E-02 2.50000E-02 0.00000E+00
 -1       942 5.20833E-02 2.50000E-02 0.00000E+00
 -1       943 5.31250E-02 2.50000E-02 0.00000E+00
 -1       944 5.41667E-02 2.50000E-02 0.00000E+00
 -1       945 5.52083E-02 2.50000E-02 0.00000E+00
 -1       946 5.62500E-02 2.50000E-02 0.00000E+00
 -1       947 5.72917E-02 2.50000E-02 0.00000E+00
 -1       948 5.83333E-02 2.50000E-02 0.00000E+00
 -1       949 5.93750E-02 2.50000E-02 0.00000E+00
 -1       950 6.04167E-02 2.50000E-02 0.00000E+00
 -1       951 6.14583E-02 2.50000E-02 0.00000E+00
 -1       952 6.25000E-02 2.50000E-02 0.00000E+00
 -1       953 6.35417E-02 2.50000E-02 0.00000E+00
 -1       954 6.45833E-02 2.50000E-02 0.00000E+00
 -1       955 6.56250E-02 2.50000E-02 0.00000E+00
 -1       956 6.77083E-02 2.50000E-02 0.00000E+00
 -1       957 6.87500E-02 2.50000E-02 0.00000E+00
 -1       958 6.97917E-02 2.50000E-02 0.00000E+00
 -1       959 7.08333E-02 2.50000E-02 0.00000E+00
 -1       960 7.18750E-02 2.50000E-02 0.00000E+00
 -1       961 7.29167E-02 2.50000E-02 0.00000E+00
 -1       962 7.39583E-02 2.50000E-02 0.00000E+00
 -1       963 7.50000E-02 2.50000E-02 0.00000E+00
 -1       964 7.60417E-02 2.50000E-02 0.00000E+00
 -1       965 7.70833E-02 2.50000E-02 0.00000E+00
 -1       966 7.81250E-02 2.50000E-02 0.00000E+00
 -1       967 7.91667E-02 2.50000E-02 0.00000E+00
 -1       968 8.02083E-02 2.50000E-02 0.00000E+00
 -1       969 8.12500E-02 2.50000E-02 0.00000E+00
 -1       970 8.22917E-02 2.50000E-02 0.00000E+00
 -1       971 8.43750E-02 2.50000E-02 0.00000E+00
 -1       972 8.54167E-02 2.50000E-02 0.00000E+00
 -1       973 8.64583E-02 2.50000E-02 0.00000E+00
 -1       974 8.75000E-02 2.50000E-02 0.00000E+00
 -1       975 8.85417E-02 2.50000E-02 0.00000E+00
 -1       976 8.95833E-02 2.50000E-02 0.00000E+00
 -1       977 9.06250E-02 2.50000E-02 0.00000E+00
 -1       978 9.16667E-02 2.50000E-02 0.00000E+00
 -1       979 9.27083E-02 2.50000E-02 0.00000E+00
 -1       980 9.37500E-02 2.50000E-02 0.00000E+00
 -1       981 9.47917E-02 2.50000E-02 0.00000E+00
 -1       982 9.58333E-02 2.50000E-02 0.00000E+00
 -1       983 9.68750E-02 2.50000E-02 0.00000E+00
 -1       984 9.79167E-02 2.50000E-02 0.00000E+00
 -1       985 9.89583E-02 2.50000E-02 0.00000E+00
 -3
    3C                           440                                     1
 -1         1   12    0    1
 -2         1        37        36
 -1         2   12    0    1
 -2        37        39        38
 -1         3   12    0    1
 -2        39        41        40
 -1         4   12    0    1
 -2        41        43        42
 -1         5   12    0    1
 -2        43        45        44
 -1         6   12    0    1
 -2        45        47        46
 -1         7   12    0    1
 -2        47        49        48
 -1         8   12    0    1
 -2        49         2        50
 -1         9   12    0    1
 -2         1        52        51
 -1        10   12    0    1
 -2        52        54        53
 -1        11   12    0    1
 -2        54         8        55
 -1        12   12    0    1
 -2         1        57        56
 -1        13   12    0    1
 -2        57        59        58
 -1        14   12    0    1
 -2        59        61        60
 -1        15   12    0    1
 -2        61        63        62
 -1        16   12    0    1
 -2        63        65        64
 -1        17   12    0    1
 -2        65        67        66
 -1        18   12    0    1
 -2        67        69        68
 -1        19   12    0    1
 -2        69         9        70
 -1        20   12    0    1
 -2         2        72        71
 -1        21   12    0    1
 -2        72        74        73
 -1        22   12    0    1
 -2        74        76        75
 -1        23   12    0    1
 -2        76        78        77
 -1        24   12    0    1
 -2        78        80        79
 -1        25   12    0    1
 -2        80        82        81
 -1        26   12    0    1
 -2        82        84        83
 -1        27   12    0    1
 -2        84         3        85
 -1        28   12    0    1
 -2         2        87        86
 -1        29   12    0    1
 -2        87        89        88
 -1        30   12    0    1
 -2        89         9        90
 -1        31   12    0    1
 -2         2        92        91
 -1        32   12    0    1
 -2        92        94        93
 -1        33   12    0    1
 -2        94        96        95
 -1        34   12    0    1
 -2        96        98        97
 -1        35   12    0    1
 -2        98       100        99
 -1        36   12    0    1
 -2       100       102       101
 -1        37   12    0    1
 -2       102       104       103
 -1        38   12    0    1
 -2       104        10       105
 -1        39   12    0    1
 -2         3       107       106
 -1        40   12    0    1
 -2       107       109       108
 -1        41   12    0    1
 -2       109       111       110
 -1        42   12    0    1
 -2       111       113       112
 -1        43   12    0    1
 -2       113       115       114
 -1        44   12    0    1
 -2       115       117       116
 -1        45   12    0    1
 -2       117       119       118
 -1        46   12    0    1
 -2       119         4       120
 -1        47   12    0    1
 -2         3       122       121
 -1        48   12    0    1
 -2       122       124       123
 -1        49   12    0    1
 -2       124        10       125
 -1        50   12    0    1
 -2         3       127       126
 -1        51   12    0    1
 -2       127       129       128
 -1        52   12    0    1
 -2       129       131       130
 -1        53   12    0    1
 -2       131       133       132
 -1        54   12    0    1
 -2       133       135       134
 -1        55   12    0    1
 -2       135       137       136
 -1        56   12    0    1
 -2       137       139       138
 -1        57   12    0    1
 -2       139        11       140
 -1        58   12    0    1
 -2         4       142       141
 -1        59   12    0    1
 -2       142       144       143
 -1        60   12    0    1
 -2       144       146       145
 -1        61   12    0    1
 -2       146       148       147
 -1        62   12    0    1
 -2       148       150       149
 -1        63   12    0    1
 -2       150       152       151
 -1        64   12    0    1
 -2       152       154       153
 -1        65   12    0    1
 -2       154         5       155
 -1        66   12    0    1
 -2         4       157       156
 -1        67   12    0    1
 -2       157       159       158
 -1        68   12    0    1
 -2       159        11       160
 -1        69   12    0    1
 -2         4       162       161
 -1        70   12    0    1
 -2       162       164       163
 -1        71   12    0    1
 -2       164       166       165
 -1        72   12    0    1
 -2       166       168       167
 -1        73   12    0    1
 -2       168       170       169
 -1        74   12    0    1
 -2       170       172       171
 -1        75   12    0    1
 -2       172       174       173
 -1        76   12    0    1
 -2       174        12       175
 -1        77   12    0    1
 -2         5       192       191
 -1        78   12    0    1
 -2       192       194       193
 -1        79   12    0    1
 -2       194        12       195
 -1        80   12    0    1
 -2         8       252       251
 -1        81   12    0    1
 -2       252       254       253
 -1        82   12    0    1
 -2       254       256       255
 -1        83   12    0    1
 -2       256       258       257
 -1        84   12    0    1
 -2       258       260       259
 -1        85   12    0    1
 -2       260       262       261
 -1        86   12    0    1
 -2       262       264       263
 -1        87   12    0    1
 -2       264         9       265
 -1        88   12    0    1
 -2         8       267       266
 -1        89   12    0    1
 -2       267       269       268
 -1        90   12    0    1
 -2       269        15       270
 -1        91   12    0    1
 -2         8       272       271
 -1        92   12    0    1
 -2       272       274       273
 -1        93   12    0    1
 -2       274       276       275
 -1        94   12    0    1
 -2       276       278       277
 -1        95   12    0    1
 -2       278       280       279
 -1        96   12    0    1
 -2       280       282       281
 -1        97   12    0    1
 -2       282       284       283
 -1        98   12    0    1
 -2       284        16       285
 -1        99   12    0    1
 -2         9       287       286
 -1       100   12    0    1
 -2       287       289       288
 -1       101   12    0    1
 -2       289       291       290
 -1       102   12    0    1
 -2       291       293       292
 -1       103   12    0    1
 -2       293       295       294
 -1       104   12    0    1
 -2       295       297       296
 -1       105   12    0    1
 -2       297       299       298
 -1       106   12    0    1
 -2       299        10       300
 -1       107   12    0    1
 -2         9       302       301
 -1       108   12    0    1
 -2       302       304       303
 -1       109   12    0    1
 -2       304        16       305
 -1       110   12    0    1
 -2         9       307       306
 -1       111   12    0    1
 -2       307       309       308
 -1       112   12    0    1
 -2       309       311       310
 -1       113   12    0    1
 -2       311       313       312
 -1       114   12    0    1
 -2       313       315       314
 -1       115   12    0    1
 -2       315       317       316
 -1       116   12    0    1
 -2       317       319       318
 -1       117   12    0    1
 -2       319        17       320
 -1       118   12    0    1
 -2        10       322       321
 -1       119   12    0    1
 -2       322       324       323
 -1       120   12    0    1
 -2       324       326       325
 -1       121   12    0    1
 -2       326       328       327
 -1       122   12    0    1
 -2       328       330       329
 -1       123   12    0    1
 -2       330       332       331
 -1       124   12    0    1
 -2       332       334       333
 -1       125   12    0    1
 -2       334        11       335
 -1       126   12    0    1
 -2        10       337       336
 -1       127   12    0    1
 -2       337       339       338
 -1       128   12    0    1
 -2       339        17       340
 -1       129   12    0    1
 -2        10       342       341
 -1       130   12    0    1
 -2       342       344       343
 -1       131   12    0    1
 -2       344       346       345
 -1       132   12    0    1
 -2       346       348       347
 -1       133   12    0    1
 -2       348       350       349
 -1       134   12    0    1
 -2       350       352       351
 -1       135   12    0    1
 -2       352       354       353
 -1       136   12    0    1
 -2       354        18       355
 -1       137   12    0    1
 -2        11       357       356
 -1       138   12    0    1
 -2       357       359       358
 -1       139   12    0    1
 -2       359       361       360
 -1       140   12    0    1
 -2       361       363       362
 -1       141   12    0    1
 -2       363       365       364
 -1       142   12    0    1
 -2       365       367       366
 -1       143   12    0    1
 -2       367       369       368
 -1       144   12    0    1
 -2       369        12       370
 -1       145   12    0    1
 -2        11       372       371
 -1       146   12    0    1
 -2       372       374       373
 -1       147   12    0    1
 -2       374        18       375
 -1       148   12    0    1
 -2        11       377       376
 -1       149   12    0    1
 -2       377       379       378
 -1       150   12    0    1
 -2       379       381       380
 -1       151   12    0    1
 -2       381       383       382
 -1       152   12    0    1
 -2       383       385       384
 -1       153   12    0    1
 -2       385       387       386
 -1       154   12    0    1
 -2       387       389       388
 -1       155   12    0    1
 -2       389        19       390
 -1       156   12    0    1
 -2        12       407       406
 -1       157   12    0    1
 -2       407       409       408
 -1       158   12    0    1
 -2       409        19       410
 -1       159   12    0    1
 -2        15       467       466
 -1       160   12    0    1
 -2       467       469       468
 -1       161   12    0    1
 -2       469       471       470
 -1       162   12    0    1
 -2       471       473       472
 -1       163   12    0    1
 -2       473       475       474
 -1       164   12    0    1
 -2       475       477       476
 -1       165   12    0    1
 -2       477       479       478
 -1       166   12    0    1
 -2       479        16       480
 -1       167   12    0    1
 -2        15       482       481
 -1       168   12    0    1
 -2       482       484       483
 -1       169   12    0    1
 -2       484        22       485
 -1       170   12    0    1
 -2        15       487       486
 -1       171   12    0    1
 -2       487       489       488
 -1       172   12    0    1
 -2       489       491       490
 -1       173   12    0    1
 -2       491       493       492
 -1       174   12    0    1
 -2       493       495       494
 -1       175   12    0    1
 -2       495       497       496
 -1       176   12    0    1
 -2       497       499       498
 -1       177   12    0    1
 -2       499        23       500
 -1       178   12    0    1
 -2        16       502       501
 -1       179   12    0    1
 -2       502       504       503
 -1       180   12    0    1
 -2       504       506       505
 -1       181   12    0    1
 -2       506       508       507
 -1       182   12    0    1
 -2       508       510       509
 -1       183   12    0    1
 -2       510       512       511
 -1       184   12    0    1
 -2       512       514       513
 -1       185   12    0    1
 -2       514        17       515
 -1       186   12    0    1
 -2        16       517       516
 -1       187   12    0    1
 -2       517       519       518
 -1       188   12    0    1
 -2       519        23       520
 -1       189   12    0    1
 -2        16       522       521
 -1       190   12    0    1
 -2       522       524       523
 -1       191   12    0    1
 -2       524       526       525
 -1       192   12    0    1
 -2       526       528       527
 -1       193   12    0    1
 -2       528       530       529
 -1       194   12    0    1
 -2       530       532       531
 -1       195   12    0    1
 -2       532       534       533
 -1       196   12    0    1
 -2       534        24       535
 -1       197   12    0    1
 -2        17       537       536
 -1       198   12    0    1
 -2       537       539       538
 -1       199   12    0    1
 -2       539       541       540
 -1       200   12    0    1
 -2       541       543       542
 -1       201   12    0    1
 -2       543       545       544
 -1       202   12    0    1
 -2       545       547       546
 -1       203   12    0    1
 -2       547       549       548
 -1       204   12    0    1
 -2       549        18       550
 -1       205   12    0    1
 -2        17       552       551
 -1       206   12    0    1
 -2       552       554       553
 -1       207   12    0    1
 -2       554        24       555
 -1       208   12    0    1
 -2        17       557       556
 -1       209   12    0    1
 -2       557       559       558
 -1       210   12    0    1
 -2       559       561       560
 -1       211   12    0    1
 -2       561       563       562
 -1       212   12    0    1
 -2       563       565       564
 -1       213   12    0    1
 -2       565       567       566
 -1       214   12    0    1
 -2       567       569       568
 -1       215   12    0    1
 -2       569        25       570
 -1       216   12    0    1
 -2        18       572       571
 -1       217   12    0    1
 -2       572       574       573
 -1       218   12    0    1
 -2       574       576       575
 -1       219   12    0    1
 -2       576       578       577
 -1       220   12    0    1
 -2       578       580       579
 -1       221   12    0    1
 -2       580       582       581
 -1       222   12    0    1
 -2       582       584       583
 -1       223   12    0    1
 -2       584        19       585
 -1       224   12    0    1
 -2        18       587       586
 -1       225   12    0    1
 -2       587       589       588
 -1       226   12    0    1
 -2       589        25       590
 -1       227   12    0    1
 -2        18       592       591
 -1       228   12    0    1
 -2       592       594       593
 -1       229   12    0    1
 -2       594       596       595
 -1       230   12    0    1
 -2       596       598       597
 -1       231   12    0    1
 -2       598       600       599
 -1       232   12    0    1
 -2       600       602       601
 -1       233   12    0    1
 -2       602       604       603
 -1       234   12    0    1
 -2       604        26       605
 -1       235   12    0    1
 -2        19       607       606
 -1       236   12    0    1
 -2       607       609       608
 -1       237   12    0    1
 -2       609       611       610
 -1       238   12    0    1
 -2       611       613       612
 -1       239   12    0    1
 -2       613       615       614
 -1       240   12    0    1
 -2       615       617       616
 -1       241   12    0    1
 -2       617       619       618
 -1       242   12    0    1
 -2       619        20       620
 -1       243   12    0    1
 -2        19       622       621
 -1       244   12    0    1
 -2       622       624       623
 -1       245   12    0    1
 -2       624        26       625
 -1       246   12    0    1
 -2        19       627       626
 -1       247   12    0    1
 -2       627       629       628
 -1       248   12    0    1
 -2       629       631       630
 -1       249   12    0    1
 -2       631       633       632
 -1       250   12    0    1
 -2       633       635       634
 -1       251   12    0    1
 -2       635       637       636
 -1       252   12    0    1
 -2       637       639       638
 -1       253   12    0    1
 -2       639        27       640
 -1       254   12    0    1
 -2        20       642       641
 -1       255   12    0    1
 -2       642       644       643
 -1       256   12    0    1
 -2       644       646       645
 -1       257   12    0    1
 -2       646       648       647
 -1       258   12    0    1
 -2       648       650       649
 -1       259   12    0    1
 -2       650       652       651
 -1       260   12    0    1
 -2       652       654       653
 -1       261   12    0    1
 -2       654        21       655
 -1       262   12    0    1
 -2        20       657       656
 -1       263   12    0    1
 -2       657       659       658
 -1       264   12    0    1
 -2       659        27       660
 -1       265   12    0    1
 -2        20       662       661
 -1       266   12    0    1
 -2       662       664       663
 -1       267   12    0    1
 -2       664       666       665
 -1       268   12    0    1
 -2       666       668       667
 -1       269   12    0    1
 -2       668       670       669
 -1       270   12    0    1
 -2       670       672       671
 -1       271   12    0    1
 -2       672       674       673
 -1       272   12    0    1
 -2       674        28       675
 -1       273   12    0    1
 -2        21       677       676
 -1       274   12    0    1
 -2       677       679       678
 -1       275   12    0    1
 -2       679        28       680
 -1       276   12    0    1
 -2        22       682       681
 -1       277   12    0    1
 -2       682       684       683
 -1       278   12    0    1
 -2       684       686       685
 -1       279   12    0    1
 -2       686       688       687
 -1       280   12    0    1
 -2       688       690       689
 -1       281   12    0    1
 -2       690       692       691
 -1       282   12    0    1
 -2       692       694       693
 -1       283   12    0    1
 -2       694        23       695
 -1       284   12    0    1
 -2        22       697       696
 -1       285   12    0    1
 -2       697       699       698
 -1       286   12    0    1
 -2       699        29       700
 -1       287   12    0    1
 -2        22       702       701
 -1       288   12    0    1
 -2       702       704       703
 -1       289   12    0    1
 -2       704       706       705
 -1       290   12    0    1
 -2       706       708       707
 -1       291   12    0    1
 -2       708       710       709
 -1       292   12    0    1
 -2       710       712       711
 -1       293   12    0    1
 -2       712       714       713
 -1       294   12    0    1
 -2       714        30       715
 -1       295   12    0    1
 -2        23       717       716
 -1       296   12    0    1
 -2       717       719       718
 -1       297   12    0    1
 -2       719       721       720
 -1       298   12    0    1
 -2       721       723       722
 -1       299   12    0    1
 -2       723       725       724
 -1       300   12    0    1
 -2       725       727       726
 -1       301   12    0    1
 -2       727       729       728
 -1       302   12    0    1
 -2       729        24       730
 -1       303   12    0    1
 -2        23       732       731
 -1       304   12    0    1
 -2       732       734       733
 -1       305   12    0    1
 -2       734        30       735
 -1       306   12    0    1
 -2        23       737       736
 -1       307   12    0    1
 -2       737       739       738
 -1       308   12    0    1
 -2       739       741       740
 -1       309   12    0    1
 -2       741       743       742
 -1       310   12    0    1
 -2       743       745       744
 -1       311   12    0    1
 -2       745       747       746
 -1       312   12    0    1
 -2       747       749       748
 -1       313   12    0    1
 -2       749        31       750
 -1       314   12    0    1
 -2        24       752       751
 -1       315   12    0    1
 -2       752       754       753
 -1       316   12    0    1
 -2       754       756       755
 -1       317   12    0    1
 -2       756       758       757
 -1       318   12    0    1
 -2       758       760       759
 -1       319   12    0    1
 -2       760       762       761
 -1       320   12    0    1
 -2       762       764       763
 -1       321   12    0    1
 -2       764        25       765
 -1       322   12    0    1
 -2        24       767       766
 -1       323   12    0    1
 -2       767       769       768
 -1       324   12    0    1
 -2       769        31       770
 -1       325   12    0    1
 -2        24       772       771
 -1       326   12    0    1
 -2       772       774       773
 -1       327   12    0    1
 -2       774       776       775
 -1       328   12    0    1
 -2       776       778       777
 -1       329   12    0    1
 -2       778       780       779
 -1       330   12    0    1
 -2       780       782       781
 -1       331   12    0    1
 -2       782       784       783
 -1       332   12    0    1
 -2       784        32       785
 -1       333   12    0    1
 -2        25       787       786
 -1       334   12    0    1
 -2       787       789       788
 -1       335   12    0    1
 -2       789       791       790
 -1       336   12    0    1
 -2       791       793       792
 -1       337   12    0    1
 -2       793       795       794
 -1       338   12    0    1
 -2       795       797       796
 -1       339   12    0    1
 -2       797       799       798
 -1       340   12    0    1
 -2       799        26       800
 -1       341   12    0    1
 -2        25       802       801
 -1       342   12    0    1
 -2       802       804       803
 -1       343   12    0    1
 -2       804        32       805
 -1       344   12    0    1
 -2        25       807       806
 -1       345   12    0    1
 -2       807       809       808
 -1       346   12    0    1
 -2       809       811       810
 -1       347   12    0    1
 -2       811       813       812
 -1       348   12    0    1
 -2       813       815       814
 -1       349   12    0    1
 -2       815       817       816
 -1       350   12    0    1
 -2       817       819       818
 -1       351   12    0    1
 -2       819        33       820
 -1       352   12    0    1
 -2        26       822       821
 -1       353   12    0    1
 -2       822       824       823
 -1       354   12    0    1
 -2       824       826       825
 -1       355   12    0    1
 -2       826       828       827
 -1       356   12    0    1
 -2       828       830       829
 -1       357   12    0    1
 -2       830       832       831
 -1       358   12    0    1
 -2       832       834       833
 -1       359   12    0    1
 -2       834        27       835
 -1       360   12    0    1
 -2        26       837       836
 -1       361   12    0    1
 -2       837       839       838
 -1       362   12    0    1
 -2       839        33       840
 -1       363   12    0    1
 -2        26       842       841
 -1       364   12    0    1
 -2       842       844       843
 -1       365   12    0    1
 -2       844       846       845
 -1       366   12    0    1
 -2       846       848       847
 -1       367   12    0    1
 -2       848       850       849
 -1       368   12    0    1
 -2       850       852       851
 -1       369   12    0    1
 -2       852       854       853
 -1       370   12    0    1
 -2       854        34       855
 -1       371   12    0    1
 -2        27       857       856
 -1       372   12    0    1
 -2       857       859       858
 -1       373   12    0    1
 -2       859       861       860
 -1       374   12    0    1
 -2       861       863       862
 -1       375   12    0    1
 -2       863       865       864
 -1       376   12    0    1
 -2       865       867       866
 -1       377   12    0    1
 -2       867       869       868
 -1       378   12    0    1
 -2       869        28       870
 -1       379   12    0    1
 -2        27       872       871
 -1       380   12    0    1
 -2       872       874       873
 -1       381   12    0    1
 -2       874        34       875
 -1       382   12    0    1
 -2        27       877       876
 -1       383   12    0    1
 -2       877       879       878
 -1       384   12    0    1
 -2       879       881       880
 -1       385   12    0    1
 -2       881       883       882
 -1       386   12    0    1
 -2       883       885       884
 -1       387   12    0    1
 -2       885       887       886
 -1       388   12    0    1
 -2       887       889       888
 -1       389   12    0    1
 -2       889        35       890
 -1       390   12    0    1
 -2        28       892       891
 -1       391   12    0    1
 -2       892       894       893
 -1       392   12    0    1
 -2       894        35       895
 -1       393   12    0    1
 -2        29       897       896
 -1       394   12    0    1
 -2       897       899       898
 -1       395   12    0    1
 -2       899       901       900
 -1       396   12    0    1
 -2       901       903       902
 -1       397   12    0    1
 -2       903       905       904
 -1       398   12    0    1
 -2       905       907       906
 -1       399   12    0    1
 -2       907       909       908
 -1       400   12    0    1
 -2       909        30       910
 -1       401   12    0    1
 -2        30       912       911
 -1       402   12    0    1
 -2       912       914       913
 -1       403   12    0    1
 -2       914       916       915
 -1       404   12    0    1
 -2       916       918       917
 -1       405   12    0    1
 -2       918       920       919
 -1       406   12    0    1
 -2       920       922       921
 -1       407   12    0    1
 -2       922       924       923
 -1       408   12    0    1
 -2       924        31       925
 -1       409   12    0    1
 -2        31       927       926
 -1       410   12    0    1
 -2       927       929       928
 -1       411   12    0    1
 -2       929       931       930
 -1       412   12    0    1
 -2       931       933       932
 -1       413   12    0    1
 -2       933       935       934
 -1       414   12    0    1
 -2       935       937       936
 -1       415   12    0    1
 -2       937       939       938
 -1       416   12    0    1
 -2       939        32       940
 -1       417   12    0    1
 -2        32       942       941
 -1       418   12    0    1
 -2       942       944       943
 -1       419   12    0    1
 -2       944       946       945
 -1       420   12    0    1
 -2       946       948       947
 -1       421   12    0    1
 -2       948       950       949
 -1       422   12    0    1
 -2       950       952       951
 -1       423   12    0    1
 -2       952       954       953
 -1       424   12    0    1
 -2       954        33       955
 -1       425   12    0    1
 -2        33       957       956
 -1       426   12    0    1
 -2       957       959       958
 -1       427   12    0    1
 -2       959       961       960
 -1       428   12    0    1
 -2       961       963       962
 -1       429   12    0    1
 -2       963       965       964
 -1       430   12    0    1
 -2       965       967       966
 -1       431   12    0    1
 -2       967       969       968
 -1       432   12    0    1
 -2       969        34       970
 -1       433   12    0    1
 -2        34       972       971
 -1       434   12    0    1
 -2       972       974       973
 -1       435   12    0    1
 -2       974       976       975
 -1       436   12    0    1
 -2       976       978       977
 -1       437   12    0    1
 -2       978       980       979
 -1       438   12    0    1
 -2       980       982       981
 -1       439   12    0    1
 -2       982       984       983
 -1       440   12    0    1
 -2       984        35       985
 -3
    1PSTEP                         1           1           1          
  100CL  101 1.000000000         841                     0    1           1
 -4  DISP        4    1
 -5  D1          1    2    1    0
 -5  D2          1    2    2    0
 -5  D3          1    2    3    0
 -5  ALL         1    2    0    0    1ALL
 -1         1 7.00842E-05 0.00000E+00 0.00000E+00
 -1         2 5.58089E-05 0.00000E+00 0.00000E+00
 -1         3 5.05776E-05 0.00000E+00 0.00000E+00
 -1         4 4.94576E-05 0.00000E+00 0.00000E+00
 -1         5 4.95266E-05 0.00000E+00 0.00000E+00
 -1         8 4.47708E-05-1.25116E-06 0.00000E+00
 -1         9 4.59819E-05 1.23995E-06 0.00000E+00
 -1        10 4.55618E-05-1.25423E-06 0.00000E+00
 -1        11 4.60330E-05-3.23578E-07 0.00000E+00
 -1        12 4.71106E-05 3.08842E-06 0.00000E+00
 -1        15 2.08675E-05-1.73654E-06 0.00000E+00
 -1        16 2.70921E-05 1.44680E-06 0.00000E+00
 -1        17 2.94357E-05-2.56517E-06 0.00000E+00
 -1        18 3.46398E-05-6.56618E-07 0.00000E+00
 -1        19 3.91076E-05 6.08353E-06 0.00000E+00
 -1        20 4.03037E-05 5.71310E-05 0.00000E+00
 -1        21 4.02566E-05 1.16572E-04 0.00000E+00
 -1        22 8.92363E-06-1.10506E-06 0.00000E+00
 -1        23 1.15808E-05 1.82857E-06 0.00000E+00
 -1        24 1.37563E-05-3.04624E-06 0.00000E+00
 -1        25 2.17005E-05-4.22844E-07 0.00000E+00
 -1        26 2.68891E-05 7.92682E-06 0.00000E+00
 -1        27 2.34502E-05 5.61517E-05 0.00000E+00
 -1        28 2.12156E-05 1.15694E-04 0.00000E+00
 -1        29 0.00000E+00 0.00000E+00 0.00000E+00
 -1        30 4.34196E-06 2.22622E-06 0.00000E+00
 -1        31 5.44104E-06-2.17081E-06 0.00000E+00
 -1        32 0.00000E+00 0.00000E+00 0.00000E+00
 -1        33 1.01079E-05 1.05731E-05 0.00000E+00
 -1        34 8.03358E-06 5.60361E-05 0.00000E+00
 -1        35 4.69305E-06 1.15210E-04 0.00000E+00
 -1        36 6.92050E-05-3.82488E-21 0.00000E+00
 -1        37 6.83120E-05-5.88291E-21-1.32349E-23
 -1        38 6.74187E-05-3.58666E-21 0.00000E+00
 -1        39 6.65235E-05-1.17129E-21 1.32349E-23
 -1        40 6.56280E-05-2.64698E-23-2.64698E-23
 -1        41 6.47321E-05-9.19825E-22 1.32349E-23
 -1        42 6.38361E-05-1.76686E-21 2.64698E-23
 -1        43 6.29400E-05 9.99234E-22 1.32349E-23
 -1        44 6.20440E-05 2.57419E-21-2.64698E-23
 -1        45 6.11480E-05 1.76024E-21 0.00000E+00
 -1        46 6.02523E-05 1.00056E-20 0.00000E+00
 -1        47 5.93570E-05 1.15871E-20 1.32349E-23
 -1        48 5.84624E-05 1.13688E-20 2.64698E-23
 -1        49 5.75706E-05 1.45121E-20-1.32349E-23
 -1        50 5.66792E-05 9.84014E-21-2.64698E-23
 -1        51 6.84232E-05-2.19733E-07 0.00000E+00
 -1        52 6.52982E-05-4.24477E-07 0.00000E+00
 -1        53 6.10347E-05-6.28774E-07 0.00000E+00
 -1        54 5.59682E-05-8.34174E-07 0.00000E+00
 -1        55 5.04350E-05-1.04123E-06 0.00000E+00
 -1        56 6.88470E-05-5.49250E-07-2.64698E-23
 -1        57 6.76143E-05-1.20653E-06 1.32349E-23
 -1        58 6.64028E-05-1.92042E-06 0.00000E+00
 -1        59 6.51932E-05-2.65219E-06 0.00000E+00
 -1        60 6.39739E-05-3.36014E-06 0.00000E+00
 -1        61 6.27299E-05-4.00411E-06 2.64698E-23
 -1        62 6.14467E-05-4.54418E-06-5.29396E-23
 -1        63 6.01098E-05-4.94148E-06-2.64698E-23
 -1        64 5.87051E-05-5.15804E-06 5.29396E-23
 -1        65 5.72191E-05-5.15744E-06 0.00000E+00
 -1        66 5.56387E-05-4.90464E-06-5.29396E-23
 -1        67 5.39522E-05-4.36657E-06 1.32349E-23
 -1        68 5.21478E-05-3.51227E-06 0.00000E+00
 -1        69 5.02198E-05-2.31160E-06 1.32349E-23
 -1        70 4.81522E-05-7.40692E-07 2.64698E-23
 -1        71 5.54780E-05 2.03156E-21-1.32349E-23
 -1        72 5.51501E-05 7.42808E-22 0.00000E+00
 -1        73 5.48223E-05-5.29065E-21 1.32349E-23
 -1        74 5.44949E-05-1.62012E-20 6.61744E-24
 -1        75 5.41677E-05-2.03801E-20 0.00000E+00
 -1        76 5.38405E-05-2.02742E-20 0.00000E+00
 -1        77 5.35133E-05-1.82542E-20 1.32349E-23
 -1        78 5.31861E-05-1.34797E-20 6.61744E-24
 -1        79 5.28590E-05-1.74717E-20 0.00000E+00
 -1        80 5.25319E-05-1.89209E-20 0.00000E+00
 -1        81 5.22049E-05-1.96422E-20 0.00000E+00
 -1        82 5.18779E-05-1.61052E-20-6.61744E-24
 -1        83 5.15511E-05-1.46560E-20 0.00000E+00
 -1        84 5.12250E-05-8.72345E-21 3.30872E-24
 -1        85 5.08989E-05-3.94896E-21 6.61744E-24
 -1        86 5.54296E-05 1.89103E-07 1.65436E-24
 -1        87 5.44273E-05 4.03885E-07 0.00000E+00
 -1        88 5.28917E-05 6.17843E-07 3.30872E-24
 -1        89 5.09127E-05 8.31973E-07 0.00000E+00
 -1        90 4.85797E-05 1.04591E-06 8.27181E-25
 -1        91 5.52441E-05-2.57484E-07 0.00000E+00
 -1        92 5.46924E-05-5.74657E-07 0.00000E+00
 -1        93 5.41554E-05-9.31186E-07 0.00000E+00
 -1        94 5.36256E-05-1.30994E-06 0.00000E+00
 -1        95 5.30971E-05-1.69300E-06 0.00000E+00
 -1        96 5.25634E-05-2.06275E-06-6.61744E-24
 -1        97 5.20182E-05-2.40160E-06 0.00000E+00
 -1        98 5.14547E-05-2.69212E-06 0.00000E+00
 -1        99 5.08667E-05-2.91699E-06-1.32349E-23
 -1       100 5.02477E-05-3.05915E-06-6.61744E-24
 -1       101 4.95914E-05-3.10178E-06-1.32349E-23
 -1       102 4.88920E-05-3.02840E-06-6.61744E-24
 -1       103 4.81433E-05-2.82293E-06 1.32349E-23
 -1       104 4.73411E-05-2.46923E-06 0.00000E+00
 -1       105 4.64778E-05-1.95283E-06-1.32349E-23
 -1       106 5.05005E-05-2.38311E-21-3.30872E-24
 -1       107 5.04297E-05 9.70283E-22-1.65436E-24
 -1       108 5.03590E-05 5.11694E-21 0.00000E+00
 -1       109 5.02892E-05 2.34754E-21 0.00000E+00
 -1       110 5.02195E-05-7.11375E-23 0.00000E+00
 -1       111 5.01500E-05-2.18624E-21 0.00000E+00
 -1       112 5.00805E-05-5.59919E-21-1.65436E-24
 -1       113 5.00111E-05-3.23428E-21-8.27181E-25
 -1       114 4.99417E-05-4.06104E-21 1.65436E-24
 -1       115 4.98723E-05-1.17315E-20-8.27181E-25
 -1       116 4.98029E-05-1.28589E-20 1.65436E-24
 -1       117 4.97335E-05-9.25822E-21 8.27181E-25
 -1       118 4.96642E-05-4.17354E-21 0.00000E+00
 -1       119 4.95950E-05 2.92491E-21-8.27181E-25
 -1       120 4.95258E-05 7.91198E-22 1.65436E-24
 -1       121 5.03250E-05-2.08319E-07 0.00000E+00
 -1       122 4.97104E-05-4.16505E-07 0.00000E+00
 -1       123 4.88300E-05-6.24935E-07 6.61744E-24
 -1       124 4.77804E-05-8.33810E-07 0.00000E+00
 -1       125 4.66587E-05-1.04278E-06 0.00000E+00
 -1       126 5.03372E-05-1.32979E-07 0.00000E+00
 -1       127 5.01155E-05-3.21359E-07-3.30872E-24
 -1       128 4.99088E-05-5.49604E-07 6.61744E-24
 -1       129 4.97112E-05-8.02774E-07 0.00000E+00
 -1       130 4.95172E-05-1.06574E-06 0.00000E+00
 -1       131 4.93211E-05-1.32341E-06 3.30872E-24
 -1       132 4.91175E-05-1.56073E-06 0.00000E+00
 -1       133 4.89005E-05-1.76268E-06 0.00000E+00
 -1       134 4.86647E-05-1.91424E-06-6.61744E-24
 -1       135 4.84045E-05-2.00054E-06 0.00000E+00
 -1       136 4.81142E-05-2.00673E-06 6.61744E-24
 -1       137 4.77886E-05-1.91810E-06 0.00000E+00
 -1       138 4.74221E-05-1.72009E-06 0.00000E+00
 -1       139 4.70102E-05-1.39802E-06 0.00000E+00
 -1       140 4.65464E-05-9.38035E-07 0.00000E+00
 -1       141 4.94577E-05-2.50326E-22 0.00000E+00
 -1       142 4.94600E-05-4.32209E-21 0.00000E+00
 -1       143 4.94623E-05-1.22212E-20 0.00000E+00
 -1       144 4.94648E-05-1.71775E-20 0.00000E+00
 -1       145 4.94675E-05-1.67458E-20 5.16988E-26
 -1       146 4.94702E-05-1.36618E-20 0.00000E+00
 -1       147 4.94729E-05-8.68170E-21-1.03398E-25
 -1       148 4.94756E-05-3.48007E-21-5.16988E-26
 -1       149 4.94784E-05 2.04853E-21 0.00000E+00
 -1       150 4.94813E-05 5.41542E-21-1.03398E-25
 -1       151 4.94844E-05 3.95386E-22 0.00000E+00
 -1       152 4.94878E-05 1.99755E-21-4.13590E-25
 -1       153 4.94917E-05 2.37287E-21 0.00000E+00
 -1       154 4.94978E-05 3.09945E-21 0.00000E+00
 -1       155 4.95041E-05 2.74769E-21 0.00000E+00
 -1       156 4.93025E-05-5.31178E-08 1.65436E-24
 -1       157 4.89132E-05-1.06604E-07 0.00000E+00
 -1       158 4.83405E-05-1.60215E-07-1.65436E-24
 -1       159 4.76354E-05-2.14133E-07 8.27181E-25
 -1       160 4.68492E-05-2.68134E-07 0.00000E+00
 -1       161 4.93958E-05-3.64894E-08 0.00000E+00
 -1       162 4.93373E-05-8.43850E-08 0.00000E+00
 -1       163 4.92796E-05-1.34437E-07-1.65436E-24
 -1       164 4.92193E-05-1.77734E-07 0.00000E+00
 -1       165 4.91530E-05-2.05291E-07 0.00000E+00
 -1       166 4.90775E-05-2.08166E-07 8.27181E-25
 -1       167 4.89893E-05-1.77420E-07 1.65436E-24
 -1       168 4.88852E-05-1.04134E-07-8.27181E-25
 -1       169 4.87618E-05 2.06043E-08 0.00000E+00
 -1       170 4.86159E-05 2.05692E-07 0.00000E+00
 -1       171 4.84442E-05 4.60005E-07 0.00000E+00
 -1       172 4.82436E-05 7.92484E-07 4.13590E-25
 -1       173 4.80108E-05 1.21193E-06 4.13590E-25
 -1       174 4.77447E-05 1.72788E-06 8.27181E-25
 -1       175 4.74393E-05 2.34816E-06 0.00000E+00
 -1       191 4.94635E-05 5.10692E-07 0.00000E+00
 -1       192 4.92667E-05 1.02727E-06 0.00000E+00
 -1       193 4.89343E-05 1.54473E-06 0.00000E+00
 -1       194 4.84649E-05 2.06210E-06 6.61744E-24
 -1       195 4.78572E-05 2.57841E-06 1.32349E-23
 -1       251 4.48254E-05 2.77752E-06 0.00000E+00
 -1       252 4.48985E-05 5.52229E-06 0.00000E+00
 -1       253 4.49744E-05 7.14720E-06 8.27181E-25
 -1       254 4.50533E-05 7.81765E-06-5.42837E-25
 -1       255 4.51329E-05 7.69847E-06 8.27181E-25
 -1       256 4.52127E-05 6.95421E-06-8.27181E-25
 -1       257 4.52923E-05 5.74919E-06-1.65436E-24
 -1       258 4.53715E-05 4.24755E-06-1.65436E-24
 -1       259 4.54506E-05 2.61326E-06 3.30872E-24
 -1       260 4.55296E-05 1.01029E-06 0.00000E+00
 -1       261 4.56088E-05-3.97397E-07 0.00000E+00
 -1       262 4.56880E-05-1.44577E-06-1.65436E-24
 -1       263 4.57672E-05-1.97065E-06 0.00000E+00
 -1       264 4.58445E-05-1.80767E-06 0.00000E+00
 -1       265 4.59210E-05-7.92007E-07 2.89513E-24
 -1       266 3.99075E-05-1.34338E-06 0.00000E+00
 -1       267 3.51646E-05-1.42720E-06 1.65436E-24
 -1       268 3.07158E-05-1.50957E-06-3.30872E-24
 -1       269 2.67346E-05-1.58863E-06 0.00000E+00
 -1       270 2.33945E-05-1.66525E-06 0.00000E+00
 -1       271 4.23305E-05 2.54033E-06 2.64698E-23
 -1       272 4.02987E-05 5.16747E-06 0.00000E+00
 -1       273 3.86534E-05 6.77148E-06 2.64698E-23
 -1       274 3.73377E-05 7.48943E-06-1.32349E-23
 -1       275 3.63003E-05 7.46484E-06 0.00000E+00
 -1       276 3.54855E-05 6.84470E-06 0.00000E+00
 -1       277 3.48375E-05 5.77897E-06 2.64698E-23
 -1       278 3.42990E-05 4.42022E-06 0.00000E+00
 -1       279 3.38125E-05 2.92239E-06 2.64698E-23
 -1       280 3.33203E-05 1.44032E-06-1.32349E-23
 -1       281 3.27646E-05 1.28742E-07-2.64698E-23
 -1       282 3.20883E-05-8.58559E-07 0.00000E+00
 -1       283 3.12344E-05-1.36944E-06-2.64698E-23
 -1       284 3.01504E-05-1.25338E-06 1.32349E-23
 -1       285 2.87761E-05-3.65596E-07 1.32349E-23
 -1       286 4.59442E-05 3.46299E-06 0.00000E+00
 -1       287 4.59174E-05 4.94195E-06 3.30872E-24
 -1       288 4.58915E-05 5.76726E-06 0.00000E+00
 -1       289 4.58672E-05 6.03063E-06 0.00000E+00
 -1       290 4.58432E-05 5.82365E-06-1.65436E-24
 -1       291 4.58194E-05 5.23802E-06 0.00000E+00
 -1       292 4.57954E-05 4.36547E-06 0.00000E+00
 -1       293 4.57714E-05 3.29778E-06 0.00000E+00
 -1       294 4.57472E-05 2.12674E-06 8.27181E-25
 -1       295 4.57229E-05 9.44173E-07 0.00000E+00
 -1       296 4.56987E-05-1.58135E-07-8.27181E-25
 -1       297 4.56743E-05-1.08837E-06 4.13590E-25
 -1       298 4.56499E-05-1.75475E-06-8.27181E-25
 -1       299 4.56242E-05-2.06558E-06-8.27181E-25
 -1       300 4.55983E-05-1.92903E-06 3.30872E-24
 -1       301 4.29899E-05 1.26414E-06-2.48154E-24
 -1       302 3.98212E-05 1.30053E-06 2.06795E-25
 -1       303 3.65606E-05 1.33884E-06-2.06795E-25
 -1       304 3.32949E-05 1.37770E-06 0.00000E+00
 -1       305 3.01103E-05 1.41579E-06 0.00000E+00
 -1       306 4.41821E-05 3.13244E-06 2.64698E-23
 -1       307 4.26181E-05 4.30281E-06 0.00000E+00
 -1       308 4.12901E-05 4.84602E-06 0.00000E+00
 -1       309 4.01603E-05 4.84870E-06 1.32349E-23
 -1       310 3.91981E-05 4.40286E-06 0.00000E+00
 -1       311 3.83680E-05 3.60221E-06 0.00000E+00
 -1       312 3.76348E-05 2.54240E-06 0.00000E+00
 -1       313 3.69620E-05 1.32062E-06 0.00000E+00
 -1       314 3.63132E-05 3.49267E-08 0.00000E+00
 -1       315 3.56516E-05-1.21621E-06 0.00000E+00
 -1       316 3.49405E-05-2.33456E-06-2.64698E-23
 -1       317 3.41440E-05-3.22258E-06 0.00000E+00
 -1       318 3.32260E-05-3.78405E-06 0.00000E+00
 -1       319 3.21549E-05-3.92359E-06 0.00000E+00
 -1       320 3.08913E-05-3.55075E-06-1.32349E-23
 -1       321 4.55774E-05-4.13799E-07 0.00000E+00
 -1       322 4.56059E-05 1.41225E-07 8.27181E-25
 -1       323 4.56347E-05 4.49400E-07 0.00000E+00
 -1       324 4.56653E-05 5.49696E-07 0.00000E+00
 -1       325 4.56963E-05 4.80977E-07-4.13590E-25
 -1       326 4.57276E-05 2.82105E-07 0.00000E+00
 -1       327 4.57589E-05-8.08681E-09 0.00000E+00
 -1       328 4.57903E-05-3.50774E-07 0.00000E+00
 -1       329 4.58218E-05-7.07139E-07-8.27181E-25
 -1       330 4.58532E-05-1.03838E-06-4.13590E-25
 -1       331 4.58846E-05-1.30566E-06 0.00000E+00
 -1       332 4.59159E-05-1.47018E-06-4.13590E-25
 -1       333 4.59470E-05-1.49307E-06 0.00000E+00
 -1       334 4.59775E-05-1.33550E-06 0.00000E+00
 -1       335 4.60078E-05-9.58527E-07 2.06795E-25
 -1       336 4.38121E-05-1.47298E-06 0.00000E+00
 -1       337 4.11678E-05-1.69114E-06-3.30872E-24
 -1       338 3.80173E-05-1.91050E-06-6.61744E-24
 -1       339 3.47515E-05-2.12987E-06 3.30872E-24
 -1       340 3.17613E-05-2.34842E-06-6.61744E-24
 -1       341 4.46654E-05-6.09750E-07 0.00000E+00
 -1       342 4.38512E-05-2.26034E-07-6.61744E-24
 -1       343 4.31194E-05-6.20887E-08-1.32349E-23
 -1       344 4.24544E-05-8.15780E-08 0.00000E+00
 -1       345 4.18436E-05-2.46431E-07-1.32349E-23
 -1       346 4.12727E-05-5.18562E-07 0.00000E+00
 -1       347 4.07275E-05-8.59502E-07-1.32349E-23
 -1       348 4.01935E-05-1.23057E-06 6.61744E-24
 -1       349 3.96563E-05-1.59297E-06-1.32349E-23
 -1       350 3.91014E-05-1.90797E-06 0.00000E+00
 -1       351 3.85145E-05-2.13696E-06-1.32349E-23
 -1       352 3.78816E-05-2.24156E-06 0.00000E+00
 -1       353 3.71883E-05-2.18390E-06 1.32349E-23
 -1       354 3.64236E-05-1.92572E-06 0.00000E+00
 -1       355 3.55702E-05-1.43154E-06-6.61744E-24
 -1       356 4.60914E-05 3.54344E-07 0.00000E+00
 -1       357 4.61565E-05 8.43083E-07 2.06795E-25
 -1       358 4.62217E-05 1.16980E-06-8.27181E-25
 -1       359 4.62879E-05 1.36187E-06 8.27181E-25
 -1       360 4.63543E-05 1.44661E-06 1.65436E-24
 -1       361 4.64208E-05 1.45129E-06 8.27181E-25
 -1       362 4.64874E-05 1.40317E-06-1.65436E-24
 -1       363 4.65541E-05 1.32947E-06 8.27181E-25
 -1       364 4.66208E-05 1.25743E-06 1.65436E-24
 -1       365 4.66876E-05 1.21426E-06 8.27181E-25
 -1       366 4.67545E-05 1.22720E-06-3.30872E-24
 -1       367 4.68217E-05 1.32351E-06 1.65436E-24
 -1       368 4.68893E-05 1.53047E-06 0.00000E+00
 -1       369 4.69587E-05 1.87538E-06 1.65436E-24
 -1       370 4.70281E-05 2.38565E-06 6.61744E-24
 -1       371 4.47350E-05-3.80034E-07 1.65436E-24
 -1       372 4.28338E-05-4.35863E-07 4.13590E-25
 -1       373 4.06010E-05-4.92198E-07-1.65436E-24
 -1       374 3.83093E-05-5.48209E-07 8.27181E-25
 -1       375 3.62317E-05-6.03748E-07-1.65436E-24
 -1       376 4.55417E-05 2.49274E-07 0.00000E+00
 -1       377 4.51205E-05 6.14176E-07-3.30872E-24
 -1       378 4.47619E-05 8.12303E-07-6.61744E-24
 -1       379 4.44503E-05 8.82435E-07-3.30872E-24
 -1       380 4.41717E-05 8.64102E-07 0.00000E+00
 -1       381 4.39113E-05 7.96707E-07-3.30872E-24
 -1       382 4.36545E-05 7.19755E-07 6.61744E-24
 -1       383 4.33864E-05 6.72739E-07-3.30872E-24
 -1       384 4.30923E-05 6.95114E-07 0.00000E+00
 -1       385 4.27575E-05 8.26235E-07 0.00000E+00
 -1       386 4.23673E-05 1.10530E-06 0.00000E+00
 -1       387 4.19074E-05 1.57136E-06-3.30872E-24
 -1       388 4.13633E-05 2.26313E-06 6.61744E-24
 -1       389 4.07227E-05 3.21975E-06 0.00000E+00
 -1       390 3.99685E-05 4.47826E-06-3.10193E-25
 -1       406 4.62155E-05 3.58611E-06 0.00000E+00
 -1       407 4.51502E-05 4.08913E-06 0.00000E+00
 -1       408 4.39102E-05 4.59260E-06-1.32349E-23
 -1       409 4.24919E-05 5.09515E-06 6.61744E-24
 -1       410 4.08919E-05 5.59537E-06 0.00000E+00
 -1       466 2.12393E-05-1.43663E-07 6.61744E-24
 -1       467 2.16290E-05 8.02320E-07 0.00000E+00
 -1       468 2.20194E-05 1.20155E-06 0.00000E+00
 -1       469 2.24121E-05 1.15389E-06 0.00000E+00
 -1       470 2.28053E-05 7.58340E-07 0.00000E+00
 -1       471 2.31987E-05 1.13128E-07 0.00000E+00
 -1       472 2.35922E-05-6.83927E-07 0.00000E+00
 -1       473 2.39858E-05-1.53535E-06 0.00000E+00
 -1       474 2.43794E-05-2.34378E-06 0.00000E+00
 -1       475 2.47729E-05-3.01173E-06 6.61744E-24
 -1       476 2.51664E-05-3.44148E-06 0.00000E+00
 -1       477 2.55593E-05-3.53480E-06-6.61744E-24
 -1       478 2.59516E-05-3.19285E-06 0.00000E+00
 -1       479 2.63405E-05-2.31588E-06 0.00000E+00
 -1       480 2.67282E-05-8.03041E-07 6.61744E-24
 -1       481 1.87592E-05-1.63549E-06 0.00000E+00
 -1       482 1.65662E-05-1.52981E-06-1.65436E-24
 -1       483 1.43872E-05-1.42409E-06 0.00000E+00
 -1       484 1.23212E-05-1.31772E-06 1.65436E-24
 -1       485 1.04672E-05-1.21084E-06-1.65436E-24
 -1       486 1.97897E-05-1.34613E-07 0.00000E+00
 -1       487 1.88454E-05 1.05641E-06 0.00000E+00
 -1       488 1.80361E-05 1.88836E-06 0.00000E+00
 -1       489 1.73419E-05 2.40677E-06 0.00000E+00
 -1       490 1.67470E-05 2.65943E-06 0.00000E+00
 -1       491 1.62335E-05 2.69421E-06 0.00000E+00
 -1       492 1.57834E-05 2.55953E-06 0.00000E+00
 -1       493 1.53784E-05 2.30423E-06-6.61744E-24
 -1       494 1.50003E-05 1.97741E-06 1.32349E-23
 -1       495 1.46305E-05 1.62840E-06 6.61744E-24
 -1       496 1.42507E-05 1.30657E-06-1.32349E-23
 -1       497 1.38425E-05 1.06126E-06 0.00000E+00
 -1       498 1.33877E-05 9.41568E-07 0.00000E+00
 -1       499 1.28696E-05 9.96872E-07 0.00000E+00
 -1       500 1.22679E-05 1.27479E-06-6.61744E-24
 -1       501 2.72250E-05 3.63047E-06 0.00000E+00
 -1       502 2.73715E-05 4.96273E-06-8.27181E-25
 -1       503 2.75189E-05 5.55668E-06 1.65436E-24
 -1       504 2.76682E-05 5.52609E-06 0.00000E+00
 -1       505 2.78178E-05 4.98416E-06-3.30872E-24
 -1       506 2.79674E-05 4.04370E-06 1.65436E-24
 -1       507 2.81168E-05 2.81725E-06 0.00000E+00
 -1       508 2.82660E-05 1.41709E-06-1.65436E-24
 -1       509 2.84152E-05-4.45873E-08-3.30872E-24
 -1       510 2.85643E-05-1.45563E-06 0.00000E+00
 -1       511 2.87136E-05-2.70392E-06 0.00000E+00
 -1       512 2.88627E-05-3.67711E-06-3.30872E-24
 -1       513 2.90116E-05-4.26274E-06 0.00000E+00
 -1       514 2.91586E-05-4.34803E-06 0.00000E+00
 -1       515 2.93052E-05-3.81972E-06 0.00000E+00
 -1       516 2.41399E-05 1.50332E-06 0.00000E+00
 -1       517 2.10228E-05 1.56795E-06 0.00000E+00
 -1       518 1.79744E-05 1.63270E-06 8.27181E-25
 -1       519 1.52286E-05 1.69862E-06 4.13590E-25
 -1       520 1.30197E-05 1.76589E-06 0.00000E+00
 -1       521 2.54529E-05 3.39871E-06 0.00000E+00
 -1       522 2.40712E-05 4.57729E-06 1.32349E-23
 -1       523 2.29417E-05 5.08575E-06-2.64698E-23
 -1       524 2.20235E-05 5.01950E-06 1.32349E-23
 -1       525 2.12825E-05 4.47883E-06 0.00000E+00
 -1       526 2.06803E-05 3.56550E-06 0.00000E+00
 -1       527 2.01787E-05 2.38300E-06 0.00000E+00
 -1       528 1.97385E-05 1.03613E-06 0.00000E+00
 -1       529 1.93202E-05-3.69568E-07 0.00000E+00
 -1       530 1.88844E-05-1.72824E-06 1.32349E-23
 -1       531 1.83918E-05-2.93426E-06 0.00000E+00
 -1       532 1.78034E-05-3.88271E-06-1.32349E-23
 -1       533 1.70803E-05-4.46988E-06 0.00000E+00
 -1       534 1.61871E-05-4.59307E-06 1.32349E-23
 -1       535 1.50826E-05-4.15365E-06 1.32349E-23
 -1       536 2.97361E-05-1.13700E-06 0.00000E+00
 -1       537 3.00602E-05-1.65200E-07 3.30872E-24
 -1       538 3.03849E-05 4.11501E-07 0.00000E+00
 -1       539 3.07129E-05 6.54331E-07 0.00000E+00
 -1       540 3.10415E-05 6.23933E-07-1.32349E-23
 -1       541 3.13707E-05 3.80470E-07 0.00000E+00
 -1       542 3.17001E-05-1.62064E-08 0.00000E+00
 -1       543 3.20296E-05-5.06529E-07-6.61744E-24
 -1       544 3.23590E-05-1.03106E-06 0.00000E+00
 -1       545 3.26884E-05-1.53044E-06 0.00000E+00
 -1       546 3.30178E-05-1.94526E-06 0.00000E+00
 -1       547 3.33468E-05-2.21595E-06 0.00000E+00
 -1       548 3.36754E-05-2.28275E-06-6.61744E-24
 -1       549 3.40021E-05-2.08552E-06 0.00000E+00
 -1       550 3.43284E-05-1.56369E-06-6.61744E-24
 -1       551 2.71266E-05-2.64872E-06 1.13737E-24
 -1       552 2.44861E-05-2.72703E-06 4.13590E-25
 -1       553 2.16704E-05-2.80480E-06-3.30872E-24
 -1       554 1.88381E-05-2.88271E-06 6.61744E-24
 -1       555 1.61480E-05-2.96141E-06 0.00000E+00
 -1       556 2.85461E-05-1.32765E-06 0.00000E+00
 -1       557 2.77963E-05-4.84389E-07-6.61744E-24
 -1       558 2.71737E-05 1.68441E-08-1.32349E-23
 -1       559 2.66588E-05 2.28898E-07-6.61744E-24
 -1       560 2.62323E-05 2.04744E-07 0.00000E+00
 -1       561 2.58744E-05-2.46451E-09-6.61744E-24
 -1       562 2.55651E-05-3.39524E-07 1.32349E-23
 -1       563 2.52845E-05-7.53155E-07 0.00000E+00
 -1       564 2.50126E-05-1.19005E-06 0.00000E+00
 -1       565 2.47295E-05-1.59690E-06 0.00000E+00
 -1       566 2.44152E-05-1.92038E-06-6.61744E-24
 -1       567 2.40499E-05-2.10722E-06 0.00000E+00
 -1       568 2.36139E-05-2.10416E-06 0.00000E+00
 -1       569 2.30879E-05-1.85797E-06-4.96308E-24
 -1       570 2.24530E-05-1.31558E-06-3.30872E-24
 -1       571 3.49031E-05 2.23476E-07 2.89513E-24
 -1       572 3.51794E-05 8.28787E-07-8.27181E-25
 -1       573 3.54583E-05 1.20362E-06 6.61744E-24
 -1       574 3.57387E-05 1.39400E-06 0.00000E+00
 -1       575 3.60196E-05 1.44598E-06 6.61744E-24
 -1       576 3.63009E-05 1.40572E-06 0.00000E+00
 -1       577 3.65822E-05 1.31938E-06-6.61744E-24
 -1       578 3.68636E-05 1.23311E-06 6.61744E-24
 -1       579 3.71450E-05 1.19305E-06 0.00000E+00
 -1       580 3.74264E-05 1.24537E-06 0.00000E+00
 -1       581 3.77078E-05 1.43626E-06 0.00000E+00
 -1       582 3.79890E-05 1.81192E-06 0.00000E+00
 -1       583 3.82701E-05 2.41860E-06-1.32349E-23
 -1       584 3.85506E-05 3.30240E-06 0.00000E+00
 -1       585 3.88304E-05 4.50943E-06 0.00000E+00
 -1       586 3.28413E-05-6.17477E-07 6.61744E-24
 -1       587 3.06763E-05-5.76571E-07 0.00000E+00
 -1       588 2.83110E-05-5.35772E-07 0.00000E+00
 -1       589 2.59144E-05-4.95495E-07 0.00000E+00
 -1       590 2.36554E-05-4.56155E-07 0.00000E+00
 -1       591 3.40407E-05 2.18993E-07 0.00000E+00
 -1       592 3.35055E-05 8.92253E-07 0.00000E+00
 -1       593 3.30312E-05 1.39820E-06 0.00000E+00
 -1       594 3.26059E-05 1.77017E-06-3.30872E-24
 -1       595 3.22180E-05 2.04160E-06 6.61744E-24
 -1       596 3.18551E-05 2.24582E-06 0.00000E+00
 -1       597 3.15049E-05 2.41619E-06 6.61744E-24
 -1       598 3.11548E-05 2.58603E-06-3.30872E-24
 -1       599 3.07924E-05 2.78868E-06 0.00000E+00
 -1       600 3.04053E-05 3.05747E-06-3.30872E-24
 -1       601 2.99809E-05 3.42569E-06 6.61744E-24
 -1       602 2.95069E-05 3.92666E-06-1.65436E-24
 -1       603 2.89710E-05 4.59367E-06-3.30872E-24
 -1       604 2.83618E-05 5.46011E-06-2.48154E-24
 -1       605 2.76678E-05 6.55929E-06-8.27181E-25
 -1       606 3.91940E-05 8.13605E-06 6.61744E-24
 -1       607 3.92731E-05 1.04229E-05 0.00000E+00
 -1       608 3.93505E-05 1.29276E-05 0.00000E+00
 -1       609 3.94266E-05 1.56322E-05 3.30872E-24
 -1       610 3.95019E-05 1.85189E-05 0.00000E+00
 -1       611 3.95767E-05 2.15695E-05 0.00000E+00
 -1       612 3.96510E-05 2.47661E-05 0.00000E+00
 -1       613 3.97248E-05 2.80906E-05 0.00000E+00
 -1       614 3.97983E-05 3.15251E-05-3.30872E-24
 -1       615 3.98714E-05 3.50513E-05 0.00000E+00
 -1       616 3.99443E-05 3.86515E-05 0.00000E+00
 -1       617 4.00170E-05 4.23076E-05 0.00000E+00
 -1       618 4.00894E-05 4.60015E-05 0.00000E+00
 -1       619 4.01616E-05 4.97154E-05 0.00000E+00
 -1       620 4.02335E-05 5.34311E-05 0.00000E+00
 -1       621 3.70592E-05 6.39070E-06 0.00000E+00
 -1       622 3.49525E-05 6.70095E-06 0.00000E+00
 -1       623 3.28345E-05 7.01144E-06 0.00000E+00
 -1       624 3.07529E-05 7.32117E-06 3.30872E-24
 -1       625 2.87555E-05 7.62915E-06 0.00000E+00
 -1       626 3.85024E-05 8.23651E-06 1.32349E-23
 -1       627 3.77962E-05 1.06496E-05-1.32349E-23
 -1       628 3.70010E-05 1.32970E-05 1.32349E-23
 -1       629 3.61276E-05 1.61503E-05-3.30872E-24
 -1       630 3.51869E-05 1.91815E-05 0.00000E+00
 -1       631 3.41897E-05 2.23620E-05 3.30872E-24
 -1       632 3.31467E-05 2.56636E-05 0.00000E+00
 -1       633 3.20685E-05 2.90580E-05 0.00000E+00
 -1       634 3.09659E-05 3.25167E-05 6.61744E-24
 -1       635 2.98497E-05 3.60116E-05-3.30872E-24
 -1       636 2.87303E-05 3.95143E-05-6.61744E-24
 -1       637 2.76187E-05 4.29965E-05-3.30872E-24
 -1       638 2.65252E-05 4.64299E-05 0.00000E+00
 -1       639 2.54601E-05 4.97860E-05 0.00000E+00
 -1       640 2.44337E-05 5.30365E-05-1.65436E-24
 -1       641 4.03029E-05 6.08057E-05 0.00000E+00
 -1       642 4.03005E-05 6.45315E-05 0.00000E+00
 -1       643 4.02979E-05 6.82986E-05 0.00000E+00
 -1       644 4.02949E-05 7.20973E-05-1.03398E-25
 -1       645 4.02918E-05 7.59178E-05 2.06795E-25
 -1       646 4.02887E-05 7.97501E-05 5.16988E-26
 -1       647 4.02855E-05 8.35846E-05-1.03398E-25
 -1       648 4.02824E-05 8.74115E-05 5.16988E-26
 -1       649 4.02793E-05 9.12208E-05 0.00000E+00
 -1       650 4.02762E-05 9.50028E-05 6.46235E-27
 -1       651 4.02733E-05 9.87478E-05-5.16988E-26
 -1       652 4.02705E-05 1.02446E-04 0.00000E+00
 -1       653 4.02678E-05 1.06087E-04-4.13590E-25
 -1       654 4.02648E-05 1.09662E-04 0.00000E+00
 -1       655 4.02621E-05 1.13160E-04 0.00000E+00
 -1       656 3.69631E-05 5.69721E-05 0.00000E+00
 -1       657 3.40187E-05 5.68060E-05 0.00000E+00
 -1       658 3.13332E-05 5.66406E-05-3.30872E-24
 -1       659 2.87687E-05 5.64755E-05 1.65436E-24
 -1       660 2.61869E-05 5.63101E-05 1.65436E-24
 -1       661 3.90801E-05 6.08572E-05-3.30872E-24
 -1       662 3.78471E-05 6.46244E-05 1.65436E-24
 -1       663 3.66032E-05 6.84204E-05-3.30872E-24
 -1       664 3.53530E-05 7.22352E-05 0.00000E+00
 -1       665 3.40998E-05 7.60582E-05 0.00000E+00
 -1       666 3.28475E-05 7.98792E-05-3.30872E-24
 -1       667 3.16000E-05 8.36879E-05-6.61744E-24
 -1       668 3.03610E-05 8.74738E-05-3.30872E-24
 -1       669 2.91346E-05 9.12268E-05-6.61744E-24
 -1       670 2.79245E-05 9.49365E-05-3.30872E-24
 -1       671 2.67347E-05 9.85925E-05 0.00000E+00
 -1       672 2.55690E-05 1.02184E-04-1.65436E-24
 -1       673 2.44314E-05 1.05701E-04 0.00000E+00
 -1       674 2.33249E-05 1.09133E-04 0.00000E+00
 -1       675 2.22546E-05 1.12468E-04 1.65436E-24
 -1       676 3.69474E-05 1.16427E-04-3.30872E-24
 -1       677 3.37164E-05 1.16279E-04 0.00000E+00
 -1       678 3.05456E-05 1.16132E-04 0.00000E+00
 -1       679 2.74172E-05 1.15984E-04-1.65436E-24
 -1       680 2.43132E-05 1.15837E-04 0.00000E+00
 -1       681 9.08561E-06 1.63961E-08 0.00000E+00
 -1       682 9.25214E-06 8.16224E-07-1.65436E-24
 -1       683 9.41892E-06 1.33668E-06 6.61744E-24
 -1       684 9.58638E-06 1.62025E-06 1.65436E-24
 -1       685 9.75399E-06 1.70917E-06 6.61744E-24
 -1       686 9.92171E-06 1.64552E-06 0.00000E+00
 -1       687 1.00895E-05 1.47124E-06 0.00000E+00
 -1       688 1.02572E-05 1.22821E-06 3.30872E-24
 -1       689 1.04249E-05 9.58216E-07 0.00000E+00
 -1       690 1.05926E-05 7.03045E-07 3.30872E-24
 -1       691 1.07602E-05 5.04485E-07 0.00000E+00
 -1       692 1.09275E-05 4.04379E-07-3.30872E-24
 -1       693 1.10946E-05 4.44643E-07 0.00000E+00
 -1       694 1.12603E-05 6.67310E-07 0.00000E+00
 -1       695 1.14257E-05 1.11461E-06 0.00000E+00
 -1       696 7.48583E-06-9.25994E-07 0.00000E+00
 -1       697 5.92131E-06-7.42010E-07 0.00000E+00
 -1       698 4.31015E-06-5.57962E-07 0.00000E+00
 -1       699 2.73268E-06-3.72932E-07 0.00000E+00
 -1       700 1.26927E-06-1.87564E-07 0.00000E+00
 -1       701 8.31085E-06 4.53726E-09 3.30872E-24
 -1       702 7.77888E-06 8.66229E-07 0.00000E+00
 -1       703 7.32886E-06 1.50990E-06-6.61744E-24
 -1       704 6.94939E-06 1.96142E-06-3.30872E-24
 -1       705 6.63166E-06 2.24777E-06-6.61744E-24
 -1       706 6.36560E-06 2.39571E-06 0.00000E+00
 -1       707 6.14129E-06 2.43219E-06-6.61744E-24
 -1       708 5.94860E-06 2.38424E-06 0.00000E+00
 -1       709 5.77741E-06 2.27898E-06 0.00000E+00
 -1       710 5.61755E-06 2.14358E-06 3.30872E-24
 -1       711 5.45886E-06 2.00527E-06 6.61744E-24
 -1       712 5.29130E-06 1.89131E-06 3.30872E-24
 -1       713 5.10467E-06 1.82887E-06 0.00000E+00
 -1       714 4.88996E-06 1.84549E-06 0.00000E+00
 -1       715 4.63562E-06 1.96775E-06 0.00000E+00
 -1       716 1.17086E-05 2.41480E-06 7.23783E-25
 -1       717 1.18457E-05 2.52949E-06 0.00000E+00
 -1       718 1.19829E-05 2.24818E-06 3.30872E-24
 -1       719 1.21212E-05 1.64685E-06 1.65436E-24
 -1       720 1.22595E-05 8.01179E-07 0.00000E+00
 -1       721 1.23980E-05-2.13326E-07 1.65436E-24
 -1       722 1.25364E-05-1.32124E-06 3.30872E-24
 -1       723 1.26749E-05-2.44725E-06-1.65436E-24
 -1       724 1.28134E-05-3.51602E-06 0.00000E+00
 -1       725 1.29519E-05-4.45216E-06 1.65436E-24
 -1       726 1.30904E-05-5.18026E-06 0.00000E+00
 -1       727 1.32287E-05-5.62468E-06 0.00000E+00
 -1       728 1.33667E-05-5.70963E-06 0.00000E+00
 -1       729 1.35024E-05-5.35907E-06 0.00000E+00
 -1       730 1.36376E-05-4.49659E-06-4.91138E-25
 -1       731 1.04527E-05 1.88957E-06 0.00000E+00
 -1       732 9.07361E-06 1.95627E-06 0.00000E+00
 -1       733 7.60791E-06 2.02293E-06 0.00000E+00
 -1       734 6.22075E-06 2.09043E-06 0.00000E+00
 -1       735 5.07728E-06 2.15836E-06-8.27181E-25
 -1       736 1.09031E-05 2.40771E-06 6.61744E-24
 -1       737 1.03064E-05 2.72540E-06 6.61744E-24
 -1       738 9.79457E-06 2.81707E-06 0.00000E+00
 -1       739 9.35399E-06 2.71276E-06-6.61744E-24
 -1       740 8.97461E-06 2.44422E-06 1.32349E-23
 -1       741 8.64456E-06 2.04305E-06 0.00000E+00
 -1       742 8.35211E-06 1.54125E-06 1.32349E-23
 -1       743 8.08525E-06 9.70986E-07 0.00000E+00
 -1       744 7.83191E-06 3.64586E-07 1.32349E-23
 -1       745 7.58000E-06-2.45509E-07 6.61744E-24
 -1       746 7.31742E-06-8.26877E-07 0.00000E+00
 -1       747 7.03224E-06-1.34710E-06 6.61744E-24
 -1       748 6.71239E-06-1.77396E-06 0.00000E+00
 -1       749 6.34724E-06-2.07503E-06 0.00000E+00
 -1       750 5.92325E-06-2.21917E-06 6.61744E-24
 -1       751 1.42200E-05-1.53688E-06-3.30872E-24
 -1       752 1.47157E-05-5.10969E-07-6.61744E-24
 -1       753 1.52122E-05 9.83135E-08 1.32349E-23
 -1       754 1.57131E-05 3.57323E-07 6.61744E-24
 -1       755 1.62149E-05 3.31552E-07 1.32349E-23
 -1       756 1.67174E-05 8.56997E-08 0.00000E+00
 -1       757 1.72202E-05-3.16014E-07 1.32349E-23
 -1       758 1.77231E-05-8.09818E-07 0.00000E+00
 -1       759 1.82260E-05-1.33213E-06 0.00000E+00
 -1       760 1.87288E-05-1.81948E-06 6.61744E-24
 -1       761 1.92314E-05-2.20828E-06-1.32349E-23
 -1       762 1.97334E-05-2.43470E-06 6.61744E-24
 -1       763 2.02347E-05-2.43452E-06-1.32349E-23
 -1       764 2.07325E-05-2.14291E-06-6.61744E-24
 -1       765 2.12297E-05-1.49434E-06 0.00000E+00
 -1       766 1.19111E-05-2.91260E-06 1.65436E-24
 -1       767 1.01222E-05-2.76278E-06 4.13590E-25
 -1       768 8.48487E-06-2.61287E-06-1.65436E-24
 -1       769 7.09501E-06-2.46207E-06 4.13590E-25
 -1       770 6.04855E-06-2.31059E-06 0.00000E+00
 -1       771 1.24965E-05-1.72306E-06-2.64698E-23
 -1       772 1.13282E-05-7.05854E-07 1.32349E-23
 -1       773 1.02576E-05 4.14774E-08-2.64698E-23
 -1       774 9.27396E-06 5.51241E-07-1.32349E-23
 -1       775 8.36658E-06 8.55941E-07 0.00000E+00
 -1       776 7.52365E-06 9.87999E-07 0.00000E+00
 -1       777 6.73317E-06 9.79907E-07-2.64698E-23
 -1       778 5.98300E-06 8.64250E-07 0.00000E+00
 -1       779 5.26095E-06 6.73672E-07 0.00000E+00
 -1       780 4.55479E-06 4.40883E-07 1.32349E-23
 -1       781 3.85231E-06 1.98630E-07 0.00000E+00
 -1       782 3.14147E-06-2.02883E-08 1.32349E-23
 -1       783 2.41024E-06-1.83066E-07-1.32349E-23
 -1       784 1.64777E-06-2.56624E-07 6.61744E-24
 -1       785 8.43007E-07-2.08010E-07 0.00000E+00
 -1       786 2.20050E-05 7.28600E-07 3.30872E-24
 -1       787 2.23284E-05 1.58584E-06-3.30872E-24
 -1       788 2.26522E-05 2.19439E-06-6.61744E-24
 -1       789 2.29786E-05 2.59972E-06-3.30872E-24
 -1       790 2.33056E-05 2.84697E-06 1.32349E-23
 -1       791 2.36331E-05 2.98100E-06-6.61744E-24
 -1       792 2.39608E-05 3.04650E-06-1.32349E-23
 -1       793 2.42885E-05 3.08804E-06-6.61744E-24
 -1       794 2.46162E-05 3.15014E-06 0.00000E+00
 -1       795 2.49439E-05 3.27739E-06-6.61744E-24
 -1       796 2.52715E-05 3.51444E-06 0.00000E+00
 -1       797 2.55988E-05 3.90616E-06-6.61744E-24
 -1       798 2.59257E-05 4.49765E-06-1.32349E-23
 -1       799 2.62509E-05 5.33433E-06 0.00000E+00
 -1       800 2.65757E-05 6.46210E-06 0.00000E+00
 -1       801 1.90744E-05-3.52600E-07 0.00000E+00
 -1       802 1.50209E-05-2.78616E-07 0.00000E+00
 -1       803 1.03122E-05-2.07316E-07 0.00000E+00
 -1       804 5.72310E-06-1.36500E-07 0.00000E+00
 -1       805 2.02834E-06-6.26776E-08 0.00000E+00
 -1       806 2.08718E-05 5.85806E-07 0.00000E+00
 -1       807 2.01018E-05 1.39692E-06-6.61744E-24
 -1       808 1.93902E-05 2.04573E-06 0.00000E+00
 -1       809 1.87258E-05 2.56491E-06 0.00000E+00
 -1       810 1.80973E-05 2.98722E-06 0.00000E+00
 -1       811 1.74927E-05 3.34532E-06 6.61744E-24
 -1       812 1.68998E-05 3.67183E-06-1.32349E-23
 -1       813 1.63064E-05 3.99940E-06 0.00000E+00
 -1       814 1.57004E-05 4.36067E-06 0.00000E+00
 -1       815 1.50696E-05 4.78823E-06-6.61744E-24
 -1       816 1.44017E-05 5.31469E-06 0.00000E+00
 -1       817 1.36847E-05 5.97261E-06 3.30872E-24
 -1       818 1.29066E-05 6.79454E-06-1.32349E-23
 -1       819 1.20564E-05 7.81311E-06 0.00000E+00
 -1       820 1.11229E-05 9.06086E-06 0.00000E+00
 -1       821 2.66894E-05 9.77206E-06 1.65436E-24
 -1       822 2.64769E-05 1.19261E-05 1.65436E-24
 -1       823 2.62636E-05 1.43571E-05 0.00000E+00
 -1       824 2.60482E-05 1.70327E-05 3.30872E-24
 -1       825 2.58318E-05 1.99201E-05 0.00000E+00
 -1       826 2.56145E-05 2.29865E-05 3.30872E-24
 -1       827 2.53968E-05 2.61986E-05 6.61744E-24
 -1       828 2.51786E-05 2.95232E-05 0.00000E+00
 -1       829 2.49602E-05 3.29268E-05 0.00000E+00
 -1       830 2.47417E-05 3.63761E-05 3.30872E-24
 -1       831 2.45232E-05 3.98374E-05 6.61744E-24
 -1       832 2.43051E-05 4.32771E-05 3.30872E-24
 -1       833 2.40873E-05 4.66618E-05 0.00000E+00
 -1       834 2.38712E-05 4.99580E-05 0.00000E+00
 -1       835 2.36556E-05 5.31323E-05-3.30872E-24
 -1       836 2.46767E-05 8.36021E-06 6.61744E-24
 -1       837 2.18297E-05 8.80797E-06 6.61744E-24
 -1       838 1.86484E-05 9.25443E-06 0.00000E+00
 -1       839 1.54339E-05 9.70005E-06-3.30872E-24
 -1       840 1.24870E-05 1.01466E-05-6.61744E-24
 -1       841 2.61575E-05 9.76692E-06 0.00000E+00
 -1       842 2.52992E-05 1.19286E-05 2.06795E-25
 -1       843 2.43321E-05 1.43784E-05 8.27181E-25
 -1       844 2.32692E-05 1.70799E-05 4.13590E-25
 -1       845 2.21245E-05 1.99974E-05 8.27181E-25
 -1       846 2.09115E-05 2.30950E-05-8.27181E-25
 -1       847 1.96440E-05 2.63366E-05 8.27181E-25
 -1       848 1.83356E-05 2.96862E-05 4.13590E-25
 -1       849 1.70000E-05 3.31076E-05 1.65436E-24
 -1       850 1.56508E-05 3.65648E-05 8.27181E-25
 -1       851 1.43017E-05 4.00217E-05 0.00000E+00
 -1       852 1.29664E-05 4.34420E-05-8.27181E-25
 -1       853 1.16585E-05 4.67898E-05 0.00000E+00
 -1       854 1.03916E-05 5.00288E-05 0.00000E+00
 -1       855 9.17935E-06 5.31231E-05 1.65436E-24
 -1       856 2.33193E-05 5.92128E-05 0.00000E+00
 -1       857 2.31814E-05 6.25134E-05-1.65436E-24
 -1       858 2.30427E-05 6.60217E-05-3.30872E-24
 -1       859 2.29025E-05 6.97052E-05 0.00000E+00
 -1       860 2.27617E-05 7.35314E-05 3.30872E-24
 -1       861 2.26202E-05 7.74678E-05-1.65436E-24
 -1       862 2.24785E-05 8.14816E-05 0.00000E+00
 -1       863 2.23365E-05 8.55402E-05 0.00000E+00
 -1       864 2.21945E-05 8.96108E-05-3.30872E-24
 -1       865 2.20526E-05 9.36606E-05 0.00000E+00
 -1       866 2.19109E-05 9.76569E-05-3.30872E-24
 -1       867 2.17696E-05 1.01567E-04 1.65436E-24
 -1       868 2.16289E-05 1.05358E-04 0.00000E+00
 -1       869 2.14892E-05 1.08998E-04 0.00000E+00
 -1       870 2.13502E-05 1.12454E-04 0.00000E+00
 -1       871 2.07474E-05 5.61344E-05 0.00000E+00
 -1       872 1.81703E-05 5.61161E-05 0.00000E+00
 -1       873 1.56651E-05 5.60976E-05 0.00000E+00
 -1       874 1.31769E-05 5.60787E-05-2.06795E-25
 -1       875 1.06511E-05 5.60591E-05-1.24077E-24
 -1       876 2.24927E-05 5.92532E-05 0.00000E+00
 -1       877 2.14690E-05 6.25532E-05 0.00000E+00
 -1       878 2.03808E-05 6.60234E-05 0.00000E+00
 -1       879 1.92388E-05 6.96388E-05 0.00000E+00
 -1       880 1.80516E-05 7.33739E-05 0.00000E+00
 -1       881 1.68289E-05 7.72035E-05-3.30872E-24
 -1       882 1.55797E-05 8.11026E-05-6.61744E-24
 -1       883 1.43138E-05 8.50464E-05 0.00000E+00
 -1       884 1.30403E-05 8.90098E-05 0.00000E+00
 -1       885 1.17687E-05 9.29682E-05 0.00000E+00
 -1       886 1.05084E-05 9.68966E-05 0.00000E+00
 -1       887 9.26875E-06 1.00770E-04-3.30872E-24
 -1       888 8.05907E-06 1.04564E-04 0.00000E+00
 -1       889 6.88786E-06 1.08252E-04-1.65436E-24
 -1       890 5.76586E-06 1.11810E-04 0.00000E+00
 -1       891 1.83112E-05 1.15613E-04 1.65436E-24
 -1       892 1.56307E-05 1.15532E-04-8.27181E-25
 -1       893 1.30515E-05 1.15452E-04 0.00000E+00
 -1       894 1.04507E-05 1.15371E-04 0.00000E+00
 -1       895 7.70536E-06 1.15290E-04 8.27181E-25
 -1       896 2.69905E-07 9.67370E-07 6.61744E-24
 -1       897 5.41920E-07 1.68987E-06 0.00000E+00
 -1       898 8.14097E-07 2.19672E-06 6.61744E-24
 -1       899 1.08661E-06 2.51714E-06 3.30872E-24
 -1       900 1.35921E-06 2.68011E-06 6.61744E-24
 -1       901 1.63187E-06 2.71436E-06 0.00000E+00
 -1       902 1.90455E-06 2.64848E-06-6.61744E-24
 -1       903 2.17721E-06 2.51089E-06 3.30872E-24
 -1       904 2.44986E-06 2.32993E-06-6.61744E-24
 -1       905 2.72245E-06 2.13387E-06 0.00000E+00
 -1       906 2.99496E-06 1.95099E-06 0.00000E+00
 -1       907 3.26725E-06 1.80954E-06 0.00000E+00
 -1       908 3.53928E-06 1.73785E-06 0.00000E+00
 -1       909 3.81005E-06 1.76437E-06 3.30872E-24
 -1       910 4.08068E-06 1.91765E-06-6.61744E-24
 -1       911 4.41099E-06 2.50665E-06 0.00000E+00
 -1       912 4.48068E-06 2.57640E-06-8.27181E-25
 -1       913 4.55038E-06 2.46463E-06 0.00000E+00
 -1       914 4.62014E-06 2.20079E-06 0.00000E+00
 -1       915 4.68988E-06 1.81420E-06 1.65436E-24
 -1       916 4.75959E-06 1.33415E-06-8.27181E-25
 -1       917 4.82927E-06 7.89920E-07 0.00000E+00
 -1       918 4.89893E-06 2.10745E-07-8.27181E-25
 -1       919 4.96856E-06-3.74140E-07-1.65436E-24
 -1       920 5.03816E-06-9.35499E-07 0.00000E+00
 -1       921 5.10771E-06-1.44411E-06 0.00000E+00
 -1       922 5.17707E-06-1.87070E-06 0.00000E+00
 -1       923 5.24622E-06-2.18599E-06 1.65436E-24
 -1       924 5.31420E-06-2.36067E-06 0.00000E+00
 -1       925 5.38206E-06-2.36533E-06 4.13590E-25
 -1       926 5.11032E-06-1.90975E-06-6.61744E-24
 -1       927 4.77086E-06-1.73631E-06 3.30872E-24
 -1       928 4.43130E-06-1.63563E-06 0.00000E+00
 -1       929 4.09055E-06-1.59253E-06 0.00000E+00
 -1       930 3.74956E-06-1.59179E-06-1.32349E-23
 -1       931 3.40836E-06-1.61808E-06 0.00000E+00
 -1       932 3.06707E-06-1.65605E-06-1.32349E-23
 -1       933 2.72574E-06-1.69033E-06 6.61744E-24
 -1       934 2.38441E-06-1.70552E-06-1.32349E-23
 -1       935 2.04307E-06-1.68630E-06 0.00000E+00
 -1       936 1.70175E-06-1.61738E-06 1.32349E-23
 -1       937 1.36051E-06-1.48357E-06 6.61744E-24
 -1       938 1.01933E-06-1.26976E-06-1.32349E-23
 -1       939 6.78541E-07-9.61048E-07 6.61744E-24
 -1       940 3.37761E-07-5.42599E-07 0.00000E+00
 -1       941 5.92096E-07 5.42736E-07-6.61744E-24
 -1       942 1.22316E-06 9.79125E-07-6.61744E-24
 -1       943 1.85482E-06 1.33541E-06 0.00000E+00
 -1       944 2.49176E-06 1.63769E-06-6.61744E-24
 -1       945 3.12980E-06 1.91193E-06 0.00000E+00
 -1       946 3.76880E-06 2.18396E-06 1.32349E-23
 -1       947 4.40813E-06 2.47964E-06-2.64698E-23
 -1       948 5.04761E-06 2.82488E-06 1.32349E-23
 -1       949 5.68709E-06 3.24576E-06 2.64698E-23
 -1       950 6.32641E-06 3.76863E-06 1.32349E-23
 -1       951 6.96541E-06 4.42009E-06 0.00000E+00
 -1       952 7.60357E-06 5.22727E-06 0.00000E+00
 -1       953 8.24074E-06 6.21767E-06 1.32349E-23
 -1       954 8.87365E-06 7.41947E-06 0.00000E+00
 -1       955 9.50584E-06 8.86151E-06 0.00000E+00
 -1       956 9.98384E-06 1.26012E-05 8.27181E-25
 -1       957 9.85623E-06 1.48348E-05 1.34417E-24
 -1       958 9.72761E-06 1.72542E-05 3.10193E-24
 -1       959 9.59826E-06 1.98385E-05-4.13590E-25
 -1       960 9.46843E-06 2.25668E-05 3.30872E-24
 -1       961 9.33821E-06 2.54179E-05 8.27181E-25
 -1       962 9.20769E-06 2.83708E-05-1.65436E-24
 -1       963 9.07694E-06 3.14042E-05 0.00000E+00
 -1       964 8.94601E-06 3.44972E-05 0.00000E+00
 -1       965 8.81497E-06 3.76283E-05 0.00000E+00
 -1       966 8.68390E-06 4.07767E-05 3.30872E-24
 -1       967 8.55288E-06 4.39210E-05 0.00000E+00
 -1       968 8.42200E-06 4.70401E-05 0.00000E+00
 -1       969 8.29147E-06 5.01130E-05 6.61744E-24
 -1       970 8.16148E-06 5.31185E-05 0.00000E+00
 -1       971 7.83202E-06 5.89946E-05-3.30872E-24
 -1       972 7.62463E-06 6.21949E-05 3.30872E-24
 -1       973 7.41650E-06 6.56073E-05 6.61744E-24
 -1       974 7.20708E-06 6.92010E-05 0.00000E+00
 -1       975 6.99698E-06 7.29455E-05 0.00000E+00
 -1       976 6.78632E-06 7.68099E-05 3.30872E-24
 -1       977 6.57529E-06 8.07631E-05 0.00000E+00
 -1       978 6.36402E-06 8.47742E-05 0.00000E+00
 -1       979 6.15266E-06 8.88119E-05 6.61744E-24
 -1       980 5.94135E-06 9.28451E-05 0.00000E+00
 -1       981 5.73023E-06 9.68427E-05 0.00000E+00
 -1       982 5.51956E-06 1.00774E-04 0.00000E+00
 -1       983 5.30946E-06 1.04607E-04-6.61744E-24
 -1       984 5.10084E-06 1.08311E-04 3.30872E-24
 -1       985 4.89288E-06 1.11856E-04 0.00000E+00
 -3
    1PSTEP                         2           1           1          
  100CL  101 1.000000000         841                     0    1           1
 -4  STRESS      6    1
 -5  SXX         1    4    1    1
 -5  SYY         1    4    2    2
 -5  SZZ         1    4    3    3
 -5  SXY         1    4    1    2
 -5  SYZ         1    4    2    3
 -5  SZX         1    4    3    1
 -1         1-1.89208E+06-5.66094E+05-1.69289E+05-7.32713E+05 4.85064E-11-8.92517E-10
 -1         2-1.14287E+06 9.25046E+03 2.07846E+03-1.51265E+05 4.13820E-11 2.60206E-09
 -1         3-4.41813E+05-1.73215E+05 2.90890E+02-8.17424E+04-1.55978E-10-4.36557E-10
 -1         4-9.00388E+04-4.36624E+04 1.63764E+02-2.74247E+04 1.42734E-10 1.37061E-09
 -1         5 3.85918E+04 6.08070E+05-8.86542E+04 2.13873E+03 5.74801E-10 5.93673E-10
 -1         8-4.69367E+05-3.33335E+05-1.67065E+04-5.54252E+05 1.16415E-10 2.61934E-09
 -1         9-8.67177E+05-1.37413E+05-6.01737E+04-4.05634E+05 1.10443E-09 1.89417E-09
 -1        10-4.80544E+05-2.77630E+05 5.43854E+02-2.58283E+05-1.00348E-10 1.09443E-09
 -1        11-1.57647E+05-8.80133E+04 1.57015E+02-1.30791E+05 1.42222E-09 3.20809E-09
 -1        12 3.25775E+04 6.01999E+05-8.71562E+04 4.00102E+03-8.37531E-10 2.14709E-09
 -1        15 1.23729E+04-1.49688E+04 1.46135E+03-1.69765E+05-7.54881E-11-1.35333E-09
 -1        16-4.29607E+05-1.26522E+05-3.59428E+04-3.59133E+05 4.16852E-10 5.30539E-10
 -1        17-3.15288E+05-2.34842E+05 9.25771E+03-3.80272E+05-6.74845E-10-9.70128E-12
 -1        18-5.82355E+04-7.99639E+04-2.19926E+04-2.86398E+05-1.05501E-09-1.03561E-09
 -1        19 1.62339E+05 3.23313E+05-3.75208E+04-2.58387E+04-4.32495E-09 3.98783E-09
 -1        20 1.28466E+05-8.39059E+04-1.39198E+04 8.21093E+04 1.12821E-08-3.32057E-09
 -1        21-1.90874E+04-1.81942E+05-8.14144E+02 1.27893E+04 4.07917E-08-2.17798E-09
 -1        22 2.86082E+04 1.71385E+05 6.55239E+02-8.35595E+04 1.56433E-10-1.82627E-09
 -1        23-1.84902E+05-1.01261E+04 1.24202E+03-1.94060E+05 5.12349E-11-1.19599E-10
 -1        24-2.56112E+05-4.33697E+04 7.04739E+04-3.44775E+05-4.37770E-10-1.47944E-09
 -1        25 1.34790E+05 5.66353E+04 9.71711E+04-3.59385E+05 1.79019E-09 3.39545E-10
 -1        26 6.41399E+03 2.99911E+05 1.98852E+04-1.12448E+05-2.63435E-09-2.43745E-10
 -1        27-4.46171E+04-6.33753E+04-2.97002E+04 1.19164E+05 8.85545E-09-3.20567E-09
 -1        28-1.08435E+04-1.26177E+05-8.81715E+02 6.80293E+04 2.13761E-08-7.53773E-10
 -1        29 3.76878E+05 2.81092E+05 9.74957E+02-4.90786E+04-5.22959E-11-1.16118E-09
 -1        30 1.30318E+05 3.30818E+04 9.21172E+02-8.44497E+04 1.60867E-10-1.03682E-10
 -1        31-4.11804E+05 3.00487E+04 1.98091E+03-1.19959E+05 1.49299E-10-1.96451E-10
 -1        32-1.38508E+05 7.81688E+04 1.41071E+05-3.39763E+05-2.44285E-09 1.60435E-09
 -1        33 2.20169E+05 3.42037E+05 1.43316E+05-1.52094E+05-1.07669E-09-4.78394E-10
 -1        34-2.55071E+05-3.09867E+04-9.12141E+03 6.25195E+04-1.64724E-09-3.24007E-09
 -1        35-4.17792E+04-4.20667E+04-6.91561E+02 9.56221E+04 2.74457E-08-4.85064E-10
 -1        36-2.54620E+06 1.09721E+04-8.68924E+04-7.75344E-09-1.04296E-09 1.81535E-09
 -1        37-2.57442E+06-2.11188E+04-5.30971E+04 1.65801E-08 1.40126E-09-1.89175E-10
 -1        38-2.55842E+06 9.85669E+02-2.23044E+04 8.59751E-09 1.86777E-10-3.07864E-09
 -1        39-2.56099E+06-1.59332E+03-1.20383E+04 3.29366E-08-4.16305E-10 9.67952E-09
 -1        40-2.55955E+06 1.12661E+02-5.71040E+03 2.82683E-08-1.21342E-09 4.97676E-09
 -1        41-2.55970E+06-1.16134E+02-3.14467E+03-3.40873E-08 1.59095E-09 1.05211E-09
 -1        42-2.55968E+06 2.28472E+01-1.91355E+03 1.22126E-09-8.63231E-10-8.40714E-10
 -1        43-2.55958E+06-1.84861E+01-1.78380E+03 1.23275E-08 7.86133E-10 4.49987E-09
 -1        44-2.55967E+06 3.01156E+01-2.45937E+03-3.42603E-08 1.85754E-11-5.12546E-09
 -1        45-2.55981E+06-1.76641E+02-4.55853E+03-1.64561E-08-3.38994E-10-9.41924E-09
 -1        46-2.55946E+06 1.70512E+02-8.58374E+03 1.75780E-09-1.58976E-10-4.74802E-09
 -1        47-2.56177E+06-2.42669E+03-1.82766E+04 6.29393E-09-4.38456E-10-4.24484E-09
 -1        48-2.55773E+06 1.50097E+03-3.39397E+04 3.27674E-09 1.25584E-10 3.67436E-10
 -1        49-2.58222E+06-3.21629E+04-8.08492E+04-4.22824E-09-6.74173E-10 3.87990E-09
 -1        50-2.53913E+06 1.67144E+04-1.32304E+05-5.01495E-09-1.51326E-10 1.17143E-09
 -1        51 4.19876E+04-5.43278E+05 1.08822E+05-9.22443E+05-1.60071E-10 2.27010E-09
 -1        52 1.92218E+04-5.28048E+05 5.81885E+04-1.11048E+06 2.11003E-10 2.97587E-09
 -1        53 7.23887E+03-5.48121E+05 2.89416E+04-9.19077E+05-2.11003E-10-3.27418E-09
 -1        54 1.38221E+04-5.49853E+05 2.18433E+04-1.11358E+06 2.03727E-10-1.54250E-09
 -1        55 1.70558E+04-5.55124E+05 2.30721E+04-9.19053E+05 2.54659E-10-2.48838E-09
 -1        56-3.22110E+06-4.35609E+05-1.84379E+05-1.23107E+06-1.47702E-09-7.45786E-09
 -1        57-3.27555E+06-5.28257E+05-1.11086E+05-1.24118E+06-1.68802E-09-5.71163E-10
 -1        58-3.24940E+06-4.63224E+05-4.31973E+04-1.23111E+06 3.01043E-10 8.09450E-09
 -1        59-3.24235E+06-4.83537E+05-2.27756E+04-1.24639E+06-1.32923E-09 4.25757E-09
 -1        60-3.25206E+06-4.65775E+05-1.00352E+04-1.23124E+06 1.67029E-09 2.20030E-09
 -1        61-3.23935E+06-4.79610E+05-5.28168E+03-1.24636E+06-2.58296E-10-3.78714E-09
 -1        62-3.25218E+06-4.66213E+05-2.97384E+03-1.23145E+06 1.03091E-09 4.86625E-09
 -1        63-3.23949E+06-4.78881E+05-2.67735E+03-1.24578E+06-1.79239E-09-1.80717E-09
 -1        64-3.25184E+06-4.66521E+05-3.74866E+03-1.23177E+06-7.93989E-10 2.10912E-09
 -1        65-3.24062E+06-4.78610E+05-7.35440E+03-1.24493E+06-2.45564E-10 3.77827E-09
 -1        66-3.25094E+06-4.66601E+05-1.43728E+04-1.23220E+06-5.82077E-11 5.80258E-10
 -1        67-3.24610E+06-4.83046E+05-3.27898E+04-1.24345E+06 3.96540E-10 4.91127E-09
 -1        68-3.24647E+06-4.63546E+05-6.23062E+04-1.23266E+06 3.63798E-10 5.06407E-09
 -1        69-3.29505E+06-5.46402E+05-1.60195E+05-1.23458E+06-2.26464E-09-4.89308E-10
 -1        70-3.20508E+06-4.24242E+05-2.65873E+05-1.23317E+06 2.11003E-10-1.45519E-11
 -1        71-9.38439E+05-2.46448E+03 1.95946E+04-1.28659E-08-1.87398E-10-3.87354E-09
 -1        72-9.31942E+05 4.75505E+03 1.19650E+04-2.70288E-08 3.39095E-11-5.14592E-09
 -1        73-9.35681E+05-2.21382E+02 5.01864E+03-1.93776E-08 4.69806E-12-1.94518E-09
 -1        74-9.34966E+05 3.58517E+02 2.68713E+03-1.20721E-08 1.39614E-09 5.22050E-10
 -1        75-9.35423E+05-2.47905E+01 1.23075E+03-1.52790E-09-9.24595E-11-3.99359E-09
 -1        76-9.35259E+05 2.59839E+01 5.90087E+02-3.59181E-08-6.90819E-10 3.39853E-10
 -1        77-9.35390E+05-2.71547E+00 1.95278E+02-6.42444E-09 7.21318E-11-3.52651E-09
 -1        78-9.35306E+05-8.54102E-01-8.31518E+01 4.32344E-09-1.69107E-10-9.51083E-10
 -1        79-9.35377E+05 5.18045E+00-3.99082E+02 1.12558E-08-3.03942E-12-4.39016E-09
 -1        80-9.35368E+05-3.95491E+01-9.48877E+02-2.06317E-08-4.26927E-10 1.81726E-09
 -1        81-9.35328E+05 3.79323E+01-1.89627E+03-2.71851E-09 3.89465E-10-7.47491E-10
 -1        82-9.35812E+05-5.44982E+02-4.09762E+03-5.76497E-09 2.07428E-10 4.34909E-10
 -1        83-9.34936E+05 3.36631E+02-7.63492E+03-2.88623E-08-3.24541E-10 1.11322E-09
 -1        84-9.40408E+05-7.22832E+03-1.81912E+04-1.26765E-08 3.27347E-10-2.31535E-09
 -1        85-9.30742E+05 3.74751E+03-2.97820E+04 1.88834E-08-2.60231E-10 2.96313E-09
 -1        86-2.12673E+04 6.09736E+05 1.72210E+05-3.46512E+04 1.60071E-10 6.27551E-10
 -1        87 4.26379E+04 6.66618E+05 1.17578E+05-8.10420E+04-5.31145E-10-4.59659E-09
 -1        88-3.32346E+03 6.31267E+05 7.36705E+04-3.45181E+04-3.88809E-11-1.21508E-09
 -1        89 3.36688E+04 6.59769E+05 9.79563E+04-8.11065E+04-9.02219E-10-7.20684E-09
 -1        90-1.57919E+04 6.15682E+05 1.33356E+05-3.45478E+04-9.45874E-11 2.42835E-09
 -1        91-1.46556E+06-2.03294E+05-4.76573E+04-5.57766E+05-5.12046E-10-2.07910E-09
 -1        92-1.47720E+06-2.29542E+05-2.87011E+04-5.63085E+05-1.40403E-10-1.88811E-09
 -1        93-1.47290E+06-2.10389E+05-1.11752E+04-5.57771E+05 3.17186E-10 8.74934E-10
 -1        94-1.46861E+06-2.18038E+05-5.89589E+03-5.64466E+05 2.42380E-09 4.42554E-09
 -1        95-1.47360E+06-2.11031E+05-2.60647E+03-5.57790E+05 2.29193E-10-3.67379E-10
 -1        96-1.46780E+06-2.17061E+05-1.38568E+03-5.64503E+05-2.43574E-10-2.45666E-09
 -1        97-1.47366E+06-2.11120E+05-8.05192E+02-5.57822E+05-8.34234E-10-8.06813E-09
 -1        98-1.46780E+06-2.16921E+05-7.70336E+02-5.64412E+05 8.75389E-11-3.14418E-09
 -1        99-1.47359E+06-2.11168E+05-1.12497E+03-5.57875E+05-3.42652E-10 1.60981E-10
 -1       100-1.46806E+06-2.16932E+05-2.24514E+03-5.64269E+05 1.54955E-10 8.29914E-11
 -1       101-1.47338E+06-2.11136E+05-4.40046E+03-5.57946E+05 1.38266E-09 2.17824E-10
 -1       102-1.46963E+06-2.18401E+05-1.00475E+04-5.63955E+05 4.75438E-10-2.38470E-09
 -1       103-1.47206E+06-2.10139E+05-1.90877E+04-5.58015E+05-3.85967E-10-1.89721E-09
 -1       104-1.48448E+06-2.37873E+05-4.90356E+04-5.61373E+05-6.80984E-11 4.24188E-09
 -1       105-1.45944E+06-1.98106E+05-8.14264E+04-5.58104E+05-2.98314E-10-3.81624E-09
 -1       106-2.04618E+05-4.90797E+03 3.90823E+04-5.69298E-09-1.74017E-10-4.17458E-09
 -1       107-1.91808E+05 9.47767E+03 2.38692E+04 9.39508E-10-1.21221E-09-4.22006E-09
 -1       108-1.99114E+05-4.41007E+02 1.00255E+04-1.09965E-08 1.49228E-10 1.36060E-09
 -1       109-1.97834E+05 7.14282E+02 5.38814E+03 6.42160E-10 2.08956E-09 3.21393E-10
 -1       110-1.98598E+05-4.99087E+01 2.50917E+03-7.66612E-09-2.89632E-10-7.22594E-10
 -1       111-1.98414E+05 5.18539E+01 1.28585E+03 1.14265E-08-4.51726E-10 4.01317E-09
 -1       112-1.98535E+05-7.60367E+00 6.02796E+02-2.42555E-08-4.02927E-10 1.40537E-09
 -1       113-1.98490E+05 2.77023E+00 2.70451E+02-1.35708E-08 7.89338E-10 5.01254E-09
 -1       114-1.98523E+05-4.00160E-01 6.00182E+01-8.84770E-09-1.21713E-10-6.16481E-10
 -1       115-1.98514E+05-7.84991E+00-1.19321E+02 6.50483E-09 2.53629E-10-5.32716E-09
 -1       116-1.98511E+05 7.26631E+00-3.45701E+02 8.45926E-10-1.52889E-10 1.16685E-09
 -1       117-1.98605E+05-1.09200E+02-8.04366E+02-6.24816E-09-4.40181E-10 8.66639E-09
 -1       118-1.98431E+05 6.73213E+01-1.52287E+03-3.65708E-09 4.29743E-10 3.40117E-09
 -1       119-1.99527E+05-1.44845E+03-3.64337E+03-1.93938E-09-9.49502E-10-1.54387E-09
 -1       120-1.97590E+05 7.50272E+02-5.97004E+03-9.62223E-09-2.19187E-11-9.96579E-10
 -1       121-3.63061E+02-5.94537E+05 2.78936E+03-3.58467E+04 6.07997E-10 2.83762E-09
 -1       122 8.83311E+02-5.93531E+05 3.31400E+03-8.56649E+04 1.54978E-09 3.32875E-09
 -1       123-1.56774E+02-5.94572E+05 4.48644E+03-3.55616E+04 1.52932E-09 8.42192E-10
 -1       124 4.02625E+03-5.91642E+05 9.83710E+03-8.59330E+04 2.28829E-09 6.71753E-09
 -1       125-1.89929E+03-5.96790E+05 1.57900E+04-3.55768E+04 1.64709E-09-2.53635E-10
 -1       126-6.38524E+05-9.17746E+04-1.03282E+04-2.44665E+05 1.71394E-09-1.15870E-09
 -1       127-6.37281E+05-1.01184E+05-6.21990E+03-2.50087E+05-9.09495E-11-2.24742E-09
 -1       128-6.40137E+05-9.32877E+04-2.42627E+03-2.44644E+05 5.36090E-10-1.88379E-10
 -1       129-6.35401E+05-9.87171E+04-1.28566E+03-2.50415E+05-6.86612E-10-9.01203E-10
 -1       130-6.40293E+05-9.34227E+04-5.81056E+02-2.44645E+05-1.84212E-09-3.57119E-11
 -1       131-6.35226E+05-9.85083E+04-3.34492E+02-2.50426E+05-1.18564E-09 5.13654E-09
 -1       132-6.40301E+05-9.34429E+04-2.44702E+02-2.44653E+05 3.70505E-10 1.55399E-09
 -1       133-6.35238E+05-9.84762E+04-3.18538E+02-2.50398E+05 1.35856E-10 7.80631E-10
 -1       134-6.40274E+05-9.34561E+04-5.53199E+02-2.44669E+05-6.50516E-10-1.59582E-09
 -1       135-6.35355E+05-9.85066E+04-1.16550E+03-2.50348E+05 4.31100E-10-5.28894E-09
 -1       136-6.40170E+05-9.34276E+04-2.31415E+03-2.44691E+05-1.53477E-10-4.94697E-09
 -1       137-6.36148E+05-9.93099E+04-5.29648E+03-2.50212E+05-1.29512E-09-3.13162E-09
 -1       138-6.39492E+05-9.28878E+04-1.00695E+04-2.44707E+05 5.38421E-10-3.42061E-09
 -1       139-6.43951E+05-1.09592E+05-2.58567E+04-2.48871E+05 1.12669E-09-4.54611E-09
 -1       140-6.32827E+05-8.65497E+04-4.29425E+04-2.44743E+05-1.16643E-09 9.09495E-11
 -1       141 5.72561E+03-1.67025E+03 1.32974E+04 1.51749E-09 9.53704E-11 1.79352E-09
 -1       142 1.00796E+04 3.22562E+03 8.11341E+03 8.75787E-09-1.92372E-10 2.95267E-09
 -1       143 7.60081E+03-1.49850E+02 3.38890E+03-1.38535E-10 3.57045E-10 4.68731E-09
 -1       144 8.02709E+03 2.43173E+02 1.78478E+03 9.35022E-09 1.48240E-10 4.04009E-09
 -1       145 7.77791E+03-1.60460E+01 7.56256E+02-4.71058E-09 1.74385E-10 4.01656E-10
 -1       146 7.82268E+03 1.74518E+01 2.37452E+02 7.21988E-09-9.56024E-10-2.17671E-09
 -1       147 7.80522E+03 1.46720E+00-1.89614E+02 8.94065E-09 5.27355E-10 3.52665E-09
 -1       148 7.76420E+03-7.33651E+00-7.17055E+02 2.95504E-09-7.69355E-10 1.02899E-09
 -1       149 7.83640E+03 1.97525E+01-1.56767E+03 1.14380E-09 8.85883E-11-9.62984E-10
 -1       150 7.56935E+03-1.34038E+02-3.32999E+03 1.72954E-08-3.84943E-10 6.77971E-10
 -1       151 8.00014E+03 1.29066E+02-6.49126E+03-6.98913E-09-3.03364E-10 2.11321E-09
 -1       152 6.07075E+03-1.84653E+03-1.39348E+04-3.73942E-08 9.66763E-10 3.48814E-09
 -1       153 9.33597E+03 1.14026E+03-2.59229E+04-2.37657E-08 3.37517E-10-2.85672E-09
 -1       154-9.50629E+03-2.45019E+04-6.17164E+04 3.05135E-09-5.37788E-10-2.66300E-09
 -1       155 2.35942E+04 1.26966E+04-1.00999E+05-6.85122E-09 2.54383E-10 3.14321E-09
 -1       156 1.66769E+02-1.52479E+05-1.29803E+03-1.91100E+04 2.99906E-10 5.50244E-10
 -1       157-2.27227E+02-1.52854E+05 1.07680E+02-4.54412E+04 1.20008E-09 1.70803E-09
 -1       158-7.08524E+01-1.52880E+05 1.78890E+03-1.89746E+04 1.43586E-09 6.88942E-10
 -1       159 2.16578E+03-1.51319E+05 5.14111E+03-4.55805E+04 1.36924E-09-3.19540E-09
 -1       160-1.07508E+03-1.54164E+05 8.71430E+03-1.89700E+04 2.03499E-09 2.36696E-10
 -1       161-1.65843E+05-2.46790E+04-5.08502E+03-6.52688E+04-1.01664E-09 1.46724E-09
 -1       162-1.64704E+05-2.98549E+04-3.06743E+03-6.85642E+04 7.17016E-10 1.07815E-09
 -1       163-1.66626E+05-2.54339E+04-1.20698E+03-6.52698E+04-7.30893E-10 2.79022E-09
 -1       164-1.63790E+05-2.86287E+04-6.60388E+02-6.87097E+04 1.46031E-10-3.71367E-09
 -1       165-1.66699E+05-2.55039E+04-3.42867E+02-6.52733E+04 1.47793E-12-3.50616E-09
 -1       166-1.63710E+05-2.85247E+04-2.86154E+02-6.87118E+04 1.45212E-09-2.48758E-09
 -1       167-1.66698E+05-2.55115E+04-3.70334E+02-6.52758E+04 1.83263E-10 1.28944E-09
 -1       168-1.63738E+05-2.85266E+04-6.96443E+02-6.87079E+04 1.06138E-09 8.69142E-09
 -1       169-1.66665E+05-2.54983E+04-1.37361E+03-6.52758E+04-1.54614E-10-2.66164E-09
 -1       170-1.63964E+05-2.87062E+04-2.99376E+03-6.87078E+04 1.60867E-10-6.87123E-10
 -1       171-1.66466E+05-2.53508E+04-5.98234E+03-6.52650E+04 1.47338E-10-5.41559E-09
 -1       172-1.65896E+05-3.09305E+04-1.37253E+04-6.85485E+04-4.35193E-10-1.10958E-10
 -1       173-1.64805E+05-2.38546E+04-2.60910E+04-6.52126E+04 6.44718E-10 8.69477E-10
 -1       174-1.85863E+05-5.78353E+04-6.70101E+04-6.54132E+04-4.67708E-10-6.91216E-10
 -1       175-1.47715E+05-7.22677E+03-1.11244E+05-6.50884E+04 1.87902E-09 4.37285E-09
 -1       191 1.65203E+04 1.48291E+06 4.24364E+04 2.85736E+03 1.49157E-10-2.04636E-09
 -1       192 5.68813E+03 1.49128E+06 2.54629E+04 4.08359E+03-1.53682E-09 5.22414E-09
 -1       193 9.86649E+02 1.48615E+06 1.89174E+04 3.08756E+03-7.87281E-12-9.78616E-10
 -1       194 5.95244E+03 1.49148E+06 2.62705E+04 3.62309E+03-2.90675E-09-2.97314E-09
 -1       195 1.73387E+04 1.48273E+06 4.43669E+04 3.34586E+03 7.27596E-12 2.33013E-09
 -1       251 2.18082E+05-1.29841E+04 8.82804E+04-6.18190E+04-9.82254E-11 1.43336E-09
 -1       252 2.49057E+05 2.02624E+04 5.43312E+04-1.46726E+05-3.49246E-10 5.89353E-10
 -1       253 2.29774E+05-1.89272E+03 2.25378E+04-6.13297E+04 1.89175E-10-3.81806E-09
 -1       254 2.33277E+05 1.15814E+03 1.23310E+04-1.47104E+05 5.67525E-10 1.69075E-09
 -1       255 2.30320E+05-3.83711E+02 5.70187E+03-6.14154E+04-1.08776E-09-9.44056E-10
 -1       256 2.30649E+05 2.59167E+02 3.15877E+03-1.46964E+05 9.17680E-10-3.95676E-09
 -1       257 2.30090E+05 6.82997E+01 1.76971E+03-6.14743E+04-6.84850E-10-1.74305E-09
 -1       258 2.29889E+05 4.46695E+02 1.47167E+03-1.46885E+05-7.19865E-10 1.61890E-10
 -1       259 2.29985E+05 1.71677E+02 1.78069E+03-6.14939E+04-2.83762E-10-1.85264E-09
 -1       260 2.30090E+05 5.17733E+02 3.11434E+03-1.46893E+05-1.65528E-10-3.33421E-09
 -1       261 2.30004E+05-7.17505E+01 5.69564E+03-6.14662E+04 1.40972E-09-2.93335E-09
 -1       262 2.32135E+05 1.65142E+03 1.21325E+04-1.46964E+05-1.89175E-10 5.74647E-09
 -1       263 2.29266E+05-1.35578E+03 2.23110E+04-6.14226E+04-5.27507E-10 4.91127E-09
 -1       264 2.47100E+05 2.06515E+04 5.34346E+04-1.46621E+05-1.07684E-09 4.94765E-09
 -1       265 2.17585E+05-1.20452E+04 8.70481E+04-6.18308E+04-1.14233E-09-4.88944E-09
 -1       266-5.48295E+03-2.12347E+05 4.75687E+04-6.38092E+04-3.23780E-10 1.04728E-09
 -1       267 1.27445E+04-1.97350E+05 2.71892E+04-1.54107E+05 8.86757E-11-1.73486E-09
 -1       268-5.02247E-01-2.05028E+05 7.61641E+03-6.38533E+04-7.27596E-11-1.67347E-10
 -1       269-2.62104E+03-2.06565E+05-4.69311E+03-1.53610E+05 3.45835E-10-8.17636E-10
 -1       270 2.00855E+03-2.01323E+05-1.59812E+04-6.43421E+04-3.52884E-10 2.41562E-09
 -1       271-2.23804E+06-3.29132E+05-1.68278E+05-8.98519E+05 1.79807E-09 4.68572E-09
 -1       272-2.25406E+06-4.44965E+05-1.01062E+05-9.44050E+05 6.22094E-10-7.05040E-09
 -1       273-2.26557E+06-3.52363E+05-3.95704E+04-8.97364E+05-7.82165E-11-3.91810E-09
 -1       274-2.22274E+06-4.06362E+05-2.07045E+04-9.52171E+05-4.83851E-10 3.13503E-09
 -1       275-2.26925E+06-3.53421E+05-9.21429E+03-8.96714E+05-7.51243E-10 2.37378E-10
 -1       276-2.21928E+06-4.04122E+05-4.73322E+03-9.54503E+05 2.24645E-10-1.38652E-09
 -1       277-2.27024E+06-3.52910E+05-2.59752E+03-8.96305E+05-3.41061E-10 5.08749E-10
 -1       278-2.21875E+06-4.04413E+05-2.15895E+03-9.55540E+05 1.40926E-09 1.11231E-09
 -1       279-2.27046E+06-3.52672E+05-2.85499E+03-8.96172E+05-1.88777E-09 1.87356E-10
 -1       280-2.21911E+06-4.04696E+05-5.50648E+03-9.55499E+05 7.39419E-10 2.56205E-09
 -1       281-2.26984E+06-3.52682E+05-1.07368E+04-8.96308E+05 1.04592E-09-5.04770E-10
 -1       282-2.22285E+06-4.08070E+05-2.44334E+04-9.54083E+05 3.45608E-11 7.64885E-10
 -1       283-2.26614E+06-3.50797E+05-4.65315E+04-8.96684E+05-2.53658E-09 1.65528E-09
 -1       284-2.25923E+06-4.54642E+05-1.19309E+05-9.46079E+05-5.45697E-10 3.05772E-09
 -1       285-2.23440E+06-3.22544E+05-1.98345E+05-8.97474E+05 8.34916E-10 2.89583E-09
 -1       286-7.58220E+04-8.09740E+03 5.95040E+04-3.46013E+04 2.06273E-09 2.31012E-09
 -1       287-5.56365E+04 1.40682E+04 3.64834E+04-8.14520E+04 1.34423E-09 4.93856E-10
 -1       288-6.76802E+04-9.71150E+02 1.52326E+04-3.41984E+04 6.73026E-11 1.69348E-09
 -1       289-6.55193E+04 9.48805E+02 8.27589E+03-8.18752E+04-2.29193E-10 1.17416E-09
 -1       290-6.71008E+04-1.68573E+02 3.86639E+03-3.41646E+04 2.16460E-10 2.23554E-09
 -1       291-6.68446E+04 1.42121E+02 2.12319E+03-8.19215E+04-7.05768E-10-7.87168E-10
 -1       292-6.71362E+04 1.85547E+01 1.21126E+03-3.41532E+04 1.55615E-09-5.50926E-10
 -1       293-6.71643E+04 1.80316E+02 1.02784E+03-8.19381E+04-5.25461E-10 3.94471E-09
 -1       294-6.71837E+04 6.26813E+01 1.28678E+03-3.41479E+04 8.53163E-10-1.09435E-09
 -1       295-6.70751E+04 2.62632E+02 2.28691E+03-8.19395E+04 4.26314E-09-2.41698E-09
 -1       296-6.72491E+04-4.03769E+01 4.23547E+03-3.41517E+04 8.07631E-10-1.92813E-10
 -1       297-6.59143E+04 1.26995E+03 8.99588E+03-8.19130E+04 1.92085E-09 4.48881E-09
 -1       298-6.79888E+04-8.05075E+02 1.66372E+04-3.41740E+04-3.52884E-10 3.60160E-10
 -1       299-5.54753E+04 1.56561E+04 3.96752E+04-8.15969E+04 1.56433E-10-2.58615E-09
 -1       300-7.69484E+04-8.42940E+03 6.48331E+04-3.44754E+04-8.36735E-11 1.92813E-10
 -1       301 3.64674E+04 1.23510E+05 8.83355E+04-2.38088E+05 3.03407E-09-3.47973E-09
 -1       302 1.38065E+04 1.40541E+05 4.98045E+04-2.87451E+05 2.67119E-09-3.11775E-09
 -1       303 3.24215E+03 1.30294E+05 3.15042E+04-2.37763E+05 3.20688E-09 2.00930E-09
 -1       304 9.34409E+03 1.37367E+05 3.63443E+04-2.87477E+05 2.56478E-09 2.76123E-09
 -1       305 2.27083E+04 1.26622E+05 5.61407E+04-2.38105E+05 2.43745E-09 4.66935E-09
 -1       306-2.42956E+06-3.38598E+05-1.87691E+05-9.53288E+05 2.15914E-09 1.44064E-09
 -1       307-2.46991E+06-4.47112E+05-1.12963E+05-9.80121E+05-2.87855E-10-3.88536E-09
 -1       308-2.45936E+06-3.65619E+05-4.40336E+04-9.52515E+05 3.07409E-10 3.07409E-10
 -1       309-2.43515E+06-4.03053E+05-2.31482E+04-9.87400E+05 8.14907E-10 1.81899E-09
 -1       310-2.46282E+06-3.67461E+05-1.02052E+04-9.52052E+05 4.61114E-10-2.24918E-09
 -1       311-2.43132E+06-4.00071E+05-5.27199E+03-9.88863E+05-1.49566E-09-2.78465E-09
 -1       312-2.46353E+06-3.67311E+05-2.82484E+03-9.51764E+05-2.43426E-09-1.72076E-09
 -1       313-2.43074E+06-4.00140E+05-2.28146E+03-9.89410E+05-5.60249E-10 3.48155E-09
 -1       314-2.46362E+06-3.67207E+05-2.90521E+03-9.51686E+05-2.30321E-09-5.43878E-09
 -1       315-2.43114E+06-4.00373E+05-5.51381E+03-9.89306E+05 2.48474E-09 1.69484E-09
 -1       316-2.46309E+06-3.67145E+05-1.06814E+04-9.51820E+05 1.88265E-09 1.29148E-10
 -1       317-2.43494E+06-4.03828E+05-2.43129E+04-9.88259E+05 1.66665E-09 3.93629E-09
 -1       318-2.45967E+06-3.64988E+05-4.62078E+04-9.52127E+05 7.39874E-10 4.32919E-10
 -1       319-2.47116E+06-4.50504E+05-1.18662E+05-9.81155E+05-2.34195E-11-7.27596E-10
 -1       320-2.42861E+06-3.36340E+05-1.97079E+05-9.52714E+05-4.60204E-10 1.89902E-09
 -1       321 7.79035E+04-1.00856E+04 7.96376E+04-1.46260E+04-1.60981E-10-4.54747E-10
 -1       322 1.04056E+05 1.92513E+04 4.86565E+04-3.45999E+04-2.00089E-11-1.65255E-09
 -1       323 8.90798E+04-9.39855E+02 2.04337E+04-1.44941E+04-5.56611E-10 3.70892E-09
 -1       324 9.16718E+04 1.43647E+03 1.10069E+04-3.47224E+04-2.65572E-10 4.83146E-09
 -1       325 9.00996E+04-1.12220E+02 5.15440E+03-1.44949E+04-3.13776E-11 2.14686E-09
 -1       326 9.04289E+04 1.16791E+02 2.71164E+03-3.47166E+04-2.61707E-10 3.10501E-09
 -1       327 9.02090E+04-1.05885E+01 1.40373E+03-1.45002E+04 3.01497E-10 2.39606E-09
 -1       328 9.02632E+04 3.25428E+01 9.10124E+02-3.47107E+04 3.42595E-10 6.22026E-09
 -1       329 9.02196E+04-3.73351E-01 8.24067E+02-1.45009E+04-2.36582E-10 1.02432E-09
 -1       330 9.03087E+04 5.93699E+01 1.20930E+03-3.47125E+04 8.21160E-10-4.94771E-09
 -1       331 9.01855E+04-4.35763E+01 2.10429E+03-1.44983E+04-4.83396E-10-4.18837E-10
 -1       332 9.08209E+04 5.69327E+02 4.38713E+03-3.47172E+04 6.60748E-10 4.29893E-09
 -1       333 8.97970E+04-3.84298E+02 8.09167E+03-1.44962E+04-3.15595E-10-2.79215E-10
 -1       334 9.57675E+04 7.59397E+03 1.92497E+04-3.46069E+04 6.84395E-10-2.81943E-10
 -1       335 8.53967E+04-4.02584E+03 3.14766E+04-1.46112E+04-8.24912E-10 2.05182E-09
 -1       336-1.83469E+03-6.14430E+05 1.35227E+04-1.44440E+05 3.18141E-09 3.61615E-09
 -1       337 5.24200E+03-6.10993E+05 8.42329E+03-3.46207E+05 6.50834E-09 3.74348E-09
 -1       338 7.49983E+02-6.13350E+05 3.25187E+03-1.43729E+05 5.03223E-09 2.92948E-09
 -1       339 2.07447E+03-6.13934E+05 1.14479E+03-3.46396E+05 6.65386E-09 1.27875E-09
 -1       340 4.99865E+02-6.12502E+05-7.76234E+02-1.44248E+05 4.03543E-09 2.57205E-09
 -1       341-1.45680E+06-2.02625E+05-8.16146E+04-5.63627E+05 6.77574E-10 3.87445E-09
 -1       342-1.47466E+06-2.49668E+05-4.91435E+04-5.75153E+05-5.91740E-10 1.35697E-09
 -1       343-1.46954E+06-2.14600E+05-1.91465E+04-5.63478E+05 4.30646E-10 2.55204E-09
 -1       344-1.45974E+06-2.30221E+05-1.00963E+04-5.77856E+05-1.13687E-09-4.22915E-09
 -1       345-1.47087E+06-2.15575E+05-4.47014E+03-5.63402E+05-1.73372E-09-6.23390E-09
 -1       346-1.45821E+06-2.28734E+05-2.38064E+03-5.78174E+05-3.47313E-10 1.59463E-09
 -1       347-1.47107E+06-2.15623E+05-1.39627E+03-5.63359E+05-3.82897E-10 9.23194E-10
 -1       348-1.45806E+06-2.28659E+05-1.35789E+03-5.78232E+05-1.91010E-09 2.29761E-09
 -1       349-1.47104E+06-2.15620E+05-2.00503E+03-5.63364E+05-5.85601E-10 8.01265E-10
 -1       350-1.45838E+06-2.28828E+05-4.02377E+03-5.78152E+05-1.23828E-09-6.17433E-10
 -1       351-1.47072E+06-2.15494E+05-7.89341E+03-5.63411E+05 1.04365E-09 4.69163E-09
 -1       352-1.46106E+06-2.31595E+05-1.80328E+04-5.77724E+05-1.29739E-09-1.74623E-10
 -1       353-1.46842E+06-2.13655E+05-3.42612E+04-5.63463E+05-8.41283E-12-1.73168E-09
 -1       354-1.48757E+06-2.66675E+05-8.80195E+04-5.73203E+05 1.61162E-09-7.61793E-09
 -1       355-1.44578E+06-1.91999E+05-1.46128E+05-5.63542E+05 1.59707E-09-2.29920E-09
 -1       356 1.84402E+05-5.17385E+03 4.08728E+04-1.02251E+04 4.36557E-10 5.97902E-09
 -1       357 1.97812E+05 9.88011E+03 2.49658E+04-2.42979E+04-8.02174E-10 3.39787E-09
 -1       358 1.90145E+05-4.81003E+02 1.04672E+04-1.01502E+04-2.67391E-10-1.47429E-09
 -1       359 1.91460E+05 7.33450E+02 5.60144E+03-2.43611E+04-3.91083E-10-6.83667E-09
 -1       360 1.90672E+05-5.75641E+01 2.54961E+03-1.01585E+04 2.00544E-10-2.79783E-09
 -1       361 1.90820E+05 5.33562E+01 1.19316E+03-2.43474E+04-2.65572E-10 5.80599E-10
 -1       362 1.90736E+05-4.11123E+00 3.28781E+02-1.01640E+04-9.32118E-10 2.02249E-09
 -1       363 1.90707E+05 3.54484E-03-3.36282E+02-2.43421E+04 7.00908E-10 2.90038E-09
 -1       364 1.90770E+05 1.53468E+01-1.15413E+03-1.01639E+04 2.37378E-10 2.62958E-09
 -1       365 1.90549E+05-1.10091E+02-2.64539E+03-2.43489E+04 4.23825E-10-1.32673E-10
 -1       366 1.90912E+05 9.78640E+01-5.24873E+03-1.01572E+04-6.23231E-10-1.55978E-09
 -1       367 1.89358E+05-1.51511E+03-1.13112E+04-2.43630E+04-1.33468E-10-3.93652E-09
 -1       368 1.92013E+05 9.05196E+02-2.10701E+04-1.01499E+04 2.13277E-10-2.89765E-09
 -1       369 1.76749E+05-1.99457E+04-5.01569E+04-2.42979E+04-2.03772E-09 3.84989E-09
 -1       370 2.03624E+05 1.02704E+04-8.21064E+04-1.02150E+04 6.97582E-10 4.00541E-09
 -1       371-1.08035E+03-1.55147E+05 7.94888E+03-1.01747E+05 2.99224E-09 9.54969E-10
 -1       372 2.84123E+03-1.53094E+05 3.82668E+03-2.42857E+05 4.07090E-09-4.40014E-09
 -1       373 4.76835E+02-1.54181E+05-7.08482E+02-1.01363E+05 5.68843E-09 9.59972E-10
 -1       374-1.61434E+03-1.56433E+05-5.87270E+03-2.42923E+05 3.42061E-09 6.72480E-09
 -1       375 1.59831E+03-1.52168E+05-1.12486E+04-1.01681E+05 5.40604E-09 2.48292E-09
 -1       376-6.12927E+05-8.97002E+04-4.14317E+04-2.44797E+05 1.89050E-09 2.40834E-09
 -1       377-6.15167E+05-1.20384E+05-2.49456E+04-2.58478E+05 1.30058E-09 2.48201E-09
 -1       378-6.19399E+05-9.57662E+04-9.72889E+03-2.44738E+05-1.10731E-10-3.39332E-09
 -1       379-6.07650E+05-1.10484E+05-5.14121E+03-2.59821E+05-7.23389E-10 1.72463E-10
 -1       380-6.20052E+05-9.62849E+04-2.29997E+03-2.44733E+05 5.06589E-10-1.08935E-09
 -1       381-6.06926E+05-1.09682E+05-1.27408E+03-2.59925E+05-3.62888E-10 1.20616E-09
 -1       382-6.20121E+05-9.63343E+04-8.42750E+02-2.44735E+05-1.06166E-09-3.28953E-09
 -1       383-6.06886E+05-1.09614E+05-9.77980E+02-2.59900E+05-9.39053E-11-5.38853E-09
 -1       384-6.20072E+05-9.63514E+04-1.61125E+03-2.44751E+05-1.34605E-10 4.97266E-10
 -1       385-6.07149E+05-1.09761E+05-3.33873E+03-2.59810E+05 8.83801E-10-1.54614E-10
 -1       386-6.19794E+05-9.62452E+04-6.60868E+03-2.44772E+05-1.37561E-09-6.24368E-10
 -1       387-6.09325E+05-1.12121E+05-1.51081E+04-2.59472E+05 5.98220E-10-2.65118E-10
 -1       388-6.17879E+05-9.46926E+04-2.87254E+04-2.44774E+05-6.77574E-10-3.98359E-10
 -1       389-6.31436E+05-1.41539E+05-7.37372E+04-2.55716E+05 2.71996E-10-2.18643E-09
 -1       390-5.98907E+05-7.65638E+04-1.22445E+05-2.44785E+05 1.43882E-09 2.21917E-09
 -1       406 1.57015E+04 1.44610E+06 4.22202E+04 7.63387E+03 3.52884E-10 1.98270E-10
 -1       407 5.53251E+03 1.45453E+06 2.86360E+04 1.02534E+04-6.30826E-09 2.58478E-09
 -1       408 1.36548E+03 1.44894E+06 2.69162E+04 7.91233E+03-5.21140E-10-1.65892E-09
 -1       409 1.09506E+04 1.45838E+06 4.49779E+04 9.65128E+03-8.46921E-09 6.79393E-10
 -1       410 3.24105E+04 1.44231E+06 8.13032E+04 8.31575E+03-5.82077E-11 8.16908E-09
 -1       466 1.11193E+06-1.37743E+04 1.06235E+05-3.68931E+04 6.91216E-11-1.17871E-09
 -1       467 1.14707E+06 2.54956E+04 6.49955E+04-8.87257E+04-1.18234E-11-1.04774E-09
 -1       468 1.12669E+06-1.37535E+03 2.72801E+04-3.69279E+04-2.20098E-10 3.87445E-10
 -1       469 1.13010E+06 1.90368E+03 1.47642E+04-8.84443E+04-1.60071E-10 1.25146E-09
 -1       470 1.12793E+06-1.50744E+02 6.98124E+03-3.71529E+04 1.90994E-11 4.71118E-10
 -1       471 1.12822E+06 2.48478E+02 3.83403E+03-8.81180E+04 1.03682E-10-1.20008E-09
 -1       472 1.12802E+06 2.98575E+01 2.27880E+03-3.72553E+04 3.57659E-10 3.06500E-10
 -1       473 1.12800E+06 1.59548E+02 2.03381E+03-8.80453E+04-2.80238E-10 9.14042E-10
 -1       474 1.12803E+06 4.41069E+00 2.68778E+03-3.72258E+04 8.95852E-11 1.04478E-09
 -1       475 1.12841E+06 2.43492E+02 4.90654E+03-8.82392E+04-5.28871E-10-8.39918E-10
 -1       476 1.12792E+06-2.54651E+02 9.14340E+03-3.70610E+04 2.65572E-10 5.25233E-10
 -1       477 1.13091E+06 2.42830E+03 1.94877E+04-8.86796E+04-6.82121E-11 1.01727E-09
 -1       478 1.12627E+06-1.86444E+03 3.60605E+04-3.67836E+04-2.63753E-10 1.44792E-09
 -1       479 1.15329E+06 3.36659E+04 8.59687E+04-8.90356E+04-2.27465E-09 1.75896E-09
 -1       480 1.10672E+06-1.82234E+04 1.40554E+05-3.67424E+04-1.12414E-09 6.98492E-10
 -1       481-3.65733E+03 3.07384E+05 3.07338E+04-3.76119E+04 1.38243E-10 6.34827E-10
 -1       482 7.90195E+03 3.17238E+05 1.98218E+04-8.89423E+04-1.92927E-10 4.24211E-09
 -1       483-3.19304E+02 3.11510E+05 1.03728E+04-3.75413E+04-8.35740E-11 2.56296E-09
 -1       484 3.48707E+03 3.14385E+05 1.05177E+04-8.88897E+04 4.54747E-13-7.58519E-10
 -1       485-1.35152E+03 3.10489E+05 1.22279E+04-3.76696E+04 1.36424E-11-2.16187E-09
 -1       486-1.07114E+06-1.47203E+05-1.09742E+05-4.24278E+05-1.73713E-10-2.70666E-09
 -1       487-1.09622E+06-2.09332E+05-6.60673E+04-4.38516E+05 4.86125E-10 8.92214E-10
 -1       488-1.08828E+06-1.63286E+05-2.57497E+04-4.24110E+05-2.94676E-10 1.04956E-09
 -1       489-1.07623E+06-1.83177E+05-1.35455E+04-4.42176E+05-2.33740E-10 3.23780E-10
 -1       490-1.09009E+06-1.64580E+05-5.95856E+03-4.24024E+05 1.89175E-10-1.76897E-10
 -1       491-1.07419E+06-1.81189E+05-3.06233E+03-4.42660E+05 8.73115E-11-1.53204E-09
 -1       492-1.09040E+06-1.64607E+05-1.59639E+03-4.23949E+05 2.97860E-10 3.20370E-10
 -1       493-1.07392E+06-1.81135E+05-1.20778E+03-4.42842E+05 4.28145E-10 1.39519E-09
 -1       494-1.09045E+06-1.64559E+05-1.43340E+03-4.23913E+05 3.89946E-10 1.49726E-10
 -1       495-1.07406E+06-1.81298E+05-2.63500E+03-4.42882E+05 1.80322E-10-1.64619E-10
 -1       496-1.09028E+06-1.64452E+05-5.05217E+03-4.23915E+05-2.11912E-10 1.22282E-09
 -1       497-1.07572E+06-1.83086E+05-1.14787E+04-4.42640E+05 2.21803E-10 1.16870E-10
 -1       498-1.08881E+06-1.63288E+05-2.17868E+04-4.23937E+05-9.93623E-11-4.98403E-10
 -1       499-1.09256E+06-2.05341E+05-5.59356E+04-4.39702E+05-1.82297E-10-1.15415E-09
 -1       500-1.07436E+06-1.49600E+05-9.28889E+04-4.24019E+05 5.09317E-11-3.16504E-10
 -1       501 4.19052E+05-1.02437E+04 7.52581E+04-4.24591E+04 2.32103E-09 1.20053E-09
 -1       502 4.44506E+05 1.78276E+04 4.61516E+04-1.01009E+05-1.54614E-10-3.46881E-09
 -1       503 4.29317E+05-1.19744E+03 1.92800E+04-4.22129E+04-3.36513E-10-2.74667E-10
 -1       504 4.31934E+05 1.27228E+03 1.04807E+04-1.01120E+05-6.83940E-10 3.06500E-10
 -1       505 4.30036E+05-1.67344E+02 4.91610E+03-4.23300E+04 7.82165E-10 1.05592E-09
 -1       506 4.30247E+05 2.58390E+02 2.71805E+03-1.00929E+05 6.94854E-10 3.81624E-09
 -1       507 4.29996E+05 6.36527E+01 1.59687E+03-4.24051E+04 1.82627E-09 1.32422E-09
 -1       508 4.29888E+05 2.88829E+02 1.41786E+03-1.00838E+05 1.43893E-09 1.14915E-09
 -1       509 4.29956E+05 9.31140E+01 1.85432E+03-4.24205E+04 8.21728E-10 1.73145E-09
 -1       510 4.30116E+05 3.68298E+02 3.36131E+03-1.00865E+05 1.83900E-09 6.02085E-10
 -1       511 4.29894E+05-9.48204E+01 6.24971E+03-4.23782E+04 1.02591E-09-1.62908E-09
 -1       512 4.31931E+05 1.81396E+03 1.33139E+04-1.00993E+05 1.52068E-09-1.33218E-09
 -1       513 4.28835E+05-1.26345E+03 2.46096E+04-4.22918E+04 4.94765E-10-6.18456E-11
 -1       514 4.47487E+05 2.30586E+04 5.87307E+04-1.00870E+05-1.56433E-10 1.00135E-09
 -1       515 4.15606E+05-1.25831E+04 9.59418E+04-4.25187E+04 2.32831E-10 3.34694E-10
 -1       516-6.39270E+03 1.95442E+05 5.63092E+04-8.80197E+04 1.18234E-10 1.11413E-10
 -1       517 1.51627E+04 2.13286E+05 3.81614E+04-2.09468E+05-7.92284E-10 7.46536E-09
 -1       518-6.23582E+02 2.02700E+05 2.33528E+04-8.78650E+04-2.31012E-10 4.77485E-09
 -1       519 1.10653E+04 2.11656E+05 3.02182E+04-2.09283E+05-7.63976E-11-1.84900E-09
 -1       520-5.02755E+03 1.98661E+05 4.03054E+04-8.82213E+04-1.52795E-10-2.21189E-09
 -1       521-2.02302E+06-2.84721E+05-1.75580E+05-8.02045E+05 6.12090E-10-5.02041E-10
 -1       522-2.05585E+06-3.90949E+05-1.05643E+05-8.32671E+05 3.00133E-10 3.05590E-10
 -1       523-2.05093E+06-3.09936E+05-4.12047E+04-8.01373E+05 9.47693E-10 1.68257E-09
 -1       524-2.02349E+06-3.49697E+05-2.16431E+04-8.39502E+05 1.19144E-10 2.95222E-09
 -1       525-2.05417E+06-3.11656E+05-9.53372E+03-8.00998E+05 3.72893E-10 3.12230E-09
 -1       526-2.02003E+06-3.46839E+05-4.88729E+03-8.40852E+05 3.75621E-10 6.48242E-10
 -1       527-2.05482E+06-3.11525E+05-2.55209E+03-8.00766E+05-1.38743E-09 1.68438E-09
 -1       528-2.01954E+06-3.46854E+05-1.93669E+03-8.41334E+05 5.29667E-10 1.36652E-10
 -1       529-2.05491E+06-3.11446E+05-2.31561E+03-8.00710E+05-1.91676E-10-1.09139E-10
 -1       530-2.01985E+06-3.47003E+05-4.27295E+03-8.41203E+05 1.11027E-09 1.81899E-12
 -1       531-2.05445E+06-3.11452E+05-8.22615E+03-8.00835E+05 7.08496E-10-4.15639E-10
 -1       532-2.02276E+06-3.49583E+05-1.86690E+04-8.40228E+05-4.78394E-10 1.79898E-09
 -1       533-2.05172E+06-3.09907E+05-3.54955E+04-8.01112E+05 1.98270E-10 8.27640E-10
 -1       534-2.05061E+06-3.85203E+05-9.10570E+04-8.34426E+05-6.00721E-10-1.43336E-09
 -1       535-2.02767E+06-2.88167E+05-1.51314E+05-8.01682E+05-1.22782E-10-1.70257E-09
 -1       536 9.21586E+05-1.82828E+04 1.44103E+05-2.23919E+04-8.73115E-11 1.92813E-09
 -1       537 9.68911E+05 3.47552E+04 8.80467E+04-5.40726E+04-1.24874E-09-5.18412E-10
 -1       538 9.41791E+05-1.73293E+03 3.69868E+04-2.23732E+04-4.25644E-10 1.72622E-09
 -1       539 9.46443E+05 2.57267E+03 1.99440E+04-5.39222E+04-5.88443E-10 1.19144E-09
 -1       540 9.43619E+05-2.16115E+02 9.36396E+03-2.25166E+04 5.58430E-10-3.02998E-09
 -1       541 9.44153E+05 2.09193E+02 4.98125E+03-5.36909E+04 3.63798E-11-2.07865E-09
 -1       542 9.43803E+05-2.03797E+01 2.67848E+03-2.26054E+04 9.82254E-11 1.67938E-09
 -1       543 9.43841E+05 7.10873E+01 1.92806E+03-5.35827E+04-9.64121E-10 1.50908E-09
 -1       544 9.43808E+05-2.20202E+00 2.03944E+03-2.26251E+04 1.88152E-10-1.55262E-09
 -1       545 9.43984E+05 1.63297E+02 3.32051E+03-5.36104E+04-5.70935E-10 3.65503E-11
 -1       546 9.43693E+05-1.19477E+02 5.99831E+03-2.25776E+04 3.65162E-10-5.65137E-10
 -1       547 9.45429E+05 1.65140E+03 1.26293E+04-5.37661E+04 5.20231E-10 1.01716E-09
 -1       548 9.42549E+05-1.08484E+03 2.33592E+04-2.24688E+04-9.36780E-11 3.05499E-09
 -1       549 9.59645E+05 2.19412E+04 5.55674E+04-5.38717E+04 8.11269E-10 2.17915E-09
 -1       550 9.29814E+05-1.15530E+04 9.09060E+04-2.24833E+04-1.33332E-09-4.76575E-10
 -1       551 1.80857E+04-2.11681E+05 4.20247E+04-4.35752E+05 3.52884E-10-7.60338E-10
 -1       552 8.45043E+03-2.04378E+05 2.56580E+04-5.26165E+05 7.34872E-10 5.05042E-09
 -1       553 3.41977E+03-2.09566E+05 1.95815E+04-4.34990E+05 1.20053E-10 1.14233E-09
 -1       554 9.26397E+03-2.03981E+05 2.79093E+04-5.26226E+05 7.09406E-10 1.70439E-09
 -1       555 2.05092E+04-2.12405E+05 4.74208E+04-4.35682E+05 1.68257E-10-2.78669E-09
 -1       556-8.70762E+05-2.33731E+05-4.79480E+04-4.46498E+05 6.00267E-11 1.99361E-09
 -1       557-8.59611E+05-2.43815E+05-2.38651E+04-4.75497E+05-9.45874E-10-3.27736E-09
 -1       558-8.73678E+05-2.18260E+05-1.01725E+04-4.53507E+05-7.27596E-12-5.45697E-11
 -1       559-8.54340E+05-2.38033E+05-4.97462E+03-4.76938E+05 1.02045E-09-3.83466E-09
 -1       560-8.74315E+05-2.17574E+05-2.31866E+03-4.53953E+05 3.63798E-12-2.45370E-09
 -1       561-8.54232E+05-2.37741E+05-1.18838E+03-4.77182E+05-8.76753E-10 1.63368E-09
 -1       562-8.74564E+05-2.17489E+05-6.97006E+02-4.54066E+05-5.69344E-10 9.10404E-10
 -1       563-8.54323E+05-2.37694E+05-6.41152E+02-4.77278E+05-2.20098E-10-3.56522E-09
 -1       564-8.74593E+05-2.17456E+05-9.35178E+02-4.54089E+05 3.67208E-11-1.32786E-09
 -1       565-8.54343E+05-2.37704E+05-1.82413E+03-4.77263E+05-1.09139E-11 1.65528E-10
 -1       566-8.74391E+05-2.17470E+05-3.67360E+03-4.54019E+05 8.03993E-10 2.67391E-10
 -1       567-8.54751E+05-2.38109E+05-7.98065E+03-4.77131E+05 3.41061E-10-1.34241E-09
 -1       568-8.73675E+05-2.18358E+05-1.63133E+04-4.53429E+05-3.09228E-11-8.00355E-11
 -1       569-8.63235E+05-2.47703E+05-3.83883E+04-4.75571E+05 9.16771E-10 5.52973E-10
 -1       570-8.69679E+05-2.42694E+05-7.70369E+04-4.41942E+05-2.47746E-09 5.42059E-10
 -1       571 7.98281E+05 3.46054E+04 8.56811E+04-1.26994E+05 1.28784E-09 6.74845E-10
 -1       572 8.15061E+05 1.14408E+04 4.39015E+04-1.52552E+05-1.16415E-10-3.52065E-09
 -1       573 8.05316E+05 8.73177E+02 1.97506E+04-1.26393E+05-1.09139E-11 1.96451E-10
 -1       574 8.06642E+05 2.33616E+02 1.00807E+04-1.53122E+05-1.45519E-11 1.24783E-09
 -1       575 8.05662E+05-1.76568E+02 4.86466E+03-1.26359E+05-1.74623E-10 1.81717E-09
 -1       576 8.05762E+05-4.03505E+01 2.50265E+03-1.53157E+05-9.27685E-11 5.56611E-10
 -1       577 8.05660E+05-4.13276E+01 1.26280E+03-1.26359E+05 2.00544E-10 1.34969E-09
 -1       578 8.05666E+05-9.13079E+00 7.21616E+02-1.53162E+05 2.04182E-10 3.61979E-10
 -1       579 8.05759E+05-6.26530E+01 4.94991E+02-1.26354E+05 5.34783E-10-2.86764E-09
 -1       580 8.05866E+05-1.14366E+02 5.49867E+02-1.53176E+05 1.01136E-09 1.14233E-09
 -1       581 8.06005E+05-2.31165E+02 8.30015E+02-1.26344E+05-5.60249E-10-1.40972E-10
 -1       582 8.06380E+05-2.78000E+02 1.63089E+03-1.53143E+05-2.02272E-09-3.30783E-09
 -1       583 8.06333E+05-3.11238E+02 3.10748E+03-1.26386E+05-3.15049E-09-1.82126E-09
 -1       584 8.08274E+05 1.21724E+03 6.94871E+03-1.52425E+05-6.15546E-09-9.34961E-10
 -1       585 8.05698E+05 4.75743E+03 1.34834E+04-1.27076E+05 9.05857E-10 2.76486E-09
 -1       586 7.82728E+03 1.25148E+05 1.77446E+04-4.65015E+05 1.89175E-10-1.61526E-09
 -1       587 4.79028E+03 1.27567E+05 1.30834E+04-5.61252E+05-5.63887E-09 4.43833E-10
 -1       588 2.83849E+03 1.24963E+05 1.35982E+04-4.64171E+05-3.63798E-10 3.09547E-09
 -1       589 8.59104E+03 1.29890E+05 2.41226E+04-5.61360E+05-5.51154E-09-1.65892E-09
 -1       590 1.93665E+04 1.22165E+05 4.41670E+04-4.64886E+05-3.74712E-10-1.97178E-09
 -1       591-5.73693E+05-1.62084E+05-6.66591E+04-2.85317E+05 6.67114E-10-2.36469E-09
 -1       592-5.72604E+05-1.61976E+05-3.32333E+04-3.09222E+05-1.97178E-09 7.36691E-10
 -1       593-5.76816E+05-1.41241E+05-1.41174E+04-2.95284E+05-8.64020E-10 1.58798E-09
 -1       594-5.65193E+05-1.53604E+05-6.92461E+03-3.10246E+05-2.41744E-09-9.56959E-09
 -1       595-5.77268E+05-1.40574E+05-3.20576E+03-2.95718E+05-2.11003E-10-1.01431E-09
 -1       596-5.64729E+05-1.53289E+05-1.64103E+03-3.10243E+05-4.77485E-10 2.11367E-09
 -1       597-5.77359E+05-1.40607E+05-9.30903E+02-2.95736E+05-1.18462E-10 3.87445E-10
 -1       598-5.64681E+05-1.53291E+05-8.12585E+02-3.10225E+05-4.27917E-10-1.21690E-09
 -1       599-5.77322E+05-1.40618E+05-1.12294E+03-2.95719E+05-2.59297E-09-3.27236E-09
 -1       600-5.64692E+05-1.53311E+05-2.14485E+03-3.10199E+05-8.79481E-10 7.39055E-09
 -1       601-5.77140E+05-1.40598E+05-4.28157E+03-2.95666E+05 6.89397E-10 7.46331E-09
 -1       602-5.65276E+05-1.53751E+05-9.29137E+03-3.10168E+05 2.99769E-09-4.09091E-09
 -1       603-5.76507E+05-1.41513E+05-1.89615E+04-2.95067E+05 1.09685E-09-1.42791E-09
 -1       604-5.75190E+05-1.65014E+05-4.46326E+04-3.08798E+05-3.26963E-09 4.60204E-10
 -1       605-5.72329E+05-1.69454E+05-8.95161E+04-2.81637E+05 8.96762E-10-2.68847E-09
 -1       606 2.30977E+05-1.86808E+04-4.58233E+04 5.04972E+04-1.47138E-08-3.86990E-10
 -1       607 2.21880E+05-6.16104E+03-2.34608E+04 5.99934E+04-3.95812E-09-4.78713E-09
 -1       608 2.26875E+05-4.80625E+02-1.05755E+04 5.00447E+04 1.06047E-08 1.73532E-09
 -1       609 2.25979E+05 2.79206E+01-5.37842E+03 6.04430E+04-6.18820E-09 1.59162E-12
 -1       610 2.26427E+05 2.51000E+02-2.59535E+03 5.00098E+04-1.75296E-08-1.74532E-09
 -1       611 2.26198E+05 3.13768E+02-1.30139E+03 6.04729E+04-2.91002E-08 3.17505E-09
 -1       612 2.26278E+05 2.74492E+02-6.13248E+02 5.00107E+04-1.25310E-08 7.65340E-10
 -1       613 2.26143E+05 3.55985E+02-2.47049E+02 6.04694E+04-2.03872E-08-6.53017E-10
 -1       614 2.26188E+05 2.98911E+02-2.63059E+00 5.00120E+04-2.58478E-09 7.33053E-10
 -1       615 2.26088E+05 3.87976E+02 2.50538E+02 6.04644E+04 1.67602E-08 2.10775E-09
 -1       616 2.26121E+05 3.16628E+02 6.12185E+02 5.00148E+04-8.56471E-09 3.02271E-09
 -1       617 2.26134E+05 4.65076E+02 1.33703E+03 6.04549E+04 2.21735E-09-1.84355E-09
 -1       618 2.26013E+05 4.96386E+02 2.65318E+03 5.00201E+04-5.60476E-10 1.07548E-09
 -1       619 2.27197E+05 2.01281E+03 5.91245E+03 6.03888E+04 4.67008E-09 4.74847E-09
 -1       620 2.25011E+05 5.07229E+03 1.15496E+04 5.00586E+04 8.54175E-09 4.58567E-09
 -1       621 9.95507E+03 8.96322E+05 2.62687E+04-1.33034E+05 2.74667E-10-2.36969E-09
 -1       622 4.13768E+03 9.01414E+05 1.97314E+04-1.60410E+05-1.11440E-08 2.69083E-09
 -1       623 1.72545E+03 8.97813E+05 2.14395E+04-1.32897E+05-6.11180E-10 3.58250E-09
 -1       624 1.04607E+04 9.05979E+05 3.88840E+04-1.60277E+05-8.39464E-09 2.28829E-09
 -1       625 2.94878E+04 8.91959E+05 7.20663E+04-1.33134E+05 1.85537E-10-1.40062E-10
 -1       626 3.96934E+05 1.02719E+05-1.63854E+04 2.20563E+05-4.31646E-09 8.54925E-11
 -1       627 3.84022E+05 1.15900E+05-8.15741E+03 2.29558E+05-1.66619E-09 3.06670E-09
 -1       628 3.96407E+05 1.07499E+05-3.47735E+03 2.17585E+05-2.81943E-09 1.91176E-09
 -1       629 3.85262E+05 1.18433E+05-1.68578E+03 2.29673E+05 4.14730E-10-2.99428E-09
 -1       630 3.96206E+05 1.07704E+05-7.60337E+02 2.17372E+05-9.17316E-09-2.92766E-09
 -1       631 3.85226E+05 1.18583E+05-3.25889E+02 2.29617E+05-1.48202E-08-2.43094E-09
 -1       632 3.96091E+05 1.07743E+05-6.82532E+01 2.17312E+05-6.92125E-09 1.09537E-09
 -1       633 3.85168E+05 1.18612E+05 1.51378E+02 2.29564E+05 1.28557E-09-5.65251E-10
 -1       634 3.96023E+05 1.07751E+05 4.43984E+02 2.17284E+05 1.32732E-08-6.04723E-09
 -1       635 3.85183E+05 1.18617E+05 1.02141E+03 2.29560E+05 2.46937E-08 4.52974E-09
 -1       636 3.95973E+05 1.07712E+05 2.12029E+03 2.17282E+05 2.87037E-09-1.67620E-09
 -1       637 3.85566E+05 1.18805E+05 4.65061E+03 2.29618E+05 6.66159E-09 2.83762E-10
 -1       638 3.95771E+05 1.08095E+05 9.49305E+03 2.17048E+05 7.40920E-09 1.40062E-10
 -1       639 3.90729E+05 1.24369E+05 2.23717E+04 2.29046E+05-4.08181E-09-1.31331E-09
 -1       640 3.93849E+05 1.22036E+05 4.48561E+04 2.10423E+05-1.33696E-09-2.40470E-09
 -1       641 1.25471E+04 1.23070E+03-9.60559E+03 3.72495E+03-1.13014E-08 1.13869E-09
 -1       642 9.36614E+03-2.26702E+03-5.86533E+03 8.77924E+03-2.28894E-08-1.30194E-09
 -1       643 1.11912E+04 1.34515E+02-2.46055E+03 3.69905E+03-1.84830E-08-1.74623E-09
 -1       644 1.08432E+04-1.11315E+02-1.31557E+03 8.80321E+03 1.14650E-08-4.84522E-09
 -1       645 1.10630E+04 3.92913E+01-5.99074E+02 3.69759E+03 5.66581E-09 7.16568E-10
 -1       646 1.09855E+04 5.22382E+01-2.79662E+02 8.80444E+03-6.84010E-09-5.13079E-09
 -1       647 1.10463E+04 2.84276E+01-7.64557E+01 3.69756E+03 1.16847E-08-3.91282E-10
 -1       648 1.10110E+04 6.53113E+01 8.04988E+01 8.80471E+03 3.17480E-08 6.37317E-09
 -1       649 1.10392E+04 2.29575E+01 2.73357E+02 3.69731E+03 4.66309E-09 3.46529E-09
 -1       650 1.10542E+04 8.86422E+01 6.26486E+02 8.80477E+03 1.68083E-08-3.67666E-09
 -1       651 1.10090E+04-3.52197E-02 1.24121E+03 3.69750E+03-2.85036E-09 2.54340E-09
 -1       652 1.13489E+04 4.15339E+02 2.67735E+03 8.80303E+03 5.81724E-09 1.32195E-09
 -1       653 1.07548E+04-1.97246E+02 4.98438E+03 3.69867E+03 8.48354E-09 2.17074E-09
 -1       654 1.43548E+04 4.77005E+03 1.18727E+04 8.75740E+03-1.14962E-08-1.10276E-10
 -1       655 8.01814E+03-2.42227E+03 1.94359E+04 3.73700E+03 1.58618E-08 3.07682E-09
 -1       656 6.45546E+03-4.60586E+05-5.68447E+04 5.29261E+04-1.52759E-08 2.48474E-09
 -1       657-1.47864E+04-4.78856E+05-3.93738E+04 1.24159E+05-9.95885E-09-2.13777E-09
 -1       658 8.76612E+02-4.67798E+05-2.58053E+04 5.26492E+04-8.83028E-09 1.52295E-09
 -1       659-1.31497E+04-4.78007E+05-3.60672E+04 1.24334E+05-8.00537E-09-6.67683E-10
 -1       660 5.75969E+03-4.61808E+05-5.02300E+04 5.27596E+04-1.23982E-08 1.79307E-09
 -1       661 4.05870E+05 5.63153E+04 3.16401E+04 1.59028E+05 1.92754E-08 2.15005E-09
 -1       662 4.14018E+05 7.33482E+04 1.90528E+04 1.62106E+05 5.96373E-09 4.92764E-09
 -1       663 4.10720E+05 6.10401E+04 7.42675E+03 1.59068E+05-5.90143E-09 1.78125E-09
 -1       664 4.08344E+05 6.57024E+04 3.91911E+03 1.62991E+05 1.03504E-08-5.82008E-09
 -1       665 4.11187E+05 6.14696E+04 1.73408E+03 1.59087E+05 3.53214E-09-1.53261E-09
 -1       666 4.07799E+05 6.50696E+04 9.21897E+02 1.63034E+05 4.32081E-09-1.24999E-10
 -1       667 4.11242E+05 6.15089E+04 5.34477E+02 1.59088E+05 1.40497E-08-1.70570E-09
 -1       668 4.07745E+05 6.50333E+04 5.09807E+02 1.63045E+05 5.58794E-09-2.51137E-09
 -1       669 4.11244E+05 6.14968E+04 7.39576E+02 1.59080E+05-1.90971E-08-3.41890E-09
 -1       670 4.07828E+05 6.51355E+04 1.47711E+03 1.63073E+05-9.44874E-09-6.06309E-09
 -1       671 4.11167E+05 6.14106E+04 2.88863E+03 1.59062E+05 1.25108E-08 3.29942E-09
 -1       672 4.08730E+05 6.62308E+04 6.59678E+03 1.63039E+05 2.35140E-08-2.68528E-09
 -1       673 4.10391E+05 6.06701E+04 1.25238E+04 1.59017E+05 8.02839E-09-9.84983E-10
 -1       674 4.18300E+05 7.91489E+04 3.21530E+04 1.61565E+05 2.95314E-08 1.14233E-09
 -1       675 4.02208E+05 5.26943E+04 5.33988E+04 1.58950E+05 2.61334E-08 2.17551E-09
 -1       676 2.49311E+03-4.08079E+05-2.12641E+04 7.98948E+03 9.79253E-09-2.34513E-09
 -1       677-5.43361E+03-4.15012E+05-1.55684E+04 1.72168E+04-1.96595E-08 3.26781E-09
 -1       678 4.72437E+02-4.10556E+05-1.16315E+04 7.93671E+03-1.58514E-08 1.89743E-09
 -1       679-6.77567E+03-4.15948E+05-1.84421E+04 1.72734E+04-2.07895E-08-3.93129E-10
 -1       680 3.24839E+03-4.07160E+05-2.69640E+04 7.93173E+03 1.06775E-09 9.69720E-10
 -1       681 4.76237E+05-3.44342E+03 2.64643E+04-1.56905E+04-1.10049E-10-1.62800E-09
 -1       682 4.84995E+05 6.33408E+03 1.61966E+04-3.75751E+04 1.74623E-10-1.31240E-09
 -1       683 4.79921E+05-3.57480E+02 6.79910E+03-1.56167E+04-4.00178E-11-8.34007E-10
 -1       684 4.80779E+05 4.46915E+02 3.69084E+03-3.75953E+04-1.82354E-10 2.97860E-11
 -1       685 4.80231E+05-5.38967E+01 1.76363E+03-1.56669E+04 5.00222E-12 1.92358E-10
 -1       686 4.80309E+05 3.61202E+01 1.01187E+03-3.75143E+04-4.09273E-10 8.37304E-10
 -1       687 4.80247E+05-5.36980E+00 6.79822E+02-1.56979E+04-6.41194E-11 1.21759E-10
 -1       688 4.80244E+05 2.55949E+01 7.40087E+02-3.74752E+04-1.54046E-11-3.99154E-10
 -1       689 4.80232E+05-5.98122E+00 1.13043E+03-1.57061E+04-2.03045E-10 3.49019E-11
 -1       690 4.80363E+05 9.89231E+01 2.17448E+03-3.74837E+04 3.77440E-11-2.86491E-11
 -1       691 4.80142E+05-8.50283E+01 4.12983E+03-1.56893E+04 1.40972E-10 7.54198E-10
 -1       692 4.81358E+05 1.15416E+03 8.81245E+03-3.75334E+04 4.18368E-11 9.00741E-10
 -1       693 4.79327E+05-7.49999E+02 1.63575E+04-1.56561E+04-4.27463E-11 4.87489E-10
 -1       694 4.91282E+05 1.54008E+04 3.89419E+04-3.75019E+04-9.56788E-10-8.13998E-10
 -1       695 4.70384E+05-8.07388E+03 6.37287E+04-1.57269E+04-7.21229E-10-1.62618E-09
 -1       696-3.85542E+03 5.27946E+05 3.08541E+04-3.08499E+04 1.16415E-10-1.08867E-09
 -1       697 7.63506E+03 5.37848E+05 1.76846E+04-7.25113E+04 3.27418E-10-3.11275E-10
 -1       698-1.34456E+02 5.32514E+05 5.11179E+03-3.07838E+04-2.17824E-10 1.57559E-09
 -1       699-1.93793E+03 5.31299E+05-2.73940E+03-7.25091E+04-2.05659E-10 1.97997E-09
 -1       700 1.41951E+03 5.34563E+05-9.69437E+03-3.08571E+04-1.60071E-10 1.60799E-09
 -1       701-4.46640E+05-6.03445E+04-6.39259E+04-1.80066E+05-9.09495E-11-2.58296E-10
 -1       702-4.61435E+05-9.64029E+04-3.84886E+04-1.88240E+05 1.62345E-10-5.34783E-10
 -1       703-4.56559E+05-6.97782E+04-1.50011E+04-1.80034E+05-2.68301E-10 2.72848E-12
 -1       704-4.49873E+05-8.10715E+04-7.89692E+03-1.90224E+05 1.53477E-10 2.73531E-10
 -1       705-4.57560E+05-7.05887E+04-3.47572E+03-1.80032E+05 1.38698E-10 1.90994E-11
 -1       706-4.48739E+05-7.98450E+04-1.79484E+03-1.90405E+05-3.05590E-10-6.98833E-10
 -1       707-4.57702E+05-7.06388E+04-9.49013E+02-1.80017E+05 7.95808E-12-2.99792E-10
 -1       708-4.48612E+05-7.97795E+04-7.43689E+02-1.90460E+05 2.06001E-10 1.43970E-10
 -1       709-4.57721E+05-7.06211E+04-9.15540E+02-1.80006E+05 1.96678E-10 3.60956E-11
 -1       710-4.48709E+05-7.98840E+04-1.71015E+03-1.90485E+05 5.74403E-10 4.67594E-10
 -1       711-4.57620E+05-7.05377E+04-3.29176E+03-1.79997E+05 1.96966E-10 3.39469E-10
 -1       712-4.49761E+05-8.10893E+04-7.48637E+03-1.90389E+05-2.05432E-10-3.91083E-10
 -1       713-4.56704E+05-6.97362E+04-1.42067E+04-1.79978E+05-6.36362E-11-2.30102E-10
 -1       714-4.60667E+05-9.56878E+04-3.64737E+04-1.88612E+05 1.94802E-10 7.32598E-10
 -1       715-4.47359E+05-6.07379E+04-6.05627E+04-1.79959E+05 2.22826E-11-5.45697E-11
 -1       716 3.89606E+05-7.24444E+03 5.59888E+04-2.85990E+04 3.36513E-10-9.58607E-10
 -1       717 4.08097E+05 1.35192E+04 3.42614E+04-6.77506E+04 2.41016E-10-1.70985E-10
 -1       718 3.97373E+05-6.92890E+02 1.43810E+04-2.84501E+04-1.24601E-10-2.18279E-11
 -1       719 3.99139E+05 1.08137E+03 7.79141E+03-6.78444E+04-6.45286E-10 6.37101E-10
 -1       720 3.98024E+05-4.49369E+01 3.70282E+03-2.84995E+04 9.12223E-10 8.06722E-10
 -1       721 3.98152E+05 2.07001E+02 2.06853E+03-6.77730E+04 1.21508E-09-1.00840E-10
 -1       722 3.98074E+05 4.58104E+01 1.29679E+03-2.85219E+04 1.06394E-09 1.52590E-09
 -1       723 3.98062E+05 1.53435E+02 1.26831E+03-6.77640E+04 8.57540E-10 1.33059E-09
 -1       724 3.98084E+05 1.85904E+01 1.79977E+03-2.85086E+04 9.66793E-10 3.56863E-10
 -1       725 3.98356E+05 2.11194E+02 3.38494E+03-6.78280E+04 2.00271E-09 8.26788E-10
 -1       726 3.98005E+05-1.60081E+02 6.36044E+03-2.84578E+04 9.29504E-10-7.87736E-10
 -1       727 4.00082E+05 1.74844E+03 1.35915E+04-6.79532E+04 1.54614E-09-8.16385E-10
 -1       728 3.96838E+05-1.27198E+03 2.51690E+04-2.83824E+04-5.78439E-10-1.34423E-09
 -1       729 4.15661E+05 2.35964E+04 6.00249E+04-6.78616E+04-1.33150E-09-3.99268E-10
 -1       730 3.83171E+05-1.26837E+04 9.81464E+04-2.85675E+04 1.25510E-10-9.09495E-10
 -1       731-4.59380E+03 1.91419E+05 3.74478E+04-6.19959E+04-5.45697E-11-7.77618E-10
 -1       732 9.52747E+03 2.03431E+05 2.32168E+04-1.47571E+05-5.58202E-11-8.71296E-10
 -1       733-2.94078E+02 1.96570E+05 1.03546E+04-6.18414E+04-3.45892E-11 1.76647E-09
 -1       734 1.89929E+03 1.98395E+05 7.06900E+03-1.47525E+05-3.31056E-10 1.49385E-09
 -1       735-5.27923E+02 1.96747E+05 5.35135E+03-6.20441E+04-4.67026E-10 1.09503E-09
 -1       736-1.03461E+06-1.40565E+05-8.84507E+04-4.03421E+05 5.45697E-11-1.41881E-10
 -1       737-1.05705E+06-1.88511E+05-5.32600E+04-4.12471E+05-2.55795E-11-7.00311E-11
 -1       738-1.04835E+06-1.53605E+05-2.07452E+04-4.03333E+05 1.18234E-09 4.94038E-09
 -1       739-1.04097E+06-1.67348E+05-1.09208E+04-4.15282E+05-2.30330E-10 1.52454E-09
 -1       740-1.04977E+06-1.54697E+05-4.79555E+03-4.03287E+05-1.53250E-10 2.56932E-10
 -1       741-1.03934E+06-1.65701E+05-2.46550E+03-4.15584E+05 1.46565E-09 2.01544E-09
 -1       742-1.04998E+06-1.54754E+05-1.27690E+03-4.03246E+05-2.33285E-10-1.37862E-09
 -1       743-1.03913E+06-1.65628E+05-9.55474E+02-4.15674E+05-6.83201E-10-7.04347E-10
 -1       744-1.05001E+06-1.54733E+05-1.11736E+03-4.03226E+05 8.29516E-10 3.42652E-09
 -1       745-1.03924E+06-1.65741E+05-2.03986E+03-4.15684E+05 3.73802E-10 1.38334E-09
 -1       746-1.04987E+06-1.54654E+05-3.90287E+03-4.03232E+05-3.81988E-11 3.00133E-11
 -1       747-1.04053E+06-1.67121E+05-8.86307E+03-4.15505E+05 3.90173E-10 4.89308E-10
 -1       748-1.04875E+06-1.53744E+05-1.68166E+04-4.03248E+05 8.04107E-10 6.98492E-10
 -1       749-1.05354E+06-1.84316E+05-4.31798E+04-4.13277E+05 7.81313E-11-6.99401E-10
 -1       750-1.03762E+06-1.43154E+05-7.17026E+04-4.03302E+05-8.59472E-11-1.38243E-10
 -1       751 1.41070E+06-2.47309E+04 1.95645E+05-2.39264E+04-7.09406E-11-1.36788E-09
 -1       752 1.47486E+06 4.71917E+04 1.19512E+05-5.84491E+04-2.24554E-09-2.40107E-09
 -1       753 1.43815E+06-2.32241E+03 5.02348E+04-2.40194E+04-3.94721E-10-1.17143E-09
 -1       754 1.44444E+06 3.50397E+03 2.70972E+04-5.80836E+04 1.65528E-10-1.05501E-10
 -1       755 1.44066E+06-2.84443E+02 1.27587E+04-2.42548E+04 2.97405E-10-4.77485E-10
 -1       756 1.44137E+06 2.79626E+02 6.84352E+03-5.77118E+04-1.72577E-10-1.13278E-09
 -1       757 1.44092E+06-3.16722E+01 3.79470E+03-2.43925E+04-2.16460E-10-2.02817E-10
 -1       758 1.44099E+06 8.54321E+01 2.93758E+03-5.75495E+04-5.36147E-10 1.06274E-09
 -1       759 1.44092E+06-1.77043E+01 3.39592E+03-2.44175E+04 6.50175E-10 1.28694E-10
 -1       760 1.44125E+06 2.57583E+02 5.80545E+03-5.76096E+04-7.53062E-10-2.01126E-10
 -1       761 1.44070E+06-2.16122E+02 1.06572E+04-2.43322E+04 1.50976E-10-1.50067E-11
 -1       762 1.44377E+06 2.94246E+03 2.25261E+04-5.78834E+04 1.90994E-10 1.07275E-09
 -1       763 1.43861E+06-1.90416E+03 4.17223E+04-2.41426E+04 9.18590E-11 1.75714E-09
 -1       764 1.46903E+06 3.92101E+04 9.92210E+04-5.81758E+04 1.72804E-10-4.43833E-10
 -1       765 1.41582E+06-2.05125E+04 1.62403E+05-2.40633E+04-1.80989E-09 1.89175E-10
 -1       766-1.28320E+04 4.28706E+05 1.06389E+05-3.64317E+04 2.78669E-09-2.80420E-09
 -1       767 2.65742E+04 4.63593E+05 7.26672E+04-8.61918E+04 4.08090E-09-2.09388E-09
 -1       768-1.97650E+03 4.42192E+05 4.56846E+04-3.63911E+04 2.33331E-09 1.36515E-09
 -1       769 2.09596E+04 4.60125E+05 6.09416E+04-8.61081E+04 2.44108E-09 1.23919E-09
 -1       770-1.00246E+04 4.32704E+05 8.30224E+04-3.65332E+04 9.64064E-10 6.33008E-10
 -1       771-1.68482E+06-3.37632E+05-1.29377E+05-6.91692E+05 1.34719E-09 2.96131E-09
 -1       772-1.69464E+06-3.25405E+05-6.45037E+04-7.24205E+05 6.67205E-09 1.44328E-08
 -1       773-1.69065E+06-2.97389E+05-2.73947E+04-7.11138E+05-1.30967E-10-1.39516E-09
 -1       774-1.68030E+06-3.09076E+05-1.34245E+04-7.26055E+05 6.69388E-10-8.48559E-10
 -1       775-1.69153E+06-2.96076E+05-6.19741E+03-7.11959E+05 4.60204E-10-4.62933E-10
 -1       776-1.67940E+06-3.08482E+05-3.12275E+03-7.26116E+05 7.09406E-10-1.08531E-09
 -1       777-1.69180E+06-2.96090E+05-1.67747E+03-7.12013E+05 7.13044E-10-3.40037E-10
 -1       778-1.67938E+06-3.08474E+05-1.28730E+03-7.26194E+05-6.13909E-11 1.26033E-09
 -1       779-1.69188E+06-2.96041E+05-1.57784E+03-7.12042E+05-6.44013E-09-9.59653E-09
 -1       780-1.67950E+06-3.08464E+05-2.87006E+03-7.26281E+05-9.75888E-10 1.68893E-09
 -1       781-1.69179E+06-2.95935E+05-5.65094E+03-7.12046E+05 1.48526E-09 8.14907E-10
 -1       782-1.68041E+06-3.09004E+05-1.22467E+04-7.26391E+05 7.23048E-10-1.19871E-09
 -1       783-1.69113E+06-2.97030E+05-2.49694E+04-7.11334E+05 7.18501E-10 6.89397E-10
 -1       784-1.69346E+06-3.24042E+05-5.88456E+04-7.25007E+05-3.28328E-10 1.48430E-09
 -1       785-1.68600E+06-3.33599E+05-1.17998E+05-6.93538E+05-1.18689E-09 2.09548E-09
 -1       786 9.20593E+05-1.45760E+04 1.15507E+05-1.64698E+04 7.53971E-10-2.12458E-09
 -1       787 9.58425E+05 2.78963E+04 7.05620E+04-4.00290E+04-1.01136E-09-1.05956E-09
 -1       788 9.36827E+05-1.35113E+03 2.96565E+04-1.64542E+04-7.97627E-10-1.26784E-09
 -1       789 9.40512E+05 2.06740E+03 1.59809E+04-3.99447E+04-5.48425E-10-4.43015E-09
 -1       790 9.38322E+05-1.64594E+02 7.50723E+03-1.65380E+04 6.01176E-10-1.83081E-09
 -1       791 9.38743E+05 1.42585E+02 3.98217E+03-3.98230E+04-8.75389E-12-3.75167E-10
 -1       792 9.38490E+05-2.79580E+01 2.13007E+03-1.65763E+04 1.73031E-10 1.51317E-09
 -1       793 9.38534E+05 1.12077E+01 1.50759E+03-3.97966E+04-2.12822E-10-7.52493E-10
 -1       794 9.38508E+05-2.47708E+01 1.56059E+03-1.65646E+04-1.27329E-10-2.34911E-09
 -1       795 9.38662E+05 6.92777E+01 2.51135E+03-3.98714E+04-2.09184E-10 3.87638E-09
 -1       796 9.38428E+05-1.18038E+02 4.51576E+03-1.65014E+04-1.00636E-09-1.96792E-09
 -1       797 9.39755E+05 1.18560E+03 9.50285E+03-4.00386E+04-8.36735E-10 6.82576E-10
 -1       798 9.37566E+05-8.43260E+02 1.75698E+04-1.63972E+04-7.20320E-10 3.92902E-10
 -1       799 9.50439E+05 1.64527E+04 4.17989E+04-4.01496E+04-4.87853E-09-2.24964E-09
 -1       800 9.27978E+05-8.71189E+03 6.83756E+04-1.64018E+04 8.01265E-10-1.62981E-09
 -1       801-6.32587E+03 2.34380E+05 5.39754E+04-2.90805E+05 5.70799E-09 1.49885E-09
 -1       802 1.98320E+04 2.48742E+05 4.33029E+04-6.92200E+05 8.98581E-09 4.92037E-10
 -1       803 9.94280E+02 2.37898E+05 3.67784E+04-2.89991E+05 1.17598E-08 5.29644E-09
 -1       804 2.92163E+04 2.56765E+05 6.44090E+04-6.92114E+05 5.14410E-09-3.60706E-09
 -1       805-1.27147E+04 2.28442E+05 9.55823E+04-2.90905E+05 9.23319E-09 2.31375E-09
 -1       806-9.77904E+05-2.23935E+05-8.53507E+04-4.32907E+05 1.79330E-09-1.20053E-09
 -1       807-9.80135E+05-2.20176E+05-4.25575E+04-4.59313E+05-1.26420E-10 9.43783E-09
 -1       808-9.81771E+05-1.97361E+05-1.80704E+04-4.45730E+05-1.66983E-09 3.32875E-09
 -1       809-9.70667E+05-2.09391E+05-8.86190E+03-4.60496E+05 1.41517E-09-9.15037E-10
 -1       810-9.82312E+05-1.96530E+05-4.09472E+03-4.46269E+05-5.52063E-10 1.70985E-10
 -1       811-9.70048E+05-2.08995E+05-2.08326E+03-4.60470E+05-1.93450E-09 2.99224E-09
 -1       812-9.82419E+05-1.96580E+05-1.15445E+03-4.46283E+05 1.01090E-09-1.43882E-09
 -1       813-9.69983E+05-2.08999E+05-9.60228E+02-4.60442E+05 8.04903E-10 4.51109E-10
 -1       814-9.82382E+05-1.96596E+05-1.27129E+03-4.46267E+05 2.57842E-10-6.15728E-10
 -1       815-9.70007E+05-2.09012E+05-2.38854E+03-4.60414E+05-5.82077E-11-2.48929E-09
 -1       816-9.82190E+05-1.96571E+05-4.74644E+03-4.46221E+05-3.30692E-09 3.14685E-10
 -1       817-9.70682E+05-2.09485E+05-1.02925E+04-4.60386E+05 2.08729E-09-1.72622E-09
 -1       818-9.81511E+05-1.97574E+05-2.09994E+04-4.45576E+05-1.82990E-09-4.80395E-09
 -1       819-9.81672E+05-2.21983E+05-4.94413E+04-4.58927E+05-1.35969E-09 2.59206E-09
 -1       820-9.76963E+05-2.28467E+05-9.91575E+04-4.30678E+05-3.95630E-09-6.33008E-10
 -1       821-5.97016E+05 9.53575E+03-7.61381E+04 1.08976E+04-1.03373E-08-2.71393E-09
 -1       822-6.21862E+05-1.83861E+04-4.65014E+04 2.73597E+04-3.63843E-09-1.89175E-10
 -1       823-6.07782E+05 8.66555E+02-1.95607E+04 1.06538E+04 1.00435E-08-3.85262E-09
 -1       824-6.10229E+05-1.26788E+03-1.05287E+04 2.76771E+04-2.12822E-09-7.83984E-10
 -1       825-6.08818E+05 1.37140E+02-4.96686E+03 1.05686E+04-1.94968E-08 6.08452E-10
 -1       826-6.09180E+05 5.86491E+01-2.64858E+03 2.78144E+04-3.05927E-08 2.85013E-09
 -1       827-6.08960E+05 7.95894E+01-1.46457E+03 1.05144E+04-1.53959E-08 5.61613E-11
 -1       828-6.09104E+05 1.71376E+02-1.11528E+03 2.78982E+04-1.94541E-08 1.03751E-09
 -1       829-6.08977E+05 8.94704E+01-1.27473E+03 1.04842E+04-3.78373E-09-4.81236E-09
 -1       830-6.09213E+05 1.11517E+02-2.16593E+03 2.79322E+04 9.61066E-09-5.94130E-09
 -1       831-6.08886E+05 1.54370E+02-3.97617E+03 1.04802E+04-1.05107E-08-4.14161E-09
 -1       832-6.10098E+05-9.21166E+02-8.40173E+03 2.79130E+04 1.68075E-09-5.31963E-09
 -1       833-6.08079E+05 7.52716E+02-1.55777E+04 1.05048E+04 1.85764E-09-3.95721E-09
 -1       834-6.19412E+05-1.45424E+04-3.70521E+04 2.77785E+04-4.83374E-09-3.52611E-09
 -1       835-5.99515E+05 7.67509E+03-6.06463E+04 1.06315E+04 5.18003E-09-6.32281E-09
 -1       836-1.27980E+04 1.28992E+06 1.09089E+05-1.16445E+05-7.95990E-09 1.98816E-09
 -1       837 2.89167E+04 1.32497E+06 8.03385E+04-2.72770E+05-7.89260E-09 9.56788E-10
 -1       838-1.97460E+03 1.30211E+06 6.05144E+04-1.16313E+05-1.04701E-08 4.89285E-09
 -1       839 3.65443E+04 1.33006E+06 9.65318E+04-2.72737E+05-7.39601E-09-2.05546E-09
 -1       840-1.68904E+04 1.28461E+06 1.41291E+05-1.16470E+05-8.84756E-09 7.27596E-10
 -1       841-1.03793E+05-2.39628E+03-2.83840E+04-2.96752E+04-1.32677E-08-1.16870E-09
 -1       842-1.26061E+05-2.58884E+03-1.70696E+04-1.53720E+04-5.86806E-09 1.01591E-09
 -1       843-1.08053E+05-6.71949E+03-6.66435E+03-2.98727E+04 5.94264E-09-1.56888E-11
 -1       844-1.21200E+05 4.42827E+03-3.49173E+03-1.60613E+04 3.52475E-09-3.22058E-09
 -1       845-1.08479E+05-7.09456E+03-1.52476E+03-2.99269E+04-8.08814E-09-8.07233E-10
 -1       846-1.20796E+05 5.04091E+03-7.45397E+02-1.61070E+04-2.35084E-08-2.26743E-09
 -1       847-1.08536E+05-7.12562E+03-3.17883E+02-2.99535E+04-1.63445E-08 7.34303E-10
 -1       848-1.20784E+05 5.11525E+03-1.02762E+02-1.61111E+04 1.18253E-08 1.25404E-09
 -1       849-1.08551E+05-7.12920E+03 5.67325E+01-2.99667E+04 6.69104E-09 1.69553E-09
 -1       850-1.20768E+05 5.14651E+03 2.58930E+02-1.61106E+04 1.66921E-09 9.76797E-10
 -1       851-1.08572E+05-7.14514E+03 5.74906E+02-2.99682E+04-1.71187E-08-5.05020E-09
 -1       852-1.20555E+05 5.35790E+03 1.35268E+03-1.61239E+04 5.95674E-09-6.11908E-09
 -1       853-1.08736E+05-7.29675E+03 2.57742E+03-2.99602E+04 8.58699E-09 9.79981E-10
 -1       854-1.18464E+05 7.94225E+03 6.63911E+03-1.64917E+04 1.29374E-08-2.95222E-09
 -1       855-1.10477E+05-8.89677E+03 1.10135E+04-2.98857E+04-5.90262E-10-9.79526E-10
 -1       856-3.77395E+05 4.99724E+03-3.96066E+04 1.09341E+04-1.63909E-08-3.88536E-09
 -1       857-3.90380E+05-9.44237E+03-2.41841E+04 2.74865E+04-9.71795E-09-2.48747E-09
 -1       858-3.83004E+05 5.00841E+02-1.01725E+04 1.07725E+04-1.89348E-08-3.89673E-09
 -1       859-3.84351E+05-5.31617E+02-5.47202E+03 2.76778E+04 1.28398E-09-3.90537E-09
 -1       860-3.83548E+05 1.26553E+02-2.57388E+03 1.07315E+04 6.41785E-09-4.64433E-09
 -1       861-3.83812E+05 1.61269E+02-1.36087E+03 2.77354E+04-1.16592E-08-3.30840E-09
 -1       862-3.83622E+05 9.65249E+01-7.27686E+02 1.07134E+04 1.42268E-08-5.35670E-09
 -1       863-3.83764E+05 2.17539E+02-5.13419E+02 2.77561E+04 3.95087E-08-7.94614E-09
 -1       864-3.83628E+05 9.57877E+01-5.32522E+02 1.07105E+04 1.50265E-08-9.89724E-09
 -1       865-3.83786E+05 1.87480E+02-8.56914E+02 2.77457E+04 1.98884E-08-3.84904E-09
 -1       866-3.83584E+05 1.11565E+02-1.54850E+03 1.07240E+04-1.24101E-09-3.89036E-09
 -1       867-3.84095E+05-2.26686E+02-3.25099E+03 2.77003E+04 1.16722E-08-5.05437E-10
 -1       868-3.83258E+05 3.27564E+02-6.02818E+03 1.07568E+04 1.45778E-08-4.02497E-09
 -1       869-3.87642E+05-5.50921E+03-1.43159E+04 2.75283E+04-1.10158E-08-4.29804E-09
 -1       870-3.79930E+05 2.97880E+03-2.34484E+04 1.09034E+04 6.91762E-09-4.38740E-09
 -1       871-4.38360E+03-4.25856E+04-7.83824E+03 1.50695E+05 6.16365E-09-4.48836E-09
 -1       872-2.00128E+03-4.40271E+04-2.20135E+03 1.81867E+05 1.41335E-08-3.70710E-09
 -1       873-5.79948E+02-4.36301E+04 2.61104E+03 1.50423E+05 1.09776E-08-1.19894E-09
 -1       874 1.85949E+03-4.13690E+04 9.34378E+03 1.81932E+05 1.11995E-08 1.75169E-09
 -1       875 7.47229E+03-4.53592E+04 1.97708E+04 1.50674E+05 2.98496E-09 1.96815E-09
 -1       876 4.72435E+05 6.73467E+04 4.53760E+04 1.89645E+05 1.52588E-08 2.23372E-09
 -1       877 4.80611E+05 9.53466E+04 2.73295E+04 1.98093E+05 1.54205E-09-1.30785E-09
 -1       878 4.79389E+05 7.41284E+04 1.06453E+04 1.89683E+05 7.16818E-09 6.70298E-10
 -1       879 4.72458E+05 8.43703E+04 5.61603E+03 1.99323E+05 1.85446E-08 1.20053E-10
 -1       880 4.80025E+05 7.47778E+04 2.47244E+03 1.89730E+05 1.89546E-08 6.09930E-09
 -1       881 4.71699E+05 8.34242E+04 1.29515E+03 1.99318E+05 1.36297E-08-4.43094E-10
 -1       882 4.80078E+05 7.48625E+04 7.09943E+02 1.89751E+05 8.78981E-09 2.99636E-09
 -1       883 4.71638E+05 8.33366E+04 6.08284E+02 1.99284E+05 1.00142E-08 5.67303E-09
 -1       884 4.80069E+05 7.48673E+04 8.11185E+02 1.89755E+05-1.72150E-09 3.81408E-09
 -1       885 4.71736E+05 8.34264E+04 1.56724E+03 1.99292E+05-1.58645E-08-2.80625E-09
 -1       886 4.79983E+05 7.47809E+04 3.04053E+03 1.89741E+05-2.53999E-09 2.07069E-09
 -1       887 4.72690E+05 8.45717E+04 6.92845E+03 1.99257E+05 3.00988E-08-4.60750E-09
 -1       888 4.79175E+05 7.39978E+04 1.31463E+04 1.89694E+05 1.25202E-08 2.77851E-09
 -1       889 4.82754E+05 9.81225E+04 3.37492E+04 1.97716E+05 2.62115E-08-3.50519E-09
 -1       890 4.70586E+05 6.56245E+04 5.60432E+04 1.89636E+05 1.88202E-08 3.04135E-09
 -1       891 7.80339E+02-2.21225E+05-9.07388E+03 4.65352E+04 4.49609E-09-1.96997E-09
 -1       892-2.83531E+03-2.23894E+05-6.83991E+03 1.10176E+05 6.11453E-09 1.81217E-09
 -1       893 1.56906E+01-2.22290E+05-5.47829E+03 4.63864E+04 5.01223E-09 3.17925E-09
 -1       894-3.94201E+03-2.24612E+05-9.17348E+03 1.10150E+05 4.43015E-09-2.14186E-09
 -1       895 1.36083E+03-2.20448E+05-1.37136E+04 4.65587E+04 4.39468E-09 3.43880E-09
 -1       896 7.78802E+05-1.56326E+03 1.18920E+04-1.05631E+04 1.54614E-10-2.85127E-10
 -1       897 7.82710E+05 2.83130E+03 7.28447E+03-2.56734E+04-3.94721E-10-8.32870E-10
 -1       898 7.80455E+05-1.71575E+02 3.06079E+03-1.05500E+04 8.09450E-11-1.09139E-10
 -1       899 7.80804E+05 1.90078E+02 1.67424E+03-2.56154E+04-5.20231E-10-3.34694E-10
 -1       900 7.80590E+05-3.13489E+01 8.20296E+02-1.06200E+04-9.54969E-11-3.68345E-11
 -1       901 7.80584E+05 1.03408E+01 5.14742E+02-2.54991E+04-4.54747E-11 3.81988E-11
 -1       902 7.80592E+05-6.84049E+00 4.22390E+02-1.06664E+04 1.04819E-10-4.71800E-11
 -1       903 7.80555E+05 1.24429E+01 5.73791E+02-2.54318E+04 6.52562E-11 1.40744E-10
 -1       904 7.80573E+05-8.40943E+00 9.81128E+02-1.06873E+04-3.41061E-11 6.89795E-11
 -1       905 7.80655E+05 8.61453E+01 1.95679E+03-2.54171E+04-6.96900E-11 1.18007E-10
 -1       906 7.80482E+05-7.23383E+01 3.75446E+03-1.06810E+04 6.38920E-11-1.47452E-10
 -1       907 7.81529E+05 1.06277E+03 8.02592E+03-2.54519E+04 8.58563E-10 4.87148E-10
 -1       908 7.79722E+05-6.61941E+02 1.49132E+04-1.06524E+04-2.08729E-10 2.66482E-10
 -1       909 7.90516E+05 1.40656E+04 3.54879E+04-2.54627E+04-2.46632E-09-4.60659E-10
 -1       910 7.71544E+05-7.30769E+03 5.80925E+04-1.06729E+04-2.47837E-10-1.70985E-10
 -1       911 1.99281E+05-5.27405E+02 3.85049E+03-1.10725E+04 3.63798E-10-8.80505E-11
 -1       912 2.00568E+05 9.20688E+02 2.36825E+03-2.61891E+04-2.81943E-11 1.26875E-10
 -1       913 1.99802E+05-5.89169E+01 9.97910E+02-1.09915E+04 4.36557E-11 2.71598E-10
 -1       914 1.99914E+05 7.76150E+01 5.61779E+02-2.62593E+04-9.36780E-11 7.41920E-10
 -1       915 1.99835E+05-3.47415E+00 3.01435E+02-1.10021E+04 4.47471E-10 1.93495E-10
 -1       916 1.99826E+05 2.84169E+01 2.41303E+02-2.62408E+04 8.32642E-10 8.30710E-10
 -1       917 1.99829E+05 7.86344E+00 2.82996E+02-1.10099E+04 5.32054E-10 1.71099E-11
 -1       918 1.99824E+05 3.42235E+01 4.84648E+02-2.62324E+04 6.16652E-10 9.81061E-10
 -1       919 1.99814E+05 4.31749E-01 9.03263E+02-1.10106E+04 3.41515E-10-1.34918E-10
 -1       920 1.99935E+05 9.85289E+01 1.84636E+03-2.62381E+04 1.06411E-09 1.11482E-09
 -1       921 1.99732E+05-6.63412E+01 3.56289E+03-1.10042E+04 4.43151E-10 2.32262E-10
 -1       922 2.00785E+05 1.02130E+03 7.63372E+03-2.62538E+04 1.07389E-09 4.49518E-10
 -1       923 1.99017E+05-6.34867E+02 1.41870E+04-1.09947E+04 6.95763E-11 1.83718E-10
 -1       924 2.09364E+05 1.33969E+04 3.37808E+04-2.61839E+04 1.68257E-10 3.69710E-10
 -1       925 1.91247E+05-6.97565E+03 5.52945E+04-1.10762E+04 2.25555E-10 8.73115E-11
 -1       926-9.67534E+05 6.85894E+03-5.45656E+04-5.81167E+03 6.65068E-10-1.56433E-10
 -1       927-9.85306E+05-1.32503E+04-3.33352E+04-1.35388E+04-3.55271E-10 2.56478E-10
 -1       928-9.75224E+05 6.13427E+02-1.40023E+04-5.72776E+03 1.03910E-10 1.05501E-10
 -1       929-9.76897E+05-1.00016E+03-7.53458E+03-1.36523E+04-5.16138E-11-9.80776E-10
 -1       930-9.75946E+05 6.95947E+01-3.52860E+03-5.70001E+03-4.20641E-12 1.51772E-10
 -1       931-9.76093E+05-7.17930E+01-1.84944E+03-1.36870E+04 2.06057E-11-1.04819E-10
 -1       932-9.76033E+05 1.21673E+01-9.50295E+02-5.69305E+03 2.02220E-11-4.21736E-10
 -1       933-9.75996E+05-5.74364E+00-6.01722E+02-1.36827E+04 6.33236E-11-4.24279E-10
 -1       934-9.76041E+05 5.13532E+00-5.25148E+02-5.70426E+03 1.75078E-11 1.89857E-11
 -1       935-9.76007E+05-2.83357E+01-7.47614E+02-1.36412E+04 1.08685E-10-2.73360E-10
 -1       936-9.76010E+05 2.05764E+01-1.29094E+03-5.73450E+03 2.10093E-10-2.72848E-12
 -1       937-9.76276E+05-3.60000E+02-2.67692E+03-1.35609E+04 2.56023E-10-1.14386E-09
 -1       938-9.75752E+05 2.07077E+02-4.94490E+03-5.78462E+03 2.95131E-10-9.08358E-10
 -1       939-9.79222E+05-4.67929E+03-1.17440E+04-1.33877E+04 8.51969E-10-9.09722E-10
 -1       940-9.73039E+05 2.39939E+03-1.92238E+04-5.90639E+03-3.58796E-10 5.25688E-10
 -1       941 1.79463E+06-3.03929E+04 2.43265E+05-9.12496E+03 1.18234E-09 1.74623E-09
 -1       942 1.87404E+06 5.88329E+04 1.48510E+05-2.27398E+04 3.28328E-10-2.72121E-09
 -1       943 1.82890E+06-2.74053E+03 6.24826E+04-9.14574E+03 7.88987E-11-3.63798E-12
 -1       944 1.83661E+06 4.41770E+03 3.36685E+04-2.26749E+04-8.87269E-10-1.23646E-09
 -1       945 1.83212E+06-3.16621E+02 1.58613E+04-9.17415E+03 7.34381E-10 9.44965E-10
 -1       946 1.83303E+06 3.08902E+02 8.47063E+03-2.26727E+04 5.36261E-10 2.23554E-09
 -1       947 1.83251E+06-6.42118E+01 4.65249E+03-9.14785E+03 7.82393E-10 1.59525E-09
 -1       948 1.83265E+06 1.49970E+01 3.51537E+03-2.27839E+04 3.09683E-10 6.40171E-10
 -1       949 1.83254E+06-6.43461E+01 3.95595E+03-9.06300E+03-1.27193E-09-2.73309E-09
 -1       950 1.83295E+06 2.08902E+02 6.67491E+03-2.30127E+04 1.47884E-09 1.54159E-09
 -1       951 1.83226E+06-2.72254E+02 1.22058E+04-8.91873E+03-1.89266E-09-1.89448E-09
 -1       952 1.83573E+06 3.32118E+03 2.57629E+04-2.33529E+04-1.02455E-09-1.32059E-09
 -1       953 1.82983E+06-2.14410E+03 4.77249E+04-8.72287E+03-6.94854E-10 2.67391E-10
 -1       954 1.86438E+06 4.48509E+04 1.13424E+05-2.37004E+04-7.03949E-09-3.07591E-09
 -1       955 1.80367E+06-2.32970E+04 1.85715E+05-8.60653E+03-2.96495E-10 7.78527E-10
 -1       956-3.59327E+05-8.53366E+03-2.11552E+04 5.72094E+04-1.42245E-08-2.47383E-09
 -1       957-3.63524E+05-2.70131E+03-1.08261E+04 6.85281E+04-2.79852E-09-3.64344E-09
 -1       958-3.61290E+05-9.52220E+01-4.88601E+03 5.67994E+04 9.15861E-09-3.79441E-09
 -1       959-3.61721E+05 1.99839E+02-2.48793E+03 6.89613E+04-1.33241E-09-3.47700E-09
 -1       960-3.61555E+05 2.81643E+02-1.21272E+03 5.67577E+04-1.40462E-08-3.85899E-09
 -1       961-3.61680E+05 3.65679E+02-6.30168E+02 6.90082E+04-2.79151E-08-3.39060E-09
 -1       962-3.61660E+05 3.19095E+02-3.43067E+02 5.67500E+04-1.31477E-08-3.23416E-09
 -1       963-3.61741E+05 4.05672E+02-2.38494E+02 6.90186E+04-1.65578E-08-2.51475E-09
 -1       964-3.61712E+05 3.47709E+02-2.47754E+02 5.67463E+04-2.31421E-09-4.85124E-09
 -1       965-3.61789E+05 4.28691E+02-3.91974E+02 6.90211E+04 1.47751E-08-6.30462E-09
 -1       966-3.61715E+05 3.66226E+02-7.17573E+02 5.67470E+04-9.76081E-09-4.16730E-09
 -1       967-3.61881E+05 3.69383E+02-1.46231E+03 6.90027E+04 1.62618E-09-3.51429E-09
 -1       968-3.61609E+05 1.76790E+02-2.86110E+03 5.67654E+04-4.03907E-09-4.61296E-09
 -1       969-3.62991E+05-1.30802E+03-6.35029E+03 6.87974E+04-3.81806E-09-5.28280E-09
 -1       970-3.60486E+05-4.76169E+03-1.24039E+04 5.69705E+04 2.58024E-09-4.64024E-09
 -1       971-5.77270E+05 4.02475E+03-3.19370E+04 9.64284E+03-1.37097E-08 3.43789E-10
 -1       972-5.87711E+05-7.60140E+03-1.94997E+04 2.51857E+04-1.23910E-08-5.23869E-09
 -1       973-5.81794E+05 4.03748E+02-8.20958E+03 9.45454E+03-1.19453E-08-6.53472E-10
 -1       974-5.82863E+05-4.11129E+02-4.42481E+03 2.54262E+04 9.23364E-10-5.51927E-09
 -1       975-5.82236E+05 1.06173E+02-2.10368E+03 9.39339E+03 8.03857E-09-1.74441E-09
 -1       976-5.82441E+05 1.52605E+02-1.15328E+03 2.55175E+04-1.81249E-08-5.29485E-09
 -1       977-5.82297E+05 8.61150E+01-6.98360E+02 9.36191E+03 1.13189E-08-1.43586E-09
 -1       978-5.82419E+05 1.99571E+02-6.42023E+02 2.55581E+04 3.86617E-08-8.37451E-09
 -1       979-5.82297E+05 9.23860E+01-8.77258E+02 9.35243E+03 2.60775E-08-1.69791E-09
 -1       980-5.82496E+05 1.43009E+02-1.61925E+03 2.55542E+04 1.89200E-08-7.18231E-09
 -1       981-5.82218E+05 1.36737E+02-3.04728E+03 9.36583E+03-2.56750E-09-5.66729E-10
 -1       982-5.83162E+05-6.64349E+02-6.47889E+03 2.55027E+04-7.92534E-09-5.12176E-09
 -1       983-5.81587E+05 5.91721E+02-1.20348E+04 9.40539E+03 1.55287E-08-2.30602E-09
 -1       984-5.90336E+05-1.11993E+04-2.86283E+04 2.53286E+04-5.64341E-09-5.77711E-09
 -1       985-5.74963E+05 5.93191E+03-4.68709E+04 9.55462E+03 7.08587E-09-1.62254E-09
 -3
 9999
