    1C
    1UUSER                                                              
    1UDATE              11.october.2022                                 
    1UTIME              18:57:41                                        
    1UHOST                                                              
    1UPGM               CalculiX                                        
    1UVERSION           Version 2.20                             
    1UCOMPILETIME       Sun Jul 31 18:08:37 CEST 2022                    
    1UDIR                                                               
    1UDBN                                                               
    1UMAT    1MESH_MATERIAL                                             
    2C                           409                                     1
 -1         1 0.00000E+00 0.00000E+00 0.00000E+00
 -1         2 1.66667E-02 0.00000E+00 0.00000E+00
 -1         3 3.33333E-02 0.00000E+00 0.00000E+00
 -1         5 6.66667E-02 0.00000E+00 0.00000E+00
 -1         8 0.00000E+00 6.25000E-03 0.00000E+00
 -1         9 1.66667E-02 6.25000E-03 0.00000E+00
 -1        10 3.33333E-02 6.25000E-03 0.00000E+00
 -1        12 6.66667E-02 6.25000E-03 0.00000E+00
 -1        15 0.00000E+00 1.25000E-02 0.00000E+00
 -1        16 1.66667E-02 1.25000E-02 0.00000E+00
 -1        17 3.33333E-02 1.25000E-02 0.00000E+00
 -1        18 5.00000E-02 1.25000E-02 0.00000E+00
 -1        19 6.66667E-02 1.25000E-02 0.00000E+00
 -1        20 8.33333E-02 1.25000E-02 0.00000E+00
 -1        21 1.00000E-01 1.25000E-02 0.00000E+00
 -1        24 3.33333E-02 1.87500E-02 0.00000E+00
 -1        25 5.00000E-02 1.87500E-02 0.00000E+00
 -1        26 6.66667E-02 1.87500E-02 0.00000E+00
 -1        27 8.33333E-02 1.87500E-02 0.00000E+00
 -1        28 1.00000E-01 1.87500E-02 0.00000E+00
 -1        32 5.00000E-02 2.50000E-02 0.00000E+00
 -1        33 6.66667E-02 2.50000E-02 0.00000E+00
 -1        34 8.33333E-02 2.50000E-02 0.00000E+00
 -1        35 1.00000E-01 2.50000E-02 0.00000E+00
 -1        51 0.00000E+00 1.04167E-03 0.00000E+00
 -1        52 0.00000E+00 2.08333E-03 0.00000E+00
 -1        53 0.00000E+00 3.12500E-03 0.00000E+00
 -1        54 0.00000E+00 4.16667E-03 0.00000E+00
 -1        55 0.00000E+00 5.20833E-03 0.00000E+00
 -1        56 1.04167E-03 3.90630E-04 0.00000E+00
 -1        57 2.08333E-03 7.81250E-04 0.00000E+00
 -1        58 3.12500E-03 1.17188E-03 0.00000E+00
 -1        59 4.16667E-03 1.56250E-03 0.00000E+00
 -1        60 5.20833E-03 1.95312E-03 0.00000E+00
 -1        61 6.25000E-03 2.34375E-03 0.00000E+00
 -1        62 7.29167E-03 2.73438E-03 0.00000E+00
 -1        63 8.33333E-03 3.12500E-03 0.00000E+00
 -1        64 9.37500E-03 3.51563E-03 0.00000E+00
 -1        65 1.04167E-02 3.90625E-03 0.00000E+00
 -1        66 1.14583E-02 4.29688E-03 0.00000E+00
 -1        67 1.25000E-02 4.68750E-03 0.00000E+00
 -1        68 1.35417E-02 5.07813E-03 0.00000E+00
 -1        69 1.45833E-02 5.46875E-03 0.00000E+00
 -1        70 1.56250E-02 5.85938E-03 0.00000E+00
 -1        86 1.66667E-02 1.04167E-03 0.00000E+00
 -1        87 1.66667E-02 2.08333E-03 0.00000E+00
 -1        88 1.66667E-02 3.12500E-03 0.00000E+00
 -1        89 1.66667E-02 4.16667E-03 0.00000E+00
 -1        90 1.66667E-02 5.20833E-03 0.00000E+00
 -1       121 3.33333E-02 1.04167E-03 0.00000E+00
 -1       122 3.33333E-02 2.08333E-03 0.00000E+00
 -1       123 3.33333E-02 3.12500E-03 0.00000E+00
 -1       124 3.33333E-02 4.16667E-03 0.00000E+00
 -1       125 3.33333E-02 5.20833E-03 0.00000E+00
 -1       191 6.66667E-02 1.04167E-03 0.00000E+00
 -1       192 6.66667E-02 2.08333E-03 0.00000E+00
 -1       193 6.66667E-02 3.12500E-03 0.00000E+00
 -1       194 6.66667E-02 4.16667E-03 0.00000E+00
 -1       195 6.66667E-02 5.20833E-03 0.00000E+00
 -1       251 1.04167E-03 6.25000E-03 0.00000E+00
 -1       252 2.08333E-03 6.25000E-03 0.00000E+00
 -1       253 3.12500E-03 6.25000E-03 0.00000E+00
 -1       254 4.16667E-03 6.25000E-03 0.00000E+00
 -1       255 5.20833E-03 6.25000E-03 0.00000E+00
 -1       256 6.25000E-03 6.25000E-03 0.00000E+00
 -1       257 7.29167E-03 6.25000E-03 0.00000E+00
 -1       258 8.33333E-03 6.25000E-03 0.00000E+00
 -1       259 9.37500E-03 6.25000E-03 0.00000E+00
 -1       260 1.04167E-02 6.25000E-03 0.00000E+00
 -1       261 1.14583E-02 6.25000E-03 0.00000E+00
 -1       262 1.25000E-02 6.25000E-03 0.00000E+00
 -1       263 1.35417E-02 6.25000E-03 0.00000E+00
 -1       264 1.45833E-02 6.25000E-03 0.00000E+00
 -1       265 1.56250E-02 6.25000E-03 0.00000E+00
 -1       266 0.00000E+00 7.29167E-03 0.00000E+00
 -1       267 0.00000E+00 8.33333E-03 0.00000E+00
 -1       268 0.00000E+00 9.37500E-03 0.00000E+00
 -1       269 0.00000E+00 1.04167E-02 0.00000E+00
 -1       270 0.00000E+00 1.14583E-02 0.00000E+00
 -1       271 1.04167E-03 6.64063E-03 0.00000E+00
 -1       272 2.08333E-03 7.03125E-03 0.00000E+00
 -1       273 3.12500E-03 7.42188E-03 0.00000E+00
 -1       274 4.16667E-03 7.81250E-03 0.00000E+00
 -1       275 5.20833E-03 8.20313E-03 0.00000E+00
 -1       276 6.25000E-03 8.59375E-03 0.00000E+00
 -1       277 7.29167E-03 8.98438E-03 0.00000E+00
 -1       278 8.33333E-03 9.37500E-03 0.00000E+00
 -1       279 9.37500E-03 9.76562E-03 0.00000E+00
 -1       280 1.04167E-02 1.01562E-02 0.00000E+00
 -1       281 1.14583E-02 1.05469E-02 0.00000E+00
 -1       282 1.25000E-02 1.09375E-02 0.00000E+00
 -1       283 1.35417E-02 1.13281E-02 0.00000E+00
 -1       284 1.45833E-02 1.17188E-02 0.00000E+00
 -1       285 1.56250E-02 1.21094E-02 0.00000E+00
 -1       301 1.66667E-02 7.29167E-03 0.00000E+00
 -1       302 1.66667E-02 8.33333E-03 0.00000E+00
 -1       303 1.66667E-02 9.37500E-03 0.00000E+00
 -1       304 1.66667E-02 1.04167E-02 0.00000E+00
 -1       305 1.66667E-02 1.14583E-02 0.00000E+00
 -1       306 1.77083E-02 6.64063E-03 0.00000E+00
 -1       307 1.87500E-02 7.03125E-03 0.00000E+00
 -1       308 1.97917E-02 7.42188E-03 0.00000E+00
 -1       309 2.08333E-02 7.81250E-03 0.00000E+00
 -1       310 2.18750E-02 8.20313E-03 0.00000E+00
 -1       311 2.29167E-02 8.59375E-03 0.00000E+00
 -1       312 2.39583E-02 8.98438E-03 0.00000E+00
 -1       313 2.50000E-02 9.37500E-03 0.00000E+00
 -1       314 2.60417E-02 9.76562E-03 0.00000E+00
 -1       315 2.70833E-02 1.01562E-02 0.00000E+00
 -1       316 2.81250E-02 1.05469E-02 0.00000E+00
 -1       317 2.91667E-02 1.09375E-02 0.00000E+00
 -1       318 3.02083E-02 1.13281E-02 0.00000E+00
 -1       319 3.12500E-02 1.17188E-02 0.00000E+00
 -1       320 3.22917E-02 1.21094E-02 0.00000E+00
 -1       336 3.33333E-02 7.29167E-03 0.00000E+00
 -1       337 3.33333E-02 8.33333E-03 0.00000E+00
 -1       338 3.33333E-02 9.37500E-03 0.00000E+00
 -1       339 3.33333E-02 1.04167E-02 0.00000E+00
 -1       340 3.33333E-02 1.14583E-02 0.00000E+00
 -1       406 6.66667E-02 7.29167E-03 0.00000E+00
 -1       407 6.66667E-02 8.33333E-03 0.00000E+00
 -1       408 6.66667E-02 9.37500E-03 0.00000E+00
 -1       409 6.66667E-02 1.04167E-02 0.00000E+00
 -1       410 6.66667E-02 1.14583E-02 0.00000E+00
 -1       521 1.77083E-02 1.28906E-02 0.00000E+00
 -1       522 1.87500E-02 1.32813E-02 0.00000E+00
 -1       523 1.97917E-02 1.36719E-02 0.00000E+00
 -1       524 2.08333E-02 1.40625E-02 0.00000E+00
 -1       525 2.18750E-02 1.44531E-02 0.00000E+00
 -1       526 2.29167E-02 1.48437E-02 0.00000E+00
 -1       527 2.39583E-02 1.52344E-02 0.00000E+00
 -1       528 2.50000E-02 1.56250E-02 0.00000E+00
 -1       529 2.60417E-02 1.60156E-02 0.00000E+00
 -1       530 2.70833E-02 1.64062E-02 0.00000E+00
 -1       531 2.81250E-02 1.67969E-02 0.00000E+00
 -1       532 2.91667E-02 1.71875E-02 0.00000E+00
 -1       533 3.02083E-02 1.75781E-02 0.00000E+00
 -1       534 3.12500E-02 1.79687E-02 0.00000E+00
 -1       535 3.22917E-02 1.83594E-02 0.00000E+00
 -1       536 3.43750E-02 1.25000E-02 0.00000E+00
 -1       537 3.54167E-02 1.25000E-02 0.00000E+00
 -1       538 3.64583E-02 1.25000E-02 0.00000E+00
 -1       539 3.75000E-02 1.25000E-02 0.00000E+00
 -1       540 3.85417E-02 1.25000E-02 0.00000E+00
 -1       541 3.95833E-02 1.25000E-02 0.00000E+00
 -1       542 4.06250E-02 1.25000E-02 0.00000E+00
 -1       543 4.16667E-02 1.25000E-02 0.00000E+00
 -1       544 4.27083E-02 1.25000E-02 0.00000E+00
 -1       545 4.37500E-02 1.25000E-02 0.00000E+00
 -1       546 4.47917E-02 1.25000E-02 0.00000E+00
 -1       547 4.58333E-02 1.25000E-02 0.00000E+00
 -1       548 4.68750E-02 1.25000E-02 0.00000E+00
 -1       549 4.79167E-02 1.25000E-02 0.00000E+00
 -1       550 4.89583E-02 1.25000E-02 0.00000E+00
 -1       551 3.33333E-02 1.35417E-02 0.00000E+00
 -1       552 3.33333E-02 1.45833E-02 0.00000E+00
 -1       553 3.33333E-02 1.56250E-02 0.00000E+00
 -1       554 3.33333E-02 1.66667E-02 0.00000E+00
 -1       555 3.33333E-02 1.77083E-02 0.00000E+00
 -1       556 3.43750E-02 1.28906E-02 0.00000E+00
 -1       557 3.54167E-02 1.32813E-02 0.00000E+00
 -1       558 3.64583E-02 1.36719E-02 0.00000E+00
 -1       559 3.75000E-02 1.40625E-02 0.00000E+00
 -1       560 3.85417E-02 1.44531E-02 0.00000E+00
 -1       561 3.95833E-02 1.48437E-02 0.00000E+00
 -1       562 4.06250E-02 1.52344E-02 0.00000E+00
 -1       563 4.16667E-02 1.56250E-02 0.00000E+00
 -1       564 4.27083E-02 1.60156E-02 0.00000E+00
 -1       565 4.37500E-02 1.64062E-02 0.00000E+00
 -1       566 4.47917E-02 1.67969E-02 0.00000E+00
 -1       567 4.58333E-02 1.71875E-02 0.00000E+00
 -1       568 4.68750E-02 1.75781E-02 0.00000E+00
 -1       569 4.79167E-02 1.79687E-02 0.00000E+00
 -1       570 4.89583E-02 1.83594E-02 0.00000E+00
 -1       571 5.10417E-02 1.25000E-02 0.00000E+00
 -1       572 5.20833E-02 1.25000E-02 0.00000E+00
 -1       573 5.31250E-02 1.25000E-02 0.00000E+00
 -1       574 5.41667E-02 1.25000E-02 0.00000E+00
 -1       575 5.52083E-02 1.25000E-02 0.00000E+00
 -1       576 5.62500E-02 1.25000E-02 0.00000E+00
 -1       577 5.72917E-02 1.25000E-02 0.00000E+00
 -1       578 5.83333E-02 1.25000E-02 0.00000E+00
 -1       579 5.93750E-02 1.25000E-02 0.00000E+00
 -1       580 6.04167E-02 1.25000E-02 0.00000E+00
 -1       581 6.14583E-02 1.25000E-02 0.00000E+00
 -1       582 6.25000E-02 1.25000E-02 0.00000E+00
 -1       583 6.35417E-02 1.25000E-02 0.00000E+00
 -1       584 6.45833E-02 1.25000E-02 0.00000E+00
 -1       585 6.56250E-02 1.25000E-02 0.00000E+00
 -1       586 5.00000E-02 1.35417E-02 0.00000E+00
 -1       587 5.00000E-02 1.45833E-02 0.00000E+00
 -1       588 5.00000E-02 1.56250E-02 0.00000E+00
 -1       589 5.00000E-02 1.66667E-02 0.00000E+00
 -1       590 5.00000E-02 1.77083E-02 0.00000E+00
 -1       591 5.10417E-02 1.28906E-02 0.00000E+00
 -1       592 5.20833E-02 1.32813E-02 0.00000E+00
 -1       593 5.31250E-02 1.36719E-02 0.00000E+00
 -1       594 5.41667E-02 1.40625E-02 0.00000E+00
 -1       595 5.52083E-02 1.44531E-02 0.00000E+00
 -1       596 5.62500E-02 1.48437E-02 0.00000E+00
 -1       597 5.72917E-02 1.52344E-02 0.00000E+00
 -1       598 5.83333E-02 1.56250E-02 0.00000E+00
 -1       599 5.93750E-02 1.60156E-02 0.00000E+00
 -1       600 6.04167E-02 1.64062E-02 0.00000E+00
 -1       601 6.14583E-02 1.67969E-02 0.00000E+00
 -1       602 6.25000E-02 1.71875E-02 0.00000E+00
 -1       603 6.35417E-02 1.75781E-02 0.00000E+00
 -1       604 6.45833E-02 1.79687E-02 0.00000E+00
 -1       605 6.56250E-02 1.83594E-02 0.00000E+00
 -1       606 6.77083E-02 1.25000E-02 0.00000E+00
 -1       607 6.87500E-02 1.25000E-02 0.00000E+00
 -1       608 6.97917E-02 1.25000E-02 0.00000E+00
 -1       609 7.08333E-02 1.25000E-02 0.00000E+00
 -1       610 7.18750E-02 1.25000E-02 0.00000E+00
 -1       611 7.29167E-02 1.25000E-02 0.00000E+00
 -1       612 7.39583E-02 1.25000E-02 0.00000E+00
 -1       613 7.50000E-02 1.25000E-02 0.00000E+00
 -1       614 7.60417E-02 1.25000E-02 0.00000E+00
 -1       615 7.70833E-02 1.25000E-02 0.00000E+00
 -1       616 7.81250E-02 1.25000E-02 0.00000E+00
 -1       617 7.91667E-02 1.25000E-02 0.00000E+00
 -1       618 8.02083E-02 1.25000E-02 0.00000E+00
 -1       619 8.12500E-02 1.25000E-02 0.00000E+00
 -1       620 8.22917E-02 1.25000E-02 0.00000E+00
 -1       621 6.66667E-02 1.35417E-02 0.00000E+00
 -1       622 6.66667E-02 1.45833E-02 0.00000E+00
 -1       623 6.66667E-02 1.56250E-02 0.00000E+00
 -1       624 6.66667E-02 1.66667E-02 0.00000E+00
 -1       625 6.66667E-02 1.77083E-02 0.00000E+00
 -1       626 6.77083E-02 1.28906E-02 0.00000E+00
 -1       627 6.87500E-02 1.32813E-02 0.00000E+00
 -1       628 6.97917E-02 1.36719E-02 0.00000E+00
 -1       629 7.08333E-02 1.40625E-02 0.00000E+00
 -1       630 7.18750E-02 1.44531E-02 0.00000E+00
 -1       631 7.29167E-02 1.48437E-02 0.00000E+00
 -1       632 7.39583E-02 1.52344E-02 0.00000E+00
 -1       633 7.50000E-02 1.56250E-02 0.00000E+00
 -1       634 7.60417E-02 1.60156E-02 0.00000E+00
 -1       635 7.70833E-02 1.64062E-02 0.00000E+00
 -1       636 7.81250E-02 1.67969E-02 0.00000E+00
 -1       637 7.91667E-02 1.71875E-02 0.00000E+00
 -1       638 8.02083E-02 1.75781E-02 0.00000E+00
 -1       639 8.12500E-02 1.79687E-02 0.00000E+00
 -1       640 8.22917E-02 1.83594E-02 0.00000E+00
 -1       656 8.33333E-02 1.35417E-02 0.00000E+00
 -1       657 8.33333E-02 1.45833E-02 0.00000E+00
 -1       658 8.33333E-02 1.56250E-02 0.00000E+00
 -1       659 8.33333E-02 1.66667E-02 0.00000E+00
 -1       660 8.33333E-02 1.77083E-02 0.00000E+00
 -1       661 8.43750E-02 1.28906E-02 0.00000E+00
 -1       662 8.54167E-02 1.32813E-02 0.00000E+00
 -1       663 8.64583E-02 1.36719E-02 0.00000E+00
 -1       664 8.75000E-02 1.40625E-02 0.00000E+00
 -1       665 8.85417E-02 1.44531E-02 0.00000E+00
 -1       666 8.95833E-02 1.48437E-02 0.00000E+00
 -1       667 9.06250E-02 1.52344E-02 0.00000E+00
 -1       668 9.16667E-02 1.56250E-02 0.00000E+00
 -1       669 9.27083E-02 1.60156E-02 0.00000E+00
 -1       670 9.37500E-02 1.64062E-02 0.00000E+00
 -1       671 9.47917E-02 1.67969E-02 0.00000E+00
 -1       672 9.58333E-02 1.71875E-02 0.00000E+00
 -1       673 9.68750E-02 1.75781E-02 0.00000E+00
 -1       674 9.79167E-02 1.79687E-02 0.00000E+00
 -1       675 9.89583E-02 1.83594E-02 0.00000E+00
 -1       676 1.00000E-01 1.35417E-02 0.00000E+00
 -1       677 1.00000E-01 1.45833E-02 0.00000E+00
 -1       678 1.00000E-01 1.56250E-02 0.00000E+00
 -1       679 1.00000E-01 1.66667E-02 0.00000E+00
 -1       680 1.00000E-01 1.77083E-02 0.00000E+00
 -1       771 3.43750E-02 1.91406E-02 0.00000E+00
 -1       772 3.54167E-02 1.95312E-02 0.00000E+00
 -1       773 3.64583E-02 1.99219E-02 0.00000E+00
 -1       774 3.75000E-02 2.03125E-02 0.00000E+00
 -1       775 3.85417E-02 2.07031E-02 0.00000E+00
 -1       776 3.95833E-02 2.10938E-02 0.00000E+00
 -1       777 4.06250E-02 2.14844E-02 0.00000E+00
 -1       778 4.16667E-02 2.18750E-02 0.00000E+00
 -1       779 4.27083E-02 2.22656E-02 0.00000E+00
 -1       780 4.37500E-02 2.26563E-02 0.00000E+00
 -1       781 4.47917E-02 2.30469E-02 0.00000E+00
 -1       782 4.58333E-02 2.34375E-02 0.00000E+00
 -1       783 4.68750E-02 2.38281E-02 0.00000E+00
 -1       784 4.79167E-02 2.42187E-02 0.00000E+00
 -1       785 4.89583E-02 2.46094E-02 0.00000E+00
 -1       786 5.10417E-02 1.87500E-02 0.00000E+00
 -1       787 5.20833E-02 1.87500E-02 0.00000E+00
 -1       788 5.31250E-02 1.87500E-02 0.00000E+00
 -1       789 5.41667E-02 1.87500E-02 0.00000E+00
 -1       790 5.52083E-02 1.87500E-02 0.00000E+00
 -1       791 5.62500E-02 1.87500E-02 0.00000E+00
 -1       792 5.72917E-02 1.87500E-02 0.00000E+00
 -1       793 5.83333E-02 1.87500E-02 0.00000E+00
 -1       794 5.93750E-02 1.87500E-02 0.00000E+00
 -1       795 6.04167E-02 1.87500E-02 0.00000E+00
 -1       796 6.14583E-02 1.87500E-02 0.00000E+00
 -1       797 6.25000E-02 1.87500E-02 0.00000E+00
 -1       798 6.35417E-02 1.87500E-02 0.00000E+00
 -1       799 6.45833E-02 1.87500E-02 0.00000E+00
 -1       800 6.56250E-02 1.87500E-02 0.00000E+00
 -1       801 5.00000E-02 1.97917E-02 0.00000E+00
 -1       802 5.00000E-02 2.08333E-02 0.00000E+00
 -1       803 5.00000E-02 2.18750E-02 0.00000E+00
 -1       804 5.00000E-02 2.29167E-02 0.00000E+00
 -1       805 5.00000E-02 2.39583E-02 0.00000E+00
 -1       806 5.10417E-02 1.91406E-02 0.00000E+00
 -1       807 5.20833E-02 1.95312E-02 0.00000E+00
 -1       808 5.31250E-02 1.99219E-02 0.00000E+00
 -1       809 5.41667E-02 2.03125E-02 0.00000E+00
 -1       810 5.52083E-02 2.07031E-02 0.00000E+00
 -1       811 5.62500E-02 2.10938E-02 0.00000E+00
 -1       812 5.72917E-02 2.14844E-02 0.00000E+00
 -1       813 5.83333E-02 2.18750E-02 0.00000E+00
 -1       814 5.93750E-02 2.22656E-02 0.00000E+00
 -1       815 6.04167E-02 2.26563E-02 0.00000E+00
 -1       816 6.14583E-02 2.30469E-02 0.00000E+00
 -1       817 6.25000E-02 2.34375E-02 0.00000E+00
 -1       818 6.35417E-02 2.38281E-02 0.00000E+00
 -1       819 6.45833E-02 2.42187E-02 0.00000E+00
 -1       820 6.56250E-02 2.46094E-02 0.00000E+00
 -1       821 6.77083E-02 1.87500E-02 0.00000E+00
 -1       822 6.87500E-02 1.87500E-02 0.00000E+00
 -1       823 6.97917E-02 1.87500E-02 0.00000E+00
 -1       824 7.08333E-02 1.87500E-02 0.00000E+00
 -1       825 7.18750E-02 1.87500E-02 0.00000E+00
 -1       826 7.29167E-02 1.87500E-02 0.00000E+00
 -1       827 7.39583E-02 1.87500E-02 0.00000E+00
 -1       828 7.50000E-02 1.87500E-02 0.00000E+00
 -1       829 7.60417E-02 1.87500E-02 0.00000E+00
 -1       830 7.70833E-02 1.87500E-02 0.00000E+00
 -1       831 7.81250E-02 1.87500E-02 0.00000E+00
 -1       832 7.91667E-02 1.87500E-02 0.00000E+00
 -1       833 8.02083E-02 1.87500E-02 0.00000E+00
 -1       834 8.12500E-02 1.87500E-02 0.00000E+00
 -1       835 8.22917E-02 1.87500E-02 0.00000E+00
 -1       836 6.66667E-02 1.97917E-02 0.00000E+00
 -1       837 6.66667E-02 2.08333E-02 0.00000E+00
 -1       838 6.66667E-02 2.18750E-02 0.00000E+00
 -1       839 6.66667E-02 2.29167E-02 0.00000E+00
 -1       840 6.66667E-02 2.39583E-02 0.00000E+00
 -1       856 8.43750E-02 1.87500E-02 0.00000E+00
 -1       857 8.54167E-02 1.87500E-02 0.00000E+00
 -1       858 8.64583E-02 1.87500E-02 0.00000E+00
 -1       859 8.75000E-02 1.87500E-02 0.00000E+00
 -1       860 8.85417E-02 1.87500E-02 0.00000E+00
 -1       861 8.95833E-02 1.87500E-02 0.00000E+00
 -1       862 9.06250E-02 1.87500E-02 0.00000E+00
 -1       863 9.16667E-02 1.87500E-02 0.00000E+00
 -1       864 9.27083E-02 1.87500E-02 0.00000E+00
 -1       865 9.37500E-02 1.87500E-02 0.00000E+00
 -1       866 9.47917E-02 1.87500E-02 0.00000E+00
 -1       867 9.58333E-02 1.87500E-02 0.00000E+00
 -1       868 9.68750E-02 1.87500E-02 0.00000E+00
 -1       869 9.79167E-02 1.87500E-02 0.00000E+00
 -1       870 9.89583E-02 1.87500E-02 0.00000E+00
 -1       871 8.33333E-02 1.97917E-02 0.00000E+00
 -1       872 8.33333E-02 2.08333E-02 0.00000E+00
 -1       873 8.33333E-02 2.18750E-02 0.00000E+00
 -1       874 8.33333E-02 2.29167E-02 0.00000E+00
 -1       875 8.33333E-02 2.39583E-02 0.00000E+00
 -1       876 8.43750E-02 1.91406E-02 0.00000E+00
 -1       877 8.54167E-02 1.95312E-02 0.00000E+00
 -1       878 8.64583E-02 1.99219E-02 0.00000E+00
 -1       879 8.75000E-02 2.03125E-02 0.00000E+00
 -1       880 8.85417E-02 2.07031E-02 0.00000E+00
 -1       881 8.95833E-02 2.10938E-02 0.00000E+00
 -1       882 9.06250E-02 2.14844E-02 0.00000E+00
 -1       883 9.16667E-02 2.18750E-02 0.00000E+00
 -1       884 9.27083E-02 2.22656E-02 0.00000E+00
 -1       885 9.37500E-02 2.26563E-02 0.00000E+00
 -1       886 9.47917E-02 2.30469E-02 0.00000E+00
 -1       887 9.58333E-02 2.34375E-02 0.00000E+00
 -1       888 9.68750E-02 2.38281E-02 0.00000E+00
 -1       889 9.79167E-02 2.42187E-02 0.00000E+00
 -1       890 9.89583E-02 2.46094E-02 0.00000E+00
 -1       891 1.00000E-01 1.97917E-02 0.00000E+00
 -1       892 1.00000E-01 2.08333E-02 0.00000E+00
 -1       893 1.00000E-01 2.18750E-02 0.00000E+00
 -1       894 1.00000E-01 2.29167E-02 0.00000E+00
 -1       895 1.00000E-01 2.39583E-02 0.00000E+00
 -1       956 6.77083E-02 2.50000E-02 0.00000E+00
 -1       957 6.87500E-02 2.50000E-02 0.00000E+00
 -1       958 6.97917E-02 2.50000E-02 0.00000E+00
 -1       959 7.08333E-02 2.50000E-02 0.00000E+00
 -1       960 7.18750E-02 2.50000E-02 0.00000E+00
 -1       961 7.29167E-02 2.50000E-02 0.00000E+00
 -1       962 7.39583E-02 2.50000E-02 0.00000E+00
 -1       963 7.50000E-02 2.50000E-02 0.00000E+00
 -1       964 7.60417E-02 2.50000E-02 0.00000E+00
 -1       965 7.70833E-02 2.50000E-02 0.00000E+00
 -1       966 7.81250E-02 2.50000E-02 0.00000E+00
 -1       967 7.91667E-02 2.50000E-02 0.00000E+00
 -1       968 8.02083E-02 2.50000E-02 0.00000E+00
 -1       969 8.12500E-02 2.50000E-02 0.00000E+00
 -1       970 8.22917E-02 2.50000E-02 0.00000E+00
 -1       971 8.43750E-02 2.50000E-02 0.00000E+00
 -1       972 8.54167E-02 2.50000E-02 0.00000E+00
 -1       973 8.64583E-02 2.50000E-02 0.00000E+00
 -1       974 8.75000E-02 2.50000E-02 0.00000E+00
 -1       975 8.85417E-02 2.50000E-02 0.00000E+00
 -1       976 8.95833E-02 2.50000E-02 0.00000E+00
 -1       977 9.06250E-02 2.50000E-02 0.00000E+00
 -1       978 9.16667E-02 2.50000E-02 0.00000E+00
 -1       979 9.27083E-02 2.50000E-02 0.00000E+00
 -1       980 9.37500E-02 2.50000E-02 0.00000E+00
 -1       981 9.47917E-02 2.50000E-02 0.00000E+00
 -1       982 9.58333E-02 2.50000E-02 0.00000E+00
 -1       983 9.68750E-02 2.50000E-02 0.00000E+00
 -1       984 9.79167E-02 2.50000E-02 0.00000E+00
 -1       985 9.89583E-02 2.50000E-02 0.00000E+00
 -3
    3C                           211                                     1
 -1         1   12    0    1
 -2         1        52        51
 -1         2   12    0    1
 -2        52        54        53
 -1         3   12    0    1
 -2        54         8        55
 -1         4   12    0    1
 -2         1        57        56
 -1         5   12    0    1
 -2        57        59        58
 -1         6   12    0    1
 -2        59        61        60
 -1         7   12    0    1
 -2        61        63        62
 -1         8   12    0    1
 -2        63        65        64
 -1         9   12    0    1
 -2        65        67        66
 -1        10   12    0    1
 -2        67        69        68
 -1        11   12    0    1
 -2        69         9        70
 -1        12   12    0    1
 -2         2        87        86
 -1        13   12    0    1
 -2        87        89        88
 -1        14   12    0    1
 -2        89         9        90
 -1        15   12    0    1
 -2         3       122       121
 -1        16   12    0    1
 -2       122       124       123
 -1        17   12    0    1
 -2       124        10       125
 -1        18   12    0    1
 -2         5       192       191
 -1        19   12    0    1
 -2       192       194       193
 -1        20   12    0    1
 -2       194        12       195
 -1        21   12    0    1
 -2         8       252       251
 -1        22   12    0    1
 -2       252       254       253
 -1        23   12    0    1
 -2       254       256       255
 -1        24   12    0    1
 -2       256       258       257
 -1        25   12    0    1
 -2       258       260       259
 -1        26   12    0    1
 -2       260       262       261
 -1        27   12    0    1
 -2       262       264       263
 -1        28   12    0    1
 -2       264         9       265
 -1        29   12    0    1
 -2         8       267       266
 -1        30   12    0    1
 -2       267       269       268
 -1        31   12    0    1
 -2       269        15       270
 -1        32   12    0    1
 -2         8       272       271
 -1        33   12    0    1
 -2       272       274       273
 -1        34   12    0    1
 -2       274       276       275
 -1        35   12    0    1
 -2       276       278       277
 -1        36   12    0    1
 -2       278       280       279
 -1        37   12    0    1
 -2       280       282       281
 -1        38   12    0    1
 -2       282       284       283
 -1        39   12    0    1
 -2       284        16       285
 -1        40   12    0    1
 -2         9       302       301
 -1        41   12    0    1
 -2       302       304       303
 -1        42   12    0    1
 -2       304        16       305
 -1        43   12    0    1
 -2         9       307       306
 -1        44   12    0    1
 -2       307       309       308
 -1        45   12    0    1
 -2       309       311       310
 -1        46   12    0    1
 -2       311       313       312
 -1        47   12    0    1
 -2       313       315       314
 -1        48   12    0    1
 -2       315       317       316
 -1        49   12    0    1
 -2       317       319       318
 -1        50   12    0    1
 -2       319        17       320
 -1        51   12    0    1
 -2        10       337       336
 -1        52   12    0    1
 -2       337       339       338
 -1        53   12    0    1
 -2       339        17       340
 -1        54   12    0    1
 -2        12       407       406
 -1        55   12    0    1
 -2       407       409       408
 -1        56   12    0    1
 -2       409        19       410
 -1        57   12    0    1
 -2        16       522       521
 -1        58   12    0    1
 -2       522       524       523
 -1        59   12    0    1
 -2       524       526       525
 -1        60   12    0    1
 -2       526       528       527
 -1        61   12    0    1
 -2       528       530       529
 -1        62   12    0    1
 -2       530       532       531
 -1        63   12    0    1
 -2       532       534       533
 -1        64   12    0    1
 -2       534        24       535
 -1        65   12    0    1
 -2        17       537       536
 -1        66   12    0    1
 -2       537       539       538
 -1        67   12    0    1
 -2       539       541       540
 -1        68   12    0    1
 -2       541       543       542
 -1        69   12    0    1
 -2       543       545       544
 -1        70   12    0    1
 -2       545       547       546
 -1        71   12    0    1
 -2       547       549       548
 -1        72   12    0    1
 -2       549        18       550
 -1        73   12    0    1
 -2        17       552       551
 -1        74   12    0    1
 -2       552       554       553
 -1        75   12    0    1
 -2       554        24       555
 -1        76   12    0    1
 -2        17       557       556
 -1        77   12    0    1
 -2       557       559       558
 -1        78   12    0    1
 -2       559       561       560
 -1        79   12    0    1
 -2       561       563       562
 -1        80   12    0    1
 -2       563       565       564
 -1        81   12    0    1
 -2       565       567       566
 -1        82   12    0    1
 -2       567       569       568
 -1        83   12    0    1
 -2       569        25       570
 -1        84   12    0    1
 -2        18       572       571
 -1        85   12    0    1
 -2       572       574       573
 -1        86   12    0    1
 -2       574       576       575
 -1        87   12    0    1
 -2       576       578       577
 -1        88   12    0    1
 -2       578       580       579
 -1        89   12    0    1
 -2       580       582       581
 -1        90   12    0    1
 -2       582       584       583
 -1        91   12    0    1
 -2       584        19       585
 -1        92   12    0    1
 -2        18       587       586
 -1        93   12    0    1
 -2       587       589       588
 -1        94   12    0    1
 -2       589        25       590
 -1        95   12    0    1
 -2        18       592       591
 -1        96   12    0    1
 -2       592       594       593
 -1        97   12    0    1
 -2       594       596       595
 -1        98   12    0    1
 -2       596       598       597
 -1        99   12    0    1
 -2       598       600       599
 -1       100   12    0    1
 -2       600       602       601
 -1       101   12    0    1
 -2       602       604       603
 -1       102   12    0    1
 -2       604        26       605
 -1       103   12    0    1
 -2        19       607       606
 -1       104   12    0    1
 -2       607       609       608
 -1       105   12    0    1
 -2       609       611       610
 -1       106   12    0    1
 -2       611       613       612
 -1       107   12    0    1
 -2       613       615       614
 -1       108   12    0    1
 -2       615       617       616
 -1       109   12    0    1
 -2       617       619       618
 -1       110   12    0    1
 -2       619        20       620
 -1       111   12    0    1
 -2        19       622       621
 -1       112   12    0    1
 -2       622       624       623
 -1       113   12    0    1
 -2       624        26       625
 -1       114   12    0    1
 -2        19       627       626
 -1       115   12    0    1
 -2       627       629       628
 -1       116   12    0    1
 -2       629       631       630
 -1       117   12    0    1
 -2       631       633       632
 -1       118   12    0    1
 -2       633       635       634
 -1       119   12    0    1
 -2       635       637       636
 -1       120   12    0    1
 -2       637       639       638
 -1       121   12    0    1
 -2       639        27       640
 -1       122   12    0    1
 -2        20       657       656
 -1       123   12    0    1
 -2       657       659       658
 -1       124   12    0    1
 -2       659        27       660
 -1       125   12    0    1
 -2        20       662       661
 -1       126   12    0    1
 -2       662       664       663
 -1       127   12    0    1
 -2       664       666       665
 -1       128   12    0    1
 -2       666       668       667
 -1       129   12    0    1
 -2       668       670       669
 -1       130   12    0    1
 -2       670       672       671
 -1       131   12    0    1
 -2       672       674       673
 -1       132   12    0    1
 -2       674        28       675
 -1       133   12    0    1
 -2        21       677       676
 -1       134   12    0    1
 -2       677       679       678
 -1       135   12    0    1
 -2       679        28       680
 -1       136   12    0    1
 -2        24       772       771
 -1       137   12    0    1
 -2       772       774       773
 -1       138   12    0    1
 -2       774       776       775
 -1       139   12    0    1
 -2       776       778       777
 -1       140   12    0    1
 -2       778       780       779
 -1       141   12    0    1
 -2       780       782       781
 -1       142   12    0    1
 -2       782       784       783
 -1       143   12    0    1
 -2       784        32       785
 -1       144   12    0    1
 -2        25       787       786
 -1       145   12    0    1
 -2       787       789       788
 -1       146   12    0    1
 -2       789       791       790
 -1       147   12    0    1
 -2       791       793       792
 -1       148   12    0    1
 -2       793       795       794
 -1       149   12    0    1
 -2       795       797       796
 -1       150   12    0    1
 -2       797       799       798
 -1       151   12    0    1
 -2       799        26       800
 -1       152   12    0    1
 -2        25       802       801
 -1       153   12    0    1
 -2       802       804       803
 -1       154   12    0    1
 -2       804        32       805
 -1       155   12    0    1
 -2        25       807       806
 -1       156   12    0    1
 -2       807       809       808
 -1       157   12    0    1
 -2       809       811       810
 -1       158   12    0    1
 -2       811       813       812
 -1       159   12    0    1
 -2       813       815       814
 -1       160   12    0    1
 -2       815       817       816
 -1       161   12    0    1
 -2       817       819       818
 -1       162   12    0    1
 -2       819        33       820
 -1       163   12    0    1
 -2        26       822       821
 -1       164   12    0    1
 -2       822       824       823
 -1       165   12    0    1
 -2       824       826       825
 -1       166   12    0    1
 -2       826       828       827
 -1       167   12    0    1
 -2       828       830       829
 -1       168   12    0    1
 -2       830       832       831
 -1       169   12    0    1
 -2       832       834       833
 -1       170   12    0    1
 -2       834        27       835
 -1       171   12    0    1
 -2        26       837       836
 -1       172   12    0    1
 -2       837       839       838
 -1       173   12    0    1
 -2       839        33       840
 -1       174   12    0    1
 -2        27       857       856
 -1       175   12    0    1
 -2       857       859       858
 -1       176   12    0    1
 -2       859       861       860
 -1       177   12    0    1
 -2       861       863       862
 -1       178   12    0    1
 -2       863       865       864
 -1       179   12    0    1
 -2       865       867       866
 -1       180   12    0    1
 -2       867       869       868
 -1       181   12    0    1
 -2       869        28       870
 -1       182   12    0    1
 -2        27       872       871
 -1       183   12    0    1
 -2       872       874       873
 -1       184   12    0    1
 -2       874        34       875
 -1       185   12    0    1
 -2        27       877       876
 -1       186   12    0    1
 -2       877       879       878
 -1       187   12    0    1
 -2       879       881       880
 -1       188   12    0    1
 -2       881       883       882
 -1       189   12    0    1
 -2       883       885       884
 -1       190   12    0    1
 -2       885       887       886
 -1       191   12    0    1
 -2       887       889       888
 -1       192   12    0    1
 -2       889        35       890
 -1       193   12    0    1
 -2        28       892       891
 -1       194   12    0    1
 -2       892       894       893
 -1       195   12    0    1
 -2       894        35       895
 -1       196   12    0    1
 -2        33       957       956
 -1       197   12    0    1
 -2       957       959       958
 -1       198   12    0    1
 -2       959       961       960
 -1       199   12    0    1
 -2       961       963       962
 -1       200   12    0    1
 -2       963       965       964
 -1       201   12    0    1
 -2       965       967       966
 -1       202   12    0    1
 -2       967       969       968
 -1       203   12    0    1
 -2       969        34       970
 -1       204   12    0    1
 -2        34       972       971
 -1       205   12    0    1
 -2       972       974       973
 -1       206   12    0    1
 -2       974       976       975
 -1       207   12    0    1
 -2       976       978       977
 -1       208   12    0    1
 -2       978       980       979
 -1       209   12    0    1
 -2       980       982       981
 -1       210   12    0    1
 -2       982       984       983
 -1       211   12    0    1
 -2       984        35       985
 -3
    1PSTEP                         1           1           1          
  100CL  101 1.000000000         409                     0    1           1
 -4  DISP        4    1
 -5  D1          1    2    1    0
 -5  D2          1    2    2    0
 -5  D3          1    2    3    0
 -5  ALL         1    2    0    0    1ALL
 -1         1 2.74447E-04 0.00000E+00 0.00000E+00
 -1         2 2.51562E-04 1.79364E-28 0.00000E+00
 -1         3 2.39814E-04-2.48685E-26 1.32349E-23
 -1         5 1.66582E-04 4.40156E-25-6.61744E-24
 -1         8 2.21859E-04-2.04529E-06 0.00000E+00
 -1         9 2.24069E-04 7.53325E-07 0.00000E+00
 -1        10 2.21106E-04-3.14964E-06 6.61744E-24
 -1        12 1.65630E-04 1.09907E-06 0.00000E+00
 -1        15 1.59142E-04-2.41119E-06 0.00000E+00
 -1        16 1.64788E-04 2.79396E-07 0.00000E+00
 -1        17 1.62827E-04-6.78994E-06 0.00000E+00
 -1        18 1.60652E-04 2.82032E-06 0.00000E+00
 -1        19 1.62772E-04 2.19179E-06 0.00000E+00
 -1        20 1.63040E-04 3.01641E-05 0.00000E+00
 -1        21 1.62012E-04 5.66272E-05 0.00000E+00
 -1        24 4.03553E-05-9.83534E-06 0.00000E+00
 -1        25 1.57863E-04 3.07755E-06 0.00000E+00
 -1        26 1.59881E-04 3.05227E-06 0.00000E+00
 -1        27 1.56832E-04 2.52924E-05 0.00000E+00
 -1        28 1.55860E-04 5.56938E-05 0.00000E+00
 -1        32 0.00000E+00 0.00000E+00 0.00000E+00
 -1        33 1.54386E-04 4.08824E-06 0.00000E+00
 -1        34 1.51455E-04 2.52462E-05 0.00000E+00
 -1        35 1.48664E-04 5.51993E-05 0.00000E+00
 -1        51 2.71035E-04-3.23979E-07 0.00000E+00
 -1        52 2.64703E-04-6.43468E-07 0.00000E+00
 -1        53 2.56022E-04-9.72098E-07 0.00000E+00
 -1        54 2.45589E-04-1.31344E-06 6.61744E-24
 -1        55 2.34002E-04-1.66760E-06 6.52697E-24
 -1        56 2.72303E-04-2.29734E-06 0.00000E+00
 -1        57 2.70979E-04-7.07814E-06-2.64698E-23
 -1        58 2.70349E-04-1.37192E-05 0.00000E+00
 -1        59 2.70129E-04-2.15196E-05 5.29396E-23
 -1        60 2.70017E-04-2.96171E-05 0.00000E+00
 -1        61 2.69690E-04-3.71371E-05-5.29396E-23
 -1        62 2.68853E-04-4.32781E-05 1.05879E-22
 -1        63 2.67242E-04-4.73281E-05 0.00000E+00
 -1        64 2.64684E-04-4.88437E-05 1.05879E-22
 -1        65 2.61068E-04-4.75434E-05 0.00000E+00
 -1        66 2.56415E-04-4.35063E-05-1.05879E-22
 -1        67 2.50816E-04-3.69843E-05 0.00000E+00
 -1        68 2.44481E-04-2.85471E-05-1.05879E-22
 -1        69 2.37688E-04-1.88796E-05 0.00000E+00
 -1        70 2.30743E-04-8.83415E-06 5.29396E-23
 -1        86 2.50881E-04 1.49395E-07 0.00000E+00
 -1        87 2.48833E-04 2.95886E-07 1.65436E-24
 -1        88 2.45304E-04 4.38212E-07-8.27181E-25
 -1        89 2.40170E-04 5.66861E-07 0.00000E+00
 -1        90 2.33179E-04 6.86982E-07-6.61744E-24
 -1       121 2.39289E-04-5.18711E-07 1.32349E-23
 -1       122 2.37716E-04-1.03849E-06 0.00000E+00
 -1       123 2.35100E-04-1.56038E-06 0.00000E+00
 -1       124 2.31451E-04-2.08549E-06 0.00000E+00
 -1       125 2.26780E-04-2.61466E-06 0.00000E+00
 -1       191 1.66555E-04 1.83201E-07-6.61744E-24
 -1       192 1.66476E-04 3.66397E-07 0.00000E+00
 -1       193 1.66344E-04 5.49588E-07-6.61744E-24
 -1       194 1.66159E-04 7.32768E-07-3.30872E-24
 -1       195 1.65921E-04 9.15932E-07 0.00000E+00
 -1       251 2.21936E-04 6.53793E-06 6.61744E-24
 -1       252 2.22073E-04 1.14600E-05 0.00000E+00
 -1       253 2.22217E-04 1.34452E-05 0.00000E+00
 -1       254 2.22370E-04 1.31978E-05 0.00000E+00
 -1       255 2.22521E-04 1.12392E-05 0.00000E+00
 -1       256 2.22671E-04 8.07948E-06 0.00000E+00
 -1       257 2.22819E-04 4.12944E-06 0.00000E+00
 -1       258 2.22965E-04-2.05295E-07 0.00000E+00
 -1       259 2.23111E-04-4.55114E-06 0.00000E+00
 -1       260 2.23258E-04-8.53446E-06 0.00000E+00
 -1       261 2.23407E-04-1.17515E-05-3.30872E-24
 -1       262 2.23558E-04-1.37938E-05 0.00000E+00
 -1       263 2.23711E-04-1.41553E-05 1.65436E-24
 -1       264 2.23855E-04-1.23191E-05 8.27181E-25
 -1       265 2.23992E-04-7.58842E-06 0.00000E+00
 -1       266 2.11406E-04-2.13186E-06-1.32349E-23
 -1       267 2.00953E-04-2.18972E-06 0.00000E+00
 -1       268 1.90501E-04-2.24941E-06 0.00000E+00
 -1       269 1.80048E-04-2.30370E-06 0.00000E+00
 -1       270 1.69595E-04-2.35788E-06 0.00000E+00
 -1       271 2.15427E-04 5.94646E-06 0.00000E+00
 -1       272 2.09885E-04 1.13209E-05 0.00000E+00
 -1       273 2.05286E-04 1.42328E-05 1.05879E-22
 -1       274 2.01522E-04 1.48874E-05 0.00000E+00
 -1       275 1.98490E-04 1.35948E-05 0.00000E+00
 -1       276 1.96040E-04 1.07349E-05 0.00000E+00
 -1       277 1.94008E-04 6.75386E-06 0.00000E+00
 -1       278 1.92211E-04 2.14061E-06 5.29396E-23
 -1       279 1.90456E-04-2.58947E-06-1.05879E-22
 -1       280 1.88553E-04-6.91639E-06-5.29396E-23
 -1       281 1.86312E-04-1.03372E-05 0.00000E+00
 -1       282 1.83560E-04-1.23839E-05 0.00000E+00
 -1       283 1.80140E-04-1.26460E-05-1.05879E-22
 -1       284 1.75928E-04-1.07785E-05 5.29396E-23
 -1       285 1.70810E-04-6.53218E-06 5.29396E-23
 -1       301 2.13870E-04 6.58263E-07 0.00000E+00
 -1       302 2.03751E-04 5.96192E-07 3.30872E-24
 -1       303 1.93747E-04 5.36116E-07-1.32349E-23
 -1       304 1.83895E-04 4.73885E-07 0.00000E+00
 -1       305 1.74230E-04 4.08180E-07 2.64698E-23
 -1       306 2.16348E-04 1.09559E-05 0.00000E+00
 -1       307 2.07832E-04 2.28781E-05-5.29396E-23
 -1       308 1.99806E-04 3.35579E-05 0.00000E+00
 -1       309 1.93356E-04 4.00980E-05 0.00000E+00
 -1       310 1.89089E-04 4.08897E-05 0.00000E+00
 -1       311 1.87354E-04 3.48949E-05 5.29396E-23
 -1       312 1.87719E-04 2.31784E-05 0.00000E+00
 -1       313 1.89554E-04 7.39309E-06 0.00000E+00
 -1       314 1.91801E-04-9.53711E-06 0.00000E+00
 -1       315 1.93367E-04-2.45687E-05-5.29396E-23
 -1       316 1.93355E-04-3.52537E-05 0.00000E+00
 -1       317 1.91011E-04-3.95931E-05 0.00000E+00
 -1       318 1.86278E-04-3.75608E-05 0.00000E+00
 -1       319 1.79372E-04-2.97691E-05 5.29396E-23
 -1       320 1.71160E-04-1.86210E-05 5.29396E-23
 -1       336 2.14316E-04-3.73233E-06 0.00000E+00
 -1       337 2.06305E-04-4.32445E-06 0.00000E+00
 -1       338 1.97108E-04-4.92620E-06 0.00000E+00
 -1       339 1.86764E-04-5.53786E-06-6.61744E-24
 -1       340 1.75320E-04-6.16109E-06 0.00000E+00
 -1       406 1.65286E-04 1.28217E-06 0.00000E+00
 -1       407 1.64889E-04 1.46519E-06 3.30872E-24
 -1       408 1.64439E-04 1.64808E-06 0.00000E+00
 -1       409 1.63936E-04 1.83061E-06 0.00000E+00
 -1       410 1.63380E-04 2.01241E-06 0.00000E+00
 -1       521 1.56872E-04 8.90003E-07 0.00000E+00
 -1       522 1.53002E-04-1.00629E-05-1.05879E-22
 -1       523 1.51046E-04-2.62167E-05 2.11758E-22
 -1       524 1.48266E-04-4.02175E-05 0.00000E+00
 -1       525 1.42441E-04-4.59545E-05-2.11758E-22
 -1       526 1.31813E-04-3.90288E-05 0.00000E+00
 -1       527 1.17368E-04-2.23172E-05 0.00000E+00
 -1       528 1.00936E-04-6.29360E-07 0.00000E+00
 -1       529 8.55650E-05 1.83955E-05-2.11758E-22
 -1       530 7.40458E-05 2.76343E-05 0.00000E+00
 -1       531 6.68521E-05 2.55445E-05 0.00000E+00
 -1       532 6.35875E-05 1.28562E-05 1.05879E-22
 -1       533 6.16871E-05-3.57918E-06 0.00000E+00
 -1       534 5.84207E-05-1.61212E-05 0.00000E+00
 -1       535 5.17058E-05-1.93941E-05 0.00000E+00
 -1       536 1.62632E-04 6.63846E-06 0.00000E+00
 -1       537 1.62438E-04 2.09099E-05 3.30872E-24
 -1       538 1.62248E-04 3.47508E-05 0.00000E+00
 -1       539 1.62083E-04 4.68905E-05 1.65436E-24
 -1       540 1.61944E-04 5.63871E-05 0.00000E+00
 -1       541 1.61833E-04 6.23099E-05-1.65436E-24
 -1       542 1.61736E-04 6.44205E-05 0.00000E+00
 -1       543 1.61640E-04 6.24967E-05-1.65436E-24
 -1       544 1.61531E-04 5.70971E-05-3.30872E-24
 -1       545 1.61404E-04 4.87945E-05 0.00000E+00
 -1       546 1.61262E-04 3.87253E-05 3.30872E-24
 -1       547 1.61113E-04 2.80333E-05-1.65436E-24
 -1       548 1.60971E-04 1.79831E-05 0.00000E+00
 -1       549 1.60847E-04 9.83714E-06-8.27181E-25
 -1       550 1.60740E-04 4.48908E-06-4.13590E-25
 -1       551 1.46520E-04-7.21994E-06 0.00000E+00
 -1       552 1.27089E-04-7.69324E-06 0.00000E+00
 -1       553 1.05638E-04-8.20331E-06-1.32349E-23
 -1       554 8.32861E-05-8.73617E-06-1.32349E-23
 -1       555 6.11544E-05-9.27052E-06 0.00000E+00
 -1       556 1.58464E-04 4.40524E-06 0.00000E+00
 -1       557 1.55114E-04 1.30293E-05 0.00000E+00
 -1       558 1.52663E-04 1.93141E-05 0.00000E+00
 -1       559 1.51010E-04 2.35105E-05 0.00000E+00
 -1       560 1.50055E-04 2.58693E-05-2.64698E-23
 -1       561 1.49699E-04 2.66431E-05-1.32349E-23
 -1       562 1.49843E-04 2.60851E-05 0.00000E+00
 -1       563 1.50390E-04 2.44490E-05-6.61744E-24
 -1       564 1.51246E-04 2.19889E-05 0.00000E+00
 -1       565 1.52313E-04 1.89594E-05-6.61744E-24
 -1       566 1.53498E-04 1.56150E-05 0.00000E+00
 -1       567 1.54705E-04 1.22105E-05-8.27181E-25
 -1       568 1.55840E-04 9.00064E-06 0.00000E+00
 -1       569 1.56808E-04 6.23988E-06 0.00000E+00
 -1       570 1.57513E-04 4.18261E-06 0.00000E+00
 -1       571 1.60780E-04 2.86265E-06 0.00000E+00
 -1       572 1.60912E-04 2.81574E-06-1.65436E-24
 -1       573 1.61044E-04 2.69558E-06 0.00000E+00
 -1       574 1.61177E-04 2.51903E-06 0.00000E+00
 -1       575 1.61310E-04 2.30300E-06-3.30872E-24
 -1       576 1.61443E-04 2.06453E-06 1.65436E-24
 -1       577 1.61576E-04 1.82064E-06 0.00000E+00
 -1       578 1.61709E-04 1.58840E-06 3.30872E-24
 -1       579 1.61842E-04 1.38485E-06 0.00000E+00
 -1       580 1.61975E-04 1.22705E-06 6.61744E-24
 -1       581 1.62108E-04 1.13206E-06 0.00000E+00
 -1       582 1.62241E-04 1.11690E-06 0.00000E+00
 -1       583 1.62374E-04 1.19861E-06-6.61744E-24
 -1       584 1.62506E-04 1.39404E-06-6.61744E-24
 -1       585 1.62639E-04 1.71995E-06 0.00000E+00
 -1       586 1.60143E-04 2.86576E-06 0.00000E+00
 -1       587 1.59577E-04 2.91013E-06-8.27181E-25
 -1       588 1.59010E-04 2.95403E-06 0.00000E+00
 -1       589 1.58497E-04 2.99725E-06 0.00000E+00
 -1       590 1.58097E-04 3.03932E-06 0.00000E+00
 -1       591 1.60572E-04 2.93305E-06 1.03398E-25
 -1       592 1.60514E-04 2.97344E-06 0.00000E+00
 -1       593 1.60478E-04 2.95524E-06 0.00000E+00
 -1       594 1.60458E-04 2.89082E-06 0.00000E+00
 -1       595 1.60451E-04 2.79274E-06-1.65436E-24
 -1       596 1.60452E-04 2.67344E-06 0.00000E+00
 -1       597 1.60456E-04 2.54538E-06 0.00000E+00
 -1       598 1.60459E-04 2.42098E-06-4.13590E-25
 -1       599 1.60456E-04 2.31269E-06 8.27181E-25
 -1       600 1.60442E-04 2.23295E-06 4.13590E-25
 -1       601 1.60412E-04 2.19419E-06 0.00000E+00
 -1       602 1.60363E-04 2.20885E-06 2.06795E-25
 -1       603 1.60289E-04 2.28937E-06 2.06795E-25
 -1       604 1.60187E-04 2.44830E-06 0.00000E+00
 -1       605 1.60050E-04 2.69799E-06 0.00000E+00
 -1       606 1.62796E-04 2.96837E-06 0.00000E+00
 -1       607 1.62815E-04 3.93157E-06 0.00000E+00
 -1       608 1.62833E-04 5.07044E-06 0.00000E+00
 -1       609 1.62851E-04 6.37262E-06-3.30872E-24
 -1       610 1.62868E-04 7.82570E-06-6.61744E-24
 -1       611 1.62884E-04 9.41709E-06-3.30872E-24
 -1       612 1.62901E-04 1.11342E-05 0.00000E+00
 -1       613 1.62917E-04 1.29644E-05 0.00000E+00
 -1       614 1.62933E-04 1.48951E-05 0.00000E+00
 -1       615 1.62949E-04 1.69136E-05 0.00000E+00
 -1       616 1.62964E-04 1.90074E-05 0.00000E+00
 -1       617 1.62980E-04 2.11639E-05 0.00000E+00
 -1       618 1.62995E-04 2.33704E-05 0.00000E+00
 -1       619 1.63011E-04 2.56144E-05 0.00000E+00
 -1       620 1.63026E-04 2.78832E-05 0.00000E+00
 -1       621 1.62185E-04 2.33527E-06-3.30872E-24
 -1       622 1.61657E-04 2.47947E-06-1.65436E-24
 -1       623 1.61176E-04 2.62367E-06-3.30872E-24
 -1       624 1.60728E-04 2.76765E-06 0.00000E+00
 -1       625 1.60300E-04 2.91138E-06 0.00000E+00
 -1       626 1.62633E-04 3.01353E-06 0.00000E+00
 -1       627 1.62438E-04 3.98925E-06 0.00000E+00
 -1       628 1.62191E-04 5.10454E-06 6.61744E-24
 -1       629 1.61897E-04 6.34405E-06 0.00000E+00
 -1       630 1.61562E-04 7.69243E-06 0.00000E+00
 -1       631 1.61193E-04 9.13423E-06 0.00000E+00
 -1       632 1.60793E-04 1.06540E-05 0.00000E+00
 -1       633 1.60371E-04 1.22362E-05 3.30872E-24
 -1       634 1.59930E-04 1.38656E-05 6.61744E-24
 -1       635 1.59478E-04 1.55266E-05 0.00000E+00
 -1       636 1.59019E-04 1.72038E-05 0.00000E+00
 -1       637 1.58560E-04 1.88818E-05 0.00000E+00
 -1       638 1.58107E-04 2.05451E-05 0.00000E+00
 -1       639 1.57664E-04 2.21783E-05 0.00000E+00
 -1       640 1.57238E-04 2.37660E-05-3.30872E-24
 -1       656 1.61154E-04 2.93709E-05 0.00000E+00
 -1       657 1.59958E-04 2.85465E-05-6.61744E-24
 -1       658 1.59212E-04 2.77249E-05 0.00000E+00
 -1       659 1.58662E-04 2.69041E-05 0.00000E+00
 -1       660 1.57977E-04 2.60807E-05 0.00000E+00
 -1       661 1.62347E-04 3.23935E-05 0.00000E+00
 -1       662 1.61700E-04 3.45170E-05 0.00000E+00
 -1       663 1.61091E-04 3.65388E-05 3.30872E-24
 -1       664 1.60519E-04 3.84653E-05 0.00000E+00
 -1       665 1.59981E-04 4.03016E-05 0.00000E+00
 -1       666 1.59475E-04 4.20526E-05 0.00000E+00
 -1       667 1.59000E-04 4.37228E-05 0.00000E+00
 -1       668 1.58554E-04 4.53166E-05 0.00000E+00
 -1       669 1.58135E-04 4.68375E-05-3.30872E-24
 -1       670 1.57742E-04 4.82893E-05 0.00000E+00
 -1       671 1.57374E-04 4.96748E-05 0.00000E+00
 -1       672 1.57029E-04 5.09970E-05 0.00000E+00
 -1       673 1.56708E-04 5.22583E-05 0.00000E+00
 -1       674 1.56406E-04 5.34605E-05 1.65436E-24
 -1       675 1.56127E-04 5.46062E-05 8.27181E-25
 -1       676 1.60982E-04 5.64707E-05-3.30872E-24
 -1       677 1.59952E-04 5.63142E-05 1.65436E-24
 -1       678 1.58924E-04 5.61579E-05-3.30872E-24
 -1       679 1.57898E-04 5.60021E-05-1.65436E-24
 -1       680 1.56877E-04 5.58462E-05 0.00000E+00
 -1       771 3.19560E-05 6.18446E-06 0.00000E+00
 -1       772 2.46265E-05 1.94205E-05 0.00000E+00
 -1       773 1.83328E-05 2.99905E-05 0.00000E+00
 -1       774 1.30141E-05 3.80309E-05 0.00000E+00
 -1       775 8.60941E-06 4.36868E-05-1.05879E-22
 -1       776 5.05257E-06 4.71170E-05 0.00000E+00
 -1       777 2.27537E-06 4.84884E-05-5.29396E-23
 -1       778 2.06142E-07 4.79796E-05 2.64698E-23
 -1       779-1.22807E-06 4.57760E-05 0.00000E+00
 -1       780-2.10313E-06 4.20727E-05 0.00000E+00
 -1       781-2.49564E-06 3.70704E-05 0.00000E+00
 -1       782-2.48438E-06 3.09771E-05-2.64698E-23
 -1       783-2.14862E-06 2.40050E-05 0.00000E+00
 -1       784-1.56894E-06 1.63711E-05-2.64698E-23
 -1       785-8.26363E-07 8.29513E-06 0.00000E+00
 -1       786 1.57982E-04 2.93659E-06 1.65436E-24
 -1       787 1.58108E-04 2.81755E-06-1.65436E-24
 -1       788 1.58233E-04 2.71498E-06 0.00000E+00
 -1       789 1.58360E-04 2.62355E-06 0.00000E+00
 -1       790 1.58487E-04 2.54135E-06 0.00000E+00
 -1       791 1.58614E-04 2.46653E-06-1.65436E-24
 -1       792 1.58741E-04 2.39950E-06 0.00000E+00
 -1       793 1.58868E-04 2.34073E-06-1.65436E-24
 -1       794 1.58995E-04 2.29324E-06-3.30872E-24
 -1       795 1.59122E-04 2.26012E-06 1.65436E-24
 -1       796 1.59249E-04 2.24888E-06 0.00000E+00
 -1       797 1.59376E-04 2.26716E-06 0.00000E+00
 -1       798 1.59503E-04 2.33174E-06 0.00000E+00
 -1       799 1.59629E-04 2.45963E-06 0.00000E+00
 -1       800 1.59756E-04 2.68743E-06 0.00000E+00
 -1       801 1.47202E-04 2.95367E-06 3.30872E-24
 -1       802 1.15184E-04 2.39080E-06 0.00000E+00
 -1       803 7.31888E-05 1.49249E-06 6.61744E-24
 -1       804 3.26217E-05 6.36609E-07-6.61744E-24
 -1       805 4.53972E-06 1.72862E-07 0.00000E+00
 -1       806 1.57765E-04 2.84171E-06-3.30872E-24
 -1       807 1.57662E-04 2.60556E-06 1.65436E-24
 -1       808 1.57553E-04 2.37901E-06-3.30872E-24
 -1       809 1.57437E-04 2.17049E-06 0.00000E+00
 -1       810 1.57310E-04 1.98840E-06 3.30872E-24
 -1       811 1.57171E-04 1.84103E-06 3.30872E-24
 -1       812 1.57016E-04 1.73665E-06-3.30872E-24
 -1       813 1.56841E-04 1.68350E-06-3.30872E-24
 -1       814 1.56644E-04 1.68983E-06 6.61744E-24
 -1       815 1.56421E-04 1.76385E-06 0.00000E+00
 -1       816 1.56170E-04 1.91378E-06 0.00000E+00
 -1       817 1.55888E-04 2.14781E-06 0.00000E+00
 -1       818 1.55571E-04 2.47415E-06-6.61744E-24
 -1       819 1.55216E-04 2.90094E-06-1.65436E-24
 -1       820 1.54821E-04 3.43632E-06 3.30872E-24
 -1       821 1.59702E-04 3.71803E-06 0.00000E+00
 -1       822 1.59512E-04 4.85087E-06-1.65436E-24
 -1       823 1.59321E-04 6.47016E-06 0.00000E+00
 -1       824 1.59128E-04 8.59105E-06 3.30872E-24
 -1       825 1.58934E-04 1.10428E-05 0.00000E+00
 -1       826 1.58739E-04 1.36518E-05-3.30872E-24
 -1       827 1.58544E-04 1.61860E-05-6.61744E-24
 -1       828 1.58350E-04 1.84143E-05 0.00000E+00
 -1       829 1.58157E-04 2.02188E-05-6.61744E-24
 -1       830 1.57964E-04 2.14856E-05 3.30872E-24
 -1       831 1.57772E-04 2.23001E-05 0.00000E+00
 -1       832 1.57581E-04 2.27516E-05 0.00000E+00
 -1       833 1.57390E-04 2.30643E-05-6.61744E-24
 -1       834 1.57201E-04 2.34634E-05-1.65436E-24
 -1       835 1.57011E-04 2.41425E-05-1.65436E-24
 -1       836 1.59257E-04 3.22483E-06 0.00000E+00
 -1       837 1.58403E-04 3.40114E-06 0.00000E+00
 -1       838 1.57404E-04 3.57706E-06 3.30872E-24
 -1       839 1.56345E-04 3.75182E-06 0.00000E+00
 -1       840 1.55311E-04 3.92632E-06 0.00000E+00
 -1       856 1.56778E-04 2.67899E-05 0.00000E+00
 -1       857 1.56719E-04 2.84947E-05-4.13590E-25
 -1       858 1.56659E-04 3.03743E-05 1.65436E-24
 -1       859 1.56598E-04 3.23964E-05 0.00000E+00
 -1       860 1.56536E-04 3.45280E-05 0.00000E+00
 -1       861 1.56474E-04 3.67359E-05 8.27181E-25
 -1       862 1.56412E-04 3.89868E-05 1.65436E-24
 -1       863 1.56350E-04 4.12474E-05 0.00000E+00
 -1       864 1.56289E-04 4.34840E-05 1.65436E-24
 -1       865 1.56227E-04 4.56635E-05 8.27181E-25
 -1       866 1.56165E-04 4.77524E-05 1.65436E-24
 -1       867 1.56104E-04 4.97178E-05-8.27181E-25
 -1       868 1.56042E-04 5.15269E-05-1.65436E-24
 -1       869 1.55981E-04 5.31472E-05-8.27181E-25
 -1       870 1.55921E-04 5.45467E-05 1.65436E-24
 -1       871 1.55725E-04 2.52902E-05 8.27181E-25
 -1       872 1.54818E-04 2.52840E-05 0.00000E+00
 -1       873 1.54025E-04 2.52771E-05 0.00000E+00
 -1       874 1.53258E-04 2.52692E-05 2.06795E-25
 -1       875 1.52430E-04 2.52604E-05 1.65436E-24
 -1       876 1.56451E-04 2.68077E-05-6.61744E-24
 -1       877 1.56036E-04 2.84242E-05 3.30872E-24
 -1       878 1.55588E-04 3.01295E-05 6.61744E-24
 -1       879 1.55112E-04 3.19123E-05 3.30872E-24
 -1       880 1.54610E-04 3.37610E-05 0.00000E+00
 -1       881 1.54089E-04 3.56643E-05 0.00000E+00
 -1       882 1.53551E-04 3.76109E-05-6.61744E-24
 -1       883 1.53000E-04 3.95893E-05-3.30872E-24
 -1       884 1.52443E-04 4.15882E-05 0.00000E+00
 -1       885 1.51881E-04 4.35964E-05 0.00000E+00
 -1       886 1.51321E-04 4.56024E-05 0.00000E+00
 -1       887 1.50765E-04 4.75949E-05 1.65436E-24
 -1       888 1.50218E-04 4.95627E-05 0.00000E+00
 -1       889 1.49684E-04 5.14940E-05 0.00000E+00
 -1       890 1.49167E-04 5.33775E-05 0.00000E+00
 -1       891 1.54885E-04 5.56113E-05 1.65436E-24
 -1       892 1.53876E-04 5.55284E-05 0.00000E+00
 -1       893 1.52790E-04 5.54455E-05 1.65436E-24
 -1       894 1.51586E-04 5.53627E-05 0.00000E+00
 -1       895 1.50224E-04 5.52799E-05-1.65436E-24
 -1       956 1.54206E-04 4.97776E-06-3.30872E-24
 -1       957 1.54024E-04 5.98544E-06 0.00000E+00
 -1       958 1.53840E-04 7.09901E-06 3.30872E-24
 -1       959 1.53657E-04 8.30545E-06 1.65436E-24
 -1       960 1.53473E-04 9.59171E-06 3.30872E-24
 -1       961 1.53289E-04 1.09447E-05-3.30872E-24
 -1       962 1.53105E-04 1.23511E-05 3.30872E-24
 -1       963 1.52921E-04 1.37980E-05 3.30872E-24
 -1       964 1.52737E-04 1.52720E-05 0.00000E+00
 -1       965 1.52553E-04 1.67601E-05 0.00000E+00
 -1       966 1.52369E-04 1.82490E-05 0.00000E+00
 -1       967 1.52185E-04 1.97256E-05-3.30872E-24
 -1       968 1.52002E-04 2.11767E-05 0.00000E+00
 -1       969 1.51818E-04 2.25891E-05 0.00000E+00
 -1       970 1.51635E-04 2.39499E-05 0.00000E+00
 -1       971 1.51283E-04 2.65799E-05-3.30872E-24
 -1       972 1.51109E-04 2.80673E-05-1.65436E-24
 -1       973 1.50934E-04 2.96914E-05 0.00000E+00
 -1       974 1.50759E-04 3.14345E-05 0.00000E+00
 -1       975 1.50584E-04 3.32791E-05-6.61744E-24
 -1       976 1.50408E-04 3.52075E-05 1.65436E-24
 -1       977 1.50233E-04 3.72019E-05 0.00000E+00
 -1       978 1.50057E-04 3.92448E-05 0.00000E+00
 -1       979 1.49881E-04 4.13182E-05 0.00000E+00
 -1       980 1.49705E-04 4.34045E-05 0.00000E+00
 -1       981 1.49530E-04 4.54859E-05-6.61744E-24
 -1       982 1.49354E-04 4.75447E-05-3.30872E-24
 -1       983 1.49179E-04 4.95631E-05 6.61744E-24
 -1       984 1.49004E-04 5.15234E-05 0.00000E+00
 -1       985 1.48831E-04 5.34079E-05-3.30872E-24
 -3
    1PSTEP                         2           1           1          
  100CL  101 1.000000000         409                     0    1           1
 -4  STRESS      6    1
 -5  SXX         1    4    1    1
 -5  SYY         1    4    2    2
 -5  SZZ         1    4    3    3
 -5  SXY         1    4    1    2
 -5  SYZ         1    4    2    3
 -5  SZX         1    4    3    1
 -1         1-3.49988E+06-1.57824E+06-7.35331E+05-2.25124E+06 6.33008E-10 8.73115E-10
 -1         2 5.45473E+03 4.36453E+05 1.81729E+04 2.52317E+03-2.57728E-10-3.87263E-09
 -1         3-4.94773E+02-1.47892E+06 3.69829E+02-1.22374E+03-3.45928E-10-1.48648E-08
 -1         5-2.11785E+01 5.24335E+05 1.37893E+01 1.15764E+00 1.37154E-10 2.94713E-08
 -1         8-1.65255E+06-7.03536E+05-6.69830E+04-1.20609E+06 3.89264E-10 1.55414E-08
 -1         9-2.99223E+06-7.18076E+05-3.01848E+05-8.93773E+05 6.67060E-09 2.65427E-09
 -1        10-1.38677E+03-1.54084E+06-1.98829E+03-8.26630E+03-8.06813E-09-4.33021E-08
 -1        12-1.55913E+01 5.24364E+05 4.47500E+02 7.56402E+00 3.22188E-10 4.01997E-10
 -1        15 4.23829E+03 2.32941E+03 1.37007E+04 1.91579E+01-4.38661E-10-1.53443E-08
 -1        16-8.20621E+06-2.83274E+06-1.36444E+06-2.79957E+06 1.75011E-08-2.30890E-08
 -1        17-1.88989E+06-1.05164E+06-3.65552E+05-9.72850E+05-1.10391E-08 5.05825E-09
 -1        18-9.13346E+02-9.21343E+03-4.01842E+04-1.25742E+05 3.15322E-09 5.65797E-09
 -1        19 1.63872E+05 1.95557E+05-9.68958E+02 3.18422E+04-1.20599E-09 9.60426E-10
 -1        20-6.94145E+04-7.73202E+05-1.70741E+05 5.51784E+04 5.60552E-09-9.39569E-09
 -1        21-7.19876E+01-4.46492E+05-1.44178E+03-3.15651E+02-1.38604E-08-2.09064E-08
 -1        24-7.31841E+06-2.64182E+06-1.13161E+06-3.10775E+06 1.69384E-08-2.91717E-08
 -1        25 7.03084E+04 6.71923E+03 4.02181E+04-2.26371E+05 9.14224E-10 1.11540E-08
 -1        26-3.77106E+04 1.33599E+05-2.62227E+04-1.91608E+04 3.09956E-09-5.20591E-09
 -1        27-1.23617E+05-4.23996E+05-1.59073E+05 9.51714E+04 1.15188E-08-3.58341E-09
 -1        28 3.47649E+04-1.23275E+05 2.52719E+04 3.93969E+04 8.44790E-09 8.63800E-09
 -1        32-1.62163E+06-1.68355E+05 7.33137E+05-1.12581E+06-3.55649E-08 2.76408E-08
 -1        33-2.42002E+05 1.24741E+05 4.41751E+04-7.26976E+04 2.09244E-09 2.63875E-09
 -1        34-3.14513E+05-3.13149E+04 7.08692E+02 9.66754E+04 5.72931E-09 2.29284E-09
 -1        35-3.52960E+04-4.88750E+04-1.94393E+03 7.78138E+04 9.06926E-09-8.20971E-10
 -1        51 1.86810E+04-7.45119E+05 6.57909E+04-1.99987E+06 2.91038E-11 9.48785E-09
 -1        52 2.50391E+04-7.59675E+05 4.81362E+04-2.33268E+06 1.39698E-09 2.45054E-08
 -1        53 2.58801E+04-8.04177E+05 4.28203E+04-1.99238E+06 2.18279E-10 5.03496E-09
 -1        54 6.50274E+04-8.15309E+05 7.31806E+04-2.33971E+06-1.38243E-09-1.91867E-08
 -1        55 1.04835E+05-8.47325E+05 1.31360E+05-1.99039E+06 1.04774E-09 6.61385E-09
 -1        56-6.73778E+06-7.44139E+05-5.32338E+05-2.57800E+06 3.49246E-10-9.40054E-09
 -1        57-6.88692E+06-1.28472E+06-3.58006E+05-2.62610E+06 5.47880E-09-1.05647E-08
 -1        58-6.86273E+06-8.92558E+05-1.24977E+05-2.52117E+06-1.08230E-09 2.61498E-08
 -1        59-6.74375E+06-1.10909E+06-7.44171E+04-2.69414E+06 2.65209E-09-7.10861E-09
 -1        60-6.88100E+06-9.12880E+05-2.90531E+04-2.51296E+06-1.28694E-09-2.06719E-08
 -1        61-6.73748E+06-1.06788E+06-1.61743E+04-2.68236E+06 1.38334E-09-7.37346E-09
 -1        62-6.86759E+06-9.33693E+05-8.48906E+03-2.53238E+06-7.27596E-12 1.16750E-08
 -1        63-6.77838E+06-1.01682E+06-5.57053E+03-2.62497E+06 5.21322E-09 1.09731E-09
 -1        64-6.83753E+06-9.65544E+05-8.48916E+03-2.56854E+06-5.09317E-09-1.91512E-08
 -1        65-6.84454E+06-9.54513E+05-1.38144E+04-2.54942E+06-4.08818E-09-6.89761E-09
 -1        66-6.80091E+06-9.96460E+05-2.68705E+04-2.60746E+06-4.78121E-09 1.69639E-08
 -1        67-6.92268E+06-9.20866E+05-6.59176E+04-2.48174E+06 4.44561E-09 1.49994E-08
 -1        68-6.76186E+06-9.98439E+05-1.11494E+05-2.63763E+06 6.17911E-09-1.05283E-08
 -1        69-7.06336E+06-1.07099E+06-3.19627E+05-2.41907E+06 5.49517E-09-1.93540E-08
 -1        70-6.66386E+06-8.50052E+05-4.73971E+05-2.67009E+06 7.27596E-10-2.51166E-08
 -1        86-2.75926E+03 4.29287E+05 1.91539E+04-1.26174E+03 2.25782E-09-6.26608E-09
 -1        87 1.82527E+04 4.43031E+05 4.04313E+04 5.31286E+03 3.78759E-09 2.00556E-08
 -1        88-1.55394E+04 4.22739E+05 6.13527E+04-4.05184E+03 5.87897E-09 1.48763E-08
 -1        89 1.15785E+05 4.89734E+05 1.66376E+05 1.21182E+04 9.04402E-09 7.17182E-09
 -1        90-1.00034E+05 3.82755E+05 2.34082E+05-8.06612E+03 1.07684E-08-8.19909E-10
 -1       121-7.05190E+02-1.48071E+06 8.93234E+01 6.09932E+02 8.77435E-10-2.16278E-08
 -1       122-3.61250E+02-1.47889E+06 7.74339E+02-2.44332E+03-3.02778E-09-1.67092E-08
 -1       123-7.67036E+02-1.48081E+06 9.82578E+02 1.82190E+03 2.50418E-09-8.92032E-09
 -1       124 1.07771E+03-1.47817E+06 3.15921E+03-5.13309E+03-5.86897E-09 1.51322E-08
 -1       125-1.62557E+03-1.48161E+06 4.59647E+03 3.29198E+03 4.13820E-09-5.96629E-10
 -1       191-2.26872E+01 5.24377E+05 1.59141E+01-5.83394E-01 2.71289E-10 4.96948E-09
 -1       192-2.24574E+01 5.24336E+05 2.92190E+01 3.17140E+00 4.41772E-10-1.20090E-08
 -1       193-2.60793E+01 5.24377E+05 5.37823E+01-2.61763E+00 4.39790E-10-5.97993E-09
 -1       194-2.65690E+01 5.24340E+05 1.10567E+02 6.93939E+00 2.03078E-10-8.73615E-09
 -1       195-3.25944E+01 5.24373E+05 2.15705E+02-4.39303E+00 7.47050E-10-1.54141E-08
 -1       251 3.94244E+05-9.41349E+04 2.17918E+05 1.38087E+04-1.54159E-10 6.73754E-09
 -1       252 5.04810E+05 1.08536E+05 1.56484E+05-3.78115E+04-8.85848E-10-3.08210E-08
 -1       253 4.34984E+05-1.45181E+04 5.63432E+04 7.58103E+03-1.36924E-09 1.98270E-09
 -1       254 4.55837E+05 1.66998E+04 3.61602E+04-2.82906E+04-1.66619E-09-3.31920E-09
 -1       255 4.42606E+05-2.22409E+03 1.45742E+04 4.28568E+03-4.48949E-10-6.15546E-09
 -1       256 4.46435E+05 2.68040E+03 8.98816E+03-2.34904E+04 1.35216E-09 1.66856E-08
 -1       257 4.44157E+05-3.82320E+02 4.62305E+03 2.78077E+03 4.70123E-10-1.15182E-08
 -1       258 4.44828E+05 8.98703E+02 4.15226E+03-2.19639E+04 4.72614E-10-2.28706E-08
 -1       259 4.44152E+05-4.03841E+02 4.82542E+03 2.75942E+03-5.49676E-10-1.17677E-08
 -1       260 4.46497E+05 2.86935E+03 9.56012E+03-2.34034E+04-3.88383E-10-7.06177E-09
 -1       261 4.42546E+05-2.38843E+03 1.56260E+04 4.22009E+03 2.07433E-09-5.74346E-09
 -1       262 4.56342E+05 1.79398E+04 3.87415E+04-2.81006E+04-1.11339E-09-1.73359E-08
 -1       263 4.34528E+05-1.55828E+04 6.05293E+04 7.45663E+03-1.97133E-09 6.22094E-10
 -1       264 5.08277E+05 1.16504E+05 1.67801E+05-3.75178E+04-3.64253E-09 2.46055E-08
 -1       265 3.91216E+05-1.00991E+05 2.34106E+05 1.36389E+04-3.18141E-09 1.61381E-08
 -1       266-7.67173E+04-3.58497E+04 1.80126E+05-4.10156E+02 5.82077E-11 1.10280E-08
 -1       267 8.89469E+04 4.18231E+04 1.27248E+05 4.72945E+02 1.96451E-10 9.97179E-09
 -1       268-1.19272E+04-5.92115E+03 4.73012E+04-6.02777E+01 2.45564E-10 1.43136E-08
 -1       269 1.40831E+04 7.08874E+03 3.07417E+04 7.01969E+01 1.62800E-10 3.15125E-09
 -1       270-2.11388E+03-1.16463E+03 1.48395E+04-9.52695E+00 1.87811E-10 1.58996E-08
 -1       271-7.53384E+06-9.60938E+05-5.83694E+05-2.96312E+06 6.54836E-10 1.16706E-08
 -1       272-7.74633E+06-1.37859E+06-3.74727E+05-2.94647E+06 1.92085E-09-2.39743E-08
 -1       273-7.65740E+06-1.09257E+06-1.38114E+05-2.92125E+06-5.05042E-09-2.31958E-08
 -1       274-7.59494E+06-1.22427E+06-7.66201E+04-3.01595E+06 9.65520E-09 7.25595E-09
 -1       275-7.68488E+06-1.09458E+06-3.22056E+04-2.90289E+06 2.32831E-10 4.27826E-09
 -1       276-7.56091E+06-1.22482E+06-1.67711E+04-3.04731E+06-6.20003E-09 5.85305E-09
 -1       277-7.69490E+06-1.08753E+06-8.25002E+03-2.89339E+06-1.26420E-09 1.71074E-08
 -1       278-7.55185E+06-1.23130E+06-5.89893E+03-3.05924E+06 3.75564E-09 3.66981E-10
 -1       279-7.69586E+06-1.08666E+06-6.34822E+03-2.89241E+06-2.32239E-09-1.62809E-08
 -1       280-7.55751E+06-1.22709E+06-1.15927E+04-3.05163E+06 2.33604E-09-1.18216E-08
 -1       281-7.68798E+06-1.09267E+06-2.16800E+04-2.90005E+06-1.45519E-11 1.90448E-09
 -1       282-7.58394E+06-1.22212E+06-5.10710E+04-3.02458E+06 2.09639E-09 7.82165E-11
 -1       283-7.66603E+06-1.09532E+06-9.22975E+04-2.91636E+06 2.89037E-09-2.89801E-08
 -1       284-7.69247E+06-1.31594E+06-2.49501E+05-2.96692E+06-4.42014E-10-2.06637E-08
 -1       285-7.57822E+06-1.01366E+06-3.89637E+05-2.95047E+06 4.12911E-09-2.79397E-09
 -1       301 3.07987E+04-3.06110E+04 2.35848E+05-4.22341E+04-1.22236E-09-7.67523E-09
 -1       302 3.31491E+04 2.89959E+04 1.69120E+05-6.30412E+04 3.80624E-09 5.57475E-09
 -1       303 1.82492E+03-9.26759E+03 1.53975E+05-4.28002E+04-2.09548E-09 2.38470E-09
 -1       304 6.01598E+04 5.40809E+04 2.57137E+05-6.26476E+04 1.57888E-09 2.18961E-08
 -1       305 5.94717E+04-5.51702E+04 4.30902E+05-4.22123E+04-1.81899E-09 1.03773E-08
 -1       306-8.38840E+06-1.09352E+06-6.48846E+05-3.44746E+06 4.45289E-09-5.52973E-09
 -1       307-9.10818E+06-1.25422E+06-4.41768E+05-2.90553E+06 2.15368E-08 9.39326E-09
 -1       308-8.54849E+06-1.29035E+06-1.53899E+05-3.38026E+06 2.96495E-09-4.14002E-09
 -1       309-8.79144E+06-1.13876E+06-8.71699E+04-3.09921E+06-1.05720E-08 1.78552E-08
 -1       310-8.69426E+06-1.21184E+06-4.13457E+04-3.24770E+06-8.37099E-09 1.10467E-08
 -1       311-8.54238E+06-1.32761E+06-1.53950E+04-3.36666E+06 1.28857E-08-1.83854E-09
 -1       312-8.79709E+06-1.10090E+06-1.18010E+04-3.11304E+06-5.36420E-09 2.15264E-08
 -1       313-8.43139E+06-1.45560E+06-7.49494E+03-3.53558E+06-6.54632E-09 9.63593E-09
 -1       314-8.81394E+06-1.07707E+06-1.08462E+04-3.08536E+06-1.10249E-08-2.93812E-08
 -1       315-8.48284E+06-1.39957E+06-1.96095E+04-3.45524E+06-3.22370E-09 2.03240E-08
 -1       316-8.74083E+06-1.16078E+06-4.51857E+04-3.18973E+06 1.52504E-08 1.31840E-08
 -1       317-8.70168E+06-1.23263E+06-9.88129E+04-3.19565E+06-2.34650E-10-2.25264E-08
 -1       318-8.58968E+06-1.24925E+06-1.76665E+05-3.34024E+06-1.88111E-08 8.54197E-09
 -1       319-9.09135E+06-1.32858E+06-5.00712E+05-2.93179E+06-2.86673E-09 2.95404E-09
 -1       320-8.36165E+06-1.06289E+06-7.36055E+05-3.45897E+06 2.05036E-08-4.16185E-09
 -1       336 5.75835E+02-1.60299E+06-8.89403E+03 4.94250E+03-1.58270E-08-6.79938E-09
 -1       337-3.20989E+03-1.60420E+06-9.44175E+03-1.19485E+04-2.92075E-08 1.21672E-08
 -1       338 2.93006E+02-1.60328E+06-1.22705E+04 6.95321E+03-2.05723E-08 1.13650E-08
 -1       339-1.23148E+04-1.61044E+06-2.63703E+04-1.58346E+04-3.65399E-08 3.73548E-08
 -1       340 8.10169E+03-1.59746E+06-4.09325E+04 8.79804E+03-2.44836E-08 3.37823E-08
 -1       406 1.80391E+01 5.24353E+05 8.82840E+02-3.27692E+00 1.02665E-09 2.91402E-09
 -1       407 2.92475E+02 5.24519E+05 1.87745E+03-8.30134E+00 1.52284E-10 3.97085E-09
 -1       408 9.50499E+02 5.24217E+05 3.74872E+03 1.21791E+01 1.24874E-09 8.34916E-09
 -1       409 4.03945E+03 5.25716E+05 8.43987E+03-1.44227E+02-7.27596E-12-1.19167E-08
 -1       410 1.16339E+04 5.23149E+05 1.72288E+04 1.44284E+02 1.19690E-09 8.08723E-09
 -1       521-1.71369E+07-1.83509E+06-1.32569E+06-6.49221E+06 9.83709E-09-1.77533E-08
 -1       522-1.70341E+07-3.60834E+06-8.83720E+05-7.04409E+06-2.03800E-08-1.58907E-08
 -1       523-1.75480E+07-2.06305E+06-3.03951E+05-6.16149E+06-4.04543E-09-2.80852E-09
 -1       524-1.68244E+07-2.97472E+06-1.72031E+05-6.99544E+06 2.22353E-08 3.03953E-09
 -1       525-1.73305E+07-2.46938E+06-9.15688E+04-6.53338E+06-1.28057E-09 4.84215E-09
 -1       526-1.74706E+07-2.19411E+06-2.59468E+04-6.20619E+06-4.12547E-08 4.47525E-08
 -1       527-1.68940E+07-2.84807E+06-2.08271E+04-6.94491E+06 1.14760E-08-1.64041E-08
 -1       528-1.77898E+07-1.89366E+06-5.49118E+03-5.91885E+06 6.01062E-08-2.68392E-09
 -1       529-1.70294E+07-2.75153E+06-3.10385E+04-6.83721E+06 9.10222E-09-2.06755E-08
 -1       530-1.71843E+07-2.46728E+06-2.42125E+04-6.49940E+06-3.04135E-09-1.02796E-09
 -1       531-1.74745E+07-2.29942E+06-8.41296E+04-6.34206E+06-7.23230E-09-5.88625E-09
 -1       532-1.66992E+07-3.11943E+06-1.72946E+05-7.18150E+06-1.93832E-08-5.62432E-09
 -1       533-1.75404E+07-2.07718E+06-3.03247E+05-6.17660E+06 1.00372E-08 3.27273E-08
 -1       534-1.71868E+07-3.42485E+06-8.74543E+05-6.82042E+06-4.67116E-09 5.87897E-09
 -1       535-1.69793E+07-2.01649E+06-1.32098E+06-6.69017E+06 2.80270E-08-1.18744E-08
 -1       536-2.84669E+05-3.44736E+04 7.94216E+04-7.79797E+03-3.16834E-09 1.13359E-08
 -1       537-2.48765E+05 4.00252E+04 5.64909E+04 1.38432E+04-2.65518E-08 3.31875E-09
 -1       538-2.72374E+05-5.36592E+03 2.03191E+04-7.43624E+03 5.33782E-09 5.94264E-09
 -1       539-2.58191E+05 6.51610E+03 1.43452E+04 1.02459E+04 3.35504E-08 1.32743E-08
 -1       540-2.75046E+05-1.05932E+03 3.97831E+03-4.19757E+03 4.99256E-09 1.78577E-08
 -1       541-2.54001E+05 1.41131E+03 5.75286E+03 2.20832E+03-2.18733E-09 2.24313E-08
 -1       542-2.76438E+05-4.46034E+02-4.23981E+02 6.01402E+02 2.61389E-09 5.82406E-09
 -1       543-2.56666E+05 3.87501E+02 2.70706E+03-6.96265E+03-1.23919E-11-1.58951E-08
 -1       544-2.72490E+05-4.44446E+01-1.13094E+03 4.97054E+03-1.93529E-09-2.83540E-08
 -1       545-2.64955E+05-4.43635E+02-6.33026E+02-1.35196E+04-5.16837E-09-3.62005E-08
 -1       546-2.68312E+05 5.91090E+02-2.56153E+03 7.15892E+03-7.97513E-10-1.95233E-08
 -1       547-2.68642E+05-3.14110E+03-6.26227E+03-1.49202E+04-1.11521E-08 6.91784E-09
 -1       548-2.68808E+05 2.75869E+03-1.07869E+04 6.37172E+03-1.55437E-08-9.81345E-10
 -1       549-2.69747E+05-1.95842E+04-2.69438E+04-1.05891E+04-8.86666E-09 3.57022E-09
 -1       550-2.67089E+05 1.68354E+04-4.19767E+04 2.82624E+03 2.22371E-10 3.50337E-09
 -1       551 3.57314E+04-8.25895E+05 4.09507E+04-1.46336E+06-6.77537E-08-6.66478E-09
 -1       552 8.36070E+04-8.54623E+05 6.06250E+04-2.08577E+06-5.22705E-08 3.00352E-08
 -1       553 6.04081E+04-8.64714E+05 9.35032E+04-1.45731E+06-7.98900E-08 2.76705E-08
 -1       554 1.38788E+05-8.43924E+05 1.99018E+05-2.08720E+06-4.95929E-08 2.27678E-08
 -1       555 1.15882E+05-8.99698E+05 3.54275E+05-1.45843E+06-8.14907E-08-4.67116E-09
 -1       556 1.48334E+05-2.85056E+05 8.85313E+04-3.50024E+05-1.46683E-08-7.91624E-09
 -1       557 2.61991E+05-3.74868E+05 4.73283E+04-4.41055E+05-1.77533E-09-5.73164E-09
 -1       558 1.42435E+05-2.93812E+05 1.79648E+04-3.43111E+05-4.10364E-09-8.76025E-09
 -1       559 2.40000E+05-3.84833E+05 9.51572E+03-4.52521E+05 2.08893E-08 1.27457E-08
 -1       560 1.34661E+05-2.88851E+05 3.31025E+03-3.48458E+05 6.88306E-09 1.16961E-08
 -1       561 2.29483E+05-3.81201E+05 2.04271E+03-4.59323E+05-1.60071E-09 5.74437E-09
 -1       562 1.28699E+05-2.85022E+05 5.09098E+02-3.52727E+05 2.18279E-10 2.62753E-09
 -1       563 2.22642E+05-3.78233E+05 5.37279E+02-4.63716E+05-1.16415E-09 1.86571E-08
 -1       564 1.24966E+05-2.82657E+05 1.44150E+02-3.55355E+05 5.71163E-09 2.81980E-08
 -1       565 2.19012E+05-3.76655E+05 2.03383E+02-4.66011E+05 4.11819E-09 1.88356E-08
 -1       566 1.23547E+05-2.81746E+05 1.75287E+01-3.56354E+05-9.59699E-09-9.85165E-09
 -1       567 2.18533E+05-3.76431E+05-1.48632E+02-4.66182E+05 1.06511E-08-6.93035E-09
 -1       568 1.24518E+05-2.82370E+05-7.02979E+02-3.55806E+05-5.20959E-09-4.33647E-09
 -1       569 2.19903E+05-3.76823E+05-1.60239E+03-4.63071E+05-1.31731E-08 1.33805E-08
 -1       570 1.28888E+05-2.85875E+05-3.82467E+03-3.54594E+05 2.11003E-10 1.13214E-08
 -1       571 3.79314E+05 1.37529E+04 2.03974E+04-9.78604E+04 1.12486E-08 1.35233E-08
 -1       572 3.82325E+05 4.79157E+03 9.99609E+03-1.07267E+05 1.57461E-08 2.62389E-09
 -1       573 3.80479E+05 1.15382E+03 4.44076E+03-9.76038E+04 7.21229E-09 5.08044E-09
 -1       574 3.80816E+05 4.00333E+02 2.22654E+03-1.07551E+05-9.20409E-10-5.06861E-09
 -1       575 3.80582E+05 8.28536E+01 1.04958E+03-9.75707E+04 1.49612E-10 5.07862E-09
 -1       576 3.80597E+05 5.48334E+01 5.35163E+02-1.07588E+05 3.95386E-09-2.82034E-09
 -1       577 3.80598E+05 2.70677E+01 2.63732E+02-9.75664E+04-7.04745E-09 8.04357E-09
 -1       578 3.80588E+05 3.09206E+01 1.44339E+02-1.07593E+05-2.14641E-08-5.83441E-09
 -1       579 3.80644E+05 8.93657E+00 8.73419E+01-9.75659E+04-9.79344E-09-3.18323E-10
 -1       580 3.80660E+05-3.69332E+00 8.14028E+01-1.07588E+05 1.85537E-10 1.25474E-08
 -1       581 3.80735E+05-3.62992E+01 1.06745E+02-9.75710E+04 1.09394E-08 1.24883E-08
 -1       582 3.80803E+05-3.95586E+01 2.04702E+02-1.07532E+05 1.90648E-08 8.94215E-09
 -1       583 3.80861E+05-2.01445E+01 3.85698E+02-9.76220E+04 8.03084E-09 8.04448E-10
 -1       584 3.81108E+05 2.59939E+02 8.69367E+02-1.07098E+05-5.33328E-09-2.24823E-08
 -1       585 3.80919E+05 1.00320E+03 1.75558E+03-9.80060E+04-8.22183E-10-2.06273E-09
 -1       586-4.26651E+03 1.26732E+05-5.83772E+03-3.28031E+05 4.69299E-10 3.48837E-09
 -1       587-7.06607E+02 1.25900E+05-5.39619E+02-3.60961E+05 1.15324E-09 1.14096E-08
 -1       588 1.46580E+03 1.26086E+05 4.39782E+03-3.27828E+05 7.45786E-10 2.16796E-08
 -1       589 6.58027E+03 1.28587E+05 1.26622E+04-3.60666E+05 7.71252E-10 2.33013E-08
 -1       590 1.85151E+04 1.24849E+05 2.70241E+04-3.28334E+05 3.67436E-10 4.23279E-09
 -1       591-8.52090E+04-2.40511E+04-2.77795E+04-4.38051E+04-8.09450E-10-9.58789E-09
 -1       592-8.78594E+04-3.08224E+04-1.50465E+04-5.09947E+04-1.84491E-09-1.81265E-08
 -1       593-8.80220E+04-2.20024E+04-6.26423E+03-4.58147E+04-2.20484E-09-1.56501E-08
 -1       594-8.39938E+04-2.67826E+04-3.12391E+03-5.11913E+04-1.23964E-09 9.61489E-09
 -1       595-8.82401E+04-2.19908E+04-1.43560E+03-4.59082E+04 1.73554E-09 5.96708E-09
 -1       596-8.37340E+04-2.65970E+04-7.31518E+02-5.11663E+04 6.26642E-09 6.93717E-10
 -1       597-8.82682E+04-2.20080E+04-4.02473E+02-4.59123E+04-1.45235E-11 1.00318E-08
 -1       598-8.37087E+04-2.65900E+04-3.31138E+02-5.11583E+04-1.90767E-10 1.87740E-08
 -1       599-8.82648E+04-2.20091E+04-4.32844E+02-4.59109E+04-1.68257E-11-1.15756E-09
 -1       600-8.37336E+04-2.66003E+04-8.11584E+02-5.11621E+04-7.50106E-10-1.67902E-08
 -1       601-8.82270E+04-2.19926E+04-1.60581E+03-4.59036E+04-1.69393E-09 4.98221E-09
 -1       602-8.40215E+04-2.68088E+04-3.50074E+03-5.11837E+04-9.02673E-11 2.01917E-08
 -1       603-8.79774E+04-2.20107E+04-7.02276E+03-4.57981E+04 4.57112E-09-1.47429E-09
 -1       604-8.83654E+04-3.13223E+04-1.68671E+04-5.09401E+04 1.09612E-08-5.01677E-09
 -1       605-8.48046E+04-2.43211E+04-3.11409E+04-4.35585E+04 5.17184E-09 1.04774E-08
 -1       606 5.39164E+04-1.83521E+04-3.29876E+04 5.22274E+04 2.78851E-09 1.82281E-08
 -1       607 4.82629E+04-5.92621E+03-1.64233E+04 5.86288E+04 1.55924E-08-1.21634E-08
 -1       608 5.14129E+04-1.01207E+03-7.36100E+03 5.18126E+04 1.24310E-08-1.02264E-08
 -1       609 5.07527E+04-2.40740E+02-3.71539E+03 5.90845E+04-3.96176E-09 8.44784E-09
 -1       610 5.10566E+04 6.93599E+01-1.77934E+03 5.17658E+04-8.12361E-09 5.90717E-09
 -1       611 5.09092E+04 1.26190E+02-8.95947E+02 5.91337E+04-1.58698E-08-2.75850E-09
 -1       612 5.09260E+04 1.30598E+02-4.31729E+02 5.17613E+04-7.48332E-09 9.68612E-09
 -1       613 5.08520E+04 1.71794E+02-1.95858E+02 5.91389E+04-1.35369E-08-8.39646E-09
 -1       614 5.08416E+04 1.57632E+02-5.66333E+01 5.17598E+04-5.65706E-10-5.01313E-09
 -1       615 5.07885E+04 2.05126E+02 6.05222E+01 5.91393E+04 1.73395E-08 6.78119E-09
 -1       616 5.07779E+04 1.87734E+02 2.00507E+02 5.17604E+04-5.01041E-09-4.96266E-09
 -1       617 5.07716E+04 2.72025E+02 4.67376E+02 5.91379E+04-3.13457E-09-1.28152E-08
 -1       618 5.07076E+04 3.41031E+02 9.44270E+02 5.17605E+04 8.17818E-09-3.73711E-09
 -1       619 5.10803E+04 1.01694E+03 2.12294E+03 5.91358E+04 1.91694E-08 1.97178E-09
 -1       620 5.03789E+04 2.59187E+03 4.26690E+03 5.17554E+04 1.54446E-08-1.32877E-09
 -1       621 6.49110E+02 4.13375E+05 5.73958E+03 1.51578E+04-3.18266E-10 3.68800E-10
 -1       622 7.43212E+02 4.14800E+05 4.87564E+03 2.21772E+04-2.90129E-10-1.46647E-08
 -1       623 2.26293E+01 4.13778E+05 5.61063E+03 1.50893E+04-5.05906E-10-4.44174E-09
 -1       624 2.52783E+03 4.16427E+05 1.06572E+04 2.22420E+04-6.83428E-10-4.09591E-09
 -1       625 2.54377E+03 4.11721E+05 1.85284E+04 1.50942E+04-3.81078E-10-1.04314E-08
 -1       626 3.40296E+05 9.40646E+04 6.66780E+03 1.83773E+05-4.24370E-09-2.04491E-08
 -1       627 3.35654E+05 9.75072E+04 3.21630E+03 1.91133E+05-4.33647E-09-2.16930E-08
 -1       628 3.40501E+05 9.09238E+04 1.35520E+03 1.84754E+05 1.17871E-09-1.15629E-08
 -1       629 3.34637E+05 9.67659E+04 6.66301E+02 1.91536E+05 1.33623E-08 6.35509E-11
 -1       630 3.40475E+05 9.07964E+04 3.06385E+02 1.84756E+05 6.04450E-09 1.84593E-09
 -1       631 3.34483E+05 9.67640E+04 1.66330E+02 1.91512E+05-3.27418E-09-3.94562E-09
 -1       632 3.40428E+05 9.08246E+04 1.09551E+02 1.84723E+05-4.12729E-09-7.07928E-09
 -1       633 3.34434E+05 9.67840E+04 1.24344E+02 1.91480E+05 1.85973E-08-1.33906E-08
 -1       634 3.40391E+05 9.08359E+04 2.01324E+02 1.84704E+05 3.21024E-08-1.04492E-08
 -1       635 3.34429E+05 9.67923E+04 4.08919E+02 1.91469E+05 4.46826E-08 7.90169E-09
 -1       636 3.40363E+05 9.08377E+04 8.25217E+02 1.84694E+05 1.45308E-08-1.00649E-08
 -1       637 3.34597E+05 9.69239E+04 1.81334E+03 1.91460E+05 6.33861E-10-3.76349E-09
 -1       638 3.40297E+05 9.12389E+04 3.72534E+03 1.84510E+05 3.33512E-09-4.61932E-09
 -1       639 3.36557E+05 9.96440E+04 8.81233E+03 1.90889E+05-3.15868E-09-1.59998E-08
 -1       640 3.40056E+05 9.93389E+04 1.82853E+04 1.81068E+05-5.58430E-10 6.23913E-09
 -1       656 9.22600E+04-2.33340E+06-2.22574E+05 2.18753E+03 1.10595E-09-9.07556E-09
 -1       657-1.21929E+05-2.43367E+06-1.84065E+05 1.44601E+04-1.84627E-09 1.31911E-08
 -1       658 2.92623E+04-2.36197E+06-1.12911E+05-2.48756E+03-9.84528E-10 5.09729E-10
 -1       659-1.30736E+05-2.43790E+06-1.95631E+05 1.76872E+04 1.13505E-09-1.48999E-08
 -1       660 1.01055E+05-2.32920E+06-2.42415E+05-1.03960E+03 1.19326E-09 9.47654E-09
 -1       661 3.27922E+05 3.60193E+04 3.15196E+04 1.28608E+05 1.02555E-08 1.40408E-08
 -1       662 3.44654E+05 6.04312E+04 2.12394E+04 1.22785E+05 2.96950E-09-1.51977E-09
 -1       663 3.34137E+05 4.61040E+04 7.42960E+03 1.26784E+05 1.63755E-09 2.73121E-09
 -1       664 3.37438E+05 4.86496E+04 4.44298E+03 1.25027E+05 3.21091E-09-5.10829E-09
 -1       665 3.35092E+05 4.74688E+04 1.75207E+03 1.26492E+05-3.76025E-09 6.65068E-12
 -1       666 3.36298E+05 4.71010E+04 1.02253E+03 1.25420E+05-1.35322E-08 1.32420E-08
 -1       667 3.35272E+05 4.76111E+04 5.38518E+02 1.26407E+05 8.39634E-10 8.55054E-09
 -1       668 3.36085E+05 4.70164E+04 5.40215E+02 1.25555E+05 1.32939E-08-4.95417E-09
 -1       669 3.35304E+05 4.75498E+04 7.22955E+02 1.26358E+05 5.44171E-09 1.04628E-08
 -1       670 3.36224E+05 4.74409E+04 1.56794E+03 1.25601E+05 1.72964E-08 7.39124E-09
 -1       671 3.35133E+05 4.71943E+04 2.78078E+03 1.26357E+05-3.48969E-09-1.40951E-08
 -1       672 3.37806E+05 5.01821E+04 7.11280E+03 1.25252E+05-8.67715E-09-1.98829E-08
 -1       673 3.33729E+05 4.48766E+04 1.19187E+04 1.26681E+05-5.28667E-09-4.88808E-09
 -1       674 3.49119E+05 6.93553E+04 3.40818E+04 1.21952E+05 5.12159E-10-7.76890E-09
 -1       675 3.23892E+05 2.85565E+04 5.05922E+04 1.29454E+05 5.90262E-09-1.76096E-08
 -1       676 3.75450E+01-4.46371E+05-1.73775E+03 1.57830E+02-3.32591E-09-4.94671E-09
 -1       677-4.60669E+02-4.46792E+05-3.18059E+03-3.15218E+02-7.05722E-09-2.22628E-08
 -1       678 3.08345E+02-4.46071E+05-5.62260E+03 1.57280E+02 3.19915E-10-1.19708E-08
 -1       679-5.62464E+03-4.50187E+05-1.33580E+04-3.13344E+02-3.35876E-09-4.58466E-09
 -1       680 3.35812E+03-4.42979E+05-2.15281E+04 1.54168E+02-3.51520E-09 3.25548E-09
 -1       771-4.77745E+06-8.53293E+05-1.21015E+05-1.98838E+06-2.05910E-08-1.63564E-08
 -1       772-4.75356E+06-9.02668E+05-6.41117E+04-2.04336E+06-1.48502E-08 8.72751E-09
 -1       773-4.79655E+06-8.38156E+05-2.94232E+04-1.99474E+06-8.49832E-09 8.65839E-09
 -1       774-4.73666E+06-8.91123E+05-1.38815E+04-2.05660E+06 1.70039E-08-1.74623E-10
 -1       775-4.80409E+06-8.32634E+05-8.34510E+03-1.99522E+06-2.35741E-09 3.44880E-09
 -1       776-4.73709E+06-8.92698E+05-3.51965E+03-2.06639E+06-6.57747E-09 4.38195E-09
 -1       777-4.81042E+06-8.27754E+05-3.08592E+03-1.99571E+06 2.18279E-10 3.26690E-09
 -1       778-4.73901E+06-8.94160E+05-1.11756E+03-2.07499E+06 1.48430E-09 7.87441E-09
 -1       779-4.81589E+06-8.23459E+05-1.56605E+03-1.99629E+06-4.36557E-09-5.76983E-09
 -1       780-4.74114E+06-8.95152E+05-7.64418E+02-2.08212E+06-3.12866E-09 6.11180E-10
 -1       781-4.82023E+06-8.19972E+05-1.49752E+03-1.99683E+06-1.71931E-08-2.50475E-09
 -1       782-4.74312E+06-8.95863E+05-2.05866E+03-2.08746E+06-1.96887E-08-6.19502E-09
 -1       783-4.82316E+06-8.17572E+05-4.18538E+03-1.99720E+06-1.02591E-09-9.58153E-09
 -1       784-4.74678E+06-8.98783E+05-9.62033E+03-2.09064E+06-1.15688E-08 3.12320E-09
 -1       785-4.82296E+06-8.17621E+05-1.78562E+04-1.99615E+06-2.29666E-08-6.74845E-10
 -1       786 3.55026E+05-1.88086E+04 4.35220E+04-7.50728E+01 4.41000E-09-1.30767E-08
 -1       787 3.73882E+05 2.17750E+04 3.07889E+04 4.31283E+01 2.30583E-08 2.94845E-08
 -1       788 3.62302E+05-2.94852E+03 1.12652E+04-4.55172E+01 6.35284E-06 1.57856E-08
 -1       789 3.65409E+05 3.41167E+03 7.07809E+03-2.24734E+00 1.26761E-05 2.69293E-08
 -1       790 3.63503E+05-4.60626E+02 2.88075E+03-2.96993E+01 1.18463E-05-1.41627E-08
 -1       791 3.64008E+05 5.35298E+02 1.69213E+03-3.13027E+01 1.09872E-05 3.46461E-08
 -1       792 3.63704E+05-7.43466E+01 7.73835E+02-1.64617E+01 5.49663E-06-2.75384E-08
 -1       793 3.63782E+05 1.05113E+02 5.10057E+02-6.36758E+01 1.74555E-08 8.12040E-09
 -1       794 3.63730E+05-3.07228E+01 3.82429E+02 2.67433E+00 1.13716E-09 9.70048E-09
 -1       795 3.63807E+05 1.60279E+02 5.59690E+02-1.19936E+02-1.13288E-09-1.36179E-08
 -1       796 3.63680E+05-1.29468E+02 8.42352E+02 3.97998E+01 1.42440E-09-1.15572E-08
 -1       797 3.64191E+05 9.49716E+02 1.98938E+03-2.35659E+02-1.07475E-09 7.33021E-09
 -1       798 3.63345E+05-8.19594E+02 3.14078E+03 1.18399E+02-4.54614E-11-5.76290E-09
 -1       799 3.66554E+05 6.05283E+03 8.56446E+03-4.85300E+02-4.24978E-10 1.07211E-08
 -1       800 3.61315E+05-5.22853E+03 1.20946E+04 2.89442E+02-5.19005E-10-1.13687E-10
 -1       801-2.95260E+04-3.60659E+05-2.48783E+04 4.48284E+04 2.17897E-08-7.39965E-09
 -1       802 5.49727E+04 9.35036E+04 1.16536E+05-1.63052E+05 5.87315E-08 3.55271E-10
 -1       803-2.13852E+04-1.43555E+05 1.22700E+05 4.67447E+04 4.61441E-08 4.03129E-08
 -1       804 2.59039E+05 2.35627E+05 3.87477E+05-1.65860E+05 5.45006E-08 4.85807E-08
 -1       805-2.34376E+05-5.01120E+05 4.13767E+05 4.75960E+04 1.91503E-08 4.81713E-08
 -1       806-4.11582E+05-8.85938E+04-3.52063E+04-1.71808E+05-1.67993E-08-1.00590E-09
 -1       807-4.13609E+05-8.35993E+04-1.72965E+04-1.81195E+05-2.36112E-08 5.77029E-09
 -1       808-4.12581E+05-7.58742E+04-7.33635E+03-1.77774E+05-1.54091E-08 3.88980E-10
 -1       809-4.09912E+05-7.87985E+04-3.58626E+03-1.81692E+05-4.61114E-09-4.43129E-09
 -1       810-4.12732E+05-7.54282E+04-1.64224E+03-1.78035E+05-4.37740E-09-2.95086E-09
 -1       811-4.09624E+05-7.86102E+04-8.14249E+02-1.81644E+05-5.12046E-09 4.34193E-09
 -1       812-4.12752E+05-7.54661E+04-4.06872E+02-1.78031E+05-2.18643E-09-9.41236E-09
 -1       813-4.09580E+05-7.86171E+04-2.56199E+02-1.81613E+05 3.70346E-09 3.69232E-09
 -1       814-4.12737E+05-7.54851E+04-2.40930E+02-1.78021E+05 4.68117E-09 2.39888E-08
 -1       815-4.09574E+05-7.86241E+04-3.75057E+02-1.81595E+05 1.11550E-09 6.82348E-09
 -1       816-4.12699E+05-7.54906E+04-7.03622E+02-1.78010E+05 2.18279E-11 2.86891E-08
 -1       817-4.09682E+05-7.86945E+04-1.50466E+03-1.81567E+05 3.43425E-09 1.71531E-08
 -1       818-4.12593E+05-7.57117E+04-3.06822E+03-1.77903E+05 9.60426E-10-4.16003E-09
 -1       819-4.11361E+05-8.05356E+04-7.21564E+03-1.81139E+05-8.53379E-09-9.96761E-09
 -1       820-4.11995E+05-8.11728E+04-1.46882E+04-1.75570E+05-1.88629E-09-5.55406E-09
 -1       821-5.34925E+05 2.96362E+04-6.85624E+04-4.86506E+01-2.02149E-09 5.46061E-09
 -1       822-5.64303E+05-3.43047E+04-4.84611E+04-9.64266E+02-6.04858E-09 7.29051E-09
 -1       823-5.46397E+05 4.63737E+03-1.77752E+04-1.29431E+03 6.18824E-09-3.50974E-09
 -1       824-5.51052E+05-5.37096E+03-1.11476E+04 1.12394E+03-1.26320E-10 1.08612E-08
 -1       825-5.48170E+05 7.26304E+02-4.58829E+03-2.13693E+03-1.38750E-08 8.06494E-09
 -1       826-5.48936E+05-8.54541E+02-2.76859E+03 1.77567E+03-2.37936E-08 6.42945E-09
 -1       827-5.48513E+05 1.26085E+02-1.43900E+03-1.94606E+03-1.35910E-08-3.05670E-09
 -1       828-5.48489E+05-2.54034E+02-1.23562E+03 5.04407E+02-1.28291E-08 5.89118E-10
 -1       829-5.48612E+05 1.22970E+02-1.48172E+03-8.65628E+02-2.52001E-09 9.32016E-09
 -1       830-5.48782E+05-8.76125E+02-2.80125E+03-1.72936E+03 3.44984E-09 7.27368E-10
 -1       831-5.48220E+05 7.47304E+02-4.71619E+03 2.87747E+02-2.45362E-09 9.69021E-09
 -1       832-5.51180E+05-5.52831E+03-1.14538E+04-3.23530E+03 2.09726E-10 7.79073E-09
 -1       833-5.46221E+05 4.77529E+03-1.82155E+04 6.40328E+02-9.11058E-10-6.89033E-09
 -1       834-5.64840E+05-3.52166E+04-4.97602E+04-2.84283E+03 1.08203E-09-1.60944E-08
 -1       835-5.34566E+05 3.04126E+04-7.03641E+04-1.04722E+02 9.77892E-09-2.27737E-09
 -1       836-1.77938E+03 5.05807E+05 3.04950E+04-4.49653E+04 3.15958E-09 2.01771E-08
 -1       837 6.79670E+03 5.15203E+05 2.60182E+04-9.01028E+04 4.85670E-09 2.70597E-09
 -1       838-6.05556E+02 5.08395E+05 2.67845E+04-4.48325E+04 4.18913E-09 6.89397E-10
 -1       839 1.72698E+04 5.22956E+05 5.09340E+04-9.01382E+04 5.43878E-09 2.40891E-09
 -1       840-5.11417E+03 4.97904E+05 8.13321E+04-4.49233E+04 3.73257E-09-1.13232E-09
 -1       856-1.63206E+05 1.41382E+04-3.72693E+04-9.64058E+02-3.43709E-09-1.58616E-09
 -1       857-1.78592E+05-1.65729E+04-2.56557E+04 8.29770E+03-4.07204E-09-3.42834E-09
 -1       858-1.69284E+05 1.97856E+03-9.67311E+03-1.03688E+03-4.30509E-09 1.74941E-09
 -1       859-1.71620E+05-2.28683E+03-5.84036E+03 8.41652E+03-3.59785E-09-4.91946E-09
 -1       860-1.70191E+05 2.73210E+02-2.45629E+03-1.08345E+03 2.38174E-10-1.72053E-08
 -1       861-1.70580E+05-2.85334E+02-1.36765E+03 8.48091E+03-1.20495E-08-1.23685E-08
 -1       862-1.70331E+05 3.43897E+01-6.02157E+02-1.10141E+03 5.20637E-09-4.85429E-09
 -1       863-1.70414E+05-2.85946E+00-2.95714E+02 8.48886E+03 1.82768E-08-1.70340E-08
 -1       864-1.70358E+05-2.70793E+00-8.89740E+01-1.09141E+03 7.50276E-09-7.73278E-09
 -1       865-1.70358E+05 6.24567E+01 6.75216E+01 8.43988E+03 8.97742E-09 3.82497E-09
 -1       866-1.70382E+05-3.38813E+01 2.21992E+02-1.05241E+03 4.55088E-10 4.11184E-09
 -1       867-1.70217E+05 2.75422E+02 6.07647E+02 8.33383E+03 2.33331E-09-6.40684E-09
 -1       868-1.70487E+05-2.18738E+02 1.01742E+03-9.85337E+02 7.04244E-09-5.02359E-09
 -1       869-1.69434E+05 1.79397E+03 2.74101E+03 8.16527E+03 1.35077E-09-1.83441E-08
 -1       870-1.71146E+05-1.52129E+03 3.96375E+03-8.83844E+02 3.30976E-09-9.20772E-09
 -1       871-8.05021E+03-1.65384E+04-2.54124E+04 1.66225E+05 3.79623E-09 2.16005E-08
 -1       872-3.59843E+03-2.22510E+04-1.03480E+04 2.15512E+05 7.16136E-09 1.12777E-08
 -1       873-2.20575E+02-1.96990E+04 1.47484E+03 1.65869E+05 4.41923E-09 7.15113E-09
 -1       874 3.71666E+03-1.59488E+04 1.43927E+04 2.15586E+05 7.48742E-09 1.33034E-08
 -1       875 9.04465E+03-2.30427E+04 3.18953E+04 1.66184E+05 3.20506E-09 1.53432E-09
 -1       876 4.14682E+05 7.18624E+04 2.22208E+04 1.68756E+05-4.53520E-09 7.84166E-09
 -1       877 4.15911E+05 7.67873E+04 1.18673E+04 1.75364E+05-1.21945E-08 1.52595E-08
 -1       878 4.16748E+05 6.94112E+04 4.97110E+03 1.70584E+05 8.05858E-09 3.68345E-11
 -1       879 4.12885E+05 7.37751E+04 2.47698E+03 1.75509E+05 1.20303E-08-1.56570E-09
 -1       880 4.16891E+05 6.93901E+04 1.15269E+03 1.70658E+05 9.93305E-09-5.44151E-09
 -1       881 4.12682E+05 7.36454E+04 6.14292E+02 1.75468E+05 1.15745E-08-6.36354E-09
 -1       882 4.16901E+05 6.94123E+04 3.90021E+02 1.70660E+05 1.47811E-08 1.06027E-08
 -1       883 4.12667E+05 7.36382E+04 4.14972E+02 1.75453E+05 4.74824E-09 1.67273E-08
 -1       884 4.16890E+05 6.94096E+04 6.55808E+02 1.70660E+05 1.58593E-10 3.42948E-09
 -1       885 4.12719E+05 7.36472E+04 1.31579E+03 1.75468E+05 1.26005E-08 8.83750E-09
 -1       886 4.16840E+05 6.93709E+04 2.65029E+03 1.70655E+05 1.24063E-08 7.77413E-09
 -1       887 4.13184E+05 7.39528E+04 5.78820E+03 1.75538E+05-9.99631E-09-2.30830E-09
 -1       888 4.16477E+05 6.94328E+04 1.16625E+04 1.70469E+05-8.00981E-10-3.04408E-09
 -1       889 4.20135E+05 8.11658E+04 2.78579E+04 1.75322E+05 2.27458E-09-1.04947E-08
 -1       890 4.11737E+05 7.50693E+04 5.21785E+04 1.66011E+05 1.92358E-10-3.49246E-10
 -1       891-3.08434E+02-2.35780E+05-2.79378E+03 4.50729E+04 4.41673E-09 8.79459E-09
 -1       892-5.30852E+02-2.36409E+05-3.03369E+03 6.81421E+04 3.93447E-09 8.05812E-10
 -1       893-1.41100E+02-2.35844E+05-4.33456E+03 4.50836E+04 1.76533E-09 6.67569E-10
 -1       894-2.47593E+03-2.38009E+05-8.99164E+03 6.78940E+04-5.57657E-09 1.05879E-08
 -1       895-1.95484E+03-2.33925E+05-1.58551E+04 4.53138E+04-1.52386E-09 1.31877E-09
 -1       956-5.21592E+05-7.52909E+03-1.89889E+04 3.44479E+04-6.95218E-09-6.07861E-09
 -1       957-5.25350E+05-2.51590E+03-9.74643E+03 4.15306E+04-4.02451E-09 1.53607E-08
 -1       958-5.23300E+05-1.77748E+02-4.39268E+03 3.42150E+04 6.91034E-09-2.17642E-09
 -1       959-5.23614E+05 8.60168E+00-2.24263E+03 4.17819E+04-1.79261E-09 2.54931E-09
 -1       960-5.23470E+05 1.01657E+02-1.09393E+03 3.41903E+04-1.40062E-09-1.78943E-09
 -1       961-5.23507E+05 1.15015E+02-5.79231E+02 4.18111E+04-1.14915E-09-1.60162E-08
 -1       962-5.23514E+05 1.03278E+02-3.30787E+02 3.41851E+04-2.41380E-09-8.99399E-09
 -1       963-5.23514E+05 1.24751E+02-2.63223E+02 4.18183E+04-1.20851E-08 3.20142E-09
 -1       964-5.23529E+05 1.11806E+02-3.17469E+02 3.41829E+04-2.07365E-09 3.43289E-09
 -1       965-5.23539E+05 1.33219E+02-5.46735E+02 4.18195E+04 7.17898E-09 7.29506E-09
 -1       966-5.23513E+05 1.27011E+02-1.02583E+03 3.41838E+04-1.94063E-09-1.43373E-08
 -1       967-5.23670E+05 5.05606E+01-2.10381E+03 4.18056E+04-8.35371E-10-6.03291E-09
 -1       968-5.23378E+05-1.19025E+02-4.11790E+03 3.41973E+04-1.46338E-09 3.24110E-09
 -1       969-5.25330E+05-2.30315E+03-9.14328E+03 4.16597E+04-9.84983E-10 1.20966E-08
 -1       970-5.21796E+05-7.00574E+03-1.78109E+04 3.43403E+04 2.75122E-09 2.00034E-08
 -1       971-4.95296E+05-2.60494E+03-1.45582E+04 2.36876E+04-8.21092E-09-1.07680E-08
 -1       972-4.98845E+05-1.83774E+03-7.92571E+03 3.32345E+04-6.58974E-09-4.59431E-09
 -1       973-4.96933E+05 9.25609E+00-3.55165E+03 2.34768E+04-3.91992E-09 7.04858E-11
 -1       974-4.97200E+05 3.65744E+01-1.83853E+03 3.34644E+04 2.59479E-09 1.53859E-08
 -1       975-4.97076E+05 8.94282E+01-9.17978E+02 2.34526E+04 6.20912E-09 1.00499E-10
 -1       976-4.97120E+05 1.23671E+02-5.24654E+02 3.34959E+04-7.77004E-09 1.84582E-09
 -1       977-4.97111E+05 9.69807E+01-3.73868E+02 2.34447E+04 7.17228E-09 2.63913E-09
 -1       978-4.97137E+05 1.38457E+02-4.27004E+02 3.35071E+04 2.70610E-08-6.05678E-09
 -1       979-4.97115E+05 1.12196E+02-6.77957E+02 2.34412E+04 1.35849E-08 7.07587E-09
 -1       980-4.97190E+05 1.44312E+02-1.30397E+03 3.35094E+04 1.17238E-08-1.33514E-09
 -1       981-4.97073E+05 1.44072E+02-2.52355E+03 2.34423E+04-3.00588E-09-7.68216E-09
 -1       982-4.97531E+05-4.50328E+01-5.21509E+03 3.34966E+04-1.65551E-09 5.38631E-09
 -1       983-4.96749E+05-2.20346E+01-1.01337E+04 2.34549E+04 9.06266E-09-1.07391E-08
 -1       984-5.02392E+05-5.34543E+03-2.26937E+04 3.33548E+04 2.94767E-09-1.06961E-08
 -1       985-4.92152E+05-7.44260E+03-4.16737E+04 2.36046E+04 2.87127E-09 3.17414E-09
 -3
 9999
