
 stresses (elem, integ.pnt.,sxx,syy,szz,sxy,sxz,syz) for set ELALL and time  0.1000000E+01

         1   1  3.863789E+06  1.437256E+07  3.688550E+06 -2.333439E+06  1.882148E+05  1.240694E+06
         1   2  3.141137E+06  1.226675E+07  2.577221E+06 -2.096864E+06  6.277756E+05  5.459262E+05
         1   3  2.622000E+06  1.031678E+07  1.965581E+06 -2.252281E+06  7.171778E+05 -1.459899E+05
         1   4  1.293649E+05 -8.721905E+05  1.391140E+05 -2.194019E+06  1.936116E+05  9.024415E+04
         1   5  2.714298E+04 -8.837657E+05  7.118688E+04 -1.998386E+06  6.319702E+05  5.755975E+04
         1   6  1.696254E+04 -8.552265E+05  4.991685E+04 -2.194824E+06  7.168523E+05  2.520804E+04
         1   7 -3.620662E+06 -1.590278E+07 -3.421171E+06 -2.057428E+06  1.986054E+05 -1.032648E+06
         1   8 -3.096832E+06 -1.386913E+07 -2.441812E+06 -1.901531E+06  6.360757E+05 -4.208648E+05
         1   9 -2.594699E+06 -1.190579E+07 -1.869869E+06 -2.137980E+06  7.165540E+05  1.934565E+05
         1  10  3.863347E+06  1.437093E+07  3.685651E+06 -2.333626E+06  2.695143E-12  1.295596E-08
         1  11  3.140635E+06  1.226632E+07  2.575925E+06 -2.097139E+06  1.963650E-08  3.654847E-09
         1  12  2.621443E+06  1.031662E+07  1.964577E+06 -2.252198E+06  8.098531E-09 -4.514428E-09
         1  13  1.293223E+05 -8.722094E+05  1.390280E+05 -2.194034E+06 -2.080018E-09  8.941130E-11
         1  14  2.671325E+04 -8.838765E+05  7.042990E+04 -1.998416E+06  6.555230E-09  4.573133E-12
         1  15  1.641071E+04 -8.553651E+05  4.895008E+04 -2.194839E+06  1.312908E-08 -2.023948E-10
         1  16 -3.620999E+06 -1.590396E+07 -3.423297E+06 -2.057262E+06  8.867946E-11 -1.234673E-08
         1  17 -3.097313E+06 -1.386943E+07 -2.442908E+06 -1.901314E+06 -5.201498E-09 -3.869188E-09
         1  18 -2.595261E+06 -1.190597E+07 -1.870907E+06 -2.138093E+06  4.909337E-09  4.524058E-09
         1  19  3.863789E+06  1.437256E+07  3.688550E+06 -2.333439E+06 -1.882148E+05 -1.240694E+06
         1  20  3.141137E+06  1.226675E+07  2.577221E+06 -2.096864E+06 -6.277756E+05 -5.459262E+05
         1  21  2.622000E+06  1.031678E+07  1.965581E+06 -2.252281E+06 -7.171778E+05  1.459899E+05
         1  22  1.293649E+05 -8.721905E+05  1.391140E+05 -2.194019E+06 -1.936116E+05 -9.024415E+04
         1  23  2.714298E+04 -8.837657E+05  7.118688E+04 -1.998386E+06 -6.319702E+05 -5.755975E+04
         1  24  1.696254E+04 -8.552265E+05  4.991685E+04 -2.194824E+06 -7.168523E+05 -2.520804E+04
         1  25 -3.620662E+06 -1.590278E+07 -3.421171E+06 -2.057428E+06 -1.986054E+05  1.032648E+06
         1  26 -3.096832E+06 -1.386913E+07 -2.441812E+06 -1.901531E+06 -6.360757E+05  4.208648E+05
         1  27 -2.594699E+06 -1.190579E+07 -1.869869E+06 -2.137980E+06 -7.165540E+05 -1.934565E+05
         2   1  2.318327E+06  8.992788E+06  1.709323E+06 -2.267244E+06  6.541485E+05 -1.298543E+05
         2   2  1.840810E+06  6.957160E+06  1.320257E+06 -2.046342E+06  5.588997E+05 -2.174044E+05
         2   3  1.394922E+06  4.943389E+06  9.951947E+05 -2.241573E+06  4.286713E+05 -3.055536E+05
         2   4  2.442405E+04 -8.575335E+05  4.436091E+04 -2.200179E+06  6.536653E+05  1.698082E+04
         2   5  2.832460E+04 -8.556166E+05  4.382983E+04 -1.991879E+06  5.572599E+05 -5.123372E+03
         2   6  5.285594E+04 -8.470638E+05  6.230913E+04 -2.200023E+06  4.256468E+05 -2.809686E+04
         2   7 -2.274563E+06 -1.061309E+07 -1.623658E+06 -2.133833E+06  6.532084E+05  1.615850E+05
         2   8 -1.787248E+06 -8.608242E+06 -1.234180E+06 -1.937880E+06  5.556435E+05  2.046009E+05
         2   9 -1.290858E+06 -6.604218E+06 -8.711993E+05 -2.158724E+06  4.226404E+05  2.468799E+05
         2  10  2.317864E+06  8.992655E+06  1.708489E+06 -2.267176E+06  3.741411E-09  6.605369E-09
         2  11  1.840463E+06  6.957026E+06  1.319584E+06 -2.046245E+06  4.837595E-09 -2.722907E-09
         2  12  1.394700E+06  4.943241E+06  9.946776E+05 -2.241468E+06  4.403060E-09 -9.615235E-09
         2  13  2.396531E+04 -8.576484E+05  4.355759E+04 -2.200188E+06  6.624556E-09  9.693447E-11
         2  14  2.799131E+04 -8.556999E+05  4.324652E+04 -1.991877E+06  8.491352E-09  2.864570E-10
         2  15  5.266134E+04 -8.471131E+05  6.196755E+04 -2.200013E+06 -7.390714E-09  8.379183E-10
         2  16 -2.275029E+06 -1.061323E+07 -1.624510E+06 -2.133919E+06  1.255768E-08 -7.108459E-09
         2  17 -1.787591E+06 -8.608370E+06 -1.234841E+06 -1.937972E+06  1.214499E-08  2.836738E-09
         2  18 -1.291066E+06 -6.604332E+06 -8.716522E+05 -2.158808E+06 -3.222683E-09  1.012653E-08
         2  19  2.318327E+06  8.992788E+06  1.709323E+06 -2.267244E+06 -6.541485E+05  1.298543E+05
         2  20  1.840810E+06  6.957160E+06  1.320257E+06 -2.046342E+06 -5.588997E+05  2.174044E+05
         2  21  1.394922E+06  4.943389E+06  9.951947E+05 -2.241573E+06 -4.286713E+05  3.055536E+05
         2  22  2.442405E+04 -8.575335E+05  4.436091E+04 -2.200179E+06 -6.536653E+05 -1.698082E+04
         2  23  2.832460E+04 -8.556166E+05  4.382983E+04 -1.991879E+06 -5.572599E+05  5.123372E+03
         2  24  5.285594E+04 -8.470638E+05  6.230913E+04 -2.200023E+06 -4.256468E+05  2.809686E+04
         2  25 -2.274563E+06 -1.061309E+07 -1.623658E+06 -2.133833E+06 -6.532084E+05 -1.615850E+05
         2  26 -1.787248E+06 -8.608242E+06 -1.234180E+06 -1.937880E+06 -5.556435E+05 -2.046009E+05
         2  27 -1.290858E+06 -6.604218E+06 -8.711993E+05 -2.158724E+06 -4.226404E+05 -2.468799E+05
         3   1  1.096844E+06  3.652728E+06  7.925703E+05 -2.246999E+06  3.408321E+05 -3.147422E+05
         3   2  6.747291E+05  1.616115E+06  5.206840E+05 -1.938953E+06  1.940302E+05 -3.811105E+05
         3   3  3.885868E+05 -3.821370E+05  3.235016E+05 -2.049096E+06  4.845144E+04 -4.475340E+05
         3   4  5.639892E+04 -8.383407E+05  7.677293E+04 -2.200629E+06  3.375498E+05 -3.961068E+04
         3   5  1.050469E+05 -8.538630E+05  1.311714E+05 -1.990377E+06  1.906033E+05 -1.085138E+05
         3   6  2.903877E+05 -8.348871E+05  2.618384E+05 -2.198102E+06  4.489806E+04 -1.776558E+05
         3   7 -9.850105E+05 -5.309253E+06 -6.392654E+05 -2.154514E+06  3.342926E+05  2.336119E+05
         3   8 -4.648825E+05 -3.317600E+06 -2.582112E+05 -2.041563E+06  1.871222E+05  1.630408E+05
         3   9  1.923050E+05 -1.287222E+06  2.004596E+05 -2.346995E+06  4.121324E+04  9.203433E+04
         3  10  1.096693E+06  3.652592E+06  7.921688E+05 -2.246913E+06 -4.454435E-10  1.321013E-08
         3  11  6.746502E+05  1.615950E+06  5.203422E+05 -1.938893E+06 -3.471502E-09  6.506781E-10
         3  12  3.885306E+05 -3.823527E+05  3.231209E+05 -2.049079E+06  8.986085E-10 -1.162955E-08
         3  13  5.627628E+04 -8.383728E+05  7.655620E+04 -2.200619E+06 -5.015214E-09  5.633032E-10
         3  14  1.050049E+05 -8.538853E+05  1.310814E+05 -1.990360E+06  1.395809E-09  3.227108E-10
         3  15  2.903771E+05 -8.349215E+05  2.617753E+05 -2.198096E+06  1.678119E-09 -6.068594E-11
         3  16 -9.851457E+05 -5.309343E+06 -6.395800E+05 -2.154577E+06  5.500995E-09 -1.249739E-08
         3  17 -4.649274E+05 -3.317638E+06 -2.583276E+05 -2.041588E+06  1.180906E-08 -8.780103E-10
         3  18  1.923008E+05 -1.287231E+06  2.004404E+05 -2.346998E+06  5.013434E-09  1.211832E-08
         3  19  1.096844E+06  3.652728E+06  7.925703E+05 -2.246999E+06 -3.408321E+05  3.147422E+05
         3  20  6.747291E+05  1.616115E+06  5.206840E+05 -1.938953E+06 -1.940302E+05  3.811105E+05
         3  21  3.885868E+05 -3.821370E+05  3.235016E+05 -2.049096E+06 -4.845144E+04  4.475340E+05
         3  22  5.639892E+04 -8.383407E+05  7.677293E+04 -2.200629E+06 -3.375498E+05  3.961068E+04
         3  23  1.050469E+05 -8.538630E+05  1.311714E+05 -1.990377E+06 -1.906033E+05  1.085138E+05
         3  24  2.903877E+05 -8.348871E+05  2.618384E+05 -2.198102E+06 -4.489806E+04  1.776558E+05
         3  25 -9.850105E+05 -5.309253E+06 -6.392654E+05 -2.154514E+06 -3.342926E+05 -2.336119E+05
         3  26 -4.648825E+05 -3.317600E+06 -2.582112E+05 -2.041563E+06 -1.871222E+05 -1.630408E+05
         3  27  1.923050E+05 -1.287222E+06  2.004596E+05 -2.346995E+06 -4.121324E+04 -9.203433E+04
         4   1 -8.448046E+06 -2.603378E+06 -1.730892E+06 -2.857060E+06 -8.329058E+05 -2.987279E+05
         4   2 -8.165079E+06 -1.324933E+06 -9.310280E+05 -3.007109E+06 -5.402641E+05 -1.650388E+05
         4   3 -8.292234E+06 -1.423352E+06 -7.046575E+05 -2.941214E+06 -2.368822E+05 -6.001082E+04
         4   4 -7.009479E+06 -1.893533E+06 -1.299775E+06 -2.298763E+06 -8.248040E+05 -2.959789E+05
         4   5 -6.739380E+06 -7.443881E+05 -5.326744E+05 -2.578723E+06 -5.391776E+05 -1.646875E+05
         4   6 -6.876854E+06 -9.689330E+05 -3.323978E+05 -2.643062E+06 -2.428316E+05 -6.218027E+04
         4   7 -5.568823E+06 -1.183100E+06 -8.688656E+05 -1.739138E+06 -8.166793E+05 -2.932153E+05
         4   8 -5.311699E+06 -1.636363E+05 -1.345137E+05 -2.149404E+06 -5.380869E+05 -1.643343E+05
         4   9 -5.459527E+06 -5.145255E+05  3.969759E+04 -2.344348E+06 -2.487955E+05 -6.435325E+04
         4  10 -8.448824E+06 -2.603665E+06 -1.732386E+06 -2.857263E+06  2.457932E-09  7.226299E-11
         4  11 -8.165403E+06 -1.325042E+06 -9.316369E+05 -3.007181E+06  4.471896E-09  1.307272E-09
         4  12 -8.292296E+06 -1.423371E+06 -7.047714E+05 -2.941225E+06 -8.361184E-09  3.841716E-09
         4  13 -7.010240E+06 -1.893813E+06 -1.301236E+06 -2.298962E+06  4.462114E-09 -5.552121E-10
         4  14 -6.739703E+06 -7.444968E+05 -5.332793E+05 -2.578795E+06  4.322876E-09  7.154047E-10
         4  15 -6.876919E+06 -9.689533E+05 -3.325174E+05 -2.643074E+06 -2.116173E-09  4.504005E-09
         4  16 -5.569568E+06 -1.183375E+06 -8.702947E+05 -1.739332E+06 -2.361845E-10 -7.892869E-10
         4  17 -5.312019E+06 -1.637442E+05 -1.351146E+05 -2.149476E+06 -2.361275E-09  4.603163E-10
         4  18 -5.459595E+06 -5.145469E+05  3.957221E+04 -2.344361E+06 -8.885201E-10  5.710699E-09
         4  19 -8.448046E+06 -2.603378E+06 -1.730892E+06 -2.857060E+06  8.329058E+05  2.987279E+05
         4  20 -8.165079E+06 -1.324933E+06 -9.310280E+05 -3.007109E+06  5.402641E+05  1.650388E+05
         4  21 -8.292234E+06 -1.423352E+06 -7.046575E+05 -2.941214E+06  2.368822E+05  6.001082E+04
         4  22 -7.009479E+06 -1.893533E+06 -1.299775E+06 -2.298763E+06  8.248040E+05  2.959789E+05
         4  23 -6.739380E+06 -7.443881E+05 -5.326744E+05 -2.578723E+06  5.391776E+05  1.646875E+05
         4  24 -6.876854E+06 -9.689330E+05 -3.323978E+05 -2.643062E+06  2.428316E+05  6.218027E+04
         4  25 -5.568823E+06 -1.183100E+06 -8.688656E+05 -1.739138E+06  8.166793E+05  2.932153E+05
         4  26 -5.311699E+06 -1.636363E+05 -1.345137E+05 -2.149404E+06  5.380869E+05  1.643343E+05
         4  27 -5.459527E+06 -5.145255E+05  3.969759E+04 -2.344348E+06  2.487955E+05  6.435325E+04
         5   1 -7.671153E+06 -1.479812E+06 -5.113088E+05 -2.832849E+06 -1.904744E+05 -5.101853E+04
         5   2 -7.545724E+06 -1.153538E+06 -3.124958E+05 -2.708788E+06 -1.220034E+05 -2.924864E+04
         5   3 -7.310965E+06 -1.188890E+06 -2.125212E+05 -2.754218E+06 -5.177734E+04 -1.221414E+04
         5   4 -6.817077E+06 -1.137922E+06 -2.735568E+05 -2.582188E+06 -1.908388E+05 -5.116326E+04
         5   5 -6.862791E+06 -8.925412E+05 -1.249593E+05 -2.521213E+06 -1.235412E+05 -2.981745E+04
         5   6 -6.798878E+06 -1.008406E+06 -7.414463E+04 -2.629743E+06 -5.451004E+04 -1.321662E+04
         5   7 -5.962292E+06 -7.959662E+05 -3.587356E+04 -2.331203E+06 -1.912037E+05 -5.130815E+04
         5   8 -6.179406E+06 -6.315157E+05  6.253392E+04 -2.333448E+06 -1.250808E+05 -3.038695E+04
         5   9 -6.286538E+06 -8.279173E+05  6.420836E+04 -2.505178E+06 -5.724521E+04 -1.421989E+04
         5  10 -7.671193E+06 -1.479825E+06 -5.113829E+05 -2.832857E+06 -5.759059E-09  1.900249E-09
         5  11 -7.545741E+06 -1.153543E+06 -3.125258E+05 -2.708791E+06  4.571625E-09  9.821926E-11
         5  12 -7.310968E+06 -1.188891E+06 -2.125266E+05 -2.754219E+06 -1.924836E-09  3.881753E-11
         5  13 -6.817117E+06 -1.137935E+06 -2.736311E+05 -2.582196E+06 -1.428615E-08  3.834045E-09
         5  14 -6.862808E+06 -8.925464E+05 -1.249901E+05 -2.521216E+06  4.377323E-09 -1.163032E-09
         5  15 -6.798881E+06 -1.008407E+06 -7.415062E+04 -2.629744E+06 -1.103167E-08 -2.876943E-09
         5  16 -5.962333E+06 -7.959790E+05 -3.594801E+04 -2.331211E+06 -1.580911E-08  3.820984E-09
         5  17 -6.179424E+06 -6.315209E+05  6.250244E+04 -2.333451E+06 -9.654366E-09  1.124560E-09
         5  18 -6.286542E+06 -8.279184E+05  6.420174E+04 -2.505179E+06  1.796062E-09  1.301738E-09
         5  19 -7.671153E+06 -1.479812E+06 -5.113088E+05 -2.832849E+06  1.904744E+05  5.101853E+04
         5  20 -7.545724E+06 -1.153538E+06 -3.124958E+05 -2.708788E+06  1.220034E+05  2.924864E+04
         5  21 -7.310965E+06 -1.188890E+06 -2.125212E+05 -2.754218E+06  5.177734E+04  1.221414E+04
         5  22 -6.817077E+06 -1.137922E+06 -2.735568E+05 -2.582188E+06  1.908388E+05  5.116326E+04
         5  23 -6.862791E+06 -8.925412E+05 -1.249593E+05 -2.521213E+06  1.235412E+05  2.981745E+04
         5  24 -6.798878E+06 -1.008406E+06 -7.414463E+04 -2.629743E+06  5.451004E+04  1.321662E+04
         5  25 -5.962292E+06 -7.959662E+05 -3.587356E+04 -2.331203E+06  1.912037E+05  5.130815E+04
         5  26 -6.179406E+06 -6.315157E+05  6.253392E+04 -2.333448E+06  1.250808E+05  3.038695E+04
         5  27 -6.286538E+06 -8.279173E+05  6.420836E+04 -2.505178E+06  5.724521E+04  1.421989E+04
         6   1 -6.639224E+06 -9.785398E+05 -1.779133E+04 -2.584708E+06 -3.965229E+04 -1.382496E+04
         6   2 -6.535651E+06 -7.843636E+05  6.504157E+04 -2.421606E+06 -2.204421E+04 -1.567742E+04
         6   3 -6.247403E+06 -8.114033E+05  1.298443E+05 -2.482295E+06 -4.567670E+03 -1.712748E+04
         6   4 -6.789679E+06 -1.032029E+06 -5.898432E+04 -2.621668E+06 -4.165111E+04 -1.455866E+04
         6   5 -6.880770E+06 -9.128375E+05 -2.904255E+04 -2.512877E+06 -2.393937E+04 -1.637440E+04
         6   6 -6.787232E+06 -1.014898E+06 -1.720864E+04 -2.627900E+06 -6.364417E+03 -1.778954E+04
         6   7 -6.940112E+06 -1.085519E+06 -1.001795E+05 -2.658621E+06 -4.364939E+04 -1.529220E+04
         6   8 -7.225774E+06 -1.041306E+06 -1.231377E+05 -2.604103E+06 -2.583336E+04 -1.707097E+04
         6   9 -7.326780E+06 -1.218376E+06 -1.642883E+05 -2.773389E+06 -8.159432E+03 -1.845095E+04
         6  10 -6.639226E+06 -9.785404E+05 -1.779468E+04 -2.584708E+06  5.365212E-09 -2.232840E-10
         6  11 -6.535652E+06 -7.843640E+05  6.504018E+04 -2.421606E+06  6.592942E-10 -6.256607E-10
         6  12 -6.247403E+06 -8.114037E+05  1.298437E+05 -2.482295E+06  7.132320E-09  3.174429E-09
         6  13 -6.789681E+06 -1.032030E+06 -5.898803E+04 -2.621669E+06 -1.005532E-08 -2.700828E-09
         6  14 -6.880770E+06 -9.128380E+05 -2.904415E+04 -2.512877E+06  7.661030E-09 -8.522581E-10
         6  15 -6.787232E+06 -1.014898E+06 -1.720931E+04 -2.627900E+06  2.270079E-09  1.307607E-09
         6  16 -6.940114E+06 -1.085519E+06 -1.001836E+05 -2.658622E+06 -1.346117E-09  5.951092E-10
         6  17 -7.225775E+06 -1.041306E+06 -1.231395E+05 -2.604103E+06 -3.188405E-09 -1.562367E-09
         6  18 -7.326780E+06 -1.218376E+06 -1.642891E+05 -2.773389E+06 -7.363998E-10  4.429342E-10
         6  19 -6.639224E+06 -9.785398E+05 -1.779133E+04 -2.584708E+06  3.965229E+04  1.382496E+04
         6  20 -6.535651E+06 -7.843636E+05  6.504157E+04 -2.421606E+06  2.204421E+04  1.567742E+04
         6  21 -6.247403E+06 -8.114033E+05  1.298443E+05 -2.482295E+06  4.567670E+03  1.712748E+04
         6  22 -6.789679E+06 -1.032029E+06 -5.898432E+04 -2.621668E+06  4.165111E+04  1.455866E+04
         6  23 -6.880770E+06 -9.128375E+05 -2.904255E+04 -2.512877E+06  2.393937E+04  1.637440E+04
         6  24 -6.787232E+06 -1.014898E+06 -1.720864E+04 -2.627900E+06  6.364417E+03  1.778954E+04
         6  25 -6.940112E+06 -1.085519E+06 -1.001795E+05 -2.658621E+06  4.364939E+04  1.529220E+04
         6  26 -7.225774E+06 -1.041306E+06 -1.231377E+05 -2.604103E+06  2.583336E+04  1.707097E+04
         6  27 -7.326780E+06 -1.218376E+06 -1.642883E+05 -2.773389E+06  8.159432E+03  1.845095E+04
         7   1 -5.686732E+06 -5.875961E+05  2.907859E+05 -2.314149E+06 -2.596840E+02 -2.044736E+04
         7   2 -5.622680E+06 -4.657289E+05  3.318966E+05 -2.198610E+06  5.503280E+03 -2.557896E+04
         7   3 -5.417755E+06 -4.823529E+05  3.710655E+05 -2.238301E+06  1.027598E+04 -2.796441E+04
         7   4 -6.798240E+06 -1.003419E+06 -1.319543E+04 -2.610276E+06 -2.321456E+03 -2.121010E+04
         7   5 -6.868507E+06 -9.337156E+05 -8.371334E+03 -2.532764E+06  4.168486E+03 -2.607755E+04
         7   6 -6.798060E+06 -1.002680E+06 -6.072154E+03 -2.610512E+06  9.666356E+03 -2.819641E+04
         7   7 -7.908551E+06 -1.419177E+06 -3.172885E+05 -2.905922E+06 -4.379116E+03 -2.197134E+04
         7   8 -8.112831E+06 -1.401618E+06 -3.487803E+05 -2.866309E+06  2.836677E+03 -2.657503E+04
         7   9 -8.176522E+06 -1.522901E+06 -3.833838E+05 -2.981971E+06  9.058248E+03 -2.842785E+04
         7  10 -5.686732E+06 -5.875965E+05  2.907851E+05 -2.314149E+06  6.199615E-09  1.425045E-09
         7  11 -5.622680E+06 -4.657296E+05  3.318953E+05 -2.198609E+06 -3.694789E-09 -1.487859E-09
         7  12 -5.417755E+06 -4.823537E+05  3.710638E+05 -2.238301E+06  6.021812E-10  2.467332E-09
         7  13 -6.798240E+06 -1.003419E+06 -1.319628E+04 -2.610276E+06 -9.034939E-09  1.576926E-09
         7  14 -6.868507E+06 -9.337163E+05 -8.372641E+03 -2.532764E+06  1.623154E-11 -5.927330E-10
         7  15 -6.798060E+06 -1.002681E+06 -6.073818E+03 -2.610512E+06 -1.252804E-08  2.881443E-09
         7  16 -7.908551E+06 -1.419177E+06 -3.172894E+05 -2.905922E+06 -1.425543E-08  1.795910E-09
         7  17 -8.112831E+06 -1.401619E+06 -3.487816E+05 -2.866309E+06 -5.036804E-09  1.227365E-09
         7  18 -8.176522E+06 -1.522902E+06 -3.833855E+05 -2.981970E+06  4.361029E-09  2.867505E-09
         7  19 -5.686732E+06 -5.875961E+05  2.907859E+05 -2.314149E+06  2.596840E+02  2.044736E+04
         7  20 -5.622680E+06 -4.657289E+05  3.318966E+05 -2.198610E+06 -5.503280E+03  2.557896E+04
         7  21 -5.417755E+06 -4.823529E+05  3.710655E+05 -2.238301E+06 -1.027598E+04  2.796441E+04
         7  22 -6.798240E+06 -1.003419E+06 -1.319543E+04 -2.610276E+06  2.321456E+03  2.121010E+04
         7  23 -6.868507E+06 -9.337156E+05 -8.371334E+03 -2.532764E+06 -4.168486E+03  2.607755E+04
         7  24 -6.798060E+06 -1.002680E+06 -6.072154E+03 -2.610512E+06 -9.666356E+03  2.819641E+04
         7  25 -7.908551E+06 -1.419177E+06 -3.172885E+05 -2.905922E+06  4.379116E+03  2.197134E+04
         7  26 -8.112831E+06 -1.401618E+06 -3.487803E+05 -2.866309E+06 -2.836677E+03  2.657503E+04
         7  27 -8.176522E+06 -1.522901E+06 -3.833838E+05 -2.981971E+06 -9.058248E+03  2.842785E+04
         8   1 -5.167149E+06 -3.527663E+05  4.472482E+05 -2.134740E+06  1.251148E+04 -2.946862E+04
         8   2 -5.162911E+06 -3.299639E+05  4.506942E+05 -2.113419E+06  1.651754E+04 -3.111563E+04
         8   3 -5.123322E+06 -3.320146E+05  4.541709E+05 -2.115535E+06  1.912895E+04 -2.903597E+04
         8   4 -6.821742E+06 -9.770910E+05 -5.555865E+03 -2.581470E+06  1.127595E+04 -2.993671E+04
         8   5 -6.839460E+06 -9.656313E+05 -8.275707E+03 -2.569342E+06  1.627059E+04 -3.121572E+04
         8   6 -6.822047E+06 -9.792480E+05 -1.176198E+04 -2.580656E+06  1.986862E+04 -2.876321E+04
         8   7 -8.473684E+06 -1.601263E+06 -4.586094E+05 -3.027117E+06  1.004409E+04 -3.040345E+04
         8   8 -8.513287E+06 -1.601136E+06 -4.675028E+05 -3.024143E+06  1.602439E+04 -3.131555E+04
         8   9 -8.517978E+06 -1.626310E+06 -4.779606E+05 -3.044618E+06  2.060603E+04 -2.849132E+04
         8  10 -5.167149E+06 -3.527673E+05  4.472463E+05 -2.134739E+06 -3.155015E-09  4.219068E-09
         8  11 -5.162912E+06 -3.299650E+05  4.506919E+05 -2.113418E+06 -5.158456E-09 -4.578913E-09
         8  12 -5.123323E+06 -3.320156E+05  4.541687E+05 -2.115534E+06 -2.903584E-09 -9.145402E-10
         8  13 -6.821742E+06 -9.770919E+05 -5.557781E+03 -2.581469E+06 -1.468266E-09  5.214554E-09
         8  14 -6.839461E+06 -9.656324E+05 -8.278028E+03 -2.569341E+06  2.063407E-08  2.131489E-09
         8  15 -6.822047E+06 -9.792490E+05 -1.176427E+04 -2.580656E+06  5.068144E-09 -1.134610E-09
         8  16 -8.473685E+06 -1.601264E+06 -4.586113E+05 -3.027116E+06  3.247060E-10  2.534532E-09
         8  17 -8.513288E+06 -1.601137E+06 -4.675051E+05 -3.024143E+06 -1.454143E-09  2.168242E-09
         8  18 -8.517979E+06 -1.626311E+06 -4.779629E+05 -3.044618E+06 -1.248871E-09  1.229579E-09
         8  19 -5.167149E+06 -3.527663E+05  4.472482E+05 -2.134740E+06 -1.251148E+04  2.946862E+04
         8  20 -5.162911E+06 -3.299639E+05  4.506942E+05 -2.113419E+06 -1.651754E+04  3.111563E+04
         8  21 -5.123322E+06 -3.320146E+05  4.541709E+05 -2.115535E+06 -1.912895E+04  2.903597E+04
         8  22 -6.821742E+06 -9.770910E+05 -5.555865E+03 -2.581470E+06 -1.127595E+04  2.993671E+04
         8  23 -6.839460E+06 -9.656313E+05 -8.275707E+03 -2.569342E+06 -1.627059E+04  3.121572E+04
         8  24 -6.822047E+06 -9.792480E+05 -1.176198E+04 -2.580656E+06 -1.986862E+04  2.876321E+04
         8  25 -8.473684E+06 -1.601263E+06 -4.586094E+05 -3.027117E+06 -1.004409E+04  3.040345E+04
         8  26 -8.513287E+06 -1.601136E+06 -4.675028E+05 -3.024143E+06 -1.602439E+04  3.131555E+04
         8  27 -8.517978E+06 -1.626310E+06 -4.779606E+05 -3.044618E+06 -2.060603E+04  2.849132E+04
         9   1 -5.274723E+06 -3.498805E+05  4.168906E+05 -2.120348E+06  2.149371E+04 -2.704603E+04
         9   2 -5.325088E+06 -4.301718E+05  3.789955E+05 -2.200060E+06  3.349613E+04 -2.024285E+04
         9   3 -5.474578E+06 -4.313731E+05  3.279763E+05 -2.160903E+06  4.426931E+04 -1.028589E+04
         9   4 -6.850873E+06 -9.498551E+05 -1.508224E+04 -2.551365E+06  2.157911E+04 -2.701998E+04
         9   5 -6.802336E+06 -9.965258E+05 -2.670362E+04 -2.608071E+06  3.439651E+04 -1.990465E+04
         9   6 -6.853149E+06 -9.642983E+05 -5.212889E+04 -2.545891E+06  4.598545E+04 -9.631186E+03
         9   7 -8.424615E+06 -1.549682E+06 -4.472828E+05 -2.981386E+06  2.166425E+04 -2.699404E+04
         9   8 -8.277467E+06 -1.562742E+06 -4.326033E+05 -3.015195E+06  3.529444E+04 -1.956738E+04
         9   9 -8.229875E+06 -1.497096E+06 -4.324097E+05 -2.930094E+06  4.769725E+04 -8.978179E+03
         9  10 -5.274724E+06 -3.498814E+05  4.168884E+05 -2.120348E+06  1.143472E-09  1.212718E-09
         9  11 -5.325089E+06 -4.301725E+05  3.789926E+05 -2.200059E+06  5.432643E-11  3.884387E-11
         9  12 -5.474580E+06 -4.313737E+05  3.279724E+05 -2.160903E+06 -1.372696E-09 -2.851710E-09
         9  13 -6.850874E+06 -9.498560E+05 -1.508448E+04 -2.551365E+06  1.356799E-08  1.291643E-09
         9  14 -6.802337E+06 -9.965265E+05 -2.670660E+04 -2.608071E+06  5.665652E-09 -3.874454E-09
         9  15 -6.853152E+06 -9.642990E+05 -5.213307E+04 -2.545890E+06  8.526437E-09  1.445893E-09
         9  16 -8.424616E+06 -1.549683E+06 -4.472851E+05 -2.981385E+06 -3.117085E-10 -1.137878E-09
         9  17 -8.277468E+06 -1.562743E+06 -4.326064E+05 -3.015195E+06  7.686918E-09 -5.292246E-10
         9  18 -8.229877E+06 -1.497097E+06 -4.324141E+05 -2.930093E+06  1.666035E-09  3.686839E-09
         9  19 -5.274723E+06 -3.498805E+05  4.168906E+05 -2.120348E+06 -2.149371E+04  2.704603E+04
         9  20 -5.325088E+06 -4.301718E+05  3.789955E+05 -2.200060E+06 -3.349613E+04  2.024285E+04
         9  21 -5.474578E+06 -4.313731E+05  3.279763E+05 -2.160903E+06 -4.426931E+04  1.028589E+04
         9  22 -6.850873E+06 -9.498551E+05 -1.508224E+04 -2.551365E+06 -2.157911E+04  2.701998E+04
         9  23 -6.802336E+06 -9.965258E+05 -2.670362E+04 -2.608071E+06 -3.439651E+04  1.990465E+04
         9  24 -6.853149E+06 -9.642983E+05 -5.212889E+04 -2.545891E+06 -4.598545E+04  9.631186E+03
         9  25 -8.424615E+06 -1.549682E+06 -4.472828E+05 -2.981386E+06 -2.166425E+04  2.699404E+04
         9  26 -8.277467E+06 -1.562742E+06 -4.326033E+05 -3.015195E+06 -3.529444E+04  1.956738E+04
         9  27 -8.229875E+06 -1.497096E+06 -4.324097E+05 -2.930094E+06 -4.769725E+04  8.978179E+03
        10   1 -5.964453E+06 -5.855280E+05  1.830090E+05 -2.291220E+06  5.257661E+04 -2.741849E+03
        10   2 -6.037383E+06 -7.139109E+05  8.897909E+04 -2.430979E+06  1.089341E+05  2.591722E+04
        10   3 -6.363145E+06 -8.132113E+05 -9.209859E+04 -2.323095E+06  1.651440E+05  5.484951E+04
        10   4 -6.879739E+06 -9.278347E+05 -6.629188E+04 -2.535425E+06  5.411438E+04 -2.151038E+03
        10   5 -6.761965E+06 -9.984256E+05 -1.114669E+05 -2.637687E+06  1.104811E+05  2.651216E+04
        10   6 -6.897125E+06 -1.040027E+06 -2.437572E+05 -2.492274E+06  1.667201E+05  5.545281E+04
        10   7 -7.794213E+06 -1.270100E+06 -3.156690E+05 -2.779306E+06  5.564957E+04 -1.561159E+03
        10   8 -7.486037E+06 -1.282901E+06 -3.119620E+05 -2.844173E+06  1.120260E+05  2.710626E+04
        10   9 -7.430827E+06 -1.266806E+06 -3.954436E+05 -2.661313E+06  1.682947E+05  5.605536E+04
        10  10 -5.964456E+06 -5.855288E+05  1.830037E+05 -2.291219E+06  3.179876E-09  6.857769E-10
        10  11 -6.037396E+06 -7.139149E+05  8.895527E+04 -2.430981E+06 -1.284252E-09 -4.836999E-09
        10  12 -6.363175E+06 -8.132220E+05 -9.215616E+04 -2.323103E+06 -1.017223E-08 -2.567003E-09
        10  13 -6.879742E+06 -9.278355E+05 -6.629744E+04 -2.535425E+06 -1.248646E-08 -1.255849E-09
        10  14 -6.761978E+06 -9.984297E+05 -1.114914E+05 -2.637690E+06  9.238157E-10 -3.576028E-09
        10  15 -6.897156E+06 -1.040038E+06 -2.438160E+05 -2.492281E+06 -4.073531E-09 -4.388114E-09
        10  16 -7.794217E+06 -1.270101E+06 -3.156749E+05 -2.779306E+06  3.189583E-09 -5.016830E-09
        10  17 -7.486051E+06 -1.282905E+06 -3.119873E+05 -2.844175E+06  8.508253E-09 -6.255972E-09
        10  18 -7.430859E+06 -1.266817E+06 -3.955035E+05 -2.661321E+06  7.253128E-09 -1.792052E-09
        10  19 -5.964453E+06 -5.855280E+05  1.830090E+05 -2.291220E+06 -5.257661E+04  2.741849E+03
        10  20 -6.037383E+06 -7.139109E+05  8.897909E+04 -2.430979E+06 -1.089341E+05 -2.591722E+04
        10  21 -6.363145E+06 -8.132113E+05 -9.209859E+04 -2.323095E+06 -1.651440E+05 -5.484951E+04
        10  22 -6.879739E+06 -9.278347E+05 -6.629188E+04 -2.535425E+06 -5.411438E+04  2.151038E+03
        10  23 -6.761965E+06 -9.984256E+05 -1.114669E+05 -2.637687E+06 -1.104811E+05 -2.651216E+04
        10  24 -6.897125E+06 -1.040027E+06 -2.437572E+05 -2.492274E+06 -1.667201E+05 -5.545281E+04
        10  25 -7.794213E+06 -1.270100E+06 -3.156690E+05 -2.779306E+06 -5.564957E+04  1.561159E+03
        10  26 -7.486037E+06 -1.282901E+06 -3.119620E+05 -2.844173E+06 -1.120260E+05 -2.710626E+04
        10  27 -7.430827E+06 -1.266806E+06 -3.954436E+05 -2.661313E+06 -1.682947E+05 -5.605536E+04
        11   1 -6.980858E+06 -9.941962E+05 -3.237884E+05 -2.648108E+06  2.040299E+05  7.749369E+04
        11   2 -6.983104E+06 -9.336604E+05 -5.541238E+05 -2.719599E+06  4.644466E+05  1.879962E+05
        11   3 -7.658573E+06 -1.801599E+06 -1.294959E+06 -2.265401E+06  7.295335E+05  2.862034E+05
        11   4 -6.937478E+06 -9.051820E+05 -2.968622E+05 -2.564464E+06  2.079503E+05  7.904232E+04
        11   5 -6.663854E+06 -8.500894E+05 -4.743560E+05 -2.670027E+06  4.652142E+05  1.882555E+05
        11   6 -7.062598E+06 -1.722460E+06 -1.159535E+06 -2.249891E+06  7.272802E+05  2.851093E+05
        11   7 -6.894085E+06 -8.161370E+05 -2.699337E+05 -2.480809E+06  2.118710E+05  8.059220E+04
        11   8 -6.344503E+06 -7.665216E+05 -3.945952E+05 -2.620437E+06  4.659821E+05  1.885149E+05
        11   9 -6.466237E+06 -1.643308E+06 -1.024120E+06 -2.234403E+06  7.250242E+05  2.840158E+05
        11  10 -6.980905E+06 -9.942140E+05 -3.238791E+05 -2.648121E+06 -1.671474E-09 -3.151666E-09
        11  11 -6.983347E+06 -9.337576E+05 -5.546018E+05 -2.719670E+06  1.200359E-08 -5.967888E-09
        11  12 -7.659173E+06 -1.801833E+06 -1.296129E+06 -2.265571E+06  6.327164E-09  1.374596E-10
        11  13 -6.937527E+06 -9.052006E+05 -2.969564E+05 -2.564477E+06 -8.841307E-09  1.322258E-09
        11  14 -6.664098E+06 -8.501869E+05 -4.748353E+05 -2.670098E+06  1.211443E-09 -4.709539E-09
        11  15 -7.063194E+06 -1.722693E+06 -1.160697E+06 -2.250059E+06 -9.881410E-10  3.862708E-09
        11  16 -6.894135E+06 -8.161563E+05 -2.700315E+05 -2.480823E+06 -3.716541E-09  1.210603E-09
        11  17 -6.344748E+06 -7.666193E+05 -3.950758E+05 -2.620508E+06 -7.028663E-09 -1.286017E-09
        11  18 -6.466829E+06 -1.643539E+06 -1.025273E+06 -2.234570E+06 -1.814002E-09 -4.610599E-10
        11  19 -6.980858E+06 -9.941962E+05 -3.237884E+05 -2.648108E+06 -2.040299E+05 -7.749369E+04
        11  20 -6.983104E+06 -9.336604E+05 -5.541238E+05 -2.719599E+06 -4.644466E+05 -1.879962E+05
        11  21 -7.658573E+06 -1.801599E+06 -1.294959E+06 -2.265401E+06 -7.295335E+05 -2.862034E+05
        11  22 -6.937478E+06 -9.051820E+05 -2.968622E+05 -2.564464E+06 -2.079503E+05 -7.904232E+04
        11  23 -6.663854E+06 -8.500894E+05 -4.743560E+05 -2.670027E+06 -4.652142E+05 -1.882555E+05
        11  24 -7.062598E+06 -1.722460E+06 -1.159535E+06 -2.249891E+06 -7.272802E+05 -2.851093E+05
        11  25 -6.894085E+06 -8.161370E+05 -2.699337E+05 -2.480809E+06 -2.118710E+05 -8.059220E+04
        11  26 -6.344503E+06 -7.665216E+05 -3.945952E+05 -2.620437E+06 -4.659821E+05 -1.885149E+05
        11  27 -6.466237E+06 -1.643308E+06 -1.024120E+06 -2.234403E+06 -7.250242E+05 -2.840158E+05
        12   1  8.165321E+04  7.556395E+05  9.712308E+04  5.411068E+02  2.018341E+03 -1.549749E+03
        12   2  7.799373E+04  7.524875E+05  9.980495E+04 -1.470154E+03  2.010310E+03 -1.139621E+04
        12   3  9.089202E+04  7.579791E+05  1.136770E+05  1.077913E+03  2.150117E+03 -2.124262E+04
        12   4  1.199944E+03  4.335095E+05  1.677147E+04  1.006855E+03  2.018403E+03 -1.541044E+03
        12   5 -2.752776E+03  4.291861E+05  1.915905E+04 -1.261643E+03  2.010378E+03 -1.139723E+04
        12   6  9.857989E+03  4.335097E+05  3.274721E+04  1.029338E+03  2.150232E+03 -2.125333E+04
        12   7 -7.926114E+04  1.114734E+05 -6.358796E+04  1.472369E+03  2.018465E+03 -1.532343E+03
        12   8 -8.350716E+04  1.059793E+05 -6.149471E+04 -1.053209E+03  2.010447E+03 -1.139824E+04
        12   9 -7.118397E+04  1.091357E+05 -4.819050E+04  9.808433E+02  2.150347E+03 -2.126404E+04
        12  10  8.165321E+04  7.556395E+05  9.712307E+04  5.411093E+02  3.045365E-10  1.509431E-09
        12  11  7.799369E+04  7.524874E+05  9.980470E+04 -1.470135E+03 -2.927857E-10  1.879085E-10
        12  12  9.089189E+04  7.579786E+05  1.136761E+05  1.077950E+03 -8.897482E-09  1.233236E-09
        12  13  1.199939E+03  4.335095E+05  1.677145E+04  1.006858E+03  2.578655E-09 -9.259913E-11
        12  14 -2.752815E+03  4.291859E+05  1.915880E+04 -1.261624E+03  5.988160E-09  3.376776E-10
        12  15  9.857863E+03  4.335092E+05  3.274635E+04  1.029375E+03 -3.570270E-09 -1.231185E-09
        12  16 -7.926114E+04  1.114734E+05 -6.358797E+04  1.472371E+03  3.013750E-10 -1.373252E-09
        12  17 -8.350720E+04  1.059792E+05 -6.149496E+04 -1.053191E+03 -4.982693E-10 -5.743617E-10
        12  18 -7.118409E+04  1.091352E+05 -4.819135E+04  9.808801E+02  9.003120E-10 -1.371325E-09
        12  19  8.165321E+04  7.556395E+05  9.712308E+04  5.411068E+02 -2.018341E+03  1.549749E+03
        12  20  7.799373E+04  7.524875E+05  9.980495E+04 -1.470154E+03 -2.010310E+03  1.139621E+04
        12  21  9.089202E+04  7.579791E+05  1.136770E+05  1.077913E+03 -2.150117E+03  2.124262E+04
        12  22  1.199944E+03  4.335095E+05  1.677147E+04  1.006855E+03 -2.018403E+03  1.541044E+03
        12  23 -2.752776E+03  4.291861E+05  1.915905E+04 -1.261643E+03 -2.010378E+03  1.139723E+04
        12  24  9.857989E+03  4.335097E+05  3.274721E+04  1.029338E+03 -2.150232E+03  2.125333E+04
        12  25 -7.926114E+04  1.114734E+05 -6.358796E+04  1.472369E+03 -2.018465E+03  1.532343E+03
        12  26 -8.350716E+04  1.059793E+05 -6.149471E+04 -1.053209E+03 -2.010447E+03  1.139824E+04
        12  27 -7.118397E+04  1.091357E+05 -4.819050E+04  9.808433E+02 -2.150347E+03  2.126404E+04
        13   1  9.210232E+04  8.146129E+05  1.335668E+05  1.803691E+02  2.337704E+03 -2.786403E+04
        13   2  7.926749E+04  8.021997E+05  1.560308E+05 -4.258091E+03  2.663252E+03 -6.021043E+04
        13   3  1.604783E+05  8.220742E+05  2.239655E+05  6.127083E+03  2.778797E+03 -9.255839E+04
        13   4 -1.786334E+03  4.387547E+05  3.980777E+04  3.184816E+03  2.337753E+03 -2.788450E+04
        13   5 -1.553135E+04  4.226056E+05  6.135237E+04 -4.051715E+03  2.663369E+03 -6.019345E+04
        13   6  6.479257E+04  4.387526E+05  1.283605E+05  3.535964E+03  2.779208E+03 -9.250376E+04
        13   7 -9.568560E+04  6.302448E+04 -5.396186E+04  6.187541E+03  2.337802E+03 -2.790496E+04
        13   8 -1.103410E+05  4.314189E+04 -3.333694E+04 -3.845328E+03  2.663485E+03 -6.017647E+04
        13   9 -3.090422E+04  5.556404E+04  3.274449E+04  9.466201E+02  2.779618E+03 -9.244914E+04
        13  10  9.210211E+04  8.146121E+05  1.335653E+05  1.804216E+02  2.270802E-09  1.238763E-09
        13  11  7.926652E+04  8.021958E+05  1.560240E+05 -4.257962E+03  8.950666E-09 -3.358278E-10
        13  12  1.604760E+05  8.220650E+05  2.239494E+05  6.127290E+03  8.610006E-09  2.232796E-09
        13  13 -1.786549E+03  4.387539E+05  3.980630E+04  3.184869E+03 -1.044333E-08 -7.942522E-10
        13  14 -1.553233E+04  4.226017E+05  6.134555E+04 -4.051586E+03 -1.355737E-08  1.082389E-09
        13  15  6.479027E+04  4.387434E+05  1.283445E+05  3.536171E+03  1.274560E-08 -2.835187E-09
        13  16 -9.568582E+04  6.302364E+04 -5.396333E+04  6.187593E+03  4.292267E-09  2.492827E-12
        13  17 -1.103420E+05  4.313800E+04 -3.334375E+04 -3.845199E+03 -8.457537E-09 -8.228897E-10
        13  18 -3.090652E+04  5.555486E+04  3.272842E+04  9.468270E+02 -3.179007E-09 -2.542498E-09
        13  19  9.210232E+04  8.146129E+05  1.335668E+05  1.803691E+02 -2.337704E+03  2.786403E+04
        13  20  7.926749E+04  8.021997E+05  1.560308E+05 -4.258091E+03 -2.663252E+03  6.021043E+04
        13  21  1.604783E+05  8.220742E+05  2.239655E+05  6.127083E+03 -2.778797E+03  9.255839E+04
        13  22 -1.786334E+03  4.387547E+05  3.980777E+04  3.184816E+03 -2.337753E+03  2.788450E+04
        13  23 -1.553135E+04  4.226056E+05  6.135237E+04 -4.051715E+03 -2.663369E+03  6.019345E+04
        13  24  6.479257E+04  4.387526E+05  1.283605E+05  3.535964E+03 -2.779208E+03  9.250376E+04
        13  25 -9.568560E+04  6.302448E+04 -5.396186E+04  6.187541E+03 -2.337802E+03  2.790496E+04
        13  26 -1.103410E+05  4.314189E+04 -3.333694E+04 -3.845328E+03 -2.663485E+03  6.017647E+04
        13  27 -3.090422E+04  5.556404E+04  3.274449E+04  9.466201E+02 -2.779618E+03  9.244914E+04
        14   1  1.102390E+05  9.650529E+05  2.782457E+05 -1.042443E+04  3.681095E+03 -1.181526E+05
        14   2  2.514258E+04  8.841541E+05  3.590530E+05 -3.881033E+03  5.516595E+03 -2.465994E+05
        14   3  5.466253E+05  9.798531E+05  6.767508E+05  3.429615E+04  4.724094E+03 -3.750642E+05
        14   4 -1.341513E+04  4.708120E+05  1.549328E+05  5.756159E+03  3.679591E+03 -1.183140E+05
        14   5 -1.000338E+05  3.824882E+05  2.339869E+05 -8.068701E+03  5.518194E+03 -2.464183E+05
        14   6  4.201230E+05  4.708303E+05  5.498290E+05  9.740251E+03  4.736234E+03 -3.745391E+05
        14   7 -1.370868E+05 -2.320725E+04  3.160157E+04  2.192422E+04  3.678077E+03 -1.184753E+05
        14   8 -2.252289E+05 -1.189496E+05  1.089020E+05 -1.225255E+04  5.519791E+03 -2.462373E+05
        14   9  2.936037E+05 -3.795621E+04  4.228882E+05 -1.479500E+04  4.748341E+03 -3.740142E+05
        14  10  1.102353E+05  9.650380E+05  2.782195E+05 -1.042408E+04  3.807065E-09  3.471106E-09
        14  11  2.512625E+04  8.840889E+05  3.589388E+05 -3.879938E+03 -7.143940E-09 -3.139594E-10
        14  12  5.465876E+05  9.797023E+05  6.764868E+05  3.429758E+04 -3.337362E-09  1.001770E-09
        14  13 -1.341890E+04  4.707970E+05  1.549065E+05  5.756510E+03  1.219329E-08 -1.622505E-09
        14  14 -1.000501E+05  3.824231E+05  2.338729E+05 -8.067606E+03  9.445408E-10  2.126520E-09
        14  15  4.200853E+05  4.706798E+05  5.495655E+05  9.741679E+03 -5.918295E-09 -4.974768E-09
        14  16 -1.370906E+05 -2.322233E+04  3.157517E+04  2.192457E+04  3.487109E-09 -8.934258E-10
        14  17 -2.252453E+05 -1.190147E+05  1.087880E+05 -1.225145E+04  1.624599E-10 -1.699254E-09
        14  18  2.935661E+05 -3.810639E+04  4.226252E+05 -1.479357E+04 -2.242681E-10 -1.613633E-09
        14  19  1.102390E+05  9.650529E+05  2.782457E+05 -1.042443E+04 -3.681095E+03  1.181526E+05
        14  20  2.514258E+04  8.841541E+05  3.590530E+05 -3.881033E+03 -5.516595E+03  2.465994E+05
        14  21  5.466253E+05  9.798531E+05  6.767508E+05  3.429615E+04 -4.724094E+03  3.750642E+05
        14  22 -1.341513E+04  4.708120E+05  1.549328E+05  5.756159E+03 -3.679591E+03  1.183140E+05
        14  23 -1.000338E+05  3.824882E+05  2.339869E+05 -8.068701E+03 -5.518194E+03  2.464183E+05
        14  24  4.201230E+05  4.708303E+05  5.498290E+05  9.740251E+03 -4.736234E+03  3.745391E+05
        14  25 -1.370868E+05 -2.320725E+04  3.160157E+04  2.192422E+04 -3.678077E+03  1.184753E+05
        14  26 -2.252289E+05 -1.189496E+05  1.089020E+05 -1.225255E+04 -5.519791E+03  2.462373E+05
        14  27  2.936037E+05 -3.795621E+04  4.228882E+05 -1.479500E+04 -4.748341E+03  3.740142E+05
        15   1  3.960625E+05  1.231684E+05  3.769884E+05 -7.125385E+02  6.116488E+04 -2.930762E+01
        15   2  3.950516E+05  1.185611E+05  3.759937E+05 -6.000615E+02  6.105616E+04 -3.075068E+02
        15   3  3.943887E+05  1.159604E+05  3.756736E+05 -2.689970E+03  6.070663E+04 -5.865246E+02
        15   4 -4.384334E+02 -1.481620E+06  3.660709E+02 -4.895663E+02  6.117564E+04 -3.644357E+01
        15   5 -5.554630E+02 -1.482608E+06  2.310764E+02  6.120578E+02  6.106674E+04 -1.639078E+02
        15   6 -3.523466E+02 -1.481617E+06  6.659384E+02 -4.890247E+02  6.071674E+04 -2.921902E+02
        15   7 -3.971231E+05 -3.084034E+06 -3.764327E+05 -2.670390E+02  6.118643E+04 -4.356104E+01
        15   8 -3.963454E+05 -3.081413E+06 -3.757073E+05  1.821620E+03  6.107734E+04 -2.067618E+01
        15   9 -3.952754E+05 -3.076842E+06 -3.745167E+05  1.707264E+03  6.072687E+04  1.392454E+00
        15  10  3.960585E+05  1.231674E+05  3.769813E+05 -7.125370E+02  1.651034E-10  3.195961E-10
        15  11  3.950476E+05  1.185601E+05  3.759867E+05 -6.000464E+02 -6.562784E-09 -1.995365E-09
        15  12  3.943847E+05  1.159594E+05  3.756666E+05 -2.689941E+03  9.730357E-10 -2.762837E-09
        15  13 -4.424493E+02 -1.481621E+06  3.590430E+02 -4.895645E+02  6.690465E-09  3.075067E-10
        15  14 -5.594647E+02 -1.482609E+06  2.240734E+02  6.120658E+02  6.370279E-09  1.037701E-11
        15  15 -3.563026E+02 -1.481618E+06  6.590154E+02 -4.890104E+02  5.710173E-09  1.216217E-09
        15  16 -3.971271E+05 -3.084035E+06 -3.764397E+05 -2.670368E+02  1.972251E-08 -6.880831E-11
        15  17 -3.963494E+05 -3.081414E+06 -3.757143E+05  1.821621E+03 -6.632863E-09  2.147256E-09
        15  18 -3.952794E+05 -3.076843E+06 -3.745236E+05  1.707264E+03  5.381127E-10  1.850904E-09
        15  19  3.960625E+05  1.231684E+05  3.769884E+05 -7.125385E+02 -6.116488E+04  2.930762E+01
        15  20  3.950516E+05  1.185611E+05  3.759937E+05 -6.000615E+02 -6.105616E+04  3.075068E+02
        15  21  3.943887E+05  1.159604E+05  3.756736E+05 -2.689970E+03 -6.070663E+04  5.865246E+02
        15  22 -4.384334E+02 -1.481620E+06  3.660709E+02 -4.895663E+02 -6.117564E+04  3.644357E+01
        15  23 -5.554630E+02 -1.482608E+06  2.310764E+02  6.120578E+02 -6.106674E+04  1.639078E+02
        15  24 -3.523466E+02 -1.481617E+06  6.659384E+02 -4.890247E+02 -6.071674E+04  2.921902E+02
        15  25 -3.971231E+05 -3.084034E+06 -3.764327E+05 -2.670390E+02 -6.118643E+04  4.356104E+01
        15  26 -3.963454E+05 -3.081413E+06 -3.757073E+05  1.821620E+03 -6.107734E+04  2.067618E+01
        15  27 -3.952754E+05 -3.076842E+06 -3.745167E+05  1.707264E+03 -6.072687E+04 -1.392454E+00
        16   1  3.923196E+05  1.082134E+05  3.738480E+05 -4.213587E+03  6.077454E+04 -1.615716E+02
        16   2  3.895059E+05  9.625079E+04  3.716915E+05 -1.672797E+03  6.014729E+04 -2.075948E+03
        16   3  3.881665E+05  8.669342E+04  3.715352E+05 -5.707264E+03  5.739321E+04 -3.999917E+03
        16   4 -4.701413E+02 -1.481568E+06  8.162880E+02 -1.461972E+03  6.078574E+04 -4.300425E+02
        16   5 -6.213012E+02 -1.482649E+06  1.120632E+03  1.827940E+03  6.015452E+04 -1.015046E+03
        16   6  4.708450E+02 -1.481558E+06  2.502854E+03 -1.458457E+03  5.739401E+04 -1.609680E+03
        16   7 -3.934401E+05 -3.069018E+06 -3.723886E+05  1.283848E+03  6.079697E+04 -6.978285E+02
        16   8 -3.909262E+05 -3.059251E+06 -3.696211E+05  5.321426E+03  6.016176E+04  4.317737E+01
        16   9 -3.874006E+05 -3.047544E+06 -3.666988E+05  2.781677E+03  5.739484E+04  7.745591E+02
        16  10  3.923156E+05  1.082124E+05  3.738410E+05 -4.213579E+03  1.954333E-09  6.970281E-09
        16  11  3.895020E+05  9.624981E+04  3.716847E+05 -1.672697E+03  1.400729E-08 -6.288898E-09
        16  12  3.881629E+05  8.669252E+04  3.715290E+05 -5.707079E+03  1.277250E-09 -1.063528E-08
        16  13 -4.741062E+02 -1.481569E+06  8.093490E+02 -1.461951E+03  2.418318E-09  2.349920E-09
        16  14 -6.251845E+02 -1.482650E+06  1.113835E+03  1.827989E+03 -5.256418E-09  1.603555E-10
        16  15  4.673095E+02 -1.481559E+06  2.496663E+03 -1.458382E+03 -1.627095E-09  2.967100E-09
        16  16 -3.934440E+05 -3.069019E+06 -3.723955E+05  1.283882E+03 -2.101826E-09 -5.018599E-09
        16  17 -3.909301E+05 -3.059252E+06 -3.696279E+05  5.321424E+03 -1.767601E-08  6.674446E-09
        16  18 -3.874041E+05 -3.047545E+06 -3.667050E+05  2.781641E+03  3.126571E-09  8.696316E-09
        16  19  3.923196E+05  1.082134E+05  3.738480E+05 -4.213587E+03 -6.077454E+04  1.615716E+02
        16  20  3.895059E+05  9.625079E+04  3.716915E+05 -1.672797E+03 -6.014729E+04  2.075948E+03
        16  21  3.881665E+05  8.669342E+04  3.715352E+05 -5.707264E+03 -5.739321E+04  3.999917E+03
        16  22 -4.701413E+02 -1.481568E+06  8.162880E+02 -1.461972E+03 -6.078574E+04  4.300425E+02
        16  23 -6.213012E+02 -1.482649E+06  1.120632E+03  1.827940E+03 -6.015452E+04  1.015046E+03
        16  24  4.708450E+02 -1.481558E+06  2.502854E+03 -1.458457E+03 -5.739401E+04  1.609680E+03
        16  25 -3.934401E+05 -3.069018E+06 -3.723886E+05  1.283848E+03 -6.079697E+04  6.978285E+02
        16  26 -3.909262E+05 -3.059251E+06 -3.696211E+05  5.321426E+03 -6.016176E+04 -4.317737E+01
        16  27 -3.874006E+05 -3.047544E+06 -3.666988E+05  2.781677E+03 -5.739484E+04 -7.745591E+02
        17   1  3.826980E+05  7.215831E+04  3.666281E+05 -8.907130E+03  6.148643E+04  6.195513E+03
        17   2  3.776137E+05  5.046011E+04  3.652009E+05 -1.320049E+03  5.735190E+04 -1.822068E+04
        17   3  3.877481E+05  3.733004E+04  3.838077E+05 -5.562289E+03  1.824604E+04 -4.284291E+04
        17   4 -9.025035E+02 -1.480968E+06  3.051678E+03 -2.644078E+03  6.153190E+04 -2.067956E+03
        17   5 -1.486167E+03 -1.483347E+06  4.728646E+03  3.299369E+03  5.729406E+04 -4.644400E+03
        17   6  9.371115E+03 -1.480947E+06  1.127518E+04 -2.589387E+03  1.804641E+04 -7.427698E+03
        17   7 -3.846745E+05 -3.031869E+06 -3.606891E+05  3.605533E+03  6.157727E+04 -1.031088E+04
        17   8 -3.807539E+05 -3.014986E+06 -3.559045E+05  7.909964E+03  5.723636E+04  8.898548E+03
        17   9 -3.691765E+05 -2.997119E+06 -3.614221E+05  3.792154E+02  1.784687E+04  2.790107E+04
        17  10  3.826939E+05  7.215726E+04  3.666209E+05 -8.907437E+03  1.076648E-09  5.573647E-09
        17  11  3.776101E+05  5.045887E+04  3.651941E+05 -1.319208E+03  3.860098E-09 -6.925364E-09
        17  12  3.877472E+05  3.732798E+04  3.838037E+05 -5.561660E+03 -6.928014E-09 -1.234034E-08
        17  13 -9.065675E+02 -1.480969E+06  3.044560E+03 -2.643975E+03  5.288393E-09  4.670215E-09
        17  14 -1.489695E+03 -1.483348E+06  4.722441E+03  3.299583E+03 -6.552698E-09  3.161423E-11
        17  15  9.370751E+03 -1.480947E+06  1.127447E+04 -2.589279E+03 -5.737959E-09  4.338016E-09
        17  16 -3.846786E+05 -3.031870E+06 -3.606964E+05  3.606045E+03  2.853691E-09 -2.068617E-09
        17  17 -3.807574E+05 -3.014987E+06 -3.559108E+05  7.909553E+03  2.968396E-09  7.709040E-09
        17  18 -3.691770E+05 -2.997120E+06 -3.614242E+05  3.788138E+02 -5.165309E-09  9.455293E-09
        17  19  3.826980E+05  7.215831E+04  3.666281E+05 -8.907130E+03 -6.148643E+04 -6.195513E+03
        17  20  3.776137E+05  5.046011E+04  3.652009E+05 -1.320049E+03 -5.735190E+04  1.822068E+04
        17  21  3.877481E+05  3.733004E+04  3.838077E+05 -5.562289E+03 -1.824604E+04  4.284291E+04
        17  22 -9.025035E+02 -1.480968E+06  3.051678E+03 -2.644078E+03 -6.153190E+04  2.067956E+03
        17  23 -1.486167E+03 -1.483347E+06  4.728646E+03  3.299369E+03 -5.729406E+04  4.644400E+03
        17  24  9.371115E+03 -1.480947E+06  1.127518E+04 -2.589387E+03 -1.804641E+04  7.427698E+03
        17  25 -3.846745E+05 -3.031869E+06 -3.606891E+05  3.605533E+03 -6.157727E+04  1.031088E+04
        17  26 -3.807539E+05 -3.014986E+06 -3.559045E+05  7.909964E+03 -5.723636E+04 -8.898548E+03
        17  27 -3.691765E+05 -2.997119E+06 -3.614221E+05  3.792154E+02 -1.784687E+04 -2.790107E+04
        18   1  6.815880E+04  8.271309E+05  3.828627E+04 -2.355669E+00  2.392360E+04 -3.274634E-02
        18   2  6.816250E+04  8.271478E+05  3.829254E+04 -1.423490E+01  2.392445E+04 -5.391637E+00
        18   3  6.816678E+04  8.271705E+05  3.830402E+04 -2.403103E+01  2.392613E+04 -1.075039E+01
        18   4 -1.895477E+01  5.242757E+05  1.283275E+01  4.630679E-01  2.392484E+04 -1.050779E+00
        18   5 -1.998562E+01  5.242727E+05  1.543825E+01 -5.783943E-01  2.392568E+04 -8.422878E+00
        18   6 -2.008247E+01  5.242757E+05  2.464710E+01  4.636604E-01  2.392736E+04 -1.579486E+01
        18   7 -6.820044E+04  2.215147E+05 -3.826089E+04  3.280617E+00  2.392607E+04 -2.068341E+00
        18   8 -6.820620E+04  2.214917E+05 -3.826196E+04  1.307225E+01  2.392691E+04 -1.145271E+01
        18   9 -6.821068E+04  2.214751E+05 -3.825502E+04  2.494782E+01  2.392860E+04 -2.083700E+01
        18  10  6.815819E+04  8.271307E+05  3.828519E+04 -2.355669E+00 -9.090125E-09 -1.110940E-07
        18  11  6.816188E+04  8.271476E+05  3.829147E+04 -1.423479E+01 -4.030485E-09 -6.596440E-09
        18  12  6.816616E+04  8.271703E+05  3.830295E+04 -2.403082E+01 -5.448216E-11  9.661283E-08
        18  13 -1.956957E+01  5.242756E+05  1.175684E+01  4.630882E-01  1.128659E-08  3.762703E-11
        18  14 -2.060047E+01  5.242725E+05  1.436227E+01 -5.782321E-01  9.965891E-09 -1.158961E-10
        18  15 -2.069741E+01  5.242756E+05  2.357096E+01  4.639645E-01  1.045163E-08  1.403326E-10
        18  16 -6.820106E+04  2.215145E+05 -3.826197E+04  3.280657E+00 -6.959086E-09  1.110469E-07
        18  17 -6.820682E+04  2.214915E+05 -3.826303E+04  1.307247E+01 -4.177629E-09  6.541627E-09
        18  18 -6.821129E+04  2.214749E+05 -3.825610E+04  2.494822E+01  3.411384E-09 -9.656489E-08
        18  19  6.815880E+04  8.271309E+05  3.828627E+04 -2.355669E+00 -2.392360E+04  3.274612E-02
        18  20  6.816250E+04  8.271478E+05  3.829254E+04 -1.423490E+01 -2.392445E+04  5.391637E+00
        18  21  6.816678E+04  8.271705E+05  3.830402E+04 -2.403103E+01 -2.392613E+04  1.075039E+01
        18  22 -1.895477E+01  5.242757E+05  1.283275E+01  4.630681E-01 -2.392484E+04  1.050779E+00
        18  23 -1.998562E+01  5.242727E+05  1.543825E+01 -5.783943E-01 -2.392568E+04  8.422878E+00
        18  24 -2.008247E+01  5.242757E+05  2.464710E+01  4.636600E-01 -2.392736E+04  1.579486E+01
        18  25 -6.820044E+04  2.215147E+05 -3.826089E+04  3.280618E+00 -2.392607E+04  2.068341E+00
        18  26 -6.820620E+04  2.214917E+05 -3.826196E+04  1.307225E+01 -2.392691E+04  1.145271E+01
        18  27 -6.821068E+04  2.214751E+05 -3.825502E+04  2.494782E+01 -2.392860E+04  2.083700E+01
        19   1  6.817182E+04  8.271954E+05  3.831474E+04 -2.858305E+01  2.392766E+04 -1.373967E+01
        19   2  6.818305E+04  8.272500E+05  3.834725E+04 -4.657911E+01  2.393013E+04 -4.188827E+01
        19   3  6.819609E+04  8.273136E+05  3.840009E+04 -5.520874E+01  2.393175E+04 -7.003648E+01
        19   4 -2.064536E+01  5.242763E+05  3.166814E+01  2.082219E+00  2.392889E+04 -2.068716E+01
        19   5 -2.337531E+01  5.242719E+05  5.330520E+01 -2.601056E+00  2.393136E+04 -4.677418E+01
        19   6 -2.465964E+01  5.242763E+05  9.385168E+01  2.082361E+00  2.393298E+04 -7.286080E+01
        19   7 -6.821685E+04  2.214513E+05 -3.825170E+04  3.273431E+01  2.393012E+04 -2.763143E+01
        19   8 -6.823354E+04  2.213880E+05 -3.824093E+04  4.135788E+01  2.393260E+04 -5.165782E+01
        19   9 -6.824914E+04  2.213331E+05 -3.821268E+04  5.934840E+01  2.393421E+04 -7.568381E+01
        19  10  6.817121E+04  8.271952E+05  3.831367E+04 -2.858278E+01  4.548611E-09  8.663933E-08
        19  11  6.818244E+04  8.272498E+05  3.834617E+04 -4.657831E+01  8.489175E-09  2.475644E-09
        19  12  6.819547E+04  8.273135E+05  3.839902E+04 -5.520739E+01  4.012562E-09 -8.067560E-08
        19  13 -2.126038E+01  5.242761E+05  3.059187E+01  2.082618E+00  3.409076E-09  6.077331E-11
        19  14 -2.399045E+01  5.242718E+05  5.222869E+01 -2.600155E+00  4.194576E-09 -3.662673E-10
        19  15 -2.527486E+01  5.242761E+05  9.277503E+01  2.083765E+00 -1.133067E-09  2.430971E-10
        19  16 -6.821746E+04  2.214512E+05 -3.825277E+04  3.273484E+01  2.405386E-10 -8.679120E-08
        19  17 -6.823416E+04  2.213879E+05 -3.824201E+04  4.135887E+01 -4.560310E-09 -2.615897E-09
        19  18 -6.824976E+04  2.213329E+05 -3.821376E+04  5.934986E+01 -2.163883E-09  8.070852E-08
        19  19  6.817182E+04  8.271954E+05  3.831474E+04 -2.858305E+01 -2.392766E+04  1.373967E+01
        19  20  6.818305E+04  8.272500E+05  3.834725E+04 -4.657911E+01 -2.393013E+04  4.188827E+01
        19  21  6.819609E+04  8.273136E+05  3.840009E+04 -5.520874E+01 -2.393175E+04  7.003648E+01
        19  22 -2.064536E+01  5.242763E+05  3.166814E+01  2.082219E+00 -2.392889E+04  2.068716E+01
        19  23 -2.337531E+01  5.242719E+05  5.330520E+01 -2.601056E+00 -2.393136E+04  4.677418E+01
        19  24 -2.465964E+01  5.242763E+05  9.385168E+01  2.082361E+00 -2.393298E+04  7.286080E+01
        19  25 -6.821685E+04  2.214513E+05 -3.825170E+04  3.273431E+01 -2.393012E+04  2.763143E+01
        19  26 -6.823354E+04  2.213880E+05 -3.824093E+04  4.135788E+01 -2.393260E+04  5.165782E+01
        19  27 -6.824914E+04  2.213331E+05 -3.821268E+04  5.934840E+01 -2.393421E+04  7.568381E+01
        20   1  6.820659E+04  8.273663E+05  3.844037E+04 -6.288913E+01  2.393309E+04 -8.859089E+01
        20   2  6.822845E+04  8.274512E+05  3.856393E+04 -8.768482E+01  2.392787E+04 -2.276025E+02
        20   3  6.826732E+04  8.275633E+05  3.878373E+04 -9.678304E+01  2.390905E+04 -3.666159E+02
        20   4 -2.617851E+01  5.242791E+05  1.237877E+02  3.488527E+00  2.393432E+04 -9.229664E+01
        20   5 -2.988330E+01  5.242683E+05  2.152262E+02 -4.359574E+00  2.392910E+04 -1.985695E+02
        20   6 -2.224320E+01  5.242791E+05  3.802217E+02  3.489774E+00  2.391026E+04 -3.048446E+02
        20   7 -6.826268E+04  2.212862E+05 -3.819309E+04  6.983697E+01  2.393556E+04 -9.600065E+01
        20   8 -6.829196E+04  2.211797E+05 -3.813377E+04  7.892866E+01  2.393032E+04 -1.695499E+02
        20   9 -6.831556E+04  2.210892E+05 -3.802360E+04  1.037178E+02  2.391148E+04 -2.431019E+02
        20  10  6.820597E+04  8.273661E+05  3.843929E+04 -6.288742E+01 -2.861996E-09  9.431420E-08
        20  11  6.822783E+04  8.274510E+05  3.856285E+04 -8.768044E+01 -6.841351E-10 -1.175395E-08
        20  12  6.826671E+04  8.275632E+05  3.878266E+04 -9.677598E+01  3.432866E-09 -1.162431E-07
        20  13 -2.679380E+01  5.242790E+05  1.227109E+02  3.490306E+00 -7.197994E-09  2.467783E-10
        20  14 -3.049834E+01  5.242681E+05  2.141499E+02 -4.355748E+00 -6.051813E-09 -5.237724E-10
        20  15 -2.285728E+01  5.242789E+05  3.791469E+02  3.495644E+00 -1.424083E-08  3.742667E-10
        20  16 -6.826330E+04  2.212861E+05 -3.819417E+04  6.983882E+01 -8.201360E-09 -9.460108E-08
        20  17 -6.829257E+04  2.211796E+05 -3.813485E+04  7.893192E+01 -2.964105E-09  1.159167E-08
        20  18 -6.831617E+04  2.210890E+05 -3.802467E+04  1.037224E+02 -6.543702E-09  1.163688E-07
        20  19  6.820659E+04  8.273663E+05  3.844037E+04 -6.288913E+01 -2.393309E+04  8.859089E+01
        20  20  6.822845E+04  8.274512E+05  3.856393E+04 -8.768482E+01 -2.392787E+04  2.276025E+02
        20  21  6.826732E+04  8.275633E+05  3.878373E+04 -9.678304E+01 -2.390905E+04  3.666159E+02
        20  22 -2.617851E+01  5.242791E+05  1.237877E+02  3.488527E+00 -2.393432E+04  9.229664E+01
        20  23 -2.988330E+01  5.242683E+05  2.152262E+02 -4.359574E+00 -2.392910E+04  1.985695E+02
        20  24 -2.224320E+01  5.242791E+05  3.802217E+02  3.489775E+00 -2.391026E+04  3.048446E+02
        20  25 -6.826268E+04  2.212862E+05 -3.819309E+04  6.983697E+01 -2.393556E+04  9.600065E+01
        20  26 -6.829196E+04  2.211797E+05 -3.813377E+04  7.892866E+01 -2.393032E+04  1.695499E+02
        20  27 -6.831556E+04  2.210892E+05 -3.802360E+04  1.037178E+02 -2.391148E+04  2.431019E+02
        21   1 -3.985206E+05  1.738152E+05  2.949865E+05 -3.880028E+03  3.496698E+05  5.457116E+03
        21   2 -4.720198E+05 -3.103829E+05  1.868438E+03  1.624108E+04  2.306074E+05  7.796186E+03
        21   3 -3.631603E+05 -2.241926E+05 -6.617448E+04 -3.567826E+04  1.115763E+05  5.209831E+03
        21   4  4.847901E+05  3.940449E+05  5.155220E+05 -2.403663E+04  3.505766E+05  5.450458E+03
        21   5  3.936073E+05 -9.410142E+04  2.178668E+05  1.381195E+04  2.308913E+05  7.795008E+03
        21   6  4.846922E+05 -1.216152E+04  1.454979E+05 -2.037413E+04  1.112408E+05  5.210492E+03
        21   7  1.368810E+06  6.142179E+05  7.359991E+05 -4.422354E+04  3.514845E+05  5.443751E+03
        21   8  1.259914E+06  1.221236E+05  4.338088E+05  1.137832E+04  2.311755E+05  7.793829E+03
        21   9  1.333197E+06  1.998161E+05  3.571162E+05 -5.049690E+03  1.109047E+05  5.211133E+03
        21  10 -3.986519E+05  1.737823E+05  2.947565E+05 -3.881564E+03 -2.472753E-11  1.103066E-10
        21  11 -4.720769E+05 -3.103972E+05  1.768328E+03  1.623963E+04  5.208648E-09 -1.391538E-10
        21  12 -3.631737E+05 -2.241960E+05 -6.619793E+04 -3.567873E+04  2.080025E-09 -1.060954E-09
        21  13  4.846583E+05  3.940119E+05  5.152911E+05 -2.403817E+04 -4.343282E-09 -5.852304E-11
        21  14  3.935501E+05 -9.411578E+04  2.177666E+05  1.381050E+04 -6.901824E-09  1.230411E-10
        21  15  4.846790E+05 -1.216487E+04  1.454746E+05 -2.037460E+04 -1.682358E-09 -2.335088E-11
        21  16  1.368677E+06  6.141848E+05  7.357673E+05 -4.422508E+04 -5.194296E-09 -2.017654E-10
        21  17  1.259857E+06  1.221093E+05  4.337085E+05  1.137687E+04 -2.243753E-08 -9.363901E-11
        21  18  1.333184E+06  1.998128E+05  3.570930E+05 -5.050156E+03 -9.244637E-11  5.574351E-10
        21  19 -3.985206E+05  1.738152E+05  2.949865E+05 -3.880028E+03 -3.496698E+05 -5.457116E+03
        21  20 -4.720198E+05 -3.103829E+05  1.868438E+03  1.624108E+04 -2.306074E+05 -7.796186E+03
        21  21 -3.631603E+05 -2.241926E+05 -6.617448E+04 -3.567826E+04 -1.115763E+05 -5.209831E+03
        21  22  4.847901E+05  3.940449E+05  5.155220E+05 -2.403663E+04 -3.505766E+05 -5.450458E+03
        21  23  3.936073E+05 -9.410142E+04  2.178668E+05  1.381195E+04 -2.308913E+05 -7.795008E+03
        21  24  4.846922E+05 -1.216152E+04  1.454979E+05 -2.037413E+04 -1.112408E+05 -5.210492E+03
        21  25  1.368810E+06  6.142179E+05  7.359991E+05 -4.422354E+04 -3.514845E+05 -5.443751E+03
        21  26  1.259914E+06  1.221236E+05  4.338088E+05  1.137832E+04 -2.311755E+05 -7.793829E+03
        21  27  1.333197E+06  1.998161E+05  3.571162E+05 -5.049690E+03 -1.109047E+05 -5.211133E+03
        22   1 -8.791808E+04 -7.469966E+04 -1.496092E+04 -1.326824E+04  8.688298E+04  3.638499E+03
        22   2 -9.313523E+04 -1.464077E+05 -7.538159E+04  8.149158E+03  5.718324E+04  3.443161E+03
        22   3 -6.390976E+04 -1.304758E+05 -9.281188E+04 -1.756952E+04  2.748264E+04  2.711988E+03
        22   4  4.519837E+05  6.018570E+04  1.197664E+05 -1.605921E+04  8.694852E+04  3.637944E+03
        22   5  4.347481E+05 -1.450152E+04  5.635227E+04  7.581483E+03  5.717455E+04  3.442890E+03
        22   6  4.519500E+05 -1.573093E+03  3.595514E+04 -1.591137E+04  2.740029E+04  2.712002E+03
        22   7  9.921496E+05  1.950491E+05  2.544719E+05 -1.885278E+04  8.701410E+04  3.637390E+03
        22   8  9.628839E+05  1.173836E+05  1.880652E+05  7.013271E+03  5.716583E+04  3.442619E+03
        22   9  9.680509E+05  1.273095E+05  1.647021E+05 -1.425178E+04  2.731786E+04  2.712017E+03
        22  10 -8.792619E+04 -7.470170E+04 -1.497513E+04 -1.326849E+04  2.092918E-09 -5.579325E-10
        22  11 -9.313874E+04 -1.464086E+05 -7.538776E+04  8.149000E+03  1.164902E-09  4.991618E-10
        22  12 -6.391057E+04 -1.304760E+05 -9.281332E+04 -1.756958E+04  1.685523E-11 -6.081197E-10
        22  13  4.519756E+05  6.018366E+04  1.197522E+05 -1.605947E+04 -8.629601E-09  1.749819E-10
        22  14  4.347446E+05 -1.450241E+04  5.634611E+04  7.581325E+03 -8.015760E-11  5.631036E-10
        22  15  4.519492E+05 -1.573302E+03  3.595371E+04 -1.591143E+04 -1.590734E-09  6.879500E-10
        22  16  9.921415E+05  1.950471E+05  2.544576E+05 -1.885303E+04 -8.221827E-09  9.251445E-10
        22  17  9.628804E+05  1.173828E+05  1.880590E+05  7.013112E+03 -4.427174E-09 -1.917815E-10
        22  18  9.680501E+05  1.273093E+05  1.647007E+05 -1.425184E+04  2.992922E-09  9.467644E-10
        22  19 -8.791808E+04 -7.469966E+04 -1.496092E+04 -1.326824E+04 -8.688298E+04 -3.638499E+03
        22  20 -9.313523E+04 -1.464077E+05 -7.538159E+04  8.149158E+03 -5.718324E+04 -3.443161E+03
        22  21 -6.390976E+04 -1.304758E+05 -9.281188E+04 -1.756952E+04 -2.748264E+04 -2.711988E+03
        22  22  4.519837E+05  6.018570E+04  1.197664E+05 -1.605921E+04 -8.694852E+04 -3.637944E+03
        22  23  4.347481E+05 -1.450152E+04  5.635227E+04  7.581483E+03 -5.717455E+04 -3.442890E+03
        22  24  4.519500E+05 -1.573093E+03  3.595514E+04 -1.591137E+04 -2.740029E+04 -2.712002E+03
        22  25  9.921496E+05  1.950491E+05  2.544719E+05 -1.885278E+04 -8.701410E+04 -3.637390E+03
        22  26  9.628839E+05  1.173836E+05  1.880652E+05  7.013271E+03 -5.716583E+04 -3.442619E+03
        22  27  9.680509E+05  1.273095E+05  1.647021E+05 -1.425178E+04 -2.731786E+04 -2.712017E+03
        23   1  1.528229E+05 -6.420299E+04 -4.453537E+04 -1.241580E+04  2.152267E+04  2.235201E+03
        23   2  1.585145E+05 -7.317884E+04 -5.629113E+04  4.912539E+03  1.400695E+04  1.730124E+03
        23   3  1.707932E+05 -6.876812E+04 -5.935509E+04 -1.289307E+04  6.490475E+03  1.282392E+03
        23   4  4.458236E+05  8.998057E+03  2.854949E+04 -1.327327E+04  2.147716E+04  2.235188E+03
        23   5  4.425229E+05 -2.219098E+03  1.457812E+04  4.286003E+03  1.396381E+04  1.730177E+03
        23   6  4.458076E+05 -5.293859E+01  9.294291E+03 -1.328767E+04  6.449830E+03  1.282496E+03
        23   7  7.389021E+05  8.219264E+04  1.016279E+05 -1.413111E+04  2.143162E+04  2.235175E+03
        23   8  7.266044E+05  6.873457E+04  8.544129E+04  3.659225E+03  1.392066E+04  1.730230E+03
        23   9  7.208904E+05  6.865654E+04  7.793798E+04 -1.368238E+04  6.409166E+03  1.282599E+03
        23  10  1.528224E+05 -6.420312E+04 -4.453625E+04 -1.241584E+04 -2.122468E-09 -1.312111E-09
        23  11  1.585143E+05 -7.317890E+04 -5.629150E+04  4.912520E+03 -1.864039E-08  6.641074E-11
        23  12  1.707931E+05 -6.876813E+04 -5.935518E+04 -1.289308E+04 -6.992800E-09 -5.197688E-11
        23  13  4.458231E+05  8.997928E+03  2.854861E+04 -1.327331E+04 -1.752355E-11  5.737980E-10
        23  14  4.425227E+05 -2.219153E+03  1.457775E+04  4.285984E+03 -6.298750E-09  9.988780E-11
        23  15  4.458075E+05 -5.295151E+01  9.294209E+03 -1.328768E+04  7.880559E-11 -4.323539E-10
        23  16  7.389016E+05  8.219251E+04  1.016270E+05 -1.413115E+04  1.883756E-09  9.494385E-10
        23  17  7.266042E+05  6.873452E+04  8.544093E+04  3.659206E+03 -2.889804E-09  5.701655E-10
        23  18  7.208904E+05  6.865653E+04  7.793790E+04 -1.368239E+04 -2.581438E-09  1.028909E-10
        23  19  1.528229E+05 -6.420299E+04 -4.453537E+04 -1.241580E+04 -2.152267E+04 -2.235201E+03
        23  20  1.585145E+05 -7.317884E+04 -5.629113E+04  4.912539E+03 -1.400695E+04 -1.730124E+03
        23  21  1.707932E+05 -6.876812E+04 -5.935509E+04 -1.289307E+04 -6.490475E+03 -1.282392E+03
        23  22  4.458236E+05  8.998057E+03  2.854949E+04 -1.327327E+04 -2.147716E+04 -2.235188E+03
        23  23  4.425229E+05 -2.219098E+03  1.457812E+04  4.286003E+03 -1.396381E+04 -1.730177E+03
        23  24  4.458076E+05 -5.293859E+01  9.294291E+03 -1.328767E+04 -6.449830E+03 -1.282496E+03
        23  25  7.389021E+05  8.219264E+04  1.016279E+05 -1.413111E+04 -2.143162E+04 -2.235175E+03
        23  26  7.266044E+05  6.873457E+04  8.544129E+04  3.659225E+03 -1.392066E+04 -1.730230E+03
        23  27  7.208904E+05  6.865654E+04  7.793798E+04 -1.368238E+04 -6.409166E+03 -1.282599E+03
        24   1  3.459729E+05 -2.329199E+04 -1.717767E+04 -1.173411E+04  4.965238E+03  1.014286E+03
        24   2  3.531441E+05 -2.311244E+04 -1.807814E+04  3.059690E+03  2.627904E+03  5.498146E+02
        24   3  3.611691E+05 -2.056997E+04 -1.687601E+04 -1.186344E+04  2.904098E+02  1.315788E+02
        24   4  4.445575E+05  1.332450E+03  7.393562E+03 -1.207546E+04  4.918099E+03  1.014450E+03
        24   5  4.441286E+05 -3.818067E+02  4.623302E+03  2.780957E+03  2.584882E+03  5.499804E+02
        24   6  4.445528E+05  2.659470E+02  3.952532E+03 -1.207928E+04  2.515334E+02  1.317438E+02
        24   7  5.431508E+05  2.595616E+04  3.196407E+04 -1.241685E+04  4.870953E+03  1.014614E+03
        24   8  5.351207E+05  2.234821E+04  2.732412E+04  2.502192E+03  2.541854E+03  5.501461E+02
        24   9  5.279427E+05  2.110134E+04  2.478055E+04 -1.229515E+04  2.126517E+02  1.319087E+02
        24  10  3.459729E+05 -2.329200E+04 -1.717772E+04 -1.173411E+04 -1.099605E-08  2.362784E-10
        24  11  3.531441E+05 -2.311245E+04 -1.807815E+04  3.059688E+03 -1.016021E-08  1.037452E-09
        24  12  3.611691E+05 -2.056997E+04 -1.687601E+04 -1.186344E+04  4.969735E-09 -1.466370E-10
        24  13  4.445574E+05  1.332443E+03  7.393515E+03 -1.207546E+04 -1.290557E-08 -3.182219E-10
        24  14  4.441286E+05 -3.818088E+02  4.623289E+03  2.780956E+03 -1.900132E-09  2.031620E-09
        24  15  4.445528E+05  2.659470E+02  3.952532E+03 -1.207928E+04  4.926340E-09  9.657673E-10
        24  16  5.431508E+05  2.595616E+04  3.196402E+04 -1.241686E+04  4.048191E-09  2.393511E-10
        24  17  5.351207E+05  2.234820E+04  2.732411E+04  2.502191E+03  4.843999E-09  4.875774E-10
        24  18  5.279427E+05  2.110134E+04  2.478055E+04 -1.229515E+04 -2.400917E-09  5.864207E-10
        24  19  3.459729E+05 -2.329199E+04 -1.717767E+04 -1.173411E+04 -4.965238E+03 -1.014286E+03
        24  20  3.531441E+05 -2.311244E+04 -1.807814E+04  3.059690E+03 -2.627904E+03 -5.498146E+02
        24  21  3.611691E+05 -2.056997E+04 -1.687601E+04 -1.186344E+04 -2.904098E+02 -1.315788E+02
        24  22  4.445575E+05  1.332450E+03  7.393562E+03 -1.207546E+04 -4.918099E+03 -1.014450E+03
        24  23  4.441286E+05 -3.818067E+02  4.623302E+03  2.780957E+03 -2.584882E+03 -5.499804E+02
        24  24  4.445528E+05  2.659470E+02  3.952532E+03 -1.207928E+04 -2.515334E+02 -1.317438E+02
        24  25  5.431508E+05  2.595616E+04  3.196407E+04 -1.241685E+04 -4.870953E+03 -1.014614E+03
        24  26  5.351207E+05  2.234821E+04  2.732412E+04  2.502192E+03 -2.541854E+03 -5.501461E+02
        24  27  5.279427E+05  2.110134E+04  2.478055E+04 -1.229515E+04 -2.126517E+02 -1.319087E+02
        25   1  5.227113E+05  1.977094E+04  2.350828E+04 -1.225828E+04 -4.334017E+02 -9.806518E+01
        25   2  5.298628E+05  2.101444E+04  2.621588E+04  2.494154E+03 -2.865108E+03 -5.166077E+02
        25   3  5.378836E+05  2.475157E+04  3.111385E+04 -1.239270E+04 -5.296751E+03 -9.778331E+02
        25   4  4.445569E+05  2.433617E+02  3.986328E+03 -1.206237E+04 -4.725066E+02 -9.789874E+01
        25   5  4.441240E+05 -4.033864E+02  4.825595E+03  2.759599E+03 -2.908023E+03 -5.164409E+02
        25   6  4.445612E+05  1.444327E+03  7.858078E+03 -1.205798E+04 -5.343447E+03 -9.776687E+02
        25   7  3.664080E+05 -1.928468E+04 -1.553608E+04 -1.186647E+04 -5.116066E+02 -9.773233E+01
        25   8  3.583919E+05 -2.182177E+04 -1.656525E+04  3.025014E+03 -2.950932E+03 -5.162742E+02
        25   9  3.512466E+05 -2.186357E+04 -1.539835E+04 -1.172330E+04 -5.390136E+03 -9.775042E+02
        25  10  5.227113E+05  1.977094E+04  2.350828E+04 -1.225828E+04  2.008748E-09 -3.218893E-10
        25  11  5.298628E+05  2.101444E+04  2.621587E+04  2.494153E+03 -3.739304E-09 -4.418861E-11
        25  12  5.378836E+05  2.475156E+04  3.111380E+04 -1.239271E+04 -7.036963E-09  8.240463E-11
        25  13  4.445569E+05  2.433616E+02  3.986328E+03 -1.206237E+04  8.581028E-09  1.106979E-09
        25  14  4.441240E+05 -4.033890E+02  4.825579E+03  2.759598E+03 -6.209461E-09  7.219409E-10
        25  15  4.445612E+05  1.444318E+03  7.858023E+03 -1.205799E+04  2.639645E-11  4.743133E-10
        25  16  3.664080E+05 -1.928468E+04 -1.553608E+04 -1.186647E+04 -4.046991E-10  1.070362E-10
        25  17  3.583919E+05 -2.182177E+04 -1.656526E+04  3.025013E+03  4.821497E-09  5.325473E-10
        25  18  3.512466E+05 -2.186358E+04 -1.539840E+04 -1.172331E+04  4.195775E-09 -9.162940E-10
        25  19  5.227113E+05  1.977094E+04  2.350828E+04 -1.225828E+04  4.334017E+02  9.806518E+01
        25  20  5.298628E+05  2.101444E+04  2.621588E+04  2.494154E+03  2.865108E+03  5.166077E+02
        25  21  5.378836E+05  2.475157E+04  3.111385E+04 -1.239270E+04  5.296751E+03  9.778331E+02
        25  22  4.445569E+05  2.433617E+02  3.986328E+03 -1.206237E+04  4.725066E+02  9.789874E+01
        25  23  4.441240E+05 -4.033864E+02  4.825595E+03  2.759599E+03  2.908023E+03  5.164409E+02
        25  24  4.445612E+05  1.444327E+03  7.858078E+03 -1.205798E+04  5.343447E+03  9.776687E+02
        25  25  3.664080E+05 -1.928468E+04 -1.553608E+04 -1.186647E+04  5.116066E+02  9.773233E+01
        25  26  3.583919E+05 -2.182177E+04 -1.656525E+04  3.025014E+03  2.950932E+03  5.162742E+02
        25  27  3.512466E+05 -2.186357E+04 -1.539835E+04 -1.172330E+04  5.390136E+03  9.775042E+02
        26   1  7.148106E+05  6.709967E+04  7.701580E+04 -1.359965E+04 -6.930836E+03 -1.244001E+03
        26   2  7.203465E+05  6.702188E+04  8.494647E+04  3.582264E+03 -1.498102E+04 -1.688361E+03
        26   3  7.326754E+05  8.132704E+04  1.021393E+05 -1.413074E+04 -2.303049E+04 -2.188113E+03
        26   4  4.458549E+05 -7.947657E+01  9.900445E+03 -1.323575E+04 -6.971374E+03 -1.243894E+03
        26   5  4.424651E+05 -2.383661E+03  1.562963E+04  4.220416E+03 -1.502372E+04 -1.688304E+03
        26   6  4.458702E+05  9.698607E+03  3.062526E+04 -1.321931E+04 -2.307523E+04 -2.188123E+03
        26   7  1.769648E+05 -6.726407E+04 -5.722036E+04 -1.287195E+04 -7.011894E+03 -1.243786E+03
        26   8  1.646537E+05 -7.179501E+04 -5.369301E+04  4.858327E+03 -1.506640E+04 -1.688248E+03
        26   9  1.591395E+05 -6.193602E+04 -4.089499E+04 -1.230826E+04 -2.311995E+04 -2.188134E+03
        26  10  7.148105E+05  6.709966E+04  7.701571E+04 -1.359966E+04 -4.387008E-09 -1.067609E-09
        26  11  7.203463E+05  6.702182E+04  8.494604E+04  3.582244E+03 -3.166015E-10 -5.570860E-10
        26  12  7.326748E+05  8.132690E+04  1.021383E+05 -1.413078E+04  5.507224E-09 -1.001600E-09
        26  13  4.458549E+05 -7.949127E+01  9.900351E+03 -1.323576E+04 -8.588443E-09 -1.257879E-09
        26  14  4.424649E+05 -2.383725E+03  1.562920E+04  4.220396E+03 -6.255198E-09 -4.002936E-10
        26  15  4.458696E+05  9.698460E+03  3.062426E+04 -1.321935E+04  6.004953E-11 -8.662206E-10
        26  16  1.769647E+05 -6.726409E+04 -5.722045E+04 -1.287196E+04  6.105310E-09 -8.617064E-10
        26  17  1.646534E+05 -7.179508E+04 -5.369344E+04  4.858306E+03 -7.301003E-10 -1.107406E-09
        26  18  1.591389E+05 -6.193617E+04 -4.089600E+04 -1.230830E+04 -2.522418E-09 -1.127440E-09
        26  19  7.148106E+05  6.709967E+04  7.701580E+04 -1.359965E+04  6.930836E+03  1.244001E+03
        26  20  7.203465E+05  6.702188E+04  8.494647E+04  3.582264E+03  1.498102E+04  1.688361E+03
        26  21  7.326754E+05  8.132704E+04  1.021393E+05 -1.413074E+04  2.303049E+04  2.188113E+03
        26  22  4.458549E+05 -7.947657E+01  9.900445E+03 -1.323575E+04  6.971374E+03  1.243894E+03
        26  23  4.424651E+05 -2.383661E+03  1.562963E+04  4.220416E+03  1.502372E+04  1.688304E+03
        26  24  4.458702E+05  9.698607E+03  3.062526E+04 -1.321931E+04  2.307523E+04  2.188123E+03
        26  25  1.769648E+05 -6.726407E+04 -5.722036E+04 -1.287195E+04  7.011894E+03  1.243786E+03
        26  26  1.646537E+05 -7.179501E+04 -5.369301E+04  4.858327E+03  1.506640E+04  1.688248E+03
        26  27  1.591395E+05 -6.193602E+04 -4.089499E+04 -1.230826E+04  2.311995E+04  2.188134E+03
        27   1  9.602558E+05  1.251270E+05  1.652512E+05 -1.403268E+04 -2.933853E+04 -2.660240E+03
        27   2  9.541739E+05  1.142564E+05  1.901901E+05  6.766481E+03 -6.138109E+04 -3.385745E+03
        27   3  9.841458E+05  1.974488E+05  2.611617E+05 -1.912119E+04 -9.342450E+04 -3.587790E+03
        27   4  4.523126E+05 -1.718324E+03  3.853875E+04 -1.581305E+04 -2.941945E+04 -2.660200E+03
        27   5  4.342984E+05 -1.556685E+04  6.053677E+04  7.457143E+03 -6.138823E+04 -3.386021E+03
        27   6  4.523442E+05  6.467426E+04  1.285423E+05 -1.596186E+04 -9.335724E+04 -3.588428E+03
        27   7 -5.539715E+04 -1.285830E+05 -8.819315E+04 -1.759190E+04 -2.950030E+04 -2.660160E+03
        27   8 -8.533234E+04 -1.454104E+05 -6.913684E+04  8.147183E+03 -6.139535E+04 -3.386297E+03
        27   9 -7.920139E+04 -6.812149E+04 -4.098327E+03 -1.280537E+04 -9.329000E+04 -3.589066E+03
        27  10  9.602549E+05  1.251267E+05  1.652496E+05 -1.403275E+04  4.320128E-09 -1.234102E-09
        27  11  9.541699E+05  1.142553E+05  1.901830E+05  6.766313E+03  7.666486E-09 -7.306187E-10
        27  12  9.841364E+05  1.974464E+05  2.611453E+05 -1.912146E+04 -2.830933E-10  1.410083E-11
        27  13  4.523116E+05 -1.718564E+03  3.853711E+04 -1.581311E+04 -4.348090E-09  1.569592E-10
        27  14  4.342944E+05 -1.556788E+04  6.052967E+04  7.456976E+03 -4.338754E-09  3.100492E-10
        27  15  4.523348E+05  6.467191E+04  1.285259E+05 -1.596213E+04 -2.751745E-09  3.945375E-10
        27  16 -5.539808E+04 -1.285833E+05 -8.819480E+04 -1.759196E+04 -2.283036E-09 -1.096001E-09
        27  17 -8.533639E+04 -1.454114E+05 -6.914395E+04  8.147015E+03 -5.359461E-09 -2.588356E-11
        27  18 -7.921074E+04 -6.812384E+04 -4.114708E+03 -1.280564E+04 -7.072926E-09  1.285030E-09
        27  19  9.602558E+05  1.251270E+05  1.652512E+05 -1.403268E+04  2.933853E+04  2.660240E+03
        27  20  9.541739E+05  1.142564E+05  1.901901E+05  6.766481E+03  6.138109E+04  3.385745E+03
        27  21  9.841458E+05  1.974488E+05  2.611617E+05 -1.912119E+04  9.342450E+04  3.587790E+03
        27  22  4.523126E+05 -1.718324E+03  3.853875E+04 -1.581305E+04  2.941945E+04  2.660200E+03
        27  23  4.342984E+05 -1.556685E+04  6.053677E+04  7.457143E+03  6.138823E+04  3.386021E+03
        27  24  4.523442E+05  6.467426E+04  1.285423E+05 -1.596186E+04  9.335724E+04  3.588428E+03
        27  25 -5.539715E+04 -1.285830E+05 -8.819315E+04 -1.759190E+04  2.950030E+04  2.660160E+03
        27  26 -8.533234E+04 -1.454104E+05 -6.913684E+04  8.147183E+03  6.139535E+04  3.386297E+03
        27  27 -7.920139E+04 -6.812149E+04 -4.098327E+03 -1.280537E+04  9.329000E+04  3.589066E+03
        28   1  1.323911E+06  1.959621E+05  3.647754E+05 -4.071256E+03 -1.190775E+05 -5.153366E+03
        28   2  1.245049E+06  1.123027E+05  4.470286E+05  1.053084E+04 -2.481694E+05 -7.766181E+03
        28   3  1.359241E+06  6.400518E+05  7.707921E+05 -4.641122E+04 -3.772991E+05 -5.556213E+03
        28   4  4.871178E+05 -1.309463E+04  1.560770E+05 -2.021880E+04 -1.194038E+05 -5.152266E+03
        28   5  3.905872E+05 -1.009609E+05  2.340399E+05  1.364283E+04 -2.478776E+05 -7.767733E+03
        28   6  4.872136E+05  4.229059E+05  5.533159E+05 -2.404380E+04 -3.763854E+05 -5.565351E+03
        28   7 -3.490413E+05 -2.222032E+05 -5.267394E+04 -3.634517E+04 -1.197297E+05 -5.151148E+03
        28   8 -4.632135E+05 -3.142795E+05  2.099633E+04  1.674950E+04 -2.475860E+05 -7.769283E+03
        28   9 -3.841243E+05  2.057052E+05  3.357830E+05 -1.709255E+03 -3.754727E+05 -5.574436E+03
        28  10  1.323896E+06  1.959583E+05  3.647488E+05 -4.071750E+03  1.109753E-08  1.596054E-09
        28  11  1.244983E+06  1.122862E+05  4.469130E+05  1.052929E+04 -5.605335E-09  2.675791E-10
        28  12  1.359089E+06  6.400137E+05  7.705251E+05 -4.641291E+04 -6.063576E-09 -1.548879E-10
        28  13  4.871025E+05 -1.309848E+04  1.560502E+05 -2.021930E+04 -8.620144E-09  4.676132E-10
        28  14  3.905212E+05 -1.009775E+05  2.339244E+05  1.364128E+04 -4.547940E-10 -1.179764E-09
        28  15  4.870616E+05  4.228679E+05  5.530498E+05 -2.404548E+04  9.454221E-10  2.776141E-10
        28  16 -3.490567E+05 -2.222071E+05 -5.270094E+04 -3.634567E+04 -4.090906E-09  1.258837E-09
        28  17 -4.632794E+05 -3.142960E+05  2.088095E+04  1.674795E+04 -3.172979E-09  2.252661E-09
        28  18 -3.842757E+05  2.056673E+05  3.355178E+05 -1.710941E+03  2.736917E-09 -2.420694E-10
        28  19  1.323911E+06  1.959621E+05  3.647754E+05 -4.071256E+03  1.190775E+05  5.153366E+03
        28  20  1.245049E+06  1.123027E+05  4.470286E+05  1.053084E+04  2.481694E+05  7.766181E+03
        28  21  1.359241E+06  6.400518E+05  7.707921E+05 -4.641122E+04  3.772991E+05  5.556213E+03
        28  22  4.871178E+05 -1.309463E+04  1.560770E+05 -2.021880E+04  1.194038E+05  5.152266E+03
        28  23  3.905872E+05 -1.009609E+05  2.340399E+05  1.364283E+04  2.478776E+05  7.767733E+03
        28  24  4.872136E+05  4.229059E+05  5.533159E+05 -2.404380E+04  3.763854E+05  5.565351E+03
        28  25 -3.490413E+05 -2.222032E+05 -5.267394E+04 -3.634517E+04  1.197297E+05  5.151148E+03
        28  26 -4.632135E+05 -3.142795E+05  2.099633E+04  1.674950E+04  2.475860E+05  7.769283E+03
        28  27 -3.841243E+05  2.057052E+05  3.357830E+05 -1.709255E+03  3.754727E+05  5.574436E+03
        29   1  3.228371E+05  2.834737E+04  4.219512E+05 -1.863576E+04 -2.896888E+03  2.876755E+05
        29   2 -7.661739E+04 -3.599121E+04  1.800578E+05 -5.850562E+03 -1.900615E+03  1.892293E+05
        29   3 -1.053760E+04  2.893104E+04  1.186947E+05  1.030841E+04 -9.094148E+02  9.077835E+04
        29   4  3.224030E+05  2.878009E+04  4.219511E+05  2.946864E+03 -2.886885E+03  2.876756E+05
        29   5 -7.672665E+04 -3.588204E+04  1.800578E+05 -4.099256E+02 -1.898956E+03  1.892293E+05
        29   6 -1.032304E+04  2.871614E+04  1.186947E+05 -3.918058E+02 -9.109796E+02  9.077833E+04
        29   7  3.219706E+05  2.921380E+04  4.219512E+05  2.452950E+04 -2.876882E+03  2.876757E+05
        29   8 -7.683581E+04 -3.577280E+04  1.800578E+05  5.030711E+03 -1.897297E+03  1.892293E+05
        29   9 -1.010804E+04  2.850148E+04  1.186947E+05 -1.109202E+04 -9.125445E+02  9.077832E+04
        29  10  3.228148E+05  2.825853E+04  4.217957E+05 -1.863509E+04  5.308572E-09  1.549590E-09
        29  11 -7.662701E+04 -3.602966E+04  1.799905E+05 -5.850272E+03  5.131880E-09  2.391658E-09
        29  12 -1.053982E+04  2.892219E+04  1.186793E+05  1.030848E+04  1.227160E-08  1.708396E-09
        29  13  3.223807E+05  2.869125E+04  4.217956E+05  2.947533E+03 -6.669873E-09  2.377805E-11
        29  14 -7.673627E+04 -3.592048E+04  1.799905E+05 -4.096362E+02  2.862787E-09  3.682251E-10
        29  15 -1.032525E+04  2.870729E+04  1.186792E+05 -3.917392E+02 -6.981373E-09  5.951130E-10
        29  16  3.219484E+05  2.912497E+04  4.217957E+05  2.453017E+04 -3.829390E-09 -1.481160E-09
        29  17 -7.684542E+04 -3.581125E+04  1.799905E+05  5.031001E+03  4.207862E-09 -1.959989E-09
        29  18 -1.011026E+04  2.849263E+04  1.186793E+05 -1.109195E+04  6.157690E-09 -1.053716E-09
        29  19  3.228371E+05  2.834737E+04  4.219512E+05 -1.863576E+04  2.896888E+03 -2.876755E+05
        29  20 -7.661739E+04 -3.599121E+04  1.800578E+05 -5.850562E+03  1.900615E+03 -1.892293E+05
        29  21 -1.053760E+04  2.893104E+04  1.186947E+05  1.030841E+04  9.094148E+02 -9.077835E+04
        29  22  3.224030E+05  2.878009E+04  4.219511E+05  2.946864E+03  2.886885E+03 -2.876756E+05
        29  23 -7.672665E+04 -3.588204E+04  1.800578E+05 -4.099256E+02  1.898956E+03 -1.892293E+05
        29  24 -1.032304E+04  2.871614E+04  1.186947E+05 -3.918058E+02  9.109796E+02 -9.077833E+04
        29  25  3.219706E+05  2.921380E+04  4.219512E+05  2.452950E+04  2.876882E+03 -2.876757E+05
        29  26 -7.683581E+04 -3.577280E+04  1.800578E+05  5.030711E+03  1.897297E+03 -1.892293E+05
        29  27 -1.010804E+04  2.850148E+04  1.186947E+05 -1.109202E+04  9.125445E+02 -9.077832E+04
        30   1  4.994365E+04  4.681316E+03  9.844649E+04 -2.749143E+03 -7.134486E+02  7.105800E+04
        30   2 -1.191268E+04 -5.938160E+03  4.729508E+04 -8.133646E+02 -4.638363E+02  4.621530E+04
        30   3 -1.418602E+03  4.772425E+03  3.041012E+04  1.634457E+03 -2.144226E+02  2.137285E+04
        30   4  4.987936E+04  4.745579E+03  9.844649E+04  4.529726E+02 -7.130820E+02  7.105801E+04
        30   5 -1.192780E+04 -5.923044E+03  4.729508E+04 -6.026506E+01 -4.637802E+02  4.621530E+04
        30   6 -1.384567E+03  4.738381E+03  3.041011E+04 -6.145125E+01 -2.144810E+02  2.137285E+04
        30   7  4.981510E+04  4.809864E+03  9.844649E+04  3.655088E+03 -7.127154E+02  7.105801E+04
        30   8 -1.194292E+04 -5.907927E+03  4.729508E+04  6.928345E+02 -4.637242E+02  4.621530E+04
        30   9 -1.350520E+03  4.704343E+03  3.041012E+04 -1.757360E+03 -2.145394E+02  2.137285E+04
        30  10  4.994230E+04  4.675894E+03  9.843700E+04 -2.749102E+03  8.312080E-09  1.067986E-09
        30  11 -1.191326E+04 -5.940453E+03  4.729107E+04 -8.133473E+02  5.080870E-09 -1.684208E-10
        30  12 -1.418725E+03  4.771935E+03  3.040926E+04  1.634461E+03  1.087709E-08 -1.641865E-09
        30  13  4.987800E+04  4.740157E+03  9.843700E+04  4.530134E+02 -1.489916E-08  6.899906E-10
        30  14 -1.192837E+04 -5.925337E+03  4.729107E+04 -6.024780E+01 -5.149124E-09  7.953123E-10
        30  15 -1.384689E+03  4.737890E+03  3.040926E+04 -6.144756E+01 -1.001261E-08  6.347045E-10
        30  16  4.981375E+04  4.804443E+03  9.843700E+04  3.655129E+03  3.335970E-09 -1.952469E-10
        30  17 -1.194349E+04 -5.910220E+03  4.729107E+04  6.928517E+02  7.835832E-09  9.782604E-10
        30  18 -1.350643E+03  4.703852E+03  3.040926E+04 -1.757356E+03  3.827580E-09  2.209964E-09
        30  19  4.994365E+04  4.681316E+03  9.844649E+04 -2.749143E+03  7.134486E+02 -7.105800E+04
        30  20 -1.191268E+04 -5.938160E+03  4.729508E+04 -8.133646E+02  4.638363E+02 -4.621530E+04
        30  21 -1.418602E+03  4.772425E+03  3.041012E+04  1.634457E+03  2.144226E+02 -2.137285E+04
        30  22  4.987936E+04  4.745579E+03  9.844649E+04  4.529726E+02  7.130820E+02 -7.105801E+04
        30  23 -1.192780E+04 -5.923044E+03  4.729508E+04 -6.026506E+01  4.637802E+02 -4.621530E+04
        30  24 -1.384567E+03  4.738381E+03  3.041011E+04 -6.145125E+01  2.144810E+02 -2.137285E+04
        30  25  4.981510E+04  4.809864E+03  9.844649E+04  3.655088E+03  7.127154E+02 -7.105801E+04
        30  26 -1.194292E+04 -5.907927E+03  4.729508E+04  6.928345E+02  4.637242E+02 -4.621530E+04
        30  27 -1.350520E+03  4.704343E+03  3.041012E+04 -1.757360E+03  2.145394E+02 -2.137285E+04
        31   1  7.656108E+03  9.225034E+02  2.505168E+04 -4.314599E+02 -1.640011E+02  1.634126E+04
        31   2 -2.112224E+03 -1.166411E+03  1.483855E+04 -9.449208E+01 -8.780596E+01  8.749669E+03
        31   3  9.352967E+02  9.383209E+02  1.277247E+04  3.290044E+02 -1.162242E+01  1.158225E+03
        31   4  7.646094E+03  9.325160E+02  2.505168E+04  6.737895E+01 -1.639879E+02  1.634126E+04
        31   5 -2.113930E+03 -1.164706E+03  1.483855E+04 -9.526621E+00 -8.780477E+01  8.749669E+03
        31   6  9.418984E+02  9.317189E+02  1.277247E+04  1.021633E-01 -1.162303E+01  1.158225E+03
        31   7  7.636082E+03  9.425292E+02  2.505168E+04  5.662178E+02 -1.639748E+02  1.634126E+04
        31   8 -2.115635E+03 -1.163000E+03  1.483855E+04  7.543884E+01 -8.780357E+01  8.749669E+03
        31   9  9.485004E+02  9.251172E+02  1.277247E+04 -3.288001E+02 -1.162364E+01  1.158225E+03
        31  10  7.656036E+03  9.222166E+02  2.505118E+04 -4.314578E+02  5.360101E-09  1.714086E-10
        31  11 -2.112245E+03 -1.166493E+03  1.483841E+04 -9.449146E+01  2.384076E-09 -1.111877E-09
        31  12  9.352963E+02  9.383195E+02  1.277247E+04  3.290045E+02 -6.937207E-09 -3.315023E-09
        31  13  7.646023E+03  9.322293E+02  2.505118E+04  6.738111E+01 -1.811846E-08  5.378916E-10
        31  14 -2.113950E+03 -1.164788E+03  1.483841E+04 -9.526002E+00 -1.142086E-08  4.750447E-10
        31  15  9.418980E+02  9.317175E+02  1.277247E+04  1.021741E-01 -1.016403E-08  2.801642E-10
        31  16  7.636010E+03  9.422425E+02  2.505118E+04  5.662200E+02 -3.172775E-09  4.435952E-10
        31  17 -2.115656E+03 -1.163082E+03  1.483841E+04  7.543946E+01  6.470617E-09  1.582244E-09
        31  18  9.485001E+02  9.251157E+02  1.277247E+04 -3.288001E+02 -6.460781E-09  3.502080E-09
        31  19  7.656108E+03  9.225034E+02  2.505168E+04 -4.314599E+02  1.640011E+02 -1.634126E+04
        31  20 -2.112224E+03 -1.166411E+03  1.483855E+04 -9.449208E+01  8.780596E+01 -8.749669E+03
        31  21  9.352967E+02  9.383209E+02  1.277247E+04  3.290044E+02  1.162242E+01 -1.158225E+03
        31  22  7.646094E+03  9.325160E+02  2.505168E+04  6.737895E+01  1.639879E+02 -1.634126E+04
        31  23 -2.113930E+03 -1.164706E+03  1.483855E+04 -9.526621E+00  8.780477E+01 -8.749669E+03
        31  24  9.418984E+02  9.317189E+02  1.277247E+04  1.021631E-01  1.162303E+01 -1.158225E+03
        31  25  7.636082E+03  9.425292E+02  2.505168E+04  5.662178E+02  1.639748E+02 -1.634126E+04
        31  26 -2.115635E+03 -1.163000E+03  1.483855E+04  7.543884E+01  8.780357E+01 -8.749669E+03
        31  27  9.485004E+02  9.251172E+02  1.277247E+04 -3.288001E+02  1.162364E+01 -1.158225E+03
        32   1 -1.023898E+07 -3.332689E+06 -2.118548E+06 -3.561045E+06 -9.305275E+05 -3.270965E+05
        32   2 -1.002248E+07 -1.996988E+06 -1.267385E+06 -3.736107E+06 -6.090330E+05 -1.376534E+05
        32   3 -1.031610E+07 -1.974968E+06 -1.029372E+06 -3.590500E+06 -2.644777E+05 -7.935203E+03
        32   4 -7.867993E+06 -2.123292E+06 -1.404295E+06 -2.610498E+06 -8.944852E+05 -3.137439E+05
        32   5 -7.538898E+06 -9.616648E+05 -5.838075E+05 -2.965514E+06 -5.983645E+05 -1.336864E+05
        32   6 -7.712887E+06 -1.105590E+06 -3.542880E+05 -3.000464E+06 -2.791745E+05 -1.350821E+04
        32   7 -5.491269E+06 -9.121198E+05 -6.906076E+05 -1.656169E+06 -8.582828E+05 -3.002849E+05
        32   8 -5.049222E+06  7.439082E+04  9.919693E+04 -2.191959E+06 -5.876439E+05 -1.296954E+05
        32   9 -5.103010E+06 -2.361485E+05  3.202456E+05 -2.408321E+06 -2.939381E+05 -1.909934E+04
        32  10 -1.023995E+07 -3.333044E+06 -2.120411E+06 -3.561294E+06  2.101687E-09  6.738770E-10
        32  11 -1.002289E+07 -1.997111E+06 -1.268131E+06 -3.736176E+06 -5.265438E-09  1.237840E-09
        32  12 -1.031618E+07 -1.974987E+06 -1.029505E+06 -3.590502E+06 -2.838520E-09  9.747792E-10
        32  13 -7.868889E+06 -2.123618E+06 -1.406008E+06 -2.610726E+06 -5.723291E-09  6.131672E-10
        32  14 -7.539291E+06 -9.617821E+05 -5.845238E+05 -2.965579E+06  4.138146E-09  1.619097E-09
        32  15 -7.712972E+06 -1.105611E+06 -3.544367E+05 -3.000468E+06  2.117497E-09  4.264780E-09
        32  16 -5.492090E+06 -9.124174E+05 -6.921765E+05 -1.656378E+06 -2.920804E-09  2.300269E-11
        32  17 -5.049599E+06  7.427874E+04  9.850986E+04 -2.192020E+06 -2.207183E-09  5.030602E-10
        32  18 -5.103104E+06 -2.361724E+05  3.200811E+05 -2.408326E+06 -5.074213E-09  2.816329E-09
        32  19 -1.023898E+07 -3.332689E+06 -2.118548E+06 -3.561045E+06  9.305275E+05  3.270965E+05
        32  20 -1.002248E+07 -1.996988E+06 -1.267385E+06 -3.736107E+06  6.090330E+05  1.376534E+05
        32  21 -1.031610E+07 -1.974968E+06 -1.029372E+06 -3.590500E+06  2.644777E+05  7.935203E+03
        32  22 -7.867993E+06 -2.123292E+06 -1.404295E+06 -2.610498E+06  8.944852E+05  3.137439E+05
        32  23 -7.538898E+06 -9.616648E+05 -5.838075E+05 -2.965514E+06  5.983645E+05  1.336864E+05
        32  24 -7.712887E+06 -1.105590E+06 -3.542880E+05 -3.000464E+06  2.791745E+05  1.350821E+04
        32  25 -5.491269E+06 -9.121198E+05 -6.906076E+05 -1.656169E+06  8.582828E+05  3.002849E+05
        32  26 -5.049222E+06  7.439082E+04  9.919693E+04 -2.191959E+06  5.876439E+05  1.296954E+05
        32  27 -5.103010E+06 -2.361485E+05  3.202456E+05 -2.408321E+06  2.939381E+05  1.909934E+04
        33   1 -9.997942E+06 -2.194474E+06 -9.260977E+05 -3.606692E+06 -2.260081E+05 -5.105399E+03
        33   2 -9.877561E+06 -1.943558E+06 -7.343432E+05 -3.536904E+06 -1.515911E+05  2.290124E+04
        33   3 -9.725641E+06 -1.929236E+06 -6.372521E+05 -3.529381E+06 -7.453189E+04  4.391039E+04
        33   4 -7.653723E+06 -1.269208E+06 -2.887611E+05 -2.931892E+06 -2.251183E+05 -4.802565E+03
        33   5 -7.661065E+06 -1.092795E+06 -1.377770E+05 -2.922800E+06 -1.535338E+05  2.214306E+04
        33   6 -7.636079E+06 -1.152035E+06 -7.889516E+04 -2.976007E+06 -7.932857E+04  4.208940E+04
        33   7 -5.304111E+06 -3.434893E+05  3.480739E+05 -2.254707E+06 -2.242233E+05 -4.497562E+03
        33   8 -5.439749E+06 -2.417020E+05  4.583504E+05 -2.306668E+06 -1.554834E+05  2.138225E+04
        33   9 -5.542236E+06 -3.746090E+05  4.790793E+05 -2.420938E+06 -8.414301E+04  4.026208E+04
        33  10 -9.997997E+06 -2.194488E+06 -9.261953E+05 -3.606693E+06  8.366079E-09 -1.293915E-09
        33  11 -9.877586E+06 -1.943565E+06 -7.343880E+05 -3.536902E+06  9.834572E-09 -3.911714E-09
        33  12 -9.725648E+06 -1.929239E+06 -6.372663E+05 -3.529378E+06 -4.572554E-09  1.271084E-09
        33  13 -7.653778E+06 -1.269222E+06 -2.888576E+05 -2.931893E+06  3.865883E-09  6.794935E-10
        33  14 -7.661091E+06 -1.092802E+06 -1.378226E+05 -2.922797E+06  5.444718E-10 -5.958716E-09
        33  15 -7.636086E+06 -1.152038E+06 -7.891037E+04 -2.976005E+06 -3.489882E-09  8.208152E-10
        33  16 -5.304166E+06 -3.435030E+05  3.479786E+05 -2.254707E+06 -4.817460E-09 -1.279828E-09
        33  17 -5.439775E+06 -2.417091E+05  4.583038E+05 -2.306666E+06  6.026147E-09 -5.983109E-09
        33  18 -5.542244E+06 -3.746126E+05  4.790629E+05 -2.420935E+06  2.646296E-09  4.548096E-09
        33  19 -9.997942E+06 -2.194474E+06 -9.260977E+05 -3.606692E+06  2.260081E+05  5.105399E+03
        33  20 -9.877561E+06 -1.943558E+06 -7.343432E+05 -3.536904E+06  1.515911E+05 -2.290124E+04
        33  21 -9.725641E+06 -1.929236E+06 -6.372521E+05 -3.529381E+06  7.453189E+04 -4.391039E+04
        33  22 -7.653723E+06 -1.269208E+06 -2.887611E+05 -2.931892E+06  2.251183E+05  4.802565E+03
        33  23 -7.661065E+06 -1.092795E+06 -1.377770E+05 -2.922800E+06  1.535338E+05 -2.214306E+04
        33  24 -7.636079E+06 -1.152035E+06 -7.889516E+04 -2.976007E+06  7.932857E+04 -4.208940E+04
        33  25 -5.304111E+06 -3.434893E+05  3.480739E+05 -2.254707E+06  2.242233E+05  4.497562E+03
        33  26 -5.439749E+06 -2.417020E+05  4.583504E+05 -2.306668E+06  1.554834E+05 -2.138225E+04
        33  27 -5.542236E+06 -3.746090E+05  4.790793E+05 -2.420938E+06  8.414301E+04 -4.026208E+04
        34   1 -9.395475E+06 -1.855622E+06 -5.381445E+05 -3.465020E+06 -6.239176E+04  4.212114E+04
        34   2 -9.233437E+06 -1.679184E+06 -4.464892E+05 -3.322926E+06 -4.210409E+04  3.969251E+04
        34   3 -8.934707E+06 -1.660680E+06 -3.713127E+05 -3.338398E+06 -2.117422E+04  3.544959E+04
        34   4 -7.619199E+06 -1.180757E+06 -6.195747E+04 -2.979662E+06 -6.598405E+04  4.075902E+04
        34   5 -7.686465E+06 -1.094649E+06 -3.203012E+04 -2.903544E+06 -4.645246E+04  3.805605E+04
        34   6 -7.616930E+06 -1.166266E+06 -1.793141E+04 -2.984988E+06 -2.628650E+04  3.353836E+04
        34   7 -5.839831E+06 -5.056942E+05  4.139498E+05 -2.493025E+06 -6.958764E+04  3.939265E+04
        34   8 -6.137152E+06 -5.099729E+05  3.822166E+05 -2.483204E+06 -5.081281E+04  3.641511E+04
        34   9 -6.297458E+06 -6.717574E+05  3.352952E+05 -2.630893E+06 -3.141084E+04  3.162270E+04
        34  10 -9.395480E+06 -1.855625E+06 -5.381552E+05 -3.465018E+06 -1.943861E-09  5.688030E-09
        34  11 -9.233439E+06 -1.679186E+06 -4.464955E+05 -3.322924E+06 -1.044949E-08  6.840987E-10
        34  12 -8.934708E+06 -1.660681E+06 -3.713159E+05 -3.338397E+06 -1.696022E-11 -1.137317E-09
        34  13 -7.619204E+06 -1.180760E+06 -6.196880E+04 -2.979659E+06 -5.970731E-09  3.646300E-09
        34  14 -7.686468E+06 -1.094651E+06 -3.203690E+04 -2.903543E+06 -4.901252E-09 -6.869164E-10
        34  15 -7.616931E+06 -1.166268E+06 -1.793481E+04 -2.984987E+06 -4.998478E-09 -2.500171E-09
        34  16 -5.839836E+06 -5.056971E+05  4.139378E+05 -2.493022E+06  5.565728E-09  4.610572E-09
        34  17 -6.137155E+06 -5.099750E+05  3.822092E+05 -2.483203E+06 -1.359670E-09 -8.860907E-10
        34  18 -6.297459E+06 -6.717587E+05  3.352915E+05 -2.630893E+06 -3.394394E-09 -4.151206E-09
        34  19 -9.395475E+06 -1.855622E+06 -5.381445E+05 -3.465020E+06  6.239176E+04 -4.212114E+04
        34  20 -9.233437E+06 -1.679184E+06 -4.464892E+05 -3.322926E+06  4.210409E+04 -3.969251E+04
        34  21 -8.934707E+06 -1.660680E+06 -3.713127E+05 -3.338398E+06  2.117422E+04 -3.544959E+04
        34  22 -7.619199E+06 -1.180757E+06 -6.195747E+04 -2.979662E+06  6.598405E+04 -4.075902E+04
        34  23 -7.686465E+06 -1.094649E+06 -3.203012E+04 -2.903544E+06  4.645246E+04 -3.805605E+04
        34  24 -7.616930E+06 -1.166266E+06 -1.793141E+04 -2.984988E+06  2.628650E+04 -3.353836E+04
        34  25 -5.839831E+06 -5.056942E+05  4.139498E+05 -2.493025E+06  6.958764E+04 -3.939265E+04
        34  26 -6.137152E+06 -5.099729E+05  3.822166E+05 -2.483204E+06  5.081281E+04 -3.641511E+04
        34  27 -6.297458E+06 -6.717574E+05  3.352952E+05 -2.630893E+06  3.141084E+04 -3.162270E+04
        35   1 -8.516530E+06 -1.516122E+06 -2.557268E+05 -3.236268E+06 -1.611244E+04  2.968330E+04
        35   2 -8.319768E+06 -1.322336E+06 -1.753091E+05 -3.061591E+06 -7.360351E+03  1.958745E+04
        35   3 -7.952974E+06 -1.301750E+06 -9.871219E+04 -3.084264E+06  1.591717E+03  8.901193E+03
        35   4 -7.610048E+06 -1.175094E+06 -1.415837E+04 -2.991701E+06 -2.120013E+04  2.778707E+04
        35   5 -7.694861E+06 -1.087499E+06 -8.219408E+03 -2.893381E+06 -1.270412E+04  1.760043E+04
        35   6 -7.609686E+06 -1.173042E+06 -5.888160E+03 -2.992429E+06 -4.010588E+03  6.823182E+03
        35   7 -6.702757E+06 -8.340163E+05  2.273392E+05 -2.746805E+06 -2.629608E+04  2.588776E+04
        35   8 -7.069574E+06 -8.526388E+05  1.588357E+05 -2.725016E+06 -1.805385E+04  1.561119E+04
        35   9 -7.266286E+06 -1.044330E+06  8.692473E+04 -2.900549E+06 -9.616294E+03  4.743917E+03
        35  10 -8.516530E+06 -1.516123E+06 -2.557290E+05 -3.236268E+06 -7.328058E-09 -1.752077E-09
        35  11 -8.319768E+06 -1.322337E+06 -1.753099E+05 -3.061591E+06  2.055205E-10 -7.789055E-10
        35  12 -7.952974E+06 -1.301750E+06 -9.871234E+04 -3.084264E+06  3.279713E-09  2.616450E-09
        35  13 -7.610049E+06 -1.175095E+06 -1.416066E+04 -2.991700E+06 -3.522032E-10 -2.003073E-09
        35  14 -7.694861E+06 -1.087499E+06 -8.220291E+03 -2.893381E+06  4.804507E-09  1.521259E-09
        35  15 -7.609686E+06 -1.173042E+06 -5.888277E+03 -2.992429E+06 -3.114295E-09 -5.613867E-10
        35  16 -6.702758E+06 -8.340172E+05  2.273366E+05 -2.746804E+06  2.559970E-10 -5.251186E-10
        35  17 -7.069574E+06 -8.526392E+05  1.588346E+05 -2.725016E+06  3.682591E-09  4.187352E-10
        35  18 -7.266286E+06 -1.044330E+06  8.692451E+04 -2.900549E+06  1.274883E-09  1.620136E-09
        35  19 -8.516530E+06 -1.516122E+06 -2.557268E+05 -3.236268E+06  1.611244E+04 -2.968330E+04
        35  20 -8.319768E+06 -1.322336E+06 -1.753091E+05 -3.061591E+06  7.360351E+03 -1.958745E+04
        35  21 -7.952974E+06 -1.301750E+06 -9.871219E+04 -3.084264E+06 -1.591717E+03 -8.901193E+03
        35  22 -7.610048E+06 -1.175094E+06 -1.415837E+04 -2.991701E+06  2.120013E+04 -2.778707E+04
        35  23 -7.694861E+06 -1.087499E+06 -8.219408E+03 -2.893381E+06  1.270412E+04 -1.760043E+04
        35  24 -7.609686E+06 -1.173042E+06 -5.888160E+03 -2.992429E+06  4.010588E+03 -6.823182E+03
        35  25 -6.702757E+06 -8.340163E+05  2.273392E+05 -2.746805E+06  2.629608E+04 -2.588776E+04
        35  26 -7.069574E+06 -8.526388E+05  1.588357E+05 -2.725016E+06  1.805385E+04 -1.561119E+04
        35  27 -7.266286E+06 -1.044330E+06  8.692473E+04 -2.900549E+06  9.616294E+03 -4.743917E+03
        36   1 -7.497503E+06 -1.132041E+06  2.528513E+04 -2.963564E+06  5.269002E+03  1.866475E+03
        36   2 -7.296905E+06 -9.368913E+05  1.001962E+05 -2.785030E+06  1.289492E+04 -9.444766E+03
        36   3 -6.923202E+06 -9.174200E+05  1.723885E+05 -2.807758E+06  2.039113E+04 -2.036325E+04
        36   4 -7.609018E+06 -1.173839E+06 -5.592355E+03 -2.993209E+06 -3.463824E+02 -2.156967E+02
        36   5 -7.695627E+06 -1.086614E+06 -6.333786E+03 -2.892329E+06  7.450105E+03 -1.146695E+04
        36   6 -7.609238E+06 -1.175115E+06 -9.924548E+03 -2.992754E+06  1.511519E+04 -2.232558E+04
        36   7 -7.720521E+06 -1.215636E+06 -3.647097E+04 -3.022849E+06 -5.960663E+03 -2.297464E+03
        36   8 -8.094197E+06 -1.236328E+06 -1.128784E+05 -2.999566E+06  2.009133E+03 -1.348770E+04
        36   9 -8.294821E+06 -1.432785E+06 -1.922803E+05 -3.177565E+06  9.845668E+03 -2.428552E+04
        36  10 -7.497503E+06 -1.132041E+06  2.528508E+04 -2.963564E+06  4.092947E-09  8.177430E-10
        36  11 -7.296905E+06 -9.368914E+05  1.001958E+05 -2.785030E+06  2.918654E-09 -3.904101E-09
        36  12 -6.923202E+06 -9.174206E+05  1.723870E+05 -2.807757E+06 -1.334132E-08  1.768135E-09
        36  13 -7.609018E+06 -1.173839E+06 -5.592355E+03 -2.993209E+06  4.671386E-09 -5.801257E-10
        36  14 -7.695628E+06 -1.086614E+06 -6.334137E+03 -2.892329E+06  9.986369E-10 -2.385906E-09
        36  15 -7.609239E+06 -1.175116E+06 -9.925910E+03 -2.992754E+06  2.982945E-09  1.964361E-09
        36  16 -7.720521E+06 -1.215636E+06 -3.647104E+04 -3.022849E+06 -4.339212E-09 -3.212747E-09
        36  17 -8.094197E+06 -1.236329E+06 -1.128787E+05 -2.999566E+06  5.644235E-10  1.063973E-10
        36  18 -8.294821E+06 -1.432786E+06 -1.922815E+05 -3.177564E+06  1.856764E-09  3.909084E-09
        36  19 -7.497503E+06 -1.132041E+06  2.528513E+04 -2.963564E+06 -5.269002E+03 -1.866475E+03
        36  20 -7.296905E+06 -9.368913E+05  1.001962E+05 -2.785030E+06 -1.289492E+04  9.444766E+03
        36  21 -6.923202E+06 -9.174200E+05  1.723885E+05 -2.807758E+06 -2.039113E+04  2.036325E+04
        36  22 -7.609018E+06 -1.173839E+06 -5.592355E+03 -2.993209E+06  3.463824E+02  2.156967E+02
        36  23 -7.695627E+06 -1.086614E+06 -6.333786E+03 -2.892329E+06 -7.450105E+03  1.146695E+04
        36  24 -7.609238E+06 -1.175115E+06 -9.924548E+03 -2.992754E+06 -1.511519E+04  2.232558E+04
        36  25 -7.720521E+06 -1.215636E+06 -3.647097E+04 -3.022849E+06  5.960663E+03  2.297464E+03
        36  26 -8.094197E+06 -1.236328E+06 -1.128784E+05 -2.999566E+06 -2.009133E+03  1.348770E+04
        36  27 -8.294821E+06 -1.432785E+06 -1.922803E+05 -3.177565E+06 -9.845668E+03  2.428552E+04
        37   1 -6.501323E+06 -7.510017E+05  2.859863E+05 -2.688501E+06  2.481388E+04 -2.664871E+04
        37   2 -6.330426E+06 -5.806672E+05  3.416349E+05 -2.532679E+06  3.916712E+04 -3.395696E+04
        37   3 -6.012005E+06 -5.712397E+05  3.872711E+05 -2.546403E+06  5.295761E+04 -3.963467E+04
        37   4 -7.614665E+06 -1.168239E+06 -1.227671E+04 -2.987157E+06  1.949384E+04 -2.863232E+04
        37   5 -7.689124E+06 -1.092712E+06 -2.154599E+04 -2.900525E+06  3.454563E+04 -3.568981E+04
        37   6 -7.616254E+06 -1.178276E+06 -4.139982E+04 -2.983487E+06  4.902954E+04 -4.111656E+04
        37   7 -8.726790E+06 -1.585405E+06 -3.106470E+05 -3.285323E+06  1.418442E+04 -3.061201E+04
        37   8 -9.046013E+06 -1.604646E+06 -3.848880E+05 -3.267634E+06  2.993535E+04 -3.741849E+04
        37   9 -9.217988E+06 -1.785155E+06 -4.702973E+05 -3.419535E+06  4.511265E+04 -4.259426E+04
        37  10 -6.501324E+06 -7.510026E+05  2.859839E+05 -2.688500E+06 -7.896986E-10  5.257250E-09
        37  11 -6.330428E+06 -5.806689E+05  3.416299E+05 -2.532678E+06 -3.463730E-10 -1.609602E-10
        37  12 -6.012009E+06 -5.712421E+05  3.872629E+05 -2.546401E+06 -6.099548E-10 -1.150655E-09
        37  13 -7.614665E+06 -1.168240E+06 -1.227896E+04 -2.987157E+06 -6.066685E-09  3.417941E-09
        37  14 -7.689125E+06 -1.092714E+06 -2.155062E+04 -2.900524E+06 -3.447554E-11  1.594503E-09
        37  15 -7.616257E+06 -1.178279E+06 -4.140752E+04 -2.983485E+06 -4.948281E-09 -9.581176E-10
        37  16 -8.726790E+06 -1.585406E+06 -3.106491E+05 -3.285323E+06  1.277188E-10  1.561876E-09
        37  17 -9.046015E+06 -1.604647E+06 -3.848923E+05 -3.267633E+06  5.337962E-09  8.896907E-11
        37  18 -9.217991E+06 -1.785158E+06 -4.703045E+05 -3.419534E+06  8.316999E-09  1.010665E-09
        37  19 -6.501323E+06 -7.510017E+05  2.859863E+05 -2.688501E+06 -2.481388E+04  2.664871E+04
        37  20 -6.330426E+06 -5.806672E+05  3.416349E+05 -2.532679E+06 -3.916712E+04  3.395696E+04
        37  21 -6.012005E+06 -5.712397E+05  3.872711E+05 -2.546403E+06 -5.295761E+04  3.963467E+04
        37  22 -7.614665E+06 -1.168239E+06 -1.227671E+04 -2.987157E+06 -1.949384E+04  2.863232E+04
        37  23 -7.689124E+06 -1.092712E+06 -2.154599E+04 -2.900525E+06 -3.454563E+04  3.568981E+04
        37  24 -7.616254E+06 -1.178276E+06 -4.139982E+04 -2.983487E+06 -4.902954E+04  4.111656E+04
        37  25 -8.726790E+06 -1.585405E+06 -3.106470E+05 -3.285323E+06 -1.418442E+04  3.061201E+04
        37  26 -9.046013E+06 -1.604646E+06 -3.848880E+05 -3.267634E+06 -2.993535E+04  3.741849E+04
        37  27 -9.217988E+06 -1.785155E+06 -4.702973E+05 -3.419535E+06 -4.511265E+04  4.259426E+04
        38   1 -5.686296E+06 -4.316035E+05  4.661323E+05 -2.459624E+06  6.394219E+04 -4.241258E+04
        38   2 -5.570261E+06 -2.948777E+05  4.706430E+05 -2.339220E+06  1.118105E+05 -3.349768E+04
        38   3 -5.387078E+06 -3.570310E+05  4.166547E+05 -2.309092E+06  1.571559E+05 -1.776259E+04
        38   4 -7.630137E+06 -1.156058E+06 -5.254669E+04 -2.977599E+06  5.879805E+04 -4.435734E+04
        38   5 -7.669248E+06 -1.095509E+06 -9.198395E+04 -2.917709E+06  1.095449E+05 -3.437206E+04
        38   6 -7.641954E+06 -1.234675E+06 -1.923885E+05 -2.948112E+06  1.577522E+05 -1.756308E+04
        38   7 -9.570299E+06 -1.880316E+06 -5.715589E+05 -3.494104E+06  5.367160E+04 -4.629571E+04
        38   8 -9.763934E+06 -1.895855E+06 -6.550027E+05 -3.494402E+06  1.072875E+05 -3.524341E+04
        38   9 -9.891862E+06 -2.111936E+06 -8.018893E+05 -3.584981E+06  1.583453E+05 -1.736492E+04
        38  10 -5.686301E+06 -4.316066E+05  4.661212E+05 -2.459622E+06 -9.814924E-09  2.561555E-10
        38  11 -5.570275E+06 -2.948823E+05  4.706173E+05 -2.339217E+06  5.003775E-10  1.080609E-09
        38  12 -5.387104E+06 -3.570380E+05  4.166073E+05 -2.309089E+06 -1.208197E-08  1.313135E-09
        38  13 -7.630141E+06 -1.156061E+06 -5.255689E+04 -2.977597E+06  3.834891E-09  3.509060E-10
        38  14 -7.669261E+06 -1.095513E+06 -9.200890E+04 -2.917706E+06  3.529159E-09  1.557697E-09
        38  15 -7.641981E+06 -1.234682E+06 -1.924364E+05 -2.948109E+06 -2.965550E-09 -5.039134E-10
        38  16 -9.570302E+06 -1.880319E+06 -5.715684E+05 -3.494102E+06 -4.251431E-09  1.082808E-10
        38  17 -9.763947E+06 -1.895860E+06 -6.550268E+05 -3.494399E+06 -6.786687E-10  8.780071E-10
        38  18 -9.891889E+06 -2.111943E+06 -8.019376E+05 -3.584979E+06  3.124296E-09  5.989404E-10
        38  19 -5.686296E+06 -4.316035E+05  4.661323E+05 -2.459624E+06 -6.394219E+04  4.241258E+04
        38  20 -5.570261E+06 -2.948777E+05  4.706430E+05 -2.339220E+06 -1.118105E+05  3.349768E+04
        38  21 -5.387078E+06 -3.570310E+05  4.166547E+05 -2.309092E+06 -1.571559E+05  1.776259E+04
        38  22 -7.630137E+06 -1.156058E+06 -5.254669E+04 -2.977599E+06 -5.879805E+04  4.435734E+04
        38  23 -7.669248E+06 -1.095509E+06 -9.198395E+04 -2.917709E+06 -1.095449E+05  3.437206E+04
        38  24 -7.641954E+06 -1.234675E+06 -1.923885E+05 -2.948112E+06 -1.577522E+05  1.756308E+04
        38  25 -9.570299E+06 -1.880316E+06 -5.715589E+05 -3.494104E+06 -5.367160E+04  4.629571E+04
        38  26 -9.763934E+06 -1.895855E+06 -6.550027E+05 -3.494402E+06 -1.072875E+05  3.524341E+04
        38  27 -9.891862E+06 -2.111936E+06 -8.018893E+05 -3.584981E+06 -1.583453E+05  1.736492E+04
        39   1 -5.171276E+06 -2.474812E+05  4.208965E+05 -2.382032E+06  2.103689E+05 -1.025651E+04
        39   2 -5.111684E+06 -1.488857E+04  2.828790E+05 -2.213943E+06  3.981771E+05  5.798910E+04
        39   3 -5.353791E+06 -6.669990E+05 -2.262636E+05 -1.858689E+06  5.631859E+05  1.857244E+05
        39   4 -7.685708E+06 -1.120982E+06 -2.359623E+05 -2.988437E+06  1.953335E+05 -1.596767E+04
        39   5 -7.583004E+06 -1.014186E+06 -3.894309E+05 -2.952674E+06  4.088668E+05  6.200728E+04
        39   6 -7.788528E+06 -1.799469E+06 -9.358081E+05 -2.729373E+06  5.995561E+05  1.994827E+05
        39   7 -1.019397E+07 -1.994337E+06 -8.933484E+05 -3.592706E+06  1.803644E+05 -2.165870E+04
        39   8 -1.004832E+07 -2.012876E+06 -1.062295E+06 -3.688629E+06  4.195062E+05  6.600366E+04
        39   9 -1.021736E+07 -2.930695E+06 -1.645932E+06 -3.596639E+06  6.357629E+05  2.131488E+05
        39  10 -5.171324E+06 -2.474933E+05  4.208125E+05 -2.382030E+06 -1.401713E-08  1.280349E-09
        39  11 -5.111856E+06 -1.493528E+04  2.825719E+05 -2.213962E+06 -2.997461E-09 -7.566838E-10
        39  12 -5.354143E+06 -6.671225E+05 -2.269309E+05 -1.858774E+06  8.378639E-11  1.024282E-09
        39  13 -7.685749E+06 -1.120992E+06 -2.360353E+05 -2.988434E+06 -2.404894E-09  1.689430E-09
        39  14 -7.583187E+06 -1.014236E+06 -3.897566E+05 -2.952694E+06 -3.495221E-09  9.757828E-10
        39  15 -7.788929E+06 -1.799611E+06 -9.365692E+05 -2.729470E+06 -5.083187E-10 -1.191742E-09
        39  16 -1.019400E+07 -1.994347E+06 -8.934113E+05 -3.592703E+06  8.187147E-09 -1.173048E-09
        39  17 -1.004852E+07 -2.012929E+06 -1.062639E+06 -3.688651E+06  3.334515E-09  2.188964E-10
        39  18 -1.021781E+07 -2.930856E+06 -1.646793E+06 -3.596750E+06 -5.190660E-09 -3.544499E-10
        39  19 -5.171276E+06 -2.474812E+05  4.208965E+05 -2.382032E+06 -2.103689E+05  1.025651E+04
        39  20 -5.111684E+06 -1.488857E+04  2.828790E+05 -2.213943E+06 -3.981771E+05 -5.798910E+04
        39  21 -5.353791E+06 -6.669990E+05 -2.262636E+05 -1.858689E+06 -5.631859E+05 -1.857244E+05
        39  22 -7.685708E+06 -1.120982E+06 -2.359623E+05 -2.988437E+06 -1.953335E+05  1.596767E+04
        39  23 -7.583004E+06 -1.014186E+06 -3.894309E+05 -2.952674E+06 -4.088668E+05 -6.200728E+04
        39  24 -7.788528E+06 -1.799469E+06 -9.358081E+05 -2.729373E+06 -5.995561E+05 -1.994827E+05
        39  25 -1.019397E+07 -1.994337E+06 -8.933484E+05 -3.592706E+06 -1.803644E+05  2.165870E+04
        39  26 -1.004832E+07 -2.012876E+06 -1.062295E+06 -3.688629E+06 -4.195062E+05 -6.600366E+04
        39  27 -1.021736E+07 -2.930695E+06 -1.645932E+06 -3.596639E+06 -6.357629E+05 -2.131488E+05
        40   1  3.662196E+05 -1.370935E+05  4.333107E+05 -2.656594E+05 -6.180801E+03  2.880653E+05
        40   2 -2.173968E+04 -2.561535E+05  1.890431E+05 -1.243580E+05 -1.398792E+04  1.685623E+05
        40   3 -8.338242E+04 -2.785945E+05  1.040475E+05 -5.181777E+03 -1.867273E+04  4.909778E+04
        40   4  3.991227E+05  1.792304E+04  4.685916E+05 -5.130158E+04 -6.202185E+03  3.003902E+05
        40   5  3.074486E+04 -3.071053E+04  2.357723E+05 -4.225099E+04 -1.404942E+04  1.772067E+05
        40   6 -1.079807E+04  1.786221E+04  1.647558E+05 -5.529379E+04 -1.872408E+04  5.405028E+04
        40   7  4.321978E+05  1.730617E+05  5.038965E+05  1.631095E+05 -6.215061E+03  3.127183E+05
        40   8  8.325204E+04  1.947957E+05  2.825028E+05  3.988635E+04 -1.410861E+04  1.858541E+05
        40   9  6.178986E+04  3.144075E+05  2.254606E+05 -1.054300E+05 -1.877622E+04  5.900509E+04
        40  10  3.661973E+05 -1.371826E+05  4.331547E+05 -2.656580E+05  3.094371E-09  2.154481E-08
        40  11 -2.174752E+04 -2.561841E+05  1.889893E+05 -1.243561E+05  7.901547E-10 -9.454939E-09
        40  12 -8.338344E+04 -2.785972E+05  1.040424E+05 -5.181039E+03 -8.115198E-09 -3.981937E-08
        40  13  3.990984E+05  1.782617E+04  4.684220E+05 -5.130008E+04 -3.809723E-09  5.273898E-09
        40  14  3.073622E+04 -3.074429E+04  2.357129E+05 -4.224899E+04 -2.887609E-10  1.118047E-10
        40  15 -1.079923E+04  1.785898E+04  1.647496E+05 -5.529297E+04  7.347915E-09  3.040654E-09
        40  16  4.321715E+05  1.729567E+05  5.037127E+05  1.631111E+05 -9.455359E-09 -1.886434E-08
        40  17  8.324256E+04  1.947586E+05  2.824375E+05  3.988846E+04 -4.042199E-09  1.159939E-08
        40  18  6.178854E+04  3.144037E+05  2.254534E+05 -1.054291E+05 -1.154590E-09  4.004605E-08
        40  19  3.662196E+05 -1.370935E+05  4.333107E+05 -2.656594E+05  6.180801E+03 -2.880653E+05
        40  20 -2.173968E+04 -2.561535E+05  1.890431E+05 -1.243580E+05  1.398792E+04 -1.685623E+05
        40  21 -8.338242E+04 -2.785945E+05  1.040475E+05 -5.181777E+03  1.867273E+04 -4.909778E+04
        40  22  3.991227E+05  1.792304E+04  4.685916E+05 -5.130158E+04  6.202185E+03 -3.003902E+05
        40  23  3.074486E+04 -3.071053E+04  2.357723E+05 -4.225099E+04  1.404942E+04 -1.772067E+05
        40  24 -1.079807E+04  1.786221E+04  1.647558E+05 -5.529379E+04  1.872408E+04 -5.405028E+04
        40  25  4.321978E+05  1.730617E+05  5.038965E+05  1.631095E+05  6.215061E+03 -3.127183E+05
        40  26  8.325204E+04  1.947957E+05  2.825028E+05  3.988635E+04  1.410861E+04 -1.858541E+05
        40  27  6.178986E+04  3.144075E+05  2.254606E+05 -1.054300E+05  1.877622E+04 -5.900509E+04
        41   1 -6.877250E+04 -3.502339E+05  8.066621E+04 -6.430688E+04 -2.108378E+04  2.266827E+04
        41   2 -1.004209E+05 -4.333651E+05  6.704193E+04 -3.889540E+04 -2.495524E+04 -5.295542E+04
        41   3 -8.861985E+04 -4.962933E+05  1.134338E+05 -3.739769E+04 -2.770909E+04 -1.285606E+05
        41   4  1.561291E+04  7.946905E+02  1.527365E+05 -5.482930E+04 -2.114013E+04  2.862607E+04
        41   5  1.831777E+03 -9.417492E+03  1.539632E+05 -4.279613E+04 -2.499803E+04 -4.833268E+04
        41   6  3.171305E+04  7.838199E+02  2.161066E+05 -5.467392E+04 -2.773548E+04 -1.252816E+05
        41   7  9.999102E+04  3.519407E+05  2.248005E+05 -4.534599E+04 -2.119629E+04  3.458717E+04
        41   8  1.040732E+05  4.147009E+05  2.408749E+05 -4.669917E+04 -2.504086E+04 -4.370682E+04
        41   9  1.520312E+05  4.980959E+05  3.187662E+05 -7.196368E+04 -2.776204E+04 -1.219999E+05
        41  10 -6.877312E+04 -3.502346E+05  8.066441E+04 -6.430650E+04 -4.565021E-09  2.462441E-08
        41  11 -1.004223E+05 -4.333682E+05  6.703548E+04 -3.889647E+04  3.314307E-09  9.180188E-09
        41  12 -8.862512E+04 -4.963113E+05  1.134012E+05 -3.740056E+04 -2.281992E-09 -1.367439E-08
        41  13  1.561221E+04  7.936909E+02  1.527341E+05 -5.482882E+04  8.955297E-09  4.867277E-09
        41  14  1.830479E+03 -9.420168E+03  1.539576E+05 -4.279711E+04  1.649415E-08  3.745603E-11
        41  15  3.170801E+04  7.667627E+02  2.160756E+05 -5.467671E+04  9.793057E-11  3.344705E-09
        41  16  9.999022E+04  3.519393E+05  2.247974E+05 -4.534540E+04 -4.473602E-10 -2.278704E-08
        41  17  1.040720E+05  4.146987E+05  2.408702E+05 -4.670005E+04  5.249780E-10 -7.572238E-09
        41  18  1.520264E+05  4.980797E+05  3.187368E+05 -7.196640E+04 -2.056155E-09  1.449825E-08
        41  19 -6.877250E+04 -3.502339E+05  8.066621E+04 -6.430688E+04  2.108378E+04 -2.266827E+04
        41  20 -1.004209E+05 -4.333651E+05  6.704193E+04 -3.889540E+04  2.495524E+04  5.295542E+04
        41  21 -8.861985E+04 -4.962933E+05  1.134338E+05 -3.739769E+04  2.770909E+04  1.285606E+05
        41  22  1.561291E+04  7.946905E+02  1.527365E+05 -5.482930E+04  2.114013E+04 -2.862607E+04
        41  23  1.831777E+03 -9.417492E+03  1.539632E+05 -4.279613E+04  2.499803E+04  4.833268E+04
        41  24  3.171305E+04  7.838199E+02  2.161066E+05 -5.467392E+04  2.773548E+04  1.252816E+05
        41  25  9.999102E+04  3.519407E+05  2.248005E+05 -4.534599E+04  2.119629E+04 -3.458717E+04
        41  26  1.040732E+05  4.147009E+05  2.408749E+05 -4.669917E+04  2.504086E+04  4.370682E+04
        41  27  1.520312E+05  4.980959E+05  3.187662E+05 -7.196368E+04  2.776204E+04  1.219999E+05
        42   1 -1.543035E+05 -5.152879E+05  1.473685E+05 -1.470295E+05 -3.086112E+04 -1.701564E+05
        42   2 -9.495064E+04 -6.756999E+05  2.974463E+05  1.225655E+05 -2.680745E+04 -3.743327E+05
        42   3  5.938766E+05 -6.522986E+05  7.380262E+05  3.729758E+05 -4.628999E+03 -5.783034E+05
        42   4 -2.306351E+04  3.782428E+04  2.608651E+05 -5.533609E+04 -3.095832E+04 -1.623483E+05
        42   5  5.928217E+04 -5.570969E+04  4.306205E+05 -4.206403E+04 -2.658477E+04 -3.877691E+05
        42   6  7.741987E+05  3.791743E+04  9.054202E+05 -4.800707E+04 -3.925916E+03 -6.130166E+05
        42   7  1.081902E+05  5.912465E+05  3.743506E+05  3.644110E+04 -3.105315E+04 -1.545333E+05
        42   8  2.135895E+05  5.646988E+05  5.637867E+05 -2.068602E+05 -2.635510E+04 -4.012186E+05
        42   9  9.551469E+05  7.289466E+05  1.072877E+06 -4.694621E+05 -3.176273E+03 -6.477682E+05
        42  10 -1.543123E+05 -5.153193E+05  1.473123E+05 -1.470338E+05  1.780817E-09 -1.359972E-08
        42  11 -9.498906E+04 -6.758506E+05  2.971814E+05  1.225575E+05  7.240529E-09  4.384882E-09
        42  12  5.937866E+05 -6.526578E+05  7.373970E+05  3.729737E+05  5.213109E-09  1.875507E-08
        42  13 -2.307161E+04  3.779573E+04  2.608138E+05 -5.534014E+04 -6.737930E-09  5.015488E-09
        42  14  5.924106E+04 -5.587128E+04  4.303366E+05 -4.207233E+04  1.099587E-09 -2.342311E-10
        42  15  7.740979E+05  3.751418E+04  9.047140E+05 -4.800901E+04 -4.677265E-09  2.969464E-09
        42  16  1.081827E+05  5.912207E+05  3.743039E+05  3.643724E+04 -2.901442E-09  1.592457E-08
        42  17  2.135456E+05  5.645259E+05  5.634832E+05 -2.068687E+05 -7.918683E-09 -2.360651E-09
        42  18  9.550344E+05  7.284967E+05  1.072090E+06 -4.694638E+05  1.053988E-09 -1.801655E-08
        42  19 -1.543035E+05 -5.152879E+05  1.473685E+05 -1.470295E+05  3.086112E+04  1.701564E+05
        42  20 -9.495064E+04 -6.756999E+05  2.974463E+05  1.225655E+05  2.680745E+04  3.743327E+05
        42  21  5.938766E+05 -6.522986E+05  7.380262E+05  3.729758E+05  4.628999E+03  5.783034E+05
        42  22 -2.306351E+04  3.782428E+04  2.608651E+05 -5.533609E+04  3.095832E+04  1.623483E+05
        42  23  5.928217E+04 -5.570969E+04  4.306205E+05 -4.206403E+04  2.658477E+04  3.877691E+05
        42  24  7.741987E+05  3.791743E+04  9.054202E+05 -4.800707E+04  3.925916E+03  6.130166E+05
        42  25  1.081902E+05  5.912465E+05  3.743506E+05  3.644110E+04  3.105315E+04  1.545333E+05
        42  26  2.135895E+05  5.646988E+05  5.637867E+05 -2.068602E+05  2.635510E+04  4.012186E+05
        42  27  9.551469E+05  7.289466E+05  1.072877E+06 -4.694621E+05  3.176273E+03  6.477682E+05
        43   1 -7.792223E+06 -1.858349E+06 -1.274108E+06 -2.548556E+06 -9.945407E+05 -3.929978E+05
        43   2 -7.576433E+06 -8.189267E+05 -4.323971E+05 -3.260416E+06 -6.380667E+05 -2.651680E+05
        43   3 -8.517006E+06 -8.547086E+05 -2.912526E+05 -2.994184E+06 -2.917627E+05 -1.120017E+05
        43   4 -9.054303E+06 -2.189758E+06 -1.594637E+06 -2.743707E+06 -9.974768E+05 -3.944534E+05
        43   5 -8.388991E+06 -1.093626E+06 -6.495501E+05 -3.447584E+06 -6.367239E+05 -2.647004E+05
        43   6 -8.882288E+06 -1.074996E+06 -4.096439E+05 -3.173197E+06 -2.858566E+05 -1.096503E+05
        43   7 -1.031479E+07 -2.521212E+06 -1.915273E+06 -2.938589E+06 -1.000404E+06 -3.959081E+05
        43   8 -9.200903E+06 -1.368318E+06 -8.667590E+05 -3.634544E+06 -6.353824E+05 -2.642332E+05
        43   9 -9.247424E+06 -1.295205E+06 -5.280483E+05 -3.352093E+06 -2.799543E+05 -1.073022E+05
        43  10 -7.793339E+06 -1.858787E+06 -1.276287E+06 -2.548874E+06 -3.372587E-09 -1.301488E-09
        43  11 -7.576895E+06 -8.191144E+05 -4.333076E+05 -3.260553E+06  1.068432E-09  3.637845E-09
        43  12 -8.517102E+06 -8.547455E+05 -2.914390E+05 -2.994211E+06  5.573827E-09  8.993422E-10
        43  13 -9.055428E+06 -2.190199E+06 -1.596834E+06 -2.744027E+06  9.037826E-09 -5.790795E-09
        43  14 -8.389451E+06 -1.093813E+06 -6.504581E+05 -3.447721E+06  3.735540E-09 -1.347548E-08
        43  15 -8.882380E+06 -1.075032E+06 -4.098229E+05 -3.173222E+06 -4.238041E-09 -8.127595E-10
        43  16 -1.031593E+07 -2.521658E+06 -1.917488E+06 -2.938911E+06 -2.725789E-10 -2.465082E-09
        43  17 -9.201362E+06 -1.368505E+06 -8.676646E+05 -3.634680E+06  1.039943E-09 -7.672938E-09
        43  18 -9.247512E+06 -1.295239E+06 -5.282201E+05 -3.352117E+06 -1.720941E-09 -1.883876E-09
        43  19 -7.792223E+06 -1.858349E+06 -1.274108E+06 -2.548556E+06  9.945407E+05  3.929978E+05
        43  20 -7.576433E+06 -8.189267E+05 -4.323971E+05 -3.260416E+06  6.380667E+05  2.651680E+05
        43  21 -8.517006E+06 -8.547086E+05 -2.912526E+05 -2.994184E+06  2.917627E+05  1.120017E+05
        43  22 -9.054303E+06 -2.189758E+06 -1.594637E+06 -2.743707E+06  9.974768E+05  3.944534E+05
        43  23 -8.388991E+06 -1.093626E+06 -6.495501E+05 -3.447584E+06  6.367239E+05  2.647004E+05
        43  24 -8.882288E+06 -1.074996E+06 -4.096439E+05 -3.173197E+06  2.858566E+05  1.096503E+05
        43  25 -1.031479E+07 -2.521212E+06 -1.915273E+06 -2.938589E+06  1.000404E+06  3.959081E+05
        43  26 -9.200903E+06 -1.368318E+06 -8.667590E+05 -3.634544E+06  6.353824E+05  2.642332E+05
        43  27 -9.247424E+06 -1.295205E+06 -5.280483E+05 -3.352093E+06  2.799543E+05  1.073022E+05
        44   1 -1.032604E+07 -1.890343E+06 -7.640249E+05 -3.535490E+06 -2.333152E+05 -7.292583E+04
        44   2 -1.038169E+07 -2.004155E+06 -6.636452E+05 -3.895163E+06 -1.564973E+05 -2.877032E+04
        44   3 -1.092730E+07 -1.932887E+06 -6.833469E+05 -3.726728E+06 -7.743596E+04  9.694313E+03
        44   4 -8.808248E+06 -1.275905E+06 -3.356487E+05 -3.087248E+06 -2.307475E+05 -7.193864E+04
        44   5 -8.550842E+06 -1.290491E+06 -1.536647E+05 -3.381275E+06 -1.548779E+05 -2.815369E+04
        44   6 -8.782942E+06 -1.119445E+06 -9.076668E+04 -3.147394E+06 -7.672214E+04  9.959217E+03
        44   7 -7.288208E+06 -6.612602E+05  9.250533E+04 -2.637974E+06 -2.281721E+05 -7.094816E+04
        44   8 -6.716721E+06 -5.765968E+05  3.559998E+05 -2.865983E+06 -1.532525E+05 -2.753468E+04
        44   9 -6.634097E+06 -3.057513E+05  5.013864E+05 -2.566231E+06 -7.600518E+04  1.022531E+04
        44  10 -1.032610E+07 -1.890363E+06 -7.641393E+05 -3.535504E+06  2.157709E-09  6.033714E-09
        44  11 -1.038172E+07 -2.004162E+06 -6.636937E+05 -3.895167E+06  6.241027E-09 -1.656354E-10
        44  12 -1.092731E+07 -1.932889E+06 -6.833585E+05 -3.726727E+06 -1.842709E-09  1.900310E-09
        44  13 -8.808307E+06 -1.275925E+06 -3.357603E+05 -3.087261E+06 -5.300760E-09 -4.185318E-09
        44  14 -8.550868E+06 -1.290499E+06 -1.537120E+05 -3.381278E+06 -1.179546E-09  6.908040E-10
        44  15 -8.782948E+06 -1.119447E+06 -9.077806E+04 -3.147393E+06 -7.149915E-09  5.509518E-10
        44  16 -7.288265E+06 -6.612799E+05  9.239659E+04 -2.637987E+06  3.057219E-09  1.605224E-09
        44  17 -6.716746E+06 -5.766040E+05  3.559537E+05 -2.865987E+06 -7.950886E-09 -2.455673E-09
        44  18 -6.634103E+06 -3.057530E+05  5.013752E+05 -2.566231E+06 -3.847241E-10 -1.209533E-09
        44  19 -1.032604E+07 -1.890343E+06 -7.640249E+05 -3.535490E+06  2.333152E+05  7.292583E+04
        44  20 -1.038169E+07 -2.004155E+06 -6.636452E+05 -3.895163E+06  1.564973E+05  2.877032E+04
        44  21 -1.092730E+07 -1.932887E+06 -6.833469E+05 -3.726728E+06  7.743596E+04 -9.694313E+03
        44  22 -8.808248E+06 -1.275905E+06 -3.356487E+05 -3.087248E+06  2.307475E+05  7.193864E+04
        44  23 -8.550842E+06 -1.290491E+06 -1.536647E+05 -3.381275E+06  1.548779E+05  2.815369E+04
        44  24 -8.782942E+06 -1.119445E+06 -9.076668E+04 -3.147394E+06  7.672214E+04 -9.959217E+03
        44  25 -7.288208E+06 -6.612602E+05  9.250533E+04 -2.637974E+06  2.281721E+05  7.094816E+04
        44  26 -6.716721E+06 -5.765968E+05  3.559998E+05 -2.865983E+06  1.532525E+05  2.753468E+04
        44  27 -6.634097E+06 -3.057513E+05  5.013864E+05 -2.566231E+06  7.600518E+04 -1.022531E+04
        45   1 -1.168125E+07 -2.389480E+06 -9.051394E+05 -4.059650E+06 -6.866451E+04  1.921494E+04
        45   2 -1.171675E+07 -2.355943E+06 -8.746825E+05 -4.064173E+06 -4.905592E+04  3.390464E+04
        45   3 -1.169186E+07 -2.342275E+06 -8.516561E+05 -4.042794E+06 -2.452200E+04  3.539733E+04
        45   4 -8.672389E+06 -1.233670E+06 -6.913689E+04 -3.233150E+06 -6.627884E+04  2.010386E+04
        45   5 -8.701210E+06 -1.212203E+06 -4.064238E+04 -3.250560E+06 -4.919645E+04  3.383384E+04
        45   6 -8.668841E+06 -1.209824E+06 -1.744453E+04 -3.242061E+06 -2.720019E+04  3.439692E+04
        45   7 -5.654705E+06 -7.730537E+04  7.660153E+05 -2.402957E+06 -6.387962E+04  2.099803E+04
        45   8 -5.676811E+06 -6.795519E+04  7.925519E+05 -2.433317E+06 -4.933742E+04  3.376296E+04
        45   9 -5.636930E+06 -7.691325E+04  8.159223E+05 -2.437761E+06 -2.989285E+04  3.339129E+04
        45  10 -1.168125E+07 -2.389481E+06 -9.051490E+05 -4.059649E+06  6.496925E-10  2.877955E-09
        45  11 -1.171676E+07 -2.355945E+06 -8.746893E+05 -4.064171E+06 -4.476857E-09 -4.370391E-09
        45  12 -1.169187E+07 -2.342276E+06 -8.516595E+05 -4.042793E+06 -7.036540E-09 -2.335343E-09
        45  13 -8.672393E+06 -1.233672E+06 -6.914598E+04 -3.233149E+06 -4.979357E-09 -5.495223E-10
        45  14 -8.701213E+06 -1.212205E+06 -4.064909E+04 -3.250558E+06  1.237922E-08  2.296492E-09
        45  15 -8.668842E+06 -1.209825E+06 -1.744814E+04 -3.242060E+06 -1.101542E-10 -1.776258E-09
        45  16 -5.654709E+06 -7.730694E+04  7.660067E+05 -2.402956E+06  5.573813E-09 -3.716857E-09
        45  17 -5.676814E+06 -6.795706E+04  7.925451E+05 -2.433315E+06  3.589773E-09 -2.908802E-09
        45  18 -5.636931E+06 -7.691468E+04  8.159185E+05 -2.437760E+06  1.848223E-09  1.225561E-09
        45  19 -1.168125E+07 -2.389480E+06 -9.051394E+05 -4.059650E+06  6.866451E+04 -1.921494E+04
        45  20 -1.171675E+07 -2.355943E+06 -8.746825E+05 -4.064173E+06  4.905592E+04 -3.390464E+04
        45  21 -1.169186E+07 -2.342275E+06 -8.516561E+05 -4.042794E+06  2.452200E+04 -3.539733E+04
        45  22 -8.672389E+06 -1.233670E+06 -6.913689E+04 -3.233150E+06  6.627884E+04 -2.010386E+04
        45  23 -8.701210E+06 -1.212203E+06 -4.064238E+04 -3.250560E+06  4.919645E+04 -3.383384E+04
        45  24 -8.668841E+06 -1.209824E+06 -1.744453E+04 -3.242061E+06  2.720019E+04 -3.439692E+04
        45  25 -5.654705E+06 -7.730537E+04  7.660153E+05 -2.402957E+06  6.387962E+04 -2.099803E+04
        45  26 -5.676811E+06 -6.795519E+04  7.925519E+05 -2.433317E+06  4.933742E+04 -3.376296E+04
        45  27 -5.636930E+06 -7.691325E+04  8.159223E+05 -2.437761E+06  2.989285E+04 -3.339129E+04
        46   1 -1.070304E+07 -2.097043E+06 -5.981582E+05 -3.905566E+06 -2.267007E+04  3.055115E+04
        46   2 -1.061182E+07 -1.773859E+06 -5.095807E+05 -3.588231E+06 -1.312028E+04  2.635832E+04
        46   3 -1.009979E+07 -1.854901E+06 -4.226995E+05 -3.740990E+06 -7.540317E+02  1.410648E+04
        46   4 -8.589094E+06 -1.307296E+06 -1.651530E+04 -3.347210E+06 -2.324422E+04  3.033230E+04
        46   5 -8.799340E+06 -1.100970E+06 -1.154626E+04 -3.113941E+06 -1.527757E+04  2.557201E+04
        46   6 -8.588569E+06 -1.298419E+06 -6.978704E+03 -3.350700E+06 -4.502524E+03  1.276300E+04
        46   7 -6.470805E+06 -5.173250E+05  5.647163E+05 -2.787115E+06 -2.382052E+04  3.011269E+04
        46   8 -6.983677E+06 -4.279284E+05  4.861854E+05 -2.638390E+06 -1.744186E+04  2.478319E+04
        46   9 -7.075146E+06 -7.418416E+05  4.085304E+05 -2.959548E+06 -8.261133E+03  1.141592E+04
        46  10 -1.070304E+07 -2.097045E+06 -5.981609E+05 -3.905566E+06 -1.126220E-08 -2.863102E-09
        46  11 -1.061182E+07 -1.773859E+06 -5.095823E+05 -3.588231E+06  7.149958E-09 -5.726455E-09
        46  12 -1.009979E+07 -1.854901E+06 -4.226999E+05 -3.740990E+06 -7.348698E-10 -1.679528E-08
        46  13 -8.589094E+06 -1.307297E+06 -1.651803E+04 -3.347209E+06 -1.015571E-08 -9.932153E-10
        46  14 -8.799340E+06 -1.100970E+06 -1.154792E+04 -3.113941E+06 -4.822454E-09  1.192671E-08
        46  15 -8.588569E+06 -1.298419E+06 -6.979047E+03 -3.350699E+06  1.423624E-08  1.534265E-08
        46  16 -6.470806E+06 -5.173261E+05  5.647136E+05 -2.787114E+06  5.043456E-09  2.694366E-09
        46  17 -6.983677E+06 -4.279291E+05  4.861837E+05 -2.638389E+06 -7.691654E-10 -2.644584E-09
        46  18 -7.075146E+06 -7.418418E+05  4.085300E+05 -2.959548E+06 -4.247997E-09 -1.503504E-08
        46  19 -1.070304E+07 -2.097043E+06 -5.981582E+05 -3.905566E+06  2.267007E+04 -3.055115E+04
        46  20 -1.061182E+07 -1.773859E+06 -5.095807E+05 -3.588231E+06  1.312028E+04 -2.635832E+04
        46  21 -1.009979E+07 -1.854901E+06 -4.226995E+05 -3.740990E+06  7.540317E+02 -1.410648E+04
        46  22 -8.589094E+06 -1.307296E+06 -1.651530E+04 -3.347210E+06  2.324422E+04 -3.033230E+04
        46  23 -8.799340E+06 -1.100970E+06 -1.154626E+04 -3.113941E+06  1.527757E+04 -2.557201E+04
        46  24 -8.588569E+06 -1.298419E+06 -6.978704E+03 -3.350700E+06  4.502524E+03 -1.276300E+04
        46  25 -6.470805E+06 -5.173250E+05  5.647163E+05 -2.787115E+06  2.382052E+04 -3.011269E+04
        46  26 -6.983677E+06 -4.279284E+05  4.861854E+05 -2.638390E+06  1.744186E+04 -2.478319E+04
        46  27 -7.075146E+06 -7.418416E+05  4.085304E+05 -2.959548E+06  8.261133E+03 -1.141592E+04
        47   1 -8.093819E+06 -1.141202E+06  1.245805E+05 -3.249405E+06  3.692417E+03  3.502599E+03
        47   2 -7.967147E+06 -7.641755E+05  2.212943E+05 -2.864975E+06  1.380241E+04 -9.528835E+03
        47   3 -7.364033E+06 -8.753404E+05  3.121337E+05 -3.052898E+06  2.262207E+04 -1.879981E+04
        47   4 -8.575753E+06 -1.317840E+06 -8.545668E+03 -3.372975E+06  3.645630E+02  2.314287E+03
        47   5 -8.814119E+06 -1.077036E+06 -1.078680E+04 -3.085445E+06  1.121784E+04 -1.045830E+04
        47   6 -8.576291E+06 -1.324642E+06 -1.949224E+04 -3.370377E+06  2.077660E+04 -1.946861E+04
        47   7 -9.057465E+06 -1.494470E+06 -1.416937E+05 -3.496458E+06 -2.960443E+03  1.126980E+03
        47   8 -9.660400E+06 -1.389865E+06 -2.429343E+05 -3.305642E+06  8.637156E+03 -1.138637E+04
        47   9 -9.787131E+06 -1.773875E+06 -3.512532E+05 -3.687292E+06  1.893510E+04 -2.013598E+04
        47  10 -8.093819E+06 -1.141202E+06  1.245804E+05 -3.249405E+06 -2.018502E-09  1.427093E-09
        47  11 -7.967148E+06 -7.641757E+05  2.212938E+05 -2.864975E+06 -8.233595E-09  3.009084E-09
        47  12 -7.364034E+06 -8.753409E+05  3.121321E+05 -3.052898E+06  1.212890E-08  1.266762E-08
        47  13 -8.575753E+06 -1.317840E+06 -8.545679E+03 -3.372975E+06  3.709045E-09 -9.313645E-09
        47  14 -8.814119E+06 -1.077036E+06 -1.078725E+04 -3.085445E+06  9.525012E-09  2.076004E-08
        47  15 -8.576292E+06 -1.324643E+06 -1.949376E+04 -3.370377E+06 -5.655920E-09 -4.115978E-09
        47  16 -9.057465E+06 -1.494470E+06 -1.416938E+05 -3.496458E+06  1.050241E-08 -3.252183E-09
        47  17 -9.660400E+06 -1.389865E+06 -2.429346E+05 -3.305642E+06 -3.793319E-09 -1.751464E-08
        47  18 -9.787131E+06 -1.773876E+06 -3.512546E+05 -3.687292E+06 -9.772037E-09 -2.430343E-09
        47  19 -8.093819E+06 -1.141202E+06  1.245805E+05 -3.249405E+06 -3.692417E+03 -3.502599E+03
        47  20 -7.967147E+06 -7.641755E+05  2.212943E+05 -2.864975E+06 -1.380241E+04  9.528835E+03
        47  21 -7.364033E+06 -8.753404E+05  3.121337E+05 -3.052898E+06 -2.262207E+04  1.879981E+04
        47  22 -8.575753E+06 -1.317840E+06 -8.545668E+03 -3.372975E+06 -3.645630E+02 -2.314287E+03
        47  23 -8.814119E+06 -1.077036E+06 -1.078680E+04 -3.085445E+06 -1.121784E+04  1.045830E+04
        47  24 -8.576291E+06 -1.324642E+06 -1.949224E+04 -3.370377E+06 -2.077660E+04  1.946861E+04
        47  25 -9.057465E+06 -1.494470E+06 -1.416937E+05 -3.496458E+06  2.960443E+03 -1.126980E+03
        47  26 -9.660400E+06 -1.389865E+06 -2.429343E+05 -3.305642E+06 -8.637156E+03  1.138637E+04
        47  27 -9.787131E+06 -1.773875E+06 -3.512532E+05 -3.687292E+06 -1.893510E+04  2.013598E+04
        48   1 -5.928965E+06 -2.466551E+05  7.213567E+05 -2.582685E+06  2.997391E+04 -2.518966E+04
        48   2 -5.917375E+06 -1.000092E+05  7.331137E+05 -2.437544E+06  5.336666E+04 -2.900926E+04
        48   3 -5.678942E+06 -1.568708E+05  7.358587E+05 -2.475874E+06  7.223778E+04 -2.033801E+04
        48   4 -8.631767E+06 -1.247585E+06 -2.030795E+04 -3.289810E+06  2.649230E+04 -2.646353E+04
        48   5 -8.746857E+06 -1.161063E+06 -4.457362E+04 -3.192182E+06  5.229837E+04 -2.941852E+04
        48   6 -8.635805E+06 -1.278834E+06 -7.987293E+04 -3.278097E+06  7.356827E+04 -1.985762E+04
        48   7 -1.132750E+07 -2.248175E+06 -7.626388E+05 -3.994142E+06  2.302735E+04 -2.773143E+04
        48   8 -1.156859E+07 -2.221701E+06 -8.229968E+05 -3.943689E+06  5.123514E+04 -2.982598E+04
        48   9 -1.158421E+07 -2.400302E+06 -8.964167E+05 -4.076832E+06  7.489111E+04 -1.938018E+04
        48  10 -5.928966E+06 -2.466560E+05  7.213538E+05 -2.582684E+06  9.233894E-09  1.058528E-09
        48  11 -5.917379E+06 -1.000108E+05  7.331068E+05 -2.437543E+06  1.059392E-09  1.511553E-09
        48  12 -5.678948E+06 -1.568727E+05  7.358481E+05 -2.475873E+06  1.492707E-09 -7.406390E-09
        48  13 -8.631768E+06 -1.247586E+06 -2.031058E+04 -3.289809E+06  1.164360E-09 -3.876024E-09
        48  14 -8.746860E+06 -1.161064E+06 -4.458041E+04 -3.192180E+06  1.998239E-09 -2.640357E-09
        48  15 -8.635811E+06 -1.278836E+06 -7.988394E+04 -3.278096E+06  3.784937E-10 -2.409117E-09
        48  16 -1.132750E+07 -2.248176E+06 -7.626412E+05 -3.994142E+06 -6.169832E-09 -5.491859E-09
        48  17 -1.156859E+07 -2.221703E+06 -8.230035E+05 -3.943688E+06  7.523974E-09  5.656053E-09
        48  18 -1.158422E+07 -2.400304E+06 -8.964281E+05 -4.076831E+06 -1.710160E-09  9.743541E-10
        48  19 -5.928965E+06 -2.466551E+05  7.213567E+05 -2.582685E+06 -2.997391E+04  2.518966E+04
        48  20 -5.917375E+06 -1.000092E+05  7.331137E+05 -2.437544E+06 -5.336666E+04  2.900926E+04
        48  21 -5.678942E+06 -1.568708E+05  7.358587E+05 -2.475874E+06 -7.223778E+04  2.033801E+04
        48  22 -8.631767E+06 -1.247585E+06 -2.030795E+04 -3.289810E+06 -2.649230E+04  2.646353E+04
        48  23 -8.746857E+06 -1.161063E+06 -4.457362E+04 -3.192182E+06 -5.229837E+04  2.941852E+04
        48  24 -8.635805E+06 -1.278834E+06 -7.987293E+04 -3.278097E+06 -7.356827E+04  1.985762E+04
        48  25 -1.132750E+07 -2.248175E+06 -7.626388E+05 -3.994142E+06 -2.302735E+04  2.773143E+04
        48  26 -1.156859E+07 -2.221701E+06 -8.229968E+05 -3.943689E+06 -5.123514E+04  2.982598E+04
        48  27 -1.158421E+07 -2.400302E+06 -8.964167E+05 -4.076832E+06 -7.489111E+04  1.938018E+04
        49   1 -5.972398E+06 -1.053862E+05  6.621514E+05 -2.437897E+06  8.808137E+04 -1.271942E+04
        49   2 -6.038582E+06 -2.632474E+05  5.320280E+05 -2.632305E+06  1.778930E+05  2.362800E+04
        49   3 -6.440394E+06 -3.971187E+05  2.746565E+05 -2.434527E+06  2.635601E+05  7.050335E+04
        49   4 -8.748669E+06 -1.148385E+06 -1.015749E+05 -3.180380E+06  8.722941E+04 -1.305331E+04
        49   5 -8.594576E+06 -1.249549E+06 -1.761979E+05 -3.342319E+06  1.787914E+05  2.395597E+04
        49   6 -8.777110E+06 -1.327759E+06 -3.798977E+05 -3.111884E+06  2.662361E+05  7.151728E+04
        49   7 -1.151747E+07 -2.190989E+06 -8.660116E+05 -3.919851E+06  8.638100E+04 -1.338595E+04
        49   8 -1.114423E+07 -2.235427E+06 -8.850345E+05 -4.049648E+06  1.796842E+05  2.428177E+04
        49   9 -1.110851E+07 -2.257955E+06 -1.034972E+06 -3.786867E+06  2.688990E+05  7.252580E+04
        49  10 -5.972407E+06 -1.053885E+05  6.621364E+05 -2.437896E+06 -5.265446E-10  1.995940E-09
        49  11 -6.038616E+06 -2.632567E+05  5.319668E+05 -2.632308E+06  7.493601E-09  1.462639E-08
        49  12 -6.440470E+06 -3.971430E+05  2.745150E+05 -2.434542E+06 -3.780922E-09  5.126539E-09
        49  13 -8.748677E+06 -1.148387E+06 -1.015897E+05 -3.180379E+06  6.824547E-09  3.581482E-09
        49  14 -8.594611E+06 -1.249558E+06 -1.762600E+05 -3.342322E+06  7.986278E-10  9.907643E-10
        49  15 -8.777188E+06 -1.327784E+06 -3.800428E+05 -3.111899E+06  4.733790E-09  2.738847E-09
        49  16 -1.151748E+07 -2.190991E+06 -8.660262E+05 -3.919850E+06  7.639198E-09  4.568376E-09
        49  17 -1.114426E+07 -2.235436E+06 -8.850974E+05 -4.049651E+06  5.684675E-10  1.604531E-09
        49  18 -1.110859E+07 -2.257980E+06 -1.035121E+06 -3.786883E+06 -3.592496E-09 -8.807476E-09
        49  19 -5.972398E+06 -1.053862E+05  6.621514E+05 -2.437897E+06 -8.808137E+04  1.271942E+04
        49  20 -6.038582E+06 -2.632474E+05  5.320280E+05 -2.632305E+06 -1.778930E+05 -2.362800E+04
        49  21 -6.440394E+06 -3.971187E+05  2.746565E+05 -2.434527E+06 -2.635601E+05 -7.050335E+04
        49  22 -8.748669E+06 -1.148385E+06 -1.015749E+05 -3.180380E+06 -8.722941E+04  1.305331E+04
        49  23 -8.594576E+06 -1.249549E+06 -1.761979E+05 -3.342319E+06 -1.787914E+05 -2.395597E+04
        49  24 -8.777110E+06 -1.327759E+06 -3.798977E+05 -3.111884E+06 -2.662361E+05 -7.151728E+04
        49  25 -1.151747E+07 -2.190989E+06 -8.660116E+05 -3.919851E+06 -8.638100E+04  1.338595E+04
        49  26 -1.114423E+07 -2.235427E+06 -8.850345E+05 -4.049648E+06 -1.796842E+05 -2.428177E+04
        49  27 -1.110851E+07 -2.257955E+06 -1.034972E+06 -3.786867E+06 -2.688990E+05 -7.252580E+04
        50   1 -8.179618E+06 -8.783303E+05 -2.842092E+05 -3.060544E+06  3.269559E+05  1.082081E+05
        50   2 -8.113473E+06 -9.202506E+05 -6.584699E+05 -3.343807E+06  7.290684E+05  2.806652E+05
        50   3 -9.319329E+06 -2.236140E+06 -1.836263E+06 -2.572157E+06  1.134502E+06  4.438413E+05
        50   4 -8.899243E+06 -1.070055E+06 -4.657269E+05 -3.175393E+06  3.305148E+05  1.096470E+05
        50   5 -8.361886E+06 -1.063056E+06 -7.370259E+05 -3.458988E+06  7.306323E+05  2.812061E+05
        50   6 -9.096329E+06 -2.329905E+06 -1.810245E+06 -2.687401E+06  1.134421E+06  4.433987E+05
        50   7 -9.618353E+06 -1.261795E+06 -6.472802E+05 -3.290151E+06  3.340688E+05  1.110854E+05
        50   8 -8.610232E+06 -1.205830E+06 -8.155880E+05 -3.574118E+06  7.321954E+05  2.817464E+05
        50   9 -8.873212E+06 -2.423559E+06 -1.784208E+06 -2.802685E+06  1.134339E+06  4.429562E+05
        50  10 -8.179738E+06 -8.783723E+05 -2.844355E+05 -3.060573E+06 -4.961794E-09 -2.386962E-09
        50  11 -8.114072E+06 -9.204818E+05 -6.596348E+05 -3.343973E+06 -4.260115E-09  7.824904E-09
        50  12 -9.320784E+06 -2.236706E+06 -1.839098E+06 -2.572567E+06  5.316836E-09  5.709991E-09
        50  13 -8.899365E+06 -1.070098E+06 -4.659585E+05 -3.175423E+06 -5.604354E-09 -7.347049E-09
        50  14 -8.362488E+06 -1.063288E+06 -7.381963E+05 -3.459155E+06 -2.405759E-09 -3.701823E-09
        50  15 -9.097783E+06 -2.330471E+06 -1.813078E+06 -2.687810E+06 -1.482353E-09  9.429228E-09
        50  16 -9.618478E+06 -1.261839E+06 -6.475173E+05 -3.290181E+06  9.411479E-09 -2.755961E-09
        50  17 -8.610837E+06 -1.206063E+06 -8.167640E+05 -3.574286E+06  2.925034E-09  9.354626E-09
        50  18 -8.874665E+06 -2.424124E+06 -1.787040E+06 -2.803094E+06 -1.484068E-09  4.659943E-09
        50  19 -8.179618E+06 -8.783303E+05 -2.842092E+05 -3.060544E+06 -3.269559E+05 -1.082081E+05
        50  20 -8.113473E+06 -9.202506E+05 -6.584699E+05 -3.343807E+06 -7.290684E+05 -2.806652E+05
        50  21 -9.319329E+06 -2.236140E+06 -1.836263E+06 -2.572157E+06 -1.134502E+06 -4.438413E+05
        50  22 -8.899243E+06 -1.070055E+06 -4.657269E+05 -3.175393E+06 -3.305148E+05 -1.096470E+05
        50  23 -8.361886E+06 -1.063056E+06 -7.370259E+05 -3.458988E+06 -7.306323E+05 -2.812061E+05
        50  24 -9.096329E+06 -2.329905E+06 -1.810245E+06 -2.687401E+06 -1.134421E+06 -4.433987E+05
        50  25 -9.618353E+06 -1.261795E+06 -6.472802E+05 -3.290151E+06 -3.340688E+05 -1.110854E+05
        50  26 -8.610232E+06 -1.205830E+06 -8.155880E+05 -3.574118E+06 -7.321954E+05 -2.817464E+05
        50  27 -8.873212E+06 -2.423559E+06 -1.784208E+06 -2.802685E+06 -1.134339E+06 -4.429562E+05
        51   1  4.261865E+05  1.480936E+05  4.166421E+05 -8.219352E+03  1.937432E+04  2.743371E+04
        51   2  4.272053E+05  1.173735E+05  3.994027E+05 -3.117362E+03  6.086403E+04  9.284165E+03
        51   3  4.191945E+05  8.904003E+04  3.923724E+05 -1.590679E+04  6.245054E+04 -9.110305E+03
        51   4 -1.119287E+04 -1.606005E+06 -1.487438E+04 -4.025573E+03  1.959704E+04 -7.881382E+03
        51   5  7.534473E+02 -1.605181E+06 -8.723302E+03  4.957161E+03  6.096308E+04 -3.041415E+03
        51   6 -3.422222E+02 -1.605975E+06 -8.343666E+03 -3.953557E+03  6.237639E+04  1.552665E+03
        51   7 -4.488008E+05 -3.357297E+06 -4.466133E+05  1.606627E+02  1.981960E+04 -4.309682E+04
        51   8 -4.259118E+05 -3.325005E+06 -4.170553E+05  1.301395E+04  6.106195E+04 -1.533296E+04
        51   9 -4.200849E+05 -3.298345E+06 -4.092586E+05  7.972123E+03  6.230255E+04  1.218667E+04
        51  10  4.261859E+05  1.480927E+05  4.166400E+05 -8.219780E+03 -1.023251E-08  3.425769E-09
        51  11  4.272013E+05  1.173724E+05  3.993956E+05 -3.117816E+03 -2.266072E-09 -8.643054E-09
        51  12  4.191903E+05  8.903890E+04  3.923650E+05 -1.590634E+04  5.592531E-10 -3.995970E-09
        51  13 -1.119329E+04 -1.606005E+06 -1.487522E+04 -4.025449E+03 -5.153678E-09  3.108327E-09
        51  14  7.494569E+02 -1.605182E+06 -8.730298E+03  4.957310E+03 -1.155356E-08  7.880844E-11
        51  15 -3.463978E+02 -1.605976E+06 -8.350977E+03 -3.953635E+03 -1.044857E-08  2.849681E-09
        51  16 -4.488017E+05 -3.357299E+06 -4.466176E+05  1.613518E+02 -8.944775E-09 -6.176040E-11
        51  17 -4.259158E+05 -3.325006E+06 -4.170628E+05  1.301471E+04 -1.784591E-08 -6.788265E-09
        51  18 -4.200891E+05 -3.298346E+06 -4.092662E+05  7.971510E+03 -4.595430E-10  1.733133E-09
        51  19  4.261865E+05  1.480936E+05  4.166421E+05 -8.219352E+03 -1.937432E+04 -2.743371E+04
        51  20  4.272053E+05  1.173735E+05  3.994027E+05 -3.117362E+03 -6.086403E+04 -9.284165E+03
        51  21  4.191945E+05  8.904003E+04  3.923724E+05 -1.590679E+04 -6.245054E+04  9.110305E+03
        51  22 -1.119287E+04 -1.606005E+06 -1.487438E+04 -4.025573E+03 -1.959704E+04  7.881382E+03
        51  23  7.534473E+02 -1.605181E+06 -8.723302E+03  4.957161E+03 -6.096308E+04  3.041415E+03
        51  24 -3.422222E+02 -1.605975E+06 -8.343666E+03 -3.953557E+03 -6.237639E+04 -1.552665E+03
        51  25 -4.488008E+05 -3.357297E+06 -4.466133E+05  1.606627E+02 -1.981960E+04  4.309682E+04
        51  26 -4.259118E+05 -3.325005E+06 -4.170553E+05  1.301395E+04 -6.106195E+04  1.533296E+04
        51  27 -4.200849E+05 -3.298345E+06 -4.092586E+05  7.972123E+03 -6.230255E+04 -1.218667E+04
        52   1  4.090198E+05  4.924191E+04  3.839044E+05 -1.476744E+04  5.641151E+04  4.886415E+03
        52   2  4.007228E+05  1.123467E+04  3.708167E+05 -4.878274E+03  5.733564E+04  8.377807E+03
        52   3  3.841593E+05 -2.762197E+04  3.537588E+05 -2.013922E+04  5.358513E+04  1.182062E+04
        52   4 -9.346713E+02 -1.605876E+06 -9.050104E+03 -5.573511E+03  5.643785E+04  2.986339E+03
        52   5  4.475316E+02 -1.605203E+06 -1.212200E+04  6.974004E+03  5.733840E+04  9.157628E+03
        52   6 -6.917489E+03 -1.605857E+06 -2.103668E+04 -5.632872E+03  5.355886E+04  1.528048E+04
        52   7 -4.110865E+05 -3.258475E+06 -4.021959E+05  3.601122E+03  5.646418E+04  1.091297E+03
        52   8 -4.000155E+05 -3.219236E+06 -3.952425E+05  1.880083E+04  5.734119E+04  9.935406E+03
        52   9 -3.981735E+05 -3.181801E+06 -3.960061E+05  8.842227E+03  5.353273E+04  1.873155E+04
        52  10  4.090164E+05  4.924103E+04  3.838984E+05 -1.476766E+04  7.769382E-10 -3.128752E-09
        52  11  4.007192E+05  1.123371E+04  3.708104E+05 -4.878660E+03 -2.718375E-10 -1.997523E-08
        52  12  3.841562E+05 -2.762289E+04  3.537531E+05 -2.013973E+04  5.949955E-09 -9.954989E-09
        52  13 -9.380916E+02 -1.605877E+06 -9.056102E+03 -5.573647E+03 -8.970814E-10  4.676689E-09
        52  14  4.439813E+02 -1.605204E+06 -1.212833E+04  6.973581E+03 -2.174535E-09  3.051243E-10
        52  15 -6.920630E+03 -1.605858E+06 -2.104250E+04 -5.633531E+03  8.972190E-09  3.730822E-09
        52  16 -4.110899E+05 -3.258476E+06 -4.022019E+05  3.601072E+03 -3.977305E-09  7.550746E-09
        52  17 -4.000190E+05 -3.219237E+06 -3.952489E+05  1.880037E+04 -9.656748E-09  3.622377E-10
        52  18 -3.981767E+05 -3.181802E+06 -3.960121E+05  8.841418E+03  4.477010E-09  7.226406E-09
        52  19  4.090198E+05  4.924191E+04  3.839044E+05 -1.476744E+04 -5.641151E+04 -4.886415E+03
        52  20  4.007228E+05  1.123467E+04  3.708167E+05 -4.878274E+03 -5.733564E+04 -8.377807E+03
        52  21  3.841593E+05 -2.762197E+04  3.537588E+05 -2.013922E+04 -5.358513E+04 -1.182062E+04
        52  22 -9.346713E+02 -1.605876E+06 -9.050104E+03 -5.573511E+03 -5.643785E+04 -2.986339E+03
        52  23  4.475316E+02 -1.605203E+06 -1.212200E+04  6.974004E+03 -5.733840E+04 -9.157628E+03
        52  24 -6.917489E+03 -1.605857E+06 -2.103668E+04 -5.632872E+03 -5.355886E+04 -1.528048E+04
        52  25 -4.110865E+05 -3.258475E+06 -4.021959E+05  3.601122E+03 -5.646418E+04 -1.091297E+03
        52  26 -4.000155E+05 -3.219236E+06 -3.952425E+05  1.880083E+04 -5.734119E+04 -9.935406E+03
        52  27 -3.981735E+05 -3.181801E+06 -3.960061E+05  8.842227E+03 -5.353273E+04 -1.873155E+04
        53   1  3.818747E+05 -8.195254E+04  3.357651E+05 -8.999663E+03  5.624659E+04  2.601898E+04
        53   2  3.750276E+05 -1.190790E+05  3.099571E+05 -1.155280E+04  5.205166E+04  2.960067E+04
        53   3  2.860720E+05 -1.762252E+05  2.614857E+05 -4.655302E+04  1.603364E+04  3.278464E+04
        53   4  3.712307E+03 -1.610671E+06 -2.553436E+04 -6.941409E+03  5.632859E+04  1.921700E+04
        53   5  8.231597E+03 -1.599064E+06 -4.080740E+04  8.832825E+03  5.192825E+04  4.108958E+04
        53   6 -7.264429E+04 -1.610711E+06 -9.150750E+04 -7.848412E+03  1.567117E+04  6.256317E+04
        53   7 -3.746177E+05 -3.137238E+06 -3.869956E+05 -4.882525E+03  5.641066E+04  1.243163E+04
        53   8 -3.587211E+05 -3.077033E+06 -3.917239E+05  2.917529E+04  5.180546E+04  5.255114E+04
        53   9 -4.315094E+05 -3.043317E+06 -4.446490E+05  3.077228E+04  1.531199E+04  9.227284E+04
        53  10  3.818711E+05 -8.195411E+04  3.357579E+05 -9.000841E+03 -7.460026E-09 -9.877645E-09
        53  11  3.750245E+05 -1.190807E+05  3.099503E+05 -1.155404E+04 -4.557604E-10 -1.814187E-08
        53  12  2.860715E+05 -1.762264E+05  2.614832E+05 -4.655345E+04 -2.675853E-09  3.065530E-09
        53  13  3.708803E+03 -1.610673E+06 -2.554102E+04 -6.942282E+03  3.106910E-09  6.022332E-09
        53  14  8.228249E+03 -1.599067E+06 -4.081564E+04  8.831105E+03 -2.784371E-09  2.058587E-10
        53  15 -7.264561E+04 -1.610715E+06 -9.151534E+04 -7.849202E+03  2.788507E-10  3.933650E-09
        53  16 -3.746212E+05 -3.137239E+06 -3.870019E+05 -4.883091E+03  1.144778E-09  1.541508E-08
        53  17 -3.587247E+05 -3.077037E+06 -3.917341E+05  2.917310E+04 -9.519727E-09 -6.877043E-09
        53  18 -4.315120E+05 -3.043327E+06 -4.446655E+05  3.077114E+04 -2.967770E-09 -6.534673E-09
        53  19  3.818747E+05 -8.195254E+04  3.357651E+05 -8.999663E+03 -5.624659E+04 -2.601898E+04
        53  20  3.750276E+05 -1.190790E+05  3.099571E+05 -1.155280E+04 -5.205166E+04 -2.960067E+04
        53  21  2.860720E+05 -1.762252E+05  2.614857E+05 -4.655302E+04 -1.603364E+04 -3.278464E+04
        53  22  3.712307E+03 -1.610671E+06 -2.553436E+04 -6.941409E+03 -5.632859E+04 -1.921700E+04
        53  23  8.231597E+03 -1.599064E+06 -4.080740E+04  8.832825E+03 -5.192825E+04 -4.108958E+04
        53  24 -7.264429E+04 -1.610711E+06 -9.150750E+04 -7.848412E+03 -1.567117E+04 -6.256317E+04
        53  25 -3.746177E+05 -3.137238E+06 -3.869956E+05 -4.882525E+03 -5.641066E+04 -1.243163E+04
        53  26 -3.587211E+05 -3.077033E+06 -3.917239E+05  2.917529E+04 -5.180546E+04 -5.255114E+04
        53  27 -4.315094E+05 -3.043317E+06 -4.446490E+05  3.077228E+04 -1.531199E+04 -9.227284E+04
        54   1  6.829351E+04  8.276601E+05  3.894478E+04 -1.200086E+02  2.389733E+04 -4.511272E+02
        54   2  6.838902E+04  8.277295E+05  3.948229E+04 -9.025301E+01  2.381515E+04 -1.148855E+03
        54   3  6.865677E+04  8.279376E+05  4.051822E+04 -4.876089E+01  2.362504E+04 -1.846642E+03
        54   4 -1.992784E+01  5.242951E+05  5.027283E+02  2.600734E+00  2.389854E+04 -3.826899E+02
        54   5  2.077532E+01  5.242481E+05  8.823788E+02 -3.235879E+00  2.381626E+04 -8.208939E+02
        54   6  1.887561E+02  5.242949E+05  1.580507E+03  2.663975E+00  2.362602E+04 -1.259153E+03
        54   7 -6.833712E+04  2.210244E+05 -3.793964E+04  1.251543E+02  2.389975E+04 -3.142843E+02
        54   8 -6.835124E+04  2.208611E+05 -3.771788E+04  8.374458E+01  2.381737E+04 -4.930854E+02
        54   9 -6.828306E+04  2.207466E+05 -3.735762E+04  5.407128E+01  2.362701E+04 -6.719380E+02
        54  10  6.829289E+04  8.276600E+05  3.894370E+04 -1.199999E+02  4.459193E-09  1.210776E-07
        54  11  6.838841E+04  8.277293E+05  3.948122E+04 -9.023098E+01  5.751568E-09  7.902878E-09
        54  12  6.865617E+04  8.279374E+05  4.051716E+04 -4.872577E+01 -5.552582E-09 -1.037533E-07
        54  13 -2.054134E+01  5.242949E+05  5.016545E+02  2.608098E+00 -1.713969E-08  3.897011E-10
        54  14  2.016590E+01  5.242480E+05  8.813114E+02 -3.220136E+00 -1.028179E-08 -8.136204E-10
        54  15  1.881561E+02  5.242948E+05  1.579455E+03  2.687930E+00 -3.365959E-09  4.774688E-10
        54  16 -6.833773E+04  2.210243E+05 -3.794071E+04  1.251603E+02 -1.942480E-09 -1.214410E-07
        54  17 -6.835185E+04  2.208610E+05 -3.771894E+04  8.375404E+01 -1.479849E-08 -8.028350E-09
        54  18 -6.828366E+04  2.207465E+05 -3.735867E+04  5.408407E+01 -7.020891E-09  1.038616E-07
        54  19  6.829351E+04  8.276601E+05  3.894478E+04 -1.200086E+02 -2.389733E+04  4.511272E+02
        54  20  6.838902E+04  8.277295E+05  3.948229E+04 -9.025301E+01 -2.381515E+04  1.148855E+03
        54  21  6.865677E+04  8.279376E+05  4.051822E+04 -4.876089E+01 -2.362504E+04  1.846642E+03
        54  22 -1.992784E+01  5.242951E+05  5.027283E+02  2.600734E+00 -2.389854E+04  3.826899E+02
        54  23  2.077532E+01  5.242481E+05  8.823788E+02 -3.235879E+00 -2.381626E+04  8.208939E+02
        54  24  1.887561E+02  5.242949E+05  1.580507E+03  2.663976E+00 -2.362602E+04  1.259153E+03
        54  25 -6.833712E+04  2.210244E+05 -3.793964E+04  1.251543E+02 -2.389975E+04  3.142843E+02
        54  26 -6.835124E+04  2.208611E+05 -3.771788E+04  8.374458E+01 -2.381737E+04  4.930854E+02
        54  27 -6.828306E+04  2.207466E+05 -3.735762E+04  5.407128E+01 -2.362701E+04  6.719380E+02
        55   1  6.882214E+04  8.282005E+05  4.126341E+04 -1.503254E+02  2.350497E+04 -2.217638E+03
        55   2  6.971114E+04  8.279261E+05  4.396853E+04  7.553497E+02  2.283354E+04 -6.032218E+03
        55   3  7.225513E+04  8.285662E+05  4.956982E+04  1.620014E+03  2.135667E+04 -9.847271E+03
        55   4  2.777176E+02  5.244027E+05  2.099058E+03 -9.153767E+00  2.350590E+04 -1.567664E+03
        55   5  9.533464E+02  5.241127E+05  3.748455E+03  1.189409E+01  2.283352E+04 -3.446235E+03
        55   6  2.948567E+03  5.244017E+05  6.951330E+03 -8.073322E+00  2.135551E+04 -5.325264E+03
        55   7 -6.827052E+04  2.206995E+05 -3.706576E+04  1.319548E+02  2.350684E+04 -9.179927E+02
        55   8 -6.780836E+04  2.203935E+05 -3.647229E+04 -7.311709E+02  2.283350E+04 -8.614564E+02
        55   9 -6.636210E+04  2.203310E+05 -3.566827E+04 -1.635318E+03  2.135432E+04 -8.053732E+02
        55  10  6.882154E+04  8.282003E+05  4.126236E+04 -1.502834E+02 -6.855424E-10  1.504508E-08
        55  11  6.971057E+04  8.279259E+05  4.396748E+04  7.554606E+02  1.888519E-09 -2.672174E-08
        55  12  7.225462E+04  8.285659E+05  4.956878E+04  1.620184E+03  6.970695E-09 -6.596339E-08
        55  13  2.771235E+02  5.244026E+05  2.098015E+03 -9.124095E+00  4.700595E-09  4.200780E-10
        55  14  9.527832E+02  5.241125E+05  3.747452E+03  1.195745E+01  8.767751E-10 -1.025692E-09
        55  15  2.948070E+03  5.244016E+05  6.950420E+03 -7.981749E+00 -2.047045E-09  5.832361E-10
        55  16 -6.827112E+04  2.206993E+05 -3.706680E+04  1.319722E+02 -6.153830E-09 -1.587723E-08
        55  17 -6.780892E+04  2.203933E+05 -3.647327E+04 -7.311551E+02 -3.608274E-09  2.631381E-08
        55  18 -6.636259E+04  2.203309E+05 -3.566913E+04 -1.635305E+03 -2.488497E-09  6.615798E-08
        55  19  6.882214E+04  8.282005E+05  4.126341E+04 -1.503254E+02 -2.350497E+04  2.217638E+03
        55  20  6.971114E+04  8.279261E+05  4.396853E+04  7.553497E+02 -2.283354E+04  6.032218E+03
        55  21  7.225513E+04  8.285662E+05  4.956982E+04  1.620014E+03 -2.135667E+04  9.847271E+03
        55  22  2.777176E+02  5.244027E+05  2.099058E+03 -9.153767E+00 -2.350590E+04  1.567664E+03
        55  23  9.533464E+02  5.241127E+05  3.748455E+03  1.189409E+01 -2.283352E+04  3.446235E+03
        55  24  2.948567E+03  5.244017E+05  6.951330E+03 -8.073322E+00 -2.135551E+04  5.325264E+03
        55  25 -6.827052E+04  2.206995E+05 -3.706576E+04  1.319548E+02 -2.350684E+04  9.179927E+02
        55  26 -6.780836E+04  2.203935E+05 -3.647229E+04 -7.311709E+02 -2.283350E+04  8.614564E+02
        55  27 -6.636210E+04  2.203310E+05 -3.566827E+04 -1.635318E+03 -2.135432E+04  8.053732E+02
        56   1  7.379909E+04  8.299662E+05  5.353766E+04  1.023006E+03  2.042350E+04 -1.153565E+04
        56   2  8.269695E+04  8.267840E+05  6.910795E+04  1.163648E+04  1.537461E+04 -3.464529E+04
        56   3  1.071208E+05  8.304919E+05  1.035926E+05  2.177368E+04  4.361747E+03 -5.775916E+04
        56   4  4.062810E+03  5.252524E+05  9.322091E+03 -1.058383E+02  2.042192E+04 -6.538792E+03
        56   5  1.163641E+04  5.230456E+05  1.722827E+04  1.395362E+02  1.536514E+04 -1.531800E+04
        56   6  3.225367E+04  5.252451E+05  3.410720E+04 -9.148523E+01  4.343830E+03 -2.410107E+04
        56   7 -6.567772E+04  2.206322E+05 -3.489490E+04 -1.234094E+03  2.042033E+04 -1.544279E+03
        56   8 -5.942833E+04  2.193988E+05 -3.465301E+04 -1.135160E+04  1.535495E+04  4.000146E+03
        56   9 -4.261751E+04  2.200881E+05 -3.537971E+04 -2.194581E+04  4.323540E+03  9.540638E+03
        56  10  7.379861E+04  8.299659E+05  5.353662E+04  1.023196E+03  3.432904E-09  6.661057E-08
        56  11  8.269637E+04  8.267826E+05  6.910526E+04  1.163691E+04  1.190304E-08  2.205632E-08
        56  12  1.071199E+05  8.304883E+05  1.035863E+05  2.177389E+04 -2.644992E-09 -2.152447E-08
        56  13  4.062351E+03  5.252522E+05  9.321227E+03 -1.057308E+02 -3.180492E-09  5.729702E-10
        56  14  1.163609E+04  5.230453E+05  1.722738E+04  1.397257E+02  9.650907E-09 -1.146708E-09
        56  15  3.225350E+04  5.252445E+05  3.410607E+04 -9.140093E+01 -1.490882E-09  8.455883E-10
        56  16 -6.567816E+04  2.206321E+05 -3.489569E+04 -1.234069E+03 -1.889779E-09 -6.734220E-08
        56  17 -5.942859E+04  2.193987E+05 -3.465348E+04 -1.135165E+04  4.215380E-09 -2.245911E-08
        56  18 -4.261756E+04  2.200880E+05 -3.537991E+04 -2.194584E+04  3.157806E-09  2.169955E-08
        56  19  7.379909E+04  8.299662E+05  5.353766E+04  1.023006E+03 -2.042350E+04  1.153565E+04
        56  20  8.269695E+04  8.267840E+05  6.910795E+04  1.163648E+04 -1.537461E+04  3.464529E+04
        56  21  1.071208E+05  8.304919E+05  1.035926E+05  2.177368E+04 -4.361747E+03  5.775916E+04
        56  22  4.062810E+03  5.252524E+05  9.322091E+03 -1.058383E+02 -2.042192E+04  6.538792E+03
        56  23  1.163641E+04  5.230456E+05  1.722827E+04  1.395362E+02 -1.536514E+04  1.531800E+04
        56  24  3.225367E+04  5.252451E+05  3.410720E+04 -9.148523E+01 -4.343830E+03  2.410107E+04
        56  25 -6.567772E+04  2.206322E+05 -3.489490E+04 -1.234094E+03 -2.042033E+04  1.544279E+03
        56  26 -5.942833E+04  2.193988E+05 -3.465301E+04 -1.135160E+04 -1.535495E+04 -4.000146E+03
        56  27 -4.261751E+04  2.200881E+05 -3.537971E+04 -2.194581E+04 -4.323540E+03 -9.540638E+03
        57   1 -2.281206E+07 -7.168669E+06 -4.754756E+06 -7.679373E+06 -2.041849E+06 -7.402764E+05
        57   2 -2.212406E+07 -3.807869E+06 -2.730869E+06 -7.910920E+06 -1.326398E+06 -3.933967E+05
        57   3 -2.200603E+07 -4.187944E+06 -2.109695E+06 -7.884357E+06 -5.716533E+05 -1.508233E+05
        57   4 -1.761069E+07 -4.838642E+06 -3.219786E+06 -5.943478E+06 -2.031667E+06 -7.377301E+05
        57   5 -1.715823E+07 -1.837333E+06 -1.326865E+06 -6.501407E+06 -1.330658E+06 -3.952575E+05
        57   6 -1.726179E+07 -2.556759E+06 -8.149400E+05 -6.803737E+06 -5.908357E+05 -1.576235E+05
        57   7 -1.238214E+07 -2.504144E+06 -1.687622E+06 -4.192899E+06 -2.021315E+06 -7.350943E+05
        57   8 -1.216790E+07  1.351400E+05  7.473356E+04 -5.081083E+06 -1.334915E+06 -3.971160E+05
        57   9 -1.249531E+07 -9.253576E+05  4.777891E+05 -5.715766E+06 -6.101670E+05 -1.644668E+05
        57  10 -2.281685E+07 -7.170458E+06 -4.764001E+06 -7.680626E+06 -5.093498E-09  6.843384E-11
        57  11 -2.212605E+07 -3.808539E+06 -2.734618E+06 -7.911352E+06 -1.057707E-08 -6.540277E-10
        57  12 -2.200640E+07 -4.188061E+06 -2.110379E+06 -7.884429E+06 -4.681298E-09 -5.003219E-09
        57  13 -1.761539E+07 -4.840395E+06 -3.228854E+06 -5.944711E+06 -2.289934E-09 -8.645592E-10
        57  14 -1.716023E+07 -1.838001E+06 -1.330605E+06 -6.501839E+06  5.596297E-09  1.858446E-09
        57  15 -1.726218E+07 -2.556884E+06 -8.156657E+05 -6.803814E+06 -8.328274E-09 -1.968761E-09
        57  16 -1.238675E+07 -2.505863E+06 -1.696514E+06 -4.194112E+06 -5.539867E-09  8.478845E-10
        57  17 -1.216989E+07  1.344745E+05  7.100192E+04 -5.081516E+06  3.963837E-09  2.893924E-09
        57  18 -1.249573E+07 -9.254902E+05  4.770204E+05 -5.715848E+06  5.686705E-09  2.418836E-09
        57  19 -2.281206E+07 -7.168669E+06 -4.754756E+06 -7.679373E+06  2.041849E+06  7.402764E+05
        57  20 -2.212406E+07 -3.807869E+06 -2.730869E+06 -7.910920E+06  1.326398E+06  3.933967E+05
        57  21 -2.200603E+07 -4.187944E+06 -2.109695E+06 -7.884357E+06  5.716533E+05  1.508233E+05
        57  22 -1.761069E+07 -4.838642E+06 -3.219786E+06 -5.943478E+06  2.031667E+06  7.377301E+05
        57  23 -1.715823E+07 -1.837333E+06 -1.326865E+06 -6.501407E+06  1.330658E+06  3.952575E+05
        57  24 -1.726179E+07 -2.556759E+06 -8.149400E+05 -6.803737E+06  5.908357E+05  1.576235E+05
        57  25 -1.238214E+07 -2.504144E+06 -1.687622E+06 -4.192899E+06  2.021315E+06  7.350943E+05
        57  26 -1.216790E+07  1.351400E+05  7.473356E+04 -5.081083E+06  1.334915E+06  3.971160E+05
        57  27 -1.249531E+07 -9.253576E+05  4.777891E+05 -5.715766E+06  6.101670E+05  1.644668E+05
        58   1 -1.701566E+07 -3.148187E+06 -6.820052E+05 -6.842799E+06 -4.524450E+05 -1.473879E+05
        58   2 -1.658835E+07 -1.714530E+06 -3.974389E+04 -5.921912E+06 -2.802048E+05 -1.170562E+05
        58   3 -1.509416E+07 -2.051275E+06  3.435743E+05 -6.396756E+06 -1.077604E+05 -8.595818E+04
        58   4 -1.703898E+07 -3.113185E+06 -6.814766E+05 -6.801491E+06 -4.577532E+05 -1.493346E+05
        58   5 -1.754823E+07 -2.063018E+06 -3.039967E+05 -6.161610E+06 -2.853510E+05 -1.189246E+05
        58   6 -1.699131E+07 -2.783811E+06 -1.853640E+05 -6.917893E+06 -1.130186E+05 -8.786853E+04
        58   7 -1.706229E+07 -3.078172E+06 -6.809465E+05 -6.760183E+06 -4.630611E+05 -1.512823E+05
        58   8 -1.850722E+07 -2.411475E+06 -5.683347E+05 -6.400970E+06 -2.904878E+05 -1.207898E+05
        58   9 -1.888491E+07 -3.516108E+06 -7.146443E+05 -7.437524E+06 -1.182583E+05 -8.977158E+04
        58  10 -1.701589E+07 -3.148268E+06 -6.824445E+05 -6.842854E+06 -7.549682E-10 -4.574366E-09
        58  11 -1.658844E+07 -1.714567E+06 -3.992253E+04 -5.921939E+06 -1.415460E-08 -2.520547E-09
        58  12 -1.509417E+07 -2.051286E+06  3.435376E+05 -6.396764E+06 -5.262736E-09 -3.081791E-09
        58  13 -1.703922E+07 -3.113268E+06 -6.819265E+05 -6.801547E+06  1.578361E-09  5.182029E-09
        58  14 -1.754833E+07 -2.063056E+06 -3.041821E+05 -6.161638E+06 -4.134843E-09 -8.339760E-09
        58  15 -1.699132E+07 -2.783823E+06 -1.854037E+05 -6.917901E+06  9.017997E-10  1.586627E-09
        58  16 -1.706254E+07 -3.078257E+06 -6.814070E+05 -6.760240E+06  4.695507E-09 -2.438109E-09
        58  17 -1.850731E+07 -2.411515E+06 -5.685271E+05 -6.400999E+06  1.962890E-08 -5.382194E-10
        58  18 -1.888493E+07 -3.516121E+06 -7.146871E+05 -7.437532E+06 -1.608184E-10  1.250217E-08
        58  19 -1.701566E+07 -3.148187E+06 -6.820052E+05 -6.842799E+06  4.524450E+05  1.473879E+05
        58  20 -1.658835E+07 -1.714530E+06 -3.974389E+04 -5.921912E+06  2.802048E+05  1.170562E+05
        58  21 -1.509416E+07 -2.051275E+06  3.435743E+05 -6.396756E+06  1.077604E+05  8.595818E+04
        58  22 -1.703898E+07 -3.113185E+06 -6.814766E+05 -6.801491E+06  4.577532E+05  1.493346E+05
        58  23 -1.754823E+07 -2.063018E+06 -3.039967E+05 -6.161610E+06  2.853510E+05  1.189246E+05
        58  24 -1.699131E+07 -2.783811E+06 -1.853640E+05 -6.917893E+06  1.130186E+05  8.786853E+04
        58  25 -1.706229E+07 -3.078172E+06 -6.809465E+05 -6.760183E+06  4.630611E+05  1.512823E+05
        58  26 -1.850722E+07 -2.411475E+06 -5.683347E+05 -6.400970E+06  2.904878E+05  1.207898E+05
        58  27 -1.888491E+07 -3.516108E+06 -7.146443E+05 -7.437524E+06  1.182583E+05  8.977158E+04
        59   1 -1.168400E+07 -5.096686E+05  1.390160E+06 -5.131116E+06 -7.202910E+04 -9.924354E+04
        59   2 -1.178845E+07 -3.365781E+05  1.461420E+06 -5.028373E+06 -3.034013E+04 -1.116578E+05
        59   3 -1.151657E+07 -3.113367E+05  1.556188E+06 -5.008079E+06 -4.399525E+03 -8.222099E+04
        59   4 -1.717224E+07 -2.568124E+06 -1.324589E+05 -6.577041E+06 -8.032618E+04 -1.023410E+05
        59   5 -1.735500E+07 -2.470785E+06 -8.912360E+04 -6.543591E+06 -3.061664E+04 -1.118287E+05
        59   6 -1.716459E+07 -2.524460E+06 -2.910408E+04 -6.592799E+06  3.270073E+03 -7.928714E+04
        59   7 -2.263095E+07 -4.625108E+06 -1.657910E+06 -8.011151E+06 -8.853669E+04 -1.054072E+05
        59   8 -2.289106E+07 -4.603166E+06 -1.642609E+06 -8.046167E+06 -3.088733E+04 -1.119980E+05
        59   9 -2.278119E+07 -4.735391E+06 -1.617471E+06 -8.164023E+06  1.086209E+04 -7.638407E+04
        59  10 -1.168401E+07 -5.096806E+05  1.390131E+06 -5.131122E+06  1.632969E-09 -2.992656E-09
        59  11 -1.178846E+07 -3.365917E+05  1.461395E+06 -5.028375E+06  2.989324E-09  4.740558E-09
        59  12 -1.151657E+07 -3.113439E+05  1.556176E+06 -5.008080E+06 -1.520031E-09  1.075252E-08
        59  13 -1.717225E+07 -2.568137E+06 -1.324914E+05 -6.577048E+06 -7.424071E-10  6.434991E-10
        59  14 -1.735500E+07 -2.470798E+06 -8.914900E+04 -6.543594E+06  1.745819E-08 -6.326900E-10
        59  15 -1.716459E+07 -2.524466E+06 -2.911585E+04 -6.592799E+06 -1.169596E-08  8.212556E-09
        59  16 -2.263096E+07 -4.625122E+06 -1.657946E+06 -8.011158E+06 -2.714709E-09  6.057618E-09
        59  17 -2.289107E+07 -4.603179E+06 -1.642635E+06 -8.046169E+06  1.855470E-09  4.253733E-09
        59  18 -2.278119E+07 -4.735397E+06 -1.617482E+06 -8.164022E+06 -5.955899E-10  3.884587E-09
        59  19 -1.168400E+07 -5.096686E+05  1.390160E+06 -5.131116E+06  7.202910E+04  9.924354E+04
        59  20 -1.178845E+07 -3.365781E+05  1.461420E+06 -5.028373E+06  3.034013E+04  1.116578E+05
        59  21 -1.151657E+07 -3.113367E+05  1.556188E+06 -5.008079E+06  4.399525E+03  8.222099E+04
        59  22 -1.717224E+07 -2.568124E+06 -1.324589E+05 -6.577041E+06  8.032618E+04  1.023410E+05
        59  23 -1.735500E+07 -2.470785E+06 -8.912360E+04 -6.543591E+06  3.061664E+04  1.118287E+05
        59  24 -1.716459E+07 -2.524460E+06 -2.910408E+04 -6.592799E+06 -3.270073E+03  7.928714E+04
        59  25 -2.263095E+07 -4.625108E+06 -1.657910E+06 -8.011151E+06  8.853669E+04  1.054072E+05
        59  26 -2.289106E+07 -4.603166E+06 -1.642609E+06 -8.046167E+06  3.088733E+04  1.119980E+05
        59  27 -2.278119E+07 -4.735391E+06 -1.617471E+06 -8.164023E+06 -1.086209E+04  7.638407E+04
        60   1 -1.445486E+07 -1.025230E+06  8.270162E+05 -5.393764E+06 -1.761557E+03 -6.355954E+04
        60   2 -1.472011E+07 -1.982501E+06  5.933500E+05 -6.324770E+06 -2.644861E+03 -4.101978E+04
        60   3 -1.623223E+07 -1.692931E+06  3.543929E+05 -5.893579E+06 -1.041999E+04 -2.087721E+03
        60   4 -1.752217E+07 -2.235058E+06 -3.440521E+04 -6.260837E+06  6.020923E+02 -6.264772E+04
        60   5 -1.689733E+07 -2.848260E+06 -2.041976E+04 -6.946399E+06  2.933103E+03 -3.880374E+04
        60   6 -1.752129E+07 -2.215167E+06 -1.435726E+04 -6.269757E+06 -1.629359E+03  1.468287E+03
        60   7 -2.058015E+07 -3.444216E+06 -8.967344E+05 -7.123885E+06  2.952785E+03 -6.174108E+04
        60   8 -1.906985E+07 -3.713661E+06 -6.346495E+05 -7.565970E+06  8.488814E+03 -3.659660E+04
        60   9 -1.880871E+07 -2.737265E+06 -3.832721E+05 -6.645194E+06  7.140317E+03  5.015700E+03
        60  10 -1.445487E+07 -1.025235E+06  8.270086E+05 -5.393764E+06  2.736317E-09  1.565881E-08
        60  11 -1.472011E+07 -1.982503E+06  5.933468E+05 -6.324770E+06 -1.230025E-08  9.851951E-11
        60  12 -1.623223E+07 -1.692931E+06  3.543927E+05 -5.893579E+06 -8.580107E-09  1.694448E-08
        60  13 -1.752217E+07 -2.235062E+06 -3.441255E+04 -6.260837E+06  4.416677E-09  5.324292E-09
        60  14 -1.689733E+07 -2.848262E+06 -2.042259E+04 -6.946399E+06  7.083153E-09 -2.178211E-08
        60  15 -1.752129E+07 -2.215167E+06 -1.435727E+04 -6.269757E+06  3.641724E-09 -2.049266E-08
        60  16 -2.058015E+07 -3.444220E+06 -8.967415E+05 -7.123885E+06 -6.958757E-09 -3.359666E-09
        60  17 -1.906985E+07 -3.713662E+06 -6.346521E+05 -7.565970E+06  9.719943E-09  5.791562E-09
        60  18 -1.880871E+07 -2.737265E+06 -3.832722E+05 -6.645194E+06  1.818279E-09  2.246093E-08
        60  19 -1.445486E+07 -1.025230E+06  8.270162E+05 -5.393764E+06  1.761557E+03  6.355954E+04
        60  20 -1.472011E+07 -1.982501E+06  5.933500E+05 -6.324770E+06  2.644861E+03  4.101978E+04
        60  21 -1.623223E+07 -1.692931E+06  3.543929E+05 -5.893579E+06  1.041999E+04  2.087721E+03
        60  22 -1.752217E+07 -2.235058E+06 -3.440521E+04 -6.260837E+06 -6.020923E+02  6.264772E+04
        60  23 -1.689733E+07 -2.848260E+06 -2.041976E+04 -6.946399E+06 -2.933103E+03  3.880374E+04
        60  24 -1.752129E+07 -2.215167E+06 -1.435726E+04 -6.269757E+06  1.629359E+03 -1.468287E+03
        60  25 -2.058015E+07 -3.444216E+06 -8.967344E+05 -7.123885E+06 -2.952785E+03  6.174108E+04
        60  26 -1.906985E+07 -3.713661E+06 -6.346495E+05 -7.565970E+06 -8.488814E+03  3.659660E+04
        60  27 -1.880871E+07 -2.737265E+06 -3.832721E+05 -6.645194E+06 -7.140317E+03 -5.015700E+03
        61   1 -2.105304E+07 -3.759780E+06 -1.044767E+06 -7.405768E+06 -2.394736E+04  2.750764E+04
        61   2 -2.131476E+07 -4.439272E+06 -1.235580E+06 -8.045339E+06 -1.995872E+04  7.052467E+04
        61   3 -2.231125E+07 -4.226427E+06 -1.407395E+06 -7.694531E+06 -2.661511E+03  8.082535E+04
        61   4 -1.740973E+07 -2.293112E+06 -7.016734E+03 -6.354175E+06 -1.373277E+04  3.160574E+04
        61   5 -1.704379E+07 -2.752486E+06 -2.955034E+04 -6.843461E+06 -1.607161E+04  7.201391E+04
        61   6 -1.741053E+07 -2.318036E+06 -2.771233E+04 -6.342893E+06 -5.126030E+03  7.982695E+04
        61   7 -1.375319E+07 -8.253820E+05  1.029424E+06 -5.296703E+06 -3.449015E+03  3.573190E+04
        61   8 -1.275465E+07 -1.064395E+06  1.174706E+06 -5.633734E+06 -1.215420E+04  7.351529E+04
        61   9 -1.248591E+07 -4.081009E+05  1.349650E+06 -4.981175E+06 -7.613838E+03  7.881992E+04
        61  10 -2.105304E+07 -3.759781E+06 -1.044770E+06 -7.405767E+06  1.884779E-09 -1.582289E-09
        61  11 -2.131476E+07 -4.439277E+06 -1.235590E+06 -8.045338E+06 -6.136932E-09 -8.373350E-09
        61  12 -2.231125E+07 -4.226434E+06 -1.407407E+06 -7.694530E+06 -6.305962E-10 -7.289896E-09
        61  13 -1.740973E+07 -2.293113E+06 -7.018945E+03 -6.354174E+06 -4.086825E-09  1.675087E-08
        61  14 -1.704379E+07 -2.752491E+06 -2.956049E+04 -6.843460E+06  1.043946E-08 -1.604576E-08
        61  15 -1.741053E+07 -2.318043E+06 -2.772428E+04 -6.342893E+06  2.777083E-09 -4.776532E-10
        61  16 -1.375319E+07 -8.253833E+05  1.029422E+06 -5.296703E+06 -5.311557E-09  7.221718E-09
        61  17 -1.275465E+07 -1.064401E+06  1.174695E+06 -5.633734E+06  7.437469E-09 -8.985177E-09
        61  18 -1.248592E+07 -4.081075E+05  1.349638E+06 -4.981174E+06  1.222168E-08 -5.110161E-09
        61  19 -2.105304E+07 -3.759780E+06 -1.044767E+06 -7.405768E+06  2.394736E+04 -2.750764E+04
        61  20 -2.131476E+07 -4.439272E+06 -1.235580E+06 -8.045339E+06  1.995872E+04 -7.052467E+04
        61  21 -2.231125E+07 -4.226427E+06 -1.407395E+06 -7.694531E+06  2.661511E+03 -8.082535E+04
        61  22 -1.740973E+07 -2.293112E+06 -7.016734E+03 -6.354175E+06  1.373277E+04 -3.160574E+04
        61  23 -1.704379E+07 -2.752486E+06 -2.955034E+04 -6.843461E+06  1.607161E+04 -7.201391E+04
        61  24 -1.741053E+07 -2.318036E+06 -2.771233E+04 -6.342893E+06  5.126030E+03 -7.982695E+04
        61  25 -1.375319E+07 -8.253820E+05  1.029424E+06 -5.296703E+06  3.449015E+03 -3.573190E+04
        61  26 -1.275465E+07 -1.064395E+06  1.174706E+06 -5.633734E+06  1.215420E+04 -7.351529E+04
        61  27 -1.248591E+07 -4.081009E+05  1.349650E+06 -4.981175E+06  7.613838E+03 -7.881992E+04
        62   1 -2.221058E+07 -4.657472E+06 -1.484159E+06 -8.150541E+06 -5.993169E+03  8.097164E+04
        62   2 -2.213306E+07 -4.061430E+06 -1.378794E+06 -7.582487E+06  3.968088E+04  9.815540E+04
        62   3 -2.118493E+07 -4.227433E+06 -1.283818E+06 -7.796886E+06  9.811729E+04  7.984969E+04
        62   4 -1.705151E+07 -2.665069E+06 -3.458240E+04 -6.744638E+06 -2.389253E+03  8.228458E+04
        62   5 -1.749153E+07 -2.300266E+06 -8.241894E+04 -6.348999E+06  3.665197E+04  9.698874E+04
        62   6 -1.705921E+07 -2.694842E+06 -1.349078E+05 -6.735494E+06  8.836445E+04  7.631301E+04
        62   7 -1.186600E+07 -6.710419E+05  1.412431E+06 -5.327700E+06  1.247681E+03  8.361045E+04
        62   8 -1.282864E+07 -5.379614E+05  1.211906E+06 -5.106856E+06  3.359522E+04  9.581207E+04
        62   9 -1.291668E+07 -1.161515E+06  1.012397E+06 -5.667528E+06  7.853584E+04  7.274948E+04
        62  10 -2.221059E+07 -4.657479E+06 -1.484171E+06 -8.150541E+06  3.169143E-09  5.588156E-09
        62  11 -2.213306E+07 -4.061441E+06 -1.378815E+06 -7.582490E+06  7.716262E-10  1.095394E-08
        62  12 -2.118494E+07 -4.227443E+06 -1.283849E+06 -7.796893E+06 -5.183017E-09  1.108835E-08
        62  13 -1.705151E+07 -2.665077E+06 -3.459508E+04 -6.744638E+06  3.254875E-10  3.609260E-09
        62  14 -1.749153E+07 -2.300276E+06 -8.243931E+04 -6.349002E+06 -7.527992E-10  3.130127E-09
        62  15 -1.705922E+07 -2.694851E+06 -1.349341E+05 -6.735499E+06 -4.445561E-09  5.732500E-09
        62  16 -1.186601E+07 -6.710494E+05  1.412418E+06 -5.327701E+06  3.518668E-09 -1.576800E-09
        62  17 -1.282864E+07 -5.379716E+05  1.211887E+06 -5.106859E+06  2.205975E-09  4.907951E-09
        62  18 -1.291669E+07 -1.161522E+06  1.012375E+06 -5.667533E+06 -4.117317E-09  5.041792E-09
        62  19 -2.221058E+07 -4.657472E+06 -1.484159E+06 -8.150541E+06  5.993169E+03 -8.097164E+04
        62  20 -2.213306E+07 -4.061430E+06 -1.378794E+06 -7.582487E+06 -3.968088E+04 -9.815540E+04
        62  21 -2.118493E+07 -4.227433E+06 -1.283818E+06 -7.796886E+06 -9.811729E+04 -7.984969E+04
        62  22 -1.705151E+07 -2.665069E+06 -3.458240E+04 -6.744638E+06  2.389253E+03 -8.228458E+04
        62  23 -1.749153E+07 -2.300266E+06 -8.241894E+04 -6.348999E+06 -3.665197E+04 -9.698874E+04
        62  24 -1.705921E+07 -2.694842E+06 -1.349078E+05 -6.735494E+06 -8.836445E+04 -7.631301E+04
        62  25 -1.186600E+07 -6.710419E+05  1.412431E+06 -5.327700E+06 -1.247681E+03 -8.361045E+04
        62  26 -1.282864E+07 -5.379614E+05  1.211906E+06 -5.106856E+06 -3.359522E+04 -9.581207E+04
        62  27 -1.291668E+07 -1.161515E+06  1.012397E+06 -5.667528E+06 -7.853584E+04 -7.274948E+04
        63   1 -1.620150E+07 -2.492519E+06  3.695181E+04 -6.729399E+06  1.328687E+05  5.735924E+04
        63   2 -1.584423E+07 -1.432467E+06  1.694503E+05 -5.722811E+06  3.037082E+05  7.854657E+04
        63   3 -1.444265E+07 -2.088339E+06  5.314039E+04 -6.054445E+06  4.679179E+05  1.195092E+05
        63   4 -1.699731E+07 -2.764538E+06 -1.816039E+05 -6.909063E+06  1.236695E+05  5.407401E+04
        63   5 -1.754225E+07 -2.077255E+06 -3.031364E+05 -6.177391E+06  2.979403E+05  7.644473E+04
        63   6 -1.704501E+07 -3.107939E+06 -6.769365E+05 -6.784551E+06  4.653141E+05  1.185017E+05
        63   7 -1.779250E+07 -3.036554E+06 -4.002167E+05 -7.088524E+06  1.144834E+05  5.079256E+04
        63   8 -1.923743E+07 -2.721882E+06 -7.759956E+05 -6.630806E+06  2.921891E+05  7.434913E+04
        63   9 -1.964070E+07 -4.127035E+06 -1.407663E+06 -7.511748E+06  4.627187E+05  1.174974E+05
        63  10 -1.620152E+07 -2.492528E+06  3.691122E+04 -6.729405E+06  2.858135E-09  2.717924E-09
        63  11 -1.584433E+07 -1.432499E+06  1.692600E+05 -5.722831E+06 -8.329150E-10 -2.885091E-08
        63  12 -1.444289E+07 -2.088416E+06  5.269013E+04 -6.054491E+06 -9.229518E-09 -1.145218E-08
        63  13 -1.699733E+07 -2.764546E+06 -1.816393E+05 -6.909069E+06  6.255442E-09  1.378607E-08
        63  14 -1.754235E+07 -2.077287E+06 -3.033199E+05 -6.177409E+06  2.815186E-09  4.751728E-09
        63  15 -1.704525E+07 -3.108015E+06 -6.773836E+05 -6.784596E+06 -2.016407E-09 -5.418607E-09
        63  16 -1.779252E+07 -3.036560E+06 -4.002472E+05 -7.088529E+06 -7.896230E-09 -4.977750E-09
        63  17 -1.923753E+07 -2.721912E+06 -7.761725E+05 -6.630824E+06  4.594580E-09 -6.669971E-09
        63  18 -1.964094E+07 -4.127111E+06 -1.408107E+06 -7.511793E+06  9.228499E-09  9.177943E-09
        63  19 -1.620150E+07 -2.492519E+06  3.695181E+04 -6.729399E+06 -1.328687E+05 -5.735924E+04
        63  20 -1.584423E+07 -1.432467E+06  1.694503E+05 -5.722811E+06 -3.037082E+05 -7.854657E+04
        63  21 -1.444265E+07 -2.088339E+06  5.314039E+04 -6.054445E+06 -4.679179E+05 -1.195092E+05
        63  22 -1.699731E+07 -2.764538E+06 -1.816039E+05 -6.909063E+06 -1.236695E+05 -5.407401E+04
        63  23 -1.754225E+07 -2.077255E+06 -3.031364E+05 -6.177391E+06 -2.979403E+05 -7.644473E+04
        63  24 -1.704501E+07 -3.107939E+06 -6.769365E+05 -6.784551E+06 -4.653141E+05 -1.185017E+05
        63  25 -1.779250E+07 -3.036554E+06 -4.002167E+05 -7.088524E+06 -1.144834E+05 -5.079256E+04
        63  26 -1.923743E+07 -2.721882E+06 -7.759956E+05 -6.630806E+06 -2.921891E+05 -7.434913E+04
        63  27 -1.964070E+07 -4.127035E+06 -1.407663E+06 -7.511748E+06 -4.627187E+05 -1.174974E+05
        64   1 -1.160737E+07 -3.913629E+05  7.691627E+05 -5.254955E+06  6.093100E+05  1.456550E+05
        64   2 -1.146385E+07  1.955162E+05  2.395666E+05 -5.101144E+06  1.324210E+06  3.962533E+05
        64   3 -1.242389E+07 -2.244855E+06 -1.624558E+06 -3.969323E+06  2.000622E+06  7.475902E+05
        64   4 -1.738403E+07 -2.428068E+06 -8.073261E+05 -6.641990E+06  5.927296E+05  1.396427E+05
        64   5 -1.700542E+07 -2.019176E+06 -1.321638E+06 -6.701557E+06  1.321300E+06  3.948616E+05
        64   6 -1.774537E+07 -4.659235E+06 -3.191495E+06 -5.779885E+06  2.011490E+06  7.505549E+05
        64   7 -2.312801E+07 -4.464085E+06 -2.386842E+06 -8.017525E+06  5.762971E+05  1.336763E+05
        64   8 -2.251673E+07 -4.231328E+06 -2.885824E+06 -8.288420E+06  1.318368E+06  3.934596E+05
        64   9 -2.303861E+07 -7.068737E+06 -4.761361E+06 -7.574935E+06  2.022178E+06  7.534237E+05
        64  10 -1.160778E+07 -3.914886E+05  7.684087E+05 -5.255027E+06 -2.494325E-09  1.057856E-09
        64  11 -1.146580E+07  1.948600E+05  2.358949E+05 -5.101572E+06  2.020410E-09 -1.105010E-09
        64  12 -1.242841E+07 -2.246570E+06 -1.633324E+06 -3.970544E+06 -1.806270E-09  1.147071E-09
        64  13 -1.738442E+07 -2.428188E+06 -8.080457E+05 -6.642059E+06  1.825584E-09  8.009000E-09
        64  14 -1.700739E+07 -2.019836E+06 -1.325329E+06 -6.701987E+06  1.391698E-09 -2.902527E-09
        64  15 -1.774998E+07 -4.660986E+06 -3.200442E+06 -5.781127E+06  2.287325E-09  6.477939E-09
        64  16 -2.312838E+07 -4.464199E+06 -2.387528E+06 -8.017589E+06 -2.342555E-09  3.006126E-09
        64  17 -2.251870E+07 -4.231992E+06 -2.889534E+06 -8.288850E+06 -7.228229E-09  1.239355E-09
        64  18 -2.304331E+07 -7.070524E+06 -4.770490E+06 -7.576197E+06 -5.917994E-09 -1.988832E-10
        64  19 -1.160737E+07 -3.913629E+05  7.691627E+05 -5.254955E+06 -6.093100E+05 -1.456550E+05
        64  20 -1.146385E+07  1.955162E+05  2.395666E+05 -5.101144E+06 -1.324210E+06 -3.962533E+05
        64  21 -1.242389E+07 -2.244855E+06 -1.624558E+06 -3.969323E+06 -2.000622E+06 -7.475902E+05
        64  22 -1.738403E+07 -2.428068E+06 -8.073261E+05 -6.641990E+06 -5.927296E+05 -1.396427E+05
        64  23 -1.700542E+07 -2.019176E+06 -1.321638E+06 -6.701557E+06 -1.321300E+06 -3.948616E+05
        64  24 -1.774537E+07 -4.659235E+06 -3.191495E+06 -5.779885E+06 -2.011490E+06 -7.505549E+05
        64  25 -2.312801E+07 -4.464085E+06 -2.386842E+06 -8.017525E+06 -5.762971E+05 -1.336763E+05
        64  26 -2.251673E+07 -4.231328E+06 -2.885824E+06 -8.288420E+06 -1.318368E+06 -3.934596E+05
        64  27 -2.303861E+07 -7.068737E+06 -4.761361E+06 -7.574935E+06 -2.022178E+06 -7.534237E+05
        65   1 -1.528140E+05  1.686334E+05  2.123810E+05  9.719990E+03  1.272810E+05  1.424234E+03
        65   2 -1.851350E+05 -9.530838E+03  1.042936E+05 -5.601988E+03  8.378195E+04  6.940512E+02
        65   3 -1.596540E+05  1.946062E+04  7.639940E+04  4.470408E+03  4.027433E+04  5.699440E+02
        65   4 -2.557426E+05  1.427313E+05  1.866177E+05  3.963308E+03  1.272437E+05  1.422778E+03
        65   5 -2.846691E+05 -3.447495E+04  7.940631E+04 -7.798162E+03  8.378001E+04  6.938588E+02
        65   6 -2.557907E+05 -4.514081E+03  5.237302E+04  5.834743E+03  4.030758E+04  5.705612E+02
        65   7 -3.586616E+05  1.168284E+05  1.608536E+05 -1.792450E+03  1.272063E+05  1.421323E+03
        65   8 -3.841942E+05 -5.941980E+04  5.451830E+04 -9.994015E+03  8.377808E+04  6.936663E+02
        65   9 -3.519191E+05 -2.848946E+04  2.834596E+04  7.198838E+03  4.034083E+04  5.711786E+02
        65  10 -1.528314E+05  1.686290E+05  2.123505E+05  9.719844E+03 -4.333219E-09  6.749322E-09
        65  11 -1.851426E+05 -9.532724E+03  1.042804E+05 -5.602034E+03 -4.010288E-09 -3.520744E-09
        65  12 -1.596558E+05  1.946018E+04  7.639635E+04  4.470389E+03  7.884109E-09 -2.573437E-09
        65  13 -2.557600E+05  1.427269E+05  1.865872E+05  3.963162E+03  4.255684E-09  2.792429E-09
        65  14 -2.846766E+05 -3.447684E+04  7.939312E+04 -7.798209E+03  4.148882E-09 -1.530447E-08
        65  15 -2.557925E+05 -4.514517E+03  5.236997E+04  5.834725E+03  1.067512E-09 -8.250886E-10
        65  16 -3.586789E+05  1.168241E+05  1.608231E+05 -1.792595E+03  5.163228E-09 -7.133217E-10
        65  17 -3.842018E+05 -5.942168E+04  5.450511E+04 -9.994061E+03  9.789029E-09 -5.021533E-10
        65  18 -3.519208E+05 -2.848990E+04  2.834290E+04  7.198820E+03 -2.312987E-09 -8.670472E-09
        65  19 -1.528140E+05  1.686334E+05  2.123810E+05  9.719990E+03 -1.272810E+05 -1.424234E+03
        65  20 -1.851350E+05 -9.530838E+03  1.042936E+05 -5.601988E+03 -8.378195E+04 -6.940512E+02
        65  21 -1.596540E+05  1.946062E+04  7.639940E+04  4.470408E+03 -4.027433E+04 -5.699440E+02
        65  22 -2.557426E+05  1.427313E+05  1.866177E+05  3.963308E+03 -1.272437E+05 -1.422778E+03
        65  23 -2.846691E+05 -3.447495E+04  7.940631E+04 -7.798162E+03 -8.378001E+04 -6.938588E+02
        65  24 -2.557907E+05 -4.514081E+03  5.237302E+04  5.834743E+03 -4.030758E+04 -5.705612E+02
        65  25 -3.586616E+05  1.168284E+05  1.608536E+05 -1.792450E+03 -1.272063E+05 -1.421323E+03
        65  26 -3.841942E+05 -5.941980E+04  5.451830E+04 -9.994015E+03 -8.377808E+04 -6.936663E+02
        65  27 -3.519191E+05 -2.848946E+04  2.834596E+04  7.198838E+03 -4.034083E+04 -5.711786E+02
        66   1 -4.633614E+05 -2.674690E+04 -5.800873E+03  3.506078E+03  3.150971E+04  7.860559E+02
        66   2 -4.733652E+05 -5.564799E+04 -2.992922E+04 -9.137169E+03  2.075369E+04  8.976589E+02
        66   3 -4.697390E+05 -5.238820E+04 -3.817351E+04  3.134573E+03  9.999131E+03  9.719741E+02
        66   4 -2.655944E+05  2.272405E+04  4.365171E+04  4.857441E+03  3.153001E+04  7.862930E+02
        66   5 -2.723919E+05 -5.363537E+03  2.031976E+04 -7.436495E+03  2.076922E+04  8.978336E+02
        66   6 -2.655604E+05 -1.294193E+03  1.287200E+04  5.184078E+03  1.000982E+04  9.720816E+02
        66   7 -6.779198E+04  7.219205E+04  9.310134E+04  6.209113E+03  3.155031E+04  7.865301E+02
        66   8 -7.138192E+04  4.491787E+04  7.056569E+04 -5.735385E+03  2.078475E+04  8.980083E+02
        66   9 -6.134399E+04  4.979667E+04  6.391435E+04  7.234152E+03  1.002052E+04  9.721892E+02
        66  10 -4.633624E+05 -2.674717E+04 -5.802742E+03  3.506058E+03  8.667169E-09 -8.840461E-09
        66  11 -4.733657E+05 -5.564810E+04 -2.993003E+04 -9.137184E+03 -5.314620E-09  9.240588E-09
        66  12 -4.697391E+05 -5.238823E+04 -3.817370E+04  3.134565E+03 -1.497152E-09 -8.013283E-09
        66  13 -2.655955E+05  2.272379E+04  4.364984E+04  4.857421E+03  4.384535E-09 -3.919104E-09
        66  14 -2.723924E+05 -5.363654E+03  2.031895E+04 -7.436510E+03 -4.769048E-10  2.343474E-11
        66  15 -2.655605E+05 -1.294221E+03  1.287181E+04  5.184070E+03 -2.191425E-09 -9.378168E-09
        66  16 -6.779305E+04  7.219179E+04  9.309947E+04  6.209093E+03 -3.604143E-09  2.995350E-09
        66  17 -7.138239E+04  4.491775E+04  7.056488E+04 -5.735400E+03  7.884569E-09 -1.301376E-08
        66  18 -6.134410E+04  4.979665E+04  6.391416E+04  7.234144E+03 -2.608086E-09  4.153098E-09
        66  19 -4.633614E+05 -2.674690E+04 -5.800873E+03  3.506078E+03 -3.150971E+04 -7.860559E+02
        66  20 -4.733652E+05 -5.564799E+04 -2.992922E+04 -9.137169E+03 -2.075369E+04 -8.976589E+02
        66  21 -4.697390E+05 -5.238820E+04 -3.817351E+04  3.134573E+03 -9.999131E+03 -9.719741E+02
        66  22 -2.655944E+05  2.272405E+04  4.365171E+04  4.857441E+03 -3.153001E+04 -7.862930E+02
        66  23 -2.723919E+05 -5.363537E+03  2.031976E+04 -7.436495E+03 -2.076922E+04 -8.978336E+02
        66  24 -2.655604E+05 -1.294193E+03  1.287200E+04  5.184078E+03 -1.000982E+04 -9.720816E+02
        66  25 -6.779198E+04  7.219205E+04  9.310134E+04  6.209113E+03 -3.155031E+04 -7.865301E+02
        66  26 -7.138192E+04  4.491787E+04  7.056569E+04 -5.735385E+03 -2.078475E+04 -8.980083E+02
        66  27 -6.134399E+04  4.979667E+04  6.391435E+04  7.234152E+03 -1.002052E+04 -9.721892E+02
        67   1 -6.837810E+05 -1.008116E+05 -9.368357E+04 -6.597753E+02  7.611394E+03  1.139979E+03
        67   2 -6.972645E+05 -1.066442E+05 -1.015555E+05 -6.509481E+03  5.179055E+03  1.411561E+03
        67   3 -6.872209E+05 -1.062813E+05 -1.019573E+05  1.058540E+03  2.749879E+03  1.370180E+03
        67   4 -2.634006E+05  4.373331E+03  1.144306E+04  2.487508E+03  7.636665E+03  1.140188E+03
        67   5 -2.751668E+05 -1.048128E+03  3.989209E+03 -4.198562E+03  5.187869E+03  1.411568E+03
        67   6 -2.633959E+05 -2.668402E+02  4.016214E+03  2.532518E+03  2.742229E+03  1.370085E+03
        67   7  1.571401E+05  1.095449E+05  1.165563E+05  5.636522E+03  7.661952E+03  1.140397E+03
        67   8  1.470925E+05  1.045345E+05  1.095204E+05 -1.886370E+03  5.196688E+03  1.411574E+03
        67   9  1.605921E+05  1.057340E+05  1.099761E+05  4.007311E+03  2.734573E+03  1.369991E+03
        67  10 -6.837811E+05 -1.008116E+05 -9.368368E+04 -6.597823E+02 -3.549228E-10  3.367828E-09
        67  11 -6.972646E+05 -1.066442E+05 -1.015555E+05 -6.509487E+03 -5.103729E-09  2.428209E-09
        67  12 -6.872209E+05 -1.062813E+05 -1.019573E+05  1.058537E+03 -1.899756E-09 -4.152216E-09
        67  13 -2.634007E+05  4.373314E+03  1.144294E+04  2.487501E+03 -4.279845E-09 -2.330016E-09
        67  14 -2.751669E+05 -1.048138E+03  3.989155E+03 -4.198568E+03  7.417184E-09  1.148402E-09
        67  15 -2.633959E+05 -2.668442E+02  4.016196E+03  2.532515E+03  1.760701E-09  6.414551E-10
        67  16  1.571400E+05  1.095449E+05  1.165562E+05  5.636515E+03  6.197621E-09 -2.772246E-09
        67  17  1.470924E+05  1.045345E+05  1.095204E+05 -1.886376E+03  6.308205E-09 -7.147025E-09
        67  18  1.605921E+05  1.057340E+05  1.099761E+05  4.007308E+03 -2.413694E-09 -8.446342E-09
        67  19 -6.837810E+05 -1.008116E+05 -9.368357E+04 -6.597753E+02 -7.611394E+03 -1.139979E+03
        67  20 -6.972645E+05 -1.066442E+05 -1.015555E+05 -6.509481E+03 -5.179055E+03 -1.411561E+03
        67  21 -6.872209E+05 -1.062813E+05 -1.019573E+05  1.058540E+03 -2.749879E+03 -1.370180E+03
        67  22 -2.634006E+05  4.373331E+03  1.144306E+04  2.487508E+03 -7.636665E+03 -1.140188E+03
        67  23 -2.751668E+05 -1.048128E+03  3.989209E+03 -4.198562E+03 -5.187869E+03 -1.411568E+03
        67  24 -2.633959E+05 -2.668402E+02  4.016214E+03  2.532518E+03 -2.742229E+03 -1.370085E+03
        67  25  1.571401E+05  1.095449E+05  1.165563E+05  5.636522E+03 -7.661952E+03 -1.140397E+03
        67  26  1.470925E+05  1.045345E+05  1.095204E+05 -1.886370E+03 -5.196688E+03 -1.411574E+03
        67  27  1.605921E+05  1.057340E+05  1.099761E+05  4.007311E+03 -2.734573E+03 -1.369991E+03
        68   1 -7.392896E+05 -1.184186E+05 -1.155657E+05 -2.515566E+03  1.719241E+03  1.411169E+03
        68   2 -7.530839E+05 -1.196150E+05 -1.195541E+05  5.682713E+02  1.434960E+03  1.552759E+03
        68   3 -7.383355E+05 -1.184578E+05 -1.171778E+05 -1.815195E+02  1.150460E+03  1.313116E+03
        68   4 -2.623041E+05  8.929780E+02  3.706593E+03 -1.317706E+03  1.736133E+03  1.411154E+03
        68   5 -2.765956E+05 -4.317421E+02 -4.097356E+02  6.013919E+02  1.433367E+03  1.552685E+03
        68   6 -2.623296E+05  6.087321E+02  1.852182E+03 -1.312955E+03  1.130381E+03  1.313111E+03
        68   7  2.148878E+05  1.201874E+05  1.229617E+05 -1.190848E+02  1.753038E+03  1.411139E+03
        68   8  2.000986E+05  1.187343E+05  1.187175E+05  6.345331E+02  1.431772E+03  1.552610E+03
        68   9  2.138817E+05  1.196581E+05  1.208650E+05 -2.445109E+03  1.110286E+03  1.313106E+03
        68  10 -7.392896E+05 -1.184186E+05 -1.155657E+05 -2.515568E+03  4.882975E-10 -5.869950E-10
        68  11 -7.530839E+05 -1.196150E+05 -1.195541E+05  5.682695E+02  4.356959E-09  6.009408E-09
        68  12 -7.383355E+05 -1.184578E+05 -1.171778E+05 -1.815207E+02  4.795246E-09  7.789716E-10
        68  13 -2.623041E+05  8.929750E+02  3.706584E+03 -1.317708E+03  1.000521E-10 -4.732717E-09
        68  14 -2.765956E+05 -4.317453E+02 -4.097440E+02  6.013901E+02 -6.503068E-09  3.205840E-09
        68  15 -2.623296E+05  6.087299E+02  1.852177E+03 -1.312956E+03 -7.154960E-09 -2.617104E-09
        68  16  2.148878E+05  1.201874E+05  1.229617E+05 -1.190868E+02 -1.204903E-09  1.958628E-09
        68  17  2.000986E+05  1.187343E+05  1.187175E+05  6.345313E+02 -6.427010E-09  4.824813E-10
        68  18  2.138817E+05  1.196581E+05  1.208650E+05 -2.445111E+03  2.932010E-09 -8.869305E-10
        68  19 -7.392896E+05 -1.184186E+05 -1.155657E+05 -2.515566E+03 -1.719241E+03 -1.411169E+03
        68  20 -7.530839E+05 -1.196150E+05 -1.195541E+05  5.682713E+02 -1.434960E+03 -1.552759E+03
        68  21 -7.383355E+05 -1.184578E+05 -1.171778E+05 -1.815195E+02 -1.150460E+03 -1.313116E+03
        68  22 -2.623041E+05  8.929780E+02  3.706593E+03 -1.317706E+03 -1.736133E+03 -1.411154E+03
        68  23 -2.765956E+05 -4.317421E+02 -4.097356E+02  6.013919E+02 -1.433367E+03 -1.552685E+03
        68  24 -2.623296E+05  6.087321E+02  1.852182E+03 -1.312955E+03 -1.130381E+03 -1.313111E+03
        68  25  2.148878E+05  1.201874E+05  1.229617E+05 -1.190848E+02 -1.753038E+03 -1.411139E+03
        68  26  2.000986E+05  1.187343E+05  1.187175E+05  6.345331E+02 -1.431772E+03 -1.552610E+03
        68  27  2.138817E+05  1.196581E+05  1.208650E+05 -2.445109E+03 -1.110286E+03 -1.313106E+03
        69   1 -6.108794E+05 -8.683245E+04 -8.564817E+04 -3.748077E+03  6.347407E+02  1.199355E+03
        69   2 -6.154306E+05 -8.580385E+04 -8.685146E+04  6.651076E+03  9.707050E+02  1.110347E+03
        69   3 -6.058825E+05 -8.473764E+04 -8.543409E+04 -2.512656E+03  1.303880E+03  7.471831E+02
        69   4 -2.655056E+05 -4.476389E+02  7.021968E+02 -4.812685E+03  6.373582E+02  1.199301E+03
        69   5 -2.725650E+05 -3.704621E+01 -1.123512E+03  4.971112E+03  9.603287E+02  1.110376E+03
        69   6 -2.655182E+05  4.169828E+02 -3.190231E+02 -4.807292E+03  1.280510E+03  7.473613E+02
        69   7  7.997631E+04  8.592816E+04  8.704355E+04 -5.877766E+03  6.399772E+02  1.199248E+03
        69   8  7.040718E+04  8.572088E+04  8.459556E+04  3.290394E+03  9.499466E+02  1.110406E+03
        69   9  7.495114E+04  8.556286E+04  8.478729E+04 -7.102957E+03  1.257126E+03  7.475396E+02
        69  10 -6.108794E+05 -8.683245E+04 -8.564817E+04 -3.748077E+03  2.857079E-09 -1.735954E-09
        69  11 -6.154306E+05 -8.580385E+04 -8.685147E+04  6.651075E+03  5.798030E-09 -1.514209E-11
        69  12 -6.058825E+05 -8.473764E+04 -8.543409E+04 -2.512657E+03 -3.602301E-09 -1.219471E-09
        69  13 -2.655056E+05 -4.476405E+02  7.021933E+02 -4.812685E+03  8.734251E-09  3.442184E-09
        69  14 -2.725650E+05 -3.704778E+01 -1.123516E+03  4.971111E+03  1.385952E-09  6.782559E-09
        69  15 -2.655182E+05  4.169817E+02 -3.190272E+02 -4.807293E+03  4.414268E-09 -1.011341E-08
        69  16  7.997631E+04  8.592816E+04  8.704355E+04 -5.877766E+03 -8.094483E-09 -2.315311E-09
        69  17  7.040718E+04  8.572088E+04  8.459555E+04  3.290393E+03 -2.712839E-09  3.893157E-09
        69  18  7.495114E+04  8.556286E+04  8.478729E+04 -7.102958E+03 -3.141864E-09  3.568972E-09
        69  19 -6.108794E+05 -8.683245E+04 -8.564817E+04 -3.748077E+03 -6.347407E+02 -1.199355E+03
        69  20 -6.154306E+05 -8.580385E+04 -8.685146E+04  6.651076E+03 -9.707050E+02 -1.110347E+03
        69  21 -6.058825E+05 -8.473764E+04 -8.543409E+04 -2.512656E+03 -1.303880E+03 -7.471831E+02
        69  22 -2.655056E+05 -4.476389E+02  7.021968E+02 -4.812685E+03 -6.373582E+02 -1.199301E+03
        69  23 -2.725650E+05 -3.704620E+01 -1.123512E+03  4.971112E+03 -9.603287E+02 -1.110376E+03
        69  24 -2.655182E+05  4.169828E+02 -3.190231E+02 -4.807292E+03 -1.280510E+03 -7.473613E+02
        69  25  7.997631E+04  8.592816E+04  8.704355E+04 -5.877766E+03 -6.399772E+02 -1.199248E+03
        69  26  7.040718E+04  8.572088E+04  8.459556E+04  3.290394E+03 -9.499466E+02 -1.110406E+03
        69  27  7.495114E+04  8.556286E+04  8.478729E+04 -7.102957E+03 -1.257126E+03 -7.475396E+02
        70   1 -3.459447E+05 -1.975068E+04 -2.087920E+04 -6.076413E+03  1.374868E+03  5.109107E+02
        70   2 -3.418944E+05 -1.781835E+04 -2.095939E+04  7.715493E+03  2.717173E+03  2.074179E+02
        70   3 -3.389172E+05 -1.940653E+04 -2.279922E+04 -5.948858E+03  4.058931E+03 -1.245657E+02
        70   4 -2.688457E+05 -4.675706E+02 -1.613169E+03 -6.561424E+03  1.361715E+03  5.110319E+02
        70   5 -2.683026E+05  5.914349E+02 -2.561059E+03  7.158877E+03  2.702791E+03  2.075594E+02
        70   6 -2.688323E+05 -1.869589E+03 -5.267594E+03 -6.576876E+03  4.043313E+03 -1.244027E+02
        70   7 -1.917413E+05  1.881510E+04  1.765241E+04 -7.046482E+03  1.348561E+03  5.111530E+02
        70   8 -1.947059E+05  1.900081E+04  1.583686E+04  6.602208E+03  2.688408E+03  2.077009E+02
        70   9 -1.987430E+05  1.566698E+04  1.226367E+04 -7.204954E+03  4.027694E+03 -1.242396E+02
        70  10 -3.459447E+05 -1.975069E+04 -2.087920E+04 -6.076414E+03  3.073534E-09  7.626070E-09
        70  11 -3.418944E+05 -1.781835E+04 -2.095940E+04  7.715492E+03  9.296544E-09 -8.266893E-09
        70  12 -3.389172E+05 -1.940653E+04 -2.279926E+04 -5.948857E+03 -6.251113E-09  3.248673E-09
        70  13 -2.688457E+05 -4.675713E+02 -1.613173E+03 -6.561424E+03 -1.216091E-10 -7.075689E-09
        70  14 -2.683026E+05  5.914329E+02 -2.561073E+03  7.158877E+03 -1.599236E-09 -2.004789E-08
        70  15 -2.688323E+05 -1.869594E+03 -5.267625E+03 -6.576876E+03  1.879285E-09  5.647805E-09
        70  16 -1.917413E+05  1.881509E+04  1.765241E+04 -7.046482E+03  7.985382E-10  1.289714E-08
        70  17 -1.947060E+05  1.900081E+04  1.583685E+04  6.602207E+03 -7.197035E-09 -1.952664E-08
        70  18 -1.987430E+05  1.566697E+04  1.226363E+04 -7.204953E+03  6.662119E-09 -2.415575E-09
        70  19 -3.459447E+05 -1.975068E+04 -2.087920E+04 -6.076413E+03 -1.374868E+03 -5.109107E+02
        70  20 -3.418944E+05 -1.781835E+04 -2.095939E+04  7.715493E+03 -2.717173E+03 -2.074179E+02
        70  21 -3.389172E+05 -1.940653E+04 -2.279922E+04 -5.948858E+03 -4.058931E+03  1.245657E+02
        70  22 -2.688457E+05 -4.675705E+02 -1.613169E+03 -6.561424E+03 -1.361715E+03 -5.110319E+02
        70  23 -2.683026E+05  5.914349E+02 -2.561059E+03  7.158877E+03 -2.702791E+03 -2.075594E+02
        70  24 -2.688323E+05 -1.869589E+03 -5.267594E+03 -6.576876E+03 -4.043313E+03  1.244027E+02
        70  25 -1.917413E+05  1.881510E+04  1.765241E+04 -7.046482E+03 -1.348561E+03 -5.111530E+02
        70  26 -1.947059E+05  1.900081E+04  1.583686E+04  6.602208E+03 -2.688408E+03 -2.077009E+02
        70  27 -1.987430E+05  1.566698E+04  1.226367E+04 -7.204954E+03 -4.027694E+03  1.242396E+02
        71   1 -4.659837E+04  5.617869E+04  4.924321E+04 -7.823419E+03  5.073043E+03 -4.176841E+02
        71   2 -4.386142E+04  5.902305E+04  4.544781E+04  4.991460E+03  1.063203E+04 -8.579633E+02
        71   3 -4.030745E+04  4.528632E+04  3.502342E+04 -6.841862E+03  1.619511E+04 -9.069247E+02
        71   4 -2.684274E+05  6.874599E+02 -6.217226E+03 -5.906120E+03  5.043976E+03 -4.173951E+02
        71   5 -2.688329E+05  2.761869E+03 -1.078330E+04  6.371987E+03  1.061997E+04 -8.578770E+02
        71   6 -2.684273E+05 -1.175205E+04 -2.199231E+04 -5.998679E+03  1.620003E+04 -9.069896E+02
        71   7 -4.902118E+05 -5.480748E+04 -6.168138E+04 -3.989392E+03  5.014920E+03 -4.171063E+02
        71   8 -4.937584E+05 -5.350313E+04 -6.701824E+04  7.752113E+03  1.060792E+04 -8.577907E+02
        71   9 -4.965000E+05 -6.879436E+04 -7.901196E+04 -5.155718E+03  1.620495E+04 -9.070545E+02
        71  10 -4.659839E+04  5.617868E+04  4.924316E+04 -7.823417E+03 -4.204149E-09 -6.260888E-09
        71  11 -4.386154E+04  5.902302E+04  4.544760E+04  4.991467E+03  3.803608E-09  1.703120E-09
        71  12 -4.030773E+04  4.528625E+04  3.502293E+04 -6.841851E+03  6.807928E-10  2.058315E-09
        71  13 -2.684274E+05  6.874529E+02 -6.217275E+03 -5.906118E+03 -4.224501E-09  6.809551E-09
        71  14 -2.688330E+05  2.761838E+03 -1.078351E+04  6.371994E+03 -5.480481E-09  3.013692E-09
        71  15 -2.684276E+05 -1.175213E+04 -2.199280E+04 -5.998667E+03  1.403706E-09  2.381944E-09
        71  16 -4.902118E+05 -5.480748E+04 -6.168143E+04 -3.989390E+03  4.787519E-09  1.042998E-08
        71  17 -4.937585E+05 -5.350316E+04 -6.701845E+04  7.752120E+03 -1.484680E-09  1.318410E-08
        71  18 -4.965003E+05 -6.879443E+04 -7.901246E+04 -5.155706E+03  8.030811E-09 -3.265487E-09
        71  19 -4.659837E+04  5.617869E+04  4.924321E+04 -7.823419E+03 -5.073043E+03  4.176841E+02
        71  20 -4.386142E+04  5.902305E+04  4.544781E+04  4.991460E+03 -1.063203E+04  8.579633E+02
        71  21 -4.030745E+04  4.528632E+04  3.502342E+04 -6.841862E+03 -1.619511E+04  9.069247E+02
        71  22 -2.684274E+05  6.874599E+02 -6.217226E+03 -5.906120E+03 -5.043976E+03  4.173951E+02
        71  23 -2.688329E+05  2.761869E+03 -1.078330E+04  6.371987E+03 -1.061997E+04  8.578770E+02
        71  24 -2.684273E+05 -1.175205E+04 -2.199231E+04 -5.998679E+03 -1.620003E+04  9.069896E+02
        71  25 -4.902118E+05 -5.480748E+04 -6.168138E+04 -3.989392E+03 -5.014920E+03  4.171063E+02
        71  26 -4.937584E+05 -5.350313E+04 -6.701824E+04  7.752113E+03 -1.060792E+04  8.577907E+02
        71  27 -4.965000E+05 -6.879436E+04 -7.901196E+04 -5.155718E+03 -1.620495E+04  9.070545E+02
        72   1  1.634479E+05  1.113811E+05  8.277576E+04 -6.285278E+03  2.040448E+04 -1.264608E+03
        72   2  1.675241E+05  1.255254E+05  6.667591E+04  2.331435E+03  4.277657E+04 -1.748988E+03
        72   3  1.664513E+05  3.815543E+04  1.526724E+04 -8.298417E+02  6.515299E+04 -6.197990E+02
        72   4 -2.698115E+05  3.034914E+03 -2.551551E+04 -3.030845E+03  2.033926E+04 -1.264218E+03
        72   5 -2.672198E+05  1.684704E+04 -4.196529E+04  2.826397E+03  4.277505E+04 -1.749095E+03
        72   6 -2.698163E+05 -7.091109E+04 -9.378880E+04 -3.094847E+03  6.521513E+04 -6.201234E+02
        72   7 -7.029008E+05 -1.053254E+05 -1.338209E+05  2.215764E+02  2.027407E+04 -1.263828E+03
        72   8 -7.017925E+05 -9.184561E+04 -1.506208E+05  3.321156E+03  4.277353E+04 -1.749202E+03
        72   9 -7.059115E+05 -1.799920E+05 -2.028592E+05 -5.358233E+03  6.527721E+04 -6.204483E+02
        72  10  1.634474E+05  1.113810E+05  8.277497E+04 -6.285257E+03 -4.705713E-09  7.309986E-10
        72  11  1.675221E+05  1.255249E+05  6.667246E+04  2.331495E+03 -8.855170E-10 -1.312723E-09
        72  12  1.664468E+05  3.815429E+04  1.525926E+04 -8.298092E+02  4.499571E-09 -8.370676E-10
        72  13 -2.698120E+05  3.034802E+03 -2.551629E+04 -3.030825E+03  4.488198E-09  9.488737E-09
        72  14 -2.672218E+05  1.684655E+04 -4.196873E+04  2.826457E+03 -1.122606E-08 -1.725157E-09
        72  15 -2.698209E+05 -7.091223E+04 -9.379679E+04 -3.094814E+03  1.446467E-11 -1.388755E-10
        72  16 -7.029013E+05 -1.053255E+05 -1.338217E+05  2.215970E+02  9.506166E-09 -4.517353E-09
        72  17 -7.017944E+05 -9.184610E+04 -1.506242E+05  3.321216E+03  1.436649E-09  5.439587E-10
        72  18 -7.059161E+05 -1.799931E+05 -2.028672E+05 -5.358200E+03  3.768725E-10 -4.082744E-10
        72  19  1.634479E+05  1.113811E+05  8.277576E+04 -6.285278E+03 -2.040448E+04  1.264608E+03
        72  20  1.675241E+05  1.255254E+05  6.667591E+04  2.331435E+03 -4.277657E+04  1.748988E+03
        72  21  1.664513E+05  3.815543E+04  1.526724E+04 -8.298417E+02 -6.515299E+04  6.197990E+02
        72  22 -2.698115E+05  3.034914E+03 -2.551551E+04 -3.030845E+03 -2.033926E+04  1.264218E+03
        72  23 -2.672198E+05  1.684704E+04 -4.196529E+04  2.826397E+03 -4.277505E+04  1.749095E+03
        72  24 -2.698163E+05 -7.091109E+04 -9.378880E+04 -3.094847E+03 -6.521513E+04  6.201234E+02
        72  25 -7.029008E+05 -1.053254E+05 -1.338209E+05  2.215764E+02 -2.027407E+04  1.263828E+03
        72  26 -7.017925E+05 -9.184561E+04 -1.506208E+05  3.321156E+03 -4.277353E+04  1.749202E+03
        72  27 -7.059115E+05 -1.799920E+05 -2.028592E+05 -5.358233E+03 -6.527721E+04  6.204483E+02
        73   1  2.975632E+06  1.072882E+07  2.847641E+06 -2.009201E+06  1.320824E+05  5.646638E+05
        73   2  2.258726E+06  8.274228E+06  1.995027E+06 -1.598692E+06  4.218441E+05  1.670096E+05
        73   3  1.694084E+06  5.903418E+06  1.436280E+06 -1.929454E+06  4.003322E+05 -2.333905E+05
        73   4  1.056374E+05 -8.928687E+05  6.890801E+04 -1.832313E+06  1.409855E+05  3.141834E+04
        73   5  4.042526E+04 -8.930006E+05  4.493307E+04 -1.461910E+06  4.251319E+05  1.350608E+04
        73   6  6.334856E+04 -8.792897E+05  5.435546E+04 -1.833258E+06  3.959637E+05 -8.769565E+03
        73   7 -2.773909E+06 -1.239144E+07 -2.718309E+06 -1.658053E+06  1.496844E+05 -4.920170E+05
        73   8 -2.183286E+06 -9.981618E+06 -1.909908E+06 -1.326723E+06  4.283816E+05 -1.377865E+05
        73   9 -1.570218E+06 -7.618375E+06 -1.329804E+06 -1.737846E+06  3.916369E+05  2.134599E+05
        73  10  2.975529E+06  1.072848E+07  2.847017E+06 -2.009261E+06  9.503664E-09  9.246777E-09
        73  11  2.258527E+06  8.274151E+06  1.994640E+06 -1.598749E+06 -5.985667E-09 -4.592940E-09
        73  12  1.693899E+06  5.903317E+06  1.435879E+06 -1.929379E+06  6.673822E-10 -1.867689E-08
        73  13  1.056158E+05 -8.928751E+05  6.886876E+04 -1.832317E+06  6.329340E-09  1.457397E-08
        73  14  4.023121E+04 -8.930493E+05  4.459319E+04 -1.461915E+06 -1.206551E-09 -1.631035E-08
        73  15  6.318028E+04 -8.793318E+05  5.406088E+04 -1.833255E+06 -2.265430E-09  1.032163E-08
        73  16 -2.774000E+06 -1.239171E+07 -2.718814E+06 -1.657994E+06  7.772609E-10 -9.735706E-09
        73  17 -2.183488E+06 -9.981688E+06 -1.910288E+06 -1.326675E+06  1.048752E-08  8.133371E-10
        73  18 -1.570396E+06 -7.618466E+06 -1.330180E+06 -1.737914E+06 -4.434117E-09  2.108761E-08
        73  19  2.975632E+06  1.072882E+07  2.847641E+06 -2.009201E+06 -1.320824E+05 -5.646638E+05
        73  20  2.258726E+06  8.274228E+06  1.995027E+06 -1.598692E+06 -4.218441E+05 -1.670096E+05
        73  21  1.694084E+06  5.903418E+06  1.436280E+06 -1.929454E+06 -4.003322E+05  2.333905E+05
        73  22  1.056374E+05 -8.928687E+05  6.890801E+04 -1.832313E+06 -1.409855E+05 -3.141834E+04
        73  23  4.042526E+04 -8.930006E+05  4.493307E+04 -1.461910E+06 -4.251319E+05 -1.350608E+04
        73  24  6.334856E+04 -8.792897E+05  5.435546E+04 -1.833258E+06 -3.959637E+05  8.769565E+03
        73  25 -2.773909E+06 -1.239144E+07 -2.718309E+06 -1.658053E+06 -1.496844E+05  4.920170E+05
        73  26 -2.183286E+06 -9.981618E+06 -1.909908E+06 -1.326723E+06 -4.283816E+05  1.377865E+05
        73  27 -1.570218E+06 -7.618375E+06 -1.329804E+06 -1.737846E+06 -3.916369E+05 -2.134599E+05
        74   1  1.283836E+06  4.155510E+06  1.091489E+06 -1.921700E+06  2.953499E+05 -1.738339E+05
        74   2  6.927362E+05  1.754109E+06  6.240624E+05 -1.497468E+06  1.665097E+05 -2.316565E+05
        74   3  1.571261E+05 -6.549151E+05  1.991803E+05 -1.832249E+06  3.047601E+04 -2.897805E+05
        74   4  7.049882E+04 -8.813984E+05  6.218702E+04 -1.836947E+06  2.922018E+05 -2.135397E+04
        74   5  6.083595E+04 -8.720283E+05  9.375057E+04 -1.457070E+06  1.629865E+05 -7.061385E+04
        74   6  1.055130E+05 -8.773841E+05  1.620253E+05 -1.836266E+06  2.655012E+04 -1.203835E+05
        74   7 -1.144404E+06 -5.894229E+06 -9.683719E+05 -1.752731E+06  2.890805E+05  1.299179E+05
        74   8 -5.714756E+05 -3.491545E+06 -4.368198E+05 -1.416805E+06  1.594756E+05  8.976233E+04
        74   9  5.391285E+04 -1.099742E+06  1.249767E+05 -1.840282E+06  2.262117E+04  4.895481E+04
        74  10  1.283735E+06  4.155455E+06  1.091270E+06 -1.921659E+06  5.828637E-10  5.399837E-09
        74  11  6.926922E+05  1.754044E+06  6.239102E+05 -1.497437E+06  1.077061E-08 -9.419293E-09
        74  12  1.571026E+05 -6.550055E+05  1.990208E+05 -1.832242E+06  4.185795E-09 -1.750613E-08
        74  13  7.040709E+04 -8.814218E+05  6.202589E+04 -1.836942E+06 -2.917423E-09  1.927301E-08
        74  14  6.080614E+04 -8.720408E+05  9.369143E+04 -1.457061E+06 -2.398226E-08 -2.150288E-08
        74  15  1.055084E+05 -8.773998E+05  1.619967E+05 -1.836263E+06 -5.210662E-09  1.269207E-08
        74  16 -1.144499E+06 -5.894270E+06 -9.685614E+05 -1.752761E+06 -7.489133E-09 -7.246290E-09
        74  17 -5.715051E+05 -3.491561E+06 -4.368830E+05 -1.416817E+06 -1.373853E-08 -1.848286E-09
        74  18  5.391165E+04 -1.099745E+06  1.249712E+05 -1.840283E+06 -1.438234E-09  2.146313E-08
        74  19  1.283836E+06  4.155510E+06  1.091489E+06 -1.921700E+06 -2.953499E+05  1.738339E+05
        74  20  6.927362E+05  1.754109E+06  6.240624E+05 -1.497468E+06 -1.665097E+05  2.316565E+05
        74  21  1.571261E+05 -6.549151E+05  1.991803E+05 -1.832249E+06 -3.047601E+04  2.897805E+05
        74  22  7.049882E+04 -8.813984E+05  6.218702E+04 -1.836947E+06 -2.922018E+05  2.135397E+04
        74  23  6.083595E+04 -8.720283E+05  9.375057E+04 -1.457070E+06 -1.629865E+05  7.061385E+04
        74  24  1.055130E+05 -8.773841E+05  1.620253E+05 -1.836266E+06 -2.655012E+04  1.203835E+05
        74  25 -1.144404E+06 -5.894229E+06 -9.683719E+05 -1.752731E+06 -2.890805E+05 -1.299179E+05
        74  26 -5.714756E+05 -3.491545E+06 -4.368198E+05 -1.416805E+06 -1.594756E+05 -8.976233E+04
        74  27  5.391285E+04 -1.099742E+06  1.249767E+05 -1.840282E+06 -2.262117E+04 -4.895481E+04
        75   1 -3.017121E+05 -2.358022E+06 -1.134972E+05 -1.888041E+06 -6.749261E+04 -3.585050E+05
        75   2 -8.409609E+05 -4.794658E+06 -4.957645E+05 -1.256663E+06 -1.521307E+05 -3.288053E+05
        75   3 -8.673659E+05 -7.131950E+06 -7.768334E+05 -1.370616E+06 -5.611701E+04 -2.958214E+05
        75   4  6.151492E+04 -8.457738E+05  2.051669E+05 -1.835997E+06 -7.231784E+04 -1.510284E+05
        75   5  1.166835E+05 -9.133885E+05  3.549271E+05 -1.457061E+06 -1.517849E+05 -3.380035E+05
        75   6  7.206350E+05 -8.510260E+05  7.557583E+05 -1.822244E+06 -5.113942E+04 -5.216183E+05
        75   7  4.246335E+05  6.687455E+05  5.238680E+05 -1.783811E+06 -7.710134E+04  5.694782E+04
        75   8  1.073430E+06  2.982120E+06  1.204715E+06 -1.658645E+06 -1.514346E+05 -3.472539E+05
        75   9  2.306368E+06  5.466616E+06  2.285733E+06 -2.278264E+06 -4.586002E+04 -7.496931E+05
        75  10 -3.017518E+05 -2.358162E+06 -1.137485E+05 -1.888060E+06  9.464046E-09  1.139534E-08
        75  11 -8.410152E+05 -4.794781E+06 -4.960132E+05 -1.256704E+06  2.302389E-08 -3.485230E-09
        75  12 -8.673932E+05 -7.132046E+06 -7.770058E+05 -1.370630E+06  7.618577E-09 -1.567949E-08
        75  13  6.150313E+04 -8.457998E+05  2.051140E+05 -1.836006E+06  1.115644E-08  2.273042E-08
        75  14  1.166279E+05 -9.135176E+05  3.546683E+05 -1.457102E+06 -1.161640E-08 -2.045704E-08
        75  15  7.205589E+05 -8.513191E+05  7.552410E+05 -1.822266E+06  7.947131E-09  1.101907E-08
        75  16  4.246262E+05  6.687404E+05  5.238508E+05 -1.783807E+06 -3.892015E-09 -1.040755E-08
        75  17  1.073373E+06  2.981984E+06  1.204445E+06 -1.658688E+06  9.192703E-09 -6.832852E-09
        75  18  2.306216E+06  5.466017E+06  2.284681E+06 -2.278292E+06  6.445992E-09  1.847196E-08
        75  19 -3.017121E+05 -2.358022E+06 -1.134972E+05 -1.888041E+06  6.749261E+04  3.585050E+05
        75  20 -8.409609E+05 -4.794658E+06 -4.957645E+05 -1.256663E+06  1.521307E+05  3.288053E+05
        75  21 -8.673659E+05 -7.131950E+06 -7.768334E+05 -1.370616E+06  5.611701E+04  2.958214E+05
        75  22  6.151492E+04 -8.457738E+05  2.051669E+05 -1.835997E+06  7.231784E+04  1.510284E+05
        75  23  1.166835E+05 -9.133885E+05  3.549271E+05 -1.457061E+06  1.517849E+05  3.380035E+05
        75  24  7.206350E+05 -8.510260E+05  7.557583E+05 -1.822244E+06  5.113942E+04  5.216183E+05
        75  25  4.246335E+05  6.687455E+05  5.238680E+05 -1.783811E+06  7.710134E+04 -5.694782E+04
        75  26  1.073430E+06  2.982120E+06  1.204715E+06 -1.658645E+06  1.514346E+05  3.472539E+05
        75  27  2.306368E+06  5.466616E+06  2.285733E+06 -2.278264E+06  4.586002E+04  7.496931E+05
        76   1 -7.791579E+06 -3.169234E+06 -1.882115E+06 -2.620147E+06 -4.218034E+05 -2.234051E+04
        76   2 -7.287930E+06 -3.034887E+06 -1.568942E+06 -2.415604E+06 -2.921772E+05  3.499524E+05
        76   3 -6.667609E+06 -2.931246E+06 -1.410358E+06 -2.358887E+06 -7.604624E+04  5.009875E+05
        76   4  1.994028E+05 -1.947807E+05  2.057034E+05 -4.743896E+05  8.309522E+04  1.733525E+05
        76   5  1.019389E+05 -2.886524E+05  9.109153E+04 -3.687593E+05 -7.226942E+04  4.342663E+05
        76   6  1.777923E+05 -3.567267E+05  5.019166E+04 -4.108636E+05 -1.419069E+05  4.752052E+05
        76   7  8.253236E+06  2.783351E+06  2.289202E+06  1.696344E+06  5.952227E+05  3.716515E+05
        76   8  7.547403E+06  2.461895E+06  1.747846E+06  1.700574E+06  1.505061E+05  5.196570E+05
        76   9  7.071528E+06  2.222213E+06  1.508133E+06  1.557287E+06 -2.085675E+05  4.491155E+05
        76  10 -7.791772E+06 -3.169283E+06 -1.882455E+06 -2.620155E+06  1.170262E-09  5.953410E-09
        76  11 -7.288054E+06 -3.035041E+06 -1.569333E+06 -2.415521E+06  5.039926E-09  5.756362E-09
        76  12 -6.667682E+06 -2.931518E+06 -1.410841E+06 -2.358856E+06  7.033630E-09  2.035493E-10
        76  13  1.993873E+05 -1.948148E+05  2.056339E+05 -4.744012E+05 -6.554136E-10  5.849632E-09
        76  14  1.018827E+05 -2.888563E+05  9.072725E+04 -3.687340E+05 -2.134840E-09  8.412975E-09
        76  15  1.777101E+05 -3.569746E+05  4.972942E+04 -4.108093E+05  6.360749E-09 -6.485907E-09
        76  16  8.252823E+06  2.783110E+06  2.288289E+06  1.696167E+06 -1.653747E-09 -5.747206E-10
        76  17  7.547307E+06  2.461600E+06  1.747298E+06  1.700511E+06 -1.129120E-08 -1.834939E-08
        76  18  7.071427E+06  2.221985E+06  1.507672E+06  1.557362E+06 -6.532763E-09 -6.777731E-09
        76  19 -7.791579E+06 -3.169234E+06 -1.882115E+06 -2.620147E+06  4.218034E+05  2.234051E+04
        76  20 -7.287930E+06 -3.034887E+06 -1.568942E+06 -2.415604E+06  2.921772E+05 -3.499524E+05
        76  21 -6.667609E+06 -2.931246E+06 -1.410358E+06 -2.358887E+06  7.604624E+04 -5.009875E+05
        76  22  1.994028E+05 -1.947807E+05  2.057034E+05 -4.743896E+05 -8.309522E+04 -1.733525E+05
        76  23  1.019389E+05 -2.886524E+05  9.109153E+04 -3.687593E+05  7.226942E+04 -4.342663E+05
        76  24  1.777923E+05 -3.567267E+05  5.019166E+04 -4.108636E+05  1.419069E+05 -4.752052E+05
        76  25  8.253236E+06  2.783351E+06  2.289202E+06  1.696344E+06 -5.952227E+05 -3.716515E+05
        76  26  7.547403E+06  2.461895E+06  1.747846E+06  1.700574E+06 -1.505061E+05 -5.196570E+05
        76  27  7.071528E+06  2.222213E+06  1.508133E+06  1.557287E+06  2.085675E+05 -4.491155E+05
        77   1 -6.310741E+06 -2.764087E+06 -1.343020E+06 -2.240502E+06 -1.198620E+05  4.523972E+05
        77   2 -5.841479E+06 -2.504923E+06 -1.232579E+06 -2.022927E+06 -1.041628E+05  4.349878E+05
        77   3 -5.249576E+06 -2.356336E+06 -1.124998E+06 -1.933180E+06 -8.355970E+04  4.041517E+05
        77   4  1.737370E+05 -3.498016E+05  3.835669E+04 -4.200066E+05 -1.372041E+05  4.452892E+05
        77   5  1.118944E+05 -2.965210E+05  1.935316E+04 -3.555007E+05 -1.388758E+05  4.213581E+05
        77   6  1.758077E+05 -3.503118E+05  1.128750E+04 -4.188511E+05 -1.356770E+05  3.840675E+05
        77   7  6.701446E+06  2.068186E+06  1.417364E+06  1.418191E+06 -1.547484E+05  4.381077E+05
        77   8  6.101747E+06  1.914992E+06  1.269347E+06  1.326803E+06 -1.739546E+05  4.075923E+05
        77   9  5.631456E+06  1.658263E+06  1.145979E+06  1.107775E+06 -1.882910E+05  3.637970E+05
        77  10 -6.310811E+06 -2.764311E+06 -1.343432E+06 -2.240458E+06 -7.212343E-09 -9.302544E-09
        77  11 -5.841541E+06 -2.505129E+06 -1.232955E+06 -2.022891E+06  5.470328E-09  4.781177E-09
        77  12 -5.249628E+06 -2.356514E+06 -1.125318E+06 -1.933153E+06  1.730793E-08  1.287523E-08
        77  13  1.736636E+05 -3.500196E+05  3.794868E+04 -4.199574E+05 -1.532377E-09 -8.278310E-09
        77  14  1.118260E+05 -2.967168E+05  1.898328E+04 -3.554536E+05 -1.713636E-09 -7.784723E-09
        77  15  1.757484E+05 -3.504751E+05  1.097572E+04 -4.188091E+05 -1.417942E-09 -1.704325E-09
        77  16  6.701369E+06  2.067974E+06  1.416958E+06  1.418246E+06  1.200925E-08  7.663253E-09
        77  17  6.101670E+06  1.914806E+06  1.268978E+06  1.326860E+06 -9.177902E-09 -1.673951E-10
        77  18  5.631382E+06  1.658111E+06  1.145664E+06  1.107830E+06 -1.439906E-08  2.665050E-09
        77  19 -6.310741E+06 -2.764087E+06 -1.343020E+06 -2.240502E+06  1.198620E+05 -4.523972E+05
        77  20 -5.841479E+06 -2.504923E+06 -1.232579E+06 -2.022927E+06  1.041628E+05 -4.349878E+05
        77  21 -5.249576E+06 -2.356336E+06 -1.124998E+06 -1.933180E+06  8.355970E+04 -4.041517E+05
        77  22  1.737370E+05 -3.498016E+05  3.835669E+04 -4.200066E+05  1.372041E+05 -4.452892E+05
        77  23  1.118944E+05 -2.965210E+05  1.935316E+04 -3.555007E+05  1.388758E+05 -4.213581E+05
        77  24  1.758077E+05 -3.503118E+05  1.128750E+04 -4.188511E+05  1.356770E+05 -3.840675E+05
        77  25  6.701446E+06  2.068186E+06  1.417364E+06  1.418191E+06  1.547484E+05 -4.381077E+05
        77  26  6.101747E+06  1.914992E+06  1.269347E+06  1.326803E+06  1.739546E+05 -4.075923E+05
        77  27  5.631456E+06  1.658263E+06  1.145979E+06  1.107775E+06  1.882910E+05 -3.637970E+05
        78   1 -4.878711E+06 -2.213886E+06 -1.046621E+06 -1.827204E+06 -7.906081E+04  3.790807E+05
        78   2 -4.404801E+06 -1.954403E+06 -9.393044E+05 -1.610898E+06 -6.523844E+04  3.401980E+05
        78   3 -3.811285E+06 -1.808522E+06 -8.300099E+05 -1.523892E+06 -5.128976E+04  3.004287E+05
        78   4  1.755763E+05 -3.493279E+05  8.300258E+03 -4.197258E+05 -1.283202E+05  3.601675E+05
        78   5  1.169841E+05 -2.903829E+05  4.068237E+03 -3.555360E+05 -1.156380E+05  3.209812E+05
        78   6  1.778643E+05 -3.447930E+05  2.670273E+03 -4.207070E+05 -1.028300E+05  2.809127E+05
        78   7  5.256205E+06  1.517456E+06  1.061872E+06  9.984126E+05 -1.780171E+05  3.410905E+05
        78   8  4.659820E+06  1.375389E+06  9.463595E+05  9.083170E+05 -1.664370E+05  3.016150E+05
        78   9  4.183363E+06  1.120272E+06  8.345064E+05  6.890476E+05 -1.547297E+05  2.612626E+05
        78  10 -4.878756E+06 -2.214043E+06 -1.046903E+06 -1.827180E+06 -9.438719E-09  3.231704E-09
        78  11 -4.404836E+06 -1.954528E+06 -9.395300E+05 -1.610881E+06 -1.999164E-10 -8.102710E-10
        78  12 -3.811312E+06 -1.808620E+06 -8.301845E+05 -1.523880E+06  1.131394E-08  1.520811E-09
        78  13  1.755239E+05 -3.494717E+05  8.025553E+03 -4.196886E+05 -6.162519E-10 -5.990369E-09
        78  14  1.169421E+05 -2.904971E+05  3.849508E+03 -3.555061E+05 -2.286949E-09 -4.948203E-09
        78  15  1.778318E+05 -3.448806E+05  2.502121E+03 -4.206837E+05  3.110878E-09 -4.642150E-09
        78  16  5.256139E+06  1.517322E+06  1.061593E+06  9.984614E+05  1.085255E-08  7.442786E-09
        78  17  4.659766E+06  1.375284E+06  9.461366E+05  9.083574E+05  5.185859E-11 -3.096818E-10
        78  18  4.183319E+06  1.120193E+06  8.343332E+05  6.890801E+05 -1.384398E-08 -6.728134E-09
        78  19 -4.878711E+06 -2.213886E+06 -1.046621E+06 -1.827204E+06  7.906081E+04 -3.790807E+05
        78  20 -4.404801E+06 -1.954403E+06 -9.393044E+05 -1.610898E+06  6.523844E+04 -3.401980E+05
        78  21 -3.811285E+06 -1.808522E+06 -8.300099E+05 -1.523892E+06  5.128976E+04 -3.004287E+05
        78  22  1.755763E+05 -3.493279E+05  8.300258E+03 -4.197258E+05  1.283202E+05 -3.601675E+05
        78  23  1.169841E+05 -2.903829E+05  4.068237E+03 -3.555360E+05  1.156380E+05 -3.209812E+05
        78  24  1.778643E+05 -3.447930E+05  2.670273E+03 -4.207070E+05  1.028300E+05 -2.809127E+05
        78  25  5.256205E+06  1.517456E+06  1.061872E+06  9.984126E+05  1.780171E+05 -3.410905E+05
        78  26  4.659820E+06  1.375389E+06  9.463595E+05  9.083170E+05  1.664370E+05 -3.016150E+05
        78  27  4.183363E+06  1.120272E+06  8.345064E+05  6.890476E+05  1.547297E+05 -2.612626E+05
        79   1 -3.437443E+06 -1.668718E+06 -7.492693E+05 -1.419742E+06 -4.306927E+04  2.770661E+05
        79   2 -2.958729E+06 -1.412100E+06 -6.397665E+05 -1.204867E+06 -2.842104E+04  2.372475E+05
        79   3 -2.363289E+06 -1.269287E+06 -5.294420E+05 -1.120673E+06 -1.387666E+04  1.973241E+05
        79   4  1.779003E+05 -3.442023E+05  1.884512E+03 -4.210044E+05 -9.448837E+04  2.576613E+05
        79   5  1.204675E+05 -2.857066E+05  8.563458E+02 -3.559847E+05 -7.997033E+04  2.178819E+05
        79   6  1.794523E+05 -3.409869E+05  7.246900E+02 -4.217255E+05 -6.555604E+04  1.779987E+05
        79   7  3.806650E+06  9.813994E+05  7.523472E+05  5.831135E+05 -1.462315E+05  2.381356E+05
        79   8  3.209400E+06  8.414738E+05  6.409845E+05  4.967935E+05 -1.317962E+05  1.984132E+05
        79   9  2.728843E+06  5.878499E+05  5.305609E+05  2.798729E+05 -1.174645E+05  1.585880E+05
        79  10 -3.437465E+06 -1.668801E+06 -7.494171E+05 -1.419732E+06  3.725692E-10 -9.617798E-11
        79  11 -2.958745E+06 -1.412161E+06 -6.398739E+05 -1.204862E+06 -1.245813E-09  3.789057E-09
        79  12 -2.363299E+06 -1.269329E+06 -5.295156E+05 -1.120671E+06  8.302814E-09  3.655655E-09
        79  13  1.778729E+05 -3.442760E+05  1.742984E+03 -4.209848E+05  5.170214E-09  8.606426E-10
        79  14  1.204479E+05 -2.857593E+05  7.551241E+02 -3.559706E+05 -6.586826E-09  2.640062E-09
        79  15  1.794392E+05 -3.410221E+05  6.570788E+02 -4.217161E+05  2.419166E-09 -4.058997E-10
        79  16  3.806612E+06  9.813328E+05  7.522005E+05  5.831415E+05  1.261508E-09 -7.022970E-10
        79  17  3.209370E+06  8.414269E+05  6.408779E+05  4.968146E+05 -1.571541E-09 -1.523091E-09
        79  18  2.728821E+06  5.878192E+05  5.304877E+05  2.798879E+05 -4.395418E-10 -2.943136E-09
        79  19 -3.437443E+06 -1.668718E+06 -7.492693E+05 -1.419742E+06  4.306927E+04 -2.770661E+05
        79  20 -2.958729E+06 -1.412100E+06 -6.397665E+05 -1.204867E+06  2.842104E+04 -2.372475E+05
        79  21 -2.363289E+06 -1.269287E+06 -5.294420E+05 -1.120673E+06  1.387666E+04 -1.973241E+05
        79  22  1.779003E+05 -3.442023E+05  1.884512E+03 -4.210044E+05  9.448837E+04 -2.576613E+05
        79  23  1.204675E+05 -2.857066E+05  8.563458E+02 -3.559847E+05  7.997033E+04 -2.178819E+05
        79  24  1.794523E+05 -3.409869E+05  7.246900E+02 -4.217255E+05  6.555604E+04 -1.779987E+05
        79  25  3.806650E+06  9.813994E+05  7.523472E+05  5.831135E+05  1.462315E+05 -2.381356E+05
        79  26  3.209400E+06  8.414738E+05  6.409845E+05  4.967935E+05  1.317962E+05 -1.984132E+05
        79  27  2.728843E+06  5.878499E+05  5.305609E+05  2.798729E+05  1.174645E+05 -1.585880E+05
        80   1 -1.987499E+06 -1.130715E+06 -4.481231E+05 -1.017404E+06 -5.311244E+03  1.741150E+05
        80   2 -1.505668E+06 -8.761660E+05 -3.378822E+05 -8.032665E+05  9.440183E+03  1.342841E+05
        80   3 -9.088837E+05 -7.354835E+05 -2.274067E+05 -7.206404E+05  2.412066E+04  9.443963E+04
        80   4  1.794959E+05 -3.406231E+05  4.826871E+02 -4.218895E+05 -5.702450E+04  1.548176E+05
        80   5  1.225914E+05 -2.828403E+05  2.367058E+02 -3.562738E+05 -4.229715E+04  1.150240E+05
        80   6  1.803215E+05 -3.389288E+05  2.285754E+02 -4.222644E+05 -2.764092E+04  7.521765E+04
        80   7  2.351312E+06  4.498552E+05  4.488520E+05  1.755463E+05 -1.089324E+05  1.354476E+05
        80   8  1.753566E+06  3.107005E+05  3.382242E+05  9.180010E+04 -9.418051E+04  9.570945E+04
        80   9  1.270736E+06  5.771989E+04  2.278088E+05 -1.234070E+05 -7.949989E+04  5.595947E+04
        80  10 -1.987507E+06 -1.130747E+06 -4.481802E+05 -1.017403E+06  6.005092E-09  1.096736E-09
        80  11 -1.505673E+06 -8.761854E+05 -3.379163E+05 -8.032676E+05  2.568071E-08  8.469145E-09
        80  12 -9.088867E+05 -7.354933E+05 -2.274245E+05 -7.206422E+05  3.600640E-08  1.146518E-08
        80  13  1.794860E+05 -3.406497E+05  4.315382E+02 -4.218824E+05  8.904492E-09  1.574432E-09
        80  14  1.225860E+05 -2.828550E+05  2.084830E+02 -3.562699E+05  1.549153E-08  7.651195E-09
        80  15  1.803192E+05 -3.389351E+05  2.165085E+02 -4.222627E+05  1.870342E-08  1.429725E-08
        80  16  2.351295E+06  4.498323E+05  4.487953E+05  1.755581E+05  7.278075E-09 -3.239370E-09
        80  17  1.753554E+06  3.106883E+05  3.381904E+05  9.180736E+04 -3.122827E-09 -2.717905E-09
        80  18  1.270729E+06  5.771483E+04  2.277910E+05 -1.234034E+05 -6.885957E-09 -3.656846E-09
        80  19 -1.987499E+06 -1.130715E+06 -4.481231E+05 -1.017404E+06  5.311244E+03 -1.741150E+05
        80  20 -1.505668E+06 -8.761660E+05 -3.378822E+05 -8.032665E+05 -9.440183E+03 -1.342841E+05
        80  21 -9.088837E+05 -7.354835E+05 -2.274067E+05 -7.206404E+05 -2.412066E+04 -9.443963E+04
        80  22  1.794959E+05 -3.406231E+05  4.826871E+02 -4.218895E+05  5.702450E+04 -1.548176E+05
        80  23  1.225914E+05 -2.828403E+05  2.367058E+02 -3.562738E+05  4.229715E+04 -1.150240E+05
        80  24  1.803215E+05 -3.389288E+05  2.285754E+02 -4.222644E+05  2.764092E+04 -7.521765E+04
        80  25  2.351312E+06  4.498552E+05  4.488520E+05  1.755463E+05  1.089324E+05 -1.354476E+05
        80  26  1.753566E+06  3.107005E+05  3.382242E+05  9.180010E+04  9.418051E+04 -9.570945E+04
        80  27  1.270736E+06  5.771989E+04  2.278088E+05 -1.234070E+05  7.949989E+04 -5.595947E+04
        81   1 -5.318129E+05 -5.976075E+05 -1.459343E+05 -6.176695E+05  3.278262E+04  7.127472E+04
        81   2 -4.853293E+04 -3.442655E+05 -3.546982E+04 -4.035464E+05  4.709059E+04  3.146699E+04
        81   3  5.490738E+05 -2.047221E+05  7.531603E+04 -3.212279E+05  6.126461E+04 -8.004524E+03
        81   4  1.803260E+05 -3.387901E+05  1.353999E+02 -4.223291E+05 -1.907887E+04  5.203119E+04
        81   5  1.234079E+05 -2.817439E+05  1.097217E+01 -3.563859E+05 -4.354170E+03  1.238238E+04
        81   6  1.804159E+05 -3.386108E+05 -1.309451E+02 -4.223677E+05  1.023671E+04 -2.692925E+04
        81   7  8.929965E+05 -7.992698E+04  1.461920E+05 -2.267790E+05 -7.100469E+04  3.276373E+04
        81   8  2.953855E+05 -2.192176E+05  3.550173E+04 -3.092117E+05 -5.581444E+04 -6.708010E+03
        81   9 -1.880971E+05 -4.724863E+05 -7.557380E+04 -5.234506E+05 -4.075869E+04 -4.584189E+04
        81  10 -5.318154E+05 -5.976132E+05 -1.459459E+05 -6.176714E+05 -8.574698E-10 -5.043107E-09
        81  11 -4.853557E+04 -3.442671E+05 -3.547586E+04 -4.035476E+05 -1.027105E-08 -6.808919E-09
        81  12  5.490698E+05 -2.047232E+05  7.530886E+04 -3.212275E+05 -8.469532E-09 -4.681116E-09
        81  13  1.803249E+05 -3.387931E+05  1.296288E+02 -4.223283E+05  1.811443E-08  1.279065E-08
        81  14  1.234078E+05 -2.817441E+05  1.064844E+01 -3.563859E+05 -7.827701E-09 -2.277048E-09
        81  15  1.804156E+05 -3.386116E+05 -1.325046E+02 -4.223675E+05 -1.567787E-08 -7.360865E-09
        81  16  8.929908E+05 -7.992948E+04  1.461805E+05 -2.267771E+05  2.170775E-08  1.040697E-08
        81  17  2.953821E+05 -2.192184E+05  3.549579E+04 -3.092120E+05 -1.694807E-09  1.683889E-09
        81  18 -1.880994E+05 -4.724890E+05 -7.558088E+04 -5.234521E+05 -1.263835E-08 -5.515278E-09
        81  19 -5.318129E+05 -5.976075E+05 -1.459343E+05 -6.176695E+05 -3.278262E+04 -7.127472E+04
        81  20 -4.853293E+04 -3.442655E+05 -3.546982E+04 -4.035464E+05 -4.709059E+04 -3.146699E+04
        81  21  5.490738E+05 -2.047221E+05  7.531603E+04 -3.212279E+05 -6.126461E+04  8.004524E+03
        81  22  1.803260E+05 -3.387901E+05  1.353999E+02 -4.223291E+05  1.907887E+04 -5.203119E+04
        81  23  1.234079E+05 -2.817439E+05  1.097217E+01 -3.563859E+05  4.354170E+03 -1.238238E+04
        81  24  1.804159E+05 -3.386108E+05 -1.309451E+02 -4.223677E+05 -1.023671E+04  2.692925E+04
        81  25  8.929965E+05 -7.992698E+04  1.461920E+05 -2.267790E+05  7.100469E+04 -3.276373E+04
        81  26  2.953855E+05 -2.192176E+05  3.550173E+04 -3.092117E+05  5.581444E+04  6.708010E+03
        81  27 -1.880971E+05 -4.724863E+05 -7.557380E+04 -5.234506E+05  4.075869E+04  4.584189E+04
        82   1  9.268971E+05 -6.698939E+04  1.567130E+05 -2.179077E+05  7.118881E+04 -3.080538E+04
        82   2  1.409625E+06  1.860580E+05  2.689588E+05 -3.415297E+03  7.798110E+04 -7.065605E+04
        82   3  2.008087E+06  3.268161E+05  3.868201E+05  7.976960E+04  8.270647E+04 -1.048363E+05
        82   4  1.803304E+05 -3.386400E+05 -2.163708E+02 -4.222794E+05  1.889192E+04 -5.021025E+04
        82   5  1.230021E+05 -2.824788E+05 -6.406960E+02 -3.563849E+05  3.306111E+04 -8.735784E+04
        82   6  1.796685E+05 -3.401044E+05 -1.271777E+03 -4.219335E+05  4.516726E+04 -1.188256E+05
        82   7 -5.656571E+05 -6.102423E+05 -1.571631E+05 -6.264224E+05 -3.333700E+04 -6.958988E+04
        82   8 -1.161930E+06 -7.508818E+05 -2.703218E+05 -7.086817E+05 -1.175891E+04 -1.040224E+05
        82   9 -1.645367E+06 -1.006765E+06 -3.895495E+05 -9.222851E+05  7.746584E+03 -1.327708E+05
        82  10  9.268914E+05 -6.699177E+04  1.567017E+05 -2.179060E+05 -1.467029E-08 -4.153258E-09
        82  11  1.409617E+06  1.860510E+05  2.689380E+05 -3.410864E+03  1.627242E-08  8.040883E-09
        82  12  2.008077E+06  3.268024E+05  3.867866E+05  7.977658E+04  3.832147E-08  1.333234E-08
        82  13  1.803293E+05 -3.386428E+05 -2.217786E+02 -4.222787E+05 -1.128776E-08 -2.241184E-09
        82  14  1.229989E+05 -2.824872E+05 -6.570895E+02 -3.563825E+05 -3.261919E-09  5.741541E-09
        82  15  1.796625E+05 -3.401201E+05 -1.302141E+03 -4.219292E+05  4.887806E-09  4.628581E-09
        82  16 -5.656596E+05 -6.102478E+05 -1.571743E+05 -6.264242E+05 -1.781959E-09 -3.292330E-09
        82  17 -1.161933E+06 -7.508934E+05 -2.703424E+05 -7.086827E+05 -1.744586E-08 -9.711887E-09
        82  18 -1.645372E+06 -1.006784E+06 -3.895827E+05 -9.222843E+05 -1.980721E-08 -1.520354E-08
        82  19  9.268971E+05 -6.698939E+04  1.567130E+05 -2.179077E+05 -7.118881E+04  3.080538E+04
        82  20  1.409625E+06  1.860580E+05  2.689588E+05 -3.415297E+03 -7.798110E+04  7.065605E+04
        82  21  2.008087E+06  3.268161E+05  3.868201E+05  7.976960E+04 -8.270647E+04  1.048363E+05
        82  22  1.803304E+05 -3.386400E+05 -2.163708E+02 -4.222794E+05 -1.889192E+04  5.021025E+04
        82  23  1.230021E+05 -2.824788E+05 -6.406960E+02 -3.563849E+05 -3.306111E+04  8.735784E+04
        82  24  1.796685E+05 -3.401044E+05 -1.271777E+03 -4.219335E+05 -4.516726E+04  1.188256E+05
        82  25 -5.656571E+05 -6.102423E+05 -1.571631E+05 -6.264224E+05  3.333700E+04  6.958988E+04
        82  26 -1.161930E+06 -7.508818E+05 -2.703218E+05 -7.086817E+05  1.175891E+04  1.040224E+05
        82  27 -1.645367E+06 -1.006765E+06 -3.895495E+05 -9.222851E+05 -7.746584E+03  1.327708E+05
        83   1  2.388628E+06  4.664223E+05  4.670525E+05  1.853958E+05  1.131278E+05 -1.221147E+05
        83   2  2.862377E+06  7.215499E+05  6.133287E+05  3.954048E+05 -8.577292E+03 -1.648740E+05
        83   3  3.470846E+06  8.882889E+05  8.546779E+05  4.799763E+05 -1.655365E+05 -1.138874E+05
        83   4  1.785805E+05 -3.393819E+05 -1.607320E+03 -4.209475E+05  5.467291E+04 -1.439155E+05
        83   5  1.224947E+05 -2.863446E+05 -3.453868E+03 -3.571450E+05  5.580433E+04 -1.409260E+05
        83   6  1.766625E+05 -3.459680E+05 -7.210746E+03 -4.189254E+05  2.172729E+04 -4.393650E+04
        83   7 -2.026511E+06 -1.144802E+06 -4.705295E+05 -1.025314E+06 -3.558687E+03 -1.656333E+05
        83   8 -2.609826E+06 -1.293660E+06 -6.206914E+05 -1.106655E+06  1.198790E+05 -1.170931E+05
        83   9 -3.106891E+06 -1.579497E+06 -8.698427E+05 -1.313496E+06  2.079013E+05  2.560450E+04
        83  10  2.388610E+06  4.664028E+05  4.670005E+05  1.854070E+05 -1.528863E-08 -7.568651E-09
        83  11  2.862369E+06  7.215207E+05  6.132775E+05  3.954037E+05 -1.414656E-08 -6.336519E-09
        83  12  3.470813E+06  8.882677E+05  8.546023E+05  4.799612E+05  4.527339E-09 -1.305961E-09
        83  13  1.785718E+05 -3.394049E+05 -1.651854E+03 -4.209412E+05  9.856437E-09  1.191253E-08
        83  14  1.224860E+05 -2.863668E+05 -3.497037E+03 -3.571387E+05 -4.648061E-09  4.912405E-09
        83  15  1.766614E+05 -3.459702E+05 -7.215260E+03 -4.189246E+05  5.722817E-09  1.428584E-09
        83  16 -2.026519E+06 -1.144831E+06 -4.705811E+05 -1.025315E+06  2.081256E-08  5.672936E-09
        83  17 -2.609845E+06 -1.293679E+06 -6.207442E+05 -1.106644E+06  2.319115E-08  9.859142E-09
        83  18 -3.106938E+06 -1.579509E+06 -8.699256E+05 -1.313500E+06 -3.349802E-09  8.625391E-10
        83  19  2.388628E+06  4.664223E+05  4.670525E+05  1.853958E+05 -1.131278E+05  1.221147E+05
        83  20  2.862377E+06  7.215499E+05  6.133287E+05  3.954048E+05  8.577292E+03  1.648740E+05
        83  21  3.470846E+06  8.882889E+05  8.546779E+05  4.799763E+05  1.655365E+05  1.138874E+05
        83  22  1.785805E+05 -3.393819E+05 -1.607320E+03 -4.209475E+05 -5.467291E+04  1.439155E+05
        83  23  1.224947E+05 -2.863446E+05 -3.453868E+03 -3.571450E+05 -5.580433E+04  1.409260E+05
        83  24  1.766625E+05 -3.459680E+05 -7.210746E+03 -4.189254E+05 -2.172729E+04  4.393650E+04
        83  25 -2.026511E+06 -1.144802E+06 -4.705295E+05 -1.025314E+06  3.558687E+03  1.656333E+05
        83  26 -2.609826E+06 -1.293660E+06 -6.206914E+05 -1.106655E+06 -1.198790E+05  1.170931E+05
        83  27 -3.106891E+06 -1.579497E+06 -8.698427E+05 -1.313496E+06 -2.079013E+05 -2.560450E+04
        84   1 -2.133615E+05 -1.083694E+05 -9.735428E+04 -7.730947E+04 -2.531435E+04  7.040078E+03
        84   2 -1.387162E+05 -1.083467E+05 -7.241427E+04 -8.406947E+04 -6.698298E+03  2.343432E+04
        84   3 -6.386243E+04 -9.789124E+04 -5.698568E+04 -1.018418E+05  1.192316E+04  2.773944E+04
        84   4  3.816753E+05  3.817564E+04  4.039016E+04 -1.033493E+05  2.853999E+04  7.039648E+03
        84   5  3.790740E+05  1.376355E+04  2.040140E+04 -9.784527E+04  1.814929E+04  2.343075E+04
        84   6  3.817070E+05  4.813788E+03  1.104148E+04 -1.033521E+05  7.761405E+03  2.773812E+04
        84   7  9.770469E+05  1.846999E+05  1.781222E+05 -1.294143E+05  8.244556E+04  7.034703E+03
        84   8  8.971272E+05  1.358600E+05  1.132092E+05 -1.116329E+05  4.301701E+04  2.342608E+04
        84   9  8.274752E+05  1.075093E+05  7.906445E+04 -1.048636E+05  3.596781E+03  2.773683E+04
        84  10 -2.133622E+05 -1.083696E+05 -9.735558E+04 -7.730933E+04 -7.019326E-09  1.354895E-09
        84  11 -1.387164E+05 -1.083473E+05 -7.241539E+04 -8.406934E+04 -3.039049E-08  3.493649E-09
        84  12 -6.386279E+04 -9.789211E+04 -5.698740E+04 -1.018421E+05 -5.996878E-08  2.152342E-09
        84  13  3.816744E+05  3.817537E+04  4.038854E+04 -1.033495E+05  1.429734E-10 -7.072771E-10
        84  14  3.790735E+05  1.376287E+04  2.039975E+04 -9.784561E+04 -2.008659E-09 -5.406278E-09
        84  15  3.817067E+05  4.812945E+03  1.103992E+04 -1.033523E+05  5.225242E-09 -1.394253E-08
        84  16  9.770396E+05  1.846980E+05  1.781093E+05 -1.294147E+05  1.980690E-09  1.772861E-09
        84  17  8.971251E+05  1.358589E+05  1.132047E+05 -1.116337E+05  3.275562E-08  5.349657E-09
        84  18  8.274750E+05  1.075085E+05  7.906298E+04 -1.048636E+05  6.343698E-08  4.782733E-09
        84  19 -2.133615E+05 -1.083694E+05 -9.735428E+04 -7.730947E+04  2.531435E+04 -7.040078E+03
        84  20 -1.387162E+05 -1.083467E+05 -7.241427E+04 -8.406947E+04  6.698298E+03 -2.343432E+04
        84  21 -6.386243E+04 -9.789124E+04 -5.698568E+04 -1.018418E+05 -1.192316E+04 -2.773944E+04
        84  22  3.816753E+05  3.817564E+04  4.039016E+04 -1.033493E+05 -2.853999E+04 -7.039648E+03
        84  23  3.790740E+05  1.376355E+04  2.040140E+04 -9.784527E+04 -1.814929E+04 -2.343075E+04
        84  24  3.817070E+05  4.813788E+03  1.104148E+04 -1.033521E+05 -7.761405E+03 -2.773812E+04
        84  25  9.770469E+05  1.846999E+05  1.781222E+05 -1.294143E+05 -8.244556E+04 -7.034703E+03
        84  26  8.971272E+05  1.358600E+05  1.132092E+05 -1.116329E+05 -4.301701E+04 -2.342608E+04
        84  27  8.274752E+05  1.075093E+05  7.906445E+04 -1.048636E+05 -3.596781E+03 -2.773683E+04
        85   1 -1.797301E+04 -8.796654E+04 -5.052174E+04 -1.014508E+05  1.144854E+04  2.616999E+04
        85   2  5.666441E+04 -7.249386E+04 -4.018566E+04 -9.655373E+04  1.314597E+04  2.321610E+04
        85   3  1.313133E+05 -5.613586E+04 -3.073169E+04 -1.035650E+05  1.484288E+04  1.862840E+04
        85   4  3.807033E+05  3.505119E+03  8.233376E+03 -1.035518E+05  6.323802E+03  2.616924E+04
        85   5  3.803689E+05  1.157307E+03  4.440702E+03 -9.759831E+04  4.098687E+03  2.321684E+04
        85   6  3.807206E+05  3.754381E+02  2.488598E+03 -1.035525E+05  1.872855E+03  1.863110E+04
        85   7  7.795396E+05  9.496940E+04  6.698575E+04 -1.056543E+05  1.195908E+03  2.616852E+04
        85   8  7.041799E+05  7.480392E+04  4.906619E+04 -9.864344E+04 -4.953106E+03  2.321762E+04
        85   9  6.301917E+05  5.688417E+04  3.570902E+04 -1.035401E+05 -1.110214E+04  1.863379E+04
        85  10 -1.797334E+04 -8.796731E+04 -5.052327E+04 -1.014510E+05  6.643153E-08  8.237939E-10
        85  11  5.666408E+04 -7.249449E+04 -4.018700E+04 -9.655397E+04  4.298273E-08 -8.503599E-10
        85  12  1.313130E+05 -5.613629E+04 -3.073275E+04 -1.035652E+05  3.842121E-09 -1.770655E-09
        85  13  3.807031E+05  3.504373E+03  8.232013E+03 -1.035520E+05 -8.499413E-09 -1.551362E-08
        85  14  3.803687E+05  1.156724E+03  4.439657E+03 -9.759838E+04  1.991197E-10 -9.450968E-09
        85  15  3.807205E+05  3.750644E+02  2.487939E+03 -1.035526E+05 -6.830415E-10 -2.764135E-09
        85  16  7.795395E+05  9.496867E+04  6.698446E+04 -1.056543E+05 -6.648793E-08  3.531036E-09
        85  17  7.041797E+05  7.480334E+04  4.906513E+04 -9.864335E+04 -4.280276E-08  1.952949E-09
        85  18  6.301915E+05  5.688377E+04  3.570813E+04 -1.035399E+05 -4.355060E-09  1.495576E-10
        85  19 -1.797301E+04 -8.796654E+04 -5.052174E+04 -1.014508E+05 -1.144854E+04 -2.616999E+04
        85  20  5.666441E+04 -7.249386E+04 -4.018566E+04 -9.655373E+04 -1.314597E+04 -2.321610E+04
        85  21  1.313133E+05 -5.613586E+04 -3.073169E+04 -1.035650E+05 -1.484288E+04 -1.862840E+04
        85  22  3.807033E+05  3.505119E+03  8.233376E+03 -1.035518E+05 -6.323802E+03 -2.616924E+04
        85  23  3.803689E+05  1.157307E+03  4.440702E+03 -9.759831E+04 -4.098687E+03 -2.321684E+04
        85  24  3.807206E+05  3.754381E+02  2.488598E+03 -1.035525E+05 -1.872855E+03 -1.863110E+04
        85  25  7.795396E+05  9.496940E+04  6.698575E+04 -1.056543E+05 -1.195908E+03 -2.616852E+04
        85  26  7.041799E+05  7.480392E+04  4.906619E+04 -9.864344E+04  4.953106E+03 -2.321762E+04
        85  27  6.301917E+05  5.688417E+04  3.570902E+04 -1.035401E+05  1.110214E+04 -1.863379E+04
        86   1  1.773207E+05 -4.570989E+04 -2.484607E+04 -1.034967E+05  1.460593E+04  1.540803E+04
        86   2  2.519333E+05 -2.898171E+04 -1.570922E+04 -9.754761E+04  1.461256E+04  9.840925E+03
        86   3  3.265633E+05 -1.219239E+04 -6.562083E+03 -1.036251E+05  1.461880E+04  4.053911E+03
        86   4  3.805952E+05  2.764486E+02  1.874522E+03 -1.035789E+05  1.506079E+03  1.541124E+04
        86   5  3.805464E+05  8.332475E+01  1.048845E+03 -9.756574E+04  9.839569E+02  9.844755E+03
        86   6  3.806020E+05  4.346893E+01  6.002477E+02 -1.035790E+05  4.614511E+02  4.058379E+03
        86   7  5.839124E+05  4.626114E+04  2.859547E+04 -1.036612E+05 -1.159786E+04  1.541445E+04
        86   8  5.091768E+05  2.914777E+04  1.780751E+04 -9.758388E+04 -1.264733E+04  9.848585E+03
        86   9  4.346441E+05  1.227931E+04  7.763309E+03 -1.035328E+05 -1.369707E+04  4.062846E+03
        86  10  1.773204E+05 -4.571021E+04 -2.484691E+04 -1.034968E+05 -6.301899E-08 -8.063928E-10
        86  11  2.519330E+05 -2.898187E+04 -1.570980E+04 -9.754772E+04 -3.121209E-09  2.354220E-09
        86  12  3.265630E+05 -1.219246E+04 -6.562515E+03 -1.036252E+05  6.793680E-08  4.643222E-09
        86  13  3.805952E+05  2.761929E+02  1.874071E+03 -1.035789E+05 -4.432270E-09 -7.100876E-10
        86  14  3.805464E+05  8.322039E+01  1.048661E+03 -9.756575E+04 -4.322965E-09  6.255524E-10
        86  15  3.806020E+05  4.345118E+01  6.002163E+02 -1.035790E+05  8.029960E-10  4.225642E-09
        86  16  5.839122E+05  4.626085E+04  2.859477E+04 -1.036610E+05  6.599299E-08 -7.576578E-10
        86  17  5.091766E+05  2.914762E+04  1.780702E+04 -9.758378E+04 -2.587095E-09 -3.178661E-10
        86  18  4.346439E+05  1.227924E+04  7.762926E+03 -1.035328E+05 -6.759731E-08  2.971869E-09
        86  19  1.773207E+05 -4.570989E+04 -2.484607E+04 -1.034967E+05 -1.460593E+04 -1.540803E+04
        86  20  2.519333E+05 -2.898171E+04 -1.570922E+04 -9.754761E+04 -1.461256E+04 -9.840925E+03
        86  21  3.265633E+05 -1.219239E+04 -6.562083E+03 -1.036251E+05 -1.461880E+04 -4.053911E+03
        86  22  3.805952E+05  2.764486E+02  1.874522E+03 -1.035789E+05 -1.506079E+03 -1.541124E+04
        86  23  3.805464E+05  8.332475E+01  1.048845E+03 -9.756574E+04 -9.839569E+02 -9.844755E+03
        86  24  3.806020E+05  4.346893E+01  6.002477E+02 -1.035790E+05 -4.614511E+02 -4.058379E+03
        86  25  5.839124E+05  4.626114E+04  2.859547E+04 -1.036612E+05  1.159786E+04 -1.541445E+04
        86  26  5.091768E+05  2.914777E+04  1.780751E+04 -9.758388E+04  1.264733E+04 -9.848585E+03
        86  27  4.346441E+05  1.227931E+04  7.763309E+03 -1.035328E+05  1.369707E+04 -4.062846E+03
        87   1  3.725796E+05 -1.765873E+03 -5.805812E+02 -1.036180E+05  1.454191E+04  6.118251E+02
        87   2  4.471989E+05  1.501983E+04  8.632331E+03 -9.760039E+04  1.446850E+04 -5.303366E+03
        87   3  5.218335E+05  3.181166E+04  1.789392E+04 -1.036249E+05  1.439529E+04 -1.124239E+04
        87   4  3.805834E+05  4.153295E+01  4.558987E+02 -1.035825E+05  3.670516E+02  6.163680E+02
        87   5  3.805725E+05  2.714912E+01  2.629770E+02 -9.756137E+04  2.354610E+02 -5.299057E+03
        87   6  3.805800E+05  2.875165E+01  1.581947E+02 -1.035825E+05  1.040725E+02 -1.123833E+04
        87   7  3.885877E+05  1.849044E+03  1.493133E+03 -1.035470E+05 -1.380798E+04  6.209091E+02
        87   8  3.139512E+05 -1.496561E+04 -8.105628E+03 -9.752236E+04 -1.399613E+04 -5.294749E+03
        87   9  2.393474E+05 -3.175485E+04 -1.757681E+04 -1.035401E+05 -1.418406E+04 -1.123427E+04
        87  10  3.725793E+05 -1.765930E+03 -5.809791E+02 -1.036181E+05  3.545555E-08  4.146826E-09
        87  11  4.471987E+05  1.501975E+04  8.631885E+03 -9.760032E+04 -4.449166E-10 -6.727950E-10
        87  12  5.218332E+05  3.181147E+04  1.789329E+04 -1.036248E+05 -4.409931E-08 -6.726751E-09
        87  13  3.805834E+05  4.153251E+01  4.558977E+02 -1.035825E+05 -5.573483E-13  6.419635E-09
        87  14  3.805725E+05  2.711895E+01  2.629241E+02 -9.756137E+04  2.064935E-09  1.025041E-08
        87  15  3.805800E+05  2.861600E+01  1.579573E+02 -1.035825E+05 -2.564144E-09  1.145397E-08
        87  16  3.885875E+05  1.848992E+03  1.492774E+03 -1.035470E+05 -3.547255E-08  4.024334E-09
        87  17  3.139509E+05 -1.496569E+04 -8.106048E+03 -9.752242E+04  5.792687E-09  1.300872E-09
        87  18  2.393472E+05 -3.175504E+04 -1.757743E+04 -1.035402E+05  4.159340E-08 -4.782311E-09
        87  19  3.725796E+05 -1.765873E+03 -5.805812E+02 -1.036180E+05 -1.454191E+04 -6.118251E+02
        87  20  4.471989E+05  1.501983E+04  8.632331E+03 -9.760039E+04 -1.446850E+04  5.303366E+03
        87  21  5.218335E+05  3.181166E+04  1.789392E+04 -1.036249E+05 -1.439529E+04  1.124239E+04
        87  22  3.805834E+05  4.153295E+01  4.558987E+02 -1.035825E+05 -3.670516E+02 -6.163680E+02
        87  23  3.805725E+05  2.714912E+01  2.629770E+02 -9.756137E+04 -2.354610E+02  5.299057E+03
        87  24  3.805800E+05  2.875165E+01  1.581947E+02 -1.035825E+05 -1.040725E+02  1.123833E+04
        87  25  3.885877E+05  1.849044E+03  1.493133E+03 -1.035470E+05  1.380798E+04 -6.209091E+02
        87  26  3.139512E+05 -1.496561E+04 -8.105628E+03 -9.752236E+04  1.399613E+04  5.294749E+03
        87  27  2.393474E+05 -3.175485E+04 -1.757681E+04 -1.035401E+05  1.418406E+04  1.123427E+04
        88   1  5.678641E+05  4.222694E+04  2.394735E+04 -1.036278E+05  1.436881E+04 -1.470828E+04
        88   2  6.425009E+05  5.900772E+04  3.329076E+04 -9.760373E+04  1.422711E+04 -2.063781E+04
        88   3  7.171698E+05  7.581021E+04  4.273230E+04 -1.036233E+05  1.408620E+04 -2.652628E+04
        88   4  3.805751E+05  2.566846E+01  1.258196E+02 -1.035829E+05  7.756080E+01 -1.470459E+04
        88   5  3.805638E+05  1.092039E+01  8.629272E+01 -9.756091E+04  3.367178E+01 -2.063515E+04
        88   6  3.805617E+05  9.973766E-01  7.648639E+01 -1.035829E+05 -9.414321E+00 -2.652466E+04
        88   7  1.933225E+05 -4.217693E+04 -2.369508E+04 -1.035379E+05 -1.420959E+04 -1.470090E+04
        88   8  1.186975E+05 -5.898857E+04 -3.311765E+04 -9.751811E+04 -1.415408E+04 -2.063250E+04
        88   9  4.407024E+04 -7.581273E+04 -4.257897E+04 -1.035425E+05 -1.409777E+04 -2.652303E+04
        88  10  5.678639E+05  4.222666E+04  2.394656E+04 -1.036277E+05  4.211342E-08 -7.613685E-09
        88  11  6.425006E+05  5.900721E+04  3.328958E+04 -9.760350E+04  8.613600E-09 -4.768595E-09
        88  12  7.171694E+05  7.580940E+04  4.273060E+04 -1.036230E+05 -2.686787E-08 -1.756491E-09
        88  13  3.805751E+05  2.543623E+01  1.254132E+02 -1.035829E+05  4.570458E-09  1.001741E-08
        88  14  3.805637E+05  1.046306E+01  8.549240E+01 -9.756091E+04  2.621724E-10  5.500100E-09
        88  15  3.805615E+05  2.417437E-01  7.516403E+01 -1.035829E+05 -2.613935E-09  1.660953E-09
        88  16  1.933223E+05 -4.217722E+04 -2.369586E+04 -1.035381E+05 -4.015579E-08 -6.698912E-09
        88  17  1.186971E+05 -5.898908E+04 -3.311883E+04 -9.751834E+04 -7.397361E-09 -3.363944E-09
        88  18  4.406984E+04 -7.581354E+04 -4.258066E+04 -1.035428E+05  2.590940E-08  9.224864E-10
        88  19  5.678641E+05  4.222694E+04  2.394735E+04 -1.036278E+05 -1.436881E+04  1.470828E+04
        88  20  6.425009E+05  5.900772E+04  3.329076E+04 -9.760373E+04 -1.422711E+04  2.063781E+04
        88  21  7.171698E+05  7.581021E+04  4.273230E+04 -1.036233E+05 -1.408620E+04  2.652628E+04
        88  22  3.805751E+05  2.566846E+01  1.258196E+02 -1.035829E+05 -7.756080E+01  1.470459E+04
        88  23  3.805638E+05  1.092039E+01  8.629272E+01 -9.756091E+04 -3.367178E+01  2.063515E+04
        88  24  3.805617E+05  9.973766E-01  7.648639E+01 -1.035829E+05  9.414321E+00  2.652466E+04
        88  25  1.933225E+05 -4.217693E+04 -2.369508E+04 -1.035379E+05  1.420959E+04  1.470090E+04
        88  26  1.186975E+05 -5.898857E+04 -3.311765E+04 -9.751811E+04  1.415408E+04  2.063250E+04
        88  27  4.407024E+04 -7.581273E+04 -4.257897E+04 -1.035425E+05  1.409777E+04  2.652303E+04
        89   1  7.632463E+05  8.624034E+04  4.889496E+04 -1.036150E+05  1.404746E+04 -2.995064E+04
        89   2  8.378598E+05  1.030824E+05  5.867206E+04 -9.758791E+04  1.318593E+04 -3.563881E+04
        89   3  9.126425E+05  1.200799E+05  6.905193E+04 -1.035861E+05  1.232562E+04 -4.099005E+04
        89   4  3.805589E+05 -8.349971E+00  8.053881E+01 -1.035789E+05 -2.373750E+01 -2.994983E+04
        89   5  3.805350E+05 -3.003672E+01  1.053474E+02 -9.756596E+04 -7.632591E+01 -3.563983E+04
        89   6  3.805354E+05 -3.609285E+01  1.715707E+02 -1.035789E+05 -1.276056E+02 -4.099276E+04
        89   7 -1.978076E+03 -8.626294E+04 -4.873372E+04 -1.035427E+05 -1.408670E+04 -2.994902E+04
        89   8 -7.657524E+04 -1.031510E+05 -5.846162E+04 -9.754400E+04 -1.332930E+04 -3.564084E+04
        89   9 -1.512818E+05 -1.201638E+05 -6.870974E+04 -1.035716E+05 -1.257068E+04 -4.099548E+04
        89  10  7.632458E+05  8.623933E+04  4.889290E+04 -1.036146E+05 -7.629754E-09  1.801220E-10
        89  11  8.378593E+05  1.030810E+05  5.866935E+04 -9.758754E+04 -3.391598E-08  3.849162E-09
        89  12  9.126419E+05  1.200780E+05  6.904849E+04 -1.035857E+05 -6.901445E-08  5.453038E-09
        89  13  3.805586E+05 -9.313357E+00  7.885289E+01 -1.035789E+05  4.283360E-09 -5.598718E-10
        89  14  3.805346E+05 -3.140094E+01  1.029600E+02 -9.756596E+04  2.025756E-09 -5.478980E-09
        89  15  3.805349E+05 -3.789764E+01  1.684123E+02 -1.035789E+05 -2.221495E-09 -1.179308E-08
        89  16 -1.978530E+03 -8.626396E+04 -4.873578E+04 -1.035431E+05  6.660616E-09  3.203498E-09
        89  17 -7.657577E+04 -1.031524E+05 -5.846434E+04 -9.754438E+04  3.637730E-08  4.930128E-09
        89  18 -1.512824E+05 -1.201656E+05 -6.871319E+04 -1.035720E+05  7.218135E-08  5.915374E-09
        89  19  7.632463E+05  8.624034E+04  4.889496E+04 -1.036150E+05 -1.404746E+04  2.995064E+04
        89  20  8.378598E+05  1.030824E+05  5.867206E+04 -9.758791E+04 -1.318593E+04  3.563881E+04
        89  21  9.126425E+05  1.200799E+05  6.905193E+04 -1.035861E+05 -1.232562E+04  4.099005E+04
        89  22  3.805589E+05 -8.349971E+00  8.053881E+01 -1.035789E+05  2.373750E+01  2.994983E+04
        89  23  3.805350E+05 -3.003672E+01  1.053474E+02 -9.756596E+04  7.632591E+01  3.563983E+04
        89  24  3.805354E+05 -3.609285E+01  1.715707E+02 -1.035789E+05  1.276056E+02  4.099276E+04
        89  25 -1.978076E+03 -8.626294E+04 -4.873372E+04 -1.035427E+05  1.408670E+04  2.994902E+04
        89  26 -7.657524E+04 -1.031510E+05 -5.846162E+04 -9.754400E+04  1.332930E+04  3.564084E+04
        89  27 -1.512818E+05 -1.201638E+05 -6.870974E+04 -1.035716E+05  1.257068E+04  4.099548E+04
        90   1  9.589197E+05  1.306650E+05  7.583940E+04 -1.035193E+05  1.209617E+04 -4.407406E+04
        90   2  1.033124E+06  1.480427E+05  8.853258E+04 -9.764450E+04  5.888912E+03 -4.792252E+04
        90   3  1.108468E+06  1.666051E+05  1.055668E+05 -1.036111E+05 -3.185500E+02 -4.926797E+04
        90   4  3.805407E+05 -4.215214E+01  2.234554E+02 -1.035380E+05 -1.602939E+02 -4.407791E+04
        90   5  3.804787E+05 -6.183953E+00  3.864855E+02 -9.761696E+04 -3.517857E+02 -4.792803E+04
        90   6  3.805076E+05  1.714032E+02  7.172798E+02 -1.035380E+05 -5.426775E+02 -4.927374E+04
        90   7 -1.974964E+05 -1.307633E+05 -7.539404E+04 -1.035568E+05 -1.240589E+04 -4.408175E+04
        90   8 -2.717332E+05 -1.480734E+05 -8.776347E+04 -9.758942E+04 -6.586233E+03 -4.793354E+04
        90   9 -3.469188E+05 -1.662864E+05 -1.041405E+05 -1.034650E+05 -7.665535E+02 -4.927952E+04
        90  10  9.589191E+05  1.306629E+05  7.583548E+04 -1.035188E+05  7.239610E-08  5.276338E-09
        90  11  1.033123E+06  1.480402E+05  8.852820E+04 -9.764427E+04  4.755870E-08  2.801957E-09
        90  12  1.108468E+06  1.666025E+05  1.055622E+05 -1.036111E+05  1.128759E-08 -1.543843E-09
        90  13  3.805401E+05 -4.423882E+01  2.198037E+02 -1.035380E+05  1.527717E-12 -1.251487E-08
        90  14  3.804781E+05 -8.651110E+00  3.821678E+02 -9.761697E+04  1.080459E-08 -8.366435E-09
        90  15  3.805070E+05  1.687955E+02  7.127159E+02 -1.035381E+05  1.165861E-09 -5.057135E-09
        90  16 -1.974971E+05 -1.307654E+05 -7.539799E+04 -1.035572E+05 -7.319816E-08  4.750769E-09
        90  17 -2.717339E+05 -1.480759E+05 -8.776787E+04 -9.758968E+04 -4.219074E-08  6.126015E-10
        90  18 -3.469195E+05 -1.662891E+05 -1.041451E+05 -1.034651E+05 -3.597086E-09 -3.905228E-09
        90  19  9.589197E+05  1.306650E+05  7.583940E+04 -1.035193E+05 -1.209617E+04  4.407406E+04
        90  20  1.033124E+06  1.480427E+05  8.853258E+04 -9.764450E+04 -5.888912E+03  4.792252E+04
        90  21  1.108468E+06  1.666051E+05  1.055668E+05 -1.036111E+05  3.185500E+02  4.926797E+04
        90  22  3.805407E+05 -4.215214E+01  2.234554E+02 -1.035380E+05  1.602939E+02  4.407791E+04
        90  23  3.804787E+05 -6.183953E+00  3.864855E+02 -9.761696E+04  3.517857E+02  4.792803E+04
        90  24  3.805076E+05  1.714032E+02  7.172798E+02 -1.035380E+05  5.426775E+02  4.927374E+04
        90  25 -1.974964E+05 -1.307633E+05 -7.539404E+04 -1.035568E+05  1.240589E+04  4.408175E+04
        90  26 -2.717332E+05 -1.480734E+05 -8.776347E+04 -9.758942E+04  6.586233E+03  4.793354E+04
        90  27 -3.469188E+05 -1.662864E+05 -1.041405E+05 -1.034650E+05  7.665535E+02  4.927952E+04
        91   1  1.156018E+06  1.783818E+05  1.167977E+05 -1.032143E+05 -1.919404E+03 -4.982229E+04
        91   2  1.226857E+06  1.999588E+05  1.506510E+05 -9.900504E+04 -4.733651E+04 -4.005070E+04
        91   3  1.305930E+06  2.306423E+05  2.163249E+05 -1.052615E+05 -9.277439E+04 -1.175820E+04
        91   4  3.805888E+05  2.700096E+02  9.626157E+02 -1.032318E+05 -6.683622E+02 -4.982812E+04
        91   5  3.803118E+05  1.034962E+03  1.767947E+03 -9.799982E+04 -1.557042E+03 -4.004170E+04
        91   6  3.805477E+05  3.189283E+03  3.507100E+03 -1.032326E+05 -2.459365E+03 -1.172289E+04
        91   7 -3.942370E+05 -1.778701E+05 -1.148840E+05 -1.032493E+05  5.811822E+02 -4.983396E+04
        91   8 -4.655286E+05 -1.979269E+05 -1.471333E+05 -9.699602E+04  4.416195E+04 -4.003255E+04
        91   9 -5.440262E+05 -2.243191E+05 -2.093367E+05 -1.012067E+05  8.772233E+04 -1.168698E+04
        91  10  1.156017E+06  1.783791E+05  1.167930E+05 -1.032144E+05  3.584278E-09 -3.503910E-09
        91  11  1.226854E+06  1.999565E+05  1.506437E+05 -9.900657E+04  4.118206E-09 -3.886944E-09
        91  12  1.305921E+06  2.306398E+05  2.163085E+05 -1.052624E+05 -4.981719E-10 -1.178670E-09
        91  13  3.805881E+05  2.673429E+02  9.579483E+02 -1.032319E+05  3.907019E-09 -4.770280E-09
        91  14  3.803114E+05  1.033240E+03  1.764929E+03 -9.799988E+04 -3.841717E-09 -9.510673E-10
        91  15  3.805476E+05  3.189134E+03  3.506831E+03 -1.032326E+05 -3.707332E-09 -3.016609E-10
        91  16 -3.942376E+05 -1.778728E+05 -1.148887E+05 -1.032493E+05 -2.402929E-09 -3.986739E-09
        91  17 -4.655311E+05 -1.979291E+05 -1.471399E+05 -9.699459E+04 -3.186890E-09 -8.844164E-11
        91  18 -5.440345E+05 -2.243213E+05 -2.093514E+05 -1.012058E+05  8.040067E-11 -2.168948E-10
        91  19  1.156018E+06  1.783818E+05  1.167977E+05 -1.032143E+05  1.919404E+03  4.982229E+04
        91  20  1.226857E+06  1.999588E+05  1.506510E+05 -9.900504E+04  4.733651E+04  4.005070E+04
        91  21  1.305930E+06  2.306423E+05  2.163249E+05 -1.052615E+05  9.277439E+04  1.175820E+04
        91  22  3.805888E+05  2.700096E+02  9.626157E+02 -1.032318E+05  6.683622E+02  4.982812E+04
        91  23  3.803118E+05  1.034962E+03  1.767947E+03 -9.799982E+04  1.557042E+03  4.004170E+04
        91  24  3.805477E+05  3.189283E+03  3.507100E+03 -1.032326E+05  2.459365E+03  1.172289E+04
        91  25 -3.942370E+05 -1.778701E+05 -1.148840E+05 -1.032493E+05 -5.811822E+02  4.983396E+04
        91  26 -4.655286E+05 -1.979269E+05 -1.471333E+05 -9.699602E+04 -4.416195E+04  4.003255E+04
        91  27 -5.440262E+05 -2.243191E+05 -2.093367E+05 -1.012067E+05 -8.772233E+04  1.168698E+04
        92   1  1.340669E+05  7.174273E+05  1.285453E+05 -3.392725E+05  3.719104E+03  1.559008E+04
        92   2  7.759402E+04  4.646341E+05  6.556767E+04 -3.235737E+05  8.377600E+03 -1.186469E+04
        92   3  2.141226E+04  2.155421E+05  2.051656E+04 -3.471809E+05  3.621605E+02 -3.930910E+04
        92   4 -1.259533E+04  1.257696E+05 -1.346670E+04 -3.476755E+05  3.738952E+03 -1.076524E+04
        92   5 -4.258552E+03  1.266161E+05 -5.831632E+03 -3.280173E+05  8.374850E+03 -7.778909E+03
        92   6 -9.088346E+02  1.258251E+05 -1.396313E+03 -3.476689E+05  3.332571E+02 -4.792641E+03
        92   7 -1.592824E+05 -4.655663E+05 -1.555009E+05 -3.560703E+05  3.759528E+03 -3.709557E+04
        92   8 -8.611842E+04 -2.112940E+05 -7.723733E+04 -3.324584E+05  8.372040E+03 -3.695318E+03
        92   9 -2.322988E+04  3.611793E+04 -2.330530E+04 -3.481568E+05  3.042963E+02  2.971884E+04
        92  10  1.340668E+05  7.174271E+05  1.285448E+05 -3.392725E+05  5.380509E-09  1.307095E-08
        92  11  7.759391E+04  4.646340E+05  6.556727E+04 -3.235736E+05  7.963603E-09 -1.879734E-08
        92  12  2.141184E+04  2.155404E+05  2.051366E+04 -3.471809E+05  1.283803E-08 -5.006113E-08
        92  13 -1.259538E+04  1.257695E+05 -1.346695E+04 -3.476755E+05  2.297141E-09  5.127254E-11
        92  14 -4.258644E+03  1.266161E+05 -5.831877E+03 -3.280173E+05  1.134219E-08  2.790999E-10
        92  15 -9.088409E+02  1.258250E+05 -1.396356E+03 -3.476689E+05  4.906161E-10  2.881978E-11
        92  16 -1.592827E+05 -4.655678E+05 -1.555035E+05 -3.560702E+05 -5.362250E-09 -1.322831E-08
        92  17 -8.611849E+04 -2.112940E+05 -7.723748E+04 -3.324584E+05 -1.857882E-11  1.901366E-08
        92  18 -2.323012E+04  3.611698E+04 -2.330696E+04 -3.481568E+05 -2.421356E-09  5.030919E-08
        92  19  1.340669E+05  7.174273E+05  1.285453E+05 -3.392725E+05 -3.719104E+03 -1.559008E+04
        92  20  7.759402E+04  4.646341E+05  6.556767E+04 -3.235737E+05 -8.377600E+03  1.186469E+04
        92  21  2.141226E+04  2.155421E+05  2.051656E+04 -3.471809E+05 -3.621605E+02  3.930910E+04
        92  22 -1.259533E+04  1.257696E+05 -1.346670E+04 -3.476755E+05 -3.738952E+03  1.076524E+04
        92  23 -4.258552E+03  1.266161E+05 -5.831632E+03 -3.280173E+05 -8.374850E+03  7.778909E+03
        92  24 -9.088346E+02  1.258251E+05 -1.396313E+03 -3.476689E+05 -3.332571E+02  4.792641E+03
        92  25 -1.592824E+05 -4.655663E+05 -1.555009E+05 -3.560703E+05 -3.759528E+03  3.709557E+04
        92  26 -8.611842E+04 -2.112940E+05 -7.723733E+04 -3.324584E+05 -8.372040E+03  3.695318E+03
        92  27 -2.322988E+04  3.611793E+04 -2.330530E+04 -3.481568E+05 -3.042963E+02 -2.971884E+04
        93   1 -1.412883E+04  6.020106E+04 -2.447473E+03 -3.471905E+05 -8.706492E+03 -4.006264E+04
        93   2 -7.061634E+04 -1.905993E+05 -3.943118E+04 -3.260048E+05 -2.257360E+04 -3.824556E+04
        93   3 -1.262041E+05 -4.413492E+05 -7.737730E+04 -3.448575E+05 -3.476546E+04 -3.642673E+04
        93   4 -3.256394E+02  1.263417E+05  4.269886E+02 -3.478306E+05 -8.735948E+03 -4.780149E+03
        93   5  1.469590E+03  1.259721E+05  4.395169E+03 -3.278107E+05 -2.259679E+04 -6.990623E+03
        93   6  4.865109E+03  1.262872E+05  1.019359E+04 -3.478273E+05 -3.478287E+04 -9.198648E+03
        93   7  1.347815E+04  1.924898E+05  3.306414E+03 -3.484708E+05 -8.765474E+03  3.050579E+04
        93   8  7.355163E+04  4.426473E+05  4.822402E+04 -3.296176E+05 -2.262014E+04  2.427955E+04
        93   9  1.359191E+05  6.942475E+05  9.776001E+04 -3.507999E+05 -3.480054E+04  1.805339E+04
        93  10 -1.412935E+04  6.019931E+04 -2.450632E+03 -3.471908E+05  8.589939E-09  9.307609E-08
        93  11 -7.061728E+04 -1.906010E+05 -3.943489E+04 -3.260055E+05  6.666228E-09  1.381068E-08
        93  12 -1.262057E+05 -4.413509E+05 -7.738207E+04 -3.448585E+05  6.420511E-09 -6.743057E-08
        93  13 -3.257275E+02  1.263416E+05  4.268022E+02 -3.478306E+05 -9.601686E-10 -6.761744E-11
        93  14  1.469029E+03  1.259719E+05  4.394117E+03 -3.278109E+05 -4.135375E-09  2.770568E-10
        93  15  4.863786E+03  1.262868E+05  1.019115E+04 -3.478276E+05 -2.216764E-08 -9.664843E-12
        93  16  1.347782E+04  1.924888E+05  3.304522E+03 -3.484706E+05  5.512474E-09 -9.322347E-08
        93  17  7.355093E+04  4.426465E+05  4.822195E+04 -3.296171E+05  6.263458E-09 -1.353878E-08
        93  18  1.359177E+05  6.942468E+05  9.775713E+04 -3.507994E+05  5.067664E-10  6.768957E-08
        93  19 -1.412883E+04  6.020106E+04 -2.447473E+03 -3.471905E+05  8.706492E+03  4.006264E+04
        93  20 -7.061634E+04 -1.905993E+05 -3.943118E+04 -3.260048E+05  2.257360E+04  3.824556E+04
        93  21 -1.262041E+05 -4.413492E+05 -7.737730E+04 -3.448575E+05  3.476546E+04  3.642673E+04
        93  22 -3.256394E+02  1.263417E+05  4.269886E+02 -3.478306E+05  8.735948E+03  4.780149E+03
        93  23  1.469590E+03  1.259721E+05  4.395169E+03 -3.278107E+05  2.259679E+04  6.990623E+03
        93  24  4.865109E+03  1.262872E+05  1.019359E+04 -3.478273E+05  3.478287E+04  9.198648E+03
        93  25  1.347815E+04  1.924898E+05  3.306414E+03 -3.484708E+05  8.765474E+03 -3.050579E+04
        93  26  7.355163E+04  4.426473E+05  4.822402E+04 -3.296176E+05  2.262014E+04 -2.427955E+04
        93  27  1.359191E+05  6.942475E+05  9.776001E+04 -3.507999E+05  3.480054E+04 -1.805339E+04
        94   1 -1.613073E+05 -5.965041E+05 -1.010095E+05 -3.451682E+05 -4.214489E+04 -3.634433E+04
        94   2 -2.114626E+05 -8.456266E+05 -1.528391E+05 -3.095607E+05 -4.009555E+04  1.057026E+04
        94   3 -2.513936E+05 -1.098178E+06 -2.326677E+05 -3.122263E+05 -1.273990E+04  5.745733E+04
        94   4  6.612324E+03  1.276628E+05  1.419049E+04 -3.474331E+05 -4.215808E+04 -1.101254E+04
        94   5  1.855930E+04  1.240610E+05  2.704895E+04 -3.282909E+05 -4.007043E+04 -2.476814E+04
        94   6  5.125787E+04  1.274989E+05  5.405432E+04 -3.474127E+05 -1.269724E+04 -3.853121E+04
        94   7  1.745061E+05  8.523531E+05  1.293795E+05 -3.497004E+05 -4.217145E+04  1.434775E+04
        94   8  2.485292E+05  1.094664E+06  2.069023E+05 -3.470508E+05 -4.004321E+04 -6.016034E+04
        94   9  3.538122E+05  1.354584E+06  3.407094E+05 -3.826686E+05 -1.264378E+04 -1.347082E+05
        94  10 -1.613095E+05 -5.965060E+05 -1.010154E+05 -3.451695E+05  5.152776E-09  5.212503E-08
        94  11 -2.114644E+05 -8.456271E+05 -1.528424E+05 -3.095603E+05  1.052034E-08  1.083167E-08
        94  12 -2.513946E+05 -1.098182E+06 -2.326742E+05 -3.122257E+05  6.922730E-10 -3.000396E-08
        94  13  6.610382E+03  1.276622E+05  1.418692E+04 -3.474334E+05 -2.177544E-08  6.339263E-11
        94  14  1.855741E+04  1.240599E+05  2.704478E+04 -3.282917E+05 -2.499263E-09  1.521564E-10
        94  15  5.125729E+04  1.274972E+05  5.405122E+04 -3.474131E+05  3.281248E-09  2.180581E-11
        94  16  1.745041E+05  8.523524E+05  1.293757E+05 -3.496999E+05  1.745795E-09 -5.218473E-08
        94  17  2.485265E+05  1.094659E+06  2.068925E+05 -3.470527E+05  4.793839E-09 -1.024854E-08
        94  18  3.538072E+05  1.354565E+06  3.406751E+05 -3.826699E+05  3.139541E-09  2.998067E-08
        94  19 -1.613073E+05 -5.965041E+05 -1.010095E+05 -3.451682E+05  4.214489E+04  3.634433E+04
        94  20 -2.114626E+05 -8.456266E+05 -1.528391E+05 -3.095607E+05  4.009555E+04 -1.057026E+04
        94  21 -2.513936E+05 -1.098178E+06 -2.326677E+05 -3.122263E+05  1.273990E+04 -5.745733E+04
        94  22  6.612324E+03  1.276628E+05  1.419049E+04 -3.474331E+05  4.215808E+04  1.101254E+04
        94  23  1.855930E+04  1.240610E+05  2.704895E+04 -3.282909E+05  4.007043E+04  2.476814E+04
        94  24  5.125787E+04  1.274989E+05  5.405432E+04 -3.474127E+05  1.269724E+04  3.853121E+04
        94  25  1.745061E+05  8.523531E+05  1.293795E+05 -3.497004E+05  4.217145E+04 -1.434775E+04
        94  26  2.485292E+05  1.094664E+06  2.069023E+05 -3.470508E+05  4.004321E+04  6.016034E+04
        94  27  3.538122E+05  1.354584E+06  3.407094E+05 -3.826686E+05  1.264378E+04  1.347082E+05
        95   1 -2.670207E+05 -1.619609E+05 -1.130007E+05 -1.052324E+05 -5.056559E+04 -1.582589E+04
        95   2 -2.466567E+05 -9.324245E+04 -6.724250E+04 -9.786252E+04 -3.208679E+04 -2.144013E+03
        95   3 -2.398841E+05 -7.302953E+04 -4.866453E+04 -8.589257E+04 -1.154522E+04  6.043494E+03
        95   4 -9.487110E+04 -7.213196E+04 -6.271183E+04 -3.235827E+04 -4.122888E+04 -1.232585E+04
        95   5 -8.522693E+04 -2.405359E+04 -2.777751E+04 -4.381448E+04 -2.867172E+04 -8.638381E+02
        95   6 -8.799682E+04 -2.330205E+04 -1.532705E+04 -5.067277E+04 -1.405260E+04  5.103062E+03
        95   7  7.730735E+04  1.770710E+04 -1.242587E+04  4.053615E+04 -3.188945E+04 -8.823835E+03
        95   8  7.622857E+04  4.513951E+04  1.168545E+04  1.024709E+04 -2.525569E+04  4.168246E+02
        95   9  6.391423E+04  2.642622E+04  1.800924E+04 -1.544547E+04 -1.656065E+04  4.162441E+03
        95  10 -2.670236E+05 -1.619618E+05 -1.130060E+05 -1.052331E+05 -3.538528E-09 -3.962772E-10
        95  11 -2.466578E+05 -9.324274E+04 -6.724445E+04 -9.786257E+04  9.649723E-09 -2.347817E-09
        95  12 -2.398843E+05 -7.302961E+04 -4.866485E+04 -8.589251E+04  5.523328E-09 -2.977843E-09
        95  13 -9.487297E+04 -7.213258E+04 -6.271531E+04 -3.235868E+04 -4.193522E-09 -1.693567E-10
        95  14 -8.522782E+04 -2.405381E+04 -2.777905E+04 -4.381450E+04  2.609480E-09 -1.036817E-09
        95  15 -8.799704E+04 -2.330213E+04 -1.532747E+04 -5.067271E+04  8.704015E-09 -1.543730E-09
        95  16  7.730623E+04  1.770675E+04 -1.242792E+04  4.053592E+04  4.613726E-10  1.427746E-10
        95  17  7.622788E+04  4.513934E+04  1.168425E+04  1.024710E+04 -5.764059E-09  4.423184E-11
        95  18  6.391393E+04  2.642613E+04  1.800870E+04 -1.544541E+04 -4.762099E-09 -1.609509E-10
        95  19 -2.670207E+05 -1.619609E+05 -1.130007E+05 -1.052324E+05  5.056559E+04  1.582589E+04
        95  20 -2.466567E+05 -9.324245E+04 -6.724250E+04 -9.786252E+04  3.208679E+04  2.144013E+03
        95  21 -2.398841E+05 -7.302953E+04 -4.866453E+04 -8.589257E+04  1.154522E+04 -6.043494E+03
        95  22 -9.487110E+04 -7.213196E+04 -6.271183E+04 -3.235827E+04  4.122888E+04  1.232585E+04
        95  23 -8.522693E+04 -2.405359E+04 -2.777751E+04 -4.381448E+04  2.867172E+04  8.638381E+02
        95  24 -8.799682E+04 -2.330205E+04 -1.532705E+04 -5.067277E+04  1.405260E+04 -5.103062E+03
        95  25  7.730735E+04  1.770710E+04 -1.242587E+04  4.053615E+04  3.188945E+04  8.823835E+03
        95  26  7.622857E+04  4.513951E+04  1.168545E+04  1.024709E+04  2.525569E+04 -4.168246E+02
        95  27  6.391423E+04  2.642622E+04  1.800924E+04 -1.544547E+04  1.656065E+04 -4.162441E+03
        96   1 -2.164588E+05 -7.575736E+04 -4.174954E+04 -8.500281E+04 -1.071526E+04  5.013694E+03
        96   2 -1.973710E+05 -6.251648E+04 -3.098912E+04 -7.607956E+04 -6.857049E+03  5.217251E+03
        96   3 -1.740183E+05 -5.685402E+04 -2.335116E+04 -7.304677E+04 -2.898749E+03  5.153754E+03
        96   4 -8.602072E+04 -2.685116E+04 -1.196321E+04 -4.835393E+04 -1.174787E+04  4.626300E+03
        96   5 -8.802779E+04 -2.200200E+04 -6.263351E+03 -4.581644E+04 -8.176986E+03  4.722210E+03
        96   6 -8.571325E+04 -2.467410E+04 -3.457778E+03 -4.916962E+04 -4.506137E+03  4.551043E+03
        96   7  4.443365E+04  2.205615E+04  1.782179E+04 -1.169818E+04 -1.278070E+04  4.238816E+03
        96   8  2.132740E+04  1.851341E+04  1.846165E+04 -1.554843E+04 -9.497175E+03  4.227075E+03
        96   9  2.600202E+03  7.506559E+03  1.643526E+04 -2.528923E+04 -6.113782E+03  3.948237E+03
        96  10 -2.164590E+05 -7.575741E+04 -4.174980E+04 -8.500277E+04  1.088406E-09 -2.687362E-09
        96  11 -1.973710E+05 -6.251652E+04 -3.098926E+04 -7.607953E+04 -1.793376E-09 -1.699107E-09
        96  12 -1.740183E+05 -5.685405E+04 -2.335123E+04 -7.304675E+04  2.108989E-09 -5.395238E-10
        96  13 -8.602088E+04 -2.685122E+04 -1.196351E+04 -4.835389E+04  9.258389E-09 -1.962409E-09
        96  14 -8.802787E+04 -2.200204E+04 -6.263519E+03 -4.581640E+04 -3.576015E-09 -1.804986E-09
        96  15 -8.571327E+04 -2.467413E+04 -3.457855E+03 -4.916960E+04  6.938387E-09 -1.505800E-09
        96  16  4.443347E+04  2.205609E+04  1.782144E+04 -1.169814E+04 -4.092601E-09 -1.313620E-09
        96  17  2.132729E+04  1.851336E+04  1.846145E+04 -1.554839E+04 -1.104710E-10 -2.635199E-09
        96  18  2.600158E+03  7.506532E+03  1.643516E+04 -2.528921E+04 -2.195387E-09 -2.338100E-09
        96  19 -2.164588E+05 -7.575736E+04 -4.174954E+04 -8.500281E+04  1.071526E+04 -5.013694E+03
        96  20 -1.973710E+05 -6.251648E+04 -3.098912E+04 -7.607956E+04  6.857049E+03 -5.217251E+03
        96  21 -1.740183E+05 -5.685402E+04 -2.335116E+04 -7.304677E+04  2.898749E+03 -5.153754E+03
        96  22 -8.602072E+04 -2.685116E+04 -1.196321E+04 -4.835393E+04  1.174787E+04 -4.626300E+03
        96  23 -8.802779E+04 -2.200200E+04 -6.263351E+03 -4.581644E+04  8.176986E+03 -4.722210E+03
        96  24 -8.571325E+04 -2.467410E+04 -3.457778E+03 -4.916962E+04  4.506137E+03 -4.551043E+03
        96  25  4.443365E+04  2.205615E+04  1.782179E+04 -1.169818E+04  1.278070E+04 -4.238816E+03
        96  26  2.132740E+04  1.851341E+04  1.846165E+04 -1.554843E+04  9.497175E+03 -4.227075E+03
        96  27  2.600202E+03  7.506559E+03  1.643526E+04 -2.528923E+04  6.113782E+03 -3.948237E+03
        97   1 -1.574791E+05 -5.128072E+04 -1.874474E+04 -6.877327E+04 -2.160384E+03  4.450983E+03
        97   2 -1.386551E+05 -4.053405E+04 -1.278280E+04 -5.972735E+04 -8.934113E+02  3.294111E+03
        97   3 -1.144724E+05 -3.538899E+04 -7.390401E+03 -5.698141E+04  3.783793E+02  2.124117E+03
        97   4 -8.556295E+04 -2.482655E+04 -2.614717E+03 -4.904289E+04 -3.696418E+03  3.875070E+03
        97   5 -8.823795E+04 -2.198977E+04 -1.435371E+03 -4.590673E+04 -2.443512E+03  2.712976E+03
        97   6 -8.555170E+04 -2.475171E+04 -8.143217E+02 -4.907062E+04 -1.185818E+03  1.537752E+03
        97   7 -1.364166E+04  1.627997E+03  1.351498E+04 -2.931043E+04 -5.232644E+03  3.299085E+03
        97   8 -3.781836E+04 -3.445356E+03  9.911857E+03 -3.208513E+04 -3.993743E+03  2.131791E+03
        97   9 -5.663036E+04 -1.411444E+04  5.761662E+03 -4.115954E+04 -2.750084E+03  9.513612E+02
        97  10 -1.574791E+05 -5.128074E+04 -1.874478E+04 -6.877326E+04  2.218819E-08  7.482185E-09
        97  11 -1.386551E+05 -4.053406E+04 -1.278282E+04 -5.972735E+04  3.506708E-09  2.272070E-09
        97  12 -1.144724E+05 -3.538899E+04 -7.390410E+03 -5.698141E+04 -1.928308E-08 -4.256076E-09
        97  13 -8.556297E+04 -2.482657E+04 -2.614770E+03 -4.904288E+04  2.486315E-09 -4.067433E-10
        97  14 -8.823795E+04 -2.198978E+04 -1.435396E+03 -4.590672E+04  5.034042E-09  1.694698E-09
        97  15 -8.555170E+04 -2.475171E+04 -8.143288E+02 -4.907062E+04 -4.659959E-10  4.909918E-09
        97  16 -1.364170E+04  1.627978E+03  1.351491E+04 -2.931042E+04 -1.830988E-08 -8.565116E-09
        97  17 -3.781838E+04 -3.445365E+03  9.911819E+03 -3.208512E+04  5.607890E-09  1.434006E-09
        97  18 -5.663037E+04 -1.411444E+04  5.761646E+03 -4.115954E+04  1.709907E-08  1.410601E-08
        97  19 -1.574791E+05 -5.128072E+04 -1.874474E+04 -6.877327E+04  2.160384E+03 -4.450983E+03
        97  20 -1.386551E+05 -4.053405E+04 -1.278280E+04 -5.972735E+04  8.934113E+02 -3.294111E+03
        97  21 -1.144724E+05 -3.538899E+04 -7.390401E+03 -5.698141E+04 -3.783793E+02 -2.124117E+03
        97  22 -8.556295E+04 -2.482655E+04 -2.614717E+03 -4.904289E+04  3.696418E+03 -3.875070E+03
        97  23 -8.823795E+04 -2.198977E+04 -1.435371E+03 -4.590673E+04  2.443512E+03 -2.712976E+03
        97  24 -8.555170E+04 -2.475171E+04 -8.143217E+02 -4.907062E+04  1.185818E+03 -1.537752E+03
        97  25 -1.364166E+04  1.627997E+03  1.351498E+04 -2.931043E+04  5.232644E+03 -3.299085E+03
        97  26 -3.781836E+04 -3.445356E+03  9.911857E+03 -3.208513E+04  3.993743E+03 -2.131791E+03
        97  27 -5.663036E+04 -1.411444E+04  5.761662E+03 -4.115954E+04  2.750084E+03 -9.513612E+02
        98   1 -9.830125E+04 -2.942946E+04 -3.431233E+03 -5.255524E+04  8.110206E+02  1.324018E+03
        98   2 -7.953144E+04 -1.877275E+04  1.565797E+03 -4.349291E+04  1.554670E+03 -4.809420E+01
        98   3 -5.529866E+04 -1.361573E+04  6.412010E+03 -4.073187E+04  2.298538E+03 -1.420744E+03
        98   4 -8.553284E+04 -2.475578E+04 -6.301169E+02 -4.906117E+04 -7.497848E+02  7.389375E+02
        98   5 -8.826410E+04 -2.200684E+04 -4.024504E+02 -4.590999E+04 -6.755102E+00 -6.334208E+02
        98   6 -8.553316E+04 -2.475773E+04 -3.252338E+02 -4.906046E+04  7.364841E+02 -2.006316E+03
        98   7 -7.276419E+04 -2.008206E+04  2.171022E+03 -4.556700E+04 -2.310635E+03  1.538403E+02
        98   8 -9.699671E+04 -2.524095E+04 -2.370701E+03 -4.832705E+04 -1.568161E+03 -1.218740E+03
        98   9 -1.157667E+05 -3.589965E+04 -7.062526E+03 -5.738867E+04 -8.254879E+02 -2.591857E+03
        98  10 -9.830125E+04 -2.942947E+04 -3.431238E+03 -5.255524E+04  3.614923E-09  5.298179E-09
        98  11 -7.953144E+04 -1.877275E+04  1.565793E+03 -4.349291E+04  2.157099E-09  5.479611E-10
        98  12 -5.529867E+04 -1.361574E+04  6.411996E+03 -4.073187E+04 -8.354816E-10 -1.119855E-09
        98  13 -8.553284E+04 -2.475579E+04 -6.301190E+02 -4.906117E+04 -5.677926E-09  3.922888E-09
        98  14 -8.826410E+04 -2.200685E+04 -4.024512E+02 -4.590999E+04 -8.532372E-09  9.017412E-11
        98  15 -8.553316E+04 -2.475773E+04 -3.252424E+02 -4.906046E+04 -3.140856E-09 -4.978296E-10
        98  16 -7.276419E+04 -2.008206E+04  2.171012E+03 -4.556700E+04 -6.360207E-09  2.730993E-09
        98  17 -9.699671E+04 -2.524095E+04 -2.370708E+03 -4.832705E+04 -1.009798E-09 -8.802930E-10
        98  18 -1.157667E+05 -3.589966E+04 -7.062540E+03 -5.738868E+04  1.200443E-10  5.530033E-10
        98  19 -9.830125E+04 -2.942946E+04 -3.431233E+03 -5.255524E+04 -8.110206E+02 -1.324018E+03
        98  20 -7.953144E+04 -1.877275E+04  1.565797E+03 -4.349291E+04 -1.554670E+03  4.809420E+01
        98  21 -5.529866E+04 -1.361573E+04  6.412010E+03 -4.073187E+04 -2.298538E+03  1.420744E+03
        98  22 -8.553284E+04 -2.475578E+04 -6.301169E+02 -4.906117E+04  7.497848E+02 -7.389375E+02
        98  23 -8.826410E+04 -2.200684E+04 -4.024504E+02 -4.590999E+04  6.755102E+00  6.334208E+02
        98  24 -8.553316E+04 -2.475773E+04 -3.252338E+02 -4.906046E+04 -7.364841E+02  2.006316E+03
        98  25 -7.276419E+04 -2.008206E+04  2.171022E+03 -4.556700E+04  2.310635E+03 -1.538403E+02
        98  26 -9.699671E+04 -2.524095E+04 -2.370701E+03 -4.832705E+04  1.568161E+03  1.218740E+03
        98  27 -1.157667E+05 -3.589965E+04 -7.062526E+03 -5.738867E+04  8.254879E+02  2.591857E+03
        99   1 -3.916004E+04 -7.641353E+03  1.018155E+04 -3.630212E+04  2.669207E+03 -2.243181E+03
        99   2 -2.039315E+04  3.014817E+03  1.484735E+04 -2.724086E+04  3.426300E+03 -3.610506E+03
        99   3  3.834111E+03  8.171424E+03  1.935236E+04 -2.447975E+04  4.183111E+03 -4.976748E+03
        99   4 -8.553413E+04 -2.475777E+04 -3.305962E+02 -4.906032E+04  1.107177E+03 -2.828765E+03
        99   5 -8.826440E+04 -2.200828E+04 -4.325918E+02 -4.591017E+04  1.865363E+03 -4.195747E+03
        99   6 -8.553497E+04 -2.475858E+04 -6.962228E+02 -4.906034E+04  2.623260E+03 -5.561652E+03
        99   7 -1.319058E+05 -4.187391E+04 -1.084279E+04 -6.181758E+04 -4.547162E+02 -3.414299E+03
        99   8 -1.561310E+05 -4.703102E+04 -1.571281E+04 -6.457761E+04  3.046105E+02 -4.780920E+03
        99   9 -1.748966E+05 -5.768819E+04 -2.074545E+04 -7.363784E+04  1.063643E+03 -6.146468E+03
        99  10 -3.916004E+04 -7.641360E+03  1.018153E+04 -3.630211E+04  8.890555E-09 -6.658760E-10
        99  11 -2.039316E+04  3.014800E+03  1.484730E+04 -2.724085E+04 -5.437775E-10 -1.125644E-09
        99  12  3.834086E+03  8.171393E+03  1.935228E+04 -2.447973E+04 -3.815801E-09  2.712113E-10
        99  13 -8.553413E+04 -2.475778E+04 -3.306136E+02 -4.906032E+04 -1.552733E-10  3.749963E-11
        99  14 -8.826440E+04 -2.200830E+04 -4.326314E+02 -4.591016E+04  4.367644E-09  2.524424E-11
        99  15 -8.553499E+04 -2.475862E+04 -6.962938E+02 -4.906032E+04 -7.305927E-09 -5.316090E-10
        99  16 -1.319058E+05 -4.187393E+04 -1.084281E+04 -6.181758E+04 -1.551384E-09  1.184888E-09
        99  17 -1.561310E+05 -4.703105E+04 -1.571286E+04 -6.457761E+04 -4.765834E-09  9.445072E-10
        99  18 -1.748966E+05 -5.768823E+04 -2.074553E+04 -7.363783E+04  3.178222E-09 -1.531491E-09
        99  19 -3.916004E+04 -7.641353E+03  1.018155E+04 -3.630212E+04 -2.669207E+03  2.243181E+03
        99  20 -2.039315E+04  3.014817E+03  1.484735E+04 -2.724086E+04 -3.426300E+03  3.610506E+03
        99  21  3.834111E+03  8.171424E+03  1.935236E+04 -2.447975E+04 -4.183111E+03  4.976748E+03
        99  22 -8.553413E+04 -2.475777E+04 -3.305962E+02 -4.906032E+04 -1.107177E+03  2.828765E+03
        99  23 -8.826440E+04 -2.200828E+04 -4.325918E+02 -4.591017E+04 -1.865363E+03  4.195747E+03
        99  24 -8.553497E+04 -2.475858E+04 -6.962228E+02 -4.906034E+04 -2.623260E+03  5.561652E+03
        99  25 -1.319058E+05 -4.187391E+04 -1.084279E+04 -6.181758E+04  4.547162E+02  3.414299E+03
        99  26 -1.561310E+05 -4.703102E+04 -1.571281E+04 -6.457761E+04 -3.046105E+02  4.780920E+03
        99  27 -1.748966E+05 -5.768819E+04 -2.074545E+04 -7.363784E+04 -1.063643E+03  6.146468E+03
       100   1  1.995822E+04  1.413647E+04  2.291603E+04 -2.007473E+04  4.636772E+03 -5.768778E+03
       100   2  3.876172E+04  2.480237E+04  2.698540E+04 -1.100133E+04  5.958788E+03 -6.916735E+03
       100   3  6.291385E+04  2.986255E+04  3.044612E+04 -8.223367E+03  7.274159E+03 -8.046306E+03
       100   4 -8.555733E+04 -2.475416E+04 -9.052918E+02 -4.907049E+04  3.072384E+03 -6.355445E+03
       100   5 -8.823670E+04 -2.199266E+04 -1.605063E+03 -4.590682E+04  4.414006E+03 -7.496177E+03
       100   6 -8.557162E+04 -2.484090E+04 -2.929057E+03 -4.903889E+04  5.748950E+03 -8.618529E+03
       100   7 -1.910617E+05 -6.364395E+04 -2.472731E+04 -7.806174E+04  1.508285E+03 -6.942004E+03
       100   8 -2.152185E+05 -6.878632E+04 -3.019643E+04 -8.080568E+04  2.869571E+03 -8.075489E+03
       100   9 -2.340340E+05 -7.954233E+04 -3.630537E+04 -8.984523E+04  4.224145E+03 -9.190601E+03
       100  10  1.995819E+04  1.413643E+04  2.291592E+04 -2.007471E+04  2.747359E-09  4.472945E-11
       100  11  3.876167E+04  2.480231E+04  2.698524E+04 -1.100129E+04 -1.350446E-08 -2.743820E-09
       100  12  6.291378E+04  2.986247E+04  3.044590E+04 -8.223320E+03  1.100899E-09 -2.478872E-09
       100  13 -8.555735E+04 -2.475421E+04 -9.053854E+02 -4.907048E+04 -3.876646E-09 -1.226501E-09
       100  14 -8.823674E+04 -2.199273E+04 -1.605206E+03 -4.590680E+04 -3.692207E-09 -1.813289E-09
       100  15 -8.557168E+04 -2.484099E+04 -2.929259E+03 -4.903885E+04 -1.239841E-09 -9.841928E-10
       100  16 -1.910617E+05 -6.364400E+04 -2.472741E+04 -7.806173E+04 -7.607853E-10 -2.514169E-09
       100  17 -2.152185E+05 -6.878639E+04 -3.019657E+04 -8.080566E+04 -8.805540E-09 -7.215925E-10
       100  18 -2.340340E+05 -7.954243E+04 -3.630556E+04 -8.984520E+04 -2.021694E-09  6.252830E-10
       100  19  1.995822E+04  1.413647E+04  2.291603E+04 -2.007473E+04 -4.636772E+03  5.768778E+03
       100  20  3.876172E+04  2.480237E+04  2.698540E+04 -1.100133E+04 -5.958788E+03  6.916735E+03
       100  21  6.291385E+04  2.986255E+04  3.044612E+04 -8.223367E+03 -7.274159E+03  8.046306E+03
       100  22 -8.555733E+04 -2.475416E+04 -9.052918E+02 -4.907049E+04 -3.072384E+03  6.355445E+03
       100  23 -8.823670E+04 -2.199266E+04 -1.605063E+03 -4.590682E+04 -4.414006E+03  7.496177E+03
       100  24 -8.557162E+04 -2.484090E+04 -2.929057E+03 -4.903889E+04 -5.748950E+03  8.618529E+03
       100  25 -1.910617E+05 -6.364395E+04 -2.472731E+04 -7.806174E+04 -1.508285E+03  6.942004E+03
       100  26 -2.152185E+05 -6.878632E+04 -3.019643E+04 -8.080568E+04 -2.869571E+03  8.075489E+03
       100  27 -2.340340E+05 -7.954233E+04 -3.630537E+04 -8.984523E+04 -4.224145E+03  9.190601E+03
       101   1  7.915367E+04  3.572807E+04  3.325640E+04 -4.248961E+03  8.243738E+03 -8.668415E+03
       101   2  9.784768E+04  4.676898E+04  3.496213E+04  5.563871E+03  1.188497E+04 -8.808268E+03
       101   3  1.207971E+05  5.013287E+04  3.374120E+04  9.549438E+03  1.538777E+04 -8.577786E+03
       101   4 -8.574066E+04 -2.466890E+04 -3.874369E+03 -4.917869E+04  6.619682E+03 -9.277804E+03
       101   5 -8.800172E+04 -2.201167E+04 -7.020637E+03 -4.580733E+04  1.065923E+04 -9.268433E+03
       101   6 -8.608742E+04 -2.711132E+04 -1.340995E+04 -4.826380E+04  1.456020E+04 -8.888718E+03
       101   7 -2.506087E+05 -8.506430E+04 -4.100716E+04 -9.409783E+04  4.996083E+03 -9.887024E+03
       101   8 -2.738170E+05 -9.078990E+04 -4.900580E+04 -9.716462E+04  9.433882E+03 -9.728450E+03
       101   9 -2.929290E+05 -1.043521E+05 -6.056392E+04 -1.060593E+05  1.373293E+04 -9.199535E+03
       101  10  7.915357E+04  3.572797E+04  3.325613E+04 -4.248903E+03 -6.037215E-09 -3.435690E-09
       101  11  9.784751E+04  4.676886E+04  3.496172E+04  5.563956E+03  4.591521E-09  2.041678E-09
       101  12  1.207968E+05  5.013273E+04  3.374062E+04  9.549545E+03  9.189670E-09  6.635173E-09
       101  13 -8.574073E+04 -2.466900E+04 -3.874613E+03 -4.917864E+04  3.594852E-09 -1.061049E-09
       101  14 -8.800186E+04 -2.201179E+04 -7.021012E+03 -4.580725E+04  7.010762E-09 -3.401159E-09
       101  15 -8.608767E+04 -2.711146E+04 -1.341049E+04 -4.826369E+04 -9.023497E-09 -4.800094E-09
       101  16 -2.506088E+05 -8.506441E+04 -4.100739E+04 -9.409779E+04  7.832570E-09  3.349045E-09
       101  17 -2.738171E+05 -9.079002E+04 -4.900615E+04 -9.716455E+04 -6.869153E-09  1.437719E-09
       101  18 -2.929293E+05 -1.043522E+05 -6.056443E+04 -1.060592E+05 -2.032221E-08  4.924891E-10
       101  19  7.915367E+04  3.572807E+04  3.325640E+04 -4.248961E+03 -8.243738E+03  8.668415E+03
       101  20  9.784768E+04  4.676898E+04  3.496213E+04  5.563871E+03 -1.188497E+04  8.808268E+03
       101  21  1.207971E+05  5.013287E+04  3.374120E+04  9.549438E+03 -1.538777E+04  8.577786E+03
       101  22 -8.574066E+04 -2.466890E+04 -3.874369E+03 -4.917869E+04 -6.619682E+03  9.277804E+03
       101  23 -8.800172E+04 -2.201167E+04 -7.020637E+03 -4.580733E+04 -1.065923E+04  9.268433E+03
       101  24 -8.608742E+04 -2.711132E+04 -1.340995E+04 -4.826380E+04 -1.456020E+04  8.888718E+03
       101  25 -2.506087E+05 -8.506430E+04 -4.100716E+04 -9.409783E+04 -4.996083E+03  9.887024E+03
       101  26 -2.738170E+05 -9.078990E+04 -4.900580E+04 -9.716462E+04 -9.433882E+03  9.728450E+03
       101  27 -2.929290E+05 -1.043521E+05 -6.056392E+04 -1.060593E+05 -1.373293E+04  9.199535E+03
       102   1  1.406919E+05  5.431740E+04  3.343113E+04  4.844589E+03  2.001033E+04 -8.330060E+03
       102   2  1.520989E+05  7.399692E+04  2.611976E+04  3.244364E+04  2.793616E+04 -4.045423E+03
       102   3  1.504962E+05  4.300097E+04  1.152523E+02  6.604068E+04  3.300421E+04  7.853021E+03
       102   4 -8.831378E+04 -2.312231E+04 -1.718072E+04 -5.084957E+04  1.713838E+04 -9.408021E+03
       102   5 -8.485035E+04 -2.432789E+04 -3.113802E+04 -4.358054E+04  3.327281E+04 -2.043383E+03
       102   6 -9.603019E+04 -7.784748E+04 -7.029702E+04 -3.031268E+04  4.654848E+04  1.293571E+04
       102   7 -3.172666E+05 -1.005600E+05 -6.779567E+04 -1.065258E+05  1.426757E+04 -1.048563E+04
       102   8 -3.217409E+05 -1.226436E+05 -8.839914E+04 -1.195761E+05  3.860720E+04 -4.241877E+01
       102   9 -3.424907E+05 -1.986762E+05 -1.407129E+05 -1.266254E+05  6.008663E+04  1.801454E+04
       102  10  1.406914E+05  5.431722E+04  3.343025E+04  4.844723E+03 -1.418125E-08 -7.124575E-10
       102  11  1.520981E+05  7.399670E+04  2.611826E+04  3.244373E+04  1.100874E-09  3.885723E-09
       102  12  1.504950E+05  4.300061E+04  1.130901E+02  6.604047E+04  1.219876E-08  4.870785E-09
       102  13 -8.831412E+04 -2.312249E+04 -1.718144E+04 -5.084944E+04 -1.212189E-08 -5.496778E-09
       102  14 -8.485154E+04 -2.432819E+04 -3.114010E+04 -4.358049E+04 -1.111340E-10 -1.719215E-09
       102  15 -9.603256E+04 -7.784824E+04 -7.030141E+04 -3.031317E+04  1.789681E-09 -2.701541E-10
       102  16 -3.172669E+05 -1.005602E+05 -6.779626E+04 -1.065257E+05  1.295715E-08  8.536649E-09
       102  17 -3.217425E+05 -1.226440E+05 -8.840194E+04 -1.195761E+05  7.437299E-09  1.135515E-09
       102  18 -3.424946E+05 -1.986775E+05 -1.407203E+05 -1.266263E+05 -8.080502E-09 -3.455659E-09
       102  19  1.406919E+05  5.431740E+04  3.343113E+04  4.844589E+03 -2.001033E+04  8.330060E+03
       102  20  1.520989E+05  7.399692E+04  2.611976E+04  3.244364E+04 -2.793616E+04  4.045423E+03
       102  21  1.504962E+05  4.300097E+04  1.152523E+02  6.604068E+04 -3.300421E+04 -7.853021E+03
       102  22 -8.831378E+04 -2.312231E+04 -1.718072E+04 -5.084957E+04 -1.713838E+04  9.408021E+03
       102  23 -8.485035E+04 -2.432789E+04 -3.113802E+04 -4.358054E+04 -3.327281E+04  2.043383E+03
       102  24 -9.603019E+04 -7.784748E+04 -7.029702E+04 -3.031268E+04 -4.654848E+04 -1.293571E+04
       102  25 -3.172666E+05 -1.005600E+05 -6.779567E+04 -1.065258E+05 -1.426757E+04  1.048563E+04
       102  26 -3.217409E+05 -1.226436E+05 -8.839914E+04 -1.195761E+05 -3.860720E+04  4.241877E+01
       102  27 -3.424907E+05 -1.986762E+05 -1.407129E+05 -1.266254E+05 -6.008663E+04 -1.801454E+04
       103   1  1.020744E+06  1.778229E+05  1.584343E+05  1.600386E+04  4.251653E+04 -1.357288E+04
       103   2  9.746234E+05  1.994398E+05  1.351652E+05  3.292308E+04  1.640407E+04 -4.672054E+04
       103   3  9.264165E+05  1.989042E+05  1.233683E+05  5.703529E+04 -9.716307E+03 -5.879191E+04
       103   4  4.842578E+04 -6.142367E+04 -6.641748E+04  5.587307E+04 -4.663422E+04 -1.363766E+04
       103   5  5.322087E+04 -1.831412E+04 -3.296885E+04  5.224940E+04 -2.970115E+04 -4.676642E+04
       103   6  4.845112E+04 -4.846356E+03 -1.792734E+04  5.581826E+04 -1.277829E+04 -5.880280E+04
       103   7 -9.229997E+05 -3.007263E+05 -2.913016E+05  9.567928E+04 -1.356465E+05 -1.371395E+04
       103   8 -8.673521E+05 -2.361134E+05 -2.011290E+05  7.154609E+04 -7.573985E+04 -4.681520E+04
       103   9 -8.287497E+05 -2.086357E+05 -1.592437E+05  5.460278E+04 -1.583610E+04 -5.881368E+04
       103  10  1.020742E+06  1.778222E+05  1.584305E+05  1.600432E+04  4.085565E-08  5.093559E-10
       103  11  9.746225E+05  1.994374E+05  1.351606E+05  3.292370E+04  6.004205E-10  1.487962E-09
       103  12  9.264155E+05  1.989004E+05  1.233616E+05  5.703483E+04 -3.340268E-08  3.794448E-09
       103  13  4.842339E+04 -6.142446E+04 -6.642192E+04  5.587256E+04  2.102280E-10 -1.449475E-09
       103  14  5.321933E+04 -1.831671E+04 -3.297462E+04  5.224828E+04  1.173485E-10 -9.190891E-09
       103  15  4.845002E+04 -4.850113E+03 -1.793415E+04  5.581765E+04  2.834028E-09 -1.400463E-08
       103  16 -9.230195E+05 -3.007315E+05 -2.913366E+05  9.567779E+04 -3.985512E-08  3.766638E-11
       103  17 -8.673589E+05 -2.361173E+05 -2.011439E+05  7.154323E+04 -1.387966E-09 -2.483834E-09
       103  18 -8.287509E+05 -2.086395E+05 -1.592507E+05  5.460203E+04  2.489202E-08 -1.143430E-09
       103  19  1.020744E+06  1.778229E+05  1.584343E+05  1.600386E+04 -4.251653E+04  1.357288E+04
       103  20  9.746234E+05  1.994398E+05  1.351652E+05  3.292308E+04 -1.640407E+04  4.672054E+04
       103  21  9.264165E+05  1.989042E+05  1.233683E+05  5.703529E+04  9.716307E+03  5.879191E+04
       103  22  4.842578E+04 -6.142367E+04 -6.641748E+04  5.587307E+04  4.663422E+04  1.363766E+04
       103  23  5.322087E+04 -1.831412E+04 -3.296885E+04  5.224940E+04  2.970115E+04  4.676642E+04
       103  24  4.845112E+04 -4.846356E+03 -1.792734E+04  5.581826E+04  1.277829E+04  5.880280E+04
       103  25 -9.229997E+05 -3.007263E+05 -2.913016E+05  9.567928E+04  1.356465E+05  1.371395E+04
       103  26 -8.673521E+05 -2.361134E+05 -2.011290E+05  7.154609E+04  7.573985E+04  4.681520E+04
       103  27 -8.287497E+05 -2.086357E+05 -1.592437E+05  5.460278E+04  1.583610E+04  5.881368E+04
       104   1  8.974637E+05  1.919837E+05  1.199227E+05  5.481052E+04 -7.039734E+03 -5.892442E+04
       104   2  8.505704E+05  1.830481E+05  1.135807E+05  5.169488E+04 -8.257666E+03 -5.940346E+04
       104   3  8.035320E+05  1.727994E+05  1.077116E+05  5.725791E+04 -9.479135E+03 -5.748178E+04
       104   4  5.036438E+04 -4.015678E+03 -1.348360E+04  5.615232E+04 -1.045622E+04 -5.893580E+04
       104   5  5.087547E+04 -9.888442E+02 -7.353691E+03  5.181006E+04 -6.774636E+03 -5.940909E+04
       104   6  5.038909E+04 -1.262484E+02 -4.152655E+03  5.614722E+04 -3.096581E+03 -5.748006E+04
       104   7 -7.960206E+05 -2.000505E+05 -1.469075E+05  5.749201E+04 -1.386822E+04 -5.894721E+04
       104   8 -7.481789E+05 -1.850563E+05 -1.283012E+05  5.192488E+04 -5.293434E+03 -5.941473E+04
       104   9 -7.021840E+05 -1.730785E+05 -1.160274E+05  5.503772E+04  3.278554E+03 -5.747836E+04
       104  10  8.974627E+05  1.919800E+05  1.199160E+05  5.481019E+04 -1.097167E-07  1.477988E-09
       104  11  8.505694E+05  1.830443E+05  1.135740E+05  5.169448E+04 -2.648837E-09 -4.053613E-10
       104  12  8.035310E+05  1.727958E+05  1.077053E+05  5.725747E+04  9.023666E-08 -7.456056E-10
       104  13  5.036333E+04 -4.019438E+03 -1.349034E+04  5.615182E+04  4.575896E-09 -1.570852E-08
       104  14  5.087447E+04 -9.926466E+02 -7.360410E+03  5.180973E+04  2.264981E-09 -8.871925E-09
       104  15  5.038820E+04 -1.297990E+02 -4.158881E+03  5.614707E+04 -3.155757E-09 -5.057248E-09
       104  16 -7.960218E+05 -2.000543E+05 -1.469144E+05  5.749135E+04  1.081468E-07  3.196411E-09
       104  17 -7.481799E+05 -1.850601E+05 -1.283079E+05  5.192462E+04  6.967224E-09  4.080757E-09
       104  18 -7.021849E+05 -1.730820E+05 -1.160336E+05  5.503787E+04 -9.037988E-08 -4.741457E-10
       104  19  8.974637E+05  1.919837E+05  1.199227E+05  5.481052E+04  7.039734E+03  5.892442E+04
       104  20  8.505704E+05  1.830481E+05  1.135807E+05  5.169488E+04  8.257666E+03  5.940346E+04
       104  21  8.035320E+05  1.727994E+05  1.077116E+05  5.725791E+04  9.479135E+03  5.748178E+04
       104  22  5.036438E+04 -4.015678E+03 -1.348360E+04  5.615232E+04  1.045622E+04  5.893580E+04
       104  23  5.087547E+04 -9.888442E+02 -7.353691E+03  5.181006E+04  6.774636E+03  5.940909E+04
       104  24  5.038909E+04 -1.262484E+02 -4.152655E+03  5.614722E+04  3.096581E+03  5.748006E+04
       104  25 -7.960206E+05 -2.000505E+05 -1.469075E+05  5.749201E+04  1.386822E+04  5.894721E+04
       104  26 -7.481789E+05 -1.850563E+05 -1.283012E+05  5.192488E+04  5.293434E+03  5.941473E+04
       104  27 -7.021840E+05 -1.730785E+05 -1.160274E+05  5.503772E+04 -3.278554E+03  5.747836E+04
       105   1  7.740155E+05  1.659198E+05  1.038279E+05  5.704769E+04 -8.813140E+03 -5.557850E+04
       105   2  7.271068E+05  1.552181E+05  9.776169E+04  5.262909E+04 -8.491663E+03 -5.233731E+04
       105   3  6.801550E+05  1.444924E+05  9.148178E+04  5.705256E+04 -8.172022E+03 -4.882294E+04
       105   4  5.058740E+04 -8.894853E+01 -3.141814E+03  5.618394E+04 -2.471971E+03 -5.557596E+04
       105   5  5.066923E+04  8.517182E+01 -1.776020E+03  5.176245E+04 -1.593744E+03 -5.233255E+04
       105   6  5.060883E+04  1.386099E+02 -1.010955E+03  5.618358E+04 -7.173306E+02 -4.881582E+04
       105   7 -6.723147E+05 -1.661221E+05 -1.101209E+05  5.532104E+04  3.862120E+03 -5.557343E+04
       105   8 -6.253081E+05 -1.550690E+05 -1.013217E+05  5.089661E+04  5.296976E+03 -5.232781E+04
       105   9 -5.785385E+05 -1.442336E+05 -9.351046E+04  5.531536E+04  6.730119E+03 -4.880871E+04
       105  10  7.740146E+05  1.659164E+05  1.038219E+05  5.704730E+04  6.798623E-08  1.445652E-09
       105  11  7.271060E+05  1.552152E+05  9.775641E+04  5.262873E+04 -2.624812E-08  2.230254E-09
       105  12  6.801542E+05  1.444899E+05  9.147717E+04  5.705224E+04 -1.155593E-07  1.186472E-09
       105  13  5.058656E+04 -9.226695E+01 -3.147630E+03  5.618383E+04  3.227942E-10 -3.129575E-09
       105  14  5.066849E+04  8.223020E+01 -1.781171E+03  5.176238E+04  2.375915E-09  2.241233E-09
       105  15  5.060819E+04  1.360508E+02 -1.015434E+03  5.618356E+04 -1.462516E-09  3.288339E-09
       105  16 -6.723155E+05 -1.661254E+05 -1.101267E+05  5.532121E+04 -7.849367E-08 -4.202211E-10
       105  17 -6.253089E+05 -1.550720E+05 -1.013269E+05  5.089683E+04  1.881430E-08  2.536867E-09
       105  18 -5.785392E+05 -1.442362E+05 -9.351502E+04  5.531563E+04  1.104015E-07  4.942618E-10
       105  19  7.740155E+05  1.659198E+05  1.038279E+05  5.704769E+04  8.813140E+03  5.557850E+04
       105  20  7.271068E+05  1.552181E+05  9.776169E+04  5.262909E+04  8.491663E+03  5.233731E+04
       105  21  6.801550E+05  1.444924E+05  9.148178E+04  5.705256E+04  8.172022E+03  4.882294E+04
       105  22  5.058740E+04 -8.894853E+01 -3.141814E+03  5.618394E+04  2.471971E+03  5.557596E+04
       105  23  5.066923E+04  8.517182E+01 -1.776020E+03  5.176245E+04  1.593744E+03  5.233255E+04
       105  24  5.060883E+04  1.386099E+02 -1.010955E+03  5.618358E+04  7.173306E+02  4.881582E+04
       105  25 -6.723147E+05 -1.661221E+05 -1.101209E+05  5.532104E+04 -3.862120E+03  5.557343E+04
       105  26 -6.253081E+05 -1.550690E+05 -1.013217E+05  5.089661E+04 -5.296976E+03  5.232781E+04
       105  27 -5.785385E+05 -1.442336E+05 -9.351046E+04  5.531536E+04 -6.730119E+03  4.880871E+04
       106   1  6.506121E+05  1.376750E+05  8.717639E+04  5.701068E+04 -8.009683E+03 -4.668855E+04
       106   2  6.037090E+05  1.269242E+05  8.065350E+04  5.253550E+04 -7.864194E+03 -4.302463E+04
       106   3  5.567847E+05  1.162106E+05  7.404137E+04  5.691741E+04 -7.719999E+03 -3.932981E+04
       106   4  5.063953E+04  1.416546E+02 -7.637692E+02  5.618695E+04 -5.603200E+02 -4.668061E+04
       106   5  5.066581E+04  1.410915E+02 -4.297800E+02  5.175816E+04 -3.522589E+02 -4.301530E+04
       106   6  5.065710E+04  1.666148E+02 -2.289150E+02  5.618693E+04 -1.454835E+02 -3.931909E+04
       106   7 -5.489707E+05 -1.374083E+05 -8.870998E+04  5.536389E+04  6.882148E+03 -4.667268E+04
       106   8 -5.020694E+05 -1.266562E+05 -8.151816E+04  5.098142E+04  7.153266E+03 -4.300599E+04
       106   9 -4.552126E+05 -1.158893E+05 -7.450347E+04  5.545694E+04  7.423116E+03 -3.930839E+04
       106  10  6.506114E+05  1.376726E+05  8.717218E+04  5.701038E+04  4.609915E-08  6.993267E-10
       106  11  6.037084E+05  1.269222E+05  8.064990E+04  5.253522E+04  1.126123E-08  3.601241E-09
       106  12  5.567843E+05  1.162089E+05  7.403835E+04  5.691716E+04 -1.817004E-08  2.438810E-09
       106  13  5.063894E+04  1.393145E+02 -7.678648E+02  5.618693E+04 -8.209191E-09  8.533431E-10
       106  14  5.066531E+04  1.391046E+02 -4.332574E+02  5.175815E+04 -1.051627E-08  3.927883E-09
       106  15  5.065669E+04  1.649547E+02 -2.318204E+02  5.618692E+04 -8.451738E-09  1.767217E-10
       106  16 -5.489713E+05 -1.374107E+05 -8.871416E+04  5.536415E+04 -5.373770E-08  5.636732E-10
       106  17 -5.020700E+05 -1.266582E+05 -8.152174E+04  5.098166E+04 -2.193524E-08  1.751336E-09
       106  18 -4.552131E+05 -1.158909E+05 -7.450647E+04  5.545718E+04  1.164008E-08  8.532825E-10
       106  19  6.506121E+05  1.376750E+05  8.717639E+04  5.701068E+04  8.009683E+03  4.668855E+04
       106  20  6.037090E+05  1.269242E+05  8.065350E+04  5.253550E+04  7.864194E+03  4.302463E+04
       106  21  5.567847E+05  1.162106E+05  7.404137E+04  5.691741E+04  7.719999E+03  3.932981E+04
       106  22  5.063953E+04  1.416546E+02 -7.637692E+02  5.618695E+04  5.603200E+02  4.668061E+04
       106  23  5.066581E+04  1.410915E+02 -4.297800E+02  5.175816E+04  3.522589E+02  4.301530E+04
       106  24  5.065710E+04  1.666148E+02 -2.289150E+02  5.618693E+04  1.454835E+02  3.931909E+04
       106  25 -5.489707E+05 -1.374083E+05 -8.870998E+04  5.536389E+04 -6.882148E+03  4.667268E+04
       106  26 -5.020694E+05 -1.266562E+05 -8.151816E+04  5.098142E+04 -7.153266E+03  4.300599E+04
       106  27 -4.552126E+05 -1.158893E+05 -7.450347E+04  5.545694E+04 -7.423116E+03  3.930839E+04
       107   1  5.272430E+05  1.094070E+05  6.959673E+04  5.688709E+04 -7.686621E+03 -3.716945E+04
       107   2  4.803517E+05  9.866498E+04  6.291133E+04  5.240515E+04 -7.671403E+03 -3.345796E+04
       107   3  4.334417E+05  8.796105E+04  5.621721E+04  5.678507E+04 -7.657154E+03 -2.974321E+04
       107   4  5.066565E+04  1.718223E+02 -1.603636E+02  5.618797E+04 -1.132287E+02 -3.715806E+04
       107   5  5.068310E+04  1.639550E+02 -5.556027E+01  5.175685E+04 -9.161797E+01 -3.344556E+04
       107   6  5.067931E+04  1.932928E+02  3.614348E+01  5.618795E+04 -7.097554E+01 -2.972980E+04
       107   7 -4.256829E+05 -1.090738E+05 -6.992116E+04  5.548929E+04  7.454595E+03 -3.714669E+04
       107   8 -3.787995E+05 -9.834560E+04 -6.302543E+04  5.110893E+04  7.483141E+03 -3.343317E+04
       107   9 -3.319355E+05 -8.758124E+04 -5.614727E+04  5.559113E+04  7.510722E+03 -2.971640E+04
       107  10  5.272426E+05  1.094055E+05  6.959403E+04  5.688686E+04 -5.634320E-08 -1.051507E-09
       107  11  4.803513E+05  9.866376E+04  6.290911E+04  5.240495E+04 -1.255503E-08  1.288335E-12
       107  12  4.334414E+05  8.796009E+04  5.621544E+04  5.678489E+04  4.926008E-08  5.911335E-09
       107  13  5.066528E+04  1.703396E+02 -1.629583E+02  5.618796E+04 -3.814058E-09  4.022442E-09
       107  14  5.068280E+04  1.627538E+02 -5.766241E+01  5.175685E+04 -8.395523E-09  8.405307E-10
       107  15  5.067907E+04  1.923436E+02  3.448249E+01  5.618794E+04 -3.611895E-09  3.295776E-09
       107  16 -4.256834E+05 -1.090753E+05 -6.992385E+04  5.548951E+04  5.715497E-08  2.491389E-09
       107  17 -3.787999E+05 -9.834682E+04 -6.302764E+04  5.110913E+04 -3.759995E-09 -9.232918E-10
       107  18 -3.319358E+05 -8.758220E+04 -5.614903E+04  5.559131E+04 -5.605654E-08  1.609510E-09
       107  19  5.272430E+05  1.094070E+05  6.959673E+04  5.688709E+04  7.686621E+03  3.716945E+04
       107  20  4.803517E+05  9.866498E+04  6.291133E+04  5.240515E+04  7.671403E+03  3.345796E+04
       107  21  4.334417E+05  8.796105E+04  5.621721E+04  5.678507E+04  7.657154E+03  2.974321E+04
       107  22  5.066565E+04  1.718223E+02 -1.603636E+02  5.618797E+04  1.132287E+02  3.715806E+04
       107  23  5.068310E+04  1.639550E+02 -5.556027E+01  5.175685E+04  9.161797E+01  3.344556E+04
       107  24  5.067931E+04  1.932928E+02  3.614348E+01  5.618795E+04  7.097554E+01  2.972980E+04
       107  25 -4.256829E+05 -1.090738E+05 -6.992116E+04  5.548929E+04 -7.454595E+03  3.714669E+04
       107  26 -3.787995E+05 -9.834560E+04 -6.302543E+04  5.110893E+04 -7.483141E+03  3.343317E+04
       107  27 -3.319355E+05 -8.758124E+04 -5.614727E+04  5.559113E+04 -7.510722E+03  2.971640E+04
       108   1  4.039090E+05  8.115907E+04  5.175598E+04  5.675062E+04 -7.671025E+03 -2.758018E+04
       108   2  3.570219E+05  7.042048E+04  4.509136E+04  5.225629E+04 -7.776707E+03 -2.386404E+04
       108   3  3.101275E+05  5.973880E+04  3.849851E+04  5.662121E+04 -7.883068E+03 -2.014818E+04
       108   4  5.068603E+04  1.978715E+02  8.294609E+01  5.618735E+04 -8.536425E+01 -2.756626E+04
       108   5  5.069566E+04  1.909398E+02  2.009417E+02  5.175757E+04 -1.918755E+02 -2.384941E+04
       108   6  5.069576E+04  2.411195E+02  3.911383E+02  5.618728E+04 -2.990729E+02 -2.013284E+04
       108   7 -3.024111E+05 -8.076908E+04 -5.159201E+04  5.562435E+04  7.496161E+03 -2.755236E+04
       108   8 -2.555360E+05 -7.004293E+04 -4.469089E+04  5.125905E+04  7.389370E+03 -2.383479E+04
       108   9 -2.086681E+05 -5.925966E+04 -3.771720E+04  5.575351E+04  7.281885E+03 -2.011751E+04
       108  10  4.039087E+05  8.115824E+04  5.175444E+04  5.675045E+04  5.303334E-09  8.708744E-09
       108  11  3.570217E+05  7.041986E+04  4.509018E+04  5.225614E+04 -7.959537E-09  1.483404E-09
       108  12  3.101273E+05  5.973835E+04  3.849763E+04  5.662108E+04 -3.582148E-09  1.058677E-11
       108  13  5.068582E+04  1.970555E+02  8.151804E+01  5.618735E+04  5.127892E-10  5.310414E-09
       108  14  5.069550E+04  1.903290E+02  1.998727E+02  5.175756E+04 -8.350304E-09  1.306567E-09
       108  15  5.069565E+04  2.406842E+02  3.903764E+02  5.618728E+04 -3.556932E-09 -4.993105E-10
       108  16 -3.024114E+05 -8.076991E+04 -5.159355E+04  5.562452E+04 -5.338537E-09  5.337606E-09
       108  17 -2.555362E+05 -7.004355E+04 -4.469206E+04  5.125920E+04  1.594336E-09 -4.923239E-09
       108  18 -2.086683E+05 -5.926011E+04 -3.771806E+04  5.575363E+04  4.784051E-09 -2.343642E-09
       108  19  4.039090E+05  8.115907E+04  5.175598E+04  5.675062E+04  7.671025E+03  2.758018E+04
       108  20  3.570219E+05  7.042048E+04  4.509136E+04  5.225629E+04  7.776707E+03  2.386404E+04
       108  21  3.101275E+05  5.973880E+04  3.849851E+04  5.662121E+04  7.883068E+03  2.014818E+04
       108  22  5.068603E+04  1.978715E+02  8.294609E+01  5.618735E+04  8.536425E+01  2.756626E+04
       108  23  5.069566E+04  1.909398E+02  2.009417E+02  5.175757E+04  1.918755E+02  2.384941E+04
       108  24  5.069576E+04  2.411195E+02  3.911383E+02  5.618728E+04  2.990729E+02  2.013284E+04
       108  25 -3.024111E+05 -8.076908E+04 -5.159201E+04  5.562435E+04 -7.496161E+03  2.755236E+04
       108  26 -2.555360E+05 -7.004293E+04 -4.469089E+04  5.125905E+04 -7.389370E+03  2.383479E+04
       108  27 -2.086681E+05 -5.925966E+04 -3.771720E+04  5.575351E+04 -7.281885E+03  2.011751E+04
       109   1  2.806219E+05  5.294017E+04  3.412541E+04  5.660866E+04 -7.965676E+03 -1.798549E+04
       109   2  2.336901E+05  4.230179E+04  2.775863E+04  5.195113E+04 -8.435616E+03 -1.427272E+04
       109   3  1.868583E+05  3.198436E+04  2.176484E+04  5.615068E+04 -8.905919E+03 -1.056469E+04
       109   4  5.072258E+04  2.483274E+02  5.257183E+02  5.618689E+04 -3.819453E+02 -1.796981E+04
       109   5  5.067606E+04  3.421559E+02  9.442492E+02  5.175775E+04 -8.617443E+02 -1.425665E+04
       109   6  5.072838E+04  7.585347E+02  1.742282E+03  5.618582E+04 -1.341937E+03 -1.054821E+04
       109   7 -1.791234E+05 -5.244593E+04 -3.307466E+04  5.576525E+04  7.199095E+03 -1.795414E+04
       109   8 -1.323041E+05 -4.161901E+04 -2.587050E+04  5.156440E+04  6.709988E+03 -1.424057E+04
       109   9 -8.538276E+04 -3.046812E+04 -1.828039E+04  5.622094E+04  6.220455E+03 -1.053173E+04
       109  10  2.806218E+05  5.293980E+04  3.412468E+04  5.660855E+04 -1.018539E-08  3.541117E-09
       109  11  2.336899E+05  4.230156E+04  2.775811E+04  5.195103E+04 -3.432414E-08  1.951343E-09
       109  12  1.868582E+05  3.198422E+04  2.176448E+04  5.615060E+04 -5.982303E-08  8.977354E-09
       109  13  5.072249E+04  2.479806E+02  5.251112E+02  5.618688E+04  5.522561E-10 -1.367956E-09
       109  14  5.067600E+04  3.419374E+02  9.438658E+02  5.175774E+04  2.417416E-09 -6.987775E-09
       109  15  5.072834E+04  7.584147E+02  1.742070E+03  5.618581E+04  4.448387E-09 -1.488986E-08
       109  16 -1.791236E+05 -5.244629E+04 -3.307536E+04  5.576535E+04  8.074113E-09 -8.232508E-10
       109  17 -1.323042E+05 -4.161924E+04 -2.587096E+04  5.156448E+04  3.855653E-08 -3.352038E-10
       109  18 -8.538283E+04 -3.046825E+04 -1.828067E+04  5.622099E+04  6.400285E-08 -2.715038E-09
       109  19  2.806219E+05  5.294017E+04  3.412541E+04  5.660866E+04  7.965676E+03  1.798549E+04
       109  20  2.336901E+05  4.230179E+04  2.775863E+04  5.195113E+04  8.435616E+03  1.427272E+04
       109  21  1.868583E+05  3.198436E+04  2.176484E+04  5.615068E+04  8.905919E+03  1.056469E+04
       109  22  5.072258E+04  2.483274E+02  5.257183E+02  5.618689E+04  3.819453E+02  1.796981E+04
       109  23  5.067606E+04  3.421559E+02  9.442492E+02  5.175775E+04  8.617443E+02  1.425665E+04
       109  24  5.072838E+04  7.585347E+02  1.742282E+03  5.618582E+04  1.341937E+03  1.054821E+04
       109  25 -1.791234E+05 -5.244593E+04 -3.307466E+04  5.576525E+04 -7.199095E+03  1.795414E+04
       109  26 -1.323041E+05 -4.161901E+04 -2.587050E+04  5.156440E+04 -6.709988E+03  1.424057E+04
       109  27 -8.538276E+04 -3.046812E+04 -1.828039E+04  5.622094E+04 -6.220455E+03  1.053173E+04
       110   1  1.575753E+05  2.528620E+04  1.782789E+04  5.643626E+04 -9.211063E+03 -8.406386E+03
       110   2  1.101115E+05  1.626294E+04  1.295627E+04  4.926999E+04 -1.132138E+04 -4.724245E+03
       110   3  6.384483E+04  1.111253E+04  1.041220E+04  5.095350E+04 -1.343164E+04 -1.083182E+03
       110   4  5.097668E+04  8.664703E+02  2.318787E+03  5.618563E+04 -1.646676E+03 -8.389736E+03
       110   5  5.037252E+04  2.591787E+03  4.266462E+03  5.175283E+04 -3.840926E+03 -4.707689E+03
       110   6  5.097842E+04  8.204884E+03  8.600027E+03  5.616968E+04 -6.035258E+03 -1.066744E+03
       110   7 -5.561038E+04 -2.355375E+04 -1.319028E+04  5.593503E+04  5.916467E+03 -8.373089E+03
       110   8 -9.362722E+03 -1.107947E+04 -4.423189E+03  5.423541E+04  3.638836E+03 -4.691073E+03
       110   9  3.811236E+04  5.297360E+03  6.788069E+03  6.138576E+04  1.360976E+03 -1.050181E+03
       110  10  1.575752E+05  2.528610E+04  1.782759E+04  5.643619E+04  5.875404E-08  9.107135E-09
       110  11  1.101113E+05  1.626288E+04  1.295598E+04  4.926995E+04  3.714271E-08  3.759167E-09
       110  12  6.384464E+04  1.111248E+04  1.041186E+04  5.095348E+04  7.660556E-09 -1.255653E-10
       110  13  5.097666E+04  8.663940E+02  2.318650E+03  5.618561E+04  5.399225E-10 -8.583207E-09
       110  14  5.037250E+04  2.591759E+03  4.266392E+03  5.175281E+04  4.545344E-09 -1.100865E-08
       110  15  5.097838E+04  8.204873E+03  8.599956E+03  5.616968E+04 -3.030665E-10  2.976283E-09
       110  16 -5.561044E+04 -2.355384E+04 -1.319048E+04  5.593507E+04 -5.560772E-08  4.288301E-09
       110  17 -9.362742E+03 -1.107950E+04 -4.423255E+03  5.423543E+04 -3.504278E-08  5.844459E-09
       110  18  3.811236E+04  5.297358E+03  6.788063E+03  6.138576E+04 -5.664799E-09  1.563690E-09
       110  19  1.575753E+05  2.528620E+04  1.782789E+04  5.643626E+04  9.211063E+03  8.406386E+03
       110  20  1.101115E+05  1.626294E+04  1.295627E+04  4.926999E+04  1.132138E+04  4.724245E+03
       110  21  6.384483E+04  1.111253E+04  1.041220E+04  5.095350E+04  1.343164E+04  1.083182E+03
       110  22  5.097668E+04  8.664703E+02  2.318787E+03  5.618563E+04  1.646676E+03  8.389736E+03
       110  23  5.037252E+04  2.591787E+03  4.266462E+03  5.175283E+04  3.840926E+03  4.707689E+03
       110  24  5.097842E+04  8.204884E+03  8.600027E+03  5.616968E+04  6.035258E+03  1.066744E+03
       110  25 -5.561038E+04 -2.355375E+04 -1.319028E+04  5.593503E+04 -5.916467E+03  8.373089E+03
       110  26 -9.362722E+03 -1.107947E+04 -4.423189E+03  5.423541E+04 -3.638836E+03  4.691073E+03
       110  27  3.811236E+04  5.297360E+03  6.788069E+03  6.138576E+04 -1.360976E+03  1.050181E+03
       111   1 -3.850630E+04  2.228678E+05 -3.530764E+04  1.449888E+04 -2.516471E+03 -2.744364E+03
       111   2 -3.936953E+04  2.484522E+05 -2.955121E+04  1.328948E+04 -7.883736E+03  1.341596E+02
       111   3 -3.383635E+04  2.752791E+05 -2.406753E+04  2.042884E+04 -8.157754E+03  3.015858E+03
       111   4  8.990392E+03  4.144600E+05  1.068378E+04  1.933323E+04 -2.521572E+03  6.374277E+03
       111   5  6.504738E+02  4.133324E+05  5.740486E+03  1.515652E+04 -7.885275E+03  3.383410E+03
       111   6 -2.754761E+02  4.144644E+05  4.598414E+03  1.932831E+04 -8.156371E+03  3.955198E+02
       111   7  5.648456E+04  6.060861E+05  5.667292E+04  2.416908E+04 -2.526530E+03  1.549572E+04
       111   8  4.066872E+04  5.782383E+05  4.103065E+04  1.702407E+04 -7.886796E+03  6.633511E+03
       111   9  3.328419E+04  5.536680E+05  3.326335E+04  1.822754E+04 -8.154979E+03 -2.225395E+03
       111  10 -3.850631E+04  2.228678E+05 -3.530766E+04  1.449887E+04  4.270603E-09  1.084123E-08
       111  11 -3.936960E+04  2.484522E+05 -2.955133E+04  1.328948E+04  5.193041E-09 -3.934654E-09
       111  12 -3.383643E+04  2.752791E+05 -2.406768E+04  2.042886E+04 -4.443554E-10 -1.689848E-08
       111  13  8.990375E+03  4.144600E+05  1.068369E+04  1.933324E+04  7.648886E-09 -8.145198E-11
       111  14  6.504039E+02  4.133324E+05  5.740348E+03  1.515654E+04 -8.685951E-09 -1.462829E-10
       111  15 -2.755476E+02  4.144644E+05  4.598289E+03  1.932832E+04 -5.321435E-09 -7.321820E-10
       111  16  5.648448E+04  6.060858E+05  5.667246E+04  2.416911E+04  2.098548E-09 -1.049420E-08
       111  17  4.066864E+04  5.782382E+05  4.103045E+04  1.702411E+04  1.229109E-08  2.060615E-09
       111  18  3.328411E+04  5.536680E+05  3.326321E+04  1.822752E+04  5.517910E-09  1.658429E-08
       111  19 -3.850630E+04  2.228678E+05 -3.530764E+04  1.449888E+04  2.516471E+03  2.744364E+03
       111  20 -3.936953E+04  2.484522E+05 -2.955121E+04  1.328948E+04  7.883736E+03 -1.341596E+02
       111  21 -3.383635E+04  2.752791E+05 -2.406753E+04  2.042884E+04  8.157754E+03 -3.015858E+03
       111  22  8.990392E+03  4.144600E+05  1.068378E+04  1.933323E+04  2.521572E+03 -6.374277E+03
       111  23  6.504738E+02  4.133324E+05  5.740486E+03  1.515652E+04  7.885275E+03 -3.383410E+03
       111  24 -2.754761E+02  4.144644E+05  4.598414E+03  1.932831E+04  8.156371E+03 -3.955198E+02
       111  25  5.648456E+04  6.060861E+05  5.667292E+04  2.416908E+04  2.526530E+03 -1.549572E+04
       111  26  4.066872E+04  5.782383E+05  4.103065E+04  1.702407E+04  7.886796E+03 -6.633511E+03
       111  27  3.328419E+04  5.536680E+05  3.326335E+04  1.822754E+04  8.154979E+03  2.225395E+03
       112   1 -2.866328E+04  2.941711E+05 -2.013115E+04  1.901057E+04 -6.945130E+03  1.006459E+03
       112   2 -2.258094E+04  3.199156E+05 -1.361281E+04  1.517539E+04 -5.633365E+03 -1.507774E+03
       112   3 -1.498242E+04  3.463791E+05 -5.076350E+03  1.992948E+04 -4.071368E+03 -4.022145E+03
       112   4  2.734502E+02  4.141338E+05  4.639059E+03  1.938280E+04 -6.944403E+03 -3.597340E+02
       112   5  2.306037E+01  4.137501E+05  5.610659E+03  1.508845E+04 -5.632580E+03 -3.162758E+03
       112   6  1.338879E+03  4.141347E+05  8.800681E+03  1.938327E+04 -4.070542E+03 -5.965817E+03
       112   7  2.920928E+04  5.341101E+05  2.940850E+04  1.975511E+04 -6.943678E+03 -1.726187E+03
       112   8  2.262651E+04  5.075929E+05  2.483367E+04  1.500150E+04 -5.631795E+03 -4.817987E+03
       112   9  1.765990E+04  4.818947E+05  2.267748E+04  1.883700E+04 -4.069712E+03 -7.909698E+03
       112  10 -2.866334E+04  2.941711E+05 -2.013125E+04  1.901057E+04 -3.083689E-09  9.908281E-09
       112  11 -2.258098E+04  3.199156E+05 -1.361287E+04  1.517538E+04  1.677019E-09 -1.404238E-08
       112  12 -1.498245E+04  3.463791E+05 -5.076412E+03  1.992947E+04 -2.217882E-10 -2.970344E-08
       112  13  2.733984E+02  4.141338E+05  4.638968E+03  1.938280E+04 -7.452045E-09  6.768734E-12
       112  14  2.302361E+01  4.137501E+05  5.610581E+03  1.508844E+04  3.243943E-09  1.679852E-10
       112  15  1.338852E+03  4.141347E+05  8.800583E+03  1.938325E+04  3.814488E-10 -6.693779E-10
       112  16  2.920922E+04  5.341101E+05  2.940840E+04  1.975510E+04 -3.207436E-09 -9.707541E-09
       112  17  2.262647E+04  5.075929E+05  2.483357E+04  1.500148E+04 -8.878254E-10  1.265579E-08
       112  18  1.765986E+04  4.818947E+05  2.267733E+04  1.883698E+04 -1.409318E-09  2.942311E-08
       112  19 -2.866328E+04  2.941711E+05 -2.013115E+04  1.901057E+04  6.945130E+03 -1.006459E+03
       112  20 -2.258094E+04  3.199156E+05 -1.361281E+04  1.517539E+04  5.633365E+03  1.507774E+03
       112  21 -1.498242E+04  3.463791E+05 -5.076350E+03  1.992948E+04  4.071368E+03  4.022145E+03
       112  22  2.734502E+02  4.141338E+05  4.639059E+03  1.938280E+04  6.944403E+03  3.597340E+02
       112  23  2.306037E+01  4.137501E+05  5.610659E+03  1.508845E+04  5.632580E+03  3.162758E+03
       112  24  1.338879E+03  4.141347E+05  8.800681E+03  1.938327E+04  4.070542E+03  5.965817E+03
       112  25  2.920928E+04  5.341101E+05  2.940850E+04  1.975511E+04  6.943678E+03  1.726187E+03
       112  26  2.262651E+04  5.075929E+05  2.483367E+04  1.500150E+04  5.631795E+03  4.817987E+03
       112  27  1.765990E+04  4.818947E+05  2.267748E+04  1.883700E+04  4.069712E+03  7.909698E+03
       113   1 -1.277886E+04  3.670672E+05  1.035544E+03  1.520949E+04 -3.061813E+03 -5.526485E+03
       113   2 -2.895252E+03  3.890501E+05  1.400779E+04  2.207051E+04 -1.517074E+03 -1.560603E+04
       113   3  3.454041E+04  4.192410E+05  4.042939E+04  3.751740E+04 -2.882935E+02 -2.568598E+04
       113   4 -1.070994E+03  4.157754E+05  1.090829E+04  1.937902E+04 -3.061055E+03 -7.484584E+03
       113   5  2.543026E+03  4.116997E+05  1.852685E+04  1.509340E+04 -1.516266E+03 -1.720067E+04
       113   6  3.364534E+04  4.157689E+05  3.934256E+04  1.939320E+04 -2.870707E+02 -2.691678E+04
       113   7  1.063679E+04  4.644859E+05  2.078093E+04  2.354888E+04 -3.060322E+03 -9.442835E+03
       113   8  7.981457E+03  4.343500E+05  2.304592E+04  8.116021E+03 -1.515422E+03 -1.879537E+04
       113   9  3.275151E+04  4.122974E+05  3.825591E+04  1.269106E+03 -2.857762E+02 -2.814756E+04
       113  10 -1.277888E+04  3.670672E+05  1.035469E+03  1.520948E+04 -4.078387E-09  2.466011E-08
       113  11 -2.895320E+03  3.890498E+05  1.400733E+04  2.207049E+04 -7.781036E-10  1.147639E-08
       113  12  3.454023E+04  4.192403E+05  4.042815E+04  3.751739E+04 -2.884258E-09 -4.244999E-09
       113  13 -1.071019E+03  4.157753E+05  1.090816E+04  1.937900E+04  2.318800E-09 -3.897760E-11
       113  14  2.542944E+03  4.116994E+05  1.852629E+04  1.509337E+04 -6.766452E-09  2.481171E-10
       113  15  3.364515E+04  4.157681E+05  3.934120E+04  1.939320E+04  9.679323E-10 -5.740961E-10
       113  16  1.063676E+04  4.644858E+05  2.078074E+04  2.354885E+04 -4.426105E-09 -2.441656E-08
       113  17  7.981360E+03  4.343496E+05  2.304526E+04  8.115998E+03 -2.966074E-09 -1.272635E-08
       113  18  3.275130E+04  4.122966E+05  3.825442E+04  1.269100E+03 -6.805798E-09  4.098635E-09
       113  19 -1.277886E+04  3.670672E+05  1.035544E+03  1.520949E+04  3.061813E+03  5.526485E+03
       113  20 -2.895252E+03  3.890501E+05  1.400779E+04  2.207051E+04  1.517074E+03  1.560603E+04
       113  21  3.454041E+04  4.192410E+05  4.042939E+04  3.751740E+04  2.882935E+02  2.568598E+04
       113  22 -1.070994E+03  4.157754E+05  1.090829E+04  1.937902E+04  3.061055E+03  7.484584E+03
       113  23  2.543026E+03  4.116997E+05  1.852685E+04  1.509340E+04  1.516266E+03  1.720067E+04
       113  24  3.364534E+04  4.157689E+05  3.934256E+04  1.939320E+04  2.870707E+02  2.691678E+04
       113  25  1.063679E+04  4.644859E+05  2.078093E+04  2.354888E+04  3.060322E+03  9.442835E+03
       113  26  7.981457E+03  4.343500E+05  2.304592E+04  8.116021E+03  1.515422E+03  1.879537E+04
       113  27  3.275151E+04  4.122974E+05  3.825591E+04  1.269106E+03  2.857762E+02  2.814756E+04
       114   1  1.037245E+06  3.746069E+05  1.932134E+05  3.835757E+05  7.699355E+04  1.715163E+04
       114   2  9.875989E+05  3.341192E+05  1.360506E+05  3.675186E+05  4.991781E+04 -2.102814E+04
       114   3  9.410477E+05  3.125435E+05  1.091402E+05  3.570556E+05  1.647486E+04 -4.224026E+04
       114   4  3.389468E+05  1.056028E+05  1.412647E+04  1.843800E+05  1.308304E+04 -6.871895E+03
       114   5  3.399030E+05  9.402072E+04  6.675423E+03  1.836107E+05  1.885376E+04 -3.271175E+04
       114   6  3.374588E+05  9.485881E+04  3.488720E+03  1.884341E+05  1.824890E+04 -4.157794E+04
       114   7 -3.588375E+05 -1.633473E+05 -1.649749E+05 -1.459970E+04 -5.074630E+04 -3.086292E+04
       114   8 -3.073431E+05 -1.460312E+05 -1.227117E+05 -1.140799E+02 -1.217487E+04 -4.438158E+04
       114   9 -2.657438E+05 -1.227901E+05 -1.021736E+05  1.996565E+04  2.002110E+04 -4.091631E+04
       114  10  1.037238E+06  3.746050E+05  1.932017E+05  3.835746E+05 -5.884523E-08 -2.162397E-08
       114  11  9.875961E+05  3.341181E+05  1.360451E+05  3.675195E+05 -1.081623E-08 -3.676853E-09
       114  12  9.410469E+05  3.125415E+05  1.091364E+05  3.570562E+05  5.338971E-08  2.065335E-08
       114  13  3.389466E+05  1.056027E+05  1.412606E+04  1.843801E+05 -7.691151E-09  9.383035E-12
       114  14  3.399023E+05  9.401948E+04  6.672743E+03  1.836112E+05 -6.989530E-09 -3.079850E-09
       114  15  3.374579E+05  9.485687E+04  3.484845E+03  1.884347E+05  1.134463E-09 -1.477185E-09
       114  16 -3.588405E+05 -1.633490E+05 -1.649815E+05 -1.460096E+04  5.175479E-08  2.070697E-08
       114  17 -3.073438E+05 -1.460333E+05 -1.227157E+05 -1.145152E+02 -4.903852E-09 -3.983344E-09
       114  18 -2.657447E+05 -1.227920E+05 -1.021775E+05  1.996631E+04 -6.666829E-08 -2.308443E-08
       114  19  1.037245E+06  3.746069E+05  1.932134E+05  3.835757E+05 -7.699355E+04 -1.715163E+04
       114  20  9.875989E+05  3.341192E+05  1.360506E+05  3.675186E+05 -4.991781E+04  2.102814E+04
       114  21  9.410477E+05  3.125435E+05  1.091402E+05  3.570556E+05 -1.647486E+04  4.224026E+04
       114  22  3.389468E+05  1.056028E+05  1.412647E+04  1.843800E+05 -1.308304E+04  6.871895E+03
       114  23  3.399030E+05  9.402072E+04  6.675423E+03  1.836107E+05 -1.885376E+04  3.271175E+04
       114  24  3.374588E+05  9.485881E+04  3.488720E+03  1.884341E+05 -1.824890E+04  4.157794E+04
       114  25 -3.588375E+05 -1.633473E+05 -1.649749E+05 -1.459970E+04  5.074630E+04  3.086292E+04
       114  26 -3.073431E+05 -1.460312E+05 -1.227117E+05 -1.140799E+02  1.217487E+04  4.438158E+04
       114  27 -2.657438E+05 -1.227901E+05 -1.021736E+05  1.996565E+04 -2.002110E+04  4.091631E+04
       115   1  9.075832E+05  3.010891E+05  1.007582E+05  3.487425E+05  1.689407E+04 -4.094065E+04
       115   2  8.613887E+05  2.784217E+05  8.749054E+04  3.310603E+05  1.245342E+04 -4.128695E+04
       115   3  8.090554E+05  2.639023E+05  7.747880E+04  3.213686E+05  7.366666E+03 -3.991784E+04
       115   4  3.368799E+05  9.494495E+04  2.604018E+03  1.885269E+05  1.747944E+04 -4.072504E+04
       115   5  3.402437E+05  9.089603E+04  1.359136E+03  1.846494E+05  1.635963E+04 -3.982128E+04
       115   6  3.368104E+05  9.433880E+04  7.424085E+02  1.887621E+05  1.459315E+04 -3.720138E+04
       115   7 -2.334849E+05 -1.111694E+05 -9.556134E+04  2.844691E+04  1.806424E+04 -4.050964E+04
       115   8 -1.806148E+05 -9.660318E+04 -8.477950E+04  3.835265E+04  2.026239E+04 -3.835691E+04
       115   9 -1.351962E+05 -7.520188E+04 -7.599863E+04  5.625007E+04  2.181382E+04 -3.448711E+04
       115  10  9.075824E+05  3.010873E+05  1.007545E+05  3.487430E+05  6.635781E-09  2.150247E-09
       115  11  8.613881E+05  2.784198E+05  8.748704E+04  3.310607E+05 -3.597642E-09 -3.825827E-09
       115  12  8.090549E+05  2.639006E+05  7.747570E+04  3.213689E+05 -1.541104E-08 -2.814546E-09
       115  13  3.368791E+05  9.494308E+04  2.600327E+03  1.885274E+05  7.009988E-10 -2.487798E-09
       115  14  3.402430E+05  9.089426E+04  1.355652E+03  1.846499E+05 -6.335537E-09 -9.789442E-09
       115  15  3.368098E+05  9.433726E+04  7.394070E+02  1.887626E+05 -2.262020E-09  8.643376E-10
       115  16 -2.334857E+05 -1.111712E+05 -9.556504E+04  2.844750E+04 -2.234714E-08 -6.415989E-09
       115  17 -1.806156E+05 -9.660487E+04 -8.478304E+04  3.835327E+04 -2.237711E-09 -1.837712E-09
       115  18 -1.351970E+05 -7.520328E+04 -7.600176E+04  5.625068E+04  2.215996E-08  8.671318E-09
       115  19  9.075832E+05  3.010891E+05  1.007582E+05  3.487425E+05 -1.689407E+04  4.094065E+04
       115  20  8.613887E+05  2.784217E+05  8.749054E+04  3.310603E+05 -1.245342E+04  4.128695E+04
       115  21  8.090554E+05  2.639023E+05  7.747880E+04  3.213686E+05 -7.366666E+03  3.991784E+04
       115  22  3.368799E+05  9.494495E+04  2.604018E+03  1.885269E+05 -1.747944E+04  4.072504E+04
       115  23  3.402437E+05  9.089603E+04  1.359136E+03  1.846494E+05 -1.635963E+04  3.982128E+04
       115  24  3.368104E+05  9.433880E+04  7.424085E+02  1.887621E+05 -1.459315E+04  3.720138E+04
       115  25 -2.334849E+05 -1.111694E+05 -9.556134E+04  2.844691E+04 -1.806424E+04  4.050964E+04
       115  26 -1.806148E+05 -9.660318E+04 -8.477950E+04  3.835265E+04 -2.026239E+04  3.835691E+04
       115  27 -1.351962E+05 -7.520188E+04 -7.599863E+04  5.625007E+04 -2.181382E+04  3.448711E+04
       116   1  7.775764E+05  2.526390E+05  7.181847E+04  3.126353E+05  6.553897E+03 -3.768916E+04
       116   2  7.318918E+05  2.313556E+05  6.337027E+04  2.947619E+05  4.654791E+03 -3.411511E+04
       116   3  6.791755E+05  2.173129E+05  5.531062E+04  2.850372E+05  2.689946E+03 -3.036940E+04
       116   4  3.367605E+05  9.436102E+04  5.568731E+02  1.887644E+05  1.365668E+04 -3.501846E+04
       116   5  3.403196E+05  9.077764E+04  3.073296E+02  1.846922E+05  1.208990E+04 -3.131814E+04
       116   6  3.367777E+05  9.436931E+04  1.827238E+02  1.887683E+05  1.045731E+04 -2.744608E+04
       116   7 -1.038423E+05 -6.389499E+04 -7.070721E+04  6.497731E+04  2.075406E+04 -3.234980E+04
       116   8 -5.108822E+04 -4.978443E+04 -6.275852E+04  7.468765E+04  1.952005E+04 -2.852303E+04
       116   9 -5.498338E+03 -2.856359E+04 -5.494838E+04  9.254823E+04  1.822023E+04 -2.452443E+04
       116  10  7.775760E+05  2.526375E+05  7.181572E+04  3.126355E+05 -1.673096E-09  6.040353E-09
       116  11  7.318915E+05  2.313544E+05  6.336804E+04  2.947620E+05  8.660710E-09  3.658897E-09
       116  12  6.791753E+05  2.173119E+05  5.530887E+04  2.850372E+05  2.933684E-09  1.469133E-09
       116  13  3.367600E+05  9.435966E+04  5.542177E+02  1.887648E+05 -6.030594E-09  3.886859E-09
       116  14  3.403192E+05  9.077655E+04  3.052113E+02  1.846925E+05 -5.241285E-09  3.810153E-09
       116  15  3.367773E+05  9.436847E+04  1.811024E+02  1.887686E+05  4.013851E-10  1.665607E-09
       116  16 -1.038430E+05 -6.389623E+04 -7.070998E+04  6.497785E+04  1.365262E-09  6.984515E-09
       116  17 -5.108885E+04 -4.978541E+04 -6.276076E+04  7.468810E+04 -8.191997E-09  6.922450E-09
       116  18 -5.498857E+03 -2.856432E+04 -5.495013E+04  9.254859E+04 -4.400669E-09  7.246122E-09
       116  19  7.775764E+05  2.526390E+05  7.181847E+04  3.126353E+05 -6.553897E+03  3.768916E+04
       116  20  7.318918E+05  2.313556E+05  6.337027E+04  2.947619E+05 -4.654791E+03  3.411511E+04
       116  21  6.791755E+05  2.173129E+05  5.531062E+04  2.850372E+05 -2.689946E+03  3.036940E+04
       116  22  3.367605E+05  9.436102E+04  5.568731E+02  1.887644E+05 -1.365668E+04  3.501846E+04
       116  23  3.403196E+05  9.077764E+04  3.073296E+02  1.846922E+05 -1.208990E+04  3.131814E+04
       116  24  3.367777E+05  9.436931E+04  1.827238E+02  1.887683E+05 -1.045731E+04  2.744608E+04
       116  25 -1.038423E+05 -6.389499E+04 -7.070721E+04  6.497731E+04 -2.075406E+04  3.234980E+04
       116  26 -5.108822E+04 -4.978443E+04 -6.275852E+04  7.468765E+04 -1.952005E+04  2.852303E+04
       116  27 -5.498338E+03 -2.856359E+04 -5.494838E+04  9.254823E+04 -1.822023E+04  2.452443E+04
       117   1  6.479276E+05  2.060743E+05  5.000982E+04  2.762771E+05  1.796390E+03 -2.803297E+04
       117   2  6.023676E+05  1.848994E+05  4.216861E+04  2.583910E+05  2.004952E+02 -2.404937E+04
       117   3  5.496829E+05  1.708793E+05  3.439337E+04  2.486518E+05 -1.401940E+03 -2.005041E+04
       117   4  3.367751E+05  9.437616E+04  1.464528E+02  1.887642E+05  9.548864E+03 -2.511463E+04
       117   5  3.403478E+05  9.081307E+04  1.094766E+02  1.846890E+05  7.982556E+03 -2.111906E+04
       117   6  3.367869E+05  9.439851E+04  1.145706E+02  1.887596E+05  6.409704E+03 -1.710814E+04
       117   7  2.572666E+04 -1.731181E+04 -4.971854E+04  1.012926E+05  1.729722E+04 -2.219784E+04
       117   8  7.840327E+04 -3.265480E+03 -4.195034E+04  1.110166E+05  1.576109E+04 -1.819007E+04
       117   9  1.239422E+05  1.792344E+04 -3.416420E+04  1.288874E+05  1.421842E+04 -1.416697E+04
       117  10  6.479274E+05  2.060734E+05  5.000834E+04  2.762771E+05 -2.454827E-08 -8.175206E-09
       117  11  6.023675E+05  1.848988E+05  4.216753E+04  2.583910E+05 -1.739656E-08  2.706357E-09
       117  12  5.496828E+05  1.708789E+05  3.439261E+04  2.486518E+05  1.993057E-08  1.706056E-08
       117  13  3.367748E+05  9.437546E+04  1.450959E+02  1.887644E+05 -6.202550E-09 -2.962407E-10
       117  14  3.403476E+05  9.081257E+04  1.085185E+02  1.846891E+05 -9.791572E-09 -8.297122E-09
       117  15  3.367868E+05  9.439819E+04  1.139433E+02  1.887597E+05 -4.340710E-09 -9.101587E-09
       117  16  2.572621E+04 -1.731242E+04 -4.972003E+04  1.012929E+05  1.627615E-08  1.138990E-08
       117  17  7.840292E+04 -3.265902E+03 -4.195143E+04  1.110168E+05 -3.885712E-09 -1.803677E-10
       117  18  1.239419E+05  1.792317E+04 -3.416496E+04  1.288876E+05 -2.360268E-08  9.798466E-10
       117  19  6.479276E+05  2.060743E+05  5.000982E+04  2.762771E+05 -1.796390E+03  2.803297E+04
       117  20  6.023676E+05  1.848994E+05  4.216861E+04  2.583910E+05 -2.004952E+02  2.404937E+04
       117  21  5.496829E+05  1.708793E+05  3.439337E+04  2.486518E+05  1.401940E+03  2.005041E+04
       117  22  3.367751E+05  9.437616E+04  1.464528E+02  1.887642E+05 -9.548864E+03  2.511463E+04
       117  23  3.403478E+05  9.081307E+04  1.094766E+02  1.846890E+05 -7.982556E+03  2.111906E+04
       117  24  3.367869E+05  9.439851E+04  1.145706E+02  1.887596E+05 -6.409704E+03  1.710814E+04
       117  25  2.572666E+04 -1.731181E+04 -4.971854E+04  1.012926E+05 -1.729722E+04  2.219784E+04
       117  26  7.840327E+04 -3.265480E+03 -4.195034E+04  1.110166E+05 -1.576109E+04  1.819007E+04
       117  27  1.239422E+05  1.792344E+04 -3.416420E+04  1.288874E+05 -1.421842E+04  1.416697E+04
       118   1  5.184854E+05  1.596429E+05  2.916770E+04  2.398950E+05 -2.305642E+03 -1.770617E+04
       118   2  4.729678E+05  1.384743E+05  2.147107E+04  2.220191E+05 -3.912111E+03 -1.370458E+04
       118   3  4.203214E+05  1.244521E+05  1.383944E+04  2.122854E+05 -5.516372E+03 -9.709878E+03
       118   4  3.367923E+05  9.440161E+04  1.310422E+02  1.887592E+05  5.503425E+03 -1.476450E+04
       118   5  3.403585E+05  9.082978E+04  2.014119E+02  1.846882E+05  3.883484E+03 -1.076753E+04
       118   6  3.367970E+05  9.440726E+04  3.475368E+02  1.887588E+05  2.265750E+03 -6.777483E+03
       118   7  1.551327E+05  2.916301E+04 -2.890659E+04  1.376369E+05  1.331016E+04 -1.182370E+04
       118   8  2.077675E+05  4.318686E+04 -2.106855E+04  1.473645E+05  1.167736E+04 -7.831139E+03
       118   9  2.532802E+05  6.436318E+04 -1.314426E+04  1.652351E+05  1.004677E+04 -3.845506E+03
       118  10  5.184853E+05  1.596426E+05  2.916710E+04  2.398949E+05 -6.226780E-08 -1.744301E-08
       118  11  4.729677E+05  1.384741E+05  2.147068E+04  2.220191E+05 -2.582241E-08 -2.846642E-09
       118  12  4.203213E+05  1.244520E+05  1.383921E+04  2.122854E+05  4.282291E-08  2.038008E-08
       118  13  3.367922E+05  9.440137E+04  1.305756E+02  1.887593E+05 -1.520660E-09 -1.754602E-08
       118  14  3.403585E+05  9.082965E+04  2.011656E+02  1.846882E+05 -3.039733E-09 -2.297271E-08
       118  15  3.367970E+05  9.440721E+04  3.474408E+02  1.887588E+05  3.784866E-10 -3.378049E-08
       118  16  1.551324E+05  2.916281E+04 -2.890718E+04  1.376370E+05  6.082725E-08  3.444520E-08
       118  17  2.077673E+05  4.318675E+04 -2.106893E+04  1.473646E+05  2.069584E-09  1.018658E-08
       118  18  2.532801E+05  6.436314E+04 -1.314448E+04  1.652351E+05 -3.620645E-08 -7.734232E-09
       118  19  5.184854E+05  1.596429E+05  2.916770E+04  2.398950E+05  2.305642E+03  1.770617E+04
       118  20  4.729678E+05  1.384743E+05  2.147107E+04  2.220191E+05  3.912111E+03  1.370458E+04
       118  21  4.203214E+05  1.244521E+05  1.383944E+04  2.122854E+05  5.516372E+03  9.709878E+03
       118  22  3.367923E+05  9.440161E+04  1.310422E+02  1.887592E+05 -5.503425E+03  1.476450E+04
       118  23  3.403585E+05  9.082978E+04  2.014119E+02  1.846882E+05 -3.883484E+03  1.076753E+04
       118  24  3.367970E+05  9.440726E+04  3.475368E+02  1.887588E+05 -2.265750E+03  6.777483E+03
       118  25  1.551327E+05  2.916301E+04 -2.890659E+04  1.376369E+05 -1.331016E+04  1.182370E+04
       118  26  2.077675E+05  4.318686E+04 -2.106855E+04  1.473645E+05 -1.167736E+04  7.831139E+03
       118  27  2.532802E+05  6.436318E+04 -1.314426E+04  1.652351E+05 -1.004677E+04  3.845506E+03
       119   1  3.891460E+05  1.132213E+05  8.704744E+03  2.035465E+05 -6.471295E+03 -7.390865E+03
       119   2  3.436298E+05  9.204144E+04  1.242931E+03  1.856669E+05 -8.235267E+03 -3.501223E+03
       119   3  2.910284E+05  7.804642E+04 -6.013059E+03  1.759201E+05 -9.969907E+03  3.107369E+02
       119   4  3.368109E+05  9.440524E+04  4.586070E+02  1.887631E+05  1.315428E+03 -4.456616E+03
       119   5  3.403451E+05  9.083284E+04  8.248922E+02  1.846842E+05 -5.990976E+02 -6.237070E+02
       119   6  3.368208E+05  9.447467E+04  1.515921E+03  1.887370E+05 -2.484323E+03  3.131531E+03
       119   7  2.844795E+05  7.558974E+04 -7.787155E+03  1.739812E+05  9.101371E+03 -1.522663E+03
       119   8  3.370605E+05  8.962430E+04  4.071037E+02  1.837016E+05  7.037030E+03  2.253792E+03
       119   9  3.826162E+05  1.109034E+05  9.045236E+03  2.015549E+05  5.001929E+03  5.952575E+03
       119  10  3.891460E+05  1.132212E+05  8.704562E+03  2.035464E+05 -1.584483E-08  1.749542E-09
       119  11  3.436297E+05  9.204141E+04  1.242781E+03  1.856669E+05  9.369179E-09  7.001244E-09
       119  12  2.910283E+05  7.804639E+04 -6.013245E+03  1.759201E+05  3.848174E-08  1.808703E-08
       119  13  3.368109E+05  9.440522E+04  4.585665E+02  1.887631E+05  9.627899E-09 -2.596132E-08
       119  14  3.403451E+05  9.083284E+04  8.248908E+02  1.846842E+05  1.084456E-09 -1.759545E-08
       119  15  3.368208E+05  9.447466E+04  1.515891E+03  1.887370E+05 -1.292543E-08 -6.545277E-09
       119  16  2.844795E+05  7.558971E+04 -7.787315E+03  1.739812E+05  1.863116E-08  1.618637E-08
       119  17  3.370604E+05  8.962428E+04  4.070011E+02  1.837015E+05 -2.362001E-08 -3.471068E-09
       119  18  3.826161E+05  1.109033E+05  9.045122E+03  2.015549E+05 -5.322480E-08 -2.000918E-08
       119  19  3.891460E+05  1.132213E+05  8.704744E+03  2.035465E+05  6.471295E+03  7.390865E+03
       119  20  3.436298E+05  9.204144E+04  1.242931E+03  1.856669E+05  8.235267E+03  3.501223E+03
       119  21  2.910284E+05  7.804642E+04 -6.013059E+03  1.759201E+05  9.969907E+03 -3.107369E+02
       119  22  3.368109E+05  9.440524E+04  4.586070E+02  1.887631E+05 -1.315428E+03  4.456616E+03
       119  23  3.403451E+05  9.083284E+04  8.248922E+02  1.846842E+05  5.990976E+02  6.237070E+02
       119  24  3.368208E+05  9.447467E+04  1.515921E+03  1.887370E+05  2.484323E+03 -3.131531E+03
       119  25  2.844795E+05  7.558974E+04 -7.787155E+03  1.739812E+05 -9.101371E+03  1.522663E+03
       119  26  3.370605E+05  8.962430E+04  4.071037E+02  1.837016E+05 -7.037030E+03 -2.253792E+03
       119  27  3.826162E+05  1.109034E+05  9.045236E+03  2.015549E+05 -5.001929E+03 -5.952575E+03
       120   1  2.598154E+05  6.687744E+04 -1.084173E+04  1.673038E+05 -1.116271E+04  2.477149E+03
       120   2  2.146047E+05  4.554506E+04 -1.761819E+04  1.488464E+05 -1.288069E+04  5.845009E+03
       120   3  1.626679E+05  3.215902E+04 -2.387052E+04  1.382693E+05 -1.430911E+04  8.445224E+03
       120   4  3.369262E+05  9.447421E+04  2.024074E+03  1.887665E+05 -3.623295E+03  5.318129E+03
       120   5  3.402662E+05  9.123297E+04  3.725443E+03  1.844949E+05 -6.826087E+03  8.126128E+03
       120   6  3.371713E+05  9.623151E+04  7.126858E+03  1.881025E+05 -9.739369E+03  1.016656E+04
       120   7  4.140434E+05  1.220716E+05  1.488996E+04  2.102317E+05  3.917114E+03  8.159476E+03
       120   8  4.659438E+05  1.369223E+05  2.506860E+04  2.201500E+05 -7.702145E+02  1.040773E+04
       120   9  5.117049E+05  1.603064E+05  3.812277E+04  2.379482E+05 -5.168308E+03  1.188841E+04
       120  10  2.598153E+05  6.687740E+04 -1.084197E+04  1.673039E+05 -3.719008E-09  1.535336E-09
       120  11  2.146045E+05  4.554498E+04 -1.761857E+04  1.488465E+05 -2.678707E-09  6.791329E-09
       120  12  1.626677E+05  3.215889E+04 -2.387104E+04  1.382694E+05 -2.662248E-09  1.101202E-08
       120  13  3.369262E+05  9.447417E+04  2.023996E+03  1.887665E+05 -1.321313E-08 -1.382423E-09
       120  14  3.402661E+05  9.123289E+04  3.725231E+03  1.844950E+05 -3.999445E-09  1.255411E-08
       120  15  3.371712E+05  9.623138E+04  7.126485E+03  1.881025E+05 -2.154465E-09  6.839510E-09
       120  16  4.140434E+05  1.220715E+05  1.488981E+04  2.102316E+05 -9.616750E-09 -2.862246E-09
       120  17  4.659437E+05  1.369222E+05  2.506840E+04  2.201500E+05 -4.914073E-10  2.825090E-09
       120  18  5.117048E+05  1.603063E+05  3.812246E+04  2.379482E+05  3.242954E-09  7.655177E-09
       120  19  2.598154E+05  6.687744E+04 -1.084173E+04  1.673038E+05  1.116271E+04 -2.477149E+03
       120  20  2.146047E+05  4.554506E+04 -1.761819E+04  1.488464E+05  1.288069E+04 -5.845009E+03
       120  21  1.626679E+05  3.215902E+04 -2.387052E+04  1.382693E+05  1.430911E+04 -8.445224E+03
       120  22  3.369262E+05  9.447421E+04  2.024074E+03  1.887665E+05  3.623295E+03 -5.318129E+03
       120  23  3.402662E+05  9.123297E+04  3.725443E+03  1.844949E+05  6.826087E+03 -8.126128E+03
       120  24  3.371713E+05  9.623151E+04  7.126858E+03  1.881025E+05  9.739369E+03 -1.016656E+04
       120  25  4.140434E+05  1.220716E+05  1.488996E+04  2.102317E+05 -3.917114E+03 -8.159476E+03
       120  26  4.659438E+05  1.369223E+05  2.506860E+04  2.201500E+05  7.702145E+02 -1.040773E+04
       120  27  5.117049E+05  1.603064E+05  3.812277E+04  2.379482E+05  5.168308E+03 -1.188841E+04
       121   1  1.309463E+05  2.204675E+04 -2.768923E+04  1.310842E+05 -1.657103E+04  9.585227E+03
       121   2  9.248776E+04 -1.440046E+03 -3.383119E+04  1.017864E+05 -1.094697E+04  1.038688E+04
       121   3  5.197713E+04 -4.222832E+03 -3.994421E+04  7.604672E+04 -2.466749E+03  3.601934E+03
       121   4  3.383341E+05  9.645754E+04  9.546220E+03  1.883413E+05 -1.147162E+04  1.150591E+04
       121   5  3.399854E+05  9.932578E+04  1.828628E+04  1.810336E+05 -2.051250E+04  6.782878E+03
       121   6  3.424853E+05  1.257984E+05  3.867246E+04  1.772840E+05 -2.669800E+04 -5.524921E+03
       121   7  5.457708E+05  1.708736E+05  4.678127E+04  2.456171E+05 -6.370311E+03  1.342730E+04
       121   8  5.875460E+05  2.001008E+05  7.040067E+04  2.603112E+05 -3.008209E+04  3.176954E+03
       121   9  6.330720E+05  2.558334E+05  1.172823E+05  2.785658E+05 -5.094109E+04 -1.465830E+04
       121  10  1.309460E+05  2.204658E+04 -2.768992E+04  1.310844E+05  5.135606E-09  1.077787E-08
       121  11  9.248760E+04 -1.440194E+03 -3.383162E+04  1.017865E+05  4.541135E-09  4.981598E-09
       121  12  5.197712E+04 -4.222848E+03 -3.994425E+04  7.604672E+04 -2.701394E-09  1.553367E-10
       121  13  3.383340E+05  9.645737E+04  9.545724E+03  1.883414E+05  3.336984E-09  4.791802E-09
       121  14  3.399849E+05  9.932562E+04  1.828541E+04  1.810337E+05  1.547765E-09  1.612093E-09
       121  15  3.424845E+05  1.257982E+05  3.867107E+04  1.772839E+05 -6.720175E-09 -1.783700E-09
       121  16  5.457707E+05  1.708734E+05  4.678085E+04  2.456172E+05 -7.204638E-09  5.552918E-09
       121  17  5.875450E+05  2.001005E+05  7.039895E+04  2.603112E+05 -2.685838E-10  3.510169E-09
       121  18  6.330692E+05  2.558325E+05  1.172771E+05  2.785652E+05 -5.734602E-09 -1.384849E-09
       121  19  1.309463E+05  2.204675E+04 -2.768923E+04  1.310842E+05  1.657103E+04 -9.585227E+03
       121  20  9.248776E+04 -1.440046E+03 -3.383119E+04  1.017864E+05  1.094697E+04 -1.038688E+04
       121  21  5.197713E+04 -4.222832E+03 -3.994421E+04  7.604672E+04  2.466749E+03 -3.601934E+03
       121  22  3.383341E+05  9.645754E+04  9.546220E+03  1.883413E+05  1.147162E+04 -1.150591E+04
       121  23  3.399854E+05  9.932578E+04  1.828628E+04  1.810336E+05  2.051250E+04 -6.782878E+03
       121  24  3.424853E+05  1.257984E+05  3.867246E+04  1.772840E+05  2.669800E+04  5.524921E+03
       121  25  5.457708E+05  1.708736E+05  4.678127E+04  2.456171E+05  6.370311E+03 -1.342730E+04
       121  26  5.875460E+05  2.001008E+05  7.040067E+04  2.603112E+05  3.008209E+04 -3.176954E+03
       121  27  6.330720E+05  2.558334E+05  1.172823E+05  2.785658E+05  5.094109E+04  1.465830E+04
       122   1 -4.189798E+05 -2.576047E+06 -5.391701E+05  3.194008E+04  1.916190E+02 -3.254417E+05
       122   2  5.148762E+04 -2.495939E+06 -2.633201E+05  8.621190E+03 -9.084683E+02 -2.039293E+05
       122   3 -3.788420E+04 -2.570959E+06 -2.065621E+05 -6.116624E+03 -7.151167E+02 -8.241726E+04
       122   4 -3.774976E+05 -2.411088E+06 -4.978096E+05  6.104606E+03  2.049213E+02 -3.253555E+05
       122   5  9.225192E+04 -2.333347E+06 -2.226298E+05  2.188764E+03 -9.063721E+02 -2.039392E+05
       122   6  2.255726E+03 -2.410677E+06 -1.664338E+05  6.856283E+03 -7.167456E+02 -8.252376E+04
       122   7 -3.360150E+05 -2.246104E+06 -4.564508E+05 -1.973775E+04  2.182133E+02 -3.252693E+05
       122   8  1.330144E+05 -2.170731E+06 -1.819414E+05 -4.245344E+03 -9.042763E+02 -2.039491E+05
       122   9  4.239434E+04 -2.250372E+06 -1.263074E+05  1.983256E+04 -7.183785E+02 -8.263028E+04
       122  10 -4.190084E+05 -2.576161E+06 -5.393699E+05  3.194013E+04  5.322000E-09  4.879571E-09
       122  11  5.147640E+04 -2.495984E+06 -2.633986E+05  8.621040E+03 -3.425426E-09  3.514686E-09
       122  12 -3.788603E+04 -2.570966E+06 -2.065749E+05 -6.116672E+03  2.346890E-10 -1.994707E-10
       122  13 -3.775261E+05 -2.411202E+06 -4.980093E+05  6.104660E+03  5.728564E-09 -3.605103E-09
       122  14  9.224070E+04 -2.333392E+06 -2.227083E+05  2.188615E+03 -1.718618E-09 -1.955221E-09
       122  15  2.253888E+03 -2.410684E+06 -1.664466E+05  6.856235E+03  8.556961E-09 -4.713299E-10
       122  16 -3.360435E+05 -2.246217E+06 -4.566504E+05 -1.973769E+04 -3.183484E-09 -3.358597E-10
       122  17  1.330031E+05 -2.170775E+06 -1.820199E+05 -4.245493E+03  6.190720E-09  6.865178E-10
       122  18  4.239250E+04 -2.250379E+06 -1.263203E+05  1.983251E+04  3.782783E-09 -5.683250E-10
       122  19 -4.189798E+05 -2.576047E+06 -5.391701E+05  3.194008E+04 -1.916190E+02  3.254417E+05
       122  20  5.148762E+04 -2.495939E+06 -2.633201E+05  8.621190E+03  9.084683E+02  2.039293E+05
       122  21 -3.788420E+04 -2.570959E+06 -2.065621E+05 -6.116624E+03  7.151167E+02  8.241726E+04
       122  22 -3.774976E+05 -2.411088E+06 -4.978096E+05  6.104606E+03 -2.049213E+02  3.253555E+05
       122  23  9.225192E+04 -2.333347E+06 -2.226298E+05  2.188764E+03  9.063721E+02  2.039392E+05
       122  24  2.255726E+03 -2.410677E+06 -1.664338E+05  6.856283E+03  7.167456E+02  8.252376E+04
       122  25 -3.360150E+05 -2.246104E+06 -4.564508E+05 -1.973775E+04 -2.182133E+02  3.252693E+05
       122  26  1.330144E+05 -2.170731E+06 -1.819414E+05 -4.245344E+03  9.042763E+02  2.039491E+05
       122  27  4.239434E+04 -2.250372E+06 -1.263074E+05  1.983256E+04  7.183785E+02  8.263028E+04
       123   1 -6.966959E+04 -2.440432E+06 -1.635383E+05  1.640006E+04 -4.020972E+02 -5.381985E+04
       123   2  1.775612E+04 -2.407773E+06 -1.244000E+05 -2.553331E+03 -3.132987E+02  5.557796E+03
       123   3 -7.233159E+04 -2.427185E+06 -1.683764E+05  4.397170E+03 -6.963236E+01  6.493603E+04
       123   4 -5.649074E+04 -2.387882E+06 -1.503900E+05  1.045762E+04 -4.015740E+02 -5.382821E+04
       123   5  2.926204E+04 -2.361854E+06 -1.129088E+05 -2.487685E+03 -3.132845E+02  5.538664E+03
       123   6 -6.248974E+04 -2.387893E+06 -1.585304E+05  1.047085E+04 -6.897876E+01  6.490549E+04
       123   7 -4.331197E+04 -2.335329E+06 -1.372419E+05  4.514667E+03 -4.010506E+02 -5.383656E+04
       123   8  4.076780E+04 -2.315934E+06 -1.014178E+05 -2.422033E+03 -3.132703E+02  5.519530E+03
       123   9 -5.264788E+04 -2.348599E+06 -1.486844E+05  1.654492E+04 -6.832580E+01  6.487494E+04
       123  10 -6.967038E+04 -2.440435E+06 -1.635437E+05  1.640005E+04  2.199588E-10  2.033304E-09
       123  11  1.775611E+04 -2.407773E+06 -1.244001E+05 -2.553330E+03  2.651184E-09  1.141990E-09
       123  12 -7.233272E+04 -2.427189E+06 -1.683844E+05  4.397174E+03  4.996520E-09  3.181575E-10
       123  13 -5.649152E+04 -2.387885E+06 -1.503955E+05  1.045760E+04  8.672920E-10 -1.764853E-09
       123  14  2.926203E+04 -2.361854E+06 -1.129089E+05 -2.487683E+03  2.901923E-09 -3.082608E-10
       123  15 -6.249088E+04 -2.387897E+06 -1.585383E+05  1.047086E+04  5.232755E-09 -1.689144E-09
       123  16 -4.331275E+04 -2.335332E+06 -1.372474E+05  4.514650E+03  2.231181E-09 -1.920784E-10
       123  17  4.076779E+04 -2.315934E+06 -1.014179E+05 -2.422032E+03 -1.138373E-09 -2.699225E-10
       123  18 -5.264901E+04 -2.348604E+06 -1.486923E+05  1.654493E+04 -1.208850E-09 -9.640177E-10
       123  19 -6.966959E+04 -2.440432E+06 -1.635383E+05  1.640006E+04  4.020972E+02  5.381985E+04
       123  20  1.775612E+04 -2.407773E+06 -1.244000E+05 -2.553331E+03  3.132987E+02 -5.557796E+03
       123  21 -7.233159E+04 -2.427185E+06 -1.683764E+05  4.397170E+03  6.963236E+01 -6.493603E+04
       123  22 -5.649074E+04 -2.387882E+06 -1.503900E+05  1.045762E+04  4.015740E+02  5.382821E+04
       123  23  2.926204E+04 -2.361854E+06 -1.129088E+05 -2.487685E+03  3.132845E+02 -5.538664E+03
       123  24 -6.248974E+04 -2.387893E+06 -1.585304E+05  1.047085E+04  6.897876E+01 -6.490549E+04
       123  25 -4.331197E+04 -2.335329E+06 -1.372419E+05  4.514667E+03  4.010506E+02  5.383656E+04
       123  26  4.076780E+04 -2.315934E+06 -1.014178E+05 -2.422033E+03  3.132703E+02 -5.519530E+03
       123  27 -5.264788E+04 -2.348599E+06 -1.486844E+05  1.654492E+04  6.832580E+01 -6.487494E+04
       124   1  3.013414E+04 -2.311073E+06 -1.519156E+05  2.364623E+04  3.305077E+02  9.545878E+04
       124   2  1.281804E+05 -2.220879E+06 -2.154010E+05 -8.008890E+03  6.297963E+02  2.277104E+05
       124   3 -3.867458E+05 -2.300913E+06 -5.183136E+05 -1.929152E+04 -1.267873E+02  3.599659E+05
       124   4  4.346341E+03 -2.414048E+06 -1.777012E+05  9.400225E+03  3.283588E+02  9.536142E+04
       124   5  1.010439E+05 -2.329136E+06 -2.424873E+05 -1.038672E+03  6.323598E+02  2.276930E+05
       124   6 -4.153039E+05 -2.414498E+06 -5.467870E+05  8.892577E+03 -1.105195E+02  3.600273E+05
       124   7 -2.144149E+04 -2.517013E+06 -2.034875E+05 -4.843411E+03  3.262140E+02  9.526408E+04
       124   8  7.390669E+04 -2.437383E+06 -2.695745E+05  5.930329E+03  6.349233E+02  2.276756E+05
       124   9 -4.438599E+05 -2.528069E+06 -5.752610E+05  3.707150E+04 -9.424341E+01  3.600885E+05
       124  10  3.013168E+04 -2.311083E+06 -1.519328E+05  2.364621E+04  9.600053E-13  1.383628E-09
       124  11  1.281664E+05 -2.220934E+06 -2.154988E+05 -8.009006E+03 -7.891431E-09  2.911230E-09
       124  12 -3.867808E+05 -2.301053E+06 -5.185580E+05 -1.929148E+04 -1.364471E-09 -1.118733E-09
       124  13  4.343888E+03 -2.414058E+06 -1.777184E+05  9.400200E+03 -2.977953E-09 -9.726951E-10
       124  14  1.010299E+05 -2.329192E+06 -2.425851E+05 -1.038788E+03 -1.709902E-09 -1.766221E-09
       124  15 -4.153388E+05 -2.414637E+06 -5.470316E+05  8.892609E+03 -1.047098E-08 -1.359302E-09
       124  16 -2.144394E+04 -2.517023E+06 -2.035046E+05 -4.843437E+03  3.414235E-09 -6.514245E-10
       124  17  7.389270E+04 -2.437439E+06 -2.696723E+05  5.930213E+03 -4.666199E-11  5.016596E-10
       124  18 -4.438949E+05 -2.528209E+06 -5.755056E+05  3.707153E+04  4.325002E-09 -8.399831E-10
       124  19  3.013414E+04 -2.311073E+06 -1.519156E+05  2.364623E+04 -3.305077E+02 -9.545878E+04
       124  20  1.281804E+05 -2.220879E+06 -2.154010E+05 -8.008890E+03 -6.297963E+02 -2.277104E+05
       124  21 -3.867458E+05 -2.300913E+06 -5.183136E+05 -1.929152E+04  1.267873E+02 -3.599659E+05
       124  22  4.346341E+03 -2.414048E+06 -1.777012E+05  9.400225E+03 -3.283588E+02 -9.536142E+04
       124  23  1.010439E+05 -2.329136E+06 -2.424873E+05 -1.038672E+03 -6.323598E+02 -2.276930E+05
       124  24 -4.153039E+05 -2.414498E+06 -5.467870E+05  8.892577E+03  1.105195E+02 -3.600273E+05
       124  25 -2.144149E+04 -2.517013E+06 -2.034875E+05 -4.843411E+03 -3.262140E+02 -9.526408E+04
       124  26  7.390669E+04 -2.437383E+06 -2.695745E+05  5.930329E+03 -6.349233E+02 -2.276756E+05
       124  27 -4.438599E+05 -2.528069E+06 -5.752610E+05  3.707150E+04  9.424341E+01 -3.600885E+05
       125   1  2.742174E+05  8.202466E+04  5.861664E+04  9.764059E+04  4.814158E+04  1.869783E+04
       125   2  2.611056E+05  1.335521E+04  1.389426E+04  1.129785E+05  3.070094E+04  1.315082E+04
       125   3  2.800997E+05  1.825345E+04  2.503525E+03  1.069887E+05  1.365348E+04  6.561553E+03
       125   4  3.478491E+05  1.000191E+05  7.684709E+04  1.076712E+05  4.853113E+04  1.884390E+04
       125   5  3.279008E+05  3.601625E+04  3.151614E+04  1.286000E+05  3.080719E+04  1.319074E+04
       125   6  3.401117E+05  4.563193E+04  1.973839E+04  1.282018E+05  1.347656E+04  6.494934E+03
       125   7  4.214857E+05  1.180132E+05  9.507712E+04  1.177024E+05  4.892074E+04  1.898996E+04
       125   8  3.947002E+05  5.867732E+04  4.913763E+04  1.442229E+05  3.091345E+04  1.323066E+04
       125   9  4.001272E+05  7.301117E+04  3.697294E+04  1.494169E+05  1.329962E+04  6.428305E+03
       125  10  2.742148E+05  8.202367E+04  5.861163E+04  9.763987E+04 -3.785377E-09  2.298895E-09
       125  11  2.611045E+05  1.335477E+04  1.389217E+04  1.129782E+05 -4.950122E-10 -7.678786E-10
       125  12  2.800995E+05  1.825336E+04  2.503094E+03  1.069886E+05  4.582821E-10 -1.053813E-09
       125  13  3.478464E+05  1.000181E+05  7.684200E+04  1.076704E+05  5.106669E-10 -1.919369E-09
       125  14  3.278997E+05  3.601581E+04  3.151403E+04  1.285997E+05  5.716458E-09 -2.025603E-09
       125  15  3.401115E+05  4.563183E+04  1.973797E+04  1.282017E+05  5.961881E-09  2.214308E-09
       125  16  4.214831E+05  1.180122E+05  9.507195E+04  1.177017E+05  7.256879E-10  2.880666E-09
       125  17  3.946991E+05  5.867688E+04  4.913550E+04  1.442225E+05 -2.358213E-09  1.465546E-08
       125  18  4.001270E+05  7.301108E+04  3.697253E+04  1.494169E+05  4.593937E-10  5.740537E-09
       125  19  2.742174E+05  8.202466E+04  5.861664E+04  9.764059E+04 -4.814158E+04 -1.869783E+04
       125  20  2.611056E+05  1.335521E+04  1.389426E+04  1.129785E+05 -3.070094E+04 -1.315082E+04
       125  21  2.800997E+05  1.825345E+04  2.503525E+03  1.069887E+05 -1.365348E+04 -6.561553E+03
       125  22  3.478491E+05  1.000191E+05  7.684709E+04  1.076712E+05 -4.853113E+04 -1.884390E+04
       125  23  3.279008E+05  3.601625E+04  3.151614E+04  1.286000E+05 -3.080719E+04 -1.319074E+04
       125  24  3.401117E+05  4.563193E+04  1.973839E+04  1.282018E+05 -1.347656E+04 -6.494934E+03
       125  25  4.214857E+05  1.180132E+05  9.507712E+04  1.177024E+05 -4.892074E+04 -1.898996E+04
       125  26  3.947002E+05  5.867732E+04  4.913763E+04  1.442229E+05 -3.091345E+04 -1.323066E+04
       125  27  4.001272E+05  7.301117E+04  3.697294E+04  1.494169E+05 -1.329962E+04 -6.428305E+03
       126   1  2.777208E+05  3.313926E+04  2.000603E+02  1.082635E+05  1.056170E+04  5.176292E+03
       126   2  2.763054E+05  2.456724E+04 -8.220649E+03  1.112952E+05  6.637154E+03  3.776164E+03
       126   3  2.806613E+05  2.515686E+04 -1.087471E+04  1.101954E+05  2.760648E+03  2.248713E+03
       126   4  3.375423E+05  5.445495E+04  1.622154E+04  1.232884E+05  1.059862E+04  5.190180E+03
       126   5  3.341180E+05  4.610148E+04  7.429336E+03  1.267762E+05  6.639344E+03  3.776977E+03
       126   6  3.364715E+05  4.691595E+04  4.430865E+03  1.261327E+05  2.728126E+03  2.236448E+03
       126   7  3.973672E+05  7.577074E+04  3.224271E+04  1.383146E+05  1.063554E+04  5.204069E+03
       126   8  3.919338E+05  6.763587E+04  2.307901E+04  1.422585E+05  6.641534E+03  3.777790E+03
       126   9  3.922846E+05  6.867524E+04  1.973613E+04  1.420712E+05  2.695601E+03  2.224182E+03
       126  10  2.777207E+05  3.313920E+04  1.998004E+02  1.082634E+05  6.546627E-09  7.388153E-10
       126  11  2.763054E+05  2.456721E+04 -8.220759E+03  1.112952E+05  5.590920E-09  3.240969E-09
       126  12  2.806613E+05  2.515685E+04 -1.087473E+04  1.101954E+05  2.739913E-09  5.550618E-09
       126  13  3.375422E+05  5.445489E+04  1.622128E+04  1.232883E+05 -3.321023E-09 -1.772312E-09
       126  14  3.341180E+05  4.610145E+04  7.429226E+03  1.267762E+05  5.999066E-10 -1.092641E-08
       126  15  3.364715E+05  4.691594E+04  4.430842E+03  1.261327E+05 -5.104383E-09 -3.701077E-09
       126  16  3.973670E+05  7.577069E+04  3.224245E+04  1.383145E+05 -3.877940E-09  1.034098E-09
       126  17  3.919337E+05  6.763585E+04  2.307890E+04  1.422585E+05 -2.887298E-09 -9.454652E-09
       126  18  3.922846E+05  6.867523E+04  1.973611E+04  1.420712E+05  5.741614E-09 -5.878328E-10
       126  19  2.777208E+05  3.313926E+04  2.000603E+02  1.082635E+05 -1.056170E+04 -5.176292E+03
       126  20  2.763054E+05  2.456724E+04 -8.220649E+03  1.112952E+05 -6.637154E+03 -3.776164E+03
       126  21  2.806613E+05  2.515686E+04 -1.087471E+04  1.101954E+05 -2.760648E+03 -2.248713E+03
       126  22  3.375423E+05  5.445495E+04  1.622154E+04  1.232884E+05 -1.059862E+04 -5.190180E+03
       126  23  3.341180E+05  4.610148E+04  7.429336E+03  1.267762E+05 -6.639344E+03 -3.776977E+03
       126  24  3.364715E+05  4.691595E+04  4.430865E+03  1.261327E+05 -2.728126E+03 -2.236448E+03
       126  25  3.973672E+05  7.577074E+04  3.224271E+04  1.383146E+05 -1.063554E+04 -5.204069E+03
       126  26  3.919338E+05  6.763587E+04  2.307901E+04  1.422585E+05 -6.641534E+03 -3.777790E+03
       126  27  3.922846E+05  6.867524E+04  1.973613E+04  1.420712E+05 -2.695601E+03 -2.224182E+03
       127   1  2.834870E+05  2.846307E+04 -1.072766E+04  1.112887E+05  2.096098E+03  1.944202E+03
       127   2  2.837063E+05  2.809031E+04 -1.220332E+04  1.124818E+05  1.205718E+03  1.574641E+03
       127   3  2.857120E+05  2.806992E+04 -1.260825E+04  1.120662E+05  3.195297E+02  1.193884E+03
       127   4  3.360399E+05  4.815963E+04  3.523336E+03  1.254855E+05  2.089758E+03  1.941805E+03
       127   5  3.350731E+05  4.746631E+04  1.752150E+03  1.264847E+05  1.196286E+03  1.571079E+03
       127   6  3.358933E+05  4.712592E+04  1.054061E+03  1.258753E+05  3.070076E+02  1.189159E+03
       127   7  3.885955E+05  6.785637E+04  1.777411E+04  1.396833E+05  2.083418E+03  1.939407E+03
       127   8  3.864425E+05  6.684249E+04  1.570739E+04  1.404886E+05  1.186853E+03  1.567517E+03
       127   9  3.860770E+05  6.618208E+04  1.471614E+04  1.396853E+05  2.944844E+02  1.184434E+03
       127  10  2.834869E+05  2.846306E+04 -1.072768E+04  1.112887E+05 -3.929967E-09 -5.487937E-10
       127  11  2.837063E+05  2.809031E+04 -1.220332E+04  1.124818E+05 -3.042869E-10 -2.175042E-09
       127  12  2.857120E+05  2.806992E+04 -1.260825E+04  1.120662E+05  1.574829E-09  2.464328E-09
       127  13  3.360399E+05  4.815962E+04  3.523321E+03  1.254855E+05 -3.535164E-09 -1.739072E-09
       127  14  3.350731E+05  4.746631E+04  1.752143E+03  1.264847E+05 -6.609975E-09  1.056663E-09
       127  15  3.358933E+05  4.712592E+04  1.054058E+03  1.258753E+05 -1.171092E-08  6.592478E-09
       127  16  3.885955E+05  6.785637E+04  1.777410E+04  1.396833E+05  1.681302E-09  2.282677E-10
       127  17  3.864425E+05  6.684248E+04  1.570738E+04  1.404886E+05 -4.132687E-10  6.016200E-09
       127  18  3.860770E+05  6.618208E+04  1.471614E+04  1.396853E+05 -2.963722E-09  5.537466E-09
       127  19  2.834870E+05  2.846307E+04 -1.072766E+04  1.112887E+05 -2.096098E+03 -1.944202E+03
       127  20  2.837063E+05  2.809031E+04 -1.220332E+04  1.124818E+05 -1.205718E+03 -1.574641E+03
       127  21  2.857120E+05  2.806992E+04 -1.260825E+04  1.120662E+05 -3.195297E+02 -1.193884E+03
       127  22  3.360399E+05  4.815963E+04  3.523336E+03  1.254855E+05 -2.089758E+03 -1.941805E+03
       127  23  3.350731E+05  4.746631E+04  1.752150E+03  1.264847E+05 -1.196286E+03 -1.571079E+03
       127  24  3.358933E+05  4.712592E+04  1.054061E+03  1.258753E+05 -3.070076E+02 -1.189159E+03
       127  25  3.885955E+05  6.785637E+04  1.777411E+04  1.396833E+05 -2.083418E+03 -1.939407E+03
       127  26  3.864425E+05  6.684249E+04  1.570739E+04  1.404886E+05 -1.186853E+03 -1.567517E+03
       127  27  3.860770E+05  6.618208E+04  1.471614E+04  1.396853E+05 -2.944844E+02 -1.184434E+03
       128   1  2.887873E+05  2.958611E+04 -1.191762E+04  1.130050E+05  1.688481E+02  1.108354E+03
       128   2  2.891742E+05  3.020392E+04 -1.198510E+04  1.138143E+05 -9.188162E+01  9.686562E+02
       128   3  2.906266E+05  3.014098E+04 -1.177992E+04  1.135188E+05 -3.537847E+02  8.320492E+02
       128   4  3.357937E+05  4.732337E+04  8.510693E+02  1.258262E+05  1.586680E+02  1.104513E+03
       128   5  3.352532E+05  4.760858E+04  5.386458E+02  1.263995E+05 -1.012471E+02  9.651227E+02
       128   6  3.357780E+05  4.721284E+04  4.982155E+02  1.258679E+05 -3.623356E+02  8.288234E+02
       128   7  3.828022E+05  6.506072E+04  1.361954E+04  1.386484E+05  1.484871E+02  1.100671E+03
       128   8  3.813343E+05  6.501336E+04  1.306220E+04  1.389856E+05 -1.106134E+02  9.615889E+02
       128   9  3.809315E+05  6.428485E+04  1.277618E+04  1.382178E+05 -3.708872E+02  8.255973E+02
       128  10  2.887873E+05  2.958611E+04 -1.191762E+04  1.130050E+05 -5.820335E-09  2.132492E-09
       128  11  2.891742E+05  3.020392E+04 -1.198510E+04  1.138143E+05  6.382304E-09  8.264610E-09
       128  12  2.906266E+05  3.014098E+04 -1.177992E+04  1.135188E+05  5.852769E-09  4.618615E-09
       128  13  3.357937E+05  4.732337E+04  8.510669E+02  1.258262E+05 -8.648102E-09  2.224735E-09
       128  14  3.352532E+05  4.760858E+04  5.386441E+02  1.263995E+05 -4.261024E-09 -1.617137E-09
       128  15  3.357780E+05  4.721284E+04  4.982140E+02  1.258679E+05  2.790075E-09 -3.325638E-09
       128  16  3.828022E+05  6.506072E+04  1.361954E+04  1.386484E+05 -5.425314E-11  4.531157E-09
       128  17  3.813343E+05  6.501336E+04  1.306220E+04  1.389856E+05 -5.169860E-09 -5.776246E-09
       128  18  3.809315E+05  6.428485E+04  1.277618E+04  1.382178E+05 -5.228367E-09  5.077755E-10
       128  19  2.887873E+05  2.958611E+04 -1.191762E+04  1.130050E+05 -1.688481E+02 -1.108354E+03
       128  20  2.891742E+05  3.020392E+04 -1.198510E+04  1.138143E+05  9.188162E+01 -9.686562E+02
       128  21  2.906266E+05  3.014098E+04 -1.177992E+04  1.135188E+05  3.537847E+02 -8.320492E+02
       128  22  3.357937E+05  4.732337E+04  8.510693E+02  1.258262E+05 -1.586680E+02 -1.104513E+03
       128  23  3.352532E+05  4.760858E+04  5.386458E+02  1.263995E+05  1.012471E+02 -9.651227E+02
       128  24  3.357780E+05  4.721284E+04  4.982155E+02  1.258679E+05  3.623356E+02 -8.288234E+02
       128  25  3.828022E+05  6.506072E+04  1.361954E+04  1.386484E+05 -1.484871E+02 -1.100671E+03
       128  26  3.813343E+05  6.501336E+04  1.306220E+04  1.389856E+05  1.106134E+02 -9.615889E+02
       128  27  3.809315E+05  6.428485E+04  1.277618E+04  1.382178E+05  3.708872E+02 -8.255973E+02
       129   1  2.932820E+05  3.121942E+04 -1.100390E+04  1.143422E+05 -4.315804E+02  7.810993E+02
       129   2  2.935959E+05  3.179802E+04 -1.060823E+04  1.149618E+05 -7.883351E+02  6.107061E+02
       129   3  2.948651E+05  3.196116E+04 -9.841731E+03  1.146347E+05 -1.146468E+03  4.439631E+02
       129   4  3.357485E+05  4.723537E+04  5.299099E+02  1.259168E+05 -4.405896E+02  7.777016E+02
       129   5  3.352857E+05  4.754738E+04  7.230514E+02  1.263509E+05 -7.963837E+02  6.076709E+02
       129   6  3.357779E+05  4.744374E+04  1.286245E+03  1.258383E+05 -1.153555E+03  4.412905E+02
       129   7  3.782166E+05  6.325142E+04  1.206356E+04  1.374921E+05 -4.495995E+02  7.743036E+02
       129   8  3.769770E+05  6.329683E+04  1.205417E+04  1.377406E+05 -8.044329E+02  6.046355E+02
       129   9  3.766922E+05  6.292640E+04  1.241405E+04  1.370426E+05 -1.160643E+03  4.386178E+02
       129  10  2.932820E+05  3.121942E+04 -1.100391E+04  1.143422E+05  2.564550E-09 -2.807562E-09
       129  11  2.935959E+05  3.179802E+04 -1.060823E+04  1.149618E+05  4.255634E-09 -5.093170E-10
       129  12  2.948651E+05  3.196116E+04 -9.841734E+03  1.146347E+05 -6.386434E-09  7.569725E-09
       129  13  3.357485E+05  4.723537E+04  5.299084E+02  1.259168E+05  2.568087E-10 -6.951387E-10
       129  14  3.352857E+05  4.754738E+04  7.230495E+02  1.263509E+05 -3.224706E-09  1.301870E-09
       129  15  3.357779E+05  4.744374E+04  1.286242E+03  1.258383E+05 -8.327915E-09 -1.600452E-09
       129  16  3.782166E+05  6.325142E+04  1.206356E+04  1.374921E+05 -4.901322E-10  3.484072E-09
       129  17  3.769770E+05  6.329682E+04  1.205417E+04  1.377406E+05 -3.369501E-10  8.360756E-10
       129  18  3.766922E+05  6.292640E+04  1.241405E+04  1.370426E+05  7.079015E-11 -3.839220E-09
       129  19  2.932820E+05  3.121942E+04 -1.100390E+04  1.143422E+05  4.315804E+02 -7.810993E+02
       129  20  2.935959E+05  3.179802E+04 -1.060823E+04  1.149618E+05  7.883351E+02 -6.107061E+02
       129  21  2.948651E+05  3.196116E+04 -9.841731E+03  1.146347E+05  1.146468E+03 -4.439631E+02
       129  22  3.357485E+05  4.723537E+04  5.299099E+02  1.259168E+05  4.405896E+02 -7.777016E+02
       129  23  3.352857E+05  4.754738E+04  7.230514E+02  1.263509E+05  7.963837E+02 -6.076709E+02
       129  24  3.357779E+05  4.744374E+04  1.286245E+03  1.258383E+05  1.153555E+03 -4.412905E+02
       129  25  3.782166E+05  6.325142E+04  1.206356E+04  1.374921E+05  4.495995E+02 -7.743036E+02
       129  26  3.769770E+05  6.329683E+04  1.205417E+04  1.377406E+05  8.044329E+02 -6.046355E+02
       129  27  3.766922E+05  6.292640E+04  1.241405E+04  1.370426E+05  1.160643E+03 -4.386178E+02
       130   1  2.970104E+05  3.270830E+04 -8.889481E+03  1.155845E+05 -1.383406E+03  3.386367E+02
       130   2  2.970453E+05  3.276159E+04 -7.576000E+03  1.159002E+05 -2.809061E+03 -2.269126E+02
       130   3  2.987699E+05  3.453407E+04 -4.557484E+03  1.149501E+05 -4.233415E+03 -7.960227E+02
       130   4  3.358422E+05  4.721908E+04  1.630848E+03  1.260306E+05 -1.389787E+03  3.362311E+02
       130   5  3.351150E+05  4.719180E+04  2.780713E+03  1.263501E+05 -2.816484E+03 -2.297108E+02
       130   6  3.360776E+05  4.888384E+04  5.636360E+03  1.254038E+05 -4.241878E+03 -7.992134E+02
       130   7  3.746756E+05  6.172996E+04  1.215106E+04  1.364773E+05 -1.396168E+03  3.338253E+02
       130   8  3.731861E+05  6.162211E+04  1.313731E+04  1.368005E+05 -2.823908E+03 -2.325091E+02
       130   9  3.733866E+05  6.323372E+04  1.583008E+04  1.358580E+05 -4.250341E+03 -8.024044E+02
       130  10  2.970104E+05  3.270830E+04 -8.889484E+03  1.155845E+05  9.623599E-10  6.994641E-09
       130  11  2.970452E+05  3.276159E+04 -7.576015E+03  1.159002E+05  3.289953E-09 -1.380536E-09
       130  12  2.987699E+05  3.453406E+04 -4.557519E+03  1.149501E+05  5.235467E-11  1.383810E-09
       130  13  3.358422E+05  4.721908E+04  1.630844E+03  1.260306E+05  2.751630E-09 -2.284812E-09
       130  14  3.351149E+05  4.719180E+04  2.780698E+03  1.263501E+05 -4.583940E-09 -2.997362E-11
       130  15  3.360776E+05  4.888384E+04  5.636325E+03  1.254038E+05  7.121565E-10  5.172710E-09
       130  16  3.746756E+05  6.172996E+04  1.215105E+04  1.364773E+05 -5.521789E-09 -1.309672E-09
       130  17  3.731861E+05  6.162211E+04  1.313729E+04  1.368005E+05 -5.307478E-10  4.877165E-09
       130  18  3.733866E+05  6.323371E+04  1.583004E+04  1.358580E+05 -4.727807E-09 -5.639520E-10
       130  19  2.970104E+05  3.270830E+04 -8.889481E+03  1.155845E+05  1.383406E+03 -3.386367E+02
       130  20  2.970453E+05  3.276159E+04 -7.576000E+03  1.159002E+05  2.809061E+03  2.269126E+02
       130  21  2.987699E+05  3.453407E+04 -4.557484E+03  1.149501E+05  4.233415E+03  7.960227E+02
       130  22  3.358422E+05  4.721908E+04  1.630848E+03  1.260306E+05  1.389787E+03 -3.362311E+02
       130  23  3.351150E+05  4.719180E+04  2.780713E+03  1.263501E+05  2.816484E+03  2.297108E+02
       130  24  3.360776E+05  4.888384E+04  5.636360E+03  1.254038E+05  4.241878E+03  7.992134E+02
       130  25  3.746756E+05  6.172996E+04  1.215106E+04  1.364773E+05  1.396168E+03 -3.338253E+02
       130  26  3.731861E+05  6.162211E+04  1.313731E+04  1.368005E+05  2.823908E+03  2.325091E+02
       130  27  3.733866E+05  6.323372E+04  1.583008E+04  1.358580E+05  4.250341E+03  8.024044E+02
       131   1  3.001680E+05  3.427159E+04 -2.609477E+03  1.176863E+05 -5.294737E+03 -1.198442E+03
       131   2  2.988320E+05  3.119568E+04  2.340252E+03  1.166301E+05 -1.158324E+04 -3.582572E+03
       131   3  3.051199E+05  4.445034E+04  1.656856E+04  1.107813E+05 -1.784991E+04 -6.024899E+03
       131   4  3.366690E+05  4.698635E+04  7.096675E+03  1.265564E+05 -5.291245E+03 -1.197120E+03
       131   5  3.337113E+05  4.487407E+04  1.191789E+04  1.266741E+05 -1.159579E+04 -3.587308E+03
       131   6  3.383803E+05  5.909494E+04  2.602999E+04  1.219992E+05 -1.787849E+04 -6.035728E+03
       131   7  3.731711E+05  5.970112E+04  1.680270E+04  1.354268E+05 -5.287754E+03 -1.195798E+03
       131   8  3.685917E+05  5.855257E+04  2.149541E+04  1.367185E+05 -1.160834E+04 -3.592045E+03
       131   9  3.716419E+05  7.373975E+04  3.549133E+04  1.332177E+05 -1.790707E+04 -6.046558E+03
       131  10  3.001680E+05  3.427158E+04 -2.609532E+03  1.176863E+05  3.468587E-10  9.028425E-10
       131  11  2.988318E+05  3.119563E+04  2.339976E+03  1.166301E+05 -3.687156E-09  5.679312E-10
       131  12  3.051195E+05  4.445022E+04  1.656790E+04  1.107812E+05 -1.113400E-11 -3.171889E-09
       131  13  3.366689E+05  4.698634E+04  7.096620E+03  1.265564E+05  2.775041E-09 -7.441011E-10
       131  14  3.337111E+05  4.487402E+04  1.191761E+04  1.266740E+05  4.825583E-09 -6.118596E-10
       131  15  3.383800E+05  5.909482E+04  2.602932E+04  1.219991E+05 -5.805954E-09  5.134404E-10
       131  16  3.731711E+05  5.970111E+04  1.680264E+04  1.354268E+05 -3.724664E-09 -1.235093E-09
       131  17  3.685916E+05  5.855252E+04  2.149513E+04  1.367185E+05  9.779987E-09 -9.525715E-10
       131  18  3.716416E+05  7.373962E+04  3.549065E+04  1.332177E+05 -6.443140E-10 -2.285514E-09
       131  19  3.001680E+05  3.427159E+04 -2.609477E+03  1.176863E+05  5.294737E+03  1.198442E+03
       131  20  2.988320E+05  3.119568E+04  2.340252E+03  1.166301E+05  1.158324E+04  3.582572E+03
       131  21  3.051199E+05  4.445034E+04  1.656856E+04  1.107813E+05  1.784991E+04  6.024899E+03
       131  22  3.366690E+05  4.698635E+04  7.096675E+03  1.265564E+05  5.291245E+03  1.197120E+03
       131  23  3.337113E+05  4.487407E+04  1.191789E+04  1.266741E+05  1.159579E+04  3.587308E+03
       131  24  3.383803E+05  5.909494E+04  2.602999E+04  1.219992E+05  1.787849E+04  6.035728E+03
       131  25  3.731711E+05  5.970112E+04  1.680270E+04  1.354268E+05  5.287754E+03  1.195798E+03
       131  26  3.685917E+05  5.855257E+04  2.149541E+04  1.367185E+05  1.160834E+04  3.592045E+03
       131  27  3.716419E+05  7.373975E+04  3.549133E+04  1.332177E+05  1.790707E+04  6.046558E+03
       132   1  3.035449E+05  3.786148E+04  2.260120E+04  1.270862E+05 -2.270980E+04 -7.778858E+03
       132   2  2.938267E+05  1.306258E+04  4.161349E+04  1.169861E+05 -5.049394E+04 -1.820360E+04
       132   3  3.335099E+05  1.085462E+05  1.143673E+05  7.510222E+04 -7.809601E+04 -2.911150E+04
       132   4  3.424126E+05  4.502414E+04  3.167519E+04  1.299874E+05 -2.263895E+04 -7.751862E+03
       132   5  3.238723E+05  2.855255E+04  5.058442E+04  1.294462E+05 -5.055503E+04 -1.822700E+04
       132   6  3.547568E+05  1.323851E+05  1.233376E+05  9.712240E+04 -7.828852E+04 -2.918640E+04
       132   7  3.812819E+05  5.218680E+04  4.074912E+04  1.328887E+05 -2.256809E+04 -7.724867E+03
       132   8  3.539189E+05  4.404279E+04  5.955524E+04  1.419070E+05 -5.061612E+04 -1.825041E+04
       132   9  3.760046E+05  1.562257E+05  1.323079E+05  1.191435E+05 -7.848103E+04 -2.926132E+04
       132  10  3.035444E+05  3.786127E+04  2.260012E+04  1.270860E+05  6.097763E-09  3.422034E-09
       132  11  2.938238E+05  1.306154E+04  4.160807E+04  1.169854E+05 -1.461955E-08 -2.438646E-09
       132  12  3.335032E+05  1.085437E+05  1.143542E+05  7.510039E+04 -3.694268E-09 -3.562994E-10
       132  13  3.424120E+05  4.502394E+04  3.167411E+04  1.299873E+05 -2.901286E-10 -7.782256E-10
       132  14  3.238695E+05  2.855150E+04  5.057899E+04  1.294455E+05  4.304153E-09 -2.842943E-09
       132  15  3.547500E+05  1.323826E+05  1.233245E+05  9.712056E+04 -2.842669E-09  3.905872E-10
       132  16  3.812813E+05  5.218660E+04  4.074805E+04  1.328886E+05 -4.034150E-09  3.018990E-09
       132  17  3.539160E+05  4.404174E+04  5.954980E+04  1.419062E+05 -3.338347E-10  6.038951E-09
       132  18  3.759978E+05  1.562231E+05  1.322947E+05  1.191416E+05  1.246934E-09  2.326710E-09
       132  19  3.035449E+05  3.786148E+04  2.260120E+04  1.270862E+05  2.270980E+04  7.778858E+03
       132  20  2.938267E+05  1.306258E+04  4.161349E+04  1.169861E+05  5.049394E+04  1.820360E+04
       132  21  3.335099E+05  1.085462E+05  1.143673E+05  7.510222E+04  7.809601E+04  2.911150E+04
       132  22  3.424126E+05  4.502414E+04  3.167519E+04  1.299874E+05  2.263895E+04  7.751862E+03
       132  23  3.238723E+05  2.855255E+04  5.058442E+04  1.294462E+05  5.055503E+04  1.822700E+04
       132  24  3.547568E+05  1.323851E+05  1.233376E+05  9.712240E+04  7.828852E+04  2.918640E+04
       132  25  3.812819E+05  5.218680E+04  4.074912E+04  1.328887E+05  2.256809E+04  7.724867E+03
       132  26  3.539189E+05  4.404279E+04  5.955524E+04  1.419070E+05  5.061612E+04  1.825041E+04
       132  27  3.760046E+05  1.562257E+05  1.323079E+05  1.191435E+05  7.848103E+04  2.926132E+04
       133   1 -1.263724E+02 -4.469585E+05 -1.528829E+03 -8.081160E+01 -3.321353E+01  1.120240E+02
       133   2 -3.390750E+02 -4.478762E+05 -2.092178E+03  1.610302E+02 -6.407919E+01  9.663265E+02
       133   3 -8.696809E+02 -4.489861E+05 -3.291788E+03 -1.654903E+02 -1.102739E+02  1.820625E+03
       133   4 -7.872600E-01 -4.464453E+05 -1.414919E+03 -1.262331E+02 -3.322841E+01  1.270388E+02
       133   5  3.754615E+01 -4.463484E+05 -1.737654E+03  1.578276E+02 -6.410423E+01  9.916385E+02
       133   6 -2.438078E+02 -4.464455E+05 -2.703800E+03 -1.264734E+02 -1.103089E+02  1.856235E+03
       133   7  1.247979E+02 -4.459321E+05 -1.301010E+03 -1.716547E+02 -3.324329E+01  1.420536E+02
       133   8  4.141672E+02 -4.448206E+05 -1.383131E+03  1.546249E+02 -6.412927E+01  1.016951E+03
       133   9  3.820649E+02 -4.439049E+05 -2.115813E+03 -8.745635E+01 -1.103440E+02  1.891846E+03
       133  10 -1.263724E+02 -4.469585E+05 -1.528829E+03 -8.081160E+01 -3.796891E-09 -6.166641E-09
       133  11 -3.390753E+02 -4.478762E+05 -2.092180E+03  1.610302E+02 -9.223520E-10 -2.484993E-09
       133  12 -8.696818E+02 -4.489861E+05 -3.291794E+03 -1.654902E+02  2.742012E-09  5.017491E-11
       133  13 -7.872655E-01 -4.464453E+05 -1.414919E+03 -1.262331E+02 -5.697279E-09  2.183944E-09
       133  14  3.754588E+01 -4.463484E+05 -1.737656E+03  1.578276E+02 -7.082051E-09 -3.253165E-09
       133  15 -2.438087E+02 -4.464455E+05 -2.703807E+03 -1.264733E+02  1.220870E-09 -1.862350E-09
       133  16  1.247979E+02 -4.459321E+05 -1.301010E+03 -1.716547E+02 -8.142903E-09  8.321124E-09
       133  17  4.141669E+02 -4.448206E+05 -1.383133E+03  1.546250E+02  3.403296E-10  6.543306E-09
       133  18  3.820639E+02 -4.439049E+05 -2.115820E+03 -8.745618E+01 -3.544776E-09  8.232852E-10
       133  19 -1.263724E+02 -4.469585E+05 -1.528829E+03 -8.081160E+01  3.321353E+01 -1.120240E+02
       133  20 -3.390750E+02 -4.478762E+05 -2.092178E+03  1.610302E+02  6.407919E+01 -9.663265E+02
       133  21 -8.696809E+02 -4.489861E+05 -3.291788E+03 -1.654903E+02  1.102739E+02 -1.820625E+03
       133  22 -7.872599E-01 -4.464453E+05 -1.414919E+03 -1.262331E+02  3.322841E+01 -1.270388E+02
       133  23  3.754615E+01 -4.463484E+05 -1.737654E+03  1.578276E+02  6.410423E+01 -9.916385E+02
       133  24 -2.438078E+02 -4.464455E+05 -2.703800E+03 -1.264734E+02  1.103089E+02 -1.856235E+03
       133  25  1.247979E+02 -4.459321E+05 -1.301010E+03 -1.716547E+02  3.324329E+01 -1.420536E+02
       133  26  4.141672E+02 -4.448206E+05 -1.383131E+03  1.546249E+02  6.412927E+01 -1.016951E+03
       133  27  3.820649E+02 -4.439049E+05 -2.115813E+03 -8.745635E+01  1.103440E+02 -1.891846E+03
       134   1 -7.022423E+02 -4.502510E+05 -4.218924E+03  3.945561E+02 -1.421464E+02  2.358718E+03
       134   2 -8.194852E+02 -4.506257E+05 -6.685823E+03 -1.048390E+02 -1.905027E+02  5.216302E+03
       134   3 -4.540118E+03 -4.522751E+05 -1.191526E+04 -1.172881E+03 -2.281219E+02  8.073884E+03
       134   4  1.786878E+02 -4.466852E+05 -3.387953E+03 -1.254014E+02 -1.421821E+02  2.392916E+03
       134   5  3.083591E+02 -4.460491E+05 -5.622330E+03  1.572763E+02 -1.905270E+02  5.243303E+03
       134   6 -3.164095E+03 -4.466865E+05 -1.061423E+04 -1.286931E+02 -2.281276E+02  8.093692E+03
       134   7  1.059618E+03 -4.431195E+05 -2.556982E+03 -6.453620E+02 -1.422179E+02  2.427114E+03
       134   8  1.436202E+03 -4.414725E+05 -4.558838E+03  4.193936E+02 -1.905513E+02  5.270304E+03
       134   9 -1.788070E+03 -4.410978E+05 -9.313194E+03  9.155043E+02 -2.281333E+02  8.113501E+03
       134  10 -7.022438E+02 -4.502510E+05 -4.218934E+03  3.945564E+02  1.327008E-08 -3.119815E-09
       134  11 -8.194926E+02 -4.506257E+05 -6.685874E+03 -1.048382E+02  6.285352E-09 -3.879208E-09
       134  12 -4.540135E+03 -4.522752E+05 -1.191538E+04 -1.172880E+03 -3.417793E-09  2.928197E-10
       134  13  1.786862E+02 -4.466853E+05 -3.387964E+03 -1.254012E+02  5.861366E-09 -2.147817E-09
       134  14  3.083516E+02 -4.460492E+05 -5.622382E+03  1.572771E+02  5.182662E-09 -1.590057E-09
       134  15 -3.164113E+03 -4.466866E+05 -1.061435E+04 -1.286916E+02 -1.126135E-08 -3.931765E-09
       134  16  1.059616E+03 -4.431195E+05 -2.556994E+03 -6.453617E+02  2.515580E-09  2.529465E-09
       134  17  1.436195E+03 -4.414726E+05 -4.558891E+03  4.193944E+02  5.567514E-09  4.487501E-09
       134  18 -1.788088E+03 -4.410979E+05 -9.313318E+03  9.155058E+02 -1.045666E-09  9.514269E-10
       134  19 -7.022423E+02 -4.502510E+05 -4.218924E+03  3.945561E+02  1.421464E+02 -2.358718E+03
       134  20 -8.194852E+02 -4.506257E+05 -6.685823E+03 -1.048390E+02  1.905027E+02 -5.216302E+03
       134  21 -4.540118E+03 -4.522751E+05 -1.191526E+04 -1.172881E+03  2.281219E+02 -8.073884E+03
       134  22  1.786878E+02 -4.466852E+05 -3.387953E+03 -1.254014E+02  1.421821E+02 -2.392916E+03
       134  23  3.083591E+02 -4.460491E+05 -5.622330E+03  1.572763E+02  1.905270E+02 -5.243303E+03
       134  24 -3.164095E+03 -4.466865E+05 -1.061423E+04 -1.286931E+02  2.281276E+02 -8.093692E+03
       134  25  1.059618E+03 -4.431195E+05 -2.556982E+03 -6.453620E+02  1.422179E+02 -2.427114E+03
       134  26  1.436202E+03 -4.414725E+05 -4.558838E+03  4.193936E+02  1.905513E+02 -5.270304E+03
       134  27 -1.788070E+03 -4.410978E+05 -9.313194E+03  9.155043E+02  2.281333E+02 -8.113501E+03
       135   1  5.101807E+02 -4.557596E+05 -1.465227E+04  5.591819E+03 -2.845579E+02  9.968230E+03
       135   2  1.491840E+03 -4.505684E+05 -2.330005E+04 -4.623232E+03 -3.162557E+02  2.164269E+04
       135   3 -4.119590E+04 -4.578189E+05 -5.046979E+04 -1.542360E+04 -1.313547E+02  3.331721E+04
       135   4  2.150615E+03 -4.491609E+05 -1.311919E+04 -1.185498E+02 -2.847342E+02  1.005460E+04
       135   5  3.358075E+03 -4.429571E+05 -2.152762E+04  1.541130E+02 -3.160306E+02  2.158345E+04
       135   6 -3.907869E+04 -4.491698E+05 -4.835674E+04 -1.588306E+02 -1.303347E+02  3.311237E+04
       135   7  3.791169E+03 -4.425620E+05 -1.158609E+04 -5.828980E+03 -2.849122E+02  1.014096E+04
       135   8  5.224393E+03 -4.353456E+05 -1.975518E+04  4.931517E+03 -3.158064E+02  2.152420E+04
       135   9 -3.696062E+04 -4.405201E+05 -4.624357E+04  1.510615E+04 -1.293247E+02  3.290752E+04
       135  10  5.101539E+02 -4.557597E+05 -1.465246E+04  5.591822E+03 -3.715639E-09  1.204669E-08
       135  11  1.491714E+03 -4.505689E+05 -2.330093E+04 -4.623227E+03  3.211184E-09 -1.239693E-09
       135  12 -4.119620E+04 -4.578201E+05 -5.047187E+04 -1.542359E+04 -2.013049E-10 -9.666260E-09
       135  13  2.150588E+03 -4.491610E+05 -1.311938E+04 -1.185475E+02 -1.689744E-09 -2.132424E-09
       135  14  3.357950E+03 -4.429576E+05 -2.152849E+04  1.541185E+02 -4.610243E-09 -6.864111E-10
       135  15 -3.907899E+04 -4.491710E+05 -4.835880E+04 -1.588271E+02  7.185635E-10 -9.032949E-10
       135  16  3.791141E+03 -4.425621E+05 -1.158628E+04 -5.828978E+03 -2.362967E-09 -1.311081E-08
       135  17  5.224268E+03 -4.353461E+05 -1.975605E+04  4.931523E+03  3.199044E-09  2.278824E-10
       135  18 -3.696091E+04 -4.405213E+05 -4.624560E+04  1.510615E+04  1.235070E-09  9.849723E-09
       135  19  5.101807E+02 -4.557596E+05 -1.465227E+04  5.591819E+03  2.845579E+02 -9.968230E+03
       135  20  1.491840E+03 -4.505684E+05 -2.330005E+04 -4.623232E+03  3.162557E+02 -2.164269E+04
       135  21 -4.119590E+04 -4.578189E+05 -5.046979E+04 -1.542360E+04  1.313547E+02 -3.331721E+04
       135  22  2.150615E+03 -4.491609E+05 -1.311919E+04 -1.185498E+02  2.847342E+02 -1.005460E+04
       135  23  3.358075E+03 -4.429571E+05 -2.152762E+04  1.541130E+02  3.160306E+02 -2.158345E+04
       135  24 -3.907869E+04 -4.491698E+05 -4.835674E+04 -1.588306E+02  1.303347E+02 -3.311237E+04
       135  25  3.791169E+03 -4.425620E+05 -1.158609E+04 -5.828980E+03  2.849122E+02 -1.014096E+04
       135  26  5.224393E+03 -4.353456E+05 -1.975518E+04  4.931517E+03  3.158064E+02 -2.152420E+04
       135  27 -3.696062E+04 -4.405201E+05 -4.624357E+04  1.510615E+04  1.293247E+02 -3.290752E+04
       136   1 -1.150521E+07 -3.774248E+06 -2.073445E+06 -3.966645E+06 -5.697179E+05 -1.012957E+05
       136   2 -1.130817E+07 -3.390904E+06 -1.670055E+06 -3.895045E+06 -3.984881E+05  2.470384E+05
       136   3 -1.116826E+07 -3.262359E+06 -1.522864E+06 -3.824926E+06 -1.506939E+05  4.023446E+05
       136   4 -4.836380E+06 -1.062240E+06 -2.636138E+05 -1.966057E+06 -2.104215E+05  4.015022E+04
       136   5 -4.813016E+06 -8.566595E+05 -1.186762E+05 -2.003854E+06 -2.429553E+05  3.076026E+05
       136   6 -4.804563E+06 -8.634025E+05 -6.438318E+04 -2.043355E+06 -1.994654E+05  3.829319E+05
       136   7  1.876553E+06  1.654287E+06  1.542718E+06  5.491280E+04  1.532237E+05  1.834656E+05
       136   8  1.725095E+06  1.681650E+06  1.429750E+06 -9.395767E+04 -8.560806E+04  3.689061E+05
       136   9  1.600652E+06  1.538911E+06  1.391431E+06 -2.447114E+05 -2.487925E+05  3.633113E+05
       136  10 -1.150556E+07 -3.774348E+06 -2.074086E+06 -3.966692E+06  6.797910E-09 -2.041150E-09
       136  11 -1.130836E+07 -3.391012E+06 -1.670470E+06 -3.894965E+06 -3.727310E-11 -3.802987E-09
       136  12 -1.116833E+07 -3.262539E+06 -1.523209E+06 -3.824877E+06  2.995645E-09 -4.452881E-10
       136  13 -4.836428E+06 -1.062253E+06 -2.637005E+05 -1.966050E+06  9.831061E-09  9.662604E-10
       136  14 -4.813104E+06 -8.567765E+05 -1.189644E+05 -2.003794E+06 -6.992147E-09  1.843569E-08
       136  15 -4.804645E+06 -8.635701E+05 -6.473260E+04 -2.043294E+06 -1.849418E-09 -1.525111E-08
       136  16  1.876519E+06  1.654245E+06  1.542611E+06  5.489023E+04  6.235162E-09  4.383973E-09
       136  17  1.725051E+06  1.681503E+06  1.429481E+06 -9.393232E+04 -3.489080E-09 -6.823251E-09
       136  18  1.600550E+06  1.538753E+06  1.391067E+06 -2.446388E+05 -4.244384E-09 -3.889177E-09
       136  19 -1.150521E+07 -3.774248E+06 -2.073445E+06 -3.966645E+06  5.697179E+05  1.012957E+05
       136  20 -1.130817E+07 -3.390904E+06 -1.670055E+06 -3.895045E+06  3.984881E+05 -2.470384E+05
       136  21 -1.116826E+07 -3.262359E+06 -1.522864E+06 -3.824926E+06  1.506939E+05 -4.023446E+05
       136  22 -4.836380E+06 -1.062240E+06 -2.636138E+05 -1.966057E+06  2.104215E+05 -4.015022E+04
       136  23 -4.813016E+06 -8.566595E+05 -1.186762E+05 -2.003854E+06  2.429553E+05 -3.076026E+05
       136  24 -4.804563E+06 -8.634025E+05 -6.438318E+04 -2.043355E+06  1.994654E+05 -3.829319E+05
       136  25  1.876553E+06  1.654287E+06  1.542718E+06  5.491280E+04 -1.532237E+05 -1.834656E+05
       136  26  1.725095E+06  1.681650E+06  1.429750E+06 -9.395767E+04  8.560806E+04 -3.689061E+05
       136  27  1.600652E+06  1.538911E+06  1.391431E+06 -2.447114E+05  2.487925E+05 -3.633113E+05
       137   1 -1.096519E+07 -3.232894E+06 -1.476462E+06 -3.789194E+06 -1.850414E+05  3.652252E+05
       137   2 -1.076229E+07 -3.089703E+06 -1.388027E+06 -3.681035E+06 -1.587841E+05  3.710965E+05
       137   3 -1.049192E+07 -3.017914E+06 -1.317857E+06 -3.638758E+06 -1.286436E+05  3.666804E+05
       137   4 -4.792944E+06 -8.811627E+05 -5.038110E+04 -2.038011E+06 -1.837219E+05  3.653529E+05
       137   5 -4.826388E+06 -8.407249E+05 -2.765703E+04 -2.007118E+06 -1.682108E+05  3.670911E+05
       137   6 -4.790185E+06 -8.693779E+05 -1.443719E+04 -2.042082E+06 -1.488471E+05  3.585889E+05
       137   7  1.418250E+06  1.473903E+06  1.373123E+06 -2.704847E+05 -1.823885E+05  3.654891E+05
       137   8  1.145539E+06  1.411268E+06  1.330364E+06 -3.182033E+05 -1.777385E+05  3.630496E+05
       137   9  9.447537E+05  1.281855E+06  1.286823E+06 -4.316946E+05 -1.692570E+05  3.504208E+05
       137  10 -1.096527E+07 -3.233046E+06 -1.476776E+06 -3.789140E+06 -6.733064E-09 -4.699303E-09
       137  11 -1.076235E+07 -3.089857E+06 -1.388332E+06 -3.680987E+06 -1.137716E-08  3.762211E-09
       137  12 -1.049198E+07 -3.018063E+06 -1.318140E+06 -3.638720E+06 -4.445208E-09  5.821396E-09
       137  13 -4.793016E+06 -8.813146E+05 -5.069456E+04 -2.037957E+06  4.583403E-11  5.652474E-10
       137  14 -4.826454E+06 -8.408768E+05 -2.796262E+04 -2.007069E+06  1.353813E-09 -1.171397E-08
       137  15 -4.790243E+06 -8.695215E+05 -1.471971E+04 -2.042039E+06 -3.017866E-09  4.147664E-09
       137  16  1.418179E+06  1.473751E+06  1.372810E+06 -2.704312E+05  3.081249E-10  1.041223E-08
       137  17  1.145470E+06  1.411119E+06  1.330058E+06 -3.181515E+05  3.698432E-09  3.661438E-09
       137  18  9.446902E+05  1.281716E+06  1.286539E+06 -4.316470E+05  3.323715E-09 -2.135893E-09
       137  19 -1.096519E+07 -3.232894E+06 -1.476462E+06 -3.789194E+06  1.850414E+05 -3.652252E+05
       137  20 -1.076229E+07 -3.089703E+06 -1.388027E+06 -3.681035E+06  1.587841E+05 -3.710965E+05
       137  21 -1.049192E+07 -3.017914E+06 -1.317857E+06 -3.638758E+06  1.286436E+05 -3.666804E+05
       137  22 -4.792944E+06 -8.811627E+05 -5.038110E+04 -2.038011E+06  1.837219E+05 -3.653529E+05
       137  23 -4.826388E+06 -8.407249E+05 -2.765703E+04 -2.007118E+06  1.682108E+05 -3.670911E+05
       137  24 -4.790185E+06 -8.693779E+05 -1.443719E+04 -2.042082E+06  1.488471E+05 -3.585889E+05
       137  25  1.418250E+06  1.473903E+06  1.373123E+06 -2.704847E+05  1.823885E+05 -3.654891E+05
       137  26  1.145539E+06  1.411268E+06  1.330364E+06 -3.182033E+05  1.777385E+05 -3.630496E+05
       137  27  9.447537E+05  1.281855E+06  1.286823E+06 -4.316946E+05  1.692570E+05 -3.504208E+05
       138   1 -1.029294E+07 -2.943603E+06 -1.267742E+06 -3.583595E+06 -1.239084E+05  3.558429E+05
       138   2 -1.005709E+07 -2.795810E+06 -1.199608E+06 -3.460407E+06 -1.120218E+05  3.395686E+05
       138   3 -9.740567E+06 -2.719691E+06 -1.132833E+06 -3.417194E+06 -9.977740E+04  3.219989E+05
       138   4 -4.787507E+06 -8.718882E+05 -1.107133E+04 -2.044222E+06 -1.424923E+05  3.484169E+05
       138   5 -4.827200E+06 -8.345380E+05 -7.006759E+03 -2.004656E+06 -1.319320E+05  3.317042E+05
       138   6 -4.786042E+06 -8.685346E+05 -3.235544E+03 -2.045049E+06 -1.210184E+05  3.137009E+05
       138   7  7.489488E+05  1.202357E+06  1.243612E+06 -4.920685E+05 -1.612597E+05  3.409228E+05
       138   8  4.306448E+05  1.128967E+06  1.183800E+06 -5.374434E+05 -1.520286E+05  3.237707E+05
       138   9  1.935304E+05  9.845781E+05  1.124749E+06 -6.626878E+05 -1.424473E+05  3.053334E+05
       138  10 -1.029299E+07 -2.943743E+06 -1.268008E+06 -3.583560E+06  1.960083E-09  7.874147E-09
       138  11 -1.005713E+07 -2.795937E+06 -1.199847E+06 -3.460376E+06  1.474815E-09 -5.701362E-09
       138  12 -9.740605E+06 -2.719805E+06 -1.133046E+06 -3.417168E+06 -6.873489E-09 -6.921251E-10
       138  13 -4.787561E+06 -8.720236E+05 -1.133690E+04 -2.044182E+06 -9.282117E-10  1.206407E-09
       138  14 -4.827248E+06 -8.346605E+05 -7.245596E+03 -2.004621E+06  5.776667E-09  2.909753E-09
       138  15 -4.786084E+06 -8.686439E+05 -3.447429E+03 -2.045019E+06  5.426154E-10  1.346977E-09
       138  16  7.488898E+05  1.202225E+06  1.243345E+06 -4.920244E+05 -3.737072E-09 -3.901224E-09
       138  17  4.305920E+05  1.128849E+06  1.183560E+06 -5.374039E+05  1.588701E-10  7.608645E-09
       138  18  1.934838E+05  9.844728E+05  1.124536E+06 -6.626529E+05  7.225123E-09  2.422036E-09
       138  19 -1.029294E+07 -2.943603E+06 -1.267742E+06 -3.583595E+06  1.239084E+05 -3.558429E+05
       138  20 -1.005709E+07 -2.795810E+06 -1.199608E+06 -3.460407E+06  1.120218E+05 -3.395686E+05
       138  21 -9.740567E+06 -2.719691E+06 -1.132833E+06 -3.417194E+06  9.977740E+04 -3.219989E+05
       138  22 -4.787507E+06 -8.718882E+05 -1.107133E+04 -2.044222E+06  1.424923E+05 -3.484169E+05
       138  23 -4.827200E+06 -8.345380E+05 -7.006759E+03 -2.004656E+06  1.319320E+05 -3.317042E+05
       138  24 -4.786042E+06 -8.685346E+05 -3.235544E+03 -2.045049E+06  1.210184E+05 -3.137009E+05
       138  25  7.489488E+05  1.202357E+06  1.243612E+06 -4.920685E+05  1.612597E+05 -3.409228E+05
       138  26  4.306448E+05  1.128967E+06  1.183800E+06 -5.374434E+05  1.520286E+05 -3.237707E+05
       138  27  1.935304E+05  9.845781E+05  1.124749E+06 -6.626878E+05  1.424473E+05 -3.053334E+05
       139   1 -9.516748E+06 -2.635064E+06 -1.079022E+06 -3.355336E+06 -9.410888E+04  3.105861E+05
       139   2 -9.250051E+06 -2.474055E+06 -1.007948E+06 -3.220291E+06 -8.427768E+04  2.903398E+05
       139   3 -8.896872E+06 -2.392398E+06 -9.365394E+05 -3.175749E+06 -7.429995E+04  2.693587E+05
       139   4 -4.784247E+06 -8.700562E+05 -2.587546E+03 -2.047251E+06 -1.159813E+05  3.020921E+05
       139   5 -4.826858E+06 -8.290416E+05 -2.131470E+03 -2.002340E+06 -1.069066E+05  2.816260E+05
       139   6 -4.782947E+06 -8.671870E+05 -7.453120E+02 -2.047931E+06 -9.768744E+04  2.604276E+05
       139   7 -2.892534E+04  8.967127E+05  1.072374E+06 -7.298753E+05 -1.380381E+05  2.935298E+05
       139   8 -3.837210E+05  8.174940E+05  1.002406E+06 -7.763065E+05 -1.297137E+05  2.728462E+05
       139   9 -6.517621E+05  6.593239E+05  9.339491E+05 -9.131542E+05 -1.212459E+05  2.514333E+05
       139  10 -9.516783E+06 -2.635169E+06 -1.079219E+06 -3.355312E+06 -2.802226E-09  3.773166E-09
       139  11 -9.250081E+06 -2.474147E+06 -1.008119E+06 -3.220271E+06  4.492592E-09  2.229614E-09
       139  12 -8.896897E+06 -2.392477E+06 -9.366857E+05 -3.175733E+06 -3.955451E-09 -2.228298E-09
       139  13 -4.784285E+06 -8.701576E+05 -2.783797E+03 -2.047223E+06  1.119188E-09  3.467536E-10
       139  14 -4.826892E+06 -8.291296E+05 -2.301540E+03 -2.002316E+06 -3.426327E-09 -2.338676E-11
       139  15 -4.782975E+06 -8.672622E+05 -8.903107E+02 -2.047910E+06  1.065299E-09  2.345961E-09
       139  16 -2.896877E+04  8.966153E+05  1.072176E+06 -7.298428E+05 -9.255363E-10 -3.174327E-09
       139  17 -3.837589E+05  8.174097E+05  1.002235E+06 -7.762780E+05  1.635778E-09 -4.981891E-10
       139  18 -6.517947E+05  6.592523E+05  9.338030E+05 -9.131297E+05  3.249090E-09  4.358306E-09
       139  19 -9.516748E+06 -2.635064E+06 -1.079022E+06 -3.355336E+06  9.410888E+04 -3.105861E+05
       139  20 -9.250051E+06 -2.474055E+06 -1.007948E+06 -3.220291E+06  8.427768E+04 -2.903398E+05
       139  21 -8.896872E+06 -2.392398E+06 -9.365394E+05 -3.175749E+06  7.429995E+04 -2.693587E+05
       139  22 -4.784247E+06 -8.700562E+05 -2.587546E+03 -2.047251E+06  1.159813E+05 -3.020921E+05
       139  23 -4.826858E+06 -8.290416E+05 -2.131470E+03 -2.002340E+06  1.069066E+05 -2.816260E+05
       139  24 -4.782947E+06 -8.671870E+05 -7.453120E+02 -2.047931E+06  9.768744E+04 -2.604276E+05
       139  25 -2.892534E+04  8.967127E+05  1.072374E+06 -7.298753E+05  1.380381E+05 -2.935298E+05
       139  26 -3.837210E+05  8.174940E+05  1.002406E+06 -7.763065E+05  1.297137E+05 -2.728462E+05
       139  27 -6.517621E+05  6.593239E+05  9.339491E+05 -9.131542E+05  1.212459E+05 -2.514333E+05
       140   1 -8.650476E+06 -2.300455E+06 -8.782295E+05 -3.108782E+06 -6.866029E+04  2.566633E+05
       140   2 -8.357850E+06 -2.128587E+06 -8.021250E+05 -2.964188E+06 -5.898940E+04  2.342410E+05
       140   3 -7.974639E+06 -2.042687E+06 -7.257435E+05 -2.918866E+06 -4.921793E+04  2.112468E+05
       140   4 -4.781552E+06 -8.683822E+05 -7.352326E+02 -2.049789E+06 -9.266422E+04  2.475400E+05
       140   5 -4.826266E+06 -8.242324E+05 -9.581596E+02 -2.000438E+06 -8.358612E+04  2.249529E+05
       140   6 -4.780418E+06 -8.659022E+05 -4.409043E+02 -2.050367E+06 -7.440876E+04  2.017960E+05
       140   7 -8.973854E+05  5.648264E+05  8.757862E+05 -9.846597E+05 -1.168328E+05  2.383557E+05
       140   8 -1.282003E+06  4.810508E+05  7.993950E+05 -1.031601E+06 -1.083365E+05  2.156082E+05
       140   9 -1.575846E+06  3.116250E+05  7.241922E+05 -1.177729E+06 -9.974162E+04  1.922928E+05
       140  10 -8.650499E+06 -2.300526E+06 -8.783618E+05 -3.108768E+06 -1.048874E-08 -3.949847E-09
       140  11 -8.357869E+06 -2.128646E+06 -8.022344E+05 -2.964177E+06 -3.879110E-09  2.559203E-09
       140  12 -7.974654E+06 -2.042735E+06 -7.258317E+05 -2.918857E+06  4.528355E-09 -5.379276E-09
       140  13 -4.781578E+06 -8.684501E+05 -8.661698E+02 -2.049771E+06 -1.099595E-09  3.423890E-09
       140  14 -4.826287E+06 -8.242884E+05 -1.066096E+03 -2.000423E+06  3.589564E-10  5.969256E-09
       140  15 -4.780434E+06 -8.659472E+05 -5.276020E+02 -2.050355E+06  8.113290E-10 -1.439910E-09
       140  16 -8.974152E+05  5.647620E+05  8.756542E+05 -9.846373E+05  6.193155E-09  6.921037E-09
       140  17 -1.282028E+06  4.809979E+05  7.992859E+05 -1.031582E+06 -1.492223E-09  6.900017E-09
       140  18 -1.575867E+06  3.115828E+05  7.241043E+05 -1.177714E+06 -6.503881E-09 -6.001550E-09
       140  19 -8.650476E+06 -2.300455E+06 -8.782295E+05 -3.108782E+06  6.866029E+04 -2.566633E+05
       140  20 -8.357850E+06 -2.128587E+06 -8.021250E+05 -2.964188E+06  5.898940E+04 -2.342410E+05
       140  21 -7.974639E+06 -2.042687E+06 -7.257435E+05 -2.918866E+06  4.921793E+04 -2.112468E+05
       140  22 -4.781552E+06 -8.683822E+05 -7.352326E+02 -2.049789E+06  9.266422E+04 -2.475400E+05
       140  23 -4.826266E+06 -8.242324E+05 -9.581596E+02 -2.000438E+06  8.358612E+04 -2.249529E+05
       140  24 -4.780418E+06 -8.659022E+05 -4.409043E+02 -2.050367E+06  7.440876E+04 -2.017960E+05
       140  25 -8.973854E+05  5.648264E+05  8.757862E+05 -9.846597E+05  1.168328E+05 -2.383557E+05
       140  26 -1.282003E+06  4.810508E+05  7.993950E+05 -1.031601E+06  1.083365E+05 -2.156082E+05
       140  27 -1.575846E+06  3.116250E+05  7.241922E+05 -1.177729E+06  9.974162E+04 -1.922928E+05
       141   1 -7.710008E+06 -1.944977E+06 -6.635599E+05 -2.847822E+06 -4.347382E+04  1.975606E+05
       141   2 -7.397179E+06 -1.765020E+06 -5.833982E+05 -2.695938E+06 -3.341692E+04  1.736701E+05
       141   3 -6.990912E+06 -1.676192E+06 -5.034646E+05 -2.650177E+06 -2.329251E+04  1.493641E+05
       141   4 -4.779402E+06 -8.668041E+05 -6.506426E+02 -2.051834E+06 -6.914408E+04  1.879634E+05
       141   5 -4.825649E+06 -8.203564E+05 -1.180226E+03 -1.998973E+06 -5.952031E+04  1.639560E+05
       141   6 -4.778536E+06 -8.649401E+05 -1.602795E+03 -2.052261E+06 -4.983014E+04  1.395342E+05
       141   7 -1.840045E+06  2.120067E+05  6.617101E+05 -1.252357E+06 -9.494727E+04  1.783172E+05
       141   8 -2.247393E+06  1.247901E+05  5.806136E+05 -1.299331E+06 -8.574211E+04  1.541983E+05
       141   9 -2.561193E+06 -5.333750E+04  4.999430E+05 -1.452372E+06 -7.647114E+04  1.296664E+05
       141  10 -7.710020E+06 -1.945019E+06 -6.636366E+05 -2.847816E+06 -1.733978E-09 -5.892584E-09
       141  11 -7.397188E+06 -1.765052E+06 -5.834568E+05 -2.695933E+06  2.304979E-09  3.045321E-09
       141  12 -6.990918E+06 -1.676216E+06 -5.035075E+05 -2.650174E+06 -1.508345E-09 -5.901592E-09
       141  13 -4.779416E+06 -8.668432E+05 -7.258193E+02 -2.051824E+06  2.874658E-09 -4.394460E-09
       141  14 -4.825660E+06 -8.203861E+05 -1.237248E+03 -1.998965E+06  6.831656E-09  8.537462E-09
       141  15 -4.778544E+06 -8.649616E+05 -1.643939E+03 -2.052255E+06  2.395533E-10  1.390844E-09
       141  16 -1.840063E+06  2.119702E+05  6.616336E+05 -1.252343E+06  4.458835E-09 -2.055073E-10
       141  17 -2.247407E+06  1.247627E+05  5.805552E+05 -1.299321E+06  5.222023E-09  2.058579E-09
       141  18 -2.561204E+06 -5.335706E+04  4.999005E+05 -1.452364E+06  3.284421E-09 -3.629808E-09
       141  19 -7.710008E+06 -1.944977E+06 -6.635599E+05 -2.847822E+06  4.347382E+04 -1.975606E+05
       141  20 -7.397179E+06 -1.765020E+06 -5.833982E+05 -2.695938E+06  3.341692E+04 -1.736701E+05
       141  21 -6.990912E+06 -1.676192E+06 -5.034646E+05 -2.650177E+06  2.329251E+04 -1.493641E+05
       141  22 -4.779402E+06 -8.668041E+05 -6.506426E+02 -2.051834E+06  6.914408E+04 -1.879634E+05
       141  23 -4.825649E+06 -8.203564E+05 -1.180226E+03 -1.998973E+06  5.952031E+04 -1.639560E+05
       141  24 -4.778536E+06 -8.649401E+05 -1.602795E+03 -2.052261E+06  4.983014E+04 -1.395342E+05
       141  25 -1.840045E+06  2.120067E+05  6.617101E+05 -1.252357E+06  9.494727E+04 -1.783172E+05
       141  26 -2.247393E+06  1.247901E+05  5.806136E+05 -1.299331E+06  8.574211E+04 -1.541983E+05
       141  27 -2.561193E+06 -5.333750E+04  4.999430E+05 -1.452372E+06  7.647114E+04 -1.296664E+05
       142   1 -6.712970E+06 -1.574333E+06 -4.387548E+05 -2.576289E+06 -1.728697E+04  1.350303E+05
       142   2 -6.386315E+06 -1.388930E+06 -3.569785E+05 -2.419020E+06 -5.650022E+03  1.106132E+05
       142   3 -5.965017E+06 -1.299280E+06 -2.770939E+05 -2.372257E+06  6.024241E+03  8.595023E+04
       142   4 -4.777937E+06 -8.654340E+05 -2.222469E+03 -2.053325E+06 -4.415498E+04  1.251010E+05
       142   5 -4.825034E+06 -8.176860E+05 -4.068140E+03 -1.997936E+06 -3.277476E+04  1.006168E+05
       142   6 -4.777595E+06 -8.656367E+05 -7.603677E+03 -2.053094E+06 -2.135892E+04  7.588677E+04
       142   7 -2.839112E+06 -1.562699E+05  4.340683E+05 -1.528855E+06 -7.111425E+04  1.151381E+05
       142   8 -3.261279E+06 -2.462689E+05  3.486875E+05 -1.575873E+06 -5.997391E+04  9.059295E+04
       142   9 -3.588737E+06 -4.318923E+05  2.617998E+05 -1.733364E+06 -4.879934E+04  6.580234E+04
       142  10 -6.712975E+06 -1.574353E+06 -4.387896E+05 -2.576288E+06 -6.354031E-09 -5.188317E-09
       142  11 -6.386319E+06 -1.388943E+06 -3.570015E+05 -2.419020E+06 -1.304373E-09  5.354847E-09
       142  12 -5.965019E+06 -1.299288E+06 -2.771079E+05 -2.372258E+06  7.741106E-09 -6.391004E-09
       142  13 -4.777943E+06 -8.654513E+05 -2.255455E+03 -2.053320E+06 -3.557463E-09  5.431682E-10
       142  14 -4.825038E+06 -8.176972E+05 -4.089128E+03 -1.997934E+06 -3.257427E-09  2.825166E-09
       142  15 -4.777597E+06 -8.656430E+05 -7.615327E+03 -2.053092E+06  2.254536E-09  1.041369E-09
       142  16 -2.839121E+06 -1.562854E+05  4.340340E+05 -1.528848E+06  6.707279E-09  9.412825E-09
       142  17 -3.261285E+06 -2.462786E+05  3.486654E+05 -1.575868E+06 -3.676550E-09 -2.809102E-10
       142  18 -3.588741E+06 -4.318976E+05  2.617872E+05 -1.733361E+06 -3.394177E-09  4.220761E-09
       142  19 -6.712970E+06 -1.574333E+06 -4.387548E+05 -2.576289E+06  1.728697E+04 -1.350303E+05
       142  20 -6.386315E+06 -1.388930E+06 -3.569785E+05 -2.419020E+06  5.650022E+03 -1.106132E+05
       142  21 -5.965017E+06 -1.299280E+06 -2.770939E+05 -2.372257E+06 -6.024241E+03 -8.595023E+04
       142  22 -4.777937E+06 -8.654340E+05 -2.222469E+03 -2.053325E+06  4.415498E+04 -1.251010E+05
       142  23 -4.825034E+06 -8.176860E+05 -4.068140E+03 -1.997936E+06  3.277476E+04 -1.006168E+05
       142  24 -4.777595E+06 -8.656367E+05 -7.603677E+03 -2.053094E+06  2.135892E+04 -7.588677E+04
       142  25 -2.839112E+06 -1.562699E+05  4.340683E+05 -1.528855E+06  7.111425E+04 -1.151381E+05
       142  26 -3.261279E+06 -2.462689E+05  3.486875E+05 -1.575873E+06  5.997391E+04 -9.059295E+04
       142  27 -3.588737E+06 -4.318923E+05  2.617998E+05 -1.733364E+06  4.879934E+04 -6.580234E+04
       143   1 -5.677051E+06 -1.195680E+06 -2.122024E+05 -2.301342E+06  1.291353E+04  7.148266E+04
       143   2 -5.347051E+06 -1.003102E+06 -1.351485E+05 -2.131013E+06  3.177375E+04  4.918581E+04
       143   3 -4.932041E+06 -9.337837E+05 -7.251801E+04 -2.067025E+06  5.058835E+04  2.697956E+04
       143   4 -4.778506E+06 -8.636457E+05 -9.814486E+03 -2.055090E+06 -1.468609E+04  6.135151E+04
       143   5 -4.823001E+06 -8.175977E+05 -1.784272E+04 -1.996159E+06  4.270715E+03  3.909835E+04
       143   6 -4.782661E+06 -8.948307E+05 -4.036969E+04 -2.043630E+06  2.317589E+04  1.693391E+04
       143   7 -3.879136E+06 -5.315473E+05  1.925258E+05 -1.808504E+06 -4.232929E+04  5.120391E+04
       143   8 -4.298677E+06 -6.320800E+05  9.944741E+04 -1.861202E+06 -2.325731E+04  2.900238E+04
       143   9 -4.633261E+06 -8.558784E+05 -8.220200E+03 -2.020231E+06 -4.243133E+03  6.887662E+03
       143  10 -5.677053E+06 -1.195685E+06 -2.122123E+05 -2.301343E+06  8.853060E-09 -6.581222E-09
       143  11 -5.347053E+06 -1.003104E+06 -1.351550E+05 -2.131015E+06 -2.378730E-09 -1.174164E-08
       143  12 -4.932044E+06 -9.337852E+05 -7.252425E+04 -2.067026E+06 -4.130565E-09 -1.162322E-09
       143  13 -4.778507E+06 -8.636498E+05 -9.821947E+03 -2.055089E+06  4.121675E-09  8.576046E-09
       143  14 -4.823001E+06 -8.175993E+05 -1.784563E+04 -1.996159E+06 -8.745221E-10  1.824634E-08
       143  15 -4.782662E+06 -8.948311E+05 -4.037125E+04 -2.043631E+06  4.443719E-10 -8.041857E-10
       143  16 -3.879138E+06 -5.315506E+05  1.925175E+05 -1.808503E+06 -4.565558E-09 -7.634139E-09
       143  17 -4.298677E+06 -6.320811E+05  9.944481E+04 -1.861202E+06  1.122687E-09  8.876972E-09
       143  18 -4.633261E+06 -8.558785E+05 -8.220323E+03 -2.020231E+06  1.023871E-08 -3.111944E-09
       143  19 -5.677051E+06 -1.195680E+06 -2.122024E+05 -2.301342E+06 -1.291353E+04 -7.148266E+04
       143  20 -5.347051E+06 -1.003102E+06 -1.351485E+05 -2.131013E+06 -3.177375E+04 -4.918581E+04
       143  21 -4.932041E+06 -9.337837E+05 -7.251801E+04 -2.067025E+06 -5.058835E+04 -2.697956E+04
       143  22 -4.778506E+06 -8.636457E+05 -9.814486E+03 -2.055090E+06  1.468609E+04 -6.135151E+04
       143  23 -4.823001E+06 -8.175977E+05 -1.784272E+04 -1.996159E+06 -4.270715E+03 -3.909835E+04
       143  24 -4.782661E+06 -8.948307E+05 -4.036969E+04 -2.043630E+06 -2.317589E+04 -1.693391E+04
       143  25 -3.879136E+06 -5.315473E+05  1.925258E+05 -1.808504E+06  4.232929E+04 -5.120391E+04
       143  26 -4.298677E+06 -6.320800E+05  9.944741E+04 -1.861202E+06  2.325731E+04 -2.900238E+04
       143  27 -4.633261E+06 -8.558784E+05 -8.220200E+03 -2.020231E+06  4.243133E+03 -6.887662E+03
       144   1  3.733090E+05  7.863402E+04  1.027865E+05  2.643456E+03  6.971776E+04 -1.294050E+01
       144   2  3.575979E+05 -1.816195E+04  4.416333E+04  5.821947E+02  4.589739E+04 -1.519836E+01
       144   3  3.732770E+05 -1.787622E+03  2.933688E+04 -1.294764E+03  2.207648E+04 -9.439451E+00
       144   4  3.706949E+05  7.798174E+04  1.021336E+05  2.270498E+01  6.971711E+04 -1.323458E+01
       144   5  3.550064E+05 -1.880930E+04  4.351607E+04 -7.507291E+01  4.589721E+04 -1.524692E+01
       144   6  3.707082E+05 -2.429891E+03  2.869508E+04  1.144078E+01  2.207676E+04 -9.393068E+00
       144   7  3.680809E+05  7.732949E+04  1.014806E+05 -2.598035E+03  6.971646E+04 -1.352865E+01
       144   8  3.524150E+05 -1.945665E+04  4.286881E+04 -7.323377E+02  4.589702E+04 -1.529548E+01
       144   9  3.681393E+05 -3.072153E+03  2.805328E+04  1.317640E+03  2.207705E+04 -9.346683E+00
       144  10  3.733037E+05  7.863272E+04  1.027773E+05  2.643457E+03  2.382608E-08  4.686334E-07
       144  11  3.575956E+05 -1.816252E+04  4.415937E+04  5.821952E+02  2.356269E-08  4.275287E-07
       144  12  3.732765E+05 -1.787752E+03  2.933597E+04 -1.294764E+03 -1.021483E-07 -2.170426E-06
       144  13  3.706897E+05  7.798044E+04  1.021244E+05  2.270572E+01 -4.256402E-09 -1.418333E-09
       144  14  3.550042E+05 -1.880987E+04  4.351211E+04 -7.507235E+01 -4.180015E-09  1.079939E-09
       144  15  3.707076E+05 -2.430021E+03  2.869417E+04  1.144095E+01  6.290778E-09  1.387965E-08
       144  16  3.680757E+05  7.732818E+04  1.014715E+05 -2.598034E+03 -2.372074E-08 -4.710603E-07
       144  17  3.524127E+05 -1.945722E+04  4.286485E+04 -7.323372E+02 -2.534716E-08 -4.257411E-07
       144  18  3.681388E+05 -3.072284E+03  2.805237E+04  1.317640E+03  1.046854E-07  2.197554E-06
       144  19  3.733090E+05  7.863402E+04  1.027865E+05  2.643456E+03 -6.971776E+04  1.294050E+01
       144  20  3.575979E+05 -1.816195E+04  4.416333E+04  5.821946E+02 -4.589739E+04  1.519836E+01
       144  21  3.732770E+05 -1.787621E+03  2.933688E+04 -1.294764E+03 -2.207648E+04  9.439447E+00
       144  22  3.706949E+05  7.798174E+04  1.021336E+05  2.270498E+01 -6.971711E+04  1.323458E+01
       144  23  3.550064E+05 -1.880930E+04  4.351607E+04 -7.507292E+01 -4.589721E+04  1.524692E+01
       144  24  3.707082E+05 -2.429890E+03  2.869508E+04  1.144079E+01 -2.207676E+04  9.393068E+00
       144  25  3.680809E+05  7.732949E+04  1.014806E+05 -2.598035E+03 -6.971646E+04  1.352865E+01
       144  26  3.524150E+05 -1.945665E+04  4.286881E+04 -7.323377E+02 -4.589702E+04  1.529548E+01
       144  27  3.681393E+05 -3.072152E+03  2.805328E+04  1.317640E+03 -2.207705E+04  9.346687E+00
       145   1  3.662118E+05  1.254440E+04  2.410548E+04  3.841989E+02  1.730095E+04 -6.266622E+00
       145   2  3.636011E+05 -2.619475E+03  1.159332E+04  4.679927E+01  1.137216E+04 -5.169832E+00
       145   3  3.661964E+05 -4.364140E+01  7.374509E+03 -2.189302E+02  5.443387E+03 -4.164861E+00
       145   4  3.648856E+05  1.221311E+04  2.377422E+04 -9.046004E+00  1.730095E+04 -6.277573E+00
       145   5  3.622840E+05 -2.948582E+03  1.126430E+04 -4.551579E+01  1.137217E+04 -5.171520E+00
       145   6  3.648884E+05 -3.705479E+02  7.047730E+03 -1.031566E+01  5.443400E+03 -4.163040E+00
       145   7  3.635594E+05  1.188182E+04  2.344297E+04 -4.022900E+02  1.730095E+04 -6.288522E+00
       145   8  3.609668E+05 -3.277688E+03  1.093528E+04 -1.378306E+02  1.137218E+04 -5.173198E+00
       145   9  3.635803E+05 -6.974539E+02  6.720952E+03  1.982984E+02  5.443415E+03 -4.161199E+00
       145  10  3.662115E+05  1.254432E+04  2.410491E+04  3.841866E+02 -5.213784E-05 -5.638226E-06
       145  11  3.636010E+05 -2.619511E+03  1.159308E+04  4.674438E+01 -2.297231E-04 -7.741070E-06
       145  12  3.661964E+05 -4.365289E+01  7.374452E+03 -2.190277E+02 -4.069120E-04 -1.219663E-06
       145  13  3.648853E+05  1.221303E+04  2.377366E+04 -9.045922E+00 -1.290593E-04 -6.885316E-07
       145  14  3.622838E+05 -2.948615E+03  1.126406E+04 -4.551573E+01 -5.725628E-04 -3.123948E-06
       145  15  3.648883E+05 -3.705557E+02  7.047674E+03 -1.031565E+01 -1.016073E-03 -5.564069E-06
       145  16  3.635591E+05  1.188174E+04  2.344241E+04 -4.022775E+02 -5.110220E-05  6.824337E-06
       145  17  3.609667E+05 -3.277718E+03  1.093504E+04 -1.377756E+02 -2.283345E-04  1.286322E-05
       145  18  3.635803E+05 -6.974568E+02  6.720898E+03  1.983960E+02 -4.059439E-04  1.026944E-05
       145  19  3.662118E+05  1.254440E+04  2.410548E+04  3.841741E+02 -1.730095E+04  6.266611E+00
       145  20  3.636011E+05 -2.619477E+03  1.159332E+04  4.668939E+01 -1.137216E+04  5.169817E+00
       145  21  3.661964E+05 -4.364848E+01  7.374506E+03 -2.191252E+02 -5.443388E+03  4.164860E+00
       145  22  3.648856E+05  1.221311E+04  2.377422E+04 -9.046015E+00 -1.730095E+04  6.277572E+00
       145  23  3.622839E+05 -2.948580E+03  1.126430E+04 -4.551577E+01 -1.137217E+04  5.171514E+00
       145  24  3.648884E+05 -3.705477E+02  7.047729E+03 -1.031568E+01 -5.443402E+03  4.163029E+00
       145  25  3.635594E+05  1.188183E+04  2.344297E+04 -4.022652E+02 -1.730095E+04  6.288535E+00
       145  26  3.609668E+05 -3.277679E+03  1.093528E+04 -1.377207E+02 -1.137218E+04  5.173222E+00
       145  27  3.635803E+05 -6.974438E+02  6.720954E+03  1.984935E+02 -5.443416E+03  4.161218E+00
       146   1  3.648014E+05  2.121619E+03  5.877164E+03  3.437045E+01  4.288590E+03 -3.537477E+00
       146   2  3.643572E+05 -2.427471E+02  3.098402E+03 -1.800691E+01  2.808797E+03 -2.756127E+00
       146   3  3.647984E+05  1.639424E+02  1.975393E+03 -5.633093E+01  1.329027E+03 -3.068124E+00
       146   4  3.639276E+05  1.903298E+03  5.658912E+03 -2.259285E+01  4.288643E+03 -3.537885E+00
       146   5  3.634853E+05 -4.606320E+02  2.880578E+03 -2.969800E+01  2.808799E+03 -2.756192E+00
       146   6  3.639282E+05 -5.349560E+01  1.758034E+03 -2.275045E+01  1.328979E+03 -3.068062E+00
       146   7  3.630539E+05  1.684977E+03  5.440661E+03 -7.955608E+01  4.288697E+03 -3.538270E+00
       146   8  3.626133E+05 -6.785171E+02  2.662754E+03 -4.138908E+01  2.808803E+03 -2.756236E+00
       146   9  3.630580E+05 -2.709337E+02  1.540674E+03  1.082997E+01  1.328932E+03 -3.067980E+00
       146  10  3.648014E+05  2.121610E+03  5.877128E+03  3.426150E+01 -4.541334E-04  3.161422E-06
       146  11  3.643572E+05 -2.427539E+02  3.098386E+03 -1.811263E+01 -4.404364E-04  5.585509E-06
       146  12  3.647984E+05  1.639371E+02  1.975389E+03 -5.643340E+01 -4.267985E-04  7.165616E-06
       146  13  3.639276E+05  1.903294E+03  5.658878E+03 -2.259283E+01 -1.135253E-03 -6.175341E-06
       146  14  3.634853E+05 -4.606342E+02  2.880563E+03 -2.969800E+01 -1.101324E-03 -5.843622E-06
       146  15  3.639282E+05 -5.349656E+01  1.758030E+03 -2.275046E+01 -1.067402E-03 -5.528470E-06
       146  16  3.630539E+05  1.684977E+03  5.440628E+03 -7.944709E+01 -4.540660E-04  6.887583E-06
       146  17  3.626133E+05 -6.785148E+02  2.662740E+03 -4.128336E+01 -4.406291E-04  3.954008E-06
       146  18  3.630580E+05 -2.709304E+02  1.540672E+03  1.093243E+01 -4.271291E-04  1.830889E-06
       146  19  3.648014E+05  2.121610E+03  5.877161E+03  3.415252E+01 -4.288590E+03  3.537484E+00
       146  20  3.643572E+05 -2.427564E+02  3.098400E+03 -1.821836E+01 -2.808797E+03  2.756138E+00
       146  21  3.647984E+05  1.639328E+02  1.975391E+03 -5.653588E+01 -1.329028E+03  3.068138E+00
       146  22  3.639276E+05  1.903299E+03  5.658913E+03 -2.259284E+01 -4.288645E+03  3.537872E+00
       146  23  3.634853E+05 -4.606322E+02  2.880578E+03 -2.969801E+01 -2.808801E+03  2.756180E+00
       146  24  3.639282E+05 -5.349657E+01  1.758034E+03 -2.275047E+01 -1.328981E+03  3.068051E+00
       146  25  3.630539E+05  1.684987E+03  5.440664E+03 -7.933812E+01 -4.288698E+03  3.538283E+00
       146  26  3.626133E+05 -6.785083E+02  2.662756E+03 -4.117765E+01 -2.808804E+03  2.756243E+00
       146  27  3.630581E+05 -2.709262E+02  1.540676E+03  1.103489E+01 -1.328933E+03  3.067983E+00
       147   1  3.647401E+05  5.369888E+02  1.635959E+03 -2.538785E+01  1.042853E+03 -3.039568E+00
       147   2  3.646631E+05  1.697628E+02  1.017831E+03 -1.536827E+01  6.515213E+02 -2.840168E+00
       147   3  3.647489E+05  2.496907E+02  7.661809E+02 -3.903316E+01  2.601836E+02 -4.154284E+00
       147   4  3.637676E+05  2.939677E+02  1.393010E+03 -3.329301E+01  1.042896E+03 -3.039599E+00
       147   5  3.636862E+05 -7.434507E+01  7.737926E+02 -1.646048E+01  6.514923E+02 -2.840182E+00
       147   6  3.637677E+05  4.508989E+00  5.211033E+02 -3.331232E+01  2.600828E+02 -4.154284E+00
       147   7  3.627950E+05  5.094607E+01  1.150061E+03 -4.119817E+01  1.042940E+03 -3.039612E+00
       147   8  3.627093E+05 -3.184534E+02  5.297538E+02 -1.755270E+01  6.514640E+02 -2.840187E+00
       147   9  3.627865E+05 -2.406732E+02  2.760252E+02 -2.759151E+01  2.599821E+02 -4.154281E+00
       147  10  3.647401E+05  5.369840E+02  1.635956E+03 -2.547791E+01 -3.749014E-04  9.497387E-06
       147  11  3.646631E+05  1.697590E+02  1.017830E+03 -1.541905E+01 -2.109171E-04  1.164542E-05
       147  12  3.647489E+05  2.496894E+02  7.661808E+02 -3.904463E+01 -4.723168E-05  6.311336E-06
       147  13  3.637676E+05  2.939672E+02  1.393009E+03 -3.329301E+01 -9.383502E-04 -4.827455E-06
       147  14  3.636862E+05 -7.434615E+01  7.737924E+02 -1.646049E+01 -5.287792E-04 -2.717130E-06
       147  15  3.637677E+05  4.508782E+00  5.211039E+02 -3.331232E+01 -1.191867E-04 -5.999302E-07
       147  16  3.627950E+05  5.094875E+01  1.150060E+03 -4.110812E+01 -3.757781E-04 -1.661019E-06
       147  17  3.627093E+05 -3.184530E+02  5.297535E+02 -1.750196E+01 -2.120906E-04 -7.223768E-06
       147  18  3.627865E+05 -2.406735E+02  2.760253E+02 -2.758005E+01 -4.811553E-05 -5.289285E-06
       147  19  3.647401E+05  5.369798E+02  1.635957E+03 -2.556798E+01 -1.042854E+03  3.039587E+00
       147  20  3.646631E+05  1.697554E+02  1.017830E+03 -1.546983E+01 -6.515217E+02  2.840192E+00
       147  21  3.647489E+05  2.496881E+02  7.661809E+02 -3.905611E+01 -2.601837E+02  4.154297E+00
       147  22  3.637676E+05  2.939674E+02  1.393012E+03 -3.329300E+01 -1.042898E+03  3.039589E+00
       147  23  3.636862E+05 -7.434700E+01  7.737937E+02 -1.646049E+01 -6.514934E+02  2.840177E+00
       147  24  3.637677E+05  4.508611E+00  5.211048E+02 -3.331231E+01 -2.600830E+02  4.154282E+00
       147  25  3.627950E+05  5.095200E+01  1.150063E+03 -4.101808E+01 -1.042941E+03  3.039609E+00
       147  26  3.627093E+05 -3.184524E+02  5.297547E+02 -1.745122E+01 -6.514645E+02  2.840172E+00
       147  27  3.627865E+05 -2.406738E+02  2.760257E+02 -2.756859E+01 -2.599822E+02  4.154270E+00
       148   1  3.654326E+05  4.638031E+02  8.724061E+02 -4.626748E+01  1.718099E+02 -4.486484E+00
       148   2  3.654099E+05  3.936499E+02  8.066586E+02  2.313975E+00 -2.076686E+01 -4.898885E+00
       148   3  3.654588E+05  5.082500E+02  9.124891E+02 -5.168764E+01 -2.133437E+02 -7.753725E+00
       148   4  3.637474E+05  4.270929E+01  4.514241E+02 -4.861640E+01  1.718479E+02 -4.486489E+00
       148   5  3.637116E+05 -3.072300E+01  3.824083E+02  2.675217E+00 -2.084563E+01 -4.898883E+00
       148   6  3.637474E+05  8.061857E+01  4.850519E+02 -4.861625E+01 -2.135392E+02 -7.753722E+00
       148   7  3.620622E+05 -3.783847E+02  3.044181E+01 -5.096531E+01  1.718860E+02 -4.486494E+00
       148   8  3.620133E+05 -4.550961E+02 -4.184225E+01  3.036459E+00 -2.092440E+01 -4.898880E+00
       148   9  3.620360E+05 -3.470131E+02  5.761442E+01 -4.554487E+01 -2.137348E+02 -7.753719E+00
       148  10  3.654326E+05  4.638027E+02  8.724059E+02 -4.626750E+01  8.253390E-08  2.061393E-06
       148  11  3.654099E+05  3.936500E+02  8.066586E+02  2.313974E+00 -1.576730E-08 -4.856818E-07
       148  12  3.654588E+05  5.082500E+02  9.124890E+02 -5.168763E+01 -7.024880E-09 -9.584162E-08
       148  13  3.637474E+05  4.270885E+01  4.514239E+02 -4.861640E+01  4.536984E-09  1.237130E-08
       148  14  3.637116E+05 -3.072289E+01  3.824083E+02  2.675218E+00  2.586400E-10  7.695381E-10
       148  15  3.637474E+05  8.061858E+01  4.850518E+02 -4.861625E+01  2.204378E-09 -1.930454E-09
       148  16  3.620622E+05 -3.783852E+02  3.044165E+01 -5.096530E+01 -8.460495E-08 -2.036134E-06
       148  17  3.620133E+05 -4.550960E+02 -4.184222E+01  3.036465E+00  2.015507E-08  4.873517E-07
       148  18  3.620360E+05 -3.470131E+02  5.761434E+01 -4.554488E+01  5.980675E-09  9.184799E-08
       148  19  3.654326E+05  4.638022E+02  8.724059E+02 -4.626752E+01 -1.718099E+02  4.486488E+00
       148  20  3.654099E+05  3.936501E+02  8.066587E+02  2.313970E+00  2.076686E+01  4.898884E+00
       148  21  3.654588E+05  5.082501E+02  9.124891E+02 -5.168762E+01  2.133437E+02  7.753725E+00
       148  22  3.637474E+05  4.270842E+01  4.514238E+02 -4.861641E+01 -1.718479E+02  4.486489E+00
       148  23  3.637116E+05 -3.072279E+01  3.824083E+02  2.675220E+00  2.084563E+01  4.898883E+00
       148  24  3.637474E+05  8.061861E+01  4.850519E+02 -4.861625E+01  2.135392E+02  7.753722E+00
       148  25  3.620622E+05 -3.783856E+02  3.044159E+01 -5.096530E+01 -1.718860E+02  4.486490E+00
       148  26  3.620133E+05 -4.550959E+02 -4.184220E+01  3.036470E+00  2.092440E+01  4.898881E+00
       148  27  3.620360E+05 -3.470131E+02  5.761443E+01 -4.554489E+01  2.137348E+02  7.753719E+00
       149   1  3.672489E+05  8.562914E+02  1.428544E+03 -6.900472E+01 -3.087695E+02 -8.824860E+00
       149   2  3.671527E+05  7.429665E+02  1.714482E+03  3.650273E+01 -7.407025E+02 -1.032825E+01
       149   3  3.673090E+05  1.408433E+03  2.476502E+03 -9.423784E+01 -1.172629E+03 -1.533447E+01
       149   4  3.637876E+05 -8.616950E+00  5.638562E+02 -7.831736E+01 -3.087568E+02 -8.824859E+00
       149   5  3.636613E+05 -1.294690E+02  8.423050E+02  3.980019E+01 -7.408559E+02 -1.032826E+01
       149   6  3.637874E+05  5.285021E+02  1.596953E+03 -7.833055E+01 -1.172948E+03 -1.533452E+01
       149   7  3.603264E+05 -8.735262E+02 -3.008324E+02 -8.762994E+01 -3.087441E+02 -8.824858E+00
       149   8  3.601699E+05 -1.001905E+03 -2.987294E+01  4.309764E+01 -7.410092E+02 -1.032827E+01
       149   9  3.602659E+05 -3.514302E+02  7.174029E+02 -6.242334E+01 -1.173268E+03 -1.533456E+01
       149  10  3.672489E+05  8.562913E+02  1.428544E+03 -6.900473E+01  1.178578E-08  3.497577E-07
       149  11  3.671527E+05  7.429664E+02  1.714481E+03  3.650272E+01 -6.798063E-09 -8.246744E-08
       149  12  3.673090E+05  1.408433E+03  2.476500E+03 -9.423786E+01  2.137855E-09 -1.616493E-08
       149  13  3.637876E+05 -8.617050E+00  5.638560E+02 -7.831736E+01 -4.318472E-09 -2.436053E-10
       149  14  3.636613E+05 -1.294691E+02  8.423040E+02  3.980019E+01 -4.439899E-09  1.022020E-09
       149  15  3.637874E+05  5.285017E+02  1.596950E+03 -7.833056E+01  4.262337E-09 -1.726174E-10
       149  16  3.603264E+05 -8.735263E+02 -3.008326E+02 -8.762994E+01 -1.075710E-08 -3.501115E-07
       149  17  3.601699E+05 -1.001906E+03 -2.987397E+01  4.309763E+01  6.400252E-09  8.474420E-08
       149  18  3.602659E+05 -3.514306E+02  7.174003E+02 -6.242336E+01 -1.107192E-09  1.583417E-08
       149  19  3.672489E+05  8.562913E+02  1.428544E+03 -6.900473E+01  3.087695E+02  8.824861E+00
       149  20  3.671527E+05  7.429665E+02  1.714482E+03  3.650272E+01  7.407025E+02  1.032825E+01
       149  21  3.673090E+05  1.408433E+03  2.476502E+03 -9.423784E+01  1.172629E+03  1.533447E+01
       149  22  3.637876E+05 -8.617099E+00  5.638562E+02 -7.831736E+01  3.087568E+02  8.824859E+00
       149  23  3.636613E+05 -1.294690E+02  8.423051E+02  3.980019E+01  7.408559E+02  1.032826E+01
       149  24  3.637874E+05  5.285021E+02  1.596953E+03 -7.833055E+01  1.172948E+03  1.533452E+01
       149  25  3.603264E+05 -8.735264E+02 -3.008324E+02 -8.762994E+01  3.087441E+02  8.824858E+00
       149  26  3.601699E+05 -1.001905E+03 -2.987293E+01  4.309764E+01  7.410092E+02  1.032827E+01
       149  27  3.602659E+05 -3.514302E+02  7.174029E+02 -6.242335E+01  1.173268E+03  1.533456E+01
       150   1  3.714757E+05  1.752526E+03  3.831453E+03 -8.297466E+01 -1.497607E+03 -1.908323E+01
       150   2  3.708146E+05  1.051381E+03  5.010980E+03  9.322345E+01 -3.150492E+03 -2.390729E+01
       150   3  3.716082E+05  5.281184E+03  8.500260E+03 -2.501161E+02 -4.803403E+03 -2.745602E+01
       150   4  3.640547E+05 -1.018512E+02  1.977559E+03 -1.411311E+02 -1.497853E+03 -1.908312E+01
       150   5  3.633270E+05 -8.196011E+02  3.140586E+03  1.183985E+02 -3.150660E+03 -2.390746E+01
       150   6  3.640540E+05  3.393615E+03  6.613333E+03 -1.416086E+02 -4.803492E+03 -2.745690E+01
       150   7  3.566338E+05 -1.956232E+03  1.236599E+02 -1.992869E+02 -1.498100E+03 -1.908301E+01
       150   8  3.558395E+05 -2.690587E+03  1.270189E+03  1.435732E+02 -3.150827E+03 -2.390762E+01
       150   9  3.564998E+05  1.506041E+03  4.726401E+03 -3.310252E+01 -4.803580E+03 -2.745778E+01
       150  10  3.714757E+05  1.752525E+03  3.831449E+03 -8.297468E+01  7.542319E-09  5.933889E-08
       150  11  3.708146E+05  1.051378E+03  5.010961E+03  9.322339E+01  3.288295E-09 -1.417939E-08
       150  12  3.716081E+05  5.281178E+03  8.500217E+03 -2.501162E+02 -1.139801E-09 -2.724531E-09
       150  13  3.640547E+05 -1.018518E+02  1.977554E+03 -1.411312E+02  4.316266E-09 -5.058077E-10
       150  14  3.633270E+05 -8.196037E+02  3.140568E+03  1.183984E+02 -1.661381E-14  1.464324E-10
       150  15  3.640540E+05  3.393609E+03  6.613290E+03 -1.416087E+02 -6.881374E-09  2.840588E-10
       150  16  3.566338E+05 -1.956233E+03  1.236556E+02 -1.992869E+02 -3.174966E-09 -6.047318E-08
       150  17  3.558395E+05 -2.690590E+03  1.270170E+03  1.435732E+02 -8.460809E-10  1.478714E-08
       150  18  3.564998E+05  1.506035E+03  4.726358E+03 -3.310263E+01 -4.008821E-10  3.818857E-09
       150  19  3.714757E+05  1.752526E+03  3.831453E+03 -8.297466E+01  1.497607E+03  1.908323E+01
       150  20  3.708146E+05  1.051381E+03  5.010980E+03  9.322345E+01  3.150492E+03  2.390729E+01
       150  21  3.716082E+05  5.281184E+03  8.500260E+03 -2.501161E+02  4.803403E+03  2.745602E+01
       150  22  3.640547E+05 -1.018512E+02  1.977559E+03 -1.411311E+02  1.497853E+03  1.908312E+01
       150  23  3.633270E+05 -8.196011E+02  3.140586E+03  1.183985E+02  3.150660E+03  2.390746E+01
       150  24  3.640540E+05  3.393615E+03  6.613333E+03 -1.416086E+02  4.803492E+03  2.745690E+01
       150  25  3.566338E+05 -1.956232E+03  1.236598E+02 -1.992869E+02  1.498100E+03  1.908301E+01
       150  26  3.558395E+05 -2.690587E+03  1.270189E+03  1.435732E+02  3.150827E+03  2.390762E+01
       150  27  3.564998E+05  1.506041E+03  4.726401E+03 -3.310252E+01  4.803580E+03  2.745778E+01
       151   1  3.817379E+05  3.338933E+03  1.199294E+04  8.837706E+01 -6.130004E+03 -4.387324E+01
       151   2  3.775019E+05 -1.179486E+03  1.614132E+04  1.101325E+02 -1.275397E+04 -6.335463E+01
       151   3  3.820246E+05  2.576099E+04  3.247169E+04 -1.008934E+03 -1.937793E+04 -2.895340E+01
       151   4  3.656780E+05 -6.742700E+02  7.980953E+03 -2.767207E+02 -6.132065E+03 -4.387011E+01
       151   5  3.612969E+05 -5.228602E+03  1.209362E+04  2.894430E+02 -1.275329E+04 -6.335829E+01
       151   6  3.656740E+05  2.167592E+04  2.838661E+04 -2.852140E+02 -1.937452E+04 -2.897484E+01
       151   7  3.496184E+05 -4.687492E+03  3.968946E+03 -6.418090E+02 -6.134127E+03 -4.386697E+01
       151   8  3.450920E+05 -9.277738E+03  8.045902E+03  4.687488E+02 -1.275261E+04 -6.336194E+01
       151   9  3.493237E+05  1.759083E+04  2.430151E+04  4.384871E+02 -1.937110E+04 -2.899627E+01
       151  10  3.817378E+05  3.338923E+03  1.199287E+04  8.837685E+01 -4.299533E-09  1.010903E-08
       151  11  3.775018E+05 -1.179530E+03  1.614101E+04  1.101318E+02 -3.477141E-09 -3.096758E-09
       151  12  3.820242E+05  2.576089E+04  3.247099E+04 -1.008934E+03 -9.313086E-10 -2.776894E-09
       151  13  3.656780E+05 -6.742801E+02  7.980882E+03 -2.767209E+02 -4.612594E-09 -6.714033E-10
       151  14  3.612967E+05 -5.228646E+03  1.209331E+04  2.894423E+02  2.544547E-09  3.262365E-10
       151  15  3.656736E+05  2.167582E+04  2.838590E+04 -2.852144E+02 -2.531390E-09 -1.347749E-10
       151  16  3.496183E+05 -4.687502E+03  3.968875E+03 -6.418092E+02 -2.150151E-09 -1.046658E-08
       151  17  3.450918E+05 -9.277781E+03  8.045597E+03  4.687481E+02 -4.065992E-09  2.033017E-09
       151  18  3.493233E+05  1.759073E+04  2.430080E+04  4.384866E+02 -1.169441E-09  1.795077E-09
       151  19  3.817379E+05  3.338933E+03  1.199294E+04  8.837706E+01  6.130004E+03  4.387324E+01
       151  20  3.775019E+05 -1.179486E+03  1.614132E+04  1.101325E+02  1.275397E+04  6.335463E+01
       151  21  3.820246E+05  2.576099E+04  3.247169E+04 -1.008934E+03  1.937793E+04  2.895340E+01
       151  22  3.656780E+05 -6.742700E+02  7.980953E+03 -2.767207E+02  6.132065E+03  4.387011E+01
       151  23  3.612969E+05 -5.228602E+03  1.209362E+04  2.894430E+02  1.275329E+04  6.335829E+01
       151  24  3.656740E+05  2.167592E+04  2.838661E+04 -2.852140E+02  1.937452E+04  2.897484E+01
       151  25  3.496184E+05 -4.687492E+03  3.968946E+03 -6.418090E+02  6.134127E+03  4.386697E+01
       151  26  3.450920E+05 -9.277738E+03  8.045902E+03  4.687488E+02  1.275261E+04  6.336194E+01
       151  27  3.493237E+05  1.759083E+04  2.430151E+04  4.384871E+02  1.937110E+04  2.899627E+01
       152   1  6.933272E+05  2.600259E+06  6.896010E+05 -8.729756E+04  3.815831E+03 -3.368000E+04
       152   2  6.025910E+05  2.160462E+06  6.062009E+05  6.050412E+03  1.036925E+04 -3.808821E+04
       152   3  6.799932E+05  2.535729E+06  7.218394E+05 -1.467692E+05  6.782637E+03 -4.269797E+04
       152   4  5.486593E+04  4.237933E+04  5.126587E+04 -7.902704E+04  3.818970E+03 -3.414251E+04
       152   5 -2.912817E+04 -3.654609E+05 -2.447993E+04  4.493530E+04  1.037086E+04 -3.804795E+04
       152   6  5.386635E+04  4.003346E+04  9.843128E+04 -7.731827E+04  6.764094E+03 -4.215551E+04
       152   7 -5.840880E+05 -2.509586E+06 -5.875619E+05 -7.078323E+04  3.822104E+03 -3.460289E+04
       152   8 -6.613259E+05 -2.885611E+06 -6.556418E+05  8.369161E+04  1.037247E+04 -3.800760E+04
       152   9 -5.727221E+05 -2.450028E+06 -5.254467E+05 -8.094381E+03  6.745627E+03 -4.161494E+04
       152  10  6.933269E+05  2.600258E+06  6.895988E+05 -8.729746E+04  1.188984E-09  1.567936E-08
       152  11  6.025905E+05  2.160460E+06  6.061980E+05  6.050730E+03 -8.878218E-10  1.498492E-08
       152  12  6.799927E+05  2.535727E+06  7.218359E+05 -1.467689E+05  2.288397E-08  1.135759E-08
       152  13  5.486561E+04  4.237808E+04  5.126365E+04 -7.902693E+04 -3.604853E-09 -4.853062E-09
       152  14 -2.912867E+04 -3.654625E+05 -2.448285E+04  4.493562E+04 -1.539348E-08 -1.155480E-08
       152  15  5.386583E+04  4.003154E+04  9.842786E+04 -7.731805E+04  1.644091E-08 -1.396546E-08
       152  16 -5.840883E+05 -2.509587E+06 -5.875642E+05 -7.078313E+04 -2.897124E-09 -1.320425E-08
       152  17 -6.613264E+05 -2.885612E+06 -6.556448E+05  8.369193E+04  6.567461E-10  6.925946E-09
       152  18 -5.727226E+05 -2.450030E+06 -5.254501E+05 -8.094155E+03  6.366785E-09 -2.031333E-08
       152  19  6.933272E+05  2.600259E+06  6.896010E+05 -8.729756E+04 -3.815831E+03  3.368000E+04
       152  20  6.025910E+05  2.160462E+06  6.062009E+05  6.050412E+03 -1.036925E+04  3.808821E+04
       152  21  6.799932E+05  2.535729E+06  7.218394E+05 -1.467692E+05 -6.782637E+03  4.269797E+04
       152  22  5.486593E+04  4.237933E+04  5.126587E+04 -7.902704E+04 -3.818970E+03  3.414251E+04
       152  23 -2.912817E+04 -3.654609E+05 -2.447993E+04  4.493530E+04 -1.037086E+04  3.804795E+04
       152  24  5.386635E+04  4.003346E+04  9.843128E+04 -7.731827E+04 -6.764094E+03  4.215551E+04
       152  25 -5.840880E+05 -2.509586E+06 -5.875619E+05 -7.078323E+04 -3.822104E+03  3.460289E+04
       152  26 -6.613259E+05 -2.885611E+06 -6.556418E+05  8.369161E+04 -1.037247E+04  3.800760E+04
       152  27 -5.727221E+05 -2.450028E+06 -5.254467E+05 -8.094381E+03 -6.745627E+03  4.161494E+04
       153   1 -5.679713E+04 -2.705011E+05  3.161444E+04 -7.853752E+04  3.939685E+03 -6.218363E+04
       153   2 -6.385471E+04 -3.120576E+05  8.049192E+04  5.269010E+04  4.387331E+03 -1.250250E+05
       153   3  5.676568E+04 -3.351657E+05  1.978833E+05 -6.834870E+04  4.966388E+03 -1.878568E+05
       153   4 -2.266278E+04 -1.345646E+05  6.567578E+04 -8.192421E+04  3.935781E+03 -6.209032E+04
       153   5 -2.138720E+04 -1.435833E+05  1.226701E+05  4.674642E+04  4.384691E+03 -1.249534E+05
       153   6  1.075528E+05 -1.341631E+05  2.481781E+05 -7.684508E+04  4.965437E+03 -1.878101E+05
       153   7  1.147017E+04  1.388584E+03  9.973572E+04 -8.531148E+04  3.931877E+03 -6.199698E+04
       153   8  2.107823E+04  2.491677E+04  1.648461E+05  4.080139E+04  4.382050E+03 -1.248817E+05
       153   9  1.583369E+05  6.687607E+04  2.984699E+05 -8.534387E+04  4.964485E+03 -1.877634E+05
       153  10 -5.679818E+04 -2.705053E+05  3.160714E+04 -7.853732E+04  3.219768E-09  1.633059E-08
       153  11 -6.385893E+04 -3.120744E+05  8.046249E+04  5.269054E+04  7.466575E-10  2.434984E-08
       153  12  5.675617E+04 -3.352036E+05  1.978169E+05 -6.834795E+04 -1.093836E-08  2.804697E-08
       153  13 -2.266384E+04 -1.345688E+05  6.566850E+04 -8.192401E+04  2.415811E-09 -4.336015E-08
       153  14 -2.139141E+04 -1.436001E+05  1.226407E+05  4.674687E+04  1.261756E-08 -2.149462E-08
       153  15  1.075433E+05 -1.342010E+05  2.481118E+05 -7.684433E+04  3.429427E-08 -1.485653E-08
       153  16  1.146913E+04  1.384453E+03  9.972847E+04 -8.531128E+04  6.324416E-09  6.073824E-09
       153  17  2.107402E+04  2.490002E+04  1.648167E+05  4.080183E+04 -3.578936E-08  1.684047E-08
       153  18  1.583275E+05  6.683822E+04  2.984036E+05 -8.534312E+04  1.451742E-09 -3.872442E-08
       153  19 -5.679713E+04 -2.705011E+05  3.161444E+04 -7.853752E+04 -3.939685E+03  6.218363E+04
       153  20 -6.385471E+04 -3.120576E+05  8.049192E+04  5.269010E+04 -4.387331E+03  1.250250E+05
       153  21  5.676568E+04 -3.351657E+05  1.978833E+05 -6.834870E+04 -4.966388E+03  1.878568E+05
       153  22 -2.266278E+04 -1.345646E+05  6.567578E+04 -8.192421E+04 -3.935781E+03  6.209032E+04
       153  23 -2.138720E+04 -1.435833E+05  1.226701E+05  4.674642E+04 -4.384691E+03  1.249534E+05
       153  24  1.075528E+05 -1.341631E+05  2.481781E+05 -7.684508E+04 -4.965437E+03  1.878101E+05
       153  25  1.147017E+04  1.388584E+03  9.973572E+04 -8.531148E+04 -3.931877E+03  6.199698E+04
       153  26  2.107823E+04  2.491677E+04  1.648461E+05  4.080139E+04 -4.382050E+03  1.248817E+05
       153  27  1.583369E+05  6.687607E+04  2.984699E+05 -8.534387E+04 -4.964485E+03  1.877634E+05
       154   1 -6.745052E+05 -2.592388E+06 -3.257340E+05 -2.712780E+04  2.206112E+03 -2.494117E+05
       154   2 -9.307226E+05 -3.284325E+06 -2.817525E+05  8.762645E+04 -2.735777E+03 -4.965199E+05
       154   3  2.119462E+05 -2.654118E+06  4.624779E+05 -6.221189E+04 -5.315590E+03 -7.438415E+05
       154   4  1.464286E+04  1.529150E+05  3.616913E+05 -8.348005E+04  2.205561E+03 -2.494914E+05
       154   5 -2.339497E+05 -5.071744E+05  4.138378E+05  4.772173E+04 -2.708655E+03 -4.976852E+05
       154   6  9.151080E+05  1.558312E+05  1.165563E+06 -8.564950E+04 -5.285868E+03 -7.461055E+05
       154   7  7.032253E+05  2.905067E+06  1.048546E+06 -1.400250E+05  2.204965E+03 -2.495694E+05
       154   8  4.622414E+05  2.276991E+06  1.108844E+06  7.664850E+03 -2.681520E+03 -4.988517E+05
       154   9  1.617675E+06  2.972960E+06  1.868051E+06 -1.091963E+05 -5.256089E+03 -7.483736E+05
       154  10 -6.745220E+05 -2.592455E+06 -3.258514E+05 -2.712736E+04  2.622916E-10  1.986228E-09
       154  11 -9.307892E+05 -3.284591E+06 -2.822181E+05  8.762537E+04 -8.556682E-09  8.406165E-09
       154  12  2.117969E+05 -2.654714E+06  4.614337E+05 -6.221509E+04  3.077041E-09  1.162622E-08
       154  13  1.462616E+04  1.528482E+05  3.615744E+05 -8.347961E+04 -1.343576E-08 -3.568353E-08
       154  14 -2.340162E+05 -5.074404E+05  4.133721E+05  4.772065E+04 -5.152425E-09 -8.427814E-09
       154  15  9.149586E+05  1.552340E+05  1.164517E+06 -8.565269E+04 -6.724000E-09  7.519980E-10
       154  16  7.032087E+05  2.905000E+06  1.048430E+06 -1.400246E+05  2.059938E-08  1.617529E-08
       154  17  4.621749E+05  2.276724E+06  1.108378E+06  7.663776E+03 -1.445022E-08  7.894149E-09
       154  18  1.617526E+06  2.972361E+06  1.867004E+06 -1.091995E+05 -7.982651E-09 -1.126499E-08
       154  19 -6.745052E+05 -2.592388E+06 -3.257340E+05 -2.712780E+04 -2.206112E+03  2.494117E+05
       154  20 -9.307226E+05 -3.284325E+06 -2.817525E+05  8.762645E+04  2.735777E+03  4.965199E+05
       154  21  2.119462E+05 -2.654118E+06  4.624779E+05 -6.221189E+04  5.315590E+03  7.438415E+05
       154  22  1.464286E+04  1.529150E+05  3.616913E+05 -8.348005E+04 -2.205561E+03  2.494914E+05
       154  23 -2.339497E+05 -5.071744E+05  4.138378E+05  4.772173E+04  2.708655E+03  4.976852E+05
       154  24  9.151080E+05  1.558312E+05  1.165563E+06 -8.564950E+04  5.285868E+03  7.461055E+05
       154  25  7.032253E+05  2.905067E+06  1.048546E+06 -1.400250E+05 -2.204965E+03  2.495694E+05
       154  26  4.622414E+05  2.276991E+06  1.108844E+06  7.664850E+03  2.681520E+03  4.988517E+05
       154  27  1.617675E+06  2.972960E+06  1.868051E+06 -1.091963E+05  5.256089E+03  7.483736E+05
       155   1 -4.105029E+05 -1.725221E+05 -8.036914E+04 -1.954334E+05 -4.796112E+04 -1.813621E+04
       155   2 -3.922630E+05 -9.924031E+04 -3.473379E+04 -1.847048E+05 -2.824008E+04 -1.176139E+04
       155   3 -3.865884E+05 -6.661854E+04 -1.357068E+04 -1.692974E+05 -8.290782E+03 -5.992778E+03
       155   4 -4.218425E+05 -1.379455E+05 -7.554225E+04 -1.585465E+05 -4.895832E+04 -1.851374E+04
       155   5 -4.115638E+05 -8.859105E+04 -3.520644E+04 -1.717994E+05 -3.027549E+04 -1.252527E+04
       155   6 -4.136450E+05 -7.969358E+04 -1.852044E+04 -1.803746E+05 -1.136437E+04 -7.144673E+03
       155   7 -4.331782E+05 -1.033621E+05 -7.071447E+04 -1.216602E+05 -4.995549E+04 -1.889140E+04
       155   8 -4.308634E+05 -7.794064E+04 -3.567886E+04 -1.588945E+05 -3.231082E+04 -1.328926E+04
       155   9 -4.407010E+05 -9.276843E+04 -2.347022E+04 -1.914513E+05 -1.443784E+04 -8.296481E+03
       155  10 -4.105055E+05 -1.725231E+05 -8.037409E+04 -1.954341E+05  2.668781E-08  7.949155E-09
       155  11 -3.922639E+05 -9.924067E+04 -3.473555E+04 -1.847051E+05  1.554747E-08 -2.885522E-09
       155  12 -3.865885E+05 -6.661860E+04 -1.357088E+04 -1.692975E+05 -1.023108E-08 -1.253010E-08
       155  13 -4.218452E+05 -1.379465E+05 -7.554740E+04 -1.585473E+05 -6.951670E-09  1.313391E-09
       155  14 -4.115648E+05 -8.859147E+04 -3.520846E+04 -1.717997E+05 -1.041634E-08  8.848494E-09
       155  15 -4.136452E+05 -7.969367E+04 -1.852078E+04 -1.803746E+05 -1.551642E-08  2.083789E-08
       155  16 -4.331809E+05 -1.033631E+05 -7.071983E+04 -1.216610E+05 -2.761579E-08 -1.191563E-08
       155  17 -4.308646E+05 -7.794111E+04 -3.568115E+04 -1.588949E+05 -2.016644E-08 -9.540139E-09
       155  18 -4.407012E+05 -9.276856E+04 -2.347074E+04 -1.914513E+05  1.109507E-08  9.619283E-10
       155  19 -4.105029E+05 -1.725221E+05 -8.036914E+04 -1.954334E+05  4.796112E+04  1.813621E+04
       155  20 -3.922630E+05 -9.924031E+04 -3.473379E+04 -1.847048E+05  2.824008E+04  1.176139E+04
       155  21 -3.865884E+05 -6.661854E+04 -1.357068E+04 -1.692974E+05  8.290782E+03  5.992778E+03
       155  22 -4.218425E+05 -1.379455E+05 -7.554225E+04 -1.585465E+05  4.895832E+04  1.851374E+04
       155  23 -4.115638E+05 -8.859105E+04 -3.520644E+04 -1.717994E+05  3.027549E+04  1.252527E+04
       155  24 -4.136450E+05 -7.969358E+04 -1.852044E+04 -1.803746E+05  1.136437E+04  7.144673E+03
       155  25 -4.331782E+05 -1.033621E+05 -7.071447E+04 -1.216602E+05  4.995549E+04  1.889140E+04
       155  26 -4.308634E+05 -7.794064E+04 -3.567886E+04 -1.588945E+05  3.231082E+04  1.328926E+04
       155  27 -4.407010E+05 -9.276843E+04 -2.347022E+04 -1.914513E+05  1.443784E+04  8.296481E+03
       156   1 -3.659865E+05 -6.495749E+04 -6.171380E+03 -1.677948E+05 -5.875467E+03 -6.294733E+03
       156   2 -3.444999E+05 -5.170403E+04  4.579447E+03 -1.591909E+05 -1.423454E+03 -6.658753E+03
       156   3 -3.204639E+05 -4.425932E+04  1.197948E+04 -1.545743E+05  3.048336E+03 -7.074860E+03
       156   4 -4.114781E+05 -8.016455E+04 -1.394744E+04 -1.792368E+05 -8.872451E+03 -7.418029E+03
       156   5 -4.125646E+05 -7.587071E+04 -7.335967E+03 -1.777670E+05 -4.509819E+03 -7.815623E+03
       156   6 -4.110845E+05 -7.736800E+04 -4.004509E+03 -1.802847E+05 -1.275081E+02 -8.265367E+03
       156   7 -4.569670E+05 -9.537133E+04 -2.172340E+04 -1.906779E+05 -1.186917E+04 -8.541240E+03
       156   8 -4.806244E+05 -1.000370E+05 -1.925149E+04 -1.963413E+05 -7.595823E+03 -8.972362E+03
       156   9 -5.016972E+05 -1.104762E+05 -1.998896E+04 -2.059918E+05 -3.302889E+03 -9.455694E+03
       156  10 -3.659865E+05 -6.495754E+04 -6.171519E+03 -1.677948E+05  9.557596E-09 -3.120260E-09
       156  11 -3.444999E+05 -5.170407E+04  4.579360E+03 -1.591909E+05 -9.695532E-09 -9.593709E-09
       156  12 -3.204639E+05 -4.425938E+04  1.197937E+04 -1.545743E+05 -3.047363E-08 -1.366291E-08
       156  13 -4.114782E+05 -8.016463E+04 -1.394769E+04 -1.792368E+05 -1.365354E-08  2.132265E-08
       156  14 -4.125647E+05 -7.587078E+04 -7.336120E+03 -1.777671E+05 -5.945239E-09  1.016374E-08
       156  15 -4.110845E+05 -7.736808E+04 -4.004638E+03 -1.802847E+05 -8.288943E-09 -5.812386E-10
       156  16 -4.569672E+05 -9.537144E+04 -2.172380E+04 -1.906780E+05 -1.243114E-08 -6.842441E-09
       156  17 -4.806245E+05 -1.000371E+05 -1.925174E+04 -1.963413E+05  1.188890E-08 -1.083812E-09
       156  18 -5.016972E+05 -1.104763E+05 -1.998915E+04 -2.059918E+05  2.389756E-08  5.474372E-09
       156  19 -3.659865E+05 -6.495749E+04 -6.171380E+03 -1.677948E+05  5.875467E+03  6.294733E+03
       156  20 -3.444999E+05 -5.170403E+04  4.579447E+03 -1.591909E+05  1.423454E+03  6.658753E+03
       156  21 -3.204639E+05 -4.425932E+04  1.197948E+04 -1.545743E+05 -3.048336E+03  7.074860E+03
       156  22 -4.114781E+05 -8.016455E+04 -1.394744E+04 -1.792368E+05  8.872451E+03  7.418029E+03
       156  23 -4.125646E+05 -7.587071E+04 -7.335967E+03 -1.777670E+05  4.509819E+03  7.815623E+03
       156  24 -4.110845E+05 -7.736800E+04 -4.004509E+03 -1.802847E+05  1.275081E+02  8.265367E+03
       156  25 -4.569670E+05 -9.537133E+04 -2.172340E+04 -1.906779E+05  1.186917E+04  8.541240E+03
       156  26 -4.806244E+05 -1.000370E+05 -1.925149E+04 -1.963413E+05  7.595823E+03  8.972362E+03
       156  27 -5.016972E+05 -1.104762E+05 -1.998896E+04 -2.059918E+05  3.302889E+03  9.455694E+03
       157   1 -3.050281E+05 -3.905324E+04  1.576236E+04 -1.505343E+05  4.001513E+03 -7.953430E+03
       157   2 -2.836890E+05 -2.875577E+04  2.115990E+04 -1.419445E+05  5.523724E+03 -9.501847E+03
       157   3 -2.587137E+05 -2.235334E+04  2.591673E+04 -1.377003E+05  7.047486E+03 -1.105383E+04
       157   4 -4.109119E+05 -7.740549E+04 -3.005136E+03 -1.801926E+05  8.331645E+02 -9.141214E+03
       157   5 -4.127270E+05 -7.542605E+04 -1.642068E+03 -1.780323E+05  2.349042E+03 -1.069219E+04
       157   6 -4.109051E+05 -7.734051E+04 -9.146930E+02 -1.802180E+05  3.866434E+03 -1.224674E+04
       157   7 -5.167838E+05 -1.157566E+05 -2.177294E+04 -2.098462E+05 -2.334607E+03 -1.032878E+04
       157   8 -5.417467E+05 -1.220944E+05 -2.444434E+04 -2.141130E+05 -8.249203E+02 -1.188226E+04
       157   9 -5.630704E+05 -1.323248E+05 -2.774638E+04 -2.227255E+05  6.862441E+02 -1.343932E+04
       157  10 -3.050282E+05 -3.905331E+04  1.576221E+04 -1.505343E+05 -6.382555E-10 -4.809479E-09
       157  11 -2.836891E+05 -2.875588E+04  2.115967E+04 -1.419445E+05 -1.508053E-08 -1.081156E-08
       157  12 -2.587137E+05 -2.235349E+04  2.591641E+04 -1.377003E+05 -3.421710E-08 -1.242736E-08
       157  13 -4.109119E+05 -7.740558E+04 -3.005294E+03 -1.801926E+05 -2.618619E-09 -3.902856E-09
       157  14 -4.127271E+05 -7.542618E+04 -1.642293E+03 -1.780323E+05 -1.786889E-08 -4.730400E-09
       157  15 -4.109051E+05 -7.734068E+04 -9.150029E+02 -1.802179E+05 -1.219159E-08 -5.349373E-09
       157  16 -5.167838E+05 -1.157567E+05 -2.177315E+04 -2.098462E+05 -2.470785E-09 -3.057829E-09
       157  17 -5.417468E+05 -1.220946E+05 -2.444460E+04 -2.141130E+05  8.636697E-09  1.551863E-09
       157  18 -5.630705E+05 -1.323250E+05 -2.774672E+04 -2.227255E+05  2.045162E-08  1.940294E-09
       157  19 -3.050281E+05 -3.905324E+04  1.576236E+04 -1.505343E+05 -4.001513E+03  7.953430E+03
       157  20 -2.836890E+05 -2.875577E+04  2.115990E+04 -1.419445E+05 -5.523724E+03  9.501847E+03
       157  21 -2.587137E+05 -2.235334E+04  2.591673E+04 -1.377003E+05 -7.047486E+03  1.105383E+04
       157  22 -4.109119E+05 -7.740549E+04 -3.005136E+03 -1.801926E+05 -8.331645E+02  9.141214E+03
       157  23 -4.127270E+05 -7.542605E+04 -1.642068E+03 -1.780323E+05 -2.349042E+03  1.069219E+04
       157  24 -4.109051E+05 -7.734051E+04 -9.146930E+02 -1.802180E+05 -3.866434E+03  1.224674E+04
       157  25 -5.167838E+05 -1.157566E+05 -2.177294E+04 -2.098462E+05  2.334607E+03  1.032878E+04
       157  26 -5.417467E+05 -1.220944E+05 -2.444434E+04 -2.141130E+05  8.249203E+02  1.188226E+04
       157  27 -5.630704E+05 -1.323248E+05 -2.774638E+04 -2.227255E+05 -6.862441E+02  1.343932E+04
       158   1 -2.436442E+05 -1.692945E+04  2.891422E+04 -1.335226E+05  7.585399E+03 -1.208892E+04
       158   2 -2.224159E+05 -6.736196E+03  3.322095E+04 -1.249210E+05  8.483038E+03 -1.387540E+04
       158   3 -1.974363E+05 -3.219804E+02  3.737992E+04 -1.206510E+05  9.380365E+03 -1.566020E+04
       158   4 -4.108843E+05 -7.734474E+04 -6.934683E+02 -1.802039E+05  4.406355E+03 -1.328121E+04
       158   5 -4.127624E+05 -7.546512E+04 -4.060182E+02 -1.780347E+05  5.306628E+03 -1.506698E+04
       158   6 -4.108906E+05 -7.736548E+04 -2.685630E+02 -1.801976E+05  6.206578E+03 -1.685108E+04
       158   7 -5.780965E+05 -1.377580E+05 -3.030250E+04 -2.268740E+05  1.228191E+03 -1.447317E+04
       158   8 -6.030715E+05 -1.441909E+05 -3.403438E+04 -2.311334E+05  2.131238E+03 -1.625818E+04
       158   9 -6.242967E+05 -1.544046E+05 -3.791847E+04 -2.397251E+05  3.033952E+03 -1.804151E+04
       158  10 -2.436443E+05 -1.692962E+04  2.891384E+04 -1.335225E+05  1.132467E-08  6.440731E-09
       158  11 -2.224161E+05 -6.736422E+03  3.322045E+04 -1.249209E+05  1.308490E-09  3.543656E-09
       158  12 -1.974365E+05 -3.222673E+02  3.737929E+04 -1.206509E+05 -1.006092E-08  7.585098E-10
       158  13 -4.108843E+05 -7.734494E+04 -6.938361E+02 -1.802038E+05 -1.075896E-08 -4.898073E-09
       158  14 -4.127625E+05 -7.546537E+04 -4.064976E+02 -1.780346E+05  1.383293E-08 -1.916831E-09
       158  15 -4.108907E+05 -7.736579E+04 -2.691688E+02 -1.801975E+05  1.011834E-08  2.286489E-09
       158  16 -5.780966E+05 -1.377582E+05 -3.030289E+04 -2.268739E+05 -1.562676E-08 -1.606789E-08
       158  17 -6.030716E+05 -1.441912E+05 -3.403488E+04 -2.311334E+05  4.386771E-09 -7.611647E-09
       158  18 -6.242968E+05 -1.544050E+05 -3.791910E+04 -2.397250E+05  1.575171E-08  3.573852E-09
       158  19 -2.436442E+05 -1.692945E+04  2.891422E+04 -1.335226E+05 -7.585399E+03  1.208892E+04
       158  20 -2.224159E+05 -6.736196E+03  3.322095E+04 -1.249210E+05 -8.483038E+03  1.387540E+04
       158  21 -1.974363E+05 -3.219804E+02  3.737992E+04 -1.206510E+05 -9.380365E+03  1.566020E+04
       158  22 -4.108843E+05 -7.734474E+04 -6.934683E+02 -1.802039E+05 -4.406355E+03  1.328121E+04
       158  23 -4.127624E+05 -7.546512E+04 -4.060182E+02 -1.780347E+05 -5.306628E+03  1.506698E+04
       158  24 -4.108906E+05 -7.736548E+04 -2.685630E+02 -1.801976E+05 -6.206578E+03  1.685108E+04
       158  25 -5.780965E+05 -1.377580E+05 -3.030250E+04 -2.268740E+05 -1.228191E+03  1.447317E+04
       158  26 -6.030715E+05 -1.441909E+05 -3.403438E+04 -2.311334E+05 -2.131238E+03  1.625818E+04
       158  27 -6.242967E+05 -1.544046E+05 -3.791847E+04 -2.397251E+05 -3.033952E+03  1.804151E+04
       159   1 -1.824327E+05  5.111876E+03  4.018106E+04 -1.164722E+05  9.827703E+03 -1.672663E+04
       159   2 -1.612691E+05  1.529726E+04  4.419404E+04 -1.078823E+05  1.062687E+04 -1.854125E+04
       159   3 -1.363454E+05  2.171704E+04  4.813223E+04 -1.036103E+05  1.142291E+04 -2.034646E+04
       159   4 -4.108916E+05 -7.736630E+04 -2.386860E+02 -1.801940E+05  6.655071E+03 -1.791726E+04
       159   5 -4.127719E+05 -7.548664E+04 -2.398025E+02 -1.780340E+05  7.470058E+03 -1.972629E+04
       159   6 -4.108957E+05 -7.737561E+04 -3.281740E+02 -1.801918E+05  8.281917E+03 -2.152594E+04
       159   7 -6.392932E+05 -1.598386E+05 -4.065945E+04 -2.438934E+05  3.483714E+03 -1.910740E+04
       159   8 -6.642079E+05 -1.662645E+05 -4.467563E+04 -2.481591E+05  4.314607E+03 -2.091082E+04
       159   9 -6.853691E+05 -1.764620E+05 -4.879169E+04 -2.567424E+05  5.142370E+03 -2.270486E+04
       159  10 -1.824329E+05  5.111550E+03  4.018036E+04 -1.164721E+05  3.094918E-08  1.450221E-08
       159  11 -1.612693E+05  1.529686E+04  4.419318E+04 -1.078822E+05  2.214707E-08  3.263377E-09
       159  12 -1.363456E+05  2.171656E+04  4.813121E+04 -1.036101E+05 -1.584922E-08 -7.427469E-09
       159  13 -4.108918E+05 -7.736666E+04 -2.393723E+02 -1.801940E+05  4.965228E-09  4.372660E-09
       159  14 -4.127721E+05 -7.548707E+04 -2.406385E+02 -1.780339E+05  1.217524E-08  4.771114E-09
       159  15 -4.108959E+05 -7.737613E+04 -3.291734E+02 -1.801916E+05  5.111667E-09  2.279466E-09
       159  16 -6.392933E+05 -1.598390E+05 -4.066016E+04 -2.438934E+05 -1.995139E-08 -5.800011E-09
       159  17 -6.642080E+05 -1.662649E+05 -4.467649E+04 -2.481590E+05  6.074484E-09  6.385402E-09
       159  18 -6.853693E+05 -1.764626E+05 -4.879271E+04 -2.567423E+05  2.822833E-08  1.234355E-08
       159  19 -1.824327E+05  5.111876E+03  4.018106E+04 -1.164722E+05 -9.827703E+03  1.672663E+04
       159  20 -1.612691E+05  1.529726E+04  4.419404E+04 -1.078823E+05 -1.062687E+04  1.854125E+04
       159  21 -1.363454E+05  2.171704E+04  4.813223E+04 -1.036103E+05 -1.142291E+04  2.034646E+04
       159  22 -4.108916E+05 -7.736630E+04 -2.386860E+02 -1.801940E+05 -6.655071E+03  1.791726E+04
       159  23 -4.127719E+05 -7.548664E+04 -2.398025E+02 -1.780340E+05 -7.470058E+03  1.972629E+04
       159  24 -4.108957E+05 -7.737561E+04 -3.281740E+02 -1.801918E+05 -8.281917E+03  2.152594E+04
       159  25 -6.392932E+05 -1.598386E+05 -4.065945E+04 -2.438934E+05 -3.483714E+03  1.910740E+04
       159  26 -6.642079E+05 -1.662645E+05 -4.467563E+04 -2.481591E+05 -4.314607E+03  2.091082E+04
       159  27 -6.853691E+05 -1.764620E+05 -4.879169E+04 -2.567424E+05 -5.142370E+03  2.270486E+04
       160   1 -1.213854E+05  2.714143E+04  5.081996E+04 -9.944626E+04  1.189644E+04 -2.139562E+04
       160   2 -1.002764E+05  3.731263E+04  5.458945E+04 -9.087914E+04  1.276961E+04 -2.312094E+04
       160   3 -7.543585E+04  4.371551E+04  5.821118E+04 -8.661156E+04  1.360958E+04 -2.475649E+04
       160   4 -4.109091E+05 -7.737336E+04 -4.105823E+02 -1.801922E+05  8.747152E+03 -2.257845E+04
       160   5 -4.127657E+05 -7.549559E+04 -7.022405E+02 -1.780354E+05  9.773290E+03 -2.424680E+04
       160   6 -4.109213E+05 -7.741672E+04 -1.262867E+03 -1.801786E+05  1.076619E+04 -2.582536E+04
       160   7 -7.003443E+05 -1.818801E+05 -5.164375E+04 -2.609030E+05  5.599434E+03 -2.376068E+04
       160   8 -7.251502E+05 -1.882938E+05 -5.599658E+04 -2.651503E+05  6.778588E+03 -2.537205E+04
       160   9 -7.462845E+05 -1.985369E+05 -6.073957E+04 -2.736975E+05  7.924473E+03 -2.689361E+04
       160  10 -1.213857E+05  2.714090E+04  5.081883E+04 -9.944606E+04  2.179211E-09  4.022835E-10
       160  11 -1.002767E+05  3.731202E+04  5.458814E+04 -9.087890E+04  1.259191E-08 -3.913253E-10
       160  12 -7.543622E+04  4.371480E+04  5.820968E+04 -8.661129E+04  1.240249E-08 -8.145569E-12
       160  13 -4.109094E+05 -7.737393E+04 -4.116838E+02 -1.801920E+05  3.755359E-09  1.028798E-09
       160  14 -4.127660E+05 -7.549625E+04 -7.035245E+02 -1.780352E+05  1.079621E-08  1.916621E-11
       160  15 -4.109216E+05 -7.741747E+04 -1.264338E+03 -1.801784E+05  5.183138E-09  7.968149E-10
       160  16 -7.003444E+05 -1.818807E+05 -5.164487E+04 -2.609029E+05  9.082430E-09  1.262288E-09
       160  17 -7.251505E+05 -1.882945E+05 -5.599787E+04 -2.651501E+05  1.100823E-08  1.260922E-09
       160  18 -7.462847E+05 -1.985377E+05 -6.074105E+04 -2.736974E+05  8.878535E-11  1.802237E-09
       160  19 -1.213854E+05  2.714143E+04  5.081996E+04 -9.944626E+04 -1.189644E+04  2.139562E+04
       160  20 -1.002764E+05  3.731263E+04  5.458945E+04 -9.087914E+04 -1.276961E+04  2.312094E+04
       160  21 -7.543585E+04  4.371551E+04  5.821118E+04 -8.661156E+04 -1.360958E+04  2.475649E+04
       160  22 -4.109091E+05 -7.737336E+04 -4.105823E+02 -1.801922E+05 -8.747152E+03  2.257845E+04
       160  23 -4.127657E+05 -7.549559E+04 -7.022405E+02 -1.780354E+05 -9.773290E+03  2.424680E+04
       160  24 -4.109213E+05 -7.741672E+04 -1.262867E+03 -1.801786E+05 -1.076619E+04  2.582536E+04
       160  25 -7.003443E+05 -1.818801E+05 -5.164375E+04 -2.609030E+05 -5.599434E+03  2.376068E+04
       160  26 -7.251502E+05 -1.882938E+05 -5.599658E+04 -2.651503E+05 -6.778588E+03  2.537205E+04
       160  27 -7.462845E+05 -1.985369E+05 -6.073957E+04 -2.736975E+05 -7.924473E+03  2.689361E+04
       161   1 -6.047122E+04  4.909831E+04  6.062585E+04 -8.255817E+04  1.435239E+04 -2.565173E+04
       161   2 -3.965113E+04  5.937202E+04  6.395961E+04 -7.369427E+04  1.463338E+04 -2.695165E+04
       161   3 -1.528817E+04  6.546609E+04  6.729655E+04 -6.890303E+04  1.453514E+04 -2.724065E+04
       161   4 -4.110064E+05 -7.738980E+04 -1.676428E+03 -1.801988E+05  1.138563E+04 -2.676719E+04
       161   5 -4.126933E+05 -7.571888E+04 -3.064712E+03 -1.779421E+05  1.339217E+04 -2.741968E+04
       161   6 -4.111801E+05 -7.857031E+04 -5.817736E+03 -1.797589E+05  1.501939E+04 -2.706091E+04
       161   7 -7.614155E+05 -2.038676E+05 -6.398370E+04 -2.777890E+05  8.420619E+03 -2.788198E+04
       161   8 -7.855908E+05 -2.107972E+05 -7.009433E+04 -2.821321E+05  1.215175E+04 -2.788742E+04
       161   9 -8.069079E+05 -2.225919E+05 -7.893796E+04 -2.905488E+05  1.550332E+04 -2.688129E+04
       161  10 -6.047162E+04  4.909755E+04  6.062423E+04 -8.255788E+04  3.901414E-09  1.243757E-10
       161  11 -3.965156E+04  5.937118E+04  6.395784E+04 -7.369395E+04 -5.021561E-09 -4.273941E-10
       161  12 -1.528860E+04  6.546524E+04  6.729476E+04 -6.890271E+04  2.952977E-09 -1.677287E-09
       161  13 -4.110067E+05 -7.739061E+04 -1.678017E+03 -1.801986E+05 -4.712053E-09  8.923029E-10
       161  14 -4.126937E+05 -7.571973E+04 -3.066461E+03 -1.779418E+05 -9.285012E-09  8.524699E-10
       161  15 -4.111806E+05 -7.857115E+04 -5.819536E+03 -1.797585E+05 -1.087124E-08 -4.158628E-09
       161  16 -7.614158E+05 -2.038684E+05 -6.398529E+04 -2.777888E+05 -9.627600E-09  3.474705E-09
       161  17 -7.855912E+05 -2.107981E+05 -7.009607E+04 -2.821318E+05 -1.759820E-08  1.714362E-09
       161  18 -8.069084E+05 -2.225927E+05 -7.893977E+04 -2.905485E+05 -2.020993E-08 -7.927442E-09
       161  19 -6.047122E+04  4.909831E+04  6.062585E+04 -8.255817E+04 -1.435239E+04  2.565173E+04
       161  20 -3.965113E+04  5.937202E+04  6.395961E+04 -7.369427E+04 -1.463338E+04  2.695165E+04
       161  21 -1.528817E+04  6.546609E+04  6.729655E+04 -6.890303E+04 -1.453514E+04  2.724065E+04
       161  22 -4.110064E+05 -7.738980E+04 -1.676428E+03 -1.801988E+05 -1.138563E+04  2.676719E+04
       161  23 -4.126933E+05 -7.571888E+04 -3.064712E+03 -1.779421E+05 -1.339217E+04  2.741968E+04
       161  24 -4.111801E+05 -7.857031E+04 -5.817736E+03 -1.797589E+05 -1.501939E+04  2.706091E+04
       161  25 -7.614155E+05 -2.038676E+05 -6.398370E+04 -2.777890E+05 -8.420619E+03  2.788198E+04
       161  26 -7.855908E+05 -2.107972E+05 -7.009433E+04 -2.821321E+05 -1.215175E+04  2.788742E+04
       161  27 -8.069079E+05 -2.225919E+05 -7.893796E+04 -2.905488E+05 -1.550332E+04  2.688129E+04
       162   1  5.581288E+02  7.013949E+04  6.899029E+04 -6.655209E+04  1.706346E+04 -2.689744E+04
       162   2  1.555676E+04  8.278737E+04  7.451463E+04 -4.943312E+04  2.912994E+03 -2.623220E+04
       162   3  3.090681E+04  8.098165E+04  8.590664E+04 -3.212447E+04 -1.560413E+04 -1.395294E+04
       162   4 -4.122097E+05 -7.825306E+04 -7.723349E+03 -1.800895E+05  1.609279E+04 -2.726423E+04
       162   5 -4.121377E+05 -8.118809E+04 -1.468312E+04 -1.756312E+05  2.177780E+04 -1.914644E+04
       162   6 -4.156482E+05 -1.025128E+05 -3.149728E+04 -1.709832E+05  2.309520E+04  5.898912E+02
       162   7 -8.247987E+05 -2.266304E+05 -8.444335E+04 -2.935568E+05  1.512282E+04 -2.763076E+04
       162   8 -8.396369E+05 -2.451405E+05 -1.038874E+05 -3.017453E+05  4.062836E+04 -1.206660E+04
       162   9 -8.619924E+05 -2.859769E+05 -1.489084E+05 -3.097429E+05  6.176305E+04  1.511834E+04
       162  10  5.576220E+02  7.013864E+04  6.898838E+04 -6.655172E+04 -1.786896E-08 -5.879145E-09
       162  11  1.555657E+04  8.278663E+04  7.451332E+04 -4.943305E+04 -7.780323E-09  7.431876E-10
       162  12  3.090649E+04  8.098137E+04  8.590582E+04 -3.212464E+04 -1.901255E-09  1.800904E-09
       162  13 -4.122102E+05 -7.825392E+04 -7.725232E+03 -1.800891E+05 -6.024822E-09 -6.050243E-09
       162  14 -4.121383E+05 -8.118861E+04 -1.468470E+04 -1.756309E+05 -6.973986E-09  2.446331E-09
       162  15 -4.156488E+05 -1.025130E+05 -3.149828E+04 -1.709833E+05 -7.526293E-09  5.182847E-10
       162  16 -8.247991E+05 -2.266313E+05 -8.444521E+04 -2.935565E+05  4.686288E-10 -4.928871E-09
       162  17 -8.396387E+05 -2.451411E+05 -1.038907E+05 -3.017449E+05 -1.882570E-09 -2.164024E-09
       162  18 -8.619965E+05 -2.859782E+05 -1.489160E+05 -3.097437E+05 -4.429783E-10 -1.088237E-09
       162  19  5.581288E+02  7.013949E+04  6.899029E+04 -6.655209E+04 -1.706346E+04  2.689744E+04
       162  20  1.555676E+04  8.278737E+04  7.451463E+04 -4.943312E+04 -2.912994E+03  2.623220E+04
       162  21  3.090681E+04  8.098165E+04  8.590664E+04 -3.212447E+04  1.560413E+04  1.395294E+04
       162  22 -4.122097E+05 -7.825306E+04 -7.723349E+03 -1.800895E+05 -1.609279E+04  2.726423E+04
       162  23 -4.121377E+05 -8.118809E+04 -1.468312E+04 -1.756312E+05 -2.177780E+04  1.914644E+04
       162  24 -4.156482E+05 -1.025128E+05 -3.149728E+04 -1.709832E+05 -2.309520E+04 -5.898912E+02
       162  25 -8.247987E+05 -2.266304E+05 -8.444335E+04 -2.935568E+05 -1.512282E+04  2.763076E+04
       162  26 -8.396369E+05 -2.451405E+05 -1.038874E+05 -3.017453E+05 -4.062836E+04  1.206660E+04
       162  27 -8.619924E+05 -2.859769E+05 -1.489084E+05 -3.097429E+05 -6.176305E+04 -1.511834E+04
       163   1 -5.046394E+05 -1.091560E+05 -1.471757E+05 -5.408270E+03 -1.097839E+05 -1.229926E+02
       163   2 -4.797469E+05  4.342904E+04 -5.477548E+04 -1.047748E+03 -7.226318E+04 -2.603515E+02
       163   3 -5.039453E+05  1.771140E+04 -3.130968E+04  7.369198E+02 -3.474362E+04 -2.162553E+02
       163   4 -5.594685E+05 -1.228663E+05 -1.608888E+05 -1.302405E+03 -1.097890E+05 -1.237260E+02
       163   5 -5.349046E+05  2.963551E+04 -6.856636E+04 -4.855413E+01 -7.226254E+04 -2.604726E+02
       163   6 -5.594367E+05  3.825234E+03 -4.518672E+04 -1.370624E+03 -3.473720E+04 -2.161333E+02
       163   7 -6.142949E+05 -1.365768E+05 -1.746020E+05  2.803097E+03 -1.097942E+05 -1.244595E+02
       163   8 -5.900595E+05  1.584176E+04 -8.235746E+04  9.505500E+02 -7.226189E+04 -2.605937E+02
       163   9 -6.149252E+05 -1.006115E+04 -5.906400E+04 -3.477980E+03 -3.473078E+04 -2.160113E+02
       163  10 -5.046524E+05 -1.091592E+05 -1.471984E+05 -5.408281E+03 -3.323410E-09  3.602724E-10
       163  11 -4.797526E+05  4.342764E+04 -5.478530E+04 -1.047763E+03 -3.287303E-09 -5.475441E-10
       163  12 -5.039466E+05  1.771108E+04 -3.131195E+04  7.369138E+02 -2.896152E-09 -1.885096E-09
       163  13 -5.594815E+05 -1.228695E+05 -1.609114E+05 -1.302416E+03  9.396004E-11  6.744180E-10
       163  14 -5.349102E+05  2.963411E+04 -6.857618E+04 -4.856929E+01 -8.607021E-09  1.333114E-10
       163  15 -5.594380E+05  3.824909E+03 -4.518899E+04 -1.370630E+03  5.937802E-09  4.184736E-10
       163  16 -6.143079E+05 -1.365800E+05 -1.746247E+05  2.803086E+03 -1.568166E-10  1.188387E-10
       163  17 -5.900651E+05  1.584036E+04 -8.236729E+04  9.505349E+02  4.509808E-09 -1.682654E-09
       163  18 -6.149265E+05 -1.006148E+04 -5.906627E+04 -3.477986E+03  1.298457E-09 -3.282615E-09
       163  19 -5.046394E+05 -1.091560E+05 -1.471757E+05 -5.408270E+03  1.097839E+05  1.229926E+02
       163  20 -4.797469E+05  4.342904E+04 -5.477548E+04 -1.047748E+03  7.226318E+04  2.603515E+02
       163  21 -5.039453E+05  1.771140E+04 -3.130968E+04  7.369198E+02  3.474362E+04  2.162553E+02
       163  22 -5.594685E+05 -1.228663E+05 -1.608888E+05 -1.302405E+03  1.097890E+05  1.237260E+02
       163  23 -5.349046E+05  2.963551E+04 -6.856636E+04 -4.855413E+01  7.226254E+04  2.604726E+02
       163  24 -5.594367E+05  3.825234E+03 -4.518672E+04 -1.370624E+03  3.473720E+04  2.161333E+02
       163  25 -6.142949E+05 -1.365768E+05 -1.746020E+05  2.803097E+03  1.097942E+05  1.244595E+02
       163  26 -5.900595E+05  1.584176E+04 -8.235746E+04  9.505500E+02  7.226189E+04  2.605937E+02
       163  27 -6.149252E+05 -1.006115E+04 -5.906400E+04 -3.477980E+03  3.473078E+04  2.160113E+02
       164   1 -4.907879E+05 -4.365419E+03 -2.256117E+04 -8.855200E+02 -2.722552E+04 -2.052769E+02
       164   2 -4.871384E+05  1.945290E+04 -2.963652E+03 -1.360140E+03 -1.788545E+04 -2.334710E+02
       164   3 -4.912624E+05  1.535785E+04  3.656278E+03  6.862377E+01 -8.545417E+03 -1.566886E+02
       164   4 -5.502636E+05 -1.923985E+04 -3.743322E+04 -3.282185E+02 -2.722824E+04 -2.053090E+02
       164   5 -5.463730E+05  4.637570E+03 -1.777446E+04 -1.294255E+03 -1.788392E+04 -2.334736E+02
       164   6 -5.502575E+05  5.994366E+02 -1.109712E+04 -3.569046E+02 -8.539628E+03 -1.566723E+02
       164   7 -6.097361E+05 -3.411455E+04 -5.230554E+04  2.290285E+02 -2.723095E+04 -2.053412E+02
       164   8 -6.056044E+05 -1.017803E+04 -3.258554E+04 -1.228379E+03 -1.788238E+04 -2.334763E+02
       164   9 -6.092494E+05 -1.415924E+04 -2.585077E+04 -7.823943E+02 -8.533839E+03 -1.566560E+02
       164  10 -4.907887E+05 -4.365618E+03 -2.256256E+04 -8.855245E+02  4.240439E-09 -3.530500E-09
       164  11 -4.871387E+05  1.945281E+04 -2.964253E+03 -1.360143E+03 -7.656103E-10  5.120546E-10
       164  12 -4.912625E+05  1.535783E+04  3.656140E+03  6.862269E+01 -8.996071E-11  3.161434E-09
       164  13 -5.502644E+05 -1.924005E+04 -3.743462E+04 -3.282230E+02 -3.558423E-09 -2.724917E-09
       164  14 -5.463733E+05  4.637484E+03 -1.777506E+04 -1.294259E+03 -2.150682E-09 -1.468138E-09
       164  15 -5.502576E+05  5.994170E+02 -1.109725E+04 -3.569057E+02  6.770410E-09 -5.315077E-10
       164  16 -6.097369E+05 -3.411475E+04 -5.230694E+04  2.290240E+02 -4.717042E-09 -1.471347E-09
       164  17 -6.056048E+05 -1.017811E+04 -3.258614E+04 -1.228382E+03  8.811053E-10 -1.573909E-09
       164  18 -6.092495E+05 -1.415926E+04 -2.585091E+04 -7.823953E+02 -8.462312E-10  3.066720E-09
       164  19 -4.907879E+05 -4.365419E+03 -2.256117E+04 -8.855200E+02  2.722552E+04  2.052769E+02
       164  20 -4.871384E+05  1.945290E+04 -2.963652E+03 -1.360140E+03  1.788545E+04  2.334710E+02
       164  21 -4.912624E+05  1.535785E+04  3.656278E+03  6.862377E+01  8.545417E+03  1.566886E+02
       164  22 -5.502636E+05 -1.923985E+04 -3.743322E+04 -3.282185E+02  2.722824E+04  2.053090E+02
       164  23 -5.463730E+05  4.637570E+03 -1.777446E+04 -1.294255E+03  1.788392E+04  2.334736E+02
       164  24 -5.502575E+05  5.994366E+02 -1.109712E+04 -3.569046E+02  8.539628E+03  1.566723E+02
       164  25 -6.097361E+05 -3.411455E+04 -5.230554E+04  2.290285E+02  2.723095E+04  2.053412E+02
       164  26 -6.056044E+05 -1.017803E+04 -3.258554E+04 -1.228379E+03  1.788238E+04  2.334763E+02
       164  27 -6.092494E+05 -1.415924E+04 -2.585077E+04 -7.823942E+02  8.533839E+03  1.566560E+02
       165   1 -5.296447E+05  1.789648E+03 -4.144226E+03  2.731316E+02 -6.723951E+03 -1.124148E+02
       165   2 -5.295780E+05  5.369933E+03  5.401140E+01 -2.121738E+03 -4.369813E+03 -7.342042E+01
       165   3 -5.309029E+05  4.561685E+03  1.623971E+03  4.113810E+02 -2.015756E+03 -5.003418E+00
       165   4 -5.488394E+05 -3.010868E+03 -8.942676E+03  3.307059E+02 -6.722907E+03 -1.124136E+02
       165   5 -5.481429E+05  7.263289E+02 -4.588042E+03 -2.136869E+03 -4.367421E+03 -7.341486E+01
       165   6 -5.488384E+05  7.468386E+01 -2.862678E+03  3.235544E+02 -2.012015E+03 -4.993712E+00
       165   7 -5.680338E+05 -7.811412E+03 -1.374115E+04  3.882782E+02 -6.721862E+03 -1.124123E+02
       165   8 -5.667076E+05 -3.917302E+03 -9.230121E+03 -2.151999E+03 -4.365030E+03 -7.340930E+01
       165   9 -5.667736E+05 -4.412342E+03 -7.349352E+03  2.357303E+02 -2.008274E+03 -4.984007E+00
       165  10 -5.296447E+05  1.789636E+03 -4.144311E+03  2.731310E+02  1.781017E-09  5.719865E-09
       165  11 -5.295780E+05  5.369928E+03  5.397548E+01 -2.121738E+03 -1.781955E-09  3.394324E-09
       165  12 -5.309029E+05  4.561684E+03  1.623963E+03  4.113810E+02  2.505760E-09  3.602683E-10
       165  13 -5.488394E+05 -3.010880E+03 -8.942761E+03  3.307052E+02 -2.655939E-09 -6.423514E-10
       165  14 -5.481429E+05  7.263237E+02 -4.588077E+03 -2.136869E+03 -4.317054E-09  4.165500E-09
       165  15 -5.488384E+05  7.468278E+01 -2.862686E+03  3.235544E+02  3.701560E-09  7.848920E-09
       165  16 -5.680338E+05 -7.811424E+03 -1.374124E+04  3.882776E+02  1.771411E-09  4.545949E-09
       165  17 -5.667076E+05 -3.917307E+03 -9.230156E+03 -2.152000E+03  5.041592E-09  4.755398E-09
       165  18 -5.667736E+05 -4.412343E+03 -7.349360E+03  2.357303E+02  4.752699E-09  5.852461E-09
       165  19 -5.296447E+05  1.789648E+03 -4.144226E+03  2.731316E+02  6.723951E+03  1.124148E+02
       165  20 -5.295780E+05  5.369933E+03  5.401140E+01 -2.121738E+03  4.369813E+03  7.342042E+01
       165  21 -5.309029E+05  4.561685E+03  1.623971E+03  4.113810E+02  2.015756E+03  5.003418E+00
       165  22 -5.488394E+05 -3.010868E+03 -8.942676E+03  3.307059E+02  6.722907E+03  1.124136E+02
       165  23 -5.481429E+05  7.263289E+02 -4.588042E+03 -2.136869E+03  4.367421E+03  7.341486E+01
       165  24 -5.488384E+05  7.468386E+01 -2.862678E+03  3.235544E+02  2.012015E+03  4.993712E+00
       165  25 -5.680338E+05 -7.811412E+03 -1.374115E+04  3.882782E+02  6.721862E+03  1.124123E+02
       165  26 -5.667076E+05 -3.917302E+03 -9.230121E+03 -2.151999E+03  4.365030E+03  7.340930E+01
       165  27 -5.667736E+05 -4.412342E+03 -7.349352E+03  2.357303E+02  2.008274E+03  4.984007E+00
       166   1 -5.841537E+05 -9.357787E+03 -1.121109E+04  9.173590E+01 -1.548703E+03  4.947701E+01
       166   2 -5.846177E+05 -8.911674E+03 -1.047350E+04 -2.009574E+03 -8.221988E+02  1.195845E+02
       166   3 -5.852347E+05 -9.243374E+03 -1.037649E+04  1.268958E+02 -9.556745E+01  1.378030E+02
       166   4 -5.485635E+05 -4.546656E+02 -2.309533E+03  1.733771E+02 -1.544244E+03  4.948800E+01
       166   5 -5.484868E+05  1.261686E+02 -1.438842E+03 -1.946004E+03 -8.201931E+02  1.195887E+02
       166   6 -5.485626E+05 -7.035585E+01 -1.206986E+03  1.723797E+02 -9.601358E+01  1.378016E+02
       166   7 -5.129721E+05  8.448361E+03  6.591924E+03  2.550222E+02 -1.539786E+03  4.949899E+01
       166   8 -5.123547E+05  9.163913E+03  7.595722E+03 -1.882431E+03 -8.181872E+02  1.195928E+02
       166   9 -5.118893E+05  9.102561E+03  7.962414E+03  2.178657E+02 -9.645973E+01  1.378001E+02
       166  10 -5.841537E+05 -9.357788E+03 -1.121109E+04  9.173596E+01 -9.483776E-10  5.059812E-10
       166  11 -5.846177E+05 -8.911674E+03 -1.047351E+04 -2.009574E+03 -1.904109E-09  3.666010E-09
       166  12 -5.852347E+05 -9.243374E+03 -1.037649E+04  1.268958E+02 -3.160845E-09  3.302710E-09
       166  13 -5.485635E+05 -4.546662E+02 -2.309537E+03  1.733772E+02  1.361988E-09  3.060250E-09
       166  14 -5.484868E+05  1.261685E+02 -1.438843E+03 -1.946004E+03 -3.899354E-10  4.426419E-09
       166  15 -5.485626E+05 -7.035587E+01 -1.206986E+03  1.723797E+02  2.234498E-09 -2.569999E-10
       166  16 -5.129721E+05  8.448360E+03  6.591919E+03  2.550223E+02  1.431527E-09  4.293715E-09
       166  17 -5.123547E+05  9.163913E+03  7.595721E+03 -1.882431E+03  2.689888E-09 -2.811718E-09
       166  18 -5.118893E+05  9.102561E+03  7.962414E+03  2.178657E+02  2.310899E-09 -1.463630E-09
       166  19 -5.841537E+05 -9.357787E+03 -1.121109E+04  9.173590E+01  1.548703E+03 -4.947701E+01
       166  20 -5.846177E+05 -8.911674E+03 -1.047350E+04 -2.009574E+03  8.221988E+02 -1.195845E+02
       166  21 -5.852347E+05 -9.243374E+03 -1.037649E+04  1.268958E+02  9.556745E+01 -1.378030E+02
       166  22 -5.485635E+05 -4.546656E+02 -2.309533E+03  1.733771E+02  1.544244E+03 -4.948800E+01
       166  23 -5.484868E+05  1.261686E+02 -1.438842E+03 -1.946004E+03  8.201931E+02 -1.195887E+02
       166  24 -5.485626E+05 -7.035585E+01 -1.206986E+03  1.723797E+02  9.601358E+01 -1.378016E+02
       166  25 -5.129721E+05  8.448361E+03  6.591924E+03  2.550222E+02  1.539786E+03 -4.949899E+01
       166  26 -5.123547E+05  9.163913E+03  7.595722E+03 -1.882431E+03  8.181872E+02 -1.195928E+02
       166  27 -5.118893E+05  9.102561E+03  7.962414E+03  2.178657E+02  9.645973E+01 -1.378001E+02
       167   1 -6.119400E+05 -1.591780E+04 -1.705879E+04 -7.929018E+02  1.126076E+02  1.646561E+02
       167   2 -6.120905E+05 -1.576146E+04 -1.736065E+04 -9.339281E+02  8.556844E+02  2.147640E+02
       167   3 -6.120318E+05 -1.635918E+04 -1.823615E+04 -7.272010E+02  1.598910E+03  1.735521E+02
       167   4 -5.484829E+05 -4.402662E+01 -1.189337E+03 -6.919264E+02  1.171425E+02  1.646635E+02
       167   5 -5.485880E+05  1.232249E+02 -1.481391E+03 -8.655930E+02  8.559054E+02  2.147630E+02
       167   6 -5.484830E+05 -4.627664E+02 -2.344034E+03 -6.915094E+02  1.594817E+03  1.735466E+02
       167   7 -4.850221E+05  1.582944E+04  1.467981E+04 -5.909424E+02  1.216778E+02  1.646710E+02
       167   8 -4.850818E+05  1.600761E+04  1.439756E+04 -7.972523E+02  8.561265E+02  2.147620E+02
       167   9 -4.849306E+05  1.543335E+04  1.354777E+04 -6.558151E+02  1.590724E+03  1.735411E+02
       167  10 -6.119400E+05 -1.591780E+04 -1.705879E+04 -7.929018E+02  1.115341E-09  2.816983E-09
       167  11 -6.120905E+05 -1.576146E+04 -1.736065E+04 -9.339283E+02 -3.348709E-10  9.285626E-10
       167  12 -6.120318E+05 -1.635918E+04 -1.823615E+04 -7.272013E+02 -3.818289E-09 -3.193823E-10
       167  13 -5.484829E+05 -4.402666E+01 -1.189337E+03 -6.919264E+02 -3.699491E-09  5.753334E-09
       167  14 -5.485880E+05  1.232246E+02 -1.481392E+03 -8.655932E+02 -6.658369E-09  2.253953E-09
       167  15 -5.484830E+05 -4.627671E+02 -2.344039E+03 -6.915096E+02 -2.881480E-09 -1.260935E-10
       167  16 -4.850221E+05  1.582944E+04  1.467981E+04 -5.909424E+02  4.750822E-09  2.909271E-09
       167  17 -4.850818E+05  1.600761E+04  1.439756E+04 -7.972524E+02 -3.471509E-10 -1.674739E-10
       167  18 -4.849306E+05  1.543334E+04  1.354777E+04 -6.558153E+02  2.062335E-09 -7.080817E-10
       167  19 -6.119400E+05 -1.591780E+04 -1.705879E+04 -7.929018E+02 -1.126076E+02 -1.646561E+02
       167  20 -6.120905E+05 -1.576146E+04 -1.736065E+04 -9.339281E+02 -8.556844E+02 -2.147640E+02
       167  21 -6.120318E+05 -1.635918E+04 -1.823615E+04 -7.272010E+02 -1.598910E+03 -1.735521E+02
       167  22 -5.484829E+05 -4.402662E+01 -1.189337E+03 -6.919264E+02 -1.171425E+02 -1.646635E+02
       167  23 -5.485880E+05  1.232249E+02 -1.481391E+03 -8.655930E+02 -8.559054E+02 -2.147630E+02
       167  24 -5.484830E+05 -4.627664E+02 -2.344034E+03 -6.915094E+02 -1.594817E+03 -1.735466E+02
       167  25 -4.850221E+05  1.582944E+04  1.467981E+04 -5.909424E+02 -1.216778E+02 -1.646710E+02
       167  26 -4.850818E+05  1.600761E+04  1.439756E+04 -7.972523E+02 -8.561265E+02 -2.147620E+02
       167  27 -4.849306E+05  1.543335E+04  1.354777E+04 -6.558151E+02 -1.590724E+03 -1.735411E+02
       168   1 -5.921403E+05 -1.077552E+04 -1.376131E+04 -1.698929E+03  2.067116E+03  1.530934E+02
       168   2 -5.910503E+05 -9.972493E+03 -1.543220E+04  2.871098E+02  4.487185E+03  1.462602E+02
       168   3 -5.911694E+05 -1.366993E+04 -1.975849E+04 -1.531256E+03  6.907266E+03  8.024073E+01
       168   4 -5.487974E+05  6.628895E+01 -2.923388E+03 -1.614973E+03  2.068204E+03  1.530939E+02
       168   5 -5.481942E+05  7.474230E+02 -4.715842E+03  2.877708E+02  4.485580E+03  1.462584E+02
       168   6 -5.487994E+05 -3.071266E+03 -9.161685E+03 -1.613874E+03  6.902967E+03  8.023791E+01
       168   7 -5.054528E+05  1.090796E+04  7.914391E+03 -1.531011E+03  2.069293E+03  1.530944E+02
       168   8 -5.053363E+05  1.146720E+04  6.000381E+03  2.884316E+02  4.483975E+03  1.462567E+02
       168   9 -5.064278E+05  7.527263E+03  1.434981E+03 -1.696497E+03  6.898667E+03  8.023510E+01
       168  10 -5.921403E+05 -1.077552E+04 -1.376132E+04 -1.698929E+03 -3.532184E-09  1.132314E-09
       168  11 -5.910504E+05 -9.972498E+03 -1.543224E+04  2.871093E+02 -1.079113E-08  9.701897E-10
       168  12 -5.911695E+05 -1.366994E+04 -1.975858E+04 -1.531256E+03  1.620973E-09  1.348192E-10
       168  13 -5.487974E+05  6.628778E+01 -2.923396E+03 -1.614973E+03 -3.824736E-09 -2.292036E-10
       168  14 -5.481942E+05  7.474175E+02 -4.715880E+03  2.877703E+02 -2.153772E-09  1.586095E-09
       168  15 -5.487995E+05 -3.071278E+03 -9.161774E+03 -1.613874E+03  8.295804E-11  6.181918E-10
       168  16 -5.054528E+05  1.090796E+04  7.914383E+03 -1.531012E+03  2.997020E-09 -6.946960E-10
       168  17 -5.053363E+05  1.146719E+04  6.000343E+03  2.884310E+02  2.503282E-09 -1.228390E-09
       168  18 -5.064279E+05  7.527250E+03  1.434892E+03 -1.696498E+03  1.065408E-09  1.051629E-09
       168  19 -5.921403E+05 -1.077552E+04 -1.376131E+04 -1.698929E+03 -2.067116E+03 -1.530934E+02
       168  20 -5.910503E+05 -9.972493E+03 -1.543220E+04  2.871098E+02 -4.487185E+03 -1.462602E+02
       168  21 -5.911694E+05 -1.366993E+04 -1.975849E+04 -1.531256E+03 -6.907266E+03 -8.024073E+01
       168  22 -5.487974E+05  6.628895E+01 -2.923388E+03 -1.614973E+03 -2.068204E+03 -1.530939E+02
       168  23 -5.481942E+05  7.474230E+02 -4.715842E+03  2.877708E+02 -4.485580E+03 -1.462584E+02
       168  24 -5.487994E+05 -3.071266E+03 -9.161685E+03 -1.613874E+03 -6.902967E+03 -8.023791E+01
       168  25 -5.054528E+05  1.090796E+04  7.914391E+03 -1.531011E+03 -2.069293E+03 -1.530944E+02
       168  26 -5.053363E+05  1.146720E+04  6.000381E+03  2.884316E+02 -4.483975E+03 -1.462567E+02
       168  27 -5.064278E+05  7.527263E+03  1.434981E+03 -1.696497E+03 -6.898667E+03 -8.023510E+01
       169   1 -5.408438E+05  2.976582E+03 -9.021845E+03 -2.233588E+03  8.773690E+03  2.555070E+01
       169   2 -5.359906E+05  7.327654E+03 -1.566366E+04  7.923331E+02  1.835740E+04 -3.177734E+01
       169   3 -5.395529E+05 -1.705049E+04 -3.572734E+04 -1.250403E+03  2.794093E+04 -5.062172E+01
       169   4 -5.503992E+05  5.863834E+02 -1.141282E+04 -1.898076E+03  8.769792E+03  2.555442E+01
       169   5 -5.461944E+05  4.775272E+03 -1.821501E+04  6.403444E+02  1.835521E+04 -3.178255E+01
       169   6 -5.504057E+05 -1.976561E+04 -3.844041E+04 -1.889891E+03  2.794043E+04 -5.065064E+01
       169   7 -5.599545E+05 -1.803822E+03 -1.380380E+04 -1.562569E+03  8.765894E+03  2.555814E+01
       169   8 -5.563982E+05  2.222883E+03 -2.076637E+04  4.883581E+02  1.835301E+04 -3.178775E+01
       169   9 -5.612583E+05 -2.248073E+04 -4.115349E+04 -2.529367E+03  2.793994E+04 -5.067956E+01
       169  10 -5.408439E+05  2.976562E+03 -9.021990E+03 -2.233589E+03 -2.353650E-09  9.820467E-10
       169  11 -5.359909E+05  7.327563E+03 -1.566430E+04  7.923336E+02  2.265761E-09  9.871314E-10
       169  12 -5.395537E+05 -1.705070E+04 -3.572881E+04 -1.250402E+03  5.386868E-09  1.047372E-10
       169  13 -5.503993E+05  5.863627E+02 -1.141296E+04 -1.898076E+03  1.674617E-10  1.312920E-09
       169  14 -5.461948E+05  4.775182E+03 -1.821565E+04  6.403448E+02  2.153045E-09  1.966032E-09
       169  15 -5.504065E+05 -1.976582E+04 -3.844188E+04 -1.889890E+03 -3.386005E-10 -5.409401E-10
       169  16 -5.599546E+05 -1.803843E+03 -1.380395E+04 -1.562570E+03  2.185285E-09  1.336596E-09
       169  17 -5.563986E+05  2.222792E+03 -2.076701E+04  4.883586E+02 -4.166063E-09  1.117644E-09
       169  18 -5.612592E+05 -2.248094E+04 -4.115496E+04 -2.529366E+03 -1.516991E-09  2.062974E-10
       169  19 -5.408438E+05  2.976582E+03 -9.021845E+03 -2.233588E+03 -8.773690E+03 -2.555070E+01
       169  20 -5.359906E+05  7.327654E+03 -1.566366E+04  7.923331E+02 -1.835740E+04  3.177734E+01
       169  21 -5.395529E+05 -1.705049E+04 -3.572734E+04 -1.250403E+03 -2.794093E+04  5.062172E+01
       169  22 -5.503992E+05  5.863834E+02 -1.141282E+04 -1.898076E+03 -8.769792E+03 -2.555442E+01
       169  23 -5.461944E+05  4.775272E+03 -1.821501E+04  6.403444E+02 -1.835521E+04  3.178255E+01
       169  24 -5.504057E+05 -1.976561E+04 -3.844041E+04 -1.889891E+03 -2.794043E+04  5.065064E+01
       169  25 -5.599545E+05 -1.803822E+03 -1.380380E+04 -1.562569E+03 -8.765894E+03 -2.555814E+01
       169  26 -5.563982E+05  2.222883E+03 -2.076637E+04  4.883581E+02 -1.835301E+04  3.178775E+01
       169  27 -5.612583E+05 -2.248073E+04 -4.115349E+04 -2.529367E+03 -2.793994E+04  5.067956E+01
       170   1 -5.044172E+05  1.777331E+04 -3.253997E+04 -3.412903E+03  3.566189E+04 -1.075786E+02
       170   2 -4.789340E+05  4.432356E+04 -5.646327E+04  9.941905E+02  7.416497E+04 -1.439912E+02
       170   3 -5.038315E+05 -1.120987E+05 -1.511276E+05  3.119718E+03  1.126689E+05  6.081898E+01
       170   4 -5.597240E+05  3.942082E+03 -4.637053E+04 -1.323938E+03  3.565119E+04 -1.074636E+02
       170   5 -5.345464E+05  3.041179E+04 -7.036848E+04 -1.047767E+02  7.416279E+04 -1.441213E+02
       170   6 -5.597555E+05 -1.261012E+05 -1.651179E+05 -1.167135E+03  1.126753E+05  6.005710E+01
       170   7 -6.150279E+05 -9.889357E+03 -6.020131E+04  7.648407E+02  3.564048E+04 -1.073487E+02
       170   8 -5.901560E+05  1.649979E+04 -8.427392E+04 -1.203646E+03  7.416062E+04 -1.442514E+02
       170   9 -6.156767E+05 -1.401039E+05 -1.791084E+05 -5.453603E+03  1.126816E+05  5.929507E+01
       170  10 -5.044186E+05  1.777296E+04 -3.254236E+04 -3.412900E+03 -1.360183E-09 -9.576152E-10
       170  11 -4.789399E+05  4.432208E+04 -5.647362E+04  9.941991E+02 -1.568313E-10 -1.443913E-09
       170  12 -5.038452E+05 -1.121021E+05 -1.511515E+05  3.119713E+03 -1.057635E-08 -9.227168E-10
       170  13 -5.597253E+05  3.941741E+03 -4.637292E+04 -1.323935E+03  4.206079E-09  1.921078E-10
       170  14 -5.345523E+05  3.041031E+04 -7.037882E+04 -1.047681E+02  4.691994E-09 -3.671402E-09
       170  15 -5.597692E+05 -1.261046E+05 -1.651418E+05 -1.167141E+03  1.147928E-09  1.973034E-09
       170  16 -6.150293E+05 -9.889698E+03 -6.020370E+04  7.648438E+02 -2.338392E-10  3.870205E-10
       170  17 -5.901619E+05  1.649831E+04 -8.428426E+04 -1.203637E+03  8.617644E-10  3.088225E-10
       170  18 -6.156903E+05 -1.401073E+05 -1.791323E+05 -5.453609E+03  6.920677E-10 -9.946837E-10
       170  19 -5.044172E+05  1.777331E+04 -3.253997E+04 -3.412903E+03 -3.566189E+04  1.075786E+02
       170  20 -4.789340E+05  4.432356E+04 -5.646327E+04  9.941905E+02 -7.416497E+04  1.439912E+02
       170  21 -5.038315E+05 -1.120987E+05 -1.511276E+05  3.119718E+03 -1.126689E+05 -6.081898E+01
       170  22 -5.597240E+05  3.942082E+03 -4.637053E+04 -1.323938E+03 -3.565119E+04  1.074636E+02
       170  23 -5.345464E+05  3.041179E+04 -7.036848E+04 -1.047767E+02 -7.416279E+04  1.441213E+02
       170  24 -5.597555E+05 -1.261012E+05 -1.651179E+05 -1.167135E+03 -1.126753E+05 -6.005710E+01
       170  25 -6.150279E+05 -9.889357E+03 -6.020131E+04  7.648407E+02 -3.564048E+04  1.073487E+02
       170  26 -5.901560E+05  1.649979E+04 -8.427392E+04 -1.203646E+03 -7.416062E+04  1.442514E+02
       170  27 -6.156767E+05 -1.401039E+05 -1.791084E+05 -5.453603E+03 -1.126816E+05 -5.929507E+01
       171   1  1.924446E+05  1.091218E+06  2.007740E+05 -9.412073E+04  6.597498E+03  5.331128E+04
       171   2  1.108214E+05  9.645056E+05  1.348758E+05 -5.261177E+04  1.928630E+04  2.441181E+04
       171   3  8.168749E+04  8.546808E+05  1.008945E+05 -6.510674E+04  1.631578E+04 -4.491710E+03
       171   4  4.867971E+04  5.129283E+05  5.985270E+04 -7.194200E+04  6.609773E+03  3.654159E+04
       171   5 -1.767802E+03  5.056141E+05  3.050393E+04 -4.495698E+04  1.929054E+04  2.045067E+04
       171   6 -1.924715E+03  5.129700E+05  2.420280E+04 -7.197550E+04  1.630819E+04  4.350109E+03
       171   7 -9.510786E+04 -6.505561E+04 -8.109161E+04 -4.978389E+04  6.620858E+03  1.978745E+04
       171   8 -1.143714E+05  4.691781E+04 -7.388155E+04 -3.730786E+04  1.929469E+04  1.649243E+04
       171   9 -8.554467E+04  1.713681E+05 -5.249599E+04 -7.884042E+04  1.630039E+04  1.318712E+04
       171  10  1.924438E+05  1.091215E+06  2.007686E+05 -9.412101E+04  1.975760E-09 -5.501924E-09
       171  11  1.108209E+05  9.645049E+05  1.348740E+05 -5.261214E+04  6.654165E-09  4.772538E-10
       171  12  8.168720E+04  8.546807E+05  1.008940E+05 -6.510668E+04  1.069915E-09  1.023799E-08
       171  13  4.867930E+04  5.129268E+05  5.985012E+04 -7.194219E+04 -1.953485E-09 -2.321724E-10
       171  14 -1.768314E+03  5.056135E+05  3.050245E+04 -4.495730E+04  9.944675E-09  6.487504E-10
       171  15 -1.925005E+03  5.129699E+05  2.420227E+04 -7.197556E+04 -1.766311E-09 -1.339892E-09
       171  16 -9.510801E+04 -6.505604E+04 -8.109243E+04 -4.978399E+04  8.830376E-10  5.738073E-09
       171  17 -1.143718E+05  4.691742E+04 -7.388277E+04 -3.730812E+04 -1.586769E-09 -2.695489E-09
       171  18 -8.554500E+04  1.713678E+05 -5.249681E+04 -7.884059E+04  1.523849E-09 -9.955492E-09
       171  19  1.924446E+05  1.091218E+06  2.007740E+05 -9.412073E+04 -6.597498E+03 -5.331128E+04
       171  20  1.108214E+05  9.645056E+05  1.348758E+05 -5.261177E+04 -1.928630E+04 -2.441181E+04
       171  21  8.168749E+04  8.546808E+05  1.008945E+05 -6.510674E+04 -1.631578E+04  4.491710E+03
       171  22  4.867971E+04  5.129283E+05  5.985270E+04 -7.194200E+04 -6.609773E+03 -3.654159E+04
       171  23 -1.767802E+03  5.056141E+05  3.050393E+04 -4.495698E+04 -1.929054E+04 -2.045067E+04
       171  24 -1.924715E+03  5.129700E+05  2.420280E+04 -7.197550E+04 -1.630819E+04 -4.350109E+03
       171  25 -9.510786E+04 -6.505561E+04 -8.109161E+04 -4.978389E+04 -6.620858E+03 -1.978745E+04
       171  26 -1.143714E+05  4.691781E+04 -7.388155E+04 -3.730786E+04 -1.929469E+04 -1.649243E+04
       171  27 -8.554467E+04  1.713681E+05 -5.249599E+04 -7.884042E+04 -1.630039E+04 -1.318712E+04
       172   1  6.104016E+04  7.490367E+05  7.758450E+04 -7.502210E+04  1.100813E+04 -3.894968E+03
       172   2  2.885677E+04  6.287019E+05  5.382486E+04 -4.440505E+04  5.714099E+03 -1.762095E+04
       172   3  9.897789E+03  5.133537E+05  4.227374E+04 -6.826812E+04  1.505410E+02 -3.134573E+04
       172   4  2.690415E+03  5.108186E+05  2.391786E+04 -7.207301E+04  1.100418E+04  3.293136E+02
       172   5 -6.046465E+02  5.083536E+05  2.678349E+04 -4.482953E+04  5.709642E+03 -1.317427E+04
       172   6  9.288103E+03  5.108235E+05  4.170492E+04 -7.206619E+04  1.456465E+02 -2.667918E+04
       172   7 -5.566318E+04  2.726533E+05 -2.975232E+04 -6.912504E+04  1.100028E+04  4.551992E+03
       172   8 -3.006704E+04  3.880189E+05 -2.587150E+02 -4.525393E+04  5.705179E+03 -8.728440E+03
       172   9  8.678483E+03  5.082934E+05  4.113618E+04 -7.586423E+04  1.406948E+02 -2.201265E+04
       172  10  6.104003E+04  7.490366E+05  7.758424E+04 -7.502207E+04  3.885406E-09 -4.050573E-09
       172  11  2.885665E+04  6.287015E+05  5.382421E+04 -4.440496E+04  1.468119E-09 -3.746335E-09
       172  12  9.897525E+03  5.133527E+05  4.227190E+04 -6.826812E+04  1.336751E-09  3.441092E-09
       172  13  2.690285E+03  5.108185E+05  2.391763E+04 -7.207301E+04  5.114265E-09 -7.532543E-11
       172  14 -6.047280E+02  5.083534E+05  2.678311E+04 -4.482947E+04 -3.367986E-12  8.114691E-10
       172  15  9.287912E+03  5.108228E+05  4.170358E+04 -7.206618E+04 -3.140013E-09 -1.536176E-09
       172  16 -5.566331E+04  2.726532E+05 -2.975259E+04 -6.912508E+04  7.901643E-10  4.461996E-09
       172  17 -3.006710E+04  3.880188E+05 -2.589192E+02 -4.525389E+04  3.569620E-09  5.109659E-10
       172  18  8.678353E+03  5.082929E+05  4.113527E+04 -7.586423E+04 -1.673557E-09 -2.994214E-09
       172  19  6.104016E+04  7.490367E+05  7.758450E+04 -7.502210E+04 -1.100813E+04  3.894968E+03
       172  20  2.885677E+04  6.287019E+05  5.382486E+04 -4.440505E+04 -5.714099E+03  1.762095E+04
       172  21  9.897789E+03  5.133537E+05  4.227374E+04 -6.826812E+04 -1.505410E+02  3.134573E+04
       172  22  2.690415E+03  5.108186E+05  2.391786E+04 -7.207301E+04 -1.100418E+04 -3.293136E+02
       172  23 -6.046465E+02  5.083536E+05  2.678349E+04 -4.482953E+04 -5.709642E+03  1.317427E+04
       172  24  9.288103E+03  5.108235E+05  4.170492E+04 -7.206619E+04 -1.456465E+02  2.667918E+04
       172  25 -5.566318E+04  2.726533E+05 -2.975232E+04 -6.912504E+04 -1.100028E+04 -4.551992E+03
       172  26 -3.006704E+04  3.880189E+05 -2.587150E+02 -4.525393E+04 -5.705179E+03  8.728440E+03
       172  27  8.678483E+03  5.082934E+05  4.113618E+04 -7.586423E+04 -1.406948E+02  2.201265E+04
       173   1 -3.203876E+04  4.184879E+05  2.759218E+04 -9.341941E+04 -4.548641E+03 -4.150258E+04
       173   2 -5.869506E+04  2.798911E+05  3.153084E+04 -2.297386E+04 -8.738056E+03 -7.685092E+04
       173   3  6.225667E+04  1.827268E+05  9.536476E+04 -6.610209E+03 -3.297554E+03 -1.121827E+05
       173   4 -7.411036E+03  5.192330E+05  5.031250E+04 -7.201871E+04 -4.557980E+03 -3.412970E+04
       173   5 -5.117515E+03  4.978303E+05  8.131991E+04 -4.491151E+04 -8.734651E+03 -7.735683E+04
       173   6  1.461135E+05  5.191837E+05  1.776707E+05 -7.187809E+04 -3.277993E+03 -1.205743E+05
       173   7  1.721775E+04  6.199887E+05  7.303263E+04 -5.061451E+04 -4.566810E+03 -2.675564E+04
       173   8  4.845853E+04  7.158145E+05  1.311061E+05 -6.685690E+04 -8.731212E+03 -7.786291E+04
       173   9  2.299779E+05  8.557530E+05  2.599709E+05 -1.371814E+05 -3.256676E+03 -1.289704E+05
       173  10 -3.203925E+04  4.184861E+05  2.758890E+04 -9.341956E+04 -7.950394E-10  6.028436E-09
       173  11 -5.869672E+04  2.798848E+05  3.151960E+04 -2.297440E+04 -6.737525E-10 -5.892872E-10
       173  12  6.225328E+04  1.827133E+05  9.534110E+04 -6.610507E+03 -6.215908E-09 -7.561363E-10
       173  13 -7.411371E+03  5.192318E+05  5.031027E+04 -7.201884E+04 -4.774714E-09  2.135865E-10
       173  14 -5.119202E+03  4.978239E+05  8.130853E+04 -4.491205E+04 -3.065662E-10  9.488451E-10
       173  15  1.461096E+05  5.191681E+05  1.776434E+05 -7.187841E+04 -5.737263E-10 -1.158763E-09
       173  16  1.721754E+04  6.199879E+05  7.303124E+04 -5.061461E+04  5.669088E-09 -5.348075E-09
       173  17  4.845682E+04  7.158080E+05  1.310946E+05 -6.685745E+04  8.206577E-09 -2.390767E-09
       173  18  2.299734E+05  8.557352E+05  2.599397E+05 -1.371817E+05  2.751649E-10  1.046125E-09
       173  19 -3.203876E+04  4.184879E+05  2.759218E+04 -9.341941E+04  4.548641E+03  4.150258E+04
       173  20 -5.869506E+04  2.798911E+05  3.153084E+04 -2.297386E+04  8.738056E+03  7.685092E+04
       173  21  6.225667E+04  1.827268E+05  9.536476E+04 -6.610209E+03  3.297554E+03  1.121827E+05
       173  22 -7.411036E+03  5.192330E+05  5.031250E+04 -7.201871E+04  4.557980E+03  3.412970E+04
       173  23 -5.117515E+03  4.978303E+05  8.131991E+04 -4.491151E+04  8.734651E+03  7.735683E+04
       173  24  1.461135E+05  5.191837E+05  1.776707E+05 -7.187809E+04  3.277993E+03  1.205743E+05
       173  25  1.721775E+04  6.199887E+05  7.303263E+04 -5.061451E+04  4.566810E+03  2.675564E+04
       173  26  4.845853E+04  7.158145E+05  1.311061E+05 -6.685690E+04  8.731212E+03  7.786291E+04
       173  27  2.299779E+05  8.557530E+05  2.599709E+05 -1.371814E+05  3.256676E+03  1.289704E+05
       174   1 -3.369060E+04 -3.143234E+04 -5.130036E+04 -7.189536E+03 -5.852604E+04 -9.645592E+02
       174   2 -2.864712E+04  4.768400E+04 -4.065199E+03 -3.948403E+03 -3.876779E+04 -2.617664E+03
       174   3 -4.926608E+04  3.430863E+04  7.193769E+03  1.037088E+04 -1.901305E+04 -2.147917E+03
       174   4 -1.760975E+05 -6.696755E+04 -8.674685E+04  4.624599E+03 -5.924042E+04 -9.666905E+02
       174   5 -1.632128E+05  1.413912E+04 -3.726841E+04 -9.635649E+02 -3.892605E+04 -2.618138E+03
       174   6 -1.760930E+05  2.646439E+03 -2.415832E+04  4.526522E+03 -1.861491E+04 -2.147096E+03
       174   7 -3.184857E+05 -1.025038E+05 -1.221948E+05  1.643602E+04 -5.995464E+04 -9.688493E+02
       174   8 -2.977619E+05 -1.940708E+04 -7.047296E+04  2.020619E+03 -3.908427E+04 -2.618615E+03
       174   9 -3.029052E+05 -2.901682E+04 -5.551158E+04 -1.316642E+03 -1.821685E+04 -2.146281E+03
       174  10 -3.369428E+04 -3.143326E+04 -5.130680E+04 -7.189581E+03 -2.498919E-09  1.512280E-09
       174  11 -2.864874E+04  4.768359E+04 -4.068036E+03 -3.948485E+03  3.993812E-09  6.523750E-09
       174  12 -4.926647E+04  3.430852E+04  7.193081E+03  1.037084E+04 -2.577989E-09  3.695489E-09
       174  13 -1.761013E+05 -6.696850E+04 -8.675345E+04  4.624553E+03 -4.192044E-09 -2.003379E-09
       174  14 -1.632144E+05  1.413870E+04 -3.727127E+04 -9.636470E+02  2.028926E-09 -5.074912E-09
       174  15 -1.760934E+05  2.646341E+03 -2.415898E+04  4.526490E+03 -6.856957E-09  7.832870E-10
       174  16 -3.184896E+05 -1.025047E+05 -1.222015E+05  1.643597E+04 -1.995656E-10 -6.094496E-11
       174  17 -2.977636E+05 -1.940750E+04 -7.047584E+04  2.020537E+03  8.802008E-10  3.011680E-09
       174  18 -3.029056E+05 -2.901692E+04 -5.551221E+04 -1.316673E+03  2.043653E-09  1.635429E-10
       174  19 -3.369060E+04 -3.143234E+04 -5.130036E+04 -7.189536E+03  5.852604E+04  9.645592E+02
       174  20 -2.864712E+04  4.768400E+04 -4.065199E+03 -3.948403E+03  3.876779E+04  2.617664E+03
       174  21 -4.926608E+04  3.430863E+04  7.193769E+03  1.037088E+04  1.901305E+04  2.147917E+03
       174  22 -1.760975E+05 -6.696755E+04 -8.674685E+04  4.624599E+03  5.924042E+04  9.666905E+02
       174  23 -1.632128E+05  1.413912E+04 -3.726841E+04 -9.635649E+02  3.892605E+04  2.618138E+03
       174  24 -1.760930E+05  2.646439E+03 -2.415832E+04  4.526522E+03  1.861491E+04  2.147096E+03
       174  25 -3.184857E+05 -1.025038E+05 -1.221948E+05  1.643602E+04  5.995464E+04  9.688493E+02
       174  26 -2.977619E+05 -1.940708E+04 -7.047296E+04  2.020619E+03  3.908427E+04  2.618615E+03
       174  27 -3.029052E+05 -2.901682E+04 -5.551158E+04 -1.316642E+03  1.821685E+04  2.146281E+03
       175   1 -7.079991E+04  1.571369E+04  4.901065E+03  3.177426E+03 -1.465378E+04 -1.659315E+03
       175   2 -7.679594E+04  2.504702E+04  1.317609E+04 -1.287189E+03 -9.683697E+03 -1.625019E+03
       175   3 -8.668213E+04  2.147915E+04  1.498661E+04  5.546124E+03 -4.714321E+03 -1.312784E+03
       175   4 -1.712345E+05 -9.335475E+03 -1.992896E+04  4.620795E+03 -1.468214E+04 -1.659419E+03
       175   5 -1.692824E+05  1.979096E+03 -9.672180E+03 -1.036909E+03 -9.639426E+03 -1.624957E+03
       175   6 -1.712338E+05  3.787551E+02 -5.931135E+03  4.603453E+03 -4.597352E+03 -1.312557E+03
       175   7 -2.716599E+05 -3.438538E+04 -4.475973E+04  6.063927E+03 -1.471050E+04 -1.659524E+03
       175   8 -2.617610E+05 -2.108946E+04 -3.252108E+04 -7.866701E+02 -9.595161E+03 -1.624896E+03
       175   9 -2.557789E+05 -2.072217E+04 -2.684941E+04  3.660908E+03 -4.480399E+03 -1.312330E+03
       175  10 -7.080014E+04  1.571363E+04  4.900657E+03  3.177407E+03 -1.787685E-09  7.472488E-10
       175  11 -7.679604E+04  2.504699E+04  1.317590E+04 -1.287201E+03 -2.759147E-09  2.961668E-09
       175  12 -8.668216E+04  2.147914E+04  1.498656E+04  5.546119E+03 -6.918109E-09  2.992799E-09
       175  13 -1.712347E+05 -9.335536E+03 -1.992937E+04  4.620776E+03  8.488630E-09  7.730607E-09
       175  14 -1.692825E+05  1.979068E+03 -9.672360E+03 -1.036922E+03  8.486131E-09 -1.005366E-08
       175  15 -1.712338E+05  3.787476E+02 -5.931178E+03  4.603448E+03  4.177251E-09  3.356671E-09
       175  16 -2.716602E+05 -3.438545E+04 -4.476014E+04  6.063907E+03  3.515902E-09 -3.485107E-09
       175  17 -2.617611E+05 -2.108949E+04 -3.252126E+04 -7.866827E+02  4.621411E-09 -1.602809E-09
       175  18 -2.557790E+05 -2.072218E+04 -2.684945E+04  3.660903E+03  4.050008E-09 -1.548773E-09
       175  19 -7.079991E+04  1.571369E+04  4.901065E+03  3.177426E+03  1.465378E+04  1.659315E+03
       175  20 -7.679594E+04  2.504702E+04  1.317609E+04 -1.287189E+03  9.683697E+03  1.625019E+03
       175  21 -8.668213E+04  2.147915E+04  1.498661E+04  5.546124E+03  4.714321E+03  1.312784E+03
       175  22 -1.712345E+05 -9.335475E+03 -1.992896E+04  4.620795E+03  1.468214E+04  1.659419E+03
       175  23 -1.692824E+05  1.979096E+03 -9.672180E+03 -1.036909E+03  9.639426E+03  1.624957E+03
       175  24 -1.712338E+05  3.787551E+02 -5.931135E+03  4.603453E+03  4.597352E+03  1.312557E+03
       175  25 -2.716599E+05 -3.438538E+04 -4.475973E+04  6.063927E+03  1.471050E+04  1.659524E+03
       175  26 -2.617610E+05 -2.108946E+04 -3.252108E+04 -7.866701E+02  9.595161E+03  1.624896E+03
       175  27 -2.557789E+05 -2.072217E+04 -2.684941E+04  3.660908E+03  4.480399E+03  1.312330E+03
       176   1 -1.128804E+05  1.309240E+04  9.502249E+03  4.538968E+03 -3.702690E+03 -1.104860E+03
       176   2 -1.206065E+05  1.264066E+04  9.794806E+03 -1.044257E+03 -2.463169E+03 -8.522629E+02
       176   3 -1.289824E+05  1.043430E+04  8.831375E+03  4.829938E+03 -1.223768E+03 -5.620176E+02
       176   4 -1.705100E+05 -1.278755E+03 -4.718662E+03  4.646603E+03 -3.641428E+03 -1.104744E+03
       176   5 -1.701843E+05  2.733668E+02 -2.456014E+03 -1.083508E+03 -2.392075E+03 -8.521193E+02
       176   6 -1.705100E+05  6.912385E+01 -1.456240E+03  4.643857E+03 -1.142826E+03 -5.618462E+02
       176   7 -2.281367E+05 -1.565016E+04 -1.893982E+04  4.754227E+03 -3.580172E+03 -1.104627E+03
       176   8 -2.197598E+05 -1.209411E+04 -1.470702E+04 -1.122757E+03 -2.320987E+03 -8.519757E+02
       176   9 -2.120360E+05 -1.029618E+04 -1.174398E+04  4.457788E+03 -1.061889E+03 -5.616749E+02
       176  10 -1.128804E+05  1.309240E+04  9.502221E+03  4.538964E+03 -1.455223E-09 -4.548544E-09
       176  11 -1.206065E+05  1.264065E+04  9.794794E+03 -1.044258E+03  6.756456E-09 -3.456506E-09
       176  12 -1.289824E+05  1.043430E+04  8.831371E+03  4.829937E+03  4.906284E-09 -5.283134E-09
       176  13 -1.705101E+05 -1.278760E+03 -4.718689E+03  4.646600E+03  4.313448E-09 -2.867376E-09
       176  14 -1.701843E+05  2.733645E+02 -2.456026E+03 -1.083510E+03  1.664704E-09 -5.180760E-09
       176  15 -1.705100E+05  6.912316E+01 -1.456243E+03  4.643856E+03  3.813418E-09 -1.875532E-09
       176  16 -2.281367E+05 -1.565017E+04 -1.893985E+04  4.754223E+03  1.048895E-08 -6.182601E-09
       176  17 -2.197598E+05 -1.209411E+04 -1.470703E+04 -1.122759E+03 -5.072911E-09  2.470468E-09
       176  18 -2.120360E+05 -1.029618E+04 -1.174399E+04  4.457787E+03 -5.266724E-09  6.621566E-09
       176  19 -1.128804E+05  1.309240E+04  9.502249E+03  4.538968E+03  3.702690E+03  1.104860E+03
       176  20 -1.206065E+05  1.264066E+04  9.794806E+03 -1.044257E+03  2.463169E+03  8.522629E+02
       176  21 -1.289824E+05  1.043430E+04  8.831375E+03  4.829938E+03  1.223768E+03  5.620176E+02
       176  22 -1.705100E+05 -1.278755E+03 -4.718662E+03  4.646603E+03  3.641428E+03  1.104744E+03
       176  23 -1.701843E+05  2.733668E+02 -2.456014E+03 -1.083508E+03  2.392075E+03  8.521193E+02
       176  24 -1.705100E+05  6.912385E+01 -1.456240E+03  4.643857E+03  1.142826E+03  5.618462E+02
       176  25 -2.281367E+05 -1.565016E+04 -1.893982E+04  4.754227E+03  3.580172E+03  1.104627E+03
       176  26 -2.197598E+05 -1.209411E+04 -1.470702E+04 -1.122757E+03  2.320987E+03  8.519757E+02
       176  27 -2.120360E+05 -1.029618E+04 -1.174398E+04  4.457788E+03  1.061889E+03  5.616749E+02
       177   1 -1.560709E+05  3.411648E+03  2.385388E+03  4.661634E+03 -9.837384E+02 -3.897000E+02
       177   2 -1.640922E+05  1.588711E+03  9.375517E+02 -1.092816E+03 -6.829951E+02 -1.078713E+02
       177   3 -1.722640E+05 -4.313361E+02 -7.682308E+02  4.673472E+03 -3.822706E+02  1.781053E+02
       177   4 -1.703983E+05 -1.574686E+02 -1.130479E+03  4.659109E+03 -9.100588E+02 -3.895413E+02
       177   5 -1.703228E+05  3.439379E+01 -6.021211E+02 -1.101466E+03 -6.082282E+02 -1.077095E+02
       177   6 -1.703982E+05  2.896003E+01 -3.324676E+02  4.658706E+03 -3.064125E+02  1.782704E+02
       177   7 -1.847255E+05 -3.726601E+03 -4.646361E+03  4.656584E+03 -8.363809E+02 -3.893825E+02
       177   8 -1.765535E+05 -1.519926E+03 -2.141797E+03 -1.110115E+03 -5.334621E+02 -1.075477E+02
       177   9 -1.685325E+05  4.892560E+02  1.032955E+02  4.643940E+03 -2.305542E+02  1.784355E+02
       177  10 -1.560709E+05  3.411648E+03  2.385386E+03  4.661634E+03  6.279245E-09 -7.498876E-09
       177  11 -1.640922E+05  1.588710E+03  9.375508E+02 -1.092816E+03  5.640860E-09  1.551715E-09
       177  12 -1.722640E+05 -4.313362E+02 -7.682312E+02  4.673472E+03 -2.793661E-09  2.758998E-10
       177  13 -1.703983E+05 -1.574690E+02 -1.130481E+03  4.659109E+03  4.311128E-09  1.494058E-09
       177  14 -1.703228E+05  3.439368E+01 -6.021218E+02 -1.101466E+03 -6.898771E-09 -2.305166E-09
       177  15 -1.703982E+05  2.895997E+01 -3.324678E+02  4.658706E+03 -1.036318E-09 -2.236439E-09
       177  16 -1.847255E+05 -3.726601E+03 -4.646363E+03  4.656584E+03 -1.630652E-09  3.495205E-09
       177  17 -1.765535E+05 -1.519926E+03 -2.141797E+03 -1.110115E+03  5.603114E-09  5.589165E-09
       177  18 -1.685325E+05  4.892559E+02  1.032953E+02  4.643940E+03  7.588245E-09  3.255684E-10
       177  19 -1.560709E+05  3.411648E+03  2.385388E+03  4.661634E+03  9.837384E+02  3.897000E+02
       177  20 -1.640922E+05  1.588711E+03  9.375517E+02 -1.092816E+03  6.829951E+02  1.078713E+02
       177  21 -1.722640E+05 -4.313361E+02 -7.682308E+02  4.673472E+03  3.822706E+02 -1.781053E+02
       177  22 -1.703983E+05 -1.574686E+02 -1.130479E+03  4.659109E+03  9.100588E+02  3.895413E+02
       177  23 -1.703228E+05  3.439379E+01 -6.021211E+02 -1.101466E+03  6.082282E+02  1.077095E+02
       177  24 -1.703982E+05  2.896003E+01 -3.324676E+02  4.658706E+03  3.064125E+02 -1.782704E+02
       177  25 -1.847255E+05 -3.726601E+03 -4.646361E+03  4.656584E+03  8.363809E+02  3.893825E+02
       177  26 -1.765535E+05 -1.519926E+03 -2.141797E+03 -1.110115E+03  5.334621E+02  1.075477E+02
       177  27 -1.685325E+05  4.892560E+02  1.032955E+02  4.643940E+03  2.305542E+02 -1.784355E+02
       178   1 -1.994762E+05 -7.267896E+03 -7.456271E+03  4.603862E+03 -3.313397E+02  3.463138E+02
       178   2 -2.075208E+05 -9.275501E+03 -9.274688E+03 -1.149851E+03 -2.862023E+02  6.317811E+02
       178   3 -2.156165E+05 -1.124398E+04 -1.112413E+04  4.581043E+03 -2.410164E+02  9.105999E+02
       178   4 -1.703763E+05 -3.225078E+00 -2.394174E+02  4.650848E+03 -2.551524E+02  3.464779E+02
       178   5 -1.703508E+05 -2.620921E+00 -8.888288E+01 -1.091477E+03 -2.117695E+02  6.319365E+02
       178   6 -1.703762E+05  3.739159E+01  3.182079E+01  4.650761E+03 -1.683376E+02  9.107470E+02
       178   7 -1.412757E+05  7.261383E+03  6.977373E+03  4.697835E+03 -1.789615E+02  3.466419E+02
       178   8 -1.331795E+05  9.270156E+03  9.096820E+03 -1.033100E+03 -1.373323E+02  6.320918E+02
       178   9 -1.251341E+05  1.131861E+04  1.118762E+04  4.720484E+03 -9.565355E+01  9.108940E+02
       178  10 -1.994762E+05 -7.267896E+03 -7.456272E+03  4.603862E+03 -2.076814E-09 -1.765606E-09
       178  11 -2.075208E+05 -9.275502E+03 -9.274689E+03 -1.149850E+03 -3.415224E-11 -5.190032E-09
       178  12 -2.156165E+05 -1.124398E+04 -1.112413E+04  4.581043E+03 -8.066387E-09 -3.721900E-09
       178  13 -1.703763E+05 -3.225225E+00 -2.394177E+02  4.650848E+03 -4.427527E-09  4.953094E-09
       178  14 -1.703508E+05 -2.621362E+00 -8.888372E+01 -1.091477E+03 -5.689285E-10 -4.161713E-09
       178  15 -1.703762E+05  3.739069E+01  3.181918E+01  4.650761E+03 -1.607157E-09 -3.917990E-09
       178  16 -1.412757E+05  7.261382E+03  6.977373E+03  4.697835E+03  1.163293E-09 -8.450240E-10
       178  17 -1.331795E+05  9.270156E+03  9.096819E+03 -1.033100E+03 -1.943653E-10 -1.082706E-08
       178  18 -1.251341E+05  1.131861E+04  1.118762E+04  4.720484E+03  1.259087E-09 -5.334682E-09
       178  19 -1.994762E+05 -7.267896E+03 -7.456271E+03  4.603862E+03  3.313397E+02 -3.463138E+02
       178  20 -2.075208E+05 -9.275501E+03 -9.274688E+03 -1.149851E+03  2.862023E+02 -6.317811E+02
       178  21 -2.156165E+05 -1.124398E+04 -1.112413E+04  4.581043E+03  2.410164E+02 -9.105999E+02
       178  22 -1.703763E+05 -3.225078E+00 -2.394174E+02  4.650848E+03  2.551524E+02 -3.464779E+02
       178  23 -1.703508E+05 -2.620921E+00 -8.888288E+01 -1.091477E+03  2.117695E+02 -6.319365E+02
       178  24 -1.703762E+05  3.739159E+01  3.182079E+01  4.650761E+03  1.683376E+02 -9.107470E+02
       178  25 -1.412757E+05  7.261383E+03  6.977373E+03  4.697835E+03  1.789615E+02 -3.466419E+02
       178  26 -1.331795E+05  9.270156E+03  9.096820E+03 -1.033100E+03  1.373323E+02 -6.320918E+02
       178  27 -1.251341E+05  1.131861E+04  1.118762E+04  4.720484E+03  9.565355E+01 -9.108940E+02
       179   1 -2.426224E+05 -1.802152E+04 -1.779550E+04  4.521150E+03 -2.613277E+02  1.082319E+03
       179   2 -2.506175E+05 -2.005138E+04 -1.960702E+04 -1.173004E+03 -3.639082E+02  1.368492E+03
       179   3 -2.585711E+05 -2.185238E+04 -2.130064E+04  4.476943E+03 -4.663272E+02  1.609070E+03
       179   4 -1.703562E+05  1.223041E+01  8.918271E+01  4.619658E+03 -1.797450E+02  1.082478E+03
       179   5 -1.703779E+05 -3.348081E+01  2.223770E+02 -1.052477E+03 -2.943718E+02  1.368616E+03
       179   6 -1.703559E+05  1.517863E+02  4.818554E+02  4.619397E+03 -4.088385E+02  1.609162E+03
       179   7 -9.808524E+04  1.804559E+04  1.797348E+04  4.718175E+03 -9.815286E+01  1.082637E+03
       179   8 -9.013243E+04  1.998394E+04  2.005129E+04 -9.319366E+02 -2.248264E+02  1.368740E+03
       179   9 -8.213365E+04  2.215537E+04  2.226378E+04  4.761869E+03 -3.513417E+02  1.609255E+03
       179  10 -2.426224E+05 -1.802152E+04 -1.779550E+04  4.521150E+03 -6.586987E-09 -1.278170E-09
       179  11 -2.506175E+05 -2.005139E+04 -1.960702E+04 -1.173003E+03  5.179179E-09 -3.385986E-10
       179  12 -2.585711E+05 -2.185239E+04 -2.130065E+04  4.476943E+03 -2.338558E-09 -7.737723E-10
       179  13 -1.703562E+05  1.222915E+01  8.918044E+01  4.619658E+03 -8.605090E-09 -7.514210E-10
       179  14 -1.703779E+05 -3.348284E+01  2.223733E+02 -1.052476E+03 -1.343865E-08  3.264110E-09
       179  15 -1.703559E+05  1.517835E+02  4.818502E+02  4.619398E+03 -3.744973E-09  3.747405E-09
       179  16 -9.808524E+04  1.804559E+04  1.797347E+04  4.718175E+03 -7.597774E-10  1.833969E-09
       179  17 -9.013243E+04  1.998394E+04  2.005129E+04 -9.319363E+02  2.813571E-09 -2.534855E-09
       179  18 -8.213365E+04  2.215537E+04  2.226377E+04  4.761869E+03  2.591812E-09  4.936400E-09
       179  19 -2.426224E+05 -1.802152E+04 -1.779550E+04  4.521150E+03  2.613277E+02 -1.082319E+03
       179  20 -2.506175E+05 -2.005138E+04 -1.960702E+04 -1.173004E+03  3.639082E+02 -1.368492E+03
       179  21 -2.585711E+05 -2.185238E+04 -2.130064E+04  4.476943E+03  4.663272E+02 -1.609070E+03
       179  22 -1.703562E+05  1.223041E+01  8.918271E+01  4.619658E+03  1.797450E+02 -1.082478E+03
       179  23 -1.703779E+05 -3.348081E+01  2.223770E+02 -1.052477E+03  2.943718E+02 -1.368616E+03
       179  24 -1.703559E+05  1.517863E+02  4.818554E+02  4.619397E+03  4.088385E+02 -1.609162E+03
       179  25 -9.808524E+04  1.804559E+04  1.797348E+04  4.718175E+03  9.815286E+01 -1.082637E+03
       179  26 -9.013243E+04  1.998394E+04  2.005129E+04 -9.319366E+02  2.248264E+02 -1.368740E+03
       179  27 -8.213365E+04  2.215537E+04  2.226378E+04  4.761869E+03  3.513417E+02 -1.609255E+03
       180   1 -2.850625E+05 -2.866402E+04 -2.777328E+04  4.497974E+03 -6.321210E+02  1.820477E+03
       180   2 -2.930829E+05 -3.080166E+04 -2.927295E+04 -1.176796E+03 -1.077986E+03  2.123528E+03
       180   3 -3.006782E+05 -3.153349E+04 -3.012785E+04  4.250468E+03 -1.523229E+03  2.097633E+03
       180   4 -1.702696E+05 -2.105931E+01  6.192385E+02  4.566307E+03 -5.085957E+02  1.820677E+03
       180   5 -1.704894E+05 -2.178067E+02  1.018283E+03 -9.854249E+02 -1.041362E+03  2.123562E+03
       180   6 -1.702691E+05  1.006211E+03  2.122372E+03  4.564738E+03 -1.573512E+03  2.097529E+03
       180   7 -5.546478E+04  2.862092E+04  2.901078E+04  4.634648E+03 -3.850476E+02  1.820877E+03
       180   8 -4.788227E+04  3.036493E+04  3.130840E+04 -7.940218E+02 -1.004731E+03  2.123595E+03
       180   9 -3.984457E+04  3.354464E+04  3.437133E+04  4.879068E+03 -1.623806E+03  2.097424E+03
       180  10 -2.850625E+05 -2.866403E+04 -2.777329E+04  4.497975E+03  2.316128E-09 -1.321791E-09
       180  11 -2.930829E+05 -3.080167E+04 -2.927296E+04 -1.176794E+03  8.436116E-09  5.398663E-09
       180  12 -3.006782E+05 -3.153349E+04 -3.012786E+04  4.250470E+03 -2.427790E-09 -3.204786E-11
       180  13 -1.702696E+05 -2.106294E+01  6.192318E+02  4.566308E+03  1.198661E-10 -5.451675E-09
       180  14 -1.704894E+05 -2.178119E+02  1.018272E+03 -9.854231E+02  1.526732E-09  3.622658E-09
       180  15 -1.702691E+05  1.006206E+03  2.122360E+03  4.564741E+03 -9.538344E-10  1.451889E-09
       180  16 -5.546478E+04  2.862092E+04  2.901077E+04  4.634649E+03 -4.093582E-09 -4.135189E-10
       180  17 -4.788227E+04  3.036492E+04  3.130839E+04 -7.940201E+02 -7.344938E-09 -6.089341E-09
       180  18 -3.984457E+04  3.354463E+04  3.437131E+04  4.879071E+03  2.341936E-09  6.541220E-09
       180  19 -2.850625E+05 -2.866402E+04 -2.777328E+04  4.497974E+03  6.321210E+02 -1.820477E+03
       180  20 -2.930829E+05 -3.080166E+04 -2.927295E+04 -1.176796E+03  1.077986E+03 -2.123528E+03
       180  21 -3.006782E+05 -3.153349E+04 -3.012785E+04  4.250468E+03  1.523229E+03 -2.097633E+03
       180  22 -1.702696E+05 -2.105931E+01  6.192385E+02  4.566307E+03  5.085957E+02 -1.820677E+03
       180  23 -1.704894E+05 -2.178067E+02  1.018283E+03 -9.854249E+02  1.041362E+03 -2.123562E+03
       180  24 -1.702691E+05  1.006211E+03  2.122372E+03  4.564738E+03  1.573512E+03 -2.097529E+03
       180  25 -5.546478E+04  2.862092E+04  2.901078E+04  4.634648E+03  3.850476E+02 -1.820877E+03
       180  26 -4.788227E+04  3.036493E+04  3.130840E+04 -7.940218E+02  1.004731E+03 -2.123595E+03
       180  27 -3.984457E+04  3.354464E+04  3.437133E+04  4.879068E+03  1.623806E+03 -2.097424E+03
       181   1 -3.260407E+05 -3.926218E+04 -3.605439E+04  4.925579E+03 -2.449143E+03  2.634777E+03
       181   2 -3.349931E+05 -4.238474E+04 -3.647174E+04 -1.369132E+03 -3.950700E+03  3.101471E+03
       181   3 -3.412187E+05 -3.569134E+04 -3.344174E+04  3.069896E+03 -5.449405E+03  1.059599E+03
       181   4 -1.697382E+05 -2.680246E+02  2.578428E+03  4.486721E+03 -1.994781E+03  2.635380E+03
       181   5 -1.711581E+05 -1.519650E+03  3.965141E+03 -8.840080E+02 -4.158810E+03  3.101162E+03
       181   6 -1.697370E+05  7.158344E+03  9.258665E+03  4.478804E+03 -6.319999E+03  1.058665E+03
       181   7 -1.341341E+04  3.872430E+04  4.120944E+04  4.047744E+03 -1.540305E+03  2.635982E+03
       181   8 -7.298608E+03  3.934344E+04  4.440004E+04 -3.987632E+02 -4.366975E+03  3.100853E+03
       181   9  1.771441E+03  5.000582E+04  5.195686E+04  5.888095E+03 -7.190833E+03  1.057727E+03
       181  10 -3.260407E+05 -3.926219E+04 -3.605442E+04  4.925584E+03  1.836784E-09 -1.245426E-09
       181  11 -3.349931E+05 -4.238475E+04 -3.647179E+04 -1.369122E+03 -1.808078E-09  4.392964E-10
       181  12 -3.412188E+05 -3.569134E+04 -3.344179E+04  3.069900E+03  1.046365E-09  3.582790E-09
       181  13 -1.697382E+05 -2.680331E+02  2.578407E+03  4.486725E+03 -1.165359E-11  3.569943E-09
       181  14 -1.711581E+05 -1.519665E+03  3.965090E+03 -8.839976E+02  6.133168E-09  2.197823E-10
       181  15 -1.697370E+05  7.158332E+03  9.258588E+03  4.478810E+03 -2.498119E-09  1.936411E-09
       181  16 -1.341342E+04  3.872430E+04  4.120942E+04  4.047747E+03 -2.403260E-09  9.815787E-09
       181  17 -7.298632E+03  3.934342E+04  4.439998E+04 -3.987523E+02 -5.967555E-10  4.680711E-09
       181  18  1.771385E+03  5.000580E+04  5.195676E+04  5.888101E+03  4.672106E-09 -9.923671E-10
       181  19 -3.260407E+05 -3.926218E+04 -3.605439E+04  4.925579E+03  2.449143E+03 -2.634777E+03
       181  20 -3.349931E+05 -4.238474E+04 -3.647174E+04 -1.369132E+03  3.950700E+03 -3.101471E+03
       181  21 -3.412187E+05 -3.569134E+04 -3.344174E+04  3.069896E+03  5.449405E+03 -1.059599E+03
       181  22 -1.697382E+05 -2.680246E+02  2.578428E+03  4.486721E+03  1.994781E+03 -2.635380E+03
       181  23 -1.711581E+05 -1.519650E+03  3.965141E+03 -8.840080E+02  4.158810E+03 -3.101162E+03
       181  24 -1.697370E+05  7.158344E+03  9.258665E+03  4.478804E+03  6.319999E+03 -1.058665E+03
       181  25 -1.341341E+04  3.872430E+04  4.120944E+04  4.047744E+03  1.540305E+03 -2.635982E+03
       181  26 -7.298608E+03  3.934344E+04  4.440004E+04 -3.987632E+02  4.366975E+03 -3.100853E+03
       181  27  1.771441E+03  5.000582E+04  5.195686E+04  5.888095E+03  7.190833E+03 -1.057727E+03
       182   1 -2.769421E+05 -9.362718E+05 -2.750861E+05  2.252083E+05 -1.050272E+04 -8.716481E+04
       182   2 -1.742886E+05 -7.046888E+05 -1.685234E+05  1.787815E+05 -3.130614E+04 -3.973960E+04
       182   3 -1.118397E+05 -4.890591E+05 -1.028949E+05  1.910081E+05 -2.791583E+04  7.735190E+03
       182   4 -5.011435E+04 -2.199597E+04 -5.612636E+04  1.955352E+05 -1.054207E+04 -4.072086E+04
       182   5 -8.023781E+03 -1.692687E+04 -2.539073E+04  1.662298E+05 -3.131288E+04 -2.749352E+04
       182   6 -1.679703E+02 -2.189763E+04 -1.180005E+04  1.955807E+05 -2.789954E+04 -1.423536E+04
       182   7  1.766572E+05  8.930530E+05  1.627828E+05  1.658182E+05 -1.058584E+04  5.791312E+03
       182   8  1.582116E+05  6.712838E+05  1.177166E+05  1.536640E+05 -3.132011E+04 -1.523407E+04
       182   9  1.114910E+05  4.454745E+05  7.928624E+04  2.001568E+05 -2.788357E+04 -3.622209E+04
       182  10 -2.769443E+05 -9.362800E+05 -2.751006E+05  2.252076E+05 -2.520963E-09  1.977301E-08
       182  11 -1.742901E+05 -7.046907E+05 -1.685282E+05  1.787805E+05  1.066871E-09  1.935442E-09
       182  12 -1.118406E+05 -4.890594E+05 -1.028965E+05  1.910083E+05  1.671471E-09 -1.709874E-08
       182  13 -5.011491E+04 -2.199778E+04 -5.612968E+04  1.955348E+05  4.491917E-09  3.734568E-12
       182  14 -8.025037E+03 -1.692794E+04 -2.539400E+04  1.662291E+05  3.457663E-09 -2.987771E-09
       182  15 -1.688604E+02 -2.189806E+04 -1.180190E+04  1.955804E+05 -5.458389E-10  2.773699E-10
       182  16  1.766570E+05  8.930529E+05  1.627826E+05  1.658182E+05  2.910904E-09 -1.893671E-08
       182  17  1.582105E+05  6.712833E+05  1.177143E+05  1.536636E+05  7.027524E-09 -3.402069E-09
       182  18  1.114898E+05  4.454728E+05  7.928232E+04  2.001560E+05  2.545732E-09  1.551715E-08
       182  19 -2.769421E+05 -9.362718E+05 -2.750861E+05  2.252083E+05  1.050272E+04  8.716481E+04
       182  20 -1.742886E+05 -7.046888E+05 -1.685234E+05  1.787815E+05  3.130614E+04  3.973960E+04
       182  21 -1.118397E+05 -4.890591E+05 -1.028949E+05  1.910081E+05  2.791583E+04 -7.735190E+03
       182  22 -5.011435E+04 -2.199597E+04 -5.612636E+04  1.955352E+05  1.054207E+04  4.072086E+04
       182  23 -8.023781E+03 -1.692687E+04 -2.539073E+04  1.662298E+05  3.131288E+04  2.749352E+04
       182  24 -1.679703E+02 -2.189763E+04 -1.180005E+04  1.955807E+05  2.789954E+04  1.423536E+04
       182  25  1.766572E+05  8.930530E+05  1.627828E+05  1.658182E+05  1.058584E+04 -5.791312E+03
       182  26  1.582116E+05  6.712838E+05  1.177166E+05  1.536640E+05  3.132011E+04  1.523407E+04
       182  27  1.114910E+05  4.454745E+05  7.928624E+04  2.001568E+05  2.788357E+04  3.622209E+04
       183   1 -7.740148E+04 -3.336787E+05 -6.848227E+04  1.961793E+05 -1.873445E+04  4.854887E+03
       183   2 -2.175263E+04 -1.102902E+05 -1.561369E+04  1.661520E+05 -6.030032E+03  4.568119E+03
       183   3  3.406084E+04  1.133742E+05  3.751323E+04  1.961632E+05  6.982754E+03  4.280487E+03
       183   4 -2.312072E+03 -1.957501E+04 -7.207170E+03  1.958777E+05 -1.872283E+04 -1.291315E+04
       183   5 -2.194923E+02 -1.972134E+04  1.474282E+03  1.658600E+05 -6.018754E+03 -1.363804E+04
       183   6  2.117195E+03 -1.956180E+04  1.072127E+04  1.958804E+05  6.993529E+03 -1.436370E+04
       183   7  7.277158E+04  2.946240E+05  5.406441E+04  1.955760E+05 -1.871118E+04 -3.068998E+04
       183   8  2.131335E+04  7.085611E+04  1.856314E+04  1.655680E+05 -6.007460E+03 -3.184679E+04
       183   9 -2.982735E+04 -1.524802E+05 -1.607029E+04  1.955976E+05  7.004322E+03 -3.300398E+04
       183  10 -7.740187E+04 -3.336788E+05 -6.848297E+04  1.961794E+05  5.713749E-09  3.366842E-08
       183  11 -2.175268E+04 -1.102902E+05 -1.561380E+04  1.661520E+05  9.831311E-09  1.380416E-08
       183  12  3.406078E+04  1.133741E+05  3.751310E+04  1.961632E+05  1.113864E-09 -1.049118E-08
       183  13 -2.312493E+03 -1.957528E+04 -7.208142E+03  1.958775E+05 -8.172211E-09 -1.404114E-12
       183  14 -2.195811E+02 -1.972155E+04  1.473865E+03  1.658600E+05  5.589406E-09 -1.973955E-09
       183  15  2.117087E+03 -1.956203E+04  1.072079E+04  1.958804E+05 -3.943827E-09 -5.780448E-10
       183  16  7.277095E+04  2.946229E+05  5.406198E+04  1.955755E+05  1.534554E-09 -3.132478E-08
       183  17  2.131304E+04  7.085501E+04  1.856117E+04  1.655679E+05  2.836358E-09 -1.437363E-08
       183  18 -2.982770E+04 -1.524813E+05 -1.607243E+04  1.955977E+05 -2.779164E-10  8.869709E-09
       183  19 -7.740148E+04 -3.336787E+05 -6.848227E+04  1.961793E+05  1.873445E+04 -4.854887E+03
       183  20 -2.175263E+04 -1.102902E+05 -1.561369E+04  1.661520E+05  6.030032E+03 -4.568119E+03
       183  21  3.406084E+04  1.133742E+05  3.751323E+04  1.961632E+05 -6.982754E+03 -4.280487E+03
       183  22 -2.312072E+03 -1.957501E+04 -7.207170E+03  1.958777E+05  1.872283E+04  1.291315E+04
       183  23 -2.194923E+02 -1.972134E+04  1.474282E+03  1.658600E+05  6.018754E+03  1.363804E+04
       183  24  2.117195E+03 -1.956180E+04  1.072127E+04  1.958804E+05 -6.993529E+03  1.436370E+04
       183  25  7.277158E+04  2.946240E+05  5.406441E+04  1.955760E+05  1.871118E+04  3.068998E+04
       183  26  2.131335E+04  7.085611E+04  1.856314E+04  1.655680E+05  6.007460E+03  3.184679E+04
       183  27 -2.982735E+04 -1.524802E+05 -1.607029E+04  1.955976E+05 -7.004322E+03  3.300398E+04
       184   1  6.795589E+04  2.691114E+05  7.245216E+04  1.895765E+05  1.617576E+04  5.703740E+03
       184   2  1.317840E+05  4.840105E+05  1.385440E+05  1.808208E+05  2.186769E+04 -3.883591E+04
       184   3  2.425688E+05  7.166786E+05  2.453945E+05  2.310748E+05  7.854353E+03 -8.341385E+04
       184   4 -5.319957E+02 -1.677633E+04  1.590471E+04  1.956397E+05  1.618957E+04 -1.626947E+04
       184   5  9.057609E+03 -2.326076E+04  3.190422E+04  1.661625E+05  2.186563E+04 -3.288143E+04
       184   6  6.078204E+04 -1.684777E+04  6.929081E+04  1.956906E+05  7.832066E+03 -4.951526E+04
       184   7 -6.902446E+04 -3.025848E+05 -4.064493E+04  2.017000E+05  1.620295E+04 -3.823278E+04
       184   8 -1.136845E+05 -5.302885E+05 -7.474971E+04  1.515164E+05  2.186329E+04 -2.693173E+04
       184   9 -1.210385E+05 -7.498767E+05 -1.068461E+05  1.603484E+05  7.805910E+03 -1.565650E+04
       184  10  6.795560E+04  2.691113E+05  7.245161E+04  1.895764E+05  7.845336E-10 -1.253314E-10
       184  11  1.317831E+05  4.840088E+05  1.385402E+05  1.808215E+05 -2.840650E-09 -3.234022E-09
       184  12  2.425669E+05  7.166712E+05  2.453813E+05  2.310753E+05 -2.790471E-09 -6.462329E-09
       184  13 -5.323484E+02 -1.677669E+04  1.590372E+04  1.956399E+05 -7.453617E-09  1.085791E-09
       184  14  9.056805E+03 -2.326205E+04  3.190129E+04  1.661631E+05  2.334008E-09 -2.495222E-09
       184  15  6.078132E+04 -1.685042E+04  6.928609E+04  1.956909E+05  3.600773E-09  1.488613E-09
       184  16 -6.902513E+04 -3.025864E+05 -4.064817E+04  2.017005E+05  2.938663E-09  1.661577E-09
       184  17 -1.136852E+05 -5.302895E+05 -7.475198E+04  1.515169E+05  2.245467E-09  2.033941E-09
       184  18 -1.210386E+05 -7.498770E+05 -1.068466E+05  1.603485E+05 -2.079406E-09  4.147288E-09
       184  19  6.795589E+04  2.691114E+05  7.245216E+04  1.895765E+05 -1.617576E+04 -5.703740E+03
       184  20  1.317840E+05  4.840105E+05  1.385440E+05  1.808208E+05 -2.186769E+04  3.883591E+04
       184  21  2.425688E+05  7.166786E+05  2.453945E+05  2.310748E+05 -7.854353E+03  8.341385E+04
       184  22 -5.319957E+02 -1.677633E+04  1.590471E+04  1.956397E+05 -1.618957E+04  1.626947E+04
       184  23  9.057609E+03 -2.326076E+04  3.190422E+04  1.661625E+05 -2.186563E+04  3.288143E+04
       184  24  6.078204E+04 -1.684777E+04  6.929081E+04  1.956906E+05 -7.832066E+03  4.951526E+04
       184  25 -6.902446E+04 -3.025848E+05 -4.064493E+04  2.017000E+05 -1.620295E+04  3.823278E+04
       184  26 -1.136845E+05 -5.302885E+05 -7.474971E+04  1.515164E+05 -2.186329E+04  2.693173E+04
       184  27 -1.210385E+05 -7.498767E+05 -1.068461E+05  1.603484E+05 -7.805910E+03  1.565650E+04
       185   1  6.815766E+05  2.283720E+05  1.220939E+05  2.526161E+05  4.858922E+04  1.356890E+04
       185   2  6.614456E+05  1.713426E+05  8.052647E+04  2.451079E+05  3.134888E+04 -3.446661E+03
       185   3  6.519271E+05  1.531233E+05  6.360392E+04  2.349278E+05  1.118136E+04 -1.268423E+04
       185   4  4.217816E+05  1.098004E+05  4.985114E+04  1.600670E+05  3.354832E+04  7.902607E+03
       185   5  4.146078E+05  7.185096E+04  2.222160E+04  1.687232E+05  2.523459E+04 -5.750611E+03
       185   6  4.162845E+05  7.095197E+04  1.217375E+04  1.747063E+05  1.399211E+04 -1.162578E+04
       185   7  1.620592E+05 -8.754483E+03 -2.239532E+04  6.755806E+04  1.851460E+04  2.240289E+03
       185   8  1.678328E+05 -2.763239E+04 -3.608700E+04  9.236779E+04  1.912296E+04 -8.053360E+03
       185   9  1.806954E+05 -1.121732E+04 -3.926032E+04  1.145045E+05  1.680173E+04 -1.056771E+04
       185  10  6.815740E+05  2.283711E+05  1.220892E+05  2.526156E+05 -3.014635E-09  1.537501E-09
       185  11  6.614446E+05  1.713423E+05  8.052461E+04  2.451080E+05  5.353123E-09 -1.096765E-09
       185  12  6.519270E+05  1.531231E+05  6.360338E+04  2.349279E+05  2.689429E-09 -2.644888E-09
       185  13  4.217804E+05  1.098001E+05  4.984890E+04  1.600668E+05  4.469164E-12 -2.032708E-09
       185  14  4.146071E+05  7.185075E+04  2.222035E+04  1.687233E+05  6.246577E-10  4.444466E-09
       185  15  4.162842E+05  7.095177E+04  1.217313E+04  1.747064E+05  9.992435E-10  7.540482E-10
       185  16  1.620588E+05 -8.754581E+03 -2.239598E+04  6.755803E+04  2.428897E-09  2.762468E-09
       185  17  1.678323E+05 -2.763256E+04 -3.608781E+04  9.236791E+04  1.971115E-09  3.925282E-09
       185  18  1.806951E+05 -1.121752E+04 -3.926106E+04  1.145046E+05 -1.781498E-10  7.155507E-09
       185  19  6.815766E+05  2.283720E+05  1.220939E+05  2.526161E+05 -4.858922E+04 -1.356890E+04
       185  20  6.614456E+05  1.713426E+05  8.052647E+04  2.451079E+05 -3.134888E+04  3.446661E+03
       185  21  6.519271E+05  1.531233E+05  6.360392E+04  2.349278E+05 -1.118136E+04  1.268423E+04
       185  22  4.217816E+05  1.098004E+05  4.985114E+04  1.600670E+05 -3.354832E+04 -7.902607E+03
       185  23  4.146078E+05  7.185096E+04  2.222160E+04  1.687232E+05 -2.523459E+04  5.750611E+03
       185  24  4.162845E+05  7.095197E+04  1.217375E+04  1.747063E+05 -1.399211E+04  1.162578E+04
       185  25  1.620592E+05 -8.754483E+03 -2.239532E+04  6.755806E+04 -1.851460E+04 -2.240289E+03
       185  26  1.678328E+05 -2.763239E+04 -3.608700E+04  9.236779E+04 -1.912296E+04  8.053360E+03
       185  27  1.806954E+05 -1.121732E+04 -3.926032E+04  1.145045E+05 -1.680173E+04  1.056771E+04
       186   1  6.306871E+05  1.538482E+05  5.760411E+04  2.333654E+05  1.124514E+04 -1.125054E+04
       186   2  6.118351E+05  1.415753E+05  4.806616E+04  2.247352E+05  7.936778E+03 -1.145209E+04
       186   3  5.888713E+05  1.359681E+05  4.115147E+04  2.216214E+05  4.478256E+03 -1.125554E+04
       186   4  4.147058E+05  7.350062E+04  9.458833E+03  1.730150E+05  1.206488E+04 -1.094215E+04
       186   5  4.166940E+05  6.940476E+04  4.972375E+03  1.705622E+05  9.214046E+03 -1.097115E+04
       186   6  4.144796E+05  7.188432E+04  2.747459E+03  1.736256E+05  6.212929E+03 -1.060203E+04
       186   7  1.987716E+05 -6.843128E+03 -3.868936E+04  1.126840E+05  1.288430E+04 -1.063387E+04
       186   8  2.215920E+05 -2.762476E+03 -3.812355E+04  1.164050E+05  1.049088E+04 -1.049037E+04
       186   9  2.401198E+05  7.803323E+03 -3.565807E+04  1.256425E+05  7.947064E+03 -9.948713E+03
       186  10  6.306869E+05  1.538480E+05  5.760364E+04  2.333655E+05 -2.939088E-08 -1.766920E-08
       186  11  6.118350E+05  1.415751E+05  4.806579E+04  2.247352E+05 -9.651182E-09  1.200020E-11
       186  12  5.888712E+05  1.359680E+05  4.115120E+04  2.216214E+05  2.937581E-08  1.472126E-08
       186  13  4.147056E+05  7.350045E+04  9.458334E+03  1.730151E+05 -2.575723E-09 -6.539279E-09
       186  14  4.166938E+05  6.940461E+04  4.971989E+03  1.705623E+05 -6.645526E-09 -1.204119E-08
       186  15  4.144795E+05  7.188419E+04  2.747175E+03  1.736257E+05 -5.542209E-10 -9.739996E-09
       186  16  1.987714E+05 -6.843294E+03 -3.868988E+04  1.126841E+05  2.145704E-08  1.127119E-08
       186  17  2.215918E+05 -2.762624E+03 -3.812396E+04  1.164051E+05 -1.079264E-08 -3.594116E-09
       186  18  2.401197E+05  7.803200E+03 -3.565838E+04  1.256426E+05 -2.809956E-08 -9.224505E-09
       186  19  6.306871E+05  1.538482E+05  5.760411E+04  2.333654E+05 -1.124514E+04  1.125054E+04
       186  20  6.118351E+05  1.415753E+05  4.806616E+04  2.247352E+05 -7.936778E+03  1.145209E+04
       186  21  5.888713E+05  1.359681E+05  4.115147E+04  2.216214E+05 -4.478256E+03  1.125554E+04
       186  22  4.147058E+05  7.350062E+04  9.458833E+03  1.730150E+05 -1.206488E+04  1.094215E+04
       186  23  4.166940E+05  6.940476E+04  4.972375E+03  1.705622E+05 -9.214046E+03  1.097115E+04
       186  24  4.144796E+05  7.188432E+04  2.747459E+03  1.736256E+05 -6.212929E+03  1.060203E+04
       186  25  1.987716E+05 -6.843128E+03 -3.868936E+04  1.126840E+05 -1.288430E+04  1.063387E+04
       186  26  2.215920E+05 -2.762476E+03 -3.812355E+04  1.164050E+05 -1.049088E+04  1.049037E+04
       186  27  2.401198E+05  7.803323E+03 -3.565807E+04  1.256425E+05 -7.947064E+03  9.948713E+03
       187   1  5.731647E+05  1.305460E+05  3.697273E+04  2.174761E+05  3.866988E+03 -1.049250E+04
       187   2  5.546301E+05  1.202118E+05  3.147009E+04  2.087792E+05  2.730623E+03 -9.286583E+03
       187   3  5.311238E+05  1.150410E+05  2.643143E+04  2.058743E+05  1.586909E+03 -8.061793E+03
       187   4  4.143685E+05  7.198557E+04  2.078692E+03  1.735309E+05  5.497207E+03 -9.878258E+03
       187   5  4.168545E+05  6.938539E+04  1.153589E+03  1.706431E+05  4.382659E+03 -8.663969E+03
       187   6  4.143644E+05  7.194449E+04  6.753838E+02  1.735471E+05  3.260742E+03 -7.430818E+03
       187   7  2.555967E+05  1.342672E+04 -3.281717E+04  1.295957E+05  7.126986E+03 -9.264177E+03
       187   8  2.790975E+05  1.856029E+04 -2.916420E+04  1.325146E+05  6.034305E+03 -8.041502E+03
       187   9  2.976186E+05  2.884904E+04 -2.508150E+04  1.412256E+05  4.934236E+03 -6.799971E+03
       187  10  5.731646E+05  1.305459E+05  3.697249E+04  2.174761E+05 -8.451905E-09 -1.522653E-09
       187  11  5.546301E+05  1.202117E+05  3.146992E+04  2.087792E+05  1.840320E-09  9.142499E-10
       187  12  5.311238E+05  1.150409E+05  2.643131E+04  2.058743E+05  1.452217E-08  9.575495E-09
       187  13  4.143684E+05  7.198546E+04  2.078451E+03  1.735309E+05  5.118501E-09 -4.786999E-09
       187  14  4.168544E+05  6.938530E+04  1.153412E+03  1.706431E+05  2.972348E-09 -3.380402E-09
       187  15  4.143643E+05  7.194443E+04  6.752600E+02  1.735472E+05 -1.427893E-09 -1.486407E-09
       187  16  2.555966E+05  1.342661E+04 -3.281742E+04  1.295958E+05  1.501857E-08  5.063129E-09
       187  17  2.790974E+05  1.856021E+04 -2.916439E+04  1.325146E+05  1.225181E-08  6.829102E-09
       187  18  2.976186E+05  2.884898E+04 -2.508163E+04  1.412256E+05 -6.827811E-09 -3.113915E-09
       187  19  5.731647E+05  1.305460E+05  3.697273E+04  2.174761E+05 -3.866988E+03  1.049250E+04
       187  20  5.546301E+05  1.202118E+05  3.147009E+04  2.087792E+05 -2.730623E+03  9.286583E+03
       187  21  5.311238E+05  1.150410E+05  2.643143E+04  2.058743E+05 -1.586909E+03  8.061793E+03
       187  22  4.143685E+05  7.198557E+04  2.078692E+03  1.735309E+05 -5.497207E+03  9.878258E+03
       187  23  4.168545E+05  6.938539E+04  1.153589E+03  1.706431E+05 -4.382659E+03  8.663969E+03
       187  24  4.143644E+05  7.194449E+04  6.753838E+02  1.735471E+05 -3.260742E+03  7.430818E+03
       187  25  2.555967E+05  1.342672E+04 -3.281717E+04  1.295957E+05 -7.126986E+03  9.264177E+03
       187  26  2.790975E+05  1.856029E+04 -2.916420E+04  1.325146E+05 -6.034305E+03  8.041502E+03
       187  27  2.976186E+05  2.884904E+04 -2.508150E+04  1.412256E+05 -4.934236E+03  6.799971E+03
       188   1  5.157604E+05  1.093642E+05  2.278502E+04  2.016327E+05  1.172825E+03 -7.248815E+03
       188   2  4.973221E+05  9.911310E+04  1.809332E+04  1.929448E+05  4.304902E+02 -5.868320E+03
       188   3  4.738437E+05  9.393829E+04  1.354722E+04  1.900311E+05 -3.119769E+02 -4.487802E+03
       188   4  4.143532E+05  7.194465E+04  5.387469E+02  1.735365E+05  2.840043E+03 -6.620269E+03
       188   5  4.168746E+05  6.940829E+04  3.902716E+02  1.706490E+05  2.097761E+03 -5.239675E+03
       188   6  4.143551E+05  7.194830E+04  3.873467E+02  1.735357E+05  1.355336E+03 -3.859055E+03
       188   7  3.129571E+05  3.452614E+04 -2.170795E+04  1.454446E+05  4.506957E+03 -5.991837E+03
       188   8  3.364336E+05  3.970400E+04 -1.731316E+04  1.483559E+05  3.764798E+03 -4.611118E+03
       188   9  3.548698E+05  4.995845E+04 -1.277284E+04  1.570417E+05  3.022486E+03 -3.230369E+03
       188  10  5.157604E+05  1.093642E+05  2.278492E+04  2.016327E+05  2.541475E-08  1.005656E-08
       188  11  4.973221E+05  9.911306E+04  1.809325E+04  1.929448E+05  3.191955E-09  4.415426E-09
       188  12  4.738437E+05  9.393827E+04  1.354718E+04  1.900311E+05 -1.574034E-08 -3.229637E-09
       188  13  4.143532E+05  7.194460E+04  5.386493E+02  1.735365E+05  1.600817E-09  2.167120E-09
       188  14  4.168746E+05  6.940826E+04  3.902117E+02  1.706490E+05  1.041588E-08 -1.553372E-09
       188  15  4.143551E+05  7.194829E+04  3.873153E+02  1.735357E+05  7.856741E-09 -5.371938E-09
       188  16  3.129571E+05  3.452610E+04 -2.170806E+04  1.454446E+05 -2.152539E-08 -1.818343E-09
       188  17  3.364336E+05  3.970398E+04 -1.731322E+04  1.483559E+05 -2.759196E-09 -2.747632E-09
       188  18  3.548698E+05  4.995844E+04 -1.277288E+04  1.570417E+05  2.082570E-08  7.251751E-09
       188  19  5.157604E+05  1.093642E+05  2.278502E+04  2.016327E+05 -1.172825E+03  7.248815E+03
       188  20  4.973221E+05  9.911310E+04  1.809332E+04  1.929448E+05 -4.304902E+02  5.868320E+03
       188  21  4.738437E+05  9.393829E+04  1.354722E+04  1.900311E+05  3.119769E+02  4.487802E+03
       188  22  4.143532E+05  7.194465E+04  5.387469E+02  1.735365E+05 -2.840043E+03  6.620269E+03
       188  23  4.168746E+05  6.940829E+04  3.902716E+02  1.706490E+05 -2.097761E+03  5.239675E+03
       188  24  4.143551E+05  7.194830E+04  3.873467E+02  1.735357E+05 -1.355336E+03  3.859055E+03
       188  25  3.129571E+05  3.452614E+04 -2.170795E+04  1.454446E+05 -4.506957E+03  5.991837E+03
       188  26  3.364336E+05  3.970400E+04 -1.731316E+04  1.483559E+05 -3.764798E+03  4.611118E+03
       188  27  3.548698E+05  4.995845E+04 -1.277284E+04  1.570417E+05 -3.022486E+03  3.230369E+03
       189   1  4.585362E+05  8.826326E+04  1.009098E+04  1.857988E+05 -6.988077E+02 -3.667429E+03
       189   2  4.401085E+05  7.802160E+04  5.775265E+03  1.771273E+05 -1.571974E+03 -2.337388E+03
       189   3  4.166643E+05  7.285631E+04  1.703331E+03  1.742271E+05 -2.444814E+03 -1.008213E+03
       189   4  4.143606E+05  7.194774E+04  4.348382E+02  1.735353E+05  9.676896E+02 -3.038955E+03
       189   5  4.168686E+05  6.940603E+04  6.557784E+02  1.706512E+05  9.349809E+01 -1.709279E+03
       189   6  4.143599E+05  7.194080E+04  1.121278E+03  1.735381E+05 -7.803766E+02 -3.804744E+02
       189   7  3.701869E+05  5.563239E+04 -9.221406E+03  1.612727E+05  2.634058E+03 -2.410530E+03
       189   8  3.936294E+05  6.079054E+04 -4.463706E+03  1.641752E+05  1.758897E+03 -1.081198E+03
       189   9  4.120554E+05  7.102529E+04  5.392399E+02  1.728490E+05  8.840426E+02  2.472574E+02
       189  10  4.585362E+05  8.826325E+04  1.009095E+04  1.857988E+05 -8.079942E-09 -2.883667E-09
       189  11  4.401085E+05  7.802159E+04  5.775250E+03  1.771273E+05  2.348590E-09 -1.073525E-09
       189  12  4.166643E+05  7.285631E+04  1.703318E+03  1.742271E+05  1.933296E-10  2.892089E-09
       189  13  4.143606E+05  7.194773E+04  4.348191E+02  1.735353E+05  5.553581E-09  5.109358E-10
       189  14  4.168686E+05  6.940603E+04  6.557729E+02  1.706512E+05 -3.039794E-09 -2.889701E-09
       189  15  4.143599E+05  7.194080E+04  1.121276E+03  1.735381E+05 -2.129907E-09  4.108626E-09
       189  16  3.701869E+05  5.563238E+04 -9.221430E+03  1.612727E+05  1.077391E-08 -1.525511E-09
       189  17  3.936294E+05  6.079054E+04 -4.463714E+03  1.641753E+05  1.339359E-08 -7.819868E-09
       189  18  4.120554E+05  7.102529E+04  5.392384E+02  1.728490E+05  4.409828E-09 -8.231180E-09
       189  19  4.585362E+05  8.826326E+04  1.009098E+04  1.857988E+05  6.988077E+02  3.667429E+03
       189  20  4.401085E+05  7.802160E+04  5.775265E+03  1.771273E+05  1.571974E+03  2.337388E+03
       189  21  4.166643E+05  7.285631E+04  1.703331E+03  1.742271E+05  2.444814E+03  1.008213E+03
       189  22  4.143606E+05  7.194774E+04  4.348382E+02  1.735353E+05 -9.676896E+02  3.038955E+03
       189  23  4.168686E+05  6.940603E+04  6.557784E+02  1.706512E+05 -9.349809E+01  1.709279E+03
       189  24  4.143599E+05  7.194080E+04  1.121278E+03  1.735381E+05  7.803766E+02  3.804744E+02
       189  25  3.701869E+05  5.563239E+04 -9.221406E+03  1.612727E+05 -2.634058E+03  2.410530E+03
       189  26  3.936294E+05  6.079054E+04 -4.463706E+03  1.641752E+05 -1.758897E+03  1.081198E+03
       189  27  4.120554E+05  7.102529E+04  5.392399E+02  1.728490E+05 -8.840426E+02 -2.472574E+02
       190   1  4.013731E+05  6.719869E+04 -1.442542E+03  1.700373E+05 -2.982871E+03 -2.447099E+02
       190   2  3.828498E+05  5.693875E+04 -4.811094E+03  1.613512E+05 -4.836104E+03  7.104607E+02
       190   3  3.594935E+05  5.191960E+04 -7.166252E+03  1.584446E+05 -6.684496E+03  1.653048E+03
       190   4  4.143953E+05  7.193576E+04  1.477671E+03  1.735558E+05 -1.315114E+03  3.842782E+02
       190   5  4.168176E+05  6.936730E+04  2.650161E+03  1.706457E+05 -3.182890E+03  1.333933E+03
       190   6  4.144096E+05  7.204264E+04  4.847637E+03  1.735151E+05 -5.045867E+03  2.270988E+03
       190   7  4.274177E+05  7.667287E+04  4.397910E+03  1.770744E+05  3.526922E+02  1.013284E+03
       190   8  4.507866E+05  8.179599E+04  1.011139E+04  1.799408E+05 -1.529572E+03  1.957444E+03
       190   9  4.693288E+05  9.216592E+04  1.686136E+04  1.885869E+05 -3.407082E+03  2.888987E+03
       190  10  4.013730E+05  6.719869E+04 -1.442559E+03  1.700373E+05  2.279135E-08  1.334005E-08
       190  11  3.828498E+05  5.693875E+04 -4.811139E+03  1.613512E+05 -1.542699E-09  1.170766E-08
       190  12  3.594935E+05  5.191959E+04 -7.166341E+03  1.584446E+05 -2.667764E-08 -3.661776E-09
       190  13  4.143953E+05  7.193576E+04  1.477668E+03  1.735558E+05  5.443491E-09 -2.021361E-10
       190  14  4.168176E+05  6.936730E+04  2.650138E+03  1.706457E+05  1.064484E-08  2.111265E-09
       190  15  4.144096E+05  7.204263E+04  4.847580E+03  1.735151E+05  2.290106E-09  2.001791E-09
       190  16  4.274177E+05  7.667287E+04  4.397908E+03  1.770744E+05 -1.375102E-08 -1.343867E-08
       190  17  4.507866E+05  8.179599E+04  1.011138E+04  1.799408E+05  1.039421E-09  1.777670E-09
       190  18  4.693287E+05  9.216591E+04  1.686132E+04  1.885869E+05  2.855658E-08  1.705457E-08
       190  19  4.013731E+05  6.719869E+04 -1.442542E+03  1.700373E+05  2.982871E+03  2.447099E+02
       190  20  3.828498E+05  5.693875E+04 -4.811094E+03  1.613512E+05  4.836104E+03 -7.104607E+02
       190  21  3.594935E+05  5.191960E+04 -7.166252E+03  1.584446E+05  6.684496E+03 -1.653048E+03
       190  22  4.143953E+05  7.193576E+04  1.477671E+03  1.735558E+05  1.315114E+03 -3.842782E+02
       190  23  4.168176E+05  6.936730E+04  2.650161E+03  1.706457E+05  3.182890E+03 -1.333933E+03
       190  24  4.144096E+05  7.204264E+04  4.847637E+03  1.735151E+05  5.045867E+03 -2.270988E+03
       190  25  4.274177E+05  7.667287E+04  4.397910E+03  1.770744E+05 -3.526922E+02 -1.013284E+03
       190  26  4.507866E+05  8.179599E+04  1.011139E+04  1.799408E+05  1.529572E+03 -1.957444E+03
       190  27  4.693288E+05  9.216592E+04  1.686136E+04  1.885869E+05  3.407082E+03 -2.888987E+03
       191   1  3.440082E+05  4.643331E+04 -9.084735E+03  1.549169E+05 -7.979099E+03  2.145347E+03
       191   2  3.255801E+05  3.559324E+04 -8.466854E+03  1.450067E+05 -1.408180E+04  1.398494E+03
       191   3  3.040878E+05  3.325813E+04 -2.774918E+03  1.402155E+05 -2.008973E+04  4.012575E+02
       191   4  4.146758E+05  7.180531E+04  6.425839E+03  1.737357E+05 -6.275464E+03  2.787770E+03
       191   5  4.164487E+05  6.942854E+04  1.166200E+04  1.704576E+05 -1.266624E+04  1.932177E+03
       191   6  4.152135E+05  7.561315E+04  2.219973E+04  1.722982E+05 -1.896249E+04  8.261142E+02
       191   7  4.853479E+05  9.717746E+04  2.193599E+04  1.925563E+05 -4.571630E+03  3.430263E+03
       191   8  5.073255E+05  1.032645E+05  3.179034E+04  1.959119E+05 -1.125046E+04  2.465945E+03
       191   9  5.263525E+05  1.179696E+05  4.717379E+04  2.043864E+05 -1.783503E+04  1.251062E+03
       191  10  3.440081E+05  4.643329E+04 -9.084863E+03  1.549169E+05  1.174179E-08  1.137745E-08
       191  11  3.255799E+05  3.559318E+04 -8.467230E+03  1.450067E+05  1.224697E-09  9.239328E-10
       191  12  3.040874E+05  3.325803E+04 -2.775677E+03  1.402155E+05 -1.266447E-08 -1.045425E-08
       191  13  4.146758E+05  7.180529E+04  6.425750E+03  1.737357E+05 -8.238851E-10 -1.212097E-09
       191  14  4.164485E+05  6.942850E+04  1.166169E+04  1.704576E+05  3.224098E-09  4.735618E-09
       191  15  4.152132E+05  7.561306E+04  2.219905E+04  1.722982E+05 -2.400677E-09 -3.638351E-09
       191  16  4.853479E+05  9.717744E+04  2.193593E+04  1.925563E+05 -6.823507E-09  2.069992E-09
       191  17  5.073254E+05  1.032645E+05  3.179009E+04  1.959119E+05  5.929008E-09 -2.141838E-09
       191  18  5.263521E+05  1.179696E+05  4.717319E+04  2.043864E+05  1.517799E-08  4.256379E-09
       191  19  3.440082E+05  4.643331E+04 -9.084735E+03  1.549169E+05  7.979099E+03 -2.145347E+03
       191  20  3.255801E+05  3.559324E+04 -8.466854E+03  1.450067E+05  1.408180E+04 -1.398494E+03
       191  21  3.040878E+05  3.325813E+04 -2.774918E+03  1.402155E+05  2.008973E+04 -4.012575E+02
       191  22  4.146758E+05  7.180531E+04  6.425839E+03  1.737357E+05  6.275464E+03 -2.787770E+03
       191  23  4.164487E+05  6.942854E+04  1.166200E+04  1.704576E+05  1.266624E+04 -1.932177E+03
       191  24  4.152135E+05  7.561315E+04  2.219973E+04  1.722982E+05  1.896249E+04 -8.261142E+02
       191  25  4.853479E+05  9.717746E+04  2.193599E+04  1.925563E+05  4.571630E+03 -3.430263E+03
       191  26  5.073255E+05  1.032645E+05  3.179034E+04  1.959119E+05  1.125046E+04 -2.465945E+03
       191  27  5.263525E+05  1.179696E+05  4.717379E+04  2.043864E+05  1.783503E+04 -1.251062E+03
       192   1  2.829308E+05  3.092491E+04  2.467644E+02  1.505318E+05 -2.518038E+04 -2.773283E+02
       192   2  2.771817E+05  6.432230E+03  1.785556E+04  1.095491E+05 -4.709954E+04 -8.957382E+03
       192   3  2.974971E+05  6.138400E+04  7.229699E+04  5.497036E+04 -6.717767E+04 -2.251914E+04
       192   4  4.188131E+05  6.973858E+04  2.857452E+04  1.763848E+05 -2.280381E+04  6.190606E+02
       192   5  4.116984E+05  7.505747E+04  5.217235E+04  1.659921E+05 -5.032833E+04 -1.017642E+04
       192   6  4.317476E+05  1.609151E+05  1.170372E+05  1.420059E+05 -7.601198E+04 -2.585560E+04
       192   7  5.547146E+05  1.085523E+05  5.690151E+04  2.022424E+05 -2.042666E+04  1.515556E+03
       192   8  5.462328E+05  1.436888E+05  8.648746E+04  2.224473E+05 -5.355784E+04 -1.139597E+04
       192   9  5.660187E+05  2.604665E+05  1.617756E+05  2.290614E+05 -8.484813E+04 -2.919451E+04
       192  10  2.829302E+05  3.092474E+04  2.455733E+02  1.505318E+05 -2.431952E-08 -1.293605E-08
       192  11  2.771793E+05  6.431549E+03  1.785124E+04  1.095487E+05 -4.382831E-10 -1.148860E-09
       192  12  2.974921E+05  6.138224E+04  7.228756E+04  5.496915E+04  1.500803E-08  1.046748E-08
       192  13  4.188125E+05  6.973844E+04  2.857354E+04  1.763848E+05 -1.293260E-09 -3.094614E-09
       192  14  4.116956E+05  7.505668E+04  5.216740E+04  1.659916E+05  6.119534E-10 -2.940752E-10
       192  15  4.317412E+05  1.609128E+05  1.170251E+05  1.420043E+05 -8.490503E-09 -6.815002E-09
       192  16  5.547142E+05  1.085522E+05  5.690072E+04  2.022424E+05  2.301456E-08  1.146823E-08
       192  17  5.462297E+05  1.436878E+05  8.648183E+04  2.224468E+05 -1.325961E-09 -6.117261E-09
       192  18  5.660108E+05  2.604637E+05  1.617605E+05  2.290594E+05 -2.238384E-08 -6.686544E-09
       192  19  2.829308E+05  3.092491E+04  2.467644E+02  1.505318E+05  2.518038E+04  2.773283E+02
       192  20  2.771817E+05  6.432230E+03  1.785556E+04  1.095491E+05  4.709954E+04  8.957382E+03
       192  21  2.974971E+05  6.138400E+04  7.229699E+04  5.497036E+04  6.717767E+04  2.251914E+04
       192  22  4.188131E+05  6.973858E+04  2.857452E+04  1.763848E+05  2.280381E+04 -6.190606E+02
       192  23  4.116984E+05  7.505747E+04  5.217235E+04  1.659921E+05  5.032833E+04  1.017642E+04
       192  24  4.317476E+05  1.609151E+05  1.170372E+05  1.420059E+05  7.601198E+04  2.585560E+04
       192  25  5.547146E+05  1.085523E+05  5.690151E+04  2.022424E+05  2.042666E+04 -1.515556E+03
       192  26  5.462328E+05  1.436888E+05  8.648746E+04  2.224473E+05  5.355784E+04  1.139597E+04
       192  27  5.660187E+05  2.604665E+05  1.617756E+05  2.290614E+05  8.484813E+04  2.919451E+04
       193   1 -6.849148E+02 -2.226291E+05 -2.086676E+03  6.096438E+04  1.242708E+03  2.478420E+03
       193   2  2.243975E+04 -1.414847E+05  1.664083E+04  4.581316E+04  5.761182E+03  4.343549E+03
       193   3  4.218121E+04 -6.134855E+04  3.332483E+04  5.836015E+04  1.065492E+04  6.209827E+03
       193   4 -3.906794E+03 -2.362472E+05 -4.596353E+03  5.891773E+04  1.246906E+03 -2.303467E+03
       193   5 -3.078392E+02 -2.357776E+05 -2.793275E+03  4.507028E+04  5.766007E+03 -8.529643E+02
       193   6 -2.024636E+01 -2.362516E+05 -2.745934E+03  5.892149E+04  1.066039E+04  5.984543E+02
       193   7 -7.128656E+03 -2.498652E+05 -7.105950E+03  5.687114E+04  1.251136E+03 -7.085251E+03
       193   8 -2.305597E+04 -3.300620E+05 -2.222776E+04  4.432752E+04  5.770845E+03 -6.048702E+03
       193   9 -4.222362E+04 -4.111255E+05 -3.881823E+04  5.948267E+04  1.066584E+04 -5.011365E+03
       193  10 -6.849181E+02 -2.226291E+05 -2.086690E+03  6.096437E+04 -3.766364E-10  4.282959E-09
       193  11  2.243971E+04 -1.414848E+05  1.664074E+04  4.581314E+04 -1.943690E-09 -2.511727E-09
       193  12  4.218108E+04 -6.134862E+04  3.332454E+04  5.836010E+04  4.796317E-09 -1.082706E-08
       193  13 -3.906797E+03 -2.362472E+05 -4.596366E+03  5.891774E+04  2.310596E-09  2.200460E-09
       193  14 -3.078751E+02 -2.357776E+05 -2.793339E+03  4.507029E+04 -1.166091E-09 -3.319882E-09
       193  15 -2.036848E+01 -2.362516E+05 -2.746148E+03  5.892148E+04  4.459531E-09 -1.326297E-09
       193  16 -7.128671E+03 -2.498652E+05 -7.106048E+03  5.687115E+04  2.903836E-09 -5.358196E-09
       193  17 -2.305602E+04 -3.300621E+05 -2.222789E+04  4.432755E+04  9.974980E-09  8.760732E-10
       193  18 -4.222375E+04 -4.111255E+05 -3.881849E+04  5.948271E+04 -2.968653E-10  1.060745E-08
       193  19 -6.849148E+02 -2.226291E+05 -2.086676E+03  6.096438E+04 -1.242708E+03 -2.478420E+03
       193  20  2.243975E+04 -1.414847E+05  1.664083E+04  4.581316E+04 -5.761182E+03 -4.343549E+03
       193  21  4.218121E+04 -6.134855E+04  3.332483E+04  5.836015E+04 -1.065492E+04 -6.209827E+03
       193  22 -3.906794E+03 -2.362472E+05 -4.596353E+03  5.891773E+04 -1.246906E+03  2.303467E+03
       193  23 -3.078392E+02 -2.357776E+05 -2.793275E+03  4.507028E+04 -5.766007E+03  8.529643E+02
       193  24 -2.024636E+01 -2.362516E+05 -2.745934E+03  5.892149E+04 -1.066039E+04 -5.984543E+02
       193  25 -7.128656E+03 -2.498652E+05 -7.105950E+03  5.687114E+04 -1.251136E+03  7.085251E+03
       193  26 -2.305597E+04 -3.300620E+05 -2.222776E+04  4.432752E+04 -5.770845E+03  6.048702E+03
       193  27 -4.222362E+04 -4.111255E+05 -3.881823E+04  5.948267E+04 -1.066584E+04  5.011365E+03
       194   1  5.652667E+04 -1.319491E+03  4.582233E+04  5.905040E+04  1.369010E+04  6.803903E+03
       194   2  7.605872E+04  7.946075E+04  6.124411E+04  4.475314E+04  1.846138E+04  8.082129E+03
       194   3  9.439947E+04  1.598883E+05  7.556020E+04  5.811704E+04  2.242399E+04  9.361131E+03
       194   4 -2.216218E+02 -2.361614E+05 -3.050996E+03  5.891277E+04  1.369601E+04  1.087863E+03
       194   5 -1.359146E+02 -2.359124E+05 -4.330169E+03  4.508113E+04  1.846724E+04  3.257720E+03
       194   6 -1.396400E+03 -2.361774E+05 -7.334779E+03  5.891156E+04  2.242958E+04  5.428193E+03
       194   7 -5.697341E+04 -4.709511E+05 -5.192723E+04  5.877519E+04  1.370192E+04 -4.626050E+03
       194   8 -7.633687E+04 -5.511912E+05 -6.990981E+04  4.540896E+04  1.847309E+04 -1.564279E+03
       194   9 -9.720231E+04 -6.320948E+05 -9.023842E+04  5.970560E+04  2.243515E+04  1.497722E+03
       194  10  5.652646E+04 -1.319591E+03  4.582190E+04  5.905032E+04 -1.797885E-09 -1.700486E-08
       194  11  7.605834E+04  7.946059E+04  6.124335E+04  4.475302E+04 -2.440461E-09 -8.723547E-10
       194  12  9.439891E+04  1.598881E+05  7.555909E+04  5.811687E+04  4.245168E-09  2.038227E-08
       194  13 -2.218235E+02 -2.361615E+05 -3.051351E+03  5.891275E+04  2.670025E-09 -4.066071E-12
       194  14 -1.362836E+02 -2.359125E+05 -4.330830E+03  4.508108E+04  8.124710E-09  9.642820E-10
       194  15 -1.396948E+03 -2.361776E+05 -7.335780E+03  5.891146E+04  2.968549E-09 -4.933072E-09
       194  16 -5.697362E+04 -4.709511E+05 -5.192763E+04  5.877525E+04 -1.628313E-09  1.752044E-08
       194  17 -7.633724E+04 -5.511913E+05 -6.991046E+04  4.540898E+04  5.639997E-09 -2.199793E-09
       194  18 -9.720285E+04 -6.320950E+05 -9.023937E+04  5.970557E+04  4.424223E-09 -1.945879E-08
       194  19  5.652667E+04 -1.319491E+03  4.582233E+04  5.905040E+04 -1.369010E+04 -6.803903E+03
       194  20  7.605872E+04  7.946075E+04  6.124411E+04  4.475314E+04 -1.846138E+04 -8.082129E+03
       194  21  9.439947E+04  1.598883E+05  7.556020E+04  5.811704E+04 -2.242399E+04 -9.361131E+03
       194  22 -2.216218E+02 -2.361614E+05 -3.050996E+03  5.891277E+04 -1.369601E+04 -1.087863E+03
       194  23 -1.359146E+02 -2.359124E+05 -4.330169E+03  4.508113E+04 -1.846724E+04 -3.257720E+03
       194  24 -1.396400E+03 -2.361774E+05 -7.334779E+03  5.891156E+04 -2.242958E+04 -5.428193E+03
       194  25 -5.697341E+04 -4.709511E+05 -5.192723E+04  5.877519E+04 -1.370192E+04  4.626050E+03
       194  26 -7.633687E+04 -5.511912E+05 -6.990981E+04  4.540896E+04 -1.847309E+04  1.564279E+03
       194  27 -9.720231E+04 -6.320948E+05 -9.023842E+04  5.970560E+04 -2.243515E+04 -1.497722E+03
       195   1  1.111684E+05  2.187988E+05  8.600559E+04  6.203211E+04  2.626482E+04  1.486536E+04
       195   2  1.282900E+05  3.013512E+05  9.974585E+04  3.900608E+04  2.542994E+04  5.018368E+03
       195   3  1.241885E+05  3.800535E+05  1.146236E+05  4.275390E+04  8.135993E+03 -4.855798E+03
       195   4  8.505632E+02 -2.376326E+05 -9.209191E+03  5.872489E+04  2.627608E+04  6.707727E+03
       195   5 -1.938880E+03 -2.341395E+05 -1.584104E+04  4.531609E+04  2.541793E+04  1.503494E+04
       195   6 -2.911657E+04 -2.376622E+05 -3.395979E+04  5.868320E+04  8.094013E+03  2.333581E+04
       195   7 -1.094805E+05 -6.938667E+05 -1.044352E+05  5.542019E+04  2.628742E+04 -1.444012E+03
       195   8 -1.321865E+05 -7.693607E+05 -1.314445E+05  5.162068E+04  2.540612E+04  2.504299E+04
       195   9 -1.824481E+05 -8.550267E+05 -1.825673E+05  7.459672E+04  8.053460E+03  5.149948E+04
       195  10  1.111676E+05  2.187983E+05  8.600388E+04  6.203180E+04 -2.419518E-09  4.068298E-09
       195  11  1.282893E+05  3.013510E+05  9.974459E+04  3.900598E+04  2.569304E-09 -1.554685E-09
       195  12  1.241884E+05  3.800535E+05  1.146234E+05  4.275393E+04 -3.334383E-09 -6.919436E-09
       195  13  8.498098E+02 -2.376328E+05 -9.210573E+03  5.872475E+04  7.733900E-10  2.109320E-09
       195  14 -1.939634E+03 -2.341399E+05 -1.584268E+04  4.531579E+04  4.328648E-10  8.897165E-11
       195  15 -2.911679E+04 -2.376628E+05 -3.396094E+04  5.868305E+04  4.644516E-09 -1.862526E-09
       195  16 -1.094813E+05 -6.938669E+05 -1.044365E+05  5.542022E+04 -2.381855E-09 -4.556434E-09
       195  17 -1.321873E+05 -7.693615E+05 -1.314469E+05  5.162016E+04  6.179935E-09  1.398398E-09
       195  18 -1.824489E+05 -8.550295E+05 -1.825724E+05  7.459638E+04 -4.510307E-10  3.478691E-09
       195  19  1.111684E+05  2.187988E+05  8.600559E+04  6.203211E+04 -2.626482E+04 -1.486536E+04
       195  20  1.282900E+05  3.013512E+05  9.974585E+04  3.900608E+04 -2.542994E+04 -5.018368E+03
       195  21  1.241885E+05  3.800535E+05  1.146236E+05  4.275390E+04 -8.135993E+03  4.855798E+03
       195  22  8.505632E+02 -2.376326E+05 -9.209191E+03  5.872489E+04 -2.627608E+04 -6.707727E+03
       195  23 -1.938880E+03 -2.341395E+05 -1.584104E+04  4.531609E+04 -2.541793E+04 -1.503494E+04
       195  24 -2.911657E+04 -2.376622E+05 -3.395979E+04  5.868320E+04 -8.094013E+03 -2.333581E+04
       195  25 -1.094805E+05 -6.938667E+05 -1.044352E+05  5.542019E+04 -2.628742E+04  1.444012E+03
       195  26 -1.321865E+05 -7.693607E+05 -1.314445E+05  5.162068E+04 -2.540612E+04 -2.504299E+04
       195  27 -1.824481E+05 -8.550267E+05 -1.825673E+05  7.459672E+04 -8.053460E+03 -5.149948E+04
       196   1 -9.197461E+03  9.222890E+04  8.201226E+04  1.707868E+04  1.099735E+04 -7.241808E+03
       196   2 -4.718413E+04  1.059212E+05  7.361356E+04  2.495512E+04  3.549635E+02 -2.418841E+04
       196   3 -8.813825E+04  1.021549E+05  6.779100E+04  4.107248E+04 -1.029570E+04 -2.877461E+04
       196   4 -5.250223E+05 -3.515592E+04 -3.915425E+04  3.858970E+04 -2.727162E+04 -7.274525E+03
       196   5 -5.217479E+05 -7.517916E+03 -1.898113E+04  3.445240E+04 -1.744790E+04 -2.420664E+04
       196   6 -5.250016E+05 -9.008715E+02 -1.045194E+04  3.855665E+04 -7.633230E+03 -2.877360E+04
       196   7 -1.040598E+06 -1.625572E+05 -1.603332E+05  6.008268E+04 -6.550899E+04 -7.309910E+03
       196   8 -9.960945E+05 -1.209700E+05 -1.115853E+05  4.394221E+04 -3.523744E+04 -2.422541E+04
       196   9 -9.616788E+05 -1.039673E+05 -8.870215E+04  3.604259E+04 -4.972576E+03 -2.877261E+04
       196  10 -9.197605E+03  9.222881E+04  8.201193E+04  1.707875E+04  1.627940E-09 -1.523704E-10
       196  11 -4.718429E+04  1.059205E+05  7.361246E+04  2.495512E+04 -3.373124E-09 -1.701274E-09
       196  12 -8.813858E+04  1.021540E+05  6.778924E+04  4.107224E+04 -2.014338E-10 -2.539224E-09
       196  13 -5.250231E+05 -3.515618E+04 -3.915574E+04  3.858954E+04  4.124305E-09  6.608754E-10
       196  14 -5.217483E+05 -7.518626E+03 -1.898280E+04  3.445206E+04 -4.069581E-09 -1.242862E-09
       196  15 -5.250019E+05 -9.017759E+02 -1.045360E+04  3.855647E+04  5.922196E-09 -9.636661E-10
       196  16 -1.040602E+06 -1.625584E+05 -1.603414E+05  6.008230E+04  2.123076E-09 -3.090944E-11
       196  17 -9.960960E+05 -1.209710E+05 -1.115888E+05  4.394152E+04  6.741981E-09 -3.765887E-09
       196  18 -9.616790E+05 -1.039682E+05 -8.870375E+04  3.604247E+04 -9.443561E-10 -4.444616E-09
       196  19 -9.197461E+03  9.222890E+04  8.201226E+04  1.707868E+04 -1.099735E+04  7.241808E+03
       196  20 -4.718413E+04  1.059212E+05  7.361356E+04  2.495512E+04 -3.549635E+02  2.418841E+04
       196  21 -8.813825E+04  1.021549E+05  6.779100E+04  4.107248E+04  1.029570E+04  2.877461E+04
       196  22 -5.250223E+05 -3.515592E+04 -3.915425E+04  3.858970E+04  2.727162E+04  7.274525E+03
       196  23 -5.217479E+05 -7.517916E+03 -1.898113E+04  3.445240E+04  1.744790E+04  2.420664E+04
       196  24 -5.250016E+05 -9.008715E+02 -1.045194E+04  3.855665E+04  7.633230E+03  2.877360E+04
       196  25 -1.040598E+06 -1.625572E+05 -1.603332E+05  6.008268E+04  6.550899E+04  7.309910E+03
       196  26 -9.960945E+05 -1.209700E+05 -1.115853E+05  4.394221E+04  3.523744E+04  2.422541E+04
       196  27 -9.616788E+05 -1.039673E+05 -8.870215E+04  3.604259E+04  4.972576E+03  2.877261E+04
       197   1 -1.131934E+05  9.519399E+04  6.491731E+04  3.846458E+04 -7.447473E+03 -2.762068E+04
       197   2 -1.525326E+05  8.689101E+04  5.993487E+04  3.435946E+04 -7.045020E+03 -2.637245E+04
       197   3 -1.921202E+05  7.783698E+04  5.450096E+04  3.931032E+04 -6.644349E+03 -2.404428E+04
       197   4 -5.236719E+05 -1.506034E+03 -7.968323E+03  3.874221E+04 -6.272451E+03 -2.762103E+04
       197   5 -5.233866E+05 -1.719744E+02 -4.389284E+03  3.421310E+04 -4.083072E+03 -2.637047E+04
       197   6 -5.236613E+05  1.005226E+02 -2.503571E+03  3.874032E+04 -1.895420E+03 -2.403966E+04
       197   7 -9.339857E+05 -9.821535E+04 -8.086025E+04  3.901961E+04 -5.098183E+03 -2.762138E+04
       197   8 -8.941055E+05 -8.724238E+04 -6.871820E+04  3.406679E+04 -1.122839E+03 -2.636850E+04
       197   9 -8.550942E+05 -7.764181E+04 -5.951174E+04  3.817059E+04  2.851052E+03 -2.403505E+04
       197  10 -1.131936E+05  9.519315E+04  6.491577E+04  3.846441E+04 -5.683058E-09 -1.492042E-09
       197  11 -1.525329E+05  8.689025E+04  5.993347E+04  3.435931E+04  3.807795E-09  4.542385E-09
       197  12 -1.921204E+05  7.783635E+04  5.449979E+04  3.931019E+04  2.097005E-09  1.001606E-09
       197  13 -5.236721E+05 -1.506864E+03 -7.969831E+03  3.874207E+04 -4.297333E-09 -1.103631E-09
       197  14 -5.233868E+05 -1.727255E+02 -4.390622E+03  3.421301E+04  2.441815E-09  2.736669E-09
       197  15 -5.236614E+05  9.990123E+01 -2.504664E+03  3.874028E+04 -1.943375E-09  6.065920E-10
       197  16 -9.339859E+05 -9.821617E+04 -8.086173E+04  3.901949E+04  8.099877E-09 -8.271863E-10
       197  17 -8.941057E+05 -8.724313E+04 -6.871951E+04  3.406676E+04  3.168081E-09  3.254676E-09
       197  18 -8.550944E+05 -7.764244E+04 -5.951284E+04  3.817065E+04 -3.489183E-09  4.121303E-09
       197  19 -1.131934E+05  9.519399E+04  6.491731E+04  3.846458E+04  7.447473E+03  2.762068E+04
       197  20 -1.525326E+05  8.689101E+04  5.993487E+04  3.435946E+04  7.045020E+03  2.637245E+04
       197  21 -1.921202E+05  7.783698E+04  5.450096E+04  3.931032E+04  6.644349E+03  2.404428E+04
       197  22 -5.236719E+05 -1.506034E+03 -7.968323E+03  3.874221E+04  6.272451E+03  2.762103E+04
       197  23 -5.233866E+05 -1.719744E+02 -4.389284E+03  3.421310E+04  4.083072E+03  2.637047E+04
       197  24 -5.236613E+05  1.005226E+02 -2.503571E+03  3.874032E+04  1.895420E+03  2.403966E+04
       197  25 -9.339857E+05 -9.821535E+04 -8.086025E+04  3.901961E+04  5.098183E+03  2.762138E+04
       197  26 -8.941055E+05 -8.724238E+04 -6.871820E+04  3.406679E+04  1.122839E+03  2.636850E+04
       197  27 -8.550942E+05 -7.764181E+04 -5.951174E+04  3.817059E+04 -2.851052E+03  2.403505E+04
       198   1 -2.179114E+05  7.168728E+04  5.044525E+04  3.914403E+04 -6.133672E+03 -2.235525E+04
       198   2 -2.574134E+05  6.245002E+04  4.442694E+04  3.452058E+04 -5.754236E+03 -1.951557E+04
       198   3 -2.969846E+05  5.320945E+04  3.815514E+04  3.903980E+04 -5.375511E+03 -1.658013E+04
       198   4 -5.235554E+05  6.281353E+01 -1.904077E+03  3.875985E+04 -1.511858E+03 -2.235047E+04
       198   5 -5.235027E+05  1.045395E+02 -1.092446E+03  3.418837E+04 -9.742444E+02 -1.951014E+04
       198   6 -5.235483E+05  1.154975E+02 -6.443937E+02  3.875977E+04 -4.373195E+02 -1.657402E+04
       198   7 -8.291076E+05 -7.156663E+04 -5.425645E+04  3.837583E+04  3.107752E+03 -2.234569E+04
       198   8 -7.895224E+05 -6.224471E+04 -4.661411E+04  3.385627E+04  3.803762E+03 -1.950470E+04
       198   9 -7.500615E+05 -5.298119E+04 -3.944555E+04  3.847984E+04  4.499126E+03 -1.656790E+04
       198  10 -2.179115E+05  7.168673E+04  5.044424E+04  3.914392E+04 -1.196482E-08  6.924806E-10
       198  11 -2.574135E+05  6.244961E+04  4.442616E+04  3.452049E+04 -2.081167E-09  3.313021E-09
       198  12 -2.969847E+05  5.320915E+04  3.815457E+04  3.903973E+04  1.338917E-08  4.454910E-09
       198  13 -5.235556E+05  6.227663E+01 -1.905020E+03  3.875982E+04 -8.246955E-09 -1.230954E-09
       198  14 -5.235028E+05  1.041306E+02 -1.093163E+03  3.418835E+04  2.477490E-09 -9.431088E-10
       198  15 -5.235484E+05  1.152025E+02 -6.449102E+02  3.875977E+04  6.862486E-09 -1.901603E-09
       198  16 -8.291078E+05 -7.156717E+04 -5.425740E+04  3.837589E+04  1.559425E-08  4.970999E-09
       198  17 -7.895225E+05 -6.224512E+04 -4.661485E+04  3.385633E+04  4.487004E-09  5.331981E-09
       198  18 -7.500616E+05 -5.298149E+04 -3.944611E+04  3.847990E+04 -1.370383E-08  5.127886E-09
       198  19 -2.179114E+05  7.168728E+04  5.044525E+04  3.914403E+04  6.133672E+03  2.235525E+04
       198  20 -2.574134E+05  6.245002E+04  4.442694E+04  3.452058E+04  5.754236E+03  1.951557E+04
       198  21 -2.969846E+05  5.320945E+04  3.815514E+04  3.903980E+04  5.375511E+03  1.658013E+04
       198  22 -5.235554E+05  6.281353E+01 -1.904077E+03  3.875985E+04  1.511858E+03  2.235047E+04
       198  23 -5.235027E+05  1.045395E+02 -1.092446E+03  3.418837E+04  9.742444E+02  1.951014E+04
       198  24 -5.235483E+05  1.154975E+02 -6.443937E+02  3.875977E+04  4.373195E+02  1.657402E+04
       198  25 -8.291076E+05 -7.156663E+04 -5.425645E+04  3.837583E+04 -3.107752E+03  2.234569E+04
       198  26 -7.895224E+05 -6.224471E+04 -4.661411E+04  3.385627E+04 -3.803762E+03  1.950470E+04
       198  27 -7.500615E+05 -5.298119E+04 -3.944555E+04  3.847984E+04 -4.499126E+03  1.656790E+04
       199   1 -3.228625E+05  4.710718E+04  3.369421E+04  3.900506E+04 -5.264577E+03 -1.484190E+04
       199   2 -3.624333E+05  3.783828E+04  2.718054E+04  3.437089E+04 -5.119747E+03 -1.185980E+04
       199   3 -4.020424E+05  2.859446E+04  2.057115E+04  3.889776E+04 -4.975295E+03 -8.868764E+03
       199   4 -5.235339E+05  1.137746E+02 -5.040231E+02  3.876386E+04 -3.357012E+02 -1.483558E+04
       199   5 -5.235102E+05  1.043329E+02 -3.303045E+02  3.418327E+04 -1.763214E+02 -1.185317E+04
       199   6 -5.235296E+05  1.173373E+02 -2.626786E+02  3.876386E+04 -1.730980E+01 -8.861822E+03
       199   7 -7.241656E+05 -4.688176E+04 -3.470349E+04  3.852272E+04  4.591631E+03 -1.482925E+04
       199   8 -6.845615E+05 -3.763098E+04 -2.784192E+04  3.399569E+04  4.765862E+03 -1.184653E+04
       199   9 -6.450022E+05 -2.836056E+04 -2.109691E+04  3.862997E+04  4.939735E+03 -8.854882E+03
       199  10 -3.228626E+05  4.710694E+04  3.369374E+04  3.900500E+04 -4.633663E-08  4.502376E-09
       199  11 -3.624334E+05  3.783812E+04  2.718022E+04  3.437085E+04 -2.315793E-09  5.559187E-09
       199  12 -4.020425E+05  2.859437E+04  2.057095E+04  3.889772E+04  4.250416E-08  1.158537E-09
       199  13 -5.235339E+05  1.135383E+02 -5.044368E+02  3.876385E+04  4.292707E-09 -5.057200E-09
       199  14 -5.235102E+05  1.041821E+02 -3.305685E+02  3.418327E+04 -4.324797E-11 -1.504590E-09
       199  15 -5.235296E+05  1.172530E+02 -2.628262E+02  3.876385E+04 -1.449296E-09 -3.501328E-09
       199  16 -7.241656E+05 -4.688200E+04 -3.470394E+04  3.852277E+04  4.351565E-08  3.152727E-09
       199  17 -6.845616E+05 -3.763114E+04 -2.784222E+04  3.399574E+04  1.029580E-08 -1.569340E-09
       199  18 -6.450023E+05 -2.836065E+04 -2.109710E+04  3.863001E+04 -3.591629E-08 -4.653689E-09
       199  19 -3.228625E+05  4.710718E+04  3.369421E+04  3.900506E+04  5.264577E+03  1.484190E+04
       199  20 -3.624333E+05  3.783828E+04  2.718054E+04  3.437089E+04  5.119747E+03  1.185980E+04
       199  21 -4.020424E+05  2.859446E+04  2.057115E+04  3.889776E+04  4.975295E+03  8.868764E+03
       199  22 -5.235339E+05  1.137746E+02 -5.040231E+02  3.876386E+04  3.357012E+02  1.483558E+04
       199  23 -5.235102E+05  1.043329E+02 -3.303045E+02  3.418327E+04  1.763214E+02  1.185317E+04
       199  24 -5.235296E+05  1.173373E+02 -2.626786E+02  3.876386E+04  1.730980E+01  8.861822E+03
       199  25 -7.241656E+05 -4.688176E+04 -3.470349E+04  3.852272E+04 -4.591631E+03  1.482925E+04
       199  26 -6.845615E+05 -3.763098E+04 -2.784192E+04  3.399569E+04 -4.765862E+03  1.184653E+04
       199  27 -6.450022E+05 -2.836056E+04 -2.109691E+04  3.862997E+04 -4.939735E+03  8.854882E+03
       200   1 -4.279566E+05  2.249017E+04  1.597185E+04  3.886750E+04 -4.930701E+03 -7.124769E+03
       200   2 -4.675497E+05  1.321966E+04  9.233648E+03  3.422492E+04 -4.771756E+03 -4.130534E+03
       200   3 -5.071887E+05  3.970867E+03  2.388262E+03  3.875146E+04 -4.612937E+03 -1.140036E+03
       200   4 -5.235291E+05  1.187354E+02 -2.605215E+02  3.876563E+04  2.782328E+01 -7.117711E+03
       200   5 -5.235055E+05  1.119366E+02 -3.174640E+02  3.418105E+04  1.804554E+02 -4.123386E+03
       200   6 -5.235277E+05  1.281686E+02 -4.770859E+02  3.876562E+04  3.329717E+02 -1.132796E+03
       200   7 -6.190926E+05 -2.225317E+04 -1.649310E+04  3.866377E+04  4.985608E+03 -7.110654E+03
       200   8 -5.794582E+05 -1.299594E+04 -9.868587E+03  3.413718E+04  5.132235E+03 -4.116238E+03
       200   9 -5.398664E+05 -3.714531E+03 -3.342352E+03  3.877978E+04  5.278754E+03 -1.125556E+03
       200  10 -4.279567E+05  2.249011E+04  1.597171E+04  3.886747E+04  7.996968E-09 -2.352767E-09
       200  11 -4.675497E+05  1.321963E+04  9.233573E+03  3.422491E+04  4.559222E-09 -2.202672E-09
       200  12 -5.071887E+05  3.970860E+03  2.388220E+03  3.875145E+04  1.389382E-09 -2.746674E-09
       200  13 -5.235291E+05  1.186811E+02 -2.606167E+02  3.876563E+04 -3.526943E-10  1.225788E-09
       200  14 -5.235055E+05  1.119183E+02 -3.174960E+02  3.418105E+04 -6.283100E-09  4.405952E-10
       200  15 -5.235277E+05  1.281672E+02 -4.770885E+02  3.876562E+04 -3.010107E-09 -1.363690E-09
       200  16 -6.190926E+05 -2.225323E+04 -1.649324E+04  3.866380E+04 -4.538453E-09 -9.668293E-10
       200  17 -5.794582E+05 -1.299596E+04 -9.868668E+03  3.413719E+04 -6.416431E-09 -1.353022E-10
       200  18 -5.398664E+05 -3.714540E+03 -3.342407E+03  3.877979E+04  3.604820E-10  3.806576E-10
       200  19 -4.279566E+05  2.249017E+04  1.597185E+04  3.886750E+04  4.930701E+03  7.124769E+03
       200  20 -4.675497E+05  1.321966E+04  9.233648E+03  3.422492E+04  4.771756E+03  4.130534E+03
       200  21 -5.071887E+05  3.970867E+03  2.388262E+03  3.875146E+04  4.612937E+03  1.140036E+03
       200  22 -5.235291E+05  1.187354E+02 -2.605215E+02  3.876563E+04 -2.782328E+01  7.117711E+03
       200  23 -5.235055E+05  1.119366E+02 -3.174640E+02  3.418105E+04 -1.804554E+02  4.123386E+03
       200  24 -5.235277E+05  1.281686E+02 -4.770859E+02  3.876562E+04 -3.329717E+02  1.132796E+03
       200  25 -6.190926E+05 -2.225317E+04 -1.649310E+04  3.866377E+04 -4.985608E+03  7.110654E+03
       200  26 -5.794582E+05 -1.299594E+04 -9.868587E+03  3.413718E+04 -5.132235E+03  4.116238E+03
       200  27 -5.398664E+05 -3.714531E+03 -3.342352E+03  3.877978E+04 -5.278754E+03  1.125556E+03
       201   1 -5.331246E+05 -2.133764E+03 -2.348445E+03  3.870710E+04 -4.523941E+03  6.027403E+02
       201   2 -5.726803E+05 -1.140803E+04 -9.478044E+03  3.405883E+04 -3.928201E+03  3.568338E+03
       201   3 -6.123545E+05 -2.072455E+04 -1.701536E+04  3.857625E+04 -3.332314E+03  6.478159E+03
       201   4 -5.235406E+05  1.324867E+02 -6.079575E+02  3.876482E+04  4.285031E+02  6.099931E+02
       201   5 -5.234893E+05  1.271141E+02 -1.025800E+03  3.418203E+04  9.318319E+02  3.575368E+03
       201   6 -5.235420E+05  9.561500E+01 -1.787155E+03  3.876488E+04  1.435343E+03  6.484971E+03
       201   7 -5.139564E+05  2.398745E+03  1.132619E+03  3.882254E+04  5.381022E+03  6.172466E+02
       201   8 -4.742959E+05  1.166214E+04  7.426451E+03  3.430524E+04  5.792238E+03  3.582400E+03
       201   9 -4.347218E+05  2.091537E+04  1.344087E+04  3.895353E+04  6.203661E+03  6.491785E+03
       201  10 -5.331247E+05 -2.133770E+03 -2.348484E+03  3.870710E+04 -5.267457E-09  2.058592E-09
       201  11 -5.726804E+05 -1.140805E+04 -9.478097E+03  3.405884E+04 -6.280390E-09  4.371302E-09
       201  12 -6.123545E+05 -2.072460E+04 -1.701546E+04  3.857627E+04  2.639930E-09  1.894672E-09
       201  13 -5.235406E+05  1.324862E+02 -6.079586E+02  3.876482E+04 -9.625836E-12  6.123066E-10
       201  14 -5.234893E+05  1.271001E+02 -1.025826E+03  3.418203E+04 -6.089686E-09  2.079038E-09
       201  15 -5.235420E+05  9.556930E+01 -1.787238E+03  3.876487E+04 -4.005992E-10  1.142209E-09
       201  16 -5.139564E+05  2.398737E+03  1.132564E+03  3.882254E+04  3.137314E-09  1.879950E-09
       201  17 -4.742960E+05  1.166212E+04  7.426364E+03  3.430522E+04  2.178702E-10 -3.521714E-09
       201  18 -4.347218E+05  2.091532E+04  1.344072E+04  3.895350E+04 -3.877085E-09 -1.465695E-09
       201  19 -5.331246E+05 -2.133764E+03 -2.348445E+03  3.870710E+04  4.523941E+03 -6.027403E+02
       201  20 -5.726803E+05 -1.140803E+04 -9.478044E+03  3.405883E+04  3.928201E+03 -3.568338E+03
       201  21 -6.123545E+05 -2.072455E+04 -1.701536E+04  3.857625E+04  3.332314E+03 -6.478159E+03
       201  22 -5.235406E+05  1.324867E+02 -6.079575E+02  3.876482E+04 -4.285031E+02 -6.099931E+02
       201  23 -5.234893E+05  1.271141E+02 -1.025800E+03  3.418203E+04 -9.318319E+02 -3.575368E+03
       201  24 -5.235420E+05  9.561500E+01 -1.787155E+03  3.876488E+04 -1.435343E+03 -6.484971E+03
       201  25 -5.139564E+05  2.398745E+03  1.132619E+03  3.882254E+04 -5.381022E+03 -6.172466E+02
       201  26 -4.742959E+05  1.166214E+04  7.426451E+03  3.430524E+04 -5.792238E+03 -3.582400E+03
       201  27 -4.347218E+05  2.091537E+04  1.344087E+04  3.895353E+04 -6.203661E+03 -6.491785E+03
       202   1 -6.383932E+05 -2.680706E+04 -2.221903E+04  3.837907E+04 -3.048881E+03  8.193317E+03
       202   2 -6.776224E+05 -3.637706E+04 -3.105666E+04  3.419263E+04  5.663298E+01  1.080577E+04
       202   3 -7.175766E+05 -4.712375E+04 -4.221965E+04  3.912613E+04  3.163030E+03  1.278034E+04
       202   4 -5.236408E+05  1.336489E+02 -2.349691E+03  3.875436E+04  1.794527E+03  8.200131E+03
       202   5 -5.233714E+05 -1.179892E+02 -4.117153E+03  3.419550E+04  3.844919E+03  1.081085E+04
       202   6 -5.236457E+05 -1.362867E+03 -7.476531E+03  3.875647E+04  5.896401E+03  1.278375E+04
       202   7 -4.088754E+05  2.707366E+04  1.751928E+04  3.912971E+04  6.638803E+03  8.206951E+03
       202   8 -3.690971E+05  3.613980E+04  2.282156E+04  3.419837E+04  7.634118E+03  1.081592E+04
       202   9 -3.296781E+05  4.439593E+04  2.726518E+04  3.838669E+04  8.630602E+03  1.278716E+04
       202  10 -6.383933E+05 -2.680713E+04 -2.221917E+04  3.837909E+04 -3.067752E-08  1.828021E-09
       202  11 -6.776224E+05 -3.637719E+04 -3.105688E+04  3.419263E+04  2.175372E-09  1.059774E-09
       202  12 -7.175767E+05 -4.712393E+04 -4.221998E+04  3.912609E+04  3.035367E-08  1.122635E-09
       202  13 -5.236408E+05  1.335759E+02 -2.349824E+03  3.875434E+04 -3.379416E-11 -2.226968E-10
       202  14 -5.233715E+05 -1.181186E+02 -4.117401E+03  3.419547E+04  2.501958E-09  1.192572E-09
       202  15 -5.236458E+05 -1.363052E+03 -7.476904E+03  3.875641E+04 -3.081570E-09  8.797382E-10
       202  16 -4.088754E+05  2.707358E+04  1.751907E+04  3.912967E+04  3.089553E-08  3.580442E-10
       202  17 -3.690972E+05  3.613966E+04  2.282123E+04  3.419830E+04 -9.353981E-10 -1.310644E-10
       202  18 -3.296782E+05  4.439573E+04  2.726473E+04  3.838660E+04 -3.071208E-08  8.171273E-10
       202  19 -6.383932E+05 -2.680706E+04 -2.221903E+04  3.837907E+04  3.048881E+03 -8.193317E+03
       202  20 -6.776224E+05 -3.637706E+04 -3.105666E+04  3.419263E+04 -5.663298E+01 -1.080577E+04
       202  21 -7.175766E+05 -4.712375E+04 -4.221965E+04  3.912613E+04 -3.163030E+03 -1.278034E+04
       202  22 -5.236408E+05  1.336489E+02 -2.349691E+03  3.875436E+04 -1.794527E+03 -8.200131E+03
       202  23 -5.233714E+05 -1.179892E+02 -4.117153E+03  3.419550E+04 -3.844919E+03 -1.081085E+04
       202  24 -5.236457E+05 -1.362867E+03 -7.476531E+03  3.875647E+04 -5.896401E+03 -1.278375E+04
       202  25 -4.088754E+05  2.707366E+04  1.751928E+04  3.912971E+04 -6.638803E+03 -8.206951E+03
       202  26 -3.690971E+05  3.613980E+04  2.282156E+04  3.419837E+04 -7.634118E+03 -1.081592E+04
       202  27 -3.296781E+05  4.439593E+04  2.726518E+04  3.838669E+04 -8.630602E+03 -1.278716E+04
       203   1 -7.450568E+05 -5.282405E+04 -4.960873E+04  3.637720E+04  3.560153E+03  1.417877E+04
       203   2 -7.805551E+05 -6.896462E+04 -6.883760E+04  4.331298E+04  2.485010E+04  1.273593E+04
       203   3 -8.243088E+05 -1.069436E+05 -1.074009E+05  5.889893E+04  4.614723E+04  3.985881E+03
       203   4 -5.248936E+05 -7.920983E+02 -9.807286E+03  3.864626E+04  7.172347E+03  1.418324E+04
       203   5 -5.218247E+05 -7.002264E+03 -1.780802E+04  3.434189E+04  1.637570E+04  1.272408E+04
       203   6 -5.249085E+05 -3.294598E+04 -3.674000E+04  3.868818E+04  2.558773E+04  3.958335E+03
       203   7 -3.046831E+05  5.123716E+04  2.999231E+04  4.091613E+04  1.078579E+04  1.418774E+04
       203   8 -2.630298E+05  5.495637E+04  3.321860E+04  2.536695E+04  7.897845E+03  1.271248E+04
       203   9 -2.254238E+05  4.104700E+04  3.391655E+04  1.846760E+04  5.018370E+03  3.932137E+03
       203  10 -7.450568E+05 -5.282427E+04 -4.960913E+04  3.637716E+04 -3.025862E-08  7.183423E-10
       203  11 -7.805558E+05 -6.896496E+04 -6.883906E+04  4.331273E+04 -2.993316E-09  1.639404E-09
       203  12 -8.243111E+05 -1.069442E+05 -1.074050E+05  5.889878E+04  2.577704E-08  1.581405E-09
       203  13 -5.248937E+05 -7.923281E+02 -9.807761E+03  3.864618E+04 -3.830653E-10  3.456099E-09
       203  14 -5.218250E+05 -7.002510E+03 -1.780883E+04  3.434172E+04  6.921157E-10 -2.298373E-09
       203  15 -5.249092E+05 -3.294617E+04 -3.674126E+04  3.868810E+04  7.780525E-10  2.146639E-09
       203  16 -3.046833E+05  5.123692E+04  2.999171E+04  4.091601E+04  2.702955E-08  2.911729E-09
       203  17 -2.630299E+05  5.495618E+04  3.321818E+04  2.536687E+04  1.113424E-10 -4.917740E-10
       203  18 -2.254239E+05  4.104698E+04  3.391647E+04  1.846758E+04 -2.966052E-08 -1.972829E-09
       203  19 -7.450568E+05 -5.282405E+04 -4.960873E+04  3.637720E+04 -3.560153E+03 -1.417877E+04
       203  20 -7.805551E+05 -6.896462E+04 -6.883760E+04  4.331298E+04 -2.485010E+04 -1.273593E+04
       203  21 -8.243088E+05 -1.069436E+05 -1.074009E+05  5.889893E+04 -4.614723E+04 -3.985881E+03
       203  22 -5.248936E+05 -7.920983E+02 -9.807286E+03  3.864626E+04 -7.172347E+03 -1.418324E+04
       203  23 -5.218247E+05 -7.002264E+03 -1.780802E+04  3.434189E+04 -1.637570E+04 -1.272408E+04
       203  24 -5.249085E+05 -3.294598E+04 -3.674000E+04  3.868818E+04 -2.558773E+04 -3.958335E+03
       203  25 -3.046831E+05  5.123716E+04  2.999231E+04  4.091613E+04 -1.078579E+04 -1.418774E+04
       203  26 -2.630298E+05  5.495637E+04  3.321860E+04  2.536695E+04 -7.897845E+03 -1.271248E+04
       203  27 -2.254238E+05  4.104700E+04  3.391655E+04  1.846760E+04 -5.018370E+03 -3.932137E+03
       204   1 -7.356023E+02  9.661354E+04  8.788319E+04  1.500578E+04  5.704176E+03 -6.990943E+03
       204   2 -3.760423E+04  1.082550E+05  8.182529E+04  1.833465E+04 -2.425863E+03 -2.273342E+04
       204   3 -7.792067E+04  1.018358E+05  7.656067E+04  3.289244E+04 -1.057066E+04 -2.559311E+04
       204   4 -4.985413E+05 -2.671014E+04 -3.101525E+04  2.932347E+04 -2.142494E+04 -7.025478E+03
       204   5 -4.954369E+05 -2.593649E+03 -1.454870E+04  2.368982E+04 -1.378916E+04 -2.275033E+04
       204   6 -4.985238E+05  7.165949E+02 -8.243679E+03  2.928570E+04 -6.168513E+03 -2.558786E+04
       204   7 -9.961177E+05 -1.500506E+05 -1.499283E+05  4.362956E+04 -4.853239E+04 -7.061279E+03
       204   8 -9.530712E+05 -1.134556E+05 -1.109340E+05  2.904090E+04 -2.514421E+04 -2.276745E+04
       204   9 -9.189583E+05 -1.004135E+05 -9.305704E+04  2.568139E+04 -1.769285E+03 -2.558267E+04
       204  10 -7.356504E+02  9.661347E+04  8.788303E+04  1.500581E+04 -9.029853E-09  2.689446E-10
       204  11 -3.760438E+04  1.082544E+05  8.182431E+04  1.833460E+04  1.011384E-09  3.383917E-09
       204  12 -7.792097E+04  1.018351E+05  7.655923E+04  3.289222E+04 -4.174627E-10  3.040256E-11
       204  13 -4.985418E+05 -2.671031E+04 -3.101621E+04  2.932335E+04 -3.138004E-10 -1.721158E-09
       204  14 -4.954373E+05 -2.594256E+03 -1.455003E+04  2.368956E+04 -1.978506E-09 -3.221590E-09
       204  15 -4.985241E+05  7.158818E+02 -8.244981E+03  2.928558E+04 -8.519683E-10  1.292670E-09
       204  16 -9.961202E+05 -1.500513E+05 -1.499328E+05  4.362929E+04  2.306183E-09  3.810907E-10
       204  17 -9.530720E+05 -1.134563E+05 -1.109361E+05  2.904044E+04 -3.991559E-11  4.683815E-09
       204  18 -9.189585E+05 -1.004142E+05 -9.305827E+04  2.568136E+04  1.555240E-09  2.240833E-09
       204  19 -7.356023E+02  9.661354E+04  8.788319E+04  1.500578E+04 -5.704176E+03  6.990943E+03
       204  20 -3.760423E+04  1.082550E+05  8.182529E+04  1.833465E+04  2.425863E+03  2.273342E+04
       204  21 -7.792067E+04  1.018358E+05  7.656067E+04  3.289244E+04  1.057066E+04  2.559311E+04
       204  22 -4.985413E+05 -2.671014E+04 -3.101525E+04  2.932347E+04  2.142494E+04  7.025478E+03
       204  23 -4.954369E+05 -2.593649E+03 -1.454870E+04  2.368982E+04  1.378916E+04  2.275033E+04
       204  24 -4.985238E+05  7.165949E+02 -8.243679E+03  2.928570E+04  6.168513E+03  2.558786E+04
       204  25 -9.961177E+05 -1.500506E+05 -1.499283E+05  4.362956E+04  4.853239E+04  7.061279E+03
       204  26 -9.530712E+05 -1.134556E+05 -1.109340E+05  2.904090E+04  2.514421E+04  2.276745E+04
       204  27 -9.189583E+05 -1.004135E+05 -9.305704E+04  2.568139E+04  1.769285E+03  2.558267E+04
       205   1 -1.045786E+05  9.344625E+04  7.290658E+04  2.957940E+04 -6.494588E+03 -2.368580E+04
       205   2 -1.430592E+05  8.500602E+04  6.733142E+04  2.385285E+04 -5.624741E+03 -2.214601E+04
       205   3 -1.818519E+05  7.585362E+04  6.100715E+04  3.008665E+04 -4.756874E+03 -1.987103E+04
       205   4 -4.972488E+05 -9.792693E+02 -6.426402E+03  2.945662E+04 -5.059403E+03 -2.368476E+04
       205   5 -4.970088E+05  1.538393E+01 -3.546758E+03  2.347530E+04 -3.290782E+03 -2.214321E+04
       205   6 -4.972395E+05  1.413728E+02 -2.041284E+03  2.945477E+04 -1.524099E+03 -1.986624E+04
       205   7 -8.897720E+05 -9.541435E+04 -8.576733E+04  2.933385E+04 -3.625109E+03 -2.368372E+04
       205   8 -8.508388E+05 -8.498296E+04 -7.443126E+04  2.309792E+04 -9.581266E+02 -2.214040E+04
       205   9 -8.125320E+05 -7.557698E+04 -6.509469E+04  2.882317E+04  1.707066E+03 -1.986146E+04
       205  10 -1.045788E+05  9.344564E+04  7.290544E+04  2.957928E+04 -2.269480E-09 -5.304959E-10
       205  11 -1.430593E+05  8.500549E+04  6.733044E+04  2.385275E+04 -1.043050E-09  5.017725E-09
       205  12 -1.818520E+05  7.585319E+04  6.100636E+04  3.008657E+04 -4.494724E-09  2.388513E-09
       205  13 -4.972490E+05 -9.798785E+02 -6.427504E+03  2.945652E+04 -1.158922E-09  6.692147E-09
       205  14 -4.970090E+05  1.485463E+01 -3.547700E+03  2.347524E+04  4.533065E-09 -8.086595E-09
       205  15 -4.972396E+05  1.409484E+02 -2.042030E+03  2.945474E+04  1.731820E-09  4.700155E-09
       205  16 -8.897722E+05 -9.541496E+04 -8.576841E+04  2.933378E+04  2.741863E-09 -1.423109E-09
       205  17 -8.508390E+05 -8.498349E+04 -7.443218E+04  2.309790E+04  4.234379E-09 -2.471189E-09
       205  18 -8.125321E+05 -7.557741E+04 -6.509544E+04  2.882320E+04  1.740741E-09  3.448728E-09
       205  19 -1.045786E+05  9.344625E+04  7.290658E+04  2.957940E+04  6.494588E+03  2.368580E+04
       205  20 -1.430592E+05  8.500602E+04  6.733142E+04  2.385285E+04  5.624741E+03  2.214601E+04
       205  21 -1.818519E+05  7.585362E+04  6.100715E+04  3.008665E+04  4.756874E+03  1.987103E+04
       205  22 -4.972488E+05 -9.792693E+02 -6.426402E+03  2.945662E+04  5.059403E+03  2.368476E+04
       205  23 -4.970088E+05  1.538393E+01 -3.546758E+03  2.347530E+04  3.290782E+03  2.214321E+04
       205  24 -4.972395E+05  1.413728E+02 -2.041284E+03  2.945477E+04  1.524099E+03  1.986624E+04
       205  25 -8.897720E+05 -9.541435E+04 -8.576733E+04  2.933385E+04  3.625109E+03  2.368372E+04
       205  26 -8.508388E+05 -8.498296E+04 -7.443126E+04  2.309792E+04  9.581266E+02  2.214040E+04
       205  27 -8.125320E+05 -7.557698E+04 -6.509469E+04  2.882317E+04 -1.707066E+03  1.986146E+04
       206   1 -2.093981E+05  6.911779E+04  5.579196E+04  2.991755E+04 -4.275604E+03 -1.834307E+04
       206   2 -2.481150E+05  5.984612E+04  4.876041E+04  2.383706E+04 -3.880298E+03 -1.581404E+04
       206   3 -2.869212E+05  5.058665E+04  4.146384E+04  2.980180E+04 -3.485711E+03 -1.324090E+04
       206   4 -4.971536E+05  7.223501E+01 -1.563980E+03  2.947403E+04 -1.208303E+03 -1.833832E+04
       206   5 -4.971007E+05  9.243495E+01 -9.156644E+02  2.345123E+04 -7.592684E+02 -1.580884E+04
       206   6 -4.971473E+05  1.157029E+02 -5.696433E+02  2.947395E+04 -3.109290E+02 -1.323524E+04
       206   7 -7.848298E+05 -6.897839E+04 -5.892403E+04  2.903069E+04  1.857605E+03 -1.833356E+04
       206   8 -7.460271E+05 -5.966505E+04 -5.059482E+04  2.306553E+04  2.360534E+03 -1.580364E+04
       206   9 -7.073313E+05 -5.035796E+04 -4.260532E+04  2.914620E+04  2.862799E+03 -1.322957E+04
       206  10 -2.093983E+05  6.911743E+04  5.579129E+04  2.991749E+04 -9.123393E-09 -4.107813E-09
       206  11 -2.481151E+05  5.984585E+04  4.875991E+04  2.383701E+04 -5.922186E-09 -4.120207E-10
       206  12 -2.869212E+05  5.058646E+04  4.146349E+04  2.980176E+04 -3.853247E-09  1.770099E-09
       206  13 -4.971537E+05  7.187358E+01 -1.564615E+03  2.947401E+04 -9.192188E-10  5.261126E-10
       206  14 -4.971007E+05  9.216649E+01 -9.161350E+02  2.345122E+04 -5.088409E-09 -4.468257E-11
       206  15 -4.971474E+05  1.155148E+02 -5.699726E+02  2.947395E+04 -4.178218E-09  2.500569E-09
       206  16 -7.848299E+05 -6.897875E+04 -5.892467E+04  2.903071E+04  3.622675E-09  4.457858E-10
       206  17 -7.460271E+05 -5.966532E+04 -5.059530E+04  2.306556E+04  3.942753E-09  5.015201E-09
       206  18 -7.073313E+05 -5.035815E+04 -4.260567E+04  2.914623E+04  7.964059E-09  8.672183E-09
       206  19 -2.093981E+05  6.911779E+04  5.579196E+04  2.991755E+04  4.275604E+03  1.834307E+04
       206  20 -2.481150E+05  5.984612E+04  4.876041E+04  2.383706E+04  3.880298E+03  1.581404E+04
       206  21 -2.869212E+05  5.058665E+04  4.146384E+04  2.980180E+04  3.485711E+03  1.324090E+04
       206  22 -4.971536E+05  7.223501E+01 -1.563980E+03  2.947403E+04  1.208303E+03  1.833832E+04
       206  23 -4.971007E+05  9.243495E+01 -9.156644E+02  2.345123E+04  7.592684E+02  1.580884E+04
       206  24 -4.971473E+05  1.157029E+02 -5.696433E+02  2.947395E+04  3.109290E+02  1.323524E+04
       206  25 -7.848298E+05 -6.897839E+04 -5.892403E+04  2.903069E+04 -1.857605E+03  1.833356E+04
       206  26 -7.460271E+05 -5.966505E+04 -5.059482E+04  2.306553E+04 -2.360534E+03  1.580364E+04
       206  27 -7.073313E+05 -5.035796E+04 -4.260532E+04  2.914620E+04 -2.862799E+03  1.322957E+04
       207   1 -3.145968E+05  4.390281E+04  3.584309E+04  2.976138E+04 -3.386974E+03 -1.173075E+04
       207   2 -3.534118E+05  3.458260E+04  2.828847E+04  2.365835E+04 -3.211867E+03 -9.139856E+03
       207   3 -3.922912E+05  2.530659E+04  2.061713E+04  2.962881E+04 -3.037142E+03 -6.545202E+03
       207   4 -4.971377E+05  1.148530E+02 -4.701616E+02  2.948022E+04 -2.196039E+02 -1.172493E+04
       207   5 -4.971027E+05  9.799159E+01 -3.731068E+02  2.344340E+04 -4.003314E+01 -9.133816E+03
       207   6 -4.971342E+05  1.246354E+02 -3.958871E+02  2.948021E+04  1.391665E+02 -6.538941E+03
       207   7 -6.796468E+05 -4.367514E+04 -3.678504E+04  2.919914E+04  2.946853E+03 -1.171910E+04
       207   8 -6.407738E+05 -3.438788E+04 -2.903568E+04  2.322848E+04  3.131081E+03 -9.127777E+03
       207   9 -6.019667E+05 -2.505799E+04 -2.140942E+04  2.933164E+04  3.314949E+03 -6.532682E+03
       207  10 -3.145968E+05  4.390266E+04  3.584281E+04  2.976135E+04  4.732412E-09 -2.480746E-09
       207  11 -3.534119E+05  3.458251E+04  2.828829E+04  2.365833E+04 -1.190510E-08  1.814140E-09
       207  12 -3.922912E+05  2.530654E+04  2.061703E+04  2.962879E+04 -2.865789E-08 -1.208513E-09
       207  13 -4.971378E+05  1.147054E+02 -4.704200E+02  2.948022E+04 -9.651244E-09  3.665948E-09
       207  14 -4.971027E+05  9.790202E+01 -3.732635E+02  2.344340E+04  3.641131E-09 -9.871866E-09
       207  15 -4.971342E+05  1.245895E+02 -3.959675E+02  2.948021E+04 -9.928183E-10 -1.175381E-08
       207  16 -6.796469E+05 -4.367529E+04 -3.678531E+04  2.919917E+04 -1.130986E-08  3.681366E-09
       207  17 -6.407738E+05 -3.438797E+04 -2.903586E+04  2.322850E+04  1.020830E-08  1.598957E-09
       207  18 -6.019667E+05 -2.505804E+04 -2.140953E+04  2.933165E+04  3.308481E-08  4.529242E-10
       207  19 -3.145968E+05  4.390281E+04  3.584309E+04  2.976138E+04  3.386974E+03  1.173075E+04
       207  20 -3.534118E+05  3.458260E+04  2.828847E+04  2.365835E+04  3.211867E+03  9.139856E+03
       207  21 -3.922912E+05  2.530659E+04  2.061713E+04  2.962881E+04  3.037142E+03  6.545202E+03
       207  22 -4.971377E+05  1.148530E+02 -4.701616E+02  2.948022E+04  2.196039E+02  1.172493E+04
       207  23 -4.971027E+05  9.799159E+01 -3.731068E+02  2.344340E+04  4.003314E+01  9.133816E+03
       207  24 -4.971342E+05  1.246354E+02 -3.958871E+02  2.948021E+04 -1.391665E+02  6.538941E+03
       207  25 -6.796468E+05 -4.367514E+04 -3.678504E+04  2.919914E+04 -2.946853E+03  1.171910E+04
       207  26 -6.407738E+05 -3.438788E+04 -2.903568E+04  2.322848E+04 -3.131081E+03  9.127777E+03
       207  27 -6.019667E+05 -2.505799E+04 -2.140942E+04  2.933164E+04 -3.314949E+03  6.532682E+03
       208   1 -4.200228E+05  1.861353E+04  1.482985E+04  2.958589E+04 -2.963888E+03 -5.033665E+03
       208   2 -4.588627E+05  9.287284E+03  6.947303E+03  2.346091E+04 -2.632805E+03 -2.436473E+03
       208   3 -4.977934E+05  1.074707E+00 -1.156012E+03  2.942187E+04 -2.301843E+03  1.597500E+02
       208   4 -4.971389E+05  1.256402E+02 -4.527302E+02  2.948295E+04  2.132063E+02 -5.027323E+03
       208   5 -4.970922E+05  1.122810E+02 -6.778854E+02  2.343995E+04  5.429705E+02 -2.430081E+03
       208   6 -4.971381E+05  1.391090E+02 -1.123051E+03  2.948293E+04  8.726345E+02  1.661976E+02
       208   7 -5.742494E+05 -1.836260E+04 -1.573556E+04  2.938003E+04  3.389914E+03 -5.020982E+03
       208   8 -5.353203E+05 -9.062807E+03 -8.303109E+03  2.341899E+04  3.718555E+03 -2.423688E+03
       208   9 -4.964827E+05  2.771488E+02 -1.090053E+03  2.954399E+04  4.047115E+03  1.726458E+02
       208  10 -4.200228E+05  1.861350E+04  1.482978E+04  2.958587E+04  2.055559E-08  3.163256E-10
       208  11 -4.588628E+05  9.287276E+03  6.947279E+03  2.346090E+04  1.598917E-08 -1.603374E-09
       208  12 -4.977934E+05  1.073256E+00 -1.156022E+03  2.942187E+04 -6.444112E-09  9.854119E-10
       208  13 -4.971389E+05  1.256130E+02 -4.527778E+02  2.948295E+04  2.860943E-09 -3.225670E-09
       208  14 -4.970922E+05  1.122746E+02 -6.778970E+02  2.343995E+04 -5.377969E-09 -4.242529E-09
       208  15 -4.971381E+05  1.391088E+02 -1.123053E+03  2.948293E+04 -2.199599E-09  8.283000E-10
       208  16 -5.742494E+05 -1.836263E+04 -1.573563E+04  2.938004E+04 -2.026138E-08  1.018673E-09
       208  17 -5.353203E+05 -9.062817E+03 -8.303146E+03  2.341900E+04 -1.493633E-08 -9.665147E-09
       208  18 -4.964827E+05  2.771443E+02 -1.090084E+03  2.954399E+04 -1.571784E-09 -1.531356E-09
       208  19 -4.200228E+05  1.861353E+04  1.482985E+04  2.958589E+04  2.963888E+03  5.033665E+03
       208  20 -4.588627E+05  9.287284E+03  6.947303E+03  2.346091E+04  2.632805E+03  2.436473E+03
       208  21 -4.977934E+05  1.074707E+00 -1.156012E+03  2.942187E+04  2.301843E+03 -1.597500E+02
       208  22 -4.971389E+05  1.256402E+02 -4.527302E+02  2.948295E+04 -2.132063E+02  5.027323E+03
       208  23 -4.970922E+05  1.122810E+02 -6.778854E+02  2.343995E+04 -5.429705E+02  2.430081E+03
       208  24 -4.971381E+05  1.391090E+02 -1.123051E+03  2.948293E+04 -8.726345E+02 -1.661976E+02
       208  25 -5.742494E+05 -1.836260E+04 -1.573556E+04  2.938003E+04 -3.389914E+03  5.020982E+03
       208  26 -5.353203E+05 -9.062807E+03 -8.303109E+03  2.341899E+04 -3.718555E+03  2.423688E+03
       208  27 -4.964827E+05  2.771488E+02 -1.090053E+03  2.954399E+04 -4.047115E+03 -1.726458E+02
       209   1 -5.255640E+05 -6.688619E+03 -7.230008E+03  2.935062E+04 -2.076868E+03  1.673096E+03
       209   2 -5.643186E+05 -1.600377E+04 -1.595261E+04  2.320748E+04 -7.999942E+02  4.261983E+03
       209   3 -6.033171E+05 -2.539793E+04 -2.554206E+04  2.914669E+04  4.770416E+02  6.823309E+03
       209   4 -4.971708E+05  1.470111E+02 -1.464105E+03  2.948204E+04  1.103564E+03  1.679542E+03
       209   5 -4.970524E+05  1.443043E+02 -2.523274E+03  2.344099E+04  2.346785E+03  4.268263E+03
       209   6 -4.971729E+05  6.868790E+01 -4.425616E+03  2.948222E+04  3.590246E+03  6.829427E+03
       209   7 -4.687768E+05  6.982596E+03  4.301795E+03  2.961347E+04  4.284138E+03  1.685991E+03
       209   8 -4.297818E+05  1.629210E+04  1.090587E+04  2.367453E+04  5.493899E+03  4.274544E+03
       209   9 -3.910178E+05  2.553462E+04  1.669030E+04  2.981780E+04  6.703972E+03  6.835548E+03
       209  10 -5.255640E+05 -6.688623E+03 -7.230022E+03  2.935063E+04  9.855166E-09  2.227746E-09
       209  11 -5.643186E+05 -1.600379E+04 -1.595265E+04  2.320748E+04 -3.440793E-09 -3.480109E-09
       209  12 -6.033171E+05 -2.539798E+04 -2.554214E+04  2.914668E+04 -1.540109E-08 -4.170563E-09
       209  13 -4.971708E+05  1.470078E+02 -1.464112E+03  2.948204E+04 -5.407042E-09  4.382243E-09
       209  14 -4.970524E+05  1.442833E+02 -2.523319E+03  2.344099E+04  1.104113E-09 -2.588613E-10
       209  15 -4.971729E+05  6.863436E+01 -4.425728E+03  2.948220E+04 -5.544232E-09  2.207946E-10
       209  16 -4.687769E+05  6.982588E+03  4.301755E+03  2.961346E+04 -8.586606E-09  7.035737E-09
       209  17 -4.297818E+05  1.629207E+04  1.090578E+04  2.367451E+04  5.310509E-09 -4.028940E-09
       209  18 -3.910179E+05  2.553456E+04  1.669013E+04  2.981776E+04  1.408984E-08  2.725414E-09
       209  19 -5.255640E+05 -6.688619E+03 -7.230008E+03  2.935062E+04  2.076868E+03 -1.673096E+03
       209  20 -5.643186E+05 -1.600377E+04 -1.595261E+04  2.320748E+04  7.999942E+02 -4.261983E+03
       209  21 -6.033171E+05 -2.539793E+04 -2.554206E+04  2.914669E+04 -4.770416E+02 -6.823309E+03
       209  22 -4.971708E+05  1.470111E+02 -1.464105E+03  2.948204E+04 -1.103564E+03 -1.679542E+03
       209  23 -4.970524E+05  1.443043E+02 -2.523274E+03  2.344099E+04 -2.346785E+03 -4.268263E+03
       209  24 -4.971729E+05  6.868790E+01 -4.425616E+03  2.948222E+04 -3.590246E+03 -6.829427E+03
       209  25 -4.687768E+05  6.982596E+03  4.301795E+03  2.961347E+04 -4.284138E+03 -1.685991E+03
       209  26 -4.297818E+05  1.629210E+04  1.090587E+04  2.367453E+04 -5.493899E+03 -4.274544E+03
       209  27 -3.910178E+05  2.553462E+04  1.669030E+04  2.981780E+04 -6.703972E+03 -6.835548E+03
       210   1 -6.312923E+05 -3.188767E+04 -3.264667E+04  2.863639E+04  1.269164E+03  8.350640E+03
       210   2 -6.693953E+05 -4.149841E+04 -4.476131E+04  2.336372E+04  6.901780E+03  1.075713E+04
       210   3 -7.089500E+05 -5.377865E+04 -6.122639E+04  3.013431E+04  1.253530E+04  1.268819E+04
       210   4 -4.974215E+05  2.746689E+02 -5.809021E+03  2.947206E+04  4.490255E+03  8.356868E+03
       210   5 -4.967488E+05 -2.054927E+01 -1.013216E+04  2.345357E+04  9.542648E+03  1.076198E+04
       210   6 -4.974278E+05 -2.883822E+03 -1.840153E+04  2.947819E+04  1.459629E+04  1.269173E+04
       210   7 -3.635335E+05  3.243591E+04  2.102775E+04  3.030791E+04  7.712027E+03  8.363104E+03
       210   8 -3.240738E+05  4.145548E+04  2.449551E+04  2.354344E+04  1.218424E+04  1.076684E+04
       210   9 -2.858629E+05  4.800823E+04  2.442101E+04  2.882183E+04  1.665796E+04  1.269526E+04
       210  10 -6.312924E+05 -3.188774E+04 -3.264680E+04  2.863638E+04  2.895756E-08 -2.154628E-09
       210  11 -6.693954E+05 -4.149855E+04 -4.476161E+04  2.336366E+04  1.349399E-08  3.232097E-09
       210  12 -7.089502E+05 -5.377887E+04 -6.122698E+04  3.013419E+04 -7.441810E-09  2.150399E-09
       210  13 -4.974215E+05  2.745885E+02 -5.809190E+03  2.947203E+04 -4.999994E-09 -6.823708E-09
       210  14 -4.967489E+05 -2.069808E+01 -1.013254E+04  2.345349E+04 -1.554057E-09  3.766758E-09
       210  15 -4.974280E+05 -2.884052E+03 -1.840224E+04  2.947805E+04 -6.220775E-10  2.731427E-09
       210  16 -3.635336E+05  3.243582E+04  2.102751E+04  3.030786E+04 -2.832852E-08 -3.760380E-09
       210  17 -3.240740E+05  4.145531E+04  2.449501E+04  2.354333E+04 -1.387328E-08 -7.845144E-09
       210  18 -2.858632E+05  4.800798E+04  2.442019E+04  2.882166E+04  4.240424E-09  1.993679E-09
       210  19 -6.312923E+05 -3.188767E+04 -3.264667E+04  2.863639E+04 -1.269164E+03 -8.350640E+03
       210  20 -6.693953E+05 -4.149841E+04 -4.476131E+04  2.336372E+04 -6.901780E+03 -1.075713E+04
       210  21 -7.089500E+05 -5.377865E+04 -6.122639E+04  3.013431E+04 -1.253530E+04 -1.268819E+04
       210  22 -4.974215E+05  2.746689E+02 -5.809021E+03  2.947206E+04 -4.490255E+03 -8.356868E+03
       210  23 -4.967488E+05 -2.054927E+01 -1.013216E+04  2.345357E+04 -9.542648E+03 -1.076198E+04
       210  24 -4.974278E+05 -2.883822E+03 -1.840153E+04  2.947819E+04 -1.459629E+04 -1.269173E+04
       210  25 -3.635335E+05  3.243591E+04  2.102775E+04  3.030791E+04 -7.712027E+03 -8.363104E+03
       210  26 -3.240738E+05  4.145548E+04  2.449551E+04  2.354344E+04 -1.218424E+04 -1.076684E+04
       210  27 -2.858629E+05  4.800823E+04  2.442101E+04  2.882183E+04 -1.665796E+04 -1.269526E+04
       211   1 -7.405179E+05 -5.564947E+04 -7.202252E+04  2.003289E+04  1.379602E+04  1.445931E+04
       211   2 -7.696183E+05 -7.461863E+04 -1.002929E+05  3.994193E+04  4.580213E+04  1.359959E+04
       211   3 -8.183155E+05 -1.551295E+05 -1.648085E+05  7.147982E+04  7.781913E+04  4.398925E+03
       211   4 -5.010873E+05  1.992426E+03 -2.361503E+04  2.935553E+04  1.777763E+04  1.446646E+04
       211   5 -4.921903E+05 -7.439504E+03 -4.167074E+04  2.360985E+04  3.958967E+04  1.358681E+04
       211   6 -5.011129E+05 -7.662932E+04 -8.887909E+04  2.949529E+04  6.141529E+04  4.365247E+03
       211   7 -2.616017E+05  5.963109E+04  2.478961E+04  3.868180E+04  2.176075E+04  1.447374E+04
       211   8 -2.146889E+05  5.973569E+04  1.694731E+04  7.270308E+03  3.337448E+04  1.357436E+04
       211   9 -1.838135E+05  1.870438E+03 -1.295484E+04 -1.251084E+04  4.500310E+04  4.333799E+03
       211  10 -7.405182E+05 -5.564975E+04 -7.202327E+04  2.003273E+04  1.021519E-08  1.903938E-09
       211  11 -7.696207E+05 -7.461940E+04 -1.002971E+05  3.994143E+04  7.484355E-09 -1.505764E-10
       211  12 -8.183220E+05 -1.551312E+05 -1.648199E+05  7.147955E+04  1.048454E-09  3.602476E-09
       211  13 -5.010877E+05  1.992116E+03 -2.361601E+04  2.935532E+04  3.323911E-09  4.610464E-09
       211  14 -4.921921E+05 -7.440124E+03 -4.167403E+04  2.360941E+04 -5.242926E-09 -1.210824E-09
       211  15 -5.011169E+05 -7.663035E+04 -8.888622E+04  2.949507E+04 -2.423981E-10  1.707684E-09
       211  16 -2.616023E+05  5.963074E+04  2.478833E+04  3.868155E+04 -7.382882E-09  4.845532E-09
       211  17 -2.146902E+05  5.973520E+04  1.694487E+04  7.269943E+03 -2.045801E-10  5.207104E-10
       211  18 -1.838157E+05  1.869874E+03 -1.295868E+04 -1.251100E+04 -3.530484E-10 -2.347888E-10
       211  19 -7.405179E+05 -5.564947E+04 -7.202252E+04  2.003289E+04 -1.379602E+04 -1.445931E+04
       211  20 -7.696183E+05 -7.461863E+04 -1.002929E+05  3.994193E+04 -4.580213E+04 -1.359959E+04
       211  21 -8.183155E+05 -1.551295E+05 -1.648085E+05  7.147982E+04 -7.781913E+04 -4.398925E+03
       211  22 -5.010873E+05  1.992426E+03 -2.361503E+04  2.935553E+04 -1.777763E+04 -1.446646E+04
       211  23 -4.921903E+05 -7.439504E+03 -4.167074E+04  2.360985E+04 -3.958967E+04 -1.358681E+04
       211  24 -5.011129E+05 -7.662932E+04 -8.887909E+04  2.949529E+04 -6.141529E+04 -4.365247E+03
       211  25 -2.616017E+05  5.963109E+04  2.478961E+04  3.868180E+04 -2.176075E+04 -1.447374E+04
       211  26 -2.146889E+05  5.973569E+04  1.694731E+04  7.270308E+03 -3.337448E+04 -1.357436E+04
       211  27 -1.838135E+05  1.870438E+03 -1.295484E+04 -1.251084E+04 -4.500310E+04 -4.333799E+03
