    1C
    1UUSER                                                              
    1UDATE              11.october.2022                                 
    1UTIME              18:59:10                                        
    1UHOST                                                              
    1UPGM               CalculiX                                        
    1UVERSION           Version 2.20                             
    1UCOMPILETIME       Sun Jul 31 18:08:37 CEST 2022                    
    1UDIR                                                               
    1UDBN                                                               
    1UMAT    1MESH_MATERIAL                                             
    2C                           409                                     1
 -1         1 0.00000E+00 0.00000E+00 0.00000E+00
 -1         2 1.66667E-02 0.00000E+00 0.00000E+00
 -1         3 3.33333E-02 0.00000E+00 0.00000E+00
 -1         5 6.66667E-02 0.00000E+00 0.00000E+00
 -1         8 0.00000E+00 6.25000E-03 0.00000E+00
 -1         9 1.66667E-02 6.25000E-03 0.00000E+00
 -1        10 3.33333E-02 6.25000E-03 0.00000E+00
 -1        12 6.66667E-02 6.25000E-03 0.00000E+00
 -1        15 0.00000E+00 1.25000E-02 0.00000E+00
 -1        16 1.66667E-02 1.25000E-02 0.00000E+00
 -1        17 3.33333E-02 1.25000E-02 0.00000E+00
 -1        18 5.00000E-02 1.25000E-02 0.00000E+00
 -1        19 6.66667E-02 1.25000E-02 0.00000E+00
 -1        20 8.33333E-02 1.25000E-02 0.00000E+00
 -1        21 1.00000E-01 1.25000E-02 0.00000E+00
 -1        24 3.33333E-02 1.87500E-02 0.00000E+00
 -1        25 5.00000E-02 1.87500E-02 0.00000E+00
 -1        26 6.66667E-02 1.87500E-02 0.00000E+00
 -1        27 8.33333E-02 1.87500E-02 0.00000E+00
 -1        28 1.00000E-01 1.87500E-02 0.00000E+00
 -1        32 5.00000E-02 2.50000E-02 0.00000E+00
 -1        33 6.66667E-02 2.50000E-02 0.00000E+00
 -1        34 8.33333E-02 2.50000E-02 0.00000E+00
 -1        35 1.00000E-01 2.50000E-02 0.00000E+00
 -1        51 0.00000E+00 1.04167E-03 0.00000E+00
 -1        52 0.00000E+00 2.08333E-03 0.00000E+00
 -1        53 0.00000E+00 3.12500E-03 0.00000E+00
 -1        54 0.00000E+00 4.16667E-03 0.00000E+00
 -1        55 0.00000E+00 5.20833E-03 0.00000E+00
 -1        56 1.04167E-03 3.90630E-04 0.00000E+00
 -1        57 2.08333E-03 7.81250E-04 0.00000E+00
 -1        58 3.12500E-03 1.17188E-03 0.00000E+00
 -1        59 4.16667E-03 1.56250E-03 0.00000E+00
 -1        60 5.20833E-03 1.95312E-03 0.00000E+00
 -1        61 6.25000E-03 2.34375E-03 0.00000E+00
 -1        62 7.29167E-03 2.73438E-03 0.00000E+00
 -1        63 8.33333E-03 3.12500E-03 0.00000E+00
 -1        64 9.37500E-03 3.51563E-03 0.00000E+00
 -1        65 1.04167E-02 3.90625E-03 0.00000E+00
 -1        66 1.14583E-02 4.29688E-03 0.00000E+00
 -1        67 1.25000E-02 4.68750E-03 0.00000E+00
 -1        68 1.35417E-02 5.07813E-03 0.00000E+00
 -1        69 1.45833E-02 5.46875E-03 0.00000E+00
 -1        70 1.56250E-02 5.85938E-03 0.00000E+00
 -1        86 1.66667E-02 1.04167E-03 0.00000E+00
 -1        87 1.66667E-02 2.08333E-03 0.00000E+00
 -1        88 1.66667E-02 3.12500E-03 0.00000E+00
 -1        89 1.66667E-02 4.16667E-03 0.00000E+00
 -1        90 1.66667E-02 5.20833E-03 0.00000E+00
 -1       121 3.33333E-02 1.04167E-03 0.00000E+00
 -1       122 3.33333E-02 2.08333E-03 0.00000E+00
 -1       123 3.33333E-02 3.12500E-03 0.00000E+00
 -1       124 3.33333E-02 4.16667E-03 0.00000E+00
 -1       125 3.33333E-02 5.20833E-03 0.00000E+00
 -1       191 6.66667E-02 1.04167E-03 0.00000E+00
 -1       192 6.66667E-02 2.08333E-03 0.00000E+00
 -1       193 6.66667E-02 3.12500E-03 0.00000E+00
 -1       194 6.66667E-02 4.16667E-03 0.00000E+00
 -1       195 6.66667E-02 5.20833E-03 0.00000E+00
 -1       251 1.04167E-03 6.25000E-03 0.00000E+00
 -1       252 2.08333E-03 6.25000E-03 0.00000E+00
 -1       253 3.12500E-03 6.25000E-03 0.00000E+00
 -1       254 4.16667E-03 6.25000E-03 0.00000E+00
 -1       255 5.20833E-03 6.25000E-03 0.00000E+00
 -1       256 6.25000E-03 6.25000E-03 0.00000E+00
 -1       257 7.29167E-03 6.25000E-03 0.00000E+00
 -1       258 8.33333E-03 6.25000E-03 0.00000E+00
 -1       259 9.37500E-03 6.25000E-03 0.00000E+00
 -1       260 1.04167E-02 6.25000E-03 0.00000E+00
 -1       261 1.14583E-02 6.25000E-03 0.00000E+00
 -1       262 1.25000E-02 6.25000E-03 0.00000E+00
 -1       263 1.35417E-02 6.25000E-03 0.00000E+00
 -1       264 1.45833E-02 6.25000E-03 0.00000E+00
 -1       265 1.56250E-02 6.25000E-03 0.00000E+00
 -1       266 0.00000E+00 7.29167E-03 0.00000E+00
 -1       267 0.00000E+00 8.33333E-03 0.00000E+00
 -1       268 0.00000E+00 9.37500E-03 0.00000E+00
 -1       269 0.00000E+00 1.04167E-02 0.00000E+00
 -1       270 0.00000E+00 1.14583E-02 0.00000E+00
 -1       271 1.04167E-03 6.64063E-03 0.00000E+00
 -1       272 2.08333E-03 7.03125E-03 0.00000E+00
 -1       273 3.12500E-03 7.42188E-03 0.00000E+00
 -1       274 4.16667E-03 7.81250E-03 0.00000E+00
 -1       275 5.20833E-03 8.20313E-03 0.00000E+00
 -1       276 6.25000E-03 8.59375E-03 0.00000E+00
 -1       277 7.29167E-03 8.98438E-03 0.00000E+00
 -1       278 8.33333E-03 9.37500E-03 0.00000E+00
 -1       279 9.37500E-03 9.76562E-03 0.00000E+00
 -1       280 1.04167E-02 1.01562E-02 0.00000E+00
 -1       281 1.14583E-02 1.05469E-02 0.00000E+00
 -1       282 1.25000E-02 1.09375E-02 0.00000E+00
 -1       283 1.35417E-02 1.13281E-02 0.00000E+00
 -1       284 1.45833E-02 1.17188E-02 0.00000E+00
 -1       285 1.56250E-02 1.21094E-02 0.00000E+00
 -1       301 1.66667E-02 7.29167E-03 0.00000E+00
 -1       302 1.66667E-02 8.33333E-03 0.00000E+00
 -1       303 1.66667E-02 9.37500E-03 0.00000E+00
 -1       304 1.66667E-02 1.04167E-02 0.00000E+00
 -1       305 1.66667E-02 1.14583E-02 0.00000E+00
 -1       306 1.77083E-02 6.64063E-03 0.00000E+00
 -1       307 1.87500E-02 7.03125E-03 0.00000E+00
 -1       308 1.97917E-02 7.42188E-03 0.00000E+00
 -1       309 2.08333E-02 7.81250E-03 0.00000E+00
 -1       310 2.18750E-02 8.20313E-03 0.00000E+00
 -1       311 2.29167E-02 8.59375E-03 0.00000E+00
 -1       312 2.39583E-02 8.98438E-03 0.00000E+00
 -1       313 2.50000E-02 9.37500E-03 0.00000E+00
 -1       314 2.60417E-02 9.76562E-03 0.00000E+00
 -1       315 2.70833E-02 1.01562E-02 0.00000E+00
 -1       316 2.81250E-02 1.05469E-02 0.00000E+00
 -1       317 2.91667E-02 1.09375E-02 0.00000E+00
 -1       318 3.02083E-02 1.13281E-02 0.00000E+00
 -1       319 3.12500E-02 1.17188E-02 0.00000E+00
 -1       320 3.22917E-02 1.21094E-02 0.00000E+00
 -1       336 3.33333E-02 7.29167E-03 0.00000E+00
 -1       337 3.33333E-02 8.33333E-03 0.00000E+00
 -1       338 3.33333E-02 9.37500E-03 0.00000E+00
 -1       339 3.33333E-02 1.04167E-02 0.00000E+00
 -1       340 3.33333E-02 1.14583E-02 0.00000E+00
 -1       406 6.66667E-02 7.29167E-03 0.00000E+00
 -1       407 6.66667E-02 8.33333E-03 0.00000E+00
 -1       408 6.66667E-02 9.37500E-03 0.00000E+00
 -1       409 6.66667E-02 1.04167E-02 0.00000E+00
 -1       410 6.66667E-02 1.14583E-02 0.00000E+00
 -1       521 1.77083E-02 1.28906E-02 0.00000E+00
 -1       522 1.87500E-02 1.32813E-02 0.00000E+00
 -1       523 1.97917E-02 1.36719E-02 0.00000E+00
 -1       524 2.08333E-02 1.40625E-02 0.00000E+00
 -1       525 2.18750E-02 1.44531E-02 0.00000E+00
 -1       526 2.29167E-02 1.48437E-02 0.00000E+00
 -1       527 2.39583E-02 1.52344E-02 0.00000E+00
 -1       528 2.50000E-02 1.56250E-02 0.00000E+00
 -1       529 2.60417E-02 1.60156E-02 0.00000E+00
 -1       530 2.70833E-02 1.64062E-02 0.00000E+00
 -1       531 2.81250E-02 1.67969E-02 0.00000E+00
 -1       532 2.91667E-02 1.71875E-02 0.00000E+00
 -1       533 3.02083E-02 1.75781E-02 0.00000E+00
 -1       534 3.12500E-02 1.79687E-02 0.00000E+00
 -1       535 3.22917E-02 1.83594E-02 0.00000E+00
 -1       536 3.43750E-02 1.25000E-02 0.00000E+00
 -1       537 3.54167E-02 1.25000E-02 0.00000E+00
 -1       538 3.64583E-02 1.25000E-02 0.00000E+00
 -1       539 3.75000E-02 1.25000E-02 0.00000E+00
 -1       540 3.85417E-02 1.25000E-02 0.00000E+00
 -1       541 3.95833E-02 1.25000E-02 0.00000E+00
 -1       542 4.06250E-02 1.25000E-02 0.00000E+00
 -1       543 4.16667E-02 1.25000E-02 0.00000E+00
 -1       544 4.27083E-02 1.25000E-02 0.00000E+00
 -1       545 4.37500E-02 1.25000E-02 0.00000E+00
 -1       546 4.47917E-02 1.25000E-02 0.00000E+00
 -1       547 4.58333E-02 1.25000E-02 0.00000E+00
 -1       548 4.68750E-02 1.25000E-02 0.00000E+00
 -1       549 4.79167E-02 1.25000E-02 0.00000E+00
 -1       550 4.89583E-02 1.25000E-02 0.00000E+00
 -1       551 3.33333E-02 1.35417E-02 0.00000E+00
 -1       552 3.33333E-02 1.45833E-02 0.00000E+00
 -1       553 3.33333E-02 1.56250E-02 0.00000E+00
 -1       554 3.33333E-02 1.66667E-02 0.00000E+00
 -1       555 3.33333E-02 1.77083E-02 0.00000E+00
 -1       556 3.43750E-02 1.28906E-02 0.00000E+00
 -1       557 3.54167E-02 1.32813E-02 0.00000E+00
 -1       558 3.64583E-02 1.36719E-02 0.00000E+00
 -1       559 3.75000E-02 1.40625E-02 0.00000E+00
 -1       560 3.85417E-02 1.44531E-02 0.00000E+00
 -1       561 3.95833E-02 1.48437E-02 0.00000E+00
 -1       562 4.06250E-02 1.52344E-02 0.00000E+00
 -1       563 4.16667E-02 1.56250E-02 0.00000E+00
 -1       564 4.27083E-02 1.60156E-02 0.00000E+00
 -1       565 4.37500E-02 1.64062E-02 0.00000E+00
 -1       566 4.47917E-02 1.67969E-02 0.00000E+00
 -1       567 4.58333E-02 1.71875E-02 0.00000E+00
 -1       568 4.68750E-02 1.75781E-02 0.00000E+00
 -1       569 4.79167E-02 1.79687E-02 0.00000E+00
 -1       570 4.89583E-02 1.83594E-02 0.00000E+00
 -1       571 5.10417E-02 1.25000E-02 0.00000E+00
 -1       572 5.20833E-02 1.25000E-02 0.00000E+00
 -1       573 5.31250E-02 1.25000E-02 0.00000E+00
 -1       574 5.41667E-02 1.25000E-02 0.00000E+00
 -1       575 5.52083E-02 1.25000E-02 0.00000E+00
 -1       576 5.62500E-02 1.25000E-02 0.00000E+00
 -1       577 5.72917E-02 1.25000E-02 0.00000E+00
 -1       578 5.83333E-02 1.25000E-02 0.00000E+00
 -1       579 5.93750E-02 1.25000E-02 0.00000E+00
 -1       580 6.04167E-02 1.25000E-02 0.00000E+00
 -1       581 6.14583E-02 1.25000E-02 0.00000E+00
 -1       582 6.25000E-02 1.25000E-02 0.00000E+00
 -1       583 6.35417E-02 1.25000E-02 0.00000E+00
 -1       584 6.45833E-02 1.25000E-02 0.00000E+00
 -1       585 6.56250E-02 1.25000E-02 0.00000E+00
 -1       586 5.00000E-02 1.35417E-02 0.00000E+00
 -1       587 5.00000E-02 1.45833E-02 0.00000E+00
 -1       588 5.00000E-02 1.56250E-02 0.00000E+00
 -1       589 5.00000E-02 1.66667E-02 0.00000E+00
 -1       590 5.00000E-02 1.77083E-02 0.00000E+00
 -1       591 5.10417E-02 1.28906E-02 0.00000E+00
 -1       592 5.20833E-02 1.32813E-02 0.00000E+00
 -1       593 5.31250E-02 1.36719E-02 0.00000E+00
 -1       594 5.41667E-02 1.40625E-02 0.00000E+00
 -1       595 5.52083E-02 1.44531E-02 0.00000E+00
 -1       596 5.62500E-02 1.48437E-02 0.00000E+00
 -1       597 5.72917E-02 1.52344E-02 0.00000E+00
 -1       598 5.83333E-02 1.56250E-02 0.00000E+00
 -1       599 5.93750E-02 1.60156E-02 0.00000E+00
 -1       600 6.04167E-02 1.64062E-02 0.00000E+00
 -1       601 6.14583E-02 1.67969E-02 0.00000E+00
 -1       602 6.25000E-02 1.71875E-02 0.00000E+00
 -1       603 6.35417E-02 1.75781E-02 0.00000E+00
 -1       604 6.45833E-02 1.79687E-02 0.00000E+00
 -1       605 6.56250E-02 1.83594E-02 0.00000E+00
 -1       606 6.77083E-02 1.25000E-02 0.00000E+00
 -1       607 6.87500E-02 1.25000E-02 0.00000E+00
 -1       608 6.97917E-02 1.25000E-02 0.00000E+00
 -1       609 7.08333E-02 1.25000E-02 0.00000E+00
 -1       610 7.18750E-02 1.25000E-02 0.00000E+00
 -1       611 7.29167E-02 1.25000E-02 0.00000E+00
 -1       612 7.39583E-02 1.25000E-02 0.00000E+00
 -1       613 7.50000E-02 1.25000E-02 0.00000E+00
 -1       614 7.60417E-02 1.25000E-02 0.00000E+00
 -1       615 7.70833E-02 1.25000E-02 0.00000E+00
 -1       616 7.81250E-02 1.25000E-02 0.00000E+00
 -1       617 7.91667E-02 1.25000E-02 0.00000E+00
 -1       618 8.02083E-02 1.25000E-02 0.00000E+00
 -1       619 8.12500E-02 1.25000E-02 0.00000E+00
 -1       620 8.22917E-02 1.25000E-02 0.00000E+00
 -1       621 6.66667E-02 1.35417E-02 0.00000E+00
 -1       622 6.66667E-02 1.45833E-02 0.00000E+00
 -1       623 6.66667E-02 1.56250E-02 0.00000E+00
 -1       624 6.66667E-02 1.66667E-02 0.00000E+00
 -1       625 6.66667E-02 1.77083E-02 0.00000E+00
 -1       626 6.77083E-02 1.28906E-02 0.00000E+00
 -1       627 6.87500E-02 1.32813E-02 0.00000E+00
 -1       628 6.97917E-02 1.36719E-02 0.00000E+00
 -1       629 7.08333E-02 1.40625E-02 0.00000E+00
 -1       630 7.18750E-02 1.44531E-02 0.00000E+00
 -1       631 7.29167E-02 1.48437E-02 0.00000E+00
 -1       632 7.39583E-02 1.52344E-02 0.00000E+00
 -1       633 7.50000E-02 1.56250E-02 0.00000E+00
 -1       634 7.60417E-02 1.60156E-02 0.00000E+00
 -1       635 7.70833E-02 1.64062E-02 0.00000E+00
 -1       636 7.81250E-02 1.67969E-02 0.00000E+00
 -1       637 7.91667E-02 1.71875E-02 0.00000E+00
 -1       638 8.02083E-02 1.75781E-02 0.00000E+00
 -1       639 8.12500E-02 1.79687E-02 0.00000E+00
 -1       640 8.22917E-02 1.83594E-02 0.00000E+00
 -1       656 8.33333E-02 1.35417E-02 0.00000E+00
 -1       657 8.33333E-02 1.45833E-02 0.00000E+00
 -1       658 8.33333E-02 1.56250E-02 0.00000E+00
 -1       659 8.33333E-02 1.66667E-02 0.00000E+00
 -1       660 8.33333E-02 1.77083E-02 0.00000E+00
 -1       661 8.43750E-02 1.28906E-02 0.00000E+00
 -1       662 8.54167E-02 1.32813E-02 0.00000E+00
 -1       663 8.64583E-02 1.36719E-02 0.00000E+00
 -1       664 8.75000E-02 1.40625E-02 0.00000E+00
 -1       665 8.85417E-02 1.44531E-02 0.00000E+00
 -1       666 8.95833E-02 1.48437E-02 0.00000E+00
 -1       667 9.06250E-02 1.52344E-02 0.00000E+00
 -1       668 9.16667E-02 1.56250E-02 0.00000E+00
 -1       669 9.27083E-02 1.60156E-02 0.00000E+00
 -1       670 9.37500E-02 1.64062E-02 0.00000E+00
 -1       671 9.47917E-02 1.67969E-02 0.00000E+00
 -1       672 9.58333E-02 1.71875E-02 0.00000E+00
 -1       673 9.68750E-02 1.75781E-02 0.00000E+00
 -1       674 9.79167E-02 1.79687E-02 0.00000E+00
 -1       675 9.89583E-02 1.83594E-02 0.00000E+00
 -1       676 1.00000E-01 1.35417E-02 0.00000E+00
 -1       677 1.00000E-01 1.45833E-02 0.00000E+00
 -1       678 1.00000E-01 1.56250E-02 0.00000E+00
 -1       679 1.00000E-01 1.66667E-02 0.00000E+00
 -1       680 1.00000E-01 1.77083E-02 0.00000E+00
 -1       771 3.43750E-02 1.91406E-02 0.00000E+00
 -1       772 3.54167E-02 1.95312E-02 0.00000E+00
 -1       773 3.64583E-02 1.99219E-02 0.00000E+00
 -1       774 3.75000E-02 2.03125E-02 0.00000E+00
 -1       775 3.85417E-02 2.07031E-02 0.00000E+00
 -1       776 3.95833E-02 2.10938E-02 0.00000E+00
 -1       777 4.06250E-02 2.14844E-02 0.00000E+00
 -1       778 4.16667E-02 2.18750E-02 0.00000E+00
 -1       779 4.27083E-02 2.22656E-02 0.00000E+00
 -1       780 4.37500E-02 2.26563E-02 0.00000E+00
 -1       781 4.47917E-02 2.30469E-02 0.00000E+00
 -1       782 4.58333E-02 2.34375E-02 0.00000E+00
 -1       783 4.68750E-02 2.38281E-02 0.00000E+00
 -1       784 4.79167E-02 2.42187E-02 0.00000E+00
 -1       785 4.89583E-02 2.46094E-02 0.00000E+00
 -1       786 5.10417E-02 1.87500E-02 0.00000E+00
 -1       787 5.20833E-02 1.87500E-02 0.00000E+00
 -1       788 5.31250E-02 1.87500E-02 0.00000E+00
 -1       789 5.41667E-02 1.87500E-02 0.00000E+00
 -1       790 5.52083E-02 1.87500E-02 0.00000E+00
 -1       791 5.62500E-02 1.87500E-02 0.00000E+00
 -1       792 5.72917E-02 1.87500E-02 0.00000E+00
 -1       793 5.83333E-02 1.87500E-02 0.00000E+00
 -1       794 5.93750E-02 1.87500E-02 0.00000E+00
 -1       795 6.04167E-02 1.87500E-02 0.00000E+00
 -1       796 6.14583E-02 1.87500E-02 0.00000E+00
 -1       797 6.25000E-02 1.87500E-02 0.00000E+00
 -1       798 6.35417E-02 1.87500E-02 0.00000E+00
 -1       799 6.45833E-02 1.87500E-02 0.00000E+00
 -1       800 6.56250E-02 1.87500E-02 0.00000E+00
 -1       801 5.00000E-02 1.97917E-02 0.00000E+00
 -1       802 5.00000E-02 2.08333E-02 0.00000E+00
 -1       803 5.00000E-02 2.18750E-02 0.00000E+00
 -1       804 5.00000E-02 2.29167E-02 0.00000E+00
 -1       805 5.00000E-02 2.39583E-02 0.00000E+00
 -1       806 5.10417E-02 1.91406E-02 0.00000E+00
 -1       807 5.20833E-02 1.95312E-02 0.00000E+00
 -1       808 5.31250E-02 1.99219E-02 0.00000E+00
 -1       809 5.41667E-02 2.03125E-02 0.00000E+00
 -1       810 5.52083E-02 2.07031E-02 0.00000E+00
 -1       811 5.62500E-02 2.10938E-02 0.00000E+00
 -1       812 5.72917E-02 2.14844E-02 0.00000E+00
 -1       813 5.83333E-02 2.18750E-02 0.00000E+00
 -1       814 5.93750E-02 2.22656E-02 0.00000E+00
 -1       815 6.04167E-02 2.26563E-02 0.00000E+00
 -1       816 6.14583E-02 2.30469E-02 0.00000E+00
 -1       817 6.25000E-02 2.34375E-02 0.00000E+00
 -1       818 6.35417E-02 2.38281E-02 0.00000E+00
 -1       819 6.45833E-02 2.42187E-02 0.00000E+00
 -1       820 6.56250E-02 2.46094E-02 0.00000E+00
 -1       821 6.77083E-02 1.87500E-02 0.00000E+00
 -1       822 6.87500E-02 1.87500E-02 0.00000E+00
 -1       823 6.97917E-02 1.87500E-02 0.00000E+00
 -1       824 7.08333E-02 1.87500E-02 0.00000E+00
 -1       825 7.18750E-02 1.87500E-02 0.00000E+00
 -1       826 7.29167E-02 1.87500E-02 0.00000E+00
 -1       827 7.39583E-02 1.87500E-02 0.00000E+00
 -1       828 7.50000E-02 1.87500E-02 0.00000E+00
 -1       829 7.60417E-02 1.87500E-02 0.00000E+00
 -1       830 7.70833E-02 1.87500E-02 0.00000E+00
 -1       831 7.81250E-02 1.87500E-02 0.00000E+00
 -1       832 7.91667E-02 1.87500E-02 0.00000E+00
 -1       833 8.02083E-02 1.87500E-02 0.00000E+00
 -1       834 8.12500E-02 1.87500E-02 0.00000E+00
 -1       835 8.22917E-02 1.87500E-02 0.00000E+00
 -1       836 6.66667E-02 1.97917E-02 0.00000E+00
 -1       837 6.66667E-02 2.08333E-02 0.00000E+00
 -1       838 6.66667E-02 2.18750E-02 0.00000E+00
 -1       839 6.66667E-02 2.29167E-02 0.00000E+00
 -1       840 6.66667E-02 2.39583E-02 0.00000E+00
 -1       856 8.43750E-02 1.87500E-02 0.00000E+00
 -1       857 8.54167E-02 1.87500E-02 0.00000E+00
 -1       858 8.64583E-02 1.87500E-02 0.00000E+00
 -1       859 8.75000E-02 1.87500E-02 0.00000E+00
 -1       860 8.85417E-02 1.87500E-02 0.00000E+00
 -1       861 8.95833E-02 1.87500E-02 0.00000E+00
 -1       862 9.06250E-02 1.87500E-02 0.00000E+00
 -1       863 9.16667E-02 1.87500E-02 0.00000E+00
 -1       864 9.27083E-02 1.87500E-02 0.00000E+00
 -1       865 9.37500E-02 1.87500E-02 0.00000E+00
 -1       866 9.47917E-02 1.87500E-02 0.00000E+00
 -1       867 9.58333E-02 1.87500E-02 0.00000E+00
 -1       868 9.68750E-02 1.87500E-02 0.00000E+00
 -1       869 9.79167E-02 1.87500E-02 0.00000E+00
 -1       870 9.89583E-02 1.87500E-02 0.00000E+00
 -1       871 8.33333E-02 1.97917E-02 0.00000E+00
 -1       872 8.33333E-02 2.08333E-02 0.00000E+00
 -1       873 8.33333E-02 2.18750E-02 0.00000E+00
 -1       874 8.33333E-02 2.29167E-02 0.00000E+00
 -1       875 8.33333E-02 2.39583E-02 0.00000E+00
 -1       876 8.43750E-02 1.91406E-02 0.00000E+00
 -1       877 8.54167E-02 1.95312E-02 0.00000E+00
 -1       878 8.64583E-02 1.99219E-02 0.00000E+00
 -1       879 8.75000E-02 2.03125E-02 0.00000E+00
 -1       880 8.85417E-02 2.07031E-02 0.00000E+00
 -1       881 8.95833E-02 2.10938E-02 0.00000E+00
 -1       882 9.06250E-02 2.14844E-02 0.00000E+00
 -1       883 9.16667E-02 2.18750E-02 0.00000E+00
 -1       884 9.27083E-02 2.22656E-02 0.00000E+00
 -1       885 9.37500E-02 2.26563E-02 0.00000E+00
 -1       886 9.47917E-02 2.30469E-02 0.00000E+00
 -1       887 9.58333E-02 2.34375E-02 0.00000E+00
 -1       888 9.68750E-02 2.38281E-02 0.00000E+00
 -1       889 9.79167E-02 2.42187E-02 0.00000E+00
 -1       890 9.89583E-02 2.46094E-02 0.00000E+00
 -1       891 1.00000E-01 1.97917E-02 0.00000E+00
 -1       892 1.00000E-01 2.08333E-02 0.00000E+00
 -1       893 1.00000E-01 2.18750E-02 0.00000E+00
 -1       894 1.00000E-01 2.29167E-02 0.00000E+00
 -1       895 1.00000E-01 2.39583E-02 0.00000E+00
 -1       956 6.77083E-02 2.50000E-02 0.00000E+00
 -1       957 6.87500E-02 2.50000E-02 0.00000E+00
 -1       958 6.97917E-02 2.50000E-02 0.00000E+00
 -1       959 7.08333E-02 2.50000E-02 0.00000E+00
 -1       960 7.18750E-02 2.50000E-02 0.00000E+00
 -1       961 7.29167E-02 2.50000E-02 0.00000E+00
 -1       962 7.39583E-02 2.50000E-02 0.00000E+00
 -1       963 7.50000E-02 2.50000E-02 0.00000E+00
 -1       964 7.60417E-02 2.50000E-02 0.00000E+00
 -1       965 7.70833E-02 2.50000E-02 0.00000E+00
 -1       966 7.81250E-02 2.50000E-02 0.00000E+00
 -1       967 7.91667E-02 2.50000E-02 0.00000E+00
 -1       968 8.02083E-02 2.50000E-02 0.00000E+00
 -1       969 8.12500E-02 2.50000E-02 0.00000E+00
 -1       970 8.22917E-02 2.50000E-02 0.00000E+00
 -1       971 8.43750E-02 2.50000E-02 0.00000E+00
 -1       972 8.54167E-02 2.50000E-02 0.00000E+00
 -1       973 8.64583E-02 2.50000E-02 0.00000E+00
 -1       974 8.75000E-02 2.50000E-02 0.00000E+00
 -1       975 8.85417E-02 2.50000E-02 0.00000E+00
 -1       976 8.95833E-02 2.50000E-02 0.00000E+00
 -1       977 9.06250E-02 2.50000E-02 0.00000E+00
 -1       978 9.16667E-02 2.50000E-02 0.00000E+00
 -1       979 9.27083E-02 2.50000E-02 0.00000E+00
 -1       980 9.37500E-02 2.50000E-02 0.00000E+00
 -1       981 9.47917E-02 2.50000E-02 0.00000E+00
 -1       982 9.58333E-02 2.50000E-02 0.00000E+00
 -1       983 9.68750E-02 2.50000E-02 0.00000E+00
 -1       984 9.79167E-02 2.50000E-02 0.00000E+00
 -1       985 9.89583E-02 2.50000E-02 0.00000E+00
 -3
    3C                           211                                     1
 -1         1   12    0    1
 -2         1        52        51
 -1         2   12    0    1
 -2        52        54        53
 -1         3   12    0    1
 -2        54         8        55
 -1         4   12    0    1
 -2         1        57        56
 -1         5   12    0    1
 -2        57        59        58
 -1         6   12    0    1
 -2        59        61        60
 -1         7   12    0    1
 -2        61        63        62
 -1         8   12    0    1
 -2        63        65        64
 -1         9   12    0    1
 -2        65        67        66
 -1        10   12    0    1
 -2        67        69        68
 -1        11   12    0    1
 -2        69         9        70
 -1        12   12    0    1
 -2         2        87        86
 -1        13   12    0    1
 -2        87        89        88
 -1        14   12    0    1
 -2        89         9        90
 -1        15   12    0    1
 -2         3       122       121
 -1        16   12    0    1
 -2       122       124       123
 -1        17   12    0    1
 -2       124        10       125
 -1        18   12    0    1
 -2         5       192       191
 -1        19   12    0    1
 -2       192       194       193
 -1        20   12    0    1
 -2       194        12       195
 -1        21   12    0    1
 -2         8       252       251
 -1        22   12    0    1
 -2       252       254       253
 -1        23   12    0    1
 -2       254       256       255
 -1        24   12    0    1
 -2       256       258       257
 -1        25   12    0    1
 -2       258       260       259
 -1        26   12    0    1
 -2       260       262       261
 -1        27   12    0    1
 -2       262       264       263
 -1        28   12    0    1
 -2       264         9       265
 -1        29   12    0    1
 -2         8       267       266
 -1        30   12    0    1
 -2       267       269       268
 -1        31   12    0    1
 -2       269        15       270
 -1        32   12    0    1
 -2         8       272       271
 -1        33   12    0    1
 -2       272       274       273
 -1        34   12    0    1
 -2       274       276       275
 -1        35   12    0    1
 -2       276       278       277
 -1        36   12    0    1
 -2       278       280       279
 -1        37   12    0    1
 -2       280       282       281
 -1        38   12    0    1
 -2       282       284       283
 -1        39   12    0    1
 -2       284        16       285
 -1        40   12    0    1
 -2         9       302       301
 -1        41   12    0    1
 -2       302       304       303
 -1        42   12    0    1
 -2       304        16       305
 -1        43   12    0    1
 -2         9       307       306
 -1        44   12    0    1
 -2       307       309       308
 -1        45   12    0    1
 -2       309       311       310
 -1        46   12    0    1
 -2       311       313       312
 -1        47   12    0    1
 -2       313       315       314
 -1        48   12    0    1
 -2       315       317       316
 -1        49   12    0    1
 -2       317       319       318
 -1        50   12    0    1
 -2       319        17       320
 -1        51   12    0    1
 -2        10       337       336
 -1        52   12    0    1
 -2       337       339       338
 -1        53   12    0    1
 -2       339        17       340
 -1        54   12    0    1
 -2        12       407       406
 -1        55   12    0    1
 -2       407       409       408
 -1        56   12    0    1
 -2       409        19       410
 -1        57   12    0    1
 -2        16       522       521
 -1        58   12    0    1
 -2       522       524       523
 -1        59   12    0    1
 -2       524       526       525
 -1        60   12    0    1
 -2       526       528       527
 -1        61   12    0    1
 -2       528       530       529
 -1        62   12    0    1
 -2       530       532       531
 -1        63   12    0    1
 -2       532       534       533
 -1        64   12    0    1
 -2       534        24       535
 -1        65   12    0    1
 -2        17       537       536
 -1        66   12    0    1
 -2       537       539       538
 -1        67   12    0    1
 -2       539       541       540
 -1        68   12    0    1
 -2       541       543       542
 -1        69   12    0    1
 -2       543       545       544
 -1        70   12    0    1
 -2       545       547       546
 -1        71   12    0    1
 -2       547       549       548
 -1        72   12    0    1
 -2       549        18       550
 -1        73   12    0    1
 -2        17       552       551
 -1        74   12    0    1
 -2       552       554       553
 -1        75   12    0    1
 -2       554        24       555
 -1        76   12    0    1
 -2        17       557       556
 -1        77   12    0    1
 -2       557       559       558
 -1        78   12    0    1
 -2       559       561       560
 -1        79   12    0    1
 -2       561       563       562
 -1        80   12    0    1
 -2       563       565       564
 -1        81   12    0    1
 -2       565       567       566
 -1        82   12    0    1
 -2       567       569       568
 -1        83   12    0    1
 -2       569        25       570
 -1        84   12    0    1
 -2        18       572       571
 -1        85   12    0    1
 -2       572       574       573
 -1        86   12    0    1
 -2       574       576       575
 -1        87   12    0    1
 -2       576       578       577
 -1        88   12    0    1
 -2       578       580       579
 -1        89   12    0    1
 -2       580       582       581
 -1        90   12    0    1
 -2       582       584       583
 -1        91   12    0    1
 -2       584        19       585
 -1        92   12    0    1
 -2        18       587       586
 -1        93   12    0    1
 -2       587       589       588
 -1        94   12    0    1
 -2       589        25       590
 -1        95   12    0    1
 -2        18       592       591
 -1        96   12    0    1
 -2       592       594       593
 -1        97   12    0    1
 -2       594       596       595
 -1        98   12    0    1
 -2       596       598       597
 -1        99   12    0    1
 -2       598       600       599
 -1       100   12    0    1
 -2       600       602       601
 -1       101   12    0    1
 -2       602       604       603
 -1       102   12    0    1
 -2       604        26       605
 -1       103   12    0    1
 -2        19       607       606
 -1       104   12    0    1
 -2       607       609       608
 -1       105   12    0    1
 -2       609       611       610
 -1       106   12    0    1
 -2       611       613       612
 -1       107   12    0    1
 -2       613       615       614
 -1       108   12    0    1
 -2       615       617       616
 -1       109   12    0    1
 -2       617       619       618
 -1       110   12    0    1
 -2       619        20       620
 -1       111   12    0    1
 -2        19       622       621
 -1       112   12    0    1
 -2       622       624       623
 -1       113   12    0    1
 -2       624        26       625
 -1       114   12    0    1
 -2        19       627       626
 -1       115   12    0    1
 -2       627       629       628
 -1       116   12    0    1
 -2       629       631       630
 -1       117   12    0    1
 -2       631       633       632
 -1       118   12    0    1
 -2       633       635       634
 -1       119   12    0    1
 -2       635       637       636
 -1       120   12    0    1
 -2       637       639       638
 -1       121   12    0    1
 -2       639        27       640
 -1       122   12    0    1
 -2        20       657       656
 -1       123   12    0    1
 -2       657       659       658
 -1       124   12    0    1
 -2       659        27       660
 -1       125   12    0    1
 -2        20       662       661
 -1       126   12    0    1
 -2       662       664       663
 -1       127   12    0    1
 -2       664       666       665
 -1       128   12    0    1
 -2       666       668       667
 -1       129   12    0    1
 -2       668       670       669
 -1       130   12    0    1
 -2       670       672       671
 -1       131   12    0    1
 -2       672       674       673
 -1       132   12    0    1
 -2       674        28       675
 -1       133   12    0    1
 -2        21       677       676
 -1       134   12    0    1
 -2       677       679       678
 -1       135   12    0    1
 -2       679        28       680
 -1       136   12    0    1
 -2        24       772       771
 -1       137   12    0    1
 -2       772       774       773
 -1       138   12    0    1
 -2       774       776       775
 -1       139   12    0    1
 -2       776       778       777
 -1       140   12    0    1
 -2       778       780       779
 -1       141   12    0    1
 -2       780       782       781
 -1       142   12    0    1
 -2       782       784       783
 -1       143   12    0    1
 -2       784        32       785
 -1       144   12    0    1
 -2        25       787       786
 -1       145   12    0    1
 -2       787       789       788
 -1       146   12    0    1
 -2       789       791       790
 -1       147   12    0    1
 -2       791       793       792
 -1       148   12    0    1
 -2       793       795       794
 -1       149   12    0    1
 -2       795       797       796
 -1       150   12    0    1
 -2       797       799       798
 -1       151   12    0    1
 -2       799        26       800
 -1       152   12    0    1
 -2        25       802       801
 -1       153   12    0    1
 -2       802       804       803
 -1       154   12    0    1
 -2       804        32       805
 -1       155   12    0    1
 -2        25       807       806
 -1       156   12    0    1
 -2       807       809       808
 -1       157   12    0    1
 -2       809       811       810
 -1       158   12    0    1
 -2       811       813       812
 -1       159   12    0    1
 -2       813       815       814
 -1       160   12    0    1
 -2       815       817       816
 -1       161   12    0    1
 -2       817       819       818
 -1       162   12    0    1
 -2       819        33       820
 -1       163   12    0    1
 -2        26       822       821
 -1       164   12    0    1
 -2       822       824       823
 -1       165   12    0    1
 -2       824       826       825
 -1       166   12    0    1
 -2       826       828       827
 -1       167   12    0    1
 -2       828       830       829
 -1       168   12    0    1
 -2       830       832       831
 -1       169   12    0    1
 -2       832       834       833
 -1       170   12    0    1
 -2       834        27       835
 -1       171   12    0    1
 -2        26       837       836
 -1       172   12    0    1
 -2       837       839       838
 -1       173   12    0    1
 -2       839        33       840
 -1       174   12    0    1
 -2        27       857       856
 -1       175   12    0    1
 -2       857       859       858
 -1       176   12    0    1
 -2       859       861       860
 -1       177   12    0    1
 -2       861       863       862
 -1       178   12    0    1
 -2       863       865       864
 -1       179   12    0    1
 -2       865       867       866
 -1       180   12    0    1
 -2       867       869       868
 -1       181   12    0    1
 -2       869        28       870
 -1       182   12    0    1
 -2        27       872       871
 -1       183   12    0    1
 -2       872       874       873
 -1       184   12    0    1
 -2       874        34       875
 -1       185   12    0    1
 -2        27       877       876
 -1       186   12    0    1
 -2       877       879       878
 -1       187   12    0    1
 -2       879       881       880
 -1       188   12    0    1
 -2       881       883       882
 -1       189   12    0    1
 -2       883       885       884
 -1       190   12    0    1
 -2       885       887       886
 -1       191   12    0    1
 -2       887       889       888
 -1       192   12    0    1
 -2       889        35       890
 -1       193   12    0    1
 -2        28       892       891
 -1       194   12    0    1
 -2       892       894       893
 -1       195   12    0    1
 -2       894        35       895
 -1       196   12    0    1
 -2        33       957       956
 -1       197   12    0    1
 -2       957       959       958
 -1       198   12    0    1
 -2       959       961       960
 -1       199   12    0    1
 -2       961       963       962
 -1       200   12    0    1
 -2       963       965       964
 -1       201   12    0    1
 -2       965       967       966
 -1       202   12    0    1
 -2       967       969       968
 -1       203   12    0    1
 -2       969        34       970
 -1       204   12    0    1
 -2        34       972       971
 -1       205   12    0    1
 -2       972       974       973
 -1       206   12    0    1
 -2       974       976       975
 -1       207   12    0    1
 -2       976       978       977
 -1       208   12    0    1
 -2       978       980       979
 -1       209   12    0    1
 -2       980       982       981
 -1       210   12    0    1
 -2       982       984       983
 -1       211   12    0    1
 -2       984        35       985
 -3
    1PSTEP                         1           1           1          
  100CL  101 2.50000E-01         409                     0    1           1
 -4  DISP        4    1
 -5  D1          1    2    1    0
 -5  D2          1    2    2    0
 -5  D3          1    2    3    0
 -5  ALL         1    2    0    0    1ALL
 -1         1 6.52376E-05 0.00000E+00 0.00000E+00
 -1         2 5.98817E-05 1.03370E-30 0.00000E+00
 -1         3 5.54818E-05-2.67817E-27-3.30872E-24
 -1         5 4.00428E-05 5.03810E-26 0.00000E+00
 -1         8 5.20660E-05-4.68818E-07 0.00000E+00
 -1         9 5.28653E-05 4.15040E-07 0.00000E+00
 -1        10 5.14407E-05-7.59863E-07 0.00000E+00
 -1        12 3.97562E-05 2.72224E-07 1.65436E-24
 -1        15 3.63966E-05-5.01458E-07 0.00000E+00
 -1        16 3.76249E-05 3.54254E-07 0.00000E+00
 -1        17 3.83813E-05-1.59200E-06 0.00000E+00
 -1        18 3.83699E-05 7.42733E-08 0.00000E+00
 -1        19 3.88967E-05 5.42974E-07 0.00000E+00
 -1        20 3.89686E-05 8.10216E-06 0.00000E+00
 -1        21 3.86978E-05 1.53254E-05 0.00000E+00
 -1        24 9.81953E-06-2.11696E-06 0.00000E+00
 -1        25 3.74542E-05 1.36529E-07 0.00000E+00
 -1        26 3.79495E-05 7.56581E-07 0.00000E+00
 -1        27 3.71971E-05 6.89138E-06 0.00000E+00
 -1        28 3.69537E-05 1.50926E-05 0.00000E+00
 -1        32 0.00000E+00 0.00000E+00 0.00000E+00
 -1        33 3.63525E-05 1.01477E-06 0.00000E+00
 -1        34 3.56246E-05 6.88070E-06 0.00000E+00
 -1        35 3.49330E-05 1.49699E-05 0.00000E+00
 -1        51 6.43805E-05-7.81339E-08 0.00000E+00
 -1        52 6.27924E-05-1.53915E-07 0.00000E+00
 -1        53 6.06170E-05-2.29942E-07 0.00000E+00
 -1        54 5.80042E-05-3.06927E-07 0.00000E+00
 -1        55 5.51037E-05-3.85396E-07-1.34417E-24
 -1        56 6.46353E-05-3.63363E-07 1.32349E-23
 -1        57 6.40921E-05-9.51982E-07-6.61744E-24
 -1        58 6.36099E-05-1.69967E-06 0.00000E+00
 -1        59 6.31611E-05-2.54828E-06 1.32349E-23
 -1        60 6.27258E-05-3.43317E-06-2.64698E-23
 -1        61 6.22795E-05-4.29073E-06 0.00000E+00
 -1        62 6.17993E-05-5.05790E-06-2.64698E-23
 -1        63 6.12621E-05-5.67328E-06-1.32349E-23
 -1        64 6.06468E-05-6.08027E-06-2.64698E-23
 -1        65 5.99334E-05-6.22556E-06 0.00000E+00
 -1        66 5.91051E-05-6.06425E-06 0.00000E+00
 -1        67 5.81472E-05-5.55612E-06 0.00000E+00
 -1        68 5.70482E-05-4.67240E-06 1.32349E-23
 -1        69 5.58026E-05-3.38886E-06-6.61744E-24
 -1        70 5.44018E-05-1.69694E-06 1.32349E-23
 -1        86 5.97050E-05 7.29001E-08-1.65436E-24
 -1        87 5.91745E-05 1.45361E-07 0.00000E+00
 -1        88 5.82641E-05 2.17516E-07 1.65436E-24
 -1        89 5.69468E-05 2.87240E-07 1.03398E-25
 -1        90 5.51665E-05 3.56948E-07 0.00000E+00
 -1       121 5.53692E-05-1.26309E-07 0.00000E+00
 -1       122 5.50317E-05-2.52670E-07 0.00000E+00
 -1       123 5.44695E-05-3.79133E-07-3.30872E-24
 -1       124 5.36832E-05-5.05770E-07 0.00000E+00
 -1       125 5.26732E-05-6.32595E-07 0.00000E+00
 -1       191 4.00348E-05 4.53736E-08 1.65436E-24
 -1       192 4.00109E-05 9.07465E-08-8.27181E-25
 -1       193 3.99711E-05 1.36119E-07 1.65436E-24
 -1       194 3.99154E-05 1.81490E-07 0.00000E+00
 -1       195 3.98437E-05 2.26859E-07 1.65436E-24
 -1       251 5.21052E-05 1.70105E-06-1.65436E-24
 -1       252 5.21553E-05 3.00124E-06 0.00000E+00
 -1       253 5.22055E-05 3.57377E-06 0.00000E+00
 -1       254 5.22576E-05 3.55897E-06-4.13590E-25
 -1       255 5.23096E-05 3.08108E-06-1.65436E-24
 -1       256 5.23619E-05 2.26329E-06-8.27181E-25
 -1       257 5.24139E-05 1.21941E-06 0.00000E+00
 -1       258 5.24659E-05 6.27565E-08-8.27181E-25
 -1       259 5.25179E-05-1.09651E-06 0.00000E+00
 -1       260 5.25699E-05-2.14819E-06 0.00000E+00
 -1       261 5.26221E-05-2.97913E-06 0.00000E+00
 -1       262 5.26742E-05-3.47570E-06 0.00000E+00
 -1       263 5.27263E-05-3.51502E-06 0.00000E+00
 -1       264 5.27764E-05-2.97318E-06-1.03398E-25
 -1       265 5.28264E-05-1.71032E-06 1.65436E-24
 -1       266 4.94544E-05-4.80750E-07-3.30872E-24
 -1       267 4.68429E-05-4.85399E-07 8.27181E-25
 -1       268 4.42313E-05-4.90508E-07 0.00000E+00
 -1       269 4.16197E-05-4.94252E-07 2.06795E-25
 -1       270 3.90082E-05-4.97964E-07-2.06795E-25
 -1       271 5.04811E-05 1.47271E-06 0.00000E+00
 -1       272 4.91374E-05 2.69828E-06 0.00000E+00
 -1       273 4.80287E-05 3.30249E-06 0.00000E+00
 -1       274 4.71153E-05 3.37485E-06 0.00000E+00
 -1       275 4.63643E-05 3.01343E-06-2.64698E-23
 -1       276 4.57372E-05 2.31913E-06-1.32349E-23
 -1       277 4.51955E-05 1.39662E-06-2.64698E-23
 -1       278 4.46991E-05 3.52651E-07-1.32349E-23
 -1       279 4.42078E-05-7.04741E-07 0.00000E+00
 -1       280 4.36810E-05-1.66737E-06 0.00000E+00
 -1       281 4.30787E-05-2.42812E-06 0.00000E+00
 -1       282 4.23619E-05-2.88174E-06 0.00000E+00
 -1       283 4.14919E-05-2.92637E-06 0.00000E+00
 -1       284 4.04342E-05-2.46318E-06 0.00000E+00
 -1       285 3.91503E-05-1.40065E-06 0.00000E+00
 -1       301 5.02846E-05 4.01695E-07 0.00000E+00
 -1       302 4.77044E-05 3.96258E-07 8.27181E-25
 -1       303 4.51365E-05 3.91057E-07-1.65436E-24
 -1       304 4.25927E-05 3.84999E-07-1.65436E-24
 -1       305 4.00850E-05 3.77718E-07 0.00000E+00
 -1       306 5.12349E-05 2.29531E-06 1.32349E-23
 -1       307 4.98623E-05 3.41060E-06-1.32349E-23
 -1       308 4.87622E-05 3.80663E-06 2.64698E-23
 -1       309 4.79077E-05 3.53424E-06 0.00000E+00
 -1       310 4.72631E-05 2.70138E-06 2.64698E-23
 -1       311 4.67823E-05 1.42810E-06 0.00000E+00
 -1       312 4.64078E-05-1.29831E-07 2.64698E-23
 -1       313 4.60788E-05-1.80987E-06 0.00000E+00
 -1       314 4.57309E-05-3.43939E-06 0.00000E+00
 -1       315 4.53003E-05-4.84706E-06 0.00000E+00
 -1       316 4.47296E-05-5.87973E-06 0.00000E+00
 -1       317 4.39655E-05-6.39323E-06 0.00000E+00
 -1       318 4.29685E-05-6.28534E-06-2.64698E-23
 -1       319 4.17106E-05-5.46715E-06-1.32349E-23
 -1       320 4.01724E-05-3.91075E-06 1.32349E-23
 -1       336 4.99571E-05-8.97438E-07 3.30872E-24
 -1       337 4.81936E-05-1.03564E-06 1.65436E-24
 -1       338 4.61519E-05-1.17431E-06 0.00000E+00
 -1       339 4.38342E-05-1.31336E-06 1.65436E-24
 -1       340 4.12430E-05-1.45309E-06 3.30872E-24
 -1       406 3.96527E-05 3.17581E-07 1.65436E-24
 -1       407 3.95332E-05 3.62923E-07 0.00000E+00
 -1       408 3.93979E-05 4.08235E-07 0.00000E+00
 -1       409 3.92466E-05 4.53461E-07 0.00000E+00
 -1       410 3.90795E-05 4.98513E-07 0.00000E+00
 -1       521 3.53585E-05 1.75312E-06 0.00000E+00
 -1       522 3.33801E-05 2.23657E-06 2.64698E-23
 -1       523 3.17251E-05 1.86838E-06 5.29396E-23
 -1       524 3.03506E-05 7.25465E-07 0.00000E+00
 -1       525 2.92008E-05-1.01884E-06 0.00000E+00
 -1       526 2.82007E-05-3.16863E-06 0.00000E+00
 -1       527 2.72607E-05-5.48006E-06-5.29396E-23
 -1       528 2.62874E-05-7.70293E-06 0.00000E+00
 -1       529 2.51914E-05-9.59704E-06 5.29396E-23
 -1       530 2.38882E-05-1.09365E-05 0.00000E+00
 -1       531 2.23170E-05-1.15599E-05 5.29396E-23
 -1       532 2.04295E-05-1.13362E-05 0.00000E+00
 -1       533 1.82114E-05-1.02335E-05 0.00000E+00
 -1       534 1.56724E-05-8.25410E-06 2.64698E-23
 -1       535 1.28402E-05-5.50866E-06 0.00000E+00
 -1       536 3.83732E-05 1.07229E-06 1.65436E-24
 -1       537 3.83707E-05 3.07584E-06-4.13590E-25
 -1       538 3.83690E-05 4.48726E-06 0.00000E+00
 -1       539 3.83685E-05 5.37518E-06 0.00000E+00
 -1       540 3.83684E-05 5.80808E-06 1.03398E-25
 -1       541 3.83686E-05 5.85445E-06 0.00000E+00
 -1       542 3.83687E-05 5.58261E-06 1.29247E-26
 -1       543 3.83688E-05 5.06090E-06 0.00000E+00
 -1       544 3.83687E-05 4.35752E-06-3.23117E-27
 -1       545 3.83686E-05 3.54068E-06 0.00000E+00
 -1       546 3.83685E-05 2.67854E-06 0.00000E+00
 -1       547 3.83684E-05 1.83926E-06 0.00000E+00
 -1       548 3.83684E-05 1.09098E-06 5.16988E-26
 -1       549 3.83686E-05 5.01887E-07 0.00000E+00
 -1       550 3.83689E-05 1.40238E-07 0.00000E+00
 -1       551 3.45913E-05-1.67293E-06 3.30872E-24
 -1       552 3.00574E-05-1.75555E-06 8.27181E-25
 -1       553 2.50447E-05-1.84050E-06-1.65436E-24
 -1       554 1.98219E-05-1.92777E-06 0.00000E+00
 -1       555 1.46579E-05-2.01620E-06 0.00000E+00
 -1       556 3.73902E-05 9.81621E-07 0.00000E+00
 -1       557 3.66332E-05 2.94690E-06 0.00000E+00
 -1       558 3.60849E-05 4.36010E-06 0.00000E+00
 -1       559 3.57220E-05 5.28188E-06 0.00000E+00
 -1       560 3.55213E-05 5.77271E-06 0.00000E+00
 -1       561 3.54596E-05 5.89339E-06 0.00000E+00
 -1       562 3.55140E-05 5.70477E-06 0.00000E+00
 -1       563 3.56615E-05 5.26772E-06 0.00000E+00
 -1       564 3.58793E-05 4.64314E-06 0.00000E+00
 -1       565 3.61445E-05 3.89196E-06 0.00000E+00
 -1       566 3.64342E-05 3.07510E-06 4.13590E-25
 -1       567 3.67258E-05 2.25352E-06 2.06795E-25
 -1       568 3.69963E-05 1.48813E-06 0.00000E+00
 -1       569 3.72230E-05 8.39801E-07 0.00000E+00
 -1       570 3.73830E-05 3.69424E-07 0.00000E+00
 -1       571 3.84018E-05 1.24456E-07 8.27181E-25
 -1       572 3.84345E-05 1.52932E-07 3.10193E-25
 -1       573 3.84674E-05 1.63566E-07-4.13590E-25
 -1       574 3.85004E-05 1.60425E-07-2.06795E-25
 -1       575 3.85334E-05 1.47592E-07 8.27181E-25
 -1       576 3.85664E-05 1.29181E-07-4.13590E-25
 -1       577 3.85995E-05 1.09306E-07-8.27181E-25
 -1       578 3.86325E-05 9.20854E-08-8.27181E-25
 -1       579 3.86655E-05 8.16372E-08 0.00000E+00
 -1       580 3.86986E-05 8.20802E-08 0.00000E+00
 -1       581 3.87316E-05 9.75322E-08 0.00000E+00
 -1       582 3.87647E-05 1.32106E-07 0.00000E+00
 -1       583 3.87977E-05 1.89912E-07 0.00000E+00
 -1       584 3.88307E-05 2.75015E-07 0.00000E+00
 -1       585 3.88637E-05 3.91459E-07 0.00000E+00
 -1       586 3.82059E-05 8.53017E-08 0.00000E+00
 -1       587 3.80280E-05 9.60494E-08-1.03398E-25
 -1       588 3.78500E-05 1.06677E-07 0.00000E+00
 -1       589 3.76858E-05 1.17135E-07 0.00000E+00
 -1       590 3.75494E-05 1.27306E-07 0.00000E+00
 -1       591 3.83358E-05 1.41150E-07-5.16988E-26
 -1       592 3.83072E-05 1.90041E-07 2.06795E-25
 -1       593 3.82840E-05 2.24371E-07 0.00000E+00
 -1       594 3.82649E-05 2.47223E-07 0.00000E+00
 -1       595 3.82489E-05 2.61721E-07 0.00000E+00
 -1       596 3.82349E-05 2.70966E-07 1.03398E-25
 -1       597 3.82216E-05 2.78058E-07 0.00000E+00
 -1       598 3.82081E-05 2.86094E-07 0.00000E+00
 -1       599 3.81929E-05 2.98172E-07-2.06795E-25
 -1       600 3.81752E-05 3.17388E-07 1.03398E-25
 -1       601 3.81535E-05 3.46839E-07 0.00000E+00
 -1       602 3.81270E-05 3.89626E-07 0.00000E+00
 -1       603 3.80943E-05 4.48848E-07 5.16988E-26
 -1       604 3.80544E-05 5.27633E-07-5.16988E-26
 -1       605 3.80061E-05 6.29063E-07 0.00000E+00
 -1       606 3.89028E-05 7.69572E-07 0.00000E+00
 -1       607 3.89078E-05 1.04338E-06 0.00000E+00
 -1       608 3.89124E-05 1.36164E-06 0.00000E+00
 -1       609 3.89169E-05 1.72121E-06 0.00000E+00
 -1       610 3.89214E-05 2.11896E-06 1.65436E-24
 -1       611 3.89258E-05 2.55171E-06 0.00000E+00
 -1       612 3.89301E-05 3.01626E-06 0.00000E+00
 -1       613 3.89345E-05 3.50943E-06 0.00000E+00
 -1       614 3.89388E-05 4.02803E-06 0.00000E+00
 -1       615 3.89432E-05 4.56886E-06 0.00000E+00
 -1       616 3.89475E-05 5.12874E-06-8.27181E-25
 -1       617 3.89518E-05 5.70448E-06 0.00000E+00
 -1       618 3.89561E-05 6.29288E-06 0.00000E+00
 -1       619 3.89603E-05 6.89075E-06 0.00000E+00
 -1       620 3.89646E-05 7.49491E-06 0.00000E+00
 -1       621 3.87162E-05 5.78600E-07 0.00000E+00
 -1       622 3.85484E-05 6.14400E-07-4.13590E-25
 -1       623 3.83905E-05 6.50194E-07-8.27181E-25
 -1       624 3.82398E-05 6.85931E-07-4.13590E-25
 -1       625 3.80937E-05 7.21607E-07-8.27181E-25
 -1       626 3.88498E-05 7.80780E-07-1.65436E-24
 -1       627 3.87886E-05 1.05770E-06 0.00000E+00
 -1       628 3.87142E-05 1.37010E-06 0.00000E+00
 -1       629 3.86279E-05 1.71412E-06-8.27181E-25
 -1       630 3.85312E-05 2.08589E-06 0.00000E+00
 -1       631 3.84255E-05 2.48151E-06 0.00000E+00
 -1       632 3.83124E-05 2.89708E-06 0.00000E+00
 -1       633 3.81932E-05 3.32871E-06 0.00000E+00
 -1       634 3.80695E-05 3.77248E-06-1.65436E-24
 -1       635 3.79427E-05 4.22450E-06 0.00000E+00
 -1       636 3.78142E-05 4.68088E-06 0.00000E+00
 -1       637 3.76856E-05 5.13770E-06 4.13590E-25
 -1       638 3.75582E-05 5.59107E-06 8.27181E-25
 -1       639 3.74335E-05 6.03709E-06 4.13590E-25
 -1       640 3.73128E-05 6.47184E-06 0.00000E+00
 -1       656 3.84641E-05 7.90520E-06 3.30872E-24
 -1       657 3.81376E-05 7.70034E-06 0.00000E+00
 -1       658 3.79195E-05 7.49609E-06-3.30872E-24
 -1       659 3.77395E-05 7.29201E-06 0.00000E+00
 -1       660 3.75234E-05 7.08729E-06 3.30872E-24
 -1       661 3.87819E-05 8.69737E-06 0.00000E+00
 -1       662 3.86061E-05 9.26747E-06 0.00000E+00
 -1       663 3.84395E-05 9.81294E-06 0.00000E+00
 -1       664 3.82819E-05 1.03349E-05-4.13590E-25
 -1       665 3.81329E-05 1.08343E-05 0.00000E+00
 -1       666 3.79920E-05 1.13121E-05 0.00000E+00
 -1       667 3.78589E-05 1.17692E-05 0.00000E+00
 -1       668 3.77332E-05 1.22065E-05 0.00000E+00
 -1       669 3.76147E-05 1.26249E-05-8.27181E-25
 -1       670 3.75029E-05 1.30252E-05 4.13590E-25
 -1       671 3.73975E-05 1.34084E-05 8.27181E-25
 -1       672 3.72982E-05 1.37751E-05 0.00000E+00
 -1       673 3.72048E-05 1.41262E-05-8.27181E-25
 -1       674 3.71166E-05 1.44624E-05 4.13590E-25
 -1       675 3.70337E-05 1.47845E-05 0.00000E+00
 -1       676 3.84067E-05 1.52863E-05 0.00000E+00
 -1       677 3.81157E-05 1.52473E-05 4.13590E-25
 -1       678 3.78249E-05 1.52083E-05 0.00000E+00
 -1       679 3.75342E-05 1.51695E-05 0.00000E+00
 -1       680 3.72438E-05 1.51306E-05 8.27181E-25
 -1       771 7.87674E-06 1.55802E-06 1.32349E-23
 -1       772 6.18406E-06 4.55851E-06 0.00000E+00
 -1       773 4.73068E-06 6.92511E-06-2.64698E-23
 -1       774 3.50008E-06 8.70017E-06 0.00000E+00
 -1       775 2.47613E-06 9.92648E-06 0.00000E+00
 -1       776 1.64221E-06 1.06476E-05 6.61744E-24
 -1       777 9.81532E-07 1.09077E-05-1.32349E-23
 -1       778 4.77129E-07 1.07513E-05 6.61744E-24
 -1       779 1.11946E-07 1.02236E-05 0.00000E+00
 -1       780-1.31244E-07 9.37012E-06 0.00000E+00
 -1       781-2.69698E-07 8.23678E-06 0.00000E+00
 -1       782-3.20804E-07 6.86988E-06 0.00000E+00
 -1       783-3.01967E-07 5.31587E-06 1.32349E-23
 -1       784-2.30648E-07 3.62157E-06 0.00000E+00
 -1       785-1.24363E-07 1.83386E-06 0.00000E+00
 -1       786 3.74834E-05 1.37128E-07 0.00000E+00
 -1       787 3.75142E-05 1.38295E-07 0.00000E+00
 -1       788 3.75450E-05 1.40644E-07 8.27181E-25
 -1       789 3.75761E-05 1.44791E-07-4.13590E-25
 -1       790 3.76072E-05 1.51478E-07-8.27181E-25
 -1       791 3.76384E-05 1.61450E-07 0.00000E+00
 -1       792 3.76696E-05 1.75686E-07 0.00000E+00
 -1       793 3.77007E-05 1.95167E-07 0.00000E+00
 -1       794 3.77319E-05 2.21247E-07 0.00000E+00
 -1       795 3.77631E-05 2.55288E-07-4.13590E-25
 -1       796 3.77943E-05 2.99210E-07-8.27181E-25
 -1       797 3.78255E-05 3.54951E-07 0.00000E+00
 -1       798 3.78567E-05 4.25278E-07-8.27181E-25
 -1       799 3.78877E-05 5.12979E-07 0.00000E+00
 -1       800 3.79189E-05 6.22067E-07-8.27181E-25
 -1       801 3.49249E-05 1.39183E-07 0.00000E+00
 -1       802 2.74019E-05 1.17744E-07 0.00000E+00
 -1       803 1.75174E-05 7.74615E-08 0.00000E+00
 -1       804 7.90320E-06 3.61188E-08 1.65436E-24
 -1       805 1.18725E-06 1.73995E-08 0.00000E+00
 -1       806 3.74154E-05 1.16235E-07 0.00000E+00
 -1       807 3.73749E-05 9.61747E-08 0.00000E+00
 -1       808 3.73332E-05 7.87664E-08 0.00000E+00
 -1       809 3.72895E-05 6.60603E-08 0.00000E+00
 -1       810 3.72433E-05 6.01021E-08-8.27181E-25
 -1       811 3.71937E-05 6.29075E-08 0.00000E+00
 -1       812 3.71400E-05 7.64898E-08-1.65436E-24
 -1       813 3.70816E-05 1.02858E-07 4.13590E-25
 -1       814 3.70176E-05 1.44019E-07 0.00000E+00
 -1       815 3.69474E-05 2.01982E-07 0.00000E+00
 -1       816 3.68700E-05 2.78750E-07-8.27181E-25
 -1       817 3.67849E-05 3.76332E-07-4.13590E-25
 -1       818 3.66912E-05 4.96730E-07 0.00000E+00
 -1       819 3.65883E-05 6.41945E-07 0.00000E+00
 -1       820 3.64755E-05 8.13974E-07-8.27181E-25
 -1       821 3.79052E-05 9.20442E-07 0.00000E+00
 -1       822 3.78581E-05 1.11765E-06 0.00000E+00
 -1       823 3.78112E-05 1.35295E-06 0.00000E+00
 -1       824 3.77637E-05 1.63104E-06 0.00000E+00
 -1       825 3.77163E-05 1.95227E-06 1.65436E-24
 -1       826 3.76687E-05 2.31689E-06 0.00000E+00
 -1       827 3.76211E-05 2.72075E-06 0.00000E+00
 -1       828 3.75735E-05 3.15964E-06 0.00000E+00
 -1       829 3.75258E-05 3.62578E-06 0.00000E+00
 -1       830 3.74782E-05 4.11132E-06 8.27181E-25
 -1       831 3.74305E-05 4.60649E-06 1.65436E-24
 -1       832 3.73830E-05 5.10144E-06 0.00000E+00
 -1       833 3.73355E-05 5.58637E-06 1.65436E-24
 -1       834 3.72885E-05 6.05152E-06 0.00000E+00
 -1       835 3.72414E-05 6.48910E-06 4.13590E-25
 -1       836 3.77553E-05 7.99557E-07 8.27181E-25
 -1       837 3.75045E-05 8.43487E-07 0.00000E+00
 -1       838 3.72179E-05 8.87340E-07 0.00000E+00
 -1       839 3.69163E-05 9.30914E-07 4.13590E-25
 -1       840 3.66209E-05 9.74420E-07 0.00000E+00
 -1       856 3.71836E-05 7.30374E-06-1.03398E-25
 -1       857 3.71685E-05 7.76799E-06-1.03398E-25
 -1       858 3.71535E-05 8.27592E-06-4.13590E-25
 -1       859 3.71382E-05 8.81931E-06 2.06795E-25
 -1       860 3.71229E-05 9.38989E-06 4.13590E-25
 -1       861 3.71076E-05 9.97937E-06 2.06795E-25
 -1       862 3.70922E-05 1.05795E-05 0.00000E+00
 -1       863 3.70768E-05 1.11820E-05 2.06795E-25
 -1       864 3.70614E-05 1.17785E-05 0.00000E+00
 -1       865 3.70460E-05 1.23607E-05 0.00000E+00
 -1       866 3.70306E-05 1.29205E-05 0.00000E+00
 -1       867 3.70152E-05 1.34494E-05 0.00000E+00
 -1       868 3.69999E-05 1.39393E-05 0.00000E+00
 -1       869 3.69845E-05 1.43819E-05 2.06795E-25
 -1       870 3.69692E-05 1.47691E-05 0.00000E+00
 -1       871 3.68822E-05 6.89101E-06 0.00000E+00
 -1       872 3.66172E-05 6.88961E-06 0.00000E+00
 -1       873 3.63805E-05 6.88801E-06 0.00000E+00
 -1       874 3.61506E-05 6.88616E-06-7.75482E-26
 -1       875 3.59058E-05 6.88408E-06 3.10193E-25
 -1       876 3.70878E-05 7.30800E-06 1.65436E-24
 -1       877 3.69701E-05 7.74985E-06-8.27181E-25
 -1       878 3.68442E-05 8.21387E-06 0.00000E+00
 -1       879 3.67111E-05 8.69725E-06 0.00000E+00
 -1       880 3.65718E-05 9.19711E-06-1.65436E-24
 -1       881 3.64275E-05 9.71060E-06 0.00000E+00
 -1       882 3.62791E-05 1.02349E-05 1.65436E-24
 -1       883 3.61277E-05 1.07671E-05 8.27181E-25
 -1       884 3.59744E-05 1.13045E-05 0.00000E+00
 -1       885 3.58202E-05 1.18442E-05 0.00000E+00
 -1       886 3.56663E-05 1.23833E-05 0.00000E+00
 -1       887 3.55135E-05 1.29189E-05 0.00000E+00
 -1       888 3.53630E-05 1.34484E-05 8.27181E-25
 -1       889 3.52158E-05 1.39687E-05 0.00000E+00
 -1       890 3.50727E-05 1.44770E-05 0.00000E+00
 -1       891 3.66735E-05 1.50720E-05 0.00000E+00
 -1       892 3.63844E-05 1.50514E-05 0.00000E+00
 -1       893 3.60760E-05 1.50308E-05 0.00000E+00
 -1       894 3.57382E-05 1.50103E-05 1.03398E-25
 -1       895 3.53605E-05 1.49898E-05 1.03398E-25
 -1       956 3.63078E-05 1.27436E-06 8.27181E-25
 -1       957 3.62625E-05 1.56310E-06 0.00000E+00
 -1       958 3.62169E-05 1.87796E-06 1.65436E-24
 -1       959 3.61713E-05 2.21573E-06 0.00000E+00
 -1       960 3.61257E-05 2.57320E-06 0.00000E+00
 -1       961 3.60800E-05 2.94714E-06 4.13590E-25
 -1       962 3.60343E-05 3.33431E-06-1.65436E-24
 -1       963 3.59887E-05 3.73147E-06 0.00000E+00
 -1       964 3.59430E-05 4.13541E-06 0.00000E+00
 -1       965 3.58973E-05 4.54286E-06 0.00000E+00
 -1       966 3.58516E-05 4.95061E-06-1.65436E-24
 -1       967 3.58060E-05 5.35541E-06 0.00000E+00
 -1       968 3.57603E-05 5.75404E-06-1.65436E-24
 -1       969 3.57148E-05 6.14326E-06 8.27181E-25
 -1       970 3.56693E-05 6.51985E-06 0.00000E+00
 -1       971 3.55819E-05 7.25138E-06-8.27181E-25
 -1       972 3.55386E-05 7.66060E-06-4.13590E-25
 -1       973 3.54953E-05 8.10408E-06 0.00000E+00
 -1       974 3.54518E-05 8.57741E-06 0.00000E+00
 -1       975 3.54084E-05 9.07616E-06 8.27181E-25
 -1       976 3.53649E-05 9.59587E-06-8.27181E-25
 -1       977 3.53214E-05 1.01321E-05 1.65436E-24
 -1       978 3.52779E-05 1.06805E-05 0.00000E+00
 -1       979 3.52344E-05 1.12365E-05 0.00000E+00
 -1       980 3.51909E-05 1.17957E-05 0.00000E+00
 -1       981 3.51474E-05 1.23537E-05 1.65436E-24
 -1       982 3.51040E-05 1.29060E-05 0.00000E+00
 -1       983 3.50606E-05 1.34482E-05 1.65436E-24
 -1       984 3.50174E-05 1.39759E-05 0.00000E+00
 -1       985 3.49744E-05 1.44845E-05 0.00000E+00
 -3
    1PSTEP                         2           1           1          
  100CL  101 2.50000E-01         409                     0    1           1
 -4  STRESS      6    1
 -5  SXX         1    4    1    1
 -5  SYY         1    4    2    2
 -5  SZZ         1    4    3    3
 -5  SXY         1    4    1    2
 -5  SYZ         1    4    2    3
 -5  SZX         1    4    3    1
 -1         1-8.63274E+05-3.98334E+05-1.75092E+05-5.58223E+05 1.45519E-10 4.86034E-09
 -1         2 1.59615E+03 2.10540E+05 5.09555E+03 3.33113E+02-3.57034E-10-4.41315E-09
 -1         3-1.82588E+01-3.61065E+05 8.30168E+01-6.58950E+01-2.18465E-11-1.30331E-09
 -1         5-2.14269E+00 1.29818E+05 3.39829E+00-5.15109E-02 3.65735E-11 6.72117E-10
 -1         8-4.08132E+05-1.77583E+05-1.41320E+04-3.08537E+05 1.58252E-10-2.08820E-09
 -1         9-6.95790E+05-1.71316E+05-6.52764E+04-2.42755E+05 9.98261E-10-4.28117E-09
 -1        10-2.67866E+02-3.76158E+05-4.78231E+02-4.36541E+02-1.67984E-09 5.28746E-09
 -1        12-7.47688E-01 1.29825E+05 1.10152E+02-1.07149E-01 1.15357E-10 2.00043E-09
 -1        15 1.07574E+03 5.91174E+02 3.47731E+03 1.21485E+00-1.33399E-08-5.31261E-06
 -1        16-1.96233E+06-6.32899E+05-3.05096E+05-6.43985E+05 5.79166E-09-3.97752E-10
 -1        17-4.32575E+05-2.68097E+05-8.31430E+04-2.53458E+05-3.00133E-09 1.94996E-10
 -1        18 1.64976E+04 1.69460E+03-5.85178E+03-3.05412E+04 4.00746E-10 2.65550E-09
 -1        19 4.06953E+04 4.85204E+04-2.24237E+02 7.97865E+03-3.13958E-10-1.53304E-09
 -1        20-1.68664E+04-1.92381E+05-4.24160E+04 1.43388E+04 1.84059E-09 6.28764E-10
 -1        21-1.82289E+01-1.11628E+05-3.60553E+02-2.22866E+01-3.98371E-09-6.77168E-09
 -1        24-1.72149E+06-6.02980E+05-2.45906E+05-7.35738E+05-8.22304E-09-4.46259E-09
 -1        25 1.47242E+04-3.71831E+03 8.67751E+03-5.51292E+04 1.93904E-10 1.28748E-09
 -1        26-9.43784E+03 3.31545E+04-6.58750E+03-4.72618E+03 8.75480E-10-4.93699E-10
 -1        27-3.07989E+04-1.05565E+05-3.96014E+04 2.37918E+04 3.24235E-09-1.87765E-09
 -1        28 8.62004E+03-3.08401E+04 6.29993E+03 9.89361E+03 2.08365E-09-8.19391E-10
 -1        32-4.13011E+05-6.52641E+04 1.76667E+05-2.77043E+05-8.04721E-09 6.49651E-09
 -1        33-6.04000E+04 3.10496E+04 1.10087E+04-1.80137E+04 5.50803E-10 1.92828E-09
 -1        34-7.84002E+04-7.80342E+03 1.86282E+02 2.41086E+04 1.79459E-09 1.48740E-09
 -1        35-8.77234E+03-1.22693E+04-4.77810E+02 1.94405E+04 3.68708E-09 1.17840E-09
 -1        51 8.23274E+03-2.04619E+05 1.98368E+04-5.03725E+05 2.91038E-11 5.15865E-09
 -1        52 3.99254E+03-2.02572E+05 1.30285E+04-5.87498E+05 7.63976E-11-2.67755E-09
 -1        53 2.40302E+03-2.07340E+05 1.13516E+04-5.02021E+05 1.20053E-10-1.54978E-09
 -1        54 7.89072E+03-2.05249E+05 1.83005E+04-5.89316E+05 1.56433E-10-1.00499E-08
 -1        55 1.81460E+04-2.11852E+05 3.29278E+04-5.01811E+05 4.22006E-10-1.70803E-09
 -1        56-1.65827E+06-1.87623E+05-1.29501E+05-6.39684E+05-7.43967E-10 1.10595E-09
 -1        57-1.71093E+06-3.04070E+05-8.72784E+04-6.33979E+05-4.37922E-10 4.36557E-09
 -1        58-1.68401E+06-2.28896E+05-3.04904E+04-6.31898E+05 8.20819E-10 5.32054E-09
 -1        59-1.68116E+06-2.55682E+05-1.82022E+04-6.43334E+05-8.87269E-10-4.12547E-09
 -1        60-1.68779E+06-2.34632E+05-7.12770E+03-6.30827E+05-7.31006E-11-2.03181E-09
 -1        61-1.67706E+06-2.48688E+05-4.05341E+03-6.44256E+05 8.65384E-10 2.29392E-09
 -1        62-1.68806E+06-2.35717E+05-1.95190E+03-6.31031E+05 9.22455E-10-4.05208E-10
 -1        63-1.67739E+06-2.46942E+05-1.60655E+03-6.43309E+05 4.70664E-10 8.74024E-10
 -1        64-1.68744E+06-2.36373E+05-1.83802E+03-6.31764E+05 1.42393E-09 2.89037E-09
 -1        65-1.67940E+06-2.46093E+05-3.68603E+03-6.41358E+05 2.11372E-09-2.52385E-09
 -1        66-1.68602E+06-2.36603E+05-6.47350E+03-6.32955E+05 3.47086E-10 1.07821E-09
 -1        67-1.68530E+06-2.50153E+05-1.64400E+04-6.37908E+05 1.56547E-10 2.85763E-09
 -1        68-1.68155E+06-2.32490E+05-2.75835E+04-6.35141E+05 7.23730E-10-6.01358E-09
 -1        69-1.71412E+06-2.91967E+05-7.88677E+04-6.27268E+05 1.33446E-09-4.66753E-09
 -1        70-1.65742E+06-1.96036E+05-1.17077E+05-6.43142E+05-2.91038E-10 1.30967E-09
 -1        86-7.98433E+02 2.09072E+05 5.46941E+03-1.66562E+02 5.22959E-12-4.42651E-09
 -1        87 5.27465E+03 2.12330E+05 1.14079E+04 6.95026E+02-1.95314E-10-7.78306E-09
 -1        88-4.47119E+03 2.07281E+05 1.74504E+04-5.28476E+02-2.31012E-10-4.28177E-09
 -1        89 3.30938E+04 2.25263E+05 4.71209E+04 1.53642E+03-2.00998E-10 1.36822E-09
 -1        90-2.85676E+04 1.96144E+05 6.64661E+04-1.00786E+03-5.05679E-10 5.95719E-11
 -1       121-3.46605E+01-3.61182E+05 8.29880E+01 3.29281E+01 1.93356E-10-1.09139E-10
 -1       122 9.02733E+00-3.61046E+05 1.81902E+02-1.31938E+02-6.94433E-10 4.59977E-09
 -1       123-5.47119E+01-3.61201E+05 2.99096E+02 9.88961E+01 5.74602E-10 6.59566E-09
 -1       124 3.44714E+02-3.60839E+05 7.64609E+02-3.27071E+02-1.27989E-09 4.10273E-09
 -1       125-2.73461E+02-3.61391E+05 1.17718E+03 2.28083E+02 8.48786E-10-2.48929E-09
 -1       191-2.36232E+00 1.29829E+05 4.07795E+00 2.55954E-02 8.40141E-11-4.65661E-10
 -1       192-2.45457E+00 1.29818E+05 7.19492E+00 1.57092E-01 1.29485E-10-2.84672E-09
 -1       193-3.19187E+00 1.29829E+05 1.33966E+01-1.83811E-01 1.43560E-10-1.89084E-09
 -1       194-3.45845E+00 1.29819E+05 2.72147E+01 4.94842E-01 7.81668E-11-2.24190E-10
 -1       195-4.78650E+00 1.29828E+05 5.32505E+01-3.14167E-01 2.23544E-10 1.63891E-09
 -1       251 1.38683E+05-2.52039E+04 5.89250E+04 2.12804E+03-1.05047E-10-1.30967E-09
 -1       252 1.65072E+05 2.91744E+04 4.17309E+04-7.46597E+03-2.55795E-10 1.29194E-09
 -1       253 1.48725E+05-3.90379E+03 1.52545E+04 1.61503E+03-1.84173E-10-4.37740E-09
 -1       254 1.53283E+05 4.51329E+03 9.62134E+03-6.65100E+03 2.67221E-10-9.54060E-10
 -1       255 1.50439E+05-6.03573E+02 3.94214E+03 1.31319E+03-1.61435E-11-7.15318E-10
 -1       256 1.51246E+05 7.15208E+02 2.39329E+03-6.20351E+03 2.87116E-10 1.51022E-09
 -1       257 1.50746E+05-1.05991E+02 1.23540E+03 1.16753E+03 8.48033E-11-1.59699E-09
 -1       258 1.50934E+05 2.22858E+02 1.09884E+03-6.05611E+03-1.96399E-10 1.14078E-11
 -1       259 1.50745E+05-1.09005E+02 1.26386E+03 1.16578E+03-9.61151E-11 5.69401E-10
 -1       260 1.51257E+05 7.41571E+02 2.47454E+03-6.19705E+03 1.31593E-10-1.48603E-09
 -1       261 1.50428E+05-6.26691E+02 4.09015E+03 1.30847E+03 5.89239E-10-4.31510E-09
 -1       262 1.53364E+05 4.68760E+03 9.98748E+03-6.63707E+03 2.57913E-10 2.73872E-10
 -1       263 1.48653E+05-4.05411E+03 1.58439E+04 1.60581E+03-3.38503E-10 2.09729E-09
 -1       264 1.65590E+05 3.02997E+04 4.33341E+04-7.44413E+03-1.15759E-09-3.39014E-09
 -1       265 1.38235E+05-2.61741E+04 6.12035E+04 2.11541E+03-6.32440E-10 1.44064E-09
 -1       266-1.94746E+04-9.10697E+03 4.56901E+04-2.59931E+01-2.08966E-08-8.37021E-06
 -1       267 2.25763E+04 1.06134E+04 3.22946E+04 2.99925E+01-4.13643E-08-1.65365E-05
 -1       268-3.02745E+03-1.50320E+03 1.20037E+04-3.82144E+00-3.32284E-08-1.32573E-05
 -1       269 3.57451E+03 1.79896E+03 7.80227E+03 4.45153E+00-2.50003E-08-9.99381E-06
 -1       270-5.36539E+02-2.95585E+02 3.76626E+03-6.04080E-01-1.84921E-08-7.36372E-06
 -1       271-1.91272E+06-2.37670E+05-1.47060E+05-7.43860E+05 7.05768E-10 1.02591E-09
 -1       272-1.95249E+06-3.58109E+05-9.45673E+04-7.57732E+05 6.57565E-10-4.79486E-09
 -1       273-1.94037E+06-2.74321E+05-3.47349E+04-7.37358E+05 2.66482E-10-9.80435E-10
 -1       274-1.92033E+06-3.13046E+05-1.94622E+04-7.67636E+05 6.73026E-11 2.36105E-09
 -1       275-1.94446E+06-2.77849E+05-8.08007E+03-7.35927E+05-4.81577E-10 4.64206E-09
 -1       276-1.91553E+06-3.08859E+05-4.30224E+03-7.69922E+05-8.05812E-10 4.07817E-09
 -1       277-1.94531E+06-2.77895E+05-2.10372E+03-7.35401E+05-8.39918E-10 5.07441E-10
 -1       278-1.91471E+06-3.08728E+05-1.53144E+03-7.70552E+05 3.77781E-10 9.61791E-11
 -1       279-1.94536E+06-2.77887E+05-1.64231E+03-7.35371E+05-6.93944E-10 2.63776E-09
 -1       280-1.91527E+06-3.08733E+05-3.00950E+03-7.70070E+05-1.64164E-09-2.15016E-09
 -1       281-1.94469E+06-2.77957E+05-5.49606E+03-7.35826E+05 4.07454E-10-8.18545E-10
 -1       282-1.91877E+06-3.11244E+05-1.31345E+04-7.68134E+05-2.75804E-10 1.52977E-09
 -1       283-1.94171E+06-2.75828E+05-2.34265E+04-7.37044E+05 2.36469E-10 2.31921E-09
 -1       284-1.94092E+06-3.41027E+05-6.37086E+04-7.60734E+05-5.36033E-11-3.41788E-09
 -1       285-1.92272E+06-2.51529E+05-9.91292E+04-7.41829E+05 1.30058E-10 3.63798E-11
 -1       301 7.42846E+03-4.71309E+03 5.80266E+04-1.42229E+04-4.18368E-10-1.75956E-09
 -1       302 7.96654E+03 1.00228E+04 4.17973E+04-2.09158E+04 7.09292E-10-4.86489E-09
 -1       303 3.30731E+02 5.13665E+02 3.83128E+04-1.42449E+04-4.78394E-10-3.22143E-09
 -1       304 1.48806E+04 1.63976E+04 6.42708E+04-2.08606E+04 9.99535E-10 2.74338E-09
 -1       305 1.47488E+04-1.10581E+04 1.07753E+05-1.42483E+04-4.07454E-10 6.44309E-09
 -1       306-2.06444E+06-2.36317E+05-1.56694E+05-8.03218E+05 5.63887E-10-2.27737E-09
 -1       307-2.13898E+06-3.75124E+05-1.06862E+05-7.83421E+05 1.03319E-09 7.19410E-09
 -1       308-2.09915E+06-2.85857E+05-3.68607E+04-7.89516E+05-4.65661E-10 7.43967E-10
 -1       309-2.09672E+06-3.19578E+05-2.23607E+04-8.01984E+05-2.66112E-10 5.31873E-09
 -1       310-2.10655E+06-2.90910E+05-8.64896E+03-7.85005E+05-7.26359E-10-2.19961E-09
 -1       311-2.08732E+06-3.14626E+05-5.02720E+03-8.08372E+05 2.37037E-09-2.85786E-09
 -1       312-2.10857E+06-2.90632E+05-2.45732E+03-7.83219E+05 7.45501E-11 5.48823E-10
 -1       313-2.08556E+06-3.14647E+05-2.21976E+03-8.09890E+05-6.54239E-10-8.19199E-10
 -1       314-2.10833E+06-2.90859E+05-2.66723E+03-7.83509E+05-7.22281E-10 1.90823E-09
 -1       315-2.08834E+06-3.13904E+05-5.63934E+03-8.07245E+05-6.58673E-10 3.96233E-09
 -1       316-2.10576E+06-2.91421E+05-9.80261E+03-7.85828E+05 1.75442E-09-1.83354E-09
 -1       317-2.09923E+06-3.19359E+05-2.53920E+04-7.99796E+05 1.23325E-09 9.82254E-10
 -1       318-2.09740E+06-2.85600E+05-4.18728E+04-7.90859E+05-1.44428E-09 6.65204E-09
 -1       319-2.14688E+06-3.82925E+05-1.21430E+05-7.79258E+05-2.18961E-09 5.83896E-10
 -1       320-2.05831E+06-2.28920E+05-1.78010E+05-8.05982E+05 4.54020E-09 3.17232E-09
 -1       336 2.93904E+02-3.91004E+05-2.06952E+03 2.08285E+02-3.46415E-09 1.08321E-09
 -1       337-7.41847E+02-3.91605E+05-2.26806E+03-5.87578E+02-6.25363E-09-1.05501E-10
 -1       338 1.94802E+02-3.91066E+05-2.84198E+03 3.78487E+02-4.40571E-09 3.04954E-09
 -1       339-2.93767E+03-3.92945E+05-6.22898E+03-9.25568E+02-8.40339E-09 3.15958E-09
 -1       340 2.01011E+03-3.89674E+05-9.58864E+03 5.44544E+02-5.65797E-09 1.41245E-09
 -1       406 7.67940E+00 1.29823E+05 2.17490E+02 4.16705E-01 3.14131E-10 1.25578E-08
 -1       407 7.50751E+01 1.29863E+05 4.62226E+02-5.65615E+00 6.29257E-11 2.06919E-08
 -1       408 2.37186E+02 1.29790E+05 9.23201E+02 5.28827E+00 3.39128E-10 6.93581E-09
 -1       409 9.97529E+02 1.30158E+05 2.07845E+03-4.74541E+01-2.17142E-11 2.51021E-09
 -1       410 2.86743E+03 1.29527E+05 4.24314E+03 4.30767E+01 3.42425E-10 3.35126E-09
 -1       521-3.88723E+06-4.47658E+05-2.90864E+05-1.51020E+06 2.82671E-09-7.97445E-09
 -1       522-4.02659E+06-6.99756E+05-1.97713E+05-1.47256E+06-1.09594E-09-5.47334E-09
 -1       523-3.95198E+06-5.37637E+05-6.83847E+04-1.48441E+06 6.51198E-10-3.53248E-09
 -1       524-3.94780E+06-5.98611E+05-4.12777E+04-1.50737E+06 1.18234E-11 5.98902E-10
 -1       525-3.96553E+06-5.46602E+05-1.59822E+04-1.47614E+06-8.10815E-10 1.57434E-09
 -1       526-3.93166E+06-5.88641E+05-9.21899E+03-1.51769E+06 1.28665E-09-9.99989E-10
 -1       527-3.96811E+06-5.47228E+05-4.42509E+03-1.47426E+06 1.90528E-09 2.41153E-09
 -1       528-3.93169E+06-5.85192E+05-3.79429E+03-1.51635E+06-1.12601E-09-1.03233E-09
 -1       529-3.96545E+06-5.50040E+05-4.44401E+03-1.47747E+06-1.33127E-09-9.22228E-10
 -1       530-3.94138E+06-5.78412E+05-9.08331E+03-1.50573E+06 3.65731E-10 1.48430E-09
 -1       531-3.95828E+06-5.54148E+05-1.59350E+04-1.48475E+06-9.17169E-10 3.10138E-10
 -1       532-3.96461E+06-5.81178E+05-4.09029E+04-1.48742E+06-3.96000E-10-2.24782E-09
 -1       533-3.94226E+06-5.47630E+05-6.78778E+04-1.49564E+06 1.39698E-09-2.24099E-09
 -1       534-4.04521E+06-6.79689E+05-1.96215E+05-1.45113E+06 1.07048E-09 2.09184E-09
 -1       535-3.87839E+06-4.57676E+05-2.88560E+05-1.52045E+06-5.76256E-09 4.46744E-09
 -1       536-4.71321E+03-1.10509E+04 2.54760E+04 2.63283E+02-6.90406E-10 5.22050E-09
 -1       537 6.93018E+03 1.27878E+04 1.81253E+04-1.00528E+03-3.93887E-09 4.79758E-09
 -1       538-3.63521E+02-1.73181E+03 6.57608E+03 2.41402E+02-1.99122E-10 1.30376E-09
 -1       539 1.81161E+03 2.00000E+03 4.18319E+03-9.80409E+02 1.96515E-09 3.20773E-09
 -1       540 4.00919E+02-2.69568E+02 1.66321E+03 2.38422E+02 1.07960E-10-2.08047E-10
 -1       541 8.83782E+02 3.08929E+02 9.85862E+02-9.76331E+02 7.55449E-11-4.00178E-11
 -1       542 5.61657E+02-4.01496E+01 4.01137E+02 2.37321E+02 6.19593E-10 1.33812E-09
 -1       543 6.73887E+02 3.92955E+01 2.02204E+02-9.74680E+02 1.50123E-10 2.63561E-09
 -1       544 6.09133E+02 1.09279E+00 3.65302E+01 2.36770E+02 9.68807E-11-1.87103E-09
 -1       545 5.96857E+02-4.37923E+01-1.01038E+02-9.74023E+02-6.39754E-10-1.05902E-09
 -1       546 6.37928E+02 4.34368E+01-2.46031E+02 2.36664E+02 3.67348E-10-1.51573E-10
 -1       547 4.65343E+02-3.23270E+02-6.56701E+02-9.74205E+02-1.21703E-09-7.61702E-12
 -1       548 7.40806E+02 2.80258E+02-1.06676E+03 2.36952E+02-1.25272E-09 2.20859E-09
 -1       549-2.97341E+02-2.06673E+03-2.91360E+03-9.74665E+02-6.13859E-10 3.88445E-09
 -1       550 1.40172E+03 1.78475E+03-4.14677E+03 2.37124E+02-2.86136E-11 4.64456E-09
 -1       551 2.97965E+03-2.06512E+05 1.16049E+04-3.54418E+05-1.53032E-08 7.16682E-10
 -1       552 5.84113E+03-2.05848E+05 1.48391E+04-5.04229E+05-1.20199E-08 5.63341E-09
 -1       553 3.57940E+03-2.08566E+05 2.31321E+04-3.53308E+05-1.94304E-08 7.73252E-09
 -1       554 1.69049E+04-1.97859E+05 4.91055E+04-5.04709E+05-1.17507E-08 4.21664E-09
 -1       555 1.78840E+04-2.18039E+05 8.83597E+04-3.53816E+05-1.89029E-08-2.02090E-09
 -1       556 2.80395E+04-6.54698E+04 2.29980E+04-8.83160E+04-3.23416E-09-1.12777E-10
 -1       557 5.46887E+04-8.79966E+04 1.20092E+04-1.10225E+05-5.23869E-10 3.65753E-09
 -1       558 2.85140E+04-6.88569E+04 4.95605E+03-8.53653E+04-1.86992E-09 1.42427E-09
 -1       559 5.17295E+04-9.13503E+04 2.48192E+03-1.11374E+05 3.20142E-09-2.78760E-09
 -1       560 2.81597E+04-6.86028E+04 1.07820E+03-8.55498E+04-2.07365E-10-4.66571E-10
 -1       561 5.10189E+04-9.12628E+04 5.49162E+02-1.11814E+05-2.32831E-09 1.05661E-09
 -1       562 2.78408E+04-6.83735E+04 2.30494E+02-8.57845E+04-1.47338E-09-1.15540E-09
 -1       563 5.06264E+04-9.10973E+04 1.27168E+02-1.12064E+05-1.70985E-09-4.47960E-09
 -1       564 2.76412E+04-6.82402E+04 4.80441E+01-8.59287E+04-2.53021E-09-3.92083E-09
 -1       565 5.04254E+04-9.10134E+04 2.00860E+01-1.12188E+05-3.01952E-09 7.60701E-09
 -1       566 2.75742E+04-6.81928E+04-1.78677E+01-8.59792E+04-4.56885E-09 4.00996E-09
 -1       567 5.03929E+04-9.09969E+04-6.78474E+01-1.12175E+05 1.45610E-09 3.97995E-09
 -1       568 2.76571E+04-6.82491E+04-1.69088E+02-8.59521E+04-3.15777E-09-7.43967E-10
 -1       569 5.01902E+04-9.08849E+04-4.00929E+02-1.11736E+05-1.14869E-09-9.29504E-10
 -1       570 2.81710E+04-6.87688E+04-8.13744E+02-8.60442E+04 3.43607E-09 3.69573E-09
 -1       571 9.41933E+04 3.41575E+03 5.05821E+03-2.36073E+04-3.96540E-10 2.78987E-09
 -1       572 9.49476E+04 1.18834E+03 2.47795E+03-2.58778E+04 1.61435E-11 1.09731E-09
 -1       573 9.45000E+04 2.83358E+02 1.10078E+03-2.35458E+04-9.66952E-09 4.21323E-10
 -1       574 9.45905E+04 9.14008E+01 5.51360E+02-2.59470E+04-2.05057E-08-2.94358E-09
 -1       575 9.45362E+04 1.17216E+01 2.59819E+02-2.35376E+04-9.70010E-09 1.24101E-09
 -1       576 9.45429E+04 2.14511E+00 1.32153E+02-2.59562E+04 5.53626E-10 1.71281E-09
 -1       577 9.45416E+04-2.92804E+00 6.50488E+01-2.35365E+04 8.65725E-10 1.51522E-09
 -1       578 9.45371E+04-1.76272E+00 3.53562E+01-2.59573E+04-6.59043E-10-5.54860E-09
 -1       579 9.45450E+04-2.61309E+00 2.15789E+01-2.35365E+04-6.71434E-10-3.41674E-09
 -1       580 9.45407E+04-2.57833E+00 1.99690E+01-2.59558E+04-3.94039E-10 1.93268E-10
 -1       581 9.45500E+04-3.36696E+00 2.71483E+01-2.35380E+04-4.30191E-10 1.23782E-09
 -1       582 9.45520E+04 2.00228E+00 5.14808E+01-2.59417E+04-7.01448E-10-3.89241E-09
 -1       583 9.45546E+04 1.67326E+01 9.91586E+01-2.35507E+04-2.81943E-11-3.01975E-09
 -1       584 9.45938E+04 9.54596E+01 2.21955E+02-2.58364E+04-1.56729E-09-2.15107E-09
 -1       585 9.45364E+04 2.92727E+02 4.51416E+02-2.36433E+04-6.33008E-10 2.33194E-09
 -1       586-1.18414E+03 3.06285E+04-1.55444E+03-8.05466E+04 2.66255E-10-5.11591E-11
 -1       587-2.71371E+02 3.04231E+04-1.90657E+02-8.86351E+04 4.34738E-10-4.43549E-09
 -1       588 3.05602E+02 3.04620E+04 1.06574E+03-8.04976E+04 2.54204E-10 1.53295E-09
 -1       589 1.58686E+03 3.10418E+04 3.12694E+03-8.85616E+04 3.78350E-10-5.75483E-10
 -1       590 4.58964E+03 3.00592E+04 6.70649E+03-8.06204E+04 2.11912E-10 9.67248E-10
 -1       591-2.04320E+04-5.87244E+03-6.83358E+03-1.06202E+04-1.92384E-09-1.96269E-09
 -1       592-2.10699E+04-7.55293E+03-3.70135E+03-1.24047E+04-1.55785E-09 5.05463E-09
 -1       593-2.11227E+04-5.36903E+03-1.54089E+03-1.11133E+04-4.55918E-09 5.03337E-09
 -1       594-2.01172E+04-6.55986E+03-7.68540E+02-1.24518E+04-5.22292E-09 1.35555E-08
 -1       595-2.11753E+04-5.36690E+03-3.53195E+02-1.11358E+04-6.57622E-10 1.06782E-08
 -1       596-2.00525E+04-6.51441E+03-1.80057E+02-1.24449E+04-8.48644E-10 5.48233E-10
 -1       597-2.11820E+04-5.37133E+03-9.91243E+01-1.11367E+04-1.39822E-09 2.53161E-09
 -1       598-2.00464E+04-6.51267E+03-8.16592E+01-1.24430E+04-1.72588E-09-2.61954E-09
 -1       599-2.11816E+04-5.37125E+03-1.06740E+02-1.11366E+04-5.06759E-10-1.68518E-09
 -1       600-2.00536E+04-6.51492E+03-2.00282E+02-1.24450E+04-3.57062E-10-5.47629E-10
 -1       601-2.11735E+04-5.36628E+03-3.96069E+02-1.11354E+04-3.92333E-10 5.37284E-10
 -1       602-2.01264E+04-6.56584E+03-8.63854E+02-1.24522E+04-9.73841E-10 5.77415E-10
 -1       603-2.11139E+04-5.36933E+03-1.73256E+03-1.11103E+04 5.97197E-10 5.81349E-09
 -1       604-2.12015E+04-7.67858E+03-4.16214E+03-1.23944E+04-7.76083E-10 2.56694E-09
 -1       605-2.03328E+04-5.93866E+03-7.68413E+03-1.05597E+04 5.88386E-10-7.94898E-10
 -1       606 1.34712E+04-4.53075E+03-8.16367E+03 1.31952E+04-2.15005E-09-2.34786E-09
 -1       607 1.20734E+04-1.46128E+03-4.06529E+03 1.48124E+04-2.93767E-10 7.35156E-10
 -1       608 1.28722E+04-2.45393E+02-1.81990E+03 1.30899E+04 2.08547E-09-6.28006E-10
 -1       609 1.27163E+04-6.60134E+01-9.19423E+02 1.49289E+04-4.85215E-10 2.28283E-09
 -1       610 1.28047E+04 9.63371E+00-4.38752E+02 1.30782E+04-1.25874E-09 1.31467E-09
 -1       611 1.27773E+04 1.26047E+01-2.21451E+02 1.49417E+04-3.66526E-09 1.12868E-09
 -1       612 1.27901E+04 1.38204E+01-1.05706E+02 1.30770E+04-2.30011E-09 3.70892E-09
 -1       613 1.27812E+04 1.37693E+01-4.83097E+01 1.49433E+04-5.23187E-09 1.96746E-09
 -1       614 1.27833E+04 1.17211E+01-1.33890E+01 1.30766E+04-4.08545E-09 2.30614E-09
 -1       615 1.27796E+04 1.41482E+01 1.49220E+01 1.49436E+04 1.66051E-09 3.62024E-09
 -1       616 1.27782E+04 1.25857E+01 4.97252E+01 1.30767E+04-4.88853E-10 4.58238E-09
 -1       617 1.27854E+04 2.50631E+01 1.15209E+02 1.49434E+04 5.76620E-10 8.85620E-11
 -1       618 1.27679E+04 4.60408E+01 2.32976E+02 1.30768E+04 2.41016E-11-1.91096E-09
 -1       619 1.28675E+04 2.05489E+02 5.23600E+02 1.49431E+04 1.66381E-10-3.40685E-09
 -1       620 1.26903E+04 5.99134E+02 1.05260E+03 1.30765E+04 1.14852E-09 7.40101E-10
 -1       621 1.64497E+02 1.02540E+05 1.41729E+03 3.23406E+03-1.56110E-10 3.21393E-10
 -1       622 1.87994E+02 1.02891E+05 1.20232E+03 4.71870E+03-1.30512E-10 1.75780E-09
 -1       623 8.39280E+00 1.02642E+05 1.38199E+03 3.21873E+03-1.09395E-10-2.96671E-09
 -1       624 6.25802E+02 1.03294E+05 2.62375E+03 4.73383E+03-7.25322E-11-4.67151E-09
 -1       625 6.27955E+02 1.02137E+05 4.56099E+03 3.21904E+03-8.13998E-11-4.93030E-09
 -1       626 8.46304E+04 2.34861E+04 1.69281E+03 4.57992E+04-1.13641E-09-1.18598E-09
 -1       627 8.34683E+04 2.43412E+04 8.15325E+02 4.76573E+04-1.33809E-09 1.14915E-09
 -1       628 8.46988E+04 2.26833E+04 3.44689E+02 4.60563E+04 1.46929E-09-1.42234E-09
 -1       629 8.32283E+04 2.41476E+04 1.68758E+02 4.77722E+04 2.52180E-09-1.00727E-10
 -1       630 8.47065E+04 2.26434E+04 7.81983E+01 4.60652E+04-2.98451E-09-8.30920E-09
 -1       631 8.32020E+04 2.41420E+04 4.19363E+01 4.77759E+04-1.49043E-09 3.15978E-11
 -1       632 8.47050E+04 2.26449E+04 2.77460E+01 4.60631E+04-2.31148E-09-6.26264E-09
 -1       633 8.31981E+04 2.41436E+04 3.08827E+01 4.77743E+04-9.93737E-10-6.47077E-10
 -1       634 8.47019E+04 2.26444E+04 5.00450E+01 4.60618E+04 1.97633E-09 2.85297E-10
 -1       635 8.32012E+04 2.41440E+04 1.01466E+02 4.77749E+04 2.17631E-09 3.04897E-09
 -1       636 8.46969E+04 2.26438E+04 2.05026E+02 4.60606E+04-3.74314E-10 1.93950E-09
 -1       637 8.32429E+04 2.41766E+04 4.50660E+02 4.77728E+04 9.67667E-10 1.71531E-09
 -1       638 8.46786E+04 2.27446E+04 9.26345E+02 4.60139E+04 1.32786E-10-1.99702E-09
 -1       639 8.37261E+04 2.48549E+04 2.19153E+03 4.76279E+04-1.46952E-09 9.70431E-10
 -1       640 8.46117E+04 2.47631E+04 4.54825E+03 4.51569E+04-5.74687E-10 2.03045E-09
 -1       656 2.29461E+04-5.80845E+05-5.54084E+04-4.99125E+02 3.12866E-10-5.26029E-10
 -1       657-3.03185E+04-6.05879E+05-4.58223E+04 3.80995E+03 6.89397E-10-2.19296E-09
 -1       658 7.27414E+03-5.87992E+05-2.81214E+04-7.81688E+02-2.16119E-10 1.95334E-09
 -1       659-3.25023E+04-6.06904E+05-4.86903E+04 3.99529E+03-2.20098E-10 1.92898E-10
 -1       660 2.51237E+04-5.79821E+05-6.03484E+04-6.84461E+02-4.62023E-10 8.02352E-10
 -1       661 8.26478E+04 8.96622E+03 7.91971E+03 3.22509E+04 1.15278E-09 1.02864E-09
 -1       662 8.67411E+04 1.52092E+04 5.33653E+03 3.09089E+04 1.38135E-09-3.42624E-09
 -1       663 8.41960E+04 1.15138E+04 1.86677E+03 3.18075E+04-4.72369E-11-1.40449E-09
 -1       664 8.49522E+04 1.22243E+04 1.11598E+03 3.14451E+04-1.19017E-09-1.23549E-10
 -1       665 8.44250E+04 1.18674E+04 4.40274E+02 3.17462E+04-3.71330E-10-1.71352E-09
 -1       666 8.46860E+04 1.18151E+04 2.56645E+02 3.15212E+04-3.04823E-10 2.06466E-09
 -1       667 8.44607E+04 1.19125E+04 1.35358E+02 3.17354E+04-1.06297E-09-4.63919E-10
 -1       668 8.46505E+04 1.17761E+04 1.35466E+02 3.15352E+04 2.58399E-09-4.67278E-10
 -1       669 8.44604E+04 1.19054E+04 1.81568E+02 3.17326E+04 5.74829E-12 1.19208E-09
 -1       670 8.47015E+04 1.18668E+04 3.93456E+02 3.15288E+04 1.51915E-09-3.70328E-09
 -1       671 8.44099E+04 1.18237E+04 6.98113E+02 3.17410E+04-3.57481E-10 1.15747E-09
 -1       672 8.51135E+04 1.25407E+04 1.78560E+03 3.14247E+04-1.35331E-09-1.53679E-09
 -1       673 8.40506E+04 1.12485E+04 2.99227E+03 3.18302E+04-4.24848E-10-1.20565E-09
 -1       674 8.79672E+04 1.73434E+04 8.55763E+03 3.05821E+04-2.83319E-09 1.76954E-09
 -1       675 8.15749E+04 7.15544E+03 1.27017E+04 3.25331E+04 5.03405E-10-6.53927E-10
 -1       676 9.35339E+00-1.11598E+05-4.34555E+02 1.11436E+01-1.98004E-09-3.17120E-09
 -1       677-1.15351E+02-1.11703E+05-7.95245E+02-2.22861E+01-2.65629E-09-8.29739E-09
 -1       678 7.70082E+01-1.11523E+05-1.40576E+03 1.11348E+01-1.43933E-09 1.40291E-10
 -1       679-1.40589E+03-1.12551E+05-3.33921E+03-2.22434E+01-2.31648E-09 7.78179E-09
 -1       680 8.38941E+02-1.10749E+05-5.38174E+03 1.09727E+01-3.36513E-11 4.69811E-09
 -1       771-1.20096E+06-2.08283E+05-2.90894E+04-4.96872E+05-5.11500E-09-3.89264E-09
 -1       772-1.19330E+06-2.24815E+05-1.56596E+04-5.15278E+05-3.81260E-09 1.88038E-09
 -1       773-1.20469E+06-2.05403E+05-6.66785E+03-4.98501E+05-2.25918E-09 1.81353E-09
 -1       774-1.18900E+06-2.21239E+05-3.27134E+03-5.16632E+05 3.78350E-09-4.76575E-10
 -1       775-1.20534E+06-2.05033E+05-1.59368E+03-4.98593E+05-5.92991E-10 3.95630E-10
 -1       776-1.18883E+06-2.21182E+05-7.50847E+02-5.17197E+05-4.72937E-10 8.07631E-10
 -1       777-1.20573E+06-2.04772E+05-4.27353E+02-4.98624E+05 2.61934E-10 9.07676E-10
 -1       778-1.18891E+06-2.21251E+05-2.01333E+02-5.17657E+05 1.60071E-10 1.92631E-09
 -1       779-1.20602E+06-2.04548E+05-1.78407E+02-4.98650E+05-1.70985E-09-1.22782E-09
 -1       780-1.18901E+06-2.21318E+05-1.56509E+02-5.18030E+05-1.33241E-09 1.36424E-10
 -1       781-1.20624E+06-2.04365E+05-2.73419E+02-4.98666E+05-3.29965E-09-5.14319E-10
 -1       782-1.18912E+06-2.21395E+05-5.21266E+02-5.18306E+05-5.54337E-09-1.25135E-09
 -1       783-1.20635E+06-2.04249E+05-1.04042E+03-4.98665E+05-7.70342E-10-2.04233E-09
 -1       784-1.18980E+06-2.22092E+05-2.47434E+03-5.18446E+05-2.54477E-09-6.32099E-11
 -1       785-1.20598E+06-2.04518E+05-4.57254E+03-4.98335E+05-4.99222E-09 5.03860E-10
 -1       786 8.71081E+04-4.65881E+03 1.07774E+04 2.09481E+00 4.27082E-08 3.22007E-09
 -1       787 9.17783E+04 5.39340E+03 7.62502E+03-8.70692E+00 8.48670E-08 3.98722E-09
 -1       788 8.89099E+04-7.30316E+02 2.78944E+03 2.58716E+00 1.36466E-07 3.44141E-09
 -1       789 8.96793E+04 8.45016E+02 1.75263E+03-1.02565E+01 1.88331E-07 1.22895E-09
 -1       790 8.92073E+04-1.14086E+02 7.13122E+02 3.64442E+00 2.69954E-07-7.12390E-10
 -1       791 8.93323E+04 1.32553E+02 4.18698E+02-1.30850E+01 3.52007E-07 8.74596E-09
 -1       792 8.92570E+04-1.83865E+01 1.91095E+02 5.41573E+00 5.03160E-07-4.49675E-09
 -1       793 8.92762E+04 2.58263E+01 1.25239E+02-1.76012E+01 6.55771E-07 1.56002E-09
 -1       794 8.92634E+04-7.42943E+00 9.27978E+01 8.16069E+00 9.61070E-07-8.41939E-09
 -1       795 8.92817E+04 3.83449E+01 1.34271E+02-2.44586E+01 1.26497E-06 5.94514E-09
 -1       796 8.92515E+04-3.08963E+01 2.01160E+02 1.22732E+01 6.32401E-07-3.95723E-09
 -1       797 8.93729E+04 2.26480E+02 4.74320E+02-3.46420E+01 2.21564E-09 4.29662E-09
 -1       798 8.91722E+04-1.95426E+02 7.48746E+02 1.83443E+01-4.41682E-11-3.21202E-09
 -1       799 8.99344E+04 1.44292E+03 2.04116E+03-4.97139E+01-2.31918E-10-2.20552E-10
 -1       800 8.86900E+04-1.24635E+03 2.88347E+03 2.73453E+01-6.15956E-11 2.74429E-09
 -1       801-4.60311E+03 8.94403E+03 8.32712E+03 9.21472E+03 5.11977E-09-2.42017E-09
 -1       802 1.28553E+04 3.99835E+04 2.46623E+04-3.79350E+04 1.36606E-08-1.20411E-09
 -1       803-7.99961E+03 1.88880E+04 3.25836E+04 8.87914E+03 1.08121E-08 8.41528E-09
 -1       804 6.29004E+04 6.58460E+04 9.01511E+04-3.82601E+04 1.28030E-08 1.21201E-08
 -1       805-5.46522E+04-1.68276E+04 1.19434E+05 9.53923E+03 4.50382E-09 1.31384E-08
 -1       806-1.02717E+05-2.19903E+04-8.72048E+03-4.27579E+04 5.13182E-10-6.78028E-10
 -1       807-1.03231E+05-2.07401E+04-4.28414E+03-4.50687E+04 9.82425E-10 1.44721E-09
 -1       808-1.02964E+05-1.88398E+04-1.81740E+03-4.42374E+04 3.40583E-09 2.21497E-10
 -1       809-1.02317E+05-1.95505E+04-8.88499E+02-4.51923E+04 4.11160E-09-6.02918E-09
 -1       810-1.03003E+05-1.87284E+04-4.06822E+02-4.43029E+04 3.00588E-09 1.41654E-10
 -1       811-1.02248E+05-1.95033E+04-2.01770E+02-4.51824E+04 7.37657E-10-2.83910E-09
 -1       812-1.03011E+05-1.87363E+04-1.00637E+02-4.43030E+04 6.89397E-10-4.14263E-09
 -1       813-1.02239E+05-1.95044E+04-6.35057E+01-4.51776E+04 9.86802E-10-2.86747E-09
 -1       814-1.03010E+05-1.87389E+04-5.94635E+01-4.43020E+04 3.34444E-09 3.05113E-09
 -1       815-1.02241E+05-1.95052E+04-9.32007E+01-4.51769E+04 2.05546E-10 6.29484E-10
 -1       816-1.03005E+05-1.87375E+04-1.74526E+02-4.43012E+04-7.63521E-10 1.10276E-09
 -1       817-1.02272E+05-1.95217E+04-3.74471E+02-4.51748E+04 9.06994E-10-3.02953E-09
 -1       818-1.02984E+05-1.87893E+04-7.63024E+02-4.42769E+04-1.78125E-09-7.75844E-09
 -1       819-1.02694E+05-1.99796E+04-1.79626E+03-4.50740E+04-2.84490E-09-1.07383E-08
 -1       820-1.02840E+05-2.01472E+04-3.65546E+03-4.36986E+04-2.76486E-10-1.18240E-09
 -1       821-1.32653E+05 7.36526E+03-1.70358E+04-7.01280E-01-4.06873E-10 2.22644E-09
 -1       822-1.40035E+05-8.52653E+03-1.20546E+04-9.44092E+01-1.39946E-09 1.50612E-09
 -1       823-1.35502E+05 1.15461E+03-4.41234E+03-2.45580E+01 9.93923E-10 2.26692E-10
 -1       824-1.36716E+05-1.33641E+03-2.77683E+03-4.33068E+01-7.77291E-10-9.97602E-11
 -1       825-1.35972E+05 1.80801E+02-1.14062E+03-5.18054E+01-1.52405E-09-1.16410E-09
 -1       826-1.36170E+05-2.13238E+02-6.90110E+02 8.77752E+00-2.61560E-09 4.36131E-09
 -1       827-1.36048E+05 3.22612E+01-3.55876E+02-7.66435E+01-3.07156E-09-1.21453E-09
 -1       828-1.36095E+05-6.51969E+01-3.16122E+02 5.08831E+01 2.89127E-08 5.10701E-09
 -1       829-1.36047E+05 3.28741E+01-3.61255E+02-9.39117E+01 9.46567E-06-6.06157E-09
 -1       830-1.36175E+05-2.18453E+02-7.06186E+02 7.42700E+01 1.88412E-05-7.25316E-09
 -1       831-1.35968E+05 1.85425E+02-1.16889E+03-1.00031E+02-1.20984E-06 4.12570E-10
 -1       832-1.36735E+05-1.37075E+03-2.84821E+03 7.42556E+01-2.12541E-05 8.47672E-09
 -1       833-1.35487E+05 1.18433E+03-4.52562E+03-9.38970E+01-1.06753E-05 1.48473E-08
 -1       834-1.40138E+05-8.74604E+03-1.23651E+04 5.17003E+01-3.41911E-08 2.98223E-09
 -1       835-1.32566E+05 7.55491E+03-1.74746E+04-7.74729E+01 2.01039E-09 3.42607E-09
 -1       836-4.42694E+02 1.25826E+05 7.57449E+03-1.10247E+04 9.59517E-10 1.29944E-09
 -1       837 1.66154E+03 1.28175E+05 6.46374E+03-2.21631E+04 1.42813E-09 1.06280E-09
 -1       838-1.65888E+02 1.26483E+05 6.66284E+03-1.09857E+04 1.24396E-09 1.82388E-09
 -1       839 4.26902E+03 1.30125E+05 1.26804E+04-2.21779E+04 1.53318E-09 2.03066E-10
 -1       840-1.28903E+03 1.23867E+05 2.02515E+04-1.10094E+04 1.03773E-09 1.53705E-10
 -1       856-4.17749E+04 3.56265E+03-9.38730E+03-1.96634E+02-2.04665E-09 2.42380E-10
 -1       857-4.56537E+04-4.17940E+03-6.46335E+03 2.15940E+03-1.01581E-09-5.40967E-09
 -1       858-4.33074E+04 4.99416E+02-2.43623E+03-2.02428E+02-2.23767E-09-4.07908E-10
 -1       859-4.38928E+04-5.82033E+02-1.47163E+03 2.16839E+03 6.13767E-10 4.63953E-09
 -1       860-4.35367E+04 6.96226E+01-6.18770E+02-2.05656E+02 2.29804E-10-1.05649E-09
 -1       861-4.36281E+04-7.85719E+01-3.44825E+02 2.17273E+03-2.85279E-09-1.55018E-09
 -1       862-4.35725E+04 9.38514E+00-1.52140E+02-2.06775E+02 2.41006E-09-2.90357E-09
 -1       863-4.35859E+04-7.60680E+00-7.53959E+01 2.17323E+03 5.20318E-09-5.56599E-09
 -1       864-4.35790E+04 1.78763E-01-2.39691E+01-2.06163E+02 1.97338E-09-2.42983E-09
 -1       865-4.35743E+04 8.63952E+00 1.31951E+01 2.17002E+03 2.44087E-09 2.97162E-09
 -1       866-4.35837E+04-6.85528E+00 4.99404E+01-2.03561E+02-8.32557E-10-2.20902E-09
 -1       867-4.35460E+04 5.81580E+01 1.37264E+02 2.16300E+03 1.88788E-09-1.46888E-09
 -1       868-4.36065E+04-4.86210E+01 2.32295E+02-1.99144E+02-5.91825E-10-5.86169E-10
 -1       869-4.33735E+04 4.04930E+02 6.22791E+02 2.15067E+03-3.09377E-09-3.83214E-09
 -1       870-4.37550E+04-3.44446E+02 9.04303E+02-1.91234E+02-2.00174E-10-3.00497E-09
 -1       871-1.92257E+03-4.01685E+03-6.30054E+03 4.13198E+04 1.71758E-09-9.77252E-10
 -1       872-8.29583E+02-5.42278E+03-2.56579E+03 5.35669E+04 1.70098E-09 2.44427E-11
 -1       873-9.83738E+00-4.75421E+03 3.76702E+02 4.12277E+04 1.49930E-09 8.34632E-09
 -1       874 9.85155E+02-3.83710E+03 3.59808E+03 5.35865E+04 3.17470E-09 1.27256E-08
 -1       875 2.32176E+03-5.61537E+03 7.97508E+03 4.13025E+04 1.62481E-09 3.90423E-09
 -1       876 1.03547E+05 1.78277E+04 5.55282E+03 4.19896E+04-1.70178E-09-7.50333E-11
 -1       877 1.03863E+05 1.90473E+04 2.96522E+03 4.36342E+04-4.90218E-10-5.95890E-10
 -1       878 1.04067E+05 1.72121E+04 1.24237E+03 4.24452E+04 2.34741E-09 1.13664E-09
 -1       879 1.03108E+05 1.82954E+04 6.18805E+02 4.36751E+04 1.52090E-09 5.51643E-09
 -1       880 1.04106E+05 1.72045E+04 2.88129E+02 4.24638E+04-2.80329E-09-4.15400E-09
 -1       881 1.03058E+05 1.82637E+04 1.53389E+02 4.36684E+04 3.34671E-09-3.11864E-09
 -1       882 1.04110E+05 1.72086E+04 9.74022E+01 4.24643E+04 3.33591E-09 1.77263E-09
 -1       883 1.03054E+05 1.82624E+04 1.03483E+02 4.36667E+04 2.07820E-10 4.28673E-09
 -1       884 1.04108E+05 1.72072E+04 1.63549E+02 4.24644E+04 1.50339E-09 1.04012E-09
 -1       885 1.03067E+05 1.82647E+04 3.28164E+02 4.36710E+04 2.47575E-09 1.71468E-10
 -1       886 1.04096E+05 1.71977E+04 6.61129E+02 4.24631E+04 2.86461E-09 4.47739E-09
 -1       887 1.03183E+05 1.83408E+04 1.44410E+03 4.36875E+04-3.54134E-10-1.59224E-09
 -1       888 1.04004E+05 1.72141E+04 2.90998E+03 4.24170E+04 2.08914E-10 1.64096E-09
 -1       889 1.04918E+05 2.01412E+04 6.95206E+03 4.36317E+04 1.62229E-09-2.36651E-09
 -1       890 1.02817E+05 1.86233E+04 1.30203E+04 4.13079E+04 1.39607E-09 1.17689E-09
 -1       891-6.07211E+01-5.89035E+04-6.92541E+02 1.12054E+04 6.03222E-10 2.50310E-09
 -1       892-1.06023E+02-5.90727E+04-7.54771E+02 1.69621E+04 3.29692E-11-9.23137E-11
 -1       893-1.27632E+01-5.89276E+04-1.07942E+03 1.12073E+04 7.45672E-10-4.17231E-10
 -1       894-5.81507E+02-5.94938E+04-2.24276E+03 1.69024E+04-7.07132E-10 6.82121E-13
 -1       895-4.52000E+02-5.84663E+04-3.95132E+03 1.12646E+04 1.59912E-09-7.68978E-10
 -1       956-1.30023E+05-1.87587E+03-4.72172E+03 8.59172E+03-2.18961E-09-2.16926E-09
 -1       957-1.30955E+05-6.34307E+02-2.42415E+03 1.03401E+04-1.40130E-09-2.95643E-09
 -1       958-1.30439E+05-5.18679E+01-1.09196E+03 8.53621E+03 1.02636E-09-3.53225E-10
 -1       959-1.30512E+05-1.19058E+01-5.57859E+02 1.04002E+04-7.24867E-10 1.39312E-09
 -1       960-1.30474E+05 1.27545E+01-2.71817E+02 8.53121E+03-2.08661E-09-4.14730E-10
 -1       961-1.30478E+05 1.02512E+01-1.44181E+02 1.04057E+04-3.66845E-09 2.55159E-09
 -1       962-1.30480E+05 9.81027E+00-8.22859E+01 8.53063E+03-2.12606E-09 2.50407E-09
 -1       963-1.30475E+05 1.00447E+01-6.57067E+01 1.04065E+04-2.18574E-09 2.61173E-09
 -1       964-1.30481E+05 1.02334E+01-7.92407E+01 8.53043E+03-7.72957E-10 4.05123E-10
 -1       965-1.30480E+05 1.12449E+01-1.36493E+02 1.04064E+04-5.30855E-10 2.16477E-09
 -1       966-1.30477E+05 1.39752E+01-2.55892E+02 8.53068E+03-5.52245E-09 1.38016E-10
 -1       967-1.30514E+05-8.55170E+00-5.24669E+02 1.04033E+04-7.19888E-09 4.81498E-09
 -1       968-1.30446E+05-4.58040E+01-1.02654E+03 8.53355E+03-3.39287E-09-9.01750E-10
 -1       969-1.30932E+05-5.92825E+02-2.27919E+03 1.03683E+04 8.53674E-10-2.03283E-09
 -1       970-1.30056E+05-1.76009E+03-4.43911E+03 8.56643E+03-4.23483E-10 2.22599E-09
 -1       971-1.23606E+05-6.54558E+02-3.63951E+03 6.10456E+03-2.41380E-09-3.16803E-10
 -1       972-1.24491E+05-4.71660E+02-1.98242E+03 8.51311E+03-2.41607E-09 9.06539E-10
 -1       973-1.24009E+05-5.81013E+00-8.87299E+02 6.05514E+03-1.60549E-09 1.67461E-09
 -1       974-1.24068E+05-8.42507E+00-4.59821E+02 8.56597E+03-4.02792E-10 4.11632E-09
 -1       975-1.24038E+05 9.57686E+00-2.29100E+02 6.05136E+03-4.47017E-10 9.33142E-10
 -1       976-1.24041E+05 9.15385E+00-1.31259E+02 8.57025E+03-2.24691E-09-2.80806E-09
 -1       977-1.24042E+05 8.38521E+00-9.33564E+01 6.05083E+03 1.83218E-09 2.33894E-09
 -1       978-1.24041E+05 1.04087E+01-1.06797E+02 8.57097E+03 6.24215E-09-2.94506E-10
 -1       979-1.24042E+05 1.07537E+01-1.69352E+02 6.05063E+03 3.55928E-09 6.46310E-11
 -1       980-1.24053E+05 1.12224E+01-3.25596E+02 8.57101E+03 2.94123E-09-5.02666E-10
 -1       981-1.24031E+05 1.89317E+01-6.29768E+02 6.05078E+03-1.49328E-10 8.34547E-10
 -1       982-1.24140E+05-3.48482E+01-1.30124E+03 8.56882E+03-2.19990E-09 2.60510E-09
 -1       983-1.23953E+05-2.06720E+01-2.52789E+03 6.05288E+03 4.29168E-10 7.06052E-10
 -1       984-1.25357E+05-1.35380E+03-5.66066E+03 8.53528E+03-5.08180E-10 1.35924E-09
 -1       985-1.22810E+05-1.86964E+03-1.03947E+04 6.08570E+03 2.81102E-09 1.88629E-09
 -3
    1PSTEP                         3           2           1          
  100CL  102 3.12500E-01         409                     0    2           1
 -4  DISP        4    1
 -5  D1          1    2    1    0
 -5  D2          1    2    2    0
 -5  D3          1    2    3    0
 -5  ALL         1    2    0    0    1ALL
 -1         1 8.16646E-05 0.00000E+00 0.00000E+00
 -1         2 7.48013E-05 1.19478E-30 3.30872E-24
 -1         3 6.96351E-05-1.45138E-27 3.30872E-24
 -1         5 5.01473E-05 2.20210E-26 0.00000E+00
 -1         8 6.51839E-05-5.91520E-07 0.00000E+00
 -1         9 6.62037E-05 5.28087E-07 0.00000E+00
 -1        10 6.45391E-05-9.52409E-07-3.30872E-24
 -1        12 4.97924E-05 3.40516E-07 0.00000E+00
 -1        15 4.55744E-05-6.38533E-07 0.00000E+00
 -1        16 4.71060E-05 4.46590E-07 0.00000E+00
 -1        17 4.81189E-05-1.99942E-06 0.00000E+00
 -1        18 4.80692E-05 1.35344E-07 0.00000E+00
 -1        19 4.87278E-05 6.79174E-07 0.00000E+00
 -1        20 4.88173E-05 1.00910E-05 0.00000E+00
 -1        21 4.84804E-05 1.90811E-05 0.00000E+00
 -1        24 1.22980E-05-2.67622E-06 0.00000E+00
 -1        25 4.69378E-05 2.13342E-07 0.00000E+00
 -1        26 4.75587E-05 9.46334E-07 0.00000E+00
 -1        27 4.66172E-05 8.57697E-06 0.00000E+00
 -1        28 4.63126E-05 1.87900E-05 0.00000E+00
 -1        32 0.00000E+00 0.00000E+00 0.00000E+00
 -1        33 4.55764E-05 1.26913E-06 0.00000E+00
 -1        34 4.46661E-05 8.56352E-06 0.00000E+00
 -1        35 4.38010E-05 1.86365E-05 0.00000E+00
 -1        51 8.05924E-05-9.81265E-08 0.00000E+00
 -1        52 7.86054E-05-1.93452E-07 0.00000E+00
 -1        53 7.58837E-05-2.89301E-07 0.00000E+00
 -1        54 7.26145E-05-3.86584E-07 0.00000E+00
 -1        55 6.89852E-05-4.85905E-07 4.23930E-24
 -1        56 8.09160E-05-4.63976E-07 1.32349E-23
 -1        57 8.02485E-05-1.22851E-06 0.00000E+00
 -1        58 7.96627E-05-2.20668E-06-2.64698E-23
 -1        59 7.91223E-05-3.32051E-06-1.32349E-23
 -1        60 7.85997E-05-4.48255E-06-2.64698E-23
 -1        61 7.80619E-05-5.60641E-06-1.32349E-23
 -1        62 7.74778E-05-6.60682E-06-2.64698E-23
 -1        63 7.68164E-05-7.40123E-06 1.32349E-23
 -1        64 7.60500E-05-7.91526E-06 0.00000E+00
 -1        65 7.51527E-05-8.08003E-06 1.32349E-23
 -1        66 7.41039E-05-7.84070E-06 0.00000E+00
 -1        67 7.28863E-05-7.15014E-06-1.32349E-23
 -1        68 7.14882E-05-5.97972E-06 2.64698E-23
 -1        69 6.99064E-05-4.30848E-06 0.00000E+00
 -1        70 6.81348E-05-2.13906E-06-1.32349E-23
 -1        86 7.45905E-05 9.29315E-08-3.30872E-24
 -1        87 7.39576E-05 1.85292E-07-8.27181E-25
 -1        88 7.28626E-05 2.77213E-07-1.65436E-24
 -1        89 7.12641E-05 3.65978E-07 0.00000E+00
 -1        90 6.90745E-05 4.54511E-07 1.65436E-24
 -1       121 6.94931E-05-1.58221E-07-6.61744E-24
 -1       122 6.90673E-05-3.16523E-07 0.00000E+00
 -1       123 6.83580E-05-4.74986E-07 0.00000E+00
 -1       124 6.73661E-05-6.33715E-07 0.00000E+00
 -1       125 6.60926E-05-7.92744E-07-6.61744E-24
 -1       191 5.01375E-05 5.67570E-08 0.00000E+00
 -1       192 5.01079E-05 1.13513E-07-3.30872E-24
 -1       193 5.00586E-05 1.70268E-07 0.00000E+00
 -1       194 4.99896E-05 2.27022E-07 0.00000E+00
 -1       195 4.99008E-05 2.83772E-07-3.30872E-24
 -1       251 6.52336E-05 2.11926E-06-3.30872E-24
 -1       252 6.52974E-05 3.73327E-06-1.03398E-25
 -1       253 6.53616E-05 4.43558E-06 0.00000E+00
 -1       254 6.54282E-05 4.40859E-06 8.27181E-25
 -1       255 6.54947E-05 3.80905E-06 1.65436E-24
 -1       256 6.55614E-05 2.79211E-06 8.27181E-25
 -1       257 6.56278E-05 1.49811E-06 1.65436E-24
 -1       258 6.56941E-05 6.66338E-08 0.00000E+00
 -1       259 6.57604E-05-1.36765E-06 1.65436E-24
 -1       260 6.58268E-05-2.67004E-06 0.00000E+00
 -1       261 6.58934E-05-3.70116E-06 1.65436E-24
 -1       262 6.59599E-05-4.32092E-06 0.00000E+00
 -1       263 6.60265E-05-4.37459E-06 0.00000E+00
 -1       264 6.60905E-05-3.70590E-06 0.00000E+00
 -1       265 6.61543E-05-2.13311E-06 0.00000E+00
 -1       266 6.19156E-05-6.07472E-07-3.30872E-24
 -1       267 5.86474E-05-6.14318E-07 0.00000E+00
 -1       268 5.53791E-05-6.21741E-07 0.00000E+00
 -1       269 5.21109E-05-6.27456E-07 2.06795E-25
 -1       270 4.88426E-05-6.33130E-07 0.00000E+00
 -1       271 6.31979E-05 1.84279E-06 0.00000E+00
 -1       272 6.15124E-05 3.38605E-06 0.00000E+00
 -1       273 6.01213E-05 4.15140E-06 0.00000E+00
 -1       274 5.89761E-05 4.24758E-06-1.32349E-23
 -1       275 5.80361E-05 3.79577E-06-2.64698E-23
 -1       276 5.72532E-05 2.92210E-06 1.32349E-23
 -1       277 5.65786E-05 1.75861E-06 2.64698E-23
 -1       278 5.59617E-05 4.40671E-07 1.32349E-23
 -1       279 5.53511E-05-8.94300E-07-2.64698E-23
 -1       280 5.46954E-05-2.10865E-06 0.00000E+00
 -1       281 5.39439E-05-3.06640E-06 0.00000E+00
 -1       282 5.30470E-05-3.63461E-06-1.32349E-23
 -1       283 5.19565E-05-3.68559E-06 0.00000E+00
 -1       284 5.06293E-05-3.09684E-06 0.00000E+00
 -1       285 4.90184E-05-1.75668E-06 0.00000E+00
 -1       301 6.29683E-05 5.10471E-07-3.30872E-24
 -1       302 5.97344E-05 5.02728E-07 0.00000E+00
 -1       303 5.65166E-05 4.95289E-07 0.00000E+00
 -1       304 5.33295E-05 4.86794E-07 0.00000E+00
 -1       305 5.01878E-05 4.76797E-07 0.00000E+00
 -1       306 6.41559E-05 2.90519E-06 2.64698E-23
 -1       307 6.24230E-05 4.34731E-06 0.00000E+00
 -1       308 6.10346E-05 4.88067E-06-2.64698E-23
 -1       309 5.99663E-05 4.54378E-06-1.32349E-23
 -1       310 5.91754E-05 3.46602E-06 2.64698E-23
 -1       311 5.86042E-05 1.79749E-06-1.32349E-23
 -1       312 5.81754E-05-2.52409E-07 2.64698E-23
 -1       313 5.78062E-05-2.46281E-06-1.32349E-23
 -1       314 5.74084E-05-4.59653E-06 2.64698E-23
 -1       315 5.68946E-05-6.41875E-06 1.32349E-23
 -1       316 5.61885E-05-7.72620E-06-2.64698E-23
 -1       317 5.52208E-05-8.33117E-06 0.00000E+00
 -1       318 5.39456E-05-8.11624E-06-2.64698E-23
 -1       319 5.23340E-05-6.98675E-06 1.32349E-23
 -1       320 5.03753E-05-4.94401E-06 1.32349E-23
 -1       336 6.26698E-05-1.12509E-06-6.61744E-24
 -1       337 6.04493E-05-1.29871E-06-1.65436E-24
 -1       338 5.78802E-05-1.47307E-06 3.30872E-24
 -1       339 5.49661E-05-1.64810E-06-1.65436E-24
 -1       340 5.17108E-05-1.82416E-06-3.30872E-24
 -1       406 4.96642E-05 3.97252E-07 0.00000E+00
 -1       407 4.95163E-05 4.53967E-07 0.00000E+00
 -1       408 4.93486E-05 5.10644E-07-3.30872E-24
 -1       409 4.91613E-05 5.67214E-07 0.00000E+00
 -1       410 4.89543E-05 6.23564E-07 0.00000E+00
 -1       521 4.42892E-05 2.14381E-06 5.29396E-23
 -1       522 4.18813E-05 2.56759E-06-2.64698E-23
 -1       523 3.99305E-05 1.78584E-06 0.00000E+00
 -1       524 3.83799E-05-9.78639E-08-2.64698E-23
 -1       525 3.71395E-05-2.81323E-06-5.29396E-23
 -1       526 3.60907E-05-6.04921E-06 0.00000E+00
 -1       527 3.50915E-05-9.41862E-06-5.29396E-23
 -1       528 3.39950E-05-1.25279E-05-2.64698E-23
 -1       529 3.26686E-05-1.50205E-05 0.00000E+00
 -1       530 3.09916E-05-1.65737E-05 0.00000E+00
 -1       531 2.88924E-05-1.69998E-05 5.29396E-23
 -1       532 2.63239E-05-1.61719E-05 0.00000E+00
 -1       533 2.33030E-05-1.41441E-05 5.29396E-23
 -1       534 1.98833E-05-1.10309E-05 0.00000E+00
 -1       535 1.61532E-05-7.11095E-06 5.29396E-23
 -1       536 4.81058E-05 1.34863E-06 0.00000E+00
 -1       537 4.81000E-05 3.87899E-06 0.00000E+00
 -1       538 4.80954E-05 5.67205E-06 0.00000E+00
 -1       539 4.80926E-05 6.80830E-06 1.03398E-25
 -1       540 4.80904E-05 7.37095E-06 0.00000E+00
 -1       541 4.80885E-05 7.44328E-06 5.16988E-26
 -1       542 4.80866E-05 7.11053E-06 1.03398E-25
 -1       543 4.80846E-05 6.45796E-06-2.58494E-26
 -1       544 4.80825E-05 5.57211E-06 0.00000E+00
 -1       545 4.80802E-05 4.53948E-06 2.58494E-26
 -1       546 4.80779E-05 3.44723E-06-2.58494E-26
 -1       547 4.80756E-05 2.38246E-06 0.00000E+00
 -1       548 4.80734E-05 1.43219E-06 2.58494E-26
 -1       549 4.80716E-05 6.83427E-07-5.16988E-26
 -1       550 4.80699E-05 2.22412E-07 2.06795E-25
 -1       551 4.33675E-05-2.10283E-06 3.30872E-24
 -1       552 3.76841E-05-2.20920E-06 8.27181E-25
 -1       553 3.13999E-05-2.31910E-06-1.65436E-24
 -1       554 2.48507E-05-2.43223E-06 0.00000E+00
 -1       555 1.83723E-05-2.54673E-06-1.32349E-23
 -1       556 4.68742E-05 1.22970E-06 0.00000E+00
 -1       557 4.59233E-05 3.69689E-06 0.00000E+00
 -1       558 4.52341E-05 5.47250E-06 0.00000E+00
 -1       559 4.47774E-05 6.63240E-06 0.00000E+00
 -1       560 4.45241E-05 7.25226E-06 0.00000E+00
 -1       561 4.44451E-05 7.40815E-06 0.00000E+00
 -1       562 4.45117E-05 7.17621E-06 0.00000E+00
 -1       563 4.46951E-05 6.63262E-06 0.00000E+00
 -1       564 4.49667E-05 5.85361E-06 3.30872E-24
 -1       565 4.52978E-05 4.91545E-06 0.00000E+00
 -1       566 4.56599E-05 3.89440E-06 0.00000E+00
 -1       567 4.60245E-05 2.86677E-06 2.06795E-25
 -1       568 4.63631E-05 1.90882E-06 0.00000E+00
 -1       569 4.66471E-05 1.09673E-06 0.00000E+00
 -1       570 4.68479E-05 5.06731E-07 0.00000E+00
 -1       571 4.81091E-05 1.95529E-07 0.00000E+00
 -1       572 4.81500E-05 2.28513E-07-1.03398E-25
 -1       573 4.81911E-05 2.39138E-07 1.65436E-24
 -1       574 4.82323E-05 2.32499E-07 0.00000E+00
 -1       575 4.82736E-05 2.13714E-07 0.00000E+00
 -1       576 4.83149E-05 1.87936E-07 4.13590E-25
 -1       577 4.83562E-05 1.60321E-07 0.00000E+00
 -1       578 4.83975E-05 1.36029E-07-2.48154E-24
 -1       579 4.84389E-05 1.20220E-07 0.00000E+00
 -1       580 4.84802E-05 1.18055E-07 0.00000E+00
 -1       581 4.85215E-05 1.34692E-07 0.00000E+00
 -1       582 4.85628E-05 1.75287E-07 3.30872E-24
 -1       583 4.86041E-05 2.44988E-07 0.00000E+00
 -1       584 4.86454E-05 3.48890E-07 0.00000E+00
 -1       585 4.86866E-05 4.92061E-07 3.30872E-24
 -1       586 4.78665E-05 1.49158E-07 0.00000E+00
 -1       587 4.76464E-05 1.62622E-07 0.00000E+00
 -1       588 4.74261E-05 1.75936E-07-4.13590E-25
 -1       589 4.72230E-05 1.89038E-07 0.00000E+00
 -1       590 4.70546E-05 2.01783E-07 0.00000E+00
 -1       591 4.80275E-05 2.16456E-07 0.00000E+00
 -1       592 4.79927E-05 2.75043E-07 0.00000E+00
 -1       593 4.79645E-05 3.15391E-07 0.00000E+00
 -1       594 4.79416E-05 3.41358E-07-2.06795E-25
 -1       595 4.79226E-05 3.56857E-07 4.13590E-25
 -1       596 4.79060E-05 3.65768E-07-2.06795E-25
 -1       597 4.78904E-05 3.71971E-07-4.13590E-25
 -1       598 4.78743E-05 3.79345E-07 0.00000E+00
 -1       599 4.78564E-05 3.91765E-07-2.06795E-25
 -1       600 4.78352E-05 4.13108E-07-2.06795E-25
 -1       601 4.78091E-05 4.47250E-07 0.00000E+00
 -1       602 4.77768E-05 4.98073E-07 1.03398E-25
 -1       603 4.77369E-05 5.69456E-07 0.00000E+00
 -1       604 4.76880E-05 6.65313E-07 0.00000E+00
 -1       605 4.76286E-05 7.89503E-07 0.00000E+00
 -1       606 4.87355E-05 9.60242E-07 0.00000E+00
 -1       607 4.87417E-05 1.30030E-06 0.00000E+00
 -1       608 4.87475E-05 1.69589E-06 0.00000E+00
 -1       609 4.87531E-05 2.14309E-06 0.00000E+00
 -1       610 4.87586E-05 2.63800E-06 0.00000E+00
 -1       611 4.87641E-05 3.17664E-06 0.00000E+00
 -1       612 4.87695E-05 3.75500E-06 1.65436E-24
 -1       613 4.87749E-05 4.36913E-06 0.00000E+00
 -1       614 4.87803E-05 5.01503E-06 0.00000E+00
 -1       615 4.87857E-05 5.68870E-06 0.00000E+00
 -1       616 4.87910E-05 6.38618E-06-8.27181E-25
 -1       617 4.87964E-05 7.10346E-06 0.00000E+00
 -1       618 4.88017E-05 7.83656E-06 4.13590E-25
 -1       619 4.88070E-05 8.58151E-06 0.00000E+00
 -1       620 4.88122E-05 9.33430E-06 0.00000E+00
 -1       621 4.85046E-05 7.23731E-07 0.00000E+00
 -1       622 4.82972E-05 7.68506E-07-8.27181E-25
 -1       623 4.81023E-05 8.13274E-07 1.65436E-24
 -1       624 4.79165E-05 8.57971E-07 8.27181E-25
 -1       625 4.77365E-05 9.02591E-07 0.00000E+00
 -1       626 4.86701E-05 9.74254E-07 0.00000E+00
 -1       627 4.85944E-05 1.31819E-06 0.00000E+00
 -1       628 4.85022E-05 1.70645E-06 0.00000E+00
 -1       629 4.83951E-05 2.13420E-06 0.00000E+00
 -1       630 4.82751E-05 2.59661E-06 0.00000E+00
 -1       631 4.81439E-05 3.08881E-06 8.27181E-25
 -1       632 4.80033E-05 3.60592E-06-1.65436E-24
 -1       633 4.78553E-05 4.14307E-06 0.00000E+00
 -1       634 4.77015E-05 4.69539E-06 1.65436E-24
 -1       635 4.75438E-05 5.25801E-06-8.27181E-25
 -1       636 4.73841E-05 5.82605E-06 0.00000E+00
 -1       637 4.72242E-05 6.39465E-06 0.00000E+00
 -1       638 4.70659E-05 6.95892E-06-8.27181E-25
 -1       639 4.69109E-05 7.51400E-06 4.13590E-25
 -1       640 4.67610E-05 8.05499E-06-8.27181E-25
 -1       656 4.81887E-05 9.84465E-06-3.30872E-24
 -1       657 4.77820E-05 9.58848E-06 0.00000E+00
 -1       658 4.75114E-05 9.33310E-06 0.00000E+00
 -1       659 4.72894E-05 9.07792E-06 0.00000E+00
 -1       660 4.70224E-05 8.82194E-06 0.00000E+00
 -1       661 4.85847E-05 1.08325E-05 0.00000E+00
 -1       662 4.83659E-05 1.15425E-05-4.13590E-25
 -1       663 4.81585E-05 1.22216E-05 0.00000E+00
 -1       664 4.79626E-05 1.28714E-05 8.27181E-25
 -1       665 4.77772E-05 1.34930E-05 0.00000E+00
 -1       666 4.76021E-05 1.40876E-05 8.27181E-25
 -1       667 4.74366E-05 1.46564E-05-1.65436E-24
 -1       668 4.72805E-05 1.52005E-05-8.27181E-25
 -1       669 4.71331E-05 1.57211E-05 0.00000E+00
 -1       670 4.69942E-05 1.62192E-05 8.27181E-25
 -1       671 4.68634E-05 1.66958E-05 1.65436E-24
 -1       672 4.67401E-05 1.71520E-05 4.13590E-25
 -1       673 4.66241E-05 1.75887E-05 8.27181E-25
 -1       674 4.65146E-05 1.80067E-05 0.00000E+00
 -1       675 4.64118E-05 1.84072E-05 0.00000E+00
 -1       676 4.81185E-05 1.90323E-05-1.65436E-24
 -1       677 4.77568E-05 1.89835E-05 8.27181E-25
 -1       678 4.73952E-05 1.89348E-05 0.00000E+00
 -1       679 4.70339E-05 1.88862E-05 0.00000E+00
 -1       680 4.66730E-05 1.88376E-05-8.27181E-25
 -1       771 9.85617E-06 1.94506E-06 0.00000E+00
 -1       772 7.72842E-06 5.72182E-06 0.00000E+00
 -1       773 5.90139E-06 8.70371E-06 2.64698E-23
 -1       774 4.35457E-06 1.09428E-05 0.00000E+00
 -1       775 3.06793E-06 1.24921E-05 2.64698E-23
 -1       776 2.02067E-06 1.34055E-05 0.00000E+00
 -1       777 1.19182E-06 1.37380E-05-2.64698E-23
 -1       778 5.60095E-07 1.35453E-05-1.32349E-23
 -1       779 1.04088E-07 1.28839E-05-2.64698E-23
 -1       780-1.97881E-07 1.18110E-05 0.00000E+00
 -1       781-3.67542E-07 1.03844E-05 2.64698E-23
 -1       782-4.26828E-07 8.66239E-06 0.00000E+00
 -1       783-3.97704E-07 6.70370E-06 2.64698E-23
 -1       784-3.02229E-07 4.56744E-06 0.00000E+00
 -1       785-1.62542E-07 2.31294E-06-2.64698E-23
 -1       786 4.69743E-05 2.12200E-07 0.00000E+00
 -1       787 4.70131E-05 2.12419E-07 0.00000E+00
 -1       788 4.70516E-05 2.14512E-07 0.00000E+00
 -1       789 4.70906E-05 2.18991E-07 4.13590E-25
 -1       790 4.71296E-05 2.26585E-07 0.00000E+00
 -1       791 4.71687E-05 2.38024E-07-4.13590E-25
 -1       792 4.72078E-05 2.54381E-07 0.00000E+00
 -1       793 4.72469E-05 2.76738E-07 0.00000E+00
 -1       794 4.72860E-05 3.06710E-07-1.65436E-24
 -1       795 4.73251E-05 3.45925E-07 0.00000E+00
 -1       796 4.73642E-05 3.96831E-07 8.27181E-25
 -1       797 4.74033E-05 4.61898E-07 0.00000E+00
 -1       798 4.74424E-05 5.44850E-07 8.27181E-25
 -1       799 4.74813E-05 6.49446E-07 4.13590E-25
 -1       800 4.75203E-05 7.81366E-07-8.27181E-25
 -1       801 4.37678E-05 2.16125E-07 0.00000E+00
 -1       802 3.43355E-05 1.81103E-07-4.13590E-25
 -1       803 2.19430E-05 1.16525E-07-1.65436E-24
 -1       804 9.89183E-06 5.14697E-08 1.65436E-24
 -1       805 1.47758E-06 2.15916E-08 0.00000E+00
 -1       806 4.68901E-05 1.85680E-07 8.27181E-25
 -1       807 4.68405E-05 1.58216E-07 0.00000E+00
 -1       808 4.67892E-05 1.33986E-07-1.65436E-24
 -1       809 4.67356E-05 1.15563E-07 0.00000E+00
 -1       810 4.66787E-05 1.05514E-07 0.00000E+00
 -1       811 4.66177E-05 1.06370E-07-8.27181E-25
 -1       812 4.65517E-05 1.20657E-07-1.65436E-24
 -1       813 4.64797E-05 1.50897E-07 0.00000E+00
 -1       814 4.64007E-05 1.99609E-07 1.65436E-24
 -1       815 4.63139E-05 2.69313E-07-4.13590E-25
 -1       816 4.62183E-05 3.62525E-07-1.65436E-24
 -1       817 4.61129E-05 4.81762E-07 8.27181E-25
 -1       818 4.59968E-05 6.29540E-07 0.00000E+00
 -1       819 4.58692E-05 8.08365E-07 0.00000E+00
 -1       820 4.57291E-05 1.02074E-06-8.27181E-25
 -1       821 4.75033E-05 1.14364E-06 4.13590E-25
 -1       822 4.74444E-05 1.37276E-06 0.00000E+00
 -1       823 4.73857E-05 1.64407E-06 1.65436E-24
 -1       824 4.73264E-05 1.96785E-06 0.00000E+00
 -1       825 4.72670E-05 2.34779E-06-1.65436E-24
 -1       826 4.72075E-05 2.78741E-06 0.00000E+00
 -1       827 4.71479E-05 3.28273E-06-1.65436E-24
 -1       828 4.70883E-05 3.82965E-06-8.27181E-25
 -1       829 4.70287E-05 4.41754E-06 0.00000E+00
 -1       830 4.69690E-05 5.03569E-06 0.00000E+00
 -1       831 4.69094E-05 5.66958E-06 1.65436E-24
 -1       832 4.68499E-05 6.30465E-06 0.00000E+00
 -1       833 4.67904E-05 6.92616E-06 0.00000E+00
 -1       834 4.67316E-05 7.51947E-06 0.00000E+00
 -1       835 4.66727E-05 8.07342E-06 4.13590E-25
 -1       836 4.73184E-05 1.00007E-06 0.00000E+00
 -1       837 4.70072E-05 1.05499E-06-8.27181E-25
 -1       838 4.66511E-05 1.10981E-06 1.65436E-24
 -1       839 4.62764E-05 1.16429E-06 0.00000E+00
 -1       840 4.59095E-05 1.21868E-06 0.00000E+00
 -1       856 4.66003E-05 9.08997E-06-1.03398E-25
 -1       857 4.65814E-05 9.66783E-06 0.00000E+00
 -1       858 4.65627E-05 1.03003E-05 4.13590E-25
 -1       859 4.65436E-05 1.09771E-05-2.06795E-25
 -1       860 4.65244E-05 1.16879E-05 0.00000E+00
 -1       861 4.65052E-05 1.24224E-05 0.00000E+00
 -1       862 4.64859E-05 1.31702E-05 4.13590E-25
 -1       863 4.64666E-05 1.39209E-05 2.06795E-25
 -1       864 4.64473E-05 1.46641E-05 0.00000E+00
 -1       865 4.64280E-05 1.53896E-05 0.00000E+00
 -1       866 4.64088E-05 1.60868E-05 0.00000E+00
 -1       867 4.63895E-05 1.67456E-05 0.00000E+00
 -1       868 4.63703E-05 1.73556E-05 8.27181E-25
 -1       869 4.63511E-05 1.79064E-05 0.00000E+00
 -1       870 4.63320E-05 1.83880E-05 0.00000E+00
 -1       871 4.62261E-05 8.57649E-06-2.06795E-25
 -1       872 4.58972E-05 8.57471E-06 0.00000E+00
 -1       873 4.56038E-05 8.57270E-06 0.00000E+00
 -1       874 4.53188E-05 8.57038E-06 0.00000E+00
 -1       875 4.50152E-05 8.56777E-06 0.00000E+00
 -1       876 4.64815E-05 9.09531E-06-1.65436E-24
 -1       877 4.63352E-05 9.64520E-06 8.27181E-25
 -1       878 4.61787E-05 1.02228E-05 1.65436E-24
 -1       879 4.60132E-05 1.08246E-05 8.27181E-25
 -1       880 4.58400E-05 1.14470E-05 0.00000E+00
 -1       881 4.56605E-05 1.20865E-05 0.00000E+00
 -1       882 4.54758E-05 1.27394E-05 0.00000E+00
 -1       883 4.52875E-05 1.34024E-05 8.27181E-25
 -1       884 4.50967E-05 1.40717E-05 0.00000E+00
 -1       885 4.49048E-05 1.47438E-05 0.00000E+00
 -1       886 4.47132E-05 1.54153E-05 0.00000E+00
 -1       887 4.45232E-05 1.60825E-05 0.00000E+00
 -1       888 4.43359E-05 1.67419E-05-1.65436E-24
 -1       889 4.41527E-05 1.73898E-05 4.13590E-25
 -1       890 4.39747E-05 1.80229E-05 8.27181E-25
 -1       891 4.59648E-05 1.87644E-05 0.00000E+00
 -1       892 4.56057E-05 1.87386E-05 0.00000E+00
 -1       893 4.52226E-05 1.87128E-05 0.00000E+00
 -1       894 4.48026E-05 1.86871E-05 0.00000E+00
 -1       895 4.43330E-05 1.86614E-05-3.10193E-25
 -1       956 4.55205E-05 1.59107E-06-8.27181E-25
 -1       957 4.54638E-05 1.94949E-06 4.13590E-25
 -1       958 4.54069E-05 2.34060E-06 0.00000E+00
 -1       959 4.53498E-05 2.76038E-06 8.27181E-25
 -1       960 4.52927E-05 3.20482E-06 0.00000E+00
 -1       961 4.52356E-05 3.66986E-06-8.27181E-25
 -1       962 4.51785E-05 4.15147E-06 1.65436E-24
 -1       963 4.51214E-05 4.64559E-06-8.27181E-25
 -1       964 4.50643E-05 5.14818E-06 0.00000E+00
 -1       965 4.50071E-05 5.65518E-06 0.00000E+00
 -1       966 4.49500E-05 6.16256E-06 0.00000E+00
 -1       967 4.48929E-05 6.66625E-06-8.27181E-25
 -1       968 4.48358E-05 7.16221E-06 1.65436E-24
 -1       969 4.47788E-05 7.64641E-06 0.00000E+00
 -1       970 4.47220E-05 8.11481E-06-1.65436E-24
 -1       971 4.46127E-05 9.02448E-06 0.00000E+00
 -1       972 4.45586E-05 9.53361E-06 8.27181E-25
 -1       973 4.45043E-05 1.00856E-05 0.00000E+00
 -1       974 4.44500E-05 1.06748E-05 0.00000E+00
 -1       975 4.43957E-05 1.12958E-05 0.00000E+00
 -1       976 4.43413E-05 1.19431E-05-8.27181E-25
 -1       977 4.42869E-05 1.26110E-05 0.00000E+00
 -1       978 4.42324E-05 1.32940E-05 0.00000E+00
 -1       979 4.41780E-05 1.39866E-05 1.65436E-24
 -1       980 4.41236E-05 1.46832E-05 8.27181E-25
 -1       981 4.40692E-05 1.53783E-05-1.65436E-24
 -1       982 4.40149E-05 1.60663E-05 8.27181E-25
 -1       983 4.39606E-05 1.67417E-05 0.00000E+00
 -1       984 4.39066E-05 1.73988E-05-1.65436E-24
 -1       985 4.38528E-05 1.80322E-05 1.65436E-24
 -3
    1PSTEP                         4           2           1          
  100CL  102 3.12500E-01         409                     0    2           1
 -4  STRESS      6    1
 -5  SXX         1    4    1    1
 -5  SYY         1    4    2    2
 -5  SZZ         1    4    3    3
 -5  SXY         1    4    1    2
 -5  SYZ         1    4    2    3
 -5  SZX         1    4    3    1
 -1         1-1.07817E+06-4.96671E+05-2.19206E+05-6.97822E+05 4.72937E-11 1.94268E-09
 -1         2 2.00181E+03 2.68393E+05 6.39983E+03 5.06664E+02-4.22517E-10-6.71376E-09
 -1         3-3.09735E+01-4.52207E+05 1.04504E+02-1.03319E+02-7.89964E-11 1.69712E-09
 -1         5-3.18660E+00 1.62392E+05 4.25275E+00-2.28817E-02 6.51387E-11-7.76299E-09
 -1         8-5.09517E+05-2.21758E+05-1.75169E+04-3.85591E+05-4.91127E-11-1.54614E-09
 -1         9-8.68727E+05-2.11294E+05-8.11253E+04-3.01471E+05 1.39989E-09 5.64032E-09
 -1        10-3.43530E+02-4.71106E+05-6.02004E+02-6.90149E+02-2.21621E-09-1.12892E-08
 -1        12-1.44140E+00 1.62401E+05 1.37876E+02 1.11307E-01 1.03388E-10 8.05812E-10
 -1        15 1.34488E+03 7.39085E+02 4.34732E+03 1.90074E+00-2.14253E-09-6.75527E-07
 -1        16-2.45619E+06-7.89806E+05-3.81831E+05-8.02796E+05 7.20320E-09-2.45442E-09
 -1        17-5.41861E+05-3.34285E+05-1.04262E+05-3.15273E+05-3.29237E-09-1.00408E-09
 -1        18 1.91071E+04 1.75539E+03-7.69266E+03-3.82315E+04 5.06702E-10 1.42563E-10
 -1        19 5.08875E+04 6.06868E+04-2.81514E+02 9.96974E+03-4.16640E-10 2.56478E-10
 -1        20-2.11034E+04-2.40525E+05-5.30358E+04 1.78802E+04 2.42509E-09 5.69344E-10
 -1        21-2.27746E+01-1.39534E+05-4.50711E+02-3.46364E+01-4.26685E-09-6.70078E-09
 -1        24-2.15758E+06-7.49183E+05-3.07930E+05-9.13391E+05-1.02931E-08-6.10695E-09
 -1        25 1.90713E+04-2.54414E+03 1.13598E+04-6.90523E+04 2.38379E-10 2.31557E-09
 -1        26-1.17640E+04 4.14747E+04-8.22356E+03-5.93522E+03 1.01500E-09 1.09509E-09
 -1        27-3.85199E+04-1.31981E+05-4.95137E+04 2.97432E+04 3.82450E-09-4.42545E-09
 -1        28 1.07838E+04-3.85443E+04 7.87679E+03 1.23674E+04 3.24913E-09-1.41085E-10
 -1        32-5.14614E+05-7.54866E+04 2.22374E+05-3.46913E+05-1.01936E-08 9.02679E-09
 -1        33-7.54898E+04 3.88224E+04 1.37629E+04-2.25504E+04 7.17402E-10-4.53989E-10
 -1        34-9.80113E+04-9.75373E+03 2.31725E+02 3.01324E+04 2.75988E-09 8.01492E-10
 -1        35-1.09716E+04-1.53298E+04-5.98052E+02 2.43022E+04 3.66305E-09 1.08776E-09
 -1        51 9.88603E+03-2.54315E+05 2.43748E+04-6.29991E+05 0.00000E+00-2.80124E-09
 -1        52 5.22532E+03-2.52373E+05 1.61530E+04-7.34770E+05 3.45608E-10-6.11180E-10
 -1        53 3.43792E+03-2.58999E+05 1.41170E+04-6.27844E+05 3.74712E-10-2.83762E-09
 -1        54 1.07591E+04-2.56898E+05 2.28910E+04-7.37046E+05-1.16415E-10-1.37261E-08
 -1        55 2.35602E+04-2.65305E+05 4.11930E+04-6.27557E+05 2.25555E-10-4.38013E-09
 -1        56-2.07079E+06-2.34075E+05-1.61798E+05-7.98600E+05 2.43745E-10-1.33150E-09
 -1        57-2.13581E+06-3.80365E+05-1.09050E+05-7.92339E+05-4.54747E-10 3.53430E-09
 -1        58-2.10315E+06-2.85446E+05-3.80872E+04-7.88621E+05 3.06045E-10 1.24419E-09
 -1        59-2.09837E+06-3.20144E+05-2.27370E+04-8.04328E+05-1.39801E-09 4.94583E-09
 -1        60-2.10792E+06-2.92568E+05-8.90086E+03-7.87229E+05-2.49202E-10 5.37511E-10
 -1        61-2.09332E+06-3.11322E+05-5.06076E+03-8.05384E+05-1.42052E-10-1.95564E-09
 -1        62-2.10813E+06-2.94052E+05-2.43837E+03-7.87630E+05 8.51855E-10-5.77140E-09
 -1        63-2.09411E+06-3.08741E+05-2.00180E+03-8.03731E+05-1.75203E-09-4.87717E-10
 -1        64-2.10709E+06-2.95150E+05-2.29938E+03-7.88862E+05-6.94399E-10 2.77964E-10
 -1        65-2.09724E+06-3.07034E+05-4.59581E+03-8.00539E+05 9.14952E-10-6.15080E-09
 -1        66-2.10496E+06-2.95813E+05-8.09102E+03-7.90779E+05-1.12004E-09-1.61026E-09
 -1        67-2.10538E+06-3.11334E+05-2.05267E+04-7.95341E+05-2.48951E-09-5.71163E-09
 -1        68-2.09896E+06-2.91074E+05-3.44606E+04-7.93968E+05-1.78261E-10-3.62888E-09
 -1        69-2.14218E+06-3.62830E+05-9.85313E+04-7.81196E+05-4.32010E-11-1.81899E-10
 -1        70-2.06846E+06-2.45869E+05-1.46267E+05-8.04371E+05-2.49202E-10 3.71074E-10
 -1        86-1.00159E+03 2.66521E+05 6.86392E+03-2.53340E+02 1.61435E-11-3.86407E-09
 -1        87 6.61860E+03 2.70653E+05 1.43257E+04 1.06781E+03-2.19416E-10-2.43841E-09
 -1        88-5.61158E+03 2.64262E+05 2.19008E+04-8.14491E+02-2.95586E-10-6.11249E-09
 -1        89 4.15401E+04 2.86941E+05 5.91644E+04 2.40780E+03-2.71029E-10 2.24266E-09
 -1        90-3.58617E+04 2.50243E+05 8.34221E+04-1.59317E+03-5.23869E-10 5.64717E-09
 -1       121-5.42680E+01-4.52378E+05 9.90375E+01 5.16205E+01 2.50125E-10-2.33740E-09
 -1       122 3.38899E+00-4.52184E+05 2.28260E+02-2.06761E+02-8.51099E-10-1.06229E-09
 -1       123-7.92027E+01-4.52403E+05 3.69559E+02 1.54911E+02 7.37202E-10 4.53656E-09
 -1       124 4.24358E+02-4.51925E+05 9.57584E+02-4.92598E+02-1.63720E-09 2.00453E-09
 -1       125-3.52845E+02-4.52641E+05 1.46858E+03 3.37446E+02 1.02045E-09-7.05040E-09
 -1       191-3.48637E+00 1.62406E+05 5.07772E+00 1.11561E-02 1.09219E-10 9.64974E-10
 -1       192-3.57718E+00 1.62392E+05 9.00512E+00 2.76212E-01 1.52634E-10 7.57609E-10
 -1       193-4.52507E+00 1.62406E+05 1.67421E+01-2.89328E-01 1.77732E-10-3.65617E-09
 -1       194-4.83423E+00 1.62394E+05 3.40642E+01 7.76041E-01 9.02762E-11-2.38742E-09
 -1       195-6.52157E+00 1.62404E+05 6.66273E+01-4.92010E-01 2.69420E-10-4.43288E-09
 -1       251 1.77403E+05-3.16810E+04 7.40177E+04 2.89784E+03 1.67347E-10-3.88900E-09
 -1       252 2.10863E+05 3.66620E+04 5.24712E+04-9.70428E+03-2.63640E-10-4.08363E-10
 -1       253 1.90097E+05-4.90600E+03 1.91588E+04 2.07732E+03 4.23768E-10-3.56431E-09
 -1       254 1.95930E+05 5.66967E+03 1.21008E+04-8.40669E+03 5.01785E-10-3.22530E-09
 -1       255 1.92283E+05-7.58107E+02 4.95098E+03 1.60041E+03 3.19375E-10 4.22961E-09
 -1       256 1.93321E+05 8.99354E+02 3.00935E+03-7.70151E+03 1.36993E-11 3.27344E-09
 -1       257 1.92682E+05-1.32864E+02 1.55181E+03 1.37213E+03 1.22029E-10 8.77975E-09
 -1       258 1.92916E+05 2.81381E+02 1.37956E+03-7.47084E+03-4.93392E-10 8.50505E-10
 -1       259 1.92680E+05-1.36472E+02 1.58588E+03 1.36974E+03-7.33849E-11 4.90473E-09
 -1       260 1.93335E+05 9.30931E+02 3.10652E+03-7.69254E+03 2.37577E-10 3.06142E-09
 -1       261 1.92271E+05-7.85777E+02 5.12815E+03 1.59383E+03 5.06276E-10-4.39286E-10
 -1       262 1.96026E+05 5.87832E+03 1.25387E+04-8.38731E+03 7.97669E-10 3.30033E-09
 -1       263 1.90012E+05-5.08586E+03 1.98643E+04 2.06452E+03-5.96799E-10 5.95355E-09
 -1       264 2.11480E+05 3.80084E+04 5.43892E+04-9.67382E+03-1.65892E-09 1.58616E-09
 -1       265 1.76869E+05-3.28418E+04 7.67450E+04 2.88017E+03-1.03728E-09 1.93540E-09
 -1       266-2.43468E+04-1.13846E+04 5.71244E+04-4.06700E+01-3.30328E-09-1.06152E-06
 -1       267 2.82248E+04 1.32689E+04 4.03748E+04 4.69251E+01-6.59975E-09-2.09971E-06
 -1       268-3.78489E+03-1.87925E+03 1.50071E+04-5.97907E+00-5.24233E-09-1.69055E-06
 -1       269 4.46884E+03 2.24906E+03 9.75438E+03 6.96472E+00-3.97085E-09-1.26823E-06
 -1       270-6.70778E+02-3.69539E+02 4.70858E+03-9.45159E-01-2.93039E-09-9.32421E-07
 -1       271-2.39215E+06-2.97882E+05-1.84067E+05-9.31168E+05 1.24419E-09-5.20959E-09
 -1       272-2.44320E+06-4.47185E+05-1.18343E+05-9.46802E+05-2.66709E-10-6.25914E-09
 -1       273-2.42713E+06-3.43371E+05-4.34777E+04-9.22600E+05-5.75938E-10 5.05679E-10
 -1       274-2.40238E+06-3.91404E+05-2.43429E+04-9.59990E+05 9.92259E-10 6.55609E-09
 -1       275-2.43252E+06-3.47498E+05-1.01134E+04-9.20506E+05 5.24324E-10 2.71575E-09
 -1       276-2.39602E+06-3.86559E+05-5.37763E+03-9.63369E+05-7.06450E-10 4.41105E-10
 -1       277-2.43373E+06-3.47398E+05-2.63013E+03-9.19685E+05-5.56383E-10 3.14344E-09
 -1       278-2.39487E+06-3.86543E+05-1.91326E+03-9.64352E+05 9.37121E-10 1.60355E-09
 -1       279-2.43380E+06-3.47378E+05-2.05277E+03-9.19638E+05-7.68637E-10-1.62231E-09
 -1       280-2.39567E+06-3.86435E+05-3.76130E+03-9.63596E+05-7.41466E-10 1.17916E-09
 -1       281-2.43283E+06-3.47606E+05-6.88053E+03-9.20352E+05-8.47194E-10-2.88037E-09
 -1       282-2.40036E+06-3.89208E+05-1.64277E+04-9.60692E+05 1.05274E-10 1.71349E-09
 -1       283-2.42884E+06-3.45215E+05-2.93299E+04-9.22162E+05 5.27507E-10 1.90266E-09
 -1       284-2.42863E+06-4.25891E+05-7.97275E+04-9.50671E+05-3.23780E-10-3.67436E-10
 -1       285-2.40472E+06-3.15179E+05-1.24099E+05-9.28564E+05 8.27640E-10 5.67525E-10
 -1       301 9.29295E+03-5.68657E+03 7.24372E+04-1.75644E+04-6.65750E-10 2.27465E-09
 -1       302 9.97513E+03 1.26973E+04 5.22027E+04-2.58480E+04 9.27685E-10-8.44693E-11
 -1       303 4.33857E+02 8.33997E+02 4.78930E+04-1.76025E+04-4.60204E-10 4.07908E-10
 -1       304 1.86448E+04 2.06946E+04 8.03871E+04-2.57766E+04 7.57609E-10-1.86265E-09
 -1       305 1.84742E+04-1.36370E+04 1.34809E+05-1.75888E+04-3.27418E-10-9.69521E-10
 -1       306-2.57528E+06-2.96599E+05-1.95668E+05-1.00452E+06 1.56069E-09-8.80391E-10
 -1       307-2.67259E+06-4.65513E+05-1.33414E+05-9.74661E+05 2.00453E-09-1.95723E-09
 -1       308-2.61980E+06-3.57316E+05-4.60391E+04-9.86073E+05 4.00632E-10 1.21872E-10
 -1       309-2.61756E+06-3.98390E+05-2.78876E+04-1.00043E+06-6.68592E-10 3.30101E-09
 -1       310-2.63010E+06-3.62525E+05-1.08056E+04-9.79175E+05-1.08157E-09 3.29965E-09
 -1       311-2.60425E+06-3.93878E+05-6.26413E+03-1.01038E+06 1.99091E-09 3.14412E-09
 -1       312-2.63317E+06-3.61583E+05-3.06448E+03-9.76260E+05-7.76708E-10 4.78633E-09
 -1       313-2.60167E+06-3.94327E+05-2.76603E+03-1.01278E+06-1.88100E-09 1.77522E-10
 -1       314-2.63272E+06-3.62028E+05-3.32967E+03-9.76808E+05-9.90326E-10-3.29237E-09
 -1       315-2.60605E+06-3.92399E+05-7.01967E+03-1.00829E+06-1.01932E-09 2.85274E-09
 -1       316-2.62872E+06-3.63588E+05-1.22490E+04-9.80689E+05 1.92577E-09 3.60887E-09
 -1       317-2.62161E+06-3.97164E+05-3.16599E+04-9.96599E+05 5.77558E-10-2.94676E-10
 -1       318-2.61710E+06-3.57531E+05-5.22849E+04-9.88357E+05-2.15459E-09 6.61021E-09
 -1       319-2.68346E+06-4.74253E+05-1.51577E+05-9.68363E+05-1.39698E-09-2.32831E-10
 -1       320-2.56716E+06-2.87821E+05-2.22221E+05-1.00847E+06 4.61296E-09-1.61526E-09
 -1       336 3.54627E+02-4.89728E+05-2.60578E+03 3.52261E+02-4.28417E-09 2.26555E-09
 -1       337-9.39103E+02-4.90451E+05-2.85457E+03-9.50027E+02-7.97786E-09 1.62936E-09
 -1       338 2.33443E+02-4.89805E+05-3.59304E+03 5.96245E+02-5.77199E-09-2.79215E-10
 -1       339-3.71500E+03-4.92152E+05-7.86770E+03-1.43362E+03-1.08184E-08-3.06727E-09
 -1       340 2.52828E+03-4.88047E+05-1.21218E+04 8.33075E+02-7.05950E-09 4.98312E-09
 -1       406 9.08254E+00 1.62398E+05 2.72202E+02 3.72895E-01 3.26850E-10-5.92945E-09
 -1       407 9.34685E+01 1.62449E+05 5.78554E+02-6.68206E+00 9.66338E-11-2.17590E-08
 -1       408 2.96360E+02 1.62357E+05 1.15550E+03 6.38396E+00 5.24210E-10-7.27277E-09
 -1       409 1.24810E+03 1.62818E+05 2.60147E+03-5.83588E+01 6.82121E-13-3.30692E-09
 -1       410 3.58859E+03 1.62028E+05 5.31084E+03 5.33857E+01 4.61114E-10-5.04474E-09
 -1       521-4.85963E+06-5.61407E+05-3.63910E+05-1.89055E+06 3.23053E-09-2.15368E-09
 -1       522-5.03573E+06-8.74460E+05-2.47277E+05-1.84049E+06-1.44610E-10-1.41881E-10
 -1       523-4.94433E+06-6.70282E+05-8.55626E+04-1.85395E+06 3.01043E-10-3.41970E-09
 -1       524-4.93123E+06-7.53974E+05-5.15691E+04-1.89124E+06 1.01682E-09 2.81034E-10
 -1       525-4.96353E+06-6.79055E+05-1.99733E+04-1.84078E+06 1.34116E-09 1.05047E-09
 -1       526-4.90918E+06-7.43571E+05-1.15112E+04-1.90669E+06 9.54202E-10-1.60128E-09
 -1       527-4.96644E+06-6.80141E+05-5.52643E+03-1.83876E+06 3.10342E-09-1.03682E-09
 -1       528-4.91227E+06-7.35950E+05-4.69354E+03-1.90107E+06 2.37799E-09 3.21194E-09
 -1       529-4.96026E+06-6.86729E+05-5.61286E+03-1.84630E+06 3.90401E-10 1.44883E-09
 -1       530-4.93136E+06-7.20160E+05-1.12532E+04-1.87921E+06 4.68390E-10-6.79847E-11
 -1       531-4.94704E+06-6.96208E+05-2.00043E+04-1.86036E+06-1.18780E-09 7.84894E-10
 -1       532-4.96831E+06-7.15916E+05-5.10798E+04-1.84760E+06-6.80700E-10-4.22006E-09
 -1       533-4.92344E+06-6.91381E+05-8.49119E+04-1.87779E+06 2.19734E-09-5.12955E-10
 -1       534-5.07366E+06-8.35381E+05-2.45544E+05-1.79810E+06 6.37556E-10 5.80985E-09
 -1       535-4.84290E+06-5.79152E+05-3.60985E+05-1.90932E+06-7.71252E-09 5.71890E-09
 -1       536-1.16956E+04-1.35802E+04 3.12809E+04 2.94811E+02-3.71443E-10 2.37924E-09
 -1       537 2.78410E+03 1.57132E+04 2.22871E+04-1.19888E+03-5.09746E-09 7.52152E-09
 -1       538-6.33318E+03-2.12837E+03 8.06864E+03 2.81419E+02 1.36566E-11 5.52973E-10
 -1       539-3.54235E+03 2.45689E+03 5.15229E+03-1.19648E+03 1.27974E-09-1.74822E-09
 -1       540-5.37588E+03-3.31232E+02 2.03708E+03 2.92412E+02 1.97289E-10 8.32188E-10
 -1       541-4.71627E+03 3.78874E+02 1.21709E+03-1.21681E+03 7.52554E-10-1.33036E-09
 -1       542-5.16341E+03-4.90153E+01 4.87876E+02 3.01742E+02-8.06601E-10-3.65742E-09
 -1       543-4.99971E+03 4.67671E+01 2.45454E+02-1.23162E+03-1.41206E-10 3.21347E-09
 -1       544-5.09514E+03 2.59216E+00 3.43215E+01 3.07224E+02-5.96469E-10-4.40308E-09
 -1       545-5.11008E+03-6.14388E+01-1.47074E+02-1.23855E+03-7.46562E-10 7.08329E-10
 -1       546-5.05429E+03 6.00242E+01-3.42182E+02 3.08670E+02 2.82567E-10 1.84289E-09
 -1       547-5.28927E+03-4.44689E+02-9.04677E+02-1.23733E+03-1.11475E-09 5.77018E-10
 -1       548-4.91571E+03 3.85394E+02-1.46847E+03 3.06007E+02-1.43150E-09-2.70967E-09
 -1       549-6.32796E+03-2.84113E+03-4.00461E+03-1.22701E+03-9.38787E-10 3.69408E-09
 -1       550-4.01383E+03 2.45334E+03-5.70475E+03 2.98347E+02 3.36584E-11 3.86922E-09
 -1       551 4.25263E+03-2.57815E+05 1.43340E+04-4.42414E+05-1.94777E-08-7.82893E-09
 -1       552 8.67275E+03-2.57719E+05 1.85557E+04-6.29524E+05-1.45228E-08-2.91038E-09
 -1       553 5.53153E+03-2.61104E+05 2.89307E+04-4.41006E+05-2.36978E-08 1.03137E-09
 -1       554 2.27676E+04-2.48226E+05 6.14457E+04-6.30125E+05-1.40863E-08 3.89946E-09
 -1       555 2.33778E+04-2.72883E+05 1.10484E+05-4.41612E+05-2.29302E-08-3.02134E-09
 -1       556 3.58029E+04-8.22249E+04 2.86054E+04-1.10126E+05-6.45014E-09-1.09067E-08
 -1       557 6.92092E+04-1.10321E+05 1.49629E+04-1.37541E+05-1.45519E-11-4.25280E-09
 -1       558 3.62091E+04-8.63344E+04 6.13921E+03-1.06557E+05-1.81899E-09 1.58252E-10
 -1       559 6.52787E+04-1.14421E+05 3.08648E+03-1.39132E+05 2.88128E-09 2.18279E-11
 -1       560 3.56177E+04-8.59243E+04 1.32232E+03-1.06893E+05 1.99725E-09 8.72569E-09
 -1       561 6.42137E+04-1.14235E+05 6.81737E+02-1.39796E+05-1.28057E-09 3.70483E-09
 -1       562 3.51115E+04-8.55707E+04 2.78577E+02-1.07262E+05-2.44836E-09 3.02543E-09
 -1       563 6.36034E+04-1.13976E+05 1.59546E+02-1.40185E+05-2.27010E-09-1.21673E-09
 -1       564 3.47963E+04-8.53631E+04 5.92262E+01-1.07488E+05-1.33332E-09 1.52932E-09
 -1       565 6.32904E+04-1.13844E+05 2.80101E+01-1.40380E+05-2.13731E-09 9.57698E-09
 -1       566 3.46889E+04-8.52890E+04-2.02646E+01-1.07567E+05-5.45424E-09 1.57070E-09
 -1       567 6.32464E+04-1.13821E+05-8.20599E+01-1.40367E+05 2.38617E-09 2.45927E-09
 -1       568 3.48108E+04-8.53709E+04-2.12522E+02-1.07521E+05 1.40062E-09 9.01127E-09
 -1       569 6.30494E+04-1.13703E+05-5.01639E+02-1.39783E+05 1.98997E-09 7.46422E-09
 -1       570 3.55106E+04-8.60558E+04-1.03219E+03-1.07596E+05 4.95857E-09 6.54381E-09
 -1       571 1.17776E+05 4.27005E+03 6.32498E+03-2.95814E+04 3.85171E-10 1.36288E-09
 -1       572 1.18719E+05 1.48526E+03 3.09861E+03-3.24262E+04 9.05857E-10-4.15525E-10
 -1       573 1.18158E+05 3.53986E+02 1.37651E+03-2.95041E+04-8.90986E-09-1.12095E-09
 -1       574 1.18271E+05 1.14404E+02 6.89519E+02-3.25129E+04-2.11953E-08-4.56453E-09
 -1       575 1.18202E+05 1.49304E+01 3.24931E+02-2.94939E+04-1.26732E-08-2.45950E-09
 -1       576 1.18210E+05 3.16114E+00 1.65302E+02-3.25245E+04-1.04311E-09-4.46335E-10
 -1       577 1.18209E+05-3.29294E+00 8.13693E+01-2.94925E+04 1.28671E-09-1.00545E-09
 -1       578 1.18204E+05-1.90872E+00 4.42433E+01-3.25259E+04 2.79556E-10-2.76486E-10
 -1       579 1.18214E+05-3.35640E+00 2.69710E+01-2.94925E+04-7.98309E-10-2.48474E-09
 -1       580 1.18209E+05-3.67774E+00 2.49488E+01-3.25240E+04-8.59700E-10-1.26602E-09
 -1       581 1.18222E+05-5.31694E+00 3.37976E+01-2.94943E+04-6.78028E-10 1.20735E-09
 -1       582 1.18226E+05 7.12591E-01 6.41242E+01-3.25063E+04-9.07676E-10-1.14801E-09
 -1       583 1.18230E+05 1.81615E+01 1.23291E+02-2.95102E+04-9.54969E-10 1.95757E-09
 -1       584 1.18281E+05 1.15350E+02 2.76113E+02-3.23746E+04-1.21963E-09-3.95062E-10
 -1       585 1.18211E+05 3.60083E+02 5.61254E+02-2.96263E+04 7.88532E-10-2.96677E-09
 -1       586-1.46624E+03 3.83795E+04-1.93364E+03-1.00782E+05 3.17641E-10-1.01386E-09
 -1       587-3.27599E+02 3.81221E+04-2.33506E+02-1.10902E+05 5.59339E-10-1.69567E-09
 -1       588 3.89635E+02 3.81719E+04 1.33376E+03-1.00720E+05 3.06500E-10-8.78117E-10
 -1       589 1.98959E+03 3.89003E+04 3.90838E+03-1.10810E+05 4.72937E-10-6.44832E-10
 -1       590 5.73715E+03 3.76784E+04 8.37950E+03-1.00874E+05 2.51930E-10 1.66574E-09
 -1       591-2.56293E+04-7.35844E+03-8.55258E+03-1.33138E+04-1.17950E-10-1.74896E-09
 -1       592-2.64274E+04-9.46177E+03-4.63243E+03-1.55474E+04 1.97815E-11 2.97803E-10
 -1       593-2.64938E+04-6.72832E+03-1.92851E+03-1.39311E+04 3.82875E-09-8.65384E-10
 -1       594-2.52352E+04-8.21885E+03-9.61859E+02-1.56065E+04 8.46353E-09-8.20754E-09
 -1       595-2.65598E+04-6.72558E+03-4.42037E+02-1.39594E+04 8.26475E-09 8.63463E-09
 -1       596-2.51544E+04-8.16195E+03-2.25341E+02-1.55980E+04 8.96364E-10 6.34643E-09
 -1       597-2.65682E+04-6.73110E+03-1.24050E+02-1.39605E+04-9.70726E-10-2.77140E-09
 -1       598-2.51467E+04-8.15977E+03-1.02187E+02-1.55957E+04 4.55941E-10 2.62844E-09
 -1       599-2.65677E+04-6.73104E+03-1.33578E+02-1.39603E+04-1.24277E-09-4.16719E-10
 -1       600-2.51555E+04-8.16262E+03-2.50630E+02-1.55980E+04-2.17079E-09-7.64231E-10
 -1       601-2.65574E+04-6.72491E+03-4.95659E+02-1.39587E+04-4.45596E-09-3.77383E-09
 -1       602-2.52465E+04-8.22639E+03-1.08102E+03-1.56068E+04-5.37557E-09-2.06740E-10
 -1       603-2.64825E+04-6.72889E+03-2.16817E+03-1.39272E+04-4.41173E-09 4.87489E-10
 -1       604-2.65915E+04-9.61897E+03-5.20849E+03-1.55342E+04-1.52545E-09-4.83294E-09
 -1       605-2.55049E+04-7.44143E+03-9.61593E+03-1.32380E+04-5.01188E-10 1.05229E-09
 -1       606 1.68482E+04-5.66780E+03-1.02108E+04 1.64883E+04-2.73667E-09 9.19954E-10
 -1       607 1.50997E+04-1.82800E+03-5.08459E+03 1.85091E+04-1.33241E-10-6.21628E-09
 -1       608 1.60967E+04-3.07225E+02-2.27644E+03 1.63567E+04 1.78716E-09-2.17744E-09
 -1       609 1.59009E+04-8.15844E+01-1.14998E+03 1.86545E+04-1.61162E-09 6.12636E-09
 -1       610 1.60101E+04 1.31145E+01-5.48945E+02 1.63421E+04-3.19778E-09 3.83989E-09
 -1       611 1.59747E+04 1.80671E+01-2.77012E+02 1.86705E+04-5.90035E-09 3.05977E-09
 -1       612 1.59899E+04 1.95382E+01-1.32337E+02 1.63406E+04-2.24281E-09 3.02566E-09
 -1       613 1.59777E+04 2.06194E+01-6.04448E+01 1.86724E+04-3.68368E-09-5.65456E-09
 -1       614 1.59799E+04 1.78644E+01-1.68217E+01 1.63401E+04-6.57110E-10-4.34807E-09
 -1       615 1.59742E+04 2.19456E+01 1.86545E+01 1.86728E+04 4.49268E-09 9.80094E-10
 -1       616 1.59723E+04 1.96587E+01 6.21526E+01 1.63402E+04-1.69894E-09-3.12866E-10
 -1       617 1.59803E+04 3.62032E+01 1.44085E+02 1.86725E+04-3.66413E-10-4.57999E-09
 -1       618 1.59586E+04 6.19710E+01 2.91348E+02 1.63403E+04 8.84484E-11 4.81350E-10
 -1       619 1.60824E+04 2.62201E+02 6.54810E+02 1.86721E+04-4.70664E-10 3.14799E-10
 -1       620 1.58612E+04 7.53888E+02 1.31635E+03 1.63399E+04 1.36288E-09 7.35781E-10
 -1       621 2.05638E+02 1.28260E+05 1.77514E+03 4.07723E+03-1.63826E-10-1.59616E-09
 -1       622 2.34965E+02 1.28700E+05 1.50556E+03 5.95111E+03-1.46429E-10-2.64430E-09
 -1       623 1.01821E+01 1.28388E+05 1.73007E+03 4.05797E+03-1.51431E-10 3.20591E-09
 -1       624 7.82853E+02 1.29203E+05 3.28416E+03 5.97004E+03-1.32502E-10-3.24121E-09
 -1       625 7.85741E+02 1.27755E+05 5.70881E+03 4.05847E+03-7.00311E-11-5.10028E-10
 -1       626 1.05804E+05 2.93610E+04 2.11187E+03 5.72594E+04-1.24282E-09 2.24281E-09
 -1       627 1.04351E+05 3.04314E+04 1.01729E+03 5.95804E+04-1.01454E-09-7.27596E-11
 -1       628 1.05887E+05 2.83600E+04 4.29949E+02 5.75791E+04 1.17689E-09 2.68074E-10
 -1       629 1.04049E+05 3.01905E+04 2.10577E+02 5.97225E+04-1.38016E-09-4.92133E-09
 -1       630 1.05895E+05 2.83109E+04 9.75122E+01 5.75894E+04 2.49020E-09 8.54078E-09
 -1       631 1.04015E+05 3.01841E+04 5.23498E+01 5.97260E+04-1.18939E-09-3.63777E-10
 -1       632 1.05893E+05 2.83134E+04 3.46256E+01 5.75860E+04-2.41835E-09 2.14192E-09
 -1       633 1.04009E+05 3.01865E+04 3.86105E+01 5.97234E+04-2.62969E-09-3.05840E-09
 -1       634 1.05888E+05 2.83132E+04 6.25680E+01 5.75841E+04 3.35194E-09 1.36447E-09
 -1       635 1.04013E+05 3.01871E+04 1.26880E+02 5.97238E+04 1.25283E-09 4.73290E-09
 -1       636 1.05882E+05 2.83125E+04 2.56353E+02 5.75825E+04-1.19559E-09 3.38696E-09
 -1       637 1.04065E+05 3.02280E+04 5.63467E+02 5.97211E+04 1.22805E-09 1.55660E-09
 -1       638 1.05859E+05 2.84385E+04 1.15817E+03 5.75242E+04 1.60355E-09 4.51087E-09
 -1       639 1.04669E+05 3.10758E+04 2.73995E+03 5.95403E+04-1.85855E-09-5.91899E-09
 -1       640 1.05776E+05 3.09616E+04 5.68634E+03 5.64528E+04-1.60003E-09-1.90198E-09
 -1       656 2.86910E+04-7.26198E+05-6.92752E+04-5.11103E+02 1.20053E-10-2.09737E-09
 -1       657-3.79098E+04-7.57488E+05-5.72897E+04 4.75248E+03-8.27640E-10 1.08085E-09
 -1       658 9.09562E+03-7.35129E+05-3.51574E+04-9.53699E+02 7.20888E-10-2.44293E-09
 -1       659-4.06402E+04-7.58774E+05-6.08756E+04 5.04383E+03-6.23004E-11-1.63122E-09
 -1       660 3.14140E+04-7.24915E+05-7.54495E+04-8.02446E+02 7.45786E-10 1.68848E-09
 -1       661 1.03293E+05 1.12188E+04 9.89931E+03 4.03249E+04 1.28375E-09-6.22094E-10
 -1       662 1.08420E+05 1.90115E+04 6.67045E+03 3.86354E+04 6.90960E-10-2.55568E-09
 -1       663 1.05229E+05 1.44019E+04 2.33338E+03 3.97691E+04 7.11680E-10 1.66790E-09
 -1       664 1.06182E+05 1.52830E+04 1.39496E+03 3.93084E+04 8.53220E-10-2.02976E-09
 -1       665 1.05517E+05 1.48427E+04 5.50317E+02 3.96913E+04-2.56475E-09-2.30166E-09
 -1       666 1.05847E+05 1.47736E+04 3.20823E+02 3.94059E+04-2.61383E-09-2.74141E-10
 -1       667 1.05562E+05 1.48980E+04 1.69182E+02 3.96766E+04-2.94349E-10-1.65561E-09
 -1       668 1.05801E+05 1.47267E+04 1.69348E+02 3.94255E+04 2.73407E-09 2.57475E-09
 -1       669 1.05563E+05 1.48883E+04 2.26944E+02 3.96721E+04 8.63835E-10 3.70747E-10
 -1       670 1.05863E+05 1.48418E+04 4.91818E+02 3.94195E+04 5.41671E-09-2.26315E-10
 -1       671 1.05501E+05 1.47854E+04 8.72602E+02 3.96817E+04-1.84059E-10 1.60031E-09
 -1       672 1.06376E+05 1.56858E+04 2.23191E+03 3.92912E+04-6.46253E-10-2.11847E-09
 -1       673 1.05052E+05 1.40657E+04 3.74016E+03 3.97924E+04-8.98240E-10-5.72982E-10
 -1       674 1.09942E+05 2.16899E+04 1.06964E+04 3.82394E+04 4.54349E-10-1.15210E-09
 -1       675 1.01958E+05 8.94918E+03 1.58764E+04 4.06702E+04 7.78982E-10 1.52795E-09
 -1       676 1.16947E+01-1.39497E+05-5.43219E+02 1.73186E+01-1.91240E-09 1.86742E-09
 -1       677-1.44191E+02-1.39628E+05-9.94115E+02-3.46317E+01-2.94654E-09 1.04744E-09
 -1       678 9.62738E+01-1.39403E+05-1.75731E+03 1.73011E+01 1.36993E-10 2.24407E-11
 -1       679-1.75752E+03-1.40689E+05-4.17432E+03-3.45537E+01-2.74122E-09-2.64672E-09
 -1       680 1.04881E+03-1.38436E+05-6.72767E+03 1.70417E+01 2.78305E-10-3.11742E-09
 -1       771-1.50055E+06-2.60815E+05-3.64877E+04-6.21064E+05-5.94082E-09-5.25324E-09
 -1       772-1.49116E+06-2.81068E+05-1.96156E+04-6.43618E+05-4.07454E-09 1.84627E-09
 -1       773-1.50534E+06-2.57111E+05-8.40011E+03-6.23108E+05-3.09228E-09 2.63026E-09
 -1       774-1.48582E+06-2.76649E+05-4.10753E+03-6.45512E+05 3.17232E-09-6.83031E-10
 -1       775-1.50628E+06-2.56545E+05-2.03492E+03-6.23230E+05-1.25510E-09 4.80213E-10
 -1       776-1.48565E+06-2.76615E+05-9.49160E+02-6.46400E+05-3.18505E-09 1.20326E-09
 -1       777-1.50688E+06-2.56127E+05-5.62583E+02-6.23278E+05 1.23691E-10 1.09503E-09
 -1       778-1.48579E+06-2.76729E+05-2.57749E+02-6.47130E+05 6.45741E-10 2.80806E-09
 -1       779-1.50735E+06-2.55770E+05-2.40176E+02-6.23319E+05-2.50657E-09-1.21327E-09
 -1       780-1.48594E+06-2.76831E+05-1.98650E+02-6.47721E+05-1.69530E-09-4.00178E-11
 -1       781-1.50769E+06-2.55482E+05-3.50683E+02-6.23346E+05-1.69712E-09 3.89082E-09
 -1       782-1.48611E+06-2.76941E+05-6.53400E+02-6.48157E+05-6.57292E-09-1.85582E-09
 -1       783-1.50789E+06-2.55297E+05-1.30590E+03-6.23350E+05-1.60981E-09-2.40425E-09
 -1       784-1.48697E+06-2.77822E+05-3.09965E+03-6.48387E+05-4.55202E-09 2.27374E-12
 -1       785-1.50744E+06-2.55613E+05-5.72971E+03-6.22941E+05-6.49197E-09 7.74889E-10
 -1       786 1.09214E+05-5.83149E+03 1.34905E+04 1.46196E+00 9.49182E-08 4.71846E-09
 -1       787 1.15060E+05 6.75102E+03 9.54447E+03-7.26510E+00 1.88483E-07 7.55801E-09
 -1       788 1.11469E+05-9.14149E+02 3.49168E+03 2.44891E+00 2.68941E-07 2.86991E-09
 -1       789 1.12433E+05 1.05772E+03 2.19386E+03-9.87734E+00 3.49667E-07 5.25336E-09
 -1       790 1.11842E+05-1.42805E+02 8.92682E+02 4.07423E+00 4.76681E-07-2.05949E-09
 -1       791 1.11998E+05 1.65925E+02 5.24163E+02-1.40655E+01 6.04794E-07 9.14574E-09
 -1       792 1.11904E+05-2.30204E+01 2.39306E+02 6.63710E+00 8.42952E-07-9.43993E-09
 -1       793 1.11928E+05 3.23709E+01 1.56988E+02-2.05997E+01 1.07948E-06 2.75898E-09
 -1       794 1.11912E+05-9.33865E+00 1.16554E+02 1.06086E+01 5.40099E-07-4.55003E-09
 -1       795 1.11935E+05 4.82836E+01 1.68982E+02-3.06707E+01 1.97174E-09 3.80459E-09
 -1       796 1.11897E+05-3.89212E+01 2.53360E+02 1.67083E+01 1.16398E-10 1.67034E-10
 -1       797 1.12050E+05 2.85339E+02 5.97578E+02-4.61058E+01-4.82190E-11-4.41005E-09
 -1       798 1.11797E+05-2.46219E+02 9.43345E+02 2.60440E+01-1.51269E-10-4.75779E-11
 -1       799 1.12758E+05 1.81796E+03 2.57174E+03-6.98568E+01-5.50219E-10 4.03190E-09
 -1       800 1.11189E+05-1.57030E+03 3.63293E+03 4.04594E+01 1.74625E-11 3.40060E-09
 -1       801-6.29689E+03 9.70392E+03 9.79362E+03 1.16031E+04 6.41762E-09-3.63707E-09
 -1       802 1.65284E+04 5.62599E+04 3.17987E+04-4.77762E+04 1.72008E-08 2.93591E-09
 -1       803-9.83401E+03 2.62271E+04 4.08952E+04 1.10217E+04 1.35497E-08 1.28393E-08
 -1       804 7.91773E+04 8.95361E+04 1.13872E+05-4.82945E+04 1.59780E-08 1.29237E-08
 -1       805-6.89653E+04-2.34289E+04 1.48519E+05 1.21204E+04 5.60249E-09 1.56135E-08
 -1       806-1.28375E+05-2.75114E+04-1.09124E+04-5.34670E+04 2.65936E-09-7.77618E-10
 -1       807-1.29016E+05-2.59497E+04-5.36099E+03-5.63617E+04 1.03756E-09-5.74707E-09
 -1       808-1.28685E+05-2.35689E+04-2.27419E+03-5.53182E+04 1.30552E-08-2.61730E-09
 -1       809-1.27872E+05-2.44612E+04-1.11180E+03-5.65165E+04 2.36664E-08-9.77894E-09
 -1       810-1.28733E+05-2.34297E+04-5.09072E+02-5.54001E+04 1.25276E-08-5.64546E-09
 -1       811-1.27785E+05-2.44023E+04-2.52473E+02-5.65038E+04 1.47213E-09-2.86661E-09
 -1       812-1.28742E+05-2.34397E+04-1.25942E+02-5.54001E+04-1.46247E-09-6.67990E-09
 -1       813-1.27774E+05-2.44037E+04-7.94513E+01-5.64976E+04-1.14824E-11-3.33966E-09
 -1       814-1.28742E+05-2.34431E+04-7.44072E+01-5.53987E+04-1.64823E-09 3.34012E-09
 -1       815-1.27776E+05-2.44048E+04-1.16543E+02-5.64963E+04 1.49612E-09 8.39145E-09
 -1       816-1.28735E+05-2.34417E+04-2.18260E+02-5.53976E+04 4.51291E-09-5.41149E-10
 -1       817-1.27814E+05-2.44255E+04-4.68175E+02-5.64932E+04 4.04725E-09 3.76986E-10
 -1       818-1.28708E+05-2.35068E+04-9.54015E+02-5.53669E+04-1.29330E-09-1.70826E-09
 -1       819-1.28342E+05-2.49980E+04-2.24569E+03-5.63666E+04-6.84668E-09-1.43126E-08
 -1       820-1.28527E+05-2.52046E+04-4.57017E+03-5.46437E+04-1.24692E-09-2.33456E-09
 -1       821-1.65925E+05 9.21139E+03-2.13051E+04 9.51181E+00-5.78721E-10-2.37105E-09
 -1       822-1.75157E+05-1.06637E+04-1.50757E+04-1.85283E+02-1.61213E-09 4.53656E-09
 -1       823-1.69488E+05 1.44401E+03-5.51812E+03-2.34022E+01 1.27071E-09 4.88694E-09
 -1       824-1.71006E+05-1.67139E+03-3.47256E+03-1.07992E+02 1.58527E-10 5.06162E-09
 -1       825-1.70076E+05 2.26089E+02-1.42655E+03-6.77818E+01-2.51788E-09 3.24110E-09
 -1       826-1.70323E+05-2.66665E+02-8.62810E+02-1.95150E+01-4.28674E-09 5.66334E-09
 -1       827-1.70171E+05 4.03077E+01-4.45149E+02-1.11881E+02-3.02585E-09 1.74779E-10
 -1       828-1.70229E+05-8.15031E+01-3.95177E+02 5.70592E+01-2.39261E-09-3.74535E-09
 -1       829-1.70170E+05 4.10773E+01-4.51801E+02-1.44358E+02 1.93011E-10-3.42595E-10
 -1       830-1.70329E+05-2.73164E+02-8.83087E+02 1.02051E+02 1.69325E-09 4.44832E-09
 -1       831-1.70071E+05 2.31866E+02-1.46175E+03-1.56873E+02-2.02508E-09 4.54065E-09
 -1       832-1.71030E+05-1.71423E+03-3.56187E+03 1.04167E+02-1.40812E-09-2.53692E-09
 -1       833-1.69469E+05 1.48110E+03-5.65964E+03-1.46473E+02-1.10633E-09 2.55068E-09
 -1       834-1.75286E+05-1.09378E+04-1.54636E+04 6.41607E+01-7.95763E-10 4.79758E-09
 -1       835-1.65816E+05 9.44823E+03-2.18534E+04-1.16863E+02 2.41187E-09-1.85355E-09
 -1       836-5.53270E+02 1.57343E+05 9.47254E+03-1.38246E+04 1.21054E-09 1.97042E-09
 -1       837 2.08121E+03 1.60278E+05 8.08322E+03-2.77828E+04 1.73475E-09-2.07319E-09
 -1       838-2.05569E+02 1.58162E+05 8.33116E+03-1.37764E+04 1.54955E-09 7.76822E-10
 -1       839 5.34123E+03 1.62714E+05 1.58542E+04-2.78006E+04 2.05182E-09 9.40474E-10
 -1       840-1.60976E+03 1.54892E+05 2.53199E+04-1.38060E+04 1.33878E-09 3.13537E-09
 -1       856-5.21647E+04 4.45148E+03-1.17297E+04-2.51105E+02-2.59536E-09 1.14960E-09
 -1       857-5.70111E+04-5.22170E+03-8.07602E+03 2.68983E+03-1.98462E-09-2.27874E-09
 -1       858-5.40794E+04 6.23929E+02-3.04416E+03-2.59656E+02-1.44908E-09-4.43174E-09
 -1       859-5.48112E+04-7.26582E+02-1.83879E+03 2.70325E+03 5.72129E-10-4.72019E-09
 -1       860-5.43659E+04 8.69169E+01-7.73168E+02-2.64583E+02 7.35596E-10 2.95074E-10
 -1       861-5.44808E+04-9.74280E+01-4.30845E+02 2.70992E+03-4.36985E-09-1.74042E-09
 -1       862-5.44105E+04 1.16583E+01-1.90075E+02-2.66339E+02 3.48455E-09-2.96296E-10
 -1       863-5.44281E+04-8.74175E+00-9.41596E+01 2.71071E+03 6.75804E-09 1.45714E-09
 -1       864-5.44187E+04 1.44460E-01-2.98720E+01-2.65372E+02 3.77604E-09-2.77264E-10
 -1       865-5.44134E+04 1.15450E+01 1.66966E+01 2.70572E+03 2.81468E-09-2.72703E-09
 -1       866-5.44247E+04-8.69886E+00 6.26896E+01-2.61357E+02-1.39383E-09-2.11351E-09
 -1       867-5.43775E+04 7.35821E+01 1.72362E+02 2.69487E+03-2.19958E-09 1.26541E-09
 -1       868-5.44534E+04-6.11560E+01 2.91438E+02-2.54517E+02 1.18496E-09 4.58975E-09
 -1       869-5.41603E+04 5.08662E+02 7.81740E+02 2.67626E+03 6.94783E-10 2.49757E-09
 -1       870-5.46400E+04-4.32505E+02 1.13467E+03-2.42752E+02 3.15373E-09 2.51094E-09
 -1       871-2.41294E+03-5.02663E+03-7.87900E+03 5.16568E+04 2.27101E-09 3.29874E-09
 -1       872-1.04529E+03-6.78556E+03-3.20842E+03 6.69682E+04 3.52975E-09 3.18073E-09
 -1       873-1.79973E+01-5.95357E+03 4.70300E+02 5.15421E+04 1.04592E-09 3.42618E-09
 -1       874 1.22421E+03-4.80488E+03 4.49728E+03 6.69926E+04 2.22838E-09 8.94352E-09
 -1       875 2.89464E+03-7.02734E+03 9.96773E+03 5.16359E+04 1.43382E-09 6.13818E-09
 -1       876 1.29429E+05 2.22978E+04 6.94103E+03 5.25030E+04-2.08746E-09-1.59253E-09
 -1       877 1.29823E+05 2.38238E+04 3.70656E+03 5.45596E+04-3.95005E-09-2.40141E-09
 -1       878 1.30079E+05 2.15287E+04 1.55295E+03 5.30726E+04 1.12527E-09 1.85707E-09
 -1       879 1.28879E+05 2.28838E+04 7.73524E+02 5.46102E+04-8.94033E-10-4.60969E-09
 -1       880 1.30127E+05 2.15195E+04 3.60152E+02 5.30959E+04 4.84386E-09 5.84475E-09
 -1       881 1.28816E+05 2.28441E+04 1.91747E+02 5.46015E+04 4.22364E-09 1.93513E-09
 -1       882 1.30132E+05 2.15247E+04 1.21756E+02 5.30965E+04 4.24848E-09 4.61984E-09
 -1       883 1.28812E+05 2.28423E+04 1.29370E+02 5.45992E+04 1.81760E-09 3.41254E-09
 -1       884 1.30130E+05 2.15231E+04 2.04457E+02 5.30966E+04-6.87066E-10 9.18533E-10
 -1       885 1.28828E+05 2.28453E+04 4.10242E+02 5.46045E+04 1.36235E-09 6.88999E-09
 -1       886 1.30114E+05 2.15111E+04 8.26473E+02 5.30950E+04 3.38334E-09-3.73541E-09
 -1       887 1.28973E+05 2.29404E+04 1.80524E+03 5.46252E+04-3.80987E-09-1.86742E-09
 -1       888 1.30000E+05 2.15315E+04 3.63767E+03 5.30373E+04 7.02528E-10 4.29736E-10
 -1       889 1.31141E+05 2.51909E+04 8.69043E+03 5.45556E+04 7.64945E-10-5.48880E-09
 -1       890 1.28516E+05 2.32928E+04 1.62761E+04 5.16505E+04 3.45540E-09 1.38061E-09
 -1       891-7.78637E+01-7.36277E+04-8.66193E+02 1.40164E+04 8.89031E-11-2.55704E-09
 -1       892-1.35698E+02-7.38378E+04-9.43742E+02 2.12146E+04 4.56680E-10-9.91542E-09
 -1       893-1.85672E+01-7.36570E+04-1.34958E+03 1.40189E+04 5.79007E-10-2.16369E-09
 -1       894-7.31119E+02-7.43619E+04-2.80369E+03 2.11398E+04-6.30166E-10 3.27145E-09
 -1       895-5.69042E+02-7.30785E+04-4.93993E+03 1.40905E+04-9.55822E-10-1.18234E-09
 -1       956-1.62541E+05-2.34518E+03-5.90453E+03 1.07361E+04-2.97587E-09 1.18212E-09
 -1       957-1.63706E+05-7.92050E+02-3.03135E+03 1.29230E+04-2.77169E-10-1.36811E-09
 -1       958-1.63062E+05-6.38590E+01-1.36553E+03 1.06664E+04 2.46837E-09-3.65776E-09
 -1       959-1.63154E+05-1.31895E+01-6.97583E+02 1.29983E+04-1.92699E-09 2.16448E-09
 -1       960-1.63107E+05 1.74463E+01-3.39927E+02 1.06601E+04-3.12070E-09 1.92483E-09
 -1       961-1.63112E+05 1.49567E+01-1.80282E+02 1.30054E+04-5.03189E-09-1.06593E-09
 -1       962-1.63115E+05 1.41064E+01-1.02893E+02 1.06593E+04-2.42539E-09-5.86056E-10
 -1       963-1.63109E+05 1.49670E+01-8.21345E+01 1.30065E+04-2.48491E-09 1.40437E-09
 -1       964-1.63116E+05 1.48100E+01-9.90482E+01 1.06590E+04-1.49515E-09 1.35140E-09
 -1       965-1.63114E+05 1.65624E+01-1.70605E+02 1.30065E+04 8.57568E-10-8.24457E-10
 -1       966-1.63111E+05 1.94955E+01-3.19861E+02 1.06593E+04-5.27621E-09-3.75314E-09
 -1       967-1.63157E+05-8.26271E+00-6.55841E+02 1.30026E+04-7.83467E-09 1.19894E-09
 -1       968-1.63072E+05-5.53851E+01-1.28323E+03 1.06629E+04-3.59250E-09-8.22013E-10
 -1       969-1.63679E+05-7.38882E+02-2.84911E+03 1.29587E+04-8.45375E-10-3.32055E-09
 -1       970-1.62584E+05-2.19858E+03-5.54920E+03 1.07043E+04-5.77984E-10-1.00772E-09
 -1       971-1.54516E+05-8.17724E+02-4.54959E+03 7.61106E+03-1.74714E-09-1.23404E-09
 -1       972-1.55622E+05-5.88096E+02-2.47803E+03 1.06198E+04-2.48201E-09 8.78799E-10
 -1       973-1.55019E+05-6.24784E+00-1.10924E+03 7.54893E+03-2.12140E-09-4.83169E-11
 -1       974-1.55095E+05-8.46587E+00-5.74780E+02 1.06864E+04 2.70916E-10-1.46429E-10
 -1       975-1.55057E+05 1.34757E+01-2.86426E+02 7.54397E+03-3.81533E-10 5.60988E-10
 -1       976-1.55061E+05 1.39474E+01-1.64067E+02 1.06921E+04-1.56354E-09 7.09935E-09
 -1       977-1.55063E+05 1.23085E+01-1.16705E+02 7.54316E+03 3.00656E-09 2.00373E-09
 -1       978-1.55062E+05 1.57705E+01-1.33482E+02 1.06932E+04 7.95688E-09 1.10151E-09
 -1       979-1.55062E+05 1.54187E+01-2.11684E+02 7.54284E+03 3.07219E-09 7.80409E-09
 -1       980-1.55077E+05 1.68551E+01-4.06993E+02 1.06933E+04 3.35141E-09 1.94638E-09
 -1       981-1.55049E+05 2.56181E+01-7.87241E+02 7.54304E+03-5.91797E-10 1.77937E-09
 -1       982-1.55185E+05-4.08591E+01-1.62664E+03 1.06905E+04-4.66059E-10-5.23708E-09
 -1       983-1.54951E+05-2.40826E+01-3.16009E+03 7.54577E+03 3.34285E-09-5.49858E-09
 -1       984-1.56707E+05-1.69001E+03-7.07638E+03 1.06483E+04-5.49903E-10-2.90402E-09
 -1       985-1.53522E+05-2.33569E+03-1.29944E+04 7.58732E+03 2.59411E-09 1.02227E-09
 -3
    1PSTEP                         5           3           1          
  100CL  103 3.75000E-01         409                     0    3           1
 -4  DISP        4    1
 -5  D1          1    2    1    0
 -5  D2          1    2    2    0
 -5  D3          1    2    3    0
 -5  ALL         1    2    0    0    1ALL
 -1         1 9.81739E-05 0.00000E+00 0.00000E+00
 -1         2 8.97339E-05 5.95993E-31 3.30872E-24
 -1         3 8.39560E-05-1.16242E-28 0.00000E+00
 -1         5 6.03194E-05 1.83388E-26 3.30872E-24
 -1         8 7.83807E-05-7.16241E-07 0.00000E+00
 -1         9 7.96201E-05 6.44303E-07 0.00000E+00
 -1        10 7.77822E-05-1.14702E-06 0.00000E+00
 -1        12 5.98978E-05 4.08915E-07 0.00000E+00
 -1        15 5.48252E-05-7.80130E-07 0.00000E+00
 -1        16 5.66615E-05 5.39514E-07 0.00000E+00
 -1        17 5.79490E-05-2.41289E-06 0.00000E+00
 -1        18 5.78425E-05 2.17837E-07 0.00000E+00
 -1        19 5.86331E-05 8.15579E-07 0.00000E+00
 -1        20 5.87398E-05 1.20610E-05 0.00000E+00
 -1        21 5.83376E-05 2.27981E-05 0.00000E+00
 -1        24 1.47878E-05-3.25054E-06 0.00000E+00
 -1        25 5.65023E-05 3.11659E-07 0.00000E+00
 -1        26 5.72496E-05 1.13636E-06 0.00000E+00
 -1        27 5.61185E-05 1.02436E-05 0.00000E+00
 -1        28 5.57527E-05 2.24487E-05 0.00000E+00
 -1        32 0.00000E+00 0.00000E+00 0.00000E+00
 -1        33 5.48892E-05 1.52379E-06 0.00000E+00
 -1        34 5.37963E-05 1.02273E-05 0.00000E+00
 -1        35 5.27574E-05 2.22644E-05 0.00000E+00
 -1        51 9.68866E-05-1.18273E-07 0.00000E+00
 -1        52 9.45005E-05-2.33351E-07 0.00000E+00
 -1        53 9.12318E-05-3.49320E-07 0.00000E+00
 -1        54 8.73054E-05-4.67291E-07 0.00000E+00
 -1        55 8.29465E-05-5.87928E-07-3.61892E-24
 -1        56 9.72810E-05-5.69814E-07 2.64698E-23
 -1        57 9.64947E-05-1.52541E-06 0.00000E+00
 -1        58 9.58138E-05-2.75692E-06 0.00000E+00
 -1        59 9.51920E-05-4.16374E-06 0.00000E+00
 -1        60 9.45930E-05-5.63203E-06 0.00000E+00
 -1        61 9.39735E-05-7.04890E-06 1.32349E-23
 -1        62 9.32933E-05-8.30344E-06 0.00000E+00
 -1        63 9.25121E-05-9.28892E-06 1.32349E-23
 -1        64 9.15950E-05-9.91145E-06-2.64698E-23
 -1        65 9.05100E-05-1.00856E-05-1.32349E-23
 -1        66 8.92327E-05-9.74769E-06 0.00000E+00
 -1        67 8.77443E-05-8.84559E-06 0.00000E+00
 -1        68 8.60344E-05-7.35490E-06 0.00000E+00
 -1        69 8.41034E-05-5.26291E-06 0.00000E+00
 -1        70 8.19509E-05-2.58996E-06 0.00000E+00
 -1        86 8.94928E-05 1.13579E-07 3.30872E-24
 -1        87 8.87684E-05 2.26453E-07 0.00000E+00
 -1        88 8.75047E-05 3.38742E-07 0.00000E+00
 -1        89 8.56432E-05 4.47117E-07-2.06795E-25
 -1        90 8.30582E-05 5.54957E-07 0.00000E+00
 -1       121 8.37838E-05-1.90434E-07 0.00000E+00
 -1       122 8.32676E-05-3.80985E-07 0.00000E+00
 -1       123 8.24080E-05-5.71771E-07-6.61744E-24
 -1       124 8.12061E-05-7.62938E-07 0.00000E+00
 -1       125 7.96634E-05-9.54547E-07-6.61744E-24
 -1       191 6.03077E-05 6.81580E-08 0.00000E+00
 -1       192 6.02726E-05 1.36315E-07 0.00000E+00
 -1       193 6.02140E-05 2.04470E-07 0.00000E+00
 -1       194 6.01320E-05 2.72624E-07 0.00000E+00
 -1       195 6.00266E-05 3.40772E-07 0.00000E+00
 -1       251 7.84407E-05 2.53446E-06 3.30872E-24
 -1       252 7.85182E-05 4.45779E-06 0.00000E+00
 -1       253 7.85963E-05 5.28476E-06-8.27181E-25
 -1       254 7.86774E-05 5.24244E-06 8.27181E-25
 -1       255 7.87584E-05 4.52061E-06 0.00000E+00
 -1       256 7.88395E-05 3.30670E-06 0.00000E+00
 -1       257 7.89202E-05 1.76685E-06 0.00000E+00
 -1       258 7.90007E-05 6.61177E-08-1.65436E-24
 -1       259 7.90813E-05-1.63747E-06 0.00000E+00
 -1       260 7.91620E-05-3.18585E-06 0.00000E+00
 -1       261 7.92430E-05-4.41423E-06 0.00000E+00
 -1       262 7.93240E-05-5.15677E-06 8.27181E-25
 -1       263 7.94051E-05-5.22657E-06-8.27181E-25
 -1       264 7.94831E-05-4.43445E-06 0.00000E+00
 -1       265 7.95606E-05-2.55417E-06 0.00000E+00
 -1       266 7.44548E-05-7.36629E-07 3.30872E-24
 -1       267 7.05289E-05-7.46090E-07 0.00000E+00
 -1       268 6.66030E-05-7.56243E-07 0.00000E+00
 -1       269 6.26770E-05-7.64346E-07-2.06795E-25
 -1       270 5.87511E-05-7.72401E-07-4.13590E-25
 -1       271 7.59920E-05 2.21400E-06-2.64698E-23
 -1       272 7.39622E-05 4.08067E-06 0.00000E+00
 -1       273 7.22862E-05 5.01317E-06 2.64698E-23
 -1       274 7.09074E-05 5.13788E-06 0.00000E+00
 -1       275 6.97773E-05 4.59828E-06 0.00000E+00
 -1       276 6.88382E-05 3.54552E-06 0.00000E+00
 -1       277 6.80313E-05 2.13925E-06 0.00000E+00
 -1       278 6.72948E-05 5.44103E-07 1.32349E-23
 -1       279 6.65662E-05-1.07233E-06 2.64698E-23
 -1       280 6.57829E-05-2.54210E-06 0.00000E+00
 -1       281 6.48830E-05-3.69967E-06 2.64698E-23
 -1       282 6.38065E-05-4.38396E-06 0.00000E+00
 -1       283 6.24954E-05-4.44154E-06 0.00000E+00
 -1       284 6.08984E-05-3.72682E-06 0.00000E+00
 -1       285 5.89602E-05-2.10925E-06 2.64698E-23
 -1       301 7.57264E-05 6.21968E-07 3.30872E-24
 -1       302 7.18360E-05 6.11467E-07 1.65436E-24
 -1       303 6.79666E-05 6.01348E-07 0.00000E+00
 -1       304 6.41359E-05 5.89987E-07 0.00000E+00
 -1       305 6.03617E-05 5.76861E-07 6.61744E-24
 -1       306 7.71519E-05 3.52803E-06 2.64698E-23
 -1       307 7.50530E-05 5.31369E-06 0.00000E+00
 -1       308 7.33736E-05 5.99384E-06 0.00000E+00
 -1       309 7.20960E-05 5.58298E-06-1.32349E-23
 -1       310 7.11711E-05 4.22999E-06 2.64698E-23
 -1       311 7.05291E-05 2.11608E-06 0.00000E+00
 -1       312 7.00693E-05-4.86733E-07 0.00000E+00
 -1       313 6.96834E-05-3.28867E-06 0.00000E+00
 -1       314 6.92549E-05-5.97590E-06 0.00000E+00
 -1       315 6.86684E-05-8.23889E-06-2.64698E-23
 -1       316 6.78271E-05-9.81902E-06-2.64698E-23
 -1       317 6.66444E-05-1.04827E-05 0.00000E+00
 -1       318 6.50711E-05-1.01052E-05 0.00000E+00
 -1       319 6.30814E-05-8.59760E-06-1.32349E-23
 -1       320 6.06806E-05-6.01053E-06 0.00000E+00
 -1       336 7.55198E-05-1.35530E-06 0.00000E+00
 -1       337 7.28339E-05-1.56487E-06 0.00000E+00
 -1       338 6.97284E-05-1.77555E-06-6.61744E-24
 -1       339 6.62085E-05-1.98724E-06 0.00000E+00
 -1       340 6.22798E-05-2.20043E-06 0.00000E+00
 -1       406 5.97455E-05 4.77046E-07-3.30872E-24
 -1       407 5.95698E-05 5.45151E-07 0.00000E+00
 -1       408 5.93706E-05 6.13210E-07 0.00000E+00
 -1       409 5.91481E-05 6.81139E-07-1.65436E-24
 -1       410 5.89021E-05 7.48804E-07 0.00000E+00
 -1       521 5.33567E-05 2.36592E-06 0.00000E+00
 -1       522 5.07032E-05 2.23684E-06 0.00000E+00
 -1       523 4.87393E-05 2.82298E-07 5.29396E-23
 -1       524 4.73617E-05-3.28420E-06-2.64698E-23
 -1       525 4.63970E-05-7.96290E-06 0.00000E+00
 -1       526 4.56316E-05-1.31867E-05 0.00000E+00
 -1       527 4.48225E-05-1.82932E-05 5.29396E-23
 -1       528 4.37272E-05-2.26291E-05-2.64698E-23
 -1       529 4.21511E-05-2.56729E-05 0.00000E+00
 -1       530 3.99295E-05-2.69875E-05 0.00000E+00
 -1       531 3.70061E-05-2.64331E-05 0.00000E+00
 -1       532 3.33723E-05-2.39901E-05-2.64698E-23
 -1       533 2.91379E-05-1.99637E-05 0.00000E+00
 -1       534 2.44682E-05-1.47556E-05 2.64698E-23
 -1       535 1.95766E-05-8.97997E-06 5.29396E-23
 -1       536 5.79293E-05 1.63226E-06 0.00000E+00
 -1       537 5.79188E-05 4.71255E-06 8.27181E-25
 -1       538 5.79101E-05 6.91431E-06 0.00000E+00
 -1       539 5.79039E-05 8.32411E-06 2.06795E-25
 -1       540 5.78985E-05 9.03717E-06-2.06795E-25
 -1       541 5.78935E-05 9.14887E-06-1.03398E-25
 -1       542 5.78885E-05 8.76103E-06-2.06795E-25
 -1       543 5.78834E-05 7.97559E-06 0.00000E+00
 -1       544 5.78779E-05 6.89873E-06 0.00000E+00
 -1       545 5.78723E-05 5.63666E-06 5.16988E-26
 -1       546 5.78667E-05 4.29760E-06 1.03398E-25
 -1       547 5.78611E-05 2.98978E-06 0.00000E+00
 -1       548 5.78556E-05 1.82107E-06-2.58494E-26
 -1       549 5.78507E-05 8.99346E-07-5.16988E-26
 -1       550 5.78459E-05 3.29879E-07 0.00000E+00
 -1       551 5.22274E-05-2.53977E-06 3.30872E-24
 -1       552 4.53841E-05-2.67122E-06-1.65436E-24
 -1       553 3.78162E-05-2.80769E-06 3.30872E-24
 -1       554 2.99263E-05-2.94842E-06 3.30872E-24
 -1       555 2.21170E-05-3.09073E-06-1.32349E-23
 -1       556 5.64474E-05 1.47920E-06 0.00000E+00
 -1       557 5.52998E-05 4.45469E-06 0.00000E+00
 -1       558 5.44675E-05 6.59808E-06 0.00000E+00
 -1       559 5.39153E-05 8.00051E-06 0.00000E+00
 -1       560 5.36080E-05 8.75290E-06 0.00000E+00
 -1       561 5.35108E-05 8.94665E-06 0.00000E+00
 -1       562 5.35889E-05 8.67327E-06-6.61744E-24
 -1       563 5.38077E-05 8.02433E-06 0.00000E+00
 -1       564 5.41328E-05 7.09150E-06 0.00000E+00
 -1       565 5.45299E-05 5.96642E-06 0.00000E+00
 -1       566 5.49645E-05 4.74081E-06 0.00000E+00
 -1       567 5.54025E-05 3.50639E-06 4.13590E-25
 -1       568 5.58094E-05 2.35486E-06 0.00000E+00
 -1       569 5.61511E-05 1.37781E-06 0.00000E+00
 -1       570 5.63933E-05 6.66882E-07 0.00000E+00
 -1       571 5.78905E-05 2.86717E-07 0.00000E+00
 -1       572 5.79395E-05 3.22874E-07 0.00000E+00
 -1       573 5.79889E-05 3.32129E-07-1.24077E-24
 -1       574 5.80384E-05 3.20615E-07 4.13590E-25
 -1       575 5.80879E-05 2.94489E-07-8.27181E-25
 -1       576 5.81375E-05 2.59949E-07 0.00000E+00
 -1       577 5.81871E-05 2.23198E-07-1.65436E-24
 -1       578 5.82366E-05 1.90443E-07-8.27181E-25
 -1       579 5.82862E-05 1.67891E-07-1.65436E-24
 -1       580 5.83358E-05 1.61753E-07 3.30872E-24
 -1       581 5.83854E-05 1.78234E-07 0.00000E+00
 -1       582 5.84350E-05 2.23535E-07 0.00000E+00
 -1       583 5.84846E-05 3.03850E-07 3.30872E-24
 -1       584 5.85341E-05 4.25311E-07 0.00000E+00
 -1       585 5.85836E-05 5.94013E-07 3.30872E-24
 -1       586 5.76024E-05 2.34448E-07 8.27181E-25
 -1       587 5.73412E-05 2.50642E-07 2.06795E-25
 -1       588 5.70797E-05 2.66656E-07-4.13590E-25
 -1       589 5.68389E-05 2.82416E-07 0.00000E+00
 -1       590 5.66396E-05 2.97749E-07 0.00000E+00
 -1       591 5.77937E-05 3.11907E-07 5.16988E-26
 -1       592 5.77530E-05 3.78900E-07 0.00000E+00
 -1       593 5.77205E-05 4.23962E-07-4.13590E-25
 -1       594 5.76942E-05 4.51731E-07-2.06795E-25
 -1       595 5.76726E-05 4.66907E-07 4.13590E-25
 -1       596 5.76539E-05 4.74154E-07 0.00000E+00
 -1       597 5.76364E-05 4.78133E-07 0.00000E+00
 -1       598 5.76185E-05 4.83504E-07 2.06795E-25
 -1       599 5.75982E-05 4.94925E-07 0.00000E+00
 -1       600 5.75739E-05 5.17053E-07 0.00000E+00
 -1       601 5.75439E-05 5.54546E-07-2.06795E-25
 -1       602 5.75064E-05 6.12068E-07-2.06795E-25
 -1       603 5.74597E-05 6.94281E-07 2.06795E-25
 -1       604 5.74023E-05 8.05886E-07-5.16988E-26
 -1       605 5.73322E-05 9.51519E-07 0.00000E+00
 -1       606 5.86423E-05 1.15002E-06 0.00000E+00
 -1       607 5.86497E-05 1.55521E-06 0.00000E+00
 -1       608 5.86566E-05 2.02699E-06 0.00000E+00
 -1       609 5.86633E-05 2.56069E-06 0.00000E+00
 -1       610 5.86699E-05 3.15160E-06 0.00000E+00
 -1       611 5.86765E-05 3.79495E-06 0.00000E+00
 -1       612 5.86830E-05 4.48596E-06 0.00000E+00
 -1       613 5.86894E-05 5.21985E-06 0.00000E+00
 -1       614 5.86958E-05 5.99185E-06 0.00000E+00
 -1       615 5.87022E-05 6.79715E-06 0.00000E+00
 -1       616 5.87086E-05 7.63101E-06 0.00000E+00
 -1       617 5.87150E-05 8.48863E-06-4.13590E-25
 -1       618 5.87213E-05 9.36521E-06 0.00000E+00
 -1       619 5.87275E-05 1.02560E-05 0.00000E+00
 -1       620 5.87338E-05 1.11562E-05 0.00000E+00
 -1       621 5.83681E-05 8.69077E-07 1.65436E-24
 -1       622 5.81224E-05 9.22837E-07-8.27181E-25
 -1       623 5.78918E-05 9.76590E-07 0.00000E+00
 -1       624 5.76722E-05 1.03026E-06-8.27181E-25
 -1       625 5.74595E-05 1.08383E-06 0.00000E+00
 -1       626 5.85649E-05 1.16683E-06 0.00000E+00
 -1       627 5.84751E-05 1.57667E-06-1.65436E-24
 -1       628 5.83655E-05 2.03965E-06 3.30872E-24
 -1       629 5.82382E-05 2.54999E-06 0.00000E+00
 -1       630 5.80953E-05 3.10187E-06 0.00000E+00
 -1       631 5.79389E-05 3.68946E-06 0.00000E+00
 -1       632 5.77714E-05 4.30692E-06 0.00000E+00
 -1       633 5.75949E-05 4.94839E-06-8.27181E-25
 -1       634 5.74115E-05 5.60805E-06 0.00000E+00
 -1       635 5.72234E-05 6.28003E-06-8.27181E-25
 -1       636 5.70330E-05 6.95851E-06 0.00000E+00
 -1       637 5.68422E-05 7.63763E-06 0.00000E+00
 -1       638 5.66534E-05 8.31156E-06 0.00000E+00
 -1       639 5.64686E-05 8.97444E-06 0.00000E+00
 -1       640 5.62899E-05 9.62043E-06 0.00000E+00
 -1       656 5.79881E-05 1.17653E-05 3.30872E-24
 -1       657 5.75023E-05 1.14578E-05 0.00000E+00
 -1       658 5.71803E-05 1.11512E-05-6.61744E-24
 -1       659 5.69177E-05 1.08449E-05 0.00000E+00
 -1       660 5.66013E-05 1.05377E-05 0.00000E+00
 -1       661 5.84618E-05 1.29476E-05 0.00000E+00
 -1       662 5.82005E-05 1.37962E-05-8.27181E-25
 -1       663 5.79529E-05 1.46077E-05-1.65436E-24
 -1       664 5.77190E-05 1.53840E-05 8.27181E-25
 -1       665 5.74979E-05 1.61263E-05-1.65436E-24
 -1       666 5.72889E-05 1.68364E-05 8.27181E-25
 -1       667 5.70916E-05 1.75156E-05 0.00000E+00
 -1       668 5.69054E-05 1.81652E-05 0.00000E+00
 -1       669 5.67297E-05 1.87867E-05 1.65436E-24
 -1       670 5.65642E-05 1.93813E-05 0.00000E+00
 -1       671 5.64082E-05 1.99503E-05-1.65436E-24
 -1       672 5.62614E-05 2.04948E-05 8.27181E-25
 -1       673 5.61232E-05 2.10159E-05-1.65436E-24
 -1       674 5.59929E-05 2.15147E-05 0.00000E+00
 -1       675 5.58707E-05 2.19924E-05 4.13590E-25
 -1       676 5.79059E-05 2.27395E-05 0.00000E+00
 -1       677 5.74744E-05 2.26810E-05 0.00000E+00
 -1       678 5.70432E-05 2.26224E-05 0.00000E+00
 -1       679 5.66124E-05 2.25641E-05 0.00000E+00
 -1       680 5.61822E-05 2.25058E-05 1.65436E-24
 -1       771 1.18384E-05 2.33643E-06 2.64698E-23
 -1       772 9.26811E-06 6.90680E-06 0.00000E+00
 -1       773 7.06117E-06 1.05189E-05 2.64698E-23
 -1       774 5.19310E-06 1.32344E-05 0.00000E+00
 -1       775 3.63993E-06 1.51160E-05 0.00000E+00
 -1       776 2.37672E-06 1.62282E-05 0.00000E+00
 -1       777 1.37824E-06 1.66367E-05 0.00000E+00
 -1       778 6.18832E-07 1.64084E-05 0.00000E+00
 -1       779 7.26523E-08 1.56113E-05-2.64698E-23
 -1       780-2.86527E-07 1.43145E-05 0.00000E+00
 -1       781-4.85013E-07 1.25878E-05 0.00000E+00
 -1       782-5.49407E-07 1.05020E-05 1.32349E-23
 -1       783-5.06359E-07 8.12833E-06-2.64698E-23
 -1       784-3.82665E-07 5.53855E-06-1.32349E-23
 -1       785-2.05220E-07 2.80485E-06-2.64698E-23
 -1       786 5.65463E-05 3.07663E-07 0.00000E+00
 -1       787 5.65929E-05 3.06024E-07 4.13590E-25
 -1       788 5.66393E-05 3.07067E-07-1.65436E-24
 -1       789 5.66863E-05 3.11125E-07 0.00000E+00
 -1       790 5.67332E-05 3.18852E-07 0.00000E+00
 -1       791 5.67802E-05 3.30911E-07 0.00000E+00
 -1       792 5.68273E-05 3.48431E-07-1.65436E-24
 -1       793 5.68743E-05 3.72551E-07 0.00000E+00
 -1       794 5.69214E-05 4.05122E-07 1.65436E-24
 -1       795 5.69685E-05 4.48011E-07 0.00000E+00
 -1       796 5.70155E-05 5.04194E-07 0.00000E+00
 -1       797 5.70625E-05 5.76676E-07-8.27181E-25
 -1       798 5.71096E-05 6.70214E-07 0.00000E+00
 -1       799 5.71565E-05 7.89608E-07 8.27181E-25
 -1       800 5.72034E-05 9.42439E-07 0.00000E+00
 -1       801 5.26860E-05 3.13780E-07 4.13590E-25
 -1       802 4.13251E-05 2.61096E-07-4.13590E-25
 -1       803 2.64000E-05 1.65612E-07 0.00000E+00
 -1       804 1.18896E-05 7.06125E-08-3.30872E-24
 -1       805 1.76411E-06 2.62765E-08-1.32349E-23
 -1       806 5.64463E-05 2.75389E-07 0.00000E+00
 -1       807 5.63879E-05 2.39257E-07 0.00000E+00
 -1       808 5.63276E-05 2.06915E-07 0.00000E+00
 -1       809 5.62645E-05 1.81464E-07 8.27181E-25
 -1       810 5.61975E-05 1.65996E-07 0.00000E+00
 -1       811 5.61256E-05 1.63560E-07 8.27181E-25
 -1       812 5.60477E-05 1.77200E-07 0.00000E+00
 -1       813 5.59626E-05 2.09952E-07 0.00000E+00
 -1       814 5.58692E-05 2.64854E-07 0.00000E+00
 -1       815 5.57664E-05 3.44937E-07 0.00000E+00
 -1       816 5.56529E-05 4.53233E-07 8.27181E-25
 -1       817 5.55278E-05 5.92774E-07-4.13590E-25
 -1       818 5.53898E-05 7.66588E-07 0.00000E+00
 -1       819 5.52380E-05 9.77693E-07-8.27181E-25
 -1       820 5.50712E-05 1.22911E-06 8.27181E-25
 -1       821 5.71830E-05 1.36223E-06 8.27181E-25
 -1       822 5.71123E-05 1.61125E-06 0.00000E+00
 -1       823 5.70418E-05 1.90226E-06 1.65436E-24
 -1       824 5.69706E-05 2.25395E-06 0.00000E+00
 -1       825 5.68993E-05 2.67592E-06 1.65436E-24
 -1       826 5.68278E-05 3.17755E-06 0.00000E+00
 -1       827 5.67562E-05 3.75630E-06 0.00000E+00
 -1       828 5.66846E-05 4.40938E-06 0.00000E+00
 -1       829 5.66130E-05 5.12286E-06 0.00000E+00
 -1       830 5.65413E-05 5.88262E-06 0.00000E+00
 -1       831 5.64697E-05 6.66762E-06 0.00000E+00
 -1       832 5.63981E-05 7.45673E-06 0.00000E+00
 -1       833 5.63267E-05 8.22820E-06-1.65436E-24
 -1       834 5.62560E-05 8.96035E-06 0.00000E+00
 -1       835 5.61851E-05 9.63737E-06-8.27181E-25
 -1       836 5.69644E-05 1.20085E-06 0.00000E+00
 -1       837 5.65940E-05 1.26677E-06 8.27181E-25
 -1       838 5.61696E-05 1.33257E-06 1.65436E-24
 -1       839 5.57230E-05 1.39795E-06-4.13590E-25
 -1       840 5.52857E-05 1.46323E-06-4.13590E-25
 -1       856 5.60982E-05 1.08560E-05 0.00000E+00
 -1       857 5.60756E-05 1.15462E-05-1.03398E-25
 -1       858 5.60531E-05 1.23020E-05 0.00000E+00
 -1       859 5.60301E-05 1.31109E-05 2.06795E-25
 -1       860 5.60071E-05 1.39607E-05 0.00000E+00
 -1       861 5.59839E-05 1.48390E-05 0.00000E+00
 -1       862 5.59608E-05 1.57332E-05 0.00000E+00
 -1       863 5.59376E-05 1.66309E-05 0.00000E+00
 -1       864 5.59144E-05 1.75197E-05 0.00000E+00
 -1       865 5.58913E-05 1.83871E-05 4.13590E-25
 -1       866 5.58681E-05 1.92206E-05 0.00000E+00
 -1       867 5.58450E-05 2.00080E-05 0.00000E+00
 -1       868 5.58220E-05 2.07368E-05-8.27181E-25
 -1       869 5.57989E-05 2.13946E-05 0.00000E+00
 -1       870 5.57759E-05 2.19694E-05 8.27181E-25
 -1       871 5.56524E-05 1.02430E-05-4.13590E-25
 -1       872 5.52609E-05 1.02408E-05 0.00000E+00
 -1       873 5.49121E-05 1.02384E-05 0.00000E+00
 -1       874 5.45733E-05 1.02356E-05 2.06795E-25
 -1       875 5.42121E-05 1.02325E-05-4.13590E-25
 -1       876 5.59568E-05 1.08624E-05 1.65436E-24
 -1       877 5.57825E-05 1.15191E-05 8.27181E-25
 -1       878 5.55958E-05 1.22091E-05 0.00000E+00
 -1       879 5.53984E-05 1.29281E-05-8.27181E-25
 -1       880 5.51917E-05 1.36718E-05 0.00000E+00
 -1       881 5.49774E-05 1.44360E-05 8.27181E-25
 -1       882 5.47569E-05 1.52163E-05 1.65436E-24
 -1       883 5.45321E-05 1.60087E-05-8.27181E-25
 -1       884 5.43043E-05 1.68086E-05-1.65436E-24
 -1       885 5.40752E-05 1.76121E-05 0.00000E+00
 -1       886 5.38464E-05 1.84147E-05 1.65436E-24
 -1       887 5.36194E-05 1.92121E-05 8.27181E-25
 -1       888 5.33959E-05 2.00003E-05 0.00000E+00
 -1       889 5.31771E-05 2.07747E-05 0.00000E+00
 -1       890 5.29647E-05 2.15311E-05-8.27181E-25
 -1       891 5.53383E-05 2.24179E-05 0.00000E+00
 -1       892 5.49105E-05 2.23870E-05 4.13590E-25
 -1       893 5.44539E-05 2.23560E-05 8.27181E-25
 -1       894 5.39531E-05 2.23251E-05 2.06795E-25
 -1       895 5.33926E-05 2.22943E-05-6.20385E-25
 -1       956 5.48221E-05 1.90681E-06-8.27181E-25
 -1       957 5.47540E-05 2.33366E-06-8.27181E-25
 -1       958 5.46857E-05 2.79978E-06 0.00000E+00
 -1       959 5.46172E-05 3.30035E-06 0.00000E+00
 -1       960 5.45487E-05 3.83054E-06 0.00000E+00
 -1       961 5.44801E-05 4.38549E-06 0.00000E+00
 -1       962 5.44115E-05 4.96033E-06-1.65436E-24
 -1       963 5.43429E-05 5.55022E-06-8.27181E-25
 -1       964 5.42743E-05 6.15029E-06-1.65436E-24
 -1       965 5.42057E-05 6.75566E-06 0.00000E+00
 -1       966 5.41372E-05 7.36148E-06 1.65436E-24
 -1       967 5.40686E-05 7.96288E-06-8.27181E-25
 -1       968 5.40001E-05 8.55499E-06 1.65436E-24
 -1       969 5.39317E-05 9.13297E-06-8.27181E-25
 -1       970 5.38635E-05 9.69199E-06 0.00000E+00
 -1       971 5.37322E-05 1.07774E-05-1.65436E-24
 -1       972 5.36672E-05 1.13852E-05 0.00000E+00
 -1       973 5.36021E-05 1.20443E-05 0.00000E+00
 -1       974 5.35369E-05 1.27483E-05 8.27181E-25
 -1       975 5.34716E-05 1.34904E-05 0.00000E+00
 -1       976 5.34063E-05 1.42639E-05 8.27181E-25
 -1       977 5.33409E-05 1.50622E-05 0.00000E+00
 -1       978 5.32756E-05 1.58787E-05 8.27181E-25
 -1       979 5.32102E-05 1.67066E-05-1.65436E-24
 -1       980 5.31448E-05 1.75394E-05 8.27181E-25
 -1       981 5.30795E-05 1.83704E-05 0.00000E+00
 -1       982 5.30142E-05 1.91928E-05 0.00000E+00
 -1       983 5.29490E-05 2.00000E-05 0.00000E+00
 -1       984 5.28842E-05 2.07855E-05 0.00000E+00
 -1       985 5.28195E-05 2.15424E-05 0.00000E+00
 -3
    1PSTEP                         6           3           1          
  100CL  103 3.75000E-01         409                     0    3           1
 -4  STRESS      6    1
 -5  SXX         1    4    1    1
 -5  SYY         1    4    2    2
 -5  SZZ         1    4    3    3
 -5  SXY         1    4    1    2
 -5  SYZ         1    4    2    3
 -5  SZX         1    4    3    1
 -1         1-1.29309E+06-5.94634E+05-2.63561E+05-8.37500E+05 7.27596E-11 5.58066E-09
 -1         2 2.40965E+03 3.28020E+05 7.71441E+03 7.08673E+02-4.74472E-10-4.55589E-09
 -1         3-4.73741E+01-5.44173E+05 1.26388E+02-1.49924E+02-1.24279E-10 2.66482E-10
 -1         5-4.40379E+00 1.95019E+05 5.10938E+00 2.14966E-02 6.91459E-11-2.15005E-09
 -1         8-6.10893E+05-2.65847E+05-2.09267E+04-4.62494E+05 1.47338E-10 3.53975E-09
 -1         9-1.04163E+06-2.50202E+05-9.68304E+04-3.59469E+05 1.63418E-09-3.96976E-09
 -1        10-4.22969E+02-5.66914E+05-7.29066E+02-1.00658E+03-2.68756E-09-2.10903E-08
 -1        12-2.30817E+00 1.95029E+05 1.65679E+02 4.22465E-01 1.75937E-10 6.30621E-09
 -1        15 1.61376E+03 8.86852E+02 5.21647E+03 2.73970E+00-2.52612E-10-8.74372E-08
 -1        16-2.94976E+06-9.47331E+05-4.58687E+05-9.62220E+05 8.96398E-09-4.56930E-09
 -1        17-6.51658E+05-4.00143E+05-1.25515E+05-3.76286E+05-4.21132E-09 9.63337E-10
 -1        18 2.09278E+04 1.62677E+03-9.73006E+03-4.59502E+04 5.88670E-10-4.08454E-09
 -1        19 6.10888E+04 7.28689E+04-3.39378E+02 1.19594E+04-4.59113E-10-5.02041E-10
 -1        20-2.53533E+04-2.88694E+05-6.36638E+04 2.14022E+04 4.34617E-09 4.00087E-09
 -1        21-2.73119E+01-1.67440E+05-5.40872E+02-4.95760E+01-8.35907E-09-4.76768E-10
 -1        24-2.59845E+06-8.91492E+05-3.70233E+05-1.08613E+06-1.25923E-08-7.02372E-09
 -1        25 2.36187E+04-8.38385E+02 1.41736E+04-8.30603E+04 3.02589E-10 5.88770E-09
 -1        26-1.40796E+04 4.98073E+04-9.85577E+03-7.15480E+03 1.25492E-09 1.04940E-09
 -1        27-4.62481E+04-1.58410E+05-5.94319E+04 3.56974E+04 4.41666E-09 1.47960E-09
 -1        28 1.29508E+04-4.62467E+04 9.45439E+03 1.48406E+04 3.13247E-09 5.50273E-10
 -1        32-6.15690E+05-8.40320E+04 2.68537E+05-4.17131E+05-1.25292E-08 9.62710E-09
 -1        33-9.05785E+04 4.65999E+04 1.65182E+04-2.70987E+04 8.30426E-10-4.03634E-09
 -1        34-1.17629E+05-1.17044E+04 2.76746E+02 3.61563E+04 3.27532E-09 5.70738E-09
 -1        35-1.31732E+04-1.83877E+04-7.18620E+02 2.91645E+04 1.79087E-09 2.11367E-09
 -1        51 1.13812E+04-3.03332E+05 2.87542E+04-7.56266E+05 8.73115E-11 5.13683E-09
 -1        52 6.55323E+03-3.01739E+05 1.92290E+04-8.82054E+05 4.29281E-10-2.99042E-09
 -1        53 4.64663E+03-3.10492E+05 1.68541E+04-7.53669E+05 8.44011E-10 0.00000E+00
 -1        54 1.39858E+04-3.08587E+05 2.74850E+04-8.84788E+05 1.30967E-10-1.65892E-09
 -1        55 2.93231E+04-3.18859E+05 4.94643E+04-7.53294E+05 3.56522E-10 2.28829E-09
 -1        56-2.48331E+06-2.80408E+05-1.94139E+05-9.57391E+05 9.93168E-10-4.84579E-09
 -1        57-2.56030E+06-4.56985E+05-1.30853E+05-9.51017E+05 1.03682E-09 5.30235E-09
 -1        58-2.52241E+06-3.41777E+05-4.56918E+04-9.45077E+05-7.48514E-10 4.75302E-09
 -1        59-2.51503E+06-3.85047E+05-2.72760E+04-9.65814E+05-8.09337E-10-5.89489E-09
 -1        60-2.52819E+06-3.50264E+05-1.06746E+04-9.43335E+05-1.33332E-09-6.73208E-09
 -1        61-2.50909E+06-3.74342E+05-6.06766E+03-9.66942E+05-9.21602E-10-9.21432E-11
 -1        62-2.52827E+06-3.52225E+05-2.92600E+03-9.44021E+05-8.19455E-10-9.44894E-09
 -1        63-2.51055E+06-3.70692E+05-2.39412E+03-9.64304E+05-8.70955E-10 5.78370E-09
 -1        64-2.52665E+06-3.53925E+05-2.76401E+03-9.45936E+05-8.51969E-10 3.78031E-09
 -1        65-2.51515E+06-3.67774E+05-5.50112E+03-9.59460E+05-8.00355E-11 3.54737E-09
 -1        66-2.52360E+06-3.55219E+05-9.71293E+03-9.48803E+05 1.10072E-09 3.45563E-09
 -1        67-2.52592E+06-3.71938E+05-2.46117E+04-9.52087E+05 2.35121E-09 3.58841E-09
 -1        68-2.51591E+06-3.50032E+05-4.13439E+04-9.53199E+05 2.81943E-09-1.40244E-09
 -1        69-2.57101E+06-4.32840E+05-1.18214E+05-9.34118E+05 2.11003E-10-2.08092E-09
 -1        70-2.47891E+06-2.96168E+05-1.75483E+05-9.66130E+05-3.60160E-10 2.76486E-09
 -1        86-1.20586E+03 3.25740E+05 8.26932E+03-3.54348E+02 1.52340E-11 2.04523E-10
 -1        87 7.97148E+03 3.30761E+05 1.72674E+04 1.50923E+03-2.75577E-10 5.11113E-09
 -1        88-6.76005E+03 3.23001E+05 2.63846E+04-1.15491E+03-3.54703E-10-2.45296E-09
 -1        89 5.00515E+04 3.50465E+05 7.13095E+04 3.47308E+03-3.79259E-10-4.69419E-09
 -1        90-4.32139E+04 3.06051E+05 1.00504E+05-2.31798E+03-6.54836E-10 3.65657E-09
 -1       121-7.88390E+01-5.44411E+05 1.13037E+02 7.48932E+01 3.12568E-10-2.07547E-09
 -1       122-5.73652E+00-5.44146E+05 2.75171E+02-2.99909E+02-9.81846E-10-1.50612E-09
 -1       123-1.08573E+02-5.44441E+05 4.38354E+02 2.24607E+02 8.58734E-10 7.55244E-09
 -1       124 5.01677E+02-5.43837E+05 1.15208E+03-6.94777E+02-1.92836E-09 1.44128E-08
 -1       125-4.37364E+02-5.44728E+05 1.75976E+03 4.69672E+02 1.32741E-09 5.70708E-09
 -1       191-4.79234E+00 1.95035E+05 6.07137E+00-1.12041E-02 1.24696E-10 3.76076E-10
 -1       192-4.87340E+00 1.95019E+05 1.08203E+01 4.25235E-01 1.83454E-10 1.40608E-09
 -1       193-6.04100E+00 1.95035E+05 2.00883E+01-4.17123E-01 2.21525E-10-4.07726E-09
 -1       194-6.38470E+00 1.95021E+05 4.09331E+01 1.11596E+00 1.37643E-10-1.43245E-09
 -1       195-8.44088E+00 1.95034E+05 8.00334E+01-7.06986E-01 3.17627E-10 4.97994E-09
 -1       251 2.16122E+05-3.81604E+04 8.90934E+04 3.76093E+03 9.43601E-12 3.67436E-09
 -1       252 2.56783E+05 4.41475E+04 6.32219E+04-1.20851E+04 5.21709E-10-3.02589E-09
 -1       253 2.31506E+05-5.90779E+03 2.30582E+04 2.56020E+03 1.10958E-10 1.10595E-09
 -1       254 2.38651E+05 6.82471E+03 1.45831E+04-1.01949E+04 1.61788E-09-3.25599E-10
 -1       255 2.34177E+05-9.12317E+02 5.95870E+03 1.87088E+03 5.15570E-11 3.20642E-09
 -1       256 2.35452E+05 1.08356E+03 3.62582E+03-9.17836E+03 9.48148E-10-1.34736E-09
 -1       257 2.34670E+05-1.59561E+02 1.86807E+03 1.54367E+03 1.67731E-10 8.20137E-10
 -1       258 2.34951E+05 3.40360E+02 1.66002E+03-8.84818E+03-7.40463E-10 4.34731E-10
 -1       259 2.34668E+05-1.63745E+02 1.90757E+03 1.54071E+03-2.17739E-10-5.74971E-10
 -1       260 2.35468E+05 1.12018E+03 3.73842E+03-9.16718E+03 2.30955E-10-5.98891E-09
 -1       261 2.34162E+05-9.44395E+02 6.16406E+03 1.86266E+03 9.83647E-10 6.84167E-10
 -1       262 2.38762E+05 7.06658E+03 1.50906E+04-1.01706E+04 2.91720E-10 8.66430E-09
 -1       263 2.31408E+05-6.11624E+03 2.38760E+04 2.54414E+03-5.64455E-10-8.18545E-10
 -1       264 2.57496E+05 4.57080E+04 6.54443E+04-1.20469E+04-3.12414E-09 7.03039E-09
 -1       265 2.15505E+05-3.95054E+04 9.22549E+04 3.73873E+03-1.09446E-09-2.44472E-09
 -1       266-2.92141E+04-1.36596E+04 6.85486E+04-5.86244E+01-4.69299E-10-1.24373E-07
 -1       267 3.38676E+04 1.59219E+04 4.84470E+04 6.76369E+01-8.93124E-10-2.66143E-07
 -1       268-4.54156E+03-2.25491E+03 1.80077E+04-8.61834E+00-7.83984E-10-2.19750E-07
 -1       269 5.36227E+03 2.69873E+03 1.17046E+04 1.00388E+01-6.94968E-10-1.62053E-07
 -1       270-8.04884E+02-4.43419E+02 5.64997E+03-1.36235E+00-4.96811E-10-1.16561E-07
 -1       271-2.87130E+06-3.58315E+05-2.21105E+05-1.11871E+06 3.32875E-10 4.43833E-09
 -1       272-2.93420E+06-5.35866E+05-1.42130E+05-1.13534E+06-5.84350E-11-9.35688E-09
 -1       273-2.91375E+06-4.12498E+05-5.22296E+04-1.10790E+06 4.70209E-10-2.24827E-09
 -1       274-2.88448E+06-4.69610E+05-2.92211E+04-1.15214E+06 1.03819E-09-2.51021E-10
 -1       275-2.92055E+06-4.17103E+05-1.21490E+04-1.10502E+06 1.54841E-09 5.94628E-09
 -1       276-2.87642E+06-4.64279E+05-6.45085E+03-1.15683E+06-1.38812E-09 1.96530E-09
 -1       277-2.92219E+06-4.16787E+05-3.15579E+03-1.10383E+06 2.91493E-10 4.34625E-10
 -1       278-2.87488E+06-4.64443E+05-2.29370E+03-1.15825E+06 1.61492E-09-8.68170E-09
 -1       279-2.92229E+06-4.16751E+05-2.46202E+03-1.10376E+06-1.88697E-09-7.30552E-09
 -1       280-2.87595E+06-4.64174E+05-4.51052E+03-1.15716E+06-2.52339E-09-1.17348E-09
 -1       281-2.92096E+06-4.17196E+05-8.26529E+03-1.10479E+06-5.32054E-10 4.54747E-12
 -1       282-2.88198E+06-4.67057E+05-1.97145E+04-1.15309E+06-8.52651E-10-4.69618E-09
 -1       283-2.91587E+06-4.14658E+05-3.52343E+04-1.10731E+06-1.31740E-09 2.27737E-09
 -1       284-2.91659E+06-5.10394E+05-9.57342E+04-1.14014E+06 1.89289E-10 3.61979E-10
 -1       285-2.88647E+06-3.79034E+05-1.49066E+05-1.11550E+06 1.84264E-09 2.48110E-09
 -1       301 1.11639E+04-6.75590E+03 8.68127E+04-2.12851E+04-3.45608E-10-4.45272E-09
 -1       302 1.19953E+04 1.52612E+04 6.25904E+04-3.13452E+04 1.54341E-09-1.84981E-08
 -1       303 5.47791E+02 1.05439E+03 5.74701E+04-2.13440E+04-8.01265E-10-1.20299E-08
 -1       304 2.24276E+04 2.48906E+04 9.65126E+04-3.12541E+04 7.91260E-10-2.73303E-09
 -1       305 2.22141E+04-1.63153E+04 1.61891E+05-2.13089E+04-3.34694E-10 3.62752E-09
 -1       306-3.08303E+06-3.57330E+05-2.34451E+05-1.20571E+06 1.55342E-09-8.97853E-09
 -1       307-3.20492E+06-5.54203E+05-1.59824E+05-1.16354E+06 1.04956E-09 6.91944E-09
 -1       308-3.13787E+06-4.28667E+05-5.51827E+04-1.18196E+06 1.07229E-09 3.13958E-09
 -1       309-3.13604E+06-4.76659E+05-3.33670E+04-1.19774E+06 9.82141E-10-6.61748E-09
 -1       310-3.15161E+06-4.33440E+05-1.29580E+04-1.17201E+06 2.67335E-10-5.51881E-09
 -1       311-3.11802E+06-4.73476E+05-7.48697E+03-1.21229E+06 3.98160E-09 1.57615E-09
 -1       312-3.15601E+06-4.31519E+05-3.66664E+03-1.16761E+06-3.20199E-10 3.63832E-09
 -1       313-3.11448E+06-4.74512E+05-3.30587E+03-1.21577E+06-1.83687E-09-1.30777E-09
 -1       314-3.15521E+06-4.32333E+05-3.99115E+03-1.16859E+06-3.86240E-09 2.47655E-09
 -1       315-3.12108E+06-4.70718E+05-8.37807E+03-1.20862E+06-1.71127E-09 4.85943E-09
 -1       316-3.14927E+06-4.35437E+05-1.46961E+04-1.17465E+06 3.00588E-10 4.52110E-09
 -1       317-3.14243E+06-4.73612E+05-3.78743E+04-1.19132E+06 3.81533E-10 9.08585E-09
 -1       318-3.13376E+06-4.29789E+05-6.26554E+04-1.18568E+06-2.97860E-09 9.05857E-09
 -1       319-3.21952E+06-5.63153E+05-1.81577E+05-1.15431E+06-1.61526E-09-6.63567E-09
 -1       320-3.07261E+06-3.47456E+05-2.66212E+05-1.21117E+06 7.32325E-09-5.15138E-09
 -1       336 4.10381E+02-5.89359E+05-3.15440E+03 5.36014E+02-5.24938E-09 2.51021E-10
 -1       337-1.14220E+03-5.90192E+05-3.45608E+03-1.40558E+03-9.34472E-09-2.68847E-09
 -1       338 2.68915E+02-5.89449E+05-4.37174E+03 8.66988E+02-6.95172E-09 4.22551E-09
 -1       339-4.52091E+03-5.92273E+05-9.56597E+03-2.06032E+03-1.27475E-08 6.75345E-09
 -1       340 3.06204E+03-5.87313E+05-1.47512E+04 1.18664E+03-8.65930E-09 5.29508E-09
 -1       406 1.03103E+01 1.95026E+05 3.27059E+02 2.72485E-01 4.27804E-10-2.60570E-10
 -1       407 1.11744E+02 1.95087E+05 6.95209E+02-7.55339E+00-1.75788E-11-2.09184E-10
 -1       408 3.55524E+02 1.94976E+05 1.38844E+03 7.38647E+00 4.96925E-10-1.22018E-08
 -1       409 1.49920E+03 1.95530E+05 3.12593E+03-6.88336E+01-1.63709E-11-1.78024E-08
 -1       410 4.31160E+03 1.94581E+05 6.38147E+03 6.34597E+01 5.69344E-10-9.18817E-09
 -1       521-5.83546E+06-6.74107E+05-4.37332E+05-2.27006E+06 4.48927E-09-3.89991E-09
 -1       522-6.03875E+06-1.05609E+06-2.96796E+05-2.21640E+06-1.15688E-09-1.55560E-08
 -1       523-5.94472E+06-7.97029E+05-1.02864E+05-2.21697E+06 9.24956E-10-5.61704E-09
 -1       524-5.90301E+06-9.22524E+05-6.18231E+04-2.29094E+06 4.57021E-09 5.72527E-09
 -1       525-5.97079E+06-8.03957E+05-2.39389E+04-2.19697E+06 3.86149E-09-7.31234E-10
 -1       526-5.87659E+06-9.10303E+05-1.37767E+04-2.31008E+06 3.49024E-09-8.63793E-10
 -1       527-5.97133E+06-8.08484E+05-6.67565E+03-2.19824E+06 3.57841E-09 5.47536E-09
 -1       528-5.89073E+06-8.89591E+05-5.42654E+03-2.28938E+06-7.45786E-10 3.61752E-09
 -1       529-5.95598E+06-8.25052E+05-6.98234E+03-2.21722E+06-3.76531E-10 1.03500E-09
 -1       530-5.93078E+06-8.52824E+05-1.32004E+04-2.24234E+06-2.03022E-09 1.90903E-09
 -1       531-5.93064E+06-8.45780E+05-2.42238E+04-2.24476E+06-3.92265E-09 9.56788E-10
 -1       532-5.99064E+06-8.33401E+05-6.11986E+04-2.18875E+06-6.40313E-10-1.10158E-08
 -1       533-5.89676E+06-8.44657E+05-1.01937E+05-2.27101E+06 9.71340E-10-7.54881E-09
 -1       534-6.12036E+06-9.75066E+05-2.95047E+05-2.12782E+06 1.30694E-09 9.54242E-09
 -1       535-5.80294E+06-7.06690E+05-4.33585E+05-2.30545E+06-9.26229E-09 9.05129E-09
 -1       536-2.16923E+04-1.59903E+04 3.68043E+04 2.84848E+02-1.19482E-09 2.85218E-09
 -1       537-4.44898E+03 1.85006E+04 2.62585E+04-1.32431E+03-6.53451E-09 5.71299E-09
 -1       538-1.53676E+04-2.50672E+03 9.48530E+03 2.98139E+02-3.80652E-10-1.27966E-09
 -1       539-1.19293E+04 2.89245E+03 6.08248E+03-1.37884E+03 3.01031E-09 5.78541E-09
 -1       540-1.42212E+04-3.90242E+02 2.38942E+03 3.39378E+02 5.33177E-10 1.39778E-09
 -1       541-1.33515E+04 4.45430E+02 1.44134E+03-1.45196E+03-1.01286E-09 5.44787E-10
 -1       542-1.39513E+04-5.73958E+01 5.67374E+02 3.71239E+02-2.44448E-10-1.53588E-09
 -1       543-1.37201E+04 5.31186E+01 2.85430E+02-1.50254E+03 7.03466E-10-4.01661E-09
 -1       544-1.38566E+04 4.71648E+00 2.61192E+01 3.89963E+02-2.83308E-10-6.29952E-09
 -1       545-1.38729E+04-8.25828E+01-2.03832E+02-1.52627E+03-8.66866E-10-8.87617E-10
 -1       546-1.38005E+04 7.96189E+01-4.56382E+02 3.94971E+02 2.69801E-10 2.06154E-09
 -1       547-1.41079E+04-5.87287E+02-1.19634E+03-1.52240E+03-1.67121E-09 2.91783E-09
 -1       548-1.36213E+04 5.08815E+02-1.94066E+03 3.86086E+02-1.83737E-09-1.94609E-09
 -1       549-1.54665E+04-3.74992E+03-5.28465E+03-1.48944E+03-9.38513E-10 5.04588E-09
 -1       550-1.24392E+04 3.23792E+03-7.53480E+03 3.62008E+02-8.00640E-11-2.39379E-09
 -1       551 5.73443E+03-3.09072E+05 1.69878E+04-5.30011E+05-2.31521E-08-6.52653E-09
 -1       552 1.20576E+04-3.09842E+05 2.22726E+04-7.54287E+05-1.79207E-08-2.91038E-10
 -1       553 7.91228E+03-3.13897E+05 3.47350E+04-5.28291E+05-2.85509E-08 4.11819E-09
 -1       554 2.93012E+04-2.99064E+05 7.38140E+04-7.55012E+05-1.75714E-08 3.33648E-09
 -1       555 2.92995E+04-3.27975E+05 1.32631E+05-5.28982E+05-2.81652E-08-6.22822E-09
 -1       556 4.39170E+04-9.91799E+04 3.41596E+04-1.31868E+05-1.25146E-09 3.28146E-09
 -1       557 8.41354E+04-1.32833E+05 1.78994E+04-1.64816E+05 2.92130E-09 8.05016E-09
 -1       558 4.41779E+04-1.03962E+05 7.30028E+03-1.27730E+05-2.85218E-09 3.89264E-10
 -1       559 7.91374E+04-1.37643E+05 3.68499E+03-1.66914E+05 3.63798E-09-5.72209E-09
 -1       560 4.32881E+04-1.03357E+05 1.55603E+03-1.28261E+05 8.14907E-10 4.08818E-09
 -1       561 7.76444E+04-1.37326E+05 8.12436E+02-1.67851E+05 2.08820E-09 1.10567E-08
 -1       562 4.25496E+04-1.02851E+05 3.22643E+02-1.28797E+05 1.85537E-10-2.99610E-09
 -1       563 7.67663E+04-1.36951E+05 1.92159E+02-1.68412E+05 3.91083E-10-1.43575E-09
 -1       564 4.20910E+04-1.02552E+05 7.00144E+01-1.29124E+05 6.77755E-09-2.18688E-09
 -1       565 7.63150E+04-1.36760E+05 3.71465E+01-1.68694E+05 1.39626E-08 5.51881E-09
 -1       566 4.19328E+04-1.02445E+05-2.17631E+01-1.29240E+05 5.99630E-09 1.38334E-09
 -1       567 7.62572E+04-1.36731E+05-9.50274E+01-1.68681E+05 5.33328E-09 5.60613E-09
 -1       568 4.21010E+04-1.02557E+05-2.56168E+02-1.29169E+05 7.13044E-10 1.80626E-09
 -1       569 7.60885E+04-1.36616E+05-6.02044E+02-1.67939E+05-3.54339E-09-3.70346E-09
 -1       570 4.30097E+04-1.03421E+05-1.25575E+03-1.29211E+05 4.94765E-10-7.95308E-09
 -1       571 1.41379E+05 5.12499E+03 7.59324E+03-3.55891E+04 1.49112E-09 1.77329E-09
 -1       572 1.42509E+05 1.78235E+03 3.72004E+03-3.90115E+04 1.28057E-09-1.54341E-09
 -1       573 1.41835E+05 4.24652E+02 1.65257E+03-3.54960E+04 1.02223E-08 2.62116E-09
 -1       574 1.41969E+05 1.37583E+02 8.27872E+02-3.91157E+04 2.09366E-08 2.49520E-09
 -1       575 1.41887E+05 1.83479E+01 3.90139E+02-3.54837E+04 1.06040E-08-5.98084E-09
 -1       576 1.41896E+05 4.47723E+00 1.98512E+02-3.91297E+04-9.66594E-10 1.82899E-09
 -1       577 1.41894E+05-3.41457E+00 9.77219E+01-3.54821E+04-2.61707E-10 7.51425E-09
 -1       578 1.41888E+05-1.83196E+00 5.31555E+01-3.91313E+04-3.20370E-10 8.14316E-09
 -1       579 1.41901E+05-4.04563E+00 3.23668E+01-3.54820E+04 1.24464E-09-2.67164E-09
 -1       580 1.41897E+05-4.86421E+00 2.99306E+01-3.91292E+04 1.46906E-09-2.54659E-09
 -1       581 1.41913E+05-7.63315E+00 4.04028E+01-3.54842E+04 2.02908E-09 5.79575E-10
 -1       582 1.41919E+05-1.21212E+00 7.67006E+01-3.91080E+04 2.23963E-09 1.65892E-09
 -1       583 1.41926E+05 1.85566E+01 1.47206E+02-3.55032E+04 1.03719E-08-2.21291E-09
 -1       584 1.41990E+05 1.33755E+02 3.29841E+02-3.89495E+04 1.73168E-08 6.59725E-09
 -1       585 1.41907E+05 4.25287E+02 6.70090E+02-3.56429E+04 9.01491E-09 6.07633E-09
 -1       586-1.74262E+03 4.61732E+04-2.30845E+03-1.21074E+05 3.37877E-10-1.07536E-09
 -1       587-3.79283E+02 4.58639E+04-2.73997E+02-1.33231E+05 5.97538E-10-3.63661E-09
 -1       588 4.76598E+02 4.59249E+04 1.60285E+03-1.21000E+05 3.59250E-10-1.42791E-10
 -1       589 2.39481E+03 4.68035E+04 4.69048E+03-1.33121E+05 5.02041E-10-1.07912E-09
 -1       590 6.88544E+03 4.53446E+04 1.00526E+04-1.21184E+05 2.64663E-10-8.94943E-10
 -1       591-3.08649E+04-8.85166E+03-1.02761E+04-1.60235E+04 8.25366E-11-1.93359E-09
 -1       592-3.18239E+04-1.13788E+04-5.56593E+03-1.87073E+04 1.18780E-09 1.00556E-10
 -1       593-3.19039E+04-8.09448E+03-2.31714E+03-1.67653E+04 1.67347E-10-5.05008E-09
 -1       594-3.03916E+04-9.88536E+03-1.15568E+03-1.87784E+04-1.95257E-10-7.81287E-09
 -1       595-3.19833E+04-8.09110E+03-5.31110E+02-1.67993E+04-4.16964E-09-4.75659E-09
 -1       596-3.02946E+04-9.81697E+03-2.70739E+02-1.87683E+04 3.91154E-10 4.73781E-09
 -1       597-3.19934E+04-8.09769E+03-1.49037E+02-1.68007E+04 6.58371E-10 6.77659E-09
 -1       598-3.02854E+04-9.81435E+03-1.22763E+02-1.87655E+04 9.00172E-10 3.91765E-09
 -1       599-3.19927E+04-8.09768E+03-1.60481E+02-1.68005E+04 5.81394E-10-1.23936E-09
 -1       600-3.02959E+04-9.81782E+03-3.01094E+02-1.87681E+04-1.39357E-09-3.45494E-09
 -1       601-3.19802E+04-8.09042E+03-5.95489E+02-1.67985E+04 5.33407E-09 1.24476E-09
 -1       602-3.04049E+04-9.89450E+03-1.29870E+03-1.87784E+04 1.21940E-08 2.37134E-09
 -1       603-3.18901E+04-8.09538E+03-2.60481E+03-1.67605E+04 3.23325E-09-3.29305E-09
 -1       604-3.20204E+04-1.15676E+04-6.25729E+03-1.86909E+04 3.64309E-10-1.24783E-09
 -1       605-3.07153E+04-8.95151E+03-1.15523E+04-1.59322E+04 2.37185E-09 2.87628E-09
 -1       606 2.02276E+04-6.80690E+03-1.22608E+04 1.97778E+04-2.45109E-09-1.58752E-09
 -1       607 1.81278E+04-2.19540E+03-6.10533E+03 2.22016E+04-3.93356E-10-1.22543E-09
 -1       608 1.93226E+04-3.69303E+02-2.73372E+03 1.96199E+04 2.44381E-09-9.76115E-10
 -1       609 1.90864E+04-9.68333E+01-1.38087E+03 2.23759E+04-4.27463E-10-3.27600E-09
 -1       610 1.92159E+04 1.69831E+01-6.59365E+02 1.96023E+04-4.15548E-09-6.64159E-10
 -1       611 1.91722E+04 2.44032E+01-3.32665E+02 2.23950E+04-7.08724E-09-2.60570E-10
 -1       612 1.91893E+04 2.61162E+01-1.59056E+02 1.96006E+04-2.61753E-09 4.48335E-09
 -1       613 1.91734E+04 2.87784E+01-7.26054E+01 2.23973E+04-4.50109E-09 1.41654E-10
 -1       614 1.91755E+04 2.52443E+01-2.02881E+01 1.96000E+04-1.12095E-09-8.32870E-10
 -1       615 1.91673E+04 3.13898E+01 2.23907E+01 2.23977E+04 3.98450E-09-3.20210E-09
 -1       616 1.91650E+04 2.82514E+01 7.45856E+01 1.96002E+04-2.11776E-09-2.23508E-10
 -1       617 1.91734E+04 4.92349E+01 1.73005E+02 2.23973E+04 5.92081E-10 4.72392E-09
 -1       618 1.91477E+04 7.96210E+01 3.49801E+02 1.96003E+04 2.47383E-10 7.90578E-10
 -1       619 1.92952E+04 3.21014E+02 7.86211E+02 2.23968E+04 3.82101E-10-4.28008E-09
 -1       620 1.90303E+04 9.10654E+02 1.58047E+03 1.95996E+04 2.30818E-09-1.24760E-09
 -1       621 2.46755E+02 1.54016E+05 2.13421E+03 4.93856E+03-1.47935E-10 6.99629E-10
 -1       622 2.81902E+02 1.54545E+05 1.80978E+03 7.21082E+03-1.62458E-10-7.83018E-10
 -1       623 1.18505E+01 1.54169E+05 2.07918E+03 4.91532E+03-1.41966E-10-4.47130E-10
 -1       624 9.40174E+02 1.55149E+05 3.94643E+03 7.23356E+03-2.28454E-10 8.95770E-09
 -1       625 9.43876E+02 1.53409E+05 6.85983E+03 4.91604E+03-1.76442E-10 2.83376E-09
 -1       626 1.26988E+05 3.52370E+04 2.52940E+03 6.87244E+04-1.42381E-09 1.00408E-09
 -1       627 1.25244E+05 3.65233E+04 1.21857E+03 7.15076E+04-1.09867E-09-2.81591E-09
 -1       628 1.27086E+05 3.40387E+04 5.14870E+02 6.91062E+04 6.51198E-10 4.20528E-09
 -1       629 1.24880E+05 3.62356E+04 2.52260E+02 7.16763E+04 1.10413E-09 1.10572E-09
 -1       630 1.27094E+05 3.39809E+04 1.16738E+02 6.91174E+04-1.45246E-09-1.46468E-09
 -1       631 1.24838E+05 3.62285E+04 6.27381E+01 7.16793E+04-7.02494E-09-1.36962E-09
 -1       632 1.27089E+05 3.39846E+04 4.14844E+01 6.91126E+04-3.73166E-09-3.58256E-10
 -1       633 1.24830E+05 3.62319E+04 4.63429E+01 7.16753E+04-1.62800E-09 1.84016E-09
 -1       634 1.27083E+05 3.39848E+04 7.50983E+01 6.91099E+04 2.86195E-09-3.84148E-10
 -1       635 1.24833E+05 3.62328E+04 1.52319E+02 7.16753E+04-3.18323E-10-8.13486E-09
 -1       636 1.27075E+05 3.39841E+04 3.07719E+02 6.91077E+04-5.93332E-10 2.95586E-12
 -1       637 1.24896E+05 3.62819E+04 6.76353E+02 7.16721E+04-4.94659E-10-7.03949E-10
 -1       638 1.27048E+05 3.41352E+04 1.39014E+03 6.90379E+04-3.15663E-09-9.64542E-09
 -1       639 1.25622E+05 3.72993E+04 3.28869E+03 7.14554E+04-2.68932E-09 6.92125E-10
 -1       640 1.26949E+05 3.71631E+04 6.82506E+03 6.77520E+04-2.39129E-09 2.50759E-09
 -1       656 3.44400E+04-8.71627E+05-8.31494E+04-4.78424E+02 3.05590E-10-9.64093E-10
 -1       657-4.55067E+04-9.09174E+05-6.87631E+04 5.68937E+03 2.94222E-10-6.73346E-09
 -1       658 1.09185E+04-8.82342E+05-4.21964E+04-1.11738E+03 1.04239E-09-9.59997E-10
 -1       659-4.87841E+04-9.10721E+05-7.30676E+04 6.11152E+03-1.00408E-09-4.05370E-09
 -1       660 3.77088E+04-8.70084E+05-9.05582E+04-9.00568E+02 1.01863E-10-1.14110E-09
 -1       661 1.23923E+05 1.34748E+04 1.18782E+04 4.84002E+04 4.91673E-09 3.13321E-09
 -1       662 1.30089E+05 2.28121E+04 8.00389E+03 4.63583E+04 2.77169E-09 6.37556E-10
 -1       663 1.26248E+05 1.72924E+04 2.79983E+03 4.77314E+04-7.06166E-10-6.56769E-09
 -1       664 1.27400E+05 1.83413E+04 1.67386E+03 4.71692E+04 8.09791E-10-1.31740E-09
 -1       665 1.26595E+05 1.78201E+04 6.60320E+02 4.76366E+04-2.67147E-09-1.82118E-09
 -1       666 1.26995E+05 1.77326E+04 3.84989E+02 4.72891E+04-5.12898E-09-3.16600E-11
 -1       667 1.26650E+05 1.78853E+04 2.02991E+02 4.76176E+04-6.36888E-10-2.98683E-09
 -1       668 1.26938E+05 1.76787E+04 2.03226E+02 4.73152E+04 5.79044E-09-5.37145E-09
 -1       669 1.26652E+05 1.78726E+04 2.72303E+02 4.76109E+04 3.12708E-09 3.45359E-09
 -1       670 1.27010E+05 1.78188E+04 5.90156E+02 4.73103E+04 4.71088E-09-5.03741E-09
 -1       671 1.26578E+05 1.77480E+04 1.04704E+03 4.76213E+04-9.68356E-10-6.89852E-09
 -1       672 1.27624E+05 1.88333E+04 2.67808E+03 4.71584E+04-1.84282E-09 7.88987E-10
 -1       673 1.26041E+05 1.68837E+04 4.48781E+03 4.77531E+04-1.68410E-09-3.51520E-10
 -1       674 1.31901E+05 2.60390E+04 1.28344E+04 4.58982E+04 5.82304E-10-1.55683E-09
 -1       675 1.22330E+05 1.07439E+04 1.90500E+04 4.88056E+04 3.17414E-09-1.05483E-08
 -1       676 1.40374E+01-1.67395E+05-6.51887E+02 2.47886E+01-2.53641E-09-4.29044E-09
 -1       677-1.73026E+02-1.67553E+05-1.19300E+03-4.95636E+01-6.04655E-09-3.34681E-09
 -1       678 1.15544E+02-1.67283E+05-2.10889E+03 2.47579E+01-1.53148E-09-9.19287E-09
 -1       679-2.10919E+03-1.68826E+05-5.00952E+03-4.94355E+01-3.34279E-09-1.20475E-10
 -1       680 1.25872E+03-1.66123E+05-8.07372E+03 2.43760E+01 2.29102E-09 5.14606E-09
 -1       771-1.79985E+06-3.13613E+05-4.39305E+04-7.45334E+05-7.18501E-09-5.33328E-09
 -1       772-1.78877E+06-3.37444E+05-2.35842E+04-7.71878E+05-5.18048E-09 2.50020E-09
 -1       773-1.80575E+06-3.09044E+05-1.01591E+04-7.47794E+05-2.43745E-09 2.22644E-09
 -1       774-1.78240E+06-3.32208E+05-4.95102E+03-7.74397E+05 5.19503E-09-3.62888E-10
 -1       775-1.80703E+06-3.08238E+05-2.49518E+03-7.47948E+05-1.04774E-09 5.42059E-10
 -1       776-1.78224E+06-3.32213E+05-1.15223E+03-7.75686E+05-2.16460E-09 1.37061E-09
 -1       777-1.80789E+06-3.07623E+05-7.10895E+02-7.48016E+05 4.98403E-10 1.16779E-09
 -1       778-1.78244E+06-3.32383E+05-3.17014E+02-7.76754E+05 1.59343E-09 2.52112E-09
 -1       779-1.80857E+06-3.07100E+05-3.09966E+02-7.48076E+05-1.07684E-09-2.13367E-09
 -1       780-1.78267E+06-3.32529E+05-2.42122E+02-7.77618E+05-1.27875E-09 2.18279E-10
 -1       781-1.80907E+06-3.06680E+05-4.31906E+02-7.48120E+05-3.22325E-09 6.34009E-09
 -1       782-1.78291E+06-3.32676E+05-7.85778E+02-7.78254E+05-6.99220E-09-2.21553E-09
 -1       783-1.80937E+06-3.06407E+05-1.57265E+03-7.48132E+05-1.26965E-09-3.16834E-09
 -1       784-1.78397E+06-3.33743E+05-3.72497E+03-7.78599E+05-4.60568E-09-6.41194E-11
 -1       785-1.80887E+06-3.06762E+05-6.88765E+03-7.47645E+05-7.61065E-09 8.52197E-10
 -1       786 1.31442E+05-7.00736E+03 1.62111E+04 2.72053E-01 1.84893E-07 3.75258E-09
 -1       787 1.38467E+05 8.11232E+03 1.14692E+04-4.75450E+00 3.67582E-07 5.70617E-09
 -1       788 1.34153E+05-1.09848E+03 4.19585E+03 1.98423E+00 4.76701E-07 3.87672E-10
 -1       789 1.35310E+05 1.27101E+03 2.63631E+03-8.77266E+00 5.85400E-07-1.80393E-10
 -1       790 1.34600E+05-1.71602E+02 1.07275E+03 4.29024E+00 7.62536E-07-4.46829E-09
 -1       791 1.34788E+05 1.99391E+02 6.29940E+02-1.45037E+01 9.40241E-07 8.39587E-09
 -1       792 1.34675E+05-2.76690E+01 2.87689E+02 7.71534E+00 1.28512E-06-1.34556E-08
 -1       793 1.34704E+05 3.89495E+01 1.88905E+02-2.32329E+01 1.62759E-06 2.11358E-10
 -1       794 1.34684E+05-1.12663E+01 1.40521E+02 1.30196E+01 8.14147E-07-6.94888E-09
 -1       795 1.34712E+05 5.83537E+01 2.04120E+02-3.68847E+01 2.79611E-09 7.47404E-09
 -1       796 1.34666E+05-4.70589E+01 3.06272E+02 2.13673E+01 3.51139E-11-1.43368E-09
 -1       797 1.34851E+05 3.45030E+02 7.22578E+02-5.84606E+01-2.38693E-10-8.93068E-09
 -1       798 1.34545E+05-2.97731E+02 1.14071E+03 3.45960E+01 9.42038E-11 1.30598E-09
 -1       799 1.35707E+05 2.19833E+03 3.10989E+03-9.29168E+01-9.72877E-10 4.18231E-09
 -1       800 1.33810E+05-1.89886E+03 4.39304E+03 5.58237E+01-6.02407E-11 2.78965E-09
 -1       801-8.15561E+03 8.15910E+03 1.08416E+04 1.40508E+04 7.74207E-09-5.70481E-10
 -1       802 2.03111E+04 7.34584E+04 3.92201E+04-5.78170E+04 2.07110E-08-2.63663E-09
 -1       803-1.15770E+04 3.29802E+04 4.92027E+04 1.31573E+04 1.63000E-08 1.42063E-08
 -1       804 9.56077E+04 1.14568E+05 1.37975E+05-5.85731E+04 1.92467E-08 1.90737E-08
 -1       805-8.34938E+04-3.27415E+04 1.77122E+05 1.48050E+04 6.75936E-09 1.87109E-08
 -1       806-1.54030E+05-3.30409E+04-1.31086E+04-6.41841E+04-4.36557E-11-2.38651E-09
 -1       807-1.54797E+05-3.11682E+04-6.43994E+03-6.76649E+04-1.95985E-09-3.67015E-09
 -1       808-1.54402E+05-2.83050E+04-2.73186E+03-6.64077E+04 3.81488E-09 7.69710E-10
 -1       809-1.53422E+05-2.93802E+04-1.33554E+03-6.78508E+04 1.17228E-08 3.75587E-09
 -1       810-1.54460E+05-2.81378E+04-6.11519E+02-6.65058E+04 4.67980E-09-1.63186E-09
 -1       811-1.53317E+05-2.93095E+04-3.03272E+02-6.78354E+04 1.92927E-10-3.20654E-09
 -1       812-1.54471E+05-2.81500E+04-1.51300E+02-6.65057E+04-2.19984E-09-9.19954E-09
 -1       813-1.53304E+05-2.93112E+04-9.54227E+01-6.78275E+04-1.23691E-10-4.50245E-09
 -1       814-1.54469E+05-2.81544E+04-8.93820E+01-6.65039E+04-3.75167E-09-5.43901E-09
 -1       815-1.53306E+05-2.93127E+04-1.39904E+02-6.78256E+04-1.00249E-09 1.79625E-10
 -1       816-1.54461E+05-2.81531E+04-2.62041E+02-6.65022E+04-4.62251E-09 3.06682E-09
 -1       817-1.53351E+05-2.93377E+04-5.61926E+02-6.78213E+04-9.55743E-09-2.72394E-09
 -1       818-1.54428E+05-2.82316E+04-1.14512E+03-6.64652E+04-1.57797E-10 7.77868E-09
 -1       819-1.53984E+05-3.00248E+04-2.69532E+03-6.76685E+04 2.96927E-09-2.82557E-09
 -1       820-1.54210E+05-3.02695E+04-5.48532E+03-6.55968E+04-1.51340E-09-6.32269E-09
 -1       821-1.99242E+05 1.10595E+04-2.55785E+04 2.76492E+01-3.72677E-10 4.49290E-10
 -1       822-2.10326E+05-1.28032E+04-1.81000E+04-3.14392E+02-2.03734E-09 1.31877E-09
 -1       823-2.03520E+05 1.73374E+03-6.62498E+03-1.14042E+01 8.70742E-10 3.89537E-09
 -1       824-2.05341E+05-2.00675E+03-4.16886E+03-2.08621E+02 2.75726E-10 2.01499E-09
 -1       825-2.04226E+05 2.71408E+02-1.71286E+03-7.81251E+01-3.14783E-09 1.18700E-09
 -1       826-2.04519E+05-3.20130E+02-1.03543E+03-6.85951E+01-5.28556E-09 3.87267E-09
 -1       827-2.04341E+05 4.83228E+01-5.34641E+02-1.51433E+02-3.97674E-09-1.05061E-09
 -1       828-2.04407E+05-9.77888E+01-4.74101E+02 6.21805E+01-3.88585E-09 4.25258E-09
 -1       829-2.04339E+05 4.92574E+01-5.42494E+02-2.08903E+02 1.15732E-10-2.78771E-09
 -1       830-2.04529E+05-3.27899E+02-1.06010E+03 1.43726E+02 2.35401E-09-1.34521E-09
 -1       831-2.04219E+05 2.78333E+02-1.75488E+03-2.32980E+02-1.82644E-09 1.17814E-09
 -1       832-2.05371E+05-2.05803E+03-4.27622E+03 1.51504E+02-1.21613E-09-7.72070E-09
 -1       833-2.03497E+05 1.77814E+03-6.79480E+03-2.16680E+02-5.92272E-10-1.23600E-09
 -1       834-2.10479E+05-1.31319E+04-1.85651E+04 8.49100E+01-1.68873E-10 3.02043E-09
 -1       835-1.99112E+05 1.13435E+04-2.62367E+04-1.66380E+02 4.47006E-09-1.95178E-09
 -1       836-6.63856E+02 1.88884E+05 1.13725E+04-1.66400E+04 1.42563E-09 4.62023E-10
 -1       837 2.50259E+03 1.92406E+05 9.70426E+03-3.34304E+04 2.11207E-09 3.49553E-09
 -1       838-2.44563E+02 1.89866E+05 1.00007E+04-1.65829E+04 1.81672E-09 6.50959E-09
 -1       839 6.41547E+03 1.95327E+05 1.90299E+04-3.34511E+04 2.42017E-09 8.27549E-09
 -1       840-1.92994E+03 1.85942E+05 3.03911E+04-1.66183E+04 1.56251E-09 2.81671E-09
 -1       856-6.25256E+04 5.33940E+03-1.40699E+04-3.07600E+02-2.41988E-09 1.84173E-09
 -1       857-6.83385E+04-6.26279E+03-9.68712E+03 3.21656E+03-2.03399E-09 1.06741E-09
 -1       858-6.48221E+04 7.48279E+02-3.65153E+03-3.19431E+02-2.87773E-09-8.06267E-09
 -1       859-6.57004E+04-8.70730E+02-2.20558E+03 3.23529E+03-1.95001E-10-2.88239E-09
 -1       860-6.51657E+04 1.04161E+02-9.27417E+02-3.26412E+02 9.35515E-10 8.03652E-10
 -1       861-6.53044E+04-1.15975E+02-5.16771E+02 3.24479E+03-5.95981E-09 1.57137E-09
 -1       862-6.52191E+04 1.38997E+01-2.27960E+02-3.28947E+02 3.23761E-09-4.84206E-10
 -1       863-6.52412E+04-9.57761E+00-1.12879E+02 3.24592E+03 7.12448E-09-1.86085E-09
 -1       864-6.52290E+04 7.59182E-02-3.57252E+01-3.27544E+02 3.89004E-09 5.47828E-12
 -1       865-6.52233E+04 1.47455E+01 2.03073E+01 3.23879E+03 3.87907E-09 6.22258E-10
 -1       866-6.52363E+04-1.06012E+01 7.55930E+01-3.21815E+02-7.21059E-11 3.58213E-10
 -1       867-6.51795E+04 8.93947E+01 2.07889E+02 3.22327E+03 2.06613E-09-2.96424E-09
 -1       868-6.52711E+04-7.38824E+01 3.51198E+02-3.12027E+02 1.43245E-09 2.61923E-09
 -1       869-6.49169E+04 6.13706E+02 9.42492E+02 3.19712E+03-4.07897E-09-3.32901E-09
 -1       870-6.54963E+04-5.21620E+02 1.36748E+03-2.95665E+02 7.46240E-10 1.01733E-09
 -1       871-2.90714E+03-6.03983E+03-9.45913E+03 6.19994E+04 2.23190E-09 1.76851E-09
 -1       872-1.26417E+03-8.15249E+03-3.85169E+03 8.03769E+04 2.65936E-09-1.50976E-09
 -1       873-2.82932E+01-7.15849E+03 5.63623E+02 6.18621E+04 1.25237E-09 4.55600E-09
 -1       874 1.46057E+03-5.77733E+03 5.39640E+03 8.04061E+04 3.19869E-09 1.20326E-08
 -1       875 3.46468E+03-8.44380E+03 1.19601E+04 6.19752E+04 1.79625E-09 4.72619E-09
 -1       876 1.55312E+05 2.67735E+04 8.32928E+03 6.30235E+04-3.26469E-09 1.83627E-09
 -1       877 1.55784E+05 2.86062E+04 4.44794E+03 6.54925E+04-5.41343E-09-7.93023E-10
 -1       878 1.56091E+05 2.58510E+04 1.86353E+03 6.37073E+04 3.86422E-09-1.07809E-09
 -1       879 1.54650E+05 2.74782E+04 9.28255E+02 6.55526E+04-3.11616E-10 4.63641E-09
 -1       880 1.56149E+05 2.58402E+04 4.32174E+02 6.37351E+04-3.94334E-09-9.12644E-09
 -1       881 1.54575E+05 2.74304E+04 2.30111E+02 6.55417E+04 3.95084E-09-3.44146E-09
 -1       882 1.56155E+05 2.58466E+04 1.46113E+02 6.37359E+04 4.11478E-09 5.14625E-10
 -1       883 1.54570E+05 2.74283E+04 1.55265E+02 6.55387E+04 1.62208E-09 5.55498E-09
 -1       884 1.56152E+05 2.58448E+04 2.45378E+02 6.37360E+04-1.49868E-09 1.01329E-09
 -1       885 1.54589E+05 2.74318E+04 4.92343E+02 6.55450E+04 3.27843E-09 3.13025E-09
 -1       886 1.56133E+05 2.58304E+04 9.91854E+02 6.37341E+04 2.60697E-09 2.89447E-10
 -1       887 1.54764E+05 2.75460E+04 2.16645E+03 6.55699E+04-1.48891E-09-6.49129E-09
 -1       888 1.55996E+05 2.58547E+04 4.36550E+03 6.36648E+04 1.39380E-10-2.53772E-09
 -1       889 1.57366E+05 3.02467E+04 1.04291E+04 6.54867E+04-1.79025E-10-4.48017E-09
 -1       890 1.54216E+05 2.79681E+04 1.95326E+04 6.20001E+04 2.40425E-09-1.45519E-10
 -1       891-9.57551E+01-8.83522E+04-1.04007E+03 1.68308E+04 2.09684E-09-4.26758E-09
 -1       892-1.66584E+02-8.86026E+04-1.13284E+03 2.54712E+04-2.09616E-09-7.33962E-09
 -1       893-2.53785E+01-8.83863E+04-1.61987E+03 1.68338E+04 6.99629E-10-1.29148E-09
 -1       894-8.82380E+02-8.92289E+04-3.36477E+03 2.53811E+04-1.23964E-09-2.74849E-09
 -1       895-6.87671E+02-8.76898E+04-5.92894E+03 1.69198E+04-3.05249E-10-3.86535E-11
 -1       956-1.95067E+05-2.81470E+03-7.08838E+03 1.28801E+04-2.03454E-09-3.29328E-09
 -1       957-1.96467E+05-9.49509E+02-3.63905E+03 1.55062E+04-6.11635E-11 3.32989E-09
 -1       958-1.95694E+05-7.54930E+01-1.63935E+03 1.27961E+04 1.65937E-09 2.86423E-09
 -1       959-1.95805E+05-1.38325E+01-8.37420E+02 1.55970E+04-2.23122E-09 1.18757E-09
 -1       960-1.95749E+05 2.27102E+01-4.08106E+02 1.27883E+04-3.32147E-09-4.41275E-09
 -1       961-1.95755E+05 2.04857E+01-2.16408E+02 1.56057E+04-2.43017E-09 7.08610E-10
 -1       962-1.95759E+05 1.91126E+01-1.23515E+02 1.27873E+04-1.80785E-09 1.25522E-09
 -1       963-1.95752E+05 2.08221E+01-9.85644E+01 1.56071E+04-4.84926E-09 1.91039E-09
 -1       964-1.95761E+05 2.01676E+01-1.18857E+02 1.27869E+04-1.29830E-09-7.12589E-10
 -1       965-1.95759E+05 2.28511E+01-2.04717E+02 1.56071E+04 2.05455E-09-5.17480E-09
 -1       966-1.95755E+05 2.58001E+01-3.83839E+02 1.27873E+04-2.33922E-09-3.27771E-09
 -1       967-1.95810E+05-7.03539E+00-7.87035E+02 1.56024E+04-2.12935E-10 4.58590E-09
 -1       968-1.95707E+05-6.42476E+01-1.53998E+03 1.27917E+04 1.72213E-09 3.21094E-10
 -1       969-1.96436E+05-8.84135E+02-3.41917E+03 1.55496E+04 1.19087E-09 3.09507E-09
 -1       970-1.95121E+05-2.63655E+03-6.65959E+03 1.28417E+04-5.44560E-10 4.99267E-09
 -1       971-1.85431E+05-9.80720E+02-5.45971E+03 9.10979E+03-2.47474E-09 5.46515E-09
 -1       972-1.86759E+05-7.03973E+02-2.97362E+03 1.27179E+04-1.09708E-09-2.53112E-09
 -1       973-1.86036E+05-6.30668E+00-1.33121E+03 9.03480E+03-1.50703E-09-1.75908E-09
 -1       974-1.86128E+05-7.71748E+00-6.89737E+02 1.27983E+04-1.73713E-10 1.08048E-09
 -1       975-1.86081E+05 1.79486E+01-3.43772E+02 9.02857E+03-4.01997E-10-2.62821E-09
 -1       976-1.86088E+05 1.97056E+01-1.96871E+02 1.28057E+04-2.28545E-09-1.66006E-09
 -1       977-1.86089E+05 1.69346E+01-1.40057E+02 9.02742E+03 1.53204E-09-1.13522E-09
 -1       978-1.86089E+05 2.21990E+01-1.60163E+02 1.28073E+04 7.66431E-09 7.51129E-10
 -1       979-1.86089E+05 2.08464E+01-2.54016E+02 9.02695E+03 5.30832E-09 1.04222E-09
 -1       980-1.86107E+05 2.35815E+01-4.88396E+02 1.28075E+04 5.45397E-09-3.48672E-09
 -1       981-1.86073E+05 3.30580E+01-9.44740E+02 9.02721E+03-8.20592E-10-3.25838E-09
 -1       982-1.86238E+05-4.58276E+01-1.95209E+03 1.28039E+04-2.13049E-09 1.78261E-10
 -1       983-1.85955E+05-2.68189E+01-3.79244E+03 9.03061E+03 1.84150E-09 5.66786E-09
 -1       984-1.88063E+05-2.02539E+03-8.49244E+03 1.27531E+04-3.23098E-09 1.37334E-10
 -1       985-1.84239E+05-2.80125E+03-1.55948E+04 9.08109E+03 2.69233E-09-2.81034E-10
 -3
    1PSTEP                         7           4           1          
  100CL  104 4.68750E-01         409                     0    4           1
 -4  DISP        4    1
 -5  D1          1    2    1    0
 -5  D2          1    2    2    0
 -5  D3          1    2    3    0
 -5  ALL         1    2    0    0    1ALL
 -1         1 1.27084E-04 0.00000E+00 0.00000E+00
 -1         2 1.15546E-04 7.12385E-32 3.30872E-24
 -1         3 1.10140E-04 1.97694E-27 6.61744E-24
 -1         5 7.79901E-05-1.54446E-27 0.00000E+00
 -1         8 1.02666E-04-8.86138E-07 0.00000E+00
 -1         9 1.03326E-04 6.14844E-07 0.00000E+00
 -1        10 1.01915E-04-1.50241E-06 0.00000E+00
 -1        12 7.75020E-05 5.12305E-07 0.00000E+00
 -1        15 7.35885E-05-9.77710E-07 4.13590E-25
 -1        16 7.61813E-05 4.59754E-07 0.00000E+00
 -1        17 7.56367E-05-3.17282E-06 0.00000E+00
 -1        18 7.50465E-05 7.82277E-07 0.00000E+00
 -1        19 7.60381E-05 1.02178E-06 0.00000E+00
 -1        20 7.61699E-05 1.46103E-05 0.00000E+00
 -1        21 7.56689E-05 2.75163E-05 1.65436E-24
 -1        24 1.86444E-05-4.32014E-06 0.00000E+00
 -1        25 7.35657E-05 9.00681E-07 0.00000E+00
 -1        26 7.44936E-05 1.42303E-06 0.00000E+00
 -1        27 7.30753E-05 1.23333E-05 0.00000E+00
 -1        28 7.26223E-05 2.70796E-05 0.00000E+00
 -1        32 0.00000E+00 0.00000E+00 0.00000E+00
 -1        33 7.17366E-05 1.90744E-06 0.00000E+00
 -1        34 7.03673E-05 1.23127E-05 0.00000E+00
 -1        35 6.90663E-05 2.68488E-05 0.00000E+00
 -1        51 1.25497E-04-1.45659E-07 0.00000E+00
 -1        52 1.22554E-04-2.87409E-07 0.00000E+00
 -1        53 1.18522E-04-4.30651E-07 0.00000E+00
 -1        54 1.13679E-04-5.76821E-07-3.30872E-24
 -1        55 1.08301E-04-7.26645E-07 6.51405E-24
 -1        56 1.25941E-04-7.41974E-07-2.64698E-23
 -1        57 1.24943E-04-2.00037E-06 0.00000E+00
 -1        58 1.24086E-04-3.62943E-06-2.64698E-23
 -1        59 1.23308E-04-5.49254E-06 0.00000E+00
 -1        60 1.22559E-04-7.43251E-06 0.00000E+00
 -1        61 1.21778E-04-9.29290E-06-2.64698E-23
 -1        62 1.20910E-04-1.09216E-05 0.00000E+00
 -1        63 1.19902E-04-1.21739E-05 0.00000E+00
 -1        64 1.18707E-04-1.29282E-05-5.29396E-23
 -1        65 1.17286E-04-1.30779E-05 0.00000E+00
 -1        66 1.15611E-04-1.25535E-05-5.29396E-23
 -1        67 1.13666E-04-1.13058E-05 0.00000E+00
 -1        68 1.11446E-04-9.33041E-06 2.64698E-23
 -1        69 1.08964E-04-6.64229E-06-1.32349E-23
 -1        70 1.06234E-04-3.30547E-06 0.00000E+00
 -1        86 1.15253E-04 1.10423E-07 0.00000E+00
 -1        87 1.14374E-04 2.19936E-07 0.00000E+00
 -1        88 1.12843E-04 3.28608E-07 0.00000E+00
 -1        89 1.10591E-04 4.32334E-07 1.03398E-25
 -1        90 1.07469E-04 5.35031E-07 0.00000E+00
 -1       121 1.09910E-04-2.49132E-07 6.61744E-24
 -1       122 1.09222E-04-4.98471E-07-3.30872E-24
 -1       123 1.08076E-04-7.48224E-07 0.00000E+00
 -1       124 1.06474E-04-9.98633E-07 0.00000E+00
 -1       125 1.04419E-04-1.24983E-06 0.00000E+00
 -1       191 7.79765E-05 8.53914E-08-3.30872E-24
 -1       192 7.79359E-05 1.70781E-07-1.65436E-24
 -1       193 7.78681E-05 2.56170E-07-3.30872E-24
 -1       194 7.77732E-05 3.41555E-07 0.00000E+00
 -1       195 7.76512E-05 4.26934E-07 0.00000E+00
 -1       251 1.02687E-04 3.14658E-06 3.30872E-24
 -1       252 1.02728E-04 5.57697E-06 0.00000E+00
 -1       253 1.02771E-04 6.66242E-06 0.00000E+00
 -1       254 1.02816E-04 6.65744E-06 0.00000E+00
 -1       255 1.02862E-04 5.79017E-06 8.27181E-25
 -1       256 1.02908E-04 4.28705E-06-8.27181E-25
 -1       257 1.02952E-04 2.35893E-06-1.65436E-24
 -1       258 1.02997E-04 2.15839E-07 0.00000E+00
 -1       259 1.03042E-04-1.93755E-06 0.00000E+00
 -1       260 1.03086E-04-3.89652E-06 0.00000E+00
 -1       261 1.03132E-04-5.45157E-06-8.27181E-25
 -1       262 1.03177E-04-6.39246E-06 4.13590E-25
 -1       263 1.03223E-04-6.49385E-06 1.03398E-25
 -1       264 1.03265E-04-5.52875E-06-8.27181E-25
 -1       265 1.03306E-04-3.24437E-06 0.00000E+00
 -1       266 9.78201E-05-9.13353E-07 0.00000E+00
 -1       267 9.29738E-05-9.27158E-07 0.00000E+00
 -1       268 8.81275E-05-9.41812E-07 0.00000E+00
 -1       269 8.32811E-05-9.53951E-07 0.00000E+00
 -1       270 7.84349E-05-9.66030E-07 0.00000E+00
 -1       271 9.97165E-05 2.76950E-06 2.64698E-23
 -1       272 9.71920E-05 5.16347E-06 0.00000E+00
 -1       273 9.50932E-05 6.43514E-06 0.00000E+00
 -1       274 9.33564E-05 6.72356E-06-2.64698E-23
 -1       275 9.19269E-05 6.19202E-06-5.29396E-23
 -1       276 9.07374E-05 5.01594E-06 0.00000E+00
 -1       277 8.97183E-05 3.38370E-06 0.00000E+00
 -1       278 8.87962E-05 1.49157E-06 0.00000E+00
 -1       279 8.78959E-05-4.59194E-07-5.29396E-23
 -1       280 8.69420E-05-2.26619E-06 2.64698E-23
 -1       281 8.58600E-05-3.72995E-06-5.29396E-23
 -1       282 8.45780E-05-4.65701E-06 0.00000E+00
 -1       283 8.30265E-05-4.86444E-06-5.29396E-23
 -1       284 8.11456E-05-4.18060E-06 0.00000E+00
 -1       285 7.88703E-05-2.45445E-06 2.64698E-23
 -1       301 9.86230E-05 5.81812E-07-6.61744E-24
 -1       302 9.39417E-05 5.64148E-07 0.00000E+00
 -1       303 8.93197E-05 5.47193E-07 3.30872E-24
 -1       304 8.47941E-05 5.29044E-07 0.00000E+00
 -1       305 8.04024E-05 5.09068E-07 0.00000E+00
 -1       306 1.00280E-04 4.01932E-06 0.00000E+00
 -1       307 9.77137E-05 6.00526E-06 0.00000E+00
 -1       308 9.57072E-05 6.51508E-06-5.29396E-23
 -1       309 9.42490E-05 5.53688E-06-2.64698E-23
 -1       310 9.32660E-05 3.28761E-06-5.29396E-23
 -1       311 9.26527E-05 4.10948E-08 2.64698E-23
 -1       312 9.22525E-05-3.77873E-06 0.00000E+00
 -1       313 9.18975E-05-7.72125E-06-2.64698E-23
 -1       314 9.14137E-05-1.13169E-05 0.00000E+00
 -1       315 9.06325E-05-1.41127E-05 0.00000E+00
 -1       316 8.94288E-05-1.57761E-05 5.29396E-23
 -1       317 8.76984E-05-1.60280E-05 0.00000E+00
 -1       318 8.54119E-05-1.48007E-05 0.00000E+00
 -1       319 8.25775E-05-1.20926E-05-2.64698E-23
 -1       320 7.92634E-05-8.13064E-06 0.00000E+00
 -1       336 9.89061E-05-1.77601E-06 0.00000E+00
 -1       337 9.53379E-05-2.05175E-06 0.00000E+00
 -1       338 9.12175E-05-2.32944E-06 0.00000E+00
 -1       339 8.65537E-05-2.60901E-06-3.30872E-24
 -1       340 8.13564E-05-2.89115E-06 6.61744E-24
 -1       406 7.73258E-05 5.97662E-07-3.30872E-24
 -1       407 7.71224E-05 6.82986E-07 0.00000E+00
 -1       408 7.68919E-05 7.68252E-07 3.30872E-24
 -1       409 7.66342E-05 8.53355E-07 1.65436E-24
 -1       410 7.63496E-05 9.38126E-07 0.00000E+00
 -1       521 7.43608E-05-3.37841E-06 5.29396E-23
 -1       522 7.73127E-05-2.05881E-05-2.64698E-23
 -1       523 8.39657E-05-4.82714E-05-1.05879E-22
 -1       524 9.29097E-05-8.26917E-05-5.29396E-23
 -1       525 1.02380E-04-1.18661E-04-1.05879E-22
 -1       526 1.10567E-04-1.50864E-04-5.29396E-23
 -1       527 1.15885E-04-1.74797E-04-1.05879E-22
 -1       528 1.16891E-04-1.86650E-04 0.00000E+00
 -1       529 1.12959E-04-1.85184E-04 1.05879E-22
 -1       530 1.03835E-04-1.70238E-04 5.29396E-23
 -1       531 9.04023E-05-1.44464E-04-1.05879E-22
 -1       532 7.39724E-05-1.11354E-04 0.00000E+00
 -1       533 5.65763E-05-7.59041E-05 0.00000E+00
 -1       534 4.03694E-05-4.32802E-05 2.64698E-23
 -1       535 2.71834E-05-1.80903E-05 0.00000E+00
 -1       536 7.55810E-05 2.31509E-06 0.00000E+00
 -1       537 7.55364E-05 6.82721E-06 0.00000E+00
 -1       538 7.54953E-05 1.03306E-05 1.65436E-24
 -1       539 7.54583E-05 1.27941E-05 0.00000E+00
 -1       540 7.54233E-05 1.42615E-05 0.00000E+00
 -1       541 7.53895E-05 1.47786E-05 0.00000E+00
 -1       542 7.53558E-05 1.44595E-05 0.00000E+00
 -1       543 7.53216E-05 1.34198E-05-4.13590E-25
 -1       544 7.52868E-05 1.18271E-05 0.00000E+00
 -1       545 7.52514E-05 9.84999E-06 0.00000E+00
 -1       546 7.52156E-05 7.68462E-06 8.27181E-25
 -1       547 7.51800E-05 5.52758E-06 0.00000E+00
 -1       548 7.51447E-05 3.57477E-06-8.27181E-25
 -1       549 7.51106E-05 2.02186E-06 0.00000E+00
 -1       550 7.50771E-05 1.03572E-06 5.16988E-26
 -1       551 6.81194E-05-3.34380E-06 0.00000E+00
 -1       552 5.91299E-05-3.52332E-06-1.65436E-24
 -1       553 4.91742E-05-3.71137E-06 3.30872E-24
 -1       554 3.87662E-05-3.90602E-06 0.00000E+00
 -1       555 2.84195E-05-4.10278E-06 1.32349E-23
 -1       556 7.36499E-05 1.97188E-06 0.00000E+00
 -1       557 7.21267E-05 5.92011E-06 0.00000E+00
 -1       558 7.10164E-05 8.78116E-06 0.00000E+00
 -1       559 7.02734E-05 1.06730E-05 0.00000E+00
 -1       560 6.98515E-05 1.17135E-05 1.32349E-23
 -1       561 6.97053E-05 1.20209E-05 0.00000E+00
 -1       562 6.97899E-05 1.17139E-05 0.00000E+00
 -1       563 7.00602E-05 1.09111E-05 0.00000E+00
 -1       564 7.04717E-05 9.73138E-06 0.00000E+00
 -1       565 7.09796E-05 8.29351E-06 0.00000E+00
 -1       566 7.15396E-05 6.71642E-06 0.00000E+00
 -1       567 7.21071E-05 5.11904E-06 4.13590E-25
 -1       568 7.26378E-05 3.62025E-06 0.00000E+00
 -1       569 7.30873E-05 2.33883E-06 0.00000E+00
 -1       570 7.34111E-05 1.39358E-06 0.00000E+00
 -1       571 7.51067E-05 8.34985E-07 1.24077E-24
 -1       572 7.51682E-05 8.46592E-07-6.20385E-25
 -1       573 7.52301E-05 8.24464E-07 8.27181E-25
 -1       574 7.52922E-05 7.76354E-07-8.27181E-25
 -1       575 7.53543E-05 7.10050E-07 0.00000E+00
 -1       576 7.54165E-05 6.33389E-07 0.00000E+00
 -1       577 7.54787E-05 5.54216E-07 0.00000E+00
 -1       578 7.55409E-05 4.80380E-07 0.00000E+00
 -1       579 7.56031E-05 4.19730E-07 0.00000E+00
 -1       580 7.56653E-05 3.80118E-07 0.00000E+00
 -1       581 7.57275E-05 3.69393E-07 3.30872E-24
 -1       582 7.57897E-05 3.95396E-07-3.30872E-24
 -1       583 7.58519E-05 4.65961E-07 3.30872E-24
 -1       584 7.59140E-05 5.88842E-07 0.00000E+00
 -1       585 7.59761E-05 7.71745E-07-3.30872E-24
 -1       586 7.47774E-05 8.03228E-07 8.27181E-25
 -1       587 7.44821E-05 8.23665E-07-4.13590E-25
 -1       588 7.41868E-05 8.43880E-07 0.00000E+00
 -1       589 7.39181E-05 8.63775E-07 0.00000E+00
 -1       590 7.37025E-05 8.83129E-07 0.00000E+00
 -1       591 7.49976E-05 8.67231E-07 2.06795E-25
 -1       592 7.49588E-05 9.18661E-07 0.00000E+00
 -1       593 7.49300E-05 9.42959E-07 4.13590E-25
 -1       594 7.49089E-05 9.45878E-07 0.00000E+00
 -1       595 7.48936E-05 9.33251E-07-4.13590E-25
 -1       596 7.48819E-05 9.10864E-07-2.06795E-25
 -1       597 7.48717E-05 8.84501E-07 4.13590E-25
 -1       598 7.48608E-05 8.59944E-07-2.06795E-25
 -1       599 7.48471E-05 8.42972E-07 4.13590E-25
 -1       600 7.48283E-05 8.39364E-07 0.00000E+00
 -1       601 7.48024E-05 8.54900E-07-4.13590E-25
 -1       602 7.47672E-05 8.95365E-07-1.03398E-25
 -1       603 7.47206E-05 9.66543E-07 1.03398E-25
 -1       604 7.46605E-05 1.07427E-06 0.00000E+00
 -1       605 7.45848E-05 1.22429E-06 0.00000E+00
 -1       606 7.60495E-05 1.41350E-06 0.00000E+00
 -1       607 7.60588E-05 1.89309E-06 1.65436E-24
 -1       608 7.60674E-05 2.45539E-06 0.00000E+00
 -1       609 7.60757E-05 3.09460E-06 0.00000E+00
 -1       610 7.60839E-05 3.80487E-06 0.00000E+00
 -1       611 7.60920E-05 4.58027E-06 0.00000E+00
 -1       612 7.61000E-05 5.41486E-06 0.00000E+00
 -1       613 7.61079E-05 6.30271E-06 0.00000E+00
 -1       614 7.61159E-05 7.23789E-06 1.65436E-24
 -1       615 7.61237E-05 8.21445E-06 0.00000E+00
 -1       616 7.61316E-05 9.22646E-06 1.65436E-24
 -1       617 7.61394E-05 1.02680E-05 0.00000E+00
 -1       618 7.61472E-05 1.13331E-05 8.27181E-25
 -1       619 7.61549E-05 1.24158E-05 0.00000E+00
 -1       620 7.61625E-05 1.35102E-05 0.00000E+00
 -1       621 7.57343E-05 1.08870E-06 1.65436E-24
 -1       622 7.54564E-05 1.15595E-06-8.27181E-25
 -1       623 7.51990E-05 1.22319E-06 0.00000E+00
 -1       624 7.49563E-05 1.29032E-06 0.00000E+00
 -1       625 7.47231E-05 1.35734E-06 1.65436E-24
 -1       626 7.59629E-05 1.43463E-06-3.30872E-24
 -1       627 7.58609E-05 1.92012E-06 0.00000E+00
 -1       628 7.57344E-05 2.47149E-06 0.00000E+00
 -1       629 7.55859E-05 3.08152E-06 0.00000E+00
 -1       630 7.54180E-05 3.74299E-06 0.00000E+00
 -1       631 7.52336E-05 4.44862E-06 0.00000E+00
 -1       632 7.50354E-05 5.19113E-06 0.00000E+00
 -1       633 7.48260E-05 5.96326E-06 1.65436E-24
 -1       634 7.46082E-05 6.75772E-06-3.30872E-24
 -1       635 7.43848E-05 7.56725E-06 0.00000E+00
 -1       636 7.41584E-05 8.38458E-06 0.00000E+00
 -1       637 7.39318E-05 9.20242E-06 8.27181E-25
 -1       638 7.37077E-05 1.00135E-05 1.65436E-24
 -1       639 7.34887E-05 1.08106E-05 0.00000E+00
 -1       640 7.32773E-05 1.15863E-05 1.65436E-24
 -1       656 7.52600E-05 1.42398E-05 0.00000E+00
 -1       657 7.46807E-05 1.38545E-05 0.00000E+00
 -1       658 7.43069E-05 1.34705E-05-6.61744E-24
 -1       659 7.40099E-05 1.30867E-05 3.30872E-24
 -1       660 7.36468E-05 1.27018E-05-6.61744E-24
 -1       661 7.58337E-05 1.56873E-05-8.27181E-25
 -1       662 7.55185E-05 1.67162E-05-8.27181E-25
 -1       663 7.52207E-05 1.76982E-05-1.65436E-24
 -1       664 7.49401E-05 1.86359E-05 0.00000E+00
 -1       665 7.46755E-05 1.95310E-05-1.65436E-24
 -1       666 7.44262E-05 2.03857E-05-8.27181E-25
 -1       667 7.41915E-05 2.12018E-05 1.65436E-24
 -1       668 7.39706E-05 2.19811E-05 8.27181E-25
 -1       669 7.37628E-05 2.27252E-05-1.65436E-24
 -1       670 7.35676E-05 2.34360E-05 0.00000E+00
 -1       671 7.33844E-05 2.41149E-05 0.00000E+00
 -1       672 7.32124E-05 2.47634E-05 8.27181E-25
 -1       673 7.30513E-05 2.53830E-05 1.65436E-24
 -1       674 7.28998E-05 2.59748E-05 0.00000E+00
 -1       675 7.27584E-05 2.65404E-05-4.13590E-25
 -1       676 7.51599E-05 2.74431E-05-1.65436E-24
 -1       677 7.46511E-05 2.73699E-05 0.00000E+00
 -1       678 7.41427E-05 2.72967E-05 1.65436E-24
 -1       679 7.36350E-05 2.72238E-05 0.00000E+00
 -1       680 7.31281E-05 2.71509E-05-1.65436E-24
 -1       771 1.47365E-05 3.22029E-06 2.64698E-23
 -1       772 1.13406E-05 9.39689E-06 1.32349E-23
 -1       773 8.43568E-06 1.42848E-05-2.64698E-23
 -1       774 5.98912E-06 1.79643E-05 1.32349E-23
 -1       775 3.96897E-06 2.05177E-05 0.00000E+00
 -1       776 2.34178E-06 2.20304E-05-1.32349E-23
 -1       777 1.07370E-06 2.25895E-05 2.64698E-23
 -1       778 1.30161E-07 2.22847E-05 0.00000E+00
 -1       779-5.23718E-07 2.12069E-05 0.00000E+00
 -1       780-9.23429E-07 1.94495E-05 0.00000E+00
 -1       781-1.10460E-06 1.71067E-05 2.64698E-23
 -1       782-1.10334E-06 1.42745E-05 1.32349E-23
 -1       783-9.55846E-07 1.10496E-05-2.64698E-23
 -1       784-6.98575E-07 7.52987E-06 1.32349E-23
 -1       785-3.68106E-07 3.81359E-06 0.00000E+00
 -1       786 7.36203E-05 8.59864E-07 0.00000E+00
 -1       787 7.36782E-05 8.25061E-07-4.13590E-25
 -1       788 7.37358E-05 7.95806E-07-1.65436E-24
 -1       789 7.37941E-05 7.71654E-07 0.00000E+00
 -1       790 7.38523E-05 7.52840E-07 0.00000E+00
 -1       791 7.39107E-05 7.39618E-07 8.27181E-25
 -1       792 7.39691E-05 7.32992E-07 0.00000E+00
 -1       793 7.40276E-05 7.33982E-07-8.27181E-25
 -1       794 7.40860E-05 7.44638E-07-1.65436E-24
 -1       795 7.41444E-05 7.67030E-07 8.27181E-25
 -1       796 7.42029E-05 8.04813E-07 1.65436E-24
 -1       797 7.42613E-05 8.61678E-07-8.27181E-25
 -1       798 7.43197E-05 9.43889E-07 0.00000E+00
 -1       799 7.43779E-05 1.05777E-06 0.00000E+00
 -1       800 7.44362E-05 1.21392E-06 0.00000E+00
 -1       801 6.85960E-05 8.40873E-07 1.65436E-24
 -1       802 5.37170E-05 6.84633E-07 0.00000E+00
 -1       803 3.41872E-05 4.55625E-07 0.00000E+00
 -1       804 1.52753E-05 2.31294E-07 3.30872E-24
 -1       805 2.15650E-06 9.29567E-08-1.32349E-23
 -1       806 7.35093E-05 8.18585E-07-1.65436E-24
 -1       807 7.34495E-05 7.37637E-07 0.00000E+00
 -1       808 7.33870E-05 6.62342E-07 0.00000E+00
 -1       809 7.33206E-05 5.96508E-07 8.27181E-25
 -1       810 7.32492E-05 5.43935E-07-1.65436E-24
 -1       811 7.31713E-05 5.08363E-07-1.65436E-24
 -1       812 7.30857E-05 4.93532E-07 0.00000E+00
 -1       813 7.29908E-05 5.03170E-07-8.27181E-25
 -1       814 7.28854E-05 5.41001E-07-1.65436E-24
 -1       815 7.27680E-05 6.10749E-07-8.27181E-25
 -1       816 7.26373E-05 7.16132E-07 1.65436E-24
 -1       817 7.24918E-05 8.60869E-07 0.00000E+00
 -1       818 7.23302E-05 1.04868E-06-1.65436E-24
 -1       819 7.21511E-05 1.28325E-06-8.27181E-25
 -1       820 7.19534E-05 1.56830E-06 8.27181E-25
 -1       821 7.44101E-05 1.65229E-06-8.27181E-25
 -1       822 7.43215E-05 1.86959E-06 0.00000E+00
 -1       823 7.42332E-05 2.11467E-06 0.00000E+00
 -1       824 7.41440E-05 2.42718E-06 0.00000E+00
 -1       825 7.40546E-05 2.83426E-06-3.30872E-24
 -1       826 7.39651E-05 3.36266E-06 1.65436E-24
 -1       827 7.38754E-05 4.01666E-06 0.00000E+00
 -1       828 7.37856E-05 4.80002E-06-1.65436E-24
 -1       829 7.36957E-05 5.69253E-06 0.00000E+00
 -1       830 7.36058E-05 6.67353E-06 1.65436E-24
 -1       831 7.35159E-05 7.70601E-06-3.30872E-24
 -1       832 7.34261E-05 8.75268E-06 1.65436E-24
 -1       833 7.33364E-05 9.77365E-06 1.65436E-24
 -1       834 7.32477E-05 1.07291E-05 8.27181E-25
 -1       835 7.31588E-05 1.15915E-05 0.00000E+00
 -1       836 7.41700E-05 1.50368E-06 0.00000E+00
 -1       837 7.37401E-05 1.58611E-06-8.27181E-25
 -1       838 7.32427E-05 1.66838E-06 0.00000E+00
 -1       839 7.27170E-05 1.75012E-06 8.27181E-25
 -1       840 7.22019E-05 1.83173E-06-2.06795E-25
 -1       856 7.30502E-05 1.30668E-05 0.00000E+00
 -1       857 7.30222E-05 1.38975E-05-2.06795E-25
 -1       858 7.29943E-05 1.48101E-05 0.00000E+00
 -1       859 7.29659E-05 1.57892E-05 0.00000E+00
 -1       860 7.29373E-05 1.68194E-05-8.27181E-25
 -1       861 7.29087E-05 1.78851E-05-4.13590E-25
 -1       862 7.28800E-05 1.89709E-05 0.00000E+00
 -1       863 7.28512E-05 2.00611E-05 0.00000E+00
 -1       864 7.28225E-05 2.11401E-05 8.27181E-25
 -1       865 7.27938E-05 2.21924E-05 0.00000E+00
 -1       866 7.27652E-05 2.32025E-05-8.27181E-25
 -1       867 7.27365E-05 2.41549E-05 0.00000E+00
 -1       868 7.27080E-05 2.50341E-05-8.27181E-25
 -1       869 7.26794E-05 2.58247E-05 4.13590E-25
 -1       870 7.26510E-05 2.65116E-05 0.00000E+00
 -1       871 7.25250E-05 1.23325E-05 4.13590E-25
 -1       872 7.20683E-05 1.23298E-05 0.00000E+00
 -1       873 7.16650E-05 1.23267E-05 0.00000E+00
 -1       874 7.12742E-05 1.23231E-05-1.03398E-25
 -1       875 7.08551E-05 1.23191E-05 6.20385E-25
 -1       876 7.28852E-05 1.30749E-05-1.65436E-24
 -1       877 7.26794E-05 1.38639E-05 1.65436E-24
 -1       878 7.24580E-05 1.46944E-05-3.30872E-24
 -1       879 7.22233E-05 1.55612E-05 0.00000E+00
 -1       880 7.19770E-05 1.64588E-05 0.00000E+00
 -1       881 7.17212E-05 1.73821E-05 0.00000E+00
 -1       882 7.14577E-05 1.83256E-05-3.30872E-24
 -1       883 7.11886E-05 1.92840E-05 0.00000E+00
 -1       884 7.09159E-05 2.02521E-05 0.00000E+00
 -1       885 7.06416E-05 2.12244E-05-1.65436E-24
 -1       886 7.03676E-05 2.21957E-05 0.00000E+00
 -1       887 7.00959E-05 2.31607E-05-8.27181E-25
 -1       888 6.98285E-05 2.41140E-05 0.00000E+00
 -1       889 6.95670E-05 2.50502E-05 0.00000E+00
 -1       890 6.93135E-05 2.59640E-05 0.00000E+00
 -1       891 7.21355E-05 2.70410E-05 0.00000E+00
 -1       892 7.16319E-05 2.70022E-05 0.00000E+00
 -1       893 7.10924E-05 2.69635E-05 0.00000E+00
 -1       894 7.04978E-05 2.69249E-05 0.00000E+00
 -1       895 6.98287E-05 2.68863E-05-4.13590E-25
 -1       956 7.16526E-05 2.35701E-06-1.65436E-24
 -1       957 7.15673E-05 2.86145E-06 0.00000E+00
 -1       958 7.14817E-05 3.41504E-06 1.65436E-24
 -1       959 7.13959E-05 4.01173E-06-1.65436E-24
 -1       960 7.13100E-05 4.64544E-06 0.00000E+00
 -1       961 7.12241E-05 5.31007E-06 8.27181E-25
 -1       962 7.11382E-05 5.99951E-06 3.30872E-24
 -1       963 7.10523E-05 6.70766E-06-8.27181E-25
 -1       964 7.09663E-05 7.42839E-06-3.30872E-24
 -1       965 7.08804E-05 8.15559E-06 1.65436E-24
 -1       966 7.07944E-05 8.88315E-06 0.00000E+00
 -1       967 7.07085E-05 9.60494E-06-1.65436E-24
 -1       968 7.06227E-05 1.03149E-05-3.30872E-24
 -1       969 7.05370E-05 1.10068E-05 1.65436E-24
 -1       970 7.04515E-05 1.16747E-05 3.30872E-24
 -1       971 7.02871E-05 1.29686E-05 0.00000E+00
 -1       972 7.02057E-05 1.36967E-05 0.00000E+00
 -1       973 7.01242E-05 1.44889E-05 0.00000E+00
 -1       974 7.00426E-05 1.53370E-05-8.27181E-25
 -1       975 6.99608E-05 1.62327E-05 3.30872E-24
 -1       976 6.98790E-05 1.71676E-05 0.00000E+00
 -1       977 6.97972E-05 1.81336E-05-1.65436E-24
 -1       978 6.97153E-05 1.91222E-05 0.00000E+00
 -1       979 6.96334E-05 2.01251E-05-3.30872E-24
 -1       980 6.95516E-05 2.11341E-05 0.00000E+00
 -1       981 6.94697E-05 2.21408E-05-3.30872E-24
 -1       982 6.93880E-05 2.31368E-05-1.65436E-24
 -1       983 6.93063E-05 2.41139E-05 3.30872E-24
 -1       984 6.92251E-05 2.50638E-05 0.00000E+00
 -1       985 6.91441E-05 2.59781E-05-1.65436E-24
 -3
    1PSTEP                         8           4           1          
  100CL  104 4.68750E-01         409                     0    4           1
 -4  STRESS      6    1
 -5  SXX         1    4    1    1
 -5  SYY         1    4    2    2
 -5  SZZ         1    4    3    3
 -5  SXY         1    4    1    2
 -5  SYZ         1    4    2    3
 -5  SZX         1    4    3    1
 -1         1-1.66113E+06-7.53697E+05-3.41546E+05-1.05160E+06 1.30967E-10 2.61934E-09
 -1         2 2.90274E+03 3.19700E+05 9.30998E+03 8.37202E+02-5.59083E-10-1.85937E-08
 -1         3-8.82119E+01-7.11656E+05 1.66349E+02-2.59928E+02-1.11195E-10 2.00453E-09
 -1         5-5.85317E+00 2.44337E+05 6.40120E+00 1.10043E-01 6.28483E-11-2.38565E-08
 -1         8-7.85883E+05-3.33095E+05-3.43786E+04-5.65386E+05 5.31145E-10 3.23780E-09
 -1         9-1.37186E+06-3.45591E+05-1.33772E+05-4.61461E+05 1.96596E-09 9.31323E-10
 -1        10-5.77823E+02-7.41396E+05-9.84142E+02-1.75389E+03-3.45108E-09-6.87979E-09
 -1        12-3.23016E+00 2.44351E+05 2.07574E+02 9.97021E-01 1.33841E-10 6.66932E-09
 -1        15 1.98035E+03 1.08832E+03 6.40148E+03 4.15027E+00 5.97993E-11 9.38186E-09
 -1        16-3.52267E+06-1.21049E+06-5.55561E+05-1.24147E+06 1.15882E-08-5.27749E-09
 -1        17-8.49079E+05-5.15067E+05-1.64468E+05-4.75614E+05-5.06698E-09-6.08270E-10
 -1        18 5.95335E+03-2.87451E+03-1.71853E+04-5.81634E+04 7.00084E-10-4.36467E-09
 -1        19 7.65700E+04 9.12153E+04-4.39536E+02 1.49590E+04-5.56793E-10-4.09455E-09
 -1        20-3.22295E+04-3.61759E+05-7.98171E+04 2.64923E+04 3.59053E-09 7.44149E-09
 -1        21-3.40895E+01-2.09299E+05-6.75688E+02-7.30739E+01-6.20986E-09-2.71870E-09
 -1        24-3.25435E+06-1.02235E+06-4.49789E+05-1.25950E+06-2.11027E-08-1.26553E-08
 -1        25 2.28803E+04-3.28346E+04 1.01543E+04-1.05028E+05 3.20415E-10 9.96170E-09
 -1        26-1.80175E+04 6.22143E+04-1.23983E+04-8.77983E+03 1.45592E-09 5.81697E-09
 -1        27-5.77668E+04-1.98426E+05-7.44231E+04 4.47160E+04 4.44887E-09-5.57217E-10
 -1        28 1.62004E+04-5.78456E+04 1.18249E+04 1.84729E+04 4.48944E-09-2.96744E-09
 -1        32-7.84700E+05-1.81861E+05 3.18971E+05-5.24299E+05-1.61599E-08 1.12944E-08
 -1        33-1.13541E+05 5.83025E+04 2.06724E+04-3.37062E+04 9.50990E-10-2.38030E-09
 -1        34-1.47277E+05-1.46737E+04 3.46508E+02 4.53349E+04 3.25193E-09-1.44746E-09
 -1        35-1.64751E+04-2.29891E+04-9.01028E+02 3.64589E+04 4.52094E-09 3.54703E-10
 -1        51 1.40317E+04-3.66905E+05 3.63323E+04-9.31831E+05-8.73115E-11-5.74801E-09
 -1        52 8.82400E+03-3.65884E+05 2.43102E+04-1.08682E+06 8.29459E-10-2.90311E-09
 -1        53 6.64939E+03-3.78234E+05 2.10104E+04-9.28592E+05 2.91038E-10 1.42027E-08
 -1        54 1.90862E+04-3.76917E+05 3.40841E+04-1.09020E+06-3.20142E-10 7.81438E-09
 -1        55 3.79357E+04-3.89915E+05 6.10804E+04-9.28073E+05 7.27596E-10 1.47265E-08
 -1        56-3.18782E+06-3.58944E+05-2.50969E+05-1.22879E+06 1.78261E-10 5.52973E-10
 -1        57-3.28676E+06-5.87892E+05-1.69172E+05-1.22120E+06 8.18545E-10 9.99171E-09
 -1        58-3.23890E+06-4.37768E+05-5.90478E+04-1.21222E+06 4.01997E-10-4.40923E-09
 -1        59-3.22760E+06-4.95473E+05-3.52473E+04-1.24108E+06 1.88572E-09-6.54836E-09
 -1        60-3.24645E+06-4.48657E+05-1.37862E+04-1.20986E+06-1.38152E-09-3.86717E-09
 -1        61-3.22020E+06-4.81313E+05-7.82976E+03-1.24216E+06-2.27374E-11 1.48013E-08
 -1        62-3.24616E+06-4.51600E+05-3.77642E+03-1.21121E+06 1.79853E-09 4.31254E-09
 -1        63-3.22320E+06-4.75419E+05-3.06230E+03-1.23737E+06 1.43530E-09 9.27184E-09
 -1        64-3.24331E+06-4.54587E+05-3.55144E+03-1.21458E+06-1.11663E-09 6.39056E-09
 -1        65-3.23081E+06-4.69921E+05-7.01177E+03-1.22913E+06-7.63976E-10 3.49246E-09
 -1        66-3.23845E+06-4.57210E+05-1.24233E+04-1.21935E+06-3.88809E-11 2.90220E-09
 -1        67-3.24642E+06-4.73438E+05-3.14356E+04-1.21768E+06 4.62762E-10-4.02270E-09
 -1        68-3.22776E+06-4.51406E+05-5.28326E+04-1.22592E+06 7.13499E-10-7.54881E-09
 -1        69-3.30548E+06-5.50042E+05-1.51116E+05-1.19332E+06 4.47653E-09-2.58296E-09
 -1        70-3.18001E+06-3.82936E+05-2.24280E+05-1.24294E+06-5.02041E-10 1.14087E-08
 -1        86-1.45334E+03 3.16857E+05 9.96226E+03-4.18617E+02 2.11458E-11-5.11224E-09
 -1        87 9.60697E+03 3.23018E+05 2.08282E+04 1.78224E+03-3.04908E-10-7.31980E-09
 -1        88-8.14881E+03 3.13542E+05 3.17968E+04-1.36367E+03-4.34738E-10-4.35551E-09
 -1        89 6.03362E+04 3.46827E+05 8.59846E+04 4.11556E+03-4.57476E-10-1.75692E-09
 -1        90-5.20967E+04 2.93073E+05 1.21144E+05-2.75165E+03-7.42148E-10 4.10722E-09
 -1       121-1.38286E+02-7.12050E+05 1.31157E+02 1.29801E+02 4.13486E-10 2.54840E-09
 -1       122-3.28528E+01-7.11623E+05 3.59915E+02-5.19684E+02-1.35751E-09-1.11177E-08
 -1       123-1.76288E+02-7.12089E+05 5.54529E+02 3.88914E+02 1.05092E-09 3.63798E-09
 -1       124 6.33270E+02-7.11225E+05 1.50140E+03-1.16353E+03-2.72848E-09 1.28543E-08
 -1       125-6.04523E+02-7.12465E+05 2.27314E+03 7.73260E+02 1.81626E-09-2.01362E-09
 -1       191-6.35659E+00 2.44358E+05 7.58935E+00-5.57159E-02 1.49485E-10-6.73754E-09
 -1       192-6.44194E+00 2.44338E+05 1.35564E+01 6.62161E-01 2.35103E-10-2.78396E-09
 -1       193-7.92174E+00 2.44358E+05 2.51512E+01-6.11129E-01 2.26947E-10 1.03228E-09
 -1       194-8.33650E+00 2.44340E+05 5.12845E+01 1.63135E+00 1.36531E-10 2.73144E-09
 -1       195-1.09296E+01 2.44356E+05 1.00255E+02-1.03244E+00 3.63201E-10 1.62254E-09
 -1       251 1.13789E+05-4.10425E+04 9.56648E+04 3.85170E+03 2.34991E-10 5.96265E-09
 -1       252 1.58349E+05 4.74558E+04 6.80395E+04-1.36156E+04-1.13255E-09 9.51513E-09
 -1       253 1.30465E+05-6.35610E+03 2.47399E+04 2.94997E+03 8.58336E-11-1.74623E-09
 -1       254 1.38579E+05 7.33360E+03 1.57195E+04-1.22099E+04 7.30324E-10-9.95738E-09
 -1       255 1.33445E+05-9.82011E+02 6.39466E+03 2.44613E+03 7.84382E-10 6.62908E-09
 -1       256 1.34955E+05 1.17050E+03 3.92101E+03-1.14624E+04 1.50089E-09 2.14555E-09
 -1       257 1.34033E+05-1.72700E+02 2.02958E+03 2.20240E+03 6.01204E-10 7.85690E-10
 -1       258 1.34353E+05 3.83578E+02 1.83552E+03-1.12126E+04-9.06883E-10-2.60234E-09
 -1       259 1.34030E+05-1.84635E+02 2.14274E+03 2.19636E+03-8.81073E-11-9.21034E-10
 -1       260 1.34994E+05 1.27549E+03 4.24155E+03-1.14390E+04-1.68912E-09-1.49239E-08
 -1       261 1.33408E+05-1.07358E+03 6.98249E+03 2.42887E+03 1.37629E-09 2.06637E-09
 -1       262 1.38883E+05 8.02542E+03 1.71673E+04-1.21613E+04-2.59178E-10 1.50624E-08
 -1       263 1.30194E+05-6.95159E+03 2.70783E+04 2.91864E+03-4.33602E-10 1.50249E-09
 -1       264 1.60371E+05 5.19149E+04 7.43875E+04-1.35462E+04-2.54579E-09 4.62387E-09
 -1       265 1.12034E+05-4.48856E+04 1.04702E+05 3.81359E+03-1.32297E-09 1.44064E-08
 -1       266-3.58499E+04-1.67608E+04 8.41263E+04-8.88141E+01-3.27418E-11-8.97560E-09
 -1       267 4.15610E+04 1.95391E+04 5.94530E+04 1.02460E+02 1.06411E-10-2.46746E-08
 -1       268-5.57321E+03-2.76706E+03 2.20988E+04-1.30559E+01-2.72848E-12-1.70624E-08
 -1       269 6.58039E+03 3.31182E+03 1.43635E+04 1.52074E+01-7.93534E-11 4.81868E-09
 -1       270-9.87723E+02-5.44148E+02 6.93347E+03-2.06378E+00 3.47882E-11 2.02269E-09
 -1       271-3.50749E+06-4.38871E+05-2.69922E+05-1.36798E+06 2.11003E-09-5.83532E-09
 -1       272-3.58922E+06-6.50462E+05-1.73487E+05-1.38221E+06-7.29187E-10-4.32192E-09
 -1       273-3.55998E+06-5.04365E+05-6.37679E+04-1.35402E+06 6.00267E-11-6.11908E-09
 -1       274-3.52736E+06-5.70748E+05-3.56431E+04-1.40415E+06-3.51520E-10 6.97764E-09
 -1       275-3.56882E+06-5.09417E+05-1.48364E+04-1.34988E+06 2.29193E-09 7.60519E-09
 -1       276-3.51673E+06-5.65111E+05-7.85906E+03-1.41098E+06-1.63709E-10 1.12414E-09
 -1       277-3.57118E+06-5.08650E+05-3.84729E+03-1.34803E+06-1.29103E-09-2.05091E-10
 -1       278-3.51445E+06-5.65777E+05-2.78637E+03-1.41333E+06 1.79585E-09-3.29987E-09
 -1       279-3.57142E+06-5.08466E+05-2.98345E+03-1.34780E+06 9.84528E-11 4.45311E-09
 -1       280-3.51574E+06-5.65465E+05-5.46511E+03-1.41202E+06-3.68573E-10 5.41877E-09
 -1       281-3.56970E+06-5.09128E+05-1.00181E+04-1.34919E+06 1.62800E-09-1.48066E-09
 -1       282-3.52344E+06-5.68526E+05-2.38925E+04-1.40653E+06 1.54068E-09 3.57613E-09
 -1       283-3.56319E+06-5.06405E+05-4.27251E+04-1.35263E+06 1.25738E-09-5.20959E-09
 -1       284-3.56619E+06-6.20275E+05-1.16085E+05-1.38981E+06 1.43586E-10-1.01154E-08
 -1       285-3.52704E+06-4.63709E+05-1.80783E+05-1.36313E+06 3.67436E-10-5.20959E-09
 -1       301 1.45891E+04-1.75470E+04 1.11408E+05-4.46945E+04-8.69477E-10 7.04631E-09
 -1       302 1.56884E+04 1.06317E+04 7.94888E+04-6.58196E+04 1.48566E-09 2.30466E-08
 -1       303 8.65290E+02-7.38155E+03 7.17027E+04-4.47991E+04-8.09450E-10 1.17116E-08
 -1       304 2.78104E+04 2.19279E+04 1.19023E+05-6.55932E+04 8.53106E-10 1.66256E-09
 -1       305 2.74073E+04-2.85902E+04 1.98914E+05-4.48474E+04-9.24047E-10-1.15961E-09
 -1       306-3.92497E+06-4.58594E+05-2.97079E+05-1.53896E+06 2.94676E-09-7.63976E-09
 -1       307-4.08578E+06-7.00962E+05-2.02407E+05-1.47725E+06 4.48927E-09-1.14960E-09
 -1       308-3.99805E+06-5.45541E+05-6.99713E+04-1.50488E+06 3.43152E-09 1.05501E-10
 -1       309-3.99200E+06-6.09227E+05-4.21738E+04-1.52817E+06 1.04633E-09 8.29459E-09
 -1       310-4.01833E+06-5.48479E+05-1.64301E+04-1.48868E+06 1.10253E-09-2.27374E-10
 -1       311-3.96576E+06-6.09020E+05-9.46243E+03-1.55124E+06 2.41772E-09 3.96540E-10
 -1       312-4.02456E+06-5.45226E+05-4.62960E+03-1.48215E+06 1.44666E-09-1.74282E-09
 -1       313-3.96255E+06-6.08979E+05-4.16277E+03-1.55406E+06-2.76265E-09-2.38674E-09
 -1       314-4.02159E+06-5.48447E+05-5.11528E+03-1.48591E+06-2.09570E-09-1.18164E-08
 -1       315-3.97667E+06-5.97893E+05-1.05351E+04-1.53748E+06-2.81989E-09-5.63659E-10
 -1       316-4.01010E+06-5.56596E+05-1.88018E+04-1.49845E+06 8.93237E-10 5.37693E-09
 -1       317-4.01197E+06-5.93380E+05-4.80574E+04-1.50605E+06 7.75003E-10-1.36060E-09
 -1       318-3.98616E+06-5.53433E+05-7.97832E+04-1.51708E+06-5.47152E-09 7.82165E-09
 -1       319-4.11662E+06-7.01654E+05-2.31122E+05-1.45274E+06-5.74892E-09 7.32325E-09
 -1       320-3.90629E+06-4.50153E+05-3.38758E+05-1.55132E+06 8.59291E-09 3.52156E-09
 -1       336 4.96573E+02-7.70834E+05-4.20974E+03 9.78233E+02-6.84713E-09 5.05679E-10
 -1       337-1.53812E+03-7.71851E+05-4.65529E+03-2.48729E+03-1.25490E-08 6.96127E-09
 -1       338 3.34592E+02-7.70939E+05-5.98724E+03 1.50338E+03-9.16339E-09-4.65661E-10
 -1       339-6.20958E+03-7.74758E+05-1.31252E+04-3.52268E+03-1.65080E-08 8.18864E-09
 -1       340 4.18038E+03-7.68005E+05-2.02821E+04 2.00610E+03-1.07484E-08 1.41990E-08
 -1       406 1.25634E+01 2.44347E+05 4.09739E+02 1.73566E-02 5.04173E-10 1.67392E-09
 -1       407 1.39662E+02 2.44423E+05 8.70981E+02-8.06959E+00 9.91918E-11-3.32147E-09
 -1       408 4.45069E+02 2.44284E+05 1.73945E+03 8.20449E+00 5.97083E-10-5.09635E-09
 -1       409 1.87790E+03 2.44978E+05 3.91615E+03-7.88083E+01-7.79892E-11-1.58705E-08
 -1       410 5.40130E+03 2.43789E+05 7.99462E+03 7.35214E+01 7.19410E-10-6.04723E-09
 -1       521-7.36637E+06-7.75055E+05-5.66977E+05-2.72088E+06 3.22689E-09 3.34694E-09
 -1       522-7.08218E+06-1.58025E+06-3.49674E+05-3.07450E+06-2.71743E-08-1.51631E-08
 -1       523-7.57962E+06-7.77734E+05-1.31546E+05-2.48416E+06 4.13820E-09-2.08456E-08
 -1       524-6.88012E+06-1.54574E+06-7.24170E+04-3.37553E+06 3.58963E-08-3.45808E-08
 -1       525-7.60623E+06-7.77066E+05-2.93975E+04-2.44856E+06 2.40470E-08-2.59743E-08
 -1       526-6.89984E+06-1.41978E+06-4.25508E+03-3.23121E+06 1.75060E-08-1.66438E-10
 -1       527-7.53523E+06-9.20889E+05-2.66064E+04-2.61166E+06 2.37269E-08-2.61025E-09
 -1       528-7.12311E+06-1.09237E+06 2.02140E+04-2.79468E+06 6.87578E-10-7.49151E-09
 -1       529-7.34306E+06-1.13297E+06-3.21104E+04-2.85486E+06-1.20053E-09-5.54064E-09
 -1       530-7.56314E+06-7.09934E+05 2.76099E+03-2.38920E+06-1.74914E-08 6.73390E-09
 -1       531-7.11727E+06-1.28716E+06-3.49571E+04-3.03186E+06-4.14439E-08-1.79352E-09
 -1       532-7.90150E+06-5.20806E+05-7.10980E+04-2.20435E+06 2.58476E-08-3.61306E-08
 -1       533-7.04537E+06-1.29403E+06-1.24871E+05-3.07187E+06 1.27184E-08-5.44242E-08
 -1       534-7.89249E+06-8.11754E+05-3.52185E+05-2.23302E+06-1.37225E-08 3.74712E-08
 -1       535-7.11021E+06-1.01274E+06-5.54362E+05-2.98763E+06-6.86850E-09 2.80561E-08
 -1       536-1.04600E+05-1.75248E+04 4.03522E+04-6.37980E+02-7.68978E-10 1.08357E-08
 -1       537-8.55885E+04 2.02866E+04 2.88115E+04 9.37880E+00-9.64281E-09-5.54792E-09
 -1       538-9.78967E+04-2.75830E+03 1.03566E+04-2.45698E+02 3.08461E-10-4.11728E-09
 -1       539-9.34977E+04 3.18441E+03 6.74979E+03-8.22613E+02 4.89933E-09 4.33829E-09
 -1       540-9.66950E+04-4.36658E+02 2.56163E+03 1.94027E+02 9.56149E-10 8.12645E-09
 -1       541-9.50820E+04 4.94057E+02 1.64300E+03-1.63594E+03 1.43054E-10 5.36616E-09
 -1       542-9.63199E+04-6.47884E+01 5.55249E+02 5.67591E+02 2.82654E-11 1.85310E-11
 -1       543-9.56915E+04 4.45787E+01 2.80095E+02-2.25662E+03 2.39140E-10 9.08784E-11
 -1       544-9.60951E+04 1.95179E+01-1.15872E+02 8.14702E+02-1.48507E-09-1.13113E-09
 -1       545-9.60759E+04-1.91423E+02-5.26260E+02-2.58796E+03-1.65660E-09-5.54343E-09
 -1       546-9.59421E+04 1.75873E+02-1.03372E+03 8.98944E+02 9.68216E-10-4.20164E-09
 -1       547-9.66027E+04-1.27962E+03-2.62315E+03-2.58121E+03-2.90573E-09-4.03139E-09
 -1       548-9.55682E+04 1.10681E+03-4.23527E+03 8.07954E+02-3.24678E-09-4.54111E-09
 -1       549-9.95139E+04-8.15574E+03-1.14932E+04-2.23224E+03-1.51680E-09-5.73345E-09
 -1       550-9.30244E+04 7.04167E+03-1.64054E+04 5.49951E+02 1.84585E-10 4.30737E-09
 -1       551 8.69636E+03-3.98667E+05 2.08162E+04-6.75315E+05-3.07700E-08-8.39646E-09
 -1       552 1.91827E+04-4.01786E+05 2.77887E+04-9.61279E+05-2.38870E-08-2.11367E-09
 -1       553 1.30818E+04-4.06986E+05 4.31614E+04-6.72998E+05-3.70419E-08 4.91855E-09
 -1       554 4.15367E+04-3.90395E+05 9.17248E+04-9.62280E+05-2.14641E-08 4.54912E-09
 -1       555 3.97583E+04-4.24624E+05 1.64564E+05-6.73745E+05-3.73984E-08-6.92671E-09
 -1       556 6.10576E+04-1.29114E+05 4.37023E+04-1.68947E+05-6.54109E-09 3.76167E-09
 -1       557 1.13333E+05-1.72442E+05 2.29747E+04-2.11620E+05-8.29459E-10 3.86308E-09
 -1       558 6.08549E+04-1.34930E+05 9.26248E+03-1.63940E+05-6.82485E-09-7.17955E-09
 -1       559 1.06221E+05-1.78399E+05 4.71130E+03-2.14787E+05 6.17001E-09-6.44832E-10
 -1       560 5.92774E+04-1.33882E+05 1.93198E+03-1.64932E+05 1.16415E-09 1.96269E-09
 -1       561 1.03779E+05-1.77768E+05 1.03402E+03-2.16333E+05 1.90994E-09 6.69843E-10
 -1       562 5.80077E+04-1.33033E+05 3.85912E+02-1.65847E+05-3.63798E-10-5.89466E-09
 -1       563 1.02288E+05-1.77128E+05 2.49274E+02-2.17287E+05 4.02542E-09 5.29309E-09
 -1       564 5.72150E+04-1.32522E+05 8.72829E+01-1.66410E+05 3.89264E-09-5.63796E-09
 -1       565 1.01509E+05-1.76794E+05 5.89336E+01-2.17776E+05 3.93538E-09-6.48106E-09
 -1       566 5.69275E+04-1.32331E+05-1.56549E+01-1.66618E+05 1.69166E-09 6.81757E-09
 -1       567 1.01402E+05-1.76741E+05-9.97852E+01-2.17781E+05 7.18501E-09 7.12316E-09
 -1       568 5.71772E+04-1.32496E+05-3.01658E+02-1.66502E+05-1.65346E-09-2.31012E-09
 -1       569 1.01340E+05-1.76632E+05-7.05860E+02-2.16750E+05-6.98492E-10-4.41651E-09
 -1       570 5.84784E+04-1.33669E+05-1.51987E+03-1.66466E+05 4.66025E-09 8.39464E-10
 -1       571 1.77331E+05 6.45066E+03 9.55720E+03-4.50118E+04 1.69848E-09-5.71617E-10
 -1       572 1.78752E+05 2.24480E+03 4.68243E+03-4.93414E+04 1.18780E-09 3.37104E-09
 -1       573 1.77901E+05 5.36468E+02 2.08011E+03-4.48946E+04 2.12422E-08 3.28509E-09
 -1       574 1.78068E+05 1.76449E+02 1.04219E+03-4.94723E+04 3.99295E-08 3.76485E-09
 -1       575 1.77964E+05 2.64372E+01 4.91171E+02-4.48792E+04 1.98220E-08-2.54340E-09
 -1       576 1.77975E+05 9.68582E+00 2.50018E+02-4.94898E+04-3.71273E-10 3.26827E-09
 -1       577 1.77973E+05-8.44151E-01 1.23138E+02-4.48771E+04 1.13937E-09 6.80529E-09
 -1       578 1.77966E+05 1.17769E+00 6.71272E+01-4.94919E+04 1.17393E-09 3.24371E-09
 -1       579 1.77984E+05-2.87012E+00 4.09891E+01-4.48771E+04 1.47702E-09 5.60431E-09
 -1       580 1.77980E+05-4.55595E+00 3.82088E+01-4.94893E+04 1.09685E-09 1.09867E-09
 -1       581 1.78003E+05-9.89871E+00 5.16446E+01-4.48798E+04 3.16504E-10-1.84991E-09
 -1       582 1.78015E+05-2.90977E+00 9.84040E+01-4.94625E+04-6.30280E-10-2.62844E-10
 -1       583 1.78026E+05 2.01742E+01 1.88502E+02-4.49038E+04 8.69932E-09-1.39835E-10
 -1       584 1.78113E+05 1.66397E+02 4.22786E+02-4.92617E+04 1.84095E-08-7.87611E-09
 -1       585 1.78008E+05 5.38369E+02 8.58249E+02-4.50810E+04 1.03191E-08-3.09046E-09
 -1       586-2.12588E+03 5.82896E+04-2.81678E+03-1.53294E+05 2.99224E-10-1.09085E-08
 -1       587-4.43429E+02 5.79109E+04-2.94957E+02-1.68689E+05 5.99357E-10-1.93206E-08
 -1       588 6.16207E+02 5.79830E+04 2.05023E+03-1.53202E+05 3.30147E-10-3.26690E-09
 -1       589 3.03578E+03 5.91071E+04 5.94452E+03-1.68547E+05 5.29326E-10-9.39326E-09
 -1       590 8.70483E+03 5.72742E+04 1.27181E+04-1.53437E+05 1.93268E-10 9.72250E-10
 -1       591-3.89074E+04-1.10786E+04-1.28754E+04-2.01044E+04 1.62970E-10-3.17777E-09
 -1       592-4.01294E+04-1.42244E+04-6.97386E+03-2.34437E+04-3.16049E-10-3.64071E-09
 -1       593-4.02092E+04-1.01300E+04-2.90329E+03-2.10344E+04 2.00453E-09 4.82419E-09
 -1       594-3.83355E+04-1.23527E+04-1.44799E+03-2.35329E+04-6.76550E-10 1.96087E-09
 -1       595-4.03089E+04-1.01256E+04-6.65441E+02-2.10771E+04-4.86739E-09-2.98527E-09
 -1       596-3.82141E+04-1.22670E+04-3.39194E+02-2.35203E+04 3.69369E-10-6.83940E-10
 -1       597-4.03216E+04-1.01338E+04-1.86700E+02-2.10788E+04 3.79188E-10 4.56617E-09
 -1       598-3.82025E+04-1.22637E+04-1.53748E+02-2.35167E+04-7.12362E-10-6.88428E-09
 -1       599-4.03207E+04-1.01339E+04-2.00970E+02-2.10785E+04-6.31758E-10-7.92681E-09
 -1       600-3.82154E+04-1.22681E+04-3.77012E+02-2.35198E+04-1.20485E-09-3.96898E-09
 -1       601-4.03047E+04-1.01250E+04-7.45678E+02-2.10759E+04-6.16433E-09-3.23610E-09
 -1       602-3.83516E+04-1.23642E+04-1.62615E+03-2.35323E+04-1.12559E-08-6.71548E-09
 -1       603-4.01914E+04-1.01315E+04-3.26166E+03-2.10282E+04-5.42877E-09 1.21781E-09
 -1       604-4.03734E+04-1.44596E+04-7.83499E+03-2.34225E+04 1.54705E-09 6.70752E-09
 -1       605-3.87203E+04-1.12035E+04-1.44651E+04-1.99903E+04 5.18071E-10 8.70523E-09
 -1       606 2.51772E+04-8.54317E+03-1.53829E+04 2.45695E+04-3.64889E-09 3.04135E-09
 -1       607 2.25426E+04-2.75621E+03-7.65976E+03 2.75807E+04-1.16597E-09 2.25589E-09
 -1       608 2.40371E+04-4.64990E+02-3.43023E+03 2.43737E+04-6.17729E-09 4.00837E-09
 -1       609 2.37392E+04-1.20614E+02-1.73250E+03 2.77970E+04-2.06373E-08-1.38471E-09
 -1       610 2.38986E+04 2.25026E+01-8.27618E+02 2.43518E+04-1.39153E-08 2.64640E-09
 -1       611 2.38419E+04 3.42437E+01-4.17424E+02 2.78206E+04-8.22956E-09 2.02181E-09
 -1       612 2.38613E+04 3.64352E+01-1.99790E+02 2.43496E+04-3.72074E-09 3.75189E-09
 -1       613 2.38393E+04 4.20153E+01-9.10793E+01 2.78234E+04-4.46880E-09 3.17414E-09
 -1       614 2.38408E+04 3.73209E+01-2.54967E+01 2.43489E+04-9.69521E-10 5.85032E-09
 -1       615 2.38285E+04 4.70661E+01 2.83077E+01 2.78238E+04 4.77849E-09-1.57706E-09
 -1       616 2.38252E+04 4.25803E+01 9.39534E+01 2.43491E+04-4.55793E-09-9.35847E-09
 -1       617 2.38340E+04 7.07961E+01 2.17997E+02 2.78234E+04 2.14641E-10-7.49310E-09
 -1       618 2.38018E+04 1.08270E+02 4.40688E+02 2.43492E+04 1.10413E-09 1.35901E-09
 -1       619 2.39860E+04 4.13930E+02 9.90506E+02 2.78227E+04 6.84395E-10-1.08457E-09
 -1       620 2.36531E+04 1.15570E+03 1.99110E+03 2.43482E+04 1.76556E-09 3.25849E-09
 -1       621 3.03843E+02 1.92662E+05 2.64334E+03 6.64107E+03-2.78021E-10-1.95928E-09
 -1       622 3.47941E+02 1.93317E+05 2.25081E+03 9.69766E+03-2.91266E-10-4.99722E-09
 -1       623 1.41494E+01 1.92850E+05 2.59788E+03 6.60996E+03-2.44057E-10 5.79757E-09
 -1       624 1.17717E+03 1.94078E+05 4.94141E+03 9.72806E+03-2.85326E-10 9.42515E-09
 -1       625 1.18238E+03 1.91897E+05 8.59429E+03 6.61098E+03-1.56433E-10-1.01790E-09
 -1       626 1.59269E+05 4.40619E+04 3.17434E+03 8.60168E+04 6.63840E-09-2.16278E-09
 -1       627 1.57098E+05 4.56588E+04 1.52956E+03 8.94876E+04 2.18993E-08-2.34388E-09
 -1       628 1.59387E+05 4.25606E+04 6.46021E+02 8.64958E+04 1.60071E-10-5.09795E-09
 -1       629 1.56639E+05 4.52975E+04 3.16663E+02 8.96949E+04-2.24118E-08-3.26344E-09
 -1       630 1.59394E+05 4.24898E+04 1.46403E+02 8.65082E+04-1.11868E-10-2.49906E-09
 -1       631 1.56583E+05 4.52896E+04 7.87756E+01 8.96964E+04 6.12999E-09-2.24604E-08
 -1       632 1.59386E+05 4.24957E+04 5.20108E+01 8.65009E+04 3.66435E-09-8.96830E-09
 -1       633 1.56571E+05 4.52945E+04 5.81708E+01 8.96899E+04-4.95447E-10 2.20143E-09
 -1       634 1.59377E+05 4.24966E+04 9.41921E+01 8.64966E+04 7.08633E-09 6.08679E-10
 -1       635 1.56575E+05 4.52961E+04 1.91042E+02 8.96892E+04 3.38241E-09 1.13641E-08
 -1       636 1.59366E+05 4.24960E+04 3.85867E+02 8.64936E+04 1.18177E-09 1.98725E-09
 -1       637 1.56653E+05 4.53576E+04 8.48080E+02 8.96852E+04 4.20080E-09 2.08615E-09
 -1       638 1.59333E+05 4.26852E+04 1.74297E+03 8.64063E+04-2.54340E-09-7.56563E-09
 -1       639 1.57565E+05 4.66327E+04 4.12334E+03 8.94141E+04-4.34477E-09 2.05546E-09
 -1       640 1.59211E+05 4.64807E+04 8.55700E+03 8.47945E+04-2.58228E-09 2.22053E-09
 -1       656 4.31369E+04-1.09184E+06-1.04135E+05-3.66010E+02 3.85626E-10 2.67931E-10
 -1       657-5.70012E+04-1.13885E+06-8.61205E+04 7.03856E+03-7.51243E-10-9.17643E-09
 -1       658 1.36782E+04-1.10525E+06-5.28491E+04-1.36890E+03-4.52474E-11 1.90354E-10
 -1       659-6.11190E+04-1.14080E+06-9.15290E+04 7.70762E+03 1.30967E-10 4.58362E-09
 -1       660 4.72446E+04-1.08990E+06-1.13439E+05-1.03505E+03-1.31695E-09 4.51337E-09
 -1       661 1.54023E+05 1.67667E+04 1.47865E+04 6.01953E+04 2.37833E-09 9.08040E-09
 -1       662 1.61733E+05 2.83558E+04 9.96364E+03 5.76151E+04 4.50933E-09-1.55887E-09
 -1       663 1.56921E+05 2.15159E+04 3.48536E+03 5.93594E+04-2.06910E-11-2.16050E-09
 -1       664 1.58380E+05 2.27962E+04 2.08380E+03 5.86309E+04-5.15797E-10-1.81015E-09
 -1       665 1.57354E+05 2.21702E+04 8.21992E+02 5.92384E+04-2.31674E-09-2.37452E-09
 -1       666 1.57872E+05 2.20432E+04 4.79345E+02 5.87854E+04-6.97509E-09 7.10610E-09
 -1       667 1.57426E+05 2.22492E+04 2.52727E+02 5.92122E+04-6.61373E-11 1.39761E-09
 -1       668 1.57796E+05 2.19803E+04 2.53163E+02 5.88227E+04 3.46082E-09-6.90076E-09
 -1       669 1.57430E+05 2.22313E+04 3.39207E+02 5.92017E+04 1.91262E-09 4.03048E-10
 -1       670 1.57882E+05 2.21586E+04 7.35288E+02 5.88209E+04 5.60764E-09-3.15782E-09
 -1       671 1.57340E+05 2.20744E+04 1.30447E+03 5.92126E+04-2.21649E-09-3.51861E-09
 -1       672 1.58644E+05 2.34259E+04 3.33657E+03 5.86355E+04-4.28574E-09-9.76115E-10
 -1       673 1.56673E+05 2.09960E+04 5.59124E+03 5.93750E+04-5.57543E-09-5.63568E-09
 -1       674 1.63969E+05 3.24057E+04 1.59898E+04 5.70687E+04-5.18935E-09-1.09094E-09
 -1       675 1.52050E+05 1.33456E+04 2.37338E+04 6.06848E+04 1.93495E-09-3.40515E-09
 -1       676 1.75421E+01-2.09243E+05-8.14377E+02 3.65379E+01-1.19513E-09-8.33861E-10
 -1       677-2.16142E+02-2.09440E+05-1.49039E+03-7.30434E+01-4.45209E-09-7.10055E-09
 -1       678 1.44366E+02-2.09103E+05-2.63461E+03 3.64804E+01-2.21223E-09-3.55010E-09
 -1       679-2.63511E+03-2.11030E+05-6.25848E+03-7.28176E+01-4.84215E-09-3.65804E-09
 -1       680 1.57266E+03-2.07653E+05-1.00866E+04 3.58938E+01-3.63798E-11-2.54338E-09
 -1       771-2.24591E+06-3.98061E+05-5.57071E+04-9.36904E+05-9.84437E-09-8.35280E-09
 -1       772-2.23052E+06-4.28579E+05-2.98035E+04-9.71000E+05-7.77436E-09 3.72438E-09
 -1       773-2.25381E+06-3.91903E+05-1.30287E+04-9.40004E+05-3.40515E-09 3.68527E-09
 -1       774-2.22265E+06-4.22189E+05-6.29716E+03-9.74919E+05 6.51926E-09-1.56433E-09
 -1       775-2.25588E+06-3.90526E+05-3.30761E+03-9.40265E+05-2.69938E-09 8.91305E-10
 -1       776-2.22265E+06-4.22274E+05-1.49093E+03-9.77168E+05-2.29920E-09 1.86901E-09
 -1       777-2.25738E+06-3.89431E+05-1.00667E+03-9.40423E+05 1.49157E-09 1.51886E-09
 -1       778-2.22312E+06-4.22534E+05-4.19848E+02-9.79049E+05 3.78350E-10 3.45517E-09
 -1       779-2.25859E+06-3.88500E+05-4.52413E+02-9.40566E+05-4.63479E-09-2.54659E-09
 -1       780-2.22359E+06-4.22744E+05-3.01495E+02-9.80572E+05-2.51748E-09-1.70985E-10
 -1       781-2.25950E+06-3.87757E+05-5.47985E+02-9.40676E+05-8.07631E-09-1.15915E-09
 -1       782-2.22403E+06-4.22938E+05-9.26327E+02-9.81693E+05-1.00990E-08-2.54511E-09
 -1       783-2.26007E+06-3.87265E+05-1.86014E+03-9.40734E+05-2.54659E-09-4.31930E-09
 -1       784-2.22537E+06-4.24202E+05-4.37502E+03-9.82326E+05-6.07542E-09-1.58479E-10
 -1       785-2.25958E+06-3.87597E+05-8.09678E+03-9.40186E+05-1.03037E-08 1.28784E-09
 -1       786 1.63184E+05-8.74877E+03 2.02404E+04-9.20210E+00 9.51015E-07 1.40171E-08
 -1       787 1.71954E+05 1.01284E+04 1.43197E+04 1.74973E+00 1.89391E-06 4.98494E-09
 -1       788 1.66568E+05-1.37147E+03 5.23874E+03-4.66626E+00 2.00213E-06-4.42697E-09
 -1       789 1.68013E+05 1.58687E+03 3.29154E+03-6.97190E+00 2.10649E-06 9.67981E-09
 -1       790 1.67126E+05-2.14245E+02 1.33932E+03-4.80670E-01 2.33982E-06-1.11467E-08
 -1       791 1.67361E+05 2.48919E+02 7.86337E+02-1.62976E+01 2.57536E-06 1.10414E-08
 -1       792 1.67220E+05-3.45236E+01 3.58848E+02 4.65962E+00 3.15606E-06-1.50706E-08
 -1       793 1.67256E+05 4.84659E+01 2.35075E+02-2.89710E+01 3.73106E-06 5.50215E-09
 -1       794 1.67232E+05-1.39243E+01 1.74020E+02 1.21929E+01 1.86663E-06-1.13629E-08
 -1       795 1.67266E+05 7.17974E+01 2.51558E+02-4.85028E+01 5.88188E-09 8.32436E-09
 -1       796 1.67209E+05-5.78382E+01 3.76709E+02 2.41918E+01 6.99990E-10-9.09850E-10
 -1       797 1.67437E+05 4.23998E+02 8.88159E+02-8.02723E+01-6.23762E-10 3.32857E-09
 -1       798 1.67060E+05-3.65866E+02 1.40187E+03 4.39630E+01-7.55542E-11 6.28853E-09
 -1       799 1.68489E+05 2.70145E+03 3.82177E+03-1.33325E+02-8.15077E-10 3.75621E-10
 -1       800 1.66157E+05-2.33345E+03 5.39841E+03 7.72446E+01-2.36488E-10 5.23414E-09
 -1       801-4.94325E+03-1.74330E+05-5.31847E+03 1.88673E+04 1.00526E-08-3.76531E-09
 -1       802 1.77139E+04-7.41369E+04 3.86183E+04-7.27800E+04 2.71157E-08-9.17646E-09
 -1       803-1.19082E+04-1.31755E+05 5.40268E+04 2.11430E+04 2.13367E-08 1.82819E-08
 -1       804 1.12374E+05-1.96745E+04 1.63072E+05-7.30888E+04 2.51312E-08 2.49008E-08
 -1       805-9.97239E+04-2.28429E+05 2.02622E+05 1.91721E+04 8.90577E-09 2.27590E-08
 -1       806-1.93118E+05-4.12189E+04-1.63520E+04-8.02533E+04 5.62477E-09-3.20915E-09
 -1       807-1.94094E+05-3.88629E+04-8.03341E+03-8.45723E+04 6.73924E-09-3.48427E-09
 -1       808-1.93580E+05-3.53125E+04-3.40776E+03-8.30280E+04 1.29919E-08-2.14359E-09
 -1       809-1.92381E+05-3.66311E+04-1.66596E+03-8.48023E+04 1.68881E-08-1.50064E-08
 -1       810-1.93653E+05-3.51043E+04-7.62843E+02-8.31504E+04 1.62543E-08 8.51185E-09
 -1       811-1.92250E+05-3.65429E+04-3.78338E+02-8.47823E+04 2.34957E-09 2.20052E-09
 -1       812-1.93665E+05-3.51200E+04-1.88861E+02-8.31500E+04 4.83305E-09 5.15843E-09
 -1       813-1.92232E+05-3.65452E+04-1.19185E+02-8.47718E+04 3.42220E-09-7.82370E-09
 -1       814-1.93663E+05-3.51260E+04-1.11881E+02-8.31473E+04 2.38106E-09 1.91335E-09
 -1       815-1.92234E+05-3.65472E+04-1.75143E+02-8.47685E+04-3.03589E-09-1.57752E-09
 -1       816-1.93651E+05-3.51249E+04-3.28228E+02-8.31449E+04-3.60114E-09-8.85620E-10
 -1       817-1.92290E+05-3.65787E+04-7.03615E+02-8.47621E+04 6.61430E-10 1.45019E-08
 -1       818-1.93608E+05-3.52239E+04-1.43402E+03-8.30980E+04-4.61296E-09-9.36097E-09
 -1       819-1.93081E+05-3.74394E+04-3.37489E+03-8.45699E+04-2.90856E-09 1.31513E-09
 -1       820-1.93335E+05-3.77757E+04-6.86857E+03-8.20099E+04-2.12094E-09 7.14181E-09
 -1       821-2.49688E+05 1.38468E+04-3.20231E+04 8.64653E+01-3.87105E-10-5.27507E-09
 -1       822-2.63566E+05-1.60300E+04-2.26610E+04-6.07509E+02-2.03765E-09 3.45426E-09
 -1       823-2.55044E+05 2.17082E+03-8.29408E+03 5.50425E+01 8.34676E-10 1.90494E-09
 -1       824-2.57320E+05-2.51264E+03-5.21861E+03-4.63508E+02 1.99274E-10 5.63159E-09
 -1       825-2.55931E+05 3.39726E+02-2.14503E+03-5.75394E+01-2.64145E-09-1.43837E-09
 -1       826-2.56287E+05-4.00677E+02-1.29472E+03-2.01308E+02-4.85723E-09-5.12114E-09
 -1       827-2.56076E+05 6.02593E+01-6.70383E+02-2.07162E+02-3.91692E-09-2.86414E-09
 -1       828-2.56147E+05-1.22225E+02-5.92356E+02 7.84226E+01-4.96510E-09 3.24165E-09
 -1       829-2.56071E+05 6.15300E+01-6.80110E+02-3.37275E+02-3.71594E-10 8.01862E-10
 -1       830-2.56305E+05-4.10689E+02-1.32783E+03 2.69969E+02 2.20370E-09-4.65036E-09
 -1       831-2.55919E+05 3.48697E+02-2.19890E+03-3.98712E+02-2.45726E-09-5.32168E-10
 -1       832-2.57362E+05-2.57878E+03-5.35824E+03 3.01527E+02-2.06585E-09 3.15083E-09
 -1       833-2.55015E+05 2.22809E+03-8.51458E+03-3.68833E+02-2.33081E-09 2.69210E-09
 -1       834-2.63759E+05-1.64555E+04-2.32630E+04 1.63410E+02-1.28778E-09-1.33559E-09
 -1       835-2.49523E+05 1.42145E+04-3.28776E+04-2.60585E+02 3.35751E-09 3.02862E-09
 -1       836-8.31303E+02 2.36204E+05 1.42329E+04-2.06131E+04 1.57979E-09-5.48562E-09
 -1       837 3.13657E+03 2.40609E+05 1.21460E+04-4.13968E+04 2.44563E-09-7.08951E-09
 -1       838-3.03424E+02 2.37430E+05 1.25169E+04-2.05435E+04 2.00907E-09 2.23883E-09
 -1       839 8.03508E+03 2.44261E+05 2.38175E+04-4.14217E+04 2.64299E-09 7.17549E-10
 -1       840-2.41250E+03 2.32519E+05 3.80373E+04-2.05867E+04 1.69348E-09-5.89262E-09
 -1       856-7.72178E+04 6.65099E+03-1.75270E+04-3.93121E+02-1.87987E-09 5.40058E-09
 -1       857-8.44581E+04-7.80051E+03-1.20670E+04 3.99961E+03-1.26022E-09 1.46656E-10
 -1       858-8.00783E+04 9.31909E+02-4.54877E+03-4.10751E+02-2.59030E-09 9.09495E-10
 -1       859-8.11730E+04-1.08336E+03-2.74734E+03 4.02774E+03 1.32718E-09 4.76524E-09
 -1       860-8.05060E+04 1.29589E+02-1.15519E+03-4.21383E+02 1.80709E-09-5.93224E-09
 -1       861-8.06803E+04-1.42993E+02-6.43506E+02 4.04228E+03-4.97874E-09-4.30214E-09
 -1       862-8.05725E+04 1.71611E+01-2.83556E+02-4.25313E+02 4.44654E-09 3.22049E-09
 -1       863-8.06016E+04-1.03354E+01-1.39745E+02 4.04403E+03 6.59196E-09 1.17213E-09
 -1       864-8.05849E+04-1.57949E-01-4.29129E+01-4.23138E+02 2.67597E-09-6.63407E-09
 -1       865-8.05783E+04 2.05670E+01 2.89138E+01 4.03308E+03 2.18712E-09-1.75513E-09
 -1       866-8.05945E+04-1.41250E+01 1.00436E+02-4.14366E+02-7.07701E-12-4.71057E-09
 -1       867-8.05200E+04 1.18485E+02 2.74233E+02 4.00929E+03-2.22639E-09-6.32068E-09
 -1       868-8.06405E+04-9.74600E+01 4.62247E+02-3.99341E+02 1.13351E-09-3.88658E-09
 -1       869-8.01732E+04 8.08258E+02 1.24069E+03 3.96985E+03-9.58153E-10-1.11258E-08
 -1       870-8.09372E+04-6.86843E+02 1.79927E+03-3.74933E+02 1.15898E-09-1.88618E-09
 -1       871-3.66180E+03-7.65604E+03-1.18664E+04 7.78031E+04 2.27010E-09-3.84716E-10
 -1       872-1.59772E+03-1.03095E+04-4.83399E+03 1.00866E+05 4.22278E-09-1.71599E-09
 -1       873-4.39823E+01-9.07012E+03 6.99171E+02 7.76318E+04 1.77533E-09 4.84476E-09
 -1       874 1.81718E+03-7.33799E+03 6.75039E+03 1.00902E+05 4.88990E-09-2.22099E-09
 -1       875 4.32312E+03-1.06725E+04 1.49643E+04 7.77746E+04 2.64208E-09-4.60614E-09
 -1       876 1.94398E+05 3.35253E+04 1.04148E+04 7.89036E+04-4.24996E-09 1.93359E-09
 -1       877 1.94987E+05 3.58173E+04 5.56171E+03 8.19899E+04-3.69528E-09 6.40864E-09
 -1       878 1.95371E+05 3.23725E+04 2.33010E+03 7.97588E+04 1.24510E-09 1.86355E-09
 -1       879 1.93570E+05 3.44065E+04 1.16072E+03 8.20640E+04-2.84490E-09 6.23487E-10
 -1       880 1.95442E+05 3.23595E+04 5.40375E+02 7.97936E+04-1.89107E-09-1.91903E-09
 -1       881 1.93476E+05 3.43467E+04 2.87777E+02 8.20495E+04-1.48782E-09 4.29964E-09
 -1       882 1.95449E+05 3.23679E+04 1.82758E+02 7.97946E+04-5.18185E-10 9.05782E-09
 -1       883 1.93470E+05 3.43439E+04 1.94293E+02 8.20453E+04-4.87216E-09 1.47909E-08
 -1       884 1.95446E+05 3.23658E+04 3.07104E+02 7.97947E+04-2.13339E-09-2.19757E-09
 -1       885 1.93494E+05 3.43483E+04 6.16220E+02 8.20531E+04 1.88047E-09-4.29452E-09
 -1       886 1.95422E+05 3.23477E+04 1.24140E+03 7.97923E+04 3.37536E-09-3.00724E-09
 -1       887 1.93712E+05 3.44912E+04 2.71147E+03 8.20844E+04-5.55616E-10 1.23805E-10
 -1       888 1.95250E+05 3.23780E+04 5.46366E+03 7.97055E+04 9.67589E-10-4.02179E-09
 -1       889 1.96968E+05 3.78712E+04 1.30523E+04 8.19808E+04 1.94480E-09-4.05157E-09
 -1       890 1.93024E+05 3.50223E+04 2.44459E+04 7.76213E+04 3.67027E-09 9.75888E-10
 -1       891-1.23112E+02-1.10528E+05-1.30349E+03 2.10248E+04 1.88481E-09 2.18779E-09
 -1       892-2.13848E+02-1.10839E+05-1.41867E+03 3.18141E+04-1.07093E-10-8.12634E-10
 -1       893-3.63869E+01-1.10569E+05-2.02789E+03 2.10289E+04-1.24555E-09 1.78215E-09
 -1       894-1.11180E+03-1.11618E+05-4.21113E+03 3.17011E+04-2.27192E-09 2.74440E-09
 -1       895-8.68293E+02-1.09694E+05-7.42093E+03 2.11363E+04-1.51158E-09 2.39652E-09
 -1       956-2.44312E+05-3.52163E+03-8.87008E+03 1.61628E+04-3.79987E-09 8.55721E-10
 -1       957-2.46064E+05-1.18651E+03-4.55359E+03 1.94626E+04-2.47019E-09-7.87281E-10
 -1       958-2.45098E+05-9.29724E+01-2.05148E+03 1.60571E+04 2.48292E-09 3.18096E-10
 -1       959-2.45238E+05-1.43964E+01-1.04786E+03 1.95767E+04-1.79080E-09-2.80647E-09
 -1       960-2.45168E+05 3.10490E+01-5.10737E+02 1.60471E+04-3.58978E-09 4.73847E-10
 -1       961-2.45178E+05 2.95480E+01-2.70787E+02 1.95881E+04-6.76209E-09 1.22373E-09
 -1       962-2.45182E+05 2.73217E+01-1.54593E+02 1.60457E+04-1.24646E-09 3.65321E-09
 -1       963-2.45175E+05 3.05707E+01-1.23365E+02 1.95901E+04-3.81226E-09 5.40547E-09
 -1       964-2.45185E+05 2.90271E+01-1.48832E+02 1.60451E+04-9.37916E-10-3.95005E-09
 -1       965-2.45184E+05 3.33043E+01-2.56396E+02 1.95902E+04 1.91565E-09-2.72667E-09
 -1       966-2.45178E+05 3.60719E+01-4.80821E+02 1.60456E+04-2.58399E-09-2.79863E-09
 -1       967-2.45248E+05-4.35304E+00-9.85932E+02 1.95841E+04 6.66319E-10 2.63117E-09
 -1       968-2.45117E+05-7.71305E+01-1.92927E+03 1.60513E+04 2.25828E-09 5.32350E-09
 -1       969-2.46031E+05-1.10378E+03-4.28353E+03 1.95172E+04 2.11821E-09-1.13818E-09
 -1       970-2.44382E+05-3.30029E+03-8.34329E+03 1.61149E+04 1.52363E-09 2.27283E-09
 -1       971-2.32052E+05-1.22495E+03-6.82209E+03 1.13357E+04-4.92992E-09 5.54948E-09
 -1       972-2.33712E+05-8.77187E+02-3.71540E+03 1.58360E+04-2.97018E-09-4.53679E-09
 -1       973-2.32810E+05-6.26441E+00-1.66353E+03 1.12413E+04-2.90356E-09-5.90035E-11
 -1       974-2.32926E+05-5.94961E+00-8.61816E+02 1.59376E+04 1.30854E-09-3.19869E-09
 -1       975-2.32868E+05 2.51313E+01-4.29670E+02 1.12330E+04 1.18325E-09 2.12958E-09
 -1       976-2.32878E+05 2.92938E+01-2.46026E+02 1.59476E+04-3.25360E-09-4.90559E-10
 -1       977-2.32879E+05 2.45848E+01-1.75133E+02 1.12312E+04 1.21486E-09-5.09692E-09
 -1       978-2.32880E+05 3.29794E+01-2.00327E+02 1.59501E+04 1.12146E-08-1.07468E-09
 -1       979-2.32878E+05 2.98150E+01-3.17844E+02 1.12305E+04 5.87028E-09-3.42209E-09
 -1       980-2.32904E+05 3.48605E+01-6.11200E+02 1.59505E+04 5.34845E-09-6.60316E-09
 -1       981-2.32859E+05 4.50479E+01-1.18240E+03 1.12308E+04 2.00862E-09 2.08303E-09
 -1       982-2.33066E+05-5.22826E+01-2.44322E+03 1.59458E+04-2.67119E-09 2.35841E-09
 -1       983-2.32710E+05-3.03207E+01-4.74673E+03 1.12353E+04 2.09843E-09 5.34067E-09
 -1       984-2.35349E+05-2.53072E+03-1.06295E+04 1.58819E+04 1.19098E-09 4.13627E-09
 -1       985-2.30562E+05-3.50338E+03-1.95192E+04 1.12993E+04 4.10500E-09-9.63155E-10
 -3
    1PSTEP                         9           5           1          
  100CL  105 5.03906E-01         409                     0    5           1
 -4  DISP        4    1
 -5  D1          1    2    1    0
 -5  D2          1    2    2    0
 -5  D3          1    2    3    0
 -5  ALL         1    2    0    0    1ALL
 -1         1 1.52999E-04 0.00000E+00 0.00000E+00
 -1         2 1.37981E-04-4.96684E-32 0.00000E+00
 -1         3 1.35477E-04-1.07489E-27 6.61744E-24
 -1         5 9.22380E-05 1.67388E-27 3.30872E-24
 -1         8 1.28013E-04-8.82749E-07 0.00000E+00
 -1         9 1.25465E-04-7.21262E-08 0.00000E+00
 -1        10 1.25013E-04-1.83238E-06 0.00000E+00
 -1        12 9.18427E-05 5.52921E-07-1.65436E-24
 -1        15 9.82294E-05-9.77880E-07 0.00000E+00
 -1        16 1.02027E-04-2.49949E-07 0.00000E+00
 -1        17 9.17514E-05-3.88842E-06 0.00000E+00
 -1        18 8.95785E-05 2.53320E-06 0.00000E+00
 -1        19 9.06567E-05 1.10287E-06 0.00000E+00
 -1        20 9.07962E-05 1.41315E-05 0.00000E+00
 -1        21 9.02503E-05 2.62422E-05 1.65436E-24
 -1        24 2.04413E-05-5.36848E-06 0.00000E+00
 -1        25 8.86711E-05 2.66297E-06 0.00000E+00
 -1        26 8.96162E-05 1.53375E-06 0.00000E+00
 -1        27 8.80846E-05 1.16663E-05 0.00000E+00
 -1        28 8.76184E-05 2.57729E-05 0.00000E+00
 -1        32 0.00000E+00 0.00000E+00 0.00000E+00
 -1        33 8.73243E-05 2.05453E-06 0.00000E+00
 -1        34 8.58423E-05 1.16435E-05 0.00000E+00
 -1        35 8.44389E-05 2.55243E-05 0.00000E+00
 -1        51 1.51376E-04-1.45902E-07 0.00000E+00
 -1        52 1.48366E-04-2.86911E-07 0.00000E+00
 -1        53 1.44242E-04-4.29302E-07 0.00000E+00
 -1        54 1.39285E-04-5.74644E-07 0.00000E+00
 -1        55 1.33781E-04-7.23741E-07 3.87741E-24
 -1        56 1.51636E-04-8.02517E-07 0.00000E+00
 -1        57 1.50395E-04-2.08853E-06 1.32349E-23
 -1        58 1.49285E-04-3.71325E-06-5.29396E-23
 -1        59 1.48242E-04-5.54418E-06 2.64698E-23
 -1        60 1.47217E-04-7.42666E-06 0.00000E+00
 -1        61 1.46153E-04-9.20792E-06 0.00000E+00
 -1        62 1.44996E-04-1.07417E-05 0.00000E+00
 -1        63 1.43695E-04-1.18911E-05 2.64698E-23
 -1        64 1.42209E-04-1.25467E-05 0.00000E+00
 -1        65 1.40504E-04-1.26165E-05 0.00000E+00
 -1        66 1.38560E-04-1.20506E-05 5.29396E-23
 -1        67 1.36367E-04-1.08213E-05 0.00000E+00
 -1        68 1.33932E-04-8.94921E-06 5.29396E-23
 -1        69 1.31278E-04-6.47443E-06 2.64698E-23
 -1        70 1.28427E-04-3.48658E-06 0.00000E+00
 -1        86 1.37631E-04-4.48099E-09 8.27181E-25
 -1        87 1.36582E-04-9.97489E-09 0.00000E+00
 -1        88 1.34838E-04-1.64754E-08-1.65436E-24
 -1        89 1.32399E-04-2.77795E-08 0.00000E+00
 -1        90 1.29273E-04-3.97597E-08 0.00000E+00
 -1       121 1.35185E-04-3.03386E-07 0.00000E+00
 -1       122 1.34308E-04-6.07107E-07 0.00000E+00
 -1       123 1.32849E-04-9.11492E-07-6.61744E-24
 -1       124 1.30811E-04-1.21692E-06 0.00000E+00
 -1       125 1.28197E-04-1.52361E-06 0.00000E+00
 -1       191 9.22270E-05 9.21594E-08 3.30872E-24
 -1       192 9.21941E-05 1.84317E-07 0.00000E+00
 -1       193 9.21392E-05 2.76475E-07 0.00000E+00
 -1       194 9.20623E-05 3.68629E-07 1.65436E-24
 -1       195 9.19635E-05 4.60778E-07 0.00000E+00
 -1       251 1.27841E-04 3.39870E-06 0.00000E+00
 -1       252 1.27680E-04 6.31727E-06 3.30872E-24
 -1       253 1.27522E-04 7.94245E-06 0.00000E+00
 -1       254 1.27367E-04 8.35177E-06 3.30872E-24
 -1       255 1.27212E-04 7.71862E-06 6.61744E-24
 -1       256 1.27056E-04 6.22296E-06-3.30872E-24
 -1       257 1.26899E-04 4.11267E-06 6.61744E-24
 -1       258 1.26741E-04 1.63952E-06 0.00000E+00
 -1       259 1.26583E-04-9.16254E-07 6.61744E-24
 -1       260 1.26425E-04-3.27379E-06 0.00000E+00
 -1       261 1.26269E-04-5.16783E-06-6.61744E-24
 -1       262 1.26113E-04-6.33615E-06-3.30872E-24
 -1       263 1.25957E-04-6.57357E-06-6.61744E-24
 -1       264 1.25799E-04-5.68081E-06 0.00000E+00
 -1       265 1.25639E-04-3.54778E-06 0.00000E+00
 -1       266 1.23049E-04-9.10675E-07-6.61744E-24
 -1       267 1.18085E-04-9.25059E-07 0.00000E+00
 -1       268 1.13121E-04-9.40300E-07 0.00000E+00
 -1       269 1.08157E-04-9.53001E-07-4.13590E-25
 -1       270 1.03193E-04-9.65642E-07 0.00000E+00
 -1       271 1.25015E-04 2.93466E-06 2.64698E-23
 -1       272 1.22419E-04 5.55526E-06-1.32349E-23
 -1       273 1.20232E-04 7.09859E-06 5.29396E-23
 -1       274 1.18399E-04 7.68311E-06 0.00000E+00
 -1       275 1.16871E-04 7.45082E-06 5.29396E-23
 -1       276 1.15591E-04 6.55567E-06 0.00000E+00
 -1       277 1.14496E-04 5.16479E-06-5.29396E-23
 -1       278 1.13521E-04 3.45382E-06-2.64698E-23
 -1       279 1.12597E-04 1.60451E-06 0.00000E+00
 -1       280 1.11656E-04-1.98880E-07 2.64698E-23
 -1       281 1.10630E-04-1.77309E-06-5.29396E-23
 -1       282 1.09452E-04-2.93881E-06 2.64698E-23
 -1       283 1.08057E-04-3.52470E-06-5.29396E-23
 -1       284 1.06388E-04-3.36811E-06-2.64698E-23
 -1       285 1.04385E-04-2.32403E-06 0.00000E+00
 -1       301 1.21246E-04-1.12769E-07 0.00000E+00
 -1       302 1.17070E-04-1.34462E-07 0.00000E+00
 -1       303 1.12999E-04-1.54957E-07 0.00000E+00
 -1       304 1.09094E-04-1.76036E-07-3.30872E-24
 -1       305 1.05417E-04-1.98560E-07 0.00000E+00
 -1       306 1.22474E-04 2.23620E-06 0.00000E+00
 -1       307 1.20297E-04 2.20432E-06 0.00000E+00
 -1       308 1.18946E-04-2.22192E-08 0.00000E+00
 -1       309 1.18310E-04-4.20084E-06 0.00000E+00
 -1       310 1.18175E-04-9.73289E-06 0.00000E+00
 -1       311 1.18289E-04-1.59461E-05 2.64698E-23
 -1       312 1.18361E-04-2.20454E-05-5.29396E-23
 -1       313 1.18100E-04-2.72428E-05-2.64698E-23
 -1       314 1.17271E-04-3.09113E-05 0.00000E+00
 -1       315 1.15671E-04-3.25117E-05 0.00000E+00
 -1       316 1.13232E-04-3.18749E-05-5.29396E-23
 -1       317 1.09934E-04-2.89586E-05 2.64698E-23
 -1       318 1.05909E-04-2.41271E-05 5.29396E-23
 -1       319 1.01345E-04-1.78477E-05 0.00000E+00
 -1       320 9.65034E-05-1.08549E-05-2.64698E-23
 -1       336 1.21192E-04-2.16728E-06 0.00000E+00
 -1       337 1.16664E-04-2.50545E-06-6.61744E-24
 -1       338 1.11442E-04-2.84677E-06 0.00000E+00
 -1       339 1.05539E-04-3.19120E-06-3.30872E-24
 -1       340 9.89693E-05-3.53967E-06 0.00000E+00
 -1       406 9.16999E-05 6.45049E-07 0.00000E+00
 -1       407 9.15351E-05 7.37144E-07 0.00000E+00
 -1       408 9.13484E-05 8.29179E-07 3.30872E-24
 -1       409 9.11397E-05 9.21042E-07 0.00000E+00
 -1       410 9.09091E-05 1.01255E-06-3.30872E-24
 -1       521 1.03560E-04-1.34829E-05 0.00000E+00
 -1       522 1.15255E-04-5.63775E-05 0.00000E+00
 -1       523 1.34183E-04-1.21818E-04-1.05879E-22
 -1       524 1.57129E-04-2.00709E-04-5.29396E-23
 -1       525 1.80477E-04-2.80962E-04-1.05879E-22
 -1       526 2.00596E-04-3.50369E-04-5.29396E-23
 -1       527 2.14203E-04-3.99146E-04 1.05879E-22
 -1       528 2.18113E-04-4.19341E-04 5.29396E-23
 -1       529 2.10768E-04-4.09200E-04 1.05879E-22
 -1       530 1.91482E-04-3.69497E-04 0.00000E+00
 -1       531 1.62410E-04-3.07127E-04 0.00000E+00
 -1       532 1.26928E-04-2.30673E-04-5.29396E-23
 -1       533 9.02062E-05-1.51535E-04 0.00000E+00
 -1       534 5.76068E-05-8.12855E-05-1.58819E-22
 -1       535 3.32933E-05-2.97602E-05 0.00000E+00
 -1       536 9.16019E-05 4.53849E-06 0.00000E+00
 -1       537 9.14417E-05 1.47293E-05 0.00000E+00
 -1       538 9.12752E-05 2.55209E-05-3.30872E-24
 -1       539 9.11154E-05 3.57474E-05-1.65436E-24
 -1       540 9.09699E-05 4.43689E-05 0.00000E+00
 -1       541 9.08430E-05 5.03528E-05-1.65436E-24
 -1       542 9.07291E-05 5.32560E-05-3.30872E-24
 -1       543 9.06191E-05 5.26503E-05 0.00000E+00
 -1       544 9.05027E-05 4.88896E-05 0.00000E+00
 -1       545 9.03726E-05 4.23437E-05 0.00000E+00
 -1       546 9.02300E-05 3.40038E-05 3.30872E-24
 -1       547 9.00809E-05 2.48703E-05-1.65436E-24
 -1       548 8.99351E-05 1.61208E-05 0.00000E+00
 -1       549 8.98024E-05 8.93134E-06-8.27181E-25
 -1       550 8.96827E-05 4.13011E-06-8.27181E-25
 -1       551 8.23420E-05-4.10657E-06-6.61744E-24
 -1       552 7.11229E-05-4.33847E-06-3.30872E-24
 -1       553 5.87044E-05-4.58322E-06 6.61744E-24
 -1       554 4.57057E-05-4.83707E-06 3.30872E-24
 -1       555 3.27463E-05-5.09320E-06 0.00000E+00
 -1       556 8.92346E-05 2.62885E-06 0.00000E+00
 -1       557 8.72893E-05 7.67608E-06 0.00000E+00
 -1       558 8.58541E-05 1.13846E-05 0.00000E+00
 -1       559 8.48733E-05 1.38966E-05 0.00000E+00
 -1       560 8.42910E-05 1.53537E-05 0.00000E+00
 -1       561 8.40523E-05 1.58986E-05 6.61744E-24
 -1       562 8.41026E-05 1.56742E-05 0.00000E+00
 -1       563 8.43876E-05 1.48236E-05 0.00000E+00
 -1       564 8.48534E-05 1.34898E-05 0.00000E+00
 -1       565 8.54462E-05 1.18163E-05 0.00000E+00
 -1       566 8.61124E-05 9.94626E-06-1.65436E-24
 -1       567 8.67984E-05 8.02316E-06-1.03398E-25
 -1       568 8.74507E-05 6.19036E-06 0.00000E+00
 -1       569 8.80158E-05 4.59106E-06 0.00000E+00
 -1       570 8.84401E-05 3.36854E-06 0.00000E+00
 -1       571 8.96439E-05 2.47582E-06 4.13590E-25
 -1       572 8.97108E-05 2.37432E-06-2.06795E-25
 -1       573 8.97781E-05 2.23684E-06 8.27181E-25
 -1       574 8.98456E-05 2.07196E-06-4.13590E-25
 -1       575 8.99132E-05 1.88827E-06 0.00000E+00
 -1       576 8.99808E-05 1.69444E-06 0.00000E+00
 -1       577 9.00484E-05 1.49913E-06 0.00000E+00
 -1       578 9.01160E-05 1.31100E-06-1.65436E-24
 -1       579 9.01837E-05 1.13873E-06 0.00000E+00
 -1       580 9.02513E-05 9.90983E-07 0.00000E+00
 -1       581 9.03189E-05 8.76439E-07-3.30872E-24
 -1       582 9.03866E-05 8.03752E-07-3.30872E-24
 -1       583 9.04542E-05 7.81576E-07 0.00000E+00
 -1       584 9.05218E-05 8.18475E-07 0.00000E+00
 -1       585 9.05893E-05 9.22957E-07 0.00000E+00
 -1       586 8.93970E-05 2.55616E-06 8.27181E-25
 -1       587 8.91884E-05 2.57858E-06 2.06795E-25
 -1       588 8.89820E-05 2.60076E-06 0.00000E+00
 -1       589 8.88075E-05 2.62259E-06 0.00000E+00
 -1       590 8.86942E-05 2.64380E-06 0.00000E+00
 -1       591 8.95677E-05 2.51302E-06 1.55096E-25
 -1       592 8.95670E-05 2.45882E-06 0.00000E+00
 -1       593 8.95764E-05 2.37720E-06 0.00000E+00
 -1       594 8.95935E-05 2.27409E-06 0.00000E+00
 -1       595 8.96163E-05 2.15551E-06-8.27181E-25
 -1       596 8.96427E-05 2.02742E-06 0.00000E+00
 -1       597 8.96704E-05 1.89576E-06 0.00000E+00
 -1       598 8.96972E-05 1.76649E-06 0.00000E+00
 -1       599 8.97209E-05 1.64557E-06 0.00000E+00
 -1       600 8.97392E-05 1.53894E-06 0.00000E+00
 -1       601 8.97499E-05 1.45256E-06-4.13590E-25
 -1       602 8.97509E-05 1.39238E-06 0.00000E+00
 -1       603 8.97399E-05 1.36437E-06-3.10193E-25
 -1       604 8.97149E-05 1.37452E-06 5.16988E-26
 -1       605 8.96736E-05 1.42876E-06 0.00000E+00
 -1       606 9.06689E-05 1.43632E-06 0.00000E+00
 -1       607 9.06787E-05 1.86212E-06 0.00000E+00
 -1       608 9.06878E-05 2.37485E-06 0.00000E+00
 -1       609 9.06966E-05 2.96839E-06-1.65436E-24
 -1       610 9.07052E-05 3.63661E-06 0.00000E+00
 -1       611 9.07138E-05 4.37326E-06 0.00000E+00
 -1       612 9.07222E-05 5.17212E-06 0.00000E+00
 -1       613 9.07307E-05 6.02696E-06 0.00000E+00
 -1       614 9.07390E-05 6.93152E-06 0.00000E+00
 -1       615 9.07474E-05 7.87956E-06 8.27181E-25
 -1       616 9.07557E-05 8.86485E-06 1.65436E-24
 -1       617 9.07639E-05 9.88114E-06 0.00000E+00
 -1       618 9.07722E-05 1.09222E-05 0.00000E+00
 -1       619 9.07803E-05 1.19818E-05 0.00000E+00
 -1       620 9.07884E-05 1.30536E-05 4.13590E-25
 -1       621 9.04214E-05 1.17475E-06 1.65436E-24
 -1       622 9.02205E-05 1.24697E-06 0.00000E+00
 -1       623 9.00467E-05 1.31917E-06-1.65436E-24
 -1       624 8.98929E-05 1.39125E-06 0.00000E+00
 -1       625 8.97518E-05 1.46321E-06 0.00000E+00
 -1       626 9.06094E-05 1.45950E-06 0.00000E+00
 -1       627 9.05342E-05 1.89209E-06 0.00000E+00
 -1       628 9.04333E-05 2.39344E-06 0.00000E+00
 -1       629 9.03095E-05 2.95589E-06 0.00000E+00
 -1       630 9.01657E-05 3.57178E-06-3.30872E-24
 -1       631 9.00047E-05 4.23340E-06 0.00000E+00
 -1       632 8.98294E-05 4.93301E-06 3.30872E-24
 -1       633 8.96428E-05 5.66291E-06 0.00000E+00
 -1       634 8.94477E-05 6.41538E-06 3.30872E-24
 -1       635 8.92470E-05 7.18269E-06 1.65436E-24
 -1       636 8.90436E-05 7.95715E-06 0.00000E+00
 -1       637 8.88404E-05 8.73104E-06 0.00000E+00
 -1       638 8.86402E-05 9.49662E-06 0.00000E+00
 -1       639 8.84459E-05 1.02462E-05 0.00000E+00
 -1       640 8.82602E-05 1.09720E-05 0.00000E+00
 -1       656 8.99207E-05 1.37304E-05-6.61744E-24
 -1       657 8.93979E-05 1.33132E-05 0.00000E+00
 -1       658 8.90956E-05 1.28974E-05-1.32349E-23
 -1       659 8.88779E-05 1.24819E-05 0.00000E+00
 -1       660 8.85916E-05 1.20651E-05 0.00000E+00
 -1       661 9.04729E-05 1.51836E-05-8.27181E-25
 -1       662 9.01727E-05 1.61824E-05 0.00000E+00
 -1       663 8.98917E-05 1.71295E-05-1.65436E-24
 -1       664 8.96297E-05 1.80277E-05 0.00000E+00
 -1       665 8.93851E-05 1.88794E-05 1.65436E-24
 -1       666 8.91573E-05 1.96868E-05 8.27181E-25
 -1       667 8.89453E-05 2.04522E-05 0.00000E+00
 -1       668 8.87483E-05 2.11778E-05-8.27181E-25
 -1       669 8.85655E-05 2.18655E-05 0.00000E+00
 -1       670 8.83961E-05 2.25174E-05 0.00000E+00
 -1       671 8.82395E-05 2.31353E-05 1.65436E-24
 -1       672 8.80949E-05 2.37210E-05 0.00000E+00
 -1       673 8.79616E-05 2.42762E-05-1.65436E-24
 -1       674 8.78385E-05 2.48023E-05 8.27181E-25
 -1       675 8.77258E-05 2.53013E-05 0.00000E+00
 -1       676 8.98105E-05 2.61635E-05 1.65436E-24
 -1       677 8.93709E-05 2.60849E-05 0.00000E+00
 -1       678 8.89317E-05 2.60062E-05 0.00000E+00
 -1       679 8.84931E-05 2.59279E-05-8.27181E-25
 -1       680 8.80553E-05 2.58495E-05 0.00000E+00
 -1       771 1.56521E-05 4.24731E-06 5.29396E-23
 -1       772 1.15198E-05 1.21277E-05-2.64698E-23
 -1       773 8.01598E-06 1.83661E-05 0.00000E+00
 -1       774 5.09900E-06 2.30635E-05 0.00000E+00
 -1       775 2.72779E-06 2.63237E-05 0.00000E+00
 -1       776 8.59494E-07 2.82544E-05 2.64698E-23
 -1       777-5.49234E-07 2.89660E-05 5.29396E-23
 -1       778-1.54271E-06 2.85725E-05 0.00000E+00
 -1       779-2.16556E-06 2.71897E-05 2.64698E-23
 -1       780-2.46323E-06 2.49365E-05 0.00000E+00
 -1       781-2.48129E-06 2.19332E-05-2.64698E-23
 -1       782-2.26597E-06 1.83025E-05 0.00000E+00
 -1       783-1.86354E-06 1.41682E-05 2.64698E-23
 -1       784-1.32069E-06 9.65551E-06-1.32349E-23
 -1       785-6.84155E-07 4.89045E-06-2.64698E-23
 -1       786 8.87265E-05 2.49109E-06-4.13590E-25
 -1       787 8.87854E-05 2.33387E-06-4.13590E-25
 -1       788 8.88441E-05 2.18904E-06 1.65436E-24
 -1       789 8.89034E-05 2.05440E-06 0.00000E+00
 -1       790 8.89628E-05 1.92913E-06 1.65436E-24
 -1       791 8.90223E-05 1.81243E-06 0.00000E+00
 -1       792 8.90818E-05 1.70468E-06 0.00000E+00
 -1       793 8.91413E-05 1.60629E-06 8.27181E-25
 -1       794 8.92008E-05 1.51894E-06-1.65436E-24
 -1       795 8.92604E-05 1.44437E-06 0.00000E+00
 -1       796 8.93199E-05 1.38603E-06 1.65436E-24
 -1       797 8.93794E-05 1.34745E-06 8.27181E-25
 -1       798 8.94389E-05 1.33485E-06 0.00000E+00
 -1       799 8.94982E-05 1.35453E-06 0.00000E+00
 -1       800 8.95576E-05 1.41722E-06 0.00000E+00
 -1       801 8.26669E-05 2.35358E-06 6.61744E-24
 -1       802 6.43789E-05 1.88934E-06 0.00000E+00
 -1       803 4.04856E-05 1.31856E-06 1.32349E-23
 -1       804 1.77428E-05 7.66237E-07-6.61744E-24
 -1       805 2.24616E-06 3.40984E-07 2.64698E-23
 -1       806 8.86578E-05 2.44576E-06 0.00000E+00
 -1       807 8.86390E-05 2.23465E-06 0.00000E+00
 -1       808 8.86158E-05 2.03409E-06 0.00000E+00
 -1       809 8.85869E-05 1.84783E-06-8.27181E-25
 -1       810 8.85511E-05 1.67957E-06-1.65436E-24
 -1       811 8.85071E-05 1.53295E-06 8.27181E-25
 -1       812 8.84536E-05 1.41161E-06 1.65436E-24
 -1       813 8.83893E-05 1.31917E-06 8.27181E-25
 -1       814 8.83128E-05 1.25927E-06 0.00000E+00
 -1       815 8.82228E-05 1.23553E-06-1.65436E-24
 -1       816 8.81178E-05 1.25155E-06 3.30872E-24
 -1       817 8.79966E-05 1.31097E-06 1.65436E-24
 -1       818 8.78578E-05 1.41738E-06-3.30872E-24
 -1       819 8.77001E-05 1.57440E-06-1.65436E-24
 -1       820 8.75224E-05 1.78560E-06 0.00000E+00
 -1       821 8.95260E-05 1.65839E-06 0.00000E+00
 -1       822 8.94304E-05 1.74634E-06 0.00000E+00
 -1       823 8.93350E-05 1.85016E-06 0.00000E+00
 -1       824 8.92386E-05 2.02235E-06 1.65436E-24
 -1       825 8.91422E-05 2.30177E-06 0.00000E+00
 -1       826 8.90455E-05 2.72681E-06 0.00000E+00
 -1       827 8.89487E-05 3.30685E-06 0.00000E+00
 -1       828 8.88518E-05 4.05060E-06 0.00000E+00
 -1       829 8.87547E-05 4.93416E-06 0.00000E+00
 -1       830 8.86576E-05 5.93301E-06 1.65436E-24
 -1       831 8.85604E-05 6.99967E-06 3.30872E-24
 -1       832 8.84635E-05 8.08638E-06-1.65436E-24
 -1       833 8.83666E-05 9.14134E-06 0.00000E+00
 -1       834 8.82708E-05 1.01129E-05 0.00000E+00
 -1       835 8.81748E-05 1.09661E-05-8.27181E-25
 -1       836 8.93817E-05 1.62044E-06-1.65436E-24
 -1       837 8.90357E-05 1.70907E-06 8.27181E-25
 -1       838 8.86173E-05 1.79752E-06 1.65436E-24
 -1       839 8.81663E-05 1.88541E-06 0.00000E+00
 -1       840 8.77221E-05 1.97316E-06 0.00000E+00
 -1       856 8.80589E-05 1.23455E-05 0.00000E+00
 -1       857 8.80301E-05 1.31291E-05 0.00000E+00
 -1       858 8.80015E-05 1.40004E-05 0.00000E+00
 -1       859 8.79722E-05 1.49432E-05-4.13590E-25
 -1       860 8.79428E-05 1.59409E-05 8.27181E-25
 -1       861 8.79133E-05 1.69767E-05-4.13590E-25
 -1       862 8.78838E-05 1.80341E-05 0.00000E+00
 -1       863 8.78542E-05 1.90963E-05-4.13590E-25
 -1       864 8.78247E-05 2.01467E-05 8.27181E-25
 -1       865 8.77951E-05 2.11685E-05-4.13590E-25
 -1       866 8.77656E-05 2.21453E-05 0.00000E+00
 -1       867 8.77361E-05 2.30602E-05 4.13590E-25
 -1       868 8.77067E-05 2.38968E-05 0.00000E+00
 -1       869 8.76773E-05 2.46387E-05 4.13590E-25
 -1       870 8.76480E-05 2.52694E-05 0.00000E+00
 -1       871 8.76041E-05 1.16653E-05-4.13590E-25
 -1       872 8.72251E-05 1.16623E-05 0.00000E+00
 -1       873 8.69040E-05 1.16589E-05 0.00000E+00
 -1       874 8.65960E-05 1.16549E-05 1.55096E-25
 -1       875 8.62568E-05 1.16505E-05 6.20385E-25
 -1       876 8.79218E-05 1.23545E-05 0.00000E+00
 -1       877 8.77420E-05 1.30935E-05 0.00000E+00
 -1       878 8.75456E-05 1.38770E-05 0.00000E+00
 -1       879 8.73348E-05 1.46996E-05 0.00000E+00
 -1       880 8.71116E-05 1.55552E-05 3.30872E-24
 -1       881 8.68781E-05 1.64383E-05 0.00000E+00
 -1       882 8.66365E-05 1.73432E-05 3.30872E-24
 -1       883 8.63888E-05 1.82642E-05-1.65436E-24
 -1       884 8.61373E-05 1.91954E-05 3.30872E-24
 -1       885 8.58839E-05 2.01314E-05 0.00000E+00
 -1       886 8.56309E-05 2.10664E-05 0.00000E+00
 -1       887 8.53804E-05 2.19946E-05 0.00000E+00
 -1       888 8.51343E-05 2.29104E-05 0.00000E+00
 -1       889 8.48946E-05 2.38080E-05-8.27181E-25
 -1       890 8.46635E-05 2.46816E-05 1.65436E-24
 -1       891 8.72018E-05 2.57313E-05 0.00000E+00
 -1       892 8.67672E-05 2.56896E-05-8.27181E-25
 -1       893 8.62941E-05 2.56479E-05 8.27181E-25
 -1       894 8.57620E-05 2.56062E-05-4.13590E-25
 -1       895 8.51503E-05 2.55647E-05 6.20385E-25
 -1       956 8.72334E-05 2.44142E-06-1.65436E-24
 -1       957 8.71410E-05 2.88732E-06 8.27181E-25
 -1       958 8.70483E-05 3.38598E-06-3.30872E-24
 -1       959 8.69555E-05 3.93079E-06-8.27181E-25
 -1       960 8.68626E-05 4.51513E-06-1.65436E-24
 -1       961 8.67696E-05 5.13232E-06 8.27181E-25
 -1       962 8.66766E-05 5.77569E-06 0.00000E+00
 -1       963 8.65836E-05 6.43858E-06-1.65436E-24
 -1       964 8.64906E-05 7.11431E-06-3.30872E-24
 -1       965 8.63976E-05 7.79619E-06-1.65436E-24
 -1       966 8.63046E-05 8.47756E-06 0.00000E+00
 -1       967 8.62116E-05 9.15174E-06 1.65436E-24
 -1       968 8.61187E-05 9.81204E-06 3.30872E-24
 -1       969 8.60259E-05 1.04518E-05 0.00000E+00
 -1       970 8.59334E-05 1.10644E-05 0.00000E+00
 -1       971 8.57558E-05 1.22406E-05-1.65436E-24
 -1       972 8.56680E-05 1.29149E-05 0.00000E+00
 -1       973 8.55801E-05 1.36579E-05-1.65436E-24
 -1       974 8.54919E-05 1.44607E-05-8.27181E-25
 -1       975 8.54038E-05 1.53145E-05 3.30872E-24
 -1       976 8.53155E-05 1.62103E-05 8.27181E-25
 -1       977 8.52272E-05 1.71393E-05 0.00000E+00
 -1       978 8.51389E-05 1.80925E-05 0.00000E+00
 -1       979 8.50506E-05 1.90611E-05-3.30872E-24
 -1       980 8.49623E-05 2.00362E-05 0.00000E+00
 -1       981 8.48741E-05 2.10088E-05 0.00000E+00
 -1       982 8.47859E-05 2.19701E-05 0.00000E+00
 -1       983 8.46978E-05 2.29112E-05 0.00000E+00
 -1       984 8.46101E-05 2.38231E-05 0.00000E+00
 -1       985 8.45229E-05 2.46971E-05 0.00000E+00
 -3
    1PSTEP                        10           5           1          
  100CL  105 5.03906E-01         409                     0    5           1
 -4  STRESS      6    1
 -5  SXX         1    4    1    1
 -5  SYY         1    4    2    2
 -5  SZZ         1    4    3    3
 -5  SXY         1    4    1    2
 -5  SYZ         1    4    2    3
 -5  SZX         1    4    3    1
 -1         1-1.94896E+06-8.55087E+05-4.06918E+05-1.14604E+06 6.87578E-10-6.78119E-09
 -1         2 2.73170E+03-9.05987E+03 8.75753E+03-3.29068E+01-6.72458E-10-1.76092E-09
 -1         3-1.47474E+02-8.66284E+05 2.04844E+02-4.01603E+02-5.46727E-11 8.32733E-09
 -1         5-4.12032E+00 2.63698E+05 6.88035E+00 1.16235E-01 8.53476E-11-2.18643E-08
 -1         8-9.26573E+05-3.63473E+05-6.67121E+04-5.64451E+05 1.34605E-10-4.56203E-09
 -1         9-1.76819E+06-5.20961E+05-1.99784E+05-5.56847E+05 2.63681E-09 4.30737E-10
 -1        10-7.37192E+02-9.02486E+05-1.21960E+03-2.71551E+03-4.45925E-09-8.19000E-09
 -1        12-1.29967E+00 2.63712E+05 2.22953E+02 9.70438E-01 6.98179E-11-9.29140E-09
 -1        15 1.99994E+03 1.09909E+03 6.46482E+03 4.29304E+00 3.07239E-11-1.34518E-08
 -1        16-3.21324E+06-1.25160E+06-5.15935E+05-1.30615E+06 1.21848E-08-1.94026E-11
 -1        17-1.06761E+06-6.25661E+05-2.08885E+05-5.61881E+05-5.87170E-09 1.74914E-09
 -1        18-4.48724E+04-1.55605E+04-3.12725E+04-6.54863E+04 2.12344E-09 6.74572E-09
 -1        19 8.30124E+04 9.82098E+04-5.25797E+02 1.61819E+04-4.43106E-10 1.10231E-09
 -1        20-3.67361E+04-3.92210E+05-8.66632E+04 2.77603E+04 3.12442E-09 7.01524E-10
 -1        21-3.65868E+01-2.24996E+05-7.24502E+02-6.78733E+01-5.40241E-09 6.97707E-09
 -1        24-3.22549E+06-9.05673E+05-4.08906E+05-1.18629E+06-3.12066E-08-1.56288E-08
 -1        25-8.07504E+03-1.78547E+05-2.33481E+04-1.14243E+05 2.99406E-10 1.77308E-08
 -1        26-2.16540E+04 6.63475E+04-1.38284E+04-8.42312E+03 1.49157E-09 9.41895E-12
 -1        27-6.16569E+04-2.14810E+05-8.04426E+04 4.84231E+04 4.97759E-09 5.07286E-09
 -1        28 1.73913E+04-6.23905E+04 1.27251E+04 1.95265E+04 2.80806E-09-3.81088E-09
 -1        32-9.19827E+05-5.49824E+05 2.63034E+05-5.58621E+05-2.01180E-08 6.78435E-09
 -1        33-1.23509E+05 6.28153E+04 2.23131E+04-3.51577E+04 7.84591E-10 3.33481E-12
 -1        34-1.59244E+05-1.59574E+04 3.84622E+02 4.93494E+04 3.09376E-09-6.38132E-09
 -1        35-1.76944E+04-2.47906E+04-9.73445E+02 3.91942E+04 3.64823E-09 3.69558E-09
 -1        51 1.72825E+04-3.62528E+05 4.33940E+04-9.52239E+05 2.91038E-10 5.12227E-09
 -1        52 1.00472E+04-3.60468E+05 2.80262E+04-1.11059E+06 1.23691E-10-1.33005E-08
 -1        53 7.02404E+03-3.73937E+05 2.28996E+04-9.48908E+05 1.00408E-09-8.78936E-09
 -1        54 1.97844E+04-3.72604E+05 3.55824E+04-1.11405E+06 5.16593E-10-9.89894E-09
 -1        55 3.90460E+04-3.86025E+05 6.28096E+04-9.48367E+05 7.27596E-11-9.46238E-09
 -1        56-3.73272E+06-4.18886E+05-2.99226E+05-1.44034E+06-2.91038E-09-1.55705E-08
 -1        57-3.85637E+06-6.86468E+05-2.01748E+05-1.42489E+06-4.66571E-10-5.84623E-09
 -1        58-3.79338E+06-5.13204E+05-7.03851E+04-1.42087E+06-2.78578E-09 6.94854E-10
 -1        59-3.78619E+06-5.75763E+05-4.20169E+04-1.44805E+06-6.32781E-10-1.69043E-08
 -1        60-3.80220E+06-5.26382E+05-1.64235E+04-1.41827E+06-3.91537E-09-1.31258E-08
 -1        61-3.77762E+06-5.58606E+05-9.31701E+03-1.44904E+06-4.91309E-09 4.06339E-09
 -1        62-3.80177E+06-5.29970E+05-4.46854E+03-1.41997E+06-2.76486E-10-8.35684E-09
 -1        63-3.78124E+06-5.51574E+05-3.59143E+03-1.44337E+06-1.63004E-09 1.57532E-08
 -1        64-3.79845E+06-5.33437E+05-4.09512E+03-1.42387E+06-2.78828E-09 5.61772E-09
 -1        65-3.78991E+06-5.45381E+05-8.07853E+03-1.43412E+06-2.79647E-09-5.28985E-09
 -1        66-3.79302E+06-5.36262E+05-1.42398E+04-1.42914E+06 8.26844E-10-2.92675E-09
 -1        67-3.80726E+06-5.50088E+05-3.61142E+04-1.42178E+06 3.38005E-09-1.37702E-08
 -1        68-3.78123E+06-5.29089E+05-6.06106E+04-1.43612E+06 3.60706E-09-9.00036E-09
 -1        69-3.87375E+06-6.39457E+05-1.73544E+05-1.39538E+06 4.05180E-09-1.43700E-10
 -1        70-3.72729E+06-4.49563E+05-2.57462E+05-1.45469E+06 8.80391E-10-4.74392E-09
 -1        86-1.36975E+03-1.19960E+04 9.31794E+03 1.64413E+01 1.81899E-11-1.25654E-08
 -1        87 9.02092E+03-6.03754E+03 1.95377E+04-5.45031E+01-2.99451E-10-1.25946E-08
 -1        88-7.64759E+03-1.50173E+04 2.98003E+04 3.80345E+01-4.72937E-10 4.78244E-09
 -1        89 5.65688E+04 1.59271E+04 8.05460E+04 3.29834E+00-2.32831E-10-2.72598E-09
 -1        90-4.88249E+04-3.39413E+04 1.13613E+05-4.10980E+01-8.29459E-10-6.23970E-10
 -1       121-2.22071E+02-8.66888E+05 1.35105E+02 2.00465E+02 5.31315E-10 1.63345E-09
 -1       122-7.85108E+01-8.66246E+05 4.39776E+02-8.02674E+02-1.69305E-09 1.21490E-08
 -1       123-2.66827E+02-8.66937E+05 6.49464E+02 6.00207E+02 1.51738E-09-2.13367E-09
 -1       124 7.36866E+02-8.65772E+05 1.82565E+03-1.76011E+03-3.23780E-09-5.86624E-10
 -1       125-7.85225E+02-8.67396E+05 2.73598E+03 1.15685E+03 2.22872E-09 4.31282E-09
 -1       191-4.55436E+00 2.63720E+05 8.26725E+00-5.85494E-02 1.23618E-10-1.63445E-08
 -1       192-4.75214E+00 2.63698E+05 1.45656E+01 5.90847E-01 1.78209E-10-2.42289E-09
 -1       193-6.23438E+00 2.63720E+05 2.71299E+01-5.35334E-01 1.73692E-10-2.16914E-09
 -1       194-6.78546E+00 2.63700E+05 5.50881E+01 1.43033E+00 1.15974E-10-9.65838E-09
 -1       195-9.46308E+00 2.63718E+05 1.07797E+02-9.03553E-01 3.11466E-10-1.26738E-08
 -1       251-4.52570E+05-1.96050E+04 4.55028E+04-1.27043E+03 4.06999E-10-1.11722E-08
 -1       252-4.30249E+05 2.26537E+04 3.25684E+04-4.91239E+03-4.84079E-10-1.21090E-08
 -1       253-4.44768E+05-3.06142E+03 1.16955E+04 1.11473E+03-1.15108E-09 1.55524E-10
 -1       254-4.39711E+05 3.51045E+03 7.63894E+03-9.26246E+03 9.13019E-10-1.00017E-08
 -1       255-4.43176E+05-4.84328E+02 3.01640E+03 3.07946E+03 3.28498E-10 4.48233E-09
 -1       256-4.41864E+05 5.82999E+02 1.98124E+03-1.23888E+04 1.23939E-09 1.23066E-11
 -1       257-4.42685E+05-9.29931E+01 1.06335E+03 4.24105E+03-1.09907E-10-5.21629E-09
 -1       258-4.42411E+05 2.54737E+02 1.11168E+03-1.37060E+04 2.96691E-10-8.87939E-09
 -1       259-4.42664E+05-1.30850E+02 1.44240E+03 4.39675E+03-3.17954E-10 1.84161E-09
 -1       260-4.41841E+05 9.30898E+02 3.01674E+03-1.29870E+04 5.11946E-10-8.85115E-09
 -1       261-4.43235E+05-7.81998E+02 4.96430E+03 3.52201E+03 1.43638E-09-1.27920E-09
 -1       262-4.38794E+05 5.78775E+03 1.23878E+04-1.03588E+04 3.73348E-10 8.02174E-09
 -1       263-4.45645E+05-5.01872E+03 1.93951E+04 1.76852E+03 3.74030E-10 1.41081E-08
 -1       264-4.23475E+05 3.73356E+04 5.34896E+04-6.34844E+03-2.18267E-09 1.36060E-09
 -1       265-4.58467E+05-3.22705E+04 7.52202E+04-4.88401E+02-1.01613E-09-5.89353E-10
 -1       266-3.62045E+04-1.69265E+04 8.49589E+04-9.18698E+01 2.54659E-11 6.45909E-09
 -1       267 4.19722E+04 1.97324E+04 6.00412E+04 1.05984E+02 2.72848E-11-1.34159E-08
 -1       268-5.62835E+03-2.79443E+03 2.23174E+04-1.35051E+01 2.36469E-11 5.99130E-11
 -1       269 6.64549E+03 3.34459E+03 1.45056E+04 1.57305E+01-1.27329E-11 5.55488E-09
 -1       270-9.97495E+02-5.49532E+02 7.00207E+03-2.13478E+00-1.84173E-11 9.42275E-09
 -1       271-3.47713E+06-4.35070E+05-2.65970E+05-1.35548E+06 1.24055E-09 3.01225E-09
 -1       272-3.56288E+06-6.38537E+05-1.70976E+05-1.36371E+06-7.95580E-10 7.85803E-09
 -1       273-3.52872E+06-4.99785E+05-6.28362E+04-1.34186E+06 4.38831E-10 5.10045E-09
 -1       274-3.50190E+06-5.59883E+05-3.51269E+04-1.38511E+06 9.42237E-10-1.05283E-08
 -1       275-3.53744E+06-5.04779E+05-1.46288E+04-1.33776E+06-7.13044E-10-1.52431E-09
 -1       276-3.49122E+06-5.54495E+05-7.74200E+03-1.39198E+06-1.71894E-09 4.72733E-09
 -1       277-3.53991E+06-5.03877E+05-3.79829E+03-1.33577E+06-7.13953E-11 1.21267E-08
 -1       278-3.48858E+06-5.55565E+05-2.74048E+03-1.39479E+06 1.81626E-09 1.79268E-08
 -1       279-3.54043E+06-5.03401E+05-2.92522E+03-1.33524E+06 6.65011E-10-2.48201E-09
 -1       280-3.48932E+06-5.55885E+05-5.36392E+03-1.39434E+06-3.38696E-09 5.35056E-09
 -1       281-3.53913E+06-5.03638E+05-9.79352E+03-1.33617E+06 1.82354E-09 9.85528E-09
 -1       282-3.49619E+06-5.59682E+05-2.34238E+04-1.39001E+06 8.65839E-10 1.63163E-09
 -1       283-3.53321E+06-5.00472E+05-4.18087E+04-1.33904E+06 1.87219E-09 6.12999E-10
 -1       284-3.53726E+06-6.11334E+05-1.13748E+05-1.37484E+06-1.99412E-09 7.93079E-09
 -1       285-3.49831E+06-4.58083E+05-1.77027E+05-1.34876E+06-4.91127E-11 3.63798E-09
 -1       301 1.79041E+04-3.53178E+04 1.33724E+05-7.36753E+04-7.49424E-10 1.77870E-08
 -1       302 1.90246E+04-1.49212E+03 9.16863E+04-1.08440E+05 1.10731E-09 1.58670E-08
 -1       303 1.03601E+03-2.25320E+04 7.68933E+04-7.37995E+04-7.60338E-10-1.17489E-08
 -1       304 2.79852E+04 7.14227E+03 1.21219E+05-1.08053E+05 9.16771E-10-1.68438E-08
 -1       305 2.73025E+04-4.33241E+04 1.99068E+05-7.40546E+04-8.94943E-10-4.24370E-09
 -1       306-4.73101E+06-5.45516E+05-3.55419E+05-1.84305E+06 1.12777E-09 1.89175E-10
 -1       307-4.89293E+06-8.61738E+05-2.41537E+05-1.79940E+06-4.66207E-09-1.05865E-09
 -1       308-4.82557E+06-6.41214E+05-8.37220E+04-1.79278E+06 8.64929E-10 6.62112E-10
 -1       309-4.77414E+06-7.60925E+05-5.03569E+04-1.87165E+06 1.95860E-09-3.47791E-09
 -1       310-4.84993E+06-6.43618E+05-1.94970E+04-1.77205E+06-8.12065E-10-1.39971E-09
 -1       311-4.74969E+06-7.53986E+05-1.13141E+04-1.89175E+06 5.02200E-09 1.12277E-08
 -1       312-4.85039E+06-6.47465E+05-5.60785E+03-1.77314E+06 2.47019E-09 4.72374E-09
 -1       313-4.76401E+06-7.33366E+05-4.61466E+03-1.87021E+06-2.13731E-09 1.57102E-08
 -1       314-4.83486E+06-6.64706E+05-6.58328E+03-1.79307E+06-2.63753E-11-6.34645E-09
 -1       315-4.80516E+06-6.94713E+05-1.21065E+04-1.82067E+06-1.92063E-09-4.55020E-09
 -1       316-4.80845E+06-6.86732E+05-2.29518E+04-1.82207E+06-1.51931E-09 2.02999E-09
 -1       317-4.86725E+06-6.71972E+05-5.76120E+04-1.76442E+06 5.21170E-09-1.39080E-08
 -1       318-4.77339E+06-6.87496E+05-9.58671E+04-1.84955E+06-1.18125E-08 1.45737E-08
 -1       319-4.99447E+06-8.03313E+05-2.78283E+05-1.70272E+06-4.62114E-09 4.56930E-09
 -1       320-4.68309E+06-5.57079E+05-4.07408E+05-1.88383E+06 1.19981E-08-9.44419E-09
 -1       336 5.42602E+02-9.38454E+05-5.20303E+03 1.55334E+03-8.69295E-09-5.42241E-09
 -1       337-1.91428E+03-9.39569E+05-5.76363E+03-3.88230E+03-1.62513E-08-1.44209E-08
 -1       338 3.66488E+02-9.38574E+05-7.50033E+03 2.31795E+03-1.17366E-08-2.57569E-09
 -1       339-7.77385E+03-9.43265E+05-1.64262E+04-5.38486E+03-2.10084E-08 3.56340E-09
 -1       340 5.19355E+03-9.34904E+05-2.54297E+04 3.04392E+03-1.37134E-08 6.65932E-09
 -1       406 1.57706E+01 2.63708E+05 4.40206E+02-7.94819E-02 4.42157E-10 4.30691E-09
 -1       407 1.52163E+02 2.63789E+05 9.35497E+02-6.32136E+00 3.24292E-11-1.72463E-09
 -1       408 4.80280E+02 2.63641E+05 1.86843E+03 6.53744E+00 4.57362E-10-1.10404E-08
 -1       409 2.01897E+03 2.64386E+05 4.20627E+03-6.35657E+01-1.94404E-11-1.09656E-08
 -1       410 5.80319E+03 2.63110E+05 8.58696E+03 5.95718E+01 5.03860E-10-5.74300E-09
 -1       521-7.80675E+06-7.58585E+05-6.72450E+05-2.62920E+06-4.40195E-09 7.94535E-09
 -1       522-6.37749E+06-1.92451E+06-2.84341E+05-3.59810E+06-6.23113E-08-1.40826E-08
 -1       523-7.96709E+06-5.12388E+05-1.44109E+05-2.10671E+06-5.07862E-09-3.84680E-08
 -1       524-6.39522E+06-2.03068E+06-5.63081E+04-4.27686E+06 8.78259E-08-9.30563E-08
 -1       525-7.97657E+06-5.10939E+05-3.49583E+04-2.07164E+06 5.39876E-08-4.39786E-08
 -1       526-6.25410E+06-1.76296E+06 5.71649E+04-3.75867E+06 6.51344E-08-1.89757E-08
 -1       527-7.94924E+06-8.95374E+05-1.11365E+05-2.52525E+06 6.73754E-09 1.28057E-09
 -1       528-6.54737E+06-1.01152E+06 1.33839E+05-2.59422E+06-1.97615E-08 1.38098E-08
 -1       529-7.50228E+06-1.39000E+06-1.24528E+05-3.09169E+06 4.23461E-09-1.17252E-08
 -1       530-7.79090E+06-1.15244E+05 7.39172E+04-1.80546E+06-3.11557E-08 1.82099E-08
 -1       531-6.85522E+06-1.68252E+06-4.80417E+04-3.40888E+06-7.68050E-08-1.25037E-08
 -1       532-8.72661E+06 3.07775E+05-5.31020E+04-1.61063E+06 3.94703E-08-6.26405E-08
 -1       533-6.74658E+06-1.68909E+06-1.27348E+05-3.44358E+06 8.56380E-09-1.13661E-07
 -1       534-8.23324E+06-1.66830E+05-2.88837E+05-1.68196E+06-2.23517E-08 7.96754E-08
 -1       535-7.22909E+06-1.29477E+06-6.40587E+05-3.22807E+06-7.62520E-09 5.27943E-08
 -1       536-3.20323E+05-1.37520E+04 3.09447E+04-6.40216E+03-1.17441E-09 7.58519E-09
 -1       537-3.03955E+05 1.58987E+04 2.24173E+04 1.29479E+04-2.04465E-08 1.57052E-08
 -1       538-3.13631E+05-2.05982E+03 8.08676E+03-7.28785E+03 2.58511E-09 1.06957E-08
 -1       539-3.08193E+05 2.54438E+03 5.68640E+03 1.15298E+04 1.80987E-08 9.02611E-09
 -1       540-3.16037E+05-4.45816E+02 1.36460E+03-4.98330E+03 2.70683E-09 1.56984E-08
 -1       541-3.03129E+05 6.73283E+02 2.96451E+03 4.73282E+03-4.76777E-09 8.35787E-09
 -1       542-3.18540E+05-3.18371E+02-8.29587E+02-4.89889E+02 7.04392E-09-6.39488E-11
 -1       543-3.02917E+05 2.89210E+02 1.88531E+03-4.37276E+03-2.35960E-09-7.79102E-09
 -1       544-3.16242E+05-7.33387E+01-1.20753E+03 4.12085E+03 1.17831E-09-8.55042E-09
 -1       545-3.09055E+05-3.86360E+02-5.80974E+02-1.15799E+04-2.43841E-09-7.65303E-09
 -1       546-3.12553E+05 4.81659E+02-2.36351E+03 6.71756E+03 2.24637E-09-9.20375E-09
 -1       547-3.12900E+05-2.84665E+03-5.64907E+03-1.36256E+04-1.35007E-08-1.28952E-08
 -1       548-3.12466E+05 2.44417E+03-9.54252E+03 6.16731E+03-1.45605E-08-8.18454E-09
 -1       549-3.14914E+05-1.75442E+04-2.42487E+04-9.56756E+03-7.46087E-09-5.53291E-09
 -1       550-3.10417E+05 1.50642E+04-3.71686E+04 2.65828E+03 1.33252E-09-6.12999E-10
 -1       551 1.22567E+04-4.85789E+05 2.25442E+04-8.12997E+05-3.90064E-08-6.76664E-09
 -1       552 2.77080E+04-4.92501E+05 2.97457E+04-1.15756E+06-2.92857E-08 2.82671E-09
 -1       553 1.94223E+04-4.98211E+05 4.49520E+04-8.10063E+05-4.67844E-08 3.36149E-09
 -1       554 5.21448E+04-4.84278E+05 9.49211E+04-1.15881E+06-3.00643E-08 4.63751E-09
 -1       555 4.70458E+04-5.16558E+05 1.69559E+05-8.10879E+05-4.76866E-08-9.74615E-09
 -1       556 8.22815E+04-1.55724E+05 5.28822E+04-1.99946E+05-9.27685E-09-1.70185E-08
 -1       557 1.45687E+05-2.07624E+05 2.78879E+04-2.51175E+05 6.76664E-10-8.44921E-09
 -1       558 8.14456E+04-1.62434E+05 1.11083E+04-1.94214E+05-8.25094E-09-3.07773E-09
 -1       559 1.36260E+05-2.14610E+05 5.69260E+03-2.55550E+05 6.64295E-09 1.68729E-08
 -1       560 7.90352E+04-1.60855E+05 2.25724E+03-1.95779E+05 2.13913E-09 7.71252E-09
 -1       561 1.32680E+05-2.13582E+05 1.23979E+03-2.57827E+05 3.34694E-09 7.39237E-09
 -1       562 7.71107E+04-1.59586E+05 4.25102E+02-1.97163E+05 2.25555E-10-5.11136E-10
 -1       563 1.30421E+05-2.12607E+05 3.02581E+02-2.59273E+05-4.83851E-09-6.31928E-09
 -1       564 7.58832E+04-1.58801E+05 9.84201E+01-1.98033E+05 3.78714E-09-2.67437E-09
 -1       565 1.29192E+05-2.12077E+05 8.88928E+01-2.60047E+05 4.11819E-09-1.15542E-08
 -1       566 7.53894E+04-1.58479E+05 8.11195E+00-1.98386E+05 8.73388E-09-5.81895E-09
 -1       567 1.28952E+05-2.11962E+05-6.32697E+01-2.60129E+05 1.81277E-08-1.41208E-08
 -1       568 7.56646E+04-1.58661E+05-2.62417E+02-1.98262E+05 2.85581E-09-2.43563E-09
 -1       569 1.29018E+05-2.11824E+05-6.19857E+02-2.58882E+05-6.73754E-09-8.81846E-09
 -1       570 7.72756E+04-1.60030E+05-1.41630E+03-1.98169E+05-1.37152E-09-6.95582E-09
 -1       571 1.92844E+05 7.09165E+03 1.04917E+04-4.97330E+04-2.47383E-10-5.82395E-09
 -1       572 1.94402E+05 2.47608E+03 5.14040E+03-5.45231E+04 3.52884E-10-8.52651E-09
 -1       573 1.93468E+05 5.99912E+02 2.28360E+03-4.96073E+04 1.18689E-08 1.18644E-09
 -1       574 1.93650E+05 2.06117E+02 1.14423E+03-5.46644E+04 2.20225E-08-5.05224E-09
 -1       575 1.93536E+05 4.02801E+01 5.39344E+02-4.95907E+04 8.64065E-09-1.36106E-09
 -1       576 1.93548E+05 2.29579E+01 2.74698E+02-5.46833E+04-9.42251E-10-3.12184E-09
 -1       577 1.93547E+05 9.85094E+00 1.35537E+02-4.95885E+04 2.28283E-09-6.53472E-09
 -1       578 1.93539E+05 1.27370E+01 7.43988E+01-5.46856E+04 1.08048E-09 7.92625E-10
 -1       579 1.93561E+05 6.36016E+00 4.62621E+01-4.95884E+04 8.50378E-11-5.27234E-09
 -1       580 1.93558E+05 4.86663E+00 4.46136E+01-5.46827E+04-2.25373E-09 5.28507E-09
 -1       581 1.93585E+05-3.05339E+00 6.17758E+01-4.95914E+04-4.09273E-11 3.12593E-09
 -1       582 1.93601E+05 6.07696E+00 1.19003E+02-5.46528E+04 2.13367E-09-5.87443E-09
 -1       583 1.93614E+05 3.27244E+01 2.28501E+02-4.96183E+04 1.81262E-09-3.03339E-09
 -1       584 1.93722E+05 2.10905E+02 5.13000E+02-5.44276E+04-1.43882E-09 1.06176E-08
 -1       585 1.93593E+05 6.61310E+02 1.04145E+03-4.98169E+04-6.54836E-10-6.30462E-09
 -1       586-2.23258E+03 6.39402E+04-2.88953E+03-1.70878E+05 9.09495E-12 6.17842E-09
 -1       587-4.65185E+02 6.35609E+04-1.93136E+02-1.88051E+05 2.61934E-10 2.07774E-08
 -1       588 6.77433E+02 6.36179E+04 2.37064E+03-1.70781E+05 3.03771E-10 1.94332E-08
 -1       589 3.38576E+03 6.49025E+04 6.72588E+03-1.87882E+05 5.62977E-10 9.63610E-10
 -1       590 9.76461E+03 6.28401E+04 1.43365E+04-1.71051E+05 1.70985E-10-1.92540E-09
 -1       591-4.21383E+04-1.17471E+04-1.38739E+04-2.14515E+04-5.25631E-10 2.20371E-09
 -1       592-4.35541E+04-1.50379E+04-7.51471E+03-2.49374E+04-1.08093E-09 9.54424E-09
 -1       593-4.35396E+04-1.07264E+04-3.12842E+03-2.24552E+04 1.86299E-09 1.95860E-09
 -1       594-4.16227E+04-1.30195E+04-1.56028E+03-2.50315E+04 2.47917E-09 8.51031E-10
 -1       595-4.36470E+04-1.07218E+04-7.17005E+02-2.25012E+04-4.17060E-09-1.39798E-09
 -1       596-4.14918E+04-1.29270E+04-3.65436E+02-2.50177E+04 9.18703E-10 1.78079E-09
 -1       597-4.36606E+04-1.07307E+04-2.01043E+02-2.25031E+04 1.77872E-09-6.27745E-09
 -1       598-4.14793E+04-1.29235E+04-1.65379E+02-2.50139E+04-1.51934E-09-8.82096E-09
 -1       599-4.36595E+04-1.07308E+04-2.15957E+02-2.25027E+04 5.22050E-10-5.02496E-11
 -1       600-4.14931E+04-1.29282E+04-4.04946E+02-2.50172E+04-1.96769E-09-1.39046E-08
 -1       601-4.36424E+04-1.07213E+04-8.00851E+02-2.24999E+04-2.77987E-09-2.37685E-09
 -1       602-4.16393E+04-1.30315E+04-1.74640E+03-2.50306E+04-1.87242E-09 7.86429E-09
 -1       603-4.35207E+04-1.07282E+04-3.50284E+03-2.24486E+04-4.32624E-09-3.18732E-09
 -1       604-4.38093E+04-1.52832E+04-8.41431E+03-2.49141E+04-3.34785E-09-7.47991E-09
 -1       605-4.19419E+04-1.18784E+04-1.55346E+04-2.13328E+04 4.59636E-10 4.49018E-09
 -1       606 2.65327E+04-9.28544E+03-1.67121E+04 2.58208E+04-2.58569E-09 1.93631E-09
 -1       607 2.36709E+04-2.99880E+03-8.32162E+03 2.89865E+04-2.37560E-09-1.30808E-08
 -1       608 2.52936E+04-5.09085E+02-3.72666E+03 2.56157E+04 1.24965E-09 5.66320E-09
 -1       609 2.49704E+04-1.35235E+02-1.88219E+03 2.92137E+04-4.94765E-10 4.53747E-09
 -1       610 2.51426E+04 2.08093E+01-8.99137E+02 2.55928E+04-1.21690E-09 4.44675E-09
 -1       611 2.50814E+04 3.32633E+01-4.53437E+02 2.92385E+04-4.47653E-09 2.16346E-09
 -1       612 2.51017E+04 3.61782E+01-2.16954E+02 2.55905E+04-2.79033E-09 9.83277E-09
 -1       613 2.50783E+04 4.19165E+01-9.87002E+01 2.92414E+04-4.60932E-09 9.31004E-09
 -1       614 2.50791E+04 3.73106E+01-2.72165E+01 2.55897E+04-2.27283E-09-1.39084E-09
 -1       615 2.50662E+04 4.75649E+01 3.17738E+01 2.92419E+04 2.82307E-09-9.64178E-09
 -1       616 2.50619E+04 4.31695E+01 1.04075E+02 2.55900E+04-4.42787E-09-4.62319E-09
 -1       617 2.50723E+04 7.38071E+01 2.41044E+02 2.92414E+04-2.19188E-10-3.29806E-09
 -1       618 2.50361E+04 1.15776E+02 4.87090E+02 2.55901E+04 1.32013E-09 4.97403E-09
 -1       619 2.52404E+04 4.53026E+02 1.09470E+03 2.92406E+04 6.01972E-10 7.01698E-09
 -1       620 2.48717E+04 1.27335E+03 2.20050E+03 2.55890E+04 2.09127E-09-1.27557E-09
 -1       621 3.06862E+02 2.06838E+05 2.70378E+03 8.72892E+03-2.31239E-10 5.83418E-09
 -1       622 3.55439E+02 2.07506E+05 2.34414E+03 1.27327E+04-1.58593E-10 5.33828E-09
 -1       623 1.53531E+01 2.07022E+05 2.75996E+03 8.68784E+03 2.79954E-11 5.86692E-09
 -1       624 1.26615E+03 2.08339E+05 5.29698E+03 1.27733E+04-1.79995E-10-1.97275E-09
 -1       625 1.27235E+03 2.05996E+05 9.23493E+03 8.68842E+03-1.94632E-10 6.13852E-10
 -1       626 1.73323E+05 4.74130E+04 3.51141E+03 9.28504E+04-4.55657E-10-2.39197E-09
 -1       627 1.71033E+05 4.90683E+04 1.69206E+03 9.65630E+04-5.18412E-10-4.99415E-09
 -1       628 1.73447E+05 4.57592E+04 7.14671E+02 9.33878E+04 7.04676E-09 2.51089E-09
 -1       629 1.70533E+05 4.86610E+04 3.50263E+02 9.67838E+04 1.04828E-08-3.08501E-08
 -1       630 1.73454E+05 4.56815E+04 1.61894E+02 9.34024E+04-2.86491E-09-1.32644E-08
 -1       631 1.70472E+05 4.86516E+04 8.70030E+01 9.67847E+04-7.74162E-09 1.01600E-08
 -1       632 1.73445E+05 4.56880E+04 5.71570E+01 9.33944E+04-9.57925E-09-7.37737E-09
 -1       633 1.70459E+05 4.86568E+04 6.35399E+01 9.67775E+04-9.60790E-09 2.85263E-09
 -1       634 1.73435E+05 4.56890E+04 1.02514E+02 9.33899E+04 1.37334E-09 3.30806E-09
 -1       635 1.70463E+05 4.86584E+04 2.07654E+02 9.67769E+04 1.59412E-09 2.64731E-09
 -1       636 1.73424E+05 4.56882E+04 4.19291E+02 9.33868E+04 6.17740E-09 1.14583E-08
 -1       637 1.70549E+05 4.87251E+04 9.21492E+02 9.67728E+04 2.53505E-09-2.96973E-09
 -1       638 1.73388E+05 4.58935E+04 1.89374E+03 9.32923E+04 1.59923E-09 7.69160E-09
 -1       639 1.71540E+05 5.01100E+04 4.48004E+03 9.64784E+04-5.64296E-09-4.65479E-09
 -1       640 1.73255E+05 5.00176E+04 9.29715E+03 9.15420E+04 1.52204E-09 1.03319E-08
 -1       656 4.66639E+04-1.18216E+06-1.12647E+05-3.83742E+02-2.47383E-10 1.24342E-09
 -1       657-6.16691E+04-1.23301E+06-9.31752E+04 7.35695E+03-2.54659E-10 4.00044E-09
 -1       658 1.48048E+04-1.19666E+06-5.71980E+04-1.54739E+03 4.03134E-10-3.09004E-09
 -1       659-6.61792E+04-1.23515E+06-9.90990E+04 8.14760E+03-4.58385E-10-6.89846E-09
 -1       660 5.11632E+04-1.18003E+06-1.22835E+05-1.17438E+03-1.52795E-10-6.95556E-09
 -1       661 1.61997E+05 1.76054E+04 1.56393E+04 6.33256E+04 4.40150E-09 5.59703E-09
 -1       662 1.70205E+05 2.98106E+04 1.05384E+04 6.05368E+04 4.87194E-09-5.60965E-09
 -1       663 1.65064E+05 2.26272E+04 3.68637E+03 6.24400E+04-3.75849E-10-4.57112E-09
 -1       664 1.66656E+05 2.39328E+04 2.20407E+03 6.16140E+04 1.54174E-09-5.29531E-09
 -1       665 1.65523E+05 2.33182E+04 8.69436E+02 6.23108E+04-1.31757E-09-1.74489E-09
 -1       666 1.66117E+05 2.31385E+04 5.07154E+02 6.17798E+04-3.95664E-09-7.15804E-09
 -1       667 1.65600E+05 2.34007E+04 2.67529E+02 6.22820E+04-8.74451E-10-1.34717E-09
 -1       668 1.66034E+05 2.30738E+04 2.68351E+02 6.18212E+04 4.13536E-10-9.90738E-09
 -1       669 1.65605E+05 2.33810E+04 3.59829E+02 6.22700E+04 2.77298E-09 2.23061E-09
 -1       670 1.66124E+05 2.32644E+04 7.80279E+02 6.18208E+04 6.87754E-09 4.93048E-09
 -1       671 1.65510E+05 2.32139E+04 1.38436E+03 6.22809E+04 2.95138E-10-1.33730E-09
 -1       672 1.66932E+05 2.46103E+04 3.54099E+03 6.16251E+04-6.71299E-10 1.16231E-08
 -1       673 1.64802E+05 2.20690E+04 5.93381E+03 6.24528E+04-1.35731E-09 4.52633E-09
 -1       674 1.72582E+05 3.41411E+04 1.69694E+04 5.99633E+04-1.95996E-10 9.86120E-10
 -1       675 1.59897E+05 1.39495E+04 2.51880E+04 6.38422E+04 3.20961E-09-1.96178E-09
 -1       676 1.88061E+01-2.24936E+05-8.73211E+02 3.39375E+01 6.89369E-10-2.82352E-09
 -1       677-2.31798E+02-2.25147E+05-1.59808E+03-6.78406E+01-4.28193E-09-1.16944E-08
 -1       678 1.54798E+02-2.24785E+05-2.82498E+03 3.38798E+01-2.13436E-09 5.46174E-09
 -1       679-2.82560E+03-2.26852E+05-6.71074E+03-6.76171E+01-8.01606E-10 2.75799E-09
 -1       680 1.68634E+03-2.23231E+05-1.08155E+04 3.33267E+01-1.36970E-09-2.27189E-10
 -1       771-2.40608E+06-4.43677E+05-6.31965E+04-1.02261E+06-1.25292E-08-1.25146E-08
 -1       772-2.38412E+06-4.81078E+05-3.36387E+04-1.06466E+06-9.00764E-09 4.18913E-09
 -1       773-2.41571E+06-4.36127E+05-1.50210E+04-1.02617E+06-4.80213E-09 4.70754E-09
 -1       774-2.37571E+06-4.74084E+05-7.17482E+03-1.07014E+06 8.28732E-09-4.36557E-10
 -1       775-2.41870E+06-4.34074E+05-3.98490E+03-1.02669E+06-2.77942E-09 1.22236E-09
 -1       776-2.37623E+06-4.74133E+05-1.73774E+03-1.07350E+06-2.60843E-09 1.94268E-09
 -1       777-2.42097E+06-4.32398E+05-1.30767E+03-1.02708E+06 0.00000E+00 1.65528E-09
 -1       778-2.37724E+06-4.74350E+05-4.95651E+02-1.07633E+06 2.49565E-09 4.10364E-09
 -1       779-2.42283E+06-4.30973E+05-5.90051E+02-1.02743E+06-3.17232E-09-3.31602E-09
 -1       780-2.37818E+06-4.74514E+05-2.92705E+02-1.07861E+06-3.91447E-09-2.95586E-10
 -1       781-2.42426E+06-4.29841E+05-5.39588E+02-1.02770E+06-1.00990E-08-1.23237E-09
 -1       782-2.37897E+06-4.74654E+05-7.56675E+02-1.08029E+06-1.20344E-08-3.52566E-09
 -1       783-2.42519E+06-4.29084E+05-1.52965E+03-1.02787E+06-8.91305E-10-5.79246E-09
 -1       784-2.38032E+06-4.75655E+05-3.52324E+03-1.08127E+06-5.96992E-09 1.63709E-11
 -1       785-2.42504E+06-4.29168E+05-6.53600E+03-1.02750E+06-1.58361E-08-2.81034E-09
 -1       786 1.66098E+05-9.23399E+03 2.13630E+04-3.87141E+01 5.73967E-06 2.59215E-08
 -1       787 1.75356E+05 1.06901E+04 1.51138E+04 8.83185E+00 1.14347E-05 2.01799E-08
 -1       788 1.69670E+05-1.44753E+03 5.52913E+03-2.80303E+01 1.05704E-05-1.76199E-08
 -1       789 1.71196E+05 1.67485E+03 3.47374E+03-9.39329E+00 9.68180E-06 1.75017E-08
 -1       790 1.70260E+05-2.26098E+02 1.41288E+03-2.04901E+01 9.12399E-06-8.59364E-09
 -1       791 1.70508E+05 2.62525E+02 8.28407E+02-2.40509E+01 8.55833E-06 1.48273E-08
 -1       792 1.70358E+05-3.62641E+01 3.75842E+02-1.33726E+01 4.28295E-06-9.66840E-09
 -1       793 1.70396E+05 4.98404E+01 2.41721E+02-3.99426E+01 1.27680E-08-4.60723E-09
 -1       794 1.70371E+05-1.35526E+01 1.72077E+02-4.59805E+00 1.39193E-09-5.14783E-09
 -1       795 1.70403E+05 6.72637E+01 2.38822E+02-6.16139E+01-1.02759E-09 1.90759E-09
 -1       796 1.70351E+05-5.36712E+01 3.51630E+02 8.29902E+00 7.37762E-10-3.40633E-09
 -1       797 1.70561E+05 3.92839E+02 8.24059E+02-9.51433E+01-6.58281E-10 3.07159E-09
 -1       798 1.70213E+05-3.38890E+02 1.29909E+03 2.89319E+01 1.01031E-10 2.17489E-09
 -1       799 1.71535E+05 2.50217E+03 3.54015E+03-1.50153E+02-5.68644E-10-3.44397E-09
 -1       800 1.69377E+05-2.16130E+03 5.00017E+03 6.33094E+01-4.94431E-11 4.01769E-09
 -1       801 1.98672E+04-9.12560E+05-7.62356E+04 2.47903E+04 1.23800E-08-3.44198E-09
 -1       802-1.51363E+04-7.90637E+05-7.49285E+03-7.16767E+04 3.35740E-08-2.80244E-09
 -1       803-4.24309E+03-8.52576E+05 2.68159E+04 4.64617E+04 2.63972E-08 2.05612E-08
 -1       804 8.74820E+04-7.30868E+05 1.27730E+05-6.63269E+04 3.01370E-08 2.89126E-08
 -1       805-8.30653E+04-9.71808E+05 1.49371E+05 1.94348E+04 1.09285E-08 2.35798E-08
 -1       806-2.10317E+05-4.37613E+04-1.73169E+04-8.62277E+04 4.09227E-09-1.62527E-09
 -1       807-2.11459E+05-4.11585E+04-8.50750E+03-9.06783E+04 8.88372E-09-5.79726E-09
 -1       808-2.10801E+05-3.75125E+04-3.60889E+03-8.91723E+04 3.45381E-09 4.32507E-10
 -1       809-2.09651E+05-3.87881E+04-1.76437E+03-9.09131E+04-6.09361E-10 8.35621E-09
 -1       810-2.10877E+05-3.72929E+04-8.08001E+02-8.93023E+04 1.89334E-09 6.98014E-09
 -1       811-2.09512E+05-3.86940E+04-4.00903E+02-9.08907E+04 1.04137E-09 8.00355E-10
 -1       812-2.10889E+05-3.73098E+04-2.00507E+02-8.93019E+04-1.44973E-09-2.98178E-09
 -1       813-2.09494E+05-3.86962E+04-1.27076E+02-9.08790E+04 4.48381E-10-5.27996E-09
 -1       814-2.10886E+05-3.73163E+04-1.20271E+02-8.92991E+04-7.42602E-10-2.97086E-09
 -1       815-2.09496E+05-3.86983E+04-1.89131E+02-9.08753E+04 1.68257E-09 4.36114E-09
 -1       816-2.10874E+05-3.73151E+04-3.55054E+02-8.92965E+04 1.21609E-08 3.31488E-08
 -1       817-2.09557E+05-3.87323E+04-7.61266E+02-9.08684E+04 2.54295E-09-5.42786E-09
 -1       818-2.10828E+05-3.74222E+04-1.55169E+03-8.92458E+04-7.62157E-10-8.78117E-09
 -1       819-2.10411E+05-3.96650E+04-3.65170E+03-9.06623E+04-5.37148E-09-3.78986E-09
 -1       820-2.10534E+05-4.01817E+04-7.43201E+03-8.80672E+04-5.26597E-10-7.05768E-10
 -1       821-2.69728E+05 1.49242E+04-3.45145E+04 1.52305E+02 4.41084E-10-2.02635E-09
 -1       822-2.84685E+05-1.72773E+04-2.44240E+04-7.53589E+02-1.63911E-09 7.60338E-10
 -1       823-2.75500E+05 2.33986E+03-8.93927E+03 1.33439E+02 4.19409E-10-1.70076E-10
 -1       824-2.77952E+05-2.70818E+03-5.62420E+03-5.96694E+02 5.58551E-10 5.41957E-09
 -1       825-2.76460E+05 3.66121E+02-2.31252E+03-4.59313E+00-2.03288E-09 1.14778E-09
 -1       826-2.76834E+05-4.31705E+02-1.39434E+03-2.59183E+02-4.72419E-09 5.62045E-09
 -1       827-2.76618E+05 6.48056E+01-7.23889E+02-2.04078E+02-4.02028E-09-2.63421E-09
 -1       828-2.76683E+05-1.31747E+02-6.38256E+02 1.20297E+02-5.26517E-09 1.18949E-08
 -1       829-2.76610E+05 6.64449E+01-7.35526E+02-3.84080E+02-4.62535E-10-2.17349E-09
 -1       830-2.76858E+05-4.44076E+02-1.43545E+03 3.87707E+02 2.69181E-09-6.94021E-09
 -1       831-2.76443E+05 3.77197E+02-2.37811E+03-4.71494E+02-2.55437E-09-5.45060E-09
 -1       832-2.78003E+05-2.78911E+03-5.79512E+03 4.35040E+02-1.49681E-09-4.92741E-09
 -1       833-2.75466E+05 2.40985E+03-9.20935E+03-4.31413E+02-1.90250E-09 4.42105E-09
 -1       834-2.84918E+05-1.77978E+04-2.51599E+04 2.44709E+02-1.45538E-09 3.95039E-09
 -1       835-2.69530E+05 1.53741E+04-3.55606E+04-2.81151E+02 4.69610E-09 1.15888E-08
 -1       836-8.99947E+02 2.53855E+05 1.53316E+04-2.08528E+04 1.25783E-09 5.11454E-09
 -1       837 3.36968E+03 2.58605E+05 1.30914E+04-4.18860E+04 1.91653E-09 1.48177E-08
 -1       838-3.31899E+02 2.55174E+05 1.35019E+04-2.07811E+04 1.76624E-09 3.60149E-09
 -1       839 8.66296E+03 2.62550E+05 2.57022E+04-4.19144E+04 2.37560E-09-3.49646E-09
 -1       840-2.60699E+03 2.49872E+05 4.10524E+04-2.08231E+04 1.50976E-09 2.73712E-09
 -1       856-7.94986E+04 7.06728E+03-1.86243E+04-4.14345E+02-2.65027E-09 2.03636E-09
 -1       857-8.71911E+04-8.28917E+03-1.28223E+04 4.29035E+03-1.92853E-09-1.22718E-08
 -1       858-8.25380E+04 9.90233E+02-4.83349E+03-4.33996E+02-3.85063E-09-4.50677E-09
 -1       859-8.37008E+04-1.15141E+03-2.91909E+03 4.32165E+03 1.27415E-09 9.10677E-09
 -1       860-8.29924E+04 1.37710E+02-1.22714E+03-4.45772E+02 1.63479E-09-4.58363E-09
 -1       861-8.31775E+04-1.52065E+02-6.82988E+02 4.33776E+03-4.69134E-09-4.28383E-09
 -1       862-8.30631E+04 1.82103E+01-2.99783E+02-4.50140E+02 5.34493E-09-1.03952E-08
 -1       863-8.30936E+04-1.07163E+01-1.45236E+02 4.33975E+03 1.08465E-08-9.82364E-09
 -1       864-8.30764E+04-5.24940E-01-3.95248E+01-4.47756E+02 4.94626E-09-3.17339E-09
 -1       865-8.30671E+04 2.48063E+01 4.42686E+01 4.32770E+03 4.44238E-09 7.49253E-10
 -1       866-8.30882E+04-1.77346E+01 1.30847E+02-4.38096E+02-3.59364E-09 2.89198E-09
 -1       867-8.29943E+04 1.48379E+02 3.48866E+02 4.30148E+03-1.06974E-09-2.81352E-09
 -1       868-8.31461E+04-1.23091E+02 5.86073E+02-4.21528E+02-3.20188E-09-4.19547E-09
 -1       869-8.25565E+04 1.02148E+03 1.57050E+03 4.25809E+03-4.29216E-09-6.04078E-09
 -1       870-8.35213E+04-8.68903E+02 2.27769E+03-3.94710E+02 6.46821E-10 8.43443E-10
 -1       871-3.97125E+03-8.61696E+03-1.29063E+04 8.48616E+04 1.30149E-09-1.80989E-10
 -1       872-1.72091E+03-1.15096E+04-5.26768E+03 1.10019E+05 2.86855E-09-2.53021E-09
 -1       873-3.53777E+01-1.01587E+04 7.34350E+02 8.46751E+04 2.16596E-09 4.29520E-09
 -1       874 1.97879E+03-8.29211E+03 7.28062E+03 1.10057E+05 4.74665E-09 8.37554E-09
 -1       875 4.67931E+03-1.18862E+04 1.61571E+04 8.48311E+04 2.09093E-09 4.49518E-09
 -1       876 2.10105E+05 3.61726E+04 1.12088E+04 8.52086E+04-4.49768E-09 9.36780E-10
 -1       877 2.10750E+05 3.86294E+04 5.98577E+03 8.85193E+04-3.24189E-09-4.83408E-09
 -1       878 2.11152E+05 3.49321E+04 2.50775E+03 8.61291E+04 1.33468E-10 3.26963E-10
 -1       879 2.09225E+05 3.71108E+04 1.24926E+03 8.85985E+04-3.74087E-09 1.31698E-08
 -1       880 2.11229E+05 3.49184E+04 5.81620E+02 8.61666E+04-3.86240E-09 2.45819E-09
 -1       881 2.09124E+05 3.70463E+04 3.09841E+02 8.85825E+04-8.18272E-09-5.30142E-09
 -1       882 2.11236E+05 3.49276E+04 1.96928E+02 8.61677E+04-4.41264E-09-7.24024E-09
 -1       883 2.09116E+05 3.70432E+04 2.09621E+02 8.85779E+04-2.01487E-09 1.12378E-08
 -1       884 2.11232E+05 3.49253E+04 3.31567E+02 8.61678E+04-2.65908E-09-2.25475E-09
 -1       885 2.09142E+05 3.70480E+04 6.65454E+02 8.85862E+04 4.43194E-09 1.22520E-08
 -1       886 2.11206E+05 3.49058E+04 1.34064E+03 8.61652E+04 2.61207E-09 6.20025E-09
 -1       887 2.09378E+05 3.72024E+04 2.92826E+03 8.86201E+04 4.62705E-11-8.05585E-10
 -1       888 2.11021E+05 3.49384E+04 5.90049E+03 8.60715E+04 2.08803E-09 1.75532E-10
 -1       889 2.12894E+05 4.08528E+04 1.40958E+04 8.85088E+04-9.33852E-10-6.55291E-10
 -1       890 2.08617E+05 3.77940E+04 2.64003E+04 8.38205E+04 3.04976E-09-8.08541E-10
 -1       891-1.30184E+02-1.19204E+05-1.41127E+03 2.24624E+04 4.52474E-10-2.31330E-09
 -1       892-2.26793E+02-1.19542E+05-1.53378E+03 3.39933E+04 4.11092E-10-1.48884E-09
 -1       893-3.66187E+01-1.19248E+05-2.19031E+03 2.24669E+04-3.72893E-11 2.11867E-09
 -1       894-1.19644E+03-1.20381E+05-4.54671E+03 3.38721E+04-1.83991E-09 5.50085E-09
 -1       895-9.35677E+02-1.18302E+05-8.01193E+03 2.25819E+04 4.27349E-10 5.68070E-09
 -1       956-2.64553E+05-3.79486E+03-9.55196E+03 1.76583E+04-1.26647E-09 7.64555E-09
 -1       957-2.66439E+05-1.28029E+03-4.90358E+03 2.12646E+04-2.56387E-09 1.37015E-09
 -1       958-2.65401E+05-1.02140E+02-2.20921E+03 1.75448E+04 2.62025E-09-2.07024E-09
 -1       959-2.65551E+05-1.75190E+01-1.12841E+03 2.13877E+04-1.16393E-09 1.82854E-09
 -1       960-2.65477E+05 3.19131E+01-5.50049E+02 1.75339E+04-3.35331E-09-1.79125E-09
 -1       961-2.65487E+05 3.02151E+01-2.91686E+02 2.14000E+04-3.33966E-09-5.18787E-09
 -1       962-2.65492E+05 2.81969E+01-1.66673E+02 1.75323E+04-3.33534E-09 3.24917E-10
 -1       963-2.65484E+05 3.15146E+01-1.33260E+02 2.14023E+04-2.97450E-09 4.03929E-09
 -1       964-2.65496E+05 3.01338E+01-1.61114E+02 1.75317E+04-1.30569E-09 3.10445E-09
 -1       965-2.65494E+05 3.44431E+01-2.77849E+02 2.14023E+04 1.68810E-09-6.91966E-09
 -1       966-2.65487E+05 3.76334E+01-5.21248E+02 1.75322E+04-4.17629E-09 1.10117E-09
 -1       967-2.65563E+05-6.63927E+00-1.06893E+03 2.13955E+04-3.05818E-11 2.02260E-09
 -1       968-2.65421E+05-8.54458E+01-2.09177E+03 1.75386E+04 7.52607E-10-7.96732E-09
 -1       969-2.66411E+05-1.19910E+03-4.64433E+03 2.13206E+04 1.33468E-09 4.52667E-09
 -1       970-2.64623E+05-3.58052E+03-9.04616E+03 1.76094E+04 1.56615E-09 5.60431E-09
 -1       971-2.50502E+05-1.31673E+03-7.32170E+03 1.21364E+04-7.92625E-09-1.15716E-09
 -1       972-2.52282E+05-9.43686E+02-3.98741E+03 1.69503E+04-1.09062E-08-3.28146E-09
 -1       973-2.51316E+05-8.37321E+00-1.78544E+03 1.20352E+04-9.57698E-09-5.65296E-09
 -1       974-2.51440E+05-8.21245E+00-9.24973E+02 1.70595E+04-2.07524E-09 4.97448E-09
 -1       975-2.51379E+05 2.57211E+01-4.61291E+02 1.20261E+04-6.73026E-11 1.16529E-09
 -1       976-2.51389E+05 2.99687E+01-2.64284E+02 1.70705E+04-2.65163E-09-1.13665E-08
 -1       977-2.51391E+05 2.54067E+01-1.88460E+02 1.20240E+04 5.74209E-09-3.79146E-10
 -1       978-2.51392E+05 3.41415E+01-2.15997E+02 1.70734E+04 1.56322E-08 1.04174E-08
 -1       979-2.51390E+05 3.11807E+01-3.43110E+02 1.20232E+04 8.54988E-09 7.54233E-09
 -1       980-2.51417E+05 3.62288E+01-6.60039E+02 1.70738E+04 8.34659E-09 1.32445E-09
 -1       981-2.51369E+05 4.76224E+01-1.27703E+03 1.20236E+04 1.37288E-09-5.30486E-09
 -1       982-2.51592E+05-5.79785E+01-2.63886E+03 1.70688E+04-1.47986E-09 7.31875E-09
 -1       983-2.51209E+05-3.39194E+01-5.12690E+03 1.20285E+04 1.03842E-09-1.31433E-09
 -1       984-2.54058E+05-2.73517E+03-1.14809E+04 1.70002E+04 4.63842E-11 2.03829E-09
 -1       985-2.48888E+05-3.78530E+03-2.10826E+04 1.20968E+04 3.97631E-09 7.54517E-09
 -3
    1PSTEP                        11           6           1          
  100CL  106 5.39062E-01         409                     0    6           1
 -4  DISP        4    1
 -5  D1          1    2    1    0
 -5  D2          1    2    2    0
 -5  D3          1    2    3    0
 -5  ALL         1    2    0    0    1ALL
 -1         1 1.83187E-04 0.00000E+00 0.00000E+00
 -1         2 1.64238E-04 6.66237E-31 0.00000E+00
 -1         3 1.63626E-04 2.25481E-27 0.00000E+00
 -1         5 1.07194E-04 2.92916E-26 0.00000E+00
 -1         8 1.57787E-04-8.71016E-07 0.00000E+00
 -1         9 1.51637E-04-8.39100E-07 0.00000E+00
 -1        10 1.50563E-04-2.19915E-06 0.00000E+00
 -1        12 1.06931E-04 5.92389E-07-1.65436E-24
 -1        15 1.27484E-04-9.68706E-07-4.13590E-25
 -1        16 1.32587E-04-1.03906E-06 0.00000E+00
 -1        17 1.09272E-04-4.69342E-06 0.00000E+00
 -1        18 1.04972E-04 4.79640E-06 0.00000E+00
 -1        19 1.06141E-04 1.18169E-06 0.00000E+00
 -1        20 1.06287E-04 1.31346E-05 0.00000E+00
 -1        21 1.05692E-04 2.38434E-05 3.30872E-24
 -1        24 2.23271E-05-6.57121E-06 0.00000E+00
 -1        25 1.04899E-04 4.93630E-06 0.00000E+00
 -1        26 1.05801E-04 1.64107E-06 0.00000E+00
 -1        27 1.04163E-04 1.04731E-05 0.00000E+00
 -1        28 1.03694E-04 2.33416E-05 0.00000E+00
 -1        32 0.00000E+00 0.00000E+00 0.00000E+00
 -1        33 1.04218E-04 2.19865E-06 0.00000E+00
 -1        34 1.02618E-04 1.04479E-05 0.00000E+00
 -1        35 1.01110E-04 2.30749E-05 0.00000E+00
 -1        51 1.81539E-04-1.44911E-07 0.00000E+00
 -1        52 1.78480E-04-2.83853E-07 0.00000E+00
 -1        53 1.74288E-04-4.24018E-07 0.00000E+00
 -1        54 1.69250E-04-5.67111E-07-3.30872E-24
 -1        55 1.63653E-04-7.14022E-07-5.58347E-24
 -1        56 1.81582E-04-8.49715E-07 0.00000E+00
 -1        57 1.80064E-04-2.11451E-06 2.64698E-23
 -1        58 1.78654E-04-3.65630E-06-5.29396E-23
 -1        59 1.77290E-04-5.35427E-06 2.64698E-23
 -1        60 1.75932E-04-7.06606E-06 0.00000E+00
 -1        61 1.74524E-04-8.65309E-06 2.64698E-23
 -1        62 1.73021E-04-9.98627E-06 0.00000E+00
 -1        63 1.71379E-04-1.09476E-05 2.64698E-23
 -1        64 1.69564E-04-1.14495E-05 0.00000E+00
 -1        65 1.67551E-04-1.14235E-05-2.64698E-23
 -1        66 1.65331E-04-1.08446E-05-5.29396E-23
 -1        67 1.62903E-04-9.71020E-06 0.00000E+00
 -1        68 1.60283E-04-8.06432E-06-5.29396E-23
 -1        69 1.57502E-04-5.96839E-06 0.00000E+00
 -1        70 1.54588E-04-3.52813E-06 2.64698E-23
 -1        86 1.63820E-04-1.32891E-07-3.30872E-24
 -1        87 1.62567E-04-2.66951E-07 0.00000E+00
 -1        88 1.60584E-04-4.02199E-07 0.00000E+00
 -1        89 1.57978E-04-5.41955E-07 0.00000E+00
 -1        90 1.54934E-04-6.81818E-07 0.00000E+00
 -1       121 1.63260E-04-3.63438E-07 0.00000E+00
 -1       122 1.62165E-04-7.27396E-07 0.00000E+00
 -1       123 1.60342E-04-1.09239E-06 0.00000E+00
 -1       124 1.57796E-04-1.45897E-06 0.00000E+00
 -1       125 1.54534E-04-1.82754E-06 1.32349E-23
 -1       191 1.07187E-04 9.87362E-08 0.00000E+00
 -1       192 1.07165E-04 1.97471E-07 3.30872E-24
 -1       193 1.07129E-04 2.96206E-07 0.00000E+00
 -1       194 1.07077E-04 3.94938E-07 0.00000E+00
 -1       195 1.07012E-04 4.93667E-07 0.00000E+00
 -1       251 1.57398E-04 3.85241E-06 0.00000E+00
 -1       252 1.57010E-04 7.88973E-06 0.00000E+00
 -1       253 1.56625E-04 1.09458E-05 0.00000E+00
 -1       254 1.56243E-04 1.27407E-05-6.61744E-24
 -1       255 1.55863E-04 1.32297E-05 0.00000E+00
 -1       256 1.55482E-04 1.23885E-05 0.00000E+00
 -1       257 1.55099E-04 1.04409E-05 0.00000E+00
 -1       258 1.54715E-04 7.62796E-06 6.61744E-24
 -1       259 1.54329E-04 4.35202E-06 0.00000E+00
 -1       260 1.53944E-04 1.02281E-06 0.00000E+00
 -1       261 1.53559E-04-1.94004E-06 0.00000E+00
 -1       262 1.53176E-04-4.12269E-06 6.61744E-24
 -1       263 1.52794E-04-5.25680E-06 0.00000E+00
 -1       264 1.52412E-04-5.09036E-06 6.61744E-24
 -1       265 1.52029E-04-3.61411E-06 0.00000E+00
 -1       266 1.52736E-04-8.99398E-07 0.00000E+00
 -1       267 1.47686E-04-9.14205E-07 0.00000E+00
 -1       268 1.42635E-04-9.29871E-07-1.65436E-24
 -1       269 1.37585E-04-9.42991E-07 0.00000E+00
 -1       270 1.32534E-04-9.56051E-07-4.13590E-25
 -1       271 1.54767E-04 3.08257E-06-2.64698E-23
 -1       272 1.52125E-04 5.90552E-06 0.00000E+00
 -1       273 1.49874E-04 7.69831E-06-5.29396E-23
 -1       274 1.47966E-04 8.55957E-06-2.64698E-23
 -1       275 1.46363E-04 8.61048E-06-5.29396E-23
 -1       276 1.45013E-04 7.98384E-06-2.64698E-23
 -1       277 1.43861E-04 6.82564E-06 0.00000E+00
 -1       278 1.42850E-04 5.29083E-06-2.64698E-23
 -1       279 1.41920E-04 3.54141E-06 0.00000E+00
 -1       280 1.41007E-04 1.74317E-06 0.00000E+00
 -1       281 1.40051E-04 6.26754E-08 0.00000E+00
 -1       282 1.38991E-04-1.33540E-06 0.00000E+00
 -1       283 1.37765E-04-2.29189E-06-5.29396E-23
 -1       284 1.36321E-04-2.65371E-06-1.32349E-23
 -1       285 1.34601E-04-2.28233E-06 0.00000E+00
 -1       301 1.48108E-04-8.87162E-07-6.61744E-24
 -1       302 1.44608E-04-9.12518E-07-3.30872E-24
 -1       303 1.41222E-04-9.36331E-07 0.00000E+00
 -1       304 1.38033E-04-9.60270E-07 3.30872E-24
 -1       305 1.35127E-04-9.85488E-07-1.32349E-23
 -1       306 1.49719E-04-2.45141E-06-5.29396E-23
 -1       307 1.50775E-04-1.23248E-05 0.00000E+00
 -1       308 1.54222E-04-2.87903E-05 0.00000E+00
 -1       309 1.59253E-04-4.97515E-05 2.64698E-23
 -1       310 1.64793E-04-7.21518E-05 0.00000E+00
 -1       311 1.69726E-04-9.28380E-05 0.00000E+00
 -1       312 1.73052E-04-1.09021E-04-5.29396E-23
 -1       313 1.73852E-04-1.18227E-04 2.64698E-23
 -1       314 1.71696E-04-1.19456E-04 5.29396E-23
 -1       315 1.66344E-04-1.12254E-04-2.64698E-23
 -1       316 1.58232E-04-9.79286E-05-5.29396E-23
 -1       317 1.48015E-04-7.82596E-05 0.00000E+00
 -1       318 1.36818E-04-5.61327E-05 5.29396E-23
 -1       319 1.25870E-04-3.45856E-05-2.64698E-23
 -1       320 1.16312E-04-1.65527E-05 5.29396E-23
 -1       336 1.45800E-04-2.60281E-06-1.32349E-23
 -1       337 1.40165E-04-3.01136E-06 0.00000E+00
 -1       338 1.33672E-04-3.42476E-06 0.00000E+00
 -1       339 1.26344E-04-3.84307E-06 0.00000E+00
 -1       340 1.18202E-04-4.26748E-06 0.00000E+00
 -1       406 1.06836E-04 6.91098E-07 3.30872E-24
 -1       407 1.06726E-04 7.89774E-07 0.00000E+00
 -1       408 1.06602E-04 8.88389E-07 3.30872E-24
 -1       409 1.06463E-04 9.86823E-07-1.65436E-24
 -1       410 1.06309E-04 1.08489E-06 0.00000E+00
 -1       521 1.36586E-04-2.13556E-05 0.00000E+00
 -1       522 1.54295E-04-8.32183E-05-5.29396E-23
 -1       523 1.81339E-04-1.76453E-04 1.05879E-22
 -1       524 2.13306E-04-2.88011E-04 0.00000E+00
 -1       525 2.45571E-04-4.00698E-04-1.05879E-22
 -1       526 2.73506E-04-4.97209E-04 5.29396E-23
 -1       527 2.92697E-04-5.63926E-04 0.00000E+00
 -1       528 2.98596E-04-5.89969E-04-5.29396E-23
 -1       529 2.88632E-04-5.73310E-04 0.00000E+00
 -1       530 2.61493E-04-5.15556E-04 0.00000E+00
 -1       531 2.20133E-04-4.26691E-04-1.05879E-22
 -1       532 1.69511E-04-3.18933E-04-5.29396E-23
 -1       533 1.17386E-04-2.08166E-04-1.05879E-22
 -1       534 7.17772E-05-1.10452E-04 0.00000E+00
 -1       535 3.86788E-05-3.93660E-05-5.29396E-23
 -1       536 1.09059E-04 7.98762E-06 0.00000E+00
 -1       537 1.08750E-04 2.73611E-05 0.00000E+00
 -1       538 1.08362E-04 5.06043E-05 0.00000E+00
 -1       539 1.07953E-04 7.48746E-05 1.65436E-24
 -1       540 1.07589E-04 9.70603E-05 0.00000E+00
 -1       541 1.07323E-04 1.14061E-04-1.65436E-24
 -1       542 1.07145E-04 1.24108E-04 3.30872E-24
 -1       543 1.07014E-04 1.25471E-04 1.65436E-24
 -1       544 1.06863E-04 1.18618E-04 3.30872E-24
 -1       545 1.06633E-04 1.04064E-04 1.65436E-24
 -1       546 1.06319E-04 8.42835E-05 0.00000E+00
 -1       547 1.05949E-04 6.17790E-05 1.65436E-24
 -1       548 1.05590E-04 3.97566E-05 0.00000E+00
 -1       549 1.05303E-04 2.14199E-05-1.65436E-24
 -1       550 1.05102E-04 9.02581E-06 0.00000E+00
 -1       551 9.77295E-05-4.96745E-06 6.61744E-24
 -1       552 8.40333E-05-5.26211E-06-1.65436E-24
 -1       553 6.89087E-05-5.57515E-06 3.30872E-24
 -1       554 5.30926E-05-5.90024E-06 6.61744E-24
 -1       555 3.73215E-05-6.22747E-06 0.00000E+00
 -1       556 1.06144E-04 3.39394E-06 0.00000E+00
 -1       557 1.03708E-04 9.70663E-06 0.00000E+00
 -1       558 1.01892E-04 1.44000E-05 0.00000E+00
 -1       559 1.00628E-04 1.76421E-05 0.00000E+00
 -1       560 9.98503E-05 1.96010E-05 0.00000E+00
 -1       561 9.94925E-05 2.04456E-05 0.00000E+00
 -1       562 9.94900E-05 2.03453E-05 0.00000E+00
 -1       563 9.97782E-05 1.94696E-05 0.00000E+00
 -1       564 1.00293E-04 1.79882E-05 0.00000E+00
 -1       565 1.00971E-04 1.60712E-05 0.00000E+00
 -1       566 1.01747E-04 1.38884E-05 0.00000E+00
 -1       567 1.02560E-04 1.16100E-05 1.55096E-25
 -1       568 1.03345E-04 9.40604E-06 0.00000E+00
 -1       569 1.04038E-04 7.44639E-06 0.00000E+00
 -1       570 1.04577E-04 5.90100E-06 0.00000E+00
 -1       571 1.05043E-04 4.58975E-06 0.00000E+00
 -1       572 1.05115E-04 4.33705E-06 2.06795E-25
 -1       573 1.05188E-04 4.04720E-06 0.00000E+00
 -1       574 1.05261E-04 3.72955E-06 0.00000E+00
 -1       575 1.05335E-04 3.39348E-06 0.00000E+00
 -1       576 1.05408E-04 3.04843E-06 0.00000E+00
 -1       577 1.05481E-04 2.70386E-06 0.00000E+00
 -1       578 1.05555E-04 2.36922E-06 1.65436E-24
 -1       579 1.05628E-04 2.05396E-06 0.00000E+00
 -1       580 1.05701E-04 1.76754E-06 3.30872E-24
 -1       581 1.05775E-04 1.51942E-06 3.30872E-24
 -1       582 1.05848E-04 1.31904E-06 0.00000E+00
 -1       583 1.05922E-04 1.17584E-06 0.00000E+00
 -1       584 1.05995E-04 1.09915E-06 0.00000E+00
 -1       585 1.06068E-04 1.09826E-06 0.00000E+00
 -1       586 1.04920E-04 4.82122E-06 0.00000E+00
 -1       587 1.04841E-04 4.84544E-06 0.00000E+00
 -1       588 1.04767E-04 4.86940E-06 0.00000E+00
 -1       589 1.04731E-04 4.89295E-06 0.00000E+00
 -1       590 1.04765E-04 4.91579E-06 0.00000E+00
 -1       591 1.05014E-04 4.63264E-06 3.87741E-26
 -1       592 1.05065E-04 4.43631E-06 0.00000E+00
 -1       593 1.05126E-04 4.21402E-06 4.13590E-25
 -1       594 1.05195E-04 3.97161E-06 0.00000E+00
 -1       595 1.05268E-04 3.71503E-06 0.00000E+00
 -1       596 1.05345E-04 3.45016E-06 4.13590E-25
 -1       597 1.05422E-04 3.18290E-06 4.13590E-25
 -1       598 1.05498E-04 2.91912E-06-4.13590E-25
 -1       599 1.05571E-04 2.66471E-06 0.00000E+00
 -1       600 1.05638E-04 2.42554E-06 0.00000E+00
 -1       601 1.05697E-04 2.20749E-06 0.00000E+00
 -1       602 1.05746E-04 2.01646E-06 0.00000E+00
 -1       603 1.05782E-04 1.85831E-06 4.13590E-25
 -1       604 1.05805E-04 1.73901E-06 1.03398E-25
 -1       605 1.05811E-04 1.66438E-06 8.27181E-25
 -1       606 1.06154E-04 1.42988E-06 0.00000E+00
 -1       607 1.06164E-04 1.77390E-06-1.65436E-24
 -1       608 1.06174E-04 2.20810E-06 0.00000E+00
 -1       609 1.06183E-04 2.72615E-06 0.00000E+00
 -1       610 1.06192E-04 3.32168E-06 0.00000E+00
 -1       611 1.06201E-04 3.98821E-06 0.00000E+00
 -1       612 1.06210E-04 4.71927E-06 0.00000E+00
 -1       613 1.06219E-04 5.50841E-06 0.00000E+00
 -1       614 1.06227E-04 6.34914E-06 0.00000E+00
 -1       615 1.06236E-04 7.23497E-06 0.00000E+00
 -1       616 1.06245E-04 8.15944E-06 0.00000E+00
 -1       617 1.06254E-04 9.11607E-06 0.00000E+00
 -1       618 1.06262E-04 1.00984E-05 0.00000E+00
 -1       619 1.06271E-04 1.10999E-05-8.27181E-25
 -1       620 1.06279E-04 1.21141E-05 0.00000E+00
 -1       621 1.06002E-04 1.25836E-06 0.00000E+00
 -1       622 1.05909E-04 1.33535E-06-8.27181E-25
 -1       623 1.05851E-04 1.41232E-06-1.65436E-24
 -1       624 1.05820E-04 1.48917E-06 0.00000E+00
 -1       625 1.05806E-04 1.56588E-06 1.65436E-24
 -1       626 1.06132E-04 1.45534E-06 0.00000E+00
 -1       627 1.06095E-04 1.80726E-06 1.65436E-24
 -1       628 1.06031E-04 2.22987E-06 0.00000E+00
 -1       629 1.05943E-04 2.71510E-06-1.65436E-24
 -1       630 1.05835E-04 3.25491E-06 0.00000E+00
 -1       631 1.05710E-04 3.84115E-06 1.65436E-24
 -1       632 1.05570E-04 4.46573E-06 0.00000E+00
 -1       633 1.05419E-04 5.12053E-06-1.65436E-24
 -1       634 1.05259E-04 5.79744E-06-6.61744E-24
 -1       635 1.05095E-04 6.48834E-06 0.00000E+00
 -1       636 1.04928E-04 7.18512E-06 0.00000E+00
 -1       637 1.04762E-04 7.87968E-06 0.00000E+00
 -1       638 1.04599E-04 8.56388E-06 3.30872E-24
 -1       639 1.04444E-04 9.22961E-06 0.00000E+00
 -1       640 1.04298E-04 9.86876E-06-1.65436E-24
 -1       656 1.05480E-04 1.27016E-05 0.00000E+00
 -1       657 1.05047E-04 1.22512E-05 0.00000E+00
 -1       658 1.04849E-04 1.18023E-05 1.32349E-23
 -1       659 1.04744E-04 1.13537E-05 3.30872E-24
 -1       660 1.04569E-04 1.09037E-05 6.61744E-24
 -1       661 1.05989E-04 1.41263E-05 0.00000E+00
 -1       662 1.05717E-04 1.50587E-05 0.00000E+00
 -1       663 1.05466E-04 1.59339E-05 1.65436E-24
 -1       664 1.05236E-04 1.67551E-05 0.00000E+00
 -1       665 1.05025E-04 1.75252E-05 0.00000E+00
 -1       666 1.04832E-04 1.82470E-05 8.27181E-25
 -1       667 1.04656E-04 1.89231E-05 0.00000E+00
 -1       668 1.04497E-04 1.95561E-05-8.27181E-25
 -1       669 1.04353E-04 2.01484E-05 0.00000E+00
 -1       670 1.04223E-04 2.07025E-05 0.00000E+00
 -1       671 1.04107E-04 2.12205E-05 1.65436E-24
 -1       672 1.04003E-04 2.17047E-05 8.27181E-25
 -1       673 1.03912E-04 2.21571E-05 1.65436E-24
 -1       674 1.03830E-04 2.25796E-05-8.27181E-25
 -1       675 1.03759E-04 2.29744E-05 0.00000E+00
 -1       676 1.05358E-04 2.37593E-05-3.30872E-24
 -1       677 1.05024E-04 2.36752E-05 0.00000E+00
 -1       678 1.04691E-04 2.35911E-05 3.30872E-24
 -1       679 1.04358E-04 2.35074E-05 8.27181E-25
 -1       680 1.04025E-04 2.34236E-05 0.00000E+00
 -1       771 1.66083E-05 5.23042E-06 0.00000E+00
 -1       772 1.16994E-05 1.49086E-05-2.64698E-23
 -1       773 7.56424E-06 2.25751E-05 5.29396E-23
 -1       774 4.15154E-06 2.83520E-05 0.00000E+00
 -1       775 1.41065E-06 3.23649E-05 0.00000E+00
 -1       776-7.11288E-07 3.47448E-05 2.64698E-23
 -1       777-2.26765E-06 3.56261E-05-5.29396E-23
 -1       778-3.31306E-06 3.51479E-05 0.00000E+00
 -1       779-3.90243E-06 3.34521E-05 0.00000E+00
 -1       780-4.09172E-06 3.06843E-05 2.64698E-23
 -1       781-3.93702E-06 2.69922E-05-5.29396E-23
 -1       782-3.49520E-06 2.25268E-05 0.00000E+00
 -1       783-2.82316E-06 1.74400E-05 2.64698E-23
 -1       784-1.97836E-06 1.18863E-05 1.32349E-23
 -1       785-1.01825E-06 6.02087E-06 0.00000E+00
 -1       786 1.04952E-04 4.59265E-06 4.13590E-25
 -1       787 1.05008E-04 4.27481E-06-4.13590E-25
 -1       788 1.05064E-04 3.97833E-06 0.00000E+00
 -1       789 1.05120E-04 3.69887E-06-8.27181E-25
 -1       790 1.05177E-04 3.43428E-06 1.65436E-24
 -1       791 1.05234E-04 3.18245E-06-8.27181E-25
 -1       792 1.05290E-04 2.94294E-06 0.00000E+00
 -1       793 1.05347E-04 2.71535E-06-8.27181E-25
 -1       794 1.05404E-04 2.50082E-06 0.00000E+00
 -1       795 1.05461E-04 2.30054E-06 0.00000E+00
 -1       796 1.05517E-04 2.11756E-06 1.65436E-24
 -1       797 1.05574E-04 1.95496E-06 0.00000E+00
 -1       798 1.05631E-04 1.81851E-06 0.00000E+00
 -1       799 1.05688E-04 1.71403E-06 8.27181E-25
 -1       800 1.05744E-04 1.65151E-06 1.65436E-24
 -1       801 9.76394E-05 4.30400E-06 1.32349E-23
 -1       802 7.51594E-05 3.43046E-06-6.61744E-24
 -1       803 4.61946E-05 2.40791E-06-1.32349E-23
 -1       804 1.96667E-05 1.44232E-06-1.32349E-23
 -1       805 2.15709E-06 6.58399E-07-2.64698E-23
 -1       806 1.04943E-04 4.54331E-06 0.00000E+00
 -1       807 1.04980E-04 4.16332E-06 8.27181E-25
 -1       808 1.05009E-04 3.80062E-06-1.65436E-24
 -1       809 1.05030E-04 3.45868E-06-8.27181E-25
 -1       810 1.05042E-04 3.14091E-06 3.30872E-24
 -1       811 1.05043E-04 2.85069E-06 0.00000E+00
 -1       812 1.05033E-04 2.59137E-06 1.65436E-24
 -1       813 1.05010E-04 2.36630E-06 0.00000E+00
 -1       814 1.04973E-04 2.17882E-06 3.30872E-24
 -1       815 1.04921E-04 2.03227E-06-8.27181E-25
 -1       816 1.04852E-04 1.92997E-06-1.65436E-24
 -1       817 1.04765E-04 1.87527E-06 1.65436E-24
 -1       818 1.04660E-04 1.87148E-06 1.65436E-24
 -1       819 1.04534E-04 1.92192E-06 8.27181E-25
 -1       820 1.04386E-04 2.02990E-06 1.65436E-24
 -1       821 1.05704E-04 1.62092E-06 8.27181E-25
 -1       822 1.05602E-04 1.53047E-06 8.27181E-25
 -1       823 1.05500E-04 1.43835E-06-3.30872E-24
 -1       824 1.05397E-04 1.41323E-06 0.00000E+00
 -1       825 1.05294E-04 1.50950E-06 3.30872E-24
 -1       826 1.05190E-04 1.78100E-06 0.00000E+00
 -1       827 1.05087E-04 2.24441E-06 3.30872E-24
 -1       828 1.04983E-04 2.91552E-06 0.00000E+00
 -1       829 1.04880E-04 3.76605E-06 0.00000E+00
 -1       830 1.04776E-04 4.76689E-06 1.65436E-24
 -1       831 1.04672E-04 5.85707E-06 3.30872E-24
 -1       832 1.04568E-04 6.97520E-06 0.00000E+00
 -1       833 1.04464E-04 8.05391E-06-3.30872E-24
 -1       834 1.04362E-04 9.02610E-06 8.27181E-25
 -1       835 1.04259E-04 9.84713E-06 8.27181E-25
 -1       836 1.05695E-04 1.73388E-06 0.00000E+00
 -1       837 1.05475E-04 1.82877E-06 0.00000E+00
 -1       838 1.05180E-04 1.92350E-06 0.00000E+00
 -1       839 1.04846E-04 2.01761E-06 8.27181E-25
 -1       840 1.04513E-04 2.11157E-06 0.00000E+00
 -1       856 1.04137E-04 1.10608E-05 0.00000E+00
 -1       857 1.04108E-04 1.17596E-05 0.00000E+00
 -1       858 1.04080E-04 1.25522E-05 0.00000E+00
 -1       859 1.04050E-04 1.34210E-05 0.00000E+00
 -1       860 1.04021E-04 1.43483E-05 0.00000E+00
 -1       861 1.03991E-04 1.53164E-05 4.13590E-25
 -1       862 1.03961E-04 1.63076E-05 0.00000E+00
 -1       863 1.03931E-04 1.73041E-05-4.13590E-25
 -1       864 1.03902E-04 1.82881E-05 0.00000E+00
 -1       865 1.03872E-04 1.92420E-05 0.00000E+00
 -1       866 1.03842E-04 2.01478E-05 0.00000E+00
 -1       867 1.03813E-04 2.09880E-05 4.13590E-25
 -1       868 1.03783E-04 2.17450E-05 8.27181E-25
 -1       869 1.03753E-04 2.24011E-05 0.00000E+00
 -1       870 1.03724E-04 2.29391E-05 8.27181E-25
 -1       871 1.03790E-04 1.04720E-05 4.13590E-25
 -1       872 1.03528E-04 1.04686E-05 0.00000E+00
 -1       873 1.03328E-04 1.04648E-05 0.00000E+00
 -1       874 1.03142E-04 1.04604E-05 2.06795E-25
 -1       875 1.02921E-04 1.04556E-05 4.13590E-25
 -1       876 1.04042E-04 1.10706E-05 0.00000E+00
 -1       877 1.03902E-04 1.17223E-05-1.65436E-24
 -1       878 1.03745E-04 1.24216E-05 0.00000E+00
 -1       879 1.03573E-04 1.31623E-05 0.00000E+00
 -1       880 1.03387E-04 1.39385E-05-3.30872E-24
 -1       881 1.03190E-04 1.47439E-05-1.65436E-24
 -1       882 1.02985E-04 1.55726E-05 0.00000E+00
 -1       883 1.02773E-04 1.64185E-05 0.00000E+00
 -1       884 1.02557E-04 1.72754E-05-3.30872E-24
 -1       885 1.02339E-04 1.81375E-05-1.65436E-24
 -1       886 1.02121E-04 1.89986E-05-3.30872E-24
 -1       887 1.01906E-04 1.98526E-05-1.65436E-24
 -1       888 1.01696E-04 2.06936E-05 1.65436E-24
 -1       889 1.01492E-04 2.15152E-05 8.27181E-25
 -1       890 1.01297E-04 2.23115E-05-8.27181E-25
 -1       891 1.03384E-04 2.32970E-05-8.27181E-25
 -1       892 1.03054E-04 2.32522E-05 8.27181E-25
 -1       893 1.02684E-04 2.32074E-05 8.27181E-25
 -1       894 1.02251E-04 2.31628E-05 2.06795E-25
 -1       895 1.01733E-04 2.31182E-05 0.00000E+00
 -1       956 1.04120E-04 2.49236E-06-1.65436E-24
 -1       957 1.04020E-04 2.84912E-06 0.00000E+00
 -1       958 1.03920E-04 3.26212E-06 3.30872E-24
 -1       959 1.03820E-04 3.72413E-06-1.65436E-24
 -1       960 1.03719E-04 4.22793E-06 0.00000E+00
 -1       961 1.03619E-04 4.76626E-06 1.65436E-24
 -1       962 1.03518E-04 5.33183E-06 3.30872E-24
 -1       963 1.03418E-04 5.91738E-06 0.00000E+00
 -1       964 1.03318E-04 6.51563E-06-3.30872E-24
 -1       965 1.03217E-04 7.11928E-06 0.00000E+00
 -1       966 1.03117E-04 7.72108E-06-3.30872E-24
 -1       967 1.03017E-04 8.31373E-06 0.00000E+00
 -1       968 1.02916E-04 8.88995E-06-3.30872E-24
 -1       969 1.02816E-04 9.44251E-06 0.00000E+00
 -1       970 1.02716E-04 9.96414E-06 0.00000E+00
 -1       971 1.02525E-04 1.09493E-05-3.30872E-24
 -1       972 1.02431E-04 1.15328E-05 0.00000E+00
 -1       973 1.02336E-04 1.21893E-05-3.30872E-24
 -1       974 1.02241E-04 1.29095E-05 1.65436E-24
 -1       975 1.02147E-04 1.36839E-05 0.00000E+00
 -1       976 1.02052E-04 1.45030E-05 0.00000E+00
 -1       977 1.01957E-04 1.53575E-05 3.30872E-24
 -1       978 1.01862E-04 1.62378E-05 0.00000E+00
 -1       979 1.01767E-04 1.71344E-05 0.00000E+00
 -1       980 1.01672E-04 1.80380E-05 0.00000E+00
 -1       981 1.01577E-04 1.89390E-05-3.30872E-24
 -1       982 1.01483E-04 1.98280E-05 0.00000E+00
 -1       983 1.01388E-04 2.06955E-05 0.00000E+00
 -1       984 1.01294E-04 2.15321E-05-1.65436E-24
 -1       985 1.01200E-04 2.23283E-05 0.00000E+00
 -3
    1PSTEP                        12           6           1          
  100CL  106 5.39062E-01         409                     0    6           1
 -4  STRESS      6    1
 -5  SXX         1    4    1    1
 -5  SYY         1    4    2    2
 -5  SZZ         1    4    3    3
 -5  SXY         1    4    1    2
 -5  SYZ         1    4    2    3
 -5  SZX         1    4    3    1
 -1         1-2.25624E+06-9.61851E+05-4.76957E+05-1.24212E+06-3.63798E-11-1.03319E-08
 -1         2 2.52564E+03-3.76254E+05 8.09326E+03-1.41774E+03-7.83075E-10-1.13685E-08
 -1         3-2.35153E+02-1.03725E+06 2.48915E+02-5.99563E+02-2.34113E-10 1.02245E-08
 -1         5-2.26964E+00 2.82511E+05 7.29615E+00 9.49326E-02 2.12507E-11 6.74572E-09
 -1         8-1.07666E+06-3.94852E+05-1.02548E+05-5.57589E+05 1.54614E-10 7.29779E-09
 -1         9-2.17681E+06-7.26486E+05-2.70964E+05-6.73980E+05 4.52856E-09 2.00816E-09
 -1        10-9.26775E+02-1.08061E+06-1.48280E+03-4.05726E+03-5.63705E-09 3.74209E-09
 -1        12 7.23673E-01 2.82526E+05 2.36273E+02 7.51634E-01 1.03107E-10-4.32715E-09
 -1        15 2.00477E+03 1.10174E+03 6.48040E+03 4.37854E+00-1.15023E-10-5.01974E-09
 -1        16-2.84319E+06-1.24732E+06-4.62469E+05-1.32309E+06 1.12341E-08 4.88944E-09
 -1        17-1.27162E+06-7.17058E+05-2.45225E+05-6.36641E+05-5.93427E-09 8.31205E-09
 -1        18-4.03023E+04-1.46618E+04-3.18625E+04-7.35182E+04 5.14956E-09-5.61067E-09
 -1        19 8.97186E+04 1.05029E+05-6.32811E+02 1.75535E+04-2.86855E-10-3.82934E-09
 -1        20-4.22614E+04-4.24206E+05-9.39118E+04 2.86867E+04 1.90857E-09 3.60766E-09
 -1        21-3.90491E+01-2.40693E+05-7.72372E+02-5.51255E+01-5.66499E-09-3.06123E-09
 -1        24-3.10075E+06-7.87986E+05-3.53219E+05-1.12228E+06-3.93290E-08-1.70936E-08
 -1        25-5.13328E+04-3.62906E+05-6.63618E+04-1.20035E+05 5.88443E-10 2.12258E-09
 -1        26-2.71436E+04 7.00239E+04-1.57522E+04-7.35483E+03 1.50758E-09-7.15141E-10
 -1        27-6.49766E+04-2.31800E+05-8.65837E+04 5.23079E+04 6.18896E-09-3.66739E-09
 -1        28 1.85672E+04-6.70412E+04 1.36315E+04 2.04128E+04 3.07853E-09-9.38738E-09
 -1        32-1.07960E+06-1.02255E+06 1.82680E+05-5.74686E+05-2.37742E-08 4.37282E-09
 -1        33-1.34263E+05 6.74554E+04 2.40187E+04-3.58005E+04 9.87901E-10-8.85514E-09
 -1        34-1.71669E+05-1.73243E+04 4.29195E+02 5.36655E+04 1.47148E-09-2.85854E-09
 -1        35-1.89031E+04-2.66342E+04-1.04803E+03 4.19297E+04 3.04615E-09 5.77226E-10
 -1        51 2.08313E+04-3.54735E+05 5.10047E+04-9.66797E+05-1.45519E-10 6.30098E-09
 -1        52 1.13156E+04-3.51464E+05 3.19768E+04-1.12753E+06 8.00355E-10-2.49420E-08
 -1        53 7.34433E+03-3.66010E+05 2.48325E+04-9.63394E+05 5.23869E-10 1.45519E-11
 -1        54 2.03123E+04-3.64623E+05 3.69550E+04-1.13105E+06 1.89175E-10 3.53612E-09
 -1        55 3.98692E+04-3.78386E+05 6.42006E+04-9.62836E+05 5.52973E-10 6.38829E-09
 -1        56-4.31352E+06-4.82881E+05-3.50933E+05-1.66617E+06-1.36060E-09-9.19681E-09
 -1        57-4.46475E+06-7.90854E+05-2.36671E+05-1.64107E+06-2.29193E-10 1.73168E-08
 -1        58-4.38415E+06-5.94116E+05-8.25282E+04-1.64394E+06 5.40240E-10-1.09721E-08
 -1        59-4.38316E+06-6.60101E+05-4.92686E+04-1.66725E+06 1.46247E-09-1.30703E-08
 -1        60-4.39419E+06-6.09891E+05-1.92466E+04-1.64123E+06-8.45830E-10 3.38514E-09
 -1        61-4.37343E+06-6.39637E+05-1.09093E+04-1.66804E+06 2.11730E-09 1.25660E-08
 -1        62-4.39366E+06-6.14117E+05-5.20540E+03-1.64324E+06-1.57206E-09-9.07579E-09
 -1        63-4.37743E+06-6.31684E+05-4.15846E+03-1.66179E+06 3.72575E-09 6.06065E-10
 -1        64-4.39008E+06-6.17845E+05-4.66467E+03-1.64743E+06 5.00222E-12 9.54424E-09
 -1        65-4.38658E+06-6.25416E+05-9.21175E+03-1.65224E+06 1.92813E-09-2.29215E-09
 -1        66-4.38447E+06-6.20464E+05-1.61510E+04-1.65275E+06 9.42578E-10-2.26282E-09
 -1        67-4.40481E+06-6.32320E+05-4.10599E+04-1.64001E+06 9.53435E-10-1.80180E-08
 -1        68-4.37204E+06-6.11330E+05-6.88247E+04-1.65957E+06 3.15504E-09-2.44472E-09
 -1        69-4.47808E+06-7.36223E+05-1.97246E+05-1.61259E+06 1.15597E-09 1.38716E-08
 -1        70-4.31211E+06-5.19609E+05-2.92537E+05-1.67922E+06 1.96451E-10-3.88536E-09
 -1        86-1.26955E+03-3.79345E+05 8.53288E+03 7.08863E+02 2.91038E-11-9.69010E-09
 -1        87 8.30566E+03-3.73634E+05 1.79676E+04-2.64504E+03-2.48974E-10-9.40038E-09
 -1        88-7.03261E+03-3.81970E+05 2.73821E+04 1.93619E+03-5.12955E-10-1.94089E-09
 -1        89 5.19946E+04-3.53769E+05 7.39645E+04-4.54246E+03 2.00089E-11 6.78551E-09
 -1        90-4.48605E+04-3.99196E+05 1.04431E+05 2.60652E+03-8.80391E-10 8.93536E-09
 -1       121-3.44428E+02-1.03816E+06 1.26179E+02 2.99126E+02 5.26228E-10 2.70302E-09
 -1       122-1.49804E+02-1.03721E+06 5.29504E+02-1.19800E+03-2.17144E-09-4.20368E-09
 -1       123-3.95388E+02-1.03822E+06 7.41523E+02 8.94969E+02 1.81410E-09 1.19344E-08
 -1       124 8.34522E+02-1.03666E+06 2.18520E+03-2.58416E+03-4.30919E-09-7.57973E-09
 -1       125-1.01110E+03-1.03877E+06 3.23535E+03 1.68291E+03 2.68847E-09-9.11314E-10
 -1       191-2.62634E+00 2.82535E+05 8.87306E+00-4.76598E-02 6.48328E-11 1.56751E-09
 -1       192-2.93856E+00 2.82511E+05 1.54404E+01 4.28700E-01 1.08378E-10-1.79534E-09
 -1       193-4.40549E+00 2.82535E+05 2.88625E+01-3.82513E-01 1.13737E-10-9.22773E-09
 -1       194-5.09149E+00 2.82513E+05 5.83831E+01 1.02293E+00 8.49161E-11-6.26551E-09
 -1       195-7.82473E+00 2.82533E+05 1.14347E+02-6.45110E-01 1.95961E-10-1.19921E-08
 -1       251-1.08575E+06 4.73119E+03-1.12834E+04-9.16130E+03 5.15513E-10 4.31828E-09
 -1       252-1.08942E+06-5.44615E+03-7.72835E+03 1.12128E+04 4.50427E-10 4.15218E-09
 -1       253-1.08818E+06 6.75200E+02-3.05890E+03-4.60244E+03-1.16404E-09-1.59514E-09
 -1       254-1.08651E+06-8.05282E+02-1.47552E+03 5.99726E+02-9.53662E-10 8.68454E-09
 -1       255-1.08858E+06 5.33164E+01-8.77122E+02 1.45185E+03 1.33195E-09 7.64368E-09
 -1       256-1.08660E+06-7.19841E+01-1.01334E+02-1.05841E+04 1.63988E-09 7.22000E-09
 -1       257-1.08814E+06-2.23458E+01-8.51514E+01 6.58121E+03 4.94197E-10-1.13937E-08
 -1       258-1.08746E+06 1.26283E+02 3.33361E+02-1.78571E+04-1.21531E-09-7.17588E-09
 -1       259-1.08781E+06-7.30944E+01 6.50804E+02 8.72518E+03-3.43107E-10-1.70789E-09
 -1       260-1.08730E+06 5.61492E+02 1.59940E+03-1.83044E+04-3.65347E-10-2.47545E-09
 -1       261-1.08830E+06-4.50216E+02 2.66702E+03 7.02859E+03 1.40005E-09 1.74576E-08
 -1       262-1.08506E+06 3.23767E+03 6.92769E+03-1.17509E+04-8.89827E-10 1.48339E-09
 -1       263-1.08997E+06-2.80935E+03 1.05726E+04 2.17135E+03-1.03262E-09 8.34962E-09
 -1       264-1.07639E+06 2.06372E+04 2.96369E+04-8.64240E+02-8.82977E-10 1.10022E-08
 -1       265-1.09689E+06-1.78357E+04 4.13722E+04-3.85798E+03-2.04147E-09 9.38599E-09
 -1       266-3.62918E+04-1.69673E+04 8.51638E+04-9.36995E+01-9.45874E-11-2.69011E-08
 -1       267 4.20734E+04 1.97800E+04 6.01860E+04 1.08095E+02-1.75532E-10-7.47145E-08
 -1       268-5.64191E+03-2.80117E+03 2.23712E+04-1.37741E+01-1.86446E-10-6.46967E-08
 -1       269 6.66151E+03 3.35266E+03 1.45406E+04 1.60438E+01-2.56478E-10-4.67306E-08
 -1       270-9.99897E+02-5.50855E+02 7.01895E+03-2.17730E+00-2.15323E-10-2.68001E-08
 -1       271-3.41241E+06-4.27033E+05-2.59182E+05-1.32955E+06 4.83851E-10-3.39060E-09
 -1       272-3.50067E+06-6.20759E+05-1.66635E+05-1.33235E+06-1.19553E-09-1.78989E-09
 -1       273-3.46256E+06-4.90268E+05-6.12352E+04-1.31642E+06-4.32919E-10 6.03177E-09
 -1       274-3.44126E+06-5.43995E+05-3.42355E+04-1.35298E+06 2.09684E-09 2.24554E-09
 -1       275-3.47105E+06-4.95158E+05-1.42654E+04-1.31243E+06-7.36691E-11-6.60657E-09
 -1       276-3.43066E+06-5.38891E+05-7.54233E+03-1.35979E+06-1.79170E-09 1.49907E-09
 -1       277-3.47359E+06-4.94149E+05-3.71049E+03-1.31033E+06-8.13088E-10 4.07408E-09
 -1       278-3.42772E+06-5.40323E+05-2.66581E+03-1.36300E+06-1.60003E-09 7.47974E-09
 -1       279-3.47436E+06-4.93409E+05-2.84304E+03-1.30952E+06-1.18439E-09-6.39113E-09
 -1       280-3.42790E+06-5.41240E+05-5.21101E+03-1.36334E+06-6.29257E-11-1.30767E-08
 -1       281-3.47348E+06-4.93242E+05-9.48758E+03-1.31001E+06-8.42419E-10-7.13317E-09
 -1       282-3.43391E+06-5.45707E+05-2.27393E+04-1.36016E+06-3.89377E-09 3.69982E-09
 -1       283-3.46818E+06-4.89685E+05-4.05254E+04-1.31230E+06 1.12641E-09 7.14863E-10
 -1       284-3.47294E+06-5.96759E+05-1.10376E+05-1.34662E+06-2.62173E-09-8.32915E-09
 -1       285-3.43484E+06-4.48012E+05-1.71684E+05-1.32117E+06 8.36735E-11 2.65572E-09
 -1       301 2.14055E+04-5.29507E+04 1.57952E+05-1.01385E+05-4.80213E-10 4.44288E-09
 -1       302 2.24931E+04-1.29658E+04 1.04741E+05-1.49068E+05 1.01227E-09 4.17640E-09
 -1       303 1.12310E+03-3.73194E+04 8.20699E+04-1.01477E+05-6.24823E-10-1.01190E-08
 -1       304 2.77525E+04-7.49552E+03 1.22511E+05-1.48607E+05 1.05501E-09 1.25874E-09
 -1       305 2.68096E+04-5.74272E+04 1.97233E+05-1.01889E+05-4.14730E-10 7.04858E-09
 -1       306-5.67841E+06-6.12992E+05-4.28220E+05-2.14071E+06 5.45697E-11-2.64845E-09
 -1       307-5.62967E+06-1.15337E+06-2.78547E+05-2.29049E+06-2.15327E-08 2.20462E-09
 -1       308-5.82768E+06-6.63108E+05-1.00418E+05-2.00868E+06-3.72336E-09 1.41372E-08
 -1       309-5.46791E+06-1.09126E+06-5.82115E+04-2.45960E+06 1.22921E-08-2.13095E-09
 -1       310-5.85164E+06-6.63694E+05-2.26749E+04-1.98121E+06 6.64386E-09 2.54204E-09
 -1       311-5.47582E+06-1.02845E+06-9.28728E+03-2.40981E+06 2.25846E-08 1.84787E-08
 -1       312-5.81402E+06-7.29542E+05-1.23317E+04-2.05459E+06 1.89902E-09 2.78806E-08
 -1       313-5.59542E+06-8.64847E+05 4.36798E+03-2.20332E+06-1.19071E-08 1.18871E-08
 -1       314-5.71896E+06-8.36586E+05-1.60979E+04-2.17797E+06 1.17507E-09-1.80826E-08
 -1       315-5.80908E+06-6.68080E+05-6.71904E+03-1.98063E+06-1.65383E-08-1.18343E-08
 -1       316-5.60432E+06-9.23491E+05-2.96345E+04-2.27979E+06-2.06055E-08-5.11864E-09
 -1       317-5.99667E+06-5.66020E+05-6.68254E+04-1.85184E+06 1.17939E-08-4.45289E-09
 -1       318-5.54497E+06-9.29576E+05-1.12880E+05-2.31703E+06-3.05463E-08 1.62472E-08
 -1       319-6.08813E+06-7.70324E+05-3.27009E+05-1.82992E+06-4.22187E-09-2.69938E-09
 -1       320-5.51217E+06-7.23295E+05-4.88699E+05-2.29950E+06 1.58907E-08-4.65661E-10
 -1       336 5.61766E+02-1.12386E+06-6.32502E+03 2.36358E+03-1.11286E-08-1.30240E-08
 -1       337-2.33632E+03-1.12503E+06-7.00255E+03-5.83183E+03-1.99070E-08-1.19817E-08
 -1       338 3.78145E+02-1.12400E+06-9.21512E+03 3.44801E+03-1.42604E-08 1.54614E-08
 -1       339-9.52363E+03-1.12965E+06-2.01451E+04-7.95468E+03-2.62917E-08 2.42289E-08
 -1       340 6.31814E+03-1.11951E+06-3.12439E+04 4.46832E+03-1.70539E-08 2.22699E-08
 -1       406 1.89173E+01 2.82523E+05 4.66612E+02-1.13404E-01 2.39680E-10-2.36469E-10
 -1       407 1.63340E+02 2.82608E+05 9.91374E+02-4.06981E+00-1.64846E-12 6.01017E-09
 -1       408 5.11142E+02 2.82451E+05 1.98016E+03 4.28228E+00 2.91266E-10-8.44921E-09
 -1       409 2.14148E+03 2.83240E+05 4.45754E+03-4.21520E+01-1.49612E-10-2.50166E-08
 -1       410 6.15154E+03 2.81888E+05 9.09999E+03 3.96679E+01 1.99179E-10-7.13658E-09
 -1       521-8.17568E+06-7.90952E+05-7.90922E+05-2.55307E+06-9.58971E-09 1.58907E-08
 -1       522-5.66584E+06-2.10042E+06-2.02514E+05-3.95357E+06-9.27139E-08-1.92049E-08
 -1       523-8.17392E+06-3.37785E+05-1.55689E+05-1.79612E+06-1.73968E-08-5.67816E-08
 -1       524-6.03612E+06-2.27840E+06-3.55207E+04-4.96114E+06 1.30267E-07-1.09660E-07
 -1       525-8.17389E+06-3.37447E+05-4.32481E+04-1.76530E+06 6.20275E-08-7.76527E-08
 -1       526-5.58012E+06-1.94454E+06 1.34193E+05-4.10042E+06 2.56914E-08-2.65700E-08
 -1       527-8.29535E+06-9.17464E+05-2.15937E+05-2.46094E+06-1.90921E-08 2.34941E-08
 -1       528-5.75506E+06-8.97204E+05 2.71807E+05-2.31170E+06 4.23897E-08 1.31331E-08
 -1       529-7.65712E+06-1.62465E+06-2.34947E+05-3.26942E+06-1.65746E-08-1.44064E-09
 -1       530-7.76750E+06 4.03979E+05 1.58641E+05-1.32026E+06-8.08286E-08 6.80739E-08
 -1       531-6.59752E+06-1.98713E+06-6.20966E+04-3.64390E+06-1.14131E-07-8.22183E-09
 -1       532-9.30415E+06 1.00050E+06-3.02119E+04-1.23118E+06 5.97884E-08-1.08079E-07
 -1       533-6.45559E+06-1.99271E+06-1.30243E+05-3.67186E+06 2.89074E-08-1.66969E-07
 -1       534-8.31099E+06 4.05576E+05-2.05979E+05-1.23306E+06-4.02288E-08 1.15325E-07
 -1       535-7.34926E+06-1.56011E+06-7.40207E+05-3.40733E+06-9.77889E-09 7.65867E-08
 -1       536-3.90423E+05-1.90855E+04 3.32421E+04-1.33787E+04-3.70096E-09 2.63281E-08
 -1       537-3.31350E+05 2.14041E+04 3.13311E+04 3.20750E+04-3.65940E-08 3.10756E-08
 -1       538-3.61715E+05-2.06730E+03 9.95743E+03-1.95599E+04 9.22748E-09 2.87737E-08
 -1       539-3.48650E+05 3.04865E+03 8.20856E+03 3.49781E+04 4.43804E-08 3.01593E-08
 -1       540-3.73357E+05-5.38221E+02 3.73349E+01-1.62887E+04 6.01540E-09 2.45143E-08
 -1       541-3.12160E+05 1.98964E+03 1.10530E+04 2.00070E+04-1.20945E-08 1.61752E-08
 -1       542-3.97224E+05-1.82422E+03-6.89343E+03-4.56886E+03 1.01124E-08 1.40421E-08
 -1       543-2.95897E+05 2.22375E+03 1.30146E+04-5.98298E+03 4.82282E-09-1.02309E-08
 -1       544-3.89201E+05-1.13673E+03-6.23767E+03 9.68206E+03-3.99609E-10-9.45971E-09
 -1       545-3.30689E+05 1.15040E+02 4.51444E+03-2.88299E+04-4.42441E-09-3.04332E-08
 -1       546-3.63330E+05 1.02953E+03-3.10400E+03 1.82741E+04 5.00472E-09-2.30519E-08
 -1       547-3.55120E+05-3.39441E+03-5.29550E+03-3.66523E+04-3.14992E-08-3.05919E-08
 -1       548-3.65366E+05 2.88040E+03-1.17475E+04 1.75194E+04-3.24139E-08-2.51348E-08
 -1       549-3.32139E+05-1.72194E+04-2.09353E+04-2.59367E+04-1.82044E-08-2.20630E-08
 -1       550-3.85535E+05 1.41915E+04-4.80435E+04 7.54065E+03 1.95246E-09-2.04891E-08
 -1       551 1.72620E+04-5.80196E+05 2.43844E+04-9.65358E+05-4.73010E-08 3.41970E-09
 -1       552 3.92017E+04-5.91810E+05 3.18107E+04-1.37497E+06-3.58996E-08 1.61526E-08
 -1       553 2.79402E+04-5.97765E+05 4.65820E+04-9.61723E+05-5.84114E-08 1.56579E-08
 -1       554 6.58445E+04-5.87574E+05 9.75948E+04-1.37641E+06-3.62052E-08 1.96087E-09
 -1       555 5.61209E+04-6.16417E+05 1.73347E+05-9.62667E+05-5.80185E-08-6.65750E-09
 -1       556 1.00531E+05-1.86151E+05 6.21341E+04-2.35261E+05-1.44792E-08-6.06815E-09
 -1       557 1.76087E+05-2.47215E+05 3.28909E+04-2.95816E+05 3.97995E-09 6.60930E-09
 -1       558 9.87091E+04-1.93566E+05 1.29074E+04-2.28969E+05-6.30098E-09-3.62343E-09
 -1       559 1.63878E+05-2.55137E+05 6.67522E+03-3.01747E+05 8.68022E-09-8.87667E-10
 -1       560 9.51702E+04-1.91272E+05 2.53397E+03-2.31321E+05 4.90400E-09 1.20854E-08
 -1       561 1.58794E+05-2.53560E+05 1.43807E+03-3.05004E+05-2.45200E-09-3.62343E-09
 -1       562 9.23578E+04-1.89439E+05 4.34980E+02-2.33341E+05-1.14960E-09 6.17547E-09
 -1       563 1.55491E+05-2.52130E+05 3.52014E+02-3.07122E+05 4.64206E-09-6.25619E-10
 -1       564 9.05295E+04-1.88275E+05 9.57416E+01-2.34635E+05 1.25146E-09 4.27463E-11
 -1       565 1.53630E+05-2.51325E+05 1.13542E+02-3.08298E+05 5.77711E-09 1.96715E-08
 -1       566 8.97331E+04-1.87761E+05 1.61825E+01-2.35199E+05-6.73026E-10 8.94579E-09
 -1       567 1.53168E+05-2.51112E+05-5.91116E+01-3.08510E+05 7.43069E-09-8.71660E-09
 -1       568 9.00089E+04-1.87945E+05-2.95925E+02-2.35085E+05 5.74801E-10 4.46380E-09
 -1       569 1.53331E+05-2.50991E+05-7.11784E+02-3.07038E+05-5.91172E-10 1.66037E-08
 -1       570 9.19966E+04-1.89601E+05-1.66992E+03-2.34870E+05 4.43106E-09 8.03993E-10
 -1       571 2.09264E+05 7.70810E+03 1.13805E+04-5.42617E+04-5.14774E-10 2.02090E-09
 -1       572 2.10953E+05 2.70348E+03 5.57594E+03-5.94986E+04-2.54204E-10-9.86665E-09
 -1       573 2.09940E+05 6.66946E+02 2.47717E+03-5.41305E+04 2.00407E-09 5.13865E-10
 -1       574 2.10137E+05 2.41480E+02 1.24131E+03-5.96475E+04 5.16820E-10-1.52704E-09
 -1       575 2.10015E+05 5.97278E+01 5.85238E+02-5.41132E+04 1.34014E-09 3.93857E-09
 -1       576 2.10026E+05 4.22302E+01 2.98318E+02-5.96673E+04-8.43130E-11 7.06450E-09
 -1       577 2.10029E+05 2.57302E+01 1.47597E+02-5.41109E+04 6.55746E-10 3.85535E-09
 -1       578 2.10020E+05 2.97230E+01 8.18767E+01-5.96698E+04-1.65710E-09-9.63837E-09
 -1       579 2.10047E+05 2.01179E+01 5.23398E+01-5.41108E+04-1.01772E-09-6.47060E-09
 -1       580 2.10045E+05 1.90986E+01 5.29557E+01-5.96666E+04-4.42196E-09-4.32738E-09
 -1       581 2.10077E+05 7.85896E+00 7.57873E+01-5.41140E+04-6.20275E-10-3.40196E-09
 -1       582 2.10099E+05 2.05310E+01 1.47998E+02-5.96334E+04-1.17507E-09-2.31330E-09
 -1       583 2.10112E+05 5.27998E+01 2.85195E+02-5.41440E+04 1.67347E-10 8.86848E-09
 -1       584 2.10248E+05 2.76969E+02 6.40945E+02-5.93824E+04-2.98314E-10 8.56062E-09
 -1       585 2.10085E+05 8.39160E+02 1.30155E+03-5.43654E+04 1.03682E-10-1.56797E-09
 -1       586-2.49630E+03 6.90828E+04-3.15152E+03-1.86554E+05-4.26553E-10-1.69335E-08
 -1       587-5.52847E+02 6.86797E+04-1.56520E+02-2.05319E+05-7.98536E-10-2.87683E-08
 -1       588 7.22853E+02 6.87324E+04 2.71770E+03-1.86455E+05-3.05590E-10-9.82800E-09
 -1       589 3.78319E+03 7.02064E+04 7.64593E+03-2.05121E+05-7.56700E-10-6.07588E-09
 -1       590 1.10206E+04 6.78659E+04 1.62733E+04-1.86760E+05-4.85670E-10 5.82259E-09
 -1       591-4.44982E+04-1.21018E+04-1.48866E+04-2.22158E+04 2.82512E-10-3.93538E-09
 -1       592-4.61985E+04-1.54524E+04-8.06333E+03-2.57503E+04 2.63185E-11-6.44047E-09
 -1       593-4.59990E+04-1.10096E+04-3.35674E+03-2.32957E+04 3.91958E-09-3.53202E-09
 -1       594-4.41289E+04-1.32835E+04-1.67416E+03-2.58475E+04 1.37689E-08 2.15446E-08
 -1       595-4.61139E+04-1.10049E+04-7.69237E+02-2.33452E+04 8.89690E-09 1.29131E-08
 -1       596-4.39884E+04-1.31842E+04-3.91924E+02-2.58324E+04 1.34085E-09-1.52170E-10
 -1       597-4.61284E+04-1.10145E+04-2.15311E+02-2.33471E+04 7.56756E-10 4.40349E-09
 -1       598-4.39749E+04-1.31804E+04-1.76565E+02-2.58281E+04-2.71999E-09-6.98105E-09
 -1       599-4.61273E+04-1.10147E+04-2.29894E+02-2.33467E+04-1.05160E-10 2.91948E-10
 -1       600-4.39896E+04-1.31854E+04-4.30544E+02-2.58316E+04-2.01635E-09 6.60384E-09
 -1       601-4.61091E+04-1.10046E+04-8.51202E+02-2.33438E+04-8.20364E-10 5.22687E-09
 -1       602-4.41449E+04-1.32953E+04-1.85604E+03-2.58461E+04-2.56887E-09-3.45835E-09
 -1       603-4.59800E+04-1.10118E+04-3.72267E+03-2.32892E+04-2.07365E-10 2.28215E-09
 -1       604-4.64492E+04-1.56903E+04-8.94238E+03-2.57249E+04-9.15520E-10 9.74069E-10
 -1       605-4.43041E+04-1.22323E+04-1.65094E+04-2.21016E+04 3.03385E-09-8.02811E-09
 -1       606 2.76133E+04-1.00562E+04-1.80905E+04 2.67910E+04-2.36923E-09 2.63753E-09
 -1       607 2.45161E+04-3.25175E+03-9.00803E+03 3.00771E+04-1.28148E-09-6.89397E-10
 -1       608 2.62720E+04-5.56012E+02-4.03403E+03 2.65793E+04 1.40062E-09-6.41421E-10
 -1       609 2.59231E+04-1.52115E+02-2.03742E+03 3.03129E+04-1.10958E-09-5.89330E-09
 -1       610 2.61088E+04 1.74937E+01-9.73242E+02 2.65555E+04-2.66300E-09-8.43147E-09
 -1       611 2.60434E+04 3.01764E+01-4.90740E+02 3.03386E+04-6.65386E-09-7.72116E-09
 -1       612 2.60646E+04 3.40338E+01-2.34650E+02 2.65532E+04-4.20732E-09-6.98833E-09
 -1       613 2.60402E+04 3.94481E+01-1.06453E+02 3.03417E+04-8.11997E-09-7.81006E-09
 -1       614 2.60402E+04 3.51579E+01-2.86968E+01 2.65524E+04-1.01045E-09 1.27466E-09
 -1       615 2.60273E+04 4.54845E+01 3.59514E+01 3.03421E+04 5.65069E-09 2.37696E-09
 -1       616 2.60217E+04 4.14507E+01 1.15724E+02 2.65526E+04-6.89397E-10-2.55773E-09
 -1       617 2.60344E+04 7.43647E+01 2.67341E+02 3.03416E+04 7.46240E-10-9.28867E-09
 -1       618 2.59933E+04 1.21758E+02 5.39956E+02 2.65528E+04-1.95087E-10-7.15659E-09
 -1       619 2.62210E+04 4.94536E+02 1.21334E+03 3.03408E+04-2.53067E-10-5.23187E-09
 -1       620 2.58114E+04 1.40467E+03 2.43893E+03 2.65516E+04 3.00508E-09-1.11413E-09
 -1       621 3.00249E+02 2.20477E+05 2.68863E+03 1.13108E+04-1.40176E-10-1.01181E-09
 -1       622 3.54084E+02 2.21139E+05 2.38952E+03 1.64821E+04-1.09253E-10-6.05769E-09
 -1       623 1.73883E+01 2.20650E+05 2.88785E+03 1.12570E+04-1.72122E-10 1.10090E-08
 -1       624 1.34724E+03 2.22044E+05 5.60598E+03 1.65361E+04-3.47598E-11 1.03741E-08
 -1       625 1.35416E+03 2.19557E+05 9.80325E+03 1.12566E+04-4.59295E-11 9.18249E-10
 -1       626 1.88382E+05 5.08088E+04 3.93053E+03 9.98675E+04-3.53339E-10-3.44880E-09
 -1       627 1.85998E+05 5.24839E+04 1.89409E+03 1.03821E+05 1.83809E-09-6.29382E-09
 -1       628 1.88512E+05 4.89679E+04 8.00077E+02 1.00481E+05 1.35724E-08 7.07200E-09
 -1       629 1.85451E+05 5.20161E+04 3.91994E+02 1.04056E+05 1.67420E-08-1.82163E-08
 -1       630 1.88520E+05 4.88816E+04 1.81122E+02 1.00499E+05 1.87883E-08-1.43387E-08
 -1       631 1.85385E+05 5.20042E+04 9.70899E+01 1.04056E+05 1.72063E-08 1.82808E-09
 -1       632 1.88510E+05 4.88886E+04 6.32529E+01 1.00491E+05 2.09457E-09-7.20257E-09
 -1       633 1.85371E+05 5.20096E+04 6.95405E+01 1.04048E+05-3.02407E-09 4.40104E-09
 -1       634 1.88500E+05 4.88896E+04 1.11485E+02 1.00486E+05-1.77988E-09-1.60769E-08
 -1       635 1.85376E+05 5.20111E+04 2.25323E+02 1.04048E+05 1.43882E-09-3.21802E-09
 -1       636 1.88488E+05 4.88883E+04 4.54737E+02 1.00483E+05 9.86120E-10 1.43018E-10
 -1       637 1.85469E+05 5.20831E+04 9.99300E+02 1.04044E+05 3.50951E-09-3.18823E-09
 -1       638 1.88450E+05 4.91107E+04 2.05350E+03 1.00381E+05 1.31604E-09 7.83120E-09
 -1       639 1.86545E+05 5.35841E+04 4.85801E+03 1.03725E+05-3.14913E-10 5.58111E-09
 -1       640 1.88306E+05 5.35833E+04 1.00814E+04 9.84847E+04 3.83943E-09 9.79844E-09
 -1       656 5.03231E+04-1.27636E+06-1.21478E+05-4.33920E+02-1.45519E-11 2.98394E-09
 -1       657-6.65155E+04-1.33120E+06-1.00502E+05 7.57295E+03 1.47065E-09-4.69869E-09
 -1       658 1.59776E+04-1.29199E+06-6.17249E+04-1.77220E+03 9.64747E-10-8.67217E-10
 -1       659-7.14595E+04-1.33354E+06-1.06996E+05 8.50369E+03-4.73847E-10-5.83552E-10
 -1       660 5.52556E+04-1.27402E+06-1.32646E+05-1.36465E+03-1.19326E-09 7.01223E-09
 -1       661 1.68177E+05 1.82306E+04 1.63625E+04 6.57563E+04 2.65800E-09 6.07906E-09
 -1       662 1.76838E+05 3.09276E+04 1.10258E+04 6.27556E+04 4.10637E-09-5.81360E-09
 -1       663 1.71386E+05 2.34832E+04 3.85682E+03 6.48281E+04 3.17618E-09-4.74984E-09
 -1       664 1.73122E+05 2.47807E+04 2.30611E+03 6.38856E+04 8.69932E-10-5.77396E-09
 -1       665 1.71869E+05 2.42049E+04 9.09694E+02 6.46914E+04-1.70172E-09-1.67705E-09
 -1       666 1.72555E+05 2.39521E+04 5.30836E+02 6.40618E+04-7.58979E-09 1.46584E-08
 -1       667 1.71950E+05 2.42901E+04 2.80236E+02 6.46600E+04 2.77660E-09-5.50251E-09
 -1       668 1.72467E+05 2.38864E+04 2.81617E+02 6.41072E+04 1.85304E-09-1.37073E-08
 -1       669 1.71956E+05 2.42686E+04 3.78029E+02 6.46466E+04 9.40972E-10-5.67661E-09
 -1       670 1.72560E+05 2.40881E+04 8.20160E+02 6.41080E+04 4.23102E-09-2.69002E-09
 -1       671 1.71857E+05 2.40924E+04 1.45523E+03 6.46575E+04 2.10846E-10 2.77453E-09
 -1       672 1.73408E+05 2.55038E+04 3.72238E+03 6.39032E+04-5.89938E-09-4.11433E-09
 -1       673 1.71113E+05 2.28886E+04 6.23780E+03 6.48378E+04-1.69803E-09-7.58882E-09
 -1       674 1.79347E+05 3.55235E+04 1.78387E+04 6.21571E+04-2.01811E-09-7.21775E-09
 -1       675 1.65956E+05 1.43529E+04 2.64784E+04 6.62980E+04-9.58607E-10-4.27644E-09
 -1       676 2.00449E+01-2.40629E+05-9.30908E+02 2.75634E+01 1.84770E-10-1.02056E-08
 -1       677-2.47166E+02-2.40854E+05-1.70368E+03-5.50954E+01-3.82701E-09-1.80028E-08
 -1       678 1.65029E+02-2.40468E+05-3.01166E+03 2.75131E+01 1.08912E-10-2.06508E-09
 -1       679-3.01243E+03-2.42672E+05-7.15427E+03-5.49024E+01-4.01087E-10 3.01120E-09
 -1       680 1.79784E+03-2.38811E+05-1.15303E+04 2.70572E+01-3.51065E-10-1.62548E-09
 -1       771-2.56521E+06-4.90853E+05-7.15252E+04-1.10886E+06-1.31258E-08-8.71660E-09
 -1       772-2.53629E+06-5.35139E+05-3.78641E+04-1.15892E+06-8.54197E-09 4.51473E-09
 -1       773-2.57682E+06-4.81709E+05-1.72984E+04-1.11303E+06-5.18048E-09 6.62112E-09
 -1       774-2.52747E+06-5.27446E+05-8.16059E+03-1.16626E+06 1.41808E-08-7.56700E-10
 -1       775-2.58094E+06-4.78820E+05-4.79912E+03-1.11392E+06-5.67525E-10 1.39698E-09
 -1       776-2.52874E+06-5.27403E+05-2.02548E+03-1.17101E+06-5.96629E-09 2.12640E-09
 -1       777-2.58421E+06-4.76414E+05-1.68701E+03-1.11465E+06-3.78350E-10 2.17187E-09
 -1       778-2.53051E+06-5.27519E+05-5.87252E+02-1.17502E+06 3.04135E-09 4.37831E-09
 -1       779-2.58690E+06-4.74364E+05-7.66635E+02-1.11529E+06-4.38740E-09-3.22871E-09
 -1       780-2.53211E+06-5.27580E+05-2.76347E+02-1.17826E+06-1.71713E-09 6.49379E-10
 -1       781-2.58899E+06-4.72736E+05-5.21246E+02-1.11580E+06-1.31913E-08-1.00772E-09
 -1       782-2.53338E+06-5.27618E+05-5.17091E+02-1.18065E+06-1.69675E-08-3.61979E-09
 -1       783-2.59039E+06-4.71638E+05-1.06237E+03-1.11614E+06-3.39423E-09-6.84986E-09
 -1       784-2.53474E+06-5.28231E+05-2.32383E+03-1.18207E+06-9.70613E-09 4.36557E-11
 -1       785-2.59069E+06-4.71391E+05-4.33686E+03-1.11601E+06-1.55906E-08 2.90675E-09
 -1       786 1.58247E+05-9.43995E+03 2.18394E+04-7.39430E+01 1.29695E-09 4.49654E-09
 -1       787 1.67712E+05 1.09285E+04 1.54508E+04 1.80248E+01 2.17096E-09 7.24413E-10
 -1       788 1.61898E+05-1.47979E+03 5.65203E+03-5.60643E+01 1.11524E-09 1.85173E-09
 -1       789 1.63459E+05 1.71214E+03 3.55042E+03-1.13348E+01-2.27942E-10 9.74433E-09
 -1       790 1.62501E+05-2.31074E+02 1.44282E+03-4.45859E+01 1.33068E-10 5.65637E-09
 -1       791 1.62755E+05 2.67953E+02 8.43582E+02-3.21730E+01-4.05790E-10-8.59472E-10
 -1       792 1.62602E+05-3.66907E+01 3.78021E+02-3.52261E+01-5.03753E-10 3.39408E-09
 -1       793 1.62639E+05 4.81497E+01 2.33484E+02-5.14382E+01-1.38881E-10 8.27228E-10
 -1       794 1.62616E+05-1.14139E+01 1.51197E+02-2.53204E+01 4.39611E-10 1.40782E-09
 -1       795 1.62638E+05 5.06067E+01 1.87263E+02-7.44521E+01 1.16994E-10 3.79963E-09
 -1       796 1.62603E+05-3.91427E+01 2.61483E+02-1.22117E+01-3.38956E-11-9.80549E-10
 -1       797 1.62752E+05 2.85059E+02 6.00823E+02-1.07359E+02 3.09082E-10 8.72242E-09
 -1       798 1.62503E+05-2.45696E+02 9.43280E+02 7.58703E+00-4.25226E-10 3.78418E-09
 -1       799 1.63458E+05 1.81388E+03 2.56708E+03-1.59040E+02 3.78999E-10-3.97358E-09
 -1       800 1.61896E+05-1.56674E+03 3.62477E+03 3.94702E+01-2.19046E-10-3.46745E-09
 -1       801 5.10818E+04-1.86839E+06-1.69004E+05 3.41941E+04 1.54905E-08-3.24690E-09
 -1       802-5.69136E+04-1.70419E+06-6.57559E+04-6.17158E+04 4.10801E-08-5.18321E-09
 -1       803 5.16865E+03-1.78070E+06-9.80623E+03 8.72123E+04 3.19560E-08 2.70203E-08
 -1       804 5.21697E+04-1.65038E+06 7.78940E+04-4.18311E+04 3.45208E-08 3.26505E-08
 -1       805-5.87218E+04-1.92158E+06 7.70013E+04 1.43015E+04 1.28930E-08 2.52062E-08
 -1       806-2.29134E+05-4.60527E+04-1.80718E+04-9.23107E+04 2.37969E-09 1.39471E-09
 -1       807-2.30473E+05-4.31880E+04-8.87840E+03-9.67852E+04 1.28068E-09 7.22633E-09
 -1       808-2.29630E+05-3.95399E+04-3.76632E+03-9.53922E+04-2.56114E-09 1.80249E-08
 -1       809-2.28595E+05-4.07047E+04-1.84145E+03-9.70184E+04-2.13208E-09 6.51153E-09
 -1       810-2.29707E+05-3.93117E+04-8.43485E+02-9.55286E+04 1.52249E-09 1.03387E-09
 -1       811-2.28451E+05-4.06054E+04-4.18797E+02-9.69935E+04-7.09406E-10 4.11649E-09
 -1       812-2.29720E+05-3.93299E+04-2.10111E+02-9.55283E+04-4.02088E-09-8.22479E-09
 -1       813-2.28432E+05-4.06074E+04-1.34143E+02-9.69808E+04-4.46425E-09 1.80557E-09
 -1       814-2.29717E+05-3.93366E+04-1.28675E+02-9.55254E+04-3.90810E-09 6.18229E-10
 -1       815-2.28435E+05-4.06093E+04-2.03907E+02-9.69767E+04 4.75529E-09 8.14634E-09
 -1       816-2.29703E+05-3.93352E+04-3.83867E+02-9.55229E+04-2.33831E-09-9.67702E-09
 -1       817-2.28500E+05-4.06460E+04-8.23415E+02-9.69696E+04-1.04956E-09 1.08912E-08
 -1       818-2.29654E+05-3.94506E+04-1.67864E+03-9.54683E+04 5.75710E-09-5.42059E-10
 -1       819-2.29423E+05-4.16576E+04-3.95044E+03-9.67505E+04 1.16597E-08 1.59639E-09
 -1       820-2.29340E+05-4.24330E+04-8.04007E+03-9.41909E+04 5.66615E-09-1.26940E-08
 -1       821-2.88482E+05 1.59576E+04-3.69046E+04 2.43459E+02 1.12850E-09-7.75799E-09
 -1       822-3.04472E+05-1.84736E+04-2.61151E+04-9.24731E+02-2.17639E-09 9.54969E-11
 -1       823-2.94652E+05 2.50208E+03-9.55812E+03 2.47012E+02 2.44986E-10-1.91812E-09
 -1       824-2.97270E+05-2.89571E+03-6.01304E+03-7.60980E+02 4.97650E-10-9.06198E-10
 -1       825-2.95682E+05 3.91404E+02-2.47352E+03 7.97066E+01-9.53712E-10-1.96678E-11
 -1       826-2.96067E+05-4.61315E+02-1.48904E+03-3.29510E+02-3.63431E-09 1.03896E-08
 -1       827-2.95854E+05 6.90365E+01-7.76049E+02-1.84465E+02-3.28546E-09-5.08336E-09
 -1       828-2.95907E+05-1.40800E+02-6.81651E+02 1.81700E+02-4.94708E-09-1.70054E-08
 -1       829-2.95842E+05 7.11868E+01-7.89799E+02-4.31513E+02-1.18838E-10-1.96775E-09
 -1       830-2.96102E+05-4.76635E+02-1.54000E+03 5.51851E+02 1.65681E-09 8.77989E-09
 -1       831-2.95659E+05 4.05086E+02-2.55292E+03-5.54623E+02-2.67603E-09-3.75769E-09
 -1       832-2.97333E+05-2.99435E+03-6.22120E+03 6.21490E+02-1.30048E-09 5.40479E-09
 -1       833-2.94613E+05 2.58721E+03-9.88737E+03-5.01153E+02-1.80807E-09 8.12497E-09
 -1       834-3.04750E+05-1.91072E+04-2.70100E+04 3.61032E+02-7.47974E-10-2.31557E-09
 -1       835-2.88244E+05 1.65052E+04-3.81788E+04-2.94152E+02 6.08394E-09-8.33825E-09
 -1       836-9.70279E+02 2.71715E+05 1.64407E+04-1.99690E+04 8.19455E-10 3.69528E-09
 -1       837 3.60045E+03 2.76817E+05 1.40536E+04-4.01234E+04 1.21736E-09 1.19442E-08
 -1       838-3.63731E+02 2.73128E+05 1.45162E+04-1.98978E+04 1.10549E-09 5.38603E-09
 -1       839 9.30927E+03 2.81070E+05 2.76540E+04-4.01558E+04 1.66619E-09 1.25860E-09
 -1       840-2.81052E+03 2.67420E+05 4.41804E+04-1.99353E+04 9.45874E-10-3.63298E-09
 -1       856-8.00307E+04 7.44298E+03-1.96145E+04-4.30466E+02-2.86860E-09-1.66619E-09
 -1       857-8.81308E+04-8.73054E+03-1.35039E+04 4.57849E+03-2.50526E-09-5.58612E-09
 -1       858-8.32316E+04 1.04289E+03-5.09039E+03-4.51915E+02-3.56636E-09 8.52197E-10
 -1       859-8.44555E+04-1.21319E+03-3.07397E+03 4.61254E+03 2.00180E-09 9.51064E-09
 -1       860-8.37100E+04 1.45070E+02-1.29185E+03-4.64629E+02 5.78495E-10 3.17715E-09
 -1       861-8.39046E+04-1.60567E+02-7.18146E+02 4.62996E+03-4.09063E-09-1.73414E-09
 -1       862-8.37845E+04 1.91654E+01-3.13521E+02-4.69356E+02 5.34561E-09 2.20588E-09
 -1       863-8.38159E+04-1.11486E+01-1.48251E+02 4.63215E+03 1.00277E-08 2.10058E-10
 -1       864-8.37989E+04-1.04384E+00-3.28451E+01-4.66823E+02 5.29717E-09-4.68118E-09
 -1       865-8.37854E+04 3.01623E+01 6.61887E+01 4.61927E+03 4.77152E-09-1.89559E-09
 -1       866-8.38134E+04-2.25838E+01 1.72682E+02-4.56477E+02-2.66851E-10-1.06724E-08
 -1       867-8.36934E+04 1.88561E+02 4.50442E+02 4.59116E+03 1.32351E-09-1.10615E-08
 -1       868-8.38875E+04-1.57814E+02 7.54409E+02-4.38711E+02 2.60491E-09-1.14682E-10
 -1       869-8.31323E+04 1.31066E+03 2.01837E+03 4.54467E+03-2.91453E-09-4.27258E-09
 -1       870-8.43692E+04-1.11600E+03 2.92753E+03-4.09988E+02-6.39147E-10-2.35855E-09
 -1       871-4.29381E+03-9.73904E+03-1.40182E+04 9.25321E+04 2.29556E-09 4.17094E-09
 -1       872-1.84180E+03-1.28904E+04-5.73531E+03 1.19965E+05 4.32078E-09-4.24370E-09
 -1       873-1.81188E+01-1.14178E+04 7.62080E+02 9.23291E+04 1.55069E-09 3.62661E-10
 -1       874 2.15678E+03-9.41491E+03 7.82442E+03 1.20004E+05 2.74849E-09 1.64554E-08
 -1       875 5.05525E+03-1.32737E+04 1.73879E+04 9.24994E+04 5.48425E-10 5.57884E-09
 -1       876 2.26382E+05 3.88803E+04 1.20084E+04 9.17010E+04-6.33440E-09-1.26283E-08
 -1       877 2.27088E+05 4.14972E+04 6.41279E+03 9.52313E+04-3.58364E-09-2.60161E-09
 -1       878 2.27504E+05 3.75516E+04 2.68664E+03 9.26872E+04-2.24236E-09 2.51248E-09
 -1       879 2.25454E+05 3.98700E+04 1.33842E+03 9.53153E+04-8.63474E-09 5.34692E-09
 -1       880 2.27585E+05 3.75371E+04 6.23179E+02 9.27274E+04-4.67526E-09 9.11473E-09
 -1       881 2.25346E+05 3.98007E+04 3.32118E+02 9.52979E+04 4.23324E-09 5.11577E-10
 -1       882 2.27593E+05 3.75471E+04 2.11319E+02 9.27286E+04 5.90626E-09 8.82373E-10
 -1       883 2.25338E+05 3.97974E+04 2.25318E+02 9.52927E+04 1.33332E-09 4.18319E-09
 -1       884 2.27588E+05 3.75447E+04 3.56739E+02 9.27287E+04 1.63180E-09 5.26035E-09
 -1       885 2.25366E+05 3.98024E+04 7.16190E+02 9.53016E+04 4.77885E-09 3.28760E-09
 -1       886 2.27561E+05 3.75237E+04 1.44295E+03 9.27259E+04 3.50238E-09-6.65591E-09
 -1       887 2.25620E+05 3.99687E+04 3.15176E+03 9.53382E+04-7.32513E-09-3.32307E-10
 -1       888 2.27362E+05 3.75588E+04 6.35085E+03 9.26250E+04-1.27775E-09 8.19000E-09
 -1       889 2.29404E+05 4.38981E+04 1.51715E+04 9.52190E+04 2.50011E-09-1.16154E-08
 -1       890 2.24774E+05 4.06324E+04 2.84153E+04 9.02021E+04 2.49656E-09-2.26100E-09
 -1       891-1.35618E+02-1.28075E+05-1.52391E+03 2.38266E+04 9.68726E-10-3.48496E-09
 -1       892-2.37275E+02-1.28443E+05-1.65318E+03 3.60643E+04 1.79648E-09 4.08977E-09
 -1       893-3.48128E+01-1.28123E+05-2.35781E+03 2.38315E+04-9.01309E-10-9.32232E-10
 -1       894-1.28043E+03-1.29342E+05-4.89212E+03 3.59353E+04-2.46428E-09 9.21318E-09
 -1       895-1.00291E+03-1.27103E+05-8.61994E+03 2.39541E+04 5.44105E-10 1.31922E-08
 -1       956-2.85755E+05-4.06883E+03-1.02320E+04 1.92743E+04-1.55796E-09 4.73244E-09
 -1       957-2.87775E+05-1.37550E+03-5.25264E+03 2.32115E+04-4.25644E-10-3.02816E-09
 -1       958-2.86665E+05-1.12626E+02-2.36652E+03 1.91532E+04 2.53840E-09-6.57292E-09
 -1       959-2.86825E+05-2.22177E+01-1.20875E+03 2.33435E+04-7.10770E-10-3.78793E-09
 -1       960-2.86747E+05 3.15082E+01-5.89278E+02 1.91414E+04-4.22324E-09 5.97242E-09
 -1       961-2.86757E+05 2.93428E+01-3.12591E+02 2.33569E+04-5.59203E-09 7.18524E-09
 -1       962-2.86764E+05 2.78213E+01-1.78852E+02 1.91396E+04-4.49586E-09 2.16960E-09
 -1       963-2.86754E+05 3.09056E+01-1.43417E+02 2.33593E+04-4.11535E-09 2.04000E-09
 -1       964-2.86767E+05 2.99576E+01-1.73940E+02 1.91390E+04 3.04567E-10-1.56501E-09
 -1       965-2.86765E+05 3.39587E+01-3.00436E+02 2.33593E+04 2.53578E-09-3.09456E-10
 -1       966-2.86758E+05 3.78368E+01-5.63927E+02 1.91396E+04-2.57819E-09-1.87958E-09
 -1       967-2.86838E+05-1.08709E+01-1.15659E+03 2.33515E+04-3.87558E-10 2.11787E-09
 -1       968-2.86686E+05-9.58221E+01-2.26346E+03 1.91469E+04-1.75532E-10-7.41716E-09
 -1       969-2.87755E+05-1.30178E+03-5.02552E+03 2.32673E+04 1.07048E-09 9.77934E-10
 -1       970-2.85821E+05-3.87833E+03-9.78879E+03 1.92259E+04 1.19962E-09 8.23184E-09
 -1       971-2.69475E+05-1.40876E+03-7.81625E+03 1.29215E+04-2.82580E-09-2.99551E-09
 -1       972-2.71375E+05-1.01111E+03-4.25667E+03 1.80386E+04-4.15139E-09-8.76594E-09
 -1       973-2.70345E+05-1.16012E+01-1.90613E+03 1.28139E+04-4.51109E-09 4.22801E-09
 -1       974-2.70476E+05-1.20219E+01-9.87518E+02 1.81553E+04 8.95170E-10 3.86649E-09
 -1       975-2.70412E+05 2.52017E+01-4.92655E+02 1.28039E+04 5.12500E-10 3.20142E-10
 -1       976-2.70423E+05 2.91000E+01-2.82480E+02 1.81674E+04-3.76281E-09-3.95403E-10
 -1       977-2.70426E+05 2.51467E+01-2.01896E+02 1.28016E+04-3.38082E-09 7.72184E-09
 -1       978-2.70426E+05 3.37794E+01-2.32005E+02 1.81707E+04 1.81700E-09-7.16568E-10
 -1       979-2.70425E+05 3.14898E+01-3.69098E+02 1.28006E+04 2.45223E-09-8.81550E-09
 -1       980-2.70453E+05 3.60832E+01-7.10387E+02 1.81713E+04 3.82154E-09-6.50107E-09
 -1       981-2.70403E+05 4.91823E+01-1.37465E+03 1.28010E+04 1.53364E-10-4.28258E-10
 -1       982-2.70642E+05-6.54100E+01-2.84070E+03 1.81658E+04 1.33571E-09 9.26121E-10
 -1       983-2.70230E+05-3.87266E+01-5.51913E+03 1.28063E+04 1.22418E-09 1.32500E-08
 -1       984-2.73296E+05-2.94766E+03-1.23593E+04 1.80927E+04-4.94310E-10 9.01423E-09
 -1       985-2.67731E+05-4.07725E+03-2.26957E+04 1.28786E+04 2.75531E-09 4.86216E-09
 -3
    1PSTEP                        13           7           1          
  100CL  107 5.74219E-01         409                     0    7           1
 -4  DISP        4    1
 -5  D1          1    2    1    0
 -5  D2          1    2    2    0
 -5  D3          1    2    3    0
 -5  ALL         1    2    0    0    1ALL
 -1         1 5.33185E-04 0.00000E+00 0.00000E+00
 -1         2 4.92313E-04 6.11367E-30 0.00000E+00
 -1         3 2.15187E-04-2.91525E-27-1.32349E-23
 -1         5 1.29516E-04 5.43280E-27 0.00000E+00
 -1         8 5.10358E-04-7.45177E-07 0.00000E+00
 -1         9 4.92707E-04-2.51143E-06 0.00000E+00
 -1        10 1.96703E-04-2.81335E-06 0.00000E+00
 -1        12 1.29687E-04 6.38322E-07 0.00000E+00
 -1        15 4.83078E-04-8.26031E-07 2.06795E-25
 -1        16 4.89539E-04-2.95092E-06 0.00000E+00
 -1        17 1.38819E-04-6.08348E-06 0.00000E+00
 -1        18 1.28913E-04 1.10225E-05 0.00000E+00
 -1        19 1.30201E-04 1.27340E-06 0.00000E+00
 -1        20 1.30348E-04 8.44272E-06 0.00000E+00
 -1        21 1.29679E-04 1.36162E-05-3.30872E-24
 -1        24 2.47555E-05-8.58300E-06 0.00000E+00
 -1        25 1.31288E-04 1.11773E-05 0.00000E+00
 -1        26 1.32009E-04 1.76408E-06 0.00000E+00
 -1        27 1.30255E-04 5.54185E-06 0.00000E+00
 -1        28 1.29830E-04 1.30820E-05 0.00000E+00
 -1        32 0.00000E+00 0.00000E+00 0.00000E+00
 -1        33 1.32715E-04 2.36432E-06 0.00000E+00
 -1        34 1.30973E-04 5.51172E-06 0.00000E+00
 -1        35 1.29349E-04 1.27955E-05 0.00000E+00
 -1        51 5.31706E-04-1.27982E-07 0.00000E+00
 -1        52 5.28959E-04-2.47100E-07 0.00000E+00
 -1        53 5.25193E-04-3.66355E-07 0.00000E+00
 -1        54 5.20666E-04-4.87596E-07 0.00000E+00
 -1        55 5.15634E-04-6.11944E-07-8.27181E-25
 -1        56 5.30960E-04-7.31656E-07-5.29396E-23
 -1        57 5.28583E-04-1.30161E-06-2.64698E-23
 -1        58 5.26134E-04-1.66713E-06 0.00000E+00
 -1        59 5.23596E-04-1.83508E-06 0.00000E+00
 -1        60 5.20988E-04-1.82188E-06 0.00000E+00
 -1        61 5.18322E-04-1.65934E-06 2.64698E-23
 -1        62 5.15617E-04-1.39418E-06-5.29396E-23
 -1        63 5.12892E-04-1.07944E-06-2.64698E-23
 -1        64 5.10171E-04-7.73108E-07-5.29396E-23
 -1        65 5.07475E-04-5.32753E-07-2.64698E-23
 -1        66 5.04823E-04-4.08990E-07 0.00000E+00
 -1        67 5.02234E-04-4.45585E-07 2.64698E-23
 -1        68 4.99716E-04-6.70281E-07 5.29396E-23
 -1        69 4.97286E-04-1.09601E-06 0.00000E+00
 -1        70 4.94928E-04-1.72383E-06 0.00000E+00
 -1        86 4.92332E-04-4.16002E-07 0.00000E+00
 -1        87 4.92390E-04-8.32289E-07 6.61744E-24
 -1        88 4.92472E-04-1.24862E-06 0.00000E+00
 -1        89 4.92564E-04-1.66676E-06 6.61744E-24
 -1        90 4.92648E-04-2.08428E-06-1.32349E-23
 -1       121 2.14669E-04-4.62834E-07-1.32349E-23
 -1       122 2.13116E-04-9.26706E-07 0.00000E+00
 -1       123 2.10533E-04-1.39264E-06 0.00000E+00
 -1       124 2.06929E-04-1.86170E-06 0.00000E+00
 -1       125 2.02314E-04-2.33472E-06 0.00000E+00
 -1       191 1.29521E-04 1.06391E-07 0.00000E+00
 -1       192 1.29535E-04 2.12781E-07-1.65436E-24
 -1       193 1.29559E-04 3.19171E-07 0.00000E+00
 -1       194 1.29592E-04 4.25560E-07 0.00000E+00
 -1       195 1.29635E-04 5.31944E-07 0.00000E+00
 -1       251 5.09753E-04-5.29108E-06 0.00000E+00
 -1       252 5.08903E-04-2.78630E-05 0.00000E+00
 -1       253 5.07686E-04-6.39140E-05 0.00000E+00
 -1       254 5.06132E-04-1.08565E-04 0.00000E+00
 -1       255 5.04525E-04-1.54501E-04 0.00000E+00
 -1       256 5.03167E-04-1.94378E-04 0.00000E+00
 -1       257 5.02179E-04-2.22572E-04 0.00000E+00
 -1       258 5.01513E-04-2.33744E-04 0.00000E+00
 -1       259 5.00886E-04-2.27317E-04 0.00000E+00
 -1       260 4.99998E-04-2.03151E-04-6.61744E-24
 -1       261 4.98742E-04-1.66062E-04 0.00000E+00
 -1       262 4.97178E-04-1.21178E-04-6.61744E-24
 -1       263 4.95596E-04-7.58433E-05 1.32349E-23
 -1       264 4.94291E-04-3.74101E-05 0.00000E+00
 -1       265 4.93355E-04-1.12683E-05-2.64698E-23
 -1       266 5.05811E-04-7.69300E-07 0.00000E+00
 -1       267 5.01265E-04-7.81478E-07 0.00000E+00
 -1       268 4.96718E-04-7.94412E-07 0.00000E+00
 -1       269 4.92171E-04-8.05106E-07 2.06795E-25
 -1       270 4.87624E-04-8.15746E-07 0.00000E+00
 -1       271 5.07631E-04 3.01424E-06 0.00000E+00
 -1       272 5.05131E-04 6.06066E-06 0.00000E+00
 -1       273 5.02894E-04 8.41747E-06 0.00000E+00
 -1       274 5.00904E-04 1.01012E-05 0.00000E+00
 -1       275 4.99155E-04 1.11437E-05 2.64698E-23
 -1       276 4.97632E-04 1.15841E-05 0.00000E+00
 -1       277 4.96317E-04 1.14716E-05-2.64698E-23
 -1       278 4.95187E-04 1.08632E-05-1.32349E-23
 -1       279 4.94218E-04 9.82409E-06 2.64698E-23
 -1       280 4.93384E-04 8.42569E-06 0.00000E+00
 -1       281 4.92656E-04 6.74508E-06-2.64698E-23
 -1       282 4.92003E-04 4.86368E-06 0.00000E+00
 -1       283 4.91395E-04 2.86591E-06 0.00000E+00
 -1       284 4.90801E-04 8.39231E-07-1.32349E-23
 -1       285 4.90185E-04-1.13129E-06 2.64698E-23
 -1       301 4.92144E-04-2.60227E-06-1.32349E-23
 -1       302 4.91212E-04-2.66764E-06 0.00000E+00
 -1       303 4.90198E-04-2.73144E-06 0.00000E+00
 -1       304 4.89389E-04-2.79509E-06 0.00000E+00
 -1       305 4.89075E-04-2.86027E-06 0.00000E+00
 -1       306 5.07042E-04-5.34971E-05 5.29396E-23
 -1       307 5.47834E-04-2.01632E-04-2.64698E-23
 -1       308 6.02869E-04-4.22409E-04 0.00000E+00
 -1       309 6.63487E-04-6.84084E-04 0.00000E+00
 -1       310 7.23903E-04-9.44189E-04 0.00000E+00
 -1       311 7.78190E-04-1.16040E-03-2.64698E-23
 -1       312 8.17418E-04-1.30185E-03 0.00000E+00
 -1       313 8.29185E-04-1.34517E-03 0.00000E+00
 -1       314 8.02901E-04-1.28931E-03 1.05879E-22
 -1       315 7.31490E-04-1.14233E-03 2.64698E-23
 -1       316 6.21511E-04-9.30041E-04 1.05879E-22
 -1       317 4.87071E-04-6.81471E-04 0.00000E+00
 -1       318 3.52068E-04-4.32085E-04-5.29396E-23
 -1       319 2.40534E-04-2.17353E-04 0.00000E+00
 -1       320 1.67075E-04-6.65998E-05 0.00000E+00
 -1       336 1.89983E-04-3.33514E-06 1.32349E-23
 -1       337 1.82047E-04-3.86609E-06 0.00000E+00
 -1       338 1.72924E-04-4.40654E-06-1.32349E-23
 -1       339 1.62651E-04-4.95654E-06 0.00000E+00
 -1       340 1.51267E-04-5.51817E-06 1.32349E-23
 -1       406 1.29749E-04 7.44687E-07 3.30872E-24
 -1       407 1.29820E-04 8.51019E-07-1.65436E-24
 -1       408 1.29901E-04 9.57286E-07 0.00000E+00
 -1       409 1.29992E-04 1.06336E-06 0.00000E+00
 -1       410 1.30091E-04 1.16905E-06 0.00000E+00
 -1       521 5.05878E-04-6.30089E-05 0.00000E+00
 -1       522 5.50767E-04-2.34260E-04 0.00000E+00
 -1       523 6.09906E-04-4.89019E-04 0.00000E+00
 -1       524 6.73838E-04-7.90182E-04 0.00000E+00
 -1       525 7.37548E-04-1.08902E-03-1.05879E-22
 -1       526 7.95782E-04-1.33702E-03 0.00000E+00
 -1       527 8.38555E-04-1.49837E-03 0.00000E+00
 -1       528 8.51186E-04-1.54711E-03 5.29396E-23
 -1       529 8.19723E-04-1.48174E-03-1.05879E-22
 -1       530 7.34981E-04-1.31301E-03-5.29396E-23
 -1       531 6.03755E-04-1.07020E-03-1.05879E-22
 -1       532 4.42902E-04-7.86690E-04-5.29396E-23
 -1       533 2.81137E-04-5.01956E-04 0.00000E+00
 -1       534 1.47403E-04-2.55497E-04 0.00000E+00
 -1       535 5.93670E-05-8.10540E-05 0.00000E+00
 -1       536 1.38482E-04 1.37124E-05-6.61744E-24
 -1       537 1.37807E-04 4.70993E-05 0.00000E+00
 -1       538 1.36833E-04 8.89255E-05 3.30872E-24
 -1       539 1.35726E-04 1.33994E-04 1.65436E-24
 -1       540 1.34734E-04 1.76203E-04 0.00000E+00
 -1       541 1.34069E-04 2.09467E-04 0.00000E+00
 -1       542 1.33721E-04 2.30127E-04 3.30872E-24
 -1       543 1.33569E-04 2.34601E-04 0.00000E+00
 -1       544 1.33369E-04 2.23483E-04-3.30872E-24
 -1       545 1.32903E-04 1.97468E-04-1.65436E-24
 -1       546 1.32137E-04 1.61139E-04 3.30872E-24
 -1       547 1.31158E-04 1.19138E-04-1.65436E-24
 -1       548 1.30199E-04 7.76694E-05 3.30872E-24
 -1       549 1.29488E-04 4.29319E-05 1.65436E-24
 -1       550 1.29080E-04 1.92857E-05-1.65436E-24
 -1       551 1.23335E-04-6.44013E-06 6.61744E-24
 -1       552 1.05360E-04-6.83085E-06 0.00000E+00
 -1       553 8.56971E-05-7.25007E-06 0.00000E+00
 -1       554 6.51647E-05-7.68753E-06 6.61744E-24
 -1       555 4.45800E-05-8.12869E-06 0.00000E+00
 -1       556 1.34422E-04 5.25050E-06-2.64698E-23
 -1       557 1.30954E-04 1.42189E-05 0.00000E+00
 -1       558 1.28319E-04 2.10212E-05 0.00000E+00
 -1       559 1.26431E-04 2.58733E-05 0.00000E+00
 -1       560 1.25202E-04 2.89908E-05 0.00000E+00
 -1       561 1.24547E-04 3.05909E-05 0.00000E+00
 -1       562 1.24381E-04 3.08913E-05 0.00000E+00
 -1       563 1.24622E-04 3.01102E-05 0.00000E+00
 -1       564 1.25185E-04 2.84661E-05 0.00000E+00
 -1       565 1.25990E-04 2.61776E-05 0.00000E+00
 -1       566 1.26952E-04 2.34638E-05 0.00000E+00
 -1       567 1.27992E-04 2.05438E-05 0.00000E+00
 -1       568 1.29027E-04 1.76366E-05 1.65436E-24
 -1       569 1.29975E-04 1.49611E-05 0.00000E+00
 -1       570 1.30756E-04 1.27364E-05 0.00000E+00
 -1       571 1.28991E-04 1.03980E-05-8.27181E-25
 -1       572 1.29071E-04 9.72612E-06 4.13590E-25
 -1       573 1.29151E-04 9.01692E-06-1.65436E-24
 -1       574 1.29232E-04 8.28107E-06 8.27181E-25
 -1       575 1.29313E-04 7.52927E-06-3.30872E-24
 -1       576 1.29393E-04 6.77221E-06-1.65436E-24
 -1       577 1.29474E-04 6.02064E-06-3.30872E-24
 -1       578 1.29555E-04 5.28532E-06 1.65436E-24
 -1       579 1.29635E-04 4.57696E-06-3.30872E-24
 -1       580 1.29716E-04 3.90633E-06 0.00000E+00
 -1       581 1.29797E-04 3.28417E-06 0.00000E+00
 -1       582 1.29878E-04 2.72121E-06 0.00000E+00
 -1       583 1.29959E-04 2.22816E-06 0.00000E+00
 -1       584 1.30039E-04 1.81564E-06 0.00000E+00
 -1       585 1.30120E-04 1.49417E-06 0.00000E+00
 -1       586 1.29254E-04 1.10501E-05 1.65436E-24
 -1       587 1.29570E-04 1.10770E-05 2.06795E-25
 -1       588 1.29895E-04 1.11036E-05 0.00000E+00
 -1       589 1.30266E-04 1.11297E-05 0.00000E+00
 -1       590 1.30719E-04 1.11549E-05 0.00000E+00
 -1       591 1.29106E-04 1.04524E-05 1.55096E-25
 -1       592 1.29306E-04 9.85631E-06 0.00000E+00
 -1       593 1.29514E-04 9.24025E-06-4.13590E-25
 -1       594 1.29726E-04 8.60933E-06 4.13590E-25
 -1       595 1.29942E-04 7.96880E-06 0.00000E+00
 -1       596 1.30160E-04 7.32379E-06 0.00000E+00
 -1       597 1.30377E-04 6.67949E-06 0.00000E+00
 -1       598 1.30592E-04 6.04105E-06 0.00000E+00
 -1       599 1.30803E-04 5.41361E-06 4.13590E-25
 -1       600 1.31008E-04 4.80234E-06 4.13590E-25
 -1       601 1.31205E-04 4.21239E-06-4.13590E-25
 -1       602 1.31393E-04 3.64892E-06 1.03398E-25
 -1       603 1.31568E-04 3.11708E-06 1.03398E-25
 -1       604 1.31730E-04 2.62211E-06-5.16988E-26
 -1       605 1.31877E-04 2.16912E-06 0.00000E+00
 -1       606 1.30214E-04 1.23115E-06 0.00000E+00
 -1       607 1.30224E-04 1.28308E-06-1.65436E-24
 -1       608 1.30234E-04 1.42368E-06 0.00000E+00
 -1       609 1.30243E-04 1.64670E-06 0.00000E+00
 -1       610 1.30252E-04 1.94587E-06-3.30872E-24
 -1       611 1.30261E-04 2.31485E-06 0.00000E+00
 -1       612 1.30270E-04 2.74725E-06 0.00000E+00
 -1       613 1.30279E-04 3.23672E-06 0.00000E+00
 -1       614 1.30288E-04 3.77690E-06 0.00000E+00
 -1       615 1.30296E-04 4.36140E-06 0.00000E+00
 -1       616 1.30305E-04 4.98387E-06 1.65436E-24
 -1       617 1.30314E-04 5.63793E-06-4.13590E-25
 -1       618 1.30323E-04 6.31721E-06 0.00000E+00
 -1       619 1.30331E-04 7.01535E-06 0.00000E+00
 -1       620 1.30340E-04 7.72598E-06 0.00000E+00
 -1       621 1.30372E-04 1.35539E-06 0.00000E+00
 -1       622 1.30614E-04 1.43764E-06-1.65436E-24
 -1       623 1.30914E-04 1.51985E-06 0.00000E+00
 -1       624 1.31256E-04 1.60191E-06-8.27181E-25
 -1       625 1.31625E-04 1.68380E-06 0.00000E+00
 -1       626 1.30309E-04 1.25984E-06 0.00000E+00
 -1       627 1.30389E-04 1.32168E-06 1.65436E-24
 -1       628 1.30444E-04 1.45115E-06 3.30872E-24
 -1       629 1.30477E-04 1.64005E-06-1.65436E-24
 -1       630 1.30491E-04 1.88017E-06 0.00000E+00
 -1       631 1.30488E-04 2.16326E-06 0.00000E+00
 -1       632 1.30473E-04 2.48106E-06 0.00000E+00
 -1       633 1.30447E-04 2.82533E-06 0.00000E+00
 -1       634 1.30415E-04 3.18781E-06 3.30872E-24
 -1       635 1.30379E-04 3.56026E-06 0.00000E+00
 -1       636 1.30343E-04 3.93441E-06 0.00000E+00
 -1       637 1.30309E-04 4.30203E-06-8.27181E-25
 -1       638 1.30280E-04 4.65485E-06 0.00000E+00
 -1       639 1.30260E-04 4.98462E-06-1.65436E-24
 -1       640 1.30251E-04 5.28308E-06-1.65436E-24
 -1       656 1.29852E-04 7.97082E-06 0.00000E+00
 -1       657 1.29744E-04 7.48002E-06 6.61744E-24
 -1       658 1.29884E-04 6.99063E-06-1.32349E-23
 -1       659 1.30129E-04 6.50163E-06-6.61744E-24
 -1       660 1.30309E-04 6.01112E-06-6.61744E-24
 -1       661 1.30165E-04 9.12584E-06 0.00000E+00
 -1       662 1.30011E-04 9.74034E-06 8.27181E-25
 -1       663 1.29882E-04 1.02892E-05 1.65436E-24
 -1       664 1.29776E-04 1.07766E-05 8.27181E-25
 -1       665 1.29692E-04 1.12062E-05 0.00000E+00
 -1       666 1.29629E-04 1.15817E-05 8.27181E-25
 -1       667 1.29584E-04 1.19066E-05 1.65436E-24
 -1       668 1.29557E-04 1.21844E-05 0.00000E+00
 -1       669 1.29547E-04 1.24183E-05 1.65436E-24
 -1       670 1.29551E-04 1.26115E-05-8.27181E-25
 -1       671 1.29570E-04 1.27672E-05 0.00000E+00
 -1       672 1.29602E-04 1.28882E-05 0.00000E+00
 -1       673 1.29645E-04 1.29777E-05 0.00000E+00
 -1       674 1.29699E-04 1.30380E-05 0.00000E+00
 -1       675 1.29762E-04 1.30725E-05 4.13590E-25
 -1       676 1.29705E-04 1.35266E-05 3.30872E-24
 -1       677 1.29730E-04 1.34371E-05-1.65436E-24
 -1       678 1.29755E-04 1.33477E-05 0.00000E+00
 -1       679 1.29780E-04 1.32584E-05 0.00000E+00
 -1       680 1.29805E-04 1.31693E-05 1.65436E-24
 -1       771 1.72952E-05 7.44737E-06-5.29396E-23
 -1       772 1.09464E-05 2.06016E-05 0.00000E+00
 -1       773 5.65714E-06 3.10271E-05 0.00000E+00
 -1       774 1.35643E-06 3.88863E-05 0.00000E+00
 -1       775-2.02574E-06 4.43466E-05 0.00000E+00
 -1       776-4.56228E-06 4.75840E-05 0.00000E+00
 -1       777-6.32651E-06 4.87794E-05-5.29396E-23
 -1       778-7.39344E-06 4.81204E-05 0.00000E+00
 -1       779-7.83822E-06 4.57988E-05 0.00000E+00
 -1       780-7.73739E-06 4.20122E-05 0.00000E+00
 -1       781-7.16743E-06 3.69611E-05-5.29396E-23
 -1       782-6.20589E-06 3.08508E-05-2.64698E-23
 -1       783-4.93017E-06 2.38885E-05 5.29396E-23
 -1       784-3.41852E-06 1.62845E-05 2.64698E-23
 -1       785-1.74888E-06 8.25069E-06 2.64698E-23
 -1       786 1.31329E-04 1.03835E-05 1.03398E-25
 -1       787 1.31374E-04 9.63506E-06 0.00000E+00
 -1       788 1.31418E-04 8.92449E-06 0.00000E+00
 -1       789 1.31463E-04 8.24425E-06 0.00000E+00
 -1       790 1.31509E-04 7.59001E-06 0.00000E+00
 -1       791 1.31554E-04 6.95746E-06 0.00000E+00
 -1       792 1.31599E-04 6.34456E-06 1.65436E-24
 -1       793 1.31645E-04 5.74931E-06 0.00000E+00
 -1       794 1.31690E-04 5.17155E-06 0.00000E+00
 -1       795 1.31736E-04 4.61114E-06 8.27181E-25
 -1       796 1.31781E-04 4.06978E-06 0.00000E+00
 -1       797 1.31827E-04 3.54916E-06 8.27181E-25
 -1       798 1.31872E-04 3.05316E-06 0.00000E+00
 -1       799 1.31918E-04 2.58571E-06 0.00000E+00
 -1       800 1.31963E-04 2.15370E-06-1.65436E-24
 -1       801 1.13726E-04 9.70233E-06-2.64698E-23
 -1       802 5.97327E-05 6.93356E-06-1.32349E-23
 -1       803 6.03874E-06 4.17972E-06-2.64698E-23
 -1       804-1.06152E-05 2.66485E-06-1.32349E-23
 -1       805-6.71335E-06 1.34035E-06 0.00000E+00
 -1       806 1.31492E-04 1.03297E-05-1.65436E-24
 -1       807 1.31683E-04 9.50869E-06-8.27181E-25
 -1       808 1.31862E-04 8.71779E-06 0.00000E+00
 -1       809 1.32028E-04 7.95972E-06 8.27181E-25
 -1       810 1.32181E-04 7.23714E-06-1.65436E-24
 -1       811 1.32320E-04 6.55263E-06 8.27181E-25
 -1       812 1.32443E-04 5.90877E-06 0.00000E+00
 -1       813 1.32551E-04 5.30813E-06-8.27181E-25
 -1       814 1.32641E-04 4.75325E-06 0.00000E+00
 -1       815 1.32713E-04 4.24669E-06 8.27181E-25
 -1       816 1.32766E-04 3.79101E-06 0.00000E+00
 -1       817 1.32799E-04 3.38873E-06 1.65436E-24
 -1       818 1.32811E-04 3.04241E-06-1.65436E-24
 -1       819 1.32801E-04 2.75456E-06 8.27181E-25
 -1       820 1.32769E-04 2.52771E-06 1.65436E-24
 -1       821 1.31905E-04 1.33318E-06 0.00000E+00
 -1       822 1.31795E-04 7.78954E-07-8.27181E-25
 -1       823 1.31686E-04 1.94968E-07-3.30872E-24
 -1       824 1.31575E-04-3.25039E-07 0.00000E+00
 -1       825 1.31465E-04-7.01877E-07 0.00000E+00
 -1       826 1.31354E-04-8.57049E-07-1.65436E-24
 -1       827 1.31243E-04-7.62202E-07 3.30872E-24
 -1       828 1.31132E-04-3.90222E-07 1.65436E-24
 -1       829 1.31021E-04 2.23316E-07 3.30872E-24
 -1       830 1.30910E-04 1.04164E-06 0.00000E+00
 -1       831 1.30799E-04 1.98169E-06 3.30872E-24
 -1       832 1.30688E-04 2.95974E-06-1.65436E-24
 -1       833 1.30577E-04 3.88351E-06 3.30872E-24
 -1       834 1.30468E-04 4.66096E-06-8.27181E-25
 -1       835 1.30358E-04 5.23307E-06 0.00000E+00
 -1       836 1.32295E-04 1.86394E-06 0.00000E+00
 -1       837 1.32473E-04 1.96609E-06 0.00000E+00
 -1       838 1.32573E-04 2.06808E-06 3.30872E-24
 -1       839 1.32626E-04 2.16943E-06 0.00000E+00
 -1       840 1.32663E-04 2.27061E-06 4.13590E-25
 -1       856 1.30232E-04 5.78160E-06 0.00000E+00
 -1       857 1.30206E-04 6.13906E-06 0.00000E+00
 -1       858 1.30180E-04 6.59578E-06 0.00000E+00
 -1       859 1.30153E-04 7.13325E-06 4.13590E-25
 -1       860 1.30126E-04 7.73285E-06 0.00000E+00
 -1       861 1.30100E-04 8.37591E-06 4.13590E-25
 -1       862 1.30073E-04 9.04371E-06 8.27181E-25
 -1       863 1.30046E-04 9.71753E-06 0.00000E+00
 -1       864 1.30019E-04 1.03786E-05 0.00000E+00
 -1       865 1.29992E-04 1.10082E-05-4.13590E-25
 -1       866 1.29965E-04 1.15876E-05 0.00000E+00
 -1       867 1.29938E-04 1.20982E-05 0.00000E+00
 -1       868 1.29911E-04 1.25214E-05 0.00000E+00
 -1       869 1.29884E-04 1.28386E-05-4.13590E-25
 -1       870 1.29857E-04 1.30316E-05 0.00000E+00
 -1       871 1.30250E-04 5.54028E-06 4.13590E-25
 -1       872 1.30367E-04 5.53614E-06 0.00000E+00
 -1       873 1.30552E-04 5.53152E-06 0.00000E+00
 -1       874 1.30750E-04 5.52630E-06 0.00000E+00
 -1       875 1.30909E-04 5.52054E-06-6.20385E-25
 -1       876 1.30272E-04 5.79287E-06-3.30872E-24
 -1       877 1.30270E-04 6.10121E-06-1.65436E-24
 -1       878 1.30250E-04 6.45995E-06 0.00000E+00
 -1       879 1.30213E-04 6.86270E-06 1.65436E-24
 -1       880 1.30162E-04 7.30300E-06 3.30872E-24
 -1       881 1.30099E-04 7.77446E-06-1.65436E-24
 -1       882 1.30028E-04 8.27068E-06 3.30872E-24
 -1       883 1.29949E-04 8.78528E-06 0.00000E+00
 -1       884 1.29866E-04 9.31188E-06 0.00000E+00
 -1       885 1.29780E-04 9.84410E-06-1.65436E-24
 -1       886 1.29695E-04 1.03756E-05-3.30872E-24
 -1       887 1.29613E-04 1.08999E-05 0.00000E+00
 -1       888 1.29535E-04 1.14106E-05 0.00000E+00
 -1       889 1.29464E-04 1.19013E-05 8.27181E-25
 -1       890 1.29403E-04 1.23656E-05 1.65436E-24
 -1       891 1.29876E-04 1.30340E-05 1.65436E-24
 -1       892 1.29902E-04 1.29859E-05 4.13590E-25
 -1       893 1.29885E-04 1.29378E-05 1.65436E-24
 -1       894 1.29803E-04 1.28898E-05-4.13590E-25
 -1       895 1.29631E-04 1.28419E-05 4.13590E-25
 -1       956 1.32608E-04 2.33328E-06-3.30872E-24
 -1       957 1.32499E-04 2.37028E-06-1.65436E-24
 -1       958 1.32390E-04 2.46765E-06 0.00000E+00
 -1       959 1.32281E-04 2.61726E-06 1.65436E-24
 -1       960 1.32172E-04 2.81096E-06 3.30872E-24
 -1       961 1.32063E-04 3.04060E-06 1.65436E-24
 -1       962 1.31953E-04 3.29797E-06-3.30872E-24
 -1       963 1.31844E-04 3.57489E-06 0.00000E+00
 -1       964 1.31735E-04 3.86318E-06 3.30872E-24
 -1       965 1.31626E-04 4.15462E-06 0.00000E+00
 -1       966 1.31516E-04 4.44104E-06 0.00000E+00
 -1       967 1.31407E-04 4.71424E-06 1.65436E-24
 -1       968 1.31298E-04 4.96603E-06 0.00000E+00
 -1       969 1.31189E-04 5.18826E-06-1.65436E-24
 -1       970 1.31080E-04 5.37277E-06 3.30872E-24
 -1       971 1.30873E-04 5.66482E-06 1.65436E-24
 -1       972 1.30771E-04 5.90404E-06 8.27181E-25
 -1       973 1.30669E-04 6.21989E-06-1.65436E-24
 -1       974 1.30567E-04 6.60248E-06-1.65436E-24
 -1       975 1.30465E-04 7.04196E-06 0.00000E+00
 -1       976 1.30363E-04 7.52842E-06 0.00000E+00
 -1       977 1.30261E-04 8.05195E-06 0.00000E+00
 -1       978 1.30159E-04 8.60264E-06 0.00000E+00
 -1       979 1.30057E-04 9.17057E-06 3.30872E-24
 -1       980 1.29955E-04 9.74581E-06-1.65436E-24
 -1       981 1.29852E-04 1.03184E-05 3.30872E-24
 -1       982 1.29750E-04 1.08785E-05 1.65436E-24
 -1       983 1.29649E-04 1.14162E-05 0.00000E+00
 -1       984 1.29547E-04 1.19214E-05 0.00000E+00
 -1       985 1.29446E-04 1.23844E-05 0.00000E+00
 -3
    1PSTEP                        14           7           1          
  100CL  107 5.74219E-01         409                     0    7           1
 -4  STRESS      6    1
 -5  SXX         1    4    1    1
 -5  SYY         1    4    2    2
 -5  SZZ         1    4    3    3
 -5  SXY         1    4    1    2
 -5  SYZ         1    4    2    3
 -5  SZX         1    4    3    1
 -1         1-2.94206E+06-1.18356E+06-6.35175E+05-1.37264E+06 2.61934E-10 8.54197E-09
 -1         2 1.45105E+03-1.18752E+06 4.59447E+03 2.05537E+02 4.23228E-10-6.80196E-06
 -1         3-4.84121E+02-1.31946E+06 3.16780E+02-1.07905E+03-3.41004E-10-2.16460E-08
 -1         5-1.44353E+00 3.04414E+05 7.72294E+00-7.50197E-02-9.73948E-11 8.43988E-09
 -1         8-1.03921E+06-3.59608E+05-1.11880E+05-5.12214E+05 2.01908E-10 9.81163E-09
 -1         9-5.40742E+05-8.81002E+05-1.00961E+04-7.80538E+05 1.60479E-08-3.20026E-08
 -1        10-1.33725E+03-1.37471E+06-2.33363E+03-7.29870E+03-7.77618E-09-4.15309E-09
 -1        12 1.72667E+00 3.04430E+05 2.50018E+02-5.68423E-01-3.41309E-11 7.47104E-09
 -1        15 1.76413E+03 9.69493E+02 5.70254E+03 3.46862E+00 8.18915E-10 2.59065E-07
 -1        16 1.17283E+06-9.40983E+05 1.45265E+05-1.20850E+06 1.40086E-08 1.03610E-08
 -1        17-6.49738E+03 8.70809E+04 8.24154E+04 2.05515E+05-9.45874E-10 1.49361E-08
 -1        18 2.16079E+03-4.05805E+03-2.37009E+04-8.51941E+04 8.96489E-09 2.79852E-09
 -1        19 9.81423E+04 1.12711E+05-8.12233E+02 1.91883E+04 2.01908E-11-4.76284E-09
 -1        20-5.27153E+04-4.64290E+05-1.03236E+05 2.79831E+04 2.25888E-09 7.69736E-09
 -1        21-4.13104E+01-2.56389E+05-8.15849E+02 4.42160E+00 1.73853E-05 1.31137E-08
 -1        24-5.35177E+05 8.13639E+05 2.61971E+05 4.78350E+05-7.44913E-08-2.75807E-08
 -1        25-1.02609E+05-5.77479E+05-1.15767E+05-1.83415E+05-4.41787E-10 6.59256E-09
 -1        26-3.81809E+04 7.32312E+04-1.90231E+04-3.92204E+03 1.28966E-09-1.16204E-09
 -1        27-6.71336E+04-2.52483E+05-9.37265E+04 5.69767E+04 5.37511E-09-4.71421E-10
 -1        28 1.96577E+04-7.21853E+04 1.45632E+04 2.05287E+04 1.21489E-09-4.08781E-09
 -1        32-1.39712E+06-2.20980E+06-6.27122E+04-3.83439E+05-2.87801E-08-2.19777E-09
 -1        33-1.47965E+05 7.30999E+04 2.60783E+04-3.43268E+04-2.49258E-10 2.07062E-09
 -1        34-1.86216E+05-1.92024E+04 5.03270E+02 5.95043E+04 3.77208E-10 3.39120E-09
 -1        35-2.00593E+04-2.86695E+04-1.13230E+03 4.46597E+04 1.58596E-09 3.11654E-10
 -1        51 3.00938E+04-3.03803E+05 6.90835E+04-8.66913E+05-1.30967E-10 1.21363E-08
 -1        52 1.34068E+04-2.95997E+05 4.03520E+04-1.01095E+06 7.27596E-11-3.88827E-08
 -1        53 6.56169E+03-3.10733E+05 2.74970E+04-8.63833E+05 5.31145E-10 2.63390E-09
 -1        54 1.74087E+04-3.08526E+05 3.56915E+04-1.01414E+06-1.52795E-10-4.01124E-08
 -1        55 3.48884E+04-3.20988E+05 5.86746E+04-8.63358E+05 7.78527E-10 2.62262E-08
 -1        56-5.59933E+06-6.26612E+05-4.68439E+05-2.17086E+06-2.29920E-09-1.19035E-08
 -1        57-5.82806E+06-1.01173E+06-3.16072E+05-2.10680E+06-7.85803E-10 4.65661E-10
 -1        58-5.68861E+06-7.80405E+05-1.10116E+05-2.14693E+06-2.11367E-09 3.24508E-08
 -1        59-5.72597E+06-8.29881E+05-6.57415E+04-2.13359E+06-2.65618E-09 8.55744E-09
 -1        60-5.69999E+06-8.03506E+05-2.56639E+04-2.14561E+06-3.21006E-09 2.29793E-08
 -1        61-5.71344E+06-8.02137E+05-1.45603E+04-2.13429E+06-1.55251E-09 9.11632E-09
 -1        62-5.70084E+06-8.07486E+05-6.91779E+03-2.14639E+06-4.09750E-09 4.49186E-08
 -1        63-5.71240E+06-7.98108E+05-5.59859E+03-2.13364E+06-4.09995E-09-2.45284E-08
 -1        64-5.70099E+06-8.07457E+05-6.19821E+03-2.14627E+06-4.97573E-09 1.16989E-08
 -1        65-5.71268E+06-8.01832E+05-1.24212E+04-2.13475E+06-6.86111E-09-7.88486E-09
 -1        66-5.70059E+06-8.03827E+05-2.16367E+04-2.14527E+06 2.55659E-09 1.85955E-08
 -1        67-5.72250E+06-8.25778E+05-5.52378E+04-2.13492E+06-9.80617E-09 2.17533E-08
 -1        68-5.69142E+06-7.84069E+05-9.24804E+04-2.14596E+06-2.35923E-09-5.41331E-08
 -1        69-5.80751E+06-9.79157E+05-2.65380E+05-2.11324E+06-7.38692E-09-1.49303E-08
 -1        70-5.61683E+06-6.54632E+05-3.93435E+05-2.16568E+06-1.17143E-09-3.55067E-09
 -1        86-7.20350E+02-1.18881E+06 4.96523E+03-1.02726E+02 1.11432E-08-2.96415E-04
 -1        87 4.80593E+03-1.18590E+06 1.03214E+04 3.35380E+02 4.35225E-08-5.92327E-04
 -1        88-4.03957E+03-1.19040E+06 1.58376E+04-2.32443E+02 2.49465E-08-2.97264E-04
 -1        89 3.00468E+04-1.17423E+06 4.27055E+04 4.24120E+02 9.82254E-11-2.38314E-06
 -1        90-2.59120E+04-1.20045E+06 6.03190E+04-1.91480E+02 2.00089E-10-1.77951E-08
 -1       121-6.86070E+02-1.32119E+06 3.41751E+01 5.37662E+02 8.81997E-10-2.46109E-08
 -1       122-3.65827E+02-1.31943E+06 6.58607E+02-2.15569E+03-3.04286E-09-1.07466E-08
 -1       123-7.41155E+02-1.32128E+06 7.84230E+02 1.60696E+03 2.34206E-09-1.37115E-08
 -1       124 9.12432E+02-1.31880E+06 2.68468E+03-4.56367E+03-6.21594E-09-4.05635E-10
 -1       125-1.50391E+03-1.32199E+06 3.80869E+03 2.93788E+03 3.94084E-09 3.68163E-09
 -1       191-1.77377E+00 3.04441E+05 9.44058E+00 3.76134E-02-5.74749E-11 1.98941E-08
 -1       192-2.15100E+00 3.04415E+05 1.63411E+01-3.05434E-01-5.59182E-11-6.18809E-09
 -1       193-3.65571E+00 3.04441E+05 3.05930E+01 2.68655E-01-1.21096E-10-3.91083E-10
 -1       194-4.42809E+00 3.04417E+05 6.17819E+01-7.18506E-01-6.41647E-11-3.17951E-08
 -1       195-7.27243E+00 3.04439E+05 1.21051E+02 4.52724E-01-9.08855E-11-1.89516E-09
 -1       251-1.83161E+06 1.01390E+04-1.10875E+05 5.02446E+04-8.80391E-10 2.10530E-08
 -1       252-1.52552E+06-1.29190E+04-1.33851E+04-1.97008E+05 3.12821E-09 7.22775E-09
 -1       253-1.71485E+06-1.68054E+03-2.57916E+04 1.47034E+05-2.83126E-09-2.29647E-08
 -1       254-1.67522E+06 1.37298E+04-4.62888E+03-3.01803E+05 2.19907E-09-3.29336E-08
 -1       255-1.69769E+06-3.51654E+03-6.91084E+03 1.55706E+05-1.48070E-08-8.67885E-10
 -1       256-1.55309E+06 1.44052E+04 2.64752E+04-2.28596E+05 2.72348E-09-1.06851E-08
 -1       257-1.82513E+06-1.20262E+04-3.07903E+04 7.32633E+04-3.99632E-09-6.54961E-09
 -1       258-1.39775E+06 1.13046E+04 5.72722E+04-1.50134E+04 9.74978E-09 8.92953E-09
 -1       259-1.83775E+06-1.28786E+04-3.23845E+04-5.76095E+04 1.77879E-08-4.87602E-08
 -1       260-1.52512E+06 1.46850E+04 3.47515E+04 2.08400E+05-5.98584E-09 4.55634E-09
 -1       261-1.71033E+06-5.13558E+03-3.67124E+03-1.49673E+05-3.26290E-08-3.44221E-09
 -1       262-1.67287E+06 2.05275E+04 9.73964E+03 3.02852E+05 1.90438E-08 4.39504E-08
 -1       263-1.70466E+06-6.73436E+03 5.11038E+02-1.52701E+05-6.28279E-09 8.41419E-09
 -1       264-1.53166E+06 3.24900E+04 4.55061E+04 2.19524E+05-6.20666E-08-4.65025E-08
 -1       265-1.83828E+06-2.78800E+04-1.77775E+04-6.57406E+04-2.00271E-08 9.54969E-10
 -1       266-3.19360E+04-1.49318E+04 7.49381E+04-7.42235E+01 1.25874E-09 3.33228E-07
 -1       267 3.70233E+04 1.74056E+04 5.29615E+04 8.56314E+01 2.45200E-09 5.44990E-07
 -1       268-4.96473E+03-2.46499E+03 1.96858E+04-1.09114E+01 1.87902E-09 4.62285E-07
 -1       269 5.86192E+03 2.95021E+03 1.27952E+04 1.27097E+01 1.48839E-09 3.65281E-07
 -1       270-8.79882E+02-4.84737E+02 6.17644E+03-1.72481E+00 1.19667E-09 2.89550E-07
 -1       271-2.92634E+06-3.63354E+05-2.19901E+05-1.13564E+06-1.05501E-09-1.34460E-08
 -1       272-3.01972E+06-5.10062E+05-1.41496E+05-1.11790E+06-3.20938E-10-2.06201E-08
 -1       273-2.96792E+06-4.18122E+05-5.19373E+04-1.12559E+06 5.57020E-09 1.15324E-09
 -1       274-2.97031E+06-4.43536E+05-2.90853E+04-1.13349E+06 1.14014E-08 2.25614E-08
 -1       275-2.97466E+06-4.22830E+05-1.21085E+04-1.12270E+06 8.37099E-09-3.42488E-08
 -1       276-2.96136E+06-4.38896E+05-6.39021E+03-1.13864E+06 1.44973E-09 3.02407E-08
 -1       277-2.97690E+06-4.21948E+05-3.15312E+03-1.12081E+06 4.13456E-09 5.87224E-08
 -1       278-2.95802E+06-4.40853E+05-2.18942E+03-1.14211E+06 6.59202E-09 4.34217E-08
 -1       279-2.97818E+06-4.20689E+05-2.31036E+03-1.11939E+06 4.78622E-09-2.89226E-08
 -1       280-2.95647E+06-4.43343E+05-4.11439E+03-1.14452E+06 3.56613E-09-7.54767E-09
 -1       281-2.97863E+06-4.19380E+05-7.46376E+03-1.11851E+06-5.01950E-09-1.58857E-08
 -1       282-2.95886E+06-4.49420E+05-1.78766E+04-1.14525E+06-6.13181E-09 7.41595E-08
 -1       283-2.97600E+06-4.14977E+05-3.17685E+04-1.11860E+06 3.58295E-09-8.22365E-09
 -1       284-2.98656E+06-4.92797E+05-8.66891E+04-1.13875E+06-6.02040E-09-6.11453E-08
 -1       285-2.95169E+06-3.80294E+05-1.34653E+05-1.12347E+06 9.40418E-10 4.48927E-09
 -1       301 2.34899E+04-1.82434E+05 1.74656E+05-3.46804E+05-4.36557E-11-6.31590E-08
 -1       302 2.49356E+04-1.38594E+05 1.11617E+05-5.07792E+05-2.31012E-10 2.31992E-08
 -1       303 1.04404E+03-1.65068E+05 8.00619E+04-3.46147E+05-3.87445E-10-2.84672E-09
 -1       304 2.37392E+04-1.37484E+05 1.10120E+05-5.07304E+05 4.72937E-10 1.63491E-08
 -1       305 2.15836E+04-1.80104E+05 1.71114E+05-3.47360E+05-7.27596E-12-9.62973E-09
 -1       306-9.95519E+06-1.29662E+06-1.64701E+06-2.03652E+06-2.53203E-08 5.87897E-09
 -1       307 1.81729E+05-1.88219E+06 6.19351E+05-4.78745E+06-3.24450E-07 3.95230E-08
 -1       308-7.60166E+06 2.26444E+05-2.12262E+05-2.53841E+04-8.74570E-08 8.43465E-08
 -1       309-3.73917E+06-2.09371E+06 1.73790E+05-7.44353E+06 1.54978E-07-2.45027E-08
 -1       310-7.68583E+06 1.97649E+05-1.48120E+05-6.83115E+04 5.95173E-08 3.19997E-08
 -1       311 3.89183E+05-1.88894E+06 8.92520E+05-4.58357E+06 2.02737E-07 4.89981E-08
 -1       312-9.98141E+06-1.33464E+06-1.13393E+06-2.14285E+06-5.85569E-08 9.20772E-08
 -1       313 2.17235E+06 5.19062E+05 1.55510E+06 7.67652E+05 6.05360E-09 1.24244E-07
 -1       314-8.22838E+06-3.06986E+06-1.12990E+06-4.07364E+06 1.23255E-07 4.37140E-08
 -1       315-5.24459E+06 3.69864E+06 8.83162E+05 1.61481E+06-9.00764E-08-1.08703E-08
 -1       316-4.21637E+06-3.24770E+06-1.46695E+05-3.90760E+06-3.15849E-07-1.67158E-07
 -1       317-1.04103E+07 4.56731E+06 1.61573E+05-1.43870E+04 2.77434E-07-1.95795E-07
 -1       318-4.15081E+06-3.23852E+06-2.38006E+05-3.89358E+06-2.87808E-07 1.28639E-08
 -1       319-5.45974E+06 3.74426E+06 5.68487E+05 1.56288E+06-7.53571E-08 2.63535E-08
 -1       320-8.12658E+06-3.09218E+06-1.73783E+06-4.08500E+06 6.73463E-08-1.29367E-08
 -1       336 4.70105E+02-1.43025E+06-9.08135E+03 4.32927E+03-1.51686E-08 2.21553E-09
 -1       337-3.42045E+03-1.43151E+06-1.08657E+04-1.05389E+04-2.86742E-08-1.81753E-08
 -1       338 5.48026E+02-1.43022E+06-1.54169E+04 6.15674E+03-2.02167E-08-1.21690E-08
 -1       339-1.62364E+04-1.43992E+06-3.44136E+04-1.41053E+04-3.65853E-08 7.23958E-09
 -1       340 1.08411E+04-1.42248E+06-5.36938E+04 7.85377E+03-2.45036E-08 2.44909E-08
 -1       406 2.10267E+01 3.04427E+05 4.93805E+02 1.19896E-01-1.84812E-10 2.99931E-08
 -1       407 1.73796E+02 3.04517E+05 1.04903E+03 2.54187E+00-8.01492E-11 2.88646E-08
 -1       408 5.41868E+02 3.04352E+05 2.09538E+03-2.73067E+00-3.62945E-10 7.58610E-09
 -1       409 2.26689E+03 3.05186E+05 4.71677E+03 2.72851E+01-2.39879E-10 9.01218E-09
 -1       410 6.51007E+03 3.03756E+05 9.62923E+03-2.57930E+01-3.80624E-10 2.54886E-10
 -1       521-1.21733E+07-1.76310E+06-2.23717E+06-2.28135E+06-3.61470E-08 3.67290E-08
 -1       522 6.57517E+05-2.20521E+06 7.62384E+05-6.29732E+06-2.22237E-07-6.47160E-08
 -1       523-9.18226E+06 2.39928E+05-2.71758E+05 2.06156E+05-6.60657E-09-1.63916E-07
 -1       524-4.88649E+06-2.07251E+06 2.42385E+05-9.71898E+06 2.64394E-07-2.63259E-07
 -1       525-9.31994E+06 1.87600E+05-1.98970E+05 1.40096E+05 2.63914E-07-1.90195E-07
 -1       526 1.04834E+06-2.22763E+06 1.14139E+06-5.95294E+06 9.92004E-08-6.12999E-10
 -1       527-1.22221E+07-1.84267E+06-1.56041E+06-2.45082E+06 7.66013E-08 1.47411E-08
 -1       528 3.63080E+06 7.22195E+05 1.96026E+06 1.35906E+06-1.53610E-07 1.79643E-08
 -1       529-9.94345E+06-4.09100E+06-1.55129E+06-4.93024E+06 5.18048E-09 1.92085E-09
 -1       530-6.44942E+06 5.19651E+06 1.13196E+06 2.19480E+06-1.26602E-07 2.19981E-07
 -1       531-4.86828E+06-4.22914E+06-1.86463E+05-4.73819E+06-3.49901E-07-9.19681E-09
 -1       532-1.32903E+07 6.33426E+06 2.48814E+05-4.37682E+05 1.10052E-07-2.80160E-07
 -1       533-4.76384E+06-4.21646E+06-2.70007E+05-4.71355E+06 8.73115E-09-4.25542E-07
 -1       534-6.78803E+06 5.34908E+06 8.05628E+05 2.07205E+06-9.94914E-08 3.06027E-07
 -1       535-9.80878E+06-4.18942E+06-2.19870E+06-4.94166E+06 4.54020E-09 1.87820E-07
 -1       536-4.74089E+05-2.91302E+04 2.31481E+04-2.47810E+04-5.88511E-09 2.60879E-08
 -1       537-2.75097E+05 3.08991E+04 4.94608E+04 6.09506E+04-6.00662E-08 4.47726E-08
 -1       538-3.78036E+05-1.28008E+03 1.08546E+04-3.75428E+04 5.65558E-09 6.25610E-08
 -1       539-3.39667E+05 3.32296E+03 1.32691E+04 6.97527E+04 7.35266E-08 6.81839E-08
 -1       540-4.10939E+05-4.19558E+02-4.26555E+03-3.36584E+04-8.04107E-09 6.99160E-08
 -1       541-2.13371E+05 5.48455E+03 3.37360E+04 4.40707E+04 1.57966E-08 5.11110E-08
 -1       542-5.00947E+05-6.21287E+03-2.50072E+04-1.17249E+04 1.22368E-08 2.95512E-08
 -1       543-1.41318E+05 8.15389E+03 4.69075E+04-8.36343E+03 2.16141E-09 3.39287E-09
 -1       544-4.81081E+05-4.64775E+03-2.19971E+04 1.86615E+04-1.27950E-08-2.38078E-08
 -1       545-2.58464E+05 2.06909E+03 2.14991E+04-5.56765E+04-3.81590E-09-5.42025E-08
 -1       546-3.86897E+05 2.39671E+03-4.94077E+03 3.55447E+04 1.42036E-08-4.96553E-08
 -1       547-3.49285E+05-4.02026E+03-1.96941E+03-7.17232E+04-5.85372E-08-6.20753E-08
 -1       548-3.92642E+05 3.38652E+03-1.48947E+04 3.48153E+04-6.15871E-08-5.40922E-08
 -1       549-2.50547E+05-9.85936E+03-2.11806E+03-5.23946E+04-3.35299E-08-3.59141E-08
 -1       550-4.82884E+05 5.97772E+03-6.80398E+04 1.60985E+04 3.69027E-09-3.07700E-08
 -1       551 2.46691E+04-6.71147E+05 2.06596E+04-1.06810E+06-6.33445E-08-6.35919E-09
 -1       552 5.48190E+04-6.90283E+05 3.03541E+04-1.52212E+06-4.58385E-08 3.63216E-08
 -1       553 3.99094E+04-6.94694E+05 4.56710E+04-1.06367E+06-7.53789E-08 2.27374E-08
 -1       554 8.44219E+04-6.91418E+05 9.69206E+04-1.52381E+06-4.77812E-08 8.84938E-09
 -1       555 6.89584E+04-7.14662E+05 1.72152E+05-1.06439E+06-7.67905E-08-4.76575E-09
 -1       556 1.36257E+05-2.46753E+05 6.30191E+04-2.96927E+05-1.32277E-08-5.13683E-09
 -1       557 2.31450E+05-3.23376E+05 3.38547E+04-3.76228E+05 2.19734E-09-1.74532E-09
 -1       558 1.30825E+05-2.52134E+05 1.25222E+04-2.91924E+05-7.68341E-09 3.64889E-09
 -1       559 2.15021E+05-3.30694E+05 6.71895E+03-3.85791E+05 1.05574E-08 3.15777E-09
 -1       560 1.24455E+05-2.48063E+05 2.10229E+03-2.96292E+05 7.46513E-09 4.76575E-09
 -1       561 2.06455E+05-3.27680E+05 1.38301E+03-3.91403E+05-2.35741E-09-7.21866E-09
 -1       562 1.19444E+05-2.44866E+05 1.80776E+02-2.99887E+05 2.72121E-09 1.01854E-08
 -1       563 2.00572E+05-3.25120E+05 3.37874E+02-3.95195E+05-1.20781E-09-1.34819E-08
 -1       564 1.16080E+05-2.42747E+05 4.62017E+00-3.02262E+05 6.20639E-09-3.20188E-09
 -1       565 1.97048E+05-3.23590E+05 1.30486E+02-3.97430E+05 6.49015E-09 5.13592E-09
 -1       566 1.14428E+05-2.41691E+05-7.13852E-01-3.03423E+05 5.23869E-10-2.66300E-09
 -1       567 1.95854E+05-3.23057E+05-8.42494E+01-3.98091E+05 1.39053E-08 5.76620E-09
 -1       568 1.14539E+05-2.41774E+05-4.22920E+02-3.03438E+05 1.65528E-10 2.16096E-09
 -1       569 1.96045E+05-3.22987E+05-1.05340E+03-3.96328E+05-3.88536E-09 1.96087E-08
 -1       570 1.17182E+05-2.43978E+05-2.47799E+03-3.02949E+05 3.10683E-09 6.38647E-09
 -1       571 2.30829E+05 8.48772E+03 1.24562E+04-6.17229E+04 2.71439E-09 4.62364E-09
 -1       572 2.32671E+05 3.01570E+03 6.10317E+03-6.77041E+04 3.83807E-09 1.30176E-08
 -1       573 2.31568E+05 7.81686E+02 2.71156E+03-6.15887E+04 1.76215E-09 2.19507E-09
 -1       574 2.31778E+05 3.20990E+02 1.35896E+03-6.78609E+04 1.98702E-09-1.50840E-08
 -1       575 2.31651E+05 1.16032E+02 6.40995E+02-6.15708E+04 6.77801E-10 2.26191E-09
 -1       576 2.31661E+05 1.00958E+02 3.27277E+02-6.78818E+04-5.57594E-09-1.30603E-09
 -1       577 2.31671E+05 7.59448E+01 1.62791E+02-6.15684E+04-4.11819E-09-1.21499E-08
 -1       578 2.31661E+05 8.34220E+01 9.21919E+01-6.78845E+04-3.24417E-09-6.00176E-09
 -1       579 2.31698E+05 6.50607E+01 6.19743E+01-6.15683E+04 2.61207E-09-6.00267E-11
 -1       580 2.31698E+05 6.64503E+01 6.79606E+01-6.78810E+04-1.82990E-09 4.25189E-09
 -1       581 2.31741E+05 4.63865E+01 1.02117E+02-6.15720E+04 2.18824E-09 6.03177E-09
 -1       582 2.31774E+05 6.74830E+01 2.03426E+02-6.78417E+04 4.80213E-10-2.99133E-09
 -1       583 2.31791E+05 1.08254E+02 3.93826E+02-6.16075E+04 8.98581E-10-3.39674E-09
 -1       584 2.31981E+05 4.22462E+02 8.86525E+02-6.75437E+04 9.24047E-10-1.89822E-08
 -1       585 2.31752E+05 1.19759E+03 1.80081E+03-6.18704E+04-1.03682E-10-3.56522E-09
 -1       586-2.92498E+03 7.70255E+04-3.44754E+03-2.06255E+05-2.91038E-09 2.23213E-08
 -1       587-7.61880E+02 7.66146E+04-3.13366E+01-2.27029E+05-1.34423E-09 4.69256E-08
 -1       588 7.17308E+02 7.66398E+04 3.31585E+03-2.06159E+05-1.76806E-09 2.71075E-08
 -1       589 4.34195E+03 7.84346E+04 9.16949E+03-2.26788E+05-3.05954E-09-2.82307E-09
 -1       590 1.29971E+04 7.56246E+04 1.94577E+04-2.06514E+05-1.99543E-09 2.06219E-08
 -1       591-4.76653E+04-1.20776E+04-1.62586E+04-2.25756E+04 7.41659E-09-1.38880E-09
 -1       592-4.99759E+04-1.52846E+04-8.80665E+03-2.59197E+04 6.71281E-09-1.26910E-08
 -1       593-4.92974E+04-1.08916E+04-3.66601E+03-2.37618E+04 4.63990E-09 1.22463E-09
 -1       594-4.77224E+04-1.29084E+04-1.82842E+03-2.60162E+04 1.39633E-09-1.55151E-09
 -1       595-4.94220E+04-1.08871E+04-8.39854E+02-2.38159E+04-1.02658E-08 1.50741E-09
 -1       596-4.75687E+04-1.27996E+04-4.27531E+02-2.59988E+04-6.65430E-09 8.97415E-09
 -1       597-4.94377E+04-1.08980E+04-2.34033E+02-2.38180E+04-5.43167E-10 1.58036E-09
 -1       598-4.75537E+04-1.27954E+04-1.90395E+02-2.59940E+04 1.24857E-09-6.37522E-09
 -1       599-4.94366E+04-1.08982E+04-2.46023E+02-2.38176E+04 3.47109E-09-1.18889E-08
 -1       600-4.75695E+04-1.28007E+04-4.59279E+02-2.59978E+04 4.91468E-10-2.19643E-10
 -1       601-4.94176E+04-1.08873E+04-9.07222E+02-2.38146E+04 1.12118E-09 6.36760E-10
 -1       602-4.77353E+04-1.29177E+04-1.97781E+03-2.60139E+04-3.00633E-09 3.70233E-09
 -1       603-4.92807E+04-1.08943E+04-3.96664E+03-2.37565E+04 4.60432E-10 5.45174E-09
 -1       604-5.01859E+04-1.54751E+04-9.52858E+03-2.58918E+04 3.03532E-09-1.34496E-08
 -1       605-4.75000E+04-1.21901E+04-1.75914E+04-2.24867E+04 1.12169E-09 1.22500E-08
 -1       606 2.74380E+04-1.10802E+04-1.99119E+04 2.63352E+04-1.22218E-08 3.36240E-09
 -1       607 2.40310E+04-3.59344E+03-9.91530E+03 2.95702E+04-2.14932E-08 8.46012E-09
 -1       608 2.59654E+04-6.24490E+02-4.43988E+03 2.61305E+04-1.06611E-08 7.54653E-10
 -1       609 2.55849E+04-1.84031E+02-2.24253E+03 2.98024E+04-1.81535E-09-3.36013E-09
 -1       610 2.57897E+04 4.34868E+00-1.07083E+03 2.61073E+04-2.86673E-09-3.08341E-09
 -1       611 2.57216E+04 1.42471E+01-5.39875E+02 2.98277E+04-3.91810E-09-4.86034E-09
 -1       612 2.57445E+04 2.04172E+01-2.57607E+02 2.61050E+04-3.01043E-09-7.48219E-09
 -1       613 2.57216E+04 2.24645E+01-1.16219E+02 2.98306E+04-3.65117E-09-8.60473E-09
 -1       614 2.57203E+04 1.98831E+01-2.96510E+01 2.61043E+04-5.09317E-10-1.08628E-08
 -1       615 2.57104E+04 2.75544E+01 4.32804E+01 2.98311E+04 2.39743E-09 5.09317E-11
 -1       616 2.57018E+04 2.55466E+01 1.34716E+02 2.61045E+04-4.02542E-09-3.09547E-09
 -1       617 2.57213E+04 5.94926E+01 3.09504E+02 2.98306E+04-1.47929E-09-8.79027E-10
 -1       618 2.56710E+04 1.17250E+02 6.24514E+02 2.61047E+04 2.23281E-10-8.84529E-09
 -1       619 2.59385E+04 5.44395E+02 1.40293E+03 2.98298E+04 1.84809E-09-5.90853E-09
 -1       620 2.54615E+04 1.59996E+03 2.81992E+03 2.61039E+04 3.38514E-09 2.57023E-09
 -1       621 2.77957E+02 2.35619E+05 2.53323E+03 1.76531E+04 1.44837E-10-1.04374E-08
 -1       622 3.45025E+02 2.36235E+05 2.36542E+03 2.56823E+04 2.76259E-10-1.11904E-08
 -1       623 2.77222E+01 2.35758E+05 2.99910E+03 1.75689E+04 2.75662E-10 5.23278E-09
 -1       624 1.45284E+03 2.37231E+05 5.93936E+03 2.57681E+04 2.32419E-10-8.66009E-09
 -1       625 1.45713E+03 2.34586E+05 1.04399E+04 1.75662E+04 2.36469E-10-5.09033E-09
 -1       626 2.08325E+05 5.42021E+04 4.53665E+03 1.07660E+05-3.16049E-09 4.13274E-09
 -1       627 2.05955E+05 5.57575E+04 2.18616E+03 1.11796E+05-3.26327E-09-6.85930E-09
 -1       628 2.08458E+05 5.20995E+04 9.23807E+02 1.08397E+05 6.48197E-09 1.92831E-08
 -1       629 2.05352E+05 5.51904E+04 4.52271E+02 1.12041E+05-7.89896E-10 1.62491E-08
 -1       630 2.08468E+05 5.19998E+04 2.09006E+02 1.08422E+05-6.44650E-09-1.27762E-08
 -1       631 2.05283E+05 5.51729E+04 1.11588E+02 1.12041E+05-2.76759E-09-2.83845E-09
 -1       632 2.08460E+05 5.20064E+04 7.18394E+01 1.08415E+05 8.30369E-10 9.75865E-09
 -1       633 2.05270E+05 5.51775E+04 7.76311E+01 1.12034E+05-6.69388E-10 7.77567E-09
 -1       634 2.08451E+05 5.20066E+04 1.23274E+02 1.08411E+05 1.47202E-09-5.59430E-09
 -1       635 2.05277E+05 5.51782E+04 2.48253E+02 1.12035E+05 9.63610E-10 3.26736E-09
 -1       636 2.08440E+05 5.20043E+04 5.00651E+02 1.08409E+05-2.65476E-09-5.84123E-09
 -1       637 2.05382E+05 5.52569E+04 1.10010E+03 1.12032E+05-3.78753E-09 4.92946E-10
 -1       638 2.08399E+05 5.22484E+04 2.26042E+03 1.08297E+05 6.41876E-10 4.11137E-09
 -1       639 2.06568E+05 5.69079E+04 5.34765E+03 1.11680E+05 7.64089E-10-6.37283E-09
 -1       640 2.08239E+05 5.71740E+04 1.10974E+04 1.06213E+05 1.50885E-09-4.74756E-10
 -1       656 5.46959E+04-1.39124E+06-1.32037E+05-7.61681E+02 4.36557E-10 4.85193E-09
 -1       657-7.23195E+04-1.45086E+06-1.09292E+05 7.23675E+03 9.89530E-10-1.65079E-08
 -1       658 1.73937E+04-1.40821E+06-6.71947E+04-2.29480E+03 7.10770E-10 8.92594E-09
 -1       659-7.78870E+04-1.45350E+06-1.16605E+05 8.36136E+03-1.25874E-09-1.54899E-10
 -1       660 6.02505E+04-1.38861E+06-1.44612E+05-1.88627E+03-1.51340E-09-1.87282E-09
 -1       661 1.66088E+05 1.78593E+04 1.64957E+04 6.49508E+04 1.14142E-09 1.43700E-09
 -1       662 1.74992E+05 3.04898E+04 1.11160E+04 6.17306E+04 6.71889E-10-8.79629E-09
 -1       663 1.69326E+05 2.31533E+04 3.88818E+03 6.40133E+04-4.40423E-10-5.87511E-09
 -1       664 1.71242E+05 2.42959E+04 2.32514E+03 6.28733E+04 2.30312E-09-5.26086E-11
 -1       665 1.69813E+05 2.38792E+04 9.17237E+02 6.38737E+04-1.77909E-09 6.54296E-10
 -1       666 1.70668E+05 2.34634E+04 5.35710E+02 6.30539E+04-2.13214E-09 5.65737E-09
 -1       667 1.69897E+05 2.39640E+04 2.83384E+02 6.38407E+04 3.17917E-09-1.06563E-09
 -1       668 1.70577E+05 2.33994E+04 2.86066E+02 6.31018E+04 1.62031E-09-4.13146E-09
 -1       669 1.69904E+05 2.39413E+04 3.85092E+02 6.38263E+04 2.46065E-09-8.60865E-10
 -1       670 1.70671E+05 2.36061E+04 8.36494E+02 6.31034E+04 1.25704E-09 4.75255E-09
 -1       671 1.69802E+05 2.37614E+04 1.48456E+03 6.38373E+04 6.19877E-10-2.30898E-09
 -1       672 1.71536E+05 2.50504E+04 3.79767E+03 6.28944E+04 2.73275E-11 2.47064E-09
 -1       673 1.69043E+05 2.25334E+04 6.36407E+03 6.40215E+04 1.86901E-10 1.43500E-08
 -1       674 1.77595E+05 3.52732E+04 1.81998E+04 6.11130E+04-2.43017E-09 8.48377E-09
 -1       675 1.63783E+05 1.38246E+04 2.70146E+04 6.55110E+04-1.42199E-09-6.47196E-09
 -1       676 2.11686E+01-2.56321E+05-9.83311E+02-2.21093E+00 5.53285E-10-6.38914E-09
 -1       677-2.61151E+02-2.56559E+05-1.79960E+03 4.41897E+00-2.92857E-10-1.35116E-08
 -1       678 1.74321E+02-2.56152E+05-3.18122E+03-2.20658E+00 5.91172E-11-2.61577E-09
 -1       679-3.18216E+03-2.58479E+05-7.55712E+03 4.40245E+00 7.25322E-11-1.60703E-08
 -1       680 1.89913E+03-2.54402E+05-1.21795E+04-2.16948E+00-2.93767E-10-1.09038E-08
 -1       771-2.71154E+06-5.60872E+05-8.79998E+04-1.21403E+06-2.24391E-08-2.03727E-08
 -1       772-2.66794E+06-6.18140E+05-4.60713E+04-1.27939E+06-1.35042E-08 7.18683E-09
 -1       773-2.72733E+06-5.48394E+05-2.20268E+04-1.21979E+06-8.26549E-09 7.55972E-09
 -1       774-2.65918E+06-6.08897E+05-1.01435E+04-1.29086E+06 1.75278E-08 1.86265E-09
 -1       775-2.73411E+06-5.43589E+05-6.62798E+03-1.22181E+06 6.17001E-09 1.05720E-08
 -1       776-2.66264E+06-6.08376E+05-2.64144E+03-1.29879E+06-4.01633E-09 5.18776E-09
 -1       777-2.73971E+06-5.39481E+05-2.59691E+03-1.22357E+06-3.40515E-09 2.95404E-09
 -1       778-2.66655E+06-6.08007E+05-7.96222E+02-1.30551E+06 1.83354E-09 5.65160E-09
 -1       779-2.74441E+06-5.35963E+05-1.20505E+03-1.22508E+06-6.91216E-09-3.61979E-09
 -1       780-2.67001E+06-6.07619E+05-2.32654E+02-1.31097E+06-6.79938E-09-1.01318E-09
 -1       781-2.74807E+06-5.33163E+05-4.78596E+02-1.22626E+06-1.31768E-08 4.23461E-09
 -1       782-2.67265E+06-6.07254E+05 8.17912E+01-1.31497E+06-2.19734E-08-4.64524E-09
 -1       783-2.75062E+06-5.31252E+05 1.03575E+02-1.22710E+06-6.02449E-09-2.60638E-09
 -1       784-2.67416E+06-6.06812E+05 6.75002E+02-1.31742E+06-2.25300E-08-2.04000E-09
 -1       785-2.75204E+06-5.30186E+05 1.16211E+03-1.22761E+06-2.81580E-08 5.92445E-09
 -1       786 1.26247E+05-9.05680E+03 2.09525E+04-1.34141E+02 2.14574E-09-1.07048E-09
 -1       787 1.35332E+05 1.04850E+04 1.48233E+04 2.24485E+01 4.32270E-09 8.86939E-09
 -1       788 1.29750E+05-1.41965E+03 5.42154E+03-1.07562E+02 1.52467E-09 8.62633E-09
 -1       789 1.31251E+05 1.64247E+03 3.40443E+03-2.04014E+01 2.04741E-10 1.78727E-08
 -1       790 1.30329E+05-2.21508E+02 1.38059E+03-9.12969E+01-1.70289E-09-5.05707E-09
 -1       791 1.30575E+05 2.56082E+02 8.01678E+02-4.86651E+01-3.42450E-09 9.76407E-09
 -1       792 1.30427E+05-3.42896E+01 3.48265E+02-7.92989E+01-1.42696E-09 7.09399E-09
 -1       793 1.30461E+05 3.96972E+01 1.92384E+02-7.13017E+01-1.06509E-09 1.60758E-08
 -1       794 1.30444E+05-5.25966E+00 8.76974E+01-6.86602E+01 1.18051E-09-1.40055E-09
 -1       795 1.30441E+05 6.42730E+00 4.76558E+01-9.35128E+01-1.04907E-09-7.93378E-10
 -1       796 1.30446E+05-1.03553E+00 2.34795E+01-5.70874E+01 1.38961E-09 8.41474E-09
 -1       797 1.30438E+05 3.04855E+00 1.57417E+01-1.20041E+02 6.86314E-10 1.19736E-08
 -1       798 1.30446E+05-1.88509E+00 1.20864E+01-4.21319E+01 2.50283E-10 4.85308E-09
 -1       799 1.30443E+05 1.34902E+01 2.15173E+01-1.56534E+02 2.22078E-09 3.75706E-09
 -1       800 1.30441E+05-1.14804E+01 2.71514E+01-2.05932E+01 2.06365E-10 1.11160E-08
 -1       801 7.57919E+04-4.34851E+06-4.61658E+05 2.21906E+05 3.69619E-08-1.18980E-08
 -1       802-5.30472E+04-2.55869E+06 3.94760E+04-2.09029E+05 1.00317E-07-1.63748E-08
 -1       803-2.48439E+04-4.41593E+06-2.29152E+05 2.21288E+05 4.49254E-08 2.58333E-08
 -1       804-2.47707E+04-3.14668E+06 5.12012E+04 1.71666E+05-6.88578E-09-4.27349E-10
 -1       805 3.83060E+04-3.76577E+06-5.58744E+04-1.58524E+05-3.34785E-09-1.48330E-09
 -1       806-2.53785E+05-4.79092E+04-1.84867E+04-9.91357E+04-2.18279E-11 9.49285E-09
 -1       807-2.55442E+05-4.46891E+04-9.08227E+03-1.03381E+05 9.01082E-10 6.41175E-09
 -1       808-2.54277E+05-4.12626E+04-3.85309E+03-1.02304E+05-2.68847E-09 1.37154E-08
 -1       809-2.53541E+05-4.21295E+04-1.88410E+03-1.03597E+05-7.69501E-09 1.72869E-08
 -1       810-2.54354E+05-4.10309E+04-8.63465E+02-1.02446E+05 4.06362E-09 1.48125E-08
 -1       811-2.53395E+05-4.20256E+04-4.29305E+02-1.03568E+05 8.56062E-10-4.71869E-09
 -1       812-2.54367E+05-4.10500E+04-2.16777E+02-1.02446E+05-6.54654E-09-9.55788E-09
 -1       813-2.53377E+05-4.20267E+04-1.40449E+02-1.03555E+05-8.09359E-09-5.28962E-09
 -1       814-2.54364E+05-4.10567E+04-1.38289E+02-1.02444E+05-1.85355E-09-1.08153E-08
 -1       815-2.53382E+05-4.20279E+04-2.22372E+02-1.03551E+05 3.62161E-09 5.14410E-09
 -1       816-2.54350E+05-4.10545E+04-4.20803E+02-1.02442E+05 3.05590E-10 1.50512E-08
 -1       817-2.53455E+05-4.20676E+04-9.03494E+02-1.03544E+05-5.01313E-09 1.51676E-08
 -1       818-2.54298E+05-4.11800E+04-1.84240E+03-1.02382E+05-8.14543E-09 4.77803E-09
 -1       819-2.54464E+05-4.31830E+04-4.33594E+03-1.03312E+05-9.10859E-09 2.90402E-09
 -1       820-2.53959E+05-4.44480E+04-8.82471E+03-1.00977E+05-4.82851E-09 6.50402E-10
 -1       821-3.09164E+05 1.70934E+04-3.95335E+04 4.50720E+02 4.64474E-07-1.41536E-08
 -1       822-3.26285E+05-1.97883E+04-2.79741E+04-1.12435E+03 9.33984E-07 1.04574E-08
 -1       823-3.15768E+05 2.68040E+03-1.02386E+04 4.93915E+02 4.63121E-07 1.50294E-09
 -1       824-3.18567E+05-3.10147E+03-6.44007E+03-9.55614E+02 1.63300E-09 1.67529E-08
 -1       825-3.16880E+05 4.18997E+02-2.65146E+03 2.81986E+02 1.08627E-09-5.64683E-10
 -1       826-3.17262E+05-4.93355E+02-1.59118E+03-3.74812E+02 6.76259E-12-2.40685E-08
 -1       827-3.17071E+05 7.33979E+01-8.35488E+02-8.68957E+01-1.26501E-09-1.67952E-08
 -1       828-3.17090E+05-1.50734E+02-7.28186E+02 3.50476E+02-4.22165E-09-1.70352E-09
 -1       829-3.17052E+05 7.66733E+01-8.52532E+02-4.43315E+02 7.06649E-10-4.47471E-09
 -1       830-3.17315E+05-5.14380E+02-1.65922E+03 8.86522E+02 1.44918E-09 1.81985E-08
 -1       831-3.16846E+05 4.37587E+02-2.75379E+03-6.22952E+02-2.38622E-09 6.12340E-09
 -1       832-3.18648E+05-3.23081E+03-6.71078E+03 9.86554E+02-7.71633E-10-3.96767E-09
 -1       833-3.15721E+05 2.79136E+03-1.06676E+04-5.43347E+02-1.67343E-09-4.18277E-09
 -1       834-3.26636E+05-2.06127E+04-2.91357E+04 6.01448E+02-1.64999E-09 1.80271E-08
 -1       835-3.08860E+05 1.78054E+04-4.11915E+04-2.37834E+02 5.31359E-09 4.32919E-10
 -1       836-1.06108E+03 2.92484E+05 1.77894E+04-1.62348E+04-9.28594E-10 4.92946E-09
 -1       837 3.86540E+03 2.98021E+05 1.52192E+04-3.26906E+04-6.48924E-10 8.96034E-09
 -1       838-4.10435E+02 2.94015E+05 1.57399E+04-1.61700E+04-4.17003E-10 8.67817E-09
 -1       839 1.00708E+04 3.02647E+05 3.00045E+04-3.27307E+04-3.38332E-10 4.17572E-09
 -1       840-3.06269E+03 2.87815E+05 4.79462E+04-1.61945E+04-7.42148E-10-1.50339E-09
 -1       856-7.25747E+04 7.62867E+03-2.01038E+04-4.20596E+02-8.32188E-11 3.90173E-10
 -1       857-8.08730E+04-8.95121E+03-1.38403E+04 4.86549E+03-1.99429E-09 1.73623E-09
 -1       858-7.58552E+04 1.06911E+03-5.21710E+03-4.42656E+02-1.29944E-09 1.10572E-09
 -1       859-7.71067E+04-1.24629E+03-3.14987E+03 4.90002E+03-7.88759E-10 1.21499E-08
 -1       860-7.63455E+04 1.48929E+02-1.32269E+03-4.55163E+02 1.06112E-09 1.12453E-09
 -1       861-7.65423E+04-1.67157E+02-7.33099E+02 4.91714E+03-4.01065E-09-3.11904E-09
 -1       862-7.64220E+04 1.97385E+01-3.15684E+02-4.59795E+02 1.91377E-09 1.38539E-08
 -1       863-7.64505E+04-1.25944E+01-1.39842E+02 4.91942E+03 5.55032E-09-1.07599E-08
 -1       864-7.64376E+04-2.19664E+00-1.10536E+01-4.57444E+02 4.08035E-09 1.22540E-09
 -1       865-7.64130E+04 3.98600E+01 1.18169E+02 4.90717E+03 2.68952E-09 3.23616E-09
 -1       866-7.64577E+04-3.30348E+01 2.66828E+02-4.47542E+02 2.74355E-10 4.25322E-09
 -1       867-7.62797E+04 2.75092E+02 6.75298E+02 4.88023E+03 6.94655E-10-9.82425E-10
 -1       868-7.65671E+04-2.34058E+02 1.12648E+03-4.30503E+02 8.43158E-10-4.06772E-09
 -1       869-7.54481E+04 1.94681E+03 3.00643E+03 4.83544E+03 2.31012E-10-2.66427E-08
 -1       870-7.72834E+04-1.66063E+03 4.36189E+03-4.02752E+02 1.22316E-09-1.59248E-08
 -1       871-4.66773E+03-1.20357E+04-1.54888E+04 1.03037E+05-3.03771E-10-1.02591E-09
 -1       872-1.93637E+03-1.55447E+04-6.37635E+03 1.33589E+05-5.11136E-10-9.91349E-10
 -1       873 5.30217E+01-1.38934E+04 7.42751E+02 1.02811E+05-3.30147E-10-1.93813E-09
 -1       874 2.42501E+03-1.17546E+04 8.41278E+03 1.33628E+05-5.50244E-10 1.30058E-09
 -1       875 5.52933E+03-1.58914E+04 1.87649E+04 1.03001E+05-3.63798E-10 4.61932E-09
 -1       876 2.45288E+05 4.18713E+04 1.28489E+04 9.90613E+04 5.27069E-09-5.01132E-09
 -1       877 2.46081E+05 4.46339E+04 6.86171E+03 1.02799E+05 7.86576E-09-6.10157E-09
 -1       878 2.46489E+05 4.04495E+04 2.87474E+03 1.00116E+05 1.83081E-09-7.69433E-09
 -1       879 2.44334E+05 4.28919E+04 1.43222E+03 1.02888E+05 3.05818E-09 8.14168E-10
 -1       880 2.46575E+05 4.04342E+04 6.66975E+02 1.00159E+05 3.03771E-09 1.12647E-09
 -1       881 2.44218E+05 4.28177E+04 3.55762E+02 1.02869E+05 2.01533E-09-1.30234E-09
 -1       882 2.46584E+05 4.04451E+04 2.26905E+02 1.00161E+05 1.20276E-08 7.27068E-09
 -1       883 2.44210E+05 4.28140E+04 2.42802E+02 1.02863E+05 3.89900E-09-1.82951E-09
 -1       884 2.46578E+05 4.04425E+04 3.85221E+02 1.00161E+05 1.60185E-09 7.28602E-09
 -1       885 2.44240E+05 4.28195E+04 7.73872E+02 1.02873E+05 3.10203E-09 8.94124E-09
 -1       886 2.46549E+05 4.04199E+04 1.55941E+03 1.00158E+05-9.47892E-10 6.58827E-09
 -1       887 2.44514E+05 4.29992E+04 3.40623E+03 1.02912E+05-1.02558E-08-1.13301E-08
 -1       888 2.46333E+05 4.04577E+04 6.86365E+03 1.00049E+05-1.10822E-09 6.07633E-09
 -1       889 2.48603E+05 4.72469E+04 1.63964E+04 1.02785E+05 1.39182E-09 5.67707E-09
 -1       890 2.43537E+05 4.37804E+04 3.07096E+04 9.74311E+04 6.63931E-10-2.88856E-09
 -1       891-1.30385E+02-1.37847E+05-1.65824E+03 2.48372E+04-4.53610E-10 4.65661E-10
 -1       892-2.31630E+02-1.38256E+05-1.79198E+03 3.76180E+04 1.50681E-09-1.23582E-08
 -1       893-2.03004E+01-1.37900E+05-2.54863E+03 2.48427E+04 1.41472E-09 1.94586E-09
 -1       894-1.35635E+03-1.39225E+05-5.28297E+03 3.74823E+04 3.47427E-10 1.47720E-08
 -1       895-1.06559E+03-1.36799E+05-9.30655E+03 2.49718E+04-5.47516E-10-4.91582E-09
 -1       956-3.11383E+05-4.38302E+03-1.09873E+04 2.17819E+04-1.48520E-09 1.89118E-09
 -1       957-3.13550E+05-1.49283E+03-5.64026E+03 2.62253E+04-2.75622E-09-1.43350E-08
 -1       958-3.12361E+05-1.33693E+02-2.54122E+03 2.16521E+04 3.82715E-09-6.64659E-09
 -1       959-3.12532E+05-3.86779E+01-1.29797E+03 2.63688E+04 4.80213E-10 1.14983E-08
 -1       960-3.12451E+05 2.19516E+01-6.32881E+02 2.16393E+04-5.96492E-09 3.98609E-09
 -1       961-3.12459E+05 1.73245E+01-3.35927E+02 2.63835E+04-3.38059E-09-9.88257E-09
 -1       962-3.12470E+05 1.83778E+01-1.92643E+02 2.16373E+04 3.73348E-10 2.94222E-10
 -1       963-3.12457E+05 1.91396E+01-1.55291E+02 2.63860E+04-4.18368E-11 1.19242E-08
 -1       964-3.12473E+05 2.06037E+01-1.89396E+02 2.16367E+04-1.42205E-09 1.45035E-08
 -1       965-3.12468E+05 2.20600E+01-3.28027E+02 2.63858E+04 2.76515E-10-1.49369E-08
 -1       966-3.12462E+05 2.85753E+01-6.16309E+02 2.16376E+04-8.94670E-09-1.01643E-08
 -1       967-3.12546E+05-2.78603E+01-1.26426E+03 2.63763E+04-1.96292E-08-1.26450E-08
 -1       968-3.12382E+05-1.18650E+02-2.47446E+03 2.16463E+04-9.59062E-09-1.33468E-09
 -1       969-3.13546E+05-1.44032E+03-5.49387E+03 2.62757E+04-1.98338E-09 1.10693E-08
 -1       970-3.11434E+05-4.25494E+03-1.07014E+04 2.17384E+04-1.15415E-09 8.38372E-09
 -1       971-2.90855E+05-1.50076E+03-8.27299E+03 1.36296E+04-2.36832E-09-3.52685E-09
 -1       972-2.92861E+05-1.08327E+03-4.50539E+03 1.89917E+04 2.10548E-10 9.31323E-10
 -1       973-2.91776E+05-2.16045E+01-2.01765E+03 1.35171E+04-2.56114E-09-3.19028E-09
 -1       974-2.91910E+05-2.55433E+01-1.04544E+03 1.91148E+04-1.01068E-09-5.02121E-09
 -1       975-2.91848E+05 1.76592E+01-5.21939E+02 1.35065E+04 2.36014E-10-1.12402E-09
 -1       976-2.91855E+05 1.82495E+01-2.99949E+02 1.91280E+04-2.76214E-09-5.36033E-10
 -1       977-2.91862E+05 1.78383E+01-2.15614E+02 1.35038E+04 3.49496E-09-6.46992E-10
 -1       978-2.91859E+05 2.33963E+01-2.49467E+02 1.91317E+04 5.63068E-09 5.59521E-09
 -1       979-2.91862E+05 2.47941E+01-3.98372E+02 1.35027E+04 1.23430E-09 1.15830E-08
 -1       980-2.91888E+05 2.59264E+01-7.67675E+02 1.91324E+04 3.44801E-09 1.09912E-09
 -1       981-2.91837E+05 4.39381E+01-1.48601E+03 1.35031E+04 9.08926E-10-8.09814E-09
 -1       982-2.92092E+05-8.38192E+01-3.07110E+03 1.91265E+04-2.73167E-09 1.34423E-09
 -1       983-2.91650E+05-5.11417E+01-5.96693E+03 1.35087E+04-6.19821E-10 1.40835E-08
 -1       984-2.94962E+05-3.20003E+03-1.33623E+04 1.90497E+04 4.08136E-10 1.94905E-08
 -1       985-2.88949E+05-4.41737E+03-2.45374E+04 1.35824E+04 3.25144E-10 1.56979E-09
 -3
    1PSTEP                        15           8           1          
  100CL  108 6.09375E-01         409                     0    8           1
 -4  DISP        4    1
 -5  D1          1    2    1    0
 -5  D2          1    2    2    0
 -5  D3          1    2    3    0
 -5  ALL         1    2    0    0    1ALL
 -1         1 1.34830E-03 0.00000E+00 0.00000E+00
 -1         2 3.86869E-04-5.00620E-24 0.00000E+00
 -1         3 2.70551E-04-3.34631E-28 0.00000E+00
 -1         5 1.49971E-04 2.85838E-26 0.00000E+00
 -1         8 1.33140E-03-5.94716E-07 0.00000E+00
 -1         9 1.32681E-03-9.31905E-05 0.00000E+00
 -1        10 2.46166E-04-3.16854E-06-6.61744E-24
 -1        12 1.50871E-04 7.08492E-07-8.27181E-25
 -1        15 1.31148E-03-6.43077E-07 2.06795E-25
 -1        16 1.34899E-03-9.40647E-05 0.00000E+00
 -1        17 1.70192E-04-6.98912E-06 0.00000E+00
 -1        18 1.52154E-04 2.11457E-05 0.00000E+00
 -1        19 1.53572E-04 1.41283E-06 0.00000E+00
 -1        20 1.53717E-04 4.02511E-07 0.00000E+00
 -1        21 1.52961E-04-3.49149E-06 0.00000E+00
 -1        24 2.71574E-05-1.01759E-05 0.00000E+00
 -1        25 1.58189E-04 2.13315E-05 0.00000E+00
 -1        26 1.58882E-04 1.95760E-06 0.00000E+00
 -1        27 1.56949E-04-2.76692E-06 0.00000E+00
 -1        28 1.56579E-04-4.05948E-06 0.00000E+00
 -1        32 0.00000E+00 0.00000E+00 0.00000E+00
 -1        33 1.63148E-04 2.62185E-06 0.00000E+00
 -1        34 1.61255E-04-2.80685E-06 0.00000E+00
 -1        35 1.59509E-04-4.36744E-06 0.00000E+00
 -1        51 1.34719E-03-1.09658E-07 0.00000E+00
 -1        52 1.34514E-03-2.05940E-07 0.00000E+00
 -1        53 1.34235E-03-3.00489E-07 0.00000E+00
 -1        54 1.33899E-03-3.95299E-07 0.00000E+00
 -1        55 1.33528E-03-4.91814E-07 6.61744E-24
 -1        56 1.34515E-03-6.33286E-07 0.00000E+00
 -1        57 1.34163E-03-6.00005E-07 0.00000E+00
 -1        58 1.33807E-03-4.57688E-07 1.05879E-22
 -1        59 1.33469E-03-8.25950E-07 0.00000E+00
 -1        60 1.33169E-03-2.23505E-06 0.00000E+00
 -1        61 1.32925E-03-5.14923E-06 0.00000E+00
 -1        62 1.32747E-03-9.81501E-06-1.05879E-22
 -1        63 1.32637E-03-1.63550E-05-5.29396E-23
 -1        64 1.32592E-03-2.46213E-05 0.00000E+00
 -1        65 1.32599E-03-3.43423E-05 5.29396E-23
 -1        66 1.32642E-03-4.50359E-05 0.00000E+00
 -1        67 1.32701E-03-5.61495E-05 0.00000E+00
 -1        68 1.32753E-03-6.70709E-05-1.05879E-22
 -1        69 1.32778E-03-7.71951E-05-5.29396E-23
 -1        70 1.32755E-03-8.60451E-05 0.00000E+00
 -1        86 4.45876E-04-3.01356E-06-2.64698E-23
 -1        87 6.19433E-04-1.89502E-05 0.00000E+00
 -1        88 8.51891E-04-4.59529E-05-2.64698E-23
 -1        89 1.08583E-03-7.33111E-05-1.32349E-23
 -1        90 1.26307E-03-8.98408E-05-2.64698E-23
 -1       121 2.69867E-04-5.17676E-07-1.32349E-23
 -1       122 2.67817E-04-1.03715E-06 6.61744E-24
 -1       123 2.64407E-04-1.56020E-06-1.32349E-23
 -1       124 2.59650E-04-2.08864E-06 0.00000E+00
 -1       125 2.53562E-04-2.62396E-06-1.32349E-23
 -1       191 1.49996E-04 1.18100E-07-1.65436E-24
 -1       192 1.50071E-04 2.36196E-07 8.27181E-25
 -1       193 1.50196E-04 3.54288E-07-1.65436E-24
 -1       194 1.50371E-04 4.72372E-07 8.27181E-25
 -1       195 1.50596E-04 5.90441E-07 0.00000E+00
 -1       251 1.33114E-03 2.27320E-06 0.00000E+00
 -1       252 1.33088E-03 4.19679E-06 0.00000E+00
 -1       253 1.33062E-03 4.80887E-06-6.61744E-24
 -1       254 1.33036E-03 3.75615E-06 3.30872E-24
 -1       255 1.33010E-03 9.00561E-07 6.61744E-24
 -1       256 1.32983E-03-3.87687E-06 0.00000E+00
 -1       257 1.32955E-03-1.04466E-05-6.61744E-24
 -1       258 1.32926E-03-1.86603E-05 0.00000E+00
 -1       259 1.32896E-03-2.81569E-05-6.61744E-24
 -1       260 1.32864E-03-3.85621E-05 0.00000E+00
 -1       261 1.32833E-03-4.93836E-05 0.00000E+00
 -1       262 1.32801E-03-6.01253E-05-3.30872E-24
 -1       263 1.32770E-03-7.03011E-05 0.00000E+00
 -1       264 1.32740E-03-7.94309E-05 0.00000E+00
 -1       265 1.32711E-03-8.71707E-05 0.00000E+00
 -1       266 1.32808E-03-6.11072E-07-3.30872E-24
 -1       267 1.32476E-03-6.18121E-07 0.00000E+00
 -1       268 1.32144E-03-6.25759E-07 0.00000E+00
 -1       269 1.31812E-03-6.31652E-07 0.00000E+00
 -1       270 1.31480E-03-6.37503E-07 2.06795E-25
 -1       271 1.32958E-03 1.49976E-06 0.00000E+00
 -1       272 1.32837E-03 1.87765E-06-1.32349E-23
 -1       273 1.32777E-03 6.37811E-07 2.64698E-23
 -1       274 1.32772E-03-2.11436E-06 0.00000E+00
 -1       275 1.32819E-03-6.25102E-06 0.00000E+00
 -1       276 1.32913E-03-1.16296E-05 0.00000E+00
 -1       277 1.33045E-03-1.80915E-05 0.00000E+00
 -1       278 1.33212E-03-2.54651E-05 0.00000E+00
 -1       279 1.33405E-03-3.35678E-05 0.00000E+00
 -1       280 1.33618E-03-4.22078E-05 0.00000E+00
 -1       281 1.33844E-03-5.11866E-05 0.00000E+00
 -1       282 1.34074E-03-6.03019E-05 0.00000E+00
 -1       283 1.34302E-03-6.93496E-05 0.00000E+00
 -1       284 1.34520E-03-7.81253E-05 1.32349E-23
 -1       285 1.34721E-03-8.64304E-05 0.00000E+00
 -1       301 1.33072E-03-9.33562E-05-6.61744E-24
 -1       302 1.33380E-03-9.34930E-05 3.30872E-24
 -1       303 1.33661E-03-9.36269E-05 0.00000E+00
 -1       304 1.33970E-03-9.37610E-05 0.00000E+00
 -1       305 1.34365E-03-9.38998E-05 0.00000E+00
 -1       306 1.35389E-03-1.92852E-04-1.05879E-22
 -1       307 1.41447E-03-4.71604E-04 0.00000E+00
 -1       308 1.48216E-03-8.83664E-04 1.05879E-22
 -1       309 1.54632E-03-1.36678E-03 0.00000E+00
 -1       310 1.61121E-03-1.83771E-03 0.00000E+00
 -1       311 1.67875E-03-2.21440E-03 0.00000E+00
 -1       312 1.73255E-03-2.44143E-03 1.05879E-22
 -1       313 1.74204E-03-2.48330E-03-5.29396E-23
 -1       314 1.67273E-03-2.34343E-03-1.05879E-22
 -1       315 1.50230E-03-2.04986E-03 0.00000E+00
 -1       316 1.24212E-03-1.65289E-03 0.00000E+00
 -1       317 9.26684E-04-1.20452E-03 0.00000E+00
 -1       318 6.17026E-04-7.61372E-04-1.05879E-22
 -1       319 3.72599E-04-3.80585E-04 0.00000E+00
 -1       320 2.22045E-04-1.13201E-04 1.05879E-22
 -1       336 2.37315E-04-3.76540E-06 0.00000E+00
 -1       337 2.26873E-04-4.37760E-06 6.61744E-24
 -1       338 2.14883E-04-5.00612E-06 0.00000E+00
 -1       339 2.01399E-04-5.65122E-06-6.61744E-24
 -1       340 1.86480E-04-6.31600E-06 0.00000E+00
 -1       406 1.51196E-04 8.26514E-07 0.00000E+00
 -1       407 1.51571E-04 9.44482E-07 8.27181E-25
 -1       408 1.51996E-04 1.06236E-06-1.65436E-24
 -1       409 1.52472E-04 1.18000E-06 8.27181E-25
 -1       410 1.52997E-04 1.29718E-06-3.30872E-24
 -1       521 1.37736E-03-2.02535E-04 0.00000E+00
 -1       522 1.43884E-03-5.01415E-04 5.29396E-23
 -1       523 1.50498E-03-9.42217E-04 0.00000E+00
 -1       524 1.56547E-03-1.45720E-03 5.29396E-23
 -1       525 1.62711E-03-1.95861E-03 0.00000E+00
 -1       526 1.69399E-03-2.36014E-03-5.29396E-23
 -1       527 1.74875E-03-2.60131E-03 0.00000E+00
 -1       528 1.75774E-03-2.64522E-03 0.00000E+00
 -1       529 1.68136E-03-2.49481E-03-1.05879E-22
 -1       530 1.49478E-03-2.18271E-03-5.29396E-23
 -1       531 1.20931E-03-1.76232E-03 0.00000E+00
 -1       532 8.63308E-04-1.28916E-03 0.00000E+00
 -1       533 5.23048E-04-8.20862E-04 1.05879E-22
 -1       534 2.53196E-04-4.15568E-04 0.00000E+00
 -1       535 8.63115E-05-1.28269E-04 1.05879E-22
 -1       536 1.69686E-04 1.99322E-05 0.00000E+00
 -1       537 1.68484E-04 6.66944E-05 0.00000E+00
 -1       538 1.66657E-04 1.26038E-04 3.30872E-24
 -1       539 1.64517E-04 1.90636E-04 0.00000E+00
 -1       540 1.62589E-04 2.51611E-04 3.30872E-24
 -1       541 1.61321E-04 3.00107E-04 1.65436E-24
 -1       542 1.60712E-04 3.30798E-04 0.00000E+00
 -1       543 1.60528E-04 3.38469E-04 0.00000E+00
 -1       544 1.60272E-04 3.23798E-04 3.30872E-24
 -1       545 1.59489E-04 2.87617E-04 0.00000E+00
 -1       546 1.58093E-04 2.36370E-04 0.00000E+00
 -1       547 1.56239E-04 1.76590E-04 0.00000E+00
 -1       548 1.54412E-04 1.17278E-04 0.00000E+00
 -1       549 1.53084E-04 6.74325E-05 1.65436E-24
 -1       550 1.52373E-04 3.33291E-05 1.65436E-24
 -1       551 1.50484E-04-7.43169E-06 0.00000E+00
 -1       552 1.27968E-04-7.92629E-06 0.00000E+00
 -1       553 1.03504E-04-8.46238E-06-1.13737E-23
 -1       554 7.79653E-05-9.02537E-06 3.30872E-24
 -1       555 5.22269E-05-9.59560E-06 2.64698E-23
 -1       556 1.64385E-04 7.93641E-06 0.00000E+00
 -1       557 1.59739E-04 1.99163E-05 0.00000E+00
 -1       558 1.56143E-04 2.91886E-05 0.00000E+00
 -1       559 1.53490E-04 3.60106E-05 0.00000E+00
 -1       560 1.51676E-04 4.06394E-05 0.00000E+00
 -1       561 1.50595E-04 4.33343E-05 0.00000E+00
 -1       562 1.50148E-04 4.43551E-05 2.64698E-23
 -1       563 1.50231E-04 4.39625E-05 0.00000E+00
 -1       564 1.50747E-04 4.24176E-05 0.00000E+00
 -1       565 1.51595E-04 3.99819E-05 0.00000E+00
 -1       566 1.52678E-04 3.69173E-05 0.00000E+00
 -1       567 1.53897E-04 3.34860E-05-1.65436E-24
 -1       568 1.55155E-04 2.99500E-05-1.44757E-24
 -1       569 1.56354E-04 2.65716E-05 0.00000E+00
 -1       570 1.57397E-04 2.36129E-05 0.00000E+00
 -1       571 1.52240E-04 1.98690E-05 0.00000E+00
 -1       572 1.52328E-04 1.85374E-05-4.13590E-25
 -1       573 1.52416E-04 1.71634E-05 0.00000E+00
 -1       574 1.52505E-04 1.57600E-05-8.27181E-25
 -1       575 1.52594E-04 1.43404E-05 0.00000E+00
 -1       576 1.52682E-04 1.29176E-05 1.65436E-24
 -1       577 1.52771E-04 1.15049E-05 0.00000E+00
 -1       578 1.52860E-04 1.01154E-05-1.65436E-24
 -1       579 1.52949E-04 8.76229E-06 0.00000E+00
 -1       580 1.53037E-04 7.45875E-06 6.61744E-24
 -1       581 1.53126E-04 6.21798E-06 0.00000E+00
 -1       582 1.53215E-04 5.05311E-06 0.00000E+00
 -1       583 1.53304E-04 3.97731E-06 0.00000E+00
 -1       584 1.53394E-04 3.00357E-06 6.61744E-24
 -1       585 1.53483E-04 2.14481E-06 0.00000E+00
 -1       586 1.53111E-04 2.11786E-05 1.65436E-24
 -1       587 1.54035E-04 2.12108E-05 0.00000E+00
 -1       588 1.54967E-04 2.12428E-05 8.27181E-25
 -1       589 1.55944E-04 2.12741E-05 0.00000E+00
 -1       590 1.57005E-04 2.13045E-05 0.00000E+00
 -1       591 1.52581E-04 1.99403E-05 1.03398E-25
 -1       592 1.53012E-04 1.87120E-05-2.06795E-25
 -1       593 1.53449E-04 1.74666E-05 8.27181E-25
 -1       594 1.53891E-04 1.62092E-05 0.00000E+00
 -1       595 1.54335E-04 1.49445E-05 8.27181E-25
 -1       596 1.54780E-04 1.36776E-05-4.13590E-25
 -1       597 1.55224E-04 1.24132E-05 0.00000E+00
 -1       598 1.55665E-04 1.11563E-05-4.13590E-25
 -1       599 1.56102E-04 9.91180E-06-8.27181E-25
 -1       600 1.56532E-04 8.68450E-06 0.00000E+00
 -1       601 1.56954E-04 7.47934E-06 8.27181E-25
 -1       602 1.57366E-04 6.30118E-06 0.00000E+00
 -1       603 1.57766E-04 5.15491E-06 0.00000E+00
 -1       604 1.58153E-04 4.04551E-06 2.58494E-26
 -1       605 1.58524E-04 2.97779E-06 0.00000E+00
 -1       606 1.53585E-04 8.81936E-07 0.00000E+00
 -1       607 1.53595E-04 4.40910E-07 0.00000E+00
 -1       608 1.53604E-04 8.44759E-08 0.00000E+00
 -1       609 1.53613E-04-1.93316E-07 0.00000E+00
 -1       610 1.53622E-04-3.98460E-07 0.00000E+00
 -1       611 1.53631E-04-5.37020E-07 0.00000E+00
 -1       612 1.53640E-04-6.15067E-07 0.00000E+00
 -1       613 1.53648E-04-6.38680E-07 0.00000E+00
 -1       614 1.53657E-04-6.13938E-07 0.00000E+00
 -1       615 1.53666E-04-5.46922E-07 0.00000E+00
 -1       616 1.53675E-04-4.43709E-07 0.00000E+00
 -1       617 1.53683E-04-3.10381E-07 0.00000E+00
 -1       618 1.53692E-04-1.53017E-07 0.00000E+00
 -1       619 1.53701E-04 2.23065E-08 0.00000E+00
 -1       620 1.53709E-04 2.09509E-07 4.13590E-25
 -1       621 1.54259E-04 1.50394E-06 1.65436E-24
 -1       622 1.55056E-04 1.59533E-06-1.65436E-24
 -1       623 1.55939E-04 1.68663E-06-1.65436E-24
 -1       624 1.56886E-04 1.77771E-06-1.65436E-24
 -1       625 1.57875E-04 1.86858E-06 1.65436E-24
 -1       626 1.53871E-04 9.13778E-07 0.00000E+00
 -1       627 1.54145E-04 4.84182E-07 0.00000E+00
 -1       628 1.54397E-04 1.16281E-07-3.30872E-24
 -1       629 1.54628E-04-1.98053E-07-1.65436E-24
 -1       630 1.54842E-04-4.66971E-07 0.00000E+00
 -1       631 1.55043E-04-6.98651E-07-1.65436E-24
 -1       632 1.55232E-04-9.01270E-07 0.00000E+00
 -1       633 1.55414E-04-1.08301E-06-1.65436E-24
 -1       634 1.55591E-04-1.25205E-06 0.00000E+00
 -1       635 1.55766E-04-1.41656E-06 0.00000E+00
 -1       636 1.55943E-04-1.58472E-06 3.30872E-24
 -1       637 1.56124E-04-1.76472E-06 1.65436E-24
 -1       638 1.56312E-04-1.96474E-06 0.00000E+00
 -1       639 1.56511E-04-2.19296E-06-1.65436E-24
 -1       640 1.56723E-04-2.45759E-06 1.65436E-24
 -1       656 1.53749E-04-1.12868E-07 0.00000E+00
 -1       657 1.54180E-04-6.49041E-07 6.61744E-24
 -1       658 1.54872E-04-1.18381E-06 0.00000E+00
 -1       659 1.55680E-04-1.71820E-06-6.61744E-24
 -1       660 1.56431E-04-2.25423E-06 0.00000E+00
 -1       661 1.53731E-04 5.57113E-07-8.27181E-25
 -1       662 1.53777E-04 6.33281E-07 8.27181E-25
 -1       663 1.53851E-04 6.34971E-07 0.00000E+00
 -1       664 1.53951E-04 5.67386E-07 0.00000E+00
 -1       665 1.54076E-04 4.35095E-07-1.65436E-24
 -1       666 1.54223E-04 2.42768E-07 8.27181E-25
 -1       667 1.54391E-04-5.17127E-09 0.00000E+00
 -1       668 1.54579E-04-3.04352E-07 8.27181E-25
 -1       669 1.54784E-04-6.50568E-07 0.00000E+00
 -1       670 1.55005E-04-1.03970E-06-8.27181E-25
 -1       671 1.55240E-04-1.46774E-06 1.65436E-24
 -1       672 1.55489E-04-1.93080E-06-8.27181E-25
 -1       673 1.55749E-04-2.42501E-06 0.00000E+00
 -1       674 1.56018E-04-2.94688E-06 0.00000E+00
 -1       675 1.56297E-04-3.49230E-06 4.13590E-25
 -1       676 1.53566E-04-3.58671E-06 3.30872E-24
 -1       677 1.54170E-04-3.68189E-06 1.65436E-24
 -1       678 1.54774E-04-3.77702E-06 3.30872E-24
 -1       679 1.55377E-04-3.87186E-06 0.00000E+00
 -1       680 1.55979E-04-3.96670E-06 0.00000E+00
 -1       771 1.77625E-05 1.05188E-05 0.00000E+00
 -1       772 9.81834E-06 2.75055E-05 2.64698E-23
 -1       773 3.25581E-06 4.09694E-05-5.29396E-23
 -1       774-2.01881E-06 5.11161E-05-2.64698E-23
 -1       775-6.09766E-06 5.81583E-05 0.00000E+00
 -1       776-9.07659E-06 6.23206E-05-2.64698E-23
 -1       777-1.10517E-05 6.38342E-05-5.29396E-23
 -1       778-1.21211E-05 6.29403E-05 0.00000E+00
 -1       779-1.23828E-05 5.98858E-05 0.00000E+00
 -1       780-1.19365E-05 5.49254E-05 2.64698E-23
 -1       781-1.08815E-05 4.83186E-05-5.29396E-23
 -1       782-9.31850E-06 4.03310E-05 2.64698E-23
 -1       783-7.34770E-06 3.12313E-05 5.29396E-23
 -1       784-5.07034E-06 2.12926E-05 2.64698E-23
 -1       785-2.58712E-06 1.07899E-05 0.00000E+00
 -1       786 1.58228E-04 1.99037E-05 0.00000E+00
 -1       787 1.58271E-04 1.85239E-05-4.13590E-25
 -1       788 1.58314E-04 1.71840E-05 8.27181E-25
 -1       789 1.58357E-04 1.58763E-05-8.27181E-25
 -1       790 1.58400E-04 1.45961E-05 0.00000E+00
 -1       791 1.58444E-04 1.33391E-05 8.27181E-25
 -1       792 1.58487E-04 1.21029E-05 1.65436E-24
 -1       793 1.58531E-04 1.08856E-05 0.00000E+00
 -1       794 1.58575E-04 9.68672E-06 0.00000E+00
 -1       795 1.58618E-04 8.50619E-06 0.00000E+00
 -1       796 1.58662E-04 7.34563E-06 0.00000E+00
 -1       797 1.58706E-04 6.20671E-06-8.27181E-25
 -1       798 1.58750E-04 5.09332E-06 0.00000E+00
 -1       799 1.58794E-04 4.00940E-06 8.27181E-25
 -1       800 1.58837E-04 2.96183E-06 0.00000E+00
 -1       801 1.25147E-04 1.89530E-05 2.64698E-23
 -1       802 2.47819E-05 1.22367E-05 0.00000E+00
 -1       803-6.33852E-05 6.45424E-06-5.29396E-23
 -1       804-6.08727E-05 4.38569E-06 0.00000E+00
 -1       805-2.08792E-05 1.92486E-06-5.29396E-23
 -1       806 1.58622E-04 1.98440E-05 1.65436E-24
 -1       807 1.59041E-04 1.83834E-05-8.27181E-25
 -1       808 1.59448E-04 1.69538E-05 3.30872E-24
 -1       809 1.59842E-04 1.55586E-05 1.65436E-24
 -1       810 1.60222E-04 1.42009E-05 0.00000E+00
 -1       811 1.60587E-04 1.28838E-05 8.27181E-25
 -1       812 1.60935E-04 1.16103E-05 1.65436E-24
 -1       813 1.61266E-04 1.03837E-05-1.65436E-24
 -1       814 1.61578E-04 9.20691E-06-1.65436E-24
 -1       815 1.61870E-04 8.08303E-06 8.27181E-25
 -1       816 1.62141E-04 7.01513E-06 3.30872E-24
 -1       817 1.62391E-04 6.00626E-06 0.00000E+00
 -1       818 1.62617E-04 5.05947E-06 0.00000E+00
 -1       819 1.62819E-04 4.17780E-06 0.00000E+00
 -1       820 1.62996E-04 3.36427E-06-1.65436E-24
 -1       821 1.58767E-04 8.31421E-07 0.00000E+00
 -1       822 1.58646E-04-5.79625E-07-1.65436E-24
 -1       823 1.58524E-04-2.12132E-06 0.00000E+00
 -1       824 1.58402E-04-3.63869E-06 1.65436E-24
 -1       825 1.58279E-04-4.98294E-06 3.30872E-24
 -1       826 1.58157E-04-6.00619E-06 0.00000E+00
 -1       827 1.58035E-04-6.63981E-06 0.00000E+00
 -1       828 1.57913E-04-6.81733E-06 0.00000E+00
 -1       829 1.57791E-04-6.58487E-06-3.30872E-24
 -1       830 1.57669E-04-5.99078E-06 0.00000E+00
 -1       831 1.57547E-04-5.17270E-06 0.00000E+00
 -1       832 1.57425E-04-4.26950E-06 1.65436E-24
 -1       833 1.57304E-04-3.44110E-06 0.00000E+00
 -1       834 1.57183E-04-2.84696E-06 1.65436E-24
 -1       835 1.57063E-04-2.58892E-06 8.27181E-25
 -1       836 1.59779E-04 2.06795E-06 0.00000E+00
 -1       837 1.60561E-04 2.18094E-06 1.65436E-24
 -1       838 1.61258E-04 2.29381E-06 0.00000E+00
 -1       839 1.61902E-04 2.40600E-06-8.27181E-25
 -1       840 1.62521E-04 2.51803E-06 0.00000E+00
 -1       856 1.56930E-04-3.09674E-06 0.00000E+00
 -1       857 1.56907E-04-3.30177E-06 0.00000E+00
 -1       858 1.56884E-04-3.40146E-06-4.13590E-25
 -1       859 1.56861E-04-3.41536E-06 2.06795E-25
 -1       860 1.56838E-04-3.36312E-06 8.27181E-25
 -1       861 1.56815E-04-3.26440E-06 0.00000E+00
 -1       862 1.56791E-04-3.13895E-06-8.27181E-25
 -1       863 1.56768E-04-3.00651E-06 4.13590E-25
 -1       864 1.56744E-04-2.88683E-06 0.00000E+00
 -1       865 1.56721E-04-2.79967E-06 0.00000E+00
 -1       866 1.56698E-04-2.76474E-06 0.00000E+00
 -1       867 1.56674E-04-2.80171E-06 0.00000E+00
 -1       868 1.56651E-04-2.93019E-06-8.27181E-25
 -1       869 1.56627E-04-3.16972E-06 4.13590E-25
 -1       870 1.56603E-04-3.53970E-06-8.27181E-25
 -1       871 1.57536E-04-2.76972E-06 0.00000E+00
 -1       872 1.58254E-04-2.77542E-06 0.00000E+00
 -1       873 1.59046E-04-2.78170E-06 0.00000E+00
 -1       874 1.59849E-04-2.78864E-06-1.03398E-25
 -1       875 1.60605E-04-2.79614E-06-1.24077E-24
 -1       876 1.57188E-04-3.08402E-06 0.00000E+00
 -1       877 1.57407E-04-3.34003E-06-1.65436E-24
 -1       878 1.57606E-04-3.54228E-06-3.30872E-24
 -1       879 1.57788E-04-3.69756E-06 1.65436E-24
 -1       880 1.57954E-04-3.81269E-06 0.00000E+00
 -1       881 1.58108E-04-3.89446E-06 1.65436E-24
 -1       882 1.58252E-04-3.94964E-06-3.30872E-24
 -1       883 1.58389E-04-3.98499E-06 0.00000E+00
 -1       884 1.58521E-04-4.00726E-06-3.30872E-24
 -1       885 1.58650E-04-4.02321E-06-1.65436E-24
 -1       886 1.58780E-04-4.03960E-06 0.00000E+00
 -1       887 1.58912E-04-4.06319E-06 1.65436E-24
 -1       888 1.59049E-04-4.10077E-06 3.30872E-24
 -1       889 1.59194E-04-4.15922E-06 0.00000E+00
 -1       890 1.59348E-04-4.24528E-06-1.65436E-24
 -1       891 1.57200E-04-4.11113E-06-1.65436E-24
 -1       892 1.57799E-04-4.16294E-06-8.27181E-25
 -1       893 1.58353E-04-4.21468E-06 0.00000E+00
 -1       894 1.58839E-04-4.26624E-06 8.27181E-25
 -1       895 1.59232E-04-4.31764E-06-4.13590E-25
 -1       956 1.63031E-04 2.02901E-06 1.65436E-24
 -1       957 1.62913E-04 1.51393E-06 8.27181E-25
 -1       958 1.62795E-04 1.06763E-06-1.65436E-24
 -1       959 1.62676E-04 6.80661E-07 0.00000E+00
 -1       960 1.62557E-04 3.43510E-07 0.00000E+00
 -1       961 1.62439E-04 4.66447E-08 0.00000E+00
 -1       962 1.62320E-04-2.19477E-07 0.00000E+00
 -1       963 1.62201E-04-4.64412E-07 0.00000E+00
 -1       964 1.62083E-04-6.97713E-07 0.00000E+00
 -1       965 1.61964E-04-9.28934E-07 0.00000E+00
 -1       966 1.61845E-04-1.16764E-06 3.30872E-24
 -1       967 1.61726E-04-1.42337E-06 0.00000E+00
 -1       968 1.61608E-04-1.70568E-06 3.30872E-24
 -1       969 1.61489E-04-2.02409E-06 0.00000E+00
 -1       970 1.61371E-04-2.38811E-06 0.00000E+00
 -1       971 1.61147E-04-3.21753E-06-1.65436E-24
 -1       972 1.61037E-04-3.53895E-06 1.65436E-24
 -1       973 1.60928E-04-3.78093E-06 3.30872E-24
 -1       974 1.60818E-04-3.95372E-06 0.00000E+00
 -1       975 1.60708E-04-4.06754E-06-3.30872E-24
 -1       976 1.60599E-04-4.13267E-06 1.65436E-24
 -1       977 1.60489E-04-4.15937E-06 3.30872E-24
 -1       978 1.60379E-04-4.15792E-06 0.00000E+00
 -1       979 1.60270E-04-4.13862E-06 0.00000E+00
 -1       980 1.60160E-04-4.11175E-06 0.00000E+00
 -1       981 1.60050E-04-4.08761E-06 3.30872E-24
 -1       982 1.59940E-04-4.07647E-06 1.65436E-24
 -1       983 1.59831E-04-4.08865E-06 0.00000E+00
 -1       984 1.59722E-04-4.13439E-06 0.00000E+00
 -1       985 1.59613E-04-4.22398E-06 0.00000E+00
 -3
    1PSTEP                        16           8           1          
  100CL  108 6.09375E-01         409                     0    8           1
 -4  STRESS      6    1
 -5  SXX         1    4    1    1
 -5  SYY         1    4    2    2
 -5  SZZ         1    4    3    3
 -5  SXY         1    4    1    2
 -5  SYZ         1    4    2    3
 -5  SZX         1    4    3    1
 -1         1-4.03228E+06-1.49169E+06-8.75094E+05-1.49054E+06 1.09139E-09-1.01863E-07
 -1         2 6.35767E+05 1.05731E+07 2.55539E+06 2.44957E+06 1.11133E-07-1.45446E-08
 -1         3-8.56895E+02-1.47356E+06 3.61129E+02-1.59196E+03-4.21132E-10-2.43926E-08
 -1         5-1.85487E+01 3.37991E+05 8.67567E+00-5.01104E-01-2.20059E-10 2.43263E-08
 -1         8-7.27010E+05-2.67145E+05-6.73881E+04-3.76398E+05-2.18279E-11-8.81846E-08
 -1         9 4.40404E+06 1.71621E+06 1.28061E+06-4.09678E+05 2.84577E-08 6.31437E-08
 -1        10-1.75045E+03-1.53539E+06-3.13559E+03-1.07648E+04-1.06666E-08-1.42620E-08
 -1        12-1.50199E+01 3.38010E+05 2.82012E+02-3.60719E+00-3.71585E-10-5.04451E-09
 -1        15 1.37466E+03 7.55448E+02 4.44356E+03 1.97379E+00-4.29665E-10 5.34639E-08
 -1        16 9.73462E+06-4.54190E+05 1.38490E+06-1.20028E+06 6.92671E-09 5.98375E-08
 -1        17 3.44661E+06 2.24068E+06 9.36066E+05 2.29012E+06 6.23986E-09 2.77418E-08
 -1        18 6.39625E+04 1.24607E+04-1.12447E+04-9.98894E+04 1.22204E-08 5.08680E-09
 -1        19 1.08137E+05 1.24542E+05-8.67244E+02 2.03058E+04 7.11589E-10-1.33314E-08
 -1        20-6.52245E+04-5.09290E+05-1.13756E+05 2.65723E+04 1.23691E-10-1.88811E-09
 -1        21-4.32234E+01-2.72086E+05-8.57933E+02 1.12889E+02-5.37336E-07 1.11019E-08
 -1        24 5.46974E+06 4.74953E+06 1.68301E+06 4.33950E+06-1.14364E-07-4.61781E-08
 -1        25-4.51165E+03-2.08273E+05-2.18479E+04-3.77354E+05-1.38234E-09 1.01645E-08
 -1        26-4.64539E+04 8.07655E+04-2.15840E+04-1.41656E+03 8.20728E-10 2.52725E-09
 -1        27-7.09136E+04-2.76174E+05-1.01839E+05 6.17995E+04 4.42439E-09 5.19746E-09
 -1        28 2.06771E+04-7.74853E+04 1.54943E+04 2.04260E+04-1.29288E-09-4.67287E-09
 -1        32-1.53632E+06-2.70546E+06-1.42224E+05-1.49465E+04-3.30074E-08-9.57255E-09
 -1        33-1.60480E+05 8.12739E+04 2.86628E+04-3.57679E+04-1.41813E-09-2.66300E-09
 -1        34-2.01419E+05-2.16152E+04 5.82708E+02 6.61862E+04-1.82365E-09 5.03405E-09
 -1        35-2.11930E+04-3.07502E+04-1.21957E+03 4.73696E+04-6.23298E-10 3.91325E-09
 -1        51 4.45248E+04-2.49974E+05 9.66122E+04-6.54762E+05 4.36557E-11 1.23167E-07
 -1        52 1.65073E+04-2.34939E+05 5.27456E+04-7.63556E+05 3.34694E-10 5.85860E-08
 -1        53 5.10160E+03-2.49339E+05 3.08063E+04-6.52453E+05 6.11180E-10-5.07061E-08
 -1        54 1.18885E+04-2.45849E+05 3.19968E+04-7.65907E+05 1.30967E-10 7.61429E-09
 -1        55 2.50263E+04-2.55464E+05 4.67564E+04-6.52185E+05 4.07454E-10 1.24346E-08
 -1        56-7.55920E+06-8.54133E+05-6.46590E+05-2.95094E+06-1.86265E-09-1.67260E-07
 -1        57-7.98891E+06-1.27257E+06-4.36423E+05-2.73206E+06 2.30830E-09-1.06476E-07
 -1        58-7.68374E+06-1.06533E+06-1.51861E+05-2.91616E+06 1.66074E-08 1.08936E-07
 -1        59-7.82809E+06-1.03975E+06-9.04943E+04-2.78969E+06-1.91874E-08-5.68980E-09
 -1        60-7.71710E+06-1.08051E+06-3.56728E+04-2.89484E+06-1.42572E-08-4.24807E-08
 -1        61-7.76583E+06-1.04437E+06-1.96527E+04-2.83898E+06 1.49739E-08-2.75936E-08
 -1        62-7.74438E+06-1.06053E+06-1.01067E+04-2.86625E+06-3.00952E-09-7.59555E-08
 -1        63-7.71521E+06-1.08807E+06-7.45891E+03-2.89549E+06 2.00089E-10 1.97178E-09
 -1        64-7.76767E+06-1.03668E+06-9.18695E+03-2.83838E+06-1.09703E-08-1.58427E-07
 -1        65-7.68281E+06-1.12839E+06-1.78330E+04-2.93944E+06 6.03677E-09-1.48042E-07
 -1        66-7.77798E+06-1.01954E+06-3.14234E+04-2.82310E+06 8.75298E-09 2.12058E-08
 -1        67-7.69207E+06-1.16937E+06-8.03719E+04-2.94759E+06-2.91552E-08 3.46990E-08
 -1        68-7.75938E+06-9.96175E+05-1.34707E+05-2.83043E+06 8.27094E-09-8.11560E-08
 -1        69-7.84011E+06-1.36779E+06-3.86671E+05-2.88518E+06-6.54836E-09-1.13501E-07
 -1        70-7.63118E+06-8.27822E+05-5.73743E+05-2.88318E+06 8.45466E-09-2.31317E-07
 -1        86-5.30274E+05-8.22742E+06-1.32539E+06-1.18668E+06-7.58519E-10-4.18950E-08
 -1        87 6.06180E+05 3.37338E+06 1.16075E+06 2.31626E+06-6.30462E-09 1.17006E-08
 -1        88 3.41940E+04-1.54720E+06 1.03589E+05-1.11441E+06 8.16459E-08-5.24062E-09
 -1        89 9.92723E+05 3.38177E+06 1.24247E+06 2.37230E+06-6.62221E-08-2.05700E-08
 -1        90-9.03541E+05-8.24702E+06-1.39715E+06-1.24547E+06 8.24321E-08 1.88520E-08
 -1       121-1.19005E+03-1.47648E+06-1.69066E+02 7.91702E+02 1.12608E-09-2.47892E-08
 -1       122-7.08635E+02-1.47356E+06 7.25003E+02-3.18217E+03-4.00011E-09-3.21052E-09
 -1       123-1.23557E+03-1.47659E+06 6.31931E+02 2.36500E+03 3.37002E-09 1.04046E-09
 -1       124 7.62838E+02-1.47296E+06 2.89265E+03-6.68513E+03-7.62384E-09-6.83394E-09
 -1       125-2.05446E+03-1.47740E+06 3.83895E+03 4.27533E+03 5.26234E-09-1.58725E-08
 -1       191-1.97550E+01 3.38018E+05 9.74863E+00 2.54219E-01-2.59960E-10 3.67891E-09
 -1       192-1.93538E+01 3.37992E+05 1.83987E+01-1.81284E+00-3.80592E-10-1.01732E-08
 -1       193-2.18914E+01 3.38017E+05 3.36118E+01 1.58195E+00-6.00103E-10 2.03008E-08
 -1       194-2.19428E+01 3.37995E+05 6.96634E+01-4.19123E+00-3.66995E-10 2.99906E-08
 -1       195-2.59955E+01 3.38015E+05 1.35657E+02 2.66309E+00-8.03677E-10-1.96087E-09
 -1       251-7.38544E+05 3.00191E+03-7.21743E+03-7.05560E+03 1.43268E-09-1.16516E-07
 -1       252-7.39426E+05-3.45392E+03-4.67552E+03 1.79387E+04 4.00814E-09 6.85764E-08
 -1       253-7.40617E+05 4.08145E+02-2.09045E+03-2.91128E+03-3.56397E-09-1.68498E-08
 -1       254-7.36575E+05-4.88617E+02-4.77528E+02 8.10131E+03 9.06414E-09-1.26948E-07
 -1       255-7.41229E+05-4.27506E+01-7.18717E+02 2.78056E+03-2.69722E-09 1.98337E-08
 -1       256-7.36459E+05 7.04900E+01 5.87068E+02-3.24848E+03-5.23488E-09 7.13002E-08
 -1       257-7.40755E+05-1.65015E+02 9.36496E+01 8.43776E+03 3.82011E-09 5.98460E-08
 -1       258-7.37962E+05 4.54730E+02 1.30760E+03-1.29439E+04-2.52658E-09 2.15337E-10
 -1       259-7.39891E+05-3.33782E+02 1.81695E+03 1.24773E+04 7.34190E-10 1.10898E-08
 -1       260-7.38844E+05 1.73797E+03 4.44255E+03-1.82861E+04 3.05477E-10-1.45493E-07
 -1       261-7.39994E+05-1.32540E+03 7.62418E+03 1.37822E+04 4.86662E-09-1.48614E-07
 -1       262-7.34996E+05 9.24036E+03 1.87923E+04-1.77885E+04 4.05250E-09-1.58243E-08
 -1       263-7.43697E+05-7.80473E+03 2.98209E+04 1.19800E+04-8.96847E-09 9.18044E-08
 -1       264-7.10850E+05 5.75402E+04 8.19719E+04-1.15578E+04 1.28774E-08 5.64851E-08
 -1       265-7.63951E+05-4.95915E+04 1.15366E+05 7.54972E+03 9.07085E-09 1.66365E-07
 -1       266-2.48858E+04-1.16365E+04 5.83894E+04-4.22333E+01 5.82077E-11 2.13084E-08
 -1       267 2.88496E+04 1.35627E+04 4.12687E+04 4.87285E+01 1.39607E-10-1.56909E-08
 -1       268-3.86868E+03-1.92085E+03 1.53394E+04-6.20888E+00-7.54881E-11-9.27809E-08
 -1       269 4.56777E+03 2.29885E+03 9.97034E+03 7.23240E+00-1.03796E-10 3.45343E-08
 -1       270-6.85629E+02-3.77720E+02 4.81283E+03-9.81488E-01 7.32143E-11 1.27657E-07
 -1       271-2.31348E+06-2.87502E+05-1.75248E+05-8.97011E+05 1.60981E-10 4.75557E-08
 -1       272-2.36109E+06-4.26544E+05-1.12126E+05-9.09048E+05 2.26519E-08-1.22182E-08
 -1       273-2.34867E+06-3.28480E+05-4.16568E+04-8.86614E+05-1.79843E-08 2.26719E-08
 -1       274-2.31911E+06-3.77469E+05-2.29346E+04-9.26495E+05 1.10604E-08 5.47443E-08
 -1       275-2.35572E+06-3.30300E+05-9.86125E+03-8.82465E+05-1.52268E-08 1.33190E-07
 -1       276-2.31024E+06-3.76402E+05-4.95564E+03-9.34542E+05 5.31418E-09-6.00903E-08
 -1       277-2.35870E+06-3.28203E+05-2.58597E+03-8.79650E+05 5.12227E-09 2.99742E-08
 -1       278-2.30665E+06-3.79572E+05-1.60655E+03-9.39980E+05 1.36624E-08 1.39645E-07
 -1       279-2.36038E+06-3.26401E+05-1.69273E+03-8.77799E+05 2.92857E-10-1.65232E-08
 -1       280-2.30516E+06-3.82124E+05-2.86745E+03-9.43138E+05 6.24459E-09-9.78059E-08
 -1       281-2.36090E+06-3.25230E+05-5.17876E+03-8.76972E+05 1.47534E-08-1.70264E-07
 -1       282-2.30710E+06-3.86112E+05-1.23934E+04-9.43495E+05-2.48785E-08-1.45770E-07
 -1       283-2.35868E+06-3.22598E+05-2.20428E+04-8.77469E+05 8.25156E-09-5.01022E-08
 -1       284-2.32727E+06-4.14879E+05-6.00656E+04-9.37213E+05-6.26346E-09 5.19876E-08
 -1       285-2.34085E+06-2.99685E+05-9.34612E+04-8.81931E+05-4.29418E-09 5.60576E-08
 -1       301 1.71566E+04-3.67343E+05 1.70542E+05-6.76494E+05 2.08092E-09 1.11599E-07
 -1       302 1.82075E+04-3.23832E+05 1.06005E+05-9.89304E+05-2.14277E-09 2.48601E-08
 -1       303-3.60676E+03-3.51898E+05 6.96371E+04-6.74886E+05-1.72440E-09 1.28275E-08
 -1       304 1.03663E+04-3.25042E+05 8.70241E+04-9.88591E+05 1.01936E-08 1.42900E-08
 -1       305 7.10005E+03-3.56792E+05 1.27902E+05-6.77144E+05 3.31056E-10-8.18764E-08
 -1       306-1.81143E+07-3.29860E+06-4.40820E+06-1.78705E+06-5.31436E-08 9.47912E-08
 -1       307 1.11881E+07-5.37474E+05 2.62820E+06-8.40538E+06-5.46846E-07 6.75282E-08
 -1       308-8.04591E+06 1.41962E+05-3.65565E+05 2.46386E+06-9.66829E-08 3.78699E-07
 -1       309-3.03018E+06 8.57171E+05 8.69165E+05-1.34611E+07 1.91401E-07 3.31183E-08
 -1       310-9.44866E+06-1.04590E+05-6.89720E+05 2.20609E+06-4.28699E-08 1.05720E-08
 -1       311 1.44382E+07-1.29420E+06 3.26735E+06-6.26501E+06 2.48896E-07-9.34378E-08
 -1       312-1.85200E+07-3.44694E+06-3.95944E+06-3.04055E+06 2.12051E-07 1.07088E-07
 -1       313 2.05588E+07 4.94656E+06 5.19630E+06 9.05230E+06-1.01572E-08 1.06986E-07
 -1       314-1.27152E+07-8.17340E+06-3.67163E+06-7.51835E+06 4.19677E-07-2.86382E-08
 -1       315-2.60807E+06 1.29819E+07 2.83651E+06 6.53779E+06-2.63288E-07-1.88302E-08
 -1       316-1.70769E+06-6.38637E+06-3.12307E+05-4.25448E+06-6.91929E-07-2.91926E-07
 -1       317-1.46399E+07 1.24009E+07 8.45864E+05-1.71116E+06 5.53526E-07-5.07938E-07
 -1       318-2.47721E+06-6.82383E+06-7.60377E+05-4.59017E+06-5.49568E-07 1.48430E-09
 -1       319 2.87828E+04 1.33235E+07 2.98482E+06 7.54401E+06-5.89716E-08 1.66780E-07
 -1       320-1.40945E+07-8.39049E+06-4.82055E+06-7.38522E+06 1.11118E-07-3.63798E-11
 -1       336 8.61267E+01-1.59834E+06-1.14508E+04 6.41531E+03-2.04582E-08 1.42354E-08
 -1       337-4.39106E+03-1.59917E+06-1.44571E+04-1.55613E+04-3.73134E-08 1.97415E-08
 -1       338 5.64685E+02-1.59809E+06-2.16863E+04 9.03060E+03-2.65936E-08-1.45519E-11
 -1       339-2.30243E+04-1.61170E+06-4.88998E+04-2.06682E+04-4.89472E-08-3.09956E-09
 -1       340 1.53395E+04-1.58704E+06-7.66544E+04 1.14455E+04-3.19378E-08 2.41489E-08
 -1       406 5.91695E+00 3.38002E+05 5.56117E+02 1.02420E+00-9.55296E-10-7.94807E-09
 -1       407 1.79176E+02 3.38107E+05 1.18329E+03 1.25433E+01-3.32264E-10 6.91216E-11
 -1       408 5.93677E+02 3.37917E+05 2.36242E+03-1.39028E+01-1.33184E-09 1.49157E-09
 -1       409 2.54138E+03 3.38862E+05 5.31969E+03 1.42382E+02-1.76186E-10-1.78079E-09
 -1       410 7.32865E+03 3.37243E+05 1.08593E+04-1.35739E+02-1.62618E-09-7.16955E-09
 -1       521-2.01359E+07-4.13797E+06-5.34301E+06-1.72033E+06-8.23056E-08 2.21771E-08
 -1       522 1.19894E+07-4.43376E+05 2.76467E+06-1.07467E+07-3.49479E-07-8.56235E-08
 -1       523-9.24449E+06-3.76185E+03-4.11490E+05 2.88225E+06 4.87489E-08-2.08151E-07
 -1       524-5.07283E+06 2.07980E+06 9.93869E+05-1.62915E+07 4.64930E-07-3.83821E-07
 -1       525-1.08115E+07-3.54717E+05-7.96119E+05 2.59903E+06 3.26021E-07-2.51435E-07
 -1       526 1.61858E+07-1.48861E+06 3.58276E+06-8.15911E+06 1.57452E-07-7.80856E-08
 -1       527-2.06450E+07-4.41785E+06-4.71965E+06-3.14196E+06 6.21658E-08 6.15255E-08
 -1       528 2.33563E+07 5.53419E+06 5.64847E+06 1.05941E+07-3.37604E-08-3.45171E-08
 -1       529-1.41034E+07-9.74991E+06-4.37082E+06-8.15084E+06 2.39583E-07-3.07336E-08
 -1       530-4.28862E+06 1.58356E+07 3.13154E+06 7.02491E+06-3.76604E-08 2.39117E-07
 -1       531-1.97897E+06-7.58465E+06-3.41493E+05-4.77708E+06-5.20027E-07 8.29168E-08
 -1       532-1.78754E+07 1.48061E+07 9.91025E+05-3.54830E+06 4.81727E-07-4.60321E-07
 -1       533-2.74386E+06-8.03855E+06-8.27157E+05-5.08139E+06 4.56930E-09-7.38743E-07
 -1       534-1.48899E+06 1.62328E+07 3.26039E+06 8.19789E+06-5.01896E-08 5.09666E-07
 -1       535-1.55518E+07-1.00482E+07-5.65157E+06-7.99240E+06 5.93718E-08 3.34549E-07
 -1       536-5.80554E+05-3.80546E+04-6.08849E+03-3.80688E+04-5.33964E-09 4.15275E-08
 -1       537-1.77170E+05 3.82044E+04 6.68762E+04 9.08402E+04-8.47934E-08 6.60152E-08
 -1       538-3.87737E+05 6.35710E+02 8.21819E+03-5.48736E+04 1.81634E-08 6.80993E-08
 -1       539-3.11418E+05 2.98889E+03 1.85539E+04 1.03873E+05 1.40060E-07 7.28006E-08
 -1       540-4.49546E+05-1.85834E+02-1.12898E+04-5.13481E+04 6.68069E-09 7.49096E-08
 -1       541-5.73819E+04 1.04152E+04 6.56741E+04 6.97287E+04 1.43917E-08 6.32039E-08
 -1       542-6.34958E+05-1.24239E+04-5.12197E+04-2.03239E+04 5.57447E-08 2.78958E-08
 -1       543 9.89303E+04 1.67225E+04 9.61491E+04-1.05931E+04 1.35096E-08-4.93310E-09
 -1       544-6.01693E+05-9.91727E+03-4.53831E+04 2.86545E+04 1.73536E-08-3.23429E-08
 -1       545-1.33905E+05 5.23979E+03 4.71493E+04-8.33988E+04 3.78682E-08-5.25619E-08
 -1       546-4.08326E+05 4.16037E+03-7.99926E+03 5.23301E+04 2.05446E-08-6.53127E-08
 -1       547-3.24385E+05-4.53290E+03 3.40244E+03-1.06269E+05-9.88811E-08-9.08499E-08
 -1       548-4.16279E+05 4.04495E+03-1.88966E+04 5.18460E+04-8.26342E-08-7.09215E-08
 -1       549-1.19186E+05 1.55200E+03 2.57597E+04-8.05523E+04-4.48136E-08-4.81173E-08
 -1       550-6.07993E+05-6.50080E+03-9.52904E+04 2.62735E+04 4.78167E-09-2.66900E-08
 -1       551 3.11938E+04-7.18730E+05 6.58887E+03-1.13876E+06-7.92279E-08-2.18279E-09
 -1       552 7.00940E+04-7.47977E+05 2.24340E+04-1.62341E+06-5.71890E-08 3.78786E-08
 -1       553 5.25333E+04-7.49204E+05 4.02942E+04-1.13348E+06-9.46893E-08 2.53276E-08
 -1       554 1.03233E+05-7.55014E+05 9.05044E+04-1.62530E+06-5.98011E-08 1.33659E-08
 -1       555 8.18467E+04-7.70652E+05 1.62317E+05-1.13381E+06-9.54169E-08-1.22818E-08
 -1       556 1.72249E+05-3.04829E+05 5.00011E+04-3.46715E+05-1.63709E-08 9.42964E-09
 -1       557 2.82935E+05-3.93857E+05 2.77257E+04-4.43625E+05-5.52973E-10 5.09317E-10
 -1       558 1.61837E+05-3.05468E+05 8.90082E+03-3.45063E+05-2.03436E-08-1.08921E-08
 -1       559 2.63076E+05-3.98592E+05 5.22088E+03-4.57436E+05 1.11177E-08 3.04499E-09
 -1       560 1.52011E+05-2.99248E+05 7.96185E+02-3.51965E+05 9.37143E-09-1.45083E-08
 -1       561 2.50388E+05-3.93773E+05 9.39210E+02-4.65922E+05 2.91038E-10-2.58660E-09
 -1       562 1.44272E+05-2.94384E+05-3.68763E+02-3.57533E+05 6.65023E-09-4.86398E-09
 -1       563 2.41249E+05-3.89787E+05 2.06477E+02-4.71848E+05 2.11730E-09-1.18598E-09
 -1       564 1.38895E+05-2.91018E+05-2.13259E+02-3.61332E+05 7.02858E-09-5.52063E-09
 -1       565 2.35443E+05-3.87261E+05 9.17260E+01-4.75545E+05 8.07995E-09-6.20548E-09
 -1       566 1.35965E+05-2.89156E+05-9.90680E+01-3.63385E+05-5.92991E-09-2.29920E-09
 -1       567 2.32969E+05-3.86180E+05-2.08966E+02-4.77006E+05 1.94741E-08 1.74259E-08
 -1       568 1.35545E+05-2.88909E+05-7.31532E+02-3.63774E+05-4.22051E-09 9.56425E-09
 -1       569 2.32684E+05-3.86154E+05-1.84480E+03-4.75328E+05-1.43909E-08 8.25094E-09
 -1       570 1.38545E+05-2.91581E+05-4.11908E+03-3.63032E+05 3.84171E-09 1.21872E-09
 -1       571 2.55543E+05 9.30017E+03 1.34964E+04-7.58272E+04 4.38376E-09 7.06132E-09
 -1       572 2.57523E+05 3.38478E+03 6.61343E+03-8.31859E+04 3.09637E-09-6.44286E-09
 -1       573 2.56334E+05 9.55019E+02 2.93839E+03-7.56753E+04 9.52286E-09 1.68802E-09
 -1       574 2.56547E+05 4.68608E+02 1.47303E+03-8.33705E+04 1.76985E-08 8.65657E-09
 -1       575 2.56422E+05 2.34993E+02 6.94998E+02-7.56548E+04 8.97279E-09 8.40737E-09
 -1       576 2.56422E+05 2.29088E+02 3.55290E+02-8.33951E+04-3.35081E-09 3.02316E-09
 -1       577 2.56449E+05 1.87970E+02 1.77072E+02-7.56521E+04 1.00422E-08 1.64364E-08
 -1       578 2.56433E+05 2.03917E+02 1.01263E+02-8.33983E+04 1.56415E-08-8.29368E-09
 -1       579 2.56493E+05 1.67592E+02 6.89857E+01-7.56518E+04 1.12796E-08-1.52068E-09
 -1       580 2.56495E+05 1.74430E+02 7.79200E+01-8.33942E+04-8.70932E-09-4.20732E-09
 -1       581 2.56562E+05 1.34346E+02 1.17801E+02-7.56565E+04 3.60160E-09-3.43334E-09
 -1       582 2.56608E+05 1.62176E+02 2.36969E+02-8.33453E+04 1.74987E-09-6.76664E-09
 -1       583 2.56644E+05 1.91737E+02 4.57333E+02-7.57010E+04 1.08412E-09 3.21279E-10
 -1       584 2.56880E+05 5.60232E+02 1.03179E+03-8.29712E+04 2.96131E-09-1.14003E-08
 -1       585 2.56626E+05 1.44864E+03 2.09327E+03-7.60304E+04 4.05635E-10-9.01491E-09
 -1       586-3.10283E+03 9.37597E+04-3.20609E+03-2.24624E+05-2.48383E-09 7.59928E-09
 -1       587-9.77986E+02 9.34191E+04 3.18041E+02-2.47234E+05-4.49108E-09 1.69653E-08
 -1       588 6.06164E+02 9.33528E+04 3.93431E+03-2.24511E+05-1.41881E-09 1.26938E-08
 -1       589 4.68533E+03 9.54342E+04 1.05241E+04-2.46995E+05-3.50519E-09-7.28687E-09
 -1       590 1.45617E+04 9.22003E+04 2.22020E+04-2.24898E+05-2.28738E-09 1.51140E-08
 -1       591-5.91465E+04-1.36604E+04-1.88752E+04-2.64502E+04-5.82986E-10 1.42418E-08
 -1       592-6.22264E+04-1.69867E+04-1.02241E+04-2.98808E+04-1.03685E-08-3.11957E-09
 -1       593-6.10370E+04-1.22879E+04-4.25593E+03-2.78315E+04-4.02176E-09-8.76526E-10
 -1       594-5.96156E+04-1.42221E+04-2.12259E+03-2.99857E+04 1.19769E-09 7.98991E-09
 -1       595-6.11813E+04-1.22831E+04-9.74713E+02-2.78943E+04 5.53345E-09 1.90625E-08
 -1       596-5.94372E+04-1.40956E+04-4.95724E+02-2.99650E+04 1.54726E-08 1.48663E-08
 -1       597-6.11994E+04-1.22958E+04-2.70401E+02-2.78967E+04 9.90497E-09-6.67455E-10
 -1       598-5.94197E+04-1.40907E+04-2.18227E+02-2.99591E+04-4.29856E-09-2.20882E-09
 -1       599-6.11982E+04-1.22962E+04-2.79822E+02-2.78963E+04-1.86424E-09-2.94438E-09
 -1       600-5.94376E+04-1.40965E+04-5.20670E+02-2.99634E+04 1.86765E-09-5.28132E-09
 -1       601-6.11769E+04-1.22838E+04-1.02760E+03-2.78932E+04 2.96245E-09-8.30050E-09
 -1       602-5.96256E+04-1.42291E+04-2.23978E+03-2.99821E+04-9.50081E-10 1.80921E-09
 -1       603-6.10224E+04-1.22913E+04-4.49181E+03-2.78274E+04-1.67779E-09 7.62157E-09
 -1       604-6.23958E+04-1.71304E+04-1.07902E+04-2.98506E+04 5.73954E-09-6.91057E-09
 -1       605-5.90099E+04-1.37549E+04-1.99204E+04-2.63859E+04 4.34750E-09 1.59462E-08
 -1       606 2.69230E+04-1.24285E+04-2.23059E+04 2.51188E+04 5.32691E-09 4.21005E-09
 -1       607 2.31092E+04-4.04567E+03-1.11078E+04 2.82134E+04 6.69388E-10 2.21166E-09
 -1       608 2.52789E+04-7.17236E+02-4.97320E+03 2.49304E+04 1.50249E-08-5.37716E-09
 -1       609 2.48578E+04-2.29854E+02-2.51213E+03 2.84358E+04 3.55731E-08-3.60387E-09
 -1       610 2.50880E+04-1.64367E+01-1.19904E+03 2.49087E+04 1.79907E-08-4.66616E-09
 -1       611 2.50175E+04-1.13087E+01-6.04533E+02 2.84600E+04 3.00179E-09 1.95769E-10
 -1       612 2.50425E+04-1.64799E+00-2.87895E+02 2.49065E+04-6.65204E-09 4.66252E-09
 -1       613 2.50228E+04-5.08149E+00-1.29420E+02 2.84628E+04-1.49084E-08 7.41420E-09
 -1       614 2.50196E+04-4.86729E+00-3.16033E+01 2.49058E+04-7.81256E-09 9.89439E-09
 -1       615 2.50144E+04-1.70219E+00 5.14023E+01 2.84633E+04-2.53294E-10-7.81029E-09
 -1       616 2.50018E+04-4.36649E-01 1.56719E+02 2.49061E+04-2.76896E-09-1.17302E-09
 -1       617 2.50305E+04 3.34090E+01 3.58684E+02 2.84628E+04 5.93445E-10 2.65914E-09
 -1       618 2.49686E+04 1.04281E+02 7.23331E+02 2.49063E+04-1.16102E-08 3.04408E-09
 -1       619 2.52841E+04 5.93766E+02 1.62458E+03 2.84620E+04-2.31735E-08 6.54950E-09
 -1       620 2.47273E+04 1.82046E+03 3.26539E+03 2.49063E+04-8.62372E-09 6.74254E-09
 -1       621 3.64447E+02 2.62589E+05 3.08318E+03 2.77211E+04 4.59067E-10-9.76706E-09
 -1       622 4.64912E+02 2.63324E+05 2.80772E+03 4.02840E+04 6.12999E-10-1.25196E-08
 -1       623 6.38563E+01 2.62754E+05 3.47034E+03 2.75927E+04 5.62864E-10-7.24185E-09
 -1       624 1.71336E+03 2.64418E+05 6.80433E+03 4.04124E+04 6.36589E-10-1.83372E-08
 -1       625 1.70129E+03 2.61409E+05 1.19280E+04 2.75899E+04 8.44466E-10-1.68234E-08
 -1       626 2.30103E+05 5.70405E+04 4.78366E+03 1.15365E+05-2.61298E-09-1.21800E-08
 -1       627 2.27774E+05 5.85098E+04 2.30518E+03 1.19537E+05-3.56067E-10 1.99881E-08
 -1       628 2.30234E+05 5.48374E+04 9.74515E+02 1.16160E+05-6.89852E-09-1.34514E-09
 -1       629 2.27160E+05 5.78935E+04 4.77015E+02 1.19779E+05-3.70119E-09 8.93219E-09
 -1       630 2.30246E+05 5.47320E+04 2.20883E+02 1.16190E+05-1.07757E-08-8.92567E-09
 -1       631 2.27092E+05 5.78722E+04 1.18383E+02 1.19780E+05-1.03601E-08-9.53935E-09
 -1       632 2.30240E+05 5.47373E+04 7.70593E+01 1.16185E+05-5.49107E-09-8.49616E-09
 -1       633 2.27081E+05 5.78755E+04 8.45390E+01 1.19775E+05 5.01052E-09 7.14090E-09
 -1       634 2.30233E+05 5.47362E+04 1.35457E+02 1.16182E+05 1.28964E-08-1.68329E-08
 -1       635 2.27091E+05 5.78751E+04 2.73425E+02 1.19778E+05 2.41805E-08-2.33554E-08
 -1       636 2.30223E+05 5.47323E+04 5.51820E+02 1.16181E+05 9.58630E-09-9.70931E-09
 -1       637 2.27209E+05 5.79614E+04 1.21291E+03 1.19776E+05 5.36738E-09-1.96451E-09
 -1       638 2.30179E+05 5.50009E+04 2.49215E+03 1.16059E+05-6.43558E-09-7.69887E-10
 -1       639 2.28518E+05 5.97818E+04 5.89619E+03 1.19389E+05-1.97915E-08 7.94103E-09
 -1       640 2.30000E+05 6.04342E+04 1.22357E+04 1.13764E+05-3.78213E-09 1.98920E-08
 -1       656 5.95582E+04-1.51953E+06-1.43774E+05-1.45738E+03-4.36557E-11 4.39115E-11
 -1       657-7.87682E+04-1.58447E+06-1.19057E+05 6.39668E+03-1.45519E-10-2.73257E-08
 -1       658 1.89631E+04-1.53799E+06-7.32616E+04-3.20075E+03 1.96451E-10-4.38602E-09
 -1       659-8.50035E+04-1.58743E+06-1.27249E+05 7.75420E+03-1.25874E-09-4.36540E-11
 -1       660 6.57792E+04-1.51658E+06-1.57859E+05-2.81487E+03-1.31695E-09-1.25240E-08
 -1       661 1.61627E+05 1.71766E+04 1.64791E+04 6.31948E+04-9.14497E-10 7.69705E-09
 -1       662 1.70712E+05 2.96079E+04 1.11051E+04 5.97622E+04 1.74725E-09-1.66631E-09
 -1       663 1.64863E+05 2.24644E+04 3.88418E+03 6.22571E+04 5.47629E-10-1.28284E-08
 -1       664 1.66963E+05 2.34224E+04 2.32309E+03 6.09063E+04 8.50207E-10-1.77624E-08
 -1       665 1.65352E+05 2.31883E+04 9.16447E+02 6.21159E+04 4.52872E-10-9.56922E-09
 -1       666 1.66386E+05 2.25933E+04 5.35771E+02 6.10895E+04 6.81463E-09-5.17384E-09
 -1       667 1.65436E+05 2.32719E+04 2.84031E+02 6.20817E+04 1.83149E-10-3.17825E-09
 -1       668 1.66293E+05 2.25315E+04 2.88115E+02 6.11392E+04-4.63800E-10-3.15622E-09
 -1       669 1.65443E+05 2.32483E+04 3.89023E+02 6.20667E+04-5.46464E-10 5.65399E-09
 -1       670 1.66389E+05 2.27413E+04 8.46116E+02 6.11412E+04-3.95095E-09 5.90774E-10
 -1       671 1.65341E+05 2.30663E+04 1.50202E+03 6.20779E+04 3.99254E-11-2.73741E-09
 -1       672 1.67264E+05 2.42024E+04 3.84261E+03 6.09292E+04 4.79372E-09-7.46331E-09
 -1       673 1.64572E+05 2.18241E+04 6.43950E+03 6.22646E+04 6.97582E-10 4.77166E-09
 -1       674 1.73394E+05 3.45470E+04 1.84156E+04 5.91274E+04 1.55615E-09 6.62294E-09
 -1       675 1.59250E+05 1.30113E+04 2.73350E+04 6.37709E+04-1.39471E-09 8.37827E-09
 -1       676 2.22846E+01-2.72014E+05-1.03403E+03-5.64458E+01 4.13792E-10-6.22620E-09
 -1       677-2.74413E+02-2.72264E+05-1.89244E+03 1.12812E+02 4.71573E-09-1.83773E-08
 -1       678 1.83344E+02-2.71836E+05-3.34535E+03-5.63287E+01 7.43285E-10 4.11757E-09
 -1       679-3.34619E+03-2.74283E+05-7.94708E+03 1.12364E+02 3.98813E-09-7.01613E-09
 -1       680 1.99720E+03-2.69996E+05-1.28080E+04-5.53679E+01 5.63887E-10-3.32597E-09
 -1       771-2.84990E+06-6.38257E+05-1.17727E+05-1.31958E+06-3.04863E-08-2.31958E-08
 -1       772-2.79147E+06-7.09815E+05-6.11381E+04-1.40178E+06-2.98460E-08 8.40373E-09
 -1       773-2.87189E+06-6.20977E+05-3.02227E+04-1.32852E+06-1.37079E-08 1.03464E-08
 -1       774-2.78232E+06-6.97102E+05-1.36848E+04-1.41881E+06 2.13186E-08 2.91038E-11
 -1       775-2.88239E+06-6.13558E+05-9.61003E+03-1.33237E+06-3.05590E-09 2.41562E-09
 -1       776-2.78910E+06-6.95661E+05-3.69720E+03-1.43113E+06-4.30737E-09 2.13186E-09
 -1       777-2.89129E+06-6.07084E+05-4.02449E+03-1.33575E+06 4.78758E-09 3.49610E-09
 -1       778-2.79632E+06-6.94415E+05-1.17406E+03-1.44165E+06 8.25821E-09 7.13226E-09
 -1       779-2.89884E+06-6.01494E+05-1.94314E+03-1.33865E+06-9.31323E-09-5.16593E-09
 -1       780-2.80267E+06-6.93216E+05-3.30495E+02-1.45020E+06-5.38421E-09 3.54703E-10
 -1       781-2.90479E+06-5.97022E+05-7.36090E+02-1.34091E+06-1.93249E-08 5.36966E-09
 -1       782-2.80753E+06-6.92176E+05 2.76189E+02-1.45649E+06-3.15922E-08-5.90626E-09
 -1       783-2.90895E+06-5.93942E+05 4.41091E+02-1.34251E+06-1.14669E-08-9.78707E-09
 -1       784-2.81017E+06-6.91005E+05 1.77918E+03-1.46037E+06-2.36541E-08 4.56976E-09
 -1       785-2.91140E+06-5.92116E+05 3.14469E+03-1.34354E+06-3.43061E-08 7.29597E-09
 -1       786 1.22631E+05-9.27005E+03 2.14462E+04-2.13079E+02 9.64711E-10-2.70938E-09
 -1       787 1.31931E+05 1.07321E+04 1.51725E+04-4.37270E+01 4.45375E-09-1.73477E-08
 -1       788 1.26217E+05-1.45293E+03 5.54893E+03-1.83168E+02 3.30866E-09 6.26301E-09
 -1       789 1.27754E+05 1.68118E+03 3.48392E+03-9.08358E+01 1.77890E-09-9.90951E-10
 -1       790 1.26809E+05-2.26528E+02 1.41168E+03-1.65980E+02-3.36250E-09 9.70476E-09
 -1       791 1.27061E+05 2.61809E+02 8.17510E+02-1.20498E+02-4.82584E-09 1.18150E-08
 -1       792 1.26909E+05-3.46191E+01 3.50726E+02-1.53507E+02-4.00117E-09-1.03480E-08
 -1       793 1.26943E+05 3.81463E+01 1.84289E+02-1.43944E+02-1.17835E-09-4.53652E-09
 -1       794 1.26928E+05-3.00662E+00 6.68637E+01-1.42533E+02 2.72131E-09 4.30820E-09
 -1       795 1.26915E+05-1.01142E+01-3.92632E+00-1.66737E+02-3.22188E-09 6.60839E-09
 -1       796 1.26937E+05 1.36155E+01-6.67555E+01-1.30714E+02 1.73481E-09 3.57572E-09
 -1       797 1.26868E+05-1.04709E+02-2.07741E+02-1.93683E+02 2.53000E-09-8.22828E-09
 -1       798 1.26975E+05 9.15163E+01-3.44139E+02-1.15587E+02 1.49839E-09-9.55350E-09
 -1       799 1.26605E+05-6.75442E+02-9.52684E+02-2.30546E+02 2.80560E-09-1.03698E-08
 -1       800 1.27200E+05 5.83877E+02-1.34989E+03-9.38510E+01 2.88464E-10 1.67677E-08
 -1       801-1.79165E+04-6.90243E+06-8.76893E+05 7.18306E+05 6.78410E-08-3.69437E-08
 -1       802 2.77591E+05 1.14005E+06 9.74742E+05-8.23815E+05 1.87400E-07-2.43531E-08
 -1       803-2.53078E+05-8.77940E+06-9.57170E+05 4.71532E+05 6.03104E-08 2.61425E-08
 -1       804 1.02027E+05-8.22910E+05 6.85200E+05 4.28539E+05-7.62666E-08-5.44460E-08
 -1       805 1.20694E+05-4.95318E+06-1.52500E+05-5.31458E+05-3.14394E-08-3.85448E-08
 -1       806-2.76475E+05-5.26845E+04-2.02267E+04-1.08614E+05-5.87761E-09-5.96992E-09
 -1       807-2.78196E+05-4.92536E+04-9.93713E+03-1.13369E+05 8.36462E-09 3.38420E-09
 -1       808-2.77021E+05-4.54053E+04-4.21573E+03-1.12073E+05-2.75122E-09-3.09433E-09
 -1       809-2.76112E+05-4.64561E+04-2.06142E+03-1.13607E+05-8.25639E-09 4.88626E-09
 -1       810-2.77105E+05-4.51517E+04-9.44813E+02-1.12227E+05 5.32737E-09 1.04553E-08
 -1       811-2.75952E+05-4.63431E+04-4.69836E+02-1.13576E+05 3.37627E-09 1.26454E-09
 -1       812-2.77118E+05-4.51730E+04-2.37510E+02-1.12227E+05 1.86446E-09 1.80712E-08
 -1       813-2.75931E+05-4.63445E+04-1.54260E+02-1.13561E+05-3.72938E-09 8.59563E-09
 -1       814-2.77113E+05-4.51808E+04-1.52588E+02-1.12224E+05-1.03410E-09-1.13941E-08
 -1       815-2.75936E+05-4.63461E+04-2.45838E+02-1.13556E+05 2.11367E-09-2.74895E-09
 -1       816-2.77097E+05-4.51791E+04-4.65686E+02-1.12221E+05 6.76573E-09 3.01861E-08
 -1       817-2.76016E+05-4.63901E+04-9.99760E+02-1.13547E+05-4.47835E-09 1.33066E-08
 -1       818-2.77038E+05-4.53188E+04-2.03893E+03-1.12155E+05 6.39648E-09 4.74711E-09
 -1       819-2.77132E+05-4.76234E+04-4.79806E+03-1.13287E+05 7.87531E-09-1.74509E-09
 -1       820-2.76659E+05-4.89386E+04-9.76547E+03-1.10603E+05 9.61518E-09 7.97786E-09
 -1       821-3.40038E+05 1.87586E+04-4.34011E+04 8.80574E+02 6.82613E-09 3.20324E-09
 -1       822-3.58775E+05-2.17165E+04-3.07005E+04-1.64372E+03 2.67105E-10-2.12822E-10
 -1       823-3.47251E+05 2.94242E+03-1.12376E+04 1.08931E+03-4.23086E-09 3.15458E-09
 -1       824-3.50312E+05-3.40302E+03-7.06555E+03-1.56986E+03 4.27859E-10-8.23172E-09
 -1       825-3.48498E+05 4.58868E+02-2.91477E+03 8.06728E+02 5.82659E-09 7.65135E-09
 -1       826-3.48814E+05-5.38237E+02-1.72987E+03-6.55076E+02 6.54060E-09 5.59641E-09
 -1       827-3.48745E+05 7.74896E+01-9.28835E+02 1.74512E+02 2.24617E-09-3.94309E-09
 -1       828-3.48605E+05-1.62376E+02-7.78425E+02 6.42321E+02-2.48854E-09 1.93762E-08
 -1       829-3.48706E+05 8.29617E+01-9.42646E+02-4.90690E+02 4.32081E-11-3.75539E-09
 -1       830-3.48912E+05-5.64513E+02-1.81049E+03 1.67088E+03-6.31907E-10-1.64313E-08
 -1       831-3.48442E+05 4.81507E+02-3.01789E+03-8.54066E+02-2.42322E-09 3.40412E-09
 -1       832-3.50398E+05-3.54241E+03-7.35164E+03 1.91293E+03-7.42190E-10 7.54392E-09
 -1       833-3.47222E+05 3.05953E+03-1.16930E+04-7.32744E+02-1.96724E-09 9.34688E-09
 -1       834-3.59097E+05-2.25847E+04-3.19146E+04 1.23583E+03-1.88629E-09 8.42920E-09
 -1       835-3.39744E+05 1.95073E+04-4.51525E+04-1.76946E+02 5.43893E-09 4.11092E-09
 -1       836-1.20696E+03 3.24321E+05 1.99021E+04-1.59013E+04-3.67436E-09 2.16869E-09
 -1       837 4.28458E+03 3.30534E+05 1.69335E+04-3.22027E+04-3.98836E-09-9.94214E-09
 -1       838-4.71669E+02 3.26051E+05 1.73834E+04-1.58344E+04-2.91993E-09-4.07817E-09
 -1       839 1.10331E+04 3.35563E+05 3.30121E+04-3.22485E+04-2.83535E-09 1.72592E-08
 -1       840-3.38211E+03 3.19243E+05 5.26980E+04-1.58577E+04-2.64117E-09 1.13641E-08
 -1       856-6.30277E+04 7.74972E+03-2.04225E+04-4.01803E+02 1.55796E-09-1.27420E-09
 -1       857-7.14509E+04-9.09841E+03-1.40593E+04 5.17492E+03 8.56289E-10-3.66322E-09
 -1       858-6.63600E+04 1.08641E+03-5.29949E+03-4.24579E+02-1.40585E-09-1.23816E-08
 -1       859-6.76258E+04-1.27131E+03-3.19889E+03 5.20978E+03-2.29271E-09-7.60338E-10
 -1       860-6.68580E+04 1.51697E+02-1.34206E+03-4.36574E+02-9.40048E-10 6.63067E-09
 -1       861-6.70527E+04-1.74774E+02-7.41293E+02 5.22618E+03-1.35295E-09-8.11042E-09
 -1       862-6.69358E+04 2.02947E+01-3.14145E+02-4.40978E+02 1.60065E-09 4.20920E-09
 -1       863-6.69584E+04-1.61164E+01-1.28056E+02 5.22854E+03 5.86885E-09-3.31725E-09
 -1       864-6.69527E+04-3.40004E+00 1.49271E+01-4.38930E+02 1.32216E-09-1.23741E-08
 -1       865-6.69131E+04 4.88726E+01 1.78257E+02 5.21742E+03 2.22016E-10-6.30303E-09
 -1       866-6.69792E+04-4.48628E+01 3.74982E+02-4.29861E+02 4.17799E-11-6.66034E-10
 -1       867-6.67326E+04 3.72143E+02 9.33108E+02 5.19273E+03 6.70525E-10 1.76030E-08
 -1       868-6.71290E+04-3.21281E+02 1.55297E+03-4.14243E+02-6.56769E-10 1.29420E-08
 -1       869-6.55910E+04 2.67376E+03 4.13879E+03 5.15165E+03 1.10234E-09-1.76724E-08
 -1       870-6.81141E+04-2.28462E+03 6.00577E+03-3.88743E+02-1.66312E-09-1.20372E-09
 -1       871-5.02925E+03-1.59902E+04-1.71446E+04 1.14405E+05-1.88993E-09-2.38288E-10
 -1       872-1.96917E+03-1.99186E+04-7.11826E+03 1.48335E+05-4.66935E-09-2.19643E-10
 -1       873 1.87824E+02-1.80459E+04 6.71420E+02 1.14154E+05-2.75031E-09-8.73126E-09
 -1       874 2.77126E+03-1.57962E+04 8.95955E+03 1.48369E+05-5.28235E-09 5.38193E-09
 -1       875 6.05433E+03-2.01788E+04 2.00936E+04 1.14365E+05-2.06819E-09 1.46429E-09
 -1       876 2.64963E+05 4.49619E+04 1.37503E+04 1.06692E+05-3.64378E-09 5.09317E-10
 -1       877 2.65841E+05 4.78890E+04 7.34314E+03 1.10664E+05-7.63157E-09-8.06438E-09
 -1       878 2.66248E+05 4.34397E+04 3.07643E+03 1.07820E+05-5.53473E-09-9.36552E-09
 -1       879 2.63972E+05 4.60243E+04 1.53278E+03 1.10758E+05 3.67299E-09 2.24043E-09
 -1       880 2.66341E+05 4.34236E+04 7.13883E+02 1.07866E+05-9.48148E-11-4.49660E-09
 -1       881 2.63847E+05 4.59447E+04 3.81009E+02 1.10738E+05-2.34547E-09 1.00292E-09
 -1       882 2.66350E+05 4.34354E+04 2.43395E+02 1.07867E+05 7.29142E-09 3.36335E-09
 -1       883 2.63839E+05 4.59407E+04 2.61078E+02 1.10731E+05 8.04562E-09 2.84490E-08
 -1       884 2.66344E+05 4.34327E+04 4.14794E+02 1.07867E+05 3.47598E-09 1.57074E-08
 -1       885 2.63872E+05 4.59465E+04 8.33642E+02 1.10741E+05-1.01321E-09 2.66027E-11
 -1       886 2.66312E+05 4.34083E+04 1.68002E+03 1.07864E+05 2.70814E-09 5.36556E-09
 -1       887 2.64167E+05 4.61401E+04 3.66974E+03 1.10784E+05 2.38401E-09 6.84668E-09
 -1       888 2.66080E+05 4.34492E+04 7.39464E+03 1.07747E+05 1.42867E-09 4.13138E-09
 -1       889 2.68570E+05 5.07173E+04 1.76647E+04 1.10648E+05-5.12799E-11-9.52195E-09
 -1       890 2.63064E+05 4.70312E+04 3.30853E+04 1.04929E+05 1.01909E-09-8.36189E-09
 -1       891-1.13403E+02-1.47886E+05-1.79669E+03 2.57008E+04-3.13321E-10-1.61849E-08
 -1       892-2.08244E+02-1.48343E+05-1.93533E+03 3.89689E+04 1.60185E-09-7.03585E-09
 -1       893 6.26207E+00-1.47943E+05-2.74603E+03 2.57070E+04-4.37240E-10 5.00586E-09
 -1       894-1.41746E+03-1.49384E+05-5.68753E+03 3.88268E+04 1.13232E-09-9.13906E-09
 -1       895-1.11875E+03-1.46758E+05-1.00173E+04 2.58430E+04-6.61430E-10-8.54925E-10
 -1       956-3.38278E+05-4.81262E+03-1.19887E+04 2.55757E+04 3.77440E-10-1.55489E-08
 -1       957-3.40637E+05-1.66317E+03-6.15402E+03 3.07667E+04 1.00908E-09-1.75892E-08
 -1       958-3.39350E+05-1.73821E+02-2.77290E+03 2.54300E+04 5.06861E-09-2.07194E-08
 -1       959-3.39531E+05-7.43641E+01-1.41613E+03 3.09317E+04 1.05392E-08-6.15205E-09
 -1       960-3.39450E+05-1.95009E+00-6.90526E+02 2.54154E+04 7.55063E-09-2.03318E-09
 -1       961-3.39455E+05-1.16165E+01-3.66354E+02 3.09486E+04 4.45016E-09 1.35724E-08
 -1       962-3.39472E+05-4.69540E+00-2.09950E+02 2.54131E+04 2.54431E-10 5.59044E-09
 -1       963-3.39454E+05-8.91984E+00-1.68956E+02 3.09516E+04 1.70189E-09-6.89738E-09
 -1       964-3.39477E+05-2.04643E+00-2.05820E+02 2.54124E+04-6.95763E-10 1.00949E-08
 -1       965-3.39465E+05-5.97517E+00-3.56277E+02 3.09512E+04-2.82978E-09-2.42721E-09
 -1       966-3.39464E+05 5.92760E+00-6.69410E+02 2.54135E+04 2.60911E-09-6.22526E-09
 -1       967-3.39548E+05-6.13619E+01-1.37309E+03 3.09397E+04 1.00499E-09-9.82959E-09
 -1       968-3.39374E+05-1.55569E+02-2.68770E+03 2.54239E+04 1.43064E-09-7.89845E-09
 -1       969-3.40631E+05-1.59731E+03-5.96702E+03 3.08188E+04-3.62888E-10-1.65841E-09
 -1       970-3.38341E+05-4.65018E+03-1.16235E+04 2.55311E+04-2.55113E-09 7.81165E-09
 -1       971-3.12906E+05-1.58946E+03-8.67521E+03 1.42913E+04 1.68075E-09-1.05759E-09
 -1       972-3.15003E+05-1.15755E+03-4.72445E+03 1.98503E+04-1.40972E-09 2.97814E-09
 -1       973-3.13872E+05-3.80774E+01-2.11591E+03 1.41757E+04-3.84716E-10-4.05089E-09
 -1       974-3.14006E+05-4.82997E+01-1.09658E+03 1.99786E+04-1.22418E-09-6.52881E-09
 -1       975-3.13948E+05 3.32315E+00-5.47984E+02 1.41644E+04 3.59523E-09 1.00082E-08
 -1       976-3.13948E+05-2.19542E+00-3.15872E+02 1.99928E+04 2.58069E-10 1.38305E-08
 -1       977-3.13963E+05 3.70057E+00-2.28756E+02 1.41615E+04-2.16141E-09 7.95399E-09
 -1       978-3.13953E+05 3.35408E+00-2.67017E+02 1.99969E+04 1.61958E-09 4.81816E-09
 -1       979-3.13963E+05 1.12571E+01-4.28427E+02 1.41602E+04-2.43102E-09 1.70368E-08
 -1       980-3.13985E+05 6.09162E+00-8.26870E+02 1.99977E+04-6.18456E-11 1.40835E-08
 -1       981-3.13936E+05 3.19047E+01-1.60126E+03 1.41607E+04-1.29398E-09 2.30716E-09
 -1       982-3.14205E+05-1.12174E+02-3.30966E+03 1.99916E+04-6.33690E-10 1.11108E-08
 -1       983-3.13735E+05-7.05570E+01-6.43061E+03 1.41664E+04-9.28003E-09 2.46223E-09
 -1       984-3.17297E+05-3.47056E+03-1.44009E+04 1.99114E+04-2.12260E-08 5.43196E-10
 -1       985-3.10823E+05-4.77605E+03-2.64445E+04 1.42390E+04-1.10622E-08 3.83989E-09
 -3
    1PSTEP                        17           9           1          
  100CL  109 6.18164E-01         409                     0    9           1
 -4  DISP        4    1
 -5  D1          1    2    1    0
 -5  D2          1    2    2    0
 -5  D3          1    2    3    0
 -5  ALL         1    2    0    0    1ALL
 -1         1 1.56842E-03 0.00000E+00 0.00000E+00
 -1         2 4.81982E-04 1.18224E-24 0.00000E+00
 -1         3 2.83053E-04-4.57590E-27 0.00000E+00
 -1         5 1.54635E-04 8.16502E-27 1.65436E-24
 -1         8 1.55342E-03-5.63024E-07 0.00000E+00
 -1         9 1.55228E-03-1.19969E-04 0.00000E+00
 -1        10 2.57348E-04-3.22046E-06 6.61744E-24
 -1        12 1.55700E-04 7.25437E-07 0.00000E+00
 -1        15 1.53588E-03-6.02923E-07 0.00000E+00
 -1        16 1.58188E-03-1.20972E-04 0.00000E+00
 -1        17 1.77319E-04-7.14098E-06 0.00000E+00
 -1        18 1.57449E-04 2.34524E-05 0.00000E+00
 -1        19 1.58896E-04 1.44641E-06 0.00000E+00
 -1        20 1.59041E-04-1.40228E-06 0.00000E+00
 -1        21 1.58263E-04-7.33608E-06 3.30872E-24
 -1        24 2.77282E-05-1.04943E-05 0.00000E+00
 -1        25 1.64312E-04 2.36453E-05 0.00000E+00
 -1        26 1.65001E-04 2.00406E-06 0.00000E+00
 -1        27 1.63025E-04-4.63681E-06 0.00000E+00
 -1        28 1.62665E-04-7.91275E-06 0.00000E+00
 -1        32 0.00000E+00 0.00000E+00 0.00000E+00
 -1        33 1.70071E-04 2.68354E-06 0.00000E+00
 -1        34 1.68141E-04-4.67930E-06 0.00000E+00
 -1        35 1.66365E-04-8.22624E-06 0.00000E+00
 -1        51 1.56743E-03-1.06300E-07 0.00000E+00
 -1        52 1.56561E-03-1.97925E-07 0.00000E+00
 -1        53 1.56312E-03-2.87302E-07 0.00000E+00
 -1        54 1.56014E-03-3.76464E-07 1.65436E-24
 -1        55 1.55685E-03-4.66938E-07 8.27181E-25
 -1        56 1.56487E-03-2.69969E-07-5.29396E-23
 -1        57 1.56066E-03 8.84847E-07 0.00000E+00
 -1        58 1.55626E-03 2.53403E-06 0.00000E+00
 -1        59 1.55204E-03 3.64978E-06 0.00000E+00
 -1        60 1.54838E-03 3.30416E-06-1.05879E-22
 -1        61 1.54556E-03 6.72022E-07 0.00000E+00
 -1        62 1.54377E-03-4.71787E-06-1.05879E-22
 -1        63 1.54309E-03-1.31263E-05 5.29396E-23
 -1        64 1.54344E-03-2.43466E-05 1.05879E-22
 -1        65 1.54466E-03-3.79541E-05 5.29396E-23
 -1        66 1.54645E-03-5.31534E-05 0.00000E+00
 -1        67 1.54849E-03-6.90242E-05-5.29396E-23
 -1        68 1.55040E-03-8.45430E-05 0.00000E+00
 -1        69 1.55184E-03-9.87064E-05 0.00000E+00
 -1        70 1.55251E-03-1.10735E-04 0.00000E+00
 -1        86 5.49245E-04-3.73671E-06 0.00000E+00
 -1        87 7.46440E-04-2.41825E-05 0.00000E+00
 -1        88 1.01064E-03-5.90179E-05 2.64698E-23
 -1        89 1.27682E-03-9.43954E-05 0.00000E+00
 -1        90 1.47889E-03-1.15746E-04 0.00000E+00
 -1       121 2.82331E-04-5.25192E-07-1.32349E-23
 -1       122 2.80170E-04-1.05239E-06 6.61744E-24
 -1       123 2.76575E-04-1.58355E-06 1.32349E-23
 -1       124 2.71561E-04-2.12068E-06-6.61744E-24
 -1       125 2.65144E-04-2.66547E-06-1.32349E-23
 -1       191 1.54664E-04 1.20930E-07 3.30872E-24
 -1       192 1.54753E-04 2.41855E-07-8.27181E-25
 -1       193 1.54901E-04 3.62774E-07-1.65436E-24
 -1       194 1.55108E-04 4.83681E-07-1.65436E-24
 -1       195 1.55374E-04 6.04571E-07-2.48154E-24
 -1       251 1.55338E-03 1.17975E-06-3.30872E-24
 -1       252 1.55334E-03 5.75070E-07-1.65436E-24
 -1       253 1.55330E-03-2.17770E-06 0.00000E+00
 -1       254 1.55326E-03-6.87635E-06 0.00000E+00
 -1       255 1.55320E-03-1.32841E-05-1.65436E-24
 -1       256 1.55314E-03-2.11621E-05 0.00000E+00
 -1       257 1.55307E-03-3.02454E-05 8.27181E-25
 -1       258 1.55298E-03-4.02673E-05 4.13590E-25
 -1       259 1.55290E-03-5.09450E-05 0.00000E+00
 -1       260 1.55280E-03-6.19944E-05 0.00000E+00
 -1       261 1.55271E-03-7.31251E-05 0.00000E+00
 -1       262 1.55262E-03-8.40467E-05-8.27181E-25
 -1       263 1.55253E-03-9.44722E-05 0.00000E+00
 -1       264 1.55244E-03-1.04115E-04 0.00000E+00
 -1       265 1.55237E-03-1.12704E-04 0.00000E+00
 -1       266 1.55050E-03-5.77299E-07-3.30872E-24
 -1       267 1.54757E-03-5.83020E-07-8.27181E-25
 -1       268 1.54465E-03-5.89282E-07-8.27181E-25
 -1       269 1.54172E-03-5.93939E-07 0.00000E+00
 -1       270 1.53880E-03-5.98559E-07 0.00000E+00
 -1       271 1.55186E-03 9.94366E-07-1.32349E-23
 -1       272 1.55103E-03 5.33402E-07-1.32349E-23
 -1       273 1.55090E-03-1.82045E-06 0.00000E+00
 -1       274 1.55143E-03-5.93220E-06 0.00000E+00
 -1       275 1.55254E-03-1.16428E-05-2.64698E-23
 -1       276 1.55418E-03-1.87767E-05 0.00000E+00
 -1       277 1.55627E-03-2.71412E-05 2.64698E-23
 -1       278 1.55874E-03-3.65297E-05 0.00000E+00
 -1       279 1.56150E-03-4.67235E-05 2.64698E-23
 -1       280 1.56446E-03-5.74947E-05-1.32349E-23
 -1       281 1.56756E-03-6.86083E-05-2.64698E-23
 -1       282 1.57069E-03-7.98260E-05 0.00000E+00
 -1       283 1.57377E-03-9.09077E-05 2.64698E-23
 -1       284 1.57672E-03-1.01614E-04 0.00000E+00
 -1       285 1.57944E-03-1.11713E-04-2.64698E-23
 -1       301 1.55748E-03-1.20157E-04 6.61744E-24
 -1       302 1.56175E-03-1.20314E-04 3.30872E-24
 -1       303 1.56571E-03-1.20469E-04 0.00000E+00
 -1       304 1.56996E-03-1.20623E-04 6.61744E-24
 -1       305 1.57515E-03-1.20784E-04 0.00000E+00
 -1       306 1.58163E-03-2.29758E-04 1.05879E-22
 -1       307 1.64417E-03-5.34360E-04 0.00000E+00
 -1       308 1.71046E-03-9.83709E-04-1.05879E-22
 -1       309 1.77025E-03-1.50921E-03 0.00000E+00
 -1       310 1.83148E-03-2.01936E-03-1.05879E-22
 -1       311 1.89888E-03-2.42416E-03 0.00000E+00
 -1       312 1.95400E-03-2.66354E-03 0.00000E+00
 -1       313 1.96145E-03-2.70078E-03-5.29396E-23
 -1       314 1.88037E-03-2.54070E-03 0.00000E+00
 -1       315 1.68493E-03-2.21701E-03 0.00000E+00
 -1       316 1.38768E-03-1.78498E-03 1.05879E-22
 -1       317 1.02833E-03-1.30055E-03 0.00000E+00
 -1       318 6.77123E-04-8.22800E-04 0.00000E+00
 -1       319 4.01987E-04-4.11677E-04 0.00000E+00
 -1       320 2.34320E-04-1.22420E-04-1.05879E-22
 -1       336 2.48020E-04-3.82957E-06 0.00000E+00
 -1       337 2.37016E-04-4.45562E-06-6.61744E-24
 -1       338 2.24384E-04-5.09980E-06 0.00000E+00
 -1       339 2.10181E-04-5.76242E-06 6.61744E-24
 -1       340 1.94469E-04-6.44680E-06 0.00000E+00
 -1       406 1.56085E-04 8.46268E-07 3.30872E-24
 -1       407 1.56529E-04 9.67037E-07 4.13590E-25
 -1       408 1.57032E-04 1.08771E-06-1.65436E-24
 -1       409 1.57595E-04 1.20813E-06 0.00000E+00
 -1       410 1.58216E-04 1.32806E-06 0.00000E+00
 -1       521 1.61243E-03-2.39771E-04 0.00000E+00
 -1       522 1.67537E-03-5.64557E-04 5.29396E-23
 -1       523 1.73916E-03-1.04247E-03 1.05879E-22
 -1       524 1.79413E-03-1.59922E-03 0.00000E+00
 -1       525 1.85112E-03-2.13910E-03 1.05879E-22
 -1       526 1.91723E-03-2.56812E-03 5.29396E-23
 -1       527 1.97301E-03-2.82093E-03 1.05879E-22
 -1       528 1.97967E-03-2.85953E-03 0.00000E+00
 -1       529 1.89079E-03-2.68831E-03 0.00000E+00
 -1       530 1.67798E-03-2.34609E-03 0.00000E+00
 -1       531 1.35383E-03-1.89136E-03 0.00000E+00
 -1       532 9.62326E-04-1.38346E-03-5.29396E-23
 -1       533 5.79027E-04-8.81851E-04-1.05879E-22
 -1       534 2.77161E-04-4.46914E-04 0.00000E+00
 -1       535 9.23808E-05-1.37890E-04 0.00000E+00
 -1       536 1.76772E-04 2.12419E-05-6.61744E-24
 -1       537 1.75448E-04 7.05921E-05 3.30872E-24
 -1       538 1.73426E-04 1.33259E-04 0.00000E+00
 -1       539 1.71051E-04 2.01523E-04 0.00000E+00
 -1       540 1.68912E-04 2.65994E-04 0.00000E+00
 -1       541 1.67507E-04 3.17303E-04 1.65436E-24
 -1       542 1.66839E-04 3.49834E-04 3.30872E-24
 -1       543 1.66648E-04 3.58088E-04 0.00000E+00
 -1       544 1.66381E-04 3.42760E-04 0.00000E+00
 -1       545 1.65529E-04 3.04712E-04-1.65436E-24
 -1       546 1.63993E-04 2.50722E-04 0.00000E+00
 -1       547 1.61945E-04 1.87664E-04-1.65436E-24
 -1       548 1.59924E-04 1.25057E-04 0.00000E+00
 -1       549 1.58458E-04 7.24220E-05 0.00000E+00
 -1       550 1.57679E-04 3.63805E-05 1.65436E-24
 -1       551 1.56657E-04-7.60399E-06 0.00000E+00
 -1       552 1.33114E-04-8.12357E-06 3.30872E-24
 -1       553 1.07562E-04-8.68793E-06 1.15805E-23
 -1       554 8.08887E-05-9.28143E-06-3.30872E-24
 -1       555 5.39831E-05-9.88314E-06 0.00000E+00
 -1       556 1.71193E-04 8.59060E-06 0.00000E+00
 -1       557 1.66281E-04 2.12462E-05 0.00000E+00
 -1       558 1.62468E-04 3.10726E-05 0.00000E+00
 -1       559 1.59644E-04 3.83363E-05 0.00000E+00
 -1       560 1.57698E-04 4.33037E-05 0.00000E+00
 -1       561 1.56522E-04 4.62434E-05 0.00000E+00
 -1       562 1.56011E-04 4.74249E-05 0.00000E+00
 -1       563 1.56060E-04 4.71184E-05 0.00000E+00
 -1       564 1.56565E-04 4.55944E-05 0.00000E+00
 -1       565 1.57424E-04 4.31243E-05 0.00000E+00
 -1       566 1.58534E-04 3.99795E-05 0.00000E+00
 -1       567 1.59794E-04 3.64318E-05 3.30872E-24
 -1       568 1.61102E-04 3.27532E-05-1.30095E-24
 -1       569 1.62359E-04 2.92154E-05 0.00000E+00
 -1       570 1.63462E-04 2.60903E-05 0.00000E+00
 -1       571 1.57536E-04 2.20275E-05-8.27181E-25
 -1       572 1.57626E-04 2.05459E-05 0.00000E+00
 -1       573 1.57716E-04 1.90205E-05-3.30872E-24
 -1       574 1.57807E-04 1.74651E-05 0.00000E+00
 -1       575 1.57897E-04 1.58933E-05 3.30872E-24
 -1       576 1.57988E-04 1.43188E-05 0.00000E+00
 -1       577 1.58078E-04 1.27554E-05-3.30872E-24
 -1       578 1.58169E-04 1.12167E-05 1.65436E-24
 -1       579 1.58260E-04 9.71664E-06 0.00000E+00
 -1       580 1.58351E-04 8.26884E-06 0.00000E+00
 -1       581 1.58441E-04 6.88711E-06 0.00000E+00
 -1       582 1.58532E-04 5.58514E-06 0.00000E+00
 -1       583 1.58623E-04 4.37667E-06-6.61744E-24
 -1       584 1.58714E-04 3.27528E-06 0.00000E+00
 -1       585 1.58805E-04 2.29442E-06 0.00000E+00
 -1       586 1.58545E-04 2.34865E-05 0.00000E+00
 -1       587 1.59607E-04 2.35200E-05-4.13590E-25
 -1       588 1.60676E-04 2.35532E-05 8.27181E-25
 -1       589 1.61790E-04 2.35857E-05 0.00000E+00
 -1       590 1.62989E-04 2.36172E-05 0.00000E+00
 -1       591 1.57928E-04 2.21026E-05 1.03398E-25
 -1       592 1.58412E-04 2.07306E-05 0.00000E+00
 -1       593 1.58901E-04 1.93421E-05 8.27181E-25
 -1       594 1.59395E-04 1.79419E-05 4.13590E-25
 -1       595 1.59891E-04 1.65351E-05 8.27181E-25
 -1       596 1.60388E-04 1.51265E-05-4.13590E-25
 -1       597 1.60883E-04 1.37208E-05 0.00000E+00
 -1       598 1.61376E-04 1.23229E-05 4.13590E-25
 -1       599 1.61864E-04 1.09377E-05-8.27181E-25
 -1       600 1.62345E-04 9.57008E-06 0.00000E+00
 -1       601 1.62818E-04 8.22476E-06 4.13590E-25
 -1       602 1.63281E-04 6.90662E-06-2.06795E-25
 -1       603 1.63732E-04 5.62050E-06-2.06795E-25
 -1       604 1.64170E-04 4.37135E-06 9.04729E-26
 -1       605 1.64592E-04 3.16392E-06 0.00000E+00
 -1       606 1.58910E-04 8.04916E-07 0.00000E+00
 -1       607 1.58920E-04 2.52467E-07 0.00000E+00
 -1       608 1.58929E-04-2.16164E-07 0.00000E+00
 -1       609 1.58938E-04-6.06871E-07 0.00000E+00
 -1       610 1.58946E-04-9.25598E-07 0.00000E+00
 -1       611 1.58955E-04-1.17835E-06 0.00000E+00
 -1       612 1.58964E-04-1.37115E-06 0.00000E+00
 -1       613 1.58973E-04-1.51001E-06 0.00000E+00
 -1       614 1.58981E-04-1.60097E-06 0.00000E+00
 -1       615 1.58990E-04-1.65004E-06-8.27181E-25
 -1       616 1.58999E-04-1.66325E-06 0.00000E+00
 -1       617 1.59007E-04-1.64663E-06 0.00000E+00
 -1       618 1.59016E-04-1.60620E-06 8.27181E-25
 -1       619 1.59025E-04-1.54798E-06-2.06795E-25
 -1       620 1.59033E-04-1.47800E-06 4.13590E-25
 -1       621 1.59701E-04 1.53970E-06 3.30872E-24
 -1       622 1.60623E-04 1.63327E-06 0.00000E+00
 -1       623 1.61639E-04 1.72673E-06-1.65436E-24
 -1       624 1.62723E-04 1.81996E-06-1.65436E-24
 -1       625 1.63852E-04 1.91296E-06 0.00000E+00
 -1       626 1.59239E-04 8.37491E-07 0.00000E+00
 -1       627 1.59557E-04 2.96807E-07 1.65436E-24
 -1       628 1.59853E-04-1.83409E-07 0.00000E+00
 -1       629 1.60129E-04-6.11282E-07 0.00000E+00
 -1       630 1.60389E-04-9.94964E-07-3.30872E-24
 -1       631 1.60635E-04-1.34262E-06 1.65436E-24
 -1       632 1.60871E-04-1.66244E-06 3.30872E-24
 -1       633 1.61099E-04-1.96258E-06 1.65436E-24
 -1       634 1.61324E-04-2.25123E-06 0.00000E+00
 -1       635 1.61546E-04-2.53655E-06 1.65436E-24
 -1       636 1.61771E-04-2.82673E-06-3.30872E-24
 -1       637 1.62001E-04-3.12993E-06 0.00000E+00
 -1       638 1.62238E-04-3.45434E-06 0.00000E+00
 -1       639 1.62486E-04-3.80814E-06-8.27181E-25
 -1       640 1.62748E-04-4.19954E-06 0.00000E+00
 -1       656 1.59191E-04-1.92820E-06-6.61744E-24
 -1       657 1.59744E-04-2.47537E-06-6.61744E-24
 -1       658 1.60561E-04-3.02113E-06 1.32349E-23
 -1       659 1.61497E-04-3.56653E-06-6.61744E-24
 -1       660 1.62377E-04-4.11359E-06 0.00000E+00
 -1       661 1.59099E-04-1.36609E-06-8.27181E-25
 -1       662 1.59190E-04-1.41063E-06-8.27181E-25
 -1       663 1.59309E-04-1.53172E-06 0.00000E+00
 -1       664 1.59456E-04-1.72393E-06 0.00000E+00
 -1       665 1.59628E-04-1.98248E-06-1.65436E-24
 -1       666 1.59823E-04-2.30247E-06 8.27181E-25
 -1       667 1.60039E-04-2.67927E-06-1.65436E-24
 -1       668 1.60274E-04-3.10830E-06 0.00000E+00
 -1       669 1.60528E-04-3.58514E-06 0.00000E+00
 -1       670 1.60798E-04-4.10546E-06 8.27181E-25
 -1       671 1.61082E-04-4.66506E-06 1.65436E-24
 -1       672 1.61380E-04-5.25983E-06-8.27181E-25
 -1       673 1.61689E-04-5.88570E-06-1.65436E-24
 -1       674 1.62007E-04-6.53897E-06 0.00000E+00
 -1       675 1.62335E-04-7.21532E-06-4.13590E-25
 -1       676 1.58999E-04-7.43276E-06 3.30872E-24
 -1       677 1.59734E-04-7.52939E-06 0.00000E+00
 -1       678 1.60469E-04-7.62597E-06-3.30872E-24
 -1       679 1.61203E-04-7.72227E-06 0.00000E+00
 -1       680 1.61935E-04-7.81855E-06-1.65436E-24
 -1       771 1.78925E-05 1.12506E-05 0.00000E+00
 -1       772 9.58457E-06 2.91006E-05 5.29396E-23
 -1       773 2.73162E-06 4.32492E-05 0.00000E+00
 -1       774-2.76534E-06 5.39114E-05 0.00000E+00
 -1       775-7.00352E-06 6.13099E-05-5.29396E-23
 -1       776-1.00841E-05 6.56799E-05 0.00000E+00
 -1       777-1.21082E-05 6.72640E-05 0.00000E+00
 -1       778-1.31794E-05 6.63153E-05 0.00000E+00
 -1       779-1.34009E-05 6.30930E-05 0.00000E+00
 -1       780-1.28777E-05 5.78648E-05-2.64698E-23
 -1       781-1.17143E-05 5.09035E-05-5.29396E-23
 -1       782-1.00166E-05 4.24884E-05 0.00000E+00
 -1       783-7.88996E-06 3.29021E-05 0.00000E+00
 -1       784-5.44086E-06 2.24320E-05 0.00000E+00
 -1       785-2.77514E-06 1.13675E-05 0.00000E+00
 -1       786 1.64351E-04 2.20738E-05 0.00000E+00
 -1       787 1.64393E-04 2.05506E-05 0.00000E+00
 -1       788 1.64436E-04 1.90677E-05 0.00000E+00
 -1       789 1.64479E-04 1.76173E-05 8.27181E-25
 -1       790 1.64522E-04 1.61947E-05 0.00000E+00
 -1       791 1.64565E-04 1.47954E-05-8.27181E-25
 -1       792 1.64609E-04 1.34172E-05 0.00000E+00
 -1       793 1.64652E-04 1.20580E-05 0.00000E+00
 -1       794 1.64695E-04 1.07176E-05 1.65436E-24
 -1       795 1.64739E-04 9.39557E-06-8.27181E-25
 -1       796 1.64782E-04 8.09378E-06 0.00000E+00
 -1       797 1.64826E-04 6.81386E-06 8.27181E-25
 -1       798 1.64869E-04 5.55975E-06 0.00000E+00
 -1       799 1.64913E-04 4.33543E-06-8.27181E-25
 -1       800 1.64957E-04 3.14784E-06 0.00000E+00
 -1       801 1.28737E-04 2.10707E-05-2.64698E-23
 -1       802 2.07907E-05 1.34860E-05 0.00000E+00
 -1       803-7.32431E-05 7.04047E-06 0.00000E+00
 -1       804-6.83523E-05 4.81395E-06 2.64698E-23
 -1       805-2.31098E-05 2.05778E-06 5.29396E-23
 -1       806 1.64797E-04 2.20125E-05-1.65436E-24
 -1       807 1.65268E-04 2.04066E-05 8.27181E-25
 -1       808 1.65726E-04 1.88319E-05 0.00000E+00
 -1       809 1.66172E-04 1.72916E-05 0.00000E+00
 -1       810 1.66603E-04 1.57893E-05-3.30872E-24
 -1       811 1.67019E-04 1.43281E-05 0.00000E+00
 -1       812 1.67418E-04 1.29113E-05 0.00000E+00
 -1       813 1.67800E-04 1.15420E-05 8.27181E-25
 -1       814 1.68162E-04 1.02234E-05-1.65436E-24
 -1       815 1.68504E-04 8.95888E-06 8.27181E-25
 -1       816 1.68825E-04 7.75151E-06-1.65436E-24
 -1       817 1.69124E-04 6.60449E-06 1.65436E-24
 -1       818 1.69398E-04 5.52102E-06 1.65436E-24
 -1       819 1.69648E-04 4.50429E-06 8.27181E-25
 -1       820 1.69872E-04 3.55742E-06-1.65436E-24
 -1       821 1.64884E-04 7.04398E-07 8.27181E-25
 -1       822 1.64759E-04-9.48146E-07 1.65436E-24
 -1       823 1.64635E-04-2.77609E-06 3.30872E-24
 -1       824 1.64509E-04-4.60092E-06 0.00000E+00
 -1       825 1.64384E-04-6.24512E-06-3.30872E-24
 -1       826 1.64259E-04-7.53212E-06-1.65436E-24
 -1       827 1.64134E-04-8.37531E-06-3.30872E-24
 -1       828 1.64009E-04-8.69057E-06-1.65436E-24
 -1       829 1.63885E-04-8.52669E-06 0.00000E+00
 -1       830 1.63760E-04-7.93511E-06 0.00000E+00
 -1       831 1.63635E-04-7.07496E-06 0.00000E+00
 -1       832 1.63511E-04-6.10688E-06 1.65436E-24
 -1       833 1.63386E-04-5.21871E-06 0.00000E+00
 -1       834 1.63264E-04-4.59782E-06 0.00000E+00
 -1       835 1.63140E-04-4.36449E-06 8.27181E-25
 -1       836 1.66037E-04 2.11690E-06 6.61744E-24
 -1       837 1.66955E-04 2.23247E-06 0.00000E+00
 -1       838 1.67787E-04 2.34792E-06 0.00000E+00
 -1       839 1.68563E-04 2.46271E-06 0.00000E+00
 -1       840 1.69314E-04 2.57732E-06 0.00000E+00
 -1       856 1.63006E-04-5.09491E-06 4.13590E-25
 -1       857 1.62984E-04-5.42643E-06 5.16988E-26
 -1       858 1.62962E-04-5.65108E-06 0.00000E+00
 -1       859 1.62939E-04-5.78869E-06 2.06795E-25
 -1       860 1.62917E-04-5.85914E-06 0.00000E+00
 -1       861 1.62894E-04-5.88238E-06 0.00000E+00
 -1       862 1.62871E-04-5.87839E-06 0.00000E+00
 -1       863 1.62848E-04-5.86718E-06 0.00000E+00
 -1       864 1.62826E-04-5.86876E-06-8.27181E-25
 -1       865 1.62803E-04-5.90314E-06 4.13590E-25
 -1       866 1.62780E-04-5.99030E-06 8.27181E-25
 -1       867 1.62758E-04-6.15016E-06 4.13590E-25
 -1       868 1.62735E-04-6.40259E-06-8.27181E-25
 -1       869 1.62712E-04-6.76740E-06 0.00000E+00
 -1       870 1.62689E-04-7.26425E-06 8.27181E-25
 -1       871 1.63745E-04-4.63994E-06-4.13590E-25
 -1       872 1.64599E-04-4.64606E-06 0.00000E+00
 -1       873 1.65527E-04-4.65277E-06 4.13590E-25
 -1       874 1.66468E-04-4.66016E-06-1.55096E-25
 -1       875 1.67359E-04-4.66810E-06 4.13590E-25
 -1       876 1.63314E-04-5.08186E-06 0.00000E+00
 -1       877 1.63582E-04-5.46488E-06 0.00000E+00
 -1       878 1.63831E-04-5.79330E-06 0.00000E+00
 -1       879 1.64061E-04-6.07402E-06-1.65436E-24
 -1       880 1.64277E-04-6.31394E-06 3.30872E-24
 -1       881 1.64480E-04-6.51995E-06 0.00000E+00
 -1       882 1.64672E-04-6.69892E-06 3.30872E-24
 -1       883 1.64858E-04-6.85770E-06 0.00000E+00
 -1       884 1.65038E-04-7.00314E-06 3.30872E-24
 -1       885 1.65216E-04-7.14210E-06 0.00000E+00
 -1       886 1.65393E-04-7.28142E-06 0.00000E+00
 -1       887 1.65574E-04-7.42797E-06 0.00000E+00
 -1       888 1.65759E-04-7.58862E-06-3.30872E-24
 -1       889 1.65952E-04-7.77037E-06 0.00000E+00
 -1       890 1.66155E-04-7.98003E-06-1.65436E-24
 -1       891 1.63415E-04-7.96535E-06 1.65436E-24
 -1       892 1.64144E-04-8.01810E-06 4.13590E-25
 -1       893 1.64828E-04-8.07078E-06 8.27181E-25
 -1       894 1.65441E-04-8.12327E-06 0.00000E+00
 -1       895 1.65961E-04-8.17557E-06 0.00000E+00
 -1       956 1.69952E-04 1.96344E-06-1.65436E-24
 -1       957 1.69832E-04 1.32342E-06 0.00000E+00
 -1       958 1.69711E-04 7.54225E-07 1.65436E-24
 -1       959 1.69590E-04 2.46059E-07 1.65436E-24
 -1       960 1.69469E-04-2.10895E-07-3.30872E-24
 -1       961 1.69348E-04-6.26495E-07 0.00000E+00
 -1       962 1.69227E-04-1.01060E-06 0.00000E+00
 -1       963 1.69106E-04-1.37310E-06 0.00000E+00
 -1       964 1.68985E-04-1.72386E-06 0.00000E+00
 -1       965 1.68864E-04-2.07275E-06 0.00000E+00
 -1       966 1.68743E-04-2.42967E-06-3.30872E-24
 -1       967 1.68622E-04-2.80449E-06 1.65436E-24
 -1       968 1.68501E-04-3.20706E-06 0.00000E+00
 -1       969 1.68380E-04-3.64724E-06-1.65436E-24
 -1       970 1.68260E-04-4.13484E-06 3.30872E-24
 -1       971 1.68031E-04-5.21706E-06 1.65436E-24
 -1       972 1.67920E-04-5.66471E-06-1.65436E-24
 -1       973 1.67808E-04-6.03217E-06 0.00000E+00
 -1       974 1.67697E-04-6.32980E-06 0.00000E+00
 -1       975 1.67585E-04-6.56791E-06 0.00000E+00
 -1       976 1.67473E-04-6.75687E-06-1.65436E-24
 -1       977 1.67362E-04-6.90704E-06 0.00000E+00
 -1       978 1.67250E-04-7.02881E-06 0.00000E+00
 -1       979 1.67138E-04-7.13255E-06 3.30872E-24
 -1       980 1.67027E-04-7.22865E-06-1.65436E-24
 -1       981 1.66915E-04-7.32751E-06 0.00000E+00
 -1       982 1.66804E-04-7.43951E-06 0.00000E+00
 -1       983 1.66692E-04-7.57504E-06 0.00000E+00
 -1       984 1.66581E-04-7.74447E-06 0.00000E+00
 -1       985 1.66471E-04-7.95816E-06 0.00000E+00
 -3
    1PSTEP                        18           9           1          
  100CL  109 6.18164E-01         409                     0    9           1
 -4  STRESS      6    1
 -5  SXX         1    4    1    1
 -5  SYY         1    4    2    2
 -5  SZZ         1    4    3    3
 -5  SXY         1    4    1    2
 -5  SYZ         1    4    2    3
 -5  SZX         1    4    3    1
 -1         1-4.36410E+06-1.57300E+06-9.45296E+05-1.50900E+06 8.14907E-10 3.90282E-08
 -1         2 8.43522E+05 1.40898E+07 3.29292E+06 3.30382E+06 1.26631E-07-2.53458E-08
 -1         3-9.54604E+02-1.49437E+06 3.69192E+02-1.70247E+03-6.37687E-10-1.12523E-08
 -1         5-2.56399E+01 3.46118E+05 8.90029E+00-6.23554E-01-2.87653E-10 8.72205E-09
 -1         8-5.28602E+05-2.17272E+05-2.84396E+04-3.55916E+05-2.14641E-10-1.44471E-07
 -1         9 5.79074E+06 2.46038E+06 1.64551E+06-3.14208E+05 2.65718E-08-3.88129E-08
 -1        10-1.84302E+03-1.55710E+06-3.29098E+03-1.15126E+04-1.12796E-08-4.04040E-08
 -1        12-2.20344E+01 3.46137E+05 2.89763E+02-4.44207E+00-3.13079E-10 1.84991E-08
 -1        15 1.26351E+03 6.94363E+02 4.08426E+03 1.59793E+00-8.19142E-10-2.12340E-07
 -1        16 1.19291E+07-3.90221E+05 1.68687E+06-1.29420E+06 1.26505E-08 3.98916E-08
 -1        17 4.31578E+06 2.85862E+06 1.15933E+06 2.87263E+06 1.27795E-08 2.73809E-08
 -1        18 7.77916E+04 1.61680E+04-8.49818E+03-1.03262E+05 1.37375E-08 4.12001E-09
 -1        19 1.10541E+05 1.27414E+05-8.79917E+02 2.05792E+04 8.43647E-10-3.07482E-09
 -1        20-6.81106E+04-5.20119E+05-1.16279E+05 2.62927E+04-1.94177E-10-2.98314E-09
 -1        21-4.36550E+01-2.76010E+05-8.68655E+02 1.39338E+02 7.57804E-08-4.80009E-09
 -1        24 6.98248E+06 5.87270E+06 2.05449E+06 5.41560E+06-1.22823E-07-4.68184E-08
 -1        25 1.76703E+04-1.25927E+05-8.18272E+02-4.21924E+05-7.70615E-10 2.58951E-09
 -1        26-4.82645E+04 8.26303E+04-2.21634E+04-8.93805E+02 5.86078E-10 9.64234E-09
 -1        27-7.18518E+04-2.81887E+05-1.03802E+05 6.29748E+04 4.71543E-09 2.76850E-09
 -1        28 2.09335E+04-7.87875E+04 1.57255E+04 2.04364E+04-1.65531E-09-1.49674E-08
 -1        32-1.56146E+06-2.78883E+06-1.52512E+05 6.47987E+04-3.50919E-08-5.46981E-09
 -1        33-1.63491E+05 8.32454E+04 2.92874E+04-3.61858E+04-1.89641E-09 5.60491E-09
 -1        34-2.05116E+05-2.21915E+04 6.01097E+02 6.77818E+04-2.46355E-09-6.86214E-10
 -1        35-2.14777E+04-3.12622E+04-1.24094E+03 4.80468E+04-3.97771E-10-1.72937E-08
 -1        51 4.86766E+04-2.39549E+05 1.04575E+05-5.87157E+05 1.74623E-10 4.99422E-08
 -1        52 1.74349E+04-2.22490E+05 5.62979E+04-6.84739E+05 1.74623E-10 5.84259E-09
 -1        53 4.71975E+03-2.36882E+05 3.16624E+04-5.85099E+05 4.80213E-10-7.44767E-08
 -1        54 1.03272E+04-2.33136E+05 3.06954E+04-6.86816E+05-8.00355E-11-8.55471E-08
 -1        55 2.20520E+04-2.41866E+05 4.28348E+04-5.84891E+05 1.16415E-10 2.34759E-08
 -1        56-8.13041E+06-9.27805E+05-6.98894E+05-3.18784E+06-6.67933E-09-5.79166E-08
 -1        57-8.65405E+06-1.31948E+06-4.71491E+05-2.88306E+06 1.84355E-08 1.43424E-07
 -1        58-8.25861E+06-1.16159E+06-1.63993E+05-3.15674E+06 1.71349E-09-2.44399E-08
 -1        59-8.47899E+06-1.06841E+06-9.75437E+04-2.94546E+06 2.32935E-08-2.22084E-07
 -1        60-8.30181E+06-1.17219E+06-3.88987E+04-3.12674E+06-3.84643E-08-6.91634E-08
 -1        61-8.38713E+06-1.09482E+06-2.06097E+04-3.02145E+06-1.98270E-10 1.30702E-07
 -1        62-8.34691E+06-1.13622E+06-1.17016E+04-3.07878E+06 2.50839E-09-1.26265E-07
 -1        63-8.30155E+06-1.17257E+06-7.43195E+03-3.11835E+06 3.71074E-09-5.30781E-09
 -1        64-8.38711E+06-1.09445E+06-1.04841E+04-3.02977E+06-1.28621E-08 2.87546E-08
 -1        65-8.24546E+06-1.24031E+06-1.92128E+04-3.19693E+06-3.16868E-08-1.13646E-07
 -1        66-8.40600E+06-1.06657E+06-3.43478E+04-3.00228E+06 2.64472E-08-1.42791E-09
 -1        67-8.25070E+06-1.29142E+06-8.78516E+04-3.21439E+06-2.34477E-08-9.75560E-08
 -1        68-8.38373E+06-1.04334E+06-1.47553E+05-3.01308E+06-1.09612E-08-4.28481E-08
 -1        69-8.42417E+06-1.49476E+06-4.22913E+05-3.12748E+06-4.45107E-09-4.58967E-08
 -1        70-8.23253E+06-8.71565E+05-6.28800E+05-3.08567E+06 7.67614E-09-5.62868E-08
 -1        86-7.09179E+05-1.00936E+07-1.71142E+06-1.59476E+06-2.97496E-09 2.76850E-08
 -1        87 8.52257E+05 4.76464E+06 1.49506E+06 2.94825E+06-1.06666E-08 3.82788E-08
 -1        88 1.35733E+04-1.46233E+06 1.34313E+05-1.33352E+06 8.29451E-08 2.81252E-08
 -1        89 1.35831E+06 4.75933E+06 1.59617E+06 3.03079E+06-8.86721E-08 2.51189E-08
 -1        90-1.19477E+06-1.01047E+07-1.80875E+06-1.68224E+06 9.00254E-08-5.64978E-08
 -1       121-1.32160E+03-1.49760E+06-2.26359E+02 8.46226E+02 1.00860E-09-2.04091E-09
 -1       122-7.99955E+02-1.49438E+06 7.34458E+02-3.40378E+03-4.69153E-09-2.40761E-08
 -1       123-1.36354E+03-1.49771E+06 5.78665E+02 2.52772E+03 3.22007E-09-1.40062E-08
 -1       124 7.04082E+02-1.49380E+06 2.91275E+03-7.14379E+03-8.05812E-09-6.15728E-09
 -1       125-2.18541E+03-1.49854E+06 3.79607E+03 4.56331E+03 5.35510E-09-5.71163E-09
 -1       191-2.72038E+01 3.46144E+05 9.66647E+00 3.17651E-01-3.21666E-10-1.58616E-09
 -1       192-2.64702E+01 3.46119E+05 1.88913E+01-2.20337E+00-3.92429E-10 1.92358E-09
 -1       193-2.94046E+01 3.46143E+05 3.41870E+01 1.92260E+00-6.32731E-10-1.39025E-08
 -1       194-2.91389E+01 3.46122E+05 7.15685E+01-5.07593E+00-3.37291E-10-4.01669E-08
 -1       195-3.36319E+01 3.46141E+05 1.39041E+02 3.23582E+00-8.67889E-10-1.15451E-08
 -1       251-1.08383E+05-1.95349E+04 4.44678E+04 2.15843E+03 1.54068E-09-4.68845E-08
 -1       252-8.17106E+04 2.25231E+04 3.27157E+04-1.05876E+04 3.60205E-09-8.89522E-08
 -1       253-9.99865E+04-3.09146E+03 1.13288E+04 2.99801E+03-3.67220E-09-1.83277E-07
 -1       254-9.22775E+04 3.58457E+03 7.93025E+03-1.21328E+04 3.16777E-09-5.61366E-08
 -1       255-9.79860E+04-5.40962E+02 2.94229E+03 3.70296E+03 2.29750E-09 4.46025E-08
 -1       256-9.52100E+04 7.65965E+02 2.37437E+03-1.33344E+04 4.85215E-10 1.63299E-07
 -1       257-9.71984E+04-1.78587E+02 1.39857E+03 4.20040E+03-3.00491E-09 5.15007E-08
 -1       258-9.63473E+04 6.45706E+02 2.09796E+03-1.40973E+04 2.10036E-11 1.27041E-08
 -1       259-9.69488E+04-3.49447E+02 3.09941E+03 4.46713E+03 4.25626E-09-4.18863E-08
 -1       260-9.58880E+04 2.36046E+03 6.80004E+03-1.43895E+04-6.21749E-09-1.47113E-07
 -1       261-9.76986E+04-1.85906E+03 1.16303E+04 4.49339E+03 1.67201E-09 6.43063E-08
 -1       262-9.00518E+04 1.37239E+04 2.85175E+04-1.41746E+04 4.45027E-10-1.06515E-07
 -1       263-1.02757E+05-1.16943E+04 4.54526E+04 4.25211E+03 3.88607E-09 5.99957E-08
 -1       264-5.50145E+04 8.71909E+04 1.24221E+05-1.33562E+04 5.85692E-09 1.64913E-07
 -1       265-1.32597E+05-7.51310E+04 1.75689E+05 3.67501E+03 1.36119E-08 2.00162E-08
 -1       266-2.28737E+04-1.06960E+04 5.36671E+04-3.41901E+01-6.91216E-10-2.08925E-07
 -1       267 2.65169E+04 1.24660E+04 3.79317E+04 3.94493E+01-9.82709E-10-4.13996E-07
 -1       268-3.55587E+03-1.76555E+03 1.40990E+04-5.02649E+00-7.17591E-10-3.35009E-07
 -1       269 4.19843E+03 2.11297E+03 9.16415E+03 5.85514E+00-6.92921E-10-2.07824E-07
 -1       270-6.30190E+02-3.47178E+02 4.42366E+03-7.94583E-01-5.65592E-10-9.66968E-08
 -1       271-2.18008E+06-2.71327E+05-1.66829E+05-8.45724E+05-3.09342E-10 6.55637E-08
 -1       272-2.21472E+06-4.12103E+05-1.06428E+05-8.67356E+05 2.09993E-08-2.36905E-08
 -1       273-2.21410E+06-3.09507E+05-3.97742E+04-8.35223E+05-6.91034E-09 3.27418E-11
 -1       274-2.17444E+06-3.66406E+05-2.17156E+04-8.85451E+05 5.62795E-09 1.32723E-08
 -1       275-2.22123E+06-3.10683E+05-9.47762E+03-8.30825E+05-4.62751E-09 3.30110E-08
 -1       276-2.16584E+06-3.65978E+05-4.65794E+03-8.94256E+05 1.71103E-08 6.11676E-08
 -1       277-2.22435E+06-3.08301E+05-2.49116E+03-8.27844E+05-2.05346E-08 6.33459E-08
 -1       278-2.16243E+06-3.69314E+05-1.47884E+03-9.00178E+05 4.05271E-09-1.86560E-09
 -1       279-2.22610E+06-3.06380E+05-1.55880E+03-8.25936E+05-1.31849E-08-7.44711E-08
 -1       280-2.16108E+06-3.71804E+05-2.59159E+03-9.03479E+05-3.60524E-09 2.17375E-07
 -1       281-2.22661E+06-3.05262E+05-4.67191E+03-8.25154E+05 1.39053E-08 1.26405E-07
 -1       282-2.16295E+06-3.75283E+05-1.11798E+04-9.03668E+05 1.36162E-08 7.57541E-09
 -1       283-2.22445E+06-3.03068E+05-1.99062E+04-8.25771E+05-6.32326E-09 3.22234E-08
 -1       284-2.18138E+06-4.00792E+05-5.41820E+04-8.97274E+05-2.41868E-08 8.06904E-08
 -1       285-2.20801E+06-2.82829E+05-8.44148E+04-8.30176E+05 2.06535E-09 2.84999E-08
 -1       301 1.43510E+04-4.11742E+05 1.68803E+05-7.51017E+05-7.47241E-09 1.58929E-07
 -1       302 1.50003E+04-3.68145E+05 1.04346E+05-1.09799E+06-5.10045E-09-1.81317E-08
 -1       303-5.74720E+03-3.97056E+05 6.71075E+04-7.49189E+05-4.60932E-09 3.66090E-08
 -1       304 5.68687E+03-3.69653E+05 8.17245E+04-1.09722E+06-1.96305E-08 6.52690E-08
 -1       305 2.42589E+03-3.99246E+05 1.17998E+05-7.51653E+05 1.17716E-08 4.01487E-08
 -1       306-2.01606E+07-3.79859E+06-5.11351E+06-1.64987E+06-6.06524E-08-6.24859E-08
 -1       307 1.37508E+07-3.31714E+04 3.12346E+06-9.44191E+06-6.36923E-07 1.18278E-07
 -1       308-7.97275E+06 9.89970E+03-3.88859E+05 2.99068E+06-2.09780E-07 3.09305E-07
 -1       309-2.98781E+06 1.94371E+06 1.07976E+06-1.47803E+07 2.06688E-07 3.79514E-08
 -1       310-9.93808E+06-3.22230E+05-8.79188E+05 2.71062E+06 1.13389E-07-1.74266E-07
 -1       311 1.83077E+07-1.09483E+06 3.91942E+06-6.63941E+06 3.74566E-07-4.94183E-08
 -1       312-2.07533E+07-4.01480E+06-4.71396E+06-3.34074E+06 3.84171E-09 8.54197E-08
 -1       313 2.50260E+07 6.36521E+06 6.12724E+06 1.13926E+07 1.04075E-07 1.08281E-07
 -1       314-1.36547E+07-9.63883E+06-4.31851E+06-8.39583E+06 3.44997E-07-8.38190E-09
 -1       315-2.25026E+06 1.55978E+07 3.32057E+06 7.49186E+06-4.07999E-07-2.08995E-07
 -1       316-1.11347E+06-7.07366E+06-3.40219E+05-4.11242E+06-9.26695E-07-2.19763E-07
 -1       317-1.53609E+07 1.42301E+07 1.05278E+06-2.60613E+06 5.88683E-07-5.25353E-07
 -1       318-2.17936E+06-7.77430E+06-9.41641E+05-4.63302E+06-5.88858E-07 3.96685E-08
 -1       319 1.42301E+06 1.60948E+07 3.64543E+06 9.09722E+06-1.60675E-07 8.71951E-08
 -1       320-1.55998E+07-9.85025E+06-5.64618E+06-8.26783E+06 1.32946E-07-4.33793E-08
 -1       336-3.43604E+01-1.62120E+06-1.19038E+04 6.86211E+03-2.17233E-08-1.37443E-08
 -1       337-4.58109E+03-1.62186E+06-1.51497E+04-1.66440E+04-4.04784E-08-1.14960E-09
 -1       338 5.37623E+02-1.62090E+06-2.29495E+04 9.64774E+03-2.79215E-08 1.32059E-09
 -1       339-2.43788E+04-1.63524E+06-5.18002E+04-2.20859E+04-4.97321E-08 2.13331E-08
 -1       340 1.62174E+04-1.60919E+06-8.12752E+04 1.22185E+04-3.32766E-08 3.25635E-08
 -1       406-8.46810E-01 3.46128E+05 5.71062E+02 1.32924E+00-9.94621E-10-1.44537E-08
 -1       407 1.77539E+02 3.46237E+05 1.21582E+03 1.46151E+01-1.29425E-10-2.44254E-08
 -1       408 6.03172E+02 3.46040E+05 2.42694E+03-1.63183E+01-1.39727E-09-2.25900E-08
 -1       409 2.60517E+03 3.47013E+05 5.46568E+03 1.68206E+02-2.42380E-10-1.93359E-08
 -1       410 7.52447E+03 3.45347E+05 1.11570E+04-1.60675E+02-1.80080E-09-2.20671E-08
 -1       521-2.21155E+07-4.73861E+06-6.13406E+06-1.51422E+06-8.16071E-08-9.44128E-08
 -1       522 1.45926E+07 1.96498E+05 3.25729E+06-1.19966E+07-4.19735E-07-3.18571E-07
 -1       523-9.06627E+06-1.70520E+05-4.27111E+05 3.43501E+06 1.16008E-07-2.27337E-07
 -1       524-5.26861E+06 3.47746E+06 1.21724E+06-1.77014E+07 6.46614E-07-2.22877E-07
 -1       525-1.12192E+07-6.37296E+05-1.00202E+06 3.13305E+06 3.80271E-07-1.36220E-07
 -1       526 2.03592E+07-1.26666E+06 4.24821E+06-8.66369E+06-1.13272E-07-1.22469E-07
 -1       527-2.28407E+07-5.10915E+06-5.56426E+06-3.39795E+06-1.74856E-07 4.31319E-08
 -1       528 2.81156E+07 7.09988E+06 6.58706E+06 1.32112E+07-3.39001E-07 5.58211E-08
 -1       529-1.49600E+07-1.13435E+07-5.08733E+06-8.94873E+06 6.82776E-08 6.11180E-09
 -1       530-4.07594E+06 1.88045E+07 3.62469E+06 7.87762E+06 4.05344E-08 4.58414E-07
 -1       531-1.30919E+06-8.29078E+06-3.62571E+05-4.54165E+06-5.42175E-07 1.32597E-07
 -1       532-1.85848E+07 1.66877E+07 1.21070E+06-4.84956E+06 4.46191E-07-5.93656E-07
 -1       533-2.37881E+06-9.01830E+06-1.01912E+06-5.02010E+06-8.23056E-08-7.34028E-07
 -1       534-1.57625E+05 1.93642E+07 3.92765E+06 9.77160E+06-1.47367E-07 5.45959E-07
 -1       535-1.70067E+07-1.16438E+07-6.57789E+06-8.79659E+06 1.24564E-08 3.53233E-07
 -1       536-6.03222E+05-3.97101E+04-1.33007E+04-4.09670E+04-5.15729E-09 4.46034E-08
 -1       537-1.55299E+05 3.94707E+04 7.01518E+04 9.68824E+04-8.94933E-08 7.90224E-08
 -1       538-3.89204E+05 1.10140E+03 7.44540E+03-5.81808E+04 2.58890E-08 9.96570E-08
 -1       539-3.04316E+05 2.92546E+03 1.96678E+04 1.10453E+05 1.35488E-07 9.05072E-08
 -1       540-4.57837E+05-1.79846E+02-1.29718E+04-5.48294E+04 2.69717E-08 1.00763E-07
 -1       541-2.18453E+04 1.15389E+04 7.28035E+04 7.48895E+04-2.59307E-08 8.82178E-08
 -1       542-6.64092E+05-1.37926E+04-5.70475E+04-2.21395E+04 3.84639E-08 4.89908E-08
 -1       543 1.52901E+05 1.86098E+04 1.07078E+05-1.10801E+04-3.65153E-08-1.07375E-08
 -1       544-6.27922E+05-1.10892E+04-5.05884E+04 3.07662E+04-2.30266E-08-3.51189E-08
 -1       545-1.05410E+05 5.97065E+03 5.28955E+04-8.89596E+04 1.96120E-08-6.25499E-08
 -1       546-4.12672E+05 4.52420E+03-8.71853E+03 5.55583E+04 1.92319E-08-7.06051E-08
 -1       547-3.18099E+05-4.59640E+03 4.63978E+03-1.12938E+05-8.41674E-08-1.21342E-07
 -1       548-4.20903E+05 4.17704E+03-1.97746E+04 5.51244E+04-8.55018E-08-8.95711E-08
 -1       549-8.96433E+04 4.10846E+03 3.19281E+04-8.62306E+04-5.49908E-08-4.98599E-08
 -1       550-6.34986E+05-9.27290E+03-1.01271E+05 2.84509E+04 7.16955E-09-2.24500E-08
 -1       551 3.27331E+04-7.25857E+05 2.83198E+03-1.15653E+06-8.41901E-08 2.25555E-08
 -1       552 7.38200E+04-7.57675E+05 2.03190E+04-1.64883E+06-5.85424E-08 3.06536E-08
 -1       553 5.56413E+04-7.58096E+05 3.88741E+04-1.15104E+06-1.00728E-07 3.08355E-08
 -1       554 1.07856E+05-7.66158E+05 8.88297E+04-1.65075E+06-6.50107E-08 1.45737E-08
 -1       555 8.49904E+04-7.79882E+05 1.59761E+05-1.15128E+06-9.98334E-08-9.40781E-09
 -1       556 1.80801E+05-3.18268E+05 4.61305E+04-3.57508E+05-1.99798E-08-3.02389E-08
 -1       557 2.94898E+05-4.10001E+05 2.58763E+04-4.58471E+05 1.68802E-09-7.73070E-10
 -1       558 1.69124E+05-3.17635E+05 7.85493E+03-3.56801E+05-1.32422E-08 1.36861E-08
 -1       559 2.74232E+05-4.13998E+05 4.77820E+03-4.73343E+05 1.74623E-08-9.12405E-09
 -1       560 1.58426E+05-3.10876E+05 4.33059E+02-3.64352E+05 3.28873E-09 1.20999E-08
 -1       561 2.60507E+05-4.08722E+05 8.11381E+02-4.82558E+05 1.81899E-10-1.10449E-08
 -1       562 1.49996E+05-3.05591E+05-5.18225E+02-3.70422E+05 1.19326E-09-2.56659E-09
 -1       563 2.50542E+05-4.04375E+05 1.68650E+02-4.89028E+05-4.32919E-09 3.86535E-10
 -1       564 1.44105E+05-3.01907E+05-2.72846E+02-3.74586E+05 5.84987E-09-9.56288E-09
 -1       565 2.44150E+05-4.01594E+05 8.09300E+01-4.93101E+05 7.66886E-09 2.01635E-09
 -1       566 1.40844E+05-2.99837E+05-1.24691E+02-3.76870E+05-7.80710E-09-9.31504E-09
 -1       567 2.41341E+05-4.00368E+05-2.36724E+02-4.94772E+05 1.15979E-08 7.05404E-09
 -1       568 1.40280E+05-2.99500E+05-8.01175E+02-3.77360E+05-3.91537E-10 9.09131E-09
 -1       569 2.40927E+05-4.00342E+05-2.02202E+03-4.93126E+05-5.23869E-10 6.03904E-10
 -1       570 1.43354E+05-3.02273E+05-4.48865E+03-3.76566E+05 6.71571E-09-2.82853E-10
 -1       571 2.61452E+05 9.49969E+03 1.37473E+04-7.91464E+04 2.71029E-09-3.17732E-09
 -1       572 2.63465E+05 3.47784E+03 6.73651E+03-8.68286E+04 1.04410E-09-1.63309E-08
 -1       573 2.62256E+05 1.00053E+03 2.99310E+03-7.89903E+04-7.17591E-10-4.02451E-09
 -1       574 2.62470E+05 5.08350E+02 1.50055E+03-8.70199E+04-3.19051E-09-1.06838E-08
 -1       575 2.62344E+05 2.67430E+02 7.08026E+02-7.89692E+04-2.91141E-09 3.73529E-09
 -1       576 2.62342E+05 2.64100E+02 3.62049E+02-8.70454E+04-6.58883E-09-2.51202E-09
 -1       577 2.62374E+05 2.18637E+02 1.80504E+02-7.89663E+04-2.39970E-09 1.52158E-09
 -1       578 2.62356E+05 2.36917E+02 1.03426E+02-8.70488E+04-2.59297E-09 7.16318E-09
 -1       579 2.62422E+05 1.95732E+02 7.06032E+01-7.89660E+04 4.80486E-09 1.88265E-10
 -1       580 2.62424E+05 2.04094E+02 8.01851E+01-8.70445E+04-7.23412E-09-3.66890E-09
 -1       581 2.62498E+05 1.58577E+02 1.21276E+02-7.89709E+04 5.05861E-09-4.70664E-09
 -1       582 2.62547E+05 1.88083E+02 2.44443E+02-8.69934E+04 3.68163E-09-6.47196E-09
 -1       583 2.62589E+05 2.14081E+02 4.71350E+02-7.90175E+04-3.69255E-10 8.36735E-11
 -1       584 2.62836E+05 5.94744E+02 1.06396E+03-8.66016E+04 3.21688E-09-1.33427E-08
 -1       585 2.62578E+05 1.50740E+03 2.15787E+03-7.93624E+04-1.39153E-09-6.58474E-09
 -1       586-3.15073E+03 9.77179E+04-3.15248E+03-2.29010E+05-3.40560E-09 1.54678E-08
 -1       587-1.03405E+03 9.73934E+04 3.97820E+02-2.52057E+05-7.17955E-09 4.69023E-08
 -1       588 5.75315E+02 9.73055E+04 4.07695E+03-2.28893E+05-2.81216E-09 1.77442E-08
 -1       589 4.75922E+03 9.94537E+04 1.08373E+04-2.51819E+05-2.78669E-09-6.45741E-09
 -1       590 1.49184E+04 9.61215E+04 2.28369E+04-2.29286E+05-4.10819E-09 6.84850E-09
 -1       591-6.18767E+04-1.40514E+04-1.94991E+04-2.73906E+04-6.08497E-09 1.14233E-08
 -1       592-6.51328E+04-1.74133E+04-1.05621E+04-3.08500E+04-1.62534E-08-7.98809E-09
 -1       593-6.38290E+04-1.26342E+04-4.39659E+03-2.88182E+04-1.11033E-08-3.05158E-09
 -1       594-6.24367E+04-1.45562E+04-2.19273E+03-3.09570E+04-4.98108E-09 1.14387E-08
 -1       595-6.39779E+04-1.26293E+04-1.00687E+03-2.88831E+04-7.18808E-09 1.78933E-09
 -1       596-6.22524E+04-1.44256E+04-5.11992E+02-3.09355E+04-1.14375E-08 1.18548E-08
 -1       597-6.39966E+04-1.26425E+04-2.79091E+02-2.88855E+04-3.27918E-09 8.25213E-09
 -1       598-6.22343E+04-1.44205E+04-2.24904E+02-3.09294E+04-2.73621E-09-1.19513E-09
 -1       599-6.39955E+04-1.26429E+04-2.87966E+02-2.88852E+04 1.42006E-09 2.39152E-09
 -1       600-6.22527E+04-1.44263E+04-5.35492E+02-3.09339E+04 1.41335E-09-5.76017E-09
 -1       601-6.39736E+04-1.26301E+04-1.05668E+03-2.88820E+04 3.37445E-09-2.75281E-09
 -1       602-6.24461E+04-1.45627E+04-2.30308E+03-3.09532E+04-4.79019E-09 6.46492E-09
 -1       603-6.38148E+04-1.26378E+04-4.61870E+03-2.88144E+04-3.50155E-10 8.91987E-09
 -1       604-6.52936E+04-1.75471E+04-1.10951E+04-3.08192E+04 4.69186E-10-2.10753E-09
 -1       605-6.17462E+04-1.41421E+04-2.04832E+04-2.73316E+04 1.97201E-09 5.73527E-09
 -1       606 2.68521E+04-1.27504E+04-2.28781E+04 2.48872E+04 5.36875E-09-2.61480E-10
 -1       607 2.29410E+04-4.15328E+03-1.13929E+04 2.79555E+04 2.41653E-09-1.59259E-08
 -1       608 2.51669E+04-7.38978E+02-5.10070E+03 2.47023E+04-1.02227E-09-1.02668E-08
 -1       609 2.47360E+04-2.40237E+02-2.57657E+03 2.81761E+04-1.04774E-09 5.23187E-09
 -1       610 2.49723E+04-2.08920E+01-1.22970E+03 2.46809E+04 1.34514E-09 1.54762E-08
 -1       611 2.49010E+04-1.67637E+01-6.19994E+02 2.82001E+04 1.03455E-09 6.29780E-09
 -1       612 2.49266E+04-6.33476E+00-2.95150E+02 2.46787E+04-2.47019E-09-1.17711E-09
 -1       613 2.49075E+04-1.09432E+01-1.32591E+02 2.82029E+04-1.27329E-10-1.23200E-08
 -1       614 2.49038E+04-1.01353E+01-3.21037E+01 2.46780E+04 2.15459E-09 1.62363E-08
 -1       615 2.48997E+04-7.91906E+00 5.32835E+01 2.82033E+04 1.14142E-09 4.14684E-09
 -1       616 2.48862E+04-5.95501E+00 1.61859E+02 2.46783E+04-3.38787E-10 9.23706E-09
 -1       617 2.49169E+04 2.79685E+01 3.70193E+02 2.82028E+04 9.99535E-10 1.15463E-08
 -1       618 2.48523E+04 1.01836E+02 7.46461E+02 2.46785E+04 5.14774E-10-1.06456E-09
 -1       619 2.51790E+04 6.06009E+02 1.67646E+03 2.82021E+04-9.27912E-10 1.38543E-08
 -1       620 2.46035E+04 1.87268E+03 3.36967E+03 2.46788E+04 1.32150E-09 2.25100E-10
 -1       621 3.87543E+02 2.69126E+05 3.21839E+03 3.00313E+04 5.41149E-10-2.54749E-09
 -1       622 4.97685E+02 2.69890E+05 2.91585E+03 4.36327E+04 8.29004E-10 1.15688E-08
 -1       623 7.50493E+01 2.69296E+05 3.58448E+03 2.98928E+04 7.43285E-10 1.70694E-08
 -1       624 1.78009E+03 2.71006E+05 7.01293E+03 4.37706E+04 9.29532E-10 2.79670E-10
 -1       625 1.76285E+03 2.67910E+05 1.22863E+04 2.98900E+04 1.02045E-09 4.66684E-09
 -1       626 2.35309E+05 5.77541E+04 4.84098E+03 1.17255E+05 1.48020E-09 8.92942E-09
 -1       627 2.32985E+05 5.92078E+04 2.33280E+03 1.21440E+05-5.12955E-10 1.46009E-08
 -1       628 2.35438E+05 5.55274E+04 9.86274E+02 1.18062E+05-7.22775E-09 3.75303E-09
 -1       629 2.32367E+05 5.85803E+04 4.82760E+02 1.21681E+05-6.99765E-09 9.26079E-09
 -1       630 2.35451E+05 5.54206E+04 2.23637E+02 1.18094E+05 4.32010E-10 9.41060E-09
 -1       631 2.32299E+05 5.85582E+04 1.19967E+02 1.21683E+05 9.90644E-09 1.79925E-08
 -1       632 2.35445E+05 5.54257E+04 7.82855E+01 1.18089E+05 1.13332E-08-6.97298E-09
 -1       633 2.32289E+05 5.85612E+04 8.61828E+01 1.21677E+05 3.48291E-09-7.34576E-09
 -1       634 2.35439E+05 5.54243E+04 1.38364E+02 1.18087E+05-4.33613E-09-1.57904E-08
 -1       635 2.32300E+05 5.85606E+04 2.79449E+02 1.21681E+05-1.27353E-09 4.15866E-10
 -1       636 2.35429E+05 5.54201E+04 5.64066E+02 1.18085E+05-5.78325E-10-4.87671E-09
 -1       637 2.32421E+05 5.86487E+04 1.23991E+03 1.21679E+05-3.05761E-09-1.25237E-08
 -1       638 2.35384E+05 5.56945E+04 2.54762E+03 1.17961E+05-3.03908E-09-6.27642E-09
 -1       639 2.33758E+05 6.05097E+04 6.02749E+03 1.21284E+05 3.19892E-09 9.71568E-10
 -1       640 2.35201E+05 6.12494E+04 1.25081E+04 1.15616E+05-2.03909E-09-1.33468E-10
 -1       656 6.07358E+04-1.55051E+06-1.46616E+05-1.63312E+03-2.32831E-10-3.92779E-09
 -1       657-8.03298E+04-1.61675E+06-1.21420E+05 6.19459E+03-5.46606E-10-3.02197E-09
 -1       658 1.93426E+04-1.56934E+06-7.47287E+04-3.43065E+03 1.35515E-10-2.64998E-09
 -1       659-8.67231E+04-1.61978E+06-1.29820E+05 7.61163E+03-1.24419E-09 1.98405E-08
 -1       660 6.71146E+04-1.54749E+06-1.61059E+05-3.05014E+03-1.17871E-09 1.55018E-08
 -1       661 1.60901E+05 1.70534E+04 1.65024E+04 6.29088E+04-9.83619E-10 1.61090E-08
 -1       662 1.70041E+05 2.94612E+04 1.11210E+04 5.94236E+04 1.19030E-09 7.31438E-09
 -1       663 1.64141E+05 2.23486E+04 3.88968E+03 6.19694E+04-2.31864E-09-2.62480E-09
 -1       664 1.66286E+05 2.32674E+04 2.32645E+03 6.05698E+04-6.43024E-09-7.79789E-09
 -1       665 1.64631E+05 2.30731E+04 9.17776E+02 6.18277E+04-1.34452E-09-9.64110E-09
 -1       666 1.65707E+05 2.24377E+04 5.36667E+02 6.07540E+04 5.46042E-09 1.67878E-08
 -1       667 1.64716E+05 2.31566E+04 2.84640E+02 6.17932E+04 1.89004E-11-1.81588E-09
 -1       668 1.65614E+05 2.23763E+04 2.89043E+02 6.08041E+04 1.93040E-10-1.02657E-08
 -1       669 1.64724E+05 2.31328E+04 3.90531E+02 6.17780E+04-3.33100E-09 4.45502E-09
 -1       670 1.65710E+05 2.25872E+04 8.49634E+02 6.08063E+04-5.27795E-09-1.76442E-10
 -1       671 1.64621E+05 2.29500E+04 1.50834E+03 6.17891E+04-1.54942E-09-1.92588E-08
 -1       672 1.66589E+05 2.40544E+04 3.85886E+03 6.05934E+04 3.31130E-09-1.70585E-08
 -1       673 1.63849E+05 2.17026E+04 6.46675E+03 6.19767E+04 1.29717E-09-1.67802E-10
 -1       674 1.72745E+05 3.44430E+04 1.84935E+04 5.87841E+04-1.24396E-09 1.21145E-08
 -1       675 1.58505E+05 1.28523E+04 2.74507E+04 6.34891E+04-2.34922E-09-2.60115E-10
 -1       676 2.25761E+01-2.75937E+05-1.04696E+03-6.96706E+01 5.81139E-10-1.08972E-09
 -1       677-2.77736E+02-2.76190E+05-1.91609E+03 1.39241E+02 4.61310E-09-6.84009E-09
 -1       678 1.85650E+02-2.75757E+05-3.38717E+03-6.95239E+01 1.22782E-10-7.10976E-10
 -1       679-3.38793E+03-2.78235E+05-8.04643E+03 1.38679E+02 4.00541E-09-1.36253E-08
 -1       680 2.02219E+03-2.73894E+05-1.29681E+04-6.83338E+01 2.92857E-10-1.02707E-08
 -1       771-2.88473E+06-6.56640E+05-1.25644E+05-1.34448E+06-3.22761E-08-2.50584E-08
 -1       772-2.82307E+06-7.31339E+05-6.51595E+04-1.43039E+06-2.43454E-08 1.61453E-08
 -1       773-2.90828E+06-6.38153E+05-3.23987E+04-1.35430E+06-1.16706E-08 1.12777E-08
 -1       774-2.81381E+06-7.17671E+05-1.46282E+04-1.44882E+06 2.40398E-08-6.01722E-09
 -1       775-2.91974E+06-6.30074E+05-1.03985E+04-1.35864E+06-1.94996E-09 3.01225E-09
 -1       776-2.82145E+06-7.15981E+05-3.97798E+03-1.46227E+06-6.15546E-09 5.10772E-09
 -1       777-2.92948E+06-6.22995E+05-4.40140E+03-1.36246E+06-3.63798E-10 4.19095E-09
 -1       778-2.82956E+06-7.14494E+05-1.27538E+03-1.47377E+06 4.70027E-09 7.36873E-09
 -1       779-2.93777E+06-6.16870E+05-2.13958E+03-1.36572E+06-6.28643E-09 1.45155E-09
 -1       780-2.83667E+06-7.13071E+05-3.60627E+02-1.48311E+06-6.46833E-09-8.00355E-11
 -1       781-2.94431E+06-6.11963E+05-8.12262E+02-1.36828E+06-2.92057E-08-4.53656E-09
 -1       782-2.84213E+06-7.11845E+05 3.09342E+02-1.49000E+06-2.98096E-08-6.16637E-10
 -1       783-2.94889E+06-6.08579E+05 4.93913E+02-1.37007E+06-5.96629E-09-1.25019E-08
 -1       784-2.84509E+06-7.10498E+05 1.98330E+03-1.49424E+06-1.58434E-08 2.84672E-10
 -1       785-2.95160E+06-6.06566E+05 3.50689E+03-1.37124E+06-2.99442E-08 7.08314E-09
 -1       786 1.22452E+05-9.34183E+03 2.16124E+04-2.31375E+02-2.17884E-10 1.78588E-08
 -1       787 1.31825E+05 1.08152E+04 1.52900E+04-5.92127E+01 4.46665E-09 2.27692E-08
 -1       788 1.26066E+05-1.46413E+03 5.59187E+03-2.00643E+02 2.23701E-09 9.73705E-09
 -1       789 1.27615E+05 1.69422E+03 3.51078E+03-1.07372E+02-5.13511E-10 6.88715E-10
 -1       790 1.26663E+05-2.28227E+02 1.42234E+03-1.83228E+02-3.10651E-09 1.35471E-08
 -1       791 1.26917E+05 2.63796E+02 8.23261E+02-1.37382E+02-4.13068E-09 1.23786E-08
 -1       792 1.26764E+05-3.47787E+01 3.52347E+02-1.70634E+02-2.52130E-09 7.13756E-09
 -1       793 1.26797E+05 3.79842E+01 1.83305E+02-1.61053E+02-8.56422E-11-1.94309E-08
 -1       794 1.26782E+05-2.55901E+00 6.30076E+01-1.59557E+02 2.71588E-09 8.78941E-10
 -1       795 1.26768E+05-1.33631E+01-1.40247E+01-1.84064E+02-3.70770E-09 1.65889E-08
 -1       796 1.26793E+05 1.65408E+01-8.46161E+01-1.47622E+02 2.13428E-09-3.10613E-09
 -1       797 1.26712E+05-1.26099E+02-2.52114E+02-2.11285E+02 3.85849E-09-1.48603E-09
 -1       798 1.26838E+05 1.10092E+02-4.14911E+02-1.32336E+02 1.84971E-09 4.04469E-09
 -1       799 1.26395E+05-8.12323E+02-1.14626E+03-2.48602E+02 4.13011E-09 8.50372E-09
 -1       800 1.27110E+05 7.02200E+02-1.62353E+03-1.10306E+02-8.80558E-11 1.29314E-08
 -1       801-4.14501E+04-7.44905E+06-9.67089E+05 8.33029E+05 7.25558E-08-5.99102E-08
 -1       802 3.55144E+05 1.98667E+06 1.18663E+06-9.72674E+05 2.03057E-07-2.14181E-08
 -1       803-3.04003E+05-9.75272E+06-1.12223E+06 5.37633E+05 6.43886E-08 1.92485E-08
 -1       804 1.34567E+05-2.54121E+05 8.35720E+05 4.75386E+05-8.54761E-08-6.01547E-08
 -1       805 1.34441E+05-5.22274E+06-1.76743E+05-6.11821E+05-3.52848E-08-4.25798E-08
 -1       806-2.81915E+05-5.38624E+04-2.06617E+04-1.10920E+05 1.14869E-09-1.69302E-09
 -1       807-2.83648E+05-5.03813E+04-1.01509E+04-1.15804E+05 9.85619E-09-1.33662E-08
 -1       808-2.82474E+05-4.64248E+04-4.30640E+03-1.14450E+05-1.16584E-08 8.10815E-10
 -1       809-2.81519E+05-4.75246E+04-2.10575E+03-1.16049E+05-2.25143E-08 2.77782E-09
 -1       810-2.82559E+05-4.61657E+04-9.65143E+02-1.14607E+05-2.79488E-09 1.24401E-08
 -1       811-2.81355E+05-4.74093E+04-4.79957E+02-1.16017E+05-4.53815E-09-1.46666E-08
 -1       812-2.82573E+05-4.61876E+04-2.42667E+02-1.14607E+05-2.11821E-09-5.51881E-09
 -1       813-2.81334E+05-4.74108E+04-1.57662E+02-1.16001E+05-2.12822E-09-7.13703E-09
 -1       814-2.82568E+05-4.61957E+04-1.56061E+02-1.14604E+05-8.64020E-11-7.63748E-09
 -1       815-2.81338E+05-4.74125E+04-2.51488E+02-1.15996E+05-5.55701E-10-1.54475E-08
 -1       816-2.82550E+05-4.61941E+04-4.76468E+02-1.14601E+05 5.46879E-09 1.45842E-08
 -1       817-2.81420E+05-4.74577E+04-1.02286E+03-1.15987E+05-6.67524E-09 1.03219E-08
 -1       818-2.82490E+05-4.63373E+04-2.08609E+03-1.14534E+05 3.42880E-10 4.04088E-09
 -1       819-2.82562E+05-4.87192E+04-4.90894E+03-1.15720E+05 8.57335E-09-1.47741E-08
 -1       820-2.82101E+05-5.00416E+04-9.99120E+03-1.12946E+05 3.15322E-09-1.96724E-09
 -1       821-3.47377E+05 1.91555E+04-4.43296E+04 1.01504E+03 7.48298E-09 9.42964E-09
 -1       822-3.66476E+05-2.21764E+04-3.13503E+04-1.86425E+03 4.65192E-10 2.89810E-08
 -1       823-3.54723E+05 3.00525E+03-1.14766E+04 1.30235E+03-5.25352E-09 1.61117E-09
 -1       824-3.57842E+05-3.47498E+03-7.21446E+03-1.85018E+03 4.22235E-10-1.26312E-08
 -1       825-3.56007E+05 4.68261E+02-2.97881E+03 1.00099E+03 8.04017E-09 7.24322E-09
 -1       826-3.56278E+05-5.48053E+02-1.75824E+03-8.13216E+02 9.64110E-09-2.14411E-09
 -1       827-3.56282E+05 7.74393E+01-9.55000E+02 2.65370E+02 3.98077E-09 7.78840E-09
 -1       828-3.56051E+05-1.64003E+02-7.83610E+02 7.16532E+02-7.82716E-10 4.42134E-09
 -1       829-3.56234E+05 8.38738E+01-9.67140E+02-5.28785E+02 4.70166E-10 6.51397E-10
 -1       830-3.56395E+05-5.76438E+02-1.84354E+03 1.95571E+03 8.40114E-10 1.00135E-08
 -1       831-3.55942E+05 4.92469E+02-3.08102E+03-9.73832E+02-1.71935E-09 9.96192E-09
 -1       832-3.57930E+05-3.61717E+03-7.50375E+03 2.26827E+03-9.06147E-10 6.88169E-09
 -1       833-3.54702E+05 3.12362E+03-1.19384E+04-8.41345E+02-2.43303E-09 2.70529E-09
 -1       834-3.66780E+05-2.30535E+04-3.25729E+04 1.48045E+03-1.79057E-09 1.24464E-09
 -1       835-3.47091E+05 1.99114E+04-4.61012E+04-1.85995E+02 4.98341E-09 3.13594E-09
 -1       836-1.24192E+03 3.32029E+05 2.04107E+04-1.58999E+04-4.36739E-09 1.09239E-08
 -1       837 4.38590E+03 3.38405E+05 1.73466E+04-3.22470E+04-4.32124E-09 1.53691E-08
 -1       838-4.86210E+02 3.33807E+05 1.77802E+04-1.58322E+04-3.49473E-09 1.94759E-08
 -1       839 1.12662E+04 3.43532E+05 3.37390E+04-3.22939E+04-3.49519E-09 1.52947E-08
 -1       840-3.45910E+03 3.26851E+05 5.38467E+04-1.58556E+04-3.27782E-09-1.26124E-08
 -1       856-6.10270E+04 7.78941E+03-2.05270E+04-3.99570E+02 1.18882E-09-7.54244E-09
 -1       857-6.94917E+04-9.14624E+03-1.41311E+04 5.25110E+03 2.52498E-09-1.59844E-08
 -1       858-6.43763E+04 1.09205E+03-5.32655E+03-4.22551E+02-8.26105E-10 6.05269E-10
 -1       859-6.56472E+04-1.27907E+03-3.21506E+03 5.28611E+03-2.67622E-09 1.40531E-08
 -1       860-6.48768E+04 1.52564E+02-1.34859E+03-4.34449E+02-7.46041E-10 2.29835E-09
 -1       861-6.50712E+04-1.76850E+02-7.44341E+02 5.30236E+03-5.67979E-10-3.71529E-10
 -1       862-6.49550E+04 2.04544E+01-3.14330E+02-4.38806E+02-6.40917E-10-2.15812E-09
 -1       863-6.49763E+04-1.70212E+01-1.25665E+02 5.30473E+03-6.15498E-09 2.80386E-09
 -1       864-6.49722E+04-3.66887E+00 2.06922E+01-4.36818E+02 4.33161E-10 6.15725E-09
 -1       865-6.49291E+04 5.08435E+01 1.91832E+02 5.29384E+03-2.20678E-09 1.58202E-09
 -1       866-6.50001E+04-4.75491E+01 3.99502E+02-4.27916E+02-1.73850E-09 4.77883E-09
 -1       867-6.47378E+04 3.94099E+02 9.91630E+02 5.26961E+03-1.19633E-09-1.00029E-08
 -1       868-6.51591E+04-3.41089E+02 1.64979E+03-4.12592E+02-1.66432E-09 7.94148E-09
 -1       869-6.35259E+04 2.83872E+03 4.39589E+03 5.22933E+03 2.18290E-09-5.08606E-09
 -1       870-6.62052E+04-2.42630E+03 6.37899E+03-3.87591E+02-2.23679E-09-4.58158E-09
 -1       871-5.11383E+03-1.69109E+04-1.75405E+04 1.17112E+05-2.91584E-09-5.54792E-11
 -1       872-1.97427E+03-2.09404E+04-7.29486E+03 1.51846E+05-6.57928E-09-2.34813E-08
 -1       873 2.22232E+02-1.90143E+04 6.56286E+02 1.16855E+05-3.17050E-09 2.52464E-09
 -1       874 2.85787E+03-1.67376E+04 9.09476E+03 1.51879E+05-5.82531E-09 6.40989E-09
 -1       875 6.18424E+03-2.11801E+04 2.04198E+04 1.17070E+05-2.92493E-09-1.48866E-08
 -1       876 2.69760E+05 4.57185E+04 1.39732E+04 1.08555E+05 6.44081E-09-9.48057E-09
 -1       877 2.70658E+05 4.86871E+04 7.46221E+03 1.12587E+05 9.64974E-10-1.46990E-08
 -1       878 2.71066E+05 4.41714E+04 3.12631E+03 1.09701E+05-2.03227E-09-7.01243E-09
 -1       879 2.68758E+05 4.67920E+04 1.55765E+03 1.12682E+05 1.80194E-09-3.04954E-09
 -1       880 2.71160E+05 4.41551E+04 7.25480E+02 1.09748E+05-1.81149E-09 3.08825E-09
 -1       881 2.68632E+05 4.67111E+04 3.87245E+02 1.12661E+05-6.10282E-09 1.60259E-09
 -1       882 2.71169E+05 4.41672E+04 2.47456E+02 1.09750E+05 6.30280E-10 5.89657E-09
 -1       883 2.68623E+05 4.67070E+04 2.65561E+02 1.12655E+05-7.10543E-10 3.39109E-09
 -1       884 2.71163E+05 4.41645E+04 4.22030E+02 1.09750E+05-8.59472E-10 7.36009E-09
 -1       885 2.68657E+05 4.67129E+04 8.48256E+02 1.12665E+05-1.22810E-10-9.95539E-09
 -1       886 2.71130E+05 4.41397E+04 1.70951E+03 1.09746E+05-1.85594E-09 3.53157E-09
 -1       887 2.68957E+05 4.69099E+04 3.73416E+03 1.12708E+05 5.09885E-10 7.62213E-09
 -1       888 2.70894E+05 4.41812E+04 7.52443E+03 1.09627E+05-1.28259E-09-5.80303E-09
 -1       889 2.73438E+05 5.15677E+04 1.79747E+04 1.12570E+05 1.41433E-09 2.59388E-09
 -1       890 2.67825E+05 4.78267E+04 3.36659E+04 1.06760E+05 1.07343E-09-3.85444E-09
 -1       891-1.09410E+02-1.50353E+05-1.83019E+03 2.59311E+04-2.21007E-10 4.11364E-09
 -1       892-2.02778E+02-1.50822E+05-1.97020E+03 3.93283E+04 1.62800E-09 2.47021E-08
 -1       893 1.25318E+01-1.50412E+05-2.79427E+03 2.59375E+04-7.38282E-10-1.27329E-10
 -1       894-1.43277E+03-1.51881E+05-5.78653E+03 3.91845E+04 2.83990E-10-1.43764E-08
 -1       895-1.13204E+03-1.49206E+05-1.01913E+04 2.60752E+04-5.60021E-10-1.01463E-08
 -1       956-3.44790E+05-4.91816E+03-1.22330E+04 2.64739E+04 2.53749E-10-3.35626E-09
 -1       957-3.47196E+05-1.70557E+03-6.27934E+03 3.18413E+04-1.43564E-09-5.89125E-09
 -1       958-3.45884E+05-1.84303E+02-2.82942E+03 2.63245E+04-8.10360E-09-9.39781E-09
 -1       959-3.46068E+05-8.38665E+01-1.44495E+03 3.20115E+04-8.95443E-09-9.29981E-09
 -1       960-3.45988E+05-8.42956E+00-7.04588E+02 2.63094E+04-1.92040E-09-2.90015E-09
 -1       961-3.45992E+05-1.94372E+01-3.73771E+02 3.20291E+04 6.23686E-09 1.69166E-09
 -1       962-3.46011E+05-1.09462E+01-2.14164E+02 2.63070E+04 1.81899E-09 4.04407E-09
 -1       963-3.45991E+05-1.65073E+01-1.72273E+02 3.20322E+04 7.37941E-10-1.81815E-08
 -1       964-3.46016E+05-8.18605E+00-2.09797E+02 2.63063E+04-8.54629E-09-3.04681E-10
 -1       965-3.46002E+05-1.35576E+01-3.63110E+02 3.20317E+04-9.50695E-09 6.03222E-09
 -1       966-3.46002E+05-2.22509E-01-6.82252E+02 2.63075E+04-1.13209E-09 1.09458E-09
 -1       967-3.46086E+05-7.02874E+01-1.39940E+03 3.20197E+04-8.41283E-10 7.35554E-10
 -1       968-3.45910E+05-1.65201E+02-2.73926E+03 2.63183E+04-1.03864E-09 1.67956E-08
 -1       969-3.47189E+05-1.63613E+03-6.08143E+03 3.18941E+04-8.08768E-10 4.05458E-09
 -1       970-3.44857E+05-4.74650E+03-1.18464E+04 2.64290E+04-1.50567E-09-3.49246E-10
 -1       971-3.18304E+05-1.61189E+03-8.77806E+03 1.44642E+04 1.72804E-11 2.82891E-09
 -1       972-3.20424E+05-1.17617E+03-4.78046E+03 2.00756E+04 1.56615E-09 2.82002E-08
 -1       973-3.19281E+05-4.20313E+01-2.14104E+03 1.43477E+04 2.52294E-09 5.26416E-09
 -1       974-3.19416E+05-5.37318E+01-1.10965E+03 2.02053E+04 3.71074E-09 1.32694E-08
 -1       975-3.19358E+05-7.53240E-02-5.54624E+02 1.43363E+04 2.64436E-09-5.65012E-09
 -1       976-3.19357E+05-7.02826E+00-3.19901E+02 2.02197E+04 2.98473E-09-1.83447E-08
 -1       977-3.19373E+05 3.57525E-01-2.32035E+02 1.43333E+04-3.48041E-09 2.09798E-09
 -1       978-3.19362E+05-1.37242E+00-2.71338E+02 2.02240E+04 2.25896E-10-1.71553E-09
 -1       979-3.19373E+05 8.06447E+00-4.35785E+02 1.43320E+04-1.92682E-09 9.71500E-09
 -1       980-3.19394E+05 1.41760E+00-8.41339E+02 2.02248E+04-3.47256E-09-5.45595E-09
 -1       981-3.19346E+05 2.90781E+01-1.62942E+03 1.43325E+04 1.94848E-09 8.24684E-10
 -1       982-3.19618E+05-1.18934E+02-3.36793E+03 2.02186E+04 2.41994E-09-1.12293E-08
 -1       983-3.19141E+05-7.51936E+01-6.54389E+03 1.43383E+04-2.14777E-09-5.92058E-09
 -1       984-3.22765E+05-3.53649E+03-1.46546E+04 2.01376E+04-2.77623E-10 2.57160E-09
 -1       985-3.16179E+05-4.86358E+03-2.69104E+04 1.44107E+04-1.66119E-09-6.25550E-09
 -3
    1PSTEP                        19          10           1          
  100CL  110 6.26953E-01         409                     0   10           1
 -4  DISP        4    1
 -5  D1          1    2    1    0
 -5  D2          1    2    2    0
 -5  D3          1    2    3    0
 -5  ALL         1    2    0    0    1ALL
 -1         1 1.79509E-03 0.00000E+00 0.00000E+00
 -1         2 5.87060E-04-4.96864E-25 2.64698E-23
 -1         3 2.95316E-04 2.33982E-29-1.32349E-23
 -1         5 1.59222E-04-1.82621E-26 2.89513E-24
 -1         8 1.78214E-03-5.31708E-07 0.00000E+00
 -1         9 1.78472E-03-1.49611E-04 0.00000E+00
 -1        10 2.68322E-04-3.25931E-06-6.61744E-24
 -1        12 1.60450E-04 7.42269E-07 4.13590E-25
 -1        15 1.76715E-03-5.63535E-07 2.06795E-25
 -1        16 1.82248E-03-1.50761E-04 0.00000E+00
 -1        17 1.84324E-04-7.26711E-06 0.00000E+00
 -1        18 1.62657E-04 2.57245E-05 0.00000E+00
 -1        19 1.64134E-04 1.47974E-06 0.00000E+00
 -1        20 1.64278E-04-3.17552E-06 0.00000E+00
 -1        21 1.63477E-04-1.11144E-05 0.00000E+00
 -1        24 2.82920E-05-1.07870E-05 0.00000E+00
 -1        25 1.70335E-04 2.59242E-05 0.00000E+00
 -1        26 1.71021E-04 2.05008E-06 0.00000E+00
 -1        27 1.69000E-04-6.47488E-06 0.00000E+00
 -1        28 1.68651E-04-1.16999E-05 0.00000E+00
 -1        32 0.00000E+00 0.00000E+00 0.00000E+00
 -1        33 1.76882E-04 2.74462E-06 0.00000E+00
 -1        34 1.74915E-04-6.51999E-06 0.00000E+00
 -1        35 1.73108E-04-1.20189E-05 0.00000E+00
 -1        51 1.79422E-03-1.03045E-07 3.30872E-24
 -1        52 1.79264E-03-1.90070E-07-3.30872E-24
 -1        53 1.79049E-03-2.74333E-07 0.00000E+00
 -1        54 1.78792E-03-3.57911E-07 0.00000E+00
 -1        55 1.78508E-03-4.42409E-07-3.30872E-24
 -1        56 1.79097E-03 5.32787E-07 0.00000E+00
 -1        57 1.78556E-03 4.06759E-06 0.00000E+00
 -1        58 1.77962E-03 9.05159E-06 1.05879E-22
 -1        59 1.77375E-03 1.37476E-05 5.29396E-23
 -1        60 1.76863E-03 1.64861E-05 0.00000E+00
 -1        61 1.76482E-03 1.57472E-05 5.29396E-23
 -1        62 1.76266E-03 1.05856E-05 0.00000E+00
 -1        63 1.76234E-03 4.17819E-07 0.00000E+00
 -1        64 1.76375E-03-1.45088E-05 0.00000E+00
 -1        65 1.76663E-03-3.35506E-05 5.29396E-23
 -1        66 1.77050E-03-5.53761E-05 1.05879E-22
 -1        67 1.77480E-03-7.84195E-05 5.29396E-23
 -1        68 1.77891E-03-1.00912E-04 0.00000E+00
 -1        69 1.78223E-03-1.21122E-04-5.29396E-23
 -1        70 1.78426E-03-1.37715E-04 0.00000E+00
 -1        86 6.62426E-04-4.53762E-06 0.00000E+00
 -1        87 8.82589E-04-2.99393E-05 1.32349E-23
 -1        88 1.17764E-03-7.34190E-05-2.64698E-23
 -1        89 1.47527E-03-1.17686E-04-1.32349E-23
 -1        90 1.70167E-03-1.44399E-04 0.00000E+00
 -1       121 2.94558E-04-5.30503E-07 1.32349E-23
 -1       122 2.92288E-04-1.06321E-06 0.00000E+00
 -1       123 2.88513E-04-1.60030E-06 0.00000E+00
 -1       124 2.83247E-04-2.14396E-06 0.00000E+00
 -1       125 2.76508E-04-2.69605E-06 0.00000E+00
 -1       191 1.59256E-04 1.23742E-07 3.30872E-24
 -1       192 1.59359E-04 2.47478E-07 1.24077E-24
 -1       193 1.59529E-04 3.71206E-07 4.13590E-25
 -1       194 1.59768E-04 4.94918E-07 0.00000E+00
 -1       195 1.60075E-04 6.18608E-07 0.00000E+00
 -1       251 1.78233E-03 1.86994E-07 0.00000E+00
 -1       252 1.78254E-03-2.57169E-06 0.00000E+00
 -1       253 1.78274E-03-8.09219E-06-6.61744E-24
 -1       254 1.78293E-03-1.56840E-05-3.30872E-24
 -1       255 1.78310E-03-2.48975E-05 0.00000E+00
 -1       256 1.78326E-03-3.52978E-05 0.00000E+00
 -1       257 1.78342E-03-4.65884E-05-6.61744E-24
 -1       258 1.78357E-03-5.84806E-05-3.30872E-24
 -1       259 1.78371E-03-7.07564E-05-6.61744E-24
 -1       260 1.78385E-03-8.32011E-05-3.30872E-24
 -1       261 1.78399E-03-9.56194E-05 0.00000E+00
 -1       262 1.78413E-03-1.07816E-04 3.30872E-24
 -1       263 1.78428E-03-1.19571E-04 0.00000E+00
 -1       264 1.78443E-03-1.30658E-04 4.13590E-25
 -1       265 1.78459E-03-1.40775E-04 0.00000E+00
 -1       266 1.77964E-03-5.43930E-07 0.00000E+00
 -1       267 1.77714E-03-5.48391E-07 0.00000E+00
 -1       268 1.77464E-03-5.53344E-07 0.00000E+00
 -1       269 1.77214E-03-5.56841E-07-2.06795E-25
 -1       270 1.76964E-03-5.60304E-07-2.06795E-25
 -1       271 1.78086E-03 4.35772E-07-1.32349E-23
 -1       272 1.78044E-03-9.58706E-07 0.00000E+00
 -1       273 1.78084E-03-4.55765E-06-2.64698E-23
 -1       274 1.78199E-03-1.01910E-05-1.32349E-23
 -1       275 1.78382E-03-1.76631E-05-2.64698E-23
 -1       276 1.78624E-03-2.67602E-05 0.00000E+00
 -1       277 1.78917E-03-3.72500E-05-2.64698E-23
 -1       278 1.79251E-03-4.88855E-05 1.32349E-23
 -1       279 1.79618E-03-6.14070E-05 0.00000E+00
 -1       280 1.80007E-03-7.45450E-05 1.32349E-23
 -1       281 1.80408E-03-8.80233E-05 2.64698E-23
 -1       282 1.80812E-03-1.01562E-04 0.00000E+00
 -1       283 1.81207E-03-1.14881E-04-2.64698E-23
 -1       284 1.81585E-03-1.27701E-04 0.00000E+00
 -1       285 1.81935E-03-1.39751E-04 2.64698E-23
 -1       301 1.79136E-03-1.49825E-04-1.32349E-23
 -1       302 1.79696E-03-1.50006E-04 3.30872E-24
 -1       303 1.80218E-03-1.50183E-04 0.00000E+00
 -1       304 1.80772E-03-1.50361E-04 0.00000E+00
 -1       305 1.81426E-03-1.50546E-04 0.00000E+00
 -1       306 1.81615E-03-2.69210E-04 0.00000E+00
 -1       307 1.87997E-03-5.98242E-04 5.29396E-23
 -1       308 1.94382E-03-1.08251E-03-1.05879E-22
 -1       309 1.99808E-03-1.64731E-03 5.29396E-23
 -1       310 2.05471E-03-2.19335E-03 1.05879E-22
 -1       311 2.12135E-03-2.62315E-03 0.00000E+00
 -1       312 2.17731E-03-2.87230E-03-1.05879E-22
 -1       313 2.18218E-03-2.90343E-03-5.29396E-23
 -1       314 2.08857E-03-2.72286E-03 1.05879E-22
 -1       315 1.86739E-03-2.37030E-03 5.29396E-23
 -1       316 1.53247E-03-1.90575E-03 1.05879E-22
 -1       317 1.12896E-03-1.38863E-03 0.00000E+00
 -1       318 7.36261E-04-8.79575E-04 0.00000E+00
 -1       319 4.30737E-04-4.40661E-04 0.00000E+00
 -1       320 2.46346E-04-1.31126E-04 0.00000E+00
 -1       336 2.58528E-04-3.87841E-06 0.00000E+00
 -1       337 2.46976E-04-4.51610E-06-6.61744E-24
 -1       338 2.33716E-04-5.17376E-06 0.00000E+00
 -1       339 2.18808E-04-5.85180E-06-6.61744E-24
 -1       340 2.02319E-04-6.55377E-06 1.32349E-23
 -1       406 1.60893E-04 8.65888E-07 2.89513E-24
 -1       407 1.61405E-04 9.89437E-07 2.06795E-25
 -1       408 1.61985E-04 1.11287E-06-8.27181E-25
 -1       409 1.62634E-04 1.23605E-06-4.13590E-25
 -1       410 1.63350E-04 1.35871E-06-1.65436E-24
 -1       521 1.85503E-03-2.79582E-04 1.05879E-22
 -1       522 1.91877E-03-6.28954E-04-5.29396E-23
 -1       523 1.97922E-03-1.14176E-03 1.05879E-22
 -1       524 2.02760E-03-1.73737E-03 0.00000E+00
 -1       525 2.07910E-03-2.31254E-03 1.05879E-22
 -1       526 2.14390E-03-2.76612E-03 0.00000E+00
 -1       527 2.20027E-03-3.02807E-03 0.00000E+00
 -1       528 2.20404E-03-3.05986E-03-5.29396E-23
 -1       529 2.10179E-03-2.86746E-03-1.05879E-22
 -1       530 1.86186E-03-2.49628E-03 5.29396E-23
 -1       531 1.49826E-03-2.00964E-03-1.05879E-22
 -1       532 1.06082E-03-1.47024E-03 0.00000E+00
 -1       533 6.34404E-04-9.38486E-04 0.00000E+00
 -1       534 3.00713E-04-4.76310E-04-5.29396E-23
 -1       535 9.83423E-05-1.47039E-04 1.05879E-22
 -1       536 1.83736E-04 2.25162E-05 6.61744E-24
 -1       537 1.82292E-04 7.43051E-05 0.00000E+00
 -1       538 1.80077E-04 1.40086E-04 0.00000E+00
 -1       539 1.77471E-04 2.11773E-04-1.65436E-24
 -1       540 1.75124E-04 2.79499E-04-3.30872E-24
 -1       541 1.73587E-04 3.33421E-04-1.65436E-24
 -1       542 1.72861E-04 3.67656E-04 0.00000E+00
 -1       543 1.72663E-04 3.76448E-04 0.00000E+00
 -1       544 1.72384E-04 3.60509E-04-3.30872E-24
 -1       545 1.71465E-04 3.20729E-04 1.65436E-24
 -1       546 1.69793E-04 2.64193E-04 3.30872E-24
 -1       547 1.67555E-04 1.98089E-04 0.00000E+00
 -1       548 1.65345E-04 1.32422E-04 0.00000E+00
 -1       549 1.63744E-04 7.71946E-05 0.00000E+00
 -1       550 1.62899E-04 3.93503E-05 1.65436E-24
 -1       551 1.62727E-04-7.75040E-06 0.00000E+00
 -1       552 1.38174E-04-8.29490E-06 3.30872E-24
 -1       553 1.11553E-04-8.88754E-06-1.07533E-23
 -1       554 8.37644E-05-9.51162E-06 3.30872E-24
 -1       555 5.57118E-05-1.01449E-05 2.64698E-23
 -1       556 1.77885E-04 9.25480E-06 0.00000E+00
 -1       557 1.72712E-04 2.25728E-05 0.00000E+00
 -1       558 1.68687E-04 3.29420E-05 0.00000E+00
 -1       559 1.65694E-04 4.06382E-05 0.00000E+00
 -1       560 1.63619E-04 4.59369E-05 0.00000E+00
 -1       561 1.62350E-04 4.91159E-05 0.00000E+00
 -1       562 1.61777E-04 5.04541E-05 0.00000E+00
 -1       563 1.61793E-04 5.02309E-05 0.00000E+00
 -1       564 1.62288E-04 4.87265E-05 0.00000E+00
 -1       565 1.63157E-04 4.62215E-05 0.00000E+00
 -1       566 1.64294E-04 4.29969E-05 0.00000E+00
 -1       567 1.65595E-04 3.93341E-05 0.00000E+00
 -1       568 1.66953E-04 3.55145E-05-1.24077E-24
 -1       569 1.68266E-04 3.18195E-05 0.00000E+00
 -1       570 1.69427E-04 2.85304E-05 0.00000E+00
 -1       571 1.62746E-04 2.41536E-05 0.00000E+00
 -1       572 1.62838E-04 2.25241E-05 8.27181E-25
 -1       573 1.62930E-04 2.08498E-05 0.00000E+00
 -1       574 1.63022E-04 1.91446E-05 0.00000E+00
 -1       575 1.63114E-04 1.74229E-05-3.30872E-24
 -1       576 1.63207E-04 1.56990E-05 0.00000E+00
 -1       577 1.63299E-04 1.39871E-05-3.30872E-24
 -1       578 1.63392E-04 1.23015E-05 0.00000E+00
 -1       579 1.63484E-04 1.06567E-05 0.00000E+00
 -1       580 1.63577E-04 9.06677E-06 6.61744E-24
 -1       581 1.63669E-04 7.54619E-06 0.00000E+00
 -1       582 1.63762E-04 6.10920E-06 3.30872E-24
 -1       583 1.63855E-04 4.77009E-06 0.00000E+00
 -1       584 1.63948E-04 3.54301E-06 0.00000E+00
 -1       585 1.64041E-04 2.44195E-06 0.00000E+00
 -1       586 1.63890E-04 2.57597E-05 0.00000E+00
 -1       587 1.65088E-04 2.57944E-05 2.06795E-25
 -1       588 1.66291E-04 2.58288E-05 0.00000E+00
 -1       589 1.67540E-04 2.58625E-05 0.00000E+00
 -1       590 1.68875E-04 2.58951E-05 0.00000E+00
 -1       591 1.63188E-04 2.42325E-05 1.03398E-25
 -1       592 1.63723E-04 2.27189E-05 0.00000E+00
 -1       593 1.64265E-04 2.11894E-05 0.00000E+00
 -1       594 1.64809E-04 1.96487E-05 4.13590E-25
 -1       595 1.65357E-04 1.81019E-05 0.00000E+00
 -1       596 1.65904E-04 1.65536E-05 4.13590E-25
 -1       597 1.66450E-04 1.50087E-05 0.00000E+00
 -1       598 1.66994E-04 1.34721E-05 0.00000E+00
 -1       599 1.67532E-04 1.19483E-05 0.00000E+00
 -1       600 1.68064E-04 1.04424E-05 4.13590E-25
 -1       601 1.68587E-04 8.95904E-06-4.13590E-25
 -1       602 1.69100E-04 7.50304E-06 4.13590E-25
 -1       603 1.69601E-04 6.07921E-06-4.13590E-25
 -1       604 1.70089E-04 4.69244E-06 2.66572E-26
 -1       605 1.70562E-04 3.34745E-06 0.00000E+00
 -1       606 1.64147E-04 7.29430E-07-3.30872E-24
 -1       607 1.64157E-04 6.73854E-08 0.00000E+00
 -1       608 1.64166E-04-5.11580E-07 0.00000E+00
 -1       609 1.64175E-04-1.01331E-06 0.00000E+00
 -1       610 1.64184E-04-1.44369E-06 0.00000E+00
 -1       611 1.64193E-04-1.80868E-06 0.00000E+00
 -1       612 1.64201E-04-2.11424E-06 0.00000E+00
 -1       613 1.64210E-04-2.36635E-06 0.00000E+00
 -1       614 1.64218E-04-2.57098E-06 0.00000E+00
 -1       615 1.64227E-04-2.73410E-06-8.27181E-25
 -1       616 1.64236E-04-2.86168E-06 1.65436E-24
 -1       617 1.64244E-04-2.95969E-06 0.00000E+00
 -1       618 1.64253E-04-3.03411E-06 0.00000E+00
 -1       619 1.64262E-04-3.09091E-06 0.00000E+00
 -1       620 1.64270E-04-3.13605E-06 2.06795E-25
 -1       621 1.65054E-04 1.57518E-06-3.30872E-24
 -1       622 1.66100E-04 1.67091E-06 0.00000E+00
 -1       623 1.67246E-04 1.76650E-06-1.65436E-24
 -1       624 1.68466E-04 1.86184E-06 0.00000E+00
 -1       625 1.69733E-04 1.95695E-06-1.65436E-24
 -1       626 1.64520E-04 7.62729E-07-3.30872E-24
 -1       627 1.64881E-04 1.12776E-07 4.96308E-24
 -1       628 1.65220E-04-4.77898E-07 0.00000E+00
 -1       629 1.65541E-04-1.01742E-06-1.65436E-24
 -1       630 1.65845E-04-1.51394E-06 0.00000E+00
 -1       631 1.66136E-04-1.97562E-06 1.65436E-24
 -1       632 1.66418E-04-2.41064E-06 3.30872E-24
 -1       633 1.66692E-04-2.82717E-06-1.65436E-24
 -1       634 1.66963E-04-3.23338E-06 0.00000E+00
 -1       635 1.67232E-04-3.63745E-06 1.65436E-24
 -1       636 1.67504E-04-4.04755E-06 0.00000E+00
 -1       637 1.67781E-04-4.47186E-06 0.00000E+00
 -1       638 1.68067E-04-4.91854E-06-1.65436E-24
 -1       639 1.68364E-04-5.39580E-06-8.27181E-25
 -1       640 1.68674E-04-5.91181E-06-1.65436E-24
 -1       656 1.64544E-04-3.71193E-06 6.61744E-24
 -1       657 1.65217E-04-4.27005E-06 0.00000E+00
 -1       658 1.66156E-04-4.82677E-06 0.00000E+00
 -1       659 1.67219E-04-5.38312E-06 6.61744E-24
 -1       660 1.68225E-04-5.94116E-06 0.00000E+00
 -1       661 1.64379E-04-3.25564E-06-8.27181E-25
 -1       662 1.64514E-04-3.41876E-06-8.27181E-25
 -1       663 1.64679E-04-3.66048E-06 1.65436E-24
 -1       664 1.64871E-04-3.97515E-06 8.27181E-25
 -1       665 1.65089E-04-4.35778E-06 1.65436E-24
 -1       666 1.65330E-04-4.80325E-06 0.00000E+00
 -1       667 1.65593E-04-5.30672E-06 0.00000E+00
 -1       668 1.65877E-04-5.86341E-06 0.00000E+00
 -1       669 1.66178E-04-6.46868E-06-1.65436E-24
 -1       670 1.66496E-04-7.11801E-06 0.00000E+00
 -1       671 1.66828E-04-7.80698E-06-1.65436E-24
 -1       672 1.67174E-04-8.53127E-06-8.27181E-25
 -1       673 1.67531E-04-9.28663E-06 1.65436E-24
 -1       674 1.67898E-04-1.00691E-05 8.27181E-25
 -1       675 1.68273E-04-1.08743E-05 0.00000E+00
 -1       676 1.64342E-04-1.12125E-05 3.30872E-24
 -1       677 1.65207E-04-1.13107E-05 0.00000E+00
 -1       678 1.66071E-04-1.14087E-05 0.00000E+00
 -1       679 1.66933E-04-1.15065E-05-1.65436E-24
 -1       680 1.67793E-04-1.16042E-05 0.00000E+00
 -1       771 1.80220E-05 1.19888E-05-5.29396E-23
 -1       772 9.35565E-06 3.06866E-05 0.00000E+00
 -1       773 2.21660E-06 4.55076E-05 0.00000E+00
 -1       774-3.49935E-06 5.66759E-05 0.00000E+00
 -1       775-7.89444E-06 6.44240E-05 5.29396E-23
 -1       776-1.10750E-05 6.89975E-05 0.00000E+00
 -1       777-1.31475E-05 7.06501E-05 0.00000E+00
 -1       778-1.42205E-05 6.96465E-05 0.00000E+00
 -1       779-1.44025E-05 6.62581E-05-5.29396E-23
 -1       780-1.38036E-05 6.07654E-05-2.64698E-23
 -1       781-1.25335E-05 5.34541E-05 0.00000E+00
 -1       782-1.07032E-05 4.46170E-05 0.00000E+00
 -1       783-8.42328E-06 3.45506E-05 5.29396E-23
 -1       784-5.80525E-06 2.35561E-05 0.00000E+00
 -1       785-2.96005E-06 1.19374E-05-1.05879E-22
 -1       786 1.70374E-04 2.42112E-05 5.16988E-26
 -1       787 1.70416E-04 2.25468E-05 4.13590E-25
 -1       788 1.70458E-04 2.09231E-05-8.27181E-25
 -1       789 1.70501E-04 1.93321E-05-8.27181E-25
 -1       790 1.70544E-04 1.77693E-05 0.00000E+00
 -1       791 1.70587E-04 1.62299E-05 0.00000E+00
 -1       792 1.70630E-04 1.47119E-05 0.00000E+00
 -1       793 1.70673E-04 1.32130E-05 0.00000E+00
 -1       794 1.70717E-04 1.17330E-05-1.65436E-24
 -1       795 1.70760E-04 1.02717E-05 8.27181E-25
 -1       796 1.70803E-04 8.83078E-06 1.65436E-24
 -1       797 1.70846E-04 7.41200E-06 8.27181E-25
 -1       798 1.70890E-04 6.01930E-06 1.65436E-24
 -1       799 1.70933E-04 4.65671E-06 0.00000E+00
 -1       800 1.70977E-04 3.33126E-06 0.00000E+00
 -1       801 1.32431E-04 2.31573E-05 0.00000E+00
 -1       802 1.75160E-05 1.47189E-05-2.64698E-23
 -1       803-8.19621E-05 7.62080E-06 5.29396E-23
 -1       804-7.50621E-05 5.23680E-06 2.64698E-23
 -1       805-2.51438E-05 2.18854E-06 0.00000E+00
 -1       806 1.70871E-04 2.41484E-05 0.00000E+00
 -1       807 1.71393E-04 2.23994E-05 8.27181E-25
 -1       808 1.71902E-04 2.06816E-05 3.30872E-24
 -1       809 1.72399E-04 1.89986E-05-1.65436E-24
 -1       810 1.72880E-04 1.73538E-05 0.00000E+00
 -1       811 1.73347E-04 1.57507E-05 0.00000E+00
 -1       812 1.73796E-04 1.41925E-05-3.30872E-24
 -1       813 1.74227E-04 1.26827E-05 8.27181E-25
 -1       814 1.74639E-04 1.12246E-05-3.30872E-24
 -1       815 1.75031E-04 9.82151E-06-1.65436E-24
 -1       816 1.75401E-04 8.47679E-06 3.30872E-24
 -1       817 1.75747E-04 7.19374E-06 8.27181E-25
 -1       818 1.76070E-04 5.97571E-06 1.65436E-24
 -1       819 1.76367E-04 4.82600E-06-8.27181E-25
 -1       820 1.76637E-04 3.74789E-06 0.00000E+00
 -1       821 1.70901E-04 5.69318E-07 8.27181E-25
 -1       822 1.70774E-04-1.35191E-06 0.00000E+00
 -1       823 1.70646E-04-3.50709E-06 0.00000E+00
 -1       824 1.70517E-04-5.68837E-06 1.65436E-24
 -1       825 1.70389E-04-7.68140E-06 0.00000E+00
 -1       826 1.70260E-04-9.27290E-06 1.65436E-24
 -1       827 1.70133E-04-1.03526E-05-3.30872E-24
 -1       828 1.70006E-04-1.08131E-05 0.00000E+00
 -1       829 1.69879E-04-1.07058E-05 3.30872E-24
 -1       830 1.69751E-04-1.00855E-05-1.65436E-24
 -1       831 1.69624E-04-9.13841E-06 0.00000E+00
 -1       832 1.69497E-04-8.05267E-06 0.00000E+00
 -1       833 1.69370E-04-7.05201E-06 0.00000E+00
 -1       834 1.69244E-04-6.35966E-06 0.00000E+00
 -1       835 1.69119E-04-6.12003E-06-8.27181E-25
 -1       836 1.72193E-04 2.16539E-06 3.30872E-24
 -1       837 1.73246E-04 2.28350E-06 0.00000E+00
 -1       838 1.74210E-04 2.40152E-06 0.00000E+00
 -1       839 1.75117E-04 2.51885E-06 8.27181E-25
 -1       840 1.75997E-04 2.63602E-06 8.27181E-25
 -1       856 1.68982E-04-7.05910E-06 0.00000E+00
 -1       857 1.68961E-04-7.51494E-06-2.58494E-26
 -1       858 1.68939E-04-7.86240E-06 0.00000E+00
 -1       859 1.68917E-04-8.12154E-06 0.00000E+00
 -1       860 1.68896E-04-8.31253E-06 4.13590E-25
 -1       861 1.68874E-04-8.45555E-06-4.13590E-25
 -1       862 1.68852E-04-8.57087E-06 0.00000E+00
 -1       863 1.68830E-04-8.67873E-06-4.13590E-25
 -1       864 1.68807E-04-8.79942E-06 0.00000E+00
 -1       865 1.68785E-04-8.95320E-06 4.13590E-25
 -1       866 1.68763E-04-9.16030E-06 8.27181E-25
 -1       867 1.68741E-04-9.44091E-06 0.00000E+00
 -1       868 1.68719E-04-9.81517E-06 0.00000E+00
 -1       869 1.68697E-04-1.03031E-05-4.13590E-25
 -1       870 1.68674E-04-1.09247E-05 0.00000E+00
 -1       871 1.69852E-04-6.47834E-06-8.27181E-25
 -1       872 1.70840E-04-6.48489E-06 0.00000E+00
 -1       873 1.71903E-04-6.49204E-06-4.13590E-25
 -1       874 1.72979E-04-6.49989E-06 0.00000E+00
 -1       875 1.74003E-04-6.50829E-06-2.06795E-25
 -1       876 1.69339E-04-7.04573E-06-6.61744E-24
 -1       877 1.69656E-04-7.55361E-06 1.65436E-24
 -1       878 1.69953E-04-8.00605E-06 3.30872E-24
 -1       879 1.70232E-04-8.41005E-06 0.00000E+00
 -1       880 1.70496E-04-8.77261E-06 0.00000E+00
 -1       881 1.70747E-04-9.10072E-06 0.00000E+00
 -1       882 1.70987E-04-9.40133E-06-3.30872E-24
 -1       883 1.71220E-04-9.68140E-06 0.00000E+00
 -1       884 1.71448E-04-9.94787E-06 3.30872E-24
 -1       885 1.71673E-04-1.02077E-05 1.65436E-24
 -1       886 1.71899E-04-1.04678E-05 3.30872E-24
 -1       887 1.72126E-04-1.07352E-05 1.65436E-24
 -1       888 1.72359E-04-1.10168E-05 0.00000E+00
 -1       889 1.72600E-04-1.13197E-05 0.00000E+00
 -1       890 1.72850E-04-1.16508E-05 0.00000E+00
 -1       891 1.69529E-04-1.17534E-05 0.00000E+00
 -1       892 1.70386E-04-1.18071E-05-4.13590E-25
 -1       893 1.71196E-04-1.18607E-05-1.65436E-24
 -1       894 1.71935E-04-1.19142E-05 4.13590E-25
 -1       895 1.72581E-04-1.19674E-05 0.00000E+00
 -1       956 1.76761E-04 1.89931E-06 3.30872E-24
 -1       957 1.76638E-04 1.13640E-06-8.27181E-25
 -1       958 1.76515E-04 4.46317E-07-3.30872E-24
 -1       959 1.76392E-04-1.81031E-07 0.00000E+00
 -1       960 1.76268E-04-7.55789E-07 3.30872E-24
 -1       961 1.76145E-04-1.28813E-06 0.00000E+00
 -1       962 1.76022E-04-1.78823E-06-3.30872E-24
 -1       963 1.75898E-04-2.26630E-06 1.65436E-24
 -1       964 1.75775E-04-2.73252E-06 0.00000E+00
 -1       965 1.75651E-04-3.19710E-06-1.65436E-24
 -1       966 1.75528E-04-3.67022E-06 0.00000E+00
 -1       967 1.75405E-04-4.16210E-06 0.00000E+00
 -1       968 1.75282E-04-4.68290E-06 0.00000E+00
 -1       969 1.75159E-04-5.24279E-06 1.65436E-24
 -1       970 1.75036E-04-5.85191E-06 0.00000E+00
 -1       971 1.74803E-04-7.18271E-06-1.65436E-24
 -1       972 1.74689E-04-7.75446E-06 0.00000E+00
 -1       973 1.74576E-04-8.24528E-06 0.00000E+00
 -1       974 1.74463E-04-8.66561E-06 1.65436E-24
 -1       975 1.74349E-04-9.02586E-06 3.30872E-24
 -1       976 1.74235E-04-9.33650E-06-1.65436E-24
 -1       977 1.74122E-04-9.60799E-06 0.00000E+00
 -1       978 1.74008E-04-9.85080E-06 0.00000E+00
 -1       979 1.73895E-04-1.00754E-05 0.00000E+00
 -1       980 1.73781E-04-1.02924E-05 0.00000E+00
 -1       981 1.73668E-04-1.05121E-05 0.00000E+00
 -1       982 1.73554E-04-1.07450E-05 0.00000E+00
 -1       983 1.73441E-04-1.10018E-05 3.30872E-24
 -1       984 1.73328E-04-1.12927E-05 1.65436E-24
 -1       985 1.73216E-04-1.16284E-05-3.30872E-24
 -3
    1PSTEP                        20          10           1          
  100CL  110 6.26953E-01         409                     0   10           1
 -4  STRESS      6    1
 -5  SXX         1    4    1    1
 -5  SYY         1    4    2    2
 -5  SZZ         1    4    3    3
 -5  SXY         1    4    1    2
 -5  SYZ         1    4    2    3
 -5  SZX         1    4    3    1
 -1         1-4.72100E+06-1.64600E+06-1.01858E+06-1.51315E+06 4.65661E-10 1.77533E-09
 -1         2 1.08311E+06 1.79091E+07 4.09684E+06 4.32597E+06 1.42027E-07 6.84086E-08
 -1         3-1.05503E+03-1.50886E+06 3.76281E+02-1.80588E+03-4.80252E-10 3.04135E-09
 -1         5-3.37763E+01 3.54199E+05 9.12103E+00-7.53613E-01-3.40449E-10-1.04683E-08
 -1         8-3.09687E+05-1.63057E+05 1.48337E+04-3.35773E+05-1.81899E-11 2.75359E-08
 -1         9 7.21782E+06 3.24906E+06 2.02584E+06-2.12127E+05 1.43191E-08 1.73226E-08
 -1        10-1.93339E+03-1.57223E+06-3.42996E+03-1.22132E+04-1.14633E-08-3.01004E-08
 -1        12-3.00992E+01 3.54218E+05 2.97460E+02-5.31623E+00-4.70862E-10 1.82563E-08
 -1        15 1.14615E+03 6.29867E+02 3.70491E+03 1.23837E+00 3.78293E-10 3.61361E-07
 -1        16 1.41411E+07-3.51110E+05 1.98439E+06-1.43350E+06 8.69234E-09 7.20223E-08
 -1        17 5.18149E+06 3.50747E+06 1.38542E+06 3.47774E+06 1.46712E-08 7.25267E-09
 -1        18 9.12847E+04 1.97899E+04-5.82937E+03-1.06587E+05 1.07375E-08 7.11680E-09
 -1        19 1.12930E+05 1.30270E+05-8.92760E+02 2.08524E+04 9.60790E-10-7.89623E-09
 -1        20-7.09629E+04-5.30884E+05-1.18786E+05 2.60220E+04-7.92625E-10-2.20583E-09
 -1        21-4.40654E+01-2.79934E+05-8.79401E+02 1.66091E+02-8.27642E-09 1.11848E-08
 -1        24 8.49247E+06 7.05280E+06 2.43131E+06 6.53476E+06-1.31496E-07-4.74004E-08
 -1        25 3.95744E+04-4.49116E+04 1.98951E+04-4.66636E+05-1.01545E-09 9.74360E-09
 -1        26-5.00099E+04 8.44958E+04-2.27278E+04-3.89537E+02 4.67116E-10-2.64904E-09
 -1        27-7.27595E+04-2.87562E+05-1.05747E+05 6.41504E+04 4.03497E-09-1.04895E-09
 -1        28 2.11895E+04-8.00867E+04 1.59564E+04 2.04516E+04-2.40487E-09-1.04848E-10
 -1        32-1.58577E+06-2.86947E+06-1.62145E+05 1.44274E+05-3.66344E-08-1.04967E-08
 -1        33-1.66489E+05 8.52047E+04 2.99085E+04-3.66081E+04-2.10431E-09 1.50088E-08
 -1        34-2.08798E+05-2.27640E+04 6.19270E+02 6.93674E+04-2.75510E-09-5.55868E-09
 -1        35-2.17623E+04-3.17735E+04-1.26227E+03 4.87239E+04-2.35244E-09 1.80783E-08
 -1        51 5.29751E+04-2.29055E+05 1.12864E+05-5.14750E+05 1.30967E-10 8.61110E-08
 -1        52 1.84251E+04-2.09943E+05 5.99920E+04-6.00333E+05 3.71074E-10-6.04305E-08
 -1        53 4.35947E+03-2.24401E+05 3.25258E+04-5.12964E+05 6.36646E-10-7.95626E-08
 -1        54 8.76958E+03-2.20455E+05 2.92782E+04-6.02114E+05 1.49157E-10-2.08354E-07
 -1        55 1.89793E+04-2.28261E+05 3.86206E+04-5.12818E+05 4.14730E-10 9.94532E-08
 -1        56-8.72226E+06-1.01440E+06-7.54567E+05-3.44578E+06 8.16362E-09-2.25555E-08
 -1        57-9.38364E+06-1.33340E+06-5.07805E+05-3.00359E+06-6.83940E-10 5.62868E-08
 -1        58-8.84247E+06-1.28066E+06-1.76550E+05-3.42931E+06-1.23873E-08 3.34694E-10
 -1        59-9.20272E+06-1.05539E+06-1.04639E+05-3.06239E+06-8.25949E-09-1.22353E-07
 -1        60-8.89927E+06-1.28510E+06-4.27432E+04-3.38845E+06 5.20231E-09-2.05604E-07
 -1        61-9.05889E+06-1.11948E+06-2.05465E+04-3.17902E+06 8.55835E-09-3.47000E-08
 -1        62-8.97720E+06-1.22130E+06-1.48328E+04-3.30672E+06-1.69712E-08 6.28097E-08
 -1        63-8.90730E+06-1.26015E+06-6.06242E+03-3.34914E+06-1.54396E-08 1.10111E-07
 -1        64-9.04908E+06-1.14550E+06-1.28770E+04-3.21729E+06 5.62795E-09 1.42640E-07
 -1        65-8.80843E+06-1.38013E+06-2.00175E+04-3.49702E+06-1.64728E-08-6.17788E-08
 -1        66-9.08417E+06-1.09587E+06-3.73836E+04-3.16456E+06 2.46291E-08-2.78706E-08
 -1        67-8.80439E+06-1.45006E+06-9.54374E+04-3.53682E+06-4.91436E-08-1.55724E-08
 -1        68-9.05778E+06-1.07375E+06-1.61198E+05-3.18013E+06 2.82853E-09 4.42524E-08
 -1        69-9.01002E+06-1.64782E+06-4.59951E+05-3.40737E+06-3.55358E-08-3.31711E-08
 -1        70-8.87437E+06-9.10184E+05-6.87816E+05-3.28730E+06-6.17729E-09 4.38595E-08
 -1        86-9.17860E+05-1.21167E+07-2.13366E+06-2.08152E+06-6.33463E-09 6.68588E-08
 -1        87 1.15712E+06 6.24433E+06 1.85951E+06 3.67175E+06-1.43846E-08 2.68756E-08
 -1        88-2.42233E+04-1.34843E+06 1.69029E+05-1.56597E+06 1.04698E-07 1.10367E-07
 -1        89 1.80031E+06 6.22009E+06 1.98221E+06 3.78849E+06-6.57164E-08 1.44937E-08
 -1        90-1.53093E+06-1.21156E+07-2.25963E+06-2.20652E+06 1.11158E-07 1.20948E-07
 -1       121-1.45661E+03-1.51241E+06-2.86599E+02 8.97137E+02 1.19795E-09-2.72848E-10
 -1       122-8.94427E+02-1.50888E+06 7.41480E+02-3.61138E+03-4.67382E-09-2.21735E-08
 -1       123-1.49459E+03-1.51252E+06 5.19360E+02 2.67969E+03 3.54044E-09-1.35115E-08
 -1       124 6.36446E+02-1.50832E+06 2.92166E+03-7.57434E+03-8.68704E-09-8.19455E-09
 -1       125-2.31555E+03-1.51337E+06 3.73469E+03 4.83325E+03 5.62795E-09 9.12041E-09
 -1       191-3.57493E+01 3.54223E+05 9.52663E+00 3.85603E-01-3.95310E-10-1.16233E-09
 -1       192-3.46322E+01 3.54199E+05 1.93783E+01-2.60526E+00-4.97642E-10 6.11180E-10
 -1       193-3.80152E+01 3.54222E+05 3.47001E+01 2.27440E+00-6.85741E-10-2.20462E-09
 -1       194-3.73820E+01 3.54202E+05 7.34586E+01-5.98167E+00-4.00423E-10-3.33384E-08
 -1       195-4.23670E+01 3.54220E+05 1.42344E+02 3.82710E+00-9.59865E-10-1.26420E-08
 -1       251 5.92161E+05-4.48404E+04 1.02081E+05 1.01755E+04 4.14548E-09-3.74057E-08
 -1       252 6.50373E+05 5.17971E+04 7.45717E+04-4.06840E+04 1.92676E-09 1.21061E-07
 -1       253 6.13220E+05-6.91652E+03 2.64188E+04 2.70632E+03-5.65444E-09-3.40933E-08
 -1       254 6.24723E+05 8.21113E+03 1.73518E+04-2.89126E+04 4.90559E-09-1.65460E-07
 -1       255 6.17310E+05-1.05558E+03 6.94543E+03-1.59393E+03-4.78508E-10 1.02089E-07
 -1       256 6.19585E+05 1.58780E+03 4.61546E+03-2.22516E+04-5.26904E-09 2.31468E-07
 -1       257 6.18175E+05-1.85893E+02 2.70222E+03-3.95284E+03 4.23597E-09 5.99884E-08
 -1       258 6.18638E+05 9.33438E+02 3.18580E+03-1.88724E+04-6.22846E-09 6.05996E-09
 -1       259 6.18192E+05-3.58183E+02 4.46659E+03-4.97204E+03-6.89738E-09 1.87738E-08
 -1       260 6.19704E+05 3.19813E+03 9.47594E+03-1.79116E+04 1.52628E-08-1.72536E-07
 -1       261 6.17091E+05-2.43426E+03 1.61043E+04-4.91332E+03-1.95480E-09 4.31064E-08
 -1       262 6.27584E+05 1.88913E+04 3.93620E+04-1.90799E+04-7.42676E-09 4.06699E-08
 -1       263 6.10322E+05-1.60157E+04 6.28086E+04-3.80339E+03-1.17356E-08-3.25963E-09
 -1       264 6.75401E+05 1.20328E+05 1.71340E+05-2.24890E+04 1.45197E-08 4.30573E-08
 -1       265 5.69381E+05-1.03563E+05 2.42623E+05-1.50303E+03-1.44036E-08-7.10861E-08
 -1       266-2.07492E+04-9.70282E+03 4.86812E+04-2.64962E+01 3.12866E-10 1.52229E-07
 -1       267 2.40540E+04 1.13081E+04 3.44084E+04 3.05725E+01 5.83896E-10 2.78314E-07
 -1       268-3.22560E+03-1.60158E+03 1.27894E+04-3.89541E+00 4.16094E-10 2.54904E-07
 -1       269 3.80848E+03 1.91670E+03 8.31295E+03 4.53764E+00 3.51179E-10 6.46330E-08
 -1       270-5.71657E+02-3.14931E+02 4.01278E+03-6.15787E-01-4.26326E-11 1.69349E-07
 -1       271-2.04212E+06-2.54995E+05-1.58340E+05-7.93089E+05 1.59253E-08 9.11023E-08
 -1       272-2.06178E+06-3.98779E+05-1.00594E+05-8.26055E+05-2.26546E-08-6.92962E-08
 -1       273-2.07492E+06-2.90284E+05-3.79032E+04-7.82514E+05 4.33683E-08 2.06190E-07
 -1       274-2.02347E+06-3.56456E+05-2.04550E+04-8.44884E+05-2.91111E-08 1.11004E-07
 -1       275-2.08213E+06-2.90785E+05-9.10912E+03-7.77899E+05 1.45392E-08 1.09466E-07
 -1       276-2.01536E+06-3.56603E+05-4.34445E+03-8.54506E+05-1.20781E-09 8.68081E-08
 -1       277-2.08538E+06-2.88104E+05-2.39977E+03-7.74780E+05-2.04509E-08 2.94258E-08
 -1       278-2.01227E+06-3.60044E+05-1.34221E+03-8.60932E+05-2.03663E-08-6.90482E-08
 -1       279-2.08718E+06-2.86067E+05-1.41491E+03-7.72837E+05 1.52140E-08 6.89920E-09
 -1       280-2.01112E+06-3.62430E+05-2.29575E+03-8.64362E+05-1.22986E-09 1.48146E-07
 -1       281-2.08766E+06-2.85018E+05-4.12841E+03-7.72118E+05-4.68140E-09-5.79735E-08
 -1       282-2.01289E+06-3.65358E+05-9.87808E+03-8.64334E+05-9.12735E-09 1.45766E-07
 -1       283-2.08557E+06-2.83307E+05-1.76257E+04-7.72862E+05-5.99175E-09 5.64014E-08
 -1       284-2.02937E+06-3.87395E+05-4.78768E+04-8.57773E+05-2.39613E-08-4.27171E-08
 -1       285-2.07062E+06-2.65954E+05-7.47559E+04-7.77199E+05-1.52600E-08 1.93395E-08
 -1       301 1.08930E+04-4.57598E+05 1.67150E+05-8.27366E+05 4.30737E-09 3.33530E-08
 -1       302 1.10024E+04-4.13727E+05 1.02766E+05-1.20924E+06 3.39060E-09 2.57260E-08
 -1       303-8.42053E+03-4.43841E+05 6.46229E+04-8.25306E+05-2.27737E-09-9.90512E-08
 -1       304 2.27519E+02-4.15588E+05 7.64690E+04-1.20843E+06-1.33659E-08-1.27693E-09
 -1       305-2.86994E+03-4.43205E+05 1.08107E+05-8.27957E+05 3.97631E-09 4.55038E-08
 -1       306-2.21984E+07-4.29289E+06-5.81981E+06-1.47639E+06-9.74396E-08 6.98492E-08
 -1       307 1.62215E+07 5.26850E+05 3.61188E+06-1.05432E+07-6.57747E-07-5.99393E-08
 -1       308-7.83680E+06-1.47332E+05-4.03676E+05 3.48972E+06-2.22673E-07 8.94652E-08
 -1       309-2.95865E+06 3.12802E+06 1.30482E+06-1.60596E+07 3.05972E-07 1.81419E-07
 -1       310-1.04697E+07-5.82750E+05-1.09263E+06 3.20740E+06-1.09372E-07-1.22956E-07
 -1       311 2.23310E+07-8.93200E+05 4.59338E+06-6.99804E+06 4.80330E-07 7.41566E-08
 -1       312-2.30155E+07-4.59632E+06-5.48476E+06-3.67997E+06 1.00117E-08 5.65487E-08
 -1       313 2.93785E+07 7.94032E+06 7.06118E+06 1.38432E+07-2.14699E-07-8.93051E-08
 -1       314-1.44969E+07-1.11910E+07-4.96636E+06-9.27017E+06 2.41678E-07-8.09086E-08
 -1       315-2.03680E+06 1.83322E+07 3.79930E+06 8.30959E+06-4.01073E-07-2.84344E-08
 -1       316-5.27829E+05-7.71964E+06-3.60777E+05-3.89119E+06-8.35629E-07-3.30008E-07
 -1       317-1.59555E+07 1.60145E+07 1.27373E+06-3.65688E+06 6.83045E-07-4.97424E-07
 -1       318-1.91679E+06-8.76624E+06-1.14505E+06-4.63703E+06-6.74743E-07 4.43833E-08
 -1       319 2.78987E+06 1.90435E+07 4.32681E+06 1.06751E+07-7.94316E-08 1.24244E-07
 -1       320-1.70969E+07-1.13642E+07-6.49077E+06-9.17336E+06 1.61235E-07-3.47500E-08
 -1       336-1.65895E+02-1.63723E+06-1.23078E+04 7.27860E+03-2.30621E-08-1.77279E-08
 -1       337-4.75420E+03-1.63769E+06-1.57678E+04-1.76579E+04-4.17976E-08-9.73523E-09
 -1       338 4.96861E+02-1.63688E+06-2.41035E+04 1.02249E+04-2.95286E-08 1.57670E-08
 -1       339-2.56108E+04-1.65187E+06-5.44386E+04-2.34171E+04-5.32382E-08 2.22590E-08
 -1       340 1.70031E+04-1.62457E+06-8.54910E+04 1.29435E+04-3.45099E-08 2.31084E-08
 -1       406-8.71702E+00 3.54207E+05 5.85844E+02 1.66803E+00-1.30901E-09 3.54339E-09
 -1       407 1.74820E+02 3.54321E+05 1.24812E+03 1.65840E+01-3.18430E-10-3.87445E-10
 -1       408 6.11462E+02 3.54116E+05 2.49093E+03-1.86501E+01-1.68802E-09 1.02773E-08
 -1       409 2.66750E+03 3.55116E+05 5.61059E+03 1.93525E+02-4.47528E-10 2.75877E-08
 -1       410 7.71798E+03 3.53404E+05 1.14525E+04-1.85220E+02-2.02726E-09 1.53823E-08
 -1       521-2.40848E+07-5.33686E+06-6.92795E+06-1.27594E+06-1.01165E-07 4.17931E-08
 -1       522 1.70919E+07 9.06273E+05 3.74357E+06-1.33121E+07-4.49712E-07-2.86062E-07
 -1       523-8.82295E+06-3.60078E+05-4.32812E+05 3.95186E+06 3.53903E-08-3.48358E-07
 -1       524-5.48051E+06 4.97720E+06 1.45498E+06-1.90552E+07 6.40161E-07-5.55472E-07
 -1       525-1.16644E+07-9.65480E+05-1.23353E+06 3.65244E+06 4.43892E-07-1.86090E-07
 -1       526 2.47083E+07-1.04859E+06 4.93539E+06-9.14940E+06 2.22964E-07-4.01196E-08
 -1       527-2.50678E+07-5.81775E+06-6.42954E+06-3.69631E+06 8.37026E-08-1.30749E-07
 -1       528 3.27449E+07 8.85199E+06 7.52884E+06 1.59594E+07-4.36616E-07 3.46627E-08
 -1       529-1.57217E+07-1.30213E+07-5.80596E+06-9.73512E+06-4.72064E-08-1.40222E-07
 -1       530-4.01091E+06 2.18958E+07 4.11263E+06 8.55688E+06-1.75118E-07 3.65544E-07
 -1       531-6.57442E+05-8.94046E+06-3.74568E+05-4.22154E+06-7.93152E-07 1.29716E-07
 -1       532-1.91210E+07 1.84779E+07 1.44422E+06-6.32544E+06 2.93563E-07-6.18620E-07
 -1       533-2.05936E+06-1.00271E+07-1.23470E+06-4.91145E+06-4.34811E-08-8.46980E-07
 -1       534 1.14320E+06 2.26928E+07 4.61581E+06 1.13638E+07-9.99280E-08 6.70669E-07
 -1       535-1.84594E+07-1.32952E+07-7.52836E+06-9.61988E+06 5.59958E-08 3.83443E-07
 -1       536-6.25079E+05-4.12099E+04-2.05782E+04-4.38019E+04-7.04495E-09 4.57130E-08
 -1       537-1.34087E+05 4.05801E+04 7.31318E+04 1.02663E+05-9.21959E-08 7.38855E-08
 -1       538-3.90491E+05 1.57088E+03 6.63071E+03-6.12862E+04 3.49070E-08 8.11551E-08
 -1       539-2.97215E+05 2.86793E+03 2.07340E+04 1.16659E+05 1.44424E-07 8.88264E-08
 -1       540-4.65959E+05-1.92016E+02-1.46589E+04-5.81365E+04 1.02305E-08 8.85001E-08
 -1       541 1.30408E+04 1.26468E+04 7.97759E+04 7.98243E+04-3.35157E-08 5.82892E-08
 -1       542-6.92412E+05-1.51245E+04-6.27356E+04-2.38983E+04 3.94666E-08 2.69970E-08
 -1       543 2.05629E+05 2.04444E+04 1.17733E+05-1.15557E+04 1.27347E-08-1.83181E-08
 -1       544-6.53405E+05-1.22313E+04-5.56656E+04 3.28131E+04 2.12676E-08-3.91649E-08
 -1       545-7.74757E+04 6.69152E+03 5.85106E+04-9.42672E+04-1.79647E-08-6.39757E-08
 -1       546-4.16872E+05 4.86984E+03-9.43219E+03 5.86003E+04 2.34891E-08-6.75454E-08
 -1       547-3.11822E+05-4.64091E+03 5.86015E+03-1.19228E+05-9.02182E-08-9.19792E-08
 -1       548-4.25318E+05 4.30055E+03-2.06309E+04 5.82131E+04-8.13770E-08-7.67018E-08
 -1       549-6.08036E+04 6.60651E+03 3.79334E+04-9.16563E+04-5.45934E-08-5.96074E-08
 -1       550-6.61153E+05-1.19738E+04-1.07087E+05 3.05681E+04 4.17413E-09-4.14111E-08
 -1       551 3.42775E+04-7.31118E+05-9.86649E+02-1.17432E+06-8.65984E-08-1.24710E-08
 -1       552 7.75762E+04-7.65538E+05 1.81723E+04-1.67425E+06-6.29516E-08 2.62808E-08
 -1       553 5.87766E+04-7.65147E+05 3.74382E+04-1.16860E+06-1.02875E-07 2.48983E-08
 -1       554 1.12525E+05-7.75480E+05 8.71462E+04-1.67619E+06-6.34172E-08 2.06055E-08
 -1       555 8.81656E+04-7.87278E+05 1.57197E+05-1.16876E+06-1.07655E-07-1.32350E-08
 -1       556 1.89371E+05-3.31606E+05 4.20222E+04-3.67977E+05-2.27883E-08-1.49303E-08
 -1       557 3.06803E+05-4.25969E+05 2.39073E+04-4.72955E+05-1.23691E-09 1.18380E-08
 -1       558 1.76402E+05-3.29655E+05 6.75162E+03-3.68264E+05-1.89175E-08-9.93896E-09
 -1       559 2.85328E+05-4.29191E+05 4.30892E+03-4.88906E+05 2.53058E-08-5.85351E-09
 -1       560 1.64814E+05-3.22346E+05 5.31592E+01-3.76480E+05 7.53789E-09-1.41081E-08
 -1       561 2.70545E+05-4.23446E+05 6.76587E+02-4.98868E+05-1.71713E-09-1.37152E-08
 -1       562 1.55678E+05-3.16631E+05-6.73851E+02-3.83065E+05 9.89530E-10-7.96717E-10
 -1       563 2.59733E+05-4.18730E+05 1.28753E+02-5.05896E+05 4.65661E-10-1.45274E-08
 -1       564 1.49261E+05-3.12621E+05-3.34987E+02-3.87603E+05 7.68341E-09 1.68643E-08
 -1       565 2.52741E+05-4.15687E+05 6.96941E+01-5.10354E+05 4.39468E-09 7.99446E-09
 -1       566 1.45660E+05-3.10337E+05-1.50967E+02-3.90124E+05-5.33328E-09 1.03755E-08
 -1       567 2.49587E+05-4.14312E+05-2.63686E+02-5.12242E+05 1.34205E-08 1.38571E-08
 -1       568 1.44945E+05-3.09907E+05-8.69318E+02-3.90720E+05 4.50245E-09 1.64691E-08
 -1       569 2.49040E+05-4.14283E+05-2.19500E+03-5.10633E+05-3.84716E-09 6.28643E-09
 -1       570 1.48090E+05-3.12778E+05-4.85036E+03-3.89876E+05 4.07454E-09-1.21363E-08
 -1       571 2.67321E+05 9.69977E+03 1.39969E+04-8.24315E+04 2.45382E-09-5.67434E-09
 -1       572 2.69366E+05 3.57216E+03 6.85897E+03-9.04337E+04 3.88900E-09-7.48241E-09
 -1       573 2.68136E+05 1.04741E+03 3.04755E+03-8.22712E+04-7.67523E-09 8.05994E-09
 -1       574 2.68350E+05 5.49664E+02 1.52794E+03-9.06317E+04-1.52156E-08 9.13678E-09
 -1       575 2.68226E+05 3.01306E+02 7.20993E+02-8.22495E+04-1.01520E-08 1.80462E-08
 -1       576 2.68222E+05 3.00687E+02 3.68779E+02-9.06580E+04-7.52607E-09-7.65613E-09
 -1       577 2.68257E+05 2.50702E+02 1.83918E+02-8.22465E+04-4.86034E-09 3.02134E-09
 -1       578 2.68239E+05 2.71425E+02 1.05579E+02-9.06616E+04-3.36468E-09 2.91129E-09
 -1       579 2.68310E+05 2.25178E+02 7.22040E+01-8.22462E+04 3.20961E-09-2.94312E-09
 -1       580 2.68313E+05 2.35147E+02 8.24283E+01-9.06572E+04-7.41784E-09 9.65065E-09
 -1       581 2.68393E+05 1.83970E+02 1.24696E+02-8.22513E+04 4.38013E-09 1.40972E-09
 -1       582 2.68446E+05 2.15195E+02 2.51819E+02-9.06039E+04 2.21917E-10 2.45745E-09
 -1       583 2.68494E+05 2.37356E+02 4.85145E+02-8.23000E+04-1.03682E-09-1.15990E-08
 -1       584 2.68752E+05 6.30064E+02 1.09566E+03-9.01947E+04 4.74211E-09-1.31263E-09
 -1       585 2.68489E+05 1.56636E+03 2.22147E+03-8.26602E+04 2.85581E-10 3.56522E-10
 -1       586-3.20085E+03 1.01637E+05-3.10049E+03-2.33369E+05-4.74847E-09-1.10622E-08
 -1       587-1.09197E+03 1.01328E+05 4.76192E+02-2.56851E+05-6.00630E-09-2.97150E-08
 -1       588 5.42688E+02 1.01219E+05 4.21770E+03-2.33248E+05-1.58980E-09-1.79261E-08
 -1       589 4.82992E+03 1.03434E+05 1.11467E+04-2.56615E+05-4.96220E-09-3.47518E-09
 -1       590 1.52689E+04 1.00004E+05 2.34642E+04-2.33649E+05-3.17414E-09-4.69845E-09
 -1       591-6.45759E+04-1.44392E+04-2.01172E+04-2.83217E+04-1.37015E-09-3.90628E-09
 -1       592-6.80059E+04-1.78372E+04-1.08969E+04-3.18106E+04 4.62006E-09 1.03905E-08
 -1       593-6.65895E+04-1.29777E+04-4.53594E+03-2.97952E+04 3.36651E-09-1.60637E-08
 -1       594-6.52253E+04-1.48885E+04-2.26222E+03-3.19197E+04 1.03012E-09 9.63192E-09
 -1       595-6.67431E+04-1.29727E+04-1.03873E+03-2.98622E+04 2.51123E-09 8.60950E-10
 -1       596-6.50351E+04-1.47536E+04-5.28110E+02-3.18974E+04 1.87253E-08 1.10450E-08
 -1       597-6.67624E+04-1.29864E+04-2.87704E+02-2.98647E+04 8.53635E-09-1.05643E-09
 -1       598-6.50164E+04-1.47484E+04-2.31525E+02-3.18911E+04-1.16955E-09-9.65838E-09
 -1       599-6.67612E+04-1.29868E+04-2.96048E+02-2.98643E+04 1.04501E-09-7.31723E-09
 -1       600-6.50354E+04-1.47544E+04-5.50206E+02-3.18957E+04 3.27145E-09-1.54482E-08
 -1       601-6.67388E+04-1.29737E+04-1.08556E+03-2.98611E+04 2.44495E-09-6.09202E-09
 -1       602-6.52340E+04-1.48945E+04-2.36592E+03-3.19156E+04-7.42966E-09-9.94862E-09
 -1       603-6.65757E+04-1.29815E+04-4.74468E+03-2.97917E+04-3.46063E-10-2.33194E-09
 -1       604-6.81583E+04-1.79612E+04-1.13978E+04-3.17792E+04 3.71074E-09 1.08869E-08
 -1       605-6.44513E+04-1.45262E+04-2.10419E+04-2.82679E+04 4.67236E-09 1.54723E-08
 -1       606 2.67887E+04-1.30698E+04-2.34463E+04 2.46662E+04 5.75801E-09 1.52841E-09
 -1       607 2.27810E+04-4.25999E+03-1.16759E+04 2.77096E+04-1.13596E-09 1.39164E-08
 -1       608 2.50626E+04-7.60453E+02-5.22728E+03 2.44848E+04-1.83718E-09 8.65543E-09
 -1       609 2.46220E+04-2.50407E+02-2.64055E+03 2.79286E+04 4.22006E-10 1.35003E-09
 -1       610 2.48643E+04-2.51928E+01-1.26014E+03 2.44637E+04 1.92449E-09 5.88443E-09
 -1       611 2.47923E+04-2.20286E+01-6.35345E+02 2.79523E+04 4.00905E-09 4.86671E-09
 -1       612 2.48183E+04-1.08533E+01-3.02355E+02 2.44616E+04 3.41970E-10 7.10997E-09
 -1       613 2.47998E+04-1.66008E+01-1.35742E+02 2.79551E+04-1.51476E-09 1.31474E-08
 -1       614 2.47958E+04-1.52212E+01-3.26047E+01 2.44608E+04 1.86083E-09 1.94018E-09
 -1       615 2.47926E+04-1.39204E+01 5.51438E+01 2.79555E+04 6.64386E-10 5.56906E-09
 -1       616 2.47782E+04-1.12821E+01 1.66947E+02 2.44611E+04 2.56932E-10-2.54204E-09
 -1       617 2.48109E+04 2.27417E+01 3.81588E+02 2.79551E+04 1.50612E-09-7.78073E-10
 -1       618 2.47438E+04 9.95558E+01 7.69364E+02 2.44613E+04 7.00766E-10-1.02345E-08
 -1       619 2.50814E+04 6.18297E+02 1.72784E+03 2.79544E+04-3.92652E-09-1.06327E-08
 -1       620 2.44876E+04 1.92454E+03 3.47293E+03 2.44619E+04-1.47884E-09 1.05233E-08
 -1       621 4.11171E+02 2.75621E+05 3.35240E+03 3.23113E+04 5.69344E-10 7.92261E-09
 -1       622 5.31575E+02 2.76413E+05 3.02308E+03 4.69370E+04 6.89397E-10-2.15914E-09
 -1       623 8.71418E+01 2.75797E+05 3.69761E+03 3.21630E+04 7.73525E-10 4.43561E-09
 -1       624 1.84785E+03 2.77550E+05 7.21972E+03 4.70843E+04 9.54628E-10-1.11852E-08
 -1       625 1.82501E+03 2.74369E+05 1.26415E+04 3.21600E+04 1.18962E-09-4.27781E-09
 -1       626 2.40479E+05 5.84682E+04 4.89796E+03 1.19138E+05-3.50246E-09 1.97106E-08
 -1       627 2.38159E+05 5.99071E+04 2.36027E+03 1.23338E+05-1.30990E-08 1.11066E-08
 -1       628 2.40608E+05 5.62180E+04 9.97963E+02 1.19959E+05-6.35828E-09 4.03361E-10
 -1       629 2.37538E+05 5.92687E+04 4.88471E+02 1.23579E+05-7.16682E-10 1.42809E-08
 -1       630 2.40621E+05 5.61099E+04 2.26373E+02 1.19992E+05-6.65477E-09-1.49577E-08
 -1       631 2.37471E+05 5.92457E+04 1.21542E+02 1.23580E+05-2.64959E-09-1.69827E-08
 -1       632 2.40616E+05 5.61148E+04 7.95022E+01 1.19987E+05 8.22956E-09-5.20413E-09
 -1       633 2.37461E+05 5.92485E+04 8.78146E+01 1.23575E+05 4.86307E-09-1.69196E-08
 -1       634 2.40610E+05 5.61130E+04 1.41250E+02 1.19985E+05-1.79364E-09-1.24373E-10
 -1       635 2.37473E+05 5.92476E+04 2.85429E+02 1.23579E+05-2.08916E-09-1.17598E-08
 -1       636 2.40600E+05 5.61085E+04 5.76221E+02 1.19984E+05-9.91474E-09-2.89401E-09
 -1       637 2.37596E+05 5.93375E+04 1.26671E+03 1.23578E+05-2.39138E-08 1.63805E-08
 -1       638 2.40554E+05 5.63887E+04 2.60268E+03 1.19857E+05-1.28575E-08-1.18930E-08
 -1       639 2.38963E+05 6.12388E+04 6.15783E+03 1.23174E+05 2.61207E-09-1.62702E-08
 -1       640 2.40367E+05 6.20643E+04 1.27786E+04 1.17462E+05-7.20775E-10-5.31327E-09
 -1       656 6.19075E+04-1.58133E+06-1.49444E+05-1.81289E+03-2.03727E-10-1.73170E-08
 -1       657-8.18837E+04-1.64884E+06-1.23772E+05 5.98909E+03-2.49202E-10-3.93011E-09
 -1       658 1.97201E+04-1.60052E+06-7.61881E+04-3.66532E+03 1.34150E-10 1.12885E-08
 -1       659-8.84337E+04-1.65195E+06-1.32379E+05 7.46665E+03-2.21735E-09 7.18950E-09
 -1       660 6.84428E+04-1.57823E+06-1.64241E+05-3.29044E+03-2.13913E-09-5.44688E-09
 -1       661 1.60227E+05 1.69367E+04 1.65295E+04 6.26433E+04 1.73168E-09-2.49474E-09
 -1       662 1.69423E+05 2.93244E+04 1.11393E+04 5.91056E+04 5.44617E-09-3.68073E-09
 -1       663 1.63473E+05 2.22403E+04 3.89603E+03 6.17022E+04-1.18916E-10-2.43972E-10
 -1       664 1.65661E+05 2.31211E+04 2.33033E+03 6.02543E+04 2.61309E-09 5.07265E-09
 -1       665 1.63964E+05 2.29658E+04 9.19308E+02 6.15598E+04 2.88804E-09-5.14711E-09
 -1       666 1.65081E+05 2.22906E+04 5.37680E+02 6.04394E+04 3.93106E-09 9.77868E-09
 -1       667 1.64050E+05 2.30491E+04 2.85308E+02 6.15249E+04 2.27899E-09 5.16541E-09
 -1       668 1.64987E+05 2.22296E+04 2.90026E+02 6.04901E+04-5.61528E-10-7.11705E-09
 -1       669 1.64057E+05 2.30251E+04 3.92109E+02 6.15095E+04-1.97616E-10 1.79240E-08
 -1       670 1.65083E+05 2.24415E+04 8.53302E+02 6.04924E+04-7.38805E-09 3.19693E-09
 -1       671 1.63954E+05 2.28415E+04 1.51493E+03 6.15207E+04 5.03022E-10-1.23189E-08
 -1       672 1.65966E+05 2.39152E+04 3.87578E+03 6.02785E+04 7.28498E-09-9.83704E-09
 -1       673 1.63178E+05 2.15886E+04 6.49513E+03 6.17092E+04 7.06677E-10 3.00133E-11
 -1       674 1.72149E+05 3.43495E+04 1.85747E+04 5.84614E+04-2.68392E-09-1.00474E-08
 -1       675 1.57811E+05 1.26993E+04 2.75713E+04 6.32280E+04-1.98406E-09-1.04774E-09
 -1       676 2.28708E+01-2.79861E+05-1.05991E+03-8.30475E+01 1.29933E-09-6.09372E-09
 -1       677-2.81045E+02-2.80117E+05-1.93980E+03 1.65973E+02 5.53962E-09-9.57252E-09
 -1       678 1.87963E+02-2.79678E+05-3.42908E+03-8.28701E+01 8.54698E-10-5.94711E-09
 -1       679-3.42974E+03-2.82187E+05-8.14601E+03 1.65294E+02 5.50790E-09-1.49562E-08
 -1       680 2.04725E+03-2.77792E+05-1.31286E+04-8.14464E+01-2.09184E-11 9.33237E-09
 -1       771-2.91951E+06-6.74917E+05-1.33761E+05-1.36906E+06-2.78233E-08-2.45345E-08
 -1       772-2.85470E+06-7.52667E+05-6.92813E+04-1.45857E+06-1.89466E-08 1.04519E-08
 -1       773-2.94465E+06-6.55209E+05-3.46322E+04-1.37979E+06-1.12923E-08 9.80799E-09
 -1       774-2.84533E+06-7.38013E+05-1.55963E+04-1.47843E+06 2.74740E-08-1.82990E-09
 -1       775-2.95708E+06-6.46457E+05-1.12100E+04-1.38465E+06-1.89175E-09 2.31375E-09
 -1       776-2.85387E+06-7.36064E+05-4.26679E+03-1.49304E+06-1.29221E-08 3.47791E-09
 -1       777-2.96769E+06-6.38758E+05-4.79047E+03-1.38892E+06 3.57977E-09 4.32919E-09
 -1       778-2.86288E+06-7.34326E+05-1.38010E+03-1.50554E+06 1.08776E-08 5.85169E-09
 -1       779-2.97674E+06-6.32084E+05-2.34301E+03-1.39257E+06-7.11589E-09-6.94490E-09
 -1       780-2.87080E+06-7.32667E+05-3.92471E+02-1.51571E+06-6.83940E-09 9.38599E-10
 -1       781-2.98389E+06-6.26730E+05-8.92462E+02-1.39542E+06-2.73139E-08-8.08177E-09
 -1       782-2.87687E+06-7.31245E+05 3.40716E+02-1.52320E+06-3.28509E-08-4.72392E-09
 -1       783-2.98891E+06-6.23031E+05 5.42705E+02-1.39743E+06-8.78936E-09-1.16056E-08
 -1       784-2.88018E+06-7.29718E+05 2.18050E+03-1.52781E+06-1.59052E-08 3.31056E-10
 -1       785-2.99188E+06-6.20827E+05 3.85582E+03-1.39872E+06-3.17232E-08 6.45559E-09
 -1       786 1.22346E+05-9.41529E+03 2.17825E+04-2.49491E+02 7.15563E-10-1.89266E-09
 -1       787 1.31792E+05 1.09004E+04 1.54103E+04-7.44967E+01 6.76606E-09 7.29801E-09
 -1       788 1.25988E+05-1.47560E+03 5.63581E+03-2.17927E+02 3.83501E-09 3.96335E-09
 -1       789 1.27549E+05 1.70757E+03 3.53828E+03-1.23720E+02-1.28801E-09 1.57921E-08
 -1       790 1.26589E+05-2.29965E+02 1.43327E+03-2.00280E+02-2.56232E-09-1.54762E-09
 -1       791 1.26846E+05 2.65836E+02 8.29178E+02-1.54086E+02-4.65363E-09-4.82346E-09
 -1       792 1.26691E+05-3.49426E+01 3.54064E+02-1.87563E+02-3.63815E-09 3.80038E-09
 -1       793 1.26725E+05 3.78475E+01 1.82424E+02-1.77986E+02 3.92333E-10-8.84783E-09
 -1       794 1.26710E+05-2.12039E+00 5.92895E+01-1.76380E+02 4.11182E-09-8.39421E-10
 -1       795 1.26694E+05-1.65172E+01-2.38343E+01-2.01224E+02-1.89376E-09 1.94709E-08
 -1       796 1.26722E+05 1.93925E+01-1.01990E+02-1.64324E+02 3.20770E-09-7.12487E-09
 -1       797 1.26629E+05-1.46911E+02-2.95294E+02-2.28738E+02 1.71523E-09-1.49646E-08
 -1       798 1.26775E+05 1.28176E+02-4.83787E+02-1.48865E+02 1.75024E-09-1.65941E-08
 -1       799 1.26261E+05-9.45535E+02-1.33466E+03-2.66552E+02 4.36679E-09-4.61256E-09
 -1       800 1.27091E+05 8.17361E+02-1.88985E+03-1.26510E+02 1.23020E-10 1.80046E-08
 -1       801-6.58064E+04-7.98264E+06-1.05553E+06 9.48476E+05 7.64558E-08-4.54238E-08
 -1       802 4.32426E+05 2.81603E+06 1.39433E+06-1.12391E+06 2.15659E-07-3.80869E-08
 -1       803-3.53454E+05-1.07033E+07-1.28369E+06 6.05975E+05 6.70552E-08 1.63473E-08
 -1       804 1.66595E+05 3.03856E+05 9.83251E+05 5.19838E+05-9.39835E-08-7.07440E-08
 -1       805 1.47108E+05-5.48540E+06-2.00429E+05-6.91474E+05-3.91810E-08-5.26634E-08
 -1       806-2.87326E+05-5.50348E+04-2.10964E+04-1.13213E+05-1.16652E-08-1.72035E-08
 -1       807-2.89073E+05-5.15034E+04-1.03644E+04-1.18228E+05 4.46653E-09 2.38386E-09
 -1       808-2.87898E+05-4.74389E+04-4.39698E+03-1.16816E+05-8.16271E-10-1.11311E-09
 -1       809-2.86898E+05-4.85875E+04-2.15003E+03-1.18478E+05 2.81852E-09 6.95672E-09
 -1       810-2.87986E+05-4.71743E+04-9.85453E+02-1.16975E+05 7.87941E-09-9.31050E-09
 -1       811-2.86731E+05-4.84699E+04-4.90065E+02-1.18446E+05 2.14504E-09 1.01377E-08
 -1       812-2.88000E+05-4.71967E+04-2.47816E+02-1.16975E+05-6.26005E-09 2.00448E-08
 -1       813-2.86708E+05-4.84716E+04-1.61055E+02-1.18429E+05-5.99402E-09-8.54675E-09
 -1       814-2.87994E+05-4.72051E+04-1.59518E+02-1.16972E+05-5.88443E-09-1.07420E-08
 -1       815-2.86713E+05-4.84734E+04-2.57105E+02-1.18423E+05-8.53424E-09 5.14774E-10
 -1       816-2.87976E+05-4.72036E+04-4.87184E+02-1.16969E+05-8.95852E-10 2.13677E-08
 -1       817-2.86796E+05-4.85196E+04-1.04582E+03-1.18414E+05-5.11318E-09 6.07179E-09
 -1       818-2.87914E+05-4.73503E+04-2.13296E+03-1.16900E+05-7.91988E-09 5.16775E-09
 -1       819-2.87964E+05-4.98092E+04-5.01911E+03-1.18140E+05-1.00936E-08 4.73528E-09
 -1       820-2.87516E+05-5.11386E+04-1.02155E+04-1.15277E+05-5.21050E-09 2.55723E-08
 -1       821-3.54536E+05 1.95429E+04-4.52426E+04 1.16924E+03 8.47486E-09-1.03519E-08
 -1       822-3.73962E+05-2.26258E+04-3.19844E+04-2.14830E+03 1.67096E-09 9.35415E-09
 -1       823-3.61997E+05 3.06695E+03-1.17108E+04 1.56172E+03-6.35447E-09 3.21097E-09
 -1       824-3.65171E+05-3.54538E+03-7.35969E+03-2.22010E+03 7.64189E-10 1.34456E-08
 -1       825-3.63323E+05 4.77409E+02-3.04240E+03 1.24106E+03 8.65353E-09 3.42766E-09
 -1       826-3.63525E+05-5.56884E+02-1.78182E+03-1.03374E+03 1.15371E-08-1.06577E-08
 -1       827-3.63637E+05 7.64810E+01-9.84101E+02 3.75330E+02 5.16899E-09 1.02742E-08
 -1       828-3.63269E+05-1.64504E+02-7.82421E+02 7.92272E+02-1.85568E-09-2.51069E-09
 -1       829-3.63577E+05 8.41913E+01-9.93966E+02-5.84971E+02 1.16637E-09 5.67337E-09
 -1       830-3.63666E+05-5.88008E+02-1.87301E+03 2.30516E+03 2.24958E-11 3.32670E-09
 -1       831-3.63245E+05 5.03634E+02-3.14307E+03-1.13758E+03-2.18236E-09 8.06153E-10
 -1       832-3.65259E+05-3.69079E+03-7.65213E+03 2.71376E+03-1.82202E-09 1.65255E-08
 -1       833-3.61988E+05 3.18656E+03-1.21795E+04-9.93576E+02-1.67702E-09 1.58161E-09
 -1       834-3.74243E+05-2.35114E+04-3.32139E+04 1.78816E+03-1.63053E-09-1.74218E-08
 -1       835-3.54261E+05 2.03056E+04-4.70344E+04-2.11961E+02 5.42452E-09-7.60338E-10
 -1       836-1.27663E+03 3.39692E+05 2.09155E+04-1.59054E+04-4.76757E-09-1.37661E-08
 -1       837 4.48650E+03 3.46230E+05 1.77570E+04-3.23067E+04-4.98278E-09-1.37807E-08
 -1       838-5.00652E+02 3.41518E+05 1.81746E+04-1.58371E+04-3.98813E-09 4.02315E-09
 -1       839 1.14981E+04 3.51454E+05 3.44619E+04-3.23549E+04-4.17049E-09 3.66549E-09
 -1       840-3.53565E+03 3.34415E+05 5.49893E+04-1.58606E+04-4.19823E-09 5.56270E-10
 -1       856-5.90804E+04 7.83047E+03-2.06352E+04-3.97941E+02-1.47168E-10-9.28594E-10
 -1       857-6.75881E+04-9.19569E+03-1.42055E+04 5.32688E+03 4.88953E-09 1.25215E-09
 -1       858-6.24474E+04 1.09787E+03-5.35455E+03-4.21126E+02 1.34651E-09 1.50358E-08
 -1       859-6.37236E+04-1.28706E+03-3.23180E+03 5.36202E+03-2.94342E-09 8.21763E-09
 -1       860-6.29505E+04 1.53458E+02-1.35535E+03-4.32926E+02 2.68867E-09-1.59338E-09
 -1       861-6.31447E+04-1.78969E+02-7.47534E+02 5.37813E+03 1.23642E-10-1.43954E-08
 -1       862-6.30291E+04 2.06176E+01-3.14596E+02-4.37235E+02-5.53825E-10-1.26507E-08
 -1       863-6.30490E+04-1.79480E+01-1.23353E+02 5.38051E+03-5.10715E-09 1.46008E-09
 -1       864-6.30466E+04-3.93261E+00 2.63550E+01-4.35304E+02-2.19106E-09-2.99514E-09
 -1       865-6.30001E+04 5.27565E+01 2.05205E+02 5.36984E+03 1.06374E-09-1.79673E-08
 -1       866-6.30760E+04-5.01971E+01 4.23671E+02-4.26568E+02-1.78079E-09-6.53108E-09
 -1       867-6.27982E+04 4.15716E+02 1.04933E+03 5.34607E+03 1.73205E-09-2.56193E-09
 -1       868-6.32440E+04-3.60617E+02 1.74523E+03-4.11534E+02-1.13022E-09-1.51178E-08
 -1       869-6.15168E+04 3.00133E+03 4.64936E+03 5.30660E+03 2.25825E-09-1.92663E-08
 -1       870-6.43503E+04-2.56598E+03 6.74695E+03-3.87040E+02-2.07388E-09-4.08409E-09
 -1       871-5.19685E+03-1.78216E+04-1.79339E+04 1.19800E+05-2.86673E-09-8.09632E-09
 -1       872-1.97791E+03-2.19519E+04-7.47018E+03 1.55333E+05-6.58110E-09-2.75504E-08
 -1       873 2.57528E+02-1.99724E+04 6.41573E+02 1.19537E+05-3.45062E-09 8.40600E-10
 -1       874 2.94552E+03-1.76690E+04 9.22985E+03 1.55366E+05-7.14044E-09 2.13565E-08
 -1       875 6.31474E+03-2.21709E+04 2.07452E+04 1.19757E+05-3.27418E-09-7.49515E-09
 -1       876 2.74541E+05 4.64724E+04 1.41958E+04 1.10413E+05-1.30115E-09 6.28643E-09
 -1       877 2.75459E+05 4.94824E+04 7.58108E+03 1.14503E+05 7.02835E-09-1.70227E-08
 -1       878 2.75868E+05 4.49005E+04 3.17611E+03 1.11577E+05-3.03407E-09-1.86874E-08
 -1       879 2.73529E+05 4.75571E+04 1.58248E+03 1.14600E+05 6.23004E-11-1.66756E-08
 -1       880 2.75964E+05 4.48840E+04 7.37058E+02 1.11624E+05-5.33123E-09-1.05005E-08
 -1       881 2.73401E+05 4.74749E+04 3.93469E+02 1.14578E+05-6.60202E-09-1.68582E-08
 -1       882 2.75972E+05 4.48963E+04 2.51508E+02 1.11626E+05 1.25942E-09-9.17017E-09
 -1       883 2.73392E+05 4.74707E+04 2.70031E+02 1.14571E+05-9.30243E-10 2.90627E-08
 -1       884 2.75966E+05 4.48936E+04 4.29244E+02 1.11626E+05-3.13435E-10-5.39171E-09
 -1       885 2.73426E+05 4.74766E+04 8.62825E+02 1.14582E+05-2.90999E-09 1.87811E-09
 -1       886 2.75933E+05 4.48684E+04 1.73890E+03 1.11622E+05-4.86089E-09-3.59250E-11
 -1       887 2.73732E+05 4.76770E+04 3.79837E+03 1.14626E+05 5.17275E-10 2.75554E-09
 -1       888 2.75693E+05 4.49106E+04 7.65382E+03 1.11501E+05-7.69799E-09 8.43329E-09
 -1       889 2.78289E+05 5.24151E+04 1.82837E+04 1.14485E+05-7.91631E-09 2.44163E-08
 -1       890 2.72571E+05 4.86194E+04 3.42448E+04 1.08586E+05-8.25594E-09 2.07347E-08
 -1       891-1.05384E+02-1.52815E+05-1.86350E+03 2.61628E+04-1.77624E-09 2.52157E-09
 -1       892-1.97263E+02-1.53296E+05-2.00493E+03 3.96898E+04 1.58343E-09-2.08547E-08
 -1       893 1.88131E+01-1.52874E+05-2.84235E+03 2.61694E+04-8.41965E-10-8.32597E-09
 -1       894-1.44800E+03-1.54372E+05-5.88525E+03 3.95444E+04 2.54749E-09 7.19729E-09
 -1       895-1.14528E+03-1.51649E+05-1.03648E+04 2.63089E+04-3.74030E-11 3.97722E-09
 -1       956-3.51273E+05-5.02362E+03-1.24763E+04 2.73651E+04 4.25644E-09 8.94033E-09
 -1       957-3.53726E+05-1.74821E+03-6.40414E+03 3.29073E+04 2.47837E-10-1.30447E-08
 -1       958-3.52390E+05-1.95084E+02-2.88571E+03 2.72119E+04 2.41016E-09-1.59707E-08
 -1       959-3.52577E+05-9.37271E+01-1.47365E+03 3.30826E+04 8.70523E-09 1.31472E-08
 -1       960-3.52497E+05-1.52057E+01-7.18592E+02 2.71964E+04 6.17138E-09 7.40874E-09
 -1       961-3.52499E+05-2.76077E+01-3.81157E+02 3.31007E+04 5.45015E-09-1.98270E-09
 -1       962-3.52521E+05-1.74838E+01-2.18360E+02 2.71939E+04 3.66981E-10 1.16377E-08
 -1       963-3.52499E+05-2.44391E+01-1.75575E+02 3.31039E+04 3.02293E-09 6.18138E-09
 -1       964-3.52525E+05-1.46110E+01-2.13757E+02 2.71932E+04-1.66295E-09-3.06773E-09
 -1       965-3.52510E+05-2.14868E+01-3.69913E+02 3.31034E+04-9.92378E-09-1.57754E-08
 -1       966-3.52511E+05-6.66471E+00-6.95038E+02 2.71945E+04-3.19983E-09-1.70928E-08
 -1       967-3.52596E+05-7.95654E+01-1.42560E+03 3.30909E+04 1.10117E-09-1.36215E-08
 -1       968-3.52417E+05-1.75126E+02-2.79061E+03 2.72056E+04-7.95353E-10 6.92228E-09
 -1       969-3.53718E+05-1.67520E+03-6.19535E+03 3.29606E+04 2.81943E-09 1.85443E-08
 -1       970-3.51343E+05-4.84277E+03-1.20685E+04 2.73198E+04-1.21145E-09 2.60779E-08
 -1       971-3.23686E+05-1.63440E+03-8.88126E+03 1.46390E+04 1.65346E-09 1.35586E-09
 -1       972-3.25829E+05-1.19486E+03-4.83666E+03 2.03032E+04 5.78166E-09-8.34052E-09
 -1       973-3.24675E+05-4.60050E+01-2.16624E+03 1.45216E+04 1.03046E-09-1.92244E-09
 -1       974-3.24809E+05-5.91845E+01-1.12276E+03 2.04343E+04-8.96534E-10 1.17590E-08
 -1       975-3.24753E+05-3.48936E+00-5.61284E+02 1.45100E+04-1.17006E-09-6.41410E-09
 -1       976-3.24750E+05-1.18776E+01-3.23939E+02 2.04490E+04-1.08230E-09 4.23097E-09
 -1       977-3.24768E+05-2.99948E+00-2.35314E+02 1.45070E+04-9.74751E-10-1.20388E-08
 -1       978-3.24755E+05-6.11403E+00-2.75650E+02 2.04534E+04-1.06138E-09-3.20938E-09
 -1       979-3.24768E+05 4.85827E+00-4.43122E+02 1.45056E+04-2.72149E-09 3.50610E-09
 -1       980-3.24788E+05-3.27129E+00-8.55762E+02 2.04543E+04 1.06874E-09 4.14309E-09
 -1       981-3.24741E+05 2.62365E+01-1.65749E+03 1.45061E+04 1.57229E-10 1.47760E-08
 -1       982-3.25016E+05-1.25703E+02-3.42603E+03 2.04480E+04-3.75519E-09 9.13841E-09
 -1       983-3.24532E+05-7.98407E+01-6.65680E+03 1.45120E+04-1.55342E-09-2.95131E-10
 -1       984-3.28217E+05-3.60225E+03-1.49075E+04 2.03661E+04 4.91627E-09-1.76041E-08
 -1       985-3.21518E+05-4.95085E+03-2.73749E+04 1.45841E+04-7.03949E-10 7.60701E-09
 -3
    1PSTEP                        21          11           1          
  100CL  111 6.35742E-01         409                     0   11           1
 -4  DISP        4    1
 -5  D1          1    2    1    0
 -5  D2          1    2    2    0
 -5  D3          1    2    3    0
 -5  ALL         1    2    0    0    1ALL
 -1         1 2.03601E-03 0.00000E+00 0.00000E+00
 -1         2 6.85830E-04 2.11873E-25-2.64698E-23
 -1         3 3.07576E-04 1.73183E-27 0.00000E+00
 -1         5 1.63811E-04-3.44096E-27-1.24077E-24
 -1         8 2.02550E-03-4.95920E-07 0.00000E+00
 -1         9 2.03224E-03-1.88624E-04 0.00000E+00
 -1        10 2.79304E-04-3.27865E-06 6.61744E-24
 -1        12 1.65203E-04 7.59169E-07-1.03398E-24
 -1        15 2.01357E-03-5.19473E-07 2.06795E-25
 -1        16 2.08129E-03-1.89973E-04 0.00000E+00
 -1        17 1.91347E-04-7.35494E-06 0.00000E+00
 -1        18 1.67874E-04 2.80229E-05 0.00000E+00
 -1        19 1.69381E-04 1.51316E-06 0.00000E+00
 -1        20 1.69524E-04-4.97280E-06 0.00000E+00
 -1        21 1.68700E-04-1.49433E-05 0.00000E+00
 -1        24 2.88480E-05-1.10424E-05 0.00000E+00
 -1        25 1.76378E-04 2.82295E-05 0.00000E+00
 -1        26 1.77059E-04 2.09615E-06 0.00000E+00
 -1        27 1.74994E-04-8.33733E-06 0.00000E+00
 -1        28 1.74655E-04-1.55376E-05 0.00000E+00
 -1        32 0.00000E+00 0.00000E+00 0.00000E+00
 -1        33 1.83722E-04 2.80571E-06 0.00000E+00
 -1        34 1.81717E-04-8.38520E-06 0.00000E+00
 -1        35 1.79879E-04-1.58624E-05 0.00000E+00
 -1        51 2.03530E-03-9.92440E-08-4.96308E-24
 -1        52 2.03400E-03-1.80969E-07 0.00000E+00
 -1        53 2.03225E-03-2.59380E-07 0.00000E+00
 -1        54 2.03016E-03-3.36606E-07 8.27181E-25
 -1        55 2.02787E-03-4.14330E-07 3.30872E-24
 -1        56 2.03070E-03 2.83911E-06 0.00000E+00
 -1        57 2.02240E-03 1.30773E-05 0.00000E+00
 -1        58 2.01239E-03 2.77253E-05 1.05879E-22
 -1        59 2.00197E-03 4.33345E-05 0.00000E+00
 -1        60 1.99258E-03 5.63143E-05-1.05879E-22
 -1        61 1.98551E-03 6.32895E-05 0.00000E+00
 -1        62 1.98160E-03 6.19403E-05 0.00000E+00
 -1        63 1.98135E-03 5.06751E-05 5.29396E-23
 -1        64 1.98460E-03 2.96667E-05 0.00000E+00
 -1        65 1.99089E-03-3.57855E-08 5.29396E-23
 -1        66 1.99925E-03-3.58121E-05 0.00000E+00
 -1        67 2.00860E-03-7.44855E-05-5.29396E-23
 -1        68 2.01768E-03-1.12352E-04 0.00000E+00
 -1        69 2.02527E-03-1.45772E-04 0.00000E+00
 -1        70 2.03035E-03-1.71931E-04 5.29396E-23
 -1        86 7.70692E-04-5.59050E-06 5.29396E-23
 -1        87 1.01745E-03-3.74497E-05 1.32349E-23
 -1        88 1.34827E-03-9.22550E-05-2.64698E-23
 -1        89 1.68253E-03-1.48244E-04-1.32349E-23
 -1        90 1.93750E-03-1.82069E-04 0.00000E+00
 -1       121 3.06782E-04-5.32513E-07 1.32349E-23
 -1       122 3.04405E-04-1.06745E-06 0.00000E+00
 -1       123 3.00451E-04-1.60718E-06 0.00000E+00
 -1       124 2.94935E-04-2.15411E-06-6.61744E-24
 -1       125 2.87878E-04-2.71029E-06-1.32349E-23
 -1       191 1.63850E-04 1.26566E-07 2.68834E-24
 -1       192 1.63966E-04 2.53125E-07-1.44757E-24
 -1       193 1.64159E-04 3.79673E-07 2.48154E-24
 -1       194 1.64430E-04 5.06202E-07-1.24077E-24
 -1       195 1.64778E-04 6.32704E-07 1.65436E-24
 -1       251 2.02597E-03-9.45779E-07 6.61744E-24
 -1       252 2.02645E-03-6.09876E-06 0.00000E+00
 -1       253 2.02691E-03-1.46531E-05-1.32349E-23
 -1       254 2.02736E-03-2.53789E-05 0.00000E+00
 -1       255 2.02779E-03-3.76659E-05-1.32349E-23
 -1       256 2.02821E-03-5.09364E-05 0.00000E+00
 -1       257 2.02862E-03-6.48941E-05 1.32349E-23
 -1       258 2.02902E-03-7.92572E-05-6.61744E-24
 -1       259 2.02942E-03-9.38602E-05 0.00000E+00
 -1       260 2.02982E-03-1.08543E-04-6.61744E-24
 -1       261 2.03022E-03-1.23166E-04 0.00000E+00
 -1       262 2.03062E-03-1.37592E-04 0.00000E+00
 -1       263 2.03103E-03-1.51625E-04 0.00000E+00
 -1       264 2.03143E-03-1.65061E-04 3.30872E-24
 -1       265 2.03185E-03-1.77526E-04 0.00000E+00
 -1       266 2.02351E-03-5.05926E-07-3.30872E-24
 -1       267 2.02152E-03-5.09110E-07 0.00000E+00
 -1       268 2.01954E-03-5.12726E-07 0.00000E+00
 -1       269 2.01755E-03-5.15063E-07 0.00000E+00
 -1       270 2.01556E-03-5.17370E-07 0.00000E+00
 -1       271 2.02457E-03-2.65713E-07-1.32349E-23
 -1       272 2.02468E-03-2.86411E-06-1.32349E-23
 -1       273 2.02576E-03-8.08871E-06 0.00000E+00
 -1       274 2.02772E-03-1.57210E-05 1.32349E-23
 -1       275 2.03047E-03-2.55147E-05-2.64698E-23
 -1       276 2.03392E-03-3.72043E-05-1.32349E-23
 -1       277 2.03794E-03-5.05036E-05-2.64698E-23
 -1       278 2.04244E-03-6.51110E-05 1.32349E-23
 -1       279 2.04729E-03-8.07114E-05 2.64698E-23
 -1       280 2.05238E-03-9.69796E-05 0.00000E+00
 -1       281 2.05759E-03-1.13584E-04 2.64698E-23
 -1       282 2.06280E-03-1.30188E-04-1.32349E-23
 -1       283 2.06789E-03-1.46458E-04 0.00000E+00
 -1       284 2.07275E-03-1.62061E-04-1.32349E-23
 -1       285 2.07725E-03-1.76672E-04 0.00000E+00
 -1       301 2.04090E-03-1.88874E-04 6.61744E-24
 -1       302 2.04837E-03-1.89087E-04 0.00000E+00
 -1       303 2.05538E-03-1.89294E-04 0.00000E+00
 -1       304 2.06270E-03-1.89503E-04 0.00000E+00
 -1       305 2.07109E-03-1.89722E-04 2.64698E-23
 -1       306 2.06574E-03-3.18402E-04 0.00000E+00
 -1       307 2.13028E-03-6.71469E-04 5.29396E-23
 -1       308 2.19073E-03-1.18937E-03 0.00000E+00
 -1       309 2.23844E-03-1.79128E-03 5.29396E-23
 -1       310 2.28976E-03-2.37038E-03 0.00000E+00
 -1       311 2.35522E-03-2.82204E-03 0.00000E+00
 -1       312 2.41153E-03-3.07776E-03 0.00000E+00
 -1       313 2.41281E-03-3.10013E-03 5.29396E-23
 -1       314 2.30497E-03-2.89737E-03 0.00000E+00
 -1       315 2.05590E-03-2.51568E-03 0.00000E+00
 -1       316 1.68110E-03-2.01974E-03 0.00000E+00
 -1       317 1.23155E-03-1.47195E-03-5.29396E-23
 -1       318 7.96122E-04-9.33696E-04 0.00000E+00
 -1       319 4.59616E-04-4.68506E-04 0.00000E+00
 -1       320 2.58405E-04-1.39579E-04 0.00000E+00
 -1       336 2.69048E-04-3.90434E-06 1.32349E-23
 -1       337 2.56950E-04-4.55035E-06 0.00000E+00
 -1       338 2.43064E-04-5.21827E-06-1.32349E-23
 -1       339 2.27453E-04-5.90863E-06-6.61744E-24
 -1       340 2.10188E-04-6.62520E-06 1.32349E-23
 -1       406 1.65706E-04 8.85586E-07 1.24077E-24
 -1       407 1.66287E-04 1.01192E-06 5.16988E-25
 -1       408 1.66944E-04 1.13813E-06 2.27475E-24
 -1       409 1.67680E-04 1.26406E-06 1.44757E-24
 -1       410 1.68492E-04 1.38946E-06-8.27181E-25
 -1       521 2.11579E-03-3.29182E-04 0.00000E+00
 -1       522 2.17978E-03-7.02938E-04-5.29396E-23
 -1       523 2.23591E-03-1.24970E-03 1.05879E-22
 -1       524 2.27668E-03-1.88241E-03-5.29396E-23
 -1       525 2.32198E-03-2.49048E-03 1.05879E-22
 -1       526 2.38513E-03-2.96578E-03-5.29396E-23
 -1       527 2.44163E-03-3.23383E-03 1.05879E-22
 -1       528 2.44146E-03-3.25612E-03 5.29396E-23
 -1       529 2.32389E-03-3.04062E-03 1.05879E-22
 -1       530 2.05426E-03-2.63995E-03 5.29396E-23
 -1       531 1.64842E-03-2.12227E-03-1.05879E-22
 -1       532 1.16258E-03-1.55315E-03 0.00000E+00
 -1       533 6.91244E-04-9.93101E-04 0.00000E+00
 -1       534 3.24695E-04-5.04917E-04 5.29396E-23
 -1       535 1.04390E-04-1.56043E-04 1.05879E-22
 -1       536 1.90716E-04 2.38047E-05 6.61744E-24
 -1       537 1.89150E-04 7.79560E-05-3.30872E-24
 -1       538 1.86740E-04 1.46738E-04-3.30872E-24
 -1       539 1.83903E-04 2.21712E-04-1.65436E-24
 -1       540 1.81346E-04 2.92558E-04 0.00000E+00
 -1       541 1.79676E-04 3.48977E-04 1.65436E-24
 -1       542 1.78893E-04 3.84837E-04 0.00000E+00
 -1       543 1.78688E-04 3.94141E-04 0.00000E+00
 -1       544 1.78397E-04 3.77616E-04-3.30872E-24
 -1       545 1.77411E-04 3.36180E-04-1.65436E-24
 -1       546 1.75603E-04 2.77211E-04 0.00000E+00
 -1       547 1.73176E-04 2.08195E-04-1.65436E-24
 -1       548 1.70776E-04 1.39600E-04-3.30872E-24
 -1       549 1.69039E-04 8.18932E-05 1.65436E-24
 -1       550 1.68128E-04 4.23223E-05 1.65436E-24
 -1       551 1.68811E-04-7.85833E-06 0.00000E+00
 -1       552 1.43246E-04-8.42774E-06 0.00000E+00
 -1       553 1.15552E-04-9.04879E-06-8.27181E-24
 -1       554 8.66442E-05-9.70370E-06-3.30872E-24
 -1       555 5.74391E-05-1.03690E-05 0.00000E+00
 -1       556 1.84593E-04 9.95882E-06 0.00000E+00
 -1       557 1.79158E-04 2.39402E-05 0.00000E+00
 -1       558 1.74920E-04 3.48530E-05 0.00000E+00
 -1       559 1.71758E-04 4.29820E-05 0.00000E+00
 -1       560 1.69553E-04 4.86119E-05 0.00000E+00
 -1       561 1.68192E-04 5.20298E-05 0.00000E+00
 -1       562 1.67558E-04 5.35239E-05 0.00000E+00
 -1       563 1.67540E-04 5.33831E-05 0.00000E+00
 -1       564 1.68026E-04 5.18970E-05 0.00000E+00
 -1       565 1.68906E-04 4.93557E-05 0.00000E+00
 -1       566 1.70071E-04 4.60497E-05 0.00000E+00
 -1       567 1.71412E-04 4.22700E-05 0.00000E+00
 -1       568 1.72822E-04 3.83076E-05 1.24077E-24
 -1       569 1.74191E-04 3.44535E-05 0.00000E+00
 -1       570 1.75411E-04 3.09986E-05 0.00000E+00
 -1       571 1.67965E-04 2.63043E-05-1.65436E-24
 -1       572 1.68059E-04 2.45253E-05-4.13590E-25
 -1       573 1.68153E-04 2.27002E-05 0.00000E+00
 -1       574 1.68247E-04 2.08435E-05 8.27181E-25
 -1       575 1.68341E-04 1.89702E-05 3.30872E-24
 -1       576 1.68435E-04 1.70951E-05-1.65436E-24
 -1       577 1.68529E-04 1.52330E-05 3.30872E-24
 -1       578 1.68624E-04 1.33988E-05 0.00000E+00
 -1       579 1.68718E-04 1.16075E-05 0.00000E+00
 -1       580 1.68812E-04 9.87385E-06 0.00000E+00
 -1       581 1.68907E-04 8.21282E-06 0.00000E+00
 -1       582 1.69002E-04 6.63922E-06 6.61744E-24
 -1       583 1.69096E-04 5.16794E-06 0.00000E+00
 -1       584 1.69191E-04 3.81367E-06 0.00000E+00
 -1       585 1.69286E-04 2.59096E-06 0.00000E+00
 -1       586 1.69246E-04 2.80593E-05 0.00000E+00
 -1       587 1.70582E-04 2.80952E-05 2.06795E-25
 -1       588 1.71922E-04 2.81307E-05 0.00000E+00
 -1       589 1.73307E-04 2.81656E-05 0.00000E+00
 -1       590 1.74779E-04 2.81993E-05 0.00000E+00
 -1       591 1.68458E-04 2.63871E-05 0.00000E+00
 -1       592 1.69046E-04 2.47302E-05 2.06795E-25
 -1       593 1.69639E-04 2.30580E-05 8.27181E-25
 -1       594 1.70236E-04 2.13752E-05 0.00000E+00
 -1       595 1.70834E-04 1.96867E-05 8.27181E-25
 -1       596 1.71433E-04 1.79972E-05-4.13590E-25
 -1       597 1.72031E-04 1.63115E-05-8.27181E-25
 -1       598 1.72625E-04 1.46343E-05 4.13590E-25
 -1       599 1.73215E-04 1.29705E-05 0.00000E+00
 -1       600 1.73797E-04 1.13246E-05-4.13590E-25
 -1       601 1.74372E-04 9.70162E-06-8.27181E-25
 -1       602 1.74936E-04 8.10613E-06-2.06795E-25
 -1       603 1.75488E-04 6.54294E-06-4.13590E-25
 -1       604 1.76026E-04 5.01691E-06 2.58494E-26
 -1       605 1.76550E-04 3.53271E-06 0.00000E+00
 -1       606 1.69394E-04 6.52686E-07 3.30872E-24
 -1       607 1.69404E-04-1.20342E-07 0.00000E+00
 -1       608 1.69413E-04-8.11054E-07 0.00000E+00
 -1       609 1.69422E-04-1.42524E-06-1.65436E-24
 -1       610 1.69431E-04-1.96874E-06 0.00000E+00
 -1       611 1.69439E-04-2.44745E-06 0.00000E+00
 -1       612 1.69448E-04-2.86729E-06 0.00000E+00
 -1       613 1.69456E-04-3.23417E-06 0.00000E+00
 -1       614 1.69465E-04-3.55400E-06 0.00000E+00
 -1       615 1.69473E-04-3.83271E-06 0.00000E+00
 -1       616 1.69482E-04-4.07622E-06 0.00000E+00
 -1       617 1.69491E-04-4.29044E-06 0.00000E+00
 -1       618 1.69499E-04-4.48129E-06 0.00000E+00
 -1       619 1.69508E-04-4.65469E-06-2.06795E-25
 -1       620 1.69516E-04-4.81655E-06-2.06795E-25
 -1       621 1.70417E-04 1.61076E-06 1.65436E-24
 -1       622 1.71589E-04 1.70862E-06 1.65436E-24
 -1       623 1.72867E-04 1.80634E-06-1.65436E-24
 -1       624 1.74224E-04 1.90379E-06 0.00000E+00
 -1       625 1.75631E-04 2.00098E-06-1.65436E-24
 -1       626 1.69810E-04 6.86707E-07 0.00000E+00
 -1       627 1.70215E-04-7.39015E-08 0.00000E+00
 -1       628 1.70599E-04-7.76450E-07 3.30872E-24
 -1       629 1.70964E-04-1.42906E-06 1.65436E-24
 -1       630 1.71313E-04-2.03988E-06 0.00000E+00
 -1       631 1.71650E-04-2.61708E-06-1.65436E-24
 -1       632 1.71977E-04-3.16881E-06-3.30872E-24
 -1       633 1.72298E-04-3.70327E-06-1.65436E-24
 -1       634 1.72616E-04-4.22861E-06 0.00000E+00
 -1       635 1.72933E-04-4.75300E-06 0.00000E+00
 -1       636 1.73253E-04-5.28462E-06-3.30872E-24
 -1       637 1.73578E-04-5.83163E-06-1.65436E-24
 -1       638 1.73912E-04-6.40220E-06 3.30872E-24
 -1       639 1.74258E-04-7.00454E-06 0.00000E+00
 -1       640 1.74618E-04-7.64682E-06-1.65436E-24
 -1       656 1.69908E-04-5.51976E-06 0.00000E+00
 -1       657 1.70702E-04-6.08889E-06-6.61744E-24
 -1       658 1.71766E-04-6.65661E-06-1.32349E-23
 -1       659 1.72955E-04-7.22398E-06-6.61744E-24
 -1       660 1.74091E-04-7.79307E-06 6.61744E-24
 -1       661 1.69669E-04-5.17083E-06 8.27181E-25
 -1       662 1.69848E-04-5.45416E-06 0.00000E+00
 -1       663 1.70058E-04-5.81815E-06 1.65436E-24
 -1       664 1.70297E-04-6.25695E-06 0.00000E+00
 -1       665 1.70562E-04-6.76532E-06 0.00000E+00
 -1       666 1.70850E-04-7.33794E-06-8.27181E-25
 -1       667 1.71161E-04-7.96977E-06 1.65436E-24
 -1       668 1.71493E-04-8.65580E-06 0.00000E+00
 -1       669 1.71842E-04-9.39119E-06-1.65436E-24
 -1       670 1.72209E-04-1.01712E-05-8.27181E-25
 -1       671 1.72590E-04-1.09912E-05 0.00000E+00
 -1       672 1.72984E-04-1.18467E-05 0.00000E+00
 -1       673 1.73390E-04-1.27333E-05 0.00000E+00
 -1       674 1.73805E-04-1.36467E-05 0.00000E+00
 -1       675 1.74229E-04-1.45823E-05-4.13590E-25
 -1       676 1.69696E-04-1.50429E-05 0.00000E+00
 -1       677 1.70691E-04-1.51425E-05 1.65436E-24
 -1       678 1.71685E-04-1.52421E-05 0.00000E+00
 -1       679 1.72678E-04-1.53413E-05-1.65436E-24
 -1       680 1.73668E-04-1.54405E-05-1.65436E-24
 -1       771 1.81399E-05 1.27706E-05 0.00000E+00
 -1       772 9.11235E-06 3.23210E-05 0.00000E+00
 -1       773 1.68521E-06 4.78179E-05 5.29396E-23
 -1       774-4.25100E-06 5.94947E-05-2.64698E-23
 -1       775-8.80359E-06 6.75934E-05-5.29396E-23
 -1       776-1.20842E-05 7.23702E-05-2.64698E-23
 -1       777-1.42044E-05 7.40898E-05-5.29396E-23
 -1       778-1.52783E-05 7.30286E-05 0.00000E+00
 -1       779-1.54194E-05 6.94705E-05 5.29396E-23
 -1       780-1.47432E-05 6.37084E-05 0.00000E+00
 -1       781-1.33645E-05 5.60414E-05 0.00000E+00
 -1       782-1.13996E-05 4.67760E-05-2.64698E-23
 -1       783-8.96404E-06 3.62224E-05 5.29396E-23
 -1       784-6.17468E-06 2.46961E-05-2.64698E-23
 -1       785-3.14749E-06 1.25153E-05 0.00000E+00
 -1       786 1.76416E-04 2.63731E-05-2.58494E-26
 -1       787 1.76458E-04 2.45659E-05 0.00000E+00
 -1       788 1.76500E-04 2.27997E-05-8.27181E-25
 -1       789 1.76543E-04 2.10666E-05 0.00000E+00
 -1       790 1.76585E-04 1.93618E-05 1.65436E-24
 -1       791 1.76628E-04 1.76807E-05 8.27181E-25
 -1       792 1.76671E-04 1.60212E-05 0.00000E+00
 -1       793 1.76714E-04 1.43810E-05 0.00000E+00
 -1       794 1.76757E-04 1.27598E-05 0.00000E+00
 -1       795 1.76800E-04 1.11576E-05 0.00000E+00
 -1       796 1.76843E-04 9.57601E-06-1.65436E-24
 -1       797 1.76886E-04 8.01674E-06 0.00000E+00
 -1       798 1.76929E-04 6.48383E-06 0.00000E+00
 -1       799 1.76972E-04 4.98134E-06 0.00000E+00
 -1       800 1.77016E-04 3.51638E-06 0.00000E+00
 -1       801 1.36253E-04 2.52686E-05 0.00000E+00
 -1       802 1.46970E-05 1.59671E-05 0.00000E+00
 -1       803-9.00089E-05 8.20884E-06 0.00000E+00
 -1       804-8.13343E-05 5.66474E-06 0.00000E+00
 -1       805-2.70744E-05 2.32074E-06 0.00000E+00
 -1       806 1.76965E-04 2.63089E-05 1.65436E-24
 -1       807 1.77539E-04 2.44150E-05 1.65436E-24
 -1       808 1.78100E-04 2.25525E-05 3.30872E-24
 -1       809 1.78647E-04 2.07250E-05-1.65436E-24
 -1       810 1.79180E-04 1.89362E-05 0.00000E+00
 -1       811 1.79697E-04 1.71894E-05-1.65436E-24
 -1       812 1.80198E-04 1.54883E-05 0.00000E+00
 -1       813 1.80679E-04 1.38364E-05 8.27181E-25
 -1       814 1.81142E-04 1.22370E-05 1.65436E-24
 -1       815 1.81583E-04 1.06938E-05 1.65436E-24
 -1       816 1.82002E-04 9.21007E-06-1.65436E-24
 -1       817 1.82397E-04 7.78938E-06 8.27181E-25
 -1       818 1.82768E-04 6.43516E-06-1.65436E-24
 -1       819 1.83113E-04 5.15089E-06 0.00000E+00
 -1       820 1.83431E-04 3.93994E-06 0.00000E+00
 -1       821 1.76937E-04 4.18563E-07 0.00000E+00
 -1       822 1.76807E-04-1.81507E-06 0.00000E+00
 -1       823 1.76676E-04-4.36101E-06 0.00000E+00
 -1       824 1.76543E-04-6.97365E-06-1.65436E-24
 -1       825 1.76411E-04-9.39029E-06 3.30872E-24
 -1       826 1.76280E-04-1.13493E-05 1.65436E-24
 -1       827 1.76150E-04-1.27085E-05 0.00000E+00
 -1       828 1.76020E-04-1.33293E-05-1.65436E-24
 -1       829 1.75891E-04-1.32658E-05 3.30872E-24
 -1       830 1.75761E-04-1.25761E-05 0.00000E+00
 -1       831 1.75631E-04-1.14817E-05-3.30872E-24
 -1       832 1.75501E-04-1.02067E-05-1.65436E-24
 -1       833 1.75371E-04-9.02198E-06 0.00000E+00
 -1       834 1.75243E-04-8.19829E-06-1.65436E-24
 -1       835 1.75115E-04-7.91225E-06 8.27181E-25
 -1       836 1.78369E-04 2.21391E-06 3.30872E-24
 -1       837 1.79558E-04 2.33457E-06 0.00000E+00
 -1       838 1.80657E-04 2.45514E-06 0.00000E+00
 -1       839 1.81696E-04 2.57502E-06 8.27181E-25
 -1       840 1.82708E-04 2.69474E-06 0.00000E+00
 -1       856 1.74977E-04-9.04931E-06 8.27181E-25
 -1       857 1.74956E-04-9.63113E-06 0.00000E+00
 -1       858 1.74935E-04-1.01030E-05-4.13590E-25
 -1       859 1.74914E-04-1.04854E-05 2.06795E-25
 -1       860 1.74893E-04-1.07985E-05 0.00000E+00
 -1       861 1.74872E-04-1.10630E-05-4.13590E-25
 -1       862 1.74850E-04-1.12993E-05 0.00000E+00
 -1       863 1.74829E-04-1.15279E-05 0.00000E+00
 -1       864 1.74807E-04-1.17693E-05-8.27181E-25
 -1       865 1.74786E-04-1.20441E-05 0.00000E+00
 -1       866 1.74765E-04-1.23728E-05 8.27181E-25
 -1       867 1.74743E-04-1.27758E-05 0.00000E+00
 -1       868 1.74722E-04-1.32735E-05 0.00000E+00
 -1       869 1.74700E-04-1.38863E-05 4.13590E-25
 -1       870 1.74678E-04-1.46343E-05 0.00000E+00
 -1       871 1.75979E-04-8.34116E-06 0.00000E+00
 -1       872 1.77103E-04-8.34814E-06 0.00000E+00
 -1       873 1.78303E-04-8.35577E-06 0.00000E+00
 -1       874 1.79514E-04-8.36409E-06 5.16988E-26
 -1       875 1.80674E-04-8.37298E-06 4.13590E-25
 -1       876 1.75383E-04-9.03563E-06-3.30872E-24
 -1       877 1.75750E-04-9.67002E-06-1.65436E-24
 -1       878 1.76096E-04-1.02481E-05 3.30872E-24
 -1       879 1.76424E-04-1.07771E-05 1.65436E-24
 -1       880 1.76737E-04-1.12639E-05 0.00000E+00
 -1       881 1.77036E-04-1.17158E-05-1.65436E-24
 -1       882 1.77325E-04-1.21397E-05-3.30872E-24
 -1       883 1.77606E-04-1.25427E-05 0.00000E+00
 -1       884 1.77882E-04-1.29319E-05 3.30872E-24
 -1       885 1.78155E-04-1.33142E-05-1.65436E-24
 -1       886 1.78429E-04-1.36968E-05 0.00000E+00
 -1       887 1.78705E-04-1.40866E-05 0.00000E+00
 -1       888 1.78986E-04-1.44908E-05 0.00000E+00
 -1       889 1.79274E-04-1.49165E-05 0.00000E+00
 -1       890 1.79573E-04-1.53707E-05 0.00000E+00
 -1       891 1.75663E-04-1.55922E-05 1.65436E-24
 -1       892 1.76648E-04-1.56468E-05 0.00000E+00
 -1       893 1.77587E-04-1.57014E-05 1.65436E-24
 -1       894 1.78454E-04-1.57558E-05 0.00000E+00
 -1       895 1.79226E-04-1.58100E-05 0.00000E+00
 -1       956 1.83598E-04 1.83364E-06 1.65436E-24
 -1       957 1.83473E-04 9.46293E-07-8.27181E-25
 -1       958 1.83347E-04 1.33807E-07-3.30872E-24
 -1       959 1.83222E-04-6.14241E-07-1.65436E-24
 -1       960 1.83096E-04-1.30831E-06 3.30872E-24
 -1       961 1.82970E-04-1.95890E-06 0.00000E+00
 -1       962 1.82845E-04-2.57650E-06 0.00000E+00
 -1       963 1.82719E-04-3.17164E-06 0.00000E+00
 -1       964 1.82593E-04-3.75484E-06-3.30872E-24
 -1       965 1.82468E-04-4.33660E-06-1.65436E-24
 -1       966 1.82342E-04-4.92746E-06 0.00000E+00
 -1       967 1.82216E-04-5.53793E-06 0.00000E+00
 -1       968 1.82091E-04-6.17850E-06 0.00000E+00
 -1       969 1.81965E-04-6.85967E-06 0.00000E+00
 -1       970 1.81840E-04-7.59189E-06 0.00000E+00
 -1       971 1.81603E-04-9.17449E-06 0.00000E+00
 -1       972 1.81488E-04-9.87198E-06 0.00000E+00
 -1       973 1.81372E-04-1.04878E-05 0.00000E+00
 -1       974 1.81257E-04-1.10325E-05 1.65436E-24
 -1       975 1.81141E-04-1.15165E-05 0.00000E+00
 -1       976 1.81026E-04-1.19505E-05 1.65436E-24
 -1       977 1.80910E-04-1.23449E-05 0.00000E+00
 -1       978 1.80795E-04-1.27104E-05 0.00000E+00
 -1       979 1.80679E-04-1.30576E-05 3.30872E-24
 -1       980 1.80564E-04-1.33970E-05 0.00000E+00
 -1       981 1.80448E-04-1.37392E-05-3.30872E-24
 -1       982 1.80333E-04-1.40948E-05 0.00000E+00
 -1       983 1.80218E-04-1.44744E-05 0.00000E+00
 -1       984 1.80103E-04-1.48885E-05 1.65436E-24
 -1       985 1.79989E-04-1.53478E-05 0.00000E+00
 -3
    1PSTEP                        22          11           1          
  100CL  111 6.35742E-01         409                     0   11           1
 -4  STRESS      6    1
 -5  SXX         1    4    1    1
 -5  SYY         1    4    2    2
 -5  SZZ         1    4    3    3
 -5  SXY         1    4    1    2
 -5  SYZ         1    4    2    3
 -5  SZX         1    4    3    1
 -1         1-5.13807E+06-1.68859E+06-1.09861E+06-1.46997E+06-1.39698E-09 1.08063E-07
 -1         2 1.41315E+06 2.28150E+07 5.13398E+06 5.77613E+06 1.61934E-07 1.88913E-07
 -1         3-1.15956E+03-1.51391E+06 3.81858E+02-1.89855E+03-5.05192E-10-1.73022E-08
 -1         5-4.31833E+01 3.62319E+05 9.34018E+00-8.94375E-01-4.17579E-10-3.00333E-08
 -1         8-5.42960E+04-1.00606E+05 6.49046E+04-3.14139E+05-3.43789E-10 5.94264E-08
 -1         9 8.75686E+06 4.22495E+06 2.46263E+06-6.91815E+04 3.14787E-08-9.24338E-09
 -1        10-2.02190E+03-1.57751E+06-3.54685E+03-1.28426E+04-1.21490E-08-2.82896E-08
 -1        12-3.94393E+01 3.62339E+05 3.05191E+02-6.25024E+00-4.77598E-10 1.57343E-10
 -1        15 1.00746E+03 5.53657E+02 3.25650E+03 8.65820E-01 3.27177E-10 1.57368E-07
 -1        16 1.64259E+07-3.42614E+05 2.28302E+06-1.64054E+06 1.55026E-08 6.43389E-08
 -1        17 6.06574E+06 4.20320E+06 1.61990E+06 4.11856E+06 1.75438E-08 1.66125E-08
 -1        18 1.04752E+05 2.34121E+04-3.17020E+03-1.09923E+05 1.33457E-08-1.38257E-08
 -1        19 1.15330E+05 1.33139E+05-9.06041E+02 2.11260E+04 1.21781E-09 1.94159E-09
 -1        20-7.38445E+04-5.41694E+05-1.21305E+05 2.57390E+04-9.49058E-10-1.60677E-09
 -1        21-4.44475E+01-2.83858E+05-8.90117E+02 1.93865E+02 1.44332E-08 4.10366E-09
 -1        24 1.00525E+07 8.32994E+06 2.82635E+06 7.73276E+06-1.49516E-07-4.77109E-08
 -1        25 6.17810E+04 3.70127E+04 4.08545E+04-5.12737E+05-6.85850E-10 1.84773E-09
 -1        26-5.17110E+04 8.63826E+04-2.32823E+04 1.14980E+02 5.26779E-10-4.94329E-09
 -1        27-7.36101E+04-2.93245E+05-1.07686E+05 6.53381E+04 4.08742E-09 6.69237E-09
 -1        28 2.14438E+04-8.13892E+04 1.61872E+04 2.04619E+04-2.51734E-09-7.21530E-09
 -1        32-1.60973E+06-2.95041E+06-1.71766E+05 2.26089E+05-3.78714E-08-1.08952E-08
 -1        33-1.69501E+05 8.71742E+04 3.05325E+04-3.70256E+04-2.19832E-09 1.35500E-08
 -1        34-2.12492E+05-2.33409E+04 6.37586E+02 7.09638E+04-3.81663E-09 1.06073E-08
 -1        35-2.20461E+04-3.22861E+04-1.28365E+03 4.94006E+04-2.79190E-09-4.46986E-09
 -1        51 5.77611E+04-2.16490E+05 1.22139E+05-4.29087E+05-5.82077E-11 1.27548E-08
 -1        52 1.95596E+04-1.95139E+05 6.41077E+04-5.00486E+05 3.11957E-10 1.04905E-07
 -1        53 3.99408E+03-2.09752E+05 3.34288E+04-4.27628E+05 3.67436E-10-4.93746E-08
 -1        54 7.07753E+03-2.05674E+05 2.75479E+04-5.01908E+05 1.45519E-10-8.04284E-08
 -1        55 1.54936E+04-2.12414E+05 3.36085E+04-4.27552E+05 3.20142E-10 9.25502E-08
 -1        56-9.37191E+06-1.14735E+06-8.23600E+05-3.76922E+06-1.26456E-08 2.47674E-08
 -1        57-1.03001E+07-1.23264E+06-5.45512E+05-3.02107E+06 3.16359E-08-5.10481E-08
 -1        58-9.43371E+06-1.47946E+06-1.90158E+05-3.80654E+06-3.57759E-08-5.06043E-08
 -1        59-1.01601E+07-8.91248E+05-1.11086E+05-3.04639E+06-4.70556E-09 1.28584E-08
 -1        60-9.51485E+06-1.47541E+06-4.88579E+04-3.75117E+06-1.27984E-08 1.55724E-07
 -1        61-9.87720E+06-1.04641E+06-1.49142E+04-3.23934E+06 2.27083E-08-1.17841E-07
 -1        62-9.68319E+06-1.34626E+06-2.63708E+04-3.58928E+06-2.94385E-08 8.37463E-09
 -1        63-9.53995E+06-1.35232E+06 3.16522E+03-3.59104E+06 1.02154E-08 9.50495E-08
 -1        64-9.83847E+06-1.17936E+06-2.19506E+04-3.39085E+06-3.01661E-08-2.91124E-07
 -1        65-9.34221E+06-1.61115E+06-1.68840E+04-3.93954E+06-3.07627E-08 5.21158E-08
 -1        66-9.91158E+06-1.06556E+06-4.07847E+04-3.26288E+06 1.92558E-08 1.74356E-07
 -1        67-9.31891E+06-1.73129E+06-1.02450E+05-4.05781E+06-4.25030E-08 5.43096E-08
 -1        68-9.88161E+06-1.04625E+06-1.77393E+05-3.28544E+06-2.30109E-08-8.22038E-08
 -1        69-9.56432E+06-1.89084E+06-4.96543E+05-3.82007E+06-4.61268E-08-4.00032E-08
 -1        70-9.64168E+06-9.33916E+05-7.62035E+05-3.47983E+06 1.96524E-08-1.27126E-07
 -1        86-1.20853E+06-1.47089E+07-2.68068E+06-2.76982E+06-6.95218E-09 3.91083E-08
 -1        87 1.60720E+06 8.09765E+06 2.32987E+06 4.65552E+06 2.43017E-09-7.91815E-08
 -1        88-9.60011E+04-1.16808E+06 2.15762E+05-1.85797E+06 1.09183E-07-1.41154E-09
 -1        89 2.44011E+06 8.04012E+06 2.48098E+06 4.82591E+06-9.27321E-08 5.65196E-08
 -1        90-1.99529E+06-1.46846E+07-2.84469E+06-2.95468E+06 1.25929E-07-1.12464E-07
 -1       121-1.59684E+03-1.51778E+06-3.51339E+02 9.42605E+02 1.34740E-09-2.67064E-08
 -1       122-9.93768E+02-1.51394E+06 7.44728E+02-3.79779E+03-4.71529E-09-1.29330E-08
 -1       123-1.63038E+03-1.51790E+06 4.50680E+02 2.81548E+03 3.77531E-09-1.57634E-08
 -1       124 5.54993E+02-1.51341E+06 2.91323E+03-7.96308E+03-9.16589E-09 3.24217E-08
 -1       125-2.44483E+03-1.51875E+06 3.64430E+03 5.07669E+03 5.87534E-09-1.82517E-08
 -1       191-4.56280E+01 3.62342E+05 9.32054E+00 4.59818E-01-4.25682E-10-9.79708E-09
 -1       192-4.40656E+01 3.62320E+05 1.98650E+01-3.02853E+00-5.39130E-10 1.96314E-08
 -1       193-4.79607E+01 3.62342E+05 3.51501E+01 2.64682E+00-8.23087E-10-1.31058E-08
 -1       194-4.68988E+01 3.62323E+05 7.53554E+01-6.93139E+00-3.68459E-10-3.26472E-08
 -1       195-5.24401E+01 3.62339E+05 1.45597E+02 4.45285E+00-1.10017E-09-4.09273E-09
 -1       251 1.39714E+06-7.40577E+04 1.67930E+05 1.81648E+04 4.47426E-09 9.61445E-08
 -1       252 1.49351E+06 8.57181E+04 1.22822E+05-7.97225E+04-6.90795E-09 5.67525E-09
 -1       253 1.43390E+06-1.11972E+04 4.37763E+04-3.21417E+03 2.15016E-09-1.51040E-07
 -1       254 1.44967E+06 1.35951E+04 2.81774E+04-4.86736E+04 5.23357E-10-3.06944E-07
 -1       255 1.44005E+06-1.55679E+03 1.15038E+04-1.28761E+04 6.41194E-11 3.25203E-08
 -1       256 1.44237E+06 2.60968E+03 7.27021E+03-3.47575E+04-2.71666E-09 1.68174E-07
 -1       257 1.44102E+06-1.09852E+02 4.16403E+03-1.71276E+04 3.04038E-09-2.31902E-07
 -1       258 1.44146E+06 1.36634E+03 4.48906E+03-2.90177E+04-1.55153E-08-1.24631E-07
 -1       259 1.44092E+06-2.87586E+02 6.03998E+03-1.86151E+04 3.98372E-09 5.00429E-08
 -1       260 1.44298E+06 4.29092E+03 1.25784E+04-2.78756E+04-2.06051E-08-6.50709E-08
 -1       261 1.43948E+06-3.02219E+03 2.12863E+04-1.82694E+04 9.20996E-09-3.38450E-08
 -1       262 1.45321E+06 2.49971E+04 5.19104E+04-3.05503E+04-2.57758E-08-4.99858E-08
 -1       263 1.43067E+06-2.09384E+04 8.28738E+04-1.59393E+04 1.08334E-08-1.42900E-08
 -1       264 1.51595E+06 1.58776E+05 2.25840E+05-3.84136E+04 2.07471E-08 9.77598E-08
 -1       265 1.37680E+06-1.36372E+05 3.19970E+05-1.04030E+04-4.93247E-09-5.88043E-08
 -1       266-1.82380E+04-8.52880E+03 4.27882E+04-1.85289E+01 9.20409E-10 4.03353E-07
 -1       267 2.11427E+04 9.93942E+03 3.02438E+04 2.13800E+01 1.56115E-09 7.93643E-07
 -1       268-2.83518E+03-1.40773E+03 1.12414E+04-2.72406E+00 1.18735E-09 4.43815E-07
 -1       269 3.34756E+03 1.68474E+03 7.30682E+03 3.17309E+00 6.31644E-10 4.20567E-07
 -1       270-5.02444E+02-2.76790E+02 3.52711E+03-4.30565E-01 5.91285E-10 6.50507E-07
 -1       271-1.87469E+06-2.35890E+05-1.48076E+05-7.29784E+05 1.99107E-08-3.57977E-08
 -1       272-1.87380E+06-3.84713E+05-9.33941E+04-7.78426E+05-1.07357E-08-1.59973E-07
 -1       273-1.90596E+06-2.67579E+05-3.56853E+04-7.19191E+05 1.81208E-08 5.69344E-08
 -1       274-1.83829E+06-3.46408E+05-1.88793E+04-7.98253E+05-1.03100E-08 1.18013E-07
 -1       275-1.91322E+06-2.67225E+05-8.69342E+03-7.14369E+05 1.27584E-08-1.71154E-07
 -1       276-1.83109E+06-3.47140E+05-3.94287E+03-8.08943E+05-1.32031E-08 6.77069E-08
 -1       277-1.91661E+06-2.64160E+05-2.29686E+03-7.11125E+05-6.31189E-09 6.26133E-08
 -1       278-1.82858E+06-3.50629E+05-1.16364E+03-8.16027E+05 3.05890E-08-1.76352E-07
 -1       279-1.91846E+06-2.61970E+05-1.22847E+03-7.09164E+05-2.46218E-08 4.33943E-10
 -1       280-1.82776E+06-3.52852E+05-1.91156E+03-8.19626E+05-5.21845E-09 4.45598E-08
 -1       281-1.91891E+06-2.61008E+05-3.42542E+03-7.08523E+05 3.78907E-09 4.99158E-08
 -1       282-1.82934E+06-3.55102E+05-8.19317E+03-8.19318E+05-8.87371E-09 1.93102E-07
 -1       283-1.91692E+06-2.59920E+05-1.46929E+04-7.09406E+05-8.34552E-09-7.05613E-08
 -1       284-1.84312E+06-3.72736E+05-3.97303E+04-8.12532E+05-2.41198E-09 5.60249E-10
 -1       285-1.90394E+06-2.46297E+05-6.23316E+04-7.13607E+05 5.75164E-09 5.01241E-08
 -1       301 5.66588E+03-5.09443E+05 1.65555E+05-9.15561E+05-1.03100E-08 1.99114E-07
 -1       302 4.87682E+03-4.64850E+05 1.01217E+05-1.33754E+06-2.44036E-08-1.54014E-08
 -1       303-1.24854E+04-4.97128E+05 6.20040E+04-9.13201E+05-6.25732E-09 4.43615E-08
 -1       304-7.35510E+03-4.67481E+05 7.08046E+04-1.33673E+06-1.70185E-08 7.94098E-08
 -1       305-9.80760E+03-4.93392E+05 9.73445E+04-9.16022E+05 2.78669E-09-7.59028E-08
 -1       306-2.42450E+07-4.78360E+06-6.53260E+06-1.24967E+06-8.91741E-08-3.12284E-08
 -1       307 1.85858E+07 1.15612E+06 4.09393E+06-1.17505E+07-8.36444E-07-1.55531E-07
 -1       308-7.61564E+06-3.21185E+05-4.02350E+05 3.96885E+06-7.10133E-08 2.31608E-07
 -1       309-2.90819E+06 4.41061E+06 1.55013E+06-1.73309E+07 4.80541E-07 1.50416E-07
 -1       310-1.10894E+07-8.91921E+05-1.34432E+06 3.70443E+06-8.25385E-08-2.81972E-07
 -1       311 2.66570E+07-6.96279E+05 5.31103E+06-7.30130E+06 1.53668E-07 1.10464E-07
 -1       312-2.53498E+07-5.21726E+06-6.29141E+06-4.09577E+06 1.08383E-07 3.11120E-08
 -1       313 3.36328E+07 9.76783E+06 8.01536E+06 1.64883E+07-2.83209E-07 1.81841E-07
 -1       314-1.52149E+07-1.28816E+07-5.62253E+06-1.01481E+07 4.26779E-07 7.95117E-08
 -1       315-2.01229E+06 2.12437E+07 4.27509E+06 8.94810E+06-3.48780E-07 8.48086E-08
 -1       316 7.12613E+04-8.32251E+06-3.68286E+05-3.57500E+06-9.14355E-07-1.72353E-07
 -1       317-1.64177E+07 1.77790E+07 1.51383E+06-4.89445E+06 5.46985E-07-6.55531E-07
 -1       318-1.68981E+06-9.83921E+06-1.38198E+06-4.60481E+06-7.77887E-07 6.86850E-08
 -1       319 4.17160E+06 2.22568E+07 5.04874E+06 1.23200E+07-4.43688E-08 1.99070E-07
 -1       320-1.86192E+07-1.29682E+07-7.37465E+06-1.01222E+07 1.55764E-07-6.88306E-08
 -1       336-3.14638E+02-1.64304E+06-1.26437E+04 7.64903E+03-2.35723E-08-3.23671E-08
 -1       337-4.90648E+03-1.64326E+06-1.62854E+04-1.85683E+04-4.32046E-08-1.84882E-08
 -1       338 4.35920E+02-1.64265E+06-2.51144E+04 1.07427E+04-2.99515E-08 8.40009E-09
 -1       339-2.66860E+04-1.65815E+06-5.67329E+04-2.46206E+04-5.61040E-08 2.76705E-08
 -1       340 1.76652E+04-1.62983E+06-8.91777E+04 1.35982E+04-3.59432E-08 3.92138E-08
 -1       406-1.79230E+01 3.62326E+05 6.00629E+02 2.04887E+00-1.46860E-09-1.86683E-08
 -1       407 1.70856E+02 3.62445E+05 1.28057E+03 1.85119E+01-5.49012E-10-1.84227E-08
 -1       408 6.18507E+02 3.62233E+05 2.55513E+03-2.09665E+01-1.89414E-09-1.43136E-08
 -1       409 2.72897E+03 3.63261E+05 5.75613E+03 2.19070E+02-4.13479E-10-1.93213E-08
 -1       410 7.91131E+03 3.61501E+05 1.17492E+04-2.10072E+02-2.39379E-09-1.26965E-09
 -1       521-2.60801E+07-5.94217E+06-7.74022E+06-9.87101E+05-6.82194E-08-5.83241E-08
 -1       522 1.94986E+07 1.71088E+06 4.22934E+06-1.47492E+07-4.72530E-07-3.81842E-07
 -1       523-8.49130E+06-5.65281E+05-4.21134E+05 4.44518E+06 9.17062E-08-1.53610E-07
 -1       524-5.67599E+06 6.59763E+06 1.71559E+06-2.04024E+07 5.30359E-07-2.69036E-07
 -1       525-1.21938E+07-1.35015E+06-1.50797E+06 4.17059E+06 4.22646E-07-2.07729E-07
 -1       526 2.94362E+07-8.44448E+05 5.67226E+06-9.58157E+06 9.75269E-08 1.54221E-07
 -1       527-2.73906E+07-6.57829E+06-7.34579E+06-4.07591E+06 8.66130E-08 1.70839E-08
 -1       528 3.72991E+07 1.09183E+07 8.50010E+06 1.89581E+07-4.08851E-07-1.25729E-08
 -1       529-1.63677E+07-1.48539E+07-6.54207E+06-1.05213E+07-5.69271E-08-3.08501E-09
 -1       530-4.13777E+06 2.52015E+07 4.60308E+06 9.01152E+06-2.67479E-07 4.96279E-07
 -1       531 3.61136E+03-9.53638E+06-3.71397E+05-3.79651E+06-6.17947E-07 3.43047E-07
 -1       532-1.94724E+07 2.02113E+07 1.69949E+06-8.03003E+06 5.51343E-07-5.85511E-07
 -1       533-1.78338E+06-1.11138E+07-1.48845E+06-4.75339E+06-1.57015E-07-8.56468E-07
 -1       534 2.46532E+06 2.63504E+07 5.35126E+06 1.30317E+07-1.89029E-08 6.61064E-07
 -1       535-1.99561E+07-1.50582E+07-8.53546E+06-1.04892E+07 9.68575E-08 4.12430E-07
 -1       536-6.46662E+05-4.25389E+04-2.82174E+04-4.66459E+04-1.12095E-09 5.46588E-08
 -1       537-1.13070E+05 4.14997E+04 7.58052E+04 1.08349E+05-1.01248E-07 9.01182E-08
 -1       538-3.91654E+05 2.06393E+03 5.72365E+03-6.42868E+04 2.74015E-08 1.06647E-07
 -1       539-2.89979E+05 2.80435E+03 2.17576E+04 1.22685E+05 1.55937E-07 9.11482E-08
 -1       540-4.74131E+05-2.20650E+02-1.63985E+04-6.13702E+04 7.74594E-09 8.95524E-08
 -1       541 4.80861E+04 1.37636E+04 8.67543E+04 8.46799E+04-5.65183E-09 6.49716E-08
 -1       542-7.20632E+05-1.64517E+04-6.84235E+04-2.56485E+04 4.17085E-08 3.12232E-08
 -1       543 2.58361E+05 2.22708E+04 1.28370E+05-1.20309E+04 1.84284E-08-7.74071E-09
 -1       544-6.78784E+05-1.33713E+04-6.07376E+04 3.48510E+04-2.29384E-08-5.90817E-08
 -1       545-4.94588E+04 7.41951E+03 6.41289E+04-9.94767E+04 4.04646E-09-6.41105E-08
 -1       546-4.21048E+05 5.20598E+03-1.01567E+04 6.15513E+04 1.62611E-08-7.74251E-08
 -1       547-3.05434E+05-4.66793E+03 7.09251E+03-1.25332E+05-1.11509E-07-1.10205E-07
 -1       548-4.29658E+05 4.41840E+03-2.14865E+04 6.12085E+04-8.69243E-08-9.71681E-08
 -1       549-3.19918E+04 9.10712E+03 4.39224E+04-9.69874E+04-5.26724E-08-6.16478E-08
 -1       550-6.87161E+05-1.46694E+04-1.12882E+05 3.26821E+04 4.30282E-09-2.69592E-08
 -1       551 3.58372E+04-7.33344E+05-4.96367E+03-1.19203E+06-9.23610E-08-1.72004E-08
 -1       552 8.14005E+04-7.70435E+05 1.59305E+04-1.69952E+06-6.73317E-08 4.01051E-08
 -1       553 6.19766E+04-7.69214E+05 3.59328E+04-1.18608E+06-1.07619E-07 3.26836E-08
 -1       554 1.17291E+05-7.81888E+05 8.53733E+04-1.70148E+06-6.65459E-08 1.08012E-08
 -1       555 9.14074E+04-7.91709E+05 1.54495E+05-1.18616E+06-1.09998E-07-1.20781E-08
 -1       556 1.98151E+05-3.45144E+05 3.74569E+04-3.78324E+05-2.44472E-08-8.35280E-09
 -1       557 3.18884E+05-4.42114E+05 2.17083E+04-4.87380E+05-1.61526E-09 1.54469E-08
 -1       558 1.83829E+05-3.41780E+05 5.53855E+03-3.79691E+05-1.93249E-08 1.03973E-08
 -1       559 2.96597E+05-4.44488E+05 3.78879E+03-5.04453E+05 1.33441E-08-1.76551E-08
 -1       560 1.71313E+05-3.33898E+05-3.58102E+02-3.88604E+05 4.07454E-09 5.90444E-09
 -1       561 2.80713E+05-4.38255E+05 5.28765E+02-5.15194E+05 6.86850E-09 9.16953E-09
 -1       562 1.61440E+05-3.27736E+05-8.40449E+02-3.95728E+05-1.27184E-08-1.59635E-08
 -1       563 2.69020E+05-4.33154E+05 8.51956E+01-5.22806E+05-1.77242E-08-2.76559E-08
 -1       564 1.54473E+05-3.23387E+05-4.01375E+02-4.00657E+05-8.29459E-10-1.60244E-08
 -1       565 2.61399E+05-4.29837E+05 5.75774E+01-5.27667E+05 1.04701E-08-2.04000E-09
 -1       566 1.50515E+05-3.20878E+05-1.78587E+02-4.03427E+05-1.02009E-08-1.79061E-08
 -1       567 2.57881E+05-4.28304E+05-2.90559E+02-5.29782E+05 1.19653E-08 2.72812E-08
 -1       568 1.49641E+05-3.20349E+05-9.37590E+02-4.04134E+05-4.10864E-09-4.08181E-09
 -1       569 2.57193E+05-4.28269E+05-2.36785E+03-5.28215E+05-5.27598E-09 4.22369E-09
 -1       570 1.52855E+05-3.23317E+05-5.21261E+03-4.03242E+05 7.18137E-09-1.64709E-09
 -1       571 2.73218E+05 9.90258E+03 1.42473E+04-8.57455E+04 2.81943E-10 5.29553E-09
 -1       572 2.75295E+05 3.66913E+03 6.98184E+03-9.40705E+04 2.60115E-10 2.29957E-08
 -1       573 2.74045E+05 1.09658E+03 3.10217E+03-8.55811E+04 1.64664E-09 1.20326E-08
 -1       574 2.74260E+05 5.93484E+02 1.55543E+03-9.42752E+04 5.73232E-09-1.34187E-08
 -1       575 2.74136E+05 3.37432E+02 7.34008E+02-8.55588E+04 5.32987E-09-6.85759E-09
 -1       576 2.74129E+05 3.39734E+02 3.75538E+02-9.43024E+04-6.78665E-09 3.10138E-10
 -1       577 2.74169E+05 2.84943E+02 1.87349E+02-8.55557E+04-8.43738E-09 5.52245E-09
 -1       578 2.74149E+05 3.08279E+02 1.07749E+02-9.43062E+04-5.36147E-09-2.29829E-09
 -1       579 2.74227E+05 2.56648E+02 7.38152E+01-8.55554E+04 4.35648E-09-1.19144E-10
 -1       580 2.74230E+05 2.68351E+02 8.46989E+01-9.43017E+04-1.11140E-08-1.49930E-08
 -1       581 2.74318E+05 2.11160E+02 1.28146E+02-8.55608E+04 4.55839E-09-7.40965E-09
 -1       582 2.74374E+05 2.44199E+02 2.59282E+02-9.42461E+04 2.22190E-09 1.22818E-08
 -1       583 2.74428E+05 2.62169E+02 4.99071E+02-8.56114E+04 1.21872E-09 6.81098E-09
 -1       584 2.74697E+05 6.67120E+02 1.12770E+03-9.38193E+04 5.92354E-09-1.45126E-08
 -1       585 2.74431E+05 1.62707E+03 2.28570E+03-8.59871E+04 8.00355E-10 8.87667E-09
 -1       586-3.25367E+03 1.05588E+05-3.04773E+03-2.37749E+05-5.04133E-09 5.98402E-09
 -1       587-1.15307E+03 1.05296E+05 5.55211E+02-2.61669E+05-5.93172E-09 2.19579E-08
 -1       588 5.07196E+02 1.05165E+05 4.35928E+03-2.37623E+05-2.79215E-09 8.41283E-09
 -1       589 4.89798E+03 1.07446E+05 1.14578E+04-2.61433E+05-5.04588E-09 3.35422E-09
 -1       590 1.56182E+04 1.03919E+05 2.40946E+04-2.38032E+05-4.92764E-09 5.99721E-09
 -1       591-6.72893E+04-1.48268E+04-2.07387E+04-2.92546E+04-1.51704E-09 1.12959E-09
 -1       592-7.08948E+04-1.82603E+04-1.12336E+04-3.27722E+04 2.40109E-09-2.31501E-09
 -1       593-6.93645E+04-1.33208E+04-4.67606E+03-3.07742E+04-2.88679E-10 4.31601E-09
 -1       594-6.80292E+04-1.52195E+04-2.33209E+03-3.28834E+04 4.08241E-09 3.16163E-09
 -1       595-6.95228E+04-1.33157E+04-1.07077E+03-3.08432E+04-5.54179E-09-1.56288E-09
 -1       596-6.78332E+04-1.50804E+04-5.44317E+02-3.28603E+04-3.85984E-09 1.78971E-08
 -1       597-6.95426E+04-1.33298E+04-2.96363E+02-3.08458E+04-1.55603E-09-1.20513E-08
 -1       598-6.78139E+04-1.50749E+04-2.38182E+02-3.28538E+04-8.62150E-09-1.79663E-08
 -1       599-6.95414E+04-1.33302E+04-3.04172E+02-3.08455E+04 3.90594E-09 3.43573E-09
 -1       600-6.78333E+04-1.50811E+04-5.64994E+02-3.28585E+04 2.93221E-09 3.11729E-09
 -1       601-6.95185E+04-1.33167E+04-1.11457E+03-3.08422E+04 1.91039E-09 1.57133E-08
 -1       602-6.80373E+04-1.52249E+04-2.42908E+03-3.28790E+04-5.47061E-09-1.92827E-08
 -1       603-6.93511E+04-1.33247E+04-4.87129E+03-3.07709E+04-7.92625E-10-1.11490E-08
 -1       604-7.10388E+04-1.83745E+04-1.17019E+04-3.27402E+04 1.54341E-09-2.17608E-08
 -1       605-6.71706E+04-1.49101E+04-2.16033E+04-2.92060E+04 2.34934E-09 1.43800E-08
 -1       606 2.67173E+04-1.33910E+04-2.40176E+04 2.44370E+04 3.33148E-09-1.08082E-08
 -1       607 2.26124E+04-4.36723E+03-1.19605E+04 2.74546E+04 2.04273E-09-1.04396E-08
 -1       608 2.49501E+04-7.81976E+02-5.35459E+03 2.42592E+04-1.20235E-09-1.00074E-08
 -1       609 2.44997E+04-2.60554E+02-2.70490E+03 2.76718E+04 3.02407E-09-5.87534E-10
 -1       610 2.47480E+04-2.94474E+01-1.29075E+03 2.42384E+04 4.05089E-09 1.33145E-08
 -1       611 2.46753E+04-2.72476E+01-6.50783E+02 2.76953E+04 2.61070E-09-1.27436E-08
 -1       612 2.47019E+04-1.53322E+01-3.09600E+02 2.42363E+04-1.01954E-09 2.47155E-09
 -1       613 2.46840E+04-2.22196E+01-1.38909E+02 2.76981E+04 5.66615E-10 8.79299E-09
 -1       614 2.46795E+04-2.02749E+01-3.31052E+01 2.42356E+04-2.20734E-09 5.04224E-09
 -1       615 2.46773E+04-1.98889E+01 5.70212E+01 2.76985E+04-2.13186E-09 3.61251E-09
 -1       616 2.46621E+04-1.65816E+01 1.72076E+02 2.42359E+04-1.60589E-08 7.23526E-09
 -1       617 2.46967E+04 1.75516E+01 3.93075E+02 2.76981E+04-3.48464E-08 8.57472E-09
 -1       618 2.46270E+04 9.73262E+01 7.92451E+02 2.42361E+04-1.80730E-08 4.69572E-09
 -1       619 2.49757E+04 6.30760E+02 1.77963E+03 2.76974E+04-3.56511E-09-2.54340E-09
 -1       620 2.43633E+04 1.97688E+03 3.57702E+03 2.42369E+04-2.23190E-09-1.09317E-08
 -1       621 4.35730E+02 2.82144E+05 3.48680E+03 3.46201E+04 8.84029E-10-4.05998E-09
 -1       622 5.67231E+02 2.82963E+05 3.13069E+03 5.02824E+04 8.45830E-10-2.42471E-08
 -1       623 1.00449E+02 2.82325E+05 3.81112E+03 3.44618E+04 1.03182E-09 4.73847E-09
 -1       624 1.91774E+03 2.84122E+05 7.42722E+03 5.04392E+04 9.53094E-10-1.98952E-10
 -1       625 1.88870E+03 2.80855E+05 1.29980E+04 3.44588E+04 1.18689E-09-1.83286E-09
 -1       626 2.45673E+05 5.91803E+04 4.95494E+03 1.21024E+05-2.28010E-09-7.60883E-09
 -1       627 2.43359E+05 6.06039E+04 2.38773E+03 1.25237E+05 1.39698E-09-6.55643E-09
 -1       628 2.45802E+05 5.69067E+04 1.00965E+03 1.21858E+05-4.73301E-09-1.28077E-08
 -1       629 2.42735E+05 5.99545E+04 4.94182E+02 1.25478E+05 8.23093E-11 7.52020E-09
 -1       630 2.45815E+05 5.67973E+04 2.29108E+02 1.21892E+05-3.89173E-09-1.36012E-08
 -1       631 2.42668E+05 5.99307E+04 1.23117E+02 1.25479E+05 5.55428E-09-6.97844E-09
 -1       632 2.45811E+05 5.68018E+04 8.07197E+01 1.21887E+05 1.21668E-08-4.48290E-09
 -1       633 2.42658E+05 5.99332E+04 8.94506E+01 1.25475E+05 8.13873E-09 3.36809E-09
 -1       634 2.45805E+05 5.67998E+04 1.44143E+02 1.21886E+05-2.07740E-09-3.36695E-09
 -1       635 2.42671E+05 5.99321E+04 2.91428E+02 1.25479E+05-1.31745E-09-9.46784E-10
 -1       636 2.45796E+05 5.67950E+04 5.88416E+02 1.21885E+05 3.95289E-09-1.04615E-08
 -1       637 2.42797E+05 6.00238E+04 1.29361E+03 1.25478E+05 8.13634E-09-3.45108E-08
 -1       638 2.45749E+05 5.70810E+04 2.65793E+03 1.21755E+05 9.31050E-09-1.26711E-08
 -1       639 2.44193E+05 6.19655E+04 6.28861E+03 1.25066E+05 6.36555E-09 8.05608E-09
 -1       640 2.45557E+05 6.28778E+04 1.30500E+04 1.19310E+05 5.42514E-09 4.70664E-10
 -1       656 6.30832E+04-1.61226E+06-1.52281E+05-2.00169E+03-6.54836E-11 7.16739E-09
 -1       657-8.34429E+04-1.68106E+06-1.26132E+05 5.77182E+03-1.45519E-10-6.01446E-09
 -1       658 2.00988E+04-1.63181E+06-7.76528E+04-3.90983E+03 8.41055E-10 1.17744E-09
 -1       659-9.01508E+04-1.68424E+06-1.34946E+05 7.31154E+03-5.85715E-10-2.38435E-09
 -1       660 6.97760E+04-1.60908E+06-1.67436E+05-3.54140E+03-2.21917E-09 6.93618E-09
 -1       661 1.59503E+05 1.68140E+04 1.65529E+04 6.23584E+04 2.38424E-09-4.75939E-09
 -1       662 1.68753E+05 2.91786E+04 1.11552E+04 5.87682E+04 1.36009E-09-2.06787E-08
 -1       663 1.62753E+05 2.21250E+04 3.90154E+03 6.14156E+04 1.81103E-09 1.00044E-10
 -1       664 1.64985E+05 2.29669E+04 2.33371E+03 5.99191E+04 1.33525E-09 8.60086E-09
 -1       665 1.63246E+05 2.28512E+04 9.20640E+02 6.12727E+04-1.53585E-09 1.09333E-08
 -1       666 1.64403E+05 2.21358E+04 5.38580E+02 6.01051E+04 3.59360E-09 9.42560E-09
 -1       667 1.63332E+05 2.29344E+04 2.85918E+02 6.12375E+04 2.91948E-10-2.14430E-09
 -1       668 1.64309E+05 2.20752E+04 2.90956E+02 6.01563E+04-1.18121E-09-1.86830E-08
 -1       669 1.63339E+05 2.29101E+04 3.93620E+02 6.12219E+04-1.88331E-09 6.32829E-09
 -1       670 1.64406E+05 2.22882E+04 8.56828E+02 6.01587E+04-5.28681E-09-9.55959E-09
 -1       671 1.63235E+05 2.27258E+04 1.52127E+03 6.12331E+04 7.43754E-10-2.05329E-08
 -1       672 1.65292E+05 2.37681E+04 3.89206E+03 5.99438E+04 6.46939E-09-1.35765E-08
 -1       673 1.62457E+05 2.14677E+04 6.52245E+03 6.14224E+04 6.81780E-10-1.39066E-08
 -1       674 1.71501E+05 3.42465E+04 1.86528E+04 5.81194E+04-5.77779E-09 7.92625E-09
 -1       675 1.57067E+05 1.25408E+04 2.76873E+04 6.29474E+04-2.29011E-09-5.76620E-09
 -1       676 2.31680E+01-2.83784E+05-1.07283E+03-9.69351E+01 5.74261E-10-1.15935E-08
 -1       677-2.84317E+02-2.84043E+05-1.96344E+03 1.93724E+02 7.13999E-09-2.77169E-08
 -1       678 1.90274E+02-2.83599E+05-3.47088E+03-9.67249E+01 7.96490E-10-1.70377E-08
 -1       679-3.47141E+03-2.86138E+05-8.24532E+03 1.92921E+02 5.79757E-09 7.17493E-09
 -1       680 2.07224E+03-2.81690E+05-1.32886E+04-9.50573E+01 1.99543E-09-9.01568E-09
 -1       771-2.95403E+06-6.93401E+05-1.42348E+05-1.39353E+06-3.07191E-08-2.51748E-08
 -1       772-2.88607E+06-7.74204E+05-7.36442E+04-1.48665E+06-2.09548E-08 1.09903E-08
 -1       773-2.98084E+06-6.72424E+05-3.69948E+04-1.40524E+06-1.87138E-08 1.24273E-08
 -1       774-2.87659E+06-7.58498E+05-1.66209E+04-1.50799E+06 6.24277E-09-2.27010E-09
 -1       775-2.99428E+06-6.62970E+05-1.20684E+04-1.41064E+06-1.57743E-08-3.41970E-10
 -1       776-2.88608E+06-7.56272E+05-4.57257E+03-1.52382E+06-1.25729E-08 3.17596E-09
 -1       777-3.00580E+06-6.54622E+05-5.20221E+03-1.41539E+06 3.69619E-09 3.37604E-09
 -1       778-2.89605E+06-7.54264E+05-1.49119E+03-1.53737E+06 7.27596E-09 6.91216E-09
 -1       779-3.01565E+06-6.47370E+05-2.55859E+03-1.41945E+06-8.09086E-09-6.33736E-09
 -1       780-2.90482E+06-7.52351E+05-4.26735E+02-1.54840E+06-1.28348E-08 1.65892E-09
 -1       781-3.02345E+06-6.41545E+05-9.78376E+02-1.42263E+06-2.80124E-08-7.34144E-09
 -1       782-2.91155E+06-7.50718E+05 3.71859E+02-1.55653E+06-3.29455E-08-6.62294E-09
 -1       783-3.02892E+06-6.37515E+05 5.90248E+02-1.42486E+06-5.34055E-09-1.26970E-08
 -1       784-2.91523E+06-7.49000E+05 2.37947E+03-1.56155E+06-1.94632E-08 1.12141E-09
 -1       785-3.03216E+06-6.35110E+05 4.20716E+03-1.42629E+06-3.47900E-08 7.11952E-09
 -1       786 1.22188E+05-9.48677E+03 2.19480E+04-2.67719E+02 6.51227E-10 1.07384E-08
 -1       787 1.31706E+05 1.09832E+04 1.55274E+04-8.98422E+01 8.83076E-09 1.92674E-08
 -1       788 1.25858E+05-1.48675E+03 5.67857E+03-2.35312E+02 2.04219E-09 1.18414E-08
 -1       789 1.27431E+05 1.72057E+03 3.56502E+03-1.40143E+02-1.72923E-09 2.87002E-10
 -1       790 1.26464E+05-2.31648E+02 1.44390E+03-2.17432E+02-5.07725E-09 2.19681E-08
 -1       791 1.26722E+05 2.67823E+02 8.34906E+02-1.70864E+02-5.82855E-09 1.75724E-08
 -1       792 1.26567E+05-3.50923E+01 3.55679E+02-2.04592E+02-2.33747E-09 1.40433E-08
 -1       793 1.26600E+05 3.76956E+01 1.81446E+02-1.94991E+02 7.60195E-10-9.59171E-09
 -1       794 1.26586E+05-1.66571E+00 5.54517E+01-1.93305E+02 3.66405E-09-1.47323E-09
 -1       795 1.26567E+05-1.97416E+01-3.38858E+01-2.18450E+02-4.21082E-09 8.79061E-09
 -1       796 1.26599E+05 2.23133E+01-1.19768E+02-1.81132E+02 3.56694E-09 8.58782E-09
 -1       797 1.26494E+05-1.68193E+02-3.39461E+02-2.46246E+02 3.26460E-09 8.65329E-09
 -1       798 1.26659E+05 1.46675E+02-5.54232E+02-1.65509E+02 1.93696E-09 7.02676E-09
 -1       799 1.26073E+05-1.08177E+03-1.52735E+03-2.84548E+02 4.27584E-09-1.48705E-09
 -1       800 1.27021E+05 9.35145E+02-2.16222E+03-1.42831E+02 9.65032E-11 7.64635E-09
 -1       801-9.16504E+04-8.51838E+06-1.14473E+06 1.06792E+06 8.14616E-08-4.70063E-08
 -1       802 5.11561E+05 3.65056E+06 1.60354E+06-1.28170E+06 2.29316E-07-2.55532E-08
 -1       803-4.02793E+05-1.16574E+07-1.44600E+06 6.78231E+05 7.02494E-08 2.45163E-08
 -1       804 1.98839E+05 8.65092E+05 1.13155E+06 5.63448E+05-1.02020E-07-8.50641E-08
 -1       805 1.59195E+05-5.74802E+06-2.24204E+05-7.72852E+05-4.21933E-08-5.82086E-08
 -1       806-2.92765E+05-5.62102E+04-2.15338E+04-1.15514E+05-1.44310E-08-2.86491E-10
 -1       807-2.94526E+05-5.26279E+04-1.05793E+04-1.20659E+05 6.06019E-09 2.98022E-09
 -1       808-2.93351E+05-4.84549E+04-4.48814E+03-1.19189E+05 4.01224E-09 2.99633E-09
 -1       809-2.92305E+05-4.96524E+04-2.19461E+03-1.20916E+05 2.59206E-09-2.99387E-08
 -1       810-2.93440E+05-4.81849E+04-1.00589E+03-1.19352E+05 9.28003E-09-2.69301E-09
 -1       811-2.92134E+05-4.95325E+04-5.00239E+02-1.20882E+05-1.00044E-10-8.85848E-10
 -1       812-2.93454E+05-4.82079E+04-2.52998E+02-1.19351E+05-3.75621E-09-1.44155E-10
 -1       813-2.92110E+05-4.95343E+04-1.64468E+02-1.20865E+05 8.07631E-10-1.13509E-08
 -1       814-2.93448E+05-4.82166E+04-1.62996E+02-1.19348E+05-7.54881E-11-1.87993E-09
 -1       815-2.92115E+05-4.95362E+04-2.62752E+02-1.20859E+05-7.79437E-09-3.22507E-09
 -1       816-2.93429E+05-4.82152E+04-4.97957E+02-1.19345E+05 1.31586E-08 4.45652E-11
 -1       817-2.92200E+05-4.95835E+04-1.06889E+03-1.20849E+05 8.79299E-09-3.11138E-09
 -1       818-2.93365E+05-4.83654E+04-2.18007E+03-1.19274E+05 9.25320E-09 7.80528E-09
 -1       819-2.93393E+05-5.09013E+04-5.12986E+03-1.20569E+05-2.89219E-09-1.09408E-08
 -1       820-2.92957E+05-5.22381E+04-1.04410E+04-1.17617E+05 3.86262E-09-2.84922E-09
 -1       821-3.61490E+05 1.99195E+04-4.61414E+04 1.35251E+03 9.83867E-09-3.52702E-09
 -1       822-3.81191E+05-2.30631E+04-3.26002E+04-2.52272E+03 2.24483E-09-8.77480E-09
 -1       823-3.69043E+05 3.12756E+03-1.19403E+04 1.88836E+03-7.26716E-09-1.30967E-10
 -1       824-3.72264E+05-3.61411E+03-7.50069E+03-2.71796E+03 3.90692E-10 2.50425E-08
 -1       825-3.70415E+05 4.86332E+02-3.10595E+03 1.54778E+03 1.18629E-08-5.81394E-09
 -1       826-3.70508E+05-5.64253E+02-1.79789E+03-1.34322E+03 1.41814E-08-5.38094E-09
 -1       827-3.70790E+05 7.40324E+01-1.01839E+03 5.13582E+02 6.67880E-09 7.59269E-09
 -1       828-3.70206E+05-1.63120E+02-7.70609E+02 8.70993E+02-2.02846E-10 3.56508E-08
 -1       829-3.70715E+05 8.34879E+01-1.02510E+03-6.66459E+02 8.20037E-10 1.17518E-09
 -1       830-3.70682E+05-5.99073E+02-1.89677E+03 2.74859E+03-6.30536E-10-8.47967E-09
 -1       831-3.70321E+05 5.15254E+02-3.20418E+03-1.36404E+03-3.24314E-09 1.41893E-09
 -1       832-3.72352E+05-3.76344E+03-7.79624E+03 3.29017E+03-1.80123E-09-1.00990E-08
 -1       833-3.69050E+05 3.24843E+03-1.24166E+04-1.20805E+03-1.75424E-09 8.39509E-09
 -1       834-3.81439E+05-2.39574E+04-3.38346E+04 2.18773E+03-2.15642E-09-6.31371E-09
 -1       835-3.61231E+05 2.06887E+04-4.79542E+04-2.61573E+02 4.51260E-09 2.14641E-10
 -1       836-1.31153E+03 3.47392E+05 2.14226E+04-1.59033E+04-5.04679E-09 2.05496E-08
 -1       837 4.58744E+03 3.54091E+05 1.81691E+04-3.23536E+04-5.70958E-09 3.36333E-08
 -1       838-5.15199E+02 3.49265E+05 1.85708E+04-1.58342E+04-4.70345E-09 5.16411E-09
 -1       839 1.17309E+04 3.59413E+05 3.51881E+04-3.24029E+04-5.00086E-09-6.16723E-09
 -1       840-3.61258E+03 3.42016E+05 5.61371E+04-1.58579E+04-4.65297E-09 4.94508E-09
 -1       856-5.70900E+04 7.87048E+03-2.07405E+04-3.96696E+02 3.70380E-09 9.06584E-09
 -1       857-6.56394E+04-9.24396E+03-1.42779E+04 5.40222E+03 1.27662E-09 1.00481E-08
 -1       858-6.04740E+04 1.10356E+03-5.38183E+03-4.20067E+02 2.28994E-09 1.63257E-08
 -1       859-6.17554E+04-1.29493E+03-3.24811E+03 5.43746E+03-5.68377E-10 2.42787E-08
 -1       860-6.09797E+04 1.54332E+02-1.36193E+03-4.31753E+02 5.03064E-11-3.49172E-09
 -1       861-6.11736E+04-1.81113E+02-7.50615E+02 5.45341E+03 6.00404E-09-1.28827E-08
 -1       862-6.10587E+04 2.07798E+01-3.14798E+02-4.36005E+02-1.61744E-09-1.82753E-08
 -1       863-6.10772E+04-1.89164E+01-1.20978E+02 5.45579E+03 6.03052E-10-1.47514E-08
 -1       864-6.10765E+04-4.19882E+00 3.21023E+01-4.34134E+02-2.36025E-09-1.72498E-08
 -1       865-6.10265E+04 5.46574E+01 2.18746E+02 5.44536E+03 1.34877E-09-1.60518E-09
 -1       866-6.11074E+04-5.28753E+01 4.48133E+02-4.25575E+02-1.40710E-09 4.32010E-11
 -1       867-6.08138E+04 4.37554E+02 1.10771E+03 5.42208E+03 6.76323E-10 1.17109E-08
 -1       868-6.12846E+04-3.80376E+02 1.84183E+03-4.10856E+02-1.70382E-09-2.76225E-09
 -1       869-5.94622E+04 3.16583E+03 4.90587E+03 5.38349E+03 1.87879E-09-1.95439E-08
 -1       870-6.24518E+04-2.70733E+03 7.11930E+03-3.86918E+02-1.08969E-09 1.89402E-09
 -1       871-5.27875E+03-1.87426E+04-1.83296E+04 1.22506E+05-3.23598E-09-1.46292E-08
 -1       872-1.97946E+03-2.29749E+04-7.64659E+03 1.58843E+05-7.24140E-09-3.43271E-08
 -1       873 2.94638E+02-2.09413E+04 6.26529E+02 1.22237E+05-3.91219E-09 3.42504E-09
 -1       874 3.03562E+03-1.86115E+04 9.36513E+03 1.58875E+05-7.86622E-09 2.62048E-08
 -1       875 6.44720E+03-2.31724E+04 2.10714E+04 1.22462E+05-3.52338E-09-1.57643E-08
 -1       876 2.79339E+05 4.72271E+04 1.44188E+04 1.12274E+05-1.91562E-10-1.76442E-10
 -1       877 2.80277E+05 5.02785E+04 7.70016E+03 1.16423E+05-7.69205E-10 5.11841E-09
 -1       878 2.80687E+05 4.56303E+04 3.22600E+03 1.13456E+05-7.70160E-09-1.45042E-09
 -1       879 2.78317E+05 4.83228E+04 1.60735E+03 1.16522E+05-3.37013E-09 3.85813E-09
 -1       880 2.80784E+05 4.56136E+04 7.48656E+02 1.13504E+05-6.82189E-09-1.24327E-08
 -1       881 2.78187E+05 4.82392E+04 3.99706E+02 1.16499E+05-5.29099E-09 1.12530E-08
 -1       882 2.80793E+05 4.56261E+04 2.55569E+02 1.13506E+05-2.31921E-11 1.17971E-08
 -1       883 2.78178E+05 4.82349E+04 2.74513E+02 1.16492E+05 1.46269E-09 2.02648E-08
 -1       884 2.80787E+05 4.56234E+04 4.36479E+02 1.13506E+05 3.02407E-11 1.04177E-09
 -1       885 2.78213E+05 4.82410E+04 8.77436E+02 1.16503E+05-3.30427E-09-7.20217E-09
 -1       886 2.80753E+05 4.55978E+04 1.76838E+03 1.13503E+05 4.26469E-09 9.39440E-09
 -1       887 2.78523E+05 4.84448E+04 3.86277E+03 1.16548E+05 9.99535E-09-1.30411E-08
 -1       888 2.80508E+05 4.56408E+04 7.78359E+03 1.13379E+05 1.00016E-08-1.39125E-08
 -1       889 2.83158E+05 5.32633E+04 1.85937E+04 1.16405E+05 1.23825E-08 4.87307E-09
 -1       890 2.77333E+05 4.94130E+04 3.48254E+04 1.10415E+05 5.61340E-09-3.79805E-09
 -1       891-1.01170E+02-1.55282E+05-1.89690E+03 2.63912E+04-6.30962E-10 2.46087E-09
 -1       892-1.91462E+02-1.55775E+05-2.03975E+03 4.00470E+04 1.64619E-09-2.34513E-08
 -1       893 2.52871E+01-1.55343E+05-2.89056E+03 2.63980E+04-1.50749E-09 3.41151E-09
 -1       894-1.46300E+03-1.56869E+05-5.98424E+03 3.98998E+04 2.57933E-09-7.72161E-09
 -1       895-1.15838E+03-1.54096E+05-1.05388E+04 2.65393E+04-1.56876E-09-2.68337E-08
 -1       956-3.57782E+05-5.13003E+03-1.27205E+04 2.82648E+04-1.23237E-09-1.10422E-08
 -1       957-3.60282E+05-1.79161E+03-6.52945E+03 3.39832E+04-1.13969E-08-1.36902E-09
 -1       958-3.58923E+05-2.06395E+02-2.94222E+03 2.81079E+04-8.83574E-09-4.29213E-09
 -1       959-3.59112E+05-1.04195E+02-1.50247E+03 3.41637E+04 3.32147E-09 2.34106E-08
 -1       960-3.59032E+05-2.24713E+01-7.32652E+02 2.80920E+04 4.01906E-09 1.72170E-08
 -1       961-3.59033E+05-3.63603E+01-3.88572E+02 3.41824E+04 4.21437E-09 1.94711E-08
 -1       962-3.59057E+05-2.44971E+01-2.22572E+02 2.80894E+04-5.06134E-10 1.32104E-08
 -1       963-3.59033E+05-3.29449E+01-1.78890E+02 3.41857E+04 6.30052E-09 1.24282E-09
 -1       964-3.59062E+05-2.15100E+01-2.17733E+02 2.80886E+04-4.33508E-09-1.64596E-09
 -1       965-3.59045E+05-2.99948E+01-3.76744E+02 3.41851E+04-1.47207E-08 1.27829E-09
 -1       966-3.59047E+05-1.35916E+01-7.07882E+02 2.80900E+04-3.77236E-09 5.30122E-09
 -1       967-3.59131E+05-8.94446E+01-1.45192E+03 3.41721E+04-3.20597E-11 1.00799E-08
 -1       968-3.58950E+05-1.85573E+02-2.84218E+03 2.81015E+04-1.64391E-09-7.48548E-09
 -1       969-3.60273E+05-1.71502E+03-6.30978E+03 3.40371E+04-3.71074E-09-1.45418E-08
 -1       970-3.57856E+05-4.93996E+03-1.22915E+04 2.82191E+04 5.80712E-10 2.07137E-08
 -1       971-3.29082E+05-1.65698E+03-8.98414E+03 1.48146E+04-1.83900E-09-1.23068E-08
 -1       972-3.31249E+05-1.21367E+03-4.89268E+03 2.05314E+04 2.70074E-09 1.21972E-08
 -1       973-3.30083E+05-5.00970E+01-2.19137E+03 1.46964E+04 5.40240E-09 7.10929E-09
 -1       974-3.30217E+05-6.47989E+01-1.13583E+03 2.06639E+04 3.09410E-09-1.40499E-08
 -1       975-3.30161E+05-7.02224E+00-5.67926E+02 1.46846E+04 3.31920E-09 7.47332E-09
 -1       976-3.30157E+05-1.68899E+01-3.27969E+02 2.06788E+04-7.16682E-10 1.13239E-08
 -1       977-3.30177E+05-6.47468E+00-2.38593E+02 1.46815E+04-6.96673E-09-7.99560E-09
 -1       978-3.30162E+05-1.10183E+01-2.79970E+02 2.06833E+04-3.57807E-09-2.17489E-08
 -1       979-3.30177E+05 1.53450E+00-4.50478E+02 1.46801E+04 1.09293E-09 1.29281E-08
 -1       980-3.30196E+05-8.12269E+00-8.70226E+02 2.06842E+04-6.35752E-09 3.06146E-08
 -1       981-3.30149E+05 2.32785E+01-1.68564E+03 1.46806E+04-2.00873E-09-6.46270E-09
 -1       982-3.30427E+05-1.32641E+02-3.48429E+03 2.06778E+04 2.80443E-09-3.36225E-08
 -1       983-3.29937E+05-8.46096E+01-6.77005E+03 1.46865E+04-6.28870E-09-1.02382E-08
 -1       984-3.33684E+05-3.66835E+03-1.51612E+04 2.05950E+04-1.25656E-08-4.63137E-09
 -1       985-3.26872E+05-5.03849E+03-2.78406E+04 1.47584E+04-7.62157E-09 8.34552E-09
 -3
    1PSTEP                        23          12           1          
  100CL  112 6.36566E-01         409                     0   12           1
 -4  DISP        4    1
 -5  D1          1    2    1    0
 -5  D2          1    2    2    0
 -5  D3          1    2    3    0
 -5  ALL         1    2    0    0    1ALL
 -1         1 2.06104E-03 0.00000E+00 0.00000E+00
 -1         2 6.91718E-04-8.90362E-26 2.64698E-23
 -1         3 3.08763E-04-1.43283E-27 0.00000E+00
 -1         5 1.64254E-04-1.62872E-27 0.00000E+00
 -1         8 2.05083E-03-4.91416E-07 0.00000E+00
 -1         9 2.05799E-03-1.94196E-04 0.00000E+00
 -1        10 2.80369E-04-3.27796E-06-6.61744E-24
 -1        12 1.65663E-04 7.60788E-07 7.23783E-25
 -1        15 2.03928E-03-5.14055E-07-2.06795E-25
 -1        16 2.10879E-03-1.95573E-04 0.00000E+00
 -1        17 1.92029E-04-7.35825E-06 0.00000E+00
 -1        18 1.68379E-04 2.82501E-05 0.00000E+00
 -1        19 1.69889E-04 1.51636E-06 0.00000E+00
 -1        20 1.70032E-04-5.15202E-06 0.00000E+00
 -1        21 1.69206E-04-1.53248E-05 0.00000E+00
 -1        24 2.88993E-05-1.10615E-05 0.00000E+00
 -1        25 1.76965E-04 2.84574E-05 0.00000E+00
 -1        26 1.77646E-04 2.10055E-06 0.00000E+00
 -1        27 1.75577E-04-8.52278E-06 0.00000E+00
 -1        28 1.75238E-04-1.59200E-05 0.00000E+00
 -1        32 0.00000E+00 0.00000E+00 0.00000E+00
 -1        33 1.84388E-04 2.81154E-06 0.00000E+00
 -1        34 1.82379E-04-8.57093E-06 0.00000E+00
 -1        35 1.80539E-04-1.62453E-05 0.00000E+00
 -1        51 2.06035E-03-9.87371E-08 6.61744E-24
 -1        52 2.05909E-03-1.79787E-07 3.30872E-24
 -1        53 2.05738E-03-2.57461E-07 0.00000E+00
 -1        54 2.05535E-03-3.33894E-07 0.00000E+00
 -1        55 2.05313E-03-4.10777E-07-3.30872E-24
 -1        56 2.05551E-03 3.33305E-06-5.29396E-23
 -1        57 2.04661E-03 1.49983E-05 0.00000E+00
 -1        58 2.03574E-03 3.17226E-05 1.05879E-22
 -1        59 2.02435E-03 4.97134E-05 0.00000E+00
 -1        60 2.01402E-03 6.49820E-05 0.00000E+00
 -1        61 2.00622E-03 7.37645E-05 5.29396E-23
 -1        62 2.00189E-03 7.34432E-05-1.05879E-22
 -1        63 2.00159E-03 6.22017E-05 5.29396E-23
 -1        64 2.00516E-03 4.01807E-05-1.05879E-22
 -1        65 2.01209E-03 8.49908E-06 0.00000E+00
 -1        66 2.02132E-03-2.99634E-05 0.00000E+00
 -1        67 2.03165E-03-7.16991E-05-5.29396E-23
 -1        68 2.04171E-03-1.12598E-04 0.00000E+00
 -1        69 2.05015E-03-1.48620E-04 5.29396E-23
 -1        70 2.05583E-03-1.76633E-04-5.29396E-23
 -1        86 7.77847E-04-5.74039E-06 5.29396E-23
 -1        87 1.02813E-03-3.85140E-05 0.00000E+00
 -1        88 1.36370E-03-9.49303E-05-2.64698E-23
 -1        89 1.70284E-03-1.52596E-04 1.32349E-23
 -1        90 1.96164E-03-1.87443E-04-2.64698E-23
 -1       121 3.07966E-04-5.32279E-07 1.32349E-23
 -1       122 3.05578E-04-1.06700E-06 6.61744E-24
 -1       123 3.01607E-04-1.60656E-06 0.00000E+00
 -1       124 2.96068E-04-2.15338E-06-6.61744E-24
 -1       125 2.88980E-04-2.70953E-06 0.00000E+00
 -1       191 1.64293E-04 1.26837E-07 2.27475E-24
 -1       192 1.64410E-04 2.53666E-07 7.23783E-25
 -1       193 1.64606E-04 3.80484E-07 0.00000E+00
 -1       194 1.64880E-04 5.07283E-07 1.03398E-24
 -1       195 1.65232E-04 6.34054E-07-2.27475E-24
 -1       251 2.05133E-03-1.08703E-06-6.61744E-24
 -1       252 2.05184E-03-6.53990E-06 6.61744E-24
 -1       253 2.05233E-03-1.54771E-05 0.00000E+00
 -1       254 2.05280E-03-2.66040E-05-6.61744E-24
 -1       255 2.05326E-03-3.92931E-05 0.00000E+00
 -1       256 2.05370E-03-5.29518E-05 0.00000E+00
 -1       257 2.05414E-03-6.72837E-05 1.32349E-23
 -1       258 2.05457E-03-8.20074E-05-6.61744E-24
 -1       259 2.05500E-03-9.69619E-05 1.32349E-23
 -1       260 2.05542E-03-1.11991E-04 6.61744E-24
 -1       261 2.05585E-03-1.26960E-04-1.32349E-23
 -1       262 2.05627E-03-1.41736E-04 0.00000E+00
 -1       263 2.05671E-03-1.56125E-04 1.32349E-23
 -1       264 2.05714E-03-1.69922E-04 3.30872E-24
 -1       265 2.05758E-03-1.82748E-04 0.00000E+00
 -1       266 2.04890E-03-5.01166E-07 3.30872E-24
 -1       267 2.04698E-03-5.04211E-07 8.27181E-25
 -1       268 2.04505E-03-5.07680E-07 0.00000E+00
 -1       269 2.04313E-03-5.09892E-07 2.06795E-25
 -1       270 2.04120E-03-5.12074E-07 2.06795E-25
 -1       271 2.04995E-03-3.57475E-07 1.32349E-23
 -1       272 2.05012E-03-3.12017E-06 0.00000E+00
 -1       273 2.05130E-03-8.57060E-06 2.64698E-23
 -1       274 2.05337E-03-1.64833E-05 0.00000E+00
 -1       275 2.05626E-03-2.66048E-05 2.64698E-23
 -1       276 2.05984E-03-3.86620E-05-1.32349E-23
 -1       277 2.06402E-03-5.23612E-05 2.64698E-23
 -1       278 2.06868E-03-6.73928E-05 0.00000E+00
 -1       279 2.07370E-03-8.34338E-05 0.00000E+00
 -1       280 2.07896E-03-1.00151E-04 0.00000E+00
 -1       281 2.08434E-03-1.17205E-04 0.00000E+00
 -1       282 2.08972E-03-1.34251E-04-1.32349E-23
 -1       283 2.09497E-03-1.50948E-04 0.00000E+00
 -1       284 2.09998E-03-1.66954E-04 0.00000E+00
 -1       285 2.10462E-03-1.81938E-04 0.00000E+00
 -1       301 2.06698E-03-1.94450E-04 6.61744E-24
 -1       302 2.07474E-03-1.94668E-04-3.30872E-24
 -1       303 2.08204E-03-1.94880E-04 0.00000E+00
 -1       304 2.08963E-03-1.95093E-04-1.32349E-23
 -1       305 2.09830E-03-1.95317E-04 0.00000E+00
 -1       306 2.09172E-03-3.25078E-04 1.05879E-22
 -1       307 2.15631E-03-6.80544E-04-5.29396E-23
 -1       308 2.21638E-03-1.20169E-03 0.00000E+00
 -1       309 2.26341E-03-1.80706E-03 0.00000E+00
 -1       310 2.31419E-03-2.38913E-03 0.00000E+00
 -1       311 2.37954E-03-2.84259E-03-5.29396E-23
 -1       312 2.43582E-03-3.09857E-03-1.05879E-22
 -1       313 2.43662E-03-3.11972E-03 0.00000E+00
 -1       314 2.32716E-03-2.91449E-03-1.05879E-22
 -1       315 2.07508E-03-2.52978E-03-5.29396E-23
 -1       316 1.69611E-03-2.03071E-03 0.00000E+00
 -1       317 1.24183E-03-1.47995E-03-5.29396E-23
 -1       318 8.02071E-04-9.38906E-04 0.00000E+00
 -1       319 4.62460E-04-4.71191E-04 0.00000E+00
 -1       320 2.59584E-04-1.40395E-04 0.00000E+00
 -1       336 2.70068E-04-3.90384E-06 0.00000E+00
 -1       337 2.57918E-04-4.55020E-06 0.00000E+00
 -1       338 2.43971E-04-5.21867E-06 1.32349E-23
 -1       339 2.28293E-04-5.90977E-06 0.00000E+00
 -1       340 2.10952E-04-6.62733E-06 0.00000E+00
 -1       406 1.66171E-04 8.87472E-07-1.44757E-24
 -1       407 1.66759E-04 1.01407E-06-1.24077E-24
 -1       408 1.67424E-04 1.14055E-06 2.48154E-24
 -1       409 1.68168E-04 1.26674E-06 1.24077E-24
 -1       410 1.68990E-04 1.39240E-06-1.65436E-24
 -1       521 2.14351E-03-3.35907E-04 1.05879E-22
 -1       522 2.20749E-03-7.12135E-04 0.00000E+00
 -1       523 2.26314E-03-1.26224E-03 1.05879E-22
 -1       524 2.30311E-03-1.89850E-03 0.00000E+00
 -1       525 2.34778E-03-2.50961E-03 1.05879E-22
 -1       526 2.41077E-03-2.98676E-03 0.00000E+00
 -1       527 2.46724E-03-3.25505E-03-1.05879E-22
 -1       528 2.46654E-03-3.27603E-03 0.00000E+00
 -1       529 2.34721E-03-3.05794E-03 2.11758E-22
 -1       530 2.07432E-03-2.65416E-03 0.00000E+00
 -1       531 1.66396E-03-2.13334E-03-1.05879E-22
 -1       532 1.17304E-03-1.56130E-03-5.29396E-23
 -1       533 6.97045E-04-9.98481E-04 0.00000E+00
 -1       534 3.27122E-04-5.07741E-04 0.00000E+00
 -1       535 1.04997E-04-1.56932E-04 0.00000E+00
 -1       536 1.91394E-04 2.39343E-05 6.61744E-24
 -1       537 1.89816E-04 7.83123E-05 0.00000E+00
 -1       538 1.87387E-04 1.47381E-04-3.30872E-24
 -1       539 1.84527E-04 2.22670E-04 1.65436E-24
 -1       540 1.81950E-04 2.93814E-04-3.30872E-24
 -1       541 1.80266E-04 3.50471E-04 1.65436E-24
 -1       542 1.79478E-04 3.86486E-04 0.00000E+00
 -1       543 1.79272E-04 3.95839E-04 1.65436E-24
 -1       544 1.78980E-04 3.79257E-04 0.00000E+00
 -1       545 1.77987E-04 3.37663E-04 0.00000E+00
 -1       546 1.76167E-04 2.78462E-04 0.00000E+00
 -1       547 1.73721E-04 2.09169E-04 1.65436E-24
 -1       548 1.71302E-04 1.40294E-04 0.00000E+00
 -1       549 1.69552E-04 8.23501E-05 0.00000E+00
 -1       550 1.68634E-04 4.26143E-05-1.65436E-24
 -1       551 1.69402E-04-7.86349E-06 0.00000E+00
 -1       552 1.43739E-04-8.43523E-06 0.00000E+00
 -1       553 1.15940E-04-9.05896E-06-1.65436E-24
 -1       554 8.69229E-05-9.71679E-06 6.61744E-24
 -1       555 5.76051E-05-1.03851E-05 1.32349E-23
 -1       556 1.85244E-04 1.00326E-05 5.29396E-23
 -1       557 1.79784E-04 2.40786E-05-2.64698E-23
 -1       558 1.75525E-04 3.50443E-05 0.00000E+00
 -1       559 1.72346E-04 4.32154E-05 0.00000E+00
 -1       560 1.70130E-04 4.88774E-05 0.00000E+00
 -1       561 1.68759E-04 5.23186E-05 0.00000E+00
 -1       562 1.68119E-04 5.38278E-05 0.00000E+00
 -1       563 1.68097E-04 5.36949E-05 1.32349E-23
 -1       564 1.68583E-04 5.22104E-05 0.00000E+00
 -1       565 1.69464E-04 4.96654E-05 0.00000E+00
 -1       566 1.70632E-04 4.63514E-05 0.00000E+00
 -1       567 1.71977E-04 4.25602E-05 0.00000E+00
 -1       568 1.73391E-04 3.85837E-05-1.65436E-24
 -1       569 1.74766E-04 3.47138E-05 0.00000E+00
 -1       570 1.75993E-04 3.12426E-05 0.00000E+00
 -1       571 1.68471E-04 2.65169E-05-1.65436E-24
 -1       572 1.68564E-04 2.47232E-05 4.13590E-25
 -1       573 1.68659E-04 2.28831E-05-1.65436E-24
 -1       574 1.68753E-04 2.10115E-05 8.27181E-25
 -1       575 1.68847E-04 1.91232E-05 0.00000E+00
 -1       576 1.68941E-04 1.72331E-05 0.00000E+00
 -1       577 1.69036E-04 1.53561E-05 0.00000E+00
 -1       578 1.69130E-04 1.35073E-05 0.00000E+00
 -1       579 1.69225E-04 1.17015E-05 0.00000E+00
 -1       580 1.69319E-04 9.95363E-06 0.00000E+00
 -1       581 1.69414E-04 8.27870E-06 0.00000E+00
 -1       582 1.69509E-04 6.69159E-06 0.00000E+00
 -1       583 1.69604E-04 5.20723E-06 0.00000E+00
 -1       584 1.69699E-04 3.84037E-06 0.00000E+00
 -1       585 1.69794E-04 2.60562E-06-6.61744E-24
 -1       586 1.69765E-04 2.82867E-05 0.00000E+00
 -1       587 1.71115E-04 2.83227E-05 2.06795E-25
 -1       588 1.72468E-04 2.83583E-05 0.00000E+00
 -1       589 1.73867E-04 2.83933E-05 0.00000E+00
 -1       590 1.75353E-04 2.84271E-05 0.00000E+00
 -1       591 1.68968E-04 2.66001E-05-1.03398E-25
 -1       592 1.69561E-04 2.49290E-05 2.06795E-25
 -1       593 1.70160E-04 2.32427E-05-8.27181E-25
 -1       594 1.70762E-04 2.15458E-05 0.00000E+00
 -1       595 1.71365E-04 1.98433E-05 0.00000E+00
 -1       596 1.71969E-04 1.81399E-05 4.13590E-25
 -1       597 1.72572E-04 1.64402E-05-8.27181E-25
 -1       598 1.73172E-04 1.47492E-05 0.00000E+00
 -1       599 1.73766E-04 1.30715E-05 8.27181E-25
 -1       600 1.74354E-04 1.14118E-05 4.13590E-25
 -1       601 1.74933E-04 9.77497E-06 0.00000E+00
 -1       602 1.75502E-04 8.16568E-06-2.06795E-25
 -1       603 1.76059E-04 6.58871E-06 4.13590E-25
 -1       604 1.76603E-04 5.04889E-06 5.16988E-26
 -1       605 1.77131E-04 3.55090E-06 0.00000E+00
 -1       606 1.69902E-04 6.44949E-07 0.00000E+00
 -1       607 1.69912E-04-1.39102E-07 1.65436E-24
 -1       608 1.69921E-04-8.40923E-07 0.00000E+00
 -1       609 1.69930E-04-1.46629E-06-1.65436E-24
 -1       610 1.69939E-04-2.02105E-06-3.30872E-24
 -1       611 1.69947E-04-2.51109E-06 0.00000E+00
 -1       612 1.69956E-04-2.94231E-06 0.00000E+00
 -1       613 1.69964E-04-3.32063E-06 0.00000E+00
 -1       614 1.69973E-04-3.65195E-06 0.00000E+00
 -1       615 1.69981E-04-3.94219E-06 0.00000E+00
 -1       616 1.69990E-04-4.19727E-06 0.00000E+00
 -1       617 1.69999E-04-4.42309E-06 0.00000E+00
 -1       618 1.70007E-04-4.62556E-06 0.00000E+00
 -1       619 1.70016E-04-4.81060E-06-2.06795E-25
 -1       620 1.70024E-04-4.98411E-06 2.06795E-25
 -1       621 1.70937E-04 1.61416E-06 0.00000E+00
 -1       622 1.72121E-04 1.71223E-06 8.27181E-25
 -1       623 1.73412E-04 1.81015E-06-1.65436E-24
 -1       624 1.74782E-04 1.90779E-06 1.65436E-24
 -1       625 1.76203E-04 2.00519E-06 0.00000E+00
 -1       626 1.70322E-04 6.79040E-07-3.30872E-24
 -1       627 1.70732E-04-9.25608E-08 0.00000E+00
 -1       628 1.71120E-04-8.06228E-07 0.00000E+00
 -1       629 1.71489E-04-1.47008E-06 1.65436E-24
 -1       630 1.71843E-04-2.09227E-06 0.00000E+00
 -1       631 1.72185E-04-2.68097E-06 0.00000E+00
 -1       632 1.72517E-04-3.24432E-06 0.00000E+00
 -1       633 1.72842E-04-3.79052E-06 0.00000E+00
 -1       634 1.73164E-04-4.32772E-06 3.30872E-24
 -1       635 1.73486E-04-4.86409E-06-1.65436E-24
 -1       636 1.73810E-04-5.40781E-06 0.00000E+00
 -1       637 1.74141E-04-5.96704E-06-1.65436E-24
 -1       638 1.74480E-04-6.54995E-06 1.65436E-24
 -1       639 1.74831E-04-7.16474E-06 0.00000E+00
 -1       640 1.75196E-04-7.81958E-06 1.65436E-24
 -1       656 1.70428E-04-5.69999E-06 0.00000E+00
 -1       657 1.71234E-04-6.27017E-06 6.61744E-24
 -1       658 1.72310E-04-6.83894E-06 0.00000E+00
 -1       659 1.73512E-04-7.40737E-06-6.61744E-24
 -1       660 1.74660E-04-7.97751E-06 6.61744E-24
 -1       661 1.70181E-04-5.36182E-06 0.00000E+00
 -1       662 1.70365E-04-5.65714E-06-8.27181E-25
 -1       663 1.70580E-04-6.03333E-06 0.00000E+00
 -1       664 1.70823E-04-6.48449E-06 0.00000E+00
 -1       665 1.71092E-04-7.00539E-06 0.00000E+00
 -1       666 1.71386E-04-7.59068E-06-8.27181E-25
 -1       667 1.71701E-04-8.23529E-06 0.00000E+00
 -1       668 1.72037E-04-8.93420E-06-8.27181E-25
 -1       669 1.72392E-04-9.68254E-06 0.00000E+00
 -1       670 1.72763E-04-1.04756E-05 0.00000E+00
 -1       671 1.73149E-04-1.13086E-05-1.65436E-24
 -1       672 1.73548E-04-1.21772E-05 0.00000E+00
 -1       673 1.73959E-04-1.30767E-05-1.65436E-24
 -1       674 1.74379E-04-1.40032E-05 0.00000E+00
 -1       675 1.74808E-04-1.49517E-05-4.13590E-25
 -1       676 1.70215E-04-1.54246E-05-3.30872E-24
 -1       677 1.71223E-04-1.55243E-05 0.00000E+00
 -1       678 1.72230E-04-1.56240E-05 0.00000E+00
 -1       679 1.73235E-04-1.57234E-05 0.00000E+00
 -1       680 1.74238E-04-1.58227E-05 0.00000E+00
 -1       771 1.81482E-05 1.28533E-05 0.00000E+00
 -1       772 9.08525E-06 3.24873E-05 0.00000E+00
 -1       773 1.62993E-06 4.80505E-05 0.00000E+00
 -1       774-4.32777E-06 5.97771E-05 2.64698E-23
 -1       775-8.89565E-06 6.79099E-05 5.29396E-23
 -1       776-1.21859E-05 7.27063E-05 0.00000E+00
 -1       777-1.43106E-05 7.44322E-05 0.00000E+00
 -1       778-1.53843E-05 7.33650E-05 2.64698E-23
 -1       779-1.55212E-05 6.97897E-05-5.29396E-23
 -1       780-1.48371E-05 6.40007E-05 0.00000E+00
 -1       781-1.34475E-05 5.62983E-05 5.29396E-23
 -1       782-1.14691E-05 4.69903E-05 0.00000E+00
 -1       783-9.01798E-06 3.63883E-05 0.00000E+00
 -1       784-6.21152E-06 2.48092E-05 0.00000E+00
 -1       785-3.16618E-06 1.25726E-05 5.29396E-23
 -1       786 1.77003E-04 2.65869E-05 0.00000E+00
 -1       787 1.77045E-04 2.47655E-05 0.00000E+00
 -1       788 1.77087E-04 2.29852E-05 0.00000E+00
 -1       789 1.77130E-04 2.12380E-05 0.00000E+00
 -1       790 1.77172E-04 1.95192E-05-1.65436E-24
 -1       791 1.77215E-04 1.78241E-05 8.27181E-25
 -1       792 1.77258E-04 1.61505E-05-1.65436E-24
 -1       793 1.77301E-04 1.44964E-05 0.00000E+00
 -1       794 1.77344E-04 1.28613E-05 0.00000E+00
 -1       795 1.77387E-04 1.12451E-05 0.00000E+00
 -1       796 1.77430E-04 9.64960E-06 1.65436E-24
 -1       797 1.77473E-04 8.07644E-06 0.00000E+00
 -1       798 1.77516E-04 6.52966E-06 0.00000E+00
 -1       799 1.77559E-04 5.01333E-06-8.27181E-25
 -1       800 1.77602E-04 3.53456E-06 1.65436E-24
 -1       801 1.36627E-04 2.54774E-05 0.00000E+00
 -1       802 1.44348E-05 1.60906E-05 0.00000E+00
 -1       803-9.07733E-05 8.26714E-06 0.00000E+00
 -1       804-8.19330E-05 5.70717E-06 2.64698E-23
 -1       805-2.72601E-05 2.33383E-06 0.00000E+00
 -1       806 1.77557E-04 2.65225E-05 1.65436E-24
 -1       807 1.78136E-04 2.46143E-05 1.65436E-24
 -1       808 1.78702E-04 2.27375E-05-3.30872E-24
 -1       809 1.79255E-04 2.08957E-05 0.00000E+00
 -1       810 1.79793E-04 1.90926E-05 0.00000E+00
 -1       811 1.80315E-04 1.73316E-05 1.65436E-24
 -1       812 1.80820E-04 1.56164E-05 3.30872E-24
 -1       813 1.81307E-04 1.39504E-05 0.00000E+00
 -1       814 1.81774E-04 1.23371E-05-1.65436E-24
 -1       815 1.82220E-04 1.07799E-05-1.65436E-24
 -1       816 1.82644E-04 9.28247E-06 0.00000E+00
 -1       817 1.83045E-04 7.84816E-06 1.65436E-24
 -1       818 1.83420E-04 6.48047E-06 3.30872E-24
 -1       819 1.83770E-04 5.18286E-06 0.00000E+00
 -1       820 1.84092E-04 3.95876E-06 0.00000E+00
 -1       821 1.77524E-04 4.02767E-07 0.00000E+00
 -1       822 1.77393E-04-1.86389E-06 1.65436E-24
 -1       823 1.77262E-04-4.45161E-06-3.30872E-24
 -1       824 1.77129E-04-7.11064E-06-1.65436E-24
 -1       825 1.76997E-04-9.57291E-06-3.30872E-24
 -1       826 1.76865E-04-1.15714E-05 0.00000E+00
 -1       827 1.76734E-04-1.29605E-05 0.00000E+00
 -1       828 1.76604E-04-1.35979E-05 1.65436E-24
 -1       829 1.76475E-04-1.35381E-05 0.00000E+00
 -1       830 1.76345E-04-1.28396E-05 0.00000E+00
 -1       831 1.76214E-04-1.17276E-05 0.00000E+00
 -1       832 1.76084E-04-1.04302E-05 1.65436E-24
 -1       833 1.75954E-04-9.22375E-06 3.30872E-24
 -1       834 1.75826E-04-8.38405E-06-1.65436E-24
 -1       835 1.75698E-04-8.09139E-06 8.27181E-25
 -1       836 1.78970E-04 2.21855E-06 3.30872E-24
 -1       837 1.80172E-04 2.33945E-06 1.65436E-24
 -1       838 1.81284E-04 2.46026E-06-3.30872E-24
 -1       839 1.82337E-04 2.58039E-06 8.27181E-25
 -1       840 1.83361E-04 2.70035E-06 0.00000E+00
 -1       856 1.75559E-04-9.24747E-06 0.00000E+00
 -1       857 1.75538E-04-9.84184E-06-1.29247E-26
 -1       858 1.75518E-04-1.03262E-05 4.13590E-25
 -1       859 1.75497E-04-1.07208E-05-2.06795E-25
 -1       860 1.75476E-04-1.10461E-05 0.00000E+00
 -1       861 1.75454E-04-1.13227E-05-4.13590E-25
 -1       862 1.75433E-04-1.15711E-05 8.27181E-25
 -1       863 1.75412E-04-1.18117E-05 4.13590E-25
 -1       864 1.75390E-04-1.20652E-05 8.27181E-25
 -1       865 1.75369E-04-1.23521E-05 0.00000E+00
 -1       866 1.75348E-04-1.26929E-05 8.27181E-25
 -1       867 1.75326E-04-1.31081E-05 0.00000E+00
 -1       868 1.75305E-04-1.36181E-05 8.27181E-25
 -1       869 1.75283E-04-1.42433E-05 4.13590E-25
 -1       870 1.75261E-04-1.50039E-05 0.00000E+00
 -1       871 1.76574E-04-8.52664E-06 0.00000E+00
 -1       872 1.77712E-04-8.53368E-06 0.00000E+00
 -1       873 1.78925E-04-8.54135E-06 0.00000E+00
 -1       874 1.80150E-04-8.54972E-06 5.16988E-26
 -1       875 1.81323E-04-8.55866E-06-2.06795E-25
 -1       876 1.75970E-04-9.23376E-06 0.00000E+00
 -1       877 1.76342E-04-9.88075E-06 0.00000E+00
 -1       878 1.76693E-04-1.04714E-05 0.00000E+00
 -1       879 1.77026E-04-1.10128E-05-1.65436E-24
 -1       880 1.77343E-04-1.15120E-05 0.00000E+00
 -1       881 1.77648E-04-1.19762E-05-1.65436E-24
 -1       882 1.77941E-04-1.24124E-05 0.00000E+00
 -1       883 1.78227E-04-1.28277E-05 0.00000E+00
 -1       884 1.78508E-04-1.32291E-05 0.00000E+00
 -1       885 1.78786E-04-1.36236E-05 0.00000E+00
 -1       886 1.79064E-04-1.40184E-05 3.30872E-24
 -1       887 1.79345E-04-1.44204E-05-1.65436E-24
 -1       888 1.79631E-04-1.48368E-05 0.00000E+00
 -1       889 1.79924E-04-1.52748E-05-8.27181E-25
 -1       890 1.80228E-04-1.57413E-05 0.00000E+00
 -1       891 1.76259E-04-1.59746E-05-1.65436E-24
 -1       892 1.77257E-04-1.60294E-05 0.00000E+00
 -1       893 1.78209E-04-1.60840E-05 8.27181E-25
 -1       894 1.79089E-04-1.61385E-05 4.13590E-25
 -1       895 1.79873E-04-1.61928E-05-8.27181E-25
 -1       956 1.84264E-04 1.82689E-06-3.30872E-24
 -1       957 1.84139E-04 9.27191E-07 8.27181E-25
 -1       958 1.84013E-04 1.02545E-07 3.30872E-24
 -1       959 1.83887E-04-6.57498E-07-1.65436E-24
 -1       960 1.83761E-04-1.36343E-06 3.30872E-24
 -1       961 1.83635E-04-2.02578E-06 0.00000E+00
 -1       962 1.83509E-04-2.65507E-06 0.00000E+00
 -1       963 1.83383E-04-3.26186E-06 0.00000E+00
 -1       964 1.83257E-04-3.85670E-06 0.00000E+00
 -1       965 1.83131E-04-4.45013E-06 0.00000E+00
 -1       966 1.83006E-04-5.05271E-06 3.30872E-24
 -1       967 1.82880E-04-5.67497E-06-1.65436E-24
 -1       968 1.82754E-04-6.32747E-06 0.00000E+00
 -1       969 1.82628E-04-7.02070E-06 0.00000E+00
 -1       970 1.82503E-04-7.76517E-06-3.30872E-24
 -1       971 1.82265E-04-9.37281E-06 1.65436E-24
 -1       972 1.82150E-04-1.00828E-05 1.65436E-24
 -1       973 1.82034E-04-1.07111E-05 3.30872E-24
 -1       974 1.81919E-04-1.12681E-05 0.00000E+00
 -1       975 1.81803E-04-1.17645E-05-3.30872E-24
 -1       976 1.81687E-04-1.22107E-05 0.00000E+00
 -1       977 1.81571E-04-1.26175E-05 3.30872E-24
 -1       978 1.81456E-04-1.29952E-05 0.00000E+00
 -1       979 1.81340E-04-1.33546E-05 0.00000E+00
 -1       980 1.81225E-04-1.37062E-05 0.00000E+00
 -1       981 1.81109E-04-1.40606E-05-3.30872E-24
 -1       982 1.80993E-04-1.44285E-05 1.65436E-24
 -1       983 1.80878E-04-1.48203E-05 3.30872E-24
 -1       984 1.80763E-04-1.52467E-05 0.00000E+00
 -1       985 1.80649E-04-1.57183E-05-3.30872E-24
 -3
    1PSTEP                        24          12           1          
  100CL  112 6.36566E-01         409                     0   12           1
 -4  STRESS      6    1
 -5  SXX         1    4    1    1
 -5  SYY         1    4    2    2
 -5  SZZ         1    4    3    3
 -5  SXY         1    4    1    2
 -5  SYZ         1    4    2    3
 -5  SZX         1    4    3    1
 -1         1-5.18587E+06-1.68646E+06-1.10697E+06-1.45679E+06 6.11180E-10-8.21601E-08
 -1         2 1.46152E+06 2.35036E+07 5.27993E+06 5.99150E+06 1.60537E-07-2.79979E-08
 -1         3-1.16983E+03-1.51317E+06 3.82174E+02-1.90593E+03-4.90534E-10-6.84704E-08
 -1         5-4.41805E+01 3.63097E+05 9.36101E+00-9.08714E-01-3.75174E-10 1.39789E-08
 -1         8-2.53724E+04-9.35868E+04 7.04322E+04-3.11619E+05-1.81899E-10-7.39965E-08
 -1         9 8.92297E+06 4.35781E+06 2.51557E+06-4.56077E+04 2.67872E-08-7.81380E-08
 -1        10-2.03005E+03-1.57674E+06-3.55535E+03-1.28930E+04-1.20181E-08-4.18572E-08
 -1        12-4.04306E+01 3.63117E+05 3.05933E+02-6.34482E+00-5.22277E-10-2.32876E-08
 -1        15 9.90449E+02 5.44300E+02 3.20160E+03 8.24503E-01 3.27987E-11 1.07055E-07
 -1        16 1.66561E+07-3.44801E+05 2.31230E+06-1.66830E+06 1.50952E-08 2.21888E-07
 -1        17 6.15459E+06 4.27435E+06 1.64356E+06 4.18345E+06 1.50205E-08 3.44706E-08
 -1        18 1.06063E+05 2.37657E+04-2.91038E+03-1.10246E+05 1.35158E-08 9.21591E-09
 -1        19 1.15560E+05 1.33413E+05-9.07358E+02 2.11517E+04 1.18889E-09-3.23416E-09
 -1        20-7.41269E+04-5.42728E+05-1.21546E+05 2.57083E+04-1.38455E-09 9.22713E-09
 -1        21-4.44806E+01-2.84226E+05-8.91111E+02 1.96647E+02 9.40116E-09-2.22792E-08
 -1        24 1.02133E+07 8.46344E+06 2.86722E+06 7.85716E+06-1.47954E-07-5.16496E-08
 -1        25 6.39714E+04 4.50974E+04 4.29220E+04-5.17342E+05-2.15769E-09-5.57593E-09
 -1        26-5.18746E+04 8.65635E+04-2.33353E+04 1.65817E+02 4.00905E-10 1.37316E-08
 -1        27-7.36847E+04-2.93787E+05-1.07870E+05 6.54517E+04 4.11850E-09 1.96117E-09
 -1        28 2.14674E+04-8.15125E+04 1.62089E+04 2.04611E+04-3.36695E-09 3.64225E-09
 -1        32-1.61200E+06-2.95838E+06-1.72738E+05 2.34304E+05-3.79077E-08-9.58107E-09
 -1        33-1.69788E+05 8.73632E+04 3.05922E+04-3.70629E+04-2.20306E-09 1.27469E-08
 -1        34-2.12843E+05-2.33966E+04 6.39370E+02 7.11175E+04-4.02306E-09-2.59145E-09
 -1        35-2.20726E+04-3.23347E+04-1.28568E+03 4.94640E+04-1.80678E-09 1.40996E-08
 -1        51 5.82997E+04-2.14835E+05 1.23183E+05-4.18758E+05 1.30967E-10-2.26602E-07
 -1        52 1.96884E+04-1.93234E+05 6.45676E+04-4.88449E+05 6.66660E-10-1.18220E-07
 -1        53 3.95380E+03-2.07868E+05 3.35211E+04-4.17341E+05 5.51154E-10-7.99628E-09
 -1        54 6.88411E+03-2.03782E+05 2.73316E+04-4.89827E+05 2.00089E-10-1.26507E-07
 -1        55 1.50840E+04-2.10394E+05 3.30007E+04-4.17272E+05 2.21917E-10 7.85039E-08
 -1        56-9.44348E+06-1.16899E+06-8.33018E+05-3.81138E+06 2.23808E-08-6.93835E-08
 -1        57-1.04182E+07-1.20135E+06-5.49020E+05-3.00347E+06-9.45874E-09 2.04192E-07
 -1        58-9.48943E+06-1.51333E+06-1.91733E+05-3.86083E+06 8.61110E-09 2.66809E-07
 -1        59-1.02930E+07-8.46976E+05-1.11596E+05-3.02075E+06-2.71266E-08-2.98987E-08
 -1        60-9.57474E+06-1.50820E+06-4.99889E+04-3.80365E+06-1.03682E-08-1.42500E-08
 -1        61-9.97888E+06-1.02051E+06-1.30880E+04-3.22604E+06 4.20005E-09-2.52476E-08
 -1        62-9.76304E+06-1.36617E+06-2.95225E+04-3.62602E+06-3.48809E-08 1.15037E-07
 -1        63-9.59986E+06-1.36118E+06 6.00919E+03-3.61402E+06 1.61817E-08 4.19313E-08
 -1        64-9.93580E+06-1.18010E+06-2.45513E+04-3.40451E+06-1.84009E-08-8.41264E-08
 -1        65-9.38456E+06-1.64914E+06-1.56423E+04-4.00710E+06-1.96596E-08-1.52131E-07
 -1        66-1.00158E+07-1.05222E+06-4.13319E+04-3.25970E+06-7.13771E-09-2.99842E-08
 -1        67-9.35965E+06-1.77981E+06-1.03062E+05-4.14444E+06-4.68299E-08 1.19035E-08
 -1        68-9.98575E+06-1.03337E+06-1.79538E+05-3.28316E+06-3.25653E-08 1.35064E-07
 -1        69-9.60769E+06-1.93003E+06-4.99612E+05-3.88361E+06-1.56597E-08-2.98212E-07
 -1        70-9.73692E+06-9.33943E+05-7.72297E+05-3.49579E+06 2.41125E-08 1.93832E-08
 -1        86-1.25147E+06-1.50719E+07-2.75790E+06-2.87184E+06-1.29148E-10 2.31375E-09
 -1        87 1.67536E+06 8.35335E+06 2.39595E+06 4.79823E+06-5.60976E-09 1.17298E-08
 -1        88-1.08521E+05-1.13987E+06 2.22362E+05-1.89836E+06 1.06334E-07 1.72813E-08
 -1        89 2.53636E+06 8.28989E+06 2.55107E+06 4.97727E+06-8.10978E-08-3.34694E-08
 -1        90-2.06372E+06-1.50435E+07-2.92738E+06-3.06644E+06 1.14929E-07 1.35660E-07
 -1       121-1.61059E+03-1.51707E+06-3.57966E+02 9.46211E+02 1.37166E-09-5.40240E-09
 -1       122-1.00367E+03-1.51320E+06 7.44524E+02-3.81270E+03-4.90643E-09 1.65874E-08
 -1       123-1.64366E+03-1.51719E+06 4.43024E+02 2.82626E+03 3.83716E-09 2.62880E-08
 -1       124 5.45587E+02-1.51268E+06 2.91013E+03-7.99452E+03-8.67476E-09-1.65892E-09
 -1       125-2.45681E+03-1.51805E+06 3.63196E+03 5.09638E+03 6.23550E-09 1.14123E-08
 -1       191-4.66752E+01 3.63120E+05 9.29572E+00 4.67419E-01-4.45201E-10 1.07593E-08
 -1       192-4.50654E+01 3.63098E+05 1.99115E+01-3.07116E+00-5.79388E-10-6.20275E-09
 -1       193-4.90144E+01 3.63120E+05 3.51883E+01 2.68449E+00-9.47175E-10-3.32511E-09
 -1       194-4.79067E+01 3.63101E+05 7.55372E+01-7.02688E+00-5.14542E-10 6.36010E-09
 -1       195-5.35062E+01 3.63118E+05 1.45905E+02 4.51613E+00-1.13352E-09-1.78425E-08
 -1       251 1.48454E+06-7.72285E+04 1.74970E+05 1.90345E+04-2.54522E-09-1.84664E-08
 -1       252 1.58538E+06 8.94087E+04 1.28053E+05-8.47486E+04-1.54341E-09-1.72877E-08
 -1       253 1.52316E+06-1.16491E+04 4.56417E+04-4.22751E+03 4.29986E-09-1.93251E-07
 -1       254 1.53941E+06 1.41852E+04 2.93444E+04-5.12065E+04-3.40185E-09-3.25730E-07
 -1       255 1.52952E+06-1.60195E+03 1.19923E+04-1.44985E+04 3.74865E-09 7.35718E-08
 -1       256 1.53187E+06 2.73016E+03 7.55809E+03-3.65083E+04-1.08935E-09 3.34256E-07
 -1       257 1.53051E+06-9.29796E+01 4.32049E+03-1.89229E+04 5.28163E-09 4.83568E-08
 -1       258 1.53096E+06 1.42394E+03 4.63122E+03-3.05641E+04-5.97504E-09 5.95965E-08
 -1       259 1.53040E+06-2.71680E+02 6.21143E+03-2.04420E+04 2.23974E-09-1.60818E-07
 -1       260 1.53252E+06 4.42150E+03 1.29182E+04-2.94152E+04 1.16217E-08-1.69955E-07
 -1       261 1.52892E+06-3.07887E+03 2.18549E+04-2.00714E+04 1.82414E-08 7.53489E-08
 -1       262 1.54301E+06 2.56786E+04 5.32880E+04-3.22242E+04-1.22841E-09 1.02959E-07
 -1       263 1.51990E+06-2.14716E+04 8.50770E+04-1.76318E+04-1.35960E-08 1.06578E-07
 -1       264 1.60738E+06 1.63012E+05 2.31825E+05-4.05500E+04 2.08952E-08 1.57812E-07
 -1       265 1.46460E+06-1.39969E+05 3.28464E+05-1.17423E+04-8.05971E-09 1.14887E-07
 -1       266-1.79307E+04-8.38511E+03 4.20668E+04-1.76406E+01-1.34605E-10-3.88630E-08
 -1       267 2.07863E+04 9.77186E+03 2.97340E+04 2.03552E+01 4.54747E-12-1.86286E-07
 -1       268-2.78742E+03-1.38403E+03 1.10519E+04-2.59353E+00 1.20053E-10 3.56242E-08
 -1       269 3.29111E+03 1.65632E+03 7.18365E+03 3.02117E+00-9.54969E-12-5.77634E-10
 -1       270-4.94000E+02-2.72149E+02 3.46765E+03-4.09990E-01 2.02363E-11-7.50565E-08
 -1       271-1.85274E+06-2.33469E+05-1.46702E+05-7.21535E+05 6.74481E-09 3.50046E-08
 -1       272-1.84889E+06-3.83062E+05-9.24149E+04-7.72420E+05-3.58377E-08 9.69012E-08
 -1       273-1.88380E+06-2.64663E+05-3.53940E+04-7.10942E+05-5.15502E-09 8.90541E-08
 -1       274-1.81379E+06-3.45296E+05-1.86632E+04-7.92400E+05-2.10566E-08-2.97505E-08
 -1       275-1.89107E+06-2.64187E+05-8.64226E+03-7.06095E+05 2.51639E-08 1.02405E-07
 -1       276-1.80674E+06-3.46103E+05-3.88737E+03-8.03249E+05-1.07975E-08 3.09910E-09
 -1       277-1.89448E+06-2.61066E+05-2.28551E+03-7.02834E+05 2.35741E-09-9.99112E-08
 -1       278-1.80432E+06-3.49596E+05-1.13944E+03-8.10434E+05 2.36560E-08-1.97601E-07
 -1       279-1.89634E+06-2.58851E+05-1.20406E+03-7.00870E+05 5.79439E-09-3.09223E-08
 -1       280-1.80356E+06-3.51798E+05-1.85929E+03-8.14064E+05 1.31731E-08-8.44939E-08
 -1       281-1.89679E+06-2.57899E+05-3.32920E+03-7.00238E+05-9.74387E-09-6.45309E-08
 -1       282-1.80510E+06-3.53961E+05-7.96075E+03-8.13724E+05 3.31543E-08 1.52389E-07
 -1       283-1.89482E+06-2.56894E+05-1.42889E+04-7.01136E+05 2.16451E-08 7.14299E-08
 -1       284-1.81850E+06-3.70995E+05-3.86030E+04-8.06909E+05-9.74751E-09 7.64267E-08
 -1       285-1.88211E+06-2.43786E+05-6.06165E+04-7.05312E+05-1.18062E-08 1.21971E-07
 -1       301 4.84003E+03-5.15478E+05 1.65385E+05-9.26348E+05 3.76167E-09 6.14164E-08
 -1       302 3.89519E+03-4.70737E+05 1.01054E+05-1.35319E+06 4.76575E-09 4.18549E-09
 -1       303-1.31304E+04-5.03393E+05 6.17121E+04-9.23946E+05 1.49885E-08-9.40199E-08
 -1       304-8.47246E+03-4.73528E+05 7.01623E+04-1.35240E+06-5.82077E-10 3.16468E-08
 -1       305-1.07668E+04-4.99322E+05 9.61180E+04-9.26782E+05 9.87166E-09 1.21741E-07
 -1       306-2.44414E+07-4.82990E+06-6.60110E+06-1.22205E+06-7.39237E-08-1.32859E-07
 -1       307 1.87993E+07 1.22189E+06 4.13899E+06-1.18784E+07-7.11472E-07-2.41504E-07
 -1       308-7.58502E+06-3.37433E+05-3.99827E+05 4.01412E+06-1.70316E-07 2.74973E-07
 -1       309-2.89650E+06 4.53800E+06 1.57549E+06-1.74551E+07 3.39955E-07 4.94270E-07
 -1       310-1.11613E+07-9.25304E+05-1.37296E+06 3.75186E+06-1.87545E-07 8.77335E-08
 -1       311 2.71106E+07-6.79011E+05 5.38543E+06-7.31854E+06 4.65661E-07 4.63770E-08
 -1       312-2.55824E+07-5.28313E+06-6.37326E+06-4.14622E+06 2.96859E-09 2.39219E-07
 -1       313 3.40334E+07 9.97085E+06 8.10979E+06 1.67648E+07-3.03145E-07 4.01633E-08
 -1       314-1.52709E+07-1.30580E+07-5.68618E+06-1.02332E+07 2.77185E-07-1.73750E-07
 -1       315-2.02987E+06 2.15396E+07 4.32015E+06 8.99156E+06-5.12067E-07-2.56347E-07
 -1       316 1.33257E+05-8.37715E+06-3.67183E+05-3.53633E+06-1.05983E-06-2.44705E-07
 -1       317-1.64533E+07 1.79493E+07 1.53847E+06-5.02850E+06 5.72734E-07-5.83517E-07
 -1       318-1.67110E+06-9.95182E+06-1.40836E+06-4.60020E+06-7.83533E-07-5.23869E-10
 -1       319 4.31297E+06 2.25893E+07 5.12292E+06 1.24877E+07-8.03193E-08 1.70316E-07
 -1       320-1.87711E+07-1.31311E+07-7.46406E+06-1.02179E+07 1.81608E-07-6.94708E-08
 -1       336-3.30750E+02-1.64228E+06-1.26672E+04 7.67815E+03-2.32658E-08-1.49521E-09
 -1       337-4.91857E+03-1.64247E+06-1.63227E+04-1.86412E+04-4.42506E-08-1.28402E-08
 -1       338 4.27826E+02-1.64189E+06-2.51938E+04 1.07841E+04-3.05417E-08-5.44969E-09
 -1       339-2.67703E+04-1.65741E+06-5.69111E+04-2.47183E+04-5.49617E-08-4.36557E-09
 -1       340 1.77138E+04-1.62902E+06-8.94667E+04 1.36513E+04-3.59432E-08 3.00024E-08
 -1       406-1.89061E+01 3.63104E+05 6.02042E+02 2.08833E+00-1.40410E-09-4.04798E-08
 -1       407 1.70380E+02 3.63223E+05 1.28369E+03 1.87006E+01-2.73047E-10-7.22530E-08
 -1       408 6.19084E+02 3.63011E+05 2.56128E+03-2.11943E+01-1.92381E-09-5.87552E-08
 -1       409 2.73478E+03 3.64041E+05 5.77008E+03 2.21601E+02-3.43164E-10-2.51166E-08
 -1       410 7.92978E+03 3.62277E+05 1.17777E+04-2.12537E+02-2.19006E-09-1.16406E-08
 -1       521-2.62767E+07-6.00142E+06-7.82080E+06-9.53427E+05-1.04075E-07 1.31200E-07
 -1       522 1.97221E+07 1.79705E+06 4.27621E+06-1.49028E+07-5.26430E-07-1.82539E-07
 -1       523-8.44975E+06-5.84833E+05-4.17588E+05 4.49249E+06 6.03613E-08-2.90034E-07
 -1       524-5.68841E+06 6.76212E+06 1.74312E+06-2.05371E+07 8.32282E-07-4.50789E-07
 -1       525-1.22571E+07-1.39222E+06-1.53965E+06 4.22106E+06 6.78177E-07-1.84111E-07
 -1       526 2.99432E+07-8.27529E+05 5.75014E+06-9.61219E+06 1.86265E-07 9.51404E-08
 -1       527-2.76279E+07-6.65991E+06-7.44106E+06-4.12360E+06 1.84518E-07 1.22527E-07
 -1       528 3.77378E+07 1.11534E+07 8.59858E+06 1.92785E+07-3.42668E-07 1.87429E-08
 -1       529-1.64186E+07-1.50486E+07-6.61544E+06-1.05985E+07-1.75671E-07-2.13040E-08
 -1       530-4.17030E+06 2.55441E+07 4.65094E+06 9.03378E+06-2.34955E-07 5.30534E-07
 -1       531 7.24260E+04-9.59083E+06-3.69096E+05-3.74586E+06-8.95758E-07 3.32773E-07
 -1       532-1.94939E+07 2.03790E+07 1.72629E+06-8.21583E+06 3.40544E-07-6.20726E-07
 -1       533-1.75985E+06-1.12297E+07-1.51733E+06-4.73510E+06-2.37487E-07-8.92556E-07
 -1       534 2.60356E+06 2.67375E+07 5.42850E+06 1.32055E+07-8.77117E-08 6.37956E-07
 -1       535-2.01093E+07-1.52413E+07-8.63999E+06-1.05790E+07 7.38073E-08 3.95725E-07
 -1       536-6.48752E+05-4.26473E+04-2.90115E+04-4.69240E+04-6.32235E-09 5.99794E-08
 -1       537-1.11034E+05 4.15652E+04 7.60300E+04 1.08900E+05-1.03395E-07 8.16858E-08
 -1       538-3.91761E+05 2.11524E+03 5.62270E+03-6.45747E+04 2.69255E-08 8.76898E-08
 -1       539-2.89268E+05 2.79551E+03 2.18506E+04 1.23265E+05 1.52352E-07 8.15702E-08
 -1       540-4.74932E+05-2.23998E+02-1.65730E+04-6.16826E+04 7.93489E-09 1.04346E-07
 -1       541 5.15151E+04 1.38728E+04 8.74348E+04 8.51507E+04-5.66474E-08 9.76172E-08
 -1       542-7.23383E+05-1.65810E+04-6.89794E+04-2.58192E+04 2.61189E-08 5.10585E-08
 -1       543 2.63509E+05 2.24487E+04 1.29408E+05-1.20772E+04-2.87794E-08-2.20634E-08
 -1       544-6.81258E+05-1.34826E+04-6.12328E+04 3.50497E+04-4.39859E-08-2.26439E-08
 -1       545-4.67191E+04 7.49100E+03 6.46778E+04-9.99808E+04-1.49817E-08-6.16153E-08
 -1       546-4.21456E+05 5.23825E+03-1.02281E+04 6.18352E+04 1.03826E-08-8.23132E-08
 -1       547-3.04806E+05-4.66960E+03 7.21355E+03-1.25920E+05-9.17094E-08-9.26780E-08
 -1       548-4.30079E+05 4.42955E+03-2.15699E+04 6.14966E+04-8.92903E-08-8.32624E-08
 -1       549-2.91805E+04 9.35167E+03 4.45067E+04-9.75036E+04-5.62377E-08-7.32553E-08
 -1       550-6.89694E+05-1.49325E+04-1.13446E+05 3.28886E+04 4.89172E-09-3.42679E-08
 -1       551 3.59844E+04-7.33136E+05-5.36716E+03-1.19366E+06-9.24629E-08-1.72586E-08
 -1       552 8.17676E+04-7.70488E+05 1.57007E+04-1.70185E+06-6.65896E-08 3.00570E-08
 -1       553 6.22859E+04-7.69186E+05 3.57756E+04-1.18770E+06-1.04534E-07 2.33704E-08
 -1       554 1.17750E+05-7.82094E+05 8.51838E+04-1.70381E+06-6.95436E-08 8.23638E-09
 -1       555 9.17194E+04-7.91718E+05 1.54204E+05-1.18776E+06-1.12945E-07-1.91030E-08
 -1       556 1.99018E+05-3.46477E+05 3.69569E+04-3.79318E+05-2.56405E-08-4.24916E-09
 -1       557 3.20064E+05-4.43697E+05 2.14658E+04-4.88778E+05-1.39698E-09 3.93266E-09
 -1       558 1.84560E+05-3.42964E+05 5.40777E+03-3.80799E+05-8.99308E-09 7.17409E-09
 -1       559 2.97702E+05-4.45980E+05 3.73207E+03-5.05963E+05 3.24071E-08-8.02174E-09
 -1       560 1.71951E+05-3.35025E+05-4.01359E+02-3.89781E+05 1.85682E-08 1.22527E-08
 -1       561 2.81709E+05-4.39698E+05 5.12923E+02-5.16781E+05 2.16824E-09 1.84773E-08
 -1       562 1.62005E+05-3.28818E+05-8.57613E+02-3.96959E+05 4.87489E-09-3.63798E-11
 -1       563 2.69927E+05-4.34559E+05 8.05832E+01-5.24451E+05 1.10158E-08 2.41471E-09
 -1       564 1.54983E+05-3.24436E+05-4.08156E+02-4.01927E+05 7.82893E-09 1.35451E-08
 -1       565 2.62244E+05-4.31215E+05 5.63042E+01-5.29352E+05 4.87489E-09 1.70098E-08
 -1       566 1.50989E+05-3.21905E+05-1.81378E+02-4.04722E+05-4.13274E-09 1.42500E-08
 -1       567 2.58690E+05-4.29666E+05-2.93194E+02-5.31490E+05 5.09317E-11 9.45874E-11
 -1       568 1.50099E+05-3.21365E+05-9.44269E+02-4.05440E+05-8.18318E-09 2.87764E-09
 -1       569 2.57987E+05-4.29631E+05-2.38472E+03-5.29927E+05-1.50612E-09 8.84029E-09
 -1       570 1.53320E+05-3.24343E+05-5.24799E+03-4.04543E+05 4.24188E-09-1.66438E-09
 -1       571 2.73784E+05 9.92213E+03 1.42712E+04-8.60685E+04 1.07821E-08 6.90443E-09
 -1       572 2.75864E+05 3.67860E+03 6.99356E+03-9.44249E+04 2.12995E-08 2.15641E-09
 -1       573 2.74613E+05 1.10148E+03 3.10738E+03-8.59037E+04 1.09076E-08-1.02227E-09
 -1       574 2.74827E+05 5.97897E+02 1.55805E+03-9.46302E+04 1.75532E-10 1.29239E-09
 -1       575 2.74704E+05 3.41088E+02 7.35249E+02-8.58812E+04-3.02339E-09 1.90121E-08
 -1       576 2.74696E+05 3.43688E+02 3.76184E+02-9.46575E+04-3.57250E-09 1.82445E-09
 -1       577 2.74737E+05 2.88412E+02 1.87677E+02-8.58782E+04 8.88576E-10 2.67391E-09
 -1       578 2.74717E+05 3.12012E+02 1.07958E+02-9.46613E+04-4.00178E-09 2.14459E-09
 -1       579 2.74795E+05 2.59838E+02 7.39715E+01-8.58779E+04 5.03860E-09-7.40056E-09
 -1       580 2.74799E+05 2.71718E+02 8.49218E+01-9.46568E+04-8.94033E-09-2.28192E-08
 -1       581 2.74887E+05 2.13921E+02 1.28486E+02-8.58832E+04 1.62254E-09-4.93765E-09
 -1       582 2.74943E+05 2.47145E+02 2.60018E+02-9.46010E+04 1.96451E-09-1.64337E-08
 -1       583 2.74998E+05 2.64689E+02 5.00445E+02-8.59341E+04 2.23372E-09-6.68592E-09
 -1       584 2.75268E+05 6.70853E+02 1.13086E+03-9.41725E+04 3.40242E-09-7.94194E-09
 -1       585 2.75001E+05 1.63313E+03 2.29204E+03-8.63113E+04-3.24508E-09-5.77347E-09
 -1       586-3.25886E+03 1.05973E+05-3.04234E+03-2.38168E+05-4.63706E-09 4.22688E-10
 -1       587-1.15921E+03 1.05682E+05 5.62999E+02-2.62130E+05-6.89761E-09 5.58509E-09
 -1       588 5.03518E+02 1.05548E+05 4.37304E+03-2.38042E+05-4.79668E-09-2.52112E-09
 -1       589 4.90429E+03 1.07836E+05 1.14879E+04-2.61894E+05-6.03541E-09 9.28048E-09
 -1       590 1.56518E+04 1.04299E+05 2.41557E+04-2.38452E+05-4.38740E-09-3.81988E-09
 -1       591-6.75523E+04-1.48636E+04-2.07987E+04-2.93441E+04-1.63482E-10-4.02815E-09
 -1       592-7.11750E+04-1.83003E+04-1.12662E+04-3.28641E+04-5.73897E-09-1.77686E-08
 -1       593-6.96334E+04-1.33533E+04-4.68960E+03-3.08681E+04-6.07767E-09-1.45640E-08
 -1       594-6.83013E+04-1.52505E+04-2.33884E+03-3.29755E+04-7.25584E-09-2.76882E-08
 -1       595-6.97922E+04-1.33482E+04-1.07387E+03-3.09374E+04-6.67072E-10 1.10482E-08
 -1       596-6.81046E+04-1.51111E+04-5.45882E+02-3.29524E+04 2.28007E-09 2.39173E-08
 -1       597-6.98121E+04-1.33624E+04-2.97198E+02-3.09400E+04-3.00781E-09 1.55482E-08
 -1       598-6.80853E+04-1.51056E+04-2.38823E+02-3.29459E+04-5.04343E-09 1.78283E-08
 -1       599-6.98109E+04-1.33628E+04-3.04953E+02-3.09397E+04 9.75433E-10-3.84807E-09
 -1       600-6.81048E+04-1.51117E+04-5.66415E+02-3.29505E+04 1.17211E-08-4.82964E-09
 -1       601-6.97879E+04-1.33493E+04-1.11736E+03-3.09363E+04 3.10592E-10 4.09796E-09
 -1       602-6.83093E+04-1.52559E+04-2.43515E+03-3.29711E+04-2.95347E-09-4.42515E-09
 -1       603-6.96201E+04-1.33573E+04-4.88346E+03-3.08649E+04-1.17006E-09-4.16958E-09
 -1       604-7.13181E+04-1.84135E+04-1.17311E+04-3.28320E+04 4.50143E-09-2.68483E-09
 -1       605-6.74342E+04-1.49465E+04-2.16573E+04-2.92960E+04 4.57635E-09 8.62838E-09
 -1       606 2.67076E+04-1.34220E+04-2.40726E+04 2.44118E+04 5.04224E-09 7.51857E-09
 -1       607 2.25933E+04-4.37756E+03-1.19879E+04 2.74266E+04-1.04865E-09-1.85464E-08
 -1       608 2.49365E+04-7.84048E+02-5.36684E+03 2.42344E+04-4.19459E-09-9.55561E-09
 -1       609 2.44850E+04-2.61535E+02-2.71110E+03 2.76436E+04 1.81262E-09 4.92946E-10
 -1       610 2.47340E+04-2.98605E+01-1.29370E+03 2.42137E+04-7.25504E-09 1.32081E-09
 -1       611 2.46612E+04-2.77571E+01-6.52269E+02 2.76671E+04-9.85847E-09 1.34605E-08
 -1       612 2.46878E+04-1.57702E+01-3.10297E+02 2.42116E+04-3.97267E-09-1.10126E-08
 -1       613 2.46700E+04-2.27705E+01-1.39213E+02 2.76699E+04 3.59523E-09 8.00696E-09
 -1       614 2.46655E+04-2.07708E+01-3.31520E+01 2.42109E+04 9.73159E-11 1.57295E-08
 -1       615 2.46634E+04-2.04757E+01 5.72045E+01 2.76703E+04 5.34328E-10 4.68322E-09
 -1       616 2.46480E+04-1.71031E+01 1.72575E+02 2.42112E+04-1.36424E-11-6.65659E-09
 -1       617 2.46829E+04 1.70390E+01 3.94192E+02 2.76698E+04-5.29872E-09-1.28339E-08
 -1       618 2.46129E+04 9.71019E+01 7.94695E+02 2.42114E+04-1.75123E-09 7.51470E-10
 -1       619 2.49627E+04 6.31963E+02 1.78466E+03 2.76692E+04-1.74487E-09 4.54315E-09
 -1       620 2.43485E+04 1.98195E+03 3.58714E+03 2.42122E+04-1.23123E-10-6.53063E-09
 -1       621 4.38155E+02 2.82769E+05 3.49969E+03 3.48480E+04 8.96762E-10-1.92176E-09
 -1       622 5.70787E+02 2.83590E+05 3.14102E+03 5.06125E+04 1.15460E-09 4.06362E-09
 -1       623 1.01823E+02 2.82950E+05 3.82202E+03 3.46888E+04 1.03694E-09-9.93805E-09
 -1       624 1.92461E+03 2.84751E+05 7.44715E+03 5.07703E+04 8.30937E-10-6.95309E-09
 -1       625 1.89493E+03 2.81476E+05 1.30322E+04 3.46857E+04 1.10367E-09 1.44973E-09
 -1       626 2.46172E+05 5.92466E+04 4.96034E+03 1.21202E+05 1.18825E-09-1.32241E-09
 -1       627 2.43858E+05 6.06684E+04 2.39033E+03 1.25417E+05 6.09953E-09 1.42904E-10
 -1       628 2.46301E+05 5.69707E+04 1.01076E+03 1.22037E+05-5.09954E-09-4.76211E-09
 -1       629 2.43234E+05 6.00179E+04 4.94724E+02 1.25657E+05-5.73891E-09 5.83705E-09
 -1       630 2.46314E+05 5.68612E+04 2.29368E+02 1.22071E+05-1.70985E-09-4.30327E-09
 -1       631 2.43167E+05 5.99941E+04 1.23266E+02 1.25658E+05 1.88447E-09 4.39002E-09
 -1       632 2.46310E+05 5.68657E+04 8.08357E+01 1.22067E+05 1.06211E-08 1.23225E-09
 -1       633 2.43157E+05 5.99966E+04 8.96071E+01 1.25654E+05-2.11401E-09-6.25505E-10
 -1       634 2.46304E+05 5.68636E+04 1.44420E+02 1.22065E+05-1.25181E-09 2.03977E-08
 -1       635 2.43170E+05 5.99954E+04 2.92003E+02 1.25658E+05-5.23440E-09-3.72938E-09
 -1       636 2.46294E+05 5.68588E+04 5.89584E+02 1.22065E+05 6.06826E-09-8.89122E-09
 -1       637 2.43297E+05 6.00873E+04 1.29618E+03 1.25657E+05 1.60867E-09 1.88948E-09
 -1       638 2.46248E+05 5.71454E+04 2.66322E+03 1.21935E+05-1.67347E-09-2.79169E-09
 -1       639 2.44695E+05 6.20329E+04 6.30114E+03 1.25245E+05-1.58434E-09-7.77050E-09
 -1       640 2.46056E+05 6.29537E+04 1.30760E+04 1.19485E+05 4.14502E-09 5.92718E-09
 -1       656 6.31953E+04-1.61521E+06-1.52552E+05-2.02076E+03 2.11003E-10-6.01921E-09
 -1       657-8.35916E+04-1.68414E+06-1.26357E+05 5.74937E+03-3.26509E-10-8.35995E-09
 -1       658 2.01349E+04-1.63480E+06-7.77926E+04-3.93418E+03-1.38243E-10 1.31677E-08
 -1       659-9.03148E+04-1.68733E+06-1.35192E+05 7.29511E+03-1.06957E-09-1.70694E-09
 -1       660 6.99033E+04-1.61203E+06-1.67741E+05-3.56649E+03-1.78989E-09-8.94602E-10
 -1       661 1.59415E+05 1.68001E+04 1.65537E+04 6.23239E+04-1.99179E-10 1.24883E-08
 -1       662 1.68670E+05 2.91612E+04 1.11558E+04 5.87288E+04 1.30473E-09-1.32013E-08
 -1       663 1.62666E+05 2.21114E+04 3.90172E+03 6.13810E+04 4.68845E-10-9.42578E-09
 -1       664 1.64902E+05 2.29493E+04 2.33383E+03 5.98798E+04-1.98901E-09 6.10365E-09
 -1       665 1.63158E+05 2.28376E+04 9.20687E+02 6.12381E+04 1.76169E-09-1.29003E-09
 -1       666 1.64320E+05 2.21182E+04 5.38619E+02 6.00659E+04 1.00918E-09 9.55415E-09
 -1       667 1.63244E+05 2.29207E+04 2.85952E+02 6.12028E+04-1.13505E-09 8.19760E-09
 -1       668 1.64226E+05 2.20576E+04 2.91022E+02 6.01171E+04-3.49030E-09-1.68383E-08
 -1       669 1.63251E+05 2.28964E+04 3.93735E+02 6.11872E+04-5.06409E-09-5.52376E-10
 -1       670 1.64322E+05 2.22707E+04 8.57102E+02 6.01195E+04-4.28431E-09-8.67944E-09
 -1       671 1.63148E+05 2.27120E+04 1.52177E+03 6.11985E+04 3.66192E-09-1.32426E-08
 -1       672 1.65209E+05 2.37511E+04 3.89333E+03 5.99046E+04 7.95393E-09-1.62981E-09
 -1       673 1.62369E+05 2.14535E+04 6.52458E+03 6.13878E+04 3.71756E-09 9.35233E-09
 -1       674 1.71419E+05 3.42329E+04 1.86589E+04 5.80795E+04-2.46155E-09 1.28755E-08
 -1       675 1.56977E+05 1.25237E+04 2.76963E+04 6.29133E+04-2.95495E-09 4.76030E-09
 -1       676 2.31957E+01-2.84152E+05-1.07402E+03-9.83262E+01-3.51548E-10 5.02080E-10
 -1       677-2.84618E+02-2.84411E+05-1.96564E+03 1.96504E+02 5.50074E-09-7.02550E-09
 -1       678 1.90488E+02-2.83967E+05-3.47475E+03-9.81127E+01 8.56744E-10 6.69345E-09
 -1       679-3.47527E+03-2.86509E+05-8.25453E+03 1.95688E+02 5.02496E-09 8.38267E-09
 -1       680 2.07455E+03-2.82055E+05-1.33035E+04-9.64206E+01 1.11322E-09 2.75334E-08
 -1       771-2.95721E+06-6.95200E+05-1.43238E+05-1.39585E+06-2.89147E-08-2.27592E-08
 -1       772-2.88895E+06-7.76306E+05-7.40968E+04-1.48933E+06-2.39525E-08 1.36424E-08
 -1       773-2.98419E+06-6.74095E+05-3.72384E+04-1.40766E+06-1.06811E-08 1.03028E-08
 -1       774-2.87946E+06-7.60490E+05-1.67269E+04-1.51082E+06 3.48227E-08 1.74623E-09
 -1       775-2.99773E+06-6.64570E+05-1.21562E+04-1.41312E+06-2.41562E-09 1.42609E-09
 -1       776-2.88904E+06-7.58234E+05-4.60401E+03-1.52677E+06-1.31986E-08 2.45927E-09
 -1       777-3.00935E+06-6.56157E+05-5.24406E+03-1.41792E+06 3.20142E-10 3.37604E-09
 -1       778-2.89911E+06-7.56200E+05-1.50255E+03-1.54043E+06 2.56841E-09 5.98448E-09
 -1       779-3.01928E+06-6.48846E+05-2.58044E+03-1.42202E+06-7.95990E-09-5.95173E-09
 -1       780-2.90796E+06-7.54260E+05-4.30231E+02-1.55155E+06-1.07102E-08-4.07454E-10
 -1       781-3.02714E+06-6.42975E+05-9.87080E+02-1.42523E+06-2.74740E-08-4.78758E-09
 -1       782-2.91476E+06-7.52605E+05 3.74987E+02-1.55974E+06-3.43134E-08-4.09091E-09
 -1       783-3.03266E+06-6.38911E+05 5.95026E+02-1.42748E+06-8.35280E-09-1.77279E-08
 -1       784-2.91848E+06-7.50868E+05 2.39952E+03-1.56479E+06-1.60217E-08 7.78527E-10
 -1       785-3.03593E+06-6.36486E+05 4.24258E+03-1.42893E+06-3.31602E-08 6.08452E-09
 -1       786 1.22149E+05-9.49270E+03 2.19618E+04-2.69476E+02 6.09905E-10 5.56429E-09
 -1       787 1.31673E+05 1.09901E+04 1.55371E+04-9.13223E+01 6.07340E-09 2.85218E-09
 -1       788 1.25821E+05-1.48768E+03 5.68212E+03-2.36989E+02 9.56967E-10 2.18711E-09
 -1       789 1.27395E+05 1.72165E+03 3.56724E+03-1.41724E+02 6.66033E-10-5.84140E-09
 -1       790 1.26427E+05-2.31786E+02 1.44477E+03-2.19088E+02-1.02422E-09 1.05024E-09
 -1       791 1.26686E+05 2.67987E+02 8.35369E+02-1.72477E+02-6.43134E-09-6.21461E-09
 -1       792 1.26530E+05-3.51024E+01 3.55790E+02-2.06238E+02-2.97750E-09-1.82744E-08
 -1       793 1.26564E+05 3.76734E+01 1.81314E+02-1.96624E+02-8.92536E-10-5.69063E-09
 -1       794 1.26550E+05-1.61797E+00 5.50408E+01-1.94941E+02 4.06230E-09 8.64310E-09
 -1       795 1.26531E+05-2.00761E+01-3.49324E+01-2.20101E+02-3.63142E-09 4.51040E-09
 -1       796 1.26563E+05 2.26152E+01-1.21609E+02-1.82760E+02 3.33962E-09-9.45780E-09
 -1       797 1.26456E+05-1.70394E+02-3.44029E+02-2.47917E+02 4.14900E-09-6.51065E-09
 -1       798 1.26624E+05 1.48587E+02-5.61516E+02-1.67125E+02 9.80440E-10-5.99866E-09
 -1       799 1.26030E+05-1.09586E+03-1.54727E+03-2.86256E+02 5.08263E-09 2.50163E-08
 -1       800 1.26990E+05 9.47322E+02-2.19038E+03-1.44422E+02-1.01177E-10 2.83668E-08
 -1       801-9.42651E+04-8.57113E+06-1.15354E+06 1.07989E+06 8.23929E-08-5.31982E-08
 -1       802 5.19436E+05 3.73288E+06 1.62418E+06-1.29756E+06 2.27570E-07-1.93986E-08
 -1       803-4.07638E+05-1.17514E+07-1.46202E+06 6.85524E+05 6.99583E-08 2.12676E-08
 -1       804 2.02016E+05 9.20485E+05 1.14617E+06 5.67708E+05-1.02260E-07-8.41970E-08
 -1       805 1.60359E+05-5.77385E+06-2.26569E+05-7.80961E+05-4.21569E-08-5.55656E-08
 -1       806-2.93285E+05-5.63220E+04-2.15756E+04-1.15733E+05-5.93946E-09 5.76483E-09
 -1       807-2.95048E+05-5.27348E+04-1.05999E+04-1.20891E+05 3.22120E-09 3.33693E-08
 -1       808-2.93873E+05-4.85515E+04-4.49684E+03-1.19415E+05-1.06320E-09 1.08363E-08
 -1       809-2.92823E+05-4.97536E+04-2.19886E+03-1.21148E+05-5.63386E-09-1.12526E-08
 -1       810-2.93962E+05-4.82809E+04-1.00785E+03-1.19578E+05 2.83717E-09-4.41719E-09
 -1       811-2.92651E+05-4.96335E+04-5.01210E+02-1.21115E+05 5.42605E-09 5.73164E-09
 -1       812-2.93976E+05-4.83040E+04-2.53493E+02-1.19578E+05-5.13865E-10 1.98816E-09
 -1       813-2.92628E+05-4.96353E+04-1.64795E+02-1.21097E+05-5.71163E-10-2.93448E-09
 -1       814-2.93970E+05-4.83127E+04-1.63329E+02-1.19574E+05 3.24690E-10-5.10181E-09
 -1       815-2.92632E+05-4.96372E+04-2.63294E+02-1.21091E+05 1.37275E-08 1.59935E-08
 -1       816-2.93951E+05-4.83114E+04-4.98991E+02-1.19571E+05 6.97673E-09 1.07739E-08
 -1       817-2.92717E+05-4.96846E+04-1.07111E+03-1.21081E+05-9.55333E-09 9.10950E-09
 -1       818-2.93887E+05-4.84619E+04-2.18459E+03-1.19500E+05-5.54337E-09 1.02955E-09
 -1       819-2.93913E+05-5.10051E+04-5.14049E+03-1.20800E+05-2.20689E-09-1.87918E-08
 -1       820-2.93478E+05-5.23427E+04-1.04626E+04-1.17840E+05-5.79348E-10-8.93033E-09
 -1       821-3.62138E+05 1.99545E+04-4.62259E+04 1.37199E+03 9.70944E-09-2.59934E-09
 -1       822-3.81860E+05-2.31039E+04-3.26574E+04-2.56417E+03 2.42548E-09 5.06043E-09
 -1       823-3.69698E+05 3.13324E+03-1.19618E+04 1.92399E+03-7.59064E-09 2.83762E-10
 -1       824-3.72922E+05-3.62053E+03-7.51380E+03-2.77361E+03 1.79742E-09 4.09989E-09
 -1       825-3.71074E+05 4.87167E+02-3.11200E+03 1.58147E+03 1.04943E-08-2.14496E-08
 -1       826-3.71154E+05-5.64848E+02-1.79887E+03-1.37838E+03 1.33771E-08-1.15866E-08
 -1       827-3.71457E+05 7.36890E+01-1.02204E+03 5.28717E+02 5.89756E-09-9.36816E-09
 -1       828-3.70846E+05-1.62848E+02-7.68691E+02 8.78822E+02-6.21547E-10-2.82471E-09
 -1       829-3.71379E+05 8.33436E+01-1.02839E+03-6.75763E+02-8.88463E-11 3.46898E-09
 -1       830-3.71332E+05-6.00089E+02-1.89861E+03 2.79711E+03 3.70207E-10-1.09594E-09
 -1       831-3.70979E+05 5.16394E+02-3.20993E+03-1.38960E+03-2.59935E-09-1.73925E-08
 -1       832-3.73010E+05-3.77029E+03-7.80965E+03 3.35377E+03-1.20723E-09-1.20273E-08
 -1       833-3.69706E+05 3.25424E+03-1.24389E+04-1.23243E+03-3.27857E-09 1.11618E-08
 -1       834-3.82105E+05-2.39990E+04-3.38923E+04 2.23191E+03-3.05599E-09 1.47870E-08
 -1       835-3.61880E+05 2.07244E+04-4.80408E+04-2.67712E+02 5.02975E-09 2.35013E-09
 -1       836-1.31489E+03 3.48129E+05 2.14712E+04-1.59001E+04-5.54610E-09 8.87212E-09
 -1       837 4.59711E+03 3.54844E+05 1.82087E+04-3.23523E+04-6.00369E-09-4.68367E-09
 -1       838-5.16602E+02 3.50007E+05 1.86087E+04-1.58310E+04-4.94401E-09-7.43330E-09
 -1       839 1.17532E+04 3.60176E+05 3.52576E+04-3.24017E+04-5.30281E-09 1.19867E-08
 -1       840-3.61995E+03 3.42744E+05 5.62469E+04-1.58547E+04-4.62751E-09 1.09473E-08
 -1       856-5.68845E+04 7.87377E+03-2.07492E+04-3.96568E+02 3.59466E-09-1.16579E-08
 -1       857-6.54374E+04-9.24796E+03-1.42839E+04 5.40926E+03 3.45437E-09 4.44379E-09
 -1       858-6.02700E+04 1.10403E+03-5.38407E+03-4.19953E+02 3.34268E-09 9.86415E-09
 -1       859-6.15518E+04-1.29560E+03-3.24944E+03 5.44450E+03-3.10257E-09 7.87071E-09
 -1       860-6.07758E+04 1.54406E+02-1.36247E+03-4.31624E+02-3.81846E-10 1.98281E-09
 -1       861-6.09697E+04-1.81313E+02-7.50855E+02 5.46043E+03-3.28074E-09-1.85368E-09
 -1       862-6.08549E+04 2.07941E+01-3.14789E+02-4.35870E+02-1.56958E-09-1.31459E-08
 -1       863-6.08733E+04-1.90130E+01-1.20728E+02 5.46281E+03-3.04212E-09-1.14702E-08
 -1       864-6.08728E+04-4.22528E+00 3.26770E+01-4.34005E+02-1.57910E-09-1.40622E-08
 -1       865-6.08224E+04 5.48425E+01 2.20087E+02 5.45240E+03-2.46746E-09 4.80432E-09
 -1       866-6.09038E+04-5.31396E+01 4.50550E+02-4.25466E+02 7.87225E-10-1.72301E-09
 -1       867-6.06087E+04 4.39708E+02 1.11348E+03 5.42918E+03-1.23919E-10-4.12501E-09
 -1       868-6.10819E+04-3.82327E+02 1.85136E+03-4.10782E+02 7.59314E-10-5.78825E-09
 -1       869-5.92501E+04 3.18207E+03 4.93119E+03 5.39069E+03 7.98451E-10 7.96609E-09
 -1       870-6.22551E+04-2.72129E+03 7.15606E+03-3.86905E+02-3.70153E-09-2.33604E-09
 -1       871-5.28644E+03-1.88330E+04-1.83676E+04 1.22766E+05-3.97995E-09 4.24916E-09
 -1       872-1.97938E+03-2.30751E+04-7.66359E+03 1.59181E+05-7.60610E-09 1.38348E-08
 -1       873 2.98378E+02-2.10363E+04 6.24974E+02 1.22497E+05-3.79941E-09 4.28611E-09
 -1       874 3.04445E+03-1.87041E+04 9.37787E+03 1.59212E+05-8.84665E-09 3.55681E-08
 -1       875 6.45996E+03-2.32705E+04 2.11023E+04 1.22722E+05-3.58341E-09 2.36669E-08
 -1       876 2.79795E+05 4.72985E+04 1.44398E+04 1.12451E+05-2.35809E-09-5.20413E-09
 -1       877 2.80736E+05 5.03538E+04 7.71140E+03 1.16606E+05 8.04857E-09-2.82889E-08
 -1       878 2.81145E+05 4.56994E+04 3.23071E+03 1.13634E+05-9.04402E-09-6.51562E-09
 -1       879 2.78773E+05 4.83952E+04 1.60970E+03 1.16704E+05-8.32188E-10-1.84549E-08
 -1       880 2.81242E+05 4.56826E+04 7.49751E+02 1.13683E+05-6.96173E-09-2.09722E-08
 -1       881 2.78642E+05 4.83115E+04 4.00295E+02 1.16682E+05-7.85906E-09 8.09635E-10
 -1       882 2.81251E+05 4.56952E+04 2.55953E+02 1.13684E+05 1.14142E-10-7.68960E-09
 -1       883 2.78633E+05 4.83072E+04 2.74938E+02 1.16675E+05 1.33173E-09 6.63073E-09
 -1       884 2.81245E+05 4.56924E+04 4.37165E+02 1.13684E+05-1.18905E-09-6.52528E-09
 -1       885 2.78668E+05 4.83133E+04 8.78823E+02 1.16685E+05-5.56290E-09 2.27659E-08
 -1       886 2.81211E+05 4.56668E+04 1.77118E+03 1.13681E+05-3.83012E-09 1.05881E-08
 -1       887 2.78979E+05 4.85174E+04 3.86888E+03 1.16730E+05 3.46051E-09 4.18015E-09
 -1       888 2.80966E+05 4.57099E+04 7.79591E+03 1.13557E+05-6.78003E-09 4.26553E-10
 -1       889 2.83621E+05 5.33435E+04 1.86231E+04 1.16587E+05 8.72648E-09 1.69712E-09
 -1       890 2.77786E+05 4.94881E+04 3.48805E+04 1.10588E+05 4.89217E-09-6.37920E-09
 -1       891-1.00738E+02-1.55515E+05-1.90008E+03 2.64117E+04-1.21008E-09-6.65750E-09
 -1       892-1.90862E+02-1.56009E+05-2.04306E+03 4.00791E+04 1.08594E-09-8.07950E-09
 -1       893 2.59351E+01-1.55577E+05-2.89514E+03 2.64185E+04-2.04363E-09 1.08244E-08
 -1       894-1.46437E+03-1.57105E+05-5.99363E+03 3.99318E+04 1.05865E-09 3.08319E-09
 -1       895-1.15958E+03-1.54328E+05-1.05553E+04 2.65599E+04-7.01789E-10-2.19006E-09
 -1       956-3.58403E+05-5.14022E+03-1.27438E+04 2.83523E+04 5.81349E-09 1.51499E-09
 -1       957-3.60907E+05-1.79581E+03-6.54139E+03 3.40878E+04 3.48882E-09-9.97898E-09
 -1       958-3.59546E+05-2.07525E+02-2.94761E+03 2.81950E+04-3.94903E-09-8.92783E-09
 -1       959-3.59735E+05-1.05254E+02-1.50522E+03 3.42687E+04 1.11686E-09-1.45535E-08
 -1       960-3.59655E+05-2.32137E+01-7.33992E+02 2.81790E+04 4.80395E-09-7.33598E-09
 -1       961-3.59657E+05-3.72543E+01-3.89278E+02 3.42875E+04 5.70844E-09 5.71845E-10
 -1       962-3.59680E+05-2.52144E+01-2.22974E+02 2.81764E+04 8.91305E-10 2.02044E-09
 -1       963-3.59656E+05-3.38148E+01-1.79207E+02 3.42908E+04 4.86102E-09 2.69649E-08
 -1       964-3.59685E+05-2.22166E+01-2.18112E+02 2.81757E+04 5.83336E-09-1.24705E-08
 -1       965-3.59668E+05-3.08657E+01-3.77396E+02 3.42902E+04 1.35168E-09-1.84659E-08
 -1       966-3.59670E+05-1.43020E+01-7.09107E+02 2.81770E+04 2.74417E-09-5.88489E-09
 -1       967-3.59754E+05-9.04481E+01-1.45443E+03 3.42772E+04 4.93333E-09 2.88514E-09
 -1       968-3.59573E+05-1.86622E+02-2.84711E+03 2.81886E+04 4.84488E-09-6.96980E-09
 -1       969-3.60898E+05-1.71888E+03-6.32070E+03 3.41417E+04 3.54157E-09-7.87122E-09
 -1       970-3.58477E+05-4.94929E+03-1.23128E+04 2.83065E+04 2.01817E-09-1.18143E-09
 -1       971-3.29594E+05-1.65909E+03-8.99365E+03 1.48309E+04 2.94222E-09-8.20407E-09
 -1       972-3.31763E+05-1.21545E+03-4.89787E+03 2.05525E+04 1.57070E-09-3.39242E-10
 -1       973-3.30595E+05-5.05037E+01-2.19370E+03 1.47127E+04 2.66391E-09 1.40917E-08
 -1       974-3.30730E+05-6.53580E+01-1.13704E+03 2.06851E+04 4.07636E-09 3.44852E-08
 -1       975-3.30674E+05-7.37744E+00-5.68542E+02 1.47009E+04 1.19599E-10 1.21435E-08
 -1       976-3.30670E+05-1.73934E+01-3.28344E+02 2.07001E+04 3.42720E-09 4.47119E-09
 -1       977-3.30690E+05-6.82460E+00-2.38901E+02 1.46977E+04-5.10136E-09 1.86060E-09
 -1       978-3.30675E+05-1.15119E+01-2.80379E+02 2.07046E+04-5.46572E-09-1.43016E-08
 -1       979-3.30690E+05 1.19882E+00-4.51176E+02 1.46964E+04-2.37384E-09-8.68340E-09
 -1       980-3.30709E+05-8.61139E+00-8.71599E+02 2.07055E+04-4.91627E-09 1.10640E-08
 -1       981-3.30662E+05 2.29776E+01-1.68831E+03 1.46969E+04 4.58454E-09 1.28195E-08
 -1       982-3.30940E+05-1.33327E+02-3.48982E+03 2.06991E+04 4.34568E-09 1.23009E-08
 -1       983-3.30449E+05-8.50822E+01-6.78080E+03 1.47027E+04 3.46427E-09-1.12750E-08
 -1       984-3.34202E+05-3.67465E+03-1.51853E+04 2.06162E+04 4.92219E-09 8.55812E-09
 -1       985-3.27379E+05-5.04682E+03-2.78849E+04 1.47746E+04 3.60751E-09-5.51699E-09
 -3
    1PSTEP                        25          13           1          
  100CL  113 6.37390E-01         409                     0   13           1
 -4  DISP        4    1
 -5  D1          1    2    1    0
 -5  D2          1    2    2    0
 -5  D3          1    2    3    0
 -5  ALL         1    2    0    0    1ALL
 -1         1 2.08756E-03 0.00000E+00 0.00000E+00
 -1         2 6.95181E-04 3.82264E-26-2.64698E-23
 -1         3 3.09980E-04 1.79872E-28-1.32349E-23
 -1         5 1.64706E-04-2.67143E-27 1.65436E-24
 -1         8 2.07769E-03-4.86188E-07 0.00000E+00
 -1         9 2.08530E-03-2.00993E-04 0.00000E+00
 -1        10 2.81461E-04-3.27590E-06-6.61744E-24
 -1        12 1.66132E-04 7.62431E-07 5.16988E-25
 -1        15 2.06657E-03-5.07815E-07 0.00000E+00
 -1        16 2.13830E-03-2.02404E-04 0.00000E+00
 -1        17 1.92728E-04-7.35887E-06 0.00000E+00
 -1        18 1.68897E-04 2.84856E-05 0.00000E+00
 -1        19 1.70410E-04 1.51960E-06 0.00000E+00
 -1        20 1.70552E-04-5.33878E-06 0.00000E+00
 -1        21 1.69724E-04-1.57221E-05 0.00000E+00
 -1        24 2.89501E-05-1.10780E-05 0.00000E+00
 -1        25 1.77567E-04 2.86936E-05 0.00000E+00
 -1        26 1.78248E-04 2.10501E-06 0.00000E+00
 -1        27 1.76174E-04-8.71586E-06 0.00000E+00
 -1        28 1.75837E-04-1.63182E-05 0.00000E+00
 -1        32 0.00000E+00 0.00000E+00 0.00000E+00
 -1        33 1.85072E-04 2.81745E-06 0.00000E+00
 -1        34 1.83060E-04-8.76430E-06 0.00000E+00
 -1        35 1.81216E-04-1.66441E-05 0.00000E+00
 -1        51 2.08689E-03-9.81345E-08 4.96308E-24
 -1        52 2.08567E-03-1.78397E-07 1.65436E-24
 -1        53 2.08402E-03-2.55216E-07 0.00000E+00
 -1        54 2.08206E-03-3.30732E-07 8.27181E-25
 -1        55 2.07991E-03-4.06644E-07-1.65436E-24
 -1        56 2.08174E-03 3.98757E-06 0.00000E+00
 -1        57 2.07206E-03 1.75413E-05 0.00000E+00
 -1        58 2.06006E-03 3.70174E-05 1.05879E-22
 -1        59 2.04737E-03 5.81730E-05 0.00000E+00
 -1        60 2.03579E-03 7.64961E-05-1.05879E-22
 -1        61 2.02701E-03 8.77095E-05 5.29396E-23
 -1        62 2.02210E-03 8.87997E-05-1.05879E-22
 -1        63 2.02172E-03 7.76497E-05 5.29396E-23
 -1        64 2.02570E-03 5.43528E-05 0.00000E+00
 -1        65 2.03346E-03 2.01151E-05-5.29396E-23
 -1        66 2.04382E-03-2.18434E-05 1.05879E-22
 -1        67 2.05543E-03-6.75794E-05-5.29396E-23
 -1        68 2.06675E-03-1.12446E-04 0.00000E+00
 -1        69 2.07630E-03-1.51873E-04 0.00000E+00
 -1        70 2.08278E-03-1.82307E-04 0.00000E+00
 -1        86 7.82831E-04-5.92307E-06 5.29396E-23
 -1        87 1.03733E-03-3.98094E-05 0.00000E+00
 -1        88 1.37858E-03-9.81882E-05 0.00000E+00
 -1        89 1.72358E-03-1.57900E-04-1.32349E-23
 -1        90 1.98699E-03-1.93998E-04 0.00000E+00
 -1       121 3.09179E-04-5.31815E-07 1.32349E-23
 -1       122 3.06781E-04-1.06609E-06 0.00000E+00
 -1       123 3.02792E-04-1.60525E-06 0.00000E+00
 -1       124 2.97229E-04-2.15173E-06-6.61744E-24
 -1       125 2.90109E-04-2.70763E-06 0.00000E+00
 -1       191 1.64746E-04 1.27112E-07 4.13590E-25
 -1       192 1.64865E-04 2.54215E-07-2.06795E-25
 -1       193 1.65063E-04 3.81308E-07 1.86116E-24
 -1       194 1.65340E-04 5.08380E-07-1.44757E-24
 -1       195 1.65696E-04 6.35424E-07-2.06795E-24
 -1       251 2.07822E-03-1.25043E-06-6.61744E-24
 -1       252 2.07876E-03-7.05260E-06-6.61744E-24
 -1       253 2.07928E-03-1.64385E-05 1.32349E-23
 -1       254 2.07978E-03-2.80398E-05 0.00000E+00
 -1       255 2.08026E-03-4.12092E-05-1.32349E-23
 -1       256 2.08074E-03-5.53366E-05-6.61744E-24
 -1       257 2.08120E-03-7.01249E-05-1.32349E-23
 -1       258 2.08166E-03-8.52926E-05-6.61744E-24
 -1       259 2.08211E-03-1.00683E-04-1.32349E-23
 -1       260 2.08256E-03-1.16143E-04-6.61744E-24
 -1       261 2.08302E-03-1.31544E-04 0.00000E+00
 -1       262 2.08347E-03-1.46756E-04 0.00000E+00
 -1       263 2.08393E-03-1.61586E-04 0.00000E+00
 -1       264 2.08439E-03-1.75833E-04 3.30872E-24
 -1       265 2.08486E-03-1.89107E-04 0.00000E+00
 -1       266 2.07583E-03-4.95653E-07 0.00000E+00
 -1       267 2.07398E-03-4.98543E-07 0.00000E+00
 -1       268 2.07213E-03-5.01850E-07-8.27181E-25
 -1       269 2.07027E-03-5.03923E-07 0.00000E+00
 -1       270 2.06842E-03-5.05967E-07-2.06795E-25
 -1       271 2.07686E-03-4.65003E-07 0.00000E+00
 -1       272 2.07712E-03-3.42391E-06 1.32349E-23
 -1       273 2.07841E-03-9.14617E-06 2.64698E-23
 -1       274 2.08062E-03-1.73978E-05 0.00000E+00
 -1       275 2.08366E-03-2.79167E-05 0.00000E+00
 -1       276 2.08742E-03-4.04205E-05 1.32349E-23
 -1       277 2.09178E-03-5.46063E-05 2.64698E-23
 -1       278 2.09664E-03-7.01548E-05 0.00000E+00
 -1       279 2.10186E-03-8.67337E-05-2.64698E-23
 -1       280 2.10733E-03-1.04000E-04 1.32349E-23
 -1       281 2.11292E-03-1.21603E-04 0.00000E+00
 -1       282 2.11850E-03-1.39192E-04 0.00000E+00
 -1       283 2.12396E-03-1.56412E-04 0.00000E+00
 -1       284 2.12915E-03-1.72914E-04 1.32349E-23
 -1       285 2.13397E-03-1.88356E-04-1.32349E-23
 -1       301 2.09468E-03-2.01253E-04-6.61744E-24
 -1       302 2.10282E-03-2.01477E-04 3.30872E-24
 -1       303 2.11047E-03-2.01694E-04 0.00000E+00
 -1       304 2.11842E-03-2.01912E-04 0.00000E+00
 -1       305 2.12744E-03-2.02142E-04 0.00000E+00
 -1       306 2.11927E-03-3.33085E-04-1.05879E-22
 -1       307 2.18390E-03-6.91076E-04 0.00000E+00
 -1       308 2.24357E-03-1.21557E-03 0.00000E+00
 -1       309 2.28991E-03-1.82446E-03 0.00000E+00
 -1       310 2.34015E-03-2.40948E-03-1.05879E-22
 -1       311 2.40538E-03-2.86463E-03 0.00000E+00
 -1       312 2.46162E-03-3.12067E-03 0.00000E+00
 -1       313 2.46184E-03-3.14037E-03 0.00000E+00
 -1       314 2.35059E-03-2.93242E-03 0.00000E+00
 -1       315 2.09526E-03-2.54447E-03-5.29396E-23
 -1       316 1.71183E-03-2.04211E-03-1.05879E-22
 -1       317 1.25257E-03-1.48825E-03-5.29396E-23
 -1       318 8.08259E-04-9.44296E-04 0.00000E+00
 -1       319 4.65406E-04-4.73964E-04-5.29396E-23
 -1       320 2.60799E-04-1.41236E-04 0.00000E+00
 -1       336 2.71114E-04-3.90172E-06-1.32349E-23
 -1       337 2.58910E-04-4.54821E-06 6.61744E-24
 -1       338 2.44902E-04-5.21699E-06-1.32349E-23
 -1       339 2.29154E-04-5.90864E-06 0.00000E+00
 -1       340 2.11736E-04-6.62696E-06-1.32349E-23
 -1       406 1.66647E-04 8.89386E-07-1.86116E-24
 -1       407 1.67241E-04 1.01626E-06 8.27181E-25
 -1       408 1.67915E-04 1.14301E-06 3.30872E-24
 -1       409 1.68667E-04 1.26947E-06 1.03398E-24
 -1       410 1.69499E-04 1.39539E-06-1.65436E-24
 -1       521 2.17325E-03-3.43971E-04-1.05879E-22
 -1       522 2.23723E-03-7.22821E-04-5.29396E-23
 -1       523 2.29236E-03-1.27642E-03 0.00000E+00
 -1       524 2.33150E-03-1.91634E-03 5.29396E-23
 -1       525 2.37552E-03-2.53053E-03 0.00000E+00
 -1       526 2.43834E-03-3.00947E-03 0.00000E+00
 -1       527 2.49475E-03-3.27781E-03 0.00000E+00
 -1       528 2.49344E-03-3.29725E-03 0.00000E+00
 -1       529 2.37214E-03-3.07629E-03-1.05879E-22
 -1       530 2.09570E-03-2.66915E-03-5.29396E-23
 -1       531 1.68047E-03-2.14498E-03 1.05879E-22
 -1       532 1.18412E-03-1.56984E-03 0.00000E+00
 -1       533 7.03171E-04-1.00412E-03 0.00000E+00
 -1       534 3.29676E-04-5.10698E-04 0.00000E+00
 -1       535 1.05632E-04-1.57860E-04-1.05879E-22
 -1       536 1.92089E-04 2.40702E-05 0.00000E+00
 -1       537 1.90499E-04 7.86811E-05-3.30872E-24
 -1       538 1.88050E-04 1.48045E-04 0.00000E+00
 -1       539 1.85166E-04 2.23656E-04 0.00000E+00
 -1       540 1.82569E-04 2.95107E-04 0.00000E+00
 -1       541 1.80871E-04 3.52008E-04 1.65436E-24
 -1       542 1.80077E-04 3.88182E-04 0.00000E+00
 -1       543 1.79871E-04 3.97584E-04 0.00000E+00
 -1       544 1.79578E-04 3.80945E-04-3.30872E-24
 -1       545 1.78578E-04 3.39189E-04 1.65436E-24
 -1       546 1.76744E-04 2.79750E-04-3.30872E-24
 -1       547 1.74279E-04 2.10171E-04 0.00000E+00
 -1       548 1.71841E-04 1.41009E-04 3.30872E-24
 -1       549 1.70078E-04 8.28217E-05-1.65436E-24
 -1       550 1.69153E-04 4.29164E-05 0.00000E+00
 -1       551 1.70008E-04-7.86594E-06 0.00000E+00
 -1       552 1.44244E-04-8.44000E-06 0.00000E+00
 -1       553 1.16337E-04-9.06641E-06-1.65436E-24
 -1       554 8.72080E-05-9.72718E-06 3.30872E-24
 -1       555 5.77743E-05-1.03985E-05 1.32349E-23
 -1       556 1.85912E-04 1.01113E-05 5.29396E-23
 -1       557 1.80426E-04 2.42236E-05 0.00000E+00
 -1       558 1.76146E-04 3.52437E-05-5.29396E-23
 -1       559 1.72950E-04 4.34580E-05 0.00000E+00
 -1       560 1.70720E-04 4.91532E-05 0.00000E+00
 -1       561 1.69340E-04 5.26181E-05 0.00000E+00
 -1       562 1.68694E-04 5.41428E-05 0.00000E+00
 -1       563 1.68669E-04 5.40180E-05 0.00000E+00
 -1       564 1.69154E-04 5.25352E-05 0.00000E+00
 -1       565 1.70036E-04 4.99863E-05 0.00000E+00
 -1       566 1.71207E-04 4.66639E-05 6.61744E-24
 -1       567 1.72557E-04 4.28608E-05-3.30872E-24
 -1       568 1.73976E-04 3.88697E-05 8.27181E-25
 -1       569 1.75357E-04 3.49837E-05 0.00000E+00
 -1       570 1.76589E-04 3.14955E-05 0.00000E+00
 -1       571 1.68989E-04 2.67373E-05 8.27181E-25
 -1       572 1.69082E-04 2.49282E-05-8.27181E-25
 -1       573 1.69177E-04 2.30726E-05 0.00000E+00
 -1       574 1.69271E-04 2.11855E-05-1.65436E-24
 -1       575 1.69365E-04 1.92817E-05-3.30872E-24
 -1       576 1.69460E-04 1.73761E-05 0.00000E+00
 -1       577 1.69555E-04 1.54838E-05 3.30872E-24
 -1       578 1.69649E-04 1.36197E-05 0.00000E+00
 -1       579 1.69744E-04 1.17989E-05 0.00000E+00
 -1       580 1.69839E-04 1.00363E-05 0.00000E+00
 -1       581 1.69934E-04 8.34697E-06 6.61744E-24
 -1       582 1.70029E-04 6.74585E-06 0.00000E+00
 -1       583 1.70124E-04 5.24793E-06 0.00000E+00
 -1       584 1.70219E-04 3.86801E-06-3.30872E-24
 -1       585 1.70314E-04 2.62075E-06 0.00000E+00
 -1       586 1.70297E-04 2.85223E-05-1.65436E-24
 -1       587 1.71660E-04 2.85584E-05 4.13590E-25
 -1       588 1.73028E-04 2.85942E-05 8.27181E-25
 -1       589 1.74441E-04 2.86293E-05 0.00000E+00
 -1       590 1.75941E-04 2.86632E-05 0.00000E+00
 -1       591 1.69491E-04 2.68209E-05 0.00000E+00
 -1       592 1.70090E-04 2.51351E-05 2.06795E-25
 -1       593 1.70693E-04 2.34341E-05 8.27181E-25
 -1       594 1.71300E-04 2.17227E-05 0.00000E+00
 -1       595 1.71910E-04 2.00056E-05-8.27181E-25
 -1       596 1.72519E-04 1.82877E-05 0.00000E+00
 -1       597 1.73127E-04 1.65736E-05-8.27181E-25
 -1       598 1.73732E-04 1.48682E-05-4.13590E-25
 -1       599 1.74331E-04 1.31761E-05 0.00000E+00
 -1       600 1.74924E-04 1.15021E-05 0.00000E+00
 -1       601 1.75509E-04 9.85095E-06 0.00000E+00
 -1       602 1.76083E-04 8.22735E-06-2.06795E-25
 -1       603 1.76645E-04 6.63608E-06-4.13590E-25
 -1       604 1.77194E-04 5.08196E-06 3.87741E-26
 -1       605 1.77728E-04 3.56967E-06 0.00000E+00
 -1       606 1.70423E-04 6.36833E-07 0.00000E+00
 -1       607 1.70433E-04-1.58678E-07 0.00000E+00
 -1       608 1.70442E-04-8.72051E-07 3.30872E-24
 -1       609 1.70450E-04-1.50906E-06 0.00000E+00
 -1       610 1.70459E-04-2.07554E-06-3.30872E-24
 -1       611 1.70467E-04-2.57737E-06 0.00000E+00
 -1       612 1.70476E-04-3.02044E-06 0.00000E+00
 -1       613 1.70485E-04-3.41068E-06 0.00000E+00
 -1       614 1.70493E-04-3.75398E-06 0.00000E+00
 -1       615 1.70502E-04-4.05624E-06 0.00000E+00
 -1       616 1.70510E-04-4.32337E-06 1.65436E-24
 -1       617 1.70519E-04-4.56128E-06 0.00000E+00
 -1       618 1.70527E-04-4.77587E-06-8.27181E-25
 -1       619 1.70536E-04-4.97305E-06 0.00000E+00
 -1       620 1.70544E-04-5.15872E-06 0.00000E+00
 -1       621 1.71470E-04 1.61762E-06 3.30872E-24
 -1       622 1.72666E-04 1.71589E-06 1.65436E-24
 -1       623 1.73971E-04 1.81401E-06-3.30872E-24
 -1       624 1.75355E-04 1.91186E-06-8.27181E-25
 -1       625 1.76790E-04 2.00946E-06-1.65436E-24
 -1       626 1.70847E-04 6.70995E-07 3.30872E-24
 -1       627 1.71261E-04-1.12033E-07 0.00000E+00
 -1       628 1.71654E-04-8.37264E-07 3.30872E-24
 -1       629 1.72028E-04-1.51282E-06 0.00000E+00
 -1       630 1.72386E-04-2.14684E-06 0.00000E+00
 -1       631 1.72732E-04-2.74750E-06 0.00000E+00
 -1       632 1.73069E-04-3.32294E-06 0.00000E+00
 -1       633 1.73399E-04-3.88136E-06 0.00000E+00
 -1       634 1.73726E-04-4.43092E-06 0.00000E+00
 -1       635 1.74053E-04-4.97976E-06 1.65436E-24
 -1       636 1.74382E-04-5.53608E-06 0.00000E+00
 -1       637 1.74718E-04-6.10803E-06 1.65436E-24
 -1       638 1.75062E-04-6.70379E-06-3.30872E-24
 -1       639 1.75418E-04-7.33154E-06 8.27181E-25
 -1       640 1.75788E-04-7.99947E-06 1.65436E-24
 -1       656 1.70961E-04-5.88777E-06 0.00000E+00
 -1       657 1.71779E-04-6.45902E-06-6.61744E-24
 -1       658 1.72868E-04-7.02886E-06-1.32349E-23
 -1       659 1.74083E-04-7.59836E-06-6.61744E-24
 -1       660 1.75244E-04-8.16957E-06 0.00000E+00
 -1       661 1.70706E-04-5.56086E-06 0.00000E+00
 -1       662 1.70895E-04-5.86868E-06-8.27181E-25
 -1       663 1.71114E-04-6.25757E-06 1.65436E-24
 -1       664 1.71362E-04-6.72163E-06-8.27181E-25
 -1       665 1.71636E-04-7.25558E-06 1.65436E-24
 -1       666 1.71934E-04-7.85406E-06 0.00000E+00
 -1       667 1.72255E-04-8.51197E-06 1.65436E-24
 -1       668 1.72596E-04-9.22427E-06-8.27181E-25
 -1       669 1.72955E-04-9.98609E-06 1.65436E-24
 -1       670 1.73332E-04-1.07926E-05 0.00000E+00
 -1       671 1.73723E-04-1.16393E-05 0.00000E+00
 -1       672 1.74127E-04-1.25214E-05-8.27181E-25
 -1       673 1.74543E-04-1.34345E-05 0.00000E+00
 -1       674 1.74968E-04-1.43745E-05-8.27181E-25
 -1       675 1.75401E-04-1.53365E-05 0.00000E+00
 -1       676 1.70746E-04-1.58221E-05 0.00000E+00
 -1       677 1.71768E-04-1.59219E-05 1.65436E-24
 -1       678 1.72788E-04-1.60218E-05 0.00000E+00
 -1       679 1.73807E-04-1.61213E-05-1.65436E-24
 -1       680 1.74823E-04-1.62208E-05 1.65436E-24
 -1       771 1.81547E-05 1.29420E-05 0.00000E+00
 -1       772 9.05524E-06 3.26624E-05 0.00000E+00
 -1       773 1.57089E-06 4.82939E-05 0.00000E+00
 -1       774-4.40889E-06 6.00717E-05 0.00000E+00
 -1       775-8.99246E-06 6.82397E-05 0.00000E+00
 -1       776-1.22925E-05 7.30563E-05 2.64698E-23
 -1       777-1.44217E-05 7.47884E-05 5.29396E-23
 -1       778-1.54952E-05 7.37148E-05 0.00000E+00
 -1       779-1.56274E-05 7.01215E-05-5.29396E-23
 -1       780-1.49351E-05 6.43045E-05-2.64698E-23
 -1       781-1.35340E-05 5.65652E-05 5.29396E-23
 -1       782-1.15415E-05 4.72129E-05 0.00000E+00
 -1       783-9.07420E-06 3.65606E-05-5.29396E-23
 -1       784-6.24991E-06 2.49267E-05 2.64698E-23
 -1       785-3.18565E-06 1.26321E-05 5.29396E-23
 -1       786 1.77606E-04 2.68083E-05 0.00000E+00
 -1       787 1.77648E-04 2.49723E-05-4.13590E-25
 -1       788 1.77689E-04 2.31774E-05-8.27181E-25
 -1       789 1.77732E-04 2.14156E-05 0.00000E+00
 -1       790 1.77775E-04 1.96822E-05 0.00000E+00
 -1       791 1.77817E-04 1.79726E-05 0.00000E+00
 -1       792 1.77860E-04 1.62846E-05 1.65436E-24
 -1       793 1.77903E-04 1.46159E-05 0.00000E+00
 -1       794 1.77946E-04 1.29664E-05 0.00000E+00
 -1       795 1.77989E-04 1.13358E-05 8.27181E-25
 -1       796 1.78032E-04 9.72581E-06 1.65436E-24
 -1       797 1.78075E-04 8.13825E-06 0.00000E+00
 -1       798 1.78118E-04 6.57709E-06 0.00000E+00
 -1       799 1.78161E-04 5.04641E-06 8.27181E-25
 -1       800 1.78204E-04 3.55331E-06 1.65436E-24
 -1       801 1.37010E-04 2.56937E-05 0.00000E+00
 -1       802 1.41621E-05 1.62187E-05 0.00000E+00
 -1       803-9.15630E-05 8.32771E-06 0.00000E+00
 -1       804-8.25515E-05 5.75126E-06-2.64698E-23
 -1       805-2.74521E-05 2.34742E-06 0.00000E+00
 -1       806 1.78165E-04 2.67438E-05 3.30872E-24
 -1       807 1.78749E-04 2.48208E-05 0.00000E+00
 -1       808 1.79320E-04 2.29291E-05-3.30872E-24
 -1       809 1.79878E-04 2.10725E-05 1.65436E-24
 -1       810 1.80422E-04 1.92546E-05 0.00000E+00
 -1       811 1.80949E-04 1.74790E-05 0.00000E+00
 -1       812 1.81460E-04 1.57491E-05 0.00000E+00
 -1       813 1.81952E-04 1.40685E-05 8.27181E-25
 -1       814 1.82424E-04 1.24407E-05 1.65436E-24
 -1       815 1.82875E-04 1.08692E-05 1.65436E-24
 -1       816 1.83304E-04 9.35747E-06 1.65436E-24
 -1       817 1.83710E-04 7.90902E-06-1.65436E-24
 -1       818 1.84090E-04 6.52735E-06-1.65436E-24
 -1       819 1.84445E-04 5.21591E-06-1.65436E-24
 -1       820 1.84772E-04 3.97815E-06-3.30872E-24
 -1       821 1.78125E-04 3.86249E-07-1.65436E-24
 -1       822 1.77994E-04-1.91474E-06 0.00000E+00
 -1       823 1.77862E-04-4.54591E-06-3.30872E-24
 -1       824 1.77729E-04-7.25319E-06 0.00000E+00
 -1       825 1.77597E-04-9.76295E-06 0.00000E+00
 -1       826 1.77465E-04-1.18026E-05 1.65436E-24
 -1       827 1.77334E-04-1.32227E-05 0.00000E+00
 -1       828 1.77204E-04-1.38775E-05-1.65436E-24
 -1       829 1.77074E-04-1.38216E-05 0.00000E+00
 -1       830 1.76944E-04-1.31138E-05-1.65436E-24
 -1       831 1.76813E-04-1.19836E-05 3.30872E-24
 -1       832 1.76683E-04-1.06630E-05-1.65436E-24
 -1       833 1.76552E-04-9.43383E-06 3.30872E-24
 -1       834 1.76424E-04-8.57746E-06-1.65436E-24
 -1       835 1.76295E-04-8.27790E-06 8.27181E-25
 -1       836 1.79586E-04 2.22325E-06 0.00000E+00
 -1       837 1.80802E-04 2.34439E-06 0.00000E+00
 -1       838 1.81928E-04 2.46545E-06 0.00000E+00
 -1       839 1.82994E-04 2.58582E-06-8.27181E-25
 -1       840 1.84032E-04 2.70603E-06-8.27181E-25
 -1       856 1.76157E-04-9.45378E-06-8.27181E-25
 -1       857 1.76136E-04-1.00612E-05 0.00000E+00
 -1       858 1.76115E-04-1.05584E-05 4.13590E-25
 -1       859 1.76094E-04-1.09659E-05 0.00000E+00
 -1       860 1.76073E-04-1.13039E-05 0.00000E+00
 -1       861 1.76052E-04-1.15932E-05-4.13590E-25
 -1       862 1.76031E-04-1.18541E-05 0.00000E+00
 -1       863 1.76010E-04-1.21073E-05 0.00000E+00
 -1       864 1.75988E-04-1.23734E-05 0.00000E+00
 -1       865 1.75967E-04-1.26729E-05 4.13590E-25
 -1       866 1.75946E-04-1.30263E-05 8.27181E-25
 -1       867 1.75925E-04-1.34542E-05-4.13590E-25
 -1       868 1.75903E-04-1.39771E-05 8.27181E-25
 -1       869 1.75882E-04-1.46152E-05 4.13590E-25
 -1       870 1.75860E-04-1.53888E-05-8.27181E-25
 -1       871 1.77186E-04-8.71976E-06 0.00000E+00
 -1       872 1.78337E-04-8.72684E-06 0.00000E+00
 -1       873 1.79564E-04-8.73456E-06 0.00000E+00
 -1       874 1.80804E-04-8.74299E-06 0.00000E+00
 -1       875 1.81990E-04-8.75197E-06 1.24077E-24
 -1       876 1.76573E-04-9.44004E-06-3.30872E-24
 -1       877 1.76950E-04-1.01001E-05 1.65436E-24
 -1       878 1.77306E-04-1.07038E-05-3.30872E-24
 -1       879 1.77644E-04-1.12581E-05 0.00000E+00
 -1       880 1.77966E-04-1.17703E-05 0.00000E+00
 -1       881 1.78275E-04-1.22473E-05-1.65436E-24
 -1       882 1.78574E-04-1.26963E-05 0.00000E+00
 -1       883 1.78865E-04-1.31244E-05 0.00000E+00
 -1       884 1.79151E-04-1.35385E-05 3.30872E-24
 -1       885 1.79434E-04-1.39458E-05 1.65436E-24
 -1       886 1.79717E-04-1.43533E-05 0.00000E+00
 -1       887 1.80003E-04-1.47681E-05 0.00000E+00
 -1       888 1.80294E-04-1.51972E-05 3.30872E-24
 -1       889 1.80592E-04-1.56479E-05-1.65436E-24
 -1       890 1.80901E-04-1.61272E-05 1.65436E-24
 -1       891 1.76871E-04-1.63729E-05 0.00000E+00
 -1       892 1.77883E-04-1.64277E-05 8.27181E-25
 -1       893 1.78847E-04-1.64825E-05-1.65436E-24
 -1       894 1.79741E-04-1.65371E-05 4.13590E-25
 -1       895 1.80538E-04-1.65914E-05-4.13590E-25
 -1       956 1.84948E-04 1.81973E-06-1.65436E-24
 -1       957 1.84823E-04 9.07194E-07-8.27181E-25
 -1       958 1.84697E-04 6.99083E-08 0.00000E+00
 -1       959 1.84571E-04-7.02609E-07 0.00000E+00
 -1       960 1.84444E-04-1.42088E-06 0.00000E+00
 -1       961 1.84318E-04-2.09546E-06 1.65436E-24
 -1       962 1.84192E-04-2.73692E-06 0.00000E+00
 -1       963 1.84066E-04-3.35583E-06 0.00000E+00
 -1       964 1.83940E-04-3.96279E-06 0.00000E+00
 -1       965 1.83814E-04-4.56836E-06 0.00000E+00
 -1       966 1.83688E-04-5.18313E-06-3.30872E-24
 -1       967 1.83561E-04-5.81768E-06-1.65436E-24
 -1       968 1.83435E-04-6.48258E-06 0.00000E+00
 -1       969 1.83309E-04-7.18838E-06 0.00000E+00
 -1       970 1.83184E-04-7.94558E-06 0.00000E+00
 -1       971 1.82946E-04-9.57927E-06-1.65436E-24
 -1       972 1.82830E-04-1.03023E-05 1.65436E-24
 -1       973 1.82714E-04-1.09435E-05 0.00000E+00
 -1       974 1.82599E-04-1.15135E-05 0.00000E+00
 -1       975 1.82483E-04-1.20227E-05 0.00000E+00
 -1       976 1.82367E-04-1.24817E-05 1.65436E-24
 -1       977 1.82251E-04-1.29012E-05 3.30872E-24
 -1       978 1.82135E-04-1.32917E-05 1.65436E-24
 -1       979 1.82019E-04-1.36638E-05 0.00000E+00
 -1       980 1.81903E-04-1.40282E-05 0.00000E+00
 -1       981 1.81788E-04-1.43954E-05 3.30872E-24
 -1       982 1.81672E-04-1.47759E-05-1.65436E-24
 -1       983 1.81556E-04-1.51805E-05 0.00000E+00
 -1       984 1.81441E-04-1.56198E-05 1.65436E-24
 -1       985 1.81327E-04-1.61041E-05-3.30872E-24
 -3
    1PSTEP                        26          13           1          
  100CL  113 6.37390E-01         409                     0   13           1
 -4  STRESS      6    1
 -5  SXX         1    4    1    1
 -5  SYY         1    4    2    2
 -5  SZZ         1    4    3    3
 -5  SXY         1    4    1    2
 -5  SYZ         1    4    2    3
 -5  SZX         1    4    3    1
 -1         1-5.23796E+06-1.68053E+06-1.11571E+06-1.43806E+06-1.01863E-09 6.57164E-08
 -1         2 1.52093E+06 2.43393E+07 5.45720E+06 6.25679E+06 1.66416E-07-6.93981E-08
 -1         3-1.18035E+03-1.51178E+06 3.82374E+02-1.91264E+03-5.85825E-10 5.76583E-08
 -1         5-4.52285E+01 3.63888E+05 9.38209E+00-9.23608E-01-4.01083E-10-1.30058E-08
 -1         8 6.16562E+03-8.59553E+04 7.63739E+04-3.08783E+05 2.25555E-10-6.51016E-08
 -1         9 9.10288E+06 4.51766E+06 2.57623E+06-1.49723E+04 2.46917E-08 8.56817E-08
 -1        10-2.03813E+03-1.57529E+06-3.56259E+03-1.29390E+04-1.15469E-08-3.94828E-08
 -1        12-4.14725E+01 3.63908E+05 3.06686E+02-6.44300E+00-7.07686E-10-1.88465E-08
 -1        15 9.71141E+02 5.33689E+02 3.13919E+03 7.78355E-01-2.61764E-10-3.23639E-07
 -1        16 1.68967E+07-3.48400E+05 2.34257E+06-1.70052E+06 9.50725E-09 1.59877E-08
 -1        17 6.24760E+06 4.34871E+06 1.66830E+06 4.25104E+06 1.82772E-08 2.66009E-08
 -1        18 1.07414E+05 2.41302E+04-2.64219E+03-1.10576E+05 1.45499E-08 2.13627E-08
 -1        19 1.15793E+05 1.33691E+05-9.08718E+02 2.11775E+04 1.25001E-09 3.63179E-09
 -1        20-7.44180E+04-5.43778E+05-1.21791E+05 2.56747E+04-1.26147E-09-1.14184E-08
 -1        21-4.45123E+01-2.84594E+05-8.92098E+02 1.99536E+02 1.13936E-08-2.22050E-08
 -1        24 1.03840E+07 8.60478E+06 2.91055E+06 7.98867E+06-1.44617E-07-4.88168E-08
 -1        25 6.62360E+04 5.34643E+04 4.50606E+04-5.22122E+05-1.13523E-09 1.61941E-08
 -1        26-5.20434E+04 8.67465E+04-2.33896E+04 2.19437E+02 3.89264E-10 4.67535E-09
 -1        27-7.37575E+04-2.94336E+05-1.08055E+05 6.55668E+04 4.56293E-09 6.94945E-09
 -1        28 2.14907E+04-8.16367E+04 1.62306E+04 2.04589E+04-2.95594E-09-1.24695E-09
 -1        32-1.61429E+06-2.96660E+06-1.73761E+05 2.42866E+05-3.84825E-08-8.87610E-09
 -1        33-1.70080E+05 8.75551E+04 3.06528E+04-3.70988E+04-2.08464E-09 1.08236E-08
 -1        34-2.13198E+05-2.34534E+04 6.41201E+02 7.12740E+04-3.48044E-09-1.35783E-08
 -1        35-2.20989E+04-3.23835E+04-1.28773E+03 4.95274E+04-3.04033E-09 1.13784E-08
 -1        51 5.88905E+04-2.12886E+05 1.24327E+05-4.07111E+05-1.30967E-10 9.08985E-08
 -1        52 1.98295E+04-1.91012E+05 6.50698E+04-4.74876E+05 3.08319E-10-7.79110E-08
 -1        53 3.90911E+03-2.05667E+05 3.36179E+04-4.05739E+05 3.83807E-10-3.07919E-08
 -1        54 6.66854E+03-2.01574E+05 2.70841E+04-4.76204E+05 1.30967E-10-8.69841E-08
 -1        55 1.46246E+04-2.08043E+05 3.23140E+04-4.05681E+05 2.36469E-10-1.51194E-08
 -1        56-9.52141E+06-1.19617E+06-8.44338E+05-3.86038E+06-2.23808E-08-1.41619E-07
 -1        57-1.05541E+07-1.15674E+06-5.52293E+05-2.97458E+06-3.63798E-08 6.65750E-08
 -1        58-9.54479E+06-1.55579E+06-1.93362E+05-3.92593E+06 1.31804E-08 6.56073E-08
 -1        59-1.04508E+07-7.85049E+05-1.11845E+05-2.98142E+06-1.81019E-08-6.17583E-08
 -1        60-9.63542E+06-1.54947E+06-5.13489E+04-3.86671E+06 3.39132E-08-2.17926E-07
 -1        61-1.00941E+07-9.83007E+05-1.03009E+04-3.20150E+06 1.68293E-08-2.42740E-07
 -1        62-9.85103E+06-1.39104E+06-3.40767E+04-3.66872E+06 6.03904E-09-1.13974E-07
 -1        63-9.65850E+06-1.36995E+06 1.02242E+04-3.63658E+06-3.30328E-09 8.47649E-09
 -1        64-1.00468E+07-1.17957E+06-2.83383E+04-3.41662E+06-2.68265E-08-1.50867E-08
 -1        65-9.42149E+06-1.69595E+06-1.36064E+04-4.08968E+06-1.80444E-09-2.84615E-08
 -1        66-1.01349E+07-1.03249E+06-4.18612E+04-3.24915E+06 7.43967E-09 1.22571E-07
 -1        67-9.39573E+06-1.84009E+06-1.03392E+05-4.25331E+06-3.61360E-08-1.38944E-07
 -1        68-1.01049E+07-1.01419E+06-1.81898E+05-3.27363E+06-5.12839E-08 3.87081E-08
 -1        69-9.64503E+06-1.97810E+06-5.02221E+05-3.96157E+06-2.07501E-09-6.58911E-08
 -1        70-9.84589E+06-9.32829E+05-7.84662E+05-3.51043E+06-2.28465E-09-4.16185E-09
 -1        86-1.30421E+06-1.55123E+07-2.85174E+06-2.99744E+06-6.28097E-09-1.12486E-08
 -1        87 1.76014E+06 8.66252E+06 2.47634E+06 4.97290E+06-1.33878E-09-7.25850E-08
 -1        88-1.24074E+05-1.10437E+06 2.30553E+05-1.94718E+06 1.01597E-07-2.16888E-08
 -1        89 2.65583E+06 8.59137E+06 2.63630E+06 5.16284E+06-9.66102E-08 8.39955E-08
 -1        90-2.14774E+06-1.54782E+07-3.02789E+06-3.20436E+06 1.21061E-07 2.00387E-07
 -1       121-1.62464E+03-1.51571E+06-3.64892E+02 9.49475E+02 1.35149E-09-2.81943E-09
 -1       122-1.01387E+03-1.51181E+06 7.44036E+02-3.82626E+03-4.97727E-09-2.58296E-09
 -1       123-1.65722E+03-1.51583E+06 4.34700E+02 2.83603E+03 4.02974E-09 3.12502E-08
 -1       124 5.35220E+02-1.51128E+06 2.90575E+03-8.02337E+03-9.62564E-09 1.10686E-08
 -1       125-2.46868E+03-1.51668E+06 3.61746E+03 5.11447E+03 6.09907E-09-2.75941E-08
 -1       191-4.77756E+01 3.63910E+05 9.26865E+00 4.75327E-01-4.55925E-10 4.10182E-09
 -1       192-4.61160E+01 3.63888E+05 1.99587E+01-3.11542E+00-6.05985E-10-6.72935E-09
 -1       193-5.01214E+01 3.63910E+05 3.52252E+01 2.72364E+00-8.64373E-10-2.55259E-08
 -1       194-4.89657E+01 3.63891E+05 7.57218E+01-7.12604E+00-4.48807E-10-3.29092E-08
 -1       195-5.46259E+01 3.63908E+05 1.46215E+02 4.58190E+00-1.26712E-09-2.53058E-08
 -1       251 1.57760E+06-8.06011E+04 1.82397E+05 1.99985E+04 3.71119E-09-8.80391E-09
 -1       252 1.68339E+06 9.33393E+04 1.33617E+05-9.05272E+04 3.67208E-11-4.99858E-09
 -1       253 1.61828E+06-1.21226E+04 4.76150E+04-5.42099E+03-5.15524E-09-8.04212E-08
 -1       254 1.63505E+06 1.48186E+04 3.05826E+04-5.41430E+04 1.59781E-09-1.45600E-07
 -1       255 1.62488E+06-1.64359E+03 1.25099E+04-1.63753E+04-1.48191E-10 1.03232E-08
 -1       256 1.62726E+06 2.86611E+03 7.86423E+03-3.85705E+04-8.15962E-09 1.03850E-07
 -1       257 1.62588E+06-6.83724E+01 4.48720E+03-2.09904E+04 4.06283E-09 6.19381E-08
 -1       258 1.62634E+06 1.49339E+03 4.78356E+03-3.23991E+04 5.27154E-09 8.41459E-08
 -1       259 1.62577E+06-2.47871E+02 6.39551E+03-2.25460E+04 7.73146E-09 1.31066E-07
 -1       260 1.62795E+06 4.56930E+03 1.32828E+04-3.12358E+04-5.67701E-10-2.57078E-07
 -1       261 1.62425E+06-3.13265E+03 2.24647E+04-2.21534E+04 1.15514E-08-3.04217E-08
 -1       262 1.63871E+06 2.64167E+04 5.47643E+04-3.41763E+04-2.57175E-09 1.59653E-08
 -1       263 1.61498E+06-2.20359E+04 8.74376E+04-1.96042E+04 1.29645E-08 1.04912E-07
 -1       264 1.70483E+06 1.67557E+05 2.38235E+05-4.29813E+04 1.37926E-08 8.67585E-08
 -1       265 1.55817E+06-1.43815E+05 3.37562E+05-1.33446E+04 2.53726E-09 1.99347E-07
 -1       266-1.75811E+04-8.22170E+03 4.12466E+04-1.66532E+01 6.91216E-11 6.31803E-08
 -1       267 2.03811E+04 9.58135E+03 2.91544E+04 1.92160E+01 4.59295E-11-7.45591E-08
 -1       268-2.73308E+03-1.35705E+03 1.08364E+04-2.44837E+00 5.45697E-11-1.81785E-07
 -1       269 3.22695E+03 1.62403E+03 7.04361E+03 2.85207E+00-5.60476E-11-3.25363E-08
 -1       270-4.84370E+02-2.66844E+02 3.40005E+03-3.87042E-01 1.70530E-11-6.46298E-08
 -1       271-1.82699E+06-2.30662E+05-1.45074E+05-7.11870E+05 2.85600E-08 3.22361E-07
 -1       272-1.81953E+06-3.81205E+05-9.12471E+04-7.65472E+05 1.50430E-09 2.08584E-08
 -1       273-1.85780E+06-2.61260E+05-3.50508E+04-7.01277E+05-2.89001E-08 1.57823E-07
 -1       274-1.78494E+06-3.44082E+05-1.84039E+04-7.85644E+05 6.03359E-09-3.79960E-08
 -1       275-1.86508E+06-2.60635E+05-8.58286E+03-6.96400E+05-1.64400E-08-6.76082E-08
 -1       276-1.77807E+06-3.44976E+05-3.81954E+03-7.96693E+05 1.20690E-08 6.36173E-08
 -1       277-1.86852E+06-2.57442E+05-2.27196E+03-6.93118E+05-2.04473E-08 4.40400E-08
 -1       278-1.77577E+06-3.48475E+05-1.10906E+03-8.04006E+05 1.50030E-08 1.82135E-07
 -1       279-1.87039E+06-2.55195E+05-1.17395E+03-6.91149E+05-1.24737E-08 2.35466E-08
 -1       280-1.77507E+06-3.50654E+05-1.79552E+03-8.07679E+05-1.41238E-08 1.17946E-07
 -1       281-1.87084E+06-2.54252E+05-3.21306E+03-6.90525E+05 5.11363E-10 1.30257E-07
 -1       282-1.77657E+06-3.52715E+05-7.68202E+03-8.07303E+05 4.47233E-08 4.67971E-08
 -1       283-1.86889E+06-2.53346E+05-1.38058E+04-6.91439E+05-3.90783E-08-4.83851E-09
 -1       284-1.78949E+06-3.69036E+05-3.72562E+04-8.00454E+05-1.58211E-08-3.43825E-08
 -1       285-1.85651E+06-2.40855E+05-5.85698E+04-6.95585E+05-4.49072E-08 6.01831E-08
 -1       301 3.80828E+03-5.22216E+05 1.65196E+05-9.38671E+05 6.17729E-09 6.56364E-08
 -1       302 2.65980E+03-4.77276E+05 1.00876E+05-1.37107E+06 1.38389E-08 1.49779E-07
 -1       303-1.39388E+04-5.10417E+05 6.13892E+04-9.36218E+05-9.24774E-09 5.19394E-08
 -1       304-9.84328E+03-4.80280E+05 6.94488E+04-1.37028E+06-1.74623E-09 2.61727E-07
 -1       305-1.19165E+04-5.05984E+05 9.47543E+04-9.39070E+05 3.70892E-09 1.36628E-07
 -1       306-2.46413E+07-4.87654E+06-6.67075E+06-1.19108E+06-4.72646E-08 8.96398E-09
 -1       307 1.90100E+07 1.29083E+06 4.18417E+06-1.20146E+07-8.26825E-07-4.82687E-08
 -1       308-7.54923E+06-3.53191E+05-3.95930E+05 4.06029E+06-1.18831E-07 2.99704E-07
 -1       309-2.88011E+06 4.66809E+06 1.60210E+06-1.75834E+07 2.54600E-07 3.39376E-07
 -1       310-1.12412E+07-9.60673E+05-1.40436E+06 3.79986E+06-1.89350E-07 6.40430E-08
 -1       311 2.75927E+07-6.62473E+05 5.46410E+06-7.32874E+06 1.85799E-07 2.30124E-07
 -1       312-2.58235E+07-5.35380E+06-6.45891E+06-4.20325E+06-3.70783E-08 9.37580E-08
 -1       313 3.44389E+07 1.01907E+07 8.20754E+06 1.70577E+07-4.66534E-08-3.48082E-08
 -1       314-1.53219E+07-1.32441E+07-5.75125E+06-1.03204E+07 4.00410E-07 6.20494E-08
 -1       315-2.05721E+06 2.18481E+07 4.36570E+06 9.02802E+06-4.13813E-07-4.33938E-08
 -1       316 1.99561E+05-8.43174E+06-3.65054E+05-3.49348E+06-8.30172E-07-3.92174E-07
 -1       317-1.64869E+07 1.81242E+07 1.56423E+06-5.17101E+06 8.43269E-07-6.55604E-07
 -1       318-1.65331E+06-1.00713E+07-1.43694E+06-4.59549E+06-7.09580E-07 1.04774E-08
 -1       319 4.46343E+06 2.29379E+07 5.20096E+06 1.26641E+07-1.27620E-07 1.80968E-07
 -1       320-1.89293E+07-1.33009E+07-7.55741E+06-1.03177E+07 1.69734E-07-8.13452E-08
 -1       336-3.48024E+02-1.64080E+06-1.26865E+04 7.70433E+03-2.30038E-08-4.65661E-09
 -1       337-4.92958E+03-1.64096E+06-1.63541E+04-1.87075E+04-4.39741E-08-6.34464E-09
 -1       338 4.18496E+02-1.64041E+06-2.52654E+04 1.08219E+04-3.09074E-08-1.60653E-08
 -1       339-2.68466E+04-1.65596E+06-5.70708E+04-2.48081E+04-5.60449E-08 6.56655E-09
 -1       340 1.77555E+04-1.62750E+06-8.97277E+04 1.37001E+04-3.75912E-08 1.20890E-08
 -1       406-1.99415E+01 3.63894E+05 6.03476E+02 2.12939E+00-1.49338E-09-1.07866E-08
 -1       407 1.69863E+02 3.64014E+05 1.28685E+03 1.88966E+01-3.75127E-10-1.57033E-08
 -1       408 6.19634E+02 3.63800E+05 2.56753E+03-2.14308E+01-1.96769E-09-8.89122E-09
 -1       409 2.74065E+03 3.64834E+05 5.78426E+03 2.24229E+02-5.33021E-10-4.90218E-09
 -1       410 7.94851E+03 3.63065E+05 1.18066E+04-2.15097E+02-2.16278E-09-3.46881E-09
 -1       521-2.64801E+07-6.06242E+06-7.90432E+06-9.16122E+05-8.91741E-08 2.29338E-08
 -1       522 1.99469E+07 1.88877E+06 4.32416E+06-1.50678E+07-4.63129E-07-2.93425E-07
 -1       523-8.40261E+06-6.04217E+05-4.12652E+05 4.54137E+06 1.15164E-07-1.95883E-07
 -1       524-5.69682E+06 6.93293E+06 1.77239E+06-2.06787E+07 5.37060E-07-5.42062E-07
 -1       525-1.23286E+07-1.43731E+06-1.57469E+06 4.27299E+06 5.42379E-07-4.32163E-07
 -1       526 3.04888E+07-8.11855E+05 5.83343E+06-9.63670E+06 3.26923E-07-2.42813E-07
 -1       527-2.78776E+07-6.74806E+06-7.54214E+06-4.17822E+06 1.02678E-07 2.70127E-07
 -1       528 3.81886E+07 1.14113E+07 8.70207E+06 1.96222E+07-2.50293E-09 7.56409E-08
 -1       529-1.64654E+07-1.52564E+07-6.69171E+06-1.06786E+07 2.62342E-07 1.47847E-08
 -1       530-4.21316E+06 2.59062E+07 4.70024E+06 9.04732E+06-2.00715E-07 5.45289E-07
 -1       531 1.46531E+05-9.64589E+06-3.65666E+05-3.68990E+06-7.65067E-07 2.97267E-07
 -1       532-1.95121E+07 2.05530E+07 1.75471E+06-8.41519E+06 3.73868E-07-5.53700E-07
 -1       533-1.73677E+06-1.13541E+07-1.54900E+06-4.71562E+06-7.70960E-08-9.03034E-07
 -1       534 2.75267E+06 2.71492E+07 5.51084E+06 1.33908E+07-8.88977E-08 6.78992E-07
 -1       535-2.02715E+07-1.54351E+07-8.75073E+06-1.06739E+07 9.97679E-08 4.18193E-07
 -1       536-6.50900E+05-4.27481E+04-2.98554E+04-4.72107E+04-4.30464E-09 6.56910E-08
 -1       537-1.08942E+05 4.16199E+04 7.62435E+04 1.09467E+05-9.95424E-08 6.63222E-08
 -1       538-3.91870E+05 2.16986E+03 5.51208E+03-6.48707E+04 2.76459E-08 9.38644E-08
 -1       539-2.88535E+05 2.78463E+03 2.19425E+04 1.23862E+05 1.63043E-07 9.20030E-08
 -1       540-4.75758E+05-2.27317E+02-1.67547E+04-6.20040E+04 2.08456E-08 9.10165E-08
 -1       541 5.50499E+04 1.39850E+04 8.81354E+04 8.56355E+04 2.14823E-09 7.71241E-08
 -1       542-7.26218E+05-1.67141E+04-6.95527E+04-2.59950E+04 9.07130E-09 4.21658E-08
 -1       543 2.68816E+05 2.26319E+04 1.30477E+05-1.21248E+04 1.66524E-08-2.57492E-08
 -1       544-6.83808E+05-1.35972E+04-6.17433E+04 3.52545E+04-1.20385E-08-4.59523E-08
 -1       545-4.38945E+04 7.56481E+03 6.52435E+04-1.00500E+05 2.81481E-08-8.45178E-08
 -1       546-4.21876E+05 5.27143E+03-1.03018E+04 6.21272E+04-1.48020E-08-7.36297E-08
 -1       547-3.04157E+05-4.67109E+03 7.33848E+03-1.26523E+05-1.25574E-07-9.30612E-08
 -1       548-4.30513E+05 4.44098E+03-2.16557E+04 6.17928E+04-1.15439E-07-9.72350E-08
 -1       549-2.62835E+04 9.60394E+03 4.51090E+04-9.80350E+04-6.00066E-08-6.26815E-08
 -1       550-6.92303E+05-1.52039E+04-1.14027E+05 3.31016E+04 5.99766E-09-2.70793E-08
 -1       551 3.61319E+04-7.32693E+05-5.79003E+03-1.19528E+06-9.39472E-08-6.40284E-09
 -1       552 8.21393E+04-7.70314E+05 1.54581E+04-1.70416E+06-6.66041E-08 2.43017E-08
 -1       553 6.26004E+04-7.68929E+05 3.56079E+04-1.18929E+06-1.07895E-07 2.41707E-08
 -1       554 1.18215E+05-7.82078E+05 8.49784E+04-1.70611E+06-6.84886E-08 2.16387E-08
 -1       555 9.20355E+04-7.91498E+05 1.53887E+05-1.18935E+06-1.12814E-07-8.60382E-09
 -1       556 1.99914E+05-3.47852E+05 3.64143E+04-3.80335E+05-2.21335E-08-1.04483E-08
 -1       557 3.21275E+05-4.45327E+05 2.12017E+04-4.90213E+05-6.57747E-09 1.77261E-08
 -1       558 1.85312E+05-3.44181E+05 5.26697E+03-3.81936E+05-2.21189E-08-1.41008E-08
 -1       559 2.98839E+05-4.47514E+05 3.67066E+03-5.07513E+05 1.52213E-08-8.60018E-09
 -1       560 1.72608E+05-3.36184E+05-4.47335E+02-3.90990E+05 8.26549E-09 1.43082E-08
 -1       561 2.82733E+05-4.41182E+05 4.95923E+02-5.18411E+05 5.03496E-09 1.28621E-08
 -1       562 1.62586E+05-3.29931E+05-8.75646E+02-3.98224E+05 5.16593E-09 2.07765E-08
 -1       563 2.70861E+05-4.36003E+05 7.56687E+01-5.26141E+05 5.43514E-09 1.91512E-08
 -1       564 1.55508E+05-3.25513E+05-4.15241E+02-4.03232E+05 1.35769E-08 8.99536E-09
 -1       565 2.63113E+05-4.32630E+05 5.49508E+01-5.31084E+05 5.97720E-09-8.45512E-09
 -1       566 1.51477E+05-3.22959E+05-1.84284E+02-4.06052E+05-3.00497E-09-1.38152E-08
 -1       567 2.59521E+05-4.31066E+05-2.95920E+02-5.33245E+05 1.30894E-08 8.09086E-09
 -1       568 1.50570E+05-3.22409E+05-9.51158E+02-4.06783E+05-3.65844E-09 9.82254E-11
 -1       569 2.58804E+05-4.31029E+05-2.40211E+03-5.31687E+05-1.00717E-08 1.28202E-08
 -1       570 1.53797E+05-3.25396E+05-5.28445E+03-4.05881E+05 3.92174E-09-4.27099E-09
 -1       571 2.74360E+05 9.94201E+03 1.42953E+04-8.63999E+04 1.48048E-08 5.31645E-09
 -1       572 2.76443E+05 3.68830E+03 7.00543E+03-9.47886E+04 2.06046E-08-4.05635E-09
 -1       573 2.75190E+05 1.10654E+03 3.11266E+03-8.62347E+04 3.16909E-08 9.86893E-09
 -1       574 2.75404E+05 6.02469E+02 1.56071E+03-9.49946E+04 3.93488E-08-2.68028E-09
 -1       575 2.75281E+05 3.44883E+02 7.36507E+02-8.62122E+04 1.84596E-08-5.59794E-09
 -1       576 2.75273E+05 3.47794E+02 3.76838E+02-9.50221E+04-4.38718E-09-3.44726E-08
 -1       577 2.75314E+05 2.92014E+02 1.88009E+02-8.62092E+04-3.98450E-09 2.29102E-09
 -1       578 2.75294E+05 3.15890E+02 1.08171E+02-9.50258E+04-3.86171E-09 8.04630E-09
 -1       579 2.75373E+05 2.63152E+02 7.41314E+01-8.62089E+04 7.86531E-09 1.45983E-08
 -1       580 2.75376E+05 2.75218E+02 8.51516E+01-9.50213E+04-5.34783E-09-7.83439E-09
 -1       581 2.75466E+05 2.16792E+02 1.28837E+02-8.62142E+04 5.48425E-09-1.23946E-08
 -1       582 2.75522E+05 2.50209E+02 2.60780E+02-9.49653E+04 1.78261E-09 9.47693E-09
 -1       583 2.75578E+05 2.67312E+02 5.01867E+02-8.62654E+04-1.57706E-09 7.11907E-09
 -1       584 2.75849E+05 6.74734E+02 1.13413E+03-9.45350E+04 5.87170E-09-1.20779E-08
 -1       585 2.75582E+05 1.63942E+03 2.29860E+03-8.66441E+04 5.02041E-10-2.88856E-09
 -1       586-3.26414E+03 1.06367E+05-3.03664E+03-2.38594E+05-6.07224E-09-2.43563E-09
 -1       587-1.16556E+03 1.06078E+05 5.71059E+02-2.62598E+05-4.71118E-09-4.53770E-09
 -1       588 4.99657E+02 1.05942E+05 4.38717E+03-2.38468E+05-2.41380E-09 3.07327E-08
 -1       589 4.91063E+03 1.08237E+05 1.15188E+04-2.62363E+05-5.63159E-09-8.85848E-09
 -1       590 1.56861E+04 1.04690E+05 2.42181E+04-2.38878E+05-3.06591E-09 2.49020E-08
 -1       591-6.78216E+04-1.49009E+04-2.08600E+04-2.94352E+04-7.93989E-09 8.91487E-09
 -1       592-7.14621E+04-1.83405E+04-1.12994E+04-3.29574E+04-1.32032E-08 2.23611E-09
 -1       593-6.99088E+04-1.33862E+04-4.70342E+03-3.09637E+04-4.20347E-09-2.27101E-09
 -1       594-6.85800E+04-1.52817E+04-2.34573E+03-3.30690E+04-3.42499E-09 5.66197E-09
 -1       595-7.00680E+04-1.33811E+04-1.07703E+03-3.10332E+04-6.80518E-09 8.33580E-09
 -1       596-6.83828E+04-1.51418E+04-5.47480E+02-3.30458E+04 1.82425E-09 3.25609E-08
 -1       597-7.00880E+04-1.33953E+04-2.98051E+02-3.10358E+04 1.44053E-09-3.11786E-10
 -1       598-6.83634E+04-1.51363E+04-2.39477E+02-3.30393E+04 3.53282E-10-1.63134E-08
 -1       599-7.00868E+04-1.33958E+04-3.05748E+02-3.10355E+04 5.33976E-09-1.77935E-08
 -1       600-6.83830E+04-1.51425E+04-5.67860E+02-3.30439E+04 3.23320E-09-5.50307E-09
 -1       601-7.00637E+04-1.33822E+04-1.12020E+03-3.10322E+04 5.28712E-09 9.89758E-09
 -1       602-6.85880E+04-1.52870E+04-2.44132E+03-3.30646E+04 1.45519E-09-1.33150E-08
 -1       603-6.98955E+04-1.33902E+04-4.89583E+03-3.09606E+04 7.27414E-09 1.30467E-09
 -1       604-7.16044E+04-1.84527E+04-1.17609E+04-3.29253E+04 1.24008E-08 2.27487E-09
 -1       605-6.77042E+04-1.49834E+04-2.17121E+04-2.93876E+04 3.11098E-09 1.53550E-08
 -1       606 2.66958E+04-1.34535E+04-2.41287E+04 2.43841E+04 4.49381E-09 5.16752E-09
 -1       607 2.25719E+04-4.38807E+03-1.20158E+04 2.73957E+04-1.38607E-09-1.12404E-08
 -1       608 2.49206E+04-7.86160E+02-5.37932E+03 2.42071E+04-3.90355E-09-4.39331E-09
 -1       609 2.44682E+04-2.62538E+02-2.71741E+03 2.76125E+04-4.73210E-09 3.74916E-09
 -1       610 2.47178E+04-3.02859E+01-1.29670E+03 2.41864E+04-1.28794E-08 7.86690E-09
 -1       611 2.46449E+04-2.82832E+01-6.53782E+02 2.76360E+04-1.13669E-08-1.27143E-08
 -1       612 2.46716E+04-1.62231E+01-3.11006E+02 2.41843E+04-4.40559E-09-8.96307E-09
 -1       613 2.46538E+04-2.33409E+01-1.39522E+02 2.76388E+04 4.21278E-09-1.69257E-08
 -1       614 2.46493E+04-2.12846E+01-3.31985E+01 2.41836E+04-8.04630E-09-5.66661E-09
 -1       615 2.46473E+04-2.10843E+01 5.73930E+01 2.76392E+04-2.04054E-08-1.42677E-09
 -1       616 2.46319E+04-1.76442E+01 1.73087E+02 2.41839E+04-9.21273E-09-1.46465E-08
 -1       617 2.46670E+04 1.65053E+01 3.95336E+02 2.76387E+04-1.75464E-09-3.87695E-09
 -1       618 2.45967E+04 9.68646E+01 7.96995E+02 2.41841E+04-2.78033E-09-3.16527E-09
 -1       619 2.49476E+04 6.33186E+02 1.78982E+03 2.76381E+04-2.64663E-09-1.40367E-08
 -1       620 2.43315E+04 1.98715E+03 3.59751E+03 2.41850E+04 1.01147E-09-1.15656E-08
 -1       621 4.40645E+02 2.83403E+05 3.51279E+03 3.50839E+04 7.35781E-10 7.93716E-09
 -1       622 5.74455E+02 2.84227E+05 3.15152E+03 5.09542E+04 1.21054E-09 1.32650E-09
 -1       623 1.03257E+02 2.83585E+05 3.83311E+03 3.49236E+04 9.33596E-10-3.92265E-09
 -1       624 1.93166E+03 2.85390E+05 7.46745E+03 5.11130E+04 8.18034E-10-8.22638E-09
 -1       625 1.90131E+03 2.82106E+05 1.30671E+04 3.49206E+04 1.03046E-09 7.82552E-09
 -1       626 2.46679E+05 5.93124E+04 4.96580E+03 1.21382E+05 2.78033E-09 6.82667E-09
 -1       627 2.44366E+05 6.07324E+04 2.39296E+03 1.25597E+05 1.01954E-09-3.39503E-09
 -1       628 2.46808E+05 5.70343E+04 1.01188E+03 1.22218E+05-2.15005E-09 1.51397E-08
 -1       629 2.43742E+05 6.00808E+04 4.95270E+02 1.25837E+05 5.82440E-09 1.77265E-08
 -1       630 2.46821E+05 5.69247E+04 2.29630E+02 1.22252E+05 1.15051E-09-6.87322E-10
 -1       631 2.43674E+05 6.00569E+04 1.23418E+02 1.25839E+05 7.50833E-09 8.49519E-09
 -1       632 2.46817E+05 5.69292E+04 8.09532E+01 1.22247E+05 8.94761E-09-4.41912E-09
 -1       633 2.43665E+05 6.00593E+04 8.97658E+01 1.25834E+05-3.69471E-09-1.12955E-08
 -1       634 2.46811E+05 5.69271E+04 1.44702E+02 1.22246E+05-1.47747E-09-1.31649E-08
 -1       635 2.43678E+05 6.00582E+04 2.92587E+02 1.25839E+05 1.62525E-09 2.19397E-08
 -1       636 2.46802E+05 5.69222E+04 5.90771E+02 1.22245E+05-4.77053E-09-2.01862E-09
 -1       637 2.43805E+05 6.01503E+04 1.29880E+03 1.25837E+05-8.30755E-09-4.06612E-09
 -1       638 2.46755E+05 5.72094E+04 2.66860E+03 1.22115E+05-2.12185E-09 5.89080E-09
 -1       639 2.45206E+05 6.20998E+04 6.31387E+03 1.25424E+05 4.48563E-09 1.38912E-08
 -1       640 2.46562E+05 6.30295E+04 1.31024E+04 1.19660E+05 5.04724E-09 5.20754E-09
 -1       656 6.33088E+04-1.61821E+06-1.52826E+05-2.04061E+03-1.38243E-10 2.08615E-11
 -1       657-8.37422E+04-1.68725E+06-1.26585E+05 5.72567E+03-3.56522E-10-9.18391E-10
 -1       658 2.01715E+04-1.63782E+06-7.79341E+04-3.95932E+03 2.54659E-10-1.29332E-09
 -1       659-9.04809E+04-1.69045E+06-1.35440E+05 7.27754E+03-1.47702E-09-5.04316E-09
 -1       660 7.00323E+04-1.61502E+06-1.68050E+05-3.59246E+03-1.13505E-09-4.86742E-09
 -1       661 1.59313E+05 1.67846E+04 1.65535E+04 6.22840E+04-7.41693E-10-1.62254E-09
 -1       662 1.68572E+05 2.91412E+04 1.11557E+04 5.86840E+04 2.06774E-09-2.87611E-08
 -1       663 1.62564E+05 2.20958E+04 3.90168E+03 6.13411E+04-2.06819E-09-1.54951E-08
 -1       664 1.64804E+05 2.29294E+04 2.33381E+03 5.98351E+04 1.06002E-09-1.11336E-08
 -1       665 1.63057E+05 2.28219E+04 9.20680E+02 6.11982E+04-8.20989E-10-3.28077E-09
 -1       666 1.64222E+05 2.20985E+04 5.38627E+02 6.00211E+04 5.63847E-09-1.49923E-08
 -1       667 1.63142E+05 2.29051E+04 2.85971E+02 6.11629E+04-5.07526E-10 5.93751E-10
 -1       668 1.64128E+05 2.20379E+04 2.91073E+02 6.00724E+04 1.35515E-10 1.91677E-09
 -1       669 1.63150E+05 2.28807E+04 3.93831E+02 6.11473E+04-6.15984E-10 5.53692E-09
 -1       670 1.64224E+05 2.22511E+04 8.57336E+02 6.00748E+04-9.37203E-09-2.17801E-09
 -1       671 1.63046E+05 2.26963E+04 1.52219E+03 6.11585E+04 3.20755E-09-2.49156E-09
 -1       672 1.65112E+05 2.37318E+04 3.89443E+03 5.98598E+04 2.30439E-09 1.38720E-08
 -1       673 1.62267E+05 2.14374E+04 6.52642E+03 6.13479E+04 3.69255E-09-8.92055E-09
 -1       674 1.71324E+05 3.42166E+04 1.86642E+04 5.80343E+04-2.70165E-09 1.35446E-09
 -1       675 1.56874E+05 1.25051E+04 2.77041E+04 6.28738E+04-2.42198E-09-5.36056E-09
 -1       676 2.32235E+01-2.84519E+05-1.07521E+03-9.97705E+01 8.87582E-10-2.28855E-09
 -1       677-2.84916E+02-2.84779E+05-1.96781E+03 1.99390E+02 6.82053E-09-1.55353E-08
 -1       678 1.90701E+02-2.84334E+05-3.47860E+03-9.95536E+01 1.28557E-09-4.19568E-10
 -1       679-3.47910E+03-2.86879E+05-8.26367E+03 1.98561E+02 6.76664E-09 2.47694E-08
 -1       680 2.07685E+03-2.82421E+05-1.33182E+04-9.78361E+01-3.27418E-11 2.15979E-08
 -1       771-2.96036E+06-6.97044E+05-1.44179E+05-1.39819E+06-2.70811E-08-2.13913E-08
 -1       772-2.89179E+06-7.78466E+05-7.45764E+04-1.49205E+06-1.59489E-08 1.14123E-08
 -1       773-2.98752E+06-6.75804E+05-3.74954E+04-1.41012E+06-8.46921E-09 9.41509E-09
 -1       774-2.88228E+06-7.62532E+05-1.68389E+04-1.51369E+06 2.70084E-08-1.94996E-09
 -1       775-3.00117E+06-6.66207E+05-1.22484E+04-1.41563E+06-6.86850E-09 2.80124E-09
 -1       776-2.89196E+06-7.60246E+05-4.63711E+03-1.52977E+06-1.06083E-08 7.04313E-09
 -1       777-3.01288E+06-6.57726E+05-5.28776E+03-1.42048E+06 1.28057E-09 4.55475E-09
 -1       778-2.90214E+06-7.58183E+05-1.51444E+03-1.54354E+06 6.43195E-09 6.57019E-09
 -1       779-3.02290E+06-6.50355E+05-2.60318E+03-1.42463E+06-3.39060E-09-1.20781E-09
 -1       780-2.91108E+06-7.56216E+05-4.33874E+02-1.55475E+06-6.99220E-09 3.78350E-10
 -1       781-3.03082E+06-6.44434E+05-9.96113E+02-1.42787E+06-1.91503E-08 4.49108E-09
 -1       782-2.91795E+06-7.54538E+05 3.78282E+02-1.56301E+06-2.33267E-08-7.93989E-10
 -1       783-3.03639E+06-6.40336E+05 6.00086E+02-1.43015E+06-5.83532E-09-1.72308E-08
 -1       784-2.92170E+06-7.52781E+05 2.42060E+03-1.56810E+06-1.24564E-08-6.95763E-11
 -1       785-3.03969E+06-6.37890E+05 4.27980E+03-1.43161E+06-2.97259E-08 4.91491E-09
 -1       786 1.22092E+05-9.49810E+03 2.19743E+04-2.71266E+02 4.65263E-10 4.49472E-09
 -1       787 1.31622E+05 1.09964E+04 1.55460E+04-9.28320E+01 2.53561E-09 2.34140E-08
 -1       788 1.25766E+05-1.48852E+03 5.68535E+03-2.38699E+02 3.68703E-09 1.50396E-08
 -1       789 1.27341E+05 1.72263E+03 3.56926E+03-1.43334E+02 2.62828E-09-6.65068E-12
 -1       790 1.26373E+05-2.31911E+02 1.44557E+03-2.20778E+02-1.41860E-09 1.02626E-08
 -1       791 1.26632E+05 2.68136E+02 8.35780E+02-1.74119E+02-5.86133E-09 8.49356E-09
 -1       792 1.26476E+05-3.51097E+01 3.55872E+02-2.07917E+02-5.77655E-09 1.43795E-08
 -1       793 1.26510E+05 3.76455E+01 1.81153E+02-1.98284E+02 5.68486E-10-7.28256E-09
 -1       794 1.26496E+05-1.56662E+00 5.45941E+01-1.96613E+02 3.97254E-09-7.23870E-09
 -1       795 1.26476E+05-2.04332E+01-3.60525E+01-2.21776E+02-3.33439E-09-1.05453E-08
 -1       796 1.26509E+05 2.29371E+01-1.23574E+02-1.84424E+02 3.38968E-09 1.10087E-08
 -1       797 1.26401E+05-1.72739E+02-3.48898E+02-2.49609E+02 3.50869E-09 4.69208E-09
 -1       798 1.26571E+05 1.50625E+02-5.69278E+02-1.68780E+02 1.38736E-09-7.72869E-09
 -1       799 1.25969E+05-1.11087E+03-1.56850E+03-2.87977E+02 4.65899E-09 1.05497E-08
 -1       800 1.26942E+05 9.60298E+02-2.22039E+03-1.46057E+02-8.21654E-12 1.58929E-08
 -1       801-9.69820E+04-8.62576E+06-1.16266E+06 1.09232E+06 8.39646E-08-5.94191E-08
 -1       802 5.27606E+05 3.81819E+06 1.64558E+06-1.31406E+06 2.31674E-07-2.16769E-08
 -1       803-4.12656E+05-1.18489E+07-1.47863E+06 6.93100E+05 7.07259E-08 2.16860E-08
 -1       804 2.05306E+05 9.77940E+05 1.16132E+06 5.72124E+05-1.03377E-07-9.83550E-08
 -1       805 1.61563E+05-5.80062E+06-2.29037E+05-7.89388E+05-4.29936E-08-5.91808E-08
 -1       806-2.93814E+05-5.64349E+04-2.16178E+04-1.15955E+05-3.68800E-09 1.39335E-08
 -1       807-2.95578E+05-5.28427E+04-1.06206E+04-1.21125E+05-7.02130E-10-1.66864E-09
 -1       808-2.94402E+05-4.86491E+04-4.50564E+03-1.19644E+05-8.56971E-09-2.26339E-09
 -1       809-2.93348E+05-4.98558E+04-2.20316E+03-1.21383E+05-9.57334E-09-2.05546E-10
 -1       810-2.94492E+05-4.83780E+04-1.00982E+03-1.19808E+05 1.34651E-09 1.19144E-09
 -1       811-2.93176E+05-4.97354E+04-5.02193E+02-1.21350E+05 2.34468E-09-1.71744E-08
 -1       812-2.94506E+05-4.84011E+04-2.53994E+02-1.19807E+05-6.32099E-09-1.14001E-08
 -1       813-2.93152E+05-4.97373E+04-1.65125E+02-1.21332E+05-6.61930E-09-2.63017E-08
 -1       814-2.94500E+05-4.84099E+04-1.63668E+02-1.19804E+05-4.45925E-09 5.00177E-09
 -1       815-2.93156E+05-4.97392E+04-2.63844E+02-1.21326E+05-5.46606E-09-1.00947E-08
 -1       816-2.94481E+05-4.84085E+04-5.00042E+02-1.19801E+05 2.42562E-09 1.35269E-08
 -1       817-2.93242E+05-4.97867E+04-1.07336E+03-1.21316E+05-1.33846E-08 9.34233E-09
 -1       818-2.94417E+05-4.85594E+04-2.18919E+03-1.19730E+05 1.52795E-10 1.37516E-09
 -1       819-2.94440E+05-5.11100E+04-5.15130E+03-1.21034E+05 7.78073E-10-1.79668E-08
 -1       820-2.94006E+05-5.24484E+04-1.04846E+04-1.18065E+05 1.69166E-09-8.64475E-09
 -1       821-3.62790E+05 1.99898E+04-4.63113E+04 1.39221E+03 9.93930E-09-8.76753E-09
 -1       822-3.82534E+05-2.31449E+04-3.27151E+04-2.60721E+03 2.59443E-09 9.60790E-09
 -1       823-3.70357E+05 3.13898E+03-1.19834E+04 1.96104E+03-7.46434E-09 1.95496E-09
 -1       824-3.73585E+05-3.62699E+03-7.52699E+03-2.83152E+03 9.78034E-10-6.39375E-10
 -1       825-3.71738E+05 4.88007E+02-3.11811E+03 1.61655E+03 1.19134E-08-7.96445E-09
 -1       826-3.71804E+05-5.65426E+02-1.79974E+03-1.41502E+03 1.57003E-08-2.48187E-08
 -1       827-3.72128E+05 7.33174E+01-1.02582E+03 5.44505E+02 6.38335E-09-2.46993E-09
 -1       828-3.71490E+05-1.62542E+02-7.66579E+02 8.86915E+02-2.39177E-09 6.74966E-09
 -1       829-3.72049E+05 8.31811E+01-1.03179E+03-6.85419E+02 1.86986E-10 5.45677E-09
 -1       830-3.71985E+05-6.01109E+02-1.90037E+03 2.84759E+03 3.59137E-10-1.32494E-08
 -1       831-3.71641E+05 5.17556E+02-3.21574E+03-1.41619E+03-3.63331E-09-8.80777E-09
 -1       832-3.73672E+05-3.77721E+03-7.82316E+03 3.41998E+03-1.68578E-09 8.16226E-09
 -1       833-3.70367E+05 3.26011E+03-1.24614E+04-1.25782E+03-1.43177E-09 4.63160E-09
 -1       834-3.82775E+05-2.40409E+04-3.39503E+04 2.27793E+03-3.16166E-09-1.78170E-09
 -1       835-3.62535E+05 2.07603E+04-4.81283E+04-2.74115E+02 5.64548E-09 8.48740E-09
 -1       836-1.31831E+03 3.48877E+05 2.15207E+04-1.58947E+04-5.63614E-09 1.67756E-09
 -1       837 4.60693E+03 3.55609E+05 1.82488E+04-3.23469E+04-6.15319E-09 1.16795E-08
 -1       838-5.18033E+02 3.50760E+05 1.86472E+04-1.58256E+04-5.01313E-09 2.80315E-08
 -1       839 1.17757E+04 3.60949E+05 3.53280E+04-3.23965E+04-5.27962E-09 2.08729E-09
 -1       840-3.62743E+03 3.43482E+05 5.63583E+04-1.58493E+04-4.38013E-09-8.39567E-09
 -1       856-5.66659E+04 7.87674E+03-2.07570E+04-3.96420E+02 2.25077E-09 7.25777E-09
 -1       857-6.52218E+04-9.25158E+03-1.42892E+04 5.41628E+03 3.94726E-09 7.69592E-09
 -1       858-6.00527E+04 1.10445E+03-5.38609E+03-4.19816E+02 1.50334E-09-3.97449E-09
 -1       859-6.13348E+04-1.29623E+03-3.25065E+03 5.45152E+03-1.87396E-09 8.27453E-09
 -1       860-6.05587E+04 1.54474E+02-1.36294E+03-4.31471E+02-2.57162E-09 2.95580E-09
 -1       861-6.07525E+04-1.81511E+02-7.51061E+02 5.46742E+03 8.74756E-10-1.79618E-08
 -1       862-6.06378E+04 2.08078E+01-3.14761E+02-4.35709E+02-1.84076E-09-1.20247E-08
 -1       863-6.06560E+04-1.91127E+01-1.20459E+02 5.46980E+03-3.22581E-09-2.54926E-09
 -1       864-6.06557E+04-4.25267E+00 3.32767E+01-4.33852E+02-1.91271E-09-5.28348E-09
 -1       865-6.06049E+04 5.50333E+01 2.21478E+02 5.45943E+03 2.39982E-09-1.14048E-08
 -1       866-6.06868E+04-5.34131E+01 4.53054E+02-4.25334E+02-6.60009E-10-1.75936E-08
 -1       867-6.03901E+04 4.41937E+02 1.11945E+03 5.43626E+03 9.41782E-10-1.03981E-08
 -1       868-6.08659E+04-3.84346E+02 1.86124E+03-4.10688E+02-1.37942E-09 4.88922E-09
 -1       869-5.90244E+04 3.19889E+03 4.95741E+03 5.39788E+03 5.12640E-09-1.98708E-08
 -1       870-6.20453E+04-2.73574E+03 7.19413E+03-3.86879E+02-2.08729E-09 1.48366E-08
 -1       871-5.29417E+03-1.89261E+04-1.84062E+04 1.23031E+05-4.10000E-09-1.12777E-08
 -1       872-1.97918E+03-2.31783E+04-7.68090E+03 1.59525E+05-8.77662E-09 2.60525E-09
 -1       873 3.02264E+02-2.11341E+04 6.23318E+02 1.22761E+05-4.37058E-09 4.77348E-09
 -1       874 3.05349E+03-1.87995E+04 9.39066E+03 1.59556E+05-8.53197E-09 4.23779E-09
 -1       875 6.47292E+03-2.33714E+04 2.11333E+04 1.22987E+05-3.99814E-09 8.44830E-09
 -1       876 2.80256E+05 4.73703E+04 1.44610E+04 1.12629E+05-1.02227E-09-6.43104E-09
 -1       877 2.81198E+05 5.04295E+04 7.72269E+03 1.16789E+05 6.67569E-09 9.31345E-09
 -1       878 2.81608E+05 4.57689E+04 3.23544E+03 1.13814E+05-1.82308E-09-2.30234E-08
 -1       879 2.79232E+05 4.84680E+04 1.61206E+03 1.16887E+05 8.37917E-09-7.53198E-09
 -1       880 2.81705E+05 4.57521E+04 7.50851E+02 1.13862E+05 2.31353E-09 8.79180E-09
 -1       881 2.79102E+05 4.83842E+04 4.00887E+02 1.16865E+05-1.03990E-08-1.51778E-08
 -1       882 2.81714E+05 4.57647E+04 2.56339E+02 1.13864E+05-4.23552E-09-5.66942E-11
 -1       883 2.79093E+05 4.83799E+04 2.75366E+02 1.16858E+05 1.27801E-09 2.16370E-09
 -1       884 2.81708E+05 4.57619E+04 4.37857E+02 1.13864E+05 6.59247E-09-1.30730E-08
 -1       885 2.79127E+05 4.83860E+04 8.80221E+02 1.16869E+05 9.00002E-10-1.69359E-08
 -1       886 2.81674E+05 4.57363E+04 1.77400E+03 1.13861E+05 4.99719E-09-1.78693E-09
 -1       887 2.79439E+05 4.85904E+04 3.87504E+03 1.16914E+05 8.75480E-09 1.17607E-08
 -1       888 2.81429E+05 4.57794E+04 7.80833E+03 1.13737E+05 5.76910E-09-7.18046E-10
 -1       889 2.84088E+05 5.34243E+04 1.86528E+04 1.16771E+05 2.70340E-10-2.82871E-08
 -1       890 2.78243E+05 4.95637E+04 3.49361E+04 1.10763E+05-4.99540E-10 2.33013E-09
 -1       891-1.00284E+02-1.55750E+05-1.90329E+03 2.64315E+04-3.52884E-10 1.41260E-08
 -1       892-1.90229E+02-1.56246E+05-2.04640E+03 4.01103E+04 1.85855E-09 1.56060E-08
 -1       893 2.66090E+01-1.55812E+05-2.89975E+03 2.64383E+04 6.74390E-10 4.55520E-09
 -1       894-1.46572E+03-1.57343E+05-6.00310E+03 3.99629E+04 3.98177E-09-5.53882E-09
 -1       895-1.16078E+03-1.54561E+05-1.05720E+04 2.65799E+04 8.51514E-11 7.87713E-09
 -1       956-3.59032E+05-5.15056E+03-1.27673E+04 2.84418E+04 7.55790E-09-3.77531E-09
 -1       957-3.61540E+05-1.80009E+03-6.55347E+03 3.41948E+04-1.19326E-09-2.14068E-08
 -1       958-3.60176E+05-2.08693E+02-2.95306E+03 2.82842E+04-3.19687E-09 1.37106E-09
 -1       959-3.60366E+05-1.06355E+02-1.50800E+03 3.43763E+04 5.97174E-09 2.73394E-09
 -1       960-3.60286E+05-2.39885E+01-7.35347E+02 2.82682E+04 5.94628E-09-4.24052E-09
 -1       961-3.60287E+05-3.81871E+01-3.89993E+02 3.43951E+04 7.95808E-09 5.33828E-09
 -1       962-3.60311E+05-2.59634E+01-2.23380E+02 2.82656E+04 1.59798E-09 2.40652E-09
 -1       963-3.60287E+05-3.47232E+01-1.79526E+02 3.43985E+04 5.25688E-09 2.73826E-09
 -1       964-3.60316E+05-2.29548E+01-2.18496E+02 2.82649E+04-4.45965E-10-6.71025E-09
 -1       965-3.60299E+05-3.17754E+01-3.78056E+02 3.43979E+04-3.21603E-09-1.27700E-08
 -1       966-3.60301E+05-1.50447E+01-7.10348E+02 2.82662E+04 6.67569E-10 1.16015E-08
 -1       967-3.60385E+05-9.14929E+01-1.45698E+03 3.43848E+04-4.09364E-09 1.52470E-08
 -1       968-3.60204E+05-1.87708E+02-2.85209E+03 2.82778E+04 9.69521E-10 2.86639E-09
 -1       969-3.61531E+05-1.72282E+03-6.33175E+03 3.42489E+04 6.05723E-10 1.17093E-08
 -1       970-3.59105E+05-4.95877E+03-1.23343E+04 2.83961E+04-3.16595E-09 1.61663E-08
 -1       971-3.30109E+05-1.66121E+03-9.00308E+03 1.48472E+04 4.89399E-09 3.53921E-09
 -1       972-3.32280E+05-1.21723E+03-4.90300E+03 2.05733E+04 4.87034E-10-2.50111E-11
 -1       973-3.31112E+05-5.09245E+01-2.19600E+03 1.47288E+04-7.77618E-10-5.67729E-09
 -1       974-3.31246E+05-6.59372E+01-1.13824E+03 2.07061E+04 5.45697E-11-7.98400E-09
 -1       975-3.31191E+05-7.74738E+00-5.69152E+02 1.47170E+04 1.24101E-09 4.51894E-09
 -1       976-3.31187E+05-1.79179E+01-3.28717E+02 2.07211E+04 2.61844E-09-4.48415E-09
 -1       977-3.31207E+05-7.18939E+00-2.39209E+02 1.47139E+04-3.64912E-09-2.62844E-10
 -1       978-3.31192E+05-1.20266E+01-2.80789E+02 2.07256E+04-5.10283E-09 2.12591E-08
 -1       979-3.31206E+05 8.48319E-01-4.51878E+02 1.47125E+04-2.33786E-09 1.20564E-08
 -1       980-3.31225E+05-9.12112E+00-8.72983E+02 2.07265E+04-3.14823E-09-1.64238E-08
 -1       981-3.31179E+05 2.26622E+01-1.69100E+03 1.47130E+04 6.29757E-09-1.03628E-08
 -1       982-3.31457E+05-1.34036E+02-3.49540E+03 2.07201E+04 3.24383E-09-9.41374E-09
 -1       983-3.30966E+05-8.55705E+01-6.79164E+03 1.47189E+04 3.60978E-09 3.51156E-09
 -1       984-3.34724E+05-3.68103E+03-1.52095E+04 2.06372E+04 5.65774E-09 4.47449E-09
 -1       985-3.27891E+05-5.05525E+03-2.79295E+04 1.47907E+04 3.39924E-09 1.44955E-08
 -3
    1PSTEP                        27          14           1          
  100CL  114 6.38626E-01         409                     0   14           1
 -4  DISP        4    1
 -5  D1          1    2    1    0
 -5  D2          1    2    2    0
 -5  D3          1    2    3    0
 -5  ALL         1    2    0    0    1ALL
 -1         1 2.13713E-03 0.00000E+00 0.00000E+00
 -1         2 6.83874E-04 1.11484E-26 0.00000E+00
 -1         3 3.12008E-04 1.14062E-28 1.32349E-23
 -1         5 1.65452E-04-2.55167E-27 2.48154E-24
 -1         8 2.12802E-03-4.73720E-07 0.00000E+00
 -1         9 2.13638E-03-2.19362E-04 0.00000E+00
 -1        10 2.83285E-04-3.26415E-06 0.00000E+00
 -1        12 1.66908E-04 7.65061E-07 1.55096E-25
 -1        15 2.11789E-03-4.93151E-07-1.03398E-25
 -1        16 2.19573E-03-2.20868E-04 0.00000E+00
 -1        17 1.93899E-04-7.34272E-06 0.00000E+00
 -1        18 1.69757E-04 2.88953E-05 0.00000E+00
 -1        19 1.71274E-04 1.52479E-06 0.00000E+00
 -1        20 1.71416E-04-5.67027E-06 0.00000E+00
 -1        21 1.70585E-04-1.64260E-05 0.00000E+00
 -1        24 2.90236E-05-1.10859E-05 0.00000E+00
 -1        25 1.78576E-04 2.91043E-05 0.00000E+00
 -1        26 1.79255E-04 2.11213E-06 0.00000E+00
 -1        27 1.77175E-04-9.05739E-06 0.00000E+00
 -1        28 1.76839E-04-1.70233E-05 0.00000E+00
 -1        32 0.00000E+00 0.00000E+00 0.00000E+00
 -1        33 1.86225E-04 2.82687E-06 0.00000E+00
 -1        34 1.84207E-04-9.10632E-06 0.00000E+00
 -1        35 1.82358E-04-1.73501E-05 0.00000E+00
 -1        51 2.13651E-03-9.66194E-08-4.96308E-24
 -1        52 2.13538E-03-1.74984E-07 3.30872E-24
 -1        53 2.13385E-03-2.49765E-07 3.30872E-24
 -1        54 2.13204E-03-3.23110E-07 4.13590E-25
 -1        55 2.13006E-03-3.96737E-07 1.65436E-24
 -1        56 2.13048E-03 5.95151E-06-5.29396E-23
 -1        57 2.11848E-03 2.51565E-05 0.00000E+00
 -1        58 2.10307E-03 5.28821E-05 1.05879E-22
 -1        59 2.08643E-03 8.35581E-05 5.29396E-23
 -1        60 2.07106E-03 1.11120E-04 0.00000E+00
 -1        61 2.05926E-03 1.29761E-04 0.00000E+00
 -1        62 2.05257E-03 1.35277E-04 1.05879E-22
 -1        63 2.05192E-03 1.24633E-04 0.00000E+00
 -1        64 2.05706E-03 9.77582E-05 1.05879E-22
 -1        65 2.06722E-03 5.60965E-05-5.29396E-23
 -1        66 2.08084E-03 3.87136E-06-1.05879E-22
 -1        67 2.09617E-03-5.36769E-05-5.29396E-23
 -1        68 2.11119E-03-1.10292E-04 1.05879E-22
 -1        69 2.12397E-03-1.59803E-04 0.00000E+00
 -1        70 2.13279E-03-1.97396E-04 5.29396E-23
 -1        86 7.75502E-04-6.41563E-06-5.29396E-23
 -1        87 1.04099E-03-4.32931E-05-1.32349E-23
 -1        88 1.39706E-03-1.06962E-04 0.00000E+00
 -1        89 1.75737E-03-1.72211E-04 0.00000E+00
 -1        90 2.03288E-03-2.11702E-04-5.29396E-23
 -1       121 3.11201E-04-5.29657E-07 1.32349E-23
 -1       122 3.08786E-04-1.06181E-06 0.00000E+00
 -1       123 3.04769E-04-1.59892E-06 0.00000E+00
 -1       124 2.99166E-04-2.14345E-06 0.00000E+00
 -1       125 2.91995E-04-2.69753E-06 0.00000E+00
 -1       191 1.65493E-04 1.27551E-07-2.06795E-24
 -1       192 1.65614E-04 2.55095E-07-1.13737E-24
 -1       193 1.65816E-04 3.82626E-07 2.89513E-24
 -1       194 1.66099E-04 5.10137E-07-6.72084E-25
 -1       195 1.66463E-04 6.37618E-07-2.37814E-24
 -1       251 2.12862E-03-1.64206E-06-6.61744E-24
 -1       252 2.12922E-03-8.29883E-06 0.00000E+00
 -1       253 2.12979E-03-1.88019E-05-1.32349E-23
 -1       254 2.13034E-03-3.16112E-05 0.00000E+00
 -1       255 2.13087E-03-4.60301E-05 1.32349E-23
 -1       256 2.13138E-03-6.14044E-05 0.00000E+00
 -1       257 2.13189E-03-7.74305E-05 0.00000E+00
 -1       258 2.13239E-03-9.38217E-05 0.00000E+00
 -1       259 2.13289E-03-1.10426E-04 0.00000E+00
 -1       260 2.13339E-03-1.27097E-04 0.00000E+00
 -1       261 2.13388E-03-1.43712E-04-1.32349E-23
 -1       262 2.13438E-03-1.60149E-04 6.61744E-24
 -1       263 2.13488E-03-1.76216E-04 1.32349E-23
 -1       264 2.13538E-03-1.91716E-04 3.30872E-24
 -1       265 2.13590E-03-2.06243E-04 0.00000E+00
 -1       266 2.12633E-03-4.82556E-07 0.00000E+00
 -1       267 2.12464E-03-4.85112E-07 0.00000E+00
 -1       268 2.12295E-03-4.88066E-07 0.00000E+00
 -1       269 2.12126E-03-4.89842E-07 0.00000E+00
 -1       270 2.11957E-03-4.91590E-07 0.00000E+00
 -1       271 2.12733E-03-7.29351E-07 1.32349E-23
 -1       272 2.12781E-03-4.19322E-06 0.00000E+00
 -1       273 2.12938E-03-1.06277E-05 0.00000E+00
 -1       274 2.13195E-03-1.97764E-05 1.32349E-23
 -1       275 2.13540E-03-3.13537E-05 0.00000E+00
 -1       276 2.13962E-03-4.50531E-05 0.00000E+00
 -1       277 2.14449E-03-6.05465E-05 2.64698E-23
 -1       278 2.14987E-03-7.74892E-05-1.32349E-23
 -1       279 2.15564E-03-9.55228E-05 2.64698E-23
 -1       280 2.16167E-03-1.14278E-04-1.32349E-23
 -1       281 2.16782E-03-1.33378E-04-2.64698E-23
 -1       282 2.17396E-03-1.52445E-04 0.00000E+00
 -1       283 2.17995E-03-1.71099E-04 0.00000E+00
 -1       284 2.18566E-03-1.88963E-04 0.00000E+00
 -1       285 2.19096E-03-2.05673E-04 0.00000E+00
 -1       301 2.14692E-03-2.19640E-04-6.61744E-24
 -1       302 2.15614E-03-2.19879E-04-6.61744E-24
 -1       303 2.16484E-03-2.20111E-04 1.32349E-23
 -1       304 2.17380E-03-2.20344E-04 0.00000E+00
 -1       305 2.18384E-03-2.20588E-04 2.64698E-23
 -1       306 2.17089E-03-3.53986E-04-1.05879E-22
 -1       307 2.23560E-03-7.16641E-04 5.29396E-23
 -1       308 2.29455E-03-1.24694E-03 0.00000E+00
 -1       309 2.33973E-03-1.86157E-03-5.29396E-23
 -1       310 2.38915E-03-2.45098E-03-1.05879E-22
 -1       311 2.45422E-03-2.90804E-03 0.00000E+00
 -1       312 2.51023E-03-3.16300E-03 0.00000E+00
 -1       313 2.50903E-03-3.17899E-03-5.29396E-23
 -1       314 2.39399E-03-2.96531E-03 0.00000E+00
 -1       315 2.13219E-03-2.57098E-03-5.29396E-23
 -1       316 1.74026E-03-2.06240E-03 0.00000E+00
 -1       317 1.27173E-03-1.50289E-03 5.29396E-23
 -1       318 8.19173E-04-9.53746E-04 0.00000E+00
 -1       319 4.70524E-04-4.78789E-04 0.00000E+00
 -1       320 2.62871E-04-1.42682E-04 0.00000E+00
 -1       336 2.72864E-04-3.88838E-06-1.32349E-23
 -1       337 2.60571E-04-4.53357E-06 6.61744E-24
 -1       338 2.46461E-04-5.20139E-06-1.32349E-23
 -1       339 2.30596E-04-5.89244E-06 6.61744E-24
 -1       340 2.13049E-04-6.61059E-06 1.32349E-23
 -1       406 1.67433E-04 8.92451E-07-2.06795E-25
 -1       407 1.68040E-04 1.01976E-06-9.82277E-25
 -1       408 1.68728E-04 1.14693E-06 8.27181E-25
 -1       409 1.69496E-04 1.27382E-06-2.06795E-25
 -1       410 1.70345E-04 1.40016E-06-8.27181E-25
 -1       521 2.23118E-03-3.65019E-04 1.05879E-22
 -1       522 2.29513E-03-7.48863E-04 5.29396E-23
 -1       523 2.34931E-03-1.30879E-03 0.00000E+00
 -1       524 2.38698E-03-1.95504E-03-5.29396E-23
 -1       525 2.42994E-03-2.57418E-03-1.05879E-22
 -1       526 2.49251E-03-3.05546E-03 0.00000E+00
 -1       527 2.54870E-03-3.32284E-03 0.00000E+00
 -1       528 2.54586E-03-3.33838E-03 0.00000E+00
 -1       529 2.42033E-03-3.11126E-03 0.00000E+00
 -1       530 2.13661E-03-2.69731E-03 0.00000E+00
 -1       531 1.71175E-03-2.16661E-03-1.05879E-22
 -1       532 1.20490E-03-1.58561E-03 5.29396E-23
 -1       533 7.14555E-04-1.01447E-03 1.05879E-22
 -1       534 3.34367E-04-5.16087E-04 0.00000E+00
 -1       535 1.06775E-04-1.59529E-04 0.00000E+00
 -1       536 1.93253E-04 2.43174E-05 0.00000E+00
 -1       537 1.91642E-04 7.93228E-05 0.00000E+00
 -1       538 1.89160E-04 1.49187E-04 0.00000E+00
 -1       539 1.86236E-04 2.25346E-04 1.65436E-24
 -1       540 1.83602E-04 2.97315E-04 0.00000E+00
 -1       541 1.81882E-04 3.54630E-04 0.00000E+00
 -1       542 1.81078E-04 3.91074E-04 0.00000E+00
 -1       543 1.80870E-04 4.00560E-04 0.00000E+00
 -1       544 1.80575E-04 3.83823E-04 3.30872E-24
 -1       545 1.79564E-04 3.41791E-04 0.00000E+00
 -1       546 1.77706E-04 2.81947E-04-3.30872E-24
 -1       547 1.75209E-04 2.11883E-04-1.65436E-24
 -1       548 1.72738E-04 1.42234E-04 3.30872E-24
 -1       549 1.70952E-04 8.36334E-05-1.65436E-24
 -1       550 1.70015E-04 4.34397E-05 0.00000E+00
 -1       551 1.71022E-04-7.85238E-06 0.00000E+00
 -1       552 1.45087E-04-8.42988E-06 0.00000E+00
 -1       553 1.17000E-04-9.06035E-06 3.30872E-24
 -1       554 8.76808E-05-9.72563E-06 6.61744E-24
 -1       555 5.80502E-05-1.04017E-05 1.32349E-23
 -1       556 1.87030E-04 1.02612E-05 0.00000E+00
 -1       557 1.81500E-04 2.44856E-05 2.64698E-23
 -1       558 1.77183E-04 3.55974E-05 0.00000E+00
 -1       559 1.73959E-04 4.38847E-05 0.00000E+00
 -1       560 1.71708E-04 4.96355E-05 0.00000E+00
 -1       561 1.70312E-04 5.31405E-05 0.00000E+00
 -1       562 1.69656E-04 5.46912E-05 0.00000E+00
 -1       563 1.69626E-04 5.45798E-05 0.00000E+00
 -1       564 1.70109E-04 5.30994E-05 0.00000E+00
 -1       565 1.70993E-04 5.05437E-05 0.00000E+00
 -1       566 1.72169E-04 4.72068E-05 6.61744E-24
 -1       567 1.73526E-04 4.33829E-05 0.00000E+00
 -1       568 1.74954E-04 3.93667E-05-1.65436E-24
 -1       569 1.76345E-04 3.54526E-05 0.00000E+00
 -1       570 1.77588E-04 3.19352E-05 0.00000E+00
 -1       571 1.69849E-04 2.71205E-05 8.27181E-25
 -1       572 1.69943E-04 2.52847E-05 8.27181E-25
 -1       573 1.70038E-04 2.34022E-05-3.30872E-24
 -1       574 1.70132E-04 2.14881E-05 0.00000E+00
 -1       575 1.70227E-04 1.95572E-05 3.30872E-24
 -1       576 1.70322E-04 1.76247E-05 0.00000E+00
 -1       577 1.70417E-04 1.57056E-05 0.00000E+00
 -1       578 1.70512E-04 1.38151E-05 0.00000E+00
 -1       579 1.70607E-04 1.19682E-05-6.61744E-24
 -1       580 1.70702E-04 1.01800E-05 0.00000E+00
 -1       581 1.70797E-04 8.46560E-06-6.61744E-24
 -1       582 1.70892E-04 6.84010E-06-3.30872E-24
 -1       583 1.70988E-04 5.31854E-06 0.00000E+00
 -1       584 1.71083E-04 3.91584E-06 0.00000E+00
 -1       585 1.71179E-04 2.64675E-06 0.00000E+00
 -1       586 1.71182E-04 2.89322E-05 0.00000E+00
 -1       587 1.72571E-04 2.89685E-05 0.00000E+00
 -1       588 1.73963E-04 2.90044E-05 8.27181E-25
 -1       589 1.75400E-04 2.90397E-05 0.00000E+00
 -1       590 1.76925E-04 2.90738E-05 0.00000E+00
 -1       591 1.70361E-04 2.72048E-05 1.03398E-25
 -1       592 1.70969E-04 2.54933E-05 0.00000E+00
 -1       593 1.71582E-04 2.37669E-05-1.65436E-24
 -1       594 1.72198E-04 2.20301E-05 0.00000E+00
 -1       595 1.72816E-04 2.02877E-05 8.27181E-25
 -1       596 1.73435E-04 1.85446E-05-4.13590E-25
 -1       597 1.74052E-04 1.68054E-05 8.27181E-25
 -1       598 1.74666E-04 1.50750E-05 0.00000E+00
 -1       599 1.75275E-04 1.33579E-05-8.27181E-25
 -1       600 1.75877E-04 1.16589E-05 4.13590E-25
 -1       601 1.76471E-04 9.98282E-06 0.00000E+00
 -1       602 1.77054E-04 8.33430E-06 0.00000E+00
 -1       603 1.77625E-04 6.71811E-06 4.13590E-25
 -1       604 1.78183E-04 5.13905E-06 1.29247E-26
 -1       605 1.78726E-04 3.60179E-06 0.00000E+00
 -1       606 1.71288E-04 6.22077E-07 0.00000E+00
 -1       607 1.71297E-04-1.93589E-07 0.00000E+00
 -1       608 1.71306E-04-9.27315E-07 0.00000E+00
 -1       609 1.71315E-04-1.58486E-06 1.65436E-24
 -1       610 1.71324E-04-2.17205E-06 0.00000E+00
 -1       611 1.71332E-04-2.69474E-06 0.00000E+00
 -1       612 1.71341E-04-3.15882E-06 0.00000E+00
 -1       613 1.71349E-04-3.57019E-06 0.00000E+00
 -1       614 1.71358E-04-3.93473E-06 0.00000E+00
 -1       615 1.71366E-04-4.25834E-06 0.00000E+00
 -1       616 1.71375E-04-4.54691E-06 0.00000E+00
 -1       617 1.71383E-04-4.80632E-06 0.00000E+00
 -1       618 1.71392E-04-5.04247E-06-8.27181E-25
 -1       619 1.71400E-04-5.26125E-06 0.00000E+00
 -1       620 1.71409E-04-5.46856E-06 0.00000E+00
 -1       621 1.72355E-04 1.62313E-06-3.30872E-24
 -1       622 1.73574E-04 1.72174E-06-8.27181E-25
 -1       623 1.74903E-04 1.82019E-06-1.65436E-24
 -1       624 1.76312E-04 1.91835E-06 1.65436E-24
 -1       625 1.77772E-04 2.01627E-06 0.00000E+00
 -1       626 1.71720E-04 6.56354E-07 0.00000E+00
 -1       627 1.72142E-04-1.46775E-07 3.30872E-24
 -1       628 1.72542E-04-8.92373E-07-3.30872E-24
 -1       629 1.72924E-04-1.58855E-06-3.30872E-24
 -1       630 1.73291E-04-2.24346E-06 3.30872E-24
 -1       631 1.73645E-04-2.86525E-06 1.65436E-24
 -1       632 1.73990E-04-3.46207E-06 0.00000E+00
 -1       633 1.74329E-04-4.04211E-06-1.65436E-24
 -1       634 1.74665E-04-4.61351E-06 3.30872E-24
 -1       635 1.75000E-04-5.18443E-06-1.65436E-24
 -1       636 1.75338E-04-5.76304E-06 0.00000E+00
 -1       637 1.75682E-04-6.35750E-06 1.65436E-24
 -1       638 1.76035E-04-6.97597E-06 0.00000E+00
 -1       639 1.76400E-04-7.62664E-06-8.27181E-25
 -1       640 1.76779E-04-8.31769E-06-1.65436E-24
 -1       656 1.71847E-04-6.22089E-06-6.61744E-24
 -1       657 1.72687E-04-6.79383E-06 0.00000E+00
 -1       658 1.73798E-04-7.36537E-06-1.32349E-23
 -1       659 1.75036E-04-7.93656E-06 0.00000E+00
 -1       660 1.76221E-04-8.50948E-06-6.61744E-24
 -1       661 1.71578E-04-5.91419E-06 0.00000E+00
 -1       662 1.71775E-04-6.24422E-06-8.27181E-25
 -1       663 1.72003E-04-6.65567E-06-1.65436E-24
 -1       664 1.72259E-04-7.14258E-06 8.27181E-25
 -1       665 1.72542E-04-7.69964E-06 0.00000E+00
 -1       666 1.72849E-04-8.32146E-06 0.00000E+00
 -1       667 1.73178E-04-9.00291E-06 0.00000E+00
 -1       668 1.73528E-04-9.73890E-06 8.27181E-25
 -1       669 1.73896E-04-1.05245E-05 1.65436E-24
 -1       670 1.74281E-04-1.13549E-05 0.00000E+00
 -1       671 1.74681E-04-1.22255E-05 0.00000E+00
 -1       672 1.75094E-04-1.31315E-05 0.00000E+00
 -1       673 1.75519E-04-1.40686E-05 0.00000E+00
 -1       674 1.75953E-04-1.50323E-05 0.00000E+00
 -1       675 1.76395E-04-1.60181E-05 0.00000E+00
 -1       676 1.71631E-04-1.65262E-05 0.00000E+00
 -1       677 1.72676E-04-1.66263E-05-1.65436E-24
 -1       678 1.73720E-04-1.67263E-05 0.00000E+00
 -1       679 1.74762E-04-1.68260E-05 0.00000E+00
 -1       680 1.75802E-04-1.69258E-05 0.00000E+00
 -1       771 1.81523E-05 1.31150E-05 0.00000E+00
 -1       772 8.99067E-06 3.29835E-05-2.64698E-23
 -1       773 1.45703E-06 4.87320E-05 0.00000E+00
 -1       774-4.56005E-06 6.05972E-05 0.00000E+00
 -1       775-9.16981E-06 6.88247E-05 0.00000E+00
 -1       776-1.24859E-05 7.36748E-05 0.00000E+00
 -1       777-1.46220E-05 7.54163E-05-5.29396E-23
 -1       778-1.56940E-05 7.43302E-05 0.00000E+00
 -1       779-1.58175E-05 7.07046E-05 5.29396E-23
 -1       780-1.51099E-05 6.48377E-05 0.00000E+00
 -1       781-1.36881E-05 5.70333E-05 5.29396E-23
 -1       782-1.16703E-05 4.76031E-05-2.64698E-23
 -1       783-9.17408E-06 3.68625E-05 0.00000E+00
 -1       784-6.31806E-06 2.51324E-05 7.94093E-23
 -1       785-3.22020E-06 1.27364E-05 0.00000E+00
 -1       786 1.78615E-04 2.71935E-05 2.58494E-26
 -1       787 1.78656E-04 2.53319E-05-4.13590E-25
 -1       788 1.78698E-04 2.35115E-05-8.27181E-25
 -1       789 1.78741E-04 2.17242E-05-4.13590E-25
 -1       790 1.78783E-04 1.99655E-05 1.65436E-24
 -1       791 1.78826E-04 1.82306E-05 0.00000E+00
 -1       792 1.78868E-04 1.65173E-05 1.65436E-24
 -1       793 1.78911E-04 1.48234E-05 0.00000E+00
 -1       794 1.78954E-04 1.31487E-05-1.65436E-24
 -1       795 1.78997E-04 1.14930E-05 0.00000E+00
 -1       796 1.79040E-04 9.85798E-06 0.00000E+00
 -1       797 1.79082E-04 8.24536E-06 0.00000E+00
 -1       798 1.79125E-04 6.65918E-06 1.65436E-24
 -1       799 1.79169E-04 5.10350E-06 8.27181E-25
 -1       800 1.79212E-04 3.58541E-06 0.00000E+00
 -1       801 1.37641E-04 2.60700E-05 2.64698E-23
 -1       802 1.36641E-05 1.64417E-05-2.64698E-23
 -1       803-9.29478E-05 8.43398E-06-5.29396E-23
 -1       804-8.36320E-05 5.82869E-06-2.64698E-23
 -1       805-2.77878E-05 2.37121E-06 5.29396E-23
 -1       806 1.79183E-04 2.71287E-05-1.65436E-24
 -1       807 1.79777E-04 2.51798E-05 0.00000E+00
 -1       808 1.80357E-04 2.32623E-05-3.30872E-24
 -1       809 1.80924E-04 2.13799E-05 1.65436E-24
 -1       810 1.81477E-04 1.95363E-05 0.00000E+00
 -1       811 1.82014E-04 1.77350E-05 1.65436E-24
 -1       812 1.82533E-04 1.59796E-05-3.30872E-24
 -1       813 1.83034E-04 1.42737E-05 0.00000E+00
 -1       814 1.83516E-04 1.26207E-05-1.65436E-24
 -1       815 1.83976E-04 1.10241E-05 0.00000E+00
 -1       816 1.84414E-04 9.48755E-06-1.65436E-24
 -1       817 1.84828E-04 8.01447E-06 0.00000E+00
 -1       818 1.85217E-04 6.60839E-06 3.30872E-24
 -1       819 1.85580E-04 5.27280E-06-8.27181E-25
 -1       820 1.85916E-04 4.01116E-06-3.30872E-24
 -1       821 1.79132E-04 3.57396E-07-1.65436E-24
 -1       822 1.79000E-04-2.00149E-06 0.00000E+00
 -1       823 1.78868E-04-4.70552E-06-3.30872E-24
 -1       824 1.78735E-04-7.49357E-06 0.00000E+00
 -1       825 1.78601E-04-1.00828E-05-3.30872E-24
 -1       826 1.78469E-04-1.21915E-05 0.00000E+00
 -1       827 1.78338E-04-1.36642E-05 3.30872E-24
 -1       828 1.78207E-04-1.43490E-05 1.65436E-24
 -1       829 1.78077E-04-1.43010E-05 3.30872E-24
 -1       830 1.77946E-04-1.35795E-05 0.00000E+00
 -1       831 1.77815E-04-1.24208E-05 0.00000E+00
 -1       832 1.77685E-04-1.10635E-05 0.00000E+00
 -1       833 1.77554E-04-9.79857E-06 3.30872E-24
 -1       834 1.77425E-04-8.91636E-06 0.00000E+00
 -1       835 1.77296E-04-8.60705E-06 0.00000E+00
 -1       836 1.80618E-04 2.23074E-06-3.30872E-24
 -1       837 1.81859E-04 2.35228E-06-1.65436E-24
 -1       838 1.83009E-04 2.47373E-06 0.00000E+00
 -1       839 1.84100E-04 2.59449E-06 0.00000E+00
 -1       840 1.85161E-04 2.71508E-06 0.00000E+00
 -1       856 1.77157E-04-9.81868E-06 0.00000E+00
 -1       857 1.77137E-04-1.04492E-05 0.00000E+00
 -1       858 1.77116E-04-1.09693E-05 0.00000E+00
 -1       859 1.77095E-04-1.13995E-05-2.06795E-25
 -1       860 1.77074E-04-1.17601E-05 0.00000E+00
 -1       861 1.77053E-04-1.20718E-05-4.13590E-25
 -1       862 1.77032E-04-1.23552E-05-8.27181E-25
 -1       863 1.77011E-04-1.26307E-05 0.00000E+00
 -1       864 1.76990E-04-1.29192E-05 0.00000E+00
 -1       865 1.76969E-04-1.32410E-05 0.00000E+00
 -1       866 1.76948E-04-1.36170E-05 0.00000E+00
 -1       867 1.76927E-04-1.40674E-05 4.13590E-25
 -1       868 1.76905E-04-1.46130E-05 0.00000E+00
 -1       869 1.76884E-04-1.52739E-05 0.00000E+00
 -1       870 1.76862E-04-1.60707E-05-8.27181E-25
 -1       871 1.78210E-04-9.06136E-06 0.00000E+00
 -1       872 1.79386E-04-9.06852E-06 0.00000E+00
 -1       873 1.80638E-04-9.07632E-06 4.13590E-25
 -1       874 1.81902E-04-9.08484E-06 0.00000E+00
 -1       875 1.83113E-04-9.09391E-06-8.27181E-25
 -1       876 1.77582E-04-9.80489E-06 3.30872E-24
 -1       877 1.77968E-04-1.04882E-05 1.65436E-24
 -1       878 1.78333E-04-1.11149E-05-3.30872E-24
 -1       879 1.78680E-04-1.16922E-05 0.00000E+00
 -1       880 1.79011E-04-1.22272E-05 0.00000E+00
 -1       881 1.79330E-04-1.27270E-05 0.00000E+00
 -1       882 1.79637E-04-1.31987E-05 3.30872E-24
 -1       883 1.79937E-04-1.36494E-05 0.00000E+00
 -1       884 1.80231E-04-1.40862E-05 0.00000E+00
 -1       885 1.80523E-04-1.45161E-05 1.65436E-24
 -1       886 1.80815E-04-1.49462E-05 0.00000E+00
 -1       887 1.81110E-04-1.53835E-05 0.00000E+00
 -1       888 1.81409E-04-1.58353E-05-3.30872E-24
 -1       889 1.81717E-04-1.63086E-05-8.27181E-25
 -1       890 1.82034E-04-1.68106E-05 0.00000E+00
 -1       891 1.77897E-04-1.70782E-05 0.00000E+00
 -1       892 1.78932E-04-1.71332E-05 0.00000E+00
 -1       893 1.79920E-04-1.71881E-05 8.27181E-25
 -1       894 1.80837E-04-1.72429E-05 8.27181E-25
 -1       895 1.81657E-04-1.72973E-05-8.27181E-25
 -1       956 1.86101E-04 1.80622E-06-1.65436E-24
 -1       957 1.85975E-04 8.71124E-07 1.65436E-24
 -1       958 1.85848E-04 1.16018E-08 3.30872E-24
 -1       959 1.85722E-04-7.82882E-07 0.00000E+00
 -1       960 1.85595E-04-1.52290E-06 0.00000E+00
 -1       961 1.85469E-04-2.21907E-06 0.00000E+00
 -1       962 1.85342E-04-2.88200E-06 0.00000E+00
 -1       963 1.85216E-04-3.52233E-06-1.65436E-24
 -1       964 1.85089E-04-4.15069E-06 0.00000E+00
 -1       965 1.84963E-04-4.77772E-06 1.65436E-24
 -1       966 1.84836E-04-5.41405E-06 3.30872E-24
 -1       967 1.84710E-04-6.07031E-06 1.65436E-24
 -1       968 1.84583E-04-6.75712E-06 0.00000E+00
 -1       969 1.84457E-04-7.48508E-06 0.00000E+00
 -1       970 1.84331E-04-8.26477E-06 0.00000E+00
 -1       971 1.84092E-04-9.94439E-06 0.00000E+00
 -1       972 1.83976E-04-1.06904E-05 0.00000E+00
 -1       973 1.83860E-04-1.13545E-05-3.30872E-24
 -1       974 1.83744E-04-1.19473E-05 1.65436E-24
 -1       975 1.83628E-04-1.24793E-05 0.00000E+00
 -1       976 1.83512E-04-1.29611E-05 0.00000E+00
 -1       977 1.83396E-04-1.34032E-05 3.30872E-24
 -1       978 1.83279E-04-1.38164E-05 0.00000E+00
 -1       979 1.83163E-04-1.42111E-05 0.00000E+00
 -1       980 1.83047E-04-1.45981E-05 0.00000E+00
 -1       981 1.82931E-04-1.49879E-05 0.00000E+00
 -1       982 1.82815E-04-1.53911E-05 0.00000E+00
 -1       983 1.82699E-04-1.58183E-05 0.00000E+00
 -1       984 1.82584E-04-1.62803E-05 0.00000E+00
 -1       985 1.82469E-04-1.67874E-05 0.00000E+00
 -3
    1PSTEP                        28          14           1          
  100CL  114 6.38626E-01         409                     0   14           1
 -4  STRESS      6    1
 -5  SXX         1    4    1    1
 -5  SYY         1    4    2    2
 -5  SZZ         1    4    3    3
 -5  SXY         1    4    1    2
 -5  SYZ         1    4    2    3
 -5  SZX         1    4    3    1
 -1         1-5.34040E+06-1.64736E+06-1.13080E+06-1.37456E+06 4.80213E-10-4.92146E-08
 -1         2 1.68363E+06 2.65745E+07 5.93205E+06 6.98690E+06 1.70519E-07 1.77046E-07
 -1         3-1.19765E+03-1.50550E+06 3.81929E+02-1.91850E+03-7.47669E-10 2.38506E-08
 -1         5-4.70954E+01 3.65154E+05 9.41558E+00-9.49334E-01-4.22435E-10 1.61726E-08
 -1         8 6.99481E+04-7.06716E+04 8.78821E+04-3.02524E+05 1.36424E-10 4.61732E-08
 -1         9 9.46474E+06 4.93898E+06 2.71891E+06 8.02045E+04 2.11527E-08 4.31901E-08
 -1        10-2.04981E+03-1.56875E+06-3.56570E+03-1.29802E+04-1.19271E-08-1.84181E-08
 -1        12-4.33304E+01 3.65174E+05 3.07897E+02-6.61265E+00-5.06773E-10-6.55473E-09
 -1        15 9.27440E+02 5.09674E+02 2.99792E+03 6.77774E-01-9.89360E-11 2.93041E-07
 -1        16 1.73264E+07-3.62343E+05 2.39478E+06-1.77680E+06 2.60382E-08 5.27749E-09
 -1        17 6.41542E+06 4.48047E+06 1.71254E+06 4.36961E+06 2.08762E-08 9.48785E-09
 -1        18 1.09708E+05 2.47521E+04-2.18133E+03-1.11124E+05 1.44043E-08 1.61481E-09
 -1        19 1.16167E+05 1.34135E+05-9.11032E+02 2.12167E+04 1.29658E-09 3.37132E-09
 -1        20-7.49129E+04-5.45454E+05-1.22185E+05 2.56049E+04-1.09443E-09-4.47108E-09
 -1        21-4.45521E+01-2.85146E+05-8.93527E+02 2.04562E+02 1.29696E-08-4.29485E-08
 -1        24 1.07077E+07 8.86702E+06 2.99202E+06 8.23195E+06-1.44326E-07-5.03302E-08
 -1        25 7.01325E+04 6.79303E+04 4.87505E+04-5.30446E+05-2.23736E-10 1.87059E-08
 -1        26-5.23366E+04 8.70351E+04-2.34805E+04 3.19358E+02 4.06726E-10 1.05712E-08
 -1        27-7.38591E+04-2.95209E+05-1.08347E+05 6.57483E+04 4.17837E-09-3.40636E-09
 -1        28 2.15246E+04-8.18285E+04 1.62635E+04 2.04469E+04-2.01786E-09-1.81345E-09
 -1        32-1.61789E+06-2.98074E+06-1.75646E+05 2.58010E+05-3.80969E-08-1.00421E-08
 -1        33-1.70541E+05 8.78635E+04 3.07493E+04-3.71434E+04-2.63064E-09 1.13111E-08
 -1        34-2.13755E+05-2.35460E+04 6.44270E+02 7.15278E+04-3.86708E-09 1.79625E-09
 -1        35-2.21378E+04-3.24590E+04-1.29090E+03 4.96223E+04-2.41015E-09-8.57593E-09
 -1        51 6.01081E+04-2.08120E+05 1.26676E+05-3.81288E+05 5.82077E-11-1.75314E-07
 -1        52 2.01171E+04-1.85679E+05 6.60890E+04-4.44788E+05 1.62800E-10-2.06928E-08
 -1        53 3.81151E+03-2.00370E+05 3.37904E+04-3.80020E+05 3.92902E-10-4.86980E-08
 -1        54 6.19918E+03-1.96270E+05 2.65150E+04-4.45999E+05-2.54659E-11-8.66130E-08
 -1        55 1.36147E+04-2.02420E+05 3.07825E+04-3.79984E+05 2.25555E-10 6.26915E-09
 -1        56-9.68059E+06-1.27241E+06-8.74143E+05-3.97659E+06-1.44646E-08-1.38127E-07
 -1        57-1.08678E+07-1.00717E+06-5.55630E+05-2.86172E+06 3.04426E-08-2.90747E-08
 -1        58-9.62809E+06-1.67378E+06-1.96693E+05-4.08985E+06 1.90994E-08 8.07631E-08
 -1        59-1.08436E+07-5.83547E+05-1.11060E+05-2.84024E+06 1.31081E-10-2.97587E-08
 -1        60-9.73392E+06-1.66481E+06-5.53520E+04-4.02607E+06-2.83035E-09-4.63406E-08
 -1        61-1.03494E+07-8.54942E+05 1.12062E+02-3.09548E+06-3.25963E-09-3.32966E-08
 -1        62-1.00365E+07-1.45999E+06-5.04939E+04-3.76977E+06 7.01402E-09-4.64752E-08
 -1        63-9.73376E+06-1.38198E+06 2.59225E+04-3.66602E+06 3.48336E-08 1.05247E-07
 -1        64-1.03009E+07-1.17247E+06-4.23290E+04-3.42570E+06-5.87170E-09-1.17700E-07
 -1        65-9.44367E+06-1.81984E+06-5.54092E+03-4.30595E+06 1.46101E-08-1.32397E-07
 -1        66-1.04073E+07-9.65863E+05-4.32421E+04-3.18803E+06-1.15033E-08 5.90244E-08
 -1        67-9.42642E+06-2.00213E+06-1.02797E+05-4.55487E+06-3.05699E-08 8.45012E-08
 -1        68-1.03783E+07-9.48975E+05-1.87484E+05-3.21472E+06-3.14867E-08-1.36701E-07
 -1        69-9.66412E+06-2.10426E+06-5.03257E+05-4.16732E+06-2.65436E-08-9.51695E-08
 -1        70-1.00972E+07-9.25641E+05-8.17391E+05-3.52472E+06 5.38057E-09 8.17236E-08
 -1        86-1.44909E+06-1.66888E+07-3.10351E+06-3.34274E+06-1.41154E-09-5.71526E-08
 -1        87 1.99640E+06 9.48203E+06 2.69170E+06 5.44791E+06-5.34783E-09-8.48822E-08
 -1        88-1.69439E+05-1.00383E+06 2.52711E+05-2.07664E+06 1.42252E-07-1.51000E-07
 -1        89 2.98807E+06 9.38759E+06 2.86458E+06 5.66932E+06-9.67411E-08 2.10093E-08
 -1        90-2.37852E+06-1.66374E+07-3.29788E+06-3.58545E+06 1.16323E-07 9.63555E-08
 -1       121-1.64764E+03-1.50949E+06-3.77169E+02 9.52259E+02 1.26303E-09 2.87037E-09
 -1       122-1.03111E+03-1.50553E+06 7.41489E+02-3.83832E+03-4.71637E-09 5.98448E-10
 -1       123-1.67933E+03-1.50961E+06 4.17975E+02 2.84442E+03 3.90673E-09-6.97037E-09
 -1       124 5.13596E+02-1.50502E+06 2.89099E+03-8.05066E+03-9.85074E-09-2.39233E-08
 -1       125-2.48587E+03-1.51046E+06 3.58203E+03 5.13171E+03 5.71526E-09 7.44330E-09
 -1       191-4.97358E+01 3.65176E+05 9.21543E+00 4.89021E-01-4.62406E-10 1.74732E-08
 -1       192-4.79873E+01 3.65154E+05 2.00341E+01-3.19219E+00-6.43666E-10 4.58385E-10
 -1       193-5.20925E+01 3.65176E+05 3.52748E+01 2.79177E+00-8.63695E-10 7.59610E-09
 -1       194-5.08506E+01 3.65158E+05 7.60183E+01-7.29821E+00-4.68757E-10 1.73904E-08
 -1       195-5.66177E+01 3.65174E+05 1.46704E+02 4.69637E+00-1.13844E-09 1.39844E-08
 -1       251 1.75239E+06-8.69212E+04 1.95931E+05 2.21200E+04-1.06456E-09-5.58648E-08
 -1       252 1.86870E+06 1.00724E+05 1.44038E+05-1.03964E+05 1.63857E-09-7.39019E-08
 -1       253 1.79744E+06-1.29774E+04 5.12378E+04-8.18327E+03 1.01443E-09-5.69053E-08
 -1       254 1.81530E+06 1.60330E+04 3.28809E+04-6.11541E+04-3.18198E-09-7.67955E-08
 -1       255 1.80454E+06-1.69422E+03 1.34630E+04-2.06759E+04-3.42709E-10 2.30276E-07
 -1       256 1.80697E+06 3.15841E+03 8.43182E+03-4.36016E+04-1.17243E-08 1.46446E-07
 -1       257 1.80557E+06 5.68503E+00 4.79695E+03-2.57323E+04 7.86159E-09-1.00377E-07
 -1       258 1.80603E+06 1.66101E+03 5.07031E+03-3.68868E+04-1.94723E-08 6.82734E-08
 -1       259 1.80544E+06-1.74696E+02 6.74525E+03-2.73900E+04 8.41738E-09-7.18046E-10
 -1       260 1.80773E+06 4.88629E+03 1.39783E+04-3.56388E+04-1.60521E-08-1.74078E-07
 -1       261 1.80385E+06-3.20778E+03 2.36294E+04-2.69798E+04 1.29117E-08-4.42496E-08
 -1       262 1.81901E+06 2.78633E+04 5.75845E+04-3.87727E+04-1.19418E-08 1.07912E-08
 -1       263 1.79412E+06-2.30879E+04 9.19478E+04-2.42545E+04-1.08299E-08 5.10117E-08
 -1       264 1.88847E+06 1.76284E+05 2.50478E+05-4.84047E+04 2.29079E-09 1.93249E-07
 -1       265 1.73442E+06-1.51142E+05 3.54945E+05-1.73431E+04-1.61720E-09 1.33819E-07
 -1       266-1.67900E+04-7.85181E+03 3.93901E+04-1.45011E+01 9.27685E-11 1.13138E-07
 -1       267 1.94639E+04 9.15017E+03 2.78424E+04 1.67328E+01 1.78716E-10 8.68153E-08
 -1       268-2.61009E+03-1.29599E+03 1.03488E+04-2.13197E+00 6.86668E-11 8.08462E-08
 -1       269 3.08173E+03 1.55094E+03 6.72663E+03 2.48352E+00 1.02773E-10 1.14546E-07
 -1       270-4.62571E+02-2.54834E+02 3.24704E+03-3.37027E-01 1.44382E-11 1.98479E-08
 -1       271-1.76413E+06-2.24013E+05-1.41020E+05-6.88372E+05-2.63935E-08 2.18526E-07
 -1       272-1.74711E+06-3.77193E+05-8.82930E+04-7.49139E+05 3.02680E-08 8.59436E-08
 -1       273-1.79434E+06-2.53068E+05-3.42127E+04-6.77765E+05-1.77533E-08-1.02998E-07
 -1       274-1.71383E+06-3.41710E+05-1.77409E+04-7.69886E+05-5.10681E-08 7.53525E-08
 -1       275-1.80167E+06-2.52034E+05-8.44796E+03-6.72796E+05-1.67747E-08 2.46633E-07
 -1       276-1.70747E+06-3.42838E+05-3.64254E+03-7.81514E+05-1.69075E-08 8.70396E-08
 -1       277-1.80518E+06-2.48634E+05-2.24425E+03-6.69451E+05 3.12793E-08 9.99439E-08
 -1       278-1.70550E+06-3.46362E+05-1.02949E+03-7.89209E+05-4.23288E-08 1.04378E-07
 -1       279-1.80709E+06-2.46285E+05-1.09904E+03-6.67458E+05-1.68311E-08 2.22419E-07
 -1       280-1.70496E+06-3.48494E+05-1.63319E+03-7.93030E+05 3.66272E-08-2.28829E-09
 -1       281-1.80755E+06-2.45354E+05-2.91883E+03-6.66847E+05-4.79488E-08 4.27735E-09
 -1       282-1.70633E+06-3.50310E+05-6.97652E+03-7.92580E+05-2.11548E-09 2.74034E-07
 -1       283-1.80566E+06-2.44697E+05-1.25857E+04-6.67794E+05-1.65892E-08 6.29407E-08
 -1       284-1.71803E+06-3.64842E+05-3.38499E+04-7.85640E+05 1.91703E-08-1.88383E-07
 -1       285-1.79412E+06-2.33771E+05-5.34046E+04-6.71860E+05-3.41970E-10-4.27281E-08
 -1       301 9.01356E+02-5.36807E+05 1.64743E+05-9.66937E+05-4.38740E-09 1.20657E-07
 -1       302-8.78917E+02-4.91237E+05 1.00481E+05-1.41197E+06 5.32600E-09 2.83253E-07
 -1       303-1.62413E+04-5.25789E+05 6.06909E+04-9.64355E+05 4.37285E-09 2.35304E-08
 -1       304-1.35833E+04-4.94880E+05 6.79100E+04-1.41124E+06-1.68657E-08-1.25074E-08
 -1       305-1.49044E+04-5.20644E+05 9.18174E+04-9.67232E+05-5.36784E-09 6.42176E-08
 -1       306-2.49650E+07-4.94910E+06-6.78307E+06-1.12390E+06-6.04196E-08 4.79049E-08
 -1       307 1.93115E+07 1.41303E+06 4.25317E+06-1.22721E+07-7.41013E-07-3.19938E-07
 -1       308-7.46359E+06-3.72926E+05-3.81367E+05 4.13689E+06-1.11671E-07 8.10905E-08
 -1       309-2.82387E+06 4.87803E+06 1.64977E+06-1.78044E+07 2.82744E-07 1.78701E-07
 -1       310-1.14128E+07-1.02547E+06-1.46898E+06 3.87558E+06-6.69388E-08 6.88015E-08
 -1       311 2.85003E+07-6.42288E+05 5.60991E+06-7.29774E+06 5.08735E-07-3.40311E-07
 -1       312-2.62421E+07-5.49154E+06-6.61236E+06-4.33082E+06 1.85799E-07-1.36642E-08
 -1       313 3.50876E+07 1.06254E+07 8.37658E+06 1.76029E+07 5.35510E-09 2.96845E-07
 -1       314-1.53700E+07-1.35845E+07-5.85856E+06-1.04668E+07 6.07455E-07-8.43429E-08
 -1       315-2.15780E+06 2.23920E+07 4.43760E+06 9.04321E+06-4.57963E-07-2.33937E-07
 -1       316 3.28584E+05-8.51598E+06-3.55451E+05-3.40436E+06-1.01226E-06-3.27913E-07
 -1       317-1.65309E+07 1.84207E+07 1.60968E+06-5.43548E+06 5.71810E-07-7.18253E-07
 -1       318-1.63155E+06-1.02947E+07-1.49374E+06-4.58941E+06-8.17119E-07 8.51287E-08
 -1       319 4.75260E+06 2.35613E+07 5.34321E+06 1.29868E+07-8.66785E-08 2.15834E-07
 -1       320-1.92109E+07-1.36003E+07-7.72325E+06-1.04934E+07 1.50059E-07-2.81725E-08
 -1       336-3.81263E+02-1.63407E+06-1.26892E+04 7.72548E+03-2.39179E-08 4.50018E-09
 -1       337-4.93938E+03-1.63415E+06-1.63657E+04-1.87666E+04-4.43258E-08-4.22733E-08
 -1       338 3.96819E+02-1.63366E+06-2.53257E+04 1.08558E+04-3.18569E-08-4.37649E-09
 -1       339-2.69115E+04-1.64921E+06-5.71975E+04-2.48943E+04-5.66943E-08 2.49129E-08
 -1       340 1.77765E+04-1.62073E+06-8.99470E+04 1.37471E+04-3.78495E-08 4.00942E-08
 -1       406-2.17979E+01 3.65160E+05 6.05771E+02 2.20021E+00-1.59805E-09-3.60342E-09
 -1       407 1.68850E+02 3.65281E+05 1.29193E+03 1.92435E+01-4.05098E-10 1.74723E-08
 -1       408 6.20329E+02 3.65066E+05 2.57756E+03-2.18467E+01-1.86606E-09-1.44191E-08
 -1       409 2.74992E+03 3.66104E+05 5.80704E+03 2.28841E+02-2.27033E-10-2.12049E-08
 -1       410 7.97845E+03 3.64327E+05 1.18530E+04-2.19585E+02-2.27010E-09-1.89129E-08
 -1       521-2.68318E+07-6.16588E+06-8.04931E+06-8.37112E+05-3.93484E-08 1.01805E-07
 -1       522 2.02979E+07 2.06065E+06 4.40373E+06-1.53884E+07-4.33327E-07-1.56084E-07
 -1       523-8.29698E+06-6.31683E+05-3.96399E+05 4.62684E+06 1.74652E-07 7.78527E-09
 -1       524-5.68244E+06 7.22818E+06 1.82741E+06-2.09386E+07 8.44011E-07-6.08914E-07
 -1       525-1.24887E+07-1.52362E+06-1.64871E+06 4.36089E+06 5.84347E-07-3.09577E-07
 -1       526 3.15595E+07-7.96121E+05 5.99399E+06-9.63344E+06 1.66823E-07-2.73867E-08
 -1       527-2.83350E+07-6.92364E+06-7.73215E+06-4.30470E+06-3.55067E-08 2.08383E-07
 -1       528 3.89546E+07 1.19406E+07 8.89089E+06 2.02887E+07 1.29046E-07-2.77068E-08
 -1       529-1.65135E+07-1.56530E+07-6.82564E+06-1.08196E+07 3.50876E-07 1.15950E-07
 -1       530-4.34132E+06 2.65758E+07 4.78415E+06 9.01826E+06-1.41648E-07 4.23752E-07
 -1       531 2.94300E+05-9.73608E+06-3.53498E+05-3.57358E+06-7.23958E-07 3.59665E-07
 -1       532-1.95268E+07 2.08602E+07 1.80752E+06-8.79872E+06 3.80445E-07-5.11587E-07
 -1       533-1.70347E+06-1.15968E+07-1.61431E+06-4.68034E+06-1.89350E-07-8.99076E-07
 -1       534 3.05210E+06 2.79223E+07 5.66779E+06 1.37465E+07-8.21456E-08 6.82136E-07
 -1       535-2.05751E+07-1.57950E+07-8.95776E+06-1.08498E+07 6.25150E-08 4.21365E-07
 -1       536-6.54538E+05-4.28528E+04-3.14525E+04-4.76988E+04-3.07409E-09 4.83051E-08
 -1       537-1.05405E+05 4.16356E+04 7.64984E+04 1.10432E+05-9.85377E-08 8.57685E-08
 -1       538-3.92053E+05 2.27357E+03 5.28271E+03-6.53739E+04 3.41598E-08 1.03611E-07
 -1       539-2.87289E+05 2.75416E+03 2.20742E+04 1.24878E+05 1.40797E-07 1.38436E-07
 -1       540-4.77168E+05-2.31505E+02-1.70751E+04-6.25514E+04-1.47436E-08 1.09003E-07
 -1       541 6.10796E+04 1.41748E+04 8.93248E+04 8.64624E+04 3.79123E-09 7.14016E-08
 -1       542-7.31055E+05-1.69410E+04-7.05334E+04-2.62953E+04 2.72885E-08 3.31648E-08
 -1       543 2.77871E+05 2.29443E+04 1.32300E+05-1.22053E+04-3.92574E-08-2.30534E-08
 -1       544-6.88161E+05-1.37930E+04-6.26153E+04 3.56040E+04-3.96867E-08-3.10083E-08
 -1       545-3.90714E+04 7.69116E+03 6.62095E+04-1.01383E+05-2.94635E-08-7.21750E-08
 -1       546-4.22597E+05 5.32770E+03-1.04280E+04 6.26240E+04 1.00670E-08-7.85890E-08
 -1       547-3.03049E+05-4.67293E+03 7.55235E+03-1.27551E+05-9.70382E-08-1.15494E-07
 -1       548-4.31252E+05 4.46022E+03-2.18017E+04 6.22971E+04-1.04085E-07-7.97136E-08
 -1       549-2.13417E+04 1.00357E+04 4.61381E+04-9.89405E+04-6.31412E-08-4.81184E-08
 -1       550-6.96755E+05-1.56678E+04-1.15016E+05 3.34655E+04 1.97133E-09-4.97676E-08
 -1       551 3.63536E+04-7.30531E+05-6.55293E+03-1.19760E+06-9.10077E-08 3.05590E-09
 -1       552 8.27246E+04-7.68601E+05 1.50099E+04-1.70743E+06-6.24714E-08 5.67816E-08
 -1       553 6.31051E+04-7.67076E+05 3.52855E+04-1.19157E+06-1.10682E-07 3.34985E-08
 -1       554 1.18952E+05-7.80645E+05 8.45636E+04-1.70939E+06-6.94417E-08 2.63026E-08
 -1       555 9.25348E+04-7.89712E+05 1.53239E+05-1.19161E+06-1.13141E-07 7.02130E-10
 -1       556 2.01440E+05-3.50201E+05 3.53234E+04-3.82021E+05-2.22644E-08-1.48721E-08
 -1       557 3.23300E+05-4.48098E+05 2.06654E+04-4.92625E+05-1.03319E-09 2.38651E-08
 -1       558 1.86586E+05-3.46233E+05 4.99073E+03-3.83846E+05-1.39407E-08 3.09228E-09
 -1       559 3.00757E+05-4.50098E+05 3.54807E+03-5.10119E+05 1.96160E-08-1.78297E-08
 -1       560 1.73718E+05-3.38135E+05-5.33855E+02-3.93024E+05 1.45810E-08 1.12777E-09
 -1       561 2.84463E+05-4.43680E+05 4.62935E+02-5.21153E+05 6.79574E-09 1.74769E-08
 -1       562 1.63568E+05-3.31805E+05-9.08262E+02-4.00351E+05 5.60249E-09-8.52378E-09
 -1       563 2.72437E+05-4.38434E+05 6.63551E+01-5.28984E+05 1.15688E-09 4.01724E-09
 -1       564 1.56393E+05-3.27328E+05-4.27790E+02-4.05428E+05-5.82077E-11 1.63254E-09
 -1       565 2.64579E+05-4.35013E+05 5.24000E+01-5.33998E+05 7.25049E-09 3.63843E-09
 -1       566 1.52300E+05-3.24734E+05-1.89388E+02-4.08292E+05-3.55794E-09-4.12183E-09
 -1       567 2.60923E+05-4.33421E+05-3.00649E+02-5.36200E+05 2.00926E-08-8.72387E-09
 -1       568 1.51364E+05-3.24166E+05-9.62950E+02-4.09042E+05-3.57295E-09-6.78483E-09
 -1       569 2.60179E+05-4.33383E+05-2.43181E+03-5.34650E+05-1.10231E-09-7.27596E-11
 -1       570 1.54602E+05-3.27169E+05-5.34657E+03-4.08133E+05 8.13452E-09-3.57886E-09
 -1       571 2.75288E+05 9.97402E+03 1.43336E+04-8.69552E+04 9.50604E-09 8.78708E-09
 -1       572 2.77377E+05 3.70426E+03 7.02420E+03-9.53980E+04 1.71663E-08-2.42280E-08
 -1       573 2.76120E+05 1.11510E+03 3.12101E+03-8.67894E+04 1.08412E-08 8.61837E-09
 -1       574 2.76334E+05 6.10322E+02 1.56491E+03-9.56051E+04 2.18233E-09-1.15297E-08
 -1       575 2.76211E+05 3.51444E+02 7.38498E+02-8.67668E+04 3.56937E-09 8.90395E-09
 -1       576 2.76203E+05 3.54896E+02 3.77876E+02-9.56327E+04-6.61782E-09-2.40834E-09
 -1       577 2.76245E+05 2.98250E+02 1.88540E+02-8.67637E+04-3.39332E-09-2.73849E-09
 -1       578 2.76225E+05 3.22602E+02 1.08516E+02-9.56365E+04-3.80032E-09 1.22964E-08
 -1       579 2.76305E+05 2.68892E+02 7.43969E+01-8.67634E+04 3.99632E-09-6.79029E-09
 -1       580 2.76308E+05 2.81283E+02 8.55434E+01-9.56319E+04-8.81300E-09-2.03490E-08
 -1       581 2.76399E+05 2.21779E+02 1.29443E+02-8.67688E+04 4.00360E-09-8.70932E-09
 -1       582 2.76456E+05 2.55539E+02 2.62099E+02-9.55756E+04 3.79350E-09-9.50422E-10
 -1       583 2.76513E+05 2.71890E+02 5.04333E+02-8.68203E+04 1.19962E-08-7.85917E-09
 -1       584 2.76786E+05 6.81505E+02 1.13980E+03-9.51423E+04 2.71466E-08-1.51692E-08
 -1       585 2.76518E+05 1.65037E+03 2.30998E+03-8.72016E+04 1.11122E-08-1.10231E-09
 -1       586-3.27262E+03 1.07023E+05-3.02590E+03-2.39275E+05-3.55067E-09-9.30163E-09
 -1       587-1.17645E+03 1.06737E+05 5.85017E+02-2.63348E+05-5.15502E-09-1.96753E-08
 -1       588 4.92722E+02 1.06598E+05 4.41079E+03-2.39148E+05-3.82897E-09-1.63254E-09
 -1       589 4.92045E+03 1.08904E+05 1.15699E+04-2.63112E+05-5.63523E-09 1.83627E-09
 -1       590 1.57420E+04 1.05341E+05 2.43214E+04-2.39559E+05-4.54475E-09 9.78253E-09
 -1       591-6.82687E+04-1.49598E+04-2.09606E+04-2.95825E+04 7.01175E-09-4.51200E-09
 -1       592-7.19398E+04-1.84029E+04-1.13539E+04-3.31068E+04 4.84731E-09 6.53927E-09
 -1       593-7.03659E+04-1.34379E+04-4.72609E+03-3.11185E+04 2.89732E-09-4.81623E-09
 -1       594-6.90440E+04-1.53292E+04-2.35704E+03-3.32188E+04 6.40834E-09 1.96867E-08
 -1       595-7.05258E+04-1.34328E+04-1.08221E+03-3.11883E+04-3.59145E-09 7.77919E-09
 -1       596-6.88458E+04-1.51886E+04-5.50100E+02-3.31954E+04 8.65805E-09 6.19127E-09
 -1       597-7.05459E+04-1.34470E+04-2.99447E+02-3.11910E+04 6.55507E-09 3.13469E-09
 -1       598-6.88263E+04-1.51831E+04-2.40541E+02-3.31888E+04-2.63236E-09-4.85016E-09
 -1       599-7.05447E+04-1.34475E+04-3.07037E+02-3.11906E+04 8.71523E-10-1.24286E-08
 -1       600-6.88460E+04-1.51892E+04-5.70197E+02-3.31935E+04 1.44297E-09 2.04381E-09
 -1       601-7.05215E+04-1.34339E+04-1.12477E+03-3.11873E+04 2.85718E-09-5.54337E-09
 -1       602-6.90519E+04-1.53344E+04-2.45128E+03-3.32143E+04 3.07591E-09-9.99171E-09
 -1       603-7.03526E+04-1.34419E+04-4.91581E+03-3.11154E+04 5.28303E-09-1.99775E-08
 -1       604-7.20804E+04-1.85132E+04-1.18089E+04-3.30746E+04 4.36557E-09-2.78171E-08
 -1       605-6.81525E+04-1.50415E+04-2.18007E+04-2.95359E+04 8.92481E-09 2.95404E-09
 -1       606 2.66639E+04-1.35046E+04-2.42196E+04 2.43250E+04 3.09865E-09-2.50452E-09
 -1       607 2.25246E+04-4.40516E+03-1.20611E+04 2.73298E+04 1.10049E-09-9.15861E-09
 -1       608 2.48822E+04-7.89605E+02-5.39957E+03 2.41489E+04-2.58478E-09-2.06342E-09
 -1       609 2.44283E+04-2.64203E+02-2.72764E+03 2.75461E+04 2.28465E-09 5.44992E-09
 -1       610 2.46788E+04-3.10115E+01-1.30157E+03 2.41282E+04 6.18911E-09 7.14635E-10
 -1       611 2.46059E+04-2.91910E+01-6.56236E+02 2.75696E+04 7.18865E-09-1.19226E-08
 -1       612 2.46327E+04-1.70083E+01-3.12154E+02 2.41261E+04 1.83081E-09 9.03947E-09
 -1       613 2.46150E+04-2.43344E+01-1.40021E+02 2.75723E+04-8.25366E-10 4.34943E-09
 -1       614 2.46104E+04-2.21807E+01-3.32674E+01 2.41254E+04-1.21963E-09-5.43264E-09
 -1       615 2.46086E+04-2.21508E+01 5.77108E+01 2.75728E+04-2.76941E-10 9.28139E-10
 -1       616 2.45930E+04-1.85937E+01 1.73941E+02 2.41257E+04 2.15960E-09-5.36488E-09
 -1       617 2.46285E+04 1.55568E+01 3.97242E+02 2.75723E+04 1.49089E-09-2.89151E-09
 -1       618 2.45578E+04 9.64153E+01 8.00823E+02 2.41259E+04 2.32103E-09-1.50283E-08
 -1       619 2.49106E+04 6.35157E+02 1.79841E+03 2.75716E+04-2.07569E-09 1.17598E-09
 -1       620 2.42914E+04 1.99574E+03 3.61476E+03 2.41269E+04-1.62504E-09 5.05315E-09
 -1       621 4.44797E+02 2.84418E+05 3.53388E+03 3.54915E+04 9.50422E-10-6.80302E-10
 -1       622 5.80649E+02 2.85246E+05 3.16848E+03 5.15448E+04 9.53150E-10 4.23461E-09
 -1       623 1.05772E+02 2.84600E+05 3.85105E+03 3.53295E+04 1.11959E-09-9.08767E-09
 -1       624 1.94341E+03 2.86412E+05 7.50033E+03 5.17052E+04 1.03955E-09-5.06407E-09
 -1       625 1.91187E+03 2.83115E+05 1.31236E+04 3.53264E+04 1.05501E-09-1.21831E-08
 -1       626 2.47497E+05 5.94088E+04 4.97434E+03 1.21658E+05-2.99133E-09 4.36557E-09
 -1       627 2.45186E+05 6.08248E+04 2.39708E+03 1.25873E+05-5.45424E-09-8.57324E-09
 -1       628 2.47625E+05 5.71274E+04 1.01363E+03 1.22497E+05-1.16052E-08 1.65992E-08
 -1       629 2.44561E+05 6.01714E+04 4.96127E+02 1.26113E+05-1.21186E-08 1.97779E-08
 -1       630 2.47638E+05 5.70175E+04 2.30042E+02 1.22531E+05-7.87077E-09-7.24327E-10
 -1       631 2.44494E+05 6.01473E+04 1.23657E+02 1.26115E+05 2.94312E-09 1.73513E-08
 -1       632 2.47634E+05 5.70219E+04 8.11397E+01 1.22526E+05-2.09820E-09 4.99392E-09
 -1       633 2.44485E+05 6.01497E+04 9.00197E+01 1.26110E+05-8.51719E-09-3.61888E-09
 -1       634 2.47629E+05 5.70198E+04 1.45153E+02 1.22525E+05 1.43700E-10-1.96583E-08
 -1       635 2.44498E+05 6.01485E+04 2.93524E+02 1.26115E+05 2.30655E-08 1.91058E-08
 -1       636 2.47619E+05 5.70148E+04 5.92677E+02 1.22524E+05 1.80518E-08 4.94765E-09
 -1       637 2.44625E+05 6.02408E+04 1.30301E+03 1.26114E+05 2.19051E-08 2.29211E-08
 -1       638 2.47573E+05 5.73029E+04 2.67724E+03 1.22394E+05 1.06252E-08-6.28279E-09
 -1       639 2.46031E+05 6.21967E+04 6.33433E+03 1.25699E+05 7.02926E-09-8.68204E-09
 -1       640 2.47379E+05 6.31420E+04 1.31449E+04 1.19931E+05 5.20185E-09-7.25800E-09
 -1       656 6.34882E+04-1.62296E+06-1.53259E+05-2.07541E+03 1.45519E-11-1.37065E-08
 -1       657-8.39803E+04-1.69220E+06-1.26946E+05 5.68200E+03 2.59206E-10-3.48791E-10
 -1       658 2.02295E+04-1.64263E+06-7.81584E+04-4.00217E+03 4.57021E-11 1.10408E-08
 -1       659-9.07444E+04-1.69541E+06-1.35834E+05 7.24367E+03-2.04909E-09-6.73168E-10
 -1       660 7.02371E+04-1.61976E+06-1.68541E+05-3.63706E+03-2.00089E-09 2.44862E-09
 -1       661 1.59067E+05 1.67500E+04 1.65467E+04 6.21876E+04 2.20098E-10 6.54836E-10
 -1       662 1.68330E+05 2.90939E+04 1.11510E+04 5.85802E+04 1.66324E-09 2.53112E-09
 -1       663 1.62317E+05 2.20589E+04 3.90006E+03 6.12451E+04-1.78488E-10-6.18297E-09
 -1       664 1.64564E+05 2.28847E+04 2.33285E+03 5.97308E+04 3.81164E-10-1.66777E-08
 -1       665 1.62809E+05 2.27847E+04 9.20303E+02 6.11021E+04-1.39931E-09 7.84198E-09
 -1       666 1.63982E+05 2.20541E+04 5.38430E+02 5.99169E+04 3.35120E-09-3.95161E-09
 -1       667 1.62895E+05 2.28678E+04 2.85891E+02 6.10668E+04-6.58360E-10-3.41700E-11
 -1       668 1.63888E+05 2.19937E+04 2.91051E+02 5.99682E+04-5.06476E-09 1.53918E-08
 -1       669 1.62902E+05 2.28435E+04 3.93850E+02 6.10512E+04 9.18021E-10-4.47548E-09
 -1       670 1.63984E+05 2.22069E+04 8.57422E+02 5.99706E+04-7.18512E-09-2.46776E-08
 -1       671 1.62798E+05 2.26590E+04 1.52236E+03 6.10624E+04 4.04075E-09-1.51634E-08
 -1       672 1.64871E+05 2.36878E+04 3.89487E+03 5.97556E+04 3.51186E-09-6.04479E-09
 -1       673 1.62019E+05 2.14000E+04 6.52716E+03 6.12519E+04 2.03022E-09-9.96715E-09
 -1       674 1.71084E+05 3.41738E+04 1.86663E+04 5.79299E+04-4.03008E-09-2.76577E-09
 -1       675 1.56626E+05 1.24666E+04 2.77073E+04 6.27779E+04-2.12367E-10-1.16142E-08
 -1       676 2.32644E+01-2.85071E+05-1.07694E+03-1.02284E+02 1.16063E-09-1.08792E-09
 -1       677-2.85342E+02-2.85331E+05-1.97097E+03 2.04413E+02 6.98705E-09-4.73680E-09
 -1       678 1.91011E+02-2.84886E+05-3.48418E+03-1.02061E+02 1.13459E-09-2.16715E-09
 -1       679-3.48465E+03-2.87435E+05-8.27691E+03 2.03561E+02 7.60724E-09-1.47425E-08
 -1       680 2.08019E+03-2.82969E+05-1.33396E+04-1.00299E+02 1.48430E-09-5.10647E-09
 -1       771-2.96488E+06-7.00113E+05-1.45933E+05-1.40189E+06-3.14612E-08-2.68337E-08
 -1       772-2.89579E+06-7.82099E+05-7.54736E+04-1.49641E+06-2.59170E-08 1.18125E-08
 -1       773-2.99235E+06-6.78632E+05-3.79687E+04-1.41401E+06-1.51340E-08 1.00845E-08
 -1       774-2.88624E+06-7.65941E+05-1.70468E+04-1.51832E+06 2.42144E-08-1.36788E-09
 -1       775-3.00618E+06-6.68909E+05-1.24147E+04-1.41963E+06 1.94996E-09 5.22414E-09
 -1       776-2.89609E+06-7.63600E+05-4.69755E+03-1.53462E+06-7.27596E-11-3.34694E-09
 -1       777-3.01806E+06-6.60311E+05-5.36511E+03-1.42457E+06 3.55067E-09-2.58296E-09
 -1       778-2.90645E+06-7.61484E+05-1.53574E+03-1.54858E+06 7.88714E-09 4.74392E-09
 -1       779-3.02822E+06-6.52836E+05-2.64299E+03-1.42880E+06-4.17640E-09-7.51243E-09
 -1       780-2.91554E+06-7.59469E+05-4.40262E+02-1.55994E+06-2.56841E-09 6.11180E-10
 -1       781-3.03627E+06-6.46829E+05-1.01171E+03-1.43210E+06-2.78524E-08-6.90125E-09
 -1       782-2.92253E+06-7.57751E+05 3.84379E+02-1.56832E+06-3.06754E-08-5.55974E-09
 -1       783-3.04192E+06-6.42671E+05 6.09668E+02-1.43441E+06-1.44937E-08-2.79856E-08
 -1       784-2.92636E+06-7.55958E+05 2.45915E+03-1.57348E+06-2.23990E-08 1.65437E-09
 -1       785-3.04526E+06-6.40188E+05 4.34808E+03-1.43590E+06-3.18905E-08 6.44650E-09
 -1       786 1.21888E+05-9.50252E+03 2.19845E+04-2.74175E+02 3.04429E-09 2.14313E-08
 -1       787 1.31423E+05 1.10015E+04 1.55532E+04-9.52989E+01 4.82129E-09-3.66049E-09
 -1       788 1.25564E+05-1.48920E+03 5.68799E+03-2.41488E+02 5.01523E-09 9.67157E-09
 -1       789 1.27140E+05 1.72344E+03 3.57089E+03-1.45949E+02-5.56902E-10 6.78892E-09
 -1       790 1.26171E+05-2.32007E+02 1.44618E+03-2.23539E+02-3.75343E-09-3.71733E-09
 -1       791 1.26430E+05 2.68252E+02 8.36045E+02-1.76773E+02-4.18074E-09 8.35682E-09
 -1       792 1.26274E+05-3.51024E+01 3.55803E+02-2.10666E+02-4.37972E-09 1.40073E-08
 -1       793 1.26308E+05 3.75650E+01 1.80720E+02-2.00957E+02 7.28219E-10-7.97120E-09
 -1       794 1.26294E+05-1.46573E+00 5.36798E+01-1.99355E+02 4.63585E-09 5.47762E-09
 -1       795 1.26274E+05-2.11239E+01-3.82323E+01-2.24458E+02-2.90296E-09 2.07257E-08
 -1       796 1.26308E+05 2.35542E+01-1.27358E+02-1.87165E+02 2.83919E-09 1.12192E-09
 -1       797 1.26197E+05-1.77241E+02-3.58248E+02-2.52288E+02 3.50020E-09-2.05817E-08
 -1       798 1.26371E+05 1.54534E+02-5.84175E+02-1.71525E+02 1.86163E-09-1.47019E-08
 -1       799 1.25753E+05-1.13967E+03-1.60924E+03-2.90651E+02 5.52319E-09-8.21422E-09
 -1       800 1.26752E+05 9.85196E+02-2.27796E+03-1.48802E+02 2.61593E-10 4.53429E-09
 -1       801-1.01699E+05-8.72060E+06-1.17849E+06 1.11402E+06 8.33825E-08-4.97203E-08
 -1       802 5.41826E+05 3.96671E+06 1.68282E+06-1.34288E+06 2.33347E-07-2.51093E-08
 -1       803-4.21384E+05-1.20189E+07-1.50764E+06 7.06255E+05 7.07914E-08 1.18871E-08
 -1       804 2.11026E+05 1.07835E+06 1.18772E+06 5.79857E+05-1.03846E-07-8.38928E-08
 -1       805 1.63666E+05-5.84734E+06-2.33460E+05-8.04142E+05-4.31246E-08-5.87161E-08
 -1       806-2.94657E+05-5.66122E+04-2.16844E+04-1.16306E+05 2.76304E-09 1.30276E-08
 -1       807-2.96423E+05-5.30118E+04-1.06533E+04-1.21496E+05 2.45907E-08 1.62056E-08
 -1       808-2.95247E+05-4.88021E+04-4.51951E+03-1.20006E+05 4.06135E-09-3.09876E-09
 -1       809-2.94186E+05-5.00157E+04-2.20995E+03-1.21754E+05-5.57179E-09-3.61729E-09
 -1       810-2.95337E+05-4.85301E+04-1.01293E+03-1.20170E+05 4.57067E-09 1.75121E-08
 -1       811-2.94014E+05-4.98950E+04-5.03742E+02-1.21721E+05 2.00089E-11 2.16764E-08
 -1       812-2.95351E+05-4.85533E+04-2.54786E+02-1.20170E+05-5.78711E-09 5.07816E-09
 -1       813-2.93990E+05-4.98969E+04-1.65651E+02-1.21703E+05-2.96541E-09-1.05363E-08
 -1       814-2.95345E+05-4.85622E+04-1.64209E+02-1.20166E+05-1.45683E-08 1.74427E-08
 -1       815-2.93994E+05-4.98988E+04-2.64728E+02-1.21697E+05-2.14163E-08 1.54175E-08
 -1       816-2.95326E+05-4.85608E+04-5.01732E+02-1.20163E+05-6.54563E-09 2.52980E-08
 -1       817-2.94080E+05-4.99465E+04-1.07698E+03-1.21687E+05-1.04155E-08 2.08490E-08
 -1       818-2.95262E+05-4.87122E+04-2.19658E+03-1.20092E+05-6.52108E-09-1.17016E-08
 -1       819-2.95283E+05-5.12742E+04-5.16868E+03-1.21404E+05-1.01754E-08-1.37827E-08
 -1       820-2.94850E+05-5.26146E+04-1.05200E+04-1.18422E+05-7.42511E-09 8.11974E-09
 -1       821-3.63820E+05 2.00453E+04-4.64459E+04 1.42593E+03 1.00607E-08 9.02764E-09
 -1       822-3.83596E+05-2.32095E+04-3.28058E+04-2.67732E+03 2.48674E-09 1.94213E-08
 -1       823-3.71396E+05 3.14802E+03-1.20176E+04 2.02245E+03-7.61477E-09-1.60071E-09
 -1       824-3.74629E+05-3.63717E+03-7.54774E+03-2.92609E+03-2.36835E-10-2.95142E-09
 -1       825-3.72785E+05 4.89326E+02-3.12780E+03 1.67474E+03 1.23825E-08 4.84033E-09
 -1       826-3.72827E+05-5.66284E+02-1.80085E+03-1.47469E+03 1.35813E-08-3.13327E-09
 -1       827-3.73188E+05 7.26737E+01-1.03199E+03 5.71001E+02 6.62662E-09 3.21197E-09
 -1       828-3.72503E+05-1.61993E+02-7.62854E+02 9.00780E+02-1.70542E-09 2.22479E-08
 -1       829-3.73106E+05 8.28901E+01-1.03733E+03-7.00758E+02 7.19396E-10-1.13968E-09
 -1       830-3.73015E+05-6.02722E+02-1.90297E+03 2.93114E+03 2.39922E-10 6.25468E-09
 -1       831-3.72684E+05 5.19422E+02-3.22493E+03-1.45939E+03-3.95216E-09-1.32695E-09
 -1       832-3.74716E+05-3.78817E+03-7.84444E+03 3.52938E+03-2.22329E-09-6.93592E-09
 -1       833-3.71410E+05 3.26939E+03-1.24969E+04-1.29901E+03-1.78497E-09 1.64987E-08
 -1       834-3.83830E+05-2.41070E+04-3.40416E+04 2.35405E+03-2.18983E-09 1.81972E-08
 -1       835-3.63567E+05 2.08169E+04-4.82666E+04-2.84030E+02 4.98389E-09-1.40790E-08
 -1       836-1.32383E+03 3.50074E+05 2.16004E+04-1.58724E+04-5.67161E-09 1.39116E-08
 -1       837 4.62268E+03 3.56831E+05 1.83133E+04-3.23112E+04-5.88966E-09-2.66891E-09
 -1       838-5.20361E+02 3.51965E+05 1.87088E+04-1.58032E+04-4.98540E-09-5.28917E-09
 -1       839 1.18116E+04 3.62187E+05 3.54404E+04-3.23610E+04-5.37921E-09 5.99135E-09
 -1       840-3.63939E+03 3.44664E+05 5.65357E+04-1.58268E+04-4.90036E-09-9.34936E-09
 -1       856-5.62486E+04 7.87901E+03-2.07630E+04-3.96040E+02 3.14355E-09-7.44694E-09
 -1       857-6.48067E+04-9.25448E+03-1.42933E+04 5.42676E+03 4.68026E-09 1.10958E-10
 -1       858-5.96363E+04 1.10478E+03-5.38763E+03-4.19440E+02 6.17206E-10-9.49876E-09
 -1       859-6.09185E+04-1.29684E+03-3.25154E+03 5.46197E+03-5.09033E-09 8.16937E-09
 -1       860-6.01425E+04 1.54535E+02-1.36327E+03-4.31056E+02-8.39435E-10 2.77522E-08
 -1       861-6.03362E+04-1.81794E+02-7.51138E+02 5.47782E+03-3.69770E-09 1.72692E-08
 -1       862-6.02216E+04 2.08241E+01-3.14586E+02-4.35276E+02-1.00031E-09-8.36181E-09
 -1       863-6.02396E+04-1.92822E+01-1.19926E+02 5.48020E+03-5.39710E-09-9.16296E-09
 -1       864-6.02396E+04-4.30073E+00 3.43465E+01-4.33433E+02-5.97609E-10-7.71099E-09
 -1       865-6.01882E+04 5.53594E+01 2.23901E+02 5.46988E+03 8.84654E-10 1.85645E-09
 -1       866-6.02710E+04-5.38859E+01 4.57396E+02-4.24961E+02 1.96854E-09-1.79714E-08
 -1       867-5.99715E+04 4.45791E+02 1.12978E+03 5.44684E+03-4.50473E-09 1.66014E-09
 -1       868-6.04517E+04-3.87840E+02 1.87833E+03-4.10397E+02-2.23469E-09-6.77915E-10
 -1       869-5.85933E+04 3.22799E+03 5.00280E+03 5.40868E+03-2.44279E-09-1.52681E-08
 -1       870-6.16419E+04-2.76074E+03 7.26002E+03-3.86727E+02-4.90832E-09-6.59747E-09
 -1       871-5.30610E+03-1.90847E+04-1.84686E+04 1.23462E+05-3.94175E-09 1.61690E-08
 -1       872-1.97820E+03-2.33532E+04-7.70905E+03 1.60083E+05-8.61473E-09-3.83625E-09
 -1       873 3.09028E+02-2.13001E+04 6.20144E+02 1.23191E+05-4.91309E-09 5.93673E-10
 -1       874 3.06845E+03-1.89621E+04 9.41012E+03 1.60114E+05-9.19135E-09-7.45604E-09
 -1       875 6.49370E+03-2.35421E+04 2.11812E+04 1.23417E+05-3.65981E-09-2.93130E-09
 -1       876 2.80977E+05 4.74813E+04 1.44933E+04 1.12906E+05 7.16739E-09 2.39452E-08
 -1       877 2.81922E+05 5.05462E+04 7.73999E+03 1.17074E+05 9.68726E-09-3.29965E-09
 -1       878 2.82332E+05 4.58762E+04 3.24268E+03 1.14093E+05 5.16593E-09-4.92855E-09
 -1       879 2.79952E+05 4.85803E+04 1.61567E+03 1.17173E+05 8.25162E-09-1.75838E-08
 -1       880 2.82429E+05 4.58595E+04 7.52537E+02 1.14142E+05 2.90947E-09 1.64243E-09
 -1       881 2.79821E+05 4.84963E+04 4.01795E+02 1.17150E+05-3.86808E-09 1.02821E-08
 -1       882 2.82438E+05 4.58721E+04 2.56934E+02 1.14143E+05 7.93079E-10 7.48535E-10
 -1       883 2.79812E+05 4.84920E+04 2.76029E+02 1.17143E+05-3.71682E-09 4.95788E-09
 -1       884 2.82432E+05 4.58693E+04 4.38933E+02 1.14144E+05 6.12931E-09 5.90944E-09
 -1       885 2.79847E+05 4.84981E+04 8.82397E+02 1.17154E+05-3.42618E-09 6.73384E-09
 -1       886 2.82397E+05 4.58436E+04 1.77839E+03 1.14140E+05-6.93777E-09 1.04717E-08
 -1       887 2.80159E+05 4.87030E+04 3.88464E+03 1.17199E+05 2.99156E-09 1.26183E-08
 -1       888 2.82152E+05 4.58868E+04 7.82766E+03 1.14016E+05-1.74686E-09-6.34736E-09
 -1       889 2.84820E+05 5.35489E+04 1.86989E+04 1.17056E+05 4.56956E-09-3.05681E-09
 -1       890 2.78958E+05 4.96806E+04 3.50226E+04 1.11035E+05 3.67936E-09 8.51287E-09
 -1       891-9.94545E+01-1.56113E+05-1.90835E+03 2.64570E+04-4.37694E-10 8.31778E-09
 -1       892-1.89053E+02-1.56610E+05-2.05163E+03 4.01510E+04 1.94473E-09 9.94078E-09
 -1       893 2.77910E+01-1.56175E+05-2.90693E+03 2.64639E+04 7.26914E-10 8.32915E-09
 -1       894-1.46761E+03-1.57710E+05-6.01782E+03 4.00033E+04 3.38150E-09 2.52021E-08
 -1       895-1.16249E+03-1.54921E+05-1.05978E+04 2.66057E+04 1.72008E-10-2.11548E-09
 -1       956-3.60024E+05-5.16701E+03-1.28044E+04 2.85907E+04 3.84989E-09 1.17052E-08
 -1       957-3.62539E+05-1.80702E+03-6.57250E+03 3.43727E+04-3.20870E-09-7.64271E-09
 -1       958-3.61172E+05-2.10683E+02-2.96164E+03 2.84325E+04-2.15641E-09-8.95920E-09
 -1       959-3.61362E+05-1.08266E+02-1.51237E+03 3.45550E+04 1.23691E-09 1.77033E-08
 -1       960-3.61282E+05-2.53536E+01-7.37483E+02 2.84164E+04 3.69164E-09-2.88742E-09
 -1       961-3.61283E+05-3.98307E+01-3.91119E+02 3.45739E+04 5.86442E-09-1.32941E-08
 -1       962-3.61307E+05-2.72858E+01-2.24020E+02 2.84137E+04 3.38923E-09 6.89624E-09
 -1       963-3.61283E+05-3.63276E+01-1.80031E+02 3.45772E+04 6.16774E-09 1.30019E-08
 -1       964-3.61312E+05-2.42609E+01-2.19103E+02 2.84130E+04 1.54012E-09 6.67728E-09
 -1       965-3.61295E+05-3.33841E+01-3.79099E+02 3.45766E+04-1.95769E-10 3.71870E-09
 -1       966-3.61297E+05-1.63616E+01-7.12311E+02 2.84143E+04 8.22320E-09-1.17507E-09
 -1       967-3.61382E+05-9.33205E+01-1.46100E+03 3.45635E+04-2.89879E-09-7.45968E-09
 -1       968-3.61200E+05-1.89574E+02-2.85997E+03 2.84260E+04 5.19231E-09-3.78986E-09
 -1       969-3.62530E+05-1.72924E+03-6.34924E+03 3.44268E+04 1.67161E-08 8.81789E-09
 -1       970-3.60098E+05-4.97390E+03-1.23684E+04 2.85448E+04 7.59655E-09 1.80626E-09
 -1       971-3.30910E+05-1.66436E+03-9.01661E+03 1.48706E+04 3.92083E-09-9.68132E-09
 -1       972-3.33084E+05-1.21997E+03-4.91037E+03 2.06029E+04 2.16369E-09-1.96087E-09
 -1       973-3.31914E+05-5.16486E+01-2.19931E+03 1.47522E+04-2.76032E-09-4.62410E-09
 -1       974-3.32048E+05-6.69393E+01-1.13996E+03 2.07359E+04-3.46517E-10-1.42559E-08
 -1       975-3.31993E+05-8.39980E+00-5.70033E+02 1.47404E+04-3.23917E-09 2.49474E-09
 -1       976-3.31989E+05-1.88427E+01-3.29263E+02 2.07509E+04 1.96746E-09 9.39872E-09
 -1       977-3.32009E+05-7.83499E+00-2.39670E+02 1.47372E+04 3.78350E-10 2.85706E-09
 -1       978-3.31994E+05-1.29378E+01-2.81420E+02 2.07554E+04 4.18208E-09 6.93410E-09
 -1       979-3.32009E+05 2.24294E-01-4.52969E+02 1.47358E+04-2.66147E-09 1.46518E-08
 -1       980-3.32027E+05-1.00250E+01-8.75137E+02 2.07563E+04 2.01626E-09 4.01565E-09
 -1       981-3.31981E+05 2.20931E+01-1.69520E+03 1.47363E+04 5.55178E-09 3.89781E-09
 -1       982-3.32260E+05-1.35250E+02-3.50409E+03 2.07499E+04 1.31377E-09 2.23119E-09
 -1       983-3.31767E+05-8.64077E+01-6.80853E+03 1.47422E+04 3.85262E-09 6.67796E-10
 -1       984-3.35535E+05-3.69106E+03-1.52474E+04 2.06669E+04 6.90579E-09 2.79601E-09
 -1       985-3.28685E+05-5.06844E+03-2.79989E+04 1.48139E+04-8.81755E-10 2.20152E-08
 -3
    1PSTEP                        29          15           1          
  100CL  115 6.38742E-01         409                     0   15           1
 -4  DISP        4    1
 -5  D1          1    2    1    0
 -5  D2          1    2    2    0
 -5  D3          1    2    3    0
 -5  ALL         1    2    0    0    1ALL
 -1         1 2.14552E-03 0.00000E+00 0.00000E+00
 -1         2 6.76487E-04-4.39148E-27-2.64698E-23
 -1         3 3.12277E-04-8.18669E-28 0.00000E+00
 -1         5 1.65548E-04-9.41999E-28 1.44757E-24
 -1         8 2.13658E-03-4.70836E-07 0.00000E+00
 -1         9 2.14503E-03-2.24221E-04 0.00000E+00
 -1        10 2.83528E-04-3.25980E-06-6.61744E-24
 -1        12 1.67008E-04 7.65372E-07-1.34417E-24
 -1        15 2.12665E-03-4.89802E-07-1.03398E-25
 -1        16 2.20614E-03-2.25751E-04 0.00000E+00
 -1        17 1.94056E-04-7.33478E-06 0.00000E+00
 -1        18 1.69870E-04 2.89555E-05 0.00000E+00
 -1        19 1.71388E-04 1.52540E-06 0.00000E+00
 -1        20 1.71530E-04-5.72117E-06 0.00000E+00
 -1        21 1.70698E-04-1.65337E-05-3.30872E-24
 -1        24 2.90295E-05-1.10803E-05 0.00000E+00
 -1        25 1.78712E-04 2.91646E-05 0.00000E+00
 -1        26 1.79390E-04 2.11297E-06 0.00000E+00
 -1        27 1.77309E-04-9.10946E-06 0.00000E+00
 -1        28 1.76974E-04-1.71311E-05 0.00000E+00
 -1        32 0.00000E+00 0.00000E+00 0.00000E+00
 -1        33 1.86382E-04 2.82797E-06 0.00000E+00
 -1        34 1.84363E-04-9.15846E-06 0.00000E+00
 -1        35 1.82514E-04-1.74580E-05 0.00000E+00
 -1        51 2.14490E-03-9.62509E-08 4.39440E-24
 -1        52 2.14379E-03-1.74173E-07-3.30872E-24
 -1        53 2.14229E-03-2.48482E-07-3.30872E-24
 -1        54 2.14051E-03-3.21329E-07-1.65436E-24
 -1        55 2.13857E-03-3.94434E-07 0.00000E+00
 -1        56 2.13863E-03 6.49188E-06-5.29396E-23
 -1        57 2.12600E-03 2.72483E-05 0.00000E+00
 -1        58 2.10965E-03 5.72398E-05 1.05879E-22
 -1        59 2.09191E-03 9.05346E-05 0.00000E+00
 -1        60 2.07548E-03 1.20644E-04 1.05879E-22
 -1        61 2.06285E-03 1.41345E-04 0.00000E+00
 -1        62 2.05566E-03 1.48103E-04-1.05879E-22
 -1        63 2.05493E-03 1.37629E-04 0.00000E+00
 -1        64 2.06038E-03 1.09801E-04 1.05879E-22
 -1        65 2.07119E-03 6.61251E-05 5.29396E-23
 -1        66 2.08569E-03 1.10986E-05 0.00000E+00
 -1        67 2.10201E-03-4.96829E-05 0.00000E+00
 -1        68 2.11803E-03-1.09520E-04 0.00000E+00
 -1        69 2.13168E-03-1.61798E-04 0.00000E+00
 -1        70 2.14115E-03-2.01356E-04 1.05879E-22
 -1        86 7.69137E-04-6.54564E-06 5.29396E-23
 -1        87 1.03743E-03-4.42105E-05-1.32349E-23
 -1        88 1.39730E-03-1.09275E-04-2.64698E-23
 -1        89 1.76154E-03-1.75990E-04-1.32349E-23
 -1        90 2.04017E-03-2.16382E-04 0.00000E+00
 -1       121 3.11470E-04-5.28906E-07 1.32349E-23
 -1       122 3.09052E-04-1.06031E-06 0.00000E+00
 -1       123 3.05032E-04-1.59668E-06 0.00000E+00
 -1       124 2.99423E-04-2.14049E-06-6.61744E-24
 -1       125 2.92247E-04-2.69386E-06 0.00000E+00
 -1       191 1.65589E-04 1.27603E-07 2.48154E-24
 -1       192 1.65711E-04 2.55199E-07 1.03398E-24
 -1       193 1.65913E-04 3.82782E-07-7.23783E-25
 -1       194 1.66197E-04 5.10345E-07 3.10193E-25
 -1       195 1.66562E-04 6.37877E-07 2.37814E-24
 -1       251 2.13718E-03-1.73452E-06-6.61744E-24
 -1       252 2.13779E-03-8.59798E-06 0.00000E+00
 -1       253 2.13837E-03-1.93762E-05 0.00000E+00
 -1       254 2.13892E-03-3.24900E-05 6.61744E-24
 -1       255 2.13946E-03-4.72300E-05 0.00000E+00
 -1       256 2.13998E-03-6.29308E-05 0.00000E+00
 -1       257 2.14049E-03-7.92859E-05-2.64698E-23
 -1       258 2.14100E-03-9.60062E-05 0.00000E+00
 -1       259 2.14150E-03-1.12940E-04 2.64698E-23
 -1       260 2.14200E-03-1.29941E-04-6.61744E-24
 -1       261 2.14251E-03-1.46887E-04 0.00000E+00
 -1       262 2.14301E-03-1.63657E-04-6.61744E-24
 -1       263 2.14352E-03-1.80060E-04 0.00000E+00
 -1       264 2.14402E-03-1.95899E-04 3.30872E-24
 -1       265 2.14455E-03-2.10764E-04 1.65436E-24
 -1       266 2.13492E-03-4.79536E-07-1.65436E-24
 -1       267 2.13327E-03-4.82022E-07 0.00000E+00
 -1       268 2.13162E-03-4.84902E-07-4.13590E-25
 -1       269 2.12996E-03-4.86615E-07 0.00000E+00
 -1       270 2.12831E-03-4.88301E-07-2.06795E-25
 -1       271 2.13591E-03-7.93192E-07 1.32349E-23
 -1       272 2.13644E-03-4.38469E-06-1.32349E-23
 -1       273 2.13809E-03-1.10023E-05 0.00000E+00
 -1       274 2.14075E-03-2.03837E-05 0.00000E+00
 -1       275 2.14431E-03-3.22373E-05 2.64698E-23
 -1       276 2.14865E-03-4.62502E-05-1.32349E-23
 -1       277 2.15365E-03-6.20876E-05 0.00000E+00
 -1       278 2.15917E-03-7.93984E-05-1.32349E-23
 -1       279 2.16508E-03-9.78169E-05 0.00000E+00
 -1       280 2.17126E-03-1.16967E-04 1.32349E-23
 -1       281 2.17755E-03-1.36466E-04-2.64698E-23
 -1       282 2.18384E-03-1.55927E-04 1.32349E-23
 -1       283 2.18997E-03-1.74964E-04 2.64698E-23
 -1       284 2.19582E-03-1.93195E-04 0.00000E+00
 -1       285 2.20125E-03-2.10246E-04-1.32349E-23
 -1       301 2.15589E-03-2.24504E-04-1.32349E-23
 -1       302 2.16542E-03-2.24746E-04-6.61744E-24
 -1       303 2.17440E-03-2.24982E-04 1.32349E-23
 -1       304 2.18365E-03-2.25218E-04 0.00000E+00
 -1       305 2.19396E-03-2.25467E-04 0.00000E+00
 -1       306 2.17965E-03-3.59357E-04-1.05879E-22
 -1       307 2.24437E-03-7.22792E-04 1.05879E-22
 -1       308 2.30322E-03-1.25395E-03 0.00000E+00
 -1       309 2.34825E-03-1.86930E-03 0.00000E+00
 -1       310 2.39759E-03-2.45913E-03 0.00000E+00
 -1       311 2.46266E-03-2.91614E-03-5.29396E-23
 -1       312 2.51859E-03-3.17056E-03-1.05879E-22
 -1       313 2.51703E-03-3.18562E-03 5.29396E-23
 -1       314 2.40121E-03-2.97077E-03 0.00000E+00
 -1       315 2.13821E-03-2.57524E-03-5.29396E-23
 -1       316 1.74478E-03-2.06558E-03 0.00000E+00
 -1       317 1.27471E-03-1.50514E-03-5.29396E-23
 -1       318 8.20827E-04-9.55176E-04-1.05879E-22
 -1       319 4.71276E-04-4.79506E-04-5.29396E-23
 -1       320 2.63162E-04-1.42891E-04 0.00000E+00
 -1       336 2.73097E-04-3.88331E-06 0.00000E+00
 -1       337 2.60793E-04-4.52781E-06 0.00000E+00
 -1       338 2.46670E-04-5.19500E-06 0.00000E+00
 -1       339 2.30790E-04-5.88548E-06 6.61744E-24
 -1       340 2.13226E-04-6.60310E-06 0.00000E+00
 -1       406 1.67536E-04 8.92813E-07 1.24077E-24
 -1       407 1.68144E-04 1.02017E-06 7.75482E-25
 -1       408 1.68834E-04 1.14740E-06 3.30872E-24
 -1       409 1.69604E-04 1.27433E-06 8.27181E-25
 -1       410 1.70456E-04 1.40073E-06 0.00000E+00
 -1       521 2.24170E-03-3.70430E-04 0.00000E+00
 -1       522 2.30564E-03-7.55155E-04 0.00000E+00
 -1       523 2.35967E-03-1.31611E-03-1.05879E-22
 -1       524 2.39712E-03-1.96329E-03 5.29396E-23
 -1       525 2.43994E-03-2.58303E-03 1.05879E-22
 -1       526 2.50250E-03-3.06441E-03-5.29396E-23
 -1       527 2.55861E-03-3.33130E-03 2.11758E-22
 -1       528 2.55540E-03-3.34588E-03 0.00000E+00
 -1       529 2.42899E-03-3.11746E-03 0.00000E+00
 -1       530 2.14384E-03-2.70219E-03-5.29396E-23
 -1       531 1.71719E-03-2.17030E-03 0.00000E+00
 -1       532 1.20846E-03-1.58826E-03 0.00000E+00
 -1       533 7.16468E-04-1.01619E-03-1.05879E-22
 -1       534 3.35139E-04-5.16968E-04 5.29396E-23
 -1       535 1.06956E-04-1.59794E-04 1.05879E-22
 -1       536 1.93409E-04 2.43573E-05-6.61744E-24
 -1       537 1.91795E-04 7.94176E-05-3.30872E-24
 -1       538 1.89308E-04 1.49352E-04 0.00000E+00
 -1       539 1.86378E-04 2.25587E-04 0.00000E+00
 -1       540 1.83740E-04 2.97628E-04 3.30872E-24
 -1       541 1.82016E-04 3.55002E-04 0.00000E+00
 -1       542 1.81211E-04 3.91483E-04-3.30872E-24
 -1       543 1.81003E-04 4.00981E-04 1.65436E-24
 -1       544 1.80708E-04 3.84231E-04 3.30872E-24
 -1       545 1.79695E-04 3.42160E-04-1.65436E-24
 -1       546 1.77834E-04 2.82259E-04-3.30872E-24
 -1       547 1.75332E-04 2.12127E-04 1.65436E-24
 -1       548 1.72857E-04 1.42409E-04 0.00000E+00
 -1       549 1.71067E-04 8.37504E-05-1.65436E-24
 -1       550 1.70129E-04 4.35160E-05 0.00000E+00
 -1       551 1.71157E-04-7.84463E-06 0.00000E+00
 -1       552 1.45199E-04-8.42244E-06 0.00000E+00
 -1       553 1.17088E-04-9.05330E-06 9.92617E-24
 -1       554 8.77426E-05-9.71903E-06-3.30872E-24
 -1       555 5.80846E-05-1.03956E-05-1.32349E-23
 -1       556 1.87180E-04 1.02875E-05 5.29396E-23
 -1       557 1.81644E-04 2.45272E-05 0.00000E+00
 -1       558 1.77322E-04 3.56516E-05 5.29396E-23
 -1       559 1.74094E-04 4.39488E-05 0.00000E+00
 -1       560 1.71840E-04 4.97073E-05 0.00000E+00
 -1       561 1.70442E-04 5.32177E-05 0.00000E+00
 -1       562 1.69784E-04 5.47718E-05 0.00000E+00
 -1       563 1.69753E-04 5.46622E-05 0.00000E+00
 -1       564 1.70236E-04 5.31821E-05 0.00000E+00
 -1       565 1.71121E-04 5.06253E-05 0.00000E+00
 -1       566 1.72298E-04 4.72862E-05 0.00000E+00
 -1       567 1.73656E-04 4.34594E-05-1.65436E-24
 -1       568 1.75085E-04 3.94396E-05 0.00000E+00
 -1       569 1.76477E-04 3.55214E-05 0.00000E+00
 -1       570 1.77722E-04 3.19997E-05 0.00000E+00
 -1       571 1.69962E-04 2.71767E-05 8.27181E-25
 -1       572 1.70056E-04 2.53370E-05 0.00000E+00
 -1       573 1.70151E-04 2.34506E-05 0.00000E+00
 -1       574 1.70246E-04 2.15325E-05-1.65436E-24
 -1       575 1.70341E-04 1.95976E-05 0.00000E+00
 -1       576 1.70435E-04 1.76612E-05-1.65436E-24
 -1       577 1.70530E-04 1.57382E-05 0.00000E+00
 -1       578 1.70625E-04 1.38438E-05 6.61744E-24
 -1       579 1.70720E-04 1.19930E-05 0.00000E+00
 -1       580 1.70815E-04 1.02010E-05 0.00000E+00
 -1       581 1.70911E-04 8.48299E-06 0.00000E+00
 -1       582 1.71006E-04 6.85389E-06 0.00000E+00
 -1       583 1.71101E-04 5.32885E-06 0.00000E+00
 -1       584 1.71197E-04 3.92278E-06 0.00000E+00
 -1       585 1.71293E-04 2.65046E-06 0.00000E+00
 -1       586 1.71299E-04 2.89924E-05 3.30872E-24
 -1       587 1.72691E-04 2.90287E-05-2.06795E-25
 -1       588 1.74087E-04 2.90646E-05-8.27181E-25
 -1       589 1.75528E-04 2.91000E-05 0.00000E+00
 -1       590 1.77057E-04 2.91341E-05 0.00000E+00
 -1       591 1.70476E-04 2.72611E-05 0.00000E+00
 -1       592 1.71085E-04 2.55459E-05-2.06795E-25
 -1       593 1.71699E-04 2.38157E-05 0.00000E+00
 -1       594 1.72317E-04 2.20751E-05 4.13590E-25
 -1       595 1.72937E-04 2.03291E-05 0.00000E+00
 -1       596 1.73557E-04 1.85823E-05 4.13590E-25
 -1       597 1.74175E-04 1.68394E-05 0.00000E+00
 -1       598 1.74790E-04 1.51052E-05 4.13590E-25
 -1       599 1.75400E-04 1.33845E-05 8.27181E-25
 -1       600 1.76004E-04 1.16819E-05 0.00000E+00
 -1       601 1.76599E-04 1.00021E-05-8.27181E-25
 -1       602 1.77183E-04 8.34991E-06 2.06795E-25
 -1       603 1.77756E-04 6.73003E-06 4.13590E-25
 -1       604 1.78316E-04 5.14729E-06-1.42172E-25
 -1       605 1.78860E-04 3.60634E-06 4.13590E-25
 -1       606 1.71401E-04 6.19698E-07 0.00000E+00
 -1       607 1.71411E-04-1.99004E-07 0.00000E+00
 -1       608 1.71420E-04-9.35806E-07 0.00000E+00
 -1       609 1.71429E-04-1.59647E-06 0.00000E+00
 -1       610 1.71437E-04-2.18680E-06 0.00000E+00
 -1       611 1.71446E-04-2.71268E-06 0.00000E+00
 -1       612 1.71454E-04-3.17997E-06 0.00000E+00
 -1       613 1.71463E-04-3.59458E-06 0.00000E+00
 -1       614 1.71472E-04-3.96238E-06 0.00000E+00
 -1       615 1.71480E-04-4.28927E-06-8.27181E-25
 -1       616 1.71489E-04-4.58114E-06 0.00000E+00
 -1       617 1.71497E-04-4.84387E-06 0.00000E+00
 -1       618 1.71506E-04-5.08335E-06 0.00000E+00
 -1       619 1.71514E-04-5.30547E-06-2.06795E-25
 -1       620 1.71522E-04-5.51611E-06 0.00000E+00
 -1       621 1.72472E-04 1.62378E-06-1.65436E-24
 -1       622 1.73695E-04 1.72243E-06 8.27181E-25
 -1       623 1.75027E-04 1.82091E-06 0.00000E+00
 -1       624 1.76440E-04 1.91912E-06 1.65436E-24
 -1       625 1.77904E-04 2.01707E-06-1.65436E-24
 -1       626 1.71835E-04 6.53988E-07 3.30872E-24
 -1       627 1.72258E-04-1.52168E-07 0.00000E+00
 -1       628 1.72660E-04-9.00842E-07 0.00000E+00
 -1       629 1.73043E-04-1.60015E-06-1.65436E-24
 -1       630 1.73411E-04-2.25822E-06-3.30872E-24
 -1       631 1.73766E-04-2.88322E-06 0.00000E+00
 -1       632 1.74113E-04-3.48330E-06 3.30872E-24
 -1       633 1.74453E-04-4.06663E-06 1.65436E-24
 -1       634 1.74790E-04-4.64136E-06 0.00000E+00
 -1       635 1.75126E-04-5.21564E-06 0.00000E+00
 -1       636 1.75466E-04-5.79765E-06-3.30872E-24
 -1       637 1.75811E-04-6.39555E-06 1.65436E-24
 -1       638 1.76165E-04-7.01748E-06-1.65436E-24
 -1       639 1.76531E-04-7.67165E-06 0.00000E+00
 -1       640 1.76912E-04-8.36621E-06 0.00000E+00
 -1       656 1.71964E-04-6.27198E-06 6.61744E-24
 -1       657 1.72807E-04-6.84511E-06 0.00000E+00
 -1       658 1.73922E-04-7.41685E-06 1.32349E-23
 -1       659 1.75164E-04-7.98824E-06 0.00000E+00
 -1       660 1.76352E-04-8.56135E-06 6.61744E-24
 -1       661 1.71693E-04-5.96846E-06 8.27181E-25
 -1       662 1.71892E-04-6.30192E-06-8.27181E-25
 -1       663 1.72120E-04-6.71683E-06-1.65436E-24
 -1       664 1.72378E-04-7.20724E-06 0.00000E+00
 -1       665 1.72662E-04-7.76784E-06-1.65436E-24
 -1       666 1.72970E-04-8.39322E-06 8.27181E-25
 -1       667 1.73301E-04-9.07825E-06 0.00000E+00
 -1       668 1.73652E-04-9.81784E-06 0.00000E+00
 -1       669 1.74022E-04-1.06071E-05 0.00000E+00
 -1       670 1.74408E-04-1.14411E-05-8.27181E-25
 -1       671 1.74809E-04-1.23153E-05 0.00000E+00
 -1       672 1.75224E-04-1.32250E-05-8.27181E-25
 -1       673 1.75650E-04-1.41656E-05-1.65436E-24
 -1       674 1.76085E-04-1.51330E-05 0.00000E+00
 -1       675 1.76528E-04-1.61223E-05 0.00000E+00
 -1       676 1.71747E-04-1.66338E-05-3.30872E-24
 -1       677 1.72796E-04-1.67339E-05 1.65436E-24
 -1       678 1.73844E-04-1.68340E-05 0.00000E+00
 -1       679 1.74890E-04-1.69338E-05 0.00000E+00
 -1       680 1.75933E-04-1.70335E-05 0.00000E+00
 -1       771 1.81475E-05 1.31464E-05 0.00000E+00
 -1       772 8.97709E-06 3.30361E-05 0.00000E+00
 -1       773 1.43660E-06 4.88012E-05-5.29396E-23
 -1       774-4.58558E-06 6.06786E-05 0.00000E+00
 -1       775-9.19884E-06 6.89143E-05 0.00000E+00
 -1       776-1.25170E-05 7.37688E-05 0.00000E+00
 -1       777-1.46537E-05 7.55112E-05-5.29396E-23
 -1       778-1.57252E-05 7.44229E-05-2.64698E-23
 -1       779-1.58471E-05 7.07922E-05 5.29396E-23
 -1       780-1.51371E-05 6.49176E-05-2.64698E-23
 -1       781-1.37120E-05 5.71033E-05-5.29396E-23
 -1       782-1.16902E-05 4.76614E-05 0.00000E+00
 -1       783-9.18945E-06 3.69076E-05 5.29396E-23
 -1       784-6.32853E-06 2.51631E-05 0.00000E+00
 -1       785-3.22551E-06 1.27520E-05-5.29396E-23
 -1       786 1.78750E-04 2.72500E-05-2.58494E-26
 -1       787 1.78792E-04 2.53846E-05 0.00000E+00
 -1       788 1.78834E-04 2.35605E-05 8.27181E-25
 -1       789 1.78876E-04 2.17695E-05 4.13590E-25
 -1       790 1.78918E-04 2.00070E-05 0.00000E+00
 -1       791 1.78961E-04 1.82684E-05-8.27181E-25
 -1       792 1.79004E-04 1.65514E-05-1.65436E-24
 -1       793 1.79046E-04 1.48538E-05 8.27181E-25
 -1       794 1.79089E-04 1.31754E-05-1.65436E-24
 -1       795 1.79132E-04 1.15160E-05 8.27181E-25
 -1       796 1.79175E-04 9.87726E-06-1.65436E-24
 -1       797 1.79218E-04 8.26096E-06 8.27181E-25
 -1       798 1.79261E-04 6.67110E-06 0.00000E+00
 -1       799 1.79304E-04 5.11173E-06 0.00000E+00
 -1       800 1.79347E-04 3.58995E-06-1.65436E-24
 -1       801 1.37721E-04 2.61253E-05-2.64698E-23
 -1       802 1.35807E-05 1.64746E-05 0.00000E+00
 -1       803-9.31584E-05 8.44991E-06 5.29396E-23
 -1       804-8.37946E-05 5.84032E-06-2.64698E-23
 -1       805-2.78382E-05 2.37475E-06 0.00000E+00
 -1       806 1.79320E-04 2.71852E-05 1.65436E-24
 -1       807 1.79915E-04 2.52324E-05 1.65436E-24
 -1       808 1.80497E-04 2.33111E-05 0.00000E+00
 -1       809 1.81065E-04 2.14250E-05-1.65436E-24
 -1       810 1.81619E-04 1.95776E-05 0.00000E+00
 -1       811 1.82157E-04 1.77725E-05 0.00000E+00
 -1       812 1.82678E-04 1.60134E-05 0.00000E+00
 -1       813 1.83181E-04 1.43037E-05 0.00000E+00
 -1       814 1.83663E-04 1.26470E-05-1.65436E-24
 -1       815 1.84125E-04 1.10468E-05-8.27181E-25
 -1       816 1.84564E-04 9.50654E-06 1.65436E-24
 -1       817 1.84980E-04 8.02982E-06 8.27181E-25
 -1       818 1.85370E-04 6.62013E-06 1.65436E-24
 -1       819 1.85734E-04 5.28097E-06 1.65436E-24
 -1       820 1.86072E-04 4.01577E-06-1.65436E-24
 -1       821 1.79267E-04 3.53228E-07 0.00000E+00
 -1       822 1.79135E-04-2.01323E-06 1.65436E-24
 -1       823 1.79003E-04-4.72658E-06 0.00000E+00
 -1       824 1.78869E-04-7.52486E-06 0.00000E+00
 -1       825 1.78736E-04-1.01242E-05 0.00000E+00
 -1       826 1.78604E-04-1.22417E-05 0.00000E+00
 -1       827 1.78472E-04-1.37213E-05 0.00000E+00
 -1       828 1.78342E-04-1.44103E-05 0.00000E+00
 -1       829 1.78211E-04-1.43639E-05 0.00000E+00
 -1       830 1.78081E-04-1.36416E-05 1.65436E-24
 -1       831 1.77950E-04-1.24802E-05 0.00000E+00
 -1       832 1.77819E-04-1.11194E-05 0.00000E+00
 -1       833 1.77688E-04-9.85101E-06 0.00000E+00
 -1       834 1.77559E-04-8.96654E-06 0.00000E+00
 -1       835 1.77430E-04-8.65686E-06 0.00000E+00
 -1       836 1.80756E-04 2.23162E-06 0.00000E+00
 -1       837 1.82001E-04 2.35320E-06 0.00000E+00
 -1       838 1.83155E-04 2.47469E-06 0.00000E+00
 -1       839 1.84249E-04 2.59550E-06-8.27181E-25
 -1       840 1.85314E-04 2.71614E-06 0.00000E+00
 -1       856 1.77291E-04-9.87429E-06 0.00000E+00
 -1       857 1.77271E-04-1.05084E-05 6.46235E-27
 -1       858 1.77250E-04-1.10320E-05 0.00000E+00
 -1       859 1.77230E-04-1.14656E-05 2.06795E-25
 -1       860 1.77209E-04-1.18297E-05 0.00000E+00
 -1       861 1.77188E-04-1.21449E-05 0.00000E+00
 -1       862 1.77167E-04-1.24317E-05-8.27181E-25
 -1       863 1.77146E-04-1.27107E-05 4.13590E-25
 -1       864 1.77125E-04-1.30026E-05 8.27181E-25
 -1       865 1.77103E-04-1.33279E-05 0.00000E+00
 -1       866 1.77082E-04-1.37073E-05 0.00000E+00
 -1       867 1.77061E-04-1.41612E-05-4.13590E-25
 -1       868 1.77040E-04-1.47102E-05 8.27181E-25
 -1       869 1.77018E-04-1.53747E-05 4.13590E-25
 -1       870 1.76997E-04-1.61749E-05 8.27181E-25
 -1       871 1.78348E-04-9.11343E-06 8.27181E-25
 -1       872 1.79527E-04-9.12060E-06 0.00000E+00
 -1       873 1.80783E-04-9.12842E-06 4.13590E-25
 -1       874 1.82051E-04-9.13694E-06-1.55096E-25
 -1       875 1.83266E-04-9.14603E-06-8.27181E-25
 -1       876 1.77718E-04-9.86049E-06 0.00000E+00
 -1       877 1.78105E-04-1.05473E-05 1.65436E-24
 -1       878 1.78472E-04-1.11775E-05 3.30872E-24
 -1       879 1.78820E-04-1.17583E-05 1.65436E-24
 -1       880 1.79152E-04-1.22968E-05-3.30872E-24
 -1       881 1.79472E-04-1.28002E-05-1.65436E-24
 -1       882 1.79781E-04-1.32754E-05 0.00000E+00
 -1       883 1.80082E-04-1.37296E-05 1.65436E-24
 -1       884 1.80378E-04-1.41698E-05-3.30872E-24
 -1       885 1.80671E-04-1.46031E-05 0.00000E+00
 -1       886 1.80964E-04-1.50367E-05 0.00000E+00
 -1       887 1.81260E-04-1.54775E-05 0.00000E+00
 -1       888 1.81561E-04-1.59327E-05 0.00000E+00
 -1       889 1.81870E-04-1.64095E-05-1.65436E-24
 -1       890 1.82188E-04-1.69150E-05 0.00000E+00
 -1       891 1.78035E-04-1.71860E-05 0.00000E+00
 -1       892 1.79074E-04-1.72410E-05 8.27181E-25
 -1       893 1.80065E-04-1.72960E-05-8.27181E-25
 -1       894 1.80985E-04-1.73507E-05 4.13590E-25
 -1       895 1.81810E-04-1.74052E-05 4.13590E-25
 -1       956 1.86257E-04 1.80389E-06-1.65436E-24
 -1       957 1.86131E-04 8.65398E-07 1.65436E-24
 -1       958 1.86005E-04 2.52632E-09-3.30872E-24
 -1       959 1.85878E-04-7.95274E-07 1.65436E-24
 -1       960 1.85752E-04-1.53859E-06 0.00000E+00
 -1       961 1.85625E-04-2.23802E-06 0.00000E+00
 -1       962 1.85499E-04-2.90421E-06 3.30872E-24
 -1       963 1.85372E-04-3.54780E-06 0.00000E+00
 -1       964 1.85246E-04-4.17942E-06-3.30872E-24
 -1       965 1.85119E-04-4.80970E-06 0.00000E+00
 -1       966 1.84992E-04-5.44931E-06 3.30872E-24
 -1       967 1.84866E-04-6.10887E-06 0.00000E+00
 -1       968 1.84739E-04-6.79902E-06-3.30872E-24
 -1       969 1.84613E-04-7.53035E-06 1.65436E-24
 -1       970 1.84487E-04-8.31344E-06 0.00000E+00
 -1       971 1.84248E-04-1.00000E-05 3.30872E-24
 -1       972 1.84132E-04-1.07495E-05 0.00000E+00
 -1       973 1.84016E-04-1.14171E-05 0.00000E+00
 -1       974 1.83900E-04-1.20134E-05 0.00000E+00
 -1       975 1.83784E-04-1.25489E-05 3.30872E-24
 -1       976 1.83668E-04-1.30341E-05-1.65436E-24
 -1       977 1.83552E-04-1.34798E-05 0.00000E+00
 -1       978 1.83435E-04-1.38964E-05 0.00000E+00
 -1       979 1.83319E-04-1.42946E-05 3.30872E-24
 -1       980 1.83203E-04-1.46851E-05 1.65436E-24
 -1       981 1.83087E-04-1.50783E-05-3.30872E-24
 -1       982 1.82971E-04-1.54850E-05 1.65436E-24
 -1       983 1.82855E-04-1.59158E-05 3.30872E-24
 -1       984 1.82740E-04-1.63811E-05 0.00000E+00
 -1       985 1.82625E-04-1.68918E-05 0.00000E+00
 -3
    1PSTEP                        30          15           1          
  100CL  115 6.38742E-01         409                     0   15           1
 -4  STRESS      6    1
 -5  SXX         1    4    1    1
 -5  SYY         1    4    2    2
 -5  SZZ         1    4    3    3
 -5  SXY         1    4    1    2
 -5  SYZ         1    4    2    3
 -5  SZX         1    4    3    1
 -1         1-5.35835E+06-1.63518E+06-1.13286E+06-1.35540E+06 1.30967E-09-9.02219E-10
 -1         2 1.72719E+06 2.71601E+07 6.05663E+06 7.18312E+06 1.71160E-07 1.65164E-09
 -1         3-1.19984E+03-1.50334E+06 3.81606E+02-1.91749E+03-4.68269E-10-2.98896E-08
 -1         5-4.73777E+01 3.65304E+05 9.41946E+00-9.52999E-01-4.04649E-10-6.36646E-09
 -1         8 8.20335E+04-6.78258E+04 8.99208E+04-3.01202E+05 3.81988E-10 4.47581E-08
 -1         9 9.53394E+06 5.04827E+06 2.75212E+06 1.08526E+05 3.31900E-08-7.22939E-08
 -1        10-2.05074E+03-1.56650E+06-3.56311E+03-1.29737E+04-1.22272E-08-2.05481E-08
 -1        12-4.36117E+01 3.65324E+05 3.08042E+02-6.63691E+00-5.47718E-10 7.93989E-10
 -1        15 9.17885E+02 5.04423E+02 2.96703E+03 6.56403E-01-1.25510E-10 3.17189E-07
 -1        16 1.73930E+07-3.66810E+05 2.40232E+06-1.79440E+06-6.44165E-09 2.12652E-07
 -1        17 6.44209E+06 4.50043E+06 1.71942E+06 4.38721E+06 1.70170E-08 3.70899E-08
 -1        18 1.10027E+05 2.48396E+04-2.11530E+03-1.11195E+05 1.22295E-08 1.04083E-08
 -1        19 1.16212E+05 1.34186E+05-9.11354E+02 2.12205E+04 1.25892E-09 7.10970E-09
 -1        20-7.49818E+04-5.45650E+05-1.22232E+05 2.55909E+04-9.96048E-10-1.96572E-09
 -1        21-4.45530E+01-2.85197E+05-8.93642E+02 2.05297E+02 1.13563E-08-2.64820E-08
 -1        24 1.07642E+07 8.91058E+06 3.00597E+06 8.27222E+06-1.45170E-07-5.24257E-08
 -1        25 7.06902E+04 7.00255E+04 4.92823E+04-5.31668E+05 1.60708E-10 5.03223E-09
 -1        26-5.23802E+04 8.70675E+04-2.34928E+04 3.36322E+02 3.00497E-10-2.50041E-09
 -1        27-7.38661E+04-2.95310E+05-1.08380E+05 6.57686E+04 4.13229E-09-2.24342E-11
 -1        28 2.15273E+04-8.18486E+04 1.62667E+04 2.04424E+04-3.46381E-09 1.19719E-08
 -1        32-1.61829E+06-2.98276E+06-1.75957E+05 2.60310E+05-3.91738E-08-1.05658E-08
 -1        33-1.70594E+05 8.79002E+04 3.07605E+04-3.71441E+04-2.42483E-09-3.95782E-09
 -1        34-2.13816E+05-2.35576E+04 6.44682E+02 7.15589E+04-4.27906E-09-4.32647E-09
 -1        35-2.21412E+04-3.24669E+04-1.29124E+03 4.96312E+04-2.66307E-09-2.10566E-08
 -1        51 6.03450E+04-2.06993E+05 1.27129E+05-3.75771E+05-2.91038E-11-5.40604E-09
 -1        52 2.01719E+04-1.84442E+05 6.62826E+04-4.38360E+05 1.95541E-10-2.18424E-08
 -1        53 3.79064E+03-1.99136E+05 3.38164E+04-3.74525E+05 3.67436E-10-1.82368E-07
 -1        54 6.10019E+03-1.95036E+05 2.63881E+04-4.39546E+05 1.81899E-11-1.12996E-07
 -1        55 1.34002E+04-2.01117E+05 3.04530E+04-3.74495E+05 4.00178E-10 7.26868E-08
 -1        56-9.71157E+06-1.29278E+06-8.81862E+05-4.00316E+06-2.23808E-08-5.71308E-08
 -1        57-1.09370E+07-9.62618E+05-5.55258E+05-2.82578E+06 5.15138E-09 7.18865E-08
 -1        58-9.63628E+06-1.70466E+06-1.97345E+05-4.12926E+06-6.50471E-09-3.98213E-08
 -1        59-1.09377E+07-5.24719E+05-1.10523E+05-2.79758E+06-3.29692E-11-2.01497E-07
 -1        60-9.74623E+06-1.69513E+06-5.64722E+04-4.06450E+06-1.97906E-08-1.40783E-07
 -1        61-1.04029E+07-8.16520E+05 3.50506E+03-3.06030E+06-1.84082E-09 1.22964E-08
 -1        62-1.00742E+07-1.47819E+06-5.57514E+04-3.79277E+06 4.89672E-09-1.68438E-09
 -1        63-9.73490E+06-1.38256E+06 3.10429E+04-3.66673E+06 1.05865E-09 6.06888E-08
 -1        64-1.03573E+07-1.16976E+06-4.68838E+04-3.42331E+06-2.15878E-08 4.56603E-08
 -1        65-9.43344E+06-1.85057E+06-2.82282E+03-4.35985E+06-4.02506E-08-2.52287E-08
 -1        66-1.04671E+07-9.46321E+05-4.36028E+04-3.16578E+06 1.03282E-08 1.55942E-08
 -1        67-9.42159E+06-2.04268E+06-1.02302E+05-4.63379E+06-4.88717E-08-6.11944E-08
 -1        68-1.04386E+07-9.29775E+05-1.88777E+05-3.19293E+06-4.80377E-08-1.06156E-07
 -1        69-9.65226E+06-2.13532E+06-5.02186E+05-4.21894E+06-6.63613E-09-1.85486E-07
 -1        70-1.01535E+07-9.23244E+05-8.25895E+05-3.52333E+06-1.72986E-08-3.42261E-08
 -1        86-1.48797E+06-1.69967E+07-3.16967E+06-3.43544E+06-4.83851E-09-7.70524E-09
 -1        87 2.06061E+06 9.69495E+06 2.74821E+06 5.57421E+06-2.13622E-08 8.01774E-08
 -1        88-1.82223E+05-9.76149E+05 2.58577E+05-2.11029E+06 1.21395E-07 2.87241E-08
 -1        89 3.07822E+06 9.59380E+06 2.92447E+06 5.80442E+06-7.95044E-08-3.00675E-07
 -1        90-2.44048E+06-1.69403E+07-3.36892E+06-3.68821E+06 1.38201E-07-1.00001E-07
 -1       121-1.65051E+03-1.50734E+06-3.79030E+02 9.51738E+02 1.35961E-09 8.45466E-09
 -1       122-1.03345E+03-1.50338E+06 7.40566E+02-3.83637E+03-5.03709E-09 1.76260E-08
 -1       123-1.68206E+03-1.50745E+06 4.14811E+02 2.84288E+03 3.89355E-09 1.85210E-08
 -1       124 5.09287E+02-1.50286E+06 2.88653E+03-8.04730E+03-9.33642E-09 1.74441E-08
 -1       125-2.48724E+03-1.50830E+06 3.57355E+03 5.12966E+03 5.43514E-09-3.58705E-09
 -1       191-5.00321E+01 3.65326E+05 9.20592E+00 4.90981E-01-4.27447E-10-2.30229E-08
 -1       192-4.82701E+01 3.65304E+05 2.00430E+01-3.20330E+00-5.45438E-10-3.58996E-08
 -1       193-5.23902E+01 3.65326E+05 3.52776E+01 2.80170E+00-8.74399E-10-5.31509E-09
 -1       194-5.11351E+01 3.65307E+05 7.60536E+01-7.32321E+00-4.40878E-10 5.18048E-09
 -1       195-5.69179E+01 3.65323E+05 1.46759E+02 4.71305E+00-1.18163E-09 1.66801E-09
 -1       251 1.78172E+06-8.79800E+04 1.98076E+05 2.25838E+04-2.41016E-11 1.22673E-08
 -1       252 1.90019E+06 1.01966E+05 1.45783E+05-1.07006E+05 4.06726E-09-2.45982E-08
 -1       253 1.82766E+06-1.31111E+04 5.18204E+04-8.77867E+03-7.53403E-10-9.30268E-08
 -1       254 1.84575E+06 1.62452E+04 3.32592E+04-6.27935E+04 8.98001E-09-1.85675E-07
 -1       255 1.83486E+06-1.69462E+03 1.36173E+04-2.16142E+04-6.20463E-09 1.56051E-07
 -1       256 1.83730E+06 3.21910E+03 8.52480E+03-4.47926E+04 1.38603E-08 2.16687E-08
 -1       257 1.83590E+06 2.64527E+01 4.84798E+03-2.67759E+04-9.20213E-09-6.14975E-08
 -1       258 1.83636E+06 1.70060E+03 5.11854E+03-3.79427E+04-3.62388E-09-1.09633E-07
 -1       259 1.83577E+06-1.53809E+02 6.80507E+03-2.84634E+04 8.41659E-09-8.14680E-10
 -1       260 1.83808E+06 4.95148E+03 1.40981E+04-3.66613E+04 5.47435E-09 1.04828E-08
 -1       261 1.83416E+06-3.21250E+03 2.38304E+04-2.80568E+04 1.41163E-08-6.42221E-08
 -1       262 1.84945E+06 2.81241E+04 5.80712E+04-3.98149E+04 1.12415E-08-8.66339E-08
 -1       263 1.82436E+06-2.32618E+04 9.27264E+04-2.53081E+04-1.28937E-08 1.21505E-07
 -1       264 1.91948E+06 1.77804E+05 2.52592E+05-4.95669E+04 8.06486E-09 2.92799E-07
 -1       265 1.76416E+06-1.52401E+05 3.57946E+05-1.82999E+04 3.58182E-09 9.54460E-08
 -1       266-1.66170E+04-7.77092E+03 3.89842E+04-1.40438E+01-6.18456E-11-2.76084E-07
 -1       267 1.92634E+04 9.05588E+03 2.75555E+04 1.62053E+01-1.22782E-11-2.20336E-07
 -1       268-2.58319E+03-1.28263E+03 1.02421E+04-2.06475E+00-6.36646E-11-5.49510E-08
 -1       269 3.04998E+03 1.53496E+03 6.65732E+03 2.40521E+00 2.72848E-12 5.87407E-09
 -1       270-4.57803E+02-2.52207E+02 3.21358E+03-3.26401E-01 1.17097E-11 1.36386E-07
 -1       271-1.74924E+06-2.22491E+05-1.40043E+05-6.82829E+05 1.43973E-08 5.55519E-08
 -1       272-1.72974E+06-3.76390E+05-8.75685E+04-7.45444E+05-1.57888E-09-1.83740E-07
 -1       273-1.77932E+06-2.51157E+05-3.40157E+04-6.72213E+05-2.55750E-09-1.48942E-07
 -1       274-1.69679E+06-3.41314E+05-1.75763E+04-7.66357E+05-2.06819E-09 1.48271E-07
 -1       275-1.78666E+06-2.50013E+05-8.41922E+03-6.67218E+05 1.61890E-09-1.69270E-07
 -1       276-1.69057E+06-3.42504E+05-3.59759E+03-7.78148E+05 7.01220E-09-2.25655E-07
 -1       277-1.79020E+06-2.46554E+05-2.23930E+03-6.63854E+05-5.48243E-09 1.28622E-07
 -1       278-1.68869E+06-3.46036E+05-1.00919E+03-7.85954E+05 4.82760E-09 6.21303E-08
 -1       279-1.79212E+06-2.44175E+05-1.08103E+03-6.61852E+05-2.45946E-08-1.28864E-09
 -1       280-1.68819E+06-3.48160E+05-1.59315E+03-7.89822E+05-1.45537E-08-2.40827E-07
 -1       281-1.79259E+06-2.43243E+05-2.84665E+03-6.61242E+05 5.28490E-09-2.86082E-09
 -1       282-1.68953E+06-3.49918E+05-6.80371E+03-7.89357E+05-8.71387E-09 1.23790E-07
 -1       283-1.79071E+06-2.42647E+05-1.22876E+04-6.62196E+05-9.81709E-09 5.90162E-08
 -1       284-1.70092E+06-3.64014E+05-3.30162E+04-7.82391E+05 4.32283E-09-1.43265E-07
 -1       285-1.77937E+06-2.32107E+05-5.21437E+04-6.66243E+05-9.80799E-09-3.33966E-09
 -1       301 1.12031E+02-5.39843E+05 1.64630E+05-9.73220E+05 3.08792E-08-2.44763E-08
 -1       302-1.85513E+03-4.94087E+05 1.00392E+05-1.42104E+06 2.30793E-08 2.36083E-07
 -1       303-1.68743E+04-5.29027E+05 6.05432E+04-9.70607E+05 1.65892E-09 9.21136E-08
 -1       304-1.45780E+04-4.97905E+05 6.75895E+04-1.42032E+06-2.44472E-08 5.11063E-08
 -1       305-1.56670E+04-5.23753E+05 9.12082E+04-9.73487E+05 5.93354E-09-2.57714E-08
 -1       306-2.50046E+07-4.95694E+06-6.79665E+06-1.10988E+06-5.50644E-08 5.11354E-08
 -1       307 1.93350E+07 1.43135E+06 4.26018E+06-1.23163E+07-7.76214E-07 1.80866E-07
 -1       308-7.44367E+06-3.73211E+05-3.76733E+05 4.14706E+06-1.16037E-07 2.16387E-07
 -1       309-2.80645E+06 4.90298E+06 1.65715E+06-1.78363E+07 4.25607E-07 4.62715E-08
 -1       310-1.14484E+07-1.03585E+06-1.48161E+06 3.88408E+06 1.86614E-07-2.39044E-07
 -1       311 2.86553E+07-6.42090E+05 5.63415E+06-7.27722E+06 8.36328E-07-1.53377E-07
 -1       312-2.63031E+07-5.51658E+06-6.63626E+06-4.35861E+06 4.81959E-07 1.15411E-07
 -1       313 3.51650E+07 1.07054E+07 8.40104E+06 1.76941E+07 3.84171E-08-4.15021E-08
 -1       314-1.53644E+07-1.36394E+07-5.87237E+06-1.04866E+07 4.84695E-07-2.05473E-08
 -1       315-2.18926E+06 2.24736E+07 4.44577E+06 9.03054E+06-2.47484E-07 9.67120E-08
 -1       316 3.52151E+05-8.52515E+06-3.52149E+05-3.38690E+06-1.00980E-06-3.00788E-07
 -1       317-1.65333E+07 1.84620E+07 1.61649E+06-5.47894E+06 8.07551E-07-7.03236E-07
 -1       318-1.63121E+06-1.03323E+07-1.50428E+06-4.58945E+06-6.68748E-07 2.06928E-08
 -1       319 4.80444E+06 2.36571E+07 5.36612E+06 1.30393E+07-7.92497E-08 2.01544E-07
 -1       320-1.92544E+07-1.36452E+07-7.74862E+06-1.05197E+07 1.89641E-07-3.64962E-08
 -1       336-3.87130E+02-1.63174E+06-1.26797E+04 7.72073E+03-2.38233E-08-6.40284E-10
 -1       337-4.93780E+03-1.63181E+06-1.63535E+04-1.87571E+04-4.40032E-08-1.68511E-08
 -1       338 3.91919E+02-1.63133E+06-2.53138E+04 1.08505E+04-3.10811E-08-7.53425E-09
 -1       339-2.68993E+04-1.64686E+06-5.71675E+04-2.48845E+04-5.71354E-08-5.44242E-09
 -1       340 1.77630E+04-1.61841E+06-8.99038E+04 1.37418E+04-3.72675E-08 3.77077E-08
 -1       406-2.20820E+01 3.65310E+05 6.06042E+02 2.21018E+00-1.61715E-09 1.09703E-08
 -1       407 1.68669E+02 3.65431E+05 1.29254E+03 1.92968E+01-2.58659E-10 2.49256E-08
 -1       408 6.20351E+02 3.65216E+05 2.57876E+03-2.19095E+01-1.82752E-09 5.34419E-09
 -1       409 2.75097E+03 3.66254E+05 5.80977E+03 2.29532E+02-2.32092E-10 3.18687E-08
 -1       410 7.98198E+03 3.64477E+05 1.18585E+04-2.20256E+02-2.34650E-09 1.95787E-08
 -1       521-2.68827E+07-6.18019E+06-8.07047E+06-8.21028E+05-7.90460E-08 1.87370E-07
 -1       522 2.03369E+07 2.08955E+06 4.41418E+06-1.54464E+07-5.18776E-07-5.56465E-08
 -1       523-8.27400E+06-6.33581E+05-3.91543E+05 4.63974E+06 1.71451E-07-4.28379E-07
 -1       524-5.67071E+06 7.27042E+06 1.83676E+06-2.09815E+07 7.87608E-07-4.56403E-07
 -1       525-1.25238E+07-1.53868E+06-1.66374E+06 4.37299E+06 4.04892E-07-1.59358E-07
 -1       526 3.17558E+07-7.97519E+05 6.02262E+06-9.61789E+06 2.44298E-07-1.73692E-07
 -1       527-2.84096E+07-6.95670E+06-7.76462E+06-4.33338E+06-2.45636E-08 1.40499E-07
 -1       528 3.90621E+07 1.20436E+07 8.92152E+06 2.04084E+07-1.08907E-07 2.15601E-07
 -1       529-1.65102E+07-1.57222E+07-6.84572E+06-1.08410E+07 1.72935E-07-2.11992E-07
 -1       530-4.37710E+06 2.66866E+07 4.79588E+06 8.99786E+06 5.27798E-08 3.05939E-07
 -1       531 3.22416E+05-9.74791E+06-3.49722E+05-3.55067E+06-7.66056E-07 2.32860E-07
 -1       532-1.95244E+07 2.09076E+07 1.81631E+06-8.86627E+06 3.54165E-07-6.49852E-07
 -1       533-1.70060E+06-1.16409E+07-1.62714E+06-4.67498E+06-1.55385E-07-8.76666E-07
 -1       534 3.10969E+06 2.80533E+07 5.69526E+06 1.38097E+07-6.57528E-08 6.60453E-07
 -1       535-2.06269E+07-1.58551E+07-8.99277E+06-1.08792E+07 7.31088E-08 4.13129E-07
 -1       536-6.55042E+05-4.28455E+04-3.17290E+04-4.77671E+04-4.05043E-09 4.63224E-08
 -1       537-1.04917E+05 4.16122E+04 7.64985E+04 1.10568E+05-1.11400E-07 7.29819E-08
 -1       538-3.92078E+05 2.29163E+03 5.23705E+03-6.54447E+04 3.33838E-08 9.23656E-08
 -1       539-2.87117E+05 2.74583E+03 2.20844E+04 1.25021E+05 1.65765E-07 8.18742E-08
 -1       540-4.77366E+05-2.31495E+02-1.71235E+04-6.26284E+04 1.74225E-08 9.63799E-08
 -1       541 6.19269E+04 1.42009E+04 8.94902E+04 8.65791E+04 7.97263E-09 6.13589E-08
 -1       542-7.31736E+05-1.69729E+04-7.06723E+04-2.63376E+04 4.80486E-08 2.76428E-08
 -1       543 2.79146E+05 2.29882E+04 1.32557E+05-1.22164E+04-1.63052E-08 5.22732E-09
 -1       544-6.88775E+05-1.38206E+04-6.27384E+04 3.56533E+04 8.71614E-09-2.87396E-08
 -1       545-3.83917E+04 7.70904E+03 6.63457E+04-1.01507E+05 6.05269E-09-8.54618E-08
 -1       546-4.22699E+05 5.33557E+03-1.04459E+04 6.26940E+04 2.03265E-08-8.23164E-08
 -1       547-3.02893E+05-4.67305E+03 7.58263E+03-1.27695E+05-1.21778E-07-9.94262E-08
 -1       548-4.31357E+05 4.46286E+03-2.18220E+04 6.23680E+04-8.93901E-08-8.23493E-08
 -1       549-2.06463E+04 1.00970E+04 4.62835E+04-9.90679E+04-5.01564E-08-6.13099E-08
 -1       550-6.97383E+05-1.57335E+04-1.15155E+05 3.35170E+04 6.32053E-09-3.80551E-08
 -1       551 3.63745E+04-7.29764E+05-6.67366E+03-1.19777E+06-9.06439E-08 5.82077E-11
 -1       552 8.27899E+04-7.67893E+05 1.49355E+04-1.70768E+06-6.34464E-08 2.86673E-08
 -1       553 6.31649E+04-7.66350E+05 3.52280E+04-1.19174E+06-1.07822E-07 2.63681E-08
 -1       554 1.19035E+05-7.79979E+05 8.44836E+04-1.70963E+06-7.12753E-08 1.94395E-08
 -1       555 9.25910E+04-7.88996E+05 1.53112E+05-1.19177E+06-1.13039E-07-1.65637E-08
 -1       556 2.01654E+05-3.50532E+05 3.51161E+04-3.82242E+05-2.28465E-08-4.97676E-09
 -1       557 3.23569E+05-4.48483E+05 2.05620E+04-4.92952E+05-8.33825E-09 6.54109E-09
 -1       558 1.86761E+05-3.46513E+05 4.94016E+03-3.84105E+05-2.16824E-08-9.91713E-09
 -1       559 3.01019E+05-4.50450E+05 3.52501E+03-5.10473E+05 2.38069E-08-4.20914E-09
 -1       560 1.73870E+05-3.38401E+05-5.48616E+02-3.93300E+05 1.02737E-08 1.20235E-08
 -1       561 2.84699E+05-4.44020E+05 4.57003E+02-5.21525E+05-9.31323E-10 3.21834E-08
 -1       562 1.63702E+05-3.32059E+05-9.13422E+02-4.00640E+05-1.81899E-09 9.66247E-09
 -1       563 2.72652E+05-4.38765E+05 6.47475E+01-5.29371E+05-1.01863E-09 3.59432E-09
 -1       564 1.56515E+05-3.27574E+05-4.29690E+02-4.05726E+05 3.97267E-09 4.26735E-09
 -1       565 2.64779E+05-4.35337E+05 5.19633E+01-5.34394E+05 5.01313E-09 1.02668E-08
 -1       566 1.52412E+05-3.24975E+05-1.90148E+02-4.08596E+05-4.42378E-09-6.52290E-09
 -1       567 2.61114E+05-4.33741E+05-3.01342E+02-5.36602E+05 1.52140E-08 7.44330E-09
 -1       568 1.51473E+05-3.24405E+05-9.64621E+02-4.09349E+05-3.71847E-09-3.44517E-09
 -1       569 2.60367E+05-4.33703E+05-2.43600E+03-5.35053E+05-1.03228E-08-3.57613E-09
 -1       570 1.54712E+05-3.27410E+05-5.35528E+03-4.08439E+05 2.43745E-09-9.22682E-09
 -1       571 2.75401E+05 9.97785E+03 1.43379E+04-8.70297E+04 3.44698E-10-8.71296E-10
 -1       572 2.77489E+05 3.70629E+03 7.02633E+03-9.54798E+04-2.24190E-10-1.59462E-08
 -1       573 2.76232E+05 1.11627E+03 3.12196E+03-8.68638E+04 1.78143E-08 2.25464E-09
 -1       574 2.76446E+05 6.11430E+02 1.56539E+03-9.56870E+04 4.22358E-08 2.45018E-09
 -1       575 2.76324E+05 3.52384E+02 7.38726E+02-8.68412E+04 1.88671E-08 1.29166E-08
 -1       576 2.76315E+05 3.55914E+02 3.77995E+02-9.57146E+04-5.28769E-09 3.26954E-08
 -1       577 2.76358E+05 2.99145E+02 1.88601E+02-8.68381E+04-1.42336E-09 2.04827E-08
 -1       578 2.76337E+05 3.23565E+02 1.08558E+02-9.57184E+04-4.02179E-09 1.26674E-08
 -1       579 2.76417E+05 2.69718E+02 7.44316E+01-8.68378E+04 4.38376E-09 5.72800E-09
 -1       580 2.76421E+05 2.82156E+02 8.55982E+01-9.57138E+04-6.70752E-09-9.92259E-10
 -1       581 2.76511E+05 2.22500E+02 1.29530E+02-8.68432E+04 6.17547E-09 9.02855E-09
 -1       582 2.76568E+05 2.56313E+02 2.62290E+02-9.56574E+04 5.35965E-09 2.45836E-09
 -1       583 2.76626E+05 2.72561E+02 5.04692E+02-8.68947E+04-7.23594E-09 1.49232E-08
 -1       584 2.76899E+05 6.82499E+02 1.14063E+03-9.52237E+04-1.72377E-08 3.51520E-10
 -1       585 2.76631E+05 1.65198E+03 2.31164E+03-8.72764E+04-1.25656E-08-2.51748E-09
 -1       586-3.27361E+03 1.07110E+05-3.02405E+03-2.39355E+05-4.94856E-09 2.99074E-08
 -1       587-1.17798E+03 1.06825E+05 5.87049E+02-2.63436E+05-3.86535E-09 5.10875E-08
 -1       588 4.91644E+02 1.06685E+05 4.41394E+03-2.39228E+05-5.43696E-09 9.91895E-09
 -1       589 4.92150E+03 1.08992E+05 1.15766E+04-2.63200E+05-6.81030E-09 1.46756E-08
 -1       590 1.57491E+04 1.05427E+05 2.43348E+04-2.39640E+05-2.84126E-09 1.11686E-09
 -1       591-6.83274E+04-1.49664E+04-2.09734E+04-2.96004E+04-6.67865E-09 2.39925E-09
 -1       592-7.20029E+04-1.84096E+04-1.13608E+04-3.31245E+04-1.69419E-08-3.87286E-09
 -1       593-7.04258E+04-1.34436E+04-4.72898E+03-3.11375E+04-1.16668E-08 7.29597E-09
 -1       594-6.91053E+04-1.53339E+04-2.35848E+03-3.32365E+04 8.13486E-10 2.58711E-09
 -1       595-7.05858E+04-1.34385E+04-1.08287E+03-3.12073E+04-1.32397E-09-2.38359E-10
 -1       596-6.89070E+04-1.51932E+04-5.50432E+02-3.32131E+04 6.19437E-09-4.88649E-09
 -1       597-7.06059E+04-1.34528E+04-2.99623E+02-3.12100E+04-3.04055E-09 1.85025E-10
 -1       598-6.88875E+04-1.51877E+04-2.40674E+02-3.32065E+04-1.70866E-09 4.08960E-09
 -1       599-7.06047E+04-1.34532E+04-3.07194E+02-3.12096E+04 4.02963E-09-1.63766E-08
 -1       600-6.89072E+04-1.51939E+04-5.70480E+02-3.32112E+04 3.48166E-09-2.24852E-08
 -1       601-7.05815E+04-1.34396E+04-1.12533E+03-3.12063E+04 2.44995E-09-1.25276E-08
 -1       602-6.91131E+04-1.53391E+04-2.45249E+03-3.32320E+04-6.65614E-09-1.74978E-08
 -1       603-7.04125E+04-1.34477E+04-4.91823E+03-3.11344E+04 5.07680E-09 1.79080E-09
 -1       604-7.21431E+04-1.85195E+04-1.18147E+04-3.30923E+04 1.10059E-08 1.28616E-08
 -1       605-6.82113E+04-1.50480E+04-2.18115E+04-2.95541E+04 1.07743E-08-2.49565E-09
 -1       606 2.66554E+04-1.35108E+04-2.42307E+04 2.43127E+04 4.07090E-09 1.20633E-08
 -1       607 2.25142E+04-4.40727E+03-1.20667E+04 2.73161E+04-1.41972E-09-4.24734E-09
 -1       608 2.48730E+04-7.90035E+02-5.40206E+03 2.41367E+04-2.39197E-09-5.98629E-09
 -1       609 2.44189E+04-2.64422E+02-2.72890E+03 2.75323E+04 3.00679E-09 7.08633E-09
 -1       610 2.46696E+04-3.11138E+01-1.30217E+03 2.41161E+04 6.07452E-09 6.84167E-10
 -1       611 2.45966E+04-2.93225E+01-6.56537E+02 2.75557E+04 6.75664E-09-2.04705E-09
 -1       612 2.46234E+04-1.71233E+01-3.12294E+02 2.41140E+04 2.09457E-09-2.39038E-09
 -1       613 2.46057E+04-2.44815E+01-1.40081E+02 2.75585E+04 8.59927E-10-1.45037E-08
 -1       614 2.46012E+04-2.23138E+01-3.32735E+01 2.41133E+04 6.39375E-10 7.40783E-09
 -1       615 2.45994E+04-2.23107E+01 5.77542E+01 2.75589E+04-2.65345E-09 1.06143E-08
 -1       616 2.45838E+04-1.87366E+01 1.74055E+02 2.41136E+04 2.15095E-10 1.31854E-09
 -1       617 2.46193E+04 1.54101E+01 3.97494E+02 2.75584E+04 2.04841E-09-3.41252E-08
 -1       618 2.45485E+04 9.63366E+01 8.01329E+02 2.41138E+04-1.54432E-09-3.75394E-10
 -1       619 2.49015E+04 6.35394E+02 1.79954E+03 2.75578E+04-1.56319E-09 6.37965E-09
 -1       620 2.42820E+04 1.99686E+03 3.61704E+03 2.41147E+04 1.51294E-09 1.70985E-09
 -1       621 4.45342E+02 2.84538E+05 3.53641E+03 3.55505E+04 8.37645E-10-1.78006E-08
 -1       622 5.81489E+02 2.85366E+05 3.17054E+03 5.16302E+04 1.12141E-09-7.48196E-09
 -1       623 1.06142E+02 2.84720E+05 3.85324E+03 3.53882E+04 1.00704E-09 4.46562E-10
 -1       624 1.94495E+03 2.86532E+05 7.50436E+03 5.17909E+04 8.80050E-10-1.64368E-09
 -1       625 1.91324E+03 2.83234E+05 1.31305E+04 3.53851E+04 1.12868E-09-1.03046E-09
 -1       626 2.47595E+05 5.94170E+04 4.97529E+03 1.21687E+05 3.75621E-09 1.63564E-08
 -1       627 2.45286E+05 6.08320E+04 2.39753E+03 1.25901E+05 1.83900E-09 1.34701E-08
 -1       628 2.47724E+05 5.71351E+04 1.01383E+03 1.22526E+05-5.49699E-09-1.59343E-08
 -1       629 2.44660E+05 6.01784E+04 4.96221E+02 1.26141E+05-5.07316E-09-3.41775E-08
 -1       630 2.47737E+05 5.70252E+04 2.30088E+02 1.22560E+05-7.87622E-10-1.54614E-08
 -1       631 2.44593E+05 6.01543E+04 1.23683E+02 1.26143E+05 8.10178E-09 2.77877E-08
 -1       632 2.47733E+05 5.70297E+04 8.11612E+01 1.22555E+05 3.19687E-09-1.58736E-08
 -1       633 2.44584E+05 6.01567E+04 9.00496E+01 1.26139E+05 1.56524E-09-1.29064E-08
 -1       634 2.47727E+05 5.70275E+04 1.45207E+02 1.22554E+05-3.96415E-09 2.12401E-08
 -1       635 2.44597E+05 6.01555E+04 2.93636E+02 1.26143E+05-1.30979E-08 1.37816E-08
 -1       636 2.47718E+05 5.70225E+04 5.92905E+02 1.22553E+05-4.88808E-09 1.67302E-08
 -1       637 2.44725E+05 6.02479E+04 1.30351E+03 1.26142E+05-2.42824E-09-9.82254E-10
 -1       638 2.47671E+05 5.73107E+04 2.67827E+03 1.22423E+05-7.30370E-09 4.26053E-09
 -1       639 2.46131E+05 6.22045E+04 6.33677E+03 1.25727E+05-4.97266E-10 8.51469E-09
 -1       640 2.47478E+05 6.31522E+04 1.31499E+04 1.19959E+05-1.06775E-09 5.97720E-09
 -1       656 6.35085E+04-1.62351E+06-1.53308E+05-2.08057E+03-2.83762E-10 1.51230E-08
 -1       657-8.40073E+04-1.69277E+06-1.26987E+05 5.67482E+03-8.94943E-10-1.59222E-08
 -1       658 2.02361E+04-1.64318E+06-7.81840E+04-4.00812E+03-1.40517E-10-4.09307E-09
 -1       659-9.07747E+04-1.69599E+06-1.35879E+05 7.23764E+03-1.66983E-09-6.70374E-09
 -1       660 7.02606E+04-1.62030E+06-1.68597E+05-3.64338E+03-1.05501E-09-7.56899E-09
 -1       661 1.59008E+05 1.67424E+04 1.65435E+04 6.21644E+04-7.92170E-10 8.42647E-09
 -1       662 1.68271E+05 2.90827E+04 1.11489E+04 5.85563E+04-1.28313E-09-2.40425E-09
 -1       663 1.62257E+05 2.20503E+04 3.89931E+03 6.12221E+04 1.37072E-09-1.11663E-09
 -1       664 1.64505E+05 2.28747E+04 2.33241E+03 5.97068E+04-1.90664E-09 8.61132E-09
 -1       665 1.62749E+05 2.27760E+04 9.20127E+02 6.10792E+04 3.22814E-10-7.79391E-09
 -1       666 1.63923E+05 2.20443E+04 5.38330E+02 5.98928E+04 3.80530E-09-4.30225E-09
 -1       667 1.62835E+05 2.28590E+04 2.85843E+02 6.10439E+04 1.86014E-09-1.45508E-09
 -1       668 1.63829E+05 2.19839E+04 2.91011E+02 5.99441E+04-3.66079E-09 1.21619E-08
 -1       669 1.62842E+05 2.28347E+04 3.93803E+02 6.10282E+04-2.03312E-09 2.43005E-08
 -1       670 1.63925E+05 2.21971E+04 8.57328E+02 5.99466E+04-9.63276E-09 3.09649E-09
 -1       671 1.62739E+05 2.26502E+04 1.52219E+03 6.10395E+04-2.15653E-09-3.82784E-09
 -1       672 1.64812E+05 2.36778E+04 3.89445E+03 5.97315E+04 3.04374E-09-7.29813E-09
 -1       673 1.61960E+05 2.13914E+04 6.52646E+03 6.12289E+04 4.15071E-10-6.48470E-09
 -1       674 1.71024E+05 3.41627E+04 1.86643E+04 5.79060E+04-7.54733E-09 1.01004E-08
 -1       675 1.56566E+05 1.24590E+04 2.77043E+04 6.27548E+04-2.76805E-09 4.39650E-09
 -1       676 2.32680E+01-2.85123E+05-1.07707E+03-1.02651E+02 1.18973E-09 1.17426E-10
 -1       677-2.85374E+02-2.85383E+05-1.97122E+03 2.05147E+02 6.78068E-09 1.96251E-08
 -1       678 1.91036E+02-2.84937E+05-3.48462E+03-1.02428E+02 1.05297E-09 7.06934E-09
 -1       679-3.48509E+03-2.87487E+05-8.27797E+03 2.04292E+02 7.57927E-09 4.98981E-09
 -1       680 2.08046E+03-2.83020E+05-1.33413E+04-1.00660E+02 2.08638E-09 6.30102E-09
 -1       771-2.96522E+06-7.00517E+05-1.46228E+05-1.40230E+06-2.91766E-08-2.92202E-08
 -1       772-2.89606E+06-7.82591E+05-7.56255E+04-1.49693E+06-2.16096E-08 1.15251E-08
 -1       773-2.99274E+06-6.78999E+05-3.80466E+04-1.41446E+06-1.28639E-08 1.12341E-08
 -1       774-2.88650E+06-7.66394E+05-1.70815E+04-1.51888E+06 2.48547E-08-1.25146E-09
 -1       775-3.00660E+06-6.69257E+05-1.24409E+04-1.42010E+06-9.69158E-09 2.02999E-09
 -1       776-2.89638E+06-7.64045E+05-4.70732E+03-1.53521E+06-6.94126E-09 2.86673E-09
 -1       777-3.01851E+06-6.60643E+05-5.37682E+03-1.42505E+06 2.32831E-09 4.17640E-09
 -1       778-2.90676E+06-7.61921E+05-1.53905E+03-1.54919E+06 7.01402E-09 5.72072E-09
 -1       779-3.02869E+06-6.53152E+05-2.64887E+03-1.42928E+06-1.21508E-08-4.62387E-09
 -1       780-2.91588E+06-7.59898E+05-4.41205E+02-1.56058E+06-1.03028E-08 2.63208E-09
 -1       781-3.03675E+06-6.47134E+05-1.01393E+03-1.43260E+06-2.88128E-08 1.61344E-09
 -1       782-2.92289E+06-7.58174E+05 3.85399E+02-1.56897E+06-3.79223E-08-4.93264E-09
 -1       783-3.04241E+06-6.42967E+05 6.11347E+02-1.43492E+06-7.05040E-09-1.34596E-08
 -1       784-2.92673E+06-7.56375E+05 2.46545E+03-1.57415E+06-1.51194E-08-4.82032E-11
 -1       785-3.04576E+06-6.40479E+05 4.35929E+03-1.43641E+06-3.33239E-08 6.77028E-09
 -1       786 1.21823E+05-9.50152E+03 2.19822E+04-2.74534E+02 4.81471E-10 1.84900E-09
 -1       787 1.31357E+05 1.10004E+04 1.55516E+04-9.56086E+01 4.60285E-09 5.72959E-09
 -1       788 1.25499E+05-1.48905E+03 5.68739E+03-2.41836E+02 4.58006E-09 8.85188E-09
 -1       789 1.27074E+05 1.72326E+03 3.57051E+03-1.46271E+02-1.85194E-09-3.37974E-09
 -1       790 1.26106E+05-2.31981E+02 1.44602E+03-2.23886E+02-3.25712E-09 1.32173E-08
 -1       791 1.26365E+05 2.68222E+02 8.35934E+02-1.77096E+02-5.55176E-09 1.91219E-08
 -1       792 1.26209E+05-3.50947E+01 3.55721E+02-2.11013E+02-3.19721E-09-1.33193E-08
 -1       793 1.26242E+05 3.75424E+01 1.80604E+02-2.01279E+02 3.87395E-10-6.59186E-09
 -1       794 1.26228E+05-1.44709E+00 5.34998E+01-1.99703E+02 4.83415E-09-9.68805E-09
 -1       795 1.26209E+05-2.12485E+01-3.86296E+01-2.24775E+02-3.80956E-09-9.49072E-10
 -1       796 1.26242E+05 2.36638E+01-1.28035E+02-1.87517E+02 3.38007E-09-6.43162E-09
 -1       797 1.26131E+05-1.78043E+02-3.59915E+02-2.52594E+02 3.17862E-09-8.72163E-10
 -1       798 1.26306E+05 1.55230E+02-5.86828E+02-1.71884E+02 1.34021E-09 1.31262E-08
 -1       799 1.25685E+05-1.14480E+03-1.61649E+03-2.90938E+02 5.28613E-09 8.34331E-09
 -1       800 1.26688E+05 9.89628E+02-2.28821E+03-1.49173E+02 1.10083E-09 1.58605E-09
 -1       801-1.02382E+05-8.73450E+06-1.18080E+06 1.11722E+06 8.07631E-08-4.67917E-08
 -1       802 5.43911E+05 3.98859E+06 1.68830E+06-1.34714E+06 2.28807E-07-3.36386E-08
 -1       803-4.22670E+05-1.20441E+07-1.51195E+06 7.08162E+05 7.02785E-08 1.55324E-08
 -1       804 2.11867E+05 1.09328E+06 1.19162E+06 5.81017E+05-1.04483E-07-8.18090E-08
 -1       805 1.63982E+05-5.85428E+06-2.34156E+05-8.06337E+05-4.37867E-08-5.38621E-08
 -1       806-2.94755E+05-5.66318E+04-2.16918E+04-1.16346E+05-1.09330E-08 1.26774E-08
 -1       807-2.96522E+05-5.30304E+04-1.06570E+04-1.21537E+05-2.88742E-09 4.03170E-09
 -1       808-2.95346E+05-4.88190E+04-4.52107E+03-1.20047E+05-1.11222E-08 3.10115E-09
 -1       809-2.94285E+05-5.00333E+04-2.21071E+03-1.21796E+05-1.37090E-08 4.74904E-09
 -1       810-2.95436E+05-4.85470E+04-1.01328E+03-1.20211E+05 4.17685E-09-1.16620E-09
 -1       811-2.94112E+05-4.99126E+04-5.03917E+02-1.21763E+05 4.09455E-09 4.26826E-09
 -1       812-2.95450E+05-4.85702E+04-2.54876E+02-1.20211E+05-8.98581E-10-1.08798E-08
 -1       813-2.94088E+05-4.99144E+04-1.65711E+02-1.21745E+05-1.68166E-09-8.93397E-09
 -1       814-2.95444E+05-4.85790E+04-1.64273E+02-1.20207E+05-1.26784E-09-1.68534E-08
 -1       815-2.94093E+05-4.99163E+04-2.64834E+02-1.21739E+05 2.42881E-09-9.35142E-09
 -1       816-2.95425E+05-4.85777E+04-5.01934E+02-1.20204E+05 9.77252E-09 2.13181E-08
 -1       817-2.94178E+05-4.99640E+04-1.07742E+03-1.21729E+05-6.13363E-09 9.95487E-09
 -1       818-2.95360E+05-4.87291E+04-2.19746E+03-1.20133E+05 7.35054E-09 5.28871E-09
 -1       819-2.95381E+05-5.12923E+04-5.17076E+03-1.21446E+05 5.19594E-09-1.01654E-08
 -1       820-2.94948E+05-5.26331E+04-1.05242E+04-1.18463E+05 1.22782E-10-3.82920E-09
 -1       821-3.63938E+05 2.00516E+04-4.64613E+04 1.43019E+03 1.03014E-08-2.11894E-08
 -1       822-3.83718E+05-2.32168E+04-3.28161E+04-2.68532E+03 2.56466E-09-2.72848E-09
 -1       823-3.71515E+05 3.14904E+03-1.20215E+04 2.02994E+03-7.67757E-09-2.13777E-09
 -1       824-3.74749E+05-3.63833E+03-7.55011E+03-2.93693E+03 1.05181E-09-1.18803E-10
 -1       825-3.72905E+05 4.89473E+02-3.12891E+03 1.68184E+03 1.20942E-08 6.69195E-09
 -1       826-3.72944E+05-5.66376E+02-1.80095E+03-1.48139E+03 1.38972E-08 9.32232E-12
 -1       827-3.73310E+05 7.25945E+01-1.03271E+03 5.74356E+02 7.99508E-09-5.65933E-10
 -1       828-3.72619E+05-1.61927E+02-7.62397E+02 9.02738E+02-3.55620E-10-1.06706E-08
 -1       829-3.73227E+05 8.28553E+01-1.03798E+03-7.02323E+02 2.02598E-09-1.17359E-09
 -1       830-3.73133E+05-6.02912E+02-1.90325E+03 2.94128E+03-2.31566E-11 1.43262E-09
 -1       831-3.72804E+05 5.19641E+02-3.22598E+03-1.46421E+03-3.52696E-09-1.29002E-08
 -1       832-3.74836E+05-3.78943E+03-7.84688E+03 3.54251E+03-2.60794E-09-1.63877E-08
 -1       833-3.71529E+05 3.27045E+03-1.25010E+04-1.30357E+03-1.11171E-09-6.94354E-09
 -1       834-3.83951E+05-2.41145E+04-3.40521E+04 2.36321E+03-3.65694E-09-1.13669E-08
 -1       835-3.63686E+05 2.08234E+04-4.82825E+04-2.84884E+02 5.31026E-09-5.56611E-10
 -1       836-1.32451E+03 3.50215E+05 2.16100E+04-1.58648E+04-5.71981E-09-7.54881E-10
 -1       837 4.62455E+03 3.56975E+05 1.83210E+04-3.22972E+04-5.91467E-09-6.96036E-09
 -1       838-5.20650E+02 3.52107E+05 1.87161E+04-1.57955E+04-4.96948E-09-1.35385E-08
 -1       839 1.18157E+04 3.62332E+05 3.54535E+04-3.23470E+04-5.29144E-09-8.17835E-09
 -1       840-3.64079E+03 3.44803E+05 5.65564E+04-1.58192E+04-4.96948E-09-8.08433E-09
 -1       856-5.61751E+04 7.87838E+03-2.07613E+04-3.95941E+02 3.33648E-09-1.55160E-09
 -1       857-6.47324E+04-9.25378E+03-1.42922E+04 5.42773E+03 5.05850E-09-2.77896E-09
 -1       858-5.95625E+04 1.10470E+03-5.38719E+03-4.19335E+02 3.07261E-09 2.57364E-09
 -1       859-6.08445E+04-1.29678E+03-3.25128E+03 5.46292E+03-2.14084E-09 3.42766E-11
 -1       860-6.00686E+04 1.54525E+02-1.36315E+03-4.30943E+02 3.03481E-09 1.44582E-08
 -1       861-6.02622E+04-1.81815E+02-7.51056E+02 5.47876E+03-2.12609E-09 6.76584E-09
 -1       862-6.01477E+04 2.08240E+01-3.14519E+02-4.35159E+02 1.16785E-09 6.58497E-09
 -1       863-6.01656E+04-1.93057E+01-1.19826E+02 5.48113E+03-4.34528E-09-1.03187E-08
 -1       864-6.01656E+04-4.30792E+00 3.45123E+01-4.33318E+02 3.24178E-10 2.11639E-09
 -1       865-6.01142E+04 5.54055E+01 2.24258E+02 5.47083E+03 2.31576E-09 7.36662E-10
 -1       866-6.01971E+04-5.39543E+01 4.58029E+02-4.24856E+02 2.18904E-09-1.17274E-09
 -1       867-5.98972E+04 4.46349E+02 1.13128E+03 5.44782E+03-6.72003E-10 9.59915E-10
 -1       868-6.03780E+04-3.88347E+02 1.88082E+03-4.10308E+02-1.39954E-09-6.29007E-09
 -1       869-5.85173E+04 3.23221E+03 5.00939E+03 5.40970E+03-5.70793E-10-2.55177E-08
 -1       870-6.15698E+04-2.76437E+03 7.26959E+03-3.86666E+02-4.52860E-09-4.60022E-09
 -1       871-5.30735E+03-1.91068E+04-1.84762E+04 1.23514E+05-3.74166E-09-1.11577E-08
 -1       872-1.97785E+03-2.33773E+04-7.71252E+03 1.60151E+05-8.39646E-09-1.04724E-08
 -1       873 3.10015E+02-2.13231E+04 6.19580E+02 1.23243E+05-4.02224E-09 1.27494E-08
 -1       874 3.07038E+03-1.89848E+04 9.41205E+03 1.60183E+05-9.08585E-09 2.35402E-08
 -1       875 6.49615E+03-2.35656E+04 2.11862E+04 1.23470E+05-3.43607E-09 6.88851E-09
 -1       876 2.81056E+05 4.74930E+04 1.44966E+04 1.12935E+05 5.54428E-09 1.16634E-08
 -1       877 2.82002E+05 5.05583E+04 7.74175E+03 1.17105E+05 6.22458E-09 3.39901E-09
 -1       878 2.82411E+05 4.58875E+04 3.24342E+03 1.14123E+05-9.00900E-09-1.34944E-08
 -1       879 2.80031E+05 4.85920E+04 1.61604E+03 1.17203E+05 2.92857E-10-2.63839E-09
 -1       880 2.82508E+05 4.58708E+04 7.52709E+02 1.14172E+05-4.42924E-10 2.11861E-08
 -1       881 2.79900E+05 4.85080E+04 4.01888E+02 1.17181E+05-1.41245E-09 7.90865E-09
 -1       882 2.82517E+05 4.58834E+04 2.56996E+02 1.14173E+05 2.93835E-09 1.74051E-08
 -1       883 2.79891E+05 4.85037E+04 2.76100E+02 1.17174E+05-7.47605E-10 1.76547E-09
 -1       884 2.82511E+05 4.58806E+04 4.39049E+02 1.14174E+05 8.17386E-09 1.05728E-08
 -1       885 2.79926E+05 4.85098E+04 8.82632E+02 1.17184E+05-7.69575E-10-1.47523E-08
 -1       886 2.82477E+05 4.58549E+04 1.77886E+03 1.14170E+05-8.01552E-09 9.77161E-09
 -1       887 2.80238E+05 4.87148E+04 3.88567E+03 1.17230E+05 6.58542E-09 7.33507E-09
 -1       888 2.82231E+05 4.58981E+04 7.82975E+03 1.14046E+05-3.70335E-09-2.45427E-09
 -1       889 2.84900E+05 5.35619E+04 1.87039E+04 1.17086E+05-4.54605E-09-7.16091E-09
 -1       890 2.79037E+05 4.96929E+04 3.50319E+04 1.11065E+05-2.51157E-09-8.15817E-09
 -1       891-9.93201E+01-1.56151E+05-1.90891E+03 2.64578E+04-9.80663E-10-4.77485E-12
 -1       892-1.88857E+02-1.56648E+05-2.05220E+03 4.01524E+04 1.27989E-09-1.35772E-08
 -1       893 2.79673E+01-1.56213E+05-2.90771E+03 2.64646E+04-8.37645E-10 1.08635E-08
 -1       894-1.46774E+03-1.57748E+05-6.01940E+03 4.00048E+04 2.14641E-09 1.71476E-08
 -1       895-1.16262E+03-1.54959E+05-1.06006E+04 2.66065E+04-7.60338E-10-1.14833E-08
 -1       956-3.60136E+05-5.16891E+03-1.28086E+04 2.86102E+04 5.71799E-09-1.31813E-08
 -1       957-3.62652E+05-1.80786E+03-6.57464E+03 3.43960E+04 1.70030E-09-1.49246E-08
 -1       958-3.61285E+05-2.10959E+02-2.96261E+03 2.84519E+04-1.94814E-09-3.46563E-09
 -1       959-3.61475E+05-1.08543E+02-1.51286E+03 3.45784E+04 2.99769E-09-5.61204E-09
 -1       960-3.61395E+05-2.55577E+01-7.37723E+02 2.84358E+04-3.45062E-09 6.01290E-09
 -1       961-3.61396E+05-4.00763E+01-3.91245E+02 3.45973E+04 3.47973E-09-1.26252E-08
 -1       962-3.61420E+05-2.74844E+01-2.24092E+02 2.84331E+04 2.59524E-09-4.46903E-09
 -1       963-3.61396E+05-3.65687E+01-1.80087E+02 3.46007E+04 5.63864E-09 1.28957E-08
 -1       964-3.61425E+05-2.44579E+01-2.19171E+02 2.84324E+04-1.43248E-09 1.02966E-08
 -1       965-3.61407E+05-3.36265E+01-3.79217E+02 3.46001E+04-5.48948E-09-7.13453E-09
 -1       966-3.61410E+05-1.65611E+01-7.12534E+02 2.84338E+04-1.88084E-09-4.33420E-09
 -1       967-3.61494E+05-9.35896E+01-1.46146E+03 3.45869E+04-6.46878E-10 8.20273E-09
 -1       968-3.61312E+05-1.89839E+02-2.86087E+03 2.84455E+04 2.38970E-09 1.71255E-08
 -1       969-3.62643E+05-1.73003E+03-6.35123E+03 3.44501E+04 8.91305E-10 2.32146E-09
 -1       970-3.60211E+05-4.97568E+03-1.23723E+04 2.85644E+04-3.37059E-09 8.08541E-09
 -1       971-3.30995E+05-1.66465E+03-9.01764E+03 1.48725E+04 4.02906E-10-5.75645E-09
 -1       972-3.33170E+05-1.22024E+03-4.91093E+03 2.06051E+04-1.58616E-09 1.77579E-09
 -1       973-3.32000E+05-5.17519E+01-2.19956E+03 1.47540E+04 3.47882E-09-2.07729E-08
 -1       974-3.32134E+05-6.70842E+01-1.14009E+03 2.07380E+04-2.43290E-11 1.09435E-08
 -1       975-3.32079E+05-8.49819E+00-5.70102E+02 1.47422E+04-3.44062E-09-4.89081E-09
 -1       976-3.32074E+05-1.89822E+01-3.29309E+02 2.07530E+04 2.27624E-09 1.27511E-09
 -1       977-3.32095E+05-7.93310E+00-2.39714E+02 1.47390E+04 1.67233E-09-2.43813E-09
 -1       978-3.32079E+05-1.30764E+01-2.81485E+02 2.07576E+04-6.44786E-09 2.27934E-08
 -1       979-3.32094E+05 1.28268E-01-4.53085E+02 1.47377E+04-4.40866E-09 9.00093E-09
 -1       980-3.32113E+05-1.01630E+01-8.75369E+02 2.07585E+04 1.81645E-09 3.48962E-09
 -1       981-3.32066E+05 2.20031E+01-1.69565E+03 1.47382E+04 6.61498E-09-1.93228E-09
 -1       982-3.32346E+05-1.35421E+02-3.50503E+03 2.07521E+04 1.21854E-08-4.62749E-09
 -1       983-3.31853E+05-8.65262E+01-6.81036E+03 1.47441E+04 8.12906E-09 8.33506E-09
 -1       984-3.35621E+05-3.69218E+03-1.52515E+04 2.06690E+04 8.66658E-09 2.80035E-08
 -1       985-3.28770E+05-5.06989E+03-2.80064E+04 1.48158E+04 2.61070E-09-1.19708E-08
 -3
    1PSTEP                        31          16           1          
  100CL  116 6.38771E-01         409                     0   16           1
 -4  DISP        4    1
 -5  D1          1    2    1    0
 -5  D2          1    2    2    0
 -5  D3          1    2    3    0
 -5  ALL         1    2    0    0    1ALL
 -1         1 2.14885E-03 0.00000E+00 0.00000E+00
 -1         2 6.72554E-04 1.95325E-27 2.64698E-23
 -1         3 3.12370E-04-3.56725E-28 0.00000E+00
 -1         5 1.65581E-04-1.72387E-27 1.34417E-24
 -1         8 2.13998E-03-4.69554E-07 0.00000E+00
 -1         9 2.14847E-03-2.26473E-04 0.00000E+00
 -1        10 2.83613E-04-3.25764E-06 1.32349E-23
 -1        12 1.67043E-04 7.65470E-07-9.30578E-25
 -1        15 2.13015E-03-4.88319E-07-1.03398E-25
 -1        16 2.21040E-03-2.28015E-04 0.00000E+00
 -1        17 1.94111E-04-7.33068E-06 0.00000E+00
 -1        18 1.69910E-04 2.89777E-05 0.00000E+00
 -1        19 1.71428E-04 1.52560E-06 0.00000E+00
 -1        20 1.71569E-04-5.74046E-06 0.00000E+00
 -1        21 1.70737E-04-1.65744E-05 0.00000E+00
 -1        24 2.90306E-05-1.10768E-05 0.00000E+00
 -1        25 1.78759E-04 2.91869E-05 0.00000E+00
 -1        26 1.79437E-04 2.11323E-06 0.00000E+00
 -1        27 1.77356E-04-9.12911E-06 0.00000E+00
 -1        28 1.77021E-04-1.71719E-05 0.00000E+00
 -1        32 0.00000E+00 0.00000E+00 0.00000E+00
 -1        33 1.86437E-04 2.82832E-06 0.00000E+00
 -1        34 1.84418E-04-9.17814E-06 0.00000E+00
 -1        35 1.82569E-04-1.74987E-05 0.00000E+00
 -1        51 2.14824E-03-9.60848E-08-3.39516E-24
 -1        52 2.14714E-03-1.73810E-07-3.30872E-24
 -1        53 2.14565E-03-2.47909E-07 0.00000E+00
 -1        54 2.14388E-03-3.20535E-07-8.27181E-25
 -1        55 2.14196E-03-3.93409E-07 3.30872E-24
 -1        56 2.14186E-03 6.74242E-06 0.00000E+00
 -1        57 2.12893E-03 2.82177E-05 0.00000E+00
 -1        58 2.11214E-03 5.92590E-05 1.05879E-22
 -1        59 2.09389E-03 9.37674E-05 5.29396E-23
 -1        60 2.07697E-03 1.25058E-04-1.05879E-22
 -1        61 2.06395E-03 1.46715E-04 5.29396E-23
 -1        62 2.05653E-03 1.54049E-04 0.00000E+00
 -1        63 2.05576E-03 1.43656E-04 0.00000E+00
 -1        64 2.06136E-03 1.15387E-04 0.00000E+00
 -1        65 2.07246E-03 7.07795E-05 0.00000E+00
 -1        66 2.08737E-03 1.44547E-05 0.00000E+00
 -1        67 2.10415E-03-4.78262E-05 5.29396E-23
 -1        68 2.12063E-03-1.09157E-04-1.05879E-22
 -1        69 2.13469E-03-1.62720E-04-5.29396E-23
 -1        70 2.14445E-03-2.03190E-04 0.00000E+00
 -1        86 7.65673E-04-6.60588E-06-5.29396E-23
 -1        87 1.03526E-03-4.46352E-05 1.32349E-23
 -1        88 1.39687E-03-1.10347E-04 0.00000E+00
 -1        89 1.76292E-03-1.77740E-04 0.00000E+00
 -1        90 2.04299E-03-2.18551E-04 0.00000E+00
 -1       121 3.11563E-04-5.28537E-07 0.00000E+00
 -1       122 3.09144E-04-1.05958E-06-6.61744E-24
 -1       123 3.05123E-04-1.59558E-06-1.32349E-23
 -1       124 2.99513E-04-2.13903E-06 0.00000E+00
 -1       125 2.92334E-04-2.69205E-06 1.32349E-23
 -1       191 1.65622E-04 1.27620E-07-2.89513E-24
 -1       192 1.65744E-04 2.55232E-07-6.72084E-25
 -1       193 1.65946E-04 3.82832E-07 3.10193E-24
 -1       194 1.66231E-04 5.10411E-07-5.16988E-25
 -1       195 1.66596E-04 6.37960E-07-3.10193E-25
 -1       251 2.14058E-03-1.77603E-06 6.61744E-24
 -1       252 2.14120E-03-8.73298E-06 0.00000E+00
 -1       253 2.14178E-03-1.96364E-05-1.32349E-23
 -1       254 2.14234E-03-3.28896E-05 0.00000E+00
 -1       255 2.14288E-03-4.77774E-05 1.32349E-23
 -1       256 2.14340E-03-6.36292E-05 0.00000E+00
 -1       257 2.14391E-03-8.01370E-05-2.64698E-23
 -1       258 2.14442E-03-9.70106E-05 0.00000E+00
 -1       259 2.14493E-03-1.14098E-04-2.64698E-23
 -1       260 2.14543E-03-1.31253E-04 0.00000E+00
 -1       261 2.14593E-03-1.48354E-04-1.32349E-23
 -1       262 2.14644E-03-1.65279E-04-6.61744E-24
 -1       263 2.14695E-03-1.81839E-04 1.32349E-23
 -1       264 2.14746E-03-1.97835E-04 0.00000E+00
 -1       265 2.14798E-03-2.12859E-04 0.00000E+00
 -1       266 2.13834E-03-4.78195E-07 0.00000E+00
 -1       267 2.13670E-03-4.80651E-07 4.13590E-25
 -1       268 2.13507E-03-4.83498E-07-4.13590E-25
 -1       269 2.13343E-03-4.85185E-07-2.06795E-25
 -1       270 2.13179E-03-4.86844E-07-2.06795E-25
 -1       271 2.13933E-03-8.22027E-07 0.00000E+00
 -1       272 2.13989E-03-4.47195E-06 0.00000E+00
 -1       273 2.14157E-03-1.11738E-05 0.00000E+00
 -1       274 2.14427E-03-2.06625E-05 0.00000E+00
 -1       275 2.14788E-03-3.26437E-05 2.64698E-23
 -1       276 2.15228E-03-4.68015E-05 1.32349E-23
 -1       277 2.15733E-03-6.27983E-05 0.00000E+00
 -1       278 2.16291E-03-8.02795E-05 1.32349E-23
 -1       279 2.16889E-03-9.88766E-05 0.00000E+00
 -1       280 2.17514E-03-1.18210E-04 1.32349E-23
 -1       281 2.18150E-03-1.37894E-04 0.00000E+00
 -1       282 2.18786E-03-1.57538E-04 1.32349E-23
 -1       283 2.19406E-03-1.76754E-04 0.00000E+00
 -1       284 2.19997E-03-1.95155E-04 0.00000E+00
 -1       285 2.20546E-03-2.12365E-04 1.32349E-23
 -1       301 2.15948E-03-2.26758E-04 6.61744E-24
 -1       302 2.16914E-03-2.27003E-04 3.30872E-24
 -1       303 2.17826E-03-2.27240E-04 0.00000E+00
 -1       304 2.18764E-03-2.27478E-04 0.00000E+00
 -1       305 2.19809E-03-2.27729E-04 2.64698E-23
 -1       306 2.18314E-03-3.61828E-04 2.11758E-22
 -1       307 2.24787E-03-7.25571E-04 0.00000E+00
 -1       308 2.30667E-03-1.25704E-03 0.00000E+00
 -1       309 2.35166E-03-1.87264E-03-5.29396E-23
 -1       310 2.40097E-03-2.46258E-03 0.00000E+00
 -1       311 2.46604E-03-2.91950E-03 5.29396E-23
 -1       312 2.52193E-03-3.17364E-03-1.05879E-22
 -1       313 2.52022E-03-3.18827E-03 0.00000E+00
 -1       314 2.40406E-03-2.97292E-03-1.05879E-22
 -1       315 2.14056E-03-2.57690E-03 0.00000E+00
 -1       316 1.74652E-03-2.06681E-03-1.05879E-22
 -1       317 1.27585E-03-1.50600E-03-5.29396E-23
 -1       318 8.21449E-04-9.55714E-04-1.05879E-22
 -1       319 4.71553E-04-4.79773E-04 5.29396E-23
 -1       320 2.63267E-04-1.42967E-04 0.00000E+00
 -1       336 2.73179E-04-3.88078E-06 0.00000E+00
 -1       337 2.60871E-04-4.52493E-06 6.61744E-24
 -1       338 2.46743E-04-5.19179E-06 1.32349E-23
 -1       339 2.30858E-04-5.88194E-06 0.00000E+00
 -1       340 2.13288E-04-6.59927E-06 0.00000E+00
 -1       406 1.67570E-04 8.92928E-07 2.37814E-24
 -1       407 1.68180E-04 1.02030E-06 6.20385E-25
 -1       408 1.68870E-04 1.14754E-06 1.24077E-24
 -1       409 1.69642E-04 1.27450E-06 0.00000E+00
 -1       410 1.70494E-04 1.40090E-06 1.65436E-24
 -1       521 2.24601E-03-3.72920E-04-1.05879E-22
 -1       522 2.30995E-03-7.58002E-04 5.29396E-23
 -1       523 2.36392E-03-1.31935E-03 0.00000E+00
 -1       524 2.40129E-03-1.96688E-03 0.00000E+00
 -1       525 2.44406E-03-2.58683E-03 1.05879E-22
 -1       526 2.50662E-03-3.06819E-03 0.00000E+00
 -1       527 2.56269E-03-3.33483E-03 0.00000E+00
 -1       528 2.55931E-03-3.34896E-03 0.00000E+00
 -1       529 2.43251E-03-3.11999E-03-1.05879E-22
 -1       530 2.14677E-03-2.70416E-03-5.29396E-23
 -1       531 1.71938E-03-2.17177E-03 0.00000E+00
 -1       532 1.20988E-03-1.58932E-03 5.29396E-23
 -1       533 7.17226E-04-1.01687E-03 0.00000E+00
 -1       534 3.35442E-04-5.17313E-04-5.29396E-23
 -1       535 1.07025E-04-1.59896E-04 0.00000E+00
 -1       536 1.93464E-04 2.43728E-05 0.00000E+00
 -1       537 1.91848E-04 7.94529E-05 0.00000E+00
 -1       538 1.89360E-04 1.49412E-04 3.30872E-24
 -1       539 1.86428E-04 2.25675E-04-1.65436E-24
 -1       540 1.83788E-04 2.97743E-04-3.30872E-24
 -1       541 1.82063E-04 3.55137E-04 0.00000E+00
 -1       542 1.81257E-04 3.91632E-04-3.30872E-24
 -1       543 1.81049E-04 4.01134E-04 1.65436E-24
 -1       544 1.80754E-04 3.84379E-04 0.00000E+00
 -1       545 1.79741E-04 3.42294E-04-1.65436E-24
 -1       546 1.77878E-04 2.82372E-04-3.30872E-24
 -1       547 1.75374E-04 2.12216E-04 1.65436E-24
 -1       548 1.72898E-04 1.42473E-04 0.00000E+00
 -1       549 1.71107E-04 8.37932E-05 1.65436E-24
 -1       550 1.70168E-04 4.35441E-05 0.00000E+00
 -1       551 1.71205E-04-7.84056E-06 0.00000E+00
 -1       552 1.45239E-04-8.41844E-06 0.00000E+00
 -1       553 1.17118E-04-9.04940E-06-1.65436E-24
 -1       554 8.77639E-05-9.71526E-06-3.30872E-24
 -1       555 5.80961E-05-1.03920E-05-1.32349E-23
 -1       556 1.87233E-04 1.02981E-05 5.29396E-23
 -1       557 1.81694E-04 2.45433E-05 0.00000E+00
 -1       558 1.77370E-04 3.56721E-05-5.29396E-23
 -1       559 1.74141E-04 4.39728E-05 0.00000E+00
 -1       560 1.71886E-04 4.97340E-05 0.00000E+00
 -1       561 1.70487E-04 5.32463E-05 0.00000E+00
 -1       562 1.69829E-04 5.48016E-05 0.00000E+00
 -1       563 1.69798E-04 5.46926E-05 0.00000E+00
 -1       564 1.70281E-04 5.32126E-05 0.00000E+00
 -1       565 1.71166E-04 5.06554E-05 0.00000E+00
 -1       566 1.72343E-04 4.73155E-05 6.61744E-24
 -1       567 1.73701E-04 4.34876E-05-3.30872E-24
 -1       568 1.75131E-04 3.94665E-05 8.27181E-25
 -1       569 1.76524E-04 3.55468E-05 0.00000E+00
 -1       570 1.77769E-04 3.20236E-05 0.00000E+00
 -1       571 1.70002E-04 2.71976E-05 0.00000E+00
 -1       572 1.70096E-04 2.53564E-05 0.00000E+00
 -1       573 1.70190E-04 2.34685E-05-1.65436E-24
 -1       574 1.70285E-04 2.15489E-05-8.27181E-25
 -1       575 1.70380E-04 1.96126E-05 3.30872E-24
 -1       576 1.70475E-04 1.76746E-05 1.65436E-24
 -1       577 1.70569E-04 1.57502E-05-3.30872E-24
 -1       578 1.70664E-04 1.38544E-05 0.00000E+00
 -1       579 1.70759E-04 1.20022E-05-6.61744E-24
 -1       580 1.70855E-04 1.02088E-05 6.61744E-24
 -1       581 1.70950E-04 8.48941E-06 0.00000E+00
 -1       582 1.71045E-04 6.85899E-06 0.00000E+00
 -1       583 1.71141E-04 5.33265E-06 0.00000E+00
 -1       584 1.71236E-04 3.92533E-06 6.61744E-24
 -1       585 1.71332E-04 2.65180E-06 0.00000E+00
 -1       586 1.71340E-04 2.90146E-05 1.65436E-24
 -1       587 1.72733E-04 2.90509E-05-2.06795E-25
 -1       588 1.74130E-04 2.90869E-05-8.27181E-25
 -1       589 1.75573E-04 2.91223E-05 0.00000E+00
 -1       590 1.77103E-04 2.91564E-05 0.00000E+00
 -1       591 1.70515E-04 2.72819E-05 2.06795E-25
 -1       592 1.71125E-04 2.55653E-05 0.00000E+00
 -1       593 1.71740E-04 2.38337E-05 1.65436E-24
 -1       594 1.72358E-04 2.20918E-05-4.13590E-25
 -1       595 1.72978E-04 2.03444E-05 0.00000E+00
 -1       596 1.73599E-04 1.85962E-05 0.00000E+00
 -1       597 1.74218E-04 1.68520E-05 0.00000E+00
 -1       598 1.74833E-04 1.51164E-05-4.13590E-25
 -1       599 1.75444E-04 1.33943E-05 8.27181E-25
 -1       600 1.76048E-04 1.16903E-05-4.13590E-25
 -1       601 1.76643E-04 1.00092E-05 0.00000E+00
 -1       602 1.77229E-04 8.35566E-06-4.13590E-25
 -1       603 1.77802E-04 6.73442E-06 0.00000E+00
 -1       604 1.78362E-04 5.15031E-06 1.29247E-26
 -1       605 1.78906E-04 3.60798E-06-4.13590E-25
 -1       606 1.71441E-04 6.18773E-07 0.00000E+00
 -1       607 1.71451E-04-2.01067E-07-1.65436E-24
 -1       608 1.71460E-04-9.39025E-07-3.30872E-24
 -1       609 1.71468E-04-1.60086E-06 0.00000E+00
 -1       610 1.71477E-04-2.19238E-06 0.00000E+00
 -1       611 1.71485E-04-2.71946E-06 0.00000E+00
 -1       612 1.71494E-04-3.18797E-06 0.00000E+00
 -1       613 1.71502E-04-3.60380E-06 0.00000E+00
 -1       614 1.71511E-04-3.97284E-06-1.65436E-24
 -1       615 1.71519E-04-4.30098E-06 0.00000E+00
 -1       616 1.71528E-04-4.59410E-06 0.00000E+00
 -1       617 1.71536E-04-4.85809E-06-4.13590E-25
 -1       618 1.71545E-04-5.09883E-06 0.00000E+00
 -1       619 1.71553E-04-5.32222E-06 0.00000E+00
 -1       620 1.71562E-04-5.53413E-06 0.00000E+00
 -1       621 1.72513E-04 1.62399E-06 3.30872E-24
 -1       622 1.73737E-04 1.72264E-06 8.27181E-25
 -1       623 1.75070E-04 1.82114E-06-3.30872E-24
 -1       624 1.76484E-04 1.91936E-06 0.00000E+00
 -1       625 1.77949E-04 2.01732E-06-1.65436E-24
 -1       626 1.71875E-04 6.53067E-07 0.00000E+00
 -1       627 1.72298E-04-1.54224E-07-3.30872E-24
 -1       628 1.72700E-04-9.04054E-07-3.30872E-24
 -1       629 1.73084E-04-1.60453E-06 1.65436E-24
 -1       630 1.73452E-04-2.26380E-06 3.30872E-24
 -1       631 1.73808E-04-2.89001E-06-1.65436E-24
 -1       632 1.74155E-04-3.49132E-06-3.30872E-24
 -1       633 1.74496E-04-4.07589E-06 0.00000E+00
 -1       634 1.74833E-04-4.65188E-06 0.00000E+00
 -1       635 1.75170E-04-5.22743E-06 0.00000E+00
 -1       636 1.75510E-04-5.81073E-06-3.30872E-24
 -1       637 1.75856E-04-6.40992E-06 0.00000E+00
 -1       638 1.76211E-04-7.03316E-06-3.30872E-24
 -1       639 1.76577E-04-7.68864E-06 8.27181E-25
 -1       640 1.76959E-04-8.38453E-06-1.65436E-24
 -1       656 1.72004E-04-6.29133E-06 0.00000E+00
 -1       657 1.72849E-04-6.86453E-06 0.00000E+00
 -1       658 1.73965E-04-7.43632E-06 0.00000E+00
 -1       659 1.75208E-04-8.00778E-06-6.61744E-24
 -1       660 1.76398E-04-8.58095E-06 6.61744E-24
 -1       661 1.71733E-04-5.98903E-06 0.00000E+00
 -1       662 1.71932E-04-6.32379E-06-8.27181E-25
 -1       663 1.72161E-04-6.74001E-06 0.00000E+00
 -1       664 1.72419E-04-7.23175E-06 8.27181E-25
 -1       665 1.72704E-04-7.79368E-06 0.00000E+00
 -1       666 1.73013E-04-8.42041E-06 0.00000E+00
 -1       667 1.73344E-04-9.10680E-06-1.65436E-24
 -1       668 1.73695E-04-9.84774E-06-8.27181E-25
 -1       669 1.74065E-04-1.06383E-05 1.65436E-24
 -1       670 1.74452E-04-1.14738E-05 8.27181E-25
 -1       671 1.74854E-04-1.23493E-05-1.65436E-24
 -1       672 1.75269E-04-1.32603E-05-8.27181E-25
 -1       673 1.75695E-04-1.42023E-05-1.65436E-24
 -1       674 1.76131E-04-1.51710E-05 0.00000E+00
 -1       675 1.76575E-04-1.61617E-05 0.00000E+00
 -1       676 1.71788E-04-1.66745E-05-3.30872E-24
 -1       677 1.72838E-04-1.67747E-05-1.65436E-24
 -1       678 1.73887E-04-1.68747E-05 0.00000E+00
 -1       679 1.74934E-04-1.69745E-05 1.65436E-24
 -1       680 1.75979E-04-1.70742E-05 0.00000E+00
 -1       771 1.81448E-05 1.31593E-05 0.00000E+00
 -1       772 8.97121E-06 3.30567E-05 5.29396E-23
 -1       773 1.42827E-06 4.88278E-05-5.29396E-23
 -1       774-4.59572E-06 6.07096E-05-2.64698E-23
 -1       775-9.21020E-06 6.89482E-05 5.29396E-23
 -1       776-1.25290E-05 7.38042E-05 0.00000E+00
 -1       777-1.46659E-05 7.55469E-05 0.00000E+00
 -1       778-1.57372E-05 7.44576E-05 0.00000E+00
 -1       779-1.58584E-05 7.08250E-05 5.29396E-23
 -1       780-1.51474E-05 6.49475E-05-2.64698E-23
 -1       781-1.37210E-05 5.71295E-05 5.29396E-23
 -1       782-1.16977E-05 4.76831E-05-2.64698E-23
 -1       783-9.19528E-06 3.69244E-05 5.29396E-23
 -1       784-6.33250E-06 2.51746E-05 2.64698E-23
 -1       785-3.22752E-06 1.27578E-05 5.29396E-23
 -1       786 1.78798E-04 2.72709E-05 0.00000E+00
 -1       787 1.78839E-04 2.54041E-05-4.13590E-25
 -1       788 1.78881E-04 2.35786E-05 0.00000E+00
 -1       789 1.78923E-04 2.17862E-05 4.13590E-25
 -1       790 1.78966E-04 2.00223E-05 1.65436E-24
 -1       791 1.79008E-04 1.82823E-05 0.00000E+00
 -1       792 1.79051E-04 1.65639E-05-1.65436E-24
 -1       793 1.79094E-04 1.48650E-05 8.27181E-25
 -1       794 1.79136E-04 1.31852E-05 0.00000E+00
 -1       795 1.79179E-04 1.15244E-05 0.00000E+00
 -1       796 1.79222E-04 9.88437E-06 1.65436E-24
 -1       797 1.79265E-04 8.26671E-06-8.27181E-25
 -1       798 1.79308E-04 6.67548E-06-1.65436E-24
 -1       799 1.79351E-04 5.11474E-06-8.27181E-25
 -1       800 1.79394E-04 3.59159E-06 0.00000E+00
 -1       801 1.37748E-04 2.61457E-05 0.00000E+00
 -1       802 1.35476E-05 1.64868E-05 0.00000E+00
 -1       803-9.32381E-05 8.45587E-06 0.00000E+00
 -1       804-8.38557E-05 5.84467E-06 0.00000E+00
 -1       805-2.78572E-05 2.37607E-06 5.29396E-23
 -1       806 1.79368E-04 2.72061E-05 0.00000E+00
 -1       807 1.79963E-04 2.52519E-05 1.65436E-24
 -1       808 1.80546E-04 2.33292E-05 0.00000E+00
 -1       809 1.81115E-04 2.14416E-05 0.00000E+00
 -1       810 1.81669E-04 1.95928E-05-3.30872E-24
 -1       811 1.82208E-04 1.77864E-05 0.00000E+00
 -1       812 1.82729E-04 1.60259E-05 3.30872E-24
 -1       813 1.83232E-04 1.43148E-05 8.27181E-25
 -1       814 1.83715E-04 1.26567E-05-1.65436E-24
 -1       815 1.84177E-04 1.10551E-05 0.00000E+00
 -1       816 1.84617E-04 9.51354E-06 0.00000E+00
 -1       817 1.85033E-04 8.03547E-06-1.65436E-24
 -1       818 1.85424E-04 6.62444E-06 1.65436E-24
 -1       819 1.85789E-04 5.28394E-06-8.27181E-25
 -1       820 1.86126E-04 4.01743E-06-1.65436E-24
 -1       821 1.79314E-04 3.51708E-07 0.00000E+00
 -1       822 1.79182E-04-2.01733E-06 1.65436E-24
 -1       823 1.79050E-04-4.73380E-06 0.00000E+00
 -1       824 1.78917E-04-7.53549E-06 0.00000E+00
 -1       825 1.78783E-04-1.01382E-05-3.30872E-24
 -1       826 1.78651E-04-1.22587E-05 0.00000E+00
 -1       827 1.78519E-04-1.37406E-05-3.30872E-24
 -1       828 1.78389E-04-1.44311E-05 0.00000E+00
 -1       829 1.78258E-04-1.43854E-05 0.00000E+00
 -1       830 1.78128E-04-1.36630E-05 1.65436E-24
 -1       831 1.77997E-04-1.25011E-05 3.30872E-24
 -1       832 1.77866E-04-1.11393E-05 1.65436E-24
 -1       833 1.77735E-04-9.87010E-06-3.30872E-24
 -1       834 1.77606E-04-8.98515E-06 0.00000E+00
 -1       835 1.77477E-04-8.67559E-06 8.27181E-25
 -1       836 1.80805E-04 2.23190E-06 3.30872E-24
 -1       837 1.82051E-04 2.35349E-06-1.65436E-24
 -1       838 1.83207E-04 2.47500E-06-3.30872E-24
 -1       839 1.84302E-04 2.59582E-06 8.27181E-25
 -1       840 1.85369E-04 2.71647E-06 8.27181E-25
 -1       856 1.77338E-04-9.89528E-06 0.00000E+00
 -1       857 1.77318E-04-1.05307E-05 1.29247E-26
 -1       858 1.77297E-04-1.10556E-05 0.00000E+00
 -1       859 1.77277E-04-1.14906E-05 0.00000E+00
 -1       860 1.77256E-04-1.18560E-05-4.13590E-25
 -1       861 1.77235E-04-1.21725E-05 4.13590E-25
 -1       862 1.77214E-04-1.24606E-05 8.27181E-25
 -1       863 1.77193E-04-1.27409E-05 4.13590E-25
 -1       864 1.77172E-04-1.30341E-05 0.00000E+00
 -1       865 1.77150E-04-1.33608E-05 4.13590E-25
 -1       866 1.77129E-04-1.37415E-05-8.27181E-25
 -1       867 1.77108E-04-1.41967E-05 0.00000E+00
 -1       868 1.77087E-04-1.47470E-05 0.00000E+00
 -1       869 1.77065E-04-1.54128E-05 0.00000E+00
 -1       870 1.77044E-04-1.62143E-05 0.00000E+00
 -1       871 1.78396E-04-9.13309E-06 0.00000E+00
 -1       872 1.79577E-04-9.14027E-06 0.00000E+00
 -1       873 1.80834E-04-9.14809E-06 0.00000E+00
 -1       874 1.82104E-04-9.15662E-06-2.58494E-25
 -1       875 1.83319E-04-9.16570E-06 2.06795E-25
 -1       876 1.77765E-04-9.88148E-06-3.30872E-24
 -1       877 1.78153E-04-1.05696E-05 1.65436E-24
 -1       878 1.78520E-04-1.12012E-05 3.30872E-24
 -1       879 1.78869E-04-1.17833E-05 1.65436E-24
 -1       880 1.79202E-04-1.23231E-05 0.00000E+00
 -1       881 1.79522E-04-1.28278E-05 0.00000E+00
 -1       882 1.79831E-04-1.33043E-05 3.30872E-24
 -1       883 1.80133E-04-1.37598E-05 0.00000E+00
 -1       884 1.80429E-04-1.42014E-05 0.00000E+00
 -1       885 1.80723E-04-1.46360E-05 1.65436E-24
 -1       886 1.81017E-04-1.50709E-05 0.00000E+00
 -1       887 1.81313E-04-1.55130E-05 1.65436E-24
 -1       888 1.81615E-04-1.59696E-05 0.00000E+00
 -1       889 1.81924E-04-1.64477E-05 8.27181E-25
 -1       890 1.82243E-04-1.69544E-05 0.00000E+00
 -1       891 1.78083E-04-1.72267E-05 1.65436E-24
 -1       892 1.79123E-04-1.72818E-05 0.00000E+00
 -1       893 1.80116E-04-1.73367E-05 0.00000E+00
 -1       894 1.81038E-04-1.73915E-05-4.13590E-25
 -1       895 1.81863E-04-1.74460E-05 4.13590E-25
 -1       956 1.86313E-04 1.80295E-06 0.00000E+00
 -1       957 1.86187E-04 8.63190E-07-8.27181E-25
 -1       958 1.86060E-04-9.38333E-10-3.30872E-24
 -1       959 1.85934E-04-7.99984E-07 1.65436E-24
 -1       960 1.85807E-04-1.54453E-06-3.30872E-24
 -1       961 1.85681E-04-2.24520E-06-1.65436E-24
 -1       962 1.85554E-04-2.91262E-06-3.30872E-24
 -1       963 1.85427E-04-3.55743E-06 0.00000E+00
 -1       964 1.85301E-04-4.19028E-06 0.00000E+00
 -1       965 1.85174E-04-4.82180E-06-1.65436E-24
 -1       966 1.85048E-04-5.46264E-06 3.30872E-24
 -1       967 1.84921E-04-6.12345E-06 1.65436E-24
 -1       968 1.84795E-04-6.81485E-06-3.30872E-24
 -1       969 1.84668E-04-7.54745E-06-1.65436E-24
 -1       970 1.84542E-04-8.33182E-06 3.30872E-24
 -1       971 1.84304E-04-1.00210E-05-3.30872E-24
 -1       972 1.84188E-04-1.07719E-05 1.65436E-24
 -1       973 1.84071E-04-1.14408E-05-3.30872E-24
 -1       974 1.83955E-04-1.20384E-05 1.65436E-24
 -1       975 1.83839E-04-1.25752E-05 3.30872E-24
 -1       976 1.83723E-04-1.30617E-05 0.00000E+00
 -1       977 1.83607E-04-1.35087E-05-3.30872E-24
 -1       978 1.83491E-04-1.39266E-05 0.00000E+00
 -1       979 1.83374E-04-1.43262E-05-3.30872E-24
 -1       980 1.83258E-04-1.47179E-05 1.65436E-24
 -1       981 1.83142E-04-1.51125E-05 3.30872E-24
 -1       982 1.83026E-04-1.55205E-05-1.65436E-24
 -1       983 1.82910E-04-1.59526E-05-3.30872E-24
 -1       984 1.82795E-04-1.64193E-05 1.65436E-24
 -1       985 1.82680E-04-1.69312E-05 3.30872E-24
 -3
    1PSTEP                        32          16           1          
  100CL  116 6.38771E-01         409                     0   16           1
 -4  STRESS      6    1
 -5  SXX         1    4    1    1
 -5  SYY         1    4    2    2
 -5  SZZ         1    4    3    3
 -5  SXY         1    4    1    2
 -5  SYZ         1    4    2    3
 -5  SZX         1    4    3    1
 -1         1-5.36550E+06-1.62917E+06-1.13357E+06-1.34628E+06-2.16824E-09 5.16709E-07
 -1         2 1.74745E+06 2.74308E+07 6.11425E+06 7.27450E+06 1.74361E-07 8.92760E-08
 -1         3-1.20058E+03-1.50228E+06 3.81433E+02-1.91673E+03-5.74925E-10-1.54214E-08
 -1         5-4.74833E+01 3.65352E+05 9.42067E+00-9.54327E-01-4.78036E-10-4.59713E-08
 -1         8 8.70564E+04-6.66523E+04 9.07452E+04-3.00631E+05-2.72848E-11 3.98504E-08
 -1         9 9.56291E+06 5.09869E+06 2.76698E+06 1.22085E+05 2.85567E-08 9.47155E-08
 -1        10-2.05093E+03-1.56540E+06-3.56152E+03-1.29688E+04-1.16979E-08-1.30018E-08
 -1        12-4.37171E+01 3.65372E+05 3.08088E+02-6.64573E+00-5.14571E-10 1.99507E-08
 -1        15 9.13707E+02 5.02126E+02 2.95353E+03 6.47127E-01 1.64036E-10-4.12397E-08
 -1        16 1.74183E+07-3.68965E+05 2.40508E+06-1.80224E+06 2.71636E-10 1.56152E-07
 -1        17 6.45237E+06 4.50792E+06 1.72204E+06 4.39375E+06 1.91474E-08 4.06988E-08
 -1        18 1.10142E+05 2.48712E+04-2.09121E+03-1.11219E+05 1.01215E-08 9.51331E-10
 -1        19 1.16226E+05 1.34202E+05-9.11469E+02 2.12215E+04 1.26911E-09 1.12777E-10
 -1        20-7.50065E+04-5.45712E+05-1.22247E+05 2.55849E+04-9.65580E-10 1.11510E-08
 -1        21-4.45523E+01-2.85210E+05-8.93664E+02 2.05568E+02 1.14990E-08-1.65740E-08
 -1        24 1.07869E+07 8.92773E+06 3.01154E+06 8.28805E+06-1.44539E-07-4.93795E-08
 -1        25 7.08934E+04 7.07942E+04 4.94768E+04-5.32118E+05-2.58497E-09 1.35062E-08
 -1        26-5.23965E+04 8.70773E+04-2.34972E+04 3.43084E+02 5.10408E-10 7.01363E-09
 -1        27-7.38671E+04-2.95342E+05-1.08390E+05 6.57748E+04 4.31707E-09-2.33528E-09
 -1        28 2.15278E+04-8.18544E+04 1.62675E+04 2.04402E+04-1.95422E-09 2.29981E-09
 -1        32-1.61842E+06-2.98350E+06-1.76080E+05 2.61176E+05-3.86135E-08-7.07757E-09
 -1        33-1.70611E+05 8.79120E+04 3.07641E+04-3.71431E+04-2.50179E-09 5.69526E-09
 -1        34-2.13835E+05-2.35614E+04 6.44826E+02 7.15690E+04-4.07260E-09-9.59290E-09
 -1        35-2.21420E+04-3.24691E+04-1.29134E+03 4.96333E+04-2.63258E-09 5.84623E-09
 -1        51 6.04444E+04-2.06490E+05 1.27319E+05-3.73378E+05-8.73115E-11 2.51734E-07
 -1        52 2.01947E+04-1.83891E+05 6.63631E+04-4.35572E+05-1.50067E-11-7.56118E-08
 -1        53 3.78155E+03-1.98586E+05 3.38261E+04-3.72142E+05 1.52795E-10-3.87445E-08
 -1        54 6.05736E+03-1.94487E+05 2.63323E+04-4.36747E+05-1.89175E-10-1.80571E-08
 -1        55 1.33073E+04-2.00538E+05 3.03097E+04-3.72114E+05-5.09317E-11 7.70278E-08
 -1        56-9.72462E+06-1.30220E+06-8.85421E+05-4.01491E+06-2.39816E-08 1.04337E-07
 -1        57-1.09673E+07-9.41535E+05-5.54935E+05-2.80857E+06 3.68163E-08-2.13200E-07
 -1        58-9.63851E+06-1.71883E+06-1.97626E+05-4.14691E+06-6.22822E-09-5.68252E-09
 -1        59-1.09800E+07-4.97031E+05-1.10242E+05-2.77743E+06-8.74854E-09-4.30227E-08
 -1        60-9.75038E+06-1.70905E+06-5.70043E+04-4.08171E+06 3.05226E-09 7.43457E-08
 -1        61-1.04259E+07-7.98322E+05 5.15144E+03-3.04330E+06 1.37261E-08 8.93888E-08
 -1        62-1.00903E+07-1.48658E+06-5.83001E+04-3.80291E+06 4.02360E-09 1.53577E-07
 -1        63-9.73313E+06-1.38251E+06 3.35347E+04-3.66620E+06 3.20615E-08 7.62229E-08
 -1        64-1.03820E+07-1.16846E+06-4.91028E+04-3.42167E+06-1.83791E-08 4.55093E-08
 -1        65-9.42690E+06-1.86443E+06-1.49768E+03-4.38423E+06-5.01313E-08 1.32423E-07
 -1        66-1.04932E+07-9.37170E+05-4.37802E+04-3.15486E+06 8.84029E-10 8.68022E-08
 -1        67-9.41803E+06-2.06100E+06-1.02045E+05-4.66999E+06-2.75959E-08-1.25443E-07
 -1        68-1.04649E+07-9.20777E+05-1.89364E+05-3.18221E+06-4.85379E-08-2.55663E-07
 -1        69-9.64487E+06-2.14929E+06-5.01533E+05-4.24234E+06-3.18842E-08-2.21073E-07
 -1        70-1.01782E+07-9.22126E+05-8.29820E+05-3.52211E+06-3.58341E-10 5.93718E-08
 -1        86-1.50608E+06-1.71390E+07-3.20028E+06-3.47861E+06-5.54792E-09-6.89033E-09
 -1        87 2.09058E+06 9.79307E+06 2.77432E+06 5.63286E+06-1.57161E-08-2.12262E-07
 -1        88-1.88306E+05-9.63214E+05 2.61279E+05-2.12581E+06 1.27770E-07-6.80060E-08
 -1        89 3.12028E+06 9.68874E+06 2.95215E+06 5.86720E+06-8.38481E-08-2.29451E-07
 -1        90-2.46934E+06-1.70802E+07-3.40181E+06-3.73612E+06 1.48188E-07-1.72739E-07
 -1       121-1.65147E+03-1.50628E+06-3.79729E+02 9.51351E+02 1.42541E-09 1.86737E-08
 -1       122-1.03427E+03-1.50232E+06 7.40110E+02-3.83488E+03-4.82532E-09 2.49092E-08
 -1       123-1.68296E+03-1.50640E+06 4.13494E+02 2.84174E+03 3.69732E-09-7.91260E-09
 -1       124 5.07458E+02-1.50180E+06 2.88440E+03-8.04452E+03-9.68976E-09 1.29567E-08
 -1       125-2.48751E+03-1.50725E+06 3.56972E+03 5.12795E+03 5.92081E-09 1.98997E-09
 -1       191-5.01430E+01 3.65374E+05 9.20207E+00 4.91692E-01-4.50400E-10-1.92358E-08
 -1       192-4.83759E+01 3.65352E+05 2.00459E+01-3.20737E+00-5.94760E-10-2.84599E-08
 -1       193-5.25015E+01 3.65374E+05 3.52777E+01 2.80534E+00-9.15282E-10-1.66110E-08
 -1       194-5.12415E+01 3.65355E+05 7.60650E+01-7.33238E+00-4.70310E-10-1.01209E-08
 -1       195-5.70301E+01 3.65371E+05 1.46776E+02 4.71917E+00-1.11475E-09 1.33641E-08
 -1       251 1.79329E+06-8.83978E+04 1.98899E+05 2.27879E+04 4.02360E-09 8.17818E-08
 -1       252 1.91269E+06 1.02457E+05 1.46471E+05-1.08353E+05-9.03128E-10-6.12054E-08
 -1       253 1.83962E+06-1.31624E+04 5.20455E+04-9.03570E+03-7.72616E-10 8.50523E-08
 -1       254 1.85780E+06 1.63303E+04 3.34072E+04-6.35265E+04 2.09247E-08 2.29899E-07
 -1       255 1.84686E+06-1.69359E+03 1.36771E+04-2.20227E+04-1.19594E-08-5.60640E-08
 -1       256 1.84931E+06 3.24494E+03 8.56096E+03-4.53262E+04-3.24775E-10-4.40945E-08
 -1       257 1.84790E+06 3.58710E+01 4.86782E+03-2.72323E+04-1.09670E-08 1.77186E-07
 -1       258 1.84836E+06 1.71806E+03 5.13745E+03-3.84141E+04 2.98328E-10-9.24180E-09
 -1       259 1.84777E+06-1.44293E+02 6.82875E+03-2.89340E+04-1.27907E-08 8.68927E-08
 -1       260 1.85009E+06 4.97911E+03 1.41457E+04-3.71159E+04 1.83190E-08-3.80114E-07
 -1       261 1.84616E+06-3.21322E+03 2.39105E+04-2.85300E+04 2.17471E-08 2.35195E-08
 -1       262 1.86150E+06 2.82299E+04 5.82655E+04-4.02752E+04 8.94900E-09 1.02976E-07
 -1       263 1.83633E+06-2.33303E+04 9.30372E+04-2.57730E+04 7.68409E-09-9.14915E-08
 -1       264 1.93175E+06 1.78413E+05 2.53436E+05-5.00716E+04 1.00279E-08-4.30446E-08
 -1       265 1.77593E+06-1.52903E+05 3.59145E+05-1.87286E+04 1.53625E-08 1.37807E-08
 -1       266-1.65414E+04-7.73559E+03 3.88068E+04-1.38454E+01 1.67347E-10 1.82773E-07
 -1       267 1.91758E+04 9.01469E+03 2.74301E+04 1.59762E+01 1.09594E-10-9.07171E-08
 -1       268-2.57145E+03-1.27680E+03 1.01955E+04-2.03557E+00 4.82032E-11 2.01942E-08
 -1       269 3.03610E+03 1.52798E+03 6.62704E+03 2.37122E+00-6.05951E-11-4.02787E-10
 -1       270-4.55723E+02-2.51063E+02 3.19896E+03-3.21788E-01 7.83302E-11 7.28029E-08
 -1       271-1.74258E+06-2.21817E+05-1.39605E+05-6.80350E+05-3.14321E-09-1.11497E-07
 -1       272-1.72193E+06-3.76052E+05-8.72408E+04-7.43815E+05 9.71340E-09-2.94747E-07
 -1       273-1.77259E+06-2.50305E+05-3.39279E+04-6.69730E+05 8.15635E-09-1.12414E-08
 -1       274-1.68914E+06-3.41163E+05-1.75016E+04-7.64808E+05-3.08974E-08 2.69476E-07
 -1       275-1.77994E+06-2.49110E+05-8.40699E+03-6.64722E+05 1.39189E-08 7.55117E-08
 -1       276-1.68298E+06-3.42380E+05-3.57714E+03-7.76676E+05-2.21753E-08 1.90324E-07
 -1       277-1.78349E+06-2.45623E+05-2.23749E+03-6.61349E+05-1.84718E-08 1.46875E-07
 -1       278-1.68114E+06-3.45917E+05-1.00006E+03-7.84534E+05 7.65613E-09-1.69781E-07
 -1       279-1.78542E+06-2.43230E+05-1.07311E+03-6.59343E+05 1.16142E-09 4.70442E-08
 -1       280-1.68066E+06-3.48037E+05-1.57520E+03-7.88425E+05 1.31877E-09 1.29419E-07
 -1       281-1.78589E+06-2.42298E+05-2.81418E+03-6.58733E+05-2.05470E-08 8.18864E-08
 -1       282-1.68199E+06-3.49770E+05-6.72577E+03-7.87954E+05-5.19640E-09 3.41752E-07
 -1       283-1.78402E+06-2.41729E+05-1.21532E+04-6.59690E+05-2.89401E-09 5.00231E-08
 -1       284-1.69323E+06-3.63669E+05-3.26397E+04-7.80975E+05-2.18893E-08-1.06101E-07
 -1       285-1.77277E+06-2.31364E+05-5.15746E+04-6.63728E+05 3.04553E-08 2.23918E-08
 -1       301-2.56095E+02-5.41149E+05 1.64578E+05-9.75980E+05 9.02219E-10 2.27592E-08
 -1       302-2.31248E+03-4.95303E+05 1.00352E+05-1.42502E+06-1.57597E-08 1.32801E-07
 -1       303-1.71708E+04-5.30426E+05 6.04791E+04-9.73353E+05-1.46756E-08 7.85967E-08
 -1       304-1.50398E+04-4.99203E+05 6.74513E+04-1.42431E+06-1.24273E-08 1.25110E-07
 -1       305-1.60173E+04-5.25098E+05 9.09462E+04-9.76234E+05-5.30235E-09-4.01196E-08
 -1       306-2.50177E+07-4.95925E+06-6.80106E+06-1.10384E+06-5.89062E-08-4.18513E-08
 -1       307 1.93393E+07 1.43818E+06 4.26211E+06-1.23340E+07-7.72765E-07-9.44856E-08
 -1       308-7.43480E+06-3.72762E+05-3.74501E+05 4.15061E+06-1.20926E-07 3.51414E-07
 -1       309-2.79807E+06 4.91094E+06 1.65996E+06-1.78479E+07 3.17799E-07 3.15995E-08
 -1       310-1.14637E+07-1.03986E+06-1.48693E+06 3.88667E+06-8.84174E-08 1.05341E-07
 -1       311 2.87171E+07-6.42591E+05 5.64370E+06-7.26628E+06 4.40545E-07 5.07571E-08
 -1       312-2.63256E+07-5.52685E+06-6.64537E+06-4.37076E+06-7.61356E-08-2.75613E-08
 -1       313 3.51900E+07 1.07382E+07 8.41001E+06 1.77300E+07-1.21800E-07-2.03727E-08
 -1       314-1.53596E+07-1.36607E+07-5.87706E+06-1.04936E+07 2.96801E-07-1.16066E-07
 -1       315-2.20436E+06 2.25041E+07 4.44829E+06 9.02280E+06-4.36048E-07-9.26666E-08
 -1       316 3.61842E+05-8.52790E+06-3.50536E+05-3.37956E+06-1.00260E-06-3.95899E-07
 -1       317-1.65334E+07 1.84768E+07 1.61903E+06-5.49591E+06 7.17955E-07-6.55979E-07
 -1       318-1.63168E+06-1.03472E+07-1.50862E+06-4.58967E+06-7.13597E-07 8.69622E-08
 -1       319 4.82561E+06 2.36934E+07 5.37500E+06 1.30598E+07-8.51578E-08 1.97062E-07
 -1       320-1.92710E+07-1.36620E+07-7.75821E+06-1.05296E+07 1.74390E-07-3.89991E-08
 -1       336-3.89503E+02-1.63059E+06-1.26741E+04 7.71733E+03-2.39506E-08-2.45200E-09
 -1       337-4.93658E+03-1.63066E+06-1.63461E+04-1.87499E+04-4.37230E-08 7.01402E-09
 -1       338 3.89751E+02-1.63019E+06-2.53050E+04 1.08464E+04-3.11720E-08-3.46336E-09
 -1       339-2.68902E+04-1.64570E+06-5.71463E+04-2.48761E+04-5.64687E-08 6.90852E-09
 -1       340 1.77546E+04-1.61727E+06-8.98721E+04 1.37373E+04-3.64962E-08 3.24508E-08
 -1       406-2.21890E+01 3.65357E+05 6.06129E+02 2.21377E+00-1.66069E-09 2.24281E-08
 -1       407 1.68597E+02 3.65478E+05 1.29274E+03 1.93171E+01-6.05382E-10-3.36513E-10
 -1       408 6.20342E+02 3.65264E+05 2.57914E+03-2.19332E+01-1.89902E-09 1.98088E-09
 -1       409 2.75130E+03 3.66302E+05 5.81064E+03 2.29791E+02-1.42393E-10-8.64839E-09
 -1       410 7.98310E+03 3.64524E+05 1.18603E+04-2.20506E+02-2.38470E-09-4.05271E-09
 -1       521-2.69014E+07-6.18530E+06-8.07826E+06-8.14148E+05-9.11532E-08-1.39698E-09
 -1       522 2.03487E+07 2.10097E+06 4.41778E+06-1.54700E+07-4.91447E-07-1.38010E-07
 -1       523-8.26395E+06-6.33829E+05-3.89233E+05 4.64460E+06 5.03496E-09-2.03509E-07
 -1       524-5.66434E+06 7.28576E+06 1.84048E+06-2.09984E+07 7.08053E-07-3.87518E-07
 -1       525-1.25391E+07-1.54473E+06-1.67017E+06 4.37729E+06 3.49362E-07-1.57655E-07
 -1       526 3.18365E+07-7.98806E+05 6.03427E+06-9.60897E+06 1.09430E-07 3.42261E-08
 -1       527-2.84387E+07-6.97046E+06-7.77758E+06-4.34608E+06 4.87780E-08-1.27038E-08
 -1       528 3.91008E+07 1.20870E+07 8.93345E+06 2.04573E+07-2.25846E-08-8.08504E-08
 -1       529-1.65068E+07-1.57501E+07-6.85322E+06-1.08491E+07 1.26311E-08 7.56700E-09
 -1       530-4.39386E+06 2.67302E+07 4.80010E+06 8.98700E+06 1.99070E-08 3.77884E-07
 -1       531 3.34173E+05-9.75202E+06-3.47915E+05-3.54101E+06-6.45217E-07 2.05939E-07
 -1       532-1.95227E+07 2.09256E+07 1.81978E+06-8.89355E+06 5.10234E-07-5.66462E-07
 -1       533-1.69995E+06-1.16590E+07-1.63255E+06-4.67298E+06-1.14786E-07-9.65374E-07
 -1       534 3.13388E+06 2.81053E+07 5.70634E+06 1.38354E+07-7.25195E-08 6.89994E-07
 -1       535-2.06476E+07-1.58787E+07-9.00668E+06-1.08907E+07 8.75443E-08 3.90835E-07
 -1       536-6.55223E+05-4.28381E+04-3.18401E+04-4.77917E+04-8.03129E-09 4.25953E-08
 -1       537-1.04743E+05 4.15983E+04 7.64908E+04 1.10616E+05-9.58631E-08 7.27887E-08
 -1       538-3.92087E+05 2.29890E+03 5.21766E+03-6.54702E+04 2.28179E-08 8.95375E-08
 -1       539-2.87055E+05 2.74194E+03 2.20863E+04 1.25073E+05 1.44924E-07 9.25401E-08
 -1       540-4.77437E+05-2.31356E+02-1.71416E+04-6.26562E+04-7.98354E-09 9.31886E-08
 -1       541 6.22322E+04 1.42101E+04 8.95494E+04 8.66213E+04-1.60944E-08 5.78347E-08
 -1       542-7.31982E+05-1.69843E+04-7.07226E+04-2.63529E+04 1.54391E-08 3.82983E-08
 -1       543 2.79606E+05 2.30040E+04 1.32649E+05-1.22204E+04-1.67699E-08-1.05465E-08
 -1       544-6.88997E+05-1.38306E+04-6.27829E+04 3.56711E+04-6.03586E-09-3.24449E-08
 -1       545-3.81463E+04 7.71551E+03 6.63949E+04-1.01552E+05-1.27906E-08-6.48156E-08
 -1       546-4.22736E+05 5.33839E+03-1.04523E+04 6.27192E+04 2.93367E-08-8.27856E-08
 -1       547-3.02837E+05-4.67308E+03 7.59358E+03-1.27747E+05-9.98461E-08-9.49590E-08
 -1       548-4.31395E+05 4.46380E+03-2.18293E+04 6.23937E+04-1.03721E-07-8.77103E-08
 -1       549-2.03954E+04 1.01191E+04 4.63361E+04-9.91139E+04-6.16851E-08-5.56440E-08
 -1       550-6.97609E+05-1.57573E+04-1.15204E+05 3.35356E+04 5.75665E-09-2.97641E-08
 -1       551 3.63798E+04-7.29386E+05-6.72010E+03-1.19780E+06-9.32923E-08-1.18744E-08
 -1       552 8.28098E+04-7.67535E+05 1.49062E+04-1.70771E+06-6.66623E-08-1.35915E-08
 -1       553 6.31840E+04-7.65986E+05 3.52046E+04-1.19177E+06-1.08324E-07 1.40426E-08
 -1       554 1.19061E+05-7.79638E+05 8.44500E+04-1.70967E+06-6.70843E-08 1.11031E-08
 -1       555 9.26082E+04-7.88635E+05 1.53058E+05-1.19180E+06-1.11657E-07-1.95178E-08
 -1       556 2.01730E+05-3.50651E+05 3.50296E+04-3.82318E+05-2.23517E-08-1.80735E-08
 -1       557 3.23663E+05-4.48621E+05 2.05186E+04-4.93067E+05-6.40284E-09 2.49202E-09
 -1       558 1.86823E+05-3.46612E+05 4.91938E+03-3.84196E+05-1.69966E-08 7.80710E-09
 -1       559 3.01112E+05-4.50575E+05 3.51544E+03-5.10598E+05 2.12021E-08-2.78305E-09
 -1       560 1.73924E+05-3.38495E+05-5.54500E+02-3.93397E+05 9.92441E-09 6.75936E-09
 -1       561 2.84783E+05-4.44140E+05 4.54584E+02-5.21657E+05 1.22818E-08 2.28902E-08
 -1       562 1.63750E+05-3.32149E+05-9.15405E+02-4.00742E+05 2.48838E-09 7.94535E-09
 -1       563 2.72728E+05-4.38882E+05 6.41034E+01-5.29507E+05 2.29920E-09 3.67982E-09
 -1       564 1.56558E+05-3.27661E+05-4.30404E+02-4.05831E+05 7.75617E-09-3.00133E-11
 -1       565 2.64850E+05-4.35452E+05 5.17890E+01-5.34534E+05 8.60018E-09 5.31691E-09
 -1       566 1.52452E+05-3.25060E+05-1.90431E+02-4.08704E+05-6.54109E-09-4.87125E-09
 -1       567 2.61181E+05-4.33854E+05-3.01598E+02-5.36744E+05 1.16379E-08 1.52068E-09
 -1       568 1.51511E+05-3.24489E+05-9.65227E+02-4.09458E+05-2.72848E-12 9.16771E-09
 -1       569 2.60433E+05-4.33815E+05-2.43751E+03-5.35195E+05-5.31145E-10 1.27620E-08
 -1       570 1.54751E+05-3.27495E+05-5.35842E+03-4.08547E+05 6.36646E-09-5.27416E-09
 -1       571 2.75437E+05 9.97909E+03 1.43393E+04-8.70557E+04 1.05356E-08 3.42516E-09
 -1       572 2.77526E+05 3.70697E+03 7.02700E+03-9.55084E+04 1.87083E-08 7.29415E-10
 -1       573 2.76269E+05 1.11668E+03 3.12225E+03-8.68898E+04 9.77252E-09 3.39878E-09
 -1       574 2.76483E+05 6.11829E+02 1.56554E+03-9.57156E+04 9.32005E-10-7.56063E-09
 -1       575 2.76360E+05 3.52725E+02 7.38796E+02-8.68672E+04-1.46230E-09 1.34332E-09
 -1       576 2.76352E+05 3.56285E+02 3.78032E+02-9.57432E+04-8.00355E-09 8.20182E-09
 -1       577 2.76394E+05 2.99471E+02 1.88621E+02-8.68641E+04-5.61886E-09 1.20690E-08
 -1       578 2.76373E+05 3.23916E+02 1.08572E+02-9.57470E+04-5.98311E-09 6.43195E-09
 -1       579 2.76454E+05 2.70019E+02 7.44435E+01-8.68638E+04 3.55067E-09 2.60388E-09
 -1       580 2.76457E+05 2.82475E+02 8.56179E+01-9.57425E+04-4.42287E-09-2.51839E-09
 -1       581 2.76548E+05 2.22764E+02 1.29562E+02-8.68692E+04 6.20275E-09 1.00263E-08
 -1       582 2.76605E+05 2.56597E+02 2.62361E+02-9.56861E+04 4.94128E-09 3.07591E-09
 -1       583 2.76662E+05 2.72808E+02 5.04825E+02-8.69207E+04 7.13771E-09 7.52129E-09
 -1       584 2.76936E+05 6.82866E+02 1.14094E+03-9.52522E+04 2.47237E-08 4.97812E-09
 -1       585 2.76668E+05 1.65258E+03 2.31225E+03-8.73026E+04 1.19853E-08-1.55014E-08
 -1       586-3.27392E+03 1.07140E+05-3.02331E+03-2.39381E+05-4.58613E-09-6.01835E-09
 -1       587-1.17853E+03 1.06855E+05 5.87796E+02-2.63464E+05-4.05453E-09-2.94814E-08
 -1       588 4.91233E+02 1.06715E+05 4.41505E+03-2.39253E+05-2.97223E-09-1.92103E-08
 -1       589 4.92181E+03 1.09023E+05 1.15788E+04-2.63228E+05-8.44011E-09-3.23753E-08
 -1       590 1.57515E+04 1.05457E+05 2.43394E+04-2.39665E+05-1.78807E-09 3.71983E-09
 -1       591-6.83476E+04-1.49685E+04-2.09777E+04-2.96063E+04-8.32415E-10 2.51475E-09
 -1       592-7.20246E+04-1.84115E+04-1.13631E+04-3.31302E+04 5.74175E-10-1.33593E-08
 -1       593-7.04464E+04-1.34454E+04-4.72994E+03-3.11437E+04 7.64352E-09-1.45722E-08
 -1       594-6.91265E+04-1.53352E+04-2.35896E+03-3.32422E+04 2.45291E-09-3.81078E-09
 -1       595-7.06065E+04-1.34403E+04-1.08309E+03-3.12135E+04-1.64024E-09-1.62201E-09
 -1       596-6.89282E+04-1.51945E+04-5.50544E+02-3.32188E+04 3.95954E-09-2.73417E-10
 -1       597-7.06265E+04-1.34545E+04-2.99682E+02-3.12162E+04 4.80816E-09 1.29751E-08
 -1       598-6.89087E+04-1.51890E+04-2.40717E+02-3.32122E+04-3.00702E-09 1.36333E-09
 -1       599-7.06253E+04-1.34550E+04-3.07246E+02-3.12158E+04 2.52260E-09-8.18784E-09
 -1       600-6.89283E+04-1.51951E+04-5.70573E+02-3.32169E+04 2.28698E-09-1.23293E-10
 -1       601-7.06022E+04-1.34414E+04-1.12551E+03-3.12125E+04 4.13661E-09 1.14092E-08
 -1       602-6.91343E+04-1.53404E+04-2.45288E+03-3.32376E+04-3.17641E-09-1.91962E-08
 -1       603-7.04332E+04-1.34494E+04-4.91901E+03-3.11406E+04 6.68547E-09-6.84122E-09
 -1       604-7.21648E+04-1.85213E+04-1.18166E+04-3.30980E+04 9.39554E-09 3.87081E-09
 -1       605-6.82316E+04-1.50500E+04-2.18150E+04-2.95600E+04 3.45614E-09-1.83354E-08
 -1       606 2.66515E+04-1.35129E+04-2.42344E+04 2.43074E+04 5.51427E-09-8.98149E-09
 -1       607 2.25097E+04-4.40796E+03-1.20685E+04 2.73101E+04-1.69166E-09-1.11399E-08
 -1       608 2.48688E+04-7.90179E+02-5.40288E+03 2.41314E+04-4.61841E-09 5.77529E-11
 -1       609 2.44147E+04-2.64497E+02-2.72931E+03 2.75263E+04 1.77988E-09 7.07860E-09
 -1       610 2.46654E+04-3.11508E+01-1.30236E+03 2.41108E+04 3.46881E-09-4.45266E-09
 -1       611 2.45924E+04-2.93708E+01-6.56636E+02 2.75497E+04 4.76757E-09 2.29782E-08
 -1       612 2.46192E+04-1.71659E+01-3.12339E+02 2.41087E+04 2.65754E-09 5.66615E-09
 -1       613 2.46016E+04-2.45361E+01-1.40101E+02 2.75525E+04 2.80670E-09-4.65843E-09
 -1       614 2.45970E+04-2.23634E+01-3.32749E+01 2.41080E+04 9.17680E-10-9.20818E-09
 -1       615 2.45952E+04-2.23706E+01 5.77695E+01 2.75529E+04 4.12228E-09-1.45096E-08
 -1       616 2.45796E+04-1.87902E+01 1.74094E+02 2.41083E+04 2.47474E-09-1.08685E-09
 -1       617 2.46151E+04 1.53542E+01 3.97581E+02 2.75524E+04-4.62023E-10-2.51111E-09
 -1       618 2.45443E+04 9.63047E+01 8.01503E+02 2.41086E+04-1.71440E-10 9.62473E-10
 -1       619 2.48974E+04 6.35470E+02 1.79993E+03 2.75518E+04 2.99622E-09 2.50543E-09
 -1       620 2.42777E+04 1.99724E+03 3.61783E+03 2.41095E+04-1.87924E-10 3.94539E-09
 -1       621 4.45530E+02 2.84576E+05 3.53723E+03 3.55721E+04 8.53561E-10 2.33922E-09
 -1       622 5.81785E+02 2.85404E+05 3.17121E+03 5.16616E+04 1.06047E-09-7.22366E-09
 -1       623 1.06279E+02 2.84758E+05 3.85396E+03 3.54097E+04 1.03012E-09-2.25918E-09
 -1       624 1.94548E+03 2.86571E+05 7.50568E+03 5.18223E+04 1.03148E-09-9.03424E-09
 -1       625 1.91371E+03 2.83272E+05 1.31328E+04 3.54067E+04 1.29148E-09-3.24189E-09
 -1       626 2.47627E+05 5.94187E+04 4.97557E+03 1.21695E+05 1.22873E-09-3.96722E-09
 -1       627 2.45318E+05 6.08334E+04 2.39767E+03 1.25909E+05 4.10182E-09 1.55023E-09
 -1       628 2.47755E+05 5.71368E+04 1.01389E+03 1.22534E+05-2.73212E-09-1.15249E-08
 -1       629 2.44693E+05 6.01797E+04 4.96249E+02 1.26149E+05-2.88992E-09 5.86992E-09
 -1       630 2.47769E+05 5.70269E+04 2.30102E+02 1.22568E+05 5.95719E-10-2.24875E-09
 -1       631 2.44626E+05 6.01556E+04 1.23692E+02 1.26151E+05 5.08408E-09 3.89304E-09
 -1       632 2.47764E+05 5.70313E+04 8.11679E+01 1.22563E+05 7.91442E-09-5.89785E-09
 -1       633 2.44616E+05 6.01579E+04 9.00591E+01 1.26147E+05 3.29965E-09 6.53881E-09
 -1       634 2.47759E+05 5.70291E+04 1.45224E+02 1.22562E+05 6.27779E-10 3.20460E-09
 -1       635 2.44629E+05 6.01567E+04 2.93672E+02 1.26151E+05 8.00583E-09-1.56692E-08
 -1       636 2.47750E+05 5.70241E+04 5.92978E+02 1.22561E+05 1.45374E-08-1.53664E-08
 -1       637 2.44757E+05 6.02491E+04 1.30367E+03 1.26150E+05 2.58642E-08-8.90805E-09
 -1       638 2.47703E+05 5.73124E+04 2.67860E+03 1.22431E+05 1.16534E-08-4.52292E-09
 -1       639 2.46164E+05 6.22060E+04 6.33756E+03 1.25735E+05 2.82648E-09 1.31813E-08
 -1       640 2.47509E+05 6.31545E+04 1.31516E+04 1.19967E+05 3.58204E-09 1.57595E-08
 -1       656 6.35148E+04-1.62368E+06-1.53323E+05-2.08249E+03-2.76486E-10-1.78198E-08
 -1       657-8.40157E+04-1.69295E+06-1.26999E+05 5.67200E+03-1.81899E-10-3.10350E-09
 -1       658 2.02382E+04-1.64336E+06-7.81920E+04-4.01024E+03-1.75078E-10 3.29143E-09
 -1       659-9.07841E+04-1.69616E+06-1.35893E+05 7.23518E+03-1.80080E-09 1.43463E-08
 -1       660 7.02680E+04-1.62047E+06-1.68615E+05-3.64566E+03-1.41154E-09 1.85429E-08
 -1       661 1.58981E+05 1.67390E+04 1.65418E+04 6.21540E+04 6.05269E-10 8.67658E-09
 -1       662 1.68243E+05 2.90777E+04 1.11478E+04 5.85457E+04-6.18456E-10 3.08182E-09
 -1       663 1.62230E+05 2.20464E+04 3.89892E+03 6.12117E+04-1.31331E-09 1.86924E-09
 -1       664 1.64478E+05 2.28703E+04 2.33218E+03 5.96960E+04-3.18386E-09-3.38810E-09
 -1       665 1.62722E+05 2.27720E+04 9.20036E+02 6.10688E+04-1.72901E-09-9.40125E-09
 -1       666 1.63896E+05 2.20400E+04 5.38278E+02 5.98821E+04 3.64435E-09 2.48252E-09
 -1       667 1.62808E+05 2.28551E+04 2.85817E+02 6.10335E+04-7.51953E-10-8.52847E-09
 -1       668 1.63802E+05 2.19796E+04 2.90988E+02 5.99334E+04-3.78407E-09-3.27043E-08
 -1       669 1.62815E+05 2.28307E+04 3.93776E+02 6.10179E+04-1.39664E-09-1.20958E-08
 -1       670 1.63898E+05 2.21927E+04 8.57270E+02 5.99358E+04-7.29318E-09-8.17415E-09
 -1       671 1.62712E+05 2.26463E+04 1.52209E+03 6.10291E+04 5.02926E-09-6.45230E-09
 -1       672 1.64785E+05 2.36734E+04 3.89419E+03 5.97208E+04 4.33765E-09-6.58218E-09
 -1       673 1.61933E+05 2.13876E+04 6.52602E+03 6.12186E+04 3.27805E-09 4.65980E-09
 -1       674 1.70997E+05 3.41576E+04 1.86631E+04 5.78953E+04-5.94719E-09-3.30238E-09
 -1       675 1.56540E+05 1.24557E+04 2.77025E+04 6.27443E+04-1.31740E-09-1.05738E-08
 -1       676 2.32687E+01-2.85136E+05-1.07710E+03-1.02787E+02-2.26237E-11-2.69931E-08
 -1       677-2.85379E+02-2.85396E+05-1.97127E+03 2.05418E+02 5.69835E-09-2.81415E-09
 -1       678 1.91041E+02-2.84950E+05-3.48471E+03-1.02563E+02 1.39357E-09 5.78785E-09
 -1       679-3.48518E+03-2.87500E+05-8.27818E+03 2.04561E+02 6.57701E-09-1.58325E-08
 -1       680 2.08051E+03-2.83033E+05-1.33416E+04-1.00793E+02-1.05592E-09 5.77813E-11
 -1       771-2.96528E+06-7.00657E+05-1.46344E+05-1.40243E+06-2.65136E-08-1.95578E-08
 -1       772-2.89609E+06-7.82764E+05-7.56859E+04-1.49709E+06-2.13331E-08 5.66797E-09
 -1       773-2.99282E+06-6.79125E+05-3.80771E+04-1.41460E+06-7.33417E-09 8.29459E-09
 -1       774-2.88653E+06-7.66552E+05-1.70951E+04-1.51906E+06 3.16213E-08-9.86256E-09
 -1       775-3.00669E+06-6.69376E+05-1.24510E+04-1.42024E+06-3.95812E-09 1.22236E-09
 -1       776-2.89642E+06-7.64199E+05-4.71112E+03-1.53540E+06-4.03088E-09 1.71713E-09
 -1       777-3.01860E+06-6.60755E+05-5.38122E+03-1.42520E+06 5.32600E-09 3.89264E-09
 -1       778-2.90681E+06-7.62072E+05-1.54031E+03-1.54940E+06 1.03828E-08 7.62520E-09
 -1       779-3.02879E+06-6.53259E+05-2.65105E+03-1.42944E+06-6.46105E-09-5.35510E-09
 -1       780-2.91594E+06-7.60046E+05-4.41555E+02-1.56079E+06-3.43425E-09-1.06593E-09
 -1       781-3.03686E+06-6.47236E+05-1.01474E+03-1.43275E+06-3.30765E-08-4.85488E-09
 -1       782-2.92295E+06-7.58320E+05 3.85804E+02-1.56919E+06-4.52856E-08-6.80939E-09
 -1       783-3.04252E+06-6.43066E+05 6.12026E+02-1.43508E+06-1.46465E-08-1.67779E-08
 -1       784-2.92679E+06-7.56518E+05 2.46791E+03-1.57437E+06-2.41926E-08 2.93539E-09
 -1       785-3.04588E+06-6.40576E+05 4.36369E+03-1.43657E+06-3.68273E-08 5.66251E-09
 -1       786 1.21792E+05-9.50080E+03 2.19805E+04-2.74653E+02-2.20258E-10-3.52338E-09
 -1       787 1.31325E+05 1.09995E+04 1.55504E+04-9.57122E+01 4.13825E-09 1.27118E-08
 -1       788 1.25467E+05-1.48893E+03 5.68696E+03-2.41952E+02 5.28628E-09 2.98517E-08
 -1       789 1.27042E+05 1.72313E+03 3.57024E+03-1.46377E+02 2.98948E-09 1.96998E-08
 -1       790 1.26074E+05-2.31963E+02 1.44590E+03-2.24002E+02-2.17005E-09-9.97261E-10
 -1       791 1.26333E+05 2.68201E+02 8.35861E+02-1.77201E+02-6.24475E-09 1.64376E-08
 -1       792 1.26177E+05-3.50905E+01 3.55676E+02-2.11130E+02-2.48167E-09-3.15853E-09
 -1       793 1.26210E+05 3.75318E+01 1.80551E+02-2.01383E+02-9.54194E-10-6.31001E-09
 -1       794 1.26197E+05-1.43940E+00 5.34236E+01-1.99821E+02 3.92519E-09 4.85393E-09
 -1       795 1.26177E+05-2.12995E+01-3.87928E+01-2.24876E+02-3.52201E-09 1.34325E-08
 -1       796 1.26210E+05 2.37084E+01-1.28312E+02-1.87636E+02 3.38990E-09 1.15960E-08
 -1       797 1.26099E+05-1.78370E+02-3.60593E+02-2.52688E+02 3.40480E-09 1.52793E-08
 -1       798 1.26274E+05 1.55513E+02-5.87907E+02-1.72008E+02 1.90706E-09 1.03024E-08
 -1       799 1.25653E+05-1.14688E+03-1.61944E+03-2.91021E+02 5.07337E-09 1.42222E-09
 -1       800 1.26657E+05 9.91431E+02-2.29238E+03-1.49304E+02 6.41431E-10 1.10833E-08
 -1       801-1.02632E+05-8.73963E+06-1.18166E+06 1.11841E+06 8.16071E-08-4.30518E-08
 -1       802 5.44681E+05 3.99670E+06 1.69033E+06-1.34871E+06 2.32307E-07-3.66572E-08
 -1       803-4.23147E+05-1.20535E+07-1.51355E+06 7.08861E+05 6.99656E-08 2.08674E-08
 -1       804 2.12178E+05 1.09884E+06 1.19307E+06 5.81452E+05-1.06051E-07-8.73156E-08
 -1       805 1.64100E+05-5.85686E+06-2.34422E+05-8.07154E+05-4.39759E-08-5.53018E-08
 -1       806-2.94786E+05-5.66377E+04-2.16941E+04-1.16358E+05-1.01036E-08 1.21827E-08
 -1       807-2.96553E+05-5.30359E+04-1.06581E+04-1.21550E+05 2.47587E-09 2.04463E-08
 -1       808-2.95377E+05-4.88241E+04-4.52155E+03-1.20060E+05-1.29289E-08-1.85769E-08
 -1       809-2.94316E+05-5.00386E+04-2.21094E+03-1.21809E+05-9.18135E-09 2.39766E-09
 -1       810-2.95467E+05-4.85520E+04-1.01339E+03-1.20224E+05 6.89897E-09-6.40830E-09
 -1       811-2.94143E+05-4.99178E+04-5.03970E+02-1.21776E+05 1.42900E-08-8.27640E-11
 -1       812-2.95481E+05-4.85752E+04-2.54904E+02-1.20224E+05 7.66522E-09-4.17504E-09
 -1       813-2.94119E+05-4.99197E+04-1.65730E+02-1.21758E+05 5.80667E-09-1.19715E-08
 -1       814-2.95475E+05-4.85840E+04-1.64293E+02-1.20220E+05 3.04226E-09-1.25501E-08
 -1       815-2.94124E+05-4.99216E+04-2.64868E+02-1.21752E+05 7.57154E-10 4.23749E-08
 -1       816-2.95456E+05-4.85827E+04-5.01999E+02-1.20217E+05 3.05317E-09 1.33223E-08
 -1       817-2.94209E+05-4.99693E+04-1.07755E+03-1.21742E+05-7.89805E-09 1.76715E-08
 -1       818-2.95392E+05-4.87342E+04-2.19775E+03-1.20145E+05 5.46333E-09-3.56158E-09
 -1       819-2.95412E+05-5.12977E+04-5.17143E+03-1.21459E+05 5.89898E-09-3.54030E-08
 -1       820-2.94980E+05-5.26386E+04-1.05256E+04-1.18475E+05 1.71167E-09 5.05315E-09
 -1       821-3.63975E+05 2.00536E+04-4.64661E+04 1.43161E+03 9.93943E-09-1.01154E-08
 -1       822-3.83756E+05-2.32191E+04-3.28193E+04-2.68775E+03 2.04490E-09-1.36242E-09
 -1       823-3.71552E+05 3.14936E+03-1.20227E+04 2.03236E+03-8.50325E-09-4.76257E-09
 -1       824-3.74787E+05-3.63868E+03-7.55084E+03-2.94023E+03 3.36668E-10 9.17555E-09
 -1       825-3.72943E+05 4.89518E+02-3.12926E+03 1.68412E+03 1.23647E-08 9.96613E-09
 -1       826-3.72981E+05-5.66403E+02-1.80099E+03-1.48339E+03 1.65600E-08 5.53959E-09
 -1       827-3.73348E+05 7.25694E+01-1.03294E+03 5.75470E+02 6.67481E-09-6.58540E-09
 -1       828-3.72655E+05-1.61906E+02-7.62253E+02 9.03444E+02-5.55417E-10-1.32575E-09
 -1       829-3.73265E+05 8.28448E+01-1.03818E+03-7.02743E+02 6.33733E-10 4.96723E-09
 -1       830-3.73170E+05-6.02972E+02-1.90334E+03 2.94453E+03 2.72763E-10-5.12466E-09
 -1       831-3.72842E+05 5.19709E+02-3.22631E+03-1.46564E+03-3.90957E-09 1.04649E-08
 -1       832-3.74874E+05-3.78983E+03-7.84764E+03 3.54668E+03-1.25395E-09 1.65693E-08
 -1       833-3.71567E+05 3.27079E+03-1.25023E+04-1.30491E+03-2.36127E-09 3.44880E-09
 -1       834-3.83989E+05-2.41169E+04-3.40553E+04 2.36612E+03-3.05670E-09 6.07542E-10
 -1       835-3.63723E+05 2.08255E+04-4.82875E+04-2.85059E+02 5.07909E-09 6.75936E-09
 -1       836-1.32473E+03 3.50260E+05 2.16132E+04-1.58610E+04-5.69162E-09-6.69252E-09
 -1       837 4.62515E+03 3.57021E+05 1.83235E+04-3.22901E+04-6.23459E-09 3.81988E-11
 -1       838-5.20745E+02 3.52152E+05 1.87184E+04-1.57918E+04-5.02359E-09-7.28733E-09
 -1       839 1.18170E+04 3.62379E+05 3.54577E+04-3.23399E+04-5.54928E-09-8.10024E-09
 -1       840-3.64124E+03 3.44848E+05 5.65629E+04-1.58154E+04-4.84215E-09-1.26019E-08
 -1       856-5.61452E+04 7.87794E+03-2.07602E+04-3.95895E+02 2.66527E-09-4.33010E-09
 -1       857-6.47020E+04-9.25328E+03-1.42914E+04 5.42796E+03 4.47244E-09 1.43984E-08
 -1       858-5.95325E+04 1.10464E+03-5.38690E+03-4.19286E+02 7.49765E-10 7.76231E-09
 -1       859-6.08144E+04-1.29672E+03-3.25109E+03 5.46315E+03-4.70357E-09-4.98954E-09
 -1       860-6.00386E+04 1.54518E+02-1.36307E+03-4.30889E+02-8.14936E-10-1.89590E-09
 -1       861-6.02321E+04-1.81818E+02-7.51005E+02 5.47898E+03-6.27381E-10 8.05522E-09
 -1       862-6.01177E+04 2.08234E+01-3.14485E+02-4.35104E+02-2.02409E-09-4.15753E-10
 -1       863-6.01356E+04-1.93140E+01-1.19785E+02 5.48136E+03-5.23271E-09-2.13163E-10
 -1       864-6.01356E+04-4.31062E+00 3.45755E+01-4.33264E+02-1.39640E-09 3.39075E-09
 -1       865-6.00841E+04 5.54222E+01 2.24390E+02 5.47106E+03-6.07088E-10 1.21736E-08
 -1       866-6.01671E+04-5.39795E+01 4.58263E+02-4.24806E+02-7.29926E-10 9.97076E-09
 -1       867-5.98670E+04 4.46554E+02 1.13184E+03 5.44806E+03 2.69935E-09 3.93685E-09
 -1       868-6.03481E+04-3.88533E+02 1.88173E+03-4.10266E+02-1.83690E-09-2.91948E-09
 -1       869-5.84864E+04 3.23376E+03 5.01181E+03 5.40996E+03 3.98609E-09-4.56148E-08
 -1       870-6.15404E+04-2.76571E+03 7.27310E+03-3.86635E+02-3.65571E-09-1.48702E-09
 -1       871-5.30771E+03-1.91147E+04-1.84786E+04 1.23532E+05-3.76713E-09-1.21008E-08
 -1       872-1.97768E+03-2.33859E+04-7.71367E+03 1.60174E+05-7.52243E-09-1.46501E-08
 -1       873 3.10378E+02-2.13314E+04 6.19351E+02 1.23260E+05-4.21596E-09 6.69661E-09
 -1       874 3.07104E+03-1.89930E+04 9.41257E+03 1.60205E+05-8.20819E-09 1.32695E-08
 -1       875 6.49693E+03-2.35740E+04 2.11876E+04 1.23487E+05-4.07272E-09-2.81034E-09
 -1       876 2.81079E+05 4.74963E+04 1.44975E+04 1.12944E+05-1.05547E-09 7.97081E-09
 -1       877 2.82025E+05 5.05618E+04 7.74223E+03 1.17114E+05 8.73297E-09 4.50746E-09
 -1       878 2.82435E+05 4.58907E+04 3.24362E+03 1.14132E+05-8.21638E-09-1.21986E-08
 -1       879 2.80055E+05 4.85953E+04 1.61614E+03 1.17212E+05 1.67552E-09-1.46088E-10
 -1       880 2.82532E+05 4.58740E+04 7.52756E+02 1.14181E+05-3.07068E-09-1.04765E-08
 -1       881 2.79924E+05 4.85113E+04 4.01914E+02 1.17190E+05-5.32327E-09 9.35526E-09
 -1       882 2.82541E+05 4.58866E+04 2.57014E+02 1.14182E+05-4.20664E-09-3.13516E-09
 -1       883 2.79915E+05 4.85070E+04 2.76120E+02 1.17183E+05-1.49475E-09-1.00301E-08
 -1       884 2.82535E+05 4.58838E+04 4.39083E+02 1.14182E+05 5.22959E-12-8.43892E-09
 -1       885 2.79949E+05 4.85131E+04 8.82700E+02 1.17193E+05-1.22956E-08-2.17391E-08
 -1       886 2.82500E+05 4.58581E+04 1.77900E+03 1.14179E+05-9.28421E-09-3.86490E-09
 -1       887 2.80262E+05 4.87181E+04 3.88598E+03 1.17238E+05 4.47315E-09-8.51969E-10
 -1       888 2.82255E+05 4.59013E+04 7.83036E+03 1.14055E+05-1.63561E-09-1.39403E-08
 -1       889 2.84924E+05 5.35656E+04 1.87054E+04 1.17095E+05-8.22877E-09 1.26365E-08
 -1       890 2.79060E+05 4.96964E+04 3.50346E+04 1.11073E+05-3.31784E-09 1.16052E-08
 -1       891-9.92678E+01-1.56162E+05-1.90909E+03 2.64574E+04-2.65914E-09 1.02182E-09
 -1       892-1.88780E+02-1.56659E+05-2.05237E+03 4.01520E+04 4.72255E-10-9.50058E-09
 -1       893 2.80330E+01-1.56223E+05-2.90794E+03 2.64643E+04-1.13096E-09 1.53868E-08
 -1       894-1.46776E+03-1.57759E+05-6.01986E+03 4.00044E+04 6.67114E-10 1.77938E-08
 -1       895-1.16264E+03-1.54969E+05-1.06014E+04 2.66062E+04-5.15911E-10-1.21927E-08
 -1       956-3.60171E+05-5.16950E+03-1.28099E+04 2.86169E+04 5.05588E-09-1.20613E-08
 -1       957-3.62687E+05-1.80813E+03-6.57529E+03 3.44040E+04 3.09410E-09 9.61245E-09
 -1       958-3.61319E+05-2.11057E+02-2.96290E+03 2.84586E+04-2.82853E-10 6.84577E-09
 -1       959-3.61509E+05-1.08645E+02-1.51301E+03 3.45864E+04-1.73395E-09 6.73253E-10
 -1       960-3.61430E+05-2.56338E+01-7.37796E+02 2.84425E+04 4.00087E-09-8.87644E-09
 -1       961-3.61431E+05-4.01679E+01-3.91284E+02 3.46054E+04 1.05983E-08-4.13343E-09
 -1       962-3.61455E+05-2.75586E+01-2.24114E+02 2.84398E+04 3.58841E-09 2.15830E-08
 -1       963-3.61430E+05-3.66588E+01-1.80105E+02 3.46087E+04 2.81148E-09 9.44488E-09
 -1       964-3.61460E+05-2.45317E+01-2.19192E+02 2.84391E+04-1.10866E-09 6.10294E-09
 -1       965-3.61442E+05-3.37173E+01-3.79254E+02 3.46081E+04-2.48815E-09 1.62629E-08
 -1       966-3.61445E+05-1.66360E+01-7.12603E+02 2.84405E+04 3.16504E-10-1.05599E-08
 -1       967-3.61529E+05-9.36890E+01-1.46160E+03 3.45949E+04 1.19212E-09-2.33329E-08
 -1       968-3.61347E+05-1.89934E+02-2.86115E+03 2.84522E+04 5.62068E-10 1.83827E-08
 -1       969-3.62678E+05-1.73029E+03-6.35184E+03 3.44581E+04 4.12001E-09 1.28574E-08
 -1       970-3.60245E+05-4.97624E+03-1.23735E+04 2.85711E+04-6.81212E-10 2.11094E-09
 -1       971-3.31020E+05-1.66472E+03-9.01783E+03 1.48728E+04 1.90994E-10 3.45204E-09
 -1       972-3.33194E+05-1.22032E+03-4.91103E+03 2.06054E+04 6.67887E-09 6.57565E-10
 -1       973-3.32025E+05-5.17895E+01-2.19961E+03 1.47544E+04 5.16775E-09-2.63185E-09
 -1       974-3.32159E+05-6.71372E+01-1.14011E+03 2.07383E+04-3.10501E-09-1.68779E-08
 -1       975-3.32104E+05-8.53511E+00-5.70115E+02 1.47426E+04-1.12186E-09-1.51310E-08
 -1       976-3.32099E+05-1.90345E+01-3.29318E+02 2.07534E+04 2.63663E-09-2.51009E-09
 -1       977-3.32119E+05-7.97006E+00-2.39725E+02 1.47394E+04-2.74736E-09 1.55496E-08
 -1       978-3.32104E+05-1.31287E+01-2.81503E+02 2.07579E+04 8.59472E-11 8.04516E-09
 -1       979-3.32119E+05 9.18426E-02-4.53119E+02 1.47380E+04-5.65876E-10-5.62318E-09
 -1       980-3.32138E+05-1.02151E+01-8.75437E+02 2.07588E+04-2.17312E-09-2.53818E-08
 -1       981-3.32091E+05 2.19685E+01-1.69579E+03 1.47385E+04-2.82694E-09 1.67077E-08
 -1       982-3.32371E+05-1.35483E+02-3.50530E+03 2.07524E+04 1.19257E-10 9.97623E-09
 -1       983-3.31878E+05-8.65691E+01-6.81090E+03 1.47444E+04 6.80893E-09 1.24305E-08
 -1       984-3.35646E+05-3.69253E+03-1.52527E+04 2.06694E+04 1.11067E-08 9.31129E-09
 -1       985-3.28794E+05-5.07033E+03-2.80087E+04 1.48161E+04 2.75622E-09-8.37099E-09
 -3
    1PSTEP                        33          17           1          
  100CL  117 6.38785E-01         409                     0   17           1
 -4  DISP        4    1
 -5  D1          1    2    1    0
 -5  D2          1    2    2    0
 -5  D3          1    2    3    0
 -5  ALL         1    2    0    0    1ALL
 -1         1 2.15170E-03 0.00000E+00 0.00000E+00
 -1         2 6.68580E-04-6.93379E-28-2.64698E-23
 -1         3 3.12442E-04-5.64060E-28 0.00000E+00
 -1         5 1.65606E-04-1.33750E-27 1.75776E-24
 -1         8 2.14290E-03-4.68376E-07 0.00000E+00
 -1         9 2.15142E-03-2.28598E-04 0.00000E+00
 -1        10 2.83679E-04-3.25552E-06 0.00000E+00
 -1        12 1.67069E-04 7.65540E-07-1.29247E-24
 -1        15 2.13316E-03-4.86958E-07 0.00000E+00
 -1        16 2.21413E-03-2.30151E-04 0.00000E+00
 -1        17 1.94154E-04-7.32660E-06 0.00000E+00
 -1        18 1.69940E-04 2.89958E-05 0.00000E+00
 -1        19 1.71458E-04 1.52574E-06 0.00000E+00
 -1        20 1.71600E-04-5.75643E-06 0.00000E+00
 -1        21 1.70767E-04-1.66080E-05-3.30872E-24
 -1        24 2.90309E-05-1.10731E-05 0.00000E+00
 -1        25 1.78796E-04 2.92050E-05 0.00000E+00
 -1        26 1.79474E-04 2.11341E-06 0.00000E+00
 -1        27 1.77392E-04-9.14533E-06 0.00000E+00
 -1        28 1.77058E-04-1.72055E-05 0.00000E+00
 -1        32 0.00000E+00 0.00000E+00 0.00000E+00
 -1        33 1.86480E-04 2.82856E-06 0.00000E+00
 -1        34 1.84461E-04-9.19438E-06 0.00000E+00
 -1        35 1.82612E-04-1.75324E-05 0.00000E+00
 -1        51 2.15110E-03-9.59310E-08-1.86116E-24
 -1        52 2.15000E-03-1.73474E-07 0.00000E+00
 -1        53 2.14852E-03-2.47381E-07 0.00000E+00
 -1        54 2.14677E-03-3.19805E-07 1.65436E-24
 -1        55 2.14486E-03-3.92466E-07 1.65436E-24
 -1        56 2.14462E-03 6.97833E-06-5.29396E-23
 -1        57 2.13141E-03 2.91302E-05 0.00000E+00
 -1        58 2.11421E-03 6.11594E-05 0.00000E+00
 -1        59 2.09548E-03 9.68100E-05 0.00000E+00
 -1        60 2.07809E-03 1.29213E-04 0.00000E+00
 -1        61 2.06470E-03 1.51769E-04 5.29396E-23
 -1        62 2.05707E-03 1.59647E-04 0.00000E+00
 -1        63 2.05626E-03 1.49330E-04-5.29396E-23
 -1        64 2.06199E-03 1.20648E-04 0.00000E+00
 -1        65 2.07338E-03 7.51622E-05 0.00000E+00
 -1        66 2.08866E-03 1.76147E-05 0.00000E+00
 -1        67 2.10587E-03-4.60787E-05 5.29396E-23
 -1        68 2.12279E-03-1.08818E-04 0.00000E+00
 -1        69 2.13722E-03-1.63590E-04-5.29396E-23
 -1        70 2.14726E-03-2.04920E-04 5.29396E-23
 -1        86 7.62141E-04-6.66270E-06 0.00000E+00
 -1        87 1.03294E-03-4.50356E-05 0.00000E+00
 -1        88 1.39619E-03-1.11357E-04 0.00000E+00
 -1        89 1.76393E-03-1.79392E-04 0.00000E+00
 -1        90 2.04534E-03-2.20597E-04 0.00000E+00
 -1       121 3.11635E-04-5.28179E-07 0.00000E+00
 -1       122 3.09216E-04-1.05886E-06 0.00000E+00
 -1       123 3.05193E-04-1.59451E-06 1.32349E-23
 -1       124 2.99582E-04-2.13760E-06 0.00000E+00
 -1       125 2.92402E-04-2.69028E-06 0.00000E+00
 -1       191 1.65646E-04 1.27632E-07-2.99853E-24
 -1       192 1.65768E-04 2.55255E-07-5.16988E-26
 -1       193 1.65971E-04 3.82867E-07 2.06795E-25
 -1       194 1.66256E-04 5.10458E-07-4.13590E-25
 -1       195 1.66622E-04 6.38018E-07 2.27475E-24
 -1       251 2.14351E-03-1.81447E-06 6.61744E-24
 -1       252 2.14413E-03-8.85841E-06 0.00000E+00
 -1       253 2.14471E-03-1.98787E-05 0.00000E+00
 -1       254 2.14527E-03-3.32625E-05 6.61744E-24
 -1       255 2.14581E-03-4.82893E-05-2.64698E-23
 -1       256 2.14633E-03-6.42834E-05-1.32349E-23
 -1       257 2.14685E-03-8.09355E-05-2.64698E-23
 -1       258 2.14736E-03-9.79540E-05 1.32349E-23
 -1       259 2.14787E-03-1.15187E-04 2.64698E-23
 -1       260 2.14837E-03-1.32488E-04 0.00000E+00
 -1       261 2.14887E-03-1.49735E-04-1.32349E-23
 -1       262 2.14938E-03-1.66807E-04 6.61744E-24
 -1       263 2.14989E-03-1.83516E-04-1.32349E-23
 -1       264 2.15040E-03-1.99662E-04 3.30872E-24
 -1       265 2.15093E-03-2.14835E-04-1.65436E-24
 -1       266 2.14128E-03-4.76964E-07 0.00000E+00
 -1       267 2.13965E-03-4.79392E-07-4.13590E-25
 -1       268 2.13803E-03-4.82210E-07 0.00000E+00
 -1       269 2.13641E-03-4.83872E-07-2.06795E-25
 -1       270 2.13478E-03-4.85507E-07 2.06795E-25
 -1       271 2.14227E-03-8.48824E-07 0.00000E+00
 -1       272 2.14284E-03-4.55346E-06-1.32349E-23
 -1       273 2.14456E-03-1.13344E-05 2.64698E-23
 -1       274 2.14730E-03-2.09241E-05 0.00000E+00
 -1       275 2.15096E-03-3.30255E-05 2.64698E-23
 -1       276 2.15540E-03-4.73199E-05 1.32349E-23
 -1       277 2.16051E-03-6.34668E-05 0.00000E+00
 -1       278 2.16616E-03-8.11088E-05-1.32349E-23
 -1       279 2.17220E-03-9.98744E-05 0.00000E+00
 -1       280 2.17851E-03-1.19381E-04 1.32349E-23
 -1       281 2.18494E-03-1.39239E-04 0.00000E+00
 -1       282 2.19136E-03-1.59057E-04 0.00000E+00
 -1       283 2.19762E-03-1.78441E-04 0.00000E+00
 -1       284 2.20359E-03-1.97003E-04-1.32349E-23
 -1       285 2.20914E-03-2.14364E-04 1.32349E-23
 -1       301 2.16257E-03-2.28885E-04 6.61744E-24
 -1       302 2.17237E-03-2.29131E-04 3.30872E-24
 -1       303 2.18161E-03-2.29370E-04 0.00000E+00
 -1       304 2.19112E-03-2.29610E-04 0.00000E+00
 -1       305 2.20169E-03-2.29863E-04 0.00000E+00
 -1       306 2.18613E-03-3.64150E-04 0.00000E+00
 -1       307 2.25086E-03-7.28157E-04-5.29396E-23
 -1       308 2.30964E-03-1.25989E-03 1.05879E-22
 -1       309 2.35458E-03-1.87567E-03-5.29396E-23
 -1       310 2.40389E-03-2.46566E-03 0.00000E+00
 -1       311 2.46896E-03-2.92247E-03-5.29396E-23
 -1       312 2.52481E-03-3.17633E-03-1.05879E-22
 -1       313 2.52295E-03-3.19057E-03 5.29396E-23
 -1       314 2.40650E-03-2.97476E-03 0.00000E+00
 -1       315 2.14255E-03-2.57830E-03 5.29396E-23
 -1       316 1.74799E-03-2.06783E-03-1.05879E-22
 -1       317 1.27679E-03-1.50671E-03 5.29396E-23
 -1       318 8.21961E-04-9.56159E-04 0.00000E+00
 -1       319 4.71779E-04-4.79991E-04 0.00000E+00
 -1       320 2.63350E-04-1.43029E-04-1.05879E-22
 -1       336 2.73242E-04-3.87831E-06-1.32349E-23
 -1       337 2.60931E-04-4.52210E-06-6.61744E-24
 -1       338 2.46799E-04-5.18862E-06 0.00000E+00
 -1       339 2.30910E-04-5.87845E-06-6.61744E-24
 -1       340 2.13335E-04-6.59547E-06-1.32349E-23
 -1       406 1.67597E-04 8.93009E-07-3.10193E-25
 -1       407 1.68207E-04 1.02039E-06-2.58494E-25
 -1       408 1.68898E-04 1.14765E-06-2.58494E-24
 -1       409 1.69670E-04 1.27461E-06 1.03398E-24
 -1       410 1.70524E-04 1.40103E-06 1.65436E-24
 -1       521 2.24978E-03-3.75260E-04-1.05879E-22
 -1       522 2.31372E-03-7.60653E-04-5.29396E-23
 -1       523 2.36763E-03-1.32234E-03-1.05879E-22
 -1       524 2.40494E-03-1.97014E-03-5.29396E-23
 -1       525 2.44768E-03-2.59024E-03 1.05879E-22
 -1       526 2.51024E-03-3.07156E-03 5.29396E-23
 -1       527 2.56628E-03-3.33795E-03 1.05879E-22
 -1       528 2.56274E-03-3.35167E-03-5.29396E-23
 -1       529 2.43560E-03-3.12219E-03 0.00000E+00
 -1       530 2.14932E-03-2.70587E-03-5.29396E-23
 -1       531 1.72127E-03-2.17304E-03 0.00000E+00
 -1       532 1.21110E-03-1.59022E-03-5.29396E-23
 -1       533 7.17874E-04-1.01745E-03 0.00000E+00
 -1       534 3.35699E-04-5.17606E-04-5.29396E-23
 -1       535 1.07084E-04-1.59981E-04-1.05879E-22
 -1       536 1.93506E-04 2.43859E-05 0.00000E+00
 -1       537 1.91890E-04 7.94816E-05 0.00000E+00
 -1       538 1.89400E-04 1.49461E-04 3.30872E-24
 -1       539 1.86467E-04 2.25745E-04 0.00000E+00
 -1       540 1.83825E-04 2.97834E-04-3.30872E-24
 -1       541 1.82099E-04 3.55245E-04 0.00000E+00
 -1       542 1.81293E-04 3.91751E-04 3.30872E-24
 -1       543 1.81085E-04 4.01256E-04-1.65436E-24
 -1       544 1.80789E-04 3.84497E-04 0.00000E+00
 -1       545 1.79776E-04 3.42401E-04 0.00000E+00
 -1       546 1.77913E-04 2.82463E-04 3.30872E-24
 -1       547 1.75407E-04 2.12287E-04-1.65436E-24
 -1       548 1.72929E-04 1.42524E-04 0.00000E+00
 -1       549 1.71137E-04 8.38277E-05-1.65436E-24
 -1       550 1.70198E-04 4.35669E-05 0.00000E+00
 -1       551 1.71241E-04-7.83648E-06 0.00000E+00
 -1       552 1.45269E-04-8.41438E-06 0.00000E+00
 -1       553 1.17142E-04-9.04540E-06 0.00000E+00
 -1       554 8.77801E-05-9.71134E-06 0.00000E+00
 -1       555 5.81045E-05-1.03882E-05 0.00000E+00
 -1       556 1.87273E-04 1.03073E-05 0.00000E+00
 -1       557 1.81733E-04 2.45567E-05 0.00000E+00
 -1       558 1.77408E-04 3.56890E-05 5.29396E-23
 -1       559 1.74177E-04 4.39925E-05 0.00000E+00
 -1       560 1.71921E-04 4.97558E-05 0.00000E+00
 -1       561 1.70522E-04 5.32696E-05 0.00000E+00
 -1       562 1.69864E-04 5.48259E-05 0.00000E+00
 -1       563 1.69832E-04 5.47173E-05 1.32349E-23
 -1       564 1.70315E-04 5.32373E-05 0.00000E+00
 -1       565 1.71200E-04 5.06798E-05 0.00000E+00
 -1       566 1.72377E-04 4.73393E-05-6.61744E-24
 -1       567 1.73736E-04 4.35105E-05 0.00000E+00
 -1       568 1.75166E-04 3.94883E-05-1.65436E-24
 -1       569 1.76559E-04 3.55675E-05 0.00000E+00
 -1       570 1.77805E-04 3.20429E-05 0.00000E+00
 -1       571 1.70032E-04 2.72144E-05 0.00000E+00
 -1       572 1.70126E-04 2.53721E-05-4.13590E-25
 -1       573 1.70220E-04 2.34830E-05 0.00000E+00
 -1       574 1.70315E-04 2.15622E-05 1.65436E-24
 -1       575 1.70410E-04 1.96247E-05 0.00000E+00
 -1       576 1.70505E-04 1.76856E-05 0.00000E+00
 -1       577 1.70600E-04 1.57600E-05 0.00000E+00
 -1       578 1.70694E-04 1.38630E-05-6.61744E-24
 -1       579 1.70790E-04 1.20096E-05 6.61744E-24
 -1       580 1.70885E-04 1.02152E-05 0.00000E+00
 -1       581 1.70980E-04 8.49462E-06 0.00000E+00
 -1       582 1.71075E-04 6.86312E-06 0.00000E+00
 -1       583 1.71171E-04 5.33573E-06 0.00000E+00
 -1       584 1.71266E-04 3.92739E-06-3.30872E-24
 -1       585 1.71362E-04 2.65288E-06-6.61744E-24
 -1       586 1.71371E-04 2.90327E-05 0.00000E+00
 -1       587 1.72765E-04 2.90690E-05 0.00000E+00
 -1       588 1.74164E-04 2.91050E-05 8.27181E-25
 -1       589 1.75608E-04 2.91404E-05 0.00000E+00
 -1       590 1.77138E-04 2.91745E-05 0.00000E+00
 -1       591 1.70546E-04 2.72989E-05 0.00000E+00
 -1       592 1.71156E-04 2.55811E-05 2.06795E-25
 -1       593 1.71771E-04 2.38484E-05 8.27181E-25
 -1       594 1.72390E-04 2.21053E-05 0.00000E+00
 -1       595 1.73010E-04 2.03568E-05 8.27181E-25
 -1       596 1.73631E-04 1.86075E-05-4.13590E-25
 -1       597 1.74251E-04 1.68621E-05 8.27181E-25
 -1       598 1.74867E-04 1.51255E-05 0.00000E+00
 -1       599 1.75478E-04 1.34023E-05-8.27181E-25
 -1       600 1.76082E-04 1.16972E-05 0.00000E+00
 -1       601 1.76678E-04 1.00150E-05 0.00000E+00
 -1       602 1.77264E-04 8.36031E-06 4.13590E-25
 -1       603 1.77837E-04 6.73796E-06 0.00000E+00
 -1       604 1.78398E-04 5.15274E-06-6.46235E-26
 -1       605 1.78943E-04 3.60929E-06 0.00000E+00
 -1       606 1.71471E-04 6.17992E-07 0.00000E+00
 -1       607 1.71481E-04-2.02781E-07 0.00000E+00
 -1       608 1.71490E-04-9.41690E-07-3.30872E-24
 -1       609 1.71498E-04-1.60449E-06-1.65436E-24
 -1       610 1.71507E-04-2.19699E-06 0.00000E+00
 -1       611 1.71515E-04-2.72506E-06 0.00000E+00
 -1       612 1.71524E-04-3.19457E-06 0.00000E+00
 -1       613 1.71532E-04-3.61142E-06 0.00000E+00
 -1       614 1.71541E-04-3.98148E-06 0.00000E+00
 -1       615 1.71549E-04-4.31065E-06 0.00000E+00
 -1       616 1.71558E-04-4.60481E-06 0.00000E+00
 -1       617 1.71566E-04-4.86984E-06 0.00000E+00
 -1       618 1.71575E-04-5.11163E-06 0.00000E+00
 -1       619 1.71583E-04-5.33607E-06 2.06795E-25
 -1       620 1.71592E-04-5.54905E-06 2.06795E-25
 -1       621 1.72544E-04 1.62414E-06 0.00000E+00
 -1       622 1.73769E-04 1.72280E-06 0.00000E+00
 -1       623 1.75103E-04 1.82130E-06-1.65436E-24
 -1       624 1.76518E-04 1.91953E-06 8.27181E-25
 -1       625 1.77985E-04 2.01750E-06-1.65436E-24
 -1       626 1.71905E-04 6.52291E-07 0.00000E+00
 -1       627 1.72329E-04-1.55933E-07 0.00000E+00
 -1       628 1.72731E-04-9.06713E-07 0.00000E+00
 -1       629 1.73116E-04-1.60816E-06-4.96308E-24
 -1       630 1.73484E-04-2.26841E-06 3.30872E-24
 -1       631 1.73841E-04-2.89562E-06 0.00000E+00
 -1       632 1.74188E-04-3.49793E-06 0.00000E+00
 -1       633 1.74529E-04-4.08353E-06 0.00000E+00
 -1       634 1.74866E-04-4.66056E-06 3.30872E-24
 -1       635 1.75204E-04-5.23716E-06 1.65436E-24
 -1       636 1.75544E-04-5.82152E-06-3.30872E-24
 -1       637 1.75891E-04-6.42178E-06 0.00000E+00
 -1       638 1.76246E-04-7.04610E-06 0.00000E+00
 -1       639 1.76613E-04-7.70267E-06 8.27181E-25
 -1       640 1.76995E-04-8.39965E-06-1.65436E-24
 -1       656 1.72035E-04-6.30734E-06 0.00000E+00
 -1       657 1.72881E-04-6.88058E-06-6.61744E-24
 -1       658 1.73998E-04-7.45242E-06 0.00000E+00
 -1       659 1.75242E-04-8.02391E-06 6.61744E-24
 -1       660 1.76433E-04-8.59713E-06-6.61744E-24
 -1       661 1.71763E-04-6.00606E-06 0.00000E+00
 -1       662 1.71963E-04-6.34189E-06 0.00000E+00
 -1       663 1.72192E-04-6.75920E-06 1.65436E-24
 -1       664 1.72451E-04-7.25203E-06 0.00000E+00
 -1       665 1.72736E-04-7.81508E-06 0.00000E+00
 -1       666 1.73045E-04-8.44292E-06 8.27181E-25
 -1       667 1.73376E-04-9.13042E-06 0.00000E+00
 -1       668 1.73728E-04-9.87249E-06 0.00000E+00
 -1       669 1.74099E-04-1.06642E-05 0.00000E+00
 -1       670 1.74486E-04-1.15007E-05 8.27181E-25
 -1       671 1.74888E-04-1.23774E-05 1.65436E-24
 -1       672 1.75304E-04-1.32895E-05-8.27181E-25
 -1       673 1.75731E-04-1.42327E-05 0.00000E+00
 -1       674 1.76167E-04-1.52025E-05 0.00000E+00
 -1       675 1.76611E-04-1.61943E-05 0.00000E+00
 -1       676 1.71819E-04-1.67082E-05 3.30872E-24
 -1       677 1.72870E-04-1.68083E-05 0.00000E+00
 -1       678 1.73920E-04-1.69084E-05 0.00000E+00
 -1       679 1.74969E-04-1.70081E-05 1.65436E-24
 -1       680 1.76015E-04-1.71079E-05 0.00000E+00
 -1       771 1.81419E-05 1.31707E-05-5.29396E-23
 -1       772 8.96587E-06 3.30742E-05-5.29396E-23
 -1       773 1.42100E-06 4.88500E-05-5.29396E-23
 -1       774-4.60441E-06 6.07354E-05 0.00000E+00
 -1       775-9.21983E-06 6.89763E-05-5.29396E-23
 -1       776-1.25391E-05 7.38334E-05 0.00000E+00
 -1       777-1.46762E-05 7.55763E-05-5.29396E-23
 -1       778-1.57471E-05 7.44862E-05-2.64698E-23
 -1       779-1.58679E-05 7.08518E-05 0.00000E+00
 -1       780-1.51560E-05 6.49719E-05 2.64698E-23
 -1       781-1.37286E-05 5.71509E-05-5.29396E-23
 -1       782-1.17040E-05 4.77009E-05 0.00000E+00
 -1       783-9.20010E-06 3.69381E-05 0.00000E+00
 -1       784-6.33578E-06 2.51839E-05 0.00000E+00
 -1       785-3.22918E-06 1.27625E-05 5.29396E-23
 -1       786 1.78834E-04 2.72878E-05 0.00000E+00
 -1       787 1.78876E-04 2.54199E-05 0.00000E+00
 -1       788 1.78918E-04 2.35932E-05 0.00000E+00
 -1       789 1.78960E-04 2.17997E-05 4.13590E-25
 -1       790 1.79002E-04 2.00348E-05 1.65436E-24
 -1       791 1.79045E-04 1.82936E-05 8.27181E-25
 -1       792 1.79088E-04 1.65741E-05 1.65436E-24
 -1       793 1.79130E-04 1.48741E-05 0.00000E+00
 -1       794 1.79173E-04 1.31932E-05 0.00000E+00
 -1       795 1.79216E-04 1.15313E-05 0.00000E+00
 -1       796 1.79259E-04 9.89012E-06 0.00000E+00
 -1       797 1.79301E-04 8.27135E-06-8.27181E-25
 -1       798 1.79344E-04 6.67901E-06 0.00000E+00
 -1       799 1.79387E-04 5.11717E-06-8.27181E-25
 -1       800 1.79430E-04 3.59290E-06 0.00000E+00
 -1       801 1.37769E-04 2.61623E-05 2.64698E-23
 -1       802 1.35192E-05 1.64967E-05 0.00000E+00
 -1       803-9.33040E-05 8.46075E-06 0.00000E+00
 -1       804-8.39060E-05 5.84825E-06 2.64698E-23
 -1       805-2.78727E-05 2.37715E-06 5.29396E-23
 -1       806 1.79405E-04 2.72230E-05 0.00000E+00
 -1       807 1.80001E-04 2.52677E-05 0.00000E+00
 -1       808 1.80584E-04 2.33439E-05 3.30872E-24
 -1       809 1.81153E-04 2.14551E-05 0.00000E+00
 -1       810 1.81708E-04 1.96052E-05 0.00000E+00
 -1       811 1.82247E-04 1.77977E-05 0.00000E+00
 -1       812 1.82769E-04 1.60360E-05-3.30872E-24
 -1       813 1.83272E-04 1.43238E-05 8.27181E-25
 -1       814 1.83756E-04 1.26646E-05-1.65436E-24
 -1       815 1.84218E-04 1.10619E-05 8.27181E-25
 -1       816 1.84658E-04 9.51920E-06 1.65436E-24
 -1       817 1.85075E-04 8.04004E-06 0.00000E+00
 -1       818 1.85466E-04 6.62792E-06-1.65436E-24
 -1       819 1.85831E-04 5.28633E-06-8.27181E-25
 -1       820 1.86169E-04 4.01874E-06 0.00000E+00
 -1       821 1.79351E-04 3.50489E-07-1.65436E-24
 -1       822 1.79219E-04-2.02050E-06 0.00000E+00
 -1       823 1.79087E-04-4.73929E-06-3.30872E-24
 -1       824 1.78953E-04-7.54350E-06 1.65436E-24
 -1       825 1.78820E-04-1.01487E-05 0.00000E+00
 -1       826 1.78687E-04-1.22714E-05 0.00000E+00
 -1       827 1.78556E-04-1.37550E-05 0.00000E+00
 -1       828 1.78425E-04-1.44468E-05 0.00000E+00
 -1       829 1.78295E-04-1.44018E-05-3.30872E-24
 -1       830 1.78164E-04-1.36795E-05 0.00000E+00
 -1       831 1.78033E-04-1.25172E-05-3.30872E-24
 -1       832 1.77902E-04-1.11550E-05 1.65436E-24
 -1       833 1.77772E-04-9.88540E-06 0.00000E+00
 -1       834 1.77643E-04-9.00029E-06 1.65436E-24
 -1       835 1.77514E-04-8.69098E-06 0.00000E+00
 -1       836 1.80843E-04 2.23209E-06 3.30872E-24
 -1       837 1.82090E-04 2.35369E-06 1.65436E-24
 -1       838 1.83246E-04 2.47521E-06-3.30872E-24
 -1       839 1.84343E-04 2.59604E-06 0.00000E+00
 -1       840 1.85411E-04 2.71671E-06 8.27181E-25
 -1       856 1.77375E-04-9.91260E-06 8.27181E-25
 -1       857 1.77354E-04-1.05491E-05 0.00000E+00
 -1       858 1.77334E-04-1.10752E-05-4.13590E-25
 -1       859 1.77313E-04-1.15112E-05-2.06795E-25
 -1       860 1.77292E-04-1.18777E-05 0.00000E+00
 -1       861 1.77271E-04-1.21953E-05 0.00000E+00
 -1       862 1.77250E-04-1.24845E-05 0.00000E+00
 -1       863 1.77229E-04-1.27659E-05 0.00000E+00
 -1       864 1.77208E-04-1.30602E-05-8.27181E-25
 -1       865 1.77187E-04-1.33879E-05 0.00000E+00
 -1       866 1.77166E-04-1.37697E-05 8.27181E-25
 -1       867 1.77145E-04-1.42260E-05 0.00000E+00
 -1       868 1.77123E-04-1.47774E-05 0.00000E+00
 -1       869 1.77102E-04-1.54443E-05-4.13590E-25
 -1       870 1.77080E-04-1.62469E-05 0.00000E+00
 -1       871 1.78434E-04-9.14932E-06 0.00000E+00
 -1       872 1.79616E-04-9.15650E-06 0.00000E+00
 -1       873 1.80874E-04-9.16432E-06 0.00000E+00
 -1       874 1.82144E-04-9.17285E-06 3.10193E-25
 -1       875 1.83361E-04-9.18194E-06-4.13590E-25
 -1       876 1.77802E-04-9.89880E-06 0.00000E+00
 -1       877 1.78190E-04-1.05880E-05 0.00000E+00
 -1       878 1.78558E-04-1.12207E-05-3.30872E-24
 -1       879 1.78907E-04-1.18039E-05 0.00000E+00
 -1       880 1.79240E-04-1.23448E-05 0.00000E+00
 -1       881 1.79561E-04-1.28506E-05 0.00000E+00
 -1       882 1.79871E-04-1.33282E-05-3.30872E-24
 -1       883 1.80173E-04-1.37848E-05-1.65436E-24
 -1       884 1.80469E-04-1.42274E-05 3.30872E-24
 -1       885 1.80763E-04-1.46632E-05 1.65436E-24
 -1       886 1.81058E-04-1.50991E-05-3.30872E-24
 -1       887 1.81354E-04-1.55424E-05-1.65436E-24
 -1       888 1.81656E-04-1.60000E-05 0.00000E+00
 -1       889 1.81966E-04-1.64792E-05-1.65436E-24
 -1       890 1.82285E-04-1.69870E-05 0.00000E+00
 -1       891 1.78121E-04-1.72604E-05 0.00000E+00
 -1       892 1.79162E-04-1.73154E-05 0.00000E+00
 -1       893 1.80156E-04-1.73704E-05 1.65436E-24
 -1       894 1.81079E-04-1.74251E-05 8.27181E-25
 -1       895 1.81905E-04-1.74796E-05 4.13590E-25
 -1       956 1.86356E-04 1.80214E-06 1.65436E-24
 -1       957 1.86230E-04 8.61339E-07 8.27181E-25
 -1       958 1.86103E-04-3.82142E-09 3.30872E-24
 -1       959 1.85977E-04-8.03891E-07 0.00000E+00
 -1       960 1.85850E-04-1.54946E-06-3.30872E-24
 -1       961 1.85724E-04-2.25114E-06 0.00000E+00
 -1       962 1.85597E-04-2.91957E-06 0.00000E+00
 -1       963 1.85471E-04-3.56539E-06-1.65436E-24
 -1       964 1.85344E-04-4.19925E-06 0.00000E+00
 -1       965 1.85217E-04-4.83178E-06 1.65436E-24
 -1       966 1.85091E-04-5.47365E-06 0.00000E+00
 -1       967 1.84964E-04-6.13548E-06 1.65436E-24
 -1       968 1.84838E-04-6.82792E-06 0.00000E+00
 -1       969 1.84712E-04-7.56156E-06 1.65436E-24
 -1       970 1.84586E-04-8.34699E-06 3.30872E-24
 -1       971 1.84347E-04-1.00383E-05 1.65436E-24
 -1       972 1.84231E-04-1.07903E-05 0.00000E+00
 -1       973 1.84115E-04-1.14603E-05-3.30872E-24
 -1       974 1.83998E-04-1.20590E-05-1.65436E-24
 -1       975 1.83882E-04-1.25968E-05 0.00000E+00
 -1       976 1.83766E-04-1.30845E-05 0.00000E+00
 -1       977 1.83650E-04-1.35325E-05 0.00000E+00
 -1       978 1.83534E-04-1.39516E-05 0.00000E+00
 -1       979 1.83417E-04-1.43522E-05 3.30872E-24
 -1       980 1.83301E-04-1.47451E-05 0.00000E+00
 -1       981 1.83185E-04-1.51407E-05 0.00000E+00
 -1       982 1.83069E-04-1.55498E-05 0.00000E+00
 -1       983 1.82953E-04-1.59830E-05 0.00000E+00
 -1       984 1.82838E-04-1.64508E-05 1.65436E-24
 -1       985 1.82723E-04-1.69638E-05 0.00000E+00
 -3
    1PSTEP                        34          17           1          
  100CL  117 6.38785E-01         409                     0   17           1
 -4  STRESS      6    1
 -5  SXX         1    4    1    1
 -5  SYY         1    4    2    2
 -5  SZZ         1    4    3    3
 -5  SXY         1    4    1    2
 -5  SYZ         1    4    2    3
 -5  SZX         1    4    3    1
 -1         1-5.37160E+06-1.62331E+06-1.13412E+06-1.33757E+06 2.91038E-11-1.00641E-07
 -1         2 1.76662E+06 2.76858E+07 6.16853E+06 7.36098E+06 1.74216E-07-2.46146E-08
 -1         3-1.20113E+03-1.50126E+06 3.81258E+02-1.91586E+03-5.49846E-10-2.11658E-08
 -1         5-4.75698E+01 3.65386E+05 9.42152E+00-9.55386E-01-3.79950E-10-9.81163E-09
 -1         8 9.14889E+04-6.56226E+04 9.14595E+04-3.00117E+05-9.09495E-11-2.45345E-08
 -1         9 9.58864E+06 5.14613E+06 2.78073E+06 1.35119E+05 4.07221E-08-5.84172E-08
 -1        10-2.05096E+03-1.56433E+06-3.55981E+03-1.29631E+04-1.22363E-08-3.68410E-08
 -1        12-4.38035E+01 3.65406E+05 3.08121E+02-6.65278E+00-5.67539E-10 5.29326E-09
 -1        15 9.09909E+02 5.00039E+02 2.94126E+03 6.38712E-01-1.19371E-11-9.96089E-08
 -1        16 1.74394E+07-3.71040E+05 2.40730E+06-1.80946E+06 8.49832E-09 1.08499E-07
 -1        17 6.46100E+06 4.51407E+06 1.72422E+06 4.39908E+06 1.30996E-08 3.34694E-08
 -1        18 1.10233E+05 2.48963E+04-2.07187E+03-1.11238E+05 1.55853E-08-3.79396E-09
 -1        19 1.16236E+05 1.34214E+05-9.11559E+02 2.12220E+04 1.25838E-09-7.93225E-09
 -1        20-7.50260E+04-5.45756E+05-1.22258E+05 2.55795E+04-1.60071E-09 5.34298E-09
 -1        21-4.45511E+01-2.85217E+05-8.93669E+02 2.05787E+02 1.07786E-08-3.03416E-08
 -1        24 1.08066E+07 8.94232E+06 3.01633E+06 8.30150E+06-1.44937E-07-4.88750E-08
 -1        25 7.10563E+04 7.14141E+04 4.96333E+04-5.32484E+05-8.46740E-10 6.19075E-09
 -1        26-5.24098E+04 8.70839E+04-2.35006E+04 3.48892E+02 2.49565E-10 2.58037E-09
 -1        27-7.38669E+04-2.95363E+05-1.08396E+05 6.57790E+04 4.06438E-09 3.40879E-09
 -1        28 2.15279E+04-8.18580E+04 1.62679E+04 2.04380E+04-2.44657E-09 7.80284E-09
 -1        32-1.61850E+06-2.98409E+06-1.76184E+05 2.61890E+05-3.88900E-08-7.82063E-09
 -1        33-1.70622E+05 8.79205E+04 3.07665E+04-3.71414E+04-2.74053E-09 1.57400E-08
 -1        34-2.13847E+05-2.35642E+04 6.44937E+02 7.15765E+04-4.44348E-09-1.28916E-08
 -1        35-2.21423E+04-3.24705E+04-1.29140E+03 4.96344E+04-2.57688E-09-3.28291E-08
 -1        51 6.05325E+04-2.06026E+05 1.27487E+05-3.71210E+05-7.27596E-11-2.71029E-08
 -1        52 2.02148E+04-1.83386E+05 6.64340E+04-4.33047E+05 2.53294E-10 1.80851E-07
 -1        53 3.77329E+03-1.98081E+05 3.38341E+04-3.69983E+05 2.74667E-10 1.50667E-07
 -1        54 6.01862E+03-1.93982E+05 2.62813E+04-4.34211E+05-2.18279E-11-1.19520E-07
 -1        55 1.32232E+04-2.00006E+05 3.01798E+04-3.69958E+05 1.63709E-10 1.49080E-07
 -1        56-9.73623E+06-1.31107E+06-8.88768E+05-4.02569E+06 2.70666E-08-9.04838E-08
 -1        57-1.09948E+07-9.21429E+05-5.54544E+05-2.79206E+06 2.82307E-08-4.45943E-08
 -1        58-9.63977E+06-1.73209E+06-1.97872E+05-4.16319E+06-2.25555E-10 4.84215E-08
 -1        59-1.10190E+07-4.70699E+05-1.09947E+05-2.75828E+06-6.00687E-09-1.41503E-07
 -1        60-9.75346E+06-1.72208E+06-5.75039E+04-4.09761E+06 8.63656E-09-3.10174E-08
 -1        61-1.04464E+07-7.80965E+05 6.74916E+03-3.02695E+06 5.57338E-09 9.22009E-08
 -1        62-1.01047E+07-1.49445E+06-6.07632E+04-3.81220E+06-2.54804E-08-2.48110E-09
 -1        63-9.73022E+06-1.38229E+06 3.59488E+04-3.66524E+06 2.00453E-08-1.21987E-07
 -1        64-1.04047E+07-1.16720E+06-5.12507E+04-3.41985E+06-1.26020E-08-1.15378E-07
 -1        65-9.41976E+06-1.87724E+06-2.02412E+02-4.40689E+06-9.69885E-09-1.02753E-07
 -1        66-1.05170E+07-9.28473E+05-4.39389E+04-3.14426E+06 4.54747E-10 1.97326E-07
 -1        67-9.41396E+06-2.07792E+06-1.01769E+05-4.70389E+06-2.64627E-08-1.85810E-08
 -1        68-1.04889E+07-9.12224E+05-1.89896E+05-3.17178E+06-4.62751E-08-5.57193E-08
 -1        69-9.63690E+06-2.16218E+06-5.00824E+05-4.26410E+06-9.09586E-09-2.13477E-07
 -1        70-1.02009E+07-9.21069E+05-8.33511E+05-3.52066E+06 1.24855E-08 1.33819E-07
 -1        86-1.52321E+06-1.72730E+07-3.22913E+06-3.51945E+06-4.71482E-09 1.75787E-08
 -1        87 2.11903E+06 9.88539E+06 2.79894E+06 5.68824E+06-1.48430E-08 1.65401E-08
 -1        88-1.94066E+05-9.50883E+05 2.63846E+05-2.14040E+06 1.06376E-07-2.09704E-08
 -1        89 3.16019E+06 9.77802E+06 2.97825E+06 5.92653E+06-1.22527E-07 6.98492E-10
 -1        90-2.49664E+06-1.72119E+07-3.43281E+06-3.78148E+06 1.45907E-07 8.45466E-09
 -1       121-1.65217E+03-1.50526E+06-3.80304E+02 9.50911E+02 1.27464E-09-1.24055E-09
 -1       122-1.03491E+03-1.50129E+06 7.39666E+02-3.83316E+03-4.71545E-09 7.27596E-09
 -1       123-1.68362E+03-1.50537E+06 4.12330E+02 2.84043E+03 3.99712E-09-6.13727E-09
 -1       124 5.05821E+02-1.50078E+06 2.88235E+03-8.04126E+03-9.03947E-09-5.98811E-09
 -1       125-2.48757E+03-1.50622E+06 3.56618E+03 5.12594E+03 6.03177E-09-7.95626E-09
 -1       191-5.02338E+01 3.65408E+05 9.19873E+00 4.92261E-01-4.69851E-10-1.27857E-08
 -1       192-4.84625E+01 3.65386E+05 2.00478E+01-3.21064E+00-6.61149E-10-1.99780E-08
 -1       193-5.25926E+01 3.65407E+05 3.52772E+01 2.80828E+00-8.50891E-10-5.90080E-09
 -1       194-5.13285E+01 3.65389E+05 7.60730E+01-7.33978E+00-3.46440E-10-6.39557E-09
 -1       195-5.71218E+01 3.65405E+05 1.46788E+02 4.72412E+00-1.24345E-09 7.82165E-10
 -1       251 1.80315E+06-8.87538E+04 1.99586E+05 2.29748E+04 4.32647E-09 7.14062E-08
 -1       252 1.92339E+06 1.02876E+05 1.47057E+05-1.09588E+05-7.42602E-10 4.48417E-08
 -1       253 1.84982E+06-1.32048E+04 5.22346E+04-9.26787E+03-2.15027E-09-1.06586E-07
 -1       254 1.86809E+06 1.64041E+04 3.35325E+04-6.42038E+04 8.64151E-09 4.43856E-08
 -1       255 1.85711E+06-1.69157E+03 1.37275E+04-2.23940E+04-7.77561E-09 7.01939E-08
 -1       256 1.85955E+06 3.26856E+03 8.59161E+03-4.58196E+04-7.38942E-09-3.30454E-09
 -1       257 1.85815E+06 4.50846E+01 4.88471E+03-2.76481E+04 2.91740E-09 6.47187E-08
 -1       258 1.85860E+06 1.73450E+03 5.15367E+03-3.88492E+04-1.98340E-08-1.80615E-07
 -1       259 1.85802E+06-1.34954E+02 6.84913E+03-2.93636E+04 5.26081E-09-1.63593E-07
 -1       260 1.86034E+06 5.00427E+03 1.41867E+04-3.75344E+04 1.35511E-08 1.28039E-08
 -1       261 1.85640E+06-3.21268E+03 2.39795E+04-2.89625E+04 1.08917E-08 9.58698E-09
 -1       262 1.87178E+06 2.83224E+04 5.84324E+04-4.06975E+04 4.52893E-10-4.32547E-08
 -1       263 1.84654E+06-2.33879E+04 9.33044E+04-2.61988E+04-1.43954E-08 6.68915E-08
 -1       264 1.94222E+06 1.78938E+05 2.54161E+05-5.05301E+04 1.47213E-08 1.15375E-07
 -1       265 1.78597E+06-1.53333E+05 3.60174E+05-1.91247E+04 1.14264E-08-5.15865E-08
 -1       266-1.64726E+04-7.70344E+03 3.86454E+04-1.36653E+01 5.45697E-11 8.42974E-08
 -1       267 1.90960E+04 8.97721E+03 2.73161E+04 1.57685E+01 1.75078E-10 1.97298E-07
 -1       268-2.56076E+03-1.27149E+03 1.01531E+04-2.00910E+00 6.77574E-11 4.32701E-08
 -1       269 3.02348E+03 1.52163E+03 6.59949E+03 2.34039E+00 9.42464E-11-1.52362E-07
 -1       270-4.53828E+02-2.50018E+02 3.18566E+03-3.17603E-01 1.88720E-11 7.42759E-08
 -1       271-1.73643E+06-2.21199E+05-1.39199E+05-6.78064E+05 1.78661E-08 4.17931E-08
 -1       272-1.71471E+06-3.75754E+05-8.69365E+04-7.42327E+05 3.17705E-08-1.51289E-07
 -1       273-1.76638E+06-2.49521E+05-3.38472E+04-6.67439E+05 1.87938E-08-1.35165E-07
 -1       274-1.68205E+06-3.41037E+05-1.74320E+04-7.63396E+05 2.36032E-08 5.49999E-08
 -1       275-1.77374E+06-2.48278E+05-8.39594E+03-6.62419E+05 6.33008E-10 3.24890E-08
 -1       276-1.67596E+06-3.42281E+05-3.55791E+03-7.75338E+05 1.49357E-08-2.59815E-08
 -1       277-1.77730E+06-2.44765E+05-2.23585E+03-6.59037E+05 2.44036E-08-2.95558E-08
 -1       278-1.67416E+06-3.45822E+05-9.91368E+02-7.83246E+05-1.55824E-08 2.32876E-08
 -1       279-1.77924E+06-2.42357E+05-1.06564E+03-6.57027E+05 1.52922E-08-5.61793E-08
 -1       280-1.67369E+06-3.47940E+05-1.55834E+03-7.87159E+05-6.70752E-09 8.43766E-08
 -1       281-1.77971E+06-2.41424E+05-2.78388E+03-6.56417E+05-1.27620E-08 1.37984E-08
 -1       282-1.67501E+06-3.49649E+05-6.65327E+03-7.86683E+05 1.76697E-08 7.75672E-08
 -1       283-1.77785E+06-2.40881E+05-1.20284E+04-6.57377E+05 4.17458E-10-4.69727E-08
 -1       284-1.68612E+06-3.63366E+05-3.22901E+04-7.79692E+05-1.78670E-08 9.05975E-08
 -1       285-1.76668E+06-2.30679E+05-5.10466E+04-6.61406E+05-1.57343E-08-1.03319E-08
 -1       301-6.04056E+02-5.42326E+05 1.64528E+05-9.78500E+05-2.02272E-09-3.32511E-08
 -1       302-2.74609E+03-4.96395E+05 1.00315E+05-1.42865E+06-8.55653E-09 1.81200E-07
 -1       303-1.74518E+04-5.31689E+05 6.04210E+04-9.75859E+05 7.96717E-09-3.28455E-08
 -1       304-1.54756E+04-5.00371E+05 6.73266E+04-1.42795E+06-4.67116E-08-2.26919E-07
 -1       305-1.63458E+04-5.26314E+05 9.07103E+04-9.78741E+05-2.56496E-08-3.07191E-08
 -1       306-2.50271E+07-4.96073E+06-6.80424E+06-1.09838E+06-4.62169E-08 5.59376E-08
 -1       307 1.93401E+07 1.44375E+06 4.26326E+06-1.23492E+07-6.45465E-07 1.01951E-07
 -1       308-7.42661E+06-3.72037E+05-3.72353E+05 4.15335E+06-2.58064E-07 2.94647E-07
 -1       309-2.79001E+06 4.91657E+06 1.66228E+06-1.78573E+07 1.57073E-07 7.33417E-08
 -1       310-1.14776E+07-1.04322E+06-1.49167E+06 3.88841E+06-5.39585E-08-5.83677E-08
 -1       311 2.87702E+07-6.43368E+05 5.65182E+06-7.25522E+06 5.78089E-07 9.27830E-08
 -1       312-2.63438E+07-5.53584E+06-6.65296E+06-4.38185E+06-2.63099E-08 2.67159E-07
 -1       313 3.52078E+07 1.07670E+07 8.41724E+06 1.77607E+07 1.39698E-07 4.65661E-10
 -1       314-1.53541E+07-1.36786E+07-5.88061E+06-1.04991E+07 4.36907E-07-2.16824E-07
 -1       315-2.21885E+06 2.25290E+07 4.45002E+06 9.01453E+06-2.38651E-07-1.30094E-08
 -1       316 3.70350E+05-8.52972E+06-3.48970E+05-3.37303E+06-1.04988E-06-2.71713E-07
 -1       317-1.65330E+07 1.84886E+07 1.62111E+06-5.51028E+06 5.96614E-07-7.12298E-07
 -1       318-1.63245E+06-1.03599E+07-1.51244E+06-4.59000E+06-9.03616E-07 1.08703E-07
 -1       319 4.84410E+06 2.37233E+07 5.38248E+06 1.30771E+07-7.30506E-08 2.04425E-07
 -1       320-1.92847E+07-1.36758E+07-7.76612E+06-1.05377E+07 1.80095E-07-6.09725E-08
 -1       336-3.91561E+02-1.62948E+06-1.26682E+04 7.71351E+03-2.40771E-08-9.18590E-09
 -1       337-4.93519E+03-1.62954E+06-1.63382E+04-1.87415E+04-4.45982E-08-2.22062E-08
 -1       338 3.87761E+02-1.62908E+06-2.52951E+04 1.08417E+04-3.15231E-08 5.04588E-09
 -1       339-2.68799E+04-1.64458E+06-5.71224E+04-2.48663E+04-5.58503E-08 3.07482E-08
 -1       340 1.77455E+04-1.61616E+06-8.98360E+04 1.37319E+04-3.66854E-08 2.13622E-08
 -1       406-2.22771E+01 3.65391E+05 6.06190E+02 2.21661E+00-1.43620E-09 2.17551E-09
 -1       407 1.68534E+02 3.65512E+05 1.29288E+03 1.93339E+01-3.64238E-10 1.19035E-08
 -1       408 6.20325E+02 3.65297E+05 2.57942E+03-2.19526E+01-2.00271E-09-1.13578E-08
 -1       409 2.75152E+03 3.66336E+05 5.81126E+03 2.30002E+02-1.75589E-10 1.17225E-08
 -1       410 7.98389E+03 3.64558E+05 1.18616E+04-2.20711E+02-2.25918E-09 3.19596E-09
 -1       521-2.69165E+07-6.18932E+06-8.08456E+06-8.07960E+05-1.22469E-07 1.23051E-07
 -1       522 2.03565E+07 2.11072E+06 4.42055E+06-1.54907E+07-6.05389E-07-2.87371E-07
 -1       523-8.25479E+06-6.33734E+05-3.87024E+05 4.64860E+06 6.45523E-08-9.25065E-08
 -1       524-5.65785E+06 7.29803E+06 1.84368E+06-2.10127E+07 7.57602E-07-4.64010E-07
 -1       525-1.25532E+07-1.54995E+06-1.67595E+06 4.38067E+06 6.15546E-07-1.85944E-07
 -1       526 3.19074E+07-8.00349E+05 6.04441E+06-9.59966E+06-4.07919E-07-4.15894E-08
 -1       527-2.84634E+07-6.98261E+06-7.78871E+06-4.35777E+06-1.75089E-07 1.52955E-07
 -1       528 3.91317E+07 1.21256E+07 8.94354E+06 2.04999E+07 1.31782E-07 1.29687E-07
 -1       529-1.65026E+07-1.57742E+07-6.85937E+06-1.08558E+07-5.13392E-08-1.66881E-07
 -1       530-4.40974E+06 2.67673E+07 4.80345E+06 8.97605E+06-3.54063E-07 4.33531E-07
 -1       531 3.44612E+05-9.75518E+06-3.46176E+05-3.53239E+06-1.03435E-06 2.95404E-07
 -1       532-1.95207E+07 2.09406E+07 1.82273E+06-8.91718E+06 1.22760E-07-6.84042E-07
 -1       533-1.69968E+06-1.16748E+07-1.63738E+06-4.67135E+06-2.40863E-07-9.49018E-07
 -1       534 3.15541E+06 2.81499E+07 5.71593E+06 1.38578E+07-3.38259E-08 6.53934E-07
 -1       535-2.06653E+07-1.58989E+07-9.01859E+06-1.09006E+07 8.24220E-08 3.97064E-07
 -1       536-6.55365E+05-4.28290E+04-3.19359E+04-4.78111E+04-2.96677E-09 6.73590E-08
 -1       537-1.04605E+05 4.15834E+04 7.64795E+04 1.10655E+05-1.05198E-07 7.96381E-08
 -1       538-3.92094E+05 2.30519E+03 5.20030E+03-6.54905E+04 4.56462E-08 9.54033E-08
 -1       539-2.87006E+05 2.73825E+03 2.20865E+04 1.25114E+05 1.45851E-07 8.23514E-08
 -1       540-4.77494E+05-2.31150E+02-1.71565E+04-6.26783E+04 1.59739E-08 9.67376E-08
 -1       541 6.24749E+04 1.42174E+04 8.95961E+04 8.66549E+04-8.55971E-09 7.57899E-08
 -1       542-7.32178E+05-1.69934E+04-7.07627E+04-2.63651E+04 4.35593E-08 2.25590E-08
 -1       543 2.79972E+05 2.30166E+04 1.32722E+05-1.22235E+04 3.81478E-08-2.57214E-08
 -1       544-6.89174E+05-1.38385E+04-6.28184E+04 3.56852E+04-1.32572E-08-4.34056E-08
 -1       545-3.79509E+04 7.72068E+03 6.64340E+04-1.01588E+05-1.02250E-08-8.31224E-08
 -1       546-4.22766E+05 5.34063E+03-1.04575E+04 6.27394E+04 2.97648E-08-8.71532E-08
 -1       547-3.02792E+05-4.67308E+03 7.60232E+03-1.27788E+05-9.77607E-08-1.15834E-07
 -1       548-4.31425E+05 4.46455E+03-2.18351E+04 6.24141E+04-1.01675E-07-8.79354E-08
 -1       549-2.01958E+04 1.01369E+04 4.63780E+04-9.91505E+04-5.35701E-08-5.93150E-08
 -1       550-6.97790E+05-1.57763E+04-1.15244E+05 3.35504E+04 6.61612E-09-3.47791E-08
 -1       551 3.63824E+04-7.29018E+05-6.75898E+03-1.19781E+06-9.39326E-08 5.70435E-09
 -1       552 8.28230E+04-7.67183E+05 1.48812E+04-1.70771E+06-6.77828E-08 3.79368E-08
 -1       553 6.31975E+04-7.65629E+05 3.51843E+04-1.19177E+06-1.10376E-07 2.52767E-08
 -1       554 1.19079E+05-7.79299E+05 8.44200E+04-1.70967E+06-7.06787E-08 2.38651E-09
 -1       555 9.26197E+04-7.88281E+05 1.53009E+05-1.19180E+06-1.13985E-07-2.29811E-08
 -1       556 2.01791E+05-3.50746E+05 3.49529E+04-3.82377E+05-2.07510E-08-2.11876E-08
 -1       557 3.23735E+05-4.48729E+05 2.04800E+04-4.93157E+05-8.58563E-10-5.17139E-09
 -1       558 1.86872E+05-3.46689E+05 4.90116E+03-3.84267E+05-1.91503E-08 1.94850E-08
 -1       559 3.01184E+05-4.50672E+05 3.50697E+03-5.10696E+05 1.83936E-08 2.61934E-09
 -1       560 1.73967E+05-3.38568E+05-5.59553E+02-3.93473E+05 4.74392E-09-1.10631E-08
 -1       561 2.84848E+05-4.44234E+05 4.52473E+02-5.21759E+05-3.20142E-09-1.55123E-08
 -1       562 1.63787E+05-3.32220E+05-9.17064E+02-4.00821E+05 4.22006E-10-1.64364E-08
 -1       563 2.72788E+05-4.38973E+05 6.35483E+01-5.29614E+05 4.70754E-09 7.04040E-09
 -1       564 1.56591E+05-3.27730E+05-4.30990E+02-4.05913E+05 4.94765E-09-2.57660E-09
 -1       565 2.64905E+05-4.35541E+05 5.16391E+01-5.34643E+05 1.39153E-08 3.80533E-09
 -1       566 1.52483E+05-3.25127E+05-1.90661E+02-4.08788E+05-4.32192E-09-1.36079E-08
 -1       567 2.61234E+05-4.33942E+05-3.01806E+02-5.36855E+05 1.19944E-08 8.07631E-09
 -1       568 1.51541E+05-3.24555E+05-9.65711E+02-4.09543E+05 2.15050E-09 2.31266E-08
 -1       569 2.60484E+05-4.33904E+05-2.43871E+03-5.35307E+05-7.31234E-09 2.61643E-08
 -1       570 1.54781E+05-3.27561E+05-5.36091E+03-4.08631E+05 1.20053E-09-2.77487E-09
 -1       571 2.75463E+05 9.97997E+03 1.43402E+04-8.70759E+04 1.21263E-08 4.74756E-10
 -1       572 2.77552E+05 3.70748E+03 7.02745E+03-9.55305E+04 2.54295E-08 1.17643E-09
 -1       573 2.76295E+05 1.11700E+03 3.12245E+03-8.69099E+04 1.60162E-08 3.55612E-09
 -1       574 2.76509E+05 6.12146E+02 1.56564E+03-9.57378E+04-1.65164E-09 1.72504E-08
 -1       575 2.76386E+05 3.52999E+02 7.38844E+02-8.68873E+04-1.34187E-09 6.40284E-10
 -1       576 2.76378E+05 3.56581E+02 3.78058E+02-9.57654E+04-4.73756E-09-6.02358E-09
 -1       577 2.76420E+05 2.99732E+02 1.88634E+02-8.68842E+04-5.05952E-09 3.80351E-09
 -1       578 2.76400E+05 3.24197E+02 1.08582E+02-9.57692E+04-5.42059E-09 9.54606E-09
 -1       579 2.76480E+05 2.70260E+02 7.44526E+01-8.68839E+04 1.28439E-08-8.64839E-09
 -1       580 2.76484E+05 2.82731E+02 8.56336E+01-9.57647E+04 1.18271E-08-8.70386E-10
 -1       581 2.76574E+05 2.22976E+02 1.29588E+02-8.68894E+04 1.67765E-08-3.22234E-09
 -1       582 2.76631E+05 2.56826E+02 2.62417E+02-9.57082E+04-4.21096E-10 1.54796E-08
 -1       583 2.76689E+05 2.73008E+02 5.04932E+02-8.69409E+04-8.59291E-09 4.70800E-09
 -1       584 2.76962E+05 6.83164E+02 1.14118E+03-9.52743E+04-1.45264E-08-2.08684E-09
 -1       585 2.76694E+05 1.65306E+03 2.31275E+03-8.73228E+04-1.06265E-08-6.23550E-09
 -1       586-3.27414E+03 1.07164E+05-3.02267E+03-2.39399E+05-4.17003E-09 2.20616E-08
 -1       587-1.17897E+03 1.06879E+05 5.88400E+02-2.63484E+05-6.23913E-09-3.84375E-10
 -1       588 4.90892E+02 1.06738E+05 4.41590E+03-2.39271E+05-3.44698E-09-1.23582E-08
 -1       589 4.92201E+03 1.09046E+05 1.15806E+04-2.63248E+05-7.70342E-09-2.52530E-08
 -1       590 1.57532E+04 1.05480E+05 2.43429E+04-2.39683E+05-4.85124E-09-4.05998E-09
 -1       591-6.83630E+04-1.49699E+04-2.09809E+04-2.96106E+04-1.94632E-10 1.02400E-08
 -1       592-7.20414E+04-1.84127E+04-1.13648E+04-3.31342E+04 6.23785E-11 4.52997E-09
 -1       593-7.04622E+04-1.34465E+04-4.73067E+03-3.11482E+04-2.05559E-09-1.79016E-08
 -1       594-6.91428E+04-1.53359E+04-2.35932E+03-3.32462E+04 5.32953E-09 5.39541E-09
 -1       595-7.06222E+04-1.34414E+04-1.08325E+03-3.12181E+04-1.45170E-09 1.98131E-09
 -1       596-6.89444E+04-1.51952E+04-5.50627E+02-3.32228E+04 8.40467E-09-6.88146E-09
 -1       597-7.06423E+04-1.34557E+04-2.99726E+02-3.12207E+04 1.54625E-09-1.32166E-08
 -1       598-6.89249E+04-1.51897E+04-2.40750E+02-3.32162E+04-6.50203E-09 3.09149E-09
 -1       599-7.06411E+04-1.34562E+04-3.07284E+02-3.12204E+04 3.15674E-09 5.74187E-09
 -1       600-6.89446E+04-1.51958E+04-5.70640E+02-3.32209E+04-1.89300E-09-1.60331E-08
 -1       601-7.06180E+04-1.34425E+04-1.12564E+03-3.12170E+04 4.72482E-10-4.12456E-09
 -1       602-6.91506E+04-1.53411E+04-2.45317E+03-3.32417E+04-3.10251E-10 2.56023E-09
 -1       603-7.04489E+04-1.34506E+04-4.91958E+03-3.11451E+04-1.06229E-09 2.85140E-08
 -1       604-7.21814E+04-1.85224E+04-1.18179E+04-3.31020E+04 5.36147E-10-3.15663E-09
 -1       605-6.82472E+04-1.50514E+04-2.18175E+04-2.95644E+04 4.86000E-09-1.29967E-09
 -1       606 2.66478E+04-1.35144E+04-2.42371E+04 2.43026E+04 4.70936E-09 7.61406E-09
 -1       607 2.25055E+04-4.40847E+03-1.20698E+04 2.73047E+04-7.02130E-10 2.60206E-09
 -1       608 2.48650E+04-7.90285E+02-5.40347E+03 2.41267E+04-2.91402E-09 3.96085E-10
 -1       609 2.44107E+04-2.64555E+02-2.72962E+03 2.75209E+04 1.06957E-09 1.83309E-09
 -1       610 2.46615E+04-3.11803E+01-1.30250E+03 2.41061E+04 1.98361E-09 3.69459E-09
 -1       611 2.45885E+04-2.94098E+01-6.56709E+02 2.75443E+04 6.87942E-09-3.16782E-08
 -1       612 2.46154E+04-1.72004E+01-3.12373E+02 2.41040E+04 1.03591E-09-2.00544E-09
 -1       613 2.45977E+04-2.45807E+01-1.40115E+02 2.75470E+04 2.51021E-09 5.22027E-09
 -1       614 2.45931E+04-2.24039E+01-3.32754E+01 2.41033E+04 2.81398E-09 1.12661E-08
 -1       615 2.45913E+04-2.24197E+01 5.77814E+01 2.75475E+04-1.87811E-10 2.04386E-09
 -1       616 2.45757E+04-1.88342E+01 1.74125E+02 2.41036E+04 1.26192E-09-1.31918E-08
 -1       617 2.46113E+04 1.53078E+01 3.97648E+02 2.75470E+04 8.58563E-10-1.48311E-08
 -1       618 2.45404E+04 9.62770E+01 8.01637E+02 2.41038E+04-1.10731E-09-1.12891E-09
 -1       619 2.48936E+04 6.35525E+02 1.80023E+03 2.75463E+04-2.19234E-09 6.81439E-10
 -1       620 2.42738E+04 1.99752E+03 3.61843E+03 2.41047E+04 2.14868E-11 2.03190E-08
 -1       621 4.45673E+02 2.84603E+05 3.53782E+03 3.55895E+04 8.14453E-10 9.91895E-09
 -1       622 5.82014E+02 2.85431E+05 3.17169E+03 5.16868E+04 9.81800E-10 9.94851E-09
 -1       623 1.06389E+02 2.84785E+05 3.85448E+03 3.54271E+04 1.06741E-09-6.47560E-09
 -1       624 1.94589E+03 2.86598E+05 7.50665E+03 5.18476E+04 1.06593E-09-2.28229E-08
 -1       625 1.91406E+03 2.83299E+05 1.31344E+04 3.54240E+04 1.28057E-09-1.39471E-08
 -1       626 2.47650E+05 5.94193E+04 4.97575E+03 1.21700E+05-7.04404E-10-9.29140E-09
 -1       627 2.45341E+05 6.08336E+04 2.39776E+03 1.25914E+05 2.25600E-09-1.62049E-09
 -1       628 2.47778E+05 5.71373E+04 1.01393E+03 1.22539E+05-2.10366E-09 9.83187E-09
 -1       629 2.44716E+05 6.01798E+04 4.96268E+02 1.26154E+05-2.06273E-09 3.92504E-09
 -1       630 2.47792E+05 5.70274E+04 2.30112E+02 1.22573E+05 7.60338E-10 2.17850E-09
 -1       631 2.44649E+05 6.01557E+04 1.23697E+02 1.26156E+05 2.95654E-09 1.47865E-08
 -1       632 2.47787E+05 5.70318E+04 8.11726E+01 1.22568E+05 4.17185E-09-4.63160E-09
 -1       633 2.44640E+05 6.01581E+04 9.00658E+01 1.26151E+05-6.09361E-11-8.51605E-09
 -1       634 2.47782E+05 5.70296E+04 1.45236E+02 1.22567E+05 7.56029E-09 2.42669E-08
 -1       635 2.44653E+05 6.01569E+04 2.93697E+02 1.26156E+05 1.77143E-09-3.05045E-09
 -1       636 2.47773E+05 5.70246E+04 5.93030E+02 1.22567E+05-6.33850E-09-8.14362E-09
 -1       637 2.44780E+05 6.02493E+04 1.30379E+03 1.26155E+05-1.10049E-10 2.12563E-08
 -1       638 2.47726E+05 5.73129E+04 2.67884E+03 1.22436E+05 3.00588E-10 1.86355E-08
 -1       639 2.46187E+05 6.22063E+04 6.33812E+03 1.25740E+05 8.93579E-09-1.74009E-09
 -1       640 2.47532E+05 6.31556E+04 1.31527E+04 1.19972E+05 3.60842E-09-1.00251E-08
 -1       656 6.35191E+04-1.62379E+06-1.53333E+05-2.08406E+03-2.11003E-10-5.90819E-09
 -1       657-8.40214E+04-1.69307E+06-1.27008E+05 5.66961E+03 3.54703E-11 4.86069E-09
 -1       658 2.02396E+04-1.64348E+06-7.81974E+04-4.01192E+03 1.99861E-10-1.19378E-09
 -1       659-9.07906E+04-1.69629E+06-1.35903E+05 7.23305E+03-1.51704E-09-1.27316E-08
 -1       660 7.02730E+04-1.62059E+06-1.68627E+05-3.64748E+03-1.94268E-09-1.81919E-09
 -1       661 1.58957E+05 1.67360E+04 1.65402E+04 6.21443E+04 4.55657E-10 1.78579E-08
 -1       662 1.68218E+05 2.90730E+04 1.11467E+04 5.85359E+04-4.18595E-10 5.30065E-09
 -1       663 1.62205E+05 2.20429E+04 3.89854E+03 6.12021E+04-2.68528E-09-8.43397E-09
 -1       664 1.64453E+05 2.28663E+04 2.33195E+03 5.96861E+04-2.41030E-09-9.84522E-09
 -1       665 1.62697E+05 2.27684E+04 9.19946E+02 6.10592E+04-3.71472E-10-1.14014E-09
 -1       666 1.63871E+05 2.20361E+04 5.38226E+02 5.98721E+04 5.62142E-09 1.39167E-08
 -1       667 1.62783E+05 2.28514E+04 2.85791E+02 6.10239E+04 3.69968E-09-4.63565E-09
 -1       668 1.63777E+05 2.19756E+04 2.90965E+02 5.99234E+04-5.25927E-09-2.15994E-08
 -1       669 1.62790E+05 2.28271E+04 3.93746E+02 6.10083E+04 7.53943E-10 1.08263E-08
 -1       670 1.63873E+05 2.21888E+04 8.57208E+02 5.99258E+04-5.56804E-09 9.67754E-09
 -1       671 1.62686E+05 2.26427E+04 1.52198E+03 6.10195E+04 4.32772E-09 1.31803E-09
 -1       672 1.64760E+05 2.36693E+04 3.89391E+03 5.97108E+04 5.57186E-09 1.32471E-08
 -1       673 1.61907E+05 2.13840E+04 6.52556E+03 6.12089E+04 2.25180E-09-6.73936E-09
 -1       674 1.70972E+05 3.41528E+04 1.86617E+04 5.78855E+04 8.48672E-10-1.82943E-08
 -1       675 1.56515E+05 1.24528E+04 2.77005E+04 6.27346E+04-2.89265E-09-1.41517E-09
 -1       676 2.32691E+01-2.85142E+05-1.07711E+03-1.02897E+02 9.76314E-10-1.19672E-08
 -1       677-2.85379E+02-2.85403E+05-1.97128E+03 2.05637E+02 7.67955E-09-9.85072E-09
 -1       678 1.91042E+02-2.84957E+05-3.48473E+03-1.02672E+02 2.23758E-09-4.10500E-09
 -1       679-3.48520E+03-2.87506E+05-8.27823E+03 2.04780E+02 8.64202E-09 1.91010E-08
 -1       680 2.08052E+03-2.83040E+05-1.33417E+04-1.00900E+02 1.49703E-09 1.78128E-08
 -1       771-2.96528E+06-7.00764E+05-1.46444E+05-1.40252E+06-3.09083E-08-2.45054E-08
 -1       772-2.89608E+06-7.82899E+05-7.57377E+04-1.49721E+06-1.95287E-08 1.03100E-08
 -1       773-2.99284E+06-6.79220E+05-3.81030E+04-1.41470E+06-1.38825E-08 1.09430E-08
 -1       774-2.88651E+06-7.66673E+05-1.71068E+04-1.51919E+06 2.51021E-08-2.11003E-10
 -1       775-3.00671E+06-6.69466E+05-1.24594E+04-1.42034E+06-6.63567E-09-4.29281E-10
 -1       776-2.89641E+06-7.64317E+05-4.71432E+03-1.53554E+06-3.11411E-09 2.02272E-09
 -1       777-3.01864E+06-6.60840E+05-5.38484E+03-1.42531E+06 7.91624E-09 3.58705E-09
 -1       778-2.90681E+06-7.62188E+05-1.54135E+03-1.54954E+06 3.79077E-09 7.50515E-09
 -1       779-3.02883E+06-6.53340E+05-2.65282E+03-1.42955E+06 3.44880E-09-7.76345E-09
 -1       780-2.91594E+06-7.60160E+05-4.41838E+02-1.56094E+06 6.99220E-09 1.36424E-09
 -1       781-3.03690E+06-6.47313E+05-1.01538E+03-1.43287E+06-2.08092E-08 2.44836E-09
 -1       782-2.92296E+06-7.58432E+05 3.86149E+02-1.56934E+06-3.18178E-08-6.04814E-09
 -1       783-3.04257E+06-6.43141E+05 6.12615E+02-1.43519E+06-9.49512E-09-1.43018E-08
 -1       784-2.92681E+06-7.56628E+05 2.47000E+03-1.57453E+06-1.69821E-08 5.35556E-09
 -1       785-3.04593E+06-6.40649E+05 4.36742E+03-1.43669E+06-3.40733E-08 6.46651E-09
 -1       786 1.21761E+05-9.49999E+03 2.19787E+04-2.74740E+02 2.84390E-09 9.04583E-09
 -1       787 1.31293E+05 1.09986E+04 1.55491E+04-9.57890E+01 7.49630E-09 3.18214E-08
 -1       788 1.25436E+05-1.48880E+03 5.68647E+03-2.42038E+02 2.18808E-09 1.86240E-08
 -1       789 1.27012E+05 1.72298E+03 3.56993E+03-1.46455E+02-6.63096E-10 1.13948E-08
 -1       790 1.26043E+05-2.31943E+02 1.44578E+03-2.24088E+02-9.95409E-10 8.89310E-09
 -1       791 1.26302E+05 2.68177E+02 8.35782E+02-1.77278E+02-6.12130E-09 2.05763E-08
 -1       792 1.26146E+05-3.50861E+01 3.55630E+02-2.11216E+02-4.64314E-09-9.78558E-09
 -1       793 1.26180E+05 3.75217E+01 1.80501E+02-2.01458E+02 4.36805E-10-3.21303E-08
 -1       794 1.26166E+05-1.43262E+00 5.33554E+01-1.99908E+02 2.88074E-09-2.18581E-08
 -1       795 1.26146E+05-2.13441E+01-3.89358E+01-2.24947E+02-3.52614E-09-6.28943E-09
 -1       796 1.26180E+05 2.37472E+01-1.28553E+02-1.87726E+02 2.28517E-09 3.35204E-09
 -1       797 1.26069E+05-1.78654E+02-3.61184E+02-2.52753E+02 4.32857E-09-8.04265E-09
 -1       798 1.26244E+05 1.55759E+02-5.88847E+02-1.72102E+02 1.54518E-09 1.73392E-09
 -1       799 1.25621E+05-1.14870E+03-1.62201E+03-2.91074E+02 6.26255E-09 2.04505E-08
 -1       800 1.26627E+05 9.93001E+02-2.29601E+03-1.49405E+02 6.52572E-10 1.47209E-08
 -1       801-1.02833E+05-8.74379E+06-1.18235E+06 1.11937E+06 8.25967E-08-5.59776E-08
 -1       802 5.45306E+05 4.00330E+06 1.69198E+06-1.34999E+06 2.35254E-07-2.91266E-08
 -1       803-4.23535E+05-1.20611E+07-1.51486E+06 7.09424E+05 7.05986E-08 1.92158E-08
 -1       804 2.12430E+05 1.10339E+06 1.19425E+06 5.81808E+05-1.05432E-07-7.76076E-08
 -1       805 1.64197E+05-5.85896E+06-2.34645E+05-8.07822E+05-4.35830E-08-5.85123E-08
 -1       806-2.94808E+05-5.66416E+04-2.16957E+04-1.16366E+05-1.23287E-08-3.57386E-09
 -1       807-2.96575E+05-5.30396E+04-1.06588E+04-1.21559E+05-1.01488E-08 1.11912E-08
 -1       808-2.95399E+05-4.88274E+04-4.52187E+03-1.20068E+05-1.30617E-08 2.86529E-08
 -1       809-2.94337E+05-5.00420E+04-2.21110E+03-1.21818E+05-1.76119E-08 2.74927E-08
 -1       810-2.95489E+05-4.85554E+04-1.01346E+03-1.20233E+05-4.78576E-09 1.00863E-09
 -1       811-2.94165E+05-4.99213E+04-5.04006E+02-1.21784E+05-4.00996E-09-5.07589E-09
 -1       812-2.95503E+05-4.85786E+04-2.54922E+02-1.20232E+05-1.10931E-08 4.35966E-09
 -1       813-2.94141E+05-4.99231E+04-1.65743E+02-1.21767E+05-9.57061E-09-5.55247E-10
 -1       814-2.95497E+05-4.85874E+04-1.64307E+02-1.20229E+05-1.89266E-09-9.55833E-09
 -1       815-2.94145E+05-4.99250E+04-2.64892E+02-1.21761E+05 2.78669E-09 1.02891E-08
 -1       816-2.95478E+05-4.85861E+04-5.02046E+02-1.20225E+05 6.02722E-09 4.95493E-09
 -1       817-2.94231E+05-4.99727E+04-1.07766E+03-1.21750E+05-1.21495E-08 8.87644E-09
 -1       818-2.95413E+05-4.87376E+04-2.19795E+03-1.20154E+05 4.81305E-09 7.37646E-09
 -1       819-2.95434E+05-5.13013E+04-5.17191E+03-1.21467E+05 1.29494E-08-2.78615E-08
 -1       820-2.95001E+05-5.26424E+04-1.05266E+04-1.18483E+05 9.63973E-09-2.06346E-08
 -1       821-3.64001E+05 2.00549E+04-4.64694E+04 1.43265E+03 1.04201E-08-1.94632E-09
 -1       822-3.83782E+05-2.32207E+04-3.28215E+04-2.68938E+03 3.19902E-09 1.11613E-08
 -1       823-3.71578E+05 3.14958E+03-1.20236E+04 2.03408E+03-7.32524E-09 4.11046E-09
 -1       824-3.74812E+05-3.63893E+03-7.55134E+03-2.94244E+03-2.63357E-10 3.14992E-08
 -1       825-3.72969E+05 4.89548E+02-3.12949E+03 1.68575E+03 1.19851E-08 1.06270E-08
 -1       826-3.73006E+05-5.66421E+02-1.80101E+03-1.48470E+03 1.80133E-08-2.39532E-09
 -1       827-3.73375E+05 7.25518E+01-1.03309E+03 5.76289E+02 6.21077E-09-7.39504E-10
 -1       828-3.72680E+05-1.61892E+02-7.62155E+02 9.04007E+02-1.81036E-09-5.86781E-09
 -1       829-3.73291E+05 8.28379E+01-1.03832E+03-7.02980E+02-3.15097E-10-3.07168E-09
 -1       830-3.73195E+05-6.03015E+02-1.90341E+03 2.94684E+03-5.50315E-10-1.65156E-08
 -1       831-3.72868E+05 5.19757E+02-3.22654E+03-1.46657E+03-3.75566E-09 1.70292E-09
 -1       832-3.74900E+05-3.79010E+03-7.84816E+03 3.54961E+03-1.04032E-09-5.68718E-09
 -1       833-3.71593E+05 3.27102E+03-1.25032E+04-1.30576E+03-1.91497E-09 7.19729E-09
 -1       834-3.84015E+05-2.41185E+04-3.40576E+04 2.36818E+03-2.72617E-09 1.23837E-08
 -1       835-3.63749E+05 2.08269E+04-4.82909E+04-2.85109E+02 5.21534E-09-2.06637E-09
 -1       836-1.32489E+03 3.50291E+05 2.16154E+04-1.58574E+04-5.58430E-09 9.39735E-09
 -1       837 4.62558E+03 3.57053E+05 1.83253E+04-3.22832E+04-6.33918E-09-2.27274E-08
 -1       838-5.20815E+02 3.52183E+05 1.87200E+04-1.57882E+04-5.22050E-09-1.85992E-10
 -1       839 1.18179E+04 3.62411E+05 3.54606E+04-3.23330E+04-5.06907E-09 1.72545E-08
 -1       840-3.64155E+03 3.44879E+05 5.65674E+04-1.58118E+04-4.83124E-09-5.31283E-09
 -1       856-5.61193E+04 7.87745E+03-2.07589E+04-3.95852E+02 3.29032E-09-6.50834E-09
 -1       857-6.46756E+04-9.25272E+03-1.42905E+04 5.42808E+03 5.12472E-09-1.42427E-08
 -1       858-5.95064E+04 1.10457E+03-5.38656E+03-4.19240E+02 2.30813E-09-1.14567E-08
 -1       859-6.07882E+04-1.29665E+03-3.25089E+03 5.46326E+03 4.54305E-09 1.08270E-09
 -1       860-6.00124E+04 1.54509E+02-1.36298E+03-4.30839E+02 1.07914E-09-2.07177E-09
 -1       861-6.02060E+04-1.81818E+02-7.50952E+02 5.47908E+03 5.71440E-10 1.31659E-09
 -1       862-6.00915E+04 2.08225E+01-3.14452E+02-4.35052E+02-7.34278E-10-2.87164E-09
 -1       863-6.01094E+04-1.93206E+01-1.19748E+02 5.48146E+03 9.71230E-10-3.29349E-09
 -1       864-6.01095E+04-4.31282E+00 3.46281E+01-4.33213E+02 1.17430E-09-1.34549E-08
 -1       865-6.00579E+04 5.54355E+01 2.24498E+02 5.47116E+03 1.44502E-09-2.93028E-08
 -1       866-6.01409E+04-5.39997E+01 4.58451E+02-4.24758E+02 1.48248E-09-1.98020E-09
 -1       867-5.98408E+04 4.46720E+02 1.13228E+03 5.44817E+03 2.70575E-10 8.76069E-09
 -1       868-6.03220E+04-3.88683E+02 1.88247E+03-4.10225E+02-2.16914E-10 1.51193E-08
 -1       869-5.84596E+04 3.23502E+03 5.01376E+03 5.41009E+03 3.84262E-10-1.10668E-08
 -1       870-6.15148E+04-2.76678E+03 7.27594E+03-3.86604E+02-2.27078E-09-1.72699E-08
 -1       871-5.30793E+03-1.91210E+04-1.84804E+04 1.23544E+05-4.60022E-09-3.50337E-09
 -1       872-1.97752E+03-2.33927E+04-7.71451E+03 1.60190E+05-9.30686E-09-1.20858E-08
 -1       873 3.10671E+02-2.13378E+04 6.19152E+02 1.23273E+05-4.12820E-09-1.60651E-09
 -1       874 3.07154E+03-1.89995E+04 9.41286E+03 1.60222E+05-9.32687E-09-7.04267E-09
 -1       875 6.49748E+03-2.35806E+04 2.11884E+04 1.23500E+05-4.18731E-09-5.27689E-09
 -1       876 2.81095E+05 4.74984E+04 1.44981E+04 1.12949E+05 7.26970E-09 1.28412E-08
 -1       877 2.82041E+05 5.05639E+04 7.74252E+03 1.17119E+05 8.49195E-09 1.63845E-08
 -1       878 2.82450E+05 4.58927E+04 3.24374E+03 1.14138E+05-3.36195E-09 1.34378E-10
 -1       879 2.80070E+05 4.85974E+04 1.61620E+03 1.17218E+05 4.71027E-09 7.88356E-09
 -1       880 2.82548E+05 4.58760E+04 7.52784E+02 1.14186E+05-4.85625E-09-8.85194E-09
 -1       881 2.79939E+05 4.85133E+04 4.01930E+02 1.17195E+05-5.27439E-09 1.04549E-08
 -1       882 2.82557E+05 4.58886E+04 2.57025E+02 1.14188E+05 2.86036E-10-8.46720E-09
 -1       883 2.79930E+05 4.85090E+04 2.76133E+02 1.17188E+05 1.82831E-09 2.35900E-12
 -1       884 2.82550E+05 4.58858E+04 4.39104E+02 1.14188E+05 2.70222E-09-1.58446E-08
 -1       885 2.79965E+05 4.85151E+04 8.82744E+02 1.17199E+05 1.00400E-10-4.71687E-09
 -1       886 2.82516E+05 4.58601E+04 1.77909E+03 1.14185E+05 2.97386E-09 6.28165E-09
 -1       887 2.80278E+05 4.87201E+04 3.88617E+03 1.17244E+05 1.27861E-08 1.05814E-08
 -1       888 2.82270E+05 4.59033E+04 7.83075E+03 1.14060E+05 4.06951E-09 9.24592E-09
 -1       889 2.84940E+05 5.35679E+04 1.87063E+04 1.17101E+05 8.59182E-09 1.44692E-08
 -1       890 2.79075E+05 4.96986E+04 3.50364E+04 1.11079E+05 1.04728E-09-1.65310E-08
 -1       891-9.92236E+01-1.56169E+05-1.90920E+03 2.64568E+04-2.72371E-09 7.39010E-09
 -1       892-1.88714E+02-1.56666E+05-2.05248E+03 4.01511E+04-4.92037E-10-8.56744E-09
 -1       893 2.80866E+01-1.56230E+05-2.90808E+03 2.64636E+04-1.45246E-09-1.79612E-08
 -1       894-1.46775E+03-1.57766E+05-6.02015E+03 4.00034E+04 2.09207E-09-3.16231E-09
 -1       895-1.16264E+03-1.54976E+05-1.06019E+04 2.66055E+04-2.73985E-11 7.91260E-11
 -1       956-3.60194E+05-5.16992E+03-1.28107E+04 2.86220E+04 4.89672E-09 9.04993E-09
 -1       957-3.62711E+05-1.80833E+03-6.57573E+03 3.44101E+04-1.13323E-09 4.91582E-10
 -1       958-3.61343E+05-2.11135E+02-2.96310E+03 2.84637E+04-2.82034E-09 1.25056E-11
 -1       959-3.61533E+05-1.08726E+02-1.51311E+03 3.45926E+04 2.80215E-09 1.95175E-08
 -1       960-3.61453E+05-2.56959E+01-7.37845E+02 2.84476E+04 8.46285E-09 1.03548E-08
 -1       961-3.61454E+05-4.02427E+01-3.91310E+02 3.46115E+04 1.01711E-08 1.33500E-08
 -1       962-3.61478E+05-2.76193E+01-2.24129E+02 2.84450E+04-3.50838E-09-3.61410E-09
 -1       963-3.61454E+05-3.67325E+01-1.80117E+02 3.46149E+04-1.09424E-09 8.94534E-09
 -1       964-3.61483E+05-2.45922E+01-2.19207E+02 2.84442E+04-2.92957E-09-1.65892E-09
 -1       965-3.61465E+05-3.37916E+01-3.79279E+02 3.46143E+04-5.13660E-09 9.88189E-09
 -1       966-3.61468E+05-1.66976E+01-7.12650E+02 2.84456E+04-5.20890E-09 4.01315E-09
 -1       967-3.61552E+05-9.37697E+01-1.46169E+03 3.46011E+04-1.51592E-08-6.35964E-10
 -1       968-3.61371E+05-1.90010E+02-2.86133E+03 2.84573E+04-1.17757E-08 2.76191E-09
 -1       969-3.62701E+05-1.73049E+03-6.35226E+03 3.44642E+04-1.08048E-08-1.77215E-09
 -1       970-3.60268E+05-4.97664E+03-1.23743E+04 2.85762E+04-1.07389E-08 5.97083E-09
 -1       971-3.31036E+05-1.66475E+03-9.01784E+03 1.48729E+04 4.94038E-09-2.32505E-08
 -1       972-3.33210E+05-1.22036E+03-4.91104E+03 2.06053E+04 3.43607E-09-2.84444E-09
 -1       973-3.32040E+05-5.18195E+01-2.19961E+03 1.47545E+04 1.24601E-09-6.38283E-09
 -1       974-3.32175E+05-6.71799E+01-1.14012E+03 2.07383E+04-5.10909E-10-9.25661E-09
 -1       975-3.32120E+05-8.56540E+00-5.70117E+02 1.47426E+04-1.69757E-09 1.59744E-08
 -1       976-3.32115E+05-1.90775E+01-3.29321E+02 2.07533E+04 8.10610E-09 1.87714E-08
 -1       977-3.32135E+05-8.00049E+00-2.39730E+02 1.47395E+04-4.46016E-09 7.31688E-10
 -1       978-3.32120E+05-1.31717E+01-2.81514E+02 2.07578E+04-4.29418E-09 1.17122E-08
 -1       979-3.32135E+05 6.16998E-02-4.53140E+02 1.47381E+04-1.93984E-09 4.68197E-09
 -1       980-3.32154E+05-1.02581E+01-8.75481E+02 2.07587E+04-1.82462E-09-1.67403E-08
 -1       981-3.32107E+05 2.19395E+01-1.69587E+03 1.47386E+04 3.70403E-09-6.25892E-09
 -1       982-3.32386E+05-1.35532E+02-3.50548E+03 2.07524E+04 9.13133E-10 2.39888E-08
 -1       983-3.31894E+05-8.66032E+01-6.81124E+03 1.47445E+04 1.97315E-09 2.20302E-09
 -1       984-3.35662E+05-3.69276E+03-1.52535E+04 2.06693E+04 9.46420E-09 1.24305E-09
 -1       985-3.28810E+05-5.07062E+03-2.80101E+04 1.48162E+04 9.74978E-10 3.41061E-09
 -3
    1PSTEP                        35          18           1          
  100CL  118 6.38800E-01         409                     0   18           1
 -4  DISP        4    1
 -5  D1          1    2    1    0
 -5  D2          1    2    2    0
 -5  D3          1    2    3    0
 -5  ALL         1    2    0    0    1ALL
 -1         1 7.84289E-03 0.00000E+00 0.00000E+00
 -1         2 1.96922E-03 1.70590E-20 4.23516E-22
 -1         3 4.33131E-04-9.02326E-28 1.32349E-23
 -1         5 2.03409E-04-2.57365E-25 0.00000E+00
 -1         8 7.85596E-03-3.36205E-07 0.00000E+00
 -1         9 7.07944E-03-4.22176E-03 0.00000E+00
 -1        10 3.92397E-04-2.48808E-06 6.61744E-24
 -1        12 2.07148E-04 8.71447E-07 0.00000E+00
 -1        15 7.88751E-03-4.19880E-07 0.00000E+00
 -1        16 8.83564E-03-4.47686E-03 0.00000E+00
 -1        17 2.63809E-04-6.33094E-06 0.00000E+00
 -1        18 2.16813E-04 5.91204E-05 0.00000E+00
 -1        19 2.18368E-04 1.72889E-06 0.00000E+00
 -1        20 2.18419E-04-3.24500E-05 0.00000E+00
 -1        21 2.17272E-04-7.29539E-05 0.00000E+00
 -1        24 3.14513E-05-1.19126E-05 0.00000E+00
 -1        25 2.36587E-04 5.93782E-05 0.00000E+00
 -1        26 2.37492E-04 2.38366E-06 0.00000E+00
 -1        27 2.34455E-04-3.60316E-05 0.00000E+00
 -1        28 2.34448E-04-7.35719E-05 0.00000E+00
 -1        32 0.00000E+00 0.00000E+00 0.00000E+00
 -1        33 2.55135E-04 3.21395E-06 0.00000E+00
 -1        34 2.52853E-04-3.61306E-05 0.00000E+00
 -1        35 2.50850E-04-7.39330E-05 0.00000E+00
 -1        51 7.84299E-03-6.85260E-08 0.00000E+00
 -1        52 7.84383E-03-1.21577E-07 0.00000E+00
 -1        53 7.84546E-03-1.72388E-07 0.00000E+00
 -1        54 7.84798E-03-2.23463E-07 0.00000E+00
 -1        55 7.85146E-03-2.77216E-07-2.64698E-23
 -1        56 7.79677E-03 9.11760E-05-1.05879E-22
 -1        57 7.66215E-03 3.34615E-04 0.00000E+00
 -1        58 7.46305E-03 6.64925E-04 0.00000E+00
 -1        59 7.24607E-03 1.01597E-03 5.29396E-23
 -1        60 7.06695E-03 1.32039E-03 0.00000E+00
 -1        61 6.96844E-03 1.50955E-03 0.00000E+00
 -1        62 6.95560E-03 1.52095E-03-2.11758E-22
 -1        63 7.00317E-03 1.31230E-03 0.00000E+00
 -1        64 7.06533E-03 8.70248E-04 2.11758E-22
 -1        65 7.09885E-03 2.22459E-04 0.00000E+00
 -1        66 7.08765E-03-5.76157E-04 0.00000E+00
 -1        67 7.04143E-03-1.45549E-03-5.29396E-23
 -1        68 6.99502E-03-2.33545E-03 0.00000E+00
 -1        69 6.98357E-03-3.13522E-03 5.29396E-23
 -1        70 7.01727E-03-3.78291E-03 0.00000E+00
 -1        86 2.41003E-03-1.37661E-04 0.00000E+00
 -1        87 3.31892E-03-7.34622E-04 1.05879E-22
 -1        88 4.36042E-03-1.83337E-03 0.00000E+00
 -1        89 5.39010E-03-3.05586E-03 0.00000E+00
 -1        90 6.39157E-03-3.91631E-03 0.00000E+00
 -1       121 4.31991E-04-3.86253E-07 0.00000E+00
 -1       122 4.28574E-04-7.77444E-07-3.30872E-24
 -1       123 4.22889E-04-1.17845E-06 1.32349E-23
 -1       124 4.14950E-04-1.59413E-06 3.30872E-24
 -1       125 4.04777E-04-2.02901E-06 6.61744E-24
 -1       191 2.03513E-04 1.45488E-07 0.00000E+00
 -1       192 2.03824E-04 2.90934E-07 0.00000E+00
 -1       193 2.04344E-04 4.36297E-07 0.00000E+00
 -1       194 2.05071E-04 5.81533E-07 0.00000E+00
 -1       195 2.06006E-04 7.26598E-07 0.00000E+00
 -1       251 7.84986E-03-3.74950E-05 0.00000E+00
 -1       252 7.83703E-03-1.59979E-04 5.29396E-23
 -1       253 7.79916E-03-4.14683E-04 0.00000E+00
 -1       254 7.71854E-03-8.09595E-04 5.29396E-23
 -1       255 7.65898E-03-1.13570E-03 0.00000E+00
 -1       256 7.64994E-03-1.21024E-03 0.00000E+00
 -1       257 7.63727E-03-1.30990E-03-2.11758E-22
 -1       258 7.55891E-03-1.69283E-03 0.00000E+00
 -1       259 7.47606E-03-2.08971E-03 0.00000E+00
 -1       260 7.45953E-03-2.22618E-03 0.00000E+00
 -1       261 7.44744E-03-2.34134E-03-2.11758E-22
 -1       262 7.37698E-03-2.69468E-03 0.00000E+00
 -1       263 7.26649E-03-3.15161E-03 0.00000E+00
 -1       264 7.18884E-03-3.55309E-03 5.29396E-23
 -1       265 7.13319E-03-3.90242E-03 0.00000E+00
 -1       266 7.86122E-03-3.53012E-07-8.27181E-25
 -1       267 7.86648E-03-3.66651E-07 0.00000E+00
 -1       268 7.87174E-03-3.80459E-07-4.13590E-25
 -1       269 7.87700E-03-3.93655E-07-1.03398E-25
 -1       270 7.88225E-03-4.06819E-07-1.03398E-25
 -1       271 7.86966E-03-3.90287E-05 0.00000E+00
 -1       272 7.90193E-03-1.38575E-04 0.00000E+00
 -1       273 7.94766E-03-2.92271E-04 0.00000E+00
 -1       274 8.00272E-03-4.93305E-04 0.00000E+00
 -1       275 8.06422E-03-7.35215E-04-1.32349E-23
 -1       276 8.12988E-03-1.01178E-03 0.00000E+00
 -1       277 8.19822E-03-1.31715E-03 0.00000E+00
 -1       278 8.26811E-03-1.64572E-03 3.30872E-24
 -1       279 8.33891E-03-1.99216E-03 1.32349E-23
 -1       280 8.41015E-03-2.35124E-03-1.32349E-23
 -1       281 8.48160E-03-2.71782E-03 0.00000E+00
 -1       282 8.55310E-03-3.08675E-03 1.32349E-23
 -1       283 8.62452E-03-3.45272E-03 0.00000E+00
 -1       284 8.69567E-03-3.81026E-03 1.32349E-23
 -1       285 8.76624E-03-4.15363E-03 0.00000E+00
 -1       301 7.37938E-03-4.26647E-03 1.32349E-23
 -1       302 7.67417E-03-4.30960E-03 9.92617E-24
 -1       303 7.96548E-03-4.35170E-03-3.30872E-24
 -1       304 8.25502E-03-4.39327E-03 6.61744E-24
 -1       305 8.54450E-03-4.43482E-03 0.00000E+00
 -1       306 7.14678E-03-4.61751E-03-1.05879E-22
 -1       307 7.20915E-03-5.12082E-03 0.00000E+00
 -1       308 7.27264E-03-5.60474E-03 1.05879E-22
 -1       309 7.33855E-03-5.94646E-03-5.29396E-23
 -1       310 7.36912E-03-6.06958E-03-2.11758E-22
 -1       311 7.30162E-03-5.93844E-03-5.29396E-23
 -1       312 7.05227E-03-5.55952E-03-1.05879E-22
 -1       313 6.56366E-03-4.99239E-03-5.29396E-23
 -1       314 5.80109E-03-4.30697E-03 1.05879E-22
 -1       315 4.79198E-03-3.58044E-03 2.64698E-23
 -1       316 3.64183E-03-2.85031E-03 0.00000E+00
 -1       317 2.48964E-03-2.11916E-03 0.00000E+00
 -1       318 1.49139E-03-1.39172E-03 2.11758E-22
 -1       319 7.75132E-04-7.18197E-04 0.00000E+00
 -1       320 3.86380E-04-2.19559E-04 2.11758E-22
 -1       336 3.77551E-04-3.00979E-06-6.61744E-24
 -1       337 3.59989E-04-3.57360E-06 6.61744E-24
 -1       338 3.39764E-04-4.18487E-06-1.32349E-23
 -1       339 3.16943E-04-4.84684E-06 0.00000E+00
 -1       340 2.91597E-04-5.56694E-06-3.30872E-24
 -1       406 2.08499E-04 1.01603E-06 0.00000E+00
 -1       407 2.10057E-04 1.16026E-06 0.00000E+00
 -1       408 2.11824E-04 1.30407E-06 0.00000E+00
 -1       409 2.13799E-04 1.44721E-06-1.65436E-24
 -1       410 2.15981E-04 1.58932E-06 3.30872E-24
 -1       521 8.90205E-03-4.86482E-03 0.00000E+00
 -1       522 8.96397E-03-5.36469E-03-5.29396E-23
 -1       523 9.02679E-03-5.84915E-03 1.05879E-22
 -1       524 9.09219E-03-6.18992E-03-5.29396E-23
 -1       525 9.11519E-03-6.29084E-03 2.11758E-22
 -1       526 9.01576E-03-6.10698E-03 0.00000E+00
 -1       527 8.67782E-03-5.64853E-03 0.00000E+00
 -1       528 8.03347E-03-5.00792E-03 5.29396E-23
 -1       529 7.04456E-03-4.28682E-03-2.11758E-22
 -1       530 5.76899E-03-3.58284E-03 2.64698E-23
 -1       531 4.33374E-03-2.91733E-03 0.00000E+00
 -1       532 2.89813E-03-2.25455E-03 0.00000E+00
 -1       533 1.63847E-03-1.55397E-03 0.00000E+00
 -1       534 7.07865E-04-8.42965E-04 0.00000E+00
 -1       535 1.97261E-04-2.74618E-04-2.11758E-22
 -1       536 2.62419E-04 4.34736E-05 3.30872E-24
 -1       537 2.58236E-04 1.34598E-04-1.65436E-24
 -1       538 2.51731E-04 2.49845E-04 0.00000E+00
 -1       539 2.44454E-04 3.71822E-04-1.65436E-24
 -1       540 2.38667E-04 4.79826E-04 0.00000E+00
 -1       541 2.35900E-04 5.53291E-04 0.00000E+00
 -1       542 2.35242E-04 5.85317E-04 0.00000E+00
 -1       543 2.35214E-04 5.69419E-04 0.00000E+00
 -1       544 2.34004E-04 5.15199E-04 0.00000E+00
 -1       545 2.30669E-04 4.32697E-04-1.65436E-24
 -1       546 2.26292E-04 3.38606E-04 0.00000E+00
 -1       547 2.22369E-04 2.49436E-04 0.00000E+00
 -1       548 2.19434E-04 1.71928E-04 0.00000E+00
 -1       549 2.17777E-04 1.12716E-04 1.65436E-24
 -1       550 2.17047E-04 7.43073E-05 0.00000E+00
 -1       551 2.31568E-04-7.03406E-06 0.00000E+00
 -1       552 1.95556E-04-7.86370E-06 0.00000E+00
 -1       553 1.56648E-04-8.79332E-06 0.00000E+00
 -1       554 1.15733E-04-9.79834E-06-3.30872E-24
 -1       555 7.37044E-05-1.08466E-05-6.61744E-24
 -1       556 2.53639E-04 1.95126E-05 0.00000E+00
 -1       557 2.45305E-04 4.07747E-05 0.00000E+00
 -1       558 2.38655E-04 5.77923E-05 0.00000E+00
 -1       559 2.33530E-04 7.09267E-05 0.00000E+00
 -1       560 2.29771E-04 8.05399E-05 0.00000E+00
 -1       561 2.27227E-04 8.69975E-05 0.00000E+00
 -1       562 2.25746E-04 9.06669E-05 0.00000E+00
 -1       563 2.25182E-04 9.19166E-05 0.00000E+00
 -1       564 2.25389E-04 9.11167E-05 0.00000E+00
 -1       565 2.26224E-04 8.86382E-05 0.00000E+00
 -1       566 2.27546E-04 8.48531E-05 0.00000E+00
 -1       567 2.29214E-04 8.01341E-05 0.00000E+00
 -1       568 2.31091E-04 7.48543E-05 0.00000E+00
 -1       569 2.33037E-04 6.93867E-05 8.27181E-25
 -1       570 2.34914E-04 6.41049E-05 0.00000E+00
 -1       571 2.16907E-04 5.54025E-05 8.27181E-25
 -1       572 2.17003E-04 5.16031E-05-1.65436E-24
 -1       573 2.17099E-04 4.77427E-05 0.00000E+00
 -1       574 2.17195E-04 4.38426E-05-1.65436E-24
 -1       575 2.17292E-04 3.99240E-05 0.00000E+00
 -1       576 2.17388E-04 3.60083E-05 0.00000E+00
 -1       577 2.17485E-04 3.21171E-05 0.00000E+00
 -1       578 2.17582E-04 2.82718E-05 0.00000E+00
 -1       579 2.17679E-04 2.44938E-05 0.00000E+00
 -1       580 2.17776E-04 2.08045E-05 0.00000E+00
 -1       581 2.17874E-04 1.72256E-05-6.61744E-24
 -1       582 2.17972E-04 1.37782E-05 0.00000E+00
 -1       583 2.18070E-04 1.04840E-05-1.32349E-23
 -1       584 2.18169E-04 7.36399E-06 0.00000E+00
 -1       585 2.18269E-04 4.43923E-06 0.00000E+00
 -1       586 2.20107E-04 5.91654E-05 0.00000E+00
 -1       587 2.23342E-04 5.92101E-05 8.27181E-25
 -1       588 2.26562E-04 5.92545E-05-1.65436E-24
 -1       589 2.29813E-04 5.92982E-05 0.00000E+00
 -1       590 2.33140E-04 5.93404E-05 0.00000E+00
 -1       591 2.18124E-04 5.55364E-05 0.00000E+00
 -1       592 2.19434E-04 5.19408E-05 0.00000E+00
 -1       593 2.20747E-04 4.83383E-05 0.00000E+00
 -1       594 2.22061E-04 4.47321E-05-4.13590E-25
 -1       595 2.23375E-04 4.11257E-05 0.00000E+00
 -1       596 2.24688E-04 3.75222E-05 4.13590E-25
 -1       597 2.25999E-04 3.39251E-05 8.27181E-25
 -1       598 2.27305E-04 3.03377E-05 4.13590E-25
 -1       599 2.28607E-04 2.67632E-05 0.00000E+00
 -1       600 2.29903E-04 2.32050E-05-4.13590E-25
 -1       601 2.31192E-04 1.96663E-05 4.13590E-25
 -1       602 2.32472E-04 1.61504E-05 2.06795E-25
 -1       603 2.33743E-04 1.26608E-05 0.00000E+00
 -1       604 2.35004E-04 9.20070E-06 0.00000E+00
 -1       605 2.36252E-04 5.77343E-06 0.00000E+00
 -1       606 2.18376E-04-7.16033E-07 0.00000E+00
 -1       607 2.18380E-04-3.10157E-06 0.00000E+00
 -1       608 2.18383E-04-5.43121E-06 0.00000E+00
 -1       609 2.18386E-04-7.70887E-06 0.00000E+00
 -1       610 2.18388E-04-9.93857E-06 0.00000E+00
 -1       611 2.18391E-04-1.21243E-05 0.00000E+00
 -1       612 2.18394E-04-1.42701E-05 1.65436E-24
 -1       613 2.18397E-04-1.63800E-05 0.00000E+00
 -1       614 2.18399E-04-1.84580E-05 0.00000E+00
 -1       615 2.18402E-04-2.05081E-05 0.00000E+00
 -1       616 2.18405E-04-2.25345E-05 0.00000E+00
 -1       617 2.18408E-04-2.45411E-05 0.00000E+00
 -1       618 2.18411E-04-2.65319E-05 0.00000E+00
 -1       619 2.18414E-04-2.85109E-05 0.00000E+00
 -1       620 2.18416E-04-3.04823E-05 5.16988E-26
 -1       621 2.21088E-04 1.83910E-06 1.65436E-24
 -1       622 2.24079E-04 1.94936E-06 0.00000E+00
 -1       623 2.27279E-04 2.05904E-06-1.65436E-24
 -1       624 2.30623E-04 2.16816E-06 0.00000E+00
 -1       625 2.34049E-04 2.27687E-06 0.00000E+00
 -1       626 2.19390E-04-6.75772E-07 0.00000E+00
 -1       627 2.20397E-04-3.04001E-06 1.65436E-24
 -1       628 2.21392E-04-5.37101E-06 0.00000E+00
 -1       629 2.22377E-04-7.67617E-06-1.65436E-24
 -1       630 2.23356E-04-9.96294E-06 3.30872E-24
 -1       631 2.24330E-04-1.22388E-05 0.00000E+00
 -1       632 2.25303E-04-1.45110E-05 0.00000E+00
 -1       633 2.26278E-04-1.67872E-05-1.65436E-24
 -1       634 2.27256E-04-1.90748E-05 0.00000E+00
 -1       635 2.28242E-04-2.13812E-05 0.00000E+00
 -1       636 2.29238E-04-2.37138E-05-1.65436E-24
 -1       637 2.30246E-04-2.60802E-05 0.00000E+00
 -1       638 2.31269E-04-2.84877E-05 1.65436E-24
 -1       639 2.32310E-04-3.09438E-05-1.65436E-24
 -1       640 2.33372E-04-3.34560E-05 0.00000E+00
 -1       656 2.20580E-04-3.30318E-05-6.61744E-24
 -1       657 2.23098E-04-3.36373E-05 6.61744E-24
 -1       658 2.25871E-04-3.42418E-05-1.32349E-23
 -1       659 2.28789E-04-3.48460E-05 0.00000E+00
 -1       660 2.31700E-04-3.54521E-05 0.00000E+00
 -1       661 2.19216E-04-3.44770E-05-4.13590E-25
 -1       662 2.20057E-04-3.66145E-05 4.13590E-25
 -1       663 2.20936E-04-3.88545E-05 0.00000E+00
 -1       664 2.21851E-04-4.11885E-05 0.00000E+00
 -1       665 2.22798E-04-4.36082E-05 0.00000E+00
 -1       666 2.23773E-04-4.61052E-05 0.00000E+00
 -1       667 2.24774E-04-4.86714E-05 8.27181E-25
 -1       668 2.25798E-04-5.12988E-05-4.13590E-25
 -1       669 2.26841E-04-5.39792E-05 0.00000E+00
 -1       670 2.27902E-04-5.67049E-05 4.13590E-25
 -1       671 2.28976E-04-5.94679E-05 0.00000E+00
 -1       672 2.30061E-04-6.22604E-05 4.13590E-25
 -1       673 2.31154E-04-6.50747E-05 0.00000E+00
 -1       674 2.32252E-04-6.79031E-05 2.06795E-25
 -1       675 2.33352E-04-7.07376E-05 0.00000E+00
 -1       676 2.20145E-04-7.30574E-05 3.30872E-24
 -1       677 2.23015E-04-7.31610E-05 1.65436E-24
 -1       678 2.25883E-04-7.32645E-05-3.30872E-24
 -1       679 2.28745E-04-7.33677E-05 0.00000E+00
 -1       680 2.31601E-04-7.34709E-05 0.00000E+00
 -1       771 1.55475E-05 2.45389E-05 0.00000E+00
 -1       772 2.30552E-06 5.44332E-05 0.00000E+00
 -1       773-8.40775E-06 7.80859E-05 0.00000E+00
 -1       774-1.67759E-05 9.58484E-05 1.05879E-22
 -1       775-2.29763E-05 1.08088E-04 0.00000E+00
 -1       776-2.71920E-05 1.15193E-04-5.29396E-23
 -1       777-2.96038E-05 1.17569E-04 0.00000E+00
 -1       778-3.03948E-05 1.15640E-04 0.00000E+00
 -1       779-2.97453E-05 1.09840E-04 0.00000E+00
 -1       780-2.78374E-05 1.00621E-04 0.00000E+00
 -1       781-2.48504E-05 8.84439E-05 0.00000E+00
 -1       782-2.09648E-05 7.37827E-05 2.64698E-23
 -1       783-1.63584E-05 5.71170E-05 0.00000E+00
 -1       784-1.12105E-05 3.89354E-05 0.00000E+00
 -1       785-5.69798E-06 1.97310E-05 0.00000E+00
 -1       786 2.36639E-04 5.56544E-05 0.00000E+00
 -1       787 2.36694E-04 5.19770E-05 0.00000E+00
 -1       788 2.36750E-04 4.83335E-05-1.65436E-24
 -1       789 2.36806E-04 4.47120E-05-8.27181E-25
 -1       790 2.36863E-04 4.11069E-05 0.00000E+00
 -1       791 2.36920E-04 3.75129E-05 8.27181E-25
 -1       792 2.36977E-04 3.39286E-05 0.00000E+00
 -1       793 2.37034E-04 3.03529E-05 0.00000E+00
 -1       794 2.37090E-04 2.67866E-05 0.00000E+00
 -1       795 2.37147E-04 2.32312E-05 8.27181E-25
 -1       796 2.37205E-04 1.96900E-05 1.65436E-24
 -1       797 2.37262E-04 1.61665E-05 0.00000E+00
 -1       798 2.37319E-04 1.26666E-05 1.65436E-24
 -1       799 2.37376E-04 9.19651E-06 8.27181E-25
 -1       800 2.37434E-04 5.76568E-06 0.00000E+00
 -1       801 1.71148E-04 5.40319E-05 0.00000E+00
 -1       802-2.40881E-05 3.25326E-05 0.00000E+00
 -1       803-1.85321E-04 1.58761E-05-1.05879E-22
 -1       804-1.55323E-04 1.14482E-05 2.64698E-23
 -1       805-5.02442E-05 3.87579E-06 0.00000E+00
 -1       806 2.37863E-04 5.55685E-05 0.00000E+00
 -1       807 2.39131E-04 5.17678E-05 1.65436E-24
 -1       808 2.40392E-04 4.79837E-05 0.00000E+00
 -1       809 2.41643E-04 4.42228E-05 1.65436E-24
 -1       810 2.42884E-04 4.04914E-05-3.30872E-24
 -1       811 2.44111E-04 3.67959E-05-1.65436E-24
 -1       812 2.45323E-04 3.31428E-05 0.00000E+00
 -1       813 2.46516E-04 2.95383E-05-1.65436E-24
 -1       814 2.47689E-04 2.59889E-05 0.00000E+00
 -1       815 2.48839E-04 2.25007E-05 1.65436E-24
 -1       816 2.49964E-04 1.90803E-05-3.30872E-24
 -1       817 2.51062E-04 1.57339E-05 0.00000E+00
 -1       818 2.52130E-04 1.24678E-05 0.00000E+00
 -1       819 2.53166E-04 9.28831E-06-1.65436E-24
 -1       820 2.54168E-04 6.20165E-06-1.65436E-24
 -1       821 2.37860E-04 7.53716E-06 6.61744E-24
 -1       822 2.38070E-04 2.97186E-05 6.61744E-24
 -1       823 2.37909E-04 6.69563E-05 1.32349E-23
 -1       824 2.37231E-04 1.17096E-04-6.61744E-24
 -1       825 2.36512E-04 1.68197E-04 0.00000E+00
 -1       826 2.36257E-04 2.08302E-04-6.61744E-24
 -1       827 2.36384E-04 2.34822E-04 0.00000E+00
 -1       828 2.36741E-04 2.45374E-04 0.00000E+00
 -1       829 2.37110E-04 2.38550E-04-1.32349E-23
 -1       830 2.37245E-04 2.12843E-04 0.00000E+00
 -1       831 2.36875E-04 1.69672E-04 0.00000E+00
 -1       832 2.35746E-04 1.10762E-04-6.61744E-24
 -1       833 2.34572E-04 5.09788E-05 0.00000E+00
 -1       834 2.34095E-04 5.20546E-06 0.00000E+00
 -1       835 2.34138E-04-2.44090E-05 0.00000E+00
 -1       836 2.40716E-04 2.52114E-06 0.00000E+00
 -1       837 2.43762E-04 2.66208E-06 0.00000E+00
 -1       838 2.46678E-04 2.80316E-06 0.00000E+00
 -1       839 2.49513E-04 2.94357E-06 0.00000E+00
 -1       840 2.52315E-04 3.08384E-06 0.00000E+00
 -1       856 2.34457E-04-3.86365E-05 8.27181E-25
 -1       857 2.34457E-04-4.11165E-05 0.00000E+00
 -1       858 2.34457E-04-4.34910E-05 0.00000E+00
 -1       859 2.34457E-04-4.57795E-05-1.03398E-25
 -1       860 2.34457E-04-4.80013E-05 1.03398E-25
 -1       861 2.34457E-04-5.01756E-05 0.00000E+00
 -1       862 2.34457E-04-5.23220E-05 1.03398E-25
 -1       863 2.34457E-04-5.44597E-05 0.00000E+00
 -1       864 2.34457E-04-5.66081E-05 0.00000E+00
 -1       865 2.34457E-04-5.87865E-05 0.00000E+00
 -1       866 2.34456E-04-6.10144E-05 0.00000E+00
 -1       867 2.34456E-04-6.33109E-05 0.00000E+00
 -1       868 2.34455E-04-6.56956E-05 0.00000E+00
 -1       869 2.34454E-04-6.81877E-05 0.00000E+00
 -1       870 2.34453E-04-7.08067E-05 0.00000E+00
 -1       871 2.37371E-04-3.60431E-05 8.27181E-25
 -1       872 2.40451E-04-3.60586E-05 0.00000E+00
 -1       873 2.43618E-04-3.60749E-05 4.13590E-25
 -1       874 2.46793E-04-3.60921E-05 2.19720E-25
 -1       875 2.49897E-04-3.61097E-05 2.06795E-25
 -1       876 2.35559E-04-3.86204E-05 3.30872E-24
 -1       877 2.36643E-04-4.11487E-05 1.65436E-24
 -1       878 2.37708E-04-4.36237E-05 3.30872E-24
 -1       879 2.38756E-04-4.60520E-05 0.00000E+00
 -1       880 2.39789E-04-4.84401E-05 3.30872E-24
 -1       881 2.40809E-04-5.07947E-05 0.00000E+00
 -1       882 2.41820E-04-5.31222E-05 3.30872E-24
 -1       883 2.42822E-04-5.54292E-05 0.00000E+00
 -1       884 2.43820E-04-5.77223E-05 3.30872E-24
 -1       885 2.44815E-04-6.00078E-05-1.65436E-24
 -1       886 2.45809E-04-6.22925E-05 0.00000E+00
 -1       887 2.46805E-04-6.45827E-05-1.65436E-24
 -1       888 2.47806E-04-6.68851E-05 3.30872E-24
 -1       889 2.48813E-04-6.92063E-05 1.65436E-24
 -1       890 2.49829E-04-7.15527E-05 1.65436E-24
 -1       891 2.37310E-04-7.36327E-05-1.65436E-24
 -1       892 2.40150E-04-7.36937E-05 8.27181E-25
 -1       893 2.42946E-04-7.37545E-05 0.00000E+00
 -1       894 2.45676E-04-7.38149E-05 8.27181E-25
 -1       895 2.48317E-04-7.38750E-05-4.13590E-25
 -1       956 2.54994E-04 4.35443E-07 1.65436E-24
 -1       957 2.54851E-04-2.23484E-06-1.65436E-24
 -1       958 2.54708E-04-4.81031E-06 0.00000E+00
 -1       959 2.54565E-04-7.30510E-06 0.00000E+00
 -1       960 2.54422E-04-9.73341E-06 0.00000E+00
 -1       961 2.54279E-04-1.21095E-05-1.65436E-24
 -1       962 2.54136E-04-1.44475E-05 3.30872E-24
 -1       963 2.53993E-04-1.67618E-05 0.00000E+00
 -1       964 2.53851E-04-1.90666E-05 0.00000E+00
 -1       965 2.53708E-04-2.13761E-05 0.00000E+00
 -1       966 2.53565E-04-2.37047E-05 0.00000E+00
 -1       967 2.53422E-04-2.60666E-05 0.00000E+00
 -1       968 2.53279E-04-2.84760E-05 0.00000E+00
 -1       969 2.53137E-04-3.09471E-05-3.30872E-24
 -1       970 2.52994E-04-3.34941E-05 0.00000E+00
 -1       971 2.52728E-04-3.87919E-05 0.00000E+00
 -1       972 2.52602E-04-4.13682E-05 0.00000E+00
 -1       973 2.52476E-04-4.38687E-05 0.00000E+00
 -1       974 2.52350E-04-4.63033E-05 1.65436E-24
 -1       975 2.52224E-04-4.86818E-05 0.00000E+00
 -1       976 2.52099E-04-5.10137E-05 1.65436E-24
 -1       977 2.51973E-04-5.33091E-05 3.30872E-24
 -1       978 2.51847E-04-5.55775E-05 0.00000E+00
 -1       979 2.51721E-04-5.78289E-05 0.00000E+00
 -1       980 2.51596E-04-6.00730E-05 0.00000E+00
 -1       981 2.51470E-04-6.23196E-05 0.00000E+00
 -1       982 2.51345E-04-6.45785E-05 0.00000E+00
 -1       983 2.51219E-04-6.68596E-05-3.30872E-24
 -1       984 2.51094E-04-6.91726E-05-1.65436E-24
 -1       985 2.50970E-04-7.15272E-05-3.30872E-24
 -3
    1PSTEP                        36          18           1          
  100CL  118 6.38800E-01         409                     0   18           1
 -4  FORC        4    1
 -5  F1          1    2    1    0
 -5  F2          1    2    2    0
 -5  F3          1    2    3    0
 -5  ALL         1    2    0    0    1ALL
 -1         1 2.27321E-03 0.00000E+00 0.00000E+00
 -1         2 0.00000E+00 0.00000E+00 0.00000E+00
 -1         3 0.00000E+00 0.00000E+00 0.00000E+00
 -1         5 0.00000E+00 0.00000E+00 0.00000E+00
 -1         8 1.99316E-01 3.55620E-02 0.00000E+00
 -1         9-3.10021E+00-3.87695E-01 0.00000E+00
 -1        10 7.69865E-05 4.38239E-03 0.00000E+00
 -1        12 0.00000E+00 0.00000E+00 0.00000E+00
 -1        15 0.00000E+00 0.00000E+00 0.00000E+00
 -1        16-6.92910E-01-3.19871E-01 0.00000E+00
 -1        17-3.72313E+00 1.08936E+00 0.00000E+00
 -1        18-3.12138E-03-2.17468E-03 0.00000E+00
 -1        19 7.18566E-05 2.23109E-05 0.00000E+00
 -1        20-4.36907E-05 6.54258E-06 0.00000E+00
 -1        21 0.00000E+00 3.09628E-05 0.00000E+00
 -1        24-2.85218E+00-3.91389E-01 0.00000E+00
 -1        25 2.90466E-03 2.32236E-02 0.00000E+00
 -1        26-1.14715E-04-4.71168E-04 0.00000E+00
 -1        27-1.10976E-03-4.97604E-04 0.00000E+00
 -1        28-2.42760E-05 1.37209E-05 0.00000E+00
 -1        32 0.00000E+00 0.00000E+00 0.00000E+00
 -1        33-1.88543E-04-3.59585E-04 0.00000E+00
 -1        34-1.23900E-05-9.38939E-05 0.00000E+00
 -1        35-1.40494E-04-8.54491E-05 0.00000E+00
 -1        51 0.00000E+00 0.00000E+00 0.00000E+00
 -1        52 0.00000E+00 0.00000E+00 0.00000E+00
 -1        53 0.00000E+00 0.00000E+00 0.00000E+00
 -1        54 0.00000E+00 0.00000E+00 0.00000E+00
 -1        55 0.00000E+00 0.00000E+00 0.00000E+00
 -1        56 0.00000E+00 0.00000E+00 0.00000E+00
 -1        57 0.00000E+00 0.00000E+00 0.00000E+00
 -1        58 0.00000E+00 0.00000E+00 0.00000E+00
 -1        59 0.00000E+00 0.00000E+00 0.00000E+00
 -1        60 0.00000E+00 0.00000E+00 0.00000E+00
 -1        61 0.00000E+00 0.00000E+00 0.00000E+00
 -1        62 0.00000E+00 0.00000E+00 0.00000E+00
 -1        63 0.00000E+00 0.00000E+00 0.00000E+00
 -1        64 0.00000E+00 0.00000E+00 0.00000E+00
 -1        65 0.00000E+00 0.00000E+00 0.00000E+00
 -1        66 0.00000E+00 0.00000E+00 0.00000E+00
 -1        67 0.00000E+00 0.00000E+00 0.00000E+00
 -1        68 0.00000E+00 0.00000E+00 0.00000E+00
 -1        69 0.00000E+00 0.00000E+00 0.00000E+00
 -1        70 0.00000E+00 0.00000E+00 0.00000E+00
 -1        86 0.00000E+00 0.00000E+00 0.00000E+00
 -1        87 0.00000E+00 0.00000E+00 0.00000E+00
 -1        88 0.00000E+00 0.00000E+00 0.00000E+00
 -1        89 0.00000E+00 0.00000E+00 0.00000E+00
 -1        90 0.00000E+00 0.00000E+00 0.00000E+00
 -1       121 0.00000E+00 0.00000E+00 0.00000E+00
 -1       122 0.00000E+00 0.00000E+00 0.00000E+00
 -1       123 0.00000E+00 0.00000E+00 0.00000E+00
 -1       124 0.00000E+00 0.00000E+00 0.00000E+00
 -1       125 0.00000E+00 0.00000E+00 0.00000E+00
 -1       191 0.00000E+00 0.00000E+00 0.00000E+00
 -1       192 0.00000E+00 0.00000E+00 0.00000E+00
 -1       193 0.00000E+00 0.00000E+00 0.00000E+00
 -1       194 0.00000E+00 0.00000E+00 0.00000E+00
 -1       195 0.00000E+00 0.00000E+00 0.00000E+00
 -1       251 0.00000E+00 0.00000E+00 0.00000E+00
 -1       252 0.00000E+00 0.00000E+00 0.00000E+00
 -1       253 0.00000E+00 0.00000E+00 0.00000E+00
 -1       254 0.00000E+00 0.00000E+00 0.00000E+00
 -1       255 0.00000E+00 0.00000E+00 0.00000E+00
 -1       256 0.00000E+00 0.00000E+00 0.00000E+00
 -1       257 0.00000E+00 0.00000E+00 0.00000E+00
 -1       258 0.00000E+00 0.00000E+00 0.00000E+00
 -1       259 0.00000E+00 0.00000E+00 0.00000E+00
 -1       260 0.00000E+00 0.00000E+00 0.00000E+00
 -1       261 0.00000E+00 0.00000E+00 0.00000E+00
 -1       262 0.00000E+00 0.00000E+00 0.00000E+00
 -1       263 0.00000E+00 0.00000E+00 0.00000E+00
 -1       264 0.00000E+00 0.00000E+00 0.00000E+00
 -1       265 0.00000E+00 0.00000E+00 0.00000E+00
 -1       266 0.00000E+00 0.00000E+00 0.00000E+00
 -1       267 0.00000E+00 0.00000E+00 0.00000E+00
 -1       268 0.00000E+00 0.00000E+00 0.00000E+00
 -1       269 0.00000E+00 0.00000E+00 0.00000E+00
 -1       270 0.00000E+00 0.00000E+00 0.00000E+00
 -1       271 0.00000E+00 0.00000E+00 0.00000E+00
 -1       272 0.00000E+00 0.00000E+00 0.00000E+00
 -1       273 0.00000E+00 0.00000E+00 0.00000E+00
 -1       274 0.00000E+00 0.00000E+00 0.00000E+00
 -1       275 0.00000E+00 0.00000E+00 0.00000E+00
 -1       276 0.00000E+00 0.00000E+00 0.00000E+00
 -1       277 0.00000E+00 0.00000E+00 0.00000E+00
 -1       278 0.00000E+00 0.00000E+00 0.00000E+00
 -1       279 0.00000E+00 0.00000E+00 0.00000E+00
 -1       280 0.00000E+00 0.00000E+00 0.00000E+00
 -1       281 0.00000E+00 0.00000E+00 0.00000E+00
 -1       282 0.00000E+00 0.00000E+00 0.00000E+00
 -1       283 0.00000E+00 0.00000E+00 0.00000E+00
 -1       284 0.00000E+00 0.00000E+00 0.00000E+00
 -1       285 0.00000E+00 0.00000E+00 0.00000E+00
 -1       301 0.00000E+00 0.00000E+00 0.00000E+00
 -1       302 0.00000E+00 0.00000E+00 0.00000E+00
 -1       303 0.00000E+00 0.00000E+00 0.00000E+00
 -1       304 0.00000E+00 0.00000E+00 0.00000E+00
 -1       305 0.00000E+00 0.00000E+00 0.00000E+00
 -1       306 0.00000E+00 0.00000E+00 0.00000E+00
 -1       307 0.00000E+00 0.00000E+00 0.00000E+00
 -1       308 0.00000E+00 0.00000E+00 0.00000E+00
 -1       309 0.00000E+00 0.00000E+00 0.00000E+00
 -1       310 0.00000E+00 0.00000E+00 0.00000E+00
 -1       311 0.00000E+00 0.00000E+00 0.00000E+00
 -1       312 0.00000E+00 0.00000E+00 0.00000E+00
 -1       313 0.00000E+00 0.00000E+00 0.00000E+00
 -1       314 0.00000E+00 0.00000E+00 0.00000E+00
 -1       315 0.00000E+00 0.00000E+00 0.00000E+00
 -1       316 0.00000E+00 0.00000E+00 0.00000E+00
 -1       317 0.00000E+00 0.00000E+00 0.00000E+00
 -1       318 0.00000E+00 0.00000E+00 0.00000E+00
 -1       319 0.00000E+00 0.00000E+00 0.00000E+00
 -1       320 0.00000E+00 0.00000E+00 0.00000E+00
 -1       336 0.00000E+00 0.00000E+00 0.00000E+00
 -1       337 0.00000E+00 0.00000E+00 0.00000E+00
 -1       338 0.00000E+00 0.00000E+00 0.00000E+00
 -1       339 0.00000E+00 0.00000E+00 0.00000E+00
 -1       340 0.00000E+00 0.00000E+00 0.00000E+00
 -1       406 0.00000E+00 0.00000E+00 0.00000E+00
 -1       407 0.00000E+00 0.00000E+00 0.00000E+00
 -1       408 0.00000E+00 0.00000E+00 0.00000E+00
 -1       409 0.00000E+00 0.00000E+00 0.00000E+00
 -1       410 0.00000E+00 0.00000E+00 0.00000E+00
 -1       521 0.00000E+00 0.00000E+00 0.00000E+00
 -1       522 0.00000E+00 0.00000E+00 0.00000E+00
 -1       523 0.00000E+00 0.00000E+00 0.00000E+00
 -1       524 0.00000E+00 0.00000E+00 0.00000E+00
 -1       525 0.00000E+00 0.00000E+00 0.00000E+00
 -1       526 0.00000E+00 0.00000E+00 0.00000E+00
 -1       527 0.00000E+00 0.00000E+00 0.00000E+00
 -1       528 0.00000E+00 0.00000E+00 0.00000E+00
 -1       529 0.00000E+00 0.00000E+00 0.00000E+00
 -1       530 0.00000E+00 0.00000E+00 0.00000E+00
 -1       531 0.00000E+00 0.00000E+00 0.00000E+00
 -1       532 0.00000E+00 0.00000E+00 0.00000E+00
 -1       533 0.00000E+00 0.00000E+00 0.00000E+00
 -1       534 0.00000E+00 0.00000E+00 0.00000E+00
 -1       535 0.00000E+00 0.00000E+00 0.00000E+00
 -1       536 0.00000E+00 0.00000E+00 0.00000E+00
 -1       537 0.00000E+00 0.00000E+00 0.00000E+00
 -1       538 0.00000E+00 0.00000E+00 0.00000E+00
 -1       539 0.00000E+00 0.00000E+00 0.00000E+00
 -1       540 0.00000E+00 0.00000E+00 0.00000E+00
 -1       541 0.00000E+00 0.00000E+00 0.00000E+00
 -1       542 0.00000E+00 0.00000E+00 0.00000E+00
 -1       543 0.00000E+00 0.00000E+00 0.00000E+00
 -1       544 0.00000E+00 0.00000E+00 0.00000E+00
 -1       545 0.00000E+00 0.00000E+00 0.00000E+00
 -1       546 0.00000E+00 0.00000E+00 0.00000E+00
 -1       547 0.00000E+00 0.00000E+00 0.00000E+00
 -1       548 0.00000E+00 0.00000E+00 0.00000E+00
 -1       549 0.00000E+00 0.00000E+00 0.00000E+00
 -1       550 0.00000E+00 0.00000E+00 0.00000E+00
 -1       551 0.00000E+00 0.00000E+00 0.00000E+00
 -1       552 0.00000E+00 0.00000E+00 0.00000E+00
 -1       553 0.00000E+00 0.00000E+00 0.00000E+00
 -1       554 0.00000E+00 0.00000E+00 0.00000E+00
 -1       555 0.00000E+00 0.00000E+00 0.00000E+00
 -1       556 0.00000E+00 0.00000E+00 0.00000E+00
 -1       557 0.00000E+00 0.00000E+00 0.00000E+00
 -1       558 0.00000E+00 0.00000E+00 0.00000E+00
 -1       559 0.00000E+00 0.00000E+00 0.00000E+00
 -1       560 0.00000E+00 0.00000E+00 0.00000E+00
 -1       561 0.00000E+00 0.00000E+00 0.00000E+00
 -1       562 0.00000E+00 0.00000E+00 0.00000E+00
 -1       563 0.00000E+00 0.00000E+00 0.00000E+00
 -1       564 0.00000E+00 0.00000E+00 0.00000E+00
 -1       565 0.00000E+00 0.00000E+00 0.00000E+00
 -1       566 0.00000E+00 0.00000E+00 0.00000E+00
 -1       567 0.00000E+00 0.00000E+00 0.00000E+00
 -1       568 0.00000E+00 0.00000E+00 0.00000E+00
 -1       569 0.00000E+00 0.00000E+00 0.00000E+00
 -1       570 0.00000E+00 0.00000E+00 0.00000E+00
 -1       571 0.00000E+00 0.00000E+00 0.00000E+00
 -1       572 0.00000E+00 0.00000E+00 0.00000E+00
 -1       573 0.00000E+00 0.00000E+00 0.00000E+00
 -1       574 0.00000E+00 0.00000E+00 0.00000E+00
 -1       575 0.00000E+00 0.00000E+00 0.00000E+00
 -1       576 0.00000E+00 0.00000E+00 0.00000E+00
 -1       577 0.00000E+00 0.00000E+00 0.00000E+00
 -1       578 0.00000E+00 0.00000E+00 0.00000E+00
 -1       579 0.00000E+00 0.00000E+00 0.00000E+00
 -1       580 0.00000E+00 0.00000E+00 0.00000E+00
 -1       581 0.00000E+00 0.00000E+00 0.00000E+00
 -1       582 0.00000E+00 0.00000E+00 0.00000E+00
 -1       583 0.00000E+00 0.00000E+00 0.00000E+00
 -1       584 0.00000E+00 0.00000E+00 0.00000E+00
 -1       585 0.00000E+00 0.00000E+00 0.00000E+00
 -1       586 0.00000E+00 0.00000E+00 0.00000E+00
 -1       587 0.00000E+00 0.00000E+00 0.00000E+00
 -1       588 0.00000E+00 0.00000E+00 0.00000E+00
 -1       589 0.00000E+00 0.00000E+00 0.00000E+00
 -1       590 0.00000E+00 0.00000E+00 0.00000E+00
 -1       591 0.00000E+00 0.00000E+00 0.00000E+00
 -1       592 0.00000E+00 0.00000E+00 0.00000E+00
 -1       593 0.00000E+00 0.00000E+00 0.00000E+00
 -1       594 0.00000E+00 0.00000E+00 0.00000E+00
 -1       595 0.00000E+00 0.00000E+00 0.00000E+00
 -1       596 0.00000E+00 0.00000E+00 0.00000E+00
 -1       597 0.00000E+00 0.00000E+00 0.00000E+00
 -1       598 0.00000E+00 0.00000E+00 0.00000E+00
 -1       599 0.00000E+00 0.00000E+00 0.00000E+00
 -1       600 0.00000E+00 0.00000E+00 0.00000E+00
 -1       601 0.00000E+00 0.00000E+00 0.00000E+00
 -1       602 0.00000E+00 0.00000E+00 0.00000E+00
 -1       603 0.00000E+00 0.00000E+00 0.00000E+00
 -1       604 0.00000E+00 0.00000E+00 0.00000E+00
 -1       605 0.00000E+00 0.00000E+00 0.00000E+00
 -1       606 0.00000E+00 0.00000E+00 0.00000E+00
 -1       607 0.00000E+00 0.00000E+00 0.00000E+00
 -1       608 0.00000E+00 0.00000E+00 0.00000E+00
 -1       609 0.00000E+00 0.00000E+00 0.00000E+00
 -1       610 0.00000E+00 0.00000E+00 0.00000E+00
 -1       611 0.00000E+00 0.00000E+00 0.00000E+00
 -1       612 0.00000E+00 0.00000E+00 0.00000E+00
 -1       613 0.00000E+00 0.00000E+00 0.00000E+00
 -1       614 0.00000E+00 0.00000E+00 0.00000E+00
 -1       615 0.00000E+00 0.00000E+00 0.00000E+00
 -1       616 0.00000E+00 0.00000E+00 0.00000E+00
 -1       617 0.00000E+00 0.00000E+00 0.00000E+00
 -1       618 0.00000E+00 0.00000E+00 0.00000E+00
 -1       619 0.00000E+00 0.00000E+00 0.00000E+00
 -1       620 0.00000E+00 0.00000E+00 0.00000E+00
 -1       621 0.00000E+00 0.00000E+00 0.00000E+00
 -1       622 0.00000E+00 0.00000E+00 0.00000E+00
 -1       623 0.00000E+00 0.00000E+00 0.00000E+00
 -1       624 0.00000E+00 0.00000E+00 0.00000E+00
 -1       625 0.00000E+00 0.00000E+00 0.00000E+00
 -1       626 0.00000E+00 0.00000E+00 0.00000E+00
 -1       627 0.00000E+00 0.00000E+00 0.00000E+00
 -1       628 0.00000E+00 0.00000E+00 0.00000E+00
 -1       629 0.00000E+00 0.00000E+00 0.00000E+00
 -1       630 0.00000E+00 0.00000E+00 0.00000E+00
 -1       631 0.00000E+00 0.00000E+00 0.00000E+00
 -1       632 0.00000E+00 0.00000E+00 0.00000E+00
 -1       633 0.00000E+00 0.00000E+00 0.00000E+00
 -1       634 0.00000E+00 0.00000E+00 0.00000E+00
 -1       635 0.00000E+00 0.00000E+00 0.00000E+00
 -1       636 0.00000E+00 0.00000E+00 0.00000E+00
 -1       637 0.00000E+00 0.00000E+00 0.00000E+00
 -1       638 0.00000E+00 0.00000E+00 0.00000E+00
 -1       639 0.00000E+00 0.00000E+00 0.00000E+00
 -1       640 0.00000E+00 0.00000E+00 0.00000E+00
 -1       656 0.00000E+00 0.00000E+00 0.00000E+00
 -1       657 0.00000E+00 0.00000E+00 0.00000E+00
 -1       658 0.00000E+00 0.00000E+00 0.00000E+00
 -1       659 0.00000E+00 0.00000E+00 0.00000E+00
 -1       660 0.00000E+00 0.00000E+00 0.00000E+00
 -1       661 0.00000E+00 0.00000E+00 0.00000E+00
 -1       662 0.00000E+00 0.00000E+00 0.00000E+00
 -1       663 0.00000E+00 0.00000E+00 0.00000E+00
 -1       664 0.00000E+00 0.00000E+00 0.00000E+00
 -1       665 0.00000E+00 0.00000E+00 0.00000E+00
 -1       666 0.00000E+00 0.00000E+00 0.00000E+00
 -1       667 0.00000E+00 0.00000E+00 0.00000E+00
 -1       668 0.00000E+00 0.00000E+00 0.00000E+00
 -1       669 0.00000E+00 0.00000E+00 0.00000E+00
 -1       670 0.00000E+00 0.00000E+00 0.00000E+00
 -1       671 0.00000E+00 0.00000E+00 0.00000E+00
 -1       672 0.00000E+00 0.00000E+00 0.00000E+00
 -1       673 0.00000E+00 0.00000E+00 0.00000E+00
 -1       674 0.00000E+00 0.00000E+00 0.00000E+00
 -1       675 0.00000E+00 0.00000E+00 0.00000E+00
 -1       676 0.00000E+00 0.00000E+00 0.00000E+00
 -1       677 0.00000E+00 0.00000E+00 0.00000E+00
 -1       678 0.00000E+00 0.00000E+00 0.00000E+00
 -1       679 0.00000E+00 0.00000E+00 0.00000E+00
 -1       680 0.00000E+00 0.00000E+00 0.00000E+00
 -1       771 0.00000E+00 0.00000E+00 0.00000E+00
 -1       772 0.00000E+00 0.00000E+00 0.00000E+00
 -1       773 0.00000E+00 0.00000E+00 0.00000E+00
 -1       774 0.00000E+00 0.00000E+00 0.00000E+00
 -1       775 0.00000E+00 0.00000E+00 0.00000E+00
 -1       776 0.00000E+00 0.00000E+00 0.00000E+00
 -1       777 0.00000E+00 0.00000E+00 0.00000E+00
 -1       778 0.00000E+00 0.00000E+00 0.00000E+00
 -1       779 0.00000E+00 0.00000E+00 0.00000E+00
 -1       780 0.00000E+00 0.00000E+00 0.00000E+00
 -1       781 0.00000E+00 0.00000E+00 0.00000E+00
 -1       782 0.00000E+00 0.00000E+00 0.00000E+00
 -1       783 0.00000E+00 0.00000E+00 0.00000E+00
 -1       784 0.00000E+00 0.00000E+00 0.00000E+00
 -1       785 0.00000E+00 0.00000E+00 0.00000E+00
 -1       786 0.00000E+00 0.00000E+00 0.00000E+00
 -1       787 0.00000E+00 0.00000E+00 0.00000E+00
 -1       788 0.00000E+00 0.00000E+00 0.00000E+00
 -1       789 0.00000E+00 0.00000E+00 0.00000E+00
 -1       790 0.00000E+00 0.00000E+00 0.00000E+00
 -1       791 0.00000E+00 0.00000E+00 0.00000E+00
 -1       792 0.00000E+00 0.00000E+00 0.00000E+00
 -1       793 0.00000E+00 0.00000E+00 0.00000E+00
 -1       794 0.00000E+00 0.00000E+00 0.00000E+00
 -1       795 0.00000E+00 0.00000E+00 0.00000E+00
 -1       796 0.00000E+00 0.00000E+00 0.00000E+00
 -1       797 0.00000E+00 0.00000E+00 0.00000E+00
 -1       798 0.00000E+00 0.00000E+00 0.00000E+00
 -1       799 0.00000E+00 0.00000E+00 0.00000E+00
 -1       800 0.00000E+00 0.00000E+00 0.00000E+00
 -1       801 0.00000E+00 0.00000E+00 0.00000E+00
 -1       802 0.00000E+00 0.00000E+00 0.00000E+00
 -1       803 0.00000E+00 0.00000E+00 0.00000E+00
 -1       804 0.00000E+00 0.00000E+00 0.00000E+00
 -1       805 0.00000E+00 0.00000E+00 0.00000E+00
 -1       806 0.00000E+00 0.00000E+00 0.00000E+00
 -1       807 0.00000E+00 0.00000E+00 0.00000E+00
 -1       808 0.00000E+00 0.00000E+00 0.00000E+00
 -1       809 0.00000E+00 0.00000E+00 0.00000E+00
 -1       810 0.00000E+00 0.00000E+00 0.00000E+00
 -1       811 0.00000E+00 0.00000E+00 0.00000E+00
 -1       812 0.00000E+00 0.00000E+00 0.00000E+00
 -1       813 0.00000E+00 0.00000E+00 0.00000E+00
 -1       814 0.00000E+00 0.00000E+00 0.00000E+00
 -1       815 0.00000E+00 0.00000E+00 0.00000E+00
 -1       816 0.00000E+00 0.00000E+00 0.00000E+00
 -1       817 0.00000E+00 0.00000E+00 0.00000E+00
 -1       818 0.00000E+00 0.00000E+00 0.00000E+00
 -1       819 0.00000E+00 0.00000E+00 0.00000E+00
 -1       820 0.00000E+00 0.00000E+00 0.00000E+00
 -1       821 0.00000E+00 0.00000E+00 0.00000E+00
 -1       822 0.00000E+00 0.00000E+00 0.00000E+00
 -1       823 0.00000E+00 0.00000E+00 0.00000E+00
 -1       824 0.00000E+00 0.00000E+00 0.00000E+00
 -1       825 0.00000E+00 0.00000E+00 0.00000E+00
 -1       826 0.00000E+00 0.00000E+00 0.00000E+00
 -1       827 0.00000E+00 0.00000E+00 0.00000E+00
 -1       828 0.00000E+00 0.00000E+00 0.00000E+00
 -1       829 0.00000E+00 0.00000E+00 0.00000E+00
 -1       830 0.00000E+00 0.00000E+00 0.00000E+00
 -1       831 0.00000E+00 0.00000E+00 0.00000E+00
 -1       832 0.00000E+00 0.00000E+00 0.00000E+00
 -1       833 0.00000E+00 0.00000E+00 0.00000E+00
 -1       834 0.00000E+00 0.00000E+00 0.00000E+00
 -1       835 0.00000E+00 0.00000E+00 0.00000E+00
 -1       836 0.00000E+00 0.00000E+00 0.00000E+00
 -1       837 0.00000E+00 0.00000E+00 0.00000E+00
 -1       838 0.00000E+00 0.00000E+00 0.00000E+00
 -1       839 0.00000E+00 0.00000E+00 0.00000E+00
 -1       840 0.00000E+00 0.00000E+00 0.00000E+00
 -1       856 0.00000E+00 0.00000E+00 0.00000E+00
 -1       857 0.00000E+00 0.00000E+00 0.00000E+00
 -1       858 0.00000E+00 0.00000E+00 0.00000E+00
 -1       859 0.00000E+00 0.00000E+00 0.00000E+00
 -1       860 0.00000E+00 0.00000E+00 0.00000E+00
 -1       861 0.00000E+00 0.00000E+00 0.00000E+00
 -1       862 0.00000E+00 0.00000E+00 0.00000E+00
 -1       863 0.00000E+00 0.00000E+00 0.00000E+00
 -1       864 0.00000E+00 0.00000E+00 0.00000E+00
 -1       865 0.00000E+00 0.00000E+00 0.00000E+00
 -1       866 0.00000E+00 0.00000E+00 0.00000E+00
 -1       867 0.00000E+00 0.00000E+00 0.00000E+00
 -1       868 0.00000E+00 0.00000E+00 0.00000E+00
 -1       869 0.00000E+00 0.00000E+00 0.00000E+00
 -1       870 0.00000E+00 0.00000E+00 0.00000E+00
 -1       871 0.00000E+00 0.00000E+00 0.00000E+00
 -1       872 0.00000E+00 0.00000E+00 0.00000E+00
 -1       873 0.00000E+00 0.00000E+00 0.00000E+00
 -1       874 0.00000E+00 0.00000E+00 0.00000E+00
 -1       875 0.00000E+00 0.00000E+00 0.00000E+00
 -1       876 0.00000E+00 0.00000E+00 0.00000E+00
 -1       877 0.00000E+00 0.00000E+00 0.00000E+00
 -1       878 0.00000E+00 0.00000E+00 0.00000E+00
 -1       879 0.00000E+00 0.00000E+00 0.00000E+00
 -1       880 0.00000E+00 0.00000E+00 0.00000E+00
 -1       881 0.00000E+00 0.00000E+00 0.00000E+00
 -1       882 0.00000E+00 0.00000E+00 0.00000E+00
 -1       883 0.00000E+00 0.00000E+00 0.00000E+00
 -1       884 0.00000E+00 0.00000E+00 0.00000E+00
 -1       885 0.00000E+00 0.00000E+00 0.00000E+00
 -1       886 0.00000E+00 0.00000E+00 0.00000E+00
 -1       887 0.00000E+00 0.00000E+00 0.00000E+00
 -1       888 0.00000E+00 0.00000E+00 0.00000E+00
 -1       889 0.00000E+00 0.00000E+00 0.00000E+00
 -1       890 0.00000E+00 0.00000E+00 0.00000E+00
 -1       891 0.00000E+00 0.00000E+00 0.00000E+00
 -1       892 0.00000E+00 0.00000E+00 0.00000E+00
 -1       893 0.00000E+00 0.00000E+00 0.00000E+00
 -1       894 0.00000E+00 0.00000E+00 0.00000E+00
 -1       895 0.00000E+00 0.00000E+00 0.00000E+00
 -1       956 0.00000E+00 0.00000E+00 0.00000E+00
 -1       957 0.00000E+00 0.00000E+00 0.00000E+00
 -1       958 0.00000E+00 0.00000E+00 0.00000E+00
 -1       959 0.00000E+00 0.00000E+00 0.00000E+00
 -1       960 0.00000E+00 0.00000E+00 0.00000E+00
 -1       961 0.00000E+00 0.00000E+00 0.00000E+00
 -1       962 0.00000E+00 0.00000E+00 0.00000E+00
 -1       963 0.00000E+00 0.00000E+00 0.00000E+00
 -1       964 0.00000E+00 0.00000E+00 0.00000E+00
 -1       965 0.00000E+00 0.00000E+00 0.00000E+00
 -1       966 0.00000E+00 0.00000E+00 0.00000E+00
 -1       967 0.00000E+00 0.00000E+00 0.00000E+00
 -1       968 0.00000E+00 0.00000E+00 0.00000E+00
 -1       969 0.00000E+00 0.00000E+00 0.00000E+00
 -1       970 0.00000E+00 0.00000E+00 0.00000E+00
 -1       971 0.00000E+00 0.00000E+00 0.00000E+00
 -1       972 0.00000E+00 0.00000E+00 0.00000E+00
 -1       973 0.00000E+00 0.00000E+00 0.00000E+00
 -1       974 0.00000E+00 0.00000E+00 0.00000E+00
 -1       975 0.00000E+00 0.00000E+00 0.00000E+00
 -1       976 0.00000E+00 0.00000E+00 0.00000E+00
 -1       977 0.00000E+00 0.00000E+00 0.00000E+00
 -1       978 0.00000E+00 0.00000E+00 0.00000E+00
 -1       979 0.00000E+00 0.00000E+00 0.00000E+00
 -1       980 0.00000E+00 0.00000E+00 0.00000E+00
 -1       981 0.00000E+00 0.00000E+00 0.00000E+00
 -1       982 0.00000E+00 0.00000E+00 0.00000E+00
 -1       983 0.00000E+00 0.00000E+00 0.00000E+00
 -1       984 0.00000E+00 0.00000E+00 0.00000E+00
 -1       985 0.00000E+00 0.00000E+00 0.00000E+00
 -3
