
 stresses (elem, integ.pnt.,sxx,syy,szz,sxy,sxz,syz) for set ELALL and time  0.1000000E+01

         1   1  2.983796E+06  1.099455E+07  2.829902E+06 -2.044945E+06  1.382798E+05  1.063053E+06
         1   2  2.417731E+06  9.382160E+06  1.918580E+06 -1.880667E+06  4.660119E+05  4.833256E+05
         1   3  2.007065E+06  7.890725E+06  1.420775E+06 -1.971607E+06  5.435612E+05 -9.447295E+04
         1   4  1.129051E+05 -7.195004E+05  1.179203E+05 -1.934981E+06  1.421408E+05  7.629330E+04
         1   5  3.491476E+04 -7.270195E+05  6.289416E+04 -1.807639E+06  4.688381E+05  4.658140E+04
         1   6  1.897302E+04 -7.094068E+05  4.364692E+04 -1.935496E+06  5.435408E+05  1.716046E+04
         1   7 -2.767050E+06 -1.230609E+07 -2.599651E+06 -1.826792E+06  1.457157E+05 -8.922378E+05
         1   8 -2.353577E+06 -1.073752E+07 -1.796295E+06 -1.735576E+06  4.715967E+05 -3.833224E+05
         1   9 -1.972815E+06 -9.236591E+06 -1.335403E+06 -1.899685E+06  5.435326E+05  1.273163E+05
         1  10  2.983477E+06  1.099335E+07  2.827776E+06 -2.045063E+06  4.713665E-09 -1.394194E-08
         1  11  2.417436E+06  9.381853E+06  1.917736E+06 -1.880848E+06  2.969701E-09 -1.193597E-08
         1  12  2.006746E+06  7.890636E+06  1.420204E+06 -1.971566E+06 -5.221237E-09 -7.981188E-09
         1  13  1.128818E+05 -7.195121E+05  1.178713E+05 -1.934989E+06  2.494418E-09 -4.773541E-12
         1  14  3.467814E+04 -7.270809E+05  6.247687E+04 -1.807656E+06  1.721650E-09  1.476467E-10
         1  15  1.865578E+04 -7.094864E+05  4.309125E+04 -1.935503E+06  1.595727E-08  1.005239E-10
         1  16 -2.767291E+06 -1.230696E+07 -2.601214E+06 -1.826687E+06 -1.859195E-09  1.332856E-08
         1  17 -2.353855E+06 -1.073774E+07 -1.796991E+06 -1.735430E+06 -6.978064E-09  1.165145E-08
         1  18 -1.973137E+06 -9.236687E+06 -1.335990E+06 -1.899742E+06  5.073508E-10  8.342392E-09
         1  19  2.983796E+06  1.099455E+07  2.829902E+06 -2.044945E+06 -1.382798E+05 -1.063053E+06
         1  20  2.417731E+06  9.382160E+06  1.918580E+06 -1.880667E+06 -4.660119E+05 -4.833256E+05
         1  21  2.007065E+06  7.890725E+06  1.420775E+06 -1.971607E+06 -5.435612E+05  9.447295E+04
         1  22  1.129051E+05 -7.195004E+05  1.179203E+05 -1.934981E+06 -1.421408E+05 -7.629330E+04
         1  23  3.491476E+04 -7.270195E+05  6.289416E+04 -1.807639E+06 -4.688381E+05 -4.658140E+04
         1  24  1.897302E+04 -7.094068E+05  4.364692E+04 -1.935496E+06 -5.435408E+05 -1.716046E+04
         1  25 -2.767050E+06 -1.230609E+07 -2.599651E+06 -1.826792E+06 -1.457157E+05  8.922378E+05
         1  26 -2.353577E+06 -1.073752E+07 -1.796295E+06 -1.735576E+06 -4.715967E+05  3.833224E+05
         1  27 -1.972815E+06 -9.236591E+06 -1.335403E+06 -1.899685E+06 -5.435326E+05 -1.273163E+05
         2   1  1.775655E+06  6.901517E+06  1.227655E+06 -1.980031E+06  5.039666E+05 -1.053958E+05
         2   2  1.409921E+06  5.341699E+06  9.381229E+05 -1.831266E+06  4.363737E+05 -1.919236E+05
         2   3  1.072672E+06  3.802195E+06  7.115572E+05 -1.955892E+06  3.385036E+05 -2.786874E+05
         2   4  2.106903E+04 -7.106271E+05  3.941158E+04 -1.939564E+06  5.037242E+05  1.023902E+04
         2   5  2.326074E+04 -7.107769E+05  4.075446E+04 -1.802751E+06  4.353532E+05 -1.024794E+04
         2   6  4.272441E+04 -7.043264E+05  5.952965E+04 -1.939482E+06  3.365517E+05 -3.117329E+04
         2   7 -1.736345E+06 -8.265324E+06 -1.150170E+06 -1.899432E+06  5.034945E+05  1.245203E+05
         2   8 -1.365095E+06 -6.726540E+06 -8.571746E+05 -1.774408E+06  4.343422E+05  1.697400E+05
         2   9 -9.881208E+05 -5.190297E+06 -5.925971E+05 -1.923125E+06  3.346029E+05  2.146284E+05
         2  10  1.775379E+06  6.901437E+06  1.227158E+06 -1.979989E+06 -3.037122E-09 -5.720491E-08
         2  11  1.409707E+06  5.341609E+06  9.376976E+05 -1.831199E+06 -5.864600E-09 -2.311717E-08
         2  12  1.072529E+06  3.802081E+06  7.111982E+05 -1.955817E+06 -9.869709E-09  1.392649E-08
         2  13  2.079661E+04 -7.106953E+05  3.893465E+04 -1.939569E+06  1.637267E-08 -1.559548E-11
         2  14  2.305729E+04 -7.108278E+05  4.039829E+04 -1.802747E+06  1.151810E-08 -4.068116E-11
         2  15  4.260263E+04 -7.043578E+05  5.931521E+04 -1.939474E+06  9.481690E-09 -4.661866E-10
         2  16 -1.736622E+06 -8.265409E+06 -1.150676E+06 -1.899483E+06 -5.967514E-09  5.658239E-08
         2  17 -1.365306E+06 -6.726622E+06 -8.575846E+05 -1.774468E+06 -4.178411E-09  2.240530E-08
         2  18 -9.882538E+05 -5.190377E+06 -5.928957E+05 -1.923183E+06 -9.600995E-09 -1.412259E-08
         2  19  1.775655E+06  6.901517E+06  1.227655E+06 -1.980031E+06 -5.039666E+05  1.053958E+05
         2  20  1.409921E+06  5.341699E+06  9.381229E+05 -1.831266E+06 -4.363737E+05  1.919236E+05
         2  21  1.072672E+06  3.802195E+06  7.115572E+05 -1.955892E+06 -3.385036E+05  2.786874E+05
         2  22  2.106903E+04 -7.106271E+05  3.941158E+04 -1.939564E+06 -5.037242E+05 -1.023902E+04
         2  23  2.326074E+04 -7.107769E+05  4.075446E+04 -1.802751E+06 -4.353532E+05  1.024794E+04
         2  24  4.272441E+04 -7.043264E+05  5.952965E+04 -1.939482E+06 -3.365517E+05  3.117329E+04
         2  25 -1.736345E+06 -8.265324E+06 -1.150170E+06 -1.899432E+06 -5.034945E+05 -1.245203E+05
         2  26 -1.365095E+06 -6.726540E+06 -8.571746E+05 -1.774408E+06 -4.343422E+05 -1.697400E+05
         2  27 -9.881208E+05 -5.190297E+06 -5.925971E+05 -1.923125E+06 -3.346029E+05 -2.146284E+05
         3   1  8.573523E+05  2.838879E+06  5.804129E+05 -1.959368E+06  2.710493E+05 -2.896618E+05
         3   2  5.562116E+05  1.275296E+06  4.124418E+05 -1.732471E+06  1.561809E+05 -3.621475E+05
         3   3  3.689772E+05 -2.513110E+05  3.191199E+05 -1.781067E+06  3.895686E+04 -4.346259E+05
         3   4  4.995609E+04 -6.968882E+05  7.493761E+04 -1.940000E+06  2.689179E+05 -4.182650E+04
         3   5  1.041092E+05 -7.125574E+05  1.306575E+05 -1.801506E+06  1.539024E+05 -1.094085E+05
         3   6  2.714694E+05 -6.947152E+05  2.574432E+05 -1.938339E+06  3.654821E+04 -1.771360E+05
         3   7 -7.579740E+05 -4.219920E+06 -4.304945E+05 -1.920702E+06  2.667934E+05  2.046629E+05
         3   8 -3.481151E+05 -2.696264E+06 -1.509392E+05 -1.870297E+06  1.515626E+05  1.425579E+05
         3   9  1.740835E+05 -1.137722E+06  1.960272E+05 -2.095495E+06  3.400780E+04  8.017808E+04
         3  10  8.572514E+05  2.838770E+06  5.801190E+05 -1.959305E+06 -1.728381E-08  2.023843E-07
         3  11  5.561505E+05  1.275149E+06  4.121507E+05 -1.732426E+06 -3.028921E-09  4.383724E-08
         3  12  3.689249E+05 -2.515142E+05  3.187622E+05 -1.781054E+06 -2.015906E-09 -1.188284E-07
         3  13  4.987806E+04 -6.969094E+05  7.479865E+04 -1.939991E+06  1.001885E-08 -6.424832E-10
         3  14  1.040807E+05 -7.125766E+05  1.305907E+05 -1.801492E+06  9.594831E-10  3.237520E-10
         3  15  2.714596E+05 -6.947492E+05  2.573818E+05 -1.938334E+06  1.664265E-09  9.956653E-11
         3  16 -7.580620E+05 -4.219985E+06 -4.307082E+05 -1.920746E+06 -3.574613E-09 -2.021136E-07
         3  17 -3.481454E+05 -2.696292E+06 -1.510210E+05 -1.870315E+06 -4.361621E-09 -4.405244E-08
         3  18  1.740805E+05 -1.137730E+06  1.960129E+05 -2.095497E+06 -2.535986E-10  1.190276E-07
         3  19  8.573523E+05  2.838879E+06  5.804129E+05 -1.959368E+06 -2.710493E+05  2.896618E+05
         3  20  5.562116E+05  1.275296E+06  4.124418E+05 -1.732471E+06 -1.561809E+05  3.621475E+05
         3  21  3.689772E+05 -2.513110E+05  3.191199E+05 -1.781067E+06 -3.895686E+04  4.346259E+05
         3  22  4.995609E+04 -6.968882E+05  7.493761E+04 -1.940000E+06 -2.689179E+05  4.182650E+04
         3  23  1.041092E+05 -7.125574E+05  1.306575E+05 -1.801506E+06 -1.539024E+05  1.094085E+05
         3  24  2.714694E+05 -6.947152E+05  2.574432E+05 -1.938339E+06 -3.654821E+04  1.771360E+05
         3  25 -7.579740E+05 -4.219920E+06 -4.304945E+05 -1.920702E+06 -2.667934E+05 -2.046629E+05
         3  26 -3.481151E+05 -2.696264E+06 -1.509392E+05 -1.870297E+06 -1.515626E+05 -1.425579E+05
         3  27  1.740835E+05 -1.137722E+06  1.960272E+05 -2.095495E+06 -3.400780E+04 -8.017808E+04
         4   1 -8.031624E+06 -2.128607E+06 -1.511322E+06 -2.721903E+06 -1.235425E+06 -4.745383E+05
         4   2 -7.665354E+06 -5.069959E+05 -3.828157E+05 -3.283400E+06 -7.888740E+05 -3.260928E+05
         4   3 -8.277971E+06 -6.526410E+05 -1.191766E+05 -3.098865E+06 -3.529456E+05 -1.500803E+05
         4   4 -9.809749E+06 -2.635850E+06 -1.971604E+06 -3.030765E+06 -1.238250E+06 -4.760338E+05
         4   5 -9.217240E+06 -1.056563E+06 -8.039033E+05 -3.663739E+06 -7.881176E+05 -3.258818E+05
         4   6 -9.606420E+06 -1.248397E+06 -5.059030E+05 -3.550168E+06 -3.484349E+05 -1.482946E+05
         4   7 -1.158477E+07 -3.143179E+06 -2.432123E+06 -3.338968E+06 -1.241060E+06 -4.775272E+05
         4   8 -1.076679E+07 -1.606071E+06 -1.225205E+06 -4.043243E+06 -7.873608E+05 -3.256706E+05
         4   9 -1.093312E+07 -1.843850E+06 -8.928069E+05 -4.000518E+06 -3.439343E+05 -1.465143E+05
         4  10 -8.033344E+06 -2.129269E+06 -1.514662E+06 -2.722379E+06  1.578146E-09  4.295220E-10
         4  11 -7.666058E+06 -5.072815E+05 -3.842056E+05 -3.283609E+06 -4.056650E-09  2.611825E-09
         4  12 -8.278113E+06 -6.526995E+05 -1.194573E+05 -3.098908E+06  5.611614E-09  2.768240E-09
         4  13 -9.811481E+06 -2.636518E+06 -1.974970E+06 -3.031245E+06 -4.442301E-09  7.142675E-10
         4  14 -9.217945E+06 -1.056849E+06 -8.052943E+05 -3.663948E+06 -1.355494E-08  2.165806E-09
         4  15 -9.606558E+06 -1.248454E+06 -5.061773E+05 -3.550210E+06 -2.959671E-09  1.365796E-09
         4  16 -1.158651E+07 -3.143852E+06 -2.435515E+06 -3.339451E+06 -2.367366E-10  6.055964E-10
         4  17 -1.076749E+07 -1.606358E+06 -1.226598E+06 -4.043451E+06 -1.233063E-08  2.335263E-09
         4  18 -1.093326E+07 -1.843906E+06 -8.930749E+05 -4.000559E+06 -5.140738E-09  2.951885E-10
         4  19 -8.031624E+06 -2.128607E+06 -1.511322E+06 -2.721903E+06  1.235425E+06  4.745383E+05
         4  20 -7.665354E+06 -5.069959E+05 -3.828157E+05 -3.283400E+06  7.888740E+05  3.260928E+05
         4  21 -8.277971E+06 -6.526410E+05 -1.191766E+05 -3.098865E+06  3.529456E+05  1.500803E+05
         4  22 -9.809749E+06 -2.635850E+06 -1.971604E+06 -3.030765E+06  1.238250E+06  4.760338E+05
         4  23 -9.217240E+06 -1.056563E+06 -8.039033E+05 -3.663739E+06  7.881176E+05  3.258818E+05
         4  24 -9.606420E+06 -1.248397E+06 -5.059030E+05 -3.550168E+06  3.484349E+05  1.482946E+05
         4  25 -1.158477E+07 -3.143179E+06 -2.432123E+06 -3.338968E+06  1.241060E+06  4.775272E+05
         4  26 -1.076679E+07 -1.606071E+06 -1.225205E+06 -4.043243E+06  7.873608E+05  3.256706E+05
         4  27 -1.093312E+07 -1.843850E+06 -8.928069E+05 -4.000518E+06  3.439343E+05  1.465143E+05
         5   1 -9.544390E+06 -1.456555E+06 -4.127544E+05 -3.396844E+06 -2.772815E+05 -1.106477E+05
         5   2 -9.530128E+06 -1.457302E+06 -2.450530E+05 -3.719330E+06 -1.804771E+05 -6.628161E+04
         5   3 -9.996387E+06 -1.400732E+06 -2.337389E+05 -3.570016E+06 -8.414444E+04 -2.076652E+04
         5   4 -9.583224E+06 -1.446562E+06 -4.181104E+05 -3.382685E+06 -2.762903E+05 -1.102814E+05
         5   5 -9.327231E+06 -1.373219E+06 -1.874125E+05 -3.657388E+06 -1.792963E+05 -6.583145E+04
         5   6 -9.551863E+06 -1.242573E+06 -1.132795E+05 -3.460337E+06 -8.273091E+04 -2.022371E+04
         5   7 -9.622054E+06 -1.436567E+06 -4.234660E+05 -3.368527E+06 -2.752993E+05 -1.099149E+05
         5   8 -9.124293E+06 -1.289132E+06 -1.297761E+05 -3.595426E+06 -1.781151E+05 -6.538110E+04
         5   9 -9.107146E+06 -1.084410E+06  7.161947E+03 -3.350589E+06 -8.131622E+04 -1.968054E+04
         5  10 -9.544477E+06 -1.456590E+06 -4.129248E+05 -3.396869E+06 -5.623261E-09  1.133799E-09
         5  11 -9.530165E+06 -1.457316E+06 -2.451238E+05 -3.719340E+06  2.590036E-09 -8.356077E-11
         5  12 -9.996395E+06 -1.400734E+06 -2.337532E+05 -3.570018E+06 -1.407714E-09  1.333309E-09
         5  13 -9.583310E+06 -1.446596E+06 -4.182796E+05 -3.382710E+06 -5.000857E-09  1.747334E-09
         5  14 -9.327267E+06 -1.373233E+06 -1.874823E+05 -3.657397E+06 -1.124837E-08  9.617964E-10
         5  15 -9.551870E+06 -1.242576E+06 -1.132934E+05 -3.460339E+06  2.287501E-09  1.340949E-09
         5  16 -9.622140E+06 -1.436601E+06 -4.236340E+05 -3.368551E+06  3.446276E-10  1.931145E-09
         5  17 -9.124329E+06 -1.289145E+06 -1.298449E+05 -3.595436E+06 -2.468640E-09  2.272924E-09
         5  18 -9.107154E+06 -1.084412E+06  7.148575E+03 -3.350591E+06  4.677632E-09  3.097388E-09
         5  19 -9.544390E+06 -1.456555E+06 -4.127544E+05 -3.396844E+06  2.772815E+05  1.106477E+05
         5  20 -9.530128E+06 -1.457302E+06 -2.450530E+05 -3.719330E+06  1.804771E+05  6.628161E+04
         5  21 -9.996387E+06 -1.400732E+06 -2.337389E+05 -3.570016E+06  8.414444E+04  2.076652E+04
         5  22 -9.583224E+06 -1.446562E+06 -4.181104E+05 -3.382685E+06  2.762903E+05  1.102814E+05
         5  23 -9.327231E+06 -1.373219E+06 -1.874125E+05 -3.657388E+06  1.792963E+05  6.583145E+04
         5  24 -9.551863E+06 -1.242573E+06 -1.132795E+05 -3.460337E+06  8.273091E+04  2.022371E+04
         5  25 -9.622054E+06 -1.436567E+06 -4.234660E+05 -3.368527E+06  2.752993E+05  1.099149E+05
         5  26 -9.124293E+06 -1.289132E+06 -1.297761E+05 -3.595426E+06  1.781151E+05  6.538110E+04
         5  27 -9.107146E+06 -1.084410E+06  7.161947E+03 -3.350589E+06  8.131622E+04  1.968054E+04
         6   1 -1.111034E+07 -1.950145E+06 -5.416268E+05 -3.943615E+06 -7.080634E+04 -8.380506E+03
         6   2 -1.113779E+07 -2.012113E+06 -5.219242E+05 -4.052383E+06 -4.906212E+04  8.479839E+03
         6   3 -1.128911E+07 -1.977435E+06 -5.253413E+05 -3.989703E+06 -2.381129E+04  1.611548E+04
         6   4 -9.486483E+06 -1.322208E+06 -8.858125E+04 -3.493665E+06 -6.879459E+04 -7.617102E+03
         6   5 -9.422432E+06 -1.356491E+06 -4.570989E+04 -3.584677E+06 -4.862232E+04  8.640485E+03
         6   6 -9.481819E+06 -1.293722E+06 -2.463184E+04 -3.504278E+06 -2.494414E+04  1.568666E+04
         6   7 -7.860054E+06 -6.940995E+05  3.642160E+05 -3.042625E+06 -6.677671E+04 -6.851319E+03
         6   8 -7.704203E+06 -7.006950E+05  4.302295E+05 -3.115780E+06 -4.818101E+04  8.801714E+03
         6   9 -7.671344E+06 -6.098328E+05  4.757736E+05 -3.017558E+06 -2.608061E+04  1.525651E+04
         6  10 -1.111034E+07 -1.950147E+06 -5.416366E+05 -3.943615E+06 -2.401569E-09 -2.340340E-09
         6  11 -1.113779E+07 -2.012114E+06 -5.219289E+05 -4.052383E+06  4.131565E-09  1.127621E-09
         6  12 -1.128911E+07 -1.977435E+06 -5.253429E+05 -3.989703E+06 -3.841263E-09 -3.801035E-10
         6  13 -9.486488E+06 -1.322209E+06 -8.859040E+04 -3.493665E+06  4.822648E-09 -1.512520E-09
         6  14 -9.422435E+06 -1.356492E+06 -4.571453E+04 -3.584677E+06  2.550525E-09 -1.990040E-10
         6  15 -9.481820E+06 -1.293723E+06 -2.463348E+04 -3.504278E+06  8.430784E-09  8.680251E-10
         6  16 -7.860058E+06 -6.941008E+05  3.642075E+05 -3.042626E+06  3.394570E-09  6.133767E-10
         6  17 -7.704205E+06 -7.006957E+05  4.302250E+05 -3.115780E+06  2.048300E-09 -2.247074E-09
         6  18 -7.671345E+06 -6.098333E+05  4.757718E+05 -3.017557E+06  4.033283E-09  1.097615E-09
         6  19 -1.111034E+07 -1.950145E+06 -5.416268E+05 -3.943615E+06  7.080634E+04  8.380506E+03
         6  20 -1.113779E+07 -2.012113E+06 -5.219242E+05 -4.052383E+06  4.906212E+04 -8.479839E+03
         6  21 -1.128911E+07 -1.977435E+06 -5.253413E+05 -3.989703E+06  2.381129E+04 -1.611548E+04
         6  22 -9.486483E+06 -1.322208E+06 -8.858125E+04 -3.493665E+06  6.879459E+04  7.617102E+03
         6  23 -9.422432E+06 -1.356491E+06 -4.570989E+04 -3.584677E+06  4.862232E+04 -8.640485E+03
         6  24 -9.481819E+06 -1.293722E+06 -2.463184E+04 -3.504278E+06  2.494414E+04 -1.568666E+04
         6  25 -7.860054E+06 -6.940995E+05  3.642160E+05 -3.042625E+06  6.677671E+04  6.851319E+03
         6  26 -7.704203E+06 -7.006950E+05  4.302295E+05 -3.115780E+06  4.818101E+04 -8.801714E+03
         6  27 -7.671344E+06 -6.098328E+05  4.757736E+05 -3.017558E+06  2.608061E+04 -1.525651E+04
         7   1 -1.098762E+07 -1.977194E+06 -4.585899E+05 -4.018193E+06 -2.168695E+04  1.575106E+04
         7   2 -1.096172E+07 -1.804984E+06 -4.112887E+05 -3.853149E+06 -1.350849E+04  1.757011E+04
         7   3 -1.069993E+07 -1.855884E+06 -3.669592E+05 -3.936855E+06 -2.450114E+03  1.147153E+04
         7   4 -9.403548E+06 -1.377921E+06 -1.999107E+04 -3.592586E+06 -2.120146E+04  1.592708E+04
         7   5 -9.521282E+06 -1.263339E+06 -1.325667E+04 -3.469482E+06 -1.440602E+04  1.723550E+04
         7   6 -9.402865E+06 -1.371521E+06 -8.367235E+03 -3.595096E+06 -4.736024E+03  1.063449E+04
         7   7 -7.817042E+06 -7.785130E+05  4.183730E+05 -3.165984E+06 -2.071455E+04  1.610364E+04
         7   8 -8.078831E+06 -7.215874E+05  3.845824E+05 -3.085000E+06 -1.530586E+04  1.690004E+04
         7   9 -8.104168E+06 -8.870761E+05  3.500689E+05 -3.252683E+06 -7.027264E+03  9.795503E+03
         7  10 -1.098762E+07 -1.977195E+06 -4.585912E+05 -4.018193E+06 -1.278525E-09  4.240789E-10
         7  11 -1.096172E+07 -1.804985E+06 -4.112896E+05 -3.853149E+06  1.339139E-09 -2.818769E-09
         7  12 -1.069993E+07 -1.855884E+06 -3.669595E+05 -3.936855E+06 -5.345349E-09  2.267290E-09
         7  13 -9.403549E+06 -1.377922E+06 -1.999239E+04 -3.592586E+06  4.476730E-09  6.691402E-11
         7  14 -9.521282E+06 -1.263340E+06 -1.325762E+04 -3.469482E+06 -1.593297E-09 -3.583939E-09
         7  15 -9.402865E+06 -1.371521E+06 -8.367489E+03 -3.595096E+06  2.095781E-09  1.572280E-09
         7  16 -7.817043E+06 -7.785134E+05  4.183717E+05 -3.165983E+06  4.122818E-09  1.425471E-09
         7  17 -8.078832E+06 -7.215877E+05  3.845814E+05 -3.085000E+06 -1.507769E-09 -2.167806E-09
         7  18 -8.104168E+06 -8.870762E+05  3.500686E+05 -3.252683E+06 -1.423988E-09  6.281860E-09
         7  19 -1.098762E+07 -1.977194E+06 -4.585899E+05 -4.018193E+06  2.168695E+04 -1.575106E+04
         7  20 -1.096172E+07 -1.804984E+06 -4.112887E+05 -3.853149E+06  1.350849E+04 -1.757011E+04
         7  21 -1.069993E+07 -1.855884E+06 -3.669592E+05 -3.936855E+06  2.450114E+03 -1.147153E+04
         7  22 -9.403548E+06 -1.377921E+06 -1.999107E+04 -3.592586E+06  2.120146E+04 -1.592708E+04
         7  23 -9.521282E+06 -1.263339E+06 -1.325667E+04 -3.469482E+06  1.440602E+04 -1.723550E+04
         7  24 -9.402865E+06 -1.371521E+06 -8.367235E+03 -3.595096E+06  4.736024E+03 -1.063449E+04
         7  25 -7.817042E+06 -7.785130E+05  4.183730E+05 -3.165984E+06  2.071455E+04 -1.610364E+04
         7  26 -8.078831E+06 -7.215874E+05  3.845824E+05 -3.085000E+06  1.530586E+04 -1.690004E+04
         7  27 -8.104168E+06 -8.870761E+05  3.500689E+05 -3.252683E+06  7.027264E+03 -9.795503E+03
         8   1 -9.259429E+06 -1.355550E+06  2.433978E+04 -3.596623E+06  8.463868E+02  4.764984E+03
         8   2 -9.200323E+06 -1.097897E+06  8.467342E+04 -3.335870E+06  9.531140E+03 -1.941429E+03
         8   3 -8.806197E+06 -1.189177E+06  1.382339E+05 -3.473245E+06  1.754371E+04 -6.760338E+03
         8   4 -9.380504E+06 -1.400247E+06 -9.635282E+03 -3.627856E+06 -8.679161E+02  4.140101E+03
         8   5 -9.548278E+06 -1.228009E+06 -1.123708E+04 -3.427930E+06  8.148392E+03 -2.447094E+03
         8   6 -9.381142E+06 -1.404791E+06 -1.987637E+04 -3.626166E+06  1.649005E+04 -7.146924E+03
         8   7 -9.501565E+06 -1.444945E+06 -4.361168E+04 -3.659085E+06 -2.581844E+03  3.515350E+03
         8   8 -9.896117E+06 -1.358115E+06 -1.071588E+05 -3.519942E+06  6.766505E+03 -2.952443E+03
         8   9 -9.955766E+06 -1.620388E+06 -1.780173E+05 -3.778958E+06  1.543746E+04 -7.533112E+03
         8  10 -9.259429E+06 -1.355550E+06  2.433973E+04 -3.596623E+06  4.719972E-09  3.238443E-09
         8  11 -9.200323E+06 -1.097897E+06  8.467324E+04 -3.335870E+06  1.102284E-09  2.358259E-09
         8  12 -8.806197E+06 -1.189178E+06  1.382332E+05 -3.473245E+06  1.422641E-09  1.568226E-10
         8  13 -9.380504E+06 -1.400247E+06 -9.635316E+03 -3.627856E+06  5.844774E-10  3.437291E-09
         8  14 -9.548279E+06 -1.228009E+06 -1.123722E+04 -3.427930E+06 -2.564391E-09 -3.166659E-09
         8  15 -9.381142E+06 -1.404791E+06 -1.987698E+04 -3.626166E+06 -2.357231E-09 -1.472892E-09
         8  16 -9.501565E+06 -1.444945E+06 -4.361172E+04 -3.659085E+06 -4.221378E-09  2.510129E-09
         8  17 -9.896117E+06 -1.358116E+06 -1.071589E+05 -3.519942E+06 -1.846253E-09  2.362404E-09
         8  18 -9.955767E+06 -1.620388E+06 -1.780178E+05 -3.778958E+06 -4.926711E-09  1.912973E-09
         8  19 -9.259429E+06 -1.355550E+06  2.433978E+04 -3.596623E+06 -8.463868E+02 -4.764984E+03
         8  20 -9.200323E+06 -1.097897E+06  8.467342E+04 -3.335870E+06 -9.531140E+03  1.941429E+03
         8  21 -8.806197E+06 -1.189177E+06  1.382339E+05 -3.473245E+06 -1.754371E+04  6.760338E+03
         8  22 -9.380504E+06 -1.400247E+06 -9.635282E+03 -3.627856E+06  8.679161E+02 -4.140101E+03
         8  23 -9.548278E+06 -1.228009E+06 -1.123708E+04 -3.427930E+06 -8.148392E+03  2.447094E+03
         8  24 -9.381142E+06 -1.404791E+06 -1.987637E+04 -3.626166E+06 -1.649005E+04  7.146924E+03
         8  25 -9.501565E+06 -1.444945E+06 -4.361168E+04 -3.659085E+06  2.581844E+03 -3.515350E+03
         8  26 -9.896117E+06 -1.358115E+06 -1.071588E+05 -3.519942E+06 -6.766505E+03  2.952443E+03
         8  27 -9.955766E+06 -1.620388E+06 -1.780173E+05 -3.778958E+06 -1.543746E+04  7.533112E+03
         9   1 -7.721500E+06 -7.075938E+05  4.480971E+05 -3.114421E+06  2.394997E+04 -1.065202E+04
         9   2 -7.718045E+06 -6.213704E+05  4.463019E+05 -3.032085E+06  4.662312E+04 -1.039796E+04
         9   3 -7.594897E+06 -6.739024E+05  4.264137E+05 -3.053412E+06  6.576197E+04 -5.555128E+02
         9   4 -9.428075E+06 -1.345311E+06 -2.267834E+04 -3.565819E+06  2.179829E+04 -1.144679E+04
         9   5 -9.489817E+06 -1.290579E+06 -4.304542E+04 -3.508405E+06  4.611885E+04 -1.059104E+04
         9   6 -9.432283E+06 -1.375072E+06 -8.288417E+04 -3.554677E+06  6.689772E+04 -1.350167E+02
         9   7 -1.113183E+07 -1.982885E+06 -4.937232E+05 -4.016087E+06  1.965315E+04 -1.223919E+04
         9   8 -1.125854E+07 -1.959617E+06 -5.326840E+05 -3.983482E+06  4.561603E+04 -1.078358E+04
         9   9 -1.126639E+07 -2.076042E+06 -5.924971E+05 -4.054581E+06  6.802947E+04  2.839482E+02
         9  10 -7.721501E+06 -7.075940E+05  4.480958E+05 -3.114420E+06 -3.109620E-09 -1.180664E-09
         9  11 -7.718047E+06 -6.213711E+05  4.462976E+05 -3.032084E+06 -7.160734E-09 -7.380723E-09
         9  12 -7.594901E+06 -6.739036E+05  4.264055E+05 -3.053412E+06  5.485577E-10 -4.673664E-09
         9  13 -9.428075E+06 -1.345311E+06 -2.267948E+04 -3.565818E+06 -4.307460E-09 -1.361963E-09
         9  14 -9.489819E+06 -1.290580E+06 -4.304968E+04 -3.508405E+06 -6.361642E-09 -7.017501E-09
         9  15 -9.432288E+06 -1.375073E+06 -8.289271E+04 -3.554677E+06 -2.208155E-09 -2.286389E-09
         9  16 -1.113183E+07 -1.982886E+06 -4.937243E+05 -4.016087E+06 -6.223802E-09  3.131040E-09
         9  17 -1.125854E+07 -1.959618E+06 -5.326882E+05 -3.983482E+06  8.705519E-10 -5.816223E-09
         9  18 -1.126640E+07 -2.076044E+06 -5.925060E+05 -4.054582E+06 -6.948705E-09  3.018594E-09
         9  19 -7.721500E+06 -7.075938E+05  4.480971E+05 -3.114421E+06 -2.394997E+04  1.065202E+04
         9  20 -7.718045E+06 -6.213704E+05  4.463019E+05 -3.032085E+06 -4.662312E+04  1.039796E+04
         9  21 -7.594897E+06 -6.739024E+05  4.264137E+05 -3.053412E+06 -6.576197E+04  5.555128E+02
         9  22 -9.428075E+06 -1.345311E+06 -2.267834E+04 -3.565819E+06 -2.179829E+04  1.144679E+04
         9  23 -9.489817E+06 -1.290579E+06 -4.304542E+04 -3.508405E+06 -4.611885E+04  1.059104E+04
         9  24 -9.432283E+06 -1.375072E+06 -8.288417E+04 -3.554677E+06 -6.689772E+04  1.350167E+02
         9  25 -1.113183E+07 -1.982885E+06 -4.937232E+05 -4.016087E+06 -1.965315E+04  1.223919E+04
         9  26 -1.125854E+07 -1.959617E+06 -5.326840E+05 -3.983482E+06 -4.561603E+04  1.078358E+04
         9  27 -1.126639E+07 -2.076042E+06 -5.924971E+05 -4.054581E+06 -6.802947E+04 -2.839482E+02
        10   1 -8.011349E+06 -7.022690E+05  3.113012E+05 -3.084945E+06  8.153157E+04  7.725103E+03
        10   2 -8.027296E+06 -8.301490E+05  1.956070E+05 -3.252709E+06  1.731486E+05  4.498757E+04
        10   3 -8.387640E+06 -9.833686E+05 -6.060857E+04 -3.067868E+06  2.623719E+05  8.836114E+04
        10   4 -9.522771E+06 -1.266697E+06 -1.049853E+05 -3.484635E+06  8.127635E+04  7.626526E+03
        10   5 -9.364954E+06 -1.348139E+06 -1.765250E+05 -3.625183E+06  1.737879E+05  4.522568E+04
        10   6 -9.552002E+06 -1.455437E+06 -3.895227E+05 -3.413022E+06  2.639319E+05  8.894559E+04
        10   7 -1.103198E+07 -1.831017E+06 -5.214831E+05 -3.883443E+06  8.102161E+04  7.528113E+03
        10   8 -1.070087E+07 -1.866011E+06 -5.488257E+05 -3.996917E+06  1.744252E+05  4.546302E+04
        10   9 -1.071504E+07 -1.927379E+06 -7.185681E+05 -3.757567E+06  2.654881E+05  8.952844E+04
        10  10 -8.011356E+06 -7.022708E+05  3.112884E+05 -3.084946E+06 -3.046302E-09 -2.736371E-11
        10  11 -8.027329E+06 -8.301594E+05  1.955460E+05 -3.252715E+06 -5.924830E-10 -3.620395E-09
        10  12 -8.387717E+06 -9.833960E+05 -6.075484E+04 -3.067887E+06  1.477467E-09 -1.695680E-09
        10  13 -9.522778E+06 -1.266699E+06 -1.049980E+05 -3.484635E+06  4.140812E-09 -1.250654E-09
        10  14 -9.364988E+06 -1.348149E+06 -1.765866E+05 -3.625189E+06 -5.163915E-09 -6.697575E-10
        10  15 -9.552080E+06 -1.455464E+06 -3.896711E+05 -3.413042E+06 -1.690317E-09 -4.067122E-09
        10  16 -1.103198E+07 -1.831019E+06 -5.214958E+05 -3.883444E+06  2.447122E-10 -7.179590E-10
        10  17 -1.070091E+07 -1.866021E+06 -5.488880E+05 -3.996923E+06 -5.427920E-11  4.372262E-09
        10  18 -1.071512E+07 -1.927408E+06 -7.187185E+05 -3.757586E+06 -4.135786E-09  4.617551E-10
        10  19 -8.011349E+06 -7.022690E+05  3.113012E+05 -3.084945E+06 -8.153157E+04 -7.725103E+03
        10  20 -8.027296E+06 -8.301490E+05  1.956070E+05 -3.252709E+06 -1.731486E+05 -4.498757E+04
        10  21 -8.387640E+06 -9.833686E+05 -6.060857E+04 -3.067868E+06 -2.623719E+05 -8.836114E+04
        10  22 -9.522771E+06 -1.266697E+06 -1.049853E+05 -3.484635E+06 -8.127635E+04 -7.626526E+03
        10  23 -9.364954E+06 -1.348139E+06 -1.765250E+05 -3.625183E+06 -1.737879E+05 -4.522568E+04
        10  24 -9.552002E+06 -1.455437E+06 -3.895227E+05 -3.413022E+06 -2.639319E+05 -8.894559E+04
        10  25 -1.103198E+07 -1.831017E+06 -5.214831E+05 -3.883443E+06 -8.102161E+04 -7.528113E+03
        10  26 -1.070087E+07 -1.866011E+06 -5.488257E+05 -3.996917E+06 -1.744252E+05 -4.546302E+04
        10  27 -1.071504E+07 -1.927379E+06 -7.185681E+05 -3.757567E+06 -2.654881E+05 -8.952844E+04
        11   1 -9.838367E+06 -1.378440E+06 -5.472749E+05 -3.647775E+06  3.279379E+05  1.239189E+05
        11   2 -9.693598E+06 -1.270857E+06 -8.833859E+05 -3.801636E+06  7.399688E+05  2.930614E+05
        11   3 -1.064869E+07 -2.666329E+06 -2.040300E+06 -3.086006E+06  1.157582E+06  4.472560E+05
        11   4 -9.635035E+06 -1.220811E+06 -4.741313E+05 -3.512485E+06  3.311010E+05  1.251866E+05
        11   5 -9.183026E+06 -1.115498E+06 -7.499313E+05 -3.702090E+06  7.408253E+05  2.933267E+05
        11   6 -9.829775E+06 -2.511795E+06 -1.843999E+06 -3.022263E+06  1.156364E+06  4.464113E+05
        11   7 -9.431647E+06 -1.063126E+06 -4.009901E+05 -3.377141E+06  3.342652E+05  1.264557E+05
        11   8 -8.672199E+06 -9.601426E+05 -6.164975E+05 -3.602480E+06  7.416823E+05  2.935920E+05
        11   9 -9.010165E+06 -2.357269E+06 -1.647729E+06 -2.958500E+06  1.155144E+06  4.455667E+05
        11  10 -9.838488E+06 -1.378486E+06 -5.475102E+05 -3.647808E+06  3.525441E-09 -5.019641E-09
        11  11 -9.694218E+06 -1.271101E+06 -8.845983E+05 -3.801813E+06  6.933173E-09  1.272190E-09
        11  12 -1.065020E+07 -2.666915E+06 -2.043249E+06 -3.086428E+06  1.271744E-09  8.197687E-10
        11  13 -9.635159E+06 -1.220859E+06 -4.743710E+05 -3.512519E+06  3.940762E-09  7.062020E-10
        11  14 -9.183647E+06 -1.115742E+06 -7.511455E+05 -3.702267E+06 -3.425666E-09  8.726671E-09
        11  15 -9.831286E+06 -2.512378E+06 -1.846937E+06 -3.022683E+06  6.212526E-09  2.573025E-09
        11  16 -9.431773E+06 -1.063174E+06 -4.012343E+05 -3.377176E+06 -4.266042E-09  1.750866E-09
        11  17 -8.672821E+06 -9.603871E+05 -6.177134E+05 -3.602657E+06 -7.433092E-09  7.522750E-09
        11  18 -9.011671E+06 -2.357850E+06 -1.650657E+06 -2.958918E+06  2.058825E-10  1.625623E-09
        11  19 -9.838367E+06 -1.378440E+06 -5.472749E+05 -3.647775E+06 -3.279379E+05 -1.239189E+05
        11  20 -9.693598E+06 -1.270857E+06 -8.833859E+05 -3.801636E+06 -7.399688E+05 -2.930614E+05
        11  21 -1.064869E+07 -2.666329E+06 -2.040300E+06 -3.086006E+06 -1.157582E+06 -4.472560E+05
        11  22 -9.635035E+06 -1.220811E+06 -4.741313E+05 -3.512485E+06 -3.311010E+05 -1.251866E+05
        11  23 -9.183026E+06 -1.115498E+06 -7.499313E+05 -3.702090E+06 -7.408253E+05 -2.933267E+05
        11  24 -9.829775E+06 -2.511795E+06 -1.843999E+06 -3.022263E+06 -1.156364E+06 -4.464113E+05
        11  25 -9.431647E+06 -1.063126E+06 -4.009901E+05 -3.377141E+06 -3.342652E+05 -1.264557E+05
        11  26 -8.672199E+06 -9.601426E+05 -6.164975E+05 -3.602480E+06 -7.416823E+05 -2.935920E+05
        11  27 -9.010165E+06 -2.357269E+06 -1.647729E+06 -2.958500E+06 -1.155144E+06 -4.455667E+05
        12   1  7.544480E+03 -2.877365E+06  1.732746E+03 -2.948919E+03  4.479866E+01  5.733535E+02
        12   2  9.057148E+03 -2.877321E+06  5.022090E+02  3.717501E+03  5.943026E+01  4.343622E+03
        12   3  3.420663E+03 -2.879091E+06 -4.884762E+03 -3.089826E+03 -4.217619E+00  8.113879E+03
        12   4 -5.368229E+02 -2.909587E+06 -6.348026E+03 -2.993085E+03  4.479893E+01  5.720371E+02
        12   5  1.191504E+03 -2.908683E+06 -7.362672E+03  3.741882E+03  5.943034E+01  4.344010E+03
        12   6 -4.229824E+03 -2.909594E+06 -1.253508E+04 -2.996941E+03 -4.218595E+00  8.115976E+03
        12   7 -8.618205E+03 -2.941809E+06 -1.442888E+04 -3.037248E+03  4.479920E+01  5.707207E+02
        12   8 -6.674214E+03 -2.940045E+06 -1.522763E+04  3.766261E+03  5.943042E+01  4.344397E+03
        12   9 -1.188038E+04 -2.940097E+06 -2.018547E+04 -2.904061E+03 -4.219570E+00  8.118072E+03
        12  10  7.544480E+03 -2.877365E+06  1.732746E+03 -2.948919E+03 -4.865175E-10  1.498069E-10
        12  11  9.057143E+03 -2.877321E+06  5.021733E+02  3.717501E+03 -4.741663E-09  3.036722E-10
        12  12  3.420645E+03 -2.879091E+06 -4.884886E+03 -3.089826E+03  8.568527E-09 -2.993467E-10
        12  13 -5.368230E+02 -2.909587E+06 -6.348027E+03 -2.993085E+03 -7.006863E-09  1.515756E-11
        12  14  1.191499E+03 -2.908683E+06 -7.362707E+03  3.741881E+03 -4.976362E-09 -1.206043E-10
        12  15 -4.229841E+03 -2.909594E+06 -1.253521E+04 -2.996941E+03  4.351908E-09 -2.770364E-10
        12  16 -8.618205E+03 -2.941809E+06 -1.442888E+04 -3.037248E+03 -6.984959E-09 -1.654366E-10
        12  17 -6.674219E+03 -2.940045E+06 -1.522766E+04  3.766261E+03  4.885033E-09  3.969658E-10
        12  18 -1.188040E+04 -2.940097E+06 -2.018560E+04 -2.904061E+03  6.270466E-09  5.681103E-11
        12  19  7.544480E+03 -2.877365E+06  1.732746E+03 -2.948919E+03 -4.479866E+01 -5.733535E+02
        12  20  9.057148E+03 -2.877321E+06  5.022090E+02  3.717501E+03 -5.943026E+01 -4.343622E+03
        12  21  3.420663E+03 -2.879091E+06 -4.884762E+03 -3.089826E+03  4.217619E+00 -8.113879E+03
        12  22 -5.368229E+02 -2.909587E+06 -6.348026E+03 -2.993085E+03 -4.479893E+01 -5.720371E+02
        12  23  1.191504E+03 -2.908683E+06 -7.362672E+03  3.741882E+03 -5.943034E+01 -4.344010E+03
        12  24 -4.229824E+03 -2.909594E+06 -1.253508E+04 -2.996941E+03  4.218595E+00 -8.115976E+03
        12  25 -8.618205E+03 -2.941809E+06 -1.442888E+04 -3.037248E+03 -4.479920E+01 -5.707207E+02
        12  26 -6.674214E+03 -2.940045E+06 -1.522763E+04  3.766261E+03 -5.943042E+01 -4.344397E+03
        12  27 -1.188038E+04 -2.940097E+06 -2.018547E+04 -2.904061E+03  4.219570E+00 -8.118072E+03
        13   1 -2.706520E+04 -3.021793E+06 -4.279395E+04  4.841506E+03 -1.203651E+02  1.055030E+04
        13   2 -2.139983E+04 -3.017956E+06 -5.139803E+04 -5.864899E+03 -2.033555E+02  2.295676E+04
        13   3 -5.295518E+04 -3.019108E+06 -7.621879E+04  4.026400E+03  4.064160E+01  3.536289E+04
        13   4  8.995722E+02 -2.910302E+06 -1.483073E+04  4.560811E+03 -1.203719E+02  1.055731E+04
        13   5  6.234869E+03 -2.907779E+06 -2.376596E+04 -5.701934E+03 -2.033485E+02  2.295788E+04
        13   6 -2.564550E+04 -2.910241E+06 -4.891158E+04  4.632797E+03  4.065600E+01  3.535810E+04
        13   7  2.886340E+04 -2.798800E+06  1.313153E+04  4.280067E+03 -1.203788E+02  1.056432E+04
        13   8  3.386865E+04 -2.797590E+06  3.865183E+03 -5.538942E+03 -2.033415E+02  2.295900E+04
        13   9  1.663278E+03 -2.801363E+06 -2.160527E+04  5.239295E+03  4.067038E+01  3.535331E+04
        13  10 -2.706523E+04 -3.021793E+06 -4.279416E+04  4.841507E+03  1.035962E-08 -5.587012E-10
        13  11 -2.139997E+04 -3.017956E+06 -5.139902E+04 -5.864895E+03 -1.109384E-08 -2.752624E-10
        13  12 -5.295552E+04 -3.019109E+06 -7.622116E+04  4.026399E+03 -3.404738E-09  7.249496E-10
        13  13  8.995421E+02 -2.910302E+06 -1.483094E+04  4.560812E+03  3.874642E-09 -1.663477E-10
        13  14  6.234727E+03 -2.907779E+06 -2.376696E+04 -5.701930E+03 -7.105714E-09  4.431782E-10
        13  15 -2.564584E+04 -2.910242E+06 -4.891394E+04  4.632796E+03  9.746731E-11  7.648190E-10
        13  16  2.886337E+04 -2.798800E+06  1.313132E+04  4.280068E+03 -5.840279E-09  6.136178E-10
        13  17  3.386851E+04 -2.797591E+06  3.864188E+03 -5.538938E+03 -4.115943E-09 -4.474779E-10
        13  18  1.662941E+03 -2.801364E+06 -2.160762E+04  5.239294E+03  1.263270E-10 -3.538752E-10
        13  19 -2.706520E+04 -3.021793E+06 -4.279395E+04  4.841506E+03  1.203651E+02 -1.055030E+04
        13  20 -2.139983E+04 -3.017956E+06 -5.139803E+04 -5.864899E+03  2.033555E+02 -2.295676E+04
        13  21 -5.295518E+04 -3.019108E+06 -7.621879E+04  4.026400E+03 -4.064160E+01 -3.536289E+04
        13  22  8.995722E+02 -2.910302E+06 -1.483073E+04  4.560811E+03  1.203719E+02 -1.055731E+04
        13  23  6.234869E+03 -2.907779E+06 -2.376596E+04 -5.701934E+03  2.033485E+02 -2.295788E+04
        13  24 -2.564550E+04 -2.910241E+06 -4.891158E+04  4.632797E+03 -4.065600E+01 -3.535810E+04
        13  25  2.886340E+04 -2.798800E+06  1.313153E+04  4.280067E+03  1.203788E+02 -1.056432E+04
        13  26  3.386865E+04 -2.797590E+06  3.865183E+03 -5.538942E+03  2.033415E+02 -2.295900E+04
        13  27  1.663278E+03 -2.801363E+06 -2.160527E+04  5.239295E+03 -4.067038E+01 -3.535331E+04
        14   1  6.858246E+04 -2.667000E+06  5.074847E+03 -6.978309E+03  3.132027E+02  4.482657E+04
        14   2  9.989059E+04 -2.652996E+06 -2.939104E+04  9.948333E+03  3.364340E+02  9.408324E+04
        14   3 -9.649849E+04 -2.672462E+06 -1.469301E+05 -1.293954E+04 -4.789217E+02  1.433398E+05
        14   4  6.014471E+03 -2.916480E+06 -5.748674E+04 -8.656089E+03  3.130749E+02  4.480559E+04
        14   5  3.796062E+04 -2.899955E+06 -9.131596E+04  1.088684E+04  3.365741E+02  9.406512E+04
        14   6 -1.578443E+05 -2.916931E+06 -2.082460E+05 -9.385888E+03 -4.782201E+02  1.433248E+05
        14   7 -5.655824E+04 -3.165902E+06 -1.200531E+05 -1.033322E+04  3.129471E+02  4.478462E+04
        14   8 -2.397398E+04 -3.146858E+06 -1.532455E+05  1.182498E+04  3.367141E+02  9.404700E+04
        14   9 -2.191947E+05 -3.161345E+06 -2.695664E+05 -5.833572E+03 -4.775185E+02  1.433097E+05
        14  10  6.858192E+04 -2.667003E+06  5.071054E+03 -6.978321E+03  3.562995E-09  2.904997E-10
        14  11  9.988820E+04 -2.653006E+06 -2.940774E+04  9.948307E+03 -6.186291E-09  5.652159E-10
        14  12 -9.650403E+04 -2.672484E+06 -1.469689E+05 -1.293949E+04 -2.584370E-09 -4.441088E-10
        14  13  6.013929E+03 -2.916482E+06 -5.749053E+04 -8.656101E+03  2.156681E-09  5.760263E-10
        14  14  3.795823E+04 -2.899964E+06 -9.133266E+04  1.088681E+04 -1.094019E-10 -3.241737E-10
        14  15 -1.578499E+05 -2.916953E+06 -2.082848E+05 -9.385832E+03 -5.250076E-09 -1.571001E-09
        14  16 -5.655878E+04 -3.165904E+06 -1.200569E+05 -1.033323E+04  6.675039E-09  1.989440E-11
        14  17 -2.397637E+04 -3.146867E+06 -1.532622E+05  1.182496E+04 -1.349822E-09  1.318593E-09
        14  18 -2.192002E+05 -3.161367E+06 -2.696052E+05 -5.833517E+03  3.748772E-09 -4.391252E-10
        14  19  6.858246E+04 -2.667000E+06  5.074847E+03 -6.978309E+03 -3.132027E+02 -4.482657E+04
        14  20  9.989059E+04 -2.652996E+06 -2.939104E+04  9.948333E+03 -3.364340E+02 -9.408324E+04
        14  21 -9.649849E+04 -2.672462E+06 -1.469301E+05 -1.293954E+04  4.789217E+02 -1.433398E+05
        14  22  6.014471E+03 -2.916480E+06 -5.748674E+04 -8.656089E+03 -3.130749E+02 -4.480559E+04
        14  23  3.796062E+04 -2.899955E+06 -9.131596E+04  1.088684E+04 -3.365741E+02 -9.406512E+04
        14  24 -1.578443E+05 -2.916931E+06 -2.082460E+05 -9.385888E+03  4.782201E+02 -1.433248E+05
        14  25 -5.655824E+04 -3.165902E+06 -1.200531E+05 -1.033322E+04 -3.129471E+02 -4.478462E+04
        14  26 -2.397398E+04 -3.146858E+06 -1.532455E+05  1.182498E+04 -3.367141E+02 -9.404700E+04
        14  27 -2.191947E+05 -3.161345E+06 -2.695664E+05 -5.833572E+03  4.775185E+02 -1.433097E+05
        15   1  2.211900E+05 -5.843881E+05  2.129194E+05 -4.628000E+02  3.053349E+04 -2.473093E+01
        15   2  2.205252E+05 -5.872494E+05  2.123262E+05  4.740673E+01  3.047048E+04 -3.108414E+02
        15   3  2.200949E+05 -5.892724E+05  2.121360E+05 -1.125187E+03  3.024072E+04 -5.972865E+02
        15   4 -1.307866E+02 -1.477462E+06  3.770892E+02 -3.740217E+02  3.053644E+04 -3.589535E+01
        15   5 -1.874741E+02 -1.477872E+06  3.740665E+02  4.675397E+02  3.047336E+04 -2.297394E+02
        15   6 -2.594873E+01 -1.477461E+06  7.100321E+02 -3.738382E+02  3.024342E+04 -4.239179E+02
        15   7 -2.215092E+05 -2.369802E+06 -2.122211E+05 -2.853455E+02  3.053939E+04 -4.704373E+01
        15   8 -2.209574E+05 -2.367766E+06 -2.116337E+05  8.871808E+02  3.047624E+04 -1.487531E+02
        15   9 -2.202038E+05 -2.364924E+06 -2.107712E+05  3.766319E+02  3.024613E+04 -2.507960E+02
        15  10  2.211890E+05 -5.843883E+05  2.129177E+05 -4.627994E+02  1.519821E-09  4.334080E-09
        15  11  2.205242E+05 -5.872497E+05  2.123245E+05  4.741435E+01 -2.680524E-09  3.271425E-09
        15  12  2.200939E+05 -5.892726E+05  2.121342E+05 -1.125173E+03 -4.013608E-09 -3.458749E-10
        15  13 -1.317872E+02 -1.477462E+06  3.753381E+02 -3.740208E+02 -5.536968E-10  5.456819E-11
        15  14 -1.884706E+02 -1.477873E+06  3.723225E+02  4.675454E+02  6.404405E-09 -3.638598E-10
        15  15 -2.693028E+01 -1.477461E+06  7.083141E+02 -3.738279E+02  2.789051E-09 -7.691985E-11
        15  16 -2.215102E+05 -2.369803E+06 -2.122229E+05 -2.853444E+02  1.611292E-09 -4.315130E-09
        15  17 -2.209584E+05 -2.367766E+06 -2.116354E+05  8.871844E+02  6.491392E-09 -4.279973E-09
        15  18 -2.202048E+05 -2.364924E+06 -2.107729E+05  3.766380E+02  1.542125E-10 -7.612678E-10
        15  19  2.211900E+05 -5.843881E+05  2.129194E+05 -4.628000E+02 -3.053349E+04  2.473093E+01
        15  20  2.205252E+05 -5.872494E+05  2.123262E+05  4.740673E+01 -3.047048E+04  3.108414E+02
        15  21  2.200949E+05 -5.892724E+05  2.121360E+05 -1.125187E+03 -3.024072E+04  5.972865E+02
        15  22 -1.307866E+02 -1.477462E+06  3.770892E+02 -3.740217E+02 -3.053644E+04  3.589535E+01
        15  23 -1.874741E+02 -1.477872E+06  3.740665E+02  4.675397E+02 -3.047336E+04  2.297394E+02
        15  24 -2.594873E+01 -1.477461E+06  7.100321E+02 -3.738382E+02 -3.024342E+04  4.239179E+02
        15  25 -2.215092E+05 -2.369802E+06 -2.122211E+05 -2.853455E+02 -3.053939E+04  4.704373E+01
        15  26 -2.209574E+05 -2.367766E+06 -2.116337E+05  8.871808E+02 -3.047624E+04  1.487531E+02
        15  27 -2.202038E+05 -2.364924E+06 -2.107712E+05  3.766319E+02 -3.024613E+04  2.507960E+02
        16   1  2.184428E+05 -5.951650E+05  2.107924E+05 -2.181102E+03  3.028472E+04 -4.018437E+02
        16   2  2.165083E+05 -6.030763E+05  2.095450E+05  2.374461E+02  2.994255E+04 -1.809842E+03
        16   3  2.160816E+05 -6.097316E+05  2.097398E+05 -2.357250E+03  2.830873E+04 -3.221453E+03
        16   4 -1.840141E+02 -1.477389E+06  8.740892E+02 -1.114790E+03  3.028784E+04 -5.676335E+02
        16   5 -3.059791E+02 -1.477953E+06  1.340414E+03  1.393308E+03  2.994434E+04 -1.262089E+03
        16   6  9.565526E+02 -1.477385E+06  2.753691E+03 -1.112278E+03  2.830838E+04 -1.960172E+03
        16   7 -2.188670E+05 -2.358898E+06 -2.090988E+05 -4.975134E+01  3.029096E+04 -7.331881E+02
        16   8 -2.171756E+05 -2.352126E+06 -2.069179E+05  2.547861E+03  2.994614E+04 -7.151027E+02
        16   9 -2.142230E+05 -2.344347E+06 -2.042854E+05  1.313516E+02  2.830804E+04 -7.006461E+02
        16  10  2.184418E+05 -5.951653E+05  2.107907E+05 -2.181092E+03 -6.639925E-10 -5.919617E-09
        16  11  2.165073E+05 -6.030766E+05  2.095433E+05  2.374898E+02  2.738076E-09 -7.431470E-10
        16  12  2.160808E+05 -6.097318E+05  2.097383E+05 -2.357177E+03  3.282842E-09  3.738244E-09
        16  13 -1.849985E+02 -1.477389E+06  8.723659E+02 -1.114776E+03  2.776729E-09  1.380915E-10
        16  14 -3.069417E+02 -1.477953E+06  1.338727E+03  1.393339E+03 -1.314222E-08 -9.313506E-10
        16  15  9.556917E+02 -1.477386E+06  2.752179E+03 -1.112233E+03  1.735525E-09 -1.129575E-10
        16  16 -2.188680E+05 -2.358898E+06 -2.091005E+05 -4.973344E+01  3.621630E-10  4.803739E-09
        16  17 -2.171765E+05 -2.352127E+06 -2.069195E+05  2.547878E+03 -1.764984E-09 -2.423393E-09
        16  18 -2.142239E+05 -2.344347E+06 -2.042869E+05  1.313676E+02 -4.617683E-10 -5.455711E-09
        16  19  2.184428E+05 -5.951650E+05  2.107924E+05 -2.181102E+03 -3.028472E+04  4.018437E+02
        16  20  2.165083E+05 -6.030763E+05  2.095450E+05  2.374461E+02 -2.994255E+04  1.809842E+03
        16  21  2.160816E+05 -6.097316E+05  2.097398E+05 -2.357250E+03 -2.830873E+04  3.221453E+03
        16  22 -1.840141E+02 -1.477389E+06  8.740892E+02 -1.114790E+03 -3.028784E+04  5.676335E+02
        16  23 -3.059791E+02 -1.477953E+06  1.340414E+03  1.393308E+03 -2.994434E+04  1.262089E+03
        16  24  9.565526E+02 -1.477385E+06  2.753691E+03 -1.112278E+03 -2.830838E+04  1.960172E+03
        16  25 -2.188670E+05 -2.358898E+06 -2.090988E+05 -4.975134E+01 -3.029096E+04  7.331881E+02
        16  26 -2.171756E+05 -2.352126E+06 -2.069179E+05  2.547861E+03 -2.994614E+04  7.151027E+02
        16  27 -2.142230E+05 -2.344347E+06 -2.042854E+05  1.313516E+02 -2.830804E+04  7.006461E+02
        17   1  2.113681E+05 -6.207202E+05  2.066019E+05 -5.112292E+03  3.053911E+04  1.677797E+03
        17   2  2.074451E+05 -6.355323E+05  2.058942E+05  1.555350E+03  2.900214E+04 -1.122953E+04
        17   3  2.184150E+05 -6.443378E+05  2.174455E+05 -4.646866E+02  9.265746E+03 -2.420326E+04
        17   4 -6.846733E+02 -1.476686E+06  3.343093E+03 -1.941865E+03  3.055295E+04 -2.472423E+03
        17   5 -1.531631E+03 -1.478811E+06  5.245194E+03  2.421675E+03  2.898645E+04 -5.335287E+03
        17   6  1.077825E+04 -1.476673E+06  1.242873E+04 -1.903377E+03  9.209606E+03 -8.264864E+03
        17   7 -2.127902E+05 -2.331977E+06 -1.999668E+05  1.224609E+03  3.056676E+04 -6.616943E+03
        17   8 -2.105597E+05 -2.321437E+06 -1.954535E+05  3.287320E+03  2.897077E+04  5.509850E+02
        17   9 -1.969101E+05 -2.308376E+06 -1.926383E+05 -3.339570E+03  9.153355E+03  7.652184E+03
        17  10  2.113671E+05 -6.207204E+05  2.066001E+05 -5.112334E+03 -1.922514E-09 -4.929499E-09
        17  11  2.074442E+05 -6.355326E+05  2.058924E+05  1.555612E+03 -3.228423E-10 -4.651928E-09
        17  12  2.184148E+05 -6.443384E+05  2.174442E+05 -4.645060E+02  3.992800E-09 -1.197668E-09
        17  13 -6.856767E+02 -1.476686E+06  3.341329E+03 -1.941804E+03 -4.132742E-09 -5.581086E-11
        17  14 -1.532540E+03 -1.478812E+06  5.243563E+03  2.421799E+03  6.881943E-09 -1.668849E-09
        17  15  1.077814E+04 -1.476673E+06  1.242845E+04 -1.903315E+03  9.341940E-09 -2.224832E-10
        17  16 -2.127912E+05 -2.331977E+06 -1.999687E+05  1.224772E+03  2.121037E-09  2.849189E-09
        17  17 -2.105606E+05 -2.321437E+06 -1.954551E+05  3.287307E+03  5.623969E-09 -4.385821E-10
        17  18 -1.969102E+05 -2.308376E+06 -1.926386E+05 -3.339627E+03  2.231933E-09 -1.772882E-09
        17  19  2.113681E+05 -6.207202E+05  2.066019E+05 -5.112292E+03 -3.053911E+04 -1.677797E+03
        17  20  2.074451E+05 -6.355323E+05  2.058942E+05  1.555350E+03 -2.900214E+04  1.122953E+04
        17  21  2.184150E+05 -6.443378E+05  2.174455E+05 -4.646866E+02 -9.265746E+03  2.420326E+04
        17  22 -6.846733E+02 -1.476686E+06  3.343093E+03 -1.941865E+03 -3.055295E+04  2.472423E+03
        17  23 -1.531631E+03 -1.478811E+06  5.245194E+03  2.421675E+03 -2.898645E+04  5.335287E+03
        17  24  1.077825E+04 -1.476673E+06  1.242873E+04 -1.903377E+03 -9.209606E+03  8.264864E+03
        17  25 -2.127902E+05 -2.331977E+06 -1.999668E+05  1.224609E+03 -3.056676E+04  6.616943E+03
        17  26 -2.105597E+05 -2.321437E+06 -1.954535E+05  3.287320E+03 -2.897077E+04 -5.509850E+02
        17  27 -1.969101E+05 -2.308376E+06 -1.926383E+05 -3.339570E+03 -9.153355E+03 -7.652184E+03
        18   1  8.509861E+04  9.348961E+05  4.780327E+04 -3.670799E+00  2.987130E+04  2.114196E-01
        18   2  8.510344E+04  9.349180E+05  4.781091E+04 -2.139426E+01  2.987243E+04 -5.245939E+00
        18   3  8.510934E+04  9.349486E+05  4.782482E+04 -3.627143E+01  2.987470E+04 -1.070300E+01
        18   4 -2.894681E+01  5.567160E+05  1.456998E+01  6.327755E-01  2.987322E+04 -1.139689E+00
        18   5 -3.037754E+01  5.567114E+05  1.736276E+01 -7.901389E-01  2.987436E+04 -9.322490E+00
        18   6 -3.026354E+01  5.567160E+05  2.831842E+01  6.339060E-01  2.987662E+04 -1.750504E+01
        18   7 -8.516232E+04  1.786826E+05 -4.777458E+04  4.934095E+00  2.987515E+04 -2.490017E+00
        18   8 -8.517001E+04  1.786516E+05 -4.777664E+04  1.980302E+01  2.987628E+04 -1.339668E+01
        18   9 -8.517569E+04  1.786301E+05 -4.776864E+04  3.751956E+01  2.987855E+04 -2.430313E+01
        18  10  8.509765E+04  9.348959E+05  4.780159E+04 -3.670804E+00  2.044353E-08  2.069665E-07
        18  11  8.510248E+04  9.349178E+05  4.780923E+04 -2.139414E+01  2.858179E-09  3.904420E-08
        18  12  8.510838E+04  9.349483E+05  4.782314E+04 -3.627117E+01 -2.661931E-09 -1.308498E-07
        18  13 -2.990535E+01  5.567158E+05  1.289253E+01  6.328025E-01  1.821407E-08  4.412526E-11
        18  14 -3.133615E+01  5.567112E+05  1.568519E+01 -7.899147E-01 -4.682608E-09 -1.192486E-10
        18  15 -3.122230E+01  5.567158E+05  2.664059E+01  6.343272E-01 -1.965522E-08  1.360784E-10
        18  16 -8.516328E+04  1.786824E+05 -4.777626E+04  4.934155E+00  2.042226E-08 -2.068524E-07
        18  17 -8.517097E+04  1.786513E+05 -4.777832E+04  1.980334E+01  7.570373E-09 -3.905895E-08
        18  18 -8.517665E+04  1.786299E+05 -4.777031E+04  3.752015E+01  8.675864E-10  1.308259E-07
        18  19  8.509861E+04  9.348961E+05  4.780327E+04 -3.670799E+00 -2.987130E+04 -2.114192E-01
        18  20  8.510344E+04  9.349180E+05  4.781091E+04 -2.139426E+01 -2.987243E+04  5.245939E+00
        18  21  8.510934E+04  9.349486E+05  4.782482E+04 -3.627143E+01 -2.987470E+04  1.070300E+01
        18  22 -2.894681E+01  5.567160E+05  1.456998E+01  6.327748E-01 -2.987322E+04  1.139689E+00
        18  23 -3.037754E+01  5.567114E+05  1.736276E+01 -7.901390E-01 -2.987436E+04  9.322490E+00
        18  24 -3.026354E+01  5.567160E+05  2.831842E+01  6.339063E-01 -2.987662E+04  1.750504E+01
        18  25 -8.516232E+04  1.786826E+05 -4.777458E+04  4.934094E+00 -2.987515E+04  2.490016E+00
        18  26 -8.517001E+04  1.786516E+05 -4.777664E+04  1.980302E+01 -2.987628E+04  1.339668E+01
        18  27 -8.517569E+04  1.786301E+05 -4.776864E+04  3.751956E+01 -2.987855E+04  2.430313E+01
        19   1  8.511611E+04  9.349815E+05  4.783786E+04 -4.337056E+01  2.987675E+04 -1.369420E+01
        19   2  8.513118E+04  9.350537E+05  4.787702E+04 -6.877306E+01  2.988016E+04 -4.602228E+01
        19   3  8.514879E+04  9.351383E+05  4.794029E+04 -8.174412E+01  2.988258E+04 -7.834967E+01
        19   4 -3.092097E+01  5.567167E+05  3.648902E+01  2.764045E+00  2.987867E+04 -2.303201E+01
        19   5 -3.433275E+01  5.567106E+05  6.142856E+01 -3.451652E+00  2.988208E+04 -5.299332E+01
        19   6 -3.560504E+01  5.567166E+05  1.088517E+02  2.764520E+00  2.988451E+04 -8.295393E+01
        19   7 -8.518377E+04  1.785985E+05 -4.776533E+04  4.887405E+01  2.988060E+04 -3.236441E+01
        19   8 -8.520567E+04  1.785143E+05 -4.775461E+04  6.183460E+01  2.988400E+04 -5.996031E+01
        19   9 -8.522583E+04  1.784418E+05 -4.772305E+04  8.722745E+01  2.988643E+04 -8.755551E+01
        19  10  8.511515E+04  9.349813E+05  4.783618E+04 -4.337023E+01 -4.720977E-09  6.822107E-08
        19  11  8.513022E+04  9.350534E+05  4.787534E+04 -6.877195E+01 -3.167020E-09 -7.867216E-09
        19  12  8.514784E+04  9.351381E+05  4.793861E+04 -8.174224E+01 -1.810975E-09 -8.018890E-08
        19  13 -3.187986E+01  5.567164E+05  3.481095E+01  2.764599E+00 -1.770318E-08  1.333997E-10
        19  14 -3.529186E+01  5.567103E+05  5.975011E+01 -3.450377E+00 -1.122735E-08 -4.319105E-10
        19  15 -3.656431E+01  5.567164E+05  1.071730E+02  2.766516E+00  1.750486E-10  3.221042E-10
        19  16 -8.518473E+04  1.785983E+05 -4.776701E+04  4.887483E+01 -1.503494E-09 -6.841766E-08
        19  17 -8.520663E+04  1.785141E+05 -4.775629E+04  6.183605E+01  1.542622E-09  7.709587E-09
        19  18 -8.522679E+04  1.784416E+05 -4.772472E+04  8.722955E+01  3.598283E-10  8.027820E-08
        19  19  8.511611E+04  9.349815E+05  4.783786E+04 -4.337056E+01 -2.987675E+04  1.369420E+01
        19  20  8.513118E+04  9.350537E+05  4.787702E+04 -6.877306E+01 -2.988016E+04  4.602228E+01
        19  21  8.514879E+04  9.351383E+05  4.794029E+04 -8.174412E+01 -2.988258E+04  7.834967E+01
        19  22 -3.092097E+01  5.567167E+05  3.648902E+01  2.764044E+00 -2.987867E+04  2.303201E+01
        19  23 -3.433275E+01  5.567106E+05  6.142856E+01 -3.451652E+00 -2.988208E+04  5.299332E+01
        19  24 -3.560504E+01  5.567166E+05  1.088517E+02  2.764520E+00 -2.988451E+04  8.295393E+01
        19  25 -8.518377E+04  1.785985E+05 -4.776533E+04  4.887405E+01 -2.988060E+04  3.236441E+01
        19  26 -8.520567E+04  1.785143E+05 -4.775461E+04  6.183460E+01 -2.988400E+04  5.996031E+01
        19  27 -8.522583E+04  1.784418E+05 -4.772305E+04  8.722745E+01 -2.988643E+04  8.755551E+01
        20   1  8.516288E+04  9.352076E+05  4.798854E+04 -9.250764E+01  2.988454E+04 -9.954317E+01
        20   2  8.519199E+04  9.353211E+05  4.813584E+04 -1.263463E+02  2.987859E+04 -2.635137E+02
        20   3  8.524181E+04  9.354689E+05  4.839742E+04 -1.393575E+02  2.985574E+04 -4.274877E+02
        20   4 -3.737701E+01  5.567200E+05  1.436883E+02  4.629296E+00  2.988647E+04 -1.054055E+02
        20   5 -4.192483E+01  5.567063E+05  2.498537E+02 -5.783422E+00  2.988050E+04 -2.286783E+02
        20   6 -3.281295E+01  5.567199E+05  4.420937E+02  4.631378E+00  2.985763E+04 -3.519549E+02
        20   7 -8.524346E+04  1.783793E+05 -4.770162E+04  1.017134E+02  2.988839E+04 -1.112645E+02
        20   8 -8.528167E+04  1.782386E+05 -4.763660E+04  1.147134E+02  2.988242E+04 -1.938629E+02
        20   9 -8.531328E+04  1.781180E+05 -4.751371E+04  1.485408E+02  2.985952E+04 -2.764659E+02
        20  10  8.516192E+04  9.352073E+05  4.798686E+04 -9.250525E+01  4.078497E-09 -9.585446E-09
        20  11  8.519103E+04  9.353209E+05  4.813417E+04 -1.263400E+02  6.864540E-09 -1.386677E-08
        20  12  8.524085E+04  9.354686E+05  4.839574E+04 -1.393472E+02  2.664601E-09 -1.312251E-08
        20  13 -3.833640E+01  5.567197E+05  1.420094E+02  4.631832E+00  5.116066E-09  2.673632E-10
        20  14 -4.288386E+01  5.567061E+05  2.481753E+02 -5.777920E+00  1.281493E-08 -7.689219E-10
        20  15 -3.377052E+01  5.567196E+05  4.404178E+02  4.639840E+00  1.438464E-08  4.571055E-10
        20  16 -8.524442E+04  1.783790E+05 -4.770330E+04  1.017161E+02 -3.443047E-09  9.214347E-09
        20  17 -8.528263E+04  1.782383E+05 -4.763828E+04  1.147180E+02 -1.860092E-09  1.364350E-08
        20  18 -8.531424E+04  1.781178E+05 -4.751539E+04  1.485475E+02 -5.481505E-09  1.335185E-08
        20  19  8.516288E+04  9.352076E+05  4.798854E+04 -9.250764E+01 -2.988454E+04  9.954317E+01
        20  20  8.519199E+04  9.353211E+05  4.813584E+04 -1.263463E+02 -2.987859E+04  2.635137E+02
        20  21  8.524181E+04  9.354689E+05  4.839742E+04 -1.393575E+02 -2.985574E+04  4.274877E+02
        20  22 -3.737701E+01  5.567200E+05  1.436883E+02  4.629296E+00 -2.988647E+04  1.054055E+02
        20  23 -4.192483E+01  5.567063E+05  2.498537E+02 -5.783422E+00 -2.988050E+04  2.286783E+02
        20  24 -3.281295E+01  5.567199E+05  4.420937E+02  4.631378E+00 -2.985763E+04  3.519549E+02
        20  25 -8.524346E+04  1.783793E+05 -4.770162E+04  1.017134E+02 -2.988839E+04  1.112645E+02
        20  26 -8.528167E+04  1.782386E+05 -4.763660E+04  1.147134E+02 -2.988242E+04  1.938629E+02
        20  27 -8.531328E+04  1.781180E+05 -4.751371E+04  1.485408E+02 -2.985952E+04  2.764659E+02
        21   1 -5.628056E+06 -6.128737E+05 -7.815323E+05  2.168753E+04 -4.823829E+05 -2.498905E+03
        21   2 -5.549452E+06  5.207349E+04 -3.818693E+05 -3.124091E+04 -3.170089E+05  5.926597E+01
        21   3 -5.641054E+06 -6.123543E+04 -2.757022E+05  3.415393E+04 -1.516471E+05  6.449903E+02
        21   4 -5.327287E+06 -5.370678E+05 -7.058341E+05  3.203785E+04 -4.824843E+05 -2.506595E+03
        21   5 -5.241368E+06  1.295638E+05 -3.043810E+05 -2.859919E+04 -3.170872E+05  5.795412E+01
        21   6 -5.325548E+06  1.815022E+04 -1.963347E+05  2.908238E+04 -1.517004E+05  6.462194E+02
        21   7 -5.026436E+06 -4.612686E+05 -6.301428E+05  4.239312E+04 -4.825857E+05 -2.514285E+03
        21   8 -4.933198E+06  2.070469E+05 -2.269000E+05 -2.595619E+04 -3.171655E+05  5.664220E+01
        21   9 -5.009950E+06  9.752833E+04 -1.169747E+05  2.400829E+04 -1.517536E+05  6.474488E+02
        21  10 -5.628308E+06 -6.129369E+05 -7.819736E+05  2.168655E+04 -2.456607E-10  2.083902E-09
        21  11 -5.549560E+06  5.204621E+04 -3.820599E+05 -3.124089E+04 -2.108238E-10 -1.979865E-09
        21  12 -5.641079E+06 -6.124167E+04 -2.757458E+05  3.415401E+04 -2.090595E-09 -1.419343E-08
        21  13 -5.327539E+06 -5.371310E+05 -7.062753E+05  3.203688E+04  8.032990E-11  6.232346E-10
        21  14 -5.241477E+06  1.295365E+05 -3.045716E+05 -2.859918E+04 -2.054217E-09  1.896699E-09
        21  15 -5.325572E+06  1.814397E+04 -1.963783E+05  2.908246E+04  6.485991E-09 -2.847768E-09
        21  16 -5.026687E+06 -4.613317E+05 -6.305840E+05  4.239214E+04 -1.552653E-09 -3.166204E-09
        21  17 -4.933306E+06  2.070196E+05 -2.270905E+05 -2.595618E+04  3.364606E-09  1.395530E-09
        21  18 -5.009975E+06  9.752208E+04 -1.170184E+05  2.400837E+04  3.343444E-09  5.692500E-09
        21  19 -5.628056E+06 -6.128737E+05 -7.815323E+05  2.168753E+04  4.823829E+05  2.498905E+03
        21  20 -5.549452E+06  5.207349E+04 -3.818693E+05 -3.124091E+04  3.170089E+05 -5.926597E+01
        21  21 -5.641054E+06 -6.123543E+04 -2.757022E+05  3.415393E+04  1.516471E+05 -6.449903E+02
        21  22 -5.327287E+06 -5.370678E+05 -7.058341E+05  3.203785E+04  4.824843E+05  2.506595E+03
        21  23 -5.241368E+06  1.295638E+05 -3.043810E+05 -2.859919E+04  3.170872E+05 -5.795412E+01
        21  24 -5.325548E+06  1.815022E+04 -1.963347E+05  2.908238E+04  1.517004E+05 -6.462194E+02
        21  25 -5.026436E+06 -4.612686E+05 -6.301428E+05  4.239312E+04  4.825857E+05  2.514285E+03
        21  26 -4.933198E+06  2.070469E+05 -2.269000E+05 -2.595619E+04  3.171655E+05 -5.664220E+01
        21  27 -5.009950E+06  9.752833E+04 -1.169747E+05  2.400829E+04  1.517536E+05 -6.474488E+02
        22   1 -5.182689E+06 -5.765680E+04 -1.364506E+05 -7.558339E+03 -1.193214E+05  3.427273E+02
        22   2 -5.164790E+06  4.962943E+04 -4.932612E+04  1.456911E+04 -7.830928E+04 -1.167613E+02
        22   3 -5.177094E+06  3.236978E+04 -1.891452E+04 -4.925832E+03 -3.729573E+04 -1.162360E+02
        22   4 -5.294966E+06 -8.590226E+04 -1.646875E+05 -5.911704E+03 -1.193198E+05  3.424525E+02
        22   5 -5.279702E+06  2.073367E+04 -7.821889E+04  1.502627E+04 -7.830320E+04 -1.168148E+02
        22   6 -5.294650E+06  2.810015E+03 -4.847353E+04 -5.658627E+03 -3.728535E+04 -1.161934E+02
        22   7 -5.407231E+06 -1.141487E+05 -1.929255E+05 -4.265361E+03 -1.193182E+05  3.421775E+02
        22   8 -5.394602E+06 -8.163102E+03 -1.071127E+05  1.548336E+04 -7.829711E+04 -1.168683E+02
        22   9 -5.412192E+06 -2.675080E+04 -7.803359E+04 -6.391283E+03 -3.727497E+04 -1.161509E+02
        22  10 -5.182705E+06 -5.766066E+04 -1.364776E+05 -7.558306E+03 -4.124678E-09 -2.963769E-09
        22  11 -5.164797E+06  4.962777E+04 -4.933774E+04  1.456910E+04  5.800570E-09  3.390047E-09
        22  12 -5.177096E+06  3.236940E+04 -1.891715E+04 -4.925835E+03  6.442944E-09 -6.873952E-09
        22  13 -5.294982E+06 -8.590612E+04 -1.647145E+05 -5.911672E+03 -3.924872E-09 -3.879714E-09
        22  14 -5.279709E+06  2.073201E+04 -7.823051E+04  1.502627E+04  6.644793E-09  1.149024E-09
        22  15 -5.294651E+06  2.809638E+03 -4.847616E+04 -5.658631E+03 -4.410947E-09  5.547141E-09
        22  16 -5.407247E+06 -1.141525E+05 -1.929525E+05 -4.265328E+03  8.158058E-09 -4.078120E-09
        22  17 -5.394609E+06 -8.164765E+03 -1.071243E+05  1.548336E+04  8.665660E-09 -6.989381E-09
        22  18 -5.412194E+06 -2.675118E+04 -7.803623E+04 -6.391286E+03 -6.659778E-09  1.533387E-08
        22  19 -5.182689E+06 -5.765680E+04 -1.364506E+05 -7.558339E+03  1.193214E+05 -3.427273E+02
        22  20 -5.164790E+06  4.962943E+04 -4.932612E+04  1.456911E+04  7.830928E+04  1.167613E+02
        22  21 -5.177094E+06  3.236978E+04 -1.891452E+04 -4.925832E+03  3.729573E+04  1.162360E+02
        22  22 -5.294966E+06 -8.590226E+04 -1.646875E+05 -5.911704E+03  1.193198E+05 -3.424525E+02
        22  23 -5.279702E+06  2.073367E+04 -7.821889E+04  1.502627E+04  7.830320E+04  1.168148E+02
        22  24 -5.294650E+06  2.810015E+03 -4.847353E+04 -5.658627E+03  3.728535E+04  1.161934E+02
        22  25 -5.407231E+06 -1.141487E+05 -1.929255E+05 -4.265361E+03  1.193182E+05 -3.421775E+02
        22  26 -5.394602E+06 -8.163102E+03 -1.071127E+05  1.548336E+04  7.829711E+04  1.168683E+02
        22  27 -5.412192E+06 -2.675080E+04 -7.803359E+04 -6.391283E+03  3.727497E+04  1.161509E+02
        23   1 -5.332552E+06 -2.455645E+04 -5.018318E+04  6.583559E+03 -2.939357E+04  1.318893E+01
        23   2 -5.330779E+06 -7.820724E+03 -3.124493E+04 -6.045925E+02 -1.908613E+04  9.521492E+01
        23   3 -5.334365E+06 -1.100489E+04 -2.384189E+04  6.947423E+03 -8.778799E+03  5.233908E+01
        23   4 -5.289198E+06 -1.365360E+04 -3.928055E+04  6.798007E+03 -2.939162E+04  1.317936E+01
        23   5 -5.286487E+06  3.317530E+03 -2.010765E+04 -5.733419E+02 -1.908652E+04  9.521332E+01
        23   6 -5.289135E+06  3.699784E+02 -1.246776E+04  6.795415E+03 -8.781521E+03  5.234309E+01
        23   7 -5.245842E+06 -2.750897E+03 -2.837807E+04  7.012470E+03 -2.938966E+04  1.316980E+01
        23   8 -5.242193E+06  1.445563E+04 -8.970514E+03 -5.420888E+02 -1.908691E+04  9.521173E+01
        23   9 -5.243902E+06  1.174469E+04 -1.093785E+03  6.643396E+03 -8.784243E+03  5.234710E+01
        23  10 -5.332553E+06 -2.455669E+04 -5.018482E+04  6.583560E+03  5.552893E-09  1.670834E-08
        23  11 -5.330779E+06 -7.820823E+03 -3.124562E+04 -6.045910E+02  5.396299E-09 -6.240963E-09
        23  12 -5.334365E+06 -1.100492E+04 -2.384203E+04  6.947424E+03  6.336181E-09 -7.245596E-08
        23  13 -5.289199E+06 -1.365384E+04 -3.928219E+04  6.798007E+03 -4.179864E-09  4.124959E-09
        23  14 -5.286487E+06  3.317432E+03 -2.010834E+04 -5.733404E+02 -6.471801E-09  1.415181E-09
        23  15 -5.289135E+06  3.699575E+02 -1.246790E+04  6.795415E+03 -2.905164E-09 -5.724537E-10
        23  16 -5.245843E+06 -2.751131E+03 -2.837971E+04  7.012470E+03 -4.237018E-09  1.025107E-08
        23  17 -5.242194E+06  1.445554E+04 -8.971204E+03 -5.420874E+02 -1.263834E-09 -1.425426E-08
        23  18 -5.243902E+06  1.174467E+04 -1.093931E+03  6.643396E+03 -2.845034E-09  6.197783E-08
        23  19 -5.332552E+06 -2.455645E+04 -5.018318E+04  6.583559E+03  2.939357E+04 -1.318893E+01
        23  20 -5.330779E+06 -7.820724E+03 -3.124493E+04 -6.045925E+02  1.908613E+04 -9.521492E+01
        23  21 -5.334365E+06 -1.100489E+04 -2.384189E+04  6.947423E+03  8.778799E+03 -5.233908E+01
        23  22 -5.289198E+06 -1.365360E+04 -3.928055E+04  6.798007E+03  2.939162E+04 -1.317936E+01
        23  23 -5.286487E+06  3.317530E+03 -2.010765E+04 -5.733419E+02  1.908652E+04 -9.521332E+01
        23  24 -5.289135E+06  3.699784E+02 -1.246776E+04  6.795415E+03  8.781521E+03 -5.234309E+01
        23  25 -5.245842E+06 -2.750897E+03 -2.837807E+04  7.012470E+03  2.938966E+04 -1.316980E+01
        23  26 -5.242193E+06  1.445563E+04 -8.970514E+03 -5.420888E+02  1.908691E+04 -9.521173E+01
        23  27 -5.243902E+06  1.174469E+04 -1.093785E+03  6.643396E+03  8.784243E+03 -5.234710E+01
        24   1 -5.267734E+06  3.007180E+03 -4.983597E+03  2.593571E+03 -6.745091E+03 -2.819561E+00
        24   2 -5.266923E+06  5.807830E+03 -1.005171E+03  4.598955E+03 -3.612265E+03 -3.917970E+01
        24   3 -5.267219E+06  5.008979E+03  6.200283E+01  2.658912E+03 -4.793391E+02 -1.783391E+01
        24   4 -5.288200E+06 -2.139614E+03 -1.013021E+04  2.641419E+03 -6.746415E+03 -2.818591E+00
        24   5 -5.287641E+06  5.979178E+02 -6.214559E+03  4.614995E+03 -3.612304E+03 -3.917978E+01
        24   6 -5.288189E+06 -2.643493E+02 -5.211129E+03  2.643136E+03 -4.780949E+02 -1.783454E+01
        24   7 -5.308666E+06 -7.286440E+03 -1.527685E+04  2.689265E+03 -6.747740E+03 -2.817621E+00
        24   8 -5.308358E+06 -4.612027E+03 -1.142398E+04  4.631035E+03 -3.612344E+03 -3.917987E+01
        24   9 -5.309159E+06 -5.537711E+03 -1.048429E+04  2.627361E+03 -4.768507E+02 -1.783516E+01
        24  10 -5.267734E+06  3.007168E+03 -4.983683E+03  2.593569E+03 -3.883388E-06 -2.862445E-07
        24  11 -5.266923E+06  5.807827E+03 -1.005195E+03  4.598946E+03 -1.732395E-05 -6.706528E-07
        24  12 -5.267219E+06  5.008980E+03  6.200261E+01  2.658897E+03 -3.078855E-05 -6.225284E-07
        24  13 -5.288200E+06 -2.139626E+03 -1.013029E+04  2.641419E+03 -9.788721E-06  8.999155E-08
        24  14 -5.287641E+06  5.979144E+02 -6.214583E+03  4.614995E+03 -4.340398E-05  3.849353E-07
        24  15 -5.288189E+06 -2.643493E+02 -5.211129E+03  2.643136E+03 -7.702421E-05  6.618248E-07
        24  16 -5.308666E+06 -7.286453E+03 -1.527693E+04  2.689266E+03 -3.940703E-06  1.979339E-07
        24  17 -5.308358E+06 -4.612031E+03 -1.142400E+04  4.631043E+03 -1.739586E-05  1.337591E-07
        24  18 -5.309159E+06 -5.537712E+03 -1.048429E+04  2.627376E+03 -3.082849E-05 -3.206259E-07
        24  19 -5.267734E+06  3.007181E+03 -4.983597E+03  2.593567E+03  6.745091E+03  2.819560E+00
        24  20 -5.266923E+06  5.807832E+03 -1.005170E+03  4.598938E+03  3.612265E+03  3.917970E+01
        24  21 -5.267219E+06  5.008981E+03  6.200327E+01  2.658883E+03  4.793391E+02  1.783391E+01
        24  22 -5.288200E+06 -2.139614E+03 -1.013021E+04  2.641419E+03  6.746415E+03  2.818591E+00
        24  23 -5.287641E+06  5.979180E+02 -6.214559E+03  4.614995E+03  3.612304E+03  3.917978E+01
        24  24 -5.288189E+06 -2.643493E+02 -5.211129E+03  2.643136E+03  4.780948E+02  1.783454E+01
        24  25 -5.308666E+06 -7.286441E+03 -1.527685E+04  2.689268E+03  6.747740E+03  2.817622E+00
        24  26 -5.308358E+06 -4.612028E+03 -1.142398E+04  4.631051E+03  3.612344E+03  3.917987E+01
        24  27 -5.309159E+06 -5.537713E+03 -1.048429E+04  2.627391E+03  4.768506E+02  1.783516E+01
        25   1 -5.307459E+06 -5.118301E+03 -1.005538E+04  2.912176E+03  4.596200E+02  1.550410E+01
        25   2 -5.306730E+06 -4.209918E+03 -1.099965E+04  4.272840E+03  3.586666E+03  3.599846E+01
        25   3 -5.307130E+06 -6.865000E+03 -1.484833E+04  2.972233E+03  6.713667E+03  3.416837E+00
        25   4 -5.288194E+06 -2.736720E+02 -5.210923E+03  2.928452E+03  4.607869E+02  1.550353E+01
        25   5 -5.287635E+06  5.920036E+02 -6.198214E+03  4.258275E+03  3.586652E+03  3.599837E+01
        25   6 -5.288204E+06 -2.105515E+03 -1.008903E+04  2.926834E+03  6.712472E+03  3.417627E+00
        25   7 -5.268929E+06  4.570929E+03 -3.664899E+02  2.944729E+03  4.619539E+02  1.550295E+01
        25   8 -5.268540E+06  5.393897E+03 -1.396803E+03  4.243711E+03  3.586639E+03  3.599828E+01
        25   9 -5.269278E+06  2.653943E+03 -5.329756E+03  2.881433E+03  6.711276E+03  3.418417E+00
        25  10 -5.307459E+06 -5.118300E+03 -1.005538E+04  2.912161E+03 -3.083524E-05 -3.226253E-07
        25  11 -5.306731E+06 -4.209921E+03 -1.099968E+04  4.272831E+03 -1.740879E-05  1.468598E-07
        25  12 -5.307130E+06 -6.865012E+03 -1.484842E+04  2.972231E+03 -3.937646E-06  1.806686E-07
        25  13 -5.288194E+06 -2.736720E+02 -5.210923E+03  2.928452E+03 -7.702412E-05  6.592998E-07
        25  14 -5.287635E+06  5.920000E+02 -6.198238E+03  4.258275E+03 -4.339758E-05  3.759390E-07
        25  15 -5.288204E+06 -2.105527E+03 -1.008912E+04  2.926834E+03 -9.775016E-06  8.605251E-08
        25  16 -5.268929E+06  4.570928E+03 -3.664905E+02  2.944744E+03 -3.078163E-05 -6.451518E-07
        25  17 -5.268540E+06  5.393893E+03 -1.396827E+03  4.243719E+03 -1.731249E-05 -6.666540E-07
        25  18 -5.269278E+06  2.653931E+03 -5.329841E+03  2.881435E+03 -3.884764E-06 -3.007576E-07
        25  19 -5.307459E+06 -5.118299E+03 -1.005538E+04  2.912147E+03 -4.596201E+02 -1.550410E+01
        25  20 -5.306730E+06 -4.209917E+03 -1.099965E+04  4.272823E+03 -3.586666E+03 -3.599846E+01
        25  21 -5.307130E+06 -6.865000E+03 -1.484833E+04  2.972230E+03 -6.713667E+03 -3.416837E+00
        25  22 -5.288194E+06 -2.736719E+02 -5.210923E+03  2.928452E+03 -4.607871E+02 -1.550352E+01
        25  23 -5.287635E+06  5.920034E+02 -6.198214E+03  4.258275E+03 -3.586653E+03 -3.599837E+01
        25  24 -5.288204E+06 -2.105515E+03 -1.008903E+04  2.926834E+03 -6.712472E+03 -3.417627E+00
        25  25 -5.268929E+06  4.570927E+03 -3.664903E+02  2.944759E+03 -4.619540E+02 -1.550295E+01
        25  26 -5.268540E+06  5.393896E+03 -1.396803E+03  4.243727E+03 -3.586639E+03 -3.599828E+01
        25  27 -5.269278E+06  2.653943E+03 -5.329756E+03  2.881437E+03 -6.711276E+03 -3.418418E+00
        26   1 -5.250700E+06  1.003257E+04 -2.755947E+03  6.062216E+03  8.744671E+03 -4.504086E+01
        26   2 -5.248719E+06  1.276388E+04 -1.053506E+04  1.926765E+02  1.900309E+04 -8.310771E+01
        26   3 -5.252303E+06 -4.202906E+03 -2.981526E+04  6.413873E+03  2.926129E+04 -1.480898E+01
        26   4 -5.289181E+06  3.554889E+02 -1.243238E+04  6.207083E+03  8.742343E+03 -4.503724E+01
        26   5 -5.286428E+06  3.281369E+03 -2.001675E+04  1.619760E+02  1.900275E+04 -8.310916E+01
        26   6 -5.289242E+06 -1.349187E+04 -3.910407E+04  6.207654E+03  2.926295E+04 -1.481862E+01
        26   7 -5.327661E+06 -9.321709E+03 -2.210893E+04  6.351941E+03  8.740015E+03 -4.503363E+01
        26   8 -5.324137E+06 -6.201252E+03 -2.949855E+04  1.312776E+02  1.900241E+04 -8.311062E+01
        26   9 -5.326179E+06 -2.278094E+04 -4.839300E+04  6.001448E+03  2.926461E+04 -1.482826E+01
        26  10 -5.250700E+06  1.003255E+04 -2.756092E+03  6.062216E+03  8.681461E-12  7.068809E-08
        26  11 -5.248719E+06  1.276378E+04 -1.053574E+04  1.926777E+02  3.190969E-09 -1.273853E-08
        26  12 -5.252304E+06 -4.203138E+03 -2.981688E+04  6.413874E+03 -5.625823E-10 -5.827748E-09
        26  13 -5.289181E+06  3.554682E+02 -1.243253E+04  6.207083E+03  8.118398E-09 -1.324496E-09
        26  14 -5.286429E+06  3.281271E+03 -2.001743E+04  1.619773E+02  1.453841E-08 -2.427630E-09
        26  15 -5.289242E+06 -1.349210E+04 -3.910570E+04  6.207655E+03  2.866516E-09  4.622157E-11
        26  16 -5.327661E+06 -9.321730E+03 -2.210907E+04  6.351941E+03  3.902870E-09 -7.140402E-08
        26  17 -5.324137E+06 -6.201350E+03 -2.949923E+04  1.312789E+02  6.566693E-09  1.221365E-08
        26  18 -5.326180E+06 -2.278117E+04 -4.839462E+04  6.001448E+03  5.404395E-10  1.310066E-08
        26  19 -5.250700E+06  1.003257E+04 -2.755947E+03  6.062216E+03 -8.744671E+03  4.504086E+01
        26  20 -5.248719E+06  1.276388E+04 -1.053506E+04  1.926765E+02 -1.900309E+04  8.310771E+01
        26  21 -5.252303E+06 -4.202906E+03 -2.981526E+04  6.413873E+03 -2.926129E+04  1.480898E+01
        26  22 -5.289181E+06  3.554889E+02 -1.243238E+04  6.207083E+03 -8.742343E+03  4.503724E+01
        26  23 -5.286428E+06  3.281369E+03 -2.001675E+04  1.619760E+02 -1.900275E+04  8.310916E+01
        26  24 -5.289242E+06 -1.349187E+04 -3.910407E+04  6.207654E+03 -2.926295E+04  1.481862E+01
        26  25 -5.327661E+06 -9.321709E+03 -2.210893E+04  6.351941E+03 -8.740015E+03  4.503363E+01
        26  26 -5.324137E+06 -6.201252E+03 -2.949855E+04  1.312776E+02 -1.900241E+04  8.311062E+01
        26  27 -5.326179E+06 -2.278094E+04 -4.839300E+04  6.001448E+03 -2.926461E+04  1.482826E+01
        27   1 -5.393593E+06 -2.206391E+04 -7.315596E+04 -4.856813E+03  3.713666E+04  9.339656E+01
        27   2 -5.375595E+06 -3.625238E+03 -1.020352E+05  1.354446E+04  7.796824E+04  9.035732E+01
        27   3 -5.389500E+06 -1.089993E+05 -1.877148E+05 -2.794728E+03  1.187994E+05 -2.977345E+02
        27   4 -5.295027E+06  2.723994E+03 -4.836854E+04 -4.137814E+03  3.714536E+04  9.343820E+01
        27   5 -5.279232E+06  2.060927E+04 -7.780325E+04  1.312183E+04  7.797332E+04  9.030744E+01
        27   6 -5.295334E+06 -8.530688E+04 -1.640296E+05 -4.358667E+03  1.188008E+05 -2.980040E+02
        27   7 -5.196452E+06  2.751115E+04 -2.358186E+04 -3.418701E+03  3.715405E+04  9.347985E+01
        27   8 -5.182861E+06  4.484306E+04 -5.357200E+04  1.269913E+04  7.797840E+04  9.025757E+01
        27   9 -5.201160E+06 -6.161517E+04 -1.403450E+05 -5.922840E+03  1.188021E+05 -2.982735E+02
        27  10 -5.393594E+06 -2.206428E+04 -7.315857E+04 -4.856815E+03 -2.192112E-09  3.071863E-09
        27  11 -5.375601E+06 -3.626887E+03 -1.020467E+05  1.354445E+04 -8.041897E-09 -1.503460E-09
        27  12 -5.389515E+06 -1.090031E+05 -1.877415E+05 -2.794699E+03 -1.869685E-09 -6.289837E-09
        27  13 -5.295028E+06  2.723619E+03 -4.837115E+04 -4.137817E+03  4.909232E-09 -6.234882E-10
        27  14 -5.279239E+06  2.060762E+04 -7.781477E+04  1.312182E+04 -8.933415E-09 -4.533071E-09
        27  15 -5.295349E+06 -8.531071E+04 -1.640563E+05 -4.358638E+03  3.665271E-09 -4.817472E-09
        27  16 -5.196454E+06  2.751078E+04 -2.358447E+04 -3.418703E+03  5.033470E-09 -1.277919E-08
        27  17 -5.182867E+06  4.484141E+04 -5.358352E+04  1.269912E+04  7.068227E-09 -7.996058E-09
        27  18 -5.201175E+06 -6.161899E+04 -1.403718E+05 -5.922811E+03  3.206287E-09 -9.229335E-09
        27  19 -5.393593E+06 -2.206391E+04 -7.315596E+04 -4.856813E+03 -3.713666E+04 -9.339656E+01
        27  20 -5.375595E+06 -3.625238E+03 -1.020352E+05  1.354446E+04 -7.796824E+04 -9.035732E+01
        27  21 -5.389500E+06 -1.089993E+05 -1.877148E+05 -2.794728E+03 -1.187994E+05  2.977345E+02
        27  22 -5.295027E+06  2.723994E+03 -4.836854E+04 -4.137814E+03 -3.714536E+04 -9.343820E+01
        27  23 -5.279232E+06  2.060927E+04 -7.780325E+04  1.312183E+04 -7.797332E+04 -9.030744E+01
        27  24 -5.295334E+06 -8.530688E+04 -1.640296E+05 -4.358667E+03 -1.188008E+05  2.980040E+02
        27  25 -5.196452E+06  2.751115E+04 -2.358186E+04 -3.418701E+03 -3.715405E+04 -9.347985E+01
        27  26 -5.182861E+06  4.484306E+04 -5.357200E+04  1.269913E+04 -7.797840E+04 -9.025757E+01
        27  27 -5.201160E+06 -6.161517E+04 -1.403450E+05 -5.922840E+03 -1.188021E+05  2.982735E+02
        28   1 -5.064439E+06  8.409964E+04 -1.298395E+05  2.000116E+04  1.512596E+05 -5.576876E+02
        28   2 -4.979582E+06  1.943597E+05 -2.374266E+05 -2.084298E+04  3.158554E+05 -8.351171E+01
        28   3 -5.078400E+06 -4.727870E+05 -6.404942E+05  3.723030E+04  4.804612E+05  2.043399E+03
        28   4 -5.328613E+06  1.765221E+04 -1.962710E+05  2.491092E+04  1.512151E+05 -5.564967E+02
        28   5 -5.237551E+06  1.294978E+05 -3.022874E+05 -2.334353E+04  3.157901E+05 -8.476349E+01
        28   6 -5.330252E+06 -5.362374E+05 -7.038586E+05  2.732303E+04  4.803767E+05  2.035960E+03
        28   7 -5.592724E+06 -4.880049E+04 -2.627079E+05  2.981860E+04  1.511707E+05 -5.553061E+02
        28   8 -5.495460E+06  6.463088E+04 -3.671534E+05 -2.584304E+04  3.157249E+05 -8.601523E+01
        28   9 -5.582046E+06 -5.996923E+05 -7.672278E+05  1.741974E+04  4.802923E+05  2.028521E+03
        28  10 -5.064463E+06  8.409344E+04 -1.298828E+05  2.000122E+04 -3.492586E-10  5.707216E-09
        28  11 -4.979690E+06  1.943326E+05 -2.376156E+05 -2.084296E+04  2.712065E-09  5.101695E-09
        28  12 -5.078650E+06 -4.728496E+05 -6.409315E+05  3.722951E+04  2.048547E-09  5.383384E-09
        28  13 -5.328638E+06  1.764600E+04 -1.963143E+05  2.491098E+04  1.311911E-10 -1.431559E-09
        28  14 -5.237659E+06  1.294707E+05 -3.024764E+05 -2.334351E+04 -1.836136E-09  6.208402E-09
        28  15 -5.330502E+06 -5.363000E+05 -7.042960E+05  2.732224E+04 -5.904150E-09  3.252625E-09
        28  16 -5.592748E+06 -4.880669E+04 -2.627512E+05  2.981867E+04  2.428117E-09 -6.637897E-09
        28  17 -5.495568E+06  6.460382E+04 -3.673424E+05 -2.584302E+04  1.782529E-10  6.868098E-09
        28  18 -5.582295E+06 -5.997550E+05 -7.676652E+05  1.741895E+04  1.248680E-09 -1.100908E-09
        28  19 -5.064439E+06  8.409964E+04 -1.298395E+05  2.000116E+04 -1.512596E+05  5.576876E+02
        28  20 -4.979582E+06  1.943597E+05 -2.374266E+05 -2.084298E+04 -3.158554E+05  8.351171E+01
        28  21 -5.078400E+06 -4.727870E+05 -6.404942E+05  3.723030E+04 -4.804612E+05 -2.043399E+03
        28  22 -5.328613E+06  1.765221E+04 -1.962710E+05  2.491092E+04 -1.512151E+05  5.564967E+02
        28  23 -5.237551E+06  1.294978E+05 -3.022874E+05 -2.334353E+04 -3.157901E+05  8.476349E+01
        28  24 -5.330252E+06 -5.362374E+05 -7.038586E+05  2.732303E+04 -4.803767E+05 -2.035960E+03
        28  25 -5.592724E+06 -4.880049E+04 -2.627079E+05  2.981860E+04 -1.511707E+05  5.553061E+02
        28  26 -5.495460E+06  6.463088E+04 -3.671534E+05 -2.584304E+04 -3.157249E+05  8.601523E+01
        28  27 -5.582046E+06 -5.996923E+05 -7.672278E+05  1.741974E+04 -4.802923E+05 -2.028521E+03
        29   1  2.988623E+05  2.674374E+04  3.916050E+05 -3.208069E+03 -1.784318E+03  2.669813E+05
        29   2 -7.230019E+04 -3.346308E+04  1.669219E+05 -1.518035E+03 -1.172904E+03  1.756571E+05
        29   3 -9.237218E+03  2.680886E+04  1.102928E+05  2.266186E+03 -5.625713E+02  8.432867E+04
        29   4  2.987952E+05  2.681098E+04  3.916050E+05  1.815635E+03 -1.782157E+03  2.669813E+05
        29   5 -7.231694E+04 -3.344608E+04  1.669220E+05 -2.594850E+02 -1.172548E+03  1.756571E+05
        29   6 -9.203698E+03  2.677559E+04  1.102929E+05 -2.401769E+02 -5.629117E+02  8.432867E+04
        29   7  2.987283E+05  2.687827E+04  3.916051E+05  6.839341E+03 -1.779996E+03  2.669813E+05
        29   8 -7.233368E+04 -3.342909E+04  1.669220E+05  9.990649E+02 -1.172192E+03  1.756571E+05
        29   9 -9.170154E+03  2.674233E+04  1.102929E+05 -2.746540E+03 -5.632522E+02  8.432867E+04
        29  10  2.988432E+05  2.666722E+04  3.914710E+05 -3.207686E+03 -5.068537E-06 -2.081062E-06
        29  11 -7.230852E+04 -3.349622E+04  1.668640E+05 -1.517869E+03 -2.247760E-05 -4.014980E-06
        29  12 -9.239204E+03  2.680121E+04  1.102794E+05  2.266225E+03 -3.985357E-05 -3.440892E-06
        29  13  2.987761E+05  2.673446E+04  3.914711E+05  1.816019E+03  6.333209E-06 -3.300178E-07
        29  14 -7.232522E+04 -3.347921E+04  1.668640E+05 -2.593193E+02  2.813446E-05 -1.463653E-06
        29  15 -9.205607E+03  2.676795E+04  1.102795E+05 -2.401386E+02  4.999172E-05 -2.596876E-06
        29  16  2.987091E+05  2.680175E+04  3.914711E+05  6.839723E+03 -5.102980E-06  1.715405E-06
        29  17 -7.234192E+04 -3.346220E+04  1.668641E+05  9.992303E+02 -2.255034E-05  2.393347E-06
        29  18 -9.171987E+03  2.673471E+04  1.102796E+05 -2.746502E+03 -3.989344E-05  5.640521E-07
        29  19  2.988623E+05  2.674374E+04  3.916050E+05 -3.208069E+03  1.784318E+03 -2.669813E+05
        29  20 -7.230028E+04 -3.346310E+04  1.669219E+05 -1.518035E+03  1.172904E+03 -1.756571E+05
        29  21 -9.237372E+03  2.680882E+04  1.102928E+05  2.266187E+03  5.625712E+02 -8.432867E+04
        29  22  2.987952E+05  2.681098E+04  3.916050E+05  1.815636E+03  1.782157E+03 -2.669813E+05
        29  23 -7.231694E+04 -3.344608E+04  1.669220E+05 -2.594852E+02  1.172548E+03 -1.756571E+05
        29  24 -9.203698E+03  2.677559E+04  1.102929E+05 -2.401767E+02  5.629118E+02 -8.432867E+04
        29  25  2.987283E+05  2.687827E+04  3.916051E+05  6.839340E+03  1.779996E+03 -2.669813E+05
        29  26 -7.233359E+04 -3.342906E+04  1.669221E+05  9.990642E+02  1.172192E+03 -1.756571E+05
        29  27 -9.170001E+03  2.674237E+04  1.102930E+05 -2.746541E+03  5.632521E+02 -8.432867E+04
        30   1  4.695147E+04  4.473987E+03  9.153146E+04 -4.747885E+02 -4.403238E+02  6.595195E+04
        30   2 -1.140177E+04 -5.586110E+03  4.382555E+04 -2.164388E+02 -2.863930E+02  4.290212E+04
        30   3 -1.234988E+03  4.488817E+03  2.825958E+04  3.649061E+02 -1.325068E+02  1.985249E+04
        30   4  4.694140E+04  4.484222E+03  9.153150E+04  2.834234E+02 -4.402431E+02  6.595195E+04
        30   5 -1.140409E+04 -5.583628E+03  4.382558E+04 -3.885529E+01 -2.863807E+02  4.290212E+04
        30   6 -1.229568E+03  4.483546E+03  2.825961E+04 -3.813686E+01 -1.325196E+02  1.985249E+04
        30   7  4.693133E+04  4.494458E+03  9.153153E+04  1.041635E+03 -4.401626E+02  6.595195E+04
        30   8 -1.140642E+04 -5.581145E+03  4.382561E+04  1.387282E+02 -2.863685E+02  4.290212E+04
        30   9 -1.224147E+03  4.478275E+03  2.825964E+04 -4.411798E+02 -1.325326E+02  1.985249E+04
        30  10  4.695023E+04  4.469296E+03  9.152327E+04 -4.747649E+02 -4.210725E-05 -6.401874E-07
        30  11 -1.140232E+04 -5.588102E+03  4.382207E+04 -2.164286E+02 -3.242653E-05  5.353946E-07
        30  12 -1.235137E+03  4.488383E+03  2.825883E+04  3.649084E+02 -2.271277E-05  6.822968E-07
        30  13  4.694023E+04  4.479552E+03  9.152332E+04  2.834467E+02  5.279986E-05 -2.756736E-06
        30  14 -1.140459E+04 -5.585604E+03  4.382212E+04 -3.884536E+01  4.054917E-05 -2.173889E-06
        30  15 -1.229673E+03  4.483123E+03  2.825887E+04 -3.813473E+01  2.831201E-05 -1.590831E-06
        30  16  4.693024E+04  4.489808E+03  9.152338E+04  1.041659E+03 -4.209453E-05 -2.409146E-06
        30  17 -1.140685E+04 -5.583106E+03  4.382217E+04  1.387381E+02 -3.237301E-05 -2.923537E-06
        30  18 -1.224209E+03  4.477862E+03  2.825891E+04 -4.411777E+02 -2.268159E-05 -2.409206E-06
        30  19  4.695131E+04  4.473947E+03  9.153142E+04 -4.747881E+02  4.403237E+02 -6.595195E+04
        30  20 -1.140189E+04 -5.586141E+03  4.382552E+04 -2.164382E+02  2.863929E+02 -4.290212E+04
        30  21 -1.235075E+03  4.488795E+03  2.825956E+04  3.649065E+02  1.325067E+02 -1.985249E+04
        30  22  4.694140E+04  4.484222E+03  9.153150E+04  2.834232E+02  4.402432E+02 -6.595195E+04
        30  23 -1.140409E+04 -5.583628E+03  4.382558E+04 -3.885521E+01  2.863807E+02 -4.290212E+04
        30  24 -1.229568E+03  4.483546E+03  2.825961E+04 -3.813683E+01  1.325197E+02 -1.985249E+04
        30  25  4.693149E+04  4.494499E+03  9.153157E+04  1.041635E+03  4.401626E+02 -6.595195E+04
        30  26 -1.140629E+04 -5.581114E+03  4.382564E+04  1.387282E+02  2.863684E+02 -4.290212E+04
        30  27 -1.224060E+03  4.478296E+03  2.825966E+04 -4.411798E+02  1.325325E+02 -1.985249E+04
        31   1  7.319279E+03  8.989265E+02  2.330637E+04 -7.773959E+01 -1.012476E+02  1.516725E+04
        31   2 -2.045351E+03 -1.101734E+03  1.375481E+04 -2.677488E+01 -5.421941E+01  8.122454E+03
        31   3  9.365604E+02  9.020641E+02  1.187667E+04  7.987930E+01 -7.194434E+00  1.077790E+03
        31   4  7.317688E+03  9.005727E+02  2.330638E+04  4.283832E+01 -1.012446E+02  1.516725E+04
        31   5 -2.045607E+03 -1.101426E+03  1.375482E+04 -6.303658E+00 -5.421911E+01  8.122454E+03
        31   6  9.376379E+02  9.010357E+02  1.187668E+04  2.452121E-01 -7.194548E+00  1.077790E+03
        31   7  7.316097E+03  9.022189E+02  2.330639E+04  1.634163E+02 -1.012417E+02  1.516725E+04
        31   8 -2.045864E+03 -1.101117E+03  1.375483E+04  1.416758E+01 -5.421887E+01  8.122454E+03
        31   9  9.387154E+02  9.000073E+02  1.187669E+04 -7.938885E+01 -7.194711E+00  1.077790E+03
        31  10  7.319182E+03  8.986705E+02  2.330593E+04 -7.773820E+01 -1.869744E-05 -6.355041E-08
        31  11 -2.045397E+03 -1.101812E+03  1.375467E+04 -2.677442E+01 -1.469409E-05 -1.514558E-07
        31  12  9.365394E+02  9.020577E+02  1.187666E+04  7.987955E+01 -1.083086E-05  9.668634E-07
        31  13  7.317627E+03  9.003257E+02  2.330595E+04  4.283957E+01  2.333899E-05 -1.347162E-06
        31  14 -2.045625E+03 -1.101496E+03  1.375469E+04 -6.303329E+00  1.842224E-05 -1.092804E-06
        31  15  9.376376E+02  9.010344E+02  1.187668E+04  2.453496E-01  1.340766E-05 -8.392984E-07
        31  16  7.316072E+03  9.019808E+02  2.330597E+04  1.634174E+02 -1.868374E-05 -1.388204E-06
        31  17 -2.045854E+03 -1.101180E+03  1.375471E+04  1.416785E+01 -1.468415E-05 -1.017273E-06
        31  18  9.387358E+02  9.000112E+02  1.187669E+04 -7.938876E+01 -1.078766E-05 -1.854203E-06
        31  19  7.319208E+03  8.989086E+02  2.330635E+04 -7.773929E+01  1.012475E+02 -1.516725E+04
        31  20 -2.045407E+03 -1.101749E+03  1.375479E+04 -2.677468E+01  5.421938E+01 -8.122454E+03
        31  21  9.365190E+02  9.020538E+02  1.187666E+04  7.987978E+01  7.194413E+00 -1.077790E+03
        31  22  7.317688E+03  9.005727E+02  2.330638E+04  4.283834E+01  1.012446E+02 -1.516725E+04
        31  23 -2.045607E+03 -1.101426E+03  1.375482E+04 -6.303709E+00  5.421914E+01 -8.122454E+03
        31  24  9.376379E+02  9.010357E+02  1.187668E+04  2.454745E-01  7.194575E+00 -1.077790E+03
        31  25  7.316169E+03  9.022368E+02  2.330641E+04  1.634161E+02  1.012417E+02 -1.516725E+04
        31  26 -2.045808E+03 -1.101103E+03  1.375484E+04  1.416741E+01  5.421884E+01 -8.122454E+03
        31  27  9.387567E+02  9.000176E+02  1.187670E+04 -7.938867E+01  7.194689E+00 -1.077790E+03
        32   1 -1.019611E+07 -3.162145E+06 -2.062320E+06 -3.545810E+06 -1.115743E+06 -4.134137E+05
        32   2 -9.958797E+06 -1.583369E+06 -1.042818E+06 -3.855309E+06 -7.218100E+05 -2.359477E+05
        32   3 -1.044138E+07 -1.616531E+06 -7.805293E+05 -3.685458E+06 -3.191178E+05 -8.153518E+04
        32   4 -9.288478E+06 -2.500847E+06 -1.748226E+06 -2.981785E+06 -1.103686E+06 -4.095107E+05
        32   5 -8.835119E+06 -1.067986E+06 -7.209935E+05 -3.460010E+06 -7.180315E+05 -2.346364E+05
        32   6 -9.099012E+06 -1.243802E+06 -4.434656E+05 -3.459270E+06 -3.234723E+05 -8.310775E+04
        32   7 -8.379791E+06 -1.838596E+06 -1.434190E+06 -2.416784E+06 -1.091608E+06 -4.055836E+05
        32   8 -7.710178E+06 -5.523513E+05 -3.992916E+05 -3.063992E+06 -7.142444E+05 -2.333202E+05
        32   9 -7.754850E+06 -8.711188E+05 -1.065283E+05 -3.232725E+06 -3.278367E+05 -8.468174E+04
        32  10 -1.019751E+07 -3.162674E+06 -2.065030E+06 -3.546187E+06  4.037514E-10  8.620090E-12
        32  11 -9.959380E+06 -1.583573E+06 -1.043923E+06 -3.855448E+06 -1.579699E-09 -1.200964E-09
        32  12 -1.044149E+07 -1.616567E+06 -7.807370E+05 -3.685479E+06 -5.641020E-09 -1.779819E-09
        32  13 -9.289849E+06 -2.501364E+06 -1.750874E+06 -2.982153E+06  5.066887E-09 -2.473113E-10
        32  14 -8.835695E+06 -1.068187E+06 -7.220838E+05 -3.460147E+06 -7.254092E-09 -6.091949E-10
        32  15 -9.099127E+06 -1.243838E+06 -4.436788E+05 -3.459292E+06 -7.027374E-09 -9.325406E-10
        32  16 -8.381131E+06 -1.839100E+06 -1.436776E+06 -2.417143E+06  1.359037E-09 -4.541390E-10
        32  17 -7.710747E+06 -5.525499E+05 -4.003682E+05 -3.064127E+06  1.072322E-08 -1.574357E-09
        32  18 -7.754969E+06 -8.711560E+05 -1.067469E+05 -3.232748E+06 -3.216594E-09 -9.718356E-10
        32  19 -1.019611E+07 -3.162145E+06 -2.062320E+06 -3.545810E+06  1.115743E+06  4.134137E+05
        32  20 -9.958797E+06 -1.583369E+06 -1.042818E+06 -3.855309E+06  7.218100E+05  2.359477E+05
        32  21 -1.044138E+07 -1.616531E+06 -7.805293E+05 -3.685458E+06  3.191178E+05  8.153518E+04
        32  22 -9.288478E+06 -2.500847E+06 -1.748226E+06 -2.981785E+06  1.103686E+06  4.095107E+05
        32  23 -8.835119E+06 -1.067986E+06 -7.209935E+05 -3.460010E+06  7.180315E+05  2.346364E+05
        32  24 -9.099012E+06 -1.243802E+06 -4.434656E+05 -3.459270E+06  3.234723E+05  8.310775E+04
        32  25 -8.379791E+06 -1.838596E+06 -1.434190E+06 -2.416784E+06  1.091608E+06  4.055836E+05
        32  26 -7.710178E+06 -5.523513E+05 -3.992916E+05 -3.063992E+06  7.142444E+05  2.333202E+05
        32  27 -7.754850E+06 -8.711188E+05 -1.065283E+05 -3.232725E+06  3.278367E+05  8.468174E+04
        33   1 -1.026944E+07 -1.957364E+06 -7.070517E+05 -3.740498E+06 -2.597839E+05 -6.189119E+04
        33   2 -1.021663E+07 -1.735667E+06 -5.056351E+05 -3.753918E+06 -1.705385E+05 -2.586079E+04
        33   3 -1.022980E+07 -1.739570E+06 -4.275442E+05 -3.737898E+06 -7.975776E+04  6.132171E+03
        33   4 -9.030066E+06 -1.448318E+06 -3.625575E+05 -3.364770E+06 -2.586720E+05 -6.149332E+04
        33   5 -8.985616E+06 -1.257903E+06 -1.696624E+05 -3.408746E+06 -1.707762E+05 -2.595920E+04
        33   6 -9.006697E+06 -1.292555E+06 -9.881764E+04 -3.423320E+06 -8.134768E+04  5.530678E+03
        33   7 -7.789186E+06 -9.391101E+05 -1.820895E+04 -2.988326E+06 -2.575572E+05 -6.109413E+04
        33   8 -7.753115E+06 -7.800312E+05  1.661716E+05 -3.062937E+06 -1.710141E+05 -2.605769E+04
        33   9 -7.782131E+06 -8.454790E+05  2.297772E+05 -3.108182E+06 -8.294098E+04  4.928034E+03
        33  10 -1.026951E+07 -1.957386E+06 -7.071882E+05 -3.740512E+06 -2.261389E-09 -9.161503E-11
        33  11 -1.021666E+07 -1.735676E+06 -5.056920E+05 -3.753922E+06 -1.938966E-09  8.575874E-10
        33  12 -1.022980E+07 -1.739572E+06 -4.275564E+05 -3.737898E+06  6.554531E-09  9.628904E-10
        33  13 -9.030140E+06 -1.448341E+06 -3.626925E+05 -3.364783E+06 -7.355135E-09 -5.068804E-11
        33  14 -8.985648E+06 -1.257912E+06 -1.697194E+05 -3.408749E+06 -7.652678E-09  1.484322E-09
        33  15 -9.006704E+06 -1.292557E+06 -9.883029E+04 -3.423319E+06 -4.853314E-09  1.932956E-09
        33  16 -7.789259E+06 -9.391323E+05 -1.834250E+04 -2.988339E+06 -1.844430E-11 -2.307551E-10
        33  17 -7.753147E+06 -7.800400E+05  1.661146E+05 -3.062940E+06 -9.963918E-09 -1.014260E-09
        33  18 -7.782138E+06 -8.454809E+05  2.297640E+05 -3.108182E+06 -3.133767E-09  1.088915E-10
        33  19 -1.026944E+07 -1.957364E+06 -7.070517E+05 -3.740498E+06  2.597839E+05  6.189119E+04
        33  20 -1.021663E+07 -1.735667E+06 -5.056351E+05 -3.753918E+06  1.705385E+05  2.586079E+04
        33  21 -1.022980E+07 -1.739570E+06 -4.275442E+05 -3.737898E+06  7.975776E+04 -6.132171E+03
        33  22 -9.030066E+06 -1.448318E+06 -3.625575E+05 -3.364770E+06  2.586720E+05  6.149332E+04
        33  23 -8.985616E+06 -1.257903E+06 -1.696624E+05 -3.408746E+06  1.707762E+05  2.595920E+04
        33  24 -9.006697E+06 -1.292555E+06 -9.881764E+04 -3.423320E+06  8.134768E+04 -5.530678E+03
        33  25 -7.789186E+06 -9.391101E+05 -1.820895E+04 -2.988326E+06  2.575572E+05  6.109413E+04
        33  26 -7.753115E+06 -7.800312E+05  1.661716E+05 -3.062937E+06  1.710141E+05  2.605769E+04
        33  27 -7.782131E+06 -8.454790E+05  2.297772E+05 -3.108182E+06  8.294098E+04 -4.928034E+03
        34   1 -1.006342E+07 -1.740251E+06 -3.704213E+05 -3.719647E+06 -6.543016E+04  9.318611E+03
        34   2 -9.993648E+06 -1.639247E+06 -3.042606E+05 -3.653199E+06 -4.352412E+04  1.389585E+04
        34   3 -9.860156E+06 -1.637434E+06 -2.601336E+05 -3.664904E+06 -2.100881E+04  1.682529E+04
        34   4 -8.987075E+06 -1.327935E+06 -7.783922E+04 -3.423305E+06 -6.639670E+04  8.950513E+03
        34   5 -9.017522E+06 -1.268647E+06 -3.948531E+04 -3.387856E+06 -4.507603E+04  1.331042E+04
        34   6 -8.984120E+06 -1.308395E+06 -2.266277E+04 -3.430558E+06 -2.315031E+04  1.602212E+04
        34   7 -7.909598E+06 -9.155443E+05  2.146377E+05 -3.126488E+06 -6.736503E+04  8.581732E+03
        34   8 -8.040464E+06 -8.979907E+05  2.252036E+05 -3.122130E+06 -4.663063E+04  1.272397E+04
        34   9 -8.107336E+06 -9.793155E+05  2.147383E+05 -3.195909E+06 -2.529518E+04  1.521772E+04
        34  10 -1.006342E+07 -1.740253E+06 -3.704297E+05 -3.719647E+06  1.653891E-09 -3.720733E-10
        34  11 -9.993650E+06 -1.639248E+06 -3.042646E+05 -3.653198E+06 -3.737036E-09 -1.660316E-09
        34  12 -9.860156E+06 -1.637435E+06 -2.601350E+05 -3.664904E+06  2.039852E-10 -7.435998E-10
        34  13 -8.987079E+06 -1.327937E+06 -7.784775E+04 -3.423305E+06 -7.599018E-10  1.161413E-09
        34  14 -9.017524E+06 -1.268648E+06 -3.948949E+04 -3.387856E+06  4.068293E-10 -7.122984E-10
        34  15 -8.984120E+06 -1.308396E+06 -2.266426E+04 -3.430557E+06  3.061910E-10 -3.028214E-12
        34  16 -7.909603E+06 -9.155456E+05  2.146289E+05 -3.126488E+06  5.605050E-09 -1.872873E-09
        34  17 -8.040466E+06 -8.979915E+05  2.251992E+05 -3.122129E+06  2.368808E-09 -1.684622E-09
        34  18 -8.107336E+06 -9.793159E+05  2.147367E+05 -3.195909E+06 -1.769211E-09  9.108749E-10
        34  19 -1.006342E+07 -1.740251E+06 -3.704213E+05 -3.719647E+06  6.543016E+04 -9.318611E+03
        34  20 -9.993648E+06 -1.639247E+06 -3.042606E+05 -3.653199E+06  4.352412E+04 -1.389585E+04
        34  21 -9.860156E+06 -1.637434E+06 -2.601336E+05 -3.664904E+06  2.100881E+04 -1.682529E+04
        34  22 -8.987075E+06 -1.327935E+06 -7.783922E+04 -3.423305E+06  6.639670E+04 -8.950513E+03
        34  23 -9.017522E+06 -1.268647E+06 -3.948531E+04 -3.387856E+06  4.507603E+04 -1.331042E+04
        34  24 -8.984120E+06 -1.308395E+06 -2.266277E+04 -3.430558E+06  2.315031E+04 -1.602212E+04
        34  25 -7.909598E+06 -9.155443E+05  2.146377E+05 -3.126488E+06  6.736503E+04 -8.581732E+03
        34  26 -8.040464E+06 -8.979907E+05  2.252036E+05 -3.122130E+06  4.663063E+04 -1.272397E+04
        34  27 -8.107336E+06 -9.793155E+05  2.147383E+05 -3.195909E+06  2.529518E+04 -1.521772E+04
        35   1 -9.594619E+06 -1.553296E+06 -1.851932E+05 -3.605446E+06 -1.660925E+04  1.476867E+04
        35   2 -9.496613E+06 -1.438515E+06 -1.372041E+05 -3.502384E+06 -8.909713E+03  1.111301E+04
        35   3 -9.291713E+06 -1.435792E+06 -9.426512E+04 -3.523588E+06 -9.571393E+02  6.758743E+03
        35   4 -8.975547E+06 -1.319073E+06 -1.790240E+04 -3.437840E+06 -1.864627E+04  1.400645E+04
        35   5 -9.028814E+06 -1.261862E+06 -1.053489E+04 -3.376149E+06 -1.120472E+04  1.025613E+04
        35   6 -8.975167E+06 -1.316650E+06 -8.005803E+03 -3.438726E+06 -3.511804E+03  5.806976E+03
        35   7 -8.356097E+06 -1.084825E+06  1.493546E+05 -3.270079E+06 -2.068556E+04  1.324339E+04
        35   8 -8.560803E+06 -1.085196E+06  1.161144E+05 -3.249826E+06 -1.350165E+04  9.398535E+03
        35   9 -8.658525E+06 -1.197504E+06  7.824388E+04 -3.353824E+06 -6.067905E+03  4.854676E+03
        35  10 -9.594620E+06 -1.553297E+06 -1.851941E+05 -3.605446E+06  1.558688E-09  4.313347E-10
        35  11 -9.496613E+06 -1.438516E+06 -1.372044E+05 -3.502384E+06  1.733121E-09 -2.128426E-09
        35  12 -9.291713E+06 -1.435792E+06 -9.426521E+04 -3.523588E+06 -3.158395E-09  6.922038E-10
        35  13 -8.975547E+06 -1.319073E+06 -1.790342E+04 -3.437840E+06 -2.819165E-09 -6.728116E-10
        35  14 -9.028815E+06 -1.261862E+06 -1.053533E+04 -3.376149E+06  9.411757E-09 -4.681403E-10
        35  15 -8.975167E+06 -1.316650E+06 -8.005890E+03 -3.438726E+06 -1.082703E-09  2.214555E-09
        35  16 -8.356097E+06 -1.084826E+06  1.493535E+05 -3.270079E+06 -4.177794E-09 -2.272056E-10
        35  17 -8.560803E+06 -1.085196E+06  1.161139E+05 -3.249826E+06  1.467430E-10 -1.903795E-09
        35  18 -8.658525E+06 -1.197504E+06  7.824377E+04 -3.353824E+06  1.530634E-09  1.995186E-09
        35  19 -9.594619E+06 -1.553296E+06 -1.851932E+05 -3.605446E+06  1.660925E+04 -1.476867E+04
        35  20 -9.496613E+06 -1.438515E+06 -1.372041E+05 -3.502384E+06  8.909713E+03 -1.111301E+04
        35  21 -9.291713E+06 -1.435792E+06 -9.426512E+04 -3.523588E+06  9.571393E+02 -6.758743E+03
        35  22 -8.975547E+06 -1.319073E+06 -1.790240E+04 -3.437840E+06  1.864627E+04 -1.400645E+04
        35  23 -9.028814E+06 -1.261862E+06 -1.053489E+04 -3.376149E+06  1.120472E+04 -1.025613E+04
        35  24 -8.975167E+06 -1.316650E+06 -8.005803E+03 -3.438726E+06  3.511804E+03 -5.806976E+03
        35  25 -8.356097E+06 -1.084825E+06  1.493546E+05 -3.270079E+06  2.068556E+04 -1.324339E+04
        35  26 -8.560803E+06 -1.085196E+06  1.161144E+05 -3.249826E+06  1.350165E+04 -9.398535E+03
        35  27 -8.658525E+06 -1.197504E+06  7.824388E+04 -3.353824E+06  6.067905E+03 -4.854676E+03
        36   1 -8.974917E+06 -1.319098E+06 -7.624515E+03 -3.441324E+06  1.806676E+03  3.260282E+03
        36   2 -8.870185E+06 -1.199196E+06  3.415034E+04 -3.330407E+06  8.862376E+03 -1.651715E+03
        36   3 -8.651347E+06 -1.198257E+06  7.163330E+04 -3.352621E+06  1.582600E+04 -6.303221E+03
        36   4 -8.973576E+06 -1.318401E+06 -7.830931E+03 -3.440611E+06 -7.406179E+02  2.311784E+03
        36   5 -9.030743E+06 -1.259788E+06 -9.302033E+03 -3.373716E+06  6.411709E+03 -2.564946E+03
        36   6 -8.973845E+06 -1.320161E+06 -1.514107E+04 -3.439966E+06  1.347060E+04 -7.181554E+03
        36   7 -8.972236E+06 -1.317705E+06 -8.037316E+03 -3.439899E+06 -3.287924E+03  1.363278E+03
        36   8 -9.191276E+06 -1.320379E+06 -5.275692E+04 -3.417016E+06  3.961735E+03 -3.477919E+03
        36   9 -9.296244E+06 -1.442060E+06 -1.019253E+05 -3.527269E+06  1.111654E+04 -8.059384E+03
        36  10 -8.974917E+06 -1.319098E+06 -7.624541E+03 -3.441324E+06  1.380334E-09  2.493178E-09
        36  11 -8.870185E+06 -1.199196E+06  3.415018E+04 -3.330407E+06 -1.856766E-10 -9.406762E-10
        36  12 -8.651347E+06 -1.198257E+06  7.163275E+04 -3.352621E+06 -3.058392E-09 -1.095137E-10
        36  13 -8.973576E+06 -1.318401E+06 -7.830942E+03 -3.440611E+06  5.366075E-12  1.948213E-09
        36  14 -9.030743E+06 -1.259788E+06 -9.302123E+03 -3.373716E+06 -2.523404E-10  2.923774E-11
        36  15 -8.973846E+06 -1.320161E+06 -1.514151E+04 -3.439966E+06 -3.728978E-09  4.243070E-09
        36  16 -8.972236E+06 -1.317705E+06 -8.037340E+03 -3.439899E+06  2.433412E-09 -1.063747E-09
        36  17 -9.191276E+06 -1.320379E+06 -5.275697E+04 -3.417016E+06  1.262517E-09 -3.324230E-09
        36  18 -9.296244E+06 -1.442060E+06 -1.019257E+05 -3.527269E+06  2.939864E-09  9.112984E-10
        36  19 -8.974917E+06 -1.319098E+06 -7.624515E+03 -3.441324E+06 -1.806676E+03 -3.260282E+03
        36  20 -8.870185E+06 -1.199196E+06  3.415034E+04 -3.330407E+06 -8.862376E+03  1.651715E+03
        36  21 -8.651347E+06 -1.198257E+06  7.163330E+04 -3.352621E+06 -1.582600E+04  6.303221E+03
        36  22 -8.973576E+06 -1.318401E+06 -7.830931E+03 -3.440611E+06  7.406179E+02 -2.311784E+03
        36  23 -9.030743E+06 -1.259788E+06 -9.302033E+03 -3.373716E+06 -6.411709E+03  2.564946E+03
        36  24 -8.973845E+06 -1.320161E+06 -1.514107E+04 -3.439966E+06 -1.347060E+04  7.181554E+03
        36  25 -8.972236E+06 -1.317705E+06 -8.037316E+03 -3.439899E+06  3.287924E+03 -1.363278E+03
        36  26 -9.191276E+06 -1.320379E+06 -5.275692E+04 -3.417016E+06 -3.961735E+03  3.477919E+03
        36  27 -9.296244E+06 -1.442060E+06 -1.019253E+05 -3.527269E+06 -1.111654E+04  8.059384E+03
        37   1 -8.361397E+06 -1.081513E+06  1.484676E+05 -3.270989E+06  2.008846E+04 -8.971162E+03
        37   2 -8.275870E+06 -9.803895E+05  1.696988E+05 -3.178428E+06  3.845469E+04 -8.722411E+03
        37   3 -8.105011E+06 -9.942683E+05  1.733290E+05 -3.188912E+06  5.634088E+04 -7.145326E+03
        37   4 -8.979435E+06 -1.312906E+06 -1.900317E+04 -3.435703E+06  1.763938E+04 -9.885790E+03
        37   5 -9.023259E+06 -1.263452E+06 -3.270330E+04 -3.381175E+06  3.648602E+04 -9.460419E+03
        37   6 -8.981873E+06 -1.329123E+06 -6.440619E+04 -3.429705E+06  5.484862E+04 -7.707453E+03
        37   7 -9.597097E+06 -1.544278E+06 -1.865072E+05 -3.600266E+06  1.519303E+04 -1.079942E+04
        37   8 -9.770101E+06 -1.546480E+06 -2.351550E+05 -3.583696E+06  3.451998E+04 -1.019744E+04
        37   9 -9.857983E+06 -1.663928E+06 -3.022107E+05 -3.670184E+06  5.335866E+04 -8.268700E+03
        37  10 -8.361397E+06 -1.081514E+06  1.484667E+05 -3.270988E+06 -1.291950E-10 -3.957750E-10
        37  11 -8.275871E+06 -9.803900E+05  1.696959E+05 -3.178428E+06 -3.538066E-09 -6.912109E-10
        37  12 -8.105015E+06 -9.942693E+05  1.733229E+05 -3.188912E+06  6.901312E-11  3.620619E-10
        37  13 -8.979436E+06 -1.312907E+06 -1.900394E+04 -3.435703E+06  3.341338E-09  4.809523E-09
        37  14 -9.023261E+06 -1.263452E+06 -3.270600E+04 -3.381174E+06 -3.687409E-09 -1.574154E-09
        37  15 -8.981877E+06 -1.329124E+06 -6.441202E+04 -3.429704E+06 -3.715703E-09 -3.238433E-09
        37  16 -9.597097E+06 -1.544278E+06 -1.865079E+05 -3.600266E+06  3.473604E-09 -4.640638E-10
        37  17 -9.770102E+06 -1.546480E+06 -2.351575E+05 -3.583696E+06  7.855686E-10 -3.520879E-09
        37  18 -9.857986E+06 -1.663929E+06 -3.022162E+05 -3.670183E+06  1.936349E-09 -1.065764E-09
        37  19 -8.361397E+06 -1.081513E+06  1.484676E+05 -3.270989E+06 -2.008846E+04  8.971162E+03
        37  20 -8.275870E+06 -9.803895E+05  1.696988E+05 -3.178428E+06 -3.845469E+04  8.722411E+03
        37  21 -8.105011E+06 -9.942683E+05  1.733290E+05 -3.188912E+06 -5.634088E+04  7.145326E+03
        37  22 -8.979435E+06 -1.312906E+06 -1.900317E+04 -3.435703E+06 -1.763938E+04  9.885790E+03
        37  23 -9.023259E+06 -1.263452E+06 -3.270330E+04 -3.381175E+06 -3.648602E+04  9.460419E+03
        37  24 -8.981873E+06 -1.329123E+06 -6.440619E+04 -3.429705E+06 -5.484862E+04  7.707453E+03
        37  25 -9.597097E+06 -1.544278E+06 -1.865072E+05 -3.600266E+06 -1.519303E+04  1.079942E+04
        37  26 -9.770101E+06 -1.546480E+06 -2.351550E+05 -3.583696E+06 -3.451998E+04  1.019744E+04
        37  27 -9.857983E+06 -1.663928E+06 -3.022107E+05 -3.670184E+06 -5.335866E+04  8.268700E+03
        38   1 -7.908906E+06 -9.015813E+05  2.108568E+05 -3.148840E+06  6.985912E+04 -5.320781E+03
        38   2 -7.856575E+06 -8.150550E+05  1.700986E+05 -3.081177E+06  1.430542E+05  1.817814E+04
        38   3 -7.826023E+06 -9.458349E+05  2.980879E+04 -3.025707E+06  2.147027E+05  4.582656E+04
        38   4 -8.998290E+06 -1.299485E+06 -8.166905E+04 -3.429238E+06  6.768488E+04 -6.138625E+03
        38   5 -8.996796E+06 -1.255093E+06 -1.401902E+05 -3.399007E+06  1.423124E+05  1.789212E+04
        38   6 -9.017502E+06 -1.428510E+06 -2.995393E+05 -3.380952E+06  2.153853E+05  4.606684E+04
        38   7 -1.008652E+07 -1.697341E+06 -3.743006E+05 -3.709195E+06  6.551480E+04 -6.955043E+03
        38   8 -1.013575E+07 -1.695042E+06 -4.505978E+05 -3.716296E+06  1.415719E+05  1.760661E+04
        38   9 -1.020759E+07 -1.911046E+06 -6.290202E+05 -3.735551E+06  2.160660E+05  4.630633E+04
        38  10 -7.908911E+06 -9.015827E+05  2.108475E+05 -3.148839E+06  7.261106E-10  1.682256E-09
        38  11 -7.856597E+06 -8.150610E+05  1.700590E+05 -3.081179E+06  2.809394E-09  1.309045E-09
        38  12 -7.826073E+06 -9.458497E+05  2.971693E+04 -3.025715E+06 -3.745919E-10 -7.757872E-11
        38  13 -8.998295E+06 -1.299486E+06 -8.167784E+04 -3.429238E+06  2.189411E-09 -2.140488E-09
        38  14 -8.996818E+06 -1.255099E+06 -1.402295E+05 -3.399009E+06 -3.800129E-09  6.304215E-10
        38  15 -9.017553E+06 -1.428525E+06 -2.996320E+05 -3.380960E+06 -2.130875E-09 -1.552681E-09
        38  16 -1.008652E+07 -1.697342E+06 -3.743089E+05 -3.709195E+06  1.062192E-09 -1.416678E-10
        38  17 -1.013577E+07 -1.695048E+06 -4.506367E+05 -3.716298E+06  1.618760E-09  1.632191E-09
        38  18 -1.020764E+07 -1.911061E+06 -6.291136E+05 -3.735559E+06 -3.598368E-09 -7.534217E-10
        38  19 -7.908906E+06 -9.015813E+05  2.108568E+05 -3.148840E+06 -6.985912E+04  5.320781E+03
        38  20 -7.856575E+06 -8.150550E+05  1.700986E+05 -3.081177E+06 -1.430542E+05 -1.817814E+04
        38  21 -7.826023E+06 -9.458349E+05  2.980879E+04 -3.025707E+06 -2.147027E+05 -4.582656E+04
        38  22 -8.998290E+06 -1.299485E+06 -8.166905E+04 -3.429238E+06 -6.768488E+04  6.138625E+03
        38  23 -8.996796E+06 -1.255093E+06 -1.401902E+05 -3.399007E+06 -1.423124E+05 -1.789212E+04
        38  24 -9.017502E+06 -1.428510E+06 -2.995393E+05 -3.380952E+06 -2.153853E+05 -4.606684E+04
        38  25 -1.008652E+07 -1.697341E+06 -3.743006E+05 -3.709195E+06 -6.551480E+04  6.955043E+03
        38  26 -1.013575E+07 -1.695042E+06 -4.505978E+05 -3.716296E+06 -1.415719E+05 -1.760661E+04
        38  27 -1.020759E+07 -1.911046E+06 -6.290202E+05 -3.735551E+06 -2.160660E+05 -4.630633E+04
        39   1 -7.724862E+06 -8.581311E+05 -2.263512E+04 -3.204410E+06  2.751744E+05  6.396856E+04
        39   2 -7.668582E+06 -5.723638E+05 -2.566010E+05 -3.043516E+06  5.926196E+05  1.837159E+05
        39   3 -8.177476E+06 -1.634851E+06 -1.101347E+06 -2.513358E+06  9.000873E+05  3.297372E+05
        39   4 -9.076646E+06 -1.257143E+06 -3.663308E+05 -3.456224E+06  2.696730E+05  6.194347E+04
        39   5 -8.870319E+06 -1.100957E+06 -5.958464E+05 -3.444430E+06  5.963772E+05  1.850530E+05
        39   6 -9.232161E+06 -2.296655E+06 -1.444490E+06 -3.062996E+06  9.131743E+05  3.342505E+05
        39   7 -1.042663E+07 -1.656191E+06 -7.101621E+05 -3.707613E+06  2.641844E+05  5.992073E+04
        39   8 -1.007062E+07 -1.629317E+06 -9.352302E+05 -3.844582E+06  6.001255E+05  1.863853E+05
        39   9 -1.028558E+07 -2.957668E+06 -1.787734E+06 -3.611586E+06  9.262354E+05  3.387396E+05
        39  10 -7.724945E+06 -8.581563E+05 -2.278726E+04 -3.204425E+06 -2.780068E-09 -1.508580E-09
        39  11 -7.668972E+06 -5.724965E+05 -2.573349E+05 -3.043604E+06 -3.890082E-09  1.653627E-09
        39  12 -8.178386E+06 -1.635191E+06 -1.103100E+06 -2.513599E+06  6.584509E-09  4.146909E-10
        39  13 -9.076726E+06 -1.257168E+06 -3.664770E+05 -3.456238E+06 -3.757131E-10 -8.785895E-10
        39  14 -8.870715E+06 -1.101092E+06 -5.965914E+05 -3.444520E+06  3.066175E-09  4.245343E-10
        39  15 -9.233099E+06 -2.297005E+06 -1.446297E+06 -3.063245E+06  2.523055E-09  1.820189E-09
        39  16 -1.042670E+07 -1.656214E+06 -7.103026E+05 -3.707626E+06 -3.025366E-09 -4.255140E-10
        39  17 -1.007103E+07 -1.629453E+06 -9.359863E+05 -3.844673E+06  3.269961E-09  3.710147E-11
        39  18 -1.028655E+07 -2.958029E+06 -1.789597E+06 -3.611842E+06 -2.943240E-09  8.491449E-10
        39  19 -7.724862E+06 -8.581311E+05 -2.263512E+04 -3.204410E+06 -2.751744E+05 -6.396856E+04
        39  20 -7.668582E+06 -5.723638E+05 -2.566010E+05 -3.043516E+06 -5.926196E+05 -1.837159E+05
        39  21 -8.177476E+06 -1.634851E+06 -1.101347E+06 -2.513358E+06 -9.000873E+05 -3.297372E+05
        39  22 -9.076646E+06 -1.257143E+06 -3.663308E+05 -3.456224E+06 -2.696730E+05 -6.194347E+04
        39  23 -8.870319E+06 -1.100957E+06 -5.958464E+05 -3.444430E+06 -5.963772E+05 -1.850530E+05
        39  24 -9.232161E+06 -2.296655E+06 -1.444490E+06 -3.062996E+06 -9.131743E+05 -3.342505E+05
        39  25 -1.042663E+07 -1.656191E+06 -7.101621E+05 -3.707613E+06 -2.641844E+05 -5.992073E+04
        39  26 -1.007062E+07 -1.629317E+06 -9.352302E+05 -3.844582E+06 -6.001255E+05 -1.863853E+05
        39  27 -1.028558E+07 -2.957668E+06 -1.787734E+06 -3.611586E+06 -9.262354E+05 -3.387396E+05
        40   1  3.795476E+05  9.939545E+04  4.250581E+05 -2.479614E+05 -6.863472E+02  2.642548E+05
        40   2  7.338496E+04  2.071331E+04  2.172668E+05 -1.238339E+05  1.183758E+03  1.541815E+05
        40   3  4.780530E+03  1.563123E+04  1.405339E+05 -9.902839E+03  2.351958E+02  4.409749E+04
        40   4  3.520415E+05  6.477324E+02  4.006237E+05 -3.687006E+04 -5.755817E+02  2.604537E+05
        40   5  5.837655E+04 -3.579712E+04  2.048566E+05 -3.275115E+04  1.204784E+03  1.544603E+05
        40   6  1.523241E+03  6.334722E+02  1.373215E+05 -3.880893E+04  2.088943E+02  4.844874E+04
        40   7  3.247019E+05 -9.799571E+04  3.762125E+05  1.741873E+05 -4.673871E+02  2.566532E+05
        40   8  4.339903E+04 -9.228680E+04  1.924505E+05  5.832308E+04  1.225892E+03  1.547391E+05
        40   9 -1.730906E+03 -1.436224E+04  1.341096E+05 -6.771432E+04  1.821873E+02  5.279989E+04
        40  10  3.795288E+05  9.932050E+04  4.249269E+05 -2.479613E+05  8.217453E-10  1.561659E-08
        40  11  7.337858E+04  2.068779E+04  2.172222E+05 -1.238340E+05  7.267899E-09  5.516076E-09
        40  12  4.780008E+03  1.562914E+04  1.405302E+05 -9.902847E+03 -4.007754E-09 -6.056817E-09
        40  13  3.520233E+05  5.749095E+02  4.004963E+05 -3.686994E+04  5.460897E-10 -1.362549E-09
        40  14  5.837014E+04 -3.582273E+04  2.048117E+05 -3.275130E+04  6.500727E-09 -1.407227E-10
        40  15  1.522611E+03  6.309520E+02  1.373171E+05 -3.880894E+04  8.718513E-09 -2.895717E-09
        40  16  3.246842E+05 -9.806643E+04  3.760887E+05  1.741874E+05 -3.317144E-09 -1.643905E-08
        40  17  4.339260E+04 -9.231251E+04  1.924055E+05  5.832293E+04 -5.692347E-09 -2.334593E-09
        40  18 -1.731654E+03 -1.436523E+04  1.341044E+05 -6.771433E+04 -4.799915E-09  6.719504E-09
        40  19  3.795476E+05  9.939545E+04  4.250581E+05 -2.479614E+05  6.863472E+02 -2.642548E+05
        40  20  7.338496E+04  2.071331E+04  2.172668E+05 -1.238339E+05 -1.183758E+03 -1.541815E+05
        40  21  4.780530E+03  1.563123E+04  1.405339E+05 -9.902839E+03 -2.351958E+02 -4.409749E+04
        40  22  3.520415E+05  6.477324E+02  4.006237E+05 -3.687006E+04  5.755817E+02 -2.604537E+05
        40  23  5.837655E+04 -3.579712E+04  2.048566E+05 -3.275115E+04 -1.204784E+03 -1.544603E+05
        40  24  1.523241E+03  6.334722E+02  1.373215E+05 -3.880893E+04 -2.088943E+02 -4.844874E+04
        40  25  3.247019E+05 -9.799571E+04  3.762125E+05  1.741873E+05  4.673871E+02 -2.566532E+05
        40  26  4.339903E+04 -9.228680E+04  1.924505E+05  5.832308E+04 -1.225892E+03 -1.547391E+05
        40  27 -1.730906E+03 -1.436224E+04  1.341096E+05 -6.771432E+04 -1.821873E+02 -5.279989E+04
        41   1  9.899034E+03 -2.683433E+04  1.219752E+05 -4.830404E+04 -1.430267E+03  2.400897E+04
        41   2 -9.825819E+03 -7.745399E+04  1.119182E+05 -3.219483E+04 -3.681328E+03 -3.686624E+04
        41   3 -4.289816E+01 -1.129137E+05  1.488522E+05 -2.722547E+04 -5.729873E+03 -9.773763E+04
        41   4  1.318092E+04 -1.218283E+04  1.243763E+05 -3.870459E+04 -1.451857E+03  2.795144E+04
        41   5  3.862241E+03 -1.978570E+04  1.226329E+05 -3.310466E+04 -3.701474E+03 -3.322718E+04
        41   6  2.410186E+04 -1.218009E+04  1.680885E+05 -3.864365E+04 -5.746541E+03 -9.440600E+04
        41   7  1.646315E+04  2.469124E+03  1.267775E+05 -2.910491E+04 -1.473326E+03  3.189399E+04
        41   8  1.755012E+04  3.788584E+04  1.333475E+05 -3.401458E+04 -3.721630E+03 -2.958779E+04
        41   9  4.824651E+04  8.856357E+04  1.873244E+05 -5.006372E+04 -5.763330E+03 -9.107384E+04
        41  10  9.898877E+03 -2.683495E+04  1.219741E+05 -4.830401E+04 -2.093229E-09 -8.229939E-09
        41  11 -9.826199E+03 -7.745545E+04  1.119156E+05 -3.219494E+04  2.778805E-09  1.817301E-08
        41  12 -4.549804E+01 -1.129239E+05  1.488342E+05 -2.722592E+04  5.535417E-09  3.831431E-08
        41  13  1.318070E+04 -1.218367E+04  1.243748E+05 -3.870456E+04  9.039485E-09 -1.700978E-09
        41  14  3.861930E+03 -1.978689E+04  1.226308E+05 -3.310476E+04 -2.846954E-09 -1.820034E-10
        41  15  2.409944E+04 -1.218966E+04  1.680717E+05 -3.864409E+04 -8.468364E-09 -3.094506E-09
        41  16  1.646287E+04  2.468031E+03  1.267756E+05 -2.910487E+04  6.474446E-10  7.267017E-09
        41  17  1.754987E+04  3.788490E+04  1.333459E+05 -3.401467E+04 -1.764631E-09 -1.532269E-08
        41  18  4.824425E+04  8.855465E+04  1.873088E+05 -5.006415E+04  1.390026E-09 -3.719913E-08
        41  19  9.899034E+03 -2.683433E+04  1.219752E+05 -4.830404E+04  1.430267E+03 -2.400897E+04
        41  20 -9.825819E+03 -7.745399E+04  1.119182E+05 -3.219483E+04  3.681328E+03  3.686624E+04
        41  21 -4.289816E+01 -1.129137E+05  1.488522E+05 -2.722547E+04  5.729873E+03  9.773763E+04
        41  22  1.318092E+04 -1.218283E+04  1.243763E+05 -3.870459E+04  1.451857E+03 -2.795144E+04
        41  23  3.862241E+03 -1.978570E+04  1.226329E+05 -3.310466E+04  3.701474E+03  3.322718E+04
        41  24  2.410186E+04 -1.218009E+04  1.680885E+05 -3.864365E+04  5.746541E+03  9.440600E+04
        41  25  1.646315E+04  2.469124E+03  1.267775E+05 -2.910491E+04  1.473326E+03 -3.189399E+04
        41  26  1.755012E+04  3.788584E+04  1.333475E+05 -3.401458E+04  3.721630E+03  2.958779E+04
        41  27  4.824651E+04  8.856357E+04  1.873244E+05 -5.006372E+04  5.763330E+03  9.107384E+04
        42   1 -2.832549E+04 -1.178947E+05  1.801701E+05 -9.195534E+04 -7.295154E+03 -1.270166E+05
        42   2  6.027274E+04 -2.219665E+05  3.099906E+05  1.272127E+05 -6.564393E+03 -2.978678E+05
        42   3  5.664137E+05 -1.994136E+05  6.555371E+05  3.370719E+05 -3.675580E+02 -4.686711E+05
        42   4  2.099321E+03  1.286919E+04  2.050780E+05 -3.883354E+04 -7.329495E+03 -1.227697E+05
        42   5  1.035973E+05 -5.106772E+04  3.454088E+05 -3.246427E+04 -6.466144E+03 -3.018334E+05
        42   6  6.238271E+05  1.290153E+04  7.071077E+05 -3.542612E+04 -2.025935E+01 -4.808629E+05
        42   7  3.253384E+04  1.436558E+05  2.299868E+05  1.429971E+04 -7.363104E+03 -1.185220E+05
        42   8  1.470156E+05  1.199133E+05  3.808391E+05 -1.921862E+05 -6.365876E+03 -3.058002E+05
        42   9  6.817579E+05  2.255551E+05  7.587498E+05 -4.080534E+05  3.415796E+02 -4.930589E+05
        42  10 -2.832988E+04 -1.179120E+05  1.801397E+05 -9.195608E+04  3.773728E-09 -3.018404E-08
        42  11  6.024887E+04 -2.220618E+05  3.098237E+05  1.272112E+05  5.880922E-09 -1.946342E-08
        42  12  5.663547E+05 -1.996494E+05  6.551242E+05  3.370718E+05  2.211993E-09 -3.046615E-09
        42  13  2.095218E+03  1.285300E+04  2.050496E+05 -3.883427E+04 -1.151080E-08 -1.614396E-09
        42  14  1.035728E+05 -5.116554E+04  3.452375E+05 -3.246584E+04 -9.290714E-09 -5.188768E-10
        42  15  6.237650E+05  1.265336E+04  7.066732E+05 -3.542614E+04 -5.226804E-09 -2.828337E-09
        42  16  3.253002E+04  1.436407E+05  2.299603E+05  1.429900E+04  1.278794E-09  2.982538E-08
        42  17  1.469905E+05  1.198129E+05  3.806633E+05 -1.921878E+05 -1.518367E-09  2.218808E-08
        42  18  6.816926E+05  2.252943E+05  7.582931E+05 -4.080533E+05 -1.741367E-09  4.366675E-09
        42  19 -2.832549E+04 -1.178947E+05  1.801701E+05 -9.195534E+04  7.295154E+03  1.270166E+05
        42  20  6.027274E+04 -2.219665E+05  3.099906E+05  1.272127E+05  6.564393E+03  2.978678E+05
        42  21  5.664137E+05 -1.994136E+05  6.555371E+05  3.370719E+05  3.675580E+02  4.686711E+05
        42  22  2.099321E+03  1.286919E+04  2.050780E+05 -3.883354E+04  7.329495E+03  1.227697E+05
        42  23  1.035973E+05 -5.106772E+04  3.454088E+05 -3.246427E+04  6.466144E+03  3.018334E+05
        42  24  6.238271E+05  1.290153E+04  7.071077E+05 -3.542612E+04  2.025935E+01  4.808629E+05
        42  25  3.253384E+04  1.436558E+05  2.299868E+05  1.429971E+04  7.363104E+03  1.185220E+05
        42  26  1.470156E+05  1.199133E+05  3.808391E+05 -1.921862E+05  6.365876E+03  3.058002E+05
        42  27  6.817579E+05  2.255551E+05  7.587498E+05 -4.080534E+05 -3.415796E+02  4.930589E+05
        43   1 -6.232270E+06 -1.886136E+06 -1.147449E+06 -2.157942E+06 -4.663649E+05 -1.603165E+05
        43   2 -6.086677E+06 -1.188112E+06 -7.092425E+05 -2.224176E+06 -3.060856E+05 -6.492418E+04
        43   3 -6.166745E+06 -1.198108E+06 -5.812378E+05 -2.165039E+06 -1.328162E+05 -3.641985E+03
        43   4 -4.708210E+06 -1.178017E+06 -7.024935E+05 -1.611990E+06 -4.493244E+05 -1.539488E+05
        43   5 -4.559771E+06 -5.731695E+05 -2.906413E+05 -1.770365E+06 -3.015964E+05 -6.325140E+04
        43   6 -4.633857E+06 -6.728514E+05 -1.783743E+05 -1.803549E+06 -1.408961E+05 -6.687433E+03
        43   7 -3.181861E+06 -4.694137E+05 -2.577712E+05 -1.064704E+06 -4.322363E+05 -1.475540E+05
        43   8 -3.030597E+06  4.199350E+04  1.277438E+05 -1.315508E+06 -2.970941E+05 -6.157296E+04
        43   9 -3.098688E+06 -1.475556E+05  2.242922E+05 -1.441292E+06 -1.489978E+05 -9.739279E+03
        43  10 -6.232513E+06 -1.886223E+06 -1.147911E+06 -2.158003E+06  1.569042E-09  1.230928E-09
        43  11 -6.086779E+06 -1.188142E+06 -7.094285E+05 -2.224192E+06 -6.507560E-10  3.552549E-09
        43  12 -6.166764E+06 -1.198113E+06 -5.812713E+05 -2.165040E+06 -9.354932E-10  3.874478E-09
        43  13 -4.708435E+06 -1.178097E+06 -7.029210E+05 -1.612046E+06 -5.245473E-09  5.631871E-10
        43  14 -4.559870E+06 -5.731985E+05 -2.908212E+05 -1.770380E+06  2.315474E-09  5.817533E-10
        43  15 -4.633878E+06 -6.728568E+05 -1.784120E+05 -1.803550E+06  2.447630E-09  3.859033E-09
        43  16 -3.182068E+06 -4.694877E+05 -2.581655E+05 -1.064756E+06  1.745714E-10  1.518012E-09
        43  17 -3.030693E+06  4.196554E+04  1.275699E+05 -1.315523E+06 -7.120017E-09  2.575095E-09
        43  18 -3.098712E+06 -1.475617E+05  2.242501E+05 -1.441293E+06  1.365333E-09  5.273447E-09
        43  19 -6.232270E+06 -1.886136E+06 -1.147449E+06 -2.157942E+06  4.663649E+05  1.603165E+05
        43  20 -6.086677E+06 -1.188112E+06 -7.092425E+05 -2.224176E+06  3.060856E+05  6.492418E+04
        43  21 -6.166745E+06 -1.198108E+06 -5.812378E+05 -2.165039E+06  1.328162E+05  3.641985E+03
        43  22 -4.708210E+06 -1.178017E+06 -7.024935E+05 -1.611990E+06  4.493244E+05  1.539488E+05
        43  23 -4.559771E+06 -5.731695E+05 -2.906413E+05 -1.770365E+06  3.015964E+05  6.325140E+04
        43  24 -4.633857E+06 -6.728514E+05 -1.783743E+05 -1.803549E+06  1.408961E+05  6.687433E+03
        43  25 -3.181861E+06 -4.694137E+05 -2.577712E+05 -1.064704E+06  4.322363E+05  1.475540E+05
        43  26 -3.030597E+06  4.199350E+04  1.277438E+05 -1.315508E+06  2.970941E+05  6.157296E+04
        43  27 -3.098688E+06 -1.475556E+05  2.242922E+05 -1.441292E+06  1.489978E+05  9.739279E+03
        44   1 -5.917416E+06 -1.269714E+06 -5.038934E+05 -2.141567E+06 -1.128629E+05 -3.957441E+03
        44   2 -5.834712E+06 -1.107827E+06 -3.962908E+05 -2.079796E+06 -7.517463E+04  9.395790E+03
        44   3 -5.706350E+06 -1.106652E+06 -3.385596E+05 -2.086159E+06 -3.590211E+04  1.852087E+04
        44   4 -4.603923E+06 -7.576405E+05 -1.459702E+05 -1.768583E+06 -1.124961E+05 -3.828197E+03
        44   5 -4.622343E+06 -6.459327E+05 -6.860758E+04 -1.746341E+06 -7.633409E+04  8.954519E+03
        44   6 -4.594744E+06 -6.945157E+05 -3.981325E+04 -1.792241E+06 -3.859618E+04  1.750879E+04
        44   7 -3.288750E+06 -2.454357E+05  2.117969E+05 -1.394869E+06 -1.121282E+05 -3.698511E+03
        44   8 -3.408544E+06 -1.839447E+05  2.589443E+05 -1.412291E+06 -7.749596E+04  8.512339E+03
        44   9 -3.481941E+06 -2.823186E+05  2.588238E+05 -1.497849E+06 -4.129555E+04  1.649481E+04
        44  10 -5.917430E+06 -1.269717E+06 -5.039176E+05 -2.141567E+06  6.079541E-10  3.201912E-09
        44  11 -5.834719E+06 -1.107829E+06 -3.963017E+05 -2.079796E+06 -1.189961E-09 -2.109232E-09
        44  12 -5.706351E+06 -1.106653E+06 -3.385626E+05 -2.086159E+06 -2.793775E-09 -8.080748E-10
        44  13 -4.603937E+06 -7.576439E+05 -1.459942E+05 -1.768583E+06  1.249198E-08  2.217719E-09
        44  14 -4.622349E+06 -6.459343E+05 -6.861875E+04 -1.746341E+06  2.137123E-09 -1.435752E-09
        44  15 -4.594746E+06 -6.945164E+05 -3.981663E+04 -1.792241E+06  1.279939E-09  6.145988E-10
        44  16 -3.288764E+06 -2.454391E+05  2.117731E+05 -1.394870E+06  2.265440E-10  1.761648E-09
        44  17 -3.408551E+06 -1.839464E+05  2.589328E+05 -1.412291E+06 -3.220664E-09 -1.039896E-09
        44  18 -3.481943E+06 -2.823194E+05  2.588200E+05 -1.497849E+06  1.980317E-09  8.950191E-10
        44  19 -5.917416E+06 -1.269714E+06 -5.038934E+05 -2.141567E+06  1.128629E+05  3.957441E+03
        44  20 -5.834712E+06 -1.107827E+06 -3.962908E+05 -2.079796E+06  7.517463E+04 -9.395790E+03
        44  21 -5.706350E+06 -1.106652E+06 -3.385596E+05 -2.086159E+06  3.590211E+04 -1.852087E+04
        44  22 -4.603923E+06 -7.576405E+05 -1.459702E+05 -1.768583E+06  1.124961E+05  3.828197E+03
        44  23 -4.622343E+06 -6.459327E+05 -6.860758E+04 -1.746341E+06  7.633409E+04 -8.954519E+03
        44  24 -4.594744E+06 -6.945157E+05 -3.981325E+04 -1.792241E+06  3.859618E+04 -1.750879E+04
        44  25 -3.288750E+06 -2.454357E+05  2.117969E+05 -1.394869E+06  1.121282E+05  3.698511E+03
        44  26 -3.408544E+06 -1.839447E+05  2.589443E+05 -1.412291E+06  7.749596E+04 -8.512339E+03
        44  27 -3.481941E+06 -2.823186E+05  2.588238E+05 -1.497849E+06  4.129555E+04 -1.649481E+04
        45   1 -5.445274E+06 -1.034348E+06 -2.627607E+05 -2.026975E+06 -2.969536E+04  1.679118E+04
        45   2 -5.352123E+06 -9.195146E+05 -2.092527E+05 -1.931284E+06 -1.925388E+04  1.481567E+04
        45   3 -5.161138E+06 -9.166326E+05 -1.646770E+05 -1.950143E+06 -8.499639E+03  1.197256E+04
        45   4 -4.586718E+06 -7.093863E+05 -3.148521E+04 -1.792878E+06 -3.150790E+04  1.611099E+04
        45   5 -4.635060E+06 -6.493651E+05 -1.605405E+04 -1.737117E+06 -2.138354E+04  1.401940E+04
        45   6 -4.585524E+06 -7.012166E+05 -9.290634E+03 -1.795906E+06 -1.094873E+04  1.105992E+04
        45   7 -3.727448E+06 -3.843808E+05  1.997241E+05 -1.558488E+06 -3.332320E+04  1.542977E+04
        45   8 -3.917499E+06 -3.791859E+05  1.770988E+05 -1.542747E+06 -2.351591E+04  1.322211E+04
        45   9 -4.009589E+06 -4.857823E+05  1.460666E+05 -1.641540E+06 -1.340033E+04  1.014636E+04
        45  10 -5.445275E+06 -1.034349E+06 -2.627629E+05 -2.026974E+06 -2.187167E-09  2.289341E-09
        45  11 -5.352124E+06 -9.195150E+05 -2.092538E+05 -1.931283E+06 -1.189608E-09  1.396263E-09
        45  12 -5.161138E+06 -9.166328E+05 -1.646774E+05 -1.950143E+06 -3.270899E-09  5.765329E-11
        45  13 -4.586719E+06 -7.093868E+05 -3.148757E+04 -1.792878E+06 -4.995601E-10  9.062417E-10
        45  14 -4.635061E+06 -6.493654E+05 -1.605528E+04 -1.737117E+06 -4.109972E-09 -5.582853E-10
        45  15 -4.585524E+06 -7.012167E+05 -9.291089E+03 -1.795906E+06 -7.909381E-10  3.617767E-09
        45  16 -3.727449E+06 -3.843813E+05  1.997216E+05 -1.558487E+06 -4.849693E-10  5.864340E-10
        45  17 -3.917500E+06 -3.791862E+05  1.770975E+05 -1.542746E+06  3.031927E-09 -1.900312E-09
        45  18 -4.009589E+06 -4.857824E+05  1.460660E+05 -1.641540E+06  5.710958E-09  2.614348E-09
        45  19 -5.445274E+06 -1.034348E+06 -2.627607E+05 -2.026975E+06  2.969536E+04 -1.679118E+04
        45  20 -5.352123E+06 -9.195146E+05 -2.092527E+05 -1.931284E+06  1.925388E+04 -1.481567E+04
        45  21 -5.161138E+06 -9.166326E+05 -1.646770E+05 -1.950143E+06  8.499639E+03 -1.197256E+04
        45  22 -4.586718E+06 -7.093863E+05 -3.148521E+04 -1.792878E+06  3.150790E+04 -1.611099E+04
        45  23 -4.635060E+06 -6.493651E+05 -1.605405E+04 -1.737117E+06  2.138354E+04 -1.401940E+04
        45  24 -4.585524E+06 -7.012166E+05 -9.290634E+03 -1.795906E+06  1.094873E+04 -1.105992E+04
        45  25 -3.727448E+06 -3.843808E+05  1.997241E+05 -1.558488E+06  3.332320E+04 -1.542977E+04
        45  26 -3.917499E+06 -3.791859E+05  1.770988E+05 -1.542747E+06  2.351591E+04 -1.322211E+04
        45  27 -4.009589E+06 -4.857823E+05  1.460666E+05 -1.641540E+06  1.340033E+04 -1.014636E+04
        46   1 -4.864243E+06 -8.104211E+05 -8.260460E+04 -1.873952E+06 -5.859090E+03  8.734720E+03
        46   2 -4.762579E+06 -6.942733E+05 -3.803312E+04 -1.767084E+06 -1.164543E+03  3.369784E+03
        46   3 -4.550122E+06 -6.914704E+05  4.317389E+03 -1.789175E+06  3.574138E+03 -2.119091E+03
        46   4 -4.583025E+06 -7.047195E+05 -7.450609E+03 -1.797891E+06 -8.207306E+03  7.860874E+03
        46   5 -4.638348E+06 -6.476084E+05 -4.598721E+03 -1.733572E+06 -3.558978E+03  2.479169E+03
        46   6 -4.582894E+06 -7.038316E+05 -3.928079E+03 -1.798218E+06  1.132767E+03 -3.026603E+03
        46   7 -4.301729E+06 -5.990133E+05  6.769656E+04 -1.721799E+06 -1.055670E+04  6.986589E+03
        46   8 -4.514102E+06 -6.009427E+05  2.883421E+04 -1.700054E+06 -5.953935E+03  1.588359E+03
        46   9 -4.615664E+06 -7.161926E+05 -1.217353E+04 -1.807261E+06 -1.308442E+03 -3.934053E+03
        46  10 -4.864243E+06 -8.104212E+05 -8.260481E+04 -1.873952E+06  3.094885E-09  1.852473E-09
        46  11 -4.762579E+06 -6.942733E+05 -3.803315E+04 -1.767084E+06  5.402631E-09  3.691213E-10
        46  12 -4.550122E+06 -6.914704E+05  4.317357E+03 -1.789175E+06 -7.381392E-09  1.471144E-09
        46  13 -4.583025E+06 -7.047196E+05 -7.450851E+03 -1.797891E+06 -1.601836E-09 -1.073110E-10
        46  14 -4.638348E+06 -6.476084E+05 -4.598756E+03 -1.733572E+06 -3.913262E-09  1.154330E-09
        46  15 -4.582894E+06 -7.038316E+05 -3.928099E+03 -1.798218E+06  6.379809E-09  5.561848E-09
        46  16 -4.301729E+06 -5.990134E+05  6.769626E+04 -1.721799E+06 -1.332515E-09  1.282589E-09
        46  17 -4.514102E+06 -6.009428E+05  2.883414E+04 -1.700054E+06 -1.962538E-09 -1.153852E-09
        46  18 -4.615664E+06 -7.161926E+05 -1.217356E+04 -1.807261E+06  1.295327E-09  2.519038E-09
        46  19 -4.864243E+06 -8.104211E+05 -8.260460E+04 -1.873952E+06  5.859090E+03 -8.734720E+03
        46  20 -4.762579E+06 -6.942733E+05 -3.803312E+04 -1.767084E+06  1.164543E+03 -3.369784E+03
        46  21 -4.550122E+06 -6.914704E+05  4.317389E+03 -1.789175E+06 -3.574138E+03  2.119091E+03
        46  22 -4.583025E+06 -7.047195E+05 -7.450609E+03 -1.797891E+06  8.207306E+03 -7.860874E+03
        46  23 -4.638348E+06 -6.476084E+05 -4.598721E+03 -1.733572E+06  3.558978E+03 -2.479169E+03
        46  24 -4.582894E+06 -7.038316E+05 -3.928079E+03 -1.798218E+06 -1.132767E+03  3.026603E+03
        46  25 -4.301729E+06 -5.990133E+05  6.769656E+04 -1.721799E+06  1.055670E+04 -6.986589E+03
        46  26 -4.514102E+06 -6.009427E+05  2.883421E+04 -1.700054E+06  5.953935E+03 -1.588359E+03
        46  27 -4.615664E+06 -7.161926E+05 -1.217353E+04 -1.807261E+06  1.308442E+03  3.934053E+03
        47   1 -4.248672E+06 -5.770787E+05  8.671062E+04 -1.707018E+06  5.631938E+03 -5.645642E+03
        47   2 -4.151474E+06 -4.663178E+05  1.253466E+05 -1.603848E+06  1.051808E+04 -1.094575E+04
        47   3 -3.947389E+06 -4.647303E+05  1.616838E+05 -1.624244E+06  1.526661E+04 -1.584778E+04
        47   4 -4.583781E+06 -7.027596E+05 -4.016647E+03 -1.797095E+06  3.181967E+03 -6.556904E+03
        47   5 -4.637310E+06 -6.488755E+05 -5.378311E+03 -1.735038E+06  8.216348E+03 -1.180376E+04
        47   6 -4.584001E+06 -7.042043E+05 -9.156614E+03 -1.796565E+06  1.311234E+04 -1.665256E+04
        47   7 -4.918785E+06 -8.284354E+05 -9.475463E+04 -1.887129E+06  7.334411E+02 -7.467630E+03
        47   8 -5.122921E+06 -8.314210E+05 -1.361250E+05 -1.866136E+06  5.916592E+03 -1.266103E+04
        47   9 -5.220223E+06 -9.436561E+05 -1.800338E+05 -1.968726E+06  1.096050E+04 -1.745642E+04
        47  10 -4.248672E+06 -5.770787E+05  8.671050E+04 -1.707018E+06  1.705605E-09  4.408221E-09
        47  11 -4.151474E+06 -4.663180E+05  1.253461E+05 -1.603848E+06 -2.501356E-09  2.272480E-09
        47  12 -3.947390E+06 -4.647306E+05  1.616829E+05 -1.624244E+06  7.889478E-10 -2.255398E-10
        47  13 -4.583781E+06 -7.027597E+05 -4.016747E+03 -1.797095E+06  2.723917E-09  3.408578E-10
        47  14 -4.637310E+06 -6.488757E+05 -5.378699E+03 -1.735038E+06 -5.925242E-09  4.847801E-10
        47  15 -4.584001E+06 -7.042046E+05 -9.157457E+03 -1.796564E+06  5.158240E-10 -2.564009E-10
        47  16 -4.918785E+06 -8.284354E+05 -9.475473E+04 -1.887129E+06  2.376862E-09  1.785381E-09
        47  17 -5.122921E+06 -8.314212E+05 -1.361253E+05 -1.866136E+06 -1.612356E-09  2.139709E-10
        47  18 -5.220223E+06 -9.436565E+05 -1.800346E+05 -1.968725E+06  1.520608E-11 -9.263413E-10
        47  19 -4.248672E+06 -5.770787E+05  8.671062E+04 -1.707018E+06 -5.631938E+03  5.645642E+03
        47  20 -4.151474E+06 -4.663178E+05  1.253466E+05 -1.603848E+06 -1.051808E+04  1.094575E+04
        47  21 -3.947389E+06 -4.647303E+05  1.616838E+05 -1.624244E+06 -1.526661E+04  1.584778E+04
        47  22 -4.583781E+06 -7.027596E+05 -4.016647E+03 -1.797095E+06 -3.181967E+03  6.556904E+03
        47  23 -4.637310E+06 -6.488755E+05 -5.378311E+03 -1.735038E+06 -8.216348E+03  1.180376E+04
        47  24 -4.584001E+06 -7.042043E+05 -9.156614E+03 -1.796565E+06 -1.311234E+04  1.665256E+04
        47  25 -4.918785E+06 -8.284354E+05 -9.475463E+04 -1.887129E+06 -7.334411E+02  7.467630E+03
        47  26 -5.122921E+06 -8.314210E+05 -1.361250E+05 -1.866136E+06 -5.916592E+03  1.266103E+04
        47  27 -5.220223E+06 -9.436561E+05 -1.800338E+05 -1.968726E+06 -1.096050E+04  1.745642E+04
        48   1 -3.680532E+06 -3.581150E+05  2.330949E+05 -1.548338E+06  1.833505E+04 -1.858806E+04
        48   2 -3.600608E+06 -2.636345E+05  2.573980E+05 -1.461103E+06  3.028602E+04 -2.028187E+04
        48   3 -3.435214E+06 -2.709537E+05  2.713349E+05 -1.472656E+06  4.183842E+04 -2.086009E+04
        48   4 -4.588327E+06 -6.984846E+05 -1.152219E+04 -1.792647E+06  1.606208E+04 -1.943919E+04
        48   5 -4.631771E+06 -6.526977E+05 -2.028415E+04 -1.741323E+06  2.841889E+04 -2.098472E+04
        48   6 -4.589847E+06 -7.088171E+05 -3.974896E+04 -1.788801E+06  4.037467E+04 -2.141459E+04
        48   7 -5.495316E+06 -1.038806E+06 -2.562105E+05 -2.036631E+06  1.379280E+04 -2.028895E+04
        48   8 -5.661901E+06 -1.041698E+06 -2.980603E+05 -2.021120E+06  2.655517E+04 -2.168629E+04
        48   9 -5.743191E+06 -1.146600E+06 -3.509528E+05 -2.104413E+06  3.891388E+04 -2.196798E+04
        48  10 -3.680533E+06 -3.581154E+05  2.330937E+05 -1.548338E+06 -4.552004E-10  4.993651E-10
        48  11 -3.600609E+06 -2.636352E+05  2.573955E+05 -1.461102E+06  9.897197E-10 -7.054870E-10
        48  12 -3.435216E+06 -2.709546E+05  2.713308E+05 -1.472655E+06  4.891413E-10  2.479428E-09
        48  13 -4.588327E+06 -6.984851E+05 -1.152338E+04 -1.792647E+06 -5.039869E-09 -3.149167E-10
        48  14 -4.631772E+06 -6.526984E+05 -2.028650E+04 -1.741322E+06  1.510633E-09  2.682716E-10
        48  15 -4.589848E+06 -7.088180E+05 -3.975289E+04 -1.788801E+06  1.334714E-09  1.167352E-09
        48  16 -5.495316E+06 -1.038806E+06 -2.562116E+05 -2.036631E+06  4.202100E-09  7.084816E-10
        48  17 -5.661902E+06 -1.041698E+06 -2.980625E+05 -2.021119E+06 -3.578513E-09  8.805203E-10
        48  18 -5.743193E+06 -1.146601E+06 -3.509565E+05 -2.104412E+06  4.766761E-09  1.228664E-09
        48  19 -3.680532E+06 -3.581150E+05  2.330949E+05 -1.548338E+06 -1.833505E+04  1.858806E+04
        48  20 -3.600608E+06 -2.636345E+05  2.573980E+05 -1.461103E+06 -3.028602E+04  2.028187E+04
        48  21 -3.435214E+06 -2.709537E+05  2.713349E+05 -1.472656E+06 -4.183842E+04  2.086009E+04
        48  22 -4.588327E+06 -6.984846E+05 -1.152219E+04 -1.792647E+06 -1.606208E+04  1.943919E+04
        48  23 -4.631771E+06 -6.526977E+05 -2.028415E+04 -1.741323E+06 -2.841889E+04  2.098472E+04
        48  24 -4.589847E+06 -7.088171E+05 -3.974896E+04 -1.788801E+06 -4.037467E+04  2.141459E+04
        48  25 -5.495316E+06 -1.038806E+06 -2.562105E+05 -2.036631E+06 -1.379280E+04  2.028895E+04
        48  26 -5.661901E+06 -1.041698E+06 -2.980603E+05 -2.021120E+06 -2.655517E+04  2.168629E+04
        48  27 -5.743191E+06 -1.146600E+06 -3.509528E+05 -2.104413E+06 -3.891388E+04  2.196798E+04
        49   1 -3.234233E+06 -1.827669E+05  3.162465E+05 -1.425158E+06  5.115911E+04 -2.079321E+04
        49   2 -3.177790E+06 -9.903362E+04  3.015064E+05 -1.355094E+06  9.640865E+04 -8.170135E+03
        49   3 -3.102285E+06 -1.775108E+05  2.268205E+05 -1.324961E+06  1.399702E+05  8.967365E+03
        49   4 -4.600181E+06 -6.899845E+05 -5.033932E+04 -1.787980E+06  4.877598E+04 -2.169520E+04
        49   5 -4.615341E+06 -6.483895E+05 -8.682510E+04 -1.753027E+06  9.563843E+04 -8.469268E+03
        49   6 -4.611867E+06 -7.694977E+05 -1.846546E+05 -1.758000E+06  1.408053E+05  9.271357E+03
        49   7 -5.964323E+06 -1.197108E+06 -4.170899E+05 -2.150084E+06  4.639857E+04 -2.259514E+04
        49   8 -6.050889E+06 -1.197611E+06 -4.753413E+05 -2.150119E+06  9.486997E+04 -8.767735E+03
        49   9 -6.119236E+06 -1.361303E+06 -5.963362E+05 -2.190066E+06  1.416377E+05  9.574273E+03
        49  10 -3.234236E+06 -1.827681E+05  3.162408E+05 -1.425158E+06  3.740036E-09  1.856433E-09
        49  11 -3.177800E+06 -9.903620E+04  3.014887E+05 -1.355094E+06  4.731497E-09 -7.778152E-11
        49  12 -3.102306E+06 -1.775161E+05  2.267834E+05 -1.324962E+06  2.251002E-09  8.142208E-10
        49  13 -4.600183E+06 -6.899856E+05 -5.034469E+04 -1.787979E+06 -2.462969E-10  1.216928E-09
        49  14 -4.615351E+06 -6.483921E+05 -8.684253E+04 -1.753027E+06  5.206639E-09 -3.227087E-09
        49  15 -4.611889E+06 -7.695032E+05 -1.846923E+05 -1.758001E+06 -9.770176E-10  4.821755E-10
        49  16 -5.964325E+06 -1.197110E+06 -4.170949E+05 -2.150083E+06 -1.765023E-09  1.162574E-10
        49  17 -6.050899E+06 -1.197613E+06 -4.753585E+05 -2.150119E+06 -6.278874E-10  8.962533E-10
        49  18 -6.119258E+06 -1.361309E+06 -5.963745E+05 -2.190067E+06 -7.899406E-10 -1.568296E-11
        49  19 -3.234233E+06 -1.827669E+05  3.162465E+05 -1.425158E+06 -5.115911E+04  2.079321E+04
        49  20 -3.177790E+06 -9.903362E+04  3.015064E+05 -1.355094E+06 -9.640865E+04  8.170135E+03
        49  21 -3.102285E+06 -1.775108E+05  2.268205E+05 -1.324961E+06 -1.399702E+05 -8.967365E+03
        49  22 -4.600181E+06 -6.899845E+05 -5.033932E+04 -1.787980E+06 -4.877598E+04  2.169520E+04
        49  23 -4.615341E+06 -6.483895E+05 -8.682510E+04 -1.753027E+06 -9.563843E+04  8.469268E+03
        49  24 -4.611867E+06 -7.694977E+05 -1.846546E+05 -1.758000E+06 -1.408053E+05 -9.271357E+03
        49  25 -5.964323E+06 -1.197108E+06 -4.170899E+05 -2.150084E+06 -4.639857E+04  2.259514E+04
        49  26 -6.050889E+06 -1.197611E+06 -4.753413E+05 -2.150119E+06 -9.486997E+04  8.767735E+03
        49  27 -6.119236E+06 -1.361303E+06 -5.963362E+05 -2.190066E+06 -1.416377E+05 -9.574273E+03
        50   1 -2.963436E+06 -9.423486E+04  2.147473E+05 -1.413021E+06  1.836747E+05  1.838893E+04
        50   2 -2.908473E+06  1.101053E+05  7.984767E+04 -1.287673E+06  3.730849E+05  8.786780E+04
        50   3 -3.168696E+06 -5.371375E+05 -4.232815E+05 -9.632440E+05  5.490307E+05  1.925879E+05
        50   4 -4.648685E+06 -6.636470E+05 -2.257426E+05 -1.803857E+06  1.758036E+05  1.541232E+04
        50   5 -4.536922E+06 -5.548002E+05 -3.676252E+05 -1.781757E+06  3.780981E+05  8.973944E+04
        50   6 -4.743796E+06 -1.301527E+06 -8.887780E+05 -1.560329E+06  5.669234E+05  1.992692E+05
        50   7 -6.331187E+06 -1.233025E+06 -6.664688E+05 -2.193794E+06  1.679556E+05  1.244225E+04
        50   8 -6.162786E+06 -1.219427E+06 -8.153425E+05 -2.274621E+06  3.830955E+05  9.160409E+04
        50   9 -6.316412E+06 -2.065277E+06 -1.354518E+06 -2.155878E+06  5.847640E+05  2.059186E+05
        50  10 -2.963472E+06 -9.424434E+04  2.146829E+05 -1.413024E+06  5.428537E-09  1.761619E-09
        50  11 -2.908625E+06  1.100593E+05  7.957006E+04 -1.287699E+06  2.224471E-10  3.912385E-09
        50  12 -3.169031E+06 -5.372590E+05 -4.239213E+05 -9.633295E+05  3.421013E-09  1.637802E-09
        50  13 -4.648718E+06 -6.636557E+05 -2.258016E+05 -1.803859E+06 -3.867179E-09  5.262408E-09
        50  14 -4.537078E+06 -5.548477E+05 -3.679114E+05 -1.781784E+06 -1.432435E-09  3.504102E-12
        50  15 -4.744154E+06 -1.301657E+06 -8.894624E+05 -1.560420E+06 -2.195281E-11  8.091658E-10
        50  16 -6.331217E+06 -1.233033E+06 -6.665226E+05 -2.193796E+06 -6.234788E-09  2.085900E-09
        50  17 -6.162948E+06 -1.219476E+06 -8.156374E+05 -2.274650E+06 -3.797596E-09  6.376347E-09
        50  18 -6.316794E+06 -2.065416E+06 -1.355249E+06 -2.155976E+06 -3.322358E-10 -4.022262E-10
        50  19 -2.963436E+06 -9.423486E+04  2.147473E+05 -1.413021E+06 -1.836747E+05 -1.838893E+04
        50  20 -2.908473E+06  1.101053E+05  7.984767E+04 -1.287673E+06 -3.730849E+05 -8.786780E+04
        50  21 -3.168696E+06 -5.371375E+05 -4.232815E+05 -9.632440E+05 -5.490307E+05 -1.925879E+05
        50  22 -4.648685E+06 -6.636470E+05 -2.257426E+05 -1.803857E+06 -1.758036E+05 -1.541232E+04
        50  23 -4.536922E+06 -5.548002E+05 -3.676252E+05 -1.781757E+06 -3.780981E+05 -8.973944E+04
        50  24 -4.743796E+06 -1.301527E+06 -8.887780E+05 -1.560329E+06 -5.669234E+05 -1.992692E+05
        50  25 -6.331187E+06 -1.233025E+06 -6.664688E+05 -2.193794E+06 -1.679556E+05 -1.244225E+04
        50  26 -6.162786E+06 -1.219427E+06 -8.153425E+05 -2.274621E+06 -3.830955E+05 -9.160409E+04
        50  27 -6.316412E+06 -2.065277E+06 -1.354518E+06 -2.155878E+06 -5.847640E+05 -2.059186E+05
        51   1  2.314070E+05 -6.426664E+05  2.237246E+05 -1.984917E+03  9.964931E+03  7.017969E+03
        51   2  2.389041E+05 -6.617228E+05  2.186376E+05  1.874704E+03  3.076246E+04  2.021104E+03
        51   3  2.318854E+05 -6.828775E+05  2.134154E+05 -8.607488E+03  3.056011E+04 -3.057844E+03
        51   4 -1.235567E+04 -1.619259E+06 -1.743626E+04 -3.221399E+03  1.002710E+04 -8.724187E+03
        51   5  1.736709E+03 -1.617280E+06 -1.044922E+04  3.974073E+03  3.078866E+04 -3.149830E+03
        51   6 -5.373892E+02 -1.619244E+06 -1.095376E+04 -3.173432E+03  3.053595E+04  2.342398E+03
        51   7 -2.561895E+05 -2.594983E+06 -2.586670E+05 -4.455089E+03  1.008938E+04 -2.444158E+04
        51   8 -2.354971E+05 -2.571999E+06 -2.396007E+05  6.071119E+03  3.081485E+04 -8.312827E+03
        51   9 -2.330239E+05 -2.554806E+06 -2.353849E+05  2.253392E+03  3.051185E+04  7.734520E+03
        51  10  2.314069E+05 -6.426664E+05  2.237243E+05 -1.984973E+03  5.440641E-09 -1.033865E-10
        51  11  2.389031E+05 -6.617231E+05  2.186358E+05  1.874653E+03  7.888945E-09 -5.056027E-09
        51  12  2.318844E+05 -6.828777E+05  2.134136E+05 -8.607413E+03 -2.225132E-09  1.766194E-09
        51  13 -1.235580E+04 -1.619259E+06 -1.743659E+04 -3.221328E+03  8.719097E-09  2.111241E-09
        51  14  1.735689E+03 -1.617280E+06 -1.045102E+04  3.974152E+03 -1.395574E-09 -4.741438E-09
        51  15 -5.383912E+02 -1.619244E+06 -1.095552E+04 -3.173490E+03  2.311406E-09  1.780144E-09
        51  16 -2.561898E+05 -2.594983E+06 -2.586683E+05 -4.454890E+03 -6.837185E-10 -2.239856E-10
        51  17 -2.354981E+05 -2.571999E+06 -2.396026E+05  6.071326E+03 -3.591758E-09 -2.225584E-10
        51  18 -2.330249E+05 -2.554806E+06 -2.353868E+05  2.253202E+03 -1.896850E-10 -2.586063E-09
        51  19  2.314070E+05 -6.426664E+05  2.237246E+05 -1.984917E+03 -9.964931E+03 -7.017969E+03
        51  20  2.389041E+05 -6.617228E+05  2.186376E+05  1.874704E+03 -3.076246E+04 -2.021104E+03
        51  21  2.318854E+05 -6.828775E+05  2.134154E+05 -8.607488E+03 -3.056011E+04  3.057844E+03
        51  22 -1.235567E+04 -1.619259E+06 -1.743626E+04 -3.221399E+03 -1.002710E+04  8.724187E+03
        51  23  1.736709E+03 -1.617280E+06 -1.044922E+04  3.974073E+03 -3.078866E+04  3.149830E+03
        51  24 -5.373892E+02 -1.619244E+06 -1.095376E+04 -3.173432E+03 -3.053595E+04 -2.342398E+03
        51  25 -2.561895E+05 -2.594983E+06 -2.586670E+05 -4.455089E+03 -1.008938E+04  2.444158E+04
        51  26 -2.354971E+05 -2.571999E+06 -2.396007E+05  6.071119E+03 -3.081485E+04  8.312827E+03
        51  27 -2.330239E+05 -2.554806E+06 -2.353849E+05  2.253392E+03 -3.051185E+04 -7.734520E+03
        52   1  2.239575E+05 -7.142245E+05  2.055199E+05 -6.084087E+03  2.719036E+04  5.313000E+03
        52   2  2.197690E+05 -7.385294E+05  1.943944E+05  8.933058E+02  2.769658E+04  1.233186E+04
        52   3  2.011420E+05 -7.667775E+05  1.752132E+05 -1.178337E+04  2.539636E+04  1.933218E+04
        52   4 -8.041141E+02 -1.619284E+06 -1.209897E+04 -4.351524E+03  2.719826E+04  4.328543E+03
        52   5  1.609443E+03 -1.617189E+06 -1.644688E+04  5.445522E+03  2.769674E+04  1.275041E+04
        52   6 -1.067129E+04 -1.619288E+06 -2.983441E+04 -4.413371E+03  2.538707E+04  2.115400E+04
        52   7 -2.256255E+05 -2.523593E+06 -2.297762E+05 -2.620497E+03  2.720615E+04  3.345513E+03
        52   8 -2.166063E+05 -2.495140E+06 -2.273430E+05  9.992293E+03  2.769690E+04  1.316836E+04
        52   9 -2.225375E+05 -2.471132E+06 -2.349339E+05  2.947519E+03  2.537782E+04  2.297332E+04
        52  10  2.239567E+05 -7.142247E+05  2.055185E+05 -6.084204E+03 -4.408778E-09  3.633647E-09
        52  11  2.197681E+05 -7.385298E+05  1.943927E+05  8.930308E+02  1.345656E-09 -8.279388E-09
        52  12  2.011412E+05 -7.667780E+05  1.752113E+05 -1.178376E+04 -3.590578E-09 -4.247074E-09
        52  13 -8.049129E+02 -1.619285E+06 -1.210040E+04 -4.351619E+03  6.756134E-10  2.778675E-09
        52  14  1.608576E+03 -1.617189E+06 -1.644863E+04  5.445237E+03 -6.732940E-09 -6.093721E-09
        52  15 -1.067210E+04 -1.619289E+06 -2.983646E+04 -4.413804E+03 -4.255974E-09  1.778000E-09
        52  16 -2.256263E+05 -2.523593E+06 -2.297776E+05 -2.620570E+03 -1.283435E-09 -3.891314E-09
        52  17 -2.166072E+05 -2.495140E+06 -2.273448E+05  9.991999E+03  2.530754E-10  7.754406E-10
        52  18 -2.225384E+05 -2.471132E+06 -2.349361E+05  2.947048E+03  1.958688E-09  2.881520E-09
        52  19  2.239575E+05 -7.142245E+05  2.055199E+05 -6.084087E+03 -2.719036E+04 -5.313000E+03
        52  20  2.197690E+05 -7.385294E+05  1.943944E+05  8.933058E+02 -2.769658E+04 -1.233186E+04
        52  21  2.011420E+05 -7.667775E+05  1.752132E+05 -1.178337E+04 -2.539636E+04 -1.933218E+04
        52  22 -8.041141E+02 -1.619284E+06 -1.209897E+04 -4.351524E+03 -2.719826E+04 -4.328543E+03
        52  23  1.609443E+03 -1.617189E+06 -1.644688E+04  5.445522E+03 -2.769674E+04 -1.275041E+04
        52  24 -1.067129E+04 -1.619288E+06 -2.983441E+04 -4.413371E+03 -2.538707E+04 -2.115400E+04
        52  25 -2.256255E+05 -2.523593E+06 -2.297762E+05 -2.620497E+03 -2.720615E+04 -3.345513E+03
        52  26 -2.166063E+05 -2.495140E+06 -2.273430E+05  9.992293E+03 -2.769690E+04 -1.316836E+04
        52  27 -2.225375E+05 -2.471132E+06 -2.349339E+05  2.947519E+03 -2.537782E+04 -2.297332E+04
        53   1  2.068216E+05 -8.127276E+05  1.586765E+05  4.169421E+03  2.656771E+04  2.987194E+04
        53   2  2.084940E+05 -8.279826E+05  1.302048E+05 -6.723655E+03  2.471521E+04  5.281139E+04
        53   3  8.548346E+04 -8.771606E+05  5.566706E+04 -4.262172E+04  7.328869E+03  7.562931E+04
        53   4  5.144460E+03 -1.626165E+06 -3.613300E+04 -5.314411E+03  2.659009E+04  2.679267E+04
        53   5  1.453881E+04 -1.608546E+06 -5.700434E+04  6.790820E+03  2.468427E+04  5.752081E+04
        53   6 -1.021892E+05 -1.626246E+06 -1.293993E+05 -6.113593E+03  7.237631E+03  8.812781E+04
        53   7 -1.965803E+05 -2.438995E+06 -2.309892E+05 -1.478473E+04  2.661258E+04  2.371741E+04
        53   8 -1.794602E+05 -2.388550E+06 -2.442566E+05  2.028920E+04  2.465352E+04  6.222428E+04
        53   9 -2.898992E+05 -2.374818E+06 -3.145062E+05  3.035132E+04  7.147813E+03  1.006112E+05
        53  10  2.068206E+05 -8.127287E+05  1.586735E+05  4.168782E+03 -3.011224E-09  2.415112E-09
        53  11  2.084926E+05 -8.279858E+05  1.301985E+05 -6.724706E+03  3.481576E-09 -1.052567E-08
        53  12  8.548187E+04 -8.771668E+05  5.565619E+04 -4.262216E+04  6.607826E-10 -2.857979E-09
        53  13  5.143508E+03 -1.626166E+06 -3.613568E+04 -5.314985E+03 -7.668603E-09  3.252934E-09
        53  14  1.453726E+04 -1.608550E+06 -5.701171E+04  6.789676E+03 -1.050647E-10 -8.170383E-09
        53  15 -1.021913E+05 -1.626255E+06 -1.294140E+05 -6.114107E+03  7.061000E-11  2.328664E-09
        53  16 -1.965812E+05 -2.438996E+06 -2.309916E+05 -1.478524E+04  3.370895E-09 -2.717130E-09
        53  17 -1.794619E+05 -2.388554E+06 -2.442651E+05  2.028796E+04  4.631234E-10  1.343924E-09
        53  18 -2.899020E+05 -2.374829E+06 -3.145254E+05  3.035074E+04  1.545837E-09  1.641192E-09
        53  19  2.068216E+05 -8.127276E+05  1.586765E+05  4.169421E+03 -2.656771E+04 -2.987194E+04
        53  20  2.084940E+05 -8.279826E+05  1.302048E+05 -6.723655E+03 -2.471521E+04 -5.281139E+04
        53  21  8.548346E+04 -8.771606E+05  5.566706E+04 -4.262172E+04 -7.328869E+03 -7.562931E+04
        53  22  5.144460E+03 -1.626165E+06 -3.613300E+04 -5.314411E+03 -2.659009E+04 -2.679267E+04
        53  23  1.453881E+04 -1.608546E+06 -5.700434E+04  6.790820E+03 -2.468427E+04 -5.752081E+04
        53  24 -1.021892E+05 -1.626246E+06 -1.293993E+05 -6.113593E+03 -7.237631E+03 -8.812781E+04
        53  25 -1.965803E+05 -2.438995E+06 -2.309892E+05 -1.478473E+04 -2.661258E+04 -2.371741E+04
        53  26 -1.794602E+05 -2.388550E+06 -2.442566E+05  2.028920E+04 -2.465352E+04 -6.222428E+04
        53  27 -2.898992E+05 -2.374818E+06 -3.145062E+05  3.035132E+04 -7.147813E+03 -1.006112E+05
        54   1  8.527558E+04  9.355940E+05  4.858886E+04 -1.684170E+02  2.984152E+04 -5.260904E+02
        54   2  8.539358E+04  9.356943E+05  4.922899E+04 -1.388306E+02  2.973973E+04 -1.359658E+03
        54   3  8.571630E+04  9.359618E+05  5.046481E+04 -9.287082E+01  2.950322E+04 -2.193315E+03
        54   4 -3.012224E+01  5.567385E+05  5.846517E+02  3.628860E+00  2.984341E+04 -4.423802E+02
        54   5  1.701706E+01  5.566828E+05  1.026192E+03 -4.511885E+00  2.974146E+04 -9.519137E+02
        54   6  2.127404E+02  5.567383E+05  1.838802E+03  3.721034E+00  2.950475E+04 -1.461531E+03
        54   7 -8.534168E+04  1.780302E+05 -4.742005E+04  1.755784E+02  2.984530E+04 -3.587185E+02
        54   8 -8.536543E+04  1.778186E+05 -4.717715E+04  1.297364E+02  2.974319E+04 -5.444056E+02
        54   9 -8.529674E+04  1.776620E+05 -4.678786E+04  1.002682E+02  2.950628E+04 -7.301712E+02
        54  10  8.527463E+04  9.355938E+05  4.858719E+04 -1.684044E+02  1.916159E-10  2.724478E-08
        54  11  8.539263E+04  9.356940E+05  4.922733E+04 -1.387981E+02 -2.694095E-09  2.494846E-08
        54  12  8.571536E+04  9.359615E+05  5.046317E+04 -9.281873E+01  1.532046E-09  2.289046E-08
        54  13 -3.107892E+01  5.567383E+05  5.829772E+02  3.639490E+00  1.623816E-08  4.636719E-10
        54  14  1.606672E+01  5.566826E+05  1.024528E+03 -4.489088E+00  1.037719E-08 -1.000130E-09
        54  15  2.118048E+02  5.567380E+05  1.837162E+03  3.755757E+00  5.260497E-09  5.321337E-10
        54  16 -8.534264E+04  1.780300E+05 -4.742172E+04  1.755870E+02 -3.042469E-09 -2.790599E-08
        54  17 -8.536638E+04  1.778184E+05 -4.717881E+04  1.297494E+02  2.056540E-09 -2.520680E-08
        54  18 -8.529768E+04  1.776618E+05 -4.678950E+04  1.002856E+02  3.914841E-09 -2.273439E-08
        54  19  8.527558E+04  9.355940E+05  4.858886E+04 -1.684170E+02 -2.984152E+04  5.260904E+02
        54  20  8.539358E+04  9.356943E+05  4.922899E+04 -1.388306E+02 -2.973973E+04  1.359658E+03
        54  21  8.571630E+04  9.359618E+05  5.046481E+04 -9.287082E+01 -2.950322E+04  2.193315E+03
        54  22 -3.012224E+01  5.567385E+05  5.846517E+02  3.628860E+00 -2.984341E+04  4.423802E+02
        54  23  1.701706E+01  5.566828E+05  1.026192E+03 -4.511885E+00 -2.974146E+04  9.519137E+02
        54  24  2.127404E+02  5.567383E+05  1.838802E+03  3.721034E+00 -2.950475E+04  1.461531E+03
        54  25 -8.534168E+04  1.780302E+05 -4.742005E+04  1.755784E+02 -2.984530E+04  3.587185E+02
        54  26 -8.536543E+04  1.778186E+05 -4.717715E+04  1.297364E+02 -2.974319E+04  5.444056E+02
        54  27 -8.529674E+04  1.776620E+05 -4.678786E+04  1.002682E+02 -2.950628E+04  7.301712E+02
        55   1  8.591698E+04  9.362884E+05  5.135232E+04 -2.140376E+02  2.935383E+04 -2.630128E+03
        55   2  8.697250E+04  9.359831E+05  5.459184E+04  8.372043E+02  2.851663E+04 -7.234185E+03
        55   3  8.998301E+04  9.367725E+05  6.131642E+04  1.839505E+03  2.667354E+04 -1.183898E+04
        55   4  3.162813E+02  5.568637E+05  2.442211E+03 -1.093332E+01  2.935528E+04 -1.820401E+03
        55   5  1.102355E+03  5.565252E+05  4.361235E+03  1.432638E+01  2.851660E+04 -4.006041E+03
        55   6  3.424588E+03  5.568625E+05  8.088351E+03 -9.362966E+00  2.667172E+04 -6.192396E+03
        55   7 -8.529037E+04  1.775864E+05 -4.646862E+04  1.920592E+02  2.935674E+04 -1.011143E+03
        55   8 -8.477388E+04  1.772142E+05 -4.587041E+04 -8.080058E+02  2.851656E+04 -7.797744E+02
        55   9 -8.314023E+04  1.770986E+05 -4.514146E+04 -1.857030E+03  2.666987E+04 -5.491122E+02
        55  10  8.591605E+04  9.362881E+05  5.135069E+04 -2.139755E+02  4.022131E-09  4.157311E-08
        55  11  8.697161E+04  9.359828E+05  5.459021E+04  8.373704E+02  9.494410E-09  8.102731E-08
        55  12  8.998220E+04  9.367722E+05  6.131482E+04  1.839759E+03  1.877251E-08  1.152423E-07
        55  13  3.153548E+02  5.568635E+05  2.440585E+03 -1.089029E+01 -3.516764E-09  6.146915E-10
        55  14  1.101477E+03  5.565250E+05  4.359676E+03  1.441837E+01 -3.130462E-08 -1.294730E-09
        55  15  3.423814E+03  5.568623E+05  8.086941E+03 -9.229976E+00 -3.778431E-08  6.294781E-10
        55  16 -8.529130E+04  1.775862E+05 -4.647024E+04  1.920831E+02  2.815768E-09 -4.243750E-08
        55  17 -8.477475E+04  1.772139E+05 -4.587194E+04 -8.079879E+02  8.378873E-09 -8.152883E-08
        55  18 -8.314099E+04  1.770984E+05 -4.514280E+04 -1.857018E+03  1.525895E-08 -1.148717E-07
        55  19  8.591698E+04  9.362884E+05  5.135232E+04 -2.140376E+02 -2.935383E+04  2.630128E+03
        55  20  8.697250E+04  9.359831E+05  5.459184E+04  8.372043E+02 -2.851663E+04  7.234185E+03
        55  21  8.998301E+04  9.367725E+05  6.131642E+04  1.839505E+03 -2.667354E+04  1.183898E+04
        55  22  3.162813E+02  5.568637E+05  2.442211E+03 -1.093332E+01 -2.935528E+04  1.820401E+03
        55  23  1.102355E+03  5.565252E+05  4.361235E+03  1.432638E+01 -2.851660E+04  4.006041E+03
        55  24  3.424588E+03  5.568625E+05  8.088351E+03 -9.362966E+00 -2.667172E+04  6.192396E+03
        55  25 -8.529037E+04  1.775864E+05 -4.646862E+04  1.920592E+02 -2.935674E+04  1.011143E+03
        55  26 -8.477388E+04  1.772142E+05 -4.587041E+04 -8.080058E+02 -2.851656E+04  7.797744E+02
        55  27 -8.314023E+04  1.770986E+05 -4.514146E+04 -1.857030E+03 -2.666987E+04  5.491122E+02
        56   1  9.181874E+04  9.384577E+05  6.607122E+04  1.134541E+03  2.550883E+04 -1.384445E+04
        56   2  1.022877E+05  9.346886E+05  8.484596E+04  1.350437E+04  1.920714E+04 -4.196164E+04
        56   3  1.310362E+05  9.391508E+05  1.264790E+05  2.528323E+04  5.456573E+03 -7.008548E+04
        56   4  4.721411E+03  5.578523E+05  1.084701E+04 -1.313386E+02  2.550637E+04 -7.604605E+03
        56   5  1.353493E+04  5.552833E+05  2.004624E+04  1.746955E+02  1.919228E+04 -1.782026E+04
        56   6  3.752818E+04  5.578434E+05  3.968640E+04 -1.104808E+02  5.428324E+03 -2.804199E+04
        56   7 -8.238254E+04  1.773930E+05 -4.437943E+04 -1.396388E+03  2.550387E+04 -1.368415E+03
        56   8 -7.522448E+04  1.760209E+05 -4.475596E+04 -1.314656E+04  1.917637E+04  6.306847E+03
        56   9 -5.598655E+04  1.766759E+05 -4.710870E+04 -2.548846E+04  5.396631E+03  1.397595E+04
        56  10  9.181799E+04  9.384573E+05  6.606963E+04  1.134825E+03  1.738141E-08 -9.148208E-08
        56  11  1.022868E+05  9.346867E+05  8.484196E+04  1.350502E+04  8.418811E-09 -6.962769E-08
        56  12  1.310349E+05  9.391456E+05  1.264698E+05  2.528354E+04  5.512676E-10 -3.470109E-08
        56  13  4.720696E+03  5.578521E+05  1.084567E+04 -1.311824E+02 -4.104840E-08  6.755778E-10
        56  14  1.353445E+04  5.552828E+05  2.004496E+04  1.749709E+02 -2.191302E-08 -1.571883E-09
        56  15  3.752793E+04  5.578426E+05  3.968487E+04 -1.103582E+02 -4.001744E-09  9.862909E-10
        56  16 -8.238324E+04  1.773928E+05 -4.438066E+04 -1.396360E+03  1.616365E-08  9.032974E-08
        56  17 -7.522489E+04  1.760207E+05 -4.475673E+04 -1.314666E+04  1.243352E-08  6.903001E-08
        56  18 -5.598663E+04  1.766757E+05 -4.710913E+04 -2.548852E+04  1.904171E-09  3.488691E-08
        56  19  9.181874E+04  9.384577E+05  6.607122E+04  1.134541E+03 -2.550883E+04  1.384445E+04
        56  20  1.022877E+05  9.346886E+05  8.484596E+04  1.350437E+04 -1.920714E+04  4.196164E+04
        56  21  1.310362E+05  9.391508E+05  1.264790E+05  2.528323E+04 -5.456573E+03  7.008548E+04
        56  22  4.721411E+03  5.578523E+05  1.084701E+04 -1.313386E+02 -2.550637E+04  7.604605E+03
        56  23  1.353493E+04  5.552833E+05  2.004624E+04  1.746955E+02 -1.919228E+04  1.782026E+04
        56  24  3.752818E+04  5.578434E+05  3.968640E+04 -1.104808E+02 -5.428324E+03  2.804199E+04
        56  25 -8.238254E+04  1.773930E+05 -4.437943E+04 -1.396388E+03 -2.550387E+04  1.368415E+03
        56  26 -7.522448E+04  1.760209E+05 -4.475596E+04 -1.314656E+04 -1.917637E+04 -6.306847E+03
        56  27 -5.598655E+04  1.766759E+05 -4.710870E+04 -2.548846E+04 -5.396631E+03 -1.397595E+04
        57   1 -1.067212E+07 -3.110613E+06 -1.892035E+06 -3.737716E+06 -9.483497E+05 -3.441910E+05
        57   2 -1.043812E+07 -1.736861E+06 -1.014293E+06 -3.958981E+06 -6.152271E+05 -1.836741E+05
        57   3 -1.076846E+07 -1.763478E+06 -7.781892E+05 -3.821777E+06 -2.699204E+05 -5.520313E+04
        57   4 -9.352468E+06 -2.342337E+06 -1.473875E+06 -3.110997E+06 -9.326333E+05 -3.387146E+05
        57   5 -8.992710E+06 -1.113802E+06 -6.081133E+05 -3.490589E+06 -6.109838E+05 -1.821616E+05
        57   6 -9.193812E+06 -1.281479E+06 -3.737071E+05 -3.512098E+06 -2.770923E+05 -5.785838E+04
        57   7 -8.030918E+06 -1.573111E+06 -1.055882E+06 -2.482815E+06 -9.168778E+05 -3.332054E+05
        57   8 -7.545230E+06 -4.904411E+05 -2.021332E+05 -3.021130E+06 -6.067279E+05 -1.806428E+05
        57   9 -7.616728E+06 -7.995166E+05  3.058234E+04 -3.201792E+06 -2.842837E+05 -6.051769E+04
        57  10 -1.067314E+07 -3.110989E+06 -1.893985E+06 -3.737983E+06 -2.905336E-09  5.642254E-10
        57  11 -1.043854E+07 -1.737002E+06 -1.015083E+06 -3.959073E+06 -5.631769E-09 -1.985946E-09
        57  12 -1.076854E+07 -1.763501E+06 -7.783346E+05 -3.821789E+06 -3.740851E-09 -1.512032E-09
        57  13 -9.353446E+06 -2.342700E+06 -1.475757E+06 -3.111255E+06  1.887413E-09 -1.255875E-09
        57  14 -8.993125E+06 -1.113940E+06 -6.088901E+05 -3.490679E+06  1.899525E-09 -4.833047E-09
        57  15 -9.193897E+06 -1.281504E+06 -3.738602E+05 -3.512111E+06 -1.724121E-09 -2.018605E-09
        57  16 -8.031861E+06 -1.573462E+06 -1.057696E+06 -2.483064E+06 -1.148600E-09 -6.179256E-10
        57  17 -7.545638E+06 -4.905772E+05 -2.028971E+05 -3.021219E+06  8.180550E-09 -1.429325E-09
        57  18 -7.616817E+06 -7.995426E+05  3.042135E+04 -3.201806E+06 -8.790804E-10  2.902124E-09
        57  19 -1.067212E+07 -3.110613E+06 -1.892035E+06 -3.737716E+06  9.483497E+05  3.441910E+05
        57  20 -1.043812E+07 -1.736861E+06 -1.014293E+06 -3.958981E+06  6.152271E+05  1.836741E+05
        57  21 -1.076846E+07 -1.763478E+06 -7.781892E+05 -3.821777E+06  2.699204E+05  5.520313E+04
        57  22 -9.352468E+06 -2.342337E+06 -1.473875E+06 -3.110997E+06  9.326333E+05  3.387146E+05
        57  23 -8.992710E+06 -1.113802E+06 -6.081133E+05 -3.490589E+06  6.109838E+05  1.821616E+05
        57  24 -9.193812E+06 -1.281479E+06 -3.737071E+05 -3.512098E+06  2.770923E+05  5.785838E+04
        57  25 -8.030918E+06 -1.573111E+06 -1.055882E+06 -2.482815E+06  9.168778E+05  3.332054E+05
        57  26 -7.545230E+06 -4.904411E+05 -2.021332E+05 -3.021130E+06  6.067279E+05  1.806428E+05
        57  27 -7.616728E+06 -7.995166E+05  3.058234E+04 -3.201792E+06  2.842837E+05  6.051769E+04
        58   1 -1.048265E+07 -2.002287E+06 -6.789067E+05 -3.836157E+06 -2.216105E+05 -4.336627E+04
        58   2 -1.038659E+07 -1.754929E+06 -4.870282E+05 -3.791693E+06 -1.450188E+05 -1.490311E+04
        58   3 -1.028699E+07 -1.756315E+06 -3.994221E+05 -3.789362E+06 -6.657341E+04  8.646281E+03
        58   4 -9.131598E+06 -1.458496E+06 -3.056163E+05 -3.437738E+06 -2.211472E+05 -4.321117E+04
        58   5 -9.123813E+06 -1.268427E+06 -1.430650E+05 -3.441300E+06 -1.462459E+05 -1.537190E+04
        58   6 -9.112002E+06 -1.326522E+06 -8.324604E+04 -3.487021E+06 -6.950499E+04  7.546525E+03
        58   7 -7.778754E+06 -9.145334E+05  6.750446E+04 -3.038497E+06 -2.206823E+05 -4.305537E+04
        58   8 -7.859473E+06 -7.818160E+05  2.007532E+05 -3.090245E+06 -1.474755E+05 -1.584167E+04
        58   9 -7.935666E+06 -8.966725E+05  2.328075E+05 -3.184163E+06 -7.244266E+04  6.444672E+03
        58  10 -1.048270E+07 -2.002302E+06 -6.790043E+05 -3.836164E+06  3.211350E-09  1.119071E-09
        58  11 -1.038661E+07 -1.754935E+06 -4.870689E+05 -3.791695E+06 -2.405566E-09 -2.170839E-09
        58  12 -1.028699E+07 -1.756316E+06 -3.994307E+05 -3.789362E+06 -5.386740E-10 -1.809769E-09
        58  13 -9.131652E+06 -1.458512E+06 -3.057133E+05 -3.437746E+06 -5.207606E-09 -1.382259E-09
        58  14 -9.123836E+06 -1.268433E+06 -1.431063E+05 -3.441302E+06  3.282305E-10 -2.709883E-09
        58  15 -9.112007E+06 -1.326523E+06 -8.325534E+04 -3.487021E+06 -2.215123E-09 -1.330630E-09
        58  16 -7.778807E+06 -9.145487E+05  6.740812E+04 -3.038505E+06 -9.959221E-09 -3.019628E-10
        58  17 -7.859496E+06 -7.818223E+05  2.007113E+05 -3.090247E+06 -3.325958E-09 -1.564032E-09
        58  18 -7.935671E+06 -8.966740E+05  2.327975E+05 -3.184163E+06 -2.434452E-09 -4.192079E-09
        58  19 -1.048265E+07 -2.002287E+06 -6.789067E+05 -3.836157E+06  2.216105E+05  4.336627E+04
        58  20 -1.038659E+07 -1.754929E+06 -4.870282E+05 -3.791693E+06  1.450188E+05  1.490311E+04
        58  21 -1.028699E+07 -1.756315E+06 -3.994221E+05 -3.789362E+06  6.657341E+04 -8.646281E+03
        58  22 -9.131598E+06 -1.458496E+06 -3.056163E+05 -3.437738E+06  2.211472E+05  4.321117E+04
        58  23 -9.123813E+06 -1.268427E+06 -1.430650E+05 -3.441300E+06  1.462459E+05  1.537190E+04
        58  24 -9.112002E+06 -1.326522E+06 -8.324604E+04 -3.487021E+06  6.950499E+04 -7.546525E+03
        58  25 -7.778754E+06 -9.145334E+05  6.750446E+04 -3.038497E+06  2.206823E+05  4.305537E+04
        58  26 -7.859473E+06 -7.818160E+05  2.007532E+05 -3.090245E+06  1.474755E+05  1.584167E+04
        58  27 -7.935666E+06 -8.966725E+05  2.328075E+05 -3.184163E+06  7.244266E+04 -6.444672E+03
        59   1 -9.978207E+06 -1.694270E+06 -3.052057E+05 -3.729938E+06 -5.393840E+04  8.891095E+03
        59   2 -9.863308E+06 -1.545883E+06 -2.263054E+05 -3.615145E+06 -3.418936E+04  9.281623E+03
        59   3 -9.633982E+06 -1.542867E+06 -1.662019E+05 -3.637807E+06 -1.394693E+04  8.323025E+03
        59   4 -9.094982E+06 -1.357271E+06 -6.567843E+04 -3.488053E+06 -5.604015E+04  8.102728E+03
        59   5 -9.150985E+06 -1.276308E+06 -3.326501E+04 -3.422399E+06 -3.677478E+04  8.315727E+03
        59   6 -9.092483E+06 -1.340594E+06 -1.923476E+04 -3.494203E+06 -1.702162E+04  7.178284E+03
        59   7 -8.210996E+06 -1.020224E+06  1.737778E+05 -3.245850E+06 -5.814519E+04  7.313109E+03
        59   8 -8.438165E+06 -1.006705E+06  1.597296E+05 -3.229450E+06 -3.936348E+04  7.348599E+03
        59   9 -8.550696E+06 -1.138306E+06  1.277063E+05 -3.350484E+06 -2.009931E+04  6.032453E+03
        59  10 -9.978210E+06 -1.694271E+06 -3.052114E+05 -3.729938E+06  1.612283E-09 -2.529428E-09
        59  11 -9.863309E+06 -1.545883E+06 -2.263078E+05 -3.615145E+06  1.197301E-10  2.886341E-09
        59  12 -9.633982E+06 -1.542868E+06 -1.662024E+05 -3.637807E+06 -1.373450E-09  3.894472E-10
        59  13 -9.094986E+06 -1.357272E+06 -6.568453E+04 -3.488052E+06 -1.381699E-09 -2.521251E-09
        59  14 -9.150986E+06 -1.276309E+06 -3.326771E+04 -3.422399E+06 -4.285712E-09 -4.730953E-10
        59  15 -9.092483E+06 -1.340594E+06 -1.923540E+04 -3.494203E+06  9.395556E-10 -8.864931E-10
        59  16 -8.211000E+06 -1.020225E+06  1.737713E+05 -3.245850E+06 -3.455991E-09 -4.932499E-10
        59  17 -8.438166E+06 -1.006705E+06  1.597266E+05 -3.229449E+06  2.488665E-10  9.392377E-10
        59  18 -8.550696E+06 -1.138306E+06  1.277055E+05 -3.350484E+06 -1.324573E-10 -1.711970E-09
        59  19 -9.978207E+06 -1.694270E+06 -3.052057E+05 -3.729938E+06  5.393840E+04 -8.891095E+03
        59  20 -9.863308E+06 -1.545883E+06 -2.263054E+05 -3.615145E+06  3.418936E+04 -9.281623E+03
        59  21 -9.633982E+06 -1.542867E+06 -1.662019E+05 -3.637807E+06  1.394693E+04 -8.323025E+03
        59  22 -9.094982E+06 -1.357271E+06 -6.567843E+04 -3.488053E+06  5.604015E+04 -8.102728E+03
        59  23 -9.150985E+06 -1.276308E+06 -3.326501E+04 -3.422399E+06  3.677478E+04 -8.315727E+03
        59  24 -9.092483E+06 -1.340594E+06 -1.923476E+04 -3.494203E+06  1.702162E+04 -7.178284E+03
        59  25 -8.210996E+06 -1.020224E+06  1.737778E+05 -3.245850E+06  5.814519E+04 -7.313109E+03
        59  26 -8.438165E+06 -1.006705E+06  1.597296E+05 -3.229450E+06  3.936348E+04 -7.348599E+03
        59  27 -8.550696E+06 -1.138306E+06  1.277063E+05 -3.350484E+06  2.009931E+04 -6.032453E+03
        60   1 -9.257324E+06 -1.410770E+06 -6.040952E+04 -3.543077E+06 -9.491865E+03  4.608734E+03
        60   2 -9.130057E+06 -1.264006E+06 -1.819598E+03 -3.409346E+06 -1.963984E+03 -1.559993E+03
        60   3 -8.864400E+06 -1.260715E+06  5.241925E+04 -3.437265E+06  5.561247E+03 -7.715236E+03
        60   4 -9.088026E+06 -1.346743E+06 -1.524546E+04 -3.497114E+06 -1.246673E+04  3.502442E+03
        60   5 -9.157076E+06 -1.274162E+06 -9.125870E+03 -3.416590E+06 -4.933245E+03 -2.664408E+03
        60   6 -9.087771E+06 -1.345057E+06 -7.356754E+03 -3.497731E+06  2.595919E+03 -8.818229E+03
        60   7 -8.918700E+06 -1.282714E+06  2.991611E+04 -3.451139E+06 -1.544249E+04  2.395809E+03
        60   8 -9.184093E+06 -1.284318E+06 -1.643216E+04 -3.423834E+06 -7.902359E+03 -3.768768E+03
        60   9 -9.311092E+06 -1.429395E+06 -6.713699E+04 -3.558177E+06 -3.682155E+02 -9.920774E+03
        60  10 -9.257324E+06 -1.410770E+06 -6.040973E+04 -3.543077E+06 -2.218235E-09 -9.655707E-10
        60  11 -9.130057E+06 -1.264006E+06 -1.819610E+03 -3.409346E+06 -3.264375E-09 -3.703713E-09
        60  12 -8.864400E+06 -1.260715E+06  5.241908E+04 -3.437265E+06 -3.955752E-10 -8.449746E-11
        60  13 -9.088026E+06 -1.346743E+06 -1.524577E+04 -3.497114E+06 -6.316684E-10 -2.211283E-09
        60  14 -9.157076E+06 -1.274162E+06 -9.125930E+03 -3.416590E+06 -9.718243E-10  4.787416E-12
        60  15 -9.087771E+06 -1.345057E+06 -7.356912E+03 -3.497731E+06 -4.681401E-09 -2.132915E-10
        60  16 -8.918700E+06 -1.282714E+06  2.991565E+04 -3.451139E+06  3.403619E-09  2.854911E-10
        60  17 -9.184093E+06 -1.284318E+06 -1.643231E+04 -3.423834E+06  2.019549E-09  1.973517E-09
        60  18 -9.311092E+06 -1.429395E+06 -6.713718E+04 -3.558177E+06 -2.959790E-09  1.152816E-09
        60  19 -9.257324E+06 -1.410770E+06 -6.040952E+04 -3.543077E+06  9.491865E+03 -4.608734E+03
        60  20 -9.130057E+06 -1.264006E+06 -1.819598E+03 -3.409346E+06  1.963984E+03  1.559993E+03
        60  21 -8.864400E+06 -1.260715E+06  5.241925E+04 -3.437265E+06 -5.561247E+03  7.715236E+03
        60  22 -9.088026E+06 -1.346743E+06 -1.524546E+04 -3.497114E+06  1.246673E+04 -3.502442E+03
        60  23 -9.157076E+06 -1.274162E+06 -9.125870E+03 -3.416590E+06  4.933245E+03  2.664408E+03
        60  24 -9.087771E+06 -1.345057E+06 -7.356754E+03 -3.497731E+06 -2.595919E+03  8.818229E+03
        60  25 -8.918700E+06 -1.282714E+06  2.991611E+04 -3.451139E+06  1.544249E+04 -2.395809E+03
        60  26 -9.184093E+06 -1.284318E+06 -1.643216E+04 -3.423834E+06  7.902359E+03  3.768768E+03
        60  27 -9.311092E+06 -1.429395E+06 -6.713699E+04 -3.558177E+06  3.682155E+02  9.920774E+03
        61   1 -8.500512E+06 -1.118042E+06  1.533811E+05 -3.333972E+06  8.499420E+03 -1.190370E+04
        61   2 -8.391899E+06 -9.927360E+05  1.964800E+05 -3.217669E+06  1.547081E+04 -1.768187E+04
        61   3 -8.162469E+06 -9.914803E+05  2.358794E+05 -3.240195E+06  2.203582E+04 -2.232089E+04
        61   4 -9.091767E+06 -1.340644E+06 -7.265988E+03 -3.492747E+06  5.508515E+03 -1.301775E+04
        61   5 -9.152308E+06 -1.279745E+06 -9.282598E+03 -3.422890E+06  1.290321E+04 -1.864168E+04
        61   6 -9.092142E+06 -1.342998E+06 -1.533996E+04 -3.491888E+06  1.988997E+04 -2.312615E+04
        61   7 -9.682682E+06 -1.563227E+06 -1.679450E+05 -3.651384E+06  2.520775E+03 -1.413063E+04
        61   8 -9.912153E+06 -1.566720E+06 -2.150974E+05 -3.627882E+06  1.033912E+04 -1.960019E+04
        61   9 -1.002097E+07 -1.694465E+06 -2.666370E+05 -3.743236E+06  1.774769E+04 -2.393008E+04
        61  10 -8.500512E+06 -1.118042E+06  1.533807E+05 -3.333971E+06  3.592919E-09  3.559081E-09
        61  11 -8.391899E+06 -9.927364E+05  1.964789E+05 -3.217668E+06  5.001977E-10 -4.227499E-09
        61  12 -8.162469E+06 -9.914809E+05  2.358775E+05 -3.240195E+06 -1.945162E-09 -2.530184E-09
        61  13 -9.091767E+06 -1.340644E+06 -7.266362E+03 -3.492747E+06  9.485620E-10 -7.957343E-10
        61  14 -9.152308E+06 -1.279745E+06 -9.283561E+03 -3.422890E+06  1.611649E-09  3.090203E-09
        61  15 -9.092142E+06 -1.342998E+06 -1.534170E+04 -3.491888E+06 -3.117692E-09 -2.456749E-09
        61  16 -9.682682E+06 -1.563227E+06 -1.679454E+05 -3.651384E+06 -6.001407E-09 -5.835879E-10
        61  17 -9.912154E+06 -1.566721E+06 -2.150984E+05 -3.627882E+06  4.961996E-10  4.697236E-09
        61  18 -1.002097E+07 -1.694465E+06 -2.666386E+05 -3.743235E+06 -2.143080E-09 -1.364433E-09
        61  19 -8.500512E+06 -1.118042E+06  1.533811E+05 -3.333972E+06 -8.499420E+03  1.190370E+04
        61  20 -8.391899E+06 -9.927360E+05  1.964800E+05 -3.217669E+06 -1.547081E+04  1.768187E+04
        61  21 -8.162469E+06 -9.914803E+05  2.358794E+05 -3.240195E+06 -2.203582E+04  2.232089E+04
        61  22 -9.091767E+06 -1.340644E+06 -7.265988E+03 -3.492747E+06 -5.508515E+03  1.301775E+04
        61  23 -9.152308E+06 -1.279745E+06 -9.282598E+03 -3.422890E+06 -1.290321E+04  1.864168E+04
        61  24 -9.092142E+06 -1.342998E+06 -1.533996E+04 -3.491888E+06 -1.988997E+04  2.312615E+04
        61  25 -9.682682E+06 -1.563227E+06 -1.679450E+05 -3.651384E+06 -2.520775E+03  1.413063E+04
        61  26 -9.912153E+06 -1.566720E+06 -2.150974E+05 -3.627882E+06 -1.033912E+04  1.960019E+04
        61  27 -1.002097E+07 -1.694465E+06 -2.666370E+05 -3.743236E+06 -1.774769E+04  2.393008E+04
        62   1 -7.902947E+06 -8.769935E+05  3.060134E+05 -3.157386E+06  2.624037E+04 -2.465227E+04
        62   2 -7.840037E+06 -7.990131E+05  3.177866E+05 -3.086373E+06  4.445345E+04 -2.342078E+04
        62   3 -7.712250E+06 -8.130622E+05  3.123653E+05 -3.090781E+06  6.187873E+04 -2.003979E+04
        62   4 -9.103807E+06 -1.329210E+06 -1.926101E+04 -3.480380E+06  2.396533E+04 -2.550877E+04
        62   5 -9.137431E+06 -1.291485E+06 -3.372393E+04 -3.439543E+06  4.295430E+04 -2.399027E+04
        62   6 -9.106363E+06 -1.345989E+06 -6.603293E+04 -3.474138E+06  6.115185E+04 -2.032135E+04
        62   7 -1.030326E+07 -1.781345E+06 -3.446647E+05 -3.802802E+06  2.169517E+04 -2.636346E+04
        62   8 -1.043318E+07 -1.783855E+06 -3.853864E+05 -3.792035E+06  4.145859E+04 -2.455849E+04
        62   9 -1.049858E+07 -1.878794E+06 -4.446081E+05 -3.856704E+06  6.042667E+04 -2.060227E+04
        62  10 -7.902948E+06 -8.769943E+05  3.060110E+05 -3.157386E+06 -1.982105E-09  6.168261E-10
        62  11 -7.840040E+06 -7.990142E+05  3.177818E+05 -3.086372E+06  4.389610E-10  2.468296E-09
        62  12 -7.712254E+06 -8.130637E+05  3.123573E+05 -3.090780E+06 -8.724495E-11 -2.114677E-09
        62  13 -9.103808E+06 -1.329211E+06 -1.926331E+04 -3.480380E+06 -1.815335E-09 -2.783232E-09
        62  14 -9.137434E+06 -1.291486E+06 -3.372850E+04 -3.439542E+06  8.272833E-10  3.987582E-10
        62  15 -9.106367E+06 -1.345991E+06 -6.604080E+04 -3.474137E+06 -1.278858E-09 -2.897001E-09
        62  16 -1.030326E+07 -1.781346E+06 -3.446668E+05 -3.802801E+06 -2.060358E-09 -3.500548E-09
        62  17 -1.043318E+07 -1.783856E+06 -3.853908E+05 -3.792034E+06 -3.034024E-10  4.577047E-10
        62  18 -1.049858E+07 -1.878796E+06 -4.446158E+05 -3.856703E+06 -6.926069E-10 -4.665636E-10
        62  19 -7.902947E+06 -8.769935E+05  3.060134E+05 -3.157386E+06 -2.624037E+04  2.465227E+04
        62  20 -7.840037E+06 -7.990131E+05  3.177866E+05 -3.086373E+06 -4.445345E+04  2.342078E+04
        62  21 -7.712250E+06 -8.130622E+05  3.123653E+05 -3.090781E+06 -6.187873E+04  2.003979E+04
        62  22 -9.103807E+06 -1.329210E+06 -1.926101E+04 -3.480380E+06 -2.396533E+04  2.550877E+04
        62  23 -9.137431E+06 -1.291485E+06 -3.372393E+04 -3.439543E+06 -4.295430E+04  2.399027E+04
        62  24 -9.106363E+06 -1.345989E+06 -6.603293E+04 -3.474138E+06 -6.115185E+04  2.032135E+04
        62  25 -1.030326E+07 -1.781345E+06 -3.446647E+05 -3.802802E+06 -2.169517E+04  2.636346E+04
        62  26 -1.043318E+07 -1.783855E+06 -3.853864E+05 -3.792035E+06 -4.145859E+04  2.455849E+04
        62  27 -1.049858E+07 -1.878794E+06 -4.446081E+05 -3.856704E+06 -6.042667E+04  2.060227E+04
        63   1 -7.617938E+06 -7.513303E+05  3.228950E+05 -3.071299E+06  7.518957E+04 -1.682909E+04
        63   2 -7.607979E+06 -7.106446E+05  2.631067E+05 -3.046710E+06  1.493673E+05  9.917527E+03
        63   3 -7.666058E+06 -8.448997E+05  1.016568E+05 -2.979635E+06  2.218055E+05  4.123180E+04
        63   4 -9.128175E+06 -1.310752E+06 -8.381466E+04 -3.468291E+06  7.379266E+04 -1.736319E+04
        63   5 -9.103902E+06 -1.288942E+06 -1.441674E+05 -3.464652E+06  1.495183E+05  9.964398E+03
        63   6 -9.148155E+06 -1.442658E+06 -3.076147E+05 -3.418485E+06  2.235041E+05  4.185829E+04
        63   7 -1.063619E+07 -1.870066E+06 -4.907275E+05 -3.864409E+06  7.239937E+04 -1.789602E+04
        63   8 -1.059763E+07 -1.867084E+06 -5.516450E+05 -3.881661E+06  1.496686E+05  1.001095E+04
        63   9 -1.062809E+07 -2.040207E+06 -7.170904E+05 -3.856346E+06  2.251975E+05  4.248258E+04
        63  10 -7.617944E+06 -7.513321E+05  3.228838E+05 -3.071298E+06  5.349217E-09 -8.086802E-09
        63  11 -7.608003E+06 -7.106508E+05  2.630640E+05 -3.046711E+06  6.601686E-10 -1.317000E-09
        63  12 -7.666112E+06 -8.449150E+05  1.015598E+05 -2.979642E+06 -2.820581E-09 -1.323043E-09
        63  13 -9.128181E+06 -1.310754E+06 -8.382557E+04 -3.468290E+06 -4.859965E-10 -3.486871E-09
        63  14 -9.103926E+06 -1.288948E+06 -1.442102E+05 -3.464653E+06  6.509767E-09 -3.086012E-09
        63  15 -9.148210E+06 -1.442673E+06 -3.077134E+05 -3.418493E+06  3.342060E-09 -5.130145E-10
        63  16 -1.063619E+07 -1.870067E+06 -4.907381E+05 -3.864408E+06 -3.647996E-10 -8.846122E-10
        63  17 -1.059766E+07 -1.867090E+06 -5.516880E+05 -3.881663E+06 -4.327409E-10  1.511344E-09
        63  18 -1.062815E+07 -2.040223E+06 -7.171909E+05 -3.856354E+06  1.906402E-09 -2.070724E-09
        63  19 -7.617938E+06 -7.513303E+05  3.228950E+05 -3.071299E+06 -7.518957E+04  1.682909E+04
        63  20 -7.607979E+06 -7.106446E+05  2.631067E+05 -3.046710E+06 -1.493673E+05 -9.917527E+03
        63  21 -7.666058E+06 -8.448997E+05  1.016568E+05 -2.979635E+06 -2.218055E+05 -4.123180E+04
        63  22 -9.128175E+06 -1.310752E+06 -8.381466E+04 -3.468291E+06 -7.379266E+04  1.736319E+04
        63  23 -9.103902E+06 -1.288942E+06 -1.441674E+05 -3.464652E+06 -1.495183E+05 -9.964398E+03
        63  24 -9.148155E+06 -1.442658E+06 -3.076147E+05 -3.418485E+06 -2.235041E+05 -4.185829E+04
        63  25 -1.063619E+07 -1.870066E+06 -4.907275E+05 -3.864409E+06 -7.239937E+04  1.789602E+04
        63  26 -1.059763E+07 -1.867084E+06 -5.516450E+05 -3.881661E+06 -1.496686E+05 -1.001095E+04
        63  27 -1.062809E+07 -2.040207E+06 -7.170904E+05 -3.856346E+06 -2.251975E+05 -4.248258E+04
        64   1 -7.708819E+06 -8.094398E+05  7.770377E+03 -3.200593E+06  2.823951E+05  6.203213E+04
        64   2 -7.702467E+06 -5.738158E+05 -2.538124E+05 -3.090373E+06  6.077555E+05  1.896580E+05
        64   3 -8.337168E+06 -1.663034E+06 -1.143550E+06 -2.533495E+06  9.235686E+05  3.420332E+05
        64   4 -9.210972E+06 -1.265077E+06 -3.763663E+05 -3.494148E+06  2.783565E+05  6.054693E+04
        64   5 -8.970184E+06 -1.133281E+06 -6.121506E+05 -3.514326E+06  6.123543E+05  1.913262E+05
        64   6 -9.373380E+06 -2.329925E+06 -1.483984E+06 -3.087398E+06  9.369252E+05  3.466736E+05
        64   7 -1.071091E+07 -1.720749E+06 -7.606765E+05 -3.787143E+06  2.743280E+05  5.906378E+04
        64   8 -1.023631E+07 -1.692484E+06 -9.706431E+05 -3.937427E+06  6.169415E+05  1.929884E+05
        64   9 -1.040835E+07 -2.995992E+06 -1.824512E+06 -3.640251E+06  9.502558E+05  3.512888E+05
        64  10 -7.708906E+06 -8.094658E+05  7.611041E+03 -3.200607E+06  3.708190E-09  5.306057E-10
        64  11 -7.702878E+06 -5.739559E+05 -2.545853E+05 -3.090467E+06 -3.425019E-10  1.857607E-09
        64  12 -8.338127E+06 -1.663394E+06 -1.145400E+06 -2.533752E+06 -3.088389E-09  4.866596E-10
        64  13 -9.211057E+06 -1.265103E+06 -3.765213E+05 -3.494162E+06 -4.710941E-09  3.685402E-09
        64  14 -8.970602E+06 -1.133424E+06 -6.129372E+05 -3.514421E+06 -3.185635E-09 -8.589946E-10
        64  15 -9.374368E+06 -2.330297E+06 -1.485891E+06 -3.087662E+06  1.917966E-09  3.822608E-10
        64  16 -1.071099E+07 -1.720774E+06 -7.608274E+05 -3.787156E+06 -5.385626E-09  1.465168E-09
        64  17 -1.023673E+07 -1.692630E+06 -9.714436E+05 -3.937524E+06 -1.045029E-08  4.844982E-09
        64  18 -1.040937E+07 -2.996375E+06 -1.826478E+06 -3.640523E+06 -2.142423E-10  8.737361E-10
        64  19 -7.708819E+06 -8.094398E+05  7.770377E+03 -3.200593E+06 -2.823951E+05 -6.203213E+04
        64  20 -7.702467E+06 -5.738158E+05 -2.538124E+05 -3.090373E+06 -6.077555E+05 -1.896580E+05
        64  21 -8.337168E+06 -1.663034E+06 -1.143550E+06 -2.533495E+06 -9.235686E+05 -3.420332E+05
        64  22 -9.210972E+06 -1.265077E+06 -3.763663E+05 -3.494148E+06 -2.783565E+05 -6.054693E+04
        64  23 -8.970184E+06 -1.133281E+06 -6.121506E+05 -3.514326E+06 -6.123543E+05 -1.913262E+05
        64  24 -9.373380E+06 -2.329925E+06 -1.483984E+06 -3.087398E+06 -9.369252E+05 -3.466736E+05
        64  25 -1.071091E+07 -1.720749E+06 -7.606765E+05 -3.787143E+06 -2.743280E+05 -5.906378E+04
        64  26 -1.023631E+07 -1.692484E+06 -9.706431E+05 -3.937427E+06 -6.169415E+05 -1.929884E+05
        64  27 -1.040835E+07 -2.995992E+06 -1.824512E+06 -3.640251E+06 -9.502558E+05 -3.512888E+05
        65   1 -1.628780E+06 -2.461459E+05 -1.989215E+05 -1.512125E+04  1.229346E+05  1.371191E+04
        65   2 -1.582570E+06 -4.121854E+05 -2.884118E+05  8.945442E+02  8.611714E+04  3.854293E+04
        65   3 -1.473303E+06 -3.709863E+05 -3.008541E+05 -6.428223E+04  4.949352E+04  3.436535E+04
        65   4 -1.556124E+04  1.563336E+05  2.016349E+05 -4.340351E+04  1.374077E+05  1.380808E+04
        65   5 -4.793649E+04 -3.002803E+04  8.667884E+04 -2.239852E+03  9.006195E+04  3.855927E+04
        65   6 -1.556752E+04 -7.593927E+03  5.594464E+04 -4.225402E+04  4.291552E+04  3.433049E+04
        65   7  1.600027E+06  5.586218E+05  6.019983E+05 -7.176371E+04  1.519179E+05  1.390281E+04
        65   8  1.488848E+06  3.519553E+05  4.615977E+05 -5.385268E+03  9.401628E+04  3.857557E+04
        65   9  1.444108E+06  3.556426E+05  4.125882E+05 -2.017609E+04  3.632198E+04  3.429521E+04
        65  10 -1.628796E+06 -2.461502E+05 -1.989504E+05 -1.512261E+04 -2.660391E-10  2.898144E-09
        65  11 -1.582579E+06 -4.121890E+05 -2.884286E+05  8.918683E+02 -1.915984E-09 -1.755373E-09
        65  12 -1.473306E+06 -3.709883E+05 -3.008609E+05 -6.428360E+04 -3.548167E-09 -1.842713E-09
        65  13 -1.558157E+04  1.563283E+05  2.015990E+05 -4.340504E+04 -2.147001E-09  1.307975E-09
        65  14 -4.794560E+04 -3.003181E+04  8.666081E+04 -2.242649E+03 -2.671355E-09 -7.395569E-09
        65  15 -1.556981E+04 -7.595687E+03  5.593896E+04 -4.225520E+04 -3.131975E-09 -1.938127E-09
        65  16  1.600003E+06  5.586154E+05  6.019547E+05 -7.176541E+04 -1.730899E-09 -2.381129E-10
        65  17  1.488838E+06  3.519513E+05  4.615784E+05 -5.388186E+03 -3.306506E-09 -1.053585E-09
        65  18  1.444106E+06  3.556410E+05  4.125835E+05 -2.017710E+04  5.119603E-10 -4.326369E-09
        65  19 -1.628780E+06 -2.461459E+05 -1.989215E+05 -1.512125E+04 -1.229346E+05 -1.371191E+04
        65  20 -1.582570E+06 -4.121854E+05 -2.884118E+05  8.945442E+02 -8.611714E+04 -3.854293E+04
        65  21 -1.473303E+06 -3.709863E+05 -3.008541E+05 -6.428223E+04 -4.949352E+04 -3.436535E+04
        65  22 -1.556124E+04  1.563336E+05  2.016349E+05 -4.340351E+04 -1.374077E+05 -1.380808E+04
        65  23 -4.793649E+04 -3.002803E+04  8.667884E+04 -2.239852E+03 -9.006195E+04 -3.855927E+04
        65  24 -1.556752E+04 -7.593927E+03  5.594464E+04 -4.225402E+04 -4.291552E+04 -3.433049E+04
        65  25  1.600027E+06  5.586218E+05  6.019983E+05 -7.176371E+04 -1.519179E+05 -1.390281E+04
        65  26  1.488848E+06  3.519553E+05  4.615977E+05 -5.385268E+03 -9.401628E+04 -3.857557E+04
        65  27  1.444108E+06  3.556426E+05  4.125882E+05 -2.017609E+04 -3.632198E+04 -3.429521E+04
        66   1 -1.324672E+06 -3.041432E+05 -2.721501E+05 -4.225079E+04  3.330682E+04  2.828724E+04
        66   2 -1.253141E+06 -3.080215E+05 -2.762083E+05 -3.876243E+03  2.277473E+04  2.836235E+04
        66   3 -1.169815E+06 -2.858188E+05 -2.660797E+05 -4.637250E+04  1.224457E+04  2.539350E+04
        66   4 -2.715554E+04  1.915474E+04  4.588441E+04 -4.258949E+04  3.394420E+04  2.828581E+04
        66   5 -3.313738E+04 -4.107253E+03  2.239544E+04 -2.120178E+03  2.229653E+04  2.835727E+04
        66   6 -2.714837E+04 -1.120054E+03  1.384860E+04 -4.251151E+04  1.065213E+04  2.538736E+04
        66   7  1.271896E+06  3.423278E+05  3.637956E+05 -4.293040E+04  3.458284E+04  2.828437E+04
        66   8  1.188224E+06  2.996967E+05  3.208903E+05 -3.616814E+02  2.181736E+04  2.835219E+04
        66   9  1.116710E+06  2.834820E+05  2.936812E+05 -3.864394E+04  9.056749E+03  2.538121E+04
        66  10 -1.324673E+06 -3.041443E+05 -2.721537E+05 -4.225155E+04 -6.747435E-09 -4.059824E-09
        66  11 -1.253142E+06 -3.080225E+05 -2.762107E+05 -3.876764E+03  2.545340E-09  3.400750E-09
        66  12 -1.169816E+06 -2.858196E+05 -2.660812E+05 -4.637275E+04  2.902769E-09 -7.151282E-10
        66  13 -2.715699E+04  1.915357E+04  4.588074E+04 -4.259026E+04 -4.298253E-09 -2.478178E-09
        66  14 -3.313812E+04 -4.108250E+03  2.239299E+04 -2.120688E+03 -8.421517E-10  1.700448E-09
        66  15 -2.714866E+04 -1.120776E+03  1.384718E+04 -4.251173E+04  3.976509E-09 -2.112352E-09
        66  16  1.271895E+06  3.423266E+05  3.637918E+05 -4.293118E+04  4.879882E-09  4.798139E-10
        66  17  1.188224E+06  2.996957E+05  3.208879E+05 -3.621791E+02 -1.634936E-09 -1.139136E-09
        66  18  1.116709E+06  2.834813E+05  2.936799E+05 -3.864412E+04 -2.079269E-09 -8.365428E-10
        66  19 -1.324672E+06 -3.041432E+05 -2.721501E+05 -4.225079E+04 -3.330682E+04 -2.828724E+04
        66  20 -1.253141E+06 -3.080215E+05 -2.762083E+05 -3.876243E+03 -2.277473E+04 -2.836235E+04
        66  21 -1.169815E+06 -2.858188E+05 -2.660797E+05 -4.637250E+04 -1.224457E+04 -2.539350E+04
        66  22 -2.715554E+04  1.915474E+04  4.588441E+04 -4.258949E+04 -3.394420E+04 -2.828581E+04
        66  23 -3.313738E+04 -4.107253E+03  2.239544E+04 -2.120178E+03 -2.229653E+04 -2.835727E+04
        66  24 -2.714837E+04 -1.120054E+03  1.384860E+04 -4.251151E+04 -1.065213E+04 -2.538736E+04
        66  25  1.271896E+06  3.423278E+05  3.637956E+05 -4.293040E+04 -3.458284E+04 -2.828437E+04
        66  26  1.188224E+06  2.996967E+05  3.208903E+05 -3.616814E+02 -2.181736E+04 -2.835219E+04
        66  27  1.116710E+06  2.834820E+05  2.936812E+05 -3.864394E+04 -9.056749E+03 -2.538121E+04
        67   1 -1.010543E+06 -2.423759E+05 -2.292198E+05 -4.328007E+04  9.260299E+03  2.328902E+04
        67   2 -9.345043E+05 -2.257977E+05 -2.156310E+05 -2.492396E+03  6.521152E+03  2.077750E+04
        67   3 -8.553390E+05 -2.059738E+05 -1.990424E+05 -4.281026E+04  3.775137E+03  1.794425E+04
        67   4 -2.900477E+04  2.071433E+03  1.086198E+04 -4.258975E+04  8.425475E+03  2.328541E+04
        67   5 -3.057198E+04 -6.567280E+02  5.614212E+03 -2.039041E+03  5.566543E+03  2.077484E+04
        67   6 -2.899871E+04 -1.199985E+02  3.446511E+03 -4.258657E+04  2.701084E+03  1.794277E+04
        67   7  9.534119E+05  2.464474E+05  2.508734E+05 -4.189863E+04  7.589325E+03  2.328181E+04
        67   8  8.741056E+05  2.244237E+05  2.267996E+05 -1.585161E+03  4.610542E+03  2.077218E+04
        67   9  7.979641E+05  2.056832E+05  2.058854E+05 -4.236255E+04  1.625600E+03  1.794128E+04
        67  10 -1.010543E+06 -2.423765E+05 -2.292210E+05 -4.328024E+04  4.329795E-10  1.385971E-10
        67  11 -9.345045E+05 -2.257982E+05 -2.156319E+05 -2.492505E+03 -3.980575E-09 -8.131142E-10
        67  12 -8.553391E+05 -2.059741E+05 -1.990430E+05 -4.281032E+04 -2.530473E-10 -6.632281E-10
        67  13 -2.900499E+04  2.070831E+03  1.086083E+04 -4.258991E+04  1.498022E-12 -2.144738E-09
        67  14 -3.057213E+04 -6.571998E+02  5.613343E+03 -2.039134E+03 -2.373590E-09 -6.228720E-10
        67  15 -2.899881E+04 -1.203462E+02  3.445892E+03 -4.258661E+04  8.054222E-10  2.863546E-10
        67  16  9.534117E+05  2.464468E+05  2.508723E+05 -4.189878E+04 -2.075178E-09 -2.945884E-09
        67  17  8.741054E+05  2.244233E+05  2.267988E+05 -1.585239E+03 -1.869514E-09 -1.006756E-09
        67  18  7.979641E+05  2.056828E+05  2.058848E+05 -4.236258E+04 -7.157242E-10 -2.141549E-10
        67  19 -1.010543E+06 -2.423759E+05 -2.292198E+05 -4.328007E+04 -9.260299E+03 -2.328902E+04
        67  20 -9.345043E+05 -2.257977E+05 -2.156310E+05 -2.492396E+03 -6.521152E+03 -2.077750E+04
        67  21 -8.553390E+05 -2.059738E+05 -1.990424E+05 -4.281026E+04 -3.775137E+03 -1.794425E+04
        67  22 -2.900477E+04  2.071433E+03  1.086198E+04 -4.258975E+04 -8.425475E+03 -2.328541E+04
        67  23 -3.057198E+04 -6.567280E+02  5.614212E+03 -2.039041E+03 -5.566543E+03 -2.077484E+04
        67  24 -2.899871E+04 -1.199985E+02  3.446511E+03 -4.258657E+04 -2.701084E+03 -1.794277E+04
        67  25  9.534119E+05  2.464474E+05  2.508734E+05 -4.189863E+04 -7.589325E+03 -2.328181E+04
        67  26  8.741056E+05  2.244237E+05  2.267996E+05 -1.585161E+03 -4.610542E+03 -2.077218E+04
        67  27  7.979641E+05  2.056832E+05  2.058854E+05 -4.236255E+04 -1.625600E+03 -1.794128E+04
        68   1 -6.941932E+05 -1.653348E+05 -1.598579E+05 -4.241980E+04  3.139542E+03  1.625451E+04
        68   2 -6.168164E+05 -1.462919E+05 -1.423127E+05 -1.636259E+03  2.478262E+03  1.346740E+04
        68   3 -5.386342E+05 -1.267349E+05 -1.240883E+05 -4.210391E+04  1.812346E+03  1.064631E+04
        68   4 -2.944388E+04  1.628545E+02  2.591560E+03 -4.262032E+04  2.144537E+03  1.625379E+04
        68   5 -2.984302E+04 -1.226018E+02  1.330615E+03 -1.997070E+03  1.470316E+03  1.346746E+04
        68   6 -2.943988E+04  1.087575E+02  7.579214E+02 -4.262026E+04  7.915420E+02  1.064718E+04
        68   7  6.357085E+05  1.656278E+05  1.650087E+05 -4.282101E+04  1.148466E+03  1.625308E+04
        68   8  5.574445E+05  1.460212E+05  1.449488E+05 -2.358155E+03  4.614180E+02  1.346752E+04
        68   9  4.799907E+05  1.269331E+05  1.255851E+05 -4.313693E+04 -2.300980E+02  1.064804E+04
        68  10 -6.941933E+05 -1.653351E+05 -1.598584E+05 -4.241984E+04  2.128212E-09 -1.141911E-10
        68  11 -6.168165E+05 -1.462921E+05 -1.423131E+05 -1.636286E+03  3.118801E-10  1.158936E-09
        68  12 -5.386343E+05 -1.267350E+05 -1.240885E+05 -4.210393E+04  5.630785E-10  1.935392E-09
        68  13 -2.944396E+04  1.625696E+02  2.591054E+03 -4.262035E+04  1.059253E-11 -7.776782E-11
        68  14 -2.984307E+04 -1.227971E+02  1.330270E+03 -1.997086E+03  3.444491E-09 -1.193812E-09
        68  15 -2.943991E+04  1.086356E+02  7.577072E+02 -4.262026E+04  3.808969E-09  4.712547E-10
        68  16  6.357085E+05  1.656275E+05  1.650082E+05 -4.282102E+04 -7.365422E-10 -1.280957E-09
        68  17  5.574445E+05  1.460210E+05  1.449484E+05 -2.358160E+03 -2.455074E-09  8.355479E-11
        68  18  4.799907E+05  1.269330E+05  1.255849E+05 -4.313693E+04  1.032229E-09  3.337271E-10
        68  19 -6.941932E+05 -1.653348E+05 -1.598579E+05 -4.241980E+04 -3.139542E+03 -1.625451E+04
        68  20 -6.168164E+05 -1.462919E+05 -1.423127E+05 -1.636259E+03 -2.478262E+03 -1.346740E+04
        68  21 -5.386342E+05 -1.267349E+05 -1.240883E+05 -4.210391E+04 -1.812346E+03 -1.064631E+04
        68  22 -2.944388E+04  1.628545E+02  2.591560E+03 -4.262032E+04 -2.144537E+03 -1.625379E+04
        68  23 -2.984302E+04 -1.226018E+02  1.330615E+03 -1.997070E+03 -1.470316E+03 -1.346746E+04
        68  24 -2.943988E+04  1.087575E+02  7.579214E+02 -4.262026E+04 -7.915420E+02 -1.064718E+04
        68  25  6.357085E+05  1.656278E+05  1.650087E+05 -4.282101E+04 -1.148466E+03 -1.625308E+04
        68  26  5.574445E+05  1.460212E+05  1.449488E+05 -2.358155E+03 -4.614180E+02 -1.346752E+04
        68  27  4.799907E+05  1.269331E+05  1.255851E+05 -4.313693E+04  2.300980E+02 -1.064804E+04
        69   1 -3.769259E+05 -8.633884E+04 -8.426525E+04 -4.224860E+04  1.688931E+03  8.995958E+03
        69   2 -2.989655E+05 -6.707645E+04 -6.584793E+04 -1.622295E+03  1.643654E+03  6.176083E+03
        69   3 -2.211470E+05 -4.761873E+04 -4.739568E+04 -4.233040E+04  1.596311E+03  3.368214E+03
        69   4 -2.960803E+04  9.060605E+01  4.763414E+02 -4.263934E+04  6.722477E+02  8.997266E+03
        69   5 -2.953359E+04  5.812584E+00  7.514616E+01 -1.973224E+03  6.312009E+02  6.177733E+03
        69   6 -2.960619E+04  1.163665E+02 -2.934051E+02 -4.263932E+04  5.880923E+02  3.370224E+03
        69   7  3.178199E+05  8.651114E+04  8.520915E+04 -4.303025E+04 -3.450030E+02  8.998576E+03
        69   8  2.399645E+05  6.708270E+04  6.599292E+04 -2.324276E+03 -3.816911E+02  6.179385E+03
        69   9  1.619680E+05  4.784873E+04  4.680617E+04 -4.294831E+04 -4.204368E+02  3.372236E+03
        69  10 -3.769259E+05 -8.633892E+04 -8.426540E+04 -4.224861E+04  3.190874E-09  4.724971E-10
        69  11 -2.989655E+05 -6.707649E+04 -6.584801E+04 -1.622304E+03 -1.350775E-09 -1.598148E-09
        69  12 -2.211470E+05 -4.761874E+04 -4.739571E+04 -4.233040E+04 -2.251682E-09 -1.672895E-09
        69  13 -2.960806E+04  9.051900E+01  4.761884E+02 -4.263934E+04  1.534486E-11  2.602572E-09
        69  14 -2.953360E+04  5.771496E+00  7.507369E+01 -1.973227E+03  4.808196E-10  5.952329E-10
        69  15 -2.960619E+04  1.163542E+02 -2.934271E+02 -4.263932E+04 -1.298687E-09 -4.017438E-09
        69  16  3.178198E+05  8.651106E+04  8.520900E+04 -4.303025E+04 -5.818165E-10  7.186424E-10
        69  17  2.399644E+05  6.708266E+04  6.599285E+04 -2.324274E+03  1.354690E-09  4.915841E-10
        69  18  1.619680E+05  4.784872E+04  4.680615E+04 -4.294831E+04  3.334319E-09 -7.133591E-10
        69  19 -3.769259E+05 -8.633884E+04 -8.426525E+04 -4.224860E+04 -1.688931E+03 -8.995958E+03
        69  20 -2.989655E+05 -6.707645E+04 -6.584793E+04 -1.622295E+03 -1.643654E+03 -6.176083E+03
        69  21 -2.211470E+05 -4.761873E+04 -4.739568E+04 -4.233040E+04 -1.596311E+03 -3.368214E+03
        69  22 -2.960803E+04  9.060605E+01  4.763414E+02 -4.263934E+04 -6.722477E+02 -8.997266E+03
        69  23 -2.953359E+04  5.812584E+00  7.514616E+01 -1.973224E+03 -6.312009E+02 -6.177733E+03
        69  24 -2.960619E+04  1.163665E+02 -2.934051E+02 -4.263932E+04 -5.880923E+02 -3.370224E+03
        69  25  3.178199E+05  8.651114E+04  8.520915E+04 -4.303025E+04  3.450030E+02 -8.998576E+03
        69  26  2.399645E+05  6.708270E+04  6.599292E+04 -2.324276E+03  3.816911E+02 -6.179385E+03
        69  27  1.619680E+05  4.784873E+04  4.680617E+04 -4.294831E+04  4.204368E+02 -3.372236E+03
        70   1 -5.919139E+04 -7.113420E+03 -7.482701E+03 -4.266851E+04  1.701729E+03  1.699862E+03
        70   2  1.901855E+04  1.216448E+04  1.080810E+04 -2.024369E+03  2.163909E+03 -1.130332E+03
        70   3  9.667484E+04  3.105912E+04  2.861658E+04 -4.273636E+04  2.626839E+03 -3.801068E+03
        70   4 -2.968921E+04  1.823981E+02 -5.060824E+02 -4.264434E+04  6.545288E+02  1.702071E+03
        70   5 -2.940419E+04  1.114300E+02 -1.033766E+03 -1.966620E+03  1.174000E+03 -1.128317E+03
        70   6 -2.968956E+04 -3.526644E+02 -2.083555E+03 -4.264542E+04  1.694164E+03 -3.799223E+03
        70   7 -1.862378E+02  7.478154E+03  6.470480E+03 -4.262017E+04 -3.927205E+02  1.704279E+03
        70   8 -7.782478E+04 -1.194179E+04 -1.287580E+04 -1.908874E+03  1.841680E+02 -1.126303E+03
        70   9 -1.560394E+05 -3.176562E+04 -3.278484E+04 -4.255450E+04  7.616780E+02 -3.797377E+03
        70  10 -5.919139E+04 -7.113424E+03 -7.482712E+03 -4.266851E+04  1.189264E-09  1.116199E-09
        70  11  1.901854E+04  1.216448E+04  1.080809E+04 -2.024367E+03  9.884315E-13 -8.129903E-10
        70  12  9.667482E+04  3.105910E+04  2.861654E+04 -4.273635E+04  1.123406E-09 -4.865280E-11
        70  13 -2.968921E+04  1.823949E+02 -5.060886E+02 -4.264434E+04 -1.296597E-11 -2.187620E-09
        70  14 -2.940419E+04  1.114283E+02 -1.033771E+03 -1.966619E+03 -4.870429E-09 -3.446250E-09
        70  15 -2.968957E+04 -3.526807E+02 -2.083587E+03 -4.264542E+04  4.916734E-09  8.327758E-10
        70  16 -1.862387E+02  7.478151E+03  6.470475E+03 -4.262017E+04  2.598060E-09  1.509920E-09
        70  17 -7.782478E+04 -1.194180E+04 -1.287581E+04 -1.908874E+03 -2.189687E-09 -3.096336E-09
        70  18 -1.560394E+05 -3.176563E+04 -3.278487E+04 -4.255449E+04  3.926452E-09 -3.274477E-10
        70  19 -5.919139E+04 -7.113420E+03 -7.482701E+03 -4.266851E+04 -1.701729E+03 -1.699862E+03
        70  20  1.901855E+04  1.216448E+04  1.080810E+04 -2.024369E+03 -2.163909E+03  1.130332E+03
        70  21  9.667484E+04  3.105912E+04  2.861658E+04 -4.273636E+04 -2.626839E+03  3.801068E+03
        70  22 -2.968921E+04  1.823981E+02 -5.060824E+02 -4.264434E+04 -6.545288E+02 -1.702071E+03
        70  23 -2.940419E+04  1.114300E+02 -1.033766E+03 -1.966620E+03 -1.174000E+03  1.128317E+03
        70  24 -2.968956E+04 -3.526644E+02 -2.083555E+03 -4.264542E+04 -1.694164E+03  3.799223E+03
        70  25 -1.862378E+02  7.478154E+03  6.470480E+03 -4.262017E+04  3.927205E+02 -1.704279E+03
        70  26 -7.782478E+04 -1.194179E+04 -1.287580E+04 -1.908874E+03 -1.841680E+02  1.126303E+03
        70  27 -1.560394E+05 -3.176562E+04 -3.278484E+04 -4.255450E+04 -7.616780E+02  3.797377E+03
        71   1  2.584969E+05  7.217725E+04  6.812870E+04 -4.349873E+04  3.420825E+03 -5.673121E+03
        71   2  3.371599E+05  9.188217E+04  8.510577E+04 -2.201246E+03  5.170569E+03 -8.554495E+03
        71   3  4.143543E+05  1.066922E+05  9.971252E+04 -4.219248E+04  6.925268E+03 -9.913000E+03
        71   4 -2.993254E+04  3.425209E+02 -2.641099E+03 -4.262830E+04  2.109331E+03 -5.670754E+03
        71   5 -2.914855E+04  7.229912E+02 -4.451204E+03 -1.985301E+03  4.406284E+03 -8.553606E+03
        71   6 -2.993512E+04 -3.887860E+03 -9.012497E+03 -4.263410E+04  6.707974E+03 -9.913179E+03
        71   7 -3.182862E+05 -7.149837E+04 -7.341700E+04 -4.175824E+04  7.984445E+02 -5.668391E+03
        71   8 -3.953348E+05 -9.044611E+04 -9.401798E+04 -1.769436E+03  3.642448E+03 -8.552717E+03
        71   9 -4.740448E+05 -1.144825E+05 -1.177519E+05 -4.307533E+04  6.490833E+03 -9.913359E+03
        71  10  2.584968E+05  7.217721E+04  6.812862E+04 -4.349871E+04 -2.472033E-10 -2.340270E-09
        71  11  3.371599E+05  9.188209E+04  8.510559E+04 -2.201210E+03 -2.193836E-12  5.810830E-10
        71  12  4.143542E+05  1.066920E+05  9.971224E+04 -4.219242E+04  3.266945E-09  7.720456E-10
        71  13 -2.993255E+04  3.424852E+02 -2.641168E+03 -4.262829E+04 -2.152921E-09  4.696284E-10
        71  14 -2.914859E+04  7.229075E+02 -4.451378E+03 -1.985271E+03  1.485376E-09 -1.702019E-10
        71  15 -2.993520E+04 -3.887977E+03 -9.012766E+03 -4.263404E+04  3.152313E-10  6.382333E-10
        71  16 -3.182862E+05 -7.149841E+04 -7.341706E+04 -4.175823E+04 -1.419684E-09  1.160889E-09
        71  17 -3.953348E+05 -9.044619E+04 -9.401814E+04 -1.769411E+03  9.621368E-10  9.405528E-10
        71  18 -4.740448E+05 -1.144826E+05 -1.177522E+05 -4.307528E+04 -2.740023E-09 -6.362864E-10
        71  19  2.584969E+05  7.217725E+04  6.812870E+04 -4.349873E+04 -3.420825E+03  5.673121E+03
        71  20  3.371599E+05  9.188217E+04  8.510577E+04 -2.201246E+03 -5.170569E+03  8.554495E+03
        71  21  4.143543E+05  1.066922E+05  9.971252E+04 -4.219248E+04 -6.925268E+03  9.913000E+03
        71  22 -2.993254E+04  3.425209E+02 -2.641099E+03 -4.262830E+04 -2.109331E+03  5.670754E+03
        71  23 -2.914855E+04  7.229912E+02 -4.451204E+03 -1.985301E+03 -4.406284E+03  8.553606E+03
        71  24 -2.993512E+04 -3.887860E+03 -9.012497E+03 -4.263410E+04 -6.707974E+03  9.913179E+03
        71  25 -3.182862E+05 -7.149837E+04 -7.341700E+04 -4.175824E+04 -7.984445E+02  5.668391E+03
        71  26 -3.953348E+05 -9.044611E+04 -9.401798E+04 -1.769436E+03 -3.642448E+03  8.552717E+03
        71  27 -4.740448E+05 -1.144825E+05 -1.177519E+05 -4.307533E+04 -6.490833E+03  9.913359E+03
        72   1  5.743055E+05  1.523469E+05  1.373835E+05 -4.638014E+04  1.227064E+04 -1.372457E+04
        72   2  6.570529E+05  1.757334E+05  1.496375E+05 -3.163916E+02  1.640265E+04 -1.708122E+04
        72   3  7.302511E+05  1.592707E+05  1.494331E+05 -3.517422E+04  2.053853E+04 -5.953096E+03
        72   4 -3.196539E+04  1.462693E+03 -1.092303E+04 -4.254726E+04  8.447409E+03 -1.372132E+04
        72   5 -2.673214E+04  5.655528E+03 -1.724238E+04 -2.083807E+03  1.778978E+04 -1.708312E+04
        72   6 -3.197034E+04 -3.092889E+04 -3.964866E+04 -4.254802E+04  2.713536E+04 -5.953208E+03
        72   7 -6.379014E+05 -1.494486E+05 -1.592564E+05 -3.871803E+04  4.627896E+03 -1.371811E+04
        72   8 -7.100911E+05 -1.644569E+05 -1.841563E+05 -3.849224E+03  1.917538E+04 -1.708502E+04
        72   9 -7.936645E+05 -2.211718E+05 -2.287736E+05 -4.991276E+04  3.372408E+04 -5.953476E+03
        72  10  5.743053E+05  1.523466E+05  1.373829E+05 -4.638001E+04 -2.943321E-10  4.641266E-10
        72  11  6.570525E+05  1.757331E+05  1.496364E+05 -3.161661E+02  2.067298E-09  1.845192E-10
        72  12  7.302506E+05  1.592706E+05  1.494323E+05 -3.517412E+04  4.519756E-10  1.068865E-10
        72  13 -3.196551E+04  1.462472E+03 -1.092352E+04 -4.254717E+04 -2.136183E-09  2.106818E-09
        72  14 -2.673256E+04  5.655130E+03 -1.724353E+04 -2.083562E+03  1.073262E-10  2.281636E-10
        72  15 -3.197114E+04 -3.092912E+04 -3.965011E+04 -4.254789E+04  1.074735E-09  6.256412E-11
        72  16 -6.379015E+05 -1.494488E+05 -1.592568E+05 -3.871798E+04 -1.702350E-09 -8.531315E-11
        72  17 -7.100916E+05 -1.644573E+05 -1.841575E+05 -3.848960E+03 -4.695380E-09  6.141383E-10
        72  18 -7.936657E+05 -2.211722E+05 -2.287758E+05 -4.991260E+04  1.580341E-09  2.464923E-10
        72  19  5.743055E+05  1.523469E+05  1.373835E+05 -4.638014E+04 -1.227064E+04  1.372457E+04
        72  20  6.570529E+05  1.757334E+05  1.496375E+05 -3.163916E+02 -1.640265E+04  1.708122E+04
        72  21  7.302511E+05  1.592707E+05  1.494331E+05 -3.517422E+04 -2.053853E+04  5.953096E+03
        72  22 -3.196539E+04  1.462693E+03 -1.092303E+04 -4.254726E+04 -8.447409E+03  1.372132E+04
        72  23 -2.673214E+04  5.655528E+03 -1.724238E+04 -2.083807E+03 -1.778978E+04  1.708312E+04
        72  24 -3.197034E+04 -3.092889E+04 -3.964866E+04 -4.254802E+04 -2.713536E+04  5.953208E+03
        72  25 -6.379014E+05 -1.494486E+05 -1.592564E+05 -3.871803E+04 -4.627896E+03  1.371811E+04
        72  26 -7.100911E+05 -1.644569E+05 -1.841563E+05 -3.849224E+03 -1.917538E+04  1.708502E+04
        72  27 -7.936645E+05 -2.211718E+05 -2.287736E+05 -4.991276E+04 -3.372408E+04  5.953476E+03
        73   1  1.516775E+06  5.107254E+06  1.453083E+06 -1.353723E+06  6.293151E+04  3.391824E+05
        73   2  1.077026E+06  3.653667E+06  9.415745E+05 -1.143255E+06  1.957418E+05  9.490675E+04
        73   3  7.272094E+05  2.250954E+06  6.101735E+05 -1.294095E+06  1.774202E+05 -1.500194E+05
        73   4  8.263816E+04 -6.901275E+05  7.060590E+04 -1.272341E+06  6.608048E+04  3.592571E+04
        73   5  2.887827E+04 -6.935160E+05  4.419515E+04 -1.091953E+06  1.967287E+05  1.469728E+04
        73   6  2.692012E+04 -6.861936E+05  4.394872E+04 -1.272956E+06  1.757830E+05 -7.760367E+03
        73   7 -1.353861E+06 -6.456628E+06 -1.313890E+06 -1.191613E+06  6.916757E+04 -2.645304E+05
        73   8 -1.020455E+06 -5.022820E+06 -8.541821E+05 -1.040954E+06  1.977067E+05 -6.496292E+04
        73   9 -6.738701E+05 -3.615016E+06 -5.226008E+05 -1.251889E+06  1.741509E+05  1.338429E+05
        73  10  1.516740E+06  5.107131E+06  1.452861E+06 -1.353741E+06 -1.625800E-09 -1.220020E-09
        73  11  1.076982E+06  3.653647E+06  9.414855E+05 -1.143270E+06 -5.371736E-09 -7.412947E-09
        73  12  7.271697E+05  2.250922E+06  6.100725E+05 -1.294073E+06  1.397512E-09 -1.862113E-09
        73  13  8.263312E+04 -6.901301E+05  7.059525E+04 -1.272343E+06  3.314549E-09  8.569277E-09
        73  14  2.883666E+04 -6.935266E+05  4.412201E+04 -1.091956E+06  1.798972E-09 -1.059160E-08
        73  15  2.688694E+04 -6.862020E+05  4.389057E+04 -1.272955E+06  2.986578E-09  5.841150E-09
        73  16 -1.353885E+06 -6.456705E+06 -1.314032E+06 -1.191598E+06  2.782160E-09 -2.773090E-09
        73  17 -1.020498E+06 -5.022835E+06 -8.542634E+05 -1.040944E+06  1.015817E-08 -1.854764E-09
        73  18 -6.739076E+05 -3.615044E+06 -5.226918E+05 -1.251907E+06 -6.236379E-09  8.593243E-10
        73  19  1.516775E+06  5.107254E+06  1.453083E+06 -1.353723E+06 -6.293151E+04 -3.391824E+05
        73  20  1.077026E+06  3.653667E+06  9.415745E+05 -1.143255E+06 -1.957418E+05 -9.490675E+04
        73  21  7.272094E+05  2.250954E+06  6.101735E+05 -1.294095E+06 -1.774202E+05  1.500194E+05
        73  22  8.263816E+04 -6.901275E+05  7.060590E+04 -1.272341E+06 -6.608048E+04 -3.592571E+04
        73  23  2.887827E+04 -6.935160E+05  4.419515E+04 -1.091953E+06 -1.967287E+05 -1.469728E+04
        73  24  2.692012E+04 -6.861936E+05  4.394872E+04 -1.272956E+06 -1.757830E+05  7.760367E+03
        73  25 -1.353861E+06 -6.456628E+06 -1.313890E+06 -1.191613E+06 -6.916757E+04  2.645304E+05
        73  26 -1.020455E+06 -5.022820E+06 -8.541821E+05 -1.040954E+06 -1.977067E+05  6.496292E+04
        73  27 -6.738701E+05 -3.615016E+06 -5.226008E+05 -1.251889E+06 -1.741509E+05 -1.338429E+05
        74   1  4.991971E+05  1.280317E+06  4.283371E+05 -1.296666E+06  1.193688E+05 -1.339699E+05
        74   2  1.550089E+05 -1.467848E+05  1.706225E+05 -1.093213E+06  3.860677E+04 -1.724413E+05
        74   3 -1.643449E+05 -1.569795E+06 -5.832021E+04 -1.260110E+06 -4.403808E+04 -2.108894E+05
        74   4  2.957395E+04 -6.872799E+05  4.876053E+04 -1.274873E+06  1.179513E+05 -1.630927E+04
        74   5  2.661293E+04 -6.878247E+05  7.003771E+04 -1.089595E+06  3.713387E+04 -5.212468E+04
        74   6  4.811513E+04 -6.867578E+05  1.182194E+05 -1.274652E+06 -4.557072E+04 -8.799945E+04
        74   7 -4.402711E+05 -2.651127E+06 -3.309440E+05 -1.253135E+06  1.165394E+05  1.009876E+05
        74   8 -1.017921E+05 -1.228550E+06 -3.050505E+04 -1.085979E+06  3.566160E+04  6.808980E+04
        74   9  2.605358E+05  1.970582E+05  2.947766E+05 -1.289213E+06 -4.710782E+04  3.506225E+04
        74  10  4.991770E+05  1.280294E+06  4.282768E+05 -1.296654E+06 -2.776317E-09 -4.692862E-09
        74  11  1.549994E+05 -1.468172E+05  1.705639E+05 -1.093208E+06  1.234327E-09 -1.012007E-08
        74  12 -1.643590E+05 -1.569843E+06 -5.840772E+04 -1.260118E+06  4.482078E-10 -2.097003E-09
        74  13  2.955895E+04 -6.872839E+05  4.873391E+04 -1.274871E+06  9.400816E-10  1.090962E-08
        74  14  2.661073E+04 -6.878279E+05  7.003003E+04 -1.089593E+06 -4.787437E-09 -1.148801E-08
        74  15  4.811080E+04 -6.867666E+05  1.182009E+05 -1.274656E+06 -2.312319E-09  6.743300E-09
        74  16 -4.402885E+05 -2.651142E+06 -3.309889E+05 -1.253144E+06 -4.825977E-09 -1.302894E-09
        74  17 -1.017947E+05 -1.228555E+06 -3.051619E+04 -1.085981E+06 -2.567508E-09 -2.832440E-09
        74  18  2.605330E+05  1.970563E+05  2.947702E+05 -1.289212E+06  6.847451E-10  2.018357E-09
        74  19  4.991971E+05  1.280317E+06  4.283371E+05 -1.296666E+06 -1.193688E+05  1.339699E+05
        74  20  1.550089E+05 -1.467848E+05  1.706225E+05 -1.093213E+06 -3.860677E+04  1.724413E+05
        74  21 -1.643449E+05 -1.569795E+06 -5.832021E+04 -1.260110E+06  4.403808E+04  2.108894E+05
        74  22  2.957395E+04 -6.872799E+05  4.876053E+04 -1.274873E+06 -1.179513E+05  1.630927E+04
        74  23  2.661293E+04 -6.878247E+05  7.003771E+04 -1.089595E+06 -3.713387E+04  5.212468E+04
        74  24  4.811513E+04 -6.867578E+05  1.182194E+05 -1.274652E+06  4.557072E+04  8.799945E+04
        74  25 -4.402711E+05 -2.651127E+06 -3.309440E+05 -1.253135E+06 -1.165394E+05 -1.009876E+05
        74  26 -1.017921E+05 -1.228550E+06 -3.050505E+04 -1.085979E+06 -3.566160E+04 -6.808980E+04
        74  27  2.605358E+05  1.970582E+05  2.947766E+05 -1.289213E+06  4.710782E+04 -3.506225E+04
        75   1 -4.124598E+05 -2.515164E+06 -2.112780E+05 -1.300282E+06 -1.018008E+05 -2.512649E+05
        75   2 -6.889389E+05 -3.967004E+06 -4.147740E+05 -9.384803E+05 -1.375796E+05 -2.070536E+05
        75   3 -6.563719E+05 -5.351734E+06 -5.715146E+05 -9.386506E+05 -4.807108E+04 -1.617976E+05
        75   4  2.956659E+04 -6.662600E+05  1.515034E+05 -1.273579E+06 -1.035517E+05 -1.090309E+05
        75   5  1.032504E+05 -7.157712E+05  2.675257E+05 -1.090172E+06 -1.370108E+05 -2.479229E+05
        75   6  5.168705E+05 -6.690085E+05  5.572543E+05 -1.268240E+06 -4.550776E+04 -3.856952E+05
        75   7  4.714018E+05  1.185978E+06  5.141972E+05 -1.246783E+06 -1.052871E+05  3.361921E+04
        75   8  8.948329E+05  2.545542E+06  9.492500E+05 -1.242639E+06 -1.364239E+05 -2.890013E+05
        75   9  1.688903E+06  4.034213E+06  1.684690E+06 -1.600271E+06 -4.271686E+04 -6.112779E+05
        75  10 -4.124880E+05 -2.515235E+06 -2.114169E+05 -1.300302E+06  2.989249E-09 -7.591359E-10
        75  11 -6.889709E+05 -3.967056E+06 -4.148908E+05 -9.385034E+05  8.205763E-09 -5.540534E-09
        75  12 -6.563815E+05 -5.351763E+06 -5.715686E+05 -9.386569E+05  2.335058E-09 -6.767333E-10
        75  13  2.955185E+04 -6.662757E+05  1.514608E+05 -1.273589E+06  3.382371E-09  1.130440E-08
        75  14  1.032136E+05 -7.158423E+05  2.673745E+05 -1.090199E+06 -6.787641E-09 -9.789552E-09
        75  15  5.168282E+05 -6.691689E+05  5.569704E+05 -1.268254E+06  2.344563E-09  6.166803E-09
        75  16  4.713897E+05  1.185974E+06  5.141743E+05 -1.246780E+06 -3.181038E-09 -3.485466E-09
        75  17  8.947905E+05  2.545448E+06  9.490583E+05 -1.242671E+06  8.185103E-09 -5.747675E-09
        75  18  1.688801E+06  4.033814E+06  1.683989E+06 -1.600292E+06  4.816987E-09  1.099521E-10
        75  19 -4.124598E+05 -2.515164E+06 -2.112780E+05 -1.300282E+06  1.018008E+05  2.512649E+05
        75  20 -6.889389E+05 -3.967004E+06 -4.147740E+05 -9.384803E+05  1.375796E+05  2.070536E+05
        75  21 -6.563719E+05 -5.351734E+06 -5.715146E+05 -9.386506E+05  4.807108E+04  1.617976E+05
        75  22  2.956659E+04 -6.662600E+05  1.515034E+05 -1.273579E+06  1.035517E+05  1.090309E+05
        75  23  1.032504E+05 -7.157712E+05  2.675257E+05 -1.090172E+06  1.370108E+05  2.479229E+05
        75  24  5.168705E+05 -6.690085E+05  5.572543E+05 -1.268240E+06  4.550776E+04  3.856952E+05
        75  25  4.714018E+05  1.185978E+06  5.141972E+05 -1.246783E+06  1.052871E+05 -3.361921E+04
        75  26  8.948329E+05  2.545542E+06  9.492500E+05 -1.242639E+06  1.364239E+05  2.890013E+05
        75  27  1.688903E+06  4.034213E+06  1.684690E+06 -1.600271E+06  4.271686E+04  6.112779E+05
        76   1 -5.300257E+06 -2.095499E+06 -1.224579E+06 -1.791200E+06 -2.899885E+05 -1.846570E+04
        76   2 -4.953698E+06 -2.009391E+06 -1.009584E+06 -1.659482E+06 -1.983429E+05  2.287084E+05
        76   3 -4.537840E+06 -1.943344E+06 -9.014824E+05 -1.623383E+06 -5.130610E+04  3.320489E+05
        76   4 -2.943664E+04 -1.568306E+05  1.424658E+05 -3.962834E+05  6.017238E+04  1.155642E+05
        76   5 -9.109665E+04 -2.220589E+05  6.400882E+04 -3.269465E+05 -4.378488E+04  2.874652E+05
        76   6 -4.462631E+04 -2.685805E+05  3.475583E+04 -3.531971E+05 -9.268959E+04  3.160824E+05
        76   7  5.268628E+06  1.783306E+06  1.507696E+06  1.009268E+06  4.136183E+05  2.507560E+05
        76   8  4.795562E+06  1.567068E+06  1.136245E+06  1.015176E+06  1.120921E+05  3.467094E+05
        76   9  4.469462E+06  1.408067E+06  9.699379E+05  9.255832E+05 -1.344004E+05  2.999906E+05
        76  10 -5.300348E+06 -2.095522E+06 -1.224739E+06 -1.791204E+06  7.203438E-09  6.698101E-10
        76  11 -4.953754E+06 -2.009458E+06 -1.009757E+06 -1.659445E+06 -5.545218E-10 -1.096776E-08
        76  12 -4.537873E+06 -1.943463E+06 -9.016946E+05 -1.623369E+06 -1.093565E-08 -4.230944E-09
        76  13 -2.944412E+04 -1.568459E+05  1.424339E+05 -3.962890E+05  4.065450E-10 -1.607788E-09
        76  14 -9.112088E+04 -2.221482E+05  6.384991E+04 -3.269364E+05 -1.260039E-09 -1.697672E-08
        76  15 -4.466234E+04 -2.686901E+05  3.455195E+04 -3.531736E+05  1.895717E-09 -1.899770E-09
        76  16  5.268429E+06  1.783193E+06  1.507260E+06  1.009185E+06 -7.177197E-09 -8.391028E-09
        76  17  4.795516E+06  1.566936E+06  1.135997E+06  1.015145E+06  3.663232E-10 -6.542640E-09
        76  18  4.469418E+06  1.407966E+06  9.697349E+05  9.256156E+05  1.303024E-08  1.735012E-09
        76  19 -5.300257E+06 -2.095499E+06 -1.224579E+06 -1.791200E+06  2.899885E+05  1.846570E+04
        76  20 -4.953698E+06 -2.009391E+06 -1.009584E+06 -1.659482E+06  1.983429E+05 -2.287084E+05
        76  21 -4.537840E+06 -1.943344E+06 -9.014824E+05 -1.623383E+06  5.130610E+04 -3.320489E+05
        76  22 -2.943664E+04 -1.568306E+05  1.424658E+05 -3.962834E+05 -6.017238E+04 -1.155642E+05
        76  23 -9.109665E+04 -2.220589E+05  6.400882E+04 -3.269465E+05  4.378488E+04 -2.874652E+05
        76  24 -4.462631E+04 -2.685805E+05  3.475583E+04 -3.531971E+05  9.268959E+04 -3.160824E+05
        76  25  5.268628E+06  1.783306E+06  1.507696E+06  1.009268E+06 -4.136183E+05 -2.507560E+05
        76  26  4.795562E+06  1.567068E+06  1.136245E+06  1.015176E+06 -1.120921E+05 -3.467094E+05
        76  27  4.469462E+06  1.408067E+06  9.699379E+05  9.255832E+05  1.344004E+05 -2.999906E+05
        77   1 -4.299406E+06 -1.835137E+06 -8.570172E+05 -1.546163E+06 -7.828625E+04  3.021552E+05
        77   2 -3.978541E+06 -1.665189E+06 -7.833906E+05 -1.403072E+06 -6.718873E+04  2.908726E+05
        77   3 -3.581644E+06 -1.566374E+06 -7.128954E+05 -1.342599E+06 -5.264872E+04  2.702668E+05
        77   4 -4.739637E+04 -2.649037E+05  2.652359E+04 -3.589114E+05 -9.022058E+04  2.974146E+05
        77   5 -8.625105E+04 -2.315319E+05  1.365491E+04 -3.170355E+05 -9.183842E+04  2.813598E+05
        77   6 -4.670760E+04 -2.667496E+05  7.748597E+03 -3.577919E+05 -9.002927E+04  2.560125E+05
        77   7  4.223238E+06  1.306908E+06  9.091045E+05  8.358924E+05 -1.022449E+05  2.926410E+05
        77   8  3.821668E+06  1.203453E+06  8.099235E+05  7.753245E+05 -1.166563E+05  2.717843E+05
        77   9  3.501108E+06  1.033962E+06  7.277586E+05  6.322178E+05 -1.276403E+05  2.416717E+05
        77  10 -4.299437E+06 -1.835236E+06 -8.572003E+05 -1.546144E+06  2.830388E-09  1.566044E-09
        77  11 -3.978568E+06 -1.665281E+06 -7.835581E+05 -1.403056E+06  6.719786E-10  7.975420E-11
        77  12 -3.581666E+06 -1.566453E+06 -7.130379E+05 -1.342587E+06 -3.481760E-09 -1.953796E-09
        77  13 -4.742884E+04 -2.650009E+05  2.634208E+04 -3.588898E+05 -2.596378E-09 -4.389546E-09
        77  14 -8.628134E+04 -2.316191E+05  1.349032E+04 -3.170147E+05 -3.597808E-10 -2.924808E-09
        77  15 -4.673389E+04 -2.668222E+05  7.610214E+03 -3.577734E+05 -4.179468E-09 -1.670748E-10
        77  16  4.223204E+06  1.306813E+06  9.089239E+05  8.359164E+05  4.132938E-11 -1.932062E-09
        77  17  3.821634E+06  1.203370E+06  8.097592E+05  7.753500E+05  1.444994E-09 -1.781731E-09
        77  18  3.501075E+06  1.033895E+06  7.276183E+05  6.322426E+05  3.329939E-09  3.300366E-09
        77  19 -4.299406E+06 -1.835137E+06 -8.570172E+05 -1.546163E+06  7.828625E+04 -3.021552E+05
        77  20 -3.978541E+06 -1.665189E+06 -7.833906E+05 -1.403072E+06  6.718873E+04 -2.908726E+05
        77  21 -3.581644E+06 -1.566374E+06 -7.128954E+05 -1.342599E+06  5.264872E+04 -2.702668E+05
        77  22 -4.739637E+04 -2.649037E+05  2.652359E+04 -3.589114E+05  9.022058E+04 -2.974146E+05
        77  23 -8.625105E+04 -2.315319E+05  1.365491E+04 -3.170355E+05  9.183842E+04 -2.813598E+05
        77  24 -4.670760E+04 -2.667496E+05  7.748597E+03 -3.577919E+05  9.002927E+04 -2.560125E+05
        77  25  4.223238E+06  1.306908E+06  9.091045E+05  8.358924E+05  1.022449E+05 -2.926410E+05
        77  26  3.821668E+06  1.203453E+06  8.099235E+05  7.753245E+05  1.166563E+05 -2.717843E+05
        77  27  3.501108E+06  1.033962E+06  7.277586E+05  6.322178E+05  1.276403E+05 -2.416717E+05
        78   1 -3.334974E+06 -1.473126E+06 -6.622952E+05 -1.272873E+06 -4.953931E+04  2.532106E+05
        78   2 -3.012340E+06 -1.302050E+06 -5.918149E+05 -1.129821E+06 -4.013591E+04  2.266046E+05
        78   3 -2.614361E+06 -1.203958E+06 -5.203818E+05 -1.070024E+06 -3.057849E+04  1.993553E+05
        78   4 -4.684298E+04 -2.663046E+05  5.746022E+03 -3.583080E+05 -8.506527E+04  2.396957E+05
        78   5 -8.401879E+04 -2.289407E+05  2.952088E+03 -3.168667E+05 -7.653745E+04  2.128169E+05
        78   6 -4.584532E+04 -2.643827E+05  1.782132E+03 -3.587117E+05 -6.785593E+04  1.852968E+05
        78   7  3.252486E+06  9.414727E+05  6.732581E+05  5.607638E+05 -1.207953E+05  2.261042E+05
        78   8  2.853170E+06  8.449175E+05  5.972985E+05  4.996491E+05 -1.131249E+05  1.989595E+05
        78   9  2.529478E+06  6.757598E+05  5.236205E+05  3.553290E+05 -1.053000E+05  1.711759E+05
        78  10 -3.334994E+06 -1.473195E+06 -6.624203E+05 -1.272863E+06  3.236561E-09  1.499543E-10
        78  11 -3.012355E+06 -1.302106E+06 -5.919145E+05 -1.129813E+06  2.715963E-09 -7.703486E-10
        78  12 -2.614373E+06 -1.204001E+06 -5.204582E+05 -1.070019E+06  1.243268E-09 -4.928781E-11
        78  13 -4.686616E+04 -2.663682E+05  5.624471E+03 -3.582916E+05  1.819265E-09  9.467152E-10
        78  14 -8.403723E+04 -2.289909E+05  2.855981E+03 -3.168536E+05  1.740786E-09 -9.612202E-10
        78  15 -4.585947E+04 -2.644208E+05  1.708967E+03 -3.587016E+05 -1.978684E-09  1.025939E-10
        78  16  3.252457E+06  9.414138E+05  6.731346E+05  5.607857E+05 -4.648082E-09  2.766973E-09
        78  17  2.853146E+06  8.448716E+05  5.972001E+05  4.996672E+05 -3.687348E-09 -2.081258E-09
        78  18  2.529458E+06  6.757254E+05  5.235447E+05  3.553435E+05 -5.481045E-10 -8.623765E-11
        78  19 -3.334974E+06 -1.473126E+06 -6.622952E+05 -1.272873E+06  4.953931E+04 -2.532106E+05
        78  20 -3.012340E+06 -1.302050E+06 -5.918149E+05 -1.129821E+06  4.013591E+04 -2.266046E+05
        78  21 -2.614361E+06 -1.203958E+06 -5.203818E+05 -1.070024E+06  3.057849E+04 -1.993553E+05
        78  22 -4.684298E+04 -2.663046E+05  5.746022E+03 -3.583080E+05  8.506527E+04 -2.396957E+05
        78  23 -8.401879E+04 -2.289407E+05  2.952088E+03 -3.168667E+05  7.653745E+04 -2.128169E+05
        78  24 -4.584532E+04 -2.643827E+05  1.782132E+03 -3.587117E+05  6.785593E+04 -1.852968E+05
        78  25  3.252486E+06  9.414727E+05  6.732581E+05  5.607638E+05  1.207953E+05 -2.261042E+05
        78  26  2.853170E+06  8.449175E+05  5.972985E+05  4.996491E+05  1.131249E+05 -1.989595E+05
        78  27  2.529478E+06  6.757598E+05  5.236205E+05  3.553290E+05  1.053000E+05 -1.711759E+05
        79   1 -2.366117E+06 -1.111944E+06 -4.682247E+05 -1.001068E+06 -2.494393E+04  1.833231E+05
        79   2 -2.041188E+06 -9.419422E+05 -3.963875E+05 -8.584621E+05 -1.491024E+04  1.559823E+05
        79   3 -1.641986E+06 -8.450783E+05 -3.241662E+05 -7.997496E+05 -4.910618E+03  1.285729E+05
        79   4 -4.580636E+04 -2.641246E+05  1.281055E+03 -3.588639E+05 -6.213488E+04  1.693262E+05
        79   5 -8.254280E+04 -2.268792E+05  6.084781E+02 -3.170510E+05 -5.219364E+04  1.419897E+05
        79   6 -4.514112E+04 -2.627552E+05  3.797291E+02 -3.591701E+05 -4.228642E+04  1.145849E+05
        79   7  2.280045E+06  5.841510E+05  4.705203E+05  2.855601E+05 -9.947553E+04  1.552734E+05
        79   8  1.880060E+06  4.885116E+05  3.974190E+05  2.259424E+05 -8.960385E+04  1.279497E+05
        79   9  1.554345E+06  3.197887E+05  3.248069E+05  8.246179E+04 -7.976606E+04  1.005582E+05
        79  10 -2.366127E+06 -1.111980E+06 -4.682890E+05 -1.001064E+06  1.418107E-09  1.066540E-10
        79  11 -2.041194E+06 -9.419684E+05 -3.964337E+05 -8.584602E+05  3.264336E-09 -1.968215E-11
        79  12 -1.641991E+06 -8.450960E+05 -3.241973E+05 -7.997491E+05  1.802907E-09  1.599919E-10
        79  13 -4.581819E+04 -2.641564E+05  1.219929E+03 -3.588554E+05 -2.332610E-09  5.466322E-10
        79  14 -8.255113E+04 -2.269015E+05  5.654781E+02 -3.170450E+05 -8.957010E-09  2.030513E-09
        79  15 -4.514656E+04 -2.627698E+05  3.516995E+02 -3.591662E+05 -6.546388E-10  5.511581E-10
        79  16  2.280027E+06  5.841225E+05  4.704564E+05  2.855725E+05 -6.341036E-09  2.902620E-10
        79  17  1.880047E+06  4.884919E+05  3.973731E+05  2.259516E+05 -8.830877E-09  1.716623E-09
        79  18  1.554336E+06  3.197762E+05  3.247760E+05  8.246824E+04  2.576809E-09  3.246213E-09
        79  19 -2.366117E+06 -1.111944E+06 -4.682247E+05 -1.001068E+06  2.494393E+04 -1.833231E+05
        79  20 -2.041188E+06 -9.419422E+05 -3.963875E+05 -8.584621E+05  1.491024E+04 -1.559823E+05
        79  21 -1.641986E+06 -8.450783E+05 -3.241662E+05 -7.997496E+05  4.910618E+03 -1.285729E+05
        79  22 -4.580636E+04 -2.641246E+05  1.281055E+03 -3.588639E+05  6.213488E+04 -1.693262E+05
        79  23 -8.254280E+04 -2.268792E+05  6.084781E+02 -3.170510E+05  5.219364E+04 -1.419897E+05
        79  24 -4.514112E+04 -2.627552E+05  3.797291E+02 -3.591701E+05  4.228642E+04 -1.145849E+05
        79  25  2.280045E+06  5.841510E+05  4.705203E+05  2.855601E+05  9.947553E+04 -1.552734E+05
        79  26  1.880060E+06  4.885116E+05  3.974190E+05  2.259424E+05  8.960385E+04 -1.279497E+05
        79  27  1.554345E+06  3.197887E+05  3.248069E+05  8.246179E+04  7.976606E+04 -1.005582E+05
        80   1 -1.392743E+06 -7.535200E+05 -2.716208E+05 -7.310884E+05  1.003004E+03  1.126409E+05
        80   2 -1.066350E+06 -5.842959E+05 -1.993554E+05 -5.886883E+05  1.123654E+04  8.531117E+04
        80   3 -6.663417E+05 -4.882754E+05 -1.270430E+05 -5.305536E+05  2.144023E+04  5.798012E+04
        80   4 -4.510525E+04 -2.626006E+05  2.173856E+02 -3.592494E+05 -3.639312E+04  9.866291E+04
        80   5 -8.167099E+04 -2.256517E+05 -2.155417E+01 -3.171706E+05 -2.616548E+04  7.135047E+04
        80   6 -4.476645E+04 -2.619111E+05 -2.166477E+02 -3.594015E+05 -1.596780E+04  4.403706E+04
        80   7  1.304407E+06  2.284738E+05  2.719720E+05  1.333690E+04 -7.387658E+04  8.465231E+04
        80   8  9.040052E+05  1.330738E+05  1.992688E+05 -4.525508E+04 -6.363113E+04  5.736601E+04
        80   9  5.772037E+05 -3.551543E+04  1.265947E+05 -1.880917E+05 -5.341579E+04  3.007909E+04
        80  10 -1.392746E+06 -7.535336E+05 -2.716447E+05 -7.310885E+05 -1.453182E-08 -4.220300E-09
        80  11 -1.066352E+06 -5.843038E+05 -1.993693E+05 -5.886891E+05 -1.416574E-08 -2.271227E-09
        80  12 -6.663431E+05 -4.882791E+05 -1.270502E+05 -5.305547E+05 -3.318620E-09 -2.553130E-09
        80  13 -4.510928E+04 -2.626114E+05  1.966068E+02 -3.592466E+05 -2.520225E-09 -7.357954E-10
        80  14 -8.167310E+04 -2.256573E+05 -3.240602E+01 -3.171690E+05  6.666198E-09 -7.198184E-09
        80  15 -4.476724E+04 -2.619133E+05 -2.207705E+02 -3.594009E+05  5.516085E-09 -1.483664E-08
        80  16  1.304399E+06  2.284646E+05  2.719483E+05  1.334193E+04  1.618521E-08  6.657768E-09
        80  17  9.040000E+05  1.330692E+05  1.992550E+05 -4.525214E+04  6.104152E-09  8.717808E-09
        80  18  5.772004E+05 -3.551717E+04  1.265876E+05 -1.880904E+05  1.222723E-10  3.435816E-09
        80  19 -1.392743E+06 -7.535200E+05 -2.716208E+05 -7.310884E+05 -1.003004E+03 -1.126409E+05
        80  20 -1.066350E+06 -5.842959E+05 -1.993554E+05 -5.886883E+05 -1.123654E+04 -8.531117E+04
        80  21 -6.663417E+05 -4.882754E+05 -1.270430E+05 -5.305536E+05 -2.144023E+04 -5.798012E+04
        80  22 -4.510525E+04 -2.626006E+05  2.173856E+02 -3.592494E+05  3.639312E+04 -9.866291E+04
        80  23 -8.167099E+04 -2.256517E+05 -2.155417E+01 -3.171706E+05  2.616548E+04 -7.135047E+04
        80  24 -4.476645E+04 -2.619111E+05 -2.166477E+02 -3.594015E+05  1.596780E+04 -4.403706E+04
        80  25  1.304407E+06  2.284738E+05  2.719720E+05  1.333690E+04  7.387658E+04 -8.465231E+04
        80  26  9.040052E+05  1.330738E+05  1.992688E+05 -4.525508E+04  6.363113E+04 -5.736601E+04
        80  27  5.772037E+05 -3.551543E+04  1.265947E+05 -1.880917E+05  5.341579E+04 -3.007909E+04
        81   1 -4.164801E+05 -3.969643E+05 -7.447300E+04 -4.619632E+05  2.748765E+04  4.209616E+04
        81   2 -8.944497E+04 -2.281953E+05 -2.303865E+03 -3.195115E+05  3.769194E+04  1.489555E+04
        81   3  3.109802E+05 -1.326186E+05  6.982937E+04 -2.614380E+05  4.779501E+04 -1.203539E+04
        81   4 -4.477261E+04 -2.618571E+05 -3.787008E+02 -3.594336E+05 -9.988962E+03  2.813349E+04
        81   5 -8.135790E+04 -2.252243E+05 -8.252236E+02 -3.172126E+05  5.734754E+02  1.066201E+03
        81   6 -4.477087E+04 -2.618715E+05 -1.596931E+03 -3.594267E+05  1.103455E+04 -2.573106E+04
        81   7  3.270836E+05 -1.267359E+05  7.371586E+04 -2.568455E+05 -4.748995E+04  1.416171E+04
        81   8 -7.326767E+04 -2.222521E+05  6.593254E+02 -3.149129E+05 -3.654566E+04 -1.276341E+04
        81   9 -4.003887E+05 -3.911128E+05 -7.302364E+04 -4.573628E+05 -2.570333E+04 -3.941831E+04
        81  10 -4.164813E+05 -3.969664E+05 -7.447775E+04 -4.619642E+05  3.269754E-08  1.435822E-08
        81  11 -8.944656E+04 -2.281960E+05 -2.306954E+03 -3.195120E+05  1.347872E-08  6.279092E-09
        81  12  3.109777E+05 -1.326193E+05  6.982480E+04 -2.614375E+05 -1.071622E-08 -3.420092E-09
        81  13 -4.477293E+04 -2.618580E+05 -3.803755E+02 -3.594333E+05  4.616296E-09 -1.750360E-08
        81  14 -8.135790E+04 -2.252243E+05 -8.252263E+02 -3.172127E+05 -5.617451E-11 -2.113048E-09
        81  15 -4.477118E+04 -2.618723E+05 -1.598404E+03 -3.594265E+05 -8.501043E-10 -5.798553E-09
        81  16  3.270811E+05 -1.267367E+05  7.371125E+04 -2.568449E+05 -3.644101E-08 -9.311015E-09
        81  17 -7.326915E+04 -2.222526E+05  6.565081E+02 -3.149133E+05 -1.665627E-08 -4.461389E-09
        81  18 -4.003899E+05 -3.911146E+05 -7.302781E+04 -4.573636E+05  9.612738E-09  1.370041E-09
        81  19 -4.164801E+05 -3.969643E+05 -7.447300E+04 -4.619632E+05 -2.748765E+04 -4.209616E+04
        81  20 -8.944497E+04 -2.281953E+05 -2.303865E+03 -3.195115E+05 -3.769194E+04 -1.489555E+04
        81  21  3.109802E+05 -1.326186E+05  6.982937E+04 -2.614380E+05 -4.779501E+04  1.203539E+04
        81  22 -4.477261E+04 -2.618571E+05 -3.787008E+02 -3.594336E+05  9.988962E+03 -2.813349E+04
        81  23 -8.135790E+04 -2.252243E+05 -8.252236E+02 -3.172126E+05 -5.734754E+02 -1.066201E+03
        81  24 -4.477087E+04 -2.618715E+05 -1.596931E+03 -3.594267E+05 -1.103455E+04  2.573106E+04
        81  25  3.270836E+05 -1.267359E+05  7.371586E+04 -2.568455E+05  4.748995E+04 -1.416171E+04
        81  26 -7.326767E+04 -2.222521E+05  6.593254E+02 -3.149129E+05  3.654566E+04  1.276341E+04
        81  27 -4.003887E+05 -3.911128E+05 -7.302364E+04 -4.573628E+05  2.570333E+04  3.941831E+04
        82   1  5.612213E+05 -4.136821E+04  1.220054E+05 -1.927970E+05  5.490897E+04 -2.755264E+04
        82   2  8.877124E+05  1.274451E+05  1.944761E+05 -4.993005E+04  6.063128E+04 -5.426677E+04
        82   3  1.288087E+06  2.233654E+05  2.697627E+05  9.065538E+03  6.480334E+04 -7.677089E+04
        82   4 -4.491840E+04 -2.618327E+05 -2.145068E+03 -3.594169E+05  1.727665E+04 -4.157877E+04
        82   5 -8.147369E+04 -2.257450E+05 -4.029588E+03 -3.171509E+05  2.876021E+04 -6.616344E+04
        82   6 -4.541353E+04 -2.637096E+05 -7.654911E+03 -3.588184E+05  3.869441E+04 -8.653341E+04
        82   7 -6.506736E+05 -4.822640E+05 -1.263070E+05 -5.258849E+05 -2.031594E+04 -5.559012E+04
        82   8 -1.049695E+06 -5.788563E+05 -2.025792E+05 -5.839870E+05 -3.057456E+03 -7.804015E+04
        82   9 -1.377108E+06 -7.506420E+05 -2.851677E+05 -7.259780E+05  1.264553E+04 -9.627348E+04
        82  10  5.612179E+05 -4.136984E+04  1.219983E+05 -1.927958E+05  9.404323E-10  4.632342E-10
        82  11  8.877077E+05  1.274409E+05  1.944636E+05 -4.992741E+04 -2.075891E-09  1.975539E-09
        82  12  1.288081E+06  2.233580E+05  2.697437E+05  9.069542E+03  3.018348E-09  8.910024E-10
        82  13 -4.491919E+04 -2.618346E+05 -2.148877E+03 -3.594163E+05  2.746651E-09 -5.285254E-10
        82  14 -8.147575E+04 -2.257499E+05 -4.039367E+03 -3.171494E+05 -2.604151E-09 -5.006142E-09
        82  15 -4.541714E+04 -2.637181E+05 -7.671793E+03 -3.588158E+05  2.302645E-11  3.430039E-09
        82  16 -6.506749E+05 -4.822675E+05 -1.263136E+05 -5.258858E+05 -3.480322E-09 -1.537310E-09
        82  17 -1.049697E+06 -5.788628E+05 -2.025907E+05 -5.839872E+05 -7.702314E-10 -1.726746E-09
        82  18 -1.377110E+06 -7.506520E+05 -2.851854E+05 -7.259771E+05 -2.419702E-09  2.215380E-09
        82  19  5.612213E+05 -4.136821E+04  1.220054E+05 -1.927970E+05 -5.490897E+04  2.755264E+04
        82  20  8.877124E+05  1.274451E+05  1.944761E+05 -4.993005E+04 -6.063128E+04  5.426677E+04
        82  21  1.288087E+06  2.233654E+05  2.697627E+05  9.065538E+03 -6.480334E+04  7.677089E+04
        82  22 -4.491840E+04 -2.618327E+05 -2.145068E+03 -3.594169E+05 -1.727665E+04  4.157877E+04
        82  23 -8.147369E+04 -2.257450E+05 -4.029588E+03 -3.171509E+05 -2.876021E+04  6.616344E+04
        82  24 -4.541353E+04 -2.637096E+05 -7.654911E+03 -3.588184E+05 -3.869441E+04  8.653341E+04
        82  25 -6.506736E+05 -4.822640E+05 -1.263070E+05 -5.258849E+05  2.031594E+04  5.559012E+04
        82  26 -1.049695E+06 -5.788563E+05 -2.025792E+05 -5.839870E+05  3.057456E+03  7.804015E+04
        82  27 -1.377108E+06 -7.506420E+05 -2.851677E+05 -7.259780E+05 -1.264553E+04  9.627348E+04
        83   1  1.541485E+06  3.148525E+05  3.202375E+05  7.560573E+04  8.560990E+04 -8.781180E+04
        83   2  1.857053E+06  4.885582E+05  4.133422E+05  2.252329E+05  4.635465E+03 -1.137686E+05
        83   3  2.251550E+06  5.868003E+05  5.637179E+05  3.001119E+05 -1.008266E+05 -7.461812E+04
        83   4 -4.728623E+04 -2.619943E+05 -9.972629E+03 -3.590944E+05  4.600465E+04 -1.026279E+05
        83   5 -8.036482E+04 -2.316734E+05 -1.880151E+04 -3.157020E+05  5.457112E+04 -9.512469E+04
        83   6 -5.233794E+04 -2.945713E+05 -4.117566E+04 -3.471239E+05  3.866479E+04 -2.238906E+04
        83   7 -1.633486E+06 -8.386434E+05 -3.403130E+05 -7.927760E+05  6.508103E+03 -1.174040E+05
        83   8 -2.013974E+06 -9.515851E+05 -4.511636E+05 -8.550775E+05  1.043380E+05 -7.654567E+04
        83   9 -2.350981E+06 -1.175515E+06 -6.464194E+05 -9.921446E+05  1.775859E+05  2.961567E+04
        83  10  1.541475E+06  3.148423E+05  3.202093E+05  7.561177E+04  2.627168E-08  1.224920E-08
        83  11  1.857050E+06  4.885443E+05  4.133178E+05  2.252333E+05  5.622336E-09  6.415288E-09
        83  12  2.251538E+06  5.867916E+05  5.636884E+05  3.001059E+05 -1.864564E-08 -5.072202E-09
        83  13 -4.729132E+04 -2.620062E+05 -9.996393E+03 -3.590906E+05  8.973475E-10  5.650197E-09
        83  14 -8.037044E+04 -2.316839E+05 -1.882411E+04 -3.156978E+05  6.249954E-09  3.174926E-09
        83  15 -5.233968E+04 -2.945723E+05 -4.117941E+04 -3.471233E+05  3.546320E-09  1.376855E-09
        83  16 -1.633490E+06 -8.386582E+05 -3.403390E+05 -7.927753E+05 -2.403118E-08 -3.924359E-09
        83  17 -2.013987E+06 -9.515943E+05 -4.511951E+05 -8.550711E+05  6.915987E-09  3.814499E-09
        83  18 -2.351015E+06 -1.175525E+06 -6.464806E+05 -9.921488E+05  2.288892E-08  7.636205E-09
        83  19  1.541485E+06  3.148525E+05  3.202375E+05  7.560573E+04 -8.560990E+04  8.781180E+04
        83  20  1.857053E+06  4.885582E+05  4.133422E+05  2.252329E+05 -4.635465E+03  1.137686E+05
        83  21  2.251550E+06  5.868003E+05  5.637179E+05  3.001119E+05  1.008266E+05  7.461812E+04
        83  22 -4.728623E+04 -2.619943E+05 -9.972629E+03 -3.590944E+05 -4.600465E+04  1.026279E+05
        83  23 -8.036482E+04 -2.316734E+05 -1.880151E+04 -3.157020E+05 -5.457112E+04  9.512469E+04
        83  24 -5.233794E+04 -2.945713E+05 -4.117566E+04 -3.471239E+05 -3.866479E+04  2.238906E+04
        83  25 -1.633486E+06 -8.386434E+05 -3.403130E+05 -7.927760E+05 -6.508103E+03  1.174040E+05
        83  26 -2.013974E+06 -9.515851E+05 -4.511636E+05 -8.550775E+05 -1.043380E+05  7.654567E+04
        83  27 -2.350981E+06 -1.175515E+06 -6.464194E+05 -9.921446E+05 -1.775859E+05 -2.961567E+04
        84   1 -1.870856E+05 -9.589853E+04 -8.501309E+04 -6.844822E+04 -1.882482E+04  6.682452E+03
        84   2 -1.168336E+05 -1.003864E+05 -6.502088E+04 -7.711284E+04 -3.061270E+03  2.225815E+04
        84   3 -4.542477E+04 -9.214329E+04 -5.210896E+04 -9.621230E+04  1.270895E+04  2.635851E+04
        84   4  3.778187E+05  4.320835E+04  4.574789E+04 -9.785890E+04  3.232506E+04  6.691536E+03
        84   5  3.748700E+05  1.556169E+04  2.310773E+04 -9.264022E+04  2.055236E+04  2.225928E+04
        84   6  3.778487E+05  5.419234E+03  1.250538E+04 -9.785488E+04  8.784304E+03  2.635657E+04
        84   7  9.430253E+05  1.822975E+05  1.764978E+05 -1.272965E+05  8.352114E+04  6.695773E+03
        84   8  8.668111E+05  1.314976E+05  1.112293E+05 -1.081803E+05  4.418416E+04  2.225922E+04
        84   9  8.013016E+05  1.029732E+05  7.711593E+04 -9.949862E+04  4.857089E+03  2.635466E+04
        84  10 -1.870860E+05 -9.589867E+04 -8.501384E+04 -6.844812E+04  1.366912E-09 -3.038337E-10
        84  11 -1.168338E+05 -1.003869E+05 -6.502183E+04 -7.711278E+04 -1.139154E-09 -5.853995E-10
        84  12 -4.542513E+04 -9.214408E+04 -5.211057E+04 -9.621257E+04 -2.597819E-10  3.300126E-10
        84  13  3.778176E+05  4.320802E+04  4.574585E+04 -9.785908E+04  1.473028E-10  3.981893E-10
        84  14  3.748694E+05  1.556105E+04  2.310600E+04 -9.264059E+04 -9.089168E-10  8.747114E-10
        84  15  3.778485E+05  5.418467E+03  1.250392E+04 -9.785507E+04 -1.756306E-09  1.252267E-09
        84  16  9.430178E+05  1.822955E+05  1.764847E+05 -1.272970E+05  1.230232E-09  9.570372E-10
        84  17  8.668088E+05  1.314965E+05  1.112247E+05 -1.081810E+05  2.788950E-09  2.438035E-09
        84  18  8.013014E+05  1.029724E+05  7.711458E+04 -9.949872E+04  7.412308E-10  2.593070E-09
        84  19 -1.870856E+05 -9.589853E+04 -8.501309E+04 -6.844822E+04  1.882482E+04 -6.682452E+03
        84  20 -1.168336E+05 -1.003864E+05 -6.502088E+04 -7.711284E+04  3.061270E+03 -2.225815E+04
        84  21 -4.542477E+04 -9.214329E+04 -5.210896E+04 -9.621230E+04 -1.270895E+04 -2.635851E+04
        84  22  3.778187E+05  4.320835E+04  4.574789E+04 -9.785890E+04 -3.232506E+04 -6.691536E+03
        84  23  3.748700E+05  1.556169E+04  2.310773E+04 -9.264022E+04 -2.055236E+04 -2.225928E+04
        84  24  3.778487E+05  5.419234E+03  1.250538E+04 -9.785488E+04 -8.784304E+03 -2.635657E+04
        84  25  9.430253E+05  1.822975E+05  1.764978E+05 -1.272965E+05 -8.352114E+04 -6.695773E+03
        84  26  8.668111E+05  1.314976E+05  1.112293E+05 -1.081803E+05 -4.418416E+04 -2.225922E+04
        84  27  8.013016E+05  1.029732E+05  7.711593E+04 -9.949862E+04 -4.857089E+03 -2.635466E+04
        85   1 -2.129664E+03 -8.298280E+04 -4.649854E+04 -9.572775E+04  1.199556E+04  2.487479E+04
        85   2  6.852549E+04 -6.875679E+04 -3.739879E+04 -9.127322E+04  1.319964E+04  2.208172E+04
        85   3  1.393198E+05 -5.340860E+04 -2.879946E+04 -9.810164E+04  1.440349E+04  1.773775E+04
        85   4  3.767111E+05  3.934636E+03  9.324977E+03 -9.804439E+04  7.156584E+03  2.487320E+04
        85   5  3.763290E+05  1.274525E+03  5.029339E+03 -9.240321E+04  4.636949E+03  2.208078E+04
        85   6  3.767269E+05  3.826102E+02  2.817795E+03 -9.804447E+04  2.116958E+03  1.773789E+04
        85   7  7.556963E+05  9.084542E+04  6.514601E+04 -1.003625E+05  2.314780E+03  2.487164E+04
        85   8  6.842289E+05  7.130172E+04  4.745667E+04 -9.353379E+04 -3.929796E+03  2.207988E+04
        85   9  6.141918E+05  5.417150E+04  3.443517E+04 -9.798728E+04 -1.017405E+04  1.773802E+04
        85  10 -2.129984E+03 -8.298350E+04 -4.649997E+04 -9.572799E+04 -2.478399E-09  1.488716E-09
        85  11  6.852517E+04 -6.875736E+04 -3.740003E+04 -9.127345E+04 -1.620136E-09  2.580421E-09
        85  12  1.393195E+05 -5.340899E+04 -2.880045E+04 -9.810185E+04 -4.313253E-09  2.429658E-09
        85  13  3.767109E+05  3.933958E+03  9.323717E+03 -9.804454E+04  1.351379E-10  1.998168E-09
        85  14  3.763289E+05  1.273995E+03  5.028382E+03 -9.240330E+04 -5.160693E-09  2.405301E-09
        85  15  3.767268E+05  3.822711E+02  2.817195E+03 -9.804450E+04 -3.902662E-09  1.919581E-09
        85  16  7.556962E+05  9.084475E+04  6.514484E+04 -1.003625E+05  1.446675E-09  2.280989E-09
        85  17  6.842288E+05  7.130120E+04  4.745573E+04 -9.353372E+04  5.847562E-10  2.104116E-09
        85  18  6.141916E+05  5.417113E+04  3.443438E+04 -9.798713E+04  2.482832E-09  1.458043E-09
        85  19 -2.129664E+03 -8.298280E+04 -4.649854E+04 -9.572775E+04 -1.199556E+04 -2.487479E+04
        85  20  6.852549E+04 -6.875679E+04 -3.739879E+04 -9.127322E+04 -1.319964E+04 -2.208172E+04
        85  21  1.393198E+05 -5.340860E+04 -2.879946E+04 -9.810164E+04 -1.440349E+04 -1.773775E+04
        85  22  3.767111E+05  3.934636E+03  9.324977E+03 -9.804439E+04 -7.156584E+03 -2.487320E+04
        85  23  3.763290E+05  1.274525E+03  5.029339E+03 -9.240321E+04 -4.636949E+03 -2.208078E+04
        85  24  3.767269E+05  3.826102E+02  2.817795E+03 -9.804447E+04 -2.116958E+03 -1.773789E+04
        85  25  7.556963E+05  9.084542E+04  6.514601E+04 -1.003625E+05 -2.314780E+03 -2.487164E+04
        85  26  6.842289E+05  7.130172E+04  4.745667E+04 -9.353379E+04  3.929796E+03 -2.207988E+04
        85  27  6.141918E+05  5.417150E+04  3.443517E+04 -9.798728E+04  1.017405E+04 -1.773802E+04
        86   1  1.828883E+05 -4.354961E+04 -2.333586E+04 -9.801188E+04  1.411223E+04  1.468693E+04
        86   2  2.535716E+05 -2.773426E+04 -1.483081E+04 -9.237438E+04  1.402464E+04  9.412885E+03
        86   3  3.242947E+05 -1.183791E+04 -6.247415E+03 -9.813191E+04  1.393672E+04  3.930090E+03
        86   4  3.765843E+05  2.690510E+02  2.122197E+03 -9.806950E+04  1.702442E+03  1.468749E+04
        86   5  3.765261E+05  5.135119E+01  1.186652E+03 -9.237208E+04  1.112926E+03  9.413925E+03
        86   6  3.765905E+05  2.090333E+00  6.776363E+02 -9.806954E+04  5.231048E+02  3.931614E+03
        86   7  5.703191E+05  4.408622E+04  2.758058E+04 -9.812714E+04 -1.071103E+04  1.468806E+04
        86   8  4.994964E+05  2.783642E+04  1.720465E+04 -9.236978E+04 -1.180122E+04  9.414963E+03
        86   9  4.288894E+05  1.184207E+04  7.603343E+03 -9.800718E+04 -1.289159E+04  3.933135E+03
        86  10  1.828880E+05 -4.354990E+04 -2.333664E+04 -9.801205E+04 -5.973251E-09  2.425870E-09
        86  11  2.535714E+05 -2.773441E+04 -1.483134E+04 -9.237448E+04 -1.674798E-10  2.473549E-09
        86  12  3.242945E+05 -1.183798E+04 -6.247809E+03 -9.813195E+04 -3.211390E-09  1.342340E-09
        86  13  3.765843E+05  2.688185E+02  2.121786E+03 -9.806952E+04 -2.277867E-09  1.821455E-09
        86  14  3.765261E+05  5.125567E+01  1.186483E+03 -9.237209E+04 -4.296340E-09  1.683100E-09
        86  15  3.765905E+05  2.073657E+00  6.776067E+02 -9.806955E+04  3.777185E-09  6.503686E-10
        86  16  5.703189E+05  4.408595E+04  2.757996E+04 -9.812702E+04  1.473432E-09  1.251660E-09
        86  17  4.994962E+05  2.783629E+04  1.720422E+04 -9.236969E+04  7.765189E-09  9.324938E-10
        86  18  4.288892E+05  1.184201E+04  7.603002E+03 -9.800714E+04  2.903796E-09 -1.872693E-10
        86  19  1.828883E+05 -4.354961E+04 -2.333586E+04 -9.801188E+04 -1.411223E+04 -1.468693E+04
        86  20  2.535716E+05 -2.773426E+04 -1.483081E+04 -9.237438E+04 -1.402464E+04 -9.412885E+03
        86  21  3.242947E+05 -1.183791E+04 -6.247415E+03 -9.813191E+04 -1.393672E+04 -3.930090E+03
        86  22  3.765843E+05  2.690510E+02  2.122197E+03 -9.806950E+04 -1.702442E+03 -1.468749E+04
        86  23  3.765261E+05  5.135119E+01  1.186652E+03 -9.237208E+04 -1.112926E+03 -9.413925E+03
        86  24  3.765905E+05  2.090333E+00  6.776363E+02 -9.806954E+04 -5.231048E+02 -3.931614E+03
        86  25  5.703191E+05  4.408622E+04  2.758058E+04 -9.812714E+04  1.071103E+04 -1.468806E+04
        86  26  4.994964E+05  2.783642E+04  1.720465E+04 -9.236978E+04  1.180122E+04 -9.414963E+03
        86  27  4.288894E+05  1.184207E+04  7.603343E+03 -9.800718E+04  1.289159E+04 -3.933135E+03
        87   1  3.678913E+05 -1.959291E+03 -6.071545E+02 -9.811479E+04  1.384769E+04  6.687850E+02
        87   2  4.385883E+05  1.394614E+04  8.084819E+03 -9.240090E+04  1.375745E+04 -4.935754E+03
        87   3  5.093073E+05  2.985516E+04  1.683760E+04 -9.809691E+04  1.366737E+04 -1.056294E+04
        87   4  3.765693E+05 -2.311759E-01  5.135747E+02 -9.807290E+04  4.174752E+02  6.703746E+02
        87   5  3.765553E+05 -1.281710E+01  2.934297E+02 -9.236792E+04  2.719978E+02 -4.934380E+03
        87   6  3.765663E+05 -1.246115E+01  1.715831E+02 -9.807290E+04  1.267024E+02 -1.056179E+04
        87   7  3.852478E+05  1.958922E+03  1.634981E+03 -9.803100E+04 -1.301292E+04  6.719623E+02
        87   8  3.145265E+05 -1.397184E+04 -7.497286E+03 -9.233494E+04 -1.321217E+04 -4.933007E+03
        87   9  2.438438E+05 -2.988069E+04 -1.649379E+04 -9.804890E+04 -1.341122E+04 -1.056064E+04
        87  10  3.678911E+05 -1.959343E+03 -6.075155E+02 -9.811480E+04 -2.936938E-08  1.563886E-09
        87  11  4.385881E+05  1.394607E+04  8.084418E+03 -9.240085E+04 -2.704391E-08  4.817268E-09
        87  12  5.093070E+05  2.985499E+04  1.683704E+04 -9.809679E+04 -2.880731E-08  9.214212E-09
        87  13  3.765693E+05 -2.317054E-01  5.135735E+02 -9.807290E+04  4.329112E-12 -3.091838E-09
        87  14  3.765553E+05 -1.284326E+01  2.933838E+02 -9.236792E+04 -1.142050E-09 -1.440298E-08
        87  15  3.765663E+05 -1.258096E+01  1.713734E+02 -9.807290E+04 -6.311172E-09 -2.656886E-08
        87  16  3.852476E+05  1.958876E+03  1.634662E+03 -9.803099E+04  2.833960E-08  1.177936E-09
        87  17  3.145264E+05 -1.397191E+04 -7.497660E+03 -9.233499E+04  2.738862E-08  5.816573E-09
        87  18  2.438436E+05 -2.988086E+04 -1.649434E+04 -9.804902E+04  3.115198E-08  7.696692E-09
        87  19  3.678913E+05 -1.959291E+03 -6.071545E+02 -9.811479E+04 -1.384769E+04 -6.687850E+02
        87  20  4.385883E+05  1.394614E+04  8.084819E+03 -9.240090E+04 -1.375745E+04  4.935754E+03
        87  21  5.093073E+05  2.985516E+04  1.683760E+04 -9.809691E+04 -1.366737E+04  1.056294E+04
        87  22  3.765693E+05 -2.311759E-01  5.135747E+02 -9.807290E+04 -4.174752E+02 -6.703746E+02
        87  23  3.765553E+05 -1.281710E+01  2.934297E+02 -9.236792E+04 -2.719978E+02  4.934380E+03
        87  24  3.765663E+05 -1.246115E+01  1.715831E+02 -9.807290E+04 -1.267024E+02  1.056179E+04
        87  25  3.852478E+05  1.958922E+03  1.634981E+03 -9.803100E+04  1.301292E+04 -6.719623E+02
        87  26  3.145265E+05 -1.397184E+04 -7.497286E+03 -9.233494E+04  1.321217E+04  4.933007E+03
        87  27  2.438438E+05 -2.988069E+04 -1.649379E+04 -9.804890E+04  1.341122E+04  1.056064E+04
        88   1  5.529197E+05  3.972427E+04  2.256486E+04 -9.809242E+04  1.363972E+04 -1.384686E+04
        88   2  6.236345E+05  5.562753E+04  3.140346E+04 -9.237401E+04  1.350705E+04 -1.946515E+04
        88   3  6.943832E+05  7.154642E+04  4.033448E+04 -9.806684E+04  1.337507E+04 -2.504458E+04
        88   4  3.765610E+05 -1.469524E+01  1.325646E+02 -9.807325E+04  9.906013E+01 -1.384604E+04
        88   5  3.765487E+05 -2.506870E+01  8.098018E+01 -9.236750E+04  5.897247E+01 -1.946524E+04
        88   6  3.765490E+05 -3.579073E+01  5.707585E+01 -9.807325E+04  1.959527E+01 -2.504558E+04
        88   7  2.002346E+05 -3.975484E+04 -2.229916E+04 -9.805407E+04 -1.343795E+04 -1.384523E+04
        88   8  1.295259E+05 -5.568006E+04 -3.124103E+04 -9.236098E+04 -1.338402E+04 -1.946533E+04
        88   9  5.881877E+04 -7.162202E+04 -4.022000E+04 -9.807964E+04 -1.332939E+04 -2.504658E+04
        88  10  5.529194E+05  3.972402E+04  2.256415E+04 -9.809227E+04  3.045530E-08  9.503127E-09
        88  11  6.236342E+05  5.562707E+04  3.140240E+04 -9.237380E+04  3.464932E-08  5.553476E-09
        88  12  6.943829E+05  7.154570E+04  4.033297E+04 -9.806657E+04  3.267109E-08  1.983820E-09
        88  13  3.765610E+05 -1.490115E+01  1.322042E+02 -9.807324E+04 -1.877286E-09 -2.733291E-08
        88  14  3.765486E+05 -2.547564E+01  8.026803E+01 -9.236750E+04  6.753028E-09 -1.617648E-08
        88  15  3.765488E+05 -3.646443E+01  5.589686E+01 -9.807325E+04  6.787548E-09 -3.365510E-09
        88  16  2.002344E+05 -3.975509E+04 -2.229986E+04 -9.805422E+04 -2.730213E-08  5.869725E-09
        88  17  1.295256E+05 -5.568051E+04 -3.124208E+04 -9.236119E+04 -3.303812E-08  1.442435E-09
        88  18  5.881841E+04 -7.162275E+04 -4.022152E+04 -9.807991E+04 -2.924230E-08  1.467547E-10
        88  19  5.529197E+05  3.972427E+04  2.256486E+04 -9.809242E+04 -1.363972E+04  1.384686E+04
        88  20  6.236345E+05  5.562753E+04  3.140346E+04 -9.237401E+04 -1.350705E+04  1.946515E+04
        88  21  6.943832E+05  7.154642E+04  4.033448E+04 -9.806684E+04 -1.337507E+04  2.504458E+04
        88  22  3.765610E+05 -1.469524E+01  1.325646E+02 -9.807325E+04 -9.906013E+01  1.384604E+04
        88  23  3.765487E+05 -2.506870E+01  8.098018E+01 -9.236750E+04 -5.897247E+01  1.946524E+04
        88  24  3.765490E+05 -3.579073E+01  5.707585E+01 -9.807325E+04 -1.959527E+01  2.504558E+04
        88  25  2.002346E+05 -3.975484E+04 -2.229916E+04 -9.805407E+04  1.343795E+04  1.384523E+04
        88  26  1.295259E+05 -5.568006E+04 -3.124103E+04 -9.236098E+04  1.338402E+04  1.946533E+04
        88  27  5.881877E+04 -7.162202E+04 -4.022000E+04 -9.807964E+04  1.332939E+04  2.504658E+04
        89   1  7.380382E+05  8.142940E+04  4.616464E+04 -9.805364E+04  1.334243E+04 -2.828923E+04
        89   2  8.087328E+05  9.738823E+04  5.540356E+04 -9.233106E+04  1.255213E+04 -3.367927E+04
        89   3  8.795857E+05  1.134825E+05  6.519524E+04 -9.800228E+04  1.176286E+04 -3.875045E+04
        89   4  3.765454E+05 -4.410588E+01  5.211966E+01 -9.806942E+04  1.009965E+01 -2.829095E+04
        89   5  3.765242E+05 -6.335965E+01  5.140178E+01 -9.237229E+04 -1.465459E+01 -3.368249E+04
        89   6  3.765244E+05 -7.953867E+01  7.219338E+01 -9.806941E+04 -3.829609E+01 -3.875504E+04
        89   7  1.518701E+04 -8.152288E+04 -4.606025E+04 -9.808517E+04 -1.331486E+04 -2.829268E+04
        89   8 -5.549266E+04 -9.752256E+04 -5.530098E+04 -9.241347E+04 -1.257312E+04 -3.368571E+04
        89   9 -1.262776E+05 -1.136520E+05 -6.505169E+04 -9.813648E+04 -1.183036E+04 -3.875964E+04
        89  10  7.380378E+05  8.142850E+04  4.616280E+04 -9.805333E+04  9.748034E-09  7.684565E-10
        89  11  8.087323E+05  9.738697E+04  5.540113E+04 -9.233072E+04  5.621672E-09  2.280158E-10
        89  12  8.795851E+05  1.134809E+05  6.519216E+04 -9.800191E+04  7.026986E-09  1.961960E-09
        89  13  3.765452E+05 -4.496550E+01  5.061533E+01 -9.806941E+04 -4.377894E-12  8.779017E-10
        89  14  3.765239E+05 -6.457813E+01  4.926944E+01 -9.237229E+04 -3.342865E-09  1.436915E-09
        89  15  3.765240E+05 -8.115180E+01  6.937041E+01 -9.806942E+04  7.483898E-10  2.189638E-09
        89  16  1.518660E+04 -8.152379E+04 -4.606209E+04 -9.808548E+04 -4.220196E-09  9.790109E-10
        89  17 -5.549314E+04 -9.752382E+04 -5.530341E+04 -9.241382E+04 -3.805465E-09  2.457321E-09
        89  18 -1.262782E+05 -1.136537E+05 -6.505478E+04 -9.813685E+04 -2.873499E-09  2.738488E-09
        89  19  7.380382E+05  8.142940E+04  4.616464E+04 -9.805364E+04 -1.334243E+04  2.828923E+04
        89  20  8.087328E+05  9.738823E+04  5.540356E+04 -9.233106E+04 -1.255213E+04  3.367927E+04
        89  21  8.795857E+05  1.134825E+05  6.519524E+04 -9.800228E+04 -1.176286E+04  3.875045E+04
        89  22  3.765454E+05 -4.410588E+01  5.211966E+01 -9.806942E+04 -1.009965E+01  2.829095E+04
        89  23  3.765242E+05 -6.335965E+01  5.140178E+01 -9.237229E+04  1.465459E+01  3.368249E+04
        89  24  3.765244E+05 -7.953867E+01  7.219338E+01 -9.806941E+04  3.829609E+01  3.875504E+04
        89  25  1.518701E+04 -8.152288E+04 -4.606025E+04 -9.808517E+04  1.331486E+04  2.829268E+04
        89  26 -5.549266E+04 -9.752256E+04 -5.530098E+04 -9.241347E+04  1.257312E+04  3.368571E+04
        89  27 -1.262776E+05 -1.136520E+05 -6.505169E+04 -9.813648E+04  1.183036E+04  3.875964E+04
        90   1  9.234247E+05  1.235073E+05  7.159483E+04 -9.793852E+04  1.156389E+04 -4.167305E+04
        90   2  9.937456E+05  1.399362E+05  8.352116E+04 -9.231257E+04  5.799346E+03 -4.532299E+04
        90   3  1.065114E+06  1.574052E+05  9.946525E+04 -9.790628E+04  3.419229E+01 -4.660417E+04
        90   4  3.765234E+05 -8.960891E+01  9.069669E+01 -9.803077E+04 -5.104973E+01 -4.167862E+04
        90   5  3.764810E+05 -9.102823E+01  1.486932E+02 -9.242059E+04 -1.229200E+02 -4.532901E+04
        90   6  3.764938E+05 -3.950680E+01  2.750995E+02 -9.803079E+04 -1.946871E+02 -4.660938E+04
        90   7 -1.700721E+05 -1.236990E+05 -7.141482E+04 -9.812293E+04 -1.165625E+04 -4.168420E+04
        90   8 -2.403960E+05 -1.401347E+05 -8.322723E+04 -9.252850E+04 -6.039575E+03 -4.533502E+04
        90   9 -3.116487E+05 -1.575059E+05 -9.892247E+04 -9.815515E+04 -4.233236E+02 -4.661459E+04
        90  10  9.234241E+05  1.235054E+05  7.159131E+04 -9.793813E+04  7.208013E-08  3.338494E-09
        90  11  9.937450E+05  1.399340E+05  8.351724E+04 -9.231235E+04  7.499229E-09  3.318245E-09
        90  12  1.065114E+06  1.574029E+05  9.946116E+04 -9.790628E+04 -5.947048E-08  5.656189E-11
        90  13  3.765229E+05 -9.147459E+01  8.743174E+01 -9.803077E+04 -2.139722E-09  3.287372E-09
        90  14  3.764805E+05 -9.323504E+01  1.448313E+02 -9.242059E+04 -1.012399E-09  3.823726E-09
        90  15  3.764933E+05 -4.184004E+01  2.710163E+02 -9.803079E+04 -2.870112E-09  1.356612E-09
        90  16 -1.700727E+05 -1.237009E+05 -7.141834E+04 -9.812332E+04 -6.951091E-08  3.376296E-09
        90  17 -2.403966E+05 -1.401369E+05 -8.323116E+04 -9.252872E+04 -5.504847E-09  5.259144E-09
        90  18 -3.116493E+05 -1.575082E+05 -9.892656E+04 -9.815517E+04  6.057902E-08  2.799815E-09
        90  19  9.234247E+05  1.235073E+05  7.159483E+04 -9.793852E+04 -1.156389E+04  4.167305E+04
        90  20  9.937456E+05  1.399362E+05  8.352116E+04 -9.231257E+04 -5.799346E+03  4.532299E+04
        90  21  1.065114E+06  1.574052E+05  9.946525E+04 -9.790628E+04 -3.419229E+01  4.660417E+04
        90  22  3.765234E+05 -8.960891E+01  9.069669E+01 -9.803077E+04  5.104973E+01  4.167862E+04
        90  23  3.764810E+05 -9.102823E+01  1.486932E+02 -9.242059E+04  1.229200E+02  4.532901E+04
        90  24  3.764938E+05 -3.950680E+01  2.750995E+02 -9.803079E+04  1.946871E+02  4.660938E+04
        90  25 -1.700721E+05 -1.236990E+05 -7.141482E+04 -9.812293E+04  1.165625E+04  4.168420E+04
        90  26 -2.403960E+05 -1.401347E+05 -8.322723E+04 -9.252850E+04  6.039575E+03  4.533502E+04
        90  27 -3.116487E+05 -1.575059E+05 -9.892247E+04 -9.815515E+04  4.233236E+02  4.661459E+04
        91   1  1.110113E+06  1.684981E+05  1.099624E+05 -9.755523E+04 -1.409996E+03 -4.713301E+04
        91   2  1.177361E+06  1.884991E+05  1.415498E+05 -9.295540E+04 -4.387982E+04 -3.789966E+04
        91   3  1.252146E+06  2.163545E+05  2.027282E+05 -9.827284E+04 -8.637138E+04 -1.113880E+04
        91   4  3.765214E+05 -1.000443E+01  3.692462E+02 -9.774096E+04 -2.430526E+02 -4.713801E+04
        91   5  3.763880E+05  2.762794E+02  6.719117E+02 -9.278299E+04 -5.762550E+02 -3.788358E+04
        91   6  3.764848E+05  1.113307E+03  1.336218E+03 -9.774145E+04 -9.249060E+02 -1.109128E+04
        91   7 -3.565308E+05 -1.685435E+05 -1.092343E+05 -9.792648E+04  9.225697E+02 -4.714302E+04
        91   8 -4.239544E+05 -1.879806E+05 -1.402223E+05 -9.261083E+04  4.267318E+04 -3.786747E+04
        91   9 -4.984528E+05 -2.141775E+05 -2.000791E+05 -9.721086E+04  8.440220E+04 -1.104359E+04
        91  10  1.110113E+06  1.684957E+05  1.099582E+05 -9.755528E+04  7.089697E-08 -1.882757E-09
        91  11  1.177359E+06  1.884971E+05  1.415435E+05 -9.295674E+04 -1.186181E-09 -3.009303E-09
        91  12  1.252138E+06  2.163524E+05  2.027140E+05 -9.827362E+04 -7.289826E-08 -9.747201E-10
        91  13  3.765208E+05 -1.239090E+01  3.650698E+02 -9.774097E+04  1.786136E-09 -2.214306E-09
        91  14  3.763877E+05  2.747379E+02  6.692136E+02 -9.278300E+04  5.892792E-09  2.398157E-10
        91  15  3.764848E+05  1.113175E+03  1.335985E+03 -9.774146E+04 -4.432319E-10 -3.538384E-10
        91  16 -3.565314E+05 -1.685459E+05 -1.092384E+05 -9.792644E+04 -6.528544E-08  6.136068E-10
        91  17 -4.239567E+05 -1.879826E+05 -1.402284E+05 -9.260953E+04  2.067226E-09  6.292573E-10
        91  18 -4.984604E+05 -2.141796E+05 -2.000927E+05 -9.721011E+04  7.140103E-08 -7.836613E-10
        91  19  1.110113E+06  1.684981E+05  1.099624E+05 -9.755523E+04  1.409996E+03  4.713301E+04
        91  20  1.177361E+06  1.884991E+05  1.415498E+05 -9.295540E+04  4.387982E+04  3.789966E+04
        91  21  1.252146E+06  2.163545E+05  2.027282E+05 -9.827284E+04  8.637138E+04  1.113880E+04
        91  22  3.765214E+05 -1.000443E+01  3.692462E+02 -9.774096E+04  2.430526E+02  4.713801E+04
        91  23  3.763880E+05  2.762794E+02  6.719117E+02 -9.278299E+04  5.762550E+02  3.788358E+04
        91  24  3.764848E+05  1.113307E+03  1.336218E+03 -9.774145E+04  9.249060E+02  1.109128E+04
        91  25 -3.565308E+05 -1.685435E+05 -1.092343E+05 -9.792648E+04 -9.225697E+02  4.714302E+04
        91  26 -4.239544E+05 -1.879806E+05 -1.402223E+05 -9.261083E+04 -4.267318E+04  3.786747E+04
        91  27 -4.984528E+05 -2.141775E+05 -2.000791E+05 -9.721086E+04 -8.440220E+04  1.104359E+04
        92   1  1.878695E+05  9.198773E+05  1.800104E+05 -2.978612E+05  6.705174E+03  4.495412E+04
        92   2  1.254147E+05  6.850847E+05  1.042798E+05 -2.780207E+05  1.912750E+04  7.339938E+03
        92   3  6.980143E+04  4.569267E+05  5.471700E+04 -2.972136E+05  1.484780E+04 -3.026475E+04
        92   4  7.977834E+02  1.633571E+05  6.917774E+02 -2.969627E+05  6.745028E+03 -8.880186E+02
        92   5  5.350253E+02  1.633039E+05  1.405065E+03 -2.774449E+05  1.913695E+04 -1.578350E+03
        92   6  7.153830E+02  1.634368E+05  2.669920E+03 -2.969627E+05  1.482038E+04 -2.272853E+03
        92   7 -1.863139E+05 -5.926335E+05 -1.786587E+05 -2.960650E+05  6.784783E+03 -4.667465E+04
        92   8 -1.243611E+05 -3.582164E+05 -1.014827E+05 -2.768694E+05  1.914638E+04 -1.048931E+04
        92   9 -6.837499E+04 -1.299673E+05 -4.937743E+04 -2.967119E+05  1.479298E+04  2.570620E+04
        92  10  1.878689E+05  9.198751E+05  1.800065E+05 -2.978614E+05 -2.530510E-09 -1.240865E-07
        92  11  1.254143E+05  6.850846E+05  1.042790E+05 -2.780209E+05 -1.046695E-09  3.828149E-09
        92  12  6.980095E+04  4.569256E+05  5.471487E+04 -2.972132E+05  1.025059E-09  1.311727E-07
        92  13  7.977343E+02  1.633570E+05  6.916905E+02 -2.969627E+05  2.942695E-09 -4.254255E-10
        92  14  5.346314E+02  1.633038E+05  1.404372E+03 -2.774449E+05  2.434952E-09 -4.686408E-10
        92  15  7.151458E+02  1.634367E+05  2.669498E+03 -2.969627E+05  8.527463E-10 -1.901649E-10
        92  16 -1.863145E+05 -5.926359E+05 -1.786629E+05 -2.960647E+05  1.562365E-09  1.237112E-07
        92  17 -1.243616E+05 -3.582166E+05 -1.014836E+05 -2.768693E+05  4.151871E-09 -3.420485E-09
        92  18 -6.837540E+04 -1.299681E+05 -4.937908E+04 -2.967122E+05  3.965221E-09 -1.306174E-07
        92  19  1.878695E+05  9.198773E+05  1.800104E+05 -2.978612E+05 -6.705174E+03 -4.495412E+04
        92  20  1.254147E+05  6.850847E+05  1.042798E+05 -2.780207E+05 -1.912750E+04 -7.339938E+03
        92  21  6.980143E+04  4.569267E+05  5.471700E+04 -2.972136E+05 -1.484780E+04  3.026475E+04
        92  22  7.977834E+02  1.633571E+05  6.917774E+02 -2.969627E+05 -6.745028E+03  8.880186E+02
        92  23  5.350253E+02  1.633039E+05  1.405065E+03 -2.774449E+05 -1.913695E+04  1.578350E+03
        92  24  7.153830E+02  1.634368E+05  2.669920E+03 -2.969627E+05 -1.482038E+04  2.272853E+03
        92  25 -1.863139E+05 -5.926335E+05 -1.786587E+05 -2.960650E+05 -6.784783E+03  4.667465E+04
        92  26 -1.243611E+05 -3.582164E+05 -1.014827E+05 -2.768694E+05 -1.914638E+04  1.048931E+04
        92  27 -6.837499E+04 -1.299673E+05 -4.937743E+04 -2.967119E+05 -1.479298E+04 -2.570620E+04
        93   1  3.589712E+04  3.117203E+05  3.101919E+04 -2.975517E+05  6.695025E+03 -3.121225E+04
        93   2 -1.741388E+04  8.002781E+04 -5.750138E+03 -2.760750E+05 -5.950680E+03 -3.349480E+04
        93   3 -6.872327E+04 -1.508522E+05 -4.054744E+04 -2.946871E+05 -1.817181E+04 -3.577578E+04
        93   4  7.952254E+02  1.636120E+05  3.579057E+03 -2.971967E+05  6.666184E+03 -2.809757E+03
        93   5  1.644432E+03  1.631445E+05  6.422839E+03 -2.771511E+05 -5.977785E+03 -6.035488E+03
        93   6  4.660407E+03  1.635985E+05  1.189065E+04 -2.971934E+05 -1.819725E+04 -9.260430E+03
        93   7 -3.430750E+04  1.552664E+04 -2.385896E+04 -2.968418E+05  6.637371E+03  2.558614E+04
        93   8  2.070283E+04  2.462697E+05  1.859853E+04 -2.782274E+05 -6.004983E+03  2.142735E+04
        93   9  7.803933E+04  4.781483E+05  6.432836E+04 -2.997009E+05 -1.822291E+04  1.726791E+04
        93  10  3.589681E+04  3.117192E+05  3.101727E+04 -2.975515E+05  6.162165E-10  1.144082E-08
        93  11 -1.741422E+04  8.002660E+04 -5.752313E+03 -2.760752E+05 -2.894434E-09  4.457668E-09
        93  12 -6.872397E+04 -1.508536E+05 -4.055047E+04 -2.946876E+05 -1.115200E-09 -3.217851E-09
        93  13  7.951756E+02  1.636119E+05  3.578959E+03 -2.971967E+05 -3.781808E-09 -5.460777E-10
        93  14  1.644384E+03  1.631444E+05  6.422703E+03 -2.771512E+05 -4.001903E-09 -5.887539E-10
        93  15  4.660028E+03  1.635983E+05  1.188987E+04 -2.971935E+05 -2.854287E-09 -2.184789E-10
        93  16 -3.430772E+04  1.552593E+04 -2.386028E+04 -2.968420E+05  1.701859E-09 -1.176172E-08
        93  17  2.070267E+04  2.462692E+05  1.859760E+04 -2.782273E+05  2.954932E-09 -4.190995E-09
        93  18  7.803890E+04  4.781479E+05  6.432718E+04 -2.997007E+05  4.771344E-09  3.696886E-09
        93  19  3.589712E+04  3.117203E+05  3.101919E+04 -2.975517E+05 -6.695025E+03  3.121225E+04
        93  20 -1.741388E+04  8.002781E+04 -5.750138E+03 -2.760750E+05  5.950680E+03  3.349480E+04
        93  21 -6.872327E+04 -1.508522E+05 -4.054744E+04 -2.946871E+05  1.817181E+04  3.577578E+04
        93  22  7.952254E+02  1.636120E+05  3.579057E+03 -2.971967E+05 -6.666184E+03  2.809757E+03
        93  23  1.644432E+03  1.631445E+05  6.422839E+03 -2.771511E+05  5.977785E+03  6.035488E+03
        93  24  4.660407E+03  1.635985E+05  1.189065E+04 -2.971934E+05  1.819725E+04  9.260430E+03
        93  25 -3.430750E+04  1.552664E+04 -2.385896E+04 -2.968418E+05 -6.637371E+03 -2.558614E+04
        93  26  2.070283E+04  2.462697E+05  1.859853E+04 -2.782274E+05  6.004983E+03 -2.142735E+04
        93  27  7.803933E+04  4.781483E+05  6.432836E+04 -2.997009E+05  1.822291E+04 -1.726791E+04
        94   1 -1.015901E+05 -2.947825E+05 -6.177682E+04 -2.958775E+05 -2.592902E+04 -3.731597E+04
        94   2 -1.456708E+05 -5.262903E+05 -1.028319E+05 -2.584041E+05 -2.764706E+04 -7.738605E+03
        94   3 -1.730668E+05 -7.574164E+05 -1.589816E+05 -2.596959E+05 -9.184274E+03  2.183082E+04
        94   4  5.943389E+03  1.651626E+05  1.589231E+04 -2.968988E+05 -2.595229E+04 -1.133062E+04
        94   5  1.829669E+04  1.610819E+05  2.930221E+04 -2.775028E+05 -2.762846E+04 -2.628869E+04
        94   6  5.505639E+04  1.650534E+05  5.854429E+04 -2.968629E+05 -9.135855E+03 -4.124339E+04
        94   7  1.134661E+05  6.253175E+05  9.355722E+04 -2.979208E+05 -2.597564E+04  1.467337E+04
        94   8  1.822378E+05  8.489106E+05  1.614160E+05 -2.966231E+05 -2.760874E+04 -4.485883E+04
        94   9  2.831260E+05  1.088318E+06  2.760272E+05 -3.340853E+05 -9.079933E+03 -1.044108E+05
        94  10 -1.015912E+05 -2.947842E+05 -6.178070E+04 -2.958782E+05  2.081953E-10  4.119564E-09
        94  11 -1.456717E+05 -5.262906E+05 -1.028334E+05 -2.584043E+05  1.883840E-09  3.209355E-09
        94  12 -1.730670E+05 -7.574169E+05 -1.589827E+05 -2.596957E+05  1.853071E-10  9.944762E-10
        94  13  5.942631E+03  1.651622E+05  1.589080E+04 -2.968990E+05 -9.396455E-10 -5.277459E-10
        94  14  1.829568E+04  1.610810E+05  2.929948E+04 -2.775034E+05 -3.703076E-09 -4.197525E-10
        94  15  5.505585E+04  1.650516E+05  5.854094E+04 -2.968633E+05 -5.260498E-10 -1.247579E-10
        94  16  1.134653E+05  6.253171E+05  9.355555E+04 -2.979205E+05 -1.379559E-09 -4.295441E-09
        94  17  1.822364E+05  8.489082E+05  1.614108E+05 -2.966241E+05 -2.602507E-09 -2.762315E-09
        94  18  2.831230E+05  1.088306E+06  2.760066E+05 -3.340860E+05  1.774360E-09 -6.457327E-10
        94  19 -1.015901E+05 -2.947825E+05 -6.177682E+04 -2.958775E+05  2.592902E+04  3.731597E+04
        94  20 -1.456708E+05 -5.262903E+05 -1.028319E+05 -2.584041E+05  2.764706E+04  7.738605E+03
        94  21 -1.730668E+05 -7.574164E+05 -1.589816E+05 -2.596959E+05  9.184274E+03 -2.183082E+04
        94  22  5.943389E+03  1.651626E+05  1.589231E+04 -2.968988E+05  2.595229E+04  1.133062E+04
        94  23  1.829669E+04  1.610819E+05  2.930221E+04 -2.775028E+05  2.762846E+04  2.628869E+04
        94  24  5.505639E+04  1.650534E+05  5.854429E+04 -2.968629E+05  9.135855E+03  4.124339E+04
        94  25  1.134661E+05  6.253175E+05  9.355722E+04 -2.979208E+05  2.597564E+04 -1.467337E+04
        94  26  1.822378E+05  8.489106E+05  1.614160E+05 -2.966231E+05  2.760874E+04  4.485883E+04
        94  27  2.831260E+05  1.088318E+06  2.760272E+05 -3.340853E+05  9.079933E+03  1.044108E+05
        95   1 -3.771195E+05 -2.131437E+05 -1.361560E+05 -1.576741E+05 -6.553670E+04 -2.088553E+04
        95   2 -3.534134E+05 -1.307300E+05 -7.874336E+04 -1.472181E+05 -4.106920E+04 -3.532086E+03
        95   3 -3.455133E+05 -9.995082E+04 -5.418795E+04 -1.314148E+05 -1.426880E+04  7.612809E+03
        95   4 -1.802826E+05 -1.033166E+05 -7.798094E+04 -6.686738E+04 -5.147775E+04 -1.561350E+04
        95   5 -1.689340E+05 -4.790843E+04 -3.544347E+04 -8.096030E+04 -3.551383E+04 -1.448715E+03
        95   6 -1.717009E+05 -4.244361E+04 -1.901860E+04 -8.970869E+04 -1.721821E+04  6.505918E+03
        95   7  1.659331E+04  6.528076E+03 -1.980927E+04  2.396888E+04 -3.741415E+04 -1.033766E+04
        95   8  1.557995E+04  3.492048E+04  7.854065E+03 -1.468302E+04 -2.995670E+04  6.356510E+02
        95   9  2.143346E+03  1.506509E+04  1.614953E+04 -4.799215E+04 -2.016854E+04  5.398761E+03
        95  10 -3.771242E+05 -2.131453E+05 -1.361649E+05 -1.576752E+05  1.391716E-09  2.704858E-10
        95  11 -3.534153E+05 -1.307304E+05 -7.874656E+04 -1.472182E+05 -7.537373E-10 -1.635722E-09
        95  12 -3.455135E+05 -9.995093E+04 -5.418844E+04 -1.314147E+05  5.139912E-10 -1.893951E-09
        95  13 -1.802855E+05 -1.033176E+05 -7.798637E+04 -6.686803E+04 -1.974041E-09 -5.962535E-11
        95  14 -1.689353E+05 -4.790877E+04 -3.544585E+04 -8.096035E+04 -5.970080E-09 -5.853790E-10
        95  15 -1.717012E+05 -4.244373E+04 -1.901924E+04 -8.970860E+04 -2.733661E-10  3.259915E-10
        95  16  1.659178E+04  6.527585E+03 -1.981210E+04  2.396857E+04 -1.197938E-09 -1.099569E-09
        95  17  1.557899E+04  3.492024E+04  7.852378E+03 -1.468300E+04 -7.751347E-10 -1.413748E-10
        95  18  2.142901E+03  1.506495E+04  1.614871E+04 -4.799207E+04 -9.005613E-10  3.114857E-09
        95  19 -3.771195E+05 -2.131437E+05 -1.361560E+05 -1.576741E+05  6.553670E+04  2.088553E+04
        95  20 -3.534134E+05 -1.307300E+05 -7.874336E+04 -1.472181E+05  4.106920E+04  3.532086E+03
        95  21 -3.455133E+05 -9.995082E+04 -5.418795E+04 -1.314148E+05  1.426880E+04 -7.612809E+03
        95  22 -1.802826E+05 -1.033166E+05 -7.798094E+04 -6.686738E+04  5.147775E+04  1.561350E+04
        95  23 -1.689340E+05 -4.790843E+04 -3.544347E+04 -8.096030E+04  3.551383E+04  1.448715E+03
        95  24 -1.717009E+05 -4.244361E+04 -1.901860E+04 -8.970869E+04  1.721821E+04 -6.505918E+03
        95  25  1.659331E+04  6.528076E+03 -1.980927E+04  2.396888E+04  3.741415E+04  1.033766E+04
        95  26  1.557995E+04  3.492048E+04  7.854065E+03 -1.468302E+04  2.995670E+04 -6.356510E+02
        95  27  2.143346E+03  1.506509E+04  1.614953E+04 -4.799215E+04  2.016854E+04 -5.398761E+03
        96   1 -3.194905E+05 -1.007139E+05 -4.586056E+04 -1.300856E+05 -1.288291E+04  6.734966E+03
        96   2 -2.951271E+05 -8.552850E+04 -3.305077E+04 -1.197244E+05 -7.930711E+03  6.978325E+03
        96   3 -2.667196E+05 -7.782206E+04 -2.408123E+04 -1.151868E+05 -2.828328E+03  6.821355E+03
        96   4 -1.693238E+05 -4.493464E+04 -1.457026E+04 -8.770453E+04 -1.454973E+04  6.109307E+03
        96   5 -1.712317E+05 -4.006147E+04 -7.696473E+03 -8.523783E+04 -1.014519E+04  6.147347E+03
        96   6 -1.689871E+05 -4.255847E+04 -4.228213E+03 -8.859494E+04 -5.590644E+03  5.785023E+03
        96   7 -1.913514E+04  1.084623E+04  1.671851E+04 -4.531432E+04 -1.621697E+04  5.483483E+03
        96   8 -4.732043E+04  5.406888E+03  1.765705E+04 -5.074487E+04 -1.236014E+04  5.316188E+03
        96   9 -7.124398E+04 -7.293831E+03  1.562456E+04 -6.199904E+04 -8.353449E+03  4.748512E+03
        96  10 -3.194907E+05 -1.007140E+05 -4.586095E+04 -1.300855E+05  5.323318E-09  3.654676E-10
        96  11 -2.951272E+05 -8.552857E+04 -3.305098E+04 -1.197244E+05 -1.171625E-08 -2.197208E-09
        96  12 -2.667196E+05 -7.782211E+04 -2.408133E+04 -1.151868E+05 -5.430839E-09 -2.990908E-09
        96  13 -1.693240E+05 -4.493474E+04 -1.457073E+04 -8.770446E+04 -6.411343E-09 -7.542753E-11
        96  14 -1.712318E+05 -4.006154E+04 -7.696738E+03 -8.523777E+04 -9.786193E-09 -2.826931E-09
        96  15 -1.689871E+05 -4.255851E+04 -4.228334E+03 -8.859492E+04 -2.457674E-09 -7.143072E-10
        96  16 -1.913543E+04  1.084612E+04  1.671796E+04 -4.531425E+04 -1.149573E-08 -1.080703E-09
        96  17 -4.732061E+04  5.406817E+03  1.765671E+04 -5.074482E+04 -1.172274E-09 -2.476092E-09
        96  18 -7.124406E+04 -7.293874E+03  1.562439E+04 -6.199901E+04  2.418976E-09  1.520250E-09
        96  19 -3.194905E+05 -1.007139E+05 -4.586056E+04 -1.300856E+05  1.288291E+04 -6.734966E+03
        96  20 -2.951271E+05 -8.552850E+04 -3.305077E+04 -1.197244E+05  7.930711E+03 -6.978325E+03
        96  21 -2.667196E+05 -7.782206E+04 -2.408123E+04 -1.151868E+05  2.828328E+03 -6.821355E+03
        96  22 -1.693238E+05 -4.493464E+04 -1.457026E+04 -8.770453E+04  1.454973E+04 -6.109307E+03
        96  23 -1.712317E+05 -4.006147E+04 -7.696473E+03 -8.523783E+04  1.014519E+04 -6.147347E+03
        96  24 -1.689871E+05 -4.255847E+04 -4.228213E+03 -8.859494E+04  5.590644E+03 -5.785023E+03
        96  25 -1.913514E+04  1.084623E+04  1.671851E+04 -4.531432E+04  1.621697E+04 -5.483483E+03
        96  26 -4.732043E+04  5.406888E+03  1.765705E+04 -5.074487E+04  1.236014E+04 -5.316188E+03
        96  27 -7.124398E+04 -7.293831E+03  1.562456E+04 -6.199904E+04  8.353449E+03 -4.748512E+03
        97   1 -2.479654E+05 -7.143364E+04 -1.916578E+04 -1.102755E+05 -1.876563E+03  5.842014E+03
        97   2 -2.238797E+05 -5.894817E+04 -1.237067E+04 -9.981874E+04 -2.293495E+02  4.214176E+03
        97   3 -1.945471E+05 -5.196640E+04 -6.275085E+03 -9.556246E+04  1.427497E+03  2.560363E+03
        97   4 -1.688145E+05 -4.266054E+04 -3.183776E+03 -8.848376E+04 -4.556700E+03  4.836582E+03
        97   5 -1.714372E+05 -3.988825E+04 -1.751024E+03 -8.539219E+04 -2.944987E+03  3.195505E+03
        97   6 -1.688067E+05 -4.261253E+04 -9.895699E+02 -8.850130E+04 -1.323688E+03  1.528442E+03
        97   7 -8.965705E+04 -1.388693E+04  1.279794E+04 -6.668943E+04 -7.237204E+03  3.831014E+03
        97   8 -1.189921E+05 -2.082817E+04  8.868451E+03 -7.096458E+04 -5.660860E+03  2.176746E+03
        97   9 -1.430657E+05 -3.325869E+04  4.295885E+03 -8.143993E+04 -4.074974E+03  4.964842E+02
        97  10 -2.479654E+05 -7.143368E+04 -1.916585E+04 -1.102755E+05  4.014967E-09 -2.130155E-10
        97  11 -2.238797E+05 -5.894819E+04 -1.237070E+04 -9.981874E+04 -1.195540E-09 -3.428074E-09
        97  12 -1.945471E+05 -5.196641E+04 -6.275101E+03 -9.556246E+04 -2.276962E-10 -3.328834E-09
        97  13 -1.688145E+05 -4.266057E+04 -3.183859E+03 -8.848374E+04  2.655227E-10 -7.746825E-10
        97  14 -1.714372E+05 -3.988826E+04 -1.751059E+03 -8.539219E+04 -3.114497E-09 -3.409574E-09
        97  15 -1.688067E+05 -4.261254E+04 -9.895776E+02 -8.850130E+04 -4.907269E-09 -3.130898E-09
        97  16 -8.965711E+04 -1.388696E+04  1.279782E+04 -6.668941E+04 -6.597389E-09 -1.535984E-09
        97  17 -1.189921E+05 -2.082818E+04  8.868382E+03 -7.096457E+04 -1.265925E-08 -3.588472E-09
        97  18 -1.430658E+05 -3.325870E+04  4.295853E+03 -8.143993E+04 -5.936477E-09 -2.974178E-09
        97  19 -2.479654E+05 -7.143364E+04 -1.916578E+04 -1.102755E+05  1.876563E+03 -5.842014E+03
        97  20 -2.238797E+05 -5.894817E+04 -1.237067E+04 -9.981874E+04  2.293495E+02 -4.214176E+03
        97  21 -1.945471E+05 -5.196640E+04 -6.275085E+03 -9.556246E+04 -1.427497E+03 -2.560363E+03
        97  22 -1.688145E+05 -4.266054E+04 -3.183776E+03 -8.848376E+04  4.556700E+03 -4.836582E+03
        97  23 -1.714372E+05 -3.988825E+04 -1.751024E+03 -8.539219E+04  2.944987E+03 -3.195505E+03
        97  24 -1.688067E+05 -4.261253E+04 -9.895699E+02 -8.850130E+04  1.323688E+03 -1.528442E+03
        97  25 -8.965705E+04 -1.388693E+04  1.279794E+04 -6.668943E+04  7.237204E+03 -3.831014E+03
        97  26 -1.189921E+05 -2.082817E+04  8.868451E+03 -7.096458E+04  5.660860E+03 -2.176746E+03
        97  27 -1.430657E+05 -3.325869E+04  4.295885E+03 -8.143993E+04  4.074974E+03 -4.964842E+02
        98   1 -1.761722E+05 -4.525954E+04 -2.175789E+03 -9.049986E+04  2.006056E+03  1.444678E+03
        98   2 -1.521599E+05 -3.284157E+04  3.433218E+03 -8.001932E+04  2.998207E+03 -4.696196E+02
        98   3 -1.227803E+05 -2.583082E+04  8.862690E+03 -7.573195E+04  3.990920E+03 -2.385300E+03
        98   4 -1.687847E+05 -4.261572E+04 -7.622025E+02 -8.849107E+04 -7.399407E+02  4.147183E+02
        98   5 -1.714686E+05 -3.991652E+04 -4.787134E+02 -8.539264E+04  2.502256E+02 -1.500360E+03
        98   6 -1.687862E+05 -4.262448E+04 -3.733709E+02 -8.848789E+04  1.240939E+03 -3.416820E+03
        98   7 -1.613971E+05 -3.997186E+04  6.514307E+02 -8.648224E+04 -3.485994E+03 -6.152626E+02
        98   8 -1.907771E+05 -4.699146E+04 -4.390654E+03 -9.076583E+04 -2.497676E+03 -2.531071E+03
        98   9 -2.147899E+05 -5.941797E+04 -9.609506E+03 -1.012430E+05 -1.508824E+03 -4.448259E+03
        98  10 -1.761722E+05 -4.525954E+04 -2.175800E+03 -9.049986E+04  3.365672E-09 -2.135496E-09
        98  11 -1.521599E+05 -3.284157E+04  3.433201E+03 -8.001932E+04  2.241592E-09 -7.056192E-10
        98  12 -1.227804E+05 -2.583083E+04  8.862649E+03 -7.573194E+04  6.602385E-10 -2.506757E-10
        98  13 -1.687847E+05 -4.261572E+04 -7.622039E+02 -8.849107E+04  2.706015E-09 -1.846690E-09
        98  14 -1.714686E+05 -3.991652E+04 -4.787178E+02 -8.539264E+04 -3.079653E-09 -3.417969E-10
        98  15 -1.687862E+05 -4.262450E+04 -3.733958E+02 -8.848788E+04  1.829309E-09  1.363129E-10
        98  16 -1.613971E+05 -3.997186E+04  6.514071E+02 -8.648224E+04 -2.093455E-09 -1.636093E-09
        98  17 -1.907771E+05 -4.699147E+04 -4.390678E+03 -9.076584E+04  9.098662E-11  1.550208E-10
        98  18 -2.147899E+05 -5.941799E+04 -9.609548E+03 -1.012430E+05 -5.841232E-09  2.569566E-10
        98  19 -1.761722E+05 -4.525954E+04 -2.175789E+03 -9.049986E+04 -2.006056E+03 -1.444678E+03
        98  20 -1.521599E+05 -3.284157E+04  3.433218E+03 -8.001932E+04 -2.998207E+03  4.696196E+02
        98  21 -1.227803E+05 -2.583082E+04  8.862690E+03 -7.573195E+04 -3.990920E+03  2.385300E+03
        98  22 -1.687847E+05 -4.261572E+04 -7.622025E+02 -8.849107E+04  7.399407E+02 -4.147183E+02
        98  23 -1.714686E+05 -3.991652E+04 -4.787134E+02 -8.539264E+04 -2.502256E+02  1.500360E+03
        98  24 -1.687862E+05 -4.262448E+04 -3.733709E+02 -8.848789E+04 -1.240939E+03  3.416820E+03
        98  25 -1.613971E+05 -3.997186E+04  6.514307E+02 -8.648224E+04  3.485994E+03  6.152626E+02
        98  26 -1.907771E+05 -4.699146E+04 -4.390654E+03 -9.076583E+04  2.497676E+03  2.531071E+03
        98  27 -2.147899E+05 -5.941797E+04 -9.609506E+03 -1.012430E+05  1.508824E+03  4.448259E+03
        99   1 -1.044428E+05 -1.911055E+04  1.273542E+04 -7.066614E+04  4.491228E+03 -3.529870E+03
        99   2 -8.043875E+04 -6.688822E+03  1.795997E+04 -6.018859E+04  5.473484E+03 -5.448572E+03
        99   3 -5.106694E+04  3.280066E+02  2.301285E+04 -5.590176E+04  6.454883E+03 -7.364501E+03
        99   4 -1.687869E+05 -4.262466E+04 -3.716856E+02 -8.848737E+04  1.741304E+03 -4.561414E+03
        99   5 -1.714705E+05 -3.992047E+04 -4.694908E+02 -8.539269E+04  2.727222E+03 -6.478873E+03
        99   6 -1.687878E+05 -4.262192E+04 -7.418430E+02 -8.848896E+04  3.712275E+03 -8.393567E+03
        99   7 -2.331263E+05 -6.613823E+04 -1.347883E+04 -1.063068E+05 -1.008292E+03 -5.592836E+03
        99   8 -2.624938E+05 -7.315141E+04 -1.889933E+04 -1.105934E+05 -1.860816E+01 -7.509012E+03
        99   9 -2.864954E+05 -8.557100E+04 -2.449745E+04 -1.210707E+05  9.702048E+02 -9.422432E+03
        99  10 -1.044429E+05 -1.911057E+04  1.273536E+04 -7.066613E+04 -2.334363E-08 -9.640236E-09
        99  11 -8.043879E+04 -6.688862E+03  1.795986E+04 -6.018857E+04  1.160208E-08 -3.603359E-10
        99  12 -5.106700E+04  3.279372E+02  2.301267E+04 -5.590172E+04  2.916907E-08  8.093096E-09
        99  13 -1.687869E+05 -4.262469E+04 -3.717304E+02 -8.848736E+04  2.090588E-09  1.133518E-10
        99  14 -1.714706E+05 -3.992052E+04 -4.695837E+02 -8.539267E+04 -1.147298E-09  9.050699E-11
        99  15 -1.687879E+05 -4.262199E+04 -7.420013E+02 -8.848894E+04  5.076814E-10 -8.225542E-10
        99  16 -2.331263E+05 -6.613826E+04 -1.347889E+04 -1.063068E+05  2.541489E-08  9.907187E-09
        99  17 -2.624938E+05 -7.315147E+04 -1.889944E+04 -1.105934E+05 -2.121988E-09  9.507256E-10
        99  18 -2.864954E+05 -8.557110E+04 -2.449761E+04 -1.210707E+05 -2.897298E-08 -9.190160E-09
        99  19 -1.044428E+05 -1.911055E+04  1.273542E+04 -7.066614E+04 -4.491228E+03  3.529870E+03
        99  20 -8.043875E+04 -6.688822E+03  1.795997E+04 -6.018859E+04 -5.473484E+03  5.448572E+03
        99  21 -5.106694E+04  3.280066E+02  2.301285E+04 -5.590176E+04 -6.454883E+03  7.364501E+03
        99  22 -1.687869E+05 -4.262466E+04 -3.716856E+02 -8.848737E+04 -1.741304E+03  4.561414E+03
        99  23 -1.714705E+05 -3.992047E+04 -4.694908E+02 -8.539269E+04 -2.727222E+03  6.478873E+03
        99  24 -1.687878E+05 -4.262192E+04 -7.418430E+02 -8.848896E+04 -3.712275E+03  8.393567E+03
        99  25 -2.331263E+05 -6.613823E+04 -1.347883E+04 -1.063068E+05  1.008292E+03  5.592836E+03
        99  26 -2.624938E+05 -7.315141E+04 -1.889933E+04 -1.105934E+05  1.860816E+01  7.509012E+03
        99  27 -2.864954E+05 -8.557100E+04 -2.449745E+04 -1.210707E+05 -9.702048E+02  9.422432E+03
       100   1 -3.274867E+04  7.038873E+03  2.666237E+04 -5.085784E+04  7.041769E+03 -8.476181E+03
       100   2 -8.706347E+03  1.946090E+04  3.125939E+04 -4.038650E+04  8.581670E+03 -1.016485E+04
       100   3  2.060203E+04  2.640406E+04  3.524744E+04 -3.610717E+04  1.010740E+04 -1.181480E+04
       100   4 -1.688107E+05 -4.261916E+04 -9.614107E+02 -8.849783E+04  4.291924E+03 -9.508076E+03
       100   5 -1.714437E+05 -3.990049E+04 -1.698602E+03 -8.539259E+04  5.884549E+03 -1.117720E+04
       100   6 -1.688215E+05 -4.267131E+04 -3.086610E+03 -8.847981E+04  7.462954E+03 -1.280761E+04
       100   7 -3.048537E+05 -9.227561E+04 -2.858608E+04 -1.261302E+05  1.542728E+03 -1.053973E+04
       100   8 -3.341530E+05 -9.925937E+04 -3.465770E+04 -1.303876E+05  3.188198E+03 -1.218926E+04
       100   9 -3.582066E+05 -1.117431E+05 -4.142199E+04 -1.408373E+05  4.819401E+03 -1.380008E+04
       100  10 -3.274874E+04  7.038782E+03  2.666214E+04 -5.085779E+04 -7.768687E-10 -2.183342E-09
       100  11 -8.706454E+03  1.946077E+04  3.125906E+04 -4.038643E+04 -4.531667E-10 -7.474201E-10
       100  12  2.060189E+04  2.640388E+04  3.524699E+04 -3.610708E+04 -5.604343E-09 -7.931832E-10
       100  13 -1.688108E+05 -4.261927E+04 -9.616152E+02 -8.849780E+04 -4.217444E-09 -3.895696E-10
       100  14 -1.714437E+05 -3.990063E+04 -1.698902E+03 -8.539254E+04 -6.521883E-09  2.519540E-10
       100  15 -1.688216E+05 -4.267150E+04 -3.087023E+03 -8.847973E+04 -1.118207E-08 -1.673177E-09
       100  16 -3.048537E+05 -9.227573E+04 -2.858629E+04 -1.261302E+05 -4.272214E-09  1.217055E-09
       100  17 -3.341531E+05 -9.925953E+04 -3.465799E+04 -1.303876E+05 -4.897242E-09  7.620890E-10
       100  18 -3.582067E+05 -1.117433E+05 -4.142239E+04 -1.408372E+05 -1.205924E-08 -2.470650E-09
       100  19 -3.274867E+04  7.038873E+03  2.666237E+04 -5.085784E+04 -7.041769E+03  8.476181E+03
       100  20 -8.706347E+03  1.946090E+04  3.125939E+04 -4.038650E+04 -8.581670E+03  1.016485E+04
       100  21  2.060203E+04  2.640406E+04  3.524744E+04 -3.610717E+04 -1.010740E+04  1.181480E+04
       100  22 -1.688107E+05 -4.261916E+04 -9.614107E+02 -8.849783E+04 -4.291924E+03  9.508076E+03
       100  23 -1.714437E+05 -3.990049E+04 -1.698602E+03 -8.539259E+04 -5.884549E+03  1.117720E+04
       100  24 -1.688215E+05 -4.267131E+04 -3.086610E+03 -8.847981E+04 -7.462954E+03  1.280761E+04
       100  25 -3.048537E+05 -9.227561E+04 -2.858608E+04 -1.261302E+05 -1.542728E+03  1.053973E+04
       100  26 -3.341530E+05 -9.925937E+04 -3.465770E+04 -1.303876E+05 -3.188198E+03  1.218926E+04
       100  27 -3.582066E+05 -1.117431E+05 -4.142199E+04 -1.408373E+05 -4.819401E+03  1.380008E+04
       101   1  3.899289E+04  3.300144E+04  3.810203E+04 -3.139946E+04  1.124466E+04 -1.272455E+04
       101   2  6.285399E+04  4.568269E+04  4.031837E+04 -2.019551E+04  1.483686E+04 -1.334036E+04
       101   3  9.105533E+04  5.123579E+04  3.987724E+04 -1.480014E+04  1.820785E+04 -1.336530E+04
       101   4 -1.689908E+05 -4.257012E+04 -4.098134E+03 -8.858310E+04  8.479190E+03 -1.376295E+04
       101   5 -1.712452E+05 -4.007923E+04 -7.459819E+03 -8.524647E+04  1.287980E+04 -1.407565E+04
       101   6 -1.693211E+05 -4.487775E+04 -1.412051E+04 -8.771920E+04  1.705902E+04 -1.379741E+04
       101   7 -3.769318E+05 -1.181388E+05 -4.630091E+04 -1.457496E+05  5.714689E+03 -1.480098E+04
       101   8 -4.052891E+05 -1.258368E+05 -5.524105E+04 -1.502751E+05  1.092352E+04 -1.481064E+04
       101   9 -4.296280E+05 -1.409854E+05 -6.812187E+04 -1.606100E+05  1.591072E+04 -1.422932E+04
       101  10  3.899271E+04  3.300123E+04  3.810149E+04 -3.139934E+04 -1.630851E-08 -2.484163E-09
       101  11  6.285371E+04  4.568244E+04  4.031762E+04 -2.019535E+04 -8.225978E-09 -1.832722E-09
       101  12  9.105492E+04  5.123551E+04  3.987628E+04 -1.479994E+04 -5.996961E-09 -3.794733E-09
       101  13 -1.689910E+05 -4.257034E+04 -4.098625E+03 -8.858300E+04 -1.669373E-08 -2.220005E-09
       101  14 -1.712454E+05 -4.007949E+04 -7.460503E+03 -8.524633E+04 -1.502499E-08 -2.929585E-09
       101  15 -1.693214E+05 -4.487804E+04 -1.412142E+04 -8.771901E+04 -1.881413E-08 -5.111795E-09
       101  16 -3.769319E+05 -1.181390E+05 -4.630138E+04 -1.457495E+05 -1.247801E-08 -1.853731E-09
       101  17 -4.052893E+05 -1.258371E+05 -5.524169E+04 -1.502749E+05 -1.177769E-08 -3.522015E-09
       101  18 -4.296284E+05 -1.409856E+05 -6.812272E+04 -1.606098E+05 -1.548493E-08 -7.092158E-09
       101  19  3.899289E+04  3.300144E+04  3.810203E+04 -3.139946E+04 -1.124466E+04  1.272455E+04
       101  20  6.285399E+04  4.568269E+04  4.031837E+04 -2.019551E+04 -1.483686E+04  1.334036E+04
       101  21  9.105533E+04  5.123579E+04  3.987724E+04 -1.480014E+04 -1.820785E+04  1.336530E+04
       101  22 -1.689908E+05 -4.257012E+04 -4.098134E+03 -8.858310E+04 -8.479190E+03  1.376295E+04
       101  23 -1.712452E+05 -4.007923E+04 -7.459819E+03 -8.524647E+04 -1.287980E+04  1.407565E+04
       101  24 -1.693211E+05 -4.487775E+04 -1.412051E+04 -8.771920E+04 -1.705902E+04  1.379741E+04
       101  25 -3.769318E+05 -1.181388E+05 -4.630091E+04 -1.457496E+05 -5.714689E+03  1.480098E+04
       101  26 -4.052891E+05 -1.258368E+05 -5.524105E+04 -1.502751E+05 -1.092352E+04  1.481064E+04
       101  27 -4.296280E+05 -1.409854E+05 -6.812187E+04 -1.606100E+05 -1.591072E+04  1.422932E+04
       102   1  1.123039E+05  5.559498E+04  3.944347E+04 -1.716631E+04  2.271068E+04 -1.310190E+04
       102   2  1.257434E+05  7.527191E+04  3.298037E+04  1.513760E+04  2.735035E+04 -8.661169E+03
       102   3  1.280130E+05  4.905169E+04  1.116374E+04  5.261904E+04  2.854981E+04  4.938328E+03
       102   4 -1.716546E+05 -4.243499E+04 -1.843111E+04 -8.962639E+04  1.966915E+04 -1.424463E+04
       102   5 -1.689875E+05 -4.772497E+04 -3.434976E+04 -8.114415E+04  3.685870E+04 -5.091649E+03
       102   6 -1.799854E+05 -1.014129E+05 -7.557173E+04 -6.748357E+04  5.060667E+04  1.322156E+04
       102   7 -4.555303E+05 -1.404603E+05 -7.630964E+04 -1.620568E+05  1.662912E+04 -1.538687E+04
       102   8 -4.636259E+05 -1.707063E+05 -1.016841E+05 -1.773803E+05  4.636207E+04 -1.524559E+03
       102   9 -4.878800E+05 -2.518466E+05 -1.623117E+05 -1.875227E+05  7.265108E+04  2.149699E+04
       102  10  1.123033E+05  5.559466E+04  3.944218E+04 -1.716607E+04 -1.244562E-08 -6.217670E-09
       102  11  1.257425E+05  7.527163E+04  3.297882E+04  1.513779E+04 -7.590724E-09 -3.793122E-09
       102  12  1.280121E+05  4.905144E+04  1.116216E+04  5.261893E+04 -7.208150E-09 -2.130689E-09
       102  13 -1.716551E+05 -4.243531E+04 -1.843222E+04 -8.962617E+04 -1.478197E-08 -7.023525E-09
       102  14 -1.689890E+05 -4.772536E+04 -3.435236E+04 -8.114400E+04 -2.906598E-09 -4.294884E-09
       102  15 -1.799882E+05 -1.014138E+05 -7.557687E+04 -6.748411E+04 -1.754146E-09 -7.341895E-10
       102  16 -4.555307E+05 -1.404606E+05 -7.631061E+04 -1.620566E+05 -8.300137E-09 -5.898403E-09
       102  17 -4.636283E+05 -1.707069E+05 -1.016881E+05 -1.773802E+05  8.903150E-11 -4.832040E-09
       102  18 -4.878858E+05 -2.518485E+05 -1.623225E+05 -1.875240E+05  2.312066E-09  1.588350E-10
       102  19  1.123039E+05  5.559498E+04  3.944347E+04 -1.716631E+04 -2.271068E+04  1.310190E+04
       102  20  1.257434E+05  7.527191E+04  3.298037E+04  1.513760E+04 -2.735035E+04  8.661169E+03
       102  21  1.280130E+05  4.905169E+04  1.116374E+04  5.261904E+04 -2.854981E+04 -4.938328E+03
       102  22 -1.716546E+05 -4.243499E+04 -1.843111E+04 -8.962639E+04 -1.966915E+04  1.424463E+04
       102  23 -1.689875E+05 -4.772497E+04 -3.434976E+04 -8.114415E+04 -3.685870E+04  5.091649E+03
       102  24 -1.799854E+05 -1.014129E+05 -7.557173E+04 -6.748357E+04 -5.060667E+04 -1.322156E+04
       102  25 -4.555303E+05 -1.404603E+05 -7.630964E+04 -1.620568E+05 -1.662912E+04  1.538687E+04
       102  26 -4.636259E+05 -1.707063E+05 -1.016841E+05 -1.773803E+05 -4.636207E+04  1.524559E+03
       102  27 -4.878800E+05 -2.518466E+05 -1.623117E+05 -1.875227E+05 -7.265108E+04 -2.149699E+04
       103   1  9.048954E+05  1.445949E+05  1.286580E+05  1.449889E+04  3.625354E+04 -1.097102E+04
       103   2  8.667020E+05  1.616912E+05  1.086285E+05  2.848096E+04  1.445455E+04 -3.786575E+04
       103   3  8.270257E+05  1.613841E+05  9.844848E+04  4.817484E+04 -7.353876E+03 -4.784074E+04
       103   4  1.105789E+05 -5.077343E+04 -5.466621E+04  4.767880E+04 -3.843147E+04 -1.103504E+04
       103   5  1.144348E+05 -1.580986E+04 -2.723826E+04  4.479863E+04 -2.445856E+04 -3.790738E+04
       103   6  1.105944E+05 -4.469921E+03 -1.479080E+04  4.763000E+04 -1.049678E+04 -4.784938E+04
       103   7 -6.831405E+05 -2.461788E+05 -2.380109E+05  8.081584E+04 -1.130217E+05 -1.110708E+04
       103   8 -6.372781E+05 -1.933408E+05 -1.631214E+05  6.109586E+04 -6.332586E+04 -3.795109E+04
       103   9 -6.053263E+05 -1.703494E+05 -1.280429E+05  4.708566E+04 -1.363619E+04 -4.785803E+04
       103  10  9.048940E+05  1.445945E+05  1.286553E+05  1.449921E+04  8.852643E-10 -5.348878E-10
       103  11  8.667014E+05  1.616896E+05  1.086254E+05  2.848140E+04  4.990342E-09 -2.822112E-09
       103  12  8.270250E+05  1.613816E+05  9.844408E+04  4.817456E+04  3.749618E-09 -2.507157E-09
       103  13  1.105773E+05 -5.077396E+04 -5.466921E+04  4.767846E+04  2.757437E-11  2.095480E-10
       103  14  1.144338E+05 -1.581157E+04 -2.724208E+04  4.479788E+04 -8.327900E-10 -2.169694E-09
       103  15  1.105936E+05 -4.472409E+03 -1.479531E+04  4.762960E+04 -2.930696E-09 -6.562187E-10
       103  16 -6.831543E+05 -2.461824E+05 -2.380351E+05  8.081483E+04 -2.084501E-09 -1.544066E-10
       103  17 -6.372828E+05 -1.933434E+05 -1.631316E+05  6.109392E+04 -7.749254E-10 -3.973089E-09
       103  18 -6.053271E+05 -1.703519E+05 -1.280476E+05  4.708514E+04 -3.516401E-09 -3.710818E-09
       103  19  9.048954E+05  1.445949E+05  1.286580E+05  1.449889E+04 -3.625354E+04  1.097102E+04
       103  20  8.667020E+05  1.616912E+05  1.086285E+05  2.848096E+04 -1.445455E+04  3.786575E+04
       103  21  8.270257E+05  1.613841E+05  9.844848E+04  4.817484E+04  7.353876E+03  4.784074E+04
       103  22  1.105789E+05 -5.077343E+04 -5.466621E+04  4.767880E+04  3.843147E+04  1.103504E+04
       103  23  1.144348E+05 -1.580986E+04 -2.723826E+04  4.479863E+04  2.445856E+04  3.790738E+04
       103  24  1.105944E+05 -4.469921E+03 -1.479080E+04  4.763000E+04  1.049678E+04  4.784938E+04
       103  25 -6.831405E+05 -2.461788E+05 -2.380109E+05  8.081584E+04  1.130217E+05  1.110708E+04
       103  26 -6.372781E+05 -1.933408E+05 -1.631214E+05  6.109586E+04  6.332586E+04  3.795109E+04
       103  27 -6.053263E+05 -1.703494E+05 -1.280429E+05  4.708566E+04  1.363619E+04  4.785803E+04
       104   1  8.031924E+05  1.559085E+05  9.548607E+04  4.662149E+04 -5.481966E+03 -4.806813E+04
       104   2  7.644855E+05  1.486348E+05  9.013124E+04  4.424091E+04 -6.692100E+03 -4.853622E+04
       104   3  7.256686E+05  1.402498E+05  8.529051E+04  4.877675E+04 -7.905093E+03 -4.699988E+04
       104   4  1.121230E+05 -3.542731E+03 -1.110221E+04  4.790098E+04 -8.580282E+03 -4.807684E+04
       104   5  1.125543E+05 -9.155550E+02 -6.040903E+03  4.444027E+04 -5.555092E+03 -4.853982E+04
       104   6  1.121394E+05 -1.352067E+02 -3.405834E+03  4.789647E+04 -2.532758E+03 -4.699728E+04
       104   7 -5.784696E+05 -1.630171E+05 -1.177012E+05  4.917884E+04 -1.167528E+04 -4.808557E+04
       104   8 -5.389496E+05 -1.504857E+05 -1.022207E+05  4.463927E+04 -4.419226E+03 -4.854343E+04
       104   9 -5.010102E+05 -1.405374E+05 -9.210810E+04  4.701696E+04  2.834497E+03 -4.699470E+04
       104  10  8.031918E+05  1.559060E+05  9.548167E+04  4.662127E+04 -2.650349E-09 -3.223430E-09
       104  11  7.644848E+05  1.486322E+05  9.012673E+04  4.424065E+04  2.819245E-09  5.776773E-11
       104  12  7.256679E+05  1.402474E+05  8.528625E+04  4.877645E+04  2.517844E-10  1.440375E-09
       104  13  1.121223E+05 -3.545233E+03 -1.110669E+04  4.790064E+04 -2.179373E-11 -1.790185E-09
       104  14  1.125536E+05 -9.180934E+02 -6.045388E+03  4.444006E+04 -3.998478E-09  2.719215E-10
       104  15  1.121388E+05 -1.375803E+02 -3.409997E+03  4.789637E+04  6.357577E-09 -7.933200E-10
       104  16 -5.784703E+05 -1.630196E+05 -1.177058E+05  4.917839E+04  3.390306E-09  3.945872E-10
       104  17 -5.389503E+05 -1.504882E+05 -1.022252E+05  4.463910E+04  1.447626E-09  2.635995E-09
       104  18 -5.010108E+05 -1.405398E+05 -9.211226E+04  4.701706E+04  2.387514E-09  1.184697E-09
       104  19  8.031924E+05  1.559085E+05  9.548607E+04  4.662149E+04  5.481966E+03  4.806813E+04
       104  20  7.644855E+05  1.486348E+05  9.013124E+04  4.424091E+04  6.692100E+03  4.853622E+04
       104  21  7.256686E+05  1.402498E+05  8.529051E+04  4.877675E+04  7.905093E+03  4.699988E+04
       104  22  1.121230E+05 -3.542731E+03 -1.110221E+04  4.790098E+04  8.580282E+03  4.807684E+04
       104  23  1.125543E+05 -9.155550E+02 -6.040903E+03  4.444027E+04  5.555092E+03  4.853982E+04
       104  24  1.121394E+05 -1.352067E+02 -3.405834E+03  4.789647E+04  2.532758E+03  4.699728E+04
       104  25 -5.784696E+05 -1.630171E+05 -1.177012E+05  4.917884E+04  1.167528E+04  4.808557E+04
       104  26 -5.389496E+05 -1.504857E+05 -1.022207E+05  4.463927E+04  4.419226E+03  4.854343E+04
       104  27 -5.010102E+05 -1.405374E+05 -9.210810E+04  4.701696E+04 -2.834497E+03  4.699470E+04
       105   1  7.014314E+05  1.346307E+05  8.216332E+04  4.860837E+04 -7.399556E+03 -4.544528E+04
       105   2  6.627282E+05  1.258397E+05  7.726019E+04  4.508566E+04 -7.182065E+03 -4.278387E+04
       105   3  6.239874E+05  1.170205E+05  7.220788E+04  4.861587E+04 -6.965844E+03 -3.988545E+04
       105   4  1.123049E+05 -8.567570E+01 -2.574467E+03  4.792715E+04 -2.023156E+03 -4.544208E+04
       105   5  1.123752E+05  7.663238E+01 -1.451831E+03  4.440035E+04 -1.305369E+03 -4.277901E+04
       105   6  1.123193E+05  1.239252E+02 -8.260022E+02  4.792683E+04 -5.888402E+02 -3.987882E+04
       105   7 -4.764713E+05 -1.348179E+05 -8.731753E+04  4.724648E+04  3.348365E+03 -4.543890E+04
       105   8 -4.376719E+05 -1.257001E+05 -8.016825E+04  4.371556E+04  4.566345E+03 -4.277416E+04
       105   9 -3.990842E+05 -1.167845E+05 -7.386359E+04  4.723828E+04  5.783138E+03 -3.987220E+04
       105  10  7.014308E+05  1.346285E+05  8.215934E+04  4.860810E+04  1.270553E-08  3.222468E-09
       105  11  6.627277E+05  1.258377E+05  7.725666E+04  4.508541E+04 -2.573992E-08  2.664989E-09
       105  12  6.239869E+05  1.170187E+05  7.220480E+04  4.861565E+04 -5.169692E-08 -4.688908E-10
       105  13  1.123044E+05 -8.789434E+01 -2.578355E+03  4.792708E+04  4.225558E-09 -1.327948E-09
       105  14  1.123747E+05  7.466667E+01 -1.455274E+03  4.440031E+04  3.604504E-09  1.646956E-09
       105  15  1.123189E+05  1.222173E+02 -8.289915E+02  4.792681E+04  2.934078E-09  2.257069E-09
       105  16 -4.764719E+05 -1.348201E+05 -8.732143E+04  4.724661E+04 -6.154325E-09  1.340292E-09
       105  17 -4.376724E+05 -1.257021E+05 -8.017173E+04  4.371572E+04  2.677935E-08  2.178149E-09
       105  18 -3.990846E+05 -1.167862E+05 -7.386664E+04  4.723847E+04  5.015554E-08 -5.377746E-10
       105  19  7.014314E+05  1.346307E+05  8.216332E+04  4.860837E+04  7.399556E+03  4.544528E+04
       105  20  6.627282E+05  1.258397E+05  7.726019E+04  4.508566E+04  7.182065E+03  4.278387E+04
       105  21  6.239874E+05  1.170205E+05  7.220788E+04  4.861587E+04  6.965844E+03  3.988545E+04
       105  22  1.123049E+05 -8.567570E+01 -2.574467E+03  4.792715E+04  2.023156E+03  4.544208E+04
       105  23  1.123752E+05  7.663238E+01 -1.451831E+03  4.440035E+04  1.305369E+03  4.277901E+04
       105  24  1.123193E+05  1.239252E+02 -8.260022E+02  4.792683E+04  5.888402E+02  3.987882E+04
       105  25 -4.764713E+05 -1.348179E+05 -8.731753E+04  4.724648E+04 -3.348365E+03  4.543890E+04
       105  26 -4.376719E+05 -1.257001E+05 -8.016825E+04  4.371556E+04 -4.566345E+03  4.277416E+04
       105  27 -3.990842E+05 -1.167845E+05 -7.386359E+04  4.723828E+04 -5.783138E+03  3.987220E+04
       106   1  5.997369E+05  1.114432E+05  6.877233E+04  4.857733E+04 -6.837689E+03 -3.812074E+04
       106   2  5.610471E+05  1.026049E+05  6.354261E+04  4.500252E+04 -6.726745E+03 -3.509004E+04
       106   3  5.223375E+05  9.379413E+04  5.824358E+04  4.849257E+04 -6.616653E+03 -3.203167E+04
       106   4  1.123448E+05  1.259191E+02 -6.235620E+02  4.792951E+04 -4.610542E+02 -3.811354E+04
       106   5  1.123667E+05  1.253174E+02 -3.495778E+02  4.439694E+04 -2.919808E+02 -3.508189E+04
       106   6  1.123566E+05  1.420843E+02 -1.856062E+02  4.792950E+04 -1.237539E+02 -3.202255E+04
       106   7 -3.748072E+05 -1.112021E+05 -7.002275E+04  4.728213E+04  5.910794E+03 -3.810636E+04
       106   8 -3.361101E+05 -1.023633E+05 -6.424453E+04  4.379172E+04  6.138336E+03 -3.507375E+04
       106   9 -2.974544E+05 -9.351755E+04 -5.861709E+04  4.736674E+04  6.365045E+03 -3.201345E+04
       106  10  5.997365E+05  1.114416E+05  6.876951E+04  4.857712E+04  5.214436E-08 -7.401477E-10
       106  11  5.610467E+05  1.026035E+05  6.354021E+04  4.500233E+04  1.653902E-08  3.727088E-09
       106  12  5.223372E+05  9.379302E+04  5.824157E+04  4.849240E+04 -1.387611E-08  2.484208E-09
       106  13  1.123444E+05  1.243591E+02 -6.262923E+02  4.792950E+04  2.123748E-09 -3.517979E-10
       106  14  1.123664E+05  1.239957E+02 -3.518909E+02  4.439693E+04 -1.648992E-09  3.524574E-09
       106  15  1.123563E+05  1.409831E+02 -1.875333E+02  4.792950E+04  1.025128E-09  6.471055E-10
       106  16 -3.748076E+05 -1.112036E+05 -7.002554E+04  4.728231E+04 -5.117463E-08 -7.060897E-10
       106  17 -3.361105E+05 -1.023646E+05 -6.424691E+04  4.379189E+04 -2.125214E-08  6.109735E-10
       106  18 -2.974547E+05 -9.351866E+04 -5.861909E+04  4.736690E+04  1.519753E-08  8.908160E-10
       106  19  5.997369E+05  1.114432E+05  6.877233E+04  4.857733E+04  6.837689E+03  3.812074E+04
       106  20  5.610471E+05  1.026049E+05  6.354261E+04  4.500252E+04  6.726745E+03  3.509004E+04
       106  21  5.223375E+05  9.379413E+04  5.824358E+04  4.849257E+04  6.616653E+03  3.203167E+04
       106  22  1.123448E+05  1.259191E+02 -6.235620E+02  4.792951E+04  4.610542E+02  3.811354E+04
       106  23  1.123667E+05  1.253174E+02 -3.495778E+02  4.439694E+04  2.919808E+02  3.508189E+04
       106  24  1.123566E+05  1.420843E+02 -1.856062E+02  4.792950E+04  1.237539E+02  3.202255E+04
       106  25 -3.748072E+05 -1.112021E+05 -7.002275E+04  4.728213E+04 -5.910794E+03  3.810636E+04
       106  26 -3.361101E+05 -1.023633E+05 -6.424453E+04  4.379172E+04 -6.138336E+03  3.507375E+04
       106  27 -2.974544E+05 -9.351755E+04 -5.861709E+04  4.736674E+04 -6.365045E+03  3.201345E+04
       107   1  4.980931E+05  8.822989E+04  5.470101E+04  4.846624E+04 -6.589879E+03 -3.024271E+04
       107   2  4.594188E+05  7.940111E+04  4.934782E+04  4.488960E+04 -6.579300E+03 -2.716943E+04
       107   3  4.207285E+05  7.060085E+04  4.398795E+04  4.838046E+04 -6.569349E+03 -2.409349E+04
       107   4  1.123634E+05  1.449418E+02 -1.291285E+02  4.793008E+04 -9.772384E+01 -3.023315E+04
       107   5  1.123769E+05  1.373856E+02 -4.202923E+01  4.439621E+04 -8.167793E+01 -2.715918E+04
       107   6  1.123725E+05  1.575796E+02  3.463820E+01  4.793007E+04 -6.625935E+01 -2.408256E+04
       107   7 -2.732159E+05 -8.794670E+04 -5.496124E+04  4.739420E+04  6.390574E+03 -3.022359E+04
       107   8 -2.345432E+05 -7.913176E+04 -4.943346E+04  4.390305E+04  6.412470E+03 -2.714894E+04
       107   9 -1.958873E+05 -7.028997E+04 -4.391990E+04  4.747986E+04  6.433741E+03 -2.407163E+04
       107  10  4.980928E+05  8.822890E+04  5.469921E+04  4.846608E+04 -2.302065E-08  1.691924E-09
       107  11  4.594186E+05  7.940031E+04  4.934635E+04  4.488946E+04  9.206597E-09  5.481389E-09
       107  12  4.207283E+05  7.060021E+04  4.398677E+04  4.838034E+04  3.090918E-08  7.174296E-09
       107  13  1.123631E+05  1.439602E+02 -1.308463E+02  4.793008E+04  6.529964E-09  3.819162E-09
       107  14  1.123767E+05  1.365935E+02 -4.341545E+01  4.439621E+04  1.567435E-09 -4.529739E-09
       107  15  1.123724E+05  1.569567E+02  3.354826E+01  4.793007E+04  1.023135E-09 -1.023670E-08
       107  16 -2.732162E+05 -8.794769E+04 -5.496303E+04  4.739435E+04  2.392954E-08  4.228165E-09
       107  17 -2.345435E+05 -7.913256E+04 -4.943492E+04  4.390319E+04 -4.375395E-09  3.181002E-09
       107  18 -1.958875E+05 -7.029060E+04 -4.392106E+04  4.747999E+04 -3.323918E-08  6.046485E-09
       107  19  4.980931E+05  8.822989E+04  5.470101E+04  4.846624E+04  6.589879E+03  3.024271E+04
       107  20  4.594188E+05  7.940111E+04  4.934782E+04  4.488960E+04  6.579300E+03  2.716943E+04
       107  21  4.207285E+05  7.060085E+04  4.398795E+04  4.838046E+04  6.569349E+03  2.409349E+04
       107  22  1.123634E+05  1.449418E+02 -1.291285E+02  4.793008E+04  9.772384E+01  3.023315E+04
       107  23  1.123769E+05  1.373856E+02 -4.202923E+01  4.439621E+04  8.167793E+01  2.715918E+04
       107  24  1.123725E+05  1.575796E+02  3.463820E+01  4.793007E+04  6.625935E+01  2.408256E+04
       107  25 -2.732159E+05 -8.794670E+04 -5.496124E+04  4.739420E+04 -6.390574E+03  3.022359E+04
       107  26 -2.345432E+05 -7.913176E+04 -4.943346E+04  4.390305E+04 -6.412470E+03  2.714894E+04
       107  27 -1.958873E+05 -7.028997E+04 -4.391990E+04  4.747986E+04 -6.433741E+03  2.407163E+04
       108   1  3.964953E+05  6.503951E+04  4.043418E+04  4.835316E+04 -6.581389E+03 -2.230238E+04
       108   2  3.578282E+05  5.621678E+04  3.510189E+04  4.476821E+04 -6.669079E+03 -1.922647E+04
       108   3  3.191566E+05  4.743970E+04  2.982934E+04  4.824762E+04 -6.757201E+03 -1.615291E+04
       108   4  1.123780E+05  1.604068E+02  7.458772E+01  4.792936E+04 -7.892083E+01 -2.229111E+04
       108   5  1.123838E+05  1.556572E+02  1.762981E+02  4.439708E+04 -1.717510E+02 -1.921473E+04
       108   6  1.123845E+05  1.974775E+02  3.412153E+02  4.792930E+04 -2.650176E+02 -1.614071E+04
       108   7 -1.716575E+05 -6.472232E+04 -4.028599E+04  4.750572E+04  6.420701E+03 -2.227984E+04
       108   8 -1.329995E+05 -5.590817E+04 -3.475000E+04  4.402606E+04  6.323120E+03 -1.920299E+04
       108   9 -9.434433E+04 -4.704665E+04 -2.914738E+04  4.761108E+04  6.225097E+03 -1.612851E+04
       108  10  3.964951E+05  6.503897E+04  4.043316E+04  4.835305E+04 -4.363382E-08  1.015106E-08
       108  11  3.578280E+05  5.621638E+04  3.510111E+04  4.476811E+04 -4.226350E-08  6.724358E-09
       108  12  3.191565E+05  4.743940E+04  2.982877E+04  4.824753E+04 -4.453785E-08  5.469664E-09
       108  13  1.123779E+05  1.598732E+02  7.365390E+01  4.792936E+04 -2.150249E-09 -1.098364E-08
       108  14  1.123837E+05  1.552608E+02  1.756042E+02  4.439707E+04  2.625251E-09 -1.145797E-08
       108  15  1.123844E+05  1.971977E+02  3.407256E+02  4.792930E+04 -5.245024E-09 -1.255044E-08
       108  16 -1.716577E+05 -6.472286E+04 -4.028700E+04  4.750584E+04  4.470881E-08  1.064459E-08
       108  17 -1.329997E+05 -5.590858E+04 -3.475077E+04  4.402616E+04  4.497433E-08  3.764570E-09
       108  18 -9.434444E+04 -4.704694E+04 -2.914794E+04  4.761116E+04  4.160418E-08  5.112431E-09
       108  19  3.964953E+05  6.503951E+04  4.043418E+04  4.835316E+04  6.581389E+03  2.230238E+04
       108  20  3.578282E+05  5.621678E+04  3.510189E+04  4.476821E+04  6.669079E+03  1.922647E+04
       108  21  3.191566E+05  4.743970E+04  2.982934E+04  4.824762E+04  6.757201E+03  1.615291E+04
       108  22  1.123780E+05  1.604068E+02  7.458772E+01  4.792936E+04  7.892083E+01  2.229111E+04
       108  23  1.123838E+05  1.556572E+02  1.762981E+02  4.439708E+04  1.717510E+02  1.921473E+04
       108  24  1.123845E+05  1.974775E+02  3.412153E+02  4.792930E+04  2.650176E+02  1.614071E+04
       108  25 -1.716575E+05 -6.472232E+04 -4.028599E+04  4.750572E+04 -6.420701E+03  2.227984E+04
       108  26 -1.329995E+05 -5.590817E+04 -3.475000E+04  4.402606E+04 -6.323120E+03  1.920299E+04
       108  27 -9.434433E+04 -4.704665E+04 -2.914738E+04  4.761108E+04 -6.225097E+03  1.612851E+04
       109   1  2.949485E+05  4.188430E+04  2.635100E+04  4.823954E+04 -6.828253E+03 -1.436407E+04
       109   2  2.562457E+05  3.315770E+04  2.126567E+04  4.450516E+04 -7.201765E+03 -1.130282E+04
       109   3  2.176302E+05  2.470863E+04  1.648298E+04  4.783154E+04 -7.575469E+03 -8.262676E+03
       109   4  1.124080E+05  2.057202E+02  4.585782E+02  4.792858E+04 -3.365542E+02 -1.435165E+04
       109   5  1.123635E+05  2.992805E+02  8.244029E+02  4.439770E+04 -7.548230E+02 -1.129020E+04
       109   6  1.124118E+05  6.780463E+02  1.523667E+03  4.792766E+04 -1.173304E+03 -8.249875E+03
       109   7 -7.009862E+04 -4.147433E+04 -2.543416E+04  4.761769E+04  6.153320E+03 -1.433922E+04
       109   8 -3.149770E+04 -3.256005E+04 -1.961701E+04  4.429026E+04  5.690690E+03 -1.127759E+04
       109   9  7.204711E+03 -2.335301E+04 -1.343565E+04  4.802376E+04  5.227824E+03 -8.237070E+03
       109  10  2.949484E+05  4.188406E+04  2.635053E+04  4.823946E+04  5.907393E-08  8.820472E-09
       109  11  2.562456E+05  3.315754E+04  2.126534E+04  4.450509E+04  3.532332E-08  3.357718E-09
       109  12  2.176301E+05  2.470854E+04  1.648274E+04  4.783149E+04  1.290936E-08  4.013529E-09
       109  13  1.124080E+05  2.054990E+02  4.581909E+02  4.792857E+04 -2.214602E-09 -1.038910E-08
       109  14  1.123635E+05  2.991434E+02  8.241623E+02  4.439769E+04  4.963325E-10 -2.802332E-09
       109  15  1.124118E+05  6.779729E+02  1.523537E+03  4.792765E+04  4.218602E-09 -1.921897E-09
       109  16 -7.009871E+04 -4.147456E+04 -2.543462E+04  4.761776E+04 -5.375856E-08  6.322245E-09
       109  17 -3.149777E+04 -3.256019E+04 -1.961731E+04  4.429031E+04 -3.262959E-08  4.979215E-09
       109  18  7.204664E+03 -2.335309E+04 -1.343582E+04  4.802379E+04 -1.245152E-08 -3.876203E-09
       109  19  2.949485E+05  4.188430E+04  2.635100E+04  4.823954E+04  6.828253E+03  1.436407E+04
       109  20  2.562457E+05  3.315770E+04  2.126567E+04  4.450516E+04  7.201765E+03  1.130282E+04
       109  21  2.176302E+05  2.470863E+04  1.648298E+04  4.783154E+04  7.575469E+03  8.262676E+03
       109  22  1.124080E+05  2.057202E+02  4.585782E+02  4.792858E+04  3.365542E+02  1.435165E+04
       109  23  1.123635E+05  2.992805E+02  8.244029E+02  4.439770E+04  7.548230E+02  1.129020E+04
       109  24  1.124118E+05  6.780463E+02  1.523667E+03  4.792766E+04  1.173304E+03  8.249875E+03
       109  25 -7.009862E+04 -4.147433E+04 -2.543416E+04  4.761769E+04 -6.153320E+03  1.433922E+04
       109  26 -3.149770E+04 -3.256005E+04 -1.961701E+04  4.429026E+04 -5.690690E+03  1.127759E+04
       109  27  7.204711E+03 -2.335301E+04 -1.343565E+04  4.802376E+04 -5.227824E+03  8.237070E+03
       110   1  1.936032E+05  1.926632E+04  1.336753E+04  4.804435E+04 -7.841219E+03 -6.493004E+03
       110   2  1.544711E+05  1.195729E+04  9.470289E+03  4.214026E+04 -9.388318E+03 -3.554524E+03
       110   3  1.163115E+05  7.867470E+03  7.374336E+03  4.328048E+04 -1.093510E+04 -7.933692E+02
       110   4  1.126224E+05  8.056658E+02  2.031799E+03  4.792504E+04 -1.439846E+03 -6.480096E+03
       110   5  1.121045E+05  2.351092E+03  3.743688E+03  4.439659E+04 -3.361620E+03 -3.542330E+03
       110   6  1.126231E+05  7.181022E+03  7.517070E+03  4.791236E+04 -5.283159E+03 -7.819082E+02
       110   7  3.164828E+04 -1.765526E+04 -9.303865E+03  4.780575E+04  4.960730E+03 -6.467188E+03
       110   8  6.973984E+04 -7.255140E+03 -1.982789E+03  4.665276E+04  2.664686E+03 -3.530092E+03
       110   9  1.089349E+05  6.494672E+03  7.659938E+03  5.254421E+04  3.687486E+02 -7.703629E+02
       110  10  1.936031E+05  1.926626E+04  1.336734E+04  4.804431E+04  7.175264E-10  4.072070E-09
       110  11  1.544710E+05  1.195725E+04  9.470099E+03  4.214023E+04  9.032804E-10 -1.112102E-09
       110  12  1.163114E+05  7.867438E+03  7.374110E+03  4.328048E+04  3.095672E-09 -6.578495E-12
       110  13  1.126223E+05  8.056202E+02  2.031716E+03  4.792504E+04  2.231180E-09  4.347435E-09
       110  14  1.121045E+05  2.351075E+03  3.743644E+03  4.439658E+04  4.758009E-09 -4.065952E-09
       110  15  1.126231E+05  7.181014E+03  7.517016E+03  4.791236E+04 -2.713754E-09  1.969141E-09
       110  16  3.164824E+04 -1.765531E+04 -9.303990E+03  4.780578E+04 -6.316537E-10  1.128357E-09
       110  17  6.973983E+04 -7.255155E+03 -1.982826E+03  4.665276E+04  1.354343E-09  1.723998E-09
       110  18  1.089349E+05  6.494671E+03  7.659936E+03  5.254421E+04 -5.386553E-11  2.538624E-10
       110  19  1.936032E+05  1.926632E+04  1.336753E+04  4.804435E+04  7.841219E+03  6.493004E+03
       110  20  1.544711E+05  1.195729E+04  9.470289E+03  4.214026E+04  9.388318E+03  3.554524E+03
       110  21  1.163115E+05  7.867470E+03  7.374336E+03  4.328048E+04  1.093510E+04  7.933692E+02
       110  22  1.126224E+05  8.056658E+02  2.031799E+03  4.792504E+04  1.439846E+03  6.480096E+03
       110  23  1.121045E+05  2.351092E+03  3.743688E+03  4.439659E+04  3.361620E+03  3.542330E+03
       110  24  1.126231E+05  7.181022E+03  7.517070E+03  4.791236E+04  5.283159E+03  7.819082E+02
       110  25  3.164828E+04 -1.765526E+04 -9.303865E+03  4.780575E+04 -4.960730E+03  6.467188E+03
       110  26  6.973984E+04 -7.255140E+03 -1.982789E+03  4.665276E+04 -2.664686E+03  3.530092E+03
       110  27  1.089349E+05  6.494672E+03  7.659938E+03  5.254421E+04 -3.687486E+02  7.703629E+02
       111   1  1.425851E+04  4.366275E+05  1.535932E+04 -3.162855E+04 -3.372778E+01  3.892770E+03
       111   2  1.016991E+03  4.056940E+05  5.304941E+03 -2.536946E+04 -7.333985E+02  1.955521E+01
       111   3 -7.249804E+03  3.764937E+05 -9.888895E+02 -2.688431E+04 -2.359199E+03 -3.854217E+03
       111   4  6.993174E+03  4.076099E+05  8.077576E+03 -2.736013E+04 -3.398427E+01  4.243877E+03
       111   5  1.165178E+03  4.068617E+05  4.896972E+03 -2.347590E+04 -7.347688E+02  1.727219E+03
       111   6  7.669867E+01  4.076110E+05  4.535553E+03 -2.736553E+04 -2.361654E+03 -7.901545E+02
       111   7 -2.721614E+02  3.785930E+05  7.957827E+02 -2.309191E+04 -3.423594E+01  4.594967E+03
       111   8  1.313380E+03  4.080294E+05  4.489017E+03 -2.158234E+04 -7.361287E+02  3.434886E+03
       111   9  7.403154E+03  4.387293E+05  1.006000E+04 -2.784678E+04 -2.364114E+03  2.274057E+03
       111  10  1.425851E+04  4.366275E+05  1.535929E+04 -3.162855E+04  2.544138E-09 -1.425078E-08
       111  11  1.016990E+03  4.056940E+05  5.304940E+03 -2.536946E+04  2.677767E-09 -8.864847E-09
       111  12 -7.249814E+03  3.764936E+05 -9.889278E+02 -2.688432E+04  5.447788E-09 -6.050747E-10
       111  13  6.993170E+03  4.076098E+05  8.077543E+03 -2.736013E+04 -5.188144E-10  7.888238E-10
       111  14  1.165176E+03  4.068617E+05  4.896965E+03 -2.347590E+04  2.982253E-09 -1.660689E-09
       111  15  7.669251E+01  4.076110E+05  4.535542E+03 -2.736553E+04  2.554355E-09  9.935185E-10
       111  16 -2.721671E+02  3.785930E+05  7.957430E+02 -2.309191E+04  1.445637E-09  1.426251E-08
       111  17  1.313376E+03  4.080293E+05  4.488993E+03 -2.158234E+04  4.742675E-09  7.967662E-09
       111  18  7.403147E+03  4.387293E+05  1.005997E+04 -2.784678E+04  2.273065E-09  1.876477E-10
       111  19  1.425851E+04  4.366275E+05  1.535932E+04 -3.162855E+04  3.372778E+01 -3.892770E+03
       111  20  1.016991E+03  4.056940E+05  5.304941E+03 -2.536946E+04  7.333985E+02 -1.955521E+01
       111  21 -7.249804E+03  3.764937E+05 -9.888895E+02 -2.688431E+04  2.359199E+03  3.854217E+03
       111  22  6.993174E+03  4.076099E+05  8.077576E+03 -2.736013E+04  3.398427E+01 -4.243877E+03
       111  23  1.165178E+03  4.068617E+05  4.896972E+03 -2.347590E+04  7.347688E+02 -1.727219E+03
       111  24  7.669867E+01  4.076110E+05  4.535553E+03 -2.736553E+04  2.361654E+03  7.901545E+02
       111  25 -2.721614E+02  3.785930E+05  7.957827E+02 -2.309191E+04  3.423594E+01 -4.594967E+03
       111  26  1.313380E+03  4.080294E+05  4.489017E+03 -2.158234E+04  7.361287E+02 -3.434886E+03
       111  27  7.403154E+03  4.387293E+05  1.006000E+04 -2.784678E+04  2.364114E+03 -2.274057E+03
       112   1 -1.192056E+04  3.560325E+05 -4.466470E+03 -2.782487E+04 -3.607558E+03 -4.537340E+03
       112   2 -1.908216E+04  3.255668E+05 -8.211071E+03 -2.331785E+04 -5.483492E+03 -7.564892E+03
       112   3 -2.464556E+04  2.958820E+05 -9.589353E+03 -2.662520E+04 -7.069976E+03 -1.059198E+04
       112   4  2.433168E+02  4.074674E+05  4.944546E+03 -2.737385E+04 -3.609908E+03 -1.574510E+03
       112   5  2.314402E+02  4.070394E+05  6.916529E+03 -2.346606E+04 -5.485411E+03 -5.026453E+03
       112   6  1.891277E+03  4.074649E+05  1.154912E+04 -2.737254E+04 -7.071478E+03 -8.478071E+03
       112   7  1.240704E+04  4.589049E+05  1.435549E+04 -2.692280E+04 -3.612253E+03  1.388559E+03
       112   8  1.954466E+04  4.885185E+05  2.204387E+04 -2.361429E+04 -5.487330E+03 -2.487689E+03
       112   9  2.842739E+04  5.190599E+05  3.268706E+04 -2.812002E+04 -7.072985E+03 -6.363793E+03
       112  10 -1.192057E+04  3.560325E+05 -4.466533E+03 -2.782488E+04  1.191714E-09  2.088337E-08
       112  11 -1.908220E+04  3.255667E+05 -8.211235E+03 -2.331788E+04 -1.543622E-09  7.063887E-09
       112  12 -2.464565E+04  2.958819E+05 -9.589657E+03 -2.662526E+04 -6.018462E-09 -6.790060E-09
       112  13  2.433021E+02  4.074674E+05  4.944517E+03 -2.737386E+04 -1.952086E-09  8.404586E-10
       112  14  2.314011E+02  4.070394E+05  6.916425E+03 -2.346608E+04 -3.674268E-09 -1.636701E-09
       112  15  1.891204E+03  4.074649E+05  1.154889E+04 -2.737259E+04 -2.490151E-09  8.867454E-10
       112  16  1.240703E+04  4.589049E+05  1.435546E+04 -2.692280E+04  4.444741E-09 -2.085495E-08
       112  17  1.954463E+04  4.885185E+05  2.204380E+04 -2.361430E+04  5.164268E-09 -7.923365E-09
       112  18  2.842733E+04  5.190598E+05  3.268689E+04 -2.812005E+04  1.277705E-09  6.420345E-09
       112  19 -1.192056E+04  3.560325E+05 -4.466470E+03 -2.782487E+04  3.607558E+03  4.537340E+03
       112  20 -1.908216E+04  3.255668E+05 -8.211071E+03 -2.331785E+04  5.483492E+03  7.564892E+03
       112  21 -2.464556E+04  2.958820E+05 -9.589353E+03 -2.662520E+04  7.069976E+03  1.059198E+04
       112  22  2.433168E+02  4.074674E+05  4.944546E+03 -2.737385E+04  3.609908E+03  1.574510E+03
       112  23  2.314402E+02  4.070394E+05  6.916529E+03 -2.346606E+04  5.485411E+03  5.026453E+03
       112  24  1.891277E+03  4.074649E+05  1.154912E+04 -2.737254E+04  7.071478E+03  8.478071E+03
       112  25  1.240704E+04  4.589049E+05  1.435549E+04 -2.692280E+04  3.612253E+03 -1.388559E+03
       112  26  1.954466E+04  4.885185E+05  2.204387E+04 -2.361429E+04  5.487330E+03  2.487689E+03
       112  27  2.842739E+04  5.190599E+05  3.268706E+04 -2.812002E+04  7.072985E+03  6.363793E+03
       113   1 -3.126102E+04  2.773798E+05 -1.034121E+04 -3.143682E+04 -8.268851E+03 -1.339434E+04
       113   2 -3.091024E+04  2.429703E+05 -6.794395E+03 -1.124906E+04 -7.821120E+03 -1.976507E+04
       113   3  4.255392E+02  2.171294E+05  8.644202E+03  1.419227E+03 -2.463850E+03 -2.613213E+04
       113   4  1.593635E+02  4.094557E+05  1.477230E+04 -2.731271E+04 -8.271007E+03 -1.045056E+04
       113   5  7.996387E+03  4.045435E+05  2.612077E+04 -2.353639E+04 -7.817535E+03 -2.401413E+04
       113   6  4.806099E+04  4.094432E+05  5.435142E+04 -2.727869E+04 -2.454769E+03 -3.757440E+04
       113   7  3.157879E+04  5.415484E+05  3.988506E+04 -2.318770E+04 -8.273124E+03 -7.506167E+03
       113   8  4.690195E+04  5.661417E+05  5.903471E+04 -3.582697E+04 -7.813782E+03 -2.826427E+04
       113   9  9.569693E+04  6.017929E+05  1.000570E+05 -5.598552E+04 -2.444633E+03 -4.902019E+04
       113  10 -3.126114E+04  2.773796E+05 -1.034168E+04 -3.143691E+04 -2.105882E-09  2.893344E-09
       113  11 -3.091041E+04  2.429699E+05 -6.795244E+03 -1.124918E+04 -1.163627E-09 -1.200602E-09
       113  12  4.253494E+02  2.171287E+05  8.642907E+03  1.419175E+03 -2.357854E-09 -3.276849E-09
       113  13  1.592607E+02  4.094556E+05  1.477196E+04 -2.731278E+04 -7.988867E-11  7.159076E-10
       113  14  7.996166E+03  4.045428E+05  2.611957E+04 -2.353654E+04 -4.947692E-10 -1.404689E-09
       113  15  4.806060E+04  4.094417E+05  5.434875E+04 -2.727876E+04 -2.538679E-09  7.477695E-10
       113  16  3.157871E+04  5.415484E+05  3.988483E+04 -2.318775E+04 -1.602210E-09 -2.930121E-09
       113  17  4.690167E+04  5.661409E+05  5.903309E+04 -3.582714E+04 -1.193391E-09  1.317268E-10
       113  18  9.569628E+04  6.017903E+05  1.000525E+05 -5.598562E+04  2.403723E-10  3.014720E-09
       113  19 -3.126102E+04  2.773798E+05 -1.034121E+04 -3.143682E+04  8.268851E+03  1.339434E+04
       113  20 -3.091024E+04  2.429703E+05 -6.794395E+03 -1.124906E+04  7.821120E+03  1.976507E+04
       113  21  4.255392E+02  2.171294E+05  8.644202E+03  1.419227E+03  2.463850E+03  2.613213E+04
       113  22  1.593635E+02  4.094557E+05  1.477230E+04 -2.731271E+04  8.271007E+03  1.045056E+04
       113  23  7.996387E+03  4.045435E+05  2.612077E+04 -2.353639E+04  7.817535E+03  2.401413E+04
       113  24  4.806099E+04  4.094432E+05  5.435142E+04 -2.727869E+04  2.454769E+03  3.757440E+04
       113  25  3.157879E+04  5.415484E+05  3.988506E+04 -2.318770E+04  8.273124E+03  7.506167E+03
       113  26  4.690195E+04  5.661417E+05  5.903471E+04 -3.582697E+04  7.813782E+03  2.826427E+04
       113  27  9.569693E+04  6.017929E+05  1.000570E+05 -5.598552E+04  2.444633E+03  4.902019E+04
       114   1  1.001021E+06  3.602944E+05  1.831433E+05  3.708024E+05  7.119552E+04  1.492900E+04
       114   2  9.481307E+05  3.288231E+05  1.305732E+05  3.545648E+05  4.615502E+04 -2.266865E+04
       114   3  8.959637E+05  3.109776E+05  1.053208E+05  3.453848E+05  1.473887E+04 -4.328455E+04
       114   4  2.856433E+05  9.180144E+04  1.301699E+03  1.739757E+05  4.742584E+03 -1.006118E+04
       114   5  2.885913E+05  8.785164E+04  6.139813E+02  1.706424E+05  1.371884E+04 -3.487381E+04
       114   6  2.855327E+05  9.080037E+04  3.244987E+02  1.743660E+05  1.631108E+04 -4.269801E+04
       114   7 -4.291956E+05 -1.766422E+05 -1.805538E+05 -2.263497E+04 -6.162383E+04 -3.501862E+04
       114   8 -3.704809E+05 -1.530744E+05 -1.293566E+05 -1.309457E+04 -1.867967E+04 -4.706477E+04
       114   9 -3.245018E+05 -1.293395E+05 -1.046820E+05  3.504558E+03  1.788164E+04 -4.211210E+04
       114  10  1.001016E+06  3.602928E+05  1.831334E+05  3.708016E+05 -7.775930E-09 -3.881356E-09
       114  11  9.481283E+05  3.288220E+05  1.305683E+05  3.545656E+05  1.830188E-08  3.605529E-09
       114  12  8.959630E+05  3.109756E+05  1.053169E+05  3.453853E+05  4.563174E-08  1.831479E-08
       114  13  2.856432E+05  9.180133E+04  1.301467E+03  1.739757E+05 -3.926432E-10  8.771992E-10
       114  14  2.885908E+05  8.785028E+04  6.113417E+02  1.706428E+05  1.031135E-09 -4.043241E-09
       114  15  2.855319E+05  9.079834E+04  3.205720E+02  1.743666E+05  8.728988E-09  2.882357E-09
       114  16 -4.292000E+05 -1.766446E+05 -1.805633E+05 -2.263671E+04  5.388061E-09  1.122818E-09
       114  17 -3.704819E+05 -1.530769E+05 -1.293614E+05 -1.309528E+04 -1.858015E-08 -9.388347E-09
       114  18 -3.245026E+05 -1.293415E+05 -1.046860E+05  3.505164E+03 -3.336213E-08 -1.403608E-08
       114  19  1.001021E+06  3.602944E+05  1.831433E+05  3.708024E+05 -7.119552E+04 -1.492900E+04
       114  20  9.481307E+05  3.288231E+05  1.305732E+05  3.545648E+05 -4.615502E+04  2.266865E+04
       114  21  8.959637E+05  3.109776E+05  1.053208E+05  3.453848E+05 -1.473887E+04  4.328455E+04
       114  22  2.856433E+05  9.180144E+04  1.301699E+03  1.739757E+05 -4.742584E+03  1.006118E+04
       114  23  2.885913E+05  8.785164E+04  6.139813E+02  1.706424E+05 -1.371884E+04  3.487381E+04
       114  24  2.855327E+05  9.080037E+04  3.244987E+02  1.743660E+05 -1.631108E+04  4.269801E+04
       114  25 -4.291956E+05 -1.766422E+05 -1.805538E+05 -2.263497E+04  6.162383E+04  3.501862E+04
       114  26 -3.704809E+05 -1.530744E+05 -1.293566E+05 -1.309457E+04  1.867967E+04  4.706477E+04
       114  27 -3.245018E+05 -1.293395E+05 -1.046820E+05  3.504558E+03 -1.788164E+04  4.211210E+04
       115   1  8.618320E+05  2.986700E+05  9.734626E+04  3.363253E+05  1.524551E+04 -4.198906E+04
       115   2  8.132056E+05  2.756301E+05  8.466690E+04  3.178878E+05  1.114578E+04 -4.213445E+04
       115   3  7.581598E+05  2.605252E+05  7.488476E+04  3.076324E+05  6.372914E+03 -4.049346E+04
       115   4  2.853094E+05  9.099002E+04  2.414927E+02  1.745763E+05  1.590989E+04 -4.174374E+04
       115   5  2.888809E+05  8.736527E+04  1.247120E+02  1.704934E+05  1.538818E+04 -4.054166E+04
       115   6  2.853234E+05  9.096784E+04  7.305694E+01  1.745922E+05  1.419278E+04 -3.755241E+04
       115   7 -2.908667E+05 -1.166592E+05 -9.687384E+04  1.296587E+04  1.657362E+04 -4.149868E+04
       115   8 -2.351527E+05 -1.008724E+05 -8.442398E+04  2.321479E+04  1.962682E+04 -3.895029E+04
       115   9 -1.872729E+05 -7.856612E+04 -7.474254E+04  4.164702E+04  2.200635E+04 -3.461372E+04
       115  10  8.618313E+05  2.986680E+05  9.734251E+04  3.363258E+05  4.913141E-08  2.239254E-08
       115  11  8.132050E+05  2.756282E+05  8.466333E+04  3.178881E+05 -3.511825E-09  5.089636E-09
       115  12  7.581593E+05  2.605234E+05  7.488160E+04  3.076326E+05 -6.499372E-08 -1.716762E-08
       115  13  2.853087E+05  9.098808E+04  2.377418E+02  1.745769E+05  1.257476E-08  3.829543E-09
       115  14  2.888802E+05  8.736344E+04  1.211777E+02  1.704939E+05  1.312895E-08  3.153126E-09
       115  15  2.853228E+05  9.096627E+04  7.002785E+01  1.745926E+05  8.233441E-09 -6.653361E-09
       115  16 -2.908675E+05 -1.166612E+05 -9.687760E+04  1.296642E+04 -2.708978E-08 -8.108096E-09
       115  17 -2.351535E+05 -1.008742E+05 -8.442756E+04  2.321540E+04  2.733479E-08  2.126363E-08
       115  18 -1.872738E+05 -7.856753E+04 -7.474570E+04  4.164764E+04  7.157908E-08  3.880813E-08
       115  19  8.618320E+05  2.986700E+05  9.734626E+04  3.363253E+05 -1.524551E+04  4.198906E+04
       115  20  8.132056E+05  2.756301E+05  8.466690E+04  3.178878E+05 -1.114578E+04  4.213445E+04
       115  21  7.581598E+05  2.605252E+05  7.488476E+04  3.076324E+05 -6.372914E+03  4.049346E+04
       115  22  2.853094E+05  9.099002E+04  2.414927E+02  1.745763E+05 -1.590989E+04  4.174374E+04
       115  23  2.888809E+05  8.736527E+04  1.247120E+02  1.704934E+05 -1.538818E+04  4.054166E+04
       115  24  2.853234E+05  9.096784E+04  7.305694E+01  1.745922E+05 -1.419278E+04  3.755241E+04
       115  25 -2.908667E+05 -1.166592E+05 -9.687384E+04  1.296587E+04 -1.657362E+04  4.149868E+04
       115  26 -2.351527E+05 -1.008724E+05 -8.442398E+04  2.321479E+04 -1.962682E+04  3.895029E+04
       115  27 -1.872729E+05 -7.856612E+04 -7.474254E+04  4.164702E+04 -2.200635E+04  3.461372E+04
       116   1  7.253393E+05  2.487418E+05  6.927206E+04  2.984687E+05  5.585844E+03 -3.813401E+04
       116   2  6.772387E+05  2.265513E+05  6.083820E+04  2.798039E+05  3.706904E+03 -3.433218E+04
       116   3  6.219690E+05  2.117037E+05  5.271928E+04  2.694185E+05  1.756633E+03 -3.034395E+04
       116   4  2.853044E+05  9.099483E+04  5.661900E+01  1.746092E+05  1.330717E+04 -3.522922E+04
       116   5  2.889385E+05  8.737609E+04  3.825577E+01  1.704675E+05  1.180150E+04 -3.128557E+04
       116   6  2.853255E+05  9.102640E+04  3.862250E+01  1.746046E+05  1.022443E+04 -2.715544E+04
       116   7 -1.545170E+05 -6.672978E+04 -6.916055E+04  5.083349E+04  2.102262E+04 -3.232664E+04
       116   8 -9.919936E+04 -5.178316E+04 -6.076398E+04  6.119529E+04  1.989074E+04 -2.824098E+04
       116   9 -5.119971E+04 -2.964037E+04 -5.264474E+04  7.983795E+04  1.868747E+04 -2.396874E+04
       116  10  7.253389E+05  2.487402E+05  6.926926E+04  2.984689E+05 -4.320416E-08 -7.218296E-09
       116  11  6.772384E+05  2.265500E+05  6.083596E+04  2.798040E+05 -1.276111E-08  9.885181E-10
       116  12  6.219687E+05  2.117027E+05  5.271754E+04  2.694185E+05  1.565393E-08  1.239857E-09
       116  13  2.853039E+05  9.099345E+04  5.395349E+01  1.746095E+05 -1.404541E-09 -9.139030E-09
       116  14  2.889381E+05  8.737500E+04  3.615434E+01  1.704678E+05  2.940072E-11 -6.859023E-09
       116  15  2.853252E+05  9.102558E+04  3.704002E+01  1.746048E+05 -6.325986E-10 -5.255947E-09
       116  16 -1.545178E+05 -6.673102E+04 -6.916335E+04  5.083404E+04  3.632411E-08  2.475774E-08
       116  17 -9.920000E+04 -5.178412E+04 -6.076622E+04  6.119575E+04  7.352599E-09  2.837296E-09
       116  18 -5.120024E+04 -2.964108E+04 -5.264647E+04  7.983831E+04 -2.169138E-08 -8.995315E-09
       116  19  7.253393E+05  2.487418E+05  6.927206E+04  2.984687E+05 -5.585844E+03  3.813401E+04
       116  20  6.772387E+05  2.265513E+05  6.083820E+04  2.798039E+05 -3.706904E+03  3.433218E+04
       116  21  6.219690E+05  2.117037E+05  5.271928E+04  2.694185E+05 -1.756633E+03  3.034395E+04
       116  22  2.853044E+05  9.099483E+04  5.661900E+01  1.746092E+05 -1.330717E+04  3.522922E+04
       116  23  2.889385E+05  8.737609E+04  3.825577E+01  1.704675E+05 -1.180150E+04  3.128557E+04
       116  24  2.853255E+05  9.102640E+04  3.862250E+01  1.746046E+05 -1.022443E+04  2.715544E+04
       116  25 -1.545170E+05 -6.672978E+04 -6.916055E+04  5.083349E+04 -2.102262E+04  3.232664E+04
       116  26 -9.919936E+04 -5.178316E+04 -6.076398E+04  6.119529E+04 -1.989074E+04  2.824098E+04
       116  27 -5.119971E+04 -2.964037E+04 -5.264474E+04  7.983795E+04 -1.868747E+04  2.396874E+04
       117   1  5.893227E+05  1.999761E+05  4.737205E+04  2.602477E+05  8.331605E+02 -2.787476E+04
       117   2  5.413298E+05  1.778731E+05  3.941849E+04  2.415681E+05 -8.270068E+02 -2.366678E+04
       117   3  4.860877E+05  1.630461E+05  3.151713E+04  2.311688E+05 -2.494553E+03 -1.944118E+04
       117   4  2.853267E+05  9.103326E+04  4.183430E+01  1.746033E+05  9.288562E+03 -2.469028E+04
       117   5  2.889621E+05  8.740847E+04  6.159930E+01  1.704621E+05  7.663477E+03 -2.046824E+04
       117   6  2.853382E+05  9.105225E+04  1.052663E+02  1.746000E+05  6.031013E+03 -1.622858E+04
       117   7 -1.856953E+04 -1.789964E+04 -4.728955E+04  8.899838E+04  1.773958E+04 -2.150745E+04
       117   8  3.666476E+04 -3.048775E+03 -3.929560E+04  9.938368E+04  1.615026E+04 -1.727108E+04
       117   9  8.463471E+04  1.906363E+04 -3.130629E+04  1.180492E+05  1.455356E+04 -1.301711E+04
       117  10  5.893225E+05  1.999752E+05  4.737059E+04  2.602478E+05 -1.781767E-07 -7.265693E-08
       117  11  5.413297E+05  1.778725E+05  3.941743E+04  2.415681E+05 -1.468649E-08 -1.110726E-08
       117  12  4.860876E+05  1.630457E+05  3.151640E+04  2.311688E+05  1.655519E-07  5.734342E-08
       117  13  2.853264E+05  9.103258E+04  4.052636E+01  1.746035E+05 -3.448279E-09 -8.822982E-09
       117  14  2.889619E+05  8.740800E+04  6.070149E+01  1.704622E+05 -1.120249E-08 -1.042201E-08
       117  15  2.853381E+05  9.105196E+04  1.047030E+02  1.746001E+05 -1.091410E-08 -8.557153E-09
       117  16 -1.857000E+04 -1.790023E+04 -4.729101E+04  8.899868E+04  1.695304E-07  6.251474E-08
       117  17  3.666440E+04 -3.049166E+03 -3.929665E+04  9.938391E+04 -1.971952E-08 -5.093075E-09
       117  18  8.463444E+04  1.906339E+04 -3.130701E+04  1.180493E+05 -1.855946E-07 -7.140889E-08
       117  19  5.893227E+05  1.999761E+05  4.737205E+04  2.602477E+05 -8.331605E+02  2.787476E+04
       117  20  5.413298E+05  1.778731E+05  3.941849E+04  2.415681E+05  8.270068E+02  2.366678E+04
       117  21  4.860877E+05  1.630461E+05  3.151713E+04  2.311688E+05  2.494553E+03  1.944118E+04
       117  22  2.853267E+05  9.103326E+04  4.183430E+01  1.746033E+05 -9.288562E+03  2.469028E+04
       117  23  2.889621E+05  8.740847E+04  6.159930E+01  1.704621E+05 -7.663477E+03  2.046824E+04
       117  24  2.853382E+05  9.105225E+04  1.052663E+02  1.746000E+05 -6.031013E+03  1.622858E+04
       117  25 -1.856953E+04 -1.789964E+04 -4.728955E+04  8.899838E+04 -1.773958E+04  2.150745E+04
       117  26  3.666476E+04 -3.048775E+03 -3.929560E+04  9.938368E+04 -1.615026E+04  1.727108E+04
       117  27  8.463471E+04  1.906363E+04 -3.130629E+04  1.180492E+05 -1.455356E+04  1.301711E+04
       118   1  4.534814E+05  1.513231E+05  2.622565E+04  2.220025E+05 -3.447420E+03 -1.696825E+04
       118   2  4.055180E+05  1.292260E+05  1.840148E+04  2.033335E+05 -5.156981E+03 -1.275351E+04
       118   3  3.503059E+05  1.143995E+05  1.065698E+04  1.929431E+05 -6.863759E+03 -8.547054E+03
       118   4  2.853447E+05  9.105495E+04  1.385116E+02  1.746008E+05  5.075979E+03 -1.375610E+04
       118   5  2.889702E+05  8.741904E+04  2.469928E+02  1.704622E+05  3.349628E+03 -9.547259E+03
       118   6  2.853486E+05  9.105727E+04  4.485013E+02  1.746015E+05  1.626058E+03 -5.346732E+03
       118   7  1.172366E+05  3.078908E+04 -2.594933E+04  1.272106E+05  1.359704E+04 -1.054482E+04
       118   8  1.724365E+05  4.561333E+04 -1.790761E+04  1.375965E+05  1.185460E+04 -6.341626E+03
       118   9  2.203959E+05  6.771557E+04 -9.759751E+03  1.562616E+05  1.011494E+04 -2.146764E+03
       118  10  4.534813E+05  1.513228E+05  2.622509E+04  2.220024E+05 -5.423283E-08 -2.535227E-08
       118  11  4.055179E+05  1.292258E+05  1.840113E+04  2.033334E+05 -9.143042E-09 -8.780311E-09
       118  12  3.503058E+05  1.143994E+05  1.065676E+04  1.929431E+05  5.112589E-08  1.579528E-08
       118  13  2.853446E+05  9.105474E+04  1.381075E+02  1.746008E+05 -7.531869E-09 -4.421481E-09
       118  14  2.889702E+05  8.741894E+04  2.468004E+02  1.704622E+05 -1.460228E-08 -1.197478E-08
       118  15  2.853486E+05  9.105724E+04  4.484426E+02  1.746015E+05 -1.070340E-08 -3.372129E-09
       118  16  1.172364E+05  3.078892E+04 -2.594989E+04  1.272108E+05  3.687620E-08  1.524186E-08
       118  17  1.724363E+05  4.561325E+04 -1.790795E+04  1.375965E+05 -1.575968E-08 -4.722605E-09
       118  18  2.203958E+05  6.771553E+04 -9.759952E+03  1.562617E+05 -6.568007E-08 -2.591986E-08
       118  19  4.534814E+05  1.513231E+05  2.622565E+04  2.220025E+05  3.447420E+03  1.696825E+04
       118  20  4.055180E+05  1.292260E+05  1.840148E+04  2.033335E+05  5.156981E+03  1.275351E+04
       118  21  3.503059E+05  1.143995E+05  1.065698E+04  1.929431E+05  6.863759E+03  8.547054E+03
       118  22  2.853447E+05  9.105495E+04  1.385116E+02  1.746008E+05 -5.075979E+03  1.375610E+04
       118  23  2.889702E+05  8.741904E+04  2.469928E+02  1.704622E+05 -3.349628E+03  9.547259E+03
       118  24  2.853486E+05  9.105727E+04  4.485013E+02  1.746015E+05 -1.626058E+03  5.346732E+03
       118  25  1.172366E+05  3.078908E+04 -2.594933E+04  1.272106E+05 -1.359704E+04  1.054482E+04
       118  26  1.724365E+05  4.561333E+04 -1.790761E+04  1.375965E+05 -1.185460E+04  6.341626E+03
       118  27  2.203959E+05  6.771557E+04 -9.759751E+03  1.562616E+05 -1.011494E+04  2.146764E+03
       119   1  3.177164E+05  1.026838E+05  5.474694E+03  1.837994E+05 -7.886332E+03 -6.107693E+03
       119   2  2.697477E+05  8.057209E+04 -2.048004E+03  1.651150E+05 -9.826034E+03 -2.043416E+03
       119   3  2.145940E+05  6.579506E+04 -9.286602E+03  1.546972E+05 -1.173072E+04  1.928347E+03
       119   4  2.853671E+05  9.105462E+04  5.980439E+02  1.746081E+05  6.077812E+02 -2.905663E+03
       119   5  2.889502E+05  8.742350E+04  1.086386E+03  1.704547E+05 -1.517472E+03  1.088593E+03
       119   6  2.853816E+05  9.116324E+04  2.005437E+03  1.745667E+05 -3.607753E+03  4.990344E+03
       119   7  2.530195E+05  7.942580E+04 -4.278205E+03  1.654174E+05  9.101331E+03  2.961532E+02
       119   8  3.081531E+05  9.427501E+04  4.221064E+03  1.757946E+05  6.791361E+03  4.220702E+03
       119   9  3.561755E+05  1.165323E+05  1.329789E+04  1.944386E+05  4.516286E+03  8.052743E+03
       119  10  3.177163E+05  1.026837E+05  5.474508E+03  1.837994E+05 -2.515943E-09 -3.717315E-09
       119  11  2.697476E+05  8.057206E+04 -2.048193E+03  1.651149E+05 -5.998133E-10  2.794489E-09
       119  12  2.145939E+05  6.579502E+04 -9.286868E+03  1.546972E+05  5.318648E-09  1.314086E-09
       119  13  2.853671E+05  9.105461E+04  5.980273E+02  1.746081E+05 -6.256237E-09 -8.766105E-10
       119  14  2.889502E+05  8.742350E+04  1.086379E+03  1.704547E+05  1.192114E-09  1.695302E-09
       119  15  2.853816E+05  9.116321E+04  2.005365E+03  1.745667E+05 -5.682471E-09  3.507261E-10
       119  16  2.530194E+05  7.942578E+04 -4.278361E+03  1.654174E+05 -3.415409E-09  2.498257E-09
       119  17  3.081531E+05  9.427498E+04  4.220944E+03  1.757946E+05 -5.008070E-09  5.032938E-09
       119  18  3.561755E+05  1.165322E+05  1.329773E+04  1.944386E+05 -6.466064E-09  2.055151E-11
       119  19  3.177164E+05  1.026838E+05  5.474694E+03  1.837994E+05  7.886332E+03  6.107693E+03
       119  20  2.697477E+05  8.057209E+04 -2.048004E+03  1.651150E+05  9.826034E+03  2.043416E+03
       119  21  2.145940E+05  6.579506E+04 -9.286602E+03  1.546972E+05  1.173072E+04 -1.928347E+03
       119  22  2.853671E+05  9.105462E+04  5.980439E+02  1.746081E+05 -6.077812E+02  2.905663E+03
       119  23  2.889502E+05  8.742350E+04  1.086386E+03  1.704547E+05  1.517472E+03 -1.088593E+03
       119  24  2.853816E+05  9.116324E+04  2.005437E+03  1.745667E+05  3.607753E+03 -4.990344E+03
       119  25  2.530195E+05  7.942580E+04 -4.278205E+03  1.654174E+05 -9.101331E+03 -2.961532E+02
       119  26  3.081531E+05  9.427501E+04  4.221064E+03  1.757946E+05 -6.791361E+03 -4.220702E+03
       119  27  3.561755E+05  1.165323E+05  1.329789E+04  1.944386E+05 -4.516286E+03 -8.052743E+03
       120   1  1.819647E+05  5.417398E+04 -1.406152E+04  1.457090E+05 -1.304690E+04  4.176917E+03
       120   2  1.344343E+05  3.187240E+04 -2.059853E+04  1.261754E+05 -1.515324E+04  7.544724E+03
       120   3  8.024542E+04  1.800506E+04 -2.625799E+04  1.145685E+05 -1.692744E+04  1.003243E+04
       120   4  2.855244E+05  9.117771E+04  2.681171E+03  1.746034E+05 -4.876810E+03  7.256524E+03
       120   5  2.888552E+05  8.803346E+04  4.946397E+03  1.701695E+05 -8.744823E+03  9.959814E+03
       120   6  2.858731E+05  9.367155E+04  9.484429E+03  1.736610E+05 -1.228080E+04  1.178311E+04
       120   7  3.890957E+05  1.281825E+05  1.942391E+04  2.035024E+05  3.294722E+03  1.033667E+04
       120   8  4.433006E+05  1.441967E+05  3.049067E+04  2.141737E+05 -2.334758E+03  1.237554E+04
       120   9  4.915431E+05  1.693417E+05  4.522500E+04  2.327712E+05 -7.632575E+03  1.353441E+04
       120  10  1.819645E+05  5.417391E+04 -1.406187E+04  1.457090E+05 -7.043123E-11 -4.978012E-10
       120  11  1.344341E+05  3.187228E+04 -2.059907E+04  1.261755E+05 -3.272904E-09  3.496372E-09
       120  12  8.024509E+04  1.800487E+04 -2.625872E+04  1.145686E+05 -3.421237E-10  1.225684E-09
       120  13  2.855244E+05  9.117764E+04  2.681027E+03  1.746034E+05 -6.419358E-10  4.153400E-09
       120  14  2.888550E+05  8.803333E+04  4.946067E+03  1.701696E+05 -5.844673E-09  3.017272E-09
       120  15  2.858729E+05  9.367136E+04  9.483885E+03  1.736611E+05 -1.337301E-08  2.053554E-09
       120  16  3.890957E+05  1.281824E+05  1.942369E+04  2.035023E+05 -5.661878E-10  3.981815E-09
       120  17  4.433005E+05  1.441966E+05  3.049037E+04  2.141737E+05 -1.055358E-08  1.793274E-09
       120  18  4.915430E+05  1.693415E+05  4.522455E+04  2.327713E+05 -8.647219E-09 -2.959135E-09
       120  19  1.819647E+05  5.417398E+04 -1.406152E+04  1.457090E+05  1.304690E+04 -4.176917E+03
       120  20  1.344343E+05  3.187240E+04 -2.059853E+04  1.261754E+05  1.515324E+04 -7.544724E+03
       120  21  8.024542E+04  1.800506E+04 -2.625799E+04  1.145685E+05  1.692744E+04 -1.003243E+04
       120  22  2.855244E+05  9.117771E+04  2.681171E+03  1.746034E+05  4.876810E+03 -7.256524E+03
       120  23  2.888552E+05  8.803346E+04  4.946397E+03  1.701695E+05  8.744823E+03 -9.959814E+03
       120  24  2.858731E+05  9.367155E+04  9.484429E+03  1.736610E+05  1.228080E+04 -1.178311E+04
       120  25  3.890957E+05  1.281825E+05  1.942391E+04  2.035024E+05 -3.294722E+03 -1.033667E+04
       120  26  4.433006E+05  1.441967E+05  3.049067E+04  2.141737E+05  2.334758E+03 -1.237554E+04
       120  27  4.915431E+05  1.693417E+05  4.522500E+04  2.327712E+05  7.632575E+03 -1.353441E+04
       121   1  4.717208E+04  7.856738E+03 -2.958698E+04  1.072340E+05 -1.945865E+04  1.105862E+04
       121   2  8.551208E+03 -1.700135E+04 -3.418473E+04  7.312357E+04 -1.476223E+04  1.096398E+04
       121   3 -3.034775E+04 -1.658045E+04 -3.669387E+04  4.147897E+04 -6.917214E+03  2.508362E+03
       121   4  2.873940E+05  9.419035E+04  1.273321E+04  1.739080E+05 -1.436735E+04  1.297665E+04
       121   5  2.886306E+05  9.932653E+04  2.443573E+04  1.653512E+05 -2.639564E+04  6.579424E+03
       121   6  2.928966E+05  1.330481E+05  5.147660E+04  1.592605E+05 -3.527651E+04 -8.176597E+03
       121   7  5.276811E+05  1.805310E+05  5.505283E+04  2.406072E+05 -9.273857E+03  1.489548E+04
       121   8  5.687912E+05  2.156676E+05  8.305246E+04  2.576194E+05 -3.803465E+04  2.192106E+03
       121   9  6.162398E+05  2.826974E+05  1.396391E+05  2.771009E+05 -6.365126E+04 -1.887064E+04
       121  10  4.717164E+04  7.856505E+03 -2.958792E+04  1.072342E+05 -6.768576E-08 -2.296795E-08
       121  11  8.550942E+03 -1.700153E+04 -3.418536E+04  7.312370E+04 -2.101391E-08 -2.541570E-09
       121  12 -3.034780E+04 -1.658047E+04 -3.669398E+04  4.147898E+04  4.630227E-08  1.800094E-08
       121  13  2.873937E+05  9.419011E+04  1.273250E+04  1.739082E+05 -1.648244E-08 -6.801615E-09
       121  14  2.886298E+05  9.932630E+04  2.443434E+04  1.653513E+05 -2.114479E-08 -4.825723E-09
       121  15  2.928952E+05  1.330477E+05  5.147414E+04  1.592603E+05 -4.031237E-09  6.256027E-10
       121  16  5.276809E+05  1.805307E+05  5.505225E+04  2.406073E+05  4.394283E-08  2.220758E-08
       121  17  5.687896E+05  2.156672E+05  8.304973E+04  2.576194E+05 -1.420986E-08 -2.714676E-09
       121  18  6.162353E+05  2.826960E+05  1.396309E+05  2.771000E+05 -5.767947E-08 -2.265824E-08
       121  19  4.717208E+04  7.856738E+03 -2.958698E+04  1.072340E+05  1.945865E+04 -1.105862E+04
       121  20  8.551208E+03 -1.700135E+04 -3.418473E+04  7.312357E+04  1.476223E+04 -1.096398E+04
       121  21 -3.034775E+04 -1.658045E+04 -3.669387E+04  4.147897E+04  6.917214E+03 -2.508362E+03
       121  22  2.873940E+05  9.419035E+04  1.273321E+04  1.739080E+05  1.436735E+04 -1.297665E+04
       121  23  2.886306E+05  9.932653E+04  2.443573E+04  1.653512E+05  2.639564E+04 -6.579424E+03
       121  24  2.928966E+05  1.330481E+05  5.147660E+04  1.592605E+05  3.527651E+04  8.176597E+03
       121  25  5.276811E+05  1.805310E+05  5.505283E+04  2.406072E+05  9.273857E+03 -1.489548E+04
       121  26  5.687912E+05  2.156676E+05  8.305246E+04  2.576194E+05  3.803465E+04 -2.192106E+03
       121  27  6.162398E+05  2.826974E+05  1.396391E+05  2.771009E+05  6.365126E+04  1.887064E+04
       122   1 -2.536253E+05 -1.261569E+06 -2.945792E+05  7.375125E+04 -3.169593E+03 -1.250890E+05
       122   2 -6.517336E+04 -1.165075E+06 -1.744962E+05  1.268052E+04 -9.250563E+03 -7.657036E+04
       122   3 -7.132504E+04 -1.123010E+06 -1.345897E+05  2.353352E+04 -6.533837E+03 -2.803230E+04
       122   4 -1.433880E+05 -8.211454E+05 -1.850986E+05  3.892651E+04 -3.169140E+03 -1.214057E+05
       122   5  2.724561E+04 -7.941913E+05 -8.385714E+04  3.093272E+03 -9.249899E+03 -7.602138E+04
       122   6  3.882809E+03 -8.210888E+05 -6.057357E+04  3.918538E+04 -6.531320E+03 -3.062327E+04
       122   7 -3.316078E+04 -3.805425E+05 -7.563187E+04  4.077065E+03 -3.169102E+03 -1.177198E+05
       122   8  1.196547E+05 -4.231814E+05  6.771888E+03 -6.499678E+03 -9.249251E+03 -7.547207E+04
       122   9  7.908483E+04 -5.190841E+05  1.343601E+04  5.484490E+04 -6.528934E+03 -3.321550E+04
       122  10 -2.536295E+05 -1.261586E+06 -2.946087E+05  7.375093E+04 -3.422534E-10 -2.052655E-09
       122  11 -6.517503E+04 -1.165082E+06 -1.745074E+05  1.267995E+04 -5.647012E-09  9.675499E-10
       122  12 -7.132530E+04 -1.123011E+06 -1.345912E+05  2.353338E+04  1.434809E-09 -2.146945E-09
       122  13 -1.433920E+05 -8.211613E+05 -1.851264E+05  3.892620E+04 -3.159346E-09 -2.356530E-09
       122  14  2.724396E+04 -7.941975E+05 -8.386818E+04  3.092706E+03  5.136674E-09  7.039349E-09
       122  15  3.882511E+03 -8.210898E+05 -6.057541E+04  3.918522E+04 -2.397085E-09  4.384728E-10
       122  16 -3.316451E+04 -3.805574E+05 -7.565795E+04  4.076764E+03 -3.405767E-10 -1.191915E-09
       122  17  1.196531E+05 -4.231875E+05  6.761015E+03 -6.500240E+03  1.077222E-08  5.037826E-09
       122  18  7.908449E+04 -5.190853E+05  1.343386E+04  5.484473E+04 -2.506638E-09  6.542284E-10
       122  19 -2.536253E+05 -1.261569E+06 -2.945792E+05  7.375125E+04  3.169593E+03  1.250890E+05
       122  20 -6.517336E+04 -1.165075E+06 -1.744962E+05  1.268052E+04  9.250563E+03  7.657036E+04
       122  21 -7.132504E+04 -1.123010E+06 -1.345897E+05  2.353352E+04  6.533837E+03  2.803230E+04
       122  22 -1.433880E+05 -8.211454E+05 -1.850986E+05  3.892651E+04  3.169140E+03  1.214057E+05
       122  23  2.724561E+04 -7.941913E+05 -8.385714E+04  3.093272E+03  9.249899E+03  7.602138E+04
       122  24  3.882809E+03 -8.210888E+05 -6.057357E+04  3.918538E+04  6.531320E+03  3.062327E+04
       122  25 -3.316078E+04 -3.805425E+05 -7.563187E+04  4.077065E+03  3.169102E+03  1.177198E+05
       122  26  1.196547E+05 -4.231814E+05  6.771888E+03 -6.499678E+03  9.249251E+03  7.547207E+04
       122  27  7.908483E+04 -5.190841E+05  1.343601E+04  5.484490E+04  6.528934E+03  3.321550E+04
       123   1 -5.628793E+04 -9.683929E+05 -9.259497E+04  4.577665E+04 -3.652238E+03 -1.994231E+04
       123   2 -1.418442E+04 -8.902558E+05 -6.290139E+04  2.672054E+03 -1.991542E+03  1.938170E+03
       123   3 -2.226203E+04 -8.273082E+05 -5.997072E+04  3.319366E+04 -1.793452E+01  2.382094E+04
       123   4 -1.742764E+04 -8.124860E+05 -5.443587E+04  3.947770E+04 -3.651396E+03 -2.049453E+04
       123   5  7.081443E+03 -8.048995E+05 -4.200808E+04  2.665013E+03 -1.990853E+03  1.277059E+03
       123   6 -1.856753E+04 -8.124861E+05 -5.626391E+04  3.947861E+04 -1.698717E+01  2.304848E+04
       123   7  2.143100E+04 -6.565569E+05 -1.627853E+04  3.317717E+04 -3.650543E+03 -2.104689E+04
       123   8  2.834677E+04 -7.195366E+05 -2.111530E+04  2.657972E+03 -1.990164E+03  6.158565E+02
       123   9 -1.487290E+04 -7.976637E+05 -5.255709E+04  4.576371E+04 -1.605550E+01  2.227600E+04
       123  10 -5.628805E+04 -9.683933E+05 -9.259575E+04  4.577659E+04  9.433874E-10  1.315452E-09
       123  11 -1.418443E+04 -8.902558E+05 -6.290141E+04  2.672057E+03 -2.256033E-09  3.376794E-09
       123  12 -2.226218E+04 -8.273088E+05 -5.997178E+04  3.319366E+04  2.568039E-09 -9.206948E-10
       123  13 -1.742776E+04 -8.124865E+05 -5.443669E+04  3.947764E+04 -1.131153E-09 -2.992208E-09
       123  14  7.081438E+03 -8.048995E+05 -4.200809E+04  2.665015E+03  4.257758E-09  4.959385E-09
       123  15 -1.856767E+04 -8.124867E+05 -5.626491E+04  3.947861E+04  3.133624E-09 -1.957932E-09
       123  16  2.143086E+04 -6.565574E+05 -1.627939E+04  3.317711E+04 -4.384274E-09 -4.882310E-09
       123  17  2.834676E+04 -7.195366E+05 -2.111531E+04  2.657973E+03  6.619811E-09 -6.074337E-10
       123  18 -1.487304E+04 -7.976642E+05 -5.255803E+04  4.576371E+04  2.468153E-09 -2.595897E-11
       123  19 -5.628793E+04 -9.683929E+05 -9.259497E+04  4.577665E+04  3.652238E+03  1.994231E+04
       123  20 -1.418442E+04 -8.902558E+05 -6.290139E+04  2.672054E+03  1.991542E+03 -1.938170E+03
       123  21 -2.226203E+04 -8.273082E+05 -5.997072E+04  3.319366E+04  1.793452E+01 -2.382094E+04
       123  22 -1.742764E+04 -8.124860E+05 -5.443587E+04  3.947770E+04  3.651396E+03  2.049453E+04
       123  23  7.081443E+03 -8.048995E+05 -4.200808E+04  2.665013E+03  1.990853E+03 -1.277059E+03
       123  24 -1.856753E+04 -8.124861E+05 -5.626391E+04  3.947861E+04  1.698717E+01 -2.304848E+04
       123  25  2.143100E+04 -6.565569E+05 -1.627853E+04  3.317717E+04  3.650543E+03  2.104689E+04
       123  26  2.834677E+04 -7.195366E+05 -2.111530E+04  2.657972E+03  1.990164E+03 -6.158565E+02
       123  27 -1.487290E+04 -7.976637E+05 -5.255709E+04  4.576371E+04  1.605550E+01 -2.227600E+04
       124   1  3.734635E+04 -6.896588E+05 -3.067527E+04  5.617370E+04  2.492737E+03  3.558676E+04
       124   2  7.928369E+04 -5.909801E+05 -3.911528E+04 -7.116606E+03  5.115107E+03  8.141718E+04
       124   3 -8.396570E+04 -5.492637E+05 -1.286363E+05  2.622186E+03  1.856606E+03  1.272464E+05
       124   4  4.428714E+03 -8.218516E+05 -6.315179E+04  3.941479E+04  2.493712E+03  3.356278E+04
       124   5  2.890630E+04 -7.932024E+05 -8.849581E+04  2.798526E+03  5.116409E+03  8.149347E+04
       124   6 -1.522076E+05 -8.219103E+05 -1.964026E+05  3.921428E+04  1.861330E+03  1.294176E+05
       124   7 -2.848916E+04 -9.540279E+05 -9.562943E+04  2.265946E+04  2.494796E+03  3.153923E+04
       124   8 -2.147375E+04 -9.953871E+05 -1.378793E+05  1.271043E+04  5.117713E+03  8.156972E+04
       124   9 -2.204500E+05 -1.094486E+06 -2.641739E+05  7.579029E+04  1.866313E+03  1.315878E+05
       124  10  3.734600E+04 -6.896601E+05 -3.067767E+04  5.617363E+04 -2.444485E-09  2.926843E-10
       124  11  7.928188E+04 -5.909873E+05 -3.912780E+04 -7.116941E+03 -5.665339E-09 -4.478848E-10
       124  12 -8.397005E+04 -5.492811E+05 -1.286667E+05  2.621996E+03 -3.063103E-09 -2.805508E-09
       124  13  4.428404E+03 -8.218528E+05 -6.315392E+04  3.941472E+04  2.295128E-09 -1.593947E-09
       124  14  2.890448E+04 -7.932095E+05 -8.850836E+04  2.798190E+03  3.142007E-09  6.972319E-09
       124  15 -1.522121E+05 -8.219283E+05 -1.964342E+05  3.921408E+04 -2.616927E-09 -5.085724E-10
       124  16 -2.848943E+04 -9.540290E+05 -9.563131E+04  2.265940E+04 -1.690242E-09 -3.196059E-09
       124  17 -2.147557E+04 -9.953943E+05 -1.378918E+05  1.271009E+04  2.870886E-09  2.664217E-09
       124  18 -2.204547E+05 -1.094505E+06 -2.642065E+05  7.579009E+04  1.818929E-09  2.283234E-09
       124  19  3.734635E+04 -6.896588E+05 -3.067527E+04  5.617370E+04 -2.492737E+03 -3.558676E+04
       124  20  7.928369E+04 -5.909801E+05 -3.911528E+04 -7.116606E+03 -5.115107E+03 -8.141718E+04
       124  21 -8.396570E+04 -5.492637E+05 -1.286363E+05  2.622186E+03 -1.856606E+03 -1.272464E+05
       124  22  4.428714E+03 -8.218516E+05 -6.315179E+04  3.941479E+04 -2.493712E+03 -3.356278E+04
       124  23  2.890630E+04 -7.932024E+05 -8.849581E+04  2.798526E+03 -5.116409E+03 -8.149347E+04
       124  24 -1.522076E+05 -8.219103E+05 -1.964026E+05  3.921428E+04 -1.861330E+03 -1.294176E+05
       124  25 -2.848916E+04 -9.540279E+05 -9.562943E+04  2.265946E+04 -2.494796E+03 -3.153923E+04
       124  26 -2.147375E+04 -9.953871E+05 -1.378793E+05  1.271043E+04 -5.117713E+03 -8.156972E+04
       124  27 -2.204500E+05 -1.094486E+06 -2.641739E+05  7.579029E+04 -1.866313E+03 -1.315878E+05
       125   1  4.400802E+05  1.484952E+05  9.191108E+04  1.621547E+05  4.760236E+04  1.706583E+04
       125   2  4.239943E+05  7.400206E+04  4.632643E+04  1.643812E+05  3.058828E+04  8.952827E+03
       125   3  4.289768E+05  6.903471E+04  3.139201E+04  1.561612E+05  1.286753E+04  2.713865E+03
       125   4  3.808171E+05  1.086355E+05  7.239680E+04  1.280740E+05  4.629401E+04  1.657055E+04
       125   5  3.665872E+05  4.727255E+04  3.037813E+04  1.433732E+05  3.029233E+04  8.840836E+03
       125   6  3.732274E+05  5.523783E+04  1.820994E+04  1.482253E+05  1.358376E+04  2.984305E+03
       125   7  3.215588E+05  6.877937E+04  5.288245E+04  9.399733E+04  4.498581E+04  1.607541E+04
       125   8  3.091834E+05  2.054387E+04  1.442957E+04  1.223672E+05  2.999641E+04  8.728864E+03
       125   9  3.174808E+05  4.144079E+04  5.027639E+03  1.402898E+05  1.429993E+04  3.254740E+03
       125  10  4.400777E+05  1.484943E+05  9.190628E+04  1.621540E+05  8.992767E-09  5.531576E-09
       125  11  4.239933E+05  7.400172E+04  4.632452E+04  1.643809E+05  3.181975E-09  9.296367E-09
       125  12  4.289766E+05  6.903466E+04  3.139168E+04  1.561611E+05  2.203142E-09 -5.394348E-09
       125  13  3.808148E+05  1.086346E+05  7.239226E+04  1.280734E+05  5.156662E-10 -5.070966E-09
       125  14  3.665862E+05  4.727222E+04  3.037626E+04  1.433730E+05 -2.738652E-09 -3.684350E-09
       125  15  3.732272E+05  5.523777E+04  1.820958E+04  1.482252E+05  1.282203E-09 -3.589019E-10
       125  16  3.215566E+05  6.877855E+04  5.287816E+04  9.399675E+04 -1.577693E-09 -9.773230E-10
       125  17  3.091824E+05  2.054355E+04  1.442774E+04  1.223670E+05 -1.194549E-09 -1.182256E-08
       125  18  3.174806E+05  4.144073E+04  5.027235E+03  1.402898E+05 -2.518452E-09  1.544295E-09
       125  19  4.400802E+05  1.484952E+05  9.191108E+04  1.621547E+05 -4.760236E+04 -1.706583E+04
       125  20  4.239943E+05  7.400206E+04  4.632643E+04  1.643812E+05 -3.058828E+04 -8.952827E+03
       125  21  4.289768E+05  6.903471E+04  3.139201E+04  1.561612E+05 -1.286753E+04 -2.713865E+03
       125  22  3.808171E+05  1.086355E+05  7.239680E+04  1.280740E+05 -4.629401E+04 -1.657055E+04
       125  23  3.665872E+05  4.727255E+04  3.037813E+04  1.433732E+05 -3.029233E+04 -8.840836E+03
       125  24  3.732274E+05  5.523783E+04  1.820994E+04  1.482253E+05 -1.358376E+04 -2.984305E+03
       125  25  3.215588E+05  6.877937E+04  5.288245E+04  9.399733E+04 -4.498581E+04 -1.607541E+04
       125  26  3.091834E+05  2.054387E+04  1.442957E+04  1.223672E+05 -2.999641E+04 -8.728864E+03
       125  27  3.174808E+05  4.144079E+04  5.027639E+03  1.402898E+05 -1.429993E+04 -3.254740E+03
       126   1  4.069807E+05  7.762880E+04  2.449544E+04  1.555219E+05  1.067786E+04  2.509834E+03
       126   2  3.980861E+05  6.419929E+04  1.412409E+04  1.503778E+05  6.762127E+03  1.435179E+03
       126   3  3.867225E+05  6.264416E+04  8.331046E+03  1.497914E+05  2.797898E+03  4.893124E+02
       126   4  3.708837E+05  6.247289E+04  1.476093E+04  1.440103E+05  1.083312E+04  2.568387E+03
       126   5  3.717470E+05  5.388217E+04  7.171934E+03  1.427359E+05  6.987073E+03  1.520063E+03
       126   6  3.701277E+05  5.715219E+04  4.106257E+03  1.460190E+05  3.092466E+03  6.004886E+02
       126   7  3.347880E+05  4.731715E+04  5.026305E+03  1.324994E+05  1.098837E+04  2.626936E+03
       126   8  3.454087E+05  4.356514E+04  2.197288E+02  1.350943E+05  7.212007E+03  1.604942E+03
       126   9  3.535331E+05  5.166023E+04 -1.185394E+02  1.422468E+05  3.387025E+03  7.116620E+02
       126  10  4.069805E+05  7.762876E+04  2.449521E+04  1.555219E+05 -2.546083E-09 -5.423786E-09
       126  11  3.980860E+05  6.419927E+04  1.412400E+04  1.503778E+05 -3.925914E-09  5.837848E-09
       126  12  3.867225E+05  6.264416E+04  8.331031E+03  1.497914E+05 -1.047855E-10  8.142531E-09
       126  13  3.708836E+05  6.247285E+04  1.476070E+04  1.440103E+05 -2.014542E-09  3.228462E-09
       126  14  3.717470E+05  5.388216E+04  7.171838E+03  1.427359E+05 -2.369555E-09 -9.173849E-09
       126  15  3.701277E+05  5.715218E+04  4.106238E+03  1.460190E+05  2.673289E-09  4.130513E-09
       126  16  3.347879E+05  4.731711E+04  5.026065E+03  1.324994E+05 -5.743659E-10  6.088768E-09
       126  17  3.454087E+05  4.356512E+04  2.196262E+02  1.350943E+05  7.936462E-09 -9.082376E-09
       126  18  3.535331E+05  5.166023E+04 -1.185619E+02  1.422468E+05  8.656317E-09  4.330544E-09
       126  19  4.069807E+05  7.762880E+04  2.449544E+04  1.555219E+05 -1.067786E+04 -2.509834E+03
       126  20  3.980861E+05  6.419929E+04  1.412409E+04  1.503778E+05 -6.762127E+03 -1.435179E+03
       126  21  3.867225E+05  6.264416E+04  8.331046E+03  1.497914E+05 -2.797898E+03 -4.893124E+02
       126  22  3.708837E+05  6.247289E+04  1.476093E+04  1.440103E+05 -1.083312E+04 -2.568387E+03
       126  23  3.717470E+05  5.388217E+04  7.171934E+03  1.427359E+05 -6.987073E+03 -1.520063E+03
       126  24  3.701277E+05  5.715219E+04  4.106257E+03  1.460190E+05 -3.092466E+03 -6.004886E+02
       126  25  3.347880E+05  4.731715E+04  5.026305E+03  1.324994E+05 -1.098837E+04 -2.626936E+03
       126  26  3.454087E+05  4.356514E+04  2.197288E+02  1.350943E+05 -7.212007E+03 -1.604942E+03
       126  27  3.535331E+05  5.166023E+04 -1.185394E+02  1.422468E+05 -3.387025E+03 -7.116620E+02
       127   1  3.725723E+05  5.898967E+04  3.890344E+03  1.464516E+05  2.134996E+03  5.840312E+02
       127   2  3.645441E+05  5.166075E+04 -3.447408E+02  1.405694E+05  1.097548E+03  7.392656E+02
       127   3  3.514847E+05  5.037455E+04 -3.766560E+03  1.406728E+05  5.666507E+01  9.036374E+02
       127   4  3.698452E+05  5.785473E+04  3.192924E+03  1.455832E+05  2.390795E+03  6.805728E+02
       127   5  3.723243E+05  5.457364E+04  1.683591E+03  1.426886E+05  1.358281E+03  8.376681E+02
       127   6  3.697713E+05  5.733438E+04  9.836946E+02  1.457797E+05  3.223191E+02  1.003895E+03
       127   7  3.671181E+05  5.671978E+04  2.495501E+03  1.447147E+05  2.646593E+03  7.771142E+02
       127   8  3.801046E+05  5.748654E+04  3.711921E+03  1.448078E+05  1.619019E+03  9.360722E+02
       127   9  3.880583E+05  6.429423E+04  5.733922E+03  1.508867E+05  5.879817E+02  1.104156E+03
       127  10  3.725723E+05  5.898967E+04  3.890334E+03  1.464516E+05  9.318438E-09  6.266013E-09
       127  11  3.645441E+05  5.166075E+04 -3.447441E+02  1.405694E+05  4.480431E-09  1.297911E-09
       127  12  3.514847E+05  5.037455E+04 -3.766561E+03  1.406728E+05 -4.396111E-09  1.263741E-09
       127  13  3.698452E+05  5.785473E+04  3.192912E+03  1.455832E+05  2.356493E-09 -8.814487E-10
       127  14  3.723243E+05  5.457364E+04  1.683586E+03  1.426886E+05 -3.822819E-09  4.320651E-10
       127  15  3.697713E+05  5.733437E+04  9.836925E+02  1.457797E+05  3.524519E-09  1.148149E-09
       127  16  3.671181E+05  5.671978E+04  2.495487E+03  1.447147E+05 -2.165915E-09 -4.442699E-10
       127  17  3.801046E+05  5.748654E+04  3.711915E+03  1.448078E+05 -4.762980E-09  4.506382E-09
       127  18  3.880583E+05  6.429422E+04  5.733919E+03  1.508867E+05 -2.592775E-09  8.410302E-09
       127  19  3.725723E+05  5.898967E+04  3.890344E+03  1.464516E+05 -2.134996E+03 -5.840312E+02
       127  20  3.645441E+05  5.166075E+04 -3.447408E+02  1.405694E+05 -1.097548E+03 -7.392656E+02
       127  21  3.514847E+05  5.037455E+04 -3.766560E+03  1.406728E+05 -5.666507E+01 -9.036374E+02
       127  22  3.698452E+05  5.785473E+04  3.192924E+03  1.455832E+05 -2.390795E+03 -6.805728E+02
       127  23  3.723243E+05  5.457364E+04  1.683591E+03  1.426886E+05 -1.358281E+03 -8.376681E+02
       127  24  3.697713E+05  5.733438E+04  9.836946E+02  1.457797E+05 -3.223191E+02 -1.003895E+03
       127  25  3.671181E+05  5.671978E+04  2.495501E+03  1.447147E+05 -2.646593E+03 -7.771142E+02
       127  26  3.801046E+05  5.748654E+04  3.711921E+03  1.448078E+05 -1.619019E+03 -9.360722E+02
       127  27  3.880583E+05  6.429423E+04  5.733922E+03  1.508867E+05 -5.879817E+02 -1.104156E+03
       128   1  3.381372E+05  4.550988E+04 -7.504621E+03  1.370775E+05 -1.937818E+02  1.135327E+03
       128   2  3.301872E+05  3.875133E+04 -1.049824E+04  1.310955E+05 -6.406234E+02  1.525079E+03
       128   3  3.168950E+05  3.747841E+04 -1.327609E+04  1.312518E+05 -1.088078E+03  1.916626E+03
       128   4  3.697297E+05  5.740398E+04  7.825073E+02  1.457405E+05  6.948976E+01  1.234680E+03
       128   5  3.723978E+05  5.463962E+04  5.222658E+02  1.426796E+05 -3.764048E+02  1.624776E+03
       128   6  3.697233E+05  5.736063E+04  4.770453E+02  1.457568E+05 -8.229181E+02  2.016665E+03
       128   7  4.013231E+05  6.929810E+04  9.069524E+03  1.544039E+05  3.327752E+02  1.334039E+03
       128   8  4.146100E+05  7.052802E+04  1.154262E+04  1.542644E+05 -1.121665E+02  1.724480E+03
       128   9  4.225545E+05  7.724310E+04  1.423000E+04  1.602629E+05 -5.577331E+02  2.116714E+03
       128  10  3.381372E+05  4.550988E+04 -7.504623E+03  1.370775E+05  5.907892E-09  4.223729E-09
       128  11  3.301872E+05  3.875133E+04 -1.049824E+04  1.310955E+05 -3.706713E-09 -1.576320E-10
       128  12  3.168950E+05  3.747840E+04 -1.327610E+04  1.312518E+05 -1.751364E-08 -1.075880E-08
       128  13  3.697297E+05  5.740398E+04  7.825045E+02  1.457405E+05 -2.931437E-09  5.962315E-09
       128  14  3.723978E+05  5.463962E+04  5.222606E+02  1.426796E+05 -1.519334E-09  1.153535E-08
       128  15  3.697233E+05  5.736063E+04  4.770364E+02  1.457568E+05 -1.101724E-09 -5.784445E-09
       128  16  4.013231E+05  6.929810E+04  9.069520E+03  1.544039E+05 -7.164137E-09  5.289244E-09
       128  17  4.146100E+05  7.052801E+04  1.154261E+04  1.542644E+05 -7.709239E-10  7.821997E-09
       128  18  4.225545E+05  7.724309E+04  1.422999E+04  1.602629E+05  1.414180E-08  2.838097E-09
       128  19  3.381372E+05  4.550988E+04 -7.504621E+03  1.370775E+05  1.937818E+02 -1.135327E+03
       128  20  3.301872E+05  3.875133E+04 -1.049824E+04  1.310955E+05  6.406234E+02 -1.525079E+03
       128  21  3.168950E+05  3.747841E+04 -1.327609E+04  1.312518E+05  1.088078E+03 -1.916626E+03
       128  22  3.697297E+05  5.740398E+04  7.825073E+02  1.457405E+05 -6.948976E+01 -1.234680E+03
       128  23  3.723978E+05  5.463962E+04  5.222658E+02  1.426796E+05  3.764048E+02 -1.624776E+03
       128  24  3.697233E+05  5.736063E+04  4.770453E+02  1.457568E+05  8.229181E+02 -2.016665E+03
       128  25  4.013231E+05  6.929810E+04  9.069524E+03  1.544039E+05 -3.327752E+02 -1.334039E+03
       128  26  4.146100E+05  7.052802E+04  1.154262E+04  1.542644E+05  1.121665E+02 -1.724480E+03
       128  27  4.225545E+05  7.724310E+04  1.423000E+04  1.602629E+05  5.577331E+02 -2.116714E+03
       129   1  3.035441E+05  3.247268E+04 -1.679959E+04  1.276353E+05 -1.279027E+03  2.171838E+03
       129   2  2.955147E+05  2.569078E+04 -1.934378E+04  1.215769E+05 -1.830268E+03  2.527371E+03
       129   3  2.821296E+05  2.448636E+04 -2.158320E+04  1.217098E+05 -2.381707E+03  2.883738E+03
       129   4  3.697181E+05  5.736865E+04  5.140526E+02  1.457731E+05 -1.013090E+03  2.272159E+03
       129   5  3.724014E+05  5.461800E+04  7.279358E+02  1.426631E+05 -1.563941E+03  2.627814E+03
       129   6  3.697286E+05  5.744468E+04  1.246246E+03  1.457443E+05 -2.114996E+03  2.984302E+03
       129   7  4.358964E+05  8.226489E+04  1.782732E+04  1.639126E+05 -7.471209E+02  2.372491E+03
       129   8  4.492936E+05  8.354554E+04  2.079912E+04  1.637515E+05 -1.297577E+03  2.728271E+03
       129   9  4.573347E+05  9.040338E+04  2.407497E+04  1.697817E+05 -1.848244E+03  3.084881E+03
       129  10  3.035441E+05  3.247267E+04 -1.679960E+04  1.276354E+05 -2.406821E-08 -1.768747E-08
       129  11  2.955147E+05  2.569077E+04 -1.934380E+04  1.215769E+05 -5.774309E-09 -8.017534E-09
       129  12  2.821296E+05  2.448635E+04 -2.158322E+04  1.217098E+05  1.096155E-08  1.148004E-10
       129  13  3.697181E+05  5.736864E+04  5.140410E+02  1.457731E+05 -5.450974E-09 -8.662037E-09
       129  14  3.724014E+05  5.461799E+04  7.279182E+02  1.426631E+05 -1.906660E-09 -6.307331E-09
       129  15  3.697286E+05  5.744467E+04  1.246221E+03  1.457443E+05 -8.412054E-10  2.123613E-09
       129  16  4.358964E+05  8.226488E+04  1.782731E+04  1.639126E+05  1.415774E-08  1.488087E-09
       129  17  4.492936E+05  8.354553E+04  2.079910E+04  1.637515E+05 -3.712106E-09 -6.252656E-09
       129  18  4.573347E+05  9.040337E+04  2.407494E+04  1.697817E+05 -1.134667E-08 -8.096291E-09
       129  19  3.035441E+05  3.247268E+04 -1.679959E+04  1.276353E+05  1.279027E+03 -2.171838E+03
       129  20  2.955147E+05  2.569078E+04 -1.934378E+04  1.215769E+05  1.830268E+03 -2.527371E+03
       129  21  2.821296E+05  2.448636E+04 -2.158320E+04  1.217098E+05  2.381707E+03 -2.883738E+03
       129  22  3.697181E+05  5.736865E+04  5.140526E+02  1.457731E+05  1.013090E+03 -2.272159E+03
       129  23  3.724014E+05  5.461800E+04  7.279358E+02  1.426631E+05  1.563941E+03 -2.627814E+03
       129  24  3.697286E+05  5.744468E+04  1.246246E+03  1.457443E+05  2.114996E+03 -2.984302E+03
       129  25  4.358964E+05  8.226489E+04  1.782732E+04  1.639126E+05  7.471209E+02 -2.372491E+03
       129  26  4.492936E+05  8.354554E+04  2.079912E+04  1.637515E+05  1.297577E+03 -2.728271E+03
       129  27  4.573347E+05  9.040338E+04  2.407497E+04  1.697817E+05  1.848244E+03 -3.084881E+03
       130   1  2.685800E+05  1.941233E+04 -2.481840E+04  1.182359E+05 -2.734741E+03  3.085093E+03
       130   2  2.603452E+05  1.232548E+04 -2.639245E+04  1.119161E+05 -4.348764E+03  3.046403E+03
       130   3  2.471943E+05  1.189024E+04 -2.660247E+04  1.116636E+05 -5.955241E+03  2.988075E+03
       130   4  3.697788E+05  5.735206E+04  1.613584E+03  1.458415E+05 -2.460307E+03  3.188549E+03
       130   5  3.722982E+05  5.446764E+04  2.838105E+03  1.426408E+05 -4.085193E+03  3.145728E+03
       130   6  3.699036E+05  5.823690E+04  5.435140E+03  1.455074E+05 -5.702558E+03  3.083259E+03
       130   7  4.709878E+05  9.529253E+04  2.804479E+04  1.734511E+05 -2.185824E+03  3.292024E+03
       130   8  4.842636E+05  9.661066E+04  3.206765E+04  1.733705E+05 -3.821570E+03  3.245072E+03
       130   9  4.926276E+05  1.045845E+05  3.747148E+04  1.793573E+05 -5.449820E+03  3.178465E+03
       130  10  2.685799E+05  1.941232E+04 -2.481843E+04  1.182359E+05  6.911122E-09  8.326624E-09
       130  11  2.603452E+05  1.232546E+04 -2.639250E+04  1.119161E+05  9.816330E-09  1.598723E-09
       130  12  2.471942E+05  1.189022E+04 -2.660256E+04  1.116637E+05  4.848708E-09  6.785073E-09
       130  13  3.697788E+05  5.735205E+04  1.613553E+03  1.458415E+05  3.286906E-09  3.847895E-10
       130  14  3.722982E+05  5.446762E+04  2.838055E+03  1.426408E+05  1.042431E-08  8.492028E-09
       130  15  3.699036E+05  5.823688E+04  5.435061E+03  1.455074E+05 -8.599147E-10 -1.660578E-09
       130  16  4.709878E+05  9.529252E+04  2.804476E+04  1.734511E+05 -2.529372E-09 -3.887637E-09
       130  17  4.842635E+05  9.661064E+04  3.206761E+04  1.733705E+05  2.551854E-09 -9.014679E-09
       130  18  4.926275E+05  1.045845E+05  3.747141E+04  1.793573E+05  1.512583E-10 -1.026771E-08
       130  19  2.685800E+05  1.941233E+04 -2.481840E+04  1.182359E+05  2.734741E+03 -3.085093E+03
       130  20  2.603452E+05  1.232548E+04 -2.639245E+04  1.119161E+05  4.348764E+03 -3.046403E+03
       130  21  2.471943E+05  1.189024E+04 -2.660247E+04  1.116636E+05  5.955241E+03 -2.988075E+03
       130  22  3.697788E+05  5.735206E+04  1.613584E+03  1.458415E+05  2.460307E+03 -3.188549E+03
       130  23  3.722982E+05  5.446764E+04  2.838105E+03  1.426408E+05  4.085193E+03 -3.145728E+03
       130  24  3.699036E+05  5.823690E+04  5.435140E+03  1.455074E+05  5.702558E+03 -3.083259E+03
       130  25  4.709878E+05  9.529253E+04  2.804479E+04  1.734511E+05  2.185824E+03 -3.292024E+03
       130  26  4.842636E+05  9.661066E+04  3.206765E+04  1.733705E+05  3.821570E+03 -3.245072E+03
       130  27  4.926276E+05  1.045845E+05  3.747148E+04  1.793573E+05  5.449820E+03 -3.178465E+03
       131   1  2.328528E+05  6.627786E+03 -2.868187E+04  1.099136E+05 -7.186355E+03  2.913339E+03
       131   2  2.241745E+05 -2.770248E+03 -2.629785E+04  1.016561E+05 -1.353279E+04  1.083742E+03
       131   3  2.148233E+05  4.493495E+03 -1.632203E+04  9.714318E+04 -1.975504E+04 -1.074787E+03
       131   4  3.703689E+05  5.705829E+04  7.001807E+03  1.462761E+05 -6.832672E+03  3.046583E+03
       131   5  3.713317E+05  5.325597E+04  1.224332E+04  1.426905E+05 -1.335807E+04  1.149459E+03
       131   6  3.716559E+05  6.614891E+04  2.521698E+04  1.428493E+05 -1.975942E+04 -1.076653E+03
       131   7  5.079029E+05  1.074896E+05  4.268379E+04  1.826456E+05 -6.478903E+03  3.179858E+03
       131   8  5.185098E+05  1.092837E+05  5.078264E+04  1.837336E+05 -1.318331E+04  1.215194E+03
       131   9  5.285128E+05  1.278067E+05  6.675400E+04  1.885662E+05 -1.976380E+04 -1.078520E+03
       131  10  2.328528E+05  6.627763E+03 -2.868198E+04  1.099137E+05 -1.187650E-09  2.901125E-09
       131  11  2.241743E+05 -2.770298E+03 -2.629819E+04  1.016561E+05 -2.732430E-09  9.885055E-10
       131  12  2.148229E+05  4.493389E+03 -1.632277E+04  9.714316E+04 -2.150112E-09  5.810415E-09
       131  13  3.703689E+05  5.705827E+04  7.001702E+03  1.462761E+05 -2.867772E-09 -5.976586E-09
       131  14  3.713315E+05  5.325592E+04  1.224298E+04  1.426905E+05  2.856064E-09  2.504748E-09
       131  15  3.716555E+05  6.614880E+04  2.521624E+04  1.428493E+05  3.471613E-10  1.711586E-09
       131  16  5.079029E+05  1.074896E+05  4.268369E+04  1.826456E+05 -2.380768E-09 -1.164901E-09
       131  17  5.185096E+05  1.092836E+05  5.078231E+04  1.837336E+05  1.004875E-09  8.321827E-10
       131  18  5.285124E+05  1.278066E+05  6.675326E+04  1.885662E+05  5.780531E-09 -4.048334E-09
       131  19  2.328528E+05  6.627786E+03 -2.868187E+04  1.099136E+05  7.186355E+03 -2.913339E+03
       131  20  2.241745E+05 -2.770248E+03 -2.629785E+04  1.016561E+05  1.353279E+04 -1.083742E+03
       131  21  2.148233E+05  4.493495E+03 -1.632203E+04  9.714318E+04  1.975504E+04  1.074787E+03
       131  22  3.703689E+05  5.705829E+04  7.001807E+03  1.462761E+05  6.832672E+03 -3.046583E+03
       131  23  3.713317E+05  5.325597E+04  1.224332E+04  1.426905E+05  1.335807E+04 -1.149459E+03
       131  24  3.716559E+05  6.614891E+04  2.521698E+04  1.428493E+05  1.975942E+04  1.076653E+03
       131  25  5.079029E+05  1.074896E+05  4.268379E+04  1.826456E+05  6.478903E+03 -3.179858E+03
       131  26  5.185098E+05  1.092837E+05  5.078264E+04  1.837336E+05  1.318331E+04 -1.215194E+03
       131  27  5.285128E+05  1.278067E+05  6.675400E+04  1.885662E+05  1.976380E+04  1.078520E+03
       132   1  1.939297E+05 -2.266890E+03 -1.391232E+04  1.128440E+05 -2.591793E+04 -2.288296E+03
       132   2  1.848467E+05 -3.357330E+04  3.896807E+03  8.612609E+04 -5.170555E+04 -1.169263E+04
       132   3  2.144556E+05  4.959878E+04  7.066096E+04  3.760980E+04 -7.567520E+04 -2.592394E+04
       132   4  3.756618E+05  5.378945E+04  3.111236E+04  1.500529E+05 -2.447498E+04 -1.744344E+03
       132   5  3.625239E+05  4.194550E+04  5.190137E+04  1.437635E+05 -5.287530E+04 -1.213413E+04
       132   6  3.885812E+05  1.450756E+05  1.237041E+05  1.156798E+05 -7.945769E+04 -2.735225E+04
       132   7  5.574263E+05  1.098457E+05  7.613471E+04  1.872705E+05 -2.303157E+04 -1.200286E+03
       132   8  5.402310E+05  1.174684E+05  9.990286E+04  2.014165E+05 -5.404540E+04 -1.257580E+04
       132   9  5.627364E+05  2.405648E+05  1.767437E+05  1.937721E+05 -8.324128E+04 -2.878143E+04
       132  10  1.939289E+05 -2.267075E+03 -1.391359E+04  1.128439E+05 -4.083099E-09  2.989318E-09
       132  11  1.848438E+05 -3.357417E+04  3.891528E+03  8.612560E+04  2.829736E-10 -4.348188E-09
       132  12  2.144493E+05  4.959652E+04  7.064894E+04  3.760822E+04  3.357827E-09  1.400424E-09
       132  13  3.756611E+05  5.378929E+04  3.111123E+04  1.500528E+05  4.572666E-09 -2.627331E-09
       132  14  3.625208E+05  4.194459E+04  5.189584E+04  1.437630E+05  5.188190E-09  4.067577E-09
       132  15  3.885742E+05  1.450731E+05  1.236908E+05  1.156781E+05 -4.915355E-10  2.350323E-09
       132  16  5.574257E+05  1.098455E+05  7.613371E+04  1.872705E+05  4.803745E-09 -3.192016E-09
       132  17  5.402279E+05  1.174675E+05  9.989708E+04  2.014160E+05  4.493743E-09  2.968931E-09
       132  18  5.627287E+05  2.405621E+05  1.767292E+05  1.937701E+05 -1.340094E-10  1.371370E-09
       132  19  1.939297E+05 -2.266890E+03 -1.391232E+04  1.128440E+05  2.591793E+04  2.288296E+03
       132  20  1.848467E+05 -3.357330E+04  3.896807E+03  8.612609E+04  5.170555E+04  1.169263E+04
       132  21  2.144556E+05  4.959878E+04  7.066096E+04  3.760980E+04  7.567520E+04  2.592394E+04
       132  22  3.756618E+05  5.378945E+04  3.111236E+04  1.500529E+05  2.447498E+04  1.744344E+03
       132  23  3.625239E+05  4.194550E+04  5.190137E+04  1.437635E+05  5.287530E+04  1.213413E+04
       132  24  3.885812E+05  1.450756E+05  1.237041E+05  1.156798E+05  7.945769E+04  2.735225E+04
       132  25  5.574263E+05  1.098457E+05  7.613471E+04  1.872705E+05  2.303157E+04  1.200286E+03
       132  26  5.402310E+05  1.174684E+05  9.990286E+04  2.014165E+05  5.404540E+04  1.257580E+04
       132  27  5.627364E+05  2.405648E+05  1.767437E+05  1.937721E+05  8.324128E+04  2.878143E+04
       133   1 -2.191442E+02 -5.008852E+05 -2.212026E+03 -1.323549E+02 -4.565248E+01  1.623120E+02
       133   2 -5.138984E+02 -5.022443E+05 -3.025260E+03  2.585615E+02 -8.920793E+01  1.380033E+03
       133   3 -1.396256E+03 -5.039119E+05 -4.779270E+03 -3.002656E+02 -1.547401E+02  2.597742E+03
       133   4 -1.007128E+01 -5.000361E+05 -2.017348E+03 -2.109063E+02 -4.567527E+01  1.809491E+02
       133   5  7.043341E+01 -4.998809E+05 -2.468263E+03  2.637034E+02 -8.924671E+01  1.411852E+03
       133   6 -4.389472E+02 -5.000364E+05 -3.869105E+03 -2.114291E+02 -1.547946E+02  2.642746E+03
       133   7  1.990016E+02 -4.991870E+05 -1.822670E+03 -2.894577E+02 -4.569806E+01  1.995861E+02
       133   8  6.547648E+02 -4.975174E+05 -1.911267E+03  2.688453E+02 -8.928550E+01  1.443671E+03
       133   9  5.183602E+02 -4.961609E+05 -2.958941E+03 -1.225921E+02 -1.548490E+02  2.687750E+03
       133  10 -2.191442E+02 -5.008852E+05 -2.212026E+03 -1.323549E+02  1.958815E-09  2.849605E-09
       133  11 -5.138989E+02 -5.022443E+05 -3.025264E+03  2.585616E+02  2.538918E-09  7.796470E-09
       133  12 -1.396257E+03 -5.039120E+05 -4.779283E+03 -3.002652E+02 -3.135674E-09  7.189227E-09
       133  13 -1.007129E+01 -5.000361E+05 -2.017348E+03 -2.109063E+02  8.786271E-09  1.108218E-09
       133  14  7.043287E+01 -4.998809E+05 -2.468267E+03  2.637035E+02  1.154474E-08 -1.880912E-09
       133  15 -4.389491E+02 -5.000364E+05 -3.869119E+03 -2.114288E+02  6.232820E-09 -2.926537E-10
       133  16  1.990016E+02 -4.991870E+05 -1.822670E+03 -2.894577E+02  6.309510E-09 -1.232800E-09
       133  17  6.547642E+02 -4.975174E+05 -1.911271E+03  2.688454E+02  3.531910E-09 -1.182332E-08
       133  18  5.183583E+02 -4.961609E+05 -2.958955E+03 -1.225918E+02 -1.868412E-09 -1.068391E-08
       133  19 -2.191442E+02 -5.008852E+05 -2.212026E+03 -1.323549E+02  4.565248E+01 -1.623120E+02
       133  20 -5.138984E+02 -5.022443E+05 -3.025260E+03  2.585615E+02  8.920793E+01 -1.380033E+03
       133  21 -1.396256E+03 -5.039119E+05 -4.779270E+03 -3.002656E+02  1.547401E+02 -2.597742E+03
       133  22 -1.007128E+01 -5.000361E+05 -2.017348E+03 -2.109063E+02  4.567527E+01 -1.809491E+02
       133  23  7.043341E+01 -4.998809E+05 -2.468263E+03  2.637034E+02  8.924671E+01 -1.411852E+03
       133  24 -4.389472E+02 -5.000364E+05 -3.869105E+03 -2.114291E+02  1.547946E+02 -2.642746E+03
       133  25  1.990016E+02 -4.991870E+05 -1.822670E+03 -2.894577E+02  4.569806E+01 -1.995861E+02
       133  26  6.547648E+02 -4.975174E+05 -1.911267E+03  2.688453E+02  8.928550E+01 -1.443671E+03
       133  27  5.183602E+02 -4.961609E+05 -2.958941E+03 -1.225921E+02  1.548490E+02 -2.687750E+03
       134   1 -1.107967E+03 -5.059838E+05 -6.146208E+03  5.704583E+02 -2.004503E+02  3.366162E+03
       134   2 -1.152596E+03 -5.064862E+05 -9.631889E+03 -1.302586E+02 -2.692972E+02  7.431190E+03
       134   3 -7.120401E+03 -5.090022E+05 -1.724703E+04 -1.780448E+03 -3.199428E+02  1.149622E+04
       134   4  2.722392E+02 -5.004142E+05 -4.829251E+03 -2.090683E+02 -2.005077E+02  3.409958E+03
       134   5  5.960686E+02 -4.994093E+05 -7.963590E+03  2.624732E+02 -2.693322E+02  7.464104E+03
       134   6 -5.001351E+03 -5.004162E+05 -1.521979E+04 -2.154589E+02 -3.199400E+02  1.151826E+04
       134   7  1.652445E+03 -4.948445E+05 -3.512296E+03 -9.886019E+02 -2.005653E+02  3.453754E+03
       134   8  2.344730E+03 -4.923325E+05 -6.295294E+03  6.552095E+02 -2.693672E+02  7.497019E+03
       134   9 -2.882298E+03 -4.918302E+05 -1.319255E+04  1.349552E+03 -3.199372E+02  1.154030E+04
       134  10 -1.107970E+03 -5.059838E+05 -6.146230E+03  5.704588E+02 -5.105209E-09  9.387860E-10
       134  11 -1.152611E+03 -5.064862E+05 -9.631993E+03 -1.302570E+02 -2.680328E-10 -7.733843E-09
       134  12 -7.120436E+03 -5.090024E+05 -1.724728E+04 -1.780445E+03 -2.930439E-09 -1.203660E-08
       134  13  2.722360E+02 -5.004142E+05 -4.829273E+03 -2.090678E+02  1.172777E-09  1.769717E-11
       134  14  5.960536E+02 -4.994094E+05 -7.963695E+03  2.624748E+02 -2.749882E-09 -4.689804E-09
       134  15 -5.001387E+03 -5.004164E+05 -1.522004E+04 -2.154559E+02 -9.660720E-10 -7.738854E-10
       134  16  1.652442E+03 -4.948446E+05 -3.512318E+03 -9.886014E+02  2.074236E-09 -1.476933E-09
       134  17  2.344715E+03 -4.923325E+05 -6.295400E+03  6.552111E+02 -5.081281E-09  4.412065E-09
       134  18 -2.882334E+03 -4.918303E+05 -1.319280E+04  1.349555E+03  4.293517E-10  1.163711E-08
       134  19 -1.107967E+03 -5.059838E+05 -6.146208E+03  5.704583E+02  2.004503E+02 -3.366162E+03
       134  20 -1.152596E+03 -5.064862E+05 -9.631889E+03 -1.302586E+02  2.692972E+02 -7.431190E+03
       134  21 -7.120401E+03 -5.090022E+05 -1.724703E+04 -1.780448E+03  3.199428E+02 -1.149622E+04
       134  22  2.722392E+02 -5.004142E+05 -4.829251E+03 -2.090683E+02  2.005077E+02 -3.409958E+03
       134  23  5.960686E+02 -4.994093E+05 -7.963590E+03  2.624732E+02  2.693322E+02 -7.464104E+03
       134  24 -5.001351E+03 -5.004162E+05 -1.521979E+04 -2.154589E+02  3.199400E+02 -1.151826E+04
       134  25  1.652445E+03 -4.948445E+05 -3.512296E+03 -9.886019E+02  2.005653E+02 -3.453754E+03
       134  26  2.344730E+03 -4.923325E+05 -6.295294E+03  6.552095E+02  2.693672E+02 -7.497019E+03
       134  27 -2.882298E+03 -4.918302E+05 -1.319255E+04  1.349552E+03  3.199372E+02 -1.154030E+04
       135   1  4.275858E+02 -5.142587E+05 -2.114435E+04  7.623212E+03 -4.044952E+02  1.424457E+04
       135   2  3.213463E+03 -5.066789E+05 -3.313988E+04 -5.728498E+03 -4.631547E+02  3.075567E+04
       135   3 -5.827457E+04 -5.173251E+05 -7.195968E+04 -2.006051E+04 -2.008236E+02  4.726694E+04
       135   4  2.984713E+03 -5.040089E+05 -1.872706E+04 -1.972387E+02 -4.048186E+02  1.436414E+04
       135   5  6.103589E+03 -4.949196E+05 -3.036834E+04  2.583890E+02 -4.627690E+02  3.068260E+04
       135   6 -5.501804E+04 -5.040228E+05 -6.869979E+04 -2.667425E+02 -1.989965E+02  4.700128E+04
       135   7  5.542062E+03 -4.937589E+05 -1.630974E+04 -8.017819E+03 -4.051450E+02  1.448371E+04
       135   8  8.993841E+03 -4.831601E+05 -2.759679E+04  6.245390E+03 -4.623847E+02  3.060953E+04
       135   9 -5.176004E+04 -4.907196E+05 -6.543969E+04  1.952745E+04 -1.971864E+02  4.673561E+04
       135  10  4.275311E+02 -5.142589E+05 -2.114473E+04  7.623216E+03 -3.560534E-09  3.922887E-09
       135  11  3.213208E+03 -5.066799E+05 -3.314166E+04 -5.728486E+03 -4.676350E-09  5.342071E-09
       135  12 -5.827517E+04 -5.173275E+05 -7.196389E+04 -2.006050E+04 -3.059534E-09  2.753150E-09
       135  13  2.984657E+03 -5.040091E+05 -1.872744E+04 -1.972341E+02  3.857592E-09  1.101474E-09
       135  14  6.103336E+03 -4.949206E+05 -3.037011E+04  2.584005E+02  1.685897E-09  2.293756E-09
       135  15 -5.501863E+04 -5.040252E+05 -6.870394E+04 -2.667350E+02  1.956363E-09  2.631415E-09
       135  16  5.542006E+03 -4.937591E+05 -1.631014E+04 -8.017814E+03 -1.779974E-10 -6.645172E-09
       135  17  8.993589E+03 -4.831611E+05 -2.759856E+04  6.245401E+03 -1.556308E-09 -7.403155E-09
       135  18 -5.176063E+04 -4.907219E+05 -6.544380E+04  1.952745E+04  3.159209E-09 -1.252502E-09
       135  19  4.275858E+02 -5.142587E+05 -2.114435E+04  7.623212E+03  4.044952E+02 -1.424457E+04
       135  20  3.213463E+03 -5.066789E+05 -3.313988E+04 -5.728498E+03  4.631547E+02 -3.075567E+04
       135  21 -5.827457E+04 -5.173251E+05 -7.195968E+04 -2.006051E+04  2.008236E+02 -4.726694E+04
       135  22  2.984713E+03 -5.040089E+05 -1.872706E+04 -1.972387E+02  4.048186E+02 -1.436414E+04
       135  23  6.103589E+03 -4.949196E+05 -3.036834E+04  2.583890E+02  4.627690E+02 -3.068260E+04
       135  24 -5.501804E+04 -5.040228E+05 -6.869979E+04 -2.667425E+02  1.989965E+02 -4.700128E+04
       135  25  5.542062E+03 -4.937589E+05 -1.630974E+04 -8.017819E+03  4.051450E+02 -1.448371E+04
       135  26  8.993841E+03 -4.831601E+05 -2.759679E+04  6.245390E+03  4.623847E+02 -3.060953E+04
       135  27 -5.176004E+04 -4.907196E+05 -6.543969E+04  1.952745E+04  1.971864E+02 -4.673561E+04
       136   1 -8.055445E+06 -2.636213E+06 -1.387191E+06 -2.852708E+06 -4.668941E+05 -9.718542E+04
       136   2 -7.840559E+06 -2.318117E+06 -1.041340E+06 -2.774388E+06 -3.136842E+05  1.521947E+05
       136   3 -7.666501E+06 -2.187435E+06 -8.976764E+05 -2.710278E+06 -1.124296E+05  2.772661E+05
       136   4 -3.615467E+06 -8.440384E+05 -2.032642E+05 -1.523339E+06 -1.581045E+05  2.130507E+04
       136   5 -3.600219E+06 -6.891502E+05 -9.286298E+04 -1.545942E+06 -1.728718E+05  2.059303E+05
       136   6 -3.591650E+06 -6.874245E+05 -4.950556E+04 -1.582872E+06 -1.398732E+05  2.665925E+05
       136   7  8.440564E+05  9.501761E+05  9.793157E+05 -1.849653E+05  1.531395E+05  1.408563E+05
       136   8  6.585855E+05  9.416039E+05  8.545597E+05 -3.095644E+05 -3.100353E+04  2.600935E+05
       136   9  5.004723E+05  8.140030E+05  7.977965E+05 -4.485516E+05 -1.675140E+05  2.558464E+05
       136  10 -8.055684E+06 -2.636283E+06 -1.387625E+06 -2.852745E+06  1.545967E-09  4.563981E-09
       136  11 -7.840672E+06 -2.318168E+06 -1.041569E+06 -2.774350E+06 -6.786312E-09 -3.294092E-09
       136  12 -7.666535E+06 -2.187521E+06 -8.978442E+05 -2.710253E+06 -8.217378E-09 -5.440800E-09
       136  13 -3.615494E+06 -8.440457E+05 -2.033122E+05 -1.523336E+06  1.476840E-09 -2.013021E-09
       136  14 -3.600262E+06 -6.892036E+05 -9.299866E+04 -1.545914E+06 -5.354120E-10 -5.518592E-10
       136  15 -3.591690E+06 -6.875059E+05 -4.967554E+04 -1.582842E+06 -7.149164E-09 -3.047517E-10
       136  16  8.440260E+05  9.501486E+05  9.792344E+05 -1.849826E+05 -9.973782E-09 -2.315748E-09
       136  17  6.585664E+05  9.415311E+05  8.544310E+05 -3.095579E+05 -8.208646E-09 -6.943086E-09
       136  18  5.004247E+05  8.139254E+05  7.976211E+05 -4.485172E+05  2.646977E-09  4.344497E-09
       136  19 -8.055445E+06 -2.636213E+06 -1.387191E+06 -2.852708E+06  4.668941E+05  9.718542E+04
       136  20 -7.840559E+06 -2.318117E+06 -1.041340E+06 -2.774388E+06  3.136842E+05 -1.521947E+05
       136  21 -7.666501E+06 -2.187435E+06 -8.976764E+05 -2.710278E+06  1.124296E+05 -2.772661E+05
       136  22 -3.615467E+06 -8.440384E+05 -2.032642E+05 -1.523339E+06  1.581045E+05 -2.130507E+04
       136  23 -3.600219E+06 -6.891502E+05 -9.286298E+04 -1.545942E+06  1.728718E+05 -2.059303E+05
       136  24 -3.591650E+06 -6.874245E+05 -4.950556E+04 -1.582872E+06  1.398732E+05 -2.665925E+05
       136  25  8.440564E+05  9.501761E+05  9.793157E+05 -1.849653E+05 -1.531395E+05 -1.408563E+05
       136  26  6.585855E+05  9.416039E+05  8.545597E+05 -3.095644E+05  3.100353E+04 -2.600935E+05
       136  27  5.004723E+05  8.140030E+05  7.977965E+05 -4.485516E+05  1.675140E+05 -2.558464E+05
       137   1 -7.485871E+06 -2.147106E+06 -8.526333E+05 -2.675202E+06 -1.275554E+05  2.585971E+05
       137   2 -7.277536E+06 -2.025543E+06 -7.756299E+05 -2.582439E+06 -1.038690E+05  2.609795E+05
       137   3 -7.024445E+06 -1.958133E+06 -7.158324E+05 -2.541627E+06 -7.707089E+04  2.550661E+05
       137   4 -3.583912E+06 -6.950936E+05 -3.798823E+04 -1.579567E+06 -1.298702E+05  2.575317E+05
       137   5 -3.606528E+06 -6.653272E+05 -2.037658E+04 -1.554907E+06 -1.173473E+05  2.556876E+05
       137   6 -3.582186E+06 -6.874296E+05 -1.098409E+04 -1.582197E+06 -1.017317E+05  2.455709E+05
       137   7  3.338431E+05  7.582915E+05  7.758398E+05 -4.774727E+05 -1.322011E+05  2.564610E+05
       137   8  7.847987E+04  6.960941E+05  7.341769E+05 -5.216820E+05 -1.309128E+05  2.503633E+05
       137   9 -1.276299E+05  5.843130E+05  6.932540E+05 -6.177920E+05 -1.265415E+05  2.360199E+05
       137  10 -7.485906E+06 -2.147182E+06 -8.527892E+05 -2.675176E+06  5.130581E-09  1.742426E-09
       137  11 -7.277566E+06 -2.025619E+06 -7.757779E+05 -2.582417E+06  6.103757E-10  1.464967E-10
       137  12 -7.024469E+06 -1.958204E+06 -7.159655E+05 -2.541611E+06 -6.036216E-09 -2.289007E-09
       137  13 -3.583948E+06 -6.951692E+05 -3.814425E+04 -1.579540E+06 -2.331820E-09 -5.350503E-09
       137  14 -3.606560E+06 -6.654009E+05 -2.052501E+04 -1.554883E+06  5.237862E-09 -4.867724E-09
       137  15 -3.582213E+06 -6.874970E+05 -1.111660E+04 -1.582177E+06 -7.818116E-10 -5.993696E-10
       137  16  3.338068E+05  7.582164E+05  7.756837E+05 -4.774455E+05 -4.815456E-09 -1.247802E-09
       137  17  7.844473E+04  6.960223E+05  7.340272E+05 -5.216556E+05 -3.711487E-10 -2.434767E-09
       137  18 -1.276619E+05  5.842490E+05  6.931195E+05 -6.177680E+05  6.045821E-09  3.355299E-09
       137  19 -7.485871E+06 -2.147106E+06 -8.526333E+05 -2.675202E+06  1.275554E+05 -2.585971E+05
       137  20 -7.277536E+06 -2.025543E+06 -7.756299E+05 -2.582439E+06  1.038690E+05 -2.609795E+05
       137  21 -7.024445E+06 -1.958133E+06 -7.158324E+05 -2.541627E+06  7.707089E+04 -2.550661E+05
       137  22 -3.583912E+06 -6.950936E+05 -3.798823E+04 -1.579567E+06  1.298702E+05 -2.575317E+05
       137  23 -3.606528E+06 -6.653272E+05 -2.037658E+04 -1.554907E+06  1.173473E+05 -2.556876E+05
       137  24 -3.582186E+06 -6.874296E+05 -1.098409E+04 -1.582197E+06  1.017317E+05 -2.455709E+05
       137  25  3.338431E+05  7.582915E+05  7.758398E+05 -4.774727E+05  1.322011E+05 -2.564610E+05
       137  26  7.847987E+04  6.960941E+05  7.341769E+05 -5.216820E+05  1.309128E+05 -2.503633E+05
       137  27 -1.276299E+05  5.843130E+05  6.932540E+05 -6.177920E+05  1.265415E+05 -2.360199E+05
       138   1 -6.859140E+06 -1.897430E+06 -6.781110E+05 -2.496076E+06 -7.277038E+04  2.445456E+05
       138   2 -6.641978E+06 -1.780676E+06 -6.245664E+05 -2.399015E+06 -6.263060E+04  2.282514E+05
       138   3 -6.373701E+06 -1.713752E+06 -5.731512E+05 -2.358106E+06 -5.225486E+04  2.111743E+05
       138   4 -3.581165E+06 -6.879861E+05 -8.328716E+03 -1.582632E+06 -9.612954E+04  2.355699E+05
       138   5 -3.606418E+06 -6.624144E+05 -4.785760E+03 -1.554726E+06 -8.703090E+04  2.189219E+05
       138   6 -3.580426E+06 -6.864540E+05 -2.544648E+03 -1.582979E+06 -7.769855E+04  2.014927E+05
       138   7 -2.919838E+05  5.224213E+05  6.609178E+05 -6.646616E+05 -1.196234E+05  2.265439E+05
       138   8 -5.612620E+05  4.566633E+05  6.145339E+05 -7.065691E+05 -1.115613E+05  2.095438E+05
       138   9 -7.790424E+05  3.415254E+05  5.676687E+05 -8.045891E+05 -1.032669E+05  1.917645E+05
       138  10 -6.859161E+06 -1.897495E+06 -6.782331E+05 -2.496062E+06 -3.919689E-10 -4.235407E-10
       138  11 -6.641996E+06 -1.780732E+06 -6.246714E+05 -2.399004E+06  1.912081E-09  1.118409E-10
       138  12 -6.373716E+06 -1.713801E+06 -5.732400E+05 -2.358097E+06  1.857205E-10  8.101923E-10
       138  13 -3.581189E+06 -6.880481E+05 -8.450119E+03 -1.582613E+06 -1.795759E-09  2.167908E-09
       138  14 -3.606439E+06 -6.624678E+05 -4.889848E+03 -1.554711E+06  1.507398E-09  1.578885E-09
       138  15 -3.580444E+06 -6.864991E+05 -2.632111E+03 -1.582966E+06 -2.818744E-09  3.362163E-09
       138  16 -2.920129E+05  5.223625E+05  6.607947E+05 -6.646398E+05 -1.284942E-09  4.886041E-09
       138  17 -5.612870E+05  4.566129E+05  6.144282E+05 -7.065503E+05 -9.729093E-10  1.188123E-09
       138  18 -7.790637E+05  3.414831E+05  5.675797E+05 -8.045732E+05  5.954679E-10  2.083526E-09
       138  19 -6.859140E+06 -1.897430E+06 -6.781110E+05 -2.496076E+06  7.277038E+04 -2.445456E+05
       138  20 -6.641978E+06 -1.780676E+06 -6.245664E+05 -2.399015E+06  6.263060E+04 -2.282514E+05
       138  21 -6.373701E+06 -1.713752E+06 -5.731512E+05 -2.358106E+06  5.225486E+04 -2.111743E+05
       138  22 -3.581165E+06 -6.879861E+05 -8.328716E+03 -1.582632E+06  9.612954E+04 -2.355699E+05
       138  23 -3.606418E+06 -6.624144E+05 -4.785760E+03 -1.554726E+06  8.703090E+04 -2.189219E+05
       138  24 -3.580426E+06 -6.864540E+05 -2.544648E+03 -1.582979E+06  7.769855E+04 -2.014927E+05
       138  25 -2.919838E+05  5.224213E+05  6.609178E+05 -6.646616E+05  1.196234E+05 -2.265439E+05
       138  26 -5.612620E+05  4.566633E+05  6.145339E+05 -7.065691E+05  1.115613E+05 -2.095438E+05
       138  27 -7.790424E+05  3.415254E+05  5.676687E+05 -8.045891E+05  1.032669E+05 -1.917645E+05
       139   1 -6.202734E+06 -1.650275E+06 -5.361705E+05 -2.310749E+06 -4.755142E+04  2.004152E+05
       139   2 -5.976959E+06 -1.530709E+06 -4.845852E+05 -2.210839E+06 -3.938010E+04  1.818134E+05
       139   3 -5.698740E+06 -1.462345E+06 -4.334238E+05 -2.169396E+06 -3.116697E+04  1.629670E+05
       139   4 -3.579937E+06 -6.866308E+05 -1.992254E+03 -1.583467E+06 -7.316781E+04  1.906912E+05
       139   5 -3.605872E+06 -6.605011E+05 -1.347690E+03 -1.554349E+06 -6.532009E+04  1.720009E+05
       139   6 -3.579376E+06 -6.855047E+05 -8.767058E+02 -1.583713E+06 -5.743118E+04  1.530665E+05
       139   7 -9.500089E+05  2.776057E+05  5.318364E+05 -8.533161E+05 -9.890167E+04  1.809233E+05
       139   8 -1.228944E+06  2.101936E+05  4.816088E+05 -8.955159E+05 -9.136772E+04  1.621482E+05
       139   9 -1.455333E+06  9.172740E+04  4.314503E+05 -9.961585E+05 -8.379292E+04  1.431295E+05
       139  10 -6.202747E+06 -1.650319E+06 -5.362500E+05 -2.310742E+06 -3.715718E-09  1.249457E-10
       139  11 -5.976969E+06 -1.530745E+06 -4.846502E+05 -2.210833E+06 -2.387803E-09 -4.225823E-10
       139  12 -5.698748E+06 -1.462374E+06 -4.334755E+05 -2.169392E+06  1.010094E-09 -1.229427E-09
       139  13 -3.579952E+06 -6.866712E+05 -2.070490E+03 -1.583456E+06 -2.339453E-10  7.052307E-10
       139  14 -3.605884E+06 -6.605339E+05 -1.411175E+03 -1.554340E+06  6.063872E-10  1.164396E-09
       139  15 -3.579386E+06 -6.855307E+05 -9.268316E+02 -1.583706E+06 -7.045609E-10 -1.551131E-09
       139  16 -9.500281E+05  2.775680E+05  5.317566E+05 -8.533017E+05  2.240184E-09  2.262963E-09
       139  17 -1.228960E+06  2.101632E+05  4.815439E+05 -8.955040E+05 -1.784473E-10  1.165738E-09
       139  18 -1.455346E+06  9.170357E+04  4.313987E+05 -9.961488E+05 -1.173619E-09 -1.083237E-09
       139  19 -6.202734E+06 -1.650275E+06 -5.361705E+05 -2.310749E+06  4.755142E+04 -2.004152E+05
       139  20 -5.976959E+06 -1.530709E+06 -4.845852E+05 -2.210839E+06  3.938010E+04 -1.818134E+05
       139  21 -5.698740E+06 -1.462345E+06 -4.334238E+05 -2.169396E+06  3.116697E+04 -1.629670E+05
       139  22 -3.579937E+06 -6.866308E+05 -1.992254E+03 -1.583467E+06  7.316781E+04 -1.906912E+05
       139  23 -3.605872E+06 -6.605011E+05 -1.347690E+03 -1.554349E+06  6.532009E+04 -1.720009E+05
       139  24 -3.579376E+06 -6.855047E+05 -8.767058E+02 -1.583713E+06  5.743118E+04 -1.530665E+05
       139  25 -9.500089E+05  2.776057E+05  5.318364E+05 -8.533161E+05  9.890167E+04 -1.809233E+05
       139  26 -1.228944E+06  2.101936E+05  4.816088E+05 -8.955159E+05  9.136772E+04 -1.621482E+05
       139  27 -1.455333E+06  9.172740E+04  4.314503E+05 -9.961585E+05  8.379292E+04 -1.431295E+05
       140   1 -5.522375E+06 -1.397280E+06 -3.959210E+05 -2.120888E+06 -2.657233E+04  1.518037E+05
       140   2 -5.289909E+06 -1.275469E+06 -3.440224E+05 -2.018907E+06 -1.848522E+04  1.325492E+05
       140   3 -5.004337E+06 -1.206124E+06 -2.925205E+05 -1.977142E+06 -1.037940E+04  1.131469E+05
       140   4 -3.579053E+06 -6.856222E+05 -8.819102E+02 -1.584097E+06 -5.304087E+04  1.418441E+05
       140   5 -3.605375E+06 -6.589853E+05 -1.111203E+03 -1.554073E+06 -4.515057E+04  1.225400E+05
       140   6 -3.578633E+06 -6.847734E+05 -1.586925E+03 -1.584283E+06 -3.724203E+04  1.030885E+05
       140   7 -1.631809E+06  2.636044E+04  3.939705E+05 -1.045736E+06 -7.959925E+04  1.318508E+05
       140   8 -1.917903E+06 -4.226193E+04  3.416581E+05 -1.088065E+06 -7.189422E+04  1.125016E+05
       140   9 -2.150833E+06 -1.632546E+05  2.892434E+05 -1.190586E+06 -6.417125E+04  9.300520E+04
       140  10 -5.522382E+06 -1.397305E+06 -3.959655E+05 -2.120885E+06 -1.561290E-09 -2.295964E-09
       140  11 -5.289914E+06 -1.275488E+06 -3.440560E+05 -2.018905E+06  4.896512E-10  3.106031E-10
       140  12 -5.004341E+06 -1.206138E+06 -2.925448E+05 -1.977141E+06  8.321227E-11 -2.235463E-09
       140  13 -3.579061E+06 -6.856445E+05 -9.249195E+02 -1.584091E+06  3.462151E-11 -1.205376E-09
       140  14 -3.605381E+06 -6.590019E+05 -1.143188E+03 -1.554069E+06 -6.784135E-10 -3.458162E-10
       140  15 -3.578638E+06 -6.847851E+05 -1.609457E+03 -1.584280E+06  3.787534E-10  7.677565E-12
       140  16 -1.631820E+06  2.634012E+04  3.939260E+05 -1.045727E+06  2.476476E-09 -4.752783E-11
       140  17 -1.917912E+06 -4.227688E+04  3.416246E+05 -1.088058E+06 -2.025980E-10 -8.000224E-10
       140  18 -2.150840E+06 -1.632649E+05  2.892195E+05 -1.190581E+06 -2.714652E-09 -2.439698E-09
       140  19 -5.522375E+06 -1.397280E+06 -3.959210E+05 -2.120888E+06  2.657233E+04 -1.518037E+05
       140  20 -5.289909E+06 -1.275469E+06 -3.440224E+05 -2.018907E+06  1.848522E+04 -1.325492E+05
       140  21 -5.004337E+06 -1.206124E+06 -2.925205E+05 -1.977142E+06  1.037940E+04 -1.131469E+05
       140  22 -3.579053E+06 -6.856222E+05 -8.819102E+02 -1.584097E+06  5.304087E+04 -1.418441E+05
       140  23 -3.605375E+06 -6.589853E+05 -1.111203E+03 -1.554073E+06  4.515057E+04 -1.225400E+05
       140  24 -3.578633E+06 -6.847734E+05 -1.586925E+03 -1.584283E+06  3.724203E+04 -1.030885E+05
       140  25 -1.631809E+06  2.636044E+04  3.939705E+05 -1.045736E+06  7.959925E+04 -1.318508E+05
       140  26 -1.917903E+06 -4.226193E+04  3.416581E+05 -1.088065E+06  7.189422E+04 -1.125016E+05
       140  27 -2.150833E+06 -1.632546E+05  2.892434E+05 -1.190586E+06  6.417125E+04 -9.300520E+04
       141   1 -4.824039E+06 -1.139954E+06 -2.547299E+05 -1.927817E+06 -5.610292E+03  1.017885E+05
       141   2 -4.586981E+06 -1.016720E+06 -2.033702E+05 -1.824441E+06  3.640742E+03  8.262602E+04
       141   3 -4.296618E+06 -9.469692E+05 -1.533662E+05 -1.782466E+06  1.287082E+04  6.346378E+04
       141   4 -3.578479E+06 -6.848462E+05 -2.080927E+03 -1.584567E+06 -3.263015E+04  9.168309E+04
       141   5 -3.604973E+06 -6.579034E+05 -3.679918E+03 -1.553891E+06 -2.337759E+04  7.253534E+04
       141   6 -3.578248E+06 -6.844489E+05 -6.641915E+03 -1.584639E+06 -1.414687E+04  5.338772E+04
       141   7 -2.331299E+06 -2.296019E+05  2.504965E+05 -1.240671E+06 -5.970889E+04  8.155568E+04
       141   8 -2.621960E+06 -2.990030E+05  1.959662E+05 -1.282940E+06 -5.044226E+04  6.242735E+04
       141   9 -2.859342E+06 -4.218843E+05  1.400593E+05 -1.386599E+06 -4.119837E+04  4.329903E+04
       141  10 -4.824041E+06 -1.139965E+06 -2.547494E+05 -1.927817E+06  1.860366E-09  2.211103E-10
       141  11 -4.586982E+06 -1.016727E+06 -2.033830E+05 -1.824441E+06  7.498605E-10 -2.483668E-10
       141  12 -4.296619E+06 -9.469736E+05 -1.533741E+05 -1.782466E+06 -2.551328E-10  1.531381E-09
       141  13 -3.578483E+06 -6.848554E+05 -2.098689E+03 -1.584564E+06 -1.292861E-09 -3.418830E-09
       141  14 -3.604975E+06 -6.579092E+05 -3.690811E+03 -1.553890E+06  4.056885E-09  5.768395E-09
       141  15 -3.578249E+06 -6.844520E+05 -6.647637E+03 -1.584638E+06 -8.049420E-11  5.434769E-10
       141  16 -2.331304E+06 -2.296099E+05  2.504774E+05 -1.240667E+06 -7.643659E-10 -5.370832E-10
       141  17 -2.621964E+06 -2.990079E+05  1.959541E+05 -1.282938E+06  1.939495E-09  1.883374E-09
       141  18 -2.859344E+06 -4.218868E+05  1.400526E+05 -1.386597E+06 -5.352879E-10 -3.156954E-09
       141  19 -4.824039E+06 -1.139954E+06 -2.547299E+05 -1.927817E+06  5.610292E+03 -1.017885E+05
       141  20 -4.586981E+06 -1.016720E+06 -2.033702E+05 -1.824441E+06 -3.640742E+03 -8.262602E+04
       141  21 -4.296618E+06 -9.469692E+05 -1.533662E+05 -1.782466E+06 -1.287082E+04 -6.346378E+04
       141  22 -3.578479E+06 -6.848462E+05 -2.080927E+03 -1.584567E+06  3.263015E+04 -9.168309E+04
       141  23 -3.604973E+06 -6.579034E+05 -3.679918E+03 -1.553891E+06  2.337759E+04 -7.253534E+04
       141  24 -3.578248E+06 -6.844489E+05 -6.641915E+03 -1.584639E+06  1.414687E+04 -5.338772E+04
       141  25 -2.331299E+06 -2.296019E+05  2.504965E+05 -1.240671E+06  5.970889E+04 -8.155568E+04
       141  26 -2.621960E+06 -2.990030E+05  1.959662E+05 -1.282940E+06  5.044226E+04 -6.242735E+04
       141  27 -2.859342E+06 -4.218843E+05  1.400593E+05 -1.386599E+06  4.119837E+04 -4.329903E+04
       142   1 -4.113847E+06 -8.803776E+05 -1.168478E+05 -1.733293E+06  1.881296E+04  5.237952E+04
       142   2 -3.874937E+06 -7.560005E+05 -7.023066E+04 -1.627610E+06  3.231043E+04  3.530765E+04
       142   3 -3.584525E+06 -6.890657E+05 -2.930220E+04 -1.583061E+06  4.529723E+04  1.959575E+04
       142   4 -3.578519E+06 -6.842616E+05 -8.842720E+03 -1.584988E+06 -8.559535E+03  4.217686E+04
       142   5 -3.604374E+06 -6.577819E+05 -1.612756E+04 -1.553497E+06  6.789052E+03  2.579846E+04
       142   6 -3.579172E+06 -6.891194E+05 -3.057691E+04 -1.583169E+06  2.162430E+04  1.077873E+04
       142   7 -3.042896E+06 -4.881215E+05  9.915028E+04 -1.436564E+06 -3.595730E+04  3.196467E+04
       142   8 -3.333733E+06 -5.595567E+05  3.797483E+04 -1.479353E+06 -1.874433E+04  1.628482E+04
       142   9 -3.573818E+06 -6.891727E+05 -3.184918E+04 -1.583276E+06 -2.049006E+03  1.961728E+03
       142  10 -4.113848E+06 -8.803806E+05 -1.168536E+05 -1.733294E+06  1.925600E-09  8.137807E-10
       142  11 -3.874938E+06 -7.560021E+05 -7.023499E+04 -1.627611E+06  1.513155E-09  8.095100E-10
       142  12 -3.584527E+06 -6.890667E+05 -2.930681E+04 -1.583062E+06 -2.230877E-09 -3.538628E-09
       142  13 -3.578520E+06 -6.842635E+05 -8.846194E+03 -1.584988E+06  5.085387E-10  6.530449E-11
       142  14 -3.604374E+06 -6.577827E+05 -1.612890E+04 -1.553497E+06 -3.284925E-09 -8.551029E-09
       142  15 -3.579173E+06 -6.891197E+05 -3.057801E+04 -1.583169E+06 -7.247894E-11  1.257252E-09
       142  16 -3.042898E+06 -4.881230E+05  9.914593E+04 -1.436563E+06 -2.554773E-09 -3.878091E-10
       142  17 -3.333733E+06 -5.595571E+05  3.797367E+04 -1.479353E+06 -2.155918E-09 -1.582216E-09
       142  18 -3.573818E+06 -6.891727E+05 -3.184920E+04 -1.583276E+06  3.058651E-10 -5.270773E-10
       142  19 -4.113847E+06 -8.803776E+05 -1.168478E+05 -1.733293E+06 -1.881296E+04 -5.237952E+04
       142  20 -3.874937E+06 -7.560005E+05 -7.023066E+04 -1.627610E+06 -3.231043E+04 -3.530765E+04
       142  21 -3.584525E+06 -6.890657E+05 -2.930220E+04 -1.583061E+06 -4.529723E+04 -1.959575E+04
       142  22 -3.578519E+06 -6.842616E+05 -8.842720E+03 -1.584988E+06  8.559535E+03 -4.217686E+04
       142  23 -3.604374E+06 -6.577819E+05 -1.612756E+04 -1.553497E+06 -6.789052E+03 -2.579846E+04
       142  24 -3.579172E+06 -6.891194E+05 -3.057691E+04 -1.583169E+06 -2.162430E+04 -1.077873E+04
       142  25 -3.042896E+06 -4.881215E+05  9.915028E+04 -1.436564E+06  3.595730E+04 -3.196467E+04
       142  26 -3.333733E+06 -5.595567E+05  3.797483E+04 -1.479353E+06  1.874433E+04 -1.628482E+04
       142  27 -3.573818E+06 -6.891727E+05 -3.184918E+04 -1.583276E+06  2.049006E+03 -1.961728E+03
       143   1 -3.394854E+06 -6.269464E+05  2.114329E+02 -1.548930E+06  5.881577E+04  1.106468E+04
       143   2 -3.178497E+06 -4.879117E+05  2.856538E+04 -1.397606E+06  7.218405E+04  4.889383E+03
       143   3 -2.943953E+06 -4.901328E+05  2.534401E+04 -1.283506E+06  7.748703E+04  2.034579E+04
       143   4 -3.584270E+06 -6.837432E+05 -3.992613E+04 -1.587261E+06  3.067337E+04  5.838961E+02
       143   5 -3.599480E+06 -6.744063E+05 -7.450578E+04 -1.544745E+06  7.353423E+04  5.387007E+03
       143   6 -3.602483E+06 -8.122703E+05 -1.641486E+05 -1.539503E+06  1.083213E+05  3.182554E+04
       143   7 -3.773649E+06 -7.405394E+05 -8.006243E+04 -1.625582E+06  2.540197E+03 -9.894940E+03
       143   8 -4.020275E+06 -8.608618E+05 -1.775882E+05 -1.691783E+06  7.488339E+04  5.884072E+03
       143   9 -4.260550E+06 -1.134273E+06 -3.536716E+05 -1.795213E+06  1.391186E+05  4.328200E+04
       143  10 -3.394858E+06 -6.269475E+05  2.046608E+02 -1.548931E+06  9.047613E-10  1.237471E-10
       143  11 -3.178503E+06 -4.879132E+05  2.855549E+04 -1.397607E+06  1.177655E-09  5.230938E-10
       143  12 -2.943960E+06 -4.901349E+05  2.533188E+04 -1.283507E+06 -1.466942E-10 -4.129274E-10
       143  13 -3.584271E+06 -6.837434E+05 -3.992790E+04 -1.587261E+06 -3.060837E-10  3.273107E-09
       143  14 -3.599486E+06 -6.744078E+05 -7.451606E+04 -1.544746E+06  1.405443E-09  1.181000E-09
       143  15 -3.602496E+06 -8.122746E+05 -1.641727E+05 -1.539505E+06  8.453104E-11  2.193959E-10
       143  16 -3.773649E+06 -7.405395E+05 -8.006263E+04 -1.625582E+06 -3.874556E-10  2.197622E-09
       143  17 -4.020281E+06 -8.608634E+05 -1.775988E+05 -1.691783E+06  1.355117E-09  4.673537E-09
       143  18 -4.260571E+06 -1.134280E+06 -3.537118E+05 -1.795218E+06  4.755563E-10 -3.701648E-10
       143  19 -3.394854E+06 -6.269464E+05  2.114329E+02 -1.548930E+06 -5.881577E+04 -1.106468E+04
       143  20 -3.178497E+06 -4.879117E+05  2.856538E+04 -1.397606E+06 -7.218405E+04 -4.889383E+03
       143  21 -2.943953E+06 -4.901328E+05  2.534401E+04 -1.283506E+06 -7.748703E+04 -2.034579E+04
       143  22 -3.584270E+06 -6.837432E+05 -3.992613E+04 -1.587261E+06 -3.067337E+04 -5.838961E+02
       143  23 -3.599480E+06 -6.744063E+05 -7.450578E+04 -1.544745E+06 -7.353423E+04 -5.387007E+03
       143  24 -3.602483E+06 -8.122703E+05 -1.641486E+05 -1.539503E+06 -1.083213E+05 -3.182554E+04
       143  25 -3.773649E+06 -7.405394E+05 -8.006243E+04 -1.625582E+06 -2.540197E+03  9.894940E+03
       143  26 -4.020275E+06 -8.608618E+05 -1.775882E+05 -1.691783E+06 -7.488339E+04 -5.884072E+03
       143  27 -4.260550E+06 -1.134273E+06 -3.536716E+05 -1.795213E+06 -1.391186E+05 -4.328200E+04
       144   1  2.630303E+05  5.426678E+04  7.426809E+04  1.356262E+04  6.097623E+04  5.144328E+02
       144   2  2.556950E+05 -2.752040E+04  2.481249E+04  4.420094E+03  4.025542E+04  1.449813E+03
       144   3  2.743590E+05 -1.613609E+04  1.214018E+04 -1.060691E+04  1.953421E+04  1.196522E+03
       144   4  3.266151E+05  7.012372E+04  9.003987E+04 -3.040625E+03  6.153366E+04  5.129302E+02
       144   5  3.135850E+05 -1.312213E+04  3.894185E+04 -9.011510E+01  4.038256E+04  1.449535E+03
       144   6  3.266257E+05 -3.127110E+03  2.492308E+04 -3.024000E+03  1.923126E+04  1.196712E+03
       144   7  3.902041E+05  8.598140E+04  1.058115E+05 -1.964557E+04  6.209115E+04  5.113980E+02
       144   8  3.714780E+05  1.275961E+03  5.307098E+04 -4.600746E+03  4.050971E+04  1.449256E+03
       144   9  3.788951E+05  9.881880E+03  3.770581E+04  4.559552E+03  1.892829E+04  1.196894E+03
       144  10  2.630263E+05  5.426578E+04  7.426111E+04  1.356259E+04 -1.121772E-09 -3.114500E-10
       144  11  2.556933E+05 -2.752083E+04  2.480944E+04  4.420047E+03 -1.805911E-09  3.474397E-10
       144  12  2.743586E+05 -1.613619E+04  1.213946E+04 -1.060693E+04 -2.058974E-09  1.437840E-09
       144  13  3.266110E+05  7.012270E+04  9.003276E+04 -3.040650E+03  1.072701E-10  1.040243E-10
       144  14  3.135832E+05 -1.312257E+04  3.893878E+04 -9.016224E+01 -3.225826E-09  2.508866E-10
       144  15  3.266253E+05 -3.127211E+03  2.492238E+04 -3.024018E+03 -2.648400E-09  1.295136E-09
       144  16  3.902000E+05  8.598036E+04  1.058043E+05 -1.964560E+04  2.998259E-11  8.684538E-11
       144  17  3.714762E+05  1.275518E+03  5.306790E+04 -4.600793E+03 -1.763050E-09  2.639892E-10
       144  18  3.788947E+05  9.881782E+03  3.770514E+04  4.559534E+03 -1.042016E-09  1.640953E-09
       144  19  2.630303E+05  5.426678E+04  7.426809E+04  1.356262E+04 -6.097623E+04 -5.144328E+02
       144  20  2.556950E+05 -2.752040E+04  2.481249E+04  4.420094E+03 -4.025542E+04 -1.449813E+03
       144  21  2.743590E+05 -1.613609E+04  1.214018E+04 -1.060691E+04 -1.953421E+04 -1.196522E+03
       144  22  3.266151E+05  7.012372E+04  9.003987E+04 -3.040625E+03 -6.153366E+04 -5.129302E+02
       144  23  3.135850E+05 -1.312213E+04  3.894185E+04 -9.011510E+01 -4.038256E+04 -1.449535E+03
       144  24  3.266257E+05 -3.127110E+03  2.492308E+04 -3.024000E+03 -1.923126E+04 -1.196712E+03
       144  25  3.902041E+05  8.598140E+04  1.058115E+05 -1.964557E+04 -6.209115E+04 -5.113980E+02
       144  26  3.714780E+05  1.275961E+03  5.307098E+04 -4.600746E+03 -4.050971E+04 -1.449256E+03
       144  27  3.788951E+05  9.881880E+03  3.770581E+04  4.559552E+03 -1.892829E+04 -1.196894E+03
       145   1  2.809770E+05 -1.238480E+03  1.053013E+04 -1.052033E+03  1.524538E+04  8.997214E+02
       145   2  2.846978E+05 -1.041889E+04  1.536048E+03  3.620349E+02  1.004709E+04  8.179570E+02
       145   3  2.920605E+05 -7.753355E+03 -1.112366E+03 -4.004558E+03  4.848771E+03  6.126650E+02
       145   4  3.216407E+05  8.881364E+03  2.048203E+04 -3.006695E+03  1.523907E+04  8.996688E+02
       145   5  3.198170E+05 -1.680416E+03  1.012136E+04 -1.158657E+02  9.995969E+03  8.179417E+02
       145   6  3.216426E+05 -3.888792E+02  6.137151E+03 -3.005662E+03  4.752886E+03  6.126653E+02
       145   7  3.623059E+05  1.900110E+04  3.043381E+04 -4.961485E+03  1.523275E+04  8.996163E+02
       145   8  3.549373E+05  7.057963E+03  1.870659E+04 -5.937933E+02  9.944842E+03  8.179265E+02
       145   9  3.512256E+05  6.975536E+03  1.338660E+04 -2.006719E+03  4.656996E+03  6.126654E+02
       145  10  2.809767E+05 -1.238544E+03  1.052969E+04 -1.052044E+03  2.240619E-10  7.138678E-10
       145  11  2.846976E+05 -1.041891E+04  1.535857E+03  3.620283E+02 -3.515532E-09 -1.225101E-09
       145  12  2.920604E+05 -7.753362E+03 -1.112411E+03 -4.004560E+03  6.855361E-10  1.255533E-10
       145  13  3.216404E+05  8.881301E+03  2.048159E+04 -3.006706E+03  2.279640E-09  9.193708E-10
       145  14  3.198168E+05 -1.680444E+03  1.012117E+04 -1.158722E+02 -6.340598E-09 -1.263887E-09
       145  15  3.216426E+05 -3.888856E+02  6.137108E+03 -3.005665E+03 -2.583756E-09 -2.780989E-10
       145  16  3.623056E+05  1.900104E+04  3.043338E+04 -4.961496E+03 -3.569874E-09  7.831423E-10
       145  17  3.549372E+05  7.057936E+03  1.870640E+04 -5.937999E+02 -6.574502E-10 -1.602880E-09
       145  18  3.512256E+05  6.975530E+03  1.338656E+04 -2.006722E+03 -8.654308E-10 -4.852764E-10
       145  19  2.809770E+05 -1.238480E+03  1.053013E+04 -1.052033E+03 -1.524538E+04 -8.997214E+02
       145  20  2.846978E+05 -1.041889E+04  1.536048E+03  3.620349E+02 -1.004709E+04 -8.179570E+02
       145  21  2.920605E+05 -7.753355E+03 -1.112366E+03 -4.004558E+03 -4.848771E+03 -6.126650E+02
       145  22  3.216407E+05  8.881364E+03  2.048203E+04 -3.006695E+03 -1.523907E+04 -8.996688E+02
       145  23  3.198170E+05 -1.680416E+03  1.012136E+04 -1.158657E+02 -9.995969E+03 -8.179417E+02
       145  24  3.216426E+05 -3.888792E+02  6.137151E+03 -3.005662E+03 -4.752886E+03 -6.126653E+02
       145  25  3.623059E+05  1.900110E+04  3.043381E+04 -4.961485E+03 -1.523275E+04 -8.996163E+02
       145  26  3.549373E+05  7.057963E+03  1.870659E+04 -5.937933E+02 -9.944842E+03 -8.179265E+02
       145  27  3.512256E+05  6.975536E+03  1.338660E+04 -2.006719E+03 -4.656996E+03 -6.126654E+02
       146   1  3.028171E+05 -3.395928E+03  4.336372E+02 -2.785457E+03  3.836999E+03  4.778519E+02
       146   2  3.080318E+05 -3.362866E+03 -5.073690E+02 -9.365115E+01  2.533732E+03  2.912767E+02
       146   3  3.137914E+05 -1.831925E+03 -2.255669E+02 -3.128486E+03  1.230468E+03  9.214979E+01
       146   4  3.209528E+05  1.114015E+03  4.854027E+03 -2.994010E+03  3.772155E+03  4.778467E+02
       146   5  3.206801E+05 -2.155342E+02  2.585365E+03 -1.306669E+02  2.464331E+03  2.912735E+02
       146   6  3.209532E+05 -4.641437E+01  1.542664E+03 -2.993958E+03  1.156522E+03  9.214815E+01
       146   7  3.390888E+05  5.623933E+03  9.274393E+03 -3.202569E+03  3.707309E+03  4.778416E+02
       146   8  3.333286E+05  2.931786E+03  5.678087E+03 -1.676835E+02  2.394929E+03  2.912704E+02
       146   9  3.281150E+05  1.739093E+03  3.310890E+03 -2.859429E+03  1.082576E+03  9.214648E+01
       146  10  3.028171E+05 -3.395932E+03  4.336091E+02 -2.785458E+03 -2.043792E-09  7.402084E-10
       146  11  3.080318E+05 -3.362868E+03 -5.073812E+02 -9.365174E+01 -3.241605E-09 -1.664128E-10
       146  12  3.137914E+05 -1.831926E+03 -2.255697E+02 -3.128486E+03  4.572383E-10  9.012760E-11
       146  13  3.209528E+05  1.114011E+03  4.854000E+03 -2.994011E+03 -4.428427E-09  6.682194E-10
       146  14  3.206801E+05 -2.155359E+02  2.585353E+03 -1.306675E+02 -2.176775E-09  6.661996E-11
       146  15  3.209532E+05 -4.641474E+01  1.542661E+03 -2.993958E+03 -3.210293E-09 -4.350504E-10
       146  16  3.390888E+05  5.623929E+03  9.274367E+03 -3.202570E+03 -2.492091E-09  5.322999E-10
       146  17  3.333286E+05  2.931784E+03  5.678076E+03 -1.676840E+02  1.576000E-10  1.481838E-10
       146  18  3.281150E+05  1.739092E+03  3.310888E+03 -2.859429E+03 -1.149308E-09 -8.586140E-10
       146  19  3.028171E+05 -3.395928E+03  4.336372E+02 -2.785457E+03 -3.836999E+03 -4.778519E+02
       146  20  3.080318E+05 -3.362866E+03 -5.073690E+02 -9.365115E+01 -2.533732E+03 -2.912767E+02
       146  21  3.137914E+05 -1.831925E+03 -2.255669E+02 -3.128486E+03 -1.230468E+03 -9.214979E+01
       146  22  3.209528E+05  1.114015E+03  4.854027E+03 -2.994010E+03 -3.772155E+03 -4.778467E+02
       146  23  3.206801E+05 -2.155342E+02  2.585365E+03 -1.306669E+02 -2.464331E+03 -2.912735E+02
       146  24  3.209532E+05 -4.641437E+01  1.542664E+03 -2.993958E+03 -1.156522E+03 -9.214815E+01
       146  25  3.390888E+05  5.623933E+03  9.274393E+03 -3.202569E+03 -3.707309E+03 -4.778416E+02
       146  26  3.333286E+05  2.931786E+03  5.678087E+03 -1.676835E+02 -2.394929E+03 -2.912704E+02
       146  27  3.281150E+05  1.739093E+03  3.310890E+03 -2.859429E+03 -1.082576E+03 -9.214648E+01
       147   1  3.250805E+05  1.192100E+03  2.259559E+03 -2.975661E+03  9.797593E+02 -2.523251E+01
       147   2  3.305164E+05  2.387412E+03  3.083747E+03 -1.318729E+02  6.261156E+02 -2.224531E+02
       147   3  3.360479E+05  3.778128E+03  4.187098E+03 -3.011554E+03  2.724689E+02 -4.212824E+02
       147   4  3.208531E+05  1.368146E+02  1.209011E+03 -2.993274E+03  9.090183E+02 -2.523425E+01
       147   5  3.208053E+05 -2.904593E+01  7.090035E+02 -1.315355E+02  5.547961E+02 -2.224558E+02
       147   6  3.208532E+05  5.798652E-01  4.885420E+02 -2.993271E+03  2.005741E+02 -4.212859E+02
       147   7  3.166258E+05 -9.184720E+02  1.584608E+02 -3.010887E+03  8.382778E+02 -2.523600E+01
       147   8  3.110943E+05 -2.445511E+03 -1.665747E+03 -1.311980E+02  4.834778E+02 -2.224585E+02
       147   9  3.056587E+05 -3.776985E+03 -3.210031E+03 -2.974989E+03  1.286811E+02 -4.212895E+02
       147  10  3.250805E+05  1.192100E+03  2.259558E+03 -2.975661E+03 -2.533051E-09  4.140092E-10
       147  11  3.305164E+05  2.387412E+03  3.083746E+03 -1.318728E+02 -6.068050E-09  4.154143E-10
       147  12  3.360479E+05  3.778127E+03  4.187098E+03 -3.011554E+03  2.869283E-09 -4.603412E-10
       147  13  3.208531E+05  1.368144E+02  1.209009E+03 -2.993274E+03 -2.133182E-09 -1.969228E-10
       147  14  3.208053E+05 -2.904607E+01  7.090028E+02 -1.315354E+02 -1.160100E-09  3.528325E-10
       147  15  3.208532E+05  5.796638E-01  4.885416E+02 -2.993271E+03 -5.556004E-09  9.703475E-11
       147  16  3.166258E+05 -9.184722E+02  1.584595E+02 -3.010887E+03  1.499975E-09 -8.399394E-10
       147  17  3.110943E+05 -2.445511E+03 -1.665747E+03 -1.311979E+02 -1.061614E-09  2.378597E-10
       147  18  3.056587E+05 -3.776985E+03 -3.210031E+03 -2.974989E+03 -1.807388E-09  6.136548E-10
       147  19  3.250805E+05  1.192100E+03  2.259559E+03 -2.975661E+03 -9.797593E+02  2.523251E+01
       147  20  3.305164E+05  2.387412E+03  3.083747E+03 -1.318729E+02 -6.261156E+02  2.224531E+02
       147  21  3.360479E+05  3.778128E+03  4.187098E+03 -3.011554E+03 -2.724689E+02  4.212824E+02
       147  22  3.208531E+05  1.368146E+02  1.209011E+03 -2.993274E+03 -9.090183E+02  2.523425E+01
       147  23  3.208053E+05 -2.904593E+01  7.090035E+02 -1.315355E+02 -5.547961E+02  2.224558E+02
       147  24  3.208532E+05  5.798652E-01  4.885420E+02 -2.993271E+03 -2.005741E+02  4.212859E+02
       147  25  3.166258E+05 -9.184720E+02  1.584608E+02 -3.010887E+03 -8.382778E+02  2.523600E+01
       147  26  3.110943E+05 -2.445511E+03 -1.665747E+03 -1.311980E+02 -4.834778E+02  2.224585E+02
       147  27  3.056587E+05 -3.776985E+03 -3.210031E+03 -2.974989E+03 -1.286811E+02  4.212895E+02
       148   1  3.474724E+05  6.643327E+03  6.964111E+03 -2.996016E+03  1.891424E+02 -5.376484E+02
       148   2  3.529750E+05  7.987310E+03  8.279734E+03 -1.172813E+02 -1.855858E+01 -7.372905E+02
       148   3  3.585320E+05  9.426950E+03  9.755138E+03 -3.010250E+03 -2.262438E+02 -9.363172E+02
       148   4  3.208439E+05  1.386784E+01  4.354644E+02 -3.003993E+03  1.171303E+02 -5.376535E+02
       148   5  3.208167E+05 -1.468814E+01  4.159787E+02 -1.181343E+02 -9.034045E+01 -7.372987E+02
       148   6  3.208438E+05  5.237723E+01  5.561211E+02 -3.003997E+03 -2.977937E+02 -9.363283E+02
       148   7  2.942160E+05 -6.615644E+03 -6.093234E+03 -3.011970E+03  4.512139E+01 -5.376586E+02
       148   8  2.886593E+05 -8.016763E+03 -7.447852E+03 -1.189872E+02 -1.621186E+02 -7.373069E+02
       148   9  2.831570E+05 -9.322300E+03 -8.642999E+03 -2.997745E+03 -3.693392E+02 -9.363395E+02
       148  10  3.474724E+05  6.643327E+03  6.964110E+03 -2.996016E+03  6.751482E-10 -3.848326E-10
       148  11  3.529750E+05  7.987310E+03  8.279733E+03 -1.172813E+02 -9.076382E-10  4.627458E-10
       148  12  3.585320E+05  9.426949E+03  9.755137E+03 -3.010250E+03  2.390154E-09 -3.317062E-10
       148  13  3.208439E+05  1.386753E+01  4.354638E+02 -3.003993E+03  2.398651E-09  1.925583E-10
       148  14  3.208167E+05 -1.468873E+01  4.159777E+02 -1.181343E+02  1.263628E-09  3.833855E-10
       148  15  3.208438E+05  5.237627E+01  5.561193E+02 -3.003998E+03 -8.264324E-10 -7.747664E-10
       148  16  2.942160E+05 -6.615644E+03 -6.093234E+03 -3.011970E+03 -1.728789E-09  5.603847E-10
       148  17  2.886593E+05 -8.016764E+03 -7.447853E+03 -1.189873E+02 -1.398675E-10  1.829579E-11
       148  18  2.831570E+05 -9.322301E+03 -8.643001E+03 -2.997745E+03 -7.179829E-10 -1.284352E-09
       148  19  3.474724E+05  6.643327E+03  6.964111E+03 -2.996016E+03 -1.891424E+02  5.376484E+02
       148  20  3.529750E+05  7.987310E+03  8.279734E+03 -1.172813E+02  1.855858E+01  7.372905E+02
       148  21  3.585320E+05  9.426950E+03  9.755138E+03 -3.010250E+03  2.262438E+02  9.363172E+02
       148  22  3.208439E+05  1.386784E+01  4.354644E+02 -3.003993E+03 -1.171303E+02  5.376535E+02
       148  23  3.208167E+05 -1.468814E+01  4.159787E+02 -1.181343E+02  9.034045E+01  7.372987E+02
       148  24  3.208438E+05  5.237723E+01  5.561211E+02 -3.003997E+03  2.977937E+02  9.363283E+02
       148  25  2.942160E+05 -6.615644E+03 -6.093234E+03 -3.011970E+03 -4.512139E+01  5.376586E+02
       148  26  2.886593E+05 -8.016763E+03 -7.447852E+03 -1.189872E+02  1.621186E+02  7.373069E+02
       148  27  2.831570E+05 -9.322300E+03 -8.642999E+03 -2.997745E+03  3.693392E+02  9.363395E+02
       149   1  3.701518E+05  1.224564E+04  1.273452E+04 -2.969290E+03 -3.314441E+02 -1.056910E+03
       149   2  3.756632E+05  1.357309E+04  1.447776E+04 -9.819740E+01 -8.716391E+02 -1.260439E+03
       149   3  3.814025E+05  1.549423E+04  1.672282E+04 -3.099255E+03 -1.411805E+03 -1.444899E+03
       149   4  3.208818E+05 -1.757058E+01  6.694938E+02 -3.026290E+03 -4.081335E+02 -1.056925E+03
       149   5  3.207684E+05 -8.619875E+01  1.054782E+03 -9.024573E+01 -9.414183E+02 -1.260458E+03
       149   6  3.208817E+05  4.377243E+02  1.937151E+03 -3.026384E+03 -1.474669E+03 -1.444921E+03
       149   7  2.716141E+05 -1.228096E+04 -1.139571E+04 -3.083285E+03 -4.848169E+02 -1.056940E+03
       149   8  2.658763E+05 -1.374571E+04 -1.236842E+04 -8.229487E+01 -1.011191E+03 -1.260478E+03
       149   9  2.603642E+05 -1.461906E+04 -1.284879E+04 -2.953521E+03 -1.537527E+03 -1.444944E+03
       149  10  3.701518E+05  1.224564E+04  1.273452E+04 -2.969290E+03  2.622073E-09 -4.754268E-10
       149  11  3.756632E+05  1.357309E+04  1.447776E+04 -9.819828E+01 -1.701180E-09 -2.936289E-10
       149  12  3.814025E+05  1.549423E+04  1.672282E+04 -3.099256E+03  2.002813E-09  7.554439E-10
       149  13  3.208818E+05 -1.757182E+01  6.694913E+02 -3.026290E+03  2.183785E-09 -7.595561E-10
       149  14  3.207684E+05 -8.620069E+01  1.054778E+03 -9.024668E+01 -4.520468E-09  1.913793E-10
       149  15  3.208817E+05  4.377214E+02  1.937143E+03 -3.026386E+03  1.124543E-09  5.366745E-10
       149  16  2.716141E+05 -1.228096E+04 -1.139572E+04 -3.083285E+03 -4.871016E-09 -1.095825E-09
       149  17  2.658763E+05 -1.374571E+04 -1.236842E+04 -8.229590E+01 -4.666348E-09  6.723973E-10
       149  18  2.603642E+05 -1.461906E+04 -1.284880E+04 -2.953523E+03  2.754720E-09  6.206357E-10
       149  19  3.701518E+05  1.224564E+04  1.273452E+04 -2.969290E+03  3.314441E+02  1.056910E+03
       149  20  3.756632E+05  1.357309E+04  1.447776E+04 -9.819740E+01  8.716391E+02  1.260439E+03
       149  21  3.814025E+05  1.549423E+04  1.672282E+04 -3.099255E+03  1.411805E+03  1.444899E+03
       149  22  3.208818E+05 -1.757058E+01  6.694938E+02 -3.026290E+03  4.081335E+02  1.056925E+03
       149  23  3.207684E+05 -8.619875E+01  1.054782E+03 -9.024573E+01  9.414183E+02  1.260458E+03
       149  24  3.208817E+05  4.377243E+02  1.937151E+03 -3.026384E+03  1.474669E+03  1.444921E+03
       149  25  2.716141E+05 -1.228096E+04 -1.139571E+04 -3.083285E+03  4.848169E+02  1.056940E+03
       149  26  2.658763E+05 -1.374571E+04 -1.236842E+04 -8.229487E+01  1.011191E+03  1.260478E+03
       149  27  2.603642E+05 -1.461906E+04 -1.284879E+04 -2.953521E+03  1.537527E+03  1.444944E+03
       150   1  3.935085E+05  1.785142E+04  2.014706E+04 -2.651658E+03 -1.751461E+03 -1.595762E+03
       150   2  3.985480E+05  1.877255E+04  2.310430E+04 -2.203045E+02 -3.899728E+03 -1.811686E+03
       150   3  4.050584E+05  2.438646E+04  2.863641E+04 -3.809627E+03 -6.048082E+03 -1.825079E+03
       150   4  3.211550E+05 -1.552004E+02  2.439778E+03 -3.058912E+03 -1.865351E+03 -1.595801E+03
       150   5  3.204254E+05 -6.652286E+02  4.005898E+03 -4.922864E+01 -3.940441E+03 -1.811715E+03
       150   6  3.211541E+05  3.505136E+03  8.096310E+03 -3.060255E+03 -6.015597E+03 -1.825090E+03
       150   7  2.488062E+05 -1.816221E+04 -1.526789E+04 -3.466118E+03 -1.979228E+03 -1.595840E+03
       150   8  2.423084E+05 -2.010346E+04 -1.509295E+04  1.218252E+02 -3.981148E+03 -1.811744E+03
       150   9  2.372563E+05 -1.737671E+04 -1.244430E+04 -2.310985E+03 -5.983115E+03 -1.825101E+03
       150  10  3.935085E+05  1.785142E+04  2.014705E+04 -2.651661E+03 -9.063040E-10  5.958764E-10
       150  11  3.985480E+05  1.877254E+04  2.310426E+04 -2.203102E+02 -3.885944E-09 -5.315410E-10
       150  12  4.050583E+05  2.438645E+04  2.863633E+04 -3.809636E+03 -9.783754E-10 -1.471739E-09
       150  13  3.211550E+05 -1.552040E+02  2.439767E+03 -3.058914E+03  4.316787E-09  3.541579E-10
       150  14  3.204254E+05 -6.652363E+02  4.005862E+03 -4.923439E+01  3.053534E-09 -4.593562E-10
       150  15  3.211541E+05  3.505123E+03  8.096235E+03 -3.060264E+03 -7.457141E-10 -1.613632E-09
       150  16  2.488062E+05 -1.816222E+04 -1.526790E+04 -3.466121E+03  8.811240E-10  1.695009E-10
       150  17  2.423084E+05 -2.010347E+04 -1.509298E+04  1.218194E+02  1.886491E-09  5.028832E-10
       150  18  2.372563E+05 -1.737672E+04 -1.244438E+04 -2.310994E+03 -1.816581E-09 -1.495642E-09
       150  19  3.935085E+05  1.785142E+04  2.014706E+04 -2.651658E+03  1.751461E+03  1.595762E+03
       150  20  3.985480E+05  1.877255E+04  2.310430E+04 -2.203045E+02  3.899728E+03  1.811686E+03
       150  21  4.050584E+05  2.438646E+04  2.863641E+04 -3.809627E+03  6.048082E+03  1.825079E+03
       150  22  3.211550E+05 -1.552004E+02  2.439778E+03 -3.058912E+03  1.865351E+03  1.595801E+03
       150  23  3.204254E+05 -6.652286E+02  4.005898E+03 -4.922864E+01  3.940441E+03  1.811715E+03
       150  24  3.211541E+05  3.505136E+03  8.096310E+03 -3.060255E+03  6.015597E+03  1.825090E+03
       150  25  2.488062E+05 -1.816221E+04 -1.526789E+04 -3.466118E+03  1.979228E+03  1.595840E+03
       150  26  2.423084E+05 -2.010346E+04 -1.509295E+04  1.218252E+02  3.981148E+03  1.811744E+03
       150  27  2.372563E+05 -1.737671E+04 -1.244430E+04 -2.310985E+03  5.983115E+03  1.825101E+03
       151   1  4.192159E+05  2.267242E+04  3.333810E+04 -7.213915E+01 -7.137487E+03 -2.243246E+03
       151   2  4.199871E+05  2.018897E+04  4.028643E+04 -1.745357E+03 -1.620044E+04 -2.536035E+03
       151   3  4.312052E+05  5.465958E+04  6.237705E+04 -9.629448E+03 -2.526458E+04 -8.698287E+02
       151   4  3.231252E+05 -1.238493E+03  9.849917E+03 -3.096407E+03 -7.593507E+03 -2.243428E+03
       151   5  3.179600E+05 -5.186560E+03  1.538326E+04  6.617509E-01 -1.594968E+04 -2.535980E+03
       151   6  3.231206E+05  2.769994E+04  3.557001E+04 -3.113124E+03 -2.430695E+04 -8.695336E+02
       151   7  2.270429E+05 -2.515005E+04 -1.363893E+04 -6.120206E+03 -8.049456E+03 -2.243605E+03
       151   8  2.159423E+05 -3.056285E+04 -9.520671E+03  1.746392E+03 -1.569897E+04 -2.535923E+03
       151   9  2.150467E+05  7.395905E+02  8.762116E+03  3.402064E+03 -2.334949E+04 -8.692184E+02
       151  10  4.192158E+05  2.267240E+04  3.333799E+04 -7.215205E+01 -1.202657E-09 -1.351604E-09
       151  11  4.199868E+05  2.018889E+04  4.028593E+04 -1.745390E+03 -5.975487E-10 -8.822669E-10
       151  12  4.312045E+05  5.465940E+04  6.237585E+04 -9.629466E+03 -1.083409E-09 -9.268858E-12
       151  13  3.231251E+05 -1.238514E+03  9.849800E+03 -3.096420E+03 -3.414805E-10 -2.718705E-09
       151  14  3.179597E+05 -5.186635E+03  1.538277E+04  6.291793E-01 -2.091372E-09  2.013038E-09
       151  15  3.231200E+05  2.769978E+04  3.556890E+04 -3.113141E+03 -2.232012E-09  5.388317E-10
       151  16  2.270428E+05 -2.515007E+04 -1.363906E+04 -6.120221E+03 -1.391848E-11 -1.127734E-09
       151  17  2.159420E+05 -3.056292E+04 -9.521146E+03  1.746360E+03  2.036057E-09  2.184306E-09
       151  18  2.150461E+05  7.394434E+02  8.761091E+03  3.402047E+03 -2.451292E-09  2.168572E-10
       151  19  4.192159E+05  2.267242E+04  3.333810E+04 -7.213915E+01  7.137487E+03  2.243246E+03
       151  20  4.199871E+05  2.018897E+04  4.028643E+04 -1.745357E+03  1.620044E+04  2.536035E+03
       151  21  4.312052E+05  5.465958E+04  6.237705E+04 -9.629448E+03  2.526458E+04  8.698287E+02
       151  22  3.231252E+05 -1.238493E+03  9.849917E+03 -3.096407E+03  7.593507E+03  2.243428E+03
       151  23  3.179600E+05 -5.186560E+03  1.538326E+04  6.617509E-01  1.594968E+04  2.535980E+03
       151  24  3.231206E+05  2.769994E+04  3.557001E+04 -3.113124E+03  2.430695E+04  8.695336E+02
       151  25  2.270429E+05 -2.515005E+04 -1.363893E+04 -6.120206E+03  8.049456E+03  2.243605E+03
       151  26  2.159423E+05 -3.056285E+04 -9.520671E+03  1.746392E+03  1.569897E+04  2.535923E+03
       151  27  2.150467E+05  7.395905E+02  8.762116E+03  3.402064E+03  2.334949E+04  8.692184E+02
       152   1  2.968672E+06  1.206223E+07  2.981732E+06 -1.354699E+06  8.692613E+04  1.442706E+05
       152   2  2.264436E+06  9.593848E+06  2.300835E+06 -1.510243E+05  2.347440E+05  3.119542E+04
       152   3  1.784613E+06  7.322371E+06  1.772657E+06 -1.391876E+06  1.457897E+05 -8.428106E+04
       152   4  7.357287E+04  3.806394E+05  1.035214E+05 -1.290025E+06  8.754424E+04  4.679977E+04
       152   5 -3.722877E+04  2.935565E+05  4.435838E+04 -6.624737E+04  2.350940E+05  2.084619E+04
       152   6  6.197045E+04  3.825817E+05  7.905326E+04 -1.289377E+06  1.443056E+05 -7.959891E+03
       152   7 -2.831632E+06 -1.117843E+07 -2.784733E+06 -1.226272E+06  8.815005E+04 -4.887236E+04
       152   8 -2.345211E+06 -8.928565E+06 -2.218360E+06  1.750852E+04  2.354446E+05  1.064824E+04
       152   9 -1.664198E+06 -6.513629E+06 -1.618035E+06 -1.187749E+06  1.428378E+05  6.751800E+04
       152  10  2.968658E+06  1.206221E+07  2.981680E+06 -1.354709E+06 -2.875757E-09 -4.835598E-09
       152  11  2.264377E+06  9.593832E+06  2.300730E+06 -1.510302E+05 -3.688727E-09 -1.328268E-08
       152  12  1.784588E+06  7.322358E+06  1.772604E+06 -1.391866E+06  5.853423E-09 -1.574804E-08
       152  13  7.356404E+04  3.806350E+05  1.035029E+05 -1.290028E+06  3.294575E-10 -3.576273E-11
       152  14 -3.728825E+04  2.935412E+05  4.425369E+04 -6.625132E+04  1.435345E-09  8.655603E-12
       152  15  6.194808E+04  3.825761E+05  7.901401E+04 -1.289376E+06  2.007647E-09 -3.253102E-08
       152  16 -2.831641E+06 -1.117844E+07 -2.784752E+06 -1.226269E+06 -2.885779E-09  1.442239E-09
       152  17 -2.345270E+06 -8.928580E+06 -2.218465E+06  1.750649E+04  1.968732E-09  1.488409E-08
       152  18 -1.664222E+06 -6.513640E+06 -1.618082E+06 -1.187756E+06 -3.644569E-09  3.460279E-08
       152  19  2.968672E+06  1.206223E+07  2.981732E+06 -1.354699E+06 -8.692613E+04 -1.442706E+05
       152  20  2.264436E+06  9.593848E+06  2.300835E+06 -1.510243E+05 -2.347440E+05 -3.119542E+04
       152  21  1.784613E+06  7.322371E+06  1.772657E+06 -1.391876E+06 -1.457897E+05  8.428106E+04
       152  22  7.357287E+04  3.806394E+05  1.035214E+05 -1.290025E+06 -8.754424E+04 -4.679977E+04
       152  23 -3.722877E+04  2.935565E+05  4.435838E+04 -6.624737E+04 -2.350940E+05 -2.084619E+04
       152  24  6.197045E+04  3.825817E+05  7.905326E+04 -1.289377E+06 -1.443056E+05  7.959891E+03
       152  25 -2.831632E+06 -1.117843E+07 -2.784733E+06 -1.226272E+06 -8.815005E+04  4.887236E+04
       152  26 -2.345211E+06 -8.928565E+06 -2.218360E+06  1.750852E+04 -2.354446E+05 -1.064824E+04
       152  27 -1.664198E+06 -6.513629E+06 -1.618035E+06 -1.187749E+06 -1.428378E+05 -6.751800E+04
       153   1  5.610580E+05  2.400477E+06  5.754775E+05 -1.327296E+06  5.581335E+04 -4.760537E+04
       153   2 -7.712019E+04  1.006231E+05  3.590667E+04 -6.145525E+04 -4.254686E+03 -1.011993E+05
       153   3 -5.347037E+05 -2.268935E+06 -4.510062E+05 -1.229822E+06 -6.312698E+04 -1.545223E+05
       153   4  4.816316E+04  3.402836E+05  7.387826E+04 -1.287207E+06  5.531195E+04 -2.530587E+04
       153   5 -7.870184E+03  3.776525E+05  1.036860E+05 -6.946618E+04 -4.729084E+03 -7.938602E+04
       153   6  1.170907E+05  3.402475E+05  1.867363E+05 -1.285715E+06 -6.358230E+04 -1.333910E+05
       153   7 -4.650410E+05 -1.716046E+06 -4.280270E+05 -1.247224E+06  5.481255E+04 -3.079865E+03
       153   8  6.137455E+04  6.547529E+05  1.714616E+05 -7.748032E+04 -5.203937E+03 -5.756300E+04
       153   9  7.683873E+05  2.955652E+06  8.239836E+05 -1.341804E+06 -6.404045E+04 -1.121699E+05
       153  10  5.610540E+05  2.400474E+06  5.754674E+05 -1.327294E+06 -9.209514E-10 -4.058700E-08
       153  11 -7.712296E+04  1.006121E+05  3.588739E+04 -6.145559E+04  2.443332E-09 -2.850099E-08
       153  12 -5.347144E+05 -2.268962E+06 -4.510588E+05 -1.229830E+06 -8.499859E-09 -1.660963E-08
       153  13  4.815971E+04  3.402821E+05  7.387132E+04 -1.287205E+06 -3.967921E-10  1.909281E-10
       153  14 -7.871899E+03  3.776457E+05  1.036742E+05 -6.946648E+04  1.160715E-08 -6.742428E-11
       153  15  1.170815E+05  3.402273E+05  1.866952E+05 -1.285722E+06  1.869292E-08 -3.576299E-08
       153  16 -4.650443E+05 -1.716047E+06 -4.280327E+05 -1.247224E+06 -9.005739E-10  1.816172E-08
       153  17  6.137363E+04  6.547493E+05  1.714553E+05 -7.748056E+04 -1.460942E-08  2.810884E-08
       153  18  7.683795E+05  2.955637E+06  8.239523E+05 -1.341810E+06 -4.092093E-09  3.839078E-08
       153  19  5.610580E+05  2.400477E+06  5.754775E+05 -1.327296E+06 -5.581335E+04  4.760537E+04
       153  20 -7.712019E+04  1.006231E+05  3.590667E+04 -6.145525E+04  4.254686E+03  1.011993E+05
       153  21 -5.347037E+05 -2.268935E+06 -4.510062E+05 -1.229822E+06  6.312698E+04  1.545223E+05
       153  22  4.816316E+04  3.402836E+05  7.387826E+04 -1.287207E+06 -5.531195E+04  2.530587E+04
       153  23 -7.870184E+03  3.776525E+05  1.036860E+05 -6.946618E+04  4.729084E+03  7.938602E+04
       153  24  1.170907E+05  3.402475E+05  1.867363E+05 -1.285715E+06  6.358230E+04  1.333910E+05
       153  25 -4.650410E+05 -1.716046E+06 -4.280270E+05 -1.247224E+06 -5.481255E+04  3.079865E+03
       153  26  6.137455E+04  6.547529E+05  1.714616E+05 -7.748032E+04  5.203937E+03  5.756300E+04
       153  27  7.683873E+05  2.955652E+06  8.239836E+05 -1.341804E+06  6.404045E+04  1.121699E+05
       154   1 -1.833633E+06 -7.014615E+06 -1.592892E+06 -1.242365E+06 -1.522285E+05 -2.509515E+05
       154   2 -2.588973E+06 -9.545609E+06 -2.068369E+06  4.918452E+04 -2.453154E+05 -3.454255E+05
       154   3 -2.427829E+06 -1.167864E+07 -2.222462E+06 -1.111331E+06 -9.090457E+04 -4.369446E+05
       154   4  2.779184E+04  4.319972E+05  2.390856E+05 -1.291342E+06 -1.536625E+05 -1.747632E+05
       154   5 -1.411748E+05  2.278687E+05  3.306287E+05 -6.562307E+04 -2.448840E+05 -3.598323E+05
       154   6  6.164052E+05  4.299267E+05  8.032544E+05 -1.289431E+06 -9.031095E+04 -5.423426E+05
       154   7  1.885092E+06  7.929453E+06  2.067002E+06 -1.340607E+06 -1.550995E+05 -9.764456E+04
       154   8  2.299535E+06  1.008921E+07  2.722613E+06 -1.820213E+05 -2.444521E+05 -3.744322E+05
       154   9  3.649640E+06  1.267312E+07  3.817964E+06 -1.470806E+06 -8.966524E+04 -6.497405E+05
       154  10 -1.833675E+06 -7.014690E+06 -1.593055E+06 -1.242396E+06  5.111043E-10 -3.217214E-08
       154  11 -2.589070E+06 -9.545755E+06 -2.068710E+06  4.911584E+04  2.327128E-09 -1.135902E-08
       154  12 -2.427891E+06 -1.167885E+07 -2.222843E+06 -1.111363E+06  3.769005E-10 -1.620764E-09
       154  13  2.775820E+04  4.319580E+05  2.389836E+05 -1.291363E+06 -1.228764E-08  4.346755E-12
       154  14 -1.412740E+05  2.277137E+05  3.302728E+05 -6.569401E+04  2.924251E-09 -1.181740E-11
       154  15  6.163174E+05  4.296088E+05  8.026862E+05 -1.289471E+06 -1.728985E-09 -2.679700E-09
       154  16  1.885064E+06  7.929436E+06  2.066939E+06 -1.340619E+06  5.381620E-09  1.331006E-08
       154  17  2.299434E+06  1.008904E+07  2.722241E+06 -1.820945E+05 -1.463728E-09  1.070407E-08
       154  18  3.649521E+06  1.267267E+07  3.817171E+06 -1.470852E+06 -3.324984E-09  3.266401E-09
       154  19 -1.833633E+06 -7.014615E+06 -1.592892E+06 -1.242365E+06  1.522285E+05  2.509515E+05
       154  20 -2.588973E+06 -9.545609E+06 -2.068369E+06  4.918452E+04  2.453154E+05  3.454255E+05
       154  21 -2.427829E+06 -1.167864E+07 -2.222462E+06 -1.111331E+06  9.090457E+04  4.369446E+05
       154  22  2.779184E+04  4.319972E+05  2.390856E+05 -1.291342E+06  1.536625E+05  1.747632E+05
       154  23 -1.411748E+05  2.278687E+05  3.306287E+05 -6.562307E+04  2.448840E+05  3.598323E+05
       154  24  6.164052E+05  4.299267E+05  8.032544E+05 -1.289431E+06  9.031095E+04  5.423426E+05
       154  25  1.885092E+06  7.929453E+06  2.067002E+06 -1.340607E+06  1.550995E+05  9.764456E+04
       154  26  2.299535E+06  1.008921E+07  2.722613E+06 -1.820213E+05  2.444521E+05  3.744322E+05
       154  27  3.649640E+06  1.267312E+07  3.817964E+06 -1.470806E+06  8.966524E+04  6.497405E+05
       155   1 -4.669409E+05 -2.072547E+05 -1.011977E+05 -2.122671E+05 -5.162982E+04 -1.694968E+04
       155   2 -4.405395E+05 -1.465702E+05 -5.552858E+04 -1.995235E+05 -3.089207E+04 -3.930843E+03
       155   3 -4.226718E+05 -1.159288E+05 -3.359745E+04 -1.855584E+05 -8.585401E+03  4.912622E+03
       155   4 -3.197732E+05 -1.206457E+05 -5.744596E+04 -1.395863E+05 -3.828056E+04 -1.194414E+04
       155   5 -3.132724E+05 -8.473707E+04 -2.726465E+04 -1.483417E+05 -2.588832E+04 -2.054548E+03
       155   6 -3.136492E+05 -7.721582E+04 -1.420403E+04 -1.558771E+05 -1.192820E+04  3.658405E+03
       155   7 -1.725842E+05 -3.402530E+04 -1.369622E+04 -6.688806E+04 -2.492814E+04 -6.935694E+03
       155   8 -1.859886E+05 -2.289892E+04  9.982941E+02 -9.714917E+04 -2.088351E+04 -1.775410E+02
       155   9 -2.046133E+05 -3.850146E+04  5.189270E+03 -1.261908E+05 -1.527165E+04  2.403954E+03
       155  10 -4.669438E+05 -2.072557E+05 -1.012032E+05 -2.122678E+05 -4.055413E-09 -6.708880E-10
       155  11 -4.405406E+05 -1.465704E+05 -5.553040E+04 -1.995236E+05 -3.710271E-09  2.562447E-09
       155  12 -4.226719E+05 -1.159289E+05 -3.359764E+04 -1.855583E+05 -2.844134E-09  3.592480E-09
       155  13 -3.197748E+05 -1.206462E+05 -5.744899E+04 -1.395866E+05 -2.496679E-09  1.040163E-09
       155  14 -3.132731E+05 -8.473725E+04 -2.726592E+04 -1.483417E+05  2.905731E-09  1.980644E-09
       155  15 -3.136494E+05 -7.721587E+04 -1.420433E+04 -1.558771E+05 -5.340589E-09  5.452949E-10
       155  16 -1.725849E+05 -3.402552E+04 -1.369748E+04 -6.688820E+04  1.493155E-09  2.207652E-09
       155  17 -1.859891E+05 -2.289904E+04  9.974742E+02 -9.714917E+04 -2.082413E-09  1.061523E-09
       155  18 -2.046135E+05 -3.850153E+04  5.188821E+03 -1.261908E+05 -5.343980E-09 -2.022139E-09
       155  19 -4.669409E+05 -2.072547E+05 -1.011977E+05 -2.122671E+05  5.162982E+04  1.694968E+04
       155  20 -4.405395E+05 -1.465702E+05 -5.552858E+04 -1.995235E+05  3.089207E+04  3.930843E+03
       155  21 -4.226718E+05 -1.159288E+05 -3.359745E+04 -1.855584E+05  8.585401E+03 -4.912622E+03
       155  22 -3.197732E+05 -1.206457E+05 -5.744596E+04 -1.395863E+05  3.828056E+04  1.194414E+04
       155  23 -3.132724E+05 -8.473707E+04 -2.726465E+04 -1.483417E+05  2.588832E+04  2.054548E+03
       155  24 -3.136492E+05 -7.721582E+04 -1.420403E+04 -1.558771E+05  1.192820E+04 -3.658405E+03
       155  25 -1.725842E+05 -3.402530E+04 -1.369622E+04 -6.688806E+04  2.492814E+04  6.935694E+03
       155  26 -1.859886E+05 -2.289892E+04  9.982941E+02 -9.714917E+04  2.088351E+04  1.775410E+02
       155  27 -2.046133E+05 -3.850146E+04  5.189270E+03 -1.261908E+05  1.527165E+04 -2.403954E+03
       156   1 -3.998189E+05 -1.097716E+05 -2.619254E+04 -1.816204E+05 -6.799011E+03  4.329381E+03
       156   2 -3.712168E+05 -9.356676E+04 -1.529842E+04 -1.705904E+05 -2.468231E+03  3.923093E+03
       156   3 -3.395216E+05 -8.354941E+04 -7.636198E+03 -1.641221E+05  2.027641E+03  3.077035E+03
       156   4 -3.120041E+05 -7.657480E+04 -1.057969E+04 -1.555364E+05 -9.918814E+03  3.158881E+03
       156   5 -3.134393E+05 -7.216699E+04 -5.517669E+03 -1.537806E+05 -6.466888E+03  2.423002E+03
       156   6 -3.116079E+05 -7.377246E+04 -2.990635E+03 -1.565868E+05 -2.850019E+03  1.247297E+03
       156   7 -2.241821E+05 -4.337740E+04  5.032667E+03 -1.294490E+05 -1.303905E+04  1.988199E+03
       156   8 -2.556582E+05 -5.076681E+04  4.263065E+03 -1.369692E+05 -1.046594E+04  9.227526E+02
       156   9 -2.836929E+05 -6.399530E+04  1.655100E+03 -1.490512E+05 -7.727968E+03 -5.825441E+02
       156  10 -3.998190E+05 -1.097717E+05 -2.619266E+04 -1.816204E+05  4.572616E-10  5.601009E-09
       156  11 -3.712168E+05 -9.356678E+04 -1.529846E+04 -1.705904E+05 -1.947526E-08 -4.644167E-09
       156  12 -3.395217E+05 -8.354942E+04 -7.636223E+03 -1.641221E+05 -4.750670E-08 -1.489317E-08
       156  13 -3.120042E+05 -7.657484E+04 -1.057989E+04 -1.555363E+05  7.349122E-10 -1.312572E-10
       156  14 -3.134393E+05 -7.216700E+04 -5.517759E+03 -1.537805E+05  1.277072E-08  5.554130E-10
       156  15 -3.116079E+05 -7.377246E+04 -2.990653E+03 -1.565868E+05  2.102645E-08  1.503444E-09
       156  16 -2.241823E+05 -4.337745E+04  5.032340E+03 -1.294490E+05 -8.307533E-09 -5.978080E-09
       156  17 -2.556583E+05 -5.076684E+04  4.262857E+03 -1.369692E+05  2.851948E-08  5.747574E-09
       156  18 -2.836930E+05 -6.399531E+04  1.654987E+03 -1.490512E+05  6.399163E-08  1.790436E-08
       156  19 -3.998189E+05 -1.097716E+05 -2.619254E+04 -1.816204E+05  6.799011E+03 -4.329381E+03
       156  20 -3.712168E+05 -9.356676E+04 -1.529842E+04 -1.705904E+05  2.468231E+03 -3.923093E+03
       156  21 -3.395216E+05 -8.354941E+04 -7.636198E+03 -1.641221E+05 -2.027641E+03 -3.077035E+03
       156  22 -3.120041E+05 -7.657480E+04 -1.057969E+04 -1.555364E+05  9.918814E+03 -3.158881E+03
       156  23 -3.134393E+05 -7.216699E+04 -5.517669E+03 -1.537806E+05  6.466888E+03 -2.423002E+03
       156  24 -3.116079E+05 -7.377246E+04 -2.990635E+03 -1.565868E+05  2.850019E+03 -1.247297E+03
       156  25 -2.241821E+05 -4.337740E+04  5.032667E+03 -1.294490E+05  1.303905E+04 -1.988199E+03
       156  26 -2.556582E+05 -5.076681E+04  4.263065E+03 -1.369692E+05  1.046594E+04 -9.227526E+02
       156  27 -2.836929E+05 -6.399530E+04  1.655100E+03 -1.490512E+05  7.727968E+03  5.825441E+02
       157   1 -3.198671E+05 -7.671475E+04 -3.663065E+03 -1.588258E+05  2.947116E+03  1.786926E+03
       157   2 -2.913528E+05 -6.349994E+04  2.174456E+03 -1.478137E+05  4.566355E+03 -4.018918E+02
       157   3 -2.586859E+05 -5.471644E+04  7.457042E+03 -1.417139E+05  6.202899E+03 -2.636745E+03
       157   4 -3.114535E+05 -7.374862E+04 -2.238016E+03 -1.565401E+05 -1.907218E+03 -3.404559E+01
       157   5 -3.135302E+05 -7.148088E+04 -1.215880E+03 -1.541069E+05 -3.801133E+02 -2.257465E+03
       157   6 -3.114369E+05 -7.362627E+04 -6.756702E+02 -1.565863E+05  1.164257E+03 -4.526928E+03
       157   7 -3.030398E+05 -7.078246E+04 -8.128693E+02 -1.542544E+05 -6.761619E+03 -1.855042E+03
       157   8 -3.357068E+05 -7.946169E+04 -4.606078E+03 -1.603998E+05 -5.326364E+03 -4.112955E+03
       157   9 -3.641842E+05 -9.253553E+04 -8.808139E+03 -1.714573E+05 -3.873874E+03 -6.416918E+03
       157  10 -3.198671E+05 -7.671476E+04 -3.663087E+03 -1.588258E+05  4.864525E-08  2.132610E-08
       157  11 -2.913528E+05 -6.349994E+04  2.174416E+03 -1.478137E+05  3.474210E-08  1.264878E-08
       157  12 -2.586859E+05 -5.471645E+04  7.456957E+03 -1.417139E+05  2.325892E-09 -1.055918E-09
       157  13 -3.114535E+05 -7.374862E+04 -2.238023E+03 -1.565401E+05  2.058763E-08  3.784835E-09
       157  14 -3.135302E+05 -7.148088E+04 -1.215889E+03 -1.541069E+05  2.399694E-08  6.942472E-09
       157  15 -3.114369E+05 -7.362629E+04 -6.757113E+02 -1.565863E+05  1.846527E-08  5.164831E-09
       157  16 -3.030398E+05 -7.078247E+04 -8.129618E+02 -1.542544E+05 -3.354725E-08 -1.390067E-08
       157  17 -3.357069E+05 -7.946172E+04 -4.606163E+03 -1.603998E+05 -9.369616E-09  8.968276E-10
       157  18 -3.641842E+05 -9.253558E+04 -8.808244E+03 -1.714573E+05  1.155993E-08  1.149461E-08
       157  19 -3.198671E+05 -7.671475E+04 -3.663065E+03 -1.588258E+05 -2.947116E+03 -1.786926E+03
       157  20 -2.913528E+05 -6.349994E+04  2.174456E+03 -1.478137E+05 -4.566355E+03  4.018918E+02
       157  21 -2.586859E+05 -5.471644E+04  7.457042E+03 -1.417139E+05 -6.202899E+03  2.636745E+03
       157  22 -3.114535E+05 -7.374862E+04 -2.238016E+03 -1.565401E+05  1.907218E+03  3.404559E+01
       157  23 -3.135302E+05 -7.148088E+04 -1.215880E+03 -1.541069E+05  3.801133E+02  2.257465E+03
       157  24 -3.114369E+05 -7.362627E+04 -6.756702E+02 -1.565863E+05 -1.164257E+03  4.526928E+03
       157  25 -3.030398E+05 -7.078246E+04 -8.128693E+02 -1.542544E+05  6.761619E+03  1.855042E+03
       157  26 -3.357068E+05 -7.946169E+04 -4.606078E+03 -1.603998E+05  5.326364E+03  4.112955E+03
       157  27 -3.641842E+05 -9.253553E+04 -8.808139E+03 -1.714573E+05  3.873874E+03  6.416918E+03
       158   1 -2.393199E+05 -4.780023E+04  1.078200E+04 -1.363120E+05  6.848523E+03 -4.069351E+03
       158   2 -2.108722E+05 -3.474530E+04  1.570263E+04 -1.252812E+05  7.949620E+03 -6.531330E+03
       158   3 -1.781527E+05 -2.599060E+04  2.050656E+04 -1.191691E+05  9.052047E+03 -8.996343E+03
       158   4 -3.114185E+05 -7.362977E+04 -5.122710E+02 -1.565770E+05  1.812685E+03 -5.958556E+03
       158   5 -3.135562E+05 -7.148646E+04 -2.994721E+02 -1.541154E+05  2.907466E+03 -8.423124E+03
       158   6 -3.114226E+05 -7.364265E+04 -1.986522E+02 -1.565732E+05  4.003567E+03 -1.089072E+04
       158   7 -3.835124E+05 -9.945908E+04 -1.180676E+04 -1.768401E+05 -3.222594E+03 -7.847551E+03
       158   8 -4.162295E+05 -1.082267E+05 -1.630182E+04 -1.829453E+05 -2.133836E+03 -1.031460E+04
       158   9 -4.446734E+05 -1.212928E+05 -2.090406E+04 -1.939697E+05 -1.043770E+03 -1.278467E+04
       158  10 -2.393199E+05 -4.780026E+04  1.078188E+04 -1.363120E+05  1.155302E-08 -1.072383E-10
       158  11 -2.108722E+05 -3.474536E+04  1.570243E+04 -1.252811E+05 -3.318941E-09 -5.422062E-09
       158  12 -1.781528E+05 -2.599071E+04  2.050626E+04 -1.191691E+05 -1.399244E-08 -6.430404E-09
       158  13 -3.114185E+05 -7.362981E+04 -5.123439E+02 -1.565770E+05  1.044694E-08  1.915415E-09
       158  14 -3.135563E+05 -7.148654E+04 -2.996213E+02 -1.541154E+05 -1.366618E-09 -1.950595E-09
       158  15 -3.114227E+05 -7.364278E+04 -1.989052E+02 -1.565732E+05 -9.713829E-09 -9.633681E-10
       158  16 -3.835124E+05 -9.945915E+04 -1.180690E+04 -1.768401E+05 -1.036591E-08  4.203868E-09
       158  17 -4.162296E+05 -1.082269E+05 -1.630203E+04 -1.829453E+05 -1.294203E-08  2.395597E-09
       158  18 -4.446734E+05 -1.212930E+05 -2.090437E+04 -1.939698E+05 -3.795761E-09  4.534754E-09
       158  19 -2.393199E+05 -4.780023E+04  1.078200E+04 -1.363120E+05 -6.848523E+03  4.069351E+03
       158  20 -2.108722E+05 -3.474530E+04  1.570263E+04 -1.252812E+05 -7.949620E+03  6.531330E+03
       158  21 -1.781527E+05 -2.599060E+04  2.050656E+04 -1.191691E+05 -9.052047E+03  8.996343E+03
       158  22 -3.114185E+05 -7.362977E+04 -5.122710E+02 -1.565770E+05 -1.812685E+03  5.958556E+03
       158  23 -3.135562E+05 -7.148646E+04 -2.994721E+02 -1.541154E+05 -2.907466E+03  8.423124E+03
       158  24 -3.114226E+05 -7.364265E+04 -1.986522E+02 -1.565732E+05 -4.003567E+03  1.089072E+04
       158  25 -3.835124E+05 -9.945908E+04 -1.180676E+04 -1.768401E+05  3.222594E+03  7.847551E+03
       158  26 -4.162295E+05 -1.082267E+05 -1.630182E+04 -1.829453E+05  2.133836E+03  1.031460E+04
       158  27 -4.446734E+05 -1.212928E+05 -2.090406E+04 -1.939697E+05  1.043770E+03  1.278467E+04
       159   1 -1.588291E+05 -1.906314E+04  2.368381E+04 -1.137602E+05  9.634697E+03 -1.045476E+04
       159   2 -1.304130E+05 -6.010643E+03  2.838689E+04 -1.027296E+05  1.064296E+04 -1.294914E+04
       159   3 -9.771160E+04  2.754143E+03  3.304433E+04 -9.661198E+04  1.164667E+04 -1.543054E+04
       159   4 -3.114231E+05 -7.364478E+04 -1.769820E+02 -1.565712E+05  4.586647E+03 -1.234914E+04
       159   5 -3.135649E+05 -7.150376E+04 -1.784240E+02 -1.541132E+05  5.620611E+03 -1.483424E+04
       159   6 -3.114275E+05 -7.365549E+04 -2.458075E+02 -1.565684E+05  6.650028E+03 -1.730637E+04
       159   7 -4.639902E+05 -1.282233E+05 -2.403756E+04 -1.993718E+05 -4.600333E+02 -1.424301E+04
       159   8 -4.966807E+05 -1.369933E+05 -2.874418E+04 -2.054826E+05  5.998280E+02 -1.671875E+04
       159   9 -5.250965E+05 -1.500613E+05 -3.353727E+04 -2.165062E+05  1.655143E+03 -1.918154E+04
       159  10 -1.588292E+05 -1.906328E+04  2.368343E+04 -1.137601E+05 -6.496198E-08 -2.367823E-08
       159  11 -1.304132E+05 -6.010854E+03  2.838636E+04 -1.027295E+05 -1.079705E-08 -2.935272E-09
       159  12 -9.771181E+04  2.753851E+03  3.304362E+04 -9.661184E+04  4.936392E-08  1.816441E-08
       159  13 -3.114232E+05 -7.364495E+04 -1.773081E+02 -1.565712E+05 -1.204007E-08 -1.282284E-09
       159  14 -3.135650E+05 -7.150400E+04 -1.788968E+02 -1.541132E+05 -1.408221E-08 -3.161182E-09
       159  15 -3.114276E+05 -7.365582E+04 -2.464533E+02 -1.565684E+05 -2.482363E-09 -2.726646E-09
       159  16 -4.639902E+05 -1.282235E+05 -2.403795E+04 -1.993718E+05  5.041123E-08  2.132566E-08
       159  17 -4.966808E+05 -1.369936E+05 -2.874471E+04 -2.054826E+05 -1.132119E-08 -4.035318E-09
       159  18 -5.250966E+05 -1.500617E+05 -3.353797E+04 -2.165061E+05 -5.762597E-08 -2.322149E-08
       159  19 -1.588291E+05 -1.906314E+04  2.368381E+04 -1.137602E+05 -9.634697E+03  1.045476E+04
       159  20 -1.304130E+05 -6.010643E+03  2.838689E+04 -1.027296E+05 -1.064296E+04  1.294914E+04
       159  21 -9.771160E+04  2.754143E+03  3.304433E+04 -9.661198E+04 -1.164667E+04  1.543054E+04
       159  22 -3.114231E+05 -7.364478E+04 -1.769820E+02 -1.565712E+05 -4.586647E+03  1.234914E+04
       159  23 -3.135649E+05 -7.150376E+04 -1.784240E+02 -1.541132E+05 -5.620611E+03  1.483424E+04
       159  24 -3.114275E+05 -7.365549E+04 -2.458075E+02 -1.565684E+05 -6.650028E+03  1.730637E+04
       159  25 -4.639902E+05 -1.282233E+05 -2.403756E+04 -1.993718E+05  4.600333E+02  1.424301E+04
       159  26 -4.966807E+05 -1.369933E+05 -2.874418E+04 -2.054826E+05 -5.998280E+02  1.671875E+04
       159  27 -5.250965E+05 -1.500613E+05 -3.353727E+04 -2.165062E+05 -1.655143E+03  1.918154E+04
       160   1 -7.840454E+04  9.681988E+03  3.615068E+04 -9.120986E+04  1.224530E+04 -1.687097E+04
       160   2 -5.002579E+04  2.273990E+04  4.073637E+04 -8.018317E+04  1.318385E+04 -1.930314E+04
       160   3 -1.736590E+04  3.151448E+04  4.530587E+04 -7.405255E+04  1.407739E+04 -2.161421E+04
       160   4 -3.114389E+05 -7.365545E+04 -3.080159E+02 -1.565690E+05  7.243682E+03 -1.874894E+04
       160   5 -3.135634E+05 -7.152360E+04 -5.284316E+02 -1.541095E+05  8.424083E+03 -2.109084E+04
       160   6 -3.114553E+05 -7.372325E+04 -9.566547E+02 -1.565466E+05  9.559454E+03 -2.331162E+04
       160   7 -5.444147E+05 -1.569872E+05 -3.676750E+04 -2.219051E+05  2.244052E+03 -2.062616E+04
       160   8 -5.770244E+05 -1.657792E+05 -4.179386E+04 -2.280058E+05  3.666479E+03 -2.287773E+04
       160   9 -6.054480E+05 -1.789506E+05 -4.721963E+04 -2.390028E+05  5.043834E+03 -2.500816E+04
       160  10 -7.840477E+04  9.681642E+03  3.614986E+04 -9.120970E+04 -5.176411E-10 -3.677755E-09
       160  11 -5.002608E+04  2.273945E+04  4.073534E+04 -8.018297E+04 -2.409646E-08 -1.401258E-08
       160  12 -1.736624E+04  3.151393E+04  4.530462E+04 -7.405230E+04 -6.325412E-08 -2.445985E-08
       160  13 -3.114391E+05 -7.365585E+04 -3.087749E+02 -1.565689E+05 -1.750885E-09 -2.360257E-09
       160  14 -3.135636E+05 -7.152409E+04 -5.294007E+02 -1.541093E+05 -2.799523E-09 -1.018039E-08
       160  15 -3.114555E+05 -7.372386E+04 -9.578474E+02 -1.565464E+05 -2.336090E-08 -2.476155E-08
       160  16 -5.444148E+05 -1.569876E+05 -3.676830E+04 -2.219050E+05  5.941582E-10  2.484569E-09
       160  17 -5.770246E+05 -1.657798E+05 -4.179487E+04 -2.280057E+05  2.391757E-08  1.248809E-08
       160  18 -6.054482E+05 -1.789513E+05 -4.722085E+04 -2.390027E+05  1.780455E-08  1.064419E-08
       160  19 -7.840454E+04  9.681988E+03  3.615068E+04 -9.120986E+04 -1.224530E+04  1.687097E+04
       160  20 -5.002579E+04  2.273990E+04  4.073637E+04 -8.018317E+04 -1.318385E+04  1.930314E+04
       160  21 -1.736590E+04  3.151448E+04  4.530587E+04 -7.405255E+04 -1.407739E+04  2.161421E+04
       160  22 -3.114389E+05 -7.365545E+04 -3.080159E+02 -1.565690E+05 -7.243682E+03  1.874894E+04
       160  23 -3.135634E+05 -7.152360E+04 -5.284316E+02 -1.541095E+05 -8.424083E+03  2.109084E+04
       160  24 -3.114553E+05 -7.372325E+04 -9.566547E+02 -1.565466E+05 -9.559454E+03  2.331162E+04
       160  25 -5.444147E+05 -1.569872E+05 -3.676750E+04 -2.219051E+05 -2.244052E+03  2.062616E+04
       160  26 -5.770244E+05 -1.657792E+05 -4.179386E+04 -2.280058E+05 -3.666479E+03  2.287773E+04
       160  27 -6.054480E+05 -1.789506E+05 -4.721963E+04 -2.390028E+05 -5.043834E+03  2.500816E+04
       161   1  1.968034E+03  3.843021E+04  4.830601E+04 -6.870871E+04  1.482276E+04 -2.289349E+04
       161   2  3.001256E+04  5.161807E+04  5.305421E+04 -5.738337E+04  1.437018E+04 -2.502360E+04
       161   3  6.231047E+04  6.030804E+04  5.853685E+04 -5.073782E+04  1.348946E+04 -2.601284E+04
       161   4 -3.115325E+05 -7.372399E+04 -1.273395E+03 -1.565501E+05  1.024584E+04 -2.461337E+04
       161   5 -3.135216E+05 -7.185042E+04 -2.344503E+03 -1.539857E+05  1.207453E+04 -2.588746E+04
       161   6 -3.117108E+05 -7.492753E+04 -4.489180E+03 -1.561020E+05  1.347504E+04 -2.602027E+04
       161   7 -6.249311E+05 -1.858695E+05 -5.085555E+04 -2.443509E+05  5.671318E+03 -2.633236E+04
       161   8 -6.569314E+05 -1.953074E+05 -5.774622E+04 -2.505384E+05  9.780220E+03 -2.675082E+04
       161   9 -6.855832E+05 -2.101488E+05 -6.751888E+04 -2.614067E+05  1.346063E+04 -2.602769E+04
       161  10  1.967657E+03  3.842959E+04  4.830461E+04 -6.870844E+04  2.924847E-08  1.341977E-08
       161  11  3.001217E+04  5.161734E+04  5.305265E+04 -5.738308E+04  2.782013E-08  1.669190E-08
       161  12  6.231009E+04  6.030726E+04  5.853523E+04 -5.073753E+04  1.175174E-08  9.580076E-09
       161  13 -3.115328E+05 -7.372467E+04 -1.274730E+03 -1.565499E+05 -2.084630E-08 -2.504670E-08
       161  14 -3.135220E+05 -7.185117E+04 -2.346036E+03 -1.539855E+05 -2.175547E-09 -1.007730E-08
       161  15 -3.117112E+05 -7.492831E+04 -4.490793E+03 -1.561018E+05  6.341250E-09 -6.748548E-10
       161  16 -6.249313E+05 -1.858702E+05 -5.085691E+04 -2.443508E+05 -7.371878E-08 -2.656848E-08
       161  17 -6.569316E+05 -1.953082E+05 -5.774774E+04 -2.505382E+05 -3.507865E-08 -1.590740E-08
       161  18 -6.855835E+05 -2.101496E+05 -6.752050E+04 -2.614065E+05 -7.740822E-09 -5.913064E-09
       161  19  1.968034E+03  3.843021E+04  4.830601E+04 -6.870871E+04 -1.482276E+04  2.289349E+04
       161  20  3.001256E+04  5.161807E+04  5.305421E+04 -5.738337E+04 -1.437018E+04  2.502360E+04
       161  21  6.231047E+04  6.030804E+04  5.853685E+04 -5.073782E+04 -1.348946E+04  2.601284E+04
       161  22 -3.115325E+05 -7.372399E+04 -1.273395E+03 -1.565501E+05 -1.024584E+04  2.461337E+04
       161  23 -3.135216E+05 -7.185042E+04 -2.344503E+03 -1.539857E+05 -1.207453E+04  2.588746E+04
       161  24 -3.117108E+05 -7.492753E+04 -4.489180E+03 -1.561020E+05 -1.347504E+04  2.602027E+04
       161  25 -6.249311E+05 -1.858695E+05 -5.085555E+04 -2.443509E+05 -5.671318E+03  2.633236E+04
       161  26 -6.569314E+05 -1.953074E+05 -5.774622E+04 -2.505384E+05 -9.780220E+03  2.675082E+04
       161  27 -6.855832E+05 -2.101488E+05 -6.751888E+04 -2.614067E+05 -1.346063E+04  2.602769E+04
       162   1  8.214879E+04  6.688119E+04  6.176751E+04 -4.604745E+04  1.493103E+04 -2.603948E+04
       162   2  1.052057E+05  8.179833E+04  7.172790E+04 -2.875594E+04 -2.649156E+03 -2.680395E+04
       162   3  1.315832E+05  8.705617E+04  9.158600E+04 -1.314837E+04 -2.429898E+04 -1.674632E+04
       162   4 -3.125156E+05 -7.509758E+04 -6.025428E+03 -1.561253E+05  1.433961E+04 -2.626375E+04
       162   5 -3.133364E+05 -7.732462E+04 -1.156700E+04 -1.518295E+05  1.840834E+04 -1.889438E+04
       162   6 -3.151285E+05 -9.350359E+04 -2.436690E+04 -1.492182E+05  1.840721E+04 -6.985714E+02
       162   7 -7.070138E+05 -2.170609E+05 -7.382256E+04 -2.661375E+05  1.374860E+04 -2.648786E+04
       162   8 -7.316885E+05 -2.364247E+05 -9.486622E+04 -2.748224E+05  3.945027E+04 -1.099123E+04
       162   9 -7.616263E+05 -2.740339E+05 -1.403247E+05 -2.851907E+05  6.107848E+04  1.533374E+04
       162  10  8.214837E+04  6.688041E+04  6.176582E+04 -4.604714E+04  1.288156E-07  5.185883E-08
       162  11  1.052055E+05  8.179756E+04  7.172654E+04 -2.875599E+04  1.068488E-08  9.158871E-09
       162  12  1.315825E+05  8.705571E+04  9.158436E+04 -1.314869E+04 -1.054636E-07 -3.885512E-08
       162  13 -3.125160E+05 -7.509838E+04 -6.027110E+03 -1.561250E+05  5.325450E-09  2.524353E-09
       162  14 -3.133369E+05 -7.732509E+04 -1.156830E+04 -1.518292E+05  6.689376E-09  8.175100E-09
       162  15 -3.151288E+05 -9.350368E+04 -2.436753E+04 -1.492182E+05  3.210651E-09  2.981632E-09
       162  16 -7.070141E+05 -2.170617E+05 -7.382423E+04 -2.661372E+05 -1.187491E-07 -4.428497E-08
       162  17 -7.316902E+05 -2.364253E+05 -9.486937E+04 -2.748220E+05  6.246240E-10  4.537896E-09
       162  18 -7.616304E+05 -2.740352E+05 -1.403322E+05 -2.851915E+05  1.108182E-07  4.328562E-08
       162  19  8.214879E+04  6.688119E+04  6.176751E+04 -4.604745E+04 -1.493103E+04  2.603948E+04
       162  20  1.052057E+05  8.179833E+04  7.172790E+04 -2.875594E+04  2.649156E+03  2.680395E+04
       162  21  1.315832E+05  8.705617E+04  9.158600E+04 -1.314837E+04  2.429898E+04  1.674632E+04
       162  22 -3.125156E+05 -7.509758E+04 -6.025428E+03 -1.561253E+05 -1.433961E+04  2.626375E+04
       162  23 -3.133364E+05 -7.732462E+04 -1.156700E+04 -1.518295E+05 -1.840834E+04  1.889438E+04
       162  24 -3.151285E+05 -9.350359E+04 -2.436690E+04 -1.492182E+05 -1.840721E+04  6.985714E+02
       162  25 -7.070138E+05 -2.170609E+05 -7.382256E+04 -2.661375E+05 -1.374860E+04  2.648786E+04
       162  26 -7.316885E+05 -2.364247E+05 -9.486622E+04 -2.748224E+05 -3.945027E+04  1.099123E+04
       162  27 -7.616263E+05 -2.740339E+05 -1.403247E+05 -2.851907E+05 -6.107848E+04 -1.533374E+04
       163   1 -2.502223E+05 -4.761017E+04 -7.424791E+04 -1.773702E+04 -7.997321E+04 -1.497662E+03
       163   2 -2.413308E+05  6.060215E+04 -9.238511E+03 -6.005461E+03 -5.309673E+04 -4.342782E+03
       163   3 -2.667519E+05  4.536888E+04  7.423095E+03  1.429394E+04 -2.622370E+04 -3.899829E+03
       163   4 -4.322024E+05 -9.301936E+04 -1.194152E+05  4.196289E+03 -8.157816E+04 -1.501619E+03
       163   5 -4.149293E+05  1.740108E+04 -5.164432E+04 -1.224221E+02 -5.352610E+04 -4.343726E+03
       163   6 -4.321836E+05  4.152236E+03 -3.304809E+04  4.126895E+03 -2.547708E+04 -3.898744E+03
       163   7 -6.141513E+05 -1.384292E+05 -1.645846E+05  2.612315E+04 -8.318264E+04 -1.505691E+03
       163   8 -5.885003E+05 -2.580208E+04 -9.405230E+04  5.758962E+03 -5.395535E+04 -4.344678E+03
       163   9 -5.975900E+05 -3.706605E+04 -7.352122E+04 -6.037436E+03 -2.473065E+04 -3.897685E+03
       163  10 -2.502292E+05 -4.761189E+04 -7.425994E+04 -1.773711E+04 -3.814219E-09  5.027691E-10
       163  11 -2.413338E+05  6.060138E+04 -9.243847E+03 -6.005647E+03  1.787416E-09 -1.760341E-10
       163  12 -2.667527E+05  4.536868E+04  7.421774E+03  1.429385E+04 -4.136143E-09 -1.143314E-09
       163  13 -4.322095E+05 -9.302115E+04 -1.194277E+05  4.196191E+03 -1.459011E-10  9.843705E-10
       163  14 -4.149324E+05  1.740029E+04 -5.164974E+04 -1.226094E+02 -6.900422E-09  4.223383E-10
       163  15 -4.321843E+05  4.152046E+03 -3.304934E+04  4.126815E+03  9.951649E-10  4.247216E-10
       163  16 -6.141588E+05 -1.384311E+05 -1.645976E+05  2.612305E+04 -8.790702E-10  4.144424E-10
       163  17 -5.885034E+05 -2.580288E+04 -9.405781E+04  5.758773E+03  3.209909E-09 -1.757670E-09
       163  18 -5.975906E+05 -3.706623E+04 -7.352240E+04 -6.037514E+03  1.285530E-09 -2.443066E-09
       163  19 -2.502223E+05 -4.761017E+04 -7.424791E+04 -1.773702E+04  7.997321E+04  1.497662E+03
       163  20 -2.413308E+05  6.060215E+04 -9.238511E+03 -6.005461E+03  5.309673E+04  4.342782E+03
       163  21 -2.667519E+05  4.536888E+04  7.423095E+03  1.429394E+04  2.622370E+04  3.899829E+03
       163  22 -4.322024E+05 -9.301936E+04 -1.194152E+05  4.196289E+03  8.157816E+04  1.501619E+03
       163  23 -4.149293E+05  1.740108E+04 -5.164432E+04 -1.224221E+02  5.352610E+04  4.343726E+03
       163  24 -4.321836E+05  4.152236E+03 -3.304809E+04  4.126895E+03  2.547708E+04  3.898744E+03
       163  25 -6.141513E+05 -1.384292E+05 -1.645846E+05  2.612315E+04  8.318264E+04  1.505691E+03
       163  26 -5.885003E+05 -2.580208E+04 -9.405230E+04  5.758962E+03  5.395535E+04  4.344678E+03
       163  27 -5.975900E+05 -3.706605E+04 -7.352122E+04 -6.037436E+03  2.473065E+04  3.897685E+03
       164   1 -2.777379E+05  2.503907E+04  9.061434E+03  1.788193E+03 -2.011970E+04 -3.227127E+03
       164   2 -2.840180E+05  3.687465E+04  2.061808E+04 -7.837950E+02 -1.329143E+04 -3.242107E+03
       164   3 -2.950916E+05  3.302976E+04  2.381141E+04  5.705429E+03 -6.463618E+03 -2.903737E+03
       164   4 -4.255845E+05 -1.177998E+04 -2.716203E+04  4.269434E+03 -2.018798E+04 -3.227332E+03
       164   5 -4.231744E+05  2.225064E+03 -1.342807E+04 -2.678574E+02 -1.323404E+04 -3.242100E+03
       164   6 -4.255809E+05  5.258779E+02 -8.146144E+03  4.256190E+03 -6.280460E+03 -2.903527E+03
       164   7 -5.734111E+05 -4.860062E+04 -6.338709E+04  6.750077E+03 -2.025624E+04 -3.227538E+03
       164   8 -5.623133E+05 -3.242595E+04 -4.747564E+04  2.479592E+02 -1.317666E+04 -3.242094E+03
       164   9 -5.560547E+05 -3.197926E+04 -4.010494E+04  2.807251E+03 -6.097341E+03 -2.903318E+03
       164  10 -2.777383E+05  2.503895E+04  9.060653E+03  1.788141E+03  1.631226E-10 -2.628362E-09
       164  11 -2.840181E+05  3.687459E+04  2.061773E+04 -7.838297E+02 -2.362593E-09  2.847260E-10
       164  12 -2.950917E+05  3.302974E+04  2.381131E+04  5.705414E+03 -2.515413E-09  1.412753E-09
       164  13 -4.255849E+05 -1.178010E+04 -2.716281E+04  4.269381E+03  2.159421E-09 -1.747409E-09
       164  14 -4.231746E+05  2.225006E+03 -1.342842E+04 -2.678920E+02 -6.178411E-10 -2.408821E-10
       164  15 -4.255810E+05  5.258583E+02 -8.146234E+03  4.256175E+03 -2.235422E-09 -1.480659E-09
       164  16 -5.734116E+05 -4.860074E+04 -6.338788E+04  6.750024E+03  3.360223E-10 -3.280562E-10
       164  17 -5.623135E+05 -3.242601E+04 -4.747599E+04  2.479248E+02  1.256098E-09  3.923709E-10
       164  18 -5.560548E+05 -3.197928E+04 -4.010503E+04  2.807237E+03  2.809530E-10  3.982676E-10
       164  19 -2.777379E+05  2.503907E+04  9.061434E+03  1.788193E+03  2.011970E+04  3.227127E+03
       164  20 -2.840180E+05  3.687465E+04  2.061808E+04 -7.837950E+02  1.329143E+04  3.242107E+03
       164  21 -2.950916E+05  3.302976E+04  2.381141E+04  5.705429E+03  6.463618E+03  2.903737E+03
       164  22 -4.255845E+05 -1.177998E+04 -2.716203E+04  4.269434E+03  2.018798E+04  3.227332E+03
       164  23 -4.231744E+05  2.225064E+03 -1.342807E+04 -2.678574E+02  1.323404E+04  3.242100E+03
       164  24 -4.255809E+05  5.258779E+02 -8.146144E+03  4.256190E+03  6.280460E+03  2.903527E+03
       164  25 -5.734111E+05 -4.860062E+04 -6.338709E+04  6.750077E+03  2.025624E+04  3.227538E+03
       164  26 -5.623133E+05 -3.242595E+04 -4.747564E+04  2.479592E+02  1.317666E+04  3.242094E+03
       164  27 -5.560547E+05 -3.197926E+04 -4.010494E+04  2.807251E+03  6.097341E+03  2.903318E+03
       165   1 -3.126192E+05  2.642892E+04  2.095061E+04  4.177103E+03 -5.076272E+03 -2.663636E+03
       165   2 -3.212815E+05  2.593982E+04  2.175400E+04 -3.108439E+02 -3.343488E+03 -2.372599E+03
       165   3 -3.306702E+05  2.348931E+04  2.093636E+04  4.626127E+03 -1.610876E+03 -2.038936E+03
       165   4 -4.246718E+05 -1.470276E+03 -6.451087E+03  4.342882E+03 -4.979446E+03 -2.663539E+03
       165   5 -4.243069E+05  2.839371E+02 -3.457940E+03 -3.706806E+02 -3.231606E+03 -2.372465E+03
       165   6 -4.246711E+05  7.393066E+01 -2.096503E+03  4.340777E+03 -1.483913E+03 -2.038763E+03
       165   7 -5.367130E+05 -2.937040E+04 -3.385371E+04  4.508626E+03 -4.882637E+03 -2.663442E+03
       165   8 -5.273225E+05 -2.537273E+04 -2.867066E+04 -4.305108E+02 -3.119743E+03 -2.372331E+03
       165   9 -5.186639E+05 -2.334211E+04 -2.513001E+04  4.055467E+03 -1.356969E+03 -2.038590E+03
       165  10 -3.126192E+05  2.642891E+04  2.095055E+04  4.177093E+03  3.425753E-10  2.393820E-09
       165  11 -3.212816E+05  2.593981E+04  2.175397E+04 -3.108503E+02 -7.719129E-10  1.143195E-09
       165  12 -3.306702E+05  2.348931E+04  2.093634E+04  4.626125E+03  3.480770E-09 -1.952201E-09
       165  13 -4.246718E+05 -1.470290E+03 -6.451147E+03  4.342871E+03 -1.845109E-09 -1.549147E-09
       165  14 -4.243069E+05  2.839283E+02 -3.457970E+03 -3.706868E+02  2.457858E-09  2.100048E-09
       165  15 -4.246711E+05  7.392560E+01 -2.096515E+03  4.340775E+03  9.862624E-10  2.607810E-09
       165  16 -5.367130E+05 -2.937042E+04 -3.385376E+04  4.508615E+03  1.180926E-09  1.344053E-09
       165  17 -5.273225E+05 -2.537274E+04 -2.867069E+04 -4.305167E+02 -7.828175E-09  2.928425E-09
       165  18 -5.186639E+05 -2.334211E+04 -2.513002E+04  4.055465E+03 -1.074518E-08  1.811537E-09
       165  19 -3.126192E+05  2.642892E+04  2.095061E+04  4.177103E+03  5.076272E+03  2.663636E+03
       165  20 -3.212815E+05  2.593982E+04  2.175400E+04 -3.108439E+02  3.343488E+03  2.372599E+03
       165  21 -3.306702E+05  2.348931E+04  2.093636E+04  4.626127E+03  1.610876E+03  2.038936E+03
       165  22 -4.246718E+05 -1.470276E+03 -6.451087E+03  4.342882E+03  4.979446E+03  2.663539E+03
       165  23 -4.243069E+05  2.839371E+02 -3.457940E+03 -3.706806E+02  3.231606E+03  2.372465E+03
       165  24 -4.246711E+05  7.393066E+01 -2.096503E+03  4.340777E+03  1.483913E+03  2.038763E+03
       165  25 -5.367130E+05 -2.937040E+04 -3.385371E+04  4.508626E+03  4.882637E+03  2.663442E+03
       165  26 -5.273225E+05 -2.537273E+04 -2.867066E+04 -4.305108E+02  3.119743E+03  2.372331E+03
       165  27 -5.186639E+05 -2.334211E+04 -2.513001E+04  4.055467E+03  1.356969E+03  2.038590E+03
       166   1 -3.496038E+05  1.848785E+04  1.663999E+04  4.459984E+03 -1.263055E+03 -1.839467E+03
       166   2 -3.587952E+05  1.639380E+04  1.500887E+04 -3.632224E+02 -7.362245E+02 -1.508594E+03
       166   3 -3.681462E+05  1.405311E+04  1.296682E+04  4.493656E+03 -2.094819E+02 -1.170051E+03
       166   4 -4.245437E+05 -1.690335E+02 -1.672320E+03  4.398362E+03 -1.145575E+03 -1.839298E+03
       166   5 -4.244635E+05  4.015169E+01 -1.062023E+03 -4.418459E+02 -6.160420E+02 -1.508411E+03
       166   6 -4.245435E+05  2.178381E+00 -8.645991E+02  4.398095E+03 -8.658923E+01 -1.169852E+03
       166   7 -4.994785E+05 -1.882634E+04 -1.998504E+04  4.336746E+03 -1.028109E+03 -1.839130E+03
       166   8 -4.901278E+05 -1.631382E+04 -1.713323E+04 -5.204627E+02 -4.958722E+02 -1.508228E+03
       166   9 -4.809380E+05 -1.404899E+04 -1.469625E+04  4.302541E+03  3.629225E+01 -1.169654E+03
       166  10 -3.496038E+05  1.848785E+04  1.663998E+04  4.459982E+03 -9.024778E-12 -6.087586E-10
       166  11 -3.587952E+05  1.639380E+04  1.500887E+04 -3.632233E+02 -4.339287E-10  6.040529E-09
       166  12 -3.681462E+05  1.405311E+04  1.296682E+04  4.493656E+03  4.148577E-10  3.477626E-09
       166  13 -4.245437E+05 -1.690375E+02 -1.672329E+03  4.398360E+03 -6.466187E-09  2.686165E-10
       166  14 -4.244635E+05  4.014914E+01 -1.062028E+03 -4.418467E+02 -3.327477E-09  4.471125E-09
       166  15 -4.245435E+05  2.176910E+00 -8.646017E+02  4.398095E+03 -1.632760E-09 -6.665721E-10
       166  16 -4.994785E+05 -1.882634E+04 -1.998505E+04  4.336745E+03 -1.647168E-09  1.451992E-09
       166  17 -4.901278E+05 -1.631382E+04 -1.713324E+04 -5.204633E+02 -1.528413E-09  7.060667E-13
       166  18 -4.809380E+05 -1.404899E+04 -1.469625E+04  4.302541E+03 -1.819651E-09 -2.228973E-09
       166  19 -3.496038E+05  1.848785E+04  1.663999E+04  4.459984E+03  1.263055E+03  1.839467E+03
       166  20 -3.587952E+05  1.639380E+04  1.500887E+04 -3.632224E+02  7.362245E+02  1.508594E+03
       166  21 -3.681462E+05  1.405311E+04  1.296682E+04  4.493656E+03  2.094819E+02  1.170051E+03
       166  22 -4.245437E+05 -1.690335E+02 -1.672320E+03  4.398362E+03  1.145575E+03  1.839298E+03
       166  23 -4.244635E+05  4.015169E+01 -1.062023E+03 -4.418459E+02  6.160420E+02  1.508411E+03
       166  24 -4.245435E+05  2.178381E+00 -8.645991E+02  4.398095E+03  8.658923E+01  1.169852E+03
       166  25 -4.994785E+05 -1.882634E+04 -1.998504E+04  4.336746E+03  1.028109E+03  1.839130E+03
       166  26 -4.901278E+05 -1.631382E+04 -1.713323E+04 -5.204627E+02  4.958722E+02  1.508228E+03
       166  27 -4.809380E+05 -1.404899E+04 -1.469625E+04  4.302541E+03 -3.629225E+01  1.169654E+03
       167   1 -3.876065E+05  9.193558E+03  8.149506E+03  4.452830E+03 -5.337874E+01 -9.712969E+02
       167   2 -3.969288E+05  6.896475E+03  5.696714E+03 -4.458414E+02  4.658694E+02 -6.309037E+02
       167   3 -4.064187E+05  4.360997E+03  2.837652E+03  4.478998E+03  9.850915E+02 -2.904806E+02
       167   4 -4.245446E+05  4.093011E-01 -8.615470E+02  4.429958E+03  6.878183E+01 -9.710941E+02
       167   5 -4.244609E+05  3.986191E+01 -1.041396E+03 -4.816719E+02  5.880195E+02 -6.306966E+02
       167   6 -4.245447E+05 -1.590431E+02 -1.627477E+03  4.430235E+03  1.107239E+03 -2.902689E+02
       167   7 -4.614815E+05 -9.192840E+03 -9.872699E+03  4.407088E+03  1.909352E+02 -9.708913E+02
       167   8 -4.519922E+05 -6.816807E+03 -7.779562E+03 -5.175011E+02  7.101641E+02 -6.304895E+02
       167   9 -4.426704E+05 -4.679108E+03 -6.092630E+03  4.381474E+03  1.229383E+03 -2.900573E+02
       167  10 -3.876065E+05  9.193557E+03  8.149504E+03  4.452830E+03 -2.152485E-09  4.521665E-10
       167  11 -3.969288E+05  6.896474E+03  5.696713E+03 -4.458411E+02 -4.156425E-09  5.119342E-10
       167  12 -4.064187E+05  4.360997E+03  2.837650E+03  4.478998E+03  1.275551E-09 -2.897850E-09
       167  13 -4.245446E+05  4.082873E-01 -8.615487E+02  4.429958E+03  1.826271E-09  3.540183E-09
       167  14 -4.244609E+05  3.986139E+01 -1.041398E+03 -4.816716E+02  4.734808E-12  1.899336E-09
       167  15 -4.245447E+05 -1.590435E+02 -1.627479E+03  4.430235E+03 -4.353681E-09 -3.202798E-09
       167  16 -4.614815E+05 -9.192841E+03 -9.872701E+03  4.407088E+03 -2.942133E-09  1.110312E-09
       167  17 -4.519922E+05 -6.816808E+03 -7.779564E+03 -5.175008E+02  1.885797E-09  7.728951E-10
       167  18 -4.426704E+05 -4.679108E+03 -6.092633E+03  4.381474E+03  4.201845E-11 -3.130997E-09
       167  19 -3.876065E+05  9.193558E+03  8.149506E+03  4.452830E+03  5.337874E+01  9.712969E+02
       167  20 -3.969288E+05  6.896475E+03  5.696714E+03 -4.458414E+02 -4.658694E+02  6.309037E+02
       167  21 -4.064187E+05  4.360997E+03  2.837652E+03  4.478998E+03 -9.850915E+02  2.904806E+02
       167  22 -4.245446E+05  4.093010E-01 -8.615470E+02  4.429958E+03 -6.878183E+01  9.710941E+02
       167  23 -4.244609E+05  3.986191E+01 -1.041396E+03 -4.816719E+02 -5.880195E+02  6.306966E+02
       167  24 -4.245447E+05 -1.590431E+02 -1.627477E+03  4.430235E+03 -1.107239E+03  2.902689E+02
       167  25 -4.614815E+05 -9.192840E+03 -9.872699E+03  4.407088E+03 -1.909352E+02  9.708913E+02
       167  26 -4.519922E+05 -6.816807E+03 -7.779562E+03 -5.175011E+02 -7.101641E+02  6.304895E+02
       167  27 -4.426704E+05 -4.679108E+03 -6.092630E+03  4.381474E+03 -1.229383E+03  2.900573E+02
       168   1 -4.261703E+05 -3.054776E+02 -2.433874E+03  4.260925E+03  1.309385E+03 -8.754929E+01
       168   2 -4.352325E+05 -2.444558E+03 -6.025793E+03 -4.542269E+02  3.010790E+03  2.579699E+02
       168   3 -4.450331E+05 -6.481346E+03 -1.120926E+04  4.680640E+03  4.712212E+03  5.828546E+02
       168   4 -4.246711E+05  7.446577E+01 -2.037690E+03  4.435079E+03  1.436368E+03 -8.732777E+01
       168   5 -4.243029E+05  2.771363E+02 -3.351343E+03 -4.886417E+02  3.130376E+03  2.581761E+02
       168   6 -4.246718E+05 -1.416583E+03 -6.251361E+03  4.437648E+03  4.824426E+03  5.830447E+02
       168   7 -4.231719E+05  4.544091E+02 -1.641506E+03  4.609235E+03  1.563351E+03 -8.710619E+01
       168   8 -4.133731E+05  2.998821E+03 -6.769028E+02 -5.230571E+02  3.249963E+03  2.583822E+02
       168   9 -4.043100E+05  3.648149E+03 -1.293495E+03  4.194647E+03  4.936644E+03  5.832347E+02
       168  10 -4.261703E+05 -3.054780E+02 -2.433877E+03  4.260925E+03 -5.481556E-09 -3.354130E-10
       168  11 -4.352325E+05 -2.444560E+03 -6.025810E+03 -4.542276E+02 -1.116334E-09  1.152716E-09
       168  12 -4.450332E+05 -6.481353E+03 -1.120930E+04  4.680638E+03  1.113806E-09 -2.249390E-11
       168  13 -4.246711E+05  7.446521E+01 -2.037694E+03  4.435079E+03 -2.134430E-09 -1.074520E-09
       168  14 -4.243029E+05  2.771336E+02 -3.351362E+03 -4.886423E+02 -3.084351E-09  2.608765E-09
       168  15 -4.246718E+05 -1.416590E+03 -6.251406E+03  4.437645E+03 -3.841017E-09  3.296640E-10
       168  16 -4.231719E+05  4.544084E+02 -1.641510E+03  4.609235E+03  5.652877E-09 -1.218072E-10
       168  17 -4.133731E+05  2.998819E+03 -6.769228E+02 -5.230577E+02  1.526377E-09 -3.154297E-09
       168  18 -4.043101E+05  3.648142E+03 -1.293542E+03  4.194645E+03 -8.571373E-10 -1.027684E-09
       168  19 -4.261703E+05 -3.054776E+02 -2.433874E+03  4.260925E+03 -1.309385E+03  8.754929E+01
       168  20 -4.352325E+05 -2.444558E+03 -6.025793E+03 -4.542269E+02 -3.010790E+03 -2.579699E+02
       168  21 -4.450331E+05 -6.481346E+03 -1.120926E+04  4.680640E+03 -4.712212E+03 -5.828546E+02
       168  22 -4.246711E+05  7.446577E+01 -2.037690E+03  4.435079E+03 -1.436368E+03  8.732777E+01
       168  23 -4.243029E+05  2.771363E+02 -3.351343E+03 -4.886417E+02 -3.130376E+03 -2.581761E+02
       168  24 -4.246718E+05 -1.416583E+03 -6.251361E+03  4.437648E+03 -4.824426E+03 -5.830447E+02
       168  25 -4.231719E+05  4.544091E+02 -1.641506E+03  4.609235E+03 -1.563351E+03  8.710619E+01
       168  26 -4.133731E+05  2.998821E+03 -6.769028E+02 -5.230571E+02 -3.249963E+03 -2.583822E+02
       168  27 -4.043100E+05  3.648149E+03 -1.293495E+03  4.194647E+03 -4.936644E+03 -5.832347E+02
       169   1 -4.654711E+05 -9.436285E+03 -1.769097E+04  3.079634E+03  5.925480E+03  8.119980E+02
       169   2 -4.724594E+05 -1.010587E+04 -2.505695E+04  9.196991E+01  1.272998E+04  1.170116E+03
       169   3 -4.841742E+05 -2.599155E+04 -4.066677E+04  6.874808E+03  1.953461E+04  1.334286E+03
       169   4 -4.255554E+05  5.155842E+02 -7.893873E+03  4.411863E+03  6.085358E+03  8.122800E+02
       169   5 -4.231999E+05  2.158831E+03 -1.300564E+04 -4.636691E+02  1.282054E+04  1.170248E+03
       169   6 -4.255588E+05 -1.140132E+04 -2.631259E+04  4.431309E+03  1.955596E+04  1.334233E+03
       169   7 -3.856382E+05  1.046734E+04  1.903103E+03  5.744177E+03  6.245245E+03  8.125627E+02
       169   8 -3.739383E+05  1.442335E+04 -9.545085E+02 -1.019353E+03  1.291111E+04  1.170380E+03
       169   9 -3.669402E+05  3.188679E+03 -1.195866E+04  1.987577E+03  1.957731E+04  1.334181E+03
       169  10 -4.654712E+05 -9.436295E+03 -1.769103E+04  3.079630E+03 -3.918576E-09  1.510641E-09
       169  11 -4.724595E+05 -1.010592E+04 -2.505726E+04  9.195791E+01 -1.361140E-09  1.969305E-09
       169  12 -4.841746E+05 -2.599165E+04 -4.066749E+04  6.874787E+03  5.977860E-09  3.505297E-09
       169  13 -4.255554E+05  5.155735E+02 -7.893944E+03  4.411859E+03  5.486984E-12  1.050606E-10
       169  14 -4.232001E+05  2.158785E+03 -1.300595E+04 -4.636812E+02 -1.974016E-09  2.711683E-09
       169  15 -4.255592E+05 -1.140142E+04 -2.631331E+04  4.431288E+03 -1.021971E-09  2.463157E-10
       169  16 -3.856382E+05  1.046733E+04  1.903028E+03  5.744173E+03  9.933973E-10 -4.699640E-10
       169  17 -3.739385E+05  1.442331E+04 -9.548245E+02 -1.019365E+03 -1.062023E-09 -1.094141E-09
       169  18 -3.669406E+05  3.188575E+03 -1.195938E+04  1.987556E+03 -2.146222E-09 -1.809341E-09
       169  19 -4.654711E+05 -9.436285E+03 -1.769097E+04  3.079634E+03 -5.925480E+03 -8.119980E+02
       169  20 -4.724594E+05 -1.010587E+04 -2.505695E+04  9.196991E+01 -1.272998E+04 -1.170116E+03
       169  21 -4.841742E+05 -2.599155E+04 -4.066677E+04  6.874808E+03 -1.953461E+04 -1.334286E+03
       169  22 -4.255554E+05  5.155842E+02 -7.893873E+03  4.411863E+03 -6.085358E+03 -8.122800E+02
       169  23 -4.231999E+05  2.158831E+03 -1.300564E+04 -4.636691E+02 -1.282054E+04 -1.170248E+03
       169  24 -4.255588E+05 -1.140132E+04 -2.631259E+04  4.431309E+03 -1.955596E+04 -1.334233E+03
       169  25 -3.856382E+05  1.046734E+04  1.903103E+03  5.744177E+03 -6.245245E+03 -8.125627E+02
       169  26 -3.739383E+05  1.442335E+04 -9.545085E+02 -1.019353E+03 -1.291111E+04 -1.170380E+03
       169  27 -3.669402E+05  3.188679E+03 -1.195866E+04  1.987577E+03 -1.957731E+04 -1.334181E+03
       170   1 -5.097969E+05 -1.539536E+04 -5.107917E+04 -5.479457E+03  2.420654E+04  1.807697E+03
       170   2 -5.021994E+05 -4.773798E+03 -7.126906E+04  5.296680E+03  5.202793E+04  2.250867E+03
       170   3 -5.282309E+05 -1.140642E+05 -1.395630E+05  2.570706E+04  7.985222E+04  8.722949E+02
       170   4 -4.319539E+05  4.031369E+03 -3.201487E+04  4.342575E+03  2.468004E+04  1.808816E+03
       170   5 -4.152076E+05  1.686154E+04 -5.002282E+04 -4.060038E+02  5.184890E+04  2.250090E+03
       170   6 -4.319724E+05 -9.009864E+04 -1.156766E+05  4.479958E+03  7.902109E+04  8.683401E+02
       170   7 -3.541053E+05  2.345801E+04 -1.295097E+04  1.416584E+04  2.515359E+04  1.809950E+03
       170   8 -3.282089E+05  3.849644E+04 -2.877711E+04 -6.109491E+03  5.166983E+04  2.249316E+03
       170   9 -3.357044E+05 -6.613212E+04 -9.179064E+04 -1.675044E+04  7.818983E+04  8.644427E+02
       170  10 -5.097975E+05 -1.539552E+04 -5.108028E+04 -5.479492E+03 -1.386528E-09  2.365986E-09
       170  11 -5.022023E+05 -4.774531E+03 -7.127416E+04  5.296586E+03 -4.548130E-09 -7.866776E-10
       170  12 -5.282377E+05 -1.140659E+05 -1.395750E+05  2.570700E+04 -7.058986E-10 -5.862373E-10
       170  13 -4.319546E+05  4.031202E+03 -3.201603E+04  4.342539E+03  1.859675E-09  2.882365E-09
       170  14 -4.152105E+05  1.686081E+04 -5.002788E+04 -4.060978E+02 -5.151975E-10 -2.294749E-09
       170  15 -4.319791E+05 -9.010032E+04 -1.156884E+05  4.479902E+03 -1.951377E-09  9.123814E-10
       170  16 -3.541059E+05  2.345783E+04 -1.295216E+04  1.416580E+04 -4.937298E-09  1.468636E-09
       170  17 -3.282117E+05  3.849572E+04 -2.878214E+04 -6.109585E+03 -4.008681E-09  1.786766E-09
       170  18 -3.357110E+05 -6.613376E+04 -9.180214E+04 -1.675049E+04 -1.052568E-09 -4.985605E-11
       170  19 -5.097969E+05 -1.539536E+04 -5.107917E+04 -5.479457E+03 -2.420654E+04 -1.807697E+03
       170  20 -5.021994E+05 -4.773798E+03 -7.126906E+04  5.296680E+03 -5.202793E+04 -2.250867E+03
       170  21 -5.282309E+05 -1.140642E+05 -1.395630E+05  2.570706E+04 -7.985222E+04 -8.722949E+02
       170  22 -4.319539E+05  4.031369E+03 -3.201487E+04  4.342575E+03 -2.468004E+04 -1.808816E+03
       170  23 -4.152076E+05  1.686154E+04 -5.002282E+04 -4.060038E+02 -5.184890E+04 -2.250090E+03
       170  24 -4.319724E+05 -9.009864E+04 -1.156766E+05  4.479958E+03 -7.902109E+04 -8.683401E+02
       170  25 -3.541053E+05  2.345801E+04 -1.295097E+04  1.416584E+04 -2.515359E+04 -1.809950E+03
       170  26 -3.282089E+05  3.849644E+04 -2.877711E+04 -6.109491E+03 -5.166983E+04 -2.249316E+03
       170  27 -3.357044E+05 -6.613212E+04 -9.179064E+04 -1.675044E+04 -7.818983E+04 -8.644427E+02
       171   1  1.680066E+05  9.380591E+05  1.791674E+05 -9.189910E+04  4.799568E+03  6.163828E+04
       171   2  7.882641E+04  8.309551E+05  1.109218E+05 -5.214055E+04  1.396289E+04  3.127884E+04
       171   3  5.300620E+04  7.435984E+05  7.825474E+04 -5.319844E+04  1.147190E+04  9.151413E+02
       171   4  6.291504E+04  5.153195E+05  7.636464E+04 -6.196255E+04  4.812998E+03  4.831568E+04
       171   5 -6.656317E+02  5.063592E+05  3.791986E+04 -4.158184E+04  1.396648E+04  2.832834E+04
       171   6 -2.666456E+03  5.153528E+05  2.787168E+04 -6.201571E+04  1.146483E+04  8.331864E+03
       171   7 -4.218624E+04  9.274499E+04 -2.644994E+04 -3.204637E+04  4.825151E+03  3.500211E+04
       171   8 -8.016446E+04  1.818614E+05 -3.508868E+04 -3.102868E+04  1.396998E+04  2.537937E+04
       171   9 -5.834229E+04  2.871561E+05 -2.251434E+04 -7.082969E+04  1.145754E+04  1.574589E+04
       171  10  1.680056E+05  9.380551E+05  1.791602E+05 -9.189933E+04 -4.558016E-10  1.227015E-09
       171  11  7.882594E+04  8.309540E+05  1.109196E+05 -5.214090E+04  1.531164E-09 -4.779994E-09
       171  12  5.300606E+04  7.435984E+05  7.825449E+04 -5.319845E+04  1.943631E-09 -6.108449E-09
       171  13  6.291439E+04  5.153170E+05  7.636021E+04 -6.196273E+04  1.086002E-09 -9.215159E-10
       171  14 -6.660565E+02  5.063583E+05  3.791799E+04 -4.158216E+04  2.146449E-09  6.304264E-10
       171  15 -2.666615E+03  5.153527E+05  2.787130E+04 -6.201579E+04 -3.962258E-09  5.221419E-11
       171  16 -4.218660E+04  9.274366E+04 -2.645229E+04 -3.204651E+04  2.781435E-09 -1.086463E-09
       171  17 -8.016484E+04  1.818607E+05 -3.509026E+04 -3.102897E+04  9.072399E-10  1.862201E-09
       171  18 -5.834250E+04  2.871558E+05 -2.251505E+04 -7.082984E+04 -3.370145E-09  6.110023E-09
       171  19  1.680066E+05  9.380591E+05  1.791674E+05 -9.189910E+04 -4.799568E+03 -6.163828E+04
       171  20  7.882641E+04  8.309551E+05  1.109218E+05 -5.214055E+04 -1.396289E+04 -3.127884E+04
       171  21  5.300620E+04  7.435984E+05  7.825474E+04 -5.319844E+04 -1.147190E+04 -9.151413E+02
       171  22  6.291504E+04  5.153195E+05  7.636464E+04 -6.196255E+04 -4.812998E+03 -4.831568E+04
       171  23 -6.656317E+02  5.063592E+05  3.791986E+04 -4.158184E+04 -1.396648E+04 -2.832834E+04
       171  24 -2.666456E+03  5.153528E+05  2.787168E+04 -6.201571E+04 -1.146483E+04 -8.331864E+03
       171  25 -4.218624E+04  9.274499E+04 -2.644994E+04 -3.204637E+04 -4.825151E+03 -3.500211E+04
       171  26 -8.016446E+04  1.818614E+05 -3.508868E+04 -3.102868E+04 -1.396998E+04 -2.537937E+04
       171  27 -5.834229E+04  2.871561E+05 -2.251434E+04 -7.082969E+04 -1.145754E+04 -1.574589E+04
       172   1  3.926417E+04  6.598536E+05  5.908926E+04 -6.491684E+04  7.213953E+03 -2.311972E+02
       172   2  1.198156E+04  5.605695E+05  3.822292E+04 -4.118296E+04  2.561567E+03 -1.395185E+04
       172   3 -3.731291E+03  4.658762E+05  2.915362E+04 -5.869426E+04 -2.203239E+03 -2.767095E+04
       172   4  3.247670E+03  5.123815E+05  2.641525E+04 -6.209760E+04  7.209853E+03  3.865099E+03
       172   5 -3.329956E+02  5.100997E+05  2.708581E+04 -4.147288E+04  2.557261E+03 -9.754545E+03
       172   6  7.639524E+03  5.123822E+05  3.948415E+04 -6.209306E+04 -2.207654E+03 -2.337471E+04
       172   7 -3.277026E+04  3.649297E+05 -6.260037E+03 -5.927903E+04  7.205791E+03  7.960434E+03
       172   8 -1.264771E+04  4.596324E+05  1.594861E+04 -4.176278E+04  2.552950E+03 -5.557572E+03
       172   9  1.901025E+04  5.588903E+05  4.981462E+04 -6.549211E+04 -2.212116E+03 -1.907814E+04
       172  10  3.926412E+04  6.598536E+05  5.908916E+04 -6.491684E+04  1.635967E-10 -2.692980E-09
       172  11  1.198150E+04  5.605693E+05  3.822254E+04 -4.118293E+04  9.449489E-10 -6.804534E-09
       172  12 -3.731501E+03  4.658754E+05  2.915217E+04 -5.869431E+04 -2.165667E-09 -4.547440E-09
       172  13  3.247610E+03  5.123815E+05  2.641512E+04 -6.209762E+04 -1.817590E-09 -9.636285E-10
       172  14 -3.330281E+02  5.100996E+05  2.708562E+04 -4.147286E+04  3.219551E-09  6.403194E-10
       172  15  7.639372E+03  5.123816E+05  3.948311E+04 -6.209310E+04  5.482522E-09  2.044846E-11
       172  16 -3.277034E+04  3.649296E+05 -6.260253E+03 -5.927907E+04 -4.008061E-09  2.640558E-09
       172  17 -1.264773E+04  4.596323E+05  1.594854E+04 -4.176277E+04 -4.514710E-09  2.979416E-09
       172  18  1.901014E+04  5.588899E+05  4.981393E+04 -6.549215E+04 -2.386950E-09  4.774344E-09
       172  19  3.926417E+04  6.598536E+05  5.908926E+04 -6.491684E+04 -7.213953E+03  2.311972E+02
       172  20  1.198156E+04  5.605695E+05  3.822292E+04 -4.118296E+04 -2.561567E+03  1.395185E+04
       172  21 -3.731291E+03  4.658762E+05  2.915362E+04 -5.869426E+04  2.203239E+03  2.767095E+04
       172  22  3.247670E+03  5.123815E+05  2.641525E+04 -6.209760E+04 -7.209853E+03 -3.865099E+03
       172  23 -3.329956E+02  5.100997E+05  2.708581E+04 -4.147288E+04 -2.557261E+03  9.754545E+03
       172  24  7.639524E+03  5.123822E+05  3.948415E+04 -6.209306E+04  2.207654E+03  2.337471E+04
       172  25 -3.277026E+04  3.649297E+05 -6.260037E+03 -5.927903E+04 -7.205791E+03 -7.960434E+03
       172  26 -1.264771E+04  4.596324E+05  1.594861E+04 -4.176278E+04 -2.552950E+03  5.557572E+03
       172  27  1.901025E+04  5.588903E+05  4.981462E+04 -6.549211E+04  2.212116E+03  1.907814E+04
       173   1 -3.752693E+04  3.926666E+05  1.905552E+04 -8.156205E+04 -6.226680E+03 -3.715605E+04
       173   2 -5.621325E+04  2.771979E+05  2.548542E+04 -1.936011E+04 -9.341099E+03 -6.927652E+04
       173   3  5.583552E+04  1.985436E+05  8.549600E+04  1.989635E+03 -3.363902E+03 -1.013829E+05
       173   4 -6.520940E+03  5.198564E+05  4.720315E+04 -6.204138E+04 -6.234914E+03 -3.032959E+04
       173   5 -1.387093E+03  5.007417E+05  7.591858E+04 -4.155393E+04 -9.337193E+03 -7.054295E+04
       173   6  1.358522E+05  5.198110E+05  1.638143E+05 -6.191241E+04 -3.345011E+03 -1.107475E+05
       173   7  2.448542E+04  6.470622E+05  7.535016E+04 -4.251667E+04 -6.242717E+03 -2.350175E+04
       173   8  5.343747E+04  7.243329E+05  1.263488E+05 -6.375580E+04 -9.333197E+03 -7.180984E+04
       173   9  2.158765E+05  8.411815E+05  2.421275E+05 -1.258476E+05 -3.324200E+03 -1.201170E+05
       173  10 -3.752734E+04  3.926651E+05  1.905285E+04 -8.156223E+04 -1.064728E-09  9.295731E-10
       173  11 -5.621463E+04  2.771927E+05  2.547624E+04 -1.936063E+04  5.139197E-10 -8.727623E-10
       173  12  5.583275E+04  1.985325E+05  8.547667E+04  1.989360E+03 -3.552734E-09  8.227565E-10
       173  13 -6.521229E+03  5.198554E+05  4.720135E+04 -6.204153E+04  6.831468E-09 -9.346469E-10
       173  14 -1.388521E+03  5.007363E+05  7.590907E+04 -4.155446E+04  5.704361E-09  8.978281E-10
       173  15  1.358489E+05  5.197979E+05  1.637912E+05 -6.191271E+04  2.119854E-09  2.098550E-10
       173  16  2.448523E+04  6.470616E+05  7.534905E+04 -4.251679E+04  1.095036E-09 -9.840256E-10
       173  17  5.343600E+04  7.243274E+05  1.263390E+05 -6.375634E+04  2.380691E-09 -2.377867E-09
       173  18  2.158726E+05  8.411660E+05  2.421004E+05 -1.258479E+05  7.790172E-10 -7.058591E-10
       173  19 -3.752693E+04  3.926666E+05  1.905552E+04 -8.156205E+04  6.226680E+03  3.715605E+04
       173  20 -5.621325E+04  2.771979E+05  2.548542E+04 -1.936011E+04  9.341099E+03  6.927652E+04
       173  21  5.583552E+04  1.985436E+05  8.549600E+04  1.989635E+03  3.363902E+03  1.013829E+05
       173  22 -6.520940E+03  5.198564E+05  4.720315E+04 -6.204138E+04  6.234914E+03  3.032959E+04
       173  23 -1.387093E+03  5.007417E+05  7.591858E+04 -4.155393E+04  9.337193E+03  7.054295E+04
       173  24  1.358522E+05  5.198110E+05  1.638143E+05 -6.191241E+04  3.345011E+03  1.107475E+05
       173  25  2.448542E+04  6.470622E+05  7.535016E+04 -4.251667E+04  6.242717E+03  2.350175E+04
       173  26  5.343747E+04  7.243329E+05  1.263488E+05 -6.375580E+04  9.333197E+03  7.180984E+04
       173  27  2.158765E+05  8.411815E+05  2.421275E+05 -1.258476E+05  3.324200E+03  1.201170E+05
       174   1  4.106773E+04  1.549698E+04 -4.289261E+03 -9.223509E+03 -5.654937E+04 -3.922276E+03
       174   2  2.184719E+04  8.983920E+04  3.673171E+04 -1.232078E+03 -3.942689E+04 -1.163970E+04
       174   3 -2.125565E+04  7.750203E+04  4.495020E+04  2.687164E+04 -2.231856E+04 -1.088748E+04
       174   4 -3.181955E+05 -7.395118E+04 -9.266042E+04  1.621438E+04 -6.342312E+04 -3.935055E+03
       174   5 -3.058163E+05  8.811198E+03 -4.085036E+04  6.096616E+03 -4.143349E+04 -1.164394E+04
       174   6 -3.181798E+05  4.022898E+03 -2.523720E+04  1.609227E+04 -1.945695E+04 -1.088219E+04
       174   7 -6.773397E+05 -1.634065E+05 -1.810406E+05  4.163749E+04 -7.029288E+04 -3.948402E+03
       174   8 -6.333809E+05 -7.222429E+04 -1.184398E+05  1.342138E+04 -4.343904E+04 -1.164822E+04
       174   9 -6.150226E+05 -6.946213E+04 -9.543061E+04  5.318052E+03 -1.659671E+04 -1.087700E+04
       174  10  4.106429E+04  1.549611E+04 -4.295299E+03 -9.223688E+03 -3.696056E-09  3.062976E-09
       174  11  2.184548E+04  8.983863E+04  3.672854E+04 -1.232448E+03  3.054190E-09  7.958971E-09
       174  12 -2.125621E+04  7.750177E+04  4.494904E+04  2.687144E+04  9.603019E-09  4.684623E-09
       174  13 -3.181998E+05 -7.395228E+04 -9.266802E+04  1.621418E+04 -1.950315E-09 -8.557159E-10
       174  14 -3.058182E+05  8.810591E+03 -4.085384E+04  6.096228E+03 -1.177318E-09 -2.015438E-09
       174  15 -3.181802E+05  4.022669E+03 -2.523813E+04  1.609210E+04  4.188693E-09  1.965700E-09
       174  16 -6.773450E+05 -1.634078E+05 -1.810499E+05  4.163727E+04  8.470662E-09  1.378576E-09
       174  17 -6.333830E+05 -7.222495E+04 -1.184436E+05  1.342097E+04 -5.448177E-09  6.159215E-09
       174  18 -6.150229E+05 -6.946233E+04 -9.543135E+04  5.317907E+03 -1.019906E-08 -2.556145E-11
       174  19  4.106773E+04  1.549698E+04 -4.289261E+03 -9.223509E+03  5.654937E+04  3.922276E+03
       174  20  2.184719E+04  8.983920E+04  3.673171E+04 -1.232078E+03  3.942689E+04  1.163970E+04
       174  21 -2.125565E+04  7.750203E+04  4.495020E+04  2.687164E+04  2.231856E+04  1.088748E+04
       174  22 -3.181955E+05 -7.395118E+04 -9.266042E+04  1.621438E+04  6.342312E+04  3.935055E+03
       174  23 -3.058163E+05  8.811198E+03 -4.085036E+04  6.096616E+03  4.143349E+04  1.164394E+04
       174  24 -3.181798E+05  4.022898E+03 -2.523720E+04  1.609227E+04  1.945695E+04  1.088219E+04
       174  25 -6.773397E+05 -1.634065E+05 -1.810406E+05  4.163749E+04  7.029288E+04  3.948402E+03
       174  26 -6.333809E+05 -7.222429E+04 -1.184398E+05  1.342138E+04  4.343904E+04  1.164822E+04
       174  27 -6.150226E+05 -6.946213E+04 -9.543061E+04  5.318052E+03  1.659671E+04  1.087700E+04
       175   1 -5.286682E+04  5.750915E+04  4.127049E+04  1.444743E+04 -1.590798E+04 -8.947643E+03
       175   2 -8.280786E+04  5.756655E+04  4.365861E+04  5.785727E+03 -1.082553E+04 -8.153265E+03
       175   3 -1.155241E+05  4.939604E+04  4.066912E+04  1.759275E+04 -5.744990E+03 -6.816932E+03
       175   4 -3.133080E+05 -6.935582E+03 -2.050709E+04  1.621913E+04 -1.560781E+04 -8.947371E+03
       175   5 -3.118896E+05  8.958906E+02 -1.057451E+04  5.977183E+03 -1.021529E+04 -8.152232E+03
       175   6 -3.133030E+05  4.436899E+02 -6.236735E+03  1.620454E+04 -4.824433E+03 -6.815072E+03
       175   7 -5.736868E+05 -7.138518E+04 -8.228939E+04  1.799004E+04 -1.530776E+04 -8.947096E+03
       175   8 -5.409231E+05 -5.577854E+04 -6.481128E+04  6.168542E+03 -9.605273E+03 -8.151198E+03
       175   9 -5.110460E+05 -4.851147E+04 -5.314531E+04  1.481676E+04 -3.904167E+03 -6.813216E+03
       175  10 -5.286712E+04  5.750899E+04  4.126986E+04  1.444732E+04 -1.265242E-08 -1.030366E-09
       175  11 -8.280800E+04  5.756645E+04  4.365826E+04  5.785656E+03 -1.023840E-08 -5.077544E-10
       175  12 -1.155242E+05  4.939598E+04  4.066897E+04  1.759272E+04  4.527538E-09  3.700623E-09
       175  13 -3.133083E+05 -6.935734E+03 -2.050770E+04  1.621901E+04  1.933926E-09  6.121287E-09
       175  14 -3.118898E+05  8.957912E+02 -1.057484E+04  5.977115E+03 -4.149276E-09 -1.378464E-08
       175  15 -3.133031E+05  4.436338E+02 -6.236866E+03  1.620452E+04 -5.124686E-09  3.395024E-09
       175  16 -5.736871E+05 -7.138532E+04 -8.228998E+04  1.798993E+04  1.354325E-08 -6.670971E-09
       175  17 -5.409233E+05 -5.577864E+04 -6.481158E+04  6.168479E+03  7.869366E-09 -3.620724E-09
       175  18 -5.110460E+05 -4.851152E+04 -5.314543E+04  1.481674E+04 -5.885311E-09 -1.888684E-09
       175  19 -5.286682E+04  5.750915E+04  4.127049E+04  1.444743E+04  1.590798E+04  8.947643E+03
       175  20 -8.280786E+04  5.756655E+04  4.365861E+04  5.785727E+03  1.082553E+04  8.153265E+03
       175  21 -1.155241E+05  4.939604E+04  4.066912E+04  1.759275E+04  5.744990E+03  6.816932E+03
       175  22 -3.133080E+05 -6.935582E+03 -2.050709E+04  1.621913E+04  1.560781E+04  8.947371E+03
       175  23 -3.118896E+05  8.958906E+02 -1.057451E+04  5.977183E+03  1.021529E+04  8.152232E+03
       175  24 -3.133030E+05  4.436899E+02 -6.236735E+03  1.620454E+04  4.824433E+03  6.815072E+03
       175  25 -5.736868E+05 -7.138518E+04 -8.228939E+04  1.799004E+04  1.530776E+04  8.947096E+03
       175  26 -5.409231E+05 -5.577854E+04 -6.481128E+04  6.168542E+03  9.605273E+03  8.151198E+03
       175  27 -5.110460E+05 -4.851147E+04 -5.314531E+04  1.481676E+04  3.904167E+03  6.813216E+03
       176   1 -1.517201E+05  3.925027E+04  3.318832E+04  1.638394E+04 -4.607220E+03 -5.945389E+03
       176   2 -1.830041E+05  3.216831E+04  2.799035E+04  6.155360E+03 -3.291805E+03 -4.607618E+03
       176   3 -2.147363E+05  2.438674E+04  2.173862E+04  1.653274E+04 -1.976853E+03 -3.233377E+03
       176   4 -3.127710E+05 -5.774820E+02 -4.858944E+03  1.624051E+04 -3.848368E+03 -5.943807E+03
       176   5 -3.125437E+05  1.190596E+02 -2.678427E+03  5.936612E+03 -2.512282E+03 -4.605903E+03
       176   6 -3.127688E+05  1.124552E+02 -1.566099E+03  1.623895E+04 -1.176593E+03 -3.231523E+03
       176   7 -4.737980E+05 -4.040709E+04 -4.290800E+04  1.609709E+04 -3.089713E+03 -5.942225E+03
       176   8 -4.420680E+05 -3.193139E+04 -3.334837E+04  5.717900E+03 -1.732922E+03 -4.604188E+03
       176   9 -4.107926E+05 -2.416252E+04 -2.487149E+04  1.594520E+04 -3.764592E+02 -3.229669E+03
       176  10 -1.517201E+05  3.925023E+04  3.318821E+04  1.638392E+04  3.460148E-09 -3.720020E-09
       176  11 -1.830041E+05  3.216828E+04  2.799029E+04  6.155348E+03 -3.115366E-09  1.884430E-10
       176  12 -2.147363E+05  2.438673E+04  2.173859E+04  1.653274E+04 -1.045585E-09  2.981904E-10
       176  13 -3.127710E+05 -5.775239E+02 -4.859039E+03  1.624049E+04 -4.302253E-09 -2.872245E-09
       176  14 -3.125438E+05  1.190351E+02 -2.678479E+03  5.936602E+03 -4.663810E-09 -1.850577E-09
       176  15 -3.127688E+05  1.124436E+02 -1.566122E+03  1.623895E+04  1.163745E-09  1.000536E-10
       176  16 -4.737981E+05 -4.040713E+04 -4.290808E+04  1.609708E+04 -3.026048E-09 -5.849550E-09
       176  17 -4.420680E+05 -3.193142E+04 -3.334841E+04  5.717894E+03 -6.868527E-10  3.065111E-09
       176  18 -4.107926E+05 -2.416253E+04 -2.487151E+04  1.594520E+04  1.287193E-09  7.728511E-09
       176  19 -1.517201E+05  3.925027E+04  3.318832E+04  1.638394E+04  4.607220E+03  5.945389E+03
       176  20 -1.830041E+05  3.216831E+04  2.799035E+04  6.155360E+03  3.291805E+03  4.607618E+03
       176  21 -2.147363E+05  2.438674E+04  2.173862E+04  1.653274E+04  1.976853E+03  3.233377E+03
       176  22 -3.127710E+05 -5.774820E+02 -4.858944E+03  1.624051E+04  3.848368E+03  5.943807E+03
       176  23 -3.125437E+05  1.190596E+02 -2.678427E+03  5.936612E+03  2.512282E+03  4.605903E+03
       176  24 -3.127688E+05  1.124552E+02 -1.566099E+03  1.623895E+04  1.176593E+03  3.231523E+03
       176  25 -4.737980E+05 -4.040709E+04 -4.290800E+04  1.609709E+04  3.089713E+03  5.942225E+03
       176  26 -4.420680E+05 -3.193139E+04 -3.334837E+04  5.717900E+03  1.732922E+03  4.604188E+03
       176  27 -4.107926E+05 -2.416252E+04 -2.487149E+04  1.594520E+04  3.764592E+02  3.229669E+03
       177   1 -2.515582E+05  1.513105E+04  1.317064E+04  1.636805E+04 -1.719844E+03 -2.427587E+03
       177   2 -2.830689E+05  7.353909E+03  6.279239E+03  5.984734E+03 -1.368420E+03 -1.052804E+03
       177   3 -3.147418E+05 -4.041636E+02 -8.628494E+02  1.626255E+04 -1.017097E+03  3.245006E+02
       177   4 -3.127030E+05  2.148174E+01 -1.211604E+03  1.625174E+04 -9.293865E+02 -2.425719E+03
       177   5 -3.126211E+05  4.190839E+01 -7.177313E+02  5.921072E+03 -5.765610E+02 -1.050914E+03
       177   6 -3.127026E+05  8.121943E+01 -4.754926E+02  1.625160E+04 -2.238190E+02  3.264162E+02
       177   7 -3.738444E+05 -1.508836E+04 -1.559410E+04  1.613544E+04 -1.390063E+02 -2.423851E+03
       177   8 -3.421726E+05 -7.270155E+03 -7.714759E+03  5.857413E+03  2.152604E+02 -1.049024E+03
       177   9 -3.106634E+05  5.666025E+02 -8.813367E+01  1.624064E+04  5.694615E+02  3.283318E+02
       177  10 -2.515582E+05  1.513105E+04  1.317063E+04  1.636805E+04 -3.929225E-10 -2.179880E-09
       177  11 -2.830689E+05  7.353908E+03  6.279233E+03  5.984732E+03  1.548936E-10  2.915005E-09
       177  12 -3.147418E+05 -4.041640E+02 -8.628515E+02  1.626255E+04 -1.398977E-09 -2.497797E-10
       177  13 -3.127031E+05  2.147520E+01 -1.211616E+03  1.625174E+04 -2.333172E-11  2.778079E-09
       177  14 -3.126211E+05  4.190711E+01 -7.177340E+02  5.921072E+03 -1.287535E-09 -6.087749E-09
       177  15 -3.127026E+05  8.121930E+01 -4.754929E+02  1.625160E+04  1.706383E-09 -3.561627E-09
       177  16 -3.738444E+05 -1.508836E+04 -1.559411E+04  1.613544E+04 -1.426973E-09  4.536113E-09
       177  17 -3.421726E+05 -7.270156E+03 -7.714762E+03  5.857414E+03 -3.142086E-09  9.912524E-09
       177  18 -3.106634E+05  5.666023E+02 -8.813448E+01  1.624064E+04  3.168122E-10  7.034804E-11
       177  19 -2.515582E+05  1.513105E+04  1.317064E+04  1.636805E+04  1.719844E+03  2.427587E+03
       177  20 -2.830689E+05  7.353909E+03  6.279239E+03  5.984734E+03  1.368420E+03  1.052804E+03
       177  21 -3.147418E+05 -4.041636E+02 -8.628494E+02  1.626255E+04  1.017097E+03 -3.245006E+02
       177  22 -3.127030E+05  2.148175E+01 -1.211604E+03  1.625174E+04  9.293865E+02  2.425719E+03
       177  23 -3.126211E+05  4.190839E+01 -7.177313E+02  5.921072E+03  5.765610E+02  1.050914E+03
       177  24 -3.127026E+05  8.121943E+01 -4.754926E+02  1.625160E+04  2.238190E+02 -3.264162E+02
       177  25 -3.738444E+05 -1.508836E+04 -1.559410E+04  1.613544E+04  1.390063E+02  2.423851E+03
       177  26 -3.421726E+05 -7.270155E+03 -7.714759E+03  5.857413E+03 -2.152604E+02  1.049024E+03
       177  27 -3.106634E+05  5.666025E+02 -8.813367E+01  1.624064E+04 -5.694615E+02 -3.283318E+02
       178   1 -3.516552E+05 -9.582448E+03 -9.733088E+03  1.617820E+04 -9.388243E+02  1.126757E+03
       178   2 -3.831603E+05 -1.741720E+04 -1.707737E+04  5.800624E+03 -7.529106E+02  2.503130E+03
       178   3 -4.147893E+05 -2.518803E+04 -2.455226E+04  1.607053E+04 -5.668156E+02  3.875980E+03
       178   4 -3.126944E+05  7.690358E+01 -4.126092E+02  1.624855E+04 -1.456361E+02  1.128663E+03
       178   5 -3.126325E+05  3.414416E+01 -3.777785E+02  5.924906E+03  3.824042E+01  2.504980E+03
       178   6 -3.126954E+05  5.561964E+01 -4.722121E+02  1.624860E+04  2.223077E+02  3.877779E+03
       178   7 -2.737322E+05  9.736146E+03  8.907765E+03  1.631891E+04  6.476017E+02  1.130569E+03
       178   8 -2.421000E+05  1.748513E+04  1.632147E+04  6.049199E+03  8.294809E+02  2.506831E+03
       178   9 -2.105920E+05  2.529852E+04  2.360712E+04  1.642669E+04  1.011560E+03  3.879578E+03
       178  10 -3.516552E+05 -9.582450E+03 -9.733092E+03  1.617820E+04  5.840155E-09  1.069546E-09
       178  11 -3.831603E+05 -1.741721E+04 -1.707738E+04  5.800625E+03 -3.969117E-09 -3.133861E-09
       178  12 -4.147893E+05 -2.518804E+04 -2.455229E+04  1.607054E+04 -9.873105E-09 -3.226645E-09
       178  13 -3.126944E+05  7.690221E+01 -4.126116E+02  1.624855E+04  1.954437E-09  2.360362E-09
       178  14 -3.126325E+05  3.413742E+01 -3.777903E+02  5.924906E+03  6.038077E-09 -1.191390E-09
       178  15 -3.126954E+05  5.560348E+01 -4.722404E+02  1.624860E+04  2.184361E-09 -4.090029E-09
       178  16 -2.737322E+05  9.736144E+03  8.907761E+03  1.631891E+04 -2.579021E-09 -1.801087E-09
       178  17 -2.421000E+05  1.748513E+04  1.632145E+04  6.049198E+03  4.432147E-09 -1.011827E-08
       178  18 -2.105920E+05  2.529851E+04  2.360709E+04  1.642669E+04  1.254115E-08 -5.353185E-09
       178  19 -3.516552E+05 -9.582448E+03 -9.733088E+03  1.617820E+04  9.388243E+02 -1.126757E+03
       178  20 -3.831603E+05 -1.741720E+04 -1.707737E+04  5.800624E+03  7.529106E+02 -2.503130E+03
       178  21 -4.147893E+05 -2.518803E+04 -2.455226E+04  1.607053E+04  5.668156E+02 -3.875980E+03
       178  22 -3.126944E+05  7.690358E+01 -4.126092E+02  1.624855E+04  1.456361E+02 -1.128663E+03
       178  23 -3.126325E+05  3.414416E+01 -3.777785E+02  5.924906E+03 -3.824042E+01 -2.504980E+03
       178  24 -3.126954E+05  5.561964E+01 -4.722121E+02  1.624860E+04 -2.223077E+02 -3.877779E+03
       178  25 -2.737322E+05  9.736146E+03  8.907765E+03  1.631891E+04 -6.476017E+02 -1.130569E+03
       178  26 -2.421000E+05  1.748513E+04  1.632147E+04  6.049199E+03 -8.294809E+02 -2.506831E+03
       178  27 -2.105920E+05  2.529852E+04  2.360712E+04  1.642669E+04 -1.011560E+03 -3.879578E+03
       179   1 -4.516347E+05 -3.430986E+04 -3.355382E+04  1.595146E+04 -4.863438E+02  4.680817E+03
       179   2 -4.829759E+05 -4.210338E+04 -4.123320E+04  5.671416E+03 -1.976806E+01  6.050566E+03
       179   3 -5.145070E+05 -5.006575E+04 -4.927814E+04  1.595021E+04  4.473214E+02  7.379540E+03
       179   4 -3.127114E+05  8.572649E+01 -5.635242E+02  1.622867E+04  3.133482E+02  4.682584E+03
       179   5 -3.126195E+05  5.187912E+01 -8.937069E+02  5.949678E+03  7.565486E+02  6.052162E+03
       179   6 -3.127139E+05 -1.465196E+02 -1.572953E+03  1.622917E+04  1.200286E+03  7.380973E+03
       179   7 -1.737704E+05  3.447992E+04  3.242542E+04  1.650594E+04  1.113218E+03  4.684351E+03
       179   8 -1.422365E+05  4.220505E+04  3.944377E+04  6.228002E+03  1.533077E+03  6.053758E+03
       179   9 -1.108834E+05  4.976979E+04  4.612941E+04  1.650820E+04  1.953494E+03  7.382407E+03
       179  10 -4.516347E+05 -3.430988E+04 -3.355386E+04  1.595146E+04 -1.493132E-09  2.993988E-10
       179  11 -4.829759E+05 -4.210342E+04 -4.123327E+04  5.671416E+03  2.228258E-09 -5.961501E-09
       179  12 -5.145070E+05 -5.006581E+04 -4.927824E+04  1.595021E+04 -1.763879E-09 -2.362352E-09
       179  13 -3.127114E+05  8.570292E+01 -5.635656E+02  1.622867E+04  2.141006E-09 -2.924036E-09
       179  14 -3.126196E+05  5.183964E+01 -8.937768E+02  5.949674E+03  3.820276E-09 -1.110893E-09
       179  15 -3.127139E+05 -1.465785E+02 -1.573058E+03  1.622916E+04 -2.141766E-11  6.070366E-10
       179  16 -1.737704E+05  3.447990E+04  3.242538E+04  1.650593E+04  6.922770E-09  2.881855E-09
       179  17 -1.422365E+05  4.220501E+04  3.944370E+04  6.227995E+03 -4.275897E-09 -3.673554E-09
       179  18 -1.108834E+05  4.976973E+04  4.612931E+04  1.650819E+04  1.057308E-10  3.505813E-09
       179  19 -4.516347E+05 -3.430986E+04 -3.355382E+04  1.595146E+04  4.863438E+02 -4.680817E+03
       179  20 -4.829759E+05 -4.210338E+04 -4.123320E+04  5.671416E+03  1.976806E+01 -6.050566E+03
       179  21 -5.145070E+05 -5.006575E+04 -4.927814E+04  1.595021E+04 -4.473214E+02 -7.379540E+03
       179  22 -3.127114E+05  8.572649E+01 -5.635242E+02  1.622867E+04 -3.133482E+02 -4.682584E+03
       179  23 -3.126195E+05  5.187912E+01 -8.937069E+02  5.949678E+03 -7.565486E+02 -6.052162E+03
       179  24 -3.127139E+05 -1.465196E+02 -1.572953E+03  1.622917E+04 -1.200286E+03 -7.380973E+03
       179  25 -1.737704E+05  3.447992E+04  3.242542E+04  1.650594E+04 -1.113218E+03 -4.684351E+03
       179  26 -1.422365E+05  4.220505E+04  3.944377E+04  6.228002E+03 -1.533077E+03 -6.053758E+03
       179  27 -1.108834E+05  4.976979E+04  4.612941E+04  1.650820E+04 -1.953494E+03 -7.382407E+03
       180   1 -5.512849E+05 -5.883319E+04 -5.854246E+04  1.548186E+04  5.824330E+02  8.254559E+03
       180   2 -5.820057E+05 -6.642133E+04 -6.723054E+04  5.787095E+03  2.652654E+03  9.576484E+03
       180   3 -6.136917E+05 -7.665984E+04 -7.793779E+04  1.648369E+04  4.724491E+03  1.029940E+04
       180   4 -3.128781E+05  1.815430E+02 -2.005821E+03  1.619025E+04  1.513718E+03  8.256256E+03
       180   5 -3.124273E+05  2.899105E+02 -3.390675E+03  5.996999E+03  3.239835E+03  9.577319E+03
       180   6 -3.128824E+05 -2.191556E+03 -6.554945E+03  1.619459E+04  4.967671E+03  1.029949E+04
       180   7 -7.441897E+04  5.919219E+04  5.452686E+04  1.689889E+04  2.445360E+03  8.257955E+03
       180   8 -4.278205E+04  6.699593E+04  6.044414E+04  6.206963E+03  3.827270E+03  9.578155E+03
       180   9 -1.198989E+04  7.227022E+04  6.482160E+04  1.590530E+04  5.210968E+03  1.029958E+04
       180  10 -5.512849E+05 -5.883327E+04 -5.854259E+04  1.548186E+04  2.019843E-09 -3.129811E-09
       180  11 -5.820057E+05 -6.642143E+04 -6.723073E+04  5.787074E+03 -1.656673E-09  1.188857E-09
       180  12 -6.136918E+05 -7.665996E+04 -7.793803E+04  1.648365E+04 -2.802366E-09 -7.283698E-09
       180  13 -3.128781E+05  1.814692E+02 -2.005953E+03  1.619024E+04 -4.076236E-09 -7.208854E-09
       180  14 -3.124273E+05  2.898092E+02 -3.390867E+03  5.996974E+03  2.322637E-09  1.446896E-09
       180  15 -3.128824E+05 -2.191676E+03 -6.555190E+03  1.619454E+04 -1.843487E-09 -3.396584E-09
       180  16 -7.441900E+04  5.919212E+04  5.452673E+04  1.689887E+04 -4.929645E-09 -8.705979E-10
       180  17 -4.278209E+04  6.699583E+04  6.044394E+04  6.206933E+03 -7.638689E-10 -9.772873E-09
       180  18 -1.198995E+04  7.227009E+04  6.482135E+04  1.590526E+04 -2.216108E-09 -2.374333E-10
       180  19 -5.512849E+05 -5.883319E+04 -5.854246E+04  1.548186E+04 -5.824330E+02 -8.254559E+03
       180  20 -5.820057E+05 -6.642133E+04 -6.723054E+04  5.787095E+03 -2.652654E+03 -9.576484E+03
       180  21 -6.136917E+05 -7.665984E+04 -7.793779E+04  1.648369E+04 -4.724491E+03 -1.029940E+04
       180  22 -3.128781E+05  1.815430E+02 -2.005821E+03  1.619025E+04 -1.513718E+03 -8.256256E+03
       180  23 -3.124273E+05  2.899105E+02 -3.390675E+03  5.996999E+03 -3.239835E+03 -9.577319E+03
       180  24 -3.128824E+05 -2.191556E+03 -6.554945E+03  1.619459E+04 -4.967671E+03 -1.029949E+04
       180  25 -7.441897E+04  5.919219E+04  5.452686E+04  1.689889E+04 -2.445360E+03 -8.257955E+03
       180  26 -4.278205E+04  6.699593E+04  6.044414E+04  6.206963E+03 -3.827270E+03 -9.578155E+03
       180  27 -1.198989E+04  7.227022E+04  6.482160E+04  1.590530E+04 -5.210968E+03 -1.029958E+04
       181   1 -6.515855E+05 -8.211660E+04 -8.777466E+04  1.234494E+04  3.121996E+03  1.234203E+04
       181   2 -6.781577E+05 -8.817840E+04 -1.001501E+05  8.197089E+03  1.553024E+04  1.301562E+04
       181   3 -7.135147E+05 -1.230803E+05 -1.278112E+05  2.397340E+04  2.794990E+04  4.326316E+03
       181   4 -3.144298E+05  1.308334E+03 -8.062103E+03  1.607729E+04  6.194663E+03  1.234672E+04
       181   5 -3.105115E+05  2.802481E+03 -1.305987E+04  6.132308E+03  1.321835E+04  1.301165E+04
       181   6 -3.144387E+05 -2.359909E+04 -2.959659E+04  1.611121E+04  2.025423E+04  4.315908E+03
       181   7  2.283049E+04  8.472517E+04  7.164261E+04  1.981164E+04  9.268991E+03  1.235145E+04
       181   8  5.725897E+04  9.377367E+04  7.402102E+04  4.066250E+03  1.090509E+04  1.300769E+04
       181   9  8.478265E+04  7.587058E+04  6.860653E+04  8.243905E+03  1.255362E+04  4.305699E+03
       181  10 -6.515856E+05 -8.211676E+04 -8.777496E+04  1.234491E+04 -6.704663E-10 -5.133114E-09
       181  11 -6.781580E+05 -8.817864E+04 -1.001509E+05  8.196926E+03 -2.123877E-09 -3.490769E-09
       181  12 -7.135155E+05 -1.230806E+05 -1.278127E+05  2.397330E+04 -1.345952E-09  3.325735E-09
       181  13 -3.144299E+05  1.308160E+03 -8.062462E+03  1.607723E+04 -2.155585E-09  1.855753E-09
       181  14 -3.105118E+05  2.802252E+03 -1.306051E+04  6.132169E+03  3.887794E-10 -7.958485E-10
       181  15 -3.144391E+05 -2.359922E+04 -2.959740E+04  1.611114E+04 -5.866033E-10  1.622279E-09
       181  16  2.283036E+04  8.472498E+04  7.164217E+04  1.981154E+04 -4.307302E-09  8.086072E-10
       181  17  5.725880E+04  9.377346E+04  7.402048E+04  4.066136E+03  1.836771E-09  3.499182E-09
       181  18  8.478247E+04  7.587052E+04  6.860619E+04  8.243862E+03  2.150612E-09  1.529199E-11
       181  19 -6.515855E+05 -8.211660E+04 -8.777466E+04  1.234494E+04 -3.121996E+03 -1.234203E+04
       181  20 -6.781577E+05 -8.817840E+04 -1.001501E+05  8.197089E+03 -1.553024E+04 -1.301562E+04
       181  21 -7.135147E+05 -1.230803E+05 -1.278112E+05  2.397340E+04 -2.794990E+04 -4.326316E+03
       181  22 -3.144298E+05  1.308334E+03 -8.062103E+03  1.607729E+04 -6.194663E+03 -1.234672E+04
       181  23 -3.105115E+05  2.802481E+03 -1.305987E+04  6.132308E+03 -1.321835E+04 -1.301165E+04
       181  24 -3.144387E+05 -2.359909E+04 -2.959659E+04  1.611121E+04 -2.025423E+04 -4.315908E+03
       181  25  2.283049E+04  8.472517E+04  7.164261E+04  1.981164E+04 -9.268991E+03 -1.235145E+04
       181  26  5.725897E+04  9.377367E+04  7.402102E+04  4.066250E+03 -1.090509E+04 -1.300769E+04
       181  27  8.478265E+04  7.587058E+04  6.860653E+04  8.243905E+03 -1.255362E+04 -4.305699E+03
       182   1 -2.591474E+05 -9.564208E+05 -2.545524E+05  2.188019E+05 -1.041092E+04 -7.616863E+04
       182   2 -1.719885E+05 -7.325538E+05 -1.584103E+05  1.799852E+05 -3.125081E+04 -3.225754E+04
       182   3 -1.131463E+05 -5.212168E+05 -9.794235E+04  1.954320E+05 -2.845721E+04  1.170289E+04
       182   4 -3.414680E+04 -4.907162E+04 -3.772901E+04  1.980904E+05 -1.045778E+04 -2.771598E+04
       182   5 -6.256863E+03 -4.579273E+04 -1.693690E+04  1.709749E+05 -3.125994E+04 -1.891373E+04
       182   6 -5.632685E+02 -4.897511E+04 -7.402032E+03  1.981238E+05 -2.843887E+04 -1.007903E+04
       182   7  1.907971E+05  8.590391E+05  1.790454E+05  1.773486E+05 -1.050785E+04  2.080727E+04
       182   8  1.594454E+05  6.414167E+05  1.245119E+05  1.619545E+05 -3.126945E+04 -5.555395E+03
       182   9  1.120069E+05  4.234824E+05  8.312987E+04  2.008177E+05 -2.842073E+04 -3.187713E+04
       182  10 -2.591491E+05 -9.564271E+05 -2.545635E+05  2.188013E+05 -6.156360E-10  2.376757E-09
       182  11 -1.719898E+05 -7.325552E+05 -1.584141E+05  1.799844E+05  1.025493E-09 -6.760921E-10
       182  12 -1.131473E+05 -5.212171E+05 -9.794413E+04  1.954322E+05  1.737193E-09 -5.557121E-09
       182  13 -3.414712E+04 -4.907247E+04 -3.773066E+04  1.980902E+05  1.019645E-09  2.422540E-09
       182  14 -6.258008E+03 -4.579338E+04 -1.693941E+04  1.709744E+05  2.256269E-09 -2.399474E-09
       182  15 -5.641641E+02 -4.897544E+04 -7.403743E+03  1.981235E+05  3.198791E-09 -1.344754E-10
       182  16  1.907968E+05  8.590386E+05  1.790444E+05  1.773487E+05  4.610145E-10 -3.590716E-10
       182  17  1.594443E+05  6.414164E+05  1.245100E+05  1.619543E+05  2.204232E-09  8.238414E-10
       182  18  1.120058E+05  4.234811E+05  8.312645E+04  2.008170E+05  1.691626E-09  6.055311E-09
       182  19 -2.591474E+05 -9.564208E+05 -2.545524E+05  2.188019E+05  1.041092E+04  7.616863E+04
       182  20 -1.719885E+05 -7.325538E+05 -1.584103E+05  1.799852E+05  3.125081E+04  3.225754E+04
       182  21 -1.131463E+05 -5.212168E+05 -9.794235E+04  1.954320E+05  2.845721E+04 -1.170289E+04
       182  22 -3.414680E+04 -4.907162E+04 -3.772901E+04  1.980904E+05  1.045778E+04  2.771598E+04
       182  23 -6.256863E+03 -4.579273E+04 -1.693690E+04  1.709749E+05  3.125994E+04  1.891373E+04
       182  24 -5.632685E+02 -4.897511E+04 -7.402032E+03  1.981238E+05  2.843887E+04  1.007903E+04
       182  25  1.907971E+05  8.590391E+05  1.790454E+05  1.773486E+05  1.050785E+04 -2.080727E+04
       182  26  1.594454E+05  6.414167E+05  1.245119E+05  1.619545E+05  3.126945E+04  5.555395E+03
       182  27  1.120069E+05  4.234824E+05  8.312987E+04  2.008177E+05  2.842073E+04  3.187713E+04
       183   1 -7.927586E+04 -3.726479E+05 -6.635926E+04  1.986605E+05 -1.966933E+04  8.791203E+03
       183   2 -2.573177E+04 -1.553037E+05 -1.748873E+04  1.709000E+05 -7.308430E+03  8.207254E+03
       183   3  2.816382E+04  6.240371E+04  3.188290E+04  1.987833E+05  5.442120E+03  7.622344E+03
       183   4 -1.758659E+03 -4.742309E+04 -4.081059E+03  1.984232E+05 -1.965565E+04 -9.306694E+03
       183   5 -2.233322E+02 -4.762532E+04  2.359825E+03  1.706028E+05 -7.295087E+03 -1.047241E+04
       183   6  1.767452E+03 -4.740761E+04  9.707818E+03  1.984257E+05  5.454981E+03 -1.163889E+04
       183   7  7.575248E+04  2.779044E+05  5.819354E+04  1.981858E+05 -1.964197E+04 -2.741385E+04
       183   8  2.528463E+04  6.006505E+04  2.220921E+04  1.703056E+05 -7.281728E+03 -2.915522E+04
       183   9 -2.462947E+04 -1.572067E+05 -1.246649E+04  1.980681E+05  5.467866E+03 -3.089678E+04
       183  10 -7.927630E+04 -3.726481E+05 -6.636013E+04  1.986606E+05  4.512554E-09 -3.733104E-08
       183  11 -2.573185E+04 -1.553038E+05 -1.748896E+04  1.709001E+05 -1.212581E-09  2.617453E-09
       183  12  2.816378E+04  6.240364E+04  3.188274E+04  1.987833E+05  8.445326E-10  4.161089E-08
       183  13 -1.759097E+03 -4.742328E+04 -4.081948E+03  1.984230E+05  5.685302E-09  2.242354E-09
       183  14 -2.234188E+02 -4.762545E+04  2.359519E+03  1.706028E+05  8.081138E-09 -1.931679E-09
       183  15  1.767383E+03 -4.740777E+04  9.707508E+03  1.984257E+05  5.356605E-09  1.463444E-11
       183  16  7.575186E+04  2.779034E+05  5.819141E+04  1.981853E+05  1.354557E-09  3.765319E-08
       183  17  2.528435E+04  6.006413E+04  2.220752E+04  1.703055E+05  1.482291E-09 -1.305006E-09
       183  18 -2.462976E+04 -1.572077E+05 -1.246834E+04  1.980682E+05 -2.482493E-09 -4.185897E-08
       183  19 -7.927586E+04 -3.726479E+05 -6.635926E+04  1.986605E+05  1.966933E+04 -8.791203E+03
       183  20 -2.573177E+04 -1.553037E+05 -1.748873E+04  1.709000E+05  7.308430E+03 -8.207254E+03
       183  21  2.816382E+04  6.240371E+04  3.188290E+04  1.987833E+05 -5.442120E+03 -7.622344E+03
       183  22 -1.758659E+03 -4.742309E+04 -4.081059E+03  1.984232E+05  1.965565E+04  9.306694E+03
       183  23 -2.233322E+02 -4.762532E+04  2.359825E+03  1.706028E+05  7.295087E+03  1.047241E+04
       183  24  1.767452E+03 -4.740761E+04  9.707818E+03  1.984257E+05 -5.454981E+03  1.163889E+04
       183  25  7.575248E+04  2.779044E+05  5.819354E+04  1.981858E+05  1.964197E+04  2.741385E+04
       183  26  2.528463E+04  6.006505E+04  2.220921E+04  1.703056E+05  7.281728E+03  2.915522E+04
       183  27 -2.462947E+04 -1.572067E+05 -1.246649E+04  1.980681E+05 -5.467866E+03  3.089678E+04
       184   1  6.132447E+04  2.115441E+05  6.429359E+04  1.934993E+05  1.430839E+04  8.676892E+03
       184   2  1.227879E+05  4.215804E+05  1.261759E+05  1.839404E+05  1.995174E+04 -3.295184E+04
       184   3  2.234770E+05  6.470658E+05  2.249911E+05  2.290439E+05  7.226722E+03 -7.461732E+04
       184   4 -7.496544E+01 -4.513916E+04  1.399487E+04  1.981974E+05  1.432405E+04 -1.334436E+04
       184   5  8.681487E+03 -5.050920E+04  2.749173E+04  1.708915E+05  1.994932E+04 -2.762043E+04
       184   6  5.193657E+04 -4.520364E+04  5.894473E+04  1.982445E+05  7.202220E+03 -4.191843E+04
       184   7 -6.147804E+04 -3.017582E+05 -3.630519E+04  2.028935E+05  1.433938E+04 -3.535670E+04
       184   8 -1.054385E+05 -5.223877E+05 -7.120456E+04  1.578526E+05  1.994667E+04 -2.229300E+04
       184   9 -1.196345E+05 -7.370301E+05 -1.071311E+05  1.674795E+05  7.174468E+03 -9.255798E+03
       184  10  6.132423E+04  2.115440E+05  6.429306E+04  1.934992E+05 -3.359977E-10 -1.034627E-08
       184  11  1.227871E+05  4.215792E+05  1.261731E+05  1.839410E+05 -3.275516E-09  1.073192E-09
       184  12  2.234755E+05  6.470598E+05  2.249806E+05  2.290443E+05 -2.121357E-09  7.982380E-09
       184  13 -7.523366E+01 -4.513941E+04  1.399415E+04  1.981975E+05  8.595220E-09  2.203400E-09
       184  14  8.680855E+03 -5.051013E+04  2.748955E+04  1.708919E+05  6.766518E-09 -2.397081E-09
       184  15  5.193605E+04 -4.520554E+04  5.894133E+04  1.982447E+05 -7.149790E-10 -6.121927E-10
       184  16 -6.147859E+04 -3.017596E+05 -3.630793E+04  2.028939E+05 -5.735741E-09  1.145715E-08
       184  17 -1.054390E+05 -5.223883E+05 -7.120624E+04  1.578530E+05 -8.779725E-10  7.149234E-10
       184  18 -1.196346E+05 -7.370302E+05 -1.071314E+05  1.674796E+05 -1.109794E-09 -8.750191E-09
       184  19  6.132447E+04  2.115441E+05  6.429359E+04  1.934993E+05 -1.430839E+04 -8.676892E+03
       184  20  1.227879E+05  4.215804E+05  1.261759E+05  1.839404E+05 -1.995174E+04  3.295184E+04
       184  21  2.234770E+05  6.470658E+05  2.249911E+05  2.290439E+05 -7.226722E+03  7.461732E+04
       184  22 -7.496544E+01 -4.513916E+04  1.399487E+04  1.981974E+05 -1.432405E+04  1.334436E+04
       184  23  8.681487E+03 -5.050920E+04  2.749173E+04  1.708915E+05 -1.994932E+04  2.762043E+04
       184  24  5.193657E+04 -4.520364E+04  5.894473E+04  1.982445E+05 -7.202220E+03  4.191843E+04
       184  25 -6.147804E+04 -3.017582E+05 -3.630519E+04  2.028935E+05 -1.433938E+04  3.535670E+04
       184  26 -1.054385E+05 -5.223877E+05 -7.120456E+04  1.578526E+05 -1.994667E+04  2.229300E+04
       184  27 -1.196345E+05 -7.370301E+05 -1.071311E+05  1.674795E+05 -7.174468E+03  9.255798E+03
       185   1  7.394909E+05  2.679226E+05  1.606486E+05  2.702520E+05  6.705196E+04  2.078009E+04
       185   2  7.163915E+05  1.753503E+05  1.003326E+05  2.652519E+05  4.340519E+04  2.295562E+03
       185   3  7.150202E+05  1.559228E+05  7.809536E+04  2.512419E+05  1.678704E+04 -8.295589E+03
       185   4  4.818049E+05  1.410959E+05  8.618598E+04  1.692555E+05  5.649534E+04  1.679951E+04
       185   5  4.669241E+05  7.213614E+04  3.734048E+04  1.862181E+05  3.960267E+04  8.615701E+02
       185   6  4.724442E+05  7.499880E+04  2.123569E+04  1.941681E+05  1.973708E+04 -7.183916E+03
       185   7  2.241898E+05  1.429045E+04  1.171879E+04  6.830313E+04  4.594369E+04  1.282207E+04
       185   8  2.175194E+05 -3.106925E+04 -2.565621E+04  1.072149E+05  3.580183E+04 -5.716352E+02
       185   9  2.299246E+05 -5.924430E+03 -3.562844E+04  1.371129E+05  2.268588E+04 -6.072596E+03
       185  10  7.394859E+05  2.679210E+05  1.606393E+05  2.702509E+05 -1.013322E-08 -4.104300E-10
       185  11  7.163895E+05  1.753498E+05  1.003290E+05  2.652518E+05 -2.735999E-09  5.031280E-09
       185  12  7.150199E+05  1.559227E+05  7.809470E+04  2.512420E+05 -2.902481E-09  1.588858E-09
       185  13  4.818014E+05  1.410948E+05  8.617945E+04  1.692548E+05  3.699721E-09 -1.587539E-09
       185  14  4.669224E+05  7.213572E+04  3.733753E+04  1.862181E+05  2.081806E-09  4.779365E-09
       185  15  4.724438E+05  7.499864E+04  2.123486E+04  1.941682E+05  2.856046E-11 -5.683848E-09
       185  16  2.241875E+05  1.428970E+04  1.171451E+04  6.830265E+04  1.127771E-08  6.075916E-09
       185  17  2.175180E+05 -3.106960E+04 -2.565862E+04  1.072149E+05  7.165582E-09  2.100187E-09
       185  18  2.299240E+05 -5.924607E+03 -3.562948E+04  1.371130E+05 -3.733749E-09  6.921968E-09
       185  19  7.394909E+05  2.679226E+05  1.606486E+05  2.702520E+05 -6.705196E+04 -2.078009E+04
       185  20  7.163915E+05  1.753503E+05  1.003326E+05  2.652519E+05 -4.340519E+04 -2.295562E+03
       185  21  7.150202E+05  1.559228E+05  7.809536E+04  2.512419E+05 -1.678704E+04  8.295589E+03
       185  22  4.818049E+05  1.410959E+05  8.618598E+04  1.692555E+05 -5.649534E+04 -1.679951E+04
       185  23  4.669241E+05  7.213614E+04  3.734048E+04  1.862181E+05 -3.960267E+04 -8.615701E+02
       185  24  4.724442E+05  7.499880E+04  2.123569E+04  1.941681E+05 -1.973708E+04  7.183916E+03
       185  25  2.241898E+05  1.429045E+04  1.171879E+04  6.830313E+04 -4.594369E+04 -1.282207E+04
       185  26  2.175194E+05 -3.106925E+04 -2.565621E+04  1.072149E+05 -3.580183E+04  5.716352E+02
       185  27  2.299246E+05 -5.924430E+03 -3.562844E+04  1.371129E+05 -2.268588E+04  6.072596E+03
       186   1  6.859075E+05  1.635640E+05  6.958045E+04  2.511592E+05  1.588235E+04 -6.902973E+03
       186   2  6.673288E+05  1.472935E+05  5.599819E+04  2.416793E+05  1.087705E+04 -7.833730E+03
       186   3  6.440235E+05  1.420975E+05  4.702833E+04  2.391641E+05  5.739598E+03 -8.414216E+03
       186   4  4.696910E+05  8.152756E+04  1.684172E+04  1.901661E+05  1.644521E+04 -6.691190E+03
       186   5  4.718037E+05  7.403292E+04  8.638822E+03  1.874339E+05  1.174080E+04 -7.508363E+03
       186   6  4.691305E+05  7.755421E+04  4.811247E+03  1.916661E+05  6.904049E+03 -7.975291E+03
       186   7  2.535206E+05 -5.051829E+02 -3.590051E+04  1.291925E+05  1.700785E+04 -6.479490E+03
       186   8  2.763168E+05  7.753650E+02 -3.872324E+04  1.332043E+05  1.260424E+04 -7.183111E+03
       186   9  2.942685E+05  1.301323E+04 -3.740784E+04  1.441805E+05  8.068138E+03 -7.536499E+03
       186  10  6.859072E+05  1.635639E+05  6.957989E+04  2.511592E+05 -1.323635E-09 -6.421704E-10
       186  11  6.673287E+05  1.472934E+05  5.599785E+04  2.416794E+05 -1.732266E-09  1.656369E-09
       186  12  6.440235E+05  1.420974E+05  4.702814E+04  2.391641E+05  6.199827E-09  4.504453E-09
       186  13  4.696907E+05  8.152744E+04  1.684113E+04  1.901662E+05 -5.700859E-09 -8.143375E-09
       186  14  4.718035E+05  7.403282E+04  8.638457E+03  1.874340E+05 -5.270094E-09  5.797590E-09
       186  15  4.691304E+05  7.755413E+04  4.811037E+03  1.916662E+05  5.909464E-09  6.470963E-09
       186  16  2.535203E+05 -5.053057E+02 -3.590113E+04  1.291926E+05 -9.483408E-09  6.032881E-09
       186  17  2.763167E+05  7.752669E+02 -3.872363E+04  1.332043E+05 -7.340611E-09 -1.432475E-09
       186  18  2.942684E+05  1.301315E+04 -3.740807E+04  1.441805E+05 -3.784926E-09  4.464723E-09
       186  19  6.859075E+05  1.635640E+05  6.958045E+04  2.511592E+05 -1.588235E+04  6.902973E+03
       186  20  6.673288E+05  1.472935E+05  5.599819E+04  2.416793E+05 -1.087705E+04  7.833730E+03
       186  21  6.440235E+05  1.420975E+05  4.702833E+04  2.391641E+05 -5.739598E+03  8.414216E+03
       186  22  4.696910E+05  8.152756E+04  1.684172E+04  1.901661E+05 -1.644521E+04  6.691190E+03
       186  23  4.718037E+05  7.403292E+04  8.638822E+03  1.874339E+05 -1.174080E+04  7.508363E+03
       186  24  4.691305E+05  7.755421E+04  4.811247E+03  1.916661E+05 -6.904049E+03  7.975291E+03
       186  25  2.535206E+05 -5.051829E+02 -3.590051E+04  1.291925E+05 -1.700785E+04  6.479490E+03
       186  26  2.763168E+05  7.753650E+02 -3.872324E+04  1.332043E+05 -1.260424E+04  7.183111E+03
       186  27  2.942685E+05  1.301323E+04 -3.740784E+04  1.441805E+05 -8.068138E+03  7.536499E+03
       187   1  6.251701E+05  1.361792E+05  4.137432E+04  2.344589E+05  4.879664E+03 -7.858686E+03
       187   2  6.072405E+05  1.245806E+05  3.463769E+04  2.247309E+05  3.399519E+03 -6.998944E+03
       187   3  5.826849E+05  1.201182E+05  2.872450E+04  2.227854E+05  1.914170E+03 -6.126086E+03
       187   4  4.688976E+05  7.792103E+04  3.665777E+03  1.913851E+05  5.934599E+03 -7.460979E+03
       187   5  4.721976E+05  7.424794E+04  2.000088E+03  1.875343E+05  4.465943E+03 -6.596789E+03
       187   6  4.688692E+05  7.770896E+04  1.149032E+03  1.914659E+05  2.992046E+03 -5.719495E+03
       187   7  3.126484E+05  1.966426E+04 -3.404478E+04  1.483210E+05  6.989251E+03 -7.063379E+03
       187   8  3.371723E+05  2.391639E+04 -3.063896E+04  1.503449E+05  5.532117E+03 -6.194729E+03
       187   9  3.550664E+05  3.530065E+04 -2.642740E+04  1.601516E+05  4.069708E+03 -5.312985E+03
       187  10  6.251701E+05  1.361792E+05  4.137416E+04  2.344589E+05 -3.716193E-09  2.526930E-09
       187  11  6.072405E+05  1.245806E+05  3.463758E+04  2.247309E+05 -3.050129E-09  3.945309E-09
       187  12  5.826849E+05  1.201181E+05  2.872442E+04  2.227854E+05  4.770743E-11  1.384447E-09
       187  13  4.688975E+05  7.792097E+04  3.665606E+03  1.913852E+05  3.008234E-09  2.325222E-09
       187  14  4.721976E+05  7.424788E+04  1.999969E+03  1.875343E+05  4.268149E-09 -1.225527E-09
       187  15  4.688692E+05  7.770892E+04  1.148954E+03  1.914659E+05 -5.186389E-09  3.356889E-09
       187  16  3.126484E+05  1.966419E+04 -3.404496E+04  1.483211E+05  1.856893E-09 -1.889376E-09
       187  17  3.371723E+05  2.391634E+04 -3.063909E+04  1.503449E+05 -4.727140E-09  3.782147E-09
       187  18  3.550663E+05  3.530061E+04 -2.642748E+04  1.601517E+05 -1.099220E-08  1.461663E-09
       187  19  6.251701E+05  1.361792E+05  4.137432E+04  2.344589E+05 -4.879664E+03  7.858686E+03
       187  20  6.072405E+05  1.245806E+05  3.463769E+04  2.247309E+05 -3.399519E+03  6.998944E+03
       187  21  5.826849E+05  1.201182E+05  2.872450E+04  2.227854E+05 -1.914170E+03  6.126086E+03
       187  22  4.688976E+05  7.792103E+04  3.665777E+03  1.913851E+05 -5.934599E+03  7.460979E+03
       187  23  4.721976E+05  7.424794E+04  2.000088E+03  1.875343E+05 -4.465943E+03  6.596789E+03
       187  24  4.688692E+05  7.770896E+04  1.149032E+03  1.914659E+05 -2.992046E+03  5.719495E+03
       187  25  3.126484E+05  1.966426E+04 -3.404478E+04  1.483210E+05 -6.989251E+03  7.063379E+03
       187  26  3.371723E+05  2.391639E+04 -3.063896E+04  1.503449E+05 -5.532117E+03  6.194729E+03
       187  27  3.550664E+05  3.530065E+04 -2.642740E+04  1.601516E+05 -4.069708E+03  5.312985E+03
       188   1  5.646293E+05  1.134201E+05  2.397627E+04  2.178381E+05  1.475002E+03 -5.455046E+03
       188   2  5.468713E+05  1.021256E+05  1.863920E+04  2.081274E+05  7.046290E+02 -4.313837E+03
       188   3  5.223303E+05  9.768450E+04  1.352815E+04  2.061890E+05 -6.556968E+01 -3.173433E+03
       188   4  4.688459E+05  7.771918E+04  8.997026E+02  1.914367E+05  2.546475E+03 -5.050817E+03
       188   5  4.722379E+05  7.428987E+04  5.986174E+02  1.875517E+05  1.775458E+03 -3.909791E+03
       188   6  4.688464E+05  7.771420E+04  5.240946E+02  1.914391E+05  1.004602E+03 -2.769570E+03
       188   7  3.730721E+05  4.201913E+04 -2.217741E+04  1.650391E+05  3.617763E+03 -4.646659E+03
       188   8  3.976100E+05  4.645457E+04 -1.744237E+04  1.669783E+05  2.846148E+03 -3.505798E+03
       188   9  4.153650E+05  5.774401E+04 -1.248024E+04  1.766902E+05  2.074679E+03 -2.365742E+03
       188  10  5.646293E+05  1.134200E+05  2.397621E+04  2.178381E+05 -1.568239E-10  2.287839E-09
       188  11  5.468713E+05  1.021255E+05  1.863917E+04  2.081274E+05  8.226929E-10  2.705286E-09
       188  12  5.223303E+05  9.768449E+04  1.352813E+04  2.061890E+05  4.741396E-09  1.135907E-09
       188  13  4.688459E+05  7.771915E+04  8.996425E+02  1.914367E+05 -3.068671E-09  3.390184E-09
       188  14  4.722379E+05  7.428985E+04  5.985828E+02  1.875517E+05  1.716635E-09 -5.339187E-09
       188  15  4.688464E+05  7.771420E+04  5.240783E+02  1.914391E+05  3.003387E-09 -4.578144E-09
       188  16  3.730721E+05  4.201911E+04 -2.217747E+04  1.650391E+05  4.080148E-09  1.828236E-09
       188  17  3.976100E+05  4.645456E+04 -1.744241E+04  1.669783E+05  5.577980E-09  6.597822E-09
       188  18  4.153650E+05  5.774400E+04 -1.248026E+04  1.766902E+05  6.943069E-10 -8.137300E-10
       188  19  5.646293E+05  1.134201E+05  2.397627E+04  2.178381E+05 -1.475002E+03  5.455046E+03
       188  20  5.468713E+05  1.021256E+05  1.863920E+04  2.081274E+05 -7.046290E+02  4.313837E+03
       188  21  5.223303E+05  9.768450E+04  1.352815E+04  2.061890E+05  6.556968E+01  3.173433E+03
       188  22  4.688459E+05  7.771918E+04  8.997026E+02  1.914367E+05 -2.546475E+03  5.050817E+03
       188  23  4.722379E+05  7.428987E+04  5.986174E+02  1.875517E+05 -1.775458E+03  3.909791E+03
       188  24  4.688464E+05  7.771420E+04  5.240946E+02  1.914391E+05 -1.004602E+03  2.769570E+03
       188  25  3.730721E+05  4.201913E+04 -2.217741E+04  1.650391E+05 -3.617763E+03  4.646659E+03
       188  26  3.976100E+05  4.645457E+04 -1.744237E+04  1.669783E+05 -2.846148E+03  3.505798E+03
       188  27  4.153650E+05  5.774401E+04 -1.248024E+04  1.766902E+05 -2.074679E+03  2.365742E+03
       189   1  5.043941E+05  9.096861E+04  9.074952E+03  2.012543E+05 -4.295104E+02 -2.478477E+03
       189   2  4.866691E+05  7.970194E+04  4.268773E+03  1.915607E+05 -1.286830E+03 -1.372835E+03
       189   3  4.621875E+05  7.528376E+04 -2.445583E+02  1.896242E+05 -2.143873E+03 -2.678898E+02
       189   4  4.688523E+05  7.771134E+04  5.554170E+02  1.914364E+05  6.398251E+02 -2.074905E+03
       189   5  4.722317E+05  7.429311E+04  7.746247E+02  1.875557E+05 -2.181112E+02 -9.694852E+02
       189   6  4.688542E+05  7.772339E+04  1.287146E+03  1.914319E+05 -1.075784E+03  1.352322E+02
       189   7  4.333118E+05  6.445416E+04 -7.964204E+03  1.816191E+05  1.709094E+03 -1.671358E+03
       189   8  4.577946E+05  6.888430E+04 -2.719524E+03  1.835509E+05  8.505777E+02 -5.661473E+02
       189   9  4.755208E+05  8.016301E+04  2.818842E+03  1.932397E+05 -7.688685E+00  5.383568E+02
       189  10  5.043941E+05  9.096860E+04  9.074941E+03  2.012543E+05 -1.150711E-09 -6.185752E-09
       189  11  4.866691E+05  7.970194E+04  4.268767E+03  1.915607E+05  1.107138E-10  2.402009E-09
       189  12  4.621875E+05  7.528376E+04 -2.445671E+02  1.896242E+05 -1.682047E-09  6.287608E-09
       189  13  4.688523E+05  7.771133E+04  5.554081E+02  1.914364E+05  2.817249E-09  9.587370E-10
       189  14  4.722317E+05  7.429311E+04  7.746229E+02  1.875557E+05 -1.551135E-09 -4.261339E-09
       189  15  4.688542E+05  7.772339E+04  1.287143E+03  1.914319E+05 -2.279915E-09  7.954728E-09
       189  16  4.333118E+05  6.445415E+04 -7.964214E+03  1.816191E+05  2.891360E-09 -2.935773E-09
       189  17  4.577946E+05  6.888430E+04 -2.719526E+03  1.835509E+05  1.787491E-09 -2.252161E-09
       189  18  4.755208E+05  8.016301E+04  2.818841E+03  1.932397E+05  1.881215E-09 -1.121199E-09
       189  19  5.043941E+05  9.096861E+04  9.074952E+03  2.012543E+05  4.295104E+02  2.478477E+03
       189  20  4.866691E+05  7.970194E+04  4.268773E+03  1.915607E+05  1.286830E+03  1.372835E+03
       189  21  4.621875E+05  7.528376E+04 -2.445583E+02  1.896242E+05  2.143873E+03  2.678898E+02
       189  22  4.688523E+05  7.771134E+04  5.554170E+02  1.914364E+05 -6.398251E+02  2.074905E+03
       189  23  4.722317E+05  7.429311E+04  7.746247E+02  1.875557E+05  2.181112E+02  9.694852E+02
       189  24  4.688542E+05  7.772339E+04  1.287146E+03  1.914319E+05  1.075784E+03 -1.352322E+02
       189  25  4.333118E+05  6.445416E+04 -7.964204E+03  1.816191E+05 -1.709094E+03  1.671358E+03
       189  26  4.577946E+05  6.888430E+04 -2.719524E+03  1.835509E+05 -8.505777E+02  5.661473E+02
       189  27  4.755208E+05  8.016301E+04  2.818842E+03  1.932397E+05  7.688685E+00 -5.383568E+02
       190   1  4.442587E+05  6.859026E+04 -4.332965E+03  1.847743E+05 -2.667570E+03  3.673971E+02
       190   2  4.264401E+05  5.724930E+04 -8.053398E+03  1.749954E+05 -4.626526E+03  1.055140E+03
       190   3  4.021397E+05  5.313597E+04 -1.056415E+04  1.729362E+05 -6.581568E+03  1.732864E+03
       190   4  4.688999E+05  7.769871E+04  1.680903E+03  1.914648E+05 -1.595992E+03  7.718282E+02
       190   5  4.721628E+05  7.424767E+04  2.991087E+03  1.875430E+05 -3.563653E+03  1.456249E+03
       190   6  4.689454E+05  7.802607E+04  5.517898E+03  1.913407E+05 -5.527452E+03  2.130632E+03
       190   7  4.935419E+05  8.680726E+04  7.694764E+03  1.981556E+05 -5.243623E+02  1.176278E+03
       190   8  5.178876E+05  9.124624E+04  1.403546E+04  2.000915E+05 -2.500693E+03  1.857391E+03
       190   9  5.357556E+05  1.029165E+05  2.159963E+04  2.097471E+05 -4.473212E+03  2.528447E+03
       190  10  4.442587E+05  6.859026E+04 -4.332978E+03  1.847743E+05 -8.555970E-09  5.319973E-09
       190  11  4.264401E+05  5.724930E+04 -8.053440E+03  1.749954E+05 -1.019363E-08 -4.106431E-09
       190  12  4.021396E+05  5.313596E+04 -1.056424E+04  1.729362E+05 -3.657603E-09 -4.494402E-09
       190  13  4.688999E+05  7.769871E+04  1.680897E+03  1.914648E+05 -2.466417E-09  3.227038E-09
       190  14  4.721628E+05  7.424767E+04  2.991059E+03  1.875430E+05 -2.587199E-09 -1.621296E-09
       190  15  4.689454E+05  7.802606E+04  5.517832E+03  1.913408E+05 -2.882538E-09 -3.507105E-09
       190  16  4.935419E+05  8.680726E+04  7.694761E+03  1.981556E+05  6.713065E-09  6.921834E-09
       190  17  5.178876E+05  9.124623E+04  1.403544E+04  2.000915E+05  4.033673E-09  5.204860E-09
       190  18  5.357556E+05  1.029165E+05  2.159958E+04  2.097471E+05  3.124976E-09  3.529455E-09
       190  19  4.442587E+05  6.859026E+04 -4.332965E+03  1.847743E+05  2.667570E+03 -3.673971E+02
       190  20  4.264401E+05  5.724930E+04 -8.053398E+03  1.749954E+05  4.626526E+03 -1.055140E+03
       190  21  4.021397E+05  5.313597E+04 -1.056415E+04  1.729362E+05  6.581568E+03 -1.732864E+03
       190  22  4.688999E+05  7.769871E+04  1.680903E+03  1.914648E+05  1.595992E+03 -7.718282E+02
       190  23  4.721628E+05  7.424767E+04  2.991087E+03  1.875430E+05  3.563653E+03 -1.456249E+03
       190  24  4.689454E+05  7.802607E+04  5.517898E+03  1.913407E+05  5.527452E+03 -2.130632E+03
       190  25  4.935419E+05  8.680726E+04  7.694764E+03  1.981556E+05  5.243623E+02 -1.176278E+03
       190  26  5.178876E+05  9.124624E+04  1.403546E+04  2.000915E+05  2.500693E+03 -1.857391E+03
       190  27  5.357556E+05  1.029165E+05  2.159963E+04  2.097471E+05  4.473212E+03 -2.528447E+03
       191   1  3.837909E+05  4.659229E+04 -1.330857E+04  1.692508E+05 -7.962647E+03  2.072334E+03
       191   2  3.660219E+05  3.403811E+04 -1.260060E+04  1.577628E+05 -1.483210E+04  8.525831E+02
       191   3  3.445510E+05  3.449315E+04 -5.455573E+03  1.527083E+05 -2.161057E+04 -6.071681E+02
       191   4  4.693073E+05  7.746390E+04  7.250914E+03  1.917548E+05 -6.834244E+03  2.498107E+03
       191   5  4.715634E+05  7.394208E+04  1.303645E+04  1.874043E+05 -1.390999E+04  1.200401E+03
       191   6  4.701575E+05  8.346929E+04  2.542150E+04  1.894869E+05 -2.089501E+04 -3.374163E+02
       191   7  5.548304E+05  1.083358E+05  2.780976E+04  2.142615E+05 -5.705677E+03  2.923938E+03
       191   8  5.771159E+05  1.138469E+05  3.867266E+04  2.170504E+05 -1.298770E+04  1.548286E+03
       191   9  5.957803E+05  1.324472E+05  5.629755E+04  2.262726E+05 -2.017929E+04 -6.759753E+01
       191  10  3.837909E+05  4.659227E+04 -1.330870E+04  1.692508E+05 -1.031635E-08 -7.401201E-09
       191  11  3.660217E+05  3.403805E+04 -1.260102E+04  1.577628E+05 -2.390712E-09  7.654207E-10
       191  12  3.445505E+05  3.449302E+04 -5.456451E+03  1.527083E+05  1.127049E-08  2.315436E-09
       191  13  4.693072E+05  7.746388E+04  7.250815E+03  1.917548E+05 -6.679880E-09 -8.448155E-09
       191  14  4.715632E+05  7.394203E+04  1.303608E+04  1.874043E+05 -6.645175E-09 -3.963671E-09
       191  15  4.701571E+05  8.346917E+04  2.542068E+04  1.894869E+05  1.317897E-09 -8.073695E-09
       191  16  5.548303E+05  1.083357E+05  2.780968E+04  2.142615E+05  5.710354E-09  2.854626E-09
       191  17  5.771157E+05  1.138469E+05  3.867234E+04  2.170504E+05 -3.073122E-09 -4.074454E-09
       191  18  5.957798E+05  1.324471E+05  5.629678E+04  2.262726E+05 -1.361715E-08 -1.176885E-08
       191  19  3.837909E+05  4.659229E+04 -1.330857E+04  1.692508E+05  7.962647E+03 -2.072334E+03
       191  20  3.660219E+05  3.403811E+04 -1.260060E+04  1.577628E+05  1.483210E+04 -8.525831E+02
       191  21  3.445510E+05  3.449315E+04 -5.455573E+03  1.527083E+05  2.161057E+04  6.071681E+02
       191  22  4.693073E+05  7.746390E+04  7.250914E+03  1.917548E+05  6.834244E+03 -2.498107E+03
       191  23  4.715634E+05  7.394208E+04  1.303645E+04  1.874043E+05  1.390999E+04 -1.200401E+03
       191  24  4.701575E+05  8.346929E+04  2.542150E+04  1.894869E+05  2.089501E+04  3.374163E+02
       191  25  5.548304E+05  1.083358E+05  2.780976E+04  2.142615E+05  5.705677E+03 -2.923938E+03
       191  26  5.771159E+05  1.138469E+05  3.867266E+04  2.170504E+05  1.298770E+04 -1.548286E+03
       191  27  5.957803E+05  1.324472E+05  5.629755E+04  2.262726E+05  2.017929E+04  6.759753E+01
       192   1  3.185571E+05  2.989321E+04 -3.029197E+03  1.673656E+05 -2.782340E+04 -1.508168E+03
       192   2  3.090664E+05 -2.162703E+03  1.553873E+04  1.271277E+05 -5.349247E+04 -1.112697E+04
       192   3  3.329008E+05  6.983641E+04  7.987639E+04  6.933278E+04 -7.712659E+04 -2.613872E+04
       192   4  4.742789E+05  7.364887E+04  3.205518E+04  1.955640E+05 -2.547675E+04 -6.223849E+02
       192   5  4.642463E+05  7.105065E+04  5.637387E+04  1.855260E+05 -5.576259E+04 -1.198491E+04
       192   6  4.884393E+05  1.734010E+05  1.301105E+05  1.579343E+05 -8.401372E+04 -2.874265E+04
       192   7  6.300254E+05  1.174043E+05  6.713828E+04  2.237677E+05 -2.312945E+04  2.635075E+02
       192   8  6.194495E+05  1.442696E+05  9.720671E+04  2.439386E+05 -5.803331E+04 -1.284320E+04
       192   9  6.440037E+05  2.769853E+05  1.803421E+05  2.465594E+05 -9.090259E+04 -3.134848E+04
       192  10  3.185563E+05  2.989300E+04 -3.030656E+03  1.673656E+05 -1.545961E-09 -2.961951E-09
       192  11  3.090633E+05 -2.163603E+03  1.553312E+04  1.271272E+05 -2.833900E-09  6.533850E-10
       192  12  3.328943E+05  6.983408E+04  7.986393E+04  6.933116E+04  2.960593E-09  6.126412E-09
       192  13  4.742782E+05  7.364870E+04  3.205396E+04  1.955640E+05  3.490755E-09 -8.186720E-09
       192  14  4.642430E+05  7.104967E+04  5.636776E+04  1.855255E+05  3.723904E-09 -1.362850E-09
       192  15  4.884315E+05  1.733982E+05  1.300957E+05  1.579324E+05  1.347882E-09  2.083147E-09
       192  16  6.300248E+05  1.174042E+05  6.713728E+04  2.237677E+05  7.240907E-09  6.336787E-09
       192  17  6.194458E+05  1.442686E+05  9.720008E+04  2.439380E+05  7.793939E-10  4.266027E-09
       192  18  6.439946E+05  2.769821E+05  1.803247E+05  2.465571E+05 -5.148977E-09 -1.506154E-09
       192  19  3.185571E+05  2.989321E+04 -3.029197E+03  1.673656E+05  2.782340E+04  1.508168E+03
       192  20  3.090664E+05 -2.162703E+03  1.553873E+04  1.271277E+05  5.349247E+04  1.112697E+04
       192  21  3.329008E+05  6.983641E+04  7.987639E+04  6.933278E+04  7.712659E+04  2.613872E+04
       192  22  4.742789E+05  7.364887E+04  3.205518E+04  1.955640E+05  2.547675E+04  6.223849E+02
       192  23  4.642463E+05  7.105065E+04  5.637387E+04  1.855260E+05  5.576259E+04  1.198491E+04
       192  24  4.884393E+05  1.734010E+05  1.301105E+05  1.579343E+05  8.401372E+04  2.874265E+04
       192  25  6.300254E+05  1.174043E+05  6.713828E+04  2.237677E+05  2.312945E+04 -2.635075E+02
       192  26  6.194495E+05  1.442696E+05  9.720671E+04  2.439386E+05  5.803331E+04  1.284320E+04
       192  27  6.440037E+05  2.769853E+05  1.803421E+05  2.465594E+05  9.090259E+04  3.134848E+04
       193   1 -8.764816E+04 -5.496992E+05 -8.977818E+04  8.204452E+04 -2.680334E+03 -1.798599E+04
       193   2 -4.008137E+04 -4.215421E+05 -4.698284E+04  4.786251E+04 -6.433363E+03 -6.444783E+03
       193   3 -9.397159E+03 -2.989181E+05 -1.589688E+04  7.309586E+04 -1.612902E+03  5.108156E+03
       193   4 -1.508965E+04 -2.585591E+05 -1.834692E+04  7.524787E+04 -2.686653E+03 -1.163478E+04
       193   5  5.696011E+02 -2.563683E+05 -8.992567E+03  4.554847E+04 -6.432789E+03 -6.877344E+03
       193   6  5.281182E+02 -2.585457E+05 -6.631008E+03  7.526441E+04 -1.606301E+03 -2.110626E+03
       193   7  5.746276E+04  3.265842E+04  5.307828E+04  6.844805E+04 -2.693110E+03 -5.280591E+03
       193   8  4.121869E+04 -9.116925E+04  2.899591E+04  4.323382E+04 -6.432212E+03 -7.310020E+03
       193   9  1.045333E+04 -2.181718E+05  2.634950E+03  7.743310E+04 -1.599750E+03 -9.329874E+03
       193  10 -8.764826E+04 -5.496995E+05 -8.977880E+04  8.204448E+04  8.113105E-10  1.365994E-08
       193  11 -4.008143E+04 -4.215422E+05 -4.698300E+04  4.786248E+04  5.704137E-09  1.012985E-08
       193  12 -9.397169E+03 -2.989181E+05 -1.589693E+04  7.309587E+04  5.700955E-09 -1.557124E-12
       193  13 -1.508970E+04 -2.585592E+05 -1.834719E+04  7.524785E+04 -2.930150E-09  6.681732E-11
       193  14  5.695440E+02 -2.563684E+05 -8.992734E+03  4.554844E+04  1.056705E-09  2.287465E-09
       193  15  5.281143E+02 -2.585457E+05 -6.631021E+03  7.526441E+04 -5.036176E-09 -3.250733E-09
       193  16  5.746274E+04  3.265839E+04  5.307822E+04  6.844803E+04  8.248768E-10 -1.491595E-08
       193  17  4.121863E+04 -9.116932E+04  2.899573E+04  4.323378E+04  4.141792E-09 -6.044719E-09
       193  18  1.045330E+04 -2.181719E+05  2.634781E+03  7.743309E+04  1.024676E-10  2.145393E-09
       193  19 -8.764816E+04 -5.496992E+05 -8.977818E+04  8.204452E+04  2.680334E+03  1.798599E+04
       193  20 -4.008137E+04 -4.215421E+05 -4.698284E+04  4.786251E+04  6.433363E+03  6.444783E+03
       193  21 -9.397159E+03 -2.989181E+05 -1.589688E+04  7.309586E+04  1.612902E+03 -5.108156E+03
       193  22 -1.508965E+04 -2.585591E+05 -1.834692E+04  7.524787E+04  2.686653E+03  1.163478E+04
       193  23  5.696011E+02 -2.563683E+05 -8.992567E+03  4.554847E+04  6.432789E+03  6.877344E+03
       193  24  5.281182E+02 -2.585457E+05 -6.631008E+03  7.526441E+04  1.606301E+03  2.110626E+03
       193  25  5.746276E+04  3.265842E+04  5.307828E+04  6.844805E+04  2.693110E+03  5.280591E+03
       193  26  4.121869E+04 -9.116925E+04  2.899591E+04  4.323382E+04  6.432212E+03  7.310020E+03
       193  27  1.045333E+04 -2.181718E+05  2.634950E+03  7.743310E+04  1.599750E+03  9.329874E+03
       194   1  1.659007E+04 -1.860541E+05  1.002422E+04  7.598895E+04  3.208523E+03  3.818993E+03
       194   2  4.842115E+04 -6.021650E+04  3.830043E+04  4.522118E+04  9.113198E+03  6.631854E+03
       194   3  7.695023E+04  6.463145E+04  6.395870E+04  7.417173E+04  1.456544E+04  9.446469E+03
       194   4 -1.021286E+03 -2.578133E+05 -6.263502E+03  7.532746E+04  3.212986E+03 -1.037943E+03
       194   5  8.532246E+01 -2.572869E+05 -6.273306E+03  4.546701E+04  9.117967E+03  2.132065E+03
       194   6 -2.171705E+03 -2.578273E+05 -9.149036E+03  7.532624E+04  1.457041E+04  5.303276E+03
       194   7 -1.863298E+04 -3.295677E+05 -2.255147E+04  7.466604E+04  3.217459E+03 -5.894323E+03
       194   8 -4.825316E+04 -4.543211E+05 -5.084946E+04  4.571277E+04  9.122734E+03 -2.366309E+03
       194   9 -8.130080E+04 -5.801894E+05 -8.226342E+04  7.648017E+04  1.457536E+04  1.162214E+03
       194  10  1.659005E+04 -1.860541E+05  1.002418E+04  7.598894E+04  2.558492E-09 -2.644286E-09
       194  11  4.842105E+04 -6.021657E+04  3.830019E+04  4.522113E+04  1.397767E-09 -6.311178E-09
       194  12  7.694998E+04  6.463129E+04  6.395814E+04  7.417162E+04 -1.928187E-09 -1.143071E-08
       194  13 -1.021298E+03 -2.578133E+05 -6.263523E+03  7.532746E+04 -5.916716E-09  1.085983E-09
       194  14  8.523198E+01 -2.572869E+05 -6.273471E+03  4.546699E+04 -2.648627E-09  7.482196E-10
       194  15 -2.171940E+03 -2.578274E+05 -9.149488E+03  7.532618E+04  2.827329E-10 -5.461681E-09
       194  16 -1.863300E+04 -3.295677E+05 -2.255156E+04  7.466606E+04 -5.552153E-10  4.441689E-10
       194  17 -4.825326E+04 -4.543211E+05 -5.084963E+04  4.571279E+04  1.844957E-09  7.196019E-09
       194  18 -8.130103E+04 -5.801894E+05 -8.226383E+04  7.648015E+04 -3.965912E-09  9.956408E-09
       194  19  1.659007E+04 -1.860541E+05  1.002422E+04  7.598895E+04 -3.208523E+03 -3.818993E+03
       194  20  4.842115E+04 -6.021650E+04  3.830043E+04  4.522118E+04 -9.113198E+03 -6.631854E+03
       194  21  7.695023E+04  6.463145E+04  6.395870E+04  7.417173E+04 -1.456544E+04 -9.446469E+03
       194  22 -1.021286E+03 -2.578133E+05 -6.263502E+03  7.532746E+04 -3.212986E+03  1.037943E+03
       194  23  8.532246E+01 -2.572869E+05 -6.273306E+03  4.546701E+04 -9.117967E+03 -2.132065E+03
       194  24 -2.171705E+03 -2.578273E+05 -9.149036E+03  7.532624E+04 -1.457041E+04 -5.303276E+03
       194  25 -1.863298E+04 -3.295677E+05 -2.255147E+04  7.466604E+04 -3.217459E+03  5.894323E+03
       194  26 -4.825316E+04 -4.543211E+05 -5.084946E+04  4.571277E+04 -9.122734E+03  2.366309E+03
       194  27 -8.130080E+04 -5.801894E+05 -8.226342E+04  7.648017E+04 -1.457536E+04 -1.162214E+03
       195   1  1.079432E+05  1.751601E+05  8.732313E+04  7.928095E+04  2.036831E+04  1.655034E+04
       195   2  1.384533E+05  3.036007E+05  1.104695E+05  4.065124E+04  2.332608E+04  1.115661E+04
       195   3  1.397019E+05  4.258099E+05  1.298875E+05  6.091864E+04  7.923603E+03  5.733228E+03
       195   4  1.375348E+03 -2.595600E+05 -1.084595E+04  7.515862E+04  2.038027E+04  6.934792E+03
       195   5  1.152869E+03 -2.551926E+05 -1.719038E+04  4.568377E+04  2.332079E+04  1.608221E+04
       195   6 -3.086918E+04 -2.596026E+05 -3.736703E+04  7.511076E+04  7.893544E+03  2.520067E+04
       195   7 -1.052054E+05 -6.941043E+05 -1.090268E+05  7.103924E+04  2.039236E+04 -2.674090E+03
       195   8 -1.361692E+05 -8.136965E+05 -1.448706E+05  5.071183E+04  2.331558E+04  2.100341E+04
       195   9 -2.014741E+05 -9.445856E+05 -2.046543E+05  8.928732E+04  7.864360E+03  4.464667E+04
       195  10  1.079427E+05  1.751597E+05  8.732184E+04  7.928068E+04  7.445084E-10  2.491254E-09
       195  11  1.384527E+05  3.036004E+05  1.104682E+05  4.065103E+04 -5.183600E-09  1.106183E-08
       195  12  1.397019E+05  4.258098E+05  1.298873E+05  6.091861E+04 -7.398892E-10  1.110999E-08
       195  13  1.374889E+03 -2.595602E+05 -1.084682E+04  7.515850E+04 -2.031694E-09  2.085863E-09
       195  14  1.152215E+03 -2.551931E+05 -1.719189E+04  4.568347E+04 -4.077386E-09  2.726687E-09
       195  15 -3.086942E+04 -2.596033E+05 -3.736834E+04  7.511060E+04  1.099485E-10 -4.533669E-09
       195  16 -1.052058E+05 -6.941044E+05 -1.090276E+05  7.103928E+04 -3.583960E-09 -3.862790E-09
       195  17 -1.361699E+05 -8.136971E+05 -1.448724E+05  5.071144E+04  3.267065E-09 -6.682864E-09
       195  18 -2.014747E+05 -9.445878E+05 -2.046581E+05  8.928704E+04  1.676179E-09 -9.761659E-09
       195  19  1.079432E+05  1.751601E+05  8.732313E+04  7.928095E+04 -2.036831E+04 -1.655034E+04
       195  20  1.384533E+05  3.036007E+05  1.104695E+05  4.065124E+04 -2.332608E+04 -1.115661E+04
       195  21  1.397019E+05  4.258099E+05  1.298875E+05  6.091864E+04 -7.923603E+03 -5.733228E+03
       195  22  1.375348E+03 -2.595600E+05 -1.084595E+04  7.515862E+04 -2.038027E+04 -6.934792E+03
       195  23  1.152869E+03 -2.551926E+05 -1.719038E+04  4.568377E+04 -2.332079E+04 -1.608221E+04
       195  24 -3.086918E+04 -2.596026E+05 -3.736703E+04  7.511076E+04 -7.893544E+03 -2.520067E+04
       195  25 -1.052054E+05 -6.941043E+05 -1.090268E+05  7.103924E+04 -2.039236E+04  2.674090E+03
       195  26 -1.361692E+05 -8.136965E+05 -1.448706E+05  5.071183E+04 -2.331558E+04 -2.100341E+04
       195  27 -2.014741E+05 -9.445856E+05 -2.046543E+05  8.928732E+04 -7.864360E+03 -4.464667E+04
       196   1  2.148103E+05  1.303185E+05  1.180690E+05  3.161746E+04  2.410590E+04 -9.357594E+03
       196   2  1.629395E+05  1.390867E+05  9.985341E+04  3.851868E+04  6.645098E+03 -3.135577E+04
       196   3  1.094401E+05  1.321610E+05  8.909679E+04  5.593892E+04 -1.082525E+04 -3.748841E+04
       196   4 -4.578073E+05 -3.569810E+04 -3.954594E+04  5.365057E+04 -2.758432E+04 -9.403119E+03
       196   5 -4.545940E+05 -8.237731E+03 -1.926560E+04  4.837303E+04 -1.762376E+04 -3.138225E+04
       196   6 -4.577790E+05 -1.242221E+03 -1.057430E+04  5.361526E+04 -7.674509E+03 -3.748793E+04
       196   7 -1.130001E+06 -2.017436E+05 -1.971814E+05  7.565955E+04 -7.921888E+04 -9.452339E+03
       196   8 -1.071759E+06 -1.555842E+05 -1.384000E+05  5.821725E+04 -4.186903E+04 -3.140952E+04
       196   9 -1.024683E+06 -1.346630E+05 -1.102570E+05  5.129369E+04 -4.526560E+03 -3.748748E+04
       196  10  2.148097E+05  1.303182E+05  1.180677E+05  3.161764E+04 -7.092925E-10 -7.541229E-11
       196  11  1.629392E+05  1.390857E+05  9.985148E+04  3.851885E+04 -1.460551E-09 -1.544205E-09
       196  12  1.094396E+05  1.321595E+05  8.909393E+04  5.593859E+04 -1.605394E-09 -2.305148E-09
       196  13 -4.578081E+05 -3.569840E+04 -3.954754E+04  5.365036E+04  2.732309E-10  1.066696E-09
       196  14 -4.545946E+05 -8.238871E+03 -1.926803E+04  4.837258E+04 -5.626960E-09 -3.724937E-10
       196  15 -4.577794E+05 -1.243745E+03 -1.057705E+04  5.361503E+04  2.201297E-10 -8.641074E-10
       196  16 -1.130008E+06 -2.017454E+05 -1.971934E+05  7.565895E+04 -5.692680E-10  9.047565E-10
       196  17 -1.071761E+06 -1.555857E+05 -1.384052E+05  5.821619E+04 -4.803744E-09 -1.787427E-09
       196  18 -1.024683E+06 -1.346646E+05 -1.102597E+05  5.129355E+04 -4.943640E-10 -4.242139E-09
       196  19  2.148103E+05  1.303185E+05  1.180690E+05  3.161746E+04 -2.410590E+04  9.357594E+03
       196  20  1.629395E+05  1.390867E+05  9.985341E+04  3.851868E+04 -6.645098E+03  3.135577E+04
       196  21  1.094401E+05  1.321610E+05  8.909679E+04  5.593892E+04  1.082525E+04  3.748841E+04
       196  22 -4.578073E+05 -3.569810E+04 -3.954594E+04  5.365057E+04  2.758432E+04  9.403119E+03
       196  23 -4.545940E+05 -8.237731E+03 -1.926560E+04  4.837303E+04  1.762376E+04  3.138225E+04
       196  24 -4.577790E+05 -1.242221E+03 -1.057430E+04  5.361526E+04  7.674509E+03  3.748793E+04
       196  25 -1.130001E+06 -2.017436E+05 -1.971814E+05  7.565955E+04  7.921888E+04  9.452339E+03
       196  26 -1.071759E+06 -1.555842E+05 -1.384000E+05  5.821725E+04  4.186903E+04  3.140952E+04
       196  27 -1.024683E+06 -1.346630E+05 -1.102570E+05  5.129369E+04  4.526560E+03  3.748748E+04
       197   1  7.582395E+04  1.233615E+05  8.447782E+04  5.361635E+04 -7.849423E+03 -3.608573E+04
       197   2  2.323311E+04  1.119268E+05  7.670657E+04  4.828904E+04 -8.180004E+03 -3.445845E+04
       197   3 -2.948584E+04  9.983873E+04  6.898573E+04  5.454471E+04 -8.513248E+03 -3.136237E+04
       197   4 -4.564774E+05 -1.621407E+03 -8.038077E+03  5.385594E+04 -6.301715E+03 -3.608671E+04
       197   5 -4.561832E+05 -2.038567E+02 -4.421229E+03  4.806304E+04 -4.095469E+03 -3.445580E+04
       197   6 -4.564599E+05  1.197526E+02 -2.516543E+03  5.385370E+04 -1.891870E+03 -3.135552E+04
       197   7 -9.885009E+05 -1.266197E+05 -1.005639E+05  5.409523E+04 -4.755291E+03 -3.608768E+04
       197   8 -9.353729E+05 -1.123466E+05 -8.555637E+04  4.783714E+04 -1.398485E+01 -3.445315E+04
       197   9 -8.832539E+05 -9.960873E+04 -7.402432E+04  5.316311E+04  4.725105E+03 -3.134868E+04
       197  10  7.582354E+04  1.233601E+05  8.447526E+04  5.361612E+04 -8.186898E-09 -3.068991E-09
       197  11  2.323272E+04  1.119255E+05  7.670422E+04  4.828881E+04  2.119385E-09  9.135694E-10
       197  12 -2.948618E+04  9.983765E+04  6.898375E+04  5.454450E+04  2.529306E-09  6.123123E-10
       197  13 -4.564778E+05 -1.622816E+03 -8.040598E+03  5.385576E+04  2.728090E-09 -2.692046E-09
       197  14 -4.561835E+05 -2.051358E+02 -4.423491E+03  4.806293E+04  4.000439E-09 -1.356797E-11
       197  15 -4.564601E+05  1.186962E+02 -2.518397E+03  5.385365E+04  4.014502E-09 -1.517680E-09
       197  16 -9.885013E+05 -1.266211E+05 -1.005664E+05  5.409509E+04  6.838610E-09 -1.854819E-09
       197  17 -9.353733E+05 -1.123479E+05 -8.555860E+04  4.783714E+04 -5.148752E-10  9.020890E-11
       197  18 -8.832542E+05 -9.960980E+04 -7.402621E+04  5.316323E+04  2.614875E-09 -2.886552E-10
       197  19  7.582395E+04  1.233615E+05  8.447782E+04  5.361635E+04  7.849423E+03  3.608573E+04
       197  20  2.323311E+04  1.119268E+05  7.670657E+04  4.828904E+04  8.180004E+03  3.445845E+04
       197  21 -2.948584E+04  9.983873E+04  6.898573E+04  5.454471E+04  8.513248E+03  3.136237E+04
       197  22 -4.564774E+05 -1.621407E+03 -8.038077E+03  5.385594E+04  6.301715E+03  3.608671E+04
       197  23 -4.561832E+05 -2.038567E+02 -4.421229E+03  4.806304E+04  4.095469E+03  3.445580E+04
       197  24 -4.564599E+05  1.197526E+02 -2.516543E+03  5.385370E+04  1.891870E+03  3.135552E+04
       197  25 -9.885009E+05 -1.266197E+05 -1.005639E+05  5.409523E+04  4.755291E+03  3.608768E+04
       197  26 -9.353729E+05 -1.123466E+05 -8.555637E+04  4.783714E+04  1.398485E+01  3.445315E+04
       197  27 -8.832539E+05 -9.960873E+04 -7.402432E+04  5.316311E+04 -4.725105E+03  3.134868E+04
       198   1 -6.361956E+04  9.175947E+04  6.357372E+04  5.437874E+04 -7.984290E+03 -2.910003E+04
       198   2 -1.163153E+05  7.947788E+04  5.549608E+04  4.846873E+04 -7.684017E+03 -2.528351E+04
       198   3 -1.690713E+05  6.721129E+04  4.721909E+04  5.425482E+04 -7.384895E+03 -2.132960E+04
       198   4 -4.563507E+05  9.302510E+01 -1.912174E+03  5.387911E+04 -1.508409E+03 -2.909281E+04
       198   5 -4.562926E+05  1.422814E+02 -1.093827E+03  4.803082E+04 -9.713039E+02 -2.527517E+04
       198   6 -4.563386E+05  1.654798E+02 -6.396120E+02  5.387900E+04 -4.353253E+02 -2.132010E+04
       198   7 -8.489295E+05 -9.158144E+04 -6.740263E+04  5.337975E+04  4.963511E+03 -2.908560E+04
       198   8 -7.961555E+05 -7.919930E+04 -5.768708E+04  4.759311E+04  5.737855E+03 -2.526684E+04
       198   9 -7.435244E+05 -6.688461E+04 -4.850066E+04  5.350333E+04  6.511135E+03 -2.131061E+04
       198  10 -6.361985E+04  9.175855E+04  6.357201E+04  5.437855E+04 -1.862282E-09  1.529251E-09
       198  11 -1.163156E+05  7.947717E+04  5.549476E+04  4.846857E+04 -6.973735E-10  1.999561E-09
       198  12 -1.690715E+05  6.721079E+04  4.721814E+04  5.425469E+04  1.507977E-09  5.353816E-10
       198  13 -4.563510E+05  9.211581E+01 -1.913768E+03  5.387907E+04  1.022345E-09 -2.095582E-09
       198  14 -4.562928E+05  1.415953E+02 -1.095029E+03  4.803080E+04  7.173683E-09  1.976325E-09
       198  15 -4.563388E+05  1.649917E+02 -6.404664E+02  5.387899E+04  1.470397E-09  3.813112E-09
       198  16 -8.489297E+05 -9.158235E+04 -6.740427E+04  5.337986E+04  2.914297E-09  5.259441E-11
       198  17 -7.961558E+05 -7.920000E+04 -5.768834E+04  4.759323E+04 -1.832260E-09  1.669138E-09
       198  18 -7.435245E+05 -6.688510E+04 -4.850159E+04  5.350344E+04  3.934067E-10  1.524954E-09
       198  19 -6.361956E+04  9.175947E+04  6.357372E+04  5.437874E+04  7.984290E+03  2.910003E+04
       198  20 -1.163153E+05  7.947788E+04  5.549608E+04  4.846873E+04  7.684017E+03  2.528351E+04
       198  21 -1.690713E+05  6.721129E+04  4.721909E+04  5.425482E+04  7.384895E+03  2.132960E+04
       198  22 -4.563507E+05  9.302510E+01 -1.912174E+03  5.387911E+04  1.508409E+03  2.909281E+04
       198  23 -4.562926E+05  1.422814E+02 -1.093827E+03  4.803082E+04  9.713039E+02  2.527517E+04
       198  24 -4.563386E+05  1.654798E+02 -6.396120E+02  5.387900E+04  4.353253E+02  2.132010E+04
       198  25 -8.489295E+05 -9.158144E+04 -6.740263E+04  5.337975E+04 -4.963511E+03  2.908560E+04
       198  26 -7.961555E+05 -7.919930E+04 -5.768708E+04  4.759311E+04 -5.737855E+03  2.526684E+04
       198  27 -7.435244E+05 -6.688461E+04 -4.850066E+04  5.350333E+04 -6.511135E+03  2.131061E+04
       199   1 -2.032727E+05  5.918286E+04  4.144394E+04  5.420901E+04 -7.273922E+03 -1.898515E+04
       199   2 -2.560288E+05  4.687660E+04  3.295143E+04  4.827922E+04 -7.146088E+03 -1.496260E+04
       199   3 -3.088279E+05  3.460684E+04  2.437389E+04  5.406626E+04 -7.018855E+03 -1.092707E+04
       199   4 -4.563231E+05  1.655068E+02 -4.963979E+02  5.388360E+04 -3.359947E+02 -1.897529E+04
       199   5 -4.562943E+05  1.537807E+02 -3.147744E+02  4.802507E+04 -1.861147E+02 -1.495222E+04
       199   6 -4.563161E+05  1.746058E+02 -2.338915E+02  5.388359E+04 -3.682613E+01 -1.091616E+04
       199   7 -7.093102E+05 -5.885514E+04 -4.243848E+04  5.355830E+04  6.599200E+03 -1.896542E+04
       199   8 -6.565202E+05 -4.657109E+04 -3.358201E+04  4.777098E+04  6.771688E+03 -1.494183E+04
       199   9 -6.037826E+05 -3.425874E+04 -2.484216E+04  5.370096E+04  6.943599E+03 -1.090525E+04
       199  10 -2.032728E+05  5.918246E+04  4.144317E+04  5.420890E+04  3.181150E-09  7.806854E-10
       199  11 -2.560289E+05  4.687634E+04  3.295092E+04  4.827913E+04 -1.585492E-09  5.416507E-09
       199  12 -3.088280E+05  3.460670E+04  2.437357E+04  5.406620E+04 -3.512629E-09  3.697648E-09
       199  13 -4.563232E+05  1.651202E+02 -4.970745E+02  5.388359E+04  2.936510E-09  1.160679E-09
       199  14 -4.562944E+05  1.535407E+02 -3.151945E+02  4.802506E+04  2.505758E-09  3.624331E-09
       199  15 -4.563161E+05  1.744779E+02 -2.341153E+02  5.388359E+04 -1.258886E-09  9.126113E-10
       199  16 -7.093103E+05 -5.885553E+04 -4.243923E+04  5.355840E+04 -4.379358E-10  1.045934E-09
       199  17 -6.565203E+05 -4.657134E+04 -3.358252E+04  4.777107E+04  4.654012E-09 -6.554014E-10
       199  18 -6.037827E+05 -3.425888E+04 -2.484247E+04  5.370102E+04  3.833341E-09 -7.390128E-11
       199  19 -2.032727E+05  5.918286E+04  4.144394E+04  5.420901E+04  7.273922E+03  1.898515E+04
       199  20 -2.560288E+05  4.687660E+04  3.295143E+04  4.827922E+04  7.146088E+03  1.496260E+04
       199  21 -3.088279E+05  3.460684E+04  2.437389E+04  5.406626E+04  7.018855E+03  1.092707E+04
       199  22 -4.563231E+05  1.655068E+02 -4.963979E+02  5.388360E+04  3.359947E+02  1.897529E+04
       199  23 -4.562943E+05  1.537807E+02 -3.147744E+02  4.802507E+04  1.861147E+02  1.495222E+04
       199  24 -4.563161E+05  1.746058E+02 -2.338915E+02  5.388359E+04  3.682613E+01  1.091616E+04
       199  25 -7.093102E+05 -5.885514E+04 -4.243848E+04  5.355830E+04 -6.599200E+03  1.896542E+04
       199  26 -6.565202E+05 -4.657109E+04 -3.358201E+04  4.777098E+04 -6.771688E+03  1.494183E+04
       199  27 -6.037826E+05 -3.425874E+04 -2.484216E+04  5.370096E+04 -6.943599E+03  1.090525E+04
       200   1 -3.430616E+05  2.657641E+04  1.847109E+04  5.402309E+04 -6.981440E+03 -8.573697E+03
       200   2 -3.958364E+05  1.426642E+04  9.781091E+03  4.808474E+04 -6.852701E+03 -4.534135E+03
       200   3 -4.486625E+05  1.988234E+03  1.002191E+03  5.387116E+04 -6.724134E+03 -5.008849E+02
       200   4 -4.563145E+05  1.766450E+02 -2.223482E+02  5.388532E+04  9.768645E-01 -8.562599E+03
       200   5 -4.562877E+05  1.638469E+02 -2.507389E+02  4.802290E+04  1.185721E+02 -4.522909E+03
       200   6 -4.563124E+05  1.850851E+02 -3.601716E+02  5.388531E+04  2.360060E+02 -4.895285E+02
       200   7 -5.695547E+05 -2.622376E+04 -1.891598E+04  5.374757E+04  6.982163E+03 -8.551502E+03
       200   8 -5.167354E+05 -1.393889E+04 -1.028250E+04  4.796107E+04  7.089189E+03 -4.511683E+03
       200   9 -4.639622E+05 -1.618041E+03 -1.722355E+03  5.389946E+04  7.196063E+03 -4.781717E+02
       200  10 -3.430617E+05  2.657632E+04  1.847086E+04  5.402304E+04  5.423517E-09 -3.309072E-10
       200  11 -3.958364E+05  1.426639E+04  9.780965E+03  4.808472E+04 -1.342995E-09 -2.642985E-09
       200  12 -4.486626E+05  1.988222E+03  1.002106E+03  5.387115E+04 -2.340087E-09 -3.212246E-09
       200  13 -4.563146E+05  1.765663E+02 -2.224859E+02  5.388532E+04  4.594355E-10  4.293143E-09
       200  14 -4.562878E+05  1.638250E+02 -2.507774E+02  4.802290E+04  5.006536E-10 -3.406855E-10
       200  15 -4.563124E+05  1.850849E+02 -3.601722E+02  5.388531E+04 -3.944272E-09 -4.359462E-09
       200  16 -5.695548E+05 -2.622385E+04 -1.891621E+04  5.374761E+04 -3.417889E-09  2.722898E-09
       200  17 -5.167355E+05 -1.393893E+04 -1.028263E+04  4.796109E+04 -6.961936E-10 -7.221873E-10
       200  18 -4.639622E+05 -1.618055E+03 -1.722452E+03  5.389946E+04  3.568522E-09 -2.108230E-09
       200  19 -3.430616E+05  2.657641E+04  1.847109E+04  5.402309E+04  6.981440E+03  8.573697E+03
       200  20 -3.958364E+05  1.426642E+04  9.781091E+03  4.808474E+04  6.852701E+03  4.534135E+03
       200  21 -4.486625E+05  1.988234E+03  1.002191E+03  5.387116E+04  6.724134E+03  5.008849E+02
       200  22 -4.563145E+05  1.766450E+02 -2.223482E+02  5.388532E+04 -9.768645E-01  8.562599E+03
       200  23 -4.562877E+05  1.638469E+02 -2.507389E+02  4.802290E+04 -1.185721E+02  4.522909E+03
       200  24 -4.563124E+05  1.850851E+02 -3.601716E+02  5.388531E+04 -2.360060E+02  4.895285E+02
       200  25 -5.695547E+05 -2.622376E+04 -1.891598E+04  5.374757E+04 -6.982163E+03  8.551502E+03
       200  26 -5.167354E+05 -1.393889E+04 -1.028250E+04  4.796107E+04 -7.089189E+03  4.511683E+03
       200  27 -4.639622E+05 -1.618041E+03 -1.722355E+03  5.389946E+04 -7.196063E+03  4.781717E+02
       201   1 -4.829132E+05 -6.044896E+03 -5.012309E+03  5.381563E+04 -6.662586E+03  1.849401E+03
       201   2 -5.356496E+05 -1.836592E+04 -1.402778E+04  4.787811E+04 -6.147364E+03  5.842954E+03
       201   3 -5.885024E+05 -3.071789E+04 -2.339943E+04  5.365940E+04 -5.631836E+03  9.751756E+03
       201   4 -4.563219E+05  1.881314E+02 -4.537567E+02  5.388394E+04  3.057080E+02  1.860757E+03
       201   5 -4.562766E+05  1.721267E+02 -7.576673E+02  4.802461E+04  6.743440E+02  5.853881E+03
       201   6 -4.563248E+05  1.507637E+02 -1.315968E+03  5.388400E+04  1.043328E+03  9.762261E+03
       201   7 -4.297299E+05  6.421147E+03  4.104954E+03  5.395225E+04  7.274291E+03  1.872114E+03
       201   8 -3.768972E+05  1.870987E+04  1.251243E+04  4.817113E+04  7.496896E+03  5.864810E+03
       201   9 -3.241299E+05  3.101852E+04  2.076713E+04  5.410864E+04  7.719867E+03  9.772770E+03
       201  10 -4.829132E+05 -6.044911E+03 -5.012399E+03  5.381564E+04 -3.067444E-09 -1.007366E-09
       201  11 -5.356497E+05 -1.836597E+04 -1.402792E+04  4.787814E+04 -3.956067E-09 -1.102086E-09
       201  12 -5.885024E+05 -3.071800E+04 -2.339967E+04  5.365945E+04 -6.139798E-09  7.689848E-10
       201  13 -4.563219E+05  1.881276E+02 -4.537634E+02  5.388393E+04  8.384466E-10 -1.855066E-09
       201  14 -4.562766E+05  1.720898E+02 -7.577325E+02  4.802461E+04 -4.152528E-10 -2.792933E-10
       201  15 -4.563249E+05  1.506611E+02 -1.316149E+03  5.388399E+04  1.114384E-09  1.989232E-09
       201  16 -4.297299E+05  6.421129E+03  4.104848E+03  5.395224E+04  1.273376E-09  6.604709E-10
       201  17 -3.768973E+05  1.870982E+04  1.251226E+04  4.817109E+04  6.769067E-09 -4.351120E-09
       201  18 -3.241300E+05  3.101841E+04  2.076683E+04  5.410858E+04  5.026144E-09  5.705078E-10
       201  19 -4.829132E+05 -6.044896E+03 -5.012309E+03  5.381563E+04  6.662586E+03 -1.849401E+03
       201  20 -5.356496E+05 -1.836592E+04 -1.402778E+04  4.787811E+04  6.147364E+03 -5.842954E+03
       201  21 -5.885024E+05 -3.071789E+04 -2.339943E+04  5.365940E+04  5.631836E+03 -9.751756E+03
       201  22 -4.563219E+05  1.881314E+02 -4.537567E+02  5.388394E+04 -3.057080E+02 -1.860757E+03
       201  23 -4.562766E+05  1.721267E+02 -7.576673E+02  4.802461E+04 -6.743440E+02 -5.853881E+03
       201  24 -4.563248E+05  1.507637E+02 -1.315968E+03  5.388400E+04 -1.043328E+03 -9.762261E+03
       201  25 -4.297299E+05  6.421147E+03  4.104954E+03  5.395225E+04 -7.274291E+03 -1.872114E+03
       201  26 -3.768972E+05  1.870987E+04  1.251243E+04  4.817113E+04 -7.496896E+03 -5.864810E+03
       201  27 -3.241299E+05  3.101852E+04  2.076713E+04  5.410864E+04 -7.719867E+03 -9.772770E+03
       202   1 -6.228444E+05 -3.875311E+04 -2.979838E+04  5.348882E+04 -5.461084E+03  1.205234E+04
       202   2 -6.752656E+05 -5.136401E+04 -4.037466E+04  4.793962E+04 -2.373345E+03  1.551848E+04
       202   3 -7.283768E+05 -6.498742E+04 -5.322647E+04  5.404384E+04  7.159128E+02  1.806986E+04
       202   4 -4.563991E+05  1.714651E+02 -1.729607E+03  5.386917E+04  1.305167E+03  1.206278E+04
       202   5 -4.561938E+05 -5.285487E+01 -3.033268E+03  4.804349E+04  2.813789E+03  1.552599E+04
       202   6 -4.564073E+05 -1.015187E+03 -5.514948E+03  5.387101E+04  4.324206E+03  1.807460E+04
       202   7 -2.899264E+05  3.909460E+04  2.633846E+04  5.424960E+04  8.073174E+03  1.207323E+04
       202   8 -2.370747E+05  5.125576E+04  3.430664E+04  4.814738E+04  8.002696E+03  1.553350E+04
       202   9 -1.843654E+05  6.295301E+04  4.219395E+04  5.369807E+04  7.934034E+03  1.807934E+04
       202  10 -6.228444E+05 -3.875327E+04 -2.979871E+04  5.348888E+04  4.328520E-10  3.647957E-09
       202  11 -6.752656E+05 -5.136427E+04 -4.037512E+04  4.793965E+04  3.580046E-09 -1.653374E-09
       202  12 -7.283769E+05 -6.498777E+04 -5.322708E+04  5.404383E+04  4.058150E-09  2.543595E-09
       202  13 -4.563991E+05  1.713084E+02 -1.729884E+03  5.386915E+04  2.972589E-09  3.773448E-09
       202  14 -4.561939E+05 -5.311579E+01 -3.033736E+03  4.804345E+04 -3.943326E-10  2.388562E-09
       202  15 -4.564074E+05 -1.015543E+03 -5.515597E+03  5.387095E+04 -4.600652E-10  1.902710E-10
       202  16 -2.899265E+05  3.909443E+04  2.633806E+04  5.424953E+04 -1.078074E-09  1.775972E-09
       202  17 -2.370748E+05  5.125548E+04  3.430607E+04  4.814728E+04 -9.041638E-10 -3.159925E-10
       202  18 -1.843655E+05  6.295265E+04  4.219322E+04  5.369795E+04 -3.683453E-09 -2.562837E-09
       202  19 -6.228444E+05 -3.875311E+04 -2.979838E+04  5.348882E+04  5.461084E+03 -1.205234E+04
       202  20 -6.752656E+05 -5.136401E+04 -4.037466E+04  4.793962E+04  2.373345E+03 -1.551848E+04
       202  21 -7.283768E+05 -6.498742E+04 -5.322647E+04  5.404384E+04 -7.159128E+02 -1.806986E+04
       202  22 -4.563991E+05  1.714651E+02 -1.729607E+03  5.386917E+04 -1.305167E+03 -1.206278E+04
       202  23 -4.561938E+05 -5.285487E+01 -3.033268E+03  4.804349E+04 -2.813789E+03 -1.552599E+04
       202  24 -4.564073E+05 -1.015187E+03 -5.514948E+03  5.387101E+04 -4.324206E+03 -1.807460E+04
       202  25 -2.899264E+05  3.909460E+04  2.633846E+04  5.424960E+04 -8.073174E+03 -1.207323E+04
       202  26 -2.370747E+05  5.125576E+04  3.430664E+04  4.814738E+04 -8.002696E+03 -1.553350E+04
       202  27 -1.843654E+05  6.295301E+04  4.219395E+04  5.369807E+04 -7.934034E+03 -1.807934E+04
       203   1 -7.639597E+05 -7.301532E+04 -6.166344E+04  5.210752E+04  6.583745E+02  1.983371E+04
       203   2 -8.130697E+05 -9.114499E+04 -8.301748E+04  5.493349E+04  2.454511E+04  1.759182E+04
       203   3 -8.695686E+05 -1.262833E+05 -1.241907E+05  6.875803E+04  4.844184E+04  5.462232E+03
       203   4 -4.573003E+05 -7.534016E+02 -7.254917E+03  5.372132E+04  5.264366E+03  1.983966E+04
       203   5 -4.550982E+05 -5.560905E+03 -1.321549E+04  4.823852E+04  1.208577E+04  1.757314E+04
       203   6 -4.573178E+05 -2.440653E+04 -2.713155E+04  5.375472E+04  1.891935E+04  5.420897E+03
       203   7 -1.505488E+05  7.150335E+04  4.715018E+04  5.533590E+04  9.872568E+03  1.984563E+04
       203   8 -9.700314E+04  8.001574E+04  5.658100E+04  4.153955E+04 -3.806071E+02  1.755473E+04
       203   9 -4.490798E+04  7.745943E+04  6.991931E+04  3.874133E+04 -1.062265E+04  5.381006E+03
       203  10 -7.639598E+05 -7.301575E+04 -6.166418E+04  5.210751E+04 -1.128305E-09  1.254273E-09
       203  11 -8.130704E+05 -9.114548E+04 -8.301920E+04  5.493314E+04  4.049456E-09 -2.278323E-09
       203  12 -8.695712E+05 -1.262840E+05 -1.241952E+05  6.875781E+04 -5.059424E-10 -1.156318E-09
       203  13 -4.573004E+05 -7.538316E+02 -7.255709E+03  5.372123E+04  4.270314E-10  3.257078E-09
       203  14 -4.550984E+05 -5.561276E+03 -1.321635E+04  4.823835E+04  5.354265E-09 -2.859477E-09
       203  15 -4.573182E+05 -2.440665E+04 -2.713227E+04  5.375464E+04 -2.655521E-09  1.394327E-09
       203  16 -1.505490E+05  7.150291E+04  4.714926E+04  5.533574E+04  2.436475E-09  2.055726E-09
       203  17 -9.700322E+04  8.001541E+04  5.658042E+04  4.153956E+04  1.260072E-11  2.163588E-09
       203  18 -4.490811E+04  7.745937E+04  6.991904E+04  3.874138E+04 -1.350213E-09  3.744543E-10
       203  19 -7.639597E+05 -7.301532E+04 -6.166344E+04  5.210752E+04 -6.583745E+02 -1.983371E+04
       203  20 -8.130697E+05 -9.114499E+04 -8.301748E+04  5.493349E+04 -2.454511E+04 -1.759182E+04
       203  21 -8.695686E+05 -1.262833E+05 -1.241907E+05  6.875803E+04 -4.844184E+04 -5.462232E+03
       203  22 -4.573003E+05 -7.534016E+02 -7.254917E+03  5.372132E+04 -5.264366E+03 -1.983966E+04
       203  23 -4.550982E+05 -5.560905E+03 -1.321549E+04  4.823852E+04 -1.208577E+04 -1.757314E+04
       203  24 -4.573178E+05 -2.440653E+04 -2.713155E+04  5.375472E+04 -1.891935E+04 -5.420897E+03
       203  25 -1.505488E+05  7.150335E+04  4.715018E+04  5.533590E+04 -9.872568E+03 -1.984563E+04
       203  26 -9.700314E+04  8.001574E+04  5.658100E+04  4.153955E+04  3.806071E+02 -1.755473E+04
       203  27 -4.490798E+04  7.745943E+04  6.991931E+04  3.874133E+04  1.062265E+04 -5.381006E+03
       204   1 -8.325400E+04  7.866658E+04  6.749394E+04  3.817314E+03 -1.533305E+04 -6.367669E+03
       204   2 -1.153136E+05  1.083673E+05  7.650035E+04  9.068653E+03 -1.495887E+04 -2.008848E+04
       204   3 -1.565953E+05  1.012901E+05  7.608622E+04  2.893477E+04 -1.460104E+04 -2.126635E+04
       204   4 -5.634448E+05 -4.060721E+04 -4.881366E+04  2.265921E+04 -3.354678E+04 -6.392630E+03
       204   5 -5.578258E+05  1.064401E+02 -2.224871E+04  1.532069E+04 -2.174120E+04 -2.009963E+04
       204   6 -5.634238E+05  2.041835E+03 -1.305308E+04  2.259796E+04 -9.951701E+03 -2.125969E+04
       204   7 -1.043423E+06 -1.598964E+05 -1.651364E+05  4.148640E+04 -5.174646E+04 -6.418706E+03
       204   8 -1.000155E+06 -1.081676E+05 -1.210099E+05  2.156815E+04 -2.851874E+04 -2.011092E+04
       204   9 -9.700972E+05 -9.721738E+04 -1.022023E+05  1.626528E+04 -5.305365E+03 -2.125313E+04
       204  10 -8.325427E+04  7.866647E+04  6.749342E+04  3.817236E+03 -4.397890E-09 -1.586799E-10
       204  11 -1.153139E+05  1.083668E+05  7.649917E+04  9.068411E+03  1.636185E-09  4.295950E-09
       204  12 -1.565957E+05  1.012896E+05  7.608497E+04  2.893452E+04  2.814068E-09  2.984323E-09
       204  13 -5.634460E+05 -4.060755E+04 -4.881585E+04  2.265903E+04 -3.889560E-09 -1.733104E-09
       204  14 -5.578264E+05  1.058793E+02 -2.225036E+04  1.532033E+04  1.008388E-09 -2.814317E-09
       204  15 -5.634241E+05  2.041323E+03 -1.305411E+04  2.259779E+04  2.943880E-10  1.684047E-09
       204  16 -1.043426E+06 -1.598971E+05 -1.651415E+05  4.148614E+04  3.881601E-09  6.224953E-10
       204  17 -1.000156E+06 -1.081682E+05 -1.210122E+05  2.156768E+04  1.329970E-09  6.425392E-09
       204  18 -9.700974E+05 -9.721787E+04 -1.022032E+05  1.626519E+04 -4.552506E-09 -2.716384E-10
       204  19 -8.325400E+04  7.866658E+04  6.749394E+04  3.817314E+03  1.533305E+04  6.367669E+03
       204  20 -1.153136E+05  1.083673E+05  7.650035E+04  9.068653E+03  1.495887E+04  2.008848E+04
       204  21 -1.565953E+05  1.012901E+05  7.608622E+04  2.893477E+04  1.460104E+04  2.126635E+04
       204  22 -5.634448E+05 -4.060721E+04 -4.881366E+04  2.265921E+04  3.354678E+04  6.392630E+03
       204  23 -5.578258E+05  1.064401E+02 -2.224871E+04  1.532069E+04  2.174120E+04  2.009963E+04
       204  24 -5.634238E+05  2.041835E+03 -1.305308E+04  2.259796E+04  9.951701E+03  2.125969E+04
       204  25 -1.043423E+06 -1.598964E+05 -1.651364E+05  4.148640E+04  5.174646E+04  6.418706E+03
       204  26 -1.000155E+06 -1.081676E+05 -1.210099E+05  2.156815E+04  2.851874E+04  2.011092E+04
       204  27 -9.700972E+05 -9.721738E+04 -1.022023E+05  1.626528E+04  5.305365E+03  2.125313E+04
       205   1 -1.845712E+05  8.975174E+04  7.255945E+04  2.246393E+04 -9.111119E+03 -1.894772E+04
       205   2 -2.210072E+05  8.296865E+04  6.890909E+04  1.540781E+04 -6.806287E+03 -1.756079E+04
       205   3 -2.582909E+05  7.409768E+04  6.323037E+04  2.361674E+04 -4.503419E+03 -1.560708E+04
       205   4 -5.611367E+05 -2.176936E+03 -1.037868E+04  2.276072E+04 -8.105122E+03 -1.894686E+04
       205   5 -5.606625E+05  1.026142E+02 -5.621535E+03  1.512579E+04 -5.285068E+03 -1.755875E+04
       205   6 -5.611279E+05  2.039525E+02 -3.251830E+03  2.275646E+04 -2.466850E+03 -1.560372E+04
       205   7 -9.375695E+05 -9.411513E+04 -9.332550E+04  2.305727E+04 -7.099727E+03 -1.894600E+04
       205   8 -9.002097E+05 -8.277114E+04 -8.015918E+04  1.484387E+04 -3.764670E+03 -1.755671E+04
       205   9 -8.638790E+05 -7.369592E+04 -6.973961E+04  2.189656E+04 -4.312618E+02 -1.560035E+04
       205  10 -1.845714E+05  8.975133E+04  7.255862E+04  2.246379E+04  8.996172E-09  1.786631E-10
       205  11 -2.210074E+05  8.296831E+04  6.890842E+04  1.540772E+04 -1.016228E-09  3.695246E-09
       205  12 -2.582910E+05  7.409742E+04  6.322988E+04  2.361668E+04 -7.852031E-09  4.109054E-09
       205  13 -5.611368E+05 -2.177339E+03 -1.037948E+04  2.276060E+04  3.884477E-09  6.847938E-09
       205  14 -5.606626E+05  1.022757E+02 -5.622167E+03  1.512571E+04  6.611378E-09 -9.745601E-09
       205  15 -5.611280E+05  2.036895E+02 -3.252299E+03  2.275643E+04 -8.467207E-10  4.044286E-09
       205  16 -9.375696E+05 -9.411553E+04 -9.332627E+04  2.305716E+04 -7.508292E-09 -4.588876E-09
       205  17 -9.002097E+05 -8.277148E+04 -8.015978E+04  1.484382E+04 -1.932900E-09 -2.266058E-09
       205  18 -8.638791E+05 -7.369618E+04 -6.974006E+04  2.189656E+04  5.413703E-09  1.485971E-09
       205  19 -1.845712E+05  8.975174E+04  7.255945E+04  2.246393E+04  9.111119E+03  1.894772E+04
       205  20 -2.210072E+05  8.296865E+04  6.890909E+04  1.540781E+04  6.806287E+03  1.756079E+04
       205  21 -2.582909E+05  7.409768E+04  6.323037E+04  2.361674E+04  4.503419E+03  1.560708E+04
       205  22 -5.611367E+05 -2.176936E+03 -1.037868E+04  2.276072E+04  8.105122E+03  1.894686E+04
       205  23 -5.606625E+05  1.026142E+02 -5.621535E+03  1.512579E+04  5.285068E+03  1.755875E+04
       205  24 -5.611279E+05  2.039525E+02 -3.251830E+03  2.275646E+04  2.466850E+03  1.560372E+04
       205  25 -9.375695E+05 -9.411513E+04 -9.332550E+04  2.305727E+04  7.099727E+03  1.894600E+04
       205  26 -9.002097E+05 -8.277114E+04 -8.015918E+04  1.484387E+04  3.764670E+03  1.755671E+04
       205  27 -8.638790E+05 -7.369592E+04 -6.973961E+04  2.189656E+04  4.312618E+02  1.560035E+04
       206   1 -2.883594E+05  6.645362E+04  5.717166E+04  2.322877E+04 -3.840020E+03 -1.433429E+04
       206   2 -3.253787E+05  5.751963E+04  5.018161E+04  1.549046E+04 -3.154427E+03 -1.225977E+04
       206   3 -3.625609E+05  4.852302E+04  4.271553E+04  2.314889E+04 -2.469555E+03 -1.015617E+04
       206   4 -5.609526E+05 -2.617154E+01 -2.502137E+03  2.278695E+04 -1.962642E+03 -1.433103E+04
       206   5 -5.608658E+05  7.320756E+01 -1.443680E+03  1.508827E+04 -1.250855E+03 -1.225620E+04
       206   6 -5.609472E+05  1.055635E+02 -8.794358E+02  2.278669E+04 -5.397464E+02 -1.015228E+04
       206   7 -8.334762E+05 -6.651092E+04 -6.218042E+04  2.234530E+04 -8.607841E+01 -1.432778E+04
       206   8 -7.963009E+05 -5.737693E+04 -5.307233E+04  1.468622E+04  6.520047E+02 -1.225264E+04
       206   9 -7.592967E+05 -4.831453E+04 -4.447679E+04  2.242458E+04  1.389452E+03 -1.014839E+04
       206  10 -2.883595E+05  6.645339E+04  5.717125E+04  2.322872E+04  1.594149E-09 -3.979114E-09
       206  11 -3.253788E+05  5.751947E+04  5.018131E+04  1.549042E+04  2.424861E-10 -2.853110E-09
       206  12 -3.625610E+05  4.852290E+04  4.271533E+04  2.314887E+04 -5.867248E-10 -1.527030E-09
       206  13 -5.609527E+05 -2.639306E+01 -2.502530E+03  2.278693E+04  2.181650E-09 -1.539457E-09
       206  14 -5.608658E+05  7.304588E+01 -1.443966E+03  1.508826E+04 -1.953201E-09 -3.028145E-09
       206  15 -5.609473E+05  1.054527E+02 -8.796300E+02  2.278668E+04  9.435266E-10 -4.219190E-09
       206  16 -8.334763E+05 -6.651114E+04 -6.218081E+04  2.234530E+04 -2.237856E-09 -3.732308E-09
       206  17 -7.963010E+05 -5.737709E+04 -5.307261E+04  1.468622E+04 -1.511359E-09  2.262993E-09
       206  18 -7.592967E+05 -4.831464E+04 -4.447699E+04  2.242459E+04 -1.483314E-09  3.264433E-09
       206  19 -2.883594E+05  6.645362E+04  5.717166E+04  2.322877E+04  3.840020E+03  1.433429E+04
       206  20 -3.253787E+05  5.751963E+04  5.018161E+04  1.549046E+04  3.154427E+03  1.225977E+04
       206  21 -3.625609E+05  4.852302E+04  4.271553E+04  2.314889E+04  2.469555E+03  1.015617E+04
       206  22 -5.609526E+05 -2.617154E+01 -2.502137E+03  2.278695E+04  1.962642E+03  1.433103E+04
       206  23 -5.608658E+05  7.320756E+01 -1.443680E+03  1.508827E+04  1.250855E+03  1.225620E+04
       206  24 -5.609472E+05  1.055635E+02 -8.794358E+02  2.278669E+04  5.397464E+02  1.015228E+04
       206  25 -8.334762E+05 -6.651092E+04 -6.218042E+04  2.234530E+04  8.607841E+01  1.432778E+04
       206  26 -7.963009E+05 -5.737693E+04 -5.307233E+04  1.468622E+04 -6.520047E+02  1.225264E+04
       206  27 -7.592967E+05 -4.831453E+04 -4.447679E+04  2.242458E+04 -1.389452E+03  1.014839E+04
       207   1 -3.929405E+05  4.105637E+04  3.601186E+04  2.309421E+04 -2.323978E+03 -8.924296E+03
       207   2 -4.301515E+05  3.196548E+04  2.813295E+04  1.529361E+04 -2.071294E+03 -6.810267E+03
       207   3 -4.674582E+05  2.293287E+04  2.008553E+04  2.295555E+04 -1.818986E+03 -4.692949E+03
       207   4 -5.609290E+05  9.543361E+01 -7.118001E+02  2.280136E+04 -3.988452E+02 -8.920287E+03
       207   5 -5.608788E+05  7.324459E+01 -5.261030E+02  1.506997E+04 -1.432745E+02 -6.806107E+03
       207   6 -5.609261E+05  1.089106E+02 -5.109133E+02  2.280133E+04  1.119350E+02 -4.688633E+03
       207   7 -7.288910E+05 -4.086738E+04 -3.743716E+04  2.250857E+04  1.525772E+03 -8.916279E+03
       207   8 -6.915901E+05 -3.182013E+04 -2.918618E+04  1.484638E+04  1.784343E+03 -6.801947E+03
       207   9 -6.543858E+05 -2.271563E+04 -2.110788E+04  2.264713E+04  2.042568E+03 -4.684316E+03
       207  10 -3.929405E+05  4.105628E+04  3.601170E+04  2.309419E+04  7.344894E-09 -4.322156E-09
       207  11 -4.301515E+05  3.196543E+04  2.813286E+04  1.529359E+04 -3.142682E-09  3.136047E-09
       207  12 -4.674582E+05  2.293285E+04  2.008548E+04  2.295554E+04 -1.272639E-08  1.796471E-09
       207  13 -5.609290E+05  9.534814E+01 -7.119498E+02  2.280136E+04 -2.133633E-09  1.838945E-09
       207  14 -5.608788E+05  7.319486E+01 -5.261901E+02  1.506997E+04 -6.457186E-10 -2.190722E-09
       207  15 -5.609261E+05  1.088870E+02 -5.109546E+02  2.280133E+04  2.581080E-09 -1.931019E-09
       207  16 -7.288910E+05 -4.086747E+04 -3.743731E+04  2.250858E+04 -9.098663E-09  1.605041E-09
       207  17 -6.915901E+05 -3.182018E+04 -2.918628E+04  1.484639E+04  3.674891E-09  8.491976E-09
       207  18 -6.543858E+05 -2.271566E+04 -2.110793E+04  2.264714E+04  1.181159E-08  1.029101E-09
       207  19 -3.929405E+05  4.105637E+04  3.601186E+04  2.309421E+04  2.323978E+03  8.924296E+03
       207  20 -4.301515E+05  3.196548E+04  2.813295E+04  1.529361E+04  2.071294E+03  6.810267E+03
       207  21 -4.674582E+05  2.293287E+04  2.008553E+04  2.295555E+04  1.818986E+03  4.692949E+03
       207  22 -5.609290E+05  9.543361E+01 -7.118001E+02  2.280136E+04  3.988452E+02  8.920287E+03
       207  23 -5.608788E+05  7.324459E+01 -5.261030E+02  1.506997E+04  1.432745E+02  6.806107E+03
       207  24 -5.609261E+05  1.089106E+02 -5.109133E+02  2.280133E+04 -1.119350E+02  4.688633E+03
       207  25 -7.288910E+05 -4.086738E+04 -3.743716E+04  2.250857E+04 -1.525772E+03  8.916279E+03
       207  26 -6.915901E+05 -3.182013E+04 -2.918618E+04  1.484638E+04 -1.784343E+03  6.801947E+03
       207  27 -6.543858E+05 -2.271563E+04 -2.110788E+04  2.264713E+04 -2.042568E+03  4.684316E+03
       208   1 -4.979507E+05  1.545359E+04  1.313994E+04  2.290482E+04 -1.725512E+03 -3.459342E+03
       208   2 -5.352135E+05  6.341815E+03  4.820395E+03  1.507839E+04 -1.332549E+03 -1.338934E+03
       208   3 -5.726001E+05 -2.718984E+03 -3.762866E+03  2.274270E+04 -9.396850E+02  7.812083E+02
       208   4 -5.609313E+05  1.092370E+02 -5.629144E+02  2.280756E+04  2.064162E+02 -3.454968E+03
       208   5 -5.608682E+05  8.287122E+01 -8.040321E+02  1.506218E+04  5.990546E+02 -1.334534E+03
       208   6 -5.609308E+05  1.074819E+02 -1.308746E+03  2.280757E+04  9.916178E+02  7.856388E+02
       208   7 -6.239081E+05 -1.523538E+04 -1.426599E+04  2.271031E+04  2.138151E+03 -3.450594E+03
       208   8 -5.865224E+05 -6.176115E+03 -6.428485E+03  1.504597E+04  2.530580E+03 -1.330134E+03
       208   9 -5.492614E+05  2.933941E+03  1.145380E+03  2.287244E+04  2.922956E+03  7.900698E+02
       208  10 -4.979507E+05  1.545358E+04  1.313991E+04  2.290481E+04 -4.314636E-09  1.024236E-10
       208  11 -5.352135E+05  6.341813E+03  4.820389E+03  1.507839E+04  1.936968E-09 -2.708206E-09
       208  12 -5.726001E+05 -2.718985E+03 -3.762869E+03  2.274270E+04 -1.051554E-08 -3.323610E-09
       208  13 -5.609313E+05  1.092242E+02 -5.629369E+02  2.280756E+04  1.778628E-09  4.952664E-09
       208  14 -5.608682E+05  8.286921E+01 -8.040361E+02  1.506218E+04  2.159773E-09 -4.442075E-09
       208  15 -5.609308E+05  1.074810E+02 -1.308749E+03  2.280757E+04  1.333558E-09 -4.698504E-09
       208  16 -6.239081E+05 -1.523539E+04 -1.426602E+04  2.271031E+04  1.411330E-09  1.149093E-09
       208  17 -5.865224E+05 -6.176119E+03 -6.428501E+03  1.504597E+04  7.909401E-09 -9.991399E-09
       208  18 -5.492614E+05  2.933938E+03  1.145363E+03  2.287244E+04  6.181904E-09 -5.862772E-09
       208  19 -4.979507E+05  1.545359E+04  1.313994E+04  2.290482E+04  1.725512E+03  3.459342E+03
       208  20 -5.352135E+05  6.341815E+03  4.820395E+03  1.507839E+04  1.332549E+03  1.338934E+03
       208  21 -5.726001E+05 -2.718984E+03 -3.762866E+03  2.274270E+04  9.396850E+02 -7.812083E+02
       208  22 -5.609313E+05  1.092370E+02 -5.629144E+02  2.280756E+04 -2.064162E+02  3.454968E+03
       208  23 -5.608682E+05  8.287122E+01 -8.040321E+02  1.506218E+04 -5.990546E+02  1.334534E+03
       208  24 -5.609308E+05  1.074819E+02 -1.308746E+03  2.280757E+04 -9.916178E+02 -7.856388E+02
       208  25 -6.239081E+05 -1.523538E+04 -1.426599E+04  2.271031E+04 -2.138151E+03  3.450594E+03
       208  26 -5.865224E+05 -6.176115E+03 -6.428485E+03  1.504597E+04 -2.530580E+03  1.330134E+03
       208  27 -5.492614E+05  2.933941E+03  1.145380E+03  2.287244E+04 -2.922956E+03 -7.900698E+02
       209   1 -6.031478E+05 -1.018156E+04 -1.104788E+04  2.263900E+04 -6.762020E+02  2.017382E+03
       209   2 -6.402847E+05 -1.928013E+04 -2.033617E+04  1.484516E+04  7.780615E+02  4.135612E+03
       209   3 -6.777464E+05 -2.858533E+04 -3.064374E+04  2.253137E+04  2.232514E+03  6.235200E+03
       209   4 -5.609749E+05  1.295381E+02 -1.696354E+03  2.280498E+04  1.259705E+03  2.021805E+03
       209   5 -5.608149E+05  1.107434E+02 -2.909526E+03  1.506530E+04  2.697115E+03  4.139903E+03
       209   6 -5.609772E+05 -1.114834E+02 -5.129934E+03  2.280554E+04  4.134799E+03  6.239368E+03
       209   7 -5.188004E+05  1.044052E+04  7.655079E+03  2.297097E+04  3.195742E+03  2.026227E+03
       209   8 -4.813391E+05  1.950119E+04  1.451675E+04  1.528546E+04  4.616411E+03  4.144196E+03
       209   9 -4.441953E+05  2.836145E+04  2.038307E+04  2.307975E+04  6.037438E+03  6.243537E+03
       209  10 -6.031478E+05 -1.018157E+04 -1.104789E+04  2.263900E+04 -5.754339E-09 -1.691279E-10
       209  11 -6.402847E+05 -1.928015E+04 -2.033621E+04  1.484516E+04  1.385124E-09 -7.063201E-09
       209  12 -6.777464E+05 -2.858537E+04 -3.064383E+04  2.253136E+04  8.473786E-09 -1.779940E-09
       209  13 -5.609750E+05  1.295333E+02 -1.696365E+03  2.280498E+04 -2.015775E-11 -2.848500E-09
       209  14 -5.608149E+05  1.107231E+02 -2.909572E+03  1.506529E+04 -3.238083E-09  1.937584E-09
       209  15 -5.609773E+05 -1.115298E+02 -5.130039E+03  2.280552E+04  1.761070E-09 -1.426925E-09
       209  16 -5.188004E+05  1.044051E+04  7.655052E+03  2.297097E+04  8.607630E-09  4.682602E-09
       209  17 -4.813391E+05  1.950117E+04  1.451668E+04  1.528544E+04  1.328032E-10 -4.808437E-09
       209  18 -4.441954E+05  2.836140E+04  2.038293E+04  2.307972E+04 -8.140416E-09  5.732236E-09
       209  19 -6.031478E+05 -1.018156E+04 -1.104788E+04  2.263900E+04  6.762020E+02 -2.017382E+03
       209  20 -6.402847E+05 -1.928013E+04 -2.033617E+04  1.484516E+04 -7.780615E+02 -4.135612E+03
       209  21 -6.777464E+05 -2.858533E+04 -3.064374E+04  2.253137E+04 -2.232514E+03 -6.235200E+03
       209  22 -5.609749E+05  1.295381E+02 -1.696354E+03  2.280498E+04 -1.259705E+03 -2.021805E+03
       209  23 -5.608149E+05  1.107434E+02 -2.909526E+03  1.506530E+04 -2.697115E+03 -4.139903E+03
       209  24 -5.609772E+05 -1.114834E+02 -5.129934E+03  2.280554E+04 -4.134799E+03 -6.239368E+03
       209  25 -5.188004E+05  1.044052E+04  7.655079E+03  2.297097E+04 -3.195742E+03 -2.026227E+03
       209  26 -4.813391E+05  1.950119E+04  1.451675E+04  1.528546E+04 -4.616411E+03 -4.144196E+03
       209  27 -4.441953E+05  2.836145E+04  2.038307E+04  2.307975E+04 -6.037438E+03 -6.243537E+03
       210   1 -7.085623E+05 -3.557976E+04 -3.907259E+04  2.167324E+04  3.159481E+03  7.502866E+03
       210   2 -7.447395E+05 -4.479287E+04 -5.207312E+04  1.515296E+04  9.328008E+03  9.529467E+03
       210   3 -7.829460E+05 -5.863012E+04 -7.026583E+04  2.405445E+04  1.549741E+04  1.116577E+04
       210   4 -5.613447E+05  3.663942E+02 -6.691205E+03  2.278947E+04  5.172491E+03  7.507191E+03
       210   5 -5.603640E+05  2.046626E+02 -1.159131E+04  1.508391E+04  1.098691E+04  9.532809E+03
       210   6 -5.613515E+05 -4.518675E+03 -2.143621E+04  2.279990E+04  1.680257E+04  1.116816E+04
       210   7 -4.141068E+05  3.631110E+04  2.568887E+04  2.390596E+04  7.185972E+03  7.511522E+03
       210   8 -3.759567E+05  4.519992E+04  2.888843E+04  1.501483E+04  1.264630E+04  9.536150E+03
       210   9 -3.397111E+05  4.958948E+04  2.739039E+04  2.154487E+04  1.810819E+04  1.117055E+04
       210  10 -7.085623E+05 -3.557983E+04 -3.907272E+04  2.167322E+04 -5.349294E-11 -8.536709E-10
       210  11 -7.447396E+05 -4.479299E+04 -5.207346E+04  1.515289E+04 -3.971254E-10  4.689830E-09
       210  12 -7.829463E+05 -5.863032E+04 -7.026651E+04  2.405431E+04  2.616752E-09  2.566741E-10
       210  13 -5.613447E+05  3.663265E+02 -6.691362E+03  2.278944E+04 -1.803567E-09 -8.114475E-09
       210  14 -5.603642E+05  2.045326E+02 -1.159171E+04  1.508383E+04 -3.854983E-09  5.582504E-09
       210  15 -5.613519E+05 -4.518885E+03 -2.143698E+04  2.279974E+04 -1.737536E-09  2.160569E-09
       210  16 -4.141068E+05  3.631103E+04  2.568867E+04  2.390592E+04 -1.412285E-09  1.171426E-09
       210  17 -3.759569E+05  4.519978E+04  2.888796E+04  1.501473E+04 -4.230023E-10 -6.520949E-09
       210  18 -3.397115E+05  4.958926E+04  2.738954E+04  2.154471E+04 -3.951598E-09  5.197202E-09
       210  19 -7.085623E+05 -3.557976E+04 -3.907259E+04  2.167324E+04 -3.159481E+03 -7.502866E+03
       210  20 -7.447395E+05 -4.479287E+04 -5.207312E+04  1.515296E+04 -9.328008E+03 -9.529467E+03
       210  21 -7.829460E+05 -5.863012E+04 -7.026583E+04  2.405445E+04 -1.549741E+04 -1.116577E+04
       210  22 -5.613447E+05  3.663942E+02 -6.691205E+03  2.278947E+04 -5.172491E+03 -7.507191E+03
       210  23 -5.603640E+05  2.046626E+02 -1.159131E+04  1.508391E+04 -1.098691E+04 -9.532809E+03
       210  24 -5.613515E+05 -4.518675E+03 -2.143621E+04  2.279990E+04 -1.680257E+04 -1.116816E+04
       210  25 -4.141068E+05  3.631110E+04  2.568887E+04  2.390596E+04 -7.185972E+03 -7.511522E+03
       210  26 -3.759567E+05  4.519992E+04  2.888843E+04  1.501483E+04 -1.264630E+04 -9.536150E+03
       210  27 -3.397111E+05  4.958948E+04  2.739039E+04  2.154487E+04 -1.810819E+04 -1.117055E+04
       211   1 -8.181375E+05 -5.735880E+04 -8.225481E+04  1.021443E+04  1.680282E+04  1.315125E+04
       211   2 -8.429833E+05 -7.032842E+04 -1.104249E+05  2.872908E+04  4.902783E+04  1.307290E+04
       211   3 -8.924840E+05 -1.649153E+05 -1.800065E+05  6.230119E+04  8.126590E+04  4.338997E+03
       211   4 -5.660858E+05  4.208041E+03 -2.696726E+04  2.266993E+04  2.062116E+04  1.315898E+04
       211   5 -5.544622E+05  2.515467E+02 -4.595436E+04  1.522437E+04  4.496831E+04  1.306350E+04
       211   6 -5.661157E+05 -8.393518E+04 -1.008666E+05  2.283845E+04  6.933099E+04  4.311561E+03
       211   7 -3.139742E+05  6.577120E+04  2.831656E+04  3.513052E+04  2.444102E+04  1.316686E+04
       211   8 -2.658631E+05  7.082656E+04  1.851112E+04  1.713265E+03  4.090691E+04  1.305427E+04
       211   9 -2.396463E+05 -2.956844E+03 -2.173294E+04 -1.664517E+04  5.738981E+04  4.285653E+03
       211  10 -8.181379E+05 -5.735906E+04 -8.225567E+04  1.021426E+04  3.335594E-10 -6.646960E-10
       211  11 -8.429859E+05 -7.032925E+04 -1.104297E+05  2.872857E+04  2.054480E-09  2.085644E-09
       211  12 -8.924911E+05 -1.649171E+05 -1.800190E+05  6.230091E+04  4.540410E-09  6.613565E-09
       211  13 -5.660863E+05  4.207741E+03 -2.696838E+04  2.266971E+04 -1.246459E-11  6.338528E-09
       211  14 -5.544645E+05  2.508200E+02 -4.595848E+04  1.522389E+04  1.074875E-09  4.255967E-09
       211  15 -5.661209E+05 -8.393649E+04 -1.008757E+05  2.283821E+04  4.052152E-10  2.614729E-10
       211  16 -3.139749E+05  6.577086E+04  2.831511E+04  3.513026E+04 -2.399381E-09  6.411180E-09
       211  17 -2.658649E+05  7.082593E+04  1.850765E+04  1.712835E+03 -1.607515E-09  6.359950E-09
       211  18 -2.396498E+05 -2.957748E+03 -2.173917E+04 -1.664537E+04 -4.203121E-09  8.928801E-10
       211  19 -8.181375E+05 -5.735880E+04 -8.225481E+04  1.021443E+04 -1.680282E+04 -1.315125E+04
       211  20 -8.429833E+05 -7.032842E+04 -1.104249E+05  2.872908E+04 -4.902783E+04 -1.307290E+04
       211  21 -8.924840E+05 -1.649153E+05 -1.800065E+05  6.230119E+04 -8.126590E+04 -4.338997E+03
       211  22 -5.660858E+05  4.208041E+03 -2.696726E+04  2.266993E+04 -2.062116E+04 -1.315898E+04
       211  23 -5.544622E+05  2.515467E+02 -4.595436E+04  1.522437E+04 -4.496831E+04 -1.306350E+04
       211  24 -5.661157E+05 -8.393518E+04 -1.008666E+05  2.283845E+04 -6.933099E+04 -4.311561E+03
       211  25 -3.139742E+05  6.577120E+04  2.831656E+04  3.513052E+04 -2.444102E+04 -1.316686E+04
       211  26 -2.658631E+05  7.082656E+04  1.851112E+04  1.713265E+03 -4.090691E+04 -1.305427E+04
       211  27 -2.396463E+05 -2.956844E+03 -2.173294E+04 -1.664517E+04 -5.738981E+04 -4.285653E+03
