
 stresses (elem, integ.pnt.,sxx,syy,szz,sxy,sxz,syz) for set ELALL and time  0.1000000E+01

         1   1  3.901739E+06  2.757096E+05  3.206102E+05  1.518003E+05  2.198987E+05  5.344782E+01
         1   2  3.869630E+06  2.512950E+04  1.519047E+05  5.948667E+04  1.403120E+05  1.336468E+01
         1   3  3.902247E+06 -7.467206E+03  8.929049E+04 -3.282069E+04  6.072340E+04 -3.190975E+00
         1   4  3.901714E+06  2.756666E+05  3.206041E+05 -9.475210E-09  2.198987E+05 -5.995281E-10
         1   5  3.869626E+06  2.512289E+04  1.519037E+05 -3.213133E-09  1.403120E+05 -1.700044E-09
         1   6  3.902246E+06 -7.469218E+03  8.929020E+04 -1.124749E-08  6.072340E+04 -1.320539E-09
         1   7  3.901739E+06  2.757096E+05  3.206102E+05 -1.518003E+05  2.198987E+05 -5.344782E+01
         1   8  3.869630E+06  2.512950E+04  1.519047E+05 -5.948667E+04  1.403120E+05 -1.336468E+01
         1   9  3.902247E+06 -7.467206E+03  8.929049E+04  3.282069E+04  6.072340E+04  3.190975E+00
         1  10  3.901687E+06  2.756968E+05  3.205199E+05  1.518003E+05 -1.347760E-09 -2.842358E-10
         1  11  3.869608E+06  2.512425E+04  1.518679E+05  5.948667E+04 -1.800514E-10 -3.723931E-10
         1  12  3.902243E+06 -7.468189E+03  8.928360E+04 -3.282069E+04 -1.140314E-09  7.407158E-10
         1  13  3.901663E+06  2.756537E+05  3.205138E+05  1.101522E-09  2.225166E-09 -2.603290E-10
         1  14  3.869605E+06  2.511765E+04  1.518670E+05  4.383710E-09  2.145413E-09 -6.836727E-10
         1  15  3.902242E+06 -7.470200E+03  8.928331E+04 -6.355242E-09  8.049597E-10 -6.109134E-11
         1  16  3.901687E+06  2.756968E+05  3.205199E+05 -1.518003E+05 -1.983543E-09 -3.801307E-10
         1  17  3.869608E+06  2.512425E+04  1.518679E+05 -5.948667E+04 -4.119990E-10 -9.365197E-10
         1  18  3.902243E+06 -7.468189E+03  8.928360E+04  3.282069E+04  1.588233E-09 -9.091464E-10
         1  19  3.901739E+06  2.757096E+05  3.206102E+05  1.518003E+05 -2.198987E+05 -5.344782E+01
         1  20  3.869630E+06  2.512950E+04  1.519047E+05  5.948667E+04 -1.403120E+05 -1.336468E+01
         1  21  3.902247E+06 -7.467206E+03  8.929049E+04 -3.282069E+04 -6.072340E+04  3.190975E+00
         1  22  3.901714E+06  2.756666E+05  3.206041E+05 -3.500495E-09 -2.198987E+05  4.571822E-12
         1  23  3.869626E+06  2.512289E+04  1.519037E+05  1.195077E-08 -1.403120E+05  4.633086E-10
         1  24  3.902246E+06 -7.469218E+03  8.929020E+04 -1.710729E-08 -6.072340E+04  1.197834E-09
         1  25  3.901739E+06  2.757096E+05  3.206102E+05 -1.518003E+05 -2.198987E+05  5.344782E+01
         1  26  3.869630E+06  2.512950E+04  1.519047E+05 -5.948667E+04 -1.403120E+05  1.336468E+01
         1  27  3.902247E+06 -7.467206E+03  8.929049E+04  3.282069E+04 -6.072340E+04 -3.190975E+00
         2   1  3.889023E+06  1.077063E+04  7.205745E+04  3.872562E+03  4.827114E+04  2.993052E-01
         2   2  3.886281E+06  1.471856E+02  4.657427E+04  1.123416E+03  2.503010E+04  4.502277E-02
         2   3  3.889068E+06 -3.792941E+02  3.867815E+04 -1.625753E+03  1.789441E+03 -4.657994E-03
         2   4  3.889023E+06  1.077060E+04  7.205744E+04  1.512387E-09  4.827114E+04 -3.654705E-10
         2   5  3.886281E+06  1.471833E+02  4.657427E+04 -1.736935E-09  2.503010E+04  1.031164E-09
         2   6  3.889068E+06 -3.792990E+02  3.867815E+04 -1.661551E-08  1.789441E+03  1.415052E-09
         2   7  3.889023E+06  1.077063E+04  7.205745E+04 -3.872562E+03  4.827114E+04 -2.993052E-01
         2   8  3.886281E+06  1.471856E+02  4.657427E+04 -1.123416E+03  2.503010E+04 -4.502277E-02
         2   9  3.889068E+06 -3.792941E+02  3.867815E+04  1.625753E+03  1.789441E+03  4.657997E-03
         2  10  3.889021E+06  1.077001E+04  7.205310E+04  3.872562E+03 -3.114868E-10  1.090775E-09
         2  11  3.886281E+06  1.470187E+02  4.657310E+04  1.123416E+03 -7.447982E-10  4.697635E-10
         2  12  3.889068E+06 -3.792949E+02  3.867814E+04 -1.625753E+03  9.587757E-10  2.818734E-10
         2  13  3.889021E+06  1.076998E+04  7.205309E+04  8.102373E-09  2.002411E-09  3.394172E-10
         2  14  3.886281E+06  1.470163E+02  4.657310E+04 -9.236768E-09  3.017352E-09  4.121832E-10
         2  15  3.889068E+06 -3.792999E+02  3.867814E+04 -1.580653E-08  5.172047E-09  3.926840E-10
         2  16  3.889021E+06  1.077001E+04  7.205310E+04 -3.872562E+03  1.035710E-09 -2.400070E-10
         2  17  3.886281E+06  1.470187E+02  4.657310E+04 -1.123416E+03  4.208060E-09  5.318714E-10
         2  18  3.889068E+06 -3.792949E+02  3.867814E+04  1.625753E+03  1.909850E-09  6.526434E-10
         2  19  3.889023E+06  1.077063E+04  7.205745E+04  3.872562E+03 -4.827114E+04 -2.993052E-01
         2  20  3.886281E+06  1.471856E+02  4.657427E+04  1.123416E+03 -2.503010E+04 -4.502277E-02
         2  21  3.889068E+06 -3.792941E+02  3.867815E+04 -1.625753E+03 -1.789441E+03  4.657994E-03
         2  22  3.889023E+06  1.077060E+04  7.205744E+04 -2.667139E-09 -4.827114E+04  9.911886E-10
         2  23  3.886281E+06  1.471833E+02  4.657427E+04  1.342303E-08 -2.503010E+04 -1.871768E-10
         2  24  3.889068E+06 -3.792990E+02  3.867815E+04 -1.877279E-08 -1.789441E+03 -5.899270E-10
         2  25  3.889023E+06  1.077063E+04  7.205745E+04 -3.872562E+03 -4.827114E+04  2.993052E-01
         2  26  3.886281E+06  1.471856E+02  4.657427E+04 -1.123416E+03 -2.503010E+04  4.502277E-02
         2  27  3.889068E+06 -3.792941E+02  3.867815E+04  1.625753E+03 -1.789441E+03 -4.657995E-03
         3   1  3.889170E+06 -4.664998E+02  3.924162E+04  1.956143E+03 -5.111732E+03 -1.601016E-02
         3   2  3.886151E+06  2.042117E+02  4.967108E+04 -1.135537E+03 -2.990483E+04  5.437156E-02
         3   3  3.889117E+06  1.199770E+04  7.895046E+04 -4.227139E+03 -5.469806E+04  3.702090E-01
         3   4  3.889170E+06 -4.665070E+02  3.924162E+04 -7.506597E-09 -5.111732E+03  9.537382E-10
         3   5  3.886151E+06  2.042093E+02  4.967108E+04  4.297650E-09 -2.990483E+04 -4.103198E-10
         3   6  3.889117E+06  1.199767E+04  7.895046E+04  3.141388E-09 -5.469806E+04 -1.867885E-09
         3   7  3.889170E+06 -4.664998E+02  3.924162E+04 -1.956143E+03 -5.111732E+03  1.601016E-02
         3   8  3.886151E+06  2.042117E+02  4.967108E+04  1.135537E+03 -2.990483E+04 -5.437156E-02
         3   9  3.889117E+06  1.199770E+04  7.895046E+04  4.227139E+03 -5.469806E+04 -3.702090E-01
         3  10  3.889170E+06 -4.665068E+02  3.924157E+04  1.956143E+03  3.071961E-09 -4.632538E-10
         3  11  3.886150E+06  2.039734E+02  4.966941E+04 -1.135537E+03  1.666802E-09 -1.346323E-09
         3  12  3.889114E+06  1.199690E+04  7.894487E+04 -4.227139E+03 -1.765193E-10 -9.699352E-10
         3  13  3.889170E+06 -4.665139E+02  3.924157E+04 -7.852635E-09  4.126005E-09  2.391939E-11
         3  14  3.886150E+06  2.039710E+02  4.966941E+04  8.676168E-10  2.157398E-09 -8.054439E-10
         3  15  3.889114E+06  1.199687E+04  7.894487E+04  4.160860E-09 -1.112482E-09 -9.840493E-10
         3  16  3.889170E+06 -4.665068E+02  3.924157E+04 -1.956143E+03  5.951904E-10  3.042863E-10
         3  17  3.886150E+06  2.039734E+02  4.966941E+04  1.135537E+03 -1.034984E-09 -2.447019E-10
         3  18  3.889114E+06  1.199690E+04  7.894487E+04  4.227139E+03 -1.904584E-09 -8.440125E-10
         3  19  3.889170E+06 -4.664998E+02  3.924162E+04  1.956143E+03  5.111732E+03  1.601016E-02
         3  20  3.886151E+06  2.042117E+02  4.967108E+04 -1.135537E+03  2.990483E+04 -5.437156E-02
         3  21  3.889117E+06  1.199770E+04  7.895046E+04 -4.227139E+03  5.469806E+04 -3.702090E-01
         3  22  3.889170E+06 -4.665070E+02  3.924162E+04 -1.462832E-08  5.111732E+03 -9.794769E-10
         3  23  3.886151E+06  2.042093E+02  4.967108E+04  2.864495E-09  2.990483E+04 -1.286026E-09
         3  24  3.889117E+06  1.199767E+04  7.895046E+04 -6.086164E-09  5.469806E+04 -1.511877E-10
         3  25  3.889170E+06 -4.664998E+02  3.924162E+04 -1.956143E+03  5.111732E+03 -1.601016E-02
         3  26  3.886151E+06  2.042117E+02  4.967108E+04  1.135537E+03  2.990483E+04  5.437156E-02
         3  27  3.889117E+06  1.199770E+04  7.895046E+04  4.227139E+03  5.469806E+04  3.702090E-01
         4   1  3.903852E+06 -8.289160E+03  9.843289E+04  3.655195E+04 -6.836166E+04 -4.000754E+00
         4   2  3.867596E+06  2.795631E+04  1.685255E+05 -6.610668E+04 -1.566644E+05  1.658294E+01
         4   3  3.903290E+06  3.066015E+05  3.564644E+05 -1.687763E+05 -2.449677E+05  6.619965E+01
         4   4  3.903851E+06 -8.291656E+03  9.843254E+04 -1.330963E-08 -6.836166E+04 -7.958526E-10
         4   5  3.867591E+06  2.794815E+04  1.685243E+05 -6.902286E-09 -1.566644E+05  2.179951E-09
         4   6  3.903260E+06  3.065483E+05  3.564568E+05 -8.038055E-09 -2.449677E+05  1.136483E-09
         4   7  3.903852E+06 -8.289160E+03  9.843289E+04 -3.655195E+04 -6.836166E+04  4.000754E+00
         4   8  3.867596E+06  2.795631E+04  1.685255E+05  6.610668E+04 -1.566644E+05 -1.658294E+01
         4   9  3.903290E+06  3.066015E+05  3.564644E+05  1.687763E+05 -2.449677E+05 -6.619965E+01
         4  10  3.903847E+06 -8.290405E+03  9.842417E+04  3.655195E+04 -1.387926E-09  1.484877E-10
         4  11  3.867569E+06  2.794977E+04  1.684797E+05 -6.610668E+04 -3.369501E-09  1.819866E-09
         4  12  3.903226E+06  3.065855E+05  3.563523E+05 -1.687763E+05 -1.090516E-09  7.409271E-10
         4  13  3.903846E+06 -8.292901E+03  9.842381E+04 -6.053078E-09  4.555345E-09 -1.749975E-10
         4  14  3.867565E+06  2.794161E+04  1.684785E+05  4.010572E-09  9.059672E-10  1.123272E-09
         4  15  3.903195E+06  3.065323E+05  3.563447E+05 -1.073555E-08 -2.723103E-09  5.463902E-10
         4  16  3.903847E+06 -8.290405E+03  9.842417E+04 -3.655195E+04  1.105783E-09 -4.684422E-10
         4  17  3.867569E+06  2.794977E+04  1.684797E+05  6.610668E+04  2.183298E-09  5.607291E-10
         4  18  3.903226E+06  3.065855E+05  3.563523E+05  1.687763E+05  2.088531E-10  2.864166E-10
         4  19  3.903852E+06 -8.289160E+03  9.843289E+04  3.655195E+04  6.836166E+04  4.000754E+00
         4  20  3.867596E+06  2.795631E+04  1.685255E+05 -6.610668E+04  1.566644E+05 -1.658294E+01
         4  21  3.903290E+06  3.066015E+05  3.564644E+05 -1.687763E+05  2.449677E+05 -6.619965E+01
         4  22  3.903851E+06 -8.291656E+03  9.843254E+04 -1.171450E-08  6.836166E+04  4.507212E-10
         4  23  3.867591E+06  2.794815E+04  1.685243E+05  4.128746E-09  1.566644E+05  1.597613E-10
         4  24  3.903260E+06  3.065483E+05  3.564568E+05 -6.926867E-09  2.449677E+05 -6.002513E-11
         4  25  3.903852E+06 -8.289160E+03  9.843289E+04 -3.655195E+04  6.836166E+04 -4.000754E+00
         4  26  3.867596E+06  2.795631E+04  1.685255E+05  6.610668E+04  1.566644E+05  1.658294E+01
         4  27  3.903290E+06  3.066015E+05  3.564644E+05  1.687763E+05  2.449677E+05  6.619965E+01
         5   1 -2.230463E+06 -7.040374E+06 -2.216305E+06  1.360127E+06 -9.846290E+04 -5.834289E+05
         5   2 -1.545233E+06 -5.408971E+06 -1.488315E+06  1.021278E+06 -2.933926E+05 -2.504377E+05
         5   3 -1.115724E+06 -3.877630E+06 -1.041709E+06  1.172129E+06 -2.747862E+05  8.326529E+04
         5   4 -2.778788E+05  8.025608E+05 -3.238908E+05  1.223920E+06 -9.731677E+04 -2.247914E+05
         5   5 -2.615751E+04  8.341346E+05 -1.515292E+05  9.785838E+05 -2.927264E+05 -1.445770E+05
         5   6  1.561532E+04  8.085856E+05 -8.281840E+04  1.222933E+06 -2.754668E+05 -6.456434E+04
         5   7  1.670354E+06  8.702448E+06  1.564628E+06  1.085882E+06 -9.634048E+04  1.384133E+05
         5   8  1.490383E+06  7.114127E+06  1.183039E+06  9.353885E+05 -2.920796E+05 -3.765474E+04
         5   9  1.145595E+06  5.515788E+06  8.749926E+05  1.274081E+06 -2.761683E+05 -2.134932E+05
         5  10 -2.230566E+06 -7.040746E+06 -2.216969E+06  1.360080E+06  6.053326E-10  2.707674E-09
         5  11 -1.545342E+06 -5.409061E+06 -1.488595E+06  1.021219E+06  2.434188E-09  1.423258E-09
         5  12 -1.115807E+06 -3.877658E+06 -1.041864E+06  1.172148E+06  1.323592E-09 -5.904652E-10
         5  13 -2.779025E+05  8.025041E+05 -3.240032E+05  1.223902E+06  6.712724E-10  2.626099E-13
         5  14 -2.625508E+04  8.340893E+05 -1.517292E+05  9.785498E+05  4.164742E-09 -3.018988E-11
         5  15  1.553274E+04  8.085608E+05 -8.296871E+04  1.222919E+06  4.784807E-09  8.999803E-11
         5  16  1.670339E+06  8.702425E+06  1.564575E+06  1.085893E+06 -1.476170E-09 -2.567083E-09
         5  17  1.490291E+06  7.114103E+06  1.182877E+06  9.353797E+05  3.619636E-09 -1.266981E-09
         5  18  1.145501E+06  5.515719E+06  8.747648E+05  1.274033E+06  5.289325E-09  5.605652E-10
         5  19 -2.230463E+06 -7.040374E+06 -2.216305E+06  1.360127E+06  9.846290E+04  5.834289E+05
         5  20 -1.545233E+06 -5.408971E+06 -1.488315E+06  1.021278E+06  2.933926E+05  2.504377E+05
         5  21 -1.115724E+06 -3.877630E+06 -1.041709E+06  1.172129E+06  2.747862E+05 -8.326529E+04
         5  22 -2.778788E+05  8.025608E+05 -3.238908E+05  1.223920E+06  9.731677E+04  2.247914E+05
         5  23 -2.615751E+04  8.341346E+05 -1.515292E+05  9.785838E+05  2.927264E+05  1.445770E+05
         5  24  1.561532E+04  8.085856E+05 -8.281840E+04  1.222933E+06  2.754668E+05  6.456434E+04
         5  25  1.670354E+06  8.702448E+06  1.564628E+06  1.085882E+06  9.634048E+04 -1.384133E+05
         5  26  1.490383E+06  7.114127E+06  1.183039E+06  9.353885E+05  2.920796E+05  3.765474E+04
         5  27  1.145595E+06  5.515788E+06  8.749926E+05  1.274081E+06  2.761683E+05  2.134932E+05
         6   1 -8.563897E+05 -2.725748E+06 -7.900322E+05  1.213778E+06 -2.062178E+05  4.492456E+04
         6   2 -4.634180E+05 -1.143127E+06 -4.284977E+05  9.675102E+05 -1.206773E+05  6.644622E+04
         6   3 -7.520221E+04  4.330592E+05 -8.366193E+04  1.220960E+06 -2.964671E+04  8.781429E+04
         6   4 -7.042785E+02  8.215456E+05 -6.342160E+04  1.225332E+06 -2.067548E+05 -5.415509E+04
         6   5  1.019168E+04  8.263181E+05 -3.062228E+04  9.754684E+05 -1.213499E+05 -3.922889E+04
         6   6  1.765738E+04  8.234842E+05 -9.791519E+03  1.225222E+06 -3.047077E+04 -2.450960E+04
         6   7  8.541965E+05  4.380839E+06  6.625581E+05  1.236923E+06 -2.072936E+05 -1.537917E+05
         6   8  4.835671E+05  2.799484E+06  3.670952E+05  9.834439E+05 -1.220239E+05 -1.452331E+05
         6   9  1.105149E+05  1.214083E+06  6.411952E+04  1.229488E+06 -3.129603E+04 -1.369024E+05
         6  10 -8.564359E+05 -2.725762E+06 -7.901161E+05  1.213786E+06 -1.568094E-10  1.236058E-09
         6  11 -4.634348E+05 -1.143136E+06 -4.285335E+05  9.675167E+05  5.390440E-10 -3.634695E-10
         6  12 -7.520523E+04  4.330507E+05 -8.367809E+04  1.220962E+06 -1.882501E-10 -2.213932E-09
         6  13 -7.509537E+02  8.215310E+05 -6.350736E+04  1.225323E+06 -5.845289E-10  6.617255E-12
         6  14  1.017546E+04  8.263125E+05 -3.065281E+04  9.754646E+05 -7.915333E-10 -4.884193E-11
         6  15  1.765622E+04  8.234834E+05 -9.794385E+03  1.225222E+06 -9.308593E-10  3.213965E-11
         6  16  8.541442E+05  4.380803E+06  6.624335E+05  1.236898E+06  2.014112E-09 -1.258104E-09
         6  17  4.835455E+05  2.799458E+06  3.670279E+05  9.834296E+05  6.729158E-10  5.647654E-10
         6  18  1.105088E+05  1.214063E+06  6.408256E+04  1.229484E+06 -6.391017E-10  2.311031E-09
         6  19 -8.563897E+05 -2.725748E+06 -7.900322E+05  1.213778E+06  2.062178E+05 -4.492456E+04
         6  20 -4.634180E+05 -1.143127E+06 -4.284977E+05  9.675102E+05  1.206773E+05 -6.644622E+04
         6  21 -7.520221E+04  4.330592E+05 -8.366193E+04  1.220960E+06  2.964671E+04 -8.781429E+04
         6  22 -7.042785E+02  8.215456E+05 -6.342160E+04  1.225332E+06  2.067548E+05  5.415509E+04
         6  23  1.019168E+04  8.263181E+05 -3.062228E+04  9.754684E+05  1.213499E+05  3.922889E+04
         6  24  1.765738E+04  8.234842E+05 -9.791519E+03  1.225222E+06  3.047077E+04  2.450960E+04
         6  25  8.541965E+05  4.380839E+06  6.625581E+05  1.236923E+06  2.072936E+05  1.537917E+05
         6  26  4.835671E+05  2.799484E+06  3.670952E+05  9.834439E+05  1.220239E+05  1.452331E+05
         6  27  1.105149E+05  1.214083E+06  6.411952E+04  1.229488E+06  3.129603E+04  1.369024E+05
         7   1  1.954334E+05  1.575475E+06  1.579608E+05  1.222574E+06  3.574329E+04  1.124762E+05
         7   2  5.788865E+05  3.143970E+06  5.219683E+05  9.954001E+05  9.196389E+04 -3.073678E+04
         7   3  1.023194E+06  4.744190E+06  9.927305E+05  1.262327E+06  3.603609E+04 -1.738139E+05
         7   4  1.395866E+04  8.264648E+05 -1.761793E+03  1.224082E+06  3.474903E+04 -2.384139E+04
         7   5  1.400194E+04  8.222298E+05  1.485501E+04  9.768734E+05  9.198110E+04 -3.200301E+04
         7   6  5.178666E+04  8.241647E+05  4.483320E+04  1.223846E+06  3.688154E+04 -3.966385E+04
         7   7 -1.675425E+05  7.802161E+04 -1.614470E+05  1.225587E+06  3.375337E+04 -1.599972E+05
         7   8 -5.512402E+05 -1.494482E+06 -4.925836E+05  9.584047E+05  9.199844E+04 -3.326441E+04
         7   9 -9.207291E+05 -3.081858E+06 -9.040994E+05  1.185573E+06  3.771379E+04  9.364739E+04
         7  10  1.954286E+05  1.575461E+06  1.579347E+05  1.222571E+06  1.379004E-09 -1.701179E-09
         7  11  5.788771E+05  3.143967E+06  5.219506E+05  9.954024E+05  2.788200E-09 -3.845183E-10
         7  12  1.023184E+06  4.744158E+06  9.926716E+05  1.262332E+06  7.541984E-10  2.273133E-10
         7  13  1.395721E+04  8.264638E+05 -1.765137E+03  1.224083E+06  2.659118E-09 -1.544433E-10
         7  14  1.399257E+04  8.222264E+05  1.483716E+04  9.768757E+05 -9.924642E-10 -1.199499E-12
         7  15  5.178477E+04  8.241626E+05  4.482768E+04  1.223847E+06 -5.961525E-10 -5.085156E-11
         7  16 -1.675506E+05  7.799380E+04 -1.614973E+05  1.225591E+06  7.108861E-10  1.750575E-09
         7  17 -5.512496E+05 -1.494486E+06 -4.926016E+05  9.584072E+05 -1.574425E-09  5.779543E-10
         7  18 -9.207330E+05 -3.081868E+06 -9.041186E+05  1.185570E+06 -6.178060E-10 -2.672755E-10
         7  19  1.954334E+05  1.575475E+06  1.579608E+05  1.222574E+06 -3.574329E+04 -1.124762E+05
         7  20  5.788865E+05  3.143970E+06  5.219683E+05  9.954001E+05 -9.196389E+04  3.073678E+04
         7  21  1.023194E+06  4.744190E+06  9.927305E+05  1.262327E+06 -3.603609E+04  1.738139E+05
         7  22  1.395866E+04  8.264648E+05 -1.761793E+03  1.224082E+06 -3.474903E+04  2.384139E+04
         7  23  1.400194E+04  8.222298E+05  1.485501E+04  9.768734E+05 -9.198110E+04  3.200301E+04
         7  24  5.178666E+04  8.241647E+05  4.483320E+04  1.223846E+06 -3.688154E+04  3.966385E+04
         7  25 -1.675425E+05  7.802161E+04 -1.614470E+05  1.225587E+06 -3.375337E+04  1.599972E+05
         7  26 -5.512402E+05 -1.494482E+06 -4.925836E+05  9.584047E+05 -9.199844E+04  3.326441E+04
         7  27 -9.207291E+05 -3.081858E+06 -9.040994E+05  1.185573E+06 -3.771379E+04 -9.364739E+04
         8   1  2.964466E+06  1.388062E+05  1.614846E+05  7.639554E+04  1.101506E+05  1.349292E+01
         8   2  2.948246E+06  1.262074E+04  7.690304E+04  2.996844E+04  6.987624E+04  3.357758E+00
         8   3  2.964664E+06 -3.781562E+03  4.590004E+04 -1.645671E+04  2.960165E+04 -7.810923E-01
         8   4  2.964460E+06  1.387953E+05  1.614830E+05 -1.238380E-08  1.101506E+05 -5.825153E-10
         8   5  2.948246E+06  1.261906E+04  7.690280E+04 -2.896974E-09  6.987624E+04 -5.768010E-10
         8   6  2.964663E+06 -3.782068E+03  4.589997E+04 -1.389307E-08  2.960165E+04  1.992335E-09
         8   7  2.964466E+06  1.388062E+05  1.614846E+05 -7.639554E+04  1.101506E+05 -1.349292E+01
         8   8  2.948246E+06  1.262074E+04  7.690304E+04 -2.996844E+04  6.987624E+04 -3.357758E+00
         8   9  2.964664E+06 -3.781562E+03  4.590004E+04  1.645671E+04  2.960165E+04  7.810924E-01
         8  10  2.964453E+06  1.388030E+05  1.614619E+05  7.639554E+04 -5.104542E-10 -5.605699E-11
         8  11  2.948241E+06  1.261943E+04  7.689391E+04  2.996844E+04 -4.411047E-09  3.315147E-10
         8  12  2.964663E+06 -3.781796E+03  4.589841E+04 -1.645671E+04 -1.240359E-09  1.314105E-09
         8  13  2.964447E+06  1.387921E+05  1.614604E+05  6.613746E-10 -1.971279E-10  9.404749E-11
         8  14  2.948240E+06  1.261775E+04  7.689367E+04  1.580426E-09  3.102639E-09  5.525801E-10
         8  15  2.964662E+06 -3.782302E+03  4.589833E+04  8.985955E-09 -1.468444E-10  1.246784E-09
         8  16  2.964453E+06  1.388030E+05  1.614619E+05 -7.639554E+04  3.070014E-09  2.382652E-10
         8  17  2.948241E+06  1.261943E+04  7.689391E+04 -2.996844E+04 -2.091910E-09  7.929535E-10
         8  18  2.964663E+06 -3.781796E+03  4.589841E+04  1.645671E+04  2.032214E-09  1.197954E-09
         8  19  2.964466E+06  1.388062E+05  1.614846E+05  7.639554E+04 -1.101506E+05 -1.349292E+01
         8  20  2.948246E+06  1.262074E+04  7.690304E+04  2.996844E+04 -6.987624E+04 -3.357758E+00
         8  21  2.964664E+06 -3.781562E+03  4.590004E+04 -1.645671E+04 -2.960165E+04  7.810923E-01
         8  22  2.964460E+06  1.387953E+05  1.614830E+05 -7.859738E-09 -1.101506E+05  7.941318E-10
         8  23  2.948246E+06  1.261906E+04  7.690280E+04  1.255659E-08 -6.987624E+04  1.690371E-09
         8  24  2.964663E+06 -3.782068E+03  4.589997E+04 -1.580891E-08 -2.960165E+04  4.935617E-10
         8  25  2.964466E+06  1.388062E+05  1.614846E+05 -7.639554E+04 -1.101506E+05  1.349292E+01
         8  26  2.948246E+06  1.262074E+04  7.690304E+04 -2.996844E+04 -6.987624E+04  3.357758E+00
         8  27  2.964664E+06 -3.781562E+03  4.590004E+04  1.645671E+04 -2.960165E+04 -7.810923E-01
         9   1  2.958044E+06  5.401398E+03  3.758282E+04  2.037976E+03  2.313390E+04  7.559549E-02
         9   2  2.956568E+06  2.830590E+01  2.580923E+04  6.928546E+02  1.026690E+04  1.140591E-02
         9   3  2.958059E+06 -1.403738E+02  2.368452E+04 -6.522509E+02 -2.599825E+03  2.718981E-03
         9   4  2.958044E+06  5.401390E+03  3.758282E+04 -8.898332E-09  2.313390E+04  2.967560E-09
         9   5  2.956568E+06  2.830501E+01  2.580923E+04  2.011451E-10  1.026690E+04  1.922214E-09
         9   6  2.958059E+06 -1.403746E+02  2.368452E+04 -1.546101E-08 -2.599825E+03  5.158002E-10
         9   7  2.958044E+06  5.401398E+03  3.758282E+04 -2.037976E+03  2.313390E+04 -7.559548E-02
         9   8  2.956568E+06  2.830590E+01  2.580923E+04 -6.928546E+02  1.026690E+04 -1.140590E-02
         9   9  2.958059E+06 -1.403738E+02  2.368452E+04  6.522509E+02 -2.599825E+03 -2.718980E-03
         9  10  2.958043E+06  5.401255E+03  3.758182E+04  2.037976E+03  4.994132E-09  8.961949E-10
         9  11  2.956568E+06  2.827777E+01  2.580903E+04  6.928546E+02 -3.991946E-10 -9.027188E-10
         9  12  2.958059E+06 -1.403756E+02  2.368451E+04 -6.522509E+02 -2.539003E-09 -8.027207E-10
         9  13  2.958043E+06  5.401247E+03  3.758182E+04  1.108138E-09 -1.755141E-09  7.689269E-10
         9  14  2.956568E+06  2.827687E+01  2.580903E+04 -1.054223E-09  1.344758E-09 -6.005062E-10
         9  15  2.958059E+06 -1.403764E+02  2.368451E+04 -4.303262E-09 -2.125053E-09 -3.343100E-10
         9  16  2.958043E+06  5.401255E+03  3.758182E+04 -2.037976E+03 -6.658236E-10  6.507087E-10
         9  17  2.956568E+06  2.827777E+01  2.580903E+04 -6.928546E+02  1.743953E-09 -3.569178E-10
         9  18  2.958059E+06 -1.403756E+02  2.368451E+04  6.522509E+02 -4.180847E-09  1.685918E-10
         9  19  2.958044E+06  5.401398E+03  3.758282E+04  2.037976E+03 -2.313390E+04 -7.559549E-02
         9  20  2.956568E+06  2.830590E+01  2.580923E+04  6.928546E+02 -1.026690E+04 -1.140591E-02
         9  21  2.958059E+06 -1.403738E+02  2.368452E+04 -6.522509E+02  2.599825E+03 -2.718983E-03
         9  22  2.958044E+06  5.401390E+03  3.758282E+04 -1.470833E-08 -2.313390E+04 -1.462310E-09
         9  23  2.956568E+06  2.830501E+01  2.580923E+04  1.173291E-08 -1.026690E+04 -3.070020E-09
         9  24  2.958059E+06 -1.403746E+02  2.368452E+04 -6.042280E-09  2.599825E+03 -1.146337E-09
         9  25  2.958044E+06  5.401398E+03  3.758282E+04 -2.037976E+03 -2.313390E+04  7.559548E-02
         9  26  2.956568E+06  2.830590E+01  2.580923E+04 -6.928546E+02 -1.026690E+04  1.140590E-02
         9  27  2.958059E+06 -1.403738E+02  2.368452E+04  6.522509E+02  2.599825E+03  2.718980E-03
        10   1  2.958351E+06 -3.913421E+02  2.530336E+04  1.600961E+03 -6.935288E+03 -1.780297E-02
        10   2  2.956194E+06  1.919382E+02  3.470758E+04 -7.283849E+02 -2.426141E+04  2.833517E-02
        10   3  2.958319E+06  8.930532E+03  5.739212E+04 -3.057745E+03 -4.158807E+04  2.039006E-01
        10   4  2.958351E+06 -3.913469E+02  2.530336E+04 -9.431376E-09 -6.935288E+03 -3.391514E-10
        10   5  2.956194E+06  1.919372E+02  3.470758E+04  1.303641E-10 -2.426141E+04 -6.887521E-10
        10   6  2.958319E+06  8.930514E+03  5.739212E+04 -1.085776E-08 -4.158807E+04 -7.478867E-11
        10   7  2.958351E+06 -3.913421E+02  2.530336E+04 -1.600961E+03 -6.935288E+03  1.780297E-02
        10   8  2.956194E+06  1.919382E+02  3.470758E+04  7.283849E+02 -2.426141E+04 -2.833517E-02
        10   9  2.958319E+06  8.930532E+03  5.739212E+04  3.057745E+03 -4.158807E+04 -2.039006E-01
        10  10  2.958351E+06 -3.913550E+02  2.530327E+04  1.600961E+03  5.704710E-10 -5.216645E-11
        10  11  2.956194E+06  1.917811E+02  3.470648E+04 -7.283849E+02 -1.609267E-09  9.414255E-10
        10  12  2.958317E+06  8.930070E+03  5.738889E+04 -3.057745E+03 -3.626080E-09  1.619358E-09
        10  13  2.958351E+06 -3.913597E+02  2.530327E+04 -5.131054E-09 -2.662830E-10  3.724355E-11
        10  14  2.956194E+06  1.917801E+02  3.470648E+04 -8.045147E-10  1.331434E-10  1.642329E-10
        10  15  2.958317E+06  8.930053E+03  5.738889E+04  1.365501E-09  1.451019E-09  8.386832E-10
        10  16  2.958351E+06 -3.913550E+02  2.530327E+04 -1.600961E+03 -2.710158E-09  1.830427E-10
        10  17  2.956194E+06  1.917811E+02  3.470648E+04  7.283849E+02 -8.970284E-10 -4.630954E-10
        10  18  2.958317E+06  8.930070E+03  5.738889E+04  3.057745E+03  4.503219E-09 -9.020847E-11
        10  19  2.958351E+06 -3.913421E+02  2.530336E+04  1.600961E+03  6.935288E+03  1.780297E-02
        10  20  2.956194E+06  1.919382E+02  3.470758E+04 -7.283849E+02  2.426141E+04 -2.833517E-02
        10  21  2.958319E+06  8.930532E+03  5.739212E+04 -3.057745E+03  4.158807E+04 -2.039006E-01
        10  22  2.958351E+06 -3.913469E+02  2.530336E+04 -9.477762E-09  6.935288E+03  3.787510E-10
        10  23  2.956194E+06  1.919372E+02  3.470758E+04  5.778800E-09  2.426141E+04  1.174959E-09
        10  24  2.958319E+06  8.930514E+03  5.739212E+04  7.009760E-09  4.158807E+04  1.728674E-09
        10  25  2.958351E+06 -3.913421E+02  2.530336E+04 -1.600961E+03  6.935288E+03 -1.780297E-02
        10  26  2.956194E+06  1.919382E+02  3.470758E+04  7.283849E+02  2.426141E+04  2.833517E-02
        10  27  2.958319E+06  8.930532E+03  5.739212E+04  3.057745E+03  4.158807E+04  2.039006E-01
        11   1  2.969282E+06 -6.150302E+03  7.217195E+04  2.718427E+04 -5.152974E+04 -2.246036E+00
        11   2  2.942411E+06  2.073020E+04  1.246632E+05 -4.898314E+04 -1.168502E+05  9.177774E+00
        11   3  2.968964E+06  2.276121E+05  2.645447E+05 -1.251557E+05 -1.821702E+05  3.655794E+01
        11   4  2.969281E+06 -6.151684E+03  7.217176E+04  5.169741E-08 -5.152974E+04  3.390789E-11
        11   5  2.942409E+06  2.072572E+04  1.246626E+05 -6.068635E-09 -1.168502E+05 -5.234425E-10
        11   6  2.968947E+06  2.275828E+05  2.645405E+05 -7.755003E-08 -1.821702E+05 -1.628444E-10
        11   7  2.969282E+06 -6.150302E+03  7.217195E+04 -2.718427E+04 -5.152974E+04  2.246036E+00
        11   8  2.942411E+06  2.073020E+04  1.246632E+05  4.898314E+04 -1.168502E+05 -9.177774E+00
        11   9  2.968964E+06  2.276121E+05  2.645447E+05  1.251557E+05 -1.821702E+05 -3.655794E+01
        11  10  2.969279E+06 -6.151011E+03  7.216699E+04  2.718427E+04 -2.350359E-08  7.282739E-10
        11  11  2.942397E+06  2.072656E+04  1.246377E+05 -4.898314E+04  1.616171E-09 -1.547942E-09
        11  12  2.968928E+06  2.276032E+05  2.644826E+05 -1.251557E+05  1.965122E-08 -7.616527E-10
        11  13  2.969279E+06 -6.152393E+03  7.216679E+04  1.379852E-09  6.747382E-11  5.846750E-10
        11  14  2.942394E+06  2.072207E+04  1.246370E+05 -1.894988E-09 -3.366577E-09 -4.506213E-10
        11  15  2.968912E+06  2.275739E+05  2.644784E+05  1.300114E-09  3.288506E-11 -2.639389E-10
        11  16  2.969279E+06 -6.151011E+03  7.216699E+04 -2.718427E+04  2.268834E-08  5.357298E-10
        11  17  2.942397E+06  2.072656E+04  1.246377E+05  4.898314E+04  1.204805E-09  7.198845E-10
        11  18  2.968928E+06  2.276032E+05  2.644826E+05  1.251557E+05 -2.003497E-08  1.856776E-10
        11  19  2.969282E+06 -6.150302E+03  7.217195E+04  2.718427E+04  5.152974E+04  2.246036E+00
        11  20  2.942411E+06  2.073020E+04  1.246632E+05 -4.898314E+04  1.168502E+05 -9.177774E+00
        11  21  2.968964E+06  2.276121E+05  2.645447E+05 -1.251557E+05  1.821702E+05 -3.655794E+01
        11  22  2.969281E+06 -6.151684E+03  7.217176E+04 -6.826978E-08  5.152974E+04  1.101320E-09
        11  23  2.942409E+06  2.072572E+04  1.246626E+05  6.587309E-09  1.168502E+05 -3.364621E-10
        11  24  2.968947E+06  2.275828E+05  2.645405E+05  6.346123E-08  1.821702E+05 -3.291201E-10
        11  25  2.969282E+06 -6.150302E+03  7.217195E+04 -2.718427E+04  5.152974E+04 -2.246036E+00
        11  26  2.942411E+06  2.073020E+04  1.246632E+05  4.898314E+04  1.168502E+05  9.177774E+00
        11  27  2.968964E+06  2.276121E+05  2.645447E+05  1.251557E+05  1.821702E+05  3.655794E+01
        12   1 -1.939844E+06 -6.309287E+06 -1.969279E+06  1.257511E+06 -7.395331E+04 -6.240761E+05
        12   2 -1.172824E+06 -4.917618E+06 -1.245494E+06  9.023095E+05 -2.166638E+05 -2.998527E+05
        12   3 -7.909476E+05 -3.660658E+06 -8.301287E+05  9.576624E+05 -1.952424E+05  2.499123E+04
        12   4 -4.482897E+05 -3.181438E+05 -5.222378E+05  1.021892E+06 -7.309572E+04 -3.572395E+05
        12   5 -4.054188E+04 -2.655878E+05 -2.473614E+05  8.159203E+05 -2.162672E+05 -2.272467E+05
        12   6  1.770848E+04 -3.142523E+05 -1.439889E+05  1.020673E+06 -1.957046E+05 -9.738488E+04
        12   7  1.040891E+06  5.706323E+06  9.225343E+05  7.839296E+05 -7.244861E+04 -8.780357E+04
        12   8  1.090354E+06  4.406937E+06  7.495346E+05  7.288422E+05 -2.158931E+05 -1.540963E+05
        12   9  8.256802E+05  3.042872E+06  5.416129E+05  1.084011E+06 -1.961902E+05 -2.204106E+05
        12  10 -1.939955E+06 -6.309711E+06 -1.970028E+06  1.257474E+06 -1.420112E-09 -3.318036E-09
        12  11 -1.172898E+06 -4.917727E+06 -1.245752E+06  9.022571E+05 -2.407108E-09 -5.739679E-10
        12  12 -7.909887E+05 -3.660669E+06 -8.302015E+05  9.576663E+05  9.335659E-10  1.424063E-09
        12  13 -4.483296E+05 -3.182823E+05 -5.224876E+05  1.021871E+06 -8.894853E-10 -3.397349E-11
        12  14 -4.060589E+04 -2.656557E+05 -2.475461E+05  8.158807E+05 -2.860140E-09 -3.343563E-11
        12  15  1.766485E+04 -3.142727E+05 -1.440786E+05  1.020658E+06  3.074746E-09  7.307250E-11
        12  16  1.040884E+06  5.706314E+06  9.225101E+05  7.839245E+05 -3.083323E-10  3.399586E-09
        12  17  1.090298E+06  4.406899E+06  7.494029E+05  7.288155E+05 -2.329920E-09  5.359411E-10
        12  18  8.256260E+05  3.042809E+06  5.414501E+05  1.083976E+06  4.822593E-10 -1.726059E-09
        12  19 -1.939844E+06 -6.309287E+06 -1.969279E+06  1.257511E+06  7.395331E+04  6.240761E+05
        12  20 -1.172824E+06 -4.917618E+06 -1.245494E+06  9.023095E+05  2.166638E+05  2.998527E+05
        12  21 -7.909476E+05 -3.660658E+06 -8.301287E+05  9.576624E+05  1.952424E+05 -2.499123E+04
        12  22 -4.482897E+05 -3.181438E+05 -5.222378E+05  1.021892E+06  7.309572E+04  3.572395E+05
        12  23 -4.054188E+04 -2.655878E+05 -2.473614E+05  8.159203E+05  2.162672E+05  2.272467E+05
        12  24  1.770848E+04 -3.142523E+05 -1.439889E+05  1.020673E+06  1.957046E+05  9.738488E+04
        12  25  1.040891E+06  5.706323E+06  9.225343E+05  7.839296E+05  7.244861E+04  8.780357E+04
        12  26  1.090354E+06  4.406937E+06  7.495346E+05  7.288422E+05  2.158931E+05  1.540963E+05
        12  27  8.256802E+05  3.042872E+06  5.416129E+05  1.084011E+06  1.961902E+05  2.204106E+05
        13   1 -5.876611E+05 -2.684340E+06 -6.068426E+05  1.022020E+06 -1.381173E+05  7.251167E+03
        13   2 -2.506385E+05 -1.353434E+06 -2.894403E+05  8.103291E+05 -6.541107E+04  4.739310E+04
        13   3  6.865481E+04 -3.364117E+04 -3.653249E+03  1.018040E+06  1.028452E+04  8.752636E+04
        13   4 -1.047082E+04 -2.933266E+05 -1.159190E+05  1.022825E+06 -1.384929E+05 -7.789050E+04
        13   5  6.022842E+03 -2.868236E+05 -7.380585E+04  8.131035E+05 -6.584602E+04 -4.128929E+04
        13   6  5.545307E+03 -2.924343E+05 -6.070371E+04  1.022747E+06  9.782996E+03 -4.779634E+03
        13   7  5.663632E+05  2.103147E+06  3.747269E+05  1.023623E+06 -1.388678E+05 -1.633549E+05
        13   8  2.626178E+05  7.808891E+05  1.417995E+05  8.158808E+05 -6.628129E+04 -1.301213E+05
        13   9 -5.756402E+04 -5.511465E+05 -1.177262E+05  1.027453E+06  9.279940E+03 -9.704761E+04
        13  10 -5.876816E+05 -2.684345E+06 -6.068786E+05  1.022021E+06  2.248108E-09 -2.429583E-08
        13  11 -2.506437E+05 -1.353438E+06 -2.894526E+05  8.103316E+05  4.280614E-11 -1.754466E-09
        13  12  6.865264E+04 -3.364942E+04 -3.667839E+03  1.018039E+06 -3.683138E-10  2.106973E-08
        13  13 -1.049301E+04 -2.933382E+05 -1.159663E+05  1.022817E+06  2.077911E-09 -4.985109E-11
        13  14  6.017734E+03 -2.868266E+05 -7.381718E+04  8.131013E+05  3.086870E-09  1.228220E-10
        13  15  5.545198E+03 -2.924344E+05 -6.070394E+04  1.022747E+06 -7.541786E-10  2.486334E-10
        13  16  5.663354E+05  2.103114E+06  3.746408E+05  1.023604E+06  3.212832E-10  2.454020E-08
        13  17  2.626086E+05  7.808698E+05  1.417595E+05  8.158738E+05  1.781935E-09  1.367375E-09
        13  18 -5.756664E+04 -5.511566E+05 -1.177441E+05  1.027453E+06  4.920445E-10 -2.151001E-08
        13  19 -5.876611E+05 -2.684340E+06 -6.068426E+05  1.022020E+06  1.381173E+05 -7.251167E+03
        13  20 -2.506385E+05 -1.353434E+06 -2.894403E+05  8.103291E+05  6.541107E+04 -4.739310E+04
        13  21  6.865481E+04 -3.364117E+04 -3.653249E+03  1.018040E+06 -1.028452E+04 -8.752636E+04
        13  22 -1.047082E+04 -2.933266E+05 -1.159190E+05  1.022825E+06  1.384929E+05  7.789050E+04
        13  23  6.022842E+03 -2.868236E+05 -7.380585E+04  8.131035E+05  6.584602E+04  4.128929E+04
        13  24  5.545307E+03 -2.924343E+05 -6.070371E+04  1.022747E+06 -9.782996E+03  4.779634E+03
        13  25  5.663632E+05  2.103147E+06  3.747269E+05  1.023623E+06  1.388678E+05  1.633549E+05
        13  26  2.626178E+05  7.808891E+05  1.417995E+05  8.158808E+05  6.628129E+04  1.301213E+05
        13  27 -5.756402E+04 -5.511465E+05 -1.177262E+05  1.027453E+06 -9.279940E+03  9.704761E+04
        14   1  3.057232E+05  9.194438E+05  1.928785E+05  1.039214E+06  6.574197E+04  1.208497E+05
        14   2  6.102505E+05  2.251193E+06  4.727550E+05  7.958313E+05  1.073196E+05  2.930841E+04
        14   3  8.464284E+05  3.577976E+06  7.944278E+05  9.663308E+05  3.980124E+04 -6.212722E+04
        14   4  1.182203E+04 -2.965769E+05 -6.021072E+04  1.021491E+06  6.512966E+04  4.668234E+03
        14   5 -5.511099E+03 -2.829022E+05 -7.624429E+04  8.146981E+05  1.074209E+05  4.426796E+04
        14   6 -1.140155E+05 -2.986855E+05 -1.414838E+05  1.021973E+06  4.040292E+04  8.416561E+04
        14   7 -2.821652E+05 -1.511169E+06 -3.133305E+05  1.003802E+06  6.452319E+04 -1.112897E+05
        14   8 -6.216948E+05 -2.810982E+06 -6.256244E+05  8.334767E+05  1.075235E+05  5.916715E+04
        14   9 -1.075531E+06 -4.161600E+06 -1.078390E+06  1.077245E+06  4.103320E+04  2.295507E+05
        14  10  3.057146E+05  9.194270E+05  1.928431E+05  1.039207E+06 -1.561012E-09  1.832857E-09
        14  11  6.102379E+05  2.251189E+06  4.727318E+05  7.958288E+05 -2.225614E-09  1.305839E-09
        14  12  8.464257E+05  3.577971E+06  7.944176E+05  9.663328E+05 -1.286323E-10  1.807685E-09
        14  13  1.181747E+04 -2.965781E+05 -6.021873E+04  1.021491E+06  7.207460E-10  1.243342E-10
        14  14 -5.524006E+03 -2.829074E+05 -7.626963E+04  8.146942E+05 -2.448664E-09  1.363429E-10
        14  15 -1.140191E+05 -2.986935E+05 -1.415001E+05  1.021971E+06 -2.213750E-09  1.761012E-10
        14  16 -2.821730E+05 -1.511184E+06 -3.133617E+05  1.003807E+06 -1.298088E-09 -1.507254E-09
        14  17 -6.217082E+05 -2.810989E+06 -6.256527E+05  8.334716E+05 -6.844842E-10 -1.550805E-09
        14  18 -1.075547E+06 -4.161658E+06 -1.078492E+06  1.077237E+06 -1.518819E-09 -2.030822E-09
        14  19  3.057232E+05  9.194438E+05  1.928785E+05  1.039214E+06 -6.574197E+04 -1.208497E+05
        14  20  6.102505E+05  2.251193E+06  4.727550E+05  7.958313E+05 -1.073196E+05 -2.930841E+04
        14  21  8.464284E+05  3.577976E+06  7.944278E+05  9.663308E+05 -3.980124E+04  6.212722E+04
        14  22  1.182203E+04 -2.965769E+05 -6.021072E+04  1.021491E+06 -6.512966E+04 -4.668234E+03
        14  23 -5.511099E+03 -2.829022E+05 -7.624429E+04  8.146981E+05 -1.074209E+05 -4.426796E+04
        14  24 -1.140155E+05 -2.986855E+05 -1.414838E+05  1.021973E+06 -4.040292E+04 -8.416561E+04
        14  25 -2.821652E+05 -1.511169E+06 -3.133305E+05  1.003802E+06 -6.452319E+04  1.112897E+05
        14  26 -6.216948E+05 -2.810982E+06 -6.256244E+05  8.334767E+05 -1.075235E+05 -5.916715E+04
        14  27 -1.075531E+06 -4.161600E+06 -1.078390E+06  1.077245E+06 -4.103320E+04 -2.295507E+05
        15   1  2.286917E+06  1.056063E+05  1.228600E+05  5.808641E+04  8.375581E+04  7.808916E+00
        15   2  2.274554E+06  9.591446E+03  5.850285E+04  2.278406E+04  5.312314E+04  1.942763E+00
        15   3  2.287033E+06 -2.880450E+03  3.492255E+04 -1.251662E+04  2.249082E+04 -4.518434E-01
        15   4  2.286913E+06  1.056000E+05  1.228591E+05 -1.321376E-08  8.375581E+04  1.528746E-10
        15   5  2.274553E+06  9.590474E+03  5.850271E+04 -1.966215E-09  5.312314E+04  3.487922E-10
        15   6  2.287033E+06 -2.880743E+03  3.492251E+04 -1.059799E-08  2.249082E+04  1.335094E-10
        15   7  2.286917E+06  1.056063E+05  1.228600E+05 -5.808641E+04  8.375581E+04 -7.808916E+00
        15   8  2.274554E+06  9.591446E+03  5.850285E+04 -2.278406E+04  5.312314E+04 -1.942763E+00
        15   9  2.287033E+06 -2.880450E+03  3.492255E+04  1.251662E+04  2.249082E+04  4.518434E-01
        15  10  2.286909E+06  1.056045E+05  1.228469E+05  5.808641E+04 -3.253285E-09 -2.055813E-10
        15  11  2.274551E+06  9.590691E+03  5.849756E+04  2.278406E+04  1.181953E-09 -3.176842E-10
        15  12  2.287033E+06 -2.880585E+03  3.492160E+04 -1.251662E+04  6.082848E-11  6.998069E-10
        15  13  2.286906E+06  1.055981E+05  1.228460E+05 -8.703671E-09 -1.704661E-10  2.032935E-10
        15  14  2.274550E+06  9.589719E+03  5.849742E+04  2.528729E-10  1.078006E-09  6.005377E-10
        15  15  2.287032E+06 -2.880878E+03  3.492156E+04 -3.204086E-09  4.428820E-09  5.304397E-10
        15  16  2.286909E+06  1.056045E+05  1.228469E+05 -5.808641E+04 -5.246804E-11  5.847094E-10
        15  17  2.274551E+06  9.590691E+03  5.849756E+04 -2.278406E+04 -3.280763E-11  1.437189E-09
        15  18  2.287033E+06 -2.880585E+03  3.492160E+04  1.251662E+04 -9.636878E-10  3.502420E-10
        15  19  2.286917E+06  1.056063E+05  1.228600E+05  5.808641E+04 -8.375581E+04 -7.808916E+00
        15  20  2.274554E+06  9.591446E+03  5.850285E+04  2.278406E+04 -5.312314E+04 -1.942763E+00
        15  21  2.287033E+06 -2.880450E+03  3.492255E+04 -1.251662E+04 -2.249082E+04  4.518434E-01
        15  22  2.286913E+06  1.056000E+05  1.228591E+05 -1.493147E-08 -8.375581E+04  2.292760E-10
        15  23  2.274553E+06  9.590474E+03  5.850271E+04  3.055204E-10 -5.312314E+04  8.027895E-10
        15  24  2.287033E+06 -2.880743E+03  3.492251E+04 -1.084667E-08 -2.249082E+04  9.037620E-10
        15  25  2.286917E+06  1.056063E+05  1.228600E+05 -5.808641E+04 -8.375581E+04  7.808916E+00
        15  26  2.274554E+06  9.591446E+03  5.850285E+04 -2.278406E+04 -5.312314E+04  1.942763E+00
        15  27  2.287033E+06 -2.880450E+03  3.492255E+04  1.251662E+04 -2.249082E+04 -4.518434E-01
        16   1  2.281999E+06  4.110039E+03  2.860000E+04  1.551212E+03  1.757200E+04  4.375134E-02
        16   2  2.280873E+06  2.074045E+01  1.965577E+04  5.285302E+02  7.775243E+03  6.596039E-03
        16   3  2.282008E+06 -1.059380E+02  1.806330E+04 -4.941694E+02 -2.021613E+03  1.603511E-03
        16   4  2.281999E+06  4.110035E+03  2.860000E+04 -9.878123E-09  1.757200E+04  1.095887E-09
        16   5  2.280873E+06  2.073993E+01  1.965577E+04 -8.357106E-09  7.775243E+03  2.083261E-09
        16   6  2.282008E+06 -1.059384E+02  1.806330E+04 -1.253753E-08 -2.021613E+03 -1.356313E-09
        16   7  2.281999E+06  4.110039E+03  2.860000E+04 -1.551212E+03  1.757200E+04 -4.375134E-02
        16   8  2.280873E+06  2.074045E+01  1.965577E+04 -5.285302E+02  7.775243E+03 -6.596035E-03
        16   9  2.282008E+06 -1.059380E+02  1.806330E+04  4.941694E+02 -2.021613E+03 -1.603514E-03
        16  10  2.281999E+06  4.109957E+03  2.859942E+04  1.551212E+03 -3.699044E-09  1.584873E-09
        16  11  2.280873E+06  2.072429E+01  1.965566E+04  5.285302E+02  2.285370E-09  1.865882E-09
        16  12  2.282008E+06 -1.059390E+02  1.806330E+04 -4.941694E+02  8.990452E-10  4.788620E-10
        16  13  2.281999E+06  4.109952E+03  2.859942E+04  1.575737E-09 -2.634638E-09  1.018963E-09
        16  14  2.280873E+06  2.072377E+01  1.965566E+04 -9.758139E-10  4.056401E-09  1.684438E-09
        16  15  2.282008E+06 -1.059395E+02  1.806330E+04 -4.032645E-09  1.296069E-09  6.454112E-11
        16  16  2.281999E+06  4.109957E+03  2.859942E+04 -1.551212E+03  1.559933E-09  4.351040E-10
        16  17  2.280873E+06  2.072429E+01  1.965566E+04 -5.285302E+02  2.014072E-09  1.476300E-09
        16  18  2.282008E+06 -1.059390E+02  1.806330E+04  4.941694E+02 -2.011033E-09 -2.645108E-10
        16  19  2.281999E+06  4.110039E+03  2.860000E+04  1.551212E+03 -1.757200E+04 -4.375134E-02
        16  20  2.280873E+06  2.074045E+01  1.965577E+04  5.285302E+02 -7.775243E+03 -6.596035E-03
        16  21  2.282008E+06 -1.059380E+02  1.806330E+04 -4.941694E+02  2.021613E+03 -1.603510E-03
        16  22  2.281999E+06  4.110035E+03  2.860000E+04  3.093617E-11 -1.757200E+04  8.953728E-10
        16  23  2.280873E+06  2.073993E+01  1.965577E+04  8.561390E-09 -7.775243E+03  1.291817E-09
        16  24  2.282008E+06 -1.059384E+02  1.806330E+04 -3.658777E-09  2.021613E+03  1.514602E-09
        16  25  2.281999E+06  4.110039E+03  2.860000E+04 -1.551212E+03 -1.757200E+04  4.375134E-02
        16  26  2.280873E+06  2.074045E+01  1.965577E+04 -5.285302E+02 -7.775243E+03  6.596038E-03
        16  27  2.282008E+06 -1.059380E+02  1.806330E+04  4.941694E+02  2.021613E+03  1.603514E-03
        17   1  2.282234E+06 -2.997266E+02  1.931186E+04  1.225632E+03 -5.327127E+03 -1.047976E-02
        17   2  2.280586E+06  1.467951E+02  2.651965E+04 -5.562950E+02 -1.856315E+04  1.657512E-02
        17   3  2.282215E+06  6.833971E+03  4.388214E+04 -2.338210E+03 -3.179934E+04  1.193441E-01
        17   4  2.282234E+06 -2.997294E+02  1.931186E+04 -6.834390E-09 -5.327127E+03 -1.650319E-09
        17   5  2.280586E+06  1.467946E+02  2.651965E+04  1.322421E-08 -1.856315E+04  1.581260E-09
        17   6  2.282215E+06  6.833960E+03  4.388214E+04 -1.152377E-08 -3.179934E+04  1.413918E-09
        17   7  2.282234E+06 -2.997266E+02  1.931186E+04 -1.225632E+03 -5.327127E+03  1.047976E-02
        17   8  2.280586E+06  1.467951E+02  2.651965E+04  5.562950E+02 -1.856315E+04 -1.657511E-02
        17   9  2.282215E+06  6.833971E+03  4.388214E+04  2.338210E+03 -3.179934E+04 -1.193441E-01
        17  10  2.282234E+06 -2.997342E+02  1.931181E+04  1.225632E+03 -3.676168E-09  1.859646E-10
        17  11  2.280586E+06  1.467031E+02  2.651901E+04 -5.562950E+02 -9.307545E-10  1.138709E-09
        17  12  2.282214E+06  6.833700E+03  4.388025E+04 -2.338210E+03 -2.118171E-09  4.193765E-10
        17  13  2.282234E+06 -2.997370E+02  1.931181E+04  4.691132E-09 -1.011526E-10 -1.477664E-10
        17  14  2.280586E+06  1.467025E+02  2.651901E+04  6.878758E-09  4.615897E-10  1.020069E-09
        17  15  2.282214E+06  6.833690E+03  4.388025E+04  7.457903E-09  3.996983E-09  5.715671E-10
        17  16  2.282234E+06 -2.997342E+02  1.931181E+04 -1.225632E+03  3.753613E-09 -5.591831E-10
        17  17  2.280586E+06  1.467031E+02  2.651901E+04  5.562950E+02  4.973198E-09  8.995359E-10
        17  18  2.282214E+06  6.833700E+03  4.388025E+04  2.338210E+03  4.261046E-09  6.270864E-10
        17  19  2.282234E+06 -2.997266E+02  1.931186E+04  1.225632E+03  5.327127E+03  1.047977E-02
        17  20  2.280586E+06  1.467951E+02  2.651965E+04 -5.562950E+02  1.856315E+04 -1.657511E-02
        17  21  2.282215E+06  6.833971E+03  4.388214E+04 -2.338210E+03  3.179934E+04 -1.193441E-01
        17  22  2.282234E+06 -2.997294E+02  1.931186E+04  3.277004E-09  5.327127E+03  1.331068E-09
        17  23  2.280586E+06  1.467946E+02  2.651965E+04  1.668990E-08  1.856315E+04  5.028982E-10
        17  24  2.282215E+06  6.833960E+03  4.388214E+04  1.526832E-08  3.179934E+04 -3.244074E-10
        17  25  2.282234E+06 -2.997266E+02  1.931186E+04 -1.225632E+03  5.327127E+03 -1.047976E-02
        17  26  2.280586E+06  1.467951E+02  2.651965E+04  5.562950E+02  1.856315E+04  1.657511E-02
        17  27  2.282215E+06  6.833971E+03  4.388214E+04  2.338210E+03  3.179934E+04  1.193441E-01
        18   1  2.290599E+06 -4.710845E+03  5.519008E+04  2.079337E+04 -3.939577E+04 -1.314825E+00
        18   2  2.270059E+06  1.584147E+04  9.534868E+04 -3.744681E+04 -8.934932E+04  5.370507E+00
        18   3  2.290411E+06  1.741338E+05  2.023836E+05 -9.568916E+04 -1.393019E+05  2.139552E+01
        18   4  2.290599E+06 -4.711654E+03  5.518997E+04  1.230186E-07 -3.939577E+04 -2.491883E-10
        18   5  2.270058E+06  1.583884E+04  9.534830E+04 -7.225063E-09 -8.934932E+04 -2.013733E-09
        18   6  2.290401E+06  1.741166E+05  2.023812E+05 -1.468949E-07 -1.393019E+05 -7.012468E-10
        18   7  2.290599E+06 -4.710845E+03  5.519008E+04 -2.079337E+04 -3.939577E+04  1.314825E+00
        18   8  2.270059E+06  1.584147E+04  9.534868E+04  3.744681E+04 -8.934932E+04 -5.370507E+00
        18   9  2.290411E+06  1.741338E+05  2.023836E+05  9.568916E+04 -1.393019E+05 -2.139552E+01
        18  10  2.290597E+06 -4.711259E+03  5.518718E+04  2.079336E+04 -4.534906E-08 -1.128901E-09
        18  11  2.270051E+06  1.583933E+04  9.533373E+04 -3.744681E+04 -8.609779E-10 -2.548168E-09
        18  12  2.290390E+06  1.741286E+05  2.023473E+05 -9.568916E+04  4.174933E-08 -1.105531E-09
        18  13  2.290597E+06 -4.712069E+03  5.518706E+04  9.778302E-09  1.585171E-09 -7.548841E-10
        18  14  2.270049E+06  1.583671E+04  9.533336E+04 -1.852417E-09  4.984164E-09 -2.107988E-09
        18  15  2.290380E+06  1.741115E+05  2.023448E+05 -6.982363E-09  5.229248E-10 -8.490430E-10
        18  16  2.290597E+06 -4.711259E+03  5.518718E+04 -2.079336E+04  4.657693E-08 -4.360409E-10
        18  17  2.270051E+06  1.583933E+04  9.533373E+04  3.744681E+04  4.550001E-10 -1.712108E-09
        18  18  2.290390E+06  1.741286E+05  2.023473E+05  9.568916E+04 -3.941472E-08 -6.733933E-10
        18  19  2.290599E+06 -4.710845E+03  5.519008E+04  2.079337E+04  3.939577E+04  1.314825E+00
        18  20  2.270059E+06  1.584147E+04  9.534868E+04 -3.744681E+04  8.934932E+04 -5.370507E+00
        18  21  2.290411E+06  1.741338E+05  2.023836E+05 -9.568916E+04  1.393019E+05 -2.139552E+01
        18  22  2.290599E+06 -4.711654E+03  5.518997E+04 -1.250123E-07  3.939577E+04 -1.291673E-09
        18  23  2.270058E+06  1.583884E+04  9.534830E+04  7.844580E-09  8.934932E+04 -2.178346E-09
        18  24  2.290401E+06  1.741166E+05  2.023812E+05  1.374865E-07  1.393019E+05 -9.405548E-10
        18  25  2.290599E+06 -4.710845E+03  5.519008E+04 -2.079337E+04  3.939577E+04 -1.314825E+00
        18  26  2.270059E+06  1.584147E+04  9.534868E+04  3.744681E+04  8.934932E+04  5.370507E+00
        18  27  2.290411E+06  1.741338E+05  2.023836E+05  9.568916E+04  1.393019E+05  2.139552E+01
        19   1 -1.449400E+06 -4.656210E+06 -1.470992E+06  9.207317E+05 -5.528679E+04 -4.681206E+05
        19   2 -8.826459E+05 -3.642912E+06 -9.364105E+05  6.594377E+05 -1.634004E+05 -2.255441E+05
        19   3 -6.048991E+05 -2.731324E+06 -6.325578E+05  6.961933E+05 -1.493160E+05  1.737172E+04
        19   4 -3.356565E+05 -1.782864E+05 -3.908683E+05  7.422518E+05 -5.481138E+04 -2.666889E+05
        19   5 -3.046596E+04 -1.389257E+05 -1.856499E+05  5.928418E+05 -1.631744E+05 -1.692363E+05
        19   6  1.198551E+04 -1.761692E+05 -1.092589E+05  7.415743E+05 -1.495627E+05 -7.185423E+04
        19   7  7.767659E+05  4.318227E+06  6.879934E+05  5.624549E+05 -5.445508E+04 -6.379581E+04
        19   8  8.209295E+05  3.376675E+06  5.644115E+05  5.258512E+05 -1.629614E+05 -1.126119E+05
        19   9  6.284708E+05  2.385228E+06  4.137243E+05  7.871376E+05 -1.498218E+05 -1.614415E+05
        19  10 -1.449462E+06 -4.656447E+06 -1.471412E+06  9.207109E+05  1.192792E-09 -1.431607E-09
        19  11 -8.826882E+05 -3.642974E+06 -9.365566E+05  6.594080E+05 -2.292949E-09 -3.989810E-10
        19  12 -6.049232E+05 -2.731331E+06 -6.326003E+05  6.961954E+05  1.707342E-09  1.639226E-09
        19  13 -3.356788E+05 -1.783636E+05 -3.910075E+05  7.422401E+05 -3.853161E-10  1.648870E-10
        19  14 -3.050221E+04 -1.389636E+05 -1.857536E+05  5.928196E+05 -1.119726E-09  1.728813E-11
        19  15  1.196012E+04 -1.761807E+05 -1.093106E+05  7.415656E+05 -1.984606E-10  2.353033E-10
        19  16  7.767616E+05  4.318222E+06  6.879802E+05  5.624521E+05 -1.027366E-09  1.633181E-09
        19  17  8.208976E+05  3.376654E+06  5.643380E+05  5.258365E+05 -1.675012E-09 -7.056003E-11
        19  18  6.284398E+05  2.385194E+06  4.136334E+05  7.871182E+05  1.509466E-09 -1.343509E-09
        19  19 -1.449400E+06 -4.656210E+06 -1.470992E+06  9.207317E+05  5.528679E+04  4.681206E+05
        19  20 -8.826459E+05 -3.642912E+06 -9.364105E+05  6.594377E+05  1.634004E+05  2.255441E+05
        19  21 -6.048991E+05 -2.731324E+06 -6.325578E+05  6.961933E+05  1.493160E+05 -1.737172E+04
        19  22 -3.356565E+05 -1.782864E+05 -3.908683E+05  7.422518E+05  5.481138E+04  2.666889E+05
        19  23 -3.046596E+04 -1.389257E+05 -1.856499E+05  5.928418E+05  1.631744E+05  1.692363E+05
        19  24  1.198551E+04 -1.761692E+05 -1.092589E+05  7.415743E+05  1.495627E+05  7.185423E+04
        19  25  7.767659E+05  4.318227E+06  6.879934E+05  5.624549E+05  5.445508E+04  6.379581E+04
        19  26  8.209295E+05  3.376675E+06  5.644115E+05  5.258512E+05  1.629614E+05  1.126119E+05
        19  27  6.284708E+05  2.385228E+06  4.137243E+05  7.871376E+05  1.498218E+05  1.614415E+05
        20   1 -4.582183E+05 -2.021287E+06 -4.703534E+05  7.439754E+05 -1.077341E+05  4.536216E+03
        20   2 -2.130943E+05 -1.054367E+06 -2.403312E+05  5.891009E+05 -5.515234E+04  3.670528E+04
        20   3  1.728054E+04 -9.614148E+04 -3.550511E+04  7.387623E+05 -4.900264E+01  6.886613E+04
        20   4 -9.283113E+03 -1.605223E+05 -8.871250E+04  7.431198E+05 -1.079329E+05 -5.687149E+04
        20   5  3.089340E+03 -1.557376E+05 -5.870082E+04  5.908430E+05 -5.538792E+04 -2.769366E+04
        20   6  1.310184E+03 -1.599778E+05 -5.172678E+04  7.430806E+05 -3.255273E+02  1.427776E+03
        20   7  4.394363E+05  1.703546E+06  2.927582E+05  7.422568E+05 -1.081312E+05 -1.184602E+05
        20   8  2.192251E+05  7.436712E+05  1.229035E+05  5.925867E+05 -5.562365E+04 -9.218413E+04
        20   9 -1.465797E+04 -2.238005E+05 -6.793167E+04  7.473985E+05 -6.030076E+02 -6.600363E+04
        20  10 -4.582307E+05 -2.021290E+06 -4.703753E+05  7.439758E+05  2.208664E-10 -5.668961E-09
        20  11 -2.130979E+05 -1.054370E+06 -2.403395E+05  5.891025E+05 -4.186666E-09  6.997061E-09
        20  12  1.727927E+04 -9.614657E+04 -3.551402E+04  7.387623E+05 -4.344522E-10  2.044825E-08
        20  13 -9.296479E+03 -1.605289E+05 -8.874044E+04  7.431148E+05 -5.265307E-10  1.287264E-09
        20  14  3.085842E+03 -1.557393E+05 -5.870802E+04  5.908418E+05 -1.381484E-09  1.128733E-11
        20  15  1.310183E+03 -1.599778E+05 -5.172679E+04  7.430806E+05 -2.600392E-10  3.705760E-10
        20  16  4.394200E+05  1.703528E+06  2.927100E+05  7.422465E+05  2.628687E-10  6.059338E-09
        20  17  2.192195E+05  7.436612E+05  1.228818E+05  5.925826E+05 -2.535498E-09 -8.138182E-09
        20  18 -1.465914E+04 -2.238052E+05 -6.793986E+04  7.473985E+05 -1.550050E-09 -2.022565E-08
        20  19 -4.582183E+05 -2.021287E+06 -4.703534E+05  7.439754E+05  1.077341E+05 -4.536216E+03
        20  20 -2.130943E+05 -1.054367E+06 -2.403312E+05  5.891009E+05  5.515234E+04 -3.670528E+04
        20  21  1.728054E+04 -9.614148E+04 -3.550511E+04  7.387623E+05  4.900264E+01 -6.886613E+04
        20  22 -9.283113E+03 -1.605223E+05 -8.871250E+04  7.431198E+05  1.079329E+05  5.687149E+04
        20  23  3.089340E+03 -1.557376E+05 -5.870082E+04  5.908430E+05  5.538792E+04  2.769366E+04
        20  24  1.310184E+03 -1.599778E+05 -5.172678E+04  7.430806E+05  3.255273E+02 -1.427776E+03
        20  25  4.394363E+05  1.703546E+06  2.927582E+05  7.422568E+05  1.081312E+05  1.184602E+05
        20  26  2.192251E+05  7.436712E+05  1.229035E+05  5.925867E+05  5.562365E+04  9.218413E+04
        20  27 -1.465797E+04 -2.238005E+05 -6.793167E+04  7.473985E+05  6.030076E+02  6.600363E+04
        21   1  1.913849E+05  5.942571E+05  1.054978E+05  7.573638E+05  4.008804E+04  9.365407E+04
        21   2  4.098801E+05  1.564878E+06  3.016016E+05  5.705648E+05  7.167933E+04  3.917853E+04
        21   3  5.547341E+05  2.524068E+06  5.143503E+05  6.845410E+05  2.715812E+04 -1.521121E+04
        21   4  7.853102E+03 -1.643647E+05 -5.312383E+04  7.422107E+05  3.975013E+04  9.678128E+03
        21   5 -7.285951E+03 -1.507616E+05 -7.102646E+04  5.919484E+05  7.172155E+04  4.662186E+04
        21   6 -1.120024E+05 -1.654022E+05 -1.357609E+05  7.425708E+05  2.747836E+04  8.373298E+04
        21   7 -1.757110E+05 -9.224270E+05 -2.117508E+05  7.270755E+05  3.941605E+04 -7.419695E+04
        21   8 -4.246448E+05 -1.863644E+06 -4.438298E+05  6.132687E+05  7.176436E+04  5.404480E+04
        21   9 -7.792485E+05 -2.848248E+06 -7.863524E+05  8.003405E+05  2.781795E+04  1.822506E+05
        21  10  1.913808E+05  5.942473E+05  1.054783E+05  7.573608E+05 -2.137021E-09 -1.445110E-08
        21  11  4.098742E+05  1.564875E+06  3.015891E+05  5.705625E+05  6.696911E-10 -7.345505E-09
        21  12  5.547333E+05  2.524067E+06  5.143485E+05  6.845413E+05 -7.008083E-10  3.942918E-09
        21  13  7.851381E+03 -1.643652E+05 -5.312697E+04  7.422103E+05 -1.974742E-09  1.503647E-09
        21  14 -7.292053E+03 -1.507653E+05 -7.104020E+04  5.919457E+05  3.519111E-09 -3.102621E-11
        21  15 -1.120051E+05 -1.654100E+05 -1.357755E+05  7.425690E+05 -1.492565E-09  2.582851E-10
        21  16 -1.757141E+05 -9.224334E+05 -2.117641E+05  7.270778E+05  3.404141E-10  1.475254E-08
        21  17 -4.246511E+05 -1.863648E+06 -4.438450E+05  6.132655E+05 -6.718713E-10  6.075395E-09
        21  18 -7.792582E+05 -2.848284E+06 -7.864165E+05  8.003364E+05  1.218806E-09 -3.849539E-09
        21  19  1.913849E+05  5.942571E+05  1.054978E+05  7.573638E+05 -4.008804E+04 -9.365407E+04
        21  20  4.098801E+05  1.564878E+06  3.016016E+05  5.705648E+05 -7.167933E+04 -3.917853E+04
        21  21  5.547341E+05  2.524068E+06  5.143503E+05  6.845410E+05 -2.715812E+04  1.521121E+04
        21  22  7.853102E+03 -1.643647E+05 -5.312383E+04  7.422107E+05 -3.975013E+04 -9.678128E+03
        21  23 -7.285951E+03 -1.507616E+05 -7.102646E+04  5.919484E+05 -7.172155E+04 -4.662186E+04
        21  24 -1.120024E+05 -1.654022E+05 -1.357609E+05  7.425708E+05 -2.747836E+04 -8.373298E+04
        21  25 -1.757110E+05 -9.224270E+05 -2.117508E+05  7.270755E+05 -3.941605E+04  7.419695E+04
        21  26 -4.246448E+05 -1.863644E+06 -4.438298E+05  6.132687E+05 -7.176436E+04 -5.404480E+04
        21  27 -7.792485E+05 -2.848248E+06 -7.863524E+05  8.003405E+05 -2.781795E+04 -1.822506E+05
        22   1  1.761782E+06  7.951150E+04  9.250465E+04  4.371260E+04  6.301362E+04  4.424780E+00
        22   2  1.752459E+06  7.214235E+03  4.405903E+04  1.714632E+04  3.994772E+04  1.100313E+00
        22   3  1.761849E+06 -2.171371E+03  2.632857E+04 -9.419720E+03  1.688141E+04 -2.554424E-01
        22   4  1.761780E+06  7.950792E+04  9.250413E+04 -7.403136E-09  6.301362E+04  2.949365E-10
        22   5  1.752459E+06  7.213684E+03  4.405895E+04 -4.984456E-09  3.994772E+04  1.413437E-09
        22   6  1.761849E+06 -2.171537E+03  2.632855E+04 -2.223270E-08  1.688141E+04  2.480642E-09
        22   7  1.761782E+06  7.951150E+04  9.250465E+04 -4.371260E+04  6.301362E+04 -4.424780E+00
        22   8  1.752459E+06  7.214235E+03  4.405903E+04 -1.714632E+04  3.994772E+04 -1.100313E+00
        22   9  1.761849E+06 -2.171371E+03  2.632857E+04  9.419720E+03  1.688141E+04  2.554424E-01
        22  10  1.761778E+06  7.951044E+04  9.249720E+04  4.371260E+04 -5.451693E-10  4.674017E-11
        22  11  1.752457E+06  7.213808E+03  4.405604E+04  1.714632E+04 -1.253508E-09  3.282016E-10
        22  12  1.761849E+06 -2.171447E+03  2.632804E+04 -9.419720E+03 -2.942668E-09  1.316721E-09
        22  13  1.761776E+06  7.950686E+04  9.249669E+04  3.319745E-09  5.055502E-11 -9.124066E-11
        22  14  1.752457E+06  7.213257E+03  4.405596E+04  6.021033E-10  3.705357E-09  1.629217E-10
        22  15  1.761849E+06 -2.171613E+03  2.632802E+04 -7.478946E-09  1.520970E-09  1.057497E-09
        22  16  1.761778E+06  7.951044E+04  9.249720E+04 -4.371260E+04 -2.017776E-09 -1.962393E-10
        22  17  1.752457E+06  7.213808E+03  4.405604E+04 -1.714632E+04  1.747140E-09 -1.109817E-10
        22  18  1.761849E+06 -2.171447E+03  2.632804E+04  9.419720E+03  1.264441E-09  8.269313E-10
        22  19  1.761782E+06  7.951150E+04  9.250465E+04  4.371260E+04 -6.301362E+04 -4.424780E+00
        22  20  1.752459E+06  7.214235E+03  4.405903E+04  1.714632E+04 -3.994772E+04 -1.100313E+00
        22  21  1.761849E+06 -2.171371E+03  2.632857E+04 -9.419720E+03 -1.688141E+04  2.554424E-01
        22  22  1.761780E+06  7.950792E+04  9.250413E+04 -5.371874E-09 -6.301362E+04 -4.727417E-10
        22  23  1.752459E+06  7.213684E+03  4.405895E+04 -4.592672E-09 -3.994772E+04 -1.209053E-09
        22  24  1.761849E+06 -2.171537E+03  2.632855E+04 -1.217053E-08 -1.688141E+04 -3.559105E-10
        22  25  1.761782E+06  7.951150E+04  9.250465E+04 -4.371260E+04 -6.301362E+04  4.424780E+00
        22  26  1.752459E+06  7.214235E+03  4.405903E+04 -1.714632E+04 -3.994772E+04  1.100313E+00
        22  27  1.761849E+06 -2.171371E+03  2.632857E+04  9.419720E+03 -1.688141E+04 -2.554424E-01
        23   1  1.758062E+06  3.093994E+03  2.158444E+04  1.171546E+03  1.317225E+04  2.478952E-02
        23   2  1.757209E+06  1.352697E+01  1.489623E+04  4.033441E+02  5.749290E+03  3.725108E-03
        23   3  1.758067E+06 -7.743177E+01  1.377809E+04 -3.648591E+02 -1.673642E+03  9.809265E-04
        23   4  1.758062E+06  3.093992E+03  2.158444E+04 -5.595238E-09  1.317225E+04  1.320409E-09
        23   5  1.757209E+06  1.352667E+01  1.489623E+04  7.292850E-09  5.749290E+03 -1.202297E-09
        23   6  1.758067E+06 -7.743202E+01  1.377809E+04  4.560219E-09 -1.673642E+03  5.018457E-10
        23   7  1.758062E+06  3.093994E+03  2.158444E+04 -1.171546E+03  1.317225E+04 -2.478952E-02
        23   8  1.757209E+06  1.352697E+01  1.489623E+04 -4.033441E+02  5.749290E+03 -3.725110E-03
        23   9  1.758067E+06 -7.743177E+01  1.377809E+04  3.648591E+02 -1.673642E+03 -9.809256E-04
        23  10  1.758062E+06  3.093948E+03  2.158412E+04  1.171546E+03  1.919323E-09  5.466419E-10
        23  11  1.757209E+06  1.351813E+01  1.489617E+04  4.033441E+02 -2.125662E-09 -1.221491E-09
        23  12  1.758067E+06 -7.743252E+01  1.377808E+04 -3.648591E+02 -2.056430E-09 -9.023246E-11
        23  13  1.758062E+06  3.093945E+03  2.158412E+04  4.341576E-09  7.103333E-10  6.675249E-10
        23  14  1.757209E+06  1.351782E+01  1.489617E+04  6.055038E-09  2.472360E-09 -7.281667E-10
        23  15  1.758067E+06 -7.743277E+01  1.377808E+04  7.212797E-09 -1.068110E-09 -2.085483E-10
        23  16  1.758062E+06  3.093948E+03  2.158412E+04 -1.171546E+03 -1.851916E-09  7.405385E-10
        23  17  1.757209E+06  1.351813E+01  1.489617E+04 -4.033441E+02 -3.941255E-10 -3.135735E-10
        23  18  1.758067E+06 -7.743252E+01  1.377808E+04  3.648591E+02  1.806189E-09 -2.312963E-10
        23  19  1.758062E+06  3.093994E+03  2.158444E+04  1.171546E+03 -1.317225E+04 -2.478952E-02
        23  20  1.757209E+06  1.352697E+01  1.489623E+04  4.033441E+02 -5.749290E+03 -3.725110E-03
        23  21  1.758067E+06 -7.743177E+01  1.377809E+04 -3.648591E+02  1.673642E+03 -9.809270E-04
        23  22  1.758062E+06  3.093992E+03  2.158444E+04 -8.098059E-10 -1.317225E+04  1.055955E-10
        23  23  1.757209E+06  1.352667E+01  1.489623E+04  6.981106E-09 -5.749290E+03 -3.153388E-10
        23  24  1.758067E+06 -7.743202E+01  1.377809E+04  1.306727E-09  1.673642E+03 -9.069725E-10
        23  25  1.758062E+06  3.093994E+03  2.158444E+04 -1.171546E+03 -1.317225E+04  2.478952E-02
        23  26  1.757209E+06  1.352697E+01  1.489623E+04 -4.033441E+02 -5.749290E+03  3.725110E-03
        23  27  1.758067E+06 -7.743177E+01  1.377809E+04  3.648591E+02  1.673642E+03  9.809250E-04
        24   1  1.758247E+06 -2.324844E+02  1.477623E+04  9.494724E+02 -4.197845E+03 -6.402610E-03
        24   2  1.756980E+06  1.142079E+02  2.038395E+04 -4.257675E+02 -1.437005E+04  9.828342E-03
        24   3  1.758236E+06  5.272816E+03  3.380374E+04 -1.800980E+03 -2.454221E+04  7.100217E-02
        24   4  1.758247E+06 -2.324861E+02  1.477623E+04 -2.778823E-09 -4.197845E+03  8.684029E-10
        24   5  1.756980E+06  1.142075E+02  2.038395E+04 -1.058100E-08 -1.437005E+04 -8.050197E-10
        24   6  1.758236E+06  5.272810E+03  3.380374E+04 -6.816589E-09 -2.454221E+04 -5.783852E-11
        24   7  1.758247E+06 -2.324844E+02  1.477623E+04 -9.494724E+02 -4.197845E+03  6.402612E-03
        24   8  1.756980E+06  1.142079E+02  2.038395E+04  4.257675E+02 -1.437005E+04 -9.828344E-03
        24   9  1.758236E+06  5.272816E+03  3.380374E+04  1.800980E+03 -2.454221E+04 -7.100217E-02
        24  10  1.758247E+06 -2.324891E+02  1.477620E+04  9.494724E+02 -1.599219E-09  5.931831E-10
        24  11  1.756980E+06  1.141526E+02  2.038356E+04 -4.257675E+02  2.544445E-10  5.375176E-10
        24  12  1.758236E+06  5.272655E+03  3.380261E+04 -1.800980E+03  7.389344E-10  1.005271E-09
        24  13  1.758247E+06 -2.324908E+02  1.477620E+04  1.273007E-09 -3.165840E-09  7.878839E-11
        24  14  1.756980E+06  1.141523E+02  2.038356E+04 -4.129397E-09 -4.944256E-09 -2.994855E-10
        24  15  1.758236E+06  5.272648E+03  3.380261E+04 -9.099725E-10  1.976125E-09 -6.476508E-12
        24  16  1.758247E+06 -2.324891E+02  1.477620E+04 -9.494724E+02 -5.110664E-11 -3.641595E-10
        24  17  1.756980E+06  1.141526E+02  2.038356E+04  4.257675E+02 -7.781094E-10 -1.168441E-09
        24  18  1.758236E+06  5.272655E+03  3.380261E+04  1.800980E+03 -1.145650E-09 -1.050048E-09
        24  19  1.758247E+06 -2.324844E+02  1.477623E+04  9.494724E+02  4.197845E+03  6.402611E-03
        24  20  1.756980E+06  1.142079E+02  2.038395E+04 -4.257675E+02  1.437005E+04 -9.828341E-03
        24  21  1.758236E+06  5.272816E+03  3.380374E+04 -1.800980E+03  2.454221E+04 -7.100217E-02
        24  22  1.758247E+06 -2.324861E+02  1.477623E+04 -1.141545E-09  4.197845E+03 -6.675654E-10
        24  23  1.756980E+06  1.142075E+02  2.038395E+04  4.477674E-09  1.437005E+04  1.977157E-10
        24  24  1.758236E+06  5.272810E+03  3.380374E+04 -1.575168E-08  2.454221E+04  3.028315E-11
        24  25  1.758247E+06 -2.324844E+02  1.477623E+04 -9.494724E+02  4.197845E+03 -6.402613E-03
        24  26  1.756980E+06  1.142079E+02  2.038395E+04  4.257675E+02  1.437005E+04  9.828341E-03
        24  27  1.758236E+06  5.272816E+03  3.380374E+04  1.800980E+03  2.454221E+04  7.100217E-02
        25   1  1.764702E+06 -3.636490E+03  4.253429E+04  1.603708E+04 -3.039206E+04 -7.829430E-01
        25   2  1.748871E+06  1.220917E+04  7.352221E+04 -2.886641E+04 -6.890579E+04  3.195253E+00
        25   3  1.764590E+06  1.343159E+05  1.561012E+05 -7.377237E+04 -1.074199E+05  1.273007E+01
        25   4  1.764702E+06 -3.636972E+03  4.253422E+04 -3.411455E-09 -3.039206E+04  1.043343E-09
        25   5  1.748870E+06  1.220761E+04  7.352199E+04 -1.426853E-09 -6.890579E+04  1.521066E-09
        25   6  1.764584E+06  1.343057E+05  1.560997E+05 -1.051027E-08 -1.074199E+05  6.444970E-10
        25   7  1.764702E+06 -3.636490E+03  4.253429E+04 -1.603708E+04 -3.039206E+04  7.829430E-01
        25   8  1.748871E+06  1.220917E+04  7.352221E+04  2.886641E+04 -6.890579E+04 -3.195253E+00
        25   9  1.764590E+06  1.343159E+05  1.561012E+05  7.377237E+04 -1.074199E+05 -1.273007E+01
        25  10  1.764701E+06 -3.636737E+03  4.253256E+04  1.603708E+04  2.102352E-09  9.354447E-10
        25  11  1.748865E+06  1.220790E+04  7.351332E+04 -2.886641E+04 -8.875193E-10  2.183798E-10
        25  12  1.764578E+06  1.343128E+05  1.560796E+05 -7.377237E+04  1.341708E-09 -2.907762E-11
        25  13  1.764701E+06 -3.637219E+03  4.253249E+04 -3.190256E-09  3.892657E-09  4.456292E-10
        25  14  1.748865E+06  1.220634E+04  7.351309E+04  8.249457E-09 -1.217130E-09  7.657371E-10
        25  15  1.764572E+06  1.343026E+05  1.560781E+05 -7.262279E-09  2.363731E-09  2.888207E-10
        25  16  1.764701E+06 -3.636737E+03  4.253256E+04 -1.603708E+04  2.206504E-09 -3.635523E-11
        25  17  1.748865E+06  1.220790E+04  7.351332E+04  2.886641E+04  3.121330E-09  1.319520E-09
        25  18  1.764578E+06  1.343128E+05  1.560796E+05  7.377237E+04 -1.137886E-09  5.683819E-10
        25  19  1.764702E+06 -3.636490E+03  4.253429E+04  1.603708E+04  3.039206E+04  7.829430E-01
        25  20  1.748871E+06  1.220917E+04  7.352221E+04 -2.886641E+04  6.890579E+04 -3.195253E+00
        25  21  1.764590E+06  1.343159E+05  1.561012E+05 -7.377237E+04  1.074199E+05 -1.273007E+01
        25  22  1.764702E+06 -3.636972E+03  4.253422E+04 -5.124521E-09  3.039206E+04 -1.515440E-10
        25  23  1.748870E+06  1.220761E+04  7.352199E+04  7.140152E-09  6.890579E+04  3.073540E-11
        25  24  1.764584E+06  1.343057E+05  1.560997E+05 -2.416629E-09  1.074199E+05 -5.897807E-11
        25  25  1.764702E+06 -3.636490E+03  4.253429E+04 -1.603708E+04  3.039206E+04 -7.829430E-01
        25  26  1.748871E+06  1.220917E+04  7.352221E+04  2.886641E+04  6.890579E+04  3.195253E+00
        25  27  1.764590E+06  1.343159E+05  1.561012E+05  7.377237E+04  1.074199E+05  1.273007E+01
        26   1 -1.137065E+06 -3.655558E+06 -1.152279E+06  7.119784E+05 -4.381051E+04 -3.632101E+05
        26   2 -7.015771E+05 -2.870135E+06 -7.391343E+05  5.110269E+05 -1.302708E+05 -1.739565E+05
        26   3 -4.872137E+05 -2.163289E+06 -5.048024E+05  5.409766E+05 -1.202209E+05  1.550247E+04
        26   4 -2.556270E+05 -1.096251E+05 -2.976677E+05  5.752082E+05 -4.351948E+04 -2.025546E+05
        26   5 -2.323456E+04 -7.963226E+04 -1.417854E+05  4.595279E+05 -1.301281E+05 -1.281799E+05
        26   6  8.629061E+03 -1.083234E+05 -8.425745E+04  5.748015E+05 -1.203702E+05 -5.384807E+04
        26   7  6.249787E+05  3.447952E+06  5.561538E+05  4.376419E+05 -4.330082E+04 -4.097816E+04
        26   8  6.546103E+05  2.718232E+06  4.551209E+05  4.077875E+05 -1.299935E+05 -8.219878E+04
        26   9  5.042131E+05  1.950676E+06  3.360823E+05  6.087363E+05 -1.205268E+05 -1.234244E+05
        26  10 -1.137103E+06 -3.655701E+06 -1.152532E+06  7.119656E+05  4.812620E-10 -1.300860E-10
        26  11 -7.016035E+05 -2.870172E+06 -7.392232E+05  5.110086E+05 -2.193960E-09  5.925064E-10
        26  12 -4.872293E+05 -2.163293E+06 -5.048301E+05  5.409781E+05  1.344770E-09  1.395436E-09
        26  13 -2.556401E+05 -1.096697E+05 -2.977483E+05  5.752011E+05 -4.737537E-11 -8.421564E-12
        26  14 -2.325714E+04 -7.965443E+04 -1.418481E+05  4.595145E+05 -7.740336E-10 -5.617575E-10
        26  15  8.612733E+03 -1.083303E+05 -8.429010E+04  5.747962E+05  2.013944E-09 -1.945430E-10
        26  16  6.249763E+05  3.447950E+06  5.561471E+05  4.376405E+05 -2.894363E-11  2.005099E-10
        26  17  6.545903E+05  2.718220E+06  4.550766E+05  4.077789E+05 -1.042795E-09 -7.089835E-10
        26  18  5.041934E+05  1.950656E+06  3.360265E+05  6.087244E+05  7.452597E-12 -2.281994E-09
        26  19 -1.137065E+06 -3.655558E+06 -1.152279E+06  7.119784E+05  4.381051E+04  3.632101E+05
        26  20 -7.015771E+05 -2.870135E+06 -7.391343E+05  5.110269E+05  1.302708E+05  1.739565E+05
        26  21 -4.872137E+05 -2.163289E+06 -5.048024E+05  5.409766E+05  1.202209E+05 -1.550247E+04
        26  22 -2.556270E+05 -1.096251E+05 -2.976677E+05  5.752082E+05  4.351948E+04  2.025546E+05
        26  23 -2.323456E+04 -7.963226E+04 -1.417854E+05  4.595279E+05  1.301281E+05  1.281799E+05
        26  24  8.629061E+03 -1.083234E+05 -8.425745E+04  5.748015E+05  1.203702E+05  5.384807E+04
        26  25  6.249787E+05  3.447952E+06  5.561538E+05  4.376419E+05  4.330082E+04  4.097816E+04
        26  26  6.546103E+05  2.718232E+06  4.551209E+05  4.077875E+05  1.299935E+05  8.219878E+04
        26  27  5.042131E+05  1.950676E+06  3.360823E+05  6.087363E+05  1.205268E+05  1.234244E+05
        27   1 -3.733782E+05 -1.613008E+06 -3.797958E+05  5.773099E+05 -8.793992E+04  5.143608E+03
        27   2 -1.836176E+05 -8.635573E+05 -2.030023E+05  4.568038E+05 -4.732191E+04  3.121994E+04
        27   3 -6.011879E+03 -1.210520E+05 -4.656764E+04  5.722751E+05 -4.540277E+03  5.728880E+04
        27   4 -7.610487E+03 -9.644519E+04 -6.896745E+04  5.759924E+05 -8.805951E+04 -4.218633E+04
        27   5  1.785284E+03 -9.275951E+04 -4.723158E+04  4.580004E+05 -4.746617E+04 -1.868212E+04
        27   6 -4.794312E+02 -9.608369E+04 -4.401891E+04  5.759713E+05 -4.711890E+03  4.784375E+03
        27   7  3.580139E+05  1.422311E+06  2.417470E+05  5.746693E+05 -8.817872E+04 -8.962993E+04
        27   8  1.871527E+05  6.786102E+05  1.085179E+05  4.591978E+05 -4.761050E+04 -6.864501E+04
        27   9  5.054527E+03 -7.110881E+04 -4.145980E+04  5.796676E+05 -4.884123E+03 -4.772204E+04
        27  10 -3.733865E+05 -1.613010E+06 -3.798104E+05  5.773102E+05  3.027054E-09 -1.695773E-09
        27  11 -1.836203E+05 -8.635590E+05 -2.030084E+05  4.568050E+05  3.247035E-09 -4.769799E-10
        27  12 -6.012783E+03 -1.210555E+05 -4.657385E+04  5.722754E+05  2.637561E-09  9.799253E-10
        27  13 -7.619286E+03 -9.644917E+04 -6.898535E+04  5.759895E+05  1.497593E-10 -3.426106E-11
        27  14  1.782772E+03 -9.276049E+04 -4.723647E+04  4.579997E+05  4.325464E-10 -1.167809E-09
        27  15 -4.794612E+02 -9.608373E+04 -4.401900E+04  5.759713E+05  1.867967E-09 -1.410812E-10
        27  16  3.580034E+05  1.422300E+06  2.417174E+05  5.746629E+05  3.025310E-09  2.160819E-09
        27  17  1.871490E+05  6.786045E+05  1.085048E+05  4.591952E+05  1.585092E-10  1.560046E-10
        27  18  5.053890E+03 -7.111126E+04 -4.146413E+04  5.796675E+05  1.483901E-09 -2.141062E-09
        27  19 -3.733782E+05 -1.613008E+06 -3.797958E+05  5.773099E+05  8.793992E+04 -5.143608E+03
        27  20 -1.836176E+05 -8.635573E+05 -2.030023E+05  4.568038E+05  4.732191E+04 -3.121994E+04
        27  21 -6.011879E+03 -1.210520E+05 -4.656764E+04  5.722751E+05  4.540277E+03 -5.728880E+04
        27  22 -7.610487E+03 -9.644519E+04 -6.896745E+04  5.759924E+05  8.805951E+04  4.218633E+04
        27  23  1.785284E+03 -9.275951E+04 -4.723158E+04  4.580004E+05  4.746617E+04  1.868212E+04
        27  24 -4.794312E+02 -9.608369E+04 -4.401891E+04  5.759713E+05  4.711890E+03 -4.784375E+03
        27  25  3.580139E+05  1.422311E+06  2.417470E+05  5.746693E+05  8.817872E+04  8.962993E+04
        27  26  1.871527E+05  6.786102E+05  1.085179E+05  4.591978E+05  4.761050E+04  6.864501E+04
        27  27  5.054527E+03 -7.110881E+04 -4.145980E+04  5.796676E+05  4.884123E+03  4.772204E+04
        28   1  1.301147E+05  4.129139E+05  6.143672E+04  5.886979E+05  2.648366E+04  7.674558E+04
        28   2  2.976575E+05  1.167214E+06  2.086658E+05  4.377622E+05  5.178217E+04  4.174858E+04
        28   3  3.934420E+05  1.907961E+06  3.604780E+05  5.200243E+05  1.997342E+04  6.816375E+03
        28   4  5.822429E+03 -1.003644E+05 -4.638965E+04  5.753228E+05  2.627387E+04  1.190408E+04
        28   5 -7.628054E+03 -8.764124E+04 -6.446311E+04  4.588244E+05  5.180199E+04  4.547080E+04
        28   6 -1.047947E+05 -1.009523E+05 -1.255739E+05  5.755946E+05  2.016643E+04  7.914210E+04
        28   7 -1.184839E+05 -6.133845E+05 -1.542149E+05  5.619587E+05  2.606676E+04 -5.288470E+04
        28   8 -3.130162E+05 -1.341021E+06 -3.376861E+05  4.798420E+05  5.182209E+04  4.918555E+04
        28   9 -6.033116E+05 -2.106167E+06 -6.118944E+05  6.309810E+05  2.037277E+04  1.512347E+05
        28  10  1.301124E+05  4.129074E+05  6.142435E+04  5.886962E+05  3.849677E-09 -2.171256E-09
        28  11  2.976542E+05  1.167211E+06  2.086575E+05  4.377604E+05 -7.479472E-10 -1.315194E-09
        28  12  3.934415E+05  1.907961E+06  3.604771E+05  5.200242E+05  1.152391E-10 -6.460594E-10
        28  13  5.821650E+03 -1.003647E+05 -4.639121E+04  5.753226E+05 -3.694207E-10  1.184984E-11
        28  14 -7.631488E+03 -8.764418E+04 -6.447203E+04  4.588225E+05 -3.422884E-10 -1.155469E-09
        28  15 -1.047969E+05 -1.009591E+05 -1.255865E+05  5.755933E+05 -1.797761E-09 -1.181235E-10
        28  16 -1.184854E+05 -6.133877E+05 -1.542214E+05  5.619599E+05  2.409611E-09  2.871701E-09
        28  17 -3.130198E+05 -1.341024E+06 -3.376957E+05  4.798399E+05  2.718893E-09  9.808397E-10
        28  18 -6.033182E+05 -2.106192E+06 -6.119383E+05  6.309785E+05 -6.788186E-10 -2.451792E-10
        28  19  1.301147E+05  4.129139E+05  6.143672E+04  5.886979E+05 -2.648366E+04 -7.674558E+04
        28  20  2.976575E+05  1.167214E+06  2.086658E+05  4.377622E+05 -5.178217E+04 -4.174858E+04
        28  21  3.934420E+05  1.907961E+06  3.604780E+05  5.200243E+05 -1.997342E+04 -6.816375E+03
        28  22  5.822429E+03 -1.003644E+05 -4.638965E+04  5.753228E+05 -2.627387E+04 -1.190408E+04
        28  23 -7.628054E+03 -8.764124E+04 -6.446311E+04  4.588244E+05 -5.180199E+04 -4.547080E+04
        28  24 -1.047947E+05 -1.009523E+05 -1.255739E+05  5.755946E+05 -2.016643E+04 -7.914210E+04
        28  25 -1.184839E+05 -6.133845E+05 -1.542149E+05  5.619587E+05 -2.606676E+04  5.288470E+04
        28  26 -3.130162E+05 -1.341021E+06 -3.376861E+05  4.798420E+05 -5.182209E+04 -4.918555E+04
        28  27 -6.033116E+05 -2.106167E+06 -6.118944E+05  6.309810E+05 -2.037277E+04 -1.512347E+05
        29   1  1.328385E+06  5.619730E+04  6.538903E+04  3.088620E+04  4.447033E+04  2.207871E+00
        29   2  1.321786E+06  5.094029E+03  3.118427E+04  1.211797E+04  2.814765E+04  5.482934E-01
        29   3  1.328421E+06 -1.537453E+03  1.870818E+04 -6.649928E+03  1.182494E+04 -1.264014E-01
        29   4  1.328384E+06  5.619551E+04  6.538878E+04 -5.017824E-09  4.447033E+04 -7.206257E-10
        29   5  1.321786E+06  5.093754E+03  3.118423E+04 -5.276030E-10  2.814765E+04 -1.800729E-09
        29   6  1.328420E+06 -1.537536E+03  1.870817E+04 -8.164030E-09  1.182494E+04 -1.026508E-09
        29   7  1.328385E+06  5.619730E+04  6.538903E+04 -3.088620E+04  4.447033E+04 -2.207871E+00
        29   8  1.321786E+06  5.094029E+03  3.118427E+04 -1.211797E+04  2.814765E+04 -5.482934E-01
        29   9  1.328421E+06 -1.537453E+03  1.870818E+04  6.649928E+03  1.182494E+04  1.264014E-01
        29  10  1.328382E+06  5.619677E+04  6.538532E+04  3.088620E+04  1.676751E-09 -1.703477E-10
        29  11  1.321785E+06  5.093817E+03  3.118279E+04  1.211797E+04 -2.908119E-09 -6.335369E-10
        29  12  1.328420E+06 -1.537490E+03  1.870792E+04 -6.649928E+03  3.715771E-10 -5.909454E-10
        29  13  1.328381E+06  5.619498E+04  6.538507E+04 -1.259213E-09  5.252262E-28 -5.181830E-10
        29  14  1.321785E+06  5.093542E+03  3.118275E+04  5.903974E-09  3.597879E-09 -1.369110E-09
        29  15  1.328420E+06 -1.537573E+03  1.870791E+04 -3.104375E-09  1.797575E-09 -7.145818E-10
        29  16  1.328382E+06  5.619677E+04  6.538532E+04 -3.088620E+04 -6.539016E-10 -8.160852E-10
        29  17  1.321785E+06  5.093817E+03  3.118279E+04 -1.211797E+04  2.104434E-09 -2.127374E-09
        29  18  1.328420E+06 -1.537490E+03  1.870792E+04  6.649928E+03  1.834974E-09 -8.209608E-10
        29  19  1.328385E+06  5.619730E+04  6.538903E+04  3.088620E+04 -4.447033E+04 -2.207871E+00
        29  20  1.321786E+06  5.094029E+03  3.118427E+04  1.211797E+04 -2.814765E+04 -5.482934E-01
        29  21  1.328421E+06 -1.537453E+03  1.870818E+04 -6.649928E+03 -1.182494E+04  1.264014E-01
        29  22  1.328384E+06  5.619551E+04  6.538878E+04  3.779353E-10 -4.447033E+04 -3.153755E-10
        29  23  1.321786E+06  5.093754E+03  3.118423E+04  1.018467E-08 -2.814765E+04 -8.889526E-10
        29  24  1.328420E+06 -1.537536E+03  1.870817E+04 -1.395108E-08 -1.182494E+04 -4.113262E-10
        29  25  1.328385E+06  5.619730E+04  6.538903E+04 -3.088620E+04 -4.447033E+04  2.207871E+00
        29  26  1.321786E+06  5.094029E+03  3.118427E+04 -1.211797E+04 -2.814765E+04  5.482934E-01
        29  27  1.328421E+06 -1.537453E+03  1.870818E+04  6.649928E+03 -1.182494E+04 -1.264014E-01
        30   1  1.325748E+06  2.184618E+03  1.539368E+04  8.374085E+02  9.182840E+03  1.236095E-02
        30   2  1.325135E+06  4.630490E+00  1.077991E+04  2.986440E+02  3.812670E+03  1.830294E-03
        30   3  1.325751E+06 -4.920655E+01  1.018837E+04 -2.401130E+02 -1.557407E+03  6.011115E-04
        30   4  1.325748E+06  2.184617E+03  1.539368E+04  2.912180E-09  9.182840E+03 -1.976190E-10
        30   5  1.325135E+06  4.630323E+00  1.077991E+04  1.566947E-08  3.812670E+03  2.292098E-10
        30   6  1.325751E+06 -4.920665E+01  1.018837E+04  7.151580E-09 -1.557407E+03  2.342944E-10
        30   7  1.325748E+06  2.184618E+03  1.539368E+04 -8.374085E+02  9.182840E+03 -1.236095E-02
        30   8  1.325135E+06  4.630490E+00  1.077991E+04 -2.986440E+02  3.812670E+03 -1.830293E-03
        30   9  1.325751E+06 -4.920655E+01  1.018837E+04  2.401130E+02 -1.557407E+03 -6.011112E-04
        30  10  1.325748E+06  2.184596E+03  1.539352E+04  8.374085E+02  1.184112E-09 -5.127705E-10
        30  11  1.325135E+06  4.626598E+00  1.077988E+04  2.986440E+02  3.346236E-09 -5.279947E-10
        30  12  1.325751E+06 -4.920719E+01  1.018837E+04 -2.401130E+02  2.560210E-09 -6.279906E-10
        30  13  1.325748E+06  2.184595E+03  1.539352E+04  1.178311E-08 -3.369154E-11  3.202246E-12
        30  14  1.325135E+06  4.626430E+00  1.077988E+04  1.458982E-08  6.448501E-09  4.080307E-10
        30  15  1.325751E+06 -4.920730E+01  1.018837E+04  1.417232E-08 -1.224753E-09 -3.936321E-11
        30  16  1.325748E+06  2.184596E+03  1.539352E+04 -8.374085E+02  4.522612E-12  4.670567E-10
        30  17  1.325135E+06  4.626598E+00  1.077988E+04 -2.986440E+02 -1.310617E-09  1.278149E-09
        30  18  1.325751E+06 -4.920719E+01  1.018837E+04  2.401130E+02 -1.174703E-09  4.922514E-10
        30  19  1.325748E+06  2.184618E+03  1.539368E+04  8.374085E+02 -9.182840E+03 -1.236096E-02
        30  20  1.325135E+06  4.630490E+00  1.077991E+04  2.986440E+02 -3.812670E+03 -1.830295E-03
        30  21  1.325751E+06 -4.920655E+01  1.018837E+04 -2.401130E+02  1.557407E+03 -6.011130E-04
        30  22  1.325748E+06  2.184617E+03  1.539368E+04 -9.506662E-09 -9.182840E+03  1.887634E-10
        30  23  1.325135E+06  4.630323E+00  1.077991E+04  4.881393E-09 -3.812670E+03  5.024426E-10
        30  24  1.325751E+06 -4.920665E+01  1.018837E+04  8.744446E-09  1.557407E+03 -3.303653E-10
        30  25  1.325748E+06  2.184618E+03  1.539368E+04 -8.374085E+02 -9.182840E+03  1.236096E-02
        30  26  1.325135E+06  4.630490E+00  1.077991E+04 -2.986440E+02 -3.812670E+03  1.830296E-03
        30  27  1.325751E+06 -4.920655E+01  1.018837E+04  2.401130E+02  1.557407E+03  6.011124E-04
        31   1  1.325904E+06 -1.811573E+02  1.103718E+04  7.371311E+02 -3.433162E+03 -4.067958E-03
        31   2  1.324941E+06  9.020018E+01  1.544687E+04 -3.178798E+02 -1.114096E+04  5.692772E-03
        31   3  1.325898E+06  4.038317E+03  2.578614E+04 -1.372902E+03 -1.884893E+04  4.159722E-02
        31   4  1.325904E+06 -1.811583E+02  1.103718E+04 -5.860927E-09 -3.433162E+03  5.713340E-11
        31   5  1.324941E+06  9.019999E+01  1.544687E+04  2.254050E-09 -1.114096E+04  7.881768E-11
        31   6  1.325898E+06  4.038313E+03  2.578614E+04 -5.566846E-09 -1.884893E+04  8.969656E-10
        31   7  1.325904E+06 -1.811573E+02  1.103718E+04 -7.371311E+02 -3.433162E+03  4.067958E-03
        31   8  1.324941E+06  9.020018E+01  1.544687E+04  3.178798E+02 -1.114096E+04 -5.692772E-03
        31   9  1.325898E+06  4.038317E+03  2.578614E+04  1.372902E+03 -1.884893E+04 -4.159722E-02
        31  10  1.325904E+06 -1.811605E+02  1.103716E+04  7.371311E+02 -6.462124E-10 -1.221812E-10
        31  11  1.324941E+06  9.016694E+01  1.544664E+04 -3.178798E+02 -1.162672E-09  9.253334E-10
        31  12  1.325897E+06  4.038222E+03  2.578548E+04 -1.372902E+03  8.681923E-10  9.687864E-10
        31  13  1.325904E+06 -1.811615E+02  1.103716E+04  1.381913E-08  9.933296E-10 -7.164717E-11
        31  14  1.324941E+06  9.016675E+01  1.544664E+04  4.596542E-09 -2.999956E-10  6.265689E-10
        31  15  1.325897E+06  4.038218E+03  2.578548E+04  7.658987E-10 -1.311726E-09  1.059032E-09
        31  16  1.325904E+06 -1.811605E+02  1.103716E+04 -7.371311E+02  1.954131E-09 -3.684192E-11
        31  17  1.324941E+06  9.016694E+01  1.544664E+04  3.178798E+02  2.359626E-09  2.748690E-10
        31  18  1.325897E+06  4.038222E+03  2.578548E+04  1.372902E+03 -1.500005E-09  1.132357E-09
        31  19  1.325904E+06 -1.811573E+02  1.103718E+04  7.371311E+02  3.433162E+03  4.067957E-03
        31  20  1.324941E+06  9.020018E+01  1.544687E+04 -3.178798E+02  1.114096E+04 -5.692770E-03
        31  21  1.325898E+06  4.038317E+03  2.578614E+04 -1.372902E+03  1.884893E+04 -4.159722E-02
        31  22  1.325904E+06 -1.811583E+02  1.103718E+04  3.327962E-09  3.433162E+03 -1.964488E-10
        31  23  1.324941E+06  9.019999E+01  1.544687E+04  2.637298E-09  1.114096E+04  1.123738E-09
        31  24  1.325898E+06  4.038313E+03  2.578614E+04 -9.586393E-09  1.884893E+04  1.223113E-09
        31  25  1.325904E+06 -1.811573E+02  1.103718E+04 -7.371311E+02  3.433162E+03 -4.067958E-03
        31  26  1.324941E+06  9.020018E+01  1.544687E+04  3.178798E+02  1.114096E+04  5.692773E-03
        31  27  1.325898E+06  4.038317E+03  2.578614E+04  1.372902E+03  1.884893E+04  4.159722E-02
        32   1  1.330848E+06 -2.784910E+03  3.249089E+04  1.227853E+04 -2.331041E+04 -4.600773E-01
        32   2  1.318737E+06  9.339284E+03  5.624277E+04 -2.208307E+04 -5.277102E+04  1.873263E+00
        32   3  1.330784E+06  1.028159E+05  1.194853E+05 -5.644573E+04 -8.223154E+04  7.461219E+00
        32   4  1.330848E+06 -2.785193E+03  3.249085E+04 -1.216396E-08 -2.331041E+04  1.039966E-09
        32   5  1.318736E+06  9.338369E+03  5.624264E+04 -2.312428E-09 -5.277102E+04  2.944629E-10
        32   6  1.330780E+06  1.028100E+05  1.194844E+05 -6.182978E-09 -8.223154E+04  1.905547E-10
        32   7  1.330848E+06 -2.784910E+03  3.249089E+04 -1.227853E+04 -2.331041E+04  4.600773E-01
        32   8  1.318737E+06  9.339284E+03  5.624277E+04  2.208307E+04 -5.277102E+04 -1.873263E+00
        32   9  1.330784E+06  1.028159E+05  1.194853E+05  5.644573E+04 -8.223154E+04 -7.461219E+00
        32  10  1.330847E+06 -2.785055E+03  3.248987E+04  1.227853E+04 -1.046744E-09  6.076304E-10
        32  11  1.318734E+06  9.338538E+03  5.623755E+04 -2.208307E+04 -2.171120E-09  1.992974E-10
        32  12  1.330776E+06  1.028141E+05  1.194726E+05 -5.644573E+04  3.793758E-10  2.941583E-11
        32  13  1.330847E+06 -2.785338E+03  3.248983E+04  3.706012E-10 -1.465078E-09  7.817176E-10
        32  14  1.318733E+06  9.337623E+03  5.623742E+04  2.925730E-09  7.578151E-10 -1.871225E-11
        32  15  1.330773E+06  1.028081E+05  1.194717E+05 -9.970390E-10  3.216143E-09 -1.097228E-10
        32  16  1.330847E+06 -2.785055E+03  3.248987E+04 -1.227853E+04  7.859391E-10  9.473684E-10
        32  17  1.318734E+06  9.338538E+03  5.623755E+04  2.208307E+04  1.968778E-09 -2.726795E-10
        32  18  1.330776E+06  1.028141E+05  1.194726E+05  5.644573E+04  2.866161E-09 -1.976669E-10
        32  19  1.330848E+06 -2.784910E+03  3.249089E+04  1.227853E+04  2.331041E+04  4.600773E-01
        32  20  1.318737E+06  9.339284E+03  5.624277E+04 -2.208307E+04  5.277102E+04 -1.873263E+00
        32  21  1.330784E+06  1.028159E+05  1.194853E+05 -5.644573E+04  8.223154E+04 -7.461219E+00
        32  22  1.330848E+06 -2.785193E+03  3.249085E+04 -8.611842E-09  2.331041E+04  5.279281E-10
        32  23  1.318736E+06  9.338369E+03  5.624264E+04  6.004589E-09  5.277102E+04 -3.605817E-10
        32  24  1.330780E+06  1.028100E+05  1.194844E+05  1.584324E-10  8.223154E+04 -4.205450E-10
        32  25  1.330848E+06 -2.784910E+03  3.249089E+04 -1.227853E+04  2.331041E+04 -4.600773E-01
        32  26  1.318737E+06  9.339284E+03  5.624277E+04  2.208307E+04  5.277102E+04  1.873263E+00
        32  27  1.330784E+06  1.028159E+05  1.194853E+05  5.644573E+04  8.223154E+04  7.461219E+00
        33   1 -9.314347E+05 -3.033103E+06 -9.404340E+05  5.776374E+05 -3.678404E+04 -2.874342E+05
        33   2 -5.889184E+05 -2.386911E+06 -6.099303E+05  4.181223E+05 -1.098691E+05 -1.350301E+05
        33   3 -4.144025E+05 -1.801596E+06 -4.208478E+05  4.490728E+05 -1.021341E+05  1.750953E+04
        33   4 -1.921649E+05 -5.807246E+04 -2.238076E+05  4.745840E+05 -3.658924E+04 -1.519120E+05
        33   5 -1.748333E+04 -3.552100E+04 -1.068933E+05  3.792092E+05 -1.097694E+05 -9.586051E+04
        33   6  6.347309E+03 -5.717111E+04 -6.404016E+04  4.743282E+05 -1.022363E+05 -3.983848E+04
        33   7  5.465096E+05  2.925144E+06  4.922625E+05  3.710282E+05 -3.644031E+04 -1.573908E+04
        33   8  5.535971E+05  2.321092E+06  3.958297E+05  3.401427E+05 -1.096750E+05 -5.654381E+04
        33   9  4.269100E+05  1.690159E+06  2.926190E+05  4.996536E+05 -1.023429E+05 -9.734492E+04
        33  10 -9.314584E+05 -3.033192E+06 -9.405925E+05  5.776288E+05 -1.272041E-09 -3.017361E-09
        33  11 -5.889363E+05 -2.386934E+06 -6.099874E+05  4.181104E+05 -2.330205E-09  1.401598E-10
        33  12 -4.144137E+05 -1.801599E+06 -4.208680E+05  4.490742E+05  1.745899E-10  3.659824E-09
        33  13 -1.921725E+05 -5.809760E+04 -2.238535E+05  4.745795E+05 -8.166689E-10 -2.422767E-10
        33  14 -1.749872E+04 -3.553409E+04 -1.069332E+05  3.792007E+05 -2.826081E-09  9.837809E-10
        33  15  6.335664E+03 -5.717561E+04 -6.406277E+04  4.743249E+05  1.635773E-09 -8.624053E-10
        33  16  5.465081E+05  2.925144E+06  4.922596E+05  3.710277E+05 -2.369729E-09  3.006560E-09
        33  17  5.535834E+05  2.321086E+06  3.958011E+05  3.401377E+05  5.792517E-11  3.802561E-10
        33  18  4.268963E+05  1.690146E+06  2.925816E+05  4.996456E+05  1.044210E-09 -3.811581E-09
        33  19 -9.314347E+05 -3.033103E+06 -9.404340E+05  5.776374E+05  3.678404E+04  2.874342E+05
        33  20 -5.889184E+05 -2.386911E+06 -6.099303E+05  4.181223E+05  1.098691E+05  1.350301E+05
        33  21 -4.144025E+05 -1.801596E+06 -4.208478E+05  4.490728E+05  1.021341E+05 -1.750953E+04
        33  22 -1.921649E+05 -5.807246E+04 -2.238076E+05  4.745840E+05  3.658924E+04  1.519120E+05
        33  23 -1.748333E+04 -3.552100E+04 -1.068933E+05  3.792092E+05  1.097694E+05  9.586051E+04
        33  24  6.347309E+03 -5.717111E+04 -6.404016E+04  4.743282E+05  1.022363E+05  3.983848E+04
        33  25  5.465096E+05  2.925144E+06  4.922625E+05  3.710282E+05  3.644031E+04  1.573908E+04
        33  26  5.535971E+05  2.321092E+06  3.958297E+05  3.401427E+05  1.096750E+05  5.654381E+04
        33  27  4.269100E+05  1.690159E+06  2.926190E+05  4.996536E+05  1.023429E+05  9.734492E+04
        34   1 -3.193228E+05 -1.348328E+06 -3.191164E+05  4.764962E+05 -7.546405E+04  7.961609E+03
        34   2 -1.634766E+05 -7.300863E+05 -1.755615E+05  3.770412E+05 -4.203776E+04  2.877864E+04
        34   3 -1.732792E+04 -1.173362E+05 -4.821741E+04  4.722686E+05 -6.689774E+03  4.958779E+04
        34   4 -5.844467E+03 -4.827969E+04 -5.279415E+04  4.753055E+05 -7.554552E+04 -3.091741E+04
        34   5  1.190026E+03 -4.542557E+04 -3.721243E+04  3.779637E+05 -4.213742E+04 -1.239046E+04
        34   6 -1.043349E+03 -4.801498E+04 -3.621921E+04  4.752935E+05 -6.809591E+03  6.108711E+03
        34   7  3.075285E+05  1.253380E+06  2.134440E+05  4.741108E+05 -7.562674E+04 -6.987646E+04
        34   8  1.658285E+05  6.396857E+05  1.011188E+05  3.788868E+05 -4.223712E+04 -5.360412E+04
        34   9  1.524201E+04  2.131508E+04 -2.421407E+04  4.783188E+05 -6.929823E+03 -3.737508E+04
        34  10 -3.193289E+05 -1.348330E+06 -3.191273E+05  4.764967E+05  1.382423E-09 -2.102304E-10
        34  11 -1.634787E+05 -7.300877E+05 -1.755663E+05  3.770422E+05  2.333399E-09  6.090855E-10
        34  12 -1.732863E+04 -1.173389E+05 -4.822212E+04  4.722689E+05  2.420099E-09  1.294121E-09
        34  13 -5.850850E+03 -4.828225E+04 -5.280666E+04  4.753037E+05  1.229804E-09 -1.766401E-09
        34  14  1.188078E+03 -4.542621E+04 -3.721606E+04  3.779633E+05 -3.162680E-09  2.021796E-09
        34  15 -1.043409E+03 -4.801503E+04 -3.621937E+04  4.752936E+05  1.830603E-10 -1.182808E-09
        34  16  3.075211E+05  1.253373E+06  2.134241E+05  4.741066E+05  1.374318E-09  2.426434E-10
        34  17  1.658258E+05  6.396821E+05  1.011100E+05  3.788850E+05 -1.631054E-09  4.915159E-10
        34  18  1.524158E+04  2.131356E+04 -2.421679E+04  4.783186E+05  2.370479E-10 -1.504795E-09
        34  19 -3.193228E+05 -1.348328E+06 -3.191164E+05  4.764962E+05  7.546405E+04 -7.961609E+03
        34  20 -1.634766E+05 -7.300863E+05 -1.755615E+05  3.770412E+05  4.203776E+04 -2.877864E+04
        34  21 -1.732792E+04 -1.173362E+05 -4.821741E+04  4.722686E+05  6.689774E+03 -4.958779E+04
        34  22 -5.844467E+03 -4.827969E+04 -5.279415E+04  4.753055E+05  7.554552E+04  3.091741E+04
        34  23  1.190026E+03 -4.542557E+04 -3.721243E+04  3.779637E+05  4.213742E+04  1.239046E+04
        34  24 -1.043349E+03 -4.801498E+04 -3.621921E+04  4.752935E+05  6.809591E+03 -6.108711E+03
        34  25  3.075285E+05  1.253380E+06  2.134440E+05  4.741108E+05  7.562674E+04  6.987646E+04
        34  26  1.658285E+05  6.396857E+05  1.011188E+05  3.788868E+05  4.223712E+04  5.360412E+04
        34  27  1.524201E+04  2.131508E+04 -2.421407E+04  4.783188E+05  6.929823E+03  3.737508E+04
        35   1  9.538051E+04  3.228045E+05  4.019313E+04  4.862405E+05  1.885455E+04  6.535773E+04
        35   2  2.331286E+05  9.457780E+05  1.595921E+05  3.598101E+05  4.024761E+04  3.920590E+04
        35   3  3.071612E+05  1.556055E+06  2.798994E+05  4.258498E+05  1.575618E+04  1.310297E+04
        35   4  4.574745E+03 -5.186691E+04 -3.888913E+04  4.747771E+05  1.870817E+04  1.201251E+04
        35   5 -6.976823E+03 -4.072980E+04 -5.551722E+04  3.786192E+05  4.025779E+04  4.094147E+04
        35   6 -9.184558E+04 -5.224716E+04 -1.094944E+05  4.749804E+05  1.588718E+04  6.994348E+04
        35   7 -8.623809E+04 -4.263995E+05 -1.179686E+05  4.633206E+05  1.856370E+04 -4.130103E+04
        35   8 -2.471455E+05 -1.026326E+06 -2.706849E+05  3.973973E+05  4.026810E+04  4.267428E+04
        35   9 -4.910305E+05 -1.658178E+06 -4.990608E+05  5.239815E+05  1.602737E+04  1.266373E+05
        35  10  9.537898E+04  3.227998E+05  4.018444E+04  4.862395E+05  1.252516E-09 -3.941607E-09
        35  11  2.331265E+05  9.457759E+05  1.595862E+05  3.598089E+05  5.689263E-10 -4.159261E-10
        35  12  3.071609E+05  1.556055E+06  2.798986E+05  4.258496E+05  1.288463E-11  2.367259E-09
        35  13  4.574331E+03 -5.186716E+04 -3.889006E+04  4.747769E+05 -8.226102E-10 -2.079148E-09
        35  14 -6.979011E+03 -4.073203E+04 -5.552341E+04  3.786179E+05 -1.951165E-09  1.946894E-09
        35  15 -9.184716E+04 -5.225248E+04 -1.095041E+05  4.749795E+05  1.037646E-09 -8.842408E-10
        35  16 -8.623892E+04 -4.264015E+05 -1.179724E+05  4.633212E+05  1.947242E-09  4.004378E-09
        35  17 -2.471477E+05 -1.026328E+06 -2.706913E+05  3.973959E+05 -1.346318E-09  1.471518E-09
        35  18 -4.910351E+05 -1.658195E+06 -4.990915E+05  5.239798E+05 -1.331957E-09 -2.567617E-09
        35  19  9.538051E+04  3.228045E+05  4.019313E+04  4.862405E+05 -1.885455E+04 -6.535773E+04
        35  20  2.331286E+05  9.457780E+05  1.595921E+05  3.598101E+05 -4.024761E+04 -3.920590E+04
        35  21  3.071612E+05  1.556055E+06  2.798994E+05  4.258498E+05 -1.575618E+04 -1.310297E+04
        35  22  4.574745E+03 -5.186691E+04 -3.888913E+04  4.747771E+05 -1.870817E+04 -1.201251E+04
        35  23 -6.976823E+03 -4.072980E+04 -5.551722E+04  3.786192E+05 -4.025779E+04 -4.094147E+04
        35  24 -9.184558E+04 -5.224716E+04 -1.094944E+05  4.749804E+05 -1.588718E+04 -6.994348E+04
        35  25 -8.623809E+04 -4.263995E+05 -1.179686E+05  4.633206E+05 -1.856370E+04  4.130103E+04
        35  26 -2.471455E+05 -1.026326E+06 -2.706849E+05  3.973973E+05 -4.026810E+04 -4.267428E+04
        35  27 -4.910305E+05 -1.658178E+06 -4.990608E+05  5.239815E+05 -1.602737E+04 -1.266373E+05
        36   1  9.474662E+05  3.413954E+04  3.974267E+04  1.876434E+04  2.689440E+04  8.116853E-01
        36   2  9.434498E+05  3.090221E+03  1.904753E+04  7.369743E+03  1.692841E+04  2.006606E-01
        36   3  9.474818E+05 -9.381490E+02  1.158867E+04 -4.024567E+03  6.962560E+03 -4.506908E-02
        36   4  9.474658E+05  3.413888E+04  3.974258E+04 -9.251749E-09  2.689440E+04  2.301746E-11
        36   5  9.434497E+05  3.090119E+03  1.904751E+04  1.178827E-09  1.692841E+04 -5.043269E-11
        36   6  9.474818E+05 -9.381794E+02  1.158867E+04 -1.290742E-08  6.962560E+03 -6.480215E-10
        36   7  9.474662E+05  3.413954E+04  3.974267E+04 -1.876434E+04  2.689440E+04 -8.116853E-01
        36   8  9.434498E+05  3.090221E+03  1.904753E+04 -7.369743E+03  1.692841E+04 -2.006606E-01
        36   9  9.474818E+05 -9.381490E+02  1.158867E+04  4.024567E+03  6.962560E+03  4.506908E-02
        36  10  9.474654E+05  3.413935E+04  3.974132E+04  1.876434E+04 -2.369948E-10  4.042779E-12
        36  11  9.434495E+05  3.090144E+03  1.904699E+04  7.369743E+03 -2.240226E-09 -9.913895E-11
        36  12  9.474818E+05 -9.381620E+02  1.158858E+04 -4.024567E+03 -1.938495E-09 -5.569032E-10
        36  13  9.474650E+05  3.413869E+04  3.974122E+04 -7.283525E-10  2.909755E-09 -8.250353E-11
        36  14  9.434494E+05  3.090042E+03  1.904697E+04  3.167284E-09 -1.425113E-09 -4.951833E-10
        36  15  9.474817E+05 -9.381924E+02  1.158858E+04 -4.829298E-10  1.470148E-10 -1.069764E-09
        36  16  9.474654E+05  3.413935E+04  3.974132E+04 -1.876434E+04  2.943140E-09 -2.024188E-10
        36  17  9.434495E+05  3.090144E+03  1.904699E+04 -7.369743E+03  7.238354E-10 -8.689202E-10
        36  18  9.474818E+05 -9.381620E+02  1.158858E+04  4.024567E+03  1.102624E-09 -1.578204E-09
        36  19  9.474662E+05  3.413954E+04  3.974267E+04  1.876434E+04 -2.689440E+04 -8.116853E-01
        36  20  9.434498E+05  3.090221E+03  1.904753E+04  7.369743E+03 -1.692841E+04 -2.006606E-01
        36  21  9.474818E+05 -9.381490E+02  1.158867E+04 -4.024567E+03 -6.962560E+03  4.506908E-02
        36  22  9.474658E+05  3.413888E+04  3.974258E+04 -7.289565E-09 -2.689440E+04 -1.847775E-10
        36  23  9.434497E+05  3.090119E+03  1.904751E+04  8.383675E-09 -1.692841E+04 -9.274113E-10
        36  24  9.474818E+05 -9.381794E+02  1.158867E+04  3.864383E-09 -6.962560E+03 -1.487847E-09
        36  25  9.474662E+05  3.413954E+04  3.974267E+04 -1.876434E+04 -2.689440E+04  8.116853E-01
        36  26  9.434498E+05  3.090221E+03  1.904753E+04 -7.369743E+03 -1.692841E+04  2.006606E-01
        36  27  9.474818E+05 -9.381490E+02  1.158867E+04  4.024567E+03 -6.962560E+03 -4.506908E-02
        37   1  9.458666E+05  1.321892E+03  9.658478E+03  5.292957E+02  5.309908E+03  4.520402E-03
        37   2  9.454723E+05 -7.848064E+00  7.102263E+03  2.110484E+02  1.774003E+03  6.021823E-04
        37   3  9.458675E+05 -1.798660E+01  7.175425E+03 -1.072038E+02 -1.761951E+03  3.038042E-04
        37   4  9.458666E+05  1.321891E+03  9.658478E+03 -4.755680E-09  5.309908E+03 -5.405240E-10
        37   5  9.454723E+05 -7.848147E+00  7.102263E+03  2.448595E-09  1.774003E+03 -5.847361E-11
        37   6  9.458675E+05 -1.798663E+01  7.175425E+03 -1.938452E-09 -1.761951E+03 -7.826401E-10
        37   7  9.458666E+05  1.321892E+03  9.658478E+03 -5.292957E+02  5.309908E+03 -4.520403E-03
        37   8  9.454723E+05 -7.848064E+00  7.102263E+03 -2.110484E+02  1.774003E+03 -6.021823E-04
        37   9  9.458675E+05 -1.798660E+01  7.175425E+03  1.072038E+02 -1.761951E+03 -3.038058E-04
        37  10  9.458666E+05  1.321884E+03  9.658425E+03  5.292957E+02 -2.988600E-09 -8.895842E-10
        37  11  9.454723E+05 -7.848907E+00  7.102257E+03  2.110484E+02 -3.063920E-10 -9.363735E-10
        37  12  9.458675E+05 -1.798744E+01  7.175419E+03 -1.072038E+02  4.680707E-10 -5.590256E-10
        37  13  9.458666E+05  1.321884E+03  9.658425E+03  4.047564E-09  1.435339E-09 -1.103325E-09
        37  14  9.454723E+05 -7.848991E+00  7.102257E+03 -4.943612E-09  1.597473E-09 -6.445403E-10
        37  15  9.458675E+05 -1.798746E+01  7.175419E+03 -6.397334E-09 -7.928653E-10 -2.405814E-10
        37  16  9.458666E+05  1.321884E+03  9.658425E+03 -5.292957E+02  2.006681E-09 -1.323491E-09
        37  17  9.454723E+05 -7.848907E+00  7.102257E+03 -2.110484E+02  1.980722E-09 -3.421669E-10
        37  18  9.458675E+05 -1.798744E+01  7.175419E+03  1.072038E+02  1.490304E-09  6.871235E-11
        37  19  9.458666E+05  1.321892E+03  9.658478E+03  5.292957E+02 -5.309908E+03 -4.520403E-03
        37  20  9.454723E+05 -7.848064E+00  7.102263E+03  2.110484E+02 -1.774003E+03 -6.021843E-04
        37  21  9.458675E+05 -1.798660E+01  7.175425E+03 -1.072038E+02  1.761951E+03 -3.038053E-04
        37  22  9.458666E+05  1.321891E+03  9.658478E+03 -9.039132E-11 -5.309908E+03 -1.688130E-09
        37  23  9.454723E+05 -7.848147E+00  7.102263E+03  2.751726E-09 -1.774003E+03 -1.224459E-09
        37  24  9.458675E+05 -1.798663E+01  7.175425E+03 -8.157500E-09  1.761951E+03  3.184439E-10
        37  25  9.458666E+05  1.321892E+03  9.658478E+03 -5.292957E+02 -5.309908E+03  4.520400E-03
        37  26  9.454723E+05 -7.848064E+00  7.102263E+03 -2.110484E+02 -1.774003E+03  6.021818E-04
        37  27  9.458675E+05 -1.798660E+01  7.175425E+03  1.072038E+02  1.761951E+03  3.038060E-04
        38   1  9.460175E+05 -1.467471E+02  8.003166E+03  5.917985E+02 -3.102775E+03 -2.953356E-03
        38   2  9.452836E+05  7.553773E+01  1.165375E+04 -2.299388E+02 -8.918376E+03  3.298300E-03
        38   3  9.460137E+05  3.130345E+03  1.979455E+04 -1.051673E+03 -1.473401E+04  2.492263E-02
        38   4  9.460175E+05 -1.467477E+02  8.003166E+03 -5.698860E-09 -3.102775E+03 -1.090183E-09
        38   5  9.452836E+05  7.553763E+01  1.165375E+04  8.406888E-09 -8.918376E+03 -2.744272E-10
        38   6  9.460137E+05  3.130343E+03  1.979455E+04  4.200340E-10 -1.473401E+04  1.287106E-09
        38   7  9.460175E+05 -1.467471E+02  8.003166E+03 -5.917985E+02 -3.102775E+03  2.953354E-03
        38   8  9.452836E+05  7.553773E+01  1.165375E+04  2.299388E+02 -8.918376E+03 -3.298300E-03
        38   9  9.460137E+05  3.130345E+03  1.979455E+04  1.051673E+03 -1.473401E+04 -2.492263E-02
        38  10  9.460174E+05 -1.467497E+02  8.003148E+03  5.917985E+02  2.570537E-09 -4.632870E-10
        38  11  9.452835E+05  7.551642E+01  1.165360E+04 -2.299388E+02  1.850518E-09 -3.302204E-10
        38  12  9.460135E+05  3.130287E+03  1.979414E+04 -1.051673E+03  2.177757E-09  8.910702E-10
        38  13  9.460174E+05 -1.467503E+02  8.003148E+03  2.654945E-09  1.052130E-09 -4.073538E-10
        38  14  9.452835E+05  7.551632E+01  1.165360E+04  2.144698E-09  7.174707E-10 -4.603423E-10
        38  15  9.460135E+05  3.130285E+03  1.979414E+04 -3.226372E-09  4.950873E-10  8.236110E-10
        38  16  9.460174E+05 -1.467497E+02  8.003148E+03 -5.917985E+02 -7.504909E-11 -3.200381E-10
        38  17  9.452835E+05  7.551642E+01  1.165360E+04  2.299388E+02 -2.658563E-09 -5.912215E-10
        38  18  9.460135E+05  3.130287E+03  1.979414E+04  1.051673E+03  1.077762E-10  7.393726E-10
        38  19  9.460175E+05 -1.467471E+02  8.003166E+03  5.917985E+02  3.102775E+03  2.953355E-03
        38  20  9.452836E+05  7.553773E+01  1.165375E+04 -2.299388E+02  8.918376E+03 -3.298300E-03
        38  21  9.460137E+05  3.130345E+03  1.979455E+04 -1.051673E+03  1.473401E+04 -2.492263E-02
        38  22  9.460175E+05 -1.467477E+02  8.003166E+03 -1.052833E-08  3.102775E+03  2.804138E-10
        38  23  9.452836E+05  7.553763E+01  1.165375E+04  1.962311E-10  8.918376E+03 -6.634223E-10
        38  24  9.460137E+05  3.130343E+03  1.979455E+04 -1.762763E-08  1.473401E+04  3.333763E-10
        38  25  9.460175E+05 -1.467471E+02  8.003166E+03 -5.917985E+02  3.102775E+03 -2.953354E-03
        38  26  9.452836E+05  7.553773E+01  1.165375E+04  2.299388E+02  8.918376E+03  3.298299E-03
        38  27  9.460137E+05  3.130345E+03  1.979455E+04  1.051673E+03  1.473401E+04  2.492263E-02
        39   1  9.498504E+05 -2.155934E+03  2.503126E+04  9.514592E+03 -1.816027E+04 -2.779086E-01
        39   2  9.404789E+05  7.228462E+03  4.348808E+04 -1.708659E+04 -4.093957E+04  1.125110E+00
        39   3  9.498150E+05  7.961436E+04  9.251055E+04 -4.368801E+04 -6.371848E+04  4.477353E+00
        39   4  9.498503E+05 -2.156103E+03  2.503123E+04 -7.157911E-08 -1.816027E+04  1.223395E-09
        39   5  9.404786E+05  7.227914E+03  4.348801E+04 -9.876297E-09 -4.093957E+04 -1.823867E-10
        39   6  9.498129E+05  7.961078E+04  9.251004E+04  6.124925E-08 -6.371848E+04 -2.017075E-10
        39   7  9.498504E+05 -2.155934E+03  2.503126E+04 -9.514592E+03 -1.816027E+04  2.779086E-01
        39   8  9.404789E+05  7.228462E+03  4.348808E+04  1.708659E+04 -4.093957E+04 -1.125110E+00
        39   9  9.498150E+05  7.961436E+04  9.251055E+04  4.368801E+04 -6.371848E+04 -4.477353E+00
        39  10  9.498501E+05 -2.156022E+03  2.503064E+04  9.514592E+03  2.517328E-08  1.173458E-09
        39  11  9.404771E+05  7.228013E+03  4.348494E+04 -1.708659E+04 -1.896760E-09  4.388530E-10
        39  12  9.498106E+05  7.961328E+04  9.250293E+04 -4.368801E+04 -2.279278E-08  2.204281E-11
        39  13  9.498500E+05 -2.156192E+03  2.503061E+04 -3.006012E-09 -6.218051E-10  9.860098E-10
        39  14  9.404768E+05  7.227465E+03  4.348486E+04 -3.704848E-10  1.077416E-09 -3.241047E-11
        39  15  9.498086E+05  7.960969E+04  9.250242E+04  3.359303E-09 -2.270598E-10 -1.332899E-10
        39  16  9.498501E+05 -2.156022E+03  2.503064E+04 -9.514592E+03 -2.588007E-08  7.880956E-10
        39  17  9.404771E+05  7.228013E+03  4.348494E+04  1.708659E+04  1.375270E-09 -4.850553E-10
        39  18  9.498106E+05  7.961328E+04  9.250293E+04  4.368801E+04  2.291421E-08 -2.892204E-10
        39  19  9.498504E+05 -2.155934E+03  2.503126E+04  9.514592E+03  1.816027E+04  2.779086E-01
        39  20  9.404789E+05  7.228462E+03  4.348808E+04 -1.708659E+04  4.093957E+04 -1.125110E+00
        39  21  9.498150E+05  7.961436E+04  9.251055E+04 -4.368801E+04  6.371848E+04 -4.477353E+00
        39  22  9.498503E+05 -2.156103E+03  2.503123E+04  4.613752E-08  1.816027E+04  7.483553E-10
        39  23  9.404786E+05  7.227914E+03  4.348801E+04 -1.636249E-09  4.093957E+04  1.389257E-10
        39  24  9.498129E+05  7.961078E+04  9.251004E+04 -7.176822E-08  6.371848E+04 -8.128383E-11
        39  25  9.498504E+05 -2.155934E+03  2.503126E+04 -9.514592E+03  1.816027E+04 -2.779086E-01
        39  26  9.404789E+05  7.228462E+03  4.348808E+04  1.708659E+04  4.093957E+04  1.125110E+00
        39  27  9.498150E+05  7.961436E+04  9.251055E+04  4.368801E+04  6.371848E+04  4.477353E+00
        40   1 -7.960409E+05 -2.662554E+06 -7.986369E+05  4.910766E+05 -3.275013E+04 -2.301776E+05
        40   2 -5.226551E+05 -2.098167E+06 -5.261065E+05  3.611167E+05 -9.814750E+04 -1.039682E+05
        40   3 -3.729404E+05 -1.580341E+06 -3.667926E+05  3.984867E+05 -9.172344E+04  2.233778E+04
        40   4 -1.383366E+05 -1.525046E+04 -1.611780E+05  4.169996E+05 -3.260706E+04 -1.090922E+05
        40   5 -1.260409E+04  9.768525E+02 -7.722128E+04  3.332470E+05 -9.807010E+04 -6.860162E+04
        40   6  4.624026E+03 -1.454592E+04 -4.663726E+04  4.168361E+05 -9.180257E+04 -2.813398E+04
        40   7  5.188855E+05  2.638527E+06  4.758395E+05  3.426011E+05 -3.249344E+04  1.250994E+04
        40   8  4.971627E+05  2.104281E+06  3.714138E+05  3.052790E+05 -9.799608E+04 -3.311656E+04
        40   9  3.820372E+05  1.553589E+06  2.733981E+05  4.352309E+05 -9.188456E+04 -7.873088E+04
        40  10 -7.960564E+05 -2.662611E+06 -7.987388E+05  4.910706E+05  1.160333E-10  4.465297E-10
        40  11 -5.226683E+05 -2.098181E+06 -5.261450E+05  3.611085E+05  3.503062E-10  1.264278E-09
        40  12 -3.729496E+05 -1.580344E+06 -3.668094E+05  3.984883E+05 -8.608387E-10 -4.955497E-11
        40  13 -1.383409E+05 -1.526352E+04 -1.612024E+05  4.169968E+05 -9.233445E-10 -8.649827E-12
        40  14 -1.261567E+04  9.692220E+02 -7.724818E+04  3.332416E+05 -1.115214E-11 -1.759923E-11
        40  15  4.614766E+03 -1.454903E+04 -4.665457E+04  4.168340E+05  1.871572E-09  3.078761E-10
        40  16  5.188843E+05  2.638527E+06  4.758372E+05  3.426014E+05 -4.327286E-10 -6.233089E-10
        40  17  4.971521E+05  2.104278E+06  3.713937E+05  3.052764E+05  1.430749E-09  6.261842E-10
        40  18  3.820265E+05  1.553580E+06  2.733707E+05  4.352251E+05  9.294027E-10 -2.135122E-09
        40  19 -7.960409E+05 -2.662554E+06 -7.986369E+05  4.910766E+05  3.275013E+04  2.301776E+05
        40  20 -5.226551E+05 -2.098167E+06 -5.261065E+05  3.611167E+05  9.814750E+04  1.039682E+05
        40  21 -3.729404E+05 -1.580341E+06 -3.667926E+05  3.984867E+05  9.172344E+04 -2.233778E+04
        40  22 -1.383366E+05 -1.525046E+04 -1.611780E+05  4.169996E+05  3.260706E+04  1.090922E+05
        40  23 -1.260409E+04  9.768525E+02 -7.722128E+04  3.332470E+05  9.807010E+04  6.860162E+04
        40  24  4.624026E+03 -1.454592E+04 -4.663726E+04  4.168361E+05  9.180257E+04  2.813398E+04
        40  25  5.188855E+05  2.638527E+06  4.758395E+05  3.426011E+05  3.249344E+04 -1.250994E+04
        40  26  4.971627E+05  2.104281E+06  3.714138E+05  3.052790E+05  9.799608E+04  3.311656E+04
        40  27  3.820372E+05  1.553589E+06  2.733981E+05  4.352309E+05  9.188456E+04  7.873088E+04
        41   1 -2.874446E+05 -1.183435E+06 -2.794150E+05  4.184592E+05 -6.826656E+04  1.243796E+04
        41   2 -1.516516E+05 -6.405097E+05 -1.563150E+05  3.313594E+05 -3.895613E+04  2.856064E+04
        41   3 -2.322780E+04 -1.018055E+05 -4.573239E+04  4.153088E+05 -7.865250E+03  4.467412E+04
        41   4 -4.099735E+03 -8.185716E+03 -3.874024E+04  4.176891E+05 -6.832948E+04 -2.160512E+04
        41   5  9.381780E+02 -6.016303E+03 -2.811263E+04  3.321656E+05 -3.903391E+04 -7.609644E+03
        41   6 -1.000287E+03 -7.970244E+03 -2.850349E+04  4.176822E+05 -7.959542E+03  6.363091E+03
        41   7  2.791590E+05  1.168380E+06  2.018656E+05  4.169164E+05 -6.839223E+04 -5.571154E+04
        41   8  1.535037E+05  6.288637E+05  1.000738E+05  3.329723E+05 -3.911173E+04 -4.381621E+04
        41   9  2.122753E+04  8.587668E+04 -1.126944E+04  4.200560E+05 -8.054118E+03 -3.195357E+04
        41  10 -2.874497E+05 -1.183437E+06 -2.794241E+05  4.184599E+05 -7.143215E-10  2.137671E-10
        41  11 -1.516534E+05 -6.405110E+05 -1.563193E+05  3.313603E+05  7.810872E-10  4.344744E-09
        41  12 -2.322840E+04 -1.018076E+05 -4.573626E+04  4.153091E+05 -2.449504E-10  3.973115E-09
        41  13 -4.104873E+03 -8.187469E+03 -3.874989E+04  4.176879E+05  7.645010E-10 -1.435979E-11
        41  14  9.365265E+02 -6.016774E+03 -2.811561E+04  3.321654E+05 -1.726874E-09 -3.697127E-11
        41  15 -1.000366E+03 -7.970305E+03 -2.850369E+04  4.176823E+05  3.488633E-10  4.254671E-10
        41  16  2.791532E+05  1.168375E+06  2.018510E+05  4.169133E+05  3.057064E-09 -1.841939E-09
        41  17  1.535015E+05  6.288612E+05  1.000674E+05  3.329709E+05  1.913137E-09 -2.758442E-10
        41  18  2.122719E+04  8.587557E+04 -1.127148E+04  4.200558E+05  1.473476E-10 -7.085112E-09
        41  19 -2.874446E+05 -1.183435E+06 -2.794150E+05  4.184592E+05  6.826656E+04 -1.243796E+04
        41  20 -1.516516E+05 -6.405097E+05 -1.563150E+05  3.313594E+05  3.895613E+04 -2.856064E+04
        41  21 -2.322780E+04 -1.018055E+05 -4.573239E+04  4.153088E+05  7.865250E+03 -4.467412E+04
        41  22 -4.099735E+03 -8.185716E+03 -3.874024E+04  4.176891E+05  6.832948E+04  2.160512E+04
        41  23  9.381780E+02 -6.016303E+03 -2.811263E+04  3.321656E+05  3.903391E+04  7.609644E+03
        41  24 -1.000287E+03 -7.970244E+03 -2.850349E+04  4.176822E+05  7.959542E+03 -6.363091E+03
        41  25  2.791590E+05  1.168380E+06  2.018656E+05  4.169164E+05  6.839223E+04  5.571154E+04
        41  26  1.535037E+05  6.288637E+05  1.000738E+05  3.329723E+05  3.911173E+04  4.381621E+04
        41  27  2.122753E+04  8.587668E+04 -1.126944E+04  4.200560E+05  8.054118E+03  3.195357E+04
        42   1  7.556957E+04  2.849905E+05  3.168878E+04  4.267085E+05  1.454360E+04  5.779845E+04
        42   2  1.971912E+05  8.318190E+05  1.366020E+05  3.170786E+05  3.368298E+04  3.411756E+04
        42   3  2.663004E+05  1.368433E+06  2.436499E+05  3.766038E+05  1.334146E+04  1.047484E+04
        42   4  3.722375E+03 -1.123525E+04 -3.111913E+04  4.172424E+05  1.442860E+04  1.102963E+04
        42   5 -5.824867E+03 -2.003733E+03 -4.548265E+04  3.327229E+05  3.368859E+04  3.474188E+04
        42   6 -7.613760E+04 -1.151634E+04 -9.062606E+04  4.173946E+05  1.344160E+04  5.851152E+04
        42   7 -6.812901E+04 -3.073734E+05 -9.392378E+04  4.077808E+05  1.431499E+04 -3.571722E+04
        42   8 -2.088862E+05 -8.351752E+05 -2.276091E+05  3.483454E+05  3.369424E+04  3.536535E+04
        42   9 -4.187073E+05 -1.389719E+06 -4.250295E+05  4.580933E+05  1.354818E+04  1.064418E+05
        42  10  7.556844E+04  2.849869E+05  3.168211E+04  4.267078E+05 -1.387522E-09  4.741660E-08
        42  11  1.971897E+05  8.318175E+05  1.365977E+05  3.170777E+05 -3.366333E-09  4.549101E-09
        42  12  2.663002E+05  1.368432E+06  2.436494E+05  3.766037E+05 -2.503170E-09 -4.223160E-08
        42  13  3.722119E+03 -1.123543E+04 -3.111975E+04  4.172423E+05 -6.124457E-10 -5.760037E-11
        42  14 -5.826409E+03 -2.005332E+03 -4.548704E+04  3.327219E+05  3.138323E-10 -4.958357E-11
        42  15 -7.613871E+04 -1.152006E+04 -9.063283E+04  4.173940E+05 -2.167997E-09  3.516750E-10
        42  16 -6.812957E+04 -3.073749E+05 -9.392656E+04  4.077812E+05  9.670976E-10 -4.937381E-08
        42  17 -2.088878E+05 -8.351769E+05 -2.276136E+05  3.483444E+05 -1.774365E-09 -6.235111E-10
        42  18 -4.187106E+05 -1.389732E+06 -4.250512E+05  4.580921E+05 -1.720174E-09  3.981451E-08
        42  19  7.556957E+04  2.849905E+05  3.168878E+04  4.267085E+05 -1.454360E+04 -5.779845E+04
        42  20  1.971912E+05  8.318190E+05  1.366020E+05  3.170786E+05 -3.368298E+04 -3.411756E+04
        42  21  2.663004E+05  1.368433E+06  2.436499E+05  3.766038E+05 -1.334146E+04 -1.047484E+04
        42  22  3.722375E+03 -1.123525E+04 -3.111913E+04  4.172424E+05 -1.442860E+04 -1.102963E+04
        42  23 -5.824867E+03 -2.003733E+03 -4.548265E+04  3.327229E+05 -3.368859E+04 -3.474188E+04
        42  24 -7.613760E+04 -1.151634E+04 -9.062606E+04  4.173946E+05 -1.344160E+04 -5.851152E+04
        42  25 -6.812901E+04 -3.073734E+05 -9.392378E+04  4.077808E+05 -1.431499E+04  3.571722E+04
        42  26 -2.088862E+05 -8.351752E+05 -2.276091E+05  3.483454E+05 -3.369424E+04 -3.536535E+04
        42  27 -4.187073E+05 -1.389719E+06 -4.250295E+05  4.580933E+05 -1.354818E+04 -1.064418E+05
        43   1  5.931586E+05  1.568961E+04  1.829128E+04  8.631228E+03  1.220152E+04  1.694786E-01
        43   2  5.913060E+05  1.415815E+03  8.896859E+03  3.400926E+03  7.551152E+03  4.132753E-02
        43   3  5.931631E+05 -4.363217E+02  5.633411E+03 -1.829427E+03  2.900716E+03 -8.539806E-03
        43   4  5.931585E+05  1.568947E+04  1.829126E+04 -1.231910E-08  1.220152E+04 -9.631470E-11
        43   5  5.913060E+05  1.415793E+03  8.896856E+03 -1.253464E-09  7.551152E+03 -3.002215E-10
        43   6  5.931631E+05 -4.363280E+02  5.633410E+03  4.175601E-09  2.900716E+03 -4.348909E-10
        43   7  5.931586E+05  1.568961E+04  1.829128E+04 -8.631228E+03  1.220152E+04 -1.694786E-01
        43   8  5.913060E+05  1.415815E+03  8.896859E+03 -3.400926E+03  7.551152E+03 -4.132753E-02
        43   9  5.931631E+05 -4.363217E+02  5.633411E+03  1.829427E+03  2.900716E+03  8.539805E-03
        43  10  5.931584E+05  1.568957E+04  1.829100E+04  8.631228E+03 -2.753011E-10 -9.258736E-11
        43  11  5.913059E+05  1.415799E+03  8.896752E+03  3.400926E+03 -7.520772E-10 -3.288773E-10
        43  12  5.931631E+05 -4.363240E+02  5.633395E+03 -1.829427E+03  2.181324E-09 -4.504546E-10
        43  13  5.931583E+05  1.568943E+04  1.829098E+04 -5.978792E-09  1.281747E-09 -1.026736E-10
        43  14  5.913059E+05  1.415778E+03  8.896749E+03 -4.568272E-09 -8.643123E-10 -3.977252E-10
        43  15  5.931631E+05 -4.363303E+02  5.633394E+03  1.138481E-08 -6.603419E-10 -6.090870E-10
        43  16  5.931584E+05  1.568957E+04  1.829100E+04 -8.631228E+03 -1.242515E-09 -1.374181E-10
        43  17  5.913059E+05  1.415799E+03  8.896752E+03 -3.400926E+03 -1.408703E-09 -5.005599E-10
        43  18  5.931631E+05 -4.363240E+02  5.633395E+03  1.829427E+03  1.754966E-09 -7.745553E-10
        43  19  5.931586E+05  1.568961E+04  1.829128E+04  8.631228E+03 -1.220152E+04 -1.694786E-01
        43  20  5.913060E+05  1.415815E+03  8.896859E+03  3.400926E+03 -7.551152E+03 -4.132753E-02
        43  21  5.931631E+05 -4.363217E+02  5.633411E+03 -1.829427E+03 -2.900716E+03  8.539805E-03
        43  22  5.931585E+05  1.568947E+04  1.829126E+04 -1.257269E-08 -1.220152E+04 -1.181265E-10
        43  23  5.913060E+05  1.415793E+03  8.896856E+03 -3.580480E-09 -7.551152E+03 -5.062543E-10
        43  24  5.931631E+05 -4.363280E+02  5.633410E+03 -2.511599E-10 -2.900716E+03 -7.801727E-10
        43  25  5.931586E+05  1.568961E+04  1.829128E+04 -8.631228E+03 -1.220152E+04  1.694786E-01
        43  26  5.913060E+05  1.415815E+03  8.896859E+03 -3.400926E+03 -7.551152E+03  4.132753E-02
        43  27  5.931631E+05 -4.363217E+02  5.633411E+03  1.829427E+03 -2.900716E+03 -8.539806E-03
        44   1  5.924317E+05  6.001866E+02  4.860234E+03  2.714654E+02  2.075542E+03  9.067222E-04
        44   2  5.922211E+05 -1.814332E+01  4.022815E+03  1.375291E+02  7.510478E+01  1.662296E-05
        44   3  5.924318E+05  8.003653E+00  4.647976E+03  3.592853E+00 -1.925333E+03 -1.113167E-05
        44   4  5.924317E+05  6.001864E+02  4.860234E+03 -7.065767E-09  2.075542E+03 -2.976455E-11
        44   5  5.922211E+05 -1.814336E+01  4.022815E+03  6.140083E-09  7.510478E+01  8.680001E-10
        44   6  5.924318E+05  8.003653E+00  4.647976E+03 -3.819758E-09 -1.925333E+03  9.267290E-10
        44   7  5.924317E+05  6.001866E+02  4.860234E+03 -2.714654E+02  2.075542E+03 -9.067222E-04
        44   8  5.922211E+05 -1.814332E+01  4.022815E+03 -1.375291E+02  7.510478E+01 -1.662124E-05
        44   9  5.924318E+05  8.003653E+00  4.647976E+03 -3.592853E+00 -1.925333E+03  1.113350E-05
        44  10  5.924317E+05  6.001854E+02  4.860226E+03  2.714654E+02 -1.408817E-09 -1.424316E-10
        44  11  5.922211E+05 -1.814332E+01  4.022815E+03  1.375291E+02  2.436102E-09  3.667868E-10
        44  12  5.924318E+05  8.002659E+00  4.647969E+03  3.592853E+00 -1.402460E-09  1.912729E-11
        44  13  5.924317E+05  6.001853E+02  4.860226E+03  6.269252E-09  2.137109E-10 -2.654500E-10
        44  14  5.922211E+05 -1.814336E+01  4.022815E+03  3.052551E-09 -1.295285E-09  5.544071E-10
        44  15  5.924318E+05  8.002659E+00  4.647969E+03 -1.782096E-09  1.124415E-09  5.940632E-10
        44  16  5.924317E+05  6.001854E+02  4.860226E+03 -2.714654E+02  1.318797E-09 -4.055540E-10
        44  17  5.922211E+05 -1.814332E+01  4.022815E+03 -1.375291E+02  3.082414E-10  6.966060E-10
        44  18  5.924318E+05  8.002659E+00  4.647969E+03 -3.592853E+00  1.485791E-09  1.157154E-09
        44  19  5.924317E+05  6.001866E+02  4.860234E+03  2.714654E+02 -2.075542E+03 -9.067225E-04
        44  20  5.922211E+05 -1.814332E+01  4.022815E+03  1.375291E+02 -7.510478E+01 -1.662231E-05
        44  21  5.924318E+05  8.003653E+00  4.647976E+03  3.592853E+00  1.925333E+03  1.113173E-05
        44  22  5.924317E+05  6.001864E+02  4.860234E+03 -1.054447E-08 -2.075542E+03 -5.026903E-10
        44  23  5.922211E+05 -1.814336E+01  4.022815E+03  6.433656E-09 -7.510478E+01  2.371093E-10
        44  24  5.924318E+05  8.003653E+00  4.647976E+03 -4.593018E-09  1.925333E+03  2.557510E-10
        44  25  5.924317E+05  6.001866E+02  4.860234E+03 -2.714654E+02 -2.075542E+03  9.067215E-04
        44  26  5.922211E+05 -1.814332E+01  4.022815E+03 -1.375291E+02 -7.510478E+01  1.662269E-05
        44  27  5.924318E+05  8.003653E+00  4.647976E+03 -3.592853E+00  1.925333E+03 -1.113122E-05
        45   1  5.925781E+05 -1.176520E+02  5.455298E+03  4.689653E+02 -2.817535E+03 -2.126366E-03
        45   2  5.920374E+05  6.313571E+01  8.462283E+03 -1.560769E+02 -7.041303E+03  1.768561E-03
        45   3  5.925763E+05  2.364686E+03  1.474746E+04 -7.811082E+02 -1.126503E+04  1.416028E-02
        45   4  5.925781E+05 -1.176524E+02  5.455298E+03 -6.813790E-09 -2.817535E+03  2.849586E-10
        45   5  5.920374E+05  6.313567E+01  8.462283E+03  3.634692E-09 -7.041303E+03 -9.902639E-10
        45   6  5.925763E+05  2.364685E+03  1.474746E+04 -3.959334E-09 -1.126503E+04 -1.395071E-09
        45   7  5.925781E+05 -1.176520E+02  5.455298E+03 -4.689653E+02 -2.817535E+03  2.126367E-03
        45   8  5.920374E+05  6.313571E+01  8.462283E+03  1.560769E+02 -7.041303E+03 -1.768563E-03
        45   9  5.925763E+05  2.364686E+03  1.474746E+04  7.811082E+02 -1.126503E+04 -1.416029E-02
        45  10  5.925781E+05 -1.176541E+02  5.455283E+03  4.689653E+02  1.350210E-09 -6.576364E-11
        45  11  5.920374E+05  6.312242E+01  8.462190E+03 -1.560769E+02 -3.556477E-10 -1.781845E-11
        45  12  5.925762E+05  2.364652E+03  1.474722E+04 -7.811082E+02  2.175578E-09 -1.082749E-09
        45  13  5.925781E+05 -1.176545E+02  5.455283E+03 -6.345201E-10  3.009970E-09  2.022546E-10
        45  14  5.920374E+05  6.312237E+01  8.462190E+03  6.701167E-09  3.231714E-09 -4.759934E-10
        45  15  5.925762E+05  2.364651E+03  1.474722E+04 -1.578728E-09 -7.127826E-10 -8.130015E-10
        45  16  5.925781E+05 -1.176541E+02  5.455283E+03 -4.689653E+02 -5.887454E-10  4.396193E-10
        45  17  5.920374E+05  6.312242E+01  8.462190E+03  1.560769E+02 -8.762573E-10 -9.082488E-10
        45  18  5.925762E+05  2.364652E+03  1.474722E+04  7.811082E+02  2.075159E-10 -5.512920E-10
        45  19  5.925781E+05 -1.176520E+02  5.455298E+03  4.689653E+02  2.817535E+03  2.126366E-03
        45  20  5.920374E+05  6.313571E+01  8.462283E+03 -1.560769E+02  7.041303E+03 -1.768561E-03
        45  21  5.925763E+05  2.364686E+03  1.474746E+04 -7.811082E+02  1.126503E+04 -1.416029E-02
        45  22  5.925781E+05 -1.176524E+02  5.455298E+03 -7.391464E-09  2.817535E+03  1.200998E-10
        45  23  5.920374E+05  6.313567E+01  8.462283E+03  3.293763E-09  7.041303E+03  2.694785E-11
        45  24  5.925763E+05  2.364685E+03  1.474746E+04  2.317087E-10  1.126503E+04 -2.312991E-10
        45  25  5.925781E+05 -1.176520E+02  5.455298E+03 -4.689653E+02  2.817535E+03 -2.126366E-03
        45  26  5.920374E+05  6.313571E+01  8.462283E+03  1.560769E+02  7.041303E+03  1.768562E-03
        45  27  5.925763E+05  2.364686E+03  1.474746E+04  7.811082E+02  1.126503E+04  1.416028E-02
        46   1  5.954743E+05 -1.625078E+03  1.874606E+04  7.184435E+03 -1.382002E+04 -1.597820E-01
        46   2  5.884108E+05  5.451005E+03  3.273846E+04 -1.287701E+04 -3.096857E+04  6.417532E-01
        46   3  5.954577E+05  6.005417E+04  6.976996E+04 -3.293912E+04 -4.811734E+04  2.550606E+00
        46   4  5.954742E+05 -1.625174E+03  1.874605E+04 -5.199084E-09 -1.382002E+04 -8.069436E-10
        46   5  5.884107E+05  5.450694E+03  3.273841E+04  5.481551E-09 -3.096857E+04  2.442546E-10
        46   6  5.954566E+05  6.005213E+04  6.976967E+04 -1.344830E-09 -4.811734E+04  2.761533E-10
        46   7  5.954743E+05 -1.625078E+03  1.874606E+04 -7.184435E+03 -1.382002E+04  1.597820E-01
        46   8  5.884108E+05  5.451005E+03  3.273846E+04  1.287701E+04 -3.096857E+04 -6.417532E-01
        46   9  5.954577E+05  6.005417E+04  6.976996E+04  3.293912E+04 -4.811734E+04 -2.550606E+00
        46  10  5.954741E+05 -1.625129E+03  1.874570E+04  7.184435E+03 -7.478981E-10 -1.256655E-09
        46  11  5.884098E+05  5.450748E+03  3.273666E+04 -1.287701E+04 -5.180637E-10 -4.262659E-10
        46  12  5.954553E+05  6.005355E+04  6.976562E+04 -3.293912E+04  1.044321E-09 -2.092369E-11
        46  13  5.954740E+05 -1.625226E+03  1.874569E+04  3.651232E-09  1.068831E-09 -6.410570E-10
        46  14  5.884096E+05  5.450437E+03  3.273661E+04  1.280004E-09  4.336930E-10 -1.411617E-10
        46  15  5.954541E+05  6.005151E+04  6.976533E+04 -5.568707E-10  3.467908E-09  1.766748E-11
        46  16  5.954741E+05 -1.625129E+03  1.874570E+04 -7.184435E+03  1.414598E-09 -1.923844E-11
        46  17  5.884098E+05  5.450748E+03  3.273666E+04  1.287701E+04 -7.690549E-10  1.527322E-10
        46  18  5.954553E+05  6.005355E+04  6.976562E+04  3.293912E+04 -1.379220E-09  7.693694E-11
        46  19  5.954743E+05 -1.625078E+03  1.874606E+04  7.184435E+03  1.382002E+04  1.597820E-01
        46  20  5.884108E+05  5.451005E+03  3.273846E+04 -1.287701E+04  3.096857E+04 -6.417532E-01
        46  21  5.954577E+05  6.005417E+04  6.976996E+04 -3.293912E+04  4.811734E+04 -2.550606E+00
        46  22  5.954742E+05 -1.625174E+03  1.874605E+04 -9.037643E-09  1.382002E+04 -4.835100E-10
        46  23  5.884107E+05  5.450694E+03  3.273841E+04  3.164110E-10  3.096857E+04 -5.293351E-10
        46  24  5.954566E+05  6.005213E+04  6.976967E+04 -5.402419E-09  4.811734E+04 -2.429271E-10
        46  25  5.954743E+05 -1.625078E+03  1.874606E+04 -7.184435E+03  1.382002E+04 -1.597820E-01
        46  26  5.884108E+05  5.451005E+03  3.273846E+04  1.287701E+04  3.096857E+04  6.417532E-01
        46  27  5.954577E+05  6.005417E+04  6.976996E+04  3.293912E+04  4.811734E+04  2.550606E+00
        47   1 -7.161756E+05 -2.527489E+06 -7.130407E+05  4.393787E+05 -3.089483E+04 -1.903742E+05
        47   2 -4.908612E+05 -2.006003E+06 -4.783353E+05  3.291973E+05 -9.284549E+04 -8.121720E+04
        47   3 -3.553071E+05 -1.520449E+06 -3.372312E+05  3.746934E+05 -8.719966E+04  2.801554E+04
        47   4 -9.656101E+04 -3.340246E+04 -1.125839E+05  3.879686E+05 -3.077714E+04 -7.586476E+04
        47   5 -8.822626E+03 -2.208925E+04 -5.420433E+04  3.100759E+05 -9.277795E+04 -4.743621E+04
        47   6  3.376628E+03 -3.278150E+04 -3.311657E+04  3.878612E+05 -8.726847E+04 -1.902779E+04
        47   7  5.226170E+05  2.466425E+06  4.874804E+05  3.363477E+05 -3.067884E+04  3.910493E+04
        47   8  4.729609E+05  1.965540E+06  3.697032E+05  2.908903E+05 -9.271265E+04 -1.354839E+04
        47   9  3.619234E+05  1.456998E+06  2.708894E+05  4.010596E+05 -8.733918E+04 -6.618196E+04
        47  10 -7.161864E+05 -2.527528E+06 -7.131109E+05  4.393739E+05 -1.497494E-09 -1.635919E-09
        47  11 -4.908722E+05 -2.006012E+06 -4.783639E+05  3.291912E+05 -4.172603E-09 -9.955192E-10
        47  12 -3.553155E+05 -1.520452E+06 -3.372470E+05  3.746953E+05  1.599324E-10  4.813326E-10
        47  13 -9.656357E+04 -3.340890E+04 -1.125965E+05  3.879667E+05 -4.499855E-10 -4.206879E-12
        47  14 -8.832471E+03 -2.209397E+04 -5.422472E+04  3.100723E+05  1.074837E-09  7.866060E-10
        47  15  3.368354E+03 -3.278393E+04 -3.313156E+04  3.878598E+05 -8.202218E-10 -1.716681E-10
        47  16  5.226156E+05  2.466423E+06  4.874758E+05  3.363486E+05 -4.137240E-10  1.861331E-09
        47  17  4.729516E+05  1.965538E+06  3.696867E+05  2.908893E+05  1.294592E-09  2.032174E-09
        47  18  3.619140E+05  1.456991E+06  2.708669E+05  4.010550E+05  7.094464E-11 -1.091444E-09
        47  19 -7.161756E+05 -2.527489E+06 -7.130407E+05  4.393787E+05  3.089483E+04  1.903742E+05
        47  20 -4.908612E+05 -2.006003E+06 -4.783353E+05  3.291973E+05  9.284549E+04  8.121720E+04
        47  21 -3.553071E+05 -1.520449E+06 -3.372312E+05  3.746934E+05  8.719966E+04 -2.801554E+04
        47  22 -9.656101E+04 -3.340246E+04 -1.125839E+05  3.879686E+05  3.077714E+04  7.586476E+04
        47  23 -8.822626E+03 -2.208925E+04 -5.420433E+04  3.100759E+05  9.277795E+04  4.743621E+04
        47  24  3.376628E+03 -3.278150E+04 -3.311657E+04  3.878612E+05  8.726847E+04  1.902779E+04
        47  25  5.226170E+05  2.466425E+06  4.874804E+05  3.363477E+05  3.067884E+04 -3.910493E+04
        47  26  4.729609E+05  1.965540E+06  3.697032E+05  2.908903E+05  9.271265E+04  1.354839E+04
        47  27  3.619234E+05  1.456998E+06  2.708894E+05  4.010596E+05  8.733918E+04  6.618196E+04
        48   1 -2.736568E+05 -1.152572E+06 -2.579872E+05  3.889522E+05 -6.534855E+04  1.720517E+04
        48   2 -1.484775E+05 -6.476673E+05 -1.464951E+05  3.082747E+05 -3.812307E+04  2.975505E+04
        48   3 -2.882276E+04 -1.460225E+05 -4.470793E+04  3.867738E+05 -9.155039E+03  4.229394E+04
        48   4 -2.632886E+03 -2.839212E+04 -2.781979E+04  3.886570E+05 -6.540302E+04 -1.436527E+04
        48   5  8.555970E+02 -2.672635E+04 -2.102907E+04  3.090711E+05 -3.819114E+04 -3.901600E+03
        48   6 -7.991322E+02 -2.819576E+04 -2.247855E+04  3.886533E+05 -9.238245E+03  6.541267E+03
        48   7  2.683122E+05  1.096992E+06  2.022843E+05  3.883603E+05 -6.545740E+04 -4.599189E+04
        48   8  1.501654E+05  5.945846E+05  1.044214E+05  3.098682E+05 -3.825925E+04 -3.759129E+04
        48   9  2.722439E+04  8.964715E+04 -2.449734E+02  3.905331E+05 -9.321658E+03 -2.921803E+04
        48  10 -2.736614E+05 -1.152574E+06 -2.579958E+05  3.889531E+05 -1.806874E-09  3.283962E-09
        48  11 -1.484793E+05 -6.476686E+05 -1.464995E+05  3.082756E+05 -9.599174E-10 -8.266585E-09
        48  12 -2.882333E+04 -1.460245E+05 -4.471146E+04  3.867741E+05  1.557754E-09 -1.621525E-08
        48  13 -2.637534E+03 -2.839349E+04 -2.782821E+04  3.886562E+05 -2.474569E-09 -4.662315E-11
        48  14  8.540268E+02 -2.672676E+04 -2.103184E+04  3.090710E+05 -1.564615E-09  1.691070E-09
        48  15 -7.992354E+02 -2.819583E+04 -2.247879E+04  3.886533E+05  2.640651E-09 -3.388648E-10
        48  16  2.683070E+05  1.096989E+06  2.022723E+05  3.883579E+05 -7.421798E-10 -1.854073E-09
        48  17  1.501635E+05  5.945827E+05  1.044160E+05  3.098670E+05  3.955249E-09  1.031557E-08
        48  18  2.722407E+04  8.964621E+04 -2.467399E+02  3.905329E+05  3.887183E-09  1.528883E-08
        48  19 -2.736568E+05 -1.152572E+06 -2.579872E+05  3.889522E+05  6.534855E+04 -1.720517E+04
        48  20 -1.484775E+05 -6.476673E+05 -1.464951E+05  3.082747E+05  3.812307E+04 -2.975505E+04
        48  21 -2.882276E+04 -1.460225E+05 -4.470793E+04  3.867738E+05  9.155039E+03 -4.229394E+04
        48  22 -2.632886E+03 -2.839212E+04 -2.781979E+04  3.886570E+05  6.540302E+04  1.436527E+04
        48  23  8.555970E+02 -2.672635E+04 -2.102907E+04  3.090711E+05  3.819114E+04  3.901600E+03
        48  24 -7.991322E+02 -2.819576E+04 -2.247855E+04  3.886533E+05  9.238245E+03 -6.541267E+03
        48  25  2.683122E+05  1.096992E+06  2.022843E+05  3.883603E+05  6.545740E+04  4.599189E+04
        48  26  1.501654E+05  5.945846E+05  1.044214E+05  3.098682E+05  3.825925E+04  3.759129E+04
        48  27  2.722439E+04  8.964715E+04 -2.449734E+02  3.905331E+05  9.321658E+03  2.921803E+04
        49   1  6.273151E+04  2.141331E+05  2.722467E+04  3.962118E+05  1.166914E+04  5.366373E+04
        49   2  1.767503E+05  7.221751E+05  1.254135E+05  2.965300E+05  2.979314E+04  3.011713E+04
        49   3  2.474184E+05  1.222266E+06  2.279535E+05  3.543050E+05  1.194822E+04  6.603115E+03
        49   4  3.216844E+03 -3.099800E+04 -2.504447E+04  3.882558E+05  1.156788E+04  1.023422E+04
        49   5 -4.818099E+03 -2.326327E+04 -3.763200E+04  3.095740E+05  2.979593E+04  2.986314E+04
        49   6 -6.371556E+04 -3.123254E+04 -7.585235E+04  3.883779E+05  1.203375E+04  4.954254E+04
        49   7 -5.630050E+04 -2.760684E+05 -7.730996E+04  3.803031E+05  1.146771E+04 -3.317841E+04
        49   8 -1.864228E+05 -7.681813E+05 -2.007111E+05  3.226017E+05  2.979871E+04  2.960943E+04
        49   9 -3.749591E+05 -1.283291E+06 -3.797638E+05  4.223808E+05  1.212409E+04  9.239557E+04
        49  10  6.273059E+04  2.141300E+05  2.721901E+04  3.962113E+05  1.834496E-09  1.334136E-08
        49  11  1.767491E+05  7.221739E+05  1.254102E+05  2.965293E+05  1.841360E-09  6.504878E-09
        49  12  2.474182E+05  1.222265E+06  2.279532E+05  3.543049E+05 -3.909168E-10 -8.716336E-10
        49  13  3.216673E+03 -3.099814E+04 -2.504492E+04  3.882557E+05  2.940897E-09 -4.263484E-11
        49  14 -4.819291E+03 -2.326447E+04 -3.763534E+04  3.095732E+05 -6.716267E-10  1.703781E-09
        49  15 -6.371638E+04 -3.123522E+04 -7.585724E+04  3.883774E+05  2.374409E-11 -1.838258E-10
        49  16 -5.630094E+04 -2.760696E+05 -7.731227E+04  3.803034E+05  1.363385E-09 -1.158794E-08
        49  17 -1.864240E+05 -7.681825E+05 -2.007144E+05  3.226010E+05  1.005709E-09 -4.464313E-09
        49  18 -3.749616E+05 -1.283300E+06 -3.797802E+05  4.223799E+05 -1.884233E-09  2.386573E-10
        49  19  6.273151E+04  2.141331E+05  2.722467E+04  3.962118E+05 -1.166914E+04 -5.366373E+04
        49  20  1.767503E+05  7.221751E+05  1.254135E+05  2.965300E+05 -2.979314E+04 -3.011713E+04
        49  21  2.474184E+05  1.222266E+06  2.279535E+05  3.543050E+05 -1.194822E+04 -6.603115E+03
        49  22  3.216844E+03 -3.099800E+04 -2.504447E+04  3.882558E+05 -1.156788E+04 -1.023422E+04
        49  23 -4.818099E+03 -2.326327E+04 -3.763200E+04  3.095740E+05 -2.979593E+04 -2.986314E+04
        49  24 -6.371556E+04 -3.123254E+04 -7.585235E+04  3.883779E+05 -1.203375E+04 -4.954254E+04
        49  25 -5.630050E+04 -2.760684E+05 -7.730996E+04  3.803031E+05 -1.146771E+04  3.317841E+04
        49  26 -1.864228E+05 -7.681813E+05 -2.007111E+05  3.226017E+05 -2.979871E+04 -2.960943E+04
        49  27 -3.749591E+05 -1.283291E+06 -3.797638E+05  4.223808E+05 -1.212409E+04 -9.239557E+04
        50   1  2.311982E+05 -5.257837E+03 -6.084043E+03 -2.873321E+03 -4.352117E+03  2.013513E-02
        50   2  2.318113E+05 -4.800473E+02 -2.735291E+03 -1.113124E+03 -2.915504E+03  5.225486E-03
        50   3  2.311976E+05  1.379490E+02 -1.361515E+03  6.470747E+02 -1.478891E+03 -1.540850E-03
        50   4  2.311982E+05 -5.257853E+03 -6.084045E+03 -1.334301E-08 -4.352117E+03 -4.493870E-10
        50   5  2.318113E+05 -4.800496E+02 -2.735291E+03 -4.104426E-09 -2.915504E+03 -1.134539E-09
        50   6  2.311976E+05  1.379483E+02 -1.361515E+03 -1.586930E-08 -1.478891E+03 -3.011573E-10
        50   7  2.311982E+05 -5.257837E+03 -6.084043E+03  2.873321E+03 -4.352117E+03 -2.013513E-02
        50   8  2.318113E+05 -4.800473E+02 -2.735291E+03  1.113124E+03 -2.915504E+03 -5.225488E-03
        50   9  2.311976E+05  1.379490E+02 -1.361515E+03 -6.470747E+02 -1.478891E+03  1.540850E-03
        50  10  2.311982E+05 -5.257842E+03 -6.084079E+03 -2.873321E+03  2.210121E-10 -1.375084E-10
        50  11  2.318113E+05 -4.800496E+02 -2.735306E+03 -1.113124E+03 -3.177882E-10 -1.949471E-11
        50  12  2.311976E+05  1.379485E+02 -1.361519E+03  6.470747E+02 -1.911279E-09  1.175085E-09
        50  13  2.311982E+05 -5.257858E+03 -6.084081E+03  3.790741E-09 -9.132705E-10 -1.133942E-10
        50  14  2.318113E+05 -4.800519E+02 -2.735307E+03 -1.759879E-09  7.065450E-10  2.695109E-11
        50  15  2.311976E+05  1.379477E+02 -1.361520E+03 -1.388697E-09 -1.722950E-09  9.982113E-10
        50  16  2.311982E+05 -5.257842E+03 -6.084079E+03  2.873321E+03  1.978289E-09 -7.106048E-11
        50  17  2.318113E+05 -4.800496E+02 -2.735306E+03  1.113124E+03  2.784256E-09  6.373664E-11
        50  18  2.311976E+05  1.379485E+02 -1.361519E+03 -6.470747E+02  3.456504E-09  8.151689E-10
        50  19  2.311982E+05 -5.257837E+03 -6.084043E+03 -2.873321E+03  4.352117E+03 -2.013513E-02
        50  20  2.318113E+05 -4.800473E+02 -2.735291E+03 -1.113124E+03  2.915504E+03 -5.225486E-03
        50  21  2.311976E+05  1.379490E+02 -1.361515E+03  6.470747E+02  1.478891E+03  1.540853E-03
        50  22  2.311982E+05 -5.257853E+03 -6.084045E+03 -1.138400E-08  4.352117E+03  2.252908E-10
        50  23  2.318113E+05 -4.800496E+02 -2.735291E+03  7.047653E-09  2.915504E+03  1.183470E-09
        50  24  2.311976E+05  1.379483E+02 -1.361515E+03 -1.715769E-09  1.478891E+03  2.306420E-09
        50  25  2.311982E+05 -5.257837E+03 -6.084043E+03  2.873321E+03  4.352117E+03  2.013513E-02
        50  26  2.318113E+05 -4.800473E+02 -2.735291E+03  1.113124E+03  2.915504E+03  5.225489E-03
        50  27  2.311976E+05  1.379490E+02 -1.361515E+03 -6.470747E+02  1.478891E+03 -1.540848E-03
        51   1  2.314610E+05 -2.137620E+02 -9.083905E+02 -4.280619E+01 -1.315227E+03  9.065205E-05
        51   2  2.314818E+05 -1.867876E+01 -5.250115E+01  2.305976E+01 -1.286181E+03 -4.775649E-05
        51   3  2.314609E+05  2.503881E+01  7.466495E+02  8.892469E+01 -1.257136E+03 -1.800017E-04
        51   4  2.314610E+05 -2.137621E+02 -9.083905E+02 -1.840945E-08 -1.315227E+03 -4.151762E-11
        51   5  2.314818E+05 -1.867876E+01 -5.250115E+01 -8.529912E-09 -1.286181E+03 -7.166063E-10
        51   6  2.314609E+05  2.503880E+01  7.466495E+02 -6.998752E-09 -1.257136E+03 -1.027912E-09
        51   7  2.314610E+05 -2.137620E+02 -9.083905E+02  4.280619E+01 -1.315227E+03 -9.065216E-05
        51   8  2.314818E+05 -1.867876E+01 -5.250115E+01 -2.305976E+01 -1.286181E+03  4.775506E-05
        51   9  2.314609E+05  2.503881E+01  7.466495E+02 -8.892469E+01 -1.257136E+03  1.799996E-04
        51  10  2.314610E+05 -2.137625E+02 -9.083937E+02 -4.280619E+01  2.356473E-09  8.120366E-10
        51  11  2.314818E+05 -1.867920E+01 -5.250426E+01  2.305976E+01  2.146294E-09 -8.477477E-10
        51  12  2.314609E+05  2.503839E+01  7.466465E+02  8.892469E+01 -9.695910E-10 -1.978373E-10
        51  13  2.314610E+05 -2.137625E+02 -9.083937E+02 -1.283378E-08 -4.207713E-12  5.837929E-10
        51  14  2.314818E+05 -1.867921E+01 -5.250426E+01  1.018066E-09 -6.221955E-10 -9.329496E-10
        51  15  2.314609E+05  2.503837E+01  7.466465E+02  1.411738E-09  2.242748E-09 -2.750359E-10
        51  16  2.314610E+05 -2.137625E+02 -9.083937E+02  4.280619E+01 -1.326488E-09  3.599590E-10
        51  17  2.314818E+05 -1.867920E+01 -5.250426E+01 -2.305976E+01 -2.431200E-10 -1.020550E-09
        51  18  2.314609E+05  2.503839E+01  7.466465E+02 -8.892469E+01  8.957202E-10 -3.651070E-10
        51  19  2.314610E+05 -2.137620E+02 -9.083905E+02 -4.280619E+01  1.315227E+03 -9.065049E-05
        51  20  2.314818E+05 -1.867876E+01 -5.250115E+01  2.305976E+01  1.286181E+03  4.775472E-05
        51  21  2.314609E+05  2.503881E+01  7.466495E+02  8.892469E+01  1.257136E+03  1.800013E-04
        51  22  2.314610E+05 -2.137621E+02 -9.083905E+02 -1.372660E-08  1.315227E+03  1.209823E-09
        51  23  2.314818E+05 -1.867876E+01 -5.250115E+01 -2.068056E-10  1.286181E+03 -1.162378E-09
        51  24  2.314609E+05  2.503880E+01  7.466495E+02 -2.299063E-09  1.257136E+03  4.741563E-10
        51  25  2.314610E+05 -2.137620E+02 -9.083905E+02  4.280619E+01  1.315227E+03  9.065294E-05
        51  26  2.314818E+05 -1.867876E+01 -5.250115E+01 -2.305976E+01  1.286181E+03 -4.775708E-05
        51  27  2.314609E+05  2.503881E+01  7.466495E+02 -8.892469E+01  1.257136E+03 -1.800003E-04
        52   1  2.315438E+05 -4.620914E+01  1.204126E+03  1.787995E+02 -1.429362E+03 -4.115092E-04
        52   2  2.313779E+05  2.735780E+01  2.463297E+03 -3.364734E+01 -2.660097E+03  1.441173E-04
        52   3  2.315436E+05  7.865051E+02  4.694899E+03 -2.460971E+02 -3.890852E+03  1.541776E-03
        52   4  2.315438E+05 -4.620920E+01  1.204126E+03 -8.272147E-09 -1.429362E+03 -7.693138E-10
        52   5  2.313779E+05  2.735780E+01  2.463297E+03  7.137779E-09 -2.660097E+03 -1.709075E-10
        52   6  2.315436E+05  7.865049E+02  4.694899E+03  3.427542E-09 -3.890852E+03 -1.221295E-10
        52   7  2.315438E+05 -4.620914E+01  1.204126E+03 -1.787995E+02 -1.429362E+03  4.115076E-04
        52   8  2.313779E+05  2.735780E+01  2.463297E+03  3.364734E+01 -2.660097E+03 -1.441177E-04
        52   9  2.315436E+05  7.865051E+02  4.694899E+03  2.460971E+02 -3.890852E+03 -1.541776E-03
        52  10  2.315438E+05 -4.620969E+01  1.204122E+03  1.787995E+02  4.718040E-10  2.844095E-11
        52  11  2.313779E+05  2.735590E+01  2.463284E+03 -3.364734E+01 -5.802291E-10 -5.249059E-10
        52  12  2.315436E+05  7.865010E+02  4.694871E+03 -2.460971E+02 -1.950591E-10  1.687589E-10
        52  13  2.315438E+05 -4.620975E+01  1.204122E+03 -1.940406E-09  1.081283E-09  2.008128E-10
        52  14  2.313779E+05  2.735590E+01  2.463284E+03  2.776888E-09  2.154153E-09 -6.723588E-11
        52  15  2.315436E+05  7.865009E+02  4.694871E+03  3.720216E-09  2.452521E-09 -1.004528E-10
        52  16  2.315438E+05 -4.620969E+01  1.204122E+03 -1.787995E+02 -1.492435E-09  3.765634E-10
        52  17  2.313779E+05  2.735590E+01  2.463284E+03  3.364734E+01 -2.442411E-09  3.716218E-10
        52  18  2.315436E+05  7.865010E+02  4.694871E+03  2.460971E+02  1.988511E-09 -3.599458E-10
        52  19  2.315438E+05 -4.620914E+01  1.204126E+03  1.787995E+02  1.429362E+03  4.115092E-04
        52  20  2.313779E+05  2.735780E+01  2.463297E+03 -3.364734E+01  2.660097E+03 -1.441184E-04
        52  21  2.315436E+05  7.865051E+02  4.694899E+03 -2.460971E+02  3.890852E+03 -1.541776E-03
        52  22  2.315438E+05 -4.620920E+01  1.204126E+03 -1.068481E-08  1.429362E+03  1.174698E-09
        52  23  2.313779E+05  2.735780E+01  2.463297E+03  9.187258E-09  2.660097E+03  3.235869E-11
        52  24  2.315436E+05  7.865049E+02  4.694899E+03  3.745988E-09  3.890852E+03 -7.657787E-11
        52  25  2.315438E+05 -4.620914E+01  1.204126E+03 -1.787995E+02  1.429362E+03 -4.115069E-04
        52  26  2.313779E+05  2.735780E+01  2.463297E+03  3.364734E+01  2.660097E+03  1.441184E-04
        52  27  2.315436E+05  7.865051E+02  4.694899E+03  2.460971E+02  3.890852E+03  1.541775E-03
        53   1  2.325079E+05 -5.363705E+02  6.069602E+03  2.387930E+03 -4.707002E+03 -1.809820E-02
        53   2  2.301719E+05  1.805527E+03  1.077625E+04 -4.255967E+03 -1.035330E+04  7.094929E-02
        53   3  2.325057E+05  1.988787E+04  2.309307E+04 -1.089990E+04 -1.599959E+04  2.808031E-01
        53   4  2.325079E+05 -5.363812E+02  6.069600E+03 -3.379113E-09 -4.707002E+03  2.456055E-10
        53   5  2.301719E+05  1.805493E+03  1.077624E+04  7.650664E-09 -1.035330E+04  9.795211E-10
        53   6  2.325056E+05  1.988765E+04  2.309304E+04  2.524372E-09 -1.599959E+04  4.604844E-10
        53   7  2.325079E+05 -5.363705E+02  6.069602E+03 -2.387930E+03 -4.707002E+03  1.809820E-02
        53   8  2.301719E+05  1.805527E+03  1.077625E+04  4.255967E+03 -1.035330E+04 -7.094929E-02
        53   9  2.325057E+05  1.988787E+04  2.309307E+04  1.089990E+04 -1.599959E+04 -2.808031E-01
        53  10  2.325079E+05 -5.363764E+02  6.069560E+03  2.387930E+03  1.877402E-09  2.216646E-10
        53  11  2.301718E+05  1.805498E+03  1.077605E+04 -4.255967E+03  9.467450E-10 -5.028999E-10
        53  12  2.325055E+05  1.988780E+04  2.309259E+04 -1.089990E+04  8.865114E-11 -2.548484E-10
        53  13  2.325079E+05 -5.363871E+02  6.069559E+03  3.006002E-09 -2.531250E-10 -1.428459E-10
        53  14  2.301718E+05  1.805464E+03  1.077604E+04  1.190655E-10 -2.917274E-10 -2.430915E-10
        53  15  2.325053E+05  1.988758E+04  2.309256E+04 -7.523170E-11 -7.895861E-10 -9.215735E-11
        53  16  2.325079E+05 -5.363764E+02  6.069560E+03 -2.387930E+03  3.294668E-10 -4.965569E-10
        53  17  2.301718E+05  1.805498E+03  1.077605E+04  4.255967E+03 -2.210825E-09  3.010828E-11
        53  18  2.325055E+05  1.988780E+04  2.309259E+04  1.089990E+04 -8.843019E-10  6.702296E-11
        53  19  2.325079E+05 -5.363705E+02  6.069602E+03  2.387930E+03  4.707002E+03  1.809820E-02
        53  20  2.301719E+05  1.805527E+03  1.077625E+04 -4.255967E+03  1.035330E+04 -7.094929E-02
        53  21  2.325057E+05  1.988787E+04  2.309307E+04 -1.089990E+04  1.599959E+04 -2.808031E-01
        53  22  2.325079E+05 -5.363812E+02  6.069600E+03 -5.692625E-09  4.707002E+03 -5.303307E-10
        53  23  2.301719E+05  1.805493E+03  1.077624E+04 -9.493393E-10  1.035330E+04 -1.468343E-09
        53  24  2.325056E+05  1.988765E+04  2.309304E+04 -1.057648E-09  1.599959E+04 -6.251386E-10
        53  25  2.325079E+05 -5.363705E+02  6.069602E+03 -2.387930E+03  4.707002E+03 -1.809820E-02
        53  26  2.301719E+05  1.805527E+03  1.077625E+04  4.255967E+03  1.035330E+04  7.094929E-02
        53  27  2.325057E+05  1.988787E+04  2.309307E+04  1.089990E+04  1.599959E+04  2.808031E-01
        54   1 -6.802571E+05 -2.564755E+06 -6.703799E+05  4.253476E+05 -3.099778E+04 -1.587882E+05
        54   2 -4.891615E+05 -2.037302E+06 -4.576130E+05  3.270360E+05 -9.304710E+04 -6.072615E+04
        54   3 -3.556923E+05 -1.536269E+06 -3.231719E+05  3.877993E+05 -8.693862E+04  3.740194E+04
        54   4 -5.593332E+04 -5.198028E+04 -6.532658E+04  3.962278E+05 -3.088629E+04 -4.377037E+04
        54   5 -5.131771E+03 -4.545248E+04 -3.165813E+04  3.166647E+05 -9.298070E+04 -2.714036E+04
        54   6  2.330711E+03 -5.134292E+04 -1.955336E+04  3.961648E+05 -8.701017E+04 -1.053122E+04
        54   7  5.679402E+05  2.466618E+06  5.393269E+05  3.669865E+05 -3.078599E+04  7.171301E+04
        54   8  4.786397E+05  1.950142E+06  3.940712E+05  3.062576E+05 -9.291558E+04  6.551998E+03
        54   9  3.602169E+05  1.435687E+06  2.839571E+05  4.045493E+05 -8.708290E+04 -5.857713E+04
        54  10 -6.802649E+05 -2.564782E+06 -6.704293E+05  4.253436E+05  4.448889E-10 -4.827023E-10
        54  11 -4.891718E+05 -2.037309E+06 -4.576362E+05  3.270315E+05 -2.628807E-09  4.864241E-10
        54  12 -3.557008E+05 -1.536272E+06 -3.231887E+05  3.878019E+05 -2.759810E-09  9.394956E-10
        54  13 -5.593486E+04 -5.198259E+04 -6.533197E+04  3.962267E+05 -6.660204E-11  2.174507E-10
        54  14 -5.141250E+03 -4.545559E+04 -3.167575E+04  3.166627E+05  1.877099E-09 -8.209129E-10
        54  15  2.322553E+03 -5.134507E+04 -1.956780E+04  3.961641E+05 -2.932468E-09  1.755304E-09
        54  16  5.679378E+05  2.466612E+06  5.393155E+05  3.669882E+05  9.637260E-10  1.684161E-10
        54  17  4.786304E+05  1.950140E+06  3.940549E+05  3.062581E+05  1.424757E-09  1.561941E-09
        54  18  3.602078E+05  1.435681E+06  2.839364E+05  4.045452E+05  5.179105E-10 -6.617198E-11
        54  19 -6.802571E+05 -2.564755E+06 -6.703799E+05  4.253476E+05  3.099778E+04  1.587882E+05
        54  20 -4.891615E+05 -2.037302E+06 -4.576130E+05  3.270360E+05  9.304710E+04  6.072615E+04
        54  21 -3.556923E+05 -1.536269E+06 -3.231719E+05  3.877993E+05  8.693862E+04 -3.740194E+04
        54  22 -5.593332E+04 -5.198028E+04 -6.532658E+04  3.962278E+05  3.088629E+04  4.377037E+04
        54  23 -5.131771E+03 -4.545248E+04 -3.165813E+04  3.166647E+05  9.298070E+04  2.714036E+04
        54  24  2.330711E+03 -5.134292E+04 -1.955336E+04  3.961648E+05  8.701017E+04  1.053122E+04
        54  25  5.679402E+05  2.466618E+06  5.393269E+05  3.669865E+05  3.078599E+04 -7.171301E+04
        54  26  4.786397E+05  1.950142E+06  3.940712E+05  3.062576E+05  9.291558E+04 -6.551998E+03
        54  27  3.602169E+05  1.435687E+06  2.839571E+05  4.045493E+05  8.708290E+04  5.857713E+04
        55   1 -2.695355E+05 -1.162512E+06 -2.447112E+05  3.965760E+05 -6.465287E+04  2.457522E+04
        55   2 -1.432453E+05 -6.473309E+05 -1.342969E+05  3.148549E+05 -3.680422E+04  3.311632E+04
        55   3 -2.034892E+04 -1.343591E+05 -3.044675E+04  3.957263E+05 -7.273050E+03  4.164376E+04
        55   4 -1.029616E+03 -4.885250E+04 -1.664155E+04  3.969588E+05 -6.470969E+04 -7.780428E+03
        55   5  9.644957E+02 -4.770145E+04 -1.313578E+04  3.156662E+05 -3.687440E+04 -1.260006E+03
        55   6 -6.681577E+01 -4.865876E+04 -1.477917E+04  3.969570E+05 -7.358138E+03  5.239936E+03
        55   7  2.673989E+05  1.065989E+06  2.113662E+05  3.973413E+05 -6.476649E+04 -4.019314E+04
        55   8  1.451526E+05  5.522733E+05  1.080112E+05  3.164780E+05 -3.694463E+04 -3.566892E+04
        55   9  2.021559E+04  3.705152E+04  8.931016E+02  3.981879E+05 -7.443363E+03 -3.116877E+04
        55  10 -2.695401E+05 -1.162514E+06 -2.447202E+05  3.965773E+05 -9.523187E-10 -2.757748E-09
        55  11 -1.432470E+05 -6.473324E+05 -1.343015E+05  3.148559E+05 -3.049089E-11  2.322286E-09
        55  12 -2.034944E+04 -1.343609E+05 -3.045011E+04  3.957265E+05  6.903040E-10  4.785937E-09
        55  13 -1.034128E+03 -4.885369E+04 -1.664953E+04  3.969584E+05 -5.464213E-10  1.482497E-09
        55  14  9.630352E+02 -4.770182E+04 -1.313834E+04  3.156661E+05  4.365022E-10 -1.717337E-09
        55  15 -6.688132E+01 -4.865880E+04 -1.477932E+04  3.969571E+05 -1.518913E-10  2.504114E-09
        55  16  2.673940E+05  1.065986E+06  2.113553E+05  3.973392E+05  1.201688E-09  4.592611E-10
        55  17  1.451508E+05  5.522716E+05  1.080062E+05  3.164769E+05 -2.561682E-10  2.072214E-09
        55  18  2.021527E+04  3.705047E+04  8.911726E+02  3.981877E+05  1.321712E-09 -3.574510E-09
        55  19 -2.695355E+05 -1.162512E+06 -2.447112E+05  3.965760E+05  6.465287E+04 -2.457522E+04
        55  20 -1.432453E+05 -6.473309E+05 -1.342969E+05  3.148549E+05  3.680422E+04 -3.311632E+04
        55  21 -2.034892E+04 -1.343591E+05 -3.044675E+04  3.957263E+05  7.273050E+03 -4.164376E+04
        55  22 -1.029616E+03 -4.885250E+04 -1.664155E+04  3.969588E+05  6.470969E+04  7.780428E+03
        55  23  9.644957E+02 -4.770145E+04 -1.313578E+04  3.156662E+05  3.687440E+04  1.260006E+03
        55  24 -6.681577E+01 -4.865876E+04 -1.477917E+04  3.969570E+05  7.358138E+03 -5.239936E+03
        55  25  2.673989E+05  1.065989E+06  2.113662E+05  3.973413E+05  6.476649E+04  4.019314E+04
        55  26  1.451526E+05  5.522733E+05  1.080112E+05  3.164780E+05  3.694463E+04  3.566892E+04
        55  27  2.021559E+04  3.705152E+04  8.931016E+02  3.981879E+05  7.443363E+03  3.116877E+04
        56   1  7.186379E+04  2.344640E+05  4.363947E+04  4.022860E+05  1.402415E+04  5.211863E+04
        56   2  1.908258E+05  7.507608E+05  1.479625E+05  3.075428E+05  3.216745E+04  2.045054E+04
        56   3  2.825501E+05  1.264209E+06  2.659479E+05  3.735761E+05  1.269459E+04 -1.119092E+04
        56   4  2.738833E+03 -5.063733E+04 -1.677588E+04  3.965448E+05  1.392076E+04  7.655816E+03
        56   5 -3.037397E+03 -4.529300E+04 -2.586241E+04  3.161859E+05  3.217224E+04  2.114871E+04
        56   6 -4.389523E+04 -5.089338E+04 -5.264087E+04  3.966290E+05  1.278410E+04  3.469339E+04
        56   7 -6.639022E+04 -3.356578E+05 -7.718843E+04  3.908061E+05  1.381817E+04 -3.678689E+04
        56   8 -1.969424E+05 -8.407534E+05 -1.997255E+05  3.248173E+05  3.217706E+04  2.184598E+04
        56   9 -3.704641E+05 -1.364412E+06 -3.713460E+05  4.196317E+05  1.287713E+04  8.048089E+04
        56  10  7.186285E+04  2.344611E+05  4.363400E+04  4.022854E+05  9.038966E-10 -1.948769E-09
        56  11  1.908245E+05  7.507600E+05  1.479598E+05  3.075422E+05 -7.086574E-10  1.929850E-10
        56  12  2.825499E+05  1.264209E+06  2.659474E+05  3.735762E+05 -1.411397E-09  3.936636E-10
        56  13  2.738609E+03 -5.063744E+04 -1.677636E+04  3.965447E+05  1.877972E-10  1.792561E-09
        56  14 -3.038628E+03 -4.529376E+04 -2.586519E+04  3.161853E+05 -1.025361E-09 -1.683984E-09
        56  15 -4.389573E+04 -5.089472E+04 -5.264344E+04  3.966286E+05  1.166092E-09  1.906799E-09
        56  16 -6.639079E+04 -3.356593E+05 -7.719134E+04  3.908065E+05  2.403365E-09 -8.011000E-10
        56  17 -1.969436E+05 -8.407542E+05 -1.997284E+05  3.248168E+05  1.689545E-09  3.890694E-09
        56  18 -3.704660E+05 -1.364419E+06 -3.713585E+05  4.196309E+05  5.351292E-11  5.704465E-10
        56  19  7.186379E+04  2.344640E+05  4.363947E+04  4.022860E+05 -1.402415E+04 -5.211863E+04
        56  20  1.908258E+05  7.507608E+05  1.479625E+05  3.075428E+05 -3.216745E+04 -2.045054E+04
        56  21  2.825501E+05  1.264209E+06  2.659479E+05  3.735761E+05 -1.269459E+04  1.119092E+04
        56  22  2.738833E+03 -5.063733E+04 -1.677588E+04  3.965448E+05 -1.392076E+04 -7.655816E+03
        56  23 -3.037397E+03 -4.529300E+04 -2.586241E+04  3.161859E+05 -3.217224E+04 -2.114871E+04
        56  24 -4.389523E+04 -5.089338E+04 -5.264087E+04  3.966290E+05 -1.278410E+04 -3.469339E+04
        56  25 -6.639022E+04 -3.356578E+05 -7.718843E+04  3.908061E+05 -1.381817E+04  3.678689E+04
        56  26 -1.969424E+05 -8.407534E+05 -1.997255E+05  3.248173E+05 -3.217706E+04 -2.184598E+04
        56  27 -3.704641E+05 -1.364412E+06 -3.713460E+05  4.196317E+05 -1.287713E+04 -8.048089E+04
        57   1 -5.797672E+05 -2.246063E+06 -5.649814E+05  2.645251E+05 -2.949936E+04 -1.264353E+05
        57   2 -4.667541E+05 -1.907741E+06 -4.198813E+05  2.066294E+05 -9.198334E+04 -4.810007E+04
        57   3 -3.822684E+05 -1.586092E+06 -3.329009E+05  2.498643E+05 -9.458423E+04  3.027075E+04
        57   4 -2.125458E+04  3.360678E+03 -2.487032E+04  2.539515E+05 -2.942597E+04 -1.579208E+04
        57   5 -2.216906E+03  5.697507E+03 -1.279605E+04  2.033812E+05 -9.192152E+04 -9.056103E+03
        57   6  7.988128E+02  3.750989E+03 -8.987773E+03  2.539310E+05 -9.461559E+04 -2.330248E+03
        57   7  5.368968E+05  2.257455E+06  5.149277E+05  2.433378E+05 -2.935656E+04  9.525163E+04
        57   8  4.620830E+05  1.922596E+06  3.940849E+05  2.001215E+05 -9.186024E+04  3.010671E+04
        57   9  3.837086E+05  1.596004E+06  3.147966E+05  2.580070E+05 -9.464734E+04 -3.501334E+04
        57  10 -5.797724E+05 -2.246080E+06 -5.650132E+05  2.645221E+05  8.393311E-11  5.887458E-10
        57  11 -4.667638E+05 -1.907746E+06 -4.199016E+05  2.066258E+05 -4.335007E-10  2.704098E-09
        57  12 -3.822783E+05 -1.586095E+06 -3.329194E+05  2.498666E+05  1.021874E-09  2.763893E-10
        57  13 -2.125558E+04  3.360178E+03 -2.487241E+04  2.539511E+05  1.121668E-09 -1.629083E-10
        57  14 -2.226001E+03  5.695151E+03 -1.281209E+04  2.033805E+05 -7.713936E-11  2.044536E-12
        57  15  7.891984E+02  3.748580E+03 -9.004606E+03  2.539308E+05 -4.365466E-10 -1.388129E-09
        57  16  5.368935E+05  2.257445E+06  5.149091E+05  2.433401E+05  7.980664E-11 -3.119090E-10
        57  17  4.620737E+05  1.922593E+06  3.940673E+05  2.001237E+05 -9.525552E-10 -7.862913E-10
        57  18  3.836987E+05  1.596000E+06  3.147775E+05  2.580043E+05  1.404479E-09  4.615926E-10
        57  19 -5.797672E+05 -2.246063E+06 -5.649814E+05  2.645251E+05  2.949936E+04  1.264353E+05
        57  20 -4.667541E+05 -1.907741E+06 -4.198813E+05  2.066294E+05  9.198334E+04  4.810007E+04
        57  21 -3.822684E+05 -1.586092E+06 -3.329009E+05  2.498643E+05  9.458423E+04 -3.027075E+04
        57  22 -2.125458E+04  3.360678E+03 -2.487032E+04  2.539515E+05  2.942597E+04  1.579208E+04
        57  23 -2.216906E+03  5.697507E+03 -1.279605E+04  2.033812E+05  9.192152E+04  9.056103E+03
        57  24  7.988128E+02  3.750989E+03 -8.987773E+03  2.539310E+05  9.461559E+04  2.330248E+03
        57  25  5.368968E+05  2.257455E+06  5.149277E+05  2.433378E+05  2.935656E+04 -9.525163E+04
        57  26  4.620830E+05  1.922596E+06  3.940849E+05  2.001215E+05  9.186024E+04 -3.010671E+04
        57  27  3.837086E+05  1.596004E+06  3.147966E+05  2.580070E+05  9.464734E+04  3.501334E+04
        58   1 -3.259266E+05 -1.346696E+06 -2.842353E+05  2.536630E+05 -7.975343E+04  1.763458E+04
        58   2 -2.452856E+05 -1.016224E+06 -2.153492E+05  2.010526E+05 -6.277999E+04  2.549333E+04
        58   3 -1.672468E+05 -6.875103E+05 -1.522874E+05  2.527151E+05 -4.294038E+04  3.333190E+04
        58   4 -3.022661E+02  4.566895E+03 -8.476107E+03  2.546328E+05 -7.977273E+04 -9.683491E+02
        58   5  4.389446E+02  5.304787E+03 -8.896545E+03  2.025021E+05 -6.281562E+04  3.458997E+03
        58   6 -8.170494E+02  4.778608E+03 -1.274979E+04  2.546341E+05 -4.299490E+04  7.862151E+03
        58   7  3.252079E+05  1.357569E+06  2.671882E+05  2.556037E+05 -7.979206E+04 -1.961109E+04
        58   8  2.460990E+05  1.027830E+06  1.975041E+05  2.039534E+05 -6.285133E+04 -1.861095E+04
        58   9  1.655834E+05  6.975260E+05  1.267657E+05  2.565549E+05 -4.304955E+04 -1.763548E+04
        58  10 -3.259335E+05 -1.346698E+06 -2.842479E+05  2.536641E+05 -9.710073E-11 -6.129597E-10
        58  11 -2.452900E+05 -1.016226E+06 -2.153578E+05  2.010539E+05  5.221601E-11  5.139486E-09
        58  12 -1.672491E+05 -6.875120E+05 -1.522929E+05  2.527162E+05  1.899280E-09  1.561397E-09
        58  13 -3.090999E+02  4.565185E+03 -8.488067E+03  2.546327E+05 -1.833270E-09 -1.467161E-09
        58  14  4.347041E+02  5.303715E+03 -8.903983E+03  2.025023E+05 -1.658994E-09  1.231751E-11
        58  15 -8.190513E+02  4.778045E+03 -1.275338E+04  2.546344E+05  7.222543E-10 -2.318607E-09
        58  16  3.252010E+05  1.357566E+06  2.671755E+05  2.556024E+05  2.069524E-09  2.829071E-09
        58  17  2.460947E+05  1.027828E+06  1.974960E+05  2.039525E+05  6.215221E-10 -6.566285E-10
        58  18  1.655813E+05  6.975252E+05  1.267616E+05  2.565543E+05 -4.210039E-10 -2.684549E-10
        58  19 -3.259266E+05 -1.346696E+06 -2.842353E+05  2.536630E+05  7.975343E+04 -1.763458E+04
        58  20 -2.452856E+05 -1.016224E+06 -2.153492E+05  2.010526E+05  6.277999E+04 -2.549333E+04
        58  21 -1.672468E+05 -6.875103E+05 -1.522874E+05  2.527151E+05  4.294038E+04 -3.333190E+04
        58  22 -3.022661E+02  4.566895E+03 -8.476107E+03  2.546328E+05  7.977273E+04  9.683491E+02
        58  23  4.389446E+02  5.304787E+03 -8.896545E+03  2.025021E+05  6.281562E+04 -3.458997E+03
        58  24 -8.170494E+02  4.778608E+03 -1.274979E+04  2.546341E+05  4.299490E+04 -7.862151E+03
        58  25  3.252079E+05  1.357569E+06  2.671882E+05  2.556037E+05  7.979206E+04  1.961109E+04
        58  26  2.460990E+05  1.027830E+06  1.975041E+05  2.039534E+05  6.285133E+04  1.861095E+04
        58  27  1.655834E+05  6.975260E+05  1.267657E+05  2.565549E+05  4.304955E+04  1.763548E+04
        59   1 -1.068288E+05 -4.526135E+05 -1.060037E+05  2.593935E+05 -2.982980E+04  3.662918E+04
        59   2 -3.314589E+04 -1.178825E+05 -4.841836E+04  1.922930E+05 -1.161428E+04  4.064209E+04
        59   3  5.407443E+03  2.071552E+05 -2.357383E+03  2.292379E+05 -1.371754E+03  4.466828E+04
        59   4  2.293141E+03  2.569415E+03 -1.555591E+04  2.545652E+05 -2.989165E+04  1.001045E+04
        59   5 -3.366154E+03  8.312771E+03 -2.600663E+04  2.025914E+05 -1.165379E+04  2.358416E+04
        59   6 -4.580795E+04  2.595767E+03 -5.462231E+04  2.546701E+05 -1.388237E+03  3.716910E+04
        59   7  1.114029E+05  4.579520E+05  7.488423E+04  2.497330E+05 -2.995305E+04 -1.662740E+04
        59   8  2.641325E+04  1.345244E+05 -3.594352E+03  2.128919E+05 -1.169387E+04  6.522860E+03
        59   9 -9.702407E+04 -2.019245E+05 -1.068899E+05  2.800940E+05 -1.405338E+03  2.967240E+04
        59  10 -1.068301E+05 -4.526152E+05 -1.060079E+05  2.593944E+05  6.847924E-10  5.385990E-10
        59  11 -3.314648E+04 -1.178843E+05 -4.842172E+04  1.922933E+05  1.370565E-10  5.903480E-09
        59  12  5.406905E+03  2.071531E+05 -2.361135E+03  2.292380E+05  3.420068E-10  2.532799E-10
        59  13  2.292155E+03  2.569067E+03 -1.555778E+04  2.545654E+05 -3.240799E-10 -2.109609E-09
        59  14 -3.366449E+03  8.312137E+03 -2.600793E+04  2.025916E+05 -2.691270E-10 -4.581756E-11
        59  15 -4.580832E+04  2.594283E+03 -5.462491E+04  2.546702E+05 -4.205747E-10 -2.448271E-09
        59  16  1.114019E+05  4.579515E+05  7.488203E+04  2.497326E+05  2.990337E-09  2.552991E-09
        59  17  2.641309E+04  1.345243E+05 -3.594689E+03  2.128920E+05  1.146566E-09 -1.783872E-10
        59  18 -9.702431E+04 -2.019254E+05 -1.068916E+05  2.800940E+05  1.324873E-10  1.108708E-09
        59  19 -1.068288E+05 -4.526135E+05 -1.060037E+05  2.593935E+05  2.982980E+04 -3.662918E+04
        59  20 -3.314589E+04 -1.178825E+05 -4.841836E+04  1.922930E+05  1.161428E+04 -4.064209E+04
        59  21  5.407443E+03  2.071552E+05 -2.357383E+03  2.292379E+05  1.371754E+03 -4.466828E+04
        59  22  2.293141E+03  2.569415E+03 -1.555591E+04  2.545652E+05  2.989165E+04 -1.001045E+04
        59  23 -3.366154E+03  8.312771E+03 -2.600663E+04  2.025914E+05  1.165379E+04 -2.358416E+04
        59  24 -4.580795E+04  2.595767E+03 -5.462231E+04  2.546701E+05  1.388237E+03 -3.716910E+04
        59  25  1.114029E+05  4.579520E+05  7.488423E+04  2.497330E+05  2.995305E+04  1.662740E+04
        59  26  2.641325E+04  1.345244E+05 -3.594352E+03  2.128919E+05  1.169387E+04 -6.522860E+03
        59  27 -9.702407E+04 -2.019245E+05 -1.068899E+05  2.800940E+05  1.405338E+03 -2.967240E+04
        60   1  6.206122E+06  1.363332E+06  1.330932E+06  7.236287E+05  2.825853E+05 -6.925586E+04
        60   2  5.248629E+06  1.077507E+06  9.646360E+05  5.738559E+05  9.929835E+04 -2.111485E+05
        60   3  4.335414E+06  8.479503E+05  7.317681E+05  7.108964E+05 -8.322085E+04 -2.088166E+05
        60   4  7.846691E+05  2.436690E+04  3.466519E+04  7.160318E+05  2.331474E+04 -6.870078E+04
        60   5  7.792004E+05 -2.890282E+03  1.610762E+04  5.725514E+05  1.470446E+04 -2.111529E+05
        60   6  7.872497E+05 -3.787651E+03  1.053617E+04  7.159802E+05  6.578208E+03 -2.089158E+05
        60   7 -4.609897E+06 -1.316684E+06 -1.263424E+06  7.085018E+05 -2.337193E+05 -6.813798E+04
        60   8 -3.671501E+06 -1.084575E+06 -9.335361E+05  5.712544E+05 -6.929378E+04 -2.111573E+05
        60   9 -2.748983E+06 -8.563039E+05 -7.113245E+05  7.210284E+05  9.587625E+04 -2.090138E+05
        60  10  6.206036E+06  1.363305E+06  1.330774E+06  7.236444E+05 -6.646840E-10  1.366623E-10
        60  11  5.248607E+06  1.077456E+06  9.645337E+05  5.738728E+05 -2.291421E-09  7.394756E-11
        60  12  4.335395E+06  8.479016E+05  7.316733E+05  7.108825E+05  7.837175E-11 -1.012984E-09
        60  13  7.846672E+05  2.436168E+04  3.465529E+04  7.160331E+05  6.661782E-11 -2.103731E-10
        60  14  7.791882E+05 -2.938239E+03  1.602338E+04  5.725539E+05 -1.604482E-10 -6.975243E-10
        60  15  7.872379E+05 -3.834550E+03  1.045403E+04  7.159813E+05  2.695990E-09 -1.028622E-09
        60  16 -4.609957E+06 -1.316704E+06 -1.263536E+06  7.084890E+05 -6.163890E-10 -5.723150E-10
        60  17 -3.671518E+06 -1.084624E+06 -9.336290E+05  5.712426E+05  2.110602E-09 -1.576983E-09
        60  18 -2.749005E+06 -8.563533E+05 -7.114241E+05  7.210446E+05  1.147174E-09 -1.009559E-09
        60  19  6.206122E+06  1.363332E+06  1.330932E+06  7.236287E+05 -2.825853E+05  6.925586E+04
        60  20  5.248629E+06  1.077507E+06  9.646360E+05  5.738559E+05 -9.929835E+04  2.111485E+05
        60  21  4.335414E+06  8.479503E+05  7.317681E+05  7.108964E+05  8.322085E+04  2.088166E+05
        60  22  7.846691E+05  2.436690E+04  3.466519E+04  7.160318E+05 -2.331474E+04  6.870078E+04
        60  23  7.792004E+05 -2.890282E+03  1.610762E+04  5.725514E+05 -1.470446E+04  2.111529E+05
        60  24  7.872497E+05 -3.787651E+03  1.053617E+04  7.159802E+05 -6.578208E+03  2.089158E+05
        60  25 -4.609897E+06 -1.316684E+06 -1.263424E+06  7.085018E+05  2.337193E+05  6.813798E+04
        60  26 -3.671501E+06 -1.084575E+06 -9.335361E+05  5.712544E+05  6.929378E+04  2.111573E+05
        60  27 -2.748983E+06 -8.563039E+05 -7.113245E+05  7.210284E+05 -9.587625E+04  2.090138E+05
        61   1  3.658874E+06  6.894640E+05  5.939623E+05  7.178105E+05 -5.053334E+04 -1.679514E+05
        61   2  2.726298E+06  4.654104E+05  3.986137E+05  5.712288E+05 -6.289229E+04 -1.180570E+05
        61   3  1.797969E+06  2.440235E+05  2.121534E+05  7.183372E+05 -7.533593E+04 -6.052670E+04
        61   4  7.855405E+05 -7.529332E+02  8.698544E+03  7.175137E+05  4.986701E+03 -1.679889E+05
        61   5  7.851876E+05 -4.321992E+02  6.519952E+03  5.706397E+05  1.802203E+03 -1.180348E+05
        61   6  7.866708E+05  1.017126E+03  6.902166E+03  7.175137E+05 -1.485026E+03 -6.043066E+04
        61   7 -2.079971E+06 -6.914826E+05 -5.769876E+05  7.172134E+05  6.025565E+04 -1.680266E+05
        61   8 -1.152338E+06 -4.665056E+05 -3.857526E+05  5.700502E+05  6.629898E+04 -1.180126E+05
        61   9 -2.236446E+05 -2.420499E+05 -1.983819E+05  7.166907E+05  7.224811E+04 -6.033468E+04
        61  10  3.658864E+06  6.894330E+05  5.939046E+05  7.178037E+05 -2.289361E-09 -4.859222E-10
        61  11  2.726290E+06  4.653943E+05  3.985802E+05  5.712228E+05  3.335604E-10  1.143041E-09
        61  12  1.797962E+06  2.440181E+05  2.121359E+05  7.183335E+05  3.967491E-09 -7.706982E-10
        61  13  7.855329E+05 -7.832560E+02  8.645441E+03  7.175144E+05  3.214037E-09 -1.304491E-10
        61  14  7.851838E+05 -4.471666E+02  6.493754E+03  5.706399E+05  1.003618E-09  9.732266E-10
        61  15  7.866699E+05  1.013203E+03  6.895297E+03  7.175136E+05  1.778443E-09 -4.376920E-10
        61  16 -2.079983E+06 -6.915140E+05 -5.770476E+05  7.172216E+05  2.130018E-09  7.047918E-12
        61  17 -1.152346E+06 -4.665217E+05 -3.857871E+05  5.700566E+05  5.304156E-10  7.938425E-10
        61  18 -2.236511E+05 -2.420552E+05 -1.983986E+05  7.166942E+05 -3.523838E-09 -2.840849E-10
        61  19  3.658874E+06  6.894640E+05  5.939623E+05  7.178105E+05  5.053334E+04  1.679514E+05
        61  20  2.726298E+06  4.654104E+05  3.986137E+05  5.712288E+05  6.289229E+04  1.180570E+05
        61  21  1.797969E+06  2.440235E+05  2.121534E+05  7.183372E+05  7.533593E+04  6.052670E+04
        61  22  7.855405E+05 -7.529332E+02  8.698544E+03  7.175137E+05 -4.986701E+03  1.679889E+05
        61  23  7.851876E+05 -4.321992E+02  6.519952E+03  5.706397E+05 -1.802203E+03  1.180348E+05
        61  24  7.866708E+05  1.017126E+03  6.902166E+03  7.175137E+05  1.485026E+03  6.043066E+04
        61  25 -2.079971E+06 -6.914826E+05 -5.769876E+05  7.172134E+05 -6.025565E+04  1.680266E+05
        61  26 -1.152338E+06 -4.665056E+05 -3.857526E+05  5.700502E+05 -6.629898E+04  1.180126E+05
        61  27 -2.236446E+05 -2.420499E+05 -1.983819E+05  7.166907E+05 -7.224811E+04  6.033468E+04
        62   1  1.130328E+06  8.306665E+04  7.453128E+04  7.181585E+05 -7.620247E+04 -2.433615E+04
        62   2  2.013136E+05 -1.399180E+05 -1.084973E+05  5.701117E+05 -7.487075E+04  3.390216E+04
        62   3 -7.265552E+05 -3.614812E+05 -2.921122E+05  7.157750E+05 -7.351049E+04  8.646593E+04
        62   4  7.867809E+05  1.057091E+03  7.652396E+03  7.175013E+05 -2.852090E+03 -2.422673E+04
        62   5  7.858654E+05  8.313269E+02  1.099469E+04  5.706539E+05 -8.385897E+03  3.398207E+04
        62   6  7.864378E+05  3.256511E+03  1.851420E+04  7.174977E+05 -1.388920E+04  8.652154E+04
        62   7  4.433583E+05 -8.095664E+04 -5.921191E+04  7.168443E+05  7.045866E+04 -2.411742E+04
        62   8  1.370751E+06  1.415617E+05  1.304852E+05  5.711965E+05  5.816040E+04  3.406204E+04
        62   9  2.301612E+06  3.678522E+05  3.290318E+05  7.192229E+05  4.587494E+04  8.657735E+04
        62  10  1.130322E+06  8.306446E+04  7.451929E+04  7.181570E+05 -2.067308E-08 -1.951060E-09
        62  11  2.013073E+05 -1.399208E+05 -1.085100E+05  5.701137E+05 -5.445671E-10 -1.251889E-09
        62  12 -7.265630E+05 -3.614907E+05 -2.921364E+05  7.157801E+05  2.204895E-08 -4.431521E-10
        62  13  7.867807E+05  1.056459E+03  7.651278E+03  7.175012E+05  1.082341E-09 -1.662488E-09
        62  14  7.858651E+05  8.300672E+02  1.099239E+04  5.706542E+05  1.619296E-09 -1.574060E-09
        62  15  7.864356E+05  3.248416E+03  1.849976E+04  7.174987E+05  6.050494E-09 -6.302971E-10
        62  16  4.433528E+05 -8.095860E+04 -5.922233E+04  7.168457E+05  2.174472E-08 -1.343426E-09
        62  17  1.370747E+06  1.415595E+05  1.304767E+05  5.711949E+05  7.730121E-10 -1.864938E-09
        62  18  2.301608E+06  3.678436E+05  3.290138E+05  7.192197E+05 -1.804955E-08 -7.720227E-10
        62  19  1.130328E+06  8.306665E+04  7.453128E+04  7.181585E+05  7.620247E+04  2.433615E+04
        62  20  2.013136E+05 -1.399180E+05 -1.084973E+05  5.701117E+05  7.487075E+04 -3.390216E+04
        62  21 -7.265552E+05 -3.614812E+05 -2.921122E+05  7.157750E+05  7.351049E+04 -8.646593E+04
        62  22  7.867809E+05  1.057091E+03  7.652396E+03  7.175013E+05  2.852090E+03  2.422673E+04
        62  23  7.858654E+05  8.313269E+02  1.099469E+04  5.706539E+05  8.385897E+03 -3.398207E+04
        62  24  7.864378E+05  3.256511E+03  1.851420E+04  7.174977E+05  1.388920E+04 -8.652154E+04
        62  25  4.433583E+05 -8.095664E+04 -5.921191E+04  7.168443E+05 -7.045866E+04  2.411742E+04
        62  26  1.370751E+06  1.415617E+05  1.304852E+05  5.711965E+05 -5.816040E+04 -3.406204E+04
        62  27  2.301612E+06  3.678522E+05  3.290318E+05  7.192229E+05 -4.587494E+04 -8.657735E+04
        63   1 -1.392562E+06 -5.284217E+05 -4.238252E+05  7.243192E+05 -1.027441E+05  1.261388E+05
        63   2 -2.321096E+06 -7.490664E+05 -6.245620E+05  5.569516E+05  8.878784E+03  1.424234E+05
        63   3 -3.251285E+06 -9.327862E+05 -8.883717E+05  6.780382E+05  1.201651E+05  4.809064E+04
        63   4  7.901580E+05 -2.245537E+03  2.344440E+04  7.162985E+05 -1.721252E+04  1.261855E+05
        63   5  7.789915E+05  4.472060E+03  3.994798E+04  5.721410E+05 -3.797334E+04  1.423688E+05
        63   6  7.883386E+05  7.106076E+04  8.539598E+04  7.163234E+05 -5.890480E+04  4.819247E+04
        63   7  2.977423E+06  5.236357E+05  4.704884E+05  7.082456E+05  6.861495E+04  1.262299E+05
        63   8  3.888141E+06  7.573835E+05  7.039072E+05  5.874036E+05 -8.505634E+04  1.423122E+05
        63   9  4.843003E+06  1.073739E+06  1.058120E+06  7.548539E+05 -2.391392E+05  4.827233E+04
        63  10 -1.392578E+06 -5.284416E+05 -4.238751E+05  7.243297E+05  9.206875E-10 -1.812038E-10
        63  11 -2.321102E+06 -7.490882E+05 -6.246003E+05  5.569506E+05  1.390073E-09 -2.511727E-11
        63  12 -3.251301E+06 -9.327925E+05 -8.884033E+05  6.780335E+05  1.422001E-09 -5.877528E-11
        63  13  7.901534E+05 -2.262725E+03  2.341390E+04  7.163003E+05  6.507312E-09  1.988618E-10
        63  14  7.789845E+05  4.449894E+03  3.990715E+04  5.721453E+05  2.047870E-09  7.907790E-10
        63  15  7.883343E+05  7.105733E+04  8.538509E+04  7.163257E+05 -6.590047E-10  4.852544E-10
        63  16  2.977413E+06  5.236174E+05  4.704497E+05  7.082387E+05  2.251424E-09  4.981566E-10
        63  17  3.888128E+06  7.573598E+05  7.038555E+05  5.874133E+05 -2.009100E-09  1.301717E-09
        63  18  4.842941E+06  1.073722E+06  1.058009E+06  7.548632E+05  1.470944E-11  5.635763E-10
        63  19 -1.392562E+06 -5.284217E+05 -4.238252E+05  7.243192E+05  1.027441E+05 -1.261388E+05
        63  20 -2.321096E+06 -7.490664E+05 -6.245620E+05  5.569516E+05 -8.878784E+03 -1.424234E+05
        63  21 -3.251285E+06 -9.327862E+05 -8.883717E+05  6.780382E+05 -1.201651E+05 -4.809064E+04
        63  22  7.901580E+05 -2.245537E+03  2.344440E+04  7.162985E+05  1.721252E+04 -1.261855E+05
        63  23  7.789915E+05  4.472060E+03  3.994798E+04  5.721410E+05  3.797334E+04 -1.423688E+05
        63  24  7.883386E+05  7.106076E+04  8.539598E+04  7.163234E+05  5.890480E+04 -4.819247E+04
        63  25  2.977423E+06  5.236357E+05  4.704884E+05  7.082456E+05 -6.861495E+04 -1.262299E+05
        63  26  3.888141E+06  7.573835E+05  7.039072E+05  5.874036E+05  8.505634E+04 -1.423122E+05
        63  27  4.843003E+06  1.073739E+06  1.058120E+06  7.548539E+05  2.391392E+05 -4.827233E+04
        64   1 -3.468726E+05 -9.210984E+05 -3.564375E+05  3.994323E+05 -1.052670E+04 -9.959815E+04
        64   2 -1.569429E+05 -4.422068E+05 -1.789591E+05  3.017229E+05 -2.442131E+04 -3.976672E+04
        64   3 -3.419943E+04  1.090200E+04 -5.755028E+04  3.498689E+05 -6.659591E+03  1.998343E+04
        64   4 -7.525815E+04  1.729359E+05 -9.074679E+04  3.602824E+05 -1.035538E+04 -6.369067E+04
        64   5 -4.653651E+03  1.827031E+05 -4.166795E+04  2.871717E+05 -2.442777E+04 -4.177285E+04
        64   6  5.408810E+03  1.731110E+05 -2.225904E+04  3.599261E+05 -6.853530E+03 -1.998239E+04
        64   7  1.962753E+05  1.268070E+06  1.748632E+05  3.210617E+05 -1.018876E+04 -2.771995E+04
        64   8  1.476104E+05  8.079789E+05  9.559953E+04  2.726052E+05 -2.443413E+04 -4.378097E+04
        64   9  4.501652E+04  3.353482E+05  1.303667E+04  3.699859E+05 -7.048736E+03 -5.995851E+04
        64  10 -3.468754E+05 -9.211091E+05 -3.564563E+05  3.994314E+05  1.439665E-10 -2.564926E-09
        64  11 -1.569440E+05 -4.422086E+05 -1.789632E+05  3.017221E+05 -1.551235E-09 -6.823446E-12
        64  12 -3.419959E+04  1.090156E+04 -5.755111E+04  3.498691E+05 -4.909490E-10  2.649130E-09
        64  13 -7.525935E+04  1.729315E+05 -9.075461E+04  3.602818E+05  9.856508E-10 -6.333528E-12
        64  14 -4.654759E+03  1.827010E+05 -4.167235E+04  2.871709E+05 -3.305367E-09  4.907084E-11
        64  15  5.408652E+03  1.731105E+05 -2.225988E+04  3.599260E+05  2.841591E-09  2.498028E-12
        64  16  1.962750E+05  1.268069E+06  1.748616E+05  3.210615E+05 -3.738047E-10  2.582069E-09
        64  17  1.476092E+05  8.079767E+05  9.559481E+04  2.726044E+05 -2.661411E-09  3.348463E-11
        64  18  4.501551E+04  3.353444E+05  1.302983E+04  3.699856E+05 -1.687491E-09 -2.525248E-09
        64  19 -3.468726E+05 -9.210984E+05 -3.564375E+05  3.994323E+05  1.052670E+04  9.959815E+04
        64  20 -1.569429E+05 -4.422068E+05 -1.789591E+05  3.017229E+05  2.442131E+04  3.976672E+04
        64  21 -3.419943E+04  1.090200E+04 -5.755028E+04  3.498689E+05  6.659591E+03 -1.998343E+04
        64  22 -7.525815E+04  1.729359E+05 -9.074679E+04  3.602824E+05  1.035538E+04  6.369067E+04
        64  23 -4.653651E+03  1.827031E+05 -4.166795E+04  2.871717E+05  2.442777E+04  4.177285E+04
        64  24  5.408810E+03  1.731110E+05 -2.225904E+04  3.599261E+05  6.853530E+03  1.998239E+04
        64  25  1.962753E+05  1.268070E+06  1.748632E+05  3.210617E+05  1.018876E+04  2.771995E+04
        64  26  1.476104E+05  8.079789E+05  9.559953E+04  2.726052E+05  2.443413E+04  4.378097E+04
        64  27  4.501652E+04  3.353482E+05  1.303667E+04  3.699859E+05  7.048736E+03  5.995851E+04
        65   1  4.151705E+04  3.503283E+05  1.733780E+04  3.616539E+05  1.249780E+04  1.607817E+04
        65   2  1.559150E+05  8.168499E+05  1.231675E+05  2.890416E+05  3.933441E+04  1.672562E+04
        65   3  2.703192E+05  1.282093E+06  2.281965E+05  3.636215E+05  6.438189E+04  1.739822E+04
        65   4  1.267656E+02  1.770009E+05 -1.628061E+04  3.603026E+05  1.233617E+04 -1.721141E+04
        65   5  2.374640E+03  1.778332E+05 -5.827045E+03  2.866919E+05  3.919304E+04 -1.442397E+04
        65   6  4.270536E+03  1.768130E+05  2.349345E+03  3.602822E+05  6.425924E+04 -1.161188E+04
        65   7 -4.126471E+04  3.704750E+03 -4.989627E+04  3.589517E+05  1.217466E+04 -5.049190E+04
        65   8 -1.511904E+05 -4.607928E+05 -1.348390E+05  2.843442E+05  3.905182E+04 -4.554213E+04
        65   9 -2.618541E+05 -9.273062E+05 -2.235593E+05  3.569475E+05  6.413677E+04 -4.057133E+04
        65  10  4.151681E+04  3.503280E+05  1.733702E+04  3.616537E+05  2.656206E-10 -7.724796E-10
        65  11  1.559132E+05  8.168491E+05  1.231641E+05  2.890411E+05  2.986195E-10 -1.049214E-09
        65  12  2.703146E+05  1.282092E+06  2.281882E+05  3.636206E+05  1.011343E-09 -8.610606E-10
        65  13  1.265225E+02  1.770005E+05 -1.628145E+04  3.603028E+05 -1.992510E-09 -4.496446E-11
        65  14  2.372934E+03  1.778325E+05 -5.830324E+03  2.866924E+05 -1.102162E-09 -2.830228E-11
        65  15  4.266065E+03  1.768117E+05  2.341329E+03  3.602828E+05 -1.707211E-09 -1.983060E-10
        65  16 -4.126555E+04  3.701972E+03 -4.990134E+04  3.589521E+05  5.581251E-10  9.577700E-10
        65  17 -1.511926E+05 -4.607954E+05 -1.348458E+05  2.843456E+05  1.567293E-10  8.593716E-10
        65  18 -2.618590E+05 -9.273091E+05 -2.235701E+05  3.569496E+05  1.297764E-09  4.313198E-10
        65  19  4.151705E+04  3.503283E+05  1.733780E+04  3.616539E+05 -1.249780E+04 -1.607817E+04
        65  20  1.559150E+05  8.168499E+05  1.231675E+05  2.890416E+05 -3.933441E+04 -1.672562E+04
        65  21  2.703192E+05  1.282093E+06  2.281965E+05  3.636215E+05 -6.438189E+04 -1.739822E+04
        65  22  1.267656E+02  1.770009E+05 -1.628061E+04  3.603026E+05 -1.233617E+04  1.721141E+04
        65  23  2.374640E+03  1.778332E+05 -5.827045E+03  2.866919E+05 -3.919304E+04  1.442397E+04
        65  24  4.270536E+03  1.768130E+05  2.349345E+03  3.602822E+05 -6.425924E+04  1.161188E+04
        65  25 -4.126471E+04  3.704750E+03 -4.989627E+04  3.589517E+05 -1.217466E+04  5.049190E+04
        65  26 -1.511904E+05 -4.607928E+05 -1.348390E+05  2.843442E+05 -3.905182E+04  4.554213E+04
        65  27 -2.618541E+05 -9.273062E+05 -2.235593E+05  3.569475E+05 -6.413677E+04  4.057133E+04
        66   1  3.486128E+05  1.621198E+06  3.003133E+05  3.598853E+05  8.469845E+04  3.150984E+04
        66   2  4.657225E+05  2.077513E+06  4.216069E+05  2.998295E+05  8.876508E+04 -5.386586E+04
        66   3  6.240124E+05  2.554972E+06  6.085554E+05  3.836749E+05  2.889408E+04 -1.391222E+05
        66   4  1.622611E+03  1.787509E+05  6.155163E+03  3.595837E+05  8.452384E+04 -1.224911E+04
        66   5  4.458489E+03  1.746434E+05  1.602057E+04  2.875632E+05  8.891256E+04 -2.065757E+04
        66   6  3.521127E+04  1.781991E+05  3.822487E+04  3.594590E+05  2.927828E+04 -2.888003E+04
        66   7 -3.454965E+05 -1.261718E+06 -2.881054E+05  3.592802E+05  8.434904E+04 -5.590844E+04
        66   8 -4.570402E+05 -1.724822E+06 -3.897703E+05  2.753311E+05  8.905900E+04  1.245076E+04
        66   9 -5.539917E+05 -2.193389E+06 -5.324607E+05  3.353303E+05  2.965476E+04  8.094324E+04
        66  10  3.486048E+05  1.621195E+06  3.002980E+05  3.598832E+05  1.471997E-09 -1.754268E-09
        66  11  4.657133E+05  2.077508E+06  4.215867E+05  2.998334E+05 -6.220967E-10 -2.302763E-10
        66  12  6.240063E+05  2.554951E+06  6.085176E+05  3.836782E+05  9.210234E-10  1.042589E-09
        66  13  1.614898E+03  1.787488E+05  6.141452E+03  3.595845E+05 -4.962282E-10 -6.474132E-11
        66  14  4.449884E+03  1.746408E+05  1.600490E+04  2.875647E+05  6.336037E-10  6.953810E-11
        66  15  3.521012E+04  1.781980E+05  3.822169E+04  3.594597E+05 -6.994914E-10 -2.667917E-11
        66  16 -3.455050E+05 -1.261723E+06 -2.881247E+05  3.592840E+05 -1.461169E-10  1.615410E-09
        66  17 -4.570487E+05 -1.724824E+06 -3.897855E+05  2.753302E+05 -1.366459E-10  1.409065E-10
        66  18 -5.539944E+05 -2.193396E+06 -5.324747E+05  3.353283E+05 -1.513031E-09 -1.061094E-09
        66  19  3.486128E+05  1.621198E+06  3.003133E+05  3.598853E+05 -8.469845E+04 -3.150984E+04
        66  20  4.657225E+05  2.077513E+06  4.216069E+05  2.998295E+05 -8.876508E+04  5.386586E+04
        66  21  6.240124E+05  2.554972E+06  6.085554E+05  3.836749E+05 -2.889408E+04  1.391222E+05
        66  22  1.622611E+03  1.787509E+05  6.155163E+03  3.595837E+05 -8.452384E+04  1.224911E+04
        66  23  4.458489E+03  1.746434E+05  1.602057E+04  2.875632E+05 -8.891256E+04  2.065757E+04
        66  24  3.521127E+04  1.781991E+05  3.822487E+04  3.594590E+05 -2.927828E+04  2.888003E+04
        66  25 -3.454965E+05 -1.261718E+06 -2.881054E+05  3.592802E+05 -8.434904E+04  5.590844E+04
        66  26 -4.570402E+05 -1.724822E+06 -3.897703E+05  2.753311E+05 -8.905900E+04 -1.245076E+04
        66  27 -5.539917E+05 -2.193389E+06 -5.324607E+05  3.353303E+05 -2.965476E+04 -8.094324E+04
        67   1  4.598916E+06  9.960367E+05  9.901341E+05  5.818791E+05  2.618169E+05 -4.436216E+04
        67   2  3.897501E+06  7.024587E+05  6.752884E+05  4.389762E+05  1.123283E+05 -1.342120E+05
        67   3  3.246958E+06  5.245315E+05  4.865059E+05  5.042029E+05 -3.682520E+04 -1.288479E+05
        67   4  1.045515E+06  1.177292E+05  1.391962E+05  5.184304E+05  9.551347E+04 -4.424010E+04
        67   5  1.030755E+06  8.832106E+03  6.551064E+04  4.143252E+05  6.117466E+04 -1.342447E+05
        67   6  1.046770E+06 -4.000530E+03  3.849170E+04  5.183584E+05  2.699805E+04 -1.288556E+05
        67   7 -2.496317E+06 -7.614614E+05 -7.125285E+05  4.553424E+05 -6.984869E+04 -4.408422E+04
        67   8 -1.828279E+06 -6.853235E+05 -5.447287E+05  3.897874E+05  1.025212E+04 -1.342735E+05
        67   9 -1.148826E+06 -5.328311E+05 -4.097613E+05  5.324607E+05  9.060008E+04 -1.288604E+05
        67  10  4.598842E+06  9.960164E+05  9.900024E+05  5.818884E+05 -2.894869E-09 -3.172740E-10
        67  11  3.897482E+06  7.024360E+05  6.752309E+05  4.389883E+05 -1.992353E-09 -8.517013E-10
        67  12  3.246952E+06  5.245134E+05  4.864721E+05  5.041991E+05  1.441855E-10 -5.745400E-10
        67  13  1.045504E+06  1.177246E+05  1.391754E+05  5.184338E+05 -6.684964E-11  8.378499E-11
        67  14  1.030747E+06  8.811735E+03  6.546972E+04  4.143318E+05 -6.598156E-10 -8.150995E-10
        67  15  1.046765E+06 -4.018567E+03  3.845910E+04  5.183612E+05  1.126829E-09 -6.482464E-10
        67  16 -2.496323E+06 -7.614648E+05 -7.125413E+05  4.553399E+05 -7.961516E-10 -4.265358E-10
        67  17 -1.828284E+06 -6.853429E+05 -5.447628E+05  3.897885E+05 -2.131430E-10 -9.439872E-10
        67  18 -1.148839E+06 -5.328512E+05 -4.098080E+05  5.324701E+05 -3.019688E-10 -6.752589E-10
        67  19  4.598916E+06  9.960367E+05  9.901341E+05  5.818791E+05 -2.618169E+05  4.436216E+04
        67  20  3.897501E+06  7.024587E+05  6.752884E+05  4.389762E+05 -1.123283E+05  1.342120E+05
        67  21  3.246958E+06  5.245315E+05  4.865059E+05  5.042029E+05  3.682520E+04  1.288479E+05
        67  22  1.045515E+06  1.177292E+05  1.391962E+05  5.184304E+05 -9.551347E+04  4.424010E+04
        67  23  1.030755E+06  8.832106E+03  6.551064E+04  4.143252E+05 -6.117466E+04  1.342447E+05
        67  24  1.046770E+06 -4.000530E+03  3.849170E+04  5.183584E+05 -2.699805E+04  1.288556E+05
        67  25 -2.496317E+06 -7.614614E+05 -7.125285E+05  4.553424E+05  6.984869E+04  4.408422E+04
        67  26 -1.828279E+06 -6.853235E+05 -5.447287E+05  3.897874E+05 -1.025212E+04  1.342735E+05
        67  27 -1.148826E+06 -5.328311E+05 -4.097613E+05  5.324607E+05 -9.060008E+04  1.288604E+05
        68   1  2.753930E+06  4.161719E+05  3.802872E+05  5.214674E+05 -1.964384E+04 -9.960345E+04
        68   2  2.079311E+06  2.499229E+05  2.296088E+05  4.139788E+05 -3.524716E+04 -6.281240E+04
        68   3  1.408745E+06  8.910933E+04  9.042911E+04  5.189141E+05 -5.087492E+04 -2.102938E+04
        68   4  1.040888E+06  4.413139E+03  3.077947E+04  5.193366E+05  2.161998E+04 -9.959420E+04
        68   5  1.039819E+06  3.249350E+02  1.924986E+04  4.131163E+05  1.202733E+04 -6.277709E+04
        68   6  1.041331E+06  6.609714E+02  1.507874E+04  5.193408E+05  2.393823E+03 -2.096268E+04
        68   7 -6.693720E+05 -4.075278E+05 -3.188766E+05  5.172101E+05  6.277237E+04 -9.958520E+04
        68   8  1.356727E+03 -2.493388E+05 -1.911567E+05  4.122547E+05  5.922437E+04 -6.274187E+04
        68   9  6.740503E+05 -8.779433E+04 -6.026818E+04  5.197673E+05  5.563167E+04 -2.089588E+04
        68  10  2.753927E+06  4.161611E+05  3.802678E+05  5.214659E+05 -2.141098E-10 -3.439233E-10
        68  11  2.079309E+06  2.499184E+05  2.295991E+05  4.139771E+05 -1.416047E-09 -2.547242E-10
        68  12  1.408742E+06  8.910816E+04  9.042343E+04  5.189132E+05 -3.454241E-10  3.448966E-10
        68  13  1.040885E+06  4.402354E+03  3.075994E+04  5.193383E+05  9.110385E-13 -4.280551E-12
        68  14  1.039818E+06  3.206616E+02  1.924218E+04  4.131169E+05 -4.372801E-10  5.003107E-10
        68  15  1.041331E+06  6.604977E+02  1.507790E+04  5.193409E+05 -2.339177E-09  2.412784E-10
        68  16 -6.693789E+05 -4.075395E+05 -3.189026E+05  5.172152E+05 -2.625433E-10  1.826914E-10
        68  17  1.351898E+03 -2.493440E+05 -1.911707E+05  4.122577E+05  8.803513E-10  9.661978E-10
        68  18  6.740469E+05 -8.779563E+04 -6.027482E+04  5.197682E+05 -1.853967E-09 -4.504866E-10
        68  19  2.753930E+06  4.161719E+05  3.802872E+05  5.214674E+05  1.964384E+04  9.960345E+04
        68  20  2.079311E+06  2.499229E+05  2.296088E+05  4.139788E+05  3.524716E+04  6.281240E+04
        68  21  1.408745E+06  8.910933E+04  9.042911E+04  5.189141E+05  5.087492E+04  2.102938E+04
        68  22  1.040888E+06  4.413139E+03  3.077947E+04  5.193366E+05 -2.161998E+04  9.959420E+04
        68  23  1.039819E+06  3.249350E+02  1.924986E+04  4.131163E+05 -1.202733E+04  6.277709E+04
        68  24  1.041331E+06  6.609714E+02  1.507874E+04  5.193408E+05 -2.393823E+03  2.096268E+04
        68  25 -6.693720E+05 -4.075278E+05 -3.188766E+05  5.172101E+05 -6.277237E+04  9.958520E+04
        68  26  1.356727E+03 -2.493388E+05 -1.911567E+05  4.122547E+05 -5.922437E+04  6.274187E+04
        68  27  6.740503E+05 -8.779433E+04 -6.026818E+04  5.197673E+05 -5.563167E+04  2.089588E+04
        69   1  9.259574E+05 -2.724098E+04 -9.991595E+03  5.197386E+05 -5.345096E+04  5.147601E+03
        69   2  2.534534E+05 -1.886876E+05 -1.423162E+05  4.123204E+05 -5.653368E+04  4.709944E+04
        69   3 -4.174297E+05 -3.473331E+05 -2.719751E+05  5.173463E+05 -5.958202E+04  8.441791E+04
        69   4  1.041263E+06  7.373974E+02  1.472278E+04  5.193366E+05 -2.884831E+02  5.216162E+03
        69   5  1.040014E+06  4.489260E+02  1.733960E+04  4.131218E+05 -8.966001E+03  4.714252E+04
        69   6  1.040927E+06  3.954545E+03  2.650530E+04  5.193330E+05 -1.761244E+04  8.443968E+04
        69   7  1.156587E+06  2.871642E+04  3.944698E+04  5.189346E+05  5.288371E+04  5.284645E+03
        69   8  1.827168E+06  1.895482E+05  1.769717E+05  4.139238E+05  3.866079E+04  4.718567E+04
        69   9  2.501308E+06  3.551099E+05  3.248795E+05  5.213232E+05  2.445402E+04  8.446166E+04
        69  10  9.259543E+05 -2.724177E+04 -9.997007E+03  5.197388E+05  8.521154E-11  3.950998E-10
        69  11  2.534494E+05 -1.886908E+05 -1.423264E+05  4.123226E+05  2.220740E-09  4.083931E-11
        69  12 -4.174355E+05 -3.473417E+05 -2.719951E+05  5.173503E+05  6.994893E-10 -4.411286E-10
        69  13  1.041263E+06  7.373681E+02  1.472273E+04  5.193366E+05 -2.214902E-09 -4.016004E-10
        69  14  1.040013E+06  4.465164E+02  1.733527E+04  4.131221E+05  2.753783E-09 -1.865516E-10
        69  15  1.040925E+06  3.946800E+03  2.649131E+04  5.193342E+05  2.516980E-09 -7.163679E-10
        69  16  1.156584E+06  2.871564E+04  3.944169E+04  5.189344E+05 -1.031640E-09 -6.603696E-10
        69  17  1.827166E+06  1.895454E+05  1.769647E+05  4.139224E+05 -3.535854E-09 -8.758541E-10
        69  18  2.501305E+06  3.551020E+05  3.248650E+05  5.213216E+05 -1.685043E-09 -8.838480E-10
        69  19  9.259574E+05 -2.724098E+04 -9.991595E+03  5.197386E+05  5.345096E+04 -5.147601E+03
        69  20  2.534534E+05 -1.886876E+05 -1.423162E+05  4.123204E+05  5.653368E+04 -4.709944E+04
        69  21 -4.174297E+05 -3.473331E+05 -2.719751E+05  5.173463E+05  5.958202E+04 -8.441791E+04
        69  22  1.041263E+06  7.373974E+02  1.472278E+04  5.193366E+05  2.884831E+02 -5.216162E+03
        69  23  1.040014E+06  4.489260E+02  1.733960E+04  4.131218E+05  8.966001E+03 -4.714252E+04
        69  24  1.040927E+06  3.954545E+03  2.650530E+04  5.193330E+05  1.761244E+04 -8.443968E+04
        69  25  1.156587E+06  2.871642E+04  3.944698E+04  5.189346E+05 -5.288371E+04 -5.284645E+03
        69  26  1.827168E+06  1.895482E+05  1.769717E+05  4.139238E+05 -3.866079E+04 -4.718567E+04
        69  27  2.501308E+06  3.551099E+05  3.248795E+05  5.213232E+05 -2.445402E+04 -8.446166E+04
        70   1 -8.975772E+05 -4.712288E+05 -3.643519E+05  5.299353E+05 -8.515698E+04  1.134508E+05
        70   2 -1.574871E+06 -6.255498E+05 -5.019366E+05  3.932433E+05 -7.089424E+03  1.214685E+05
        70   3 -2.244387E+06 -7.175857E+05 -6.744657E+05  4.649712E+05  7.077343E+04  4.029009E+04
        70   4  1.045854E+06 -3.120742E+03  3.280840E+04  5.184124E+05 -2.224423E+04  1.134648E+05
        70   5  1.032368E+06  7.538973E+03  5.522701E+04  4.142609E+05 -5.104924E+04  1.214347E+05
        70   6  1.044713E+06  9.891404E+04  1.168943E+05  5.184485E+05 -7.997572E+04  4.038571E+04
        70   7  2.992883E+06  4.647536E+05  4.297841E+05  5.068509E+05  4.086214E+04  1.134764E+05
        70   8  3.646015E+06  6.401870E+05  6.120049E+05  4.353665E+05 -9.519098E+04  1.213980E+05
        70   9  4.343784E+06  9.146491E+05  9.075716E+05  5.722087E+05 -2.315217E+05  4.045533E+04
        70  10 -8.975885E+05 -4.712446E+05 -3.643898E+05  5.299430E+05 -1.471307E-09 -2.362507E-11
        70  11 -1.574875E+06 -6.255657E+05 -5.019644E+05  3.932440E+05 -5.062327E-10  6.295364E-10
        70  12 -2.244393E+06 -7.175887E+05 -6.744781E+05  4.649689E+05  1.849006E-09  4.436082E-10
        70  13  1.045850E+06 -3.134709E+03  3.278325E+04  5.184144E+05  1.052067E-09 -2.179491E-10
        70  14  1.032361E+06  7.522427E+03  5.519438E+04  4.142659E+05  1.509404E-09  8.865898E-10
        70  15  1.044706E+06  9.891057E+04  1.168793E+05  5.184511E+05  2.005927E-09  3.655586E-10
        70  16  2.992878E+06  4.647394E+05  4.297568E+05  5.068471E+05  2.098589E-09 -2.561376E-10
        70  17  3.646001E+06  6.401687E+05  6.119603E+05  4.353757E+05 -4.958552E-10  9.135737E-10
        70  18  4.343726E+06  9.146331E+05  9.074684E+05  5.722163E+05 -1.771967E-09  5.136201E-10
        70  19 -8.975772E+05 -4.712288E+05 -3.643519E+05  5.299353E+05  8.515698E+04 -1.134508E+05
        70  20 -1.574871E+06 -6.255498E+05 -5.019366E+05  3.932433E+05  7.089424E+03 -1.214685E+05
        70  21 -2.244387E+06 -7.175857E+05 -6.744657E+05  4.649712E+05 -7.077343E+04 -4.029009E+04
        70  22  1.045854E+06 -3.120742E+03  3.280840E+04  5.184124E+05  2.224423E+04 -1.134648E+05
        70  23  1.032368E+06  7.538973E+03  5.522701E+04  4.142609E+05  5.104924E+04 -1.214347E+05
        70  24  1.044713E+06  9.891404E+04  1.168943E+05  5.184485E+05  7.997572E+04 -4.038571E+04
        70  25  2.992883E+06  4.647536E+05  4.297841E+05  5.068509E+05 -4.086214E+04 -1.134764E+05
        70  26  3.646015E+06  6.401870E+05  6.120049E+05  4.353665E+05  9.519098E+04 -1.213980E+05
        70  27  4.343784E+06  9.146491E+05  9.075716E+05  5.722087E+05  2.315217E+05 -4.045533E+04
        71   1 -9.475447E+05 -3.589550E+06 -9.414245E+05  7.808786E+05 -3.998425E+04 -2.134523E+05
        71   2 -6.138888E+05 -2.607207E+06 -5.875915E+05  6.037444E+05 -1.120785E+05 -7.288121E+04
        71   3 -3.662922E+05 -1.664743E+06 -3.473312E+05  7.263103E+05 -8.771262E+04  6.766191E+04
        71   4 -8.350978E+04 -1.153203E+05 -1.016410E+05  7.421898E+05 -3.943901E+04 -6.924255E+04
        71   5 -4.755851E+03 -1.043030E+05 -4.818652E+04  5.921876E+05 -1.119236E+05 -4.373467E+04
        71   6  8.242415E+03 -1.138138E+05 -2.794353E+04  7.418574E+05 -8.811108E+04 -1.848110E+04
        71   7  7.796591E+05  3.370034E+06  7.373564E+05  7.032669E+05 -3.891376E+04  7.577589E+04
        71   8  6.039659E+05  2.404506E+06  4.908533E+05  5.805749E+05 -1.117701E+05 -1.447160E+04
        71   9  3.826297E+05  1.439418E+06  2.913429E+05  7.574401E+05 -8.851324E+04 -1.048359E+05
        71  10 -9.475587E+05 -3.589599E+06 -9.415136E+05  7.808717E+05 -8.721769E-10  1.896482E-08
        71  11 -6.139037E+05 -2.607216E+06 -5.876251E+05  6.037378E+05 -2.169601E-09 -3.821419E-10
        71  12 -3.663017E+05 -1.664750E+06 -3.473543E+05  7.263151E+05  1.533082E-09 -2.062223E-08
        71  13 -8.351273E+04 -1.153259E+05 -1.016529E+05  7.421876E+05  3.816452E-10  2.068001E-11
        71  14 -4.769809E+03 -1.043084E+05 -4.821363E+04  5.921837E+05 -9.379943E-10 -2.947050E-11
        71  15  8.233989E+03 -1.138162E+05 -2.795875E+04  7.418560E+05 -1.982753E-09  7.836210E-11
        71  16  7.796559E+05  3.370028E+06  7.373428E+05  7.032693E+05  8.586816E-11 -1.896647E-08
        71  17  6.039524E+05  2.404503E+06  4.908295E+05  5.805736E+05 -5.202380E-10 -2.049433E-10
        71  18  3.826184E+05  1.439404E+06  2.913077E+05  7.574327E+05  1.465358E-09  2.012264E-08
        71  19 -9.475447E+05 -3.589550E+06 -9.414245E+05  7.808786E+05  3.998425E+04  2.134523E+05
        71  20 -6.138888E+05 -2.607207E+06 -5.875915E+05  6.037444E+05  1.120785E+05  7.288121E+04
        71  21 -3.662922E+05 -1.664743E+06 -3.473312E+05  7.263103E+05  8.771262E+04 -6.766191E+04
        71  22 -8.350978E+04 -1.153203E+05 -1.016410E+05  7.421898E+05  3.943901E+04  6.924255E+04
        71  23 -4.755851E+03 -1.043030E+05 -4.818652E+04  5.921876E+05  1.119236E+05  4.373467E+04
        71  24  8.242415E+03 -1.138138E+05 -2.794353E+04  7.418574E+05  8.811108E+04  1.848110E+04
        71  25  7.796591E+05  3.370034E+06  7.373564E+05  7.032669E+05  3.891376E+04 -7.577589E+04
        71  26  6.039659E+05  2.404506E+06  4.908533E+05  5.805749E+05  1.117701E+05  1.447160E+04
        71  27  3.826297E+05  1.439418E+06  2.913429E+05  7.574401E+05  8.851324E+04  1.048359E+05
        72   1 -2.039796E+05 -9.665353E+05 -1.998941E+05  7.414825E+05 -4.707055E+04  4.984031E+04
        72   2  3.043042E+04 -1.997723E+03  6.849160E+03  5.912319E+05  6.779100E+03  5.654642E+04
        72   3  2.631371E+05  9.594270E+05  2.080152E+05  7.454099E+05  6.033118E+04  6.326980E+04
        72   4  2.944112E+03 -1.098069E+05 -2.254544E+04  7.429819E+05 -4.739037E+04 -1.487892E+04
        72   5  4.987929E+03 -1.078139E+05 -1.453110E+04  5.907607E+05  6.465685E+03 -7.853401E+03
        72   6  5.325974E+03 -1.098706E+05 -1.229006E+04  7.429697E+05  6.002129E+04 -8.208027E+02
        72   7  2.098236E+05  7.476269E+05  1.547791E+05  7.444821E+05 -4.771022E+04 -7.968601E+04
        72   8 -2.045303E+04 -2.136105E+05 -3.589634E+04  5.902895E+05  6.152336E+03 -7.224245E+04
        72   9 -2.525551E+05 -1.178076E+06 -2.326414E+05  7.405319E+05  5.971157E+04 -6.480309E+04
        72  10 -2.039827E+05 -9.665385E+05 -1.999029E+05  7.414844E+05  1.170874E-09 -8.301114E-10
        72  11  3.042951E+04 -2.001168E+03  6.843066E+03  5.912316E+05  1.088249E-09 -1.009291E-09
        72  12  2.631322E+05  9.594217E+05  2.080008E+05  7.454068E+05  1.227028E-09 -1.853190E-09
        72  13  2.941642E+03 -1.098078E+05 -2.255008E+04  7.429813E+05 -1.098391E-09 -3.173207E-11
        72  14  4.987867E+03 -1.078140E+05 -1.453129E+04  5.907607E+05  2.914401E-09 -8.407305E-11
        72  15  5.322105E+03 -1.098716E+05 -1.229683E+04  7.429697E+05  2.143896E-09  1.685905E-10
        72  16  2.098194E+05  7.476195E+05  1.547629E+05  7.444791E+05  1.988544E-09  1.108319E-09
        72  17 -2.045447E+04 -2.136161E+05 -3.590622E+04  5.902899E+05  2.278991E-09  4.838761E-10
        72  18 -2.525601E+05 -1.178081E+06 -2.326560E+05  7.405350E+05  3.133602E-09  1.187714E-09
        72  19 -2.039796E+05 -9.665353E+05 -1.998941E+05  7.414825E+05  4.707055E+04 -4.984031E+04
        72  20  3.043042E+04 -1.997723E+03  6.849160E+03  5.912319E+05 -6.779100E+03 -5.654642E+04
        72  21  2.631371E+05  9.594270E+05  2.080152E+05  7.454099E+05 -6.033118E+04 -6.326980E+04
        72  22  2.944112E+03 -1.098069E+05 -2.254544E+04  7.429819E+05  4.739037E+04  1.487892E+04
        72  23  4.987929E+03 -1.078139E+05 -1.453110E+04  5.907607E+05 -6.465685E+03  7.853401E+03
        72  24  5.325974E+03 -1.098706E+05 -1.229006E+04  7.429697E+05 -6.002129E+04  8.208027E+02
        72  25  2.098236E+05  7.476269E+05  1.547791E+05  7.444821E+05  4.771022E+04  7.968601E+04
        72  26 -2.045303E+04 -2.136105E+05 -3.589634E+04  5.902895E+05 -6.152336E+03  7.224245E+04
        72  27 -2.525551E+05 -1.178076E+06 -2.326414E+05  7.405319E+05 -5.971157E+04  6.480309E+04
        73   1  4.315450E+05  1.654764E+06  3.498422E+05  7.504519E+05  1.013018E+05  8.786536E+04
        73   2  6.604235E+05  2.611978E+06  5.670361E+05  5.939567E+05  1.223213E+05 -2.565593E+04
        73   3  8.932629E+05  3.585309E+06  8.587090E+05  7.366668E+05  4.190706E+04 -1.391052E+05
        73   4  6.301961E+03 -1.106836E+05 -1.231399E+04  7.418135E+05  1.009107E+05  9.083901E+02
        73   5  4.735361E+02 -1.085590E+05 -1.642589E+04  5.922144E+05  1.224996E+05  9.503660E+03
        73   6 -2.250888E+04 -1.123123E+05 -3.067976E+04  7.419099E+05  4.245087E+04  1.834796E+04
        73   7 -4.191327E+05 -1.873160E+06 -3.746080E+05  7.331950E+05  1.005214E+05 -8.580623E+04
        73   8 -6.599601E+05 -2.822151E+06 -6.003150E+05  5.904701E+05  1.226783E+05  4.451177E+04
        73   9 -9.392616E+05 -3.797414E+06 -9.209494E+05  7.471046E+05  4.299940E+04  1.748706E+05
        73  10  4.315319E+05  1.654753E+06  3.498085E+05  7.504448E+05  2.029291E-09 -2.433160E-09
        73  11  6.604073E+05  2.611973E+06  5.670067E+05  5.939592E+05 -2.034586E-10 -1.514512E-09
        73  12  8.932558E+05  3.585288E+06  8.586695E+05  7.366715E+05 -7.003453E-10 -7.626672E-10
        73  13  6.291026E+03 -1.106863E+05 -1.233313E+04  7.418134E+05  3.280113E-09 -2.869656E-11
        73  14  4.574002E+02 -1.085632E+05 -1.645425E+04  5.922135E+05  2.908714E-09 -1.624464E-11
        73  15 -2.251090E+04 -1.123132E+05 -3.068378E+04  7.419093E+05  2.682948E-10  8.237205E-11
        73  16 -4.191455E+05 -1.873171E+06 -3.746410E+05  7.332020E+05  2.052131E-09  2.590952E-09
        73  17 -6.599767E+05 -2.822157E+06 -6.003470E+05  5.904657E+05  1.617167E-09  1.017735E-09
        73  18 -9.392719E+05 -3.797448E+06 -9.210107E+05  7.470986E+05  2.416863E-10  5.282651E-10
        73  19  4.315450E+05  1.654764E+06  3.498422E+05  7.504519E+05 -1.013018E+05 -8.786536E+04
        73  20  6.604235E+05  2.611978E+06  5.670361E+05  5.939567E+05 -1.223213E+05  2.565593E+04
        73  21  8.932629E+05  3.585309E+06  8.587090E+05  7.366668E+05 -4.190706E+04  1.391052E+05
        73  22  6.301961E+03 -1.106836E+05 -1.231399E+04  7.418135E+05 -1.009107E+05 -9.083901E+02
        73  23  4.735361E+02 -1.085590E+05 -1.642589E+04  5.922144E+05 -1.224996E+05 -9.503660E+03
        73  24 -2.250888E+04 -1.123123E+05 -3.067976E+04  7.419099E+05 -4.245087E+04 -1.834796E+04
        73  25 -4.191327E+05 -1.873160E+06 -3.746080E+05  7.331950E+05 -1.005214E+05  8.580623E+04
        73  26 -6.599601E+05 -2.822151E+06 -6.003150E+05  5.904701E+05 -1.226783E+05 -4.451177E+04
        73  27 -9.392616E+05 -3.797414E+06 -9.209494E+05  7.471046E+05 -4.299940E+04 -1.748706E+05
        74   1  4.067247E+06  8.438951E+05  8.397958E+05  4.943924E+05  2.251039E+05 -3.721183E+04
        74   2  3.475538E+06  5.905400E+05  5.707726E+05  3.715981E+05  9.753938E+04 -1.126123E+05
        74   3  2.927803E+06  4.396009E+05  4.102545E+05  4.242498E+05 -2.978378E+04 -1.079830E+05
        74   4  1.082894E+06  1.059967E+05  1.248932E+05  4.370205E+05  8.559776E+04 -3.712735E+04
        74   5  1.069789E+06  8.309418E+03  5.890010E+04  3.492685E+05  5.473200E+04 -1.126356E+05
        74   6  1.083796E+06 -3.449999E+03  3.468520E+04  4.369659E+05  2.398144E+04 -1.079884E+05
        74   7 -1.893294E+06 -6.325231E+05 -5.905646E+05  3.799230E+05 -5.324464E+04 -3.701722E+04
        74   8 -1.330529E+06 -5.742936E+05 -4.532976E+05  3.270254E+05  1.208701E+04 -1.126559E+05
        74   9 -7.569844E+05 -4.467106E+05 -3.410518E+05  4.496423E+05  7.759043E+04 -1.079917E+05
        74  10  4.067192E+06  8.438801E+05  8.396985E+05  4.943991E+05  1.713612E-09 -6.491959E-10
        74  11  3.475525E+06  5.905238E+05  5.707310E+05  3.716069E+05 -1.840142E-09 -9.710846E-10
        74  12  2.927799E+06  4.395882E+05  4.102310E+05  4.242472E+05 -1.031752E-09 -3.706850E-10
        74  13  1.082886E+06  1.059933E+05  1.248768E+05  4.370231E+05 -1.213880E-10 -1.869546E-10
        74  14  1.069782E+06  8.294981E+03  5.887061E+04  3.492735E+05 -5.915579E-11 -1.270810E-09
        74  15  1.083792E+06 -3.462684E+03  3.466218E+04  4.369680E+05  1.158015E-09 -3.243327E-10
        74  16 -1.893297E+06 -6.325254E+05 -5.905725E+05  3.799215E+05 -1.550143E-09 -1.080448E-09
        74  17 -1.330532E+06 -5.743072E+05 -4.533218E+05  3.270265E+05  3.589432E-09 -1.197962E-09
        74  18 -7.569940E+05 -4.467247E+05 -3.410851E+05  4.496490E+05  3.011222E-09 -2.165985E-10
        74  19  4.067247E+06  8.438951E+05  8.397958E+05  4.943924E+05 -2.251039E+05  3.721183E+04
        74  20  3.475538E+06  5.905400E+05  5.707726E+05  3.715981E+05 -9.753938E+04  1.126123E+05
        74  21  2.927803E+06  4.396009E+05  4.102545E+05  4.242498E+05  2.978378E+04  1.079830E+05
        74  22  1.082894E+06  1.059967E+05  1.248932E+05  4.370205E+05 -8.559776E+04  3.712735E+04
        74  23  1.069789E+06  8.309418E+03  5.890010E+04  3.492685E+05 -5.473200E+04  1.126356E+05
        74  24  1.083796E+06 -3.449999E+03  3.468520E+04  4.369659E+05 -2.398144E+04  1.079884E+05
        74  25 -1.893294E+06 -6.325231E+05 -5.905646E+05  3.799230E+05  5.324464E+04  3.701722E+04
        74  26 -1.330529E+06 -5.742936E+05 -4.532976E+05  3.270254E+05 -1.208701E+04  1.126559E+05
        74  27 -7.569844E+05 -4.467106E+05 -3.410518E+05  4.496423E+05 -7.759043E+04  1.079917E+05
        75   1  2.512022E+06  3.486119E+05  3.203688E+05  4.396196E+05 -1.568252E+04 -8.333788E+04
        75   2  1.943374E+06  2.081465E+05  1.929480E+05  3.489554E+05 -2.955683E+04 -5.230054E+04
        75   3  1.378194E+06  7.250219E+04  7.574570E+04  4.373696E+05 -4.344785E+04 -1.707049E+04
        75   4  1.078551E+06  4.006831E+03  2.785000E+04  4.377917E+05  1.913158E+04 -8.333128E+04
        75   5  1.077556E+06  2.348253E+02  1.771134E+04  3.482468E+05  1.030568E+04 -5.227566E+04
        75   6  1.078863E+06  4.350110E+02  1.431519E+04  4.377948E+05  1.450912E+03 -1.702357E+04
        75   7 -3.529704E+05 -3.407258E+05 -2.647726E+05  4.359671E+05  5.386699E+04 -8.332488E+04
        75   8  2.124524E+05 -2.077225E+05 -1.575582E+05  3.475388E+05  5.011378E+04 -5.225083E+04
        75   9  7.796216E+05 -7.163671E+04 -4.711254E+04  4.382199E+05  4.632845E+04 -1.697658E+04
        75  10  2.512019E+06  3.486044E+05  3.203553E+05  4.396185E+05 -5.573284E-10 -9.476900E-11
        75  11  1.943373E+06  2.081433E+05  1.929412E+05  3.489542E+05 -5.161484E-11 -2.536832E-10
        75  12  1.378192E+06  7.250137E+04  7.574162E+04  4.373690E+05  1.027628E-09 -5.565158E-10
        75  13  1.078549E+06  3.999271E+03  2.783625E+04  4.377930E+05 -1.854879E-10  1.714808E-10
        75  14  1.077555E+06  2.318604E+02  1.770600E+04  3.482472E+05  1.471578E-09  8.601685E-10
        75  15  1.078863E+06  4.346991E+02  1.431464E+04  4.377949E+05 -1.147046E-09  1.242458E-10
        75  16 -3.529754E+05 -3.407341E+05 -2.647911E+05  4.359708E+05 -4.876633E-10  6.840360E-10
        75  17  2.124490E+05 -2.077261E+05 -1.575681E+05  3.475409E+05 -1.195484E-09  9.871341E-10
        75  18  7.796192E+05 -7.163759E+04 -4.711712E+04  4.382205E+05 -1.823245E-10  8.631247E-10
        75  19  2.512022E+06  3.486119E+05  3.203688E+05  4.396196E+05  1.568252E+04  8.333788E+04
        75  20  1.943374E+06  2.081465E+05  1.929480E+05  3.489554E+05  2.955683E+04  5.230054E+04
        75  21  1.378194E+06  7.250219E+04  7.574570E+04  4.373696E+05  4.344785E+04  1.707049E+04
        75  22  1.078551E+06  4.006831E+03  2.785000E+04  4.377917E+05 -1.913158E+04  8.333128E+04
        75  23  1.077556E+06  2.348253E+02  1.771134E+04  3.482468E+05 -1.030568E+04  5.227566E+04
        75  24  1.078863E+06  4.350110E+02  1.431519E+04  4.377948E+05 -1.450912E+03  1.702357E+04
        75  25 -3.529704E+05 -3.407258E+05 -2.647726E+05  4.359671E+05 -5.386699E+04  8.332488E+04
        75  26  2.124524E+05 -2.077225E+05 -1.575582E+05  3.475388E+05 -5.011378E+04  5.225083E+04
        75  27  7.796216E+05 -7.163671E+04 -4.711254E+04  4.382199E+05 -4.632845E+04  1.697658E+04
        76   1  9.712936E+05 -2.561164E+04 -8.655306E+03  4.382981E+05 -4.592670E+04  4.995390E+03
        76   2  4.041907E+05 -1.615852E+05 -1.192366E+05  3.475775E+05 -4.990871E+04  4.035068E+04
        76   3 -1.612456E+05 -2.945115E+05 -2.264895E+05  4.359422E+05 -5.386476E+04  7.178590E+04
        76   4  1.078851E+06  4.573586E+02  1.425830E+04  4.377903E+05 -1.108255E+03  5.043519E+03
        76   5  1.077642E+06  3.315984E+02  1.742872E+04  3.482525E+05 -9.821920E+03  4.038054E+04
        76   6  1.078607E+06  4.087117E+03  2.720770E+04  4.377870E+05 -1.851313E+04  7.180047E+04
        76   7  1.186423E+06  2.652668E+04  3.717879E+04  4.372824E+05  4.371783E+04  5.091568E+03
        76   8  1.751528E+06  1.622211E+05  1.540765E+05  3.489281E+05  3.030751E+04  4.041045E+04
        76   9  2.319922E+06  3.025902E+05  2.808281E+05  4.396347E+05  1.690784E+04  7.181522E+04
        76  10  9.712913E+05 -2.561223E+04 -8.659311E+03  4.382983E+05  8.243842E-10  1.193534E-10
        76  11  4.041876E+05 -1.615877E+05 -1.192444E+05  3.475791E+05 -2.142347E-09  2.534626E-10
        76  12 -1.612501E+05 -2.945179E+05 -2.265046E+05  4.359453E+05  1.074942E-09 -1.548586E-10
        76  13  1.078851E+06  4.573310E+02  1.425825E+04  4.377903E+05 -2.205436E-09  1.823166E-10
        76  14  1.077642E+06  3.298204E+02  1.742547E+04  3.482528E+05 -2.640956E-10 -2.656906E-10
        76  15  1.078605E+06  4.081485E+03  2.719736E+04  4.377880E+05  1.649641E-10 -6.689281E-10
        76  16  1.186421E+06  2.652614E+04  3.717515E+04  4.372822E+05  8.736809E-10  3.659121E-10
        76  17  1.751527E+06  1.622191E+05  1.540717E+05  3.489271E+05 -3.426648E-10  1.673869E-10
        76  18  2.319920E+06  3.025845E+05  2.808179E+05  4.396338E+05  2.838357E-10 -3.367901E-10
        76  19  9.712936E+05 -2.561164E+04 -8.655306E+03  4.382981E+05  4.592670E+04 -4.995390E+03
        76  20  4.041907E+05 -1.615852E+05 -1.192366E+05  3.475775E+05  4.990871E+04 -4.035068E+04
        76  21 -1.612456E+05 -2.945115E+05 -2.264895E+05  4.359422E+05  5.386476E+04 -7.178590E+04
        76  22  1.078851E+06  4.573586E+02  1.425830E+04  4.377903E+05  1.108255E+03 -5.043519E+03
        76  23  1.077642E+06  3.315984E+02  1.742872E+04  3.482525E+05  9.821920E+03 -4.038054E+04
        76  24  1.078607E+06  4.087117E+03  2.720770E+04  4.377870E+05  1.851313E+04 -7.180047E+04
        76  25  1.186423E+06  2.652668E+04  3.717879E+04  4.372824E+05 -4.371783E+04 -5.091568E+03
        76  26  1.751528E+06  1.622211E+05  1.540765E+05  3.489281E+05 -3.030751E+04 -4.041045E+04
        76  27  2.319922E+06  3.025902E+05  2.808281E+05  4.396347E+05 -1.690784E+04 -7.181522E+04
        77   1 -5.651821E+05 -4.002071E+05 -3.030475E+05  4.491693E+05 -7.632703E+04  9.626811E+04
        77   2 -1.138471E+06 -5.278133E+05 -4.144593E+05  3.272136E+05 -1.585159E+04  1.029142E+05
        77   3 -1.700919E+06 -5.874580E+05 -5.480101E+05  3.809653E+05  4.448104E+04  3.413279E+04
        77   4  1.083699E+06 -3.138010E+03  3.382377E+04  4.370138E+05 -2.325130E+04  9.627710E+04
        77   5  1.070207E+06  8.336470E+03  5.736560E+04  3.492087E+05 -5.321030E+04  1.028903E+05
        77   6  1.082866E+06  1.033450E+05  1.215172E+05  4.370476E+05 -8.325739E+04  3.420391E+04
        77   7  2.735169E+06  3.937631E+05  3.705621E+05  4.248241E+05  2.996296E+04  9.628397E+04
        77   8  3.283483E+06  5.441708E+05  5.289140E+05  3.712824E+05 -9.069989E+04  1.028640E+05
        77   9  3.873791E+06  7.936049E+05  7.905565E+05  4.933815E+05 -2.115669E+05  3.425192E+04
        77  10 -5.651909E+05 -4.002186E+05 -3.030759E+05  4.491753E+05  1.751799E-09 -6.698326E-10
        77  11 -1.138474E+06 -5.278248E+05 -4.144797E+05  3.272149E+05 -2.623225E-09 -5.486314E-10
        77  12 -1.700921E+06 -5.874598E+05 -5.480160E+05  3.809641E+05 -8.396496E-11 -4.324976E-10
        77  13  1.083696E+06 -3.148116E+03  3.380532E+04  4.370156E+05  1.268117E-09 -3.423456E-10
        77  14  1.070201E+06  8.324334E+03  5.734037E+04  3.492131E+05 -7.831087E-10  1.215783E-10
        77  15  1.082858E+06  1.033419E+05  1.215020E+05  4.370499E+05  4.948480E-10 -1.937110E-10
        77  16  2.735166E+06  3.937529E+05  3.705430E+05  4.248218E+05  2.018777E-10 -3.637510E-10
        77  17  3.283471E+06  5.441572E+05  5.288787E+05  3.712899E+05  1.507795E-10  5.028039E-10
        77  18  3.873743E+06  7.935917E+05  7.904707E+05  4.933873E+05  6.567835E-10  7.675557E-12
        77  19 -5.651821E+05 -4.002071E+05 -3.030475E+05  4.491693E+05  7.632703E+04 -9.626811E+04
        77  20 -1.138471E+06 -5.278133E+05 -4.144593E+05  3.272136E+05  1.585159E+04 -1.029142E+05
        77  21 -1.700919E+06 -5.874580E+05 -5.480101E+05  3.809653E+05 -4.448104E+04 -3.413279E+04
        77  22  1.083699E+06 -3.138010E+03  3.382377E+04  4.370138E+05  2.325130E+04 -9.627710E+04
        77  23  1.070207E+06  8.336470E+03  5.736560E+04  3.492087E+05  5.321030E+04 -1.028903E+05
        77  24  1.082866E+06  1.033450E+05  1.215172E+05  4.370476E+05  8.325739E+04 -3.420391E+04
        77  25  2.735169E+06  3.937631E+05  3.705621E+05  4.248241E+05 -2.996296E+04 -9.628397E+04
        77  26  3.283483E+06  5.441708E+05  5.289140E+05  3.712824E+05  9.069989E+04 -1.028640E+05
        77  27  3.873791E+06  7.936049E+05  7.905565E+05  4.933815E+05  2.115669E+05 -3.425192E+04
        78   1 -9.339777E+05 -3.448546E+06 -9.302495E+05  7.492438E+05 -3.889325E+04 -2.215193E+05
        78   2 -6.003086E+05 -2.518221E+06 -5.819477E+05  5.751172E+05 -1.097105E+05 -8.068104E+04
        78   3 -3.642557E+05 -1.630506E+06 -3.502138E+05  6.839230E+05 -8.750388E+04  6.016019E+04
        78   4 -9.919170E+04 -9.129126E+04 -1.190495E+05  7.010548E+05 -3.841554E+04 -8.096215E+04
        78   5 -6.725185E+03 -7.866271E+04 -5.659773E+04  5.594229E+05 -1.095669E+05 -5.108846E+04
        78   6  7.726008E+03 -8.990515E+04 -3.320854E+04  7.007073E+05 -8.784456E+04 -2.142699E+04
        78   7  7.347898E+05  3.276354E+06  6.914186E+05  6.525896E+05 -3.796142E+04  6.035664E+04
        78   8  5.864684E+05  2.366506E+06  4.684062E+05  5.436586E+05 -1.094251E+05 -2.138056E+04
        78   9  3.795624E+05  1.452967E+06  2.836945E+05  7.175305E+05 -8.818912E+04 -1.032134E+05
        78  10 -9.339926E+05 -3.448599E+06 -9.303450E+05  7.492369E+05 -7.033440E-10 -2.824827E-09
        78  11 -6.003232E+05 -2.518231E+06 -5.819825E+05  5.751100E+05 -7.952183E-10 -5.617343E-10
        78  12 -3.642649E+05 -1.630512E+06 -3.502350E+05  6.839273E+05  2.472334E-09  4.061880E-09
        78  13 -9.919504E+04 -9.129869E+04 -1.190646E+05  7.010523E+05 -3.687041E-09  1.063861E-09
        78  14 -6.738769E+03 -7.866873E+04 -5.662517E+04  5.594184E+05  3.732816E-11 -5.344052E-11
        78  15  7.717602E+03 -8.990771E+04 -3.322390E+04  7.007058E+05 -1.873680E-09  3.613560E-10
        78  16  7.347873E+05  3.276350E+06  6.914091E+05  6.525914E+05 -1.337553E-10  3.057447E-09
        78  17  5.864554E+05  2.366503E+06  4.683829E+05  5.436567E+05 -3.945536E-09 -5.846562E-10
        78  18  3.795512E+05  1.452954E+06  2.836600E+05  7.175231E+05 -1.759177E-09 -3.683476E-09
        78  19 -9.339777E+05 -3.448546E+06 -9.302495E+05  7.492438E+05  3.889325E+04  2.215193E+05
        78  20 -6.003086E+05 -2.518221E+06 -5.819477E+05  5.751172E+05  1.097105E+05  8.068104E+04
        78  21 -3.642557E+05 -1.630506E+06 -3.502138E+05  6.839230E+05  8.750388E+04 -6.016019E+04
        78  22 -9.919170E+04 -9.129126E+04 -1.190495E+05  7.010548E+05  3.841554E+04  8.096215E+04
        78  23 -6.725185E+03 -7.866271E+04 -5.659773E+04  5.594229E+05  1.095669E+05  5.108846E+04
        78  24  7.726008E+03 -8.990515E+04 -3.320854E+04  7.007073E+05  8.784456E+04  2.142699E+04
        78  25  7.347898E+05  3.276354E+06  6.914186E+05  6.525896E+05  3.796142E+04 -6.035664E+04
        78  26  5.864684E+05  2.366506E+06  4.684062E+05  5.436586E+05  1.094251E+05  2.138056E+04
        78  27  3.795624E+05  1.452967E+06  2.836945E+05  7.175305E+05  8.818912E+04  1.032134E+05
        79   1 -2.122314E+05 -9.701438E+05 -2.099177E+05  7.007521E+05 -4.904633E+04  4.383777E+04
        79   2  1.003981E+04 -5.901910E+04 -1.317952E+04  5.582399E+05  1.714455E+03  5.260402E+04
        79   3  2.293084E+05  8.486947E+05  1.764241E+05  7.032365E+05  5.240650E+04  6.138434E+04
        79   4  1.442001E+03 -8.520669E+04 -2.701875E+04  7.017979E+05 -4.931978E+04 -1.703239E+04
        79   5  4.245897E+03 -8.311097E+04 -1.805145E+04  5.580374E+05  1.443348E+03 -8.214526E+03
        79   6  4.086265E+03 -8.522026E+04 -1.622935E+04  7.017858E+05  5.213520E+04  6.049031E+02
        79   7  2.150678E+05  8.004817E+05  1.558518E+05  7.028439E+05 -4.959319E+04 -7.798790E+04
        79   8 -1.546068E+03 -1.071943E+05 -2.290949E+04  5.578348E+05  1.172274E+03 -6.903076E+04
        79   9 -2.211890E+05 -1.018301E+06 -2.089160E+05  7.003360E+05  5.186392E+04 -6.008479E+04
        79  10 -2.122345E+05 -9.701465E+05 -2.099258E+05  7.007539E+05  1.084553E-09 -1.697413E-10
        79  11  1.003907E+04 -5.902207E+04 -1.318473E+04  5.582398E+05 -3.066257E-09 -1.099339E-09
        79  12  2.293045E+05  8.486899E+05  1.764119E+05  7.032339E+05  3.622435E-10  1.274452E-09
        79  13  1.439312E+03 -8.520765E+04 -2.702386E+04  7.017972E+05 -1.069297E-09  1.803649E-09
        79  14  4.245877E+03 -8.311104E+04 -1.805158E+04  5.580374E+05 -3.603207E-09 -1.473801E-11
        79  15  4.083346E+03 -8.522099E+04 -1.623446E+04  7.017857E+05  2.223322E-11  4.355131E-10
        79  16  2.150636E+05  8.004745E+05  1.558357E+05  7.028408E+05 -1.328509E-09  7.687200E-10
        79  17 -1.547349E+03 -1.071995E+05 -2.291845E+04  5.578349E+05 -4.271233E-09 -3.914671E-10
        79  18 -2.211929E+05 -1.018305E+06 -2.089279E+05  7.003385E+05 -8.536948E-10 -1.171768E-09
        79  19 -2.122314E+05 -9.701438E+05 -2.099177E+05  7.007521E+05  4.904633E+04 -4.383777E+04
        79  20  1.003981E+04 -5.901910E+04 -1.317952E+04  5.582399E+05 -1.714455E+03 -5.260402E+04
        79  21  2.293084E+05  8.486947E+05  1.764241E+05  7.032365E+05 -5.240650E+04 -6.138434E+04
        79  22  1.442001E+03 -8.520669E+04 -2.701875E+04  7.017979E+05  4.931978E+04  1.703239E+04
        79  23  4.245897E+03 -8.311097E+04 -1.805145E+04  5.580374E+05 -1.443348E+03  8.214526E+03
        79  24  4.086265E+03 -8.522026E+04 -1.622935E+04  7.017858E+05 -5.213520E+04 -6.049031E+02
        79  25  2.150678E+05  8.004817E+05  1.558518E+05  7.028439E+05  4.959319E+04  7.798790E+04
        79  26 -1.546068E+03 -1.071943E+05 -2.290949E+04  5.578348E+05 -1.172274E+03  6.903076E+04
        79  27 -2.211890E+05 -1.018301E+06 -2.089160E+05  7.003360E+05 -5.186392E+04  6.008479E+04
        80   1  3.892413E+05  1.504633E+06  3.098765E+05  7.097528E+05  9.103104E+04  8.492636E+04
        80   2  6.040061E+05  2.410394E+06  5.119406E+05  5.573792E+05  1.117195E+05 -1.596107E+04
        80   3  8.113074E+05  3.327733E+06  7.774580E+05  6.877056E+05  3.851286E+04 -1.167852E+05
        80   4  5.883033E+03 -8.657638E+04 -1.678108E+04  7.007143E+05  9.069013E+04  3.030488E+03
        80   5 -9.246889E+02 -8.289742E+04 -2.317664E+04  5.593859E+05  1.118657E+05  1.514039E+04
        80   6 -3.476346E+04 -8.798686E+04 -4.444758E+04  7.008420E+05  3.897177E+04  2.746131E+04
        80   7 -3.776307E+05 -1.675371E+06 -3.435487E+05  6.916955E+05  9.035105E+04 -7.865962E+04
        80   8 -6.062619E+05 -2.570355E+06 -5.586534E+05  5.613769E+05  1.120125E+05  4.611897E+04
        80   9 -8.816713E+05 -3.493022E+06 -8.671064E+05  7.138924E+05  3.943839E+04  1.709200E+05
        80  10  3.892305E+05  1.504623E+06  3.098474E+05  7.097466E+05  2.865833E-10  1.528997E-10
        80  11  6.039926E+05  2.410390E+06  5.119167E+05  5.573806E+05 -1.832840E-09 -9.985901E-10
        80  12  8.113022E+05  3.327718E+06  7.774296E+05  6.877092E+05 -1.051596E-09  3.849312E-10
        80  13  5.874199E+03 -8.657860E+04 -1.679655E+04  7.007141E+05  2.005773E-09  1.718532E-09
        80  14 -9.381856E+02 -8.290103E+04 -2.320058E+04  5.593846E+05  1.777213E-09 -3.982847E-11
        80  15 -3.476529E+04 -8.798808E+04 -4.445185E+04  7.008411E+05 -1.013076E-10  2.669864E-10
        80  16 -3.776411E+05 -1.675380E+06 -3.435758E+05  6.917012E+05 -2.509543E-10  2.730394E-10
        80  17 -6.062759E+05 -2.570361E+06 -5.586810E+05  5.613728E+05  7.687219E-10 -3.228470E-10
        80  18 -8.816808E+05 -3.493054E+06 -8.671645E+05  7.138870E+05 -1.830898E-10 -2.372309E-10
        80  19  3.892413E+05  1.504633E+06  3.098765E+05  7.097528E+05 -9.103104E+04 -8.492636E+04
        80  20  6.040061E+05  2.410394E+06  5.119406E+05  5.573792E+05 -1.117195E+05  1.596107E+04
        80  21  8.113074E+05  3.327733E+06  7.774580E+05  6.877056E+05 -3.851286E+04  1.167852E+05
        80  22  5.883033E+03 -8.657638E+04 -1.678108E+04  7.007143E+05 -9.069013E+04 -3.030488E+03
        80  23 -9.246889E+02 -8.289742E+04 -2.317664E+04  5.593859E+05 -1.118657E+05 -1.514039E+04
        80  24 -3.476346E+04 -8.798686E+04 -4.444758E+04  7.008420E+05 -3.897177E+04 -2.746131E+04
        80  25 -3.776307E+05 -1.675371E+06 -3.435487E+05  6.916955E+05 -9.035105E+04  7.865962E+04
        80  26 -6.062619E+05 -2.570355E+06 -5.586534E+05  5.613769E+05 -1.120125E+05 -4.611897E+04
        80  27 -8.816713E+05 -3.493022E+06 -8.671064E+05  7.138924E+05 -3.943839E+04 -1.709200E+05
        81   1  3.596335E+06  7.295786E+05  7.259100E+05  4.302487E+05  1.943142E+05 -3.208341E+04
        81   2  3.081763E+06  5.096215E+05  4.926529E+05  3.234270E+05  8.401849E+04 -9.706818E+04
        81   3  2.604989E+06  3.782231E+05  3.532224E+05  3.693261E+05 -2.610037E+04 -9.284791E+04
        81   4  1.018387E+06  9.193625E+04  1.081279E+05  3.803616E+05  7.405001E+04 -3.202245E+04
        81   5  1.007102E+06  7.370613E+03  5.105250E+04  3.039797E+05  4.730204E+04 -9.708607E+04
        81   6  1.019068E+06 -2.912604E+03  3.011022E+04  3.803219E+05  2.063842E+04 -9.285107E+04
        81   7 -1.553465E+06 -5.461700E+05 -5.100688E+05  3.306807E+05 -4.571962E+04 -3.194225E+04
        81   8 -1.063518E+06 -4.951574E+05 -3.907900E+05  2.845975E+05  1.070580E+04 -9.710174E+04
        81   9 -5.644651E+05 -3.842034E+05 -2.931259E+05  3.912883E+05  6.726037E+04 -9.285258E+04
        81  10  3.596295E+06  7.295674E+05  7.258374E+05  4.302538E+05 -6.357421E-10  2.911510E-10
        81  11  3.081753E+06  5.096095E+05  4.926219E+05  3.234335E+05 -1.077061E-09  7.970719E-10
        81  12  2.604986E+06  3.782136E+05  3.532049E+05  3.693241E+05  1.812852E-10  5.104856E-10
        81  13  1.018381E+06  9.193368E+04  1.081157E+05  3.803635E+05 -1.085783E-09  8.952357E-11
        81  14  1.007097E+06  7.359884E+03  5.103057E+04  3.039834E+05 -3.172438E-10 -1.967190E-10
        81  15  1.019065E+06 -2.921982E+03  3.009321E+04  3.803234E+05  3.412635E-13  1.594839E-10
        81  16 -1.553468E+06 -5.461717E+05 -5.100747E+05  3.306795E+05  1.117505E-10  3.641360E-10
        81  17 -1.063521E+06 -4.951676E+05 -3.908079E+05  2.845983E+05  1.560866E-09 -1.062609E-10
        81  18 -5.644723E+05 -3.842139E+05 -2.931506E+05  3.912934E+05  4.594959E-10 -2.611218E-10
        81  19  3.596335E+06  7.295786E+05  7.259100E+05  4.302487E+05 -1.943142E+05  3.208341E+04
        81  20  3.081763E+06  5.096215E+05  4.926529E+05  3.234270E+05 -8.401849E+04  9.706818E+04
        81  21  2.604989E+06  3.782231E+05  3.532224E+05  3.693261E+05  2.610037E+04  9.284791E+04
        81  22  1.018387E+06  9.193625E+04  1.081279E+05  3.803616E+05 -7.405001E+04  3.202245E+04
        81  23  1.007102E+06  7.370613E+03  5.105250E+04  3.039797E+05 -4.730204E+04  9.708607E+04
        81  24  1.019068E+06 -2.912604E+03  3.011022E+04  3.803219E+05 -2.063842E+04  9.285107E+04
        81  25 -1.553465E+06 -5.461700E+05 -5.100688E+05  3.306807E+05  4.571962E+04  3.194225E+04
        81  26 -1.063518E+06 -4.951574E+05 -3.907900E+05  2.845975E+05 -1.070580E+04  9.710174E+04
        81  27 -5.644651E+05 -3.842034E+05 -2.931259E+05  3.912883E+05 -6.726037E+04  9.285258E+04
        82   1  2.243253E+06  2.989476E+05  2.750482E+05  3.825949E+05 -1.393453E+04 -7.141156E+04
        82   2  1.748373E+06  1.766471E+05  1.643139E+05  3.036859E+05 -2.605314E+04 -4.435570E+04
        82   3  1.256459E+06  5.852926E+04  6.249911E+04  3.806514E+05 -3.818368E+04 -1.367649E+04
        82   4  1.014542E+06  3.503440E+03  2.423618E+04  3.810362E+05  1.642578E+04 -7.140593E+04
        82   5  1.013665E+06  1.882896E+02  1.556748E+04  3.030948E+05  8.667955E+03 -4.433647E+04
        82   6  1.014773E+06  3.178449E+02  1.281072E+04  3.810386E+05  8.888949E+02 -1.364092E+04
        82   7 -2.127360E+05 -2.920345E+05 -2.266520E+05  3.794800E+05  4.672726E+04 -7.140042E+04
        82   8  2.794727E+05 -1.763034E+05 -1.332025E+05  3.025041E+05  4.334883E+04 -4.431729E+04
        82   9  7.731458E+05 -5.789642E+04 -3.687508E+04  3.814256E+05  3.994656E+04 -1.360528E+04
        82  10  2.243251E+06  2.989420E+05  2.750383E+05  3.825941E+05 -3.911417E-10  4.059520E-10
        82  11  1.748371E+06  1.766448E+05  1.643090E+05  3.036850E+05 -1.222625E-09 -4.490361E-10
        82  12  1.256458E+06  5.852867E+04  6.249603E+04  3.806510E+05  3.464456E-10 -2.565181E-10
        82  13  1.014541E+06  3.497889E+03  2.422609E+04  3.810371E+05 -3.356012E-09 -3.438400E-10
        82  14  1.013664E+06  1.861574E+02  1.556364E+04  3.030951E+05 -1.428141E-09 -5.084618E-10
        82  15  1.014773E+06  3.176447E+02  1.281036E+04  3.810386E+05  3.096962E-10 -2.595979E-10
        82  16 -2.127398E+05 -2.920405E+05 -2.266657E+05  3.794827E+05 -2.152077E-09 -8.012922E-10
        82  17  2.794702E+05 -1.763060E+05 -1.332097E+05  3.025056E+05  5.875505E-10 -1.735516E-09
        82  18  7.731440E+05 -5.789705E+04 -3.687843E+04  3.814260E+05 -6.908938E-10 -9.533157E-10
        82  19  2.243253E+06  2.989476E+05  2.750482E+05  3.825949E+05  1.393453E+04  7.141156E+04
        82  20  1.748373E+06  1.766471E+05  1.643139E+05  3.036859E+05  2.605314E+04  4.435570E+04
        82  21  1.256459E+06  5.852926E+04  6.249911E+04  3.806514E+05  3.818368E+04  1.367649E+04
        82  22  1.014542E+06  3.503440E+03  2.423618E+04  3.810362E+05 -1.642578E+04  7.140593E+04
        82  23  1.013665E+06  1.882896E+02  1.556748E+04  3.030948E+05 -8.667955E+03  4.433647E+04
        82  24  1.014773E+06  3.178449E+02  1.281072E+04  3.810386E+05 -8.888949E+02  1.364092E+04
        82  25 -2.127360E+05 -2.920345E+05 -2.266520E+05  3.794800E+05 -4.672726E+04  7.140042E+04
        82  26  2.794727E+05 -1.763034E+05 -1.332025E+05  3.025041E+05 -4.334883E+04  4.431729E+04
        82  27  7.731458E+05 -5.789642E+04 -3.687508E+04  3.814256E+05 -3.994656E+04  1.360528E+04
        83   1  9.023068E+05 -2.690694E+04 -1.083584E+04  3.815441E+05 -4.042622E+04  5.532219E+03
        83   2  4.086233E+05 -1.452155E+05 -1.066852E+05  3.025223E+05 -4.431024E+04  3.629881E+04
        83   3 -8.352472E+04 -2.606362E+05 -1.993003E+05  3.793887E+05 -4.817368E+04  6.362544E+04
        83   4  1.014788E+06  3.118864E+02  1.289999E+04  3.810370E+05 -1.408762E+03  5.568530E+03
        83   5  1.013688E+06  2.573974E+02  1.607604E+04  3.030967E+05 -9.442852E+03  3.632095E+04
        83   6  1.014597E+06  3.818414E+03  2.536116E+04  3.810342E+05 -1.745928E+04  6.363572E+04
        83   7  1.127285E+06  2.753071E+04  3.664081E+04  3.805297E+05  3.761565E+04  5.604773E+03
        83   8  1.619103E+06  1.457082E+05  1.388228E+05  3.036715E+05  2.545785E+04  3.634312E+04
        83   9  2.113865E+06  2.681981E+05  2.499623E+05  3.826823E+05  1.330847E+04  6.364614E+04
        83  10  9.023050E+05 -2.690741E+04 -1.083896E+04  3.815443E+05 -5.313924E-10 -3.817535E-10
        83  11  4.086208E+05 -1.452174E+05 -1.066914E+05  3.025236E+05 -9.292732E-12  9.098025E-10
        83  12 -8.352830E+04 -2.606412E+05 -1.993123E+05  3.793911E+05 -1.518939E-09  1.447439E-09
        83  13  1.014788E+06  3.118526E+02  1.289993E+04  3.810370E+05  1.060572E-09 -3.908095E-10
        83  14  1.013687E+06  2.559560E+02  1.607339E+04  3.030970E+05 -3.568274E-10 -7.394691E-11
        83  15  1.014595E+06  3.813981E+03  2.535297E+04  3.810351E+05 -1.324242E-09  8.479401E-10
        83  16  1.127283E+06  2.753030E+04  3.663810E+04  3.805296E+05  2.842136E-09 -3.983444E-10
        83  17  1.619101E+06  1.457066E+05  1.388191E+05  3.036707E+05  1.506158E-09  3.597712E-10
        83  18  2.113864E+06  2.681937E+05  2.499543E+05  3.826816E+05 -8.450245E-10  2.551649E-10
        83  19  9.023068E+05 -2.690694E+04 -1.083584E+04  3.815441E+05  4.042622E+04 -5.532219E+03
        83  20  4.086233E+05 -1.452155E+05 -1.066852E+05  3.025223E+05  4.431024E+04 -3.629881E+04
        83  21 -8.352472E+04 -2.606362E+05 -1.993003E+05  3.793887E+05  4.817368E+04 -6.362544E+04
        83  22  1.014788E+06  3.118864E+02  1.289999E+04  3.810370E+05  1.408762E+03 -5.568530E+03
        83  23  1.013688E+06  2.573974E+02  1.607604E+04  3.030967E+05  9.442852E+03 -3.632095E+04
        83  24  1.014597E+06  3.818414E+03  2.536116E+04  3.810342E+05  1.745928E+04 -6.363572E+04
        83  25  1.127285E+06  2.753071E+04  3.664081E+04  3.805297E+05 -3.761565E+04 -5.604773E+03
        83  26  1.619103E+06  1.457082E+05  1.388228E+05  3.036715E+05 -2.545785E+04 -3.634312E+04
        83  27  2.113865E+06  2.681981E+05  2.499623E+05  3.826823E+05 -1.330847E+04 -6.364614E+04
        84   1 -4.348692E+05 -3.530828E+05 -2.654571E+05  3.918171E+05 -6.812714E+04  8.495339E+04
        84   2 -9.345864E+05 -4.632355E+05 -3.608733E+05  2.832760E+05 -1.692717E+04  9.053843E+04
        84   3 -1.423513E+06 -5.088419E+05 -4.732966E+05  3.276025E+05  3.416518E+04  3.000063E+04
        84   4  1.019362E+06 -2.909868E+03  3.159677E+04  3.803446E+05 -2.186991E+04  8.495919E+04
        84   5  1.006907E+06  8.000260E+03  5.377443E+04  3.039503E+05 -4.996695E+04  9.052054E+04
        84   6  1.018718E+06  9.711759E+04  1.139660E+05  3.803742E+05 -7.813378E+04  3.005769E+04
        84   7  2.475607E+06  3.471324E+05  3.285471E+05  3.688440E+05  2.449378E+04  8.496326E+04
        84   8  2.951953E+06  4.789925E+05  4.682087E+05  3.246896E+05 -8.310847E+04  9.050051E+04
        84   9  3.466445E+06  7.026605E+05  7.008535E+05  4.333537E+05 -1.908730E+05  3.009564E+04
        84  10 -4.348761E+05 -3.530918E+05 -2.654794E+05  3.918217E+05  1.136966E-10  1.422001E-09
        84  11 -9.345889E+05 -4.632443E+05 -3.608893E+05  2.832773E+05 -1.961248E-09  4.470427E-10
        84  12 -1.423515E+06 -5.088432E+05 -4.733005E+05  3.276017E+05 -3.459789E-10  2.666209E-10
        84  13  1.019359E+06 -2.917752E+03  3.158230E+04  3.803461E+05 -7.346964E-10  1.009183E-09
        84  14  1.006902E+06  7.990785E+03  5.375433E+04  3.039540E+05  1.568556E-09  1.607087E-11
        84  15  1.018711E+06  9.711498E+04  1.139528E+05  3.803761E+05  4.148650E-10  2.961131E-10
        84  16  2.475604E+06  3.471245E+05  3.285324E+05  3.688423E+05  7.980947E-10  4.498119E-10
        84  17  2.951943E+06  4.789818E+05  4.681803E+05  3.246956E+05  4.314996E-09  6.938243E-10
        84  18  3.466406E+06  7.026498E+05  7.007837E+05  4.333584E+05  7.003454E-10  5.639736E-10
        84  19 -4.348692E+05 -3.530828E+05 -2.654571E+05  3.918171E+05  6.812714E+04 -8.495339E+04
        84  20 -9.345864E+05 -4.632355E+05 -3.608733E+05  2.832760E+05  1.692717E+04 -9.053843E+04
        84  21 -1.423513E+06 -5.088419E+05 -4.732966E+05  3.276025E+05 -3.416518E+04 -3.000063E+04
        84  22  1.019362E+06 -2.909868E+03  3.159677E+04  3.803446E+05  2.186991E+04 -8.495919E+04
        84  23  1.006907E+06  8.000260E+03  5.377443E+04  3.039503E+05  4.996695E+04 -9.052054E+04
        84  24  1.018718E+06  9.711759E+04  1.139660E+05  3.803742E+05  7.813378E+04 -3.005769E+04
        84  25  2.475607E+06  3.471324E+05  3.285471E+05  3.688440E+05 -2.449378E+04 -8.496326E+04
        84  26  2.951953E+06  4.789925E+05  4.682087E+05  3.246896E+05  8.310847E+04 -9.050051E+04
        84  27  3.466445E+06  7.026605E+05  7.008535E+05  4.333537E+05  1.908730E+05 -3.009564E+04
        85   1 -8.820912E+05 -3.214221E+06 -8.782207E+05  6.928102E+05 -3.684866E+04 -2.110051E+05
        85   2 -5.708722E+05 -2.356784E+06 -5.532739E+05  5.310481E+05 -1.046573E+05 -7.793915E+04
        85   3 -3.531285E+05 -1.539810E+06 -3.387134E+05  6.297265E+05 -8.498538E+04  5.514008E+04
        85   4 -9.551252E+04 -5.028688E+04 -1.140606E+05  6.456910E+05 -3.644374E+04 -7.738701E+04
        85   5 -6.867517E+03 -3.829258E+04 -5.438791E+04  5.153285E+05 -1.045293E+05 -4.870965E+04
        85   6  6.724254E+03 -4.907588E+04 -3.221653E+04  6.453933E+05 -8.526826E+04 -2.020673E+04
        85   7  6.903526E+05  3.122875E+06  6.494512E+05  5.983190E+05 -3.606052E+04  5.691316E+04
        85   8  5.567855E+05  2.285266E+06  4.441863E+05  4.995431E+05 -1.044031E+05 -1.937194E+04
        85   9  3.664407E+05  1.443784E+06  2.741828E+05  6.610954E+05 -8.555453E+04 -9.573154E+04
        85  10 -8.821047E+05 -3.214270E+06 -8.783073E+05  6.928039E+05 -1.652257E-09 -5.567807E-09
        85  11 -5.708856E+05 -2.356793E+06 -5.533059E+05  5.310416E+05 -3.782491E-09  7.382603E-09
        85  12 -3.531371E+05 -1.539815E+06 -3.387328E+05  6.297303E+05 -2.753668E-09  1.872005E-08
        85  13 -9.551555E+04 -5.029366E+04 -1.140743E+05  6.456887E+05  2.699619E-09 -2.191457E-11
        85  14 -6.879881E+03 -3.829806E+04 -5.441288E+04  5.153244E+05 -2.060939E-09 -1.352029E-09
        85  15  6.716340E+03 -4.907827E+04 -3.223095E+04  6.453919E+05 -1.160773E-09 -2.188489E-10
        85  16  6.903504E+05  3.122872E+06  6.494427E+05  5.983207E+05  8.981018E-10  6.144054E-09
        85  17  5.567737E+05  2.285263E+06  4.441651E+05  4.995415E+05  1.383439E-09 -7.929475E-09
        85  18  3.664304E+05  1.443772E+06  2.741519E+05  6.610888E+05 -3.043442E-09 -2.005800E-08
        85  19 -8.820912E+05 -3.214221E+06 -8.782207E+05  6.928102E+05  3.684866E+04  2.110051E+05
        85  20 -5.708722E+05 -2.356784E+06 -5.532739E+05  5.310481E+05  1.046573E+05  7.793915E+04
        85  21 -3.531285E+05 -1.539810E+06 -3.387134E+05  6.297265E+05  8.498538E+04 -5.514008E+04
        85  22 -9.551252E+04 -5.028688E+04 -1.140606E+05  6.456910E+05  3.644374E+04  7.738701E+04
        85  23 -6.867517E+03 -3.829258E+04 -5.438791E+04  5.153285E+05  1.045293E+05  4.870965E+04
        85  24  6.724254E+03 -4.907588E+04 -3.221653E+04  6.453933E+05  8.526826E+04  2.020673E+04
        85  25  6.903526E+05  3.122875E+06  6.494512E+05  5.983190E+05  3.606052E+04 -5.691316E+04
        85  26  5.567855E+05  2.285266E+06  4.441863E+05  4.995431E+05  1.044031E+05  1.937194E+04
        85  27  3.664407E+05  1.443784E+06  2.741828E+05  6.610954E+05  8.555453E+04  9.573154E+04
        86   1 -2.133810E+05 -9.314618E+05 -2.094633E+05  6.455971E+05 -4.950562E+04  3.992616E+04
        86   2 -8.433685E+03 -9.237915E+04 -2.828553E+04  5.140072E+05 -2.860946E+03  4.906236E+04
        86   3  1.931213E+05  7.434061E+05  1.455302E+05  6.471750E+05  4.392252E+04  5.820773E+04
        86   4  6.996943E+02 -4.459097E+04 -2.642182E+04  6.464150E+05 -4.973228E+04 -1.588682E+04
        86   5  3.530137E+03 -4.261292E+04 -1.823764E+04  5.140321E+05 -3.088523E+03 -6.942021E+03
        86   6  3.042642E+03 -4.456475E+04 -1.726066E+04  6.464054E+05  4.369189E+04  1.999979E+03
        86   7  2.147323E+05  8.430332E+05  1.565889E+05  6.472329E+05 -4.995889E+04 -7.177822E+04
        86   8  1.549549E+04  7.162413E+03 -8.178090E+03  5.140569E+05 -3.316094E+03 -6.295081E+04
        86   9 -1.870736E+05 -8.319405E+05 -1.800733E+05  6.456359E+05  4.346120E+04 -5.413774E+04
        86  10 -2.133840E+05 -9.314641E+05 -2.094709E+05  6.455987E+05 -1.308345E-09 -1.674498E-08
        86  11 -8.434340E+03 -9.238174E+04 -2.829007E+04  5.140073E+05 -2.152479E-09 -7.359070E-09
        86  12  1.931183E+05  7.434019E+05  1.455203E+05  6.471729E+05  1.232224E-09  4.089133E-09
        86  13  6.969720E+02 -4.459191E+04 -2.642694E+04  6.464143E+05 -2.221534E-09 -5.824772E-11
        86  14  3.530114E+03 -4.261297E+04 -1.823775E+04  5.140320E+05  2.217433E-09 -1.813883E-09
        86  15  3.040591E+03 -4.456527E+04 -1.726425E+04  6.464053E+05  2.416228E-09 -2.405239E-10
        86  16  2.147282E+05  8.430271E+05  1.565746E+05  6.472301E+05 -9.219031E-10  1.763264E-08
        86  17  1.549442E+04  7.158155E+03 -8.185557E+03  5.140568E+05 -3.474603E-10  6.845188E-09
        86  18 -1.870764E+05 -8.319442E+05 -1.800824E+05  6.456378E+05  3.850985E-10 -5.852014E-09
        86  19 -2.133810E+05 -9.314618E+05 -2.094633E+05  6.455971E+05  4.950562E+04 -3.992616E+04
        86  20 -8.433685E+03 -9.237915E+04 -2.828553E+04  5.140072E+05  2.860946E+03 -4.906236E+04
        86  21  1.931213E+05  7.434061E+05  1.455302E+05  6.471750E+05 -4.392252E+04 -5.820773E+04
        86  22  6.996943E+02 -4.459097E+04 -2.642182E+04  6.464150E+05  4.973228E+04  1.588682E+04
        86  23  3.530137E+03 -4.261292E+04 -1.823764E+04  5.140321E+05  3.088523E+03  6.942021E+03
        86  24  3.042642E+03 -4.456475E+04 -1.726066E+04  6.464054E+05 -4.369189E+04 -1.999979E+03
        86  25  2.147323E+05  8.430332E+05  1.565889E+05  6.472329E+05  4.995889E+04  7.177822E+04
        86  26  1.549549E+04  7.162413E+03 -8.178090E+03  5.140569E+05  3.316094E+03  6.295081E+04
        86  27 -1.870736E+05 -8.319405E+05 -1.800733E+05  6.456359E+05 -4.346120E+04  5.413774E+04
        87   1  3.410023E+05  1.346876E+06  2.679459E+05  6.542164E+05  7.942380E+04  7.984589E+04
        87   2  5.379449E+05  2.182148E+06  4.516708E+05  5.109555E+05  9.925909E+04 -8.418341E+03
        87   3  7.206729E+05  3.025558E+06  6.889907E+05  6.281470E+05  3.443414E+04 -9.662377E+04
        87   4  5.299775E+03 -4.622431E+04 -1.827933E+04  6.454416E+05  7.913481E+04  4.648982E+03
        87   5 -1.731080E+03 -4.171666E+04 -2.600534E+04  5.152456E+05  9.937477E+04  1.823123E+04
        87   6 -4.063055E+04 -4.738278E+04 -5.075474E+04  6.455759E+05  3.481339E+04  3.199068E+04
        87   7 -3.305217E+05 -1.437472E+06 -3.045872E+05  6.366841E+05  7.884754E+04 -7.038248E+04
        87   8 -5.417306E+05 -2.260941E+06 -5.039681E+05  5.195146E+05  9.949108E+04  4.478684E+04
        87   9 -8.026111E+05 -3.111674E+06 -7.911113E+05  6.629082E+05  3.520105E+04  1.599729E+05
        87  10  3.409939E+05  1.346867E+06  2.679221E+05  6.542113E+05  3.040857E-09  1.473447E-10
        87  11  5.379343E+05  2.182145E+06  4.516521E+05  5.109562E+05 -7.387700E-10 -5.202237E-11
        87  12  7.206691E+05  3.025548E+06  6.889710E+05  6.281497E+05 -5.448800E-10 -1.085309E-09
        87  13  5.293045E+03 -4.622601E+04 -1.829114E+04  6.454413E+05  2.305480E-09 -5.136606E-11
        87  14 -1.741771E+03 -4.171967E+04 -2.602451E+04  5.152442E+05  3.355317E-09 -1.345465E-09
        87  15 -4.063212E+04 -4.738420E+04 -5.075893E+04  6.455750E+05  5.708279E-11 -1.329353E-10
        87  16 -3.305297E+05 -1.437479E+06 -3.046082E+05  6.366886E+05  1.155330E-09  6.532084E-10
        87  17 -5.417417E+05 -2.260946E+06 -5.039905E+05  5.195110E+05  1.014851E-09 -4.190890E-10
        87  18 -8.026193E+05 -3.111702E+06 -7.911619E+05  6.629036E+05 -4.436188E-11  1.157743E-10
        87  19  3.410023E+05  1.346876E+06  2.679459E+05  6.542164E+05 -7.942380E+04 -7.984589E+04
        87  20  5.379449E+05  2.182148E+06  4.516708E+05  5.109555E+05 -9.925909E+04  8.418341E+03
        87  21  7.206729E+05  3.025558E+06  6.889907E+05  6.281470E+05 -3.443414E+04  9.662377E+04
        87  22  5.299775E+03 -4.622431E+04 -1.827933E+04  6.454416E+05 -7.913481E+04 -4.648982E+03
        87  23 -1.731080E+03 -4.171666E+04 -2.600534E+04  5.152456E+05 -9.937477E+04 -1.823123E+04
        87  24 -4.063055E+04 -4.738278E+04 -5.075474E+04  6.455759E+05 -3.481339E+04 -3.199068E+04
        87  25 -3.305217E+05 -1.437472E+06 -3.045872E+05  6.366841E+05 -7.884754E+04  7.038248E+04
        87  26 -5.417306E+05 -2.260941E+06 -5.039681E+05  5.195146E+05 -9.949108E+04 -4.478684E+04
        87  27 -8.026111E+05 -3.111674E+06 -7.911113E+05  6.629082E+05 -3.520105E+04 -1.599729E+05
        88   1  3.215803E+06  6.487212E+05  6.443431E+05  3.859049E+05  1.691573E+05 -2.872304E+04
        88   2  2.750992E+06  4.559534E+05  4.379902E+05  2.914423E+05  7.192280E+04 -8.684817E+04
        88   3  2.318539E+06  3.377610E+05  3.134928E+05  3.352374E+05 -2.516976E+04 -8.281581E+04
        88   4  9.029360E+05  7.645233E+04  8.988177E+04  3.443859E+05  6.151665E+04 -2.867485E+04
        88   5  8.935648E+05  6.161309E+03  4.246629E+04  2.752411E+05  3.926962E+04 -8.686287E+04
        88   6  9.034845E+05 -2.398462E+03  2.508695E+04  3.443576E+05  1.708984E+04 -8.281738E+04
        88   7 -1.405023E+06 -4.961913E+05 -4.649139E+05  3.030211E+05 -4.572654E+04 -2.861232E+04
        88   8 -9.606221E+05 -4.438533E+05 -3.532519E+05  2.590884E+05  6.712215E+03 -8.687592E+04
        88   9 -5.096684E+05 -3.426815E+05 -2.634175E+05  3.534560E+05  5.925514E+04 -8.281769E+04
        88  10  3.215772E+06  6.487127E+05  6.442880E+05  3.859088E+05 -1.879402E-09  1.645819E-11
        88  11  2.750985E+06  4.559440E+05  4.379663E+05  2.914473E+05 -1.577914E-09  3.511081E-10
        88  12  2.318537E+06  3.377534E+05  3.134788E+05  3.352357E+05  1.226129E-09 -6.423836E-10
        88  13  9.029317E+05  7.645043E+04  8.987312E+04  3.443874E+05 -1.089718E-09  2.511854E-10
        88  14  8.935611E+05  6.152788E+03  4.244921E+04  2.752438E+05 -1.066794E-09  1.075891E-09
        88  15  9.034824E+05 -2.405909E+03  2.507350E+04  3.443587E+05  1.582677E-10 -4.690806E-10
        88  16 -1.405026E+06 -4.961928E+05 -4.649194E+05  3.030201E+05  2.182979E-09  4.887984E-10
        88  17 -9.606241E+05 -4.438614E+05 -3.532662E+05  2.590888E+05 -1.275463E-10  8.105768E-10
        88  18 -5.096740E+05 -3.426898E+05 -2.634370E+05  3.534600E+05  3.921270E-10 -2.961205E-10
        88  19  3.215803E+06  6.487212E+05  6.443431E+05  3.859049E+05 -1.691573E+05  2.872304E+04
        88  20  2.750992E+06  4.559534E+05  4.379902E+05  2.914423E+05 -7.192280E+04  8.684817E+04
        88  21  2.318539E+06  3.377610E+05  3.134928E+05  3.352374E+05  2.516976E+04  8.281581E+04
        88  22  9.029360E+05  7.645233E+04  8.988177E+04  3.443859E+05 -6.151665E+04  2.867485E+04
        88  23  8.935648E+05  6.161309E+03  4.246629E+04  2.752411E+05 -3.926962E+04  8.686287E+04
        88  24  9.034845E+05 -2.398462E+03  2.508695E+04  3.443576E+05 -1.708984E+04  8.281738E+04
        88  25 -1.405023E+06 -4.961913E+05 -4.649139E+05  3.030211E+05  4.572654E+04  2.861232E+04
        88  26 -9.606221E+05 -4.438533E+05 -3.532519E+05  2.590884E+05 -6.712215E+03  8.687592E+04
        88  27 -5.096684E+05 -3.426815E+05 -2.634175E+05  3.534560E+05 -5.925514E+04  8.281769E+04
        89   1  1.991412E+06  2.654866E+05  2.431490E+05  3.463140E+05 -1.398197E+04 -6.342144E+04
        89   2  1.543400E+06  1.549653E+05  1.436062E+05  2.749245E+05 -2.441724E+04 -3.887676E+04
        89   3  1.097911E+06  4.798019E+04  5.172881E+04  3.446900E+05 -3.486199E+04 -1.107968E+04
        89   4  8.997270E+05  2.928683E+03  2.022843E+04  3.450110E+05  1.357594E+04 -6.341614E+04
        89   5  8.989921E+05  1.606587E+02  1.309079E+04  2.744302E+05  7.052468E+03 -3.886057E+04
        89   6  8.999102E+05  2.633496E+02  1.091626E+04  3.450129E+05  5.122129E+02 -1.105042E+04
        89   7 -1.908269E+05 -2.597033E+05 -2.027522E+05  3.437100E+05  4.108639E+04 -6.341094E+04
        89   8  2.549812E+05 -1.546692E+05 -1.174425E+05  2.739362E+05  3.849020E+04 -3.884443E+04
        89   9  7.019494E+05 -4.745529E+04 -2.989371E+04  3.453356E+05  3.587535E+04 -1.102112E+04
        89  10  1.991411E+06  2.654822E+05  2.431411E+05  3.463133E+05 -1.106161E-09 -7.973895E-10
        89  11  1.543398E+06  1.549635E+05  1.436023E+05  2.749238E+05  4.717788E-10 -6.915503E-11
        89  12  1.097910E+06  4.797973E+04  5.172630E+04  3.446897E+05 -2.469425E-09  1.918839E-10
        89  13  8.997257E+05  2.924312E+03  2.022053E+04  3.450117E+05  1.093971E-09 -7.723743E-10
        89  14  8.989916E+05  1.590229E+02  1.308785E+04  2.744304E+05 -5.249616E-10 -4.167271E-10
        89  15  8.999102E+05  2.632183E+02  1.091603E+04  3.450129E+05 -7.791930E-10 -3.314650E-10
        89  16 -1.908297E+05 -2.597081E+05 -2.027630E+05  3.437121E+05 -5.682893E-10 -6.679940E-10
        89  17  2.549792E+05 -1.546712E+05 -1.174481E+05  2.739374E+05 -2.102772E-09 -8.963829E-10
        89  18  7.019480E+05 -4.745577E+04 -2.989635E+04  3.453359E+05 -7.059993E-10 -3.318415E-10
        89  19  1.991412E+06  2.654866E+05  2.431490E+05  3.463140E+05  1.398197E+04  6.342144E+04
        89  20  1.543400E+06  1.549653E+05  1.436062E+05  2.749245E+05  2.441724E+04  3.887676E+04
        89  21  1.097911E+06  4.798019E+04  5.172881E+04  3.446900E+05  3.486199E+04  1.107968E+04
        89  22  8.997270E+05  2.928683E+03  2.022843E+04  3.450110E+05 -1.357594E+04  6.341614E+04
        89  23  8.989921E+05  1.606587E+02  1.309079E+04  2.744302E+05 -7.052468E+03  3.886057E+04
        89  24  8.999102E+05  2.633496E+02  1.091626E+04  3.450129E+05 -5.122129E+02  1.105042E+04
        89  25 -1.908269E+05 -2.597033E+05 -2.027522E+05  3.437100E+05 -4.108639E+04  6.341094E+04
        89  26  2.549812E+05 -1.546692E+05 -1.174425E+05  2.739362E+05 -3.849020E+04  3.884443E+04
        89  27  7.019494E+05 -4.745529E+04 -2.989371E+04  3.453356E+05 -3.587535E+04  1.102112E+04
        90   1  7.771964E+05 -2.942130E+04 -1.461754E+04  3.454644E+05 -3.679165E+04  6.318101E+03
        90   2  3.301753E+05 -1.365541E+05 -1.014021E+05  2.739431E+05 -3.998471E+04  3.417352E+04
        90   3 -1.155571E+05 -2.411869E+05 -1.854970E+05  3.435901E+05 -4.316067E+04  5.888210E+04
        90   4  8.999386E+05  2.425814E+02  1.107664E+04  3.450120E+05 -1.452203E+03  6.347764E+03
        90   5  8.989782E+05  2.085287E+02  1.398203E+04  2.744311E+05 -8.438975E+03  3.419123E+04
        90   6  8.997759E+05  3.342373E+03  2.220923E+04  3.450098E+05 -1.541093E+04  5.888981E+04
        90   7  1.022698E+06  2.990617E+04  3.677467E+04  3.445595E+05  3.389411E+04  6.377372E+03
        90   8  1.468091E+06  1.369516E+05  1.293530E+05  2.749195E+05  2.313510E+04  3.420896E+04
        90   9  1.916090E+06  2.478075E+05  2.298637E+05  3.464315E+05  1.238340E+04  5.889764E+04
        90  10  7.771949E+05 -2.942171E+04 -1.462015E+04  3.454646E+05  5.748093E-11  5.633595E-10
        90  11  3.301733E+05 -1.365558E+05 -1.014073E+05  2.739442E+05  1.309703E-09 -7.346768E-10
        90  12 -1.155600E+05 -2.411911E+05 -1.855070E+05  3.435921E+05 -9.514965E-11 -1.282763E-10
        90  13  8.999386E+05  2.425375E+02  1.107656E+04  3.450120E+05  1.102631E-09 -3.019946E-10
        90  14  8.989778E+05  2.072535E+02  1.397970E+04  2.744314E+05  3.939708E-09 -7.631649E-10
        90  15  8.997748E+05  3.338584E+03  2.220227E+04  3.450106E+05  3.043014E-09 -1.381916E-10
        90  16  1.022696E+06  2.990582E+04  3.677244E+04  3.445593E+05 -9.785639E-10 -8.587606E-10
        90  17  1.468090E+06  1.369502E+05  1.293498E+05  2.749189E+05 -4.163964E-10 -1.123819E-09
        90  18  1.916088E+06  2.478037E+05  2.298569E+05  3.464310E+05  2.128703E-09 -6.245083E-10
        90  19  7.771964E+05 -2.942130E+04 -1.461754E+04  3.454644E+05  3.679165E+04 -6.318101E+03
        90  20  3.301753E+05 -1.365541E+05 -1.014021E+05  2.739431E+05  3.998471E+04 -3.417352E+04
        90  21 -1.155571E+05 -2.411869E+05 -1.854970E+05  3.435901E+05  4.316067E+04 -5.888210E+04
        90  22  8.999386E+05  2.425814E+02  1.107664E+04  3.450120E+05  1.452203E+03 -6.347764E+03
        90  23  8.989782E+05  2.085287E+02  1.398203E+04  2.744311E+05  8.438975E+03 -3.419123E+04
        90  24  8.997759E+05  3.342373E+03  2.220923E+04  3.450098E+05  1.541093E+04 -5.888981E+04
        90  25  1.022698E+06  2.990617E+04  3.677467E+04  3.445595E+05 -3.389411E+04 -6.377372E+03
        90  26  1.468091E+06  1.369516E+05  1.293530E+05  2.749195E+05 -2.313510E+04 -3.420896E+04
        90  27  1.916090E+06  2.478075E+05  2.298637E+05  3.464315E+05 -1.238340E+04 -5.889764E+04
        91   1 -4.338816E+05 -3.247239E+05 -2.455449E+05  3.544913E+05 -6.122319E+04  7.821676E+04
        91   2 -8.859389E+05 -4.247338E+05 -3.326366E+05  2.570554E+05 -1.347132E+04  8.305424E+04
        91   3 -1.329046E+06 -4.685084E+05 -4.365983E+05  2.980006E+05  3.418835E+04  2.748410E+04
        91   4  9.039638E+05 -2.563797E+03  2.771101E+04  3.443752E+05 -1.927182E+04  7.822039E+04
        91   5  8.930555E+05  7.059495E+03  4.724732E+04  2.752177E+05 -4.396165E+04  8.303992E+04
        91   6  9.034322E+05  8.540954E+04  1.001844E+05  3.444006E+05 -6.871060E+04  2.753433E+04
        91   7  2.243514E+06  3.194857E+05  3.008791E+05  3.342364E+05  2.276837E+04  7.822264E+04
        91   8  2.675033E+06  4.386482E+05  4.269520E+05  2.934322E+05 -7.453802E+04  8.302386E+04
        91   9  3.140502E+06  6.389787E+05  6.366537E+05  3.909678E+05 -1.719784E+05  2.756915E+04
        91  10 -4.338873E+05 -3.247315E+05 -2.455635E+05  3.544952E+05  1.424135E-09  1.027891E-09
        91  11 -8.859410E+05 -4.247412E+05 -3.326499E+05  2.570563E+05  2.396451E-09  1.674961E-09
        91  12 -1.329047E+06 -4.685095E+05 -4.366019E+05  2.979998E+05  2.102618E-09  9.256764E-10
        91  13  9.039618E+05 -2.570471E+03  2.769880E+04  3.443765E+05  7.758534E-10  4.210276E-10
        91  14  8.930516E+05  7.051568E+03  4.723072E+04  2.752206E+05 -9.624330E-10  6.380383E-10
        91  15  9.034269E+05  8.540746E+04  1.001741E+05  3.444021E+05  7.804212E-10 -1.337556E-10
        91  16  2.243512E+06  3.194789E+05  3.008666E+05  3.342350E+05  1.632736E-09  6.495454E-11
        91  17  2.675025E+06  4.386393E+05  4.269287E+05  2.934372E+05 -1.909505E-09  3.066391E-10
        91  18  3.140470E+06  6.389700E+05  6.365969E+05  3.909716E+05  8.512814E-10 -5.334009E-10
        91  19 -4.338816E+05 -3.247239E+05 -2.455449E+05  3.544913E+05  6.122319E+04 -7.821676E+04
        91  20 -8.859389E+05 -4.247338E+05 -3.326366E+05  2.570554E+05  1.347132E+04 -8.305424E+04
        91  21 -1.329046E+06 -4.685084E+05 -4.365983E+05  2.980006E+05 -3.418835E+04 -2.748410E+04
        91  22  9.039638E+05 -2.563797E+03  2.771101E+04  3.443752E+05  1.927182E+04 -7.822039E+04
        91  23  8.930555E+05  7.059495E+03  4.724732E+04  2.752177E+05  4.396165E+04 -8.303992E+04
        91  24  9.034322E+05  8.540954E+04  1.001844E+05  3.444006E+05  6.871060E+04 -2.753433E+04
        91  25  2.243514E+06  3.194857E+05  3.008791E+05  3.342364E+05 -2.276837E+04 -7.822264E+04
        91  26  2.675033E+06  4.386482E+05  4.269520E+05  2.934322E+05  7.453802E+04 -8.302386E+04
        91  27  3.140502E+06  6.389787E+05  6.366537E+05  3.909678E+05  1.719784E+05 -2.756915E+04
        92   1 -8.269913E+05 -3.002691E+06 -8.222533E+05  6.433553E+05 -3.480073E+04 -1.956504E+05
        92   2 -5.401889E+05 -2.205094E+06 -5.210777E+05  4.938719E+05 -9.926248E+04 -7.154264E+04
        92   3 -3.380553E+05 -1.444558E+06 -3.221902E+05  5.866626E+05 -8.138037E+04  5.258050E+04
        92   4 -8.575422E+04 -2.078392E+04 -1.022605E+05  6.008481E+05 -3.445251E+04 -6.911111E+04
        92   5 -6.290499E+03 -1.006372E+04 -4.897502E+04  4.795959E+05 -9.914909E+04 -4.330102E+04
        92   6  5.826830E+03 -1.971860E+04 -2.937561E+04  6.006045E+05 -8.162194E+04 -1.763863E+04
        92   7  6.548486E+05  2.969318E+06  6.171571E+05  5.581265E+05 -3.412277E+04  5.803673E+04
        92   8  5.272928E+05  2.189509E+06  4.228485E+05  4.652637E+05 -9.903727E+04 -1.496048E+04
        92   9  3.495842E+05  1.407062E+06  2.633490E+05  6.145764E+05 -8.186632E+04 -8.801630E+04
        92  10 -8.270029E+05 -3.002733E+06 -8.223279E+05  6.433498E+05 -1.959079E-09 -8.118217E-10
        92  11 -5.402009E+05 -2.205103E+06 -5.211058E+05  4.938662E+05  3.210157E-10  1.467641E-09
        92  12 -3.380631E+05 -1.444563E+06 -3.222079E+05  5.866661E+05  1.138614E-09  3.292230E-09
        92  13 -8.575677E+04 -2.078937E+04 -1.022717E+05  6.008462E+05  1.229118E-09 -1.711366E-09
        92  14 -6.301554E+03 -1.006836E+04 -4.899700E+04  4.795925E+05 -1.365927E-09  2.327503E-09
        92  15  5.819594E+03 -1.972072E+04 -2.938871E+04  6.006033E+05 -2.747521E-10 -1.622275E-09
        92  16  6.548464E+05  2.969314E+06  6.171486E+05  5.581281E+05  1.210472E-11  8.717450E-10
        92  17  5.272822E+05  2.189506E+06  4.228297E+05  4.652625E+05  1.196363E-09 -5.361705E-10
        92  18  3.495750E+05  1.407052E+06  2.633219E+05  6.145706E+05  9.626279E-10 -3.518182E-09
        92  19 -8.269913E+05 -3.002691E+06 -8.222533E+05  6.433553E+05  3.480073E+04  1.956504E+05
        92  20 -5.401889E+05 -2.205094E+06 -5.210777E+05  4.938719E+05  9.926248E+04  7.154264E+04
        92  21 -3.380553E+05 -1.444558E+06 -3.221902E+05  5.866626E+05  8.138037E+04 -5.258050E+04
        92  22 -8.575422E+04 -2.078392E+04 -1.022605E+05  6.008481E+05  3.445251E+04  6.911111E+04
        92  23 -6.290499E+03 -1.006372E+04 -4.897502E+04  4.795959E+05  9.914909E+04  4.330102E+04
        92  24  5.826830E+03 -1.971860E+04 -2.937561E+04  6.006045E+05  8.162194E+04  1.763863E+04
        92  25  6.548486E+05  2.969318E+06  6.171571E+05  5.581265E+05  3.412277E+04 -5.803673E+04
        92  26  5.272928E+05  2.189509E+06  4.228485E+05  4.652637E+05  9.903727E+04  1.496048E+04
        92  27  3.495842E+05  1.407062E+06  2.633490E+05  6.145764E+05  8.186632E+04  8.801630E+04
        93   1 -2.078084E+05 -8.786319E+05 -2.023292E+05  6.009049E+05 -4.833391E+04  3.814969E+04
        93   2 -1.717999E+04 -9.788990E+04 -3.453073E+04  4.782544E+05 -4.987275E+03  4.708857E+04
        93   3  1.699989E+05  6.797538E+05  1.261016E+05  6.019494E+05  3.859475E+04  5.603389E+04
        93   4  4.528565E+02 -1.573013E+04 -2.436288E+04  6.015603E+05 -4.852729E+04 -1.365566E+04
        93   5  3.012475E+03 -1.389834E+04 -1.756917E+04  4.783852E+05 -5.182847E+03 -5.020576E+03
        93   6  2.210784E+03 -1.568906E+04 -1.771226E+04  6.015537E+05  3.839513E+04  3.610072E+03
        93   7  2.086685E+05  8.478843E+05  1.535734E+05  6.022157E+05 -4.872062E+04 -6.553183E+04
        93   8  2.320596E+04  7.010577E+04 -5.977689E+02  4.785161E+05 -5.378425E+03 -5.713664E+04
        93   9 -1.656065E+05 -7.106679E+05 -1.615420E+05  6.011579E+05  3.819542E+04 -4.875609E+04
        93  10 -2.078113E+05 -8.786341E+05 -2.023364E+05  6.009064E+05  7.918725E-10 -5.376229E-09
        93  11 -1.718061E+04 -9.789229E+04 -3.453494E+04  4.782546E+05  1.507703E-10 -5.472910E-10
        93  12  1.699965E+05  6.797501E+05  1.260929E+05  6.019477E+05  1.120020E-09  4.417231E-09
        93  13  4.502787E+02 -1.573096E+04 -2.436766E+04  6.015598E+05 -1.175377E-09 -3.086123E-09
        93  14  3.012439E+03 -1.389838E+04 -1.756927E+04  4.783852E+05 -1.912240E-09  3.211045E-09
        93  15  2.209198E+03 -1.568946E+04 -1.771505E+04  6.015536E+05 -2.321022E-10 -1.779459E-09
        93  16  2.086648E+05  8.478791E+05  1.535609E+05  6.022131E+05 -1.682935E-11  5.420141E-09
        93  17  2.320505E+04  7.010226E+04 -6.039563E+02  4.785158E+05 -5.001141E-10  2.190162E-09
        93  18 -1.656087E+05 -7.106708E+05 -1.615492E+05  6.011594E+05  3.252739E-10 -4.768904E-09
        93  19 -2.078084E+05 -8.786319E+05 -2.023292E+05  6.009049E+05  4.833391E+04 -3.814969E+04
        93  20 -1.717999E+04 -9.788990E+04 -3.453073E+04  4.782544E+05  4.987275E+03 -4.708857E+04
        93  21  1.699989E+05  6.797538E+05  1.261016E+05  6.019494E+05 -3.859475E+04 -5.603389E+04
        93  22  4.528565E+02 -1.573013E+04 -2.436288E+04  6.015603E+05  4.852729E+04  1.365566E+04
        93  23  3.012475E+03 -1.389834E+04 -1.756917E+04  4.783852E+05  5.182847E+03  5.020576E+03
        93  24  2.210784E+03 -1.568906E+04 -1.771226E+04  6.015537E+05 -3.839513E+04 -3.610072E+03
        93  25  2.086685E+05  8.478843E+05  1.535734E+05  6.022157E+05  4.872062E+04  6.553183E+04
        93  26  2.320596E+04  7.010577E+04 -5.977689E+02  4.785161E+05  5.378425E+03  5.713664E+04
        93  27 -1.656065E+05 -7.106679E+05 -1.615420E+05  6.011579E+05 -3.819542E+04  4.875609E+04
        94   1  3.081614E+05  1.240768E+06  2.394178E+05  6.094303E+05  7.159094E+04  7.623382E+04
        94   2  4.906009E+05  2.018966E+06  4.081850E+05  4.734092E+05  9.046585E+04 -2.550547E+03
        94   3  6.532215E+05  2.802615E+06  6.230155E+05  5.797954E+05  3.151118E+04 -8.128070E+04
        94   4  4.874656E+03 -1.763378E+04 -1.926432E+04  6.006683E+05  7.134115E+04  6.380595E+03
        94   5 -2.438331E+03 -1.244925E+04 -2.836741E+04  4.795007E+05  9.056187E+04  2.120092E+04
        94   6 -4.580913E+04 -1.861811E+04 -5.632497E+04  6.008068E+05  3.183388E+04  3.617330E+04
        94   7 -2.985090E+05 -1.274524E+06 -2.780130E+05  5.919223E+05  7.109301E+04 -6.333378E+04
        94   8 -4.957475E+05 -2.039992E+06 -4.651593E+05  4.855678E+05  9.065856E+04  4.487585E+04
        94   9 -7.454100E+05 -2.832560E+06 -7.361812E+05  6.217147E+05  3.216545E+04  1.530970E+05
        94  10  3.081544E+05  1.240760E+06  2.393973E+05  6.094259E+05  1.446122E-09 -1.199209E-09
        94  11  4.905921E+05  2.018964E+06  4.081696E+05  4.734094E+05 -7.941150E-10  7.788697E-10
        94  12  6.532187E+05  2.802608E+06  6.230013E+05  5.797974E+05  4.871296E-11  1.307206E-09
        94  13  4.869180E+03 -1.763519E+04 -1.927396E+04  6.006679E+05  1.840550E-10 -3.007640E-09
        94  14 -2.447257E+03 -1.245193E+04 -2.838366E+04  4.794992E+05 -2.127968E-09  2.437878E-09
        94  15 -4.581057E+04 -1.861979E+04 -5.632933E+04  6.008059E+05 -8.836546E-10 -1.052317E-09
        94  16 -2.985155E+05 -1.274530E+06 -2.780300E+05  5.919259E+05  6.634657E-10  1.084666E-09
        94  17 -4.957569E+05 -2.039996E+06 -4.651785E+05  4.855645E+05  9.715448E-11  3.945138E-10
        94  18 -7.454174E+05 -2.832586E+06 -7.362273E+05  6.217108E+05 -9.927552E-11 -1.505460E-09
        94  19  3.081614E+05  1.240768E+06  2.394178E+05  6.094303E+05 -7.159094E+04 -7.623382E+04
        94  20  4.906009E+05  2.018966E+06  4.081850E+05  4.734092E+05 -9.046585E+04  2.550547E+03
        94  21  6.532215E+05  2.802615E+06  6.230155E+05  5.797954E+05 -3.151118E+04  8.128070E+04
        94  22  4.874656E+03 -1.763378E+04 -1.926432E+04  6.006683E+05 -7.134115E+04 -6.380595E+03
        94  23 -2.438331E+03 -1.244925E+04 -2.836741E+04  4.795007E+05 -9.056187E+04 -2.120092E+04
        94  24 -4.580913E+04 -1.861811E+04 -5.632497E+04  6.008068E+05 -3.183388E+04 -3.617330E+04
        94  25 -2.985090E+05 -1.274524E+06 -2.780130E+05  5.919223E+05 -7.109301E+04  6.333378E+04
        94  26 -4.957475E+05 -2.039992E+06 -4.651593E+05  4.855678E+05 -9.065856E+04 -4.487585E+04
        94  27 -7.454100E+05 -2.832560E+06 -7.361812E+05  6.217147E+05 -3.216545E+04 -1.530970E+05
        95   1  2.911055E+06  5.920372E+05  5.861435E+05  3.564129E+05  1.480293E+05 -2.662463E+04
        95   2  2.475613E+06  4.217490E+05  4.001568E+05  2.715439E+05  6.078122E+04 -8.041222E+04
        95   3  2.067594E+06  3.120077E+05  2.860415E+05  3.166724E+05 -2.634516E+04 -7.636378E+04
        95   4  7.615975E+05  6.003626E+04  7.067070E+04  3.238422E+05  4.829672E+04 -2.658211E+04
        95   5  7.542051E+05  4.778999E+03  3.343533E+04  2.588305E+05  3.078223E+04 -8.042474E+04
        95   6  7.620685E+05 -1.903168E+03  1.985146E+04  3.238218E+05  1.332576E+04 -7.636451E+04
        95   7 -1.383621E+06 -4.722902E+05 -4.450915E+05  2.913838E+05 -5.109346E+04 -2.652917E+04
        95   8 -9.644182E+05 -4.123825E+05 -3.334532E+05  2.461523E+05  8.648582E+02 -8.043607E+04
        95   9 -5.418381E+05 -3.159194E+05 -2.464224E+05  3.309554E+05  5.291499E+04 -7.636432E+04
        95  10  2.911031E+06  5.920306E+05  5.861011E+05  3.564161E+05 -5.120067E-10  3.280352E-10
        95  11  2.475607E+06  4.217411E+05  4.001377E+05  2.715479E+05 -2.882384E-09  4.686091E-10
        95  12  2.067592E+06  3.120013E+05  2.860293E+05  3.166708E+05 -1.046620E-09  2.727240E-10
        95  13  7.615948E+05  6.003487E+04  7.066499E+04  3.238432E+05  7.493692E-10  1.136486E-09
        95  14  7.542024E+05  4.771796E+03  3.342139E+04  2.588325E+05  1.839394E-09  9.747667E-10
        95  15  7.620667E+05 -1.909480E+03  1.984016E+04  3.238226E+05  5.475437E-10  2.957774E-10
        95  16 -1.383624E+06 -4.722917E+05 -4.450978E+05  2.913827E+05  1.078051E-09  1.322278E-10
        95  17 -9.644199E+05 -4.123894E+05 -3.334654E+05  2.461524E+05 -7.465295E-10  9.408836E-10
        95  18 -5.418427E+05 -3.159264E+05 -2.464387E+05  3.309586E+05  9.581698E-10  1.326861E-10
        95  19  2.911055E+06  5.920372E+05  5.861435E+05  3.564129E+05 -1.480293E+05  2.662463E+04
        95  20  2.475613E+06  4.217490E+05  4.001568E+05  2.715439E+05 -6.078122E+04  8.041222E+04
        95  21  2.067594E+06  3.120077E+05  2.860415E+05  3.166724E+05  2.634516E+04  7.636378E+04
        95  22  7.615975E+05  6.003626E+04  7.067070E+04  3.238422E+05 -4.829672E+04  2.658211E+04
        95  23  7.542051E+05  4.778999E+03  3.343533E+04  2.588305E+05 -3.078223E+04  8.042474E+04
        95  24  7.620685E+05 -1.903168E+03  1.985146E+04  3.238218E+05 -1.332576E+04  7.636451E+04
        95  25 -1.383621E+06 -4.722902E+05 -4.450915E+05  2.913838E+05  5.109346E+04  2.652917E+04
        95  26 -9.644182E+05 -4.123825E+05 -3.334532E+05  2.461523E+05 -8.648582E+02  8.043607E+04
        95  27 -5.418381E+05 -3.159194E+05 -2.464224E+05  3.309554E+05 -5.291499E+04  7.636432E+04
        96   1  1.760579E+06  2.432180E+05  2.206547E+05  3.254981E+05 -1.546510E+04 -5.814430E+04
        96   2  1.339373E+06  1.397042E+05  1.282964E+05  2.584672E+05 -2.437928E+04 -3.500629E+04
        96   3  9.202838E+05  3.907901E+04  4.245144E+04  3.242152E+05 -3.330207E+04 -8.844801E+03
        96   4  7.591146E+05  2.300209E+03  1.607472E+04  3.244465E+05  1.053380E+04 -5.813918E+04
        96   5  7.585281E+05  1.350770E+02  1.059764E+04  2.580539E+05  5.253914E+03 -3.499191E+04
        96   6  7.592694E+05  2.421030E+02  9.124417E+03  3.244478E+05 -4.033454E+01 -8.819267E+03
        96   7 -2.413970E+05 -2.386799E+05 -1.885557E+05  3.233963E+05  3.649160E+04 -5.813415E+04
        96   8  1.780058E+05 -1.394545E+05 -1.071153E+05  2.576410E+05  3.485996E+04 -3.497755E+04
        96   9  5.982818E+05 -3.859585E+04 -2.419986E+04  3.246803E+05  3.321293E+04 -8.793703E+03
        96  10  1.760577E+06  2.432143E+05  2.206479E+05  3.254974E+05 -8.480541E-10 -6.337657E-11
        96  11  1.339372E+06  1.397027E+05  1.282930E+05  2.584665E+05  1.080598E-09  1.532738E-10
        96  12  9.202826E+05  3.907863E+04  4.244921E+04  3.242150E+05 -2.120377E-09 -9.109192E-11
        96  13  7.591136E+05  2.296548E+03  1.606815E+04  3.244470E+05  2.816991E-10  3.049520E-11
        96  14  7.585277E+05  1.337542E+02  1.059529E+04  2.580541E+05 -1.192924E-09  1.989534E-10
        96  15  7.592693E+05  2.420195E+02  9.124271E+03  3.244478E+05 -1.689598E-09 -1.608660E-11
        96  16 -2.413994E+05 -2.386839E+05 -1.885646E+05  3.233980E+05 -1.172865E-10 -7.185850E-10
        96  17  1.780042E+05 -1.394562E+05 -1.071199E+05  2.576420E+05  3.494992E-11 -2.291663E-10
        96  18  5.982806E+05 -3.859623E+04 -2.420208E+04  3.246805E+05  2.706833E-10  6.236595E-10
        96  19  1.760579E+06  2.432180E+05  2.206547E+05  3.254981E+05  1.546510E+04  5.814430E+04
        96  20  1.339373E+06  1.397042E+05  1.282964E+05  2.584672E+05  2.437928E+04  3.500629E+04
        96  21  9.202838E+05  3.907901E+04  4.245144E+04  3.242152E+05  3.330207E+04  8.844801E+03
        96  22  7.591146E+05  2.300209E+03  1.607472E+04  3.244465E+05 -1.053380E+04  5.813918E+04
        96  23  7.585281E+05  1.350770E+02  1.059764E+04  2.580539E+05 -5.253914E+03  3.499191E+04
        96  24  7.592694E+05  2.421030E+02  9.124417E+03  3.244478E+05  4.033454E+01  8.819267E+03
        96  25 -2.413970E+05 -2.386799E+05 -1.885557E+05  3.233963E+05 -3.649160E+04  5.813415E+04
        96  26  1.780058E+05 -1.394545E+05 -1.071153E+05  2.576410E+05 -3.485996E+04  3.497755E+04
        96  27  5.982818E+05 -3.859585E+04 -2.419986E+04  3.246803E+05 -3.321293E+04  8.793703E+03
        97   1  6.186520E+05 -3.376325E+04 -1.982062E+04  3.248616E+05 -3.494368E+04  7.521875E+03
        97   2  1.982582E+05 -1.345361E+05 -1.013939E+05  2.576372E+05 -3.744109E+04  3.371442E+04
        97   3 -2.210272E+05 -2.331290E+05 -1.808040E+05  3.232038E+05 -3.992309E+04  5.690906E+04
        97   4  7.593228E+05  1.971375E+02  9.420216E+03  3.244471E+05 -1.697095E+03  7.547539E+03
        97   5  7.584665E+05  1.729247E+02  1.222658E+04  2.580547E+05 -7.807172E+03  3.372917E+04
        97   6  7.591726E+05  2.962661E+03  1.970143E+04  3.244453E+05 -1.390347E+04  5.691472E+04
        97   7  9.000146E+05  3.415686E+04  3.866411E+04  3.240325E+05  3.155689E+04  7.573155E+03
        97   8  1.318975E+06  1.348629E+05  1.258340E+05  2.584725E+05  2.185297E+04  3.374396E+04
        97   9  1.740286E+06  2.389945E+05  2.201586E+05  3.256884E+05  1.215650E+04  5.692047E+04
        97  10  6.186507E+05 -3.376363E+04 -1.982302E+04  3.248618E+05  7.791146E-11  7.224050E-10
        97  11  1.982564E+05 -1.345377E+05 -1.013986E+05  2.576382E+05 -1.476881E-09  3.684221E-10
        97  12 -2.210298E+05 -2.331329E+05 -1.808131E+05  3.232056E+05 -8.860650E-10 -1.231772E-11
        97  13  7.593227E+05  1.970755E+02  9.420103E+03  3.244471E+05  1.111001E-09  4.931594E-10
        97  14  7.584661E+05  1.716862E+02  1.222432E+04  2.580549E+05  6.719155E-10  4.529121E-10
        97  15  7.591715E+05  2.959129E+03  1.969498E+04  3.244459E+05 -5.161042E-10 -4.381813E-10
        97  16  9.000135E+05  3.415653E+04  3.866214E+04  3.240323E+05 -3.708708E-10  8.255194E-10
        97  17  1.318974E+06  1.348616E+05  1.258310E+05  2.584719E+05 -1.331689E-09  1.367527E-10
        97  18  1.740285E+06  2.389910E+05  2.201522E+05  3.256878E+05  5.952101E-10 -6.634255E-10
        97  19  6.186520E+05 -3.376325E+04 -1.982062E+04  3.248616E+05  3.494368E+04 -7.521875E+03
        97  20  1.982582E+05 -1.345361E+05 -1.013939E+05  2.576372E+05  3.744109E+04 -3.371442E+04
        97  21 -2.210272E+05 -2.331290E+05 -1.808040E+05  3.232038E+05  3.992309E+04 -5.690906E+04
        97  22  7.593228E+05  1.971375E+02  9.420216E+03  3.244471E+05  1.697095E+03 -7.547539E+03
        97  23  7.584665E+05  1.729247E+02  1.222658E+04  2.580547E+05  7.807172E+03 -3.372917E+04
        97  24  7.591726E+05  2.962661E+03  1.970143E+04  3.244453E+05  1.390347E+04 -5.691472E+04
        97  25  9.000146E+05  3.415686E+04  3.866411E+04  3.240325E+05 -3.155689E+04 -7.573155E+03
        97  26  1.318975E+06  1.348629E+05  1.258340E+05  2.584725E+05 -2.185297E+04 -3.374396E+04
        97  27  1.740286E+06  2.389945E+05  2.201586E+05  3.256884E+05 -1.215650E+04 -5.692047E+04
        98   1 -5.206438E+05 -3.114402E+05 -2.374936E+05  3.329144E+05 -5.685694E+04  7.511932E+04
        98   2 -9.451609E+05 -4.059583E+05 -3.204316E+05  2.426367E+05 -1.000402E+04  7.940412E+04
        98   3 -1.362376E+06 -4.509248E+05 -4.213408E+05  2.824530E+05  3.676183E+04  2.623066E+04
        98   4  7.629204E+05 -2.320680E+03  2.466047E+04  3.238323E+05 -1.732982E+04  7.512071E+04
        98   5  7.531606E+05  6.281681E+03  4.218153E+04  2.588152E+05 -3.937249E+04  7.939226E+04
        98   6  7.624486E+05  7.632532E+04  8.955030E+04  3.238567E+05 -6.147049E+04  2.628037E+04
        98   7  2.048054E+06  3.066969E+05  2.867335E+05  3.147306E+05  2.227759E+04  7.512093E+04
        98   8  2.454201E+06  4.183351E+05  4.046314E+05  2.750383E+05 -6.882010E+04  7.937892E+04
        98   9  2.891433E+06  6.032586E+05  6.001576E+05  3.654023E+05 -1.600380E+05  2.631694E+04
        98  10 -5.206488E+05 -3.114471E+05 -2.375103E+05  3.329178E+05 -7.398583E-11 -8.203104E-10
        98  11 -9.451627E+05 -4.059651E+05 -3.204436E+05  2.426373E+05 -4.421841E-10 -1.737106E-09
        98  12 -1.362377E+06 -4.509259E+05 -4.213446E+05  2.824522E+05 -6.864302E-10 -1.058994E-09
        98  13  7.629186E+05 -2.326824E+03  2.464930E+04  3.238334E+05  5.230851E-10 -1.165502E-09
        98  14  7.531572E+05  6.274493E+03  4.216676E+04  2.588178E+05 -5.846652E-10 -1.527039E-09
        98  15  7.624444E+05  7.632356E+04  8.954191E+04  3.238580E+05 -2.501704E-09 -2.385116E-10
        98  16  2.048052E+06  3.066907E+05  2.867220E+05  3.147293E+05  7.547392E-10 -1.216713E-09
        98  17  2.454194E+06  4.183271E+05  4.046107E+05  2.750427E+05 -9.784965E-10 -1.090588E-09
        98  18  2.891406E+06  6.032510E+05  6.001084E+05  3.654057E+05  2.607665E-09 -1.026079E-09
        98  19 -5.206438E+05 -3.114402E+05 -2.374936E+05  3.329144E+05  5.685694E+04 -7.511932E+04
        98  20 -9.451609E+05 -4.059583E+05 -3.204316E+05  2.426367E+05  1.000402E+04 -7.940412E+04
        98  21 -1.362376E+06 -4.509248E+05 -4.213408E+05  2.824530E+05 -3.676183E+04 -2.623066E+04
        98  22  7.629204E+05 -2.320680E+03  2.466047E+04  3.238323E+05  1.732982E+04 -7.512071E+04
        98  23  7.531606E+05  6.281681E+03  4.218153E+04  2.588152E+05  3.937249E+04 -7.939226E+04
        98  24  7.624486E+05  7.632532E+04  8.955030E+04  3.238567E+05  6.147049E+04 -2.628037E+04
        98  25  2.048054E+06  3.066969E+05  2.867335E+05  3.147306E+05 -2.227759E+04 -7.512093E+04
        98  26  2.454201E+06  4.183351E+05  4.046314E+05  2.750383E+05  6.882010E+04 -7.937892E+04
        98  27  2.891433E+06  6.032586E+05  6.001576E+05  3.654023E+05  1.600380E+05 -2.631694E+04
        99   1 -7.811368E+05 -2.845233E+06 -7.748761E+05  6.073047E+05 -3.327033E+04 -1.793703E+05
        99   2 -5.165784E+05 -2.087526E+06 -4.938474E+05  4.681399E+05 -9.511566E+04 -6.339455E+04
        99   3 -3.254372E+05 -1.362997E+06 -3.069563E+05  5.594120E+05 -7.827960E+04  5.259428E+04
        99   4 -7.249350E+04  5.730268E+03 -8.660849E+04  5.715884E+05 -3.295891E+04 -5.814129E+04
        99   5 -5.257967E+03  1.482530E+04 -4.177587E+04  4.562810E+05 -9.501268E+04 -3.612505E+04
        99   6  5.091469E+03  6.699779E+03 -2.553487E+04  5.713944E+05 -7.849642E+04 -1.424053E+04
        99   7  6.355686E+05  2.864183E+06  6.011335E+05  5.356993E+05 -3.266242E+04  6.364492E+04
        99   8  5.057732E+05  2.121343E+06  4.100397E+05  4.443770E+05 -9.491097E+04 -8.764105E+03
        99   9  3.355047E+05  1.378190E+06  2.558032E+05  5.834016E+05 -7.871553E+04 -8.122038E+04
        99  10 -7.811466E+05 -2.845268E+06 -7.749389E+05  6.072999E+05 -5.480308E-10 -4.428573E-10
        99  11 -5.165892E+05 -2.087533E+06 -4.938719E+05  4.681350E+05  4.701852E-11  2.181045E-09
        99  12 -3.254445E+05 -1.363002E+06 -3.069731E+05  5.594153E+05  2.581881E-09 -2.406652E-09
        99  13 -7.249557E+04  5.726349E+03 -8.661688E+04  5.715869E+05  2.343821E-09  1.654108E-11
        99  14 -5.268008E+03  1.482148E+04 -4.179528E+04  4.562783E+05  3.513511E-09 -1.137710E-10
        99  15  5.084799E+03  6.697909E+03 -2.554682E+04  5.713935E+05  2.002245E-09  6.292039E-10
        99  16  6.355664E+05  2.864178E+06  6.011239E+05  5.357010E+05  1.610508E-09 -1.100221E-09
        99  17  5.057636E+05  2.121340E+06  4.100226E+05  4.443764E+05 -6.440863E-10  2.743229E-09
        99  18  3.354963E+05  1.378181E+06  2.557792E+05  5.833964E+05 -9.320482E-11 -1.859939E-09
        99  19 -7.811368E+05 -2.845233E+06 -7.748761E+05  6.073047E+05  3.327033E+04  1.793703E+05
        99  20 -5.165784E+05 -2.087526E+06 -4.938474E+05  4.681399E+05  9.511566E+04  6.339455E+04
        99  21 -3.254372E+05 -1.362997E+06 -3.069563E+05  5.594120E+05  7.827960E+04 -5.259428E+04
        99  22 -7.249350E+04  5.730268E+03 -8.660849E+04  5.715884E+05  3.295891E+04  5.814129E+04
        99  23 -5.257967E+03  1.482530E+04 -4.177587E+04  4.562810E+05  9.501268E+04  3.612505E+04
        99  24  5.091469E+03  6.699779E+03 -2.553487E+04  5.713944E+05  7.849642E+04  1.424053E+04
        99  25  6.355686E+05  2.864183E+06  6.011335E+05  5.356993E+05  3.266242E+04 -6.364492E+04
        99  26  5.057732E+05  2.121343E+06  4.100397E+05  4.443770E+05  9.491097E+04  8.764105E+03
        99  27  3.355047E+05  1.378190E+06  2.558032E+05  5.834016E+05  7.871553E+04  8.122038E+04
       100   1 -2.009363E+05 -8.250968E+05 -1.937299E+05  5.717079E+05 -4.683285E+04  3.849190E+04
       100   2 -1.994058E+04 -8.245945E+04 -3.556423E+04  4.549535E+05 -5.623363E+03  4.696724E+04
       100   3  1.577419E+05  6.572891E+05  1.158217E+05  5.725280E+05  3.585085E+04  5.544763E+04
       100   4  6.029056E+02  1.002506E+04 -2.154427E+04  5.723006E+05 -4.700636E+04 -1.073790E+04
       100   5  2.701960E+03  1.172372E+04 -1.654424E+04  4.551355E+05 -5.799356E+03 -2.600227E+03
       100   6  1.577953E+03  1.006886E+04 -1.807419E+04  5.722973E+05  3.567068E+04  5.532694E+03
       100   7  2.020994E+05  8.458143E+05  1.506129E+05  5.728933E+05 -4.717982E+04 -6.003282E+04
       100   8  2.534527E+04  1.059206E+05  2.484526E+03  4.553175E+05 -5.975363E+03 -5.217507E+04
       100   9 -1.546112E+05 -6.367492E+05 -1.519834E+05  5.720662E+05  3.549044E+04 -4.433115E+04
       100  10 -2.009391E+05 -8.250990E+05 -1.937368E+05  5.717094E+05  3.935199E-09 -2.275055E-08
       100  11 -1.994121E+04 -8.246183E+04 -3.556844E+04  4.549537E+05  2.734877E-09  3.935580E-09
       100  12  1.577397E+05  6.572854E+05  1.158135E+05  5.725264E+05  4.931684E-09  2.094800E-08
       100  13  6.005027E+02  1.002434E+04 -2.154863E+04  5.723002E+05  1.753116E-09 -5.722078E-11
       100  14  2.701922E+03  1.172371E+04 -1.654432E+04  4.551355E+05  1.764550E-09 -7.240879E-11
       100  15  1.576579E+03  1.006849E+04 -1.807663E+04  5.722971E+05  6.170896E-09  6.875000E-10
       100  16  2.020960E+05  8.458098E+05  1.506020E+05  5.728910E+05  2.567109E-09  1.993770E-08
       100  17  2.534450E+04  1.059177E+05  2.479345E+03  4.553172E+05  2.899531E-09  2.843755E-09
       100  18 -1.546130E+05 -6.367517E+05 -1.519895E+05  5.720675E+05  2.915259E-09 -2.576778E-08
       100  19 -2.009363E+05 -8.250968E+05 -1.937299E+05  5.717079E+05  4.683285E+04 -3.849190E+04
       100  20 -1.994058E+04 -8.245945E+04 -3.556423E+04  4.549535E+05  5.623363E+03 -4.696724E+04
       100  21  1.577419E+05  6.572891E+05  1.158217E+05  5.725280E+05 -3.585085E+04 -5.544763E+04
       100  22  6.029056E+02  1.002506E+04 -2.154427E+04  5.723006E+05  4.700636E+04  1.073790E+04
       100  23  2.701960E+03  1.172372E+04 -1.654424E+04  4.551355E+05  5.799356E+03  2.600227E+03
       100  24  1.577953E+03  1.006886E+04 -1.807419E+04  5.722973E+05 -3.567068E+04 -5.532694E+03
       100  25  2.020994E+05  8.458143E+05  1.506129E+05  5.728933E+05  4.717982E+04  6.003282E+04
       100  26  2.534527E+04  1.059206E+05  2.484526E+03  4.553175E+05  5.975363E+03  5.217507E+04
       100  27 -1.546112E+05 -6.367492E+05 -1.519834E+05  5.720662E+05 -3.549044E+04  4.433115E+04
       101   1  2.897336E+05  1.190482E+06  2.229016E+05  5.805647E+05  6.722290E+04  7.480737E+04
       101   2  4.624117E+05  1.931682E+06  3.812430E+05  4.484846E+05  8.534448E+04  2.427151E+03
       101   3  6.098490E+05  2.676130E+06  5.801516E+05  5.470189E+05  2.978810E+04 -6.990173E+04
       101   4  4.677652E+03  7.802486E+03 -2.026575E+04  5.714585E+05  6.699752E+04  8.403299E+03
       101   5 -3.123146E+03  1.368227E+04 -3.102039E+04  4.561930E+05  8.542973E+04  2.462041E+04
       101   6 -5.154683E+04  6.919027E+03 -6.266273E+04  5.716047E+05  3.007697E+04  4.097394E+04
       101   7 -2.804638E+05 -1.173541E+06 -2.634915E+05  5.623682E+05  6.677382E+04 -5.787671E+04
       101   8 -4.688986E+05 -1.900865E+06 -4.434974E+05  4.638737E+05  8.551570E+04  4.674613E+04
       101   9 -7.134524E+05 -2.655765E+06 -7.059389E+05  5.960780E+05  3.037540E+04  1.513759E+05
       101  10  2.897273E+05  1.190474E+06  2.228826E+05  5.805607E+05  6.471782E-09 -3.673207E-09
       101  11  4.624039E+05  1.931680E+06  3.812293E+05  4.484845E+05  1.219862E-09  2.741449E-09
       101  12  6.098468E+05  2.676125E+06  5.801408E+05  5.470205E+05  2.663388E-11  1.601471E-09
       101  13  4.672813E+03  7.801206E+03 -2.027432E+04  5.714580E+05  4.856425E-09 -3.548340E-11
       101  14 -3.131144E+03  1.367966E+04 -3.103524E+04  4.561913E+05 -2.954938E-10  2.481854E-12
       101  15 -5.154825E+04  6.916983E+03 -6.266758E+04  5.716037E+05 -5.776774E-10  4.755621E-10
       101  16 -2.804695E+05 -1.173546E+06 -2.635062E+05  5.623713E+05  8.495080E-10  7.532139E-10
       101  17 -4.689071E+05 -1.900870E+06 -4.435153E+05  4.638705E+05 -2.479840E-09  2.620440E-09
       101  18 -7.134595E+05 -2.655790E+06 -7.059838E+05  5.960743E+05 -1.396307E-09 -4.250605E-09
       101  19  2.897336E+05  1.190482E+06  2.229016E+05  5.805647E+05 -6.722290E+04 -7.480737E+04
       101  20  4.624117E+05  1.931682E+06  3.812430E+05  4.484846E+05 -8.534448E+04 -2.427151E+03
       101  21  6.098490E+05  2.676130E+06  5.801516E+05  5.470189E+05 -2.978810E+04  6.990173E+04
       101  22  4.677652E+03  7.802486E+03 -2.026575E+04  5.714585E+05 -6.699752E+04 -8.403299E+03
       101  23 -3.123146E+03  1.368227E+04 -3.102039E+04  4.561930E+05 -8.542973E+04 -2.462041E+04
       101  24 -5.154683E+04  6.919027E+03 -6.266273E+04  5.716047E+05 -3.007697E+04 -4.097394E+04
       101  25 -2.804638E+05 -1.173541E+06 -2.634915E+05  5.623682E+05 -6.677382E+04  5.787671E+04
       101  26 -4.688986E+05 -1.900865E+06 -4.434974E+05  4.638737E+05 -8.551570E+04 -4.674613E+04
       101  27 -7.134524E+05 -2.655765E+06 -7.059389E+05  5.960780E+05 -3.037540E+04 -1.513759E+05
       102   1  2.690718E+06  5.650792E+05  5.573510E+05  3.398227E+05  1.347043E+05 -2.596633E+04
       102   2  2.269103E+06  4.103146E+05  3.837343E+05  2.613197E+05  5.312931E+04 -7.846841E+04
       102   3  1.871370E+06  3.050648E+05  2.755578E+05  3.091150E+05 -2.833504E+04 -7.459927E+04
       102   4  5.960926E+05  4.652652E+04  5.493100E+04  3.146687E+05  3.745493E+04 -2.592335E+04
       102   5  5.902979E+05  3.581753E+03  2.603596E+04  2.515075E+05  2.381686E+04 -7.847981E+04
       102   6  5.965312E+05 -1.528655E+03  1.558212E+04  3.146529E+05  1.023379E+04 -7.460023E+04
       102   7 -1.494507E+06 -4.723369E+05 -4.477641E+05  2.895992E+05 -5.946895E+04 -2.587252E+04
       102   8 -1.085859E+06 -4.033334E+05 -3.318213E+05  2.417217E+05 -5.417776E+03 -7.849031E+04
       102   9 -6.767632E+05 -3.082226E+05 -2.444736E+05  3.201789E+05  4.872504E+04 -7.460050E+04
       102  10  2.690699E+06  5.650736E+05  5.573157E+05  3.398256E+05 -2.851035E-09  4.006823E-10
       102  11  2.269099E+06  4.103072E+05  3.837174E+05  2.613231E+05  1.046921E-08 -2.208506E-10
       102  12  1.871368E+06  3.050586E+05  2.755459E+05  3.091133E+05  1.765485E-08  1.752714E-09
       102  13  5.960909E+05  4.652542E+04  5.492710E+04  3.146695E+05  3.452373E-09 -8.436453E-10
       102  14  5.902957E+05  3.574985E+03  2.602332E+04  2.515090E+05  4.474843E-09  6.366947E-12
       102  15  5.965296E+05 -1.534662E+03  1.557146E+04  3.146536E+05  2.827923E-10  1.099379E-09
       102  16 -1.494511E+06 -4.723385E+05 -4.477721E+05  2.895979E+05  2.437066E-09 -7.632431E-10
       102  17 -1.085861E+06 -4.033400E+05 -3.318330E+05  2.417214E+05 -7.491892E-09 -1.977183E-11
       102  18 -6.767673E+05 -3.082292E+05 -2.444885E+05  3.201818E+05 -1.855598E-08  5.848629E-10
       102  19  2.690718E+06  5.650792E+05  5.573510E+05  3.398227E+05 -1.347043E+05  2.596633E+04
       102  20  2.269103E+06  4.103146E+05  3.837343E+05  2.613197E+05 -5.312931E+04  7.846841E+04
       102  21  1.871370E+06  3.050648E+05  2.755578E+05  3.091150E+05  2.833504E+04  7.459927E+04
       102  22  5.960926E+05  4.652652E+04  5.493100E+04  3.146687E+05 -3.745493E+04  2.592335E+04
       102  23  5.902979E+05  3.581753E+03  2.603596E+04  2.515075E+05 -2.381686E+04  7.847981E+04
       102  24  5.965312E+05 -1.528655E+03  1.558212E+04  3.146529E+05 -1.023379E+04  7.460023E+04
       102  25 -1.494507E+06 -4.723369E+05 -4.477641E+05  2.895992E+05  5.946895E+04  2.587252E+04
       102  26 -1.085859E+06 -4.033334E+05 -3.318213E+05  2.417217E+05  5.417776E+03  7.849031E+04
       102  27 -6.767632E+05 -3.082226E+05 -2.444736E+05  3.201789E+05 -4.872504E+04  7.460050E+04
       103   1  1.573601E+06  2.374143E+05  2.127930E+05  3.161290E+05 -1.721887E+04 -5.688558E+04
       103   2  1.164368E+06  1.372456E+05  1.242338E+05  2.511062E+05 -2.504308E+04 -3.440662E+04
       103   3  7.569802E+05  3.946822E+04  4.135871E+04  3.151338E+05 -3.287596E+04 -8.978625E+03
       103   4  5.942325E+05  1.767074E+03  1.269575E+04  3.152690E+05  8.028497E+03 -5.688095E+04
       103   5  5.937684E+05  1.138416E+02  8.597371E+03  2.507407E+05  3.746951E+03 -3.439316E+04
       103   6  5.943796E+05  2.485583E+02  7.733408E+03  3.152699E+05 -5.482428E+02 -8.954539E+03
       103   7 -3.842255E+05 -2.339398E+05 -1.874498E+05  3.144101E+05  3.323684E+04 -5.687638E+04
       103   8  2.348038E+04 -1.370377E+05 -1.070529E+05  2.503754E+05  3.251106E+04 -3.437972E+04
       103   9  4.318062E+05 -3.897222E+04 -2.588940E+04  3.154060E+05  3.177117E+04 -8.930433E+03
       103  10  1.573600E+06  2.374108E+05  2.127863E+05  3.161282E+05 -1.553414E-08  1.691392E-09
       103  11  1.164367E+06  1.372442E+05  1.242304E+05  2.511055E+05 -4.865194E-09  1.172895E-09
       103  12  7.569791E+05  3.946785E+04  4.135653E+04  3.151336E+05  4.859643E-09  1.118766E-09
       103  13  5.942316E+05  1.763581E+03  1.268955E+04  3.152694E+05  1.316281E-09  1.248224E-09
       103  14  5.937681E+05  1.125672E+02  8.595121E+03  2.507408E+05 -7.519431E-10  7.753712E-10
       103  15  5.943796E+05  2.484721E+02  7.733257E+03  3.152699E+05  1.674347E-09 -1.413618E-10
       103  16 -3.842275E+05 -2.339436E+05 -1.874580E+05  3.144116E+05  1.683568E-08  2.759449E-10
       103  17  2.347893E+04 -1.370392E+05 -1.070571E+05  2.503763E+05  5.518331E-09 -2.042069E-10
       103  18  4.318051E+05 -3.897258E+04 -2.589145E+04  3.154062E+05 -2.510189E-09 -4.785736E-10
       103  19  1.573601E+06  2.374143E+05  2.127930E+05  3.161290E+05  1.721887E+04  5.688558E+04
       103  20  1.164368E+06  1.372456E+05  1.242338E+05  2.511062E+05  2.504308E+04  3.440662E+04
       103  21  7.569802E+05  3.946822E+04  4.135871E+04  3.151338E+05  3.287596E+04  8.978625E+03
       103  22  5.942325E+05  1.767074E+03  1.269575E+04  3.152690E+05 -8.028497E+03  5.688095E+04
       103  23  5.937684E+05  1.138416E+02  8.597371E+03  2.507407E+05 -3.746951E+03  3.439316E+04
       103  24  5.943796E+05  2.485583E+02  7.733408E+03  3.152699E+05  5.482428E+02  8.954539E+03
       103  25 -3.842255E+05 -2.339398E+05 -1.874498E+05  3.144101E+05 -3.323684E+04  5.687638E+04
       103  26  2.348038E+04 -1.370377E+05 -1.070529E+05  2.503754E+05 -3.251106E+04  3.437972E+04
       103  27  4.318062E+05 -3.897222E+04 -2.588940E+04  3.154060E+05 -3.177117E+04  8.930433E+03
       104   1  4.638297E+05 -3.136645E+04 -1.903841E+04  3.156710E+05 -3.427903E+04  6.930826E+03
       104   2  5.532935E+04 -1.293078E+05 -9.825629E+04  2.503681E+05 -3.625596E+04  3.239348E+04
       104   3 -3.521944E+05 -2.252883E+05 -1.757031E+05  3.141323E+05 -3.821873E+04  5.495010E+04
       104   4  5.944570E+05  1.834509E+02  8.162188E+03  3.152704E+05 -1.969780E+03  6.955084E+03
       104   5  5.936796E+05  1.693272E+02  1.095886E+04  2.507398E+05 -7.447683E+03  3.240752E+04
       104   6  5.943172E+05  2.728771E+03  1.795353E+04  3.152688E+05 -1.291263E+04  5.495563E+04
       104   7  7.251027E+05  3.173282E+04  3.536577E+04  3.148698E+05  3.034615E+04  6.979296E+03
       104   8  1.132307E+06  1.296288E+05  1.201620E+05  2.511118E+05  2.138510E+04  3.242159E+04
       104   9  1.541681E+06  2.306900E+05  2.115650E+05  3.164068E+05  1.243138E+04  5.496123E+04
       104  10  4.638284E+05 -3.136681E+04 -1.904071E+04  3.156712E+05  8.552686E-10  4.185902E-10
       104  11  5.532765E+04 -1.293092E+05 -9.826073E+04  2.503691E+05 -5.112158E-10 -1.238015E-09
       104  12 -3.521968E+05 -2.252919E+05 -1.757115E+05  3.141339E+05 -3.350064E-10 -5.761101E-10
       104  13  5.944570E+05  1.833978E+02  8.162090E+03  3.152704E+05  8.718399E-10 -1.426443E-11
       104  14  5.936793E+05  1.681841E+02  1.095678E+04  2.507400E+05 -5.251712E-10  2.094396E-10
       104  15  5.943162E+05  2.725482E+03  1.794754E+04  3.152693E+05 -2.027638E-09 -6.165020E-10
       104  16  7.251017E+05  3.173252E+04  3.536395E+04  3.148696E+05  9.262773E-10 -1.679533E-10
       104  17  1.132307E+06  1.296276E+05  1.201592E+05  2.511112E+05 -4.387460E-10  3.467865E-10
       104  18  1.541680E+06  2.306868E+05  2.115591E+05  3.164062E+05 -8.959356E-10  2.570346E-10
       104  19  4.638297E+05 -3.136645E+04 -1.903841E+04  3.156710E+05  3.427903E+04 -6.930826E+03
       104  20  5.532935E+04 -1.293078E+05 -9.825629E+04  2.503681E+05  3.625596E+04 -3.239348E+04
       104  21 -3.521944E+05 -2.252883E+05 -1.757031E+05  3.141323E+05  3.821873E+04 -5.495010E+04
       104  22  5.944570E+05  1.834509E+02  8.162188E+03  3.152704E+05  1.969780E+03 -6.955084E+03
       104  23  5.936796E+05  1.693272E+02  1.095886E+04  2.507398E+05  7.447683E+03 -3.240752E+04
       104  24  5.943172E+05  2.728771E+03  1.795353E+04  3.152688E+05  1.291263E+04 -5.495563E+04
       104  25  7.251027E+05  3.173282E+04  3.536577E+04  3.148698E+05 -3.034615E+04 -6.979296E+03
       104  26  1.132307E+06  1.296288E+05  1.201620E+05  2.511118E+05 -2.138510E+04 -3.242159E+04
       104  27  1.541681E+06  2.306900E+05  2.115650E+05  3.164068E+05 -1.243138E+04 -5.496123E+04
       105   1 -6.435526E+05 -3.011290E+05 -2.310256E+05  3.230061E+05 -5.443096E+04  7.264310E+04
       105   2 -1.055460E+06 -3.934164E+05 -3.124202E+05  2.366372E+05 -7.899590E+03  7.686739E+04
       105   3 -1.461249E+06 -4.407500E+05 -4.127441E+05  2.766368E+05  3.855068E+04  2.540176E+04
       105   4  5.977666E+05 -2.132564E+03  2.255405E+04  3.146570E+05 -1.603813E+04  7.264462E+04
       105   5  5.887861E+05  5.762315E+03  3.871664E+04  2.514995E+05 -3.626943E+04  7.685619E+04
       105   6  5.973291E+05  7.014470E+04  8.230297E+04  3.146784E+05 -5.655305E+04  2.544795E+04
       105   7  1.840554E+06  2.967685E+05  2.760579E+05  3.062905E+05  2.243014E+04  7.264508E+04
       105   8  2.235581E+06  4.047660E+05  3.897004E+05  2.664013E+05 -6.471331E+04  7.684366E+04
       105   9  2.659812E+06  5.807413E+05  5.770834E+05  3.528464E+05 -1.519712E+05  2.548245E+04
       105  10 -6.435572E+05 -3.011355E+05 -2.310411E+05  3.230093E+05 -7.478869E-10 -4.315347E-10
       105  11 -1.055461E+06 -3.934228E+05 -3.124314E+05  2.366377E+05  2.298873E-09  8.207389E-12
       105  12 -1.461250E+06 -4.407511E+05 -4.127481E+05  2.766360E+05  1.081728E-09  6.665252E-10
       105  13  5.977649E+05 -2.138302E+03  2.254364E+04  3.146580E+05 -2.540458E-11 -3.538873E-10
       105  14  5.887831E+05  5.755616E+03  3.870307E+04  2.515017E+05 -6.868312E-10 -2.595713E-10
       105  15  5.973255E+05  7.014315E+04  8.229574E+04  3.146796E+05  2.094087E-09 -1.088267E-09
       105  16  1.840552E+06  2.967627E+05  2.760471E+05  3.062892E+05 -2.145222E-09 -2.857166E-10
       105  17  2.235575E+06  4.047585E+05  3.896814E+05  2.664053E+05 -1.171907E-09 -5.101008E-10
       105  18  2.659787E+06  5.807344E+05  5.770390E+05  3.528496E+05 -1.488702E-10 -6.860404E-10
       105  19 -6.435526E+05 -3.011290E+05 -2.310256E+05  3.230061E+05  5.443096E+04 -7.264310E+04
       105  20 -1.055460E+06 -3.934164E+05 -3.124202E+05  2.366372E+05  7.899590E+03 -7.686739E+04
       105  21 -1.461249E+06 -4.407500E+05 -4.127441E+05  2.766368E+05 -3.855068E+04 -2.540176E+04
       105  22  5.977666E+05 -2.132564E+03  2.255405E+04  3.146570E+05  1.603813E+04 -7.264462E+04
       105  23  5.887861E+05  5.762315E+03  3.871664E+04  2.514995E+05  3.626943E+04 -7.685619E+04
       105  24  5.973291E+05  7.014470E+04  8.230297E+04  3.146784E+05  5.655305E+04 -2.544795E+04
       105  25  1.840554E+06  2.967685E+05  2.760579E+05  3.062905E+05 -2.243014E+04 -7.264508E+04
       105  26  2.235581E+06  4.047660E+05  3.897004E+05  2.664013E+05  6.471331E+04 -7.684366E+04
       105  27  2.659812E+06  5.807413E+05  5.770834E+05  3.528464E+05  1.519712E+05 -2.548245E+04
       106   1 -7.616846E+05 -2.839863E+06 -7.540187E+05  5.992708E+05 -3.273989E+04 -1.685434E+05
       106   2 -5.077450E+05 -2.086452E+06 -4.815169E+05  4.641153E+05 -9.348628E+04 -5.653336E+04
       106   3 -3.186293E+05 -1.363552E+06 -2.984149E+05  5.585155E+05 -7.648101E+04  5.548772E+04
       106   4 -6.184572E+04 -2.452737E+04 -7.427135E+04  5.692286E+05 -3.243944E+04 -4.917668E+04
       106   5 -4.303007E+03 -1.667411E+04 -3.633351E+04  4.543791E+05 -9.338772E+04 -3.002831E+04
       106   6  4.736322E+03 -2.357553E+04 -2.302789E+04  5.690652E+05 -7.669404E+04 -1.100783E+04
       106   7  6.374249E+05  2.798110E+06  6.049628E+05  5.390419E+05 -3.215147E+04  7.073177E+04
       106   8  4.988583E+05  2.057142E+06  4.086016E+05  4.446057E+05 -9.329021E+04 -3.435790E+03
       106   9  3.279915E+05  1.318118E+06  2.522798E+05  5.796361E+05 -7.690905E+04 -7.764457E+04
       106  10 -7.616935E+05 -2.839894E+06 -7.540743E+05  5.992664E+05 -5.187421E-10 -2.319665E-09
       106  11 -5.077552E+05 -2.086458E+06 -4.815393E+05  4.641111E+05 -1.661472E-09 -6.051809E-10
       106  12 -3.186364E+05 -1.363557E+06 -2.984317E+05  5.585189E+05 -1.085931E-09  4.068402E-09
       106  13 -6.184750E+04 -2.453024E+04 -7.427786E+04  5.692273E+05  2.877525E-09  2.370501E-11
       106  14 -4.312612E+03 -1.667742E+04 -3.635158E+04  4.543768E+05 -1.672853E-09  2.138500E-09
       106  15  4.729974E+03 -2.357723E+04 -2.303917E+04  5.690646E+05  8.689385E-10 -3.723643E-10
       106  16  6.374225E+05  2.798105E+06  6.049515E+05  5.390437E+05 -1.032475E-09  3.868650E-09
       106  17  4.988490E+05  2.057139E+06  4.085852E+05  4.446054E+05  1.143398E-09  3.311844E-09
       106  18  3.279835E+05  1.318110E+06  2.522574E+05  5.796313E+05  6.642449E-10 -5.070019E-09
       106  19 -7.616846E+05 -2.839863E+06 -7.540187E+05  5.992708E+05  3.273989E+04  1.685434E+05
       106  20 -5.077450E+05 -2.086452E+06 -4.815169E+05  4.641153E+05  9.348628E+04  5.653336E+04
       106  21 -3.186293E+05 -1.363552E+06 -2.984149E+05  5.585155E+05  7.648101E+04 -5.548772E+04
       106  22 -6.184572E+04 -2.452737E+04 -7.427135E+04  5.692286E+05  3.243944E+04  4.917668E+04
       106  23 -4.303007E+03 -1.667411E+04 -3.633351E+04  4.543791E+05  9.338772E+04  3.002831E+04
       106  24  4.736322E+03 -2.357553E+04 -2.302789E+04  5.690652E+05  7.669404E+04  1.100783E+04
       106  25  6.374249E+05  2.798110E+06  6.049628E+05  5.390419E+05  3.215147E+04 -7.073177E+04
       106  26  4.988583E+05  2.057142E+06  4.086016E+05  4.446057E+05  9.329021E+04  3.435790E+03
       106  27  3.279915E+05  1.318118E+06  2.522798E+05  5.796361E+05  7.690905E+04  7.764457E+04
       107   1 -1.939004E+05 -8.283166E+05 -1.866124E+05  5.694561E+05 -4.517827E+04  4.133143E+04
       107   2 -1.406814E+04 -8.857075E+04 -3.109316E+04  4.530813E+05 -4.096139E+03  4.998854E+04
       107   3  1.622955E+05  6.482590E+05  1.175003E+05  5.701181E+05  3.718265E+04  5.865213E+04
       107   4  9.911700E+02 -2.081427E+04 -2.004576E+04  5.699576E+05 -4.534906E+04 -7.784524E+03
       107   5  2.633529E+03 -1.910185E+04 -1.706507E+04  4.532528E+05 -4.268522E+03  6.153699E+02
       107   6  8.824153E+02 -2.078206E+04 -2.081856E+04  5.699581E+05  3.700701E+04  9.011767E+03
       107   7  1.958429E+05  7.873123E+05  1.464948E+05  5.704590E+05 -4.551980E+04 -5.696330E+04
       107   8  1.933621E+04  5.037688E+04 -3.028073E+03  4.534243E+05 -4.440921E+03 -4.876322E+04
       107   9 -1.605577E+05 -6.893938E+05 -1.591524E+05  5.697978E+05  3.683128E+04 -4.057607E+04
       107  10 -1.939031E+05 -8.283190E+05 -1.866194E+05  5.694576E+05  1.390191E-09  1.369246E-10
       107  11 -1.406883E+04 -8.857344E+04 -3.109789E+04  4.530815E+05  1.293528E-09 -7.546185E-10
       107  12  1.622931E+05  6.482549E+05  1.174912E+05  5.701163E+05  6.271034E-10  1.117020E-09
       107  13  9.889459E+02 -2.081489E+04 -2.004973E+04  5.699573E+05  4.428645E-10 -9.111407E-12
       107  14  2.633510E+03 -1.910186E+04 -1.706511E+04  4.532528E+05 -1.268597E-09  2.940687E-09
       107  15  8.809234E+02 -2.078251E+04 -2.082129E+04  5.699579E+05  1.759871E-09 -3.743976E-10
       107  16  1.958398E+05  7.873083E+05  1.464848E+05  5.704569E+05  1.237017E-09  2.795896E-09
       107  17  1.933555E+04  5.037432E+04 -3.032578E+03  4.534241E+05  2.548125E-09  4.447116E-09
       107  18 -1.605596E+05 -6.893959E+05 -1.591580E+05  5.697990E+05  3.295439E-09 -2.502010E-09
       107  19 -1.939004E+05 -8.283166E+05 -1.866124E+05  5.694561E+05  4.517827E+04 -4.133143E+04
       107  20 -1.406814E+04 -8.857075E+04 -3.109316E+04  4.530813E+05  4.096139E+03 -4.998854E+04
       107  21  1.622955E+05  6.482590E+05  1.175003E+05  5.701181E+05 -3.718265E+04 -5.865213E+04
       107  22  9.911700E+02 -2.081427E+04 -2.004576E+04  5.699576E+05  4.534906E+04  7.784524E+03
       107  23  2.633529E+03 -1.910185E+04 -1.706507E+04  4.532528E+05  4.268522E+03 -6.153699E+02
       107  24  8.824153E+02 -2.078206E+04 -2.081856E+04  5.699581E+05 -3.700701E+04 -9.011767E+03
       107  25  1.958429E+05  7.873123E+05  1.464948E+05  5.704590E+05  4.551980E+04  5.696330E+04
       107  26  1.933621E+04  5.037688E+04 -3.028073E+03  4.534243E+05  4.440921E+03  4.876322E+04
       107  27 -1.605577E+05 -6.893938E+05 -1.591524E+05  5.697978E+05 -3.683128E+04  4.057607E+04
       108   1  2.948011E+05  1.178628E+06  2.229404E+05  5.799841E+05  6.845437E+04  7.859820E+04
       108   2  4.650355E+05  1.918568E+06  3.770388E+05  4.434277E+05  8.626839E+04  9.876001E+03
       108   3  5.985012E+05  2.658462E+06  5.664633E+05  5.365434E+05  3.007259E+04 -5.879461E+04
       108   4  4.983994E+03 -2.379312E+04 -2.421379E+04  5.691073E+05  6.823434E+04  1.237697E+04
       108   5 -4.544492E+03 -1.622888E+04 -3.872309E+04  4.543277E+05  8.635425E+04  3.264021E+04
       108   6 -6.631429E+04 -2.468162E+04 -7.964526E+04  5.692885E+05  3.035507E+04  5.303490E+04
       108   7 -2.849214E+05 -1.224834E+06 -2.714289E+05  5.582502E+05  6.801635E+04 -5.371849E+04
       108   8 -4.743690E+05 -1.947512E+06 -4.547022E+05  4.651896E+05  8.644107E+04  5.533452E+04
       108   9 -7.316429E+05 -2.701228E+06 -7.262198E+05  6.018853E+05  3.065011E+04  1.643840E+05
       108  10  2.947944E+05  1.178620E+06  2.229200E+05  5.799798E+05  1.273310E-09 -1.532902E-09
       108  11  4.650275E+05  1.918566E+06  3.770247E+05  4.434270E+05 -1.738008E-09 -1.530738E-09
       108  12  5.984993E+05  2.658458E+06  5.664551E+05  5.365449E+05 -1.657994E-09  6.137884E-10
       108  13  4.978955E+03 -2.379453E+04 -2.422282E+04  5.691066E+05  2.601756E-09 -3.804234E-11
       108  14 -4.552783E+03 -1.623203E+04 -3.873910E+04  4.543254E+05  1.364719E-09  2.286577E-09
       108  15 -6.631604E+04 -2.468488E+04 -7.965227E+04  5.692872E+05 -5.935725E-10 -2.023756E-10
       108  16 -2.849272E+05 -1.224838E+06 -2.714431E+05  5.582531E+05  7.601844E-10  4.208270E-09
       108  17 -4.743778E+05 -1.947517E+06 -4.547219E+05  4.651857E+05  1.886161E-09  4.317276E-09
       108  18 -7.316512E+05 -2.701257E+06 -7.262725E+05  6.018812E+05 -1.155488E-09 -1.344320E-09
       108  19  2.948011E+05  1.178628E+06  2.229404E+05  5.799841E+05 -6.845437E+04 -7.859820E+04
       108  20  4.650355E+05  1.918568E+06  3.770388E+05  4.434277E+05 -8.626839E+04 -9.876001E+03
       108  21  5.985012E+05  2.658462E+06  5.664633E+05  5.365434E+05 -3.007259E+04  5.879461E+04
       108  22  4.983994E+03 -2.379312E+04 -2.421379E+04  5.691073E+05 -6.823434E+04 -1.237697E+04
       108  23 -4.544492E+03 -1.622888E+04 -3.872309E+04  4.543277E+05 -8.635425E+04 -3.264021E+04
       108  24 -6.631429E+04 -2.468162E+04 -7.964526E+04  5.692885E+05 -3.035507E+04 -5.303490E+04
       108  25 -2.849214E+05 -1.224834E+06 -2.714289E+05  5.582502E+05 -6.801635E+04  5.371849E+04
       108  26 -4.743690E+05 -1.947512E+06 -4.547022E+05  4.651896E+05 -8.644107E+04 -5.533452E+04
       108  27 -7.316429E+05 -2.701228E+06 -7.262198E+05  6.018853E+05 -3.065011E+04 -1.643840E+05
       109   1  2.865490E+06  6.460759E+05  6.336597E+05  4.410016E+05  1.375235E+05 -2.978891E+04
       109   2  2.303010E+06  4.679416E+05  4.283410E+05  3.453368E+05  4.699617E+04 -8.846484E+04
       109   3  1.763707E+06  3.304621E+05  2.920734E+05  4.199609E+05 -4.339083E+04 -7.981014E+04
       109   4  3.858749E+05  3.203864E+04  3.817761E+04  4.234971E+05  2.626269E+04 -2.976595E+04
       109   5  3.817525E+05  2.212899E+03  1.790798E+04  3.383407E+05  1.688785E+04 -8.848907E+04
       109   6  3.865359E+05 -9.239178E+02  1.054458E+04  4.234937E+05  7.570274E+03 -7.979050E+04
       109   7 -2.088103E+06 -5.824373E+05 -5.576946E+05  4.060612E+05 -8.455722E+04 -2.973681E+04
       109   8 -1.536038E+06 -4.637557E+05 -3.927353E+05  3.313655E+05 -1.312898E+04 -8.851270E+04
       109   9 -9.888314E+05 -3.324272E+05 -2.710749E+05  4.270176E+05  5.842062E+04 -7.977024E+04
       109  10  2.865470E+06  6.460699E+05  6.336227E+05  4.410049E+05 -1.561637E-09  4.945342E-10
       109  11  2.303006E+06  4.679326E+05  4.283221E+05  3.453401E+05 -1.164934E-09 -5.062722E-10
       109  12  1.763703E+06  3.304547E+05  2.920579E+05  4.199582E+05 -1.841039E-09 -3.840184E-10
       109  13  3.858739E+05  3.203750E+04  3.817465E+04  4.234978E+05 -8.258694E-10 -1.361666E-09
       109  14  3.817501E+05  2.204412E+03  1.789272E+04  3.383419E+05  2.389896E-09 -1.943718E-10
       109  15  3.865341E+05 -9.307715E+02  1.053251E+04  4.234942E+05  1.655336E-09  2.225936E-10
       109  16 -2.088111E+06 -5.824402E+05 -5.577098E+05  4.060592E+05 -6.850109E-10 -7.633036E-10
       109  17 -1.536041E+06 -4.637642E+05 -3.927503E+05  3.313646E+05  1.086975E-10  7.260518E-10
       109  18 -9.888368E+05 -3.324349E+05 -2.710933E+05  4.270214E+05  4.594501E-10  3.230775E-10
       109  19  2.865490E+06  6.460759E+05  6.336597E+05  4.410016E+05 -1.375235E+05  2.978891E+04
       109  20  2.303010E+06  4.679416E+05  4.283410E+05  3.453368E+05 -4.699617E+04  8.846484E+04
       109  21  1.763707E+06  3.304621E+05  2.920734E+05  4.199609E+05  4.339083E+04  7.981014E+04
       109  22  3.858749E+05  3.203864E+04  3.817761E+04  4.234971E+05 -2.626269E+04  2.976595E+04
       109  23  3.817525E+05  2.212899E+03  1.790798E+04  3.383407E+05 -1.688785E+04  8.848907E+04
       109  24  3.865359E+05 -9.239178E+02  1.054458E+04  4.234937E+05 -7.570274E+03  7.979050E+04
       109  25 -2.088103E+06 -5.824373E+05 -5.576946E+05  4.060612E+05  8.455722E+04  2.973681E+04
       109  26 -1.536038E+06 -4.637557E+05 -3.927353E+05  3.313655E+05  1.312898E+04  8.851270E+04
       109  27 -9.888314E+05 -3.324272E+05 -2.710749E+05  4.270176E+05 -5.842062E+04  7.977024E+04
       110   1  1.364794E+06  2.374282E+05  2.091665E+05  4.250815E+05 -2.898574E+04 -5.627165E+04
       110   2  8.145602E+05  1.038245E+05  9.275219E+04  3.376915E+05 -3.572004E+04 -2.535864E+04
       110   3  2.659792E+05 -2.782332E+04 -1.882871E+04  4.240133E+05 -4.246244E+04  9.030442E+03
       110   4  3.848899E+05  1.491134E+03  8.384241E+03  4.242533E+05  6.076901E+03 -5.624917E+04
       110   5  3.846469E+05  3.777590E+02  5.133434E+03  3.373943E+05  3.507969E+03 -2.532558E+04
       110   6  3.850386E+05  5.131191E+02  3.832267E+03  4.242544E+05  9.251065E+02  9.076168E+03
       110   7 -5.941009E+05 -2.345055E+05 -1.924445E+05  4.234260E+05  4.108529E+04 -5.622675E+04
       110   8 -4.508759E+04 -1.030797E+05 -8.248926E+04  3.370972E+05  4.270934E+04 -2.529253E+04
       110   9  5.041156E+05  2.884974E+04  2.649968E+04  4.244955E+05  4.432078E+04  9.121921E+03
       110  10  1.364792E+06  2.374246E+05  2.091590E+05  4.250801E+05 -1.108652E-09  3.246183E-10
       110  11  8.145587E+05  1.038235E+05  9.274859E+04  3.376908E+05 -1.971037E-09 -1.425486E-09
       110  12  2.659773E+05 -2.782389E+04 -1.883225E+04  4.240136E+05  2.400883E-10  1.009275E-10
       110  13  3.848890E+05  1.487726E+03  8.378224E+03  4.242536E+05  1.684969E-11  8.287164E-11
       110  14  3.846467E+05  3.770668E+02  5.132205E+03  3.373944E+05  1.491747E-09 -4.927364E-10
       110  15  3.850386E+05  5.130304E+02  3.832111E+03  4.242544E+05 -3.434141E-09 -4.162803E-10
       110  16 -5.941036E+05 -2.345094E+05 -1.924536E+05  4.234278E+05  7.508947E-10 -4.341466E-10
       110  17 -4.508972E+04 -1.030809E+05 -8.249390E+04  3.370981E+05 -1.631037E-10 -2.632146E-10
       110  18  5.041135E+05  2.884912E+04  2.649584E+04  4.244952E+05 -1.421458E-09  1.954879E-10
       110  19  1.364794E+06  2.374282E+05  2.091665E+05  4.250815E+05  2.898574E+04  5.627165E+04
       110  20  8.145602E+05  1.038245E+05  9.275219E+04  3.376915E+05  3.572004E+04  2.535864E+04
       110  21  2.659792E+05 -2.782332E+04 -1.882871E+04  4.240133E+05  4.246244E+04 -9.030442E+03
       110  22  3.848899E+05  1.491134E+03  8.384241E+03  4.242533E+05 -6.076901E+03  5.624917E+04
       110  23  3.846469E+05  3.777590E+02  5.133434E+03  3.373943E+05 -3.507969E+03  2.532558E+04
       110  24  3.850386E+05  5.131191E+02  3.832267E+03  4.242544E+05 -9.251065E+02 -9.076168E+03
       110  25 -5.941009E+05 -2.345055E+05 -1.924445E+05  4.234260E+05 -4.108529E+04  5.622675E+04
       110  26 -4.508759E+04 -1.030797E+05 -8.248926E+04  3.370972E+05 -4.270934E+04  2.529253E+04
       110  27  5.041156E+05  2.884974E+04  2.649968E+04  4.244955E+05 -4.432078E+04 -9.121921E+03
       111   1 -1.286474E+05 -1.231321E+05 -1.009385E+05  4.240033E+05 -4.335246E+04  3.045359E+04
       111   2 -6.777051E+05 -2.554710E+05 -2.111822E+05  3.370058E+05 -4.002017E+04  6.459247E+04
       111   3 -1.226668E+06 -3.879115E+05 -3.236037E+05  4.237308E+05 -3.665656E+04  9.431839E+04
       111   4  3.850091E+05  5.011549E+02  3.630433E+03  4.242510E+05  2.337333E+02  3.049566E+04
       111   5  3.844581E+05  2.895128E+01  3.926968E+03  3.373987E+05 -1.743406E+03  6.460939E+04
       111   6  3.846425E+05  3.947593E+02  5.738697E+03  4.242507E+05 -3.686469E+03  9.431465E+04
       111   7  8.989206E+05  1.241189E+05  1.081926E+05  4.244988E+05  4.385533E+04  3.053775E+04
       111   8  1.447699E+06  2.554596E+05  2.189832E+05  3.377920E+05  3.659765E+04  6.462633E+04
       111   9  1.998425E+06  3.885390E+05  3.349479E+05  4.247709E+05  2.936776E+04  9.431096E+04
       111  10 -1.286496E+05 -1.231336E+05 -1.009438E+05  4.240044E+05  3.270589E-10  7.172136E-12
       111  11 -6.777080E+05 -2.554759E+05 -2.111931E+05  3.370078E+05 -4.703481E-10 -4.709344E-10
       111  12 -1.226671E+06 -3.879215E+05 -3.236229E+05  4.237336E+05 -1.077090E-09  3.720207E-10
       111  13  3.850089E+05  5.001561E+02  3.628685E+03  4.242510E+05 -1.072959E-09 -4.612204E-10
       111  14  3.844569E+05  2.446703E+01  3.919116E+03  3.373988E+05 -5.380232E-10 -9.298169E-10
       111  15  3.846401E+05  3.852016E+02  5.721952E+03  4.242510E+05 -3.391951E-10 -3.449993E-10
       111  16  8.989182E+05  1.241174E+05  1.081873E+05  4.244977E+05 -9.171497E-10 -5.606548E-10
       111  17  1.447697E+06  2.554547E+05  2.189728E+05  3.377900E+05 -9.918873E-10 -1.657661E-10
       111  18  1.998421E+06  3.885292E+05  3.349296E+05  4.247687E+05 -5.847016E-10 -8.564652E-10
       111  19 -1.286474E+05 -1.231321E+05 -1.009385E+05  4.240033E+05  4.335246E+04 -3.045359E+04
       111  20 -6.777051E+05 -2.554710E+05 -2.111822E+05  3.370058E+05  4.002017E+04 -6.459247E+04
       111  21 -1.226668E+06 -3.879115E+05 -3.236037E+05  4.237308E+05  3.665656E+04 -9.431839E+04
       111  22  3.850091E+05  5.011549E+02  3.630433E+03  4.242510E+05 -2.337333E+02 -3.049566E+04
       111  23  3.844581E+05  2.895128E+01  3.926968E+03  3.373987E+05  1.743406E+03 -6.460939E+04
       111  24  3.846425E+05  3.947593E+02  5.738697E+03  4.242507E+05  3.686469E+03 -9.431465E+04
       111  25  8.989206E+05  1.241189E+05  1.081926E+05  4.244988E+05 -4.385533E+04 -3.053775E+04
       111  26  1.447699E+06  2.554596E+05  2.189832E+05  3.377920E+05 -3.659765E+04 -6.462633E+04
       111  27  1.998425E+06  3.885390E+05  3.349479E+05  4.247709E+05 -2.936776E+04 -9.431096E+04
       112   1 -1.622401E+06 -4.852770E+05 -4.028038E+05  4.259722E+05 -5.731184E+04  1.184547E+05
       112   2 -2.167295E+06 -6.189193E+05 -5.322417E+05  3.352857E+05  3.679088E+04  1.206213E+05
       112   3 -2.722270E+06 -7.522947E+05 -7.226318E+05  4.141586E+05  1.306662E+05  3.919339E+04
       112   4  3.857473E+05 -1.357995E+03  7.066276E+03  4.233164E+05 -4.713285E+03  1.184354E+05
       112   5  3.817905E+05  2.069120E+02  1.148145E+04  3.385647E+05 -1.062313E+04  1.206087E+05
       112   6  3.848742E+05  1.943494E+04  2.450579E+04  4.233319E+05 -1.667418E+04  3.934434E+04
       112   7  2.397740E+06  4.823102E+05  4.167342E+05  4.206504E+05  4.805262E+04  1.184156E+05
       112   8  2.937012E+06  6.189108E+05  5.548384E+05  3.418566E+05 -5.822940E+04  1.205956E+05
       112   9  3.500925E+06  7.904733E+05  7.710385E+05  4.325510E+05 -1.647513E+05  3.949074E+04
       112  10 -1.622408E+06 -4.852930E+05 -4.028363E+05  4.259777E+05 -1.241308E-09  1.503272E-09
       112  11 -2.167301E+06 -6.189353E+05 -5.322716E+05  3.352821E+05 -2.217873E-10  3.321371E-09
       112  12 -2.722289E+06 -7.523009E+05 -7.226669E+05  4.141544E+05  1.095504E-09  1.216766E-09
       112  13  3.857435E+05 -1.373067E+03  7.039869E+03  4.233169E+05 -1.481750E-09  1.115671E-09
       112  14  3.817864E+05  1.912577E+02  1.145389E+04  3.385657E+05  8.744842E-10 -9.072152E-10
       112  15  3.848735E+05  1.943320E+04  2.450236E+04  4.233324E+05  1.910848E-09  9.967091E-11
       112  16  2.397734E+06  4.822945E+05  4.167035E+05  4.206459E+05  2.176177E-09 -2.391933E-10
       112  17  2.937004E+06  6.188942E+05  5.548048E+05  3.418623E+05  2.697049E-09 -7.040554E-10
       112  18  3.500895E+06  7.904644E+05  7.709848E+05  4.325562E+05 -1.457417E-09  1.540168E-09
       112  19 -1.622401E+06 -4.852770E+05 -4.028038E+05  4.259722E+05  5.731184E+04 -1.184547E+05
       112  20 -2.167295E+06 -6.189193E+05 -5.322417E+05  3.352857E+05 -3.679088E+04 -1.206213E+05
       112  21 -2.722270E+06 -7.522947E+05 -7.226318E+05  4.141586E+05 -1.306662E+05 -3.919339E+04
       112  22  3.857473E+05 -1.357995E+03  7.066276E+03  4.233164E+05  4.713285E+03 -1.184354E+05
       112  23  3.817905E+05  2.069120E+02  1.148145E+04  3.385647E+05  1.062313E+04 -1.206087E+05
       112  24  3.848742E+05  1.943494E+04  2.450579E+04  4.233319E+05  1.667418E+04 -3.934434E+04
       112  25  2.397740E+06  4.823102E+05  4.167342E+05  4.206504E+05 -4.805262E+04 -1.184156E+05
       112  26  2.937012E+06  6.189108E+05  5.548384E+05  3.418566E+05  5.822940E+04 -1.205956E+05
       112  27  3.500925E+06  7.904733E+05  7.710385E+05  4.325510E+05  1.647513E+05 -3.949074E+04
       113   1 -8.288500E+05 -3.239559E+06 -8.195327E+05  6.555498E+05 -3.586069E+04 -1.787292E+05
       113   2 -5.554699E+05 -2.411263E+06 -5.245422E+05  5.090330E+05 -1.023092E+05 -5.742483E+04
       113   3 -3.479717E+05 -1.614796E+06 -3.253177E+05  6.152266E+05 -8.344754E+04  6.390434E+04
       113   4 -6.134153E+04 -1.530370E+05 -7.404586E+04  6.262601E+05 -3.552177E+04 -4.805216E+04
       113   5 -4.113851E+03 -1.451617E+05 -3.695155E+04  4.998345E+05 -1.021962E+05 -2.858169E+04
       113   6  5.142349E+03 -1.518856E+05 -2.456539E+04  6.260923E+05 -8.369326E+04 -9.251568E+03
       113   7  7.054826E+05  2.942265E+06  6.708233E+05  5.968143E+05 -3.519635E+04  8.327536E+04
       113   8  5.469055E+05  2.125781E+06  4.503412E+05  4.905965E+05 -1.020843E+05  3.657185E+02
       113   9  3.581247E+05  1.313072E+06  2.760925E+05  6.369814E+05 -8.394119E+04 -8.257712E+04
       113  10 -8.288600E+05 -3.239593E+06 -8.195954E+05  6.555446E+05 -5.750643E-10  1.025766E-09
       113  11 -5.554820E+05 -2.411269E+06 -5.245681E+05  5.090283E+05 -7.291235E-10 -5.000796E-09
       113  12 -3.479803E+05 -1.614803E+06 -3.253385E+05  6.152309E+05  4.679759E-10 -1.127961E-08
       113  13 -6.134350E+04 -1.530398E+05 -7.405256E+04  6.262587E+05 -9.298376E-10  1.537298E-09
       113  14 -4.125282E+03 -1.451654E+05 -3.697270E+04  4.998321E+05  3.222737E-10 -2.212354E-09
       113  15  5.134806E+03 -1.518875E+05 -2.457871E+04  6.260916E+05  2.346255E-09  3.770346E-09
       113  16  7.054794E+05  2.942257E+06  6.708080E+05  5.968166E+05  1.021017E-09 -3.420988E-09
       113  17  5.468943E+05  2.125778E+06  4.503216E+05  4.905965E+05  1.030441E-09  1.048469E-08
       113  18  3.581153E+05  1.313063E+06  2.760665E+05  6.369758E+05  3.762930E-09  1.321147E-08
       113  19 -8.288500E+05 -3.239559E+06 -8.195327E+05  6.555498E+05  3.586069E+04  1.787292E+05
       113  20 -5.554699E+05 -2.411263E+06 -5.245422E+05  5.090330E+05  1.023092E+05  5.742483E+04
       113  21 -3.479717E+05 -1.614796E+06 -3.253177E+05  6.152266E+05  8.344754E+04 -6.390434E+04
       113  22 -6.134153E+04 -1.530370E+05 -7.404586E+04  6.262601E+05  3.552177E+04  4.805216E+04
       113  23 -4.113851E+03 -1.451617E+05 -3.695155E+04  4.998345E+05  1.021962E+05  2.858169E+04
       113  24  5.142349E+03 -1.518856E+05 -2.456539E+04  6.260923E+05  8.369326E+04  9.251568E+03
       113  25  7.054826E+05  2.942265E+06  6.708233E+05  5.968143E+05  3.519635E+04 -8.327536E+04
       113  26  5.469055E+05  2.125781E+06  4.503412E+05  4.905965E+05  1.020843E+05 -3.657185E+02
       113  27  3.581247E+05  1.313072E+06  2.760925E+05  6.369814E+05  8.394119E+04  8.257712E+04
       114   1 -2.100868E+05 -1.026030E+06 -2.031461E+05  6.265923E+05 -4.899324E+04  4.838236E+04
       114   2 -1.245262E+04 -2.115116E+05 -3.410048E+04  4.983594E+05 -3.736842E+03  5.903422E+04
       114   3  1.807819E+05  5.995195E+05  1.264273E+05  6.271107E+05  4.170392E+04  6.969599E+04
       114   4  1.567067E+03 -1.492646E+05 -2.222195E+04  6.270787E+05 -4.919113E+04 -5.724699E+03
       114   5  3.009837E+03 -1.472089E+05 -2.111525E+04  4.985899E+05 -3.936143E+03  4.679125E+03
       114   6  1.319867E+02 -1.492319E+05 -2.834087E+04  6.270842E+05  4.150121E+04  1.507938E+04
       114   7  2.131739E+05  7.282373E+05  1.586717E+05  6.275648E+05 -4.938894E+04 -5.990693E+04
       114   8  1.847363E+04 -8.289592E+04 -8.119129E+03  4.988205E+05 -4.135471E+03 -4.968149E+04
       114   9 -1.805518E+05 -8.974457E+05 -1.831282E+05  6.270570E+05  4.129835E+04 -3.947255E+04
       114  10 -2.100900E+05 -1.026033E+06 -2.031550E+05  6.265942E+05  1.111395E-09  1.546741E-08
       114  11 -1.245358E+04 -2.115153E+05 -3.410706E+04  4.983596E+05  3.339845E-10  1.175982E-08
       114  12  1.807787E+05  5.995138E+05  1.264149E+05  6.271083E+05  1.531464E-09  1.185626E-09
       114  13  1.564461E+03 -1.492652E+05 -2.222655E+04  6.270784E+05  1.751258E-09  2.920668E-09
       114  14  3.009814E+03 -1.472089E+05 -2.111532E+04  4.985899E+05  2.039979E-09 -3.005965E-09
       114  15  1.300772E+02 -1.492326E+05 -2.834453E+04  6.270837E+05  5.884661E-10  4.139696E-09
       114  16  2.131704E+05  7.282328E+05  1.586604E+05  6.275624E+05  3.809740E-09 -1.985737E-08
       114  17  1.847295E+04 -8.289858E+04 -8.123799E+03  4.988203E+05  2.598261E-09 -4.142200E-09
       114  18 -1.805540E+05 -8.974478E+05 -1.831343E+05  6.270583E+05 -3.591436E-10  8.686213E-10
       114  19 -2.100868E+05 -1.026030E+06 -2.031461E+05  6.265923E+05  4.899324E+04 -4.838236E+04
       114  20 -1.245262E+04 -2.115116E+05 -3.410048E+04  4.983594E+05  3.736842E+03 -5.903422E+04
       114  21  1.807819E+05  5.995195E+05  1.264273E+05  6.271107E+05 -4.170392E+04 -6.969599E+04
       114  22  1.567067E+03 -1.492646E+05 -2.222195E+04  6.270787E+05  4.919113E+04  5.724699E+03
       114  23  3.009837E+03 -1.472089E+05 -2.111525E+04  4.985899E+05  3.936143E+03 -4.679125E+03
       114  24  1.319867E+02 -1.492319E+05 -2.834087E+04  6.270842E+05 -4.150121E+04 -1.507938E+04
       114  25  2.131739E+05  7.282373E+05  1.586717E+05  6.275648E+05  4.938894E+04  5.990693E+04
       114  26  1.847363E+04 -8.289592E+04 -8.119129E+03  4.988205E+05  4.135471E+03  4.968149E+04
       114  27 -1.805518E+05 -8.974457E+05 -1.831282E+05  6.270570E+05 -4.129835E+04  3.947255E+04
       115   1  3.283395E+05  1.182260E+06  2.407099E+05  6.412451E+05  7.615316E+04  9.268032E+04
       115   2  5.126337E+05  1.999650E+06  4.043894E+05  4.826781E+05  9.564320E+04  2.362283E+04
       115   3  6.371165E+05  2.811471E+06  5.978551E+05  5.769181E+05  3.334017E+04 -4.537746E+04
       115   4  6.280433E+03 -1.537568E+05 -3.388915E+04  6.261231E+05  7.589930E+04  1.972349E+04
       115   5 -7.263763E+03 -1.426467E+05 -5.590181E+04  4.998093E+05  9.574440E+04  4.899627E+04
       115   6 -9.776441E+04 -1.548462E+05 -1.163790E+05  6.263959E+05  3.366145E+04  7.841354E+04
       115   7 -3.158875E+05 -1.488069E+06 -3.085637E+05  6.110318E+05  7.564863E+04 -5.307939E+04
       115   8 -5.274604E+05 -2.280635E+06 -5.164590E+05  5.168759E+05  9.584723E+04  7.428337E+04
       115   9 -8.332678E+05 -3.113097E+06 -8.311818E+05  6.756285E+05  3.400342E+04  2.016165E+05
       115  10  3.283309E+05  1.182249E+06  2.406829E+05  6.412394E+05  1.850279E-09 -3.963367E-09
       115  11  5.126238E+05  1.999647E+06  4.043712E+05  4.826763E+05  1.252555E-11  1.570850E-09
       115  12  6.371148E+05  2.811468E+06  5.978491E+05  5.769193E+05 -4.163932E-10  3.031577E-09
       115  13  6.274145E+03 -1.537587E+05 -3.390070E+04  6.261219E+05  2.237758E-10  2.862809E-09
       115  14 -7.274245E+03 -1.426518E+05 -5.592353E+04  4.998055E+05 -4.226671E-10 -2.246096E-09
       115  15 -9.776727E+04 -1.548531E+05 -1.163927E+05  6.263938E+05 -6.882825E-10  2.267424E-09
       115  16 -3.158944E+05 -1.488074E+06 -3.085798E+05  6.110351E+05 -1.786825E-11 -2.315896E-10
       115  17 -5.274717E+05 -2.280644E+06 -5.164867E+05  5.168702E+05 -6.958620E-10  4.253786E-09
       115  18 -8.332800E+05 -3.113141E+06 -8.312607E+05  6.756230E+05 -1.143855E-09 -1.859270E-09
       115  19  3.283395E+05  1.182260E+06  2.407099E+05  6.412451E+05 -7.615316E+04 -9.268032E+04
       115  20  5.126337E+05  1.999650E+06  4.043894E+05  4.826781E+05 -9.564320E+04 -2.362283E+04
       115  21  6.371165E+05  2.811471E+06  5.978551E+05  5.769181E+05 -3.334017E+04  4.537746E+04
       115  22  6.280433E+03 -1.537568E+05 -3.388915E+04  6.261231E+05 -7.589930E+04 -1.972349E+04
       115  23 -7.263763E+03 -1.426467E+05 -5.590181E+04  4.998093E+05 -9.574440E+04 -4.899627E+04
       115  24 -9.776441E+04 -1.548462E+05 -1.163790E+05  6.263959E+05 -3.366145E+04 -7.841354E+04
       115  25 -3.158875E+05 -1.488069E+06 -3.085637E+05  6.110318E+05 -7.564863E+04  5.307939E+04
       115  26 -5.274604E+05 -2.280635E+06 -5.164590E+05  5.168759E+05 -9.584723E+04 -7.428337E+04
       115  27 -8.332678E+05 -3.113097E+06 -8.311818E+05  6.756285E+05 -3.400342E+04 -2.016165E+05
       116   1 -6.373617E+05 -2.278774E+06 -6.197691E+05  6.585194E+05 -2.844352E+04 -8.265783E+04
       116   2 -4.295413E+05 -1.397286E+06 -3.760725E+05  5.312704E+05 -7.653591E+04  1.786464E+03
       116   3 -2.171116E+05 -5.259363E+05 -1.865649E+05  6.774814E+05 -4.951963E+04  8.616769E+04
       116   4  2.613973E+04  3.892407E+05  2.601278E+04  6.771848E+05 -2.809677E+04  2.025316E+04
       116   5  5.003213E+03  3.873466E+05  1.058184E+04  5.405235E+05 -7.647197E+04  1.482310E+04
       116   6  4.142304E+03  3.902196E+05  3.514138E+03  6.772602E+05 -4.983867E+04  9.209538E+03
       116   7  6.891260E+05  3.063797E+06  6.713230E+05  6.959222E+05 -2.774475E+04  1.236060E+05
       116   8  4.393375E+05  2.174972E+06  3.970476E+05  5.497997E+05 -7.640776E+04  2.789673E+04
       116   9  2.253460E+05  1.307184E+06  1.935696E+05  6.770374E+05 -5.015735E+04 -6.786033E+04
       116  10 -6.373644E+05 -2.278782E+06 -6.197835E+05  6.585175E+05 -4.134899E-10  2.645756E-10
       116  11 -4.295476E+05 -1.397288E+06 -3.760835E+05  5.312706E+05 -2.368164E-09  8.650231E-09
       116  12 -2.171162E+05 -5.259450E+05 -1.865835E+05  6.774849E+05 -3.761595E-10  1.317439E-09
       116  13  2.613877E+04  3.892400E+05  2.601053E+04  6.771852E+05 -2.393833E-10 -2.353749E-09
       116  14  4.996872E+03  3.873448E+05  1.057043E+04  5.405244E+05 -2.728332E-09 -5.538532E-11
       116  15  4.139613E+03  3.902189E+05  3.509307E+03  6.772605E+05 -2.412341E-09 -3.981733E-09
       116  16  6.891211E+05  3.063780E+06  6.712930E+05  6.959250E+05 -2.032995E-09  3.380543E-09
       116  17  4.393310E+05  2.174970E+06  3.970351E+05  5.498014E+05 -1.870915E-09 -1.172740E-09
       116  18  2.253421E+05  1.307178E+06  1.935563E+05  6.770347E+05  1.255537E-09  5.406773E-10
       116  19 -6.373617E+05 -2.278774E+06 -6.197691E+05  6.585194E+05  2.844352E+04  8.265783E+04
       116  20 -4.295413E+05 -1.397286E+06 -3.760725E+05  5.312704E+05  7.653591E+04 -1.786464E+03
       116  21 -2.171116E+05 -5.259363E+05 -1.865649E+05  6.774814E+05  4.951963E+04 -8.616769E+04
       116  22  2.613973E+04  3.892407E+05  2.601278E+04  6.771848E+05  2.809677E+04 -2.025316E+04
       116  23  5.003213E+03  3.873466E+05  1.058184E+04  5.405235E+05  7.647197E+04 -1.482310E+04
       116  24  4.142304E+03  3.902196E+05  3.514138E+03  6.772602E+05  4.983867E+04 -9.209538E+03
       116  25  6.891260E+05  3.063797E+06  6.713230E+05  6.959222E+05  2.774475E+04 -1.236060E+05
       116  26  4.393375E+05  2.174972E+06  3.970476E+05  5.497997E+05  7.640776E+04 -2.789673E+04
       116  27  2.253460E+05  1.307184E+06  1.935696E+05  6.770374E+05  5.015735E+04  6.786033E+04
       117   1 -6.290660E+04  1.045215E+05 -6.007868E+04  6.776501E+05 -1.297544E+04  6.938344E+04
       117   2  1.459789E+05  9.820506E+05  1.135160E+05  5.409447E+05  3.666295E+04  7.027197E+04
       117   3  3.551628E+05  1.858388E+06  2.860467E+05  6.812643E+05  8.465496E+04  7.119693E+04
       117   4  6.072216E+03  3.888116E+05  5.968606E+02  6.780504E+05 -1.323581E+04  8.794444E+03
       117   5  3.710210E+03  3.897853E+05 -6.020390E+03  5.395395E+05  3.642870E+04  1.161638E+04
       117   6  1.348647E+03  3.884880E+05 -1.503995E+04  6.780683E+05  8.444370E+04  1.447343E+04
       117   7  7.504773E+04  6.731857E+05  6.128153E+04  6.784508E+05 -1.349619E+04 -5.182189E+04
       117   8 -1.385783E+05 -2.021388E+05 -1.255619E+05  5.381352E+05  3.619458E+04 -4.698439E+04
       117   9 -3.525993E+05 -1.079358E+06 -3.162294E+05  6.748770E+05  8.423272E+04 -4.211853E+04
       117  10 -6.290807E+04  1.045163E+05 -6.008805E+04  6.776509E+05 -1.822216E-09 -2.922822E-09
       117  11  1.459761E+05  9.820450E+05  1.135042E+05  5.409426E+05 -1.221883E-10  6.588381E-09
       117  12  3.551538E+05  1.858381E+06  2.860238E+05  6.812594E+05  2.540404E-09 -1.681665E-09
       117  13  6.072007E+03  3.888115E+05  5.963854E+02  6.780505E+05 -2.096701E-09 -3.685554E-09
       117  14  3.708749E+03  3.897848E+05 -6.023136E+03  5.395392E+05 -4.672338E-11 -7.555282E-11
       117  15  1.340934E+03  3.884859E+05 -1.505374E+04  6.780673E+05  2.136124E-09 -3.642662E-09
       117  16  7.504682E+04  6.731828E+05  6.127615E+04  6.784502E+05  1.887191E-09  7.830260E-09
       117  17 -1.385803E+05 -2.021416E+05 -1.255685E+05  5.381366E+05  1.918351E-10  1.810279E-09
       117  18 -3.526074E+05 -1.079362E+06 -3.162461E+05  6.748799E+05  1.925514E-09  3.444229E-09
       117  19 -6.290660E+04  1.045215E+05 -6.007868E+04  6.776501E+05  1.297544E+04 -6.938344E+04
       117  20  1.459789E+05  9.820506E+05  1.135160E+05  5.409447E+05 -3.666295E+04 -7.027197E+04
       117  21  3.551628E+05  1.858388E+06  2.860467E+05  6.812643E+05 -8.465496E+04 -7.119693E+04
       117  22  6.072216E+03  3.888116E+05  5.968606E+02  6.780504E+05  1.323581E+04 -8.794444E+03
       117  23  3.710210E+03  3.897853E+05 -6.020390E+03  5.395395E+05 -3.642870E+04 -1.161638E+04
       117  24  1.348647E+03  3.884880E+05 -1.503995E+04  6.780683E+05 -8.444370E+04 -1.447343E+04
       117  25  7.504773E+04  6.731857E+05  6.128153E+04  6.784508E+05  1.349619E+04  5.182189E+04
       117  26 -1.385783E+05 -2.021388E+05 -1.255619E+05  5.381352E+05 -3.619458E+04  4.698439E+04
       117  27 -3.525993E+05 -1.079358E+06 -3.162294E+05  6.748770E+05 -8.423272E+04  4.211853E+04
       118   1  5.117384E+05  2.489447E+06  4.097196E+05  6.906530E+05  1.223482E+05  9.760831E+04
       118   2  7.150020E+05  3.365560E+06  5.971921E+05  5.318580E+05  1.364951E+05 -8.722025E+03
       118   3  8.875643E+05  4.249185E+06  8.460400E+05  6.448813E+05  4.579756E+04 -1.150572E+05
       118   4  5.530536E+03  3.851667E+05 -2.019208E+04  6.768938E+05  1.220778E+05  1.690419E+04
       118   5 -5.336007E+03  3.919202E+05 -3.790366E+04  5.410249E+05  1.366748E+05  3.688765E+04
       118   6 -6.883787E+04  3.835640E+05 -8.175994E+04  6.770798E+05  4.619252E+04  5.701513E+04
       118   7 -5.009503E+05 -1.714904E+06 -4.503135E+05  6.631759E+05  1.218104E+05 -6.353229E+04
       118   8 -7.262482E+05 -2.573424E+06 -6.735033E+05  5.501383E+05  1.368564E+05  8.228261E+04
       118   9 -1.026304E+06 -3.468375E+06 -1.010509E+06  7.090639E+05  4.660694E+04  2.280250E+05
       118  10  5.117198E+05  2.489433E+06  4.096736E+05  6.906434E+05  3.518447E-09 -2.612209E-08
       118  11  7.149820E+05  3.365555E+06  5.971570E+05  5.318590E+05  5.288268E-11  2.839774E-09
       118  12  8.875585E+05  4.249170E+06  8.460113E+05  6.448855E+05 -7.825594E-10  2.152365E-08
       118  13  5.514457E+03  3.851624E+05 -2.022062E+04  6.768921E+05  3.753870E-09 -2.909093E-09
       118  14 -5.356429E+03  3.919138E+05 -3.794131E+04  5.410208E+05  2.580319E-09 -2.622187E-11
       118  15 -6.884103E+04  3.835599E+05 -8.177005E+04  6.770777E+05  1.263646E-09 -1.367194E-09
       118  16 -5.009673E+05 -1.714912E+06 -4.503490E+05  6.631822E+05  1.264058E-09  3.019798E-08
       118  17 -7.262702E+05 -2.573436E+06 -6.735512E+05  5.501293E+05  4.244609E-09  2.383396E-09
       118  18 -1.026320E+06 -3.468432E+06 -1.010611E+06  7.090553E+05  9.667199E-10 -2.077288E-08
       118  19  5.117384E+05  2.489447E+06  4.097196E+05  6.906530E+05 -1.223482E+05 -9.760831E+04
       118  20  7.150020E+05  3.365560E+06  5.971921E+05  5.318580E+05 -1.364951E+05  8.722025E+03
       118  21  8.875643E+05  4.249185E+06  8.460400E+05  6.448813E+05 -4.579756E+04  1.150572E+05
       118  22  5.530536E+03  3.851667E+05 -2.019208E+04  6.768938E+05 -1.220778E+05 -1.690419E+04
       118  23 -5.336007E+03  3.919202E+05 -3.790366E+04  5.410249E+05 -1.366748E+05 -3.688765E+04
       118  24 -6.883787E+04  3.835640E+05 -8.175994E+04  6.770798E+05 -4.619252E+04 -5.701513E+04
       118  25 -5.009503E+05 -1.714904E+06 -4.503135E+05  6.631759E+05 -1.218104E+05  6.353229E+04
       118  26 -7.262482E+05 -2.573424E+06 -6.735033E+05  5.501383E+05 -1.368564E+05 -8.228261E+04
       118  27 -1.026304E+06 -3.468375E+06 -1.010509E+06  7.090639E+05 -4.660694E+04 -2.280250E+05
       119   1  3.688370E+06  9.056189E+05  8.820547E+05  5.080963E+05  1.816404E+05 -4.565254E+04
       119   2  3.017983E+06  7.123705E+05  6.341724E+05  4.041271E+05  6.100698E+04 -1.387801E+05
       119   3  2.374235E+06  5.512024E+05  4.729069E+05  5.021958E+05 -5.927893E+04 -1.351343E+05
       119   4  7.364226E+04  1.109472E+04  1.582026E+04  5.045542E+05  1.085001E+04 -4.540903E+04
       119   5  7.118180E+04 -1.282374E+03  7.216387E+03  4.035037E+05  6.988664E+03 -1.387826E+05
       119   6  7.483722E+04 -1.686973E+03  4.472978E+03  5.045382E+05  3.344283E+03 -1.351765E+05
       119   7 -3.529102E+06 -8.843608E+05 -8.512301E+05  5.010327E+05 -1.589546E+05 -4.516317E+04
       119   8 -2.867459E+06 -7.154975E+05 -6.202275E+05  4.028828E+05 -4.677805E+04 -1.387852E+05
       119   9 -2.219537E+06 -5.549042E+05 -4.642242E+05  5.068700E+05  6.574049E+04 -1.352184E+05
       119  10  3.688334E+06  9.056079E+05  8.819891E+05  5.081029E+05  5.810043E-11 -1.040673E-10
       119  11  3.017974E+06  7.123488E+05  6.341292E+05  4.041339E+05  7.406942E-11 -1.345459E-10
       119  12  2.374226E+06  5.511819E+05  4.728660E+05  5.021894E+05  1.317733E-09  2.863479E-10
       119  13  7.364158E+04  1.109248E+04  1.581616E+04  5.045546E+05 -1.529273E-11 -1.510126E-11
       119  14  7.117658E+04 -1.303071E+03  7.180096E+03  4.035045E+05  1.931330E-09 -1.716704E-10
       119  15  7.483230E+04 -1.706599E+03  4.438616E+03  5.045386E+05 -3.958777E-10 -5.342312E-11
       119  16 -3.529129E+06 -8.843698E+05 -8.512816E+05  5.010269E+05 -1.236481E-09  1.125032E-10
       119  17 -2.867466E+06 -7.155188E+05 -6.202678E+05  4.028775E+05  5.950919E-10  5.005535E-11
       119  18 -2.219547E+06 -5.549250E+05 -4.642667E+05  5.068772E+05  1.713044E-09 -3.452001E-10
       119  19  3.688370E+06  9.056189E+05  8.820547E+05  5.080963E+05 -1.816404E+05  4.565254E+04
       119  20  3.017983E+06  7.123705E+05  6.341724E+05  4.041271E+05 -6.100698E+04  1.387801E+05
       119  21  2.374235E+06  5.512024E+05  4.729069E+05  5.021958E+05  5.927893E+04  1.351343E+05
       119  22  7.364226E+04  1.109472E+04  1.582026E+04  5.045542E+05 -1.085001E+04  4.540903E+04
       119  23  7.118180E+04 -1.282374E+03  7.216387E+03  4.035037E+05 -6.988664E+03  1.387826E+05
       119  24  7.483722E+04 -1.686973E+03  4.472978E+03  5.045382E+05 -3.344283E+03  1.351765E+05
       119  25 -3.529102E+06 -8.843608E+05 -8.512301E+05  5.010327E+05  1.589546E+05  4.516317E+04
       119  26 -2.867459E+06 -7.154975E+05 -6.202275E+05  4.028828E+05  4.677805E+04  1.387852E+05
       119  27 -2.219537E+06 -5.549042E+05 -4.642242E+05  5.068700E+05 -6.574049E+04  1.352184E+05
       120   1  1.898794E+06  4.387074E+05  3.759611E+05  5.057200E+05 -3.703694E+04 -1.064940E+05
       120   2  1.242266E+06  2.806174E+05  2.386074E+05  4.022325E+05 -4.419716E+04 -7.090250E+04
       120   3  5.879544E+05  1.239760E+05  1.063540E+05  5.058626E+05 -5.139301E+04 -3.020046E+04
       120   4  7.404614E+04 -3.006671E+02  3.503211E+03  5.056664E+05  2.689618E+03 -1.065081E+05
       120   5  7.391434E+04 -1.647250E+02  2.122853E+03  4.020954E+05  1.657727E+03 -7.089118E+04
       120   6  7.452645E+04  3.815171E+02  1.603104E+03  5.056666E+05  5.828449E+02 -3.015783E+04
       120   7 -1.747540E+06 -4.395161E+05 -3.691245E+05  5.056116E+05  4.230181E+04 -1.065222E+05
       120   8 -1.093135E+06 -2.810305E+05 -2.344245E+05  4.019580E+05  4.742809E+04 -7.087985E+04
       120   9 -4.386453E+05 -1.232280E+05 -1.031516E+05  5.054706E+05  5.251653E+04 -3.011520E+04
       120  10  1.898790E+06  4.386949E+05  3.759372E+05  5.057168E+05  4.428098E-10  4.810658E-10
       120  11  1.242263E+06  2.806115E+05  2.385943E+05  4.022299E+05  4.415087E-10  5.778266E-11
       120  12  5.879514E+05  1.239743E+05  1.063474E+05  5.058613E+05  1.136288E-09 -8.273172E-10
       120  13  7.404309E+04 -3.128512E+02  3.481878E+03  5.056666E+05  1.071767E-09  1.137359E-10
       120  14  7.391298E+04 -1.701226E+02  2.113403E+03  4.020955E+05  1.565566E-09  9.125302E-11
       120  15  7.452620E+04  3.805403E+02  1.601394E+03  5.056666E+05 -1.071006E-09 -4.234788E-10
       120  16 -1.747545E+06 -4.395288E+05 -3.691492E+05  5.056152E+05 -3.307708E-10 -2.940141E-10
       120  17 -1.093139E+06 -2.810365E+05 -2.344382E+05  4.019607E+05  1.672113E-10  1.581672E-10
       120  18 -4.386485E+05 -1.232297E+05 -1.031585E+05  5.054718E+05 -1.304473E-09 -7.874397E-11
       120  19  1.898794E+06  4.387074E+05  3.759611E+05  5.057200E+05  3.703694E+04  1.064940E+05
       120  20  1.242266E+06  2.806174E+05  2.386074E+05  4.022325E+05  4.419716E+04  7.090250E+04
       120  21  5.879544E+05  1.239760E+05  1.063540E+05  5.058626E+05  5.139301E+04  3.020046E+04
       120  22  7.404614E+04 -3.006671E+02  3.503211E+03  5.056664E+05 -2.689618E+03  1.065081E+05
       120  23  7.391434E+04 -1.647250E+02  2.122853E+03  4.020954E+05 -1.657727E+03  7.089118E+04
       120  24  7.452645E+04  3.815171E+02  1.603104E+03  5.056666E+05 -5.828449E+02  3.015783E+04
       120  25 -1.747540E+06 -4.395161E+05 -3.691245E+05  5.056116E+05 -4.230181E+04  1.065222E+05
       120  26 -1.093135E+06 -2.810305E+05 -2.344245E+05  4.019580E+05 -4.742809E+04  7.087985E+04
       120  27 -4.386453E+05 -1.232280E+05 -1.031516E+05  5.054706E+05 -5.251653E+04  3.011520E+04
       121   1  1.170882E+05  1.037672E+04  8.510679E+03  5.056335E+05 -5.149746E+04 -4.655358E+03
       121   2 -5.374972E+05 -1.471163E+05 -1.231027E+05  4.019069E+05 -4.704902E+04  3.635294E+04
       121   3 -1.192211E+06 -3.053378E+05 -2.577991E+05  5.053726E+05 -4.258295E+04  7.306219E+04
       121   4  7.449302E+04  4.493740E+02  1.459620E+03  5.056748E+05  2.752211E+02 -4.608823E+03
       121   5  7.419279E+04  1.650644E+02  1.434900E+03  4.020851E+05 -4.567436E+02  3.638089E+04
       121   6  7.424141E+04  7.190306E+01  1.927407E+03  5.056748E+05 -1.166499E+03  7.307489E+04
       121   7  3.190540E+04 -9.476623E+03 -5.581420E+03  5.057161E+05  5.204447E+04 -4.562279E+03
       121   8  6.862435E+05  1.474242E+05  1.259610E+05  4.022633E+05  4.618062E+04  3.640884E+04
       121   9  1.342223E+06  3.053816E+05  2.615750E+05  5.059769E+05  4.033305E+04  7.308759E+04
       121  10  1.170853E+05  1.037598E+04  8.505656E+03  5.056334E+05  2.709372E-09 -1.374397E-09
       121  11 -5.375000E+05 -1.471183E+05 -1.231093E+05  4.019083E+05  1.814737E-09 -1.111818E-09
       121  12 -1.192215E+06 -3.053440E+05 -2.578126E+05  5.053751E+05 -4.088782E-10  1.886463E-10
       121  13  7.449301E+04  4.493511E+02  1.459580E+03  5.056748E+05  6.370190E-12 -1.136118E-09
       121  14  7.419244E+04  1.636430E+02  1.432412E+03  4.020851E+05  1.059568E-09 -1.353882E-09
       121  15  7.423997E+04  6.616823E+01  1.917369E+03  5.056749E+05  9.518420E-10 -6.782566E-11
       121  16  3.190248E+04 -9.477373E+03 -5.586550E+03  5.057163E+05 -8.035952E-10 -8.890666E-10
       121  17  6.862409E+05  1.474222E+05  1.259545E+05  4.022620E+05 -2.053785E-09 -1.523541E-09
       121  18  1.342220E+06  3.053755E+05  2.615619E+05  5.059746E+05  3.342398E-10 -2.798108E-10
       121  19  1.170882E+05  1.037672E+04  8.510679E+03  5.056335E+05  5.149746E+04  4.655358E+03
       121  20 -5.374972E+05 -1.471163E+05 -1.231027E+05  4.019069E+05  4.704902E+04 -3.635294E+04
       121  21 -1.192211E+06 -3.053378E+05 -2.577991E+05  5.053726E+05  4.258295E+04 -7.306219E+04
       121  22  7.449302E+04  4.493740E+02  1.459620E+03  5.056748E+05 -2.752211E+02  4.608823E+03
       121  23  7.419279E+04  1.650644E+02  1.434900E+03  4.020851E+05  4.567436E+02 -3.638089E+04
       121  24  7.424141E+04  7.190306E+01  1.927407E+03  5.056748E+05  1.166499E+03 -7.307489E+04
       121  25  3.190540E+04 -9.476623E+03 -5.581420E+03  5.057161E+05 -5.204447E+04  4.562279E+03
       121  26  6.862435E+05  1.474242E+05  1.259610E+05  4.022633E+05 -4.618062E+04 -3.640884E+04
       121  27  1.342223E+06  3.053816E+05  2.615750E+05  5.059769E+05 -4.033305E+04 -7.308759E+04
       122   1 -1.664357E+06 -4.200590E+05 -3.537009E+05  5.054416E+05 -6.243718E+04  1.012417E+05
       122   2 -2.312451E+06 -5.806996E+05 -5.071411E+05  4.028191E+05  3.522000E+04  1.106038E+05
       122   3 -2.973971E+06 -7.526775E+05 -7.268084E+05  5.030486E+05  1.326484E+05  3.689105E+04
       122   4  7.464706E+04 -7.093202E+02  2.351477E+03  5.047022E+05 -1.549974E+03  1.012417E+05
       122   5  7.241327E+04 -9.547019E+02  3.465682E+03  4.033002E+05 -3.266876E+03  1.105844E+05
       122   6  7.367606E+04  4.788267E+03  7.505464E+03  5.047062E+05 -5.107980E+03  3.699683E+04
       122   7  1.816537E+06  4.184524E+05  3.582574E+05  5.039593E+05  5.950504E+04  1.012415E+05
       122   8  2.462645E+06  5.784187E+05  5.137477E+05  4.037820E+05 -4.189986E+04  1.105650E+05
       122   9  3.129888E+06  7.615860E+05  7.412279E+05  5.063706E+05 -1.435406E+05  3.710182E+04
       122  10 -1.664364E+06 -4.200710E+05 -3.537276E+05  5.054467E+05  2.288506E-08  9.123528E-10
       122  11 -2.312456E+06 -5.807130E+05 -5.071664E+05  4.028159E+05  7.361164E-10  8.080186E-10
       122  12 -2.973991E+06 -7.526837E+05 -7.268441E+05  5.030447E+05 -2.005811E-08  2.323585E-10
       122  13  7.464430E+04 -7.203280E+02  2.332209E+03  5.047023E+05  1.090789E-09  8.104960E-10
       122  14  7.240998E+04 -9.678373E+02  3.442679E+03  4.033005E+05  3.724981E-10  1.156187E-09
       122  15  7.367566E+04  4.786790E+03  7.502842E+03  5.047064E+05 -6.238548E-10  5.612359E-10
       122  16  1.816531E+06  4.184405E+05  3.582315E+05  5.039544E+05 -2.417012E-08  7.716793E-10
       122  17  2.462640E+06  5.784051E+05  5.137214E+05  4.037857E+05  9.739397E-10  1.130054E-09
       122  18  3.129865E+06  7.615790E+05  7.411867E+05  5.063749E+05  2.104196E-08  4.240837E-10
       122  19 -1.664357E+06 -4.200590E+05 -3.537009E+05  5.054416E+05  6.243718E+04 -1.012417E+05
       122  20 -2.312451E+06 -5.806996E+05 -5.071411E+05  4.028191E+05 -3.522000E+04 -1.106038E+05
       122  21 -2.973971E+06 -7.526775E+05 -7.268084E+05  5.030486E+05 -1.326484E+05 -3.689105E+04
       122  22  7.464706E+04 -7.093202E+02  2.351477E+03  5.047022E+05  1.549974E+03 -1.012417E+05
       122  23  7.241327E+04 -9.547019E+02  3.465682E+03  4.033002E+05  3.266876E+03 -1.105844E+05
       122  24  7.367606E+04  4.788267E+03  7.505464E+03  5.047062E+05  5.107980E+03 -3.699683E+04
       122  25  1.816537E+06  4.184524E+05  3.582574E+05  5.039593E+05 -5.950504E+04 -1.012415E+05
       122  26  2.462645E+06  5.784187E+05  5.137477E+05  4.037820E+05  4.189986E+04 -1.105650E+05
       122  27  3.129888E+06  7.615860E+05  7.412279E+05  5.063706E+05  1.435406E+05 -3.710182E+04
       123   1 -3.393618E+05 -1.456413E+06 -3.411630E+05  3.028729E+05 -1.296862E+04 -8.676273E+04
       123   2 -1.994502E+05 -1.084846E+06 -2.011132E+05  2.305101E+05 -3.526195E+04 -3.339683E+04
       123   3 -1.050037E+05 -7.321532E+05 -1.073448E+05  2.710344E+05 -2.477149E+04  1.990970E+04
       123   4 -4.827122E+04 -2.845417E+05 -5.784715E+04  2.783562E+05 -1.281606E+04 -4.025274E+04
       123   5 -3.241753E+03 -2.783732E+05 -2.680744E+04  2.218312E+05 -3.523382E+04 -2.612962E+04
       123   6  3.187887E+03 -2.843525E+05 -1.472583E+04  2.781938E+05 -2.488430E+04 -1.209850E+04
       123   7  2.427224E+05  8.885938E+05  2.253786E+05  2.537918E+05 -1.266734E+04  6.344967E+03
       123   8  1.929241E+05  5.287111E+05  1.474601E+05  2.131402E+05 -3.520590E+04 -1.885308E+04
       123   9  1.113675E+05  1.636408E+05  7.788612E+04  2.853583E+05 -2.499781E+04 -4.412942E+04
       123  10 -3.393640E+05 -1.456422E+06 -3.411775E+05  3.028720E+05 -5.699845E-10 -2.109352E-09
       123  11 -1.994518E+05 -1.084847E+06 -2.011176E+05  2.305092E+05  5.403712E-10 -1.235024E-10
       123  12 -1.050045E+05 -7.321538E+05 -1.073467E+05  2.710348E+05  4.490695E-10  2.623631E-09
       123  13 -4.827183E+04 -2.845434E+05 -5.785050E+04  2.783558E+05 -2.487954E-09  6.482252E-11
       123  14 -3.243268E+03 -2.783743E+05 -2.681105E+04  2.218304E+05 -3.619267E-09 -1.125190E-11
       123  15  3.187183E+03 -2.843528E+05 -1.472727E+04  2.781936E+05 -2.088315E-09  7.694359E-11
       123  16  2.427222E+05  8.885937E+05  2.253783E+05  2.537919E+05 -1.887607E-11  2.146847E-09
       123  17  1.929227E+05  5.287104E+05  1.474571E+05  2.131397E+05 -4.285748E-09 -1.470304E-10
       123  18  1.113663E+05  1.636386E+05  7.788129E+04  2.853574E+05 -9.065281E-10 -2.713180E-09
       123  19 -3.393618E+05 -1.456413E+06 -3.411630E+05  3.028729E+05  1.296862E+04  8.676273E+04
       123  20 -1.994502E+05 -1.084846E+06 -2.011132E+05  2.305101E+05  3.526195E+04  3.339683E+04
       123  21 -1.050037E+05 -7.321532E+05 -1.073448E+05  2.710344E+05  2.477149E+04 -1.990970E+04
       123  22 -4.827122E+04 -2.845417E+05 -5.784715E+04  2.783562E+05  1.281606E+04  4.025274E+04
       123  23 -3.241753E+03 -2.783732E+05 -2.680744E+04  2.218312E+05  3.523382E+04  2.612962E+04
       123  24  3.187887E+03 -2.843525E+05 -1.472583E+04  2.781938E+05  2.488430E+04  1.209850E+04
       123  25  2.427224E+05  8.885938E+05  2.253786E+05  2.537918E+05  1.266734E+04 -6.344967E+03
       123  26  1.929241E+05  5.287111E+05  1.474601E+05  2.131402E+05  3.520590E+04  1.885308E+04
       123  27  1.113675E+05  1.636408E+05  7.788612E+04  2.853583E+05  2.499781E+04  4.412942E+04
       124   1 -4.529341E+04 -4.686130E+05 -5.028005E+04  2.786490E+05 -9.598688E+03  1.458013E+04
       124   2  4.356685E+04 -1.060047E+05  3.034414E+04  2.219090E+05  1.083277E+04  1.645359E+04
       124   3  1.318658E+05  2.554763E+05  1.093762E+05  2.796306E+05  3.077178E+04  1.833337E+04
       124   4 -1.111083E+02 -2.819204E+05 -1.112748E+04  2.785799E+05 -9.688280E+03 -1.021564E+04
       124   5  1.423612E+03 -2.812636E+05 -5.063123E+03  2.213438E+05  1.074753E+04 -7.756348E+03
       124   6  2.303193E+03 -2.819593E+05 -9.929807E+02  2.785712E+05  3.069042E+04 -5.291819E+03
       124   7  4.506928E+04 -9.519341E+04  2.802545E+04  2.785109E+05 -9.777852E+03 -3.501875E+04
       124   8 -4.072122E+04 -4.564919E+05 -4.046976E+04  2.207788E+05  1.066232E+04 -3.195958E+04
       124   9 -1.272773E+05 -8.191194E+05 -1.113755E+05  2.775124E+05  3.060910E+04 -2.889692E+04
       124  10 -4.529356E+04 -4.686133E+05 -5.028062E+04  2.786491E+05  1.009556E-09 -1.931168E-10
       124  11  4.356666E+04 -1.060050E+05  3.034341E+04  2.219088E+05 -6.018728E-10  1.078875E-09
       124  12  1.318647E+05  2.554757E+05  1.093738E+05  2.796302E+05  4.307291E-10  2.016544E-09
       124  13 -1.112370E+02 -2.819205E+05 -1.112786E+04  2.785799E+05  1.196025E-11  1.009188E-10
       124  14  1.423471E+03 -2.812637E+05 -5.063453E+03  2.213439E+05 -2.315280E-10  1.489291E-10
       124  15  2.302174E+03 -2.819596E+05 -9.948035E+02  2.785713E+05  1.329909E-09  5.079682E-11
       124  16  4.506885E+04 -9.519475E+04  2.802296E+04  2.785106E+05 -3.471344E-10  2.079238E-10
       124  17 -4.072162E+04 -4.564930E+05 -4.047190E+04  2.207791E+05  4.882033E-10 -1.141444E-09
       124  18 -1.272786E+05 -8.191206E+05 -1.113788E+05  2.775131E+05 -1.487670E-10 -1.923614E-09
       124  19 -4.529341E+04 -4.686130E+05 -5.028005E+04  2.786490E+05  9.598688E+03 -1.458013E+04
       124  20  4.356685E+04 -1.060047E+05  3.034414E+04  2.219090E+05 -1.083277E+04 -1.645359E+04
       124  21  1.318658E+05  2.554763E+05  1.093762E+05  2.796306E+05 -3.077178E+04 -1.833337E+04
       124  22 -1.111083E+02 -2.819204E+05 -1.112748E+04  2.785799E+05  9.688280E+03  1.021564E+04
       124  23  1.423612E+03 -2.812636E+05 -5.063123E+03  2.213438E+05 -1.074753E+04  7.756348E+03
       124  24  2.303193E+03 -2.819593E+05 -9.929807E+02  2.785712E+05 -3.069042E+04  5.291819E+03
       124  25  4.506928E+04 -9.519341E+04  2.802545E+04  2.785109E+05  9.777852E+03  3.501875E+04
       124  26 -4.072122E+04 -4.564919E+05 -4.046976E+04  2.207788E+05 -1.066232E+04  3.195958E+04
       124  27 -1.272773E+05 -8.191194E+05 -1.113755E+05  2.775124E+05 -3.060910E+04  2.889692E+04
       125   1  1.938725E+05  5.178415E+05  1.643652E+05  2.786495E+05  4.628490E+04  2.779366E+04
       125   2  2.830126E+05  8.747620E+05  2.524552E+05  2.267518E+05  5.282800E+04 -2.463534E+04
       125   3  3.901692E+05  1.242658E+06  3.790375E+05  2.871231E+05  1.776309E+04 -7.699130E+04
       125   4  1.356088E+03 -2.812425E+05  7.125770E+02  2.780947E+05  4.617618E+04 -5.259560E+03
       125   5  2.055426E+03 -2.824711E+05  4.583857E+03  2.219390E+05  5.288787E+04 -7.693560E+03
       125   6  1.212132E+04 -2.815008E+05  1.226198E+04  2.780621E+05  1.795715E+04 -1.002363E+04
       125   7 -1.911998E+05 -1.079718E+06 -1.629699E+05  2.775400E+05  4.606744E+04 -3.827103E+04
       125   8 -2.789892E+05 -1.438445E+06 -2.433643E+05  2.171341E+05  5.294755E+04  9.217137E+03
       125   9 -3.660932E+05 -1.803526E+06 -3.546623E+05  2.690214E+05  1.814954E+04  5.678052E+04
       125  10  1.938699E+05  5.178401E+05  1.643598E+05  2.786485E+05  7.098157E-10 -7.527854E-10
       125  11  2.830095E+05  8.747606E+05  2.524488E+05  2.267528E+05 -1.249584E-09 -4.845044E-10
       125  12  3.901673E+05  1.242652E+06  3.790258E+05  2.871242E+05 -5.232833E-10  4.138925E-10
       125  13  1.353791E+03 -2.812431E+05  7.085181E+02  2.780949E+05 -4.717449E-10  8.871147E-11
       125  14  2.052407E+03 -2.824719E+05  4.578489E+03  2.219393E+05  5.291086E-10  1.312573E-10
       125  15  1.212095E+04 -2.815010E+05  1.226119E+04  2.780622E+05 -8.289669E-10 -3.272796E-11
       125  16 -1.912024E+05 -1.079720E+06 -1.629767E+05  2.775415E+05  1.761474E-09  6.797870E-10
       125  17 -2.789922E+05 -1.438445E+06 -2.433697E+05  2.171337E+05 -2.592328E-10  6.613709E-10
       125  18 -3.660944E+05 -1.803530E+06 -3.546690E+05  2.690205E+05 -4.054265E-10 -3.170978E-10
       125  19  1.938725E+05  5.178415E+05  1.643652E+05  2.786495E+05 -4.628490E+04 -2.779366E+04
       125  20  2.830126E+05  8.747620E+05  2.524552E+05  2.267518E+05 -5.282800E+04  2.463534E+04
       125  21  3.901692E+05  1.242658E+06  3.790375E+05  2.871231E+05 -1.776309E+04  7.699130E+04
       125  22  1.356088E+03 -2.812425E+05  7.125770E+02  2.780947E+05 -4.617618E+04  5.259560E+03
       125  23  2.055426E+03 -2.824711E+05  4.583857E+03  2.219390E+05 -5.288787E+04  7.693560E+03
       125  24  1.212132E+04 -2.815008E+05  1.226198E+04  2.780621E+05 -1.795715E+04  1.002363E+04
       125  25 -1.911998E+05 -1.079718E+06 -1.629699E+05  2.775400E+05 -4.606744E+04  3.827103E+04
       125  26 -2.789892E+05 -1.438445E+06 -2.433643E+05  2.171341E+05 -5.294755E+04 -9.217137E+03
       125  27 -3.660932E+05 -1.803526E+06 -3.546623E+05  2.690214E+05 -1.814954E+04 -5.678052E+04
       126   1  3.522797E+06  8.467493E+05  8.291183E+05  5.046083E+05  1.823673E+05 -4.079094E+04
       126   2  2.874961E+06  6.400566E+05  5.814171E+05  3.957850E+05  6.550837E+04 -1.233453E+05
       126   3  2.256730E+06  4.820996E+05  4.219670E+05  4.819435E+05 -5.109267E+04 -1.177957E+05
       126   4  2.443484E+05  3.538697E+04  4.307236E+04  4.861987E+05  2.962052E+04 -4.067898E+04
       126   5  2.394002E+05  1.667706E+03  2.010292E+04  3.886818E+05  1.906860E+04 -1.233727E+05
       126   6  2.453828E+05 -1.582638E+03  1.188634E+04  4.861797E+05  8.650464E+03 -1.177977E+05
       126   7 -3.024244E+06 -7.767409E+05 -7.436475E+05  4.678848E+05 -1.223267E+05 -4.055795E+04
       126   8 -2.389635E+06 -6.371713E+05 -5.416029E+05  3.816078E+05 -2.717775E+04 -1.233991E+05
       126   9 -1.762120E+06 -4.855155E+05 -3.983939E+05  4.904002E+05  6.820411E+04 -1.177989E+05
       126  10  3.522761E+06  8.467387E+05  8.290530E+05  5.046143E+05 -6.502782E-10  2.769078E-10
       126  11  2.874952E+06  6.400391E+05  5.813804E+05  3.957915E+05 -1.137874E-10  2.417837E-10
       126  12  2.256723E+06  4.820840E+05  4.219360E+05  4.819387E+05 -4.253655E-10 -6.085651E-11
       126  13  2.443470E+05  3.538495E+04  4.306760E+04  4.861997E+05 -2.383136E-11  5.352068E-10
       126  14  2.393957E+05  1.651261E+03  2.007363E+04  3.886837E+05 -1.493786E-10  5.218831E-10
       126  15  2.453790E+05 -1.597561E+03  1.186012E+04  4.861805E+05  2.704213E-09  1.565625E-10
       126  16 -3.024260E+06 -7.767467E+05 -7.436788E+05  4.678808E+05  5.462420E-10  9.020815E-11
       126  17 -2.389639E+06 -6.371878E+05 -5.416329E+05  3.816051E+05  2.703940E-09  4.642703E-10
       126  18 -1.762129E+06 -4.855316E+05 -3.984288E+05  4.904066E+05  1.101190E-09  2.414979E-10
       126  19  3.522797E+06  8.467493E+05  8.291183E+05  5.046083E+05 -1.823673E+05  4.079094E+04
       126  20  2.874961E+06  6.400566E+05  5.814171E+05  3.957850E+05 -6.550837E+04  1.233453E+05
       126  21  2.256730E+06  4.820996E+05  4.219670E+05  4.819435E+05  5.109267E+04  1.177957E+05
       126  22  2.443484E+05  3.538697E+04  4.307236E+04  4.861987E+05 -2.962052E+04  4.067898E+04
       126  23  2.394002E+05  1.667706E+03  2.010292E+04  3.886818E+05 -1.906860E+04  1.233727E+05
       126  24  2.453828E+05 -1.582638E+03  1.188634E+04  4.861797E+05 -8.650464E+03  1.177977E+05
       126  25 -3.024244E+06 -7.767409E+05 -7.436475E+05  4.678848E+05  1.223267E+05  4.055795E+04
       126  26 -2.389635E+06 -6.371713E+05 -5.416029E+05  3.816078E+05  2.717775E+04  1.233991E+05
       126  27 -1.762120E+06 -4.855155E+05 -3.983939E+05  4.904002E+05 -6.820411E+04  1.177989E+05
       127   1  1.797890E+06  3.752937E+05  3.269493E+05  4.881438E+05 -3.194128E+04 -9.037977E+04
       127   2  1.165531E+06  2.219727E+05  1.925920E+05  3.879233E+05 -4.032398E+04 -5.570832E+04
       127   3  5.354091E+05  7.099921E+04  6.427326E+04  4.872004E+05 -4.873262E+04 -1.641486E+04
       127   4  2.434858E+05  1.281390E+03  9.409848E+03  4.871857E+05  6.967091E+03 -9.036872E+04
       127   5  2.432244E+05  2.861299E+02  5.698828E+03  3.874283E+05  4.128750E+03 -5.567514E+04
       127   6  2.438513E+05  6.985457E+02  4.191089E+03  4.871868E+05  1.256117E+03 -1.635506E+04
       127   7 -1.308624E+06 -3.728813E+05 -3.082517E+05  4.862288E+05  4.578002E+04 -9.035776E+04
       127   8 -6.782695E+05 -2.214522E+05 -1.812311E+05  3.869337E+05  4.851678E+04 -5.564199E+04
       127   9 -4.762064E+04 -6.960614E+04 -5.588627E+04  4.871731E+05  5.122181E+04 -1.629524E+04
       127  10  1.797887E+06  3.752847E+05  3.269321E+05  4.881415E+05  6.060837E-10 -3.761239E-10
       127  11  1.165529E+06  2.219689E+05  1.925831E+05  3.879215E+05 -5.730504E-10 -9.109838E-10
       127  12  5.354065E+05  7.099828E+04  6.426830E+04  4.871998E+05  1.282474E-10 -6.349175E-10
       127  13  2.434835E+05  1.272606E+03  9.394406E+03  4.871862E+05  1.092579E-09 -8.974611E-11
       127  14  2.432236E+05  2.827961E+02  5.692970E+03  3.874285E+05  1.119398E-09 -3.532960E-10
       127  15  2.438512E+05  6.982580E+02  4.190584E+03  4.871868E+05 -1.475029E-10 -6.218422E-10
       127  16 -1.308628E+06 -3.728907E+05 -3.082710E+05  4.862321E+05  4.537405E-10  2.321762E-11
       127  17 -6.782728E+05 -2.214562E+05 -1.812414E+05  3.869358E+05  1.326429E-09 -1.225064E-10
       127  18 -4.762353E+04 -6.960713E+04 -5.589170E+04  4.871738E+05  4.016694E-11 -8.897833E-10
       127  19  1.797890E+06  3.752937E+05  3.269493E+05  4.881438E+05  3.194128E+04  9.037977E+04
       127  20  1.165531E+06  2.219727E+05  1.925920E+05  3.879233E+05  4.032398E+04  5.570832E+04
       127  21  5.354091E+05  7.099921E+04  6.427326E+04  4.872004E+05  4.873262E+04  1.641486E+04
       127  22  2.434858E+05  1.281390E+03  9.409848E+03  4.871857E+05 -6.967091E+03  9.036872E+04
       127  23  2.432244E+05  2.861299E+02  5.698828E+03  3.874283E+05 -4.128750E+03  5.567514E+04
       127  24  2.438513E+05  6.985457E+02  4.191089E+03  4.871868E+05 -1.256117E+03  1.635506E+04
       127  25 -1.308624E+06 -3.728813E+05 -3.082517E+05  4.862288E+05 -4.578002E+04  9.035776E+04
       127  26 -6.782695E+05 -2.214522E+05 -1.812311E+05  3.869337E+05 -4.851678E+04  5.564199E+04
       127  27 -4.762064E+04 -6.960614E+04 -5.588627E+04  4.871731E+05 -5.122181E+04  1.629524E+04
       128   1  8.196094E+04 -3.840765E+04 -3.011002E+04  4.870900E+05 -4.942939E+04  8.188233E+03
       128   2 -5.485910E+05 -1.902490E+05 -1.567218E+05  3.869654E+05 -4.614738E+04  4.759190E+04
       128   3 -1.179115E+06 -3.421689E+05 -2.855244E+05  4.863786E+05 -4.283894E+04  8.255660E+04
       128   4  2.437956E+05  7.551230E+02  3.893401E+03  4.871880E+05  4.985253E+02  8.248905E+03
       128   5  2.433472E+05  3.334903E+02  4.084467E+03  3.874270E+05 -1.566103E+03  4.762885E+04
       128   6  2.434818E+05  7.847070E+02  5.804509E+03  4.871876E+05 -3.601162E+03  8.257375E+04
       128   7  4.056604E+05  3.991755E+04  3.790473E+04  4.872861E+05  5.043925E+04  8.309581E+03
       128   8  1.035887E+06  1.908780E+05  1.648655E+05  3.878889E+05  4.307101E+04  4.766584E+04
       128   9  1.668006E+06  3.436121E+05  2.970318E+05  4.879974E+05  3.572503E+04  8.259096E+04
       128  10  8.195830E+04 -3.840838E+04 -3.011474E+04  4.870903E+05 -1.303360E-09 -3.551074E-10
       128  11 -5.485939E+05 -1.902521E+05 -1.567300E+05  3.869672E+05 -1.360675E-10  5.760889E-10
       128  12 -1.179119E+06 -3.421768E+05 -2.855407E+05  4.863815E+05  6.585176E-10  4.952421E-10
       128  13  2.437956E+05  7.550499E+02  3.893272E+03  4.871880E+05 -1.088531E-09 -6.226413E-10
       128  14  2.433466E+05  3.310533E+02  4.080198E+03  3.874270E+05 -1.576379E-09  4.537968E-10
       128  15  2.434799E+05  7.773805E+02  5.791669E+03  4.871879E+05 -6.902049E-10  2.225477E-10
       128  16  4.056577E+05  3.991680E+04  3.789982E+04  4.872858E+05  3.121722E-10 -4.571815E-10
       128  17  1.035884E+06  1.908751E+05  1.648577E+05  3.878872E+05 -1.055091E-09 -6.763437E-11
       128  18  1.668003E+06  3.436045E+05  2.970166E+05  4.879951E+05 -1.045765E-09  1.524080E-10
       128  19  8.196094E+04 -3.840765E+04 -3.011002E+04  4.870900E+05  4.942939E+04 -8.188233E+03
       128  20 -5.485910E+05 -1.902490E+05 -1.567218E+05  3.869654E+05  4.614738E+04 -4.759190E+04
       128  21 -1.179115E+06 -3.421689E+05 -2.855244E+05  4.863786E+05  4.283894E+04 -8.255660E+04
       128  22  2.437956E+05  7.551230E+02  3.893401E+03  4.871880E+05 -4.985253E+02 -8.248905E+03
       128  23  2.433472E+05  3.334903E+02  4.084467E+03  3.874270E+05  1.566103E+03 -4.762885E+04
       128  24  2.434818E+05  7.847070E+02  5.804509E+03  4.871876E+05  3.601162E+03 -8.257375E+04
       128  25  4.056604E+05  3.991755E+04  3.790473E+04  4.872861E+05 -5.043925E+04 -8.309581E+03
       128  26  1.035887E+06  1.908780E+05  1.648655E+05  3.878889E+05 -4.307101E+04 -4.766584E+04
       128  27  1.668006E+06  3.436121E+05  2.970318E+05  4.879974E+05 -3.572503E+04 -8.259096E+04
       129   1 -1.633340E+06 -4.536799E+05 -3.769073E+05  4.883578E+05 -6.386371E+04  1.098777E+05
       129   2 -2.259157E+06 -6.070514E+05 -5.230242E+05  3.847400E+05  3.213464E+04  1.168234E+05
       129   3 -2.895411E+06 -7.605739E+05 -7.314764E+05  4.763356E+05  1.279186E+05  3.861478E+04
       129   4  2.445797E+05 -9.717329E+02  7.097776E+03  4.862169E+05 -4.654977E+03  1.098856E+05
       129   5  2.406282E+05  4.151520E+02  1.141998E+04  3.886383E+05 -1.053085E+04  1.167943E+05
       129   6  2.435976E+05  1.938003E+04  2.427395E+04  4.862252E+05 -1.652086E+04  3.870566E+04
       129   7  2.125863E+06  4.515172E+05  3.909295E+05  4.840678E+05  5.472995E+04  1.098930E+05
       129   8  2.746311E+06  6.074744E+05  5.455091E+05  3.925512E+05 -5.336604E+04  1.167649E+05
       129   9  3.391693E+06  7.986268E+05  7.794006E+05  4.961634E+05 -1.616903E+05  3.879192E+04
       129  10 -1.633348E+06 -4.536939E+05 -3.769377E+05  4.883634E+05  2.743908E-10  2.258318E-10
       129  11 -2.259161E+06 -6.070663E+05 -5.230518E+05  3.847369E+05 -1.810612E-09 -1.985479E-10
       129  12 -2.895429E+06 -7.605800E+05 -7.315100E+05  4.763316E+05 -7.637480E-10 -2.123132E-10
       129  13  2.445764E+05 -9.847071E+02  7.075040E+03  4.862173E+05  1.068661E-09 -2.309913E-11
       129  14  2.406244E+05  4.004715E+02  1.139413E+04  3.886393E+05 -2.829370E-09 -1.302225E-10
       129  15  2.435969E+05  1.937835E+04  2.427062E+04  4.862257E+05  4.476971E-10 -1.107888E-10
       129  16  2.125857E+06  4.515034E+05  3.909012E+05  4.840629E+05 -5.879093E-10 -1.817959E-10
       129  17  2.746305E+06  6.074590E+05  5.454781E+05  3.925562E+05  1.898317E-09 -3.710022E-10
       129  18  3.391665E+06  7.986182E+05  7.793489E+05  4.961684E+05  5.021467E-10 -8.174200E-11
       129  19 -1.633340E+06 -4.536799E+05 -3.769073E+05  4.883578E+05  6.386371E+04 -1.098777E+05
       129  20 -2.259157E+06 -6.070514E+05 -5.230242E+05  3.847400E+05 -3.213464E+04 -1.168234E+05
       129  21 -2.895411E+06 -7.605739E+05 -7.314764E+05  4.763356E+05 -1.279186E+05 -3.861478E+04
       129  22  2.445797E+05 -9.717329E+02  7.097776E+03  4.862169E+05  4.654977E+03 -1.098856E+05
       129  23  2.406282E+05  4.151520E+02  1.141998E+04  3.886383E+05  1.053085E+04 -1.167943E+05
       129  24  2.435976E+05  1.938003E+04  2.427395E+04  4.862252E+05  1.652086E+04 -3.870566E+04
       129  25  2.125863E+06  4.515172E+05  3.909295E+05  4.840678E+05 -5.472995E+04 -1.098930E+05
       129  26  2.746311E+06  6.074744E+05  5.455091E+05  3.925512E+05  5.336604E+04 -1.167649E+05
       129  27  3.391693E+06  7.986268E+05  7.794006E+05  4.961634E+05  1.616903E+05 -3.879192E+04
       130   1 -6.389257E+05 -2.581698E+06 -6.279498E+05  5.628837E+05 -2.798461E+04 -1.195820E+05
       130   2 -4.284787E+05 -1.850817E+06 -3.923302E+05  4.442740E+05 -7.798422E+04 -3.006648E+04
       130   3 -2.485400E+05 -1.139456E+06 -2.229199E+05  5.502974E+05 -5.869932E+04  5.939785E+04
       130   4 -2.018222E+04 -9.320887E+04 -2.643505E+04  5.558937E+05 -2.767213E+04 -1.801930E+04
       130   5  3.672146E+01 -9.003905E+04 -1.247132E+04  4.435567E+05 -7.790491E+04 -1.132944E+04
       130   6  4.241587E+03 -9.241659E+04 -7.004427E+03  5.558219E+05 -5.894015E+04 -4.797878E+03
       130   7  5.981137E+05  2.400979E+06  5.746743E+05  5.488690E+05 -2.736273E+04  8.395055E+04
       130   8  4.283481E+05  1.673658E+06  3.672061E+05  4.428339E+05 -7.782579E+04  7.460171E+03
       130   9  2.569562E+05  9.556727E+05  2.088675E+05  5.613546E+05 -5.918188E+04 -6.910012E+04
       130  10 -6.389304E+05 -2.581713E+06 -6.279782E+05  5.628811E+05 -4.422663E-11 -2.607786E-10
       130  11 -4.284855E+05 -1.850820E+06 -3.923433E+05  4.442721E+05  1.202226E-09 -4.251071E-10
       130  12 -2.485447E+05 -1.139460E+06 -2.229331E+05  5.503002E+05  3.205139E-10  5.698648E-10
       130  13 -2.018313E+04 -9.320942E+04 -2.643710E+04  5.558933E+05 -8.460613E-10 -3.876581E-11
       130  14  3.017096E+01 -9.004081E+04 -1.248297E+04  4.435560E+05  8.649531E-10 -1.253884E-10
       130  15  4.237851E+03 -9.241755E+04 -7.010997E+03  5.558217E+05  9.854874E-11  1.895811E-10
       130  16  5.981110E+05  2.400971E+06  5.746597E+05  5.488708E+05 -1.385571E-09  4.039463E-10
       130  17  4.283416E+05  1.673656E+06  3.671946E+05  4.428344E+05 -2.887150E-09 -6.882224E-10
       130  18  2.569511E+05  9.556667E+05  2.088520E+05  5.613513E+05 -5.786466E-10 -9.074700E-10
       130  19 -6.389257E+05 -2.581698E+06 -6.279498E+05  5.628837E+05  2.798461E+04  1.195820E+05
       130  20 -4.284787E+05 -1.850817E+06 -3.923302E+05  4.442740E+05  7.798422E+04  3.006648E+04
       130  21 -2.485400E+05 -1.139456E+06 -2.229199E+05  5.502974E+05  5.869932E+04 -5.939785E+04
       130  22 -2.018222E+04 -9.320887E+04 -2.643505E+04  5.558937E+05  2.767213E+04  1.801930E+04
       130  23  3.672146E+01 -9.003905E+04 -1.247132E+04  4.435567E+05  7.790491E+04  1.132944E+04
       130  24  4.241587E+03 -9.241659E+04 -7.004427E+03  5.558219E+05  5.894015E+04  4.797878E+03
       130  25  5.981137E+05  2.400979E+06  5.746743E+05  5.488690E+05  2.736273E+04 -8.395055E+04
       130  26  4.283481E+05  1.673658E+06  3.672061E+05  4.428339E+05  7.782579E+04 -7.460171E+03
       130  27  2.569562E+05  9.556727E+05  2.088675E+05  5.613546E+05  5.918188E+04  6.910012E+04
       131   1 -1.243526E+05 -6.182497E+05 -1.150263E+05  5.555392E+05 -2.835368E+04  4.487359E+04
       131   2  4.973261E+04  1.037201E+05  3.594858E+04  4.431237E+05  1.211903E+04  4.575310E+04
       131   3  2.243348E+05  8.245765E+05  1.860138E+05  5.587502E+05  5.204829E+04  4.664346E+04
       131   4  2.960227E+03 -9.139674E+04 -5.551433E+03  5.566013E+05 -2.854703E+04 -3.997391E+03
       131   5  3.021769E+03 -9.058105E+04 -3.299538E+03  4.425774E+05  1.193348E+04 -2.490213E+03
       131   6  3.519932E+03 -9.148469E+04 -2.382528E+03  5.565987E+05  5.186886E+04 -9.732475E+02
       131   7  1.302567E+05  4.357244E+05  1.039172E+05  5.576640E+05 -2.874044E+04 -5.290918E+04
       131   8 -4.369016E+04 -2.848412E+05 -4.254086E+04  4.420313E+05  1.174798E+04 -5.071872E+04
       131   9 -2.173466E+05 -1.006745E+06 -1.908153E+05  5.544494E+05  5.168959E+04 -4.852101E+04
       131  10 -1.243540E+05 -6.182520E+05 -1.150316E+05  5.555402E+05  1.568952E-09  2.387033E-09
       131  11  4.973189E+04  1.037178E+05  3.594438E+04  4.431233E+05 -2.307782E-10  2.449860E-09
       131  12  2.243313E+05  8.245734E+05  1.860046E+05  5.587483E+05  6.699591E-11  2.717481E-09
       131  13  2.959348E+03 -9.139698E+04 -5.552994E+03  5.566012E+05  5.511704E-10  4.639238E-11
       131  14  3.021614E+03 -9.058109E+04 -3.299817E+03  4.425774E+05 -2.647906E-10  6.947960E-12
       131  15  3.517042E+03 -9.148541E+04 -2.387586E+03  5.565987E+05  1.663718E-09  1.628464E-10
       131  16  1.302550E+05  4.357212E+05  1.039104E+05  5.576627E+05  7.417163E-10 -2.117638E-09
       131  17 -4.369100E+04 -2.848440E+05 -4.254596E+04  4.420317E+05  1.785878E-09 -2.682257E-09
       131  18 -2.173501E+05 -1.006748E+06 -1.908248E+05  5.544514E+05  1.346301E-09 -3.119639E-09
       131  19 -1.243526E+05 -6.182497E+05 -1.150263E+05  5.555392E+05  2.835368E+04 -4.487359E+04
       131  20  4.973261E+04  1.037201E+05  3.594858E+04  4.431237E+05 -1.211903E+04 -4.575310E+04
       131  21  2.243348E+05  8.245765E+05  1.860138E+05  5.587502E+05 -5.204829E+04 -4.664346E+04
       131  22  2.960227E+03 -9.139674E+04 -5.551433E+03  5.566013E+05  2.854703E+04  3.997391E+03
       131  23  3.021769E+03 -9.058105E+04 -3.299538E+03  4.425774E+05 -1.193348E+04  2.490213E+03
       131  24  3.519932E+03 -9.148469E+04 -2.382528E+03  5.565987E+05 -5.186886E+04  9.732475E+02
       131  25  1.302567E+05  4.357244E+05  1.039172E+05  5.576640E+05  2.874044E+04  5.290918E+04
       131  26 -4.369016E+04 -2.848412E+05 -4.254086E+04  4.420313E+05 -1.174798E+04  5.071872E+04
       131  27 -2.173466E+05 -1.006745E+06 -1.908153E+05  5.544494E+05 -5.168959E+04  4.852101E+04
       132   1  3.496131E+05  1.346044E+06  2.924515E+05  5.597555E+05  8.281834E+04  6.470207E+04
       132   2  5.234978E+05  2.060736E+06  4.585934E+05  4.475268E+05  9.744845E+04 -2.884229E+04
       132   3  7.129835E+05  2.791711E+06  6.892916E+05  5.592765E+05  3.316015E+04 -1.223433E+05
       132   4  3.389120E+03 -9.149472E+04 -2.154627E+03  5.557044E+05  8.258989E+04 -7.535499E+02
       132   5  1.272416E+03 -9.166425E+04 -2.666032E+03  4.436979E+05  9.756461E+04  6.639548E+02
       132   6 -1.652910E+03 -9.245913E+04 -4.440184E+03  5.557160E+05  3.349696E+04  2.234389E+03
       132   7 -3.429623E+05 -1.527064E+06 -2.968546E+05  5.516603E+05  8.236197E+04 -6.606058E+04
       132   8 -5.212555E+05 -2.239714E+06 -4.641921E+05  4.398777E+05  9.768066E+04  3.006960E+04
       132   9 -7.168863E+05 -2.969005E+06 -6.987062E+05  5.521639E+05  3.383334E+04  1.262374E+05
       132  10  3.496046E+05  1.346038E+06  2.924308E+05  5.597512E+05 -2.378024E-10  2.193534E-08
       132  11  5.234874E+05  2.060733E+06  4.585740E+05  4.475291E+05 -3.005471E-09  5.713940E-10
       132  12  7.129783E+05  2.791694E+06  6.892615E+05  5.592798E+05 -8.325515E-10 -1.910006E-08
       132  13  3.381795E+03 -9.149656E+04 -2.167445E+03  5.557045E+05 -1.400496E-09 -2.479050E-11
       132  14  1.262195E+03 -9.166680E+04 -2.683920E+03  4.436978E+05 -8.803190E-10 -3.410933E-11
       132  15 -1.654116E+03 -9.245944E+04 -4.442302E+03  5.557159E+05 -6.526397E-10  1.109141E-10
       132  16 -3.429708E+05 -1.527071E+06 -2.968756E+05  5.516647E+05  2.510709E-09 -2.193257E-08
       132  17 -5.212660E+05 -2.239718E+06 -4.642117E+05  4.398753E+05 -1.479966E-09 -8.924464E-10
       132  18 -7.168918E+05 -2.969022E+06 -6.987385E+05  5.521605E+05 -1.264933E-09  1.904524E-08
       132  19  3.496131E+05  1.346044E+06  2.924515E+05  5.597555E+05 -8.281834E+04 -6.470207E+04
       132  20  5.234978E+05  2.060736E+06  4.585934E+05  4.475268E+05 -9.744845E+04  2.884229E+04
       132  21  7.129835E+05  2.791711E+06  6.892916E+05  5.592765E+05 -3.316015E+04  1.223433E+05
       132  22  3.389120E+03 -9.149472E+04 -2.154627E+03  5.557044E+05 -8.258989E+04  7.535499E+02
       132  23  1.272416E+03 -9.166425E+04 -2.666032E+03  4.436979E+05 -9.756461E+04 -6.639548E+02
       132  24 -1.652910E+03 -9.245913E+04 -4.440184E+03  5.557160E+05 -3.349696E+04 -2.234389E+03
       132  25 -3.429623E+05 -1.527064E+06 -2.968546E+05  5.516603E+05 -8.236197E+04  6.606058E+04
       132  26 -5.212555E+05 -2.239714E+06 -4.641921E+05  4.398777E+05 -9.768066E+04 -3.006960E+04
       132  27 -7.168863E+05 -2.969005E+06 -6.987062E+05  5.521639E+05 -3.383334E+04 -1.262374E+05
       133   1  3.354880E+06  7.811700E+05  7.664753E+05  4.680631E+05  1.732344E+05 -3.712509E+04
       133   2  2.759543E+06  5.835908E+05  5.343358E+05  3.651342E+05  6.405083E+04 -1.121946E+05
       133   3  2.193133E+06  4.375226E+05  3.861265E+05  4.411546E+05 -4.491359E+04 -1.069041E+05
       133   4  3.660510E+05  4.145502E+04  4.980421E+04  4.461243E+05  3.420878E+04 -3.703488E+04
       133   5  3.605263E+05  2.482539E+03  2.333544E+04  3.566277E+05  2.196937E+04 -1.122178E+05
       133   6  3.669190E+05 -1.634962E+03  1.376729E+04  4.461046E+05  9.840900E+03 -1.069052E+05
       133   7 -2.614585E+06 -6.988954E+05 -6.674272E+05  4.242900E+05 -1.041533E+05 -3.693486E+04
       133   8 -2.033083E+06 -5.789985E+05 -4.879895E+05  3.481532E+05 -1.995256E+04 -1.122400E+05
       133   9 -1.456126E+06 -4.409990E+05 -3.587563E+05  4.510385E+05  6.443770E+04 -1.069054E+05
       133  10  3.354847E+06  7.811605E+05  7.664166E+05  4.680682E+05  2.171019E-09 -8.059187E-10
       133  11  2.759535E+06  5.835762E+05  5.343044E+05  3.651400E+05  1.215957E-09 -1.042281E-09
       133  12  2.193127E+06  4.375097E+05  3.861012E+05  4.411508E+05  1.671649E-09  8.997973E-10
       133  13  3.660493E+05  4.145323E+04  4.979943E+04  4.461253E+05 -2.153405E-09 -1.984857E-10
       133  14  3.605224E+05  2.468883E+03  2.331085E+04  3.566297E+05 -6.656772E-10 -8.315035E-10
       133  15  3.669158E+05 -1.647264E+03  1.374563E+04  4.461055E+05  5.279103E-10  9.185772E-10
       133  16 -2.614597E+06 -6.988998E+05 -6.674502E+05  4.242869E+05 -2.989905E-09 -7.757143E-10
       133  17 -2.033087E+06 -5.790122E+05 -4.880140E+05  3.481514E+05  6.630006E-10 -3.046937E-10
       133  18 -1.456133E+06 -4.410124E+05 -3.587856E+05  4.510440E+05  2.307218E-10  1.010833E-09
       133  19  3.354880E+06  7.811700E+05  7.664753E+05  4.680631E+05 -1.732344E+05  3.712509E+04
       133  20  2.759543E+06  5.835908E+05  5.343358E+05  3.651342E+05 -6.405083E+04  1.121946E+05
       133  21  2.193133E+06  4.375226E+05  3.861265E+05  4.411546E+05  4.491359E+04  1.069041E+05
       133  22  3.660510E+05  4.145502E+04  4.980421E+04  4.461243E+05 -3.420878E+04  3.703488E+04
       133  23  3.605263E+05  2.482539E+03  2.333544E+04  3.566277E+05 -2.196937E+04  1.122178E+05
       133  24  3.669190E+05 -1.634962E+03  1.376729E+04  4.461046E+05 -9.840900E+03  1.069052E+05
       133  25 -2.614585E+06 -6.988954E+05 -6.674272E+05  4.242900E+05  1.041533E+05  3.693486E+04
       133  26 -2.033083E+06 -5.789985E+05 -4.879895E+05  3.481532E+05  1.995256E+04  1.122400E+05
       133  27 -1.456126E+06 -4.409990E+05 -3.587563E+05  4.510385E+05 -6.443770E+04  1.069054E+05
       134   1  1.771802E+06  3.400882E+05  2.984022E+05  4.479791E+05 -2.785255E+04 -8.176874E+04
       134   2  1.191620E+06  1.990643E+05  1.743776E+05  3.559469E+05 -3.626778E+04 -4.992452E+04
       134   3  6.135983E+05  6.050194E+04  5.643559E+04  4.469446E+05 -4.470374E+04 -1.386943E+04
       134   4  3.647653E+05  1.544894E+03  1.095348E+04  4.470153E+05  7.901316E+03 -8.175898E+04
       134   5  3.644280E+05  2.501805E+02  6.746653E+03  3.554935E+05  4.539942E+03 -4.989651E+04
       134   6  3.650664E+05  5.636432E+02  5.131522E+03  4.470166E+05  1.150305E+03 -1.381947E+04
       134   7 -1.040392E+06 -3.371216E+05 -2.765951E+05  4.460528E+05  4.357579E+04 -8.174931E+04
       134   8 -4.621102E+05 -1.986055E+05 -1.609136E+05  3.550405E+05  4.529440E+04 -4.986853E+04
       134   9  1.165974E+05 -5.937743E+04 -4.616799E+04  4.470885E+05  4.698632E+04 -1.376949E+04
       134  10  1.771800E+06  3.400808E+05  2.983882E+05  4.479773E+05  2.295997E-08  2.068047E-09
       134  11  1.191618E+06  1.990612E+05  1.743704E+05  3.559454E+05 -8.953866E-10  2.014374E-09
       134  12  6.135961E+05  6.050120E+04  5.643148E+04  4.469441E+05 -2.251637E-08  3.270560E-10
       134  13  3.647635E+05  1.537697E+03  1.094080E+04  4.470159E+05 -6.498825E-11  2.060037E-09
       134  14  3.644274E+05  2.475009E+02  6.741935E+03  3.554937E+05  1.470487E-10  2.767566E-09
       134  15  3.650663E+05  5.634377E+02  5.131161E+03  4.470166E+05 -8.375283E-10  5.396566E-10
       134  16 -1.040395E+06 -3.371293E+05 -2.766113E+05  4.460557E+05 -2.296563E-08  2.188956E-09
       134  17 -4.621130E+05 -1.986087E+05 -1.609221E+05  3.550423E+05 -4.216759E-10  2.501376E-09
       134  18  1.165950E+05 -5.937823E+04 -4.617249E+04  4.470891E+05  2.069915E-08  7.788337E-10
       134  19  1.771802E+06  3.400882E+05  2.984022E+05  4.479791E+05  2.785255E+04  8.176874E+04
       134  20  1.191620E+06  1.990643E+05  1.743776E+05  3.559469E+05  3.626778E+04  4.992452E+04
       134  21  6.135983E+05  6.050194E+04  5.643559E+04  4.469446E+05  4.470374E+04  1.386943E+04
       134  22  3.647653E+05  1.544894E+03  1.095348E+04  4.470153E+05 -7.901316E+03  8.175898E+04
       134  23  3.644280E+05  2.501805E+02  6.746653E+03  3.554935E+05 -4.539942E+03  4.989651E+04
       134  24  3.650664E+05  5.636432E+02  5.131522E+03  4.470166E+05 -1.150305E+03  1.381947E+04
       134  25 -1.040392E+06 -3.371216E+05 -2.765951E+05  4.460528E+05 -4.357579E+04  8.174931E+04
       134  26 -4.621102E+05 -1.986055E+05 -1.609136E+05  3.550405E+05 -4.529440E+04  4.986853E+04
       134  27  1.165974E+05 -5.937743E+04 -4.616799E+04  4.470885E+05 -4.698632E+04  1.376949E+04
       135   1  1.976476E+05 -3.985774E+04 -3.009456E+04  4.470019E+05 -4.558369E+04  8.698986E+03
       135   2 -3.809733E+05 -1.790975E+05 -1.458480E+05  3.550611E+05 -4.339867E+04  4.483389E+04
       135   3 -9.593794E+05 -3.180255E+05 -2.629695E+05  4.461769E+05 -4.119010E+04  7.687033E+04
       135   4  3.650230E+05  6.059471E+02  4.897439E+03  4.470160E+05  2.281990E+02  8.749451E+03
       135   5  3.645129E+05  2.709848E+02  5.472415E+03  3.554943E+05 -2.523541E+03  4.486405E+04
       135   6  3.647517E+05  1.121626E+03  8.109880E+03  4.470153E+05 -5.249782E+03  7.688355E+04
       135   7  5.324293E+05  4.106897E+04  3.989577E+04  4.470302E+05  4.605223E+04  8.799908E+03
       135   8  1.110532E+06  1.796057E+05  1.567701E+05  3.559279E+05  3.839976E+04  4.489424E+04
       135   9  1.690552E+06  3.201594E+05  2.791011E+05  4.478547E+05  3.076590E+04  7.689684E+04
       135  10  1.976453E+05 -3.985838E+04 -3.009861E+04  4.470022E+05 -2.817541E-09 -1.167388E-10
       135  11 -3.809758E+05 -1.791001E+05 -1.458553E+05  3.550626E+05 -1.770528E-09 -6.924955E-10
       135  12 -9.593828E+05 -3.180323E+05 -2.629838E+05  4.461794E+05 -2.320392E-09 -3.981636E-10
       135  13  3.650229E+05  6.058649E+02  4.897295E+03  4.470160E+05 -1.068718E-09 -4.566166E-10
       135  14  3.645124E+05  2.688213E+02  5.468619E+03  3.554944E+05  4.597368E-10 -1.387960E-09
       135  15  3.647501E+05  1.115270E+03  8.098716E+03  4.470156E+05 -1.137131E-10 -9.271910E-10
       135  16  5.324270E+05  4.106831E+04  3.989164E+04  4.470299E+05  7.356647E-10 -7.149788E-10
       135  17  1.110530E+06  1.796032E+05  1.567636E+05  3.559265E+05  1.727903E-09 -1.226701E-09
       135  18  1.690550E+06  3.201528E+05  2.790882E+05  4.478528E+05  1.708242E-09 -7.110992E-10
       135  19  1.976476E+05 -3.985774E+04 -3.009456E+04  4.470019E+05  4.558369E+04 -8.698986E+03
       135  20 -3.809733E+05 -1.790975E+05 -1.458480E+05  3.550611E+05  4.339867E+04 -4.483389E+04
       135  21 -9.593794E+05 -3.180255E+05 -2.629695E+05  4.461769E+05  4.119010E+04 -7.687033E+04
       135  22  3.650230E+05  6.059471E+02  4.897439E+03  4.470160E+05 -2.281990E+02 -8.749451E+03
       135  23  3.645129E+05  2.709848E+02  5.472415E+03  3.554943E+05  2.523541E+03 -4.486405E+04
       135  24  3.647517E+05  1.121626E+03  8.109880E+03  4.470153E+05  5.249782E+03 -7.688355E+04
       135  25  5.324293E+05  4.106897E+04  3.989577E+04  4.470302E+05 -4.605223E+04 -8.799908E+03
       135  26  1.110532E+06  1.796057E+05  1.567701E+05  3.559279E+05 -3.839976E+04 -4.489424E+04
       135  27  1.690552E+06  3.201594E+05  2.791011E+05  4.478547E+05 -3.076590E+04 -7.689684E+04
       136   1 -1.375681E+06 -4.210228E+05 -3.460950E+05  4.494548E+05 -6.107444E+04  1.019513E+05
       136   2 -1.951258E+06 -5.604067E+05 -4.777843E+05  3.506818E+05  2.444410E+04  1.081261E+05
       136   3 -2.534063E+06 -6.914257E+05 -6.628670E+05  4.310457E+05  1.097804E+05  3.571618E+04
       136   4  3.662772E+05 -1.191302E+03  9.991929E+03  4.461339E+05 -6.692390E+03  1.019562E+05
       136   5  3.614578E+05  1.447455E+03  1.648453E+04  3.565932E+05 -1.523518E+04  1.081024E+05
       136   6  3.654403E+05  2.879379E+04  3.498341E+04  4.461455E+05 -2.387731E+04  3.579875E+04
       136   7  2.111128E+06  4.184516E+05  3.659296E+05  4.428022E+05  4.783973E+04  1.019606E+05
       136   8  2.679220E+06  5.629533E+05  5.104498E+05  3.625260E+05 -5.506038E+04  1.080781E+05
       136   9  3.272694E+06  7.484108E+05  7.323023E+05  4.613149E+05 -1.581586E+05  3.587479E+04
       136  10 -1.375687E+06 -4.210350E+05 -3.461216E+05  4.494598E+05 -7.811375E-10 -2.872465E-10
       136  11 -1.951261E+06 -5.604194E+05 -4.778074E+05  3.506796E+05 -1.514911E-09 -1.823263E-10
       136  12 -2.534076E+06 -6.914303E+05 -6.628921E+05  4.310425E+05  2.897182E-12 -3.429515E-10
       136  13  3.662743E+05 -1.202479E+03  9.972304E+03  4.461344E+05  8.543759E-11 -1.596676E-10
       136  14  3.614544E+05  1.434840E+03  1.646213E+04  3.565946E+05 -1.841157E-10  2.574222E-10
       136  15  3.654394E+05  2.879226E+04  3.497992E+04  4.461461E+05  1.402454E-09 -1.728367E-10
       136  16  2.111123E+06  4.184399E+05  3.659058E+05  4.427982E+05  1.439136E-09 -2.319725E-10
       136  17  2.679214E+06  5.629400E+05  5.104222E+05  3.625308E+05  1.360192E-09  4.595697E-10
       136  18  3.272667E+06  7.484028E+05  7.322531E+05  4.613195E+05  1.449459E-09 -4.908164E-11
       136  19 -1.375681E+06 -4.210228E+05 -3.460950E+05  4.494548E+05  6.107444E+04 -1.019513E+05
       136  20 -1.951258E+06 -5.604067E+05 -4.777843E+05  3.506818E+05 -2.444410E+04 -1.081261E+05
       136  21 -2.534063E+06 -6.914257E+05 -6.628670E+05  4.310457E+05 -1.097804E+05 -3.571618E+04
       136  22  3.662772E+05 -1.191302E+03  9.991929E+03  4.461339E+05  6.692390E+03 -1.019562E+05
       136  23  3.614578E+05  1.447455E+03  1.648453E+04  3.565932E+05  1.523518E+04 -1.081024E+05
       136  24  3.654403E+05  2.879379E+04  3.498341E+04  4.461455E+05  2.387731E+04 -3.579875E+04
       136  25  2.111128E+06  4.184516E+05  3.659296E+05  4.428022E+05 -4.783973E+04 -1.019606E+05
       136  26  2.679220E+06  5.629533E+05  5.104498E+05  3.625260E+05  5.506038E+04 -1.080781E+05
       136  27  3.272694E+06  7.484108E+05  7.323023E+05  4.613149E+05  1.581586E+05 -3.587479E+04
       137   1 -6.648034E+05 -2.608405E+06 -6.545367E+05  5.794572E+05 -2.884623E+04 -1.293476E+05
       137   2 -4.426499E+05 -1.861161E+06 -4.086385E+05  4.556424E+05 -8.053767E+04 -3.516369E+04
       137   3 -2.579956E+05 -1.135679E+06 -2.337340E+05  5.611808E+05 -6.103098E+04  5.898425E+04
       137   4 -2.862696E+04 -4.965102E+04 -3.610008E+04  5.677910E+05 -2.853806E+04 -2.463376E+04
       137   5 -8.232953E+02 -4.553247E+04 -1.704515E+04  4.530823E+05 -8.045685E+04 -1.555089E+04
       137   6  4.386810E+03 -4.881725E+04 -9.675446E+03  5.676977E+05 -6.126881E+04 -6.619260E+03
       137   7  6.070766E+05  2.515128E+06  5.819084E+05  5.560696E+05 -2.823465E+04  8.051173E+04
       137   8  4.407864E+05  1.773200E+06  3.743555E+05  4.505111E+05 -8.037635E+04  4.118658E+03
       137   9  2.666970E+05  1.039176E+06  2.143357E+05  5.742248E+05 -6.150775E+04 -7.233575E+04
       137  10 -6.648088E+05 -2.608423E+06 -6.545698E+05  5.794542E+05  1.864729E-10  1.133994E-10
       137  11 -4.426572E+05 -1.861164E+06 -4.086530E+05  4.556401E+05 -1.163103E-09 -9.285937E-10
       137  12 -2.580005E+05 -1.135684E+06 -2.337476E+05  5.611837E+05  7.744114E-10  1.420385E-09
       137  13 -2.862799E+04 -4.965189E+04 -3.610275E+04  5.677904E+05 -1.921392E-09  1.006442E-09
       137  14 -8.303099E+02 -4.553447E+04 -1.705777E+04  4.530813E+05 -7.622129E-10 -6.552674E-11
       137  15  4.382768E+03 -4.881830E+04 -9.682581E+03  5.676974E+05 -1.142035E-09  3.114277E-10
       137  16  6.070741E+05  2.515121E+06  5.818947E+05  5.560714E+05 -6.210094E-10  1.746751E-10
       137  17  4.407795E+05  1.773198E+06  3.743433E+05  4.505114E+05 -1.549120E-09 -1.012032E-09
       137  18  2.666915E+05  1.039169E+06  2.143188E+05  5.742212E+05  4.619133E-10 -1.319434E-09
       137  19 -6.648034E+05 -2.608405E+06 -6.545367E+05  5.794572E+05  2.884623E+04  1.293476E+05
       137  20 -4.426499E+05 -1.861161E+06 -4.086385E+05  4.556424E+05  8.053767E+04  3.516369E+04
       137  21 -2.579956E+05 -1.135679E+06 -2.337340E+05  5.611808E+05  6.103098E+04 -5.898425E+04
       137  22 -2.862696E+04 -4.965102E+04 -3.610008E+04  5.677910E+05  2.853806E+04  2.463376E+04
       137  23 -8.232953E+02 -4.553247E+04 -1.704515E+04  4.530823E+05  8.045685E+04  1.555089E+04
       137  24  4.386810E+03 -4.881725E+04 -9.675446E+03  5.676977E+05  6.126881E+04  6.619260E+03
       137  25  6.070766E+05  2.515128E+06  5.819084E+05  5.560696E+05  2.823465E+04 -8.051173E+04
       137  26  4.407864E+05  1.773200E+06  3.743555E+05  4.505111E+05  8.037635E+04 -4.118658E+03
       137  27  2.666970E+05  1.039176E+06  2.143357E+05  5.742248E+05  6.150775E+04  7.233575E+04
       138   1 -1.316932E+05 -6.031230E+05 -1.230885E+05  5.675361E+05 -3.002798E+04  4.439255E+04
       138   2  4.639184E+04  1.341288E+05  3.181525E+04  4.525795E+05  1.127493E+04  4.600649E+04
       138   3  2.245833E+05  8.701324E+05  1.852356E+05  5.704697E+05  5.207246E+04  4.763154E+04
       138   4  2.572402E+03 -4.740660E+04 -7.701693E+03  5.684998E+05 -3.021935E+04 -5.449868E+03
       138   5  2.966121E+03 -4.651497E+04 -4.672926E+03  4.520732E+05  1.109092E+04 -3.254436E+03
       138   6  3.395289E+03 -4.749011E+04 -3.519483E+03  5.684963E+05  5.189407E+04 -1.049808E+03
       138   7  1.368197E+05  5.086079E+05  1.076776E+05  5.694641E+05 -3.041078E+04 -5.533618E+04
       138   8 -4.046032E+04 -2.271224E+05 -4.115366E+04  4.515670E+05  1.090695E+04 -5.250130E+04
       138   9 -2.178445E+05 -9.643091E+05 -1.923108E+05  5.665249E+05  5.171583E+04 -4.966055E+04
       138  10 -1.316947E+05 -6.031254E+05 -1.230939E+05  5.675371E+05  8.796324E-10 -3.210983E-09
       138  11  4.639114E+04  1.341265E+05  3.181103E+04  4.525791E+05 -1.419872E-09  7.447049E-09
       138  12  2.245797E+05  8.701293E+05  1.852263E+05  5.704677E+05 -1.829831E-09  1.841242E-08
       138  13  2.571414E+03 -4.740687E+04 -7.703464E+03  5.684997E+05 -9.021515E-10  1.570241E-09
       138  14  2.965986E+03 -4.651502E+04 -4.673177E+03  4.520732E+05 -5.470782E-10  2.462738E-11
       138  15  3.392397E+03 -4.749083E+04 -3.524546E+03  5.684964E+05 -9.378601E-10  3.083692E-10
       138  16  1.368179E+05  5.086044E+05  1.076701E+05  5.694628E+05  9.151896E-10  3.563180E-09
       138  17 -4.046119E+04 -2.271254E+05 -4.115907E+04  4.515674E+05  1.391210E-09 -8.730066E-09
       138  18 -2.178480E+05 -9.643125E+05 -1.923205E+05  5.665270E+05 -1.695907E-09 -1.835744E-08
       138  19 -1.316932E+05 -6.031230E+05 -1.230885E+05  5.675361E+05  3.002798E+04 -4.439255E+04
       138  20  4.639184E+04  1.341288E+05  3.181525E+04  4.525795E+05 -1.127493E+04 -4.600649E+04
       138  21  2.245833E+05  8.701324E+05  1.852356E+05  5.704697E+05 -5.207246E+04 -4.763154E+04
       138  22  2.572402E+03 -4.740660E+04 -7.701693E+03  5.684998E+05  3.021935E+04  5.449868E+03
       138  23  2.966121E+03 -4.651497E+04 -4.672926E+03  4.520732E+05 -1.109092E+04  3.254436E+03
       138  24  3.395289E+03 -4.749011E+04 -3.519483E+03  5.684963E+05 -5.189407E+04  1.049808E+03
       138  25  1.368197E+05  5.086079E+05  1.076776E+05  5.694641E+05  3.041078E+04  5.533618E+04
       138  26 -4.046032E+04 -2.271224E+05 -4.115366E+04  4.515670E+05 -1.090695E+04  5.250130E+04
       138  27 -2.178445E+05 -9.643091E+05 -1.923108E+05  5.665249E+05 -5.171583E+04  4.966055E+04
       139   1  3.526194E+05  1.402509E+06  2.939232E+05  5.717998E+05  8.347364E+04  6.614093E+04
       139   2  5.299208E+05  2.132612E+06  4.631482E+05  4.563929E+05  9.860782E+04 -2.811965E+04
       139   3  7.212699E+05  2.878800E+06  6.970152E+05  5.697233E+05  3.361183E+04 -1.223485E+05
       139   4  3.382726E+03 -4.757899E+04 -3.284508E+03  5.675915E+05  8.324763E+04 -6.459561E+02
       139   5  9.892854E+02 -4.752935E+04 -4.100169E+03  4.532071E+05  9.872154E+04  1.519786E+03
       139   6 -4.020289E+03 -4.857644E+04 -7.104547E+03  5.676087E+05  3.393758E+04  3.829928E+03
       139   7 -3.459836E+05 -1.495663E+06 -3.005874E+05  5.633906E+05  8.302220E+04 -6.727992E+04
       139   8 -5.282526E+05 -2.223208E+06 -4.716222E+05  4.500279E+05  9.883522E+04  3.105688E+04
       139   9 -7.299255E+05 -2.968099E+06 -7.117749E+05  5.654960E+05  3.426346E+04  1.294177E+05
       139  10  3.526108E+05  1.402503E+06  2.939019E+05  5.717953E+05 -6.996941E-10 -1.699855E-08
       139  11  5.299101E+05  2.132608E+06  4.631285E+05  4.563951E+05 -2.754500E-09 -9.234057E-09
       139  12  7.212647E+05  2.878783E+06  6.969850E+05  5.697266E+05  3.030582E-10  3.692804E-09
       139  13  3.375284E+03 -4.758085E+04 -3.297532E+03  5.675915E+05 -1.692229E-09  1.359998E-09
       139  14  9.788197E+02 -4.753197E+04 -4.118487E+03  4.532070E+05  5.604769E-10 -6.595009E-11
       139  15 -4.021529E+03 -4.857677E+04 -7.106738E+03  5.676086E+05  7.355497E-10  2.560641E-10
       139  16 -3.459922E+05 -1.495670E+06 -3.006089E+05  5.633951E+05 -4.212297E-10  1.705523E-08
       139  17 -5.282633E+05 -2.223211E+06 -4.716424E+05  4.500254E+05 -3.852238E-10  8.219093E-09
       139  18 -7.299312E+05 -2.968118E+06 -7.118087E+05  5.654924E+05 -2.559109E-10 -3.305977E-09
       139  19  3.526194E+05  1.402509E+06  2.939232E+05  5.717998E+05 -8.347364E+04 -6.614093E+04
       139  20  5.299208E+05  2.132612E+06  4.631482E+05  4.563929E+05 -9.860782E+04  2.811965E+04
       139  21  7.212699E+05  2.878800E+06  6.970152E+05  5.697233E+05 -3.361183E+04  1.223485E+05
       139  22  3.382726E+03 -4.757899E+04 -3.284508E+03  5.675915E+05 -8.324763E+04  6.459561E+02
       139  23  9.892854E+02 -4.752935E+04 -4.100169E+03  4.532071E+05 -9.872154E+04 -1.519786E+03
       139  24 -4.020289E+03 -4.857644E+04 -7.104547E+03  5.676087E+05 -3.393758E+04 -3.829928E+03
       139  25 -3.459836E+05 -1.495663E+06 -3.005874E+05  5.633906E+05 -8.302220E+04  6.727992E+04
       139  26 -5.282526E+05 -2.223208E+06 -4.716222E+05  4.500279E+05 -9.883522E+04 -3.105688E+04
       139  27 -7.299255E+05 -2.968099E+06 -7.117749E+05  5.654960E+05 -3.426346E+04 -1.294177E+05
       140   1  3.251790E+06  7.368480E+05  7.241534E+05  4.410862E+05  1.673063E+05 -3.468696E+04
       140   2  2.694914E+06  5.460473E+05  5.030963E+05  3.425692E+05  6.331868E+04 -1.048428E+05
       140   3  2.166527E+06  4.087222E+05  3.630659E+05  4.112632E+05 -4.047803E+04 -9.990841E+04
       140   4  4.590257E+05  4.565367E+04  5.448944E+04  4.167407E+05  3.739855E+04 -3.460855E+04
       140   5  4.530893E+05  3.021166E+03  2.558398E+04  3.331152E+05  2.398429E+04 -1.048630E+05
       140   6  4.597873E+05 -1.690885E+03  1.508175E+04  4.167204E+05  1.066703E+04 -9.990976E+04
       140   7 -2.326585E+06 -6.460948E+05 -6.156636E+05  3.925038E+05 -9.192977E+04 -3.451997E+04
       140   8 -1.784014E+06 -5.403304E+05 -4.522117E+05  3.236949E+05 -1.521075E+04 -1.048821E+05
       140   9 -1.244185E+06 -4.122843E+05 -3.330459E+05  4.221611E+05  6.167442E+04 -9.991019E+04
       140  10  3.251760E+06  7.368392E+05  7.240988E+05  4.410909E+05  2.816790E-09  5.047507E-10
       140  11  2.694907E+06  5.460344E+05  5.030681E+05  3.425746E+05 -1.160413E-08  6.726173E-10
       140  12  2.166523E+06  4.087111E+05  3.630441E+05  4.112600E+05 -1.536449E-08 -1.467688E-09
       140  13  4.590239E+05  4.565201E+04  5.448456E+04  4.167418E+05 -2.693015E-11  9.273968E-11
       140  14  4.530857E+05  3.009199E+03  2.556223E+04  3.331173E+05  5.404898E-10 -5.588327E-10
       140  15  4.597845E+05 -1.701637E+03  1.506278E+04  4.167212E+05  6.479648E-10 -1.430165E-09
       140  16 -2.326594E+06 -6.460983E+05 -6.156817E+05  3.925012E+05 -2.491146E-09  3.090900E-10
       140  17 -1.784017E+06 -5.403423E+05 -4.522328E+05  3.236936E+05  8.206545E-09 -6.781767E-10
       140  18 -1.244191E+06 -4.122961E+05 -3.330719E+05  4.221661E+05  1.712839E-08 -1.303707E-09
       140  19  3.251790E+06  7.368480E+05  7.241534E+05  4.410862E+05 -1.673063E+05  3.468696E+04
       140  20  2.694914E+06  5.460473E+05  5.030963E+05  3.425692E+05 -6.331868E+04  1.048428E+05
       140  21  2.166527E+06  4.087222E+05  3.630659E+05  4.112632E+05  4.047803E+04  9.990841E+04
       140  22  4.590257E+05  4.565367E+04  5.448944E+04  4.167407E+05 -3.739855E+04  3.460855E+04
       140  23  4.530893E+05  3.021166E+03  2.558398E+04  3.331152E+05 -2.398429E+04  1.048630E+05
       140  24  4.597873E+05 -1.690885E+03  1.508175E+04  4.167204E+05 -1.066703E+04  9.990976E+04
       140  25 -2.326585E+06 -6.460948E+05 -6.156636E+05  3.925038E+05  9.192977E+04  3.451997E+04
       140  26 -1.784014E+06 -5.403304E+05 -4.522117E+05  3.236949E+05  1.521075E+04  1.048821E+05
       140  27 -1.244185E+06 -4.122843E+05 -3.330459E+05  4.221611E+05 -6.167442E+04  9.991019E+04
       141   1  1.772697E+06  3.181546E+05  2.807148E+05  4.185225E+05 -2.484181E+04 -7.643061E+04
       141   2  1.230738E+06  1.861565E+05  1.642599E+05  3.325080E+05 -3.329516E+04 -4.669078E+04
       141   3  6.909191E+05  5.670835E+04  5.393657E+04  4.174366E+05 -4.176601E+04 -1.301721E+04
       141   4  4.574538E+05  1.713236E+03  1.203422E+04  4.175544E+05  8.548227E+03 -7.642232E+04
       141   5  4.570632E+05  2.188372E+02  7.487400E+03  3.320770E+05  4.817553E+03 -4.666659E+04
       141   6  4.577170E+05  4.737978E+02  5.808070E+03  4.175557E+05  1.062262E+03 -1.297390E+04
       141   7 -8.561466E+05 -3.148357E+05 -2.567336E+05  4.165876E+05  4.186895E+04 -7.641412E+04
       141   8 -3.160399E+05 -1.857552E+05 -1.493107E+05  3.316463E+05  4.288374E+04 -4.664243E+04
       141   9  2.245704E+05 -5.576320E+04 -4.231648E+04  4.176747E+05  4.387474E+04 -1.293055E+04
       141  10  1.772695E+06  3.181481E+05  2.807027E+05  4.185210E+05  1.771147E-08 -1.504751E-09
       141  11  1.230736E+06  1.861539E+05  1.642537E+05  3.325068E+05  7.890201E-09 -2.429503E-10
       141  12  6.909172E+05  5.670770E+04  5.393298E+04  4.174362E+05 -1.065455E-09  1.130927E-10
       141  13  4.574521E+05  1.706943E+03  1.202310E+04  4.175549E+05 -6.975155E-11 -1.500923E-09
       141  14  4.570626E+05  2.164917E+02  7.483263E+03  3.320772E+05  2.789562E-09  3.022095E-11
       141  15  4.577170E+05  4.736167E+02  5.807752E+03  4.175557E+05  1.192912E-09  3.699623E-10
       141  16 -8.561501E+05 -3.148424E+05 -2.567479E+05  4.165901E+05 -1.611965E-08 -1.294747E-09
       141  17 -3.160424E+05 -1.857581E+05 -1.493183E+05  3.316479E+05 -8.160181E-09 -7.671245E-10
       141  18  2.245683E+05 -5.576390E+04 -4.232041E+04  4.176752E+05  2.042521E-09 -2.201968E-10
       141  19  1.772697E+06  3.181546E+05  2.807148E+05  4.185225E+05  2.484181E+04  7.643061E+04
       141  20  1.230738E+06  1.861565E+05  1.642599E+05  3.325080E+05  3.329516E+04  4.669078E+04
       141  21  6.909191E+05  5.670835E+04  5.393657E+04  4.174366E+05  4.176601E+04  1.301721E+04
       141  22  4.574538E+05  1.713236E+03  1.203422E+04  4.175544E+05 -8.548227E+03  7.642232E+04
       141  23  4.570632E+05  2.188372E+02  7.487400E+03  3.320770E+05 -4.817553E+03  4.666659E+04
       141  24  4.577170E+05  4.737978E+02  5.808070E+03  4.175557E+05 -1.062262E+03  1.297390E+04
       141  25 -8.561466E+05 -3.148357E+05 -2.567336E+05  4.165876E+05 -4.186895E+04  7.641412E+04
       141  26 -3.160399E+05 -1.857552E+05 -1.493107E+05  3.316463E+05 -4.288374E+04  4.664243E+04
       141  27  2.245704E+05 -5.576320E+04 -4.231648E+04  4.176747E+05 -4.387474E+04  1.293055E+04
       142   1  3.024439E+05 -3.701930E+04 -2.683527E+04  4.176132E+05 -4.276827E+04  8.059575E+03
       142   2 -2.380975E+05 -1.670144E+05 -1.346142E+05  3.316622E+05 -4.141542E+04  4.180532E+04
       142   3 -7.782859E+05 -2.964035E+05 -2.431402E+05  4.166832E+05 -4.004153E+04  7.172606E+04
       142   4  4.576828E+05  5.076787E+02  5.624208E+03  4.175565E+05  2.097565E+01  8.103358E+03
       142   5  4.571334E+05  2.401292E+02  6.488010E+03  3.320762E+05 -3.234041E+03  4.183143E+04
       142   6  4.574463E+05  1.390714E+03  9.803379E+03  4.175555E+05 -6.466826E+03  7.173744E+04
       142   7  6.129485E+05  3.803410E+04  3.808923E+04  4.174997E+05  4.282074E+04  8.147126E+03
       142   8  1.152827E+06  1.674654E+05  1.475705E+05  3.324904E+05  3.498930E+04  4.185758E+04
       142   9  1.694632E+06  2.990898E+05  2.626702E+05  4.184289E+05  2.717357E+04  7.174889E+04
       142  10  3.024419E+05 -3.701986E+04 -2.683883E+04  4.176134E+05  9.436463E-11 -2.038281E-11
       142  11 -2.380998E+05 -1.670168E+05 -1.346207E+05  3.316636E+05  1.462352E-09  1.254980E-09
       142  12 -7.782890E+05 -2.964095E+05 -2.431529E+05  4.166855E+05  1.056349E-09  5.392006E-10
       142  13  4.576828E+05  5.076082E+02  5.624085E+03  4.175565E+05 -5.259625E-10 -3.708275E-11
       142  14  4.571329E+05  2.382468E+02  6.484701E+03  3.320763E+05 -6.856237E-10  1.141097E-10
       142  15  4.574449E+05  1.385175E+03  9.793627E+03  4.175559E+05  5.337418E-10  4.917543E-10
       142  16  6.129465E+05  3.803354E+04  3.808566E+04  4.174994E+05 -4.183808E-10 -8.925870E-11
       142  17  1.152826E+06  1.674632E+05  1.475649E+05  3.324892E+05 -2.170978E-09  5.185945E-10
       142  18  1.694630E+06  2.990841E+05  2.626591E+05  4.184274E+05 -1.858781E-09  4.202158E-10
       142  19  3.024439E+05 -3.701930E+04 -2.683527E+04  4.176132E+05  4.276827E+04 -8.059575E+03
       142  20 -2.380975E+05 -1.670144E+05 -1.346142E+05  3.316622E+05  4.141542E+04 -4.180532E+04
       142  21 -7.782859E+05 -2.964035E+05 -2.431402E+05  4.166832E+05  4.004153E+04 -7.172606E+04
       142  22  4.576828E+05  5.076787E+02  5.624208E+03  4.175565E+05 -2.097565E+01 -8.103358E+03
       142  23  4.571334E+05  2.401292E+02  6.488010E+03  3.320762E+05  3.234041E+03 -4.183143E+04
       142  24  4.574463E+05  1.390714E+03  9.803379E+03  4.175555E+05  6.466826E+03 -7.173744E+04
       142  25  6.129485E+05  3.803410E+04  3.808923E+04  4.174997E+05 -4.282074E+04 -8.147126E+03
       142  26  1.152827E+06  1.674654E+05  1.475705E+05  3.324904E+05 -3.498930E+04 -4.185758E+04
       142  27  1.694632E+06  2.990898E+05  2.626702E+05  4.184289E+05 -2.717357E+04 -7.174889E+04
       143   1 -1.166767E+06 -3.931599E+05 -3.202182E+05  4.209010E+05 -5.899257E+04  9.514947E+04
       143   2 -1.705520E+06 -5.222692E+05 -4.411969E+05  3.256714E+05  1.834116E+04  1.009281E+05
       143   3 -2.249088E+06 -6.366728E+05 -6.086718E+05  3.977674E+05  9.552050E+04  3.334856E+04
       143   4  4.592863E+05 -1.331372E+03  1.211956E+04  4.167346E+05 -8.196059E+03  9.515369E+04
       143   5  4.538317E+05  2.223470E+03  2.021049E+04  3.330989E+05 -1.870101E+04  1.009076E+05
       143   6  4.585529E+05  3.573253E+04  4.286126E+04  4.167479E+05 -2.929318E+04  3.342169E+04
       143   7  2.087860E+06  3.903329E+05  3.443273E+05  4.125561E+05  4.273127E+04  9.515719E+04
       143   8  2.617581E+06  5.264127E+05  4.813533E+05  3.405518E+05 -5.587032E+04  1.008864E+05
       143   9  3.172951E+06  7.076134E+05  6.939312E+05  4.358108E+05 -1.546504E+05  3.348716E+04
       143  10 -1.166773E+06 -3.931705E+05 -3.202418E+05  4.209055E+05  4.824927E-10  2.894430E-10
       143  11 -1.705523E+06 -5.222802E+05 -4.412167E+05  3.256699E+05 -5.201232E-10  3.413039E-10
       143  12 -2.249098E+06 -6.366765E+05 -6.086911E+05  3.977648E+05 -1.340623E-10  3.622719E-10
       143  13  4.592838E+05 -1.341116E+03  1.210241E+04  4.167353E+05 -3.847196E-10  4.141812E-10
       143  14  4.538285E+05  2.212438E+03  2.019069E+04  3.331004E+05  6.691478E-10 -3.400026E-10
       143  15  4.585517E+05  3.573110E+04  4.285755E+04  4.167487E+05 -5.509012E-10  2.420199E-10
       143  16  2.087856E+06  3.903227E+05  3.443068E+05  4.125529E+05  5.621702E-10  4.231835E-10
       143  17  2.617575E+06  5.264009E+05  4.813284E+05  3.405563E+05  3.944424E-10  2.466478E-10
       143  18  3.172925E+06  7.076058E+05  6.938843E+05  4.358149E+05 -4.137038E-10  4.350722E-10
       143  19 -1.166767E+06 -3.931599E+05 -3.202182E+05  4.209010E+05  5.899257E+04 -9.514947E+04
       143  20 -1.705520E+06 -5.222692E+05 -4.411969E+05  3.256714E+05 -1.834116E+04 -1.009281E+05
       143  21 -2.249088E+06 -6.366728E+05 -6.086718E+05  3.977674E+05 -9.552050E+04 -3.334856E+04
       143  22  4.592863E+05 -1.331372E+03  1.211956E+04  4.167346E+05  8.196059E+03 -9.515369E+04
       143  23  4.538317E+05  2.223470E+03  2.021049E+04  3.330989E+05  1.870101E+04 -1.009076E+05
       143  24  4.585529E+05  3.573253E+04  4.286126E+04  4.167479E+05  2.929318E+04 -3.342169E+04
       143  25  2.087860E+06  3.903329E+05  3.443273E+05  4.125561E+05 -4.273127E+04 -9.515719E+04
       143  26  2.617581E+06  5.264127E+05  4.813533E+05  3.405518E+05  5.587032E+04 -1.008864E+05
       143  27  3.172951E+06  7.076134E+05  6.939312E+05  4.358108E+05  1.546504E+05 -3.348716E+04
       144   1 -6.501064E+05 -2.489103E+06 -6.413915E+05  5.599807E+05 -2.791661E+04 -1.317302E+05
       144   2 -4.294074E+05 -1.772363E+06 -4.001620E+05  4.384699E+05 -7.810527E+04 -3.843907E+04
       144   3 -2.516219E+05 -1.078589E+06 -2.306738E+05  5.365801E+05 -5.962771E+04  5.482423E+04
       144   4 -3.614945E+04 -1.936104E+04 -4.458280E+04  5.438597E+05 -2.763291E+04 -3.034619E+04
       144   5 -1.682037E+03 -1.443045E+04 -2.113743E+04  4.340066E+05 -7.802953E+04 -1.913555E+04
       144   6  4.254652E+03 -1.858840E+04 -1.223061E+04  5.437508E+05 -5.984425E+04 -8.062395E+03
       144   7  5.773677E+05  2.455994E+06  5.518274E+05  5.276682E+05 -2.735521E+04  7.144119E+04
       144   8  4.258402E+05  1.746412E+06  3.577066E+05  4.295273E+05 -7.795420E+04  2.220452E+02
       144   9  2.600625E+05  1.042488E+06  2.061671E+05  5.509326E+05 -6.006201E+04 -7.105464E+04
       144  10 -6.501119E+05 -2.489122E+06 -6.414257E+05  5.599777E+05 -6.211305E-10 -2.118976E-09
       144  11 -4.294144E+05 -1.772366E+06 -4.001763E+05  4.384675E+05 -1.338965E-09 -1.470403E-10
       144  12 -2.516265E+05 -1.078593E+06 -2.306862E+05  5.365827E+05 -5.603934E-10  2.137902E-09
       144  13 -3.615052E+04 -1.936223E+04 -4.458596E+04  5.438590E+05 -1.342379E-09 -1.465905E-11
       144  14 -1.688672E+03 -1.443248E+04 -2.114955E+04  4.340054E+05  5.784579E-10 -1.218703E-09
       144  15  4.250790E+03 -1.858943E+04 -1.223746E+04  5.437504E+05 -8.218051E-10 -1.873374E-10
       144  16  5.773656E+05  2.455989E+06  5.518165E+05  5.276698E+05 -6.096313E-10  2.560118E-09
       144  17  4.258337E+05  1.746410E+06  3.576952E+05  4.295273E+05 -3.167046E-09 -1.025902E-09
       144  18  2.600572E+05  1.042481E+06  2.061508E+05  5.509292E+05  3.907078E-10 -3.665272E-09
       144  19 -6.501064E+05 -2.489103E+06 -6.413915E+05  5.599807E+05  2.791661E+04  1.317302E+05
       144  20 -4.294074E+05 -1.772363E+06 -4.001620E+05  4.384699E+05  7.810527E+04  3.843907E+04
       144  21 -2.516219E+05 -1.078589E+06 -2.306738E+05  5.365801E+05  5.962771E+04 -5.482423E+04
       144  22 -3.614945E+04 -1.936104E+04 -4.458280E+04  5.438597E+05  2.763291E+04  3.034619E+04
       144  23 -1.682037E+03 -1.443045E+04 -2.113743E+04  4.340066E+05  7.802953E+04  1.913555E+04
       144  24  4.254652E+03 -1.858840E+04 -1.223061E+04  5.437508E+05  5.984425E+04  8.062395E+03
       144  25  5.773677E+05  2.455994E+06  5.518274E+05  5.276682E+05  2.735521E+04 -7.144119E+04
       144  26  4.258402E+05  1.746412E+06  3.577066E+05  4.295273E+05  7.795420E+04 -2.220452E+02
       144  27  2.600625E+05  1.042488E+06  2.061671E+05  5.509326E+05  6.006201E+04  7.105464E+04
       145   1 -1.312244E+05 -5.681652E+05 -1.242524E+05  5.437780E+05 -2.991808E+04  4.115714E+04
       145   2  3.967582E+04  1.379791E+05  2.471399E+04  4.334542E+05  9.612560E+03  4.371536E+04
       145   3  2.101040E+05  8.427028E+05  1.714773E+05  5.461165E+05  4.871266E+04  4.628394E+04
       145   4  1.956757E+03 -1.683951E+04 -9.866898E+03  5.445264E+05 -3.009228E+04 -6.512237E+03
       145   5  2.688957E+03 -1.588317E+04 -6.364218E+03  4.330301E+05  9.444449E+03 -3.459734E+03
       145   6  2.890996E+03 -1.690766E+04 -5.396467E+03  5.445227E+05  4.854905E+04 -3.997327E+02
       145   7  1.351198E+05  5.347792E+05  1.045106E+05  5.452750E+05 -3.026650E+04 -5.422326E+04
       145   8 -3.429818E+04 -1.697181E+05 -3.743528E+04  4.326061E+05  9.276376E+03 -5.062336E+04
       145   9 -2.043674E+05 -8.758128E+05 -1.823017E+05  5.429302E+05  4.838555E+04 -4.701997E+04
       145  10 -1.312258E+05 -5.681673E+05 -1.242573E+05  5.437790E+05 -1.990989E-10 -6.872852E-10
       145  11  3.967521E+04  1.379770E+05  2.471023E+04  4.334538E+05 -1.826485E-09  7.044700E-11
       145  12  2.101009E+05  8.426999E+05  1.714689E+05  5.461147E+05 -1.945828E-10  1.805797E-10
       145  13  1.955773E+03 -1.683980E+04 -9.868679E+03  5.445262E+05 -1.162113E-09 -1.756352E-11
       145  14  2.688858E+03 -1.588320E+04 -6.364408E+03  4.330301E+05  1.717523E-09 -1.494041E-09
       145  15  2.888465E+03 -1.690829E+04 -5.400896E+03  5.445227E+05  1.138529E-10 -1.777670E-10
       145  16  1.351180E+05  5.347758E+05  1.045033E+05  5.452737E+05  3.598640E-10  1.480795E-09
       145  17 -3.429896E+04 -1.697208E+05 -3.744026E+04  4.326065E+05  1.173520E-09 -5.245423E-10
       145  18 -2.043706E+05 -8.758158E+05 -1.823103E+05  5.429320E+05  7.895865E-10 -1.683855E-09
       145  19 -1.312244E+05 -5.681652E+05 -1.242524E+05  5.437780E+05  2.991808E+04 -4.115714E+04
       145  20  3.967582E+04  1.379791E+05  2.471399E+04  4.334542E+05 -9.612560E+03 -4.371536E+04
       145  21  2.101040E+05  8.427028E+05  1.714773E+05  5.461165E+05 -4.871266E+04 -4.628394E+04
       145  22  1.956757E+03 -1.683951E+04 -9.866898E+03  5.445264E+05  3.009228E+04  6.512237E+03
       145  23  2.688957E+03 -1.588317E+04 -6.364218E+03  4.330301E+05 -9.444449E+03  3.459734E+03
       145  24  2.890996E+03 -1.690766E+04 -5.396467E+03  5.445227E+05 -4.854905E+04  3.997327E+02
       145  25  1.351198E+05  5.347792E+05  1.045106E+05  5.452750E+05  3.026650E+04  5.422326E+04
       145  26 -3.429818E+04 -1.697181E+05 -3.743528E+04  4.326061E+05 -9.276376E+03  5.062336E+04
       145  27 -2.043674E+05 -8.758128E+05 -1.823017E+05  5.429302E+05 -4.838555E+04  4.701997E+04
       146   1  3.331026E+05  1.352231E+06  2.753366E+05  5.481741E+05  7.876667E+04  6.423487E+04
       146   2  5.022802E+05  2.052186E+06  4.361519E+05  4.356648E+05  9.347597E+04 -2.368815E+04
       146   3  6.800906E+05  2.766011E+06  6.561480E+05  5.422461E+05  3.192563E+04 -1.115797E+05
       146   4  3.259820E+03 -1.725075E+04 -5.405503E+03  5.436621E+05  7.855958E+04  3.327063E+02
       146   5  3.734802E+02 -1.646898E+04 -7.297594E+03  4.341090E+05  9.357819E+04  4.163515E+03
       146   6 -9.748105E+03 -1.815720E+04 -1.361028E+04  5.436932E+05  3.222131E+04  8.126131E+03
       146   7 -3.266985E+05 -1.384945E+06 -2.862322E+05  5.391581E+05  7.835312E+04 -6.343126E+04
       146   8 -5.018127E+05 -2.081106E+06 -4.509936E+05  4.325545E+05  9.368050E+04  3.192391E+04
       146   9 -7.001432E+05 -2.795221E+06 -6.838670E+05  5.451266E+05  3.251839E+04  1.272989E+05
       146  10  3.330948E+05  1.352225E+06  2.753172E+05  5.481700E+05 -1.550671E-09  3.313875E-10
       146  11  5.022706E+05  2.052183E+06  4.361344E+05  4.356665E+05 -9.024195E-10 -1.791815E-10
       146  12  6.800862E+05  2.765997E+06  6.561228E+05  5.422490E+05  2.313685E-10 -4.923531E-10
       146  13  3.253193E+03 -1.725241E+04 -5.417101E+03  5.436621E+05 -9.538387E-10 -2.564007E-11
       146  14  3.640726E+02 -1.647135E+04 -7.314081E+03  4.341087E+05  3.475668E-10 -1.233031E-09
       146  15 -9.749237E+03 -1.815755E+04 -1.361235E+04  5.436929E+05 -6.138807E-10 -1.261943E-10
       146  16 -3.267062E+05 -1.384951E+06 -2.862513E+05  5.391621E+05  4.635784E-10  1.326820E-10
       146  17 -5.018224E+05 -2.081109E+06 -4.510120E+05  4.325521E+05  2.115733E-10 -2.667745E-10
       146  18 -7.001487E+05 -2.795239E+06 -6.838996E+05  5.451233E+05  1.104529E-09 -4.667148E-10
       146  19  3.331026E+05  1.352231E+06  2.753366E+05  5.481741E+05 -7.876667E+04 -6.423487E+04
       146  20  5.022802E+05  2.052186E+06  4.361519E+05  4.356648E+05 -9.347597E+04  2.368815E+04
       146  21  6.800906E+05  2.766011E+06  6.561480E+05  5.422461E+05 -3.192563E+04  1.115797E+05
       146  22  3.259820E+03 -1.725075E+04 -5.405503E+03  5.436621E+05 -7.855958E+04 -3.327063E+02
       146  23  3.734802E+02 -1.646898E+04 -7.297594E+03  4.341090E+05 -9.357819E+04 -4.163515E+03
       146  24 -9.748105E+03 -1.815720E+04 -1.361028E+04  5.436932E+05 -3.222131E+04 -8.126131E+03
       146  25 -3.266985E+05 -1.384945E+06 -2.862322E+05  5.391581E+05 -7.835312E+04  6.343126E+04
       146  26 -5.018127E+05 -2.081106E+06 -4.509936E+05  4.325545E+05 -9.368050E+04 -3.192391E+04
       146  27 -7.001432E+05 -2.795221E+06 -6.838670E+05  5.451266E+05 -3.251839E+04 -1.272989E+05
       147   1  3.158893E+06  6.987053E+05  6.878916E+05  4.189764E+05  1.626043E+05 -3.252843E+04
       147   2  2.634139E+06  5.128462E+05  4.757919E+05  3.238795E+05  6.295727E+04 -9.829891E+04
       147   3  2.137692E+06  3.827570E+05  3.424587E+05  3.861315E+05 -3.651832E+04 -9.358521E+04
       147   4  5.379714E+05  5.003305E+04  5.941053E+04  3.921259E+05  4.077221E+04 -3.246123E+04
       147   5  5.315912E+05  3.554496E+03  2.792547E+04  3.134335E+05  2.613400E+04 -9.831704E+04
       147   6  5.386477E+05 -1.752162E+03  1.642860E+04  3.921053E+05  1.158113E+04 -9.358614E+04
       147   7 -2.076650E+06 -5.991264E+05 -5.695012E+05  3.653879E+05 -8.054987E+04 -3.238352E+04
       147   8 -1.566803E+06 -5.060233E+05 -4.201903E+05  3.030226E+05 -1.056692E+04 -9.833401E+04
       147   9 -1.057968E+06 -3.864195E+05 -3.097274E+05  3.980625E+05  5.955926E+04 -9.358613E+04
       147  10  3.158865E+06  6.986971E+05  6.878401E+05  4.189807E+05  7.033155E-11 -2.729325E-10
       147  11  2.634132E+06  5.128347E+05  4.757663E+05  3.238845E+05  9.601799E-10 -2.188448E-10
       147  12  2.137689E+06  3.827472E+05  3.424398E+05  3.861287E+05  1.803372E-09 -9.507300E-10
       147  13  5.379693E+05  5.003147E+04  5.940543E+04  3.921270E+05 -4.207502E-12 -9.216266E-13
       147  14  5.315879E+05  3.543929E+03  2.790602E+04  3.134356E+05 -3.996199E-10  6.306424E-10
       147  15  5.386452E+05 -1.761606E+03  1.641188E+04  3.921062E+05  8.503873E-10 -4.767601E-10
       147  16 -2.076657E+06 -5.991293E+05 -5.695154E+05  3.653858E+05 -1.206860E-09  2.748095E-10
       147  17 -1.566806E+06 -5.060337E+05 -4.202087E+05  3.030218E+05  3.886089E-10  5.497191E-10
       147  18 -1.057974E+06 -3.864299E+05 -3.097506E+05  3.980670E+05 -7.368868E-10 -6.118799E-11
       147  19  3.158893E+06  6.987053E+05  6.878916E+05  4.189764E+05 -1.626043E+05  3.252843E+04
       147  20  2.634139E+06  5.128462E+05  4.757919E+05  3.238795E+05 -6.295727E+04  9.829891E+04
       147  21  2.137692E+06  3.827570E+05  3.424587E+05  3.861315E+05  3.651832E+04  9.358521E+04
       147  22  5.379714E+05  5.003305E+04  5.941053E+04  3.921259E+05 -4.077221E+04  3.246123E+04
       147  23  5.315912E+05  3.554496E+03  2.792547E+04  3.134335E+05 -2.613400E+04  9.831704E+04
       147  24  5.386477E+05 -1.752162E+03  1.642860E+04  3.921053E+05 -1.158113E+04  9.358614E+04
       147  25 -2.076650E+06 -5.991264E+05 -5.695012E+05  3.653879E+05  8.054987E+04  3.238352E+04
       147  26 -1.566803E+06 -5.060233E+05 -4.201903E+05  3.030226E+05  1.056692E+04  9.833401E+04
       147  27 -1.057968E+06 -3.864195E+05 -3.097274E+05  3.980625E+05 -5.955926E+04  9.358613E+04
       148   1  1.766853E+06  2.979973E+05  2.645363E+05  3.938712E+05 -2.215505E+04 -7.150224E+04
       148   2  1.256904E+06  1.735260E+05  1.543164E+05  3.128817E+05 -3.065967E+04 -4.350990E+04
       148   3  7.490858E+05  5.170538E+04  5.028727E+04  3.927121E+05 -3.917900E+04 -1.182694E+04
       148   4  5.361210E+05  1.897931E+03  1.311927E+04  3.928820E+05  9.279873E+03 -7.149471E+04
       148   5  5.356818E+05  2.022564E+02  8.172242E+03  3.124671E+05  5.207174E+03 -4.348840E+04
       148   6  5.363522E+05  4.034969E+02  6.350983E+03  3.928834E+05  1.112954E+03 -1.178864E+04
       148   7 -6.931726E+05 -2.942956E+05 -2.383741E+05  3.918942E+05  4.065375E+04 -7.148726E+04
       148   8 -1.850438E+05 -1.731531E+05 -1.379941E+05  3.120528E+05  4.103320E+04 -4.346693E+04
       148   9  3.236650E+05 -5.090037E+04 -3.758166E+04  3.930546E+05  4.139135E+04 -1.175032E+04
       148  10  1.766851E+06  2.979917E+05  2.645257E+05  3.938699E+05 -1.047721E-09 -6.436032E-10
       148  11  1.256903E+06  1.735237E+05  1.543111E+05  3.128806E+05  2.524242E-10  6.445364E-10
       148  12  7.490841E+05  5.170481E+04  5.028413E+04  3.927118E+05 -2.415242E-11  5.586519E-10
       148  13  5.361195E+05  1.892417E+03  1.310950E+04  3.928826E+05  1.106547E-09 -3.708059E-10
       148  14  5.356812E+05  2.002176E+02  8.168635E+03  3.124673E+05  1.629287E-09  2.346479E-10
       148  15  5.363522E+05  4.033473E+02  6.350719E+03  3.928834E+05  6.751868E-11  1.021944E-10
       148  16 -6.931757E+05 -2.943016E+05 -2.383868E+05  3.918966E+05 -7.762876E-10 -9.422405E-11
       148  17 -1.850462E+05 -1.731556E+05 -1.380008E+05  3.120542E+05 -1.815800E-10 -3.046007E-10
       148  18  3.236631E+05 -5.090098E+04 -3.758514E+04  3.930550E+05  1.157459E-10  4.067285E-10
       148  19  1.766853E+06  2.979973E+05  2.645363E+05  3.938712E+05  2.215505E+04  7.150224E+04
       148  20  1.256904E+06  1.735260E+05  1.543164E+05  3.128817E+05  3.065967E+04  4.350990E+04
       148  21  7.490858E+05  5.170538E+04  5.028727E+04  3.927121E+05  3.917900E+04  1.182694E+04
       148  22  5.361210E+05  1.897931E+03  1.311927E+04  3.928820E+05 -9.279873E+03  7.149471E+04
       148  23  5.356818E+05  2.022564E+02  8.172242E+03  3.124671E+05 -5.207174E+03  4.348840E+04
       148  24  5.363522E+05  4.034969E+02  6.350983E+03  3.928834E+05 -1.112954E+03  1.178864E+04
       148  25 -6.931726E+05 -2.942956E+05 -2.383741E+05  3.918942E+05 -4.065375E+04  7.148726E+04
       148  26 -1.850438E+05 -1.731531E+05 -1.379941E+05  3.120528E+05 -4.103320E+04  4.346693E+04
       148  27  3.236650E+05 -5.090037E+04 -3.758166E+04  3.930546E+05 -4.139135E+04  1.175032E+04
       149   1  3.836004E+05 -3.646713E+04 -2.571038E+04  3.929787E+05 -4.028078E+04  8.001318E+03
       149   2 -1.250339E+05 -1.587344E+05 -1.269248E+05  3.120662E+05 -3.952280E+04  3.974420E+04
       149   3 -6.332449E+05 -2.802091E+05 -2.284524E+05  3.919960E+05 -3.874559E+04  6.787930E+04
       149   4  5.363180E+05  4.361867E+02  6.165415E+03  3.928834E+05 -2.051415E+01  8.039959E+03
       149   5  5.357446E+05  2.123937E+02  7.160269E+03  3.124672E+05 -3.608091E+03  3.976709E+04
       149   6  5.361062E+05  1.549818E+03  1.086184E+04  3.928824E+05 -7.175900E+03  6.788905E+04
       149   7  6.890611E+05  3.733889E+04  3.804601E+04  3.927881E+05  4.024948E+04  8.078581E+03
       149   8  1.196941E+06  1.591327E+05  1.412274E+05  3.128686E+05  3.234413E+04  3.979000E+04
       149   9  1.706759E+06  2.832235E+05  2.501073E+05  3.937699E+05  2.445223E+04  6.789888E+04
       149  10  3.835987E+05 -3.646764E+04 -2.571355E+04  3.929789E+05  9.278992E-11  1.092353E-09
       149  11 -1.250360E+05 -1.587365E+05 -1.269307E+05  3.120674E+05 -1.112352E-09  2.549463E-10
       149  12 -6.332477E+05 -2.802145E+05 -2.284639E+05  3.919981E+05 -7.016284E-10 -1.061137E-10
       149  13  5.363180E+05  4.361173E+02  6.165293E+03  3.928834E+05 -5.638546E-10  2.984523E-10
       149  14  5.357441E+05  2.106915E+02  7.157272E+03  3.124673E+05  6.512780E-10 -5.090920E-12
       149  15  5.361049E+05  1.544854E+03  1.085308E+04  3.928828E+05 -8.169899E-10 -1.919378E-10
       149  16  6.890593E+05  3.733838E+04  3.804285E+04  3.927878E+05 -1.043753E-09 -1.046194E-10
       149  17  1.196940E+06  1.591307E+05  1.412225E+05  3.128675E+05  2.395599E-09 -6.516031E-10
       149  18  1.706757E+06  2.832184E+05  2.500976E+05  3.937686E+05 -5.204583E-10 -9.365105E-10
       149  19  3.836004E+05 -3.646713E+04 -2.571038E+04  3.929787E+05  4.028078E+04 -8.001318E+03
       149  20 -1.250339E+05 -1.587344E+05 -1.269248E+05  3.120662E+05  3.952280E+04 -3.974420E+04
       149  21 -6.332449E+05 -2.802091E+05 -2.284524E+05  3.919960E+05  3.874559E+04 -6.787930E+04
       149  22  5.363180E+05  4.361867E+02  6.165415E+03  3.928834E+05  2.051415E+01 -8.039959E+03
       149  23  5.357446E+05  2.123937E+02  7.160269E+03  3.124672E+05  3.608091E+03 -3.976709E+04
       149  24  5.361062E+05  1.549818E+03  1.086184E+04  3.928824E+05  7.175900E+03 -6.788905E+04
       149  25  6.890611E+05  3.733889E+04  3.804601E+04  3.927881E+05 -4.024948E+04 -8.078581E+03
       149  26  1.196941E+06  1.591327E+05  1.412274E+05  3.128686E+05 -3.234413E+04 -3.979000E+04
       149  27  1.706759E+06  2.832235E+05  2.501073E+05  3.937699E+05 -2.445223E+04 -6.789888E+04
       150   1 -9.984892E+05 -3.716376E+05 -3.005693E+05  3.968079E+05 -5.689965E+04  8.992231E+04
       150   2 -1.506208E+06 -4.923454E+05 -4.130133E+05  3.050621E+05  1.425416E+04  9.529028E+04
       150   3 -2.017087E+06 -5.943000E+05 -5.669271E+05  3.707789E+05  8.527092E+04  3.147995E+04
       150   4  5.381349E+05 -1.414668E+03  1.343210E+04  3.921208E+05 -9.082610E+03  8.992565E+04
       150   5  5.323168E+05  2.714730E+03  2.248610E+04  3.134156E+05 -2.078755E+04  9.527238E+04
       150   6  5.374800E+05  3.996838E+04  4.764758E+04  3.921350E+05 -3.257048E+04  3.154642E+04
       150   7  2.077009E+06  3.686617E+05  3.273174E+05  3.874210E+05  3.885077E+04  8.992824E+04
       150   8  2.574761E+06  4.975046E+05  4.577499E+05  3.217963E+05 -5.594276E+04  9.525360E+04
       150   9  3.098060E+06  6.737706E+05  6.618103E+05  4.135787E+05 -1.508959E+05  3.160474E+04
       150  10 -9.984948E+05 -3.716471E+05 -3.005906E+05  3.968120E+05  3.900554E-10  2.029869E-10
       150  11 -1.506211E+06 -4.923552E+05 -4.130308E+05  3.050611E+05  7.017649E-11  4.503167E-10
       150  12 -2.017095E+06 -5.943030E+05 -5.669427E+05  3.707767E+05  4.101950E-10  5.382617E-10
       150  13  5.381326E+05 -1.423377E+03  1.341675E+04  3.921215E+05  3.565891E-10 -3.605626E-10
       150  14  5.323139E+05  2.704864E+03  2.246823E+04  3.134172E+05  5.302962E-10 -4.052550E-10
       150  15  5.374786E+05  3.996703E+04  4.764372E+04  3.921358E+05 -8.906997E-11 -5.524846E-10
       150  16  2.077006E+06  3.686526E+05  3.272993E+05  3.874182E+05  7.419563E-10 -5.676671E-10
       150  17  2.574755E+06  4.974941E+05  4.577270E+05  3.218006E+05 -4.585495E-10 -4.175285E-10
       150  18  3.098035E+06  6.737635E+05  6.617658E+05  4.135825E+05  2.476935E-10 -9.041157E-10
       150  19 -9.984892E+05 -3.716376E+05 -3.005693E+05  3.968079E+05  5.689965E+04 -8.992231E+04
       150  20 -1.506208E+06 -4.923454E+05 -4.130133E+05  3.050621E+05 -1.425416E+04 -9.529028E+04
       150  21 -2.017087E+06 -5.943000E+05 -5.669271E+05  3.707789E+05 -8.527092E+04 -3.147995E+04
       150  22  5.381349E+05 -1.414668E+03  1.343210E+04  3.921208E+05  9.082610E+03 -8.992565E+04
       150  23  5.323168E+05  2.714730E+03  2.248610E+04  3.134156E+05  2.078755E+04 -9.527238E+04
       150  24  5.374800E+05  3.996838E+04  4.764758E+04  3.921350E+05  3.257048E+04 -3.154642E+04
       150  25  2.077009E+06  3.686617E+05  3.273174E+05  3.874210E+05 -3.885077E+04 -8.992824E+04
       150  26  2.574761E+06  4.975046E+05  4.577499E+05  3.217963E+05  5.594276E+04 -9.525360E+04
       150  27  3.098060E+06  6.737706E+05  6.618103E+05  4.135787E+05  1.508959E+05 -3.160474E+04
       151   1 -6.303198E+05 -2.361969E+06 -6.229467E+05  5.341655E+05 -2.686701E+04 -1.324418E+05
       151   2 -4.143377E+05 -1.683012E+06 -3.892423E+05  4.165978E+05 -7.543098E+04 -4.100784E+04
       151   3 -2.453224E+05 -1.027765E+06 -2.270549E+05  5.067096E+05 -5.827589E+04  5.040445E+04
       151   4 -4.206395E+04  4.739413E+03 -5.118305E+04  5.144620E+05 -2.660860E+04 -3.478160E+04
       151   5 -2.404822E+03  1.028852E+04 -2.433207E+04  4.105726E+05 -7.536015E+04 -2.191291E+04
       151   6  4.057567E+03  5.442730E+03 -1.424813E+04  5.143441E+05 -5.846956E+04 -9.167865E+03
       151   7  5.457889E+05  2.376603E+06  5.202154E+05  4.946777E+05 -2.635703E+04  6.325092E+04
       151   8  4.093398E+05  1.706289E+06  3.404109E+05  4.045281E+05 -7.528981E+04 -2.766461E+03
       151   9  2.533722E+05  1.039672E+06  1.985146E+05  5.219904E+05 -5.866449E+04 -6.883768E+04
       151  10 -6.303253E+05 -2.361988E+06 -6.229811E+05  5.341627E+05 -5.658985E-10 -1.647476E-09
       151  11 -4.143443E+05 -1.683016E+06 -3.892561E+05  4.165953E+05  2.264273E-10  5.681729E-11
       151  12 -2.453267E+05 -1.027769E+06 -2.270661E+05  5.067119E+05 -3.765298E-10  2.094031E-09
       151  13 -4.206503E+04  4.737925E+03 -5.118665E+04  5.144612E+05 -2.079726E-09 -1.855477E-09
       151  14 -2.411048E+03  1.028648E+04 -2.434364E+04  4.105713E+05  1.789566E-09  2.290024E-09
       151  15  4.053874E+03  5.441723E+03 -1.425471E+04  5.143437E+05 -6.085572E-10 -1.645874E-09
       151  16  5.457871E+05  2.376599E+06  5.202066E+05  4.946790E+05 -2.989658E-10  1.687255E-09
       151  17  4.093337E+05  1.706287E+06  3.404002E+05  4.045279E+05 -1.691274E-09  3.935667E-10
       151  18  2.533672E+05  1.039666E+06  1.984993E+05  5.219872E+05 -5.487279E-10 -2.592979E-09
       151  19 -6.303198E+05 -2.361969E+06 -6.229467E+05  5.341655E+05  2.686701E+04  1.324418E+05
       151  20 -4.143377E+05 -1.683012E+06 -3.892423E+05  4.165978E+05  7.543098E+04  4.100784E+04
       151  21 -2.453224E+05 -1.027765E+06 -2.270549E+05  5.067096E+05  5.827589E+04 -5.040445E+04
       151  22 -4.206395E+04  4.739413E+03 -5.118305E+04  5.144620E+05  2.660860E+04  3.478160E+04
       151  23 -2.404822E+03  1.028852E+04 -2.433207E+04  4.105726E+05  7.536015E+04  2.191291E+04
       151  24  4.057567E+03  5.442730E+03 -1.424813E+04  5.143441E+05  5.846956E+04  9.167865E+03
       151  25  5.457889E+05  2.376603E+06  5.202154E+05  4.946777E+05  2.635703E+04 -6.325092E+04
       151  26  4.093398E+05  1.706289E+06  3.404109E+05  4.045281E+05  7.528981E+04  2.766461E+03
       151  27  2.533722E+05  1.039672E+06  1.985146E+05  5.219904E+05  5.866449E+04  6.883768E+04
       152   1 -1.319504E+05 -5.446184E+05 -1.259949E+05  5.145156E+05 -3.014762E+04  3.767291E+04
       152   2  3.002049E+04  1.233550E+05  1.546573E+04  4.099537E+05  7.200977E+03  4.106077E+04
       152   3  1.910139E+05  7.897658E+05  1.540987E+05  5.162924E+05  4.422800E+04  4.445750E+04
       152   4  1.380173E+03  7.454731E+03 -1.158937E+04  5.150883E+05 -3.030321E+04 -7.311344E+03
       152   5  2.400020E+03  8.455850E+03 -7.742811E+03  4.096352E+05  7.049846E+03 -3.557041E+03
       152   6  2.403668E+03  7.406563E+03 -6.967669E+03  5.150846E+05  4.407992E+04  2.025687E+02
       152   7  1.346925E+05  5.598212E+05  1.028072E+05  5.156611E+05 -3.045879E+04 -5.233494E+04
       152   8 -2.522019E+04 -1.064265E+05 -3.094456E+04  4.093166E+05  6.898745E+03 -4.816675E+04
       152   9 -1.862441E+05 -7.743682E+05 -1.680596E+05  5.138776E+05  4.393191E+04 -4.399763E+04
       152  10 -1.319517E+05 -5.446202E+05 -1.259993E+05  5.145165E+05 -2.401176E-10 -1.383216E-09
       152  11  3.001998E+04  1.233532E+05  1.546247E+04  4.099535E+05 -1.632141E-09  1.846838E-09
       152  12  1.910113E+05  7.897632E+05  1.540914E+05  5.162908E+05 -2.499777E-10  3.947937E-09
       152  13  1.379173E+03  7.454427E+03 -1.159119E+04  5.150881E+05 -3.803017E-10 -2.951669E-09
       152  14  2.399963E+03  8.455823E+03 -7.742929E+03  4.096352E+05  2.546076E-09  2.883412E-09
       152  15  2.401582E+03  7.406041E+03 -6.971320E+03  5.150846E+05  4.037824E-10 -1.582108E-09
       152  16  1.346907E+05  5.598180E+05  1.028003E+05  5.156598E+05  5.805230E-10  1.446315E-09
       152  17 -2.522087E+04 -1.064290E+05 -3.094901E+04  4.093169E+05  7.002922E-10 -3.583722E-10
       152  18 -1.862467E+05 -7.743708E+05 -1.680669E+05  5.138791E+05 -1.404227E-10 -4.385124E-09
       152  19 -1.319504E+05 -5.446184E+05 -1.259949E+05  5.145156E+05  3.014762E+04 -3.767291E+04
       152  20  3.002049E+04  1.233550E+05  1.546573E+04  4.099537E+05 -7.200977E+03 -4.106077E+04
       152  21  1.910139E+05  7.897658E+05  1.540987E+05  5.162924E+05 -4.422800E+04 -4.445750E+04
       152  22  1.380173E+03  7.454731E+03 -1.158937E+04  5.150883E+05  3.030321E+04  7.311344E+03
       152  23  2.400020E+03  8.455850E+03 -7.742811E+03  4.096352E+05 -7.049846E+03  3.557041E+03
       152  24  2.403668E+03  7.406563E+03 -6.967669E+03  5.150846E+05 -4.407992E+04 -2.025687E+02
       152  25  1.346925E+05  5.598212E+05  1.028072E+05  5.156611E+05  3.045879E+04  5.233494E+04
       152  26 -2.522019E+04 -1.064265E+05 -3.094456E+04  4.093166E+05 -6.898745E+03  4.816675E+04
       152  27 -1.862441E+05 -7.743682E+05 -1.680596E+05  5.138776E+05 -4.393191E+04  4.399763E+04
       153   1  3.077081E+05  1.271371E+06  2.521209E+05  5.189715E+05  7.262588E+04  6.156084E+04
       153   2  4.671477E+05  1.934127E+06  4.029693E+05  4.107213E+05  8.687064E+04 -1.903214E+04
       153   3  6.302008E+05  2.608477E+06  6.069886E+05  5.097410E+05  2.975618E+04 -9.959207E+04
       153   4  3.111812E+03  6.840476E+03 -7.198707E+03  5.142800E+05  7.243859E+04  1.214309E+03
       153   5 -1.552594E+02  8.282297E+03 -1.002102E+04  4.106443E+05  8.696000E+04  6.461338E+03
       153   6 -1.466489E+04  6.042347E+03 -1.918480E+04  5.143216E+05  3.002078E+04  1.182812E+04
       153   7 -3.015829E+05 -1.256166E+06 -2.665898E+05  5.095963E+05  7.225198E+04 -5.901170E+04
       153   8 -4.677006E+05 -1.914080E+06 -4.232252E+05  4.105643E+05  8.704954E+04  3.187702E+04
       153   9 -6.600167E+05 -2.590185E+06 -6.457942E+05  5.188772E+05  3.028774E+04  1.227844E+05
       153  10  3.077014E+05  1.271365E+06  2.521039E+05  5.189679E+05 -8.470439E-10 -4.205654E-10
       153  11  4.671395E+05  1.934125E+06  4.029545E+05  4.107226E+05 -2.429058E-09  5.644600E-10
       153  12  6.301972E+05  2.608466E+06  6.069683E+05  5.097433E+05 -6.587005E-11  1.299584E-09
       153  13  3.106177E+03  6.839065E+03 -7.208570E+03  5.142799E+05 -8.000308E-10 -2.637990E-09
       153  14 -1.633904E+02  8.280222E+03 -1.003531E+04  4.106439E+05 -1.076522E-09  2.247188E-09
       153  15 -1.466590E+04  6.041955E+03 -1.918675E+04  5.143214E+05  2.027458E-10 -8.604032E-10
       153  16 -3.015895E+05 -1.256171E+06 -2.666062E+05  5.095998E+05 -7.388319E-10  2.950977E-10
       153  17 -4.677090E+05 -1.914083E+06 -4.232414E+05  4.105620E+05 -1.591673E-09  5.358937E-10
       153  18 -6.600218E+05 -2.590202E+06 -6.458243E+05  5.188742E+05  5.015194E-10 -1.644436E-09
       153  19  3.077081E+05  1.271371E+06  2.521209E+05  5.189715E+05 -7.262588E+04 -6.156084E+04
       153  20  4.671477E+05  1.934127E+06  4.029693E+05  4.107213E+05 -8.687064E+04  1.903214E+04
       153  21  6.302008E+05  2.608477E+06  6.069886E+05  5.097410E+05 -2.975618E+04  9.959207E+04
       153  22  3.111812E+03  6.840476E+03 -7.198707E+03  5.142800E+05 -7.243859E+04 -1.214309E+03
       153  23 -1.552594E+02  8.282297E+03 -1.002102E+04  4.106443E+05 -8.696000E+04 -6.461338E+03
       153  24 -1.466489E+04  6.042347E+03 -1.918480E+04  5.143216E+05 -3.002078E+04 -1.182812E+04
       153  25 -3.015829E+05 -1.256166E+06 -2.665898E+05  5.095963E+05 -7.225198E+04  5.901170E+04
       153  26 -4.677006E+05 -1.914080E+06 -4.232252E+05  4.105643E+05 -8.704954E+04 -3.187702E+04
       153  27 -6.600167E+05 -2.590185E+06 -6.457942E+05  5.188772E+05 -3.028774E+04 -1.227844E+05
       154   1  3.068144E+06  6.598380E+05  6.514818E+05  3.950305E+05  1.595609E+05 -3.022213E+04
       154   2  2.579508E+06  4.775064E+05  4.479262E+05  3.030933E+05  6.391581E+04 -9.133031E+04
       154   3  2.119579E+06  3.553585E+05  3.216258E+05  3.573127E+05 -3.157532E+04 -8.695554E+04
       154   4  6.331509E+05  5.718978E+04  6.758588E+04  3.641957E+05  4.636548E+04 -3.016273E+04
       154   5  6.259938E+05  4.323780E+03  3.181248E+04  2.911006E+05  2.969242E+04 -9.134530E+04
       154   6  6.337410E+05 -1.914753E+03  1.869144E+04  3.641723E+05  1.309513E+04 -8.695767E+04
       154   7 -1.796402E+06 -5.458778E+05 -5.166815E+05  3.334811E+05 -6.638975E+04 -3.009212E+04
       154   8 -1.323935E+06 -4.691056E+05 -3.845164E+05  2.791456E+05 -4.425321E+03 -9.135902E+04
       154   9 -8.499991E+05 -3.593245E+05 -2.843516E+05  3.710144E+05  5.766090E+04 -8.695881E+04
       154  10  3.068116E+06  6.598302E+05  6.514324E+05  3.950344E+05 -5.583071E-10  1.848882E-10
       154  11  2.579502E+06  4.774964E+05  4.479028E+05  3.030980E+05 -1.342824E-10  1.125991E-10
       154  12  2.119576E+06  3.553501E+05  3.216097E+05  3.573105E+05  4.019311E-10  4.817092E-10
       154  13  6.331484E+05  5.718822E+04  6.758013E+04  3.641968E+05 -2.439238E-10  1.124222E-09
       154  14  6.259906E+05  4.314579E+03  3.179514E+04  2.911028E+05  7.471634E-10  7.869900E-10
       154  15  6.337388E+05 -1.922922E+03  1.867690E+04  3.641732E+05  1.372023E-09  3.505144E-10
       154  16 -1.796407E+06 -5.458799E+05 -5.166915E+05  3.334795E+05 -6.612488E-10  1.282615E-11
       154  17 -1.323938E+06 -4.691146E+05 -3.845321E+05  2.791453E+05  9.097550E-10  7.767741E-10
       154  18 -8.500047E+05 -3.593335E+05 -2.843721E+05  3.710185E+05 -2.410441E-10  1.256925E-10
       154  19  3.068144E+06  6.598380E+05  6.514818E+05  3.950305E+05 -1.595609E+05  3.022213E+04
       154  20  2.579508E+06  4.775064E+05  4.479262E+05  3.030933E+05 -6.391581E+04  9.133031E+04
       154  21  2.119579E+06  3.553585E+05  3.216258E+05  3.573127E+05  3.157532E+04  8.695554E+04
       154  22  6.331509E+05  5.718978E+04  6.758588E+04  3.641957E+05 -4.636548E+04  3.016273E+04
       154  23  6.259938E+05  4.323780E+03  3.181248E+04  2.911006E+05 -2.969242E+04  9.134530E+04
       154  24  6.337410E+05 -1.914753E+03  1.869144E+04  3.641723E+05 -1.309513E+04  8.695767E+04
       154  25 -1.796402E+06 -5.458778E+05 -5.166815E+05  3.334811E+05  6.638975E+04  3.009212E+04
       154  26 -1.323935E+06 -4.691056E+05 -3.845164E+05  2.791456E+05  4.425321E+03  9.135902E+04
       154  27 -8.499991E+05 -3.593245E+05 -2.843516E+05  3.710144E+05 -5.766090E+04  8.695881E+04
       155   1  1.774671E+06  2.773316E+05  2.485901E+05  3.659143E+05 -1.870552E+04 -6.644674E+04
       155   2  1.300992E+06  1.613182E+05  1.452366E+05  2.906048E+05 -2.748650E+04 -4.045266E+04
       155   3  8.294726E+05  4.814259E+04  4.829934E+04  3.646534E+05 -3.627968E+04 -1.103103E+04
       155   4  6.308879E+05  2.166119E+03  1.494983E+04  3.648906E+05  1.048386E+04 -6.644109E+04
       155   5  6.303662E+05  1.663284E+02  9.356591E+03  2.902074E+05  5.821184E+03 -4.043507E+04
       155   6  6.310881E+05  3.068681E+02  7.336021E+03  3.648920E+05  1.139903E+03 -1.099906E+04
       155   7 -5.116533E+05 -2.730807E+05 -2.187563E+05  3.638684E+05  3.962056E+04 -6.643552E+04
       155   8 -3.982972E+04 -1.610129E+05 -1.265426E+05  2.898104E+05  3.909363E+04 -4.041750E+04
       155   9  4.327439E+05 -4.753059E+04 -3.362417E+04  3.651306E+05  3.854775E+04 -1.096706E+04
       155  10  1.774670E+06  2.773267E+05  2.485811E+05  3.659133E+05 -6.086858E-10  4.460568E-10
       155  11  1.300991E+06  1.613163E+05  1.452321E+05  2.906039E+05  3.392457E-10  5.929816E-10
       155  12  8.294712E+05  4.814211E+04  4.829665E+04  3.646531E+05  2.309370E-10 -1.374076E-10
       155  13  6.308866E+05  2.161348E+03  1.494133E+04  3.648912E+05  7.658853E-10  5.934979E-10
       155  14  6.303657E+05  1.645629E+02  9.353453E+03  2.902076E+05  3.494556E-10  1.076731E-09
       155  15  6.310881E+05  3.067378E+02  7.335791E+03  3.648921E+05  1.598501E-09 -6.808342E-11
       155  16 -5.116561E+05 -2.730859E+05 -2.187676E+05  3.638705E+05 -3.061980E-10 -7.412796E-11
       155  17 -3.983180E+04 -1.610151E+05 -1.265485E+05  2.898116E+05  5.445251E-10  9.766393E-10
       155  18  4.327423E+05 -4.753112E+04 -3.362719E+04  3.651309E+05  3.799796E-11  6.915090E-10
       155  19  1.774671E+06  2.773316E+05  2.485901E+05  3.659143E+05  1.870552E+04  6.644674E+04
       155  20  1.300992E+06  1.613182E+05  1.452366E+05  2.906048E+05  2.748650E+04  4.045266E+04
       155  21  8.294726E+05  4.814259E+04  4.829934E+04  3.646534E+05  3.627968E+04  1.103103E+04
       155  22  6.308879E+05  2.166119E+03  1.494983E+04  3.648906E+05 -1.048386E+04  6.644109E+04
       155  23  6.303662E+05  1.663284E+02  9.356591E+03  2.902074E+05 -5.821184E+03  4.043507E+04
       155  24  6.310881E+05  3.068681E+02  7.336021E+03  3.648920E+05 -1.139903E+03  1.099906E+04
       155  25 -5.116533E+05 -2.730807E+05 -2.187563E+05  3.638684E+05 -3.962056E+04  6.643552E+04
       155  26 -3.982972E+04 -1.610129E+05 -1.265426E+05  2.898104E+05 -3.909363E+04  4.041750E+04
       155  27  4.327439E+05 -4.753059E+04 -3.362417E+04  3.651306E+05 -3.854775E+04  1.096706E+04
       156   1  4.900734E+05 -3.372923E+04 -2.225916E+04  3.650605E+05 -3.755509E+04  7.381285E+03
       156   2  1.757000E+04 -1.472234E+05 -1.158909E+05  2.898222E+05 -3.775089E+04  3.685699E+04
       156   3 -4.543290E+05 -2.595872E+05 -2.091238E+05  3.639570E+05 -3.792956E+04  6.298464E+04
       156   4  6.310576E+05  3.360177E+02  7.170406E+03  3.648911E+05 -1.649294E+02  7.413567E+03
       156   5  6.304222E+05  1.752481E+02  8.453409E+03  2.902087E+05 -4.393996E+03  3.687581E+04
       156   6  6.308747E+05  1.855224E+03  1.293512E+04  3.648899E+05 -8.606090E+03  6.299225E+04
       156   7  7.720636E+05  3.440075E+04  3.660413E+04  3.647216E+05  3.723358E+04  7.445824E+03
       156   8  1.243634E+06  1.475512E+05  1.327824E+05  2.905955E+05  2.899520E+04  3.689466E+04
       156   9  1.717199E+06  2.632243E+05  2.349349E+05  3.658241E+05  2.076774E+04  6.299994E+04
       156  10  4.900719E+05 -3.372967E+04 -2.226192E+04  3.650607E+05  3.774723E-10  3.818765E-10
       156  11  1.756811E+04 -1.472253E+05 -1.158962E+05  2.898233E+05 -7.614746E-10 -5.062127E-11
       156  12 -4.543317E+05 -2.595919E+05 -2.091340E+05  3.639589E+05 -5.351614E-10 -1.477719E-10
       156  13  6.310576E+05  3.359586E+02  7.170303E+03  3.648911E+05  1.624301E-09  1.263094E-11
       156  14  6.304218E+05  1.737822E+02  8.450817E+03  2.902089E+05  1.202090E-09  1.254145E-10
       156  15  6.308736E+05  1.850941E+03  1.292752E+04  3.648904E+05 -2.060617E-09 -3.819221E-10
       156  16  7.720621E+05  3.440032E+04  3.660142E+04  3.647214E+05  1.046341E-09  2.317500E-10
       156  17  1.243633E+06  1.475495E+05  1.327782E+05  2.905946E+05  4.024724E-10 -1.715883E-10
       156  18  1.717198E+06  2.632199E+05  2.349266E+05  3.658230E+05  2.649771E-10 -4.208244E-10
       156  19  4.900734E+05 -3.372923E+04 -2.225916E+04  3.650605E+05  3.755509E+04 -7.381285E+03
       156  20  1.757000E+04 -1.472234E+05 -1.158909E+05  2.898222E+05  3.775089E+04 -3.685699E+04
       156  21 -4.543290E+05 -2.595872E+05 -2.091238E+05  3.639570E+05  3.792956E+04 -6.298464E+04
       156  22  6.310576E+05  3.360177E+02  7.170406E+03  3.648911E+05  1.649294E+02 -7.413567E+03
       156  23  6.304222E+05  1.752481E+02  8.453409E+03  2.902087E+05  4.393996E+03 -3.687581E+04
       156  24  6.308747E+05  1.855224E+03  1.293512E+04  3.648899E+05  8.606090E+03 -6.299225E+04
       156  25  7.720636E+05  3.440075E+04  3.660413E+04  3.647216E+05 -3.723358E+04 -7.445824E+03
       156  26  1.243634E+06  1.475512E+05  1.327824E+05  2.905955E+05 -2.899520E+04 -3.689466E+04
       156  27  1.717199E+06  2.632243E+05  2.349349E+05  3.658241E+05 -2.076774E+04 -6.299994E+04
       157   1 -7.930605E+05 -3.452070E+05 -2.753997E+05  3.699001E+05 -5.527644E+04  8.345438E+04
       157   2 -1.266002E+06 -4.559686E+05 -3.773023E+05  2.809573E+05  7.610543E+03  8.844733E+04
       157   3 -1.739355E+06 -5.406102E+05 -5.134596E+05  3.382986E+05  7.037955E+04  2.922707E+04
       157   4  6.332834E+05 -1.613940E+03  1.601706E+04  3.641924E+05 -1.086496E+04  8.345620E+04
       157   5  6.266411E+05  3.573619E+03  2.695769E+04  2.910767E+05 -2.492068E+04  8.843275E+04
       157   6  6.327129E+05  4.820737E+04  5.708799E+04  3.642095E+05 -3.904514E+04  2.928773E+04
       157   7  2.061566E+06  3.418530E+05  3.073338E+05  3.584706E+05  3.364679E+04  8.345718E+04
       157   8  2.522661E+06  4.628832E+05  4.310147E+05  3.012269E+05 -5.754968E+04  8.841717E+04
       157   9  3.009965E+06  6.366242E+05  6.272807E+05  3.902193E+05 -1.488870E+05  2.933922E+04
       157  10 -7.930657E+05 -3.452154E+05 -2.754185E+05  3.699038E+05 -2.231211E-10 -4.332641E-10
       157  11 -1.266004E+06 -4.559771E+05 -3.773171E+05  2.809568E+05 -1.066022E-09 -8.748584E-10
       157  12 -1.739361E+06 -5.406125E+05 -5.134706E+05  3.382969E+05 -1.933866E-09 -7.847815E-10
       157  13  6.332814E+05 -1.621454E+03  1.600374E+04  3.641931E+05  1.150774E-09 -6.677721E-10
       157  14  6.266383E+05  3.565051E+03  2.694181E+04  2.910785E+05  1.515849E-09 -5.981730E-10
       157  15  6.327110E+05  4.820604E+04  5.708351E+04  3.642104E+05 -1.515933E-09  1.498859E-10
       157  16  2.061563E+06  3.418452E+05  3.073185E+05  3.584683E+05 -1.479635E-09 -5.702393E-10
       157  17  2.522655E+06  4.628739E+05  4.309937E+05  3.012310E+05  1.212299E-09 -4.151594E-11
       157  18  3.009941E+06  6.366174E+05  6.272376E+05  3.902228E+05  1.090507E-09 -7.315113E-10
       157  19 -7.930605E+05 -3.452070E+05 -2.753997E+05  3.699001E+05  5.527644E+04 -8.345438E+04
       157  20 -1.266002E+06 -4.559686E+05 -3.773023E+05  2.809573E+05 -7.610543E+03 -8.844733E+04
       157  21 -1.739355E+06 -5.406102E+05 -5.134596E+05  3.382986E+05 -7.037955E+04 -2.922707E+04
       157  22  6.332834E+05 -1.613940E+03  1.601706E+04  3.641924E+05  1.086496E+04 -8.345620E+04
       157  23  6.266411E+05  3.573619E+03  2.695769E+04  2.910767E+05  2.492068E+04 -8.843275E+04
       157  24  6.327129E+05  4.820737E+04  5.708799E+04  3.642095E+05  3.904514E+04 -2.928773E+04
       157  25  2.061566E+06  3.418530E+05  3.073338E+05  3.584706E+05 -3.364679E+04 -8.345718E+04
       157  26  2.522661E+06  4.628832E+05  4.310147E+05  3.012269E+05  5.754968E+04 -8.841717E+04
       157  27  3.009965E+06  6.366242E+05  6.272807E+05  3.902193E+05  1.488870E+05 -2.933922E+04
       158   1 -5.917464E+05 -2.157503E+06 -5.860260E+05  4.905950E+05 -2.502002E+04 -1.298848E+05
       158   2 -3.870594E+05 -1.539260E+06 -3.669695E+05  3.807132E+05 -7.057517E+04 -4.302260E+04
       158   3 -2.324633E+05 -9.449152E+05 -2.171967E+05  4.595020E+05 -5.540292E+04  4.382038E+04
       158   4 -4.731982E+04  3.333781E+04 -5.694611E+04  4.675832E+05 -2.479404E+04 -3.882635E+04
       158   5 -3.099491E+03  3.941090E+04 -2.699495E+04  3.731930E+05 -7.051155E+04 -2.457746E+04
       158   6  3.756630E+03  3.393275E+04 -1.573318E+04  4.674604E+05 -5.556707E+04 -1.043617E+04
       158   7  4.967624E+05  2.228596E+06  4.718216E+05  4.444857E+05 -2.457533E+04  5.255339E+04
       158   8  3.806970E+05  1.620428E+06  3.128345E+05  3.656512E+05 -7.044848E+04 -6.085921E+03
       158   9  2.399179E+05  1.013697E+06  1.856900E+05  4.754306E+05 -5.573245E+04 -6.477685E+04
       158  10 -5.917516E+05 -2.157522E+06 -5.860590E+05  4.905924E+05 -5.124538E-10 -6.415576E-10
       158  11 -3.870652E+05 -1.539263E+06 -3.669823E+05  3.807108E+05  7.915319E-11  2.709133E-09
       158  12 -2.324671E+05 -9.449181E+05 -2.172060E+05  4.595040E+05  1.679700E-09 -3.721717E-10
       158  13 -4.732088E+04  3.333603E+04 -5.695009E+04  4.675825E+05 -3.386020E-10 -3.165938E-11
       158  14 -3.104990E+03  3.940892E+04 -2.700543E+04  3.731916E+05  4.610064E-10 -9.456143E-11
       158  15  3.753286E+03  3.393180E+04 -1.573919E+04  4.674600E+05 -1.068474E-09  5.559470E-10
       158  16  4.967610E+05  2.228593E+06  4.718153E+05  4.444867E+05 -5.221043E-10 -1.098635E-09
       158  17  3.806916E+05  1.620427E+06  3.128251E+05  3.656509E+05 -9.467079E-10  1.634878E-09
       158  18  2.399134E+05  1.013692E+06  1.856763E+05  4.754277E+05  1.029465E-09 -3.724858E-09
       158  19 -5.917464E+05 -2.157503E+06 -5.860260E+05  4.905950E+05  2.502002E+04  1.298848E+05
       158  20 -3.870594E+05 -1.539260E+06 -3.669695E+05  3.807132E+05  7.057517E+04  4.302260E+04
       158  21 -2.324633E+05 -9.449152E+05 -2.171967E+05  4.595020E+05  5.540292E+04 -4.382038E+04
       158  22 -4.731982E+04  3.333781E+04 -5.694611E+04  4.675832E+05  2.479404E+04  3.882635E+04
       158  23 -3.099491E+03  3.941090E+04 -2.699495E+04  3.731930E+05  7.051155E+04  2.457746E+04
       158  24  3.756630E+03  3.393275E+04 -1.573318E+04  4.674604E+05  5.556707E+04  1.043617E+04
       158  25  4.967624E+05  2.228596E+06  4.718216E+05  4.444857E+05  2.457533E+04 -5.255339E+04
       158  26  3.806970E+05  1.620428E+06  3.128345E+05  3.656512E+05  7.044848E+04  6.085921E+03
       158  27  2.399179E+05  1.013697E+06  1.856900E+05  4.754306E+05  5.573245E+04  6.477685E+04
       159   1 -1.300431E+05 -5.053929E+05 -1.247735E+05  4.677250E+05 -2.980613E+04  3.238180E+04
       159   2  1.754498E+04  1.016757E+05  4.795610E+03  3.725313E+05  4.079241E+03  3.619670E+04
       159   3  1.638535E+05  7.071538E+05  1.312372E+05  4.689850E+05  3.778381E+04  4.001797E+04
       159   4  7.177626E+02  3.619828E+04 -1.270685E+04  4.681501E+05 -2.993750E+04 -8.363724E+03
       159   5  2.039163E+03  3.717348E+04 -8.233946E+03  3.723237E+05  3.950390E+03 -4.347093E+03
       159   6  2.066940E+03  3.617363E+04 -7.018884E+03  4.681457E+05  3.765633E+04 -3.277288E+02
       159   7  1.314609E+05  5.780712E+05  9.935016E+04  4.685753E+05 -3.006884E+04 -4.914420E+04
       159   8 -1.346603E+04 -2.732123E+04 -2.125754E+04  3.721162E+05  3.821558E+03 -4.488676E+04
       159   9 -1.597472E+05 -6.343763E+05 -1.452931E+05  4.673068E+05  3.752888E+04 -4.063063E+04
       159  10 -1.300443E+05 -5.053942E+05 -1.247772E+05  4.677258E+05  1.359360E-09 -1.741462E-09
       159  11  1.754461E+04  1.016743E+05  4.793117E+03  3.725312E+05 -1.652498E-09  3.659587E-09
       159  12  1.638516E+05  7.071517E+05  1.312315E+05  4.689837E+05 -4.347500E-10 -3.182072E-10
       159  13  7.167817E+02  3.619797E+04 -1.270867E+04  4.681499E+05  9.810086E-10 -7.857326E-11
       159  14  2.039141E+03  3.717345E+04 -8.234010E+03  3.723238E+05  1.507198E-09  4.096338E-11
       159  15  2.065417E+03  3.617325E+04 -7.021549E+03  4.681457E+05 -4.050867E-11  6.686019E-10
       159  16  1.314593E+05  5.780683E+05  9.934393E+04  4.685741E+05  5.558422E-10 -1.172439E-09
       159  17 -1.346659E+04 -2.732339E+04 -2.126135E+04  3.721163E+05  1.350863E-09  2.665027E-09
       159  18 -1.597492E+05 -6.343784E+05 -1.452989E+05  4.673080E+05  1.121051E-10 -3.912083E-09
       159  19 -1.300431E+05 -5.053929E+05 -1.247735E+05  4.677250E+05  2.980613E+04 -3.238180E+04
       159  20  1.754498E+04  1.016757E+05  4.795610E+03  3.725313E+05 -4.079241E+03 -3.619670E+04
       159  21  1.638535E+05  7.071538E+05  1.312372E+05  4.689850E+05 -3.778381E+04 -4.001797E+04
       159  22  7.177626E+02  3.619828E+04 -1.270685E+04  4.681501E+05  2.993750E+04  8.363724E+03
       159  23  2.039163E+03  3.717348E+04 -8.233946E+03  3.723237E+05 -3.950390E+03  4.347093E+03
       159  24  2.066940E+03  3.617363E+04 -7.018884E+03  4.681457E+05 -3.765633E+04  3.277288E+02
       159  25  1.314609E+05  5.780712E+05  9.935016E+04  4.685753E+05  3.006884E+04  4.914420E+04
       159  26 -1.346603E+04 -2.732123E+04 -2.125754E+04  3.721162E+05 -3.821558E+03  4.488676E+04
       159  27 -1.597472E+05 -6.343763E+05 -1.452931E+05  4.673068E+05 -3.752888E+04  4.063063E+04
       160   1  2.699031E+05  1.144725E+06  2.204909E+05  4.714639E+05  6.355312E+04  5.541992E+04
       160   2  4.148697E+05  1.747114E+06  3.575388E+05  3.730353E+05  7.692263E+04 -1.646267E+04
       160   3  5.626865E+05  2.359650E+06  5.419126E+05  4.630212E+05  2.644873E+04 -8.830936E+04
       160   4  2.721231E+03  3.567604E+04 -7.067662E+03  4.674289E+05  6.339188E+04  7.059762E+02
       160   5 -1.375142E+02  3.709923E+04 -9.377559E+03  3.732223E+05  7.699566E+04  5.603012E+03
       160   6 -1.343747E+04  3.503213E+04 -1.759992E+04  4.674654E+05  2.667545E+04  1.060605E+04
       160   7 -2.645363E+05 -1.072200E+06 -2.346806E+05  4.634000E+05  6.323117E+04 -5.391211E+04
       160   8 -4.153359E+05 -1.670170E+06 -3.764628E+05  3.734064E+05  7.706883E+04  2.760889E+04
       160   9 -5.899495E+05 -2.284633E+06 -5.774610E+05  4.718884E+05  2.690412E+04  1.091535E+05
       160  10  2.698979E+05  1.144721E+06  2.204776E+05  4.714611E+05  1.308040E-09 -6.228934E-10
       160  11  4.148632E+05  1.747112E+06  3.575272E+05  3.730363E+05 -1.234470E-10  2.812471E-09
       160  12  5.626837E+05  2.359642E+06  5.418967E+05  4.630231E+05  1.660721E-10  1.011361E-11
       160  13  2.716916E+03  3.567496E+04 -7.075214E+03  4.674289E+05 -1.094874E-09 -6.692544E-12
       160  14 -1.438883E+02  3.709760E+04 -9.388757E+03  3.732220E+05 -4.415129E-10  2.283490E-11
       160  15 -1.343827E+04  3.503181E+04 -1.760147E+04  4.674651E+05 -2.426413E-10  4.066597E-10
       160  16 -2.645414E+05 -1.072205E+06 -2.346936E+05  4.634027E+05 -1.458768E-09 -1.774834E-09
       160  17 -4.153425E+05 -1.670172E+06 -3.764754E+05  3.734047E+05 -5.102923E-10  1.891625E-09
       160  18 -5.899535E+05 -2.284646E+06 -5.774848E+05  4.718860E+05  5.676372E-10 -2.719600E-09
       160  19  2.699031E+05  1.144725E+06  2.204909E+05  4.714639E+05 -6.355312E+04 -5.541992E+04
       160  20  4.148697E+05  1.747114E+06  3.575388E+05  3.730353E+05 -7.692263E+04  1.646267E+04
       160  21  5.626865E+05  2.359650E+06  5.419126E+05  4.630212E+05 -2.644873E+04  8.830936E+04
       160  22  2.721231E+03  3.567604E+04 -7.067662E+03  4.674289E+05 -6.339188E+04 -7.059762E+02
       160  23 -1.375142E+02  3.709923E+04 -9.377559E+03  3.732223E+05 -7.699566E+04 -5.603012E+03
       160  24 -1.343747E+04  3.503213E+04 -1.759992E+04  4.674654E+05 -2.667545E+04 -1.060605E+04
       160  25 -2.645363E+05 -1.072200E+06 -2.346806E+05  4.634000E+05 -6.323117E+04  5.391211E+04
       160  26 -4.153359E+05 -1.670170E+06 -3.764628E+05  3.734064E+05 -7.706883E+04 -2.760889E+04
       160  27 -5.899495E+05 -2.284633E+06 -5.774610E+05  4.718884E+05 -2.690412E+04 -1.091535E+05
       161   1  3.082551E+06  6.424315E+05  6.389412E+05  3.844493E+05  1.700165E+05 -2.819102E+04
       161   2  2.621892E+06  4.477879E+05  4.323890E+05  2.894577E+05  7.307618E+04 -8.514221E+04
       161   3  2.194158E+06  3.302502E+05  3.081389E+05  3.314099E+05 -2.372489E+04 -8.096681E+04
       161   4  8.095930E+05  7.996591E+04  9.394500E+04  3.410328E+05  6.442235E+04 -2.814236E+04
       161   5  7.998173E+05  6.492479E+03  4.429326E+04  2.725435E+05  4.121524E+04 -8.515555E+04
       161   6  8.101247E+05 -2.500439E+03  2.598775E+04  3.410008E+05  1.807474E+04 -8.096944E+04
       161   7 -1.458624E+06 -4.828610E+05 -4.513743E+05  2.977747E+05 -4.078863E+04 -2.807898E+04
       161   8 -1.019139E+06 -4.350169E+05 -3.439895E+05  2.556790E+05  9.445991E+03 -8.516721E+04
       161   9 -5.720889E+05 -3.353693E+05 -2.562576E+05  3.505695E+05  5.978312E+04 -8.097076E+04
       161  10  3.082520E+06  6.424230E+05  6.388857E+05  3.844532E+05 -1.740679E-09  5.971258E-10
       161  11  2.621885E+06  4.477786E+05  4.323654E+05  2.894628E+05  1.870424E-09 -2.869888E-10
       161  12  2.194156E+06  3.302430E+05  3.081255E+05  3.314084E+05  1.289402E-09  5.167629E-10
       161  13  8.095883E+05  7.996394E+04  9.393571E+04  3.410342E+05  1.366687E-09 -7.863148E-10
       161  14  7.998135E+05  6.484232E+03  4.427644E+04  2.725463E+05  9.823279E-10  1.825486E-10
       161  15  8.101226E+05 -2.507570E+03  2.597481E+04  3.410020E+05 -1.118180E-09  7.507557E-10
       161  16 -1.458626E+06 -4.828623E+05 -4.513789E+05  2.977738E+05 -4.437675E-10 -6.832907E-10
       161  17 -1.019141E+06 -4.350247E+05 -3.440033E+05  2.556797E+05 -2.000277E-09  4.575312E-10
       161  18 -5.720945E+05 -3.353773E+05 -2.562766E+05  3.505734E+05 -1.942201E-09  1.121371E-09
       161  19  3.082551E+06  6.424315E+05  6.389412E+05  3.844493E+05 -1.700165E+05  2.819102E+04
       161  20  2.621892E+06  4.477879E+05  4.323890E+05  2.894577E+05 -7.307618E+04  8.514221E+04
       161  21  2.194158E+06  3.302502E+05  3.081389E+05  3.314099E+05  2.372489E+04  8.096681E+04
       161  22  8.095930E+05  7.996591E+04  9.394500E+04  3.410328E+05 -6.442235E+04  2.814236E+04
       161  23  7.998173E+05  6.492479E+03  4.429326E+04  2.725435E+05 -4.121524E+04  8.515555E+04
       161  24  8.101247E+05 -2.500439E+03  2.598775E+04  3.410008E+05 -1.807474E+04  8.096944E+04
       161  25 -1.458624E+06 -4.828610E+05 -4.513743E+05  2.977747E+05  4.078863E+04  2.807898E+04
       161  26 -1.019139E+06 -4.350169E+05 -3.439895E+05  2.556790E+05 -9.445991E+03  8.516721E+04
       161  27 -5.720889E+05 -3.353693E+05 -2.562576E+05  3.505695E+05 -5.978312E+04  8.097076E+04
       162   1  1.869997E+06  2.589442E+05  2.381061E+05  3.429435E+05 -1.289241E+04 -6.177373E+04
       162   2  1.426268E+06  1.493160E+05  1.388883E+05  2.721884E+05 -2.327148E+04 -3.742753E+04
       162   3  9.850717E+05  4.329806E+04  4.731935E+04  3.412520E+05 -3.365937E+04 -9.884278E+03
       162   4  8.061930E+05  3.055338E+03  2.082556E+04  3.416503E+05  1.445468E+04 -6.176923E+04
       162   5  8.054381E+05  1.530223E+02  1.310984E+04  2.717378E+05  7.920588E+03 -3.741276E+04
       162   6  8.063680E+05  2.084830E+02  1.038873E+04  3.416522E+05  1.370531E+03 -9.857130E+03
       162   7 -2.565365E+05 -2.529038E+05 -1.965120E+05  3.403591E+05  4.175587E+04 -6.176483E+04
       162   8  1.849769E+05 -1.490334E+05 -1.126849E+05  2.712876E+05  3.908211E+04 -3.739802E+04
       162   9  6.276971E+05 -4.288245E+04 -2.653902E+04  3.420522E+05  3.639054E+04 -9.829932E+03
       162  10  1.869996E+06  2.589400E+05  2.380987E+05  3.429428E+05  2.061144E-09  3.303395E-10
       162  11  1.426267E+06  1.493144E+05  1.388846E+05  2.721877E+05 -4.293789E-10  6.734794E-10
       162  12  9.850705E+05  4.329765E+04  4.731704E+04  3.412517E+05 -7.965327E-10  1.979152E-10
       162  13  8.061918E+05  3.051183E+03  2.081800E+04  3.416511E+05  3.071053E-10  6.442757E-10
       162  14  8.054376E+05  1.515017E+02  1.310709E+04  2.717381E+05 -3.678037E-10  5.008260E-10
       162  15  8.063680E+05  2.083781E+02  1.038854E+04  3.416522E+05  6.458914E-10 -5.672562E-10
       162  16 -2.565394E+05 -2.529084E+05 -1.965225E+05  3.403611E+05 -2.346128E-09  4.981959E-10
       162  17  1.849748E+05 -1.490353E+05 -1.126905E+05  2.712888E+05  1.444329E-10 -2.446827E-10
       162  18  6.276956E+05 -4.288291E+04 -2.654168E+04  3.420525E+05  6.498984E-10 -2.816090E-10
       162  19  1.869997E+06  2.589442E+05  2.381061E+05  3.429435E+05  1.289241E+04  6.177373E+04
       162  20  1.426268E+06  1.493160E+05  1.388883E+05  2.721884E+05  2.327148E+04  3.742753E+04
       162  21  9.850717E+05  4.329806E+04  4.731935E+04  3.412520E+05  3.365937E+04  9.884278E+03
       162  22  8.061930E+05  3.055338E+03  2.082556E+04  3.416503E+05 -1.445468E+04  6.176923E+04
       162  23  8.054381E+05  1.530223E+02  1.310984E+04  2.717378E+05 -7.920588E+03  3.741276E+04
       162  24  8.063680E+05  2.084830E+02  1.038873E+04  3.416522E+05 -1.370531E+03  9.857130E+03
       162  25 -2.565365E+05 -2.529038E+05 -1.965120E+05  3.403591E+05 -4.175587E+04  6.176483E+04
       162  26  1.849769E+05 -1.490334E+05 -1.126849E+05  2.712876E+05 -3.908211E+04  3.739802E+04
       162  27  6.276971E+05 -4.288245E+04 -2.653902E+04  3.420522E+05 -3.639054E+04  9.829932E+03
       163   1  6.673571E+05 -3.332937E+04 -1.871528E+04  3.419802E+05 -3.547936E+04  7.349641E+03
       163   2  2.247033E+05 -1.394989E+05 -1.055269E+05  2.712946E+05 -3.782327E+04  3.493478E+04
       163   3 -2.168631E+05 -2.436516E+05 -1.903141E+05  3.404452E+05 -4.015059E+04  5.937715E+04
       163   4  8.063399E+05  2.344440E+02  1.023594E+04  3.416523E+05 -4.715205E+02  7.377019E+03
       163   5  8.054847E+05  1.542108E+02  1.227455E+04  2.717377E+05 -6.603343E+03  3.495034E+04
       163   6  8.061764E+05  2.754558E+03  1.896327E+04  3.416507E+05 -1.272012E+04  5.938287E+04
       163   7  9.453437E+05  3.379768E+04  3.919071E+04  3.413244E+05  3.454402E+04  7.404356E+03
       163   8  1.386589E+06  1.397869E+05  1.300621E+05  2.721812E+05  2.464523E+04  3.496592E+04
       163   9  1.830212E+06  2.490956E+05  2.281880E+05  3.428579E+05  1.475475E+04  5.938868E+04
       163  10  6.673557E+05 -3.332976E+04 -1.871775E+04  3.419804E+05 -2.311866E-10 -3.384962E-10
       163  11  2.247014E+05 -1.395006E+05 -1.055319E+05  2.712956E+05  6.851364E-10 -8.012680E-10
       163  12 -2.168658E+05 -2.436559E+05 -1.903237E+05  3.404471E+05  8.788325E-10  4.212408E-11
       163  13  8.063399E+05  2.343854E+02  1.023584E+04  3.416523E+05  1.978722E-10 -5.444649E-10
       163  14  8.054844E+05  1.528867E+02  1.227217E+04  2.717379E+05  1.614340E-09 -6.606667E-11
       163  15  8.061753E+05  2.750726E+03  1.895633E+04  3.416513E+05 -1.813631E-10 -3.359553E-11
       163  16  9.453424E+05  3.379731E+04  3.918837E+04  3.413242E+05 -2.675530E-10 -4.608755E-10
       163  17  1.386588E+06  1.397854E+05  1.300587E+05  2.721805E+05  2.184908E-11 -6.116430E-10
       163  18  1.830210E+06  2.490917E+05  2.281809E+05  3.428572E+05  8.347484E-10  7.763564E-10
       163  19  6.673571E+05 -3.332937E+04 -1.871528E+04  3.419802E+05  3.547936E+04 -7.349641E+03
       163  20  2.247033E+05 -1.394989E+05 -1.055269E+05  2.712946E+05  3.782327E+04 -3.493478E+04
       163  21 -2.168631E+05 -2.436516E+05 -1.903141E+05  3.404452E+05  4.015059E+04 -5.937715E+04
       163  22  8.063399E+05  2.344440E+02  1.023594E+04  3.416523E+05  4.715205E+02 -7.377019E+03
       163  23  8.054847E+05  1.542108E+02  1.227455E+04  2.717377E+05  6.603343E+03 -3.495034E+04
       163  24  8.061764E+05  2.754558E+03  1.896327E+04  3.416507E+05  1.272012E+04 -5.938287E+04
       163  25  9.453437E+05  3.379768E+04  3.919071E+04  3.413244E+05 -3.454402E+04 -7.404356E+03
       163  26  1.386589E+06  1.397869E+05  1.300621E+05  2.721812E+05 -2.464523E+04 -3.496592E+04
       163  27  1.830212E+06  2.490956E+05  2.281880E+05  3.428579E+05 -1.475475E+04 -5.938868E+04
       164   1 -5.327913E+05 -3.255477E+05 -2.506851E+05  3.495360E+05 -5.761506E+04  7.854575E+04
       164   2 -9.788912E+05 -4.261187E+05 -3.401242E+05  2.573968E+05 -6.134752E+03  8.315103E+04
       164   3 -1.419243E+06 -4.813223E+05 -4.515824E+05  3.022505E+05  4.524773E+04  2.747765E+04
       164   4  8.096979E+05 -2.238571E+03  2.351648E+04  3.410048E+05 -1.601481E+04  7.854629E+04
       164   5  8.004003E+05  5.779519E+03  3.980533E+04  2.725396E+05 -3.680420E+04  8.313888E+04
       164   6  8.091803E+05  7.164815E+04  8.424409E+04  3.410306E+05 -5.765657E+04  2.753474E+04
       164   7  2.153904E+06  3.209590E+05  2.976295E+05  3.324542E+05  2.567382E+04  7.854568E+04
       164   8  2.582676E+06  4.374727E+05  4.195557E+05  2.877261E+05 -6.756024E+04  8.312527E+04
       164   9  3.042178E+06  6.242686E+05  6.197581E+05  3.799503E+05 -1.609291E+05  2.757893E+04
       164  10 -5.327965E+05 -3.255552E+05 -2.507029E+05  3.495396E+05  1.307462E-09  3.139193E-10
       164  11 -9.788931E+05 -4.261261E+05 -3.401373E+05  2.573972E+05  8.487338E-10  1.060776E-09
       164  12 -1.419245E+06 -4.813236E+05 -4.515877E+05  3.022495E+05  1.232184E-09  1.113675E-09
       164  13  8.096959E+05 -2.245268E+03  2.350440E+04  3.410058E+05  1.624817E-09  7.723795E-10
       164  14  8.003970E+05  5.771729E+03  3.978978E+04  2.725421E+05  1.654049E-09  1.007888E-09
       164  15  8.091765E+05  7.164645E+04  8.423642E+04  3.410319E+05  2.709410E-09 -7.757853E-10
       164  16  2.153901E+06  3.209522E+05  2.976166E+05  3.324526E+05  1.277267E-10  1.263743E-09
       164  17  2.582669E+06  4.374641E+05  4.195341E+05  2.877306E+05  1.235467E-09  9.412611E-10
       164  18  3.042150E+06  6.242609E+05  6.197082E+05  3.799539E+05  5.129954E-10 -2.482878E-10
       164  19 -5.327913E+05 -3.255477E+05 -2.506851E+05  3.495360E+05  5.761506E+04 -7.854575E+04
       164  20 -9.788912E+05 -4.261187E+05 -3.401242E+05  2.573968E+05  6.134752E+03 -8.315103E+04
       164  21 -1.419243E+06 -4.813223E+05 -4.515824E+05  3.022505E+05 -4.524773E+04 -2.747765E+04
       164  22  8.096979E+05 -2.238571E+03  2.351648E+04  3.410048E+05  1.601481E+04 -7.854629E+04
       164  23  8.004003E+05  5.779519E+03  3.980533E+04  2.725396E+05  3.680420E+04 -8.313888E+04
       164  24  8.091803E+05  7.164815E+04  8.424409E+04  3.410306E+05  5.765657E+04 -2.753474E+04
       164  25  2.153904E+06  3.209590E+05  2.976295E+05  3.324542E+05 -2.567382E+04 -7.854568E+04
       164  26  2.582676E+06  4.374727E+05  4.195557E+05  2.877261E+05  6.756024E+04 -8.312527E+04
       164  27  3.042178E+06  6.242686E+05  6.197581E+05  3.799503E+05  1.609291E+05 -2.757893E+04
       165   1 -5.233463E+05 -1.854738E+06 -5.218586E+05  4.091944E+05 -2.150160E+04 -1.297358E+05
       165   2 -3.351955E+05 -1.353094E+06 -3.273960E+05  3.122716E+05 -6.129031E+04 -5.003205E+04
       165   3 -2.077026E+05 -8.770906E+05 -2.001448E+05  3.673174E+05 -4.994343E+04  2.965415E+04
       165   4 -6.315685E+04 -2.162575E+03 -7.480817E+04  3.768491E+05 -2.132472E+04 -5.134912E+04
       165   5 -4.868295E+03  5.628046E+03 -3.523578E+04  3.007933E+05 -6.123792E+04 -3.280414E+04
       165   6  3.488673E+03 -1.749558E+03 -2.026552E+04  3.767036E+05 -5.006072E+04 -1.434280E+04
       165   7  3.967893E+05  1.853573E+06  3.720205E+05  3.444041E+05 -2.115636E+04  2.727131E+04
       165   8  3.253384E+05  1.366089E+06  2.568175E+05  2.892881E+05 -6.118625E+04 -1.553893E+04
       165   9  2.146330E+05  8.743238E+05  1.595801E+05  3.861027E+05 -5.017923E+04 -5.840072E+04
       165  10 -5.233514E+05 -1.854756E+06 -5.218912E+05  4.091922E+05 -1.007266E-09 -1.479405E-09
       165  11 -3.352002E+05 -1.353098E+06 -3.274078E+05  3.122691E+05 -1.017435E-09 -7.706033E-10
       165  12 -2.077055E+05 -8.770922E+05 -2.001512E+05  3.673186E+05  9.727387E-10  2.288987E-09
       165  13 -6.315804E+04 -2.165528E+03 -7.481398E+04  3.768482E+05  2.499420E-11  1.049719E-11
       165  14 -4.872609E+03  5.625885E+03 -3.524485E+04  3.007917E+05  2.886280E-10  2.038197E-09
       165  15  3.485928E+03 -1.750451E+03 -2.027062E+04  3.767031E+05  1.670212E-10 -2.510955E-10
       165  16  3.967887E+05  1.853572E+06  3.720183E+05  3.444046E+05 -1.761556E-10  3.178728E-09
       165  17  3.253343E+05  1.366088E+06  2.568100E+05  2.892873E+05 -1.846408E-09  2.885068E-09
       165  18  2.146294E+05  8.743195E+05  1.595690E+05  3.861004E+05 -9.375657E-10 -3.286051E-09
       165  19 -5.233463E+05 -1.854738E+06 -5.218586E+05  4.091944E+05  2.150160E+04  1.297358E+05
       165  20 -3.351955E+05 -1.353094E+06 -3.273960E+05  3.122716E+05  6.129031E+04  5.003205E+04
       165  21 -2.077026E+05 -8.770906E+05 -2.001448E+05  3.673174E+05  4.994343E+04 -2.965415E+04
       165  22 -6.315685E+04 -2.162575E+03 -7.480817E+04  3.768491E+05  2.132472E+04  5.134912E+04
       165  23 -4.868295E+03  5.628046E+03 -3.523578E+04  3.007933E+05  6.123792E+04  3.280414E+04
       165  24  3.488673E+03 -1.749558E+03 -2.026552E+04  3.767036E+05  5.006072E+04  1.434280E+04
       165  25  3.967893E+05  1.853573E+06  3.720205E+05  3.444041E+05  2.115636E+04 -2.727131E+04
       165  26  3.253384E+05  1.366089E+06  2.568175E+05  2.892881E+05  6.118625E+04  1.553893E+04
       165  27  2.146330E+05  8.743238E+05  1.595801E+05  3.861027E+05  5.017923E+04  5.840072E+04
       166   1 -1.267946E+05 -5.215009E+05 -1.239473E+05  3.771698E+05 -2.923165E+04  2.091437E+04
       166   2 -6.770290E+03 -3.195676E+04 -1.656314E+04  3.000898E+05 -2.030705E+03  2.578791E+04
       166   3  1.113165E+05  4.558519E+05  8.692468E+04  3.774993E+05  2.526518E+04  3.066400E+04
       166   4 -6.353379E+02  1.291845E+03 -1.609261E+04  3.772948E+05 -2.932431E+04 -1.164351E+04
       166   5  1.456474E+03  2.267035E+03 -9.651999E+03  3.000470E+05 -2.123850E+03 -6.891787E+03
       166   6  1.646366E+03  1.302295E+03 -7.014488E+03  3.772882E+05  2.517082E+04 -2.141224E+03
       166   7  1.255072E+05  5.243463E+05  9.175129E+04  3.774196E+05 -2.941694E+04 -4.422834E+04
       166   8  9.683739E+03  3.649424E+04 -2.736901E+03  3.000041E+05 -2.216987E+03 -3.957325E+04
       166   9 -1.080363E+05 -4.530492E+05 -1.009608E+05  3.770770E+05  2.507644E+04 -3.492286E+04
       166  10 -1.267956E+05 -5.215016E+05 -1.239497E+05  3.771703E+05  6.392822E-10  3.369083E-10
       166  11 -6.770473E+03 -3.195748E+04 -1.656440E+04  3.000899E+05  4.523067E-10 -2.310504E-10
       166  12  1.113156E+05  4.558508E+05  8.692172E+04  3.774987E+05  5.680752E-10  1.399901E-09
       166  13 -6.362973E+02  1.291469E+03 -1.609448E+04  3.772945E+05  7.279260E-10  4.921706E-11
       166  14  1.456456E+03  2.266982E+03 -9.652096E+03  3.000470E+05  2.363586E-09  2.525320E-09
       166  15  1.645685E+03  1.302120E+03 -7.015687E+03  3.772882E+05  1.461085E-09 -2.715093E-10
       166  16  1.255058E+05  5.243440E+05  9.174599E+04  3.774186E+05  5.459249E-10  2.226337E-09
       166  17  9.683314E+03  3.649256E+04 -2.739852E+03  3.000041E+05  9.477842E-10  3.494465E-09
       166  18 -1.080373E+05 -4.530507E+05 -1.009643E+05  3.770777E+05  7.725754E-10 -2.399123E-09
       166  19 -1.267946E+05 -5.215009E+05 -1.239473E+05  3.771698E+05  2.923165E+04 -2.091437E+04
       166  20 -6.770290E+03 -3.195676E+04 -1.656314E+04  3.000898E+05  2.030705E+03 -2.578791E+04
       166  21  1.113165E+05  4.558519E+05  8.692468E+04  3.774993E+05 -2.526518E+04 -3.066400E+04
       166  22 -6.353379E+02  1.291845E+03 -1.609261E+04  3.772948E+05  2.932431E+04  1.164351E+04
       166  23  1.456474E+03  2.267035E+03 -9.651999E+03  3.000470E+05  2.123850E+03  6.891787E+03
       166  24  1.646366E+03  1.302295E+03 -7.014488E+03  3.772882E+05 -2.517082E+04  2.141224E+03
       166  25  1.255072E+05  5.243463E+05  9.175129E+04  3.774196E+05  2.941694E+04  4.422834E+04
       166  26  9.683739E+03  3.649424E+04 -2.736901E+03  3.000041E+05  2.216987E+03  3.957325E+04
       166  27 -1.080363E+05 -4.530492E+05 -1.009608E+05  3.770770E+05 -2.507644E+04  3.492286E+04
       167   1  1.966490E+05  8.085804E+05  1.595218E+05  3.793793E+05  4.596260E+04  4.273933E+04
       167   2  3.138537E+05  1.294125E+06  2.705674E+05  3.006640E+05  5.764395E+04 -1.282715E+04
       167   3  4.342215E+05  1.787564E+06  4.184246E+05  3.739503E+05  2.002942E+04 -6.835309E+04
       167   4  2.020168E+03  1.065906E+03 -6.449935E+03  3.767370E+05  4.584327E+04 -1.098291E+03
       167   5  1.357736E+02  2.164678E+03 -7.111408E+03  3.007372E+05  5.769042E+04  2.585072E+03
       167   6 -8.846458E+03  6.734114E+02 -1.205913E+04  3.767602E+05  2.019475E+04  6.352480E+03
       167   7 -1.926487E+05 -8.058261E+05 -1.724494E+05  3.740975E+05  4.572422E+04 -4.487997E+04
       167   8 -3.136915E+05 -1.288228E+06 -2.848871E+05  3.008090E+05  5.773696E+04  1.796571E+04
       167   9 -4.521441E+05 -1.783290E+06 -4.427498E+05  3.795597E+05  2.036104E+04  8.084425E+04
       167  10  1.966463E+05  8.085779E+05  1.595144E+05  3.793777E+05  2.400153E-10 -9.882191E-10
       167  11  3.138501E+05  1.294123E+06  2.705608E+05  3.006646E+05 -2.288284E-09 -1.579909E-09
       167  12  4.342198E+05  1.787559E+06  4.184151E+05  3.739514E+05 -4.389100E-11  4.496806E-10
       167  13  2.017911E+03  1.065340E+03 -6.453887E+03  3.767370E+05 -2.691761E-10  5.040952E-11
       167  14  1.321980E+02  2.163778E+03 -7.117675E+03  3.007371E+05  7.778576E-11  2.082988E-09
       167  15 -8.846906E+03  6.732588E+02 -1.205997E+04  3.767601E+05 -8.842706E-10 -2.274490E-10
       167  16 -1.926515E+05 -8.058288E+05 -1.724571E+05  3.740992E+05  7.092790E-10  3.353640E-09
       167  17 -3.136952E+05 -1.288229E+06 -2.848939E+05  3.008082E+05  1.526665E-10  4.153158E-09
       167  18 -4.521463E+05 -1.783297E+06 -4.427629E+05  3.795584E+05  1.900274E-10 -1.381800E-09
       167  19  1.966490E+05  8.085804E+05  1.595218E+05  3.793793E+05 -4.596260E+04 -4.273933E+04
       167  20  3.138537E+05  1.294125E+06  2.705674E+05  3.006640E+05 -5.764395E+04  1.282715E+04
       167  21  4.342215E+05  1.787564E+06  4.184246E+05  3.739503E+05 -2.002942E+04  6.835309E+04
       167  22  2.020168E+03  1.065906E+03 -6.449935E+03  3.767370E+05 -4.584327E+04  1.098291E+03
       167  23  1.357736E+02  2.164678E+03 -7.111408E+03  3.007372E+05 -5.769042E+04 -2.585072E+03
       167  24 -8.846458E+03  6.734114E+02 -1.205913E+04  3.767602E+05 -2.019475E+04 -6.352480E+03
       167  25 -1.926487E+05 -8.058261E+05 -1.724494E+05  3.740975E+05 -4.572422E+04  4.487997E+04
       167  26 -3.136915E+05 -1.288228E+06 -2.848871E+05  3.008090E+05 -5.773696E+04 -1.796571E+04
       167  27 -4.521441E+05 -1.783290E+06 -4.427498E+05  3.795597E+05 -2.036104E+04 -8.084425E+04
       168   1  3.384168E+06  6.899852E+05  6.925126E+05  3.876646E+05  2.058552E+05 -2.897194E+04
       168   2  2.943349E+06  4.643488E+05  4.651987E+05  2.830231E+05  9.680754E+04 -8.824935E+04
       168   3  2.545008E+06  3.479305E+05  3.360501E+05  3.075152E+05 -1.209477E+04 -8.591836E+04
       168   4  1.081606E+06  1.204813E+05  1.409283E+05  3.219517E+05  9.705651E+04 -2.893395E+04
       168   5  1.067090E+06  1.017935E+04  6.617157E+04  2.573681E+05  6.238489E+04 -8.826675E+04
       168   6  1.082155E+06 -3.583904E+03  3.823188E+04  3.219109E+05  2.777868E+04 -8.592115E+04
       168   7 -1.216087E+06 -4.493836E+05 -4.109843E+05  2.564819E+05 -1.134258E+04 -2.887305E+04
       168   8 -8.058613E+05 -4.442152E+05 -3.330527E+05  2.317911E+05  2.806412E+04 -8.828137E+04
       168   9 -3.786657E+05 -3.552300E+05 -2.596926E+05  3.362714E+05  6.756015E+04 -8.592209E+04
       168  10  3.384122E+06  6.899730E+05  6.924318E+05  3.876694E+05 -8.953688E-10  6.215150E-10
       168  11  2.943336E+06  4.643379E+05  4.651665E+05  2.830299E+05 -1.262900E-10 -8.474278E-10
       168  12  2.545006E+06  3.479226E+05  3.360359E+05  3.075144E+05 -1.657570E-09 -4.466807E-10
       168  13  1.081595E+06  1.204779E+05  1.409090E+05  3.219539E+05 -8.360384E-10 -1.928232E-09
       168  14  1.067084E+06  1.016993E+04  6.614961E+04  2.573726E+05  9.438358E-10 -8.841435E-10
       168  15  1.082153E+06 -3.592044E+03  3.821654E+04  3.219128E+05 -2.332019E-10  1.429152E-10
       168  16 -1.216087E+06 -4.493845E+05 -4.109861E+05  2.564817E+05  7.896426E-11 -1.255879E-09
       168  17 -8.058642E+05 -4.442238E+05 -3.330689E+05  2.317931E+05  1.440087E-09  4.994036E-10
       168  18 -3.786726E+05 -3.552391E+05 -2.597150E+05  3.362761E+05  1.484277E-09  5.482429E-10
       168  19  3.384168E+06  6.899852E+05  6.925126E+05  3.876646E+05 -2.058552E+05  2.897194E+04
       168  20  2.943349E+06  4.643488E+05  4.651987E+05  2.830231E+05 -9.680754E+04  8.824935E+04
       168  21  2.545008E+06  3.479305E+05  3.360501E+05  3.075152E+05  1.209477E+04  8.591836E+04
       168  22  1.081606E+06  1.204813E+05  1.409283E+05  3.219517E+05 -9.705651E+04  2.893395E+04
       168  23  1.067090E+06  1.017935E+04  6.617157E+04  2.573681E+05 -6.238489E+04  8.826675E+04
       168  24  1.082155E+06 -3.583904E+03  3.823188E+04  3.219109E+05 -2.777868E+04  8.592115E+04
       168  25 -1.216087E+06 -4.493836E+05 -4.109843E+05  2.564819E+05  1.134258E+04  2.887305E+04
       168  26 -8.058613E+05 -4.442152E+05 -3.330527E+05  2.317911E+05 -2.806412E+04  8.828137E+04
       168  27 -3.786657E+05 -3.552300E+05 -2.596926E+05  3.362714E+05 -6.756015E+04  8.592209E+04
       169   1  2.236725E+06  2.836548E+05  2.669246E+05  3.244095E+05 -2.774905E+03 -6.766903E+04
       169   2  1.817634E+06  1.785016E+05  1.680025E+05  2.571917E+05 -1.559057E+04 -4.501132E+04
       169   3  1.401723E+06  7.839361E+04  7.866790E+04  3.218505E+05 -2.841620E+04 -1.911187E+04
       169   4  1.076256E+06  4.663049E+03  3.023137E+04  3.225363E+05  2.251898E+04 -6.766552E+04
       169   5  1.075187E+06  2.281535E+02  1.785685E+04  2.565952E+05  1.361042E+04 -4.499614E+04
       169   6  1.076456E+06  1.750399E+02  1.237599E+04  3.225397E+05  4.683523E+03 -1.908268E+04
       169   7 -8.293597E+04 -2.744124E+05 -2.065303E+05  3.206662E+05  4.776655E+04 -6.766215E+04
       169   8  3.332651E+05 -1.780790E+05 -1.323142E+05  2.559993E+05  4.277723E+04 -4.498100E+04
       169   9  7.512917E+05 -7.804954E+04 -5.391738E+04  3.232286E+05  3.776626E+04 -1.905341E+04
       169  10  2.236723E+06  2.836499E+05  2.669159E+05  3.244093E+05 -1.852805E-09  3.105396E-10
       169  11  1.817633E+06  1.784994E+05  1.679983E+05  2.571911E+05 -2.102865E-09 -6.955306E-10
       169  12  1.401722E+06  7.839300E+04  7.866570E+04  3.218500E+05  2.129171E-10 -3.415223E-10
       169  13  1.076254E+06  4.657993E+03  3.022181E+04  3.225375E+05  3.375071E-11  2.614293E-10
       169  14  1.075186E+06  2.259283E+02  1.785269E+04  2.565957E+05  6.955329E-10 -2.735081E-10
       169  15  1.076456E+06  1.746427E+02  1.237526E+04  3.225398E+05 -3.486338E-12 -8.334869E-10
       169  16 -8.293966E+04 -2.744179E+05 -2.065432E+05  3.206688E+05  2.016830E-09  5.232088E-11
       169  17  3.332626E+05 -1.780816E+05 -1.323214E+05  2.560009E+05  1.480507E-09 -3.865018E-10
       169  18  7.512901E+05 -7.805031E+04 -5.392074E+04  3.232291E+05 -5.402003E-11 -2.389267E-10
       169  19  2.236725E+06  2.836548E+05  2.669246E+05  3.244095E+05  2.774905E+03  6.766903E+04
       169  20  1.817634E+06  1.785016E+05  1.680025E+05  2.571917E+05  1.559057E+04  4.501132E+04
       169  21  1.401723E+06  7.839361E+04  7.866790E+04  3.218505E+05  2.841620E+04  1.911187E+04
       169  22  1.076256E+06  4.663049E+03  3.023137E+04  3.225363E+05 -2.251898E+04  6.766552E+04
       169  23  1.075187E+06  2.281535E+02  1.785685E+04  2.565952E+05 -1.361042E+04  4.499614E+04
       169  24  1.076456E+06  1.750399E+02  1.237599E+04  3.225397E+05 -4.683523E+03  1.908268E+04
       169  25 -8.293597E+04 -2.744124E+05 -2.065303E+05  3.206662E+05 -4.776655E+04  6.766215E+04
       169  26  3.332651E+05 -1.780790E+05 -1.323142E+05  2.559993E+05 -4.277723E+04  4.498100E+04
       169  27  7.512917E+05 -7.804954E+04 -5.391738E+04  3.232286E+05 -3.776626E+04  1.905341E+04
       170   1  1.101829E+06  6.334665E+03  1.532107E+04  3.226919E+05 -3.038758E+04 -2.862609E+03
       170   2  6.843971E+05 -9.382454E+04 -6.842594E+04  2.561142E+05 -3.264354E+04  2.321631E+04
       170   3  2.677767E+05 -1.924205E+05 -1.503481E+05  3.214001E+05 -3.488808E+04  4.656282E+04
       170   4  1.076229E+06  3.851673E+02  1.114184E+04  3.225334E+05  2.584698E+03 -2.831859E+03
       170   5  1.075567E+06  2.419134E+02  1.111148E+04  2.566038E+05 -2.964377E+03  2.323831E+04
       170   6  1.076126E+06  2.242770E+03  1.519261E+04  3.225321E+05 -8.503531E+03  4.657741E+04
       170   7  1.050632E+06 -5.563781E+03  6.966666E+03  3.223749E+05  3.555566E+04 -2.801125E+03
       170   8  1.466884E+06  9.429932E+04  9.064420E+04  2.570935E+05  2.673312E+04  2.326034E+04
       170   9  1.885096E+06  1.968655E+05  1.807013E+05  3.236653E+05  1.791474E+04  4.659208E+04
       170  10  1.101828E+06  6.334409E+03  1.531932E+04  3.226919E+05 -1.394712E-10 -4.923651E-10
       170  11  6.843958E+05 -9.382541E+04 -6.842896E+04  2.561148E+05 -1.465827E-10 -7.200150E-10
       170  12  2.677748E+05 -1.924232E+05 -1.503545E+05  3.214014E+05  3.190779E-10 -8.622168E-10
       170  13  1.076229E+06  3.851568E+02  1.114181E+04  3.225334E+05 -5.891657E-10 -6.913460E-10
       170  14  1.075567E+06  2.413308E+02  1.111045E+04  2.566038E+05 -1.292212E-09 -5.565876E-10
       170  15  1.076125E+06  2.240420E+03  1.518839E+04  3.225324E+05  5.245113E-10 -4.426705E-10
       170  16  1.050631E+06 -5.564128E+03  6.964279E+03  3.223750E+05  6.835239E-11 -4.913060E-10
       170  17  1.466883E+06  9.429854E+04  9.064185E+04  2.570930E+05  3.617012E-10  1.029688E-09
       170  18  1.885095E+06  1.968631E+05  1.806966E+05  3.236646E+05 -1.578713E-10  1.727522E-10
       170  19  1.101829E+06  6.334665E+03  1.532107E+04  3.226919E+05  3.038758E+04  2.862609E+03
       170  20  6.843971E+05 -9.382454E+04 -6.842594E+04  2.561142E+05  3.264354E+04 -2.321631E+04
       170  21  2.677767E+05 -1.924205E+05 -1.503481E+05  3.214001E+05  3.488808E+04 -4.656282E+04
       170  22  1.076229E+06  3.851673E+02  1.114184E+04  3.225334E+05 -2.584698E+03  2.831859E+03
       170  23  1.075567E+06  2.419134E+02  1.111148E+04  2.566038E+05  2.964377E+03 -2.323831E+04
       170  24  1.076126E+06  2.242770E+03  1.519261E+04  3.225321E+05  8.503531E+03 -4.657741E+04
       170  25  1.050632E+06 -5.563781E+03  6.966666E+03  3.223749E+05 -3.555566E+04  2.801125E+03
       170  26  1.466884E+06  9.429932E+04  9.064420E+04  2.570935E+05 -2.673312E+04 -2.326034E+04
       170  27  1.885096E+06  1.968655E+05  1.807013E+05  3.236653E+05 -1.791474E+04 -4.659208E+04
       171   1 -3.083074E+04 -2.686076E+05 -2.085471E+05  3.280089E+05 -4.995362E+04  6.449066E+04
       171   2 -4.502830E+05 -3.649782E+05 -2.954334E+05  2.456473E+05 -2.153217E+03  7.046115E+04
       171   3 -8.671681E+05 -4.293091E+05 -4.053215E+05  2.927083E+05  4.558400E+04  2.356012E+04
       171   4  1.078713E+06 -1.460946E+03  1.827435E+04  3.219831E+05 -1.113257E+04  6.450512E+04
       171   5  1.071810E+06  4.429505E+03  2.992823E+04  2.572862E+05 -2.675561E+04  7.044438E+04
       171   6  1.078290E+06  5.332928E+04  6.259501E+04  3.219831E+05 -4.241002E+04  2.357333E+04
       171   7  2.189429E+06  2.656096E+05  2.450364E+05  3.159458E+05  2.775661E+04  6.451880E+04
       171   8  2.596084E+06  3.736869E+05  3.551581E+05  2.689535E+05 -5.141740E+04  7.042672E+04
       171   9  3.027231E+06  5.356996E+05  5.302718E+05  3.513494E+05 -1.306788E+05  2.357828E+04
       171  10 -3.083454E+04 -2.686127E+05 -2.085596E+05  3.280115E+05 -5.576418E-10 -5.311314E-10
       171  11 -4.502844E+05 -3.649836E+05 -2.954428E+05  2.456474E+05 -4.019736E-10  3.404209E-10
       171  12 -8.671705E+05 -4.293102E+05 -4.053264E+05  2.927074E+05  2.823548E-10  3.325693E-10
       171  13  1.078712E+06 -1.465450E+03  1.826629E+04  3.219836E+05 -2.737062E-09 -1.547353E-09
       171  14  1.071808E+06  4.423981E+03  2.991755E+04  2.572877E+05  2.992485E-10 -8.493471E-11
       171  15  1.078288E+06  5.332820E+04  6.259059E+04  3.219839E+05  1.364370E-09 -1.047142E-10
       171  16  2.189427E+06  2.656049E+05  2.450271E+05  3.159444E+05  9.905747E-10 -2.072322E-10
       171  17  2.596079E+06  3.736809E+05  3.551438E+05  2.689564E+05  2.901915E-09 -3.103531E-10
       171  18  3.027212E+06  5.356945E+05  5.302389E+05  3.513519E+05 -8.593703E-10  2.453604E-10
       171  19 -3.083074E+04 -2.686076E+05 -2.085471E+05  3.280089E+05  4.995362E+04 -6.449066E+04
       171  20 -4.502830E+05 -3.649782E+05 -2.954334E+05  2.456473E+05  2.153217E+03 -7.046115E+04
       171  21 -8.671681E+05 -4.293091E+05 -4.053215E+05  2.927083E+05 -4.558400E+04 -2.356012E+04
       171  22  1.078713E+06 -1.460946E+03  1.827435E+04  3.219831E+05  1.113257E+04 -6.450512E+04
       171  23  1.071810E+06  4.429505E+03  2.992823E+04  2.572862E+05  2.675561E+04 -7.044438E+04
       171  24  1.078290E+06  5.332928E+04  6.259501E+04  3.219831E+05  4.241002E+04 -2.357333E+04
       171  25  2.189429E+06  2.656096E+05  2.450364E+05  3.159458E+05 -2.775661E+04 -6.451880E+04
       171  26  2.596084E+06  3.736869E+05  3.551581E+05  2.689535E+05  5.141740E+04 -7.042672E+04
       171  27  3.027231E+06  5.356996E+05  5.302718E+05  3.513494E+05  1.306788E+05 -2.357828E+04
       172   1 -4.512373E+05 -1.567335E+06 -4.582650E+05  3.806670E+05 -1.598117E+04 -1.348368E+05
       172   2 -2.511274E+05 -1.123723E+06 -2.685764E+05  2.822111E+05 -4.405013E+04 -5.938662E+04
       172   3 -1.351501E+05 -7.111589E+05 -1.491975E+05  3.171076E+05 -3.217584E+04  1.605742E+04
       172   4 -9.554876E+04 -1.352986E+05 -1.122036E+05  3.298366E+05 -1.585488E+04 -7.720101E+04
       172   5 -7.910890E+03 -1.237376E+05 -5.271972E+04  2.630577E+05 -4.402167E+04 -4.953090E+04
       172   6  3.991573E+03 -1.350263E+05 -3.024589E+04  3.296413E+05 -3.226655E+04 -2.192183E+04
       172   7  2.600016E+05  1.298629E+06  2.337247E+05  2.788869E+05 -1.573823E+04 -1.943227E+04
       172   8  2.352412E+05  8.771891E+05  1.630786E+05  2.438723E+05 -4.399384E+04 -3.965945E+04
       172   9  1.431136E+05  4.414247E+05  8.869326E+04  3.421865E+05 -3.235876E+04 -5.993573E+04
       172  10 -4.512425E+05 -1.567355E+06 -4.582998E+05  3.806653E+05  1.064604E-09 -5.922463E-10
       172  11 -2.511304E+05 -1.123727E+06 -2.685867E+05  2.822090E+05  1.666877E-09  1.919909E-09
       172  12 -1.351513E+05 -7.111594E+05 -1.491999E+05  3.171080E+05  5.516706E-10  2.118634E-09
       172  13 -9.555062E+04 -1.353051E+05 -1.122153E+05  3.298356E+05 -5.090865E-10  1.536576E-09
       172  14 -7.913628E+03 -1.237408E+05 -5.272797E+04  2.630559E+05  5.678713E-10 -1.792489E-09
       172  15  3.990326E+03 -1.350271E+05 -3.024875E+04  3.296407E+05  2.200628E-10  2.837802E-09
       172  16  2.600013E+05  1.298629E+06  2.337235E+05  2.788866E+05  2.352493E-10 -1.705852E-09
       172  17  2.352387E+05  8.771869E+05  1.630720E+05  2.438709E+05 -2.948875E-09  2.288850E-09
       172  18  1.431115E+05  4.414206E+05  8.868455E+04  3.421850E+05  5.001499E-10 -6.654908E-10
       172  19 -4.512373E+05 -1.567335E+06 -4.582650E+05  3.806670E+05  1.598117E+04  1.348368E+05
       172  20 -2.511274E+05 -1.123723E+06 -2.685764E+05  2.822111E+05  4.405013E+04  5.938662E+04
       172  21 -1.351501E+05 -7.111589E+05 -1.491975E+05  3.171076E+05  3.217584E+04 -1.605742E+04
       172  22 -9.554876E+04 -1.352986E+05 -1.122036E+05  3.298366E+05  1.585488E+04  7.720101E+04
       172  23 -7.910890E+03 -1.237376E+05 -5.271972E+04  2.630577E+05  4.402167E+04  4.953090E+04
       172  24  3.991573E+03 -1.350263E+05 -3.024589E+04  3.296413E+05  3.226655E+04  2.192183E+04
       172  25  2.600016E+05  1.298629E+06  2.337247E+05  2.788869E+05  1.573823E+04  1.943227E+04
       172  26  2.352412E+05  8.771891E+05  1.630786E+05  2.438723E+05  4.399384E+04  3.965945E+04
       172  27  1.431136E+05  4.414247E+05  8.869326E+04  3.421865E+05  3.235876E+04  5.993573E+04
       173   1 -6.699469E+04 -3.979069E+05 -7.967176E+04  3.309832E+05 -1.419093E+04  1.130314E+04
       173   2  3.956522E+04  3.109423E+04  1.841084E+04  2.628994E+05  9.900320E+03  1.769597E+04
       173   3  1.429708E+05  4.580289E+05  1.113629E+05  3.301069E+05  3.354013E+04  2.409796E+04
       173   4 -2.329372E+03 -1.304139E+05 -2.388684E+04  3.301117E+05 -1.426398E+04 -1.785185E+04
       173   5  1.010869E+03 -1.292696E+05 -1.398189E+04  2.624604E+05  9.831099E+03 -1.092331E+04
       173   6  1.114919E+03 -1.304565E+05 -9.571593E+03  3.301031E+05  3.347414E+04 -3.989867E+03
       173   7  6.233183E+04  1.371487E+05  3.189733E+04  3.292398E+05 -1.433693E+04 -4.701920E+04
       173   8 -3.754464E+04 -2.896071E+05 -4.637287E+04  2.620216E+05  9.761908E+03 -3.953534E+04
       173   9 -1.407623E+05 -7.186116E+05 -1.305216E+05  3.300992E+05  3.340811E+04 -3.205156E+04
       173  10 -6.699494E+04 -3.979071E+05 -7.967238E+04  3.309834E+05  7.619617E-10 -2.265363E-09
       173  11  3.956503E+04  3.109386E+04  1.841007E+04  2.628992E+05 -1.829364E-09  2.327013E-09
       173  12  1.429694E+05  4.580280E+05  1.113597E+05  3.301062E+05 -1.045034E-09  3.346751E-09
       173  13 -2.329676E+03 -1.304143E+05 -2.388782E+04  3.301115E+05 -8.137783E-11  2.162942E-09
       173  14  1.010733E+03 -1.292697E+05 -1.398230E+04  2.624605E+05  1.525268E-09 -2.123474E-09
       173  15  1.113712E+03 -1.304568E+05 -9.573729E+03  3.301033E+05  3.115572E-10  2.781697E-09
       173  16  6.233102E+04  1.371463E+05  3.189279E+04  3.292392E+05  7.713656E-10 -9.771762E-10
       173  17 -3.754516E+04 -2.896088E+05 -4.637599E+04  2.620220E+05  1.435168E-09  2.974988E-09
       173  18 -1.407638E+05 -7.186130E+05 -1.305257E+05  3.301000E+05  2.207525E-10 -2.056909E-09
       173  19 -6.699469E+04 -3.979069E+05 -7.967176E+04  3.309832E+05  1.419093E+04 -1.130314E+04
       173  20  3.956522E+04  3.109423E+04  1.841084E+04  2.628994E+05 -9.900320E+03 -1.769597E+04
       173  21  1.429708E+05  4.580289E+05  1.113629E+05  3.301069E+05 -3.354013E+04 -2.409796E+04
       173  22 -2.329372E+03 -1.304139E+05 -2.388684E+04  3.301117E+05  1.426398E+04  1.785185E+04
       173  23  1.010869E+03 -1.292696E+05 -1.398189E+04  2.624604E+05 -9.831099E+03  1.092331E+04
       173  24  1.114919E+03 -1.304565E+05 -9.571593E+03  3.301031E+05 -3.347414E+04  3.989867E+03
       173  25  6.233183E+04  1.371487E+05  3.189733E+04  3.292398E+05  1.433693E+04  4.701920E+04
       173  26 -3.754464E+04 -2.896071E+05 -4.637287E+04  2.620216E+05 -9.761908E+03  3.953534E+04
       173  27 -1.407623E+05 -7.186116E+05 -1.305216E+05  3.300992E+05 -3.340811E+04  3.205156E+04
       174   1  2.177276E+05  7.671248E+05  1.754879E+05  3.320696E+05  5.182637E+04  3.641227E+04
       174   2  3.203812E+05  1.191964E+06  2.747658E+05  2.623964E+05  6.012475E+04 -1.693038E+04
       174   3  4.250086E+05  1.624301E+06  4.091790E+05  3.255393E+05  2.043127E+04 -7.024993E+04
       174   4  1.454019E+03 -1.306258E+05 -8.442704E+03  3.295546E+05  5.174151E+04 -2.533127E+03
       174   5 -3.535574E+02 -1.294683E+05 -8.379312E+03  2.631471E+05  6.017058E+04  1.802269E+03
       174   6 -1.018169E+04 -1.309776E+05 -1.319484E+04  3.295743E+05  2.056102E+04  6.197452E+03
       174   7 -2.148693E+05 -1.027608E+06 -1.924105E+05  3.270426E+05  5.165689E+04 -4.142327E+04
       174   8 -3.212024E+05 -1.449260E+06 -2.916248E+05  2.638951E+05  6.021652E+04  2.049567E+04
       174   9 -4.455932E+05 -1.883429E+06 -4.357663E+05  3.335961E+05  2.069200E+04  8.242991E+04
       174  10  2.177243E+05  7.671226E+05  1.754804E+05  3.320681E+05  8.335902E-10 -6.158406E-10
       174  11  3.203773E+05  1.191963E+06  2.747585E+05  2.623972E+05 -4.153244E-10  1.446436E-09
       174  12  4.250069E+05  1.624296E+06  4.091690E+05  3.255405E+05  2.218041E-11  1.141817E-09
       174  13  1.451143E+03 -1.306265E+05 -8.447747E+03  3.295547E+05 -5.499658E-10  1.880032E-09
       174  14 -3.574458E+02 -1.294693E+05 -8.386121E+03  2.631470E+05 -4.878191E-10 -1.663270E-09
       174  15 -1.018215E+04 -1.309778E+05 -1.319570E+04  3.295742E+05 -1.923328E-10  1.664150E-09
       174  16 -2.148726E+05 -1.027611E+06 -1.924187E+05  3.270443E+05 -1.383233E-09 -2.253539E-09
       174  17 -3.212064E+05 -1.449261E+06 -2.916324E+05  2.638941E+05 -1.362132E-09  2.558996E-09
       174  18 -4.455955E+05 -1.883437E+06 -4.357799E+05  3.335947E+05  3.399442E-10 -4.913165E-10
       174  19  2.177276E+05  7.671248E+05  1.754879E+05  3.320696E+05 -5.182637E+04 -3.641227E+04
       174  20  3.203812E+05  1.191964E+06  2.747658E+05  2.623964E+05 -6.012475E+04  1.693038E+04
       174  21  4.250086E+05  1.624301E+06  4.091790E+05  3.255393E+05 -2.043127E+04  7.024993E+04
       174  22  1.454019E+03 -1.306258E+05 -8.442704E+03  3.295546E+05 -5.174151E+04  2.533127E+03
       174  23 -3.535574E+02 -1.294683E+05 -8.379312E+03  2.631471E+05 -6.017058E+04 -1.802269E+03
       174  24 -1.018169E+04 -1.309776E+05 -1.319484E+04  3.295743E+05 -2.056102E+04 -6.197452E+03
       174  25 -2.148693E+05 -1.027608E+06 -1.924105E+05  3.270426E+05 -5.165689E+04  4.142327E+04
       174  26 -3.212024E+05 -1.449260E+06 -2.916248E+05  2.638951E+05 -6.021652E+04 -2.049567E+04
       174  27 -4.455932E+05 -1.883429E+06 -4.357663E+05  3.335961E+05 -2.069200E+04 -8.242991E+04
       175   1  4.902322E+06  9.790079E+05  9.680301E+05  4.811829E+05  2.553298E+05 -4.569611E+04
       175   2  4.327792E+06  7.300334E+05  6.895745E+05  3.632051E+05  1.121907E+05 -1.420973E+05
       175   3  3.799443E+06  5.838559E+05  5.298248E+05  4.139424E+05 -3.075661E+04 -1.445918E+05
       175   4  1.354245E+06  1.023916E+05  1.199341E+05  4.237546E+05  8.207087E+04 -4.575388E+04
       175   5  1.341554E+06  8.114677E+03  5.656295E+04  3.394259E+05  5.253333E+04 -1.421996E+05
       175   6  1.355325E+06 -2.718776E+03  3.356320E+04  4.238215E+05  2.304797E+04 -1.445503E+05
       175   7 -2.182296E+06 -7.751049E+05 -7.289352E+05  3.666497E+05 -9.020926E+04 -4.578026E+04
       175   8 -1.636316E+06 -7.143762E+05 -5.769434E+05  3.157585E+05 -6.843381E+03 -1.422977E+05
       175   9 -1.083131E+06 -5.896623E+05 -4.629992E+05  4.336572E+05  7.664557E+04 -1.445069E+05
       175  10  4.902252E+06  9.789883E+05  9.679046E+05  4.811923E+05 -2.678137E-10 -3.549924E-10
       175  11  4.327773E+06  7.300084E+05  6.895130E+05  3.632179E+05 -2.520130E-09 -2.184520E-09
       175  12  3.799436E+06  5.838332E+05  5.297837E+05  4.139388E+05  1.080449E-09 -3.037468E-09
       175  13  1.354237E+06  1.023876E+05  1.199175E+05  4.237576E+05  1.060666E-09 -4.442120E-10
       175  14  1.341545E+06  8.092206E+03  5.651973E+04  3.394319E+05  1.095080E-09 -1.258905E-09
       175  15  1.355319E+06 -2.741373E+03  3.352290E+04  4.238242E+05  1.207063E-09 -9.474074E-10
       175  16 -2.182305E+06 -7.751094E+05 -7.289544E+05  3.666464E+05 -6.786806E-10 -1.387467E-10
       175  17 -1.636321E+06 -7.143979E+05 -5.769816E+05  3.157577E+05  2.251188E-09 -1.923074E-09
       175  18 -1.083143E+06 -5.896864E+05 -4.630496E+05  4.336662E+05 -4.163736E-10 -4.472444E-09
       175  19  4.902322E+06  9.790079E+05  9.680301E+05  4.811829E+05 -2.553298E+05  4.569611E+04
       175  20  4.327792E+06  7.300334E+05  6.895745E+05  3.632051E+05 -1.121907E+05  1.420973E+05
       175  21  3.799443E+06  5.838559E+05  5.298248E+05  4.139424E+05  3.075661E+04  1.445918E+05
       175  22  1.354245E+06  1.023916E+05  1.199341E+05  4.237546E+05 -8.207087E+04  4.575388E+04
       175  23  1.341554E+06  8.114677E+03  5.656295E+04  3.394259E+05 -5.253333E+04  1.421996E+05
       175  24  1.355325E+06 -2.718776E+03  3.356320E+04  4.238215E+05 -2.304797E+04  1.445503E+05
       175  25 -2.182296E+06 -7.751049E+05 -7.289352E+05  3.666497E+05  9.020926E+04  4.578026E+04
       175  26 -1.636316E+06 -7.143762E+05 -5.769434E+05  3.157585E+05  6.843381E+03  1.422977E+05
       175  27 -1.083131E+06 -5.896623E+05 -4.629992E+05  4.336572E+05 -7.664557E+04  1.445069E+05
       176   1  3.396895E+06  4.960525E+05  4.434526E+05  4.287486E+05 -1.319664E+04 -1.201768E+05
       176   2  2.847734E+06  3.602947E+05  3.197941E+05  3.409630E+05 -2.802701E+04 -9.153281E+04
       176   3  2.301944E+06  2.300011E+05  2.070502E+05  4.259537E+05 -4.290073E+04 -5.788956E+04
       176   4  1.350259E+06  4.562799E+03  2.707289E+04  4.247148E+05  1.830219E+04 -1.201465E+05
       176   5  1.349488E+06  9.243541E+02  1.760028E+04  3.383182E+05  9.507750E+03 -9.146556E+04
       176   6  1.350777E+06  1.732432E+03  1.488994E+04  4.247227E+05  6.574346E+02 -5.777876E+04
       176   7 -6.924099E+05 -4.871869E+05 -3.895227E+05  4.206913E+05  4.969947E+04 -1.201166E+05
       176   8 -1.466251E+05 -3.585838E+05 -2.847037E+05  3.356782E+05  4.695398E+04 -9.139854E+04
       176   9  4.004732E+05 -2.265912E+05 -1.773099E+05  4.234927E+05  4.415034E+04 -5.766804E+04
       176  10  3.396891E+06  4.960370E+05  4.434252E+05  4.287473E+05 -4.932064E-09 -3.774828E-09
       176  11  2.847730E+06  3.602855E+05  3.197769E+05  3.409609E+05 -1.002602E-09  2.056908E-09
       176  12  2.301941E+06  2.299970E+05  2.070404E+05  4.259517E+05 -1.125372E-09  2.771551E-09
       176  13  1.350255E+06  4.547197E+03  2.704511E+04  4.247165E+05  5.410891E-10 -2.901931E-09
       176  14  1.349485E+06  9.153401E+02  1.758438E+04  3.383189E+05  1.023556E-09  1.772712E-10
       176  15  1.350776E+06  1.728845E+03  1.488366E+04  4.247227E+05  4.647477E-10 -1.631183E-09
       176  16 -6.924165E+05 -4.872031E+05 -3.895544E+05  4.206961E+05  5.057116E-09 -1.084600E-09
       176  17 -1.466297E+05 -3.585933E+05 -2.847236E+05  3.356817E+05  1.700920E-09  1.222810E-09
       176  18  4.004702E+05 -2.265953E+05 -1.773198E+05  4.234948E+05  1.967920E-09  1.318938E-09
       176  19  3.396895E+06  4.960525E+05  4.434526E+05  4.287486E+05  1.319664E+04  1.201768E+05
       176  20  2.847734E+06  3.602947E+05  3.197941E+05  3.409630E+05  2.802701E+04  9.153281E+04
       176  21  2.301944E+06  2.300011E+05  2.070502E+05  4.259537E+05  4.290073E+04  5.788956E+04
       176  22  1.350259E+06  4.562799E+03  2.707289E+04  4.247148E+05 -1.830219E+04  1.201465E+05
       176  23  1.349488E+06  9.243541E+02  1.760028E+04  3.383182E+05 -9.507750E+03  9.146556E+04
       176  24  1.350777E+06  1.732432E+03  1.488994E+04  4.247227E+05 -6.574346E+02  5.777876E+04
       176  25 -6.924099E+05 -4.871869E+05 -3.895227E+05  4.206913E+05 -4.969947E+04  1.201166E+05
       176  26 -1.466251E+05 -3.585838E+05 -2.847037E+05  3.356782E+05 -4.695398E+04  9.139854E+04
       176  27  4.004732E+05 -2.265912E+05 -1.773099E+05  4.234927E+05 -4.415034E+04  5.766804E+04
       177   1  1.909353E+06  1.354728E+05  1.260332E+05  4.264789E+05 -4.508698E+04 -3.662548E+04
       177   2  1.362677E+06  4.563879E+03  2.086594E+04  3.379521E+05 -5.142361E+04 -2.272274E+03
       177   3  8.173613E+05 -1.218951E+05 -7.931663E+04  4.220259E+05 -5.775076E+04  2.926697E+04
       177   4  1.350811E+06  1.791467E+03  1.516798E+04  4.246786E+05 -2.066134E+03 -3.650689E+04
       177   5  1.349980E+06  1.730476E+03  1.935796E+04  3.383725E+05 -1.180165E+04 -2.163337E+03
       177   6  1.350808E+06  6.722396E+03  3.088904E+04  4.246652E+05 -2.153298E+04  2.936713E+04
       177   7  7.925698E+05 -1.319078E+05 -9.570582E+04  4.228796E+05  4.091690E+04 -3.638850E+04
       177   8  1.337286E+06 -1.102092E+03  1.785588E+04  3.387929E+05  2.781955E+04 -2.054345E+03
       177   9  1.884527E+06  1.353227E+05  1.410842E+05  4.273065E+05  1.471534E+04  2.946754E+04
       177  10  1.909351E+06  1.354708E+05  1.260269E+05  4.264776E+05 -8.020579E-10  4.122953E-09
       177  11  1.362674E+06  4.563166E+03  2.086097E+04  3.379520E+05  1.231164E-09  2.954384E-09
       177  12  8.173575E+05 -1.218969E+05 -7.932450E+04  4.220273E+05  2.322950E-09 -3.174073E-10
       177  13  1.350810E+06  1.790034E+03  1.516546E+04  4.246785E+05  5.336607E-11 -2.712471E-09
       177  14  1.349980E+06  1.730434E+03  1.935769E+04  3.383725E+05  2.145417E-09  3.352203E-09
       177  15  1.350807E+06  6.721345E+03  3.088655E+04  4.246657E+05  1.740537E-09  4.809814E-09
       177  16  7.925676E+05 -1.319097E+05 -9.571146E+04  4.228808E+05  1.254497E-09  2.988185E-09
       177  17  1.337286E+06 -1.102303E+03  1.785442E+04  3.387929E+05 -7.422613E-10  3.722161E-09
       177  18  1.884526E+06  1.353217E+05  1.410822E+05  4.273062E+05 -2.821584E-09  1.401698E-09
       177  19  1.909353E+06  1.354728E+05  1.260332E+05  4.264789E+05  4.508698E+04  3.662548E+04
       177  20  1.362677E+06  4.563879E+03  2.086594E+04  3.379521E+05  5.142361E+04  2.272274E+03
       177  21  8.173613E+05 -1.218951E+05 -7.931663E+04  4.220259E+05  5.775076E+04 -2.926697E+04
       177  22  1.350811E+06  1.791467E+03  1.516798E+04  4.246786E+05  2.066134E+03  3.650689E+04
       177  23  1.349980E+06  1.730476E+03  1.935796E+04  3.383725E+05  1.180165E+04  2.163337E+03
       177  24  1.350808E+06  6.722396E+03  3.088904E+04  4.246652E+05  2.153298E+04 -2.936713E+04
       177  25  7.925698E+05 -1.319078E+05 -9.570582E+04  4.228796E+05 -4.091690E+04  3.638850E+04
       177  26  1.337286E+06 -1.102092E+03  1.785588E+04  3.387929E+05 -2.781955E+04  2.054345E+03
       177  27  1.884527E+06  1.353227E+05  1.410842E+05  4.273065E+05 -1.471534E+04 -2.946754E+04
       178   1  4.294405E+05 -2.246866E+05 -1.520455E+05  4.366829E+05 -7.628632E+04  5.220159E+04
       178   2 -1.258128E+05 -3.447955E+05 -2.496689E+05  3.109250E+05 -4.366362E+04  6.549080E+04
       178   3 -6.640474E+05 -3.803202E+05 -3.474495E+05  3.550989E+05 -1.098668E+04  2.289297E+04
       178   4  1.356617E+06 -1.392397E+03  3.855230E+04  4.241129E+05 -2.695273E+04  5.233120E+04
       178   5  1.342185E+06  1.187251E+04  6.587751E+04  3.390498E+05 -6.144130E+04  6.543703E+04
       178   6  1.356039E+06  1.212547E+05  1.395568E+05  4.238603E+05 -9.584834E+04  2.271972E+04
       178   7  2.284614E+06  2.218498E+05  2.291134E+05  4.115231E+05  2.245321E+04  5.245869E+04
       178   8  2.812209E+06  3.684022E+05  3.812993E+05  3.672404E+05 -7.926029E+04  6.538172E+04
       178   9  3.379881E+06  6.225531E+05  6.263012E+05  4.928434E+05 -1.809849E+05  2.252803E+04
       178  10  4.294335E+05 -2.246911E+05 -1.520616E+05  4.366861E+05  3.400065E-09 -9.354600E-10
       178  11 -1.258160E+05 -3.448006E+05 -2.496805E+05  3.109273E+05  2.699220E-09  4.395336E-09
       178  12 -6.640477E+05 -3.803208E+05 -3.474507E+05  3.550991E+05 -4.554199E-10  1.279421E-09
       178  13  1.356616E+06 -1.395536E+03  3.854579E+04  4.241141E+05  1.076070E-09  5.760569E-10
       178  14  1.342180E+06  1.186689E+04  6.586237E+04  3.390530E+05  1.983203E-09  3.877990E-09
       178  15  1.356029E+06  1.212517E+05  1.395386E+05  4.238621E+05  1.185727E-09 -6.739791E-10
       178  16  2.284613E+06  2.218467E+05  2.291073E+05  4.115222E+05 -2.110739E-09  1.388200E-09
       178  17  2.812201E+06  3.683959E+05  3.812795E+05  3.672446E+05 -8.309319E-10 -5.761559E-10
       178  18  3.379846E+06  6.225438E+05  6.262390E+05  4.928467E+05  2.673626E-10 -1.896070E-09
       178  19  4.294405E+05 -2.246866E+05 -1.520455E+05  4.366829E+05  7.628632E+04 -5.220159E+04
       178  20 -1.258128E+05 -3.447955E+05 -2.496689E+05  3.109250E+05  4.366362E+04 -6.549080E+04
       178  21 -6.640474E+05 -3.803202E+05 -3.474495E+05  3.550989E+05  1.098668E+04 -2.289297E+04
       178  22  1.356617E+06 -1.392397E+03  3.855230E+04  4.241129E+05  2.695273E+04 -5.233120E+04
       178  23  1.342185E+06  1.187251E+04  6.587751E+04  3.390498E+05  6.144130E+04 -6.543703E+04
       178  24  1.356039E+06  1.212547E+05  1.395568E+05  4.238603E+05  9.584834E+04 -2.271972E+04
       178  25  2.284614E+06  2.218498E+05  2.291134E+05  4.115231E+05 -2.245321E+04 -5.245869E+04
       178  26  2.812209E+06  3.684022E+05  3.812993E+05  3.672404E+05  7.926029E+04 -6.538172E+04
       178  27  3.379881E+06  6.225531E+05  6.263012E+05  4.928434E+05  1.809849E+05 -2.252803E+04
       179   1 -4.556190E+05 -1.195492E+06 -4.605597E+05  4.208675E+05 -1.595761E+04 -1.283586E+05
       179   2 -2.500255E+05 -6.951314E+05 -2.621608E+05  3.165388E+05 -4.297403E+04 -5.409231E+04
       179   3 -1.211804E+05 -2.236534E+05 -1.314298E+05  3.637216E+05 -2.815715E+04  2.018961E+04
       179   4 -8.594604E+04  2.928253E+05 -1.005951E+05  3.751052E+05 -1.585529E+04 -7.085689E+04
       179   5 -7.165695E+03  3.031405E+05 -4.603219E+04  2.992763E+05 -4.295422E+04 -4.666154E+04
       179   6  3.655492E+03  2.931134E+05 -2.426063E+04  3.749672E+05 -2.824344E+04 -2.251135E+04
       179   7  2.835748E+05  1.783181E+06  2.592242E+05  3.292314E+05 -1.576162E+04 -1.321738E+04
       179   8  2.356295E+05  1.302349E+06  1.700377E+05  2.819852E+05 -4.293485E+04 -3.921892E+04
       179   9  1.284759E+05  8.101374E+05  8.290085E+04  3.862221E+05 -2.833124E+04 -6.524724E+04
       179  10 -4.556238E+05 -1.195510E+06 -4.605912E+05  4.208659E+05 -9.100365E-10 -2.853326E-10
       179  11 -2.500282E+05 -6.951351E+05 -2.621698E+05  3.165369E+05 -1.910513E-10  4.204515E-09
       179  12 -1.211814E+05 -2.236540E+05 -1.314320E+05  3.637220E+05  3.208028E-11  1.591438E-09
       179  13 -8.594765E+04  2.928198E+05 -1.006050E+05  3.751043E+05 -1.960452E-09 -1.011516E-09
       179  14 -7.168259E+03  3.031377E+05 -4.603974E+04  2.992747E+05  6.744558E-10 -9.902483E-12
       179  15  3.654500E+03  2.931127E+05 -2.426308E+04  3.749667E+05  7.843176E-10 -1.855017E-09
       179  16  2.835744E+05  1.783181E+06  2.592234E+05  3.292312E+05 -9.076673E-11  1.813980E-09
       179  17  2.356271E+05  1.302347E+06  1.700314E+05  2.819838E+05 -1.557403E-09 -1.101942E-09
       179  18  1.284739E+05  8.101326E+05  8.289135E+04  3.862206E+05  7.750851E-10 -6.984763E-10
       179  19 -4.556190E+05 -1.195492E+06 -4.605597E+05  4.208675E+05  1.595761E+04  1.283586E+05
       179  20 -2.500255E+05 -6.951314E+05 -2.621608E+05  3.165388E+05  4.297403E+04  5.409231E+04
       179  21 -1.211804E+05 -2.236534E+05 -1.314298E+05  3.637216E+05  2.815715E+04 -2.018961E+04
       179  22 -8.594604E+04  2.928253E+05 -1.005951E+05  3.751052E+05  1.585529E+04  7.085689E+04
       179  23 -7.165695E+03  3.031405E+05 -4.603219E+04  2.992763E+05  4.295422E+04  4.666154E+04
       179  24  3.655492E+03  2.931134E+05 -2.426063E+04  3.749672E+05  2.824344E+04  2.251135E+04
       179  25  2.835748E+05  1.783181E+06  2.592242E+05  3.292314E+05  1.576162E+04  1.321738E+04
       179  26  2.356295E+05  1.302349E+06  1.700377E+05  2.819852E+05  4.293485E+04  3.921892E+04
       179  27  1.284759E+05  8.101374E+05  8.290085E+04  3.862221E+05  2.833124E+04  6.524724E+04
       180   1 -4.257599E+04  1.308393E+05 -5.295775E+04  3.759469E+05 -7.873186E+03  1.408283E+04
       180   2  7.760296E+04  6.169584E+05  5.897885E+04  2.993579E+05  1.962970E+04  1.567508E+04
       180   3  1.969164E+05  1.102392E+06  1.695059E+05  3.762694E+05  4.623762E+04  1.727882E+04
       180   4 -2.172954E+03  2.974425E+05 -1.749079E+04  3.754373E+05 -7.944263E+03 -1.946626E+04
       180   5  9.502363E+02  2.979379E+05 -5.423229E+03  2.986793E+05  1.956619E+04 -1.680709E+04
       180   6  3.037841E+03  2.973431E+05  4.505496E+03  3.754266E+05  4.618072E+04 -1.413762E+04
       180   7  3.822888E+04  4.640743E+05  1.797879E+04  3.749276E+05 -8.015272E+03 -5.302421E+04
       180   8 -7.570822E+04 -2.098355E+04 -6.982658E+04  2.980009E+05  1.950273E+04 -4.927290E+04
       180   9 -1.908809E+05 -5.070891E+05 -1.605257E+05  3.745844E+05  4.612387E+04 -4.551411E+04
       180  10 -4.257611E+04  1.308391E+05 -5.295824E+04  3.759470E+05 -5.286765E-10 -7.906374E-10
       180  11  7.760248E+04  6.169580E+05  5.897766E+04  2.993576E+05 -7.979805E-10  3.507595E-09
       180  12  1.969140E+05  1.102391E+06  1.695013E+05  3.762687E+05 -2.403500E-10 -2.750292E-10
       180  13 -2.173124E+03  2.974421E+05 -1.749162E+04  3.754372E+05  9.993931E-10 -1.667948E-09
       180  14  9.497491E+02  2.979375E+05 -5.424480E+03  2.986795E+05  1.398032E-09  5.755632E-12
       180  15  3.035497E+03  2.973423E+05  4.501110E+03  3.754271E+05  2.004921E-10 -1.731311E-09
       180  16  3.822806E+04  4.640713E+05  1.797339E+04  3.749273E+05  1.003207E-09  3.220598E-09
       180  17 -7.570928E+04 -2.098626E+04 -6.983186E+04  2.980017E+05  8.172966E-10  4.404762E-10
       180  18 -1.908837E+05 -5.070919E+05 -1.605336E+05  3.745861E+05  8.737787E-11  1.047063E-09
       180  19 -4.257599E+04  1.308393E+05 -5.295775E+04  3.759469E+05  7.873186E+03 -1.408283E+04
       180  20  7.760296E+04  6.169584E+05  5.897885E+04  2.993579E+05 -1.962970E+04 -1.567508E+04
       180  21  1.969164E+05  1.102392E+06  1.695059E+05  3.762694E+05 -4.623762E+04 -1.727882E+04
       180  22 -2.172954E+03  2.974425E+05 -1.749079E+04  3.754373E+05  7.944263E+03  1.946626E+04
       180  23  9.502363E+02  2.979379E+05 -5.423229E+03  2.986793E+05 -1.956619E+04  1.680709E+04
       180  24  3.037841E+03  2.973431E+05  4.505496E+03  3.754266E+05 -4.618072E+04  1.413762E+04
       180  25  3.822888E+04  4.640743E+05  1.797879E+04  3.749276E+05  8.015272E+03  5.302421E+04
       180  26 -7.570822E+04 -2.098355E+04 -6.982658E+04  2.980009E+05 -1.950273E+04  4.927290E+04
       180  27 -1.908809E+05 -5.070891E+05 -1.605257E+05  3.745844E+05 -4.612387E+04  4.551411E+04
       181   1  2.779182E+05  1.456123E+06  2.456462E+05  3.705855E+05  6.708739E+04  2.949543E+04
       181   2  4.013407E+05  1.931451E+06  3.721411E+05  3.103471E+05  7.511251E+04 -5.178569E+04
       181   3  5.729044E+05  2.429846E+06  5.635107E+05  4.007294E+05  2.524303E+04 -1.331027E+05
       181   4 -3.548384E+02  2.998519E+05  9.251520E+03  3.748002E+05  6.701652E+04 -1.511045E+04
       181   5  4.279983E+03  2.941846E+05  2.209682E+04  2.994577E+05  7.516166E+04 -2.671380E+04
       181   6  4.506111E+04  2.993516E+05  5.155516E+04  3.747470E+05  2.534713E+04 -3.828743E+04
       181   7 -2.787105E+05 -8.551464E+05 -2.272064E+05  3.790060E+05  6.694496E+04 -5.963489E+04
       181   8 -3.929549E+05 -1.340563E+06 -3.281005E+05  2.885960E+05  7.521002E+04 -1.706858E+03
       181   9 -4.831049E+05 -1.826979E+06 -4.606891E+05  3.488516E+05  2.544358E+04  5.620482E+04
       181  10  2.779132E+05  1.456121E+06  2.456361E+05  3.705839E+05  7.135634E-12 -2.750400E-10
       181  11  4.013339E+05  1.931446E+06  3.721255E+05  3.103502E+05 -1.243235E-09  1.581557E-09
       181  12  5.728990E+05  2.429827E+06  5.634763E+05  4.007321E+05  1.176460E-10 -1.042744E-10
       181  13 -3.597240E+02  2.998504E+05  9.242647E+03  3.748010E+05 -7.008835E-10 -1.367339E-09
       181  14  4.273723E+03  2.941823E+05  2.208486E+04  2.994593E+05 -2.343193E-10  5.040357E-11
       181  15  4.506002E+04  2.993498E+05  5.155120E+04  3.747477E+05  2.489087E-10 -5.212319E-10
       181  16 -2.787163E+05 -8.551515E+05 -2.272216E+05  3.790092E+05 -5.264979E-10  2.065623E-09
       181  17 -3.929610E+05 -1.340565E+06 -3.281111E+05  2.885961E+05  4.959638E-10  7.640838E-10
       181  18 -4.831064E+05 -1.826982E+06 -4.606962E+05  3.488504E+05  6.304366E-10  2.645035E-10
       181  19  2.779182E+05  1.456123E+06  2.456462E+05  3.705855E+05 -6.708739E+04 -2.949543E+04
       181  20  4.013407E+05  1.931451E+06  3.721411E+05  3.103471E+05 -7.511251E+04  5.178569E+04
       181  21  5.729044E+05  2.429846E+06  5.635107E+05  4.007294E+05 -2.524303E+04  1.331027E+05
       181  22 -3.548384E+02  2.998519E+05  9.251520E+03  3.748002E+05 -6.701652E+04  1.511045E+04
       181  23  4.279983E+03  2.941846E+05  2.209682E+04  2.994577E+05 -7.516166E+04  2.671380E+04
       181  24  4.506111E+04  2.993516E+05  5.155516E+04  3.747470E+05 -2.534713E+04  3.828743E+04
       181  25 -2.787105E+05 -8.551464E+05 -2.272064E+05  3.790060E+05 -6.694496E+04  5.963489E+04
       181  26 -3.929549E+05 -1.340563E+06 -3.281005E+05  2.885960E+05 -7.521002E+04  1.706858E+03
       181  27 -4.831049E+05 -1.826979E+06 -4.606891E+05  3.488516E+05 -2.544358E+04 -5.620482E+04
       182   1  2.176431E+06  3.632189E+05  3.548042E+05  2.367323E+05  7.663390E+04 -1.688516E+04
       182   2  1.878536E+06  2.686565E+05  2.444089E+05  1.858635E+05  2.621512E+04 -5.101260E+04
       182   3  1.592592E+06  1.957549E+05  1.721767E+05  2.251230E+05 -2.422938E+04 -4.736597E+04
       182   4  7.799216E+05  1.730855E+04  1.954841E+04  2.257929E+05  1.293815E+04 -1.699102E+04
       182   5  7.780146E+05  1.907542E+03  9.589190E+03  1.807406E+05  7.991184E+03 -5.105321E+04
       182   6  7.801265E+05  3.161884E+02  6.302737E+03  2.258229E+05  2.994484E+03 -4.731202E+04
       182   7 -6.147987E+05 -3.287408E+05 -3.158305E+05  2.148772E+05 -5.061531E+04 -1.709478E+04
       182   8 -3.213689E+05 -2.649200E+05 -2.252992E+05  1.756263E+05 -1.020101E+04 -5.109355E+04
       182   9 -3.171136E+04 -1.951634E+05 -1.596033E+05  2.265213E+05  3.018344E+04 -4.725797E+04
       182  10  2.176425E+06  3.632170E+05  3.547927E+05  2.367334E+05  2.058322E-09 -1.261942E-09
       182  11  1.878535E+06  2.686535E+05  2.444027E+05  1.858645E+05 -4.264611E-10 -1.246999E-09
       182  12  1.592591E+06  1.957523E+05  1.721714E+05  2.251221E+05 -3.449112E-09 -8.745684E-10
       182  13  7.799213E+05  1.730819E+04  1.954755E+04  2.257931E+05  7.107122E-11  1.849082E-09
       182  14  7.780138E+05  1.904725E+03  9.584170E+03  1.807409E+05 -3.245683E-10 -1.063102E-09
       182  15  7.801259E+05  3.137813E+02  6.298512E+03  2.258230E+05  5.026771E-10 -1.323290E-09
       182  16 -6.148015E+05 -3.287418E+05 -3.158359E+05  2.148765E+05 -2.415401E-09  5.497116E-10
       182  17 -3.213697E+05 -2.649228E+05 -2.253043E+05  1.756258E+05 -9.594084E-10 -1.987926E-09
       182  18 -3.171294E+04 -1.951660E+05 -1.596092E+05  2.265225E+05  2.648899E-09 -2.055710E-09
       182  19  2.176431E+06  3.632189E+05  3.548042E+05  2.367323E+05 -7.663390E+04  1.688516E+04
       182  20  1.878536E+06  2.686565E+05  2.444089E+05  1.858635E+05 -2.621512E+04  5.101260E+04
       182  21  1.592592E+06  1.957549E+05  1.721767E+05  2.251230E+05  2.422938E+04  4.736597E+04
       182  22  7.799216E+05  1.730855E+04  1.954841E+04  2.257929E+05 -1.293815E+04  1.699102E+04
       182  23  7.780146E+05  1.907542E+03  9.589190E+03  1.807406E+05 -7.991184E+03  5.105321E+04
       182  24  7.801265E+05  3.161884E+02  6.302737E+03  2.258229E+05 -2.994484E+03  4.731202E+04
       182  25 -6.147987E+05 -3.287408E+05 -3.158305E+05  2.148772E+05  5.061531E+04  1.709478E+04
       182  26 -3.213689E+05 -2.649200E+05 -2.252992E+05  1.756263E+05  1.020101E+04  5.109355E+04
       182  27 -3.171136E+04 -1.951634E+05 -1.596033E+05  2.265213E+05 -3.018344E+04  4.725797E+04
       183   1  1.381366E+06  1.463883E+05  1.287144E+05  2.275005E+05 -1.628340E+04 -3.481137E+04
       183   2  1.090066E+06  7.543781E+04  6.805596E+04  1.809250E+05 -2.112533E+04 -1.861284E+04
       183   3  7.994262E+05  5.970857E+03  1.080492E+04  2.263252E+05 -2.597410E+04 -4.536437E+02
       183   4  7.793319E+05  1.495746E+03  5.559155E+03  2.262260E+05  2.019085E+03 -3.477249E+04
       183   5  7.792746E+05  7.209421E+02  4.942965E+03  1.802374E+05 -4.690173E+02 -1.856585E+04
       183   6  7.793886E+05  1.026435E+03  6.103967E+03  2.262271E+05 -2.966134E+03 -3.978229E+02
       183   7  1.776421E+05 -1.434193E+05 -1.176141E+05  2.249525E+05  2.030418E+04 -3.473366E+04
       183   8  4.685758E+05 -7.400171E+04 -5.817347E+04  1.795500E+05  2.017716E+04 -1.851889E+04
       183   9  7.593525E+05 -3.917733E+03  1.404974E+03  2.261290E+05  2.004109E+04 -3.420084E+02
       183  10  1.381365E+06  1.463869E+05  1.287116E+05  2.275001E+05 -6.749356E-10  2.690356E-09
       183  11  1.090066E+06  7.543732E+04  6.805447E+04  1.809247E+05 -7.136610E-10  2.908995E-09
       183  12  7.994255E+05  5.970676E+03  1.080365E+04  2.263252E+05 -1.569873E-09  2.531823E-09
       183  13  7.793316E+05  1.494446E+03  5.556874E+03  2.262261E+05 -6.065587E-10  3.170146E-10
       183  14  7.792745E+05  7.205718E+02  4.942316E+03  1.802374E+05 -7.648626E-12  1.559212E-09
       183  15  7.793886E+05  1.026432E+03  6.103950E+03  2.262271E+05  1.399915E-09  3.092690E-09
       183  16  1.776414E+05 -1.434207E+05 -1.176171E+05  2.249531E+05  2.359417E-09  8.989557E-10
       183  17  4.685753E+05 -7.400219E+04 -5.817488E+04  1.795503E+05  1.695500E-10 -5.002071E-09
       183  18  7.593521E+05 -3.917840E+03  1.404219E+03  2.261290E+05  1.791734E-09  4.804924E-10
       183  19  1.381366E+06  1.463883E+05  1.287144E+05  2.275005E+05  1.628340E+04  3.481137E+04
       183  20  1.090066E+06  7.543781E+04  6.805596E+04  1.809250E+05  2.112533E+04  1.861284E+04
       183  21  7.994262E+05  5.970857E+03  1.080492E+04  2.263252E+05  2.597410E+04  4.536437E+02
       183  22  7.793319E+05  1.495746E+03  5.559155E+03  2.262260E+05 -2.019085E+03  3.477249E+04
       183  23  7.792746E+05  7.209421E+02  4.942965E+03  1.802374E+05  4.690173E+02  1.856585E+04
       183  24  7.793886E+05  1.026435E+03  6.103967E+03  2.262271E+05  2.966134E+03  3.978229E+02
       183  25  1.776421E+05 -1.434193E+05 -1.176141E+05  2.249525E+05 -2.030418E+04  3.473366E+04
       183  26  4.685758E+05 -7.400171E+04 -5.817347E+04  1.795500E+05 -2.017716E+04  1.851889E+04
       183  27  7.593525E+05 -3.917733E+03  1.404974E+03  2.261290E+05 -2.004109E+04  3.420084E+02
       184   1  5.906789E+05 -4.465135E+04 -3.132499E+04  2.265489E+05 -2.724290E+04  1.088242E+04
       184   2  2.993839E+05 -1.144928E+05 -8.553374E+04  1.792639E+05 -3.040934E+04  2.897874E+04
       184   3  8.912811E+03 -1.815064E+05 -1.370803E+05  2.239694E+05 -3.356203E+04  4.486446E+04
       184   4  7.796092E+05  8.316676E+02  7.316431E+03  2.262301E+05 -4.181844E+03  1.093785E+04
       184   5  7.789653E+05  7.966255E+02  1.159645E+04  1.802335E+05 -1.001091E+04  2.902296E+04
       184   6  7.795184E+05  4.052604E+03  2.038264E+04  2.262224E+05 -1.582761E+04  4.489852E+04
       184   7  9.685746E+05  4.631274E+04  4.595796E+04  2.259111E+05  1.888610E+04  1.099325E+04
       184   8  1.258766E+06  1.160720E+05  1.087163E+05  1.812037E+05  1.040298E+04  2.906721E+04
       184   9  1.550689E+06  1.895747E+05  1.778153E+05  2.284779E+05  1.928433E+03  4.493268E+04
       184  10  5.906781E+05 -4.465168E+04 -3.132661E+04  2.265492E+05 -1.000305E-09  4.912081E-09
       184  11  2.993827E+05 -1.144939E+05 -8.553705E+04  1.792647E+05  1.661433E-10 -6.558228E-11
       184  12  8.911059E+03 -1.815089E+05 -1.370862E+05  2.239706E+05  3.289330E-09  2.679848E-09
       184  13  7.796092E+05  8.315343E+02  7.316173E+03  2.262301E+05  1.038713E-09  3.224577E-09
       184  14  7.789649E+05  7.956936E+02  1.159468E+04  1.802337E+05 -2.855162E-10  2.467990E-09
       184  15  7.795176E+05  4.050371E+03  2.037838E+04  2.262230E+05 -7.966430E-10  3.275153E-10
       184  16  9.685742E+05  4.631251E+04  4.595706E+04  2.259109E+05  2.346296E-09  2.696566E-09
       184  17  1.258766E+06  1.160710E+05  1.087145E+05  1.812035E+05 -7.057735E-10  4.038945E-10
       184  18  1.550688E+06  1.895725E+05  1.778115E+05  2.284778E+05 -3.958860E-09 -5.352794E-09
       184  19  5.906789E+05 -4.465135E+04 -3.132499E+04  2.265489E+05  2.724290E+04 -1.088242E+04
       184  20  2.993839E+05 -1.144928E+05 -8.553374E+04  1.792639E+05  3.040934E+04 -2.897874E+04
       184  21  8.912811E+03 -1.815064E+05 -1.370803E+05  2.239694E+05  3.356203E+04 -4.486446E+04
       184  22  7.796092E+05  8.316676E+02  7.316431E+03  2.262301E+05  4.181844E+03 -1.093785E+04
       184  23  7.789653E+05  7.966255E+02  1.159645E+04  1.802335E+05  1.001091E+04 -2.902296E+04
       184  24  7.795184E+05  4.052604E+03  2.038264E+04  2.262224E+05  1.582761E+04 -4.489852E+04
       184  25  9.685746E+05  4.631274E+04  4.595796E+04  2.259111E+05 -1.888610E+04 -1.099325E+04
       184  26  1.258766E+06  1.160720E+05  1.087163E+05  1.812037E+05 -1.040298E+04 -2.906721E+04
       184  27  1.550689E+06  1.895747E+05  1.778153E+05  2.284779E+05 -1.928433E+03 -4.493268E+04
       185   1 -1.974126E+05 -2.376948E+05 -1.741656E+05  2.343494E+05 -4.704084E+04  5.753872E+04
       185   2 -4.946240E+05 -2.999431E+05 -2.250990E+05  1.613862E+05 -2.023983E+04  5.961203E+04
       185   3 -7.807504E+05 -3.044135E+05 -2.790334E+05  1.783504E+05  6.596181E+03  1.957804E+04
       185   4  7.835669E+05 -1.571942E+03  2.596623E+04  2.257900E+05 -1.939668E+04  5.758871E+04
       185   5  7.735674E+05  7.827294E+03  4.532666E+04  1.807691E+05 -4.311927E+04  5.956382E+04
       185   6  7.833059E+05  8.370982E+04  9.673750E+04  2.256544E+05 -6.679638E+04  1.947286E+04
       185   7  1.765463E+06  2.344915E+05  2.260503E+05  2.172162E+05  8.290383E+03  5.763790E+04
       185   8  2.043275E+06  3.154946E+05  3.156618E+05  2.001913E+05 -6.604472E+04  5.951424E+04
       185   9  2.349618E+06  4.716663E+05  4.723560E+05  2.730770E+05 -1.403731E+05  1.935666E+04
       185  10 -1.974159E+05 -2.376989E+05 -1.741760E+05  2.343516E+05 -6.483478E-10  2.677467E-09
       185  11 -4.946254E+05 -2.999470E+05 -2.251065E+05  1.613871E+05  9.558710E-10 -9.875525E-10
       185  12 -7.807505E+05 -3.044139E+05 -2.790342E+05  1.783503E+05  1.572157E-10 -6.907792E-10
       185  13  7.835656E+05 -1.575606E+03  2.595929E+04  2.257909E+05  5.426123E-10  4.343320E-09
       185  14  7.735644E+05  7.822983E+03  4.531650E+04  1.807711E+05  4.373825E-10 -3.751376E-09
       185  15  7.833011E+05  8.370822E+04  9.672842E+04  2.256554E+05  7.640554E-10  1.915880E-09
       185  16  1.765462E+06  2.344879E+05  2.260439E+05  2.172158E+05  1.335691E-09  3.579754E-11
       185  17  2.043269E+06  3.154896E+05  3.156470E+05  2.001945E+05  4.443905E-11  1.991938E-09
       185  18  2.349597E+06  4.716606E+05  4.723184E+05  2.730792E+05 -8.254789E-10  1.606525E-10
       185  19 -1.974126E+05 -2.376948E+05 -1.741656E+05  2.343494E+05  4.704084E+04 -5.753872E+04
       185  20 -4.946240E+05 -2.999431E+05 -2.250990E+05  1.613862E+05  2.023983E+04 -5.961203E+04
       185  21 -7.807504E+05 -3.044135E+05 -2.790334E+05  1.783504E+05 -6.596181E+03 -1.957804E+04
       185  22  7.835669E+05 -1.571942E+03  2.596623E+04  2.257900E+05  1.939668E+04 -5.758871E+04
       185  23  7.735674E+05  7.827294E+03  4.532666E+04  1.807691E+05  4.311927E+04 -5.956382E+04
       185  24  7.833059E+05  8.370982E+04  9.673750E+04  2.256544E+05  6.679638E+04 -1.947286E+04
       185  25  1.765463E+06  2.344915E+05  2.260503E+05  2.172162E+05 -8.290383E+03 -5.763790E+04
       185  26  2.043275E+06  3.154946E+05  3.156618E+05  2.001913E+05  6.604472E+04 -5.951424E+04
       185  27  2.349618E+06  4.716663E+05  4.723560E+05  2.730770E+05  1.403731E+05 -1.935666E+04
       186   1 -9.894242E+05 -3.499836E+06 -9.853099E+05  7.024229E+05 -4.053012E+04 -2.601317E+05
       186   2 -6.454439E+05 -2.661303E+06 -6.325375E+05  5.297505E+05 -1.191246E+05 -1.089650E+05
       186   3 -4.286703E+05 -1.872200E+06 -4.101677E+05  6.096324E+05 -1.038498E+05  4.247440E+04
       186   4 -1.385478E+05 -7.863138E+04 -1.597751E+05  6.275701E+05 -4.046347E+04 -1.103873E+05
       186   5 -1.339007E+04 -6.281034E+04 -7.483493E+04  5.012642E+05 -1.190556E+05 -7.113188E+04
       186   6  4.394607E+03 -7.731163E+04 -4.208604E+04  6.275157E+05 -1.039333E+05 -3.181489E+04
       186   7  7.115059E+05  3.353377E+06  6.650100E+05  5.522960E+05 -4.043363E+04  4.018420E+04
       186   8  6.182248E+05  2.542055E+06  4.824795E+05  4.726532E+05 -1.189903E+05 -3.314169E+04
       186   9  4.372609E+05  1.720655E+06  3.258451E+05  6.454491E+05 -1.040209E+05 -1.063155E+05
       186  10 -9.894443E+05 -3.499909E+06 -9.854408E+05  7.024144E+05 -9.289737E-11  6.186632E-09
       186  11 -6.454623E+05 -2.661319E+06 -6.325865E+05  5.297400E+05  1.101878E-09 -1.623461E-08
       186  12 -4.286823E+05 -1.872205E+06 -4.101914E+05  6.096360E+05  3.355568E-09 -3.249417E-08
       186  13 -1.385529E+05 -7.864490E+04 -1.598011E+05  6.275665E+05 -8.361697E-11 -1.760217E-09
       186  14 -1.340664E+04 -6.281957E+04 -7.487104E+04  5.012574E+05  3.914323E-11 -1.365509E-10
       186  15  4.382741E+03 -7.731561E+04 -4.210822E+04  6.275130E+05  2.691991E-09 -8.578944E-10
       186  16  7.115037E+05  3.353375E+06  6.650039E+05  5.522973E+05  9.341018E-10 -5.620928E-09
       186  17  6.182093E+05  2.542050E+06  4.824508E+05  4.726500E+05  1.856095E-09  1.491189E-08
       186  18  4.372463E+05  1.720640E+06  3.258036E+05  6.454402E+05  3.668438E-09  3.261216E-08
       186  19 -9.894242E+05 -3.499836E+06 -9.853099E+05  7.024229E+05  4.053012E+04  2.601317E+05
       186  20 -6.454439E+05 -2.661303E+06 -6.325375E+05  5.297505E+05  1.191246E+05  1.089650E+05
       186  21 -4.286703E+05 -1.872200E+06 -4.101677E+05  6.096324E+05  1.038498E+05 -4.247440E+04
       186  22 -1.385478E+05 -7.863138E+04 -1.597751E+05  6.275701E+05  4.046347E+04  1.103873E+05
       186  23 -1.339007E+04 -6.281034E+04 -7.483493E+04  5.012642E+05  1.190556E+05  7.113188E+04
       186  24  4.394607E+03 -7.731163E+04 -4.208604E+04  6.275157E+05  1.039333E+05  3.181489E+04
       186  25  7.115059E+05  3.353377E+06  6.650100E+05  5.522960E+05  4.043363E+04 -4.018420E+04
       186  26  6.182248E+05  2.542055E+06  4.824795E+05  4.726532E+05  1.189903E+05  3.314169E+04
       186  27  4.372609E+05  1.720655E+06  3.258451E+05  6.454491E+05  1.040209E+05  1.063155E+05
       187   1 -2.956517E+05 -1.278337E+06 -2.809633E+05  6.292490E+05 -6.901404E+04  2.687493E+04
       187   2 -9.365804E+04 -4.631507E+05 -9.729315E+04  4.997971E+05 -2.415196E+04  3.702547E+04
       187   3  1.036277E+05  3.498478E+05  7.841926E+04  6.277898E+05  2.180984E+04  4.716948E+04
       187   4 -4.313602E+03 -7.078206E+04 -3.277813E+04  6.286045E+05 -6.909289E+04 -2.623923E+04
       187   5  1.028475E+03 -6.939263E+04 -1.774059E+04  4.998812E+05 -2.424208E+04 -1.742129E+04
       187   6  1.937743E+03 -7.058039E+04 -9.703257E+03  6.285939E+05  2.170613E+04 -8.622679E+03
       187   7  2.869341E+05  1.138165E+06  2.153397E+05  6.279575E+05 -6.917150E+04 -7.945498E+04
       187   8  9.570697E+04  3.245196E+05  6.181511E+04  4.999652E+05 -2.433217E+04 -7.190193E+04
       187   9 -9.976188E+04 -4.908349E+05 -9.782393E+04  6.293974E+05  2.160223E+04 -6.437768E+04
       187  10 -2.956570E+05 -1.278339E+06 -2.809736E+05  6.292505E+05  3.857596E-09  3.503937E-08
       187  11 -9.365903E+04 -4.631523E+05 -9.729683E+04  4.997978E+05  7.978599E-10  1.464225E-08
       187  12  1.036266E+05  3.498453E+05  7.841420E+04  6.277889E+05 -1.080830E-09 -6.298193E-09
       187  13 -4.318910E+03 -7.078408E+04 -3.278838E+04  6.286030E+05  3.760824E-09  1.034206E-09
       187  14  1.027763E+03 -6.939312E+04 -1.774227E+04  4.998809E+05  3.182802E-09 -4.217308E-10
       187  15  1.937216E+03 -7.058060E+04 -9.704283E+03  6.285941E+05 -7.117661E-10 -1.698516E-09
       187  16  2.869273E+05  1.138157E+06  2.153188E+05  6.279531E+05  4.284019E-09 -3.567230E-08
       187  17  9.570495E+04  3.245139E+05  6.180429E+04  4.999638E+05  2.456240E-09 -1.387656E-08
       187  18 -9.976350E+04 -4.908395E+05 -9.783261E+04  6.293985E+05 -1.635124E-09  6.598593E-09
       187  19 -2.956517E+05 -1.278337E+06 -2.809633E+05  6.292490E+05  6.901404E+04 -2.687493E+04
       187  20 -9.365804E+04 -4.631507E+05 -9.729315E+04  4.997971E+05  2.415196E+04 -3.702547E+04
       187  21  1.036277E+05  3.498478E+05  7.841926E+04  6.277898E+05 -2.180984E+04 -4.716948E+04
       187  22 -4.313602E+03 -7.078206E+04 -3.277813E+04  6.286045E+05  6.909289E+04  2.623923E+04
       187  23  1.028475E+03 -6.939263E+04 -1.774059E+04  4.998812E+05  2.424208E+04  1.742129E+04
       187  24  1.937743E+03 -7.058039E+04 -9.703257E+03  6.285939E+05 -2.170613E+04  8.622679E+03
       187  25  2.869341E+05  1.138165E+06  2.153397E+05  6.279575E+05  6.917150E+04  7.945498E+04
       187  26  9.570697E+04  3.245196E+05  6.181511E+04  4.999652E+05  2.433217E+04  7.190193E+04
       187  27 -9.976188E+04 -4.908349E+05 -9.782393E+04  6.293974E+05 -2.160223E+04  6.437768E+04
       188   1  2.445368E+05  9.383369E+05  2.012962E+05  6.284994E+05  5.598658E+04  6.480850E+04
       188   2  4.416458E+05  1.745791E+06  3.886210E+05  5.019389E+05  7.900664E+04 -2.199683E+04
       188   3  6.550579E+05  2.569812E+06  6.364703E+05  6.291078E+05  2.843841E+04 -1.089116E+05
       188   4  1.307120E+03 -7.003739E+04 -7.021627E+03  6.277821E+05  5.586588E+04 -7.253391E+03
       188   5  3.036173E+02 -7.082042E+04 -3.327022E+03  5.008940E+05  7.904369E+04 -5.562565E+03
       188   6  3.218103E+02 -7.095732E+04 -4.527513E+02  6.277814E+05  2.853566E+04 -3.867094E+03
       188   7 -2.419841E+05 -1.077437E+06 -2.153750E+05  6.270651E+05  5.574521E+04 -7.920039E+04
       188   8 -4.412556E+05 -1.884337E+06 -3.954687E+05  4.998500E+05  7.908076E+04  1.082439E+04
       188   9 -6.549172E+05 -2.705342E+06 -6.378333E+05  6.264564E+05  2.863284E+04  1.007335E+05
       188  10  2.445323E+05  9.383316E+05  2.012825E+05  6.284965E+05 -5.681993E-10  2.887068E-09
       188  11  4.416389E+05  1.745788E+06  3.886083E+05  5.019403E+05 -1.586327E-09  6.719492E-10
       188  12  6.550539E+05  2.569799E+06  6.364466E+05  6.291103E+05 -1.151195E-12  2.494094E-10
       188  13  1.303754E+03 -7.003829E+04 -7.027593E+03  6.277824E+05 -2.653177E-09  2.309770E-09
       188  14  2.968995E+02 -7.082213E+04 -3.338823E+03  5.008943E+05 -7.796500E-10 -2.696066E-10
       188  15  3.209317E+02 -7.095756E+04 -4.543101E+02  6.277815E+05 -4.342155E-10  8.474155E-10
       188  16 -2.419891E+05 -1.077445E+06 -2.153927E+05  6.270686E+05 -2.534679E-09 -3.399300E-09
       188  17 -4.412624E+05 -1.884339E+06 -3.954807E+05  4.998494E+05 -5.447104E-10 -3.751497E-10
       188  18 -6.549208E+05 -2.705353E+06 -6.378539E+05  6.264541E+05  3.073257E-10 -5.463760E-10
       188  19  2.445368E+05  9.383369E+05  2.012962E+05  6.284994E+05 -5.598658E+04 -6.480850E+04
       188  20  4.416458E+05  1.745791E+06  3.886210E+05  5.019389E+05 -7.900664E+04  2.199683E+04
       188  21  6.550579E+05  2.569812E+06  6.364703E+05  6.291078E+05 -2.843841E+04  1.089116E+05
       188  22  1.307120E+03 -7.003739E+04 -7.021627E+03  6.277821E+05 -5.586588E+04  7.253391E+03
       188  23  3.036173E+02 -7.082042E+04 -3.327022E+03  5.008940E+05 -7.904369E+04  5.562565E+03
       188  24  3.218103E+02 -7.095732E+04 -4.527513E+02  6.277814E+05 -2.853566E+04  3.867094E+03
       188  25 -2.419841E+05 -1.077437E+06 -2.153750E+05  6.270651E+05 -5.574521E+04  7.920039E+04
       188  26 -4.412556E+05 -1.884337E+06 -3.954687E+05  4.998500E+05 -7.908076E+04 -1.082439E+04
       188  27 -6.549172E+05 -2.705342E+06 -6.378333E+05  6.264564E+05 -2.863284E+04 -1.007335E+05
       189   1  1.261560E+06  2.310277E+05  2.252948E+05  1.616989E+05  4.608588E+04 -1.069906E+04
       189   2  1.055193E+06  1.692503E+05  1.528827E+05  1.275823E+05  1.431855E+04 -3.188639E+04
       189   3  8.557973E+05  1.189926E+05  1.039975E+05  1.562403E+05 -1.746348E+04 -2.858527E+04
       189   4  3.623218E+05  8.097785E+03  9.095982E+03  1.565676E+05  5.952661E+03 -1.074997E+04
       189   5  3.614486E+05  9.355531E+02  4.514963E+03  1.251840E+05  3.624842E+03 -3.190392E+04
       189   6  3.624104E+05  1.975280E+02  3.048511E+03  1.565781E+05  1.271596E+03 -2.855734E+04
       189   7 -5.361744E+05 -2.148900E+05 -2.071543E+05  1.514434E+05 -3.412274E+04 -1.080026E+04
       189   8 -3.318438E+05 -1.674105E+05 -1.438802E+05  1.227882E+05 -7.057104E+03 -3.192138E+04
       189   9 -1.307448E+05 -1.186126E+05 -9.791206E+04  1.569154E+05  1.999207E+04 -2.852937E+04
       189  10  1.261558E+06  2.310270E+05  2.252906E+05  1.616993E+05 -2.390618E-08  4.455582E-10
       189  11  1.055193E+06  1.692491E+05  1.528804E+05  1.275827E+05  7.478604E-10  4.318499E-09
       189  12  8.557967E+05  1.189917E+05  1.039954E+05  1.562399E+05  2.635838E-08  1.332345E-09
       189  13  3.623217E+05  8.097652E+03  9.095698E+03  1.565677E+05  2.979060E-10 -3.063904E-09
       189  14  3.614483E+05  9.344564E+02  4.513025E+03  1.251841E+05 -2.446967E-10 -3.908676E-09
       189  15  3.624101E+05  1.966517E+02  3.046975E+03  1.565781E+05  2.306774E-09 -7.304078E-10
       189  16 -5.361757E+05 -2.148904E+05 -2.071567E+05  1.514431E+05  2.363133E-08  4.642259E-12
       189  17 -3.318441E+05 -1.674116E+05 -1.438822E+05  1.227880E+05 -4.349554E-10  8.981393E-10
       189  18 -1.307454E+05 -1.186136E+05 -9.791434E+04  1.569159E+05 -2.581294E-08 -2.129623E-10
       189  19  1.261560E+06  2.310277E+05  2.252948E+05  1.616989E+05 -4.608588E+04  1.069906E+04
       189  20  1.055193E+06  1.692503E+05  1.528827E+05  1.275823E+05 -1.431855E+04  3.188639E+04
       189  21  8.557973E+05  1.189926E+05  1.039975E+05  1.562403E+05  1.746348E+04  2.858527E+04
       189  22  3.623218E+05  8.097785E+03  9.095982E+03  1.565676E+05 -5.952661E+03  1.074997E+04
       189  23  3.614486E+05  9.355531E+02  4.514963E+03  1.251840E+05 -3.624842E+03  3.190392E+04
       189  24  3.624104E+05  1.975280E+02  3.048511E+03  1.565781E+05 -1.271596E+03  2.855734E+04
       189  25 -5.361744E+05 -2.148900E+05 -2.071543E+05  1.514434E+05  3.412274E+04  1.080026E+04
       189  26 -3.318438E+05 -1.674105E+05 -1.438802E+05  1.227882E+05  7.057104E+03  3.192138E+04
       189  27 -1.307448E+05 -1.186126E+05 -9.791206E+04  1.569154E+05 -1.999207E+04  2.852937E+04
       190   1  7.091221E+05  8.434992E+04  7.392176E+04  1.574143E+05 -1.217232E+04 -1.991357E+04
       190   2  5.064613E+05  3.513332E+04  3.207089E+04  1.251083E+05 -1.498880E+04 -8.492664E+03
       190   3  3.041887E+05 -1.329320E+04 -7.807121E+03  1.568336E+05 -1.780776E+04  4.189135E+03
       190   4  3.620463E+05  7.414976E+02  2.747731E+03  1.568545E+05  7.917210E+02 -1.989304E+04
       190   5  3.620137E+05  3.616507E+02  2.591843E+03  1.248386E+05 -5.122819E+02 -8.468770E+03
       190   6  3.620646E+05  5.109455E+02  3.359158E+03  1.568549E+05 -1.819678E+03  4.216660E+03
       190   7  1.508507E+04 -8.287440E+04 -6.843209E+04  1.562951E+05  1.374865E+04 -1.987253E+04
       190   8  2.175864E+05 -3.441121E+04 -2.688752E+04  1.245690E+05  1.396093E+04 -8.444887E+03
       190   9  4.199443E+05  1.431503E+04  1.452624E+04  1.568762E+05  1.416986E+04  4.244185E+03
       190  10  7.091219E+05  8.434945E+04  7.392074E+04  1.574141E+05  1.556936E-09 -5.646155E-10
       190  11  5.064611E+05  3.513318E+04  3.207033E+04  1.251082E+05  1.347688E-09  4.401795E-09
       190  12  3.041883E+05 -1.329330E+04 -7.807750E+03  1.568336E+05  1.813067E-09  5.832480E-09
       190  13  3.620462E+05  7.410724E+02  2.746986E+03  1.568546E+05  1.347373E-09  5.898944E-09
       190  14  3.620137E+05  3.615736E+02  2.591708E+03  1.248386E+05  7.567725E-10 -7.441565E-09
       190  15  3.620646E+05  5.109255E+02  3.359118E+03  1.568549E+05  3.156996E-10  5.730948E-09
       190  16  1.508476E+04 -8.287487E+04 -6.843319E+04  1.562953E+05  1.240333E-11 -3.800474E-09
       190  17  2.175862E+05 -3.441134E+04 -2.688802E+04  1.245691E+05 -7.441672E-10 -8.067651E-10
       190  18  4.199440E+05  1.431496E+04  1.452583E+04  1.568762E+05 -1.264704E-09  2.995128E-09
       190  19  7.091221E+05  8.434992E+04  7.392176E+04  1.574143E+05  1.217232E+04  1.991357E+04
       190  20  5.064613E+05  3.513332E+04  3.207089E+04  1.251083E+05  1.498880E+04  8.492664E+03
       190  21  3.041887E+05 -1.329320E+04 -7.807121E+03  1.568336E+05  1.780776E+04 -4.189135E+03
       190  22  3.620463E+05  7.414976E+02  2.747731E+03  1.568545E+05 -7.917210E+02  1.989304E+04
       190  23  3.620137E+05  3.616507E+02  2.591843E+03  1.248386E+05  5.122819E+02  8.468770E+03
       190  24  3.620646E+05  5.109455E+02  3.359158E+03  1.568549E+05  1.819678E+03 -4.216660E+03
       190  25  1.508507E+04 -8.287440E+04 -6.843209E+04  1.562951E+05 -1.374865E+04  1.987253E+04
       190  26  2.175864E+05 -3.441121E+04 -2.688752E+04  1.245690E+05 -1.396093E+04  8.444887E+03
       190  27  4.199443E+05  1.431503E+04  1.452624E+04  1.568762E+05 -1.416986E+04 -4.244185E+03
       191   1  1.588493E+05 -4.853784E+04 -3.726761E+04  1.569811E+05 -1.856569E+04  1.208392E+04
       191   2 -4.379951E+04 -9.714563E+04 -7.551054E+04  1.242739E+05 -1.989526E+04  2.465336E+04
       191   3 -2.460354E+05 -1.442415E+05 -1.125600E+05  1.555937E+05 -2.121746E+04  3.557633E+04
       191   4  3.621979E+05  3.907110E+02  4.088923E+03  1.568537E+05 -2.492235E+03  1.211101E+04
       191   5  3.618122E+05  3.851223E+02  6.590272E+03  1.248401E+05 -5.801493E+03  2.467428E+04
       191   6  3.621455E+05  2.237179E+03  1.165931E+04  1.568506E+05 -9.103827E+03  3.559172E+04
       191   7  5.655864E+05  4.931682E+04  4.544426E+04  1.567262E+05  1.358639E+04  1.213809E+04
       191   8  7.675810E+05  9.790577E+04  8.868331E+04  1.254065E+05  8.301311E+03  2.469522E+04
       191   9  9.706783E+05  1.486927E+05  1.358597E+05  1.581087E+05  3.021466E+03  3.560714E+04
       191  10  1.588489E+05 -4.853809E+04 -3.726853E+04  1.569813E+05  4.651263E-09 -7.474663E-10
       191  11 -4.380010E+04 -9.714639E+04 -7.551243E+04  1.242743E+05  2.390249E-09 -3.374373E-09
       191  12 -2.460362E+05 -1.442429E+05 -1.125633E+05  1.555943E+05 -3.107527E-10 -1.797043E-09
       191  13  3.621979E+05  3.905518E+02  4.088636E+03  1.568537E+05  5.453908E-10  2.139136E-11
       191  14  3.618120E+05  3.844594E+02  6.589065E+03  1.248402E+05  8.623736E-10 -5.352900E-09
       191  15  3.621451E+05  2.235796E+03  1.165678E+04  1.568509E+05  6.176407E-10 -1.203728E-09
       191  16  5.655862E+05  4.931661E+04  4.544364E+04  1.567261E+05 -3.873594E-09 -1.021377E-09
       191  17  7.675808E+05  9.790509E+04  8.868203E+04  1.254064E+05 -1.003514E-09  1.869269E-09
       191  18  9.706779E+05  1.486914E+05  1.358573E+05  1.581086E+05  1.358650E-09  3.399946E-09
       191  19  1.588493E+05 -4.853784E+04 -3.726761E+04  1.569811E+05  1.856569E+04 -1.208392E+04
       191  20 -4.379951E+04 -9.714563E+04 -7.551054E+04  1.242739E+05  1.989526E+04 -2.465336E+04
       191  21 -2.460354E+05 -1.442415E+05 -1.125600E+05  1.555937E+05  2.121746E+04 -3.557633E+04
       191  22  3.621979E+05  3.907110E+02  4.088923E+03  1.568537E+05  2.492235E+03 -1.211101E+04
       191  23  3.618122E+05  3.851223E+02  6.590272E+03  1.248401E+05  5.801493E+03 -2.467428E+04
       191  24  3.621455E+05  2.237179E+03  1.165931E+04  1.568506E+05  9.103827E+03 -3.559172E+04
       191  25  5.655864E+05  4.931682E+04  4.544426E+04  1.567262E+05 -1.358639E+04 -1.213809E+04
       191  26  7.675810E+05  9.790577E+04  8.868331E+04  1.254065E+05 -8.301311E+03 -2.469522E+04
       191  27  9.706783E+05  1.486927E+05  1.358597E+05  1.581087E+05 -3.021466E+03 -3.560714E+04
       192   1 -3.901651E+05 -1.826833E+05 -1.390143E+05  1.614918E+05 -3.058101E+04  4.446887E+04
       192   2 -5.954745E+05 -2.271332E+05 -1.773116E+05  1.142498E+05 -6.852927E+03  4.515893E+04
       192   3 -7.958600E+05 -2.399132E+05 -2.231351E+05  1.294549E+05  1.688934E+04  1.472290E+04
       192   4  3.644684E+05 -9.892615E+02  1.487176E+04  1.565095E+05 -1.114199E+04  4.449204E+04
       192   5  3.587282E+05  4.430281E+03  2.599701E+04  1.252646E+05 -2.474670E+04  4.513339E+04
       192   6  3.643401E+05  4.797538E+04  5.551438E+04  1.564571E+05 -3.832992E+04  1.467148E+04
       192   7  1.119644E+06  1.806695E+05  1.687293E+05  1.515207E+05  8.320241E+03  4.451489E+04
       192   8  1.313790E+06  2.359351E+05  2.292544E+05  1.362963E+05 -4.266756E+04  4.510724E+04
       192   9  1.525781E+06  3.357703E+05  3.340801E+05  1.835097E+05 -9.365202E+04  1.461532E+04
       192  10 -3.901667E+05 -1.826857E+05 -1.390198E+05  1.614929E+05  1.732472E-09 -4.777423E-09
       192  11 -5.954751E+05 -2.271354E+05 -1.773155E+05  1.142500E+05  3.130088E-10  8.902365E-10
       192  12 -7.958604E+05 -2.399135E+05 -2.231360E+05  1.294547E+05  1.679888E-10  4.738998E-10
       192  13  3.644677E+05 -9.914210E+02  1.486781E+04  1.565099E+05 -8.775664E-12  3.525637E-10
       192  14  3.587270E+05  4.427929E+03  2.599203E+04  1.252655E+05  3.990444E-10 -2.971675E-09
       192  15  3.643385E+05  4.797475E+04  5.551122E+04  1.564576E+05  5.684847E-10 -4.807794E-10
       192  16  1.119644E+06  1.806674E+05  1.687255E+05  1.515204E+05 -6.307183E-10  1.663151E-09
       192  17  1.313787E+06  2.359324E+05  2.292472E+05  1.362978E+05 -3.056495E-10  3.596099E-09
       192  18  1.525772E+06  3.357678E+05  3.340632E+05  1.835108E+05 -1.990617E-11  6.484715E-10
       192  19 -3.901651E+05 -1.826833E+05 -1.390143E+05  1.614918E+05  3.058101E+04 -4.446887E+04
       192  20 -5.954745E+05 -2.271332E+05 -1.773116E+05  1.142498E+05  6.852927E+03 -4.515893E+04
       192  21 -7.958600E+05 -2.399132E+05 -2.231351E+05  1.294549E+05 -1.688934E+04 -1.472290E+04
       192  22  3.644684E+05 -9.892615E+02  1.487176E+04  1.565095E+05  1.114199E+04 -4.449204E+04
       192  23  3.587282E+05  4.430281E+03  2.599701E+04  1.252646E+05  2.474670E+04 -4.513339E+04
       192  24  3.643401E+05  4.797538E+04  5.551438E+04  1.564571E+05  3.832992E+04 -1.467148E+04
       192  25  1.119644E+06  1.806695E+05  1.687293E+05  1.515207E+05 -8.320241E+03 -4.451489E+04
       192  26  1.313790E+06  2.359351E+05  2.292544E+05  1.362963E+05  4.266756E+04 -4.510724E+04
       192  27  1.525781E+06  3.357703E+05  3.340801E+05  1.835097E+05  9.365202E+04 -1.461532E+04
       193   1 -6.955038E+05 -2.617971E+06 -6.920480E+05  5.088267E+05 -2.844291E+04 -1.785043E+05
       193   2 -4.524782E+05 -2.006093E+06 -4.421401E+05  3.855502E+05 -8.319292E+04 -7.247671E+04
       193   3 -2.955680E+05 -1.428451E+06 -2.828895E+05  4.469177E+05 -7.130749E+04  3.369669E+04
       193   4 -9.254009E+04 -1.925729E+05 -1.068850E+05  4.584937E+05 -2.842017E+04 -7.328494E+04
       193   5 -8.847306E+03 -1.819289E+05 -5.046437E+04  3.661640E+05 -8.316203E+04 -4.684364E+04
       193   6  2.745411E+03 -1.918897E+05 -2.917927E+04  4.584779E+05 -7.134636E+04 -2.036450E+04
       193   7  5.100091E+05  2.238250E+06  4.779003E+05  4.079607E+05 -2.841472E+04  3.234580E+04
       193   8  4.345671E+05  1.645373E+06  3.410197E+05  3.467188E+05 -8.313282E+04 -2.113598E+04
       193   9  3.009646E+05  1.046132E+06  2.244605E+05  4.700608E+05 -7.138719E+04 -7.453159E+04
       193  10 -6.955133E+05 -2.618006E+06 -6.921096E+05  5.088226E+05 -7.730753E-10  1.540178E-09
       193  11 -4.524871E+05 -2.006100E+06 -4.421630E+05  3.855453E+05 -7.123547E-10  6.725224E-10
       193  12 -2.955737E+05 -1.428453E+06 -2.829012E+05  4.469196E+05 -3.590273E-10  1.220116E-09
       193  13 -9.254239E+04 -1.925789E+05 -1.068966E+05  4.584920E+05 -6.861557E-10  1.157790E-09
       193  14 -8.855318E+03 -1.819331E+05 -5.048148E+04  3.661609E+05  4.545355E-10 -8.194215E-10
       193  15  2.739836E+03 -1.918915E+05 -2.918961E+04  4.584768E+05 -5.091354E-10  9.023913E-10
       193  16  5.100079E+05  2.238249E+06  4.778968E+05  4.079615E+05  1.699279E-10  2.926492E-10
       193  17  4.345595E+05  1.645371E+06  3.410059E+05  3.467174E+05  6.402196E-10 -7.296052E-10
       193  18  3.009576E+05  1.046125E+06  2.244405E+05  4.700566E+05 -3.599017E-11 -4.720524E-10
       193  19 -6.955038E+05 -2.617971E+06 -6.920480E+05  5.088267E+05  2.844291E+04  1.785043E+05
       193  20 -4.524782E+05 -2.006093E+06 -4.421401E+05  3.855502E+05  8.319292E+04  7.247671E+04
       193  21 -2.955680E+05 -1.428451E+06 -2.828895E+05  4.469177E+05  7.130749E+04 -3.369669E+04
       193  22 -9.254009E+04 -1.925729E+05 -1.068850E+05  4.584937E+05  2.842017E+04  7.328494E+04
       193  23 -8.847306E+03 -1.819289E+05 -5.046437E+04  3.661640E+05  8.316203E+04  4.684364E+04
       193  24  2.745411E+03 -1.918897E+05 -2.917927E+04  4.584779E+05  7.134636E+04  2.036450E+04
       193  25  5.100091E+05  2.238250E+06  4.779003E+05  4.079607E+05  2.841472E+04 -3.234580E+04
       193  26  4.345671E+05  1.645373E+06  3.410197E+05  3.467188E+05  8.313282E+04  2.113598E+04
       193  27  3.009646E+05  1.046132E+06  2.244605E+05  4.700608E+05  7.138719E+04  7.453159E+04
       194   1 -1.978740E+05 -9.948377E+05 -1.893820E+05  4.601307E+05 -4.591624E+04  2.265925E+04
       194   2 -5.070885E+04 -3.990498E+05 -5.730524E+04  3.652191E+05 -1.303522E+04  3.053884E+04
       194   3  9.256966E+04  1.949752E+05  6.859446E+04  4.584287E+05  2.044047E+04  3.841817E+04
       194   4 -3.096469E+03 -1.875686E+05 -2.331315E+04  4.592498E+05 -4.595416E+04 -1.640380E+04
       194   5  3.936815E+02 -1.865431E+05 -1.437078E+04  3.651889E+05 -1.307733E+04 -9.246176E+03
       194   6  1.449912E+02 -1.874885E+05 -1.108898E+04  4.592463E+05  2.039301E+04 -2.096075E+03
       194   7  1.916408E+05  6.203231E+05  1.427265E+05  4.583674E+05 -4.599193E+04 -5.551680E+04
       194   8  5.149426E+04  2.601006E+04  2.856731E+04  3.651587E+05 -1.311943E+04 -4.904456E+04
       194   9 -9.228812E+04 -5.698102E+05 -9.077431E+04  4.600632E+05  2.034543E+04 -4.258578E+04
       194  10 -1.978764E+05 -9.948388E+05 -1.893869E+05  4.601316E+05  6.166630E-11 -1.429426E-09
       194  11 -5.070928E+04 -3.990508E+05 -5.730731E+04  3.652195E+05 -5.279687E-10  6.574355E-10
       194  12  9.256882E+04  1.949735E+05  6.859091E+04  4.584281E+05  3.684930E-10  1.418337E-09
       194  13 -3.098808E+03 -1.875694E+05 -2.331762E+04  4.592492E+05  7.096259E-10 -6.427917E-10
       194  14  3.934750E+02 -1.865432E+05 -1.437126E+04  3.651888E+05  1.027936E-09 -5.978436E-10
       194  15  1.445435E+02 -1.874886E+05 -1.108977E+04  4.592463E+05  9.192165E-10 -3.706330E-10
       194  16  1.916377E+05  6.203192E+05  1.427167E+05  4.583653E+05  1.304644E-10  6.381199E-10
       194  17  5.149343E+04  2.600743E+04  2.856247E+04  3.651581E+05 -1.709007E-10 -5.744114E-10
       194  18 -9.228906E+04 -5.698123E+05 -9.077850E+04  4.600639E+05  1.375078E-10 -1.946038E-09
       194  19 -1.978740E+05 -9.948377E+05 -1.893820E+05  4.601307E+05  4.591624E+04 -2.265925E+04
       194  20 -5.070885E+04 -3.990498E+05 -5.730524E+04  3.652191E+05  1.303522E+04 -3.053884E+04
       194  21  9.256966E+04  1.949752E+05  6.859446E+04  4.584287E+05 -2.044047E+04 -3.841817E+04
       194  22 -3.096469E+03 -1.875686E+05 -2.331315E+04  4.592498E+05  4.595416E+04  1.640380E+04
       194  23  3.936815E+02 -1.865431E+05 -1.437078E+04  3.651889E+05  1.307733E+04  9.246176E+03
       194  24  1.449912E+02 -1.874885E+05 -1.108898E+04  4.592463E+05 -2.039301E+04  2.096075E+03
       194  25  1.916408E+05  6.203231E+05  1.427265E+05  4.583674E+05  4.599193E+04  5.551680E+04
       194  26  5.149426E+04  2.601006E+04  2.856731E+04  3.651587E+05  1.311943E+04  4.904456E+04
       194  27 -9.228812E+04 -5.698102E+05 -9.077431E+04  4.600632E+05 -2.034543E+04  4.258578E+04
       195   1  1.968843E+05  6.240407E+05  1.568960E+05  4.611817E+05  4.547477E+04  5.250788E+04
       195   2  3.389637E+05  1.215946E+06  2.896487E+05  3.622260E+05  6.156916E+04 -7.868194E+03
       195   3  4.780424E+05  1.815745E+06  4.609628E+05  4.485485E+05  2.196280E+04 -6.831152E+04
       195   4  1.008505E+03 -1.880539E+05 -1.059545E+04  4.586217E+05  4.542070E+04 -3.641710E+02
       195   5 -1.746195E+03 -1.862944E+05 -1.258510E+04  3.659707E+05  6.158897E+04  6.194069E+03
       195   6 -1.909819E+04 -1.885744E+05 -2.245110E+04  4.586296E+05  2.199828E+04  1.274236E+04
       195   7 -1.949074E+05 -9.995173E+05 -1.781120E+05  4.560646E+05  4.536700E+04 -5.316832E+04
       195   8 -3.425853E+05 -1.586690E+06 -3.149339E+05  3.697060E+05  6.160899E+04  2.022504E+04
       195   9 -5.165281E+05 -2.189212E+06 -5.061277E+05  4.686765E+05  2.203652E+04  9.353600E+04
       195  10  1.968813E+05  6.240372E+05  1.568870E+05  4.611798E+05  3.906944E-10 -2.353155E-09
       195  11  3.389596E+05  1.215945E+06  2.896414E+05  3.622264E+05 -7.458775E-10  7.042876E-10
       195  12  4.780406E+05  1.815740E+06  4.609532E+05  4.485497E+05 -1.073944E-10 -1.116170E-09
       195  13  1.006290E+03 -1.880545E+05 -1.059933E+04  4.586217E+05  1.761518E-10 -6.738685E-10
       195  14 -1.750278E+03 -1.862955E+05 -1.259230E+04  3.659704E+05  3.253530E-10 -2.691063E-10
       195  15 -1.909875E+04 -1.885748E+05 -2.245231E+04  4.586294E+05  2.840003E-11  8.461958E-10
       195  16 -1.949104E+05 -9.995209E+05 -1.781212E+05  4.560666E+05  8.821549E-11  1.150395E-09
       195  17 -3.425894E+05 -1.586691E+06 -3.149418E+05  3.697050E+05 -4.485164E-10 -7.154164E-10
       195  18 -5.165310E+05 -2.189221E+06 -5.061451E+05  4.686749E+05 -1.675617E-10 -1.348270E-09
       195  19  1.968843E+05  6.240407E+05  1.568960E+05  4.611817E+05 -4.547477E+04 -5.250788E+04
       195  20  3.389637E+05  1.215946E+06  2.896487E+05  3.622260E+05 -6.156916E+04  7.868194E+03
       195  21  4.780424E+05  1.815745E+06  4.609628E+05  4.485485E+05 -2.196280E+04  6.831152E+04
       195  22  1.008505E+03 -1.880539E+05 -1.059545E+04  4.586217E+05 -4.542070E+04  3.641710E+02
       195  23 -1.746195E+03 -1.862944E+05 -1.258510E+04  3.659707E+05 -6.158897E+04 -6.194069E+03
       195  24 -1.909819E+04 -1.885744E+05 -2.245110E+04  4.586296E+05 -2.199828E+04 -1.274236E+04
       195  25 -1.949074E+05 -9.995173E+05 -1.781120E+05  4.560646E+05 -4.536700E+04  5.316832E+04
       195  26 -3.425853E+05 -1.586690E+06 -3.149339E+05  3.697060E+05 -6.160899E+04 -2.022504E+04
       195  27 -5.165281E+05 -2.189212E+06 -5.061277E+05  4.686765E+05 -2.203652E+04 -9.353600E+04
       196   1  4.550805E+05  8.813154E+04  8.588755E+04  7.740487E+04  1.544361E+04 -3.876878E+03
       196   2  3.548614E+05  6.056942E+04  5.448973E+04  6.144396E+04  3.298558E+03 -1.099642E+04
       196   3  2.570267E+05  3.632631E+04  3.181899E+04  7.627158E+04 -8.850426E+03 -8.434366E+03
       196   4  1.066804E+05  1.666042E+03  1.853097E+03  7.634524E+04  1.093971E+03 -3.887399E+03
       196   5  1.065094E+05  2.159630E+02  1.011270E+03  6.095123E+04  5.742542E+02 -1.099885E+04
       196   6  1.066958E+05  6.843814E+01  8.275889E+02  7.634641E+04  4.847032E+01 -8.426982E+03
       196   7 -2.416083E+05 -8.480820E+04 -8.218926E+04  7.528618E+04 -1.324765E+04 -3.897875E+03
       196   8 -1.417846E+05 -6.014155E+04 -5.247078E+04  6.045870E+04 -2.148975E+03 -1.100128E+04
       196   9 -4.361363E+04 -3.619081E+04 -3.016473E+04  7.642122E+04  8.945250E+03 -8.419595E+03
       196  10  4.550802E+05  8.813146E+04  8.588707E+04  7.740492E+04  1.524759E-10  2.419919E-10
       196  11  3.548613E+05  6.056929E+04  5.448948E+04  6.144399E+04 -3.121526E-10 -6.060768E-10
       196  12  2.570266E+05  3.632621E+04  3.181871E+04  7.627152E+04 -3.456495E-10  4.559298E-10
       196  13  1.066804E+05  1.666026E+03  1.853066E+03  7.634524E+04  7.438946E-11  2.605143E-09
       196  14  1.065094E+05  2.158330E+02  1.011042E+03  6.095124E+04  3.574163E-10 -2.442339E-10
       196  15  1.066957E+05  6.836188E+01  8.274554E+02  7.634641E+04 -4.382304E-11 -4.881911E-10
       196  16 -2.416085E+05 -8.480827E+04 -8.218962E+04  7.528614E+04 -1.702497E-10 -3.301390E-10
       196  17 -1.417847E+05 -6.014168E+04 -5.247102E+04  6.045868E+04  8.915854E-11 -2.767306E-09
       196  18 -4.361373E+04 -3.619091E+04 -3.016502E+04  7.642128E+04  9.643244E-11 -5.896889E-10
       196  19  4.550805E+05  8.813154E+04  8.588755E+04  7.740487E+04 -1.544361E+04  3.876878E+03
       196  20  3.548614E+05  6.056942E+04  5.448973E+04  6.144396E+04 -3.298558E+03  1.099642E+04
       196  21  2.570267E+05  3.632631E+04  3.181899E+04  7.627158E+04  8.850426E+03  8.434366E+03
       196  22  1.066804E+05  1.666042E+03  1.853097E+03  7.634524E+04 -1.093971E+03  3.887399E+03
       196  23  1.065094E+05  2.159630E+02  1.011270E+03  6.095123E+04 -5.742542E+02  1.099885E+04
       196  24  1.066958E+05  6.843814E+01  8.275889E+02  7.634641E+04 -4.847032E+01  8.426982E+03
       196  25 -2.416083E+05 -8.480820E+04 -8.218926E+04  7.528618E+04  1.324765E+04  3.897875E+03
       196  26 -1.417846E+05 -6.014155E+04 -5.247078E+04  6.045870E+04  2.148975E+03  1.100128E+04
       196  27 -4.361363E+04 -3.619081E+04 -3.016473E+04  7.642122E+04 -8.945250E+03  8.419595E+03
       197   1  1.855753E+05  1.923990E+04  1.723965E+04  7.655796E+04 -6.718567E+03 -4.279862E+03
       197   2  8.658246E+04 -4.690836E+03 -2.797798E+03  6.084600E+04 -7.820903E+03  1.479619E+03
       197   3 -1.225445E+04 -2.838069E+04 -2.207267E+04  7.643354E+04 -8.923277E+03  7.721927E+03
       197   4  1.066303E+05  1.746294E+02  8.457174E+02  7.645955E+04 -9.464991E+01 -4.274173E+03
       197   5  1.066059E+05  8.216694E+01  1.046272E+03  6.080984E+04 -6.179754E+02  1.485719E+03
       197   6  1.066290E+05  1.309611E+02  1.607872E+03  7.645957E+04 -1.141499E+03  7.728461E+03
       197   7  2.769124E+04 -1.889102E+04 -1.554839E+04  7.636116E+04  6.528439E+03 -4.268486E+03
       197   8  1.266298E+05  4.855174E+03  4.890518E+03  6.077368E+04  6.585179E+03  1.491818E+03
       197   9  2.255261E+05  2.864178E+04  2.528794E+04  7.648560E+04  6.641739E+03  7.734995E+03
       197  10  1.855752E+05  1.923987E+04  1.723953E+04  7.655794E+04 -2.198755E-09  2.496427E-10
       197  11  8.658239E+04 -4.690855E+03 -2.797917E+03  6.084601E+04  2.767785E-10 -1.164547E-09
       197  12 -1.225455E+04 -2.838078E+04 -2.207294E+04  7.643360E+04  2.443391E-09 -1.224570E-10
       197  13  1.066302E+05  1.746098E+02  8.456830E+02  7.645955E+04 -2.961064E-12 -2.856660E-10
       197  14  1.066059E+05  8.216447E+01  1.046267E+03  6.080984E+04 -4.408525E-10 -1.701794E-09
       197  15  1.066290E+05  1.308966E+02  1.607757E+03  7.645958E+04 -8.945478E-11 -2.211860E-09
       197  16  2.769119E+04 -1.889105E+04 -1.554851E+04  7.636118E+04  2.478636E-09  3.612377E-10
       197  17  1.266298E+05  4.855160E+03  4.890433E+03  6.077367E+04 -5.069247E-10 -1.544051E-09
       197  18  2.255260E+05  2.864171E+04  2.528774E+04  7.648556E+04 -2.604912E-09  5.261037E-10
       197  19  1.855753E+05  1.923990E+04  1.723965E+04  7.655796E+04  6.718567E+03  4.279862E+03
       197  20  8.658246E+04 -4.690836E+03 -2.797798E+03  6.084600E+04  7.820903E+03 -1.479619E+03
       197  21 -1.225445E+04 -2.838069E+04 -2.207267E+04  7.643354E+04  8.923277E+03 -7.721927E+03
       197  22  1.066303E+05  1.746294E+02  8.457174E+02  7.645955E+04  9.464991E+01  4.274173E+03
       197  23  1.066059E+05  8.216694E+01  1.046272E+03  6.080984E+04  6.179754E+02 -1.485719E+03
       197  24  1.066290E+05  1.309611E+02  1.607872E+03  7.645957E+04  1.141499E+03 -7.728461E+03
       197  25  2.769124E+04 -1.889102E+04 -1.554839E+04  7.636116E+04 -6.528439E+03  4.268486E+03
       197  26  1.266298E+05  4.855174E+03  4.890518E+03  6.077368E+04 -6.585179E+03 -1.491818E+03
       197  27  2.255261E+05  2.864178E+04  2.528794E+04  7.648560E+04 -6.641739E+03 -7.734995E+03
       198   1 -8.326216E+04 -4.562335E+04 -3.638904E+04  7.655353E+04 -9.351535E+03  1.158097E+04
       198   2 -1.823019E+05 -6.933917E+04 -5.491261E+04  6.060519E+04 -9.959695E+03  1.768235E+04
       198   3 -2.810964E+05 -9.230490E+04 -7.286193E+04  7.593936E+04 -1.056550E+04  2.284487E+04
       198   4  1.067097E+05  5.831007E+01  2.049714E+03  7.645576E+04 -1.467878E+03  1.158725E+04
       198   5  1.064850E+05  9.773344E+01  3.467684E+03  6.081458E+04 -3.203647E+03  1.768674E+04
       198   6  1.066916E+05  1.083226E+03  6.242608E+03  7.645495E+04 -4.937161E+03  2.284759E+04
       198   7  2.967161E+05  4.573777E+04  4.048683E+04  7.635796E+04  6.418147E+03  1.159353E+04
       198   8  3.953515E+05  6.952949E+04  6.184384E+04  6.102405E+04  3.555484E+03  1.769113E+04
       198   9  4.946227E+05  9.446197E+04  8.533934E+04  7.697084E+04  6.946355E+02  2.285033E+04
       198  10 -8.326229E+04 -4.562352E+04 -3.638946E+04  7.655361E+04 -2.395783E-12 -1.212675E-09
       198  11 -1.823021E+05 -6.933953E+04 -5.491338E+04  6.060534E+04  9.443483E-09  7.317752E-10
       198  12 -2.810966E+05 -9.230549E+04 -7.286312E+04  7.593955E+04  1.714665E-08  9.190221E-11
       198  13  1.067097E+05  5.816530E+01  2.049458E+03  7.645577E+04 -7.817172E-11 -2.712694E-09
       198  14  1.064849E+05  9.739474E+01  3.467077E+03  6.081463E+04 -6.945172E-11  2.990968E-09
       198  15  1.066915E+05  1.082659E+03  6.241581E+03  7.645504E+04  1.129520E-09  1.647068E-09
       198  16  2.967160E+05  4.573761E+04  4.048650E+04  7.635790E+04 -3.375106E-10 -3.577980E-09
       198  17  3.953514E+05  6.952915E+04  6.184323E+04  6.102400E+04 -1.029137E-08 -4.920373E-09
       198  18  4.946226E+05  9.446141E+04  8.533836E+04  7.697083E+04 -1.629043E-08  1.302141E-09
       198  19 -8.326216E+04 -4.562335E+04 -3.638904E+04  7.655353E+04  9.351535E+03 -1.158097E+04
       198  20 -1.823019E+05 -6.933917E+04 -5.491261E+04  6.060519E+04  9.959695E+03 -1.768235E+04
       198  21 -2.810964E+05 -9.230490E+04 -7.286193E+04  7.593936E+04  1.056550E+04 -2.284487E+04
       198  22  1.067097E+05  5.831007E+01  2.049714E+03  7.645576E+04  1.467878E+03 -1.158725E+04
       198  23  1.064850E+05  9.773344E+01  3.467684E+03  6.081458E+04  3.203647E+03 -1.768674E+04
       198  24  1.066916E+05  1.083226E+03  6.242608E+03  7.645495E+04  4.937161E+03 -2.284759E+04
       198  25  2.967161E+05  4.573777E+04  4.048683E+04  7.635796E+04 -6.418147E+03 -1.159353E+04
       198  26  3.953515E+05  6.952949E+04  6.184384E+04  6.102405E+04 -3.555484E+03 -1.769113E+04
       198  27  4.946227E+05  9.446197E+04  8.533934E+04  7.697084E+04 -6.946355E+02 -2.285033E+04
       199   1 -3.514805E+05 -1.112538E+05 -8.556883E+04  7.914691E+04 -1.577333E+04  2.727426E+04
       199   2 -4.518146E+05 -1.327044E+05 -1.043462E+05  5.535242E+04 -2.125037E+03  2.666595E+04
       199   3 -5.496593E+05 -1.372877E+05 -1.277867E+05  6.192903E+04  1.152484E+04  8.559895E+03
       199   4  1.079432E+05 -6.474709E+02  7.987653E+03  7.625459E+04 -6.023714E+03  2.727881E+04
       199   5  1.048661E+05  2.335648E+03  1.402125E+04  6.106452E+04 -1.336362E+04  2.665886E+04
       199   6  1.079078E+05  2.582193E+04  2.996618E+04  7.624288E+04 -2.069959E+04  8.548649E+03
       199   7  5.675679E+05  1.099457E+05  1.015334E+05  7.336005E+04  3.732991E+03  2.728327E+04
       199   8  6.618392E+05  1.373558E+05  1.323714E+05  6.678178E+04 -2.461214E+04  2.665157E+04
       199   9  7.658738E+05  1.889015E+05  1.876924E+05  9.057191E+04 -5.295803E+04  8.535925E+03
       199  10 -3.514810E+05 -1.112546E+05 -8.557070E+04  7.914726E+04 -1.624931E-08  2.282065E-10
       199  11 -4.518148E+05 -1.327052E+05 -1.043475E+05  5.535246E+04 -7.892475E-09  2.308567E-09
       199  12 -5.496594E+05 -1.372879E+05 -1.277871E+05  6.192895E+04  3.106069E-09  6.584856E-10
       199  13  1.079430E+05 -6.482797E+02  7.986187E+03  7.625472E+04  5.402226E-10  2.390636E-09
       199  14  1.048657E+05  2.334837E+03  1.401958E+04  6.106481E+04 -4.917511E-10 -1.729722E-09
       199  15  1.079073E+05  2.582174E+04  2.996524E+04  7.624302E+04  8.462366E-10 -8.713262E-10
       199  16  5.675677E+05  1.099449E+05  1.015320E+05  7.335996E+04  1.672822E-08  2.483233E-09
       199  17  6.618384E+05  1.373549E+05  1.323689E+05  6.678230E+04  8.050618E-09  2.270075E-09
       199  18  7.658707E+05  1.889007E+05  1.876870E+05  9.057228E+04 -3.445813E-09 -3.879676E-11
       199  19 -3.514805E+05 -1.112538E+05 -8.556883E+04  7.914691E+04  1.577333E+04 -2.727426E+04
       199  20 -4.518146E+05 -1.327044E+05 -1.043462E+05  5.535242E+04  2.125037E+03 -2.666595E+04
       199  21 -5.496593E+05 -1.372877E+05 -1.277867E+05  6.192903E+04 -1.152484E+04 -8.559895E+03
       199  22  1.079432E+05 -6.474709E+02  7.987653E+03  7.625459E+04  6.023714E+03 -2.727881E+04
       199  23  1.048661E+05  2.335648E+03  1.402125E+04  6.106452E+04  1.336362E+04 -2.665886E+04
       199  24  1.079078E+05  2.582193E+04  2.996618E+04  7.624288E+04  2.069959E+04 -8.548649E+03
       199  25  5.675679E+05  1.099457E+05  1.015334E+05  7.336005E+04 -3.732991E+03 -2.728327E+04
       199  26  6.618392E+05  1.373558E+05  1.323714E+05  6.678178E+04  2.461214E+04 -2.665157E+04
       199  27  7.658738E+05  1.889015E+05  1.876924E+05  9.057191E+04  5.295803E+04 -8.535925E+03
       200   1 -4.192730E+05 -1.665610E+06 -4.163013E+05  3.080541E+05 -1.740922E+04 -1.040562E+05
       200   2 -2.763622E+05 -1.291472E+06 -2.674283E+05  2.347693E+05 -5.092994E+04 -4.081626E+04
       200   3 -1.812562E+05 -9.371006E+05 -1.717156E+05  2.745367E+05 -4.367524E+04  2.247803E+04
       200   4 -5.012804E+04 -1.798353E+05 -5.804752E+04  2.806885E+05 -1.740232E+04 -3.953861E+04
       200   5 -4.716230E+03 -1.740209E+05 -2.760046E+04  2.241608E+05 -5.091871E+04 -2.508753E+04
       200   6  1.430297E+03 -1.795780E+05 -1.633943E+04  2.806839E+05 -4.368943E+04 -1.062172E+04
       200   7  3.188607E+05  1.307973E+06  3.000646E+05  2.532565E+05 -1.740116E+04  2.513327E+04
       200   8  2.668484E+05  9.446067E+05  2.121554E+05  2.135326E+05 -5.090803E+04 -9.330825E+03
       200   9  1.840814E+05  5.784926E+05  1.390103E+05  2.868385E+05 -4.370426E+04 -4.376117E+04
       200  10 -4.192763E+05 -1.665622E+06 -4.163223E+05  3.080527E+05 -2.528344E-10 -1.302581E-09
       200  11 -2.763655E+05 -1.291474E+06 -2.674363E+05  2.347676E+05  3.094604E-10 -2.520974E-10
       200  12 -1.812584E+05 -9.371017E+05 -1.717201E+05  2.745375E+05  7.535474E-10  2.089222E-09
       200  13 -5.012879E+04 -1.798371E+05 -5.805102E+04  2.806879E+05  1.270120E-10  1.091053E-09
       200  14 -4.719182E+03 -1.740223E+05 -2.760652E+04  2.241597E+05  8.333406E-10 -1.371675E-09
       200  15  1.428218E+03 -1.795786E+05 -1.634323E+04  2.806835E+05  1.087992E-09 -1.509203E-09
       200  16  3.188602E+05  1.307972E+06  3.000628E+05  2.532568E+05  4.076217E-10 -1.652449E-09
       200  17  2.668456E+05  9.446059E+05  2.121504E+05  2.135322E+05  6.502419E-10 -5.301111E-10
       200  18  1.840789E+05  5.784901E+05  1.390031E+05  2.868370E+05  8.947928E-10 -2.154538E-09
       200  19 -4.192730E+05 -1.665610E+06 -4.163013E+05  3.080541E+05  1.740922E+04  1.040562E+05
       200  20 -2.763622E+05 -1.291472E+06 -2.674283E+05  2.347693E+05  5.092994E+04  4.081626E+04
       200  21 -1.812562E+05 -9.371006E+05 -1.717156E+05  2.745367E+05  4.367524E+04 -2.247803E+04
       200  22 -5.012804E+04 -1.798353E+05 -5.804752E+04  2.806885E+05  1.740232E+04  3.953861E+04
       200  23 -4.716230E+03 -1.740209E+05 -2.760046E+04  2.241608E+05  5.091871E+04  2.508753E+04
       200  24  1.430297E+03 -1.795780E+05 -1.633943E+04  2.806839E+05  4.368943E+04  1.062172E+04
       200  25  3.188607E+05  1.307973E+06  3.000646E+05  2.532565E+05  1.740116E+04 -2.513327E+04
       200  26  2.668484E+05  9.446067E+05  2.121554E+05  2.135326E+05  5.090803E+04  9.330825E+03
       200  27  1.840814E+05  5.784926E+05  1.390103E+05  2.868385E+05  4.370426E+04  4.376117E+04
       201   1 -1.210688E+05 -6.718691E+05 -1.150546E+05  2.817874E+05 -2.813225E+04  1.555465E+04
       201   2 -3.125843E+04 -3.070728E+05 -3.534974E+04  2.235898E+05 -8.007253E+03  2.048257E+04
       201   3  5.609747E+04  5.655997E+04  4.050599E+04  2.805565E+05  1.248328E+04  2.541044E+04
       201   4 -1.751349E+03 -1.772529E+05 -1.332470E+04  2.811530E+05 -2.814618E+04 -8.359601E+03
       201   5  1.076232E+02 -1.766317E+05 -8.996859E+03  2.235710E+05 -8.022754E+03 -3.873716E+03
       201   6 -4.029026E+02 -1.772228E+05 -8.206030E+03  2.811521E+05  1.246578E+04  6.093410E+02
       201   7  1.175510E+05  3.175969E+05  8.839423E+04  2.805180E+05 -2.816006E+04 -3.229258E+04
       201   8  3.147294E+04 -4.617320E+04  1.735738E+04  2.235522E+05 -8.038251E+03 -2.823503E+04
       201   9 -5.690643E+04 -4.109525E+05 -5.691875E+04  2.817476E+05  1.244823E+04 -2.418258E+04
       201  10 -1.210697E+05 -6.718695E+05 -1.150565E+05  2.817878E+05  8.891919E-10  2.959966E-10
       201  11 -3.125862E+04 -3.070732E+05 -3.535065E+04  2.235900E+05  3.415980E-10 -4.567795E-10
       201  12  5.609713E+04  5.655924E+04  4.050449E+04  2.805562E+05 -1.960868E-10  8.604225E-10
       201  13 -1.752218E+03 -1.772532E+05 -1.332632E+04  2.811529E+05  5.851794E-10 -1.084233E-09
       201  14  1.075501E+02 -1.766318E+05 -8.997008E+03  2.235710E+05  2.310432E-10 -1.852023E-09
       201  15 -4.030696E+02 -1.772228E+05 -8.206323E+03  2.811521E+05  5.198901E-10 -3.089036E-09
       201  16  1.175499E+05  3.175955E+05  8.839078E+04  2.805173E+05  8.020930E-10 -9.477889E-10
       201  17  3.147266E+04 -4.617408E+04  1.735576E+04  2.235520E+05 -8.418537E-10  8.332036E-10
       201  18 -5.690676E+04 -4.109532E+05 -5.692014E+04  2.817478E+05 -1.061647E-09 -1.216996E-09
       201  19 -1.210688E+05 -6.718691E+05 -1.150546E+05  2.817874E+05  2.813225E+04 -1.555465E+04
       201  20 -3.125843E+04 -3.070728E+05 -3.534974E+04  2.235898E+05  8.007253E+03 -2.048257E+04
       201  21  5.609747E+04  5.655997E+04  4.050599E+04  2.805565E+05 -1.248328E+04 -2.541044E+04
       201  22 -1.751349E+03 -1.772529E+05 -1.332470E+04  2.811530E+05  2.814618E+04  8.359601E+03
       201  23  1.076232E+02 -1.766317E+05 -8.996859E+03  2.235710E+05  8.022754E+03  3.873716E+03
       201  24 -4.029026E+02 -1.772228E+05 -8.206030E+03  2.811521E+05 -1.246578E+04 -6.093410E+02
       201  25  1.175510E+05  3.175969E+05  8.839423E+04  2.805180E+05  2.816006E+04  3.229258E+04
       201  26  3.147294E+04 -4.617320E+04  1.735738E+04  2.235522E+05  8.038251E+03  2.823503E+04
       201  27 -5.690643E+04 -4.109525E+05 -5.691875E+04  2.817476E+05 -1.244823E+04  2.418258E+04
       202   1  1.205250E+05  3.187659E+05  9.391271E+04  2.831532E+05  2.780652E+04  3.429762E+04
       202   2  2.067490E+05  6.820180E+05  1.732261E+05  2.199859E+05  3.767976E+04 -5.305495E+02
       202   3  2.849014E+05  1.048084E+06  2.732016E+05  2.702507E+05  1.344942E+04 -3.538275E+04
       202   4  6.904297E+02 -1.779741E+05 -8.556710E+03  2.807700E+05  2.778656E+04  1.938075E+03
       202   5 -1.761820E+03 -1.758643E+05 -1.173918E+04  2.240497E+05  3.768710E+04  8.063876E+03
       202   6 -1.939199E+04 -1.781701E+05 -2.268804E+04  2.807748E+05  1.346199E+04  1.418552E+04
       202   7 -1.191591E+05 -6.744778E+05 -1.110355E+05  2.783886E+05  2.776684E+04 -3.039604E+04
       202   8 -2.103210E+05 -1.033055E+06 -1.967476E+05  2.281076E+05  3.769455E+04  1.664659E+04
       202   9 -3.237934E+05 -1.403045E+06 -3.186760E+05  2.912777E+05  1.347626E+04  6.365632E+04
       202  10  1.205238E+05  3.187644E+05  9.390905E+04  2.831525E+05  6.541316E-10  6.966497E-10
       202  11  2.067475E+05  6.820176E+05  1.732235E+05  2.199859E+05  3.619012E-11 -2.765468E-10
       202  12  2.849008E+05  1.048083E+06  2.731989E+05  2.702511E+05  2.279274E-10 -1.818782E-11
       202  13  6.895997E+02 -1.779743E+05 -8.558168E+03  2.807699E+05  3.165329E-10  1.365226E-11
       202  14 -1.763362E+03 -1.758648E+05 -1.174197E+04  2.240494E+05  4.858727E-10  2.203672E-10
       202  15 -1.939224E+04 -1.781704E+05 -2.268875E+04  2.807746E+05 -4.478403E-10 -6.727373E-10
       202  16 -1.191602E+05 -6.744790E+05 -1.110387E+05  2.783893E+05  2.135236E-10 -1.677209E-09
       202  17 -2.103226E+05 -1.033056E+06 -1.967508E+05  2.281071E+05 -1.659863E-10  9.821898E-11
       202  18 -3.237947E+05 -1.403049E+06 -3.186840E+05  2.912770E+05 -7.398856E-10  1.068817E-09
       202  19  1.205250E+05  3.187659E+05  9.391271E+04  2.831532E+05 -2.780652E+04 -3.429762E+04
       202  20  2.067490E+05  6.820180E+05  1.732261E+05  2.199859E+05 -3.767976E+04  5.305495E+02
       202  21  2.849014E+05  1.048084E+06  2.732016E+05  2.702507E+05 -1.344942E+04  3.538275E+04
       202  22  6.904297E+02 -1.779741E+05 -8.556710E+03  2.807700E+05 -2.778656E+04 -1.938075E+03
       202  23 -1.761820E+03 -1.758643E+05 -1.173918E+04  2.240497E+05 -3.768710E+04 -8.063876E+03
       202  24 -1.939199E+04 -1.781701E+05 -2.268804E+04  2.807748E+05 -1.346199E+04 -1.418552E+04
       202  25 -1.191591E+05 -6.744778E+05 -1.110355E+05  2.783886E+05 -2.776684E+04  3.039604E+04
       202  26 -2.103210E+05 -1.033055E+06 -1.967476E+05  2.281076E+05 -3.769455E+04 -1.664659E+04
       202  27 -3.237934E+05 -1.403045E+06 -3.186760E+05  2.912777E+05 -1.347626E+04 -6.365632E+04
       203   1 -1.847816E+05 -8.204952E+05 -1.843577E+05  1.315063E+05 -7.542661E+03 -4.857805E+04
       203   2 -1.201477E+05 -6.635033E+05 -1.185689E+05  9.916377E+04 -2.217338E+04 -1.997023E+04
       203   3 -7.987689E+04 -5.162609E+05 -7.750662E+04  1.139924E+05 -1.933349E+04  8.646707E+03
       203   4 -2.622751E+04 -1.819438E+05 -3.051537E+04  1.171536E+05 -7.539039E+03 -2.057395E+04
       203   5 -2.392158E+03 -1.788563E+05 -1.466703E+04  9.356639E+04 -2.217066E+04 -1.290082E+04
       203   6  7.292982E+02 -1.818957E+05 -8.987153E+03  1.171505E+05 -1.933703E+04 -5.226261E+03
       203   7  1.322980E+05  4.569832E+05  1.233009E+05  1.027861E+05 -7.536718E+03  7.458888E+03
       203   8  1.153482E+05  3.060120E+05  8.922142E+04  8.796455E+04 -2.216807E+04 -5.825967E+03
       203   9  8.132861E+04  1.525762E+05  5.952710E+04  1.203104E+05 -1.934071E+04 -1.910657E+04
       203  10 -1.847822E+05 -8.204977E+05 -1.843622E+05  1.315060E+05 -1.371859E-10 -2.023090E-08
       203  11 -1.201484E+05 -6.635039E+05 -1.185706E+05  9.916341E+04  4.464956E-10  1.757848E-09
       203  12 -7.987732E+04 -5.162610E+05 -7.750746E+04  1.139925E+05  6.291339E-10  2.311305E-08
       203  13 -2.622768E+04 -1.819442E+05 -3.051628E+04  1.171535E+05 -2.406465E-11  1.097290E-09
       203  14 -2.392730E+03 -1.788566E+05 -1.466826E+04  9.356616E+04 -3.532548E-12  5.308754E-10
       203  15  7.288894E+02 -1.818958E+05 -8.987907E+03  1.171504E+05 -1.084720E-09  6.550876E-10
       203  16  1.322979E+05  4.569831E+05  1.233007E+05  1.027861E+05  1.407425E-10  2.039491E-08
       203  17  1.153477E+05  3.060119E+05  8.922043E+04  8.796444E+04  1.760886E-10 -1.918639E-09
       203  18  8.132811E+04  1.525757E+05  5.952571E+04  1.203101E+05 -1.065877E-09 -2.334552E-08
       203  19 -1.847816E+05 -8.204952E+05 -1.843577E+05  1.315063E+05  7.542661E+03  4.857805E+04
       203  20 -1.201477E+05 -6.635033E+05 -1.185689E+05  9.916377E+04  2.217338E+04  1.997023E+04
       203  21 -7.987689E+04 -5.162609E+05 -7.750662E+04  1.139924E+05  1.933349E+04 -8.646707E+03
       203  22 -2.622751E+04 -1.819438E+05 -3.051537E+04  1.171536E+05  7.539039E+03  2.057395E+04
       203  23 -2.392158E+03 -1.788563E+05 -1.466703E+04  9.356639E+04  2.217066E+04  1.290082E+04
       203  24  7.292982E+02 -1.818957E+05 -8.987153E+03  1.171505E+05  1.933703E+04  5.226261E+03
       203  25  1.322980E+05  4.569832E+05  1.233009E+05  1.027861E+05  7.536718E+03 -7.458888E+03
       203  26  1.153482E+05  3.060120E+05  8.922142E+04  8.796455E+04  2.216807E+04  5.825967E+03
       203  27  8.132861E+04  1.525762E+05  5.952710E+04  1.203104E+05  1.934071E+04  1.910657E+04
       204   1 -5.510364E+04 -4.052562E+05 -5.367599E+04  1.177873E+05 -1.283017E+04  5.975174E+03
       204   2 -1.743979E+04 -2.528154E+05 -2.034163E+04  9.331673E+04 -4.454832E+03  9.060265E+03
       204   3  1.867294E+04 -1.011587E+05  1.058880E+04  1.169220E+05  4.123783E+03  1.214541E+04
       204   4 -9.488211E+02 -1.806915E+05 -7.540871E+03  1.173519E+05 -1.283337E+04 -3.948403E+03
       204   5 -4.593290E+00 -1.803062E+05 -5.692796E+03  9.331400E+04 -4.458433E+03 -1.107565E+03
       204   6 -5.675981E+02 -1.806844E+05 -6.078012E+03  1.173517E+05  4.119709E+03  1.732599E+03
       204   7  5.320287E+04  4.392137E+04  3.859192E+04  1.169163E+05 -1.283656E+04 -1.387551E+04
       204   8  1.743033E+04 -1.077918E+05  8.956151E+03  9.331127E+04 -4.462033E+03 -1.127656E+04
       204   9 -1.980848E+04 -2.602040E+05 -2.274477E+04  1.177814E+05  4.115620E+03 -8.678898E+03
       204  10 -5.510382E+04 -4.052562E+05 -5.367636E+04  1.177873E+05 -9.226963E-10 -1.128939E-09
       204  11 -1.743983E+04 -2.528155E+05 -2.034182E+04  9.331676E+04 -5.527488E-10 -1.388644E-09
       204  12  1.867288E+04 -1.011589E+05  1.058849E+04  1.169219E+05 -8.947577E-10  1.297476E-09
       204  13 -9.490021E+02 -1.806915E+05 -7.541210E+03  1.173518E+05 -6.852009E-10 -4.154665E-12
       204  14 -4.614961E+00 -1.803062E+05 -5.692836E+03  9.331400E+04 -2.237608E-09 -5.322745E-10
       204  15 -5.676171E+02 -1.806844E+05 -6.078050E+03  1.173517E+05 -1.041232E-09 -3.286932E-09
       204  16  5.320264E+04  4.392111E+04  3.859125E+04  1.169161E+05 -1.442778E-09 -2.285746E-09
       204  17  1.743027E+04 -1.077919E+05  8.955874E+03  9.331123E+04 -9.494316E-10 -2.036829E-09
       204  18 -1.980852E+04 -2.602041E+05 -2.274494E+04  1.177814E+05 -1.166448E-09 -4.140281E-09
       204  19 -5.510364E+04 -4.052562E+05 -5.367599E+04  1.177873E+05  1.283017E+04 -5.975174E+03
       204  20 -1.743979E+04 -2.528154E+05 -2.034163E+04  9.331673E+04  4.454832E+03 -9.060265E+03
       204  21  1.867294E+04 -1.011587E+05  1.058880E+04  1.169220E+05 -4.123783E+03 -1.214541E+04
       204  22 -9.488211E+02 -1.806915E+05 -7.540871E+03  1.173519E+05  1.283337E+04  3.948403E+03
       204  23 -4.593290E+00 -1.803062E+05 -5.692796E+03  9.331400E+04  4.458433E+03  1.107565E+03
       204  24 -5.675981E+02 -1.806844E+05 -6.078012E+03  1.173517E+05 -4.119709E+03 -1.732599E+03
       204  25  5.320287E+04  4.392137E+04  3.859192E+04  1.169163E+05  1.283656E+04  1.387551E+04
       204  26  1.743033E+04 -1.077918E+05  8.956151E+03  9.331127E+04  4.462033E+03  1.127656E+04
       204  27 -1.980848E+04 -2.602040E+05 -2.274477E+04  1.177814E+05 -4.115620E+03  8.678898E+03
       205   1  4.619262E+04  7.822297E+03  3.235554E+04  1.192716E+05  1.050495E+04  1.619615E+04
       205   2  8.112839E+04  1.606203E+05  6.329372E+04  8.976605E+04  1.481671E+04  4.945156E+03
       205   3  1.051126E+05  3.121827E+05  9.881824E+04  1.076436E+05  5.344056E+03 -6.307603E+03
       205   4  5.119345E+02 -1.814384E+05 -6.762453E+03  1.171979E+05  1.050009E+04  2.743680E+03
       205   5 -1.556794E+03 -1.793904E+05 -1.013419E+04  9.350673E+04  1.481818E+04  8.035257E+03
       205   6 -1.745104E+04 -1.814721E+05 -2.040827E+04  1.172015E+05  5.348224E+03  1.332753E+04
       205   7 -4.517091E+04 -3.706647E+05 -4.588171E+04  1.151248E+05  1.049532E+04 -1.070476E+04
       205   8 -8.424954E+04 -5.192925E+05 -8.356888E+04  9.724531E+04  1.481969E+04  1.112369E+04
       205   9 -1.400319E+05 -6.749030E+05 -1.396507E+05  1.267518E+05  5.352999E+03  3.294711E+04
       205  10  4.619243E+04  7.821985E+03  3.235484E+04  1.192714E+05 -6.156453E-10 -1.525900E-09
       205  11  8.112815E+04  1.606202E+05  6.329326E+04  8.976599E+04 -8.157428E-10 -1.278625E-09
       205  12  1.051125E+05  3.121826E+05  9.881811E+04  1.076436E+05 -8.471188E-10  6.758696E-10
       205  13  5.118141E+02 -1.814384E+05 -6.762674E+03  1.171979E+05 -5.652930E-10 -2.131427E-09
       205  14 -1.557047E+03 -1.793905E+05 -1.013472E+04  9.350663E+04 -3.567606E-10 -1.076840E-09
       205  15 -1.745111E+04 -1.814723E+05 -2.040865E+04  1.172015E+05  9.688516E-10 -1.470930E-09
       205  16 -4.517106E+04 -3.706648E+05 -4.588213E+04  1.151249E+05 -1.533239E-10 -3.380536E-10
       205  17 -8.424981E+04 -5.192926E+05 -8.356953E+04  9.724518E+04  1.262059E-10 -4.023194E-10
       205  18 -1.400322E+05 -6.749042E+05 -1.396528E+05  1.267517E+05  7.861408E-10 -2.067584E-09
       205  19  4.619262E+04  7.822297E+03  3.235554E+04  1.192716E+05 -1.050495E+04 -1.619615E+04
       205  20  8.112839E+04  1.606203E+05  6.329372E+04  8.976605E+04 -1.481671E+04 -4.945156E+03
       205  21  1.051126E+05  3.121827E+05  9.881824E+04  1.076436E+05 -5.344056E+03  6.307603E+03
       205  22  5.119345E+02 -1.814384E+05 -6.762453E+03  1.171979E+05 -1.050009E+04 -2.743680E+03
       205  23 -1.556794E+03 -1.793904E+05 -1.013419E+04  9.350673E+04 -1.481818E+04 -8.035257E+03
       205  24 -1.745104E+04 -1.814721E+05 -2.040827E+04  1.172015E+05 -5.348224E+03 -1.332753E+04
       205  25 -4.517091E+04 -3.706647E+05 -4.588171E+04  1.151248E+05 -1.049532E+04  1.070476E+04
       205  26 -8.424954E+04 -5.192925E+05 -8.356888E+04  9.724531E+04 -1.481969E+04 -1.112369E+04
       205  27 -1.400319E+05 -6.749030E+05 -1.396507E+05  1.267518E+05 -5.352999E+03 -3.294711E+04
       206   1  2.999851E+06  8.067991E+05  7.920077E+05  4.440717E+05  1.834585E+05 -3.906089E+04
       206   2  2.436105E+06  6.131009E+05  5.615124E+05  3.453273E+05  7.090382E+04 -1.190025E+05
       206   3  1.902796E+06  4.741562E+05  4.180156E+05  4.152738E+05 -4.138616E+04 -1.165675E+05
       206   4 -7.875930E+04  4.467490E+04  5.402964E+04  4.214991E+05  3.731594E+04 -3.888094E+04
       206   5 -8.486275E+04  2.363613E+03  2.510189E+04  3.371187E+05  2.410346E+04 -1.190026E+05
       206   6 -7.790789E+04 -2.260229E+03  1.445835E+04  4.214523E+05  1.105239E+04 -1.166017E+05
       206   7 -3.148668E+06 -7.181232E+05 -6.845396E+05  3.990386E+05 -1.081079E+05 -3.869014E+04
       206   8 -2.599853E+06 -6.087851E+05 -5.116655E+05  3.289435E+05 -2.251040E+04 -1.190016E+05
       206   9 -2.054882E+06 -4.789200E+05 -3.892948E+05  4.276097E+05  6.332707E+04 -1.166350E+05
       206  10  2.999815E+06  8.067885E+05  7.919419E+05  4.440775E+05  4.560348E-10 -2.528914E-11
       206  11  2.436096E+06  6.130843E+05  5.614764E+05  3.453341E+05  5.385804E-11 -7.191208E-11
       206  12  1.902790E+06  4.741411E+05  4.179868E+05  4.152699E+05  1.612583E-11 -1.627641E-10
       206  13 -7.876120E+04  4.467290E+04  5.402418E+04  4.215003E+05 -1.674046E-09 -5.477603E-11
       206  14 -8.486718E+04  2.348248E+03  2.507418E+04  3.371210E+05  2.411333E-10 -5.520797E-11
       206  15 -7.791167E+04 -2.274862E+03  1.443257E+04  4.214533E+05  4.426469E-10  1.133646E-10
       206  16 -3.148681E+06 -7.181279E+05 -6.845644E+05  3.990352E+05  3.539856E-10 -8.785410E-11
       206  17 -2.599858E+06 -6.088004E+05 -5.116931E+05  3.289414E+05 -3.440300E-10 -1.162656E-10
       206  18 -2.054890E+06 -4.789357E+05 -3.893279E+05  4.276157E+05  6.450778E-10  3.336549E-10
       206  19  2.999851E+06  8.067991E+05  7.920077E+05  4.440717E+05 -1.834585E+05  3.906089E+04
       206  20  2.436105E+06  6.131009E+05  5.615124E+05  3.453273E+05 -7.090382E+04  1.190025E+05
       206  21  1.902796E+06  4.741562E+05  4.180156E+05  4.152738E+05  4.138616E+04  1.165675E+05
       206  22 -7.875930E+04  4.467490E+04  5.402964E+04  4.214991E+05 -3.731594E+04  3.888094E+04
       206  23 -8.486275E+04  2.363613E+03  2.510189E+04  3.371187E+05 -2.410346E+04  1.190026E+05
       206  24 -7.790789E+04 -2.260229E+03  1.445835E+04  4.214523E+05 -1.105239E+04  1.166017E+05
       206  25 -3.148668E+06 -7.181232E+05 -6.845396E+05  3.990386E+05  1.081079E+05  3.869014E+04
       206  26 -2.599853E+06 -6.087851E+05 -5.116655E+05  3.289435E+05  2.251040E+04  1.190016E+05
       206  27 -2.054882E+06 -4.789200E+05 -3.892948E+05  4.276097E+05 -6.332707E+04  1.166350E+05
       207   1  1.504045E+06  3.824477E+05  3.346375E+05  4.228758E+05 -2.390416E+04 -9.258591E+04
       207   2  9.553883E+05  2.489308E+05  2.158569E+05  3.360479E+05 -3.219585E+04 -6.296423E+04
       207   3  4.091018E+05  1.178673E+05  1.031471E+05  4.222576E+05 -4.051224E+04 -2.898103E+04
       207   4 -8.025638E+04  1.181772E+03  1.123579E+04  4.224293E+05  9.069427E+03 -9.259859E+04
       207   5 -8.066837E+04 -1.083791E+02  6.161880E+03  3.359020E+05  6.013974E+03 -6.295836E+04
       207   6 -7.990067E+04  1.660843E+02  3.538342E+03  4.224302E+05  2.926718E+03 -2.895223E+04
       207   7 -1.662173E+06 -3.802406E+05 -3.122943E+05  4.219831E+05  4.196054E+04 -9.261133E+04
       207   8 -1.115701E+06 -2.492134E+05 -2.035832E+05  3.357560E+05  4.416131E+04 -6.295250E+04
       207   9 -5.686718E+05 -1.175490E+05 -9.607590E+04  4.226025E+05  4.633211E+04 -2.892339E+04
       207  10  1.504042E+06  3.824384E+05  3.346203E+05  4.228741E+05  1.022642E-09 -1.041591E-10
       207  11  9.553861E+05  2.489262E+05  2.158475E+05  3.360462E+05  6.393342E-10 -6.775639E-11
       207  12  4.090998E+05  1.178659E+05  1.031425E+05  4.222566E+05  2.770150E-11 -9.518249E-11
       207  13 -8.025877E+04  1.172542E+03  1.121952E+04  4.224300E+05  2.400707E-10  8.417650E-11
       207  14 -8.066947E+04 -1.126454E+02  6.154363E+03  3.359023E+05  4.235254E-10 -2.417584E-10
       207  15 -7.990090E+04  1.651818E+02  3.536751E+03  4.224302E+05 -3.469968E-10 -2.198236E-10
       207  16 -1.662177E+06 -3.802503E+05 -3.123137E+05  4.219862E+05 -5.587797E-10  2.159046E-10
       207  17 -1.115704E+06 -2.492181E+05 -2.035944E+05  3.357583E+05  1.472428E-10 -3.972032E-10
       207  18 -5.686743E+05 -1.175505E+05 -9.608151E+04  4.226036E+05 -3.626462E-11 -3.093480E-10
       207  19  1.504045E+06  3.824477E+05  3.346375E+05  4.228758E+05  2.390416E+04  9.258591E+04
       207  20  9.553883E+05  2.489308E+05  2.158569E+05  3.360479E+05  3.219585E+04  6.296423E+04
       207  21  4.091018E+05  1.178673E+05  1.031471E+05  4.222576E+05  4.051224E+04  2.898103E+04
       207  22 -8.025638E+04  1.181772E+03  1.123579E+04  4.224293E+05 -9.069427E+03  9.259859E+04
       207  23 -8.066837E+04 -1.083791E+02  6.161880E+03  3.359020E+05 -6.013974E+03  6.295836E+04
       207  24 -7.990067E+04  1.660843E+02  3.538342E+03  4.224302E+05 -2.926718E+03  2.895223E+04
       207  25 -1.662173E+06 -3.802406E+05 -3.122943E+05  4.219831E+05 -4.196054E+04  9.261133E+04
       207  26 -1.115701E+06 -2.492134E+05 -2.035832E+05  3.357560E+05 -4.416131E+04  6.295250E+04
       207  27 -5.686718E+05 -1.175490E+05 -9.607590E+04  4.226025E+05 -4.633211E+04  2.892339E+04
       208   1  1.554135E+04  2.306086E+04  2.060501E+04  4.222952E+05 -4.087845E+04 -7.636405E+03
       208   2 -5.313101E+05 -1.085347E+05 -9.065027E+04  3.357209E+05 -3.732232E+04  2.665295E+04
       208   3 -1.078396E+06 -2.409168E+05 -2.044251E+05  4.222615E+05 -3.375570E+04  5.743938E+04
       208   4 -8.006996E+04  3.459341E+02  2.640807E+03  4.224416E+05  2.355616E+03 -7.604162E+03
       208   5 -8.024897E+04  1.038026E+02  1.314570E+03  3.358883E+05  1.694018E+03  2.667342E+04
       208   6 -8.022508E+04 -1.783181E+02  4.006998E+02  4.224420E+05  1.045990E+03  5.745021E+04
       208   7 -1.756684E+05 -2.236852E+04 -1.531677E+04  4.225880E+05  4.558319E+04 -7.571895E+03
       208   8  3.710090E+05  1.087304E+05  9.327444E+04  3.360557E+05  4.073820E+04  2.669390E+04
       208   9  9.188957E+05  2.404981E+05  2.051779E+05  4.226223E+05  3.590271E+04  5.746103E+04
       208  10  1.553954E+04  2.306035E+04  2.060176E+04  4.222949E+05  6.744512E-10 -9.139945E-11
       208  11 -5.313118E+05 -1.085359E+05 -9.065423E+04  3.357217E+05 -8.195745E-10  9.025660E-11
       208  12 -1.078398E+06 -2.409206E+05 -2.044335E+05  4.222631E+05 -2.894984E-10  1.977428E-10
       208  13 -8.006998E+04  3.458705E+02  2.640688E+03  4.224416E+05  8.032337E-12 -1.249418E-10
       208  14 -8.024916E+04  1.030379E+02  1.313228E+03  3.358882E+05  4.937019E-11  1.187722E-10
       208  15 -8.022596E+04 -1.818624E+02  3.944958E+02  4.224419E+05  8.319546E-10  2.090833E-10
       208  16 -1.756707E+05 -2.236914E+04 -1.532078E+04  4.225883E+05 -2.616352E-10 -1.068269E-10
       208  17  3.710071E+05  1.087292E+05  9.326998E+04  3.360548E+05  2.426121E-10  1.884144E-10
       208  18  9.188934E+05  2.404942E+05  2.051693E+05  4.226206E+05  7.548059E-10  2.378352E-10
       208  19  1.554135E+04  2.306086E+04  2.060501E+04  4.222952E+05  4.087845E+04  7.636405E+03
       208  20 -5.313101E+05 -1.085347E+05 -9.065027E+04  3.357209E+05  3.732232E+04 -2.665295E+04
       208  21 -1.078396E+06 -2.409168E+05 -2.044251E+05  4.222615E+05  3.375570E+04 -5.743938E+04
       208  22 -8.006996E+04  3.459341E+02  2.640807E+03  4.224416E+05 -2.355616E+03  7.604162E+03
       208  23 -8.024897E+04  1.038026E+02  1.314570E+03  3.358883E+05 -1.694018E+03 -2.667342E+04
       208  24 -8.022508E+04 -1.783181E+02  4.006998E+02  4.224420E+05 -1.045990E+03 -5.745021E+04
       208  25 -1.756684E+05 -2.236852E+04 -1.531677E+04  4.225880E+05 -4.558319E+04  7.571895E+03
       208  26  3.710090E+05  1.087304E+05  9.327444E+04  3.360557E+05 -4.073820E+04 -2.669390E+04
       208  27  9.188957E+05  2.404981E+05  2.051779E+05  4.226223E+05 -3.590271E+04 -5.746103E+04
       209   1 -1.473295E+06 -3.361936E+05 -2.852748E+05  4.212783E+05 -4.975982E+04  8.092718E+04
       209   2 -2.013763E+06 -4.710341E+05 -4.149546E+05  3.378777E+05  3.204590E+04  8.936723E+04
       209   3 -2.567304E+06 -6.211799E+05 -6.016128E+05  4.239781E+05  1.136985E+05  2.993659E+04
       209   4 -8.028591E+04 -2.633166E+02  6.087024E+01  4.216346E+05  9.533476E+02  8.093016E+04
       209   5 -8.101878E+04 -1.201974E+03 -9.839227E+02  3.368978E+05  1.541004E+03  8.935296E+04
       209   6 -8.094335E+04 -3.282670E+03 -2.494486E+03  4.216339E+05  2.048683E+03  3.000026E+04
       209   7  1.314575E+06  3.355465E+05  2.853031E+05  4.219910E+05  5.177845E+04  8.093317E+04
       209   8  1.855250E+06  4.683861E+05  4.127731E+05  3.359141E+05 -2.905773E+04  8.933884E+04
       209   9  2.411115E+06  6.141698E+05  5.962294E+05  4.192793E+05 -1.100481E+05  3.006477E+04
       209  10 -1.473299E+06 -3.362013E+05 -2.852918E+05  4.212816E+05 -2.010323E-10  2.634024E-10
       209  11 -2.013767E+06 -4.710429E+05 -4.149715E+05  3.378754E+05 -5.290491E-10  1.654871E-10
       209  12 -2.567318E+06 -6.211843E+05 -6.016388E+05  4.239754E+05 -4.155030E-10 -6.279558E-12
       209  13 -8.028767E+04 -2.703497E+02  4.856109E+01  4.216346E+05 -2.087982E-10  1.748399E-10
       209  14 -8.102092E+04 -1.210548E+03 -9.989296E+02  3.368977E+05  1.015351E-09  1.569515E-10
       209  15 -8.094359E+04 -3.283637E+03 -2.496185E+03  4.216339E+05  5.188173E-10  1.726807E-10
       209  16  1.314570E+06  3.355387E+05  2.852858E+05  4.219876E+05  7.721233E-10  1.088418E-10
       209  17  1.855247E+06  4.683773E+05  4.127565E+05  3.359162E+05  6.405919E-10 -1.458935E-10
       209  18  2.411102E+06  6.141656E+05  5.962050E+05  4.192820E+05  2.211346E-10 -5.711183E-11
       209  19 -1.473295E+06 -3.361936E+05 -2.852748E+05  4.212783E+05  4.975982E+04 -8.092718E+04
       209  20 -2.013763E+06 -4.710341E+05 -4.149546E+05  3.378777E+05 -3.204590E+04 -8.936723E+04
       209  21 -2.567304E+06 -6.211799E+05 -6.016128E+05  4.239781E+05 -1.136985E+05 -2.993659E+04
       209  22 -8.028591E+04 -2.633166E+02  6.087024E+01  4.216346E+05 -9.533476E+02 -8.093016E+04
       209  23 -8.101878E+04 -1.201974E+03 -9.839227E+02  3.368978E+05 -1.541004E+03 -8.935296E+04
       209  24 -8.094335E+04 -3.282670E+03 -2.494486E+03  4.216339E+05 -2.048683E+03 -3.000026E+04
       209  25  1.314575E+06  3.355465E+05  2.853031E+05  4.219910E+05 -5.177845E+04 -8.093317E+04
       209  26  1.855250E+06  4.683861E+05  4.127731E+05  3.359141E+05  2.905773E+04 -8.933884E+04
       209  27  2.411115E+06  6.141698E+05  5.962294E+05  4.192793E+05  1.100481E+05 -3.006477E+04
       210   1 -4.161888E+05 -2.114509E+06 -4.180405E+05  3.954056E+05 -1.554711E+04 -1.035995E+05
       210   2 -2.384717E+05 -1.625590E+06 -2.399441E+05  3.021456E+05 -4.142657E+04 -3.854440E+04
       210   3 -1.146892E+05 -1.159195E+06 -1.179343E+05  3.579739E+05 -2.657381E+04  2.646071E+04
       210   4 -5.687508E+04 -6.692251E+05 -6.807532E+04  3.665008E+05 -1.537366E+04 -4.806131E+04
       210   5 -3.786667E+03 -6.619614E+05 -3.099858E+04  2.918669E+05 -4.139938E+04 -3.171975E+04
       210   6  3.906689E+03 -6.689179E+05 -1.605719E+04  3.663218E+05 -2.671759E+04 -1.548029E+04
       210   7  3.022905E+05  7.779819E+05  2.817517E+05  3.375263E+05 -1.520564E+04  7.606251E+03
       210   8  2.308374E+05  3.025405E+05  1.778919E+05  2.815711E+05 -4.137244E+04 -2.488460E+04
       210   9  1.224885E+05 -1.784086E+05  8.581341E+04  3.746761E+05 -2.686243E+04 -5.745391E+04
       210  10 -4.161920E+05 -2.114521E+06 -4.180612E+05  3.954044E+05  1.119780E-10  8.950374E-10
       210  11 -2.384740E+05 -1.625592E+06 -2.399501E+05  3.021443E+05  1.010006E-09 -2.731797E-10
       210  12 -1.146902E+05 -1.159196E+06 -1.179369E+05  3.579744E+05 -2.040638E-09 -1.459878E-09
       210  13 -5.687595E+04 -6.692277E+05 -6.808011E+04  3.665002E+05 -1.342911E-09  1.193780E-10
       210  14 -3.788777E+03 -6.619630E+05 -3.100369E+04  2.918658E+05  3.238590E-09 -1.988076E-10
       210  15  3.905858E+03 -6.689184E+05 -1.605898E+04  3.663214E+05 -1.097073E-09  3.755817E-11
       210  16  3.022902E+05  7.779817E+05  2.817511E+05  3.375263E+05  6.375678E-10 -8.193335E-10
       210  17  2.308354E+05  3.025394E+05  1.778875E+05  2.815703E+05  8.796600E-10  2.589156E-10
       210  18  1.224868E+05 -1.784123E+05  8.580585E+04  3.746749E+05  4.806049E-10  1.561336E-09
       210  19 -4.161888E+05 -2.114509E+06 -4.180405E+05  3.954056E+05  1.554711E+04  1.035995E+05
       210  20 -2.384717E+05 -1.625590E+06 -2.399441E+05  3.021456E+05  4.142657E+04  3.854440E+04
       210  21 -1.146892E+05 -1.159195E+06 -1.179343E+05  3.579739E+05  2.657381E+04 -2.646071E+04
       210  22 -5.687508E+04 -6.692251E+05 -6.807532E+04  3.665008E+05  1.537366E+04  4.806131E+04
       210  23 -3.786667E+03 -6.619614E+05 -3.099858E+04  2.918669E+05  4.139938E+04  3.171975E+04
       210  24  3.906689E+03 -6.689179E+05 -1.605719E+04  3.663218E+05  2.671759E+04  1.548029E+04
       210  25  3.022905E+05  7.779819E+05  2.817517E+05  3.375263E+05  1.520564E+04 -7.606251E+03
       210  26  2.308374E+05  3.025405E+05  1.778919E+05  2.815711E+05  4.137244E+04  2.488460E+04
       210  27  1.224885E+05 -1.784086E+05  8.581341E+04  3.746761E+05  2.686243E+04  5.745391E+04
       211   1 -3.545684E+04 -8.117111E+05 -4.258735E+04  3.669022E+05 -6.627520E+03  1.951720E+04
       211   2  8.159989E+04 -3.335716E+05  6.424496E+04  2.922344E+05  2.047549E+04  1.972834E+04
       211   3  1.989130E+05  1.438101E+05  1.707208E+05  3.686363E+05  4.664408E+04  1.995152E+04
       211   4 -4.095997E+01 -6.659742E+05 -1.135468E+04  3.668026E+05 -6.743854E+03 -1.354090E+04
       211   5  1.771756E+03 -6.654396E+05 -2.824551E+03  2.912589E+05  2.036849E+04 -1.221754E+04
       211   6  3.661679E+03 -6.660703E+05  4.585201E+03  3.667895E+05  4.654547E+04 -1.088231E+04
       211   7  3.537411E+04 -5.202149E+05  1.988085E+04  3.667029E+05 -6.860161E+03 -4.660667E+04
       211   8 -7.806266E+04 -9.972004E+05 -6.989592E+04  2.902839E+05  2.026155E+04 -4.414665E+04
       211   9 -1.916304E+05 -1.475326E+06 -1.615818E+05  3.649446E+05  4.644696E+04 -4.167663E+04
       211  10 -3.545699E+04 -8.117115E+05 -4.258815E+04  3.669023E+05 -5.334910E-10  1.756234E-09
       211  11  8.159934E+04 -3.335722E+05  6.424345E+04  2.922340E+05 -2.091611E-10  9.917093E-10
       211  12  1.989106E+05  1.438091E+05  1.707160E+05  3.686355E+05  1.401663E-09  2.307213E-10
       211  13 -4.105799E+01 -6.659744E+05 -1.135511E+04  3.668025E+05 -6.759940E-10  1.769534E-12
       211  14  1.771270E+03 -6.654399E+05 -2.825611E+03  2.912591E+05 -1.721411E-09  2.158104E-10
       211  15  3.659321E+03 -6.660710E+05  4.580907E+03  3.667899E+05 -1.781744E-09  2.034064E-10
       211  16  3.537348E+04 -5.202173E+05  1.987668E+04  3.667027E+05 -2.781488E-10 -1.877324E-09
       211  17 -7.806363E+04 -9.972026E+05 -6.990036E+04  2.902847E+05  1.249322E-09 -9.671513E-10
       211  18 -1.916332E+05 -1.475328E+06 -1.615891E+05  3.649461E+05  1.130767E-09 -4.129740E-10
       211  19 -3.545684E+04 -8.117111E+05 -4.258735E+04  3.669022E+05  6.627520E+03 -1.951720E+04
       211  20  8.159989E+04 -3.335716E+05  6.424496E+04  2.922344E+05 -2.047549E+04 -1.972834E+04
       211  21  1.989130E+05  1.438101E+05  1.707208E+05  3.686363E+05 -4.664408E+04 -1.995152E+04
       211  22 -4.095997E+01 -6.659742E+05 -1.135468E+04  3.668026E+05  6.743854E+03  1.354090E+04
       211  23  1.771756E+03 -6.654396E+05 -2.824551E+03  2.912589E+05 -2.036849E+04  1.221754E+04
       211  24  3.661679E+03 -6.660703E+05  4.585201E+03  3.667895E+05 -4.654547E+04  1.088231E+04
       211  25  3.537411E+04 -5.202149E+05  1.988085E+04  3.667029E+05  6.860161E+03  4.660667E+04
       211  26 -7.806266E+04 -9.972004E+05 -6.989592E+04  2.902839E+05 -2.026155E+04  4.414665E+04
       211  27 -1.916304E+05 -1.475326E+06 -1.615818E+05  3.649446E+05 -4.644696E+04  4.167663E+04
       212   1  2.792156E+05  4.912471E+05  2.446522E+05  3.641651E+05  6.719675E+04  3.204590E+04
       212   2  3.994433E+05  9.588333E+05  3.666032E+05  3.030170E+05  7.479434E+04 -4.663992E+04
       212   3  5.617494E+05  1.447128E+06  5.501783E+05  3.897740E+05  2.495208E+04 -1.252779E+05
       212   4  8.868139E+02 -6.640494E+05  8.235432E+03  3.661109E+05  6.706607E+04 -1.185327E+04
       212   5  4.334485E+03 -6.685673E+05  1.837134E+04  2.921042E+05  7.487835E+04 -2.149335E+04
       212   6  3.795061E+04 -6.645186E+05  4.224534E+04  3.660151E+05  2.518582E+04 -3.102331E+04
       212   7 -2.775246E+05 -1.818074E+06 -2.282449E+05  3.680518E+05  6.693497E+04 -5.567224E+04
       212   8 -3.909468E+05 -2.293475E+06 -3.300120E+05  2.812183E+05  7.496161E+04  3.588373E+03
       212   9 -4.861665E+05 -2.772068E+06 -4.659718E+05  3.423336E+05  2.541283E+04  6.291256E+04
       212  10  2.792104E+05  4.912448E+05  2.446418E+05  3.641634E+05 -1.302062E-10 -5.329024E-10
       212  11  3.994367E+05  9.588294E+05  3.665886E+05  3.030198E+05 -5.715924E-10 -4.282398E-10
       212  12  5.617445E+05  1.447111E+06  5.501477E+05  3.897765E+05  3.207943E-10  8.572270E-11
       212  13  8.819470E+02 -6.640508E+05  8.226716E+03  3.661116E+05  2.007563E-09 -1.406600E-10
       212  14  4.328341E+03 -6.685694E+05  1.835993E+04  2.921055E+05 -1.308475E-09  1.140843E-10
       212  15  3.794967E+04 -6.645198E+05  4.224233E+04  3.660157E+05  3.656630E-10 -3.338354E-11
       212  16 -2.775303E+05 -1.818078E+06 -2.282592E+05  3.680548E+05 -5.258708E-10  6.151129E-10
       212  17 -3.909528E+05 -2.293477E+06 -3.300226E+05  2.812181E+05 -7.163064E-10  6.086963E-10
       212  18 -4.861682E+05 -2.772072E+06 -4.659805E+05  3.423323E+05  5.244287E-10 -2.207544E-10
       212  19  2.792156E+05  4.912471E+05  2.446522E+05  3.641651E+05 -6.719675E+04 -3.204590E+04
       212  20  3.994433E+05  9.588333E+05  3.666032E+05  3.030170E+05 -7.479434E+04  4.663992E+04
       212  21  5.617494E+05  1.447128E+06  5.501783E+05  3.897740E+05 -2.495208E+04  1.252779E+05
       212  22  8.868139E+02 -6.640494E+05  8.235432E+03  3.661109E+05 -6.706607E+04  1.185327E+04
       212  23  4.334485E+03 -6.685673E+05  1.837134E+04  2.921042E+05 -7.487835E+04  2.149335E+04
       212  24  3.795061E+04 -6.645186E+05  4.224534E+04  3.660151E+05 -2.518582E+04  3.102331E+04
       212  25 -2.775246E+05 -1.818074E+06 -2.282449E+05  3.680518E+05 -6.693497E+04  5.567224E+04
       212  26 -3.909468E+05 -2.293475E+06 -3.300120E+05  2.812183E+05 -7.496161E+04 -3.588373E+03
       212  27 -4.861665E+05 -2.772068E+06 -4.659718E+05  3.423336E+05 -2.541283E+04 -6.291256E+04
       213   1  2.597340E+06  6.577937E+05  6.389988E+05  3.928262E+05  1.263172E+05 -3.290496E+04
       213   2  2.078659E+06  5.147634E+05  4.551870E+05  3.136794E+05  3.956733E+04 -9.962030E+04
       213   3  1.577370E+06  3.903164E+05  3.325248E+05  3.916541E+05 -4.702299E+04 -9.517575E+04
       213   4 -4.740943E+04  2.757249E+03  4.446749E+03  3.919725E+05  3.123585E+03 -3.283068E+04
       213   5 -4.824245E+04 -7.435093E+02  1.934903E+03  3.133968E+05  2.093927E+03 -9.963834E+04
       213   6 -4.673913E+04 -4.651765E+02  1.211916E+03  3.919708E+05  1.150229E+03 -9.517611E+04
       213   7 -2.685738E+06 -6.527789E+05 -6.305447E+05  3.911217E+05 -1.195489E+05 -3.275604E+04
       213   8 -2.170890E+06 -5.165440E+05 -4.515726E+05  3.131145E+05 -3.525332E+04 -9.965643E+04
       213   9 -1.668340E+06 -3.914104E+05 -3.302313E+05  3.922857E+05  4.919998E+04 -9.517640E+04
       213  10  2.597323E+06  6.577883E+05  6.389669E+05  3.928295E+05  1.375657E-10  8.157816E-11
       213  11  2.078655E+06  5.147523E+05  4.551654E+05  3.136826E+05  1.336486E-10  1.189705E-10
       213  12  1.577366E+06  3.903061E+05  3.325036E+05  3.916505E+05 -3.779789E-10 -2.507814E-10
       213  13 -4.740973E+04  2.756089E+03  4.444705E+03  3.919726E+05 -1.267341E-09  2.382033E-10
       213  14 -4.824512E+04 -7.541711E+02  1.916239E+03  3.133970E+05  7.129879E-10 -4.758057E-11
       213  15 -4.674157E+04 -4.749040E+02  1.194891E+03  3.919709E+05 -3.995799E-10 -6.734570E-11
       213  16 -2.685754E+06 -6.527839E+05 -6.305736E+05  3.911185E+05  3.990250E-10 -1.295036E-10
       213  17 -2.170894E+06 -5.165550E+05 -4.515936E+05  3.131116E+05 -1.735353E-10 -1.877855E-10
       213  18 -1.668345E+06 -3.914208E+05 -3.302529E+05  3.922895E+05  5.999271E-10  1.155867E-10
       213  19  2.597340E+06  6.577937E+05  6.389988E+05  3.928262E+05 -1.263172E+05  3.290496E+04
       213  20  2.078659E+06  5.147634E+05  4.551870E+05  3.136794E+05 -3.956733E+04  9.962030E+04
       213  21  1.577370E+06  3.903164E+05  3.325248E+05  3.916541E+05  4.702299E+04  9.517575E+04
       213  22 -4.740943E+04  2.757249E+03  4.446749E+03  3.919725E+05 -3.123585E+03  3.283068E+04
       213  23 -4.824245E+04 -7.435093E+02  1.934903E+03  3.133968E+05 -2.093927E+03  9.963834E+04
       213  24 -4.673913E+04 -4.651765E+02  1.211916E+03  3.919708E+05 -1.150229E+03  9.517611E+04
       213  25 -2.685738E+06 -6.527789E+05 -6.305447E+05  3.911217E+05  1.195489E+05  3.275604E+04
       213  26 -2.170890E+06 -5.165440E+05 -4.515726E+05  3.131145E+05  3.525332E+04  9.965643E+04
       213  27 -1.668340E+06 -3.914104E+05 -3.302313E+05  3.922857E+05 -4.919998E+04  9.517640E+04
       214   1  1.208762E+06  3.023596E+05  2.575396E+05  3.931721E+05 -3.040936E+04 -7.305704E+04
       214   2  6.991442E+05  1.795979E+05  1.516300E+05  3.126002E+05 -3.507284E+04 -4.508660E+04
       214   3  1.907302E+05  5.778267E+04  4.899182E+04  3.929517E+05 -3.975503E+04 -1.338053E+04
       214   4 -4.700161E+04  5.261042E+01  8.799108E+02  3.928126E+05  9.581345E+02 -7.304936E+04
       214   5 -4.696826E+04  1.847749E+02  3.777410E+02  3.123448E+05  7.709724E+02 -4.506438E+04
       214   6 -4.676326E+04  4.991619E+02  4.396372E+01  3.928126E+05  5.613236E+02 -1.334084E+04
       214   7 -1.301266E+06 -3.023526E+05 -2.558596E+05  3.924532E+05  3.226343E+04 -7.304170E+04
       214   8 -7.925484E+05 -1.792623E+05 -1.508986E+05  3.120895E+05  3.657256E+04 -4.504217E+04
       214   9 -2.841997E+05 -5.678703E+04 -4.890082E+04  3.926735E+05  4.086253E+04 -1.330115E+04
       214  10  1.208760E+06  3.023536E+05  2.575279E+05  3.931703E+05 -3.703612E-10 -3.477344E-10
       214  11  6.991423E+05  1.795954E+05  1.516239E+05  3.125989E+05 -1.923553E-09 -1.323801E-10
       214  12  1.907284E+05  5.778205E+04  4.898852E+04  3.929513E+05 -2.137293E-11  1.971608E-10
       214  13 -4.700304E+04  4.688008E+01  8.698813E+02  3.928127E+05  5.026039E-10 -9.782631E-11
       214  14 -4.696880E+04  1.825940E+02  3.739236E+02  3.123448E+05 -6.118414E-10  8.011672E-11
       214  15 -4.676331E+04  4.989707E+02  4.362866E+01  3.928126E+05 -6.661207E-11  3.444607E-10
       214  16 -1.301269E+06 -3.023586E+05 -2.558716E+05  3.924551E+05  6.410245E-10  1.535054E-10
       214  17 -7.925504E+05 -1.792648E+05 -1.509050E+05  3.120909E+05 -4.003072E-11 -5.575602E-11
       214  18 -2.842015E+05 -5.678767E+04 -4.890430E+04  3.926740E+05 -3.138474E-10 -8.496067E-12
       214  19  1.208762E+06  3.023596E+05  2.575396E+05  3.931721E+05  3.040936E+04  7.305704E+04
       214  20  6.991442E+05  1.795979E+05  1.516300E+05  3.126002E+05  3.507284E+04  4.508660E+04
       214  21  1.907302E+05  5.778267E+04  4.899182E+04  3.929517E+05  3.975503E+04  1.338053E+04
       214  22 -4.700161E+04  5.261042E+01  8.799108E+02  3.928126E+05 -9.581345E+02  7.304936E+04
       214  23 -4.696826E+04  1.847749E+02  3.777410E+02  3.123448E+05 -7.709724E+02  4.506438E+04
       214  24 -4.676326E+04  4.991619E+02  4.396372E+01  3.928126E+05 -5.613236E+02  1.334084E+04
       214  25 -1.301266E+06 -3.023526E+05 -2.558596E+05  3.924532E+05 -3.226343E+04  7.304170E+04
       214  26 -7.925484E+05 -1.792623E+05 -1.508986E+05  3.120895E+05 -3.657256E+04  4.504217E+04
       214  27 -2.841997E+05 -5.678703E+04 -4.890082E+04  3.926735E+05 -4.086253E+04  1.330115E+04
       215   1 -1.750420E+05 -3.051289E+04 -2.711943E+04  3.926288E+05 -3.972767E+04  6.470530E+03
       215   2 -6.833466E+05 -1.529834E+05 -1.299053E+05  3.121108E+05 -3.512493E+04  3.826046E+04
       215   3 -1.192182E+06 -2.763711E+05 -2.359439E+05  3.925483E+05 -3.050650E+04  6.647096E+04
       215   4 -4.679831E+04  5.352536E+02 -1.430585E+02  3.928147E+05  5.411542E+02  6.510796E+03
       215   5 -4.688833E+04  2.185113E+02 -6.353654E+02  3.123423E+05  8.385165E+02  3.828527E+04
       215   6 -4.700178E+04 -2.516651E+02 -1.383280E+03  3.928151E+05  1.155149E+03  6.648283E+04
       215   7  8.146443E+04  3.158321E+04  2.683848E+04  3.930006E+05  4.081816E+04  6.551080E+03
       215   8  5.899585E+05  1.533958E+05  1.286183E+05  3.125739E+05  3.683817E+04  3.831007E+04
       215   9  1.099428E+06  2.757860E+05  2.331114E+05  3.930819E+05  3.287422E+04  6.649470E+04
       215  10 -1.750437E+05 -3.051336E+04 -2.712247E+04  3.926290E+05  1.173822E-09  2.927793E-10
       215  11 -6.833483E+05 -1.529853E+05 -1.299104E+05  3.121119E+05  5.842049E-10  1.893740E-10
       215  12 -1.192184E+06 -2.763761E+05 -2.359539E+05  3.925499E+05  1.291955E-11 -1.133560E-10
       215  13 -4.679832E+04  5.352080E+02 -1.431387E+02  3.928147E+05  7.195732E-10 -1.302406E-10
       215  14 -4.688873E+04  2.169372E+02 -6.381210E+02  3.123423E+05  4.473513E-10 -3.029337E-10
       215  15 -4.700297E+04 -2.564115E+02 -1.391588E+03  3.928150E+05  4.741224E-10 -4.343272E-10
       215  16  8.146263E+04  3.158272E+04  2.683527E+04  3.930004E+05 -9.497893E-10 -1.292453E-10
       215  17  5.899566E+05  1.533939E+05  1.286130E+05  3.125727E+05 -8.151448E-10 -1.148248E-09
       215  18  1.099426E+06  2.757809E+05  2.331011E+05  3.930801E+05  1.041968E-09 -5.714135E-10
       215  19 -1.750420E+05 -3.051289E+04 -2.711943E+04  3.926288E+05  3.972767E+04 -6.470530E+03
       215  20 -6.833466E+05 -1.529834E+05 -1.299053E+05  3.121108E+05  3.512493E+04 -3.826046E+04
       215  21 -1.192182E+06 -2.763711E+05 -2.359439E+05  3.925483E+05  3.050650E+04 -6.647096E+04
       215  22 -4.679831E+04  5.352536E+02 -1.430585E+02  3.928147E+05 -5.411542E+02 -6.510796E+03
       215  23 -4.688833E+04  2.185113E+02 -6.353654E+02  3.123423E+05 -8.385165E+02 -3.828527E+04
       215  24 -4.700178E+04 -2.516651E+02 -1.383280E+03  3.928151E+05 -1.155149E+03 -6.648283E+04
       215  25  8.146443E+04  3.158321E+04  2.683848E+04  3.930006E+05 -4.081816E+04 -6.551080E+03
       215  26  5.899585E+05  1.533958E+05  1.286183E+05  3.125739E+05 -3.683817E+04 -3.831007E+04
       215  27  1.099428E+06  2.757860E+05  2.331114E+05  3.930819E+05 -3.287422E+04 -6.649470E+04
       216   1 -1.559709E+06 -3.647240E+05 -3.111115E+05  3.910090E+05 -4.639900E+04  8.850600E+04
       216   2 -2.061293E+06 -4.909111E+05 -4.340777E+05  3.150548E+05  3.760212E+04  9.412075E+04
       216   3 -2.577138E+06 -6.357360E+05 -6.162886E+05  3.964246E+05  1.214591E+05  3.112181E+04
       216   4 -4.724133E+04 -7.235928E+01 -1.794374E+03  3.920053E+05  1.358066E+03  8.851192E+04
       216   5 -4.746319E+04 -1.518291E+03 -3.515129E+03  3.133552E+05  3.264904E+03  9.410092E+04
       216   6 -4.787777E+04 -7.283566E+03 -7.355890E+03  3.920038E+05  5.099079E+03  3.117612E+04
       216   7  1.467409E+06  3.644370E+05  3.074103E+05  3.930033E+05  4.922957E+04  8.851797E+04
       216   8  1.970195E+06  4.876101E+05  4.268169E+05  3.116492E+05 -3.118237E+04  9.408135E+04
       216   9  2.487281E+06  6.207095E+05  6.011717E+05  3.875639E+05 -1.117347E+05  3.123211E+04
       216  10 -1.559713E+06 -3.647330E+05 -3.111303E+05  3.910123E+05 -1.345157E-10 -1.975329E-10
       216  11 -2.061297E+06 -4.909210E+05 -4.340970E+05  3.150520E+05  4.869169E-10 -1.086554E-10
       216  12 -2.577154E+06 -6.357410E+05 -6.163182E+05  3.964216E+05  4.008749E-10  1.219963E-10
       216  13 -4.724343E+04 -8.077222E+01 -1.809099E+03  3.920052E+05  1.510237E-09 -2.285327E-10
       216  14 -4.746558E+04 -1.527802E+03 -3.531789E+03  3.133550E+05  1.175198E-09 -4.218512E-10
       216  15 -4.787806E+04 -7.284616E+03 -7.357765E+03  3.920037E+05  4.927055E-10 -2.734220E-11
       216  16  1.467404E+06  3.644279E+05  3.073910E+05  3.929998E+05  4.157617E-10 -2.119654E-10
       216  17  1.970192E+06  4.876003E+05  4.267985E+05  3.116515E+05  1.070352E-10 -2.110946E-10
       216  18  2.487268E+06  6.207051E+05  6.011465E+05  3.875667E+05  3.076288E-10 -1.919632E-11
       216  19 -1.559709E+06 -3.647240E+05 -3.111115E+05  3.910090E+05  4.639900E+04 -8.850600E+04
       216  20 -2.061293E+06 -4.909111E+05 -4.340777E+05  3.150548E+05 -3.760212E+04 -9.412075E+04
       216  21 -2.577138E+06 -6.357360E+05 -6.162886E+05  3.964246E+05 -1.214591E+05 -3.112181E+04
       216  22 -4.724133E+04 -7.235928E+01 -1.794374E+03  3.920053E+05 -1.358066E+03 -8.851192E+04
       216  23 -4.746319E+04 -1.518291E+03 -3.515129E+03  3.133552E+05 -3.264904E+03 -9.410092E+04
       216  24 -4.787777E+04 -7.283566E+03 -7.355890E+03  3.920038E+05 -5.099079E+03 -3.117612E+04
       216  25  1.467409E+06  3.644370E+05  3.074103E+05  3.930033E+05 -4.922957E+04 -8.851797E+04
       216  26  1.970195E+06  4.876101E+05  4.268169E+05  3.116492E+05  3.118237E+04 -9.408135E+04
       216  27  2.487281E+06  6.207095E+05  6.011717E+05  3.875639E+05  1.117347E+05 -3.123211E+04
       217   1 -5.255185E+05 -2.190849E+06 -5.125801E+05  5.143685E+05 -2.302326E+04 -8.481542E+04
       217   2 -3.506764E+05 -1.511630E+06 -3.101945E+05  4.108472E+05 -6.275453E+04 -1.484092E+04
       217   3 -1.856324E+05 -8.441144E+05 -1.560541E+05  5.173296E+05 -4.282246E+04  5.510075E+04
       217   4  3.291101E+03 -6.430475E+04  1.947532E+03  5.191504E+05 -2.280855E+04 -1.330451E+03
       217   5  1.748672E+03 -6.415296E+04  3.023960E+03  4.141655E+05 -6.270984E+04 -2.744025E+03
       217   6  2.865475E+03 -6.369732E+04  5.556941E+03  5.191524E+05 -4.301106E+04 -4.268216E+03
       217   7  5.317730E+05  2.066397E+06  5.161765E+05  5.239446E+05 -2.259301E+04  8.244033E+04
       217   8  3.540354E+05  1.385294E+06  3.161187E+05  4.174896E+05 -6.266509E+04  9.380750E+03
       217   9  1.913266E+05  7.173051E+05  1.671481E+05  5.209769E+05 -4.319985E+04 -6.371061E+04
       217  10 -5.255210E+05 -2.190856E+06 -5.125947E+05  5.143669E+05  2.541312E-10  1.028678E-10
       217  11 -3.506807E+05 -1.511631E+06 -3.102023E+05  4.108465E+05  1.123867E-09  9.328756E-11
       217  12 -1.856352E+05 -8.441181E+05 -1.560632E+05  5.173315E+05 -1.286226E-09 -1.222214E-10
       217  13  3.290542E+03 -6.430489E+04  1.946551E+03  5.191504E+05 -1.880774E-09  4.274494E-11
       217  14  1.744447E+03 -6.415402E+04  3.016556E+03  4.141653E+05  2.203134E-09  5.924354E-11
       217  15  2.863484E+03 -6.369783E+04  5.553432E+03  5.191523E+05 -4.066037E-10  1.940909E-10
       217  16  5.317706E+05  2.066389E+06  5.161628E+05  5.239461E+05  2.562535E-10  7.529198E-11
       217  17  3.540312E+05  1.385293E+06  3.161112E+05  4.174901E+05  1.141961E-11 -1.804955E-10
       217  18  1.913235E+05  7.173002E+05  1.671370E+05  5.209747E+05 -5.180295E-11  1.571800E-10
       217  19 -5.255185E+05 -2.190849E+06 -5.125801E+05  5.143685E+05  2.302326E+04  8.481542E+04
       217  20 -3.506764E+05 -1.511630E+06 -3.101945E+05  4.108472E+05  6.275453E+04  1.484092E+04
       217  21 -1.856324E+05 -8.441144E+05 -1.560541E+05  5.173296E+05  4.282246E+04 -5.510075E+04
       217  22  3.291101E+03 -6.430475E+04  1.947532E+03  5.191504E+05  2.280855E+04  1.330451E+03
       217  23  1.748672E+03 -6.415296E+04  3.023960E+03  4.141655E+05  6.270984E+04  2.744025E+03
       217  24  2.865475E+03 -6.369732E+04  5.556941E+03  5.191524E+05  4.301106E+04  4.268216E+03
       217  25  5.317730E+05  2.066397E+06  5.161765E+05  5.239446E+05  2.259301E+04 -8.244033E+04
       217  26  3.540354E+05  1.385294E+06  3.161187E+05  4.174896E+05  6.266509E+04 -9.380750E+03
       217  27  1.913266E+05  7.173051E+05  1.671481E+05  5.209769E+05  4.319985E+04  6.371061E+04
       218   1 -6.856636E+04 -3.582346E+05 -5.488390E+04  5.183835E+05 -1.465684E+04  4.078920E+04
       218   2  9.340762E+04  3.147205E+05  8.901831E+04  4.143253E+05  2.337414E+04  3.316011E+04
       218   3  2.598897E+05  9.890724E+05  2.386659E+05  5.231780E+05  6.034374E+04  2.554038E+04
       218   4  2.835061E+03 -6.349003E+04  7.262322E+03  5.198082E+05 -1.481034E+04 -5.510362E+03
       218   5  2.388032E+03 -6.394537E+04  1.254467E+04  4.133440E+05  2.323357E+04 -1.188385E+04
       218   6  6.258834E+03 -6.364969E+04  2.271484E+04  5.197965E+05  6.021445E+04 -1.824008E+04
       218   7  7.423204E+04  2.313412E+05  6.941171E+04  5.212335E+05 -1.496401E+04 -5.183157E+04
       218   8 -8.863935E+04 -4.424703E+05 -6.392873E+04  4.123631E+05  2.309310E+04 -5.690088E+04
       218   9 -2.474406E+05 -1.115316E+06 -1.932881E+05  5.164196E+05  6.008550E+04 -6.194770E+04
       218  10 -6.856704E+04 -3.582364E+05 -5.488744E+04  5.183840E+05 -2.732252E-10  1.504668E-09
       218  11  9.340674E+04  3.147192E+05  8.901522E+04  4.143247E+05 -9.844551E-10  6.308183E-10
       218  12  2.598856E+05  9.890708E+05  2.386578E+05  5.231768E+05  8.674567E-10 -1.893543E-10
       218  13  2.834818E+03 -6.349012E+04  7.261853E+03  5.198081E+05 -2.538399E-10  7.309378E-11
       218  14  2.387414E+03 -6.394567E+04  1.254339E+04  4.133442E+05 -1.839021E-09 -8.443189E-11
       218  15  6.254850E+03 -6.365102E+04  2.270740E+04  5.197974E+05 -1.585852E-09  1.192986E-10
       218  16  7.423108E+04  2.313383E+05  6.940624E+04  5.212329E+05 -2.597373E-10 -1.373610E-09
       218  17 -8.864080E+04 -4.424740E+05 -6.393582E+04  4.123642E+05  1.576468E-09 -8.618187E-10
       218  18 -2.474456E+05 -1.115321E+06 -1.933021E+05  5.164226E+05  1.091606E-09 -1.038606E-10
       218  19 -6.856636E+04 -3.582346E+05 -5.488390E+04  5.183835E+05  1.465684E+04 -4.078920E+04
       218  20  9.340762E+04  3.147205E+05  8.901831E+04  4.143253E+05 -2.337414E+04 -3.316011E+04
       218  21  2.598897E+05  9.890724E+05  2.386659E+05  5.231780E+05 -6.034374E+04 -2.554038E+04
       218  22  2.835061E+03 -6.349003E+04  7.262322E+03  5.198082E+05  1.481034E+04  5.510362E+03
       218  23  2.388032E+03 -6.394537E+04  1.254467E+04  4.133440E+05 -2.323357E+04  1.188385E+04
       218  24  6.258834E+03 -6.364969E+04  2.271484E+04  5.197965E+05 -6.021445E+04  1.824008E+04
       218  25  7.423204E+04  2.313412E+05  6.941171E+04  5.212335E+05  1.496401E+04  5.183157E+04
       218  26 -8.863935E+04 -4.424703E+05 -6.392873E+04  4.123631E+05 -2.309310E+04  5.690088E+04
       218  27 -2.474406E+05 -1.115316E+06 -1.932881E+05  5.164196E+05 -6.008550E+04  6.194770E+04
       219   1  3.703532E+05  1.480855E+06  3.441413E+05  5.107096E+05  8.921282E+04  3.935028E+04
       219   2  5.446121E+05  2.135954E+06  5.229591E+05  4.380444E+05  1.008541E+05 -8.196097E+04
       219   3  8.111463E+05  2.830491E+06  8.036478E+05  5.742265E+05  3.385023E+04 -2.033166E+05
       219   4 -2.934286E+02 -5.902270E+04  2.912669E+04  5.189353E+05  8.904952E+04 -2.230675E+04
       219   5  9.272815E+03 -7.085457E+04  5.087784E+04  4.144095E+05  1.009595E+05 -4.889931E+04
       219   6  9.489980E+04 -5.994101E+04  1.089457E+05  5.187394E+05  3.411021E+04 -7.539940E+04
       219   7 -3.710863E+05 -1.596643E+06 -2.859993E+05  5.271377E+05  8.888434E+04 -8.381385E+04
       219   8 -5.263821E+05 -2.273087E+06 -4.214818E+05  3.908557E+05  1.010626E+05 -1.595294E+04
       219   9 -6.219348E+05 -2.942707E+06 -5.862881E+05  4.635043E+05  3.434822E+04  5.192717E+04
       219  10  3.703442E+05  1.480852E+06  3.441234E+05  5.107067E+05 -1.705051E-10 -2.067347E-10
       219  11  5.445993E+05  2.135944E+06  5.229274E+05  4.380511E+05 -2.703898E-10 -3.474657E-10
       219  12  8.111341E+05  2.830447E+06  8.035683E+05  5.742320E+05  3.507064E-10 -7.705711E-12
       219  13 -3.020796E+02 -5.902537E+04  2.911085E+04  5.189369E+05  1.761075E-09 -4.744368E-11
       219  14  9.261223E+03 -7.085988E+04  5.085418E+04  4.144135E+05 -6.220754E-10 -3.535835E-11
       219  15  9.489703E+04 -5.994743E+04  1.089328E+05  5.187415E+05  2.705675E-10  7.400229E-12
       219  16 -3.710966E+05 -1.596652E+06 -2.860274E+05  5.271438E+05 -3.536684E-10  3.198041E-10
       219  17 -5.263931E+05 -2.273090E+06 -4.215015E+05  3.908570E+05 -4.240820E-10  3.651315E-10
       219  18 -6.219368E+05 -2.942710E+06 -5.862954E+05  4.635029E+05  2.973649E-10 -9.345455E-11
       219  19  3.703532E+05  1.480855E+06  3.441413E+05  5.107096E+05 -8.921282E+04 -3.935028E+04
       219  20  5.446121E+05  2.135954E+06  5.229591E+05  4.380444E+05 -1.008541E+05  8.196097E+04
       219  21  8.111463E+05  2.830491E+06  8.036478E+05  5.742265E+05 -3.385023E+04  2.033166E+05
       219  22 -2.934286E+02 -5.902270E+04  2.912669E+04  5.189353E+05 -8.904952E+04  2.230675E+04
       219  23  9.272815E+03 -7.085457E+04  5.087784E+04  4.144095E+05 -1.009595E+05  4.889931E+04
       219  24  9.489980E+04 -5.994101E+04  1.089457E+05  5.187394E+05 -3.411021E+04  7.539940E+04
       219  25 -3.710863E+05 -1.596643E+06 -2.859993E+05  5.271377E+05 -8.888434E+04  8.381385E+04
       219  26 -5.263821E+05 -2.273087E+06 -4.214818E+05  3.908557E+05 -1.010626E+05  1.595294E+04
       219  27 -6.219348E+05 -2.942707E+06 -5.862881E+05  4.635043E+05 -3.434822E+04 -5.192717E+04
       220   1  2.458438E+06  6.069022E+05  5.909973E+05  3.666125E+05  1.208323E+05 -2.988225E+04
       220   2  1.979354E+06  4.682468E+05  4.176578E+05  2.909711E+05  3.955737E+04 -9.034019E+04
       220   3  1.517795E+06  3.525390E+05  3.029789E+05  3.602794E+05 -4.158204E+04 -8.593111E+04
       220   4  4.963459E+04  1.027920E+04  1.297609E+04  3.614895E+05  8.971916E+03 -2.982346E+04
       220   5  4.800810E+04  1.151305E+02  5.982203E+03  2.890017E+05  5.826529E+03 -9.035564E+04
       220   6  5.019637E+04 -5.895787E+02  3.543924E+03  3.614855E+05  2.751721E+03 -8.593045E+04
       220   7 -2.353842E+06 -5.867582E+05 -5.654099E+05  3.563856E+05 -1.024575E+05 -2.976281E+04
       220   8 -1.879830E+06 -4.682586E+05 -4.059042E+05  2.870380E+05 -2.780120E+04 -9.037094E+04
       220   9 -1.415354E+06 -3.538517E+05 -2.959972E+05  3.626879E+05  4.698279E+04 -8.592960E+04
       220  10  2.458422E+06  6.068973E+05  5.909683E+05  3.666154E+05 -1.482006E-11 -8.384110E-11
       220  11  1.979350E+06  4.682376E+05  4.176395E+05  2.909740E+05 -5.105865E-11  3.142381E-10
       220  12  1.517792E+06  3.525306E+05  3.029618E+05  3.602765E+05 -5.668973E-11  4.258730E-10
       220  13  4.963426E+04  1.027823E+04  1.297427E+04  3.614897E+05 -1.198612E-09  2.810879E-10
       220  14  4.800587E+04  1.063540E+02  5.966796E+03  2.890022E+05  3.964600E-10  1.378340E-10
       220  15  5.019437E+04 -5.975103E+02  3.530032E+03  3.614856E+05  1.454237E-10  3.988712E-10
       220  16 -2.353854E+06 -5.867620E+05 -5.654313E+05  3.563832E+05 -1.059140E-10 -3.375913E-10
       220  17 -1.879833E+06 -4.682676E+05 -4.059210E+05  2.870359E+05 -8.709816E-11  1.752315E-10
       220  18 -1.415359E+06 -3.538602E+05 -2.960153E+05  3.626912E+05 -2.662816E-10  2.966029E-10
       220  19  2.458438E+06  6.069022E+05  5.909973E+05  3.666125E+05 -1.208323E+05  2.988225E+04
       220  20  1.979354E+06  4.682468E+05  4.176578E+05  2.909711E+05 -3.955737E+04  9.034019E+04
       220  21  1.517795E+06  3.525390E+05  3.029789E+05  3.602794E+05  4.158204E+04  8.593111E+04
       220  22  4.963459E+04  1.027920E+04  1.297609E+04  3.614895E+05 -8.971916E+03  2.982346E+04
       220  23  4.800810E+04  1.151305E+02  5.982203E+03  2.890017E+05 -5.826529E+03  9.035564E+04
       220  24  5.019637E+04 -5.895787E+02  3.543924E+03  3.614855E+05 -2.751721E+03  8.593045E+04
       220  25 -2.353842E+06 -5.867582E+05 -5.654099E+05  3.563856E+05  1.024575E+05  2.976281E+04
       220  26 -1.879830E+06 -4.682586E+05 -4.059042E+05  2.870380E+05  2.780120E+04  9.037094E+04
       220  27 -1.415354E+06 -3.538517E+05 -2.959972E+05  3.626879E+05 -4.698279E+04  8.592960E+04
       221   1  1.177584E+06  2.719189E+05  2.333340E+05  3.626573E+05 -2.677468E+04 -6.556233E+04
       221   2  7.076397E+05  1.584159E+05  1.349870E+05  2.882804E+05 -3.162075E+04 -3.971373E+04
       221   3  2.388949E+05  4.604210E+04  4.007051E+04  3.622961E+05 -3.648160E+04 -1.046568E+04
       221   4  4.959447E+04  3.711852E+02  2.752311E+03  3.622491E+05  2.242456E+03 -6.555512E+04
       221   5  4.954684E+04  1.691636E+02  1.546430E+03  2.880480E+05  1.471791E+03 -3.969462E+04
       221   6  4.978832E+04  4.036607E+02  9.503080E+02  3.622494E+05  6.828524E+02 -1.043228E+04
       221   7 -1.077185E+06 -2.712558E+05 -2.278936E+05  3.618412E+05  3.120790E+04 -6.554793E+04
       221   8 -6.081317E+05 -1.581039E+05 -1.319125E+05  2.878157E+05  3.452994E+04 -3.967551E+04
       221   9 -1.392814E+05 -4.523630E+04 -3.816664E+04  3.622026E+05  3.783618E+04 -1.039887E+04
       221  10  1.177582E+06  2.719141E+05  2.333246E+05  3.626559E+05  9.917571E-11  3.842364E-10
       221  11  7.076382E+05  1.584139E+05  1.349821E+05  2.882794E+05  6.293439E-10 -4.462650E-11
       221  12  2.388934E+05  4.604162E+04  4.006780E+04  3.622958E+05  1.761831E-09 -1.093301E-09
       221  13  4.959331E+04  3.665688E+02  2.744226E+03  3.622493E+05  5.053878E-10  2.168191E-10
       221  14  4.954642E+04  1.674709E+02  1.543465E+03  2.880480E+05  4.966901E-10  2.712053E-10
       221  15  4.978829E+04  4.035437E+02  9.501026E+02  3.622494E+05  1.198637E-09 -1.143560E-09
       221  16 -1.077188E+06 -2.712606E+05 -2.279035E+05  3.618429E+05 -4.788765E-10  3.045488E-10
       221  17 -6.081334E+05 -1.581059E+05 -1.319177E+05  2.878168E+05 -5.145746E-10 -2.999944E-10
       221  18 -1.392830E+05 -4.523680E+04 -3.816954E+04  3.622029E+05 -1.283159E-09 -1.188853E-09
       221  19  1.177584E+06  2.719189E+05  2.333340E+05  3.626573E+05  2.677468E+04  6.556233E+04
       221  20  7.076397E+05  1.584159E+05  1.349870E+05  2.882804E+05  3.162075E+04  3.971373E+04
       221  21  2.388949E+05  4.604210E+04  4.007051E+04  3.622961E+05  3.648160E+04  1.046568E+04
       221  22  4.959447E+04  3.711852E+02  2.752311E+03  3.622491E+05 -2.242456E+03  6.555512E+04
       221  23  4.954684E+04  1.691636E+02  1.546430E+03  2.880480E+05 -1.471791E+03  3.969462E+04
       221  24  4.978832E+04  4.036607E+02  9.503080E+02  3.622494E+05 -6.828524E+02  1.043228E+04
       221  25 -1.077185E+06 -2.712558E+05 -2.278936E+05  3.618412E+05 -3.120790E+04  6.554793E+04
       221  26 -6.081317E+05 -1.581039E+05 -1.319125E+05  2.878157E+05 -3.452994E+04  3.967551E+04
       221  27 -1.392814E+05 -4.523630E+04 -3.816664E+04  3.622026E+05 -3.783618E+04  1.039887E+04
       222   1 -9.834671E+04 -3.535856E+04 -3.012743E+04  3.621051E+05 -3.663237E+04  7.836783E+03
       222   2 -5.671235E+05 -1.482589E+05 -1.247650E+05  2.878269E+05 -3.284442E+04  3.713211E+04
       222   3 -1.036279E+06 -2.618016E+05 -2.220465E+05  3.619602E+05 -2.904207E+04  6.308397E+04
       222   4  4.975118E+04  4.376372E+02  7.476336E+02  3.622493E+05  5.086439E+02  7.870384E+03
       222   5  4.960579E+04  1.669555E+02  4.371582E+02  2.880482E+05  2.750611E+02  3.715211E+04
       222   6  4.956943E+04 -3.580426E+01  2.792947E+02  3.622494E+05  5.862716E+01  6.309262E+04
       222   7  1.978728E+05  3.623317E+04  3.162667E+04  3.623934E+05  3.765837E+04  7.903997E+03
       222   8  6.666996E+05  1.485698E+05  1.256236E+05  2.882696E+05  3.342684E+04  3.717212E+04
       222   9  1.136541E+06  2.616565E+05  2.225457E+05  3.625387E+05  2.920937E+04  6.310129E+04
       222  10 -9.834817E+04 -3.535898E+04 -3.013007E+04  3.621054E+05 -5.034865E-09 -7.758047E-10
       222  11 -5.671250E+05 -1.482607E+05 -1.247696E+05  2.878279E+05  7.772728E-09  2.088942E-10
       222  12 -1.036281E+06 -2.618062E+05 -2.220556E+05  3.619616E+05  1.832898E-08  1.562525E-09
       222  13  4.975116E+04  4.375707E+02  7.475167E+02  3.622493E+05  1.234465E-09 -8.640387E-10
       222  14  4.960542E+04  1.654732E+02  4.345642E+02  2.880482E+05  7.247529E-10  2.339566E-10
       222  15  4.956836E+04 -4.007892E+01  2.718140E+02  3.622494E+05  1.135769E-10  1.109101E-09
       222  16  1.978712E+05  3.623273E+04  3.162389E+04  3.623932E+05  5.094933E-09 -9.289608E-10
       222  17  6.666981E+05  1.485680E+05  1.256189E+05  2.882686E+05 -7.888891E-09  9.978674E-10
       222  18  1.136539E+06  2.616520E+05  2.225366E+05  3.625373E+05 -1.819478E-08  1.299752E-09
       222  19 -9.834671E+04 -3.535856E+04 -3.012743E+04  3.621051E+05  3.663237E+04 -7.836783E+03
       222  20 -5.671235E+05 -1.482589E+05 -1.247650E+05  2.878269E+05  3.284442E+04 -3.713211E+04
       222  21 -1.036279E+06 -2.618016E+05 -2.220465E+05  3.619602E+05  2.904207E+04 -6.308397E+04
       222  22  4.975118E+04  4.376372E+02  7.476336E+02  3.622493E+05 -5.086439E+02 -7.870384E+03
       222  23  4.960579E+04  1.669555E+02  4.371582E+02  2.880482E+05 -2.750611E+02 -3.715211E+04
       222  24  4.956943E+04 -3.580426E+01  2.792947E+02  3.622494E+05 -5.862716E+01 -6.309262E+04
       222  25  1.978728E+05  3.623317E+04  3.162667E+04  3.623934E+05 -3.765837E+04 -7.903997E+03
       222  26  6.666996E+05  1.485698E+05  1.256236E+05  2.882696E+05 -3.342684E+04 -3.717212E+04
       222  27  1.136541E+06  2.616565E+05  2.225457E+05  3.625387E+05 -2.920937E+04 -6.310129E+04
       223   1 -1.374964E+06 -3.436470E+05 -2.909765E+05  3.613375E+05 -4.414325E+04  8.342857E+04
       223   2 -1.838219E+06 -4.593069E+05 -4.032544E+05  2.893190E+05  3.252181E+04  8.829424E+04
       223   3 -2.313444E+06 -5.876593E+05 -5.685143E+05  3.623693E+05  1.090598E+05  2.914630E+04
       223   4  4.962736E+04 -2.502378E+02  2.625067E+02  3.615035E+05 -1.845139E+01  8.343150E+04
       223   5  4.877195E+04 -8.421700E+02  2.129957E+01  2.889808E+05  2.913847E+01  8.827827E+04
       223   6  4.907767E+04 -7.791687E+02  9.208815E+01  3.615037E+05  1.081036E+01  2.919925E+04
       223   7  1.476154E+06  3.430203E+05  2.914015E+05  3.616691E+05  4.420592E+04  8.343443E+04
       223   8  1.939123E+06  4.573905E+05  4.030949E+05  2.886409E+05 -3.256107E+04  8.826238E+04
       223   9  2.416745E+06  5.857003E+05  5.683455E+05  3.606341E+05 -1.094527E+05  2.925250E+04
       223  10 -1.374968E+06 -3.436550E+05 -2.909932E+05  3.613405E+05 -1.681160E-08  1.365330E-09
       223  11 -1.838222E+06 -4.593156E+05 -4.032710E+05  2.893167E+05 -7.716175E-09  2.676962E-10
       223  12 -2.313457E+06 -5.876634E+05 -5.685383E+05  3.623667E+05  2.668485E-09 -2.749303E-10
       223  13  4.962549E+04 -2.577127E+02  2.494256E+02  3.615035E+05 -1.095858E-10  1.211868E-09
       223  14  4.876986E+04 -8.505386E+02  6.654554E+00  2.889808E+05 -4.423403E-10  4.339629E-10
       223  15  4.907744E+04 -7.800843E+02  9.048592E+01  3.615037E+05 -7.078708E-10 -2.146042E-10
       223  16  1.476150E+06  3.430123E+05  2.913847E+05  3.616661E+05  1.644571E-08  7.992282E-10
       223  17  1.939120E+06  4.573819E+05  4.030782E+05  2.886432E+05  7.605913E-09  4.112553E-10
       223  18  2.416732E+06  5.856961E+05  5.683215E+05  3.606367E+05 -3.304282E-09 -1.731389E-10
       223  19 -1.374964E+06 -3.436470E+05 -2.909765E+05  3.613375E+05  4.414325E+04 -8.342857E+04
       223  20 -1.838219E+06 -4.593069E+05 -4.032544E+05  2.893190E+05 -3.252181E+04 -8.829424E+04
       223  21 -2.313444E+06 -5.876593E+05 -5.685143E+05  3.623693E+05 -1.090598E+05 -2.914630E+04
       223  22  4.962736E+04 -2.502378E+02  2.625067E+02  3.615035E+05  1.845139E+01 -8.343150E+04
       223  23  4.877195E+04 -8.421700E+02  2.129957E+01  2.889808E+05 -2.913847E+01 -8.827827E+04
       223  24  4.907767E+04 -7.791687E+02  9.208815E+01  3.615037E+05 -1.081036E+01 -2.919925E+04
       223  25  1.476154E+06  3.430203E+05  2.914015E+05  3.616691E+05 -4.420592E+04 -8.343443E+04
       223  26  1.939123E+06  4.573905E+05  4.030949E+05  2.886409E+05  3.256107E+04 -8.826238E+04
       223  27  2.416745E+06  5.857003E+05  5.683455E+05  3.606341E+05  1.094527E+05 -2.925250E+04
       224   1 -4.677805E+05 -1.904059E+06 -4.566583E+05  4.589878E+05 -2.035663E+04 -7.561475E+04
       224   2 -3.105733E+05 -1.299731E+06 -2.764589E+05  3.662042E+05 -5.547141E+04 -1.257296E+04
       224   3 -1.637612E+05 -7.063358E+05 -1.400911E+05  4.601698E+05 -3.770126E+04  5.044280E+04
       224   4  8.368754E+02 -1.918694E+04 -6.715416E+02  4.617556E+05 -2.018581E+04 -1.730784E+03
       224   5  1.251860E+03 -1.882323E+04  7.109767E+02  3.683920E+05 -5.543635E+04 -1.988537E+03
       224   6  2.312468E+03 -1.870901E+04  2.318558E+03  4.617531E+05 -3.785146E+04 -2.334686E+03
       224   7  4.691968E+05  1.868950E+06  4.550806E+05  4.645289E+05 -2.001466E+04  7.237730E+04
       224   8  3.129687E+05  1.263627E+06  2.777840E+05  3.705829E+05 -5.540127E+04  8.617467E+03
       224   9  1.683576E+05  6.693722E+05  1.447130E+05  4.633377E+05 -3.800182E+04 -5.516968E+04
       224  10 -4.677825E+05 -1.904065E+06 -4.566699E+05  4.589866E+05  3.845012E-10  3.174591E-10
       224  11 -3.105767E+05 -1.299732E+06 -2.764650E+05  3.662037E+05 -3.317684E-10 -5.890759E-10
       224  12 -1.637634E+05 -7.063389E+05 -1.400985E+05  4.601713E+05 -9.181286E-10  1.391630E-10
       224  13  8.364371E+02 -1.918705E+04 -6.723129E+02  4.617556E+05 -1.208037E-09  8.569345E-10
       224  14  1.248559E+03 -1.882406E+04  7.051945E+02  3.683919E+05  2.277225E-09 -3.239573E-11
       224  15  2.310928E+03 -1.870940E+04  2.315856E+03  4.617530E+05 -8.370777E-10  2.635465E-10
       224  16  4.691950E+05  1.868945E+06  4.550700E+05  4.645300E+05  1.142543E-10 -1.095172E-10
       224  17  3.129654E+05  1.263626E+06  2.777781E+05  3.705833E+05 -7.463108E-11 -2.498829E-10
       224  18  1.683552E+05  6.693685E+05  1.447045E+05  4.633360E+05  3.599732E-10  1.321264E-10
       224  19 -4.677805E+05 -1.904059E+06 -4.566583E+05  4.589878E+05  2.035663E+04  7.561475E+04
       224  20 -3.105733E+05 -1.299731E+06 -2.764589E+05  3.662042E+05  5.547141E+04  1.257296E+04
       224  21 -1.637612E+05 -7.063358E+05 -1.400911E+05  4.601698E+05  3.770126E+04 -5.044280E+04
       224  22  8.368754E+02 -1.918694E+04 -6.715416E+02  4.617556E+05  2.018581E+04  1.730784E+03
       224  23  1.251860E+03 -1.882323E+04  7.109767E+02  3.683920E+05  5.543635E+04  1.988537E+03
       224  24  2.312468E+03 -1.870901E+04  2.318558E+03  4.617531E+05  3.785146E+04  2.334686E+03
       224  25  4.691968E+05  1.868950E+06  4.550806E+05  4.645289E+05  2.001466E+04 -7.237730E+04
       224  26  3.129687E+05  1.263627E+06  2.777840E+05  3.705829E+05  5.540127E+04 -8.617467E+03
       224  27  1.683576E+05  6.693722E+05  1.447130E+05  4.633377E+05  3.800182E+04  5.516968E+04
       225   1 -5.970544E+04 -2.742954E+05 -5.072997E+04  4.614842E+05 -1.265679E+04  3.826770E+04
       225   2  8.432465E+04  3.244291E+05  7.522947E+04  3.684040E+05  2.117928E+04  3.407528E+04
       225   3  2.308897E+05  9.237553E+05  2.042762E+05  4.646474E+05  5.405506E+04  2.989297E+04
       225   4  2.249291E+03 -1.855519E+04  3.237289E+03  4.623329E+05 -1.277907E+04 -2.925684E+03
       225   5  1.862327E+03 -1.865161E+04  5.944710E+03  3.676660E+05  2.106746E+04 -5.981420E+03
       225   6  3.833737E+03 -1.868412E+04  1.095918E+04  4.623279E+05  5.395235E+04 -9.023197E+03
       225   7  6.420071E+04  2.372504E+05  5.720723E+04  4.631819E+05 -1.290142E+04 -4.413578E+04
       225   8 -8.060643E+04 -3.616167E+05 -6.334009E+04  3.669282E+05  2.095569E+04 -4.601642E+04
       225   9 -2.232772E+05 -9.602776E+05 -1.823995E+05  4.600110E+05  5.384983E+04 -4.788141E+04
       225  10 -5.970600E+04 -2.742970E+05 -5.073302E+04  4.614846E+05  7.134345E-11  6.529371E-10
       225  11  8.432386E+04  3.244277E+05  7.522645E+04  3.684035E+05 -8.853865E-10 -3.348846E-10
       225  12  2.308863E+05  9.237535E+05  2.042691E+05  4.646461E+05  7.483668E-10  7.096786E-10
       225  13  2.249114E+03 -1.855524E+04  3.236967E+03  4.623329E+05 -4.039228E-10  1.127681E-09
       225  14  1.861841E+03 -1.865177E+04  5.943809E+03  3.676661E+05 -1.914404E-09 -1.782523E-11
       225  15  3.830589E+03 -1.868499E+04  1.095356E+04  4.623283E+05 -1.557571E-09  2.167334E-10
       225  16  6.420001E+04  2.372482E+05  5.720326E+04  4.631814E+05 -2.709100E-10 -4.484451E-10
       225  17 -8.060747E+04 -3.616191E+05 -6.334490E+04  3.669290E+05  1.197337E-09 -6.237301E-10
       225  18 -2.232809E+05 -9.602809E+05 -1.824093E+05  4.600131E+05  1.044140E-09 -5.542495E-10
       225  19 -5.970544E+04 -2.742954E+05 -5.072997E+04  4.614842E+05  1.265679E+04 -3.826770E+04
       225  20  8.432465E+04  3.244291E+05  7.522947E+04  3.684040E+05 -2.117928E+04 -3.407528E+04
       225  21  2.308897E+05  9.237553E+05  2.042762E+05  4.646474E+05 -5.405506E+04 -2.989297E+04
       225  22  2.249291E+03 -1.855519E+04  3.237289E+03  4.623329E+05  1.277907E+04  2.925684E+03
       225  23  1.862327E+03 -1.865161E+04  5.944710E+03  3.676660E+05 -2.106746E+04  5.981420E+03
       225  24  3.833737E+03 -1.868412E+04  1.095918E+04  4.623279E+05 -5.395235E+04  9.023197E+03
       225  25  6.420071E+04  2.372504E+05  5.720723E+04  4.631819E+05  1.290142E+04  4.413578E+04
       225  26 -8.060643E+04 -3.616167E+05 -6.334009E+04  3.669282E+05 -2.095569E+04  4.601642E+04
       225  27 -2.232772E+05 -9.602776E+05 -1.823995E+05  4.600110E+05 -5.384983E+04  4.788141E+04
       226   1  3.316965E+05  1.359161E+06  2.955167E+05  4.585068E+05  7.973483E+04  4.383331E+04
       226   2  4.822784E+05  1.946203E+06  4.457465E+05  3.812029E+05  9.007033E+04 -5.341109E+04
       226   3  6.848425E+05  2.559377E+06  6.721549E+05  4.896178E+05  3.029020E+04 -1.506779E+05
       226   4  5.524501E+02 -1.640587E+04  1.411124E+04  4.615480E+05  7.960476E+04 -1.102699E+04
       226   5  4.739169E+03 -2.239531E+04  2.461686E+04  3.686366E+05  9.015326E+04 -2.387827E+04
       226   6  4.638643E+04 -1.713692E+04  5.284263E+04  4.614631E+05  3.049042E+04 -3.665561E+04
       226   7 -3.307085E+05 -1.390171E+06 -2.673832E+05  4.645806E+05  7.947396E+04 -6.576812E+04
       226   8 -4.730521E+05 -1.987352E+06 -3.967344E+05  3.561078E+05  9.023517E+04  5.562550E+03
       226   9 -5.925428E+05 -2.587562E+06 -5.668929E+05  4.334207E+05  3.068089E+04  7.689700E+04
       226  10  3.316892E+05  1.359157E+06  2.955011E+05  4.585040E+05 -1.201650E-10 -8.804696E-10
       226  11  4.822689E+05  1.946198E+06  4.457259E+05  3.812068E+05 -6.617733E-10 -1.074097E-09
       226  12  6.848355E+05  2.559353E+06  6.721106E+05  4.896215E+05 -2.764341E-11  6.272674E-10
       226  13  5.456118E+02 -1.640770E+04  1.409910E+04  4.615487E+05  1.776574E-09  9.244755E-10
       226  14  4.730287E+03 -2.239811E+04  2.460051E+04  3.686383E+05 -8.109539E-10 -3.115839E-11
       226  15  4.638507E+04 -1.713862E+04  5.283835E+04  4.614640E+05  7.854678E-11  8.866817E-11
       226  16 -3.307165E+05 -1.390177E+06 -2.674032E+05  4.645848E+05 -3.055456E-10  1.086902E-09
       226  17 -4.730609E+05 -1.987355E+06 -3.967498E+05  3.561074E+05 -6.110594E-10  5.383868E-10
       226  18 -5.925454E+05 -2.587568E+06 -5.669058E+05  4.334188E+05  1.690020E-10 -5.986033E-10
       226  19  3.316965E+05  1.359161E+06  2.955167E+05  4.585068E+05 -7.973483E+04 -4.383331E+04
       226  20  4.822784E+05  1.946203E+06  4.457465E+05  3.812029E+05 -9.007033E+04  5.341109E+04
       226  21  6.848425E+05  2.559377E+06  6.721549E+05  4.896178E+05 -3.029020E+04  1.506779E+05
       226  22  5.524501E+02 -1.640587E+04  1.411124E+04  4.615480E+05 -7.960476E+04  1.102699E+04
       226  23  4.739169E+03 -2.239531E+04  2.461686E+04  3.686366E+05 -9.015326E+04  2.387827E+04
       226  24  4.638643E+04 -1.713692E+04  5.284263E+04  4.614631E+05 -3.049042E+04  3.665561E+04
       226  25 -3.307085E+05 -1.390171E+06 -2.673832E+05  4.645806E+05 -7.947396E+04  6.576812E+04
       226  26 -4.730521E+05 -1.987352E+06 -3.967344E+05  3.561078E+05 -9.023517E+04 -5.562550E+03
       226  27 -5.925428E+05 -2.587562E+06 -5.668929E+05  4.334207E+05 -3.068089E+04 -7.689700E+04
       227   1  2.462815E+06  5.902061E+05  5.761185E+05  3.577021E+05  1.217660E+05 -2.866803E+04
       227   2  1.999855E+06  4.498958E+05  4.047469E+05  2.822435E+05  4.157327E+04 -8.662050E+04
       227   3  1.555386E+06  3.374013E+05  2.925352E+05  3.466631E+05 -3.849477E+04 -8.226212E+04
       227   4  1.494055E+05  1.724463E+04  2.099809E+04  3.487059E+05  1.445151E+04 -2.861494E+04
       227   5  1.469928E+05  8.103840E+02  9.792885E+03  2.787545E+05  9.312408E+03 -8.663488E+04
       227   6  1.499265E+05 -7.533720E+02  5.782447E+03  3.486998E+05  4.238231E+03 -8.226137E+04
       227   7 -2.159092E+06 -5.560989E+05 -5.344588E+05  3.397427E+05 -9.246597E+04 -2.855873E+04
       227   8 -1.702641E+06 -4.484978E+05 -3.853551E+05  2.752756E+05 -2.285386E+04 -8.664895E+04
       227   9 -1.253655E+06 -3.390306E+05 -2.810676E+05  3.507312E+05  4.687644E+04 -8.226033E+04
       227  10  2.462799E+06  5.902012E+05  5.760892E+05  3.577049E+05 -4.067228E-10  3.067066E-10
       227  11  1.999851E+06  4.498873E+05  4.047296E+05  2.822464E+05 -8.753541E-10  5.804856E-10
       227  12  1.555383E+06  3.373937E+05  2.925197E+05  3.466606E+05  5.283458E-12 -3.017280E-11
       227  13  1.494051E+05  1.724369E+04  2.099616E+04  3.487062E+05 -6.227602E-10  6.329363E-11
       227  14  1.469907E+05  8.023000E+02  9.778615E+03  2.787552E+05 -1.145575E-10 -1.193631E-10
       227  15  1.499246E+05 -7.606441E+02  5.769695E+03  3.487001E+05  2.089802E-10  1.215501E-10
       227  16 -2.159101E+06 -5.561020E+05 -5.344764E+05  3.397406E+05  5.338290E-10  3.107462E-10
       227  17 -1.702644E+06 -4.485060E+05 -3.853702E+05  2.752740E+05 -4.961071E-10  1.639913E-11
       227  18 -1.253659E+06 -3.390384E+05 -2.810845E+05  3.507344E+05  4.826612E-10  2.303301E-10
       227  19  2.462815E+06  5.902061E+05  5.761185E+05  3.577021E+05 -1.217660E+05  2.866803E+04
       227  20  1.999855E+06  4.498958E+05  4.047469E+05  2.822435E+05 -4.157327E+04  8.662050E+04
       227  21  1.555386E+06  3.374013E+05  2.925352E+05  3.466631E+05  3.849477E+04  8.226212E+04
       227  22  1.494055E+05  1.724463E+04  2.099809E+04  3.487059E+05 -1.445151E+04  2.861494E+04
       227  23  1.469928E+05  8.103840E+02  9.792885E+03  2.787545E+05 -9.312408E+03  8.663488E+04
       227  24  1.499265E+05 -7.533720E+02  5.782447E+03  3.486998E+05 -4.238231E+03  8.226137E+04
       227  25 -2.159092E+06 -5.560989E+05 -5.344588E+05  3.397427E+05  9.246597E+04  2.855873E+04
       227  26 -1.702641E+06 -4.484978E+05 -3.853551E+05  2.752756E+05  2.285386E+04  8.664895E+04
       227  27 -1.253655E+06 -3.390306E+05 -2.810676E+05  3.507312E+05 -4.687644E+04  8.226033E+04
       228   1  1.226922E+06  2.601251E+05  2.249127E+05  3.499023E+05 -2.459926E+04 -6.262610E+04
       228   2  7.735934E+05  1.503710E+05  1.294157E+05  2.781000E+05 -2.987860E+04 -3.767777E+04
       228   3  3.215611E+05  4.197004E+04  3.768785E+04  3.494121E+05 -3.517090E+04 -9.466323E+03
       228   4  1.489997E+05  6.482302E+02  4.568281E+03  3.494187E+05  3.418932E+03 -6.261926E+04
       228   5  1.488772E+05  1.611487E+02  2.741100E+03  2.778573E+05  2.052775E+03 -3.766003E+04
       228   6  1.491772E+05  3.602692E+02  1.973429E+03  3.494191E+05  6.699203E+02 -9.435489E+03
       228   7 -9.278184E+05 -2.589010E+05 -2.158347E+05  3.489356E+05  3.138943E+04 -6.261245E+04
       228   8 -4.754657E+05 -1.500724E+05 -1.239500E+05  2.776147E+05  3.395265E+04 -3.764230E+04
       228   9 -2.317576E+04 -4.125069E+04 -3.373778E+04  3.494261E+05  3.650097E+04 -9.404648E+03
       228  10  1.226920E+06  2.601207E+05  2.249042E+05  3.499011E+05  7.963409E-11 -5.921451E-11
       228  11  7.735920E+05  1.503693E+05  1.294113E+05  2.780991E+05  2.255267E-10 -2.115258E-10
       228  12  3.215598E+05  4.196961E+04  3.768536E+04  3.494119E+05  4.849398E-10 -1.332578E-10
       228  13  1.489986E+05  6.440160E+02  4.560889E+03  3.494189E+05  4.894129E-10 -1.008013E-10
       228  14  1.488768E+05  1.596244E+02  2.738427E+03  2.778573E+05 -3.025701E-11  6.046162E-11
       228  15  1.491772E+05  3.601734E+02  1.973260E+03  3.494191E+05 -5.948944E-10  2.100183E-10
       228  16 -9.278205E+05 -2.589055E+05 -2.158439E+05  3.489372E+05 -1.321502E-10  1.075189E-11
       228  17 -4.754673E+05 -1.500743E+05 -1.239548E+05  2.776157E+05 -5.308254E-10 -6.518201E-10
       228  18 -2.317721E+04 -4.125115E+04 -3.374046E+04  3.494264E+05 -8.896231E-10 -1.394384E-10
       228  19  1.226922E+06  2.601251E+05  2.249127E+05  3.499023E+05  2.459926E+04  6.262610E+04
       228  20  7.735934E+05  1.503710E+05  1.294157E+05  2.781000E+05  2.987860E+04  3.767777E+04
       228  21  3.215611E+05  4.197004E+04  3.768785E+04  3.494121E+05  3.517090E+04  9.466323E+03
       228  22  1.489997E+05  6.482302E+02  4.568281E+03  3.494187E+05 -3.418932E+03  6.261926E+04
       228  23  1.488772E+05  1.611487E+02  2.741100E+03  2.778573E+05 -2.052775E+03  3.766003E+04
       228  24  1.491772E+05  3.602692E+02  1.973429E+03  3.494191E+05 -6.699203E+02  9.435489E+03
       228  25 -9.278184E+05 -2.589010E+05 -2.158347E+05  3.489356E+05 -3.138943E+04  6.261245E+04
       228  26 -4.754657E+05 -1.500724E+05 -1.239500E+05  2.776147E+05 -3.395265E+04  3.764230E+04
       228  27 -2.317576E+04 -4.125069E+04 -3.373778E+04  3.494261E+05 -3.650097E+04  9.404648E+03
       229   1 -3.675431E+03 -3.653169E+04 -2.997676E+04  3.493386E+05 -3.551156E+04  8.183977E+03
       229   2 -4.559016E+05 -1.453876E+05 -1.209330E+05  2.776204E+05 -3.253875E+04  3.643029E+04
       229   3 -9.083215E+05 -2.545479E+05 -2.139132E+05  3.490380E+05 -2.955188E+04  6.143830E+04
       229   4  1.491467E+05  3.874511E+02  1.806018E+03  3.494200E+05  3.137963E+02  8.214906E+03
       229   5  1.489211E+05  1.526621E+02  1.822892E+03  2.778564E+05 -6.093185E+02  3.644843E+04
       229   6  1.489748E+05  2.988254E+02  2.522107E+03  3.494199E+05 -1.516233E+03  6.144579E+04
       229   7  3.019937E+05  3.730580E+04  3.359234E+04  3.495013E+05  3.614782E+04  8.245838E+03
       229   8  7.540944E+05  1.456707E+05  1.245636E+05  2.780924E+05  3.135065E+04  3.646658E+04
       229   9  1.207336E+06  2.550759E+05  2.189011E+05  3.498020E+05  2.656635E+04  6.145329E+04
       229  10 -3.676803E+03 -3.653210E+04 -2.997926E+04  3.493389E+05  9.464890E-11 -3.136605E-10
       229  11 -4.559031E+05 -1.453893E+05 -1.209375E+05  2.776213E+05 -3.499829E-10  5.370064E-10
       229  12 -9.083235E+05 -2.545522E+05 -2.139219E+05  3.490394E+05  1.910676E-10  2.910042E-10
       229  13  1.491467E+05  3.873786E+02  1.805891E+03  3.494200E+05  1.477619E-10 -2.463588E-10
       229  14  1.489208E+05  1.512354E+02  1.820395E+03  2.778564E+05 -1.163823E-10 -4.806122E-10
       229  15  1.489738E+05  2.947701E+02  2.515007E+03  3.494199E+05 -2.048303E-10  3.015443E-10
       229  16  3.019923E+05  3.730537E+04  3.358976E+04  3.495010E+05 -5.668418E-10 -1.979155E-10
       229  17  7.540929E+05  1.456690E+05  1.245592E+05  2.780915E+05 -3.716112E-10 -1.788968E-10
       229  18  1.207334E+06  2.550716E+05  2.188927E+05  3.498007E+05 -4.172267E-11  3.056756E-10
       229  19 -3.675431E+03 -3.653169E+04 -2.997676E+04  3.493386E+05  3.551156E+04 -8.183977E+03
       229  20 -4.559016E+05 -1.453876E+05 -1.209330E+05  2.776204E+05  3.253875E+04 -3.643029E+04
       229  21 -9.083215E+05 -2.545479E+05 -2.139132E+05  3.490380E+05  2.955188E+04 -6.143830E+04
       229  22  1.491467E+05  3.874511E+02  1.806018E+03  3.494200E+05 -3.137963E+02 -8.214906E+03
       229  23  1.489211E+05  1.526621E+02  1.822892E+03  2.778564E+05  6.093185E+02 -3.644843E+04
       229  24  1.489748E+05  2.988254E+02  2.522107E+03  3.494199E+05  1.516233E+03 -6.144579E+04
       229  25  3.019937E+05  3.730580E+04  3.359234E+04  3.495013E+05 -3.614782E+04 -8.245838E+03
       229  26  7.540944E+05  1.456707E+05  1.245636E+05  2.780924E+05 -3.135065E+04 -3.646658E+04
       229  27  1.207336E+06  2.550759E+05  2.189011E+05  3.498020E+05 -2.656635E+04 -6.145329E+04
       230   1 -1.234603E+06 -3.340633E+05 -2.798254E+05  3.496102E+05 -4.456547E+04  8.106850E+04
       230   2 -1.682544E+06 -4.445845E+05 -3.861826E+05  2.772049E+05  2.715500E+04  8.565852E+04
       230   3 -2.140043E+06 -5.604285E+05 -5.404587E+05  3.447147E+05  9.875975E+04  2.826296E+04
       230   4  1.494522E+05 -4.879516E+02  3.068033E+03  3.486999E+05 -1.977898E+03  8.107046E+04
       230   5  1.476101E+05 -5.412288E-01  4.859990E+03  2.787557E+05 -4.467229E+03  8.564413E+04
       230   6  1.489374E+05  8.080532E+03  1.034033E+04  3.487028E+05 -7.019476E+03  2.831537E+04
       230   7  1.535334E+06  3.329683E+05  2.858670E+05  3.477870E+05  4.070302E+04  8.107228E+04
       230   8  1.980924E+06  4.443652E+05  3.957125E+05  2.803106E+05 -3.618150E+04  8.562962E+04
       230   9  2.442747E+06  5.762137E+05  5.608083E+05  3.527052E+05 -1.131882E+05  2.836641E+04
       230  10 -1.234607E+06 -3.340709E+05 -2.798415E+05  3.496131E+05  3.460570E-10  3.215282E-10
       230  11 -1.682546E+06 -4.445926E+05 -3.861977E+05  2.772030E+05 -1.034133E-10  3.950293E-10
       230  12 -2.140054E+06 -5.604320E+05 -5.404786E+05  3.447125E+05  1.364769E-10  3.517342E-10
       230  13  1.494505E+05 -4.950109E+02  3.055673E+03  3.487001E+05 -7.079136E-11  4.705980E-10
       230  14  1.476081E+05 -8.423785E+00  4.846167E+03  2.787560E+05  4.494419E-10 -3.433762E-10
       230  15  1.489371E+05  8.079658E+03  1.033873E+04  3.487030E+05  2.340137E-10  1.802709E-10
       230  16  1.535330E+06  3.329608E+05  2.858516E+05  3.477843E+05  6.757651E-10  4.910160E-10
       230  17  1.980921E+06  4.443570E+05  3.956963E+05  2.803131E+05  1.118794E-10  5.701424E-11
       230  18  2.442733E+06  5.762094E+05  5.607828E+05  3.527077E+05 -2.971576E-10  2.856531E-10
       230  19 -1.234603E+06 -3.340633E+05 -2.798254E+05  3.496102E+05  4.456547E+04 -8.106850E+04
       230  20 -1.682544E+06 -4.445845E+05 -3.861826E+05  2.772049E+05 -2.715500E+04 -8.565852E+04
       230  21 -2.140043E+06 -5.604285E+05 -5.404587E+05  3.447147E+05 -9.875975E+04 -2.826296E+04
       230  22  1.494522E+05 -4.879516E+02  3.068033E+03  3.486999E+05  1.977898E+03 -8.107046E+04
       230  23  1.476101E+05 -5.412288E-01  4.859990E+03  2.787557E+05  4.467229E+03 -8.564413E+04
       230  24  1.489374E+05  8.080532E+03  1.034033E+04  3.487028E+05  7.019476E+03 -2.831537E+04
       230  25  1.535334E+06  3.329683E+05  2.858670E+05  3.477870E+05 -4.070302E+04 -8.107228E+04
       230  26  1.980924E+06  4.443652E+05  3.957125E+05  2.803106E+05  3.618150E+04 -8.562962E+04
       230  27  2.442747E+06  5.762137E+05  5.608083E+05  3.527052E+05  1.131882E+05 -2.836641E+04
       231   1 -4.476612E+05 -1.774481E+06 -4.387854E+05  4.370147E+05 -1.908987E+04 -7.657154E+04
       231   2 -2.919205E+05 -1.204524E+06 -2.649190E+05  3.467858E+05 -5.196412E+04 -1.440409E+04
       231   3 -1.528418E+05 -6.469554E+05 -1.358654E+05  4.323558E+05 -3.518700E+04  4.774197E+04
       231   4 -7.826962E+03 -5.149845E+03 -1.077189E+04  4.347069E+05 -1.893676E+04 -7.315543E+03
       231   5  3.671058E+02 -3.771041E+03 -5.082134E+03  3.468065E+05 -5.193318E+04 -4.581169E+03
       231   6  2.270422E+03 -4.728112E+03 -2.839873E+03  4.346861E+05 -3.532120E+04 -1.926152E+03
       231   7  4.317805E+05  1.767058E+06  4.170348E+05  4.323900E+05 -1.878444E+04  6.213763E+04
       231   8  2.925595E+05  1.198337E+06  2.546696E+05  3.468261E+05 -5.190227E+04  5.260532E+03
       231   9  1.573578E+05  6.378956E+05  1.301725E+05  4.370186E+05 -3.545568E+04 -5.164481E+04
       231  10 -4.476632E+05 -1.774487E+06 -4.387972E+05  4.370135E+05  1.401279E-10  7.486376E-11
       231  11 -2.919234E+05 -1.204525E+06 -2.649244E+05  3.467852E+05  1.813407E-10 -4.841714E-10
       231  12 -1.528437E+05 -6.469582E+05 -1.358720E+05  4.323571E+05 -2.177435E-09 -1.049425E-09
       231  13 -7.827362E+03 -5.149998E+03 -1.077266E+04  4.347068E+05 -1.123932E-09  4.890847E-13
       231  14  3.642042E+02 -3.771788E+03 -5.087241E+03  3.468063E+05  2.977320E-09 -9.972114E-10
       231  15  2.269081E+03 -4.728451E+03 -2.842225E+03  4.346861E+05 -1.846104E-11 -1.949404E-10
       231  16  4.317791E+05  1.767054E+06  4.170269E+05  4.323909E+05  2.778771E-10  3.112980E-10
       231  17  2.925566E+05  1.198337E+06  2.546645E+05  3.468263E+05 -1.080418E-09  1.546321E-11
       231  18  1.573557E+05  6.378924E+05  1.301651E+05  4.370171E+05  6.754390E-10  1.942227E-10
       231  19 -4.476612E+05 -1.774481E+06 -4.387854E+05  4.370147E+05  1.908987E+04  7.657154E+04
       231  20 -2.919205E+05 -1.204524E+06 -2.649190E+05  3.467858E+05  5.196412E+04  1.440409E+04
       231  21 -1.528418E+05 -6.469554E+05 -1.358654E+05  4.323558E+05  3.518700E+04 -4.774197E+04
       231  22 -7.826962E+03 -5.149845E+03 -1.077189E+04  4.347069E+05  1.893676E+04  7.315543E+03
       231  23  3.671058E+02 -3.771041E+03 -5.082134E+03  3.468065E+05  5.193318E+04  4.581169E+03
       231  24  2.270422E+03 -4.728112E+03 -2.839873E+03  4.346861E+05  3.532120E+04  1.926152E+03
       231  25  4.317805E+05  1.767058E+06  4.170348E+05  4.323900E+05  1.878444E+04 -6.213763E+04
       231  26  2.925595E+05  1.198337E+06  2.546696E+05  3.468261E+05  5.190227E+04 -5.260532E+03
       231  27  1.573578E+05  6.378956E+05  1.301725E+05  4.370186E+05  3.545568E+04  5.164481E+04
       232   1 -5.533761E+04 -2.400045E+05 -5.202777E+04  4.349573E+05 -1.161264E+04  3.716887E+04
       232   2  8.043561E+04  3.240320E+05  6.486602E+04  3.467227E+05  2.025506E+04  3.669060E+04
       232   3  2.167024E+05  8.877350E+05  1.819497E+05  4.367014E+05  5.120554E+04  3.622453E+04
       232   4  1.761684E+03 -4.318816E+03 -2.254290E+03  4.352320E+05 -1.172196E+04 -1.624916E+03
       232   5  1.600426E+03 -3.963969E+03 -1.371901E+03  3.461226E+05  2.015519E+04 -1.017843E+03
       232   6  1.761579E+03 -4.434923E+03 -1.047464E+03  4.352317E+05  5.111392E+04 -3.981764E+02
       232   7  5.885820E+04  2.314225E+05  4.752171E+04  4.355068E+05 -1.183129E+04 -4.043320E+04
       232   8 -7.724066E+04 -3.318544E+05 -6.761002E+04  3.455227E+05  2.005536E+04 -3.870675E+04
       232   9 -2.132286E+05 -8.958468E+05 -1.840820E+05  4.337633E+05  5.102239E+04 -3.696925E+04
       232  10 -5.533813E+04 -2.400060E+05 -5.203063E+04  4.349576E+05 -1.254900E-09  3.179351E-10
       232  11  8.043481E+04  3.240304E+05  6.486272E+04  3.467221E+05 -1.673093E-09  6.834066E-11
       232  12  2.166993E+05  8.877329E+05  1.819423E+05  4.366999E+05  4.401141E-10 -2.417031E-10
       232  13  1.761536E+03 -4.318856E+03 -2.254553E+03  4.352320E+05  1.699489E-10 -2.729095E-11
       232  14  1.599989E+03 -3.964079E+03 -1.372666E+03  3.461226E+05 -1.385856E-09 -1.220476E-09
       232  15  1.758773E+03 -4.435625E+03 -1.052374E+03  4.352317E+05 -1.995969E-09 -1.866627E-10
       232  16  5.885761E+04  2.314207E+05  4.751838E+04  4.355064E+05  8.389302E-10  1.421256E-10
       232  17 -7.724150E+04 -3.318561E+05 -6.761360E+04  3.455233E+05  1.152909E-09 -4.766812E-10
       232  18 -2.132317E+05 -8.958490E+05 -1.840895E+05  4.337649E+05  7.167733E-10 -7.253932E-10
       232  19 -5.533761E+04 -2.400045E+05 -5.202777E+04  4.349573E+05  1.161264E+04 -3.716887E+04
       232  20  8.043561E+04  3.240320E+05  6.486602E+04  3.467227E+05 -2.025506E+04 -3.669060E+04
       232  21  2.167024E+05  8.877350E+05  1.819497E+05  4.367014E+05 -5.120554E+04 -3.622453E+04
       232  22  1.761684E+03 -4.318816E+03 -2.254290E+03  4.352320E+05  1.172196E+04  1.624916E+03
       232  23  1.600426E+03 -3.963969E+03 -1.371901E+03  3.461226E+05 -2.015519E+04  1.017843E+03
       232  24  1.761579E+03 -4.434923E+03 -1.047464E+03  4.352317E+05 -5.111392E+04  3.981764E+02
       232  25  5.885820E+04  2.314225E+05  4.752171E+04  4.355068E+05  1.183129E+04  4.043320E+04
       232  26 -7.724066E+04 -3.318544E+05 -6.761002E+04  3.455227E+05 -2.005536E+04  3.870675E+04
       232  27 -2.132286E+05 -8.958468E+05 -1.840820E+05  4.337633E+05 -5.102239E+04  3.696925E+04
       233   1  3.145940E+05  1.295410E+06  2.649475E+05  4.368676E+05  7.538808E+04  5.135076E+04
       233   2  4.510763E+05  1.853311E+06  3.961194E+05  3.491441E+05  8.509761E+04 -2.747823E+04
       233   3  6.010467E+05  2.425290E+06  5.818892E+05  4.362397E+05  2.866231E+04 -1.063128E+05
       233   4  1.639940E+03 -4.432145E+03 -9.684161E+02  4.344827E+05  7.527149E+04 -3.203379E+02
       233   5  3.774942E+02 -4.765217E+03 -1.359182E+03  3.470600E+05  8.517117E+04  4.245146E+02
       233   6 -1.156934E+03 -5.082337E+03 -2.314941E+03  4.344866E+05  2.883639E+04  1.235947E+03
       233   7 -3.114185E+05 -1.302665E+06 -2.669639E+05  4.321015E+05  7.515514E+04 -5.188538E+04
       233   8 -4.505463E+05 -1.859598E+06 -3.990353E+05  3.449799E+05  8.524469E+04  2.824514E+04
       233   9 -6.037839E+05 -2.430037E+06 -5.868959E+05  4.327366E+05  2.901033E+04  1.083665E+05
       233  10  3.145871E+05  1.295406E+06  2.649318E+05  4.368644E+05 -7.372983E-10  1.003998E-09
       233  11  4.510683E+05  1.853309E+06  3.961044E+05  3.491460E+05  8.661189E-11  1.291658E-10
       233  12  6.010428E+05  2.425278E+06  5.818664E+05  4.362422E+05  3.546335E-10 -5.594092E-10
       233  13  1.633856E+03 -4.433666E+03 -9.790634E+02  4.344827E+05  1.084839E-09 -5.892760E-11
       233  14  3.697046E+02 -4.767165E+03 -1.372814E+03  3.470600E+05 -3.790526E-10 -7.544253E-10
       233  15 -1.157827E+03 -5.082562E+03 -2.316506E+03  4.344866E+05  3.482500E-10 -6.499245E-11
       233  16 -3.114253E+05 -1.302670E+06 -2.669796E+05  4.321046E+05  2.180247E-12 -5.578723E-10
       233  17 -4.505543E+05 -1.859600E+06 -3.990504E+05  3.449779E+05 -5.124683E-11 -2.041577E-10
       233  18 -6.037880E+05 -2.430050E+06 -5.869196E+05  4.327340E+05  5.449542E-10  1.655850E-10
       233  19  3.145940E+05  1.295410E+06  2.649475E+05  4.368676E+05 -7.538808E+04 -5.135076E+04
       233  20  4.510763E+05  1.853311E+06  3.961194E+05  3.491441E+05 -8.509761E+04  2.747823E+04
       233  21  6.010467E+05  2.425290E+06  5.818892E+05  4.362397E+05 -2.866231E+04  1.063128E+05
       233  22  1.639940E+03 -4.432145E+03 -9.684161E+02  4.344827E+05 -7.527149E+04  3.203379E+02
       233  23  3.774942E+02 -4.765217E+03 -1.359182E+03  3.470600E+05 -8.517117E+04 -4.245146E+02
       233  24 -1.156934E+03 -5.082337E+03 -2.314941E+03  4.344866E+05 -2.883639E+04 -1.235947E+03
       233  25 -3.114185E+05 -1.302665E+06 -2.669639E+05  4.321015E+05 -7.515514E+04  5.188538E+04
       233  26 -4.505463E+05 -1.859598E+06 -3.990353E+05  3.449799E+05 -8.524469E+04 -2.824514E+04
       233  27 -6.037839E+05 -2.430037E+06 -5.868959E+05  4.327366E+05 -2.901033E+04 -1.083665E+05
       234   1  2.498021E+06  5.856637E+05  5.720857E+05  3.575315E+05  1.217872E+05 -2.829747E+04
       234   2  2.036486E+06  4.442417E+05  4.006895E+05  2.816813E+05  4.185087E+04 -8.541901E+04
       234   3  1.593711E+06  3.319271E+05  2.886041E+05  3.452409E+05 -3.796218E+04 -8.089546E+04
       234   4  2.103038E+05  1.908902E+04  2.312169E+04  3.474870E+05  1.586807E+04 -2.824753E+04
       234   5  2.076857E+05  1.000817E+03  1.082968E+04  2.777701E+05  1.018798E+04 -8.543350E+04
       234   6  2.108169E+05 -7.864960E+02  6.438205E+03  3.474807E+05  4.570642E+03 -8.089392E+04
       234   7 -2.072610E+06 -5.478592E+05 -5.261715E+05  3.374790E+05 -8.966354E+04 -2.819416E+04
       234   8 -1.617971E+06 -4.424571E+05 -3.792192E+05  2.738700E+05 -2.138328E+04 -8.544763E+04
       234   9 -1.170259E+06 -3.336186E+05 -2.758217E+05  3.497147E+05  4.701064E+04 -8.089205E+04
       234  10  2.498005E+06  5.856589E+05  5.720564E+05  3.575342E+05 -1.141352E-10  3.330214E-11
       234  11  2.036482E+06  4.442334E+05  4.006725E+05  2.816842E+05  3.510752E-10  4.500735E-10
       234  12  1.593708E+06  3.319197E+05  2.885891E+05  3.452385E+05  1.254379E-09 -3.909072E-10
       234  13  2.103033E+05  1.908809E+04  2.311971E+04  3.474874E+05 -6.103211E-10  1.545303E-10
       234  14  2.076836E+05  9.929501E+02  1.081576E+04  2.777708E+05 -1.099618E-11  8.362450E-10
       234  15  2.108152E+05 -7.935295E+02  6.425867E+03  3.474810E+05 -4.193871E-11 -2.926567E-10
       234  16 -2.072619E+06 -5.478622E+05 -5.261881E+05  3.374770E+05  9.121769E-10  2.714946E-10
       234  17 -1.617973E+06 -4.424651E+05 -3.792338E+05  2.738686E+05 -6.219200E-10  5.038936E-10
       234  18 -1.170263E+06 -3.336262E+05 -2.758382E+05  3.497178E+05 -1.142532E-09 -2.213247E-10
       234  19  2.498021E+06  5.856637E+05  5.720857E+05  3.575315E+05 -1.217872E+05  2.829747E+04
       234  20  2.036486E+06  4.442417E+05  4.006895E+05  2.816813E+05 -4.185087E+04  8.541901E+04
       234  21  1.593711E+06  3.319271E+05  2.886041E+05  3.452409E+05  3.796218E+04  8.089546E+04
       234  22  2.103038E+05  1.908902E+04  2.312169E+04  3.474870E+05 -1.586807E+04  2.824753E+04
       234  23  2.076857E+05  1.000817E+03  1.082968E+04  2.777701E+05 -1.018798E+04  8.543350E+04
       234  24  2.108169E+05 -7.864960E+02  6.438205E+03  3.474807E+05 -4.570642E+03  8.089392E+04
       234  25 -2.072610E+06 -5.478592E+05 -5.261715E+05  3.374790E+05  8.966354E+04  2.819416E+04
       234  26 -1.617971E+06 -4.424571E+05 -3.792192E+05  2.738700E+05  2.138328E+04  8.544763E+04
       234  27 -1.170259E+06 -3.336186E+05 -2.758217E+05  3.497147E+05 -4.701064E+04  8.089205E+04
       235   1  1.266350E+06  2.550530E+05  2.211255E+05  3.487039E+05 -2.431943E+04 -6.134566E+04
       235   2  8.146227E+05  1.456213E+05  1.259010E+05  2.771415E+05 -2.978919E+04 -3.645397E+04
       235   3  3.642327E+05  3.761108E+04  3.458627E+04  3.481729E+05 -3.527112E+04 -8.337160E+03
       235   4  2.098065E+05  7.311529E+02  5.135948E+03  3.481882E+05  3.655143E+03 -6.133833E+04
       235   5  2.096594E+05  1.642142E+02  3.214431E+03  2.768872E+05  2.053176E+03 -3.643605E+04
       235   6  2.099778E+05  3.581190E+02  2.522951E+03  3.481886E+05  4.351208E+02 -8.306539E+03
       235   7 -8.456757E+05 -2.536602E+05 -2.109098E+05  3.476730E+05  3.158305E+04 -6.133103E+04
       235   8 -3.949538E+05 -1.453150E+05 -1.194874E+05  2.766331E+05  3.386513E+04 -3.641815E+04
       235   9  5.574823E+04 -3.689567E+04 -2.953688E+04  3.482044E+05  3.613265E+04 -8.275911E+03
       235  10  1.266348E+06  2.550489E+05  2.211173E+05  3.487027E+05 -4.281130E-10 -5.390778E-10
       235  11  8.146214E+05  1.456196E+05  1.258968E+05  2.771406E+05  1.048505E-10  2.576106E-10
       235  12  3.642314E+05  3.761067E+04  3.458380E+04  3.481726E+05 -5.301558E-10  4.428207E-11
       235  13  2.098055E+05  7.271086E+02  5.128851E+03  3.481884E+05 -5.669763E-10 -4.264573E-10
       235  14  2.096590E+05  1.627873E+02  3.211928E+03  2.768873E+05 -6.518106E-11  3.740158E-11
       235  15  2.099778E+05  3.580449E+02  2.522821E+03  3.481886E+05  2.141722E-10 -1.493040E-10
       235  16 -8.456778E+05 -2.536645E+05 -2.109187E+05  3.476745E+05  7.115929E-10 -2.284491E-10
       235  17 -3.949554E+05 -1.453168E+05 -1.194920E+05  2.766341E+05 -2.159683E-10 -3.226450E-10
       235  18  5.574681E+04 -3.689609E+04 -2.953946E+04  3.482046E+05 -1.032194E-10  2.799365E-10
       235  19  1.266350E+06  2.550530E+05  2.211255E+05  3.487039E+05  2.431943E+04  6.134566E+04
       235  20  8.146227E+05  1.456213E+05  1.259010E+05  2.771415E+05  2.978919E+04  3.645397E+04
       235  21  3.642327E+05  3.761108E+04  3.458627E+04  3.481729E+05  3.527112E+04  8.337160E+03
       235  22  2.098065E+05  7.311529E+02  5.135948E+03  3.481882E+05 -3.655143E+03  6.133833E+04
       235  23  2.096594E+05  1.642142E+02  3.214431E+03  2.768872E+05 -2.053176E+03  3.643605E+04
       235  24  2.099778E+05  3.581190E+02  2.522951E+03  3.481886E+05 -4.351208E+02  8.306539E+03
       235  25 -8.456757E+05 -2.536602E+05 -2.109098E+05  3.476730E+05 -3.158305E+04  6.133103E+04
       235  26 -3.949538E+05 -1.453150E+05 -1.194874E+05  2.766331E+05 -3.386513E+04  3.641815E+04
       235  27  5.574823E+04 -3.689567E+04 -2.953688E+04  3.482044E+05 -3.613265E+04  8.275911E+03
       236   1  4.018769E+04 -4.062066E+04 -3.273365E+04  3.481558E+05 -3.572882E+04  9.248859E+03
       236   2 -4.104835E+05 -1.490650E+05 -1.230054E+05  2.766328E+05 -3.324129E+04  3.738429E+04
       236   3 -8.612311E+05 -2.575683E+05 -2.149246E+05  3.477204E+05 -3.073894E+04  6.226749E+04
       236   4  2.099654E+05  3.680955E+02  2.453273E+03  3.481885E+05 -2.650115E+01  9.279411E+03
       236   5  2.096704E+05  1.505768E+02  2.829299E+03  2.768875E+05 -1.451674E+03  3.740187E+04
       236   6  2.097896E+05  5.655868E+02  4.279000E+03  3.481882E+05 -2.860348E+03  6.227427E+04
       236   7  3.797731E+05  4.135571E+04  3.764341E+04  3.482211E+05  3.568541E+04  9.309960E+03
       236   8  8.301927E+05  1.493427E+05  1.286478E+05  2.771423E+05  3.036911E+04  3.741946E+04
       236   9  1.281903E+06  2.586279E+05  2.234247E+05  3.486563E+05  2.506552E+04  6.228107E+04
       236  10  4.018630E+04 -4.062110E+04 -3.273621E+04  3.481561E+05  4.777055E-10  4.807312E-10
       236  11 -4.104851E+05 -1.490668E+05 -1.230101E+05  2.766338E+05 -1.092267E-09 -3.235402E-10
       236  12 -8.612331E+05 -2.575727E+05 -2.149336E+05  3.477219E+05 -6.563891E-10 -1.888367E-10
       236  13  2.099653E+05  3.680030E+02  2.453111E+03  3.481885E+05  4.104984E-10  1.078454E-11
       236  14  2.096701E+05  1.490739E+02  2.826666E+03  2.768875E+05  7.936939E-10 -1.496824E-10
       236  15  2.097886E+05  5.614197E+02  4.271696E+03  3.481883E+05 -6.630705E-10 -2.950646E-11
       236  16  3.797717E+05  4.135528E+04  3.764086E+04  3.482208E+05 -8.457110E-10 -1.637183E-10
       236  17  8.301913E+05  1.493410E+05  1.286434E+05  2.771414E+05  5.217275E-10 -3.616545E-10
       236  18  1.281901E+06  2.586236E+05  2.234162E+05  3.486551E+05  8.834217E-10 -4.396008E-10
       236  19  4.018769E+04 -4.062066E+04 -3.273365E+04  3.481558E+05  3.572882E+04 -9.248859E+03
       236  20 -4.104835E+05 -1.490650E+05 -1.230054E+05  2.766328E+05  3.324129E+04 -3.738429E+04
       236  21 -8.612311E+05 -2.575683E+05 -2.149246E+05  3.477204E+05  3.073894E+04 -6.226749E+04
       236  22  2.099654E+05  3.680955E+02  2.453273E+03  3.481885E+05  2.650115E+01 -9.279411E+03
       236  23  2.096704E+05  1.505768E+02  2.829299E+03  2.768875E+05  1.451674E+03 -3.740187E+04
       236  24  2.097896E+05  5.655868E+02  4.279000E+03  3.481882E+05  2.860348E+03 -6.227427E+04
       236  25  3.797731E+05  4.135571E+04  3.764341E+04  3.482211E+05 -3.568541E+04 -9.309960E+03
       236  26  8.301927E+05  1.493427E+05  1.286478E+05  2.771423E+05 -3.036911E+04 -3.741946E+04
       236  27  1.281903E+06  2.586279E+05  2.234247E+05  3.486563E+05 -2.506552E+04 -6.228107E+04
       237   1 -1.186012E+06 -3.372757E+05 -2.801088E+05  3.492575E+05 -4.611024E+04  8.184307E+04
       237   2 -1.633245E+06 -4.465874E+05 -3.845551E+05  2.747197E+05  2.383753E+04  8.623663E+04
       237   3 -2.088374E+06 -5.555857E+05 -5.343476E+05  3.396114E+05  9.366865E+04  2.842561E+04
       237   4  2.106131E+05 -6.985375E+02  5.302322E+03  3.474759E+05 -3.625920E+03  8.184410E+04
       237   5  2.079215E+05  6.326040E+02  8.762283E+03  2.777766E+05 -8.158756E+03  8.622269E+04
       237   6  2.100960E+05  1.522858E+04  1.866141E+04  3.474813E+05 -1.275604E+04  2.848117E+04
       237   7  1.609098E+06  3.357574E+05  2.906171E+05  3.456896E+05  3.895237E+04  8.184488E+04
       237   8  2.052286E+06  4.476319E+05  4.018875E+05  2.808421E+05 -4.024871E+04  8.620849E+04
       237   9  2.513435E+06  5.856642E+05  5.713369E+05  3.553800E+05 -1.195742E+05  2.853401E+04
       237  10 -1.186017E+06 -3.372835E+05 -2.801254E+05  3.492606E+05 -4.080760E-11  2.936603E-10
       237  11 -1.633247E+06 -4.465956E+05 -3.845702E+05  2.747181E+05  1.004896E-10  5.011994E-10
       237  12 -2.088383E+06 -5.555890E+05 -5.343657E+05  3.396093E+05 -5.268121E-10  5.064479E-10
       237  13  2.106113E+05 -7.057349E+02  5.289708E+03  3.474762E+05 -4.622806E-10 -1.318760E-10
       237  14  2.079194E+05  6.246018E+02  8.748184E+03  2.777771E+05 -1.265630E-10 -4.509855E-10
       237  15  2.100956E+05  1.522767E+04  1.865958E+04  3.474816E+05  3.239016E-10 -5.567523E-10
       237  16  1.609095E+06  3.357498E+05  2.906017E+05  3.456870E+05  3.197511E-10 -2.986091E-10
       237  17  2.052282E+06  4.476235E+05  4.018705E+05  2.808449E+05 -1.422070E-10 -4.640487E-10
       237  18  2.513419E+06  5.856595E+05  5.713086E+05  3.553827E+05  1.308263E-09 -9.599276E-10
       237  19 -1.186012E+06 -3.372757E+05 -2.801088E+05  3.492575E+05  4.611024E+04 -8.184307E+04
       237  20 -1.633245E+06 -4.465874E+05 -3.845551E+05  2.747197E+05 -2.383753E+04 -8.623663E+04
       237  21 -2.088374E+06 -5.555857E+05 -5.343476E+05  3.396114E+05 -9.366865E+04 -2.842561E+04
       237  22  2.106131E+05 -6.985375E+02  5.302322E+03  3.474759E+05  3.625920E+03 -8.184410E+04
       237  23  2.079215E+05  6.326040E+02  8.762283E+03  2.777766E+05  8.158756E+03 -8.622269E+04
       237  24  2.100960E+05  1.522858E+04  1.866141E+04  3.474813E+05  1.275604E+04 -2.848117E+04
       237  25  1.609098E+06  3.357574E+05  2.906171E+05  3.456896E+05 -3.895237E+04 -8.184488E+04
       237  26  2.052286E+06  4.476319E+05  4.018875E+05  2.808421E+05  4.024871E+04 -8.620849E+04
       237  27  2.513435E+06  5.856642E+05  5.713369E+05  3.553800E+05  1.195742E+05 -2.853401E+04
       238   1 -4.749828E+05 -1.844322E+06 -4.668142E+05  4.536303E+05 -2.013022E+04 -8.454221E+04
       238   2 -3.085270E+05 -1.256534E+06 -2.838510E+05  3.585770E+05 -5.505709E+04 -1.719580E+04
       238   3 -1.645538E+05 -6.832352E+05 -1.505350E+05  4.445157E+05 -3.808058E+04  5.013303E+04
       238   4 -1.453225E+04  8.027735E+03 -1.880909E+04  4.476795E+05 -1.996786E+04 -1.147852E+04
       238   5 -2.032895E+02  1.024733E+04 -9.899013E+03  3.571749E+05 -5.502235E+04 -6.248744E+03
       238   6  2.490898E+03  8.485793E+03 -7.394797E+03  4.476440E+05 -3.822036E+04 -1.101229E+03
       238   7  4.456700E+05  1.863531E+06  4.289698E+05  4.417081E+05 -1.980721E+04  6.180298E+04
       238   8  3.080145E+05  1.278538E+06  2.639584E+05  3.557687E+05 -5.498770E+04  4.720395E+03
       238   9  1.695067E+05  7.006663E+05  1.357293E+05  4.507755E+05 -3.836057E+04 -5.239164E+04
       238  10 -4.749851E+05 -1.844330E+06 -4.668285E+05  4.536289E+05 -1.771004E-12 -4.688567E-10
       238  11 -3.085303E+05 -1.256535E+06 -2.838573E+05  3.585762E+05  1.421731E-10  1.599160E-10
       238  12 -1.645560E+05 -6.832383E+05 -1.505424E+05  4.445173E+05 -1.304837E-09  4.434981E-10
       238  13 -1.453271E+04  8.027486E+03 -1.881008E+04  4.476793E+05 -6.082268E-10 -1.539286E-09
       238  14 -2.065507E+02  1.024648E+04 -9.904774E+03  3.571746E+05  1.993290E-09  1.936031E-09
       238  15  2.489329E+03  8.485400E+03 -7.397544E+03  4.476440E+05 -2.145956E-10 -1.264095E-09
       238  16  4.456686E+05  1.863527E+06  4.289619E+05  4.417091E+05  6.786843E-13  4.597260E-10
       238  17  3.080113E+05  1.278537E+06  2.639527E+05  3.557689E+05 -7.372863E-10  6.305896E-10
       238  18  1.695044E+05  7.006630E+05  1.357214E+05  4.507738E+05  1.076681E-09 -5.280218E-10
       238  19 -4.749828E+05 -1.844322E+06 -4.668142E+05  4.536303E+05  2.013022E+04  8.454221E+04
       238  20 -3.085270E+05 -1.256534E+06 -2.838510E+05  3.585770E+05  5.505709E+04  1.719580E+04
       238  21 -1.645538E+05 -6.832352E+05 -1.505350E+05  4.445157E+05  3.808058E+04 -5.013303E+04
       238  22 -1.453225E+04  8.027735E+03 -1.880909E+04  4.476795E+05  1.996786E+04  1.147852E+04
       238  23 -2.032895E+02  1.024733E+04 -9.899013E+03  3.571749E+05  5.502235E+04  6.248744E+03
       238  24  2.490898E+03  8.485793E+03 -7.394797E+03  4.476440E+05  3.822036E+04  1.101229E+03
       238  25  4.456700E+05  1.863531E+06  4.289698E+05  4.417081E+05  1.980721E+04 -6.180298E+04
       238  26  3.080145E+05  1.278538E+06  2.639584E+05  3.557687E+05  5.498770E+04 -4.720395E+03
       238  27  1.695067E+05  7.006663E+05  1.357293E+05  4.507755E+05  3.836057E+04  5.239164E+04
       239   1 -6.442812E+04 -2.640198E+05 -6.467882E+04  4.483521E+05 -1.377667E+04  3.983801E+04
       239   2  7.548793E+04  3.172673E+05  5.372030E+04  3.569476E+05  1.900712E+04  4.291627E+04
       239   3  2.140462E+05  8.972782E+05  1.695218E+05  4.490609E+05  5.093249E+04  4.600944E+04
       239   4  1.678707E+03  9.059088E+03 -7.253633E+03  4.482167E+05 -1.389053E+04 -7.393221E+00
       239   5  1.609723E+03  9.891503E+03 -8.353743E+03  3.564571E+05  1.890242E+04  4.083198E+03
       239   6  2.419200E+01  8.947085E+03 -1.275069E+04  4.482209E+05  5.083570E+04  8.185897E+03
       239   7  6.778159E+04  2.822118E+05  5.017334E+04  4.480811E+05 -1.400433E+04 -3.987005E+04
       239   8 -7.227353E+04 -2.973911E+05 -7.042699E+04  3.559668E+05  1.879775E+04 -3.473103E+04
       239   9 -2.140466E+05 -8.786324E+05 -1.950599E+05  4.473815E+05  5.073893E+04 -2.958456E+04
       239  10 -6.442875E+04 -2.640216E+05 -6.468216E+04  4.483526E+05 -4.828151E-10 -3.593999E-10
       239  11  7.548705E+04  3.172652E+05  5.371616E+04  3.569469E+05 -9.377894E-10  7.072538E-10
       239  12  2.140428E+05  8.972753E+05  1.695130E+05  4.490590E+05  7.231325E-10  1.428330E-09
       239  13  1.678500E+03  9.059036E+03 -7.253996E+03  4.482167E+05 -1.376033E-10 -2.306141E-09
       239  14  1.609335E+03  9.891389E+03 -8.354446E+03  3.564570E+05 -2.225138E-09  2.215224E-09
       239  15  2.139939E+01  8.946320E+03 -1.275567E+04  4.482206E+05 -1.931959E-09 -1.278482E-09
       239  16  6.778096E+04  2.822101E+05  5.016999E+04  4.480807E+05  2.692520E-10  3.384271E-10
       239  17 -7.227423E+04 -2.973925E+05 -7.042993E+04  3.559673E+05  1.622284E-09  5.055290E-10
       239  18 -2.140496E+05 -8.786340E+05 -1.950664E+05  4.473827E+05  7.601756E-10 -1.764799E-09
       239  19 -6.442812E+04 -2.640198E+05 -6.467882E+04  4.483521E+05  1.377667E+04 -3.983801E+04
       239  20  7.548793E+04  3.172673E+05  5.372030E+04  3.569476E+05 -1.900712E+04 -4.291627E+04
       239  21  2.140462E+05  8.972782E+05  1.695218E+05  4.490609E+05 -5.093249E+04 -4.600944E+04
       239  22  1.678707E+03  9.059088E+03 -7.253633E+03  4.482167E+05  1.389053E+04  7.393221E+00
       239  23  1.609723E+03  9.891503E+03 -8.353743E+03  3.564571E+05 -1.890242E+04 -4.083198E+03
       239  24  2.419200E+01  8.947085E+03 -1.275069E+04  4.482209E+05 -5.083570E+04 -8.185897E+03
       239  25  6.778159E+04  2.822118E+05  5.017334E+04  4.480811E+05  1.400433E+04  3.987005E+04
       239  26 -7.227353E+04 -2.973911E+05 -7.042699E+04  3.559668E+05 -1.879775E+04  3.473103E+04
       239  27 -2.140466E+05 -8.786324E+05 -1.950599E+05  4.473815E+05 -5.073893E+04  2.958456E+04
       240   1  3.179712E+05  1.314808E+06  2.519451E+05  4.554892E+05  7.581612E+04  6.341855E+04
       240   2  4.529055E+05  1.894959E+06  3.759818E+05  3.495536E+05  8.614481E+04 -3.439938E+03
       240   3  5.646321E+05  2.478496E+06  5.376634E+05  4.236879E+05  2.911801E+04 -7.029057E+04
       240   4  2.988641E+03  6.710461E+03 -1.572921E+04  4.474459E+05  7.569269E+04  1.027988E+04
       240   5 -3.822406E+03  1.186444E+04 -2.694361E+04  3.574327E+05  8.621996E+04  2.442418E+04
       240   6 -4.791301E+04  6.032140E+03 -5.670228E+04  4.475352E+05  2.929590E+04  3.863773E+04
       240   7 -3.120995E+05 -1.299757E+06 -2.834837E+05  4.394182E+05  7.557048E+04 -4.274904E+04
       240   8 -4.607812E+05 -1.867898E+06 -4.300720E+05  3.652852E+05  8.629596E+04  5.220510E+04
       240   9 -6.608939E+05 -2.460825E+06 -6.514580E+05  4.712834E+05  2.948262E+04  1.471349E+05
       240  10  3.179640E+05  1.314802E+06  2.519268E+05  4.554854E+05 -1.521071E-10 -1.357605E-10
       240  11  4.528976E+05  1.894957E+06  3.759678E+05  3.495538E+05 -1.091618E-10  1.990960E-10
       240  12  5.646298E+05  2.478491E+06  5.376525E+05  4.236896E+05  1.908765E-10  3.883831E-10
       240  13  2.982461E+03  6.708810E+03 -1.574018E+04  4.474453E+05  1.155924E-09 -2.074986E-09
       240  14 -3.830547E+03  1.186181E+04 -2.695870E+04  3.574311E+05 -1.335710E-09  1.439281E-09
       240  15 -4.791433E+04  6.030308E+03 -5.670670E+04  4.475343E+05  1.141908E-10 -5.480970E-10
       240  16 -3.121061E+05 -1.299761E+06 -2.834979E+05  4.394208E+05 -8.923625E-10  1.240520E-11
       240  17 -4.607899E+05 -1.867903E+06 -4.300911E+05  3.652816E+05 -9.192924E-10  6.790779E-10
       240  18 -6.609007E+05 -2.460848E+06 -6.515005E+05  4.712799E+05  2.255240E-10 -4.375378E-10
       240  19  3.179712E+05  1.314808E+06  2.519451E+05  4.554892E+05 -7.581612E+04 -6.341855E+04
       240  20  4.529055E+05  1.894959E+06  3.759818E+05  3.495536E+05 -8.614481E+04  3.439938E+03
       240  21  5.646321E+05  2.478496E+06  5.376634E+05  4.236879E+05 -2.911801E+04  7.029057E+04
       240  22  2.988641E+03  6.710461E+03 -1.572921E+04  4.474459E+05 -7.569269E+04 -1.027988E+04
       240  23 -3.822406E+03  1.186444E+04 -2.694361E+04  3.574327E+05 -8.621996E+04 -2.442418E+04
       240  24 -4.791301E+04  6.032140E+03 -5.670228E+04  4.475352E+05 -2.929590E+04 -3.863773E+04
       240  25 -3.120995E+05 -1.299757E+06 -2.834837E+05  4.394182E+05 -7.557048E+04  4.274904E+04
       240  26 -4.607812E+05 -1.867898E+06 -4.300720E+05  3.652852E+05 -8.629596E+04 -5.220510E+04
       240  27 -6.608939E+05 -2.460825E+06 -6.514580E+05  4.712834E+05 -2.948262E+04 -1.471349E+05
       241   1  2.470982E+06  5.773887E+05  5.623019E+05  3.587276E+05  1.138443E+05 -2.825980E+04
       241   2  2.002122E+06  4.426305E+05  3.949583E+05  2.847828E+05  3.637716E+04 -8.512555E+04
       241   3  1.549843E+06  3.294289E+05  2.834380E+05  3.528771E+05 -4.096555E+04 -8.013253E+04
       241   4  1.779877E+05  9.462111E+03  1.197177E+04  3.539797E+05  8.123902E+03 -2.820787E+04
       241   5  1.764957E+05  1.182277E+02  5.643922E+03  2.829482E+05  5.160597E+03 -8.513949E+04
       241   6  1.785085E+05 -5.327772E+02  3.546584E+03  3.539762E+05  2.261229E+03 -8.013089E+04
       241   7 -2.110181E+06 -5.588402E+05 -5.386896E+05  3.492489E+05 -9.720878E+04 -2.815432E+04
       241   8 -1.645997E+06 -4.426105E+05 -3.838591E+05  2.811185E+05 -2.596576E+04 -8.515329E+04
       241   9 -1.191038E+06 -3.306110E+05 -2.764371E+05  3.550722E+05  4.539446E+04 -8.012907E+04
       241  10  2.470968E+06  5.773844E+05  5.622761E+05  3.587301E+05 -6.412232E-11 -5.767765E-11
       241  11  2.002119E+06  4.426224E+05  3.949422E+05  2.847853E+05 -9.163481E-10 -4.604010E-10
       241  12  1.549840E+06  3.294216E+05  2.834228E+05  3.528745E+05 -1.169817E-10  2.561406E-10
       241  13  1.779874E+05  9.461238E+03  1.197015E+04  3.539799E+05 -4.154251E-10  7.938159E-10
       241  14  1.764937E+05  1.104357E+02  5.630248E+03  2.829486E+05  5.886523E-10  2.410945E-10
       241  15  1.785067E+05 -5.396743E+02  3.534506E+03  3.539763E+05  4.291074E-11  4.154789E-10
       241  16 -2.110192E+06 -5.588436E+05 -5.387089E+05  3.492466E+05 -3.408407E-10 -2.017204E-10
       241  17 -1.646000E+06 -4.426184E+05 -3.838740E+05  2.811167E+05  7.180548E-10  2.442945E-10
       241  18 -1.191042E+06 -3.306185E+05 -2.764530E+05  3.550751E+05  3.794075E-10  3.810452E-10
       241  19  2.470982E+06  5.773887E+05  5.623019E+05  3.587276E+05 -1.138443E+05  2.825980E+04
       241  20  2.002122E+06  4.426305E+05  3.949583E+05  2.847828E+05 -3.637716E+04  8.512555E+04
       241  21  1.549843E+06  3.294289E+05  2.834380E+05  3.528771E+05  4.096555E+04  8.013253E+04
       241  22  1.779877E+05  9.462111E+03  1.197177E+04  3.539797E+05 -8.123902E+03  2.820787E+04
       241  23  1.764957E+05  1.182277E+02  5.643922E+03  2.829482E+05 -5.160597E+03  8.513949E+04
       241  24  1.785085E+05 -5.327772E+02  3.546584E+03  3.539762E+05 -2.261229E+03  8.013089E+04
       241  25 -2.110181E+06 -5.588402E+05 -5.386896E+05  3.492489E+05  9.720878E+04  2.815432E+04
       241  26 -1.645997E+06 -4.426105E+05 -3.838591E+05  2.811185E+05  2.596576E+04  8.515329E+04
       241  27 -1.191038E+06 -3.306110E+05 -2.764371E+05  3.550722E+05 -4.539446E+04  8.012907E+04
       242   1  1.216871E+06  2.504469E+05  2.153754E+05  3.550751E+05 -2.688869E+04 -6.024996E+04
       242   2  7.567867E+05  1.393525E+05  1.195787E+05  2.822753E+05 -3.181541E+04 -3.481794E+04
       242   3  2.978846E+05  2.933995E+04  2.725200E+04  3.547531E+05 -3.675425E+04 -6.155506E+03
       242   4  1.779647E+05  3.470616E+02  2.921786E+03  3.546943E+05  1.731081E+03 -6.024238E+04
       242   5  1.778904E+05  1.451469E+02  2.118602E+03  2.820513E+05  6.772069E+02 -3.480004E+04
       242   6  1.781316E+05  3.668336E+02  2.104760E+03  3.546944E+05 -3.922634E+02 -6.125208E+03
       242   7 -8.599156E+05 -2.498200E+05 -2.095859E+05  3.543138E+05  3.030390E+04 -6.023481E+04
       242   8 -4.006850E+05 -1.390825E+05 -1.153550E+05  2.818275E+05  3.314013E+04 -3.478214E+04
       242   9  5.839504E+04 -2.860649E+04 -2.303831E+04  3.546357E+05  3.596283E+04 -6.094911E+03
       242  10  1.216869E+06  2.504428E+05  2.153672E+05  3.550737E+05  1.582213E-10  2.305974E-10
       242  11  7.567853E+05  1.393509E+05  1.195746E+05  2.822744E+05 -6.493130E-10  1.190670E-10
       242  12  2.978831E+05  2.933955E+04  2.724939E+04  3.547529E+05  5.048971E-10 -2.080788E-10
       242  13  1.779637E+05  3.431634E+02  2.914960E+03  3.546944E+05  5.697731E-10  7.219850E-10
       242  14  1.778901E+05  1.438462E+02  2.116325E+03  2.820513E+05  1.131200E-09  7.771325E-10
       242  15  1.781316E+05  3.667933E+02  2.104690E+03  3.546944E+05 -3.529619E-10 -2.515756E-10
       242  16 -8.599176E+05 -2.498241E+05 -2.095945E+05  3.543153E+05 -4.211166E-10  2.951377E-10
       242  17 -4.006865E+05 -1.390841E+05 -1.153594E+05  2.818284E+05 -2.154279E-10  8.931689E-10
       242  18  5.839365E+04 -2.860688E+04 -2.304082E+04  3.546359E+05 -2.694328E-10  3.148900E-10
       242  19  1.216871E+06  2.504469E+05  2.153754E+05  3.550751E+05  2.688869E+04  6.024996E+04
       242  20  7.567867E+05  1.393525E+05  1.195787E+05  2.822753E+05  3.181541E+04  3.481794E+04
       242  21  2.978846E+05  2.933995E+04  2.725200E+04  3.547531E+05  3.675425E+04  6.155506E+03
       242  22  1.779647E+05  3.470616E+02  2.921786E+03  3.546943E+05 -1.731081E+03  6.024238E+04
       242  23  1.778904E+05  1.451469E+02  2.118602E+03  2.820513E+05 -6.772069E+02  3.480004E+04
       242  24  1.781316E+05  3.668336E+02  2.104760E+03  3.546944E+05  3.922634E+02  6.125208E+03
       242  25 -8.599156E+05 -2.498200E+05 -2.095859E+05  3.543138E+05 -3.030390E+04  6.023481E+04
       242  26 -4.006850E+05 -1.390825E+05 -1.153550E+05  2.818275E+05 -3.314013E+04  3.478214E+04
       242  27  5.839504E+04 -2.860649E+04 -2.303831E+04  3.546357E+05 -3.596283E+04  6.094911E+03
       243   1 -3.216733E+04 -5.040770E+04 -4.105765E+04  3.547110E+05 -3.718646E+04  1.176098E+04
       243   2 -4.913134E+05 -1.608735E+05 -1.325045E+05  2.818147E+05 -3.475639E+04  4.040806E+04
       243   3 -9.504468E+05 -2.712632E+05 -2.255191E+05  3.542075E+05 -3.231007E+04  6.568631E+04
       243   4  1.781693E+05  3.299762E+02  2.307988E+03  3.546929E+05 -8.041215E+02  1.179084E+04
       243   5  1.778162E+05  1.262392E+02  3.224672E+03  2.820531E+05 -2.427261E+03  4.042402E+04
       243   6  1.779761E+05  7.129644E+02  5.390290E+03  3.546925E+05 -4.032417E+03  6.569075E+04
       243   7  3.885508E+05  5.106557E+04  4.567622E+04  3.546748E+05  3.559033E+04  1.182070E+04
       243   8  8.473744E+05  1.610987E+05  1.389345E+05  2.822916E+05  2.993608E+04  4.043999E+04
       243   9  1.307612E+06  2.726097E+05  2.362352E+05  3.551778E+05  2.429576E+04  6.569521E+04
       243  10 -3.216885E+04 -5.040823E+04 -4.106051E+04  3.547113E+05  4.559320E-11  6.955643E-10
       243  11 -4.913152E+05 -1.608756E+05 -1.325099E+05  2.818159E+05  5.852171E-11  4.286837E-10
       243  12 -9.504491E+05 -2.712681E+05 -2.255292E+05  3.542092E+05  1.833012E-10  4.722149E-11
       243  13  1.781693E+05  3.298267E+02  2.307725E+03  3.546929E+05 -1.408144E-10  6.602889E-11
       243  14  1.778157E+05  1.244827E+02  3.221590E+03  2.820532E+05  5.972935E-12  3.660929E-10
       243  15  1.779749E+05  7.083256E+02  5.382149E+03  3.546927E+05  1.854574E-11 -3.240602E-10
       243  16  3.885494E+05  5.106508E+04  4.567358E+04  3.546745E+05 -1.402469E-11 -1.817113E-12
       243  17  8.473730E+05  1.610967E+05  1.389298E+05  2.822906E+05  2.813067E-10 -8.015742E-11
       243  18  1.307610E+06  2.726049E+05  2.362260E+05  3.551765E+05  1.020051E-09 -6.064798E-10
       243  19 -3.216733E+04 -5.040770E+04 -4.105765E+04  3.547110E+05  3.718646E+04 -1.176098E+04
       243  20 -4.913134E+05 -1.608735E+05 -1.325045E+05  2.818147E+05  3.475639E+04 -4.040806E+04
       243  21 -9.504468E+05 -2.712632E+05 -2.255191E+05  3.542075E+05  3.231007E+04 -6.568631E+04
       243  22  1.781693E+05  3.299762E+02  2.307988E+03  3.546929E+05  8.041215E+02 -1.179084E+04
       243  23  1.778162E+05  1.262392E+02  3.224672E+03  2.820531E+05  2.427261E+03 -4.042402E+04
       243  24  1.779761E+05  7.129644E+02  5.390290E+03  3.546925E+05  4.032417E+03 -6.569075E+04
       243  25  3.885508E+05  5.106557E+04  4.567622E+04  3.546748E+05 -3.559033E+04 -1.182070E+04
       243  26  8.473744E+05  1.610987E+05  1.389345E+05  2.822916E+05 -2.993608E+04 -4.043999E+04
       243  27  1.307612E+06  2.726097E+05  2.362352E+05  3.551778E+05 -2.429576E+04 -6.569521E+04
       244   1 -1.281074E+06 -3.528156E+05 -2.915184E+05  3.564562E+05 -4.837178E+04  8.566393E+04
       244   2 -1.737175E+06 -4.636327E+05 -3.969576E+05  2.789237E+05  2.262136E+04  8.974895E+04
       244   3 -2.200248E+06 -5.703283E+05 -5.474555E+05  3.433916E+05  9.348558E+04  2.951498E+04
       244   4  1.790654E+05 -9.199860E+02  6.823949E+03  3.539550E+05 -4.993679E+03  8.566112E+04
       244   5  1.756854E+05  1.014045E+03  1.159079E+04  2.829732E+05 -1.100580E+04  8.973661E+04
       244   6  1.785181E+05  2.045240E+04  2.483845E+04  3.539641E+05 -1.709183E+04  2.958419E+04
       244   7  1.641237E+06  3.508431E+05  3.050608E+05  3.514471E+05  3.848474E+04  8.565794E+04
       244   8  2.091998E+06  4.654226E+05  4.199319E+05  2.870350E+05 -4.473523E+04  8.972388E+04
       244   9  2.562501E+06  6.108277E+05  5.967756E+05  3.645768E+05 -1.280924E+05  2.964959E+04
       244  10 -1.281078E+06 -3.528242E+05 -2.915366E+05  3.564596E+05 -3.654418E-10 -4.140736E-10
       244  11 -1.737177E+06 -4.636415E+05 -3.969737E+05  2.789220E+05 -7.905979E-10 -7.866697E-10
       244  12 -2.200258E+06 -5.703316E+05 -5.474736E+05  3.433894E+05 -8.228700E-10 -7.368753E-10
       244  13  1.790634E+05 -9.278732E+02  6.810111E+03  3.539554E+05  5.225799E-10 -6.029201E-10
       244  14  1.756831E+05  1.005364E+03  1.157542E+04  2.829740E+05  1.609621E-10 -5.436082E-10
       244  15  1.785175E+05  2.045139E+04  2.483625E+04  3.539645E+05 -2.895679E-10  2.135051E-10
       244  16  1.641234E+06  3.508348E+05  3.050442E+05  3.514445E+05  1.359164E-09 -7.574315E-10
       244  17  2.091994E+06  4.654134E+05  4.199130E+05  2.870382E+05  4.982988E-11  6.532315E-11
       244  18  2.562483E+06  6.108223E+05  5.967432E+05  3.645798E+05  1.663210E-09 -7.821251E-10
       244  19 -1.281074E+06 -3.528156E+05 -2.915184E+05  3.564562E+05  4.837178E+04 -8.566393E+04
       244  20 -1.737175E+06 -4.636327E+05 -3.969576E+05  2.789237E+05 -2.262136E+04 -8.974895E+04
       244  21 -2.200248E+06 -5.703283E+05 -5.474555E+05  3.433916E+05 -9.348558E+04 -2.951498E+04
       244  22  1.790654E+05 -9.199860E+02  6.823949E+03  3.539550E+05  4.993679E+03 -8.566112E+04
       244  23  1.756854E+05  1.014045E+03  1.159079E+04  2.829732E+05  1.100580E+04 -8.973661E+04
       244  24  1.785181E+05  2.045240E+04  2.483845E+04  3.539641E+05  1.709183E+04 -2.958419E+04
       244  25  1.641237E+06  3.508431E+05  3.050608E+05  3.514471E+05 -3.848474E+04 -8.565794E+04
       244  26  2.091998E+06  4.654226E+05  4.199319E+05  2.870350E+05  4.473523E+04 -8.972388E+04
       244  27  2.562501E+06  6.108277E+05  5.967756E+05  3.645768E+05  1.280924E+05 -2.964959E+04
       245   1 -5.469091E+05 -2.113401E+06 -5.370740E+05  5.079063E+05 -2.357162E+04 -9.580791E+04
       245   2 -3.614515E+05 -1.453769E+06 -3.319795E+05  4.019565E+05 -6.502504E+04 -1.831832E+04
       245   3 -1.999290E+05 -8.102402E+05 -1.835303E+05  4.990784E+05 -4.659583E+04  5.915583E+04
       245   4 -1.427400E+04  2.916785E+04 -1.901429E+04  5.025351E+05 -2.336935E+04 -1.013752E+04
       245   5  1.272884E+01  3.147566E+04 -1.111262E+04  4.009928E+05 -6.497716E+04 -4.285161E+03
       245   6  2.882062E+03  2.977051E+04 -9.973081E+03  5.024974E+05 -4.676599E+04  1.468379E+03
       245   7  5.180290E+05  2.175957E+06  4.987436E+05  4.971412E+05 -2.316901E+04  7.582835E+04
       245   8  3.613316E+05  1.518795E+06  3.096246E+05  4.000249E+05 -6.492939E+04  9.781185E+03
       245   9  2.056503E+05  8.704580E+05  1.635585E+05  5.059204E+05 -4.693664E+04 -5.629585E+04
       245  10 -5.469122E+05 -2.113411E+06 -5.370923E+05  5.079045E+05  5.868312E-10  1.363122E-09
       245  11 -3.614561E+05 -1.453771E+06 -3.319880E+05  4.019556E+05  1.663440E-09  2.354763E-09
       245  12 -1.999323E+05 -8.102445E+05 -1.835410E+05  4.990806E+05  2.468059E-10 -3.188211E-09
       245  13 -1.427461E+04  2.916759E+04 -1.901550E+04  5.025349E+05 -6.323813E-10  1.314978E-11
       245  14  8.190347E+00  3.147450E+04 -1.112059E+04  4.009926E+05  3.432734E-09 -4.905594E-12
       245  15  2.879713E+03  2.976992E+04 -9.977195E+03  5.024974E+05 -1.859671E-10  5.933965E-10
       245  16  5.180269E+05  2.175951E+06  4.987318E+05  4.971426E+05  3.024231E-10 -3.000105E-09
       245  17  3.613270E+05  1.518794E+06  3.096165E+05  4.000254E+05  5.052537E-10  2.228236E-09
       245  18  2.056471E+05  8.704540E+05  1.635484E+05  5.059182E+05 -3.124289E-11 -3.325757E-10
       245  19 -5.469091E+05 -2.113401E+06 -5.370740E+05  5.079063E+05  2.357162E+04  9.580791E+04
       245  20 -3.614515E+05 -1.453769E+06 -3.319795E+05  4.019565E+05  6.502504E+04  1.831832E+04
       245  21 -1.999290E+05 -8.102402E+05 -1.835303E+05  4.990784E+05  4.659583E+04 -5.915583E+04
       245  22 -1.427400E+04  2.916785E+04 -1.901429E+04  5.025351E+05  2.336935E+04  1.013752E+04
       245  23  1.272884E+01  3.147566E+04 -1.111262E+04  4.009928E+05  6.497716E+04  4.285161E+03
       245  24  2.882062E+03  2.977051E+04 -9.973081E+03  5.024974E+05  4.676599E+04 -1.468379E+03
       245  25  5.180290E+05  2.175957E+06  4.987436E+05  4.971412E+05  2.316901E+04 -7.582835E+04
       245  26  3.613316E+05  1.518795E+06  3.096246E+05  4.000249E+05  6.492939E+04 -9.781185E+03
       245  27  2.056503E+05  8.704580E+05  1.635585E+05  5.059204E+05  4.693664E+04  5.629585E+04
       246   1 -8.725224E+04 -3.399445E+05 -8.816180E+04  5.034745E+05 -1.926276E+04  4.758658E+04
       246   2  6.957300E+04  3.129081E+05  4.208317E+04  4.005552E+05  1.745625E+04  5.393724E+04
       246   3  2.234641E+05  9.635587E+05  1.671512E+05  5.036274E+05  5.339164E+04  6.030671E+04
       246   4  2.253537E+03  3.016350E+04 -1.078664E+04  5.031582E+05 -1.940119E+04  3.079210E+03
       246   5  1.935683E+03  3.149277E+04 -1.474896E+04  4.001649E+05  1.732729E+04  1.034647E+04
       246   6 -1.455242E+03  3.004863E+04 -2.452282E+04  5.031691E+05  5.327067E+04  1.762607E+04
       246   7  9.175162E+04  4.004054E+05  6.658836E+04  5.028417E+05 -1.953952E+04 -4.145426E+04
       246   8 -6.570552E+04 -2.498431E+05 -7.157805E+04  3.997747E+05  1.719834E+04 -3.322493E+04
       246   9 -2.264284E+05 -9.026311E+05 -2.162366E+05  5.027107E+05  5.314965E+04 -2.499163E+04
       246  10 -8.725325E+04 -3.399470E+05 -8.816675E+04  5.034752E+05  5.976662E-10  4.696138E-11
       246  11  6.957189E+04  3.129049E+05  4.207714E+04  4.005544E+05 -6.294955E-10  3.272640E-09
       246  12  2.234600E+05  9.635541E+05  1.671390E+05  5.036248E+05  1.840683E-09 -1.058912E-09
       246  13  2.253130E+03  3.016339E+04 -1.078737E+04  5.031583E+05 -1.616018E-10 -7.425532E-13
       246  14  1.935332E+03  3.149258E+04 -1.474973E+04  4.001647E+05  4.012518E-09 -1.477110E-11
       246  15 -1.458371E+03  3.004753E+04 -2.452873E+04  5.031684E+05 -1.694551E-09  4.752793E-10
       246  16  9.175075E+04  4.004034E+05  6.658442E+04  5.028410E+05 -5.724521E-10 -2.649912E-09
       246  17 -6.570613E+04 -2.498444E+05 -7.158068E+04  3.997752E+05  7.875013E-10  2.276225E-09
       246  18 -2.264316E+05 -9.026325E+05 -2.162430E+05  5.027118E+05  5.782741E-10 -2.609186E-09
       246  19 -8.725224E+04 -3.399445E+05 -8.816180E+04  5.034745E+05  1.926276E+04 -4.758658E+04
       246  20  6.957300E+04  3.129081E+05  4.208317E+04  4.005552E+05 -1.745625E+04 -5.393724E+04
       246  21  2.234641E+05  9.635587E+05  1.671512E+05  5.036274E+05 -5.339164E+04 -6.030671E+04
       246  22  2.253537E+03  3.016350E+04 -1.078664E+04  5.031582E+05  1.940119E+04 -3.079210E+03
       246  23  1.935683E+03  3.149277E+04 -1.474896E+04  4.001649E+05 -1.732729E+04 -1.034647E+04
       246  24 -1.455242E+03  3.004863E+04 -2.452282E+04  5.031691E+05 -5.327067E+04 -1.762607E+04
       246  25  9.175162E+04  4.004054E+05  6.658836E+04  5.028417E+05  1.953952E+04  4.145426E+04
       246  26 -6.570552E+04 -2.498431E+05 -7.157805E+04  3.997747E+05 -1.719834E+04  3.322493E+04
       246  27 -2.264284E+05 -9.026311E+05 -2.162366E+05  5.027107E+05 -5.314965E+04  2.499163E+04
       247   1  3.430100E+05  1.430089E+06  2.567147E+05  5.166655E+05  8.127856E+04  8.122535E+04
       247   2  4.891188E+05  2.086640E+06  3.852197E+05  3.833491E+05  9.352748E+04  2.040794E+04
       247   3  5.747999E+05  2.736608E+06  5.381304E+05  4.522486E+05  3.177712E+04 -4.038602E+04
       247   4  4.736502E+03  2.544440E+04 -3.084805E+04  5.023046E+05  8.112428E+04  2.174051E+04
       247   5 -8.112610E+03  3.626601E+04 -5.368017E+04  4.012600E+05  9.361642E+04  4.990022E+04
       247   6 -9.691639E+04  2.461694E+04 -1.138600E+05  5.025021E+05  3.199244E+04  7.814420E+04
       247   7 -3.336582E+05 -1.377320E+06 -3.185023E+05  4.879748E+05  8.097254E+04 -3.761246E+04
       247   8 -5.056167E+05 -2.010158E+06 -4.928209E+05  4.191078E+05  9.370725E+04  7.929654E+04
       247   9 -7.691499E+05 -2.680626E+06 -7.663196E+05  5.525306E+05  3.222754E+04  1.961597E+05
       247  10  3.430012E+05  1.430080E+06  2.566900E+05  5.166601E+05  9.871696E-10 -2.986533E-10
       247  11  4.891093E+05  2.086637E+06  3.852025E+05  3.833476E+05  4.423072E-10  2.017380E-09
       247  12  5.747984E+05  2.736606E+06  5.381254E+05  4.522496E+05  4.101722E-10 -8.310881E-10
       247  13  4.729310E+03  2.544213E+04 -3.086130E+04  5.023032E+05  2.230736E-09 -4.519660E-11
       247  14 -8.122686E+03  3.626099E+04 -5.370130E+04  4.012563E+05  1.533698E-09 -7.227417E-13
       247  15 -9.691913E+04  2.461011E+04 -1.138734E+05  5.025001E+05  3.778191E-10  2.716496E-10
       247  16 -3.336657E+05 -1.377324E+06 -3.185173E+05  4.879772E+05 -3.761941E-10 -1.901674E-09
       247  17 -5.056278E+05 -2.010167E+06 -4.928492E+05  4.191019E+05 -1.190278E-10  1.906286E-09
       247  18 -7.691614E+05 -2.680668E+06 -7.663941E+05  5.525255E+05  4.224531E-10 -7.667581E-10
       247  19  3.430100E+05  1.430089E+06  2.567147E+05  5.166655E+05 -8.127856E+04 -8.122535E+04
       247  20  4.891188E+05  2.086640E+06  3.852197E+05  3.833491E+05 -9.352748E+04 -2.040794E+04
       247  21  5.747999E+05  2.736608E+06  5.381304E+05  4.522486E+05 -3.177712E+04  4.038602E+04
       247  22  4.736502E+03  2.544440E+04 -3.084805E+04  5.023046E+05 -8.112428E+04 -2.174051E+04
       247  23 -8.112610E+03  3.626601E+04 -5.368017E+04  4.012600E+05 -9.361642E+04 -4.990022E+04
       247  24 -9.691639E+04  2.461694E+04 -1.138600E+05  5.025021E+05 -3.199244E+04 -7.814420E+04
       247  25 -3.336582E+05 -1.377320E+06 -3.185023E+05  4.879748E+05 -8.097254E+04  3.761246E+04
       247  26 -5.056167E+05 -2.010158E+06 -4.928209E+05  4.191078E+05 -9.370725E+04 -7.929654E+04
       247  27 -7.691499E+05 -2.680626E+06 -7.663196E+05  5.525306E+05 -3.222754E+04 -1.961597E+05
       248   1  2.138913E+06  5.188782E+05  5.009550E+05  2.919318E+05  9.176655E+04 -2.703152E+04
       248   2  1.743954E+06  4.220998E+05  3.660737E+05  2.364424E+05  2.585045E+04 -8.243650E+04
       248   3  1.359357E+06  3.284506E+05  2.749197E+05  3.008791E+05 -3.995514E+04 -8.030437E+04
       248   4 -6.454077E+03 -1.257957E+04 -1.365644E+04  2.995670E+05 -9.529978E+03 -2.695729E+04
       248   5 -5.361505E+03 -1.894327E+03 -6.404361E+03  2.395968E+05 -6.194779E+03 -8.244143E+04
       248   6 -6.032791E+03 -7.061629E+01 -3.417452E+03  2.995730E+05 -2.790500E+03 -8.031428E+04
       248   7 -2.147594E+06 -5.443657E+05 -5.285558E+05  3.071756E+05 -1.104787E+05 -2.688548E+04
       248   8 -1.751797E+06 -4.260868E+05 -3.790546E+05  2.427420E+05 -3.815123E+04 -8.244673E+04
       248   9 -1.369649E+06 -3.287075E+05 -2.818475E+05  2.982694E+05  3.429405E+04 -8.032434E+04
       248  10  2.138904E+06  5.188751E+05  5.009379E+05  2.919338E+05 -1.392062E-09  7.456021E-10
       248  11  1.743951E+06  4.220923E+05  3.660597E+05  2.364441E+05  9.564693E-10 -4.239335E-10
       248  12  1.359354E+06  3.284432E+05  2.749046E+05  3.008765E+05  1.057394E-09  4.911555E-10
       248  13 -6.454370E+03 -1.258037E+04 -1.365797E+04  2.995668E+05 -1.660807E-10 -8.892155E-10
       248  14 -5.363370E+03 -1.901636E+03 -6.417204E+03  2.395964E+05  1.890125E-10 -7.443410E-12
       248  15 -6.034531E+03 -7.754480E+01 -3.429588E+03  2.995728E+05 -1.087638E-09  6.293437E-10
       248  16 -2.147607E+06 -5.443698E+05 -5.285802E+05  3.071732E+05 -1.070200E-10 -8.541753E-10
       248  17 -1.751801E+06 -4.260945E+05 -3.790701E+05  2.427395E+05 -1.123096E-09  1.624720E-11
       248  18 -1.369652E+06 -3.287148E+05 -2.818618E+05  2.982716E+05 -1.433332E-09  3.369317E-10
       248  19  2.138913E+06  5.188782E+05  5.009550E+05  2.919318E+05 -9.176655E+04  2.703152E+04
       248  20  1.743954E+06  4.220998E+05  3.660737E+05  2.364424E+05 -2.585045E+04  8.243650E+04
       248  21  1.359357E+06  3.284506E+05  2.749197E+05  3.008791E+05  3.995514E+04  8.030437E+04
       248  22 -6.454077E+03 -1.257957E+04 -1.365644E+04  2.995670E+05  9.529978E+03  2.695729E+04
       248  23 -5.361505E+03 -1.894327E+03 -6.404361E+03  2.395968E+05  6.194779E+03  8.244143E+04
       248  24 -6.032791E+03 -7.061629E+01 -3.417452E+03  2.995730E+05  2.790500E+03  8.031428E+04
       248  25 -2.147594E+06 -5.443657E+05 -5.285558E+05  3.071756E+05  1.104787E+05  2.688548E+04
       248  26 -1.751797E+06 -4.260868E+05 -3.790546E+05  2.427420E+05  3.815123E+04  8.244673E+04
       248  27 -1.369649E+06 -3.287075E+05 -2.818475E+05  2.982694E+05 -3.429405E+04  8.032434E+04
       249   1  1.078285E+06  2.601998E+05  2.187440E+05  3.001773E+05 -2.593401E+04 -6.328856E+04
       249   2  6.888646E+05  1.668902E+05  1.394264E+05  2.388473E+05 -2.899230E+04 -4.214906E+04
       249   3  3.001874E+05  7.381795E+04  6.217814E+04  3.005091E+05 -3.206430E+04 -1.797176E+04
       249   4 -5.506364E+03 -6.844120E+02 -2.591302E+03  3.002501E+05 -2.357056E+03 -6.329046E+04
       249   5 -5.404424E+03 -2.128368E+01 -1.151075E+03  2.387496E+05 -1.773892E+03 -4.214150E+04
       249   6 -5.336827E+03  2.551948E+02 -1.665724E+02  3.002497E+05 -1.206303E+03 -1.795267E+04
       249   7 -1.088181E+06 -2.616418E+05 -2.239866E+05  3.003224E+05  2.117955E+04 -6.329236E+04
       249   8 -6.992132E+05 -1.669623E+05 -1.417507E+05  2.386519E+05  2.541468E+04 -4.213395E+04
       249   9 -3.107703E+05 -7.331289E+04 -6.251263E+04  2.999905E+05  2.963679E+04 -1.793360E+04
       249  10  1.078283E+06  2.601953E+05  2.187353E+05  3.001760E+05  9.408670E-10  3.210194E-10
       249  11  6.888632E+05  1.668881E+05  1.394215E+05  2.388463E+05  3.282471E-10  7.024331E-10
       249  12  3.001862E+05  7.381733E+04  6.217561E+04  3.005086E+05 -1.887391E-10  5.693592E-10
       249  13 -5.507445E+03 -6.887148E+02 -2.598839E+03  3.002500E+05  1.485858E-10  3.433847E-10
       249  14 -5.404904E+03 -2.319149E+01 -1.154418E+03  2.387496E+05  5.639882E-10  4.085788E-10
       249  15 -5.336915E+03  2.548484E+02 -1.671807E+02  3.002497E+05  9.620618E-10 -8.843219E-11
       249  16 -1.088183E+06 -2.616463E+05 -2.239950E+05  3.003235E+05 -1.141416E-09  1.042691E-10
       249  17 -6.992144E+05 -1.669644E+05 -1.417553E+05  2.386528E+05 -5.342652E-10 -2.137937E-10
       249  18 -3.107713E+05 -7.331347E+04 -6.251489E+04  2.999909E+05  5.266244E-10 -7.803182E-11
       249  19  1.078285E+06  2.601998E+05  2.187440E+05  3.001773E+05  2.593401E+04  6.328856E+04
       249  20  6.888646E+05  1.668902E+05  1.394264E+05  2.388473E+05  2.899230E+04  4.214906E+04
       249  21  3.001874E+05  7.381795E+04  6.217814E+04  3.005091E+05  3.206430E+04  1.797176E+04
       249  22 -5.506364E+03 -6.844120E+02 -2.591302E+03  3.002501E+05  2.357056E+03  6.329046E+04
       249  23 -5.404424E+03 -2.128368E+01 -1.151075E+03  2.387496E+05  1.773892E+03  4.214150E+04
       249  24 -5.336827E+03  2.551948E+02 -1.665724E+02  3.002497E+05  1.206303E+03  1.795267E+04
       249  25 -1.088181E+06 -2.616418E+05 -2.239866E+05  3.003224E+05 -2.117955E+04  6.329236E+04
       249  26 -6.992132E+05 -1.669623E+05 -1.417507E+05  2.386519E+05 -2.541468E+04  4.213395E+04
       249  27 -3.107703E+05 -7.331289E+04 -6.251263E+04  2.999905E+05 -2.963679E+04  1.793360E+04
       250   1  2.070254E+04  6.263863E+03  4.571268E+03  3.003574E+05 -3.197027E+04 -2.800873E+03
       250   2 -3.679914E+05 -8.715365E+04 -7.264395E+04  2.386521E+05 -2.949725E+04  2.154799E+04
       250   3 -7.568599E+05 -1.807201E+05 -1.515174E+05  2.999783E+05 -2.701760E+04  4.334509E+04
       250   4 -5.263973E+03  2.064738E+02  2.496023E+02  3.002556E+05 -1.228768E+03 -2.780415E+03
       250   5 -5.411681E+03  1.424647E+02  1.173513E+03  2.387421E+05 -1.825715E+03  2.156149E+04
       250   6 -5.352529E+03  4.688008E+02  2.570966E+03  3.002553E+05 -2.414506E+03  4.335282E+04
       250   7 -3.122779E+04 -5.850443E+03 -4.068532E+03  3.001538E+05  2.951149E+04 -2.759967E+03
       250   8  3.572948E+05  8.743078E+04  7.498696E+04  2.388320E+05  2.586168E+04  2.157500E+04
       250   9  7.466930E+05  1.816225E+05  1.566316E+05  3.005326E+05  2.221786E+04  4.336055E+04
       250  10  2.070144E+04  6.263581E+03  4.569333E+03  3.003574E+05  4.338394E-10  1.258283E-10
       250  11 -3.679925E+05 -8.715438E+04 -7.264646E+04  2.386526E+05  2.110600E-11 -5.435500E-10
       250  12 -7.568612E+05 -1.807223E+05 -1.515224E+05  2.999792E+05 -1.759562E-10  2.977957E-10
       250  13 -5.263976E+03  2.064651E+02  2.495850E+02  3.002556E+05 -4.601407E-10 -1.201940E-10
       250  14 -5.411810E+03  1.419646E+02  1.172633E+03  2.387421E+05  1.047034E-09  2.644820E-10
       250  15 -5.353040E+03  4.667809E+02  2.567423E+03  3.002554E+05 -1.699536E-10 -1.866102E-10
       250  16 -3.122873E+04 -5.850685E+03 -4.070183E+03  3.001538E+05 -3.735048E-10 -6.641926E-11
       250  17  3.572940E+05  8.743010E+04  7.498483E+04  2.388316E+05 -7.445345E-10 -1.036337E-10
       250  18  7.466919E+05  1.816203E+05  1.566271E+05  3.005318E+05  2.188793E-10  3.141696E-10
       250  19  2.070254E+04  6.263863E+03  4.571268E+03  3.003574E+05  3.197027E+04  2.800873E+03
       250  20 -3.679914E+05 -8.715365E+04 -7.264395E+04  2.386521E+05  2.949725E+04 -2.154799E+04
       250  21 -7.568599E+05 -1.807201E+05 -1.515174E+05  2.999783E+05  2.701760E+04 -4.334509E+04
       250  22 -5.263973E+03  2.064738E+02  2.496023E+02  3.002556E+05  1.228768E+03  2.780415E+03
       250  23 -5.411681E+03  1.424647E+02  1.173513E+03  2.387421E+05  1.825715E+03 -2.156149E+04
       250  24 -5.352529E+03  4.688008E+02  2.570966E+03  3.002553E+05  2.414506E+03 -4.335282E+04
       250  25 -3.122779E+04 -5.850443E+03 -4.068532E+03  3.001538E+05 -2.951149E+04  2.759967E+03
       250  26  3.572948E+05  8.743078E+04  7.498696E+04  2.388320E+05 -2.586168E+04 -2.157500E+04
       250  27  7.466930E+05  1.816225E+05  1.566316E+05  3.005326E+05 -2.221786E+04 -4.336055E+04
       251   1 -1.037020E+06 -2.492510E+05 -2.078638E+05  3.009340E+05 -3.905330E+04  6.007301E+04
       251   2 -1.422593E+06 -3.434931E+05 -2.969574E+05  2.372232E+05  1.682526E+04  6.564216E+04
       251   3 -1.814965E+06 -4.386628E+05 -4.226052E+05  2.939428E+05  7.263160E+04  2.193299E+04
       251   4 -4.762076E+03 -4.131571E+02  3.417583E+03  2.996737E+05 -2.885051E+03  6.007784E+04
       251   5 -6.598065E+03  5.541875E+02  6.061396E+03  2.394683E+05 -6.029186E+03  6.563234E+04
       251   6 -5.104141E+03  1.086000E+04  1.318790E+04  2.996761E+05 -9.210622E+03  2.195997E+04
       251   7  1.028512E+06  2.483586E+05  2.146474E+05  2.984109E+05  3.334232E+04  6.008251E+04
       251   8  1.411288E+06  3.444707E+05  3.089658E+05  2.417183E+05 -2.893508E+04  6.562239E+04
       251   9  1.807774E+06  4.601476E+05  4.487727E+05  3.054259E+05 -9.129104E+04  2.198544E+04
       251  10 -1.037023E+06 -2.492553E+05 -2.078735E+05  3.009359E+05  3.098370E-10  4.460366E-10
       251  11 -1.422595E+06 -3.434978E+05 -2.969661E+05  2.372223E+05  7.570005E-10  6.296732E-10
       251  12 -1.814970E+06 -4.386648E+05 -4.226161E+05  2.939415E+05  5.948898E-10  7.124078E-10
       251  13 -4.763054E+03 -4.170352E+02  3.410784E+03  2.996739E+05 -9.003395E-11  3.755323E-10
       251  14 -6.599260E+03  5.495519E+02  6.053232E+03  2.394686E+05  5.549945E-10  4.310345E-10
       251  15 -5.104362E+03  1.085946E+04  1.318684E+04  2.996763E+05 -3.893471E-10 -6.584869E-10
       251  16  1.028510E+06  2.483544E+05  2.146386E+05  2.984093E+05  9.194382E-11  3.859646E-10
       251  17  1.411286E+06  3.444658E+05  3.089562E+05  2.417198E+05 -1.287303E-09  2.219980E-10
       251  18  1.807765E+06  4.601448E+05  4.487561E+05  3.054275E+05 -1.911524E-10 -3.424035E-10
       251  19 -1.037020E+06 -2.492510E+05 -2.078638E+05  3.009340E+05  3.905330E+04 -6.007301E+04
       251  20 -1.422593E+06 -3.434931E+05 -2.969574E+05  2.372232E+05 -1.682526E+04 -6.564216E+04
       251  21 -1.814965E+06 -4.386628E+05 -4.226052E+05  2.939428E+05 -7.263160E+04 -2.193299E+04
       251  22 -4.762076E+03 -4.131571E+02  3.417583E+03  2.996737E+05  2.885051E+03 -6.007784E+04
       251  23 -6.598065E+03  5.541875E+02  6.061396E+03  2.394683E+05  6.029186E+03 -6.563234E+04
       251  24 -5.104141E+03  1.086000E+04  1.318790E+04  2.996761E+05  9.210622E+03 -2.195997E+04
       251  25  1.028512E+06  2.483586E+05  2.146474E+05  2.984109E+05 -3.334232E+04 -6.008251E+04
       251  26  1.411288E+06  3.444707E+05  3.089658E+05  2.417183E+05  2.893508E+04 -6.562239E+04
       251  27  1.807774E+06  4.601476E+05  4.487727E+05  3.054259E+05  9.129104E+04 -2.198544E+04
       252   1 -6.446354E+05 -2.546486E+06 -6.286441E+05  5.739621E+05 -2.912990E+04 -1.086328E+05
       252   2 -4.460396E+05 -1.789529E+06 -3.959932E+05  4.578951E+05 -8.147925E+04 -2.246425E+04
       252   3 -2.615426E+05 -1.047236E+06 -2.232231E+05  5.753188E+05 -6.158587E+04  6.367844E+04
       252   4  8.528285E+02  4.952161E+04 -1.216156E+03  5.782432E+05 -2.885032E+04 -2.504620E+03
       252   5  1.623357E+03  5.001795E+04  7.758118E+02  4.615165E+05 -8.140333E+04 -2.722857E+03
       252   6  3.382365E+03  5.038046E+04  3.054536E+03  5.782383E+05 -6.181053E+04 -3.073791E+03
       252   7  6.458537E+05  2.651730E+06  6.257708E+05  5.825357E+05 -2.857003E+04  1.040672E+05
       252   8  4.490636E+05  1.892750E+06  3.973469E+05  4.651454E+05 -8.132733E+04  1.707636E+04
       252   9  2.682336E+05  1.149150E+06  2.292841E+05  5.811616E+05 -6.203557E+04 -6.994211E+04
       252  10 -6.446395E+05 -2.546499E+06 -6.286679E+05  5.739596E+05 -4.877365E-10 -1.585618E-10
       252  11 -4.460468E+05 -1.789531E+06 -3.960066E+05  4.578936E+05 -3.449603E-10 -1.552852E-09
       252  12 -2.615477E+05 -1.047241E+06 -2.232379E+05  5.753219E+05 -9.819969E-10 -3.973649E-10
       252  13  8.519331E+02  4.952138E+04 -1.217732E+03  5.782431E+05 -9.147653E-10 -2.582182E-11
       252  14  1.616240E+03  5.001616E+04  7.633459E+02  4.615163E+05  2.375766E-09  2.277950E-09
       252  15  3.378260E+03  5.037943E+04  3.047340E+03  5.782381E+05 -7.557902E-11 -4.616081E-10
       252  16  6.458499E+05  2.651718E+06  6.257490E+05  5.825381E+05 -7.392877E-11  1.924847E-09
       252  17  4.490564E+05  1.892748E+06  3.973339E+05  4.651465E+05 -7.257244E-10  4.040180E-09
       252  18  2.682282E+05  1.149144E+06  2.292677E+05  5.811581E+05  1.695879E-09 -6.457246E-10
       252  19 -6.446354E+05 -2.546486E+06 -6.286441E+05  5.739621E+05  2.912990E+04  1.086328E+05
       252  20 -4.460396E+05 -1.789529E+06 -3.959932E+05  4.578951E+05  8.147925E+04  2.246425E+04
       252  21 -2.615426E+05 -1.047236E+06 -2.232231E+05  5.753188E+05  6.158587E+04 -6.367844E+04
       252  22  8.528285E+02  4.952161E+04 -1.216156E+03  5.782432E+05  2.885032E+04  2.504620E+03
       252  23  1.623357E+03  5.001795E+04  7.758118E+02  4.615165E+05  8.140333E+04  2.722857E+03
       252  24  3.382365E+03  5.038046E+04  3.054536E+03  5.782383E+05  6.181053E+04  3.073791E+03
       252  25  6.458537E+05  2.651730E+06  6.257708E+05  5.825357E+05  2.857003E+04 -1.040672E+05
       252  26  4.490636E+05  1.892750E+06  3.973469E+05  4.651454E+05  8.132733E+04 -1.707636E+04
       252  27  2.682336E+05  1.149150E+06  2.292841E+05  5.811616E+05  6.203557E+04  6.994211E+04
       253   1 -1.311892E+05 -5.063283E+05 -1.113730E+05  5.772347E+05 -3.004006E+04  4.688805E+04
       253   2  4.921259E+04  2.432958E+05  4.687132E+04  4.610897E+05  1.198936E+04  4.216743E+04
       253   3  2.329877E+05  9.934737E+05  2.086041E+05  5.819669E+05  5.347868E+04  3.745118E+04
       253   4  3.364183E+03  5.057562E+04  4.288087E+03  5.790349E+05 -3.022157E+04 -3.879381E+03
       253   5  2.888440E+03  5.057422E+04  7.948580E+03  4.605182E+05  1.181553E+04 -7.977812E+03
       253   6  5.710252E+03  5.048480E+04  1.467936E+04  5.790261E+05  5.331074E+04 -1.206646E+04
       253   7  1.378992E+05  6.077790E+05  1.199420E+05  5.808363E+05 -3.040327E+04 -5.469161E+04
       253   8 -4.343667E+04 -1.421066E+05 -3.096662E+04  4.599469E+05  1.164175E+04 -5.810779E+04
       253   9 -2.216219E+05 -8.916558E+05 -1.792839E+05  5.760888E+05  5.314311E+04 -6.151031E+04
       253  10 -1.311908E+05 -5.063309E+05 -1.113789E+05  5.772358E+05 -6.517316E-10 -7.081744E-10
       253  11  4.921196E+04  2.432939E+05  4.686771E+04  4.610892E+05 -1.615626E-09 -1.991430E-09
       253  12  2.329843E+05  9.934714E+05  2.085961E+05  5.819653E+05  7.131371E-10 -5.593403E-11
       253  13  3.363198E+03  5.057536E+04  4.286343E+03  5.790348E+05  8.935091E-12 -8.015013E-11
       253  14  2.888273E+03  5.057411E+04  7.948198E+03  4.605183E+05 -2.758167E-09  2.798284E-09
       253  15  5.707160E+03  5.048388E+04  1.467375E+04  5.790266E+05 -2.196928E-09 -3.530471E-10
       253  16  1.378974E+05  6.077755E+05  1.199346E+05  5.808350E+05  1.363233E-09  3.659475E-09
       253  17 -4.343772E+04 -1.421103E+05 -3.097323E+04  4.599475E+05  2.252657E-09  5.573934E-09
       253  18 -2.216259E+05 -8.916606E+05 -1.792963E+05  5.760914E+05  1.249586E-09 -1.077624E-09
       253  19 -1.311892E+05 -5.063283E+05 -1.113730E+05  5.772347E+05  3.004006E+04 -4.688805E+04
       253  20  4.921259E+04  2.432958E+05  4.687132E+04  4.610897E+05 -1.198936E+04 -4.216743E+04
       253  21  2.329877E+05  9.934737E+05  2.086041E+05  5.819669E+05 -5.347868E+04 -3.745118E+04
       253  22  3.364183E+03  5.057562E+04  4.288087E+03  5.790349E+05  3.022157E+04  3.879381E+03
       253  23  2.888440E+03  5.057422E+04  7.948580E+03  4.605182E+05 -1.181553E+04  7.977812E+03
       253  24  5.710252E+03  5.048480E+04  1.467936E+04  5.790261E+05 -5.331074E+04  1.206646E+04
       253  25  1.378992E+05  6.077790E+05  1.199420E+05  5.808363E+05  3.040327E+04  5.469161E+04
       253  26 -4.343667E+04 -1.421066E+05 -3.096662E+04  4.599469E+05 -1.164175E+04  5.810779E+04
       253  27 -2.216219E+05 -8.916558E+05 -1.792839E+05  5.760888E+05 -5.314311E+04  6.151031E+04
       254   1  3.588742E+05  1.538637E+06  3.232085E+05  5.741590E+05  8.543092E+04  5.322103E+04
       254   2  5.474119E+05  2.273916E+06  5.104483E+05  4.788288E+05  1.007267E+05 -6.246208E+04
       254   3  8.031513E+05  3.041523E+06  7.895564E+05  6.163514E+05  3.425413E+04 -1.781664E+05
       254   4  1.321284E+03  5.353487E+04  1.889935E+04  5.781361E+05  8.522063E+04 -1.477114E+04
       254   5  6.778484E+03  4.558691E+04  3.295720E+04  4.616236E+05  1.008366E+05 -3.198856E+04
       254   6  6.253430E+04  5.249644E+04  7.071545E+04  5.779881E+05  3.455924E+04 -4.908383E+04
       254   7 -3.563674E+05 -1.429466E+06 -2.855098E+05  5.821010E+05  8.500914E+04 -8.260387E+04
       254   8 -5.341782E+05 -2.178081E+06 -4.448196E+05  4.444762E+05  1.009451E+05 -1.622406E+03
       254   9 -6.787189E+05 -2.928341E+06 -6.486986E+05  5.398016E+05  3.484943E+04  7.938233E+04
       254  10  3.588656E+05  1.538632E+06  3.231895E+05  5.741553E+05 -1.491188E-10 -1.640025E-10
       254  11  5.473999E+05  2.273909E+06  5.104219E+05  4.788338E+05 -2.674962E-10 -1.564901E-09
       254  12  8.031416E+05  3.041489E+06  7.894948E+05  6.163563E+05  3.110068E-10 -4.088173E-10
       254  13  1.313425E+03  5.353269E+04  1.888529E+04  5.781371E+05  2.076429E-09 -1.460737E-11
       254  14  6.767287E+03  4.558308E+04  3.293615E+04  4.616262E+05 -9.757343E-10  1.961597E-09
       254  15  6.253237E+04  5.249353E+04  7.070867E+04  5.779895E+05  4.602931E-10 -1.656664E-10
       254  16 -3.563771E+05 -1.429476E+06 -2.855362E+05  5.821066E+05 -1.725249E-10  2.807857E-09
       254  17 -5.341892E+05 -2.178083E+06 -4.448387E+05  4.444763E+05 -1.647089E-10  4.303944E-09
       254  18 -6.787219E+05 -2.928349E+06 -6.487128E+05  5.397993E+05  6.329417E-10 -1.911978E-10
       254  19  3.588742E+05  1.538637E+06  3.232085E+05  5.741590E+05 -8.543092E+04 -5.322103E+04
       254  20  5.474119E+05  2.273916E+06  5.104483E+05  4.788288E+05 -1.007267E+05  6.246208E+04
       254  21  8.031513E+05  3.041523E+06  7.895564E+05  6.163514E+05 -3.425413E+04  1.781664E+05
       254  22  1.321284E+03  5.353487E+04  1.889935E+04  5.781361E+05 -8.522063E+04  1.477114E+04
       254  23  6.778484E+03  4.558691E+04  3.295720E+04  4.616236E+05 -1.008366E+05  3.198856E+04
       254  24  6.253430E+04  5.249644E+04  7.071545E+04  5.779881E+05 -3.455924E+04  4.908383E+04
       254  25 -3.563674E+05 -1.429466E+06 -2.855098E+05  5.821010E+05 -8.500914E+04  8.260387E+04
       254  26 -5.341782E+05 -2.178081E+06 -4.448196E+05  4.444762E+05 -1.009451E+05  1.622406E+03
       254  27 -6.787189E+05 -2.928341E+06 -6.486986E+05  5.398016E+05 -3.484943E+04 -7.938233E+04
       255   1  1.710851E+06  4.406968E+05  4.267297E+05  2.242636E+05  8.558096E+04 -2.288705E+04
       255   2  1.412499E+06  3.594085E+05  3.152530E+05  1.798598E+05  2.864515E+04 -7.061874E+04
       255   3  1.124612E+06  2.878184E+05  2.432895E+05  2.254092E+05 -2.822322E+04 -7.077657E+04
       255   4 -7.263972E+04 -1.163814E+03 -8.642757E+02  2.252570E+05 -4.423635E+02 -2.284868E+04
       255   5 -7.274263E+04 -5.660100E+02 -5.892228E+02  1.802749E+05 -1.446573E+02 -7.062702E+04
       255   6 -7.237099E+04 -1.774513E+02 -4.772898E+02  2.252571E+05  1.924492E+02 -7.077994E+04
       255   7 -1.853206E+06 -4.432513E+05 -4.286559E+05  2.262474E+05 -8.622008E+04 -2.281056E+04
       255   8 -1.555907E+06 -3.606833E+05 -3.165549E+05  1.806889E+05 -2.886674E+04 -7.063536E+04
       255   9 -1.267991E+06 -2.882623E+05 -2.443163E+05  2.251049E+05  2.855442E+04 -7.078333E+04
       255  10  1.710843E+06  4.406943E+05  4.267150E+05  2.242652E+05 -5.692579E-10  5.817716E-10
       255  11  1.412497E+06  3.594029E+05  3.152421E+05  1.798614E+05 -9.719025E-12 -4.571212E-10
       255  12  1.124610E+06  2.878128E+05  2.432786E+05  2.254076E+05 -6.978674E-10 -4.288825E-10
       255  13 -7.263986E+04 -1.164374E+03 -8.652571E+02  2.252570E+05 -7.952742E-10 -1.476654E-09
       255  14 -7.274397E+04 -5.713662E+02 -5.985962E+02  1.802749E+05  7.567392E-10 -7.192718E-10
       255  15 -7.237233E+04 -1.828308E+02 -4.867040E+02  2.252571E+05  2.061553E-10 -5.792742E-11
       255  16 -1.853214E+06 -4.432539E+05 -4.286709E+05  2.262458E+05 -5.432913E-10 -9.838955E-10
       255  17 -1.555910E+06 -3.606889E+05 -3.165658E+05  1.806872E+05 -3.689755E-11  2.126901E-10
       255  18 -1.267993E+06 -2.882679E+05 -2.443272E+05  2.251065E+05  3.939043E-10  1.480561E-10
       255  19  1.710851E+06  4.406968E+05  4.267297E+05  2.242636E+05 -8.558096E+04  2.288705E+04
       255  20  1.412499E+06  3.594085E+05  3.152530E+05  1.798598E+05 -2.864515E+04  7.061874E+04
       255  21  1.124612E+06  2.878184E+05  2.432895E+05  2.254092E+05  2.822322E+04  7.077657E+04
       255  22 -7.263972E+04 -1.163814E+03 -8.642757E+02  2.252570E+05  4.423635E+02  2.284868E+04
       255  23 -7.274263E+04 -5.660100E+02 -5.892228E+02  1.802749E+05  1.446573E+02  7.062702E+04
       255  24 -7.237099E+04 -1.774513E+02 -4.772898E+02  2.252571E+05 -1.924492E+02  7.077994E+04
       255  25 -1.853206E+06 -4.432513E+05 -4.286559E+05  2.262474E+05  8.622008E+04  2.281056E+04
       255  26 -1.555907E+06 -3.606833E+05 -3.165549E+05  1.806889E+05  2.886674E+04  7.063536E+04
       255  27 -1.267991E+06 -2.882623E+05 -2.443163E+05  2.251049E+05 -2.855442E+04  7.078333E+04
       256   1  9.126839E+05  2.369970E+05  2.004174E+05  2.259859E+05 -1.691650E+04 -5.782197E+04
       256   2  6.197276E+05  1.664152E+05  1.391579E+05  1.797362E+05 -1.956234E+04 -4.224979E+04
       256   3  3.273959E+05  9.635681E+04  7.975974E+04  2.259878E+05 -2.221929E+04 -2.414054E+04
       256   4 -7.237890E+04 -1.084759E+02 -5.546611E+02  2.258222E+05  2.676015E+02 -5.782193E+04
       256   5 -7.232050E+04  6.128781E+01 -7.975581E+02  1.795684E+05  6.651088E+02 -4.224218E+04
       256   6 -7.225179E+04  2.301161E+02 -1.290718E+03  2.258222E+05  1.050241E+03 -2.412375E+04
       256   7 -1.056519E+06 -2.372745E+05 -2.015767E+05  2.256586E+05  1.742497E+04 -5.782190E+04
       256   8 -7.639119E+05 -1.663221E+05 -1.407762E+05  1.794006E+05  2.087045E+04 -4.223457E+04
       256   9 -4.717463E+05 -9.590622E+04 -8.234745E+04  2.256566E+05  2.430508E+04 -2.410696E+04
       256  10  9.126827E+05  2.369934E+05  2.004106E+05  2.259851E+05 -6.499783E-10  2.432974E-10
       256  11  6.197267E+05  1.664132E+05  1.391538E+05  1.797356E+05 -1.717954E-09 -5.337399E-10
       256  12  3.273952E+05  9.635605E+04  7.975772E+04  2.259874E+05  9.169154E-10 -4.840077E-10
       256  13 -7.237979E+04 -1.120660E+02 -5.609439E+02  2.258223E+05  2.818045E-10  4.952334E-11
       256  14 -7.232098E+04  5.937161E+01 -8.009121E+02  1.795684E+05  4.496376E-10 -2.967848E-10
       256  15 -7.225194E+04  2.294909E+02 -1.291814E+03  2.258222E+05 -3.055129E-10 -7.323906E-10
       256  16 -1.056521E+06 -2.372782E+05 -2.015836E+05  2.256594E+05  1.531274E-09 -2.636842E-10
       256  17 -7.639128E+05 -1.663241E+05 -1.407804E+05  1.794013E+05  5.277694E-10 -4.727361E-10
       256  18 -4.717471E+05 -9.590700E+04 -8.234965E+04  2.256571E+05 -1.031608E-09  3.199912E-12
       256  19  9.126839E+05  2.369970E+05  2.004174E+05  2.259859E+05  1.691650E+04  5.782197E+04
       256  20  6.197276E+05  1.664152E+05  1.391579E+05  1.797362E+05  1.956234E+04  4.224979E+04
       256  21  3.273959E+05  9.635681E+04  7.975974E+04  2.259878E+05  2.221929E+04  2.414054E+04
       256  22 -7.237890E+04 -1.084759E+02 -5.546611E+02  2.258222E+05 -2.676015E+02  5.782193E+04
       256  23 -7.232050E+04  6.128781E+01 -7.975581E+02  1.795684E+05 -6.651088E+02  4.224218E+04
       256  24 -7.225179E+04  2.301161E+02 -1.290718E+03  2.258222E+05 -1.050241E+03  2.412375E+04
       256  25 -1.056519E+06 -2.372745E+05 -2.015767E+05  2.256586E+05 -1.742497E+04  5.782190E+04
       256  26 -7.639119E+05 -1.663221E+05 -1.407762E+05  1.794006E+05 -2.087045E+04  4.223457E+04
       256  27 -4.717463E+05 -9.590622E+04 -8.234745E+04  2.256566E+05 -2.430508E+04  2.410696E+04
       257   1  1.169866E+05  4.565415E+04  3.571046E+04  2.257299E+05 -2.177042E+04 -1.272787E+04
       257   2 -1.751640E+05 -2.469410E+04 -2.425891E+04  1.795545E+05 -1.831182E+04  5.667514E+03
       257   3 -4.680308E+05 -9.610303E+04 -8.677687E+04  2.259421E+05 -1.485257E+04  2.239485E+04
       257   4 -7.232725E+04  3.134994E+02 -1.687493E+03  2.258341E+05  1.301286E+03 -1.270931E+04
       257   5 -7.211420E+04  1.842835E+02 -2.931803E+03  1.795535E+05  2.754191E+03  5.683340E+03
       257   6 -7.234625E+04 -6.515047E+02 -5.328998E+03  2.258349E+05  4.209294E+03  2.240834E+04
       257   7 -2.616057E+05 -4.502904E+04 -3.908521E+04  2.259383E+05  2.436611E+04 -1.269075E+04
       257   8  3.094662E+04  2.506223E+04  1.839640E+04  1.795525E+05  2.382364E+04  5.699164E+03
       257   9  3.234877E+05  9.479034E+04  7.611183E+04  2.257275E+05  2.328310E+04  2.242182E+04
       257  10  1.169861E+05  4.565385E+04  3.570927E+04  2.257296E+05  6.909477E-10 -6.768800E-10
       257  11 -1.751644E+05 -2.469422E+04 -2.425960E+04  1.795546E+05  6.087475E-10 -6.151211E-10
       257  12 -4.680311E+05 -9.610363E+04 -8.677822E+04  2.259423E+05  9.245651E-10 -9.609248E-10
       257  13 -7.232730E+04  3.133255E+02 -1.687800E+03  2.258341E+05  7.698922E-10 -7.296495E-10
       257  14 -7.211422E+04  1.842468E+02 -2.931878E+03  1.795535E+05 -4.871744E-10 -8.882352E-10
       257  15 -7.234640E+04 -6.520486E+02 -5.329975E+03  2.258348E+05  6.701883E-10 -6.776617E-10
       257  16 -2.616064E+05 -4.502938E+04 -3.908663E+04  2.259386E+05 -2.400000E-10 -4.393011E-10
       257  17  3.094600E+04  2.506204E+04  1.839527E+04  1.795524E+05 -7.748682E-10  5.354026E-10
       257  18  3.234870E+05  9.478966E+04  7.610987E+04  2.257271E+05 -1.959007E-10 -7.575882E-11
       257  19  1.169866E+05  4.565415E+04  3.571046E+04  2.257299E+05  2.177042E+04  1.272787E+04
       257  20 -1.751640E+05 -2.469410E+04 -2.425891E+04  1.795545E+05  1.831182E+04 -5.667514E+03
       257  21 -4.680308E+05 -9.610303E+04 -8.677687E+04  2.259421E+05  1.485257E+04 -2.239485E+04
       257  22 -7.232725E+04  3.134994E+02 -1.687493E+03  2.258341E+05 -1.301286E+03  1.270931E+04
       257  23 -7.211420E+04  1.842835E+02 -2.931803E+03  1.795535E+05 -2.754191E+03 -5.683340E+03
       257  24 -7.234625E+04 -6.515047E+02 -5.328998E+03  2.258349E+05 -4.209294E+03 -2.240834E+04
       257  25 -2.616057E+05 -4.502904E+04 -3.908521E+04  2.259383E+05 -2.436611E+04  1.269075E+04
       257  26  3.094662E+04  2.506223E+04  1.839640E+04  1.795525E+05 -2.382364E+04 -5.699164E+03
       257  27  3.234877E+05  9.479034E+04  7.611183E+04  2.257275E+05 -2.328310E+04 -2.242182E+04
       258   1 -6.802133E+05 -1.455609E+05 -1.313776E+05  2.225385E+05 -2.163607E+04  3.482332E+04
       258   2 -9.669663E+05 -2.198144E+05 -2.043614E+05  1.845581E+05  2.396741E+04  4.078217E+04
       258   3 -1.265484E+06 -3.182655E+05 -3.130916E+05  2.373990E+05  6.954715E+04  1.397273E+04
       258   4 -7.340351E+04  7.705138E+02 -6.824007E+03  2.254460E+05  5.117211E+03  3.483905E+04
       258   5 -7.098220E+04 -2.053884E+03 -1.207885E+04  1.800409E+05  1.145633E+04  4.077223E+04
       258   6 -7.356726E+04 -2.223012E+04 -2.577901E+04  2.254531E+05  1.779397E+04  1.395742E+04
       258   7  5.337578E+05  1.470792E+05  1.177127E+05  2.283562E+05  3.189620E+04  3.485501E+04
       258   8  8.257581E+05  2.156542E+05  1.801575E+05  1.755170E+05 -1.072590E+03  4.076249E+04
       258   9  1.119657E+06  2.737035E+05  2.614423E+05  2.134839E+05 -3.405838E+04  1.394414E+04
       258  10 -6.802142E+05 -1.455624E+05 -1.313808E+05  2.225391E+05 -3.689843E-11 -9.679387E-10
       258  11 -9.669674E+05 -2.198164E+05 -2.043656E+05  1.845573E+05 -3.084722E-11 -5.118526E-10
       258  12 -1.265490E+06 -3.182670E+05 -3.131011E+05  2.373982E+05  1.149701E-10  2.563769E-11
       258  13 -7.340387E+04  7.692036E+02 -6.826337E+03  2.254458E+05  7.701373E-10 -2.423049E-09
       258  14 -7.098278E+04 -2.055704E+03 -1.208222E+04  1.800406E+05  6.943698E-10  7.524527E-10
       258  15 -7.356766E+04 -2.223042E+04 -2.577997E+04  2.254529E+05  9.670579E-11  2.209458E-11
       258  16  5.337564E+05  1.470776E+05  1.177085E+05  2.283553E+05  6.656847E-10 -2.405376E-10
       258  17  8.257576E+05  2.156524E+05  1.801543E+05  1.755170E+05  1.147165E-09  5.195318E-10
       258  18  1.119656E+06  2.737030E+05  2.614397E+05  2.134843E+05 -8.675924E-11 -6.661135E-11
       258  19 -6.802133E+05 -1.455609E+05 -1.313776E+05  2.225385E+05  2.163607E+04 -3.482332E+04
       258  20 -9.669663E+05 -2.198144E+05 -2.043614E+05  1.845581E+05 -2.396741E+04 -4.078217E+04
       258  21 -1.265484E+06 -3.182655E+05 -3.130916E+05  2.373990E+05 -6.954715E+04 -1.397273E+04
       258  22 -7.340351E+04  7.705138E+02 -6.824007E+03  2.254460E+05 -5.117211E+03 -3.483905E+04
       258  23 -7.098220E+04 -2.053884E+03 -1.207885E+04  1.800409E+05 -1.145633E+04 -4.077223E+04
       258  24 -7.356726E+04 -2.223012E+04 -2.577901E+04  2.254531E+05 -1.779397E+04 -1.395742E+04
       258  25  5.337578E+05  1.470792E+05  1.177127E+05  2.283562E+05 -3.189620E+04 -3.485501E+04
       258  26  8.257581E+05  2.156542E+05  1.801575E+05  1.755170E+05  1.072590E+03 -4.076249E+04
       258  27  1.119657E+06  2.737035E+05  2.614423E+05  2.134839E+05  3.405838E+04 -1.394414E+04
       259   1 -4.305479E+05 -1.803989E+06 -4.184758E+05  3.997423E+05 -1.919990E+04 -7.448359E+04
       259   2 -2.944453E+05 -1.276437E+06 -2.561997E+05  3.192049E+05 -5.328269E+04 -1.916423E+04
       259   3 -1.662613E+05 -7.580515E+05 -1.320499E+05  4.016052E+05 -3.877014E+04  3.614167E+04
       259   4  2.308340E+03 -6.263677E+04  2.446223E+03  4.031059E+05 -1.907217E+04 -4.454436E+03
       259   5  8.983376E+02 -6.279060E+04  5.858745E+03  3.216476E+05 -5.325102E+04 -7.310454E+03
       259   6  1.710177E+03 -6.224132E+04  1.162902E+04  4.031068E+05 -3.887767E+04 -1.022827E+04
       259   7  4.349452E+05  1.681503E+06  4.231691E+05  4.064769E+05 -1.894390E+04  6.577093E+04
       259   8  2.961449E+05  1.152241E+06  2.678307E+05  3.240941E+05 -5.321930E+04  4.566222E+03
       259   9  1.696522E+05  6.340331E+05  1.552898E+05  4.046098E+05 -3.898535E+04 -5.664932E+04
       259  10 -4.305498E+05 -1.803995E+06 -4.184869E+05  3.997412E+05  4.939466E-10 -1.450715E-10
       259  11 -2.944484E+05 -1.276438E+06 -2.562057E+05  3.192041E+05  1.759517E-09  1.584650E-09
       259  12 -1.662633E+05 -7.580534E+05 -1.320552E+05  4.016063E+05 -2.425520E-10  1.431406E-09
       259  13  2.307944E+03 -6.263689E+04  2.445503E+03  4.031058E+05 -5.952775E-10  1.230914E-09
       259  14  8.952787E+02 -6.279141E+04  5.853317E+03  3.216473E+05  2.428092E-09 -1.605850E-09
       259  15  1.708527E+03 -6.224184E+04  1.162598E+04  4.031065E+05  4.014671E-10  2.581223E-09
       259  16  4.349437E+05  1.681498E+06  4.231604E+05  4.064779E+05  3.619048E-10 -1.693705E-09
       259  17  2.961419E+05  1.152240E+06  2.678253E+05  3.240943E+05  5.724313E-10  2.361343E-09
       259  18  1.696497E+05  6.340292E+05  1.552810E+05  4.046080E+05  5.233119E-10  5.632033E-12
       259  19 -4.305479E+05 -1.803989E+06 -4.184758E+05  3.997423E+05  1.919990E+04  7.448359E+04
       259  20 -2.944453E+05 -1.276437E+06 -2.561997E+05  3.192049E+05  5.328269E+04  1.916423E+04
       259  21 -1.662613E+05 -7.580515E+05 -1.320499E+05  4.016052E+05  3.877014E+04 -3.614167E+04
       259  22  2.308340E+03 -6.263677E+04  2.446223E+03  4.031059E+05  1.907217E+04  4.454436E+03
       259  23  8.983376E+02 -6.279060E+04  5.858745E+03  3.216476E+05  5.325102E+04  7.310454E+03
       259  24  1.710177E+03 -6.224132E+04  1.162902E+04  4.031068E+05  3.887767E+04  1.022827E+04
       259  25  4.349452E+05  1.681503E+06  4.231691E+05  4.064769E+05  1.894390E+04 -6.577093E+04
       259  26  2.961449E+05  1.152241E+06  2.678307E+05  3.240941E+05  5.321930E+04 -4.566222E+03
       259  27  1.696522E+05  6.340331E+05  1.552898E+05  4.046098E+05  3.898535E+04  5.664932E+04
       260   1 -7.573785E+04 -3.802224E+05 -5.092200E+04  4.013369E+05 -1.681947E+04  2.296522E+04
       260   2  5.069283E+04  1.410713E+05  6.883578E+04  3.217105E+05  1.257323E+04  8.450081E+03
       260   3  1.851427E+05  6.658473E+05  1.998420E+05  4.074114E+05  4.138912E+04 -6.069844E+03
       260   4  1.306747E+03 -6.162673E+04  1.556386E+04  4.036459E+05 -1.690674E+04 -1.268674E+04
       260   5  1.582044E+03 -6.321599E+04  2.757524E+04  3.209715E+05  1.249139E+04 -2.651768E+04
       260   6  9.777523E+03 -6.169238E+04  5.037538E+04  4.036253E+05  4.131190E+04 -4.034167E+04
       260   7  7.834556E+04  2.570677E+05  8.204890E+04  4.059560E+05 -1.699425E+04 -4.835671E+04
       260   8 -4.753067E+04 -2.674609E+05 -1.368285E+04  3.202326E+05  1.240962E+04 -6.147416E+04
       260   9 -1.656203E+05 -7.887274E+05 -9.911511E+04  3.998432E+05  4.123505E+04 -7.457406E+04
       260  10 -7.573830E+04 -3.802230E+05 -5.092353E+04  4.013373E+05  2.918917E-12 -1.544504E-09
       260  11  5.069264E+04  1.410712E+05  6.883535E+04  3.217105E+05 -6.997534E-10  1.907705E-09
       260  12  1.851409E+05  6.658468E+05  1.998387E+05  4.074116E+05  9.177717E-10  2.605996E-09
       260  13  1.306397E+03 -6.162698E+04  1.556302E+04  4.036457E+05  2.627966E-10  1.987981E-09
       260  14  1.581687E+03 -6.321679E+04  2.757363E+04  3.209717E+05  2.463610E-09 -2.012649E-09
       260  15  9.775252E+03 -6.169458E+04  5.036911E+04  4.036266E+05 -1.891695E-09  2.502693E-09
       260  16  7.834462E+04  2.570651E+05  8.204397E+04  4.059553E+05 -1.397308E-10 -1.383718E-09
       260  17 -4.753185E+04 -2.674650E+05 -1.369025E+04  3.202332E+05 -1.288464E-11  2.982878E-09
       260  18 -1.656237E+05 -7.887338E+05 -9.912878E+04  3.998457E+05  7.107094E-10 -1.427400E-09
       260  19 -7.573785E+04 -3.802224E+05 -5.092200E+04  4.013369E+05  1.681947E+04 -2.296522E+04
       260  20  5.069283E+04  1.410713E+05  6.883578E+04  3.217105E+05 -1.257323E+04 -8.450081E+03
       260  21  1.851427E+05  6.658473E+05  1.998420E+05  4.074114E+05 -4.138912E+04  6.069844E+03
       260  22  1.306747E+03 -6.162673E+04  1.556386E+04  4.036459E+05  1.690674E+04  1.268674E+04
       260  23  1.582044E+03 -6.321599E+04  2.757524E+04  3.209715E+05 -1.249139E+04  2.651768E+04
       260  24  9.777523E+03 -6.169238E+04  5.037538E+04  4.036253E+05 -4.131190E+04  4.034167E+04
       260  25  7.834556E+04  2.570677E+05  8.204890E+04  4.059560E+05  1.699425E+04  4.835671E+04
       260  26 -4.753067E+04 -2.674609E+05 -1.368285E+04  3.202326E+05 -1.240962E+04  6.147416E+04
       260  27 -1.656203E+05 -7.887274E+05 -9.911511E+04  3.998432E+05 -4.123505E+04  7.457406E+04
       261   1  2.618445E+05  1.054135E+06  2.910753E+05  3.795407E+05  6.370987E+04 -1.595582E+03
       261   2  4.136116E+05  1.546844E+06  4.614737E+05  3.685554E+05  7.366670E+04 -1.319396E+05
       261   3  7.441573E+05  2.101455E+06  7.612736E+05  5.198778E+05  2.481304E+04 -2.623461E+05
       261   4 -4.317399E+03 -5.151352E+04  6.464090E+04  4.030147E+05  6.361275E+04 -4.915610E+04
       261   5  1.948431E+04 -7.655222E+04  1.137125E+05  3.217132E+05  7.373130E+04 -1.086781E+05
       261   6  2.100496E+05 -5.203001E+04  2.432236E+05  4.026825E+05  2.499920E+04 -1.681460E+05
       261   7 -2.705525E+05 -1.155996E+06 -1.618496E+05  4.264452E+05  6.351193E+04 -9.663350E+04
       261   8 -3.748071E+05 -1.697468E+06 -2.341990E+05  2.749933E+05  7.379252E+04 -8.547623E+04
       261   9 -3.243404E+05 -2.201233E+06 -2.751164E+05  2.858914E+05  2.515033E+04 -7.426982E+04
       261  10  2.618401E+05  1.054134E+06  2.910677E+05  3.795407E+05  8.407557E-11 -1.762722E-09
       261  11  4.136011E+05  1.546824E+06  4.614308E+05  3.685632E+05 -8.724350E-10  7.597309E-10
       261  12  7.441382E+05  2.101381E+06  7.611435E+05  5.198830E+05  1.888657E-11  1.021926E-09
       261  13 -4.322396E+03 -5.151721E+04  6.462875E+04  4.030172E+05  1.551432E-09  1.624729E-09
       261  14  1.947530E+04 -7.656636E+04  1.136801E+05  3.217196E+05  9.028561E-10 -1.378788E-09
       261  15  2.100414E+05 -5.206054E+04  2.431693E+05  4.026859E+05 -2.821137E-10  1.050606E-09
       261  16 -2.705594E+05 -1.156007E+06 -1.618748E+05  4.264502E+05 -7.941922E-11 -8.532443E-10
       261  17 -3.748150E+05 -1.697477E+06 -2.342230E+05  2.749984E+05 -3.851341E-10  2.607592E-09
       261  18 -3.243426E+05 -2.201239E+06 -2.751280E+05  2.858929E+05  2.018030E-10 -4.319299E-10
       261  19  2.618445E+05  1.054135E+06  2.910753E+05  3.795407E+05 -6.370987E+04  1.595582E+03
       261  20  4.136116E+05  1.546844E+06  4.614737E+05  3.685554E+05 -7.366670E+04  1.319396E+05
       261  21  7.441573E+05  2.101455E+06  7.612736E+05  5.198778E+05 -2.481304E+04  2.623461E+05
       261  22 -4.317399E+03 -5.151352E+04  6.464090E+04  4.030147E+05 -6.361275E+04  4.915610E+04
       261  23  1.948431E+04 -7.655222E+04  1.137125E+05  3.217132E+05 -7.373130E+04  1.086781E+05
       261  24  2.100496E+05 -5.203001E+04  2.432236E+05  4.026825E+05 -2.499920E+04  1.681460E+05
       261  25 -2.705525E+05 -1.155996E+06 -1.618496E+05  4.264452E+05 -6.351193E+04  9.663350E+04
       261  26 -3.748071E+05 -1.697468E+06 -2.341990E+05  2.749933E+05 -7.379252E+04  8.547623E+04
       261  27 -3.243404E+05 -2.201233E+06 -2.751164E+05  2.858914E+05 -2.515033E+04  7.426982E+04
       262   1  2.826988E+06  7.009947E+05  6.720281E+05  3.985062E+05  1.119465E+05 -3.727873E+04
       262   2  2.279899E+06  5.837088E+05  4.964448E+05  3.273542E+05  2.622160E+04 -1.141298E+05
       262   3  1.742694E+06  4.563609E+05  3.741826E+05  4.229168E+05 -5.943387E+04 -1.112237E+05
       262   4 -1.479977E+05 -3.569011E+04 -4.135796E+04  4.163890E+05 -2.843022E+04 -3.738185E+04
       262   5 -1.440699E+05 -3.638954E+03 -1.957505E+04  3.329901E+05 -1.808483E+04 -1.142173E+05
       262   6 -1.471836E+05  1.691120E+03 -1.103347E+04  4.163501E+05 -7.747674E+03 -1.111513E+05
       262   7 -3.114858E+06 -7.730053E+05 -7.552973E+05  4.341823E+05 -1.681390E+05 -3.749347E+04
       262   8 -2.562513E+06 -5.913674E+05 -5.359254E+05  3.386006E+05 -6.222120E+04 -1.143058E+05
       262   9 -2.033665E+06 -4.532002E+05 -3.964275E+05  4.098011E+05  4.378444E+04 -1.110799E+05
       262  10  2.826975E+06  7.009899E+05  6.720020E+05  3.985096E+05  2.551553E-10 -3.493488E-10
       262  11  2.279895E+06  5.836946E+05  4.964190E+05  3.273566E+05 -5.230770E-10 -2.675882E-09
       262  12  1.742687E+06  4.563466E+05  3.741527E+05  4.229115E+05  1.650823E-09 -3.483802E-09
       262  13 -1.479989E+05 -3.569183E+04 -4.136210E+04  4.163882E+05  4.438867E-10  1.236099E-10
       262  14 -1.440737E+05 -3.653049E+03 -1.960017E+04  3.329884E+05 -3.095454E-10 -1.535924E-09
       262  15 -1.471870E+05  1.677838E+03 -1.105679E+04  4.163495E+05  2.913077E-10 -8.370324E-10
       262  16 -3.114889E+06 -7.730145E+05 -7.553533E+05  4.341772E+05 -8.231621E-10  4.614148E-11
       262  17 -2.562520E+06 -5.913825E+05 -5.359573E+05  3.385949E+05  9.173340E-10 -2.880963E-09
       262  18 -2.033670E+06 -4.532140E+05 -3.964543E+05  4.098051E+05 -1.096922E-09 -5.221029E-09
       262  19  2.826988E+06  7.009947E+05  6.720281E+05  3.985062E+05 -1.119465E+05  3.727873E+04
       262  20  2.279899E+06  5.837088E+05  4.964448E+05  3.273542E+05 -2.622160E+04  1.141298E+05
       262  21  1.742694E+06  4.563609E+05  3.741826E+05  4.229168E+05  5.943387E+04  1.112237E+05
       262  22 -1.479977E+05 -3.569011E+04 -4.135796E+04  4.163890E+05  2.843022E+04  3.738185E+04
       262  23 -1.440699E+05 -3.638954E+03 -1.957505E+04  3.329901E+05  1.808483E+04  1.142173E+05
       262  24 -1.471836E+05  1.691120E+03 -1.103347E+04  4.163501E+05  7.747674E+03  1.111513E+05
       262  25 -3.114858E+06 -7.730053E+05 -7.552973E+05  4.341823E+05  1.681390E+05  3.749347E+04
       262  26 -2.562513E+06 -5.913674E+05 -5.359254E+05  3.386006E+05  6.222120E+04  1.143058E+05
       262  27 -2.033665E+06 -4.532002E+05 -3.964275E+05  4.098011E+05 -4.378444E+04  1.110799E+05
       263   1  1.352533E+06  3.602404E+05  2.971965E+05  4.189754E+05 -3.915222E+04 -8.753309E+04
       263   2  8.112730E+05  2.310192E+05  1.885564E+05  3.331472E+05 -4.170671E+04 -5.811795E+04
       263   3  2.701805E+05  1.020046E+05  8.148355E+04  4.183949E+05 -4.429632E+04 -2.449058E+04
       263   4 -1.455641E+05 -3.443475E+02 -8.735770E+03  4.173205E+05 -6.315849E+03 -8.747878E+04
       263   5 -1.449105E+05  1.135540E+03 -5.065843E+03  3.317720E+05 -3.827340E+03 -5.803661E+04
       263   6 -1.452390E+05  1.963111E+03 -3.324610E+03  4.173159E+05 -1.376026E+03 -2.437823E+04
       263   7 -1.641529E+06 -3.610690E+05 -3.147825E+05  4.156678E+05  2.644288E+04 -8.742455E+04
       263   8 -1.100221E+06 -2.288042E+05 -1.987301E+05  3.303983E+05  3.399486E+04 -5.795536E+04
       263   9 -5.604906E+05 -9.808819E+04 -8.813496E+04  4.162374E+05  4.151609E+04 -2.426598E+04
       263  10  1.352529E+06  3.602318E+05  2.971792E+05  4.189727E+05 -5.216993E-09 -4.251182E-09
       263  11  8.112702E+05  2.310151E+05  1.885468E+05  3.331452E+05 -2.767212E-09  2.067868E-09
       263  12  2.701783E+05  1.020034E+05  8.147874E+04  4.183941E+05 -7.709357E-10  2.985808E-09
       263  13 -1.455662E+05 -3.525746E+02 -8.750223E+03  4.173200E+05  2.460695E-10 -3.226067E-09
       263  14 -1.449114E+05  1.131919E+03 -5.072200E+03  3.317718E+05 -1.172216E-09 -2.600886E-10
       263  15 -1.452392E+05  1.962472E+03 -3.325730E+03  4.173159E+05  1.104932E-09 -2.057345E-09
       263  16 -1.641531E+06 -3.610774E+05 -3.147982E+05  4.156697E+05  4.108819E-09 -1.215477E-09
       263  17 -1.100223E+06 -2.288081E+05 -1.987386E+05  3.303998E+05  2.277101E-09  9.001810E-10
       263  18 -5.604926E+05 -9.808929E+04 -8.813931E+04  4.162382E+05  1.273115E-09  3.165535E-10
       263  19  1.352533E+06  3.602404E+05  2.971965E+05  4.189754E+05  3.915222E+04  8.753309E+04
       263  20  8.112730E+05  2.310192E+05  1.885564E+05  3.331472E+05  4.170671E+04  5.811795E+04
       263  21  2.701805E+05  1.020046E+05  8.148355E+04  4.183949E+05  4.429632E+04  2.449058E+04
       263  22 -1.455641E+05 -3.443475E+02 -8.735770E+03  4.173205E+05  6.315849E+03  8.747878E+04
       263  23 -1.449105E+05  1.135540E+03 -5.065843E+03  3.317720E+05  3.827340E+03  5.803661E+04
       263  24 -1.452390E+05  1.963111E+03 -3.324610E+03  4.173159E+05  1.376026E+03  2.437823E+04
       263  25 -1.641529E+06 -3.610690E+05 -3.147825E+05  4.156678E+05 -2.644288E+04  8.742455E+04
       263  26 -1.100221E+06 -2.288042E+05 -1.987301E+05  3.303983E+05 -3.399486E+04  5.795536E+04
       263  27 -5.604906E+05 -9.808819E+04 -8.813496E+04  4.162374E+05 -4.151609E+04  2.426598E+04
       264   1 -1.186356E+05  8.055205E+03  1.157419E+03  4.172851E+05 -4.365190E+04 -3.384925E+03
       264   2 -6.586787E+05 -1.223408E+05 -1.074343E+05  3.309985E+05 -3.803776E+04  3.049851E+04
       264   3 -1.200027E+06 -2.533949E+05 -2.200596E+05  4.158501E+05 -3.240606E+04  6.081666E+04
       264   4 -1.451719E+05  1.931177E+03 -2.927596E+03  4.173244E+05 -8.906202E+02 -3.270343E+03
       264   5 -1.448389E+05  1.401487E+03 -2.816003E+03  3.317609E+05  4.327602E+02  3.059194E+04
       264   6 -1.453466E+05  9.747628E+02 -3.753061E+03  4.173262E+05  1.778461E+03  6.089124E+04
       264   7 -1.717036E+05 -4.191903E+03 -7.005753E+03  4.173637E+05  4.186890E+04 -3.155752E+03
       264   8  3.692554E+05  1.251281E+05  1.017940E+05  3.325237E+05  3.893455E+04  3.068542E+04
       264   9  9.103945E+05  2.552751E+05  2.124986E+05  4.188038E+05  3.602009E+04  6.096591E+04
       264  10 -1.186376E+05  8.054682E+03  1.153816E+03  4.172850E+05 -1.895881E-09  4.061943E-09
       264  11 -6.586805E+05 -1.223422E+05 -1.074388E+05  3.309995E+05 -5.697681E-10  2.609213E-09
       264  12 -1.200029E+06 -2.533992E+05 -2.200685E+05  4.158517E+05  3.633895E-09 -5.580186E-10
       264  13 -1.451719E+05  1.931165E+03 -2.927618E+03  4.173244E+05  8.882216E-10 -2.497082E-09
       264  14 -1.448391E+05  1.400482E+03 -2.817761E+03  3.317609E+05 -1.798558E-10  2.915957E-09
       264  15 -1.453476E+05  9.707809E+02 -3.760034E+03  4.173261E+05  3.449546E-10  3.938543E-09
       264  16 -1.717055E+05 -4.192385E+03 -7.009067E+03  4.173638E+05  2.171319E-09  2.072297E-09
       264  17  3.692536E+05  1.251267E+05  1.017894E+05  3.325227E+05 -4.402427E-11  3.587746E-09
       264  18  9.103921E+05  2.552708E+05  2.124892E+05  4.188021E+05 -3.959246E-09  8.287132E-10
       264  19 -1.186356E+05  8.055205E+03  1.157419E+03  4.172851E+05  4.365190E+04  3.384925E+03
       264  20 -6.586787E+05 -1.223408E+05 -1.074343E+05  3.309985E+05  3.803776E+04 -3.049851E+04
       264  21 -1.200027E+06 -2.533949E+05 -2.200596E+05  4.158501E+05  3.240606E+04 -6.081666E+04
       264  22 -1.451719E+05  1.931177E+03 -2.927596E+03  4.173244E+05  8.906202E+02  3.270343E+03
       264  23 -1.448389E+05  1.401487E+03 -2.816003E+03  3.317609E+05 -4.327602E+02 -3.059194E+04
       264  24 -1.453466E+05  9.747628E+02 -3.753061E+03  4.173262E+05 -1.778461E+03 -6.089124E+04
       264  25 -1.717036E+05 -4.191903E+03 -7.005753E+03  4.173637E+05 -4.186890E+04  3.155752E+03
       264  26  3.692554E+05  1.251281E+05  1.017940E+05  3.325237E+05 -3.893455E+04 -3.068542E+04
       264  27  9.103945E+05  2.552751E+05  2.124986E+05  4.188038E+05 -3.602009E+04 -6.096591E+04
       265   1 -1.590923E+06 -3.468823E+05 -3.003127E+05  4.128130E+05 -4.798389E+04  8.406981E+04
       265   2 -2.123357E+06 -4.818770E+05 -4.310579E+05  3.333863E+05  3.834308E+04  9.187207E+04
       265   3 -2.672300E+06 -6.405153E+05 -6.239791E+05  4.214368E+05  1.246384E+05  3.084994E+04
       265   4 -1.459013E+05  1.608946E+03 -4.446137E+03  4.165053E+05  2.337149E+03  8.416661E+04
       265   5 -1.450199E+05 -9.712657E+02 -7.527516E+03  3.327895E+05  6.325048E+03  9.179666E+04
       265   6 -1.465672E+05 -1.282317E+04 -1.548110E+04  4.165256E+05  1.036028E+04  3.070026E+04
       265   7  1.301113E+06  3.499704E+05  2.913192E+05  4.202046E+05  5.277342E+04  8.426387E+04
       265   8  1.837011E+06  4.796789E+05  4.157794E+05  3.321885E+05 -2.579383E+04  9.172148E+04
       265   9  2.385047E+06  6.144103E+05  5.926108E+05  4.115908E+05 -1.043826E+05  3.055282E+04
       265  10 -1.590927E+06 -3.468905E+05 -3.003304E+05  4.128162E+05  9.750701E-10 -1.133526E-09
       265  11 -2.123361E+06 -4.818865E+05 -4.310765E+05  3.333834E+05 -9.578780E-10  3.304341E-09
       265  12 -2.672317E+06 -6.405205E+05 -6.240102E+05  4.214337E+05 -3.297069E-11  8.941083E-10
       265  13 -1.459032E+05  1.601338E+03 -4.459458E+03  4.165051E+05  1.075841E-09  1.495098E-10
       265  14 -1.450222E+05 -9.803242E+02 -7.543424E+03  3.327891E+05 -1.454874E-09  2.814118E-09
       265  15 -1.465675E+05 -1.282421E+04 -1.548307E+04  4.165254E+05  1.640123E-10 -1.678739E-10
       265  16  1.301108E+06  3.499620E+05  2.913006E+05  4.202011E+05 -1.528504E-09  5.556422E-10
       265  17  1.837008E+06  4.796697E+05  4.157624E+05  3.321904E+05  7.438397E-10  7.784558E-10
       265  18  2.385035E+06  6.144064E+05  5.925886E+05  4.115933E+05 -6.105672E-10 -7.632007E-10
       265  19 -1.590923E+06 -3.468823E+05 -3.003127E+05  4.128130E+05  4.798389E+04 -8.406981E+04
       265  20 -2.123357E+06 -4.818770E+05 -4.310579E+05  3.333863E+05 -3.834308E+04 -9.187207E+04
       265  21 -2.672300E+06 -6.405153E+05 -6.239791E+05  4.214368E+05 -1.246384E+05 -3.084994E+04
       265  22 -1.459013E+05  1.608946E+03 -4.446137E+03  4.165053E+05 -2.337149E+03 -8.416661E+04
       265  23 -1.450199E+05 -9.712657E+02 -7.527516E+03  3.327895E+05 -6.325048E+03 -9.179666E+04
       265  24 -1.465672E+05 -1.282317E+04 -1.548110E+04  4.165256E+05 -1.036028E+04 -3.070026E+04
       265  25  1.301113E+06  3.499704E+05  2.913192E+05  4.202046E+05 -5.277342E+04 -8.426387E+04
       265  26  1.837011E+06  4.796789E+05  4.157794E+05  3.321885E+05  2.579383E+04 -9.172148E+04
       265  27  2.385047E+06  6.144103E+05  5.926108E+05  4.115908E+05  1.043826E+05 -3.055282E+04
       266   1 -4.700402E+05 -1.822452E+06 -4.542416E+05  4.450452E+05 -2.132767E+04 -7.222044E+04
       266   2 -3.274652E+05 -1.229961E+06 -2.802652E+05  3.579926E+05 -5.923041E+04 -1.313866E+04
       266   3 -1.846594E+05 -6.446721E+05 -1.447864E+05  4.544389E+05 -4.278652E+04  4.597191E+04
       266   4  1.375441E+04  1.239148E+05  1.624516E+04  4.541808E+05 -2.123837E+04  5.805165E+03
       266   5  1.582270E+03  1.222695E+05  1.176181E+04  3.624527E+05 -5.920312E+04 -1.790144E+02
       266   6  9.725544E+02  1.244112E+05  1.405046E+04  4.541947E+05 -4.287567E+04 -6.192154E+03
       266   7  4.972752E+05  2.073764E+06  4.864831E+05  4.633430E+05 -2.114699E+04  8.407509E+04
       266   8  3.305093E+05  1.476219E+06  3.036814E+05  3.669217E+05 -5.917568E+04  1.280852E+04
       266   9  1.865686E+05  8.940616E+05  1.728655E+05  4.539498E+05 -4.296472E+04 -5.841976E+04
       266  10 -4.700421E+05 -1.822458E+06 -4.542523E+05  4.450440E+05  2.048118E-10 -2.631789E-10
       266  11 -3.274690E+05 -1.229962E+06 -2.802721E+05  3.579920E+05  8.291512E-10  2.517970E-09
       266  12 -1.846619E+05 -6.446749E+05 -1.447938E+05  4.544405E+05  3.223720E-10  6.118996E-10
       266  13  1.375391E+04  1.239147E+05  1.624425E+04  4.541809E+05 -5.154322E-10 -4.294563E-10
       266  14  1.578507E+03  1.222686E+05  1.175522E+04  3.624527E+05  5.432789E-10 -7.503452E-11
       266  15  9.705703E+02  1.244107E+05  1.404693E+04  4.541945E+05  2.652607E-10 -1.261184E-09
       266  16  4.972728E+05  2.073756E+06  4.864690E+05  4.633445E+05 -4.658673E-10  8.093745E-10
       266  17  3.305055E+05  1.476218E+06  3.036745E+05  3.669223E+05 -2.069899E-09 -7.002456E-10
       266  18  1.865657E+05  8.940574E+05  1.728557E+05  4.539477E+05  6.500268E-10  2.047527E-10
       266  19 -4.700402E+05 -1.822452E+06 -4.542416E+05  4.450452E+05  2.132767E+04  7.222044E+04
       266  20 -3.274652E+05 -1.229961E+06 -2.802652E+05  3.579926E+05  5.923041E+04  1.313866E+04
       266  21 -1.846594E+05 -6.446721E+05 -1.447864E+05  4.544389E+05  4.278652E+04 -4.597191E+04
       266  22  1.375441E+04  1.239148E+05  1.624516E+04  4.541808E+05  2.123837E+04 -5.805165E+03
       266  23  1.582270E+03  1.222695E+05  1.176181E+04  3.624527E+05  5.920312E+04  1.790144E+02
       266  24  9.725544E+02  1.244112E+05  1.405046E+04  4.541947E+05  4.287567E+04  6.192154E+03
       266  25  4.972752E+05  2.073764E+06  4.864831E+05  4.633430E+05  2.114699E+04 -8.407509E+04
       266  26  3.305093E+05  1.476219E+06  3.036814E+05  3.669217E+05  5.917568E+04 -1.280852E+04
       266  27  1.865686E+05  8.940616E+05  1.728655E+05  4.539498E+05  4.296472E+04  5.841976E+04
       267   1 -8.182297E+04 -2.200497E+05 -5.523847E+04  4.526675E+05 -1.807834E+04  3.130787E+04
       267   2  5.998707E+04  3.671205E+05  7.532690E+04  3.623180E+05  1.504328E+04  1.747079E+04
       267   3  2.092153E+05  9.578566E+05  2.165991E+05  4.581042E+05  4.747751E+04  3.629978E+03
       267   4  1.458718E+03  1.243569E+05  1.669850E+04  4.547868E+05 -1.815264E+04 -8.881268E+03
       267   5  1.258347E+03  1.227597E+05  2.598397E+04  3.617115E+05  1.497551E+04 -2.190521E+04
       267   6  8.358536E+03  1.242659E+05  4.542766E+04  4.547741E+05  4.741519E+04 -3.492028E+04
       267   7  8.473370E+04  4.688791E+05  8.863498E+04  4.569072E+05 -1.822718E+04 -4.909234E+04
       267   8 -5.747325E+04 -1.215409E+05 -2.335621E+04  3.611053E+05  1.490781E+04 -6.126602E+04
       267   9 -1.925411E+05 -7.086627E+05 -1.257754E+05  4.514481E+05  4.735322E+04 -7.341974E+04
       267  10 -8.182358E+04 -2.200508E+05 -5.524092E+04  4.526679E+05  3.512386E-10 -1.351237E-09
       267  11  5.998675E+04  3.671201E+05  7.532590E+04  3.623178E+05 -7.299480E-10  2.731104E-09
       267  12  2.092129E+05  9.578560E+05  2.165949E+05  4.581041E+05  2.977656E-10  9.193538E-10
       267  13  1.458343E+03  1.243567E+05  1.669773E+04  4.547867E+05  6.760062E-12 -1.235501E-09
       267  14  1.257977E+03  1.227591E+05  2.598265E+04  3.617118E+05 -1.041977E-09 -1.341418E-10
       267  15  8.355793E+03  1.242640E+05  4.542114E+04  4.547755E+05 -1.094001E-09 -1.372808E-09
       267  16  8.473270E+04  4.688764E+05  8.862983E+04  4.569065E+05  1.101544E-09  3.161330E-09
       267  17 -5.747449E+04 -1.215450E+05 -2.336368E+04  3.611060E+05  7.245608E-10  3.768276E-10
       267  18 -1.925450E+05 -7.086691E+05 -1.257897E+05  4.514509E+05  8.545840E-11 -2.443370E-10
       267  19 -8.182297E+04 -2.200497E+05 -5.523847E+04  4.526675E+05  1.807834E+04 -3.130787E+04
       267  20  5.998707E+04  3.671205E+05  7.532690E+04  3.623180E+05 -1.504328E+04 -1.747079E+04
       267  21  2.092153E+05  9.578566E+05  2.165991E+05  4.581042E+05 -4.747751E+04 -3.629978E+03
       267  22  1.458718E+03  1.243569E+05  1.669850E+04  4.547868E+05  1.815264E+04  8.881268E+03
       267  23  1.258347E+03  1.227597E+05  2.598397E+04  3.617115E+05 -1.497551E+04  2.190521E+04
       267  24  8.358536E+03  1.242659E+05  4.542766E+04  4.547741E+05 -4.741519E+04  3.492028E+04
       267  25  8.473370E+04  4.688791E+05  8.863498E+04  4.569072E+05  1.822718E+04  4.909234E+04
       267  26 -5.747325E+04 -1.215409E+05 -2.335621E+04  3.611053E+05 -1.490781E+04  6.126602E+04
       267  27 -1.925411E+05 -7.086627E+05 -1.257754E+05  4.514481E+05 -4.735322E+04  7.341974E+04
       268   1  2.990000E+05  1.392587E+06  3.156195E+05  4.331275E+05  7.261738E+04  1.075940E+04
       268   2  4.638182E+05  1.953462E+06  4.952987E+05  4.034981E+05  8.379561E+04 -1.221499E+05
       268   3  7.896957E+05  2.572657E+06  8.016675E+05  5.567295E+05  2.841114E+04 -2.551855E+05
       268   4 -4.129486E+03  1.332395E+05  5.781063E+04  4.540678E+05  7.254409E+04 -4.285629E+04
       268   5  1.672976E+04  1.107477E+05  1.007647E+05  3.625741E+05  8.384979E+04 -9.557515E+04
       268   6  1.850269E+05  1.325573E+05  2.149745E+05  4.539124E+05  2.852986E+04 -1.482872E+05
       268   7 -3.073551E+05 -1.124596E+06 -2.000714E+05  4.749639E+05  7.246708E+04 -9.636530E+04
       268   8 -4.305742E+05 -1.728774E+06 -2.939633E+05  3.217713E+05  8.390061E+04 -6.907765E+04
       268   9 -4.200298E+05 -2.302061E+06 -3.720940E+05  3.514969E+05  2.861367E+04 -4.180525E+04
       268  10  2.989943E+05  1.392585E+06  3.156093E+05  4.331268E+05  3.156974E-10  2.517746E-10
       268  11  4.638067E+05  1.953444E+06  4.952576E+05  4.035063E+05 -9.837149E-11  7.757342E-10
       268  12  7.896774E+05  2.572587E+06  8.015440E+05  5.567353E+05 -1.937531E-10 -1.468230E-10
       268  13 -4.135634E+03  1.332361E+05  5.779728E+04  4.540703E+05  1.059897E-09 -8.871352E-10
       268  14  1.671975E+04  1.107360E+05  1.007343E+05  3.625805E+05  4.224975E-10 -3.253475E-11
       268  15  1.850201E+05  1.325335E+05  2.149316E+05  4.539158E+05  9.734787E-11  1.255212E-10
       268  16 -3.073632E+05 -1.124608E+06 -2.000987E+05  4.749696E+05  1.939436E-10  9.518448E-10
       268  17 -4.305830E+05 -1.728781E+06 -2.939856E+05  3.217759E+05  3.308004E-10  6.128213E-10
       268  18 -4.200312E+05 -2.302063E+06 -3.720988E+05  3.514978E+05  5.040685E-10  1.131319E-10
       268  19  2.990000E+05  1.392587E+06  3.156195E+05  4.331275E+05 -7.261738E+04 -1.075940E+04
       268  20  4.638182E+05  1.953462E+06  4.952987E+05  4.034981E+05 -8.379561E+04  1.221499E+05
       268  21  7.896957E+05  2.572657E+06  8.016675E+05  5.567295E+05 -2.841114E+04  2.551855E+05
       268  22 -4.129486E+03  1.332395E+05  5.781063E+04  4.540678E+05 -7.254409E+04  4.285629E+04
       268  23  1.672976E+04  1.107477E+05  1.007647E+05  3.625741E+05 -8.384979E+04  9.557515E+04
       268  24  1.850269E+05  1.325573E+05  2.149745E+05  4.539124E+05 -2.852986E+04  1.482872E+05
       268  25 -3.073551E+05 -1.124596E+06 -2.000714E+05  4.749639E+05 -7.246708E+04  9.636530E+04
       268  26 -4.305742E+05 -1.728774E+06 -2.939633E+05  3.217713E+05 -8.390061E+04  6.907765E+04
       268  27 -4.200298E+05 -2.302061E+06 -3.720940E+05  3.514969E+05 -2.861367E+04  4.180525E+04
       269   1  2.461722E+06  6.270136E+05  6.075839E+05  3.770984E+05  1.195705E+05 -3.111720E+04
       269   2  1.968085E+06  4.912789E+05  4.330948E+05  3.013129E+05  3.728756E+04 -9.480251E+04
       269   3  1.490193E+06  3.730659E+05  3.165194E+05  3.752097E+05 -4.497419E+04 -9.071040E+04
       269   4 -5.688804E+04  3.154633E+03  3.242738E+03  3.732860E+05  2.265216E+03 -3.126105E+04
       269   5 -5.729493E+04  3.366711E+02  1.444355E+03  2.984341E+05  1.610547E+03 -9.488313E+04
       269   6 -5.627995E+04  9.395803E+02  1.024764E+03  3.732898E+05  9.115755E+02 -9.062805E+04
       269   7 -2.569675E+06 -6.211576E+05 -6.014969E+05  3.694858E+05 -1.145675E+05 -3.140388E+04
       269   8 -2.078816E+06 -4.908718E+05 -4.304377E+05  2.955624E+05 -3.395207E+04 -9.496359E+04
       269   9 -1.600478E+06 -3.713351E+05 -3.145880E+05  3.713730E+05  4.668535E+04 -9.054587E+04
       269  10  2.461707E+06  6.270088E+05  6.075553E+05  3.771014E+05  2.230130E-08 -6.754184E-10
       269  11  1.968081E+06  4.912689E+05  4.330753E+05  3.013158E+05 -2.722512E-09 -1.662410E-09
       269  12  1.490189E+06  3.730565E+05  3.165001E+05  3.752064E+05 -2.563220E-08 -2.177405E-09
       269  13 -5.688831E+04  3.153582E+03  3.240892E+03  3.732860E+05 -3.072035E-10  2.161412E-09
       269  14 -5.729735E+04  3.270031E+02  1.427432E+03  2.984342E+05  5.214997E-10 -2.583087E-10
       269  15 -5.628215E+04  9.307604E+02  1.009328E+03  3.732899E+05  2.110354E-09 -2.180397E-09
       269  16 -2.569689E+06 -6.211622E+05 -6.015235E+05  3.694829E+05 -2.330173E-08  3.976826E-10
       269  17 -2.078820E+06 -4.908818E+05 -4.304569E+05  2.955598E+05  2.471740E-09 -3.840699E-10
       269  18 -1.600483E+06 -3.713445E+05 -3.146075E+05  3.713764E+05  2.561161E-08 -2.719323E-09
       269  19  2.461722E+06  6.270136E+05  6.075839E+05  3.770984E+05 -1.195705E+05  3.111720E+04
       269  20  1.968085E+06  4.912789E+05  4.330948E+05  3.013129E+05 -3.728756E+04  9.480251E+04
       269  21  1.490193E+06  3.730659E+05  3.165194E+05  3.752097E+05  4.497419E+04  9.071040E+04
       269  22 -5.688804E+04  3.154633E+03  3.242738E+03  3.732860E+05 -2.265216E+03  3.126105E+04
       269  23 -5.729493E+04  3.366711E+02  1.444355E+03  2.984341E+05 -1.610547E+03  9.488313E+04
       269  24 -5.627995E+04  9.395803E+02  1.024764E+03  3.732898E+05 -9.115755E+02  9.062805E+04
       269  25 -2.569675E+06 -6.211576E+05 -6.014969E+05  3.694858E+05  1.145675E+05  3.140388E+04
       269  26 -2.078816E+06 -4.908718E+05 -4.304377E+05  2.955624E+05  3.395207E+04  9.496359E+04
       269  27 -1.600478E+06 -3.713351E+05 -3.145880E+05  3.713730E+05 -4.668535E+04  9.054587E+04
       270   1  1.139125E+06  2.892088E+05  2.451991E+05  3.760548E+05 -2.918281E+04 -6.961176E+04
       270   2  6.539574E+05  1.720040E+05  1.445588E+05  2.986527E+05 -3.378750E+04 -4.297333E+04
       270   3  1.693721E+05  5.623630E+04  4.710376E+04  3.745532E+05 -3.841553E+04 -1.277730E+04
       270   4 -5.648261E+04  1.365052E+03  8.216961E+02  3.740899E+05  6.984978E+02 -6.955096E+04
       270   5 -5.618337E+04  1.231970E+03  5.929023E+02  2.974331E+05  3.572589E+02 -4.289167E+04
       270   6 -5.626647E+04  1.809297E+03  5.954242E+02  3.740894E+05 -1.078354E+01 -1.267212E+04
       270   7 -1.250731E+06 -2.865677E+05 -2.436280E+05  3.721277E+05  3.052338E+04 -6.949029E+04
       270   8 -7.658419E+05 -1.695707E+05 -1.433948E+05  2.962145E+05  3.446373E+04 -4.281008E+04
       270   9 -2.818536E+05 -5.262013E+04 -4.591011E+04  3.736257E+05  3.838026E+04 -1.256698E+04
       270  10  1.139123E+06  2.892033E+05  2.451884E+05  3.760532E+05 -4.528574E-09  1.084397E-09
       270  11  6.539557E+05  1.720017E+05  1.445531E+05  2.986516E+05 -3.317301E-09  1.533471E-09
       270  12  1.693705E+05  5.623573E+04  4.710068E+04  3.745528E+05 -1.458579E-09  1.179914E-09
       270  13 -5.648391E+04  1.359858E+03  8.126050E+02  3.740899E+05  2.288901E-09 -9.336793E-10
       270  14 -5.618387E+04  1.229995E+03  5.894450E+02  2.974331E+05 -1.036235E-09  1.271660E-09
       270  15 -5.626651E+04  1.809124E+03  5.951225E+02  3.740894E+05  6.649937E-10  1.123792E-09
       270  16 -1.250734E+06 -2.865731E+05 -2.436389E+05  3.721294E+05  4.820338E-09  1.666052E-10
       270  17 -7.658436E+05 -1.695730E+05 -1.434005E+05  2.962157E+05  2.544544E-09 -7.305779E-09
       270  18 -2.818552E+05 -5.262070E+04 -4.591318E+04  3.736261E+05  1.805036E-09 -2.566764E-09
       270  19  1.139125E+06  2.892088E+05  2.451991E+05  3.760548E+05  2.918281E+04  6.961176E+04
       270  20  6.539574E+05  1.720040E+05  1.445588E+05  2.986527E+05  3.378750E+04  4.297333E+04
       270  21  1.693721E+05  5.623630E+04  4.710376E+04  3.745532E+05  3.841553E+04  1.277730E+04
       270  22 -5.648261E+04  1.365052E+03  8.216961E+02  3.740899E+05 -6.984978E+02  6.955096E+04
       270  23 -5.618337E+04  1.231970E+03  5.929023E+02  2.974331E+05 -3.572589E+02  4.289167E+04
       270  24 -5.626647E+04  1.809297E+03  5.954242E+02  3.740894E+05  1.078354E+01  1.267212E+04
       270  25 -1.250731E+06 -2.865677E+05 -2.436280E+05  3.721277E+05 -3.052338E+04  6.949029E+04
       270  26 -7.658419E+05 -1.695707E+05 -1.433948E+05  2.962145E+05 -3.446373E+04  4.281008E+04
       270  27 -2.818536E+05 -5.262013E+04 -4.591011E+04  3.736257E+05 -3.838026E+04  1.256698E+04
       271   1 -1.790144E+05 -2.790839E+04 -2.518574E+04  3.738456E+05 -3.853962E+04  6.132574E+03
       271   2 -6.630475E+05 -1.448034E+05 -1.224637E+05  2.963685E+05 -3.490852E+04  3.642084E+04
       271   3 -1.147952E+06 -2.616410E+05 -2.222854E+05  3.722253E+05 -3.125661E+04  6.329863E+04
       271   4 -5.626114E+04  1.810083E+03  6.304657E+02  3.740919E+05 -1.792687E+02  6.238193E+03
       271   5 -5.615762E+04  1.282627E+03  7.994654E+02  2.974299E+05 -6.510534E+02  3.650502E+04
       271   6 -5.644595E+04  1.535698E+03  1.275829E+03  3.740920E+05 -1.099195E+03  6.336368E+04
       271   7  6.650951E+04  3.152838E+04  2.645135E+04  3.743383E+05  3.818855E+04  6.343829E+03
       271   8  5.510856E+05  1.473464E+05  1.240478E+05  2.984921E+05  3.363930E+04  3.658926E+04
       271   9  1.036195E+06  2.646381E+05  2.247772E+05  3.759611E+05  2.911035E+04  6.342884E+04
       271  10 -1.790160E+05 -2.790883E+04 -2.518860E+04  3.738458E+05 -6.953261E-09  4.623483E-09
       271  11 -6.630492E+05 -1.448052E+05 -1.224685E+05  2.963695E+05  6.812879E-09  1.777595E-09
       271  12 -1.147954E+06 -2.616456E+05 -2.222948E+05  3.722269E+05  1.975564E-08  4.473347E-09
       271  13 -5.626115E+04  1.810041E+03  6.303926E+02  3.740919E+05  1.945204E-09  7.097300E-10
       271  14 -5.615798E+04  1.281196E+03  7.969604E+02  2.974299E+05 -1.596382E-09  3.155915E-09
       271  15 -5.644703E+04  1.531386E+03  1.268281E+03  3.740921E+05  5.559029E-11  6.497974E-10
       271  16  6.650794E+04  3.152794E+04  2.644854E+04  3.743381E+05  6.540293E-09 -8.179396E-11
       271  17  5.510840E+05  1.473446E+05  1.240432E+05  2.984912E+05 -7.711899E-09 -8.121968E-10
       271  18  1.036193E+06  2.646335E+05  2.247680E+05  3.759597E+05 -2.048874E-08 -3.132147E-09
       271  19 -1.790144E+05 -2.790839E+04 -2.518574E+04  3.738456E+05  3.853962E+04 -6.132574E+03
       271  20 -6.630475E+05 -1.448034E+05 -1.224637E+05  2.963685E+05  3.490852E+04 -3.642084E+04
       271  21 -1.147952E+06 -2.616410E+05 -2.222854E+05  3.722253E+05  3.125661E+04 -6.329863E+04
       271  22 -5.626114E+04  1.810083E+03  6.304657E+02  3.740919E+05  1.792687E+02 -6.238193E+03
       271  23 -5.615762E+04  1.282627E+03  7.994654E+02  2.974299E+05  6.510534E+02 -3.650502E+04
       271  24 -5.644595E+04  1.535698E+03  1.275829E+03  3.740920E+05  1.099195E+03 -6.336368E+04
       271  25  6.650951E+04  3.152838E+04  2.645135E+04  3.743383E+05 -3.818855E+04 -6.343829E+03
       271  26  5.510856E+05  1.473464E+05  1.240478E+05  2.984921E+05 -3.363930E+04 -3.658926E+04
       271  27  1.036195E+06  2.646381E+05  2.247772E+05  3.759611E+05 -2.911035E+04 -6.342884E+04
       272   1 -1.497563E+06 -3.465175E+05 -2.931526E+05  3.717086E+05 -4.688381E+04  8.426077E+04
       272   2 -1.976353E+06 -4.656861E+05 -4.077281E+05  2.950690E+05  3.006055E+04  8.974169E+04
       272   3 -2.466786E+06 -5.935009E+05 -5.746040E+05  3.682844E+05  1.069957E+05  2.985391E+04
       272   4 -5.614939E+04  9.929116E+02  1.622707E+03  3.733172E+05 -1.392076E+03  8.434813E+04
       272   5 -5.732204E+04  6.545419E+02  2.546210E+03  2.983991E+05 -2.676096E+03  8.966488E+04
       272   6 -5.672684E+04  5.297715E+03  5.592804E+03  3.733099E+05 -3.908595E+03  2.970469E+04
       272   7  1.387246E+06  3.483741E+05  2.962958E+05  3.749281E+05  4.420355E+04  8.443560E+04
       272   8  1.865185E+06  4.667550E+05  4.126113E+05  3.017374E+05 -3.551270E+04  8.958788E+04
       272   9  2.358688E+06  6.036793E+05  5.854218E+05  3.783519E+05 -1.152431E+05  2.955406E+04
       272  10 -1.497567E+06 -3.465258E+05 -2.931701E+05  3.717117E+05 -1.905615E-08  4.116606E-09
       272  11 -1.976356E+06 -4.656950E+05 -4.077450E+05  2.950668E+05 -8.316497E-09 -7.715919E-10
       272  12 -2.466799E+06 -5.935050E+05 -5.746273E+05  3.682818E+05  3.321901E-09 -3.897957E-10
       272  13 -5.615130E+04  9.852714E+02  1.609334E+03  3.733173E+05  8.408736E-10  5.202037E-09
       272  14 -5.732420E+04  6.459067E+02  2.531088E+03  2.983993E+05 -1.372007E-09 -3.000778E-09
       272  15 -5.672709E+04  5.296764E+03  5.591116E+03  3.733100E+05 -5.789597E-10  1.943243E-09
       272  16  1.387242E+06  3.483660E+05  2.962788E+05  3.749250E+05  1.848368E-08  1.509241E-09
       272  17  1.865182E+06  4.667461E+05  4.125938E+05  3.017400E+05  8.656093E-09  1.224085E-09
       272  18  2.358674E+06  6.036748E+05  5.853953E+05  3.783546E+05 -3.273677E-09 -1.033390E-09
       272  19 -1.497563E+06 -3.465175E+05 -2.931526E+05  3.717086E+05  4.688381E+04 -8.426077E+04
       272  20 -1.976353E+06 -4.656861E+05 -4.077281E+05  2.950690E+05 -3.006055E+04 -8.974169E+04
       272  21 -2.466786E+06 -5.935009E+05 -5.746040E+05  3.682844E+05 -1.069957E+05 -2.985391E+04
       272  22 -5.614939E+04  9.929116E+02  1.622707E+03  3.733172E+05  1.392076E+03 -8.434813E+04
       272  23 -5.732204E+04  6.545419E+02  2.546210E+03  2.983991E+05  2.676096E+03 -8.966488E+04
       272  24 -5.672684E+04  5.297715E+03  5.592804E+03  3.733099E+05  3.908595E+03 -2.970469E+04
       272  25  1.387246E+06  3.483741E+05  2.962958E+05  3.749281E+05 -4.420355E+04 -8.443560E+04
       272  26  1.865185E+06  4.667550E+05  4.126113E+05  3.017374E+05  3.551270E+04 -8.958788E+04
       272  27  2.358688E+06  6.036793E+05  5.854218E+05  3.783519E+05  1.152431E+05 -2.955406E+04
       273   1 -5.479189E+05 -2.264066E+06 -5.310978E+05  5.249870E+05 -2.428368E+04 -8.582019E+04
       273   2 -3.740947E+05 -1.571531E+06 -3.260816E+05  4.203613E+05 -6.718848E+04 -1.447485E+04
       273   3 -2.065407E+05 -8.889615E+05 -1.691718E+05  5.300859E+05 -4.759924E+04  5.695172E+04
       273   4  7.398291E+03 -3.076731E+04  9.059075E+03  5.302189E+05 -2.421954E+04  3.005989E+03
       273   5  7.335423E+02 -3.174180E+04  6.756532E+03  4.230635E+05 -6.716247E+04 -4.200956E+02
       273   6  8.401817E+02 -3.010776E+04  8.402768E+03  5.302230E+05 -4.768213E+04 -3.846134E+03
       273   7  5.623543E+05  2.207118E+06  5.488875E+05  5.354671E+05 -2.415411E+04  9.215151E+04
       273   8  3.754054E+05  1.510278E+06  3.394551E+05  4.257713E+05 -6.713640E+04  1.366911E+04
       273   9  2.081764E+05  8.294539E+05  1.859513E+05  5.303598E+05 -4.776497E+04 -6.472672E+04
       273  10 -5.479215E+05 -2.264074E+06 -5.311128E+05  5.249853E+05 -4.867495E-10  8.363488E-11
       273  11 -3.740996E+05 -1.571532E+06 -3.260905E+05  4.203605E+05 -4.914654E-10 -2.698833E-10
       273  12 -2.065441E+05 -8.889656E+05 -1.691822E+05  5.300881E+05  4.648311E-11  1.161503E-09
       273  13  7.397659E+03 -3.076748E+04  9.057955E+03  5.302189E+05 -2.141748E-11 -7.909040E-10
       273  14  7.286986E+02 -3.174301E+04  6.748055E+03  4.230635E+05  5.345785E-10  3.908574E-10
       273  15  8.377367E+02 -3.010839E+04  8.398469E+03  5.302229E+05  1.035469E-10 -7.915722E-10
       273  16  5.623514E+05  2.207109E+06  5.488704E+05  5.354689E+05  6.014239E-10  6.436002E-11
       273  17  3.754005E+05  1.510276E+06  3.394463E+05  4.257720E+05  1.011779E-09  5.242904E-10
       273  18  2.081728E+05  8.294488E+05  1.859391E+05  5.303573E+05 -1.657338E-10 -8.011154E-10
       273  19 -5.479189E+05 -2.264066E+06 -5.310978E+05  5.249870E+05  2.428368E+04  8.582019E+04
       273  20 -3.740947E+05 -1.571531E+06 -3.260816E+05  4.203613E+05  6.718848E+04  1.447485E+04
       273  21 -2.065407E+05 -8.889615E+05 -1.691718E+05  5.300859E+05  4.759924E+04 -5.695172E+04
       273  22  7.398291E+03 -3.076731E+04  9.059075E+03  5.302189E+05  2.421954E+04 -3.005989E+03
       273  23  7.335423E+02 -3.174180E+04  6.756532E+03  4.230635E+05  6.716247E+04  4.200956E+02
       273  24  8.401817E+02 -3.010776E+04  8.402768E+03  5.302230E+05  4.768213E+04  3.846134E+03
       273  25  5.623543E+05  2.207118E+06  5.488875E+05  5.354671E+05  2.415411E+04 -9.215151E+04
       273  26  3.754054E+05  1.510278E+06  3.394551E+05  4.257713E+05  6.713640E+04 -1.366911E+04
       273  27  2.081764E+05  8.294539E+05  1.859513E+05  5.303598E+05  4.776497E+04  6.472672E+04
       274   1 -8.664085E+04 -3.930689E+05 -6.600019E+04  5.295922E+05 -1.876252E+04  4.156880E+04
       274   2  7.900218E+04  2.934903E+05  8.129925E+04  4.226565E+05  1.999471E+04  3.259745E+04
       274   3  2.492095E+05  9.826063E+05  2.354625E+05  5.331206E+05  5.784133E+04  2.362993E+04
       274   4  1.177879E+03 -3.013437E+04  1.004543E+04  5.309097E+05 -1.883401E+04 -5.496126E+03
       274   5  9.673487E+02 -3.116687E+04  1.573325E+04  4.222041E+05  1.993262E+04 -1.339384E+04
       274   6  5.163812E+03 -3.027418E+04  2.755469E+04  5.309036E+05  5.778701E+04 -2.127814E+04
       274   7  8.898935E+04  3.329295E+05  8.609205E+04  5.322279E+05 -1.890567E+04 -5.258813E+04
       274   8 -7.707288E+04 -3.557191E+05 -4.983024E+04  4.217519E+05  1.987058E+04 -5.936154E+04
       274   9 -2.389453E+05 -1.042177E+06 -1.804003E+05  5.286895E+05  5.773295E+04 -6.611433E+04
       274  10 -8.664169E+04 -3.930708E+05 -6.600410E+04  5.295928E+05  3.594031E-10  8.972113E-10
       274  11  7.900147E+04  2.934890E+05  8.129650E+04  4.226560E+05 -4.207226E-11 -7.150558E-10
       274  12  2.492058E+05  9.826048E+05  2.354552E+05  5.331195E+05  2.716087E-10 -1.312037E-11
       274  13  1.177490E+03 -3.013450E+04  1.004471E+04  5.309096E+05 -5.212966E-11  1.879563E-09
       274  14  9.668737E+02 -3.116717E+04  1.573216E+04  4.222043E+05  1.271822E-09  2.558971E-10
       274  15  5.160103E+03 -3.027557E+04  2.754756E+04  5.309046E+05 -6.044485E-10 -4.255414E-10
       274  16  8.898823E+04  3.329264E+05  8.608619E+04  5.322271E+05 -3.227033E-10 -1.625448E-09
       274  17 -7.707425E+04 -3.557230E+05 -4.983761E+04  4.217528E+05 -3.148486E-10  8.271682E-10
       274  18 -2.389501E+05 -1.042183E+06 -1.804148E+05  5.286926E+05  1.658975E-11 -7.463796E-10
       274  19 -8.664085E+04 -3.930689E+05 -6.600019E+04  5.295922E+05  1.876252E+04 -4.156880E+04
       274  20  7.900218E+04  2.934903E+05  8.129925E+04  4.226565E+05 -1.999471E+04 -3.259745E+04
       274  21  2.492095E+05  9.826063E+05  2.354625E+05  5.331206E+05 -5.784133E+04 -2.362993E+04
       274  22  1.177879E+03 -3.013437E+04  1.004543E+04  5.309097E+05  1.883401E+04  5.496126E+03
       274  23  9.673487E+02 -3.116687E+04  1.573325E+04  4.222041E+05 -1.993262E+04  1.339384E+04
       274  24  5.163812E+03 -3.027418E+04  2.755469E+04  5.309036E+05 -5.778701E+04  2.127814E+04
       274  25  8.898935E+04  3.329295E+05  8.609205E+04  5.322279E+05  1.890567E+04  5.258813E+04
       274  26 -7.707288E+04 -3.557191E+05 -4.983024E+04  4.217519E+05 -1.987058E+04  5.936154E+04
       274  27 -2.389453E+05 -1.042177E+06 -1.804003E+05  5.286895E+05 -5.773295E+04  6.611433E+04
       275   1  3.609728E+05  1.485413E+06  3.441825E+05  5.175404E+05  8.723901E+04  3.664132E+04
       275   2  5.410512E+05  2.152328E+06  5.299974E+05  4.479147E+05  9.997645E+04 -9.005383E+04
       275   3  8.271648E+05  2.863746E+06  8.248110E+05  5.917448E+05  3.398410E+04 -2.169411E+05
       275   4 -2.585317E+03 -2.478416E+04  3.509757E+04  5.300287E+05  8.718210E+04 -2.612668E+04
       275   5  9.488599E+03 -3.914761E+04  6.098618E+04  4.232838E+05  1.000237E+05 -5.798862E+04
       275   6  1.113923E+05 -2.571679E+04  1.302592E+05  5.299971E+05  3.402484E+04 -8.989665E+04
       275   7 -3.662837E+05 -1.532809E+06 -2.740936E+05  5.424847E+05  8.712255E+04 -8.874498E+04
       275   8 -5.223850E+05 -2.226111E+06 -4.082999E+05  3.987389E+05  1.000685E+05 -2.603440E+04
       275   9 -6.049646E+05 -2.907518E+06 -5.648242E+05  4.685337E+05  3.404070E+04  3.656157E+04
       275  10  3.609643E+05  1.485409E+06  3.441657E+05  5.175378E+05 -1.314592E-10 -2.034941E-10
       275  11  5.410383E+05  2.152316E+06  5.299634E+05  4.479220E+05  4.655036E-11  1.197236E-09
       275  12  8.271510E+05  2.863695E+06  8.247207E+05  5.917507E+05 -8.667170E-10  1.176024E-09
       275  13 -2.593665E+03 -2.478694E+04  3.508199E+04  5.300306E+05 -2.343040E-10  5.577278E-10
       275  14  9.476948E+03 -3.915391E+04  6.096104E+04  4.232885E+05 -9.872882E-10  6.609256E-10
       275  15  1.113888E+05 -2.572578E+04  1.302418E+05  5.299996E+05 -4.273470E-10  1.154296E-09
       275  16 -3.662940E+05 -1.532819E+06 -2.741227E+05  5.424909E+05 -9.006719E-10 -6.729853E-11
       275  17 -5.223960E+05 -2.226114E+06 -4.083200E+05  3.987410E+05 -1.145012E-09 -1.506971E-09
       275  18 -6.049662E+05 -2.907519E+06 -5.648289E+05  4.685327E+05 -6.504787E-10 -1.010084E-09
       275  19  3.609728E+05  1.485413E+06  3.441825E+05  5.175404E+05 -8.723901E+04 -3.664132E+04
       275  20  5.410512E+05  2.152328E+06  5.299974E+05  4.479147E+05 -9.997645E+04  9.005383E+04
       275  21  8.271648E+05  2.863746E+06  8.248110E+05  5.917448E+05 -3.398410E+04  2.169411E+05
       275  22 -2.585317E+03 -2.478416E+04  3.509757E+04  5.300287E+05 -8.718210E+04  2.612668E+04
       275  23  9.488599E+03 -3.914761E+04  6.098618E+04  4.232838E+05 -1.000237E+05  5.798862E+04
       275  24  1.113923E+05 -2.571679E+04  1.302592E+05  5.299971E+05 -3.402484E+04  8.989665E+04
       275  25 -3.662837E+05 -1.532809E+06 -2.740936E+05  5.424847E+05 -8.712255E+04  8.874498E+04
       275  26 -5.223850E+05 -2.226111E+06 -4.082999E+05  3.987389E+05 -1.000685E+05  2.603440E+04
       275  27 -6.049646E+05 -2.907518E+06 -5.648242E+05  4.685337E+05 -3.404070E+04 -3.656157E+04
       276   1  1.522072E+06  3.945198E+05  3.839536E+05  2.518865E+05  7.891696E+04 -1.889992E+04
       276   2  1.197424E+06  2.987525E+05  2.673457E+05  1.992710E+05  2.570302E+04 -5.707280E+04
       276   3  8.841370E+05  2.200134E+05  1.896093E+05  2.451383E+05 -2.751149E+04 -5.329398E+04
       276   4 -2.871640E+04  1.012615E+04  1.142512E+04  2.452865E+05  7.870590E+03 -1.897542E+04
       276   5 -2.986247E+04  1.062981E+03  5.353409E+03  1.960464E+05  5.115710E+03 -5.710775E+04
       276   6 -2.847420E+04  3.021716E+02  3.175447E+03  2.452982E+05  2.331874E+03 -5.325146E+04
       276   7 -1.577296E+06 -3.744395E+05 -3.612553E+05  2.387020E+05 -6.299935E+04 -1.904953E+04
       276   8 -1.255732E+06 -2.967245E+05 -2.567243E+05  1.928277E+05 -1.543156E+04 -5.714252E+04
       276   9 -9.402926E+05 -2.194607E+05 -1.832991E+05  2.454574E+05  3.213222E+04 -5.320888E+04
       276  10  1.522065E+06  3.945177E+05  3.839413E+05  2.518877E+05 -3.334934E-10  1.624435E-09
       276  11  1.197423E+06  2.987489E+05  2.673383E+05  1.992721E+05 -9.145208E-09  3.307043E-09
       276  12  8.841354E+05  2.200101E+05  1.896026E+05  2.451371E+05 -1.434270E-08 -3.067323E-09
       276  13 -2.871656E+04  1.012575E+04  1.142433E+04  2.452866E+05  8.771934E-10 -2.274131E-09
       276  14 -2.986338E+04  1.059472E+03  5.347230E+03  1.960467E+05 -1.236519E-09 -2.462142E-09
       276  15 -2.847497E+04  2.991251E+02  3.170107E+03  2.452983E+05  7.764514E-10 -3.190171E-09
       276  16 -1.577300E+06 -3.744409E+05 -3.612635E+05  2.387010E+05  1.252983E-10  6.890238E-10
       276  17 -1.255733E+06 -2.967281E+05 -2.567309E+05  1.928270E+05  7.469726E-09  3.184506E-09
       276  18 -9.402945E+05 -2.194640E+05 -1.833064E+05  2.454588E+05  1.464555E-08 -1.680935E-09
       276  19  1.522072E+06  3.945198E+05  3.839536E+05  2.518865E+05 -7.891696E+04  1.889992E+04
       276  20  1.197424E+06  2.987525E+05  2.673457E+05  1.992710E+05 -2.570302E+04  5.707280E+04
       276  21  8.841370E+05  2.200134E+05  1.896093E+05  2.451383E+05  2.751149E+04  5.329398E+04
       276  22 -2.871640E+04  1.012615E+04  1.142512E+04  2.452865E+05 -7.870590E+03  1.897542E+04
       276  23 -2.986247E+04  1.062981E+03  5.353409E+03  1.960464E+05 -5.115710E+03  5.710775E+04
       276  24 -2.847420E+04  3.021716E+02  3.175447E+03  2.452982E+05 -2.331874E+03  5.325146E+04
       276  25 -1.577296E+06 -3.744395E+05 -3.612553E+05  2.387020E+05  6.299935E+04  1.904953E+04
       276  26 -1.255732E+06 -2.967245E+05 -2.567243E+05  1.928277E+05  1.543156E+04  5.714252E+04
       276  27 -9.402926E+05 -2.194607E+05 -1.832991E+05  2.454574E+05 -3.213222E+04  5.320888E+04
       277   1  6.533479E+05  1.653933E+05  1.421894E+05  2.467393E+05 -1.809087E+04 -3.952975E+04
       277   2  3.346296E+05  8.808227E+04  7.542328E+04  1.959142E+05 -2.152118E+04 -2.182604E+04
       277   3  1.641551E+04  1.186475E+04  1.107572E+04  2.458068E+05 -2.495950E+04 -1.936472E+03
       277   4 -2.897321E+04  1.047478E+03  2.531091E+03  2.457910E+05  1.862087E+03 -3.949820E+04
       277   5 -2.891077E+04  6.174626E+02  1.575607E+03  1.954307E+05  1.052186E+03 -2.178633E+04
       277   6 -2.890054E+04  8.307866E+02  1.220764E+03  2.457916E+05  2.325443E+02 -1.887687E+03
       277   7 -7.108514E+05 -1.633274E+05 -1.371505E+05  2.448435E+05  2.179353E+04 -3.946668E+04
       277   8 -3.923243E+05 -8.685530E+04 -7.227705E+04  1.949474E+05  2.361259E+04 -2.174664E+04
       277   9 -7.421330E+04 -1.020297E+04 -8.631924E+03  2.457763E+05  2.542277E+04 -1.838902E+03
       277  10  6.533471E+05  1.653916E+05  1.421859E+05  2.467387E+05  1.519601E-08 -5.528314E-09
       277  11  3.346290E+05  8.808163E+04  7.542152E+04  1.959139E+05  7.293414E-09  1.463822E-09
       277  12  1.641484E+04  1.186458E+04  1.107454E+04  2.458068E+05 -2.899231E-09  6.457921E-09
       277  13 -2.897364E+04  1.045802E+03  2.528152E+03  2.457911E+05  1.218376E-09  2.341066E-09
       277  14 -2.891090E+04  6.169526E+02  1.574713E+03  1.954307E+05 -6.974971E-10 -9.050825E-09
       277  15 -2.890054E+04  8.307828E+02  1.220757E+03  2.457916E+05  1.016508E-09  5.497446E-09
       277  16 -7.108524E+05 -1.633292E+05 -1.371543E+05  2.448442E+05 -1.487234E-08 -4.048179E-09
       277  17 -3.923250E+05 -8.685596E+04 -7.227899E+04  1.949478E+05 -6.966365E-09 -3.333435E-10
       277  18 -7.421400E+04 -1.020315E+04 -8.633146E+03  2.457763E+05  1.741301E-09  2.568515E-09
       277  19  6.533479E+05  1.653933E+05  1.421894E+05  2.467393E+05  1.809087E+04  3.952975E+04
       277  20  3.346296E+05  8.808227E+04  7.542328E+04  1.959142E+05  2.152118E+04  2.182604E+04
       277  21  1.641551E+04  1.186475E+04  1.107572E+04  2.458068E+05  2.495950E+04  1.936472E+03
       277  22 -2.897321E+04  1.047478E+03  2.531091E+03  2.457910E+05 -1.862087E+03  3.949820E+04
       277  23 -2.891077E+04  6.174626E+02  1.575607E+03  1.954307E+05 -1.052186E+03  2.178633E+04
       277  24 -2.890054E+04  8.307866E+02  1.220764E+03  2.457916E+05 -2.325443E+02  1.887687E+03
       277  25 -7.108514E+05 -1.633274E+05 -1.371505E+05  2.448435E+05 -2.179353E+04  3.946668E+04
       277  26 -3.923243E+05 -8.685530E+04 -7.227705E+04  1.949474E+05 -2.361259E+04  2.174664E+04
       277  27 -7.421330E+04 -1.020297E+04 -8.631924E+03  2.457763E+05 -2.542277E+04  1.838902E+03
       278   1 -2.124401E+05 -4.341250E+04 -3.647860E+04  2.455628E+05 -2.524000E+04  1.048636E+04
       278   2 -5.305021E+05 -1.201187E+05 -1.003674E+05  1.947992E+05 -2.306591E+04  3.033213E+04
       278   3 -8.490227E+05 -1.967675E+05 -1.657445E+05  2.447502E+05 -2.088030E+04  4.778573E+04
       278   4 -2.890707E+04  8.316581E+02  1.179789E+03  2.457889E+05 -6.890643E+00  1.053474E+04
       278   5 -2.893123E+04  5.717267E+02  1.338033E+03  1.954340E+05 -7.072938E+02  3.036951E+04
       278   6 -2.900740E+04  8.748695E+02  2.007195E+03  2.457886E+05 -1.395133E+03  4.781333E+04
       278   7  1.546593E+05  4.507404E+04  3.883877E+04  2.460151E+05  2.523354E+04  1.058313E+04
       278   8  4.728803E+05  1.212467E+05  1.030323E+05  1.960693E+05  2.166905E+04  3.040691E+04
       278   9  7.916483E+05  1.984752E+05  1.697247E+05  2.468281E+05  1.811533E+04  4.784098E+04
       278  10 -2.124408E+05 -4.341279E+04 -3.648000E+04  2.455630E+05  7.423187E-09 -2.114280E-09
       278  11 -5.305029E+05 -1.201198E+05 -1.003701E+05  1.947997E+05 -8.137696E-09 -3.589499E-09
       278  12 -8.490238E+05 -1.967701E+05 -1.657496E+05  2.447510E+05 -1.826261E-08 -3.293398E-09
       278  13 -2.890710E+04  8.315389E+02  1.179580E+03  2.457889E+05  8.118843E-10  4.042265E-10
       278  14 -2.893147E+04  5.707361E+02  1.336299E+03  1.954341E+05 -4.584482E-10 -3.069216E-09
       278  15 -2.900801E+04  8.724140E+02  2.002895E+03  2.457887E+05 -2.105951E-10 -3.959057E-09
       278  16  1.546586E+05  4.507375E+04  3.883737E+04  2.460148E+05 -7.062520E-09 -1.063423E-09
       278  17  4.728796E+05  1.212456E+05  1.030296E+05  1.960688E+05  6.326024E-09  3.158466E-09
       278  18  7.916473E+05  1.984727E+05  1.697198E+05  2.468274E+05  1.830627E-08  1.446194E-09
       278  19 -2.124401E+05 -4.341250E+04 -3.647860E+04  2.455628E+05  2.524000E+04 -1.048636E+04
       278  20 -5.305021E+05 -1.201187E+05 -1.003674E+05  1.947992E+05  2.306591E+04 -3.033213E+04
       278  21 -8.490227E+05 -1.967675E+05 -1.657445E+05  2.447502E+05  2.088030E+04 -4.778573E+04
       278  22 -2.890707E+04  8.316581E+02  1.179789E+03  2.457889E+05  6.890643E+00 -1.053474E+04
       278  23 -2.893123E+04  5.717267E+02  1.338033E+03  1.954340E+05  7.072938E+02 -3.036951E+04
       278  24 -2.900740E+04  8.748695E+02  2.007195E+03  2.457886E+05  1.395133E+03 -4.781333E+04
       278  25  1.546593E+05  4.507404E+04  3.883877E+04  2.460151E+05 -2.523354E+04 -1.058313E+04
       278  26  4.728803E+05  1.212467E+05  1.030323E+05  1.960693E+05 -2.166905E+04 -3.040691E+04
       278  27  7.916483E+05  1.984752E+05  1.697247E+05  2.468281E+05 -1.811533E+04 -4.784098E+04
       279   1 -1.078658E+06 -2.527730E+05 -2.119936E+05  2.450612E+05 -3.195262E+04  6.165296E+04
       279   2 -1.393519E+06 -3.304743E+05 -2.870314E+05  1.933934E+05  2.046526E+04  6.415871E+04
       279   3 -1.715671E+06 -4.111721E+05 -3.969555E+05  2.400333E+05  7.287843E+04  2.113620E+04
       279   4 -2.861821E+04  2.698520E+02  2.484478E+03  2.452539E+05 -1.773000E+03  6.169102E+04
       279   5 -2.980261E+04  7.322362E+02  4.084121E+03  1.961024E+05 -3.884703E+03  6.412025E+04
       279   6 -2.888748E+04  7.682225E+03  8.709996E+03  2.452460E+05 -5.973420E+03  2.106684E+04
       279   7  1.022472E+06  2.532441E+05  2.169078E+05  2.454463E+05  2.845680E+04  6.172907E+04
       279   8  1.335669E+06  3.318178E+05  2.950944E+05  1.988166E+05 -2.828746E+04  6.408163E+04
       279   9  1.660518E+06  4.263326E+05  4.141964E+05  2.504719E+05 -8.503912E+04  2.099628E+04
       279  10 -1.078660E+06 -2.527773E+05 -2.120027E+05  2.450628E+05  1.976450E-08 -4.914309E-09
       279  11 -1.393521E+06 -3.304789E+05 -2.870399E+05  1.933924E+05  7.706183E-09 -1.637519E-09
       279  12 -1.715677E+06 -4.111740E+05 -3.969663E+05  2.400320E+05 -4.253735E-09 -1.225880E-09
       279  13 -2.861923E+04  2.657644E+02  2.477320E+03  2.452540E+05  4.486187E-11 -1.725054E-09
       279  14 -2.980373E+04  7.278172E+02  4.076366E+03  1.961026E+05 -1.208053E-10 -4.550135E-09
       279  15 -2.888763E+04  7.681739E+03  8.709095E+03  2.452461E+05  1.667945E-10 -6.913276E-10
       279  16  1.022471E+06  2.532398E+05  2.168991E+05  2.454449E+05 -1.955173E-08 -1.207315E-09
       279  17  1.335667E+06  3.318132E+05  2.950852E+05  1.988181E+05 -8.550546E-09  2.396922E-09
       279  18  1.660511E+06  4.263302E+05  4.141820E+05  2.504734E+05  3.571303E-09  1.754663E-09
       279  19 -1.078658E+06 -2.527730E+05 -2.119936E+05  2.450612E+05  3.195262E+04 -6.165296E+04
       279  20 -1.393519E+06 -3.304743E+05 -2.870314E+05  1.933934E+05 -2.046526E+04 -6.415871E+04
       279  21 -1.715671E+06 -4.111721E+05 -3.969555E+05  2.400333E+05 -7.287843E+04 -2.113620E+04
       279  22 -2.861821E+04  2.698520E+02  2.484478E+03  2.452539E+05  1.773000E+03 -6.169102E+04
       279  23 -2.980261E+04  7.322362E+02  4.084121E+03  1.961024E+05  3.884703E+03 -6.412025E+04
       279  24 -2.888748E+04  7.682225E+03  8.709996E+03  2.452460E+05  5.973420E+03 -2.106684E+04
       279  25  1.022472E+06  2.532441E+05  2.169078E+05  2.454463E+05 -2.845680E+04 -6.172907E+04
       279  26  1.335669E+06  3.318178E+05  2.950944E+05  1.988166E+05  2.828746E+04 -6.408163E+04
       279  27  1.660518E+06  4.263326E+05  4.141964E+05  2.504719E+05  8.503912E+04 -2.099628E+04
       280   1 -4.537085E+05 -1.903932E+06 -4.404501E+05  4.273985E+05 -2.001797E+04 -7.304630E+04
       280   2 -3.094192E+05 -1.342803E+06 -2.722011E+05  3.413898E+05 -5.566898E+04 -1.301156E+04
       280   3 -1.735545E+05 -7.909167E+05 -1.451928E+05  4.288080E+05 -4.010132E+04  4.708898E+04
       280   4  2.030485E+03 -7.065924E+04  2.783257E+03  4.290804E+05 -1.998964E+04  3.381703E+02
       280   5  1.035862E+02 -7.100672E+04  2.531714E+03  3.423784E+05 -5.565338E+04 -9.332340E+02
       280   6  4.398047E+02 -7.021843E+04  3.705268E+03  4.290808E+05 -4.014609E+04 -2.194311E+03
       280   7  4.575263E+05  1.765704E+06  4.457957E+05  4.307661E+05 -1.996101E+04  7.393912E+04
       280   8  3.095198E+05  1.202311E+06  2.771694E+05  3.433684E+05 -5.563776E+04  1.116954E+04
       280   9  1.744026E+05  6.509780E+05  1.525844E+05  4.293538E+05 -4.019085E+04 -5.153387E+04
       280  10 -4.537104E+05 -1.903938E+06 -4.404609E+05  4.273973E+05  1.638608E-11  1.029651E-09
       280  11 -3.094226E+05 -1.342804E+06 -2.722072E+05  3.413892E+05 -2.982913E-10  1.557534E-09
       280  12 -1.735568E+05 -7.909195E+05 -1.452000E+05  4.288095E+05 -3.604964E-10  1.426905E-09
       280  13  2.030056E+03 -7.065935E+04  2.782506E+03  4.290804E+05 -1.569421E-11  8.901251E-10
       280  14  1.002602E+02 -7.100755E+04  2.525892E+03  3.423783E+05 -1.549305E-10  5.115060E-10
       280  15  4.380729E+02 -7.021887E+04  3.702231E+03  4.290808E+05  7.359805E-10 -7.295408E-10
       280  16  4.575244E+05  1.765698E+06  4.457847E+05  4.307672E+05 -1.153255E-10 -4.907531E-10
       280  17  3.095164E+05  1.202310E+06  2.771634E+05  3.433689E+05 -6.145245E-10 -2.775906E-09
       280  18  1.744001E+05  6.509747E+05  1.525764E+05  4.293521E+05  1.025591E-09 -1.397805E-09
       280  19 -4.537085E+05 -1.903932E+06 -4.404501E+05  4.273985E+05  2.001797E+04  7.304630E+04
       280  20 -3.094192E+05 -1.342803E+06 -2.722011E+05  3.413898E+05  5.566898E+04  1.301156E+04
       280  21 -1.735545E+05 -7.909167E+05 -1.451928E+05  4.288080E+05  4.010132E+04 -4.708898E+04
       280  22  2.030485E+03 -7.065924E+04  2.783257E+03  4.290804E+05  1.998964E+04 -3.381703E+02
       280  23  1.035862E+02 -7.100672E+04  2.531714E+03  3.423784E+05  5.565338E+04  9.332340E+02
       280  24  4.398047E+02 -7.021843E+04  3.705268E+03  4.290808E+05  4.014609E+04  2.194311E+03
       280  25  4.575263E+05  1.765704E+06  4.457957E+05  4.307661E+05  1.996101E+04 -7.393912E+04
       280  26  3.095198E+05  1.202311E+06  2.771694E+05  3.433684E+05  5.563776E+04 -1.116954E+04
       280  27  1.744026E+05  6.509780E+05  1.525844E+05  4.293538E+05  4.019085E+04  5.153387E+04
       281   1 -7.668351E+04 -3.894671E+05 -6.213714E+04  4.290019E+05 -1.673546E+04  3.504885E+04
       281   2  5.749679E+04  1.664708E+05  5.544070E+04  3.418873E+05  1.460402E+04  3.047905E+04
       281   3  1.938788E+05  7.237949E+05  1.764875E+05  4.307188E+05  4.527902E+04  2.591313E+04
       281   4  5.424489E+02 -7.017196E+04  4.602704E+03  4.296465E+05 -1.677504E+04 -2.955760E+03
       281   5  4.871852E+02 -7.069156E+04  7.539975E+03  3.416707E+05  1.456991E+04 -6.741935E+03
       281   6  2.515647E+03 -7.025459E+04  1.341014E+04  4.296444E+05  4.524932E+04 -1.052027E+04
       281   7  7.776266E+04  2.492228E+05  7.134233E+04  4.302915E+05 -1.681469E+04 -4.097960E+04
       281   8 -5.652516E+04 -3.077974E+05 -4.035845E+04  3.414541E+05  1.453582E+04 -4.394898E+04
       281   9 -1.888864E+05 -8.637031E+05 -1.496959E+05  4.285712E+05  4.521973E+04 -4.690795E+04
       281  10 -7.668414E+04 -3.894685E+05 -6.213998E+04  4.290023E+05 -9.960791E-11 -1.888583E-09
       281  11  5.749631E+04  1.664697E+05  5.543856E+04  3.418869E+05 -1.126678E-10  1.519674E-09
       281  12  1.938764E+05  7.237937E+05  1.764824E+05  4.307178E+05  6.364966E-10  1.039617E-09
       281  13  5.421445E+02 -7.017204E+04  4.602159E+03  4.296465E+05 -5.055716E-11 -1.229946E-09
       281  14  4.869449E+02 -7.069167E+04  7.539491E+03  3.416708E+05  9.912882E-11  1.977033E-11
       281  15  2.513418E+03 -7.025526E+04  1.340608E+04  4.296448E+05 -6.695466E-10 -2.611349E-10
       281  16  7.776191E+04  2.492209E+05  7.133865E+04  4.302909E+05  6.178533E-10  7.632591E-10
       281  17 -5.652591E+04 -3.077995E+05 -4.036248E+04  3.414547E+05 -6.553062E-10  2.360973E-10
       281  18 -1.888892E+05 -8.637060E+05 -1.497039E+05  4.285729E+05 -8.523375E-11  4.750150E-10
       281  19 -7.668351E+04 -3.894671E+05 -6.213714E+04  4.290019E+05  1.673546E+04 -3.504885E+04
       281  20  5.749679E+04  1.664708E+05  5.544070E+04  3.418873E+05 -1.460402E+04 -3.047905E+04
       281  21  1.938788E+05  7.237949E+05  1.764875E+05  4.307188E+05 -4.527902E+04 -2.591313E+04
       281  22  5.424489E+02 -7.017196E+04  4.602704E+03  4.296465E+05  1.677504E+04  2.955760E+03
       281  23  4.871852E+02 -7.069156E+04  7.539975E+03  3.416707E+05 -1.456991E+04  6.741935E+03
       281  24  2.515647E+03 -7.025459E+04  1.341014E+04  4.296444E+05 -4.524932E+04  1.052027E+04
       281  25  7.776266E+04  2.492228E+05  7.134233E+04  4.302915E+05  1.681469E+04  4.097960E+04
       281  26 -5.652516E+04 -3.077974E+05 -4.035845E+04  3.414541E+05 -1.453582E+04  4.394898E+04
       281  27 -1.888864E+05 -8.637031E+05 -1.496959E+05  4.285712E+05 -4.521973E+04  4.690795E+04
       282   1  2.867824E+05  1.128851E+06  2.621193E+05  4.228099E+05  6.905109E+04  3.783945E+04
       282   2  4.284680E+05  1.672805E+06  4.040337E+05  3.544781E+05  7.965556E+04 -5.364989E+04
       282   3  6.272926E+05  2.244009E+06  6.198306E+05  4.588900E+05  2.715763E+04 -1.452632E+05
       282   4 -1.329220E+03 -6.754899E+04  1.713670E+04  4.289335E+05  6.902186E+04 -1.289065E+04
       282   5  4.438372E+03 -7.478786E+04  2.980733E+04  3.425539E+05  7.968030E+04 -2.845226E+04
       282   6  5.428529E+04 -6.815068E+04  6.375909E+04  4.289302E+05  2.716133E+04 -4.405365E+04
       282   7 -2.895291E+05 -1.262586E+06 -2.279122E+05  4.350444E+05  6.899157E+04 -6.352486E+04
       282   8 -4.197901E+05 -1.819510E+06 -3.445942E+05  3.306627E+05  7.970413E+04 -3.324322E+03
       282   9 -5.191022E+05 -2.375405E+06 -4.926542E+05  3.990806E+05  2.715539E+04  5.678166E+04
       282  10  2.867769E+05  1.128849E+06  2.621076E+05  4.228078E+05 -2.945747E-10 -9.033492E-10
       282  11  4.284604E+05  1.672800E+06  4.040164E+05  3.544815E+05 -1.024715E-09  1.540114E-10
       282  12  6.272862E+05  2.243987E+06  6.197897E+05  4.588932E+05  3.801985E-11 -2.995118E-10
       282  13 -1.334382E+03 -6.755044E+04  1.712743E+04  4.289342E+05  2.482115E-10 -6.681669E-10
       282  14  4.431336E+03 -7.479043E+04  2.979387E+04  3.425557E+05 -6.032419E-10  5.529737E-10
       282  15  5.428397E+04 -6.815296E+04  6.375405E+04  4.289312E+05 -4.509008E-10  3.506802E-10
       282  16 -2.895353E+05 -1.262591E+06 -2.279288E+05  4.350480E+05 -2.633337E-11  2.140658E-09
       282  17 -4.197969E+05 -1.819512E+06 -3.446062E+05  3.306629E+05 -3.978475E-10  7.355649E-10
       282  18 -5.191039E+05 -2.375409E+06 -4.926617E+05  3.990794E+05 -2.378499E-10 -2.684150E-10
       282  19  2.867824E+05  1.128851E+06  2.621193E+05  4.228099E+05 -6.905109E+04 -3.783945E+04
       282  20  4.284680E+05  1.672805E+06  4.040337E+05  3.544781E+05 -7.965556E+04  5.364989E+04
       282  21  6.272926E+05  2.244009E+06  6.198306E+05  4.588900E+05 -2.715763E+04  1.452632E+05
       282  22 -1.329220E+03 -6.754899E+04  1.713670E+04  4.289335E+05 -6.902186E+04  1.289065E+04
       282  23  4.438372E+03 -7.478786E+04  2.980733E+04  3.425539E+05 -7.968030E+04  2.845226E+04
       282  24  5.428529E+04 -6.815068E+04  6.375909E+04  4.289302E+05 -2.716133E+04  4.405365E+04
       282  25 -2.895291E+05 -1.262586E+06 -2.279122E+05  4.350444E+05 -6.899157E+04  6.352486E+04
       282  26 -4.197901E+05 -1.819510E+06 -3.445942E+05  3.306627E+05 -7.970413E+04  3.324322E+03
       282  27 -5.191022E+05 -2.375405E+06 -4.926542E+05  3.990806E+05 -2.715539E+04 -5.678166E+04
       283   1  7.261505E+05  1.935934E+05  1.897444E+05  1.346920E+05  4.142172E+04 -8.781769E+03
       283   2  5.558569E+05  1.388120E+05  1.273908E+05  1.052175E+05  1.419728E+04 -2.609132E+04
       283   3  3.923497E+05  9.688665E+04  8.596386E+04  1.274043E+05 -1.302752E+04 -2.332000E+04
       283   4 -1.042570E+04  1.089759E+04  1.255702E+04  1.284422E+05  8.588096E+03 -8.801829E+03
       283   5 -1.168538E+04  1.047475E+03  5.943164E+03  1.026143E+05  5.489095E+03 -2.609927E+04
       283   6 -1.036703E+04 -1.247735E+02  3.518261E+03  1.284492E+05  2.381784E+03 -2.330786E+04
       283   7 -7.465034E+05 -1.718370E+05 -1.646650E+05  1.221997E+05 -2.420676E+04 -8.821243E+03
       283   8 -5.789246E+05 -1.367380E+05 -1.155229E+05  1.000133E+05 -3.211248E+03 -2.610715E+04
       283   9 -4.129292E+05 -9.714624E+04 -7.893505E+04  1.294934E+05  1.778128E+04 -2.329567E+04
       283  10  7.261487E+05  1.935928E+05  1.897411E+05  1.346923E+05  7.645802E-10 -6.170633E-10
       283  11  5.558565E+05  1.388112E+05  1.273892E+05  1.052178E+05  6.515522E-10  1.475585E-09
       283  12  3.923494E+05  9.688602E+04  8.596252E+04  1.274041E+05 -4.066194E-10 -9.533065E-10
       283  13 -1.042580E+04  1.089748E+04  1.255674E+04  1.284422E+05  4.520184E-10  1.252782E-09
       283  14 -1.168560E+04  1.046735E+03  5.941827E+03  1.026144E+05 -1.346729E-09  5.346746E-11
       283  15 -1.036718E+04 -1.253584E+02  3.517229E+03  1.284493E+05 -8.793093E-10 -3.679313E-10
       283  16 -7.465040E+05 -1.718372E+05 -1.646662E+05  1.221995E+05 -1.271202E-09 -2.199635E-10
       283  17 -5.789248E+05 -1.367387E+05 -1.155242E+05  1.000133E+05 -1.275215E-09 -4.038023E-10
       283  18 -4.129297E+05 -9.714691E+04 -7.893667E+04  1.294938E+05 -1.737198E-10 -3.026056E-09
       283  19  7.261505E+05  1.935934E+05  1.897444E+05  1.346920E+05 -4.142172E+04  8.781769E+03
       283  20  5.558569E+05  1.388120E+05  1.273908E+05  1.052175E+05 -1.419728E+04  2.609132E+04
       283  21  3.923497E+05  9.688665E+04  8.596386E+04  1.274043E+05  1.302752E+04  2.332000E+04
       283  22 -1.042570E+04  1.089759E+04  1.255702E+04  1.284422E+05 -8.588096E+03  8.801829E+03
       283  23 -1.168538E+04  1.047475E+03  5.943164E+03  1.026143E+05 -5.489095E+03  2.609927E+04
       283  24 -1.036703E+04 -1.247735E+02  3.518261E+03  1.284492E+05 -2.381784E+03  2.330786E+04
       283  25 -7.465034E+05 -1.718370E+05 -1.646650E+05  1.221997E+05  2.420676E+04  8.821243E+03
       283  26 -5.789246E+05 -1.367380E+05 -1.155229E+05  1.000133E+05  3.211248E+03  2.610715E+04
       283  27 -4.129292E+05 -9.714624E+04 -7.893505E+04  1.294934E+05 -1.778128E+04  2.329567E+04
       284   1  2.713841E+05  6.864296E+04  6.076610E+04  1.290142E+05 -8.799498E+03 -1.618483E+04
       284   2  1.045022E+05  2.798044E+04  2.545003E+04  1.024385E+05 -1.097691E+04 -6.769613E+03
       284   3 -6.198954E+04 -1.199523E+04 -8.302501E+03  1.285958E+05 -1.315561E+04  3.679494E+03
       284   4 -1.088934E+04  6.129172E+02  2.846904E+03  1.286857E+05  1.883138E+03 -1.617561E+04
       284   5 -1.095879E+04  1.728438E+02  1.867074E+03  1.023191E+05  9.457253E+02 -6.758674E+03
       284   6 -1.087726E+04  2.066251E+02  1.591217E+03  1.286861E+05  6.483138E+00  3.692320E+03
       284   7 -2.930869E+05 -6.742207E+04 -5.507611E+04  1.283573E+05  1.256101E+04 -1.616639E+04
       284   8 -1.264068E+05 -2.763551E+04 -2.171605E+04  1.021997E+05  1.286619E+04 -6.747738E+03
       284   9  4.023789E+04  1.240842E+04  1.148546E+04  1.287763E+05  1.316964E+04  3.705148E+03
       284  10  2.713839E+05  6.864266E+04  6.076546E+04  1.290141E+05 -4.705172E-09  4.769774E-11
       284  11  1.045020E+05  2.798036E+04  2.544972E+04  1.024384E+05 -1.120823E-09  8.266912E-10
       284  12 -6.198973E+04 -1.199530E+04 -8.302852E+03  1.285958E+05  2.138558E-09  8.787869E-10
       284  13 -1.088941E+04  6.126353E+02  2.846406E+03  1.286857E+05 -1.628104E-10 -4.888295E-10
       284  14 -1.095880E+04  1.727945E+02  1.866986E+03  1.023191E+05 -3.914648E-10 -6.709055E-10
       284  15 -1.087727E+04  2.066104E+02  1.591191E+03  1.286861E+05  1.094429E-09 -3.075016E-10
       284  16 -2.930871E+05 -6.742240E+04 -5.507690E+04  1.283575E+05  4.255951E-09 -8.223950E-10
       284  17 -1.264070E+05 -2.763560E+04 -2.171645E+04  1.021997E+05  1.751349E-09  7.429267E-10
       284  18  4.023770E+04  1.240836E+04  1.148511E+04  1.287763E+05 -2.238407E-09  5.022864E-10
       284  19  2.713841E+05  6.864296E+04  6.076610E+04  1.290142E+05  8.799498E+03  1.618483E+04
       284  20  1.045022E+05  2.798044E+04  2.545003E+04  1.024385E+05  1.097691E+04  6.769613E+03
       284  21 -6.198954E+04 -1.199523E+04 -8.302501E+03  1.285958E+05  1.315561E+04 -3.679494E+03
       284  22 -1.088934E+04  6.129172E+02  2.846904E+03  1.286857E+05 -1.883138E+03  1.617561E+04
       284  23 -1.095879E+04  1.728438E+02  1.867074E+03  1.023191E+05 -9.457253E+02  6.758674E+03
       284  24 -1.087726E+04  2.066251E+02  1.591217E+03  1.286861E+05 -6.483138E+00 -3.692320E+03
       284  25 -2.930869E+05 -6.742207E+04 -5.507611E+04  1.283573E+05 -1.256101E+04  1.616639E+04
       284  26 -1.264068E+05 -2.763551E+04 -2.171605E+04  1.021997E+05 -1.286619E+04  6.747738E+03
       284  27  4.023789E+04  1.240842E+04  1.148546E+04  1.287763E+05 -1.316964E+04 -3.705148E+03
       285   1 -1.817716E+05 -4.094274E+04 -3.312838E+04  1.286493E+05 -1.351973E+04  1.018260E+04
       285   2 -3.483924E+05 -8.101548E+04 -6.620937E+04  1.020823E+05 -1.294271E+04  2.053422E+04
       285   3 -5.150540E+05 -1.208209E+05 -9.961843E+04  1.282337E+05 -1.236166E+04  2.952335E+04
       285   4 -1.086825E+04  1.948995E+02  1.636737E+03  1.286823E+05 -2.856521E+02  1.019509E+04
       285   5 -1.099412E+04  1.424331E+02  2.107136E+03  1.023238E+05 -1.344858E+03  2.054322E+04
       285   6 -1.090357E+04  6.426926E+02  3.386032E+03  1.286819E+05 -2.399891E+03  2.952932E+04
       285   7  1.600632E+05  4.133081E+04  3.640098E+04  1.287152E+05  1.295200E+04  1.020757E+04
       285   8  3.265129E+05  8.129334E+04  7.041825E+04  1.025654E+05  1.025918E+04  2.055223E+04
       285   9  4.934888E+05  1.220904E+05  1.063774E+05  1.291303E+05  7.569831E+03  2.953529E+04
       285  10 -1.817718E+05 -4.094290E+04 -3.312892E+04  1.286494E+05 -2.842146E-10 -9.495856E-10
       285  11 -3.483927E+05 -8.101598E+04 -6.621048E+04  1.020826E+05  3.500604E-10  3.354216E-09
       285  12 -5.150544E+05 -1.208219E+05 -9.962036E+04  1.282340E+05  2.399629E-09 -2.698675E-09
       285  13 -1.086828E+04  1.947878E+02  1.636541E+03  1.286823E+05  2.029249E-09 -3.148745E-09
       285  14 -1.099423E+04  1.419794E+02  2.106339E+03  1.023238E+05 -9.500779E-11  5.377644E-10
       285  15 -1.090381E+04  6.417547E+02  3.384383E+03  1.286819E+05  5.166781E-10 -6.190190E-10
       285  16  1.600630E+05  4.133065E+04  3.640047E+04  1.287151E+05  1.022807E-09 -2.318112E-09
       285  17  3.265126E+05  8.129286E+04  7.041725E+04  1.025652E+05 -1.394522E-09  2.864237E-10
       285  18  4.934885E+05  1.220895E+05  1.063757E+05  1.291301E+05 -2.146390E-09  7.104171E-11
       285  19 -1.817716E+05 -4.094274E+04 -3.312838E+04  1.286493E+05  1.351973E+04 -1.018260E+04
       285  20 -3.483924E+05 -8.101548E+04 -6.620937E+04  1.020823E+05  1.294271E+04 -2.053422E+04
       285  21 -5.150540E+05 -1.208209E+05 -9.961843E+04  1.282337E+05  1.236166E+04 -2.952335E+04
       285  22 -1.086825E+04  1.948995E+02  1.636737E+03  1.286823E+05  2.856521E+02 -1.019509E+04
       285  23 -1.099412E+04  1.424331E+02  2.107136E+03  1.023238E+05  1.344858E+03 -2.054322E+04
       285  24 -1.090357E+04  6.426926E+02  3.386032E+03  1.286819E+05  2.399891E+03 -2.952932E+04
       285  25  1.600632E+05  4.133081E+04  3.640098E+04  1.287152E+05 -1.295200E+04 -1.020757E+04
       285  26  3.265129E+05  8.129334E+04  7.041825E+04  1.025654E+05 -1.025918E+04 -2.055223E+04
       285  27  4.934888E+05  1.220904E+05  1.063774E+05  1.291303E+05 -7.569831E+03 -2.953529E+04
       286   1 -6.349334E+05 -1.507366E+05 -1.231898E+05  1.296667E+05 -1.900290E+04  3.685284E+04
       286   2 -8.007061E+05 -1.902889E+05 -1.608618E+05  9.959691E+04  8.043024E+03  3.737029E+04
       286   3 -9.685608E+05 -2.245605E+05 -2.148161E+05  1.208888E+05  3.508423E+04  1.217275E+04
       286   4 -1.025894E+04 -2.698997E+02  4.236463E+03  1.283810E+05 -2.992454E+03  3.686123E+04
       286   5 -1.192148E+04  1.168768E+03  7.238195E+03  1.026995E+05 -6.773011E+03  3.735960E+04
       286   6 -1.034032E+04  1.323932E+04  1.537569E+04  1.283752E+05 -1.055042E+04  1.215811E+04
       286   7  6.147873E+05  1.501726E+05  1.316432E+05  1.270939E+05  1.303381E+04  3.686956E+04
       286   8  7.774501E+05  1.925861E+05  1.753032E+05  1.058060E+05 -2.160761E+04  3.734876E+04
       286   9  9.487262E+05  2.509736E+05  2.455101E+05  1.358730E+05 -5.625530E+04  1.214239E+04
       286  10 -6.349342E+05 -1.507382E+05 -1.231931E+05  1.296673E+05 -1.154311E-09 -1.573889E-09
       286  11 -8.007065E+05 -1.902904E+05 -1.608646E+05  9.959666E+04 -6.247712E-10 -7.712109E-10
       286  12 -9.685622E+05 -2.245609E+05 -2.148187E+05  1.208884E+05 -3.690705E-10 -3.406737E-10
       286  13 -1.025931E+04 -2.713612E+02  4.233893E+03  1.283811E+05  2.560664E-10 -1.033898E-09
       286  14 -1.192191E+04  1.167257E+03  7.235486E+03  1.026997E+05 -9.609947E-10 -1.849239E-09
       286  15 -1.034048E+04  1.323913E+04  1.537520E+04  1.283753E+05  7.533314E-10 -5.140370E-10
       286  16  6.147868E+05  1.501711E+05  1.316403E+05  1.270935E+05  7.003463E-10 -3.841384E-10
       286  17  7.774492E+05  1.925844E+05  1.752997E+05  1.058066E+05  4.557017E-10  1.870366E-09
       286  18  9.487228E+05  2.509726E+05  2.455038E+05  1.358736E+05 -4.185802E-10  7.659587E-10
       286  19 -6.349334E+05 -1.507366E+05 -1.231898E+05  1.296667E+05  1.900290E+04 -3.685284E+04
       286  20 -8.007061E+05 -1.902889E+05 -1.608618E+05  9.959691E+04 -8.043024E+03 -3.737029E+04
       286  21 -9.685608E+05 -2.245605E+05 -2.148161E+05  1.208888E+05 -3.508423E+04 -1.217275E+04
       286  22 -1.025894E+04 -2.698997E+02  4.236463E+03  1.283810E+05  2.992454E+03 -3.686123E+04
       286  23 -1.192148E+04  1.168768E+03  7.238195E+03  1.026995E+05  6.773011E+03 -3.735960E+04
       286  24 -1.034032E+04  1.323932E+04  1.537569E+04  1.283752E+05  1.055042E+04 -1.215811E+04
       286  25  6.147873E+05  1.501726E+05  1.316432E+05  1.270939E+05 -1.303381E+04 -3.686956E+04
       286  26  7.774501E+05  1.925861E+05  1.753032E+05  1.058060E+05  2.160761E+04 -3.734876E+04
       286  27  9.487262E+05  2.509736E+05  2.455101E+05  1.358730E+05  5.625530E+04 -1.214239E+04
       287   1 -2.784098E+05 -1.190623E+06 -2.706342E+05  2.611634E+05 -1.223170E+04 -4.538186E+04
       287   2 -1.892940E+05 -8.485253E+05 -1.675687E+05  2.083339E+05 -3.405912E+04 -8.118177E+03
       287   3 -1.065445E+05 -5.126145E+05 -9.037389E+04  2.611073E+05 -2.462524E+04  2.917090E+04
       287   4 -1.126812E+02 -7.064135E+04  2.021611E+01  2.613012E+05 -1.222165E+04 -4.827092E+02
       287   5 -4.391019E+01 -7.066774E+04  3.958859E+02  2.085037E+05 -3.405335E+04 -6.721623E+02
       287   6  1.778986E+02 -7.047718E+04  9.454827E+02  2.613011E+05 -2.464149E+04 -8.573865E+02
       287   7  2.780937E+05  1.050492E+06  2.705922E+05  2.614390E+05 -1.221160E+04  4.449728E+04
       287   8  1.891663E+05  7.077588E+05  1.683250E+05  2.086737E+05 -3.404759E+04  6.783064E+03
       287   9  1.068884E+05  3.718476E+05  9.225768E+04  2.614950E+05 -2.465776E+04 -3.090670E+04
       287  10 -2.784105E+05 -1.190625E+06 -2.706384E+05  2.611629E+05  2.215277E-10 -6.094645E-10
       287  11 -1.892953E+05 -8.485257E+05 -1.675711E+05  2.083336E+05  9.286396E-10  1.346938E-09
       287  12 -1.065454E+05 -5.126156E+05 -9.037663E+04  2.611078E+05  5.637138E-10  1.413721E-09
       287  13 -1.128416E+02 -7.064140E+04  1.993500E+01  2.613012E+05  4.082206E-10 -1.061975E-09
       287  14 -4.515550E+01 -7.066805E+04  3.937060E+02  2.085037E+05  3.676095E-10 -7.147392E-10
       287  15  1.772464E+02 -7.047735E+04  9.443404E+02  2.613011E+05  1.320204E-09  4.630353E-10
       287  16  2.780930E+05  1.050490E+06  2.705883E+05  2.614394E+05  1.020661E-10 -1.910755E-10
       287  17  1.891651E+05  7.077584E+05  1.683227E+05  2.086739E+05 -7.780553E-10 -7.043431E-10
       287  18  1.068875E+05  3.718464E+05  9.225474E+04  2.614944E+05  1.362864E-09 -2.345653E-09
       287  19 -2.784098E+05 -1.190623E+06 -2.706342E+05  2.611634E+05  1.223170E+04  4.538186E+04
       287  20 -1.892940E+05 -8.485253E+05 -1.675687E+05  2.083339E+05  3.405912E+04  8.118177E+03
       287  21 -1.065445E+05 -5.126145E+05 -9.037389E+04  2.611073E+05  2.462524E+04 -2.917090E+04
       287  22 -1.126812E+02 -7.064135E+04  2.021611E+01  2.613012E+05  1.222165E+04  4.827092E+02
       287  23 -4.391019E+01 -7.066774E+04  3.958859E+02  2.085037E+05  3.405335E+04  6.721623E+02
       287  24  1.778986E+02 -7.047718E+04  9.454827E+02  2.613011E+05  2.464149E+04  8.573865E+02
       287  25  2.780937E+05  1.050492E+06  2.705922E+05  2.614390E+05  1.221160E+04 -4.449728E+04
       287  26  1.891663E+05  7.077588E+05  1.683250E+05  2.086737E+05  3.404759E+04 -6.783064E+03
       287  27  1.068884E+05  3.718476E+05  9.225768E+04  2.614950E+05  2.465776E+04  3.090670E+04
       288   1 -4.762672E+04 -2.680707E+05 -4.001300E+04  2.614454E+05 -1.039134E+04  2.206570E+04
       288   2  3.412412E+04  7.064679E+04  3.080831E+04  2.081454E+05  8.692365E+03  2.044989E+04
       288   3  1.165829E+05  4.098438E+05  1.028386E+05  2.619941E+05  2.738066E+04  1.883607E+04
       288   4  1.679190E+02 -7.042892E+04  1.277280E+03  2.616467E+05 -1.040577E+04 -1.069733E+03
       288   5  1.719222E+02 -7.058825E+04  2.281157E+03  2.080715E+05  8.679927E+03 -2.216448E+03
       288   6  8.088766E+02 -7.045891E+04  4.170744E+03  2.616463E+05  2.736982E+04 -3.360321E+03
       288   7  4.796035E+04  1.272510E+05  4.256741E+04  2.618482E+05 -1.042021E+04 -2.421242E+04
       288   8 -3.378123E+04 -2.118032E+05 -2.624509E+04  2.079976E+05  8.667492E+03 -2.487773E+04
       288   9 -1.149794E+05 -5.505416E+05 -9.450757E+04  2.612988E+05  2.735900E+04 -2.553986E+04
       288  10 -4.762696E+04 -2.680713E+05 -4.001412E+04  2.614456E+05  7.889640E-10  2.645983E-10
       288  11  3.412392E+04  7.064632E+04  3.080738E+04  2.081453E+05  3.819857E-10 -6.272658E-10
       288  12  1.165820E+05  4.098432E+05  1.028365E+05  2.619937E+05 -3.738757E-10  7.925550E-10
       288  13  1.678024E+02 -7.042895E+04  1.277074E+03  2.616467E+05  1.420722E-09  1.071855E-09
       288  14  1.718400E+02 -7.058827E+04  2.281006E+03  2.080715E+05 -2.477591E-10 -4.167949E-09
       288  15  8.080692E+02 -7.045912E+04  4.169315E+03  2.616464E+05 -1.059631E-09 -4.378144E-10
       288  16  4.796007E+04  1.272503E+05  4.256610E+04  2.618480E+05  1.426354E-09  7.490984E-10
       288  17 -3.378148E+04 -2.118039E+05 -2.624640E+04  2.079978E+05 -9.763535E-11 -2.293475E-10
       288  18 -1.149804E+05 -5.505425E+05 -9.451020E+04  2.612993E+05 -4.664165E-10 -2.180862E-09
       288  19 -4.762672E+04 -2.680707E+05 -4.001300E+04  2.614454E+05  1.039134E+04 -2.206570E+04
       288  20  3.412412E+04  7.064679E+04  3.080831E+04  2.081454E+05 -8.692365E+03 -2.044989E+04
       288  21  1.165829E+05  4.098438E+05  1.028386E+05  2.619941E+05 -2.738066E+04 -1.883607E+04
       288  22  1.679190E+02 -7.042892E+04  1.277280E+03  2.616467E+05  1.040577E+04  1.069733E+03
       288  23  1.719222E+02 -7.058825E+04  2.281157E+03  2.080715E+05 -8.679927E+03  2.216448E+03
       288  24  8.088766E+02 -7.045891E+04  4.170744E+03  2.616463E+05 -2.736982E+04  3.360321E+03
       288  25  4.796035E+04  1.272510E+05  4.256741E+04  2.618482E+05  1.042021E+04  2.421242E+04
       288  26 -3.378123E+04 -2.118032E+05 -2.624509E+04  2.079976E+05 -8.667492E+03  2.487773E+04
       288  27 -1.149794E+05 -5.505416E+05 -9.450757E+04  2.612988E+05 -2.735900E+04  2.553986E+04
       289   1  1.742895E+05  6.556322E+05  1.539124E+05  2.593049E+05  4.185621E+04  2.677982E+04
       289   2  2.588413E+05  9.888032E+05  2.366041E+05  2.123636E+05  4.835982E+04 -2.421713E+04
       289   3  3.652648E+05  1.334478E+06  3.579825E+05  2.706114E+05  1.649186E+04 -7.525713E+04
       289   4 -4.137644E+02 -6.960214E+04  5.358860E+03  2.612119E+05  4.184554E+04 -4.101270E+03
       289   5  1.364417E+03 -7.192282E+04  9.355987E+03  2.086134E+05  4.836860E+04 -8.983735E+03
       289   6  1.704138E+04 -6.982479E+04  2.005453E+04  2.612115E+05  1.649138E+04 -1.388119E+04
       289   7 -1.751495E+05 -7.943351E+05 -1.432191E+05  2.631166E+05  4.183466E+04 -3.494697E+04
       289   8 -2.561859E+05 -1.131591E+06 -2.179568E+05  2.048696E+05  4.837721E+04  6.224043E+03
       289   9 -3.313233E+05 -1.472317E+06 -3.179998E+05  2.518324E+05  1.648906E+04  4.735668E+04
       289  10  1.742874E+05  6.556309E+05  1.539078E+05  2.593040E+05 -1.070891E-09 -1.272092E-09
       289  11  2.588386E+05  9.888019E+05  2.365986E+05  2.123646E+05 -6.526166E-10 -3.252821E-09
       289  12  3.652630E+05  1.334472E+06  3.579713E+05  2.706124E+05 -1.399358E-10  1.184726E-09
       289  13 -4.156492E+02 -6.960262E+04  5.355537E+03  2.612121E+05 -7.967980E-10 -1.035504E-11
       289  14  1.361883E+03 -7.192354E+04  9.351438E+03  2.086138E+05 -7.369766E-10  5.261558E-10
       289  15  1.704103E+04 -6.982508E+04  2.005366E+04  2.612116E+05  3.014935E-10 -1.057108E-09
       289  16 -1.751517E+05 -7.943369E+05 -1.432247E+05  2.631178E+05 -1.321025E-09 -8.547223E-10
       289  17 -2.561884E+05 -1.131592E+06 -2.179612E+05  2.048693E+05 -6.488622E-10 -6.971284E-10
       289  18 -3.313242E+05 -1.472319E+06 -3.180045E+05  2.518318E+05 -2.771754E-10 -1.534199E-09
       289  19  1.742895E+05  6.556322E+05  1.539124E+05  2.593049E+05 -4.185621E+04 -2.677982E+04
       289  20  2.588413E+05  9.888032E+05  2.366041E+05  2.123636E+05 -4.835982E+04  2.421713E+04
       289  21  3.652648E+05  1.334478E+06  3.579825E+05  2.706114E+05 -1.649186E+04  7.525713E+04
       289  22 -4.137644E+02 -6.960214E+04  5.358860E+03  2.612119E+05 -4.184554E+04  4.101270E+03
       289  23  1.364417E+03 -7.192282E+04  9.355987E+03  2.086134E+05 -4.836860E+04  8.983735E+03
       289  24  1.704138E+04 -6.982479E+04  2.005453E+04  2.612115E+05 -1.649138E+04  1.388119E+04
       289  25 -1.751495E+05 -7.943351E+05 -1.432191E+05  2.631166E+05 -4.183466E+04  3.494697E+04
       289  26 -2.561859E+05 -1.131591E+06 -2.179568E+05  2.048696E+05 -4.837721E+04 -6.224043E+03
       289  27 -3.313233E+05 -1.472317E+06 -3.179998E+05  2.518324E+05 -1.648906E+04 -4.735668E+04
       290   1 -1.009156E+05 -4.846017E+05 -9.752088E+04  1.032214E+05 -4.470789E+03 -1.344761E+04
       290   2 -6.860313E+04 -3.471688E+05 -5.924170E+04  8.317155E+04 -1.219086E+04 -3.554653E+02
       290   3 -3.577751E+04 -2.112823E+05 -2.936209E+04  1.057230E+05 -8.083774E+03  1.273923E+04
       290   4  3.728368E+03 -6.337236E+04  4.329261E+03  1.053138E+05 -4.467717E+03  2.907908E+03
       290   5  3.495374E+02 -6.380939E+04  2.091272E+03  8.401426E+04 -1.218994E+04  1.815998E+03
       290   6 -5.212503E+01 -6.334837E+04  1.308338E+03  1.053145E+05 -8.087508E+03  7.235448E+02
       290   7  1.083595E+05  3.580198E+05  1.061677E+05  1.074076E+05 -4.464535E+03  1.927449E+04
       290   8  6.929690E+04  2.196254E+05  6.341950E+04  8.485734E+04 -1.218902E+04  3.988440E+03
       290   9  3.567195E+04  8.460658E+04  3.197812E+04  1.049059E+05 -8.091225E+03 -1.129496E+04
       290  10 -1.009156E+05 -4.846019E+05 -9.752125E+04  1.032214E+05 -7.076074E-11 -7.546931E-10
       290  11 -6.860329E+04 -3.471688E+05 -5.924198E+04  8.317155E+04  3.306468E-10  1.530588E-09
       290  12 -3.577762E+04 -2.112825E+05 -2.936252E+04  1.057230E+05  1.339513E-09 -1.001870E-10
       290  13  3.728344E+03 -6.337237E+04  4.329207E+03  1.053138E+05  3.792582E-10 -3.220243E-09
       290  14  3.493769E+02 -6.380943E+04  2.090987E+03  8.401428E+04 -1.343958E-10 -1.100197E-09
       290  15 -5.219541E+01 -6.334839E+04  1.308214E+03  1.053145E+05  9.266613E-10  3.641343E-10
       290  16  1.083594E+05  3.580194E+05  1.061669E+05  1.074077E+05 -2.014014E-10  7.589628E-10
       290  17  6.929674E+04  2.196254E+05  6.341919E+04  8.485738E+04 -2.233179E-11  5.354352E-10
       290  18  3.567184E+04  8.460643E+04  3.197776E+04  1.049058E+05 -5.484714E-10 -9.486633E-10
       290  19 -1.009156E+05 -4.846017E+05 -9.752088E+04  1.032214E+05  4.470789E+03  1.344761E+04
       290  20 -6.860313E+04 -3.471688E+05 -5.924170E+04  8.317155E+04  1.219086E+04  3.554653E+02
       290  21 -3.577751E+04 -2.112823E+05 -2.936209E+04  1.057230E+05  8.083774E+03 -1.273923E+04
       290  22  3.728368E+03 -6.337236E+04  4.329261E+03  1.053138E+05  4.467717E+03 -2.907908E+03
       290  23  3.495374E+02 -6.380939E+04  2.091272E+03  8.401426E+04  1.218994E+04 -1.815998E+03
       290  24 -5.212503E+01 -6.334837E+04  1.308338E+03  1.053145E+05  8.087508E+03 -7.235448E+02
       290  25  1.083595E+05  3.580198E+05  1.061677E+05  1.074076E+05  4.464535E+03 -1.927449E+04
       290  26  6.929690E+04  2.196254E+05  6.341950E+04  8.485734E+04  1.218902E+04 -3.988440E+03
       290  27  3.567195E+04  8.460658E+04  3.197812E+04  1.049059E+05  8.091225E+03  1.129496E+04
       291   1 -1.178819E+04 -1.129213E+05 -9.383102E+03  1.053643E+05 -2.372929E+03  9.958554E+03
       291   2  2.099972E+04  2.359110E+04  1.848367E+04  8.386548E+04  5.360805E+03  9.226882E+03
       291   3  5.408211E+04  1.602802E+05  4.689547E+04  1.055494E+05  1.285054E+04  8.495780E+03
       291   4  1.921706E+02 -6.351985E+04  1.111864E+03  1.054440E+05 -2.376092E+03  5.319708E+02
       291   5  4.430258E+01 -6.357772E+04  8.769142E+02  8.385246E+04  5.358146E+03  9.216888E+01
       291   6  1.412513E+02 -6.352733E+04  9.845847E+02  1.054440E+05  1.284831E+04 -3.469074E+02
       291   7  1.217242E+04 -1.411596E+04  1.160702E+04  1.055237E+05 -2.379258E+03 -8.895352E+03
       291   8 -2.091154E+04 -1.507391E+05 -1.672992E+04  8.383944E+04  5.355488E+03 -9.041286E+03
       291   9 -5.380272E+04 -2.872872E+05 -4.492868E+04  1.053386E+05  1.284608E+04 -9.186464E+03
       291  10 -1.178822E+04 -1.129214E+05 -9.383299E+03  1.053643E+05  5.193503E-10 -4.958338E-10
       291  11  2.099967E+04  2.359100E+04  1.848346E+04  8.386544E+04 -6.037394E-11 -5.359886E-10
       291  12  5.408191E+04  1.602801E+05  4.689502E+04  1.055493E+05 -5.361050E-10  2.589771E-09
       291  13  1.921645E+02 -6.351985E+04  1.111853E+03  1.054440E+05  1.027384E-09 -5.252955E-12
       291  14  4.427175E+01 -6.357773E+04  8.768603E+02  8.385246E+04 -1.257919E-09 -1.598212E-09
       291  15  1.410740E+02 -6.352738E+04  9.842742E+02  1.054440E+05 -5.598346E-10 -1.352793E-09
       291  16  1.217239E+04 -1.411605E+04  1.160686E+04  1.055237E+05  2.218583E-10 -2.050153E-10
       291  17 -2.091160E+04 -1.507392E+05 -1.673013E+04  8.383948E+04  2.045918E-10 -9.542768E-10
       291  18 -5.380292E+04 -2.872873E+05 -4.492915E+04  1.053387E+05 -7.111801E-10  1.489075E-10
       291  19 -1.178819E+04 -1.129213E+05 -9.383102E+03  1.053643E+05  2.372929E+03 -9.958554E+03
       291  20  2.099972E+04  2.359110E+04  1.848367E+04  8.386548E+04 -5.360805E+03 -9.226882E+03
       291  21  5.408211E+04  1.602802E+05  4.689547E+04  1.055494E+05 -1.285054E+04 -8.495780E+03
       291  22  1.921706E+02 -6.351985E+04  1.111864E+03  1.054440E+05  2.376092E+03 -5.319708E+02
       291  23  4.430258E+01 -6.357772E+04  8.769142E+02  8.385246E+04 -5.358146E+03 -9.216888E+01
       291  24  1.412513E+02 -6.352733E+04  9.845847E+02  1.054440E+05 -1.284831E+04  3.469074E+02
       291  25  1.217242E+04 -1.411596E+04  1.160702E+04  1.055237E+05  2.379258E+03  8.895352E+03
       291  26 -2.091154E+04 -1.507391E+05 -1.672992E+04  8.383944E+04 -5.355488E+03  9.041286E+03
       291  27 -5.380272E+04 -2.872872E+05 -4.492868E+04  1.053386E+05 -1.284608E+04  9.186464E+03
       292   1  7.763620E+04  2.591195E+05  6.711982E+04  1.049574E+05  1.871055E+04  1.201636E+04
       292   2  1.113259E+05  3.937904E+05  9.964169E+04  8.475378E+04  2.102550E+04 -8.363523E+03
       292   3  1.507930E+05  5.326226E+05  1.468790E+05  1.068995E+05  7.102083E+03 -2.874956E+04
       292   4 -5.865229E+01 -6.339278E+04  1.116808E+03  1.052591E+05  1.870817E+04 -5.154041E+02
       292   5  2.384893E+02 -6.379409E+04  1.695936E+03  8.408353E+04  2.102750E+04 -1.397926E+03
       292   6  2.932668E+03 -6.343150E+04  3.456593E+03  1.052589E+05  7.103120E+03 -2.282277E+03
       292   7 -7.775994E+04 -3.858059E+05 -6.489113E+04  1.055606E+05  1.870576E+04 -1.304078E+04
       292   8 -1.108626E+05 -5.211815E+05 -9.626179E+04  8.341377E+04  2.102948E+04  5.562613E+03
       292   9 -1.449532E+05 -6.591591E+05 -1.399885E+05  1.036198E+05  7.104020E+03  2.415971E+04
       292  10  7.763578E+04  2.591192E+05  6.711889E+04  1.049572E+05 -5.911464E-10  2.546998E-08
       292  11  1.113254E+05  3.937902E+05  9.964072E+04  8.475392E+04 -8.672027E-10  1.221378E-09
       292  12  1.507928E+05  5.326217E+05  1.468773E+05  1.068997E+05 -3.672461E-10 -2.174629E-08
       292  13 -5.902818E+01 -6.339287E+04  1.116150E+03  1.052591E+05 -1.231464E-09 -7.925004E-12
       292  14  2.380139E+02 -6.379421E+04  1.695101E+03  8.408356E+04 -9.603292E-10  1.087672E-09
       292  15  2.932612E+03 -6.343152E+04  3.456488E+03  1.052589E+05 -2.074410E-10  2.062419E-09
       292  16 -7.776036E+04 -3.858061E+05 -6.489211E+04  1.055608E+05 -1.409809E-09 -2.498159E-08
       292  17 -1.108631E+05 -5.211817E+05 -9.626268E+04  8.341368E+04 -1.221748E-09 -5.841870E-10
       292  18 -1.449534E+05 -6.591597E+05 -1.399897E+05  1.036197E+05 -7.591476E-10  2.120875E-08
       292  19  7.763620E+04  2.591195E+05  6.711982E+04  1.049574E+05 -1.871055E+04 -1.201636E+04
       292  20  1.113259E+05  3.937904E+05  9.964169E+04  8.475378E+04 -2.102550E+04  8.363523E+03
       292  21  1.507930E+05  5.326226E+05  1.468790E+05  1.068995E+05 -7.102083E+03  2.874956E+04
       292  22 -5.865229E+01 -6.339278E+04  1.116808E+03  1.052591E+05 -1.870817E+04  5.154041E+02
       292  23  2.384893E+02 -6.379409E+04  1.695936E+03  8.408353E+04 -2.102750E+04  1.397926E+03
       292  24  2.932668E+03 -6.343150E+04  3.456593E+03  1.052589E+05 -7.103120E+03  2.282277E+03
       292  25 -7.775994E+04 -3.858059E+05 -6.489113E+04  1.055606E+05 -1.870576E+04  1.304078E+04
       292  26 -1.108626E+05 -5.211815E+05 -9.626179E+04  8.341377E+04 -2.102948E+04 -5.562613E+03
       292  27 -1.449532E+05 -6.591591E+05 -1.399885E+05  1.036198E+05 -7.104020E+03 -2.415971E+04
       293   1  1.071037E+06  4.944618E+05  4.716797E+05  2.537335E+05  7.291400E+04 -2.764286E+04
       293   2  7.101349E+05  4.296900E+05  3.591127E+05  2.122607E+05  1.507557E+04 -8.509072E+04
       293   3  3.532132E+05  3.464946E+05  2.796966E+05  2.810034E+05 -4.264811E+04 -8.493271E+04
       293   4 -1.083566E+06 -3.990011E+04 -4.541619E+04  2.767126E+05 -3.071391E+04 -2.754101E+04
       293   5 -1.079275E+06 -4.442320E+03 -2.183738E+04  2.216075E+05 -1.932894E+04 -8.508812E+04
       293   6 -1.083148E+06  5.520863E+02 -1.316748E+04  2.767410E+05 -7.861861E+03 -8.495165E+04
       293   7 -3.233894E+06 -5.745921E+05 -5.628012E+05  2.996118E+05 -1.339839E+05 -2.744671E+04
       293   8 -2.865665E+06 -4.387822E+05 -4.029672E+05  2.309269E+05 -5.363577E+04 -8.508657E+04
       293   9 -2.517543E+06 -3.455189E+05 -3.061356E+05  2.724883E+05  2.684543E+04 -8.497109E+04
       293  10  1.071031E+06  4.944595E+05  4.716683E+05  2.537351E+05 -1.887291E-10 -5.182707E-11
       293  11  7.101327E+05  4.296822E+05  3.590987E+05  2.122618E+05  5.320263E-10 -1.848064E-10
       293  12  3.532093E+05  3.464864E+05  2.796796E+05  2.810005E+05  4.162410E-10 -2.013767E-10
       293  13 -1.083567E+06 -3.990118E+04 -4.541939E+04  2.767119E+05  8.365741E-12 -1.531505E-11
       293  14 -1.079277E+06 -4.450190E+03 -2.185168E+04  2.216062E+05  5.358075E-10 -5.591332E-11
       293  15 -1.083150E+06  5.443244E+02 -1.318115E+04  2.767404E+05 -4.555835E-11 -1.619351E-10
       293  16 -3.233914E+06 -5.745977E+05 -5.628365E+05  2.996089E+05 -1.034415E-09 -3.380712E-11
       293  17 -2.865670E+06 -4.387907E+05 -4.029862E+05  2.309232E+05 -4.998613E-10 -5.471107E-11
       293  18 -2.517546E+06 -3.455268E+05 -3.061506E+05  2.724901E+05 -4.631149E-10 -1.648001E-10
       293  19  1.071037E+06  4.944618E+05  4.716797E+05  2.537335E+05 -7.291400E+04  2.764286E+04
       293  20  7.101349E+05  4.296900E+05  3.591127E+05  2.122607E+05 -1.507557E+04  8.509072E+04
       293  21  3.532132E+05  3.464946E+05  2.796966E+05  2.810034E+05  4.264811E+04  8.493271E+04
       293  22 -1.083566E+06 -3.990011E+04 -4.541619E+04  2.767126E+05  3.071391E+04  2.754101E+04
       293  23 -1.079275E+06 -4.442320E+03 -2.183738E+04  2.216075E+05  1.932894E+04  8.508812E+04
       293  24 -1.083148E+06  5.520863E+02 -1.316748E+04  2.767410E+05  7.861861E+03  8.495165E+04
       293  25 -3.233894E+06 -5.745921E+05 -5.628012E+05  2.996118E+05  1.339839E+05  2.744671E+04
       293  26 -2.865665E+06 -4.387822E+05 -4.029672E+05  2.309269E+05  5.363577E+04  8.508657E+04
       293  27 -2.517543E+06 -3.455189E+05 -3.061356E+05  2.724883E+05 -2.684543E+04  8.497109E+04
       294   1  9.485045E+04  2.815431E+05  2.292694E+05  2.768146E+05 -2.721789E+04 -6.905248E+04
       294   2 -2.647251E+05  1.963073E+05  1.572045E+05  2.204312E+05 -2.688155E+04 -4.983721E+04
       294   3 -6.242307E+05  1.101856E+05  8.474022E+04  2.777757E+05 -2.656199E+04 -2.754031E+04
       294   4 -1.081351E+06 -1.867038E+03 -1.098764E+04  2.775113E+05 -5.999968E+03 -6.906095E+04
       294   5 -1.080910E+06 -1.004433E+02 -8.061681E+03  2.206424E+05 -1.977593E+03 -4.983619E+04
       294   6 -1.081165E+06  1.453186E+02 -8.097266E+03  2.775110E+05  2.028175E+03 -2.752748E+04
       294   7 -2.256235E+06 -2.853637E+05 -2.513161E+05  2.782064E+05  1.517850E+04 -6.906938E+04
       294   8 -1.896458E+06 -1.965493E+05 -1.733601E+05  2.208532E+05  2.289423E+04 -4.983516E+04
       294   9 -1.537898E+06 -1.099075E+05 -1.009426E+05  2.772464E+05  3.059767E+04 -2.751467E+04
       294  10  9.484838E+04  2.815378E+05  2.292591E+05  2.768131E+05  1.348647E-10 -1.373355E-10
       294  11 -2.647265E+05  1.963045E+05  1.571985E+05  2.204301E+05  7.333069E-11  3.564175E-11
       294  12 -6.242317E+05  1.101846E+05  8.473747E+04  2.777751E+05 -5.306341E-12 -5.095315E-11
       294  13 -1.081352E+06 -1.872166E+03 -1.099667E+04  2.775110E+05 -9.173707E-11 -1.890410E-10
       294  14 -1.080910E+06 -1.031099E+02 -8.066353E+03  2.206423E+05  1.337037E-10 -2.919096E-11
       294  15 -1.081165E+06  1.445041E+02 -8.098697E+03  2.775110E+05 -2.107505E-11  3.690147E-11
       294  16 -2.256236E+06 -2.853689E+05 -2.513255E+05  2.782072E+05 -3.658585E-10 -2.412691E-10
       294  17 -1.896459E+06 -1.965521E+05 -1.733657E+05  2.208541E+05 -2.090006E-11 -7.069115E-11
       294  18 -1.537899E+06 -1.099086E+05 -1.009458E+05  2.772470E+05 -5.533171E-11  1.578876E-10
       294  19  9.485045E+04  2.815431E+05  2.292694E+05  2.768146E+05  2.721789E+04  6.905248E+04
       294  20 -2.647251E+05  1.963073E+05  1.572045E+05  2.204312E+05  2.688155E+04  4.983721E+04
       294  21 -6.242307E+05  1.101856E+05  8.474022E+04  2.777757E+05  2.656199E+04  2.754031E+04
       294  22 -1.081351E+06 -1.867038E+03 -1.098764E+04  2.775113E+05  5.999968E+03  6.906095E+04
       294  23 -1.080910E+06 -1.004433E+02 -8.061681E+03  2.206424E+05  1.977593E+03  4.983619E+04
       294  24 -1.081165E+06  1.453186E+02 -8.097266E+03  2.775110E+05 -2.028175E+03  2.752748E+04
       294  25 -2.256235E+06 -2.853637E+05 -2.513161E+05  2.782064E+05 -1.517850E+04  6.906938E+04
       294  26 -1.896458E+06 -1.965493E+05 -1.733601E+05  2.208532E+05 -2.289423E+04  4.983516E+04
       294  27 -1.537898E+06 -1.099075E+05 -1.009426E+05  2.772464E+05 -3.059767E+04  2.751467E+04
       295   1 -8.831394E+05  4.782057E+04  3.003274E+04  2.769047E+05 -2.484939E+04 -1.349320E+04
       295   2 -1.241802E+06 -3.891252E+04 -4.642235E+04  2.208274E+05 -1.574711E+04  9.136405E+03
       295   3 -1.602426E+06 -1.293174E+05 -1.297424E+05  2.786433E+05 -6.646990E+03  2.966194E+04
       295   4 -1.081341E+06  3.224728E+02 -9.042703E+03  2.775451E+05  3.527904E+03 -1.347788E+04
       295   5 -1.080537E+06  2.772082E+01 -1.319665E+04  2.206001E+05  1.010300E+04  9.148279E+03
       295   6 -1.081383E+06 -3.492735E+03 -2.245553E+04  2.775469E+05  1.668106E+04  2.967099E+04
       295   7 -1.279504E+06 -4.717758E+04 -4.811704E+04  2.781853E+05  3.189632E+04 -1.346249E+04
       295   8 -9.192464E+05  3.896668E+04  2.003015E+04  2.203727E+05  3.595971E+04  9.160132E+03
       295   9 -5.600795E+05  1.223151E+05  8.481878E+04  2.764495E+05  4.002837E+04  2.967995E+04
       295  10 -8.831401E+05  4.782021E+04  3.003124E+04  2.769045E+05  4.243278E-10 -1.318483E-12
       295  11 -1.241802E+06 -3.891268E+04 -4.642297E+04  2.208275E+05 -2.385317E-11  1.626587E-10
       295  12 -1.602427E+06 -1.293184E+05 -1.297441E+05  2.786435E+05 -9.377657E-11  6.743719E-11
       295  13 -1.081341E+06  3.222745E+02 -9.043067E+03  2.775452E+05 -4.288675E-11  1.580360E-11
       295  14 -1.080537E+06  2.760359E+01 -1.319700E+04  2.206000E+05 -1.811061E-11  4.665797E-11
       295  15 -1.081383E+06 -3.493755E+03 -2.245770E+04  2.775465E+05 -3.414141E-11  4.650741E-12
       295  16 -1.279505E+06 -4.717805E+04 -4.811929E+04  2.781857E+05 -1.563028E-10  3.186123E-11
       295  17 -9.192478E+05  3.896624E+04  2.002756E+04  2.203725E+05 -1.209555E-10 -4.426271E-11
       295  18 -5.600814E+05  1.223137E+05  8.481412E+04  2.764486E+05 -4.635239E-11  6.419411E-12
       295  19 -8.831394E+05  4.782057E+04  3.003274E+04  2.769047E+05  2.484939E+04  1.349320E+04
       295  20 -1.241802E+06 -3.891252E+04 -4.642235E+04  2.208274E+05  1.574711E+04 -9.136405E+03
       295  21 -1.602426E+06 -1.293174E+05 -1.297424E+05  2.786433E+05  6.646990E+03 -2.966194E+04
       295  22 -1.081341E+06  3.224728E+02 -9.042703E+03  2.775451E+05 -3.527904E+03  1.347788E+04
       295  23 -1.080537E+06  2.772082E+01 -1.319665E+04  2.206001E+05 -1.010300E+04 -9.148279E+03
       295  24 -1.081383E+06 -3.492735E+03 -2.245553E+04  2.775469E+05 -1.668106E+04 -2.967099E+04
       295  25 -1.279504E+06 -4.717758E+04 -4.811704E+04  2.781853E+05 -3.189632E+04  1.346249E+04
       295  26 -9.192464E+05  3.896668E+04  2.003015E+04  2.203727E+05 -3.595971E+04 -9.160132E+03
       295  27 -5.600795E+05  1.223151E+05  8.481878E+04  2.764495E+05 -4.002837E+04 -2.967995E+04
       296   1 -1.866360E+06 -1.860224E+05 -1.887374E+05  2.660896E+05 -1.244039E+04  4.499329E+04
       296   2 -2.210847E+06 -2.847643E+05 -2.932832E+05  2.407082E+05  6.276276E+04  5.194398E+04
       296   3 -2.584729E+06 -4.636529E+05 -4.668829E+05  3.267786E+05  1.378982E+05  1.768075E+04
       296   4 -1.085717E+06  2.446040E+03 -2.839671E+04  2.770103E+05  2.054296E+04  4.500095E+04
       296   5 -1.075434E+06 -8.486227E+03 -4.946210E+04  2.212767E+05  4.646237E+04  5.193422E+04
       296   6 -1.086020E+06 -9.090172E+04 -1.052293E+05  2.770011E+05  7.235956E+04  1.768033E+04
       296   7 -3.044914E+05  1.908771E+05  1.319156E+05  2.879449E+05  5.356714E+04  4.500975E+04
       296   8  6.119695E+04  2.677087E+05  1.942849E+05  2.018090E+05  3.013245E+04  5.192549E+04
       296   9  4.147645E+05  2.816966E+05  2.562809E+05  2.271022E+05  6.662621E+03  1.769049E+04
       296  10 -1.866361E+06 -1.860247E+05 -1.887415E+05  2.660901E+05  3.145843E-11  1.091642E-10
       296  11 -2.210852E+06 -2.847683E+05 -2.932957E+05  2.407055E+05  1.746731E-10  7.404019E-12
       296  12 -2.584749E+06 -4.636583E+05 -4.669194E+05  3.267766E+05 -1.091811E-10  3.661843E-12
       296  13 -1.085718E+06  2.443754E+03 -2.840130E+04  2.770096E+05  5.286173E-11  1.338675E-10
       296  14 -1.075437E+06 -8.489701E+03 -4.947122E+04  2.212748E+05  2.257258E-10  1.190544E-10
       296  15 -1.086026E+06 -9.090347E+04 -1.052398E+05  2.770000E+05 -1.215411E-10 -1.520389E-11
       296  16 -3.044951E+05  1.908742E+05  1.319064E+05  2.879429E+05 -8.739166E-11  2.956687E-11
       296  17  6.119525E+04  2.677056E+05  1.942781E+05  2.018077E+05 -2.384991E-10  4.929606E-11
       296  18  4.147644E+05  2.816963E+05  2.562802E+05  2.271021E+05 -9.882985E-11  4.678285E-11
       296  19 -1.866360E+06 -1.860224E+05 -1.887374E+05  2.660896E+05  1.244039E+04 -4.499329E+04
       296  20 -2.210847E+06 -2.847643E+05 -2.932832E+05  2.407082E+05 -6.276276E+04 -5.194398E+04
       296  21 -2.584729E+06 -4.636529E+05 -4.668829E+05  3.267786E+05 -1.378982E+05 -1.768075E+04
       296  22 -1.085717E+06  2.446040E+03 -2.839671E+04  2.770103E+05 -2.054296E+04 -4.500095E+04
       296  23 -1.075434E+06 -8.486227E+03 -4.946210E+04  2.212767E+05 -4.646237E+04 -5.193422E+04
       296  24 -1.086020E+06 -9.090172E+04 -1.052293E+05  2.770011E+05 -7.235956E+04 -1.768033E+04
       296  25 -3.044914E+05  1.908771E+05  1.319156E+05  2.879449E+05 -5.356714E+04 -4.500975E+04
       296  26  6.119695E+04  2.677087E+05  1.942849E+05  2.018090E+05 -3.013245E+04 -5.192549E+04
       296  27  4.147645E+05  2.816966E+05  2.562809E+05  2.271022E+05 -6.662621E+03 -1.769049E+04
       297   1  7.947867E+05  3.429794E+05  3.315037E+05  2.052814E+05  6.182842E+04 -1.746803E+04
       297   2  5.205305E+05  2.732772E+05  2.378350E+05  1.653658E+05  1.793947E+04 -5.295455E+04
       297   3  2.534499E+05  2.077794E+05  1.738202E+05  2.089238E+05 -2.590693E+04 -5.058161E+04
       297   4 -6.090890E+05 -5.206810E+03 -5.782164E+03  2.083188E+05 -3.539211E+03 -1.744915E+04
       297   5 -6.086027E+05 -7.326714E+02 -3.080027E+03  1.665779E+05 -1.940136E+03 -5.296037E+04
       297   6 -6.088983E+05  5.914490E+01 -2.291936E+03  2.083196E+05 -3.182108E+02 -5.058072E+04
       297   7 -2.011152E+06 -3.535342E+05 -3.431922E+05  2.113491E+05 -6.875973E+04 -1.743091E+04
       297   8 -1.736535E+06 -2.748255E+05 -2.440672E+05  1.677877E+05 -2.178413E+04 -5.296628E+04
       297   9 -1.470538E+06 -2.077073E+05 -1.784409E+05  2.077160E+05  2.523563E+04 -5.057987E+04
       297  10  7.947826E+05  3.429781E+05  3.314960E+05  2.052823E+05 -4.115582E-11  4.638250E-11
       297  11  5.205294E+05  2.732741E+05  2.378291E+05  1.653665E+05  1.485899E-12 -7.021359E-11
       297  12  2.534485E+05  2.077765E+05  1.738141E+05  2.089228E+05  1.256266E-10 -1.215251E-10
       297  13 -6.090890E+05 -5.207140E+03 -5.782759E+03  2.083187E+05 -5.438469E-11  1.426407E-10
       297  14 -6.086034E+05 -7.356833E+02 -3.085303E+03  1.665778E+05  1.728355E-10  2.092433E-11
       297  15 -6.088990E+05  5.639837E+01 -2.296743E+03  2.083196E+05  8.181656E-11 -2.601512E-11
       297  16 -2.011157E+06 -3.535358E+05 -3.432016E+05  2.113481E+05 -3.905833E-10 -4.765163E-11
       297  17 -1.736536E+06 -2.748286E+05 -2.440734E+05  1.677867E+05  1.514577E-10 -1.283887E-11
       297  18 -1.470539E+06 -2.077103E+05 -1.784469E+05  2.077171E+05 -1.692846E-10 -2.586049E-11
       297  19  7.947867E+05  3.429794E+05  3.315037E+05  2.052814E+05 -6.182842E+04  1.746803E+04
       297  20  5.205305E+05  2.732772E+05  2.378350E+05  1.653658E+05 -1.793947E+04  5.295455E+04
       297  21  2.534499E+05  2.077794E+05  1.738202E+05  2.089238E+05  2.590693E+04  5.058161E+04
       297  22 -6.090890E+05 -5.206810E+03 -5.782164E+03  2.083188E+05  3.539211E+03  1.744915E+04
       297  23 -6.086027E+05 -7.326714E+02 -3.080027E+03  1.665779E+05  1.940136E+03  5.296037E+04
       297  24 -6.088983E+05  5.914490E+01 -2.291936E+03  2.083196E+05  3.182108E+02  5.058072E+04
       297  25 -2.011152E+06 -3.535342E+05 -3.431922E+05  2.113491E+05  6.875973E+04  1.743091E+04
       297  26 -1.736535E+06 -2.748255E+05 -2.440672E+05  1.677877E+05  2.178413E+04  5.296628E+04
       297  27 -1.470538E+06 -2.077073E+05 -1.784409E+05  2.077160E+05 -2.523563E+04  5.057987E+04
       298   1  5.791763E+04  1.604526E+05  1.341188E+05  2.087683E+05 -1.662972E+04 -3.881364E+04
       298   2 -2.128720E+05  9.532636E+04  7.767067E+04  1.659504E+05 -1.771695E+04 -2.392340E+04
       298   3 -4.833838E+05  3.036318E+04  2.196996E+04  2.087546E+05 -1.881011E+04 -7.042852E+03
       298   4 -6.087097E+05 -1.874201E+02 -2.267331E+03  2.087955E+05  4.512595E+01 -3.881084E+04
       298   5 -6.085709E+05  9.441158E+01 -2.614705E+03  1.659828E+05  1.341731E+03 -2.391639E+04
       298   6 -6.086426E+05  1.282437E+02 -3.870560E+03  2.087956E+05  2.631890E+03 -7.030819E+03
       298   7 -1.274914E+06 -1.608552E+05 -1.386760E+05  2.088226E+05  1.670240E+04 -3.880803E+04
       298   8 -1.004120E+06 -9.514709E+04 -8.290687E+04  1.660151E+05  2.038848E+04 -2.390939E+04
       298   9 -7.338856E+05 -3.010744E+04 -2.971020E+04  2.088365E+05  2.406964E+04 -7.018782E+03
       298  10  5.791693E+04  1.604510E+05  1.341155E+05  2.087678E+05  2.592441E-10 -9.328980E-11
       298  11 -2.128725E+05  9.532566E+04  7.766901E+04  1.659500E+05 -7.860057E-11 -7.549198E-11
       298  12 -4.833841E+05  3.036303E+04  2.196920E+04  2.087545E+05 -5.079130E-11 -6.323494E-11
       298  13 -6.087101E+05 -1.890371E+02 -2.270161E+03  2.087955E+05  1.469274E-10 -3.121787E-11
       298  14 -6.085711E+05  9.379704E+01 -2.615783E+03  1.659828E+05  5.637856E-11 -4.389567E-11
       298  15 -6.086427E+05  1.281888E+02 -3.870666E+03  2.087956E+05 -1.046511E-11  6.485835E-11
       298  16 -1.274915E+06 -1.608569E+05 -1.386794E+05  2.088232E+05 -1.858974E-10 -1.044401E-10
       298  17 -1.004121E+06 -9.514782E+04 -8.290873E+04  1.660155E+05  1.545273E-10 -6.910402E-11
       298  18 -7.338863E+05 -3.010764E+04 -2.971138E+04  2.088367E+05  2.866024E-10  2.024315E-11
       298  19  5.791763E+04  1.604526E+05  1.341188E+05  2.087683E+05  1.662972E+04  3.881364E+04
       298  20 -2.128720E+05  9.532636E+04  7.767067E+04  1.659504E+05  1.771695E+04  2.392340E+04
       298  21 -4.833838E+05  3.036318E+04  2.196996E+04  2.087546E+05  1.881011E+04  7.042852E+03
       298  22 -6.087097E+05 -1.874201E+02 -2.267331E+03  2.087955E+05 -4.512595E+01  3.881084E+04
       298  23 -6.085709E+05  9.441158E+01 -2.614705E+03  1.659828E+05 -1.341731E+03  2.391639E+04
       298  24 -6.086426E+05  1.282437E+02 -3.870560E+03  2.087956E+05 -2.631890E+03  7.030819E+03
       298  25 -1.274914E+06 -1.608552E+05 -1.386760E+05  2.088226E+05 -1.670240E+04  3.880803E+04
       298  26 -1.004120E+06 -9.514709E+04 -8.290687E+04  1.660151E+05 -2.038848E+04  2.390939E+04
       298  27 -7.338856E+05 -3.010744E+04 -2.971020E+04  2.088365E+05 -2.406964E+04  7.018782E+03
       299   1 -6.781760E+05 -1.650731E+04 -1.948555E+04  2.082563E+05 -1.802426E+04  3.524082E+03
       299   2 -9.480203E+05 -8.179819E+04 -7.728583E+04  1.660439E+05 -1.161896E+04  2.044151E+04
       299   3 -1.219259E+06 -1.496208E+05 -1.399039E+05  2.094695E+05 -5.210743E+03  3.545102E+04
       299   4 -6.088294E+05  2.903660E+02 -4.897905E+03  2.087976E+05  3.396864E+03  3.536260E+03
       299   5 -6.083287E+05  5.494079E+00 -8.261005E+03  1.659806E+05  7.513595E+03  2.044923E+04
       299   6 -6.088892E+05 -2.407186E+03 -1.484670E+04  2.087989E+05  1.163591E+04  3.545498E+04
       299   7 -5.394772E+05  1.708798E+04  9.691196E+03  2.093390E+05  2.482034E+04  3.548475E+03
       299   8 -2.685264E+05  8.180218E+04  6.075917E+04  1.659172E+05  2.665643E+04  2.045694E+04
       299   9  1.836020E+03  1.447831E+05  1.101917E+05  2.081274E+05  2.849885E+04  3.545890E+04
       299  10 -6.781764E+05 -1.650741E+04 -1.948618E+04  2.082563E+05  3.212655E-10 -6.443885E-11
       299  11 -9.480205E+05 -8.179868E+04 -7.728687E+04  1.660441E+05 -1.491448E-11  1.103059E-10
       299  12 -1.219260E+06 -1.496221E+05 -1.399063E+05  2.094697E+05 -1.024007E-10  8.647700E-11
       299  13 -6.088294E+05  2.903495E+02 -4.897951E+03  2.087976E+05  1.557683E-10 -6.690779E-11
       299  14 -6.083289E+05  5.030053E+00 -8.261896E+03  1.659804E+05 -1.615194E-10  4.349029E-11
       299  15 -6.088897E+05 -2.408572E+03 -1.484931E+04  2.087985E+05  9.565654E-11 -6.550579E-11
       299  16 -5.394779E+05  1.708780E+04  9.690013E+03  2.093389E+05 -2.490341E-11  2.538225E-11
       299  17 -2.685273E+05  8.180154E+04  6.075705E+04  1.659167E+05 -3.267143E-11 -3.352027E-10
       299  18  1.834811E+03  1.447816E+05  1.101878E+05  2.081266E+05  1.304256E-10 -1.231601E-10
       299  19 -6.781760E+05 -1.650731E+04 -1.948555E+04  2.082563E+05  1.802426E+04 -3.524082E+03
       299  20 -9.480203E+05 -8.179819E+04 -7.728583E+04  1.660439E+05  1.161896E+04 -2.044151E+04
       299  21 -1.219259E+06 -1.496208E+05 -1.399039E+05  2.094695E+05  5.210743E+03 -3.545102E+04
       299  22 -6.088294E+05  2.903660E+02 -4.897905E+03  2.087976E+05 -3.396864E+03 -3.536260E+03
       299  23 -6.083287E+05  5.494079E+00 -8.261005E+03  1.659806E+05 -7.513595E+03 -2.044923E+04
       299  24 -6.088892E+05 -2.407186E+03 -1.484670E+04  2.087989E+05 -1.163591E+04 -3.545498E+04
       299  25 -5.394772E+05  1.708798E+04  9.691196E+03  2.093390E+05 -2.482034E+04 -3.548475E+03
       299  26 -2.685264E+05  8.180218E+04  6.075917E+04  1.659172E+05 -2.665643E+04 -2.045694E+04
       299  27  1.836020E+03  1.447831E+05  1.101917E+05  2.081274E+05 -2.849885E+04 -3.545890E+04
       300   1 -1.417632E+06 -1.927103E+05 -1.838068E+05  2.009040E+05 -1.122022E+04  4.717473E+04
       300   2 -1.677176E+06 -2.664123E+05 -2.626719E+05  1.797563E+05  4.999866E+04  5.013923E+04
       300   3 -1.958364E+06 -3.961719E+05 -3.954219E+05  2.421616E+05  1.111696E+05  1.658748E+04
       300   4 -6.118354E+05  1.608528E+03 -1.897604E+04  2.083390E+05  1.419684E+04  4.717718E+04
       300   5 -6.048984E+05 -5.818163E+03 -3.341344E+04  1.665584E+05  3.171567E+04  5.013192E+04
       300   6 -6.120340E+05 -6.164774E+04 -7.130872E+04  2.083322E+05  4.921523E+04  1.659485E+04
       300   7  1.945810E+05  1.958871E+05  1.458228E+05  2.157838E+05  3.964634E+04  4.718024E+04
       300   8  4.684652E+05  2.547016E+05  1.957798E+05  1.533372E+05  1.340145E+04  5.012539E+04
       300   9  7.359695E+05  2.727505E+05  2.526902E+05  1.744288E+05 -1.287339E+04  1.660900E+04
       300  10 -1.417633E+06 -1.927127E+05 -1.838112E+05  2.009044E+05 -3.869803E-10  1.474303E-10
       300  11 -1.677180E+06 -2.664156E+05 -2.626813E+05  1.797542E+05  2.646423E-10  2.485380E-10
       300  12 -1.958377E+06 -3.961756E+05 -3.954457E+05  2.421601E+05  5.463944E-10  1.707417E-10
       300  13 -6.118362E+05  1.606084E+03 -1.898060E+04  2.083385E+05 -5.886773E-11  7.635366E-11
       300  14 -6.049002E+05 -5.821131E+03 -3.342005E+04  1.665571E+05 -2.076761E-10  1.182417E-10
       300  15 -6.120367E+05 -6.164869E+04 -7.131379E+04  2.083315E+05  1.096836E-11  9.093889E-11
       300  16  1.945787E+05  1.958843E+05  1.458157E+05  2.157823E+05  2.456153E-10 -3.388909E-11
       300  17  4.684643E+05  2.546988E+05  1.957747E+05  1.533366E+05  3.870027E-11  1.421468E-10
       300  18  7.359692E+05  2.727502E+05  2.526894E+05  1.744290E+05 -4.177316E-10  8.945393E-11
       300  19 -1.417632E+06 -1.927103E+05 -1.838068E+05  2.009040E+05  1.122022E+04 -4.717473E+04
       300  20 -1.677176E+06 -2.664123E+05 -2.626719E+05  1.797563E+05 -4.999866E+04 -5.013923E+04
       300  21 -1.958364E+06 -3.961719E+05 -3.954219E+05  2.421616E+05 -1.111696E+05 -1.658748E+04
       300  22 -6.118354E+05  1.608528E+03 -1.897604E+04  2.083390E+05 -1.419684E+04 -4.717718E+04
       300  23 -6.048984E+05 -5.818163E+03 -3.341344E+04  1.665584E+05 -3.171567E+04 -5.013192E+04
       300  24 -6.120340E+05 -6.164774E+04 -7.130872E+04  2.083322E+05 -4.921523E+04 -1.659485E+04
       300  25  1.945810E+05  1.958871E+05  1.458228E+05  2.157838E+05 -3.964634E+04 -4.718024E+04
       300  26  4.684652E+05  2.547016E+05  1.957798E+05  1.533372E+05 -1.340145E+04 -5.012539E+04
       300  27  7.359695E+05  2.727505E+05  2.526902E+05  1.744288E+05  1.287339E+04 -1.660900E+04
       301   1  1.069338E+06  3.261777E+05  3.190348E+05  1.968003E+05  7.041809E+04 -1.558982E+04
       301   2  8.182369E+05  2.455893E+05  2.227747E+05  1.541289E+05  2.557419E+04 -4.717576E+04
       301   3  5.780244E+05  1.838955E+05  1.604407E+05  1.872304E+05 -1.923199E+04 -4.485259E+04
       301   4 -1.877805E+05  1.451255E+04  1.708897E+04  1.889813E+05  1.206962E+04 -1.557571E+04
       301   5 -1.895905E+05  1.104282E+03  7.772864E+03  1.510914E+05  7.989284E+03 -4.718047E+04
       301   6 -1.876286E+05 -4.613164E+02  4.113143E+03  1.889790E+05  3.927488E+03 -4.485192E+04
       301   7 -1.443446E+06 -2.972655E+05 -2.849564E+05  1.811781E+05 -4.616133E+04 -1.556013E+04
       301   8 -1.196462E+06 -2.434468E+05 -2.072865E+05  1.480588E+05 -9.567527E+03 -4.718501E+04
       301   9 -9.527236E+05 -1.848545E+05 -1.522434E+05  1.907254E+05  2.705894E+04 -4.485111E+04
       301  10  1.069333E+06  3.261761E+05  3.190251E+05  1.968012E+05 -3.363531E-11 -1.297825E-10
       301  11  8.182356E+05  2.455868E+05  2.227693E+05  1.541298E+05 -3.340036E-11 -1.299412E-10
       301  12  5.780235E+05  1.838932E+05  1.604362E+05  1.872297E+05  2.230491E-10 -1.740897E-10
       301  13 -1.877807E+05  1.451225E+04  1.708824E+04  1.889815E+05  2.150791E-11  7.588679E-11
       301  14 -1.895912E+05  1.101875E+03  7.768560E+03  1.510917E+05  1.988510E-10 -1.069417E-10
       301  15 -1.876292E+05 -4.634807E+02  4.109334E+03  1.889792E+05  1.235213E-10 -1.024377E-10
       301  16 -1.443448E+06 -2.972663E+05 -2.849608E+05  1.811775E+05 -4.305583E-10  5.111521E-11
       301  17 -1.196462E+06 -2.434492E+05 -2.072908E+05  1.480584E+05  5.262312E-11  3.132271E-11
       301  18 -9.527249E+05 -1.848569E+05 -1.522485E+05  1.907263E+05 -1.580858E-10  1.363612E-12
       301  19  1.069338E+06  3.261777E+05  3.190348E+05  1.968003E+05 -7.041809E+04  1.558982E+04
       301  20  8.182369E+05  2.455893E+05  2.227747E+05  1.541289E+05 -2.557419E+04  4.717576E+04
       301  21  5.780244E+05  1.838955E+05  1.604407E+05  1.872304E+05  1.923199E+04  4.485259E+04
       301  22 -1.877805E+05  1.451255E+04  1.708897E+04  1.889813E+05 -1.206962E+04  1.557571E+04
       301  23 -1.895905E+05  1.104282E+03  7.772864E+03  1.510914E+05 -7.989284E+03  4.718047E+04
       301  24 -1.876286E+05 -4.613164E+02  4.113143E+03  1.889790E+05 -3.927488E+03  4.485192E+04
       301  25 -1.443446E+06 -2.972655E+05 -2.849564E+05  1.811781E+05  4.616133E+04  1.556013E+04
       301  26 -1.196462E+06 -2.434468E+05 -2.072865E+05  1.480588E+05  9.567527E+03  4.718501E+04
       301  27 -9.527236E+05 -1.848545E+05 -1.522434E+05  1.907254E+05 -2.705894E+04  4.485111E+04
       302   1  3.998143E+05  1.422659E+05  1.232428E+05  1.896155E+05 -1.177075E+04 -3.419981E+04
       302   2  1.541271E+05  8.250268E+04  7.032320E+04  1.506135E+05 -1.432058E+04 -2.067383E+04
       302   3 -9.094645E+04  2.357867E+04  1.927014E+04  1.892250E+05 -1.687447E+04 -5.370104E+03
       302   4 -1.883748E+05  5.828193E+02  2.932229E+03  1.893883E+05  3.399231E+03 -3.419749E+04
       302   5 -1.884437E+05  8.902411E+01  8.269896E+02  1.505804E+05  2.981416E+03 -2.066822E+04
       302   6 -1.883223E+05  6.895945E+01 -8.891083E+02  1.893886E+05  2.558583E+03 -5.360554E+03
       302   7 -7.762349E+05 -1.411218E+05 -1.173958E+05  1.891613E+05  1.855511E+04 -3.419518E+04
       302   8 -5.309021E+05 -8.233178E+04 -6.867421E+04  1.505473E+05  2.027404E+04 -2.066261E+04
       302   9 -2.856883E+05 -2.344114E+04 -2.104746E+04  1.895523E+05  2.198865E+04 -5.350993E+03
       302  10  3.998139E+05  1.422646E+05  1.232403E+05  1.896152E+05  6.943556E-11 -4.554584E-11
       302  11  1.541268E+05  8.250217E+04  7.032201E+04  1.506133E+05  1.201120E-11  1.414899E-10
       302  12 -9.094676E+04  2.357856E+04  1.926956E+04  1.892249E+05  6.824200E-11 -5.536222E-11
       302  13 -1.883752E+05  5.815605E+02  2.930010E+03  1.893884E+05  1.686870E-10 -1.258533E-10
       302  14 -1.884438E+05  8.856303E+01  8.261702E+02  1.505805E+05  1.570718E-10  3.463698E-10
       302  15 -1.883223E+05  6.892683E+01 -8.891746E+02  1.893886E+05  3.143049E-10  6.635187E-11
       302  16 -7.762356E+05 -1.411232E+05 -1.173987E+05  1.891618E+05 -6.554755E-11 -4.053210E-11
       302  17 -5.309027E+05 -8.233235E+04 -6.867578E+04  1.505477E+05  2.260863E-10 -6.036280E-12
       302  18 -2.856888E+05 -2.344131E+04 -2.104842E+04  1.895524E+05  9.354721E-11  1.942286E-10
       302  19  3.998143E+05  1.422659E+05  1.232428E+05  1.896155E+05  1.177075E+04  3.419981E+04
       302  20  1.541271E+05  8.250268E+04  7.032320E+04  1.506135E+05  1.432058E+04  2.067383E+04
       302  21 -9.094645E+04  2.357867E+04  1.927014E+04  1.892250E+05  1.687447E+04  5.370104E+03
       302  22 -1.883748E+05  5.828193E+02  2.932229E+03  1.893883E+05 -3.399231E+03  3.419749E+04
       302  23 -1.884437E+05  8.902411E+01  8.269896E+02  1.505804E+05 -2.981416E+03  2.066822E+04
       302  24 -1.883223E+05  6.895945E+01 -8.891083E+02  1.893886E+05 -2.558583E+03  5.360554E+03
       302  25 -7.762349E+05 -1.411218E+05 -1.173958E+05  1.891613E+05 -1.855511E+04  3.419518E+04
       302  26 -5.309021E+05 -8.233178E+04 -6.867421E+04  1.505473E+05 -2.027404E+04  2.066261E+04
       302  27 -2.856883E+05 -2.344114E+04 -2.104746E+04  1.895523E+05 -2.198865E+04  5.350993E+03
       303   1 -2.674780E+05 -1.888341E+04 -1.826143E+04  1.890246E+05 -1.663559E+04  4.204244E+03
       303   2 -5.123258E+05 -7.800270E+04 -6.998020E+04  1.505706E+05 -1.244821E+04  1.952501E+04
       303   3 -7.580390E+05 -1.386844E+05 -1.248232E+05  1.897356E+05 -8.257681E+03  3.309451E+04
       303   4 -1.884876E+05  2.115007E+02 -1.800091E+03  1.893886E+05  2.789038E+03  4.213837E+03
       303   5 -1.882343E+05  1.690350E+00 -4.181932E+03  1.505807E+05  4.874108E+03  1.953083E+04
       303   6 -1.885380E+05 -1.401435E+03 -8.225316E+03  1.893893E+05  6.963921E+03  3.309717E+04
       303   7 -1.094905E+05  1.930622E+04  1.466233E+04  1.897527E+05  2.221610E+04  4.223452E+03
       303   8  1.359578E+05  7.799970E+04  6.161198E+04  1.505908E+05  2.220530E+04  1.953665E+04
       303   9  3.812720E+05  1.358613E+05  1.083562E+05  1.890426E+05  2.219924E+04  3.309982E+04
       303  10 -2.674783E+05 -1.888350E+04 -1.826199E+04  1.890246E+05  3.021805E-10  3.761866E-11
       303  11 -5.123261E+05 -7.800315E+04 -6.998120E+04  1.505708E+05  1.382316E-10 -1.066207E-10
       303  12 -7.580394E+05 -1.386856E+05 -1.248254E+05  1.897358E+05  7.629090E-11 -8.359207E-11
       303  13 -1.884876E+05  2.114796E+02 -1.800139E+03  1.893886E+05  2.629128E-10  5.377679E-11
       303  14 -1.882345E+05  1.274427E+00 -4.182694E+03  1.505806E+05  4.820353E-12  3.153109E-10
       303  15 -1.885383E+05 -1.402624E+03 -8.227465E+03  1.893891E+05  3.309026E-10 -3.138893E-10
       303  16 -1.094910E+05  1.930606E+04  1.466137E+04  1.897526E+05  9.335030E-11  9.990480E-11
       303  17  1.359572E+05  7.799916E+04  6.161034E+04  1.505904E+05 -1.372401E-10  2.792623E-11
       303  18  3.812712E+05  1.358599E+05  1.083532E+05  1.890420E+05 -3.465708E-11 -1.463347E-10
       303  19 -2.674780E+05 -1.888341E+04 -1.826143E+04  1.890246E+05  1.663559E+04 -4.204244E+03
       303  20 -5.123258E+05 -7.800270E+04 -6.998020E+04  1.505706E+05  1.244821E+04 -1.952501E+04
       303  21 -7.580390E+05 -1.386844E+05 -1.248232E+05  1.897356E+05  8.257681E+03 -3.309451E+04
       303  22 -1.884876E+05  2.115007E+02 -1.800091E+03  1.893886E+05 -2.789038E+03 -4.213837E+03
       303  23 -1.882343E+05  1.690350E+00 -4.181932E+03  1.505807E+05 -4.874108E+03 -1.953083E+04
       303  24 -1.885380E+05 -1.401435E+03 -8.225316E+03  1.893893E+05 -6.963921E+03 -3.309717E+04
       303  25 -1.094905E+05  1.930622E+04  1.466233E+04  1.897527E+05 -2.221610E+04 -4.223452E+03
       303  26  1.359578E+05  7.799970E+04  6.161198E+04  1.505908E+05 -2.220530E+04 -1.953665E+04
       303  27  3.812720E+05  1.358613E+05  1.083562E+05  1.890426E+05 -2.219924E+04 -3.309982E+04
       304   1 -9.369639E+05 -1.790814E+05 -1.633206E+05  1.846867E+05 -1.470722E+04  4.373510E+04
       304   2 -1.174871E+06 -2.435441E+05 -2.303327E+05  1.587174E+05  3.545787E+04  4.625638E+04
       304   3 -1.427703E+06 -3.428125E+05 -3.386940E+05  2.085486E+05  8.558371E+04  1.527690E+04
       304   4 -1.902369E+05  8.924017E+02 -1.068446E+04  1.889870E+05  8.385849E+03  4.373624E+04
       304   5 -1.863202E+05 -3.432454E+03 -1.913231E+04  1.510851E+05  1.842632E+04  4.625122E+04
       304   6 -1.903907E+05 -3.555794E+04 -4.101983E+04  1.889822E+05  2.844924E+04  1.528764E+04
       304   7  5.570218E+05  1.808316E+05  1.419242E+05  1.932925E+05  3.150621E+04  4.373770E+04
       304   8  8.031530E+05  2.366158E+05  1.920127E+05  1.434404E+05  1.367986E+03  4.624650E+04
       304   9  1.048333E+06  2.715883E+05  2.565577E+05  1.693765E+05 -2.879891E+04  1.530200E+04
       304  10 -9.369646E+05 -1.790835E+05 -1.633246E+05  1.846872E+05 -1.013645E-11 -4.881278E-11
       304  11 -1.174873E+06 -2.435468E+05 -2.303391E+05  1.587161E+05  3.468674E-10  1.366656E-10
       304  12 -1.427711E+06 -3.428148E+05 -3.387082E+05  2.085476E+05  1.629731E-10 -4.080831E-11
       304  13 -1.902375E+05  8.903291E+02 -1.068818E+04  1.889867E+05  1.059200E-10 -6.540644E-11
       304  14 -1.863212E+05 -3.434842E+03 -1.913696E+04  1.510844E+05  1.484125E-10  1.260624E-10
       304  15 -1.903916E+05 -3.555840E+04 -4.102179E+04  1.889819E+05 -1.881875E-12 -6.356863E-11
       304  16  5.570202E+05  1.808292E+05  1.419188E+05  1.932914E+05  1.733294E-10 -2.253642E-10
       304  17  8.031524E+05  2.366135E+05  1.920087E+05  1.434404E+05 -9.141155E-11 -2.109717E-12
       304  18  1.048332E+06  2.715878E+05  2.565557E+05  1.693769E+05 -1.007794E-10 -9.082350E-11
       304  19 -9.369639E+05 -1.790814E+05 -1.633206E+05  1.846867E+05  1.470722E+04 -4.373510E+04
       304  20 -1.174871E+06 -2.435441E+05 -2.303327E+05  1.587174E+05 -3.545787E+04 -4.625638E+04
       304  21 -1.427703E+06 -3.428125E+05 -3.386940E+05  2.085486E+05 -8.558371E+04 -1.527690E+04
       304  22 -1.902369E+05  8.924017E+02 -1.068446E+04  1.889870E+05 -8.385849E+03 -4.373624E+04
       304  23 -1.863202E+05 -3.432454E+03 -1.913231E+04  1.510851E+05 -1.842632E+04 -4.625122E+04
       304  24 -1.903907E+05 -3.555794E+04 -4.101983E+04  1.889822E+05 -2.844924E+04 -1.528764E+04
       304  25  5.570218E+05  1.808316E+05  1.419242E+05  1.932925E+05 -3.150621E+04 -4.373770E+04
       304  26  8.031530E+05  2.366158E+05  1.920127E+05  1.434404E+05 -1.367986E+03 -4.624650E+04
       304  27  1.048333E+06  2.715883E+05  2.565577E+05  1.693765E+05  2.879891E+04 -1.530200E+04
       305   1  1.427281E+06  3.379952E+05  3.346854E+05  2.050652E+05  8.561173E+04 -1.506036E+04
       305   2  1.178344E+06  2.391889E+05  2.273130E+05  1.558666E+05  3.578902E+04 -4.549332E+04
       305   3  9.451130E+05  1.760985E+05  1.612913E+05  1.810610E+05 -1.399670E+04 -4.306036E+04
       305   4  2.089874E+05  3.608635E+04  4.215620E+04  1.853831E+05  2.923284E+04 -1.504939E+04
       305   5  2.046494E+05  3.074407E+03  1.963045E+04  1.481831E+05  1.894494E+04 -4.549811E+04
       305   6  2.091363E+05 -1.041233E+03  1.106158E+04  1.853778E+05  8.674075E+03 -4.305954E+04
       305   7 -1.007942E+06 -2.659271E+05 -2.504663E+05  1.657396E+05 -2.703609E+04 -1.503486E+04
       305   8 -7.681534E+05 -2.331015E+05 -1.881058E+05  1.405116E+05  2.126828E+03 -4.550250E+04
       305   9 -5.263249E+05 -1.782145E+05 -1.391948E+05  1.896893E+05  3.131849E+04 -4.305841E+04
       305  10  1.427273E+06  3.379930E+05  3.346713E+05  2.050663E+05 -2.050149E-11  5.396027E-11
       305  11  1.178342E+06  2.391863E+05  2.273068E+05  1.558680E+05 -2.561432E-10  1.233547E-11
       305  12  9.451123E+05  1.760964E+05  1.612875E+05  1.810605E+05 -4.651016E-11 -2.498847E-10
       305  13  2.089864E+05  3.608588E+04  4.215417E+04  1.853835E+05 -1.184271E-10 -5.519046E-11
       305  14  2.046484E+05  3.072088E+03  1.962589E+04  1.481838E+05  1.662910E-10  1.063451E-10
       305  15  2.091358E+05 -1.043245E+03  1.105795E+04  1.853781E+05  5.203122E-12 -1.392822E-10
       305  16 -1.007943E+06 -2.659276E+05 -2.504681E+05  1.657392E+05 -2.638952E-10  8.268219E-11
       305  17 -7.681540E+05 -2.331037E+05 -1.881097E+05  1.405117E+05  1.339752E-10  1.894514E-10
       305  18 -5.263264E+05 -1.782167E+05 -1.392002E+05  1.896904E+05  1.344487E-10  6.570410E-11
       305  19  1.427281E+06  3.379952E+05  3.346854E+05  2.050652E+05 -8.561173E+04  1.506036E+04
       305  20  1.178344E+06  2.391889E+05  2.273130E+05  1.558666E+05 -3.578902E+04  4.549332E+04
       305  21  9.451130E+05  1.760985E+05  1.612913E+05  1.810610E+05  1.399670E+04  4.306036E+04
       305  22  2.089874E+05  3.608635E+04  4.215620E+04  1.853831E+05 -2.923284E+04  1.504939E+04
       305  23  2.046494E+05  3.074407E+03  1.963045E+04  1.481831E+05 -1.894494E+04  4.549811E+04
       305  24  2.091363E+05 -1.041233E+03  1.106158E+04  1.853778E+05 -8.674075E+03  4.305954E+04
       305  25 -1.007942E+06 -2.659271E+05 -2.504663E+05  1.657396E+05  2.703609E+04  1.503486E+04
       305  26 -7.681534E+05 -2.331015E+05 -1.881058E+05  1.405116E+05 -2.126828E+03  4.550250E+04
       305  27 -5.263249E+05 -1.782145E+05 -1.391948E+05  1.896893E+05 -3.131849E+04  4.305841E+04
       306   1  7.693309E+05  1.367447E+05  1.234478E+05  1.862759E+05 -7.738473E+03 -3.263119E+04
       306   2  5.282308E+05  7.733280E+04  6.954933E+04  1.478269E+05 -1.200404E+04 -1.934671E+04
       306   3  2.881601E+05  1.953540E+04  1.882680E+04  1.854536E+05 -1.627260E+04 -4.343190E+03
       306   4  2.073584E+05  1.430115E+03  8.526888E+03  1.857536E+05  7.182243E+03 -3.262882E+04
       306   5  2.070743E+05  1.001657E+02  4.405684E+03  1.477149E+05  4.980500E+03 -1.934130E+04
       306   6  2.074073E+05  3.065101E+01  2.030992E+03  1.857542E+05  2.774171E+03 -4.334149E+03
       306   7 -3.543138E+05 -1.339042E+05 -1.064099E+05  1.852317E+05  2.208971E+04 -3.262646E+04
       306   8 -1.139835E+05 -7.713873E+04 -6.074225E+04  1.476029E+05  2.195643E+04 -1.933590E+04
       306   9  1.266615E+05 -1.947432E+04 -1.476381E+04  1.860548E+05  2.181850E+04 -4.325089E+03
       306  10  7.693305E+05  1.367436E+05  1.234457E+05  1.862757E+05  6.189802E-11 -2.670935E-10
       306  11  5.282306E+05  7.733236E+04  6.954836E+04  1.478267E+05  1.350927E-10 -5.926718E-11
       306  12  2.881598E+05  1.953531E+04  1.882626E+04  1.854536E+05  1.704883E-10 -1.271998E-10
       306  13  2.073581E+05  1.428958E+03  8.524790E+03  1.857538E+05  1.078774E-10 -1.996643E-10
       306  14  2.070742E+05  9.975729E+01  4.404934E+03  1.477150E+05 -3.726816E-12 -6.041410E-11
       306  15  2.074073E+05  3.062877E+01  2.030942E+03  1.857542E+05  4.596024E-11  1.701061E-10
       306  16 -3.543146E+05 -1.339054E+05 -1.064128E+05  1.852323E+05 -2.214390E-11 -1.161303E-10
       306  17 -1.139841E+05 -7.713926E+04 -6.074386E+04  1.476033E+05  2.809671E-11 -2.748875E-10
       306  18  1.266610E+05 -1.947447E+04 -1.476474E+04  1.860548E+05 -1.985043E-10 -1.324721E-10
       306  19  7.693309E+05  1.367447E+05  1.234478E+05  1.862759E+05  7.738473E+03  3.263119E+04
       306  20  5.282308E+05  7.733280E+04  6.954933E+04  1.478269E+05  1.200404E+04  1.934671E+04
       306  21  2.881601E+05  1.953540E+04  1.882680E+04  1.854536E+05  1.627260E+04  4.343190E+03
       306  22  2.073584E+05  1.430115E+03  8.526888E+03  1.857536E+05 -7.182243E+03  3.262882E+04
       306  23  2.070743E+05  1.001657E+02  4.405684E+03  1.477149E+05 -4.980500E+03  1.934130E+04
       306  24  2.074073E+05  3.065101E+01  2.030992E+03  1.857542E+05 -2.774171E+03  4.334149E+03
       306  25 -3.543138E+05 -1.339042E+05 -1.064099E+05  1.852317E+05 -2.208971E+04  3.262646E+04
       306  26 -1.139835E+05 -7.713873E+04 -6.074225E+04  1.476029E+05 -2.195643E+04  1.933590E+04
       306  27  1.266615E+05 -1.947432E+04 -1.476381E+04  1.860548E+05 -2.181850E+04  4.325089E+03
       307   1  1.151375E+05 -2.206459E+04 -1.794495E+04  1.855274E+05 -1.656018E+04  5.038599E+03
       307   2 -1.251413E+05 -7.996145E+04 -6.796077E+04  1.476227E+05 -1.421206E+04  2.004475E+04
       307   3 -3.658356E+05 -1.386024E+05 -1.196952E+05  1.857997E+05 -1.186011E+04  3.331457E+04
       307   4  2.072449E+05  1.698862E+02  1.134824E+03  1.857544E+05  2.488188E+03  5.047613E+03
       307   5  2.072759E+05  7.414034E+00 -5.234375E+02  1.477150E+05  2.750132E+03  2.005003E+04
       307   6  2.071949E+05 -5.345469E+02 -2.451272E+03  1.857547E+05  3.016826E+03  3.331673E+04
       307   7  2.993611E+05  2.240402E+04  2.021550E+04  1.859814E+05  2.153934E+04  5.056641E+03
       307   8  5.397989E+05  7.996955E+04  6.690922E+04  1.478072E+05  1.972124E+04  2.005532E+04
       307   9  7.805381E+05  1.375129E+05  1.147761E+05  1.857096E+05  1.790724E+04  3.331889E+04
       307  10  1.151372E+05 -2.206469E+04 -1.794552E+04  1.855274E+05 -2.346415E-10  2.139484E-12
       307  11 -1.251416E+05 -7.996193E+04 -6.796190E+04  1.476229E+05 -5.964584E-12  4.843487E-10
       307  12 -3.658361E+05 -1.386037E+05 -1.196976E+05  1.858000E+05  7.202393E-10  1.096065E-10
       307  13  2.072449E+05  1.698571E+02  1.134764E+03  1.857544E+05 -1.262177E-10 -3.705777E-12
       307  14  2.072758E+05  6.980301E+00 -5.242072E+02  1.477149E+05 -3.831983E-10 -9.824746E-11
       307  15  2.071946E+05 -5.357414E+02 -2.453375E+03  1.857546E+05  5.013820E-11  4.148990E-11
       307  16  2.993606E+05  2.240387E+04  2.021458E+04  1.859813E+05  3.065039E-10  1.850119E-10
       307  17  5.397984E+05  7.996902E+04  6.690773E+04  1.478069E+05  3.574767E-11  8.357101E-11
       307  18  7.805374E+05  1.375116E+05  1.147734E+05  1.857091E+05 -6.483748E-10 -5.303948E-11
       307  19  1.151375E+05 -2.206459E+04 -1.794495E+04  1.855274E+05  1.656018E+04 -5.038599E+03
       307  20 -1.251413E+05 -7.996145E+04 -6.796077E+04  1.476227E+05  1.421206E+04 -2.004475E+04
       307  21 -3.658356E+05 -1.386024E+05 -1.196952E+05  1.857997E+05  1.186011E+04 -3.331457E+04
       307  22  2.072449E+05  1.698862E+02  1.134824E+03  1.857544E+05 -2.488188E+03 -5.047613E+03
       307  23  2.072759E+05  7.414034E+00 -5.234375E+02  1.477150E+05 -2.750132E+03 -2.005003E+04
       307  24  2.071949E+05 -5.345469E+02 -2.451272E+03  1.857547E+05 -3.016826E+03 -3.331673E+04
       307  25  2.993611E+05  2.240402E+04  2.021550E+04  1.859814E+05 -2.153934E+04 -5.056641E+03
       307  26  5.397989E+05  7.996955E+04  6.690922E+04  1.478072E+05 -1.972124E+04 -2.005532E+04
       307  27  7.805381E+05  1.375129E+05  1.147761E+05  1.857096E+05 -1.790724E+04 -3.331889E+04
       308   1 -5.402696E+05 -1.796390E+05 -1.560582E+05  1.837436E+05 -1.924163E+04  4.375813E+04
       308   2 -7.762897E+05 -2.403366E+05 -2.169661E+05  1.510440E+05  2.416324E+04  4.608073E+04
       308   3 -1.021905E+06 -3.180552E+05 -3.103574E+05  1.926964E+05  6.753325E+04  1.519667E+04
       308   4  2.065677E+05  2.740533E+02 -3.497516E+03  1.853705E+05  3.444693E+03  4.375869E+04
       308   5  2.078553E+05 -1.410649E+03 -6.842367E+03  1.481958E+05  7.051220E+03  4.607633E+04
       308   6  2.064221E+05 -1.318548E+04 -1.500846E+04  1.853685E+05  1.063994E+04  1.521049E+04
       308   7  9.539363E+05  1.801524E+05  1.490357E+05  1.869993E+05  2.615782E+04  4.375936E+04
       308   8  1.192913E+06  2.374523E+05  2.032265E+05  1.453430E+05 -1.008757E+04  4.607211E+04
       308   9  1.436138E+06  2.915763E+05  2.802453E+05  1.780260E+05 -4.636565E+04  1.522565E+04
       308  10 -5.402705E+05 -1.796411E+05 -1.560625E+05  1.837443E+05  9.989980E-11  3.580217E-11
       308  11 -7.762909E+05 -2.403390E+05 -2.169712E+05  1.510431E+05  1.144516E-10  1.440885E-10
       308  12 -1.021910E+06 -3.180566E+05 -3.103664E+05  1.926956E+05  1.740479E-10  1.721000E-10
       308  13  2.065671E+05  2.719938E+02 -3.501137E+03  1.853704E+05 -4.635026E-11  4.551292E-11
       308  14  2.078547E+05 -1.412942E+03 -6.846450E+03  1.481956E+05  5.765777E-10 -2.396582E-10
       308  15  2.064219E+05 -1.318575E+04 -1.500910E+04  1.853684E+05 -4.418422E-11  9.626280E-11
       308  16  9.539351E+05  1.801502E+05  1.490308E+05  1.869984E+05 -8.886013E-11 -2.610671E-11
       308  17  1.192913E+06  2.374500E+05  2.032223E+05  1.453434E+05  6.347895E-11 -1.193798E-11
       308  18  1.436136E+06  2.915754E+05  2.802409E+05  1.780265E+05 -2.942571E-10  1.741424E-10
       308  19 -5.402696E+05 -1.796390E+05 -1.560582E+05  1.837436E+05  1.924163E+04 -4.375813E+04
       308  20 -7.762897E+05 -2.403366E+05 -2.169661E+05  1.510440E+05 -2.416324E+04 -4.608073E+04
       308  21 -1.021905E+06 -3.180552E+05 -3.103574E+05  1.926964E+05 -6.753325E+04 -1.519667E+04
       308  22  2.065677E+05  2.740533E+02 -3.497516E+03  1.853705E+05 -3.444693E+03 -4.375869E+04
       308  23  2.078553E+05 -1.410649E+03 -6.842367E+03  1.481958E+05 -7.051220E+03 -4.607633E+04
       308  24  2.064221E+05 -1.318548E+04 -1.500846E+04  1.853685E+05 -1.063994E+04 -1.521049E+04
       308  25  9.539363E+05  1.801524E+05  1.490357E+05  1.869993E+05 -2.615782E+04 -4.375936E+04
       308  26  1.192913E+06  2.374523E+05  2.032265E+05  1.453430E+05  1.008757E+04 -4.607211E+04
       308  27  1.436138E+06  2.915763E+05  2.802453E+05  1.780260E+05  4.636565E+04 -1.522565E+04
       309   1  1.889299E+06  3.755050E+05  3.758307E+05  2.298747E+05  1.073647E+05 -1.565067E+04
       309   2  1.622438E+06  2.505664E+05  2.488698E+05  1.701914E+05  4.873096E+04 -4.716350E+04
       309   3  1.377360E+06  1.810110E+05  1.738849E+05  1.895116E+05 -9.858688E+03 -4.436195E+04
       309   4  6.177129E+05  6.054521E+04  7.060857E+04  1.967428E+05  4.876022E+04 -1.564270E+04
       309   5  6.105008E+05  5.282034E+03  3.306232E+04  1.572376E+05  3.143829E+04 -4.716951E+04
       309   6  6.178916E+05 -1.703005E+03  1.889447E+04  1.967344E+05  1.413451E+04 -4.436048E+04
       309   7 -6.523863E+05 -2.545260E+05 -2.347148E+05  1.636787E+05 -9.725030E+03 -1.562850E+04
       309   8 -4.004731E+05 -2.400682E+05 -1.828031E+05  1.443051E+05  1.417331E+04 -4.717481E+04
       309   9 -1.410286E+05 -1.844525E+05 -1.361242E+05  2.039481E+05  3.809893E+04 -4.435844E+04
       309  10  1.889286E+06  3.755017E+05  3.758087E+05  2.298760E+05 -4.436929E-11 -3.348884E-11
       309  11  1.622435E+06  2.505634E+05  2.488612E+05  1.701933E+05 -2.079879E-10 -1.305369E-11
       309  12  1.377360E+06  1.810088E+05  1.738810E+05  1.895113E+05  6.149180E-10 -3.534912E-10
       309  13  6.177103E+05  6.054431E+04  7.060364E+04  1.967434E+05 -1.219943E-10  5.698551E-11
       309  14  6.104992E+05  5.279378E+03  3.305628E+04  1.572388E+05 -1.963183E-10  3.205357E-10
       309  15  6.178909E+05 -1.705173E+03  1.889039E+04  1.967349E+05 -8.536830E-11 -1.894064E-10
       309  16 -6.523864E+05 -2.545263E+05 -2.347155E+05  1.636786E+05 -3.153702E-10  1.939934E-10
       309  17 -4.004739E+05 -2.400706E+05 -1.828076E+05  1.443056E+05 -4.407222E-10  3.217216E-10
       309  18 -1.410307E+05 -1.844550E+05 -1.361306E+05  2.039495E+05 -7.403692E-10 -5.086244E-11
       309  19  1.889299E+06  3.755050E+05  3.758307E+05  2.298747E+05 -1.073647E+05  1.565067E+04
       309  20  1.622438E+06  2.505664E+05  2.488698E+05  1.701914E+05 -4.873096E+04  4.716350E+04
       309  21  1.377360E+06  1.810110E+05  1.738849E+05  1.895116E+05  9.858688E+03  4.436195E+04
       309  22  6.177129E+05  6.054521E+04  7.060857E+04  1.967428E+05 -4.876022E+04  1.564270E+04
       309  23  6.105008E+05  5.282034E+03  3.306232E+04  1.572376E+05 -3.143829E+04  4.716951E+04
       309  24  6.178916E+05 -1.703005E+03  1.889447E+04  1.967344E+05 -1.413451E+04  4.436048E+04
       309  25 -6.523863E+05 -2.545260E+05 -2.347148E+05  1.636787E+05  9.725030E+03  1.562850E+04
       309  26 -4.004731E+05 -2.400682E+05 -1.828031E+05  1.443051E+05 -1.417331E+04  4.717481E+04
       309  27 -1.410286E+05 -1.844525E+05 -1.361242E+05  2.039481E+05 -3.809893E+04  4.435844E+04
       310   1  1.189824E+06  1.407639E+05  1.323386E+05  1.979775E+05 -4.336334E+03 -3.332124E+04
       310   2  9.338631E+05  7.691947E+04  7.311765E+04  1.569769E+05 -1.064212E+04 -1.919565E+04
       310   3  6.794299E+05  1.559334E+04  1.862277E+04  1.966482E+05 -1.695014E+04 -3.280069E+03
       310   4  6.149372E+05  2.397143E+03  1.479825E+04  1.971089E+05  1.155877E+04 -3.331820E+04
       310   5  6.144182E+05  1.273920E+02  8.320617E+03  1.567723E+05  7.404257E+03 -1.918936E+04
       310   6  6.149903E+05  6.884199E+00  5.080137E+03  1.971100E+05  3.244980E+03 -3.269903E+03
       310   7  4.036397E+04 -1.359902E+05 -1.027586E+05  1.962410E+05  2.743944E+04 -3.331520E+04
       310   8  2.950709E+05 -7.667085E+04 -5.648050E+04  1.565678E+05  2.544154E+04 -1.918308E+04
       310   9  5.505555E+05 -1.557961E+04 -8.461198E+03  1.975717E+05  2.343804E+04 -3.259706E+03
       310  10  1.189824E+06  1.407627E+05  1.323364E+05  1.979774E+05 -3.409521E-11 -3.432739E-10
       310  11  9.338629E+05  7.691904E+04  7.311674E+04  1.569767E+05  8.947793E-11  6.392349E-11
       310  12  6.794296E+05  1.559325E+04  1.862221E+04  1.966481E+05 -1.987591E-10 -1.130382E-10
       310  13  6.149368E+05  2.395915E+03  1.479592E+04  1.971092E+05  1.679913E-11 -2.765448E-10
       310  14  6.144180E+05  1.269817E+02  8.319822E+03  1.567724E+05 -3.236916E-10 -1.416014E-10
       310  15  6.149903E+05  6.869885E+00  5.080097E+03  1.971100E+05 -2.870987E-10 -1.556244E-10
       310  16  4.036286E+04 -1.359916E+05 -1.027621E+05  1.962418E+05  3.050802E-11 -1.134391E-10
       310  17  2.950702E+05 -7.667142E+04 -5.648241E+04  1.565682E+05  5.175457E-11 -3.817762E-10
       310  18  5.505549E+05 -1.557977E+04 -8.462250E+03  1.975717E+05  1.928008E-10  1.697380E-10
       310  19  1.189824E+06  1.407639E+05  1.323386E+05  1.979775E+05  4.336334E+03  3.332124E+04
       310  20  9.338631E+05  7.691947E+04  7.311765E+04  1.569769E+05  1.064212E+04  1.919565E+04
       310  21  6.794299E+05  1.559334E+04  1.862277E+04  1.966482E+05  1.695014E+04  3.280069E+03
       310  22  6.149372E+05  2.397143E+03  1.479825E+04  1.971089E+05 -1.155877E+04  3.331820E+04
       310  23  6.144182E+05  1.273920E+02  8.320617E+03  1.567723E+05 -7.404257E+03  1.918936E+04
       310  24  6.149903E+05  6.884199E+00  5.080137E+03  1.971100E+05 -3.244980E+03  3.269903E+03
       310  25  4.036397E+04 -1.359902E+05 -1.027586E+05  1.962410E+05 -2.743944E+04  3.331520E+04
       310  26  2.950709E+05 -7.667085E+04 -5.648050E+04  1.565678E+05 -2.544154E+04  1.918308E+04
       310  27  5.505555E+05 -1.557961E+04 -8.461198E+03  1.975717E+05 -2.343804E+04  3.259706E+03
       311   1  4.959531E+05 -2.849898E+04 -2.036723E+04  1.969909E+05 -1.778538E+04  6.665928E+03
       311   2  2.408581E+05 -8.985520E+04 -7.275588E+04  1.565853E+05 -1.703496E+04  2.256587E+04
       311   3 -1.425397E+04 -1.512238E+05 -1.256406E+05  1.968576E+05 -1.627918E+04  3.659531E+04
       311   4  6.148157E+05  1.554129E+02  4.114718E+03  1.971100E+05  2.425633E+03  6.675959E+03
       311   5  6.146285E+05  1.706837E+01  3.007978E+03  1.567726E+05  9.270056E+02  2.257151E+04
       311   6  6.147560E+05  2.609943E+02  2.968175E+03  1.971100E+05 -5.659894E+02  3.659729E+04
       311   7  7.336925E+05  2.880913E+04  2.859744E+04  1.972291E+05  2.264044E+04  6.685996E+03
       311   8  9.885325E+05  8.988083E+04  7.876579E+04  1.569599E+05  1.889958E+04  2.257716E+04
       311   9  1.244142E+06  1.517212E+05  1.315569E+05  1.973626E+05  1.516283E+04  3.659928E+04
       311  10  4.959528E+05 -2.849911E+04 -2.036791E+04  1.969910E+05  6.470055E-10  2.801425E-10
       311  11  2.408576E+05 -8.985583E+04 -7.275738E+04  1.565856E+05 -7.952315E-11  6.570803E-11
       311  12 -1.425462E+04 -1.512254E+05 -1.256436E+05  1.968581E+05 -5.800742E-10  4.933884E-11
       311  13  6.148156E+05  1.553635E+02  4.114623E+03  1.971100E+05  9.256693E-11  7.341163E-11
       311  14  6.146284E+05  1.652091E+01  3.007019E+03  1.567725E+05  2.766132E-10  4.164840E-11
       311  15  6.147556E+05  2.595555E+02  2.965657E+03  1.971100E+05 -5.291342E-12  1.394244E-10
       311  16  7.336919E+05  2.880894E+04  2.859639E+04  1.972290E+05 -3.105564E-10  5.672763E-11
       311  17  9.885320E+05  8.988019E+04  7.876416E+04  1.569596E+05  2.289390E-10 -1.440750E-10
       311  18  1.244142E+06  1.517197E+05  1.315539E+05  1.973622E+05  3.920413E-10 -6.153412E-11
       311  19  4.959531E+05 -2.849898E+04 -2.036723E+04  1.969909E+05  1.778538E+04 -6.665928E+03
       311  20  2.408581E+05 -8.985520E+04 -7.275588E+04  1.565853E+05  1.703496E+04 -2.256587E+04
       311  21 -1.425397E+04 -1.512238E+05 -1.256406E+05  1.968576E+05  1.627918E+04 -3.659531E+04
       311  22  6.148157E+05  1.554129E+02  4.114718E+03  1.971100E+05 -2.425633E+03 -6.675959E+03
       311  23  6.146285E+05  1.706837E+01  3.007978E+03  1.567726E+05 -9.270056E+02 -2.257151E+04
       311  24  6.147560E+05  2.609943E+02  2.968175E+03  1.971100E+05  5.659894E+02 -3.659729E+04
       311  25  7.336925E+05  2.880913E+04  2.859744E+04  1.972291E+05 -2.264044E+04 -6.685996E+03
       311  26  9.885325E+05  8.988083E+04  7.876579E+04  1.569599E+05 -1.889958E+04 -2.257716E+04
       311  27  1.244142E+06  1.517212E+05  1.315569E+05  1.973626E+05 -1.516283E+04 -3.659928E+04
       312   1 -1.983018E+05 -1.961724E+05 -1.628441E+05  1.975510E+05 -2.520124E+04  4.769086E+04
       312   2 -4.514367E+05 -2.581100E+05 -2.227788E+05  1.557028E+05  1.532459E+04  4.993983E+04
       312   3 -7.097601E+05 -3.212034E+05 -3.093329E+05  1.927814E+05  5.581176E+04  1.643665E+04
       312   4  6.151195E+05 -3.105611E+02  3.206495E+03  1.967193E+05 -1.072072E+03  4.769091E+04
       312   5  6.139360E+05  4.173890E+02  4.534421E+03  1.572607E+05 -3.418901E+03  4.993526E+04
       312   6  6.149485E+05  7.436157E+03  9.019398E+03  1.967208E+05 -5.787218E+03  1.645549E+04
       312   7  1.429171E+06  1.955102E+05  1.692244E+05  1.958863E+05  2.308813E+04  4.769089E+04
       312   8  1.680378E+06  2.588710E+05  2.317835E+05  1.588212E+05 -2.219410E+04  4.993061E+04
       312   9  1.941272E+06  3.359502E+05  3.272613E+05  2.006685E+05 -6.751722E+04  1.647355E+04
       312  10 -1.983031E+05 -1.961750E+05 -1.628496E+05  1.975520E+05  1.576518E-10  2.078444E-10
       312  11 -4.514377E+05 -2.581127E+05 -2.227839E+05  1.557022E+05  1.375139E-10  3.018341E-10
       312  12 -7.097635E+05 -3.212046E+05 -3.093393E+05  1.927807E+05 -1.607481E-10  3.130848E-10
       312  13  6.151189E+05 -3.130044E+02  3.202217E+03  1.967193E+05 -2.298206E-10  3.764111E-11
       312  14  6.139353E+05  4.147074E+02  4.529711E+03  1.572608E+05  3.876665E-10 -2.658108E-10
       312  15  6.149484E+05  7.435857E+03  9.018826E+03  1.967209E+05  3.987514E-11 -3.284093E-10
       312  16  1.429170E+06  1.955076E+05  1.692191E+05  1.958854E+05  2.951794E-10  4.930536E-12
       312  17  1.680377E+06  2.588682E+05  2.317778E+05  1.588221E+05 -3.930007E-10 -3.094153E-10
       312  18  1.941267E+06  3.359487E+05  3.272522E+05  2.006694E+05  5.819396E-10 -6.036289E-10
       312  19 -1.983018E+05 -1.961724E+05 -1.628441E+05  1.975510E+05  2.520124E+04 -4.769086E+04
       312  20 -4.514367E+05 -2.581100E+05 -2.227788E+05  1.557028E+05 -1.532459E+04 -4.993983E+04
       312  21 -7.097601E+05 -3.212034E+05 -3.093329E+05  1.927814E+05 -5.581176E+04 -1.643665E+04
       312  22  6.151195E+05 -3.105611E+02  3.206495E+03  1.967193E+05  1.072072E+03 -4.769091E+04
       312  23  6.139360E+05  4.173890E+02  4.534421E+03  1.572607E+05  3.418901E+03 -4.993526E+04
       312  24  6.149485E+05  7.436157E+03  9.019398E+03  1.967208E+05  5.787218E+03 -1.645549E+04
       312  25  1.429171E+06  1.955102E+05  1.692244E+05  1.958863E+05 -2.308813E+04 -4.769089E+04
       312  26  1.680378E+06  2.588710E+05  2.317835E+05  1.588212E+05  2.219410E+04 -4.993061E+04
       312  27  1.941272E+06  3.359502E+05  3.272613E+05  2.006685E+05  6.751722E+04 -1.647355E+04
       313   1  2.494619E+06  4.411618E+05  4.456498E+05  2.812698E+05  1.354505E+05 -1.721547E+04
       313   2  2.178116E+06  2.773746E+05  2.879602E+05  2.046320E+05  6.270802E+04 -5.146639E+04
       313   3  1.891383E+06  1.933092E+05  1.974707E+05  2.211842E+05 -9.973704E+03 -4.734677E+04
       313   4  1.076691E+06  9.014297E+04  1.053318E+05  2.317567E+05  7.103150E+04 -1.721122E+04
       313   5  1.065950E+06  7.897611E+03  5.065207E+04  1.851584E+05  4.453471E+04 -5.147472E+04
       313   6  1.076946E+06 -2.550796E+03  3.119877E+04  2.317438E+05  1.806022E+04 -4.734368E+04
       313   7 -3.393885E+05 -2.610103E+05 -2.351118E+05  1.823564E+05  6.758418E+03 -1.719675E+04
       313   8 -4.505235E+04 -2.616583E+05 -1.867260E+05  1.657199E+05  2.639334E+04 -5.148192E+04
       313   9  2.631398E+05 -1.984514E+05 -1.351051E+05  2.422891E+05  4.605812E+04 -4.733962E+04
       313  10  2.494600E+06  4.411566E+05  4.456149E+05  2.812717E+05 -1.366027E-10 -4.060498E-11
       313  11  2.178111E+06  2.773708E+05  2.879478E+05  2.046346E+05  1.412890E-10 -2.428089E-10
       313  12  1.891382E+06  1.933067E+05  1.974663E+05  2.211838E+05 -4.607970E-11  3.511970E-10
       313  13  1.076686E+06  9.014130E+04  1.053218E+05  2.317576E+05 -3.050253E-10  4.832822E-10
       313  14  1.065948E+06  7.894232E+03  5.064337E+04  1.851602E+05 -1.032586E-10  2.036391E-10
       313  15  1.076945E+06 -2.553292E+03  3.119395E+04  2.317444E+05  6.398608E-10  4.834438E-10
       313  16 -3.393887E+05 -2.610106E+05 -2.351124E+05  1.823565E+05 -6.329384E-10  2.817387E-11
       313  17 -4.505381E+04 -2.616613E+05 -1.867323E+05  1.657210E+05 -3.441735E-10  4.267835E-10
       313  18  2.631370E+05 -1.984543E+05 -1.351133E+05  2.422909E+05  2.278348E-10  3.603954E-10
       313  19  2.494619E+06  4.411618E+05  4.456498E+05  2.812698E+05 -1.354505E+05  1.721547E+04
       313  20  2.178116E+06  2.773746E+05  2.879602E+05  2.046320E+05 -6.270802E+04  5.146639E+04
       313  21  1.891383E+06  1.933092E+05  1.974707E+05  2.211842E+05  9.973704E+03  4.734677E+04
       313  22  1.076691E+06  9.014297E+04  1.053318E+05  2.317567E+05 -7.103150E+04  1.721122E+04
       313  23  1.065950E+06  7.897611E+03  5.065207E+04  1.851584E+05 -4.453471E+04  5.147472E+04
       313  24  1.076946E+06 -2.550796E+03  3.119877E+04  2.317438E+05 -1.806022E+04  4.734368E+04
       313  25 -3.393885E+05 -2.610103E+05 -2.351118E+05  1.823564E+05 -6.758418E+03  1.719675E+04
       313  26 -4.505235E+04 -2.616583E+05 -1.867260E+05  1.657199E+05 -2.639334E+04  5.148192E+04
       313  27  2.631398E+05 -1.984514E+05 -1.351051E+05  2.422891E+05 -4.605812E+04  4.733962E+04
       314   1  1.669817E+06  1.471860E+05  1.484025E+05  2.336905E+05 -5.407215E+03 -3.442473E+04
       314   2  1.368004E+06  7.128348E+04  8.018936E+04  1.853417E+05 -1.773972E+04 -1.764971E+04
       314   3  1.068883E+06 -6.474787E+02  2.097659E+04  2.319564E+05 -3.007184E+04  1.111968E+03
       314   4  1.072661E+06  3.508095E+03  2.624198E+04  2.321445E+05  1.356536E+04 -3.441982E+04
       314   5  1.071591E+06  3.863595E+01  1.997165E+04  1.846621E+05  3.624105E+03 -1.764113E+04
       314   6  1.072719E+06  1.341992E+02  2.105142E+04  2.321456E+05 -6.322480E+03  1.124909E+03
       314   7  4.758430E+05 -1.401919E+05 -9.593613E+04  2.305998E+05  3.252004E+04 -3.441499E+04
       314   8  7.752618E+05 -7.121143E+04 -4.024893E+04  1.839827E+05  2.497793E+04 -1.763259E+04
       314   9  1.076556E+06  9.161794E+02  2.112837E+04  2.323348E+05  1.742701E+04  1.137865E+03
       314  10  1.669817E+06  1.471847E+05  1.484003E+05  2.336903E+05  3.037205E-12  1.863010E-10
       314  11  1.368004E+06  7.128306E+04  8.018819E+04  1.853415E+05  3.134287E-10  1.391086E-10
       314  12  1.068882E+06 -6.477223E+02  2.097489E+04  2.319564E+05  2.596994E-11  3.007496E-11
       314  13  1.072660E+06  3.506772E+03  2.623941E+04  2.321448E+05  5.289460E-10  5.397224E-10
       314  14  1.071591E+06  3.829805E+01  1.997104E+04  1.846621E+05  5.401783E-10  4.830396E-10
       314  15  1.072719E+06  1.341872E+02  2.105134E+04  2.321456E+05 -1.684848E-10 -1.683927E-10
       314  16  4.758415E+05 -1.401935E+05 -9.594035E+04  2.306007E+05 -3.651700E-10  1.900794E-10
       314  17  7.752610E+05 -7.121193E+04 -4.025068E+04  1.839831E+05  2.801442E-10  4.501476E-10
       314  18  1.076556E+06  9.160967E+02  2.112780E+04  2.323348E+05  1.367227E-10  3.597001E-11
       314  19  1.669817E+06  1.471860E+05  1.484025E+05  2.336905E+05  5.407215E+03  3.442473E+04
       314  20  1.368004E+06  7.128348E+04  8.018936E+04  1.853417E+05  1.773972E+04  1.764971E+04
       314  21  1.068883E+06 -6.474787E+02  2.097659E+04  2.319564E+05  3.007184E+04 -1.111968E+03
       314  22  1.072661E+06  3.508095E+03  2.624198E+04  2.321445E+05 -1.356536E+04  3.441982E+04
       314  23  1.071591E+06  3.863595E+01  1.997165E+04  1.846621E+05 -3.624105E+03  1.764113E+04
       314  24  1.072719E+06  1.341992E+02  2.105142E+04  2.321456E+05  6.322480E+03 -1.124909E+03
       314  25  4.758430E+05 -1.401919E+05 -9.593613E+04  2.305998E+05 -3.252004E+04  3.441499E+04
       314  26  7.752618E+05 -7.121143E+04 -4.024893E+04  1.839827E+05 -2.497793E+04  1.763259E+04
       314  27  1.076556E+06  9.161794E+02  2.112837E+04  2.323348E+05 -1.742701E+04 -1.137865E+03
       315   1  8.536479E+05 -5.314375E+04 -2.092987E+04  2.339272E+05 -3.412161E+04  1.281483E+04
       315   2  5.511355E+05 -1.246432E+05 -6.970630E+04  1.838976E+05 -4.904570E+04  3.148775E+04
       315   3  2.527865E+05 -1.879030E+05 -1.067045E+05  2.288583E+05 -6.395408E+04  4.784459E+04
       315   4  1.073232E+06 -3.138310E+02  2.387891E+04  2.321498E+05 -1.030135E+04  1.282717E+04
       315   5  1.070901E+06  2.601391E+02  3.550050E+04  1.846558E+05 -2.802505E+04  3.149315E+04
       315   6  1.073122E+06  9.557629E+03  6.083197E+04  2.321458E+05 -4.574002E+04  4.784414E+04
       315   7  1.292863E+06  5.251339E+04  6.868728E+04  2.303717E+05  1.352718E+04  1.283938E+04
       315   8  1.590923E+06  1.251470E+05  1.406950E+05  1.854145E+05 -6.987150E+03  3.149861E+04
       315   9  1.894096E+06  2.069764E+05  2.283341E+05  2.354375E+05 -2.750233E+04  4.784388E+04
       315  10  8.536466E+05 -5.314424E+04 -2.093236E+04  2.339275E+05  4.485843E-10  5.500282E-10
       315  11  5.511326E+05 -1.246450E+05 -6.971268E+04  1.838989E+05  2.296962E-10 -8.543763E-11
       315  12  2.527815E+05 -1.879066E+05 -1.067165E+05  2.288607E+05  1.129772E-10 -4.159079E-10
       315  13  1.073232E+06 -3.140363E+02  2.387840E+04  2.321499E+05 -1.684278E-11 -1.155827E-11
       315  14  1.070899E+06  2.588627E+02  3.549717E+04  1.846565E+05  1.764636E-10 -1.009821E-11
       315  15  1.073119E+06  9.554608E+03  6.082374E+04  2.321475E+05 -1.912251E-10 -5.163409E-10
       315  16  1.292863E+06  5.251317E+04  6.868663E+04  2.303716E+05  4.947030E-11 -1.236167E-10
       315  17  1.590923E+06  1.251459E+05  1.406930E+05  1.854147E+05 -4.193323E-11 -2.314377E-10
       315  18  1.894095E+06  2.069738E+05  2.283284E+05  2.354386E+05  3.046459E-10 -5.873788E-10
       315  19  8.536479E+05 -5.314375E+04 -2.092987E+04  2.339272E+05  3.412161E+04 -1.281483E+04
       315  20  5.511355E+05 -1.246432E+05 -6.970630E+04  1.838976E+05  4.904570E+04 -3.148775E+04
       315  21  2.527865E+05 -1.879030E+05 -1.067045E+05  2.288583E+05  6.395408E+04 -4.784459E+04
       315  22  1.073232E+06 -3.138310E+02  2.387891E+04  2.321498E+05  1.030135E+04 -1.282717E+04
       315  23  1.070901E+06  2.601391E+02  3.550050E+04  1.846558E+05  2.802505E+04 -3.149315E+04
       315  24  1.073122E+06  9.557629E+03  6.083197E+04  2.321458E+05  4.574002E+04 -4.784414E+04
       315  25  1.292863E+06  5.251339E+04  6.868728E+04  2.303717E+05 -1.352718E+04 -1.283938E+04
       315  26  1.590923E+06  1.251470E+05  1.406950E+05  1.854145E+05  6.987150E+03 -3.149861E+04
       315  27  1.894096E+06  2.069764E+05  2.283341E+05  2.354375E+05  2.750233E+04 -4.784388E+04
       316   1  4.740291E+04 -2.565604E+05 -1.345012E+05  2.610755E+05 -8.486998E+04  6.097596E+04
       316   2 -2.789129E+05 -3.018177E+05 -1.503583E+05  1.328715E+05 -1.020838E+05  6.284897E+04
       316   3 -5.558931E+05 -1.613895E+05 -1.084534E+05  9.780839E+04 -1.193211E+05  2.066640E+04
       316   4  1.084996E+06 -6.850017E+03  7.707970E+04  2.317021E+05 -5.628863E+04  6.097562E+04
       316   5  1.055668E+06  2.183977E+04  1.340593E+05  1.851975E+05 -1.264715E+05  6.283625E+04
       316   6  1.084620E+06  2.451580E+05  2.854442E+05  2.317895E+05 -1.966911E+05  2.067953E+04
       316   7  2.123616E+06  2.427968E+05  2.886075E+05  2.022785E+05 -2.766033E+04  6.097257E+04
       316   8  2.391933E+06  3.453921E+05  4.183780E+05  2.376375E+05 -1.509106E+05  6.281945E+04
       316   9  2.727648E+06  6.515811E+05  6.791830E+05  3.661262E+05 -2.742644E+05  2.065932E+04
       316  10  4.739418E+04 -2.565663E+05 -1.345217E+05  2.610796E+05 -1.520517E-10 -6.608247E-10
       316  11 -2.789251E+05 -3.018248E+05 -1.503853E+05  1.328766E+05  8.055968E-11 -7.807027E-10
       316  12 -5.559085E+05 -1.613938E+05 -1.084809E+05  9.781038E+04 -7.135532E-10 -6.731867E-10
       316  13  1.084992E+06 -6.854862E+03  7.706676E+04  2.317048E+05 -7.740109E-10 -6.237171E-10
       316  14  1.055650E+06  2.183124E+04  1.340218E+05  1.852039E+05  2.696060E-10 -6.756558E-10
       316  15  1.084578E+06  2.451472E+05  2.853708E+05  2.317928E+05 -2.302477E-10  9.668738E-11
       316  16  2.123614E+06  2.427926E+05  2.885991E+05  2.022798E+05 -9.703531E-11 -6.290977E-10
       316  17  2.391907E+06  3.453817E+05  4.183280E+05  2.376452E+05 -5.528263E-10 -2.281470E-10
       316  18  2.727567E+06  6.515605E+05  6.790414E+05  3.661308E+05  1.249510E-09 -6.112211E-10
       316  19  4.740291E+04 -2.565604E+05 -1.345012E+05  2.610755E+05  8.486998E+04 -6.097596E+04
       316  20 -2.789129E+05 -3.018177E+05 -1.503583E+05  1.328715E+05  1.020838E+05 -6.284897E+04
       316  21 -5.558931E+05 -1.613895E+05 -1.084534E+05  9.780839E+04  1.193211E+05 -2.066640E+04
       316  22  1.084996E+06 -6.850017E+03  7.707970E+04  2.317021E+05  5.628863E+04 -6.097562E+04
       316  23  1.055668E+06  2.183977E+04  1.340593E+05  1.851975E+05  1.264715E+05 -6.283625E+04
       316  24  1.084620E+06  2.451580E+05  2.854442E+05  2.317895E+05  1.966911E+05 -2.067953E+04
       316  25  2.123616E+06  2.427968E+05  2.886075E+05  2.022785E+05  2.766033E+04 -6.097257E+04
       316  26  2.391933E+06  3.453921E+05  4.183780E+05  2.376375E+05  1.509106E+05 -6.281945E+04
       316  27  2.727648E+06  6.515811E+05  6.791830E+05  3.661262E+05  2.742644E+05 -2.065932E+04
       317   1 -5.854082E+05  4.358255E+04 -1.749747E+04  1.875204E+04 -1.788258E+05 -1.790598E+04
       317   2 -7.970771E+05  2.560369E+05  8.109490E+04  8.461093E+04 -1.362113E+05 -5.552052E+04
       317   3 -1.072790E+06  2.324914E+05  9.302306E+04  2.253099E+05 -9.358593E+04 -5.499127E+04
       317   4 -2.003319E+06 -3.089433E+05 -3.584288E+05  1.884351E+05 -2.463562E+05 -1.791427E+04
       317   5 -1.966977E+06 -2.827143E+04 -1.684279E+05  1.510678E+05 -1.581849E+05 -5.553484E+04
       317   6 -2.002842E+06  8.184509E+03 -9.693656E+04  1.885762E+05 -6.997844E+04 -5.499323E+04
       317   7 -3.419315E+06 -6.615055E+05 -6.994708E+05  3.577286E+05 -3.137323E+05 -1.795961E+04
       317   8 -3.135574E+06 -3.126524E+05 -4.180256E+05  2.173975E+05 -1.801174E+05 -5.555390E+04
       317   9 -2.932065E+06 -2.161713E+05 -2.869391E+05  1.518985E+05 -4.640567E+04 -5.499799E+04
       317  10 -5.854426E+05  4.357361E+04 -1.755822E+04  1.874946E+04 -9.331788E-10  7.512439E-10
       317  11 -7.970978E+05  2.560286E+05  8.105421E+04  8.460484E+04  3.686935E-10 -4.009412E-10
       317  12 -1.072800E+06  2.324858E+05  9.300090E+04  2.253057E+05  2.627109E-09 -2.116251E-10
       317  13 -2.003385E+06 -3.089600E+05 -3.585438E+05  1.884315E+05 -6.506893E-10 -6.078708E-10
       317  14 -1.967005E+06 -2.828148E+04 -1.684809E+05  1.510608E+05 -3.964895E-10 -1.882177E-11
       317  15 -2.002848E+06  8.179946E+03 -9.695146E+04  1.885731E+05  7.089914E-10 -2.574021E-10
       317  16 -3.419421E+06 -6.615324E+05 -6.996574E+05  3.577241E+05 -9.747694E-10 -4.901532E-10
       317  17 -3.135610E+06 -3.126644E+05 -4.180926E+05  2.173894E+05 -1.890087E-09 -1.412940E-10
       317  18 -2.932068E+06 -2.161751E+05 -2.869488E+05  1.518964E+05 -3.678680E-09 -1.027220E-09
       317  19 -5.854082E+05  4.358255E+04 -1.749747E+04  1.875204E+04  1.788258E+05  1.790598E+04
       317  20 -7.970771E+05  2.560369E+05  8.109490E+04  8.461093E+04  1.362113E+05  5.552052E+04
       317  21 -1.072790E+06  2.324914E+05  9.302306E+04  2.253099E+05  9.358593E+04  5.499127E+04
       317  22 -2.003319E+06 -3.089433E+05 -3.584288E+05  1.884351E+05  2.463562E+05  1.791427E+04
       317  23 -1.966977E+06 -2.827143E+04 -1.684279E+05  1.510678E+05  1.581849E+05  5.553484E+04
       317  24 -2.002842E+06  8.184509E+03 -9.693656E+04  1.885762E+05  6.997844E+04  5.499323E+04
       317  25 -3.419315E+06 -6.615055E+05 -6.994708E+05  3.577286E+05  3.137323E+05  1.795961E+04
       317  26 -3.135574E+06 -3.126524E+05 -4.180256E+05  2.173975E+05  1.801174E+05  5.555390E+04
       317  27 -2.932065E+06 -2.161713E+05 -2.869391E+05  1.518985E+05  4.640567E+04  5.499799E+04
       318   1 -1.235098E+06  1.693796E+05  7.734333E+04  1.850258E+05 -7.139367E+04 -4.419820E+04
       318   2 -1.477503E+06  1.219962E+05  5.768419E+04  1.494650E+05 -5.122911E+04 -3.099128E+04
       318   3 -1.725039E+06  6.402439E+04  2.225277E+04  1.914650E+05 -3.107876E+04 -1.574735E+04
       318   4 -1.988025E+06 -1.228357E+04 -7.671020E+04  1.891377E+05 -5.674989E+04 -4.420168E+04
       318   5 -1.985161E+06 -3.223532E+02 -4.527662E+04  1.503532E+05 -3.417302E+04 -3.099026E+04
       318   6 -1.987917E+06  6.250422E+02 -3.131220E+04  1.891349E+05 -1.160267E+04 -1.574106E+04
       318   7 -2.740411E+06 -1.939823E+05 -2.307930E+05  1.932443E+05 -4.212354E+04 -4.420496E+04
       318   8 -2.492572E+06 -1.226568E+05 -1.482498E+05  1.512407E+05 -1.713064E+04 -3.098918E+04
       318   9 -2.250728E+06 -6.277841E+04 -8.487938E+04  1.868058E+05  7.865313E+03 -1.573492E+04
       318  10 -1.235104E+06  1.693762E+05  7.733006E+04  1.850233E+05  3.291069E-10 -5.514257E-10
       318  11 -1.477506E+06  1.219944E+05  5.767745E+04  1.494637E+05 -1.492106E-10 -1.809640E-10
       318  12 -1.725040E+06  6.402386E+04  2.225049E+04  1.914646E+05  1.888509E-10  5.386681E-10
       318  13 -1.988029E+06 -1.228654E+04 -7.671993E+04  1.891357E+05 -6.138621E-10 -7.535766E-10
       318  14 -1.985163E+06 -3.236979E+02 -4.528063E+04  1.503524E+05 -1.028231E-09  2.958180E-10
       318  15 -1.987917E+06  6.247402E+02 -3.131292E+04  1.891347E+05  8.880218E-10  2.056244E-10
       318  16 -2.740413E+06 -1.939848E+05 -2.308000E+05  1.932428E+05 -2.345475E-10 -8.582941E-10
       318  17 -2.492572E+06 -1.226579E+05 -1.482521E+05  1.512402E+05 -6.874879E-10  3.050313E-10
       318  18 -2.250728E+06 -6.277869E+04 -8.487997E+04  1.868059E+05  1.433491E-11  1.016528E-10
       318  19 -1.235098E+06  1.693796E+05  7.734333E+04  1.850258E+05  7.139367E+04  4.419820E+04
       318  20 -1.477503E+06  1.219962E+05  5.768419E+04  1.494650E+05  5.122911E+04  3.099128E+04
       318  21 -1.725039E+06  6.402439E+04  2.225277E+04  1.914650E+05  3.107876E+04  1.574735E+04
       318  22 -1.988025E+06 -1.228357E+04 -7.671020E+04  1.891377E+05  5.674989E+04  4.420168E+04
       318  23 -1.985161E+06 -3.223532E+02 -4.527662E+04  1.503532E+05  3.417302E+04  3.099026E+04
       318  24 -1.987917E+06  6.250422E+02 -3.131220E+04  1.891349E+05  1.160267E+04  1.574106E+04
       318  25 -2.740411E+06 -1.939823E+05 -2.307930E+05  1.932443E+05  4.212354E+04  4.420496E+04
       318  26 -2.492572E+06 -1.226568E+05 -1.482498E+05  1.512407E+05  1.713064E+04  3.098918E+04
       318  27 -2.250728E+06 -6.277841E+04 -8.487938E+04  1.868058E+05 -7.865313E+03  1.573492E+04
       319   1 -1.900958E+06  2.084346E+04 -1.139849E+04  1.886907E+05 -2.572572E+04 -6.157091E+03
       319   2 -2.144444E+06 -3.824060E+04 -6.089278E+04  1.511265E+05 -9.801143E+03  9.269218E+03
       319   3 -2.391360E+06 -1.030184E+05 -1.222069E+05  1.912599E+05  6.119206E+03  2.318436E+04
       319   4 -1.987361E+06  1.563273E+02 -2.824512E+04  1.891638E+05 -6.360833E+03 -6.150010E+03
       319   5 -1.985790E+06  6.640315E+01 -2.837981E+04  1.503160E+05  7.752948E+03  9.274283E+03
       319   6 -1.987394E+06 -5.398774E+03 -3.907251E+04  1.891651E+05  2.186861E+04  2.318770E+04
       319   7 -2.073755E+06 -2.053105E+04 -4.509070E+04  1.896369E+05  1.300141E+04 -6.142899E+03
       319   8 -1.827111E+06  3.837199E+04  4.132993E+03  1.495053E+05  2.531146E+04  9.279300E+03
       319   9 -1.583271E+06  9.221067E+04  4.405403E+04  1.870689E+05  3.762810E+04  2.319094E+04
       319  10 -1.900959E+06  2.084324E+04 -1.139981E+04  1.886906E+05  1.237770E-09  5.022412E-10
       319  11 -2.144444E+06 -3.824072E+04 -6.089312E+04  1.511265E+05  2.077015E-09  1.400168E-10
       319  12 -2.391361E+06 -1.030190E+05 -1.222079E+05  1.912598E+05  2.860444E-10  4.441876E-10
       319  13 -1.987361E+06  1.562758E+02 -2.824527E+04  1.891638E+05  8.167946E-10  7.318437E-11
       319  14 -1.985790E+06  6.629470E+01 -2.838008E+04  1.503159E+05 -1.850786E-11  1.743513E-10
       319  15 -1.987394E+06 -5.399480E+03 -3.907442E+04  1.891647E+05  1.370449E-09 -1.665823E-10
       319  16 -2.073755E+06 -2.053114E+04 -4.509108E+04  1.896369E+05  1.142415E-10 -4.369602E-10
       319  17 -1.827112E+06  3.837172E+04  4.131624E+03  1.495051E+05  3.551399E-10 -5.302109E-10
       319  18 -1.583273E+06  9.220972E+04  4.405035E+04  1.870682E+05 -2.168206E-10 -1.834181E-10
       319  19 -1.900958E+06  2.084346E+04 -1.139849E+04  1.886907E+05  2.572572E+04  6.157091E+03
       319  20 -2.144444E+06 -3.824060E+04 -6.089278E+04  1.511265E+05  9.801143E+03 -9.269218E+03
       319  21 -2.391360E+06 -1.030184E+05 -1.222069E+05  1.912599E+05 -6.119206E+03 -2.318436E+04
       319  22 -1.987361E+06  1.563273E+02 -2.824512E+04  1.891638E+05  6.360833E+03  6.150010E+03
       319  23 -1.985790E+06  6.640315E+01 -2.837981E+04  1.503160E+05 -7.752948E+03 -9.274283E+03
       319  24 -1.987394E+06 -5.398774E+03 -3.907251E+04  1.891651E+05 -2.186861E+04 -2.318770E+04
       319  25 -2.073755E+06 -2.053105E+04 -4.509070E+04  1.896369E+05 -1.300141E+04  6.142899E+03
       319  26 -1.827111E+06  3.837199E+04  4.132993E+03  1.495053E+05 -2.531146E+04 -9.279300E+03
       319  27 -1.583271E+06  9.221067E+04  4.405403E+04  1.870689E+05 -3.762810E+04 -2.319094E+04
       320   1 -2.574974E+06 -1.365525E+05 -1.663450E+05  1.722771E+05  5.913501E+03  3.368816E+04
       320   2 -2.800087E+06 -2.129581E+05 -2.541921E+05  1.808814E+05  8.158971E+04  3.791684E+04
       320   3 -3.064035E+06 -4.059545E+05 -4.205781E+05  2.652746E+05  1.572218E+05  1.279923E+04
       320   4 -1.993977E+06  3.817141E+03 -4.703104E+04  1.887503E+05  2.853175E+04  3.369070E+04
       320   5 -1.977748E+06 -1.273250E+04 -7.765948E+04  1.508404E+05  6.914922E+04  3.790940E+04
       320   6 -1.994238E+06 -1.396831E+05 -1.623540E+05  1.887332E+05  1.097545E+05  1.278806E+04
       320   7 -1.412656E+06  1.441668E+05  7.226696E+04  2.052391E+05  5.117085E+04  3.369444E+04
       320   8 -1.154768E+06  1.874521E+05  9.883474E+04  1.207589E+05  5.669238E+04  3.790318E+04
       320   9 -9.233730E+05  1.265276E+05  9.579964E+04  1.120588E+05  6.220527E+04  1.278868E+04
       320  10 -2.574974E+06 -1.365537E+05 -1.663472E+05  1.722769E+05  6.467016E-11  4.826501E-10
       320  11 -2.800094E+06 -2.129615E+05 -2.542074E+05  1.808789E+05  8.531637E-10  5.621226E-10
       320  12 -3.064061E+06 -4.059614E+05 -4.206251E+05  2.652730E+05  1.368963E-09  4.783256E-10
       320  13 -1.993978E+06  3.815705E+03 -4.703470E+04  1.887495E+05 -1.007766E-10  3.360409E-10
       320  14 -1.977753E+06 -1.273533E+04 -7.767119E+04  1.508383E+05  2.406147E-10  6.719375E-10
       320  15 -1.994251E+06 -1.396866E+05 -1.623771E+05  1.887321E+05 -6.729372E-10 -2.502765E-10
       320  16 -1.412659E+06  1.441648E+05  7.225990E+04  2.052378E+05 -2.767771E-11  1.957796E-10
       320  17 -1.154772E+06  1.874497E+05  9.882599E+04  1.207571E+05  1.167834E-10  5.992625E-10
       320  18 -9.233772E+05  1.265264E+05  9.579205E+04  1.120582E+05 -4.854421E-10 -6.554171E-11
       320  19 -2.574974E+06 -1.365525E+05 -1.663450E+05  1.722771E+05 -5.913501E+03 -3.368816E+04
       320  20 -2.800087E+06 -2.129581E+05 -2.541921E+05  1.808814E+05 -8.158971E+04 -3.791684E+04
       320  21 -3.064035E+06 -4.059545E+05 -4.205781E+05  2.652746E+05 -1.572218E+05 -1.279923E+04
       320  22 -1.993977E+06  3.817141E+03 -4.703104E+04  1.887503E+05 -2.853175E+04 -3.369070E+04
       320  23 -1.977748E+06 -1.273250E+04 -7.765948E+04  1.508404E+05 -6.914922E+04 -3.790940E+04
       320  24 -1.994238E+06 -1.396831E+05 -1.623540E+05  1.887332E+05 -1.097545E+05 -1.278806E+04
       320  25 -1.412656E+06  1.441668E+05  7.226696E+04  2.052391E+05 -5.117085E+04 -3.369444E+04
       320  26 -1.154768E+06  1.874521E+05  9.883474E+04  1.207589E+05 -5.669238E+04 -3.790318E+04
       320  27 -9.233730E+05  1.265276E+05  9.579964E+04  1.120588E+05 -6.220527E+04 -1.278868E+04
       321   1 -4.981890E+05  2.063998E+05  1.853235E+05  8.069962E+04 -1.714380E+03 -1.484467E+04
       321   2 -6.498394E+05  2.276469E+05  1.648776E+05  8.117835E+04 -1.638887E+04 -4.656276E+04
       321   3 -8.121620E+05  1.975477E+05  1.411974E+05  1.296231E+05 -3.104535E+04 -4.838910E+04
       321   4 -1.623990E+06 -7.309369E+04 -8.486022E+04  1.209292E+05 -5.761357E+04 -1.482915E+04
       321   5 -1.615438E+06 -6.779614E+03 -4.044586E+04  9.694632E+04 -3.646119E+04 -4.656697E+04
       321   6 -1.623838E+06  1.913784E+03 -2.419827E+04  1.209383E+05 -1.529356E+04 -4.839081E+04
       321   7 -2.748618E+06 -3.526718E+05 -3.551214E+05  1.610854E+05 -1.134116E+05 -1.482088E+04
       321   8 -2.580154E+06 -2.412657E+05 -2.458212E+05  1.126893E+05 -5.650270E+04 -4.657222E+04
       321   9 -2.434885E+06 -1.937610E+05 -1.896276E+05  1.122650E+05  4.380089E+02 -4.839297E+04
       321  10 -4.981890E+05  2.063996E+05  1.853231E+05  8.069960E+04 -1.162422E-10  3.469991E-10
       321  11 -6.498403E+05  2.276445E+05  1.648730E+05  8.117773E+04 -1.231103E-09 -3.281974E-10
       321  12 -8.121637E+05  1.975450E+05  1.411912E+05  1.296219E+05 -6.260935E-10 -2.979238E-11
       321  13 -1.623994E+06 -7.309482E+04 -8.486688E+04  1.209285E+05 -1.329527E-09 -9.688493E-10
       321  14 -1.615440E+06 -6.782299E+03 -4.045244E+04  9.694495E+04 -1.098634E-09 -3.350591E-10
       321  15 -1.623839E+06  1.911208E+03 -2.420311E+04  1.209377E+05  1.168177E-10  1.938264E-10
       321  16 -2.748632E+06 -3.526755E+05 -3.551461E+05  1.610840E+05 -1.629107E-09 -6.539704E-10
       321  17 -2.580158E+06 -2.412689E+05 -2.458313E+05  1.126872E+05  8.640102E-10  2.390819E-11
       321  18 -2.434886E+06 -1.937635E+05 -1.896320E+05  1.122650E+05  6.167400E-10  3.086691E-10
       321  19 -4.981890E+05  2.063998E+05  1.853235E+05  8.069962E+04  1.714380E+03  1.484467E+04
       321  20 -6.498394E+05  2.276469E+05  1.648776E+05  8.117835E+04  1.638887E+04  4.656276E+04
       321  21 -8.121620E+05  1.975477E+05  1.411974E+05  1.296231E+05  3.104535E+04  4.838910E+04
       321  22 -1.623990E+06 -7.309369E+04 -8.486022E+04  1.209292E+05  5.761357E+04  1.482915E+04
       321  23 -1.615438E+06 -6.779614E+03 -4.044586E+04  9.694632E+04  3.646119E+04  4.656697E+04
       321  24 -1.623838E+06  1.913784E+03 -2.419827E+04  1.209383E+05  1.529356E+04  4.839081E+04
       321  25 -2.748618E+06 -3.526718E+05 -3.551214E+05  1.610854E+05  1.134116E+05  1.482088E+04
       321  26 -2.580154E+06 -2.412657E+05 -2.458212E+05  1.126893E+05  5.650270E+04  4.657222E+04
       321  27 -2.434885E+06 -1.937610E+05 -1.896276E+05  1.122650E+05 -4.380089E+02  4.839297E+04
       322   1 -9.228862E+05  1.652886E+05  1.225057E+05  1.204029E+05 -2.062152E+04 -4.125276E+04
       322   2 -1.080141E+06  1.298801E+05  9.529475E+04  9.615067E+04 -1.566516E+04 -3.316162E+04
       322   3 -1.238576E+06  9.208778E+04  6.426567E+04  1.218389E+05 -1.071542E+04 -2.344006E+04
       322   4 -1.620387E+06 -2.886115E+03 -1.989276E+04  1.213731E+05 -1.189304E+04 -4.125389E+04
       322   5 -1.619584E+06 -2.365846E+00 -1.386751E+04  9.640083E+04 -4.990082E+03 -3.315952E+04
       322   6 -1.620329E+06  1.580339E+02 -1.301837E+04  1.213719E+05  1.907452E+03 -2.343400E+04
       322   7 -2.317423E+06 -1.710914E+05 -1.623166E+05  1.223421E+05 -3.174191E+03 -4.125499E+04
       322   8 -2.158750E+06 -1.299029E+05 -1.230444E+05  9.665073E+04  5.675889E+03 -3.315741E+04
       322   9 -2.001943E+06 -9.178070E+04 -9.030936E+04  1.209051E+05  1.452270E+04 -2.342795E+04
       322  10 -9.228871E+05  1.652867E+05  1.225017E+05  1.204022E+05  4.336786E-11  2.052357E-10
       322  11 -1.080142E+06  1.298788E+05  9.529222E+04  9.615025E+04  9.632613E-10 -1.043022E-09
       322  12 -1.238576E+06  9.208716E+04  6.426442E+04  1.218387E+05  1.142327E-09 -1.023422E-09
       322  13 -1.620387E+06 -2.887979E+03 -1.989622E+04  1.213727E+05  3.370131E-11  2.400545E-10
       322  14 -1.619585E+06 -3.552360E+00 -1.386962E+04  9.640070E+04  5.153501E-10 -3.490110E-10
       322  15 -1.620329E+06  1.574437E+02 -1.301941E+04  1.213719E+05  5.015487E-10 -9.064797E-10
       322  16 -2.317424E+06 -1.710932E+05 -1.623198E+05  1.223420E+05  7.772920E-10 -1.872848E-11
       322  17 -2.158750E+06 -1.299041E+05 -1.230465E+05  9.665088E+04  5.106214E-10 -3.080373E-10
       322  18 -2.001943E+06 -9.178135E+04 -9.031079E+04  1.209054E+05 -1.483233E-09 -1.243320E-10
       322  19 -9.228862E+05  1.652886E+05  1.225057E+05  1.204029E+05  2.062152E+04  4.125276E+04
       322  20 -1.080141E+06  1.298801E+05  9.529475E+04  9.615067E+04  1.566516E+04  3.316162E+04
       322  21 -1.238576E+06  9.208778E+04  6.426567E+04  1.218389E+05  1.071542E+04  2.344006E+04
       322  22 -1.620387E+06 -2.886115E+03 -1.989276E+04  1.213731E+05  1.189304E+04  4.125389E+04
       322  23 -1.619584E+06 -2.365846E+00 -1.386751E+04  9.640083E+04  4.990082E+03  3.315952E+04
       322  24 -1.620329E+06  1.580339E+02 -1.301837E+04  1.213719E+05 -1.907452E+03  2.343400E+04
       322  25 -2.317423E+06 -1.710914E+05 -1.623166E+05  1.223421E+05  3.174191E+03  4.125499E+04
       322  26 -2.158750E+06 -1.299029E+05 -1.230444E+05  9.665073E+04 -5.675889E+03  3.315741E+04
       322  27 -2.001943E+06 -9.178070E+04 -9.030936E+04  1.209051E+05 -1.452270E+04  2.342795E+04
       323   1 -1.352556E+06  6.474174E+04  3.955128E+04  1.205906E+05 -8.129269E+03 -1.725921E+04
       323   2 -1.509549E+06  2.634358E+04  2.207390E+03  9.679405E+04  2.441449E+03 -7.211092E+03
       323   3 -1.669145E+06 -1.683777E+04 -4.324252E+04  1.231503E+05  1.300873E+04  2.183760E+03
       323   4 -1.620523E+06  3.357136E+02 -1.407264E+04  1.214182E+05  4.291052E+03 -1.725213E+04
       323   5 -1.619278E+06 -1.079610E+01 -1.963857E+04  9.634301E+04  1.407626E+04 -7.203904E+03
       323   6 -1.620522E+06 -5.001979E+03 -3.276289E+04  1.214215E+05  2.386062E+04  2.191037E+03
       323   7 -1.888420E+06 -6.407465E+04 -6.769961E+04  1.222454E+05  1.670611E+04 -1.724502E+04
       323   8 -1.728996E+06 -2.636583E+04 -4.148462E+04  9.589205E+04  2.570905E+04 -7.196732E+03
       323   9 -1.571896E+06  6.833726E+03 -2.228296E+04  1.196925E+05  3.471334E+04  2.198253E+03
       323  10 -1.352557E+06  6.474140E+04  3.955059E+04  1.205905E+05  1.732208E-09 -1.229804E-09
       323  11 -1.509549E+06  2.634352E+04  2.207281E+03  9.679407E+04  5.865740E-10 -1.390529E-09
       323  12 -1.669145E+06 -1.683782E+04 -4.324285E+04  1.231503E+05  1.710898E-09 -1.438319E-09
       323  13 -1.620523E+06  3.353893E+02 -1.407324E+04  1.214183E+05  3.611212E-13 -1.248361E-09
       323  14 -1.619278E+06 -1.090517E+01 -1.963904E+04  9.634309E+04 -3.236406E-11 -1.802363E-09
       323  15 -1.620522E+06 -5.002138E+03 -3.276397E+04  1.214215E+05 -2.771685E-10 -9.316258E-10
       323  16 -1.888420E+06 -6.407505E+04 -6.770070E+04  1.222456E+05 -1.582696E-09 -1.110371E-09
       323  17 -1.728996E+06 -2.636607E+04 -4.148596E+04  9.589220E+04 -1.980647E-09 -8.431428E-10
       323  18 -1.571897E+06  6.833396E+03 -2.228524E+04  1.196925E+05 -2.383539E-09 -7.316059E-11
       323  19 -1.352556E+06  6.474174E+04  3.955128E+04  1.205906E+05  8.129269E+03  1.725921E+04
       323  20 -1.509549E+06  2.634358E+04  2.207390E+03  9.679405E+04 -2.441449E+03  7.211092E+03
       323  21 -1.669145E+06 -1.683777E+04 -4.324252E+04  1.231503E+05 -1.300873E+04 -2.183760E+03
       323  22 -1.620523E+06  3.357136E+02 -1.407264E+04  1.214182E+05 -4.291052E+03  1.725213E+04
       323  23 -1.619278E+06 -1.079610E+01 -1.963857E+04  9.634301E+04 -1.407626E+04  7.203904E+03
       323  24 -1.620522E+06 -5.001979E+03 -3.276289E+04  1.214215E+05 -2.386062E+04 -2.191037E+03
       323  25 -1.888420E+06 -6.407465E+04 -6.769961E+04  1.222454E+05 -1.670611E+04  1.724502E+04
       323  26 -1.728996E+06 -2.636583E+04 -4.148462E+04  9.589205E+04 -2.570905E+04  7.196732E+03
       323  27 -1.571896E+06  6.833726E+03 -2.228296E+04  1.196925E+05 -3.471334E+04 -2.198253E+03
       324   1 -1.789651E+06 -3.575299E+04 -7.522273E+04  1.055711E+05  1.547667E+04  8.776424E+03
       324   2 -1.931153E+06 -8.964681E+04 -1.408469E+05  1.244384E+05  6.912085E+04  1.373815E+04
       324   3 -2.106277E+06 -2.498956E+05 -2.680725E+05  1.926997E+05  1.227553E+05  5.135513E+03
       324   4 -1.626803E+06  3.691625E+03 -4.127543E+04  1.212418E+05  2.950618E+04  8.785883E+03
       324   5 -1.611473E+06 -1.174463E+04 -7.147061E+04  9.657188E+04  6.691922E+04  1.373326E+04
       324   6 -1.626940E+06 -1.306841E+05 -1.519502E+05  1.213072E+05  1.043370E+05  5.111918E+03
       324   7 -1.463929E+06  4.313557E+04 -7.328720E+03  1.369166E+05  4.353932E+04  8.796050E+03
       324   8 -1.291696E+06  6.615370E+04 -2.099966E+03  6.869077E+04  6.471646E+04  1.372858E+04
       324   9 -1.147381E+06 -1.147005E+04 -3.584044E+04  4.985913E+04  8.590443E+04  5.092586E+03
       324  10 -1.789652E+06 -3.575314E+04 -7.522332E+04  1.055710E+05  2.408213E-08 -1.034860E-09
       324  11 -1.931158E+06 -8.964830E+04 -1.408563E+05  1.244376E+05  2.130179E-09 -4.041870E-10
       324  12 -2.106293E+06 -2.498997E+05 -2.681010E+05  1.926992E+05 -2.035576E-08  9.127498E-11
       324  13 -1.626804E+06  3.691308E+03 -4.127721E+04  1.212416E+05  1.665417E-09 -2.113448E-09
       324  14 -1.611478E+06 -1.174604E+04 -7.147940E+04  9.657114E+04 -1.804036E-09  2.125712E-09
       324  15 -1.626952E+06 -1.306871E+05 -1.519708E+05  1.213068E+05 -1.447688E-10  4.616441E-10
       324  16 -1.463931E+06  4.313498E+04 -7.332436E+03  1.369163E+05 -2.352669E-08  5.073988E-10
       324  17 -1.291701E+06  6.615237E+04 -2.108207E+03  6.869005E+04 -1.991790E-09  1.916354E-09
       324  18 -1.147389E+06 -1.147206E+04 -3.585439E+04  4.985878E+04  2.072621E-08  8.328060E-11
       324  19 -1.789651E+06 -3.575299E+04 -7.522273E+04  1.055711E+05 -1.547667E+04 -8.776424E+03
       324  20 -1.931153E+06 -8.964681E+04 -1.408469E+05  1.244384E+05 -6.912085E+04 -1.373815E+04
       324  21 -2.106277E+06 -2.498956E+05 -2.680725E+05  1.926997E+05 -1.227553E+05 -5.135513E+03
       324  22 -1.626803E+06  3.691625E+03 -4.127543E+04  1.212418E+05 -2.950618E+04 -8.785883E+03
       324  23 -1.611473E+06 -1.174463E+04 -7.147061E+04  9.657188E+04 -6.691922E+04 -1.373326E+04
       324  24 -1.626940E+06 -1.306841E+05 -1.519502E+05  1.213072E+05 -1.043370E+05 -5.111918E+03
       324  25 -1.463929E+06  4.313557E+04 -7.328720E+03  1.369166E+05 -4.353932E+04 -8.796050E+03
       324  26 -1.291696E+06  6.615370E+04 -2.099966E+03  6.869077E+04 -6.471646E+04 -1.372858E+04
       324  27 -1.147381E+06 -1.147005E+04 -3.584044E+04  4.985913E+04 -8.590443E+04 -5.092586E+03
       325   1  7.837156E+05  4.388009E+05  4.136412E+05  2.280340E+05  5.145460E+04 -2.542212E+04
       325   2  4.479474E+05  3.957378E+05  3.207356E+05  1.950683E+05  3.676099E+03 -7.848007E+04
       325   3  1.107787E+05  3.202627E+05  2.509039E+05  2.654787E+05 -4.410049E+04 -7.815798E+04
       325   4 -1.210577E+06 -5.582039E+04 -6.511759E+04  2.574325E+05 -4.418957E+04 -2.550424E+04
       325   5 -1.204053E+06 -5.113072E+03 -3.109469E+04  2.057007E+05 -2.785985E+04 -7.853389E+04
       325   6 -1.210199E+06  2.004003E+03 -1.853522E+04  2.573688E+05 -1.155477E+04 -7.811625E+04
       325   7 -3.201204E+06 -5.507228E+05 -5.441241E+05  2.867347E+05 -1.395278E+05 -2.559561E+04
       325   8 -2.853478E+06 -4.061407E+05 -3.830783E+05  2.163032E+05 -5.931308E+04 -7.858887E+04
       325   9 -2.529514E+06 -3.163632E+05 -2.880623E+05  2.492754E+05  2.092299E+04 -7.807532E+04
       325  10  7.837126E+05  4.387995E+05  4.136350E+05  2.280351E+05  1.080986E-09 -4.328217E-10
       325  11  4.479457E+05  3.957312E+05  3.207240E+05  1.950686E+05  2.035074E-11 -2.632110E-09
       325  12  1.107750E+05  3.202556E+05  2.508888E+05  2.654760E+05  1.230159E-09 -3.038410E-09
       325  13 -1.210579E+06 -5.582162E+04 -6.512249E+04  2.574316E+05 -4.749019E-10  2.747533E-10
       325  14 -1.204055E+06 -5.119899E+03 -3.110773E+04  2.056989E+05 -6.844386E-10 -1.622300E-09
       325  15 -1.210201E+06  1.997419E+03 -1.854693E+04  2.573680E+05 -8.614623E-10 -7.714097E-10
       325  16 -3.201226E+06 -5.507288E+05 -5.441621E+05  2.867318E+05 -1.346531E-09  2.953181E-11
       325  17 -2.853483E+06 -4.061483E+05 -3.830965E+05  2.162995E+05  1.876042E-09 -3.580601E-09
       325  18 -2.529516E+06 -3.163698E+05 -2.880746E+05  2.492767E+05  2.895596E-10 -5.142712E-09
       325  19  7.837156E+05  4.388009E+05  4.136412E+05  2.280340E+05 -5.145460E+04  2.542212E+04
       325  20  4.479474E+05  3.957378E+05  3.207356E+05  1.950683E+05 -3.676099E+03  7.848007E+04
       325  21  1.107787E+05  3.202627E+05  2.509039E+05  2.654787E+05  4.410049E+04  7.815798E+04
       325  22 -1.210577E+06 -5.582039E+04 -6.511759E+04  2.574325E+05  4.418957E+04  2.550424E+04
       325  23 -1.204053E+06 -5.113072E+03 -3.109469E+04  2.057007E+05  2.785985E+04  7.853389E+04
       325  24 -1.210199E+06  2.004003E+03 -1.853522E+04  2.573688E+05  1.155477E+04  7.811625E+04
       325  25 -3.201204E+06 -5.507228E+05 -5.441241E+05  2.867347E+05  1.395278E+05  2.559561E+04
       325  26 -2.853478E+06 -4.061407E+05 -3.830783E+05  2.163032E+05  5.931308E+04  7.858887E+04
       325  27 -2.529514E+06 -3.163632E+05 -2.880623E+05  2.492754E+05 -2.092299E+04  7.807532E+04
       326   1 -1.304789E+05  2.580261E+05  2.048387E+05  2.586426E+05 -2.896143E+04 -6.326149E+04
       326   2 -4.672409E+05  1.786363E+05  1.391686E+05  2.054916E+05 -2.710235E+04 -4.518660E+04
       326   3 -8.047281E+05  9.807965E+04  7.191492E+04  2.590013E+05 -2.526333E+04 -2.425875E+04
       326   4 -1.207584E+06 -1.563790E+03 -1.525059E+04  2.581085E+05 -8.981867E+03 -6.323320E+04
       326   5 -1.206792E+06  6.310428E+02 -1.063071E+04  2.047717E+05 -3.712731E+03 -4.514420E+04
       326   6 -1.207424E+06  1.071748E+03 -9.965668E+03  2.581036E+05  1.537363E+03 -2.420027E+04
       326   7 -2.283584E+06 -2.612262E+05 -2.353998E+05  2.575747E+05  1.096366E+04 -6.320492E+04
       326   8 -1.945820E+06 -1.774080E+05 -1.604564E+05  2.040523E+05  1.964953E+04 -4.510182E+04
       326   9 -1.609965E+06 -9.594589E+04 -9.185204E+04  2.572065E+05  2.832098E+04 -2.414184E+04
       326  10 -1.304809E+05  2.580215E+05  2.048296E+05  2.586411E+05 -3.322949E-09 -3.817553E-09
       326  11 -4.672422E+05  1.786339E+05  1.391634E+05  2.054906E+05 -1.718922E-09  1.361861E-09
       326  12 -8.047290E+05  9.807885E+04  7.191261E+04  2.590008E+05 -8.926167E-10  2.224775E-09
       326  13 -1.207585E+06 -1.568102E+03 -1.525825E+04  2.581081E+05  3.134337E-12 -3.038994E-09
       326  14 -1.206792E+06  6.288519E+02 -1.063457E+04  2.047716E+05 -4.524245E-10 -4.046744E-10
       326  15 -1.207425E+06  1.071119E+03 -9.966773E+03  2.581037E+05  1.411662E-09 -1.595872E-09
       326  16 -2.283585E+06 -2.612305E+05 -2.354075E+05  2.575752E+05  3.690553E-09 -1.140814E-09
       326  17 -1.945821E+06 -1.774103E+05 -1.604609E+05  2.040531E+05  1.703026E-09  9.629078E-10
       326  18 -1.609966E+06 -9.594674E+04 -9.185464E+04  2.572070E+05  1.494943E-09  6.599593E-10
       326  19 -1.304789E+05  2.580261E+05  2.048387E+05  2.586426E+05  2.896143E+04  6.326149E+04
       326  20 -4.672409E+05  1.786363E+05  1.391686E+05  2.054916E+05  2.710235E+04  4.518660E+04
       326  21 -8.047281E+05  9.807965E+04  7.191492E+04  2.590013E+05  2.526333E+04  2.425875E+04
       326  22 -1.207584E+06 -1.563790E+03 -1.525059E+04  2.581085E+05  8.981867E+03  6.323320E+04
       326  23 -1.206792E+06  6.310428E+02 -1.063071E+04  2.047717E+05  3.712731E+03  4.514420E+04
       326  24 -1.207424E+06  1.071748E+03 -9.965668E+03  2.581036E+05 -1.537363E+03  2.420027E+04
       326  25 -2.283584E+06 -2.612262E+05 -2.353998E+05  2.575747E+05 -1.096366E+04  6.320492E+04
       326  26 -1.945820E+06 -1.774080E+05 -1.604564E+05  2.040523E+05 -1.964953E+04  4.510182E+04
       326  27 -1.609965E+06 -9.594589E+04 -9.185204E+04  2.572065E+05 -2.832098E+04  2.414184E+04
       327   1 -1.047509E+06  3.956473E+04  2.066888E+04  2.576497E+05 -2.328493E+04 -1.108018E+04
       327   2 -1.383481E+06 -4.199534E+04 -5.144376E+04  2.047773E+05 -1.339357E+04  1.014965E+04
       327   3 -1.722005E+06 -1.272145E+05 -1.310504E+05  2.587157E+05 -3.500698E+03  2.936729E+04
       327   4 -1.207577E+06  1.223513E+03 -1.078421E+04  2.581339E+05  3.333426E+03 -1.102002E+04
       327   5 -1.206479E+06  7.285473E+02 -1.508056E+04  2.047339E+05  1.080952E+04  1.020224E+04
       327   6 -1.207620E+06 -2.998101E+03 -2.518691E+04  2.581430E+05  1.829233E+04  2.941289E+04
       327   7 -1.367619E+06 -3.711887E+04 -4.223588E+04  2.586180E+05  2.994506E+04 -1.095980E+04
       327   8 -1.029446E+06  4.345078E+04  2.128317E+04  2.046904E+05  3.501940E+04  1.025481E+04
       327   9 -6.929830E+05  1.212019E+05  8.066416E+04  2.575697E+05  4.010313E+04  2.945843E+04
       327  10 -1.047510E+06  3.956445E+04  2.066763E+04  2.576494E+05 -1.943672E-09  3.539592E-09
       327  11 -1.383481E+06 -4.199550E+04 -5.144430E+04  2.047774E+05 -6.971191E-10  3.250232E-09
       327  12 -1.722005E+06 -1.272154E+05 -1.310520E+05  2.587158E+05  3.167109E-09 -5.360587E-10
       327  13 -1.207577E+06  1.223380E+03 -1.078446E+04  2.581339E+05  1.407962E-09 -2.200850E-09
       327  14 -1.206479E+06  7.284042E+02 -1.508098E+04  2.047338E+05 -1.229283E-09  3.124657E-09
       327  15 -1.207621E+06 -2.999120E+03 -2.518916E+04  2.581426E+05  1.483700E-10  4.513712E-09
       327  16 -1.367620E+06 -3.711924E+04 -4.223780E+04  2.586183E+05  3.029339E-09  2.036349E-09
       327  17 -1.029448E+06  4.345033E+04  2.128067E+04  2.046902E+05  1.166373E-09  3.279581E-09
       327  18 -6.929849E+05  1.212005E+05  8.065951E+04  2.575687E+05 -2.192593E-09  1.973858E-09
       327  19 -1.047509E+06  3.956473E+04  2.066888E+04  2.576497E+05  2.328493E+04  1.108018E+04
       327  20 -1.383481E+06 -4.199534E+04 -5.144376E+04  2.047773E+05  1.339357E+04 -1.014965E+04
       327  21 -1.722005E+06 -1.272145E+05 -1.310504E+05  2.587157E+05  3.500698E+03 -2.936729E+04
       327  22 -1.207577E+06  1.223513E+03 -1.078421E+04  2.581339E+05 -3.333426E+03  1.102002E+04
       327  23 -1.206479E+06  7.285473E+02 -1.508056E+04  2.047339E+05 -1.080952E+04 -1.020224E+04
       327  24 -1.207620E+06 -2.998101E+03 -2.518691E+04  2.581430E+05 -1.829233E+04 -2.941289E+04
       327  25 -1.367619E+06 -3.711887E+04 -4.223588E+04  2.586180E+05 -2.994506E+04  1.095980E+04
       327  26 -1.029446E+06  4.345078E+04  2.128317E+04  2.046904E+05 -3.501940E+04 -1.025481E+04
       327  27 -6.929830E+05  1.212019E+05  8.066416E+04  2.575697E+05 -4.010313E+04 -2.945843E+04
       328   1 -1.970215E+06 -1.793978E+05 -1.873339E+05  2.445102E+05 -8.402573E+03  4.375994E+04
       328   2 -2.291178E+06 -2.739046E+05 -2.890966E+05  2.255702E+05  6.740884E+04  5.014110E+04
       328   3 -2.643921E+06 -4.557943E+05 -4.622251E+05  3.111853E+05  1.432225E+05  1.721913E+04
       328   4 -1.212434E+06  3.615442E+03 -3.172909E+04  2.576079E+05  2.259835E+04  4.382019E+04
       328   5 -1.200755E+06 -8.654863E+03 -5.503136E+04  2.054104E+05  5.141839E+04  5.010391E+04
       328   6 -1.212723E+06 -1.000423E+05 -1.169399E+05  2.577769E+05  8.028538E+04  1.710759E+04
       328   7 -4.541036E+05  1.865935E+05  1.238488E+05  2.707215E+05  5.363651E+04  4.388171E+04
       328   8 -1.092081E+05  2.565185E+05  1.789656E+05  1.852139E+05  3.540011E+04  5.006781E+04
       328   9  2.203702E+05  2.555728E+05  2.282152E+05  2.042435E+05  1.720297E+04  1.700709E+04
       328  10 -1.970216E+06 -1.793998E+05 -1.873377E+05  2.445105E+05  2.621250E-09 -7.893185E-10
       328  11 -2.291183E+06 -2.739085E+05 -2.891098E+05  2.255675E+05 -1.163981E-09  3.451949E-09
       328  12 -2.643943E+06 -4.558001E+05 -4.622644E+05  3.111833E+05 -3.773594E-10  1.266464E-09
       328  13 -1.212435E+06  3.613244E+03 -3.173366E+04  2.576071E+05 -2.703424E-10  1.157812E-09
       328  14 -1.200758E+06 -8.658267E+03 -5.504105E+04  2.054083E+05 -1.457835E-09  4.009870E-09
       328  15 -1.212730E+06 -1.000444E+05 -1.169526E+05  2.577758E+05  7.186202E-10 -3.870847E-10
       328  16 -4.541072E+05  1.865907E+05  1.238398E+05  2.707196E+05 -1.069475E-09  1.501618E-09
       328  17 -1.092102E+05  2.565155E+05  1.789585E+05  1.852125E+05 -3.650202E-10  1.338042E-10
       328  18  2.203698E+05  2.555724E+05  2.282141E+05  2.042432E+05  5.564776E-10 -1.134437E-09
       328  19 -1.970215E+06 -1.793978E+05 -1.873339E+05  2.445102E+05  8.402573E+03 -4.375994E+04
       328  20 -2.291178E+06 -2.739046E+05 -2.890966E+05  2.255702E+05 -6.740884E+04 -5.014110E+04
       328  21 -2.643921E+06 -4.557943E+05 -4.622251E+05  3.111853E+05 -1.432225E+05 -1.721913E+04
       328  22 -1.212434E+06  3.615442E+03 -3.172909E+04  2.576079E+05 -2.259835E+04 -4.382019E+04
       328  23 -1.200755E+06 -8.654863E+03 -5.503136E+04  2.054104E+05 -5.141839E+04 -5.010391E+04
       328  24 -1.212723E+06 -1.000423E+05 -1.169399E+05  2.577769E+05 -8.028538E+04 -1.710759E+04
       328  25 -4.541036E+05  1.865935E+05  1.238488E+05  2.707215E+05 -5.363651E+04 -4.388171E+04
       328  26 -1.092081E+05  2.565185E+05  1.789656E+05  1.852139E+05 -3.540011E+04 -5.006781E+04
       328  27  2.203702E+05  2.555728E+05  2.282152E+05  2.042435E+05 -1.720297E+04 -1.700709E+04
       329   1  7.501704E+05  3.533557E+05  3.393003E+05  2.187223E+05  5.809351E+04 -1.814044E+04
       329   2  4.544082E+05  2.851514E+05  2.440025E+05  1.776831E+05  1.420588E+04 -5.507387E+04
       329   3  1.640267E+05  2.153844E+05  1.768840E+05  2.271082E+05 -2.970821E+04 -5.212610E+04
       329   4 -7.256062E+05 -1.268877E+04 -1.537780E+04  2.243107E+05 -1.011715E+04 -1.824326E+04
       329   5 -7.239919E+05 -8.599055E+02 -7.581302E+03  1.790618E+05 -6.094606E+03 -5.511698E+04
       329   6 -7.253875E+05  1.093474E+03 -4.860313E+03  2.242885E+05 -2.119030E+03 -5.207463E+04
       329   7 -2.199379E+06 -3.788892E+05 -3.701934E+05  2.298847E+05 -7.816640E+04 -1.834747E+04
       329   8 -1.901084E+06 -2.869616E+05 -2.592438E+05  1.804372E+05 -2.635713E+04 -5.516024E+04
       329   9 -1.614048E+06 -2.132466E+05 -1.866436E+05  2.214723E+05  2.543135E+04 -5.202338E+04
       329  10  7.501667E+05  3.533545E+05  3.392933E+05  2.187232E+05  3.952049E-09 -1.688603E-09
       329  11  4.544071E+05  2.851481E+05  2.439964E+05  1.776837E+05 -7.921791E-10 -1.732662E-09
       329  12  1.640250E+05  2.153813E+05  1.768772E+05  2.271070E+05 -4.135846E-09 -2.322058E-09
       329  13 -7.256064E+05 -1.268915E+04 -1.537862E+04  2.243105E+05 -4.976708E-10  1.803616E-09
       329  14 -7.239928E+05 -8.631764E+02 -7.587079E+03  1.790616E+05 -1.140114E-09 -1.929986E-09
       329  15 -7.253882E+05  1.090562E+03 -4.865415E+03  2.242884E+05  1.140222E-09 -2.461880E-09
       329  16 -2.199386E+06 -3.788912E+05 -3.702055E+05  2.298835E+05 -3.752367E-09  5.548077E-11
       329  17 -1.901085E+06 -2.869651E+05 -2.592509E+05  1.804360E+05  1.012691E-09 -3.147143E-09
       329  18 -1.614049E+06 -2.132497E+05 -1.866499E+05  2.214734E+05  4.526936E-09 -2.879505E-09
       329  19  7.501704E+05  3.533557E+05  3.393003E+05  2.187223E+05 -5.809351E+04  1.814044E+04
       329  20  4.544082E+05  2.851514E+05  2.440025E+05  1.776831E+05 -1.420588E+04  5.507387E+04
       329  21  1.640267E+05  2.153844E+05  1.768840E+05  2.271082E+05  2.970821E+04  5.212610E+04
       329  22 -7.256062E+05 -1.268877E+04 -1.537780E+04  2.243107E+05  1.011715E+04  1.824326E+04
       329  23 -7.239919E+05 -8.599055E+02 -7.581302E+03  1.790618E+05  6.094606E+03  5.511698E+04
       329  24 -7.253875E+05  1.093474E+03 -4.860313E+03  2.242885E+05  2.119030E+03  5.207463E+04
       329  25 -2.199379E+06 -3.788892E+05 -3.701934E+05  2.298847E+05  7.816640E+04  1.834747E+04
       329  26 -1.901084E+06 -2.869616E+05 -2.592438E+05  1.804372E+05  2.635713E+04  5.516024E+04
       329  27 -1.614048E+06 -2.132466E+05 -1.866436E+05  2.214723E+05 -2.543135E+04  5.202338E+04
       330   1 -4.730709E+04  1.636020E+05  1.344091E+05  2.255971E+05 -1.963263E+04 -3.940234E+04
       330   2 -3.403170E+05  9.321048E+04  7.423728E+04  1.788972E+05 -2.029352E+04 -2.318945E+04
       330   3 -6.335025E+05  2.304284E+04  1.444592E+04  2.249361E+05 -2.096459E+04 -4.886590E+03
       330   4 -7.248047E+05  3.075131E+02 -4.285988E+03  2.247969E+05 -1.430994E+03 -3.936581E+04
       330   5 -7.244228E+05  7.434215E+02 -3.765262E+03  1.784251E+05  4.100586E+02 -2.314393E+04
       330   6 -7.247338E+05  9.730589E+02 -4.601533E+03  2.247957E+05  2.240627E+03 -4.831214E+03
       330   7 -1.401865E+06 -1.630157E+05 -1.430042E+05  2.239973E+05  1.675113E+04 -3.932931E+04
       330   8 -1.108387E+06 -9.173261E+04 -8.177389E+04  1.779532E+05  2.110106E+04 -2.309844E+04
       330   9 -8.159561E+05 -2.109697E+04 -2.364743E+04  2.246552E+05  2.544249E+04 -4.775845E+03
       330  10 -4.730792E+04  1.636003E+05  1.344055E+05  2.255965E+05 -1.296184E-09  1.383782E-09
       330  11 -3.403176E+05  9.320979E+04  7.423549E+04  1.788968E+05 -1.792427E-09  1.769538E-09
       330  12 -6.335030E+05  2.304270E+04  1.444505E+04  2.249360E+05 -2.887977E-09  2.629107E-09
       330  13 -7.248051E+05  3.058491E+02 -4.288903E+03  2.247969E+05  5.557860E-10 -3.888551E-10
       330  14 -7.244229E+05  7.428465E+02 -3.766269E+03  1.784251E+05 -1.159099E-09 -2.444619E-10
       330  15 -7.247338E+05  9.730325E+02 -4.601587E+03  2.247957E+05  3.331377E-10  1.763619E-09
       330  16 -1.401866E+06 -1.630174E+05 -1.430076E+05  2.239978E+05  2.192861E-09  1.029578E-09
       330  17 -1.108388E+06 -9.173330E+04 -8.177573E+04  1.779536E+05  3.513865E-09 -5.552074E-09
       330  18 -8.159568E+05 -2.109717E+04 -2.364869E+04  2.246553E+05  3.495010E-09 -6.816782E-10
       330  19 -4.730709E+04  1.636020E+05  1.344091E+05  2.255971E+05  1.963263E+04  3.940234E+04
       330  20 -3.403170E+05  9.321048E+04  7.423728E+04  1.788972E+05  2.029352E+04  2.318945E+04
       330  21 -6.335025E+05  2.304284E+04  1.444592E+04  2.249361E+05  2.096459E+04  4.886590E+03
       330  22 -7.248047E+05  3.075131E+02 -4.285988E+03  2.247969E+05  1.430994E+03  3.936581E+04
       330  23 -7.244228E+05  7.434215E+02 -3.765262E+03  1.784251E+05 -4.100586E+02  2.314393E+04
       330  24 -7.247338E+05  9.730589E+02 -4.601533E+03  2.247957E+05 -2.240627E+03  4.831214E+03
       330  25 -1.401865E+06 -1.630157E+05 -1.430042E+05  2.239973E+05 -1.675113E+04  3.932931E+04
       330  26 -1.108387E+06 -9.173261E+04 -8.177389E+04  1.779532E+05 -2.110106E+04  2.309844E+04
       330  27 -8.159561E+05 -2.109697E+04 -2.364743E+04  2.246552E+05 -2.544249E+04  4.775845E+03
       331   1 -8.444103E+05 -2.776118E+04 -3.025494E+04  2.240725E+05 -2.010854E+04  6.560001E+03
       331   2 -1.136457E+06 -9.863405E+04 -9.249351E+04  1.779347E+05 -1.320871E+04  2.487460E+04
       331   3 -1.430296E+06 -1.718334E+05 -1.599225E+05  2.245416E+05 -6.301138E+03  4.105612E+04
       331   4 -7.248991E+05  1.114194E+03 -5.513011E+03  2.247943E+05  3.102425E+03  6.615282E+03
       331   5 -7.242227E+05  6.440102E+02 -8.780919E+03  1.784270E+05  7.443952E+03  2.491964E+04
       331   6 -7.249776E+05 -1.703102E+03 -1.545806E+04  2.248006E+05  1.179643E+04  4.109184E+04
       331   7 -6.053733E+05  2.998895E+04  1.923017E+04  2.255163E+05  2.631779E+04  6.670610E+03
       331   8 -3.118250E+05  9.991170E+04  7.492442E+04  1.789194E+05  2.811009E+04  2.496469E+04
       331   9 -1.918467E+04  1.683961E+05  1.289812E+05  2.250595E+05  2.991422E+04  4.112756E+04
       331  10 -8.444107E+05 -2.776134E+04 -3.025578E+04  2.240726E+05 -2.831967E-09  5.344365E-09
       331  11 -1.136458E+06 -9.863476E+04 -9.249501E+04  1.779350E+05  3.395216E-10  1.302438E-09
       331  12 -1.430297E+06 -1.718353E+05 -1.599258E+05  2.245418E+05  3.679041E-09  3.648532E-09
       331  13 -7.248992E+05  1.114144E+03 -5.513111E+03  2.247943E+05  5.587332E-10  2.620829E-09
       331  14 -7.242229E+05  6.433288E+02 -8.782189E+03  1.784268E+05  4.572754E-10  3.214495E-09
       331  15 -7.249782E+05 -1.704952E+03 -1.546149E+04  2.248002E+05 -6.993261E-10 -3.124472E-10
       331  16 -6.053740E+05  2.998872E+04  1.922878E+04  2.255161E+05  4.408570E-09  1.801970E-09
       331  17 -3.118260E+05  9.991082E+04  7.492176E+04  1.789188E+05  4.457949E-10  5.137428E-10
       331  18 -1.918608E+04  1.683941E+05  1.289764E+05  2.250585E+05 -4.004886E-09 -2.978406E-09
       331  19 -8.444103E+05 -2.776118E+04 -3.025494E+04  2.240725E+05  2.010854E+04 -6.560001E+03
       331  20 -1.136457E+06 -9.863405E+04 -9.249351E+04  1.779347E+05  1.320871E+04 -2.487460E+04
       331  21 -1.430296E+06 -1.718334E+05 -1.599225E+05  2.245416E+05  6.301138E+03 -4.105612E+04
       331  22 -7.248991E+05  1.114194E+03 -5.513011E+03  2.247943E+05 -3.102425E+03 -6.615282E+03
       331  23 -7.242227E+05  6.440102E+02 -8.780919E+03  1.784270E+05 -7.443952E+03 -2.491964E+04
       331  24 -7.249776E+05 -1.703102E+03 -1.545806E+04  2.248006E+05 -1.179643E+04 -4.109184E+04
       331  25 -6.053733E+05  2.998895E+04  1.923017E+04  2.255163E+05 -2.631779E+04 -6.670610E+03
       331  26 -3.118250E+05  9.991170E+04  7.492442E+04  1.789194E+05 -2.811009E+04 -2.496469E+04
       331  27 -1.918467E+04  1.683961E+05  1.289812E+05  2.250595E+05 -2.991422E+04 -4.112756E+04
       332   1 -1.644916E+06 -2.187532E+05 -2.071920E+05  2.153769E+05 -1.320307E+04  5.377962E+04
       332   2 -1.926036E+06 -2.983306E+05 -2.921217E+05  1.911516E+05  5.355094E+04  5.664537E+04
       332   3 -2.230348E+06 -4.360103E+05 -4.351362E+05  2.573619E+05  1.203185E+05  1.883905E+04
       332   4 -7.280069E+05  2.422669E+03 -1.967610E+04  2.242656E+05  1.443640E+04  5.382999E+04
       332   5 -7.207492E+05 -5.433767E+03 -3.452456E+04  1.791001E+05  3.253453E+04  5.659993E+04
       332   6 -7.282490E+05 -6.286326E+04 -7.356934E+04  2.243705E+05  5.067930E+04  1.872899E+04
       332   7  1.897052E+05  2.235464E+05  1.677982E+05  2.331673E+05  4.211602E+04  5.388112E+04
       332   8  4.859105E+05  2.873689E+05  2.229903E+05  1.670240E+05  1.147776E+04  5.655536E+04
       332   9  7.759342E+05  3.101259E+05  2.878556E+05  1.912977E+05 -1.912830E+04  1.862652E+04
       332  10 -1.644917E+06 -2.187563E+05 -2.071978E+05  2.153774E+05 -1.732593E-09  2.208224E-09
       332  11 -1.926040E+06 -2.983348E+05 -2.921332E+05  1.911491E+05 -2.926055E-10 -8.488944E-10
       332  12 -2.230364E+06 -4.360145E+05 -4.351642E+05  2.573601E+05  5.116571E-10 -4.162354E-10
       332  13 -7.280079E+05  2.419503E+03 -1.968193E+04  2.242650E+05 -8.186398E-10  3.925784E-09
       332  14 -7.207512E+05 -5.437490E+03 -3.453257E+04  1.790986E+05  1.886136E-10 -3.102499E-09
       332  15 -7.282518E+05 -6.286433E+04 -7.357483E+04  2.243698E+05  1.343892E-10  4.128938E-10
       332  16  1.897025E+05  2.235428E+05  1.677894E+05  2.331654E+05  1.627584E-09  1.116785E-09
       332  17  4.859095E+05  2.873655E+05  2.229840E+05  1.670235E+05  6.226457E-10  2.706843E-09
       332  18  7.759337E+05  3.101255E+05  2.878542E+05  1.912980E+05 -2.214754E-10  1.318330E-10
       332  19 -1.644916E+06 -2.187532E+05 -2.071920E+05  2.153769E+05  1.320307E+04 -5.377962E+04
       332  20 -1.926036E+06 -2.983306E+05 -2.921217E+05  1.911516E+05 -5.355094E+04 -5.664537E+04
       332  21 -2.230348E+06 -4.360103E+05 -4.351362E+05  2.573619E+05 -1.203185E+05 -1.883905E+04
       332  22 -7.280069E+05  2.422669E+03 -1.967610E+04  2.242656E+05 -1.443640E+04 -5.382999E+04
       332  23 -7.207492E+05 -5.433767E+03 -3.452456E+04  1.791001E+05 -3.253453E+04 -5.659993E+04
       332  24 -7.282490E+05 -6.286326E+04 -7.356934E+04  2.243705E+05 -5.067930E+04 -1.872899E+04
       332  25  1.897052E+05  2.235464E+05  1.677982E+05  2.331673E+05 -4.211602E+04 -5.388112E+04
       332  26  4.859105E+05  2.873689E+05  2.229903E+05  1.670240E+05 -1.147776E+04 -5.655536E+04
       332  27  7.759342E+05  3.101259E+05  2.878556E+05  1.912977E+05  1.912830E+04 -1.862652E+04
       333   1  4.994625E+05  2.144903E+05  2.091450E+05  1.520344E+05  4.318238E+04 -9.867695E+03
       333   2  3.044741E+05  1.560630E+05  1.406788E+05  1.196994E+05  1.385343E+04 -2.931198E+04
       333   3  1.159741E+05  1.085283E+05  9.401233E+04  1.467484E+05 -1.549071E+04 -2.600733E+04
       333   4 -3.335969E+05  7.790442E+03  8.655241E+03  1.471523E+05  6.220433E+03 -9.915607E+03
       333   5 -3.344182E+05  9.182994E+02  3.871471E+03  1.174642E+05  4.213911E+03 -2.932781E+04
       333   6 -3.335222E+05  2.050761E+02  1.925795E+03  1.471625E+05  2.182820E+03 -2.598073E+04
       333   7 -1.166018E+06 -1.989592E+05 -1.918788E+05  1.422766E+05 -3.069213E+04 -9.962976E+03
       333   8 -9.729263E+05 -1.542530E+05 -1.329592E+05  1.152310E+05 -5.415838E+03 -2.934358E+04
       333   9 -7.828258E+05 -1.081307E+05 -9.017031E+04  1.475763E+05  1.984378E+04 -2.595410E+04
       333  10  4.994604E+05  2.144897E+05  2.091413E+05  1.520348E+05 -4.397144E-09  1.058539E-09
       333  11  3.044736E+05  1.560620E+05  1.406768E+05  1.196998E+05 -1.115557E-09  3.218735E-09
       333  12  1.159736E+05  1.085275E+05  9.401061E+04  1.467480E+05  2.883508E-09  8.800078E-10
       333  13 -3.335970E+05  7.790326E+03  8.654983E+03  1.471524E+05  7.683876E-10 -2.215662E-09
       333  14 -3.344185E+05  9.173711E+02  3.869822E+03  1.174643E+05 -8.338963E-10 -6.315123E-09
       333  15 -3.335224E+05  2.043501E+02  1.924518E+03  1.471626E+05  7.221595E-10 -4.425974E-11
       333  16 -1.166019E+06 -1.989596E+05 -1.918808E+05  1.422763E+05  4.453643E-09  8.495300E-10
       333  17 -9.729265E+05 -1.542540E+05 -1.329609E+05  1.152309E+05  4.237255E-10  2.860813E-09
       333  18 -7.828264E+05 -1.081315E+05 -9.017232E+04  1.475767E+05 -2.338042E-09 -2.836456E-12
       333  19  4.994625E+05  2.144903E+05  2.091450E+05  1.520344E+05 -4.318238E+04  9.867695E+03
       333  20  3.044741E+05  1.560630E+05  1.406788E+05  1.196994E+05 -1.385343E+04  2.931198E+04
       333  21  1.159741E+05  1.085283E+05  9.401233E+04  1.467484E+05  1.549071E+04  2.600733E+04
       333  22 -3.335969E+05  7.790442E+03  8.655241E+03  1.471523E+05 -6.220433E+03  9.915607E+03
       333  23 -3.344182E+05  9.182994E+02  3.871471E+03  1.174642E+05 -4.213911E+03  2.932781E+04
       333  24 -3.335222E+05  2.050761E+02  1.925795E+03  1.471625E+05 -2.182820E+03  2.598073E+04
       333  25 -1.166018E+06 -1.989592E+05 -1.918788E+05  1.422766E+05  3.069213E+04  9.962976E+03
       333  26 -9.729263E+05 -1.542530E+05 -1.329592E+05  1.152310E+05  5.415838E+03  2.934358E+04
       333  27 -7.828258E+05 -1.081307E+05 -9.017031E+04  1.475763E+05 -1.984378E+04  2.595410E+04
       334   1 -2.284707E+04  7.573304E+04  6.514533E+04  1.478571E+05 -1.038521E+04 -1.781163E+04
       334   2 -2.145406E+05  2.913895E+04  2.443545E+04  1.172259E+05 -1.181780E+04 -6.959064E+03
       334   3 -4.060620E+05 -1.682998E+04 -1.524004E+04  1.472249E+05 -1.325286E+04  5.063102E+03
       334   4 -3.339062E+05  7.331865E+02  1.267631E+03  1.474367E+05  1.937313E+03 -1.779204E+04
       334   5 -3.338445E+05  3.880906E+02  2.167279E+01  1.171217E+05  1.906306E+03 -6.936488E+03
       334   6 -3.338921E+05  4.261396E+02 -1.163329E+03  1.474373E+05  1.872383E+03  5.088878E+03
       334   7 -6.448731E+05 -7.427268E+04 -6.261466E+04  1.470166E+05  1.425377E+04 -1.777245E+04
       334   8 -4.531345E+05 -2.836356E+04 -2.439215E+04  1.170174E+05  1.562782E+04 -6.913914E+03
       334   9 -2.617166E+05  1.768207E+04  1.291399E+04  1.476498E+05  1.699935E+04  5.114662E+03
       334  10 -2.284727E+04  7.573267E+04  6.514453E+04  1.478569E+05  1.241797E-09 -2.100203E-09
       334  11 -2.145407E+05  2.913886E+04  2.443510E+04  1.172259E+05  2.954603E-10  2.057680E-09
       334  12 -4.060622E+05 -1.683005E+04 -1.524042E+04  1.472250E+05  1.549601E-09  2.824981E-09
       334  13 -3.339063E+05  7.328456E+02  1.267029E+03  1.474368E+05 -5.179836E-10  4.343373E-09
       334  14 -3.338445E+05  3.880379E+02  2.157554E+01  1.171217E+05 -1.706294E-10 -1.216486E-08
       334  15 -3.338921E+05  4.261108E+02 -1.163385E+03  1.474373E+05 -2.761271E-10  3.732422E-09
       334  16 -6.448734E+05 -7.427307E+04 -6.261564E+04  1.470168E+05  6.008405E-10 -4.034885E-09
       334  17 -4.531348E+05 -2.836367E+04 -2.439270E+04  1.170175E+05  6.729837E-11 -4.453248E-09
       334  18 -2.617170E+05  1.768196E+04  1.291340E+04  1.476497E+05 -2.037534E-09 -3.915932E-10
       334  19 -2.284707E+04  7.573304E+04  6.514533E+04  1.478571E+05  1.038521E+04  1.781163E+04
       334  20 -2.145406E+05  2.913895E+04  2.443545E+04  1.172259E+05  1.181780E+04  6.959064E+03
       334  21 -4.060620E+05 -1.682998E+04 -1.524004E+04  1.472249E+05  1.325286E+04 -5.063102E+03
       334  22 -3.339062E+05  7.331865E+02  1.267631E+03  1.474367E+05 -1.937313E+03  1.779204E+04
       334  23 -3.338445E+05  3.880906E+02  2.167279E+01  1.171217E+05 -1.906306E+03  6.936488E+03
       334  24 -3.338921E+05  4.261396E+02 -1.163329E+03  1.474373E+05 -1.872383E+03 -5.088878E+03
       334  25 -6.448731E+05 -7.427268E+04 -6.261466E+04  1.470166E+05 -1.425377E+04  1.777245E+04
       334  26 -4.531345E+05 -2.836356E+04 -2.439215E+04  1.170174E+05 -1.562782E+04  6.913914E+03
       334  27 -2.617166E+05  1.768207E+04  1.291399E+04  1.476498E+05 -1.699935E+04 -5.114662E+03
       335   1 -5.439074E+05 -5.001167E+04 -4.453289E+04  1.468962E+05 -1.309154E+04  1.254198E+04
       335   2 -7.349496E+05 -9.627897E+04 -8.502508E+04  1.167424E+05 -9.324544E+03  2.444359E+04
       335   3 -9.269192E+05 -1.437594E+05 -1.283230E+05  1.471860E+05 -5.552026E+03  3.475697E+04
       335   4 -3.340154E+05  5.262427E+02 -1.849069E+03  1.474288E+05  2.124286E+03  1.256730E+04
       335   5 -3.337259E+05  2.680404E+02 -3.764808E+03  1.171324E+05  3.986513E+03  2.446310E+04
       335   6 -3.340643E+05 -8.690174E+02 -7.160155E+03  1.474310E+05  5.855368E+03  3.477127E+04
       335   7 -1.240809E+05  5.106153E+04  4.083332E+04  1.479616E+05  1.734516E+04  1.259264E+04
       335   8  6.765154E+04  9.680514E+04  7.748778E+04  1.175226E+05  1.730602E+04  2.448262E+04
       335   9  2.591254E+05  1.419994E+05  1.139846E+05  1.476760E+05  1.727347E+04  3.478556E+04
       335  10 -5.439076E+05 -5.001188E+04 -4.453351E+04  1.468963E+05  3.948303E-09 -2.163911E-09
       335  11 -7.349498E+05 -9.627963E+04 -8.502637E+04  1.167426E+05  5.548421E-10 -4.068814E-09
       335  12 -9.269195E+05 -1.437607E+05 -1.283253E+05  1.471862E+05 -9.596080E-10 -2.898058E-09
       335  13 -3.340154E+05  5.260719E+02 -1.849375E+03  1.474288E+05  2.750391E-10 -5.037287E-11
       335  14 -3.337261E+05  2.673936E+02 -3.765962E+03  1.171323E+05 -1.404047E-09 -1.171223E-09
       335  15 -3.340646E+05 -8.703246E+02 -7.162490E+03  1.474308E+05  4.831268E-10 -8.018047E-10
       335  16 -1.240813E+05  5.106128E+04  4.083245E+04  1.479614E+05 -2.978586E-09 -3.800446E-09
       335  17  6.765106E+04  9.680441E+04  7.748609E+04  1.175222E+05 -1.412099E-09  3.072225E-09
       335  18  2.591247E+05  1.419980E+05  1.139817E+05  1.476755E+05  1.272280E-09  3.481154E-09
       335  19 -5.439074E+05 -5.001167E+04 -4.453289E+04  1.468962E+05  1.309154E+04 -1.254198E+04
       335  20 -7.349496E+05 -9.627897E+04 -8.502508E+04  1.167424E+05  9.324544E+03 -2.444359E+04
       335  21 -9.269192E+05 -1.437594E+05 -1.283230E+05  1.471860E+05  5.552026E+03 -3.475697E+04
       335  22 -3.340154E+05  5.262427E+02 -1.849069E+03  1.474288E+05 -2.124286E+03 -1.256730E+04
       335  23 -3.337259E+05  2.680404E+02 -3.764808E+03  1.171324E+05 -3.986513E+03 -2.446310E+04
       335  24 -3.340643E+05 -8.690174E+02 -7.160155E+03  1.474310E+05 -5.855368E+03 -3.477127E+04
       335  25 -1.240809E+05  5.106153E+04  4.083332E+04  1.479616E+05 -1.734516E+04 -1.259264E+04
       335  26  6.765154E+04  9.680514E+04  7.748778E+04  1.175226E+05 -1.730602E+04 -2.448262E+04
       335  27  2.591254E+05  1.419994E+05  1.139846E+05  1.476760E+05 -1.727347E+04 -3.478556E+04
       336   1 -1.066842E+06 -1.751393E+05 -1.584746E+05  1.427132E+05 -1.135365E+04  4.319126E+04
       336   2 -1.251769E+06 -2.259634E+05 -2.125010E+05  1.233274E+05  3.309842E+04  4.367806E+04
       336   3 -1.449918E+06 -3.067673E+05 -3.029927E+05  1.629009E+05  7.755675E+04  1.425808E+04
       336   4 -3.355206E+05  1.103253E+03 -9.246495E+03  1.470599E+05  7.083020E+03  4.321268E+04
       336   5 -3.320708E+05 -2.660511E+03 -1.645937E+04  1.175976E+05  1.571813E+04  4.365327E+04
       336   6 -3.356348E+05 -3.015324E+04 -3.522246E+04  1.470932E+05  2.437429E+04  1.420566E+04
       336   7  3.963108E+05  1.773125E+05  1.399547E+05  1.514117E+05  2.554103E+04  4.323435E+04
       336   8  5.884256E+05  2.205876E+05  1.795347E+05  1.118589E+05 -1.687583E+03  4.362882E+04
       336   9  7.797943E+05  2.463728E+05  2.324703E+05  1.312566E+05 -2.890346E+04  1.415602E+04
       336  10 -1.066843E+06 -1.751413E+05 -1.584783E+05  1.427136E+05  1.128819E-09 -3.938918E-09
       336  11 -1.251770E+06 -2.259658E+05 -2.125066E+05  1.233263E+05 -1.659528E-09 -3.202996E-10
       336  12 -1.449925E+06 -3.067691E+05 -3.030044E+05  1.629000E+05  4.495775E-10 -1.206641E-09
       336  13 -3.355211E+05  1.101235E+03 -9.250098E+03  1.470597E+05 -4.350441E-12  1.409237E-10
       336  14 -3.320716E+05 -2.662623E+03 -1.646341E+04  1.175970E+05 -1.325471E-09 -3.658000E-09
       336  15 -3.356355E+05 -3.015362E+04 -3.522396E+04  1.470929E+05  9.229432E-11 -1.056545E-09
       336  16  3.963096E+05  1.773104E+05  1.399499E+05  1.514108E+05 -5.410360E-10  1.713016E-09
       336  17  5.884251E+05  2.205855E+05  1.795311E+05  1.118589E+05  8.983209E-10  2.642421E-09
       336  18  7.797933E+05  2.463724E+05  2.324684E+05  1.312569E+05  4.728999E-10  3.423820E-10
       336  19 -1.066842E+06 -1.751393E+05 -1.584746E+05  1.427132E+05  1.135365E+04 -4.319126E+04
       336  20 -1.251769E+06 -2.259634E+05 -2.125010E+05  1.233274E+05 -3.309842E+04 -4.367806E+04
       336  21 -1.449918E+06 -3.067673E+05 -3.029927E+05  1.629009E+05 -7.755675E+04 -1.425808E+04
       336  22 -3.355206E+05  1.103253E+03 -9.246495E+03  1.470599E+05 -7.083020E+03 -4.321268E+04
       336  23 -3.320708E+05 -2.660511E+03 -1.645937E+04  1.175976E+05 -1.571813E+04 -4.365327E+04
       336  24 -3.356348E+05 -3.015324E+04 -3.522246E+04  1.470932E+05 -2.437429E+04 -1.420566E+04
       336  25  3.963108E+05  1.773125E+05  1.399547E+05  1.514117E+05 -2.554103E+04 -4.323435E+04
       336  26  5.884256E+05  2.205876E+05  1.795347E+05  1.118589E+05  1.687583E+03 -4.362882E+04
       336  27  7.797943E+05  2.463728E+05  2.324703E+05  1.312566E+05  2.890346E+04 -1.415602E+04
       337   1  2.138175E+05  8.961476E+04  8.944417E+04  7.696530E+04  2.284854E+04 -3.393916E+03
       337   2  1.207311E+05  5.410736E+04  5.381950E+04  5.854586E+04  8.876834E+03 -9.561829E+03
       337   3  3.242685E+04  3.056447E+04  3.027409E+04  6.834290E+04 -5.098099E+03 -7.112221E+03
       337   4 -9.524700E+04  1.287560E+04  1.484661E+04  6.979059E+04  1.028322E+04 -3.403454E+03
       337   5 -9.673090E+04  1.232956E+03  6.929986E+03  5.568722E+04  6.657282E+03 -9.563834E+03
       337   6 -9.523538E+04 -2.383682E+02  3.911250E+03  6.980024E+04  3.025858E+03 -7.105522E+03
       337   7 -4.042238E+05 -6.387028E+04 -5.975718E+04  6.261943E+04 -2.275878E+03 -3.412704E+03
       337   8 -3.141484E+05 -5.164453E+04 -3.996229E+04  5.282959E+04  4.438496E+03 -9.565820E+03
       337   9 -2.228820E+05 -3.104220E+04 -2.245222E+04  7.125727E+04  1.114817E+04 -7.098784E+03
       337  10  2.138170E+05  8.961461E+04  8.944317E+04  7.696536E+04 -1.682250E-09 -1.528018E-09
       337  11  1.207310E+05  5.410724E+04  5.381918E+04  5.854593E+04 -1.666447E-09 -5.249733E-10
       337  12  3.242681E+04  3.056441E+04  3.027395E+04  6.834287E+04 -8.089882E-10  1.525526E-09
       337  13 -9.524712E+04  1.287556E+04  1.484639E+04  6.979061E+04 -3.408926E-10  3.005538E-09
       337  14 -9.673097E+04  1.232846E+03  6.929731E+03  5.568727E+04 -1.164227E-09 -1.451823E-10
       337  15 -9.523540E+04 -2.384249E+02  3.911138E+03  6.980026E+04 -8.805246E-10 -4.649734E-10
       337  16 -4.042238E+05 -6.387029E+04 -5.975721E+04  6.261943E+04  1.662275E-09 -2.080687E-10
       337  17 -3.141485E+05 -5.164463E+04 -3.996250E+04  5.282962E+04  2.041319E-09 -1.855385E-09
       337  18 -2.228822E+05 -3.104228E+04 -2.245255E+04  7.125733E+04 -8.979190E-11 -4.690005E-10
       337  19  2.138175E+05  8.961476E+04  8.944417E+04  7.696530E+04 -2.284854E+04  3.393916E+03
       337  20  1.207311E+05  5.410736E+04  5.381950E+04  5.854586E+04 -8.876834E+03  9.561829E+03
       337  21  3.242685E+04  3.056447E+04  3.027409E+04  6.834290E+04  5.098099E+03  7.112221E+03
       337  22 -9.524700E+04  1.287560E+04  1.484661E+04  6.979059E+04 -1.028322E+04  3.403454E+03
       337  23 -9.673090E+04  1.232956E+03  6.929986E+03  5.568722E+04 -6.657282E+03  9.563834E+03
       337  24 -9.523538E+04 -2.383682E+02  3.911250E+03  6.980024E+04 -3.025858E+03  7.105522E+03
       337  25 -4.042238E+05 -6.387028E+04 -5.975718E+04  6.261943E+04  2.275878E+03  3.412704E+03
       337  26 -3.141484E+05 -5.164453E+04 -3.996229E+04  5.282959E+04 -4.438496E+03  9.565820E+03
       337  27 -2.228820E+05 -3.104220E+04 -2.245222E+04  7.125727E+04 -1.114817E+04  7.098784E+03
       338   1 -3.359109E+04  1.566603E+04  1.600988E+04  7.009689E+04 -3.604908E+03 -3.314667E+03
       338   2 -1.243462E+05 -6.686599E+03 -3.947377E+03  5.556724E+04 -4.922110E+03  1.982327E+03
       338   3 -2.148317E+05 -2.846844E+04 -2.291830E+04  6.971747E+04 -6.239263E+03  7.706855E+03
       338   4 -9.585611E+04  6.157574E+02  3.029661E+03  6.990109E+04  2.495674E+03 -3.309479E+03
       338   5 -9.594407E+04  1.044220E+02  1.602102E+03  5.556143E+04  1.691172E+03  1.987846E+03
       338   6 -9.585781E+04  7.567727E+01  8.054405E+02  6.990154E+04  8.865418E+02  7.712720E+03
       338   7 -1.581174E+05 -1.443474E+04 -9.950636E+03  6.970531E+04  8.595654E+03 -3.304295E+03
       338   8 -6.754104E+04  6.895418E+03  7.151708E+03  5.555561E+04  8.304751E+03  1.993365E+03
       338   9  2.312975E+04  2.861896E+04  2.452866E+04  7.008565E+04  8.013685E+03  7.718589E+03
       338  10 -3.359111E+04  1.566602E+04  1.600984E+04  7.009688E+04 -1.697592E-09 -4.776646E-10
       338  11 -1.243463E+05 -6.686610E+03 -3.947430E+03  5.556725E+04 -6.788874E-10 -1.842059E-09
       338  12 -2.148318E+05 -2.846852E+04 -2.291848E+04  6.971751E+04  1.329969E-09  1.895143E-10
       338  13 -9.585612E+04  6.157440E+02  3.029629E+03  6.990109E+04 -2.715652E-10  3.329020E-10
       338  14 -9.594407E+04  1.044170E+02  1.602090E+03  5.556142E+04 -1.199331E-09  2.712625E-09
       338  15 -9.585783E+04  7.561318E+01  8.053272E+02  6.990154E+04  5.899590E-10 -5.934093E-10
       338  16 -1.581175E+05 -1.443478E+04 -9.950796E+03  6.970533E+04  1.837216E-09  1.498798E-09
       338  17 -6.754111E+04  6.895395E+03  7.151571E+03  5.555560E+04  5.714467E-10  1.272002E-09
       338  18  2.312966E+04  2.861888E+04  2.452843E+04  7.008560E+04 -1.099058E-09  6.328695E-10
       338  19 -3.359109E+04  1.566603E+04  1.600988E+04  7.009689E+04  3.604908E+03  3.314667E+03
       338  20 -1.243462E+05 -6.686599E+03 -3.947377E+03  5.556724E+04  4.922110E+03 -1.982327E+03
       338  21 -2.148317E+05 -2.846844E+04 -2.291830E+04  6.971747E+04  6.239263E+03 -7.706855E+03
       338  22 -9.585611E+04  6.157574E+02  3.029661E+03  6.990109E+04 -2.495674E+03  3.309479E+03
       338  23 -9.594407E+04  1.044220E+02  1.602102E+03  5.556143E+04 -1.691172E+03 -1.987846E+03
       338  24 -9.585781E+04  7.567727E+01  8.054405E+02  6.990154E+04 -8.865418E+02 -7.712720E+03
       338  25 -1.581174E+05 -1.443474E+04 -9.950636E+03  6.970531E+04 -8.595654E+03  3.304295E+03
       338  26 -6.754104E+04  6.895418E+03  7.151708E+03  5.555561E+04 -8.304751E+03 -1.993365E+03
       338  27  2.312975E+04  2.861896E+04  2.452866E+04  7.008565E+04 -8.013685E+03 -7.718589E+03
       339   1 -2.800121E+05 -4.416211E+04 -3.672681E+04  6.973269E+04 -6.458887E+03  1.124295E+04
       339   2 -3.705034E+05 -6.599018E+04 -5.548679E+04  5.541026E+04 -5.426452E+03  1.682923E+04
       339   3 -4.612061E+05 -8.804184E+04 -7.498379E+04  6.974222E+04 -4.392160E+03  2.153971E+04
       339   4 -9.590876E+04  1.164936E+02  5.213968E+02  6.989561E+04  7.662994E+02  1.124859E+04
       339   5 -9.589829E+04  4.988966E+01  3.232644E+01  5.556886E+04  7.478772E+02  1.683319E+04
       339   6 -9.592442E+04 -5.731017E+01 -4.635599E+02  6.989574E+04  7.314589E+02  2.154218E+04
       339   7  8.822696E+04  4.439302E+04  3.776804E+04  7.005857E+04  7.993588E+03  1.125423E+04
       339   8  1.787788E+05  6.608530E+04  5.554769E+04  5.572752E+04  6.924887E+03  1.683714E+04
       339   9  2.694842E+05  8.791889E+04  7.404974E+04  7.004931E+04  5.858039E+03  2.154466E+04
       339  10 -2.800122E+05 -4.416226E+04 -3.672712E+04  6.973275E+04  2.030944E-09 -3.540664E-11
       339  11 -3.705035E+05 -6.599049E+04 -5.548737E+04  5.541033E+04 -1.067829E-10  2.136128E-09
       339  12 -4.612062E+05 -8.804234E+04 -7.498469E+04  6.974230E+04 -6.807621E-10 -1.811768E-09
       339  13 -9.590880E+04  1.163576E+02  5.211580E+02  6.989560E+04  3.423963E-10 -3.140014E-09
       339  14 -9.589836E+04  4.958525E+01  3.179293E+01  5.556885E+04 -1.519447E-09 -7.203016E-10
       339  15 -9.592455E+04 -5.780861E+01 -4.644329E+02  6.989572E+04 -2.290620E-10 -2.331416E-09
       339  16  8.822685E+04  4.439287E+04  3.776769E+04  7.005850E+04 -1.787316E-09 -1.860750E-09
       339  17  1.787787E+05  6.608498E+04  5.554706E+04  5.572743E+04  1.271910E-10 -3.476715E-09
       339  18  2.694841E+05  8.791838E+04  7.404880E+04  7.004921E+04  9.823990E-10  3.021255E-10
       339  19 -2.800121E+05 -4.416211E+04 -3.672681E+04  6.973269E+04  6.458887E+03 -1.124295E+04
       339  20 -3.705034E+05 -6.599018E+04 -5.548679E+04  5.541026E+04  5.426452E+03 -1.682923E+04
       339  21 -4.612061E+05 -8.804184E+04 -7.498379E+04  6.974222E+04  4.392160E+03 -2.153971E+04
       339  22 -9.590876E+04  1.164936E+02  5.213968E+02  6.989561E+04 -7.662994E+02 -1.124859E+04
       339  23 -9.589829E+04  4.988966E+01  3.232644E+01  5.556886E+04 -7.478772E+02 -1.683319E+04
       339  24 -9.592442E+04 -5.731017E+01 -4.635599E+02  6.989574E+04 -7.314589E+02 -2.154218E+04
       339  25  8.822696E+04  4.439302E+04  3.776804E+04  7.005857E+04 -7.993588E+03 -1.125423E+04
       339  26  1.787788E+05  6.608530E+04  5.554769E+04  5.572752E+04 -6.924887E+03 -1.683714E+04
       339  27  2.694842E+05  8.791889E+04  7.404974E+04  7.004931E+04 -5.858039E+03 -2.154466E+04
       340   1 -5.269490E+05 -1.036367E+05 -8.847083E+04  6.916026E+04 -8.145835E+03  2.560625E+04
       340   2 -6.156382E+05 -1.263892E+05 -1.120349E+05  5.624056E+04  1.216897E+04  2.494621E+04
       340   3 -7.083369E+05 -1.547445E+05 -1.502266E+05  7.110408E+04  3.248426E+04  8.001786E+03
       340   4 -9.606592E+04  1.227021E+02 -7.191203E+02  6.970182E+04  8.120937E+02  2.561039E+04
       340   5 -9.576809E+04 -2.643717E+02 -1.497521E+03  5.581134E+04  1.603101E+03  2.493961E+04
       340   6 -9.609518E+04 -2.860608E+03 -3.337237E+03  6.970316E+04  2.398047E+03  7.990545E+03
       340   7  3.349940E+05  1.038706E+05  8.702315E+04  7.024372E+04  9.776128E+03  2.561453E+04
       340   8  4.243571E+05  1.258430E+05  1.090248E+05  5.538172E+04 -8.971490E+03  2.493302E+04
       340   9  5.164921E+05  1.489965E+05  1.435290E+05  6.830080E+04 -2.771774E+04  7.979447E+03
       340  10 -5.269492E+05 -1.036374E+05 -8.847219E+04  6.916043E+04 -2.283559E-09 -1.344344E-09
       340  11 -6.156385E+05 -1.263899E+05 -1.120364E+05  5.624031E+04 -9.263989E-11  1.436998E-09
       340  12 -7.083381E+05 -1.547449E+05 -1.502287E+05  7.110387E+04  1.693365E-09  2.286222E-09
       340  13 -9.606609E+04  1.219977E+02 -7.203540E+02  6.970180E+04 -5.394590E-10 -1.341899E-09
       340  14 -9.576826E+04 -2.650403E+02 -1.498695E+03  5.581131E+04  7.067245E-11  9.833403E-11
       340  15 -9.609520E+04 -2.860678E+03 -3.337367E+03  6.970314E+04  4.108923E-10 -1.014143E-09
       340  16  3.349937E+05  1.038698E+05  8.702174E+04  7.024352E+04  3.222218E-09 -1.889703E-10
       340  17  4.243569E+05  1.258423E+05  1.090235E+05  5.538190E+04  2.948796E-10  1.403316E-09
       340  18  5.164912E+05  1.489963E+05  1.435274E+05  6.830097E+04 -1.892085E-09 -4.636695E-10
       340  19 -5.269490E+05 -1.036367E+05 -8.847083E+04  6.916026E+04  8.145835E+03 -2.560625E+04
       340  20 -6.156382E+05 -1.263892E+05 -1.120349E+05  5.624056E+04 -1.216897E+04 -2.494621E+04
       340  21 -7.083369E+05 -1.547445E+05 -1.502266E+05  7.110408E+04 -3.248426E+04 -8.001786E+03
       340  22 -9.606592E+04  1.227021E+02 -7.191203E+02  6.970182E+04 -8.120937E+02 -2.561039E+04
       340  23 -9.576809E+04 -2.643717E+02 -1.497521E+03  5.581134E+04 -1.603101E+03 -2.493961E+04
       340  24 -9.609518E+04 -2.860608E+03 -3.337237E+03  6.970316E+04 -2.398047E+03 -7.990545E+03
       340  25  3.349940E+05  1.038706E+05  8.702315E+04  7.024372E+04 -9.776128E+03 -2.561453E+04
       340  26  4.243571E+05  1.258430E+05  1.090248E+05  5.538172E+04  8.971490E+03 -2.493302E+04
       340  27  5.164921E+05  1.489965E+05  1.435290E+05  6.830080E+04  2.771774E+04 -7.979447E+03
